coord_x,coord_y,stress_xx,stress_yy,tau_xy,velocity_x,velocity_y,stress_1,eps,damage,lx,ly
4.9999577e+0, 1.2422888e+2, -1694807.4, -1924291.9, 10107.694, -0.057721008, 0.052959383, -1694363.0, 28193.082, 0.0026923823, 10.000959, 9.998095 
4.9997514e+0, 1.3422987e+2, -1738893.6, -1799952.4, 52093.69, -0.0089954445, 0.19807373, -1709042.5, -84485.63, 0.0015911749, 9.999621, 9.99891 
4.99974e+0, 1.442274e+2, -1527606.3, -1390534.9, 96724.055, 0.0056316447, -0.040040415, -1340526.5, 186055.11, 0.0007108368, 9.999308, 10.001189 
4.999957e+0, 1.5422933e+2, -1264936.3, -1189949.5, 3848.3047, -0.024002474, -0.037088558, -1189752.5, 238797.95, 0.00020845741, 10.00034, 10.001397 
5.000211e+0, 1.6423008e+2, -1338499.5, -1527288.3, -45488.387, -0.015357798, 0.04690167, -1328110.9, 2427.5513, 0.000030560106, 10.000683, 9.998247 
5.0004846e+0, 1.7422809e+2, -1351655.3, -1518638.6, -6687.414, 0.04232171, 0.007402464, -1351387.9, -118824.64, 0.0000010193884, 10.000073, 9.997927 
5.0004685e+0, 1.8422708e+2, -1159340.1, -1133532.4, 9596.323, 0.059512813, 0.017730348, -1130355.3, 4218.9355, 0.0, 9.999692, 10.000076 
5.000039e+0, 1.9422731e+2, -1068967.1, -1028594.44, -63878.414, 0.021898288, -0.02383063, -981788.7, 54778.34, 0.0, 9.99959, 10.000177 
4.9997705e+0, 2.0422682e+2, -1034493.1, -1079217.0, -72197.29, -0.009042409, -0.03658957, -981273.94, -42705.113, 0.0, 9.999671, 9.999112 
4.9996653e+0, 2.1422508e+2, -900444.8, -980338.75, -46552.723, -0.03546542, -0.1552587, -879049.1, -38463.457, 0.0, 9.999986, 9.998969 
4.9996766e+0, 2.2422385e+2, -808339.3, -900997.94, -19213.846, -0.035515267, -0.16431978, -804513.06, -61912.89, 0.0, 10.000016, 9.998826 
4.999861e+0, 2.3422308e+2, -764128.56, -833271.56, -7178.925, 0.0003484412, -0.16727352, -763391.06, -118777.59, 0.0, 9.999664, 9.998789 
4.9999e+0, 2.4422383e+2, -572418.3, -511845.5, 494.38037, 0.010994791, -0.041625284, -511841.47, 34766.258, 0.0, 9.999536, 10.000384 
4.9997687e+0, 2.5422618e+2, -443157.25, -395642.22, -55574.547, -0.012609592, 0.10295894, -358960.1, 89620.36, 0.000000000017365094, 9.999735, 10.000415 
4.9997053e+0, 2.642259e+2, -459734.84, -548321.25, -57000.047, -0.021433622, 0.11812925, -431841.53, -81259.84, 0.000000288742, 9.999793, 9.998662 
4.999736e+0, 2.7422217e+2, -397049.1, -484757.44, -13619.678, -0.010403443, -0.14858371, -394982.84, -142363.03, 0.0000032414011, 9.999622, 9.9985075 
4.9996805e+0, 2.8422177e+2, -275598.8, -268907.7, 10287.471, -0.0010853107, -0.080661595, -261435.45, -106808.19, 0.00001724438, 9.99933, 9.999451 
4.999415e+0, 2.9422435e+2, -235204.92, -189030.72, -10906.76, -0.006104475, 0.17970622, -186584.08, -129976.11, 0.000074921634, 9.998878, 9.999547 
4.9994785e+0, 3.0422324e+2, -206083.75, -236779.03, 1463.0802, -0.011056346, 0.14666788, -206014.17, -206014.17, 0.0002850154, 9.999117, 9.998771 
5.00011e+0, 3.142205e+2, 235626.13, 421425.63, -28759.37, -0.004387407, -0.049109083, 425775.38, 425775.38, 0.0007432572, 10.000174, 10.002801 
1.4999814e+1, 1.2422761e+2, -1618572.0, -1710740.1, -62124.457, -0.17675051, -0.15331244, -1587305.0, 135261.44, 0.0025889925, 10.00076, 9.999668 
1.4999288e+1, 1.3423172e+2, -1638346.6, -1563240.4, 8265.395, -0.022516655, 0.17746586, -1562341.5, 62188.336, 0.0015350278, 9.999528, 10.000594 
1.4999218e+1, 1.4423e+2, -1680904.4, -1674446.4, 120084.914, 0.018250603, 0.00938065, -1557547.1, -30999.443, 0.00068435894, 9.999175, 9.999316 
1.499987e+1, 1.5422888e+2, -1437312.0, -1519154.4, 51647.676, -0.071407795, -0.04462313, -1412339.1, 16216.871, 0.00019662973, 10.000235, 9.999197 
1.5000655e+1, 1.6422828e+2, -1278227.9, -1372628.5, -71605.12, -0.043097172, -0.03024351, -1239666.0, 90893.68, 0.000026649353, 10.000568, 9.999374 
1.5001498e+1, 1.7422743e+2, -1263644.4, -1313943.0, -21284.879, 0.13014823, -0.074126564, -1255846.3, -23280.617, 0.00000066228677, 9.999983, 9.999388 
1.5001376e+1, 1.8422629e+2, -1283057.5, -1351305.1, -2048.968, 0.17762175, -0.09283178, -1282996.0, -148419.2, 0.0, 9.999546, 9.998658 
1.5000126e+1, 1.942248e+2, -1204572.4, -1278509.3, -58256.215, 0.06711779, -0.117623664, -1172544.8, -135950.55, 0.0, 9.999467, 9.99853 
1.499929e+1, 2.0422448e+2, -1004370.2, -975973.3, -67526.18, -0.027089478, -0.061381303, -921169.0, 17429.928, 0.0, 9.999519, 9.999899 
1.499898e+1, 2.1422556e+2, -853979.6, -843520.8, -23614.318, -0.10673988, 0.02478683, -824563.8, 16024.26, 0.0, 9.999831, 9.999989 
1.499902e+1, 2.2422612e+2, -779571.6, -804001.44, -39855.484, -0.10534167, 0.10373697, -750101.25, -7517.7534, 0.0, 9.999876, 9.999565 
1.4999557e+1, 2.3422603e+2, -738956.06, -741793.9, -10541.769, 0.00028430903, 0.1242799, -729738.2, -85151.23, 0.0, 9.999516, 9.999495 
1.4999712e+1, 2.4422511e+2, -668372.56, -682308.75, -924.81464, 0.033751637, 0.09570851, -668311.5, -121715.07, 0.0, 9.999425, 9.999275 
1.499929e+1, 2.542228e+2, -548208.6, -573197.4, -39858.105, -0.038818333, -0.08214573, -518932.47, -70316.31, 0.0, 9.999576, 9.999279 
1.4999126e+1, 2.6422197e+2, -387618.44, -367277.25, -70247.18, -0.062504515, -0.12711653, -306468.22, 44154.62, 0.00000013049092, 9.999679, 9.999968 
1.4999236e+1, 2.7422315e+2, -318297.97, -283932.5, -12821.629, -0.028398715, -0.027930632, -279676.0, -27065.47, 0.0000023602508, 9.999474, 9.999969 
1.4999002e+1, 2.842237e+2, -305137.1, -297818.4, -12524.318, -0.0058224043, 0.063237876, -288429.78, -133823.86, 0.000014211254, 9.999212, 9.999315 
1.499824e+1, 2.9422233e+2, -278055.44, -232157.28, -14044.536, -0.019884944, -0.024182761, -228200.8, -171578.92, 0.0000647229, 9.99869, 9.9993515 
1.4998463e+1, 3.0422065e+2, -266440.2, -314259.5, 31963.686, -0.026591593, -0.077104606, -250433.08, -250433.08, 0.00025372737, 9.998966, 9.99832 
1.5000327e+1, 3.1422022e+2, 98344.28, 219220.9, 46447.246, -0.009300051, 0.047722016, 235006.84, 235006.84, 0.0006708774, 9.999868, 10.001568 
2.4999848e+1, 1.24227256e+2, -1862002.0, -1787301.0, -46140.957, -0.14884599, -0.21843514, -1765287.8, -42719.63, 0.002469872, 9.99893, 10.000006 
2.4999142e+1, 1.3423193e+2, -1423983.6, -1426261.6, -97542.85, -0.0494487, 0.12622999, -1327573.1, 296950.13, 0.001465867, 10.000877, 10.000878 
2.4999127e+1, 1.4423054e+2, -1401678.9, -1629024.3, 18185.355, -0.01746992, 0.015064863, -1400233.4, 126304.64, 0.0006493342, 10.001494, 9.998494 
2.500025e+1, 1.5422848e+2, -1480276.1, -1647625.3, 34896.246, -0.059704732, -0.04964854, -1473291.0, -44730.473, 0.00018140074, 10.000412, 9.99822 
2.5001237e+1, 1.6422755e+2, -1318926.5, -1334141.1, -27068.41, -0.010802805, -0.03740357, -1298416.8, 32151.916, 0.000022322774, 10.000057, 9.999867 
2.500205e+1, 1.7422733e+2, -1126151.3, -1174392.1, -46346.293, 0.15901284, -0.08764159, -1098024.5, 134540.2, 0.00000035252413, 10.000642, 10.000008 
2.5001827e+1, 1.8422629e+2, -1108092.1, -1338172.5, -9234.601, 0.19811401, -0.09897252, -1107722.1, 26852.021, 0.0, 10.001045, 9.99802 
2.5000378e+1, 1.9422431e+2, -1024076.6, -1269626.8, -1451.5496, 0.071540974, -0.10892053, -1024068.06, 12532.029, 0.0, 10.001049, 9.997817 
2.4999388e+1, 2.0422377e+2, -862977.44, -914549.3, 9840.897, -0.014167418, -0.035160564, -861163.4, 77445.61, 0.0, 10.000507, 9.999842 
2.4999046e+1, 2.1422495e+2, -956448.9, -895065.6, -28632.596, -0.043292306, 0.054243896, -883783.44, -43186.273, 0.0, 9.999133, 9.999965 
2.4998876e+1, 2.2422579e+2, -922956.5, -843304.1, -45578.207, -0.04748847, 0.15027943, -822603.44, -80014.375, 0.0, 9.9987545, 9.999827 
2.4998984e+1, 2.3422612e+2, -698553.06, -694122.56, -52005.645, -0.011650004, 0.17570783, -644285.0, 301.58243, 0.0, 9.999658, 9.999745 
2.4999088e+1, 2.4422495e+2, -633346.5, -702570.75, -25218.678, 0.012405236, 0.12550099, -625133.6, -78535.71, 0.0, 9.999836, 9.998927 
2.499917e+1, 2.542215e+2, -655461.8, -674026.4, -13044.424, 0.023348987, -0.13235682, -648734.2, -200104.02, 0.0, 9.999048, 9.998835 
2.4999051e+1, 2.6422048e+2, -488155.16, -392856.38, -4905.191, 0.0059904465, -0.17615074, -392604.56, -41965.637, 0.00000003137998, 9.998901, 10.000156 
2.4998625e+1, 2.742229e+2, -279958.3, -235480.7, -49509.277, -0.038887117, 0.016176596, -203444.9, 49169.203, 0.0000016165861, 9.999626, 10.000216 
2.4998166e+1, 2.8422344e+2, -172552.88, -257602.11, -83193.33, -0.055620115, 0.10325376, -121645.84, 32962.36, 0.000011342512, 10.000221, 9.999102 
2.499771e+1, 2.9422072e+2, -22616.766, -132369.53, -95147.06, -0.028108133, -0.10540147, 32344.828, 88980.02, 0.00005395602, 10.000562, 9.999125 
2.4998319e+1, 3.0421942e+2, -44995.695, -231139.1, 5341.893, -0.008655376, -0.099242575, -44842.523, -44842.523, 0.00022021512, 10.000592, 9.998114 
2.5000757e+1, 3.1421882e+2, 55246.37, 78169.4, 22653.576, 0.05123627, 0.019810315, 92095.89, 92095.89, 0.00059438485, 10.000109, 10.000472 
3.499987e+1, 1.2422781e+2, -1934788.6, -1912070.0, 4192.673, -0.08680768, -0.18069513, -1911321.0, -188759.66, 0.0023442989, 9.998831, 9.999197 
3.499906e+1, 1.3423051e+2, -1481730.9, -1538889.6, -18535.803, -0.16996528, 0.062405124, -1476246.3, 148290.38, 0.0013882996, 10.000864, 10.000105 
3.4999183e+1, 1.44229e+2, -1380960.3, -1572665.3, -22884.879, -0.1893197, -0.039948907, -1378266.1, 148287.08, 0.0006086515, 10.001439, 9.998905 
3.5000837e+1, 1.5422812e+2, -1447319.0, -1567018.8, 4087.3486, -0.06873875, -0.037858926, -1447179.6, -18615.52, 0.00016439817, 10.000369, 9.998789 
3.5001823e+1, 1.6422786e+2, -1325746.5, -1335570.6, -20145.176, 0.01864774, 0.009065753, -1309923.3, 20642.225, 0.000017966355, 9.999995, 9.999896 
3.5001934e+1, 1.7422761e+2, -1133845.6, -1183667.5, -14893.21, 0.05939679, -0.03351475, -1129733.1, 102828.88, 0.00000014192928, 10.00061, 9.999965 
3.5001603e+1, 1.8422693e+2, -1095688.8, -1289615.3, -13938.525, 0.049514364, -0.024229838, -1094692.0, 39875.93, 0.0, 10.000954, 9.998394 
3.500056e+1, 1.9422568e+2, -1005014.4, -1213157.0, 8448.24, -0.038363717, 0.0014870774, -1004672.06, 31913.832, 0.0, 10.000977, 9.998239 
3.4999862e+1, 2.0422453e+2, -927628.8, -1020535.44, -48448.273, -0.036374636, 0.021885842, -906961.75, 31638.625, 0.0, 10.000394, 9.999168 
3.4999648e+1, 2.1422327e+2, -1026591.9, -1012061.0, -71815.12, 0.08213285, -0.05077918, -947144.75, -106532.07, 0.0, 9.999017, 9.999217 
3.4999058e+1, 2.242228e+2, -942668.7, -851452.56, -24705.162, 0.074852325, -0.04473127, -845191.1, -102573.81, 0.0, 9.998621, 9.999836 
3.4997904e+1, 2.3422338e+2, -709611.6, -685806.6, -8810.155, -0.106480695, 0.003965915, -682900.75, -38288.84, 0.0, 9.999532, 9.999863 
3.4997842e+1, 2.4422334e+2, -609905.2, -633879.6, -58524.43, -0.11519589, 0.03673841, -562152.94, -15540.689, 0.0, 9.999748, 9.999444 
3.4999216e+1, 2.5422227e+2, -633242.5, -600948.94, -33738.855, 0.101163186, -0.034307517, -579692.1, -131069.88, 0.0, 9.998938, 9.999388 
3.4999317e+1, 2.6422158e+2, -549433.5, -508405.78, 11003.168, 0.12379407, -0.039023273, -505641.16, -155012.22, 0.0000000045955626, 9.998846, 9.999393 
3.4997627e+1, 2.742215e+2, -354202.16, -366732.88, -10800.0, -0.12492065, -0.0076548043, -347981.72, -95351.37, 0.0000011861115, 9.999524, 9.999366 
3.499695e+1, 2.8422105e+2, -190055.33, -276937.66, -78062.65, -0.2209287, 0.029275766, -144160.55, 10474.037, 0.000009324045, 10.000156, 9.998999 
3.4997556e+1, 2.9421946e+2, -43330.863, -153002.55, -74205.414, -0.12615366, -0.053247087, -5898.549, 50750.164, 0.00004426637, 10.000469, 9.999029 
3.4998727e+1, 3.042193e+2, -28163.604, -192782.22, -18357.469, -0.04710227, 0.057793025, -26141.31, -26141.31, 0.00018818198, 10.000564, 9.99839 
3.5000935e+1, 3.1421632e+2, -14922.786, -57843.184, 35627.664, 0.011874137, -0.086915255, 5208.729, 5208.729, 0.00052315294, 10.000047, 9.999573 
4.5000005e+1, 1.2422791e+2, -1811759.9, -1856152.9, -29363.05, 0.020397566, -0.048235532, -1797147.8, -74583.71, 0.0022184679, 9.999719, 9.999142 
4.499919e+1, 1.3422884e+2, -1703444.9, -1661447.3, -49394.21, -0.15717594, 0.0318563, -1628773.6, -4219.046, 0.0013082918, 9.999417, 9.99996 
4.49996e+1, 1.4422725e+2, -1628863.9, -1633885.3, -37930.39, -0.1824106, -0.09372063, -1593361.1, -66791.12, 0.00056754425, 9.99948, 9.999445 
4.5001733e+1, 1.5422729e+2, -1452093.0, -1507310.4, -31735.758, 0.009340614, -0.05347996, -1437637.4, -9066.78, 0.00014805637, 10.000062, 9.999362 
4.5002574e+1, 1.6422732e+2, -1268890.0, -1329802.5, -18718.756, 0.07858246, 0.0032847943, -1263597.4, 66971.445, 0.000013959289, 10.000483, 9.9997 
4.500178e+1, 1.7422661e+2, -1135924.4, -1216410.4, -46698.16, -0.014802487, -0.060653698, -1114521.4, 118050.53, 0.000000037538413, 10.000722, 9.999693 
4.500128e+1, 1.8422607e+2, -1101411.1, -1215840.5, -54435.906, -0.051598925, -0.05161483, -1079652.5, 54923.957, 0.0, 10.000584, 9.999089 
4.5001048e+1, 1.9422597e+2, -1124695.8, -1184727.5, -22571.902, -0.020072408, 0.01395285, -1117155.8, -80574.71, 0.0, 9.999789, 9.99901 
4.500063e+1, 2.042251e+2, -1013730.9, -1098886.0, -21709.297, 0.030228587, 0.0362327, -1008515.7, -69923.77, 0.0, 9.999955, 9.998845 
4.5000017e+1, 2.1422294e+2, -722639.4, -914023.25, -35247.19, 0.111373626, -0.0832063, -716354.25, 124259.22, 0.0, 10.001306, 9.998792 
4.499919e+1, 2.2422178e+2, -561848.25, -707973.8, 22459.344, 0.09543362, -0.105275415, -558474.2, 184151.58, 0.0, 10.001409, 9.999479 
4.499805e+1, 2.3422197e+2, -696179.0, -720512.75, -11462.214, -0.051064454, -0.061000206, -691630.2, -47004.53, 0.0, 9.999806, 9.9994955 
4.4997928e+1, 2.4422231e+2, -658314.56, -625212.7, -54559.098, -0.05039929, 0.019088509, -584749.4, -38126.355, 0.0, 9.999287, 9.99972 
4.499916e+1, 2.5422263e+2, -419214.25, -464021.47, -60709.99, 0.14191236, 0.054129187, -376906.0, 71713.87, 0.0, 10.000261, 9.999688 
4.499911e+1, 2.642221e+2, -326414.63, -458356.38, -25.831455, 0.13585842, 0.06826495, -326414.63, 24211.148, 0.000000013083459, 10.000633, 9.99887 
4.4997388e+1, 2.742204e+2, -294002.94, -407597.6, -17416.934, -0.12849332, 0.0012254134, -291392.47, -38749.434, 0.0000010541644, 10.000236, 9.998747 
4.499706e+1, 2.8421912e+2, -215221.55, -303082.97, -50979.06, -0.2129898, -0.0046316464, -191856.11, -37200.516, 0.000008050424, 10.00005, 9.998877 
4.4998467e+1, 2.9421794e+2, -83034.27, -184299.56, -66237.47, -0.06385487, -0.03370514, -50293.86, 6371.753, 0.00003666787, 10.000257, 9.99892 
4.49998e+1, 3.0421868e+2, -50721.26, -211453.39, -23944.459, 0.017920433, 0.17547703, -47230.06, -47230.06, 0.00016032506, 10.000432, 9.998324 
4.5001298e+1, 3.1421494e+2, -29473.97, -124981.06, -19716.72, 0.04741927, -0.04366944, -25563.697, -25563.697, 0.00046162336, 10.0002, 9.999033 
5.499924e+1, 1.2422785e+2, -1760967.5, -1786526.5, -68431.414, -0.09478162, 0.19122706, -1704132.5, 18440.813, 0.0020911084, 9.999845, 9.999568 
5.499917e+1, 1.342269e+2, -1660862.8, -1598568.8, -51904.0, -0.13664459, 0.036731135, -1569183.4, 55393.42, 0.0012261746, 9.999511, 10.000352 
5.500016e+1, 1.4422527e+2, -1580227.6, -1540971.3, -31171.85, -0.10851298, -0.14225236, -1523762.6, 2825.8755, 0.0005263589, 9.99951, 10.00007 
5.500258e+1, 1.5422602e+2, -1405131.9, -1416130.6, -1208.59, 0.05899934, -0.091676004, -1405000.6, 23578.896, 0.00013276051, 10.000087, 9.999977 
5.5003023e+1, 1.64226e+2, -1306244.0, -1400208.8, -17267.826, 0.048495874, -0.053850267, -1303171.3, 27407.254, 0.0000106646075, 10.000454, 9.999228 
5.5001163e+1, 1.7422418e+2, -1176113.1, -1296438.9, -29284.143, -0.17675523, -0.17357956, -1169364.6, 63230.81, 0.000000007551507, 10.000711, 9.9991455 
5.5000573e+1, 1.8422374e+2, -1037628.75, -1072379.8, -91638.56, -0.20497663, -0.17456347, -961733.0, 172866.55, 0.0, 10.000534, 10.000098 
5.500151e+1, 1.9422519e+2, -1049497.1, -1020236.6, -45187.17, 0.020369628, -0.06725332, -987370.3, 49215.133, 0.0, 9.999754, 10.000155 
5.500136e+1, 2.0422547e+2, -1024918.8, -1100656.9, 16007.382, 0.085612886, 0.0062505384, -1021674.56, -83091.12, 0.0, 9.999869, 9.998871 
5.499978e+1, 2.1422392e+2, -737656.8, -927439.44, 24993.979, -0.06763824, -0.04434324, -734420.3, 106179.664, 0.0, 10.001234, 9.998731 
5.4998934e+1, 2.2422275e+2, -621173.94, -816176.75, -37895.82, -0.09580065, -0.035140768, -614068.4, 128546.06, 0.0, 10.001341, 9.99877 
5.499915e+1, 2.3422198e+2, -761391.56, -838426.7, -63566.176, 0.05452049, -0.009422372, -725583.75, -80957.164, 0.0, 9.999727, 9.998724 
5.4999024e+1, 2.4422194e+2, -667417.7, -629135.56, -31263.03, 0.10675904, 0.07057907, -611619.3, -64989.51, 0.0, 9.999227, 9.99972 
5.4998595e+1, 2.542226e+2, -430441.78, -457171.06, -15454.198, 0.03242752, 0.13430835, -423374.94, 25248.053, 0.0, 10.000141, 9.999787 
5.499809e+1, 2.64222e+2, -353179.4, -507676.84, -19835.889, -0.0542447, 0.15198703, -350673.3, -44.33549, 0.000000016276152, 10.0006, 9.99855 
5.4997617e+1, 2.7421954e+2, -326254.03, -462959.63, -24960.393, -0.153986, 0.04300254, -321839.22, -69186.5, 0.00000094951764, 10.000177, 9.998399 
5.499818e+1, 2.8421763e+2, -226389.7, -320974.2, -55014.766, -0.12920012, -0.004294715, -201134.16, -46462.348, 0.0000068870954, 10.00003, 9.998762 
5.500012e+1, 2.9421613e+2, -103434.85, -210274.97, -46412.707, 0.046729174, -0.05534668, -86088.805, -29401.848, 0.00003048685, 10.00018, 9.99878 
5.500122e+1, 3.042175e+2, -79811.555, -252883.13, -33488.043, 0.09360373, 0.24052876, -73557.84, -73557.84, 0.0001366128, 10.000364, 9.99807 
5.5001134e+1, 3.1421462e+2, -52430.543, -152005.38, -8189.5474, -0.03783602, 0.13302414, -51761.49, -51761.49, 0.00040785797, 10.000123, 9.998879 
6.4999366e+1, 1.24226764e+2, -1704284.9, -1739313.6, 48010.926, -0.067075185, 0.2038715, -1670693.4, 51891.145, 0.0019647046, 10.000122, 9.999771 
6.500026e+1, 1.3422513e+2, -1441792.4, -1473676.8, 11882.937, -0.040168755, -0.030133829, -1437850.9, 186741.75, 0.0011417874, 10.0009165, 10.000539 
6.500133e+1, 1.4422409e+2, -1365273.8, -1442141.1, 20497.432, -0.008897966, -0.16028209, -1360149.5, 166448.7, 0.0004823996, 10.001019, 10.000011 
6.5002733e+1, 1.5422544e+2, -1341719.6, -1392177.0, -23946.037, 0.050172977, -0.043172847, -1332164.8, 96420.28, 0.00011742101, 10.000557, 9.999905 
6.500288e+1, 1.6422544e+2, -1354970.3, -1433462.9, -42536.418, 0.011020408, 0.0052027097, -1336340.6, -5755.6543, 0.000008467286, 10.00016, 9.999143 
6.5001714e+1, 1.7422302e+2, -1328314.6, -1380238.3, -35875.938, -0.13608022, -0.16527341, -1309992.1, -77383.06, 0.000000004638606, 9.999717, 9.99905 
6.500137e+1, 1.8422244e+2, -1135388.9, -1080839.3, -87937.695, -0.12971346, -0.18849058, -1016043.7, 118570.6, 0.0, 9.999709, 10.000428 
6.5001947e+1, 1.9422434e+2, -951163.6, -933820.5, -119820.15, 0.07039579, -0.072494976, -822358.56, 214235.27, 0.0, 10.000258, 10.000505 
6.50017e+1, 2.0422491e+2, -923796.3, -1025839.5, -49064.46, 0.11033249, 0.0017216566, -904032.9, 34554.848, 0.0, 10.000444, 9.999113 
6.500038e+1, 2.142236e+2, -900949.94, -979174.0, -31213.455, -0.0632642, -0.0509351, -890021.7, -49419.883, 0.0, 9.999999, 9.998971 
6.499963e+1, 2.2422244e+2, -827268.25, -939891.9, -84370.25, -0.088967256, -0.03965724, -782143.6, -39527.832, 0.0, 10.000032, 9.998554 
6.499963e+1, 2.3422152e+2, -635592.94, -804349.94, -92426.0, 0.08708865, -0.006396452, -594822.3, 49807.61, 0.0, 10.000704, 9.998491 
6.4999336e+1, 2.442211e+2, -434676.06, -563771.06, -8040.8843, 0.13355629, 0.069869645, -434177.16, 112460.484, 0.0, 10.001006, 9.999332 
6.49987e+1, 2.5422132e+2, -369854.53, -473280.47, -43602.344, 0.006955116, 0.12972078, -353925.84, 94711.625, 0.0, 10.000742, 9.999406 
6.4998454e+1, 2.6422065e+2, -353333.4, -494908.16, -54613.695, -0.068655945, 0.15950787, -334714.34, 15930.32, 0.00000000394634, 10.000536, 9.998678 
6.499884e+1, 2.742187e+2, -264869.66, -410433.53, -38241.887, -0.0595344, 0.08487857, -255434.48, -2772.2825, 0.0000007712445, 10.000509, 9.998596 
6.4999396e+1, 2.8421685e+2, -190208.2, -324481.44, -28479.918, -0.01941533, 0.04162025, -184417.25, -29736.424, 0.000006042053, 10.000367, 9.998573 
6.5000314e+1, 2.9421487e+2, -157556.31, -261107.66, -46517.816, 0.06988137, -0.03636032, -139728.63, -83025.99, 0.000026514133, 9.999921, 9.998553 
6.5001047e+1, 3.04216e+2, -149310.56, -278361.84, 470.46902, 0.07512981, 0.24194166, -149308.84, -149308.84, 0.00011960156, 9.99985, 9.998145 
6.5001607e+1, 3.1421405e+2, 9634.375, -58945.035, 17488.598, 0.0031659917, 0.2216955, 13836.682, 13836.682, 0.000365328, 10.000267, 9.999464 
7.4999815e+1, 1.2422448e+2, -1681140.0, -1704080.0, 54272.945, -0.09137367, -0.006250947, -1637138.3, 85460.83, 0.0018421272, 10.000183, 9.99998 
7.5002015e+1, 1.3422354e+2, -1434064.0, -1469282.1, 43238.938, 0.013159085, -0.17218633, -1404986.0, 219616.22, 0.0010580781, 10.000973, 10.000541 
7.5002617e+1, 1.4422373e+2, -1411624.6, -1546653.6, -3499.217, -0.014994065, -0.14559107, -1411534.0, 115064.95, 0.0004375462, 10.001049, 9.999282 
7.5001806e+1, 1.5422545e+2, -1393079.1, -1511599.8, -30666.826, -0.1289877, 0.08736259, -1385614.4, 42973.18, 0.00010224, 10.000605, 9.999068 
7.5001806e+1, 1.6422567e+2, -1336083.1, -1391139.6, -67044.01, -0.1382477, 0.18759598, -1291135.9, 39452.574, 0.000007138289, 10.000146, 9.999439 
7.500316e+1, 1.7422317e+2, -1299707.3, -1322667.3, -44808.297, 0.009153526, -0.032058727, -1264931.6, -32319.314, 0.00000003688298, 9.999722, 9.999442 
7.5003374e+1, 1.8422219e+2, -1166168.3, -1143390.8, -77674.53, 0.075920366, -0.09554817, -1076274.5, 58346.1, 0.0, 9.999696, 10.0000105 
7.500204e+1, 1.9422334e+2, -986801.2, -1004542.4, -90212.336, 0.027420223, -0.00993211, -905024.4, 131582.88, 0.0, 10.00024, 10.000031 
7.5001365e+1, 2.0422344e+2, -902166.4, -966056.3, -70041.266, 0.0102495225, 0.022339586, -857129.1, 81475.58, 0.0, 10.000381, 9.999553 
7.500155e+1, 2.1422192e+2, -874547.7, -908764.2, -40125.566, 0.030516837, -0.10239302, -848035.4, -7416.572, 0.0, 9.999925, 9.999494 
7.5000924e+1, 2.2422089e+2, -823271.0, -911620.8, -69039.375, 0.016811186, -0.1204979, -785483.4, -42853.74, 0.0, 9.9999485, 9.998786 
7.499921e+1, 2.3422042e+2, -635189.25, -782523.8, -56545.566, -0.04724307, -0.06382636, -615989.6, 28647.113, 0.0, 10.000611, 9.998685 
7.4998504e+1, 2.442198e+2, -498974.2, -683403.4, -22995.162, -0.06995416, 0.016634146, -496150.34, 50496.484, 0.0, 10.000949, 9.998534 
7.499921e+1, 2.542188e+2, -442874.25, -610905.75, -46674.28, -0.039175265, 0.038960062, -430780.0, 17883.127, 0.0, 10.000673, 9.998495 
7.499988e+1, 2.6421815e+2, -321672.25, -413128.5, -63384.227, 0.0010666876, 0.09360822, -289242.72, 61429.31, 0.00000000015133415, 10.000476, 9.999265 
7.500068e+1, 2.74218e+2, -230332.13, -315675.2, -25733.543, 0.048657738, 0.12475305, -223173.19, 29497.738, 0.00000065427645, 10.000413, 9.999291 
7.5000405e+1, 2.8421688e+2, -211830.42, -362180.66, -50213.93, 0.020519078, 0.13298398, -196602.34, -41920.277, 0.0000058927376, 10.000334, 9.998331 
7.4998647e+1, 2.942142e+2, -192647.84, -318189.3, -54626.758, -0.11501616, 0.0140444515, -172206.52, -115493.66, 0.000025865007, 9.999844, 9.998202 
7.4998975e+1, 3.0421403e+2, -134949.75, -239028.94, 12648.958, -0.14013186, 0.17206006, -133434.55, -133434.55, 0.00011192772, 9.999815, 9.9984255 
7.500216e+1, 3.1421292e+2, 85443.69, 126615.055, 60865.723, -0.0133106075, 0.19110335, 170282.05, 170282.05, 0.00033923058, 10.000146, 10.0007925 
8.5001445e+1, 1.2422284e+2, -1572176.0, -1660133.6, 46300.645, 0.023543384, -0.10610279, -1552296.5, 170315.11, 0.0017237901, 10.000988, 9.999883 
8.500298e+1, 1.3422285e+2, -1582536.1, -1572556.0, -31090.705, 0.06671225, -0.14514594, -1546057.5, 78551.266, 0.0009802121, 10.000108, 10.000237 
8.500306e+1, 1.4422366e+2, -1599068.9, -1615556.6, -41090.3, 0.0010089618, -0.050812755, -1565403.6, -38802.75, 0.00039778455, 9.99966, 9.999486 
8.500205e+1, 1.5422405e+2, -1486150.8, -1527367.6, -9009.585, -0.12094132, 0.026683852, -1484267.5, -55666.934, 0.000088897265, 9.9998455, 9.999323 
8.500217e+1, 1.6422416e+2, -1330736.0, -1363764.5, 14053.124, -0.1066079, 0.09213686, -1325565.9, 5035.872, 0.000006071428, 10.000078, 9.9996605 
8.500397e+1, 1.7422317e+2, -1206895.4, -1250963.5, 5771.5664, 0.09894461, 0.0013380608, -1206152.0, 26459.973, 0.000000076650345, 10.000246, 9.9996805 
8.5004115e+1, 1.8422249e+2, -1067744.9, -1117132.6, 7061.0894, 0.14754038, -0.03758489, -1066755.3, 67862.25, 0.0, 10.000465, 9.999822 
8.5002077e+1, 1.9422239e+2, -940505.4, -1005458.75, 865.3816, -0.007969721, -0.051159743, -940493.9, 96121.125, 0.0, 10.000668, 9.999816 
8.5001403e+1, 2.042221e+2, -834514.6, -950732.56, 7897.8047, -0.044647716, -0.039672863, -833980.4, 104636.6, 0.0, 10.000917, 9.999401 
8.500247e+1, 2.1422136e+2, -709826.75, -846711.75, -33405.137, 0.07675545, -0.071638614, -702109.7, 138516.97, 0.0, 10.001128, 9.999342 
8.500195e+1, 2.2422063e+2, -650768.56, -786649.5, -67892.016, 0.08009849, -0.06712305, -622661.0, 119973.41, 0.0, 10.00096, 9.999153 
8.4999365e+1, 2.3421991e+2, -662575.75, -750708.5, -57822.965, -0.06750292, -0.0730171, -633941.75, 10697.687, 0.0, 10.000236, 9.999081 
8.499837e+1, 2.4421887e+2, -674675.6, -807408.56, 17199.83, -0.12185723, -0.03819524, -672483.06, -125831.26, 0.0, 9.999911, 9.998176 
8.4999555e+1, 2.5421733e+2, -539764.06, -700627.5, 12542.685, -0.041529644, -0.026556037, -538792.0, -90117.11, 0.0, 10.000209, 9.998092 
8.5000443e+1, 2.642168e+2, -321214.03, -383960.7, 13787.38, 0.022936733, 0.047118593, -318318.16, 32365.752, 0.0000000019213902, 10.000338, 9.999538 
8.500112e+1, 2.7421752e+2, -257942.89, -292489.84, 3650.9832, 0.07644334, 0.13330923, -257561.27, -4886.424, 0.0000006294421, 10.000055, 9.999628 
8.50007e+1, 2.8421688e+2, -266350.94, -399604.28, -9844.872, 0.040091023, 0.17424391, -265627.5, -110945.48, 0.0000062489003, 10.000002, 9.998237 
8.4998804e+1, 2.9421416e+2, -122622.15, -296463.22, -17566.09, -0.10308038, 0.06401964, -120864.914, -64151.188, 0.000027811611, 10.000378, 9.998093 
8.4998834e+1, 3.0421305e+2, -94567.586, -188565.5, 60613.61, -0.1346525, 0.12111893, -64866.4, -64866.4, 0.000112212314, 9.999945, 9.998719 
8.50016e+1, 3.1421223e+2, -131083.44, 133474.11, 74078.42, 0.027646475, 0.1307049, 152804.33, 152804.33, 0.00032853556, 9.998176, 10.001781 
9.500364e+1, 1.24222085e+2, -1601794.0, -1728161.9, -7967.2905, 0.0895824, -0.07586987, -1601293.6, 121326.01, 0.0016162735, 10.001017, 9.999397 
9.50027e+1, 1.3422306e+2, -1620866.9, -1672323.4, -57076.16, -0.0028215623, 0.044233948, -1583988.1, 40624.664, 0.000914127, 10.000188, 9.999513 
9.500231e+1, 1.4422384e+2, -1516857.3, -1446553.4, -45186.984, -0.06723056, 0.12343901, -1424455.8, 102148.445, 0.00036652523, 9.999668, 10.000638 
9.5003235e+1, 1.5422133e+2, -1391556.3, -1337710.1, 8430.914, -0.015801456, -0.221324, -1336421.0, 92202.35, 0.00007896126, 9.999872, 10.00061 
9.500377e+1, 1.6422102e+2, -1324660.5, -1348192.1, 12753.496, 0.021573028, -0.2703792, -1319074.5, 11549.948, 0.000005121987, 10.000063, 9.999776 
9.500386e+1, 1.74223e+2, -1202378.6, -1245833.6, 20513.607, 0.035866037, -0.06678655, -1194224.9, 38383.215, 0.00000007826353, 10.000259, 9.99971 
9.5003265e+1, 1.842233e+2, -1073250.3, -1117622.9, 7524.7466, -0.0029811002, -0.011299331, -1072009.0, 62595.855, 0.0, 10.00042, 9.999839 
9.5001775e+1, 1.9422145e+2, -944971.9, -1005877.3, 18178.926, -0.12873285, -0.20424065, -939958.5, 96659.17, 0.0, 10.000629, 9.999831 
9.500152e+1, 2.0422088e+2, -899489.3, -1070333.9, 7851.0596, -0.14547504, -0.18567032, -899129.3, 39495.516, 0.0, 10.000849, 9.998614 
9.500282e+1, 2.1422178e+2, -779974.44, -977738.25, -15395.121, -0.025027815, 0.031441882, -778783.1, 61843.254, 0.0, 10.00106, 9.998477 
9.50024e+1, 2.2422157e+2, -630162.2, -728272.8, -99021.66, 0.0070472225, 0.115821205, -568710.9, 173920.02, 0.0, 10.00089, 9.999586 
9.499975e+1, 2.3421982e+2, -632368.0, -674406.2, -78651.86, -0.07501954, -0.05212639, -571975.06, 72664.97, 0.0, 10.00017, 9.999637 
9.499861e+1, 2.4421827e+2, -678452.0, -797500.56, 16080.436, -0.10875525, -0.10282397, -676318.2, -129664.87, 0.0, 9.999839, 9.998278 
9.4999456e+1, 2.5421694e+2, -543974.94, -697378.2, 34382.855, -0.09452838, -0.07869985, -536621.1, -87947.79, 0.0, 10.00015, 9.998145 
9.499989e+1, 2.642165e+2, -334392.25, -399412.56, -2763.0208, -0.08535916, 0.0066724005, -334275.06, 16406.795, 0.0000000017799018, 10.000289, 9.9994545 
9.499983e+1, 2.742172e+2, -274953.47, -309571.5, 1031.1251, -0.08135352, 0.095013626, -274922.78, -22247.027, 0.0000005677249, 9.999976, 9.999547 
9.5000017e+1, 2.8421682e+2, -268414.84, -395500.75, -6017.846, -0.050557528, 0.1637382, -268130.53, -113449.12, 0.0000064583187, 9.999966, 9.998281 
9.500046e+1, 2.942148e+2, -131445.98, -295697.28, 10581.694, -0.0019285228, 0.11392069, -130767.08, -74061.76, 0.000029725905, 10.000293, 9.99814 
9.5000273e+1, 3.0421314e+2, -72249.62, -136292.5, -4751.5884, -0.0058469875, 0.09796538, -71899.0, -71899.0, 0.00011359201, 9.999916, 9.999089 
9.49992e+1, 3.1421208e+2, -104545.516, 212565.08, 42350.54, -0.079595074, 0.047280908, 218123.63, 218123.63, 0.00032159366, 9.998067, 10.002378 
1.0500568e+2, 1.24222666e+2, -1520368.4, -1702802.3, 48597.098, 0.17452797, -0.011851135, -1508230.5, 214384.3, 0.0015309328, 10.001596, 9.999307 
1.0500322e+2, 1.3422236e+2, -1584607.4, -1697751.0, -11358.369, 0.01904063, 0.01559114, -1583478.4, 41142.63, 0.0008642909, 10.000593, 9.999156 
1.05002284e+2, 1.4422315e+2, -1444652.9, -1369157.8, 46525.418, -0.047418933, 0.09749953, -1346993.0, 179618.94, 0.00034447288, 10.000001, 10.001002 
1.0500387e+2, 1.5422136e+2, -1345409.3, -1275493.5, 16185.353, 0.060747784, -0.20956334, -1271928.4, 156694.66, 0.00007296801, 10.000026, 10.000966 
1.05004385e+2, 1.6422133e+2, -1325174.4, -1345663.0, -710.90405, 0.08355797, -0.25135687, -1325149.8, 5471.142, 0.000004414203, 10.000054, 9.99979 
1.05003774e+2, 1.7422314e+2, -1234670.1, -1264723.3, -15406.381, 0.017244788, -0.06263288, -1228175.6, 4430.631, 0.000000050630582, 10.000068, 9.999666 
1.05003186e+2, 1.8422325e+2, -1109736.6, -1145256.9, -16251.475, -0.03744314, -0.020441294, -1103423.3, 31181.701, 0.0, 10.000201, 9.999756 
1.05002545e+2, 1.9422111e+2, -1004594.25, -1044525.8, -31179.613, -0.0895917, -0.23454425, -987535.7, 49084.895, 0.0, 10.000255, 9.999746 
1.05002336e+2, 2.0422058e+2, -999296.44, -1109029.4, -7215.2036, -0.10697289, -0.21143855, -998824.06, -60196.504, 0.0, 10.000136, 9.998687 
1.05002746e+2, 2.1422198e+2, -973421.2, -1059199.9, 20201.807, -0.063630976, 0.04799591, -968901.56, -128276.875, 0.0, 9.999695, 9.9985695 
1.05002455e+2, 2.2422193e+2, -735864.5, -793522.1, -6204.798, -0.037632324, 0.14642946, -735204.3, 7423.7417, 0.0, 10.0002165, 9.999475 
1.05001315e+2, 2.342198e+2, -369610.6, -562203.0, -51017.58, -0.02314698, -0.039611924, -356930.88, 287709.53, 0.0, 10.002037, 9.999516 
1.0500037e+2, 2.442181e+2, -318820.53, -607854.44, -17203.375, -0.032453064, -0.10900103, -317800.2, 228854.48, 0.0, 10.002236, 9.998424 
1.0499977e+2, 2.542168e+2, -527406.2, -673130.25, -12160.635, -0.07540678, -0.09562968, -526398.4, -77725.6, 0.0, 10.000199, 9.998286 
1.0499942e+2, 2.642163e+2, -501687.9, -488988.16, 1997.8273, -0.101024896, -0.018751211, -488681.28, -137999.94, 0.00000000014537505, 9.999194, 9.999357 
1.0499953e+2, 2.7421683e+2, -329847.9, -352629.3, -14393.329, -0.08805684, 0.064620584, -322883.34, -70205.305, 0.00000042821608, 9.999675, 9.999396 
1.0500014e+2, 2.842163e+2, -249448.28, -354091.63, 2851.7656, -0.027955573, 0.11379158, -249370.61, -94685.96, 0.0000059800022, 9.999936, 9.998592 
1.05001256e+2, 2.9421434e+2, -173929.56, -275539.75, 20710.906, 0.080182426, 0.033300504, -169870.28, -113164.8, 0.000029321069, 9.999808, 9.998521 
1.0500049e+2, 3.0421302e+2, -165175.77, -218262.88, -33871.12, 0.05598914, 0.04758897, -148686.63, -148686.63, 0.000109979665, 9.999452, 9.998747 
1.049974e+2, 3.142123e+2, -58969.02, 161009.16, -81793.77, -0.08822489, 0.069487326, 188088.73, 188088.73, 0.000307793, 9.998703, 10.001718 
1.1500677e+2, 1.242243e+2, -1491599.9, -1657094.5, -15405.15, 0.065817036, 0.07397365, -1490178.1, 232421.8, 0.001474528, 10.001658, 9.999589 
1.1500432e+2, 1.3422063e+2, -1572995.4, -1684824.3, -44538.273, 0.042574275, -0.2375713, -1557424.9, 67209.38, 0.00083337264, 10.000643, 9.999217 
1.1500276e+2, 1.4422159e+2, -1480550.9, -1441364.6, 35644.098, -0.025159726, -0.123592116, -1420283.5, 106340.83, 0.00033260565, 9.999989, 10.000513 
1.1500348e+2, 1.542241e+2, -1376580.4, -1349113.3, 30102.219, -0.009201902, 0.051274896, -1329759.8, 98840.484, 0.0000710648, 10.000067, 10.000438 
1.15003675e+2, 1.6422506e+2, -1335218.1, -1367553.4, -7588.369, -0.01820382, 0.14402007, -1333525.9, -2934.3652, 0.0000041843605, 10.000053, 9.999644 
1.1500352e+2, 1.7422351e+2, -1236357.0, -1275911.8, -5818.2524, -0.04104199, 0.005876982, -1235519.0, -2911.6316, 0.000000024917117, 10.000096, 9.999577 
1.15003675e+2, 1.842223e+2, -1131432.3, -1173751.6, -20962.412, -0.029830614, -0.07136174, -1122806.8, 11811.607, 0.0, 10.000132, 9.999596 
1.1500405e+2, 1.9422142e+2, -1020752.3, -1070788.0, -21217.283, 0.008940093, -0.14218816, -1012966.7, 23656.855, 0.0, 10.000223, 9.999582 
1.1500358e+2, 2.0422125e+2, -947280.2, -987232.3, -31146.934, -0.015904125, -0.111172, -930253.9, 8370.963, 0.0, 10.0000725, 9.999556 
1.15001954e+2, 2.1422191e+2, -916320.44, -922932.6, 10303.639, -0.13214903, -0.026331948, -908805.5, -68183.086, 0.0, 9.999615, 9.999546 
1.1500185e+2, 2.2422159e+2, -795010.06, -898015.8, 47233.324, -0.13754575, 0.02635937, -776630.7, -34004.03, 0.0, 10.000139, 9.998794 
1.15003735e+2, 2.3421986e+2, -438474.75, -684521.5, 27562.738, -0.0051301476, -0.04197425, -435424.9, 209215.81, 0.0, 10.0019455, 9.998718 
1.15003414e+2, 2.4421832e+2, -320090.38, -592993.4, -90867.0, 0.027916407, -0.0574363, -292603.4, 254052.3, 0.0, 10.002163, 9.998563 
1.1500015e+2, 2.5421688e+2, -520648.16, -643515.06, -83674.37, -0.0780624, -0.08218224, -478276.66, -29603.295, 0.0, 10.000132, 9.998523 
1.1499876e+2, 2.6421618e+2, -516469.4, -514582.72, 5679.9336, -0.10768673, -0.032106876, -509768.34, -159085.67, 0.0, 9.999168, 9.999199 
1.1499995e+2, 2.7421638e+2, -354190.94, -388321.7, 14030.264, -0.03624218, 0.04133814, -349163.88, -96481.836, 0.0000002594802, 9.999603, 9.999191 
1.1500074e+2, 2.8421533e+2, -217300.52, -273388.4, -6550.157, 0.019878648, 0.023986751, -216545.72, -61853.91, 0.000005001763, 9.999885, 9.999168 
1.1500089e+2, 2.942128e+2, -147467.73, -190903.02, 25901.117, 0.036855586, -0.17492011, -135384.13, -78669.9, 0.000026475647, 9.999687, 9.999159 
1.1499919e+2, 3.0421275e+2, -248598.1, -376786.3, -61751.145, -0.03918109, -0.021891998, -223690.75, -223690.75, 0.000100772006, 9.999401, 9.997678 
1.1499563e+2, 3.1421265e+2, -209436.7, -127347.2, -87374.03, -0.18565452, 0.18691696, -71857.54, -71857.54, 0.00028477213, 9.998605, 9.999783 
1.2500785e+2, 1.2422533e+2, -1712303.3, -1705405.8, 36963.37, 0.10496723, 0.071394436, -1671730.6, 50859.484, 0.0014451224, 9.9999075, 10.000095 
1.2500516e+2, 1.3422178e+2, -1452569.0, -1602779.8, -15591.443, 0.03327471, -0.24963544, -1450967.8, 173653.66, 0.000820366, 10.001376, 9.999426 
1.2500314e+2, 1.442226e+2, -1303699.8, -1444667.0, 55651.08, -0.055543937, -0.124229684, -1284378.1, 242235.08, 0.00033115427, 10.001577, 9.999726 
1.2500356e+2, 1.5422478e+2, -1399972.5, -1459777.9, -2856.207, -0.015397165, 0.10436305, -1399836.4, 28759.875, 0.00007354598, 10.000326, 9.999552 
1.2500373e+2, 1.6422531e+2, -1350288.0, -1379959.1, -1178.1176, -0.010156403, 0.20519787, -1350241.3, -19647.924, 0.0000047036624, 9.999965, 9.999611 
1.2500383e+2, 1.7422336e+2, -1157844.3, -1235525.6, -1082.1423, -0.039519254, 0.02402335, -1157829.1, 74783.29, 0.000000012759114, 10.000613, 9.999616 
1.2500411e+2, 1.8422233e+2, -1045959.94, -1113321.4, -10109.425, -0.017789466, -0.043147407, -1044475.5, 90146.055, 0.0, 10.000637, 9.9997635 
1.2500452e+2, 1.9422257e+2, -1082514.5, -1082962.1, -4350.0063, 0.063673496, -0.017389003, -1078382.5, -41765.73, 0.0, 9.999727, 9.999737 
1.2500405e+2, 2.0422244e+2, -981002.1, -994884.0, 16388.309, 0.04388324, 0.00514494, -970145.5, -31528.85, 0.0, 9.999798, 9.999635 
1.2500252e+2, 2.142217e+2, -696616.94, -808108.5, -22440.29, -0.10568291, -0.057261877, -692269.8, 148354.08, 0.0, 10.001082, 9.999625 
1.2500253e+2, 2.242209e+2, -650973.44, -828099.25, 6081.904, -0.12549648, -0.05896567, -650764.9, 91866.93, 0.0, 10.001127, 9.998791 
1.2500471e+2, 2.3421992e+2, -799632.2, -860342.7, 26420.34, 0.027400153, -0.051635616, -789744.75, -145103.2, 0.0, 9.999481, 9.998692 
1.2500434e+2, 2.44219e+2, -739066.6, -749592.4, -49253.777, 0.0629271, -0.020907043, -694795.4, -148144.11, 0.0, 9.999092, 9.998967 
1.2500066e+2, 2.542181e+2, -442757.03, -559572.6, -41949.55, -0.051663812, -0.034764454, -429253.53, 19408.43, 0.0, 10.000459, 9.998946 
1.24999024e+2, 2.642174e+2, -276180.88, -445085.4, 71041.516, -0.085635915, 0.01295266, -250274.27, 100396.36, 0.0, 10.001021, 9.998779 
1.2500025e+2, 2.7421683e+2, -255846.38, -392615.4, 42450.234, -0.004583429, 0.054772396, -243741.98, 8936.822, 0.00000012209664, 10.000517, 9.998712 
1.2500077e+2, 2.8421524e+2, -187256.48, -242566.25, 3378.192, 0.034262966, 0.0037763363, -187050.9, -32356.986, 0.000003888246, 10.000034, 9.999299 
1.2500034e+2, 2.9421288e+2, -146101.52, -165752.48, -16248.97, 0.024535215, -0.19658847, -136938.34, -80224.84, 0.00002250982, 9.999605, 9.999362 
1.24998465e+2, 3.042142e+2, -215295.98, -380513.06, -59476.223, -0.05591106, 0.08834396, -196112.63, -196112.63, 0.000088219014, 9.999679, 9.997541 
1.24995105e+2, 3.1421325e+2, -41213.73, -124005.875, -44167.34, -0.16124347, 0.23067649, -22075.607, -22075.607, 0.00025421128, 10.000091, 9.999098 
1.3500838e+2, 1.24225564e+2, -1663405.6, -1597739.9, 63269.363, 0.11436583, -0.034102358, -1559291.5, 163295.81, 0.0014399097, 9.999898, 10.0008335 
1.350053e+2, 1.3422574e+2, -1416322.8, -1533553.1, 45996.69, -0.11688571, -0.027574625, -1400430.0, 224152.25, 0.0008240123, 10.00142, 9.999872 
1.3500312e+2, 1.4422624e+2, -1377523.8, -1614722.4, 5560.14, -0.24764244, 0.09723323, -1377393.5, 149184.42, 0.00033951883, 10.001634, 9.998537 
1.3500382e+2, 1.5422337e+2, -1487237.1, -1648677.4, -40682.81, -0.04885931, -0.049078844, -1477564.6, -48953.59, 0.00008018549, 10.000349, 9.998249 
1.3500418e+2, 1.6422212e+2, -1355434.4, -1373011.5, 9024.368, 0.019835867, -0.061868697, -1351626.3, -20999.68, 0.0000062149566, 9.999899, 9.999684 
1.3500428e+2, 1.7422265e+2, -1146841.4, -1209191.1, 34450.742, -0.07875095, -0.01420568, -1131554.1, 101067.75, 0.000000017143847, 10.000609, 9.99979 
1.3500415e+2, 1.842234e+2, -1017768.06, -1051543.9, -47986.324, -0.10274861, 0.068223074, -983784.7, 150829.08, 0.0, 10.000612, 10.000205 
1.3500354e+2, 1.9422457e+2, -1053200.8, -1014893.44, -29581.496, -0.030774228, 0.13625668, -998806.1, 37794.395, 0.0, 9.999692, 10.000222 
1.3500349e+2, 2.0422411e+2, -1040976.9, -1103714.3, 50339.754, -0.012093884, 0.13341154, -1013032.1, -74428.81, 0.0, 9.99973, 9.998922 
1.3500407e+2, 2.1422136e+2, -767736.0, -931569.4, 36252.28, -0.080052525, -0.048138775, -760072.7, 80556.4, 0.0, 10.000982, 9.998824 
1.3500425e+2, 2.2421986e+2, -616957.56, -742829.2, -57056.04, -0.088017076, -0.10447567, -594944.56, 147698.72, 0.0, 10.001054, 9.999416 
1.3500386e+2, 2.3421991e+2, -756131.44, -755266.6, -29228.273, -0.0259901, -0.06973244, -726467.56, -81824.29, 0.0, 9.999413, 9.999447 
1.3500284e+2, 2.442201e+2, -698905.9, -655924.25, -15089.144, -0.016815206, -0.0019460053, -651156.0, -104514.16, 0.0, 9.999047, 9.999632 
1.3500102e+2, 2.542205e+2, -409693.13, -468762.47, 18111.807, -0.08261634, 0.0473319, -404581.94, 44056.434, 0.0, 10.000364, 9.999614 
1.3499998e+2, 2.6422006e+2, -333535.4, -551771.75, 50721.004, -0.112244174, 0.11838368, -322323.22, 28321.547, 0.0, 10.000971, 9.99807 
1.3500014e+2, 2.7421808e+2, -324858.34, -514517.22, 32006.494, -0.09244535, 0.10216065, -319602.63, -66933.55, 0.000000046518082, 10.000427, 9.997915 
1.3499999e+2, 2.8421596e+2, -210271.53, -283080.4, -21532.518, -0.07100031, 0.048016362, -204380.2, -49688.133, 0.0000029362805, 10.000002, 9.999038 
1.3499936e+2, 2.942144e+2, -171904.19, -204316.13, -21588.043, -0.05979946, -0.04675788, -161116.14, -104410.82, 0.000019015239, 9.999536, 9.999135 
1.3499792e+2, 3.042173e+2, -162235.16, -256835.81, -49440.73, -0.093401544, 0.3704402, -141112.48, -141112.48, 0.000075927965, 9.999625, 9.998412 
1.3499519e+2, 3.1421408e+2, -14477.991, -52554.297, -4406.9395, -0.20850836, 0.191226, -13974.589, -13974.589, 0.00022269739, 10.000015, 9.999628 
1.45009e+2, 1.242259e+2, -1364478.9, -1477843.5, 122919.63, 0.09288665, -0.17124075, -1285801.9, 436777.75, 0.0014542761, 10.0020485, 10.000631 
1.4500654e+2, 1.3422775e+2, -1561702.3, -1644965.9, 2064.3533, -0.08667225, 0.037818972, -1561651.0, 62911.344, 0.0008417685, 10.000588, 9.999511 
1.4500451e+2, 1.4422815e+2, -1573577.5, -1732630.5, -8883.996, -0.20259935, 0.18143076, -1573082.8, -46521.95, 0.0003553583, 10.000388, 9.998333 
1.4500499e+2, 1.542238e+2, -1265128.8, -1560914.1, 11375.587, -0.039900992, -0.093155876, -1264691.9, 163915.48, 0.00008912462, 10.001961, 9.998078 
1.4500508e+2, 1.6422202e+2, -1063385.4, -1235234.8, 89934.83, 0.02575761, -0.14808813, -1024926.3, 305700.8, 0.000008328298, 10.001922, 9.999651 
1.4500488e+2, 1.7422336e+2, -1300786.0, -1291459.3, 75271.484, -0.024802778, -0.015412467, -1220706.9, 11907.5, 0.0000000715251, 9.999578, 9.999725 
1.4500447e+2, 1.8422428e+2, -1247812.4, -1189982.5, 25835.576, -0.05319863, 0.097637914, -1180121.8, -45516.68, 0.0, 9.999157, 9.999956 
1.4500365e+2, 1.9422458e+2, -837932.25, -944515.2, -25357.883, -0.06472261, 0.109107494, -832206.75, 204394.39, 0.0, 10.001305, 9.999937 
1.4500383e+2, 2.0422384e+2, -774125.4, -979833.06, 22927.27, -0.03968686, 0.09577549, -771601.0, 167006.45, 0.0, 10.001597, 9.998865 
1.4500529e+2, 2.1422161e+2, -1012767.06, -1059054.6, 42149.574, 0.030244322, -0.027237002, -987825.3, -147196.8, 0.0, 9.999347, 9.998735 
1.4500517e+2, 2.242205e+2, -962947.0, -860641.7, -3061.0352, 0.031203222, -0.060937308, -860550.2, -117911.2, 0.0, 9.998476, 9.999848 
1.4500296e+2, 2.342207e+2, -710957.3, -683340.1, -12652.011, -0.05642923, -0.055740546, -678420.4, -33783.793, 0.0, 9.999505, 9.999902 
1.4500172e+2, 2.442209e+2, -529803.25, -564180.1, 22188.533, -0.08536222, -0.013995628, -518924.38, 27709.64, 0.0, 10.000167, 9.9997225 
1.4500177e+2, 2.5422117e+2, -410161.34, -460081.38, -6249.6475, -0.036390197, 0.018705297, -409390.84, 39239.61, 0.0, 10.000332, 9.999685 
1.450014e+2, 2.642209e+2, -421250.8, -589880.8, 5648.3574, -0.030399863, 0.097758874, -421061.8, -70426.84, 0.0, 10.000342, 9.998116 
1.4500053e+2, 2.7421942e+2, -362639.06, -531462.4, 31127.65, -0.07337418, 0.12996173, -357082.63, -104427.82, 0.00000002138944, 10.000152, 9.997943 
1.4499974e+2, 2.8421733e+2, -210553.98, -293805.38, 39874.383, -0.08997571, 0.083119854, -194537.11, -39859.543, 0.0000023054517, 10.0000305, 9.998958 
1.4499898e+2, 2.9421538e+2, -111207.5, -182524.86, 30438.877, -0.068547904, -0.04242254, -99982.64, -43288.254, 0.000016570593, 9.999983, 9.999067 
1.4499816e+2, 3.0421835e+2, -86656.86, -188898.66, 24446.71, -0.04403735, 0.36644557, -81112.18, -81112.18, 0.0000664134, 10.000022, 9.998675 
1.4499612e+2, 3.1421417e+2, 1887.0055, -15596.175, -9270.821, -0.10715095, 0.06322802, 5887.6104, 5887.6104, 0.0001967113, 10.000019, 9.9998665 
1.5500923e+2, 1.2422666e+2, -1429602.4, -1640028.9, 39904.73, -0.14282227, -0.31118882, -1422289.1, 300274.75, 0.0014746141, 10.002157, 9.999469 
1.5500852e+2, 1.3422787e+2, -1644844.8, -1824247.1, -49462.535, 0.029605534, -0.04136538, -1632111.4, -7550.377, 0.00086313457, 10.000608, 9.998278 
1.5500697e+2, 1.4422828e+2, -1518203.6, -1611702.8, 30558.236, -0.019317374, 0.12957563, -1509102.3, 17460.305, 0.00037152023, 10.000368, 9.999169 
1.550067e+2, 1.5422602e+2, -1193831.4, -1414081.4, 82055.74, -0.0906492, -0.035618994, -1166622.3, 261963.28, 0.00009663115, 10.001971, 9.999077 
1.5500614e+2, 1.6422507e+2, -1080580.4, -1263774.6, 4715.019, -0.08301466, -0.05223399, -1080459.1, 250135.66, 0.000009881803, 10.001891, 9.999473 
1.5500534e+2, 1.7422564e+2, -1323328.6, -1331286.1, -3695.6648, 0.04097699, 0.033969622, -1321877.0, -89288.49, 0.00000020107916, 9.999552, 9.999465 
1.5500478e+2, 1.84225e+2, -1321199.3, -1337060.8, 85721.086, 0.0420654, 0.04956438, -1243042.9, -108447.96, 0.0, 9.999133, 9.99896 
1.550045e+2, 1.9422263e+2, -922413.25, -1102702.9, 65849.516, -0.13153188, -0.10113776, -900923.6, 135694.98, 0.0, 10.001243, 9.9988785 
1.5500483e+2, 2.0422165e+2, -744102.7, -907352.5, -57909.68, -0.12223769, -0.10416406, -725646.9, 212982.06, 0.0, 10.001542, 9.999398 
1.550058e+2, 2.142225e+2, -974828.44, -961847.4, -35837.273, 0.12634103, 0.012480671, -931917.6, -91295.74, 0.0, 9.999266, 9.999443 
1.55005e+2, 2.2422284e+2, -959579.8, -838162.56, 18912.402, 0.14625025, 0.07641959, -835284.94, -92666.49, 0.0, 9.998406, 10.000037 
1.5500179e+2, 2.342223e+2, -711824.2, -668732.25, 36598.656, -0.14620763, -0.00960407, -647808.4, -3186.8633, 0.0, 9.999431, 10.000038 
1.5500069e+2, 2.4422143e+2, -571360.25, -641503.7, 22781.969, -0.2250502, -0.057899546, -564610.44, -17982.65, 0.0, 10.000122, 9.999215 
1.550026e+2, 2.542201e+2, -459488.03, -549397.0, 10259.388, -0.007934599, -0.13036545, -458332.22, -9693.017, 0.0, 10.000265, 9.999108 
1.5500298e+2, 2.6421988e+2, -372762.75, -478837.9, -8655.566, 0.07253812, -0.049358483, -372061.1, -21419.244, 0.0, 10.000304, 9.998893 
1.5500122e+2, 2.7422076e+2, -315396.66, -414103.94, 34155.676, -0.040066175, 0.12884928, -304730.38, -52093.363, 0.000000019825112, 10.000068, 9.998788 
1.5499978e+2, 2.8421938e+2, -208954.72, -280631.34, 31507.516, -0.11122076, 0.104004115, -197073.98, -42423.055, 0.0000019865888, 9.99999, 9.999065 
1.5499885e+2, 2.9421577e+2, -116324.266, -178019.38, 40813.34, -0.10774191, -0.196934, -96012.266, -39330.023, 0.000014949104, 9.999911, 9.999134 
1.5499891e+2, 3.0421725e+2, -117572.37, -239021.34, 19768.064, 0.0088606, 0.07732194, -114435.76, -114435.76, 0.000059797247, 9.999975, 9.9983425 
1.5499733e+2, 3.1421363e+2, -17603.14, -34202.617, 17238.385, -0.034492366, -0.13903469, -6770.5107, -6770.5107, 0.0001777337, 9.999932, 9.999774 
1.6501021e+2, 1.2422867e+2, -1752899.1, -1841017.6, 4068.596, -0.15269147, -0.25145504, -1752711.6, -30167.887, 0.0014821975, 10.000126, 9.999063 
1.6501011e+2, 1.342284e+2, -1508628.9, -1802306.4, -49909.09, 0.07768289, -0.09270434, -1500378.9, 124177.01, 0.0008719991, 10.00173, 9.997887 
1.6500866e+2, 1.4422822e+2, -1265018.0, -1458869.8, 69550.81, 0.03837935, 0.030767517, -1242646.1, 283916.97, 0.0003781117, 10.002001, 9.999417 
1.6500834e+2, 1.542277e+2, -1358969.4, -1463061.3, 46657.91, -0.05595254, 0.010867715, -1341117.3, 87451.625, 0.000098805474, 10.000715, 9.999338 
1.650074e+2, 1.642273e+2, -1272445.8, -1377216.8, -60348.41, -0.077396385, 0.043614734, -1244917.8, 85654.98, 0.000009884257, 10.00065, 9.999291 
1.650059e+2, 1.742269e+2, -955654.9, -1174169.4, -80156.86, 0.016931493, 0.048268292, -929404.7, 303171.06, 0.0000002904704, 10.002156, 9.999288 
1.6500527e+2, 1.8422563e+2, -896510.25, -1156594.0, 72568.4, 0.02898584, 0.022017136, -877632.5, 256955.63, 0.0, 10.002168, 9.998725 
1.6500574e+2, 1.9422308e+2, -1097575.1, -1214624.6, 98235.836, -0.071378015, -0.12285493, -1041752.06, -5138.014, 0.0, 10.0001545, 9.998627 
1.6500604e+2, 2.0422235e+2, -1053407.5, -1016476.56, -9183.389, -0.03456809, -0.10596201, -1014319.0, -75696.555, 0.0, 9.999252, 9.99975 
1.6500594e+2, 2.1422403e+2, -855926.0, -859805.5, -27891.113, 0.18811436, 0.054507297, -829907.25, 10700.303, 0.0, 9.999886, 9.999847 
1.650048e+2, 2.2422452e+2, -726553.8, -767597.6, 52676.523, 0.20140584, 0.12957117, -690542.9, 52060.12, 0.0, 10.0002, 9.999652 
1.6500218e+2, 2.3422338e+2, -655315.6, -688035.0, 9086.092, -0.07370379, 0.029827794, -652961.75, -8349.325, 0.0, 10.000042, 9.999602 
1.6500142e+2, 2.4422203e+2, -602811.9, -653263.25, -7628.2344, -0.14742969, -0.042157784, -601683.75, -55060.77, 0.0, 9.999899, 9.99924 
1.6500327e+2, 2.542205e+2, -521384.2, -568830.8, 6608.347, 0.061004072, -0.14362346, -520480.97, -71846.07, 0.0, 9.999804, 9.999192 
1.650035e+2, 2.6422003e+2, -444090.8, -478620.06, 6909.259, 0.13270864, -0.104526415, -442759.6, -92121.914, 0.0, 9.999653, 9.999212 
1.6500156e+2, 2.7422076e+2, -377827.66, -397909.25, -8841.98, 0.024069296, 0.021159552, -374489.44, -121857.86, 0.000000024295247, 9.999447, 9.999187 
1.6499998e+2, 2.8421953e+2, -288789.38, -329805.88, -3917.7422, -0.05841361, -0.0037395393, -288418.5, -133775.8, 0.0000019697127, 9.999499, 9.9989605 
1.6499917e+2, 2.9421636e+2, -116938.23, -186282.63, -27963.535, -0.061414517, -0.24478579, -107066.96, -50396.32, 0.000013995548, 9.999949, 9.99906 
1.6499938e+2, 3.042167e+2, -78959.51, -190977.38, -24376.793, 0.059775803, -0.09579974, -73884.66, -73884.66, 0.00005518299, 10.000094, 9.998629 
1.6499719e+2, 3.1421396e+2, -33049.895, -12424.531, -6289.056, -0.018506957, -0.24706145, -10658.155, -10658.155, 0.00016337763, 9.99969, 10.000048 
1.7501126e+2, 1.24231845e+2, -1722880.8, -1779117.9, 37006.563, -0.10945657, -0.0046960358, -1704522.0, 17998.072, 0.001464911, 10.0001335, 9.999479 
1.7501092e+2, 1.342294e+2, -1475055.1, -1728365.0, 14922.295, -0.03686915, -0.11246358, -1474179.0, 150367.1, 0.0008580161, 10.001728, 9.998387 
1.7500941e+2, 1.4422807e+2, -1291507.6, -1520309.3, 19281.408, -0.11130434, -0.11142655, -1289894.1, 236667.78, 0.00036898247, 10.002015, 9.998996 
1.7500958e+2, 1.5422885e+2, -1389691.4, -1530652.9, 8427.951, -0.028976707, 0.047213215, -1389189.4, 39368.633, 0.00009401229, 10.000727, 9.998873 
1.7500858e+2, 1.6422872e+2, -1282452.0, -1391373.3, -20133.5, -0.04824453, 0.13630556, -1278849.6, 51711.29, 0.000008393363, 10.000623, 9.999208 
1.7500624e+2, 1.7422718e+2, -964575.8, -1186301.1, -14526.702, -0.18903965, 0.034419637, -963628.1, 268947.1, 0.00000020811186, 10.002135, 9.999213 
1.7500557e+2, 1.8422626e+2, -861934.56, -1082720.9, -18.73033, -0.17795263, 0.024058383, -861934.56, 272649.38, 0.0, 10.002146, 9.999248 
1.7500708e+2, 1.9422607e+2, -1061908.4, -1130329.9, 30625.865, 0.024237184, 0.05539519, -1050202.6, -13616.238, 0.0, 10.000108, 9.999229 
1.7500716e+2, 2.0422605e+2, -1051499.6, -999659.44, -3007.6567, 0.13538173, 0.10282289, -999485.5, -60898.516, 0.0, 9.999192, 9.999895 
1.750054e+2, 2.1422617e+2, -862515.5, -855850.0, 5157.9375, 0.12651363, 0.09569875, -853041.75, -12455.856, 0.0, 9.99981, 9.99991 
1.7500427e+2, 2.2422557e+2, -805727.3, -916796.9, 40229.926, 0.11002036, 0.1067824, -792686.94, -50094.676, 0.0, 10.00013, 9.998662 
1.750039e+2, 2.3422389e+2, -739464.94, -849405.2, 11276.536, 0.07532206, 0.06027738, -738320.25, -93710.41, 0.0, 9.999978, 9.998527 
1.7500365e+2, 2.4422272e+2, -574420.9, -583407.56, -19515.072, 0.06513208, 0.037049286, -558888.5, -12269.046, 0.0, 9.999852, 9.99974 
1.750035e+2, 2.5422218e+2, -490421.7, -485535.0, 9849.747, 0.08240241, -0.023110287, -477830.1, -29211.64, 0.0, 9.999723, 9.999803 
1.750028e+2, 2.6422125e+2, -451599.84, -490349.53, -8849.164, 0.07833696, -0.06534006, -449674.66, -99051.625, 0.0, 9.999634, 9.999141 
1.7500128e+2, 2.7421933e+2, -396039.25, -422877.72, -8364.735, 0.02960938, -0.19135424, -393645.7, -141006.77, 0.000000035492793, 9.999388, 9.999047 
1.7500007e+2, 2.8421777e+2, -312167.22, -375277.3, 551.23706, -0.019672815, -0.22827584, -312162.4, -157509.53, 0.0000021240596, 9.999488, 9.998651 
1.7499949e+2, 2.9421714e+2, -146187.42, -230834.06, -1095.3221, -0.048730124, -0.18786018, -146173.25, -89513.0, 0.000013429294, 9.999887, 9.998779 
1.7499925e+2, 3.042166e+2, -13022.975, -55006.832, -43373.77, 0.020316264, -0.15810114, 14171.66, 14171.66, 0.000050917075, 10.000093, 9.999569 
1.7499502e+2, 3.1421527e+2, 1260.5504, 78860.71, 22606.602, -0.2507238, -0.25862905, 84966.14, 84966.14, 0.00014886881, 9.999617, 10.000706 
1.8501288e+2, 1.2423265e+2, -1526193.3, -1655453.4, 51034.07, -0.012119534, 0.059255876, -1508473.4, 214042.28, 0.0014182838, 10.001351, 9.999745 
1.8501242e+2, 1.342303e+2, -1438777.8, -1653623.0, -3855.6194, -0.052672286, -0.08870019, -1438708.6, 185828.52, 0.00082149997, 10.001726, 9.9989 
1.8501076e+2, 1.4422859e+2, -1313164.8, -1543391.6, -14366.929, -0.16862045, -0.14893322, -1312271.6, 214283.1, 0.00034638878, 10.00191, 9.998885 
1.8501107e+2, 1.5422921e+2, -1193767.3, -1450313.8, -22173.3, -0.016892646, 0.0063066804, -1191864.9, 236687.95, 0.000084445885, 10.00213, 9.998747 
1.850101e+2, 1.6422902e+2, -1119857.9, -1328396.6, 4901.8145, -0.012793186, 0.10108929, -1119742.8, 210814.27, 0.000006352812, 10.001818, 9.999061 
1.850077e+2, 1.7422743e+2, -1171929.1, -1304620.4, -9924.975, -0.18311927, 0.011815337, -1171190.9, 61381.67, 0.000000056960435, 10.000791, 9.999048 
1.850069e+2, 1.8422665e+2, -1115684.4, -1184509.3, -34003.25, -0.16400988, 0.014843409, -1101718.8, 32861.41, 0.0, 10.000323, 9.999425 
1.85008e+2, 1.9422688e+2, -981700.4, -1067392.1, -52171.824, 0.08937112, 0.06842837, -957035.75, 79542.29, 0.0, 10.00056, 9.999444 
1.8500766e+2, 2.0422679e+2, -841583.8, -929893.75, -56031.426, 0.19013114, 0.109012656, -814400.25, 124178.84, 0.0, 10.000767, 9.999615 
1.850053e+2, 2.1422619e+2, -727564.94, -826620.7, -91661.58, 0.0871366, 0.062275227, -672906.2, 167678.88, 0.0, 10.000883, 9.999596 
1.8500422e+2, 2.2422536e+2, -695793.06, -860392.8, -40461.156, 0.061168507, 0.065337576, -686384.9, 56208.617, 0.0, 10.000859, 9.998704 
1.850048e+2, 2.3422417e+2, -637842.6, -795290.75, -1459.3247, 0.13868262, 0.059989873, -637829.1, 6777.155, 0.0, 10.000636, 9.998588 
1.850046e+2, 2.4422312e+2, -515501.88, -591382.1, 1959.1322, 0.15271719, 0.061658286, -515451.34, 31164.045, 0.0, 10.000408, 9.999418 
1.8500341e+2, 2.5422227e+2, -449240.28, -504311.72, -59080.016, 0.085578844, 0.0038635838, -411594.22, 37025.2, 0.0, 10.000172, 9.999458 
1.8500234e+2, 2.6422098e+2, -366703.88, -431850.53, -87775.41, 0.046365883, -0.059059843, -305652.72, 44974.582, 0.0, 10.000145, 9.999295 
1.8500131e+2, 2.7421886e+2, -227520.14, -321383.22, -79341.58, 0.04647421, -0.22226435, -182268.94, 70373.67, 0.000000044067633, 10.000449, 9.99924 
1.8500037e+2, 2.8421763e+2, -180631.77, -335077.6, -35650.086, 0.016816916, -0.23126166, -172799.95, -18146.756, 0.000002141611, 10.000474, 9.99846 
1.849997e+2, 2.9421777e+2, -127360.125, -249647.75, -51520.344, -0.021675577, -0.0847899, -108548.25, -51893.29, 0.000012353572, 10.000119, 9.998548 
1.8499956e+2, 3.04216e+2, 6290.5435, -11437.904, -97325.27, 0.047977, -0.18153358, 95154.43, 95154.43, 0.0000445169, 10.000079, 9.9998665 
1.8499526e+2, 3.1421572e+2, 82043.445, 51788.02, -92736.45, -0.21820988, -0.20669977, 160877.95, 160877.95, 0.00012870552, 10.000406, 10.00016 
1.9501457e+2, 1.24231145e+2, -1515284.4, -1631792.1, 35767.41, -0.02868276, -0.04496923, -1505180.3, 217349.63, 0.0013429979, 10.001358, 9.999901 
1.9501431e+2, 1.3423103e+2, -1407124.8, -1577080.1, 11845.036, -0.05802656, -0.021385614, -1406303.1, 218226.2, 0.0007683095, 10.001695, 9.999434 
1.9501238e+2, 1.4422975e+2, -1293817.4, -1503457.4, -17902.193, -0.22609948, -0.08207416, -1292299.6, 234242.4, 0.00031677555, 10.001902, 9.999167 
1.9501248e+2, 1.5422885e+2, -1176371.1, -1414335.3, -5793.0615, -0.112477824, -0.10395818, -1176230.1, 252322.52, 0.000073711046, 10.002128, 9.998997 
1.9501172e+2, 1.6422828e+2, -1135359.3, -1360345.8, -36300.46, -0.05409373, -0.051703963, -1129647.4, 200912.81, 0.0000047225935, 10.001806, 9.998852 
1.9501011e+2, 1.7422777e+2, -1190182.9, -1341297.6, -38200.49, -0.043829393, -0.0112846885, -1181075.0, 51491.742, 0.0000000036456946, 10.000779, 9.998805 
1.9500898e+2, 1.8422687e+2, -1134042.3, -1214136.0, -37751.215, -0.009857807, 0.0021444845, -1119053.6, 15522.781, 0.0, 10.000281, 9.999246 
1.9500826e+2, 1.9422545e+2, -1001762.3, -1099708.8, -33784.973, 0.03836036, -0.0897863, -991239.3, 45350.43, 0.0, 10.000516, 9.999247 
1.9500715e+2, 2.0422453e+2, -901871.25, -1034897.56, -58063.42, 0.043306515, -0.08791849, -880093.06, 58506.02, 0.0, 10.000684, 9.99893 
1.950054e+2, 2.1422409e+2, -789865.06, -935850.94, -79033.6, -0.013099568, -0.047631938, -755274.2, 85330.7, 0.0, 10.000799, 9.998883 
1.9500443e+2, 2.2422394e+2, -635135.25, -715502.7, -57302.668, -0.021677358, 0.012129177, -605330.9, 137275.34, 0.0, 10.000781, 9.999736 
1.9500454e+2, 2.3422416e+2, -566594.25, -626532.44, -2425.7441, 0.029231638, 0.030247333, -566496.25, 78105.65, 0.0, 10.00055, 9.999785 
1.9500406e+2, 2.4422322e+2, -606442.06, -764915.44, -16099.116, 0.038203623, 0.032891095, -604823.06, -58212.438, 0.0, 10.000341, 9.99826 
1.9500273e+2, 2.5422066e+2, -556605.0, -705519.7, -59530.24, -0.018992553, -0.06308087, -535732.7, -87094.77, 0.0, 10.000082, 9.9981165 
1.9500183e+2, 2.6421934e+2, -343157.53, -378617.1, -86042.2, -0.03747526, -0.07663808, -273037.4, 77612.06, 0.0, 10.000122, 9.999677 
1.9500138e+2, 2.7421942e+2, -198455.2, -250604.08, -57271.207, -0.015590264, -0.0711172, -161602.17, 91039.98, 0.000000036761158, 10.000398, 9.999756 
1.9500057e+2, 2.8421906e+2, -194268.27, -354576.72, -53552.09, -0.029454613, -0.012144146, -178024.73, -23381.262, 0.0000018181237, 10.000441, 9.99834 
1.9499959e+2, 2.9421842e+2, -153316.1, -281193.1, -51150.84, -0.06998724, 0.07250607, -135373.34, -78719.69, 0.000010151812, 10.000032, 9.998369 
1.95e+2, 3.0421507e+2, -20213.775, -60717.914, -91145.35, 0.061972894, -0.15844621, 52902.355, 52902.355, 0.00003534469, 10.000057, 9.999535 
1.9499734e+2, 3.142157e+2, -34841.836, -167490.1, -35783.875, -0.097146355, -0.05980574, -25804.33, -25804.33, 0.0001028295, 10.000323, 9.998682 
2.0501581e+2, 1.2423004e+2, -1460321.0, -1623666.3, 44658.11, -0.056306075, -0.12233805, -1448908.9, 273631.5, 0.0012444656, 10.001831, 9.999723 
2.05016e+2, 1.3423094e+2, -1553225.1, -1635728.0, -37311.7, 0.0036075492, -0.00998223, -1538854.3, 85676.99, 0.00070293987, 10.000629, 9.999555 
2.0501404e+2, 1.4423016e+2, -1515889.4, -1575697.4, -25584.982, -0.16145186, -0.03780333, -1506438.0, 20101.168, 0.00028321997, 10.000237, 9.999474 
2.0501378e+2, 1.542292e+2, -1288417.8, -1431811.9, -28570.031, -0.14380665, -0.09853457, -1282935.1, 145614.56, 0.000063005726, 10.001201, 9.999323 
2.050131e+2, 1.6422856e+2, -1143668.0, -1348318.5, -67400.23, -0.08640909, -0.07560969, -1123464.8, 207091.94, 0.0000035155435, 10.001692, 9.998983 
2.0501222e+2, 1.742281e+2, -1071831.0, -1270655.1, -63511.08, 0.055314634, -0.0406547, -1053275.3, 179286.56, 0.0000000004928599, 10.001541, 9.9989195 
2.0501101e+2, 1.8422721e+2, -953483.06, -1157415.0, -1727.892, 0.10258821, -0.0193304, -953468.44, 181102.73, 0.0, 10.001653, 9.998972 
2.0500925e+2, 1.942258e+2, -792323.56, -1032855.6, -22796.791, 0.010151594, -0.082632296, -790182.0, 246404.2, 0.0, 10.002098, 9.99894 
2.0500763e+2, 2.0422465e+2, -726373.56, -960105.6, -40906.836, -0.03335785, -0.084262274, -719421.06, 219177.03, 0.0, 10.001926, 9.99885 
2.0500629e+2, 2.142237e+2, -785456.4, -940350.2, -28211.078, -0.0023476123, -0.08674248, -780478.25, 60128.81, 0.0, 10.000859, 9.998827 
2.0500527e+2, 2.2422333e+2, -708731.1, -746354.94, 14610.12, 0.015732998, -0.046560522, -703724.06, 38885.66, 0.0, 10.000256, 9.999773 
2.0500481e+2, 2.3422368e+2, -606428.2, -643547.75, -31792.004, 0.019630084, -0.01930863, -588175.0, 56429.676, 0.0, 10.000267, 9.999805 
2.0500422e+2, 2.4422294e+2, -606396.3, -783779.94, -37614.04, 0.020525996, 0.0085074045, -598749.9, -52137.42, 0.0, 10.0004225, 9.998088 
2.0500346e+2, 2.542206e+2, -461737.22, -686965.0, -10295.909, 0.0102697965, -0.045779176, -461267.53, -12628.441, 0.0, 10.000837, 9.997884 
2.0500259e+2, 2.6421922e+2, -284546.1, -375893.84, -12419.108, 0.004909875, -0.03744673, -282887.75, 67764.414, 0.0, 10.000644, 9.999438 
2.0500149e+2, 2.7421904e+2, -326368.6, -336386.97, -64829.418, 0.00055310235, -0.040210407, -266355.13, -13706.057, 0.00000002096579, 9.999641, 9.999521 
2.0500037e+2, 2.8421858e+2, -359285.88, -444710.4, -53443.24, -0.03587895, 0.026683103, -333583.8, -178931.48, 0.0000012828043, 9.999358, 9.998241 
2.049994e+2, 2.9421824e+2, -144691.22, -284445.22, -53889.246, -0.088125005, 0.14804214, -126325.12, -69665.18, 0.000007381431, 10.000127, 9.9983 
2.0500019e+2, 3.0421492e+2, 40152.574, -4436.0654, -67451.37, 0.06875545, -0.087102905, 88898.55, 88898.55, 0.000026183789, 10.000364, 9.99978 
2.0499834e+2, 3.142152e+2, -156878.81, -267003.25, 18730.805, 0.010827403, -0.047494207, -153780.13, -153780.13, 0.00007851838, 9.999696, 9.998291 
2.1501593e+2, 1.24229304e+2, -1501787.4, -1699216.3, -37949.445, -0.27411258, -0.17772627, -1494744.1, 227803.5, 0.0011273269, 10.001794, 9.999222 
2.1501729e+2, 1.3423008e+2, -1569517.9, -1673039.8, -75524.75, 0.044960305, -0.048852608, -1529719.1, 94823.03, 0.0006276391, 10.000651, 9.999288 
2.1501543e+2, 1.4423e+2, -1497035.8, -1537180.9, -7200.047, -0.07299683, -0.003679406, -1495783.4, 30761.367, 0.0002466057, 10.0002365, 9.99974 
2.1501468e+2, 1.5423033e+2, -1261211.5, -1380478.1, 16339.001, -0.19983941, 0.031114299, -1259013.6, 169529.22, 0.000052325075, 10.001221, 9.999667 
2.15014e+2, 1.6422991e+2, -1115175.6, -1281535.4, -79243.95, -0.1879592, 0.036821775, -1083470.9, 247075.36, 0.000002586899, 10.001658, 9.999457 
2.1501374e+2, 1.7422841e+2, -1043141.9, -1202045.4, -60696.1, 0.032904938, -0.083647, -1022610.6, 209947.28, 0.000000000052014764, 10.001507, 9.999404 
2.1501276e+2, 1.8422766e+2, -989671.56, -1220706.3, 6416.26, 0.092561975, -0.05487236, -989493.5, 145071.81, 0.0, 10.001597, 9.998568 
2.150107e+2, 1.9422786e+2, -828587.7, -1099686.0, 3102.5828, -0.07689507, 0.08888269, -828552.2, 208016.14, 0.0, 10.00206, 9.998501 
2.1500894e+2, 2.0422707e+2, -696022.6, -883372.25, -86334.83, -0.11359182, 0.12327633, -662305.6, 276270.8, 0.0, 10.001866, 9.999406 
2.1500766e+2, 2.1422496e+2, -751453.6, -850885.5, -61480.445, 0.03014655, -0.060456097, -722103.0, 118489.03, 0.0, 10.000776, 9.99948 
2.1500647e+2, 2.242235e+2, -790980.9, -894532.3, 4410.2676, 0.09135522, -0.12061406, -790793.4, -48188.84, 0.0, 10.000161, 9.998799 
2.1500534e+2, 2.342228e+2, -699418.56, -810220.8, -20673.7, 0.0290851, -0.09013511, -695686.94, -51072.773, 0.0, 10.000157, 9.998712 
2.1500483e+2, 2.442223e+2, -560016.25, -676195.9, -30657.537, 0.020297945, -0.011890608, -552422.6, -5802.183, 0.0, 10.000377, 9.99885 
2.1500528e+2, 2.5422212e+2, -410195.63, -556580.9, 13158.9375, 0.08912269, 0.06235125, -409022.16, 39600.137, 0.0, 10.000742, 9.998824 
2.1500437e+2, 2.6422083e+2, -355461.16, -512914.34, -53819.492, 0.09819398, 0.06408869, -338823.13, 11811.468, 0.0, 10.000599, 9.998517 
2.150014e+2, 2.7421758e+2, -416384.56, -503402.63, -93192.02, 0.005806191, -0.1309844, -357045.22, -104380.83, 0.00000000626477, 9.999555, 9.998416 
2.1499942e+2, 2.8421605e+2, -360838.94, -439259.2, -39485.816, -0.08691457, -0.11657408, -344402.28, -189721.7, 0.00000075455597, 9.999325, 9.998295 
2.1499905e+2, 2.9421723e+2, -147893.44, -279498.6, -15250.733, -0.16013883, 0.14733933, -146149.27, -89476.05, 0.0000049684672, 10.000076, 9.99836 
2.1499999e+2, 3.0421558e+2, 91439.5, 98269.47, -93058.31, -0.0071774013, 0.041670144, 187975.44, 187975.44, 0.000019548965, 10.000376, 10.000485 
2.1499787e+2, 3.1421423e+2, -132674.66, -205588.73, 43628.344, -0.050463356, -0.16157204, -112276.19, -112276.19, 0.00006122242, 9.9996395, 9.99875 
2.2501798e+2, 1.2423088e+2, -1609240.1, -1779084.3, 21287.596, -0.20473967, -0.071375795, -1606612.6, 115922.31, 0.0009979393, 10.001157, 9.998988 
2.250186e+2, 1.3423051e+2, -1387992.3, -1596153.4, -32943.652, 0.054534283, -0.048276808, -1382903.0, 241636.86, 0.0005469221, 10.001951, 9.999184 
2.2501627e+2, 1.4423035e+2, -1270100.0, -1453636.4, 57091.305, -0.09086449, 0.004310335, -1253790.4, 272752.84, 0.00020906674, 10.00191, 9.999512 
2.2501607e+2, 1.5423073e+2, -1309460.4, -1429514.0, 23021.809, -0.1660703, 0.06981372, -1305197.1, 123344.0, 0.000042237294, 10.001, 9.999441 
2.2501568e+2, 1.6423035e+2, -1211485.0, -1322063.3, -79167.125, -0.14538766, 0.08537837, -1170211.6, 160332.66, 0.0000020119714, 10.000959, 9.999521 
2.2501528e+2, 1.7422876e+2, -974484.44, -1163901.1, -109968.4, 0.018427001, -0.048539862, -924062.75, 308493.47, 0.0, 10.001947, 9.999458 
2.2501433e+2, 1.842279e+2, -918247.94, -1186905.9, -53907.598, 0.070352055, -0.03361133, -907834.75, 226729.83, 0.0, 10.002094, 9.998556 
2.2501256e+2, 1.9422798e+2, -985425.44, -1178901.6, -42858.125, -0.040301148, 0.100539334, -976356.75, 60211.992, 0.0, 10.00101, 9.998462 
2.2501068e+2, 2.0422742e+2, -855198.56, -937671.7, -108140.59, -0.062343728, 0.1490918, -780699.06, 157875.75, 0.0, 10.000674, 9.999613 
2.2500874e+2, 2.1422587e+2, -663743.5, -782913.06, -129171.2, 0.041444518, 0.0018532319, -581076.56, 259507.83, 0.0, 10.001264, 9.999716 
2.2500718e+2, 2.2422443e+2, -601315.44, -835322.06, -33491.64, 0.0777558, -0.056967843, -596616.4, 145980.52, 0.0, 10.001599, 9.998516 
2.2500604e+2, 2.3422295e+2, -521568.3, -759699.25, -19007.313, 0.021093022, -0.07274574, -520060.72, 124554.05, 0.0, 10.001532, 9.998394 
2.2500555e+2, 2.4422227e+2, -390812.88, -541585.2, 11461.51, 0.011362292, -0.018803205, -389946.6, 156675.38, 0.0, 10.001304, 9.999333 
2.2500597e+2, 2.5422266e+2, -343632.34, -462264.88, 12542.925, 0.079778686, 0.056150693, -342320.7, 106294.51, 0.0, 10.000925, 9.999391 
2.2500499e+2, 2.6422152e+2, -356694.34, -542136.56, -44004.12, 0.10060794, 0.057859357, -346782.28, 3842.8872, 0.0, 10.000715, 9.998258 
2.2500205e+2, 2.7421805e+2, -248161.88, -460930.56, -44527.79, 0.055230834, -0.13235675, -239219.06, 13441.611, 0.00000000006385136, 10.000867, 9.998077 
2.2500001e+2, 2.842163e+2, -146103.78, -319986.9, 79538.72, -0.023251362, -0.123956665, -115209.67, 39470.12, 0.00000032397858, 10.000723, 9.998443 
2.2499947e+2, 2.9421747e+2, -140025.31, -262778.2, 87632.375, -0.119687915, 0.11719213, -94413.44, -37741.63, 0.000003287384, 10.000076, 9.998472 
2.249999e+2, 3.0421668e+2, -47707.793, 33153.688, -12765.679, 0.003443051, 0.09476121, 35121.15, 35121.15, 0.00001589248, 9.999409, 10.0005 
2.2499745e+2, 3.1421503e+2, -214766.47, -199771.72, 64336.45, -0.0076826736, -0.15321003, -142497.27, -142497.27, 0.000052100033, 9.998876, 9.999156 
2.3502146e+2, 1.242348e+2, -1602445.4, -1773537.8, 9357.092, -0.023532871, 0.19662558, -1601935.1, 120566.88, 0.0008671324, 10.001199, 9.999006 
2.3501962e+2, 1.342322e+2, -1380733.9, -1595034.6, -4995.372, -0.061010446, -0.0026329411, -1380617.5, 243907.75, 0.0004662031, 10.001998, 9.999175 
2.3501621e+2, 1.4423104e+2, -1323292.0, -1550770.1, 14934.064, -0.30873242, -0.019713068, -1322315.8, 204220.36, 0.00017258529, 10.00186, 9.998868 
2.3501769e+2, 1.5423033e+2, -1358451.9, -1531879.5, -1303.7819, -0.13059641, 0.008137156, -1358442.1, 70102.92, 0.000033446406, 10.001007, 9.998734 
2.3501787e+2, 1.6422975e+2, -1247629.8, -1387253.9, -57091.574, -0.04401891, 0.06398559, -1227257.8, 103293.93, 0.0000017722703, 10.000918, 9.999096 
2.350166e+2, 1.7422909e+2, -998177.06, -1210602.8, -64518.87, -0.06642461, 0.05886454, -980116.6, 252440.95, 0.0000000001389195, 10.001934, 9.9991455 
2.350155e+2, 1.8422797e+2, -905671.06, -1142546.5, -97673.32, -0.041024715, 0.047155805, -870591.5, 263977.22, 0.0, 10.002019, 9.998899 
2.350145e+2, 1.9422619e+2, -964073.7, -1123336.8, -76639.84, 0.032569118, -0.041687854, -933184.44, 103403.016, 0.0, 10.000963, 9.998866 
2.3501252e+2, 2.0422561e+2, -875337.2, -959316.44, -98786.84, 0.03762722, -0.011091719, -809986.4, 128607.086, 0.0, 10.000587, 9.999506 
2.3500928e+2, 2.142265e+2, -688229.8, -810987.5, -97722.516, -0.052683603, 0.09708973, -634209.1, 206374.8, 0.0, 10.001164, 9.999572 
2.3500718e+2, 2.242262e+2, -593206.1, -791681.5, -41394.176, -0.098926306, 0.14564219, -584918.94, 157667.36, 0.0, 10.001491, 9.998867 
2.3500666e+2, 2.3422417e+2, -507387.66, -708389.2, -13056.9375, -0.09230689, 0.038428422, -506543.06, 138063.34, 0.0, 10.00144, 9.998792 
2.3500597e+2, 2.4422275e+2, -379470.56, -506785.6, -11686.6045, -0.09783929, -0.016141206, -378406.7, 168211.25, 0.0, 10.001256, 9.999594 
2.3500516e+2, 2.5422212e+2, -340153.53, -431819.72, 6252.419, -0.114270374, -0.06664221, -339729.03, 108889.3, 0.0, 10.000827, 9.999645 
2.3500426e+2, 2.6422143e+2, -334185.84, -485943.56, -47927.887, -0.065178454, -0.052349463, -320316.8, 30306.652, 0.0, 10.000674, 9.998665 
2.3500317e+2, 2.7422038e+2, -228241.81, -403769.88, -28240.914, 0.058281627, -0.041412562, -223809.98, 28827.86, 0.0, 10.000795, 9.998507 
2.3500182e+2, 2.842194e+2, -132292.02, -284127.66, 49873.438, 0.061824374, 0.0090963, -117375.51, 37274.242, 0.00000009734078, 10.000691, 9.998705 
2.3500034e+2, 2.9421884e+2, -138290.03, -244952.94, 69598.0, -0.065538906, 0.052856036, -103939.53, -47282.8, 0.0000024854203, 10.000007, 9.998633 
2.349996e+2, 3.0421817e+2, -88008.99, -48584.813, -39854.484, 0.011737544, 0.06660879, -23834.04, -23834.04, 0.00001465121, 9.999396, 9.999947 
2.3499651e+2, 3.142177e+2, -195751.48, -152726.14, 90043.05, -0.03296266, -0.013334717, -81661.58, -81661.58, 0.000049295926, 9.998828, 9.999508 
2.4502413e+2, 1.2423624e+2, -1489161.1, -1730592.3, 22257.566, 0.09189414, 0.21941225, -1487126.4, 235362.25, 0.0007416808, 10.002032, 9.998903 
2.4502182e+2, 1.3423309e+2, -1467872.3, -1669016.1, -30712.684, -0.011323523, -0.004663745, -1463287.3, 161230.3, 0.00038814702, 10.001543, 9.998891 
2.4501808e+2, 1.4423193e+2, -1380499.3, -1580501.3, 12600.566, -0.2817226, -0.005610799, -1379708.5, 146819.4, 0.00013769997, 10.001461, 9.998855 
2.4501993e+2, 1.5423094e+2, -1203094.4, -1460561.5, 29704.764, -0.054605275, -0.008189251, -1199711.6, 228826.78, 0.000025817635, 10.0020895, 9.998701 
2.450198e+2, 1.6423024e+2, -1118524.0, -1329466.0, 27325.457, 0.0156797, 0.03944281, -1115041.8, 215504.61, 0.0000016011192, 10.001829, 9.999052 
2.4501744e+2, 1.7422967e+2, -1248065.9, -1339504.5, 25442.416, -0.08655074, 0.049071226, -1241463.4, -8910.012, 0.0000000006420841, 10.000256, 9.999073 
2.4501607e+2, 1.8422882e+2, -1170873.4, -1204216.6, 41342.438, -0.076009855, 0.04269006, -1142967.6, -8406.291, 0.0, 9.999913, 9.999486 
2.4501583e+2, 1.9422756e+2, -892818.9, -1019501.0, 63866.5, 0.06531309, -0.06069184, -866209.9, 170361.77, 0.0, 10.001153, 9.999483 
2.4501385e+2, 2.0422688e+2, -774398.75, -976800.44, 41423.94, 0.069401644, -0.044163104, -766249.0, 172328.97, 0.0, 10.001572, 9.998906 
2.450097e+2, 2.14227e+2, -801236.4, -944670.56, -18712.633, -0.097557135, 0.05869241, -798835.3, 41744.16, 0.0, 10.00074, 9.998854 
2.4500757e+2, 2.2422661e+2, -722562.3, -827534.0, 38681.508, -0.15280676, 0.1250153, -709848.3, 32735.81, 0.0, 10.000484, 9.999106 
2.4500817e+2, 2.3422539e+2, -554485.8, -693239.25, 49457.96, -0.056424174, 0.0671352, -538661.44, 105932.74, 0.0, 10.000957, 9.999128 
2.4500741e+2, 2.4422412e+2, -457623.75, -552720.06, 20056.775, -0.049818482, 0.01180848, -453566.66, 93037.15, 0.0, 10.000754, 9.999524 
2.4500495e+2, 2.542227e+2, -515864.72, -529413.25, -10503.419, -0.15172099, -0.10864366, -510140.5, -61526.992, 0.0, 9.999675, 9.999533 
2.4500352e+2, 2.642221e+2, -531264.06, -547416.1, -33776.92, -0.12706143, -0.09564098, -504611.13, -153992.23, 0.0, 9.999172, 9.99897 
2.4500336e+2, 2.742224e+2, -393576.6, -440499.03, -31959.73, 0.0686241, 0.020608537, -377391.22, -124771.65, 0.0, 9.999488, 9.998879 
2.4500227e+2, 2.8422183e+2, -280504.5, -334890.2, 38378.492, 0.09979846, 0.080842346, -260661.63, -106034.63, 0.00000009803459, 9.999585, 9.998891 
2.4500006e+2, 2.9422003e+2, -220208.08, -264027.9, 30687.39, -0.05711747, -0.014460417, -204411.77, -147767.73, 0.0000023443192, 9.999359, 9.998814 
2.449986e+2, 3.042194e+2, -130047.44, -117349.95, -39222.727, -0.016688976, 0.01493558, -83965.48, -83965.48, 0.000014050109, 9.999332, 9.999498 
2.4499635e+2, 3.1422016e+2, -59557.457, -57963.008, 81306.13, 0.036149148, 0.10557416, 22549.807, 22549.807, 0.000047419504, 9.999672, 9.999736 
2.5502542e+2, 1.242353e+2, -1504802.9, -1761571.5, -35743.023, -0.0303603, 0.007304542, -1499920.1, 222573.58, 0.000622871, 10.002029, 9.998691 
2.5502497e+2, 1.3423313e+2, -1498627.1, -1732645.1, -43804.523, 0.12859876, -0.07125906, -1490696.4, 133821.16, 0.00031436078, 10.001552, 9.9984455 
2.5502175e+2, 1.4423303e+2, -1344229.9, -1503406.0, 23358.86, -0.08681851, 0.032749813, -1340872.8, 185646.27, 0.00010539114, 10.001449, 9.999392 
2.550224e+2, 1.5423258e+2, -1155979.4, -1363836.8, 62853.73, -0.040599465, 0.018133681, -1138451.1, 290070.13, 0.000019009012, 10.0020895, 9.999365 
2.5502107e+2, 1.642318e+2, -1107630.0, -1289993.3, -33195.67, -0.058923196, 0.010711087, -1101775.4, 228753.13, 0.0000013062046, 10.001765, 9.999351 
2.550175e+2, 1.7423056e+2, -1231618.5, -1300400.8, -23479.49, -0.1280771, -0.07355071, -1224367.9, 8175.1826, 0.000000000635992, 10.000241, 9.999344 
2.5501576e+2, 1.8423054e+2, -1123300.6, -1094253.8, 73165.0, -0.12027814, -0.049190357, -1034184.7, 100357.43, 0.0, 9.999862, 10.000268 
2.5501627e+2, 1.9423197e+2, -838020.7, -896172.2, 118943.98, -0.030322073, 0.034502983, -744650.25, 291871.72, 0.0, 10.001109, 10.00035 
2.550145e+2, 2.0423119e+2, -872081.4, -1154962.5, 8348.389, -0.039408922, 0.044836752, -871835.2, 66693.45, 0.0, 10.001467, 9.997734 
2.550098e+2, 2.1422727e+2, -904223.5, -1142811.4, -41423.188, -0.1837326, -0.123260364, -897236.3, -56664.03, 0.0, 10.000671, 9.997527 
2.5500804e+2, 2.2422555e+2, -721125.8, -805815.94, 44519.277, -0.17229539, -0.1261955, -702029.25, 40561.984, 0.0, 10.000404, 9.999295 
2.5501025e+2, 2.3422663e+2, -545145.5, -653351.4, 76830.42, 0.03737682, 0.012232597, -505280.16, 139298.17, 0.0, 10.000866, 9.999447 
2.5500962e+2, 2.4422643e+2, -496994.75, -622109.94, -24186.371, 0.07634481, 0.06766738, -492482.0, 54097.32, 0.0, 10.000702, 9.999071 
2.5500515e+2, 2.5422433e+2, -565204.1, -612090.1, -44572.008, -0.12056467, -0.07030871, -538286.06, -89684.98, 0.0, 9.999586, 9.999008 
2.5500253e+2, 2.642234e+2, -521576.38, -516147.28, -33588.31, -0.1652576, -0.07066158, -485164.0, -134552.39, 0.0, 9.999126, 9.999207 
2.5500232e+2, 2.7422398e+2, -381849.0, -401522.28, -10098.054, -0.0055554593, 0.04328183, -377588.47, -124981.086, 0.0, 9.999418, 9.999186 
2.550011e+2, 2.842234e+2, -281349.25, -320761.8, 22107.027, 0.002696921, 0.0831875, -271440.38, -116827.68, 0.00000013920514, 9.999529, 9.999009 
2.5499827e+2, 2.9422107e+2, -227191.7, -249355.11, 27774.55, -0.19441125, -0.08069983, -208369.73, -151736.05, 0.0000022917138, 9.999243, 9.998964 
2.549967e+2, 3.0422023e+2, -158628.16, -172753.52, -35295.56, -0.16292256, -0.06500793, -129695.59, -129695.59, 0.000012885881, 9.999315, 9.999127 
2.5499642e+2, 3.1422198e+2, -70530.4, -70541.74, 134963.31, 0.029012311, 0.17841117, 64427.24, 64427.24, 0.000044516015, 9.999626, 9.99968 
2.6502705e+2, 1.2423677e+2, -1586932.6, -1788084.3, 62081.758, -0.02766642, -0.08467435, -1569315.3, 153160.33, 0.0005136847, 10.001387, 9.998815 
2.650275e+2, 1.3423514e+2, -1422708.5, -1720019.1, 63276.258, 0.2068797, -0.09883547, -1409801.8, 214694.11, 0.0002486243, 10.002146, 9.998253 
2.6502404e+2, 1.4423534e+2, -1303455.3, -1455731.3, 129925.445, -0.0039991005, 0.03643921, -1229002.4, 297492.8, 0.00007773356, 10.001622, 9.999631 
2.6502317e+2, 1.5423486e+2, -1456207.9, -1475088.1, 120443.945, -0.056248736, -0.008840233, -1344834.6, 83662.76, 0.000013419433, 9.999893, 9.999658 
2.6502132e+2, 1.642342e+2, -1426082.6, -1446281.0, 36468.8, -0.092924334, -0.020282008, -1398340.5, -67837.11, 0.0000010267595, 9.99958, 9.999338 
2.650185e+2, 1.7423329e+2, -1119506.1, -1249193.5, 7356.371, -0.08639789, -0.06802865, -1119090.1, 113424.59, 0.0000000012219834, 10.00102, 9.999319 
2.6501697e+2, 1.842333e+2, -901037.56, -1019721.06, 79526.305, -0.06311817, -0.026425162, -861152.94, 273361.16, 0.0, 10.001529, 9.999978 
2.6501712e+2, 1.9423442e+2, -927078.25, -977379.6, 20825.594, -0.026555933, 0.058711957, -919575.25, 116923.234, 0.0, 10.000659, 10.000015 
2.650155e+2, 2.042334e+2, -992305.75, -1208527.9, -81465.1, -0.03961086, 0.06263807, -965048.56, -26540.988, 0.0, 10.000627, 9.997769 
2.6501155e+2, 2.142294e+2, -766491.44, -1072540.9, -46226.59, -0.11882629, -0.11946074, -759661.6, 80889.37, 0.0, 10.001602, 9.997561 
2.6500976e+2, 2.2422746e+2, -546452.06, -722848.4, 83820.99, -0.09511814, -0.14436337, -512974.97, 229596.39, 0.0, 10.001602, 9.99929 
2.6501104e+2, 2.342283e+2, -638973.9, -704231.9, 69530.56, 0.067669615, -0.027449105, -594797.0, 49763.945, 0.0, 10.000239, 9.999404 
2.6501006e+2, 2.4422829e+2, -660159.94, -705364.1, -10314.597, 0.110831104, 0.052451182, -657917.6, -111356.11, 0.0, 9.999617, 9.999017 
2.6500607e+2, 2.5422695e+2, -498782.94, -581068.06, -8486.059, -0.0054339715, -0.0035147816, -497916.88, -49338.22, 0.0, 10.000065, 9.9989805 
2.6500314e+2, 2.6422626e+2, -332166.4, -399390.16, 53202.06, -0.0694483, 0.01168366, -302848.03, 47739.28, 0.0, 10.00031, 9.999444 
2.6500174e+2, 2.7422658e+2, -233473.34, -297044.56, 56455.75, -0.043147027, 0.07032891, -200470.25, 52113.05, 0.0, 10.000302, 9.999476 
2.6500016e+2, 2.8422585e+2, -208390.81, -305363.03, 77140.53, -0.0670149, 0.08661929, -165764.0, -11175.1045, 0.00000017298198, 10.000104, 9.998839 
2.64998e+2, 2.9422343e+2, -176948.64, -239354.31, 41512.43, -0.15995675, -0.06743676, -156219.8, -99608.33, 0.000002277503, 9.999634, 9.99885 
2.6499584e+2, 3.042224e+2, -203567.45, -171757.23, 8758.835, -0.14716314, -0.07363653, -169504.98, -169504.98, 0.000011802607, 9.998888, 9.999358 
2.6499557e+2, 3.1422395e+2, -344788.97, -152520.6, 212950.44, 0.09776421, 0.12939887, -15010.463, -15010.463, 0.000041814666, 9.997501, 10.000153 
2.750286e+2, 1.24240465e+2, -1552361.3, -1719612.0, 32025.45, -0.065105334, -0.07678925, -1546438.8, 175997.25, 0.00042107303, 10.001396, 9.999281 
2.75029e+2, 1.3423912e+2, -1409533.5, -1698905.5, 91682.87, 0.115903854, -0.07502819, -1382931.0, 241521.31, 0.00019522583, 10.002171, 9.998385 
2.7502462e+2, 1.4423895e+2, -1310709.5, -1467021.9, 55597.17, -0.13698637, 0.018687708, -1292952.0, 233503.75, 0.000056360343, 10.001612, 9.999557 
2.7502206e+2, 1.5423782e+2, -1463204.3, -1487193.8, 64918.688, -0.18057935, -0.081854, -1409181.5, 19285.164, 0.000009372096, 9.999891, 9.999575 
2.7502042e+2, 1.642374e+2, -1446898.6, -1486043.9, 73085.68, -0.16577458, -0.05473236, -1390810.1, -60338.766, 0.0000008660051, 9.999565, 9.999069 
2.750201e+2, 1.7423777e+2, -1142616.9, -1296211.0, 69700.98, -0.056063827, 0.05584814, -1115702.8, 116766.59, 0.000000004874734, 10.001018, 9.998995 
2.750194e+2, 1.8423705e+2, -1010790.1, -1229974.3, 44581.168, 0.006743246, 0.10904647, -1002069.44, 132408.47, 0.0, 10.001458, 9.998566 
2.7501816e+2, 1.9423488e+2, -1036884.94, -1193651.1, -2399.1492, -0.013143447, 0.011508892, -1036848.25, -347.55386, 0.0, 10.000616, 9.998547 
2.7501658e+2, 2.0423363e+2, -921569.5, -1042886.7, -57807.566, -0.012422571, 0.017654799, -898435.56, 40077.945, 0.0, 10.0005455, 9.998948 
2.7501458e+2, 2.1423334e+2, -681754.44, -872105.25, -101.92577, 0.0074569164, 0.06616921, -681754.44, 158761.31, 0.0, 10.001497, 9.998987 
2.7501252e+2, 2.2423233e+2, -584853.8, -773300.9, 31629.32, 0.0003660457, 0.069084086, -579686.8, 162837.88, 0.0, 10.00148, 9.999002 
2.7501026e+2, 2.3423027e+2, -683905.7, -772008.44, 24707.402, -0.052502744, -0.059649423, -677449.9, -32906.438, 0.0, 10.000132, 9.998991 
2.750085e+2, 2.4422954e+2, -642919.06, -655908.4, -7396.675, -0.025175862, -0.04597076, -639570.4, -93018.68, 0.0, 9.999558, 9.999383 
2.7500743e+2, 2.542304e+2, -479825.5, -527076.0, 16513.428, 0.098977454, 0.07539486, -474626.34, -26078.646, 0.0, 9.999995, 9.999388 
2.7500513e+2, 2.642306e+2, -325057.8, -371757.3, 42917.383, 0.07939545, 0.14802778, -299549.47, 50997.227, 0.0, 10.000258, 9.999657 
2.7500135e+2, 2.742299e+2, -232261.92, -277526.3, 64360.293, -0.1345455, 0.08781712, -186670.48, 65878.97, 0.00000000009324417, 10.000228, 9.999647 
2.7499923e+2, 2.8422883e+2, -241748.3, -364687.03, 51467.95, -0.19042109, 0.07385807, -223046.39, -68487.89, 0.00000023612336, 10.000064, 9.998447 
2.7499887e+2, 2.9422688e+2, -211683.86, -298272.22, 33916.01, -0.06387403, 0.015312906, -199980.94, -143402.03, 0.0000024951785, 9.999574, 9.998474 
2.7499565e+2, 3.0422604e+2, -141016.83, -31269.91, -47808.836, -0.07284127, -0.0055791964, -13364.378, -13364.378, 0.000011675634, 9.998857, 10.000329 
2.749931e+2, 3.1422624e+2, -296767.44, -21995.451, 181562.72, 0.05354977, -0.03790802, 68302.4, 68302.4, 0.000040361934, 9.9973755, 10.001105 
2.8503007e+2, 1.2424305e+2, -1527876.4, -1613906.4, -55733.555, -0.037553255, -0.06546388, -1500488.9, 221923.28, 0.00034660724, 10.001169, 10.000112 
2.8503013e+2, 1.3424253e+2, -1644190.3, -1736809.9, 27395.984, 0.12004756, -0.045195296, -1636693.6, -12275.8125, 0.00015383559, 10.000254, 9.999038 
2.8502578e+2, 1.4424233e+2, -1547349.4, -1616811.5, 19963.018, -0.09975105, 0.022777228, -1542020.9, -15599.476, 0.00004093297, 10.00014, 9.999241 
2.8502315e+2, 1.5424113e+2, -1290100.6, -1448166.5, -13585.776, -0.12220903, -0.04235613, -1288941.5, 139493.67, 0.0000066741927, 10.001258, 9.999189 
2.850216e+2, 1.642405e+2, -1146517.5, -1346281.0, 33618.977, -0.10209467, -0.014836748, -1141011.4, 189430.81, 0.00000074756446, 10.001659, 9.999022 
2.8502166e+2, 1.7424032e+2, -1127538.9, -1295590.1, 33479.254, 0.0017859706, 0.04935362, -1121114.8, 111327.84, 0.000000006090155, 10.001146, 9.998947 
2.8502086e+2, 1.8423912e+2, -1150750.9, -1363374.9, 32921.3, 0.04388642, 0.08300197, -1145770.3, -11314.116, 0.0, 10.000785, 9.997973 
2.850187e+2, 1.9423647e+2, -1093023.5, -1294748.0, 26449.684, -0.010040727, 0.0030268803, -1089613.1, -53125.4, 0.0, 10.000549, 9.997888 
2.8501698e+2, 2.0423533e+2, -908740.44, -973146.06, 28331.53, -0.00952489, 0.029618997, -898051.56, 40449.35, 0.0, 10.0003605, 9.99951 
2.850159e+2, 2.1423607e+2, -836926.9, -874830.06, 14089.18, 0.061969377, 0.114424504, -832263.5, 8227.594, 0.0, 10.000123, 9.999628 
2.850137e+2, 2.2423553e+2, -773788.44, -844272.06, 18547.648, 0.046322174, 0.12364717, -769205.6, -26711.393, 0.0, 10.000102, 9.999176 
2.850101e+2, 2.3423322e+2, -643617.25, -737891.8, 34408.043, -0.084323786, -0.043751556, -632395.0, 12120.671, 0.0, 10.000346, 9.999121 
2.8500783e+2, 2.442324e+2, -508469.28, -591226.0, 57706.047, -0.08974386, -0.045410667, -478839.5, 67685.16, 0.0, 10.000473, 9.999387 
2.8500736e+2, 2.542336e+2, -409668.03, -493703.94, 32472.316, 0.07674134, 0.10845152, -398582.7, 49934.19, 0.0, 10.000485, 9.999378 
2.8500536e+2, 2.6423374e+2, -336590.5, -388978.56, 27919.445, 0.08280652, 0.17897592, -324501.06, 26015.05, 0.0, 10.000239, 9.99954 
2.850015e+2, 2.7423224e+2, -336174.2, -339519.5, 6098.2, -0.10167457, 0.049437832, -331523.4, -78997.06, 0.0000000018932573, 9.999566, 9.999535 
2.849995e+2, 2.84231e+2, -352868.2, -358353.56, 35074.95, -0.11590592, 0.0039058984, -320428.84, -165893.3, 0.00000028816427, 9.999037, 9.998996 
2.849994e+2, 2.9423025e+2, -271351.34, -253523.6, 80886.57, 0.072848685, 0.0024204464, -181061.22, -124518.08, 0.0000027347362, 9.998853, 9.999128 
2.84995e+2, 3.0422997e+2, -76077.125, -34691.688, 16822.371, -0.04445856, 0.016679069, -28716.432, -28716.432, 0.000012525966, 9.999435, 10.000023 
2.8499106e+2, 3.14229e+2, 115911.06, 152572.55, 93454.27, -0.022663493, -0.095338635, 229476.88, 229476.88, 0.000040482082, 10.000313, 10.000878 
2.9503065e+2, 1.2424476e+2, -1437099.5, -1442633.6, -138071.48, -0.15607211, -0.03464151, -1301767.4, 420634.5, 0.00028487924, 10.001236, 10.001256 
2.950307e+2, 1.3424543e+2, -1565316.0, -1580342.0, -3845.2883, 0.12211994, -0.008558257, -1564389.1, 60002.934, 0.000121053716, 10.00029, 10.000092 
2.9502735e+2, 1.4424534e+2, -1581722.4, -1696995.8, 40328.758, 0.009664884, 0.042576443, -1569014.3, -42621.09, 0.000029834508, 10.000166, 9.998683 
2.95026e+2, 1.5424475e+2, -1339453.3, -1551415.5, 34281.52, 0.012116116, 0.10429994, -1334046.6, 94356.77, 0.000004731658, 10.00126, 9.998481 
2.9502457e+2, 1.6424347e+2, -1141548.8, -1327573.4, 11113.401, 0.0077575427, 0.1022467, -1140887.1, 189528.8, 0.00000054097734, 10.001628, 9.999162 
2.9502305e+2, 1.7424114e+2, -1111051.8, -1257125.0, 26365.81, -0.0014574124, -0.07802636, -1106438.5, 125994.38, 0.0000000012704189, 10.001138, 9.999208 
2.9502106e+2, 1.8423963e+2, -1145095.1, -1342858.1, 15010.407, -0.03580594, -0.09781441, -1143962.3, -9514.773, 0.0, 10.000742, 9.998138 
2.9501846e+2, 1.9423907e+2, -1089562.1, -1277254.1, 27074.404, -0.11130157, 0.018589146, -1085734.8, -49274.156, 0.0, 10.000505, 9.998028 
2.9501647e+2, 2.042384e+2, -928206.2, -991880.44, 12592.085, -0.118329, 0.0878505, -925806.44, 12664.211, 0.0, 10.000268, 9.999425 
2.950151e+2, 2.1423747e+2, -858590.06, -894097.8, 15603.036, -0.04939895, 0.01780426, -852708.06, -12230.148, 0.0, 10.000016, 9.999544 
2.9501313e+2, 2.2423704e+2, -746127.6, -760030.4, 17867.465, -0.040186748, 0.012911304, -733906.94, 8573.28, 0.0, 9.999987, 9.999809 
2.9501042e+2, 2.3423718e+2, -609445.1, -642501.2, 53342.57, -0.10908447, 0.019995846, -570128.7, 74348.56, 0.0, 10.000245, 9.999822 
2.950079e+2, 2.4423705e+2, -541205.25, -646860.1, 50395.81, -0.15304843, 0.06442307, -521022.56, 25456.121, 0.0, 10.000415, 9.999039 
2.9500565e+2, 2.542365e+2, -448992.47, -562190.8, 41183.0, -0.16563207, 0.09124114, -435595.16, 12891.375, 0.0, 10.000422, 9.998945 
2.9500353e+2, 2.6423544e+2, -371673.75, -453675.66, -3019.0508, -0.14403129, 0.08800597, -371562.75, -21065.486, 0.0, 10.000201, 9.999116 
2.9500183e+2, 2.742335e+2, -375586.63, -405222.8, -14008.021, -0.050878394, -0.048229497, -370013.53, -117499.14, 0.0000000016821552, 9.999494, 9.999119 
2.9500052e+2, 2.842326e+2, -252007.63, -138851.84, 14884.9795, 0.06360069, -0.11168674, -136926.56, 17592.793, 0.00000022409213, 9.998996, 10.000524 
2.9499924e+2, 2.9423347e+2, -163166.2, -18083.035, 89725.36, 0.14565533, -0.113014966, 24757.016, 81261.52, 0.0000026534976, 9.998802, 10.000774 
2.9499355e+2, 3.042342e+2, -188868.17, -261279.33, 46773.004, -0.15479046, -0.012924618, -165925.14, -165925.14, 0.00001292508, 9.999403, 9.998481 
2.9498872e+2, 3.1423184e+2, 14257.573, -53433.184, 133902.48, -0.34363535, -0.0869957, 118525.85, 118525.85, 0.00004085486, 10.000283, 9.999476 
3.0503148e+2, 1.2424721e+2, -1698504.5, -1627527.9, -13662.843, -0.10670201, -0.07005623, -1624988.8, 97388.59, 0.00023189351, 9.999699, 10.000741 
3.0503115e+2, 1.342481e+2, -1445535.3, -1572500.0, -13856.632, 0.098059155, 0.025754435, -1444040.5, 180327.05, 0.000094942065, 10.001306, 9.999673 
3.050283e+2, 1.442474e+2, -1362560.8, -1563930.0, 8029.6895, 0.023832928, 0.025825212, -1362241.0, 164133.77, 0.000021738364, 10.001582, 9.9988985 
3.050273e+2, 1.542467e+2, -1441424.9, -1575174.9, 45282.04, 0.063531466, 0.055044934, -1427536.5, 846.91565, 0.0000030875526, 10.000462, 9.998695 
3.0502594e+2, 1.642454e+2, -1337716.0, -1407826.5, 84900.74, 0.059907302, 0.032195218, -1280918.0, 49476.746, 0.0000002653173, 10.000213, 9.99929 
3.0502403e+2, 1.7424318e+2, -1113648.6, -1242027.5, 73535.05, -0.0067410865, -0.14811036, -1080228.3, 152182.75, 0.0, 10.001052, 9.999351 
3.050217e+2, 1.842421e+2, -1043981.06, -1243308.0, 58204.016, -0.06285847, -0.1525871, -1028230.0, 106191.11, 0.0, 10.001217, 9.998596 
3.0501887e+2, 1.9424236e+2, -1073834.8, -1221480.4, 75316.12, -0.11024704, -0.0009241714, -1042195.1, -5770.0474, 0.0, 10.000391, 9.998476 
3.0501667e+2, 2.0424189e+2, -976805.75, -1043005.6, 106465.98, -0.11110333, 0.07519382, -898413.06, 40020.344, 0.0, 10.0000515, 9.999183 
3.050152e+2, 2.1424036e+2, -834532.2, -920445.0, 76071.47, -0.05253073, -0.022545852, -790126.56, 50321.477, 0.0, 10.000335, 9.999217 
3.050134e+2, 2.2423974e+2, -684331.2, -755638.9, 61414.54, -0.031057267, -0.020853035, -648971.4, 93482.39, 0.0, 10.000521, 9.999582 
3.050113e+2, 2.3424019e+2, -578751.4, -651905.25, 10385.326, -0.05370061, 0.039998632, -577305.56, 67142.89, 0.0, 10.0005665, 9.999599 
3.0500898e+2, 2.4424e+2, -522649.2, -638693.8, -4725.5273, -0.08909764, 0.092772454, -522457.1, 23993.002, 0.0, 10.000555, 9.999023 
3.0500624e+2, 2.5423893e+2, -427070.66, -545637.7, 6302.893, -0.14895616, 0.06511679, -426736.53, 21724.75, 0.0, 10.000559, 9.998985 
3.050038e+2, 2.642377e+2, -357266.5, -465603.53, -10726.523, -0.14475062, 0.047169175, -356214.66, -5741.026, 0.0, 10.000375, 9.998955 
3.0500183e+2, 2.7423596e+2, -310247.28, -395546.28, -20947.145, -0.022143401, -0.04565746, -305380.84, -52890.58, 0.00000000014964384, 10.0000305, 9.998932 
3.0500025e+2, 2.8423518e+2, -123922.62, -54404.684, 2644.0, 0.10525098, -0.098006435, -54304.266, 100190.484, 0.00000013461268, 9.999791, 10.0007105 
3.0499873e+2, 2.9423612e+2, -36082.844, 64079.625, -48141.695, 0.17947614, -0.11640013, 83466.03, 139944.06, 0.0000024184974, 9.999606, 10.00094 
3.0499274e+2, 3.0423662e+2, -208020.13, -308203.34, -76782.6, -0.1711813, -0.026854895, -166434.38, -166434.38, 0.00001259153, 9.9994335, 9.998155 
3.0498818e+2, 3.1423452e+2, -188575.75, -149337.14, 64987.516, -0.3443784, -0.043128766, -101072.02, -101072.02, 0.000039631555, 9.998881, 9.99951 
3.150321e+2, 1.2425048e+2, -1834769.9, -1922015.4, 3838.7527, -0.061352357, -0.14920998, -1834601.4, -112263.4, 0.00018871382, 9.999757, 9.99869 
3.150312e+2, 1.3425079e+2, -1576855.6, -1835645.4, 49500.08, -0.052444026, 0.072526515, -1567710.6, 56631.39, 0.00007509751, 10.001288, 9.997867 
3.150283e+2, 1.4424872e+2, -1299970.9, -1440105.3, -38944.926, -0.15725501, -0.007888702, -1289875.0, 236488.92, 0.00001598166, 10.001596, 9.999743 
3.1502676e+2, 1.5424703e+2, -1364233.8, -1419853.8, 12926.928, -0.06266807, -0.18771861, -1361376.1, 66998.52, 0.00000170519, 10.000482, 9.999749 
3.1502554e+2, 1.6424622e+2, -1334059.6, -1398745.9, 97775.91, -0.026622614, -0.21951148, -1263416.4, 66962.82, 0.000000057148895, 10.0002, 9.999363 
3.1502435e+2, 1.7424642e+2, -1117327.0, -1244059.6, 110263.69, -0.099580735, -0.15915337, -1053518.8, 178858.52, 0.0, 10.001027, 9.999349 
3.1502244e+2, 1.8424654e+2, -999467.44, -1140638.9, 21700.652, -0.12845078, -0.07630739, -996206.94, 138170.16, 0.0, 10.001167, 9.999327 
3.1501958e+2, 1.9424638e+2, -1023096.56, -1102379.5, 52335.766, -0.10015403, -0.04877049, -997083.8, 39297.15, 0.0, 10.000333, 9.999319 
3.150173e+2, 2.042459e+2, -1025281.7, -1116507.8, 104142.13, -0.06909712, 0.001886665, -957201.56, -18813.564, 0.0, 9.999942, 9.998729 
3.1501585e+2, 2.1424481e+2, -891286.25, -1009460.94, 96287.81, -0.039166857, 0.0034975016, -837401.7, 2998.9966, 0.0, 10.000217, 9.998659 
3.1501424e+2, 2.2424366e+2, -771432.6, -916891.06, 55369.832, -0.018754812, 0.032197773, -752754.2, -10340.402, 0.0, 10.000433, 9.998521 
3.1501248e+2, 2.3424222e+2, -668438.8, -819125.4, 20637.758, -0.009794369, 0.016600367, -665663.44, -21234.154, 0.0, 10.000483, 9.998496 
3.1501073e+2, 2.4424122e+2, -504303.38, -590928.56, -14313.668, 0.009581968, 0.0307866, -501999.5, 44439.832, 0.0, 10.000514, 9.99937 
3.1500882e+2, 2.5424087e+2, -407797.72, -483073.8, 11161.294, 0.03598215, 0.02714411, -406177.7, 42263.906, 0.0, 10.000462, 9.999461 
3.150058e+2, 2.642405e+2, -351603.66, -445294.8, -31146.742, 0.00014729692, 0.06403434, -342194.22, 8250.686, 0.0, 10.000337, 9.999114 
3.1500122e+2, 2.7423975e+2, -308768.34, -379290.38, -24382.18, -0.107431576, 0.054385766, -301159.44, -48705.563, 0.00000000001473293, 9.99997, 9.999076 
3.149984e+2, 2.842388e+2, -214561.6, -232137.64, -13717.473, -0.08360683, 0.03504251, -207058.56, -52596.4, 0.000000108201135, 9.999748, 9.999509 
3.149974e+2, 2.9423806e+2, -142382.64, -142843.06, -44967.945, 0.060985025, -0.020159055, -97644.32, -41179.027, 0.0000023186144, 9.999538, 9.999554 
3.1499222e+2, 3.0423722e+2, -146155.78, -173553.0, -99199.43, -0.18639898, -0.032179005, -59713.594, -59713.594, 0.000012381474, 9.999408, 9.999093 
3.1498894e+2, 3.142369e+2, -81781.37, 80215.016, 48077.387, -0.2069593, 0.010400088, 93408.87, 93408.87, 0.000038035574, 9.998837, 10.001112 
3.2503217e+2, 1.242535e+2, -1656666.0, -1852823.1, -90278.336, -0.08674276, -0.07712709, -1621442.0, 100868.516, 0.00015750076, 10.001037, 9.998542 
3.2503217e+2, 1.3425326e+2, -1657652.3, -1856879.1, 77138.86, -0.040432688, 0.06805971, -1631276.6, -6957.7866, 0.00006189271, 10.000626, 9.99805 
3.2503003e+2, 1.4425097e+2, -1489917.5, -1543920.0, 25373.027, -0.07591254, -0.037931, -1479866.6, 46475.977, 0.000012633238, 10.00033, 9.999649 
3.2502717e+2, 1.5424985e+2, -1352834.3, -1424908.3, -30729.68, -0.070553966, -0.14928518, -1341511.1, 86837.74, 0.0000008198343, 10.000591, 9.999668 
3.2502526e+2, 1.6424945e+2, -1342649.4, -1399491.8, 32846.332, -0.06478058, -0.13876215, -1327635.0, 2715.4766, 0.000000004124255, 10.000141, 9.99938 
3.250242e+2, 1.7424983e+2, -1451873.4, -1408736.5, 27753.533, -0.09785876, -0.060071405, -1395155.9, -162808.05, 0.0, 9.998738, 9.999326 
3.2502267e+2, 1.8424982e+2, -1368528.9, -1291354.5, -43037.297, -0.083963834, 0.00019873513, -1272138.8, -137790.39, 0.0, 9.998523, 9.999556 
3.250206e+2, 1.9424923e+2, -1076694.3, -1098643.1, -75305.48, -0.0015543201, -0.042224478, -1011567.75, 24786.43, 0.0, 9.999848, 9.999569 
3.2501855e+2, 2.0424856e+2, -915874.8, -1081816.8, -19198.105, 0.026676625, -0.01585431, -913682.7, 24678.816, 0.0, 10.000759, 9.998577 
3.250166e+2, 2.1424776e+2, -790459.3, -981022.5, -16032.905, -0.016584741, 0.028929833, -789119.8, 51251.79, 0.0, 10.000994, 9.998484 
3.2501483e+2, 2.242465e+2, -699991.56, -893374.0, -3997.296, -0.024268324, 0.06250742, -699908.94, 42476.543, 0.0, 10.000966, 9.998427 
3.2501328e+2, 2.3424453e+2, -648288.7, -819596.3, 21778.408, 0.017726349, 0.00010264415, -645563.4, -1157.3208, 0.0, 10.000656, 9.99841 
3.250115e+2, 2.4424317e+2, -524826.2, -594199.5, 34519.727, 0.050871048, -0.019535884, -510576.4, 35842.71, 0.0, 10.000335, 9.999439 
3.250094e+2, 2.542427e+2, -452617.72, -496627.97, 17068.813, 0.07150038, -0.043920107, -446773.78, 1647.9828, 0.0, 10.000103, 9.999548 
3.250062e+2, 2.6424265e+2, -361120.22, -428332.06, -16202.307, 0.019188363, 0.0099368505, -357418.34, -6996.5273, 0.0, 10.000189, 9.999299 
3.250015e+2, 2.7424276e+2, -183678.08, -296778.72, -21746.863, -0.11110959, 0.07296004, -179640.73, 72781.516, 0.00000000010851988, 10.000748, 9.999262 
3.2499835e+2, 2.842419e+2, -94350.875, -261015.78, 10722.836, -0.11297975, 0.09090218, -93663.83, 60767.133, 0.00000014604628, 10.000936, 9.998746 
3.2499704e+2, 2.9424015e+2, -60824.156, -197803.1, -4021.1946, 0.029534657, 0.013229474, -60706.21, -4259.161, 0.0000023415487, 10.000505, 9.99871 
3.249921e+2, 3.0423814e+2, -20029.459, -67283.35, -42378.406, -0.16526781, -0.08748654, 4863.3022, 4863.3022, 0.000012312151, 10.0001, 9.9994755 
3.249898e+2, 3.1423914e+2, 44190.504, 183256.36, -8199.178, -0.028418992, 0.031073648, 183738.11, 183738.11, 0.000036624067, 9.9995575, 10.001452 
3.35031e+2, 1.2425622e+2, -1542568.6, -1613688.8, -138627.77, -0.35943067, 0.14027552, -1435012.8, 287282.34, 0.00013853858, 10.0010395, 10.000177 
3.3503386e+2, 1.3425554e+2, -1509013.4, -1537977.9, 61485.92, 0.043428514, 0.02355994, -1460327.1, 163970.66, 0.000055370125, 10.000609, 10.00023 
3.3503315e+2, 1.4425416e+2, -1560062.8, -1685894.1, 18063.596, 0.17381947, -0.060896672, -1557521.0, -31209.834, 0.000011804474, 10.000313, 9.998685 
3.3502814e+2, 1.5425539e+2, -1434147.3, -1592058.8, -11981.49, -0.05545831, 0.17985545, -1433243.4, -4938.941, 0.00000057438905, 10.000588, 9.998522 
3.350248e+2, 1.6425528e+2, -1350379.4, -1413071.4, -23281.13, -0.14694373, 0.2839543, -1342679.5, -12372.3125, 0.00000000201948, 10.000127, 9.999298 
3.3502328e+2, 1.7425346e+2, -1451385.8, -1408546.1, -14438.637, -0.089680456, 0.14444782, -1404134.1, -171812.03, 0.0, 9.99874, 9.999329 
3.3502212e+2, 1.8425196e+2, -1401864.8, -1344867.6, -10307.871, -0.015679022, 0.07255665, -1343060.8, -208725.97, 0.0, 9.998456, 9.999223 
3.3502162e+2, 1.942508e+2, -1110843.1, -1154958.5, -16621.709, 0.09197719, 0.008468776, -1105281.6, -68935.82, 0.0, 9.999789, 9.99921 
3.3502012e+2, 2.0424989e+2, -915805.2, -1062570.0, -17121.682, 0.0903005, 0.020788336, -913834.25, 24520.086, 0.0, 10.000679, 9.99875 
3.3501723e+2, 2.1424915e+2, -790924.25, -954508.7, 1163.6486, -0.07063516, 0.049984, -790915.94, 49445.254, 0.0, 10.000878, 9.998721 
3.350149e+2, 2.2424823e+2, -655353.6, -777199.6, -24145.729, -0.13118683, 0.06659016, -650743.2, 91626.02, 0.0, 10.000866, 9.999272 
3.3501333e+2, 2.3424709e+2, -599645.5, -691747.5, 16138.512, -0.059094477, -0.005035214, -596899.5, 47479.426, 0.0, 10.000545, 9.99934 
3.3501104e+2, 2.442459e+2, -541153.94, -621197.6, 17645.082, -0.047595605, -0.052664775, -537436.8, 8952.266, 0.0, 10.0003, 9.999271 
3.3500776e+2, 2.5424445e+2, -480947.25, -539294.1, 15923.832, -0.1274214, -0.14699912, -476884.3, -28483.148, 0.0, 10.000034, 9.999286 
3.3500478e+2, 2.642441e+2, -356272.94, -411647.38, -6235.5376, -0.15932126, -0.11388242, -355579.44, -5175.5596, 0.0, 10.000161, 9.999427 
3.350023e+2, 2.74245e+2, -182597.0, -275057.1, 8117.838, -0.12909049, 0.006406129, -181889.67, 70506.47, 0.000000000044508567, 10.000666, 9.999448 
3.3499995e+2, 2.842446e+2, -114394.25, -300149.66, -10826.097, -0.07118006, 0.066537306, -113765.414, 40635.555, 0.00000018851506, 10.000916, 9.998491 
3.349973e+2, 2.9424247e+2, -89921.195, -250667.08, -10917.573, -0.026639901, -0.016486272, -89183.08, -32760.652, 0.0000023038672, 10.000463, 9.998374 
3.3499196e+2, 3.042393e+2, -44601.91, -112806.1, -68672.53, -0.2088078, -0.19992535, -2030.2195, -2030.2195, 0.000011796056, 10.000077, 9.999172 
3.3499017e+2, 3.1424093e+2, -45467.457, 19603.793, -20659.271, 0.0038059815, 0.012587505, 25608.697, 25608.697, 0.000034748333, 9.999454, 10.000383 
3.4503248e+2, 1.2425856e+2, -1687557.6, -1676247.0, 42187.32, -0.25490957, 0.11404992, -1639337.6, 82934.266, 0.00012841672, 10.000025, 10.000237 
3.450338e+2, 1.3425829e+2, -1562655.3, -1533690.3, 52875.414, 0.011834554, 0.011341046, -1493349.9, 130919.86, 0.00005393956, 10.000094, 10.000526 
3.4503344e+2, 1.4425735e+2, -1577137.1, -1719083.6, 13041.454, 0.18008238, -0.03530702, -1575948.9, -49669.66, 0.00001321429, 10.000314, 9.998449 
3.4502926e+2, 1.5425836e+2, -1401756.5, -1615188.3, 23026.824, -0.015071461, 0.21380678, -1399300.5, 28975.934, 0.00000089811203, 10.0009775, 9.998175 
3.45026e+2, 1.6425788e+2, -1198276.0, -1365903.5, 12916.685, -0.09153551, 0.31125635, -1197286.5, 132997.11, 0.0000000015154811, 10.001277, 9.999068 
3.4502342e+2, 1.7425552e+2, -1124158.1, -1269578.1, -14350.861, -0.057478856, 0.13845544, -1122755.4, 109547.766, 0.0, 10.001078, 9.99915 
3.450218e+2, 1.8425381e+2, -1065392.5, -1221355.8, 48280.984, -0.01065339, 0.06815342, -1051656.1, 82661.88, 0.0, 10.00093, 9.998881 
3.4502167e+2, 1.9425273e+2, -989798.25, -1139012.6, 33072.29, 0.073282525, 0.04877378, -982796.56, 53532.215, 0.0, 10.000794, 9.998842 
3.4502047e+2, 2.0425165e+2, -911964.9, -1029391.94, 26992.195, 0.070359446, 0.05243946, -906057.56, 32280.848, 0.0, 10.000566, 9.999032 
3.4501782e+2, 2.1425039e+2, -875747.1, -962290.94, 32245.4, -0.05804536, -0.001130087, -865054.0, -24705.592, 0.0, 10.00014, 9.999027 
3.4501544e+2, 2.2424963e+2, -798825.0, -821519.7, -215.54219, -0.10598137, 0.0038465785, -798822.94, -56468.324, 0.0, 9.99978, 9.999489 
3.4501353e+2, 2.3424956e+2, -734777.9, -735914.75, -32256.678, -0.039080415, 0.020420305, -703084.6, -58728.68, 0.0, 9.999525, 9.99953 
3.4501094e+2, 2.4424893e+2, -648724.3, -667214.94, -26830.773, -0.04930631, 0.018414631, -629590.6, -83229.27, 0.0, 9.99955, 9.999314 
3.450073e+2, 2.5424734e+2, -488116.25, -544399.25, -24464.52, -0.16854276, -0.09410013, -478968.9, -30594.047, 0.0, 9.999991, 9.999277 
3.450045e+2, 2.6424646e+2, -362130.94, -418790.97, -24423.402, -0.1987024, -0.1075653, -353056.53, -2674.8918, 0.0, 10.00014, 9.999387 
3.4500286e+2, 2.7424654e+2, -292836.3, -333694.53, -42452.58, -0.0941175, -0.061870195, -266153.13, -13772.798, 0.0, 9.999929, 9.999404 
3.450007e+2, 2.8424624e+2, -248078.1, -332532.0, -46000.348, -0.027490636, -0.000008424708, -227861.89, -73478.516, 0.00000016974016, 9.999882, 9.998759 
3.449973e+2, 2.9424524e+2, -115083.375, -231510.19, -23503.059, -0.049884338, 0.003609506, -110517.84, -54123.504, 0.0000020169734, 10.000161, 9.998653 
3.449919e+2, 3.0424255e+2, -14158.706, -107108.43, -34319.305, -0.22761527, -0.14522772, -2860.498, -2860.498, 0.0000103175025, 10.000308, 9.999106 
3.4499055e+2, 3.1424353e+2, -28577.232, -59304.824, -15882.364, 0.082551785, 0.008491073, -21843.615, -21843.615, 0.00003196276, 9.9999275, 9.999611 
3.5503593e+2, 1.24260545e+2, -1789361.8, -1900988.0, 38609.23, 0.027918115, -0.14574416, -1777309.0, -55068.438, 0.00012227354, 10.000074, 9.998675 
3.5503158e+2, 1.3426162e+2, -1657812.3, -1737063.8, 61291.945, -0.24193577, 0.036102414, -1624452.4, -218.77808, 0.00005490219, 10.00013, 9.999109 
3.5503063e+2, 1.4426073e+2, -1548850.6, -1669124.6, 25644.879, -0.16292588, 0.050771613, -1543610.9, -17366.15, 0.000015641235, 10.000344, 9.998782 
3.5503027e+2, 1.542588e+2, -1367383.6, -1552239.1, 56137.355, -0.04043491, -0.034907684, -1351671.3, 76593.445, 0.0000017221555, 10.001011, 9.998592 
3.5502857e+2, 1.6425721e+2, -1223536.1, -1412074.8, -4324.3447, 0.011634514, -0.056935415, -1223437.0, 106843.53, 0.000000007086625, 10.001246, 9.998765 
3.5502437e+2, 1.7425604e+2, -1150324.8, -1321476.3, -13047.665, -0.09574924, -0.07715753, -1149335.8, 82955.37, 0.0, 10.001065, 9.9988 
3.5502142e+2, 1.8425533e+2, -1098402.6, -1276343.6, 36516.313, -0.16281186, -0.013032709, -1091200.4, 43097.88, 0.0, 10.000871, 9.998532 
3.5502046e+2, 1.9425508e+2, -1020838.44, -1191958.3, 37350.46, -0.14526795, 0.08695052, -1013041.2, 23261.281, 0.0, 10.000745, 9.998502 
3.5501942e+2, 2.0425397e+2, -900224.7, -985342.4, 3146.5886, -0.109637626, 0.08930086, -900108.56, 38204.184, 0.0, 10.000478, 9.999378 
3.5501808e+2, 2.1425158e+2, -860938.8, -907706.06, 26019.188, -0.06480454, -0.12011753, -849339.7, -9007.27, 0.0, 10.000038, 9.999451 
3.5501617e+2, 2.2425078e+2, -844596.1, -897753.5, -16577.191, -0.028620891, -0.11950044, -839850.2, -97509.23, 0.0, 9.999697, 9.999006 
3.5501358e+2, 2.3425204e+2, -787761.2, -825793.3, -33559.258, -0.003176134, 0.084607445, -768204.8, -123868.71, 0.0, 9.999439, 9.998955 
3.550108e+2, 2.4425234e+2, -646768.94, -647824.75, -21521.8, -0.034826614, 0.20028555, -625768.56, -79432.81, 0.0, 9.999487, 9.9994755 
3.550077e+2, 2.542512e+2, -486127.3, -516747.84, -1390.9414, -0.14504997, 0.11180658, -486064.25, -37720.844, 0.0, 9.9999, 9.999506 
3.5500503e+2, 2.642497e+2, -382505.9, -452946.66, -37207.97, -0.17885624, 0.031043475, -366492.44, -16137.469, 0.0, 10.000103, 9.999169 
3.5500297e+2, 2.7424756e+2, -322282.97, -378237.56, -40789.582, -0.09833979, -0.12395508, -300797.97, -48424.516, 0.0, 9.999861, 9.999129 
3.550004e+2, 2.8424698e+2, -203327.92, -232677.47, -45570.82, -0.066438854, -0.10636017, -170127.34, -15749.644, 0.00000011654808, 9.999855, 9.999456 
3.5499683e+2, 2.942484e+2, -67719.92, -117323.49, -723.1787, -0.1391683, 0.062161956, -67709.38, -11345.779, 0.0000016052002, 10.000099, 9.999464 
3.5499164e+2, 3.042479e+2, 7603.8477, -65426.277, -49050.594, -0.30496344, 0.070070945, 32238.686, 32238.686, 0.000008325357, 10.000314, 9.999396 
3.5499018e+2, 3.1424752e+2, -72383.73, -135741.53, -14561.4, 0.0034753885, 0.070484295, -69197.35, -69197.35, 0.000028550077, 9.999863, 9.99912 
3.6503744e+2, 1.2426274e+2, -1585907.3, -1862587.9, -90016.33, 0.10308386, -0.1452988, -1559199.3, 163019.66, 0.000118926524, 10.001723, 9.998145 
3.6503208e+2, 1.3426298e+2, -1501476.4, -1724100.9, -66745.52, -0.26287672, 0.0065985983, -1482998.9, 141222.55, 0.000056465244, 10.001471, 9.998545 
3.6503127e+2, 1.4426224e+2, -1418259.8, -1544869.0, -32993.09, -0.159359, 0.040342975, -1410177.9, 116051.98, 0.00001794202, 10.000985, 9.999325 
3.650311e+2, 1.5426028e+2, -1432622.5, -1509853.4, -9102.786, -0.014623925, -0.10942358, -1431564.1, -3318.4265, 0.000002788093, 10.000249, 9.999252 
3.6502957e+2, 1.6425873e+2, -1409040.0, -1544125.1, -29898.834, 0.049226694, -0.14392506, -1402718.1, -72458.07, 0.00000008230677, 10.000165, 9.99838 
3.6502543e+2, 1.7425768e+2, -1207309.8, -1401577.5, -68766.44, -0.08208327, -0.10469453, -1185431.8, 46840.902, 0.0, 10.0009, 9.998331 
3.6502224e+2, 1.8425687e+2, -1085930.9, -1262514.4, -22747.686, -0.16614303, -0.02806875, -1083047.5, 51234.457, 0.0, 10.000928, 9.9986 
3.6502063e+2, 1.942562e+2, -1128849.4, -1231036.8, -5482.535, -0.15946427, 0.018874845, -1128556.1, -92267.3, 0.0, 9.999951, 9.998618 
3.6501932e+2, 2.0425525e+2, -1039242.06, -1028207.94, 3690.898, -0.10997668, 0.022116637, -1027087.1, -88789.88, 0.0, 9.999427, 9.999589 
3.6501828e+2, 2.1425383e+2, -927593.9, -914527.0, -7378.805, -0.015360911, -0.110271215, -911204.9, -70895.695, 0.0, 9.999482, 9.999669 
3.6501643e+2, 2.242534e+2, -867565.56, -929920.25, -25917.002, 0.033849876, -0.07772247, -858200.1, -115884.42, 0.0, 9.999624, 9.998826 
3.6501354e+2, 2.3425415e+2, -742335.06, -826788.56, -30707.727, 0.03308194, 0.09846103, -732350.1, -88033.75, 0.0, 9.999844, 9.998755 
3.6501083e+2, 2.4425434e+2, -594375.75, -628587.5, 9723.494, 0.006797053, 0.21459262, -591805.3, -45487.17, 0.0, 9.999851, 9.999445 
3.6500826e+2, 2.5425372e+2, -538541.56, -542062.06, -4575.763, -0.053720262, 0.17712162, -535399.1, -87076.71, 0.0, 9.999528, 9.999518 
3.650056e+2, 2.6425236e+2, -471259.38, -492984.53, -25894.334, -0.094653614, 0.10899302, -454041.5, -103708.805, 0.0, 9.999489, 9.999187 
3.6500287e+2, 2.7424982e+2, -316378.66, -373600.22, -28132.967, -0.09155446, -0.08402821, -304864.13, -52510.523, 0.0, 9.999898, 9.999141 
3.6500007e+2, 2.8424892e+2, -177477.14, -190958.5, -26364.088, -0.07960794, -0.108903475, -157005.66, -2646.3772, 0.000000055764154, 9.99989, 9.999731 
3.64997e+2, 2.9425043e+2, -165174.25, -126900.2, -36713.23, -0.079905495, 0.030646628, -104635.695, -48292.27, 0.0000011855267, 9.999267, 9.999797 
3.6499226e+2, 3.0425084e+2, -120503.016, -124092.52, -77627.75, -0.22288758, 0.11029008, -44649.273, -44649.273, 0.0000067298934, 9.999446, 9.999404 
3.649903e+2, 3.1424963e+2, 3974.7917, -114680.664, -97426.914, 0.006334045, 0.039663468, 58716.266, 58716.266, 0.000025648078, 10.00047, 9.998978 
3.7503645e+2, 1.2426542e+2, -1542787.4, -1787202.1, -88959.33, -0.22306776, 0.14545476, -1513837.9, 208366.14, 0.0001191897, 10.001775, 9.998635 
3.750349e+2, 1.342625e+2, -1471860.5, -1671414.5, -70209.08, -0.15575053, -0.06126324, -1449634.4, 174597.08, 0.00005856906, 10.001504, 9.998887 
3.7503493e+2, 1.4426188e+2, -1366892.0, -1432399.1, -71289.61, 0.079430655, -0.06675372, -1321191.8, 205042.39, 0.000020069963, 10.000961, 10.000109 
3.750314e+2, 1.5426275e+2, -1367262.9, -1383900.6, -26530.76, -0.03371062, -0.01805858, -1347777.4, 80442.484, 0.0000038584762, 10.000288, 10.000099 
3.750288e+2, 1.6426241e+2, -1448410.3, -1621739.8, -15098.711, -0.070016876, 0.0459156, -1447104.9, -116882.33, 0.00000020238203, 10.000147, 9.997854 
3.7502638e+2, 1.7426051e+2, -1255407.0, -1499955.8, -30763.533, -0.1016226, 0.062171154, -1251596.4, -19348.871, 0.0, 10.000889, 9.997663 
3.7502393e+2, 1.8425845e+2, -1059282.9, -1191908.8, -63185.805, -0.110303536, 0.026164621, -1033999.7, 100269.5, 0.0, 10.000866, 9.999111 
3.750218e+2, 1.9425604e+2, -1097721.3, -1147354.1, -32538.025, -0.05742513, -0.16122557, -1081616.0, -45328.03, 0.0, 9.999876, 9.999223 
3.7501994e+2, 2.0425545e+2, -1050375.3, -1035145.0, -5625.774, -0.010639118, -0.15424478, -1033292.3, -94999.96, 0.0, 9.9993515, 9.99958 
3.7501812e+2, 2.1425717e+2, -945048.9, -927653.7, 2624.2056, 0.00432976, 0.03291827, -927266.44, -86987.66, 0.0, 9.999384, 9.999626 
3.750159e+2, 2.242575e+2, -869189.0, -914830.5, -29015.418, 0.0031546387, 0.13762136, -855095.25, -112816.625, 0.0, 9.999537, 9.998974 
3.7501305e+2, 2.3425584e+2, -740848.8, -805938.2, -14935.686, -0.017415453, 0.053171877, -737585.25, -93287.69, 0.0, 9.99976, 9.99894 
3.750107e+2, 2.4425495e+2, -618919.7, -661306.94, -7609.0376, -0.0075838408, 0.05994546, -617595.2, -71286.68, 0.0, 9.999778, 9.999253 
3.7500876e+2, 2.542549e+2, -567882.8, -583963.2, -6842.865, 0.020880822, 0.10661776, -565365.06, -117054.26, 0.0, 9.999446, 9.99927 
3.75006e+2, 2.6425445e+2, -462088.03, -465356.16, -20703.373, -0.026700655, 0.13265915, -442954.34, -92640.06, 0.0, 9.9994545, 9.9993925 
3.750022e+2, 2.7425328e+2, -308061.78, -340904.1, -2896.088, -0.16885005, 0.04839765, -307808.38, -55486.88, 0.0, 9.999829, 9.999398 
3.749994e+2, 2.8425217e+2, -188621.33, -205123.78, -54388.125, -0.15942255, -0.008089512, -141862.1, 12466.016, 0.00000003400916, 9.99985, 9.999655 
3.749976e+2, 2.9425138e+2, -183041.89, -150148.1, -49519.332, 0.023366064, -0.08436969, -114415.836, -58082.79, 0.000000899484, 9.999201, 9.999673 
3.7499332e+2, 3.042513e+2, -151400.94, -178898.38, -47668.414, -0.08076337, -0.022491366, -115538.12, -115538.12, 0.000005766145, 9.999408, 9.999046 
3.7499017e+2, 3.1424963e+2, 1271.1238, -102288.03, -26280.986, -0.09633256, -0.10906147, 7558.8765, 7558.8765, 0.000023919054, 10.000392, 9.999102 
3.8503873e+2, 1.24267355e+2, -1448679.5, -1692070.8, 63238.332, -0.18319921, 0.21800682, -1433229.5, 288959.4, 0.00012316402, 10.002224, 9.999068 
3.8503724e+2, 1.3426404e+2, -1485873.5, -1661883.4, -11551.634, -0.06105556, -0.04277049, -1485118.5, 139099.03, 0.000061385945, 10.001334, 9.9990425 
3.8503677e+2, 1.4426324e+2, -1389173.9, -1479192.0, -23156.428, 0.16997574, -0.059775025, -1383566.4, 142654.61, 0.000022093489, 10.000964, 9.999783 
3.85032e+2, 1.5426387e+2, -1266675.4, -1374865.3, -96846.14, -0.039281037, -0.0000890953, -1209840.4, 218369.86, 0.000004863891, 10.001162, 9.999733 
3.8502905e+2, 1.6426346e+2, -1289477.5, -1522829.3, -76411.89, -0.10012921, 0.06559546, -1266682.8, 63531.156, 0.00000029520132, 10.00112, 9.998075 
3.8502744e+2, 1.7426172e+2, -1265015.9, -1472441.8, -36673.902, -0.06735399, 0.07063221, -1258722.8, -26486.756, 0.0, 10.000671, 9.997961 
3.850252e+2, 1.842599e+2, -1116186.3, -1204357.3, -49122.863, -0.04133758, 0.036704343, -1094267.3, 39987.563, 0.0, 10.000401, 9.999254 
3.8502255e+2, 1.9425772e+2, -1022335.8, -1102089.0, -75965.18, 0.012832236, -0.1421221, -976417.0, 59855.402, 0.0, 10.000334, 9.999322 
3.850202e+2, 2.042572e+2, -952763.2, -1020677.1, -44514.305, 0.046687365, -0.11888746, -930732.7, 7544.3936, 0.0, 10.000164, 9.999288 
3.85018e+2, 2.1425882e+2, -901581.3, -947242.7, -71262.52, 0.03530203, 0.09101194, -849581.56, -9315.664, 0.0, 9.999841, 9.999279 
3.8501546e+2, 2.242589e+2, -815099.25, -841668.4, -73298.695, 0.0020987014, 0.16969372, -753891.0, -11624.127, 0.0, 9.999721, 9.999378 
3.8501248e+2, 2.3425683e+2, -684480.25, -726924.75, -58645.402, -0.05559232, 0.00044179574, -643335.3, 949.4181, 0.0, 9.999938, 9.999391 
3.8501012e+2, 2.4425586e+2, -635438.2, -695857.94, -51789.375, -0.038264323, -0.015919529, -605691.6, -59396.14, 0.0, 9.999786, 9.999002 
3.8500842e+2, 2.5425616e+2, -633154.8, -652983.7, -75745.73, 0.063319795, 0.09258791, -566677.44, -118378.93, 0.0, 9.999158, 9.998931 
3.8500574e+2, 2.6425606e+2, -536842.8, -484366.06, -51170.242, 0.03925982, 0.16656932, -453099.25, -102798.72, 0.0, 9.998854, 9.999558 
3.8500196e+2, 2.7425537e+2, -418700.03, -368197.72, -51877.785, -0.12722428, 0.1106552, -335752.03, -83449.445, 0.0, 9.998956, 9.999634 
3.8499904e+2, 2.842542e+2, -332153.66, -300890.03, -111976.43, -0.13123165, 0.042604584, -203459.6, -49149.24, 0.000000026095549, 9.998983, 9.999416 
3.8499692e+2, 2.9425249e+2, -256073.84, -217756.34, -137302.47, 0.061558615, -0.09386572, -98282.38, -41957.758, 0.00000066980994, 9.998848, 9.999378 
3.8499254e+2, 3.0425242e+2, -206289.88, -181152.36, -65380.355, -0.06223528, -0.027737096, -127143.62, -127143.62, 0.000005131084, 9.998915, 9.999264 
3.8498977e+2, 3.1425142e+2, -135386.25, -87226.12, -16948.908, -0.09976516, -0.077393524, -81859.37, -81859.37, 0.000023468077, 9.999104, 9.999818 
3.9504385e+2, 1.2426877e+2, -1437724.1, -1655881.3, 48119.043, 0.055490267, 0.09055656, -1427582.0, 294589.75, 0.0001272644, 10.0021925, 9.999327 
3.9503872e+2, 1.3426757e+2, -1491099.4, -1668354.4, -36947.203, -0.066480696, 0.048862327, -1483706.4, 140473.73, 0.00006380605, 10.001334, 9.998993 
3.9503646e+2, 1.4426629e+2, -1499880.8, -1708575.9, -26937.209, 0.016797496, 0.059723664, -1496459.9, 29730.795, 0.000023677207, 10.000948, 9.998224 
3.9503253e+2, 1.542636e+2, -1377065.0, -1614459.0, -79429.42, -0.13253437, -0.051154945, -1352940.4, 75277.05, 0.000005569423, 10.001199, 9.998075 
3.9503005e+2, 1.6426174e+2, -1221728.0, -1369436.5, -104326.93, -0.13396837, -0.08755109, -1167759.9, 162475.19, 0.00000035120044, 10.001075, 9.999147 
3.950284e+2, 1.7426129e+2, -1179824.1, -1284455.4, -44670.215, -0.058830928, -0.08027326, -1163347.6, 68890.664, 0.0, 10.000631, 9.9992695 
3.9502588e+2, 1.842612e+2, -1143992.4, -1247615.5, -61027.152, -0.032509703, -0.00017474471, -1115749.3, 18490.44, 0.0, 10.000334, 9.998993 
3.9502263e+2, 1.9426133e+2, -1058538.6, -1157543.1, -70379.02, -0.034308854, 0.09025887, -1021996.25, 14244.741, 0.0, 10.000256, 9.998977 
3.950199e+2, 2.0426062e+2, -1004387.6, -1105234.5, -65920.98, -0.018103259, 0.13665853, -971816.5, -33566.125, 0.0, 10.000066, 9.998755 
3.9501756e+2, 2.142588e+2, -959667.9, -1032269.0, -73040.4, -0.0073280227, 0.058339942, -914404.75, -74134.43, 0.0, 9.999698, 9.99876 
3.9501488e+2, 2.2425763e+2, -787808.06, -762666.25, -74308.8, -0.04558992, 0.012650216, -699872.5, 42407.633, 0.0, 9.999621, 9.999971 
3.9501157e+2, 2.3425712e+2, -652258.6, -634799.25, -40833.12, -0.15955138, -0.06874647, -601773.1, 42505.54, 0.0, 9.999831, 10.000074 
3.950089e+2, 2.44257e+2, -663219.56, -741849.94, -81738.734, -0.162887, -0.020793479, -611832.5, -65552.46, 0.0, 9.999734, 9.998716 
3.9500698e+2, 2.5425732e+2, -667750.7, -709954.6, -90655.45, -0.018068478, 0.12688754, -595773.6, -147486.94, 0.0, 9.999087, 9.998579 
3.9500466e+2, 2.6425713e+2, -534781.94, -466167.03, -56639.445, 0.026687674, 0.20477475, -434254.94, -83963.18, 0.0, 9.998795, 9.999714 
3.9500183e+2, 2.742561e+2, -415653.4, -347286.28, -37845.035, -0.057769787, 0.09977899, -330472.16, -78174.875, 0.0, 9.998888, 9.999814 
3.9499867e+2, 2.8425497e+2, -365424.28, -355021.06, -124133.805, -0.08442379, 0.041365393, -235979.94, -81673.8, 0.000000010243951, 9.99893, 9.999066 
3.949947e+2, 2.9425383e+2, -299702.84, -283882.97, -128626.914, -0.065246105, 0.0011231425, -162923.0, -106604.97, 0.0000005130985, 9.998751, 9.99897 
3.9498982e+2, 3.042541e+2, -152102.81, -62922.934, -63123.055, -0.2518309, 0.09026405, -30229.094, -30229.094, 0.0000059963604, 9.998886, 10.000091 
3.9498854e+2, 3.142549e+2, -54811.89, 98307.38, 23061.264, -0.17919014, 0.123751156, 101705.234, 101705.234, 0.000027743677, 9.99903, 10.001126 
4.0504685e+2, 1.2427058e+2, -1524764.8, -1726622.5, 77734.36, 0.17445642, 0.02963724, -1498299.4, 223850.95, 0.0001282802, 10.00169, 9.999092 
4.0504104e+2, 1.3426961e+2, -1468653.0, -1707259.0, -109404.875, 0.024861708, 0.048978757, -1426083.8, 198074.61, 0.00006493345, 10.001692, 9.998559 
4.050379e+2, 1.4426807e+2, -1405994.4, -1686841.9, -22148.396, 0.036005467, 0.06453464, -1404258.4, 121914.68, 0.00002457309, 10.001697, 9.998009 
4.0503433e+2, 1.542652e+2, -1329391.5, -1616636.5, 10925.82, -0.08642423, -0.041596115, -1328976.5, 99225.84, 0.000005781208, 10.001623, 9.997858 
4.0503195e+2, 1.6426319e+2, -1162443.5, -1317954.4, 18797.668, -0.06278778, -0.0916332, -1160203.5, 170017.97, 0.0000003430959, 10.001383, 9.999348 
4.0502977e+2, 1.7426263e+2, -1124724.9, -1233984.5, -24860.697, 0.008197346, -0.119037114, -1119334.1, 112890.2, 0.0, 10.000904, 9.999483 
4.050267e+2, 1.842627e+2, -1108219.5, -1263250.4, -51359.72, 0.0018772725, -0.021959083, -1092748.6, 41475.617, 0.0, 10.000731, 9.998691 
4.0502286e+2, 1.942632e+2, -991593.3, -1164847.0, -70506.914, -0.06294518, 0.1443491, -966526.6, 69697.45, 0.0, 10.00089, 9.998623 
4.0501988e+2, 2.0426236e+2, -880431.6, -1050447.6, -43194.824, -0.06403951, 0.19801395, -870086.9, 68148.64, 0.0, 10.000943, 9.998706 
4.0501785e+2, 2.1425962e+2, -798959.3, -963098.94, -35179.332, -0.00064653234, 0.031400636, -791737.25, 48525.797, 0.0, 10.00083, 9.998692 
4.0501517e+2, 2.2425821e+2, -667109.75, -692935.8, -18756.908, -0.01430574, -0.03936935, -657250.7, 85023.53, 0.0, 10.000401, 10.000075 
4.0501145e+2, 2.3425838e+2, -678489.5, -636990.44, -41816.867, -0.13725828, -0.062395845, -611058.1, 33207.137, 0.0, 9.999598, 10.0001745 
4.0500838e+2, 2.4425834e+2, -767661.8, -792964.2, -82365.81, -0.14667897, -0.011895494, -696981.25, -150715.9, 0.0, 9.999026, 9.998705 
4.0500608e+2, 2.5425804e+2, -709009.0, -723694.2, -82625.73, 0.0000369918, 0.074097954, -633400.25, -185123.02, 0.0, 9.998803, 9.998612 
4.0500346e+2, 2.6425773e+2, -569406.9, -494123.47, -11191.6045, 0.04181223, 0.13786376, -492494.94, -142210.42, 0.0, 9.998599, 9.999616 
4.050005e+2, 2.7425712e+2, -497485.34, -399597.75, -27221.113, -0.046060313, 0.08532104, -392537.22, -140248.8, 0.0, 9.998377, 9.9997 
4.0499738e+2, 2.8425646e+2, -449293.78, -352141.72, -83871.33, -0.059063237, 0.064398065, -303794.94, -149501.94, 0.0000000008315615, 9.998157, 9.999458 
4.0499377e+2, 2.9425573e+2, -382395.63, -271925.88, -45121.367, 0.013615646, 0.019626163, -255838.75, -199540.05, 0.0000007104038, 9.997951, 9.999433 
4.0498862e+2, 3.042559e+2, -275791.7, -137840.19, 61872.73, -0.21211606, 0.07255852, -114155.87, -114155.87, 0.000009515816, 9.998107, 9.999953 
4.049875e+2, 3.142563e+2, -128170.26, 46480.15, 38069.715, -0.14689451, 0.09304856, 54417.71, 54417.71, 0.0000394484, 9.998583, 10.000993 
4.1504738e+2, 1.2427268e+2, -1564818.9, -1820667.6, 82193.58, 0.0005741148, 0.023019683, -1540689.1, 181436.86, 0.0001259659, 10.00173, 9.998427 
4.150438e+2, 1.3427031e+2, -1506629.9, -1805937.1, -101967.71, 0.103567794, -0.0321281, -1475193.4, 148957.27, 0.00006410072, 10.001762, 9.9978485 
4.150407e+2, 1.4426857e+2, -1331437.4, -1528158.0, -31098.137, 0.1177651, -0.047842138, -1326638.4, 199529.44, 0.00002430965, 10.001691, 9.999098 
4.1503724e+2, 1.5426871e+2, -1243947.4, -1430191.1, 20596.137, 0.016212968, 0.024074474, -1241696.9, 186468.16, 0.0000053776803, 10.001594, 9.999148 
4.1503444e+2, 1.6426781e+2, -1222953.3, -1428941.5, -7138.354, 0.026699059, 0.049463753, -1222706.3, 107466.85, 0.0000002359893, 10.00132, 9.998616 
4.1503125e+2, 1.742658e+2, -1188176.1, -1362926.4, -33074.348, 0.03889554, -0.034953926, -1182125.8, 50067.176, 0.0, 10.000891, 9.998603 
4.1502732e+2, 1.8426436e+2, -1138453.1, -1313966.6, -55604.37, -0.032518934, -0.025473902, -1122320.1, 11888.521, 0.0, 10.000683, 9.998364 
4.1502288e+2, 1.9426343e+2, -1020747.7, -1207280.6, -56446.22, -0.16949612, 0.02365885, -1004996.6, 31224.148, 0.0, 10.00082, 9.99836 
4.1501987e+2, 2.0426247e+2, -871092.94, -1011687.2, -55581.18, -0.17630789, 0.065801926, -851774.5, 86457.61, 0.0, 10.000852, 9.999021 
4.1501853e+2, 2.1426132e+2, -788988.56, -912986.2, -33489.355, -0.035444696, 0.019896677, -780521.9, 59721.855, 0.0, 10.000707, 9.999093 
4.1501597e+2, 2.242607e+2, -707405.0, -754397.56, -55980.016, 0.010202238, 0.023879064, -670190.2, 72058.12, 0.0, 10.000301, 9.999703 
4.1501182e+2, 2.3426066e+2, -721106.7, -705025.5, -63649.258, -0.08089661, 0.021395482, -648911.0, -4666.287, 0.0, 9.999509, 9.99975 
4.1500822e+2, 2.4425997e+2, -753661.0, -754735.75, -100551.91, -0.08582596, 0.014366713, -653645.0, -107394.234, 0.0, 9.998982, 9.998986 
4.1500524e+2, 2.5425822e+2, -693675.6, -678359.1, -82327.164, 0.018551176, -0.077312194, -603334.8, -155063.53, 0.0, 9.998738, 9.998955 
4.1500184e+2, 2.6425767e+2, -594494.3, -536486.3, -26085.666, 0.000033014705, -0.044434838, -526481.44, -176201.39, 0.0, 9.998563, 9.999339 
4.149977e+2, 2.742585e+2, -532335.7, -454522.75, -25506.89, -0.1867949, 0.07722247, -446907.03, -194631.98, 0.0, 9.998306, 9.999355 
4.1499493e+2, 2.8425875e+2, -365590.72, -183755.7, -101218.336, -0.14441358, 0.115677394, -138617.55, 15652.778, 0.00000000001177225, 9.998166, 10.000616 
4.1499364e+2, 2.9425827e+2, -301886.22, -90903.31, -44095.977, 0.17675447, -0.033835776, -82057.98, -25791.15, 0.0000013022876, 9.997881, 10.000713 
4.149886e+2, 3.042577e+2, -349759.8, -285761.56, 75533.22, -0.046021324, -0.07437, -235728.92, -235728.92, 0.000014575742, 9.99809, 9.998941 
4.1498634e+2, 3.1425595e+2, -246425.11, -174777.0, 73273.88, -0.17408413, -0.15474214, -129038.66, -129038.66, 0.000055427667, 9.998487, 9.999516 
4.2504898e+2, 1.2427348e+2, -1501125.3, -1751232.9, 42072.97, -0.014872992, -0.0019171706, -1494237.4, 227881.67, 0.000120138786, 10.001982, 9.998783 
4.2504627e+2, 1.3427171e+2, -1397808.4, -1708043.5, -100797.75, 0.1562235, -0.04415726, -1367935.0, 256201.33, 0.00006079175, 10.002289, 9.998272 
4.250424e+2, 1.4427014e+2, -1259783.4, -1457838.6, -18637.201, 0.10666137, -0.08001625, -1258044.9, 268106.2, 0.00002257458, 10.002027, 9.999421 
4.2503896e+2, 1.5427075e+2, -1348832.3, -1443949.1, -66983.66, 0.08356239, 0.005304707, -1314240.8, 113902.78, 0.0000044461326, 10.000721, 9.999474 
4.2503604e+2, 1.6427028e+2, -1371461.8, -1510698.8, -56274.746, 0.11112333, 0.060411707, -1351561.6, -21413.777, 0.00000009724189, 10.000351, 9.99852 
4.250326e+2, 1.7426844e+2, -1149139.5, -1358177.9, -39923.547, 0.07220785, 0.004540427, -1141774.1, 90392.766, 0.0, 10.001223, 9.998478 
4.2502835e+2, 1.8426672e+2, -1040346.94, -1264628.6, -26092.594, -0.023495575, -0.007065187, -1037351.4, 96833.52, 0.0, 10.001338, 9.99839 
4.2502356e+2, 1.9426496e+2, -1080813.5, -1236583.6, -20463.299, -0.1577136, -0.042652488, -1078170.1, -41966.55, 0.0, 10.000396, 9.998367 
4.2502016e+2, 2.042638e+2, -1042368.9, -1093451.5, 2451.1467, -0.16684365, -0.02348518, -1042251.5, -104035.32, 0.0, 9.999675, 9.999022 
4.2501846e+2, 2.1426322e+2, -1011169.7, -1023710.6, -19533.512, -0.030275485, -0.01130362, -996924.9, -156702.36, 0.0, 9.999194, 9.999063 
4.250157e+2, 2.2426288e+2, -906162.5, -865050.5, -35535.977, 0.021591283, 0.029815814, -844553.44, -102328.04, 0.0, 9.99901, 9.999559 
4.250115e+2, 2.3426285e+2, -780457.44, -751935.2, -43984.242, -0.045035556, 0.044296283, -719957.9, -75733.695, 0.0, 9.999185, 9.999584 
4.2500782e+2, 2.4426211e+2, -700642.0, -720558.8, -54817.113, -0.035981927, 0.040569287, -654886.1, -108654.586, 0.0, 9.999313, 9.999063 
4.2500484e+2, 2.5426027e+2, -584065.56, -617499.9, -72654.664, 0.07461139, -0.06952404, -526229.6, -77977.58, 0.0, 9.999451, 9.999033 
4.2500088e+2, 2.642596e+2, -531374.8, -512510.6, -26563.172, 0.03351053, -0.047652677, -493754.66, -143493.64, 0.0, 9.999024, 9.999287 
4.2499566e+2, 2.742603e+2, -601718.8, -491700.66, -23878.375, -0.19497007, 0.072146624, -486741.6, -234485.56, 0.0, 9.9978485, 9.999321 
4.2499286e+2, 2.8426063e+2, -442769.28, -243784.73, -73249.31, -0.14287499, 0.12225729, -219728.75, -65476.953, 0.0000000012455732, 9.997753, 10.000394 
4.2499304e+2, 2.9426017e+2, -133669.3, -36093.61, -146548.61, 0.2730243, 0.002429538, 69574.84, 125824.984, 0.0000019825331, 9.999155, 10.000477 
4.249882e+2, 3.0425948e+2, -172130.2, -204644.31, -71722.766, 0.052200355, -0.03174755, -114845.12, -114845.12, 0.000019679212, 9.999327, 9.998904 
4.2498556e+2, 3.142567e+2, -356621.1, -215915.02, -55854.004, -0.04711028, -0.2223503, -196439.22, -196439.22, 0.00007104561, 9.997679, 9.999616 
4.3505108e+2, 1.2427303e+2, -1414821.5, -1553518.5, 36302.12, -0.05043022, -0.052270383, -1405894.5, 316234.4, 0.000112459136, 10.00194, 10.000148 
4.3504834e+2, 1.3427392e+2, -1289945.4, -1476607.0, -74396.12, 0.1077655, 0.011968706, -1263922.0, 360192.7, 0.000055857796, 10.002276, 9.999861 
4.3504274e+2, 1.4427274e+2, -1297894.3, -1534551.1, -68452.19, -0.08987852, -0.04192938, -1279521.1, 246602.33, 0.000019900395, 10.002006, 9.998909 
4.3503922e+2, 1.5427136e+2, -1386733.1, -1535329.3, -105972.58, 0.00900477, -0.09359607, -1331608.0, 96530.13, 0.0000034951138, 10.000763, 9.998832 
4.3503645e+2, 1.6427052e+2, -1336530.8, -1429852.3, -38474.688, 0.09164898, -0.06617047, -1322714.0, 7432.538, 0.000000032016867, 10.000323, 9.999085 
4.350335e+2, 1.7427047e+2, -1108670.1, -1264912.3, 2817.003, 0.020670513, -0.0070666503, -1108619.3, 123527.15, 0.0, 10.001185, 9.999134 
4.350295e+2, 1.8426971e+2, -1027315.1, -1217982.5, -64443.89, -0.06183867, 0.025252676, -1007576.94, 126576.65, 0.0, 10.001257, 9.998749 
4.3502456e+2, 1.9426785e+2, -1066470.0, -1189055.6, -47185.84, -0.116930485, -0.056544367, -1050411.0, -14238.679, 0.0, 10.000324, 9.998727 
4.350205e+2, 2.042664e+2, -1080736.6, -1149229.9, -25162.502, -0.11967798, -0.06830794, -1072486.4, -134299.17, 0.0, 9.999575, 9.998686 
4.350174e+2, 2.1426538e+2, -1051570.3, -1086180.5, -29079.12, -0.07572401, -0.062351227, -1035036.6, -194837.95, 0.0, 9.999104, 9.998674 
4.3501398e+2, 2.242649e+2, -924041.25, -875363.6, -39165.848, -0.06836071, -0.01306225, -853590.2, -111386.12, 0.0, 9.998895, 9.999545 
4.350101e+2, 2.34265e+2, -792803.25, -752247.4, -29395.883, -0.11689619, 0.009631591, -736813.8, -92610.555, 0.0, 9.999078, 9.999631 
4.3500692e+2, 2.4426484e+2, -724065.75, -755215.2, -58586.555, -0.07339904, 0.07161347, -679019.06, -132811.81, 0.0, 9.999252, 9.998854 
4.3500453e+2, 2.5426427e+2, -610673.56, -655231.9, -59442.77, 0.07867313, 0.108031936, -569472.0, -121253.15, 0.0, 9.999378, 9.998808 
4.3500036e+2, 2.6426363e+2, -519256.88, -484403.75, -75116.44, 0.060673617, 0.13637038, -424718.94, -74492.33, 0.0, 9.999008, 9.99949 
4.349939e+2, 2.742627e+2, -592580.0, -460114.28, -58399.832, -0.17854205, 0.06588029, -438044.66, -185813.22, 0.0, 9.9977865, 9.999571 
4.3499073e+2, 2.84262e+2, -564784.5, -484020.78, -35042.03, -0.1504635, 0.079287894, -470936.4, -316698.53, 0.000000012355592, 9.997708, 9.998759 
4.349918e+2, 2.9426154e+2, -274275.78, -308643.44, -81263.445, 0.20794441, 0.137615, -208399.19, -152151.67, 0.0000027662056, 9.999083, 9.998636 
4.3498716e+2, 3.042614e+2, -101456.63, -68932.77, -130124.65, -0.009739296, 0.20963365, 45942.15, 45942.15, 0.000024180765, 9.999357, 9.999826 
4.3498448e+2, 3.142585e+2, -257694.39, 3946.8928, -138527.89, 0.027485749, -0.10299557, 63662.38, 63662.38, 0.00008333817, 9.997611, 10.001162 
4.4505402e+2, 1.2427559e+2, -1353540.8, -1548526.4, 185799.31, 0.031895258, -0.022846375, -1241209.3, 480895.66, 0.00010599228, 10.002481, 9.999926 
4.450507e+2, 1.3427669e+2, -1430854.4, -1540926.6, -59580.844, 0.17370567, 0.06551876, -1404780.4, 219309.23, 0.00005101591, 10.001316, 9.999884 
4.4504336e+2, 1.442754e+2, -1454504.1, -1651571.4, -75424.66, -0.17383029, 0.015149642, -1428950.0, 97150.52, 0.000017295639, 10.001105, 9.99854 
4.450403e+2, 1.5427347e+2, -1240079.8, -1505152.8, -117507.266, -0.014209308, -0.053667195, -1195489.5, 232631.52, 0.0000027656245, 10.001943, 9.998468 
4.4503745e+2, 1.6427232e+2, -1123831.6, -1298057.1, -37168.08, 0.10020284, -0.052039433, -1116233.8, 213898.31, 0.000000035556127, 10.0016365, 9.999366 
4.4503388e+2, 1.7427224e+2, -1289297.4, -1313467.5, -36481.05, 0.015962686, -0.031142248, -1262951.8, -30821.209, 0.0, 9.999776, 9.99948 
4.4502982e+2, 1.8427186e+2, -1297521.4, -1307677.4, -76274.27, -0.04875666, 0.0034619959, -1226156.3, -92023.38, 0.0, 9.999231, 9.999107 
4.4502562e+2, 1.9427086e+2, -1041104.75, -1137589.0, -75408.414, -0.036623277, -0.027031, -999827.44, 36315.605, 0.0, 10.000329, 9.999077 
4.4502163e+2, 2.042697e+2, -886933.2, -1051069.5, -38710.242, -0.026662702, -0.028239785, -878261.8, 59893.086, 0.0, 10.0009, 9.998714 
4.4501767e+2, 2.1426825e+2, -816280.4, -973218.0, -33702.047, -0.03432429, -0.06364378, -809349.06, 30821.396, 0.0, 10.0007305, 9.998665 
4.4501358e+2, 2.2426753e+2, -749497.7, -804059.9, -21381.365, -0.054905176, -0.034236435, -742117.25, 61.254677, 0.0, 10.000137, 9.999436 
4.4500932e+2, 2.3426762e+2, -821152.0, -783503.6, -40355.29, -0.09334876, 0.00082888594, -757798.06, -113619.445, 0.0, 9.998948, 9.999483 
4.4500574e+2, 2.4426767e+2, -875998.3, -834810.56, -35546.582, -0.061539154, 0.09237869, -814323.25, -268141.88, 0.0, 9.998232, 9.998796 
4.45003e+2, 2.5426757e+2, -796436.8, -752225.6, -37890.74, 0.05147154, 0.1807199, -730463.6, -282274.72, 0.0, 9.998131, 9.998741 
4.4499916e+2, 2.6426682e+2, -575920.1, -496624.28, -35045.805, 0.062344436, 0.19468755, -483355.6, -133159.08, 0.0, 9.998563, 9.99961 
4.449939e+2, 2.7426508e+2, -296717.8, -303387.97, -45950.98, -0.048661288, 0.029053876, -253981.03, -1775.0334, 0.0, 9.999769, 9.999685 
4.449906e+2, 2.8426388e+2, -326023.7, -454968.75, 12217.361, -0.030051742, 0.024974799, -324876.34, -170658.44, 0.00000003062236, 9.999706, 9.998002 
4.4498968e+2, 2.9426336e+2, -511465.7, -507201.56, 18979.416, 0.15615967, 0.15603822, -490234.8, -434000.47, 0.0000032986038, 9.997817, 9.997879 
4.4498467e+2, 3.0426356e+2, -402857.84, -175588.42, 10970.027, -0.0755903, 0.28719115, -175060.14, -175060.14, 0.000027227657, 9.997129, 10.000162 
4.4498324e+2, 3.1426182e+2, -130921.51, 166695.77, -121023.56, 0.13281097, 0.049383394, 209696.17, 209696.17, 0.000091368296, 9.998037, 10.002077 
4.5505708e+2, 1.2428087e+2, -1472443.9, -1796906.3, 81322.305, 0.038032904, 0.07067552, -1453202.5, 268847.6, 0.00010140695, 10.002495, 9.998207 
4.5505288e+2, 1.3427988e+2, -1530348.1, -1762240.8, -93112.305, 0.23670606, 0.104393885, -1497588.5, 126474.42, 0.00004730018, 10.001373, 9.99834 
4.5504394e+2, 1.4427786e+2, -1465972.6, -1675127.0, -52371.246, -0.2567251, 0.07190129, -1453592.0, 72492.49, 0.000015080613, 10.001112, 9.998372 
4.5504186e+2, 1.5427704e+2, -1247286.3, -1517300.1, -73324.27, -0.07773466, 0.12217415, -1228659.4, 199433.34, 0.0000021144335, 10.001938, 9.998384 
4.5503882e+2, 1.6427568e+2, -1121289.8, -1290766.5, -110404.96, 0.047783606, 0.1052041, -1066852.5, 263251.84, 0.00000004449902, 10.001621, 9.999426 
4.5503345e+2, 1.7427367e+2, -1280159.9, -1302638.4, -97686.555, -0.030439176, -0.072053544, -1193068.1, 39051.445, 0.0, 9.999803, 9.999546 
4.5502904e+2, 1.842731e+2, -1283221.5, -1262266.3, -50168.875, -0.06843942, -0.07838208, -1221492.5, -87369.22, 0.0, 9.999171, 9.999443 
4.5502645e+2, 1.9427402e+2, -1029713.56, -1093440.5, -25698.176, -0.009882881, 0.049517248, -1020642.0, 15473.458, 0.0, 10.000249, 9.999412 
4.550232e+2, 2.0427375e+2, -876616.7, -1007112.7, -51637.844, 0.022255216, 0.10189028, -858655.5, 79463.336, 0.0, 10.000797, 9.999069 
4.5501894e+2, 2.142718e+2, -806643.2, -923118.1, -30485.508, 0.0026969588, -0.01999904, -799146.56, 40991.273, 0.0, 10.000601, 9.99907 
4.5501423e+2, 2.2427075e+2, -783189.9, -846915.56, -69823.3, -0.020856148, -0.0352803, -738302.9, 3845.8293, 0.0, 10.00002, 9.999204 
4.5500877e+2, 2.342707e+2, -851541.5, -826830.06, -74480.45, -0.05873147, 0.014953125, -763687.44, -119536.94, 0.0, 9.998861, 9.9992285 
4.5500392e+2, 2.4427058e+2, -881853.5, -823506.25, -50125.47, -0.08571396, 0.09876489, -794682.75, -248528.67, 0.0, 9.998141, 9.998918 
4.5499983e+2, 2.5427017e+2, -797890.3, -731793.4, -32483.336, -0.09517508, 0.1436574, -718502.1, -270339.84, 0.0, 9.998034, 9.99893 
4.549969e+2, 2.642692e+2, -586900.9, -506492.34, 374.28107, -0.036125932, 0.12508976, -506490.63, -156319.86, 0.0, 9.998508, 9.999569 
4.5499545e+2, 2.742674e+2, -313719.84, -321936.16, 11276.434, 0.1048215, -0.03973275, -305826.53, -53646.41, 0.0, 9.999697, 9.999592 
4.5499215e+2, 2.842663e+2, -318423.97, -429892.16, -58208.22, 0.13352822, -0.040253554, -293569.7, -139377.98, 0.000000022691747, 9.999662, 9.9981985 
4.5498636e+2, 2.9426572e+2, -499531.84, -470309.78, -41273.37, 0.015048406, 0.064746074, -441137.56, -384927.7, 0.0000033720132, 9.997754, 9.99817 
4.549804e+2, 3.04266e+2, -421069.9, -209091.39, 36322.53, -0.23695277, 0.19717802, -203040.27, -203040.27, 0.000028360193, 9.997122, 9.99993 
4.549815e+2, 3.1426662e+2, -127661.54, 195105.47, -96011.48, 0.10912345, 0.2270904, 221505.98, 221505.98, 0.00009465621, 9.9979515, 10.002312 
4.650595e+2, 1.2428506e+2, -1596369.0, -1919557.3, -8072.407, 0.0682349, 0.12730266, -1596167.5, 125842.84, 0.000096649455, 10.00189, 9.997658 
4.650556e+2, 1.34283e+2, -1293424.3, -1701424.9, -70355.57, 0.29022285, 0.09552346, -1281632.9, 342402.13, 0.00004344866, 10.003196, 9.997889 
4.6504608e+2, 1.4428091e+2, -1119078.1, -1488048.9, 38342.754, -0.26269627, 0.07170103, -1115135.8, 410921.5, 0.000012657647, 10.0034075, 9.99855 
4.650448e+2, 1.5428059e+2, -1199195.9, -1466994.6, 16974.53, 0.018567314, 0.14845122, -1198124.3, 229934.6, 0.0000014631825, 10.00215, 9.998631 
4.6504134e+2, 1.6427945e+2, -1182062.6, -1352253.5, -23911.547, 0.15782645, 0.15249975, -1178767.0, 151301.19, 0.000000030371112, 10.001364, 9.999122 
4.6503425e+2, 1.7427713e+2, -1099112.0, -1254585.4, -64970.676, 0.0014853849, -0.019591521, -1075536.4, 156551.72, 0.0, 10.001225, 9.999188 
4.6502912e+2, 1.8427622e+2, -1033700.06, -1132722.3, 13194.523, -0.056691926, -0.04269554, -1031972.06, 102123.62, 0.0, 10.000832, 9.999537 
4.6502706e+2, 1.9427691e+2, -1053473.6, -1092816.6, 11922.2, 0.04431377, 0.0479935, -1050142.9, -14053.298, 0.0, 10.000017, 9.999538 
4.650239e+2, 2.0427684e+2, -1045413.5, -1060076.9, -17219.494, 0.084261745, 0.09942862, -1034029.8, -95939.05, 0.0, 9.999507, 9.999329 
4.6501917e+2, 2.1427563e+2, -969135.0, -976053.75, -26125.791, 0.03036594, 0.02603931, -946240.56, -106137.664, 0.0, 9.999369, 9.999303 
4.6501407e+2, 2.242749e+2, -856808.56, -876690.0, -51208.55, -0.006569679, 0.029422913, -814584.8, -72474.445, 0.0, 9.999505, 9.999235 
4.6500853e+2, 2.3427466e+2, -679820.4, -741887.5, -53035.242, -0.026435267, 0.057090234, -649406.25, -5293.0254, 0.0, 10.000047, 9.999232 
4.6500337e+2, 2.4427406e+2, -549554.5, -667645.5, 8517.552, -0.063966304, 0.093246065, -548943.3, -2823.1714, 0.0, 10.000424, 9.998894 
4.6499887e+2, 2.5427282e+2, -428912.78, -556336.94, -1510.2762, -0.11678566, 0.05739011, -428894.9, 19239.164, 0.0, 10.000569, 9.998914 
4.6499586e+2, 2.6427183e+2, -392768.16, -418596.47, 25454.006, -0.056184478, 0.039269578, -377139.7, -26997.055, 0.0, 9.999848, 9.999537 
4.6499464e+2, 2.7427098e+2, -575680.0, -453076.72, 20436.451, 0.14881155, -0.0259459, -449759.94, -197614.63, 0.0, 9.997903, 9.999565 
4.6499097e+2, 2.8427047e+2, -633265.1, -505680.44, -11138.812, 0.18023154, 0.0018789227, -504715.25, -350564.4, 0.00000001636591, 9.997167, 9.998882 
4.6498418e+2, 2.9426995e+2, -387284.34, -323593.16, 21002.7, 0.012779045, 0.037171964, -317290.97, -261126.9, 0.0000038591365, 9.998125, 9.998995 
4.649786e+2, 3.0426964e+2, -240387.66, -176720.23, 154789.67, -0.19508064, 0.09008581, -50524.754, -50524.754, 0.000029778155, 9.9985895, 9.999459 
4.649797e+2, 3.1427127e+2, -145838.83, 117404.69, -63110.637, 0.13536274, 0.27733853, 131752.92, 131752.92, 0.00009717631, 9.998133, 10.001692 
4.7506043e+2, 1.2428805e+2, -1556262.4, -1818388.4, -60365.92, -0.08195218, 0.14574748, -1543028.6, 178957.86, 0.0000915649, 10.00184, 9.998363 
4.750586e+2, 1.3428615e+2, -1246056.5, -1592029.6, -8861.253, 0.24560186, 0.05272627, -1245829.8, 378175.3, 0.000038474074, 10.003171, 9.998636 
4.7504956e+2, 1.4428464e+2, -1079762.3, -1409113.0, -10242.958, -0.2868349, 0.023380226, -1079444.0, 446574.13, 0.000009911169, 10.003403, 9.999104 
4.7504875e+2, 1.5428415e+2, -1150973.8, -1379490.8, -20918.924, 0.17074075, 0.026151728, -1149074.5, 278944.78, 0.0000009593812, 10.002192, 9.999217 
4.7504476e+2, 1.6428356e+2, -1233212.4, -1453241.8, -40667.02, 0.3411498, 0.08564246, -1225936.8, 104087.67, 0.000000014696447, 10.001342, 9.998441 
4.7503594e+2, 1.742825e+2, -1157713.8, -1371973.0, -59319.95, 0.02819443, 0.120638095, -1142386.8, 89650.695, 0.0, 10.001209, 9.998391 
4.7502968e+2, 1.8428123e+2, -1046526.2, -1145987.1, -21926.752, -0.10546278, 0.10769847, -1041906.9, 92143.83, 0.0, 10.0007715, 9.999478 
4.7502723e+2, 1.9427954e+2, -1059781.4, -1096382.4, -8583.867, 0.03609411, -0.037734803, -1057868.3, -21802.818, 0.0, 9.999972, 9.999539 
4.750235e+2, 2.04279e+2, -1051806.4, -1051253.0, -31381.266, 0.07396876, -0.036700755, -1020147.2, -82076.63, 0.0, 9.999416, 9.999431 
4.75018e+2, 2.142798e+2, -976318.56, -967355.44, -22120.916, -0.039148625, 0.07866562, -949266.7, -109201.65, 0.0, 9.999269, 9.999409 
4.7501284e+2, 2.2428e+2, -847597.7, -842678.0, -39973.55, -0.10180368, 0.15568689, -805088.7, -63025.027, 0.0, 9.999429, 9.999513 
4.7500816e+2, 2.3427935e+2, -674084.8, -707584.1, -22918.176, -0.08810341, 0.11684349, -662447.94, -18379.736, 0.0, 9.999942, 9.999523 
4.7500375e+2, 2.4427798e+2, -570370.0, -692525.7, 7691.1313, -0.08716284, 0.067297176, -569887.6, -23807.156, 0.0, 10.000348, 9.998756 
4.749998e+2, 2.5427547e+2, -456997.88, -597324.0, 13021.27, -0.105035335, -0.077606544, -455799.8, -7695.025, 0.0, 10.000489, 9.9986725 
4.7499567e+2, 2.6427466e+2, -399135.97, -419133.56, -48712.363, -0.07949474, -0.06673946, -359406.8, -9293.8, 0.0, 9.999795, 9.9995575 
4.749911e+2, 2.742758e+2, -581361.8, -448878.44, -42791.62, -0.013896875, 0.06536464, -436258.97, -184156.98, 0.0, 9.997839, 9.999622 
4.749868e+2, 2.8427637e+2, -555431.56, -341169.97, 6838.681, 0.023169, 0.14528292, -340951.94, -186856.08, 0.0000000367379, 9.997149, 10.000022 
4.7498292e+2, 2.9427594e+2, -314108.25, -156245.83, 67769.44, 0.045920845, 0.06480042, -131144.2, -75045.74, 0.000004901276, 9.998045, 10.000189 
4.7497892e+2, 3.0427447e+2, -297084.13, -281860.16, 135312.53, -0.041178815, -0.03502837, -153945.67, -153945.67, 0.000032907166, 9.998536, 9.998761 
4.749772e+2, 3.1427532e+2, -258954.84, -114647.43, -71407.45, 0.021493873, 0.17219888, -85286.695, -85286.695, 0.00010232853, 9.998115, 10.000108 
4.8506266e+2, 1.24292344e+2, -1463706.1, -1732775.0, 22018.346, -0.054163124, 0.14741534, -1461916.1, 260028.36, 0.00008664265, 10.002283, 9.998746 
4.8506212e+2, 1.3429037e+2, -1263040.5, -1568506.6, 88159.64, 0.30448118, 0.019143717, -1239423.0, 384538.9, 0.000032757685, 10.002893, 9.998948 
4.8505303e+2, 1.4428915e+2, -1164885.0, -1453113.8, 7223.9907, -0.24393174, 0.0029924994, -1164704.1, 361267.94, 0.000007215262, 10.002847, 9.999059 
4.850507e+2, 1.542887e+2, -1179174.4, -1404643.1, -83402.62, 0.16294539, 0.018071493, -1151676.6, 276298.16, 0.00000059770906, 10.002058, 9.999104 
4.8504597e+2, 1.642881e+2, -1213186.5, -1442167.9, -59305.2, 0.32639307, 0.08225892, -1198738.4, 131242.44, 0.0000000048834687, 10.001474, 9.99845 
4.850376e+2, 1.7428699e+2, -1165241.1, -1372168.9, -29235.182, 0.08147719, 0.10874611, -1161190.0, 70803.89, 0.0, 10.00115, 9.998412 
4.8503122e+2, 1.8428577e+2, -1059512.3, -1183976.3, 37443.99, -0.026094224, 0.11340261, -1049115.9, 84891.37, 0.0, 10.000823, 9.9991865 
4.8502776e+2, 1.9428436e+2, -1015917.4, -1106025.9, 10901.068, 0.077207446, 0.021074679, -1014617.4, 21404.38, 0.0, 10.000419, 9.999247 
4.8502338e+2, 2.042838e+2, -929399.6, -1000044.2, 9276.791, 0.08215555, 0.03867645, -928201.7, 9826.057, 0.0, 10.000284, 9.999372 
4.850178e+2, 2.1428417e+2, -806839.9, -886406.06, -409.39502, -0.041084494, 0.115342125, -806837.8, 33187.094, 0.0, 10.000435, 9.999405 
4.8501274e+2, 2.242841e+2, -750831.0, -797713.9, -26926.117, -0.08372637, 0.1658526, -738572.06, 3452.9219, 0.0, 10.000102, 9.999498 
4.850084e+2, 2.3428328e+2, -791116.2, -767226.9, -50784.793, -0.011680046, 0.11166433, -727000.94, -82970.24, 0.0, 9.999147, 9.999496 
4.8500404e+2, 2.442821e+2, -801372.7, -767806.06, 11680.097, -0.00076676207, 0.06649183, -764141.8, -218101.34, 0.0, 9.998603, 9.999083 
4.8499966e+2, 2.5428036e+2, -710980.06, -676039.56, 41334.906, -0.06376792, -0.038811296, -648634.6, -200578.16, 0.0, 9.998563, 9.999057 
4.849951e+2, 2.6427975e+2, -566986.75, -528178.75, -15739.719, -0.060233846, -0.011774689, -522597.7, -172534.9, 0.0, 9.998768, 9.999297 
4.8499012e+2, 2.742804e+2, -382000.63, -387326.8, -53769.3, 0.029475272, 0.10003841, -330828.5, -78769.14, 0.0, 9.999354, 9.999314 
4.8498502e+2, 2.842807e+2, -248259.0, -165676.36, -12758.754, 0.038262308, 0.15967755, -163750.11, -9694.358, 0.00000008825205, 9.999145, 10.000263 
4.8498017e+2, 2.9428068e+2, -325074.72, -130503.945, -45506.246, -0.017606257, 0.09003827, -120386.984, -64336.0, 0.0000056092463, 9.997842, 10.000459 
4.8497692e+2, 3.042792e+2, -443575.22, -327114.44, 52326.992, -0.028532421, -0.033652, -307057.56, -307057.56, 0.000035389916, 9.997423, 9.998974 
4.8497608e+2, 3.1427926e+2, -282867.06, -164999.52, -103448.51, 0.10692068, 0.07084745, -104875.39, -104875.39, 0.00010599746, 9.998119, 9.999748 
4.9506536e+2, 1.2429791e+2, -1459839.0, -1727178.1, -75631.73, -0.066997394, 0.13636208, -1439925.6, 281958.94, 0.000079155536, 10.002302, 9.998773 
4.9506587e+2, 1.3429564e+2, -1266051.3, -1576698.5, 121564.97, 0.36682805, -0.013964409, -1224135.3, 399770.9, 0.000026309019, 10.002904, 9.998886 
4.9505618e+2, 1.4429444e+2, -1224415.6, -1564788.3, -29675.342, -0.24292639, 0.0079903435, -1221847.8, 304071.7, 0.0000047383246, 10.002799, 9.998313 
4.950504e+2, 1.5429425e+2, -1237252.5, -1523450.4, -104358.58, -0.096944556, 0.1304799, -1203241.3, 224683.97, 0.0000002991547, 10.002054, 9.998287 
4.950447e+2, 1.6429313e+2, -1163717.8, -1335081.0, -82270.32, 0.031923547, 0.15113568, -1130615.0, 199321.94, 0.0000000005507737, 10.001451, 9.999201 
4.9503902e+2, 1.7429058e+2, -1104372.5, -1243824.1, -33343.28, 0.08338584, -0.05305574, -1096810.1, 135147.7, 0.0, 10.00114, 9.9993 
4.950335e+2, 1.8428984e+2, -1103265.3, -1261670.8, 14161.863, 0.09920467, -0.025460826, -1102009.1, 31956.81, 0.0, 10.000767, 9.998681 
4.950284e+2, 1.9429123e+2, -1065516.8, -1198959.9, 1369.5228, 0.080509625, 0.22524698, -1065502.8, -29543.115, 0.0, 10.00037, 9.998636 
4.9502328e+2, 2.0429109e+2, -947620.6, -1019199.4, 3707.3567, 0.030271918, 0.32150304, -947429.1, -9465.734, 0.0, 10.0002, 9.999285 
4.950182e+2, 2.142888e+2, -823395.9, -902848.4, 14366.5625, -0.06145227, 0.13779, -820877.94, 19103.996, 0.0, 10.000347, 9.999342 
4.950134e+2, 2.2428715e+2, -792982.5, -858845.25, -66409.984, -0.0457772, 0.05232127, -751787.2, -9792.0625, 0.0, 9.999997, 9.9991255 
4.9500898e+2, 2.3428628e+2, -836378.44, -831207.6, -77870.68, 0.10987251, 0.031239329, -755879.44, -111877.11, 0.0, 9.999026, 9.999113 
4.9500397e+2, 2.442863e+2, -750600.94, -647631.1, 44.59134, 0.11057301, 0.08697714, -647631.1, -101630.27, 0.0, 9.998542, 9.999938 
4.9499816e+2, 2.5428733e+2, -654976.94, -542348.2, 48346.355, -0.09165629, 0.16689235, -524442.06, -76452.39, 0.0, 9.998489, 10.0000105 
4.9499384e+2, 2.6428705e+2, -611785.06, -609517.6, -4981.694, -0.08221821, 0.19902264, -605542.25, -255549.39, 0.0, 9.998719, 9.998763 
4.9499118e+2, 2.7428475e+2, -442352.34, -488843.38, -21319.264, 0.18058215, 0.0777348, -434056.4, -182038.58, 0.0, 9.999258, 9.998661 
4.949853e+2, 2.8428364e+2, -303516.56, -265869.7, -62881.69, 0.13104734, 0.05880621, -219054.5, -65025.38, 0.00000018947561, 9.999087, 9.9996 
4.9497566e+2, 2.9428414e+2, -380379.66, -232863.31, -82067.38, -0.28225023, 0.118141584, -196279.64, -140258.17, 0.000005650319, 9.997796, 9.999774 
4.949725e+2, 3.0428386e+2, -356922.8, -156807.78, 67180.22, -0.23632027, 0.09247628, -136346.89, -136346.89, 0.00003451672, 9.997445, 10.000139 
4.949755e+2, 3.1428316e+2, -226653.28, -40965.68, -40694.293, 0.1859168, -0.014014106, -32438.887, -32438.887, 0.00010174547, 9.998079, 10.000619 
5.0506806e+2, 1.24303296e+2, -1395289.0, -1683830.3, -122355.22, -0.03898279, 0.063869275, -1350390.9, 371438.22, 0.00006651573, 10.002723, 9.998861 
5.050683e+2, 1.3430157e+2, -1502686.8, -1698585.4, 125143.516, 0.41128793, -0.023031645, -1441717.9, 182128.97, 0.00001955312, 10.001316, 9.998819 
5.050592e+2, 1.4430057e+2, -1490252.3, -1692066.5, 45699.64, -0.12516262, 0.025072884, -1480386.1, 45472.99, 0.0000028130235, 10.0009775, 9.998318 
5.050522e+2, 1.543004e+2, -1211167.6, -1509201.5, 9918.298, -0.124124356, 0.1484689, -1210837.9, 217027.42, 0.00000011765629, 10.00224, 9.998293 
5.0504607e+2, 1.6429913e+2, -1005883.06, -1279435.6, 21918.947, -0.032592364, 0.16361143, -1004137.94, 325740.8, 0.000000000026416515, 10.002615, 9.999021 
5.0504094e+2, 1.7429624e+2, -1035053.75, -1235657.3, -29814.076, 0.13905208, -0.053991523, -1030716.5, 201187.36, 0.0, 10.001712, 9.999084 
5.0503534e+2, 1.8429548e+2, -1045815.25, -1235744.8, 22774.727, 0.19283907, -0.017974902, -1043122.5, 90790.016, 0.0, 10.001176, 9.998662 
5.050293e+2, 1.9429725e+2, -954429.4, -1144808.5, 41629.145, 0.09941123, 0.2775706, -945724.56, 90176.664, 0.0, 10.001145, 9.998629 
5.050237e+2, 2.0429695e+2, -859610.6, -995625.9, 76205.97, 0.02263052, 0.36550292, -825479.2, 112426.664, 0.0, 10.000892, 9.999105 
5.050188e+2, 2.1429376e+2, -861450.1, -940457.56, 54508.254, -0.023829881, 0.110169925, -833636.0, 6296.505, 0.0, 10.000189, 9.999149 
5.050138e+2, 2.2429174e+2, -760229.9, -838609.9, 8343.766, -0.006329304, -0.0034793087, -759351.5, -17402.701, 0.0, 10.000188, 9.99918 
5.050089e+2, 2.3429118e+2, -536748.44, -676973.6, 19156.926, 0.10187823, -0.0010938995, -534178.44, 109773.96, 0.0, 10.001037, 9.999206 
5.050034e+2, 2.4429134e+2, -421882.8, -490842.5, 78147.055, 0.093103334, 0.06298719, -370947.1, 175002.28, 0.0, 10.0008135, 9.999917 
5.049974e+2, 2.542922e+2, -538832.4, -490830.5, 34450.652, -0.058590747, 0.13000058, -472844.63, -24904.615, 0.0, 9.999309, 9.99997 
5.0499284e+2, 2.6429203e+2, -600026.6, -550433.94, 36100.793, -0.040559657, 0.15223435, -531433.8, -181492.64, 0.0, 9.99857, 9.999244 
5.049901e+2, 2.7429023e+2, -477984.44, -451587.53, 84448.45, 0.17901641, 0.031402025, -379312.38, -127353.414, 0.00000000061010413, 9.998774, 9.999154 
5.0498414e+2, 2.8428894e+2, -384373.94, -381221.34, 71078.766, 0.12201934, 0.00031221085, -311701.38, -157729.08, 0.00000027597625, 9.99886, 9.99892 
5.0497425e+2, 2.942885e+2, -295113.78, -283677.47, 22448.424, -0.2411847, 0.04179796, -266230.38, -210252.58, 0.0000049916057, 9.998777, 9.99896 
5.0497115e+2, 3.042886e+2, -246804.22, -19926.803, 170023.95, -0.12829667, 0.070988186, 71027.45, 71027.45, 0.000030276777, 9.997864, 10.000877 
5.049726e+2, 3.1428814e+2, -485485.72, -49609.348, 14315.279, 0.20476454, -0.099252164, -49139.703, -49139.703, 0.000090525835, 9.995801, 10.001672 
5.150697e+2, 1.2430848e+2, -1386705.6, -1669612.5, -277740.56, -0.1986003, -0.066205025, -1216471.9, 505306.16, 0.00005196835, 10.002735, 9.998951 
5.1506925e+2, 1.343082e+2, -1499174.0, -1705557.6, 85119.305, 0.3527139, -0.007968421, -1468597.9, 155185.98, 0.000013925394, 10.001373, 9.998744 
5.1506186e+2, 1.4430761e+2, -1436962.3, -1586443.3, 73087.6, 0.012170698, 0.055435717, -1407166.0, 118625.016, 0.000001645238, 10.000994, 9.999039 
5.150558e+2, 1.5430708e+2, -1154824.8, -1394499.9, 68558.97, -0.013178554, 0.06580894, -1136599.4, 291196.13, 0.00000003629146, 10.002247, 9.99908 
5.150496e+2, 1.6430603e+2, -1097254.9, -1451543.9, -12501.864, 0.03599778, 0.11239266, -1096814.3, 232993.31, 0.0, 10.002546, 9.997867 
5.15043e+2, 1.7430402e+2, -1130813.6, -1427772.1, -54132.344, 0.1560225, 0.10713439, -1121253.6, 110578.31, 0.0, 10.001691, 9.99777 
5.1503646e+2, 1.843028e+2, -1016081.4, -1170198.0, 10038.3545, 0.1636255, 0.14916904, -1015430.25, 118415.08, 0.0, 10.001155, 9.999121 
5.1503015e+2, 1.943025e+2, -915674.6, -1060980.1, 50297.293, 0.04213896, 0.17342629, -899963.1, 135883.02, 0.0, 10.00112, 9.99922 
5.1502436e+2, 2.0430131e+2, -902879.56, -1058595.1, 43528.914, -0.02346634, 0.16074792, -891537.56, 46318.27, 0.0, 10.000779, 9.998725 
5.150193e+2, 2.1429886e+2, -907223.9, -1012970.1, 36326.883, -0.012131374, 0.02017149, -895947.06, -56068.418, 0.0, 10.000085, 9.998702 
5.150138e+2, 2.2429767e+2, -736766.56, -765004.7, 26513.785, -0.042979315, -0.01269751, -720846.8, 21041.053, 0.0, 10.000082, 9.999736 
5.1500773e+2, 2.3429807e+2, -507338.53, -591329.44, 58815.254, -0.13135868, 0.021822626, -477064.7, 166815.55, 0.0, 10.000936, 9.999842 
5.15002e+2, 2.4429731e+2, -491243.28, -624249.1, 18905.383, -0.14586212, 0.0043541766, -488608.28, 57276.7, 0.0, 10.000765, 9.999025 
5.149968e+2, 2.5429496e+2, -620349.4, -641025.4, -11388.488, -0.06620946, -0.15181006, -615306.5, -167399.3, 0.0, 9.999224, 9.9989805 
5.1499176e+2, 2.642947e+2, -507350.16, -345733.1, 32136.568, -0.02708799, -0.15099348, -339577.38, 10330.177, 0.0, 9.998523, 10.000672 
5.149867e+2, 2.7429682e+2, -374309.6, -219993.42, 104372.75, -0.06405082, -0.039004147, -167355.36, 84527.7, 0.0000000018853024, 9.998707, 10.000777 
5.149812e+2, 2.8429663e+2, -437643.03, -486659.72, 60264.434, -0.07706166, -0.010979147, -397094.0, -243208.78, 0.00000034894228, 9.9988365, 9.998208 
5.149756e+2, 2.942937e+2, -367709.16, -424313.47, 31415.85, -0.012403867, -0.13757193, -353726.94, -297806.97, 0.000004315403, 9.998732, 9.9980135 
5.149725e+2, 3.0429345e+2, -233066.39, 14417.654, 92563.33, 0.19755554, -0.10287354, 45207.367, 45207.367, 0.000026122347, 9.9978485, 10.0011215 
5.149668e+2, 3.14294e+2, -422085.94, 119364.79, -6530.6904, 0.0053687315, -0.20415571, 119443.55, 119443.55, 0.00008115159, 9.995661, 10.002895 
5.250736e+2, 1.2431663e+2, -1543550.4, -1784050.3, -171781.25, -0.024819277, -0.07787124, -1454112.9, 267583.78, 0.000041741798, 10.001805, 9.998613 
5.250705e+2, 1.3431653e+2, -1222628.5, -1608545.1, 184955.86, 0.24364865, 0.02947587, -1148301.3, 475400.38, 0.000010470756, 10.003422, 9.99842 
5.250643e+2, 1.4431553e+2, -1081507.5, -1434241.4, 147589.1, 0.038878255, 0.07472133, -1027900.94, 497812.03, 0.0000009776196, 10.00352, 9.998862 
5.2505887e+2, 1.5431397e+2, -1215258.0, -1442657.8, 51277.273, 0.08997013, -0.0021382729, -1204230.1, 223496.47, 0.000000005050013, 10.001906, 9.998912 
5.2505237e+2, 1.643127e+2, -1271296.1, -1561813.6, -6179.8506, 0.122351974, 0.04350345, -1271164.8, 58575.688, 0.0, 10.001461, 9.997642 
5.2504456e+2, 1.7431156e+2, -1020096.75, -1401132.1, 11667.124, 0.10415558, 0.15360494, -1019739.9, 212017.0, 0.0, 10.002561, 9.99754 
5.250376e+2, 1.8431012e+2, -804473.1, -1107451.6, 82747.18, 0.084689096, 0.20104142, -783346.94, 350425.5, 0.0, 10.002777, 9.9987755 
5.250318e+2, 1.9430806e+2, -857522.7, -1067795.5, 29805.053, 0.07615707, 0.08665829, -853379.6, 182408.92, 0.0, 10.001683, 9.9988985 
5.250258e+2, 2.0430632e+2, -912717.94, -1055045.8, 11486.423, 0.04969468, 0.032415003, -911796.9, 26005.963, 0.0, 10.000668, 9.998805 
5.2501935e+2, 2.1430488e+2, -950549.2, -1019280.9, 29852.904, 0.0063249315, -0.015934087, -939393.5, -99577.31, 0.0, 9.999723, 9.998831 
5.250134e+2, 2.2430432e+2, -862898.7, -833639.6, 83939.84, -0.047267918, 0.008653833, -763064.0, -21243.77, 0.0, 9.999256, 9.999659 
5.250081e+2, 2.343046e+2, -740968.2, -717936.06, 45975.7, -0.11412435, 0.045645654, -682056.06, -38241.246, 0.0, 9.999391, 9.99972 
5.250021e+2, 2.4430358e+2, -690143.3, -713635.0, -25225.402, -0.13488172, 0.0036966377, -674063.2, -128240.805, 0.0, 9.999367, 9.999087 
5.249957e+2, 2.5430074e+2, -627071.25, -636614.06, 2608.2866, -0.09442208, -0.20888133, -626404.9, -178557.06, 0.0, 9.999142, 9.999052 
5.2498996e+2, 2.6430026e+2, -455400.72, -338816.5, 84816.41, -0.07400791, -0.2288722, -294192.16, 55657.895, 0.0, 9.998961, 10.0005045 
5.249852e+2, 2.743025e+2, -361821.13, -229635.25, 8586.264, -0.08936527, -0.083631665, -229079.86, 22745.027, 0.00000000009174081, 9.998878, 10.000619 
5.2498007e+2, 2.8430283e+2, -402744.44, -409446.75, -48807.75, -0.07079892, -0.025546214, -357172.94, -203350.4, 0.00000033351301, 9.99882, 9.99874 
5.2497476e+2, 2.943006e+2, -332294.4, -348304.22, 5712.861, 0.039342664, -0.13770539, -330464.94, -274615.34, 0.0000041082662, 9.998715, 9.998542 
5.2497137e+2, 3.0430034e+2, -231015.9, -52805.117, 65252.24, 0.29209056, -0.10462606, -31467.648, -31467.648, 0.000024723933, 9.998147, 10.000518 
5.2496344e+2, 3.14301e+2, -249952.8, 180777.58, -126377.49, 0.055702478, -0.12211491, 215119.08, 215119.08, 0.000077842684, 9.996915, 10.002721 
5.350789e+2, 1.2432743e+2, -1577674.4, -1868930.0, -178255.98, 0.2640453, 0.0021260898, -1493122.6, 228465.58, 0.000035627574, 10.001874, 9.997996 
5.350716e+2, 1.3432653e+2, -1263404.1, -1688433.9, 249362.05, -0.0076293717, 0.08894625, -1148285.0, 475315.7, 0.000008273398, 10.003403, 9.997885 
5.350662e+2, 1.4432427e+2, -1163347.3, -1593424.9, 85573.21, -0.1552259, 0.08599412, -1146946.1, 378679.22, 0.00000061502607, 10.003474, 9.997788 
5.350611e+2, 1.5432103e+2, -1294864.6, -1609015.3, 669.4349, 0.099564195, -0.051882852, -1294863.3, 132795.0, 0.00000000036285042, 10.001908, 9.997768 
5.3505427e+2, 1.6431913e+2, -1228278.5, -1468327.9, 17559.344, 0.14324793, -0.03820256, -1227000.9, 102676.445, 0.0, 10.001442, 9.998294 
5.350454e+2, 1.743189e+2, -964021.7, -1287747.1, 63148.285, -0.09343384, 0.085855186, -952139.6, 279539.44, 0.0, 10.002568, 9.998321 
5.350384e+2, 1.8431732e+2, -893328.94, -1280144.3, 39666.516, -0.1316519, 0.13344201, -889303.1, 244391.45, 0.0, 10.002728, 9.997609 
5.35034e+2, 1.943138e+2, -961060.56, -1271334.1, -1030.9261, 0.1084212, 0.0028122417, -961057.1, 74672.62, 0.0, 10.001629, 9.997531 
5.3502756e+2, 2.043119e+2, -884374.1, -973836.8, -32964.406, 0.15002473, -0.02315781, -873539.75, 64207.61, 0.0, 10.000575, 9.999404 
5.350186e+2, 2.1431202e+2, -912724.06, -920378.7, 2354.4067, -0.05751889, 0.008858429, -912057.9, -72314.34, 0.0, 9.999632, 9.999555 
5.3501225e+2, 2.2431177e+2, -931474.2, -954070.7, 77362.125, -0.10248318, 0.06361183, -864589.6, -122844.42, 0.0, 9.999162, 9.998878 
5.350094e+2, 2.3431085e+2, -817254.56, -852741.0, 59062.434, 0.06423758, 0.06525821, -773327.75, -129571.43, 0.0, 9.99929, 9.99884 
5.350035e+2, 2.443101e+2, -631103.94, -576360.56, -40018.656, 0.04325281, 0.05203037, -555248.2, -9485.756, 0.0, 9.999307, 10.000059 
5.3499365e+2, 2.5430942e+2, -559300.3, -481839.78, 4382.358, -0.23052867, -0.05360787, -481592.66, -33829.43, 0.0, 9.999082, 10.000144 
5.349872e+2, 2.6430857e+2, -579725.7, -591420.2, 73398.914, -0.26602364, -0.086253166, -511941.5, -162171.94, 0.0, 9.998935, 9.998783 
5.349852e+2, 2.7430725e+2, -505354.63, -514839.56, 17662.686, -0.0033926016, -0.10800839, -491808.8, -240023.58, 0.0, 9.998816, 9.998693 
5.349803e+2, 2.8430736e+2, -283915.06, -155908.11, -59302.973, 0.045319945, -0.047145724, -132657.44, 21127.822, 0.00000019037492, 9.998795, 10.000493 
5.3497165e+2, 2.9430914e+2, -202653.34, -58452.82, 14055.916, -0.16931747, 0.042535715, -57095.496, -1328.9635, 0.0000040138116, 9.9986315, 10.000572 
5.349675e+2, 3.0430925e+2, -339693.84, -279060.03, 18815.336, 0.06731459, 0.075003386, -273695.97, -273695.97, 0.000024880646, 9.998136, 9.998974 
5.349618e+2, 3.1430906e+2, -356797.25, -49063.082, -110181.805, 0.14852302, 0.13962273, -13681.362, -13681.362, 0.000077454766, 9.996933, 10.001135 
5.4508126e+2, 1.2433551e+2, -1458884.4, -1804048.1, -279848.88, 0.27996045, 0.0037030405, -1302680.8, 418828.1, 0.000030309948, 10.002665, 9.998082 
5.450733e+2, 1.3433444e+2, -1430548.0, -1747881.0, 158664.55, -0.11195427, 0.061603952, -1364827.5, 258693.64, 0.000006366235, 10.002171, 9.998076 
5.4506975e+2, 1.4433216e+2, -1425273.0, -1763508.5, 35966.62, -0.05186088, 0.06471109, -1421490.8, 104055.016, 0.00000037085837, 10.001856, 9.99741 
5.450635e+2, 1.5432902e+2, -1265793.3, -1638236.6, -21623.84, 0.1318373, -0.021882886, -1264541.9, 163037.4, 0.00000000007720086, 10.002296, 9.997381 
5.4505605e+2, 1.6432695e+2, -1054214.5, -1360219.4, 69386.04, 0.1279223, -0.01385672, -1039216.44, 290383.25, 0.0, 10.002547, 9.998495 
5.4504764e+2, 1.7432621e+2, -965821.1, -1257992.1, 59059.83, -0.11326698, 0.03624151, -954334.3, 277269.1, 0.0, 10.00244, 9.998579 
5.4504067e+2, 1.8432425e+2, -1030769.4, -1399071.9, 4606.6665, -0.13828266, 0.05162956, -1030711.75, 102910.4, 0.0, 10.001996, 9.997155 
5.450356e+2, 1.9432051e+2, -1060617.5, -1372877.5, 3428.9063, 0.1322513, -0.051344316, -1060579.9, -24918.088, 0.0, 10.001167, 9.997058 
5.450287e+2, 2.0431863e+2, -854870.44, -977385.0, 20535.502, 0.19528764, -0.04307065, -851520.0, 86160.695, 0.0, 10.000855, 9.999249 
5.450195e+2, 2.1431896e+2, -705033.8, -832862.44, -21730.73, -0.00019554522, 0.02591388, -701440.6, 138233.98, 0.0, 10.001117, 9.999442 
5.450128e+2, 2.243186e+2, -689821.56, -822401.75, 60463.598, -0.04669669, 0.0671913, -666388.6, 75288.48, 0.0, 10.000755, 9.999015 
5.4500914e+2, 2.3431708e+2, -761787.3, -811753.56, 100457.7, 0.1035976, -0.0021010577, -683252.75, -39560.03, 0.0, 9.999609, 9.998973 
5.450029e+2, 2.4431664e+2, -671985.1, -587821.0, 42448.863, 0.072238326, 0.0061178044, -570130.1, -24433.96, 0.0, 9.998992, 10.000131 
5.44993e+2, 2.543174e+2, -552441.2, -469946.16, -10654.742, -0.20166396, 0.039104976, -468592.25, -20907.139, 0.0, 9.999101, 10.000213 
5.4498655e+2, 2.6431662e+2, -575790.75, -646997.8, 79562.14, -0.23319013, 0.033063605, -524229.22, -174536.8, 0.0, 9.999213, 9.998265 
5.449848e+2, 2.7431354e+2, -461811.3, -556179.3, 109057.94, 0.05659803, -0.11160426, -390167.88, -138441.95, 0.0, 9.999377, 9.998142 
5.449794e+2, 2.8431317e+2, -277929.16, -100655.055, 20986.94, 0.08947799, -0.091249645, -98204.35, 55525.332, 0.00000011177434, 9.998618, 10.000959 
5.449691e+2, 2.943161e+2, -439503.47, -106125.85, -38712.137, -0.19316982, 0.059395872, -101689.59, -45992.59, 0.0000045059896, 9.996736, 10.001154 
5.4496425e+2, 3.0431592e+2, -549560.44, -415657.06, 30684.525, 0.0017220805, 0.051735554, -408960.47, -408960.47, 0.000026381855, 9.9968605, 9.99864 
5.4495996e+2, 3.1431594e+2, -56243.254, 29472.854, -1987.7015, 0.1586181, 0.17814562, 29518.922, 29518.922, 0.00007890932, 9.999305, 10.000518 
5.550798e+2, 1.2434119e+2, -1397711.0, -1674516.5, -298498.4, -0.1648679, -0.03498044, -1207090.0, 514365.75, 0.000026661139, 10.002667, 9.998962 
5.5507517e+2, 1.3434035e+2, -1372052.5, -1621543.4, 140546.5, -0.15367879, -0.042864446, -1308875.8, 314586.56, 0.0000052899522, 10.002161, 9.998945 
5.5507493e+2, 1.4433917e+2, -1397455.0, -1710698.3, 35685.21, 0.25693116, 0.00989764, -1393441.1, 132033.2, 0.00000021782215, 10.001871, 9.997768 
5.5506563e+2, 1.543379e+2, -1240374.0, -1592620.8, 6934.259, 0.095888264, 0.081337996, -1240237.5, 187252.84, 0.00000000000011946363, 10.0023155, 9.997693 
5.550573e+2, 1.6433612e+2, -1074639.1, -1395892.5, 58639.504, -0.01920973, 0.11337394, -1064270.1, 265237.84, 0.0, 10.002524, 9.998257 
5.55051e+2, 1.743335e+2, -991509.8, -1303851.3, 64072.395, -0.040952474, 0.00012325514, -978877.2, 252653.02, 0.0, 10.002409, 9.99828 
5.5504405e+2, 1.8433091e+2, -1018970.6, -1359770.5, -33147.566, -0.015883688, -0.043746196, -1015776.5, 117778.41, 0.0, 10.001932, 9.9974575 
5.550363e+2, 1.943282e+2, -1044885.25, -1332158.6, -18690.588, 0.06702027, -0.07456413, -1043674.3, -8089.7373, 0.0, 10.001124, 9.997365 
5.550288e+2, 2.0432644e+2, -925310.6, -1104438.4, 20974.273, 0.102142155, -0.03181863, -922887.5, 14715.901, 0.0, 10.000777, 9.998412 
5.5502164e+2, 2.1432567e+2, -786553.25, -978711.06, -1664.1268, 0.08531239, 0.020256098, -786538.8, 53071.35, 0.0, 10.001012, 9.998492 
5.550145e+2, 2.2432469e+2, -636901.25, -684377.7, 13021.742, 0.031635784, 0.0061538937, -633564.25, 108052.39, 0.0, 10.000639, 10.000016 
5.5500716e+2, 2.3432334e+2, -698074.5, -653010.4, 68440.7, -0.07740281, -0.16344978, -603488.1, 40135.777, 0.0, 9.9994955, 10.000116 
5.5500007e+2, 2.443233e+2, -743910.1, -722046.7, 36865.69, -0.13034602, -0.1329865, -694526.06, -148903.08, 0.0, 9.998922, 9.999246 
5.549932e+2, 2.543248e+2, -635437.1, -623768.75, 3673.941, -0.105293505, 0.07320129, -622708.3, -175094.83, 0.0, 9.99902, 9.999198 
5.549877e+2, 2.643244e+2, -531867.56, -547419.56, 77792.164, -0.056262344, 0.12597845, -461463.72, -111844.33, 0.0, 9.99918, 9.998963 
5.549839e+2, 2.7432132e+2, -416620.66, -447585.94, 124688.15, 0.0061561298, -0.095207624, -306457.6, -54810.41, 0.0, 9.999317, 9.998917 
5.549771e+2, 2.8432015e+2, -339977.88, -226169.97, -54188.535, -0.016247759, -0.155628, -204496.2, -50839.96, 0.00000024371042, 9.998598, 10.00011 
5.5496657e+2, 2.943212e+2, -510864.66, -246186.36, -98047.22, -0.14106005, -0.09918532, -213823.03, -158179.88, 0.0000058589785, 9.996694, 10.0002165 
5.5496126e+2, 3.0432025e+2, -493257.66, -295406.94, 108651.125, -0.0031180535, -0.17648618, -247392.53, -247392.53, 0.000029984647, 9.996844, 9.999472 
5.549572e+2, 3.1432137e+2, -39140.293, 72510.14, 134073.25, -0.09115142, -0.033304937, 161916.1, 161916.1, 0.00008416486, 9.999264, 10.000838 
5.650825e+2, 1.2434771e+2, -1431843.9, -1706232.4, -175549.94, -0.14371404, -0.046060096, -1346237.6, 375154.38, 0.000022362587, 10.002479, 9.998829 
5.650774e+2, 1.3434674e+2, -1324252.0, -1615061.4, 86308.6, -0.1558583, -0.059172183, -1300565.9, 322834.75, 0.000004259607, 10.002542, 9.998802 
5.650786e+2, 1.4434564e+2, -1295096.1, -1600147.0, -14402.749, 0.41523147, -0.014851344, -1294417.6, 230993.23, 0.00000013010742, 10.002314, 9.998314 
5.650679e+2, 1.5434462e+2, -1223068.3, -1511269.9, -39716.754, 0.101259306, 0.02220101, -1217695.1, 209726.03, 0.0, 10.002131, 9.998337 
5.650589e+2, 1.6434313e+2, -1187279.8, -1457254.5, 35836.023, -0.07146019, 0.049343202, -1182603.9, 146831.58, 0.0, 10.001766, 9.998212 
5.6505305e+2, 1.7434072e+2, -1172588.9, -1397393.6, 37387.105, -0.010589914, -0.03414966, -1166534.1, 64923.65, 0.0, 10.001186, 9.998226 
5.6504625e+2, 1.8433867e+2, -1076768.4, -1342196.4, -12272.92, 0.04800495, -0.042117536, -1076202.0, 57276.66, 0.0, 10.001345, 9.997854 
5.6503826e+2, 1.943369e+2, -831395.9, -1175027.4, -1789.651, 0.095820114, -0.026283283, -831386.56, 204112.53, 0.0, 10.002366, 9.997835 
5.650304e+2, 2.0433515e+2, -715759.5, -1051361.3, 54168.78, 0.10887401, 0.0127821155, -707232.9, 230284.88, 0.0, 10.002422, 9.997984 
5.650229e+2, 2.143333e+2, -794227.75, -1033012.94, 44940.383, 0.09986759, 0.0043053622, -786049.9, 53485.805, 0.0, 10.001188, 9.998029 
5.6501496e+2, 2.243318e+2, -691374.75, -719028.5, 48542.887, 0.03757693, -0.03334666, -654727.94, 86818.89, 0.0, 10.000296, 9.999944 
5.650067e+2, 2.3433065e+2, -654788.4, -631128.75, -1192.5923, -0.08794491, -0.17985462, -631068.75, 12481.912, 0.0, 9.999794, 10.0001135 
5.6499934e+2, 2.4433047e+2, -692660.25, -736392.4, -14364.59, -0.118601814, -0.1502112, -688364.0, -142812.33, 0.0, 9.999465, 9.998872 
5.6499326e+2, 2.5433117e+2, -605026.7, -656912.1, -19168.479, -0.01622468, 0.019389011, -598713.3, -151161.36, 0.0, 9.99944, 9.998763 
5.6498754e+2, 2.64331e+2, -506526.94, -439276.47, 86537.586, 0.023412509, 0.08239972, -380060.94, -30505.799, 0.0, 9.998938, 9.999823 
5.64982e+2, 2.743297e+2, -565351.2, -407105.28, 125999.875, -0.02991502, -0.0650648, -337445.13, -85882.53, 0.0, 9.997822, 9.9999075 
5.649748e+2, 2.8432858e+2, -503830.44, -406944.53, -13901.749, -0.070289835, -0.12960774, -404989.28, -251419.03, 0.00000046127252, 9.997895, 9.999211 
5.649653e+2, 2.9432765e+2, -166267.9, -198441.02, -77774.92, -0.067580335, -0.16774903, -102933.336, -47353.89, 0.000007820285, 9.999551, 9.999175 
5.649597e+2, 3.043263e+2, -116493.25, -36058.0, 130259.06, 0.051418148, -0.26076835, 60050.75, 60050.75, 0.00003595913, 9.999099, 10.000167 
5.649541e+2, 3.143284e+2, -536608.94, -114167.8, 114214.65, -0.13982491, -0.10017231, -85265.24, -85265.24, 0.000094486146, 9.995631, 10.001298 
5.7508856e+2, 1.24354914e+2, -1502896.1, -1859612.1, -125401.09, 0.16125154, -0.048170794, -1463224.3, 258095.17, 0.000015098279, 10.002509, 9.997754 
5.750795e+2, 1.3435355e+2, -1403767.6, -1780019.5, 86600.63, -0.22373927, 0.009022311, -1384792.0, 238545.02, 0.0000026568694, 10.002538, 9.997667 
5.750804e+2, 1.443516e+2, -1246453.9, -1491170.8, -35558.797, 0.33598408, -0.006535742, -1241391.6, 283963.66, 0.000000050157187, 10.002285, 9.999074 
5.7506984e+2, 1.543492e+2, -1164987.8, -1384855.8, -36885.49, 0.06487326, -0.19507104, -1158964.8, 268407.44, 0.0, 10.0021105, 9.999216 
5.750605e+2, 1.6434793e+2, -1172801.8, -1422304.4, 3096.9915, -0.11016422, -0.20449431, -1172763.3, 156619.16, 0.0, 10.001739, 9.998465 
5.7505345e+2, 1.7434792e+2, -1162708.1, -1374867.4, 23949.965, -0.1085242, -0.07081625, -1160038.0, 71348.51, 0.0, 10.001171, 9.998391 
5.75047e+2, 1.8434757e+2, -1042581.56, -1259030.5, 16029.873, -0.031990185, 0.057460353, -1041400.9, 91992.37, 0.0, 10.0013, 9.998445 
5.750412e+2, 1.9434659e+2, -800947.0, -1091532.9, 46640.832, 0.1278191, 0.09396128, -793644.44, 241761.08, 0.0, 10.002283, 9.998448 
5.750333e+2, 2.043448e+2, -733180.3, -1060569.1, 3224.2834, 0.13747199, 0.09546486, -733148.56, 204275.23, 0.0, 10.002306, 9.997976 
5.7502276e+2, 2.1434179e+2, -816037.7, -1052328.3, 6671.9478, -0.044424076, -0.019914873, -815849.44, 23601.873, 0.0, 10.001076, 9.9979515 
5.75014e+2, 2.2433986e+2, -777759.8, -876800.4, 19394.73, -0.109439254, -0.05093253, -774097.25, -32629.16, 0.0, 10.000199, 9.998907 
5.7500726e+2, 2.3433906e+2, -748273.06, -802561.3, -9943.265, -0.0224059, -0.048417255, -746509.2, -103036.33, 0.0, 9.999693, 9.998987 
5.750003e+2, 2.44338e+2, -691604.7, -728995.6, -25750.705, 0.014704497, -0.04833305, -678478.44, -132995.5, 0.0, 9.999431, 9.998945 
5.749929e+2, 2.543364e+2, -603260.8, -638347.75, -10346.464, -0.019308489, -0.1254708, -600437.06, -152935.25, 0.0, 9.999372, 9.998927 
5.749858e+2, 2.6433647e+2, -432900.78, -285716.03, 38662.324, -0.06893976, -0.10100101, -276178.3, 73321.67, 0.0, 9.998922, 10.00089 
5.749788e+2, 2.7433848e+2, -490399.78, -244904.22, 90327.85, -0.15351024, -0.026802473, -215250.77, 36222.465, 0.0, 9.997777, 10.00105 
5.7497185e+2, 2.8433838e+2, -572137.5, -536682.3, 32093.863, -0.16754773, -0.010203417, -517745.44, -364273.3, 0.0000006054728, 9.997846, 9.998345 
5.7496506e+2, 2.9433545e+2, -245235.66, -350827.2, -1098.1952, -0.07485281, -0.14422233, -245224.25, -189718.78, 0.000009307056, 9.999507, 9.998147 
5.7495934e+2, 3.0433416e+2, -79992.73, 34227.273, 8602.776, 0.08352685, -0.19916868, 34871.582, 34871.582, 0.000040671366, 9.999109, 10.000655 
5.749501e+2, 3.1433675e+2, -501789.34, -37549.36, 6384.9883, -0.15274122, -0.05259991, -37461.56, -37461.56, 0.000103750725, 9.995593, 10.001855 
5.85093e+2, 1.2436253e+2, -1305419.4, -1795870.8, -32956.133, 0.2923951, -0.023756139, -1303214.8, 418028.75, 0.000008007214, 10.003971, 9.9975 
5.8508146e+2, 1.3436083e+2, -1429911.8, -1823835.0, 112285.97, -0.2727948, 0.034693524, -1400153.3, 223112.45, 0.0000012151539, 10.00249, 9.9973955 
5.850821e+2, 1.4435887e+2, -1352295.3, -1522808.8, 56482.797, 0.32633105, 0.023376664, -1335282.6, 190001.97, 0.000000012980553, 10.001487, 9.999229 
5.850721e+2, 1.5435658e+2, -1223459.9, -1392165.9, -16639.857, 0.11146559, -0.17498873, -1221834.3, 205465.16, 0.0, 10.001621, 9.999391 
5.850627e+2, 1.6435534e+2, -1183929.1, -1404116.6, 108.76783, -0.048853308, -0.20244025, -1183929.0, 145380.06, 0.0, 10.001564, 9.99867 
5.8505493e+2, 1.7435527e+2, -1128374.9, -1331170.6, 4320.4136, -0.081018284, -0.09465066, -1128282.9, 103030.61, 0.0, 10.001291, 9.998628 
5.850482e+2, 1.8435518e+2, -1062193.1, -1240935.8, 31452.229, -0.026147658, 0.0349299, -1056820.1, 76497.62, 0.0, 10.001044, 9.998696 
5.850427e+2, 1.9435486e+2, -1002428.06, -1160498.0, 18795.885, 0.13399911, 0.11244939, -1000223.8, 35100.35, 0.0, 10.000776, 9.998705 
5.850349e+2, 2.0435338e+2, -915928.1, -1124375.8, -32184.006, 0.14452615, 0.12101739, -911072.06, 26267.438, 0.0, 10.00094, 9.998197 
5.8502424e+2, 2.1435028e+2, -712645.44, -978902.9, -24068.092, -0.029964691, -0.029795049, -710487.3, 128880.49, 0.0, 10.001674, 9.998172 
5.850152e+2, 2.2434841e+2, -598075.06, -830261.75, 22937.049, -0.06994096, -0.04833588, -595830.9, 145553.7, 0.0, 10.001619, 9.998545 
5.850082e+2, 2.3434785e+2, -648804.0, -804720.06, 24129.672, 0.061030947, 0.021840746, -645155.06, -1766.0219, 0.0, 10.000587, 9.99855 
5.850008e+2, 2.4434654e+2, -614655.5, -687149.25, 80654.5, 0.09556245, 0.01960947, -562477.4, -17075.875, 0.0, 9.99993, 9.998993 
5.8499277e+2, 2.5434414e+2, -516583.2, -585526.3, 75635.52, 0.004677168, -0.14643918, -467934.22, -20508.92, 0.0, 9.999914, 9.999025 
5.8498496e+2, 2.643438e+2, -368012.25, -284483.8, 58864.14, -0.06573878, -0.15296265, -254072.98, 95353.87, 0.0, 9.999514, 10.000607 
5.849774e+2, 2.7434593e+2, -375449.13, -225620.44, -18598.762, -0.11325812, -0.034574214, -223346.23, 28055.555, 0.0, 9.998733, 10.000718 
5.8497036e+2, 2.8434628e+2, -454843.9, -419400.0, -1244.0697, -0.12594488, 0.018554218, -419356.4, -265959.06, 0.00000055145284, 9.998397, 9.998879 
5.8496416e+2, 2.943443e+2, -346766.16, -335742.25, 71913.15, -0.06396804, -0.081822656, -269130.13, -213709.88, 0.000008783807, 9.998543, 9.998711 
5.8495843e+2, 3.0434328e+2, -183232.28, -66387.625, 36497.477, 0.111407794, -0.11653971, -55924.297, -55924.297, 0.000039667964, 9.998618, 10.00019 
5.8494806e+2, 3.143449e+2, -100821.62, 110565.51, -89242.32, -0.055194587, -0.019504264, 143202.42, 143202.42, 0.00010388018, 9.998544, 10.001437 
5.9509575e+2, 1.2437034e+2, -1249057.6, -1679140.1, -12702.033, 0.11966019, 0.02105624, -1248682.9, 472483.44, 0.0000033726953, 10.003991, 9.998284 
5.9508306e+2, 1.3436864e+2, -1389258.5, -1738065.4, 54098.36, -0.38422528, 0.016871527, -1381060.8, 242125.56, 0.00000044999516, 10.002493, 9.997981 
5.950834e+2, 1.4436743e+2, -1383893.8, -1585607.6, 43132.348, 0.28683534, 0.06829935, -1375057.9, 150141.19, 0.000000014541682, 10.001473, 9.998803 
5.950743e+2, 1.543667e+2, -1263015.3, -1472278.5, -4238.4985, 0.14330086, 0.07641249, -1262929.5, 164274.34, 0.0, 10.00161, 9.998848 
5.9506524e+2, 1.6436532e+2, -1176445.6, -1377504.8, -19189.807, 0.026394712, 0.058305245, -1174630.5, 154584.8, 0.0, 10.001523, 9.998872 
5.9505713e+2, 1.7436285e+2, -1113024.5, -1292465.4, 3448.8262, -0.012713267, -0.09983459, -1112958.3, 118279.86, 0.0, 10.001267, 9.998904 
5.950495e+2, 1.8436156e+2, -1072015.5, -1254229.5, 11096.572, -0.0206114, -0.10294043, -1071342.3, 61909.883, 0.0, 10.001011, 9.998622 
5.9504247e+2, 1.9436164e+2, -1019800.1, -1181354.0, 16919.926, 0.013943543, 0.024948595, -1018047.1, 17208.914, 0.0, 10.0007105, 9.998594 
5.95035e+2, 2.0436087e+2, -891362.6, -1052757.4, -15679.303, 0.039771136, 0.08594342, -889853.5, 47412.05, 0.0, 10.000852, 9.998732 
5.9502697e+2, 2.1435879e+2, -688928.94, -903748.06, 13972.026, 0.05899914, -0.01787794, -688024.0, 151260.4, 0.0, 10.001564, 9.998741 
5.9501845e+2, 2.243575e+2, -591580.3, -800062.5, -21649.988, 0.070974074, -0.019885778, -589355.8, 151939.89, 0.0, 10.001539, 9.998795 
5.95009e+2, 2.3435698e+2, -648081.25, -780241.8, -5886.316, 0.07042857, 0.029142566, -647819.56, -4520.0537, 0.0, 10.0004835, 9.998772 
5.950003e+2, 2.4435604e+2, -617037.4, -684346.8, 69375.28, 0.03396628, 0.04853205, -573584.56, -28276.883, 0.0, 9.999887, 9.999037 
5.9499246e+2, 2.5435442e+2, -522836.88, -583567.0, 82453.53, -0.04200968, -0.04218179, -465334.84, -18012.48, 0.0, 9.999845, 9.999074 
5.949849e+2, 2.6435316e+2, -490563.22, -529216.0, 21944.436, -0.05122363, -0.06794386, -480648.06, -131312.69, 0.0, 9.9994755, 9.998945 
5.9497756e+2, 2.7435207e+2, -510442.6, -492207.03, -37209.664, -0.0012029988, -0.09018653, -463014.3, -211665.75, 0.0, 9.998674, 9.998918 
5.949699e+2, 2.843523e+2, -323967.94, -140525.2, -7050.268, -0.03319487, -0.045601744, -140254.63, 13091.419, 0.0000003359344, 9.998367, 10.000806 
5.9496224e+2, 2.9435402e+2, -203748.42, -21459.393, 85292.3, -0.13686287, 0.0056972164, 12224.371, 67549.12, 0.000006914508, 9.998471, 10.000899 
5.9495664e+2, 3.043535e+2, -292269.34, -283664.53, 28472.174, 0.05095706, -0.025604885, -259171.53, -259171.53, 0.000035638073, 9.998578, 9.998721 
5.9494734e+2, 3.143529e+2, -207036.22, -95897.38, -60015.457, -0.035121042, 0.02153342, -69675.51, -69675.51, 0.00009897654, 9.998486, 10.000048 
6.0509896e+2, 1.2437663e+2, -1396882.5, -1731218.0, 23875.182, 0.098192595, -0.02959982, -1395186.1, 325916.75, 0.0000011578151, 10.002883, 9.998473 
6.050856e+2, 1.3437502e+2, -1402908.1, -1718184.1, -77841.91, -0.36306953, -0.042886022, -1384736.3, 238385.16, 0.00000014603442, 10.002311, 9.998192 
6.050849e+2, 1.4437412e+2, -1345131.8, -1553632.3, -23576.445, 0.28024533, 0.02458846, -1342499.0, 182632.4, 0.0000000031309833, 10.001673, 9.998939 
6.050759e+2, 1.5437426e+2, -1276532.6, -1462340.8, -42891.445, 0.15871097, 0.11045444, -1267109.6, 160019.8, 0.0, 10.001444, 9.999003 
6.05067e+2, 1.6437303e+2, -1211601.5, -1420702.5, -26585.285, 0.065481454, 0.10691698, -1208274.4, 120866.04, 0.0, 10.001379, 9.99865 
6.05059e+2, 1.7436975e+2, -1101265.3, -1316363.6, -59094.004, 0.04597693, -0.10762236, -1086099.6, 145071.3, 0.0, 10.001465, 9.9986515 
6.0505116e+2, 1.8436812e+2, -1010662.5, -1195381.6, -53449.4, 0.03188745, -0.14305268, -996311.6, 136876.2, 0.0, 10.001312, 9.998879 
6.050433e+2, 1.9436845e+2, -977061.75, -1126952.6, -36132.6, 0.02130808, -0.020267982, -968806.3, 66382.234, 0.0, 10.000857, 9.998898 
6.0503566e+2, 2.043682e+2, -901155.56, -1015046.2, -14738.499, 0.03301482, 0.059092864, -899279.2, 37913.84, 0.0, 10.000603, 9.999116 
6.050282e+2, 2.1436699e+2, -811772.5, -919452.3, -15513.385, 0.07862236, 0.0032044349, -809582.06, 29622.465, 0.0, 10.00053, 9.999134 
6.050196e+2, 2.2436598e+2, -720376.7, -843609.75, -68795.87, 0.09663491, 0.0015210737, -689638.1, 51575.098, 0.0, 10.000579, 9.998953 
6.050097e+2, 2.3436505e+2, -588694.2, -729002.2, -79170.53, 0.07852876, -0.0072445697, -553067.5, 90152.76, 0.0, 10.000809, 9.998956 
6.050006e+2, 2.4436428e+2, -543286.2, -663177.94, 1594.5297, 0.051584166, 0.027975466, -543265.0, 1961.742, 0.0, 10.000486, 9.998884 
6.049927e+2, 2.5436354e+2, -582314.5, -631926.4, -20679.639, 0.021213852, 0.044836976, -574825.2, -127590.766, 0.0, 9.999539, 9.998886 
6.0498464e+2, 2.6436213e+2, -587160.7, -606708.5, -25457.736, 0.0112708295, 0.0260293, -569665.1, -220415.34, 0.0, 9.99893, 9.998686 
6.049763e+2, 2.7435964e+2, -522660.06, -528374.0, 12498.296, 0.014209833, -0.106396906, -512696.38, -261420.2, 0.0, 9.998706, 9.998662 
6.049683e+2, 2.843597e+2, -252813.31, -68587.875, 93010.945, -0.041150965, -0.08262172, -29796.852, 123477.99, 0.00000016006682, 9.998689, 10.001149 
6.0496104e+2, 2.943627e+2, -105599.15, 69133.266, 30106.018, -0.117242455, 0.06230536, 74174.99, 129414.52, 0.0000052467194, 9.998948, 10.001298 
6.049558e+2, 3.0436206e+2, -217481.47, -282087.8, -37508.164, 0.08835801, 0.008478517, -200283.56, -200283.56, 0.000031333126, 9.999251, 9.998408 
6.0494643e+2, 3.1436047e+2, -92068.586, -105877.48, -55263.91, -0.021353433, 0.0025707933, -43279.484, -43279.484, 0.000092264556, 9.999558, 9.9994755 
6.151021e+2, 1.24381654e+2, -1410606.0, -1762518.6, 54795.973, 0.08113264, -0.15426114, -1402271.3, 318779.78, 0.00000031033701, 10.002907, 9.998239 
6.1508876e+2, 1.3437998e+2, -1423450.5, -1758759.5, -96851.57, -0.30406466, -0.14119518, -1397486.1, 225584.31, 0.000000018009526, 10.002312, 9.997909 
6.150862e+2, 1.4437892e+2, -1294630.3, -1454922.5, -50038.133, 0.21063438, -0.10795139, -1280292.4, 244789.52, 0.0, 10.001688, 9.999612 
6.1507666e+2, 1.543793e+2, -1218060.6, -1353495.5, -43470.99, 0.06890341, -0.07448159, -1205308.4, 221767.77, 0.0, 10.001481, 9.999739 
6.1506766e+2, 1.6437846e+2, -1258536.5, -1510564.1, -33520.168, -0.022855714, -0.04823247, -1254154.5, 74929.88, 0.0, 10.001353, 9.998044 
6.1506045e+2, 1.743759e+2, -1153019.8, -1423933.6, -46088.664, 0.015343819, -0.12043188, -1145393.6, 85718.95, 0.0, 10.001461, 9.997917 
6.150528e+2, 1.843748e+2, -978184.9, -1111350.4, -77180.76, 0.046337, -0.0920677, -942835.6, 190289.86, 0.0, 10.001243, 9.999486 
6.1504483e+2, 1.943754e+2, -938613.06, -1034326.44, -42822.688, 0.069190666, -0.013612927, -922251.0, 112869.75, 0.0, 10.0008, 9.999562 
6.150364e+2, 2.0437554e+2, -896000.44, -984155.8, -26631.746, 0.036317844, 0.05741047, -888579.6, 48540.742, 0.0, 10.000516, 9.999367 
6.1502755e+2, 2.1437491e+2, -814236.9, -899261.5, -9748.493, -0.057244483, 0.03890764, -813133.44, 25994.043, 0.0, 10.000418, 9.999328 
6.1501867e+2, 2.2437388e+2, -728191.75, -838698.2, -67869.23, -0.07596873, 0.019371519, -695928.4, 45208.402, 0.0, 10.0004835, 9.999034 
6.150099e+2, 2.3437212e+2, -597835.5, -725341.25, -60678.695, -0.0021007464, -0.07861055, -573575.1, 69575.2, 0.0, 10.000709, 9.999029 
6.150014e+2, 2.4437128e+2, -579892.1, -728252.44, -42042.543, 0.060313217, -0.037060082, -568806.4, -23647.67, 0.0, 10.000435, 9.998463 
6.149932e+2, 2.5437137e+2, -624291.1, -706707.25, -49152.566, 0.10339634, 0.1055824, -601358.06, -154195.42, 0.0, 9.99948, 9.998404 
6.1498404e+2, 2.6437062e+2, -511282.16, -439323.28, -43801.105, 0.038885, 0.12502016, -418618.88, -69448.35, 0.0, 9.99889, 9.999852 
6.149733e+2, 2.743686e+2, -446637.56, -348569.06, 15609.135, -0.17373018, -0.0886155, -346144.56, -94959.89, 0.0, 9.998618, 9.999934 
6.149652e+2, 2.8436846e+2, -347476.1, -258337.86, 92456.35, -0.24517757, -0.0909736, -200268.86, -47085.484, 0.00000012615395, 9.998656, 9.999861 
6.149603e+2, 2.943704e+2, -214873.8, -139532.06, 48823.125, -0.11436863, 0.08840363, -115536.15, -60372.21, 0.000004351736, 9.998874, 9.999896 
6.1495566e+2, 3.04369e+2, -165489.95, -172641.48, -33690.09, 0.12769438, -0.009242719, -135186.4, -135186.4, 0.000027327982, 9.999238, 9.999175 
6.1494446e+2, 3.1436762e+2, -84095.414, -73846.28, -1923.1821, -0.21718584, -0.075065635, -73497.3, -73497.3, 0.00008383067, 9.9994955, 9.999728 
6.251051e+2, 1.2438903e+2, -1209872.9, -1655972.9, 159882.22, 0.035979684, -0.14116356, -1158489.6, 562489.7, 0.000000031381585, 10.004221, 9.998351 
6.250921e+2, 1.3438742e+2, -1400153.8, -1730152.9, -57772.813, -0.1921532, -0.139129, -1390331.9, 232665.42, 0.000000000001578113, 10.002369, 9.998095 
6.250877e+2, 1.4438601e+2, -1364820.3, -1501084.6, 55733.703, 0.22468692, -0.1447342, -1344928.4, 180083.28, 0.0, 10.001263, 9.999497 
6.2507814e+2, 1.5438606e+2, -1187435.5, -1346713.0, -11892.263, 0.058907494, -0.13103965, -1186552.5, 240456.78, 0.0, 10.00175, 9.99964 
6.250692e+2, 1.6438547e+2, -1150245.4, -1426824.1, 7770.4683, -0.032969248, -0.08990319, -1150027.3, 178988.1, 0.0, 10.0019655, 9.9983225 
6.2506217e+2, 1.7438386e+2, -1103231.5, -1358690.4, 45496.008, 0.04135641, -0.097469084, -1095370.8, 135663.14, 0.0, 10.00165, 9.998264 
6.250544e+2, 1.8438305e+2, -984545.25, -1134245.0, 33102.637, 0.09431625, -0.050226845, -977552.06, 155491.83, 0.0, 10.001264, 9.999328 
6.250459e+2, 1.9438301e+2, -966202.1, -1065168.4, -12879.447, 0.10709403, -0.01904729, -964553.5, 70492.31, 0.0, 10.00068, 9.999408 
6.25037e+2, 2.0438299e+2, -930715.75, -995075.94, -7780.7373, 0.059501927, 0.04150908, -929788.44, 7258.7856, 0.0, 10.000248, 9.999425 
6.250278e+2, 2.1438275e+2, -872402.6, -913080.4, -16572.27, -0.045960784, 0.053887807, -866505.9, -27455.217, 0.0, 9.999964, 9.999449 
6.2501884e+2, 2.2438186e+2, -784614.9, -844004.9, -39519.797, -0.07851573, 0.033850394, -764877.06, -23818.95, 0.0, 10.000008, 9.999224 
6.250103e+2, 2.343799e+2, -618226.5, -716528.44, -39741.207, -0.015380501, -0.10367317, -604170.0, 38902.984, 0.0, 10.000483, 9.999204 
6.250016e+2, 2.4437892e+2, -569460.75, -723081.0, -21916.846, 0.03589669, -0.08474078, -566395.1, -21312.746, 0.0, 10.000486, 9.998483 
6.249926e+2, 2.5437906e+2, -555302.9, -670293.1, -13694.055, 0.07284143, 0.06217134, -553694.56, -106608.62, 0.0, 9.999933, 9.998438 
6.2498313e+2, 2.643784e+2, -397811.0, -399893.22, 5359.9014, 0.025394265, 0.0962015, -393392.03, -44299.39, 0.0, 9.999731, 9.999716 
6.2497294e+2, 2.7437645e+2, -264909.56, -277875.22, -60904.62, -0.13499925, -0.099199966, -210143.7, 40961.957, 0.0, 9.999928, 9.999787 
6.249646e+2, 2.8437582e+2, -275506.03, -309704.63, -14882.448, -0.20621482, -0.105128504, -269936.56, -116826.96, 0.000000116905284, 9.999524, 9.999093 
6.2495875e+2, 2.9437667e+2, -335084.25, -292616.75, -33090.01, -0.1298852, 0.04495074, -274533.56, -219430.16, 0.000004287332, 9.998443, 9.999064 
6.2495404e+2, 3.0437544e+2, -270044.75, -139252.84, -40518.58, 0.1020414, -0.023789937, -127717.75, -127717.75, 0.000025852014, 9.998172, 9.999909 
6.2494415e+2, 3.1437474e+2, -158272.44, -70134.1, -30194.598, -0.15571734, -0.10363106, -60782.25, -60782.25, 0.00007867894, 9.998815, 10.000076 
6.3510764e+2, 1.2439853e+2, -1170459.5, -1580168.1, 97000.36, -0.18292557, -0.006815555, -1148654.6, 572235.44, 0.0000000061075784, 10.004253, 9.998855 
6.350954e+2, 1.3439716e+2, -1358669.9, -1644828.5, -131877.16, -0.11957738, -0.040147997, -1307164.4, 315738.66, 0.0, 10.002371, 9.998683 
6.350892e+2, 1.4439532e+2, -1421822.0, -1614725.0, 54522.23, 0.22677527, -0.079768, -1407478.4, 117442.555, 0.0, 10.001247, 9.998723 
6.3508004e+2, 1.5439449e+2, -1244092.1, -1473938.3, 20236.127, 0.04767587, -0.06903971, -1242324.1, 184605.48, 0.0, 10.001783, 9.998756 
6.350712e+2, 1.6439389e+2, -1073727.0, -1261324.4, -12273.165, -0.051205628, -0.036787976, -1072927.5, 256007.22, 0.0, 10.001938, 9.999471 
6.35064e+2, 1.7439349e+2, -1014331.25, -1176924.0, 41896.004, 0.040214088, -0.049089327, -1004170.6, 226765.63, 0.0, 10.001651, 9.999517 
6.3505584e+2, 1.843927e+2, -1051448.6, -1261750.3, 3284.612, 0.08598309, -0.02726104, -1051397.4, 81547.59, 0.0, 10.00122, 9.998471 
6.350462e+2, 1.9439116e+2, -1045438.75, -1216838.8, -27176.818, 0.047244187, -0.045048095, -1041232.9, -6267.826, 0.0, 10.000624, 9.998395 
6.3503706e+2, 2.0439042e+2, -952606.5, -1014233.6, -28529.77, 0.023402032, 0.0025828972, -941426.94, -4451.917, 0.0, 10.000136, 9.999347 
6.3502854e+2, 2.143905e+2, -890957.56, -921542.44, -17408.16, 0.02188636, 0.047260664, -883078.9, -44104.74, 0.0, 9.999837, 9.999452 
6.3501984e+2, 2.2438993e+2, -779337.4, -812084.8, -31368.209, 0.003147799, 0.0453017, -760326.56, -19348.889, 0.0, 9.999911, 9.999493 
6.350106e+2, 2.3438828e+2, -612339.7, -681951.06, -10648.719, -0.050948314, -0.09113835, -610747.1, 32242.082, 0.0, 10.000381, 9.999493 
6.3500077e+2, 2.443872e+2, -546916.5, -660661.9, -47751.26, -0.10884044, -0.12030012, -529528.25, 15469.502, 0.0, 10.000422, 9.998941 
6.349904e+2, 2.5438663e+2, -534919.1, -609701.4, -26080.057, -0.16069695, -0.08722895, -526722.25, -79718.086, 0.0, 9.999853, 9.998894 
6.3498175e+2, 2.643855e+2, -509763.56, -616330.8, 1696.4706, -0.10930154, -0.05655788, -509736.56, -160720.45, 0.0, 9.99967, 9.998255 
6.349749e+2, 2.743833e+2, -392079.13, -515628.56, -43864.29, 0.04492185, -0.12502712, -378089.78, -127051.48, 0.0, 9.9998255, 9.9982 
6.349664e+2, 2.8438184e+2, -293819.16, -341588.5, -65527.79, -0.0056701857, -0.11853355, -247958.8, -94905.64, 0.0000001448745, 9.999497, 9.99889 
6.34956e+2, 2.9438144e+2, -360057.78, -320739.6, -62797.273, -0.27645105, -0.07356946, -274596.13, -219538.56, 0.000005079309, 9.998357, 9.998907 
6.349505e+2, 3.0438155e+2, -228160.19, -58529.1, -24638.564, -0.09585407, -0.021930408, -55022.87, -55022.87, 0.000027855136, 9.998179, 10.000468 
6.349446e+2, 3.1438193e+2, -156163.55, -38669.652, 45541.125, -0.036666196, -0.0691993, -23084.924, -23084.924, 0.00008145653, 9.998694, 10.000352 
6.4511156e+2, 1.2440825e+2, -1487010.4, -1822020.5, 182545.48, -0.11583022, 0.055135015, -1406764.0, 314030.8, 0.0000000021671396, 10.002462, 9.998062 
6.450991e+2, 1.3440621e+2, -1255616.1, -1659352.9, -184858.78, -0.026896322, 0.016675603, -1183762.8, 439055.22, 0.0, 10.003386, 9.9980755 
6.450907e+2, 1.4440405e+2, -1127876.6, -1472328.6, 14376.869, 0.15538114, -0.02405457, -1127277.6, 397562.53, 0.0, 10.003268, 9.998728 
6.450823e+2, 1.5440316e+2, -1200712.5, -1445184.6, 24897.887, 0.08638806, -0.021621512, -1198202.6, 228644.58, 0.0, 10.002052, 9.998824 
6.450735e+2, 1.6440265e+2, -1138264.6, -1247795.0, 24684.252, 0.020091673, -0.0024879219, -1132958.8, 195891.19, 0.0, 10.001301, 9.999873 
6.450654e+2, 1.7440248e+2, -1057229.9, -1148224.9, 3316.7803, 0.046353336, -0.033574894, -1057109.1, 173738.63, 0.0, 10.001146, 9.999959 
6.450567e+2, 1.8440166e+2, -1077188.6, -1291089.5, -26309.916, 0.061562773, -0.029924344, -1074000.0, 58855.79, 0.0, 10.001116, 9.998321 
6.45047e+2, 1.9439974e+2, -981399.1, -1205735.1, -15920.367, 0.04395377, -0.0667597, -980274.94, 54604.523, 0.0, 10.001156, 9.998212 
6.450377e+2, 2.0439875e+2, -825464.4, -952081.2, 33418.934, 0.042700827, -0.03717822, -817185.25, 119706.21, 0.0, 10.001012, 9.999344 
6.4502925e+2, 2.143987e+2, -788561.3, -877092.1, 23777.299, 0.07307174, -0.00631522, -782579.5, 56311.4, 0.0, 10.000558, 9.999409 
6.450203e+2, 2.2439817e+2, -760823.7, -814958.94, 27410.318, 0.058285818, 0.0042620813, -749368.8, -8474.715, 0.0, 10.000083, 9.999392 
6.450109e+2, 2.3439683e+2, -732070.75, -748899.5, -2133.6592, -0.018435806, -0.091574214, -731804.44, -88900.41, 0.0, 9.999598, 9.999407 
6.450011e+2, 2.4439564e+2, -646783.8, -728153.06, -47021.887, -0.08855823, -0.1163253, -625288.9, -80374.664, 0.0, 9.999826, 9.998768 
6.4499104e+2, 2.5439453e+2, -382346.47, -552609.75, -86382.336, -0.13488297, -0.12197976, -346196.2, 100729.61, 0.0, 10.0009775, 9.998745 
6.449822e+2, 2.6439327e+2, -348729.25, -587049.94, -57711.152, -0.08112577, -0.07421174, -335489.6, 13450.016, 0.0, 10.000974, 9.997835 
6.449751e+2, 2.7439156e+2, -460016.88, -599010.0, -39031.49, 0.10033293, -0.049600933, -449806.28, -198846.8, 0.000000000000000000046744374, 9.999566, 9.997763 
6.449661e+2, 2.8438976e+2, -349632.06, -362605.38, 27309.002, 0.04789759, -0.057482395, -328049.9, -175071.88, 0.00000034821963, 9.999088, 9.9989395 
6.449551e+2, 2.943879e+2, -162987.31, -224533.67, 23554.518, -0.26457748, -0.16858473, -155007.38, -100012.695, 0.0000068469953, 9.999684, 9.998934 
6.4494884e+2, 3.043886e+2, -123996.76, -32817.47, 46923.535, -0.11000062, -0.04306612, -12983.616, -12983.616, 0.00003364889, 9.9990225, 10.000221 
6.4494276e+2, 3.1438965e+2, -415425.03, -154202.34, 21693.303, 0.005911195, -0.0030422437, -152413.08, -152413.08, 0.000093640454, 9.996889, 10.000412 
6.551164e+2, 1.2441817e+2, -1617553.4, -2091046.0, 172035.83, 0.074972525, 0.04324461, -1561647.8, 159045.89, 0.0000000012982254, 10.002463, 9.996211 
6.551029e+2, 1.3441457e+2, -1375230.9, -1911835.3, -145476.14, -0.007834593, 0.02739583, -1338329.3, 284412.63, 0.0, 10.003409, 9.996328 
6.55092e+2, 1.4441212e+2, -1075774.5, -1365832.1, -39419.504, -0.069392726, 0.012273991, -1070512.8, 454256.9, 0.0, 10.003272, 9.999461 
6.5508455e+2, 1.5441206e+2, -1142284.8, -1323366.6, -11196.739, 0.0812512, 0.013086499, -1141595.0, 285167.66, 0.0, 10.002044, 9.99967 
6.5507567e+2, 1.644117e+2, -1160092.1, -1287031.1, 6300.818, 0.08314903, 0.016314073, -1159780.1, 168981.3, 0.0, 10.001275, 9.999611 
6.55066e+2, 1.7441086e+2, -1081060.8, -1199696.5, 7085.0996, -0.030086242, -0.05136306, -1080639.1, 150128.94, 0.0, 10.001153, 9.9996 
6.5505683e+2, 1.8440998e+2, -1044054.7, -1210747.8, -34393.332, -0.057618085, -0.061333153, -1037237.25, 95539.016, 0.0, 10.001066, 9.998896 
6.5504795e+2, 1.9440882e+2, -942413.8, -1111075.8, -3792.0952, 0.0077501875, -0.08766786, -942328.6, 92460.055, 0.0, 10.001101, 9.998887 
6.550389e+2, 2.0440799e+2, -839558.1, -962392.75, 8997.341, 0.03508731, -0.07571434, -838902.56, 97893.914, 0.0, 10.000927, 9.999318 
6.550294e+2, 2.144073e+2, -807717.9, -889918.0, 15394.087, 0.013351042, -0.10226224, -804929.56, 33871.55, 0.0, 10.000443, 9.999374 
6.5502e+2, 2.2440657e+2, -814714.94, -896823.25, -525.8388, 0.0035752244, -0.086531915, -814711.56, -73904.35, 0.0, 9.999959, 9.998886 
6.550108e+2, 2.3440555e+2, -789268.2, -835482.75, -12222.842, -0.003706053, -0.09885745, -786234.56, -143416.89, 0.0, 9.999467, 9.998871 
6.5500206e+2, 2.444043e+2, -712435.5, -844762.56, -18201.436, 0.0145796, -0.06526645, -709977.56, -165145.77, 0.0, 9.9997425, 9.998008 
6.549941e+2, 2.5440267e+2, -447727.0, -667893.0, -33518.043, 0.057579238, -0.0481484, -442737.3, 4114.296, 0.0, 10.0008955, 9.99799 
6.5498453e+2, 2.6440173e+2, -304607.28, -492846.63, -115740.79, 0.031212535, 0.038708184, -249547.73, 99315.75, 0.0, 10.000954, 9.998496 
6.549731e+2, 2.7440143e+2, -415352.38, -495552.34, -80634.66, -0.07904168, 0.13600929, -365397.06, -114529.234, 0.0000000002377775, 9.999511, 9.998504 
6.549633e+2, 2.8439978e+2, -336482.13, -318848.6, 37187.67, -0.16051668, 0.088154, -289446.8, -136564.08, 0.0000008000927, 9.999026, 9.999265 
6.549557e+2, 2.9439622e+2, -160457.47, -190997.2, 57932.605, -0.19973077, -0.2283461, -115816.1, -60903.164, 0.000010270006, 9.999578, 9.999208 
6.549489e+2, 3.0439678e+2, -201240.31, -200239.05, -34260.527, -0.035446916, -0.07280815, -166475.48, -166475.48, 0.00004390313, 9.999038, 9.999076 
6.5493786e+2, 3.1439775e+2, -439355.06, -192532.95, -18166.457, -0.22486034, 0.08387669, -191203.05, -191203.05, 0.00011355579, 9.996838, 10.000181 
6.6511977e+2, 1.2442651e+2, -1490722.0, -1960561.9, 125001.71, 0.14417608, -0.05014248, -1459535.1, 261076.36, 0.00000000035571668, 10.003026, 9.996835 
6.65107e+2, 1.3442446e+2, -1410486.6, -1856221.6, -15252.085, 0.09359679, 0.018865282, -1409965.4, 212678.27, 0.0, 10.002831, 9.997001 
6.650944e+2, 1.4442271e+2, -1217958.6, -1449691.5, 133778.25, -0.10634837, 0.045770194, -1156845.9, 367818.34, 0.0, 10.00237, 9.999316 
6.6508645e+2, 1.5442184e+2, -1155269.8, -1351013.3, 61610.742, 0.07337531, -0.01909651, -1137492.3, 289173.56, 0.0, 10.002052, 9.999473 
6.6507715e+2, 1.6442099e+2, -1137122.0, -1332566.5, 71419.414, 0.092801996, -0.029370207, -1113805.5, 214864.78, 0.0, 10.00168, 9.999104 
6.650673e+2, 1.7442001e+2, -1112617.1, -1271472.1, 38037.313, -0.013664082, -0.056756124, -1103979.0, 126701.12, 0.0, 10.001178, 9.999093 
6.65058e+2, 1.8441917e+2, -1045943.0, -1185157.0, 9866.348, -0.031343605, -0.04707934, -1045247.25, 87440.96, 0.0, 10.000955, 9.999117 
6.650494e+2, 1.9441828e+2, -925204.94, -1076573.5, -7055.7725, 0.038618606, -0.07273653, -924876.8, 109819.65, 0.0, 10.001103, 9.999123 
6.6503996e+2, 2.0441742e+2, -853532.06, -992073.25, -22892.977, 0.06134165, -0.065979205, -849847.2, 86856.72, 0.0, 10.000928, 9.999116 
6.650298e+2, 2.144164e+2, -845585.44, -936502.2, -50864.203, 0.029930174, -0.10012958, -822826.25, 15886.522, 0.0, 10.000305, 9.999125 
6.6502035e+2, 2.2441545e+2, -780487.94, -901033.5, -23155.572, 0.026724376, -0.08549784, -776193.0, -35471.395, 0.0, 10.000279, 9.998707 
6.6501147e+2, 2.344144e+2, -589712.5, -763322.2, -23234.227, 0.049460065, -0.079166554, -586656.8, 56075.24, 0.0, 10.000934, 9.998669 
6.650029e+2, 2.4441315e+2, -526230.8, -747366.2, 38388.977, 0.061331715, -0.04062494, -519756.1, 24989.861, 0.0, 10.000974, 9.998086 
6.6499466e+2, 2.544114e+2, -540148.7, -708034.7, 63553.23, 0.059348896, -0.041932635, -518804.28, -72038.11, 0.0, 10.000217, 9.998049 
6.649848e+2, 2.6441047e+2, -421944.4, -515909.8, -5007.6045, 0.009389511, 0.026992975, -421678.28, -72900.68, 0.0, 10.000009, 9.99879 
6.6497284e+2, 2.7441034e+2, -245368.14, -374507.13, -23979.635, -0.09771564, 0.11041078, -241059.17, 9720.328, 0.0000000023427176, 10.000524, 9.998839 
6.6496295e+2, 2.8440914e+2, -159344.94, -256456.39, 91047.49, -0.16051988, 0.102319844, -104714.89, 48075.72, 0.0000014418595, 10.000339, 9.999063 
6.649555e+2, 2.944063e+2, -224335.83, -242137.78, 50082.8, -0.15364766, -0.12282961, -182369.19, -127552.5, 0.000014823799, 9.99923, 9.99902 
6.6494787e+2, 3.0440643e+2, -292608.47, -272982.5, -42988.203, -0.010962978, 0.008756482, -238701.5, -238701.5, 0.000057815294, 9.998547, 9.998809 
6.6493565e+2, 3.1440607e+2, -208844.44, -40097.086, 10202.335, -0.18418115, 0.063645825, -39482.5, -39482.5, 0.00014076727, 9.998245, 10.000551 
6.751211e+2, 1.2443334e+2, -1285169.6, -1534318.8, 43205.043, -0.064830214, -0.2352554, -1277890.1, 442657.3, 0.0000000023126079, 10.0030365, 9.99975 
6.751109e+2, 1.3443589e+2, -1205691.4, -1423007.6, -20166.258, 0.18447676, -0.00898582, -1203835.9, 418687.84, 0.0, 10.002807, 9.999982 
6.750974e+2, 1.4443591e+2, -1289081.1, -1593805.8, 106300.25, -0.06401564, 0.08634705, -1255663.9, 268859.9, 0.0, 10.002353, 9.998336 
6.750875e+2, 1.5443262e+2, -1235346.1, -1521991.9, 60521.04, -0.0457305, -0.09782819, -1223091.9, 203463.27, 0.0, 10.002071, 9.99829 
6.7507774e+2, 1.6443059e+2, -1185047.5, -1436669.9, 42723.957, -0.040443804, -0.13114159, -1177991.1, 150584.34, 0.0, 10.001693, 9.998387 
6.75069e+2, 1.7443e+2, -1161419.1, -1370858.3, 28549.256, 0.015517319, -0.05346815, -1157597.3, 72986.46, 0.0, 10.001168, 9.998417 
6.7506e+2, 1.8442924e+2, -1061646.8, -1211912.1, 4395.6665, 0.04986266, 0.00912223, -1061518.4, 71073.766, 0.0, 10.000924, 9.998951 
6.750507e+2, 1.9442813e+2, -945604.25, -1101090.3, 8198.8, 0.03967026, -0.021558208, -945173.1, 89429.29, 0.0, 10.001028, 9.99899 
6.7504084e+2, 2.0442712e+2, -899313.25, -1067448.6, -52549.023, 0.035642754, -0.0010952555, -884240.75, 52372.15, 0.0, 10.0008335, 9.998649 
6.7503047e+2, 2.14426e+2, -891124.75, -1010156.0, -64973.273, 0.040479343, -0.0014479732, -862528.9, -23902.76, 0.0, 10.00021, 9.998666 
6.75021e+2, 2.2442485e+2, -786836.5, -883818.56, -8563.748, 0.0491239, 0.010761608, -786086.1, -45449.355, 0.0, 10.000154, 9.998884 
6.750126e+2, 2.3442353e+2, -592368.5, -738271.3, 13534.64, 0.048685588, -0.031816315, -591123.6, 51522.34, 0.0, 10.000809, 9.998897 
6.7500305e+2, 2.4442232e+2, -481801.16, -633926.25, 6230.551, -0.03531384, -0.039949704, -481546.4, 63108.945, 0.0, 10.000885, 9.998905 
6.749922e+2, 2.5442094e+2, -495561.63, -593014.25, 44177.047, -0.22347131, -0.091310784, -478516.63, -31848.725, 0.0, 10.000121, 9.998883 
6.7498255e+2, 2.6441965e+2, -435947.75, -530511.1, 2894.2998, -0.2343729, -0.097387694, -435859.25, -87178.91, 0.0, 9.999947, 9.99872 
6.749742e+2, 2.7441826e+2, -262734.7, -396789.0, 7689.607, -0.04095712, -0.12590939, -262295.03, -11600.673, 0.0000000015372758, 10.0004635, 9.998717 
6.7496485e+2, 2.8441787e+2, -206145.4, -354617.16, 43788.957, -0.028434116, -0.018087147, -194192.89, -41491.05, 0.0000017821444, 10.00034, 9.998388 
6.749542e+2, 2.9441836e+2, -286547.3, -348023.34, 19884.693, -0.23828408, 0.16576771, -280676.22, -225972.08, 0.000019076204, 9.999131, 9.998342 
6.749452e+2, 3.0441758e+2, -261477.52, -196211.6, -62038.906, -0.14973064, 0.21130536, -158746.52, -158746.52, 0.000073988194, 9.998496, 9.999355 
6.749355e+2, 3.1441447e+2, -151551.42, 101737.06, 26236.826, -0.0724956, -0.06975859, 104426.24, 104426.24, 0.00017626329, 9.9981575, 10.001559 
6.8512267e+2, 1.2444404e+2, -1577095.0, -1612974.8, 145054.28, -0.0893659, -0.2161478, -1448875.4, 271568.56, 0.0000000036242784, 10.000749, 10.000322 
6.8511367e+2, 1.3444673e+2, -1389021.5, -1450176.6, -80216.67, 0.26611513, -0.025238583, -1333752.0, 288662.97, 0.0, 10.001295, 10.000517 
6.850997e+2, 1.44447e+2, -1406034.5, -1691052.0, -134.66574, -0.028890671, 0.082505345, -1406034.5, 118377.45, 0.0, 10.001715, 9.997978 
6.850894e+2, 1.544433e+2, -1239253.9, -1568967.0, -6288.8823, -0.06287993, -0.10426761, -1239133.9, 187316.38, 0.0, 10.002229, 9.997897 
6.850797e+2, 1.6444115e+2, -1084339.9, -1397325.8, 29706.898, -0.047656592, -0.12525046, -1081545.3, 246927.92, 0.0, 10.002422, 9.998309 
6.8507135e+2, 1.7444083e+2, -1014567.6, -1310357.8, 41477.79, 0.08523714, -0.012346079, -1008861.4, 221616.6, 0.0, 10.002216, 9.998332 
6.85062e+2, 1.8444003e+2, -978615.94, -1191907.9, 53083.383, 0.12937424, 0.059355687, -966135.06, 166351.78, 0.0, 10.00158, 9.998773 
6.850513e+2, 1.9443838e+2, -1058957.8, -1174237.9, 35995.78, 0.042916894, -0.008574499, -1048641.4, -14138.045, 0.0, 10.00033, 9.998822 
6.8504107e+2, 2.0443718e+2, -1009468.06, -1128093.1, 33785.926, 0.0193677, 0.0043592965, -1000520.3, -64003.887, 0.0, 10.000126, 9.998562 
6.850315e+2, 2.1443631e+2, -748509.1, -949906.0, 34123.293, 0.073858745, 0.04078798, -742884.56, 95642.66, 0.0, 10.001234, 9.998581 
6.850221e+2, 2.2443518e+2, -590454.44, -774870.44, 105620.84, 0.08259077, 0.05215194, -542455.2, 198081.81, 0.0, 10.001427, 9.999026 
6.8501294e+2, 2.3443356e+2, -641221.7, -746494.0, 102551.46, 0.03204579, -0.035928965, -578587.0, 63959.926, 0.0, 10.000392, 9.999048 
6.850031e+2, 2.4443212e+2, -627758.3, -713092.9, 77352.31, -0.061391998, -0.07142071, -582086.06, -37528.543, 0.0, 9.999921, 9.998821 
6.8499243e+2, 2.5443068e+2, -485497.5, -597062.1, 28368.123, -0.21124175, -0.11987047, -478698.53, -32127.604, 0.0, 10.000239, 9.998792 
6.849827e+2, 2.644292e+2, -410759.5, -529352.7, -24319.324, -0.21631862, -0.13522701, -405966.22, -57380.965, 0.0, 10.000167, 9.998617 
6.849742e+2, 2.744275e+2, -401488.47, -474578.63, -38295.207, -0.03297421, -0.19106656, -385099.0, -134496.6, 0.00000000039754933, 9.999555, 9.998618 
6.8496484e+2, 2.8442717e+2, -366676.5, -450569.63, 21915.246, -0.007033801, -0.06501683, -361296.63, -208686.39, 0.000001935021, 9.999312, 9.998226 
6.8495417e+2, 2.9442817e+2, -213239.34, -328742.72, 19918.21, -0.16985421, 0.19055761, -209901.0, -155291.25, 0.000022833043, 9.99969, 9.998209 
6.8494433e+2, 3.0442706e+2, -103669.24, -76640.32, -39342.98, -0.12279066, 0.19476898, -48555.375, -48555.375, 0.00009092674, 9.999387, 9.999749 
6.849334e+2, 3.1442443e+2, -188522.53, 120322.83, -6470.2686, -0.06841358, -0.0781515, 120458.32, 120458.32, 0.00021663119, 9.99771, 10.001918 
6.951237e+2, 1.24458455e+2, -1681447.9, -1834296.0, 75357.72, -0.12095203, 0.0016436435, -1650543.4, 69759.38, 0.00000000017840025, 10.000785, 9.998773 
6.95115e+2, 1.3445707e+2, -1514417.5, -1715005.6, -52644.492, 0.24714902, -0.03216804, -1501440.4, 120876.18, 0.0, 10.001323, 9.998681 
6.9510114e+2, 1.44456e+2, -1379522.5, -1644537.6, 8880.681, -0.0896813, 0.022459997, -1379225.3, 145102.75, 0.0, 10.001746, 9.998285 
6.950919e+2, 1.544538e+2, -1210134.5, -1515651.6, 25160.457, -0.062070373, -0.0536094, -1208076.3, 218275.38, 0.0, 10.00225, 9.9982605 
6.950826e+2, 1.6445263e+2, -1052372.4, -1323375.0, 14530.762, -0.023498004, -0.020086123, -1051595.5, 276768.13, 0.0, 10.002397, 9.998825 
6.9507396e+2, 1.7445265e+2, -984750.06, -1238168.6, 44740.266, 0.10791153, 0.07693842, -977083.25, 253278.5, 0.0, 10.002173, 9.998848 
6.9506365e+2, 1.8445164e+2, -1000251.0, -1221635.8, 958.266, 0.11966426, 0.10773197, -1000246.8, 132124.8, 0.0, 10.001517, 9.998595 
6.950511e+2, 1.9444905e+2, -1084520.3, -1211852.3, -1229.8026, -0.036118764, -0.032667145, -1084508.4, -50109.53, 0.0, 10.000271, 9.998589 
6.9504046e+2, 2.0444757e+2, -1001233.44, -1094557.1, 60663.973, -0.07238305, -0.047878508, -971361.4, -34946.883, 0.0, 10.00005, 9.998831 
6.9503254e+2, 2.144473e+2, -743464.4, -915348.25, 84905.25, 0.039443485, 0.019196726, -708596.9, 129820.13, 0.0, 10.00113, 9.998867 
6.950233e+2, 2.2444642e+2, -601361.1, -770855.4, 62495.348, 0.048116375, 0.034812342, -580809.9, 159612.97, 0.0, 10.001312, 9.999107 
6.9501233e+2, 2.3444445e+2, -651332.3, -742274.8, 72285.44, -0.081201605, -0.094127275, -611405.56, 31029.93, 0.0, 10.000286, 9.9991255 
6.9500285e+2, 2.444426e+2, -703658.94, -853306.56, 78448.13, -0.10063932, -0.1313186, -670072.8, -125620.8, 0.0, 9.999845, 9.997898 
6.949951e+2, 2.5444064e+2, -561867.5, -743454.1, 50554.98, 0.011362352, -0.13385105, -548741.44, -102266.02, 0.0, 10.000182, 9.997818 
6.9498515e+2, 2.644391e+2, -428417.97, -554222.56, -52362.586, -0.007590899, -0.09422835, -409475.66, -60983.2, 0.0, 10.000121, 9.9984665 
6.949725e+2, 2.7443796e+2, -421825.03, -499104.7, -51986.418, -0.17897901, -0.08180163, -395691.22, -145187.61, 0.0000000054780975, 9.999479, 9.9984865 
6.949624e+2, 2.8443688e+2, -348551.0, -398583.1, 24567.61, -0.20145655, -0.03789127, -338504.66, -185988.56, 0.000002364329, 9.999254, 9.998607 
6.949552e+2, 2.944357e+2, -193873.86, -271107.2, 51938.992, -0.062794864, -0.04814325, -167768.77, -113235.56, 0.000027093956, 9.999622, 9.998634 
6.949449e+2, 3.044349e+2, -85300.17, -41489.19, -100219.27, -0.019544523, -0.047858264, 39190.668, 39190.668, 0.00010798756, 9.999394, 9.9999895 
6.94929e+2, 3.1443635e+2, -226094.33, 60458.043, -50192.523, -0.3256098, 0.071317956, 68995.41, 68995.41, 0.00025661878, 9.997633, 10.001547 
7.05125e+2, 1.24470405e+2, -1780621.3, -1902176.1, -20483.465, -0.020051375, 0.121498026, -1777262.4, -57074.926, 0.0, 10.000179, 9.998613 
7.05117e+2, 1.3446684e+2, -1351039.1, -1678497.0, -14371.07, 0.25911066, -0.08824778, -1350409.6, 271811.4, 0.0, 10.002618, 9.99831 
7.051036e+2, 1.444652e+2, -1180933.1, -1554586.3, 43392.57, -0.07867149, -0.07025275, -1175960.1, 348277.63, 0.0, 10.003145, 9.998223 
7.050945e+2, 1.5446438e+2, -1275031.0, -1545472.1, 3676.0857, 0.0026412867, -0.0019710492, -1274981.0, 151267.98, 0.0, 10.00182, 9.998249 
7.050848e+2, 1.6446356e+2, -1225205.5, -1365774.4, 2366.8965, 0.034282956, 0.05042742, -1225165.8, 103091.414, 0.0, 10.001038, 9.999186 
7.0507526e+2, 1.7446253e+2, -1156068.3, -1273539.8, 3945.4976, 0.09076689, 0.0013510481, -1155935.9, 74327.49, 0.0, 10.0008, 9.999262 
7.0506465e+2, 1.8446144e+2, -1079055.6, -1256228.9, -21325.361, 0.0967329, 0.00061817287, -1076525.0, 55748.2, 0.0, 10.0009575, 9.998632 
7.050525e+2, 1.9445997e+2, -885170.25, -1116558.6, -24592.203, 0.020402042, -0.027435811, -882585.44, 151705.4, 0.0, 10.00163, 9.998596 
7.0504194e+2, 2.0445892e+2, -757155.56, -960320.4, 76845.0, -0.00997023, -0.0059405854, -731363.94, 204938.42, 0.0, 10.0016575, 9.99898 
7.0503324e+2, 2.1445827e+2, -776601.94, -915666.4, 73130.14, 0.019589838, 0.0077473996, -745224.56, 93082.94, 0.0, 10.000832, 9.999013 
7.050238e+2, 2.2445711e+2, -758743.5, -880848.3, 26044.021, 0.016152764, 0.004495545, -753420.56, -13103.807, 0.0, 10.000392, 9.998786 
7.0501304e+2, 2.344551e+2, -646281.94, -776799.8, -14208.373, -0.042896263, -0.096119076, -644753.1, -2419.9385, 0.0, 10.000495, 9.99878 
7.0500374e+2, 2.4445345e+2, -641051.7, -809416.2, 38575.234, -0.013391, -0.10067873, -632634.25, -88284.984, 0.0, 10.000217, 9.99802 
7.0499605e+2, 2.5445202e+2, -658437.94, -770681.56, 80537.336, 0.12812945, -0.06522189, -616397.06, -170030.2, 0.0, 9.999442, 9.997987 
7.049858e+2, 2.6445067e+2, -523686.34, -598490.25, 59416.523, 0.081299625, -0.01777091, -490879.8, -142498.05, 0.0, 9.999459, 9.998487 
7.049723e+2, 2.7444926e+2, -283565.53, -425696.44, 49217.184, -0.18381102, -0.033574536, -268186.63, -17791.432, 0.000000016182126, 10.000408, 9.998541 
7.0496166e+2, 2.844479e+2, -184200.16, -280086.1, 124032.35, -0.23843315, -0.039562687, -99167.36, 53241.492, 0.0000030357212, 10.000196, 9.998979 
7.049544e+2, 2.9444644e+2, -334462.1, -292417.22, 133119.89, -0.04052428, -0.113569796, -178670.05, -124245.51, 0.000031540207, 9.998446, 9.99906 
7.0494395e+2, 3.0444586e+2, -283401.8, -182312.05, -109.95857, 0.011067639, -0.09987198, -182311.92, -182311.92, 0.00012311795, 9.998242, 9.999567 
7.0492774e+2, 3.1444734e+2, 28266.572, 112295.375, -46549.2, -0.3100414, 0.070313826, 132986.94, 132986.94, 0.00029061802, 9.999704, 10.000887 
7.15126e+2, 1.24480076e+2, -1674050.0, -1697489.3, -10350.075, 0.005922116, 0.17128298, -1670134.0, 49962.188, 0.0, 10.000252, 9.999978 
7.151194e+2, 1.3447605e+2, -1271737.0, -1525186.3, 81166.46, 0.2146806, -0.19877376, -1247972.0, 374156.5, 0.0, 10.002657, 9.999347 
7.1510684e+2, 1.4447458e+2, -1210604.0, -1615247.6, -14800.491, -0.09448265, -0.19501518, -1210063.4, 314078.16, 0.0, 10.003147, 9.997801 
7.15097e+2, 1.5447514e+2, -1310772.3, -1618638.6, -35219.508, 0.038871136, 0.057030197, -1306794.6, 119347.266, 0.0, 10.001813, 9.997749 
7.150861e+2, 1.6447398e+2, -1210542.9, -1328736.8, -16049.4795, 0.039943844, 0.08871605, -1208402.4, 119751.5, 0.0, 10.001014, 9.999448 
7.150749e+2, 1.7447045e+2, -1138016.1, -1236105.0, 4441.102, -0.046190646, -0.23783098, -1137815.5, 92367.07, 0.0, 10.000802, 9.999518 
7.150646e+2, 1.8446942e+2, -1064319.8, -1219996.9, -6058.7354, -0.023579022, -0.25941312, -1064084.4, 68107.234, 0.0, 10.000932, 9.998893 
7.1505535e+2, 1.9447123e+2, -878816.6, -1083549.8, 11623.968, 0.11961246, 0.0116985105, -878158.8, 156019.66, 0.0, 10.001547, 9.998861 
7.1504503e+2, 2.0447136e+2, -774336.94, -969421.44, 39976.484, 0.11682573, 0.13733558, -766462.8, 169716.25, 0.0, 10.001547, 9.998968 
7.150334e+2, 2.1446922e+2, -799430.0, -929700.0, 48183.96, -0.06589469, 0.005103764, -783544.8, 54653.8, 0.0, 10.000696, 9.998978 
7.150233e+2, 2.2446734e+2, -823719.1, -991304.6, 18383.707, -0.09434199, -0.035290975, -821726.2, -81508.02, 0.0, 10.000282, 9.998083 
7.1501476e+2, 2.3446554e+2, -713087.1, -893212.56, -868.7144, 0.059046064, -0.038645502, -713082.94, -70843.516, 0.0, 10.000396, 9.998031 
7.1500546e+2, 2.444647e+2, -571858.5, -645611.06, 1726.6125, 0.11615952, 0.023052903, -571818.06, -27569.178, 0.0, 10.000131, 9.999188 
7.1499485e+2, 2.544648e+2, -579841.25, -589191.56, 59456.805, 0.046896197, 0.08530939, -524876.06, -78630.31, 0.0, 9.999365, 9.99927 
7.1498424e+2, 2.6446387e+2, -511524.78, -567330.3, 82360.36, -0.038991895, 0.094776355, -452468.97, -104215.53, 0.0, 9.99943, 9.998717 
7.1497345e+2, 2.7446133e+2, -281582.2, -409819.78, 97453.79, -0.14208604, -0.05004573, -229045.69, 21231.854, 0.000000020828322, 10.000353, 9.998679 
7.1496254e+2, 2.8446013e+2, -158860.95, -217784.36, 54233.145, -0.19576348, -0.07136101, -126603.73, 25684.91, 0.0000037854625, 10.000162, 9.99942 
7.149514e+2, 2.944605e+2, -319469.63, -241212.58, 80063.53, -0.21097344, -0.000059020327, -191227.64, -136944.48, 0.000035842306, 9.99837, 9.999446 
7.1494097e+2, 3.0445993e+2, -356688.8, -339632.1, 45303.21, -0.14077601, 0.0482897, -302061.5, -302061.5, 0.00013552594, 9.99825, 9.998489 
7.1492887e+2, 3.144571e+2, -54947.246, -53971.098, 28029.654, -0.21967699, -0.107097805, -26425.268, -26425.268, 0.00031582415, 9.999659, 9.999777 
7.251278e+2, 1.2448881e+2, -1391496.9, -1544489.3, 35205.47, 0.08637631, 0.07118681, -1383784.5, 336225.25, 0.0, 10.002071, 10.000182 
7.2512126e+2, 1.3448612e+2, -1445941.5, -1591153.0, 61457.29, 0.20573424, -0.1695064, -1423423.1, 198608.11, 0.0, 10.001391, 9.999505 
7.2510946e+2, 1.4448527e+2, -1385702.0, -1605208.4, -31888.63, -0.06483921, -0.15619487, -1381163.3, 142874.5, 0.0, 10.001526, 9.99866 
7.2509927e+2, 1.5448593e+2, -1102873.8, -1412600.8, 29676.316, 0.045671105, 0.017063085, -1100056.0, 325976.28, 0.0, 10.00278, 9.998699 
7.2508794e+2, 1.6448481e+2, -998002.44, -1288875.0, 62790.848, 0.046698447, 0.030905742, -985026.56, 343016.38, 0.0, 10.002726, 9.998907 
7.250761e+2, 1.7448132e+2, -1139943.0, -1302201.4, -4468.0566, -0.021842055, -0.23348086, -1139820.1, 90255.81, 0.0, 10.001066, 9.998938 
7.250656e+2, 1.8448016e+2, -1087921.1, -1189642.8, 33024.176, 0.0055330168, -0.25496852, -1078140.3, 53946.688, 0.0, 10.000584, 9.999273 
7.2505695e+2, 1.9448164e+2, -858019.9, -1025861.8, 48440.8, 0.13551895, -0.057452027, -845042.75, 189030.56, 0.0, 10.001477, 9.999296 
7.250467e+2, 2.0448178e+2, -787117.0, -982523.7, 39593.043, 0.13745876, 0.048630357, -779399.5, 156673.17, 0.0, 10.001479, 9.9989195 
7.2503436e+2, 2.1447998e+2, -850580.06, -964663.4, 25815.582, -0.017393468, -0.04101174, -845010.25, -6919.556, 0.0, 10.000376, 9.9989 
7.250237e+2, 2.2447856e+2, -877002.7, -999787.25, 84932.09, -0.053304877, -0.037475467, -833597.6, -93490.16, 0.0, 9.999845, 9.998236 
7.2501504e+2, 2.3447745e+2, -751889.8, -896293.3, 115416.73, 0.06467194, 0.011249386, -687951.5, -45826.99, 0.0, 10.000058, 9.998176 
7.250053e+2, 2.4447677e+2, -564084.7, -625191.1, 114849.266, 0.09605843, 0.07292146, -475794.06, 68338.99, 0.0, 10.0001135, 9.999333 
7.2499406e+2, 2.544764e+2, -471594.78, -522386.22, 69359.19, 0.004610915, 0.074782476, -423128.22, 23004.754, 0.0, 10.000038, 9.999405 
7.249835e+2, 2.6447544e+2, -487042.44, -545252.2, 74071.73, -0.055718195, 0.07112001, -436562.7, -88422.445, 0.0, 9.999566, 9.998795 
7.2497374e+2, 2.7447343e+2, -519669.22, -516664.63, 62297.645, -0.05576568, -0.029866265, -455851.16, -205691.23, 0.000000011844985, 9.998683, 9.998749 
7.2496265e+2, 2.8447244e+2, -397084.72, -336728.34, 3137.7988, -0.11579274, -0.028438343, -336565.66, -184396.67, 0.000004675658, 9.998567, 9.99936 
7.249498e+2, 2.9447272e+2, -180373.11, -182984.16, -32691.533, -0.25499517, 0.034681875, -148961.05, -94796.23, 0.000040333267, 9.999373, 9.999356 
7.249394e+2, 3.0447185e+2, -194611.16, -284081.13, -4570.0605, -0.17220253, 0.073121704, -194378.33, -194378.33, 0.00014552726, 9.999467, 9.998288 
7.249291e+2, 3.1446877e+2, -201998.0, -110952.28, 8672.401, -0.108631805, -0.08793047, -110133.56, -110133.56, 0.0003310756, 9.998595, 9.999897 
7.3512995e+2, 1.24496706e+2, -1444559.4, -1653350.5, -47654.227, 0.048076984, -0.15401895, -1434197.1, 285730.06, 0.0, 10.002082, 9.999417 
7.351223e+2, 1.3449705e+2, -1505925.1, -1718656.5, 40221.824, 0.14547391, -0.009679221, -1498574.3, 123355.56, 0.0, 10.001395, 9.99863 
7.3511094e+2, 1.4449699e+2, -1243025.6, -1293736.1, 2.0667465, -0.089403555, 0.027127305, -1243025.6, 280902.9, 0.0, 10.001472, 10.000815 
7.3510116e+2, 1.5449664e+2, -950422.6, -1092427.4, 88477.234, -0.06797469, -0.12945625, -907980.94, 517940.2, 0.0, 10.002766, 10.000904 
7.3509014e+2, 1.6449608e+2, -1085983.4, -1471608.3, -7438.7744, -0.032586336, -0.11778689, -1085840.0, 242084.89, 0.0, 10.002723, 9.997652 
7.3507833e+2, 1.7449509e+2, -1241147.0, -1512320.1, -58180.777, 0.077930816, 0.011834314, -1229191.4, 752.17926, 0.0, 10.0010605, 9.997501 
7.3506725e+2, 1.8449359e+2, -1062879.9, -1125848.9, 53536.348, 0.09718499, 0.010739691, -1032256.3, 99703.39, 0.0, 10.000536, 9.999733 
7.350571e+2, 1.9449127e+2, -831005.8, -949644.4, 90679.86, -0.012306185, -0.22804588, -781966.4, 252008.6, 0.0, 10.001398, 9.999854 
7.350467e+2, 2.0449027e+2, -801679.4, -992240.1, -7023.2744, -0.02650337, -0.2610385, -801420.9, 134561.36, 0.0, 10.001389, 9.998896 
7.350358e+2, 2.144907e+2, -869520.5, -976152.2, -5542.2227, 0.07003657, -0.12753244, -869233.25, -31250.96, 0.0, 10.000259, 9.998873 
7.350248e+2, 2.2449097e+2, -827996.75, -872610.56, 80685.375, 0.054712642, 0.002049299, -766591.5, -26608.043, 0.0, 9.999732, 9.999166 
7.350135e+2, 2.3449081e+2, -698675.44, -757460.9, 132528.61, -0.10549605, 0.04666637, -592319.25, 49669.19, 0.0, 9.999939, 9.999186 
7.3500305e+2, 2.4448963e+2, -633892.9, -754398.7, 104951.88, -0.15912, 0.046069928, -573127.94, -29126.219, 0.0, 10.000045, 9.998479 
7.3499346e+2, 2.544869e+2, -554264.2, -671111.3, 75534.586, -0.08083912, -0.09333661, -517195.4, -71167.805, 0.0, 9.999943, 9.998428 
7.349835e+2, 2.6448557e+2, -502294.94, -564627.25, 35284.973, -0.034009308, -0.077216715, -486382.88, -138342.17, 0.0, 9.999511, 9.99869 
7.3497295e+2, 2.744856e+2, -533259.3, -530036.1, 42297.9, -0.025547067, 0.03393273, -489319.13, -239277.55, 0.000000051096855, 9.998618, 9.998691 
7.3496157e+2, 2.8448486e+2, -432371.28, -411667.2, 22330.084, -0.10311084, 0.0872612, -397406.28, -245356.2, 0.0000058850314, 9.998568, 9.998845 
7.3494923e+2, 2.9448304e+2, -227943.31, -274554.3, 10867.684, -0.2784737, -0.008610759, -225533.98, -171464.5, 0.000044056193, 9.999339, 9.998744 
7.3493916e+2, 3.044817e+2, -152042.3, -201783.23, -39263.137, -0.17035608, -0.011047299, -130435.52, -130435.52, 0.00015023218, 9.999485, 9.998848 
7.3492736e+2, 3.1448212e+2, -133458.95, 53475.85, 2408.387, -0.18429555, 0.11001725, 53506.875, 53506.875, 0.00033283475, 9.998495, 10.001077 
7.4513316e+2, 1.24507464e+2, -1405105.1, -1691950.1, -3886.753, 0.14659873, -0.18031359, -1405052.5, 314768.78, 0.0, 10.002626, 9.998875 
7.451239e+2, 1.3450836e+2, -1487380.8, -1761467.8, 88758.33, 0.15336946, 0.07264918, -1461148.5, 160672.73, 0.0, 10.001776, 9.998137 
7.4511266e+2, 1.4450802e+2, -1288236.0, -1276883.8, 60381.332, -0.03262628, 0.08836944, -1221912.4, 301911.47, 0.0, 10.000985, 10.001167 
7.451031e+2, 1.5450734e+2, -1254284.6, -1191559.0, -8917.98, -0.024951797, -0.14379166, -1190315.8, 235502.33, 0.0, 10.000475, 10.001322 
7.450923e+2, 1.6450687e+2, -1344882.1, -1595876.1, -120444.23, 0.0037022936, -0.14431682, -1296435.8, 31384.441, 0.0, 10.000943, 9.9976635 
7.4508053e+2, 1.7450643e+2, -1012477.4, -1400853.6, -84681.266, 0.122072525, 0.04214871, -994816.6, 235017.47, 0.0, 10.002622, 9.9975195 
7.4506927e+2, 1.8450516e+2, -772068.25, -1010268.8, 56183.91, 0.14156401, 0.07292046, -759481.4, 372367.34, 0.0, 10.002643, 9.999507 
7.450584e+2, 1.9450259e+2, -954328.9, -1035452.2, 15366.811, 0.020548277, -0.1671434, -951515.56, 82351.47, 0.0, 10.000666, 9.999613 
7.450475e+2, 2.0450135e+2, -988656.2, -1053329.0, -71355.15, -0.0056759524, -0.22849526, -942652.3, -6775.5464, 0.0, 9.999988, 9.999142 
7.450365e+2, 2.1450147e+2, -762406.5, -896880.8, -65991.7, 0.09106495, -0.14734636, -735432.5, 102445.555, 0.0, 10.000879, 9.999118 
7.4502516e+2, 2.2450191e+2, -640617.4, -743929.8, 16202.2, 0.07081974, -0.030387647, -638136.0, 101740.445, 0.0, 10.000846, 9.999516 
7.450132e+2, 2.345025e+2, -715150.56, -727101.75, 837.41504, -0.110652894, 0.049590882, -715092.2, -73218.68, 0.0, 9.99964, 9.999545 
7.450027e+2, 2.4450156e+2, -749319.1, -815686.7, 25860.873, -0.15344296, 0.058995686, -740432.2, -196548.16, 0.0, 9.999275, 9.998435 
7.449941e+2, 2.5449857e+2, -541323.2, -673016.9, 43857.613, -0.01209271, -0.09738791, -528054.3, -82141.15, 0.0, 10.000061, 9.998364 
7.449842e+2, 2.6449704e+2, -370194.03, -506867.9, 30979.902, 0.047248628, -0.09451019, -363499.7, -15571.084, 0.0, 10.0004425, 9.99864 
7.4497265e+2, 2.7449712e+2, -281377.0, -408501.1, 18332.693, 0.0033849184, 0.024070678, -278786.03, -28856.895, 0.00000017449423, 10.00036, 9.99868 
7.4496084e+2, 2.8449643e+2, -265859.28, -372200.84, 39139.535, -0.097006775, 0.10019776, -253007.08, -101068.95, 0.0000070145306, 9.999883, 9.9984865 
7.4494874e+2, 2.9449454e+2, -300867.4, -348104.25, 20223.104, -0.23572414, 0.03572553, -293392.34, -239432.19, 0.00004543542, 9.999001, 9.998404 
7.4493885e+2, 3.044928e+2, -238902.16, -206131.27, -12288.437, -0.10100347, -0.00808498, -202035.3, -202035.3, 0.00014809403, 9.998732, 9.999177 
7.4492645e+2, 3.144939e+2, -37876.363, 134547.55, -17933.592, -0.14187633, 0.14898291, 136393.03, 136393.03, 0.0003227844, 9.999007, 10.001383 
7.5513685e+2, 1.2452099e+2, -1428304.9, -1733478.3, -67725.414, 0.20511875, -0.014424118, -1413950.3, 305742.44, 0.0, 10.002609, 9.998594 
7.5512576e+2, 1.3451998e+2, -1499995.9, -1790028.3, 61368.105, 0.1412307, 0.06499977, -1487545.4, 134161.53, 0.0, 10.001794, 9.9979315 
7.5511444e+2, 1.4451827e+2, -1378735.5, -1471401.6, 27122.75, 0.017821264, 0.021797383, -1371380.5, 152343.66, 0.0, 10.00101, 9.999823 
7.551048e+2, 1.5451813e+2, -1349439.4, -1389171.0, -18515.94, 0.068126366, -0.0150617445, -1342148.5, 83573.03, 0.0, 10.000473, 9.9999695 
7.55094e+2, 1.6451728e+2, -1256197.5, -1409412.5, -71757.83, 0.06130655, -0.04590062, -1227838.9, 99889.02, 0.0, 10.000931, 9.998951 
7.550825e+2, 1.7451544e+2, -920598.6, -1203141.6, -11627.185, 0.030212387, -0.13832395, -920120.94, 309625.88, 0.0, 10.002595, 9.99889 
7.550712e+2, 1.845149e+2, -839058.44, -1137625.6, -21530.254, 0.056717087, -0.06605486, -837513.8, 294240.06, 0.0, 10.002589, 9.998662 
7.550605e+2, 1.9451562e+2, -1033053.6, -1179119.9, -49067.273, 0.13763428, 0.11942443, -1018101.3, 15648.226, 0.0, 10.000584, 9.998667 
7.550489e+2, 2.0451489e+2, -971749.9, -999272.0, -53269.953, 0.115182176, 0.14268778, -930492.25, 5264.0625, 0.0, 9.999899, 9.999561 
7.550363e+2, 2.1451229e+2, -745870.56, -829100.94, -24268.033, -0.031812537, -0.1016239, -739311.5, 98466.836, 0.0, 10.000741, 9.999648 
7.550246e+2, 2.2451147e+2, -672570.75, -779023.94, -33345.78, -0.08462569, -0.12888455, -662988.0, 76797.82, 0.0, 10.000716, 9.999336 
7.5501364e+2, 2.3451258e+2, -751708.0, -770506.7, -33539.402, -0.03911645, 0.030798625, -726275.75, -84497.34, 0.0, 9.99951, 9.999308 
7.55004e+2, 2.4451275e+2, -708271.4, -717065.06, 42728.03, 0.023497406, 0.12808077, -669714.56, -125936.38, 0.0, 9.999211, 9.999144 
7.549956e+2, 2.5451142e+2, -495188.3, -564636.0, 83502.2, 0.11333882, 0.05834406, -439477.84, 6312.047, 0.0, 10.000002, 9.999138 
7.5498533e+2, 2.6450992e+2, -371135.25, -501796.38, 21578.674, 0.09513681, 0.017669827, -367663.78, -19859.701, 0.0, 10.000415, 9.998687 
7.5497264e+2, 2.7450803e+2, -295103.66, -418337.1, 28143.049, -0.05875527, -0.058636617, -288980.78, -39158.266, 0.0000002213921, 10.00028, 9.998653 
7.549601e+2, 2.8450724e+2, -285391.84, -405331.34, -1043.1475, -0.17489251, 0.021287395, -285382.78, -133550.55, 0.000006961638, 9.999846, 9.99828 
7.54948e+2, 2.945073e+2, -321197.97, -377052.56, -0.005116281, -0.23514514, 0.17538069, -321197.97, -267361.56, 0.00004401986, 9.998936, 9.998242 
7.5493807e+2, 3.04505e+2, -241588.06, -195444.19, -8079.783, -0.07318823, 0.075554475, -194070.31, -194070.31, 0.0001416952, 9.998672, 9.999273 
7.5492555e+2, 3.1450453e+2, -84882.85, 52486.504, 41122.43, -0.1842764, 0.07101378, 63855.805, 63855.805, 0.00030699253, 9.998945, 10.000844 
7.6513994e+2, 1.24533504e+2, -1359936.6, -1674316.4, -87701.69, 0.24745928, 0.0962213, -1337125.8, 382449.56, 0.00000000032551553, 10.002906, 9.998872 
7.651281e+2, 1.345316e+2, -1297136.0, -1644508.4, 45319.168, 0.14390299, 0.03787806, -1291320.9, 330271.16, 0.0, 10.002936, 9.998391 
7.6511693e+2, 1.4452933e+2, -1250678.1, -1538257.8, 69646.97, 0.10705732, -0.033748195, -1234698.8, 288916.4, 0.0, 10.002443, 9.998675 
7.6510674e+2, 1.5452947e+2, -1238898.3, -1474339.1, 12866.497, 0.15420386, 0.080940716, -1238197.3, 187420.45, 0.0, 10.001823, 9.998741 
7.650956e+2, 1.6452876e+2, -1156291.1, -1281467.3, 7385.3047, 0.114830956, 0.09582522, -1155856.9, 171767.84, 0.0, 10.001288, 9.999646 
7.6508385e+2, 1.7452687e+2, -1120855.1, -1207947.8, 5056.7114, 0.0057812706, -0.08209119, -1120562.5, 109076.62, 0.0, 10.000837, 9.999693 
7.650724e+2, 1.8452631e+2, -1119823.5, -1295201.1, -34368.31, 0.011030374, -0.046235975, -1113328.9, 18315.816, 0.0, 10.0007515, 9.998468 
7.6506126e+2, 1.9452704e+2, -974787.2, -1181993.4, -27139.072, 0.14031896, 0.16573593, -971291.56, 62351.195, 0.0, 10.0011, 9.998407 
7.6504946e+2, 2.0452654e+2, -813365.2, -907554.6, 36511.445, 0.13737015, 0.21742599, -800869.6, 134778.52, 0.0, 10.000924, 9.999699 
7.650367e+2, 2.1452428e+2, -825194.9, -855040.4, 22337.396, -0.030002946, -0.006479555, -813254.1, 24411.084, 0.0, 10.000125, 9.999776 
7.6502496e+2, 2.2452319e+2, -813361.4, -861833.7, 801.7893, -0.06689564, -0.06151572, -813348.1, -73673.836, 0.0, 9.999829, 9.99919 
7.6501435e+2, 2.3452336e+2, -661911.3, -743859.94, -16911.375, 0.046036128, 0.020756243, -658558.56, -16883.26, 0.0, 10.000213, 9.999146 
7.6500446e+2, 2.4452332e+2, -537148.94, -599670.6, 87325.77, 0.10959444, 0.09106129, -475657.25, 68019.21, 0.0, 10.000248, 9.999445 
7.649955e+2, 2.5452277e+2, -493236.53, -525004.94, 77694.125, 0.11394665, 0.067501895, -429819.5, 15860.323, 0.0, 9.999866, 9.99947 
7.64985e+2, 2.6452175e+2, -479833.25, -550384.44, 3981.25, 0.065901645, 0.059298676, -479609.3, -131920.17, 0.0, 9.999652, 9.998723 
7.6497275e+2, 2.7452e+2, -386578.4, -457095.44, -8616.35, -0.04022607, -0.004862933, -385540.88, -135833.88, 0.00000016204108, 9.999631, 9.998697 
7.649604e+2, 2.8451905e+2, -294378.97, -410752.78, -11930.522, -0.12426166, 0.05302615, -293168.47, -141449.94, 0.000006290961, 9.99979, 9.998268 
7.649481e+2, 2.945186e+2, -148219.7, -285526.63, -15350.092, -0.1689562, 0.15469496, -146524.58, -92798.34, 0.000041719115, 10.000103, 9.998299 
7.6493776e+2, 3.0451635e+2, -30834.23, -75143.95, 9703.413, -0.028488863, 0.051207725, -28802.44, -28802.44, 0.00013461517, 10.000035, 9.999445 
7.64925e+2, 3.1451634e+2, -91438.22, 7777.859, 43686.582, -0.13428536, 0.07553904, 24271.826, 24271.826, 0.00029005748, 9.999091, 10.000463 
7.7514166e+2, 1.245449e+2, -1300915.1, -1538334.4, -110179.82, 0.075754166, 0.14043699, -1257663.1, 461806.84, 0.0000000023621072, 10.002855, 9.999827 
7.7513045e+2, 1.3454333e+2, -1216269.0, -1471841.6, 45703.234, 0.059651896, 0.0013689435, -1208342.0, 413133.56, 0.0, 10.002919, 9.999582 
7.7512e+2, 1.4454122e+2, -1315372.1, -1672545.5, 30386.5, 0.13474798, -0.07549004, -1312805.4, 210690.97, 0.0, 10.002439, 9.99776 
7.751087e+2, 1.5454139e+2, -1312322.8, -1628992.3, 118.730804, 0.1466237, 0.14863999, -1312322.8, 113183.375, 0.0, 10.00183, 9.997678 
7.750967e+2, 1.6454132e+2, -1148129.1, -1260921.1, -19685.494, 0.08092261, 0.27653742, -1144792.1, 182718.39, 0.0, 10.001271, 9.999796 
7.750845e+2, 1.7454071e+2, -1106867.1, -1174610.4, -997.49524, -0.037937514, 0.20491618, -1106852.4, 122658.65, 0.0, 10.000818, 9.999932 
7.750724e+2, 1.8453942e+2, -1095117.0, -1231677.8, -31094.016, -0.08546248, 0.13396163, -1088370.4, 43150.754, 0.0, 10.000695, 9.998936 
7.750606e+2, 1.9453707e+2, -953250.4, -1116917.9, -5626.427, -0.056762636, -0.009870021, -953057.2, 80487.836, 0.0, 10.001013, 9.998896 
7.75049e+2, 2.0453644e+2, -841331.3, -939068.75, -2062.9482, -0.025389949, 0.0088688955, -841287.8, 94263.125, 0.0, 10.000809, 9.999538 
7.7503735e+2, 2.1453756e+2, -859632.9, -894268.25, 171.8203, 0.0065200133, 0.14597277, -859632.0, -22094.176, 0.0, 9.999992, 9.999568 
7.75026e+2, 2.2453718e+2, -841572.5, -893754.94, 2138.7686, 0.033382412, 0.18097532, -841485.0, -101944.414, 0.0, 9.999711, 9.999032 
7.750148e+2, 2.3453471e+2, -687483.0, -772781.6, 7066.473, 0.053793922, 0.012343018, -686901.5, -45336.5, 0.0, 10.000103, 9.999003 
7.7500397e+2, 2.4453317e+2, -558310.3, -623255.44, 64261.11, 0.013389768, -0.05353945, -518783.2, 24796.15, 0.0, 10.000163, 9.999324 
7.749935e+2, 2.545326e+2, -515163.22, -550637.2, 73547.7, -0.09606733, -0.06659283, -457243.97, -11661.131, 0.0, 9.999782, 9.999333 
7.7498305e+2, 2.645326e+2, -483191.13, -551143.4, -5203.9985, -0.11760407, 0.03412968, -482794.88, -135211.33, 0.0, 9.999619, 9.998737 
7.7497256e+2, 2.74533e+2, -391771.84, -456554.6, 190.6835, -0.042653557, 0.1784547, -391771.28, -142187.23, 0.00000014054619, 9.999575, 9.9987335 
7.749611e+2, 2.8453168e+2, -285076.47, -376512.84, -9115.221, -0.047312833, 0.18877226, -284176.63, -132578.19, 0.0000059856334, 9.999735, 9.998526 
7.7494884e+2, 2.945282e+2, -134931.25, -250954.61, 10659.298, -0.13468951, -0.040666245, -133960.1, -80328.53, 0.0000396548, 10.0000725, 9.998549 
7.749378e+2, 3.045268e+2, -15269.246, -38291.84, -27543.64, -0.045495782, -0.08826904, 3071.7954, 3071.7954, 0.00012692052, 10.000016, 9.999712 
7.749241e+2, 3.1452942e+2, -131380.47, -60058.258, 46969.6, -0.19129753, 0.18117042, -36745.996, -36745.996, 0.00027215088, 9.999011, 10.000048 
7.851442e+2, 1.24556206e+2, -1471691.3, -1626147.8, -36263.188, 0.11746666, 0.13129677, -1463601.1, 255760.48, 0.0000000040597263, 10.001725, 9.999759 
7.8513217e+2, 1.3455538e+2, -1453895.4, -1566162.8, -12634.607, 0.035519257, 0.050195556, -1452491.1, 168868.92, 0.0, 10.001222, 9.999742 
7.8512174e+2, 1.4455345e+2, -1496029.9, -1736719.1, 310.4509, 0.14363268, -0.026937585, -1496029.5, 27348.84, 0.0, 10.001105, 9.997958 
7.8511035e+2, 1.5455288e+2, -1333847.0, -1619897.3, 40085.28, 0.14864108, 0.10562798, -1328335.9, 97057.64, 0.0, 10.001605, 9.997847 
7.8509814e+2, 1.6455272e+2, -1109866.8, -1275181.6, 58717.055, 0.07986436, 0.23136297, -1091134.1, 236264.9, 0.0, 10.001676, 9.999498 
7.850853e+2, 1.7455286e+2, -1078269.3, -1196761.1, 13876.732, -0.04326134, 0.26469582, -1076665.9, 152729.08, 0.0, 10.001172, 9.999603 
7.850731e+2, 1.845518e+2, -1057226.0, -1187117.5, -8357.898, -0.083444856, 0.22279702, -1056690.4, 74712.94, 0.0, 10.000849, 9.999162 
7.850616e+2, 1.9454907e+2, -992751.2, -1104886.6, -17011.375, -0.037564788, 0.015580293, -990227.3, 43201.87, 0.0, 10.000625, 9.999159 
7.8504974e+2, 2.0454814e+2, -894159.25, -985976.2, -20408.734, -0.005274604, 0.0008818313, -889827.25, 45609.91, 0.0, 10.000543, 9.999341 
7.8503764e+2, 2.1454912e+2, -803189.56, -891645.94, -39608.09, 0.014903686, 0.14608416, -788046.6, 49379.31, 0.0, 10.00049, 9.999344 
7.8502613e+2, 2.2454879e+2, -705140.0, -821605.2, 16782.79, 0.041164085, 0.19306594, -702769.8, 36658.652, 0.0, 10.000609, 9.999094 
7.850154e+2, 2.3454659e+2, -564357.1, -704023.1, 21146.719, 0.0690634, 0.043984197, -561225.5, 80224.305, 0.0, 10.000903, 9.99909 
7.8500426e+2, 2.445451e+2, -477768.75, -589269.7, 77743.38, 0.008318296, -0.016498916, -437852.34, 105610.82, 0.0, 10.00074, 9.999273 
7.849928e+2, 2.5454432e+2, -475004.03, -537350.6, 69444.47, -0.15209305, -0.045810413, -430056.97, 15411.756, 0.0, 10.000079, 9.999278 
7.8498226e+2, 2.6454422e+2, -440418.06, -508751.66, 40014.76, -0.16616145, 0.036984988, -421967.8, -74497.56, 0.0, 9.999828, 9.998925 
7.849726e+2, 2.7454457e+2, -308660.5, -395126.44, 38800.117, -0.00843712, 0.16129145, -293802.7, -44332.414, 0.0000001311964, 10.000056, 9.998922 
7.8496146e+2, 2.8454334e+2, -206817.77, -302580.94, 57155.063, 0.0042037605, 0.15349619, -180138.31, -28655.098, 0.0000058891046, 10.000105, 9.998859 
7.849488e+2, 2.9454032e+2, -145271.44, -220123.38, 62203.58, -0.12768745, -0.060643606, -110102.73, -56591.82, 0.000037489564, 9.999846, 9.998874 
7.849374e+2, 3.0453974e+2, -69647.89, -57789.48, 17240.182, -0.0607551, -0.046912394, -45487.41, -45487.41, 0.00011865352, 9.999595, 9.99978 
7.849235e+2, 3.1454164e+2, -100983.72, -19854.295, 49431.703, -0.13881047, 0.13445313, 3526.1978, 3526.1978, 0.0002544846, 9.999098, 10.000273 
7.951471e+2, 1.2456759e+2, -1537186.4, -1783118.6, -62349.516, 0.17726257, 0.0701646, -1522282.5, 196966.14, 0.0000000034592607, 10.001812, 9.998646 
7.9513294e+2, 1.3456781e+2, -1500288.4, -1676207.9, -27218.508, -0.03226235, 0.17594168, -1496173.4, 125071.1, 0.0, 10.0012865, 9.998954 
7.9512215e+2, 1.4456606e+2, -1410673.5, -1560545.6, 4763.305, 0.040814787, 0.10090918, -1410522.3, 112738.125, 0.0, 10.001109, 9.999165 
7.951114e+2, 1.5456398e+2, -1239094.1, -1422479.9, 71062.11, 0.065321974, -0.053571783, -1214781.0, 210498.81, 0.0, 10.001604, 9.999198 
7.950995e+2, 1.6456307e+2, -1169383.6, -1392934.3, 31149.26, 0.017569749, -0.034827467, -1165124.5, 162165.08, 0.0, 10.001645, 9.998709 
7.9508626e+2, 1.745634e+2, -1138934.4, -1325267.8, 3641.2422, -0.09333577, 0.1057043, -1138863.3, 90426.56, 0.0, 10.001176, 9.998723 
7.950743e+2, 1.8456347e+2, -1070352.1, -1195494.8, -26237.07, -0.07089933, 0.22381185, -1065074.0, 66216.78, 0.0, 10.0007715, 9.999139 
7.9506373e+2, 1.9456297e+2, -998221.9, -1102727.8, -15695.69, 0.093998134, 0.23451602, -995915.5, 37380.086, 0.0, 10.000568, 9.999195 
7.950515e+2, 2.045616e+2, -925756.2, -1027072.25, -32779.16, 0.101035155, 0.18542361, -916075.9, 19231.262, 0.0, 10.000438, 9.999111 
7.9503727e+2, 2.1455888e+2, -836655.56, -934835.25, -32226.85, -0.08529712, -0.016856719, -827022.5, 10307.494, 0.0, 10.000376, 9.999104 
7.950253e+2, 2.2455798e+2, -705050.2, -789192.4, 20338.107, -0.12498357, -0.027272556, -700392.1, 38945.43, 0.0, 10.000473, 9.999381 
7.950159e+2, 2.3455901e+2, -558313.44, -669226.94, 43654.688, 0.0042559165, 0.11771547, -543192.7, 98136.32, 0.0, 10.000804, 9.999378 
7.950052e+2, 2.4455915e+2, -488942.78, -593620.06, 44622.85, 0.0027886098, 0.20122352, -472502.53, 70825.16, 0.0, 10.00066, 9.999283 
7.9499304e+2, 2.5455794e+2, -489544.38, -546400.5, 54315.344, -0.15207765, 0.13017257, -456667.38, -11329.872, 0.0, 9.999988, 9.999261 
7.949822e+2, 2.6455656e+2, -419462.16, -460051.3, 37771.945, -0.17193002, 0.06804582, -396877.94, -49528.453, 0.0, 9.999798, 9.999276 
7.9497266e+2, 2.745547e+2, -291478.8, -350429.88, 60536.492, -0.03521747, -0.06395435, -253623.27, -4256.8, 0.000000103459534, 10.000013, 9.999252 
7.949612e+2, 2.8455406e+2, -180955.9, -242928.92, 40637.523, -0.054542247, -0.048292108, -160838.86, -9466.464, 0.0000054454867, 10.000081, 9.999281 
7.9494756e+2, 2.9455492e+2, -127881.29, -168118.69, 68743.24, -0.26787835, 0.08573858, -76373.21, -23008.709, 0.00003447301, 9.999778, 9.999267 
7.94936e+2, 3.0455524e+2, -80859.41, -75880.984, -3146.7258, -0.18894011, 0.17168128, -74357.96, -74357.96, 0.0001104858, 9.999565, 9.999669 
7.949228e+2, 3.1455195e+2, -70659.625, 58078.734, 70492.59, -0.17240866, -0.15665959, 89169.48, 89169.48, 0.000240168, 9.999023, 10.000848 
8.051496e+2, 1.2458019e+2, -1430352.5, -1778925.5, 2957.4072, 0.20821145, 0.08562393, -1430327.5, 288797.1, 0.0000000057252847, 10.002776, 9.998216 
8.051348e+2, 1.3457994e+2, -1350061.5, -1650199.4, 13024.452, -0.02973631, 0.18537715, -1349497.4, 271631.28, 0.0, 10.00251, 9.998562 
8.0512357e+2, 1.445784e+2, -1266570.6, -1440067.0, 65175.957, 0.04878645, 0.1324363, -1244814.6, 278328.1, 0.0, 10.001888, 9.999613 
8.0511266e+2, 1.5457681e+2, -1285301.0, -1397541.6, 39524.848, 0.06441981, -0.017860904, -1272779.5, 152374.48, 0.0, 10.0010805, 9.999626 
8.051008e+2, 1.645758e+2, -1292629.8, -1459623.4, 17767.537, 0.035606243, -0.03002832, -1290760.3, 36402.926, 0.0, 10.000835, 9.998648 
8.0508816e+2, 1.7457534e+2, -1137987.9, -1337880.5, 28801.988, -0.023292976, 0.046513777, -1133920.6, 95250.625, 0.0, 10.001245, 9.99861 
8.050759e+2, 1.8457513e+2, -1013482.2, -1190619.8, 25273.04, -0.006046439, 0.15142372, -1009946.94, 121228.77, 0.0, 10.0012665, 9.998932 
8.0506426e+2, 1.9457494e+2, -994236.2, -1131566.6, -4864.094, 0.08737849, 0.21822476, -994064.1, 39113.926, 0.0, 10.000725, 9.998931 
8.050518e+2, 2.0457362e+2, -902727.25, -1014567.6, 9424.427, 0.085748725, 0.18915305, -901938.6, 33250.703, 0.0, 10.0005865, 9.999129 
8.050384e+2, 2.145707e+2, -768185.2, -895941.5, 8277.173, -0.029431924, -0.036080543, -767651.2, 69562.695, 0.0, 10.00083, 9.999149 
8.0502635e+2, 2.2456966e+2, -692110.56, -806365.56, 59609.0, -0.065226875, -0.052906316, -666674.25, 72548.72, 0.0, 10.000668, 9.999164 
8.0501604e+2, 2.3457067e+2, -696891.9, -759759.94, 25134.031, -0.009659743, 0.11076532, -688078.94, -46863.383, 0.0, 9.999967, 9.999152 
8.050051e+2, 2.4457084e+2, -624989.2, -638192.1, 28137.934, -0.015326947, 0.20075084, -602688.75, -59475.12, 0.0, 9.9996195, 9.999486 
8.049935e+2, 2.545697e+2, -522409.84, -538505.8, 36551.707, -0.08402994, 0.11516484, -493030.6, -47809.313, 0.0, 9.999644, 9.999492 
8.049825e+2, 2.6456833e+2, -451603.4, -479626.3, 50460.465, -0.10707994, 0.046275668, -413245.22, -66013.01, 0.0, 9.999595, 9.999238 
8.04972e+2, 2.745664e+2, -362285.25, -386512.6, 24556.658, -0.070922285, -0.09007148, -347016.97, -97767.195, 0.00000004701224, 9.999528, 9.999238 
8.0496037e+2, 2.845659e+2, -310906.88, -298349.1, -22004.205, -0.09650188, -0.06731127, -281745.47, -130490.75, 0.000004093495, 9.999166, 9.999338 
8.049473e+2, 2.9456696e+2, -308640.78, -248015.73, -46064.92, -0.19419777, 0.075384095, -223184.58, -169939.36, 0.000029631305, 9.998507, 9.999326 
8.049357e+2, 3.0456704e+2, -295836.0, -198858.83, -104239.33, -0.09309764, 0.15379271, -132382.28, -132382.28, 0.00010221737, 9.998193, 9.999493 
8.049221e+2, 3.1456405e+2, -167341.42, 61556.242, -60676.188, -0.09677503, -0.12828718, 76645.57, 76645.57, 0.00023173695, 9.998181, 10.001277 
8.1515104e+2, 1.24594204e+2, -1422355.6, -1779498.6, -13225.818, 0.023660611, 0.18565585, -1421866.6, 297120.97, 0.000000004999778, 10.002845, 9.998179 
8.1513727e+2, 1.3459192e+2, -1344362.8, -1646682.9, 9282.732, -0.058914635, 0.07936562, -1344078.0, 276933.28, 0.0, 10.002551, 9.99856 
8.1512594e+2, 1.4459063e+2, -1296467.4, -1505869.3, 23688.723, 0.063405536, 0.076194234, -1293821.1, 229203.0, 0.0, 10.0019, 9.99916 
8.1511384e+2, 1.5459138e+2, -1311581.9, -1455166.4, 20292.725, 0.045747656, 0.20581482, -1308769.0, 116246.87, 0.0, 10.001097, 9.999222 
8.1510186e+2, 1.6459088e+2, -1255390.0, -1378479.3, 19726.139, 0.03937275, 0.23740138, -1252306.0, 74713.57, 0.0, 10.000818, 9.99921 
8.150905e+2, 1.7458867e+2, -1095895.5, -1245672.8, 53643.465, 0.06772448, 0.073097765, -1078665.0, 150374.64, 0.0, 10.001225, 9.999248 
8.150776e+2, 1.8458678e+2, -1057386.9, -1267448.9, -1507.0996, 0.01735532, 0.0025759626, -1057376.1, 73681.625, 0.0, 10.0012, 9.99844 
8.150629e+2, 1.9458504e+2, -1039258.75, -1213668.9, -14301.195, -0.14437522, -0.032702465, -1038093.9, -5018.005, 0.0, 10.000672, 9.998393 
8.150504e+2, 2.045843e+2, -907605.44, -998640.5, 7208.119, -0.1282432, 0.01785313, -907038.25, 28044.135, 0.0, 10.000472, 9.999295 
8.1504065e+2, 2.1458456e+2, -769832.8, -873178.5, 27364.24, 0.09497227, 0.088873744, -763034.4, 74043.0, 0.0, 10.000714, 9.999362 
8.150291e+2, 2.2458377e+2, -760132.06, -915934.75, 24138.639, 0.12777975, 0.11891539, -756477.94, -17393.031, 0.0, 10.000533, 9.998478 
8.1501555e+2, 2.3458144e+2, -764257.5, -873067.4, 8038.1772, -0.069826804, 0.02011282, -763666.9, -122556.92, 0.0, 9.999851, 9.998431 
8.1500375e+2, 2.4458009e+2, -610237.2, -583880.4, 18329.594, -0.13364726, -0.023758585, -574483.5, -31361.99, 0.0, 9.99952, 9.999907 
8.149939e+2, 2.545797e+2, -503273.5, -478842.75, 46562.664, -0.032549713, -0.08099589, -442919.8, 2199.4246, 0.0, 9.999561, 9.999942 
8.149828e+2, 2.6457965e+2, -482523.2, -533719.4, 39403.64, -0.0508657, -0.023381412, -461132.9, -114015.15, 0.0, 9.999554, 9.998886 
8.149702e+2, 2.745798e+2, -408124.4, -453814.6, 34486.664, -0.22082783, 0.08836924, -389602.5, -140482.94, 0.000000004527389, 9.999416, 9.998827 
8.149585e+2, 2.845788e+2, -338151.06, -350237.8, -57174.516, -0.22184822, 0.098940216, -286701.4, -135570.92, 0.0000024308686, 9.999136, 9.998999 
8.1494796e+2, 2.9457626e+2, -349879.28, -315117.34, -61488.473, -0.011626014, -0.08170618, -268600.5, -215446.89, 0.00002455122, 9.998429, 9.998903 
8.149364e+2, 3.0457523e+2, -311765.2, -235045.22, -112256.31, 0.14102815, -0.080690704, -154775.67, -154775.67, 0.00009685274, 9.998202, 9.999237 
8.1492037e+2, 3.1457722e+2, -164808.64, 92526.22, -26632.822, -0.13578261, 0.15597361, 95253.67, 95253.67, 0.00023260323, 9.998073, 10.001543 
8.2515395e+2, 1.2460773e+2, -1325273.9, -1773715.1, 89420.47, 0.0007825822, 0.13349125, -1308100.9, 410750.06, 0.0000000017683296, 10.003656, 9.997826 
8.251402e+2, 1.3460506e+2, -1265134.1, -1659591.4, 29748.89, -0.04900566, 0.028803146, -1262903.3, 357976.72, 0.0, 10.003296, 9.998113 
8.251284e+2, 1.4460385e+2, -1202034.6, -1499118.5, 48853.918, 0.08160307, 0.07033356, -1194207.0, 328686.72, 0.0, 10.00272, 9.998806 
8.251153e+2, 1.5460452e+2, -1195685.9, -1443072.8, 26442.176, 0.04161648, 0.22914003, -1192891.1, 231996.83, 0.0, 10.002081, 9.998826 
8.251029e+2, 1.6460398e+2, -1158168.1, -1324318.8, 50680.582, 0.034780484, 0.27353683, -1143929.4, 182963.6, 0.0, 10.001455, 9.999268 
8.250916e+2, 1.7460184e+2, -1154189.8, -1270202.0, 23486.826, 0.08907927, 0.11003287, -1149615.3, 79296.75, 0.0, 10.0008, 9.999286 
8.250788e+2, 1.8460001e+2, -1102492.5, -1237829.4, 3094.2654, 0.051285457, 0.020830313, -1102421.8, 28505.92, 0.0, 10.000672, 9.998895 
8.2506394e+2, 1.9459826e+2, -946954.25, -1116480.5, 43902.44, -0.11628446, -0.061454438, -936259.44, 96683.02, 0.0, 10.001088, 9.998855 
8.250515e+2, 2.0459752e+2, -794667.0, -990255.6, 113966.92, -0.11007784, -0.01592861, -742287.44, 192661.38, 0.0, 10.001456, 9.998867 
8.250419e+2, 2.1459784e+2, -658666.4, -874466.8, 62420.48, 0.10419605, 0.10905379, -641911.94, 195034.75, 0.0, 10.001715, 9.99887 
8.250303e+2, 2.2459684e+2, -599023.0, -857556.25, 45705.063, 0.14147617, 0.1536091, -591180.9, 147776.52, 0.0, 10.001713, 9.998321 
8.250165e+2, 2.3459399e+2, -551742.75, -787213.6, 51292.152, -0.03140871, 0.018963056, -541055.0, 99931.26, 0.0, 10.001375, 9.998294 
8.250042e+2, 2.4459222e+2, -422600.3, -528155.2, 87447.27, -0.09760874, -0.04559278, -373238.22, 169763.58, 0.0, 10.000968, 9.999591 
8.2499385e+2, 2.5459152e+2, -381379.0, -451506.38, 36875.15, -0.03356885, -0.10098844, -365558.13, 79445.38, 0.0, 10.000552, 9.999647 
8.2498246e+2, 2.645914e+2, -412340.6, -528996.4, 18331.51, -0.06328975, -0.024533626, -409527.75, -62524.12, 0.0, 10.000159, 9.998629 
8.249699e+2, 2.7459168e+2, -377518.44, -467680.75, 5571.2915, -0.20593452, 0.12340296, -377175.5, -128170.766, 0.0, 9.999744, 9.998575 
8.249582e+2, 2.8459048e+2, -284773.78, -344664.34, -52263.43, -0.18570326, 0.13875167, -254484.63, -103467.42, 0.000001518397, 9.9996, 9.998812 
8.2494766e+2, 2.945872e+2, -169416.23, -247113.16, -66889.9, 0.05305203, -0.099598095, -130911.86, -77865.16, 0.000022026383, 9.999747, 9.998736 
8.249355e+2, 3.045852e+2, -150980.95, -178811.4, -88904.69, 0.17703795, -0.17947014, -74909.086, -74909.086, 0.00009707927, 9.999397, 9.999038 
8.2491887e+2, 3.14588e+2, -136868.44, 70222.375, -33943.28, -0.097801514, 0.15523596, 75643.92, 75643.92, 0.00024343694, 9.9984, 10.001221 
8.351576e+2, 1.2462082e+2, -1376432.5, -1867635.6, 59494.07, -0.05518909, -0.065263495, -1369329.4, 349384.84, 0.000000000051048894, 10.003612, 9.997202 
8.351433e+2, 1.3461952e+2, -1304456.0, -1745716.3, 24601.018, -0.089366294, 0.033624854, -1303088.8, 317645.06, 0.0, 10.003323, 9.997506 
8.351306e+2, 1.4461814e+2, -1233027.6, -1562963.6, 12300.569, 0.0019372044, 0.11048799, -1232569.8, 290181.53, 0.0, 10.002716, 9.99837 
8.351167e+2, 1.5461628e+2, -1223101.9, -1497989.5, 12084.813, -0.053720284, 0.055257402, -1222571.6, 202198.1, 0.0, 10.002072, 9.998451 
8.351035e+2, 1.6461518e+2, -1199172.6, -1392968.1, 16262.051, -0.072619826, 0.084881306, -1197817.5, 128964.58, 0.0, 10.0013895, 9.998831 
8.350914e+2, 1.74615e+2, -1186164.6, -1332613.1, 11508.201, -0.037724618, 0.16223796, -1185265.8, 43521.043, 0.0, 10.0007925, 9.998858 
8.350793e+2, 1.8461485e+2, -1012537.1, -1047889.3, 5685.3228, 0.0142810205, 0.20269732, -1011645.3, 119139.875, 0.0, 10.000651, 10.000214 
8.3506715e+2, 1.9461444e+2, -856034.94, -910885.8, 68559.83, 0.072543606, 0.113187104, -809618.6, 223160.8, 0.0, 10.001015, 10.000301 
8.3505464e+2, 2.0461313e+2, -887812.8, -1154438.3, 112517.04, 0.041859224, 0.075669296, -846676.8, 88113.16, 0.0, 10.001327, 9.997803 
8.350418e+2, 2.1461052e+2, -756669.1, -1050300.4, 81924.016, -0.09451347, 0.021236232, -735358.7, 101463.08, 0.0, 10.001597, 9.997715 
8.350297e+2, 2.2460896e+2, -591173.56, -813815.1, 22488.965, -0.10552794, 0.051777285, -588924.7, 149915.1, 0.0, 10.00159, 9.998682 
8.350186e+2, 2.3460841e+2, -537735.94, -735683.6, 48708.117, 0.020136049, 0.1053439, -526399.75, 114444.17, 0.0, 10.001271, 9.998701 
8.350064e+2, 2.446073e+2, -507235.38, -686460.1, 62527.145, 0.003926824, 0.13567476, -487577.34, 55276.637, 0.0, 10.000889, 9.998542 
8.349931e+2, 2.5460523e+2, -471860.16, -623055.9, 33020.582, -0.17711389, 0.054147854, -464963.22, -20089.387, 0.0, 10.000475, 9.998508 
8.3498114e+2, 2.6460356e+2, -430925.16, -552618.2, -4493.804, -0.22674766, 0.040743805, -430759.44, -83869.25, 0.0, 10.000097, 9.998496 
8.349707e+2, 2.7460214e+2, -395997.03, -488694.3, 3111.1934, -0.12225024, 0.028772086, -395892.72, -146988.31, 0.0, 9.999672, 9.9984665 
8.3495903e+2, 2.8460106e+2, -288137.06, -344791.97, -55926.3, -0.078983635, 0.06253672, -253773.23, -102859.336, 0.0000012583888, 9.999572, 9.998825 
8.3494604e+2, 2.9459986e+2, -182228.31, -252125.25, -48174.117, -0.10552568, 0.031847943, -157660.89, -104737.586, 0.000022671806, 9.999658, 9.998748 
8.349325e+2, 3.0459684e+2, -160952.44, -197444.56, -127667.65, -0.08404325, -0.14278339, -50233.594, -50233.594, 0.0001036696, 9.999383, 9.99892 
8.3491683e+2, 3.145977e+2, -214535.61, -72784.73, -28426.703, -0.19853482, 0.013382638, -67296.53, -67296.53, 0.0002623637, 9.998329, 10.000275 
8.4516066e+2, 1.246341e+2, -1471262.6, -1842041.5, -23656.607, -0.048829, -0.08385644, -1469759.4, 248825.8, 0.0, 10.002673, 9.9978285 
8.451464e+2, 1.3463369e+2, -1374625.6, -1729608.6, -29843.58, -0.0697972, 0.061401412, -1372134.1, 248459.77, 0.0, 10.002643, 9.997945 
8.451331e+2, 1.4463244e+2, -1320808.5, -1623148.3, 15964.942, 0.020311216, 0.13838476, -1319967.9, 202640.92, 0.0, 10.002195, 9.998203 
8.4511894e+2, 1.5462959e+2, -1305646.3, -1563354.9, 4731.955, -0.004988528, 0.0019804756, -1305559.5, 119077.81, 0.0, 10.00162, 9.998222 
8.451053e+2, 1.6462804e+2, -1200972.8, -1430203.3, 59796.426, -0.035016306, 0.013614889, -1186312.1, 140342.34, 0.0, 10.001525, 9.998515 
8.450924e+2, 1.7462796e+2, -1065817.6, -1313810.1, 43911.637, -0.06159801, 0.13533396, -1058271.9, 170387.11, 0.0, 10.0017805, 9.998517 
8.4508026e+2, 1.8462774e+2, -869882.8, -992884.1, 12379.032, -0.0009670379, 0.19206542, -868649.3, 262009.19, 0.0, 10.001697, 10.000081 
8.45069e+2, 1.946271e+2, -836950.6, -923263.44, -60670.85, 0.14791077, 0.09288929, -805652.9, 227002.23, 0.0, 10.001227, 10.000118 
8.450566e+2, 2.046257e+2, -924667.25, -1185724.9, -12902.774, 0.11679172, 0.06055699, -924031.1, 10635.94, 0.0, 10.00113, 9.997688 
8.4504294e+2, 2.1462311e+2, -800652.9, -1089351.1, 10489.847, -0.11986336, 0.02374298, -800272.2, 36427.4, 0.0, 10.001367, 9.997565 
8.450306e+2, 2.246216e+2, -623342.2, -797701.9, -17556.377, -0.1574657, 0.05350398, -621592.0, 117125.18, 0.0, 10.001248, 9.998944 
8.450196e+2, 2.3462121e+2, -601058.0, -730926.06, -27266.865, 0.031716652, 0.095415264, -595565.4, 45152.844, 0.0, 10.000709, 9.998991 
8.450075e+2, 2.4462046e+2, -571896.9, -745708.4, 42639.027, 0.044737324, 0.15808374, -562000.3, -19275.27, 0.0, 10.000564, 9.998291 
8.44994e+2, 2.5461888e+2, -439015.16, -633607.44, 56540.45, -0.14631896, 0.15361483, -423779.7, 20962.14, 0.0, 10.000822, 9.99826 
8.4498185e+2, 2.6461682e+2, -355568.2, -521576.5, 60288.016, -0.18536687, 0.11395761, -335984.16, 10778.237, 0.0, 10.000635, 9.9984455 
8.4497136e+2, 2.7461395e+2, -352839.78, -467644.53, 52850.99, -0.03236633, -0.03784169, -332214.88, -83426.31, 0.0000000050987805, 9.9999695, 9.998465 
8.449595e+2, 2.846128e+2, -290677.56, -369518.28, 32798.59, 0.009337664, -0.005904873, -278817.2, -128018.336, 0.0000017149706, 9.999642, 9.998623 
8.4494585e+2, 2.946129e+2, -196456.45, -272581.5, 5296.074, -0.07813268, 0.11470148, -196089.77, -143292.94, 0.0000255943, 9.999609, 9.998628 
8.4493184e+2, 3.0461013e+2, -113511.46, -180942.81, -67865.08, -0.09801832, -0.03280735, -71448.41, -71448.41, 0.000114907256, 9.999739, 9.998871 
8.449169e+2, 3.1460902e+2, -37089.266, -61841.094, 5422.7134, -0.09118664, -0.06354547, -35953.367, -35953.367, 0.00028673265, 9.9998455, 9.999632 
8.551626e+2, 1.24647915e+2, -1361422.9, -1617236.8, -43631.02, -0.168675, 0.082963556, -1354186.0, 364273.88, 0.0, 10.002688, 9.999364 
8.5514903e+2, 1.3464771e+2, -1280975.6, -1529419.6, -25665.213, -0.09438391, 0.108926795, -1278352.0, 342107.03, 0.0, 10.002634, 9.999314 
8.551357e+2, 1.446469e+2, -1312728.6, -1612394.0, -17026.271, 0.031792536, 0.15506306, -1311764.4, 210701.34, 0.0, 10.002208, 9.998279 
8.551218e+2, 1.5464446e+2, -1295924.3, -1553750.0, -1443.5017, 0.085455365, 0.059184436, -1295916.1, 128574.14, 0.0, 10.001663, 9.998266 
8.551079e+2, 1.6464251e+2, -1223743.1, -1474531.6, 57269.93, 0.054603316, 0.046137013, -1211284.0, 115226.195, 0.0, 10.00151, 9.99822 
8.5509425e+2, 1.7464077e+2, -1085997.3, -1350261.8, 62570.777, -0.075099915, 0.02674028, -1071930.9, 156597.28, 0.0, 10.00176, 9.998276 
8.550813e+2, 1.8463884e+2, -992102.44, -1233444.5, -12787.891, -0.09087118, -0.0009759791, -991426.75, 139119.83, 0.0, 10.001634, 9.998464 
8.550691e+2, 1.9463645e+2, -957588.2, -1166537.4, -67917.36, 0.016361028, -0.10729212, -937452.56, 95114.76, 0.0, 10.001194, 9.998465 
8.55057e+2, 2.0463546e+2, -883370.75, -1085089.8, -14696.187, 0.03431999, -0.047064103, -882305.7, 52271.957, 0.0, 10.001057, 9.998421 
8.550451e+2, 2.1463569e+2, -754288.44, -969173.9, 30800.54, -0.056538347, 0.113815345, -749960.8, 86618.71, 0.0, 10.001257, 9.9984455 
8.550325e+2, 2.2463474e+2, -637682.94, -791725.1, -46245.875, -0.10148751, 0.14898612, -624865.7, 113723.88, 0.0, 10.001098, 9.999058 
8.550193e+2, 2.3463234e+2, -610454.56, -724796.3, -36293.2, -0.08949163, -0.020431109, -599907.6, 40702.336, 0.0, 10.000598, 9.999085 
8.550071e+2, 2.4463166e+2, -546524.6, -672204.4, 41266.73, -0.061620496, 0.01899498, -534186.1, 8429.181, 0.0, 10.000475, 9.99884 
8.549963e+2, 2.5463253e+2, -412276.72, -558202.56, 75246.53, -0.01795884, 0.20084499, -380427.28, 64180.203, 0.0, 10.000732, 9.998824 
8.549845e+2, 2.6463112e+2, -359004.03, -513048.4, 26173.795, -0.0035855582, 0.19619715, -354678.3, -8057.686, 0.0, 10.000568, 9.998539 
8.549715e+2, 2.7462703e+2, -363137.75, -467292.22, 39802.547, -0.027882386, -0.08548222, -349668.94, -101010.54, 0.0000001292932, 9.999879, 9.998513 
8.549591e+2, 2.8462562e+2, -322474.44, -418124.53, 24546.896, -0.017215747, -0.06550886, -316542.75, -165870.4, 0.0000031613251, 9.999575, 9.998317 
8.549468e+2, 2.946266e+2, -229522.84, -324088.97, 16581.678, 0.027436636, 0.17312771, -226699.63, -174034.0, 0.000030116835, 9.999539, 9.998306 
8.5493314e+2, 3.0462506e+2, -112601.79, -170401.86, -69695.27, 0.045883305, 0.16073091, -66052.22, -66052.22, 0.0001273879, 9.999711, 9.998956 
8.549187e+2, 3.146227e+2, -99525.74, -158292.86, 30998.781, 0.054809865, 0.0111062415, -86197.266, -86197.266, 0.00031292601, 9.999718, 9.999032 
8.651657e+2, 1.24662824e+2, -1296540.8, -1603926.9, 161677.39, -0.1441315, 0.09151909, -1227161.9, 491148.38, 0.00000000000000000000885557, 10.003197, 9.999209 
8.6515206e+2, 1.3466148e+2, -1283701.0, -1567417.5, 25200.432, -0.053461943, 0.030299768, -1281480.0, 338840.2, 0.0, 10.002739, 9.999013 
8.651383e+2, 1.4466044e+2, -1275861.9, -1602325.9, -1471.0181, 0.062205296, 0.07192468, -1275855.3, 246474.64, 0.0, 10.002506, 9.998202 
8.651241e+2, 1.5465897e+2, -1152825.9, -1499633.4, -18041.55, 0.10881556, 0.08433528, -1151889.9, 272457.06, 0.0, 10.002703, 9.998147 
8.6511e+2, 1.646572e+2, -1113483.0, -1426985.8, 58458.473, 0.07878474, 0.09875232, -1102937.1, 223428.36, 0.0, 10.002302, 9.998151 
8.6509603e+2, 1.7465486e+2, -1162660.6, -1400997.0, 52184.42, -0.044472, 0.026620198, -1151735.5, 76652.805, 0.0, 10.00129, 9.998149 
8.650826e+2, 1.8465246e+2, -1091923.6, -1350429.3, 62106.07, -0.0916406, -0.010232177, -1077776.8, 52635.61, 0.0, 10.001256, 9.997836 
8.650699e+2, 1.9464985e+2, -847951.7, -1185217.1, 66681.33, -0.062699534, -0.074584864, -835246.6, 197192.72, 0.0, 10.002274, 9.997807 
8.650581e+2, 2.0464875e+2, -663181.25, -941271.25, 137803.33, -0.024137719, -0.0041116388, -606462.94, 327987.9, 0.0, 10.002423, 9.998737 
8.650471e+2, 2.1464913e+2, -698131.1, -903667.44, 121569.86, 0.014834463, 0.13434193, -641712.2, 194735.44, 0.0, 10.0014925, 9.998773 
8.650344e+2, 2.2464803e+2, -654181.3, -836880.25, 36947.746, -0.016318653, 0.1546815, -646992.1, 91465.625, 0.0, 10.001136, 9.998736 
8.650199e+2, 2.3464514e+2, -520587.28, -721142.6, -2862.7524, -0.12017103, -0.028429437, -520546.44, 119937.93, 0.0, 10.001381, 9.998738 
8.650076e+2, 2.4464403e+2, -396714.28, -584967.6, 68755.02, -0.11070179, -0.020566076, -374277.3, 168216.92, 0.0, 10.001449, 9.998962 
8.6499774e+2, 2.546446e+2, -306390.8, -489512.84, 48843.6, 0.024066236, 0.117600664, -294177.47, 150310.69, 0.0, 10.001394, 9.998972 
8.6498594e+2, 2.6464367e+2, -282918.16, -465975.53, -23941.355, 0.06513391, 0.14767727, -279838.78, 66658.25, 0.0000000005766255, 10.001041, 9.9986315 
8.64972e+2, 2.7464083e+2, -283002.84, -418906.9, -31233.83, 0.006885605, -0.017293254, -276168.3, -27643.746, 0.000000514823, 10.000376, 9.998606 
8.6495906e+2, 2.846396e+2, -215460.84, -351982.9, 25705.877, -0.0022253618, 0.0063112187, -210781.08, -60243.426, 0.0000054394536, 10.000237, 9.998463 
8.649472e+2, 2.9463962e+2, -44061.133, -212191.19, 38621.71, 0.058444273, 0.13587205, -35613.645, 16925.229, 0.000035908153, 10.000714, 9.998514 
8.649337e+2, 3.046387e+2, 69481.71, -113565.12, -26911.365, 0.07004768, 0.1896099, 73356.19, 73356.19, 0.00014004746, 10.001098, 9.998665 
8.649199e+2, 3.1463662e+2, 57538.492, -105291.23, 1067.604, 0.15615071, 0.091863625, 57545.492, 57545.492, 0.00033713353, 10.000911, 9.9988 
8.751689e+2, 1.24679066e+2, -1413331.3, -1849525.8, 113431.195, -0.19126333, -0.018016733, -1385597.3, 332537.66, 0.0000000055054987, 10.003203, 9.9975195 
8.751551e+2, 1.346752e+2, -1404643.1, -1813632.5, 15439.6875, -0.042538326, -0.16535686, -1404061.1, 216115.19, 0.0, 10.002725, 9.997323 
8.751406e+2, 1.4467329e+2, -1302350.0, -1657777.8, -7742.662, 0.017015688, -0.10383474, -1302181.4, 220018.27, 0.0, 10.002506, 9.997823 
8.7512565e+2, 1.5467323e+2, -1175333.1, -1539359.4, 249.75525, -0.025717478, 0.0765042, -1175333.0, 248873.34, 0.0, 10.002683, 9.997879 
8.7511116e+2, 1.6467224e+2, -1109610.4, -1418231.9, 11914.226, -0.05783782, 0.1776337, -1109151.0, 217068.11, 0.0, 10.002289, 9.998222 
8.750974e+2, 1.7467025e+2, -1153635.5, -1388527.0, 23504.672, -0.057942834, 0.1342898, -1151306.6, 76932.46, 0.0, 10.001315, 9.998223 
8.750841e+2, 1.8466869e+2, -1072237.9, -1306215.8, 88122.016, -0.09362935, 0.16445981, -1042762.2, 87493.21, 0.0, 10.001239, 9.998151 
8.7507135e+2, 1.9466719e+2, -829011.3, -1134220.1, 114828.8, -0.17603451, 0.1776379, -790634.7, 241637.28, 0.0, 10.002219, 9.998183 
8.750595e+2, 2.046655e+2, -693995.9, -976333.56, 95423.48, -0.14524573, 0.17438544, -664770.25, 269517.53, 0.0, 10.002297, 9.998558 
8.7504876e+2, 2.146634e+2, -729537.94, -940514.94, 94805.94, 0.007569073, 0.088116586, -693195.6, 143108.4, 0.0, 10.00137, 9.998577 
8.7503606e+2, 2.2466154e+2, -724836.25, -956384.6, 33720.16, 0.018496195, 0.07809777, -720025.56, 18295.355, 0.0, 10.001018, 9.997974 
8.750212e+2, 2.3465966e+2, -592936.6, -840290.8, 16151.709, -0.13917324, 0.072057754, -591886.4, 48454.723, 0.0, 10.001248, 9.997982 
8.7500846e+2, 2.4465756e+2, -434134.8, -641991.4, 56849.125, -0.18529679, 0.036306757, -419602.5, 122759.09, 0.0, 10.001354, 9.99862 
8.749979e+2, 2.5465503e+2, -346379.9, -545362.4, 57850.813, -0.114396736, -0.10241339, -330783.25, 113601.01, 0.0, 10.00128, 9.998642 
8.749859e+2, 2.6465437e+2, -283676.44, -458328.6, -57236.27, -0.061072133, -0.033872828, -266590.7, 79801.48, 0.0000000691861, 10.000998, 9.998707 
8.749723e+2, 2.7465546e+2, -287882.22, -410550.3, -45718.297, -0.027958859, 0.18114913, -272717.72, -24331.092, 0.000001269736, 10.0002985, 9.9987 
8.7495923e+2, 2.8465483e+2, -167485.94, -250471.98, 30393.93, -0.03110043, 0.2307761, -157544.9, -7151.705, 0.000008255043, 10.000222, 9.999171 
8.749467e+2, 2.9465193e+2, -1062.5663, -111675.18, 69638.79, -0.08435989, -0.0043729455, 32560.02, 84977.04, 0.000042714033, 10.000663, 9.999234 
8.749332e+2, 3.0465105e+2, 15992.692, -212819.25, -32789.504, -0.11604854, 0.047620174, 20598.813, 20598.813, 0.00015286829, 10.001045, 9.998007 
8.7492e+2, 3.146497e+2, 34655.89, -142909.56, 9828.375, 0.013625897, 0.0925344, 35198.242, 35198.242, 0.00035722472, 10.000864, 9.998566 
8.851722e+2, 1.2469278e+2, -1580789.9, -1921125.1, -70618.67, -0.119878106, -0.1056401, -1566718.4, 151277.7, 0.00000006865043, 10.002027, 9.9976 
8.851574e+2, 1.3468944e+2, -1418947.9, -1818041.6, -72503.7, -0.068100944, -0.1988065, -1406184.3, 213849.19, 0.0, 10.002612, 9.997356 
8.851425e+2, 1.4468746e+2, -1318990.8, -1671193.6, -6575.8906, -0.032357458, -0.1432482, -1318868.0, 203190.08, 0.0, 10.002426, 9.997761 
8.8512796e+2, 1.5468715e+2, -1322095.8, -1618719.0, -8289.191, -0.0030424856, 0.018907927, -1321864.3, 102202.63, 0.0, 10.001717, 9.997791 
8.851136e+2, 1.6468602e+2, -1186000.0, -1471212.5, 36034.063, -0.013991035, 0.11728, -1181517.9, 144563.61, 0.0, 10.001844, 9.998075 
8.850994e+2, 1.7468403e+2, -934725.8, -1298736.1, 13298.272, -0.059424143, 0.09329996, -934240.6, 293861.1, 0.0, 10.002894, 9.99808 
8.8508594e+2, 1.8468274e+2, -844247.56, -1202770.9, 65613.78, -0.105608605, 0.15946396, -832616.8, 297499.88, 0.0, 10.002834, 9.998091 
8.8507324e+2, 1.9468182e+2, -942208.06, -1196986.5, 37810.96, -0.16620708, 0.23684144, -936715.06, 95414.3, 0.0, 10.001483, 9.998108 
8.8506114e+2, 2.0468001e+2, -871798.3, -1045403.94, 30619.715, -0.1359931, 0.21849005, -866556.06, 67589.73, 0.0, 10.000992, 9.998721 
8.8505e+2, 2.1467702e+2, -712392.1, -916280.2, 41752.445, 0.0003825801, 0.026509166, -704173.3, 131994.7, 0.0, 10.001407, 9.998736 
8.850375e+2, 2.2467487e+2, -634216.1, -957516.5, 47876.977, 0.024704156, 0.00017589048, -627275.1, 110911.86, 0.0, 10.00184, 9.997561 
8.850235e+2, 2.3467337e+2, -473221.1, -834937.25, 29985.35, -0.08471108, 0.077267565, -470752.22, 169452.78, 0.0, 10.002293, 9.997516 
8.8501066e+2, 2.4467115e+2, -361499.13, -638752.3, 71526.914, -0.12256021, 0.0693973, -344133.94, 198094.0, 0.0, 10.001987, 9.998335 
8.849992e+2, 2.5466788e+2, -419533.16, -614979.8, 52607.15, -0.0857654, -0.11720767, -406272.9, 37986.04, 0.00000000006372724, 10.000903, 9.998351 
8.8498676e+2, 2.6466715e+2, -331318.2, -478444.28, -18833.64, -0.05599016, -0.04193439, -328945.53, 17322.824, 0.00000025387644, 10.000658, 9.9987335 
8.849731e+2, 2.7466896e+2, -116835.06, -321502.66, -31550.107, -0.02786775, 0.24442723, -112081.91, 136174.14, 0.0000021793016, 10.001444, 9.998759 
8.849599e+2, 2.8466833e+2, -22947.67, -168661.81, 22597.188, -0.023723591, 0.28439343, -19523.777, 130738.72, 0.000011106664, 10.001189, 9.999251 
8.8494724e+2, 2.946646e+2, -120077.51, -162691.27, -10747.792, -0.045211438, -0.0393854, -117520.23, -65226.97, 0.000049522223, 9.999821, 9.999285 
8.849339e+2, 3.0466354e+2, -91851.11, -277230.3, -38307.277, -0.10509814, -0.0027892578, -84247.09, -84247.09, 0.00016466355, 10.000351, 9.997911 
8.849216e+2, 3.1466293e+2, 329969.44, 40745.906, 5170.9077, 0.006581026, 0.13284346, 330061.88, 330061.88, 0.00037254568, 10.002705, 9.998963 
8.951747e+2, 1.2470398e+2, -1469489.4, -1675595.3, -82438.375, -0.12046347, -0.18008529, -1440572.6, 277320.25, 0.00000033567557, 10.001982, 9.999297 
8.951588e+2, 1.3470435e+2, -1306245.5, -1573153.6, -45743.97, -0.20874524, -0.069744624, -1298623.4, 321266.6, 0.00000000007521531, 10.002582, 9.999044 
8.951437e+2, 1.4470316e+2, -1306223.5, -1643992.8, -44344.473, -0.18363194, -0.032047857, -1300498.8, 221404.03, 0.0, 10.002417, 9.997956 
8.951309e+2, 1.547009e+2, -1311418.9, -1602847.1, -22173.787, 0.08313014, -0.07507284, -1309741.4, 114185.664, 0.0, 10.001739, 9.997893 
8.9511687e+2, 1.6469869e+2, -1210348.0, -1526539.3, 62957.8, 0.10718924, -0.07050869, -1198273.4, 127677.54, 0.0, 10.001862, 9.997686 
8.9510185e+2, 1.7469633e+2, -964084.4, -1353326.6, 63386.324, -0.124517225, -0.0981106, -954022.3, 273953.66, 0.0, 10.002868, 9.997718 
8.9508796e+2, 1.8469475e+2, -888150.7, -1279039.4, 8225.405, -0.20780501, -0.018534942, -887977.7, 242017.55, 0.0, 10.002765, 9.997602 
8.9507526e+2, 1.9469382e+2, -988795.7, -1278426.8, -3291.5623, -0.13016099, 0.10974497, -988758.3, 43252.047, 0.0, 10.001412, 9.997584 
8.950628e+2, 2.0469235e+2, -849094.06, -977150.25, 35449.246, -0.090418555, 0.12898706, -839935.8, 94088.41, 0.0, 10.000901, 9.999233 
8.950506e+2, 2.1469001e+2, -692333.06, -842114.56, 68672.664, -0.09388445, -0.0548896, -665614.0, 170424.94, 0.0, 10.001272, 9.999307 
8.950385e+2, 2.2468811e+2, -665480.1, -993168.44, 55001.29, -0.077149816, -0.07902322, -656494.75, 81560.23, 0.0, 10.001706, 9.997385 
8.950263e+2, 2.3468643e+2, -504362.0, -870184.1, 56603.773, -0.049211215, -0.0016707623, -495803.88, 144270.83, 0.0, 10.002167, 9.997333 
8.95014e+2, 2.4468493e+2, -390137.5, -682444.2, 21975.21, -0.015483427, 0.08302771, -388494.66, 153597.72, 0.0, 10.001913, 9.998074 
8.950014e+2, 2.5468335e+2, -454068.16, -660565.3, 22091.402, 0.02026338, 0.08894492, -451731.25, -7620.572, 0.0000000002378373, 10.000792, 9.998092 
8.949882e+2, 2.646823e+2, -337499.2, -480226.16, -236.74344, -0.0033094403, 0.14828995, -337498.8, 8624.039, 0.00000030747992, 10.000611, 9.998742 
8.9497405e+2, 2.7468157e+2, -132148.98, -331603.7, 10472.381, -0.092888355, 0.18006006, -131600.64, 116530.8, 0.0000026197797, 10.001356, 9.99873 
8.949609e+2, 2.8468007e+2, -73745.29, -268495.88, -36635.43, -0.07398707, 0.16686414, -67081.63, 83064.375, 0.000013171274, 10.001155, 9.998583 
8.949485e+2, 2.9467756e+2, -173002.81, -261543.97, -50849.617, 0.063276246, 0.029995574, -149852.56, -97684.15, 0.000055655084, 9.999767, 9.99863 
8.9493567e+2, 3.046762e+2, -66795.016, -211471.95, 40139.28, 0.016418975, 0.047319315, -56404.914, -56404.914, 0.00017577781, 10.0003, 9.9983835 
8.949242e+2, 3.1467444e+2, 392238.6, 200967.95, 111494.016, -0.05300366, 0.012170272, 443494.5, 443494.5, 0.0003866523, 10.002588, 10.000112 
9.0517676e+2, 1.2471749e+2, -1513141.4, -1636498.8, 50931.68, -0.06383838, -0.17947388, -1494830.8, 222933.22, 0.0000010657902, 10.001399, 9.999857 
9.0516114e+2, 1.3471916e+2, -1508149.3, -1604472.0, -21443.877, -0.14245489, 0.0019098527, -1503591.0, 116156.0, 0.000000007369457, 10.000905, 9.999637 
9.0514606e+2, 1.4471819e+2, -1445169.9, -1693604.3, -17271.25, -0.12662745, 0.020236466, -1443975.0, 77780.805, 0.0, 10.001378, 9.998116 
9.051333e+2, 1.5471506e+2, -1097546.4, -1481121.5, -16212.819, 0.0893598, -0.12829944, -1096862.3, 326922.78, 0.0, 10.003119, 9.998065 
9.051194e+2, 1.647125e+2, -1004546.8, -1460671.6, 73331.65, 0.10356502, -0.1495849, -993047.1, 332764.1, 0.0, 10.003417, 9.997395 
9.0510464e+2, 1.7471035e+2, -1097421.4, -1451128.8, 55706.316, -0.09234533, -0.12554969, -1088855.4, 138981.23, 0.0, 10.002093, 9.997419 
9.0509063e+2, 1.8470871e+2, -1027572.9, -1319189.8, 41912.86, -0.15622723, -0.048832875, -1021668.44, 108188.07, 0.0, 10.001685, 9.997846 
9.050776e+2, 1.9470745e+2, -829855.9, -1174304.4, 72163.484, -0.07832461, 0.020474771, -815348.4, 216523.9, 0.0, 10.002365, 9.997846 
9.050648e+2, 2.04706e+2, -657059.25, -947465.7, 130547.12, -0.050157573, 0.0538001, -607002.4, 326884.38, 0.0, 10.002495, 9.998663 
9.0505236e+2, 2.1470396e+2, -626321.2, -879445.9, 53744.22, -0.07822897, -0.03778144, -615382.75, 220519.83, 0.0, 10.002018, 9.998691 
9.0504026e+2, 2.2470212e+2, -617005.7, -918511.1, 51244.824, -0.068556555, -0.046522863, -608534.0, 129384.74, 0.0, 10.001822, 9.997842 
9.0502864e+2, 2.3470019e+2, -491223.56, -811553.7, 84729.62, -0.022941109, -0.03984045, -470192.72, 169744.92, 0.0, 10.002027, 9.997807 
9.0501624e+2, 2.4469866e+2, -418167.66, -746112.7, 48315.176, 0.020986589, 0.039584085, -411197.66, 130757.54, 0.0, 10.001951, 9.99761 
9.0500295e+2, 2.5469732e+2, -367427.97, -672401.75, 7181.8613, 0.056759745, 0.12103667, -367258.94, 76714.375, 0.0, 10.001626, 9.997602 
9.049893e+2, 2.646958e+2, -247645.72, -455234.22, 23210.676, 0.023304364, 0.16632575, -245082.17, 100908.414, 0.0000002007212, 10.001323, 9.9985695 
9.049754e+2, 2.7469373e+2, -182552.05, -374218.25, -905.44855, -0.07840112, 0.08101106, -182547.77, 65462.6, 0.0000025589381, 10.001093, 9.998566 
9.049622e+2, 2.8469205e+2, -87958.05, -324514.06, -43868.95, -0.055420946, 0.081432134, -80084.67, 69942.44, 0.000014749117, 10.001256, 9.998161 
9.0494967e+2, 2.9469082e+2, 88496.75, -178211.7, -63496.97, 0.1117295, 0.11741261, 102842.266, 154882.39, 0.00006245814, 10.001755, 9.998248 
9.0493697e+2, 3.0468926e+2, 83883.29, -162932.48, 65487.063, 0.07234986, 0.14199416, 100182.46, 100182.46, 0.00018870574, 10.001447, 9.998166 
9.049259e+2, 3.1468713e+2, -5770.6865, -19978.896, 25460.615, 0.0013765898, 0.09918875, 13558.3545, 13558.3545, 0.00040376265, 9.999965, 9.999866 
9.151777e+2, 1.2473363e+2, -1544268.3, -1700353.3, -6074.581, -0.15768379, -0.07187725, -1544032.3, 173574.22, 0.000002613721, 10.0014105, 9.999409 
9.1516393e+2, 1.3473392e+2, -1537874.6, -1664152.8, -35480.23, 0.029069658, 0.0124877915, -1528588.6, 91016.01, 0.00000007607973, 10.000899, 9.999228 
9.151492e+2, 1.4473236e+2, -1437063.4, -1671500.3, 32715.383, 0.025704164, -0.01174651, -1432583.6, 89034.625, 0.0, 10.001356, 9.998279 
9.15135e+2, 1.5472962e+2, -1085857.1, -1452706.5, 60956.266, -0.07414103, -0.14189553, -1075993.8, 347646.7, 0.0, 10.003105, 9.998266 
9.151209e+2, 1.6472761e+2, -1023895.06, -1494427.5, 13514.092, -0.110381864, -0.10954698, -1023507.25, 302153.94, 0.0, 10.00339, 9.997173 
9.151073e+2, 1.7472623e+2, -1120581.5, -1491406.6, 14477.738, -0.057464547, 0.016274802, -1120017.1, 107665.516, 0.0, 10.002061, 9.997158 
9.150936e+2, 1.8472467e+2, -963593.44, -1175853.6, 55175.92, -0.047546715, 0.06621219, -950107.56, 179592.53, 0.0, 10.001638, 9.998854 
9.1508e+2, 1.9472274e+2, -772428.44, -1030835.1, 107662.83, -0.094778456, -0.03492948, -733451.0, 298264.1, 0.0, 10.002267, 9.998877 
9.150671e+2, 2.0472096e+2, -791774.2, -1203918.9, 103252.586, -0.097698405, -0.0029754457, -767353.8, 166379.34, 0.0, 10.002391, 9.996953 
9.1505486e+2, 2.1471901e+2, -771568.56, -1149979.1, 43809.934, -0.045801934, 0.0908263, -766562.75, 69194.84, 0.0, 10.001886, 9.996895 
9.1504246e+2, 2.24717e+2, -556070.1, -771318.94, 47117.094, -0.0448824, 0.10699137, -546208.25, 191569.0, 0.0, 10.001723, 9.998904 
9.1503006e+2, 2.3471473e+2, -429525.8, -653772.75, 102793.516, -0.09363408, -0.03753491, -389536.9, 250256.48, 0.0, 10.0019, 9.998951 
9.1501707e+2, 2.4471249e+2, -478384.03, -853347.56, 27995.418, -0.10413939, -0.053636372, -476305.38, 65509.598, 0.0, 10.001869, 9.996917 
9.150035e+2, 2.5471e+2, -434009.22, -791420.0, 5318.115, -0.07044382, -0.012196992, -433930.1, 9915.72, 0.0, 10.00154, 9.996831 
9.1498995e+2, 2.647077e+2, -280239.8, -512702.25, 6102.581, -0.06377888, 0.014717705, -280079.72, 65791.625, 0.00000011562638, 10.00128, 9.998196 
9.1497666e+2, 2.747054e+2, -217331.27, -429455.7, 3702.959, -0.08122901, -0.055581298, -217266.64, 30626.64, 0.0000025826089, 10.00102, 9.998221 
9.149636e+2, 2.847044e+2, -106036.15, -350421.53, -35341.797, -0.058730304, 0.030874576, -101027.836, 48877.363, 0.000017159802, 10.001207, 9.998007 
9.1495055e+2, 2.9470453e+2, 65866.85, -213826.53, -31198.39, -0.00063130475, 0.22161207, 69304.625, 121212.04, 0.00007135739, 10.001704, 9.998029 
9.1493756e+2, 3.0470267e+2, 1532.9121, -318783.56, 7636.4473, -0.03479395, 0.28361252, 1714.8641, 1714.8641, 0.00020552066, 10.001384, 9.997123 
9.1492605e+2, 3.1470066e+2, -119479.945, -226608.39, -13210.345, -0.030274764, 0.34802705, -117874.98, -117874.98, 0.00042645857, 9.9998455, 9.998497 
9.251789e+2, 1.2474859e+2, -1712441.4, -1837546.5, -46978.164, -0.12286323, 0.03126348, -1696765.0, 20696.637, 0.0000053718704, 10.000487, 9.998916 
9.251663e+2, 1.3474771e+2, -1422208.6, -1651395.6, -107139.57, 0.13693883, 0.034622554, -1379924.6, 239547.55, 0.00000033393198, 10.001872, 9.9988575 
9.251521e+2, 1.4474572e+2, -1280289.4, -1583561.9, -1472.2996, 0.13209668, -0.019012023, -1280282.3, 241207.5, 0.0, 10.002377, 9.998396 
9.2513746e+2, 1.5474339e+2, -1211791.8, -1500581.3, -4017.1487, -0.08705537, -0.119109936, -1211735.9, 211770.61, 0.0, 10.002181, 9.998384 
9.251231e+2, 1.6474164e+2, -1210716.8, -1564465.0, -70612.92, -0.152112, -0.079246946, -1197142.4, 128381.71, 0.0, 10.002012, 9.997357 
9.251094e+2, 1.7474034e+2, -1131442.4, -1476754.5, -59292.973, -0.0370567, 0.038067136, -1121545.0, 105999.08, 0.0, 10.001895, 9.997342 
9.25096e+2, 1.8473881e+2, -937433.2, -1180212.0, 15899.096, 0.0100331055, 0.08823863, -936396.4, 193164.78, 0.0, 10.001891, 9.998705 
9.250827e+2, 1.9473675e+2, -825107.06, -1072564.9, -43185.414, -0.026517896, -0.013306528, -817787.06, 213790.55, 0.0, 10.001974, 9.998731 
9.2506975e+2, 2.0473467e+2, -849392.7, -1234456.3, -32749.69, -0.0383675, -0.0029443894, -846627.2, 86971.01, 0.0, 10.002009, 9.996931 
9.250571e+2, 2.1473232e+2, -744568.94, -1137457.0, 23129.682, -0.013111685, 0.053592633, -743212.0, 92413.74, 0.0, 10.002071, 9.996896 
9.250446e+2, 2.2473034e+2, -554505.56, -784162.1, 69409.74, -0.006108106, 0.08100495, -535157.6, 202488.08, 0.0, 10.001801, 9.998773 
9.2503226e+2, 2.3472863e+2, -545289.94, -724101.0, 6533.3237, -0.019769864, 0.0051051686, -545051.5, 94607.54, 0.0, 10.001167, 9.998817 
9.25019e+2, 2.4472661e+2, -542590.9, -818314.4, -36485.74, -0.059450567, -0.011992808, -537844.56, 3833.6467, 0.0, 10.001141, 9.997515 
9.250046e+2, 2.5472397e+2, -343052.38, -676169.75, 25420.74, -0.1270536, -0.045728162, -341123.63, 102582.88, 0.0, 10.00186, 9.997471 
9.249909e+2, 2.6472163e+2, -183805.33, -502720.13, 84143.09, -0.13123176, -0.041090935, -162966.52, 182764.47, 0.00000007319143, 10.002084, 9.997882 
9.2497826e+2, 2.7471936e+2, -138509.81, -426936.16, 66222.984, -0.04904955, -0.07913101, -124031.695, 123722.06, 0.0000027897247, 10.001704, 9.99791 
9.249653e+2, 2.8471804e+2, -80763.39, -376060.44, 67767.695, -0.01635897, 0.017111853, -65954.08, 83814.89, 0.000020180585, 10.0015545, 9.997656 
9.2495185e+2, 2.947177e+2, 45931.266, -264117.47, 34012.996, -0.036611192, 0.19513978, 49618.707, 101395.81, 0.00008284934, 10.001741, 9.997663 
9.249388e+2, 3.0471554e+2, 44109.445, -298126.4, 75772.336, -0.053266853, 0.2433219, 60135.293, 60135.293, 0.00022869528, 10.001643, 9.997147 
9.2492723e+2, 3.147138e+2, 9099.875, -203224.25, 85862.766, 0.06522031, 0.32993567, 39476.44, 39476.44, 0.00046065266, 10.0008745, 9.998166 
9.3517953e+2, 1.2476201e+2, -1752493.8, -1905581.9, -32045.834, -0.15941104, 0.07701503, -1746056.3, -28723.37, 0.000009857008, 10.000435, 9.998471 
9.351679e+2, 1.3476072e+2, -1432557.9, -1688171.3, -49413.137, 0.08724553, 0.0666603, -1423338.3, 196009.27, 0.0000009955157, 10.001944, 9.998567 
9.3515444e+2, 1.4475852e+2, -1275731.0, -1584047.0, -21547.33, 0.09666043, 0.009195937, -1274232.4, 247135.2, 0.00000000002439963, 10.0024185, 9.998374 
9.3514025e+2, 1.5475644e+2, -1218425.6, -1502265.4, -1020.517, -0.04540165, -0.063983224, -1218422.0, 204960.52, 0.0, 10.0021305, 9.998398 
9.351257e+2, 1.6475458e+2, -1173084.3, -1473698.4, -87880.445, -0.11817226, -0.06847555, -1149278.8, 176120.86, 0.0, 10.001956, 9.998008 
9.351107e+2, 1.7475285e+2, -1084206.9, -1380325.3, -54053.105, -0.11573653, -0.060368057, -1074648.6, 152771.27, 0.0, 10.001903, 9.998 
9.350972e+2, 1.8475133e+2, -1036922.25, -1377832.5, 10718.541, -0.06963358, 0.023480903, -1036585.56, 92852.555, 0.0, 10.001856, 9.997367 
9.350855e+2, 1.9474964e+2, -935522.5, -1281169.6, -29978.031, 0.025138736, 0.098291226, -932941.75, 98516.23, 0.0, 10.00189, 9.99734 
9.350727e+2, 2.0474726e+2, -739593.0, -990903.06, -42013.72, 0.03168042, 0.06709707, -732755.25, 200724.83, 0.0, 10.001936, 9.99864 
9.3505883e+2, 2.1474394e+2, -639381.5, -891839.9, 34921.355, -0.0608382, -0.14917602, -634640.06, 200866.19, 0.0, 10.001948, 9.998646 
9.3504626e+2, 2.2474222e+2, -669211.7, -990736.8, 37558.48, -0.036341812, -0.12235852, -664882.7, 72641.02, 0.0, 10.001664, 9.997419 
9.3503505e+2, 2.3474194e+2, -665357.56, -945775.94, -6847.3022, 0.11714576, 0.08960972, -665190.44, -25656.031, 0.0, 10.001044, 9.997358 
9.350215e+2, 2.4474101e+2, -421963.44, -546668.25, -21465.92, 0.06374529, 0.16517186, -418371.84, 123172.7, 0.0, 10.00105, 9.999422 
9.350058e+2, 2.5473917e+2, -215545.05, -395388.88, 62868.504, -0.20392877, 0.0114904065, -195747.33, 247809.03, 0.0, 10.001783, 9.99944 
9.349919e+2, 2.647375e+2, -206205.03, -531121.75, 64331.33, -0.2579316, -0.010297135, -193931.48, 151638.86, 0.00000003612581, 10.00201, 9.997718 
9.3498e+2, 2.747357e+2, -170036.42, -470671.2, 64453.42, -0.07423759, 0.022457235, -156800.88, 90789.29, 0.0000027030533, 10.001619, 9.997645 
9.349671e+2, 2.8473336e+2, -123874.07, -460164.28, 66120.14, -0.020747228, 0.055720683, -111340.875, 38275.254, 0.000022488803, 10.001521, 9.997097 
9.349532e+2, 2.9473042e+2, 1915.6909, -354013.25, 57345.72, -0.10310803, 0.029525891, 10926.845, 62575.72, 0.000095232324, 10.001724, 9.997058 
9.349404e+2, 3.0472782e+2, 114270.74, -144981.28, 45444.703, -0.08407702, 0.010035908, 122006.016, 122006.016, 0.0002574787, 10.0016165, 9.998207 
9.3492895e+2, 3.1472713e+2, 47304.11, -104046.68, 81410.19, 0.09927936, 0.0933619, 82778.99, 82778.99, 0.0005076496, 10.000793, 9.998883 
9.451817e+2, 1.2477408e+2, -1634945.5, -1857586.5, -10301.339, -0.009392258, 0.060254786, -1634469.9, 82745.7, 0.000016753027, 10.00126, 9.998411 
9.4516975e+2, 1.3477258e+2, -1368885.6, -1665936.0, -44648.36, 0.059985418, 0.03404722, -1362319.8, 256912.28, 0.000002343361, 10.00241, 9.9985 
9.4515634e+2, 1.4477073e+2, -1258477.5, -1551060.0, -47748.598, 0.048300255, 0.0034610622, -1250882.3, 270367.03, 0.0000000053592455, 10.002433, 9.9985895 
9.451425e+2, 1.5476945e+2, -1306342.5, -1525980.5, -37049.51, 0.008285799, -0.011986046, -1300261.3, 122996.86, 0.0, 10.001436, 9.998574 
9.451282e+2, 1.6476774e+2, -1232275.5, -1487230.8, -65295.72, -0.03913991, -0.014089653, -1216525.8, 108747.68, 0.0, 10.00149, 9.998133 
9.451131e+2, 1.7476548e+2, -957164.94, -1304984.4, -93267.27, -0.096739955, -0.07258189, -933733.94, 293563.03, 0.0, 10.002717, 9.998118 
9.450995e+2, 1.8476373e+2, -874960.1, -1315586.1, -20013.287, -0.07935729, -0.012288072, -874052.94, 255264.13, 0.0, 10.003045, 9.9972105 
9.450875e+2, 1.9476216e+2, -869979.44, -1267335.5, 12025.548, 0.020711094, 0.09000318, -869615.9, 161721.31, 0.0, 10.002424, 9.99717 
9.450746e+2, 2.0476013e+2, -680704.3, -911262.75, 32643.55, 0.029260386, 0.07993808, -676171.6, 257184.1, 0.0, 10.002121, 9.999094 
9.4506085e+2, 2.1475744e+2, -580441.06, -806276.8, -8139.7217, -0.05539497, -0.12244926, -580148.06, 255225.72, 0.0, 10.002112, 9.9991455 
9.4504803e+2, 2.2475576e+2, -644618.5, -994053.1, -6389.4756, -0.031616293, -0.110408045, -644501.75, 92888.36, 0.0, 10.001902, 9.997283 
9.4503623e+2, 2.3475495e+2, -605873.5, -930786.44, 26638.908, 0.115592785, 0.062695846, -603703.9, 35702.676, 0.0, 10.001517, 9.997231 
9.4502276e+2, 2.4475402e+2, -398367.3, -525737.7, 41330.047, 0.07762497, 0.1401214, -386131.66, 155285.77, 0.0, 10.001166, 9.999509 
9.450076e+2, 2.5475276e+2, -348652.84, -442914.22, -35306.348, -0.14788915, 0.035377458, -336895.2, 106528.58, 0.0, 10.0008, 9.99958 
9.449939e+2, 2.6475152e+2, -359733.94, -584833.56, -79935.17, -0.19552343, 0.038822457, -334236.34, 11197.363, 0.000000027783642, 10.000863, 9.997908 
9.4498175e+2, 2.7474993e+2, -187808.66, -456942.16, -68145.875, -0.04050081, 0.074835874, -171537.52, 75913.69, 0.000002329391, 10.001396, 9.997857 
9.449688e+2, 2.8474757e+2, -111110.53, -430767.34, -6228.671, 0.0053600366, 0.08485594, -110989.21, 38487.305, 0.000023981273, 10.001512, 9.997309 
9.44955e+2, 2.9474428e+2, -78239.27, -365772.47, 22979.512, -0.058061097, 0.0034820577, -76414.34, -24903.605, 0.000106754764, 10.001069, 9.997292 
9.449421e+2, 3.0474177e+2, 83121.61, -95577.445, 48054.43, -0.03402421, -0.04722028, 95224.37, 95224.37, 0.00028782972, 10.001142, 9.998778 
9.4493014e+2, 3.1474045e+2, 200577.66, 16779.979, 5998.071, 0.10228972, -0.08256593, 200773.2, 200773.2, 0.0005617916, 10.001652, 9.999307 
9.551847e+2, 1.2478522e+2, -1624563.0, -1836615.4, 3426.3008, 0.110940404, 0.0058661015, -1624507.6, 92598.19, 0.00002677623, 10.001279, 9.998534 
9.5517147e+2, 1.3478349e+2, -1372109.0, -1649187.4, 5622.77, -0.030200649, -0.05830432, -1371995.0, 247128.67, 0.0000047533053, 10.002325, 9.998642 
9.551575e+2, 1.4478229e+2, -1241310.8, -1498562.0, -97427.55, -0.09868039, -0.051387873, -1208577.5, 312558.0, 0.000000046136613, 10.002353, 9.998995 
9.551438e+2, 1.5478244e+2, -1269402.9, -1459474.6, -64950.125, -0.03163195, 0.035748124, -1249328.6, 173804.36, 0.0, 10.00148, 9.999011 
9.551301e+2, 1.6478127e+2, -1257787.1, -1545862.5, -31483.047, -0.017115243, 0.08517989, -1254386.6, 70757.95, 0.0, 10.001512, 9.997722 
9.5511645e+2, 1.7477837e+2, -992404.9, -1368625.0, -36751.07, -0.06176271, 0.0039062079, -988848.44, 238325.63, 0.0, 10.002676, 9.997703 
9.5510256e+2, 1.847761e+2, -811485.9, -1172294.3, -51380.234, -0.102781065, -0.01683055, -804311.8, 324885.5, 0.0, 10.002989, 9.998225 
9.5508856e+2, 1.9477426e+2, -805908.06, -1119213.0, -2424.3628, -0.13751712, -0.043135885, -805889.3, 225326.58, 0.0, 10.0023575, 9.9982195 
9.550754e+2, 2.0477322e+2, -747315.25, -1027467.3, 20086.441, -0.12767671, 0.029958174, -745882.4, 187343.3, 0.0, 10.002025, 9.998345 
9.550629e+2, 2.147728e+2, -658914.75, -933872.0, 625.01654, -0.07731106, 0.13254268, -658913.3, 176315.2, 0.0, 10.001961, 9.998345 
9.550497e+2, 2.2477104e+2, -583842.5, -837171.0, -30426.715, -0.0716903, 0.12189771, -580239.25, 157005.05, 0.0, 10.00177, 9.998423 
9.550356e+2, 2.3476756e+2, -543287.8, -773204.8, 23608.352, -0.11382856, -0.0857907, -540888.7, 98388.055, 0.0, 10.001395, 9.998375 
9.550223e+2, 2.4476552e+2, -532706.75, -777941.8, 19066.918, -0.10850278, -0.09645422, -531233.2, 10064.525, 0.0, 10.00106, 9.997824 
9.550096e+2, 2.547648e+2, -485992.25, -709873.2, -39383.56, -0.049809366, 0.027061744, -479266.25, -35957.66, 0.0, 10.000721, 9.997784 
9.5499665e+2, 2.647637e+2, -333184.8, -509309.8, -70065.47, -0.025568552, 0.113246895, -308712.1, 36608.758, 0.000000030362223, 10.000782, 9.998463 
9.549833e+2, 2.7476197e+2, -156179.38, -375855.3, -34724.01, -0.045317486, 0.072669335, -150821.27, 96516.5, 0.000002140531, 10.001331, 9.998445 
9.549701e+2, 2.8476053e+2, -50643.03, -288503.16, -31317.846, -0.03543231, 0.09552307, -46588.676, 102762.914, 0.000025889522, 10.001445, 9.998314 
9.549569e+2, 2.9475933e+2, -18360.441, -223868.5, 18053.313, 0.006447927, 0.1186737, -16786.56, 34576.008, 0.000117742304, 10.000998, 9.998297 
9.5494395e+2, 3.0475757e+2, 82954.71, -84666.36, 65372.574, 0.019965157, 0.08930449, 105435.19, 105435.19, 0.00031737162, 10.001091, 9.99888 
9.549302e+2, 3.147543e+2, 199017.11, 26298.16, 57460.906, -0.09956762, -0.15045859, 216386.69, 216386.69, 0.0006187205, 10.0015955, 9.999402 
9.651871e+2, 1.2479827e+2, -1539180.4, -1800478.0, 95512.016, 0.20464253, 0.045975357, -1507990.8, 208987.27, 0.000040530904, 10.001873, 9.998499 
9.6517295e+2, 1.3479574e+2, -1553627.0, -1737517.8, 56178.92, -0.03295175, -0.098703675, -1537822.5, 81179.53, 0.000008656152, 10.001069, 9.998648 
9.6515924e+2, 1.4479445e+2, -1466211.5, -1621650.3, -43012.508, -0.08043129, -0.09292514, -1455103.0, 65912.22, 0.00000019058375, 10.000893, 9.998839 
9.6514606e+2, 1.5479514e+2, -1251673.8, -1469345.3, -82709.19, 0.04031958, 0.06554122, -1223812.6, 199197.73, 0.0, 10.001703, 9.998826 
9.6513236e+2, 1.6479427e+2, -1196174.8, -1472337.1, -15725.317, 0.054183997, 0.1351846, -1195282.1, 129737.37, 0.0, 10.001759, 9.998107 
9.651183e+2, 1.7479141e+2, -1206038.6, -1430636.8, 18618.58, -0.050566193, 0.019720094, -1204505.6, 22541.117, 0.0, 10.001032, 9.998074 
9.651042e+2, 1.8478923e+2, -1094530.0, -1271567.0, 18356.361, -0.12062218, -0.025873108, -1092646.8, 36420.613, 0.0, 10.000878, 9.998568 
9.6509016e+2, 1.9478756e+2, -927178.5, -1141891.6, -3694.5818, -0.1541081, -0.06838709, -927114.94, 103967.84, 0.0, 10.00136, 9.998553 
9.6507704e+2, 2.0478657e+2, -822875.75, -1090438.9, 33904.06, -0.13821058, 0.0039786515, -818646.44, 114445.99, 0.0, 10.001645, 9.998083 
9.650648e+2, 2.1478607e+2, -705923.56, -987481.94, 30271.068, -0.07107733, 0.12652318, -702705.8, 132392.19, 0.0, 10.001785, 9.998052 
9.650515e+2, 2.2478433e+2, -575814.3, -816057.75, -10391.666, -0.06745026, 0.12556078, -575365.7, 161748.2, 0.0, 10.001745, 9.998586 
9.650369e+2, 2.34781e+2, -514318.2, -733313.56, -48623.684, -0.12063481, -0.08742713, -504007.66, 135135.53, 0.0, 10.001482, 9.998605 
9.650234e+2, 2.4477859e+2, -494120.47, -826216.56, -13342.932, -0.123428114, -0.11575269, -493585.25, 47582.223, 0.0, 10.001608, 9.997235 
9.650109e+2, 2.5477713e+2, -315611.38, -694063.9, -2902.672, -0.060406085, -0.0010969655, -315589.13, 127598.2, 0.0, 10.00219, 9.997187 
9.649982e+2, 2.6477584e+2, -129841.93, -394306.63, 7081.457, -0.006211407, 0.08489858, -129652.45, 215550.17, 0.000000012060779, 10.002094, 9.998619 
9.649853e+2, 2.7477434e+2, -165914.78, -360861.25, -13155.321, 0.035662588, 0.051501974, -165031.05, 82185.164, 0.0000023356135, 10.001172, 9.998621 
9.6497184e+2, 2.8477323e+2, -113039.1, -260070.1, -20635.617, 0.04295833, 0.069932275, -110197.83, 39028.08, 0.000028869204, 10.000764, 9.998832 
9.6495795e+2, 2.947724e+2, 3599.753, -158159.27, -34063.566, 0.020964198, 0.07854546, 10480.267, 61712.15, 0.00012890252, 10.000907, 9.998794 
9.64945e+2, 3.0477113e+2, 63246.01, -108554.97, 19606.703, 0.026178107, 0.07828169, 65455.21, 65455.21, 0.00034520676, 10.001011, 9.9987545 
9.649316e+2, 3.147676e+2, 83927.77, -15609.8545, -40506.992, -0.06769781, -0.17309733, 98328.67, 98328.67, 0.0006746772, 10.000755, 9.999509 
9.751883e+2, 1.2481285e+2, -1541001.0, -1804708.8, 28124.342, 0.08333693, 0.15095477, -1538034.9, 178801.0, 0.000058506626, 10.001872, 9.998471 
9.7517407e+2, 1.3480939e+2, -1541265.6, -1724115.3, 27996.213, -0.049497362, -0.09070728, -1537075.1, 81791.63, 0.00001444443, 10.001126, 9.998709 
9.751611e+2, 1.4480746e+2, -1517401.8, -1740354.6, -26200.486, -0.014306112, -0.112322964, -1514364.3, 6522.061, 0.0000005546723, 10.000944, 9.998003 
9.751489e+2, 1.5480766e+2, -1315949.8, -1597777.8, -40282.273, 0.13708396, 0.083825, -1310305.1, 112583.805, 0.0, 10.001682, 9.997954 
9.751348e+2, 1.648068e+2, -1119913.0, -1308381.5, -56251.15, 0.0899545, 0.14203322, -1104400.8, 220497.13, 0.0, 10.001728, 9.999249 
9.751185e+2, 1.748046e+2, -1121160.0, -1258551.3, -3421.053, -0.15024063, -0.024925586, -1121074.9, 105840.21, 0.0, 10.001046, 9.999248 
9.7510433e+2, 1.8480311e+2, -1119200.0, -1317541.4, 25559.021, -0.22299474, -0.044327922, -1115959.3, 12968.118, 0.0, 10.000855, 9.998262 
9.750921e+2, 1.9480214e+2, -961679.9, -1194950.8, 24642.271, -0.11809871, 0.013271108, -959105.1, 71831.99, 0.0, 10.001283, 9.998223 
9.750794e+2, 2.0480028e+2, -827217.1, -1077509.6, 27159.89, -0.086047605, 0.0096323, -824303.9, 108650.664, 0.0, 10.001544, 9.998224 
9.750662e+2, 2.1479724e+2, -713843.9, -976545.0, 42925.855, -0.13301034, -0.1366653, -707007.6, 127974.97, 0.0, 10.001664, 9.998188 
9.750529e+2, 2.247956e+2, -646901.0, -931378.2, -31999.13, -0.10984742, -0.09854093, -643346.06, 93653.16, 0.0, 10.001608, 9.997856 
9.750397e+2, 2.3479521e+2, -592495.4, -855234.2, -50091.125, -0.004930997, 0.057571575, -583269.44, 55736.52, 0.0, 10.001315, 9.997845 
9.750259e+2, 2.4479337e+2, -469619.4, -756125.6, -2657.3735, -0.055515822, 0.09761015, -469594.75, 71430.83, 0.0, 10.001519, 9.997762 
9.750111e+2, 2.5478974e+2, -286394.72, -618144.8, 30695.135, -0.27707392, -0.06180949, -283578.56, 159482.64, 0.0, 10.002119, 9.997744 
9.749983e+2, 2.647877e+2, -155609.48, -431204.47, -36024.668, -0.2281021, -0.06913034, -150978.3, 194102.78, 0.0000000034767167, 10.002026, 9.998397 
9.7498745e+2, 2.7478704e+2, -191635.14, -399510.84, -35855.266, 0.11103597, 0.0070661977, -185624.47, 61462.23, 0.0000028342504, 10.001109, 9.998384 
9.74974e+2, 2.8478572e+2, -117953.71, -261845.53, -24659.816, 0.15404704, 0.014702405, -113844.9, 35253.957, 0.000032313746, 10.000729, 9.998838 
9.7495764e+2, 2.947834e+2, -4541.6494, -162438.2, -12679.255, -0.12876399, -0.12065799, -3529.9746, 47589.234, 0.00013997531, 10.000855, 9.998789 
9.749448e+2, 3.0478215e+2, 17772.256, -183226.56, 3822.0286, -0.115681455, -0.09272807, 17844.906, 17844.906, 0.00037147623, 10.000929, 9.998281 
9.749335e+2, 3.1477994e+2, 57560.87, -37328.645, -14165.656, 0.004742797, -0.1729352, 59630.46, 59630.46, 0.00072750956, 10.000622, 9.999418 
9.851896e+2, 1.2482511e+2, -1557678.3, -1805329.4, -78377.3, 0.049519088, 0.20536457, -1534957.6, 181763.11, 0.00008108169, 10.001735, 9.998534 
9.851763e+2, 1.3482232e+2, -1319761.1, -1617478.1, -113376.71, -0.009336376, 0.03182748, -1281501.6, 337243.22, 0.000022462764, 10.002638, 9.998719 
9.8516375e+2, 1.4482011e+2, -1271960.9, -1602684.4, -117652.125, 0.0835559, -0.028403219, -1234378.0, 286387.7, 0.0000013019285, 10.002535, 9.998184 
9.8515093e+2, 1.5481906e+2, -1311665.8, -1572485.8, -80134.23, 0.17805763, 0.020129764, -1289012.8, 133764.53, 0.0, 10.001607, 9.998161 
9.8513633e+2, 1.6481823e+2, -1171395.9, -1318357.4, -64863.9, 0.103975326, 0.06443617, -1146862.6, 177923.0, 0.0, 10.001314, 9.999377 
9.8512e+2, 1.7481744e+2, -1009083.94, -1187248.8, -108454.1, -0.13810354, 0.027560953, -957816.94, 268974.5, 0.0, 10.001752, 9.9993925 
9.851059e+2, 1.8481642e+2, -957694.3, -1226776.3, -78752.734, -0.19155142, 0.040304836, -936340.25, 192459.31, 0.0, 10.001909, 9.998379 
9.8509413e+2, 1.9481489e+2, -898422.5, -1152999.6, -70662.89, -0.056018602, 0.030407853, -880123.9, 150688.9, 0.0, 10.001668, 9.998328 
9.850815e+2, 2.0481275e+2, -822361.1, -1061779.4, -32128.242, -0.020219112, -0.014606516, -818124.7, 114707.35, 0.0, 10.001499, 9.9983635 
9.8506796e+2, 2.1480966e+2, -746204.1, -975994.0, -35016.543, -0.091845766, -0.1790989, -740986.6, 93873.53, 0.0, 10.00136, 9.998345 
9.8505455e+2, 2.2480813e+2, -681376.4, -968207.4, -68185.7, -0.089732036, -0.13103102, -665992.3, 70883.94, 0.0, 10.001452, 9.997679 
9.8504126e+2, 2.3480803e+2, -537559.5, -849642.7, -63529.516, -0.0005982253, 0.07190357, -525122.7, 113758.67, 0.0, 10.001778, 9.997662 
9.8502755e+2, 2.4480647e+2, -416640.3, -662523.7, 27446.223, -0.038463898, 0.12017651, -413613.94, 127283.54, 0.0, 10.001608, 9.998355 
9.850132e+2, 2.54803e+2, -409873.56, -613150.2, 41229.723, -0.21824628, -0.08091004, -401829.44, 41099.105, 0.0, 10.000988, 9.998324 
9.85e+2, 2.648009e+2, -308588.72, -511216.63, -4497.09, -0.20042609, -0.118217014, -308488.94, 36458.613, 0.00000001775074, 10.001006, 9.998345 
9.849881e+2, 2.7480015e+2, -107673.53, -366628.6, -13220.492, 0.0443502, -0.0491101, -107000.33, 139954.86, 0.000003544514, 10.001721, 9.9983225 
9.8497456e+2, 2.8479868e+2, -6764.862, -244716.5, -283.95963, 0.09427229, -0.030911868, -6764.523, 142204.78, 0.00003520851, 10.001642, 9.998526 
9.8495895e+2, 2.9479632e+2, -55106.094, -221762.44, -33363.19, -0.06470921, -0.1423981, -48675.22, 2316.8948, 0.00014919741, 10.000656, 9.998481 
9.8494625e+2, 3.047952e+2, -27084.783, -212253.06, 41016.96, -0.037755203, -0.08364323, -18405.83, -18405.83, 0.00039500848, 10.000649, 9.998211 
9.849344e+2, 3.1479362e+2, 200022.75, 58145.723, 22354.303, -0.003223093, -0.09253985, 203461.56, 203461.56, 0.0007743357, 10.001457, 9.9996805 
9.9519044e+2, 1.2483544e+2, -1557078.1, -1803116.1, -74878.836, -0.09837845, 0.23202203, -1536081.4, 180547.14, 0.000108580556, 10.001745, 9.998537 
9.9517936e+2, 1.3483469e+2, -1329528.5, -1625392.3, -70892.71, 0.013890654, 0.26308447, -1313418.9, 305216.06, 0.000033028722, 10.002598, 9.998679 
9.9516696e+2, 1.448325e+2, -1191879.5, -1434188.9, -164473.25, 0.12257843, 0.15245686, -1108755.3, 411897.0, 0.0000026281716, 10.002517, 9.999353 
9.9515176e+2, 1.5482947e+2, -1218185.8, -1390914.6, -104805.41, 0.07232917, -0.118525885, -1168745.3, 253929.22, 0.00000000019976186, 10.001653, 9.999391 
9.9513686e+2, 1.6482867e+2, -1228103.3, -1437961.5, -59617.977, -0.0011288156, -0.09133562, -1212349.1, 112332.25, 0.0, 10.001326, 9.998548 
9.9512243e+2, 1.7483e+2, -1071655.8, -1314762.6, -81988.66, -0.09502359, 0.16838484, -1046589.4, 180085.64, 0.0, 10.001739, 9.998524 
9.951088e+2, 1.8482913e+2, -933131.94, -1162783.0, -98175.62, -0.11623412, 0.21775107, -896883.5, 231800.27, 0.0, 10.001854, 9.998847 
9.9509597e+2, 1.9482577e+2, -871653.2, -1081823.8, -70363.69, -0.058589514, -0.023914402, -850271.2, 180439.0, 0.0, 10.0016, 9.998851 
9.950831e+2, 2.048239e+2, -826342.1, -1042587.2, -49961.273, -0.029865963, -0.07611369, -815357.06, 117368.09, 0.0, 10.001384, 9.998551 
9.950701e+2, 2.148234e+2, -753070.5, -957185.25, -31617.764, -0.03301805, -0.00254228, -748285.06, 86445.26, 0.0, 10.00122, 9.998542 
9.950562e+2, 2.24822e+2, -677457.5, -923065.06, -66248.664, -0.0892539, 0.032742817, -660727.56, 76016.37, 0.0, 10.001296, 9.998063 
9.950412e+2, 2.3481947e+2, -531482.1, -802170.44, -41980.25, -0.19978133, -0.045768857, -525121.0, 113647.77, 0.0, 10.001634, 9.9980545 
9.950281e+2, 2.4481787e+2, -389530.66, -583565.5, -7189.488, -0.16374877, -0.05152218, -389264.63, 151518.6, 0.0, 10.001507, 9.998946 
9.950169e+2, 2.54817e+2, -382149.53, -530804.25, 26350.486, 0.028524717, -0.055614706, -377616.84, 65172.223, 0.0, 10.000879, 9.998942 
9.9500316e+2, 2.648157e+2, -315836.53, -508332.7, 12363.532, -0.0020853926, -0.050674293, -315045.72, 29755.025, 0.000000028595345, 10.000931, 9.998402 
9.9498683e+2, 2.7481362e+2, -118502.31, -367837.25, 26654.281, -0.276307, -0.111700185, -115684.766, 131136.39, 0.000003781716, 10.001634, 9.998356 
9.94973e+2, 2.848121e+2, -60912.945, -337700.84, -45920.8, -0.24072921, -0.070953764, -53493.297, 95344.445, 0.000036350866, 10.00156, 9.997924 
9.9496174e+2, 2.948111e+2, -103854.07, -307248.9, -56853.3, 0.12417964, 0.010429603, -89041.14, -38190.543, 0.00015454051, 10.000597, 9.997916 
9.9494934e+2, 3.0481026e+2, -11007.495, -175009.98, 66936.734, 0.186512, 0.110991195, 12843.662, 12843.662, 0.00041140616, 10.000628, 9.998482 
9.949333e+2, 3.148084e+2, 222248.9, 142571.42, 86502.125, -0.3109957, 0.04951419, 277645.38, 277645.38, 0.00080725906, 10.001305, 10.000334 
1.0051924e+3, 1.24846295e+2, -1449667.9, -1715438.0, 61849.17, -0.09262769, 0.14618012, -1435979.5, 280540.06, 0.00014134821, 10.002321, 9.998861 
1.0051817e+3, 1.3484651e+2, -1445959.3, -1642086.6, 63917.555, 0.037492234, 0.24042931, -1426967.6, 191549.8, 0.000046426092, 10.001635, 9.99902 
1.00516945e+3, 1.4484493e+2, -1315791.6, -1464965.0, -21547.51, 0.17435771, 0.16311535, -1312741.5, 207787.95, 0.00000474816, 10.001562, 9.999594 
1.00515366e+3, 1.5484227e+2, -1094551.6, -1306559.6, -61075.07, 0.06510731, -0.09151679, -1078215.9, 344332.88, 0.000000004412824, 10.002404, 9.999609 
1.00513846e+3, 1.648415e+2, -1109291.0, -1407501.0, -26142.238, -0.008166846, -0.060224466, -1107016.6, 217539.61, 0.0, 10.002242, 9.998328 
1.0051243e+3, 1.7484255e+2, -1197130.6, -1399232.8, -19701.832, -0.04215859, 0.19314201, -1195227.9, 31325.578, 0.0, 10.000974, 9.99832 
1.0051106e+3, 1.8484157e+2, -1103005.1, -1216852.4, 24549.537, -0.049956772, 0.22974522, -1097937.0, 30626.58, 0.0, 10.000582, 9.999077 
1.0050976e+3, 1.9483821e+2, -914806.06, -1077301.3, 12880.496, -0.028199151, -0.03460381, -913791.4, 116797.78, 0.0, 10.001206, 9.999064 
1.0050846e+3, 2.0483656e+2, -821633.94, -1052680.4, 19178.69, -0.012276815, -0.07127749, -820052.8, 112549.7, 0.0, 10.001467, 9.998439 
1.0050716e+3, 2.148365e+2, -756847.56, -974231.4, -7696.474, -0.005754511, 0.059108783, -756575.4, 78029.47, 0.0, 10.001257, 9.998406 
1.0050577e+3, 2.2483526e+2, -643088.56, -830991.5, -6983.3047, -0.05788464, 0.083823144, -642829.4, 93786.82, 0.0, 10.00121, 9.998738 
1.00504294e+3, 2.3483251e+2, -521190.94, -724474.9, 17267.688, -0.17341876, -0.084219374, -519734.56, 118905.23, 0.0, 10.001382, 9.998714 
1.00502975e+3, 2.44831e+2, -438744.6, -644184.25, 22519.844, -0.13074976, -0.09722619, -436305.0, 104348.14, 0.0, 10.001318, 9.998623 
1.0050183e+3, 2.5483063e+2, -390362.06, -566176.56, -33858.973, 0.08972926, -0.016034577, -384066.78, 58590.2, 0.0, 10.000972, 9.998646 
1.0050045e+3, 2.6482955e+2, -344192.75, -513084.7, -38181.117, 0.05659805, 0.02327348, -335962.3, 8705.43, 0.000000017098808, 10.000706, 9.998468 
1.004988e+3, 2.7482736e+2, -282092.6, -438964.88, -44100.05, -0.25493747, -0.06238302, -270545.16, -23855.92, 0.000003428396, 10.000476, 9.998419 
1.0049741e+3, 2.8482577e+2, -150740.02, -372901.13, -71985.21, -0.24452622, -0.035041366, -129454.56, 19251.074, 0.00003625069, 10.000905, 9.997997 
1.004963e+3, 2.9482478e+2, 96212.36, -208382.7, -55241.6, 0.13038915, 0.038505092, 105921.54, 156639.36, 0.00015742959, 10.001934, 9.997961 
1.0049503e+3, 3.048236e+2, 79382.76, -126001.95, 66800.9, 0.19943379, 0.10622835, 99197.875, 99197.875, 0.0004215928, 10.00123, 9.998531 
1.0049337e+3, 3.1482202e+2, -167124.63, -32305.232, 30079.29, -0.2505377, 0.06727661, -25898.732, -25898.732, 0.0008275706, 9.99856, 10.0004635 
1.0151949e+3, 1.2485763e+2, -1400051.9, -1611314.9, -7421.037, -0.12667948, -0.0527, -1399791.5, 316603.72, 0.0001798155, 10.002314, 9.999576 
1.0151827e+3, 1.3485786e+2, -1391093.0, -1539623.5, 42552.555, -0.03916346, -0.02938506, -1379766.0, 238626.83, 0.000062927356, 10.001674, 9.999703 
1.0151709e+3, 1.4485747e+2, -1368477.3, -1573183.4, -7830.6333, 0.13309899, 0.011383658, -1368178.1, 152219.64, 0.000007860604, 10.00156, 9.998849 
1.0151563e+3, 1.548574e+2, -1156137.3, -1424353.8, -20268.97, 0.06815908, 0.095285974, -1154614.1, 267787.0, 0.000000028517778, 10.002368, 9.998814 
1.015141e+3, 1.6485669e+2, -1080628.4, -1345761.8, -84432.73, -0.0042940145, 0.15165101, -1056023.9, 268386.25, 0.0, 10.002229, 9.998758 
1.0151252e+3, 1.7485517e+2, -1163271.0, -1334496.4, -58838.953, -0.06111635, 0.10307574, -1145001.4, 81424.99, 0.0, 10.000992, 9.998757 
1.0151111e+3, 1.848538e+2, -1107993.4, -1223140.9, 35910.004, -0.07624986, 0.08052465, -1097712.4, 30726.127, 0.0, 10.000564, 9.999043 
1.01509884e+3, 1.9485226e+2, -928595.5, -1088684.6, 45201.496, -0.05183509, 0.0013384955, -916714.56, 113734.79, 0.0, 10.001129, 9.9990225 
1.0150858e+3, 2.0485072e+2, -868109.2, -1122036.4, 749.27484, -0.05938187, -0.0012672861, -868107.0, 64356.81, 0.0, 10.001353, 9.998016 
1.0150721e+3, 2.1484898e+2, -802824.2, -1042865.56, -8062.5635, -0.09702078, 0.005476264, -802553.7, 31930.168, 0.0, 10.001144, 9.997988 
1.01505876e+3, 2.248479e+2, -601189.6, -708604.1, -12193.894, -0.08292281, 0.0210945, -599822.75, 136670.27, 0.0, 10.0010605, 9.999648 
1.0150461e+3, 2.3484723e+2, -474230.34, -596553.2, 32812.277, -0.01479834, -0.034975182, -465984.53, 172508.8, 0.0, 10.001252, 9.999652 
1.0150322e+3, 2.44846e+2, -543987.25, -830854.8, -1763.3286, -0.02781585, -0.0066423505, -543976.44, -3471.0334, 0.0, 10.001185, 9.997404 
1.01501726e+3, 2.5484398e+2, -492437.25, -757366.2, -37002.33, -0.12920283, 0.03355113, -487366.25, -44834.27, 0.0, 10.000884, 9.997376 
1.0150037e+3, 2.648425e+2, -347872.97, -505938.34, -54934.996, -0.11236425, 0.0941756, -330655.88, 13893.557, 0.000000011022683, 10.000639, 9.998551 
1.01499155e+3, 2.7484137e+2, -282987.1, -421679.97, -38427.05, 0.019994874, 0.102715254, -273051.97, -26492.889, 0.0000031084232, 10.000397, 9.998573 
1.0149777e+3, 2.8483978e+2, -109028.77, -275116.1, -43025.3, 0.0060135205, 0.085461855, -98544.76, 50027.57, 0.000035475467, 10.000859, 9.998688 
1.0149622e+3, 2.9483753e+2, 125668.93, -115385.76, -2236.2766, -0.1676474, -0.03819938, 125689.67, 176281.23, 0.00015859005, 10.001814, 9.998649 
1.0149486e+3, 3.0483535e+2, 54828.734, -168378.28, -38217.086, -0.11148849, -0.08852542, 61190.85, 61190.85, 0.00042792913, 10.001179, 9.998273 
1.0149351e+3, 3.148343e+2, -214416.0, -91054.68, -33067.82, -0.017952418, -0.05452252, -82749.74, -82749.74, 0.00084075227, 9.998399, 10.0001335 
1.025197e+3, 1.248699e+2, -1552462.5, -1711381.4, -713.6904, -0.082881846, -0.16323362, -1552459.4, 163807.28, 0.00022439056, 10.001383, 9.999344 
1.0251845e+3, 1.348699e+2, -1382270.8, -1569632.8, -45458.742, -0.037268057, -0.12720002, -1371823.8, 246445.69, 0.0000828242, 10.001881, 9.999408 
1.0251725e+3, 1.4486976e+2, -1349717.3, -1587018.8, -79799.97, 0.13992254, -0.037669796, -1325378.4, 194896.81, 0.000012107546, 10.001776, 9.998654 
1.0251577e+3, 1.5487055e+2, -1338158.8, -1534519.6, -71055.52, 0.04544704, 0.14879198, -1315143.9, 107129.45, 0.00000009714164, 10.001201, 9.998621 
1.0251423e+3, 1.6486992e+2, -1214152.0, -1355366.8, -105238.57, -0.027345307, 0.1978035, -1158029.1, 166252.38, 0.0, 10.001094, 9.999229 
1.0251266e+3, 1.748677e+2, -1033511.56, -1213564.0, -100144.84, -0.050611448, 0.031668458, -988876.3, 237424.47, 0.0, 10.001649, 9.999262 
1.02511264e+3, 1.8486643e+2, -946063.9, -1176549.4, 24050.88, -0.036736522, 0.0054384056, -943580.94, 184730.95, 0.0, 10.001796, 9.998776 
1.0251006e+3, 1.9486584e+2, -897206.75, -1104040.5, -785.49915, 0.0015360911, 0.05027101, -897203.75, 133113.33, 0.0, 10.001469, 9.998759 
1.0250874e+3, 2.0486458e+2, -871048.06, -1076590.6, -18350.658, -0.012156628, 0.06934882, -869422.6, 62906.86, 0.0, 10.001146, 9.998429 
1.0250732e+3, 2.148624e+2, -815066.3, -1002864.7, 12691.019, -0.072157204, -0.006777637, -814212.56, 20138.73, 0.0, 10.000875, 9.998393 
1.02506e+3, 2.248613e+2, -677236.0, -772948.8, 24760.979, -0.05518639, -0.0017478495, -671209.7, 65150.957, 0.0, 10.000658, 9.999401 
1.0250474e+3, 2.3486112e+2, -621637.4, -695839.1, -38720.934, 0.04230583, 0.018986044, -605111.9, 33246.957, 0.0, 10.000376, 9.9993925 
1.02503344e+3, 2.4485998e+2, -606717.5, -834035.94, -36611.336, 0.006562992, 0.05758184, -600966.44, -60595.75, 0.0, 10.000647, 9.997635 
1.02501795e+3, 2.5485757e+2, -397033.6, -688731.0, 15166.538, -0.17441484, 0.035752032, -396247.13, 46152.742, 0.0, 10.001438, 9.9975815 
1.0250045e+3, 2.64856e+2, -193533.63, -406167.72, 56610.67, -0.13703042, 0.068482585, -179401.16, 165015.72, 0.00000001218603, 10.001587, 9.998783 
1.0249934e+3, 2.7485514e+2, -177982.86, -342402.16, 60054.996, 0.1421727, 0.07844258, -158383.72, 88039.27, 0.0000027111198, 10.000999, 9.998827 
1.02497965e+3, 2.848538e+2, -139906.27, -276395.56, 87370.875, 0.1236501, 0.06772321, -97286.125, 51147.34, 0.00003356273, 10.000607, 9.998791 
1.02496274e+3, 2.9485163e+2, -74427.17, -202615.19, 55010.582, -0.21116377, -0.05094673, -54056.95, -3605.085, 0.00015687123, 10.000402, 9.998727 
1.0249486e+3, 3.0484933e+2, -68488.75, -231813.2, -33438.15, -0.1780656, -0.11936313, -61907.965, -61907.965, 0.00042992222, 10.00038, 9.998202 
1.0249357e+3, 3.1484854e+2, 58846.9, 23857.623, -53699.785, 0.11193509, -0.048035882, 97829.945, 97829.945, 0.0008482756, 10.000345, 9.999979 
1.03519835e+3, 1.2488305e+2, -1624816.3, -1877880.0, -35020.11, -0.15167852, -0.1928093, -1620059.5, 96074.35, 0.00027553758, 10.00145, 9.99817 
1.0351865e+3, 1.3488273e+2, -1475297.6, -1761247.6, -18562.54, -0.043383643, -0.059245795, -1474097.6, 144048.66, 0.000106410545, 10.001877, 9.998096 
1.0351742e+3, 1.4488193e+2, -1321191.5, -1531780.6, -112253.02, 0.09538258, 0.014272066, -1272578.0, 247582.42, 0.000017580353, 10.001789, 9.999029 
1.0351578e+3, 1.5488183e+2, -1306166.6, -1472150.9, -82698.63, -0.09239304, 0.07159655, -1271997.5, 150166.9, 0.00000023822265, 10.001212, 9.999046 
1.0351423e+3, 1.6488133e+2, -1182481.4, -1283839.4, -97453.01, -0.16671577, 0.08616902, -1123317.5, 200851.47, 0.0, 10.001076, 9.999725 
1.0351281e+3, 1.7488018e+2, -1004154.9, -1146124.6, -69009.3, -0.092282645, -0.023070738, -976139.06, 250037.23, 0.0, 10.001624, 9.999735 
1.0351149e+3, 1.8487947e+2, -983828.9, -1246274.0, 789.6794, -0.021532727, 0.0080175735, -983826.5, 144356.63, 0.0, 10.001759, 9.998319 
1.0351027e+3, 1.94879e+2, -939366.6, -1178084.1, -6026.198, 0.042801656, 0.109549515, -939214.6, 90977.305, 0.0, 10.001407, 9.998284 
1.03508934e+3, 2.0487818e+2, -805441.5, -914511.44, -39527.664, 0.04298354, 0.1395592, -792622.94, 139576.3, 0.0, 10.001034, 9.999595 
1.0350748e+3, 2.148767e+2, -743140.1, -833295.1, 13761.366, -0.015471618, 0.011706452, -741086.4, 93121.42, 0.0, 10.000782, 9.999602 
1.03506066e+3, 2.2487538e+2, -797118.75, -988610.4, 3873.1277, -0.059375133, 0.004135893, -797040.44, -60820.523, 0.0, 10.00052, 9.997986 
1.03504665e+3, 2.348741e+2, -738026.06, -911278.44, -39140.184, -0.09147345, 0.058565013, -729594.1, -91357.18, 0.0, 10.000264, 9.997965 
1.0350331e+3, 2.4487284e+2, -515840.84, -613007.56, -15072.245, -0.11706933, 0.079932824, -513556.6, 26693.242, 0.0, 10.000511, 9.999218 
1.0350199e+3, 2.5487143e+2, -295666.78, -455431.56, 57610.71, -0.13654761, -0.007110033, -277059.63, 165200.66, 0.0, 10.001345, 9.999228 
1.0350067e+3, 2.6487017e+2, -177412.86, -355316.7, 25436.266, -0.098330535, -0.04689745, -173847.5, 170421.72, 0.00000000560088, 10.001515, 9.999165 
1.03499316e+3, 2.748688e+2, -171042.6, -299470.7, 50219.332, 0.0016344009, -0.12575458, -153737.17, 92542.484, 0.0000022721786, 10.000891, 9.999167 
1.0349792e+3, 2.8486782e+2, -186112.97, -357917.28, 69861.64, 0.007475554, -0.08658565, -161291.02, -13002.252, 0.000031159278, 10.000542, 9.998264 
1.0349646e+3, 2.9486734e+2, -124217.6, -282824.44, 64482.09, -0.10060915, 0.013612339, -101310.586, -51013.883, 0.00015252481, 10.000312, 9.998217 
1.0349502e+3, 3.048656e+2, -75655.89, -241188.0, -40430.547, -0.087413244, 0.030576983, -66308.71, -66308.71, 0.00042681763, 10.000351, 9.998153 
1.03493445e+3, 3.1486508e+2, 26449.246, 9146.797, -21581.664, -0.09347175, 0.13034287, 41049.086, 41049.086, 0.00084848254, 10.000153, 9.999954 
1.04520164e+3, 1.24897175e+2, -1448382.8, -1794285.4, -21532.63, -0.017493052, -0.14860374, -1447047.5, 268950.22, 0.0003338259, 10.002651, 9.998166 
1.0451882e+3, 1.3489686e+2, -1436751.5, -1753664.0, 73692.19, -0.06542748, -0.00898238, -1420453.9, 197556.1, 0.00013404706, 10.002174, 9.998 
1.04517505e+3, 1.4489575e+2, -1308428.9, -1476711.3, 43967.633, 0.023246026, 0.01695855, -1297633.9, 222391.31, 0.000024406929, 10.001678, 9.999459 
1.0451588e+3, 1.5489516e+2, -1244711.3, -1387920.0, 47381.844, -0.11143677, -0.017081589, -1230454.0, 191576.27, 0.0000004785213, 10.001422, 9.999518 
1.0451438e+3, 1.6489458e+2, -1129593.8, -1314644.4, 61034.3, -0.14579412, -0.008282, -1111276.3, 212758.97, 0.0, 10.001674, 9.999229 
1.04513034e+3, 1.7489375e+2, -916539.3, -1160666.4, 103.95584, -0.058591325, -0.034775052, -916539.3, 309503.28, 0.0, 10.002466, 9.999229 
1.0451171e+3, 1.8489306e+2, -877343.7, -1164930.4, 30338.432, 0.008491632, 0.010827546, -874178.0, 253872.1, 0.0, 10.002374, 9.998576 
1.0451041e+3, 1.9489235e+2, -919613.7, -1135564.8, 55297.22, 0.05293066, 0.06285436, -906277.7, 123781.89, 0.0, 10.001417, 9.998565 
1.04509056e+3, 2.0489162e+2, -766585.2, -891731.06, 59084.605, 0.062430646, 0.08503174, -743097.9, 188967.33, 0.0, 10.001273, 9.999639 
1.0450768e+3, 2.1489055e+2, -579607.56, -749250.94, 8385.452, 0.043732636, -0.004910441, -579194.06, 254875.81, 0.0, 10.0018835, 9.999648 
1.0450624e+3, 2.2488922e+2, -590284.9, -911355.56, -1491.6377, -0.00890945, -0.005871626, -590277.94, 145804.78, 0.0, 10.002023, 9.997797 
1.04504734e+3, 2.3488744e+2, -549404.3, -847077.2, 26511.012, -0.10319119, 0.018308625, -547061.6, 91044.445, 0.0, 10.001654, 9.9977455 
1.0450337e+3, 2.4488625e+2, -390141.0, -491266.16, 92762.71, -0.12503146, 0.030094018, -335055.6, 205062.28, 0.0, 10.001096, 9.999781 
1.04502134e+3, 2.548855e+2, -402963.13, -443573.0, 66150.695, -0.06802066, -0.047209438, -354071.22, 88048.26, 0.0, 10.000322, 9.999805 
1.0450081e+3, 2.648846e+2, -363064.53, -444381.94, -5315.235, -0.035499837, -0.08434814, -362718.56, -18593.793, 0.0000000009945924, 10.000239, 9.99917 
1.0449936e+3, 2.74883e+2, -180675.52, -311424.2, -30550.064, -0.026075013, -0.17549263, -173889.53, 72248.74, 0.0000020282196, 10.000826, 9.999131 
1.0449794e+3, 2.8488234e+2, -120106.32, -273176.66, 19394.186, -0.033235215, -0.13180551, -117687.28, 30457.31, 0.00002862002, 10.000752, 9.998754 
1.0449651e+3, 2.948825e+2, -141043.45, -234429.95, 64647.887, -0.056299057, -0.014156201, -107989.55, -57845.63, 0.00014590684, 9.999937, 9.998737 
1.0449507e+3, 3.0488095e+2, -122185.43, -251953.22, 58530.797, -0.03502782, -0.014233852, -99686.414, -99686.414, 0.0004168189, 9.999986, 9.998251 
1.0449349e+3, 3.1488022e+2, 120293.62, 44624.73, 48363.504, -0.069676, 0.064135954, 143863.36, 143863.36, 0.0008363063, 10.000787, 9.999921 
1.05520606e+3, 1.2491225e+2, -1368451.3, -1620135.4, -95694.73, 0.10841386, -0.04641392, -1336199.4, 379658.78, 0.00039971265, 10.002626, 9.999368 
1.0551893e+3, 1.3491227e+2, -1365740.6, -1597915.5, 64344.65, -0.19856498, 0.021339042, -1349100.9, 268759.72, 0.00016604259, 10.002145, 9.999083 
1.0551751e+3, 1.4491127e+2, -1274111.4, -1410791.9, 18894.232, -0.17741528, -0.019821739, -1271547.6, 248321.5, 0.000032768716, 10.001695, 9.999906 
1.0551606e+3, 1.5491046e+2, -1214348.8, -1330943.6, 46629.363, -0.10159688, -0.1198004, -1197994.4, 223877.39, 0.0000008393984, 10.001437, 9.9999075 
1.05514646e+3, 1.6490957e+2, -1232034.4, -1518399.1, 78885.734, -0.06650769, -0.09058224, -1211741.5, 112139.72, 0.0, 10.001643, 9.997841 
1.0551332e+3, 1.749084e+2, -1019943.8, -1368980.4, 37921.05, -0.039407324, -0.011545363, -1015871.44, 210028.42, 0.0, 10.00244, 9.997811 
1.05511926e+3, 1.8490724e+2, -821667.8, -1034751.8, -16097.056, -0.0343546, 0.013835617, -820458.7, 307453.56, 0.0, 10.002313, 9.999498 
1.0551046e+3, 1.9490588e+2, -862908.6, -1002969.9, 29510.967, -0.0580541, -0.09614154, -856944.6, 172975.7, 0.0, 10.001351, 9.999507 
1.05509095e+3, 2.0490493e+2, -857158.8, -1054806.3, 70289.46, -0.038802184, -0.09135068, -834711.2, 97216.23, 0.0, 10.001167, 9.9985695 
1.0550786e+3, 2.1490408e+2, -674349.1, -920097.8, 40376.94, 0.028442731, -0.051163945, -667885.1, 166051.25, 0.0, 10.001767, 9.998533 
1.0550647e+3, 2.2490291e+2, -544843.4, -782853.06, -24481.898, 0.013081302, -0.026162053, -542351.25, 193597.08, 0.0, 10.001876, 9.998747 
1.0550493e+3, 2.3490119e+2, -496037.3, -708745.44, 22968.635, -0.08511684, -0.097469546, -493585.38, 144380.27, 0.0, 10.001535, 9.998748 
1.0550351e+3, 2.4490026e+2, -439312.53, -567824.7, 52576.895, -0.111583464, -0.08761564, -420543.47, 119430.82, 0.0, 10.000984, 9.999309 
1.05502196e+3, 2.5489992e+2, -451261.66, -521884.63, 44428.85, -0.060735945, -0.076013446, -429820.84, 12155.532, 0.0, 10.000228, 9.999311 
1.05500855e+3, 2.6489922e+2, -406118.4, -512391.06, 7945.7275, -0.030093253, -0.0423229, -405527.63, -61544.117, 0.000000000012280949, 10.000151, 9.998742 
1.0549946e+3, 2.74898e+2, -221716.28, -375559.9, 6808.345, -0.030799903, -0.063944824, -221415.56, 24582.13, 0.0000016155456, 10.000742, 9.998727 
1.05497986e+3, 2.848975e+2, -23291.496, -61589.547, -20432.324, -0.08568103, -0.055935975, -14437.574, 133561.81, 0.000025303238, 10.000705, 10.000232 
1.054964e+3, 2.948974e+2, -53744.023, -26949.006, 48852.168, -0.18600397, -0.11531625, 10309.459, 60300.82, 0.000137169, 9.999834, 10.000211 
1.05495006e+3, 3.0489537e+2, -115173.82, -225324.66, 84677.67, -0.12511948, -0.24325213, -69236.32, -69236.32, 0.0004008363, 9.9999275, 9.998465 
1.0549369e+3, 3.1489423e+2, 101215.164, 46576.973, 113252.53, -0.007662695, -0.23211332, 190397.02, 190397.02, 0.00081260194, 10.000624, 10.00001 
1.065209e+3, 1.2492835e+2, -1493999.4, -1644048.5, -25855.406, 0.20145749, 0.04451561, -1489669.1, 226036.84, 0.00047318285, 10.001611, 9.999697 
1.06519155e+3, 1.3492803e+2, -1445272.9, -1601037.9, 63682.516, -0.15097858, 0.054520775, -1422551.5, 195157.1, 0.00020250746, 10.001464, 9.999387 
1.0651765e+3, 1.4492701e+2, -1324287.8, -1466585.1, 3132.2388, -0.18307143, 0.010188815, -1324218.8, 195497.36, 0.000042863663, 10.00148, 9.999631 
1.0651626e+3, 1.5492614e+2, -1176200.6, -1340177.0, -45588.453, -0.05490223, -0.07113291, -1164378.6, 257341.63, 0.0000013547858, 10.00182, 9.999655 
1.0651484e+3, 1.6492516e+2, -1219454.0, -1487806.9, 45794.652, -0.026048042, -0.050336212, -1211854.4, 111875.52, 0.0, 10.001607, 9.998078 
1.0651346e+3, 1.74924e+2, -1236153.0, -1443442.8, 104152.87, -0.057571698, 0.0064955307, -1192862.3, 32884.13, 0.0, 10.000822, 9.998088 
1.0651206e+3, 1.8492274e+2, -1027404.25, -1138554.0, 99109.625, -0.051884193, 0.010123139, -969351.3, 158406.84, 0.0, 10.000904, 9.999468 
1.06510654e+3, 1.9492114e+2, -784656.4, -971688.1, 52982.695, -0.020140251, -0.11987533, -770690.2, 259077.52, 0.0, 10.001896, 9.999465 
1.06509276e+3, 2.0491986e+2, -781837.25, -1057733.6, 92372.79, -0.0028212974, -0.12788394, -753766.06, 178012.05, 0.0, 10.001857, 9.998214 
1.0650796e+3, 2.1491875e+2, -842846.06, -1038538.06, 94736.695, 0.008292408, -0.07805026, -804497.8, 29293.203, 0.0, 10.000782, 9.99819 
1.0650658e+3, 2.2491752e+2, -717203.56, -846436.0, 65274.566, 0.00075843604, -0.05220218, -689972.0, 45831.98, 0.0, 10.000604, 9.998927 
1.0650514e+3, 2.349159e+2, -516931.2, -696691.6, 33066.535, -0.020759722, -0.12838435, -511041.63, 126777.59, 0.0, 10.001298, 9.998946 
1.0650369e+3, 2.449152e+2, -418543.97, -598754.06, 20109.629, -0.03738198, -0.08723877, -416327.2, 123499.78, 0.0, 10.001312, 9.998936 
1.0650224e+3, 2.5491515e+2, -417755.22, -552254.06, -3208.4382, -0.05442326, -0.00533236, -417678.72, 24151.225, 0.0, 10.000657, 9.998901 
1.06500864e+3, 2.649145e+2, -334839.44, -464910.4, 49215.54, -0.04617249, 0.048277274, -318316.47, 25521.584, 0.0, 10.000573, 9.998866 
1.0649956e+3, 2.7491313e+2, -179514.53, -336411.72, 62535.48, -0.012180651, -0.00092650816, -157639.31, 88213.32, 0.00000091217555, 10.000953, 9.99889 
1.06498085e+3, 2.8491253e+2, -24160.336, -37355.17, -24253.08, -0.041656617, -0.021226814, -5623.3584, 142230.16, 0.000020741376, 10.000603, 10.000444 
1.0649642e+3, 2.949123e+2, -83987.234, -21277.436, -76014.516, -0.1255019, -0.11403345, 29595.01, 79439.69, 0.00012515363, 9.999522, 10.000405 
1.0649501e+3, 3.0490997e+2, -153431.25, -256740.42, 1790.6667, -0.0873022, -0.2782156, -153400.22, -153400.22, 0.00037813088, 9.99971, 9.998348 
1.06493786e+3, 3.1490844e+2, 153985.95, 61546.266, -36621.566, 0.02393045, -0.29784772, 166735.7, 166735.7, 0.0007771597, 10.001022, 9.999908 
1.0752098e+3, 1.24945186e+2, -1531833.0, -1713835.5, -78176.7, 0.070815824, 0.1033532, -1502864.1, 212680.02, 0.00055371417, 10.001596, 9.999212 
1.0751943e+3, 1.3494419e+2, -1483636.4, -1675320.1, 61480.83, -0.030058017, 0.09169799, -1465611.9, 151942.17, 0.00024334127, 10.001459, 9.998869 
1.07517906e+3, 1.4494303e+2, -1381634.4, -1598017.1, -807.266, -0.10277994, 0.10593516, -1381631.4, 137934.5, 0.00005483326, 10.001518, 9.998718 
1.0751645e+3, 1.5494211e+2, -1237114.5, -1471608.9, -22777.525, -0.067764424, 0.11204696, -1234922.5, 186653.19, 0.000002073113, 10.001833, 9.998751 
1.07514955e+3, 1.6494136e+2, -1095126.3, -1223799.0, 4818.0557, -0.10782479, 0.11129995, -1094946.1, 228634.22, 0.0000000000166348, 10.001587, 9.999896 
1.0751343e+3, 1.7494054e+2, -1105890.0, -1175464.4, 82729.305, -0.18942367, 0.014309973, -1050931.5, 174650.6, 0.0, 10.00083, 9.999921 
1.07512094e+3, 1.8493956e+2, -1101704.8, -1279573.8, 123172.32, -0.12698552, -0.0010750284, -1038715.7, 88872.64, 0.0, 10.000856, 9.99852 
1.0751096e+3, 1.9493814e+2, -864869.25, -1116493.5, 98225.06, 0.07697226, -0.014303646, -831066.7, 198534.94, 0.0, 10.001812, 9.9985075 
1.0750957e+3, 2.049365e+2, -776637.5, -1022511.56, 38716.72, 0.08649481, -0.022583878, -770685.06, 160931.4, 0.0, 10.00175, 9.998509 
1.07507944e+3, 2.1493448e+2, -837989.56, -998636.9, 63679.086, -0.101933904, -0.0997703, -815809.94, 17824.695, 0.0, 10.000651, 9.998527 
1.0750653e+3, 2.2493294e+2, -779061.75, -940671.6, 81619.375, -0.12625699, -0.091521055, -745013.94, -9363.572, 0.0, 10.00046, 9.998351 
1.0750532e+3, 2.3493168e+2, -578472.75, -791401.4, 70694.6, 0.016139954, -0.07500589, -557138.9, 80526.984, 0.0, 10.001161, 9.9983635 
1.0750389e+3, 2.4493115e+2, -463369.16, -662161.6, -11290.163, 0.016523764, 0.03126081, -462730.0, 76945.195, 0.0, 10.001187, 9.998558 
1.07502244e+3, 2.5493115e+2, -452352.0, -606417.4, -14553.144, -0.13294032, 0.15269902, -450989.34, -9308.89, 0.0, 10.000582, 9.998563 
1.0750083e+3, 2.6493037e+2, -305730.97, -381193.3, 53106.023, -0.15940276, 0.17807736, -278316.97, 65371.664, 0.000000000031670343, 10.000475, 9.999492 
1.0749964e+3, 2.7492854e+2, -150146.72, -254359.31, 89870.26, -0.06128727, 0.019183988, -98369.766, 147332.56, 0.00000057346807, 10.000864, 9.9995 
1.07498206e+3, 2.849276e+2, -105783.54, -193597.92, -75529.35, 0.0045873546, -0.009052193, -62326.41, 85379.72, 0.000016659129, 10.000544, 9.999398 
1.07496545e+3, 2.9492745e+2, -167178.0, -174073.64, -98538.38, 0.026045434, 0.007183235, -72027.14, -22325.38, 0.000111912384, 9.999442, 9.999392 
1.0749508e+3, 3.049249e+2, -196137.67, -339274.7, 47564.426, -0.02102754, -0.10223351, -181773.48, -181773.48, 0.0003521945, 9.99968, 9.997801 
1.0749375e+3, 3.1492287e+2, 92907.38, -36202.85, 46845.227, -0.17447698, -0.1162463, 108113.4, 108113.4, 0.0007370222, 10.000894, 9.999306 
1.0852112e+3, 1.2496136e+2, -1463344.4, -1730793.9, -51945.813, 0.029475205, 0.10871282, -1453609.5, 261774.64, 0.00064071716, 10.002256, 9.998794 
1.0851972e+3, 1.3495977e+2, -1325324.1, -1644694.0, 62544.62, 0.05126937, 0.07722295, -1313512.4, 303888.6, 0.00028839763, 10.002715, 9.998489 
1.08518116e+3, 1.4495865e+2, -1264385.0, -1548853.6, 44551.15, -0.09005885, 0.11843397, -1257571.0, 261842.9, 0.00006873226, 10.002391, 9.998614 
1.0851661e+3, 1.5495798e+2, -1293029.3, -1513771.0, 46008.973, -0.06416052, 0.16269843, -1283823.5, 137599.33, 0.0000030594845, 10.001527, 9.998604 
1.0851511e+3, 1.6495715e+2, -1114976.6, -1213402.6, 70698.695, -0.090383686, 0.15209293, -1078048.9, 245378.58, 0.000000000186287, 10.001371, 10.000065 
1.0851361e+3, 1.7495598e+2, -925416.56, -1070506.5, 4532.1953, -0.14783327, 0.004306953, -925275.1, 300154.5, 0.0, 10.002002, 10.000071 
1.0851228e+3, 1.8495475e+2, -965772.56, -1273085.5, 28868.338, -0.0820996, -0.016690673, -963084.25, 164353.97, 0.0, 10.002034, 9.998006 
1.0851114e+3, 1.949533e+2, -965613.1, -1222293.5, 16220.569, 0.105867945, 0.018132258, -964592.2, 64862.97, 0.0, 10.001369, 9.997997 
1.0850973e+3, 2.0495172e+2, -836859.1, -1019015.7, -26008.11, 0.10472722, 0.025682332, -833218.5, 98252.05, 0.0, 10.0012, 9.998794 
1.0850806e+3, 2.149497e+2, -689884.44, -899924.2, -29526.395, -0.091439374, -0.07886039, -685812.7, 147674.89, 0.0, 10.001544, 9.998775 
1.0850659e+3, 2.2494835e+2, -652177.75, -849143.6, 46198.934, -0.14419904, -0.07655455, -641880.06, 93620.49, 0.0, 10.001218, 9.998609 
1.0850532e+3, 2.3494746e+2, -690581.2, -817948.0, 72007.45, -0.05141728, -0.0440297, -658136.25, -20624.691, 0.0, 10.000283, 9.998601 
1.0850393e+3, 2.4494687e+2, -595835.3, -745364.6, 60251.13, -0.01903581, 0.051346272, -574579.4, -35058.27, 0.0, 10.000349, 9.998402 
1.0850242e+3, 2.5494635e+2, -354754.1, -578365.5, 53502.023, -0.048336025, 0.1404572, -342612.3, 98918.67, 0.0, 10.001333, 9.998402 
1.0850098e+3, 2.6494533e+2, -234050.84, -319403.06, 98227.24, -0.06857932, 0.13891357, -169629.61, 173910.89, 0.000000020287489, 10.000855, 9.999724 
1.08499594e+3, 2.7494347e+2, -423098.88, -362905.34, 78360.05, -0.077274285, -0.043716937, -309061.0, -63508.21, 0.0000009638229, 9.998885, 9.999705 
1.0849818e+3, 2.8494263e+2, -329286.63, -372340.13, -1801.3708, -0.009435757, -0.04601366, -329211.38, -181653.66, 0.00001551447, 9.9993105, 9.998763 
1.08496726e+3, 2.949426e+2, 166989.14, -81638.305, -24487.008, 0.13885294, 0.046856567, 169377.89, 218934.81, 0.000103287646, 10.002032, 9.998778 
1.0849524e+3, 3.0494e+2, 124178.125, -177931.7, 118259.27, 0.07861347, -0.042019386, 164963.88, 164963.88, 0.00033301808, 10.001879, 9.99785 
1.0849372e+3, 3.1493783e+2, -234238.98, -192092.9, 116176.805, -0.16978957, -0.06473681, -95093.414, -95093.414, 0.00070935563, 9.998668, 9.999302 
1.0952129e+3, 1.2497688e+2, -1484436.9, -1773297.3, -44118.367, -0.06711824, 0.04934269, -1477848.8, 237377.56, 0.000734217, 10.00225, 9.998506 
1.0951996e+3, 1.3497514e+2, -1339092.9, -1670500.9, 84077.64, 0.004071112, 0.014941486, -1318982.9, 298263.8, 0.00033773432, 10.002698, 9.9983225 
1.0951822e+3, 1.4497405e+2, -1235952.4, -1480305.5, -1861.7146, -0.24173068, 0.047652952, -1235938.3, 283320.56, 0.0000845864, 10.002355, 9.9991 
1.09516725e+3, 1.5497372e+2, -1263047.4, -1443269.5, 23346.59, -0.1330058, 0.07573496, -1260072.1, 161190.33, 0.0000043925156, 10.001502, 9.999095 
1.09515294e+3, 1.6497256e+2, -1212954.9, -1421504.0, 79657.09, -0.06483166, 0.07980333, -1186010.4, 137260.98, 0.0000000006358386, 10.001385, 9.998634 
1.0951397e+3, 1.7497028e+2, -1023614.75, -1279495.3, 38325.18, -0.019725082, -0.03354901, -1017997.8, 207291.13, 0.0, 10.002013, 9.998634 
1.0951258e+3, 1.8496844e+2, -978877.6, -1287603.1, -6866.6025, -0.0076167863, -0.04104817, -978725.0, 148581.55, 0.0, 10.0019865, 9.997924 
1.0951117e+3, 1.9496676e+2, -983729.5, -1237821.5, 3502.7012, -0.016442286, -0.022325773, -983681.25, 45645.22, 0.0, 10.001278, 9.9979315 
1.09509744e+3, 2.0496552e+2, -838045.06, -998657.5, -24049.496, -0.026623799, 0.010332886, -834521.25, 96818.71, 0.0, 10.001097, 9.998987 
1.09508276e+3, 2.1496448e+2, -694798.75, -879414.4, -6971.4497, -0.0408576, -0.013137147, -694535.9, 138812.98, 0.0, 10.0014105, 9.998983 
1.09506726e+3, 2.2496378e+2, -606962.06, -719917.94, 537.1824, -0.13980696, -0.0022915031, -606959.56, 128394.11, 0.0, 10.001069, 9.999564 
1.0950509e+3, 2.3496318e+2, -643338.9, -687769.56, 46778.453, -0.3174392, -0.042529494, -613768.6, 23588.598, 0.0, 10.000146, 9.9995575 
1.0950376e+3, 2.4496226e+2, -609155.8, -742508.56, 86949.73, -0.23451194, -0.030056855, -566260.3, -26894.596, 0.0, 10.000217, 9.998485 
1.0950273e+3, 2.5496086e+2, -361592.56, -571729.4, 102248.56, 0.11420291, -0.041215293, -320052.2, 121328.57, 0.0, 10.001241, 9.998493 
1.09501295e+3, 2.6495957e+2, -265202.13, -360322.4, 17822.313, 0.1431918, -0.064695545, -261972.5, 81419.92, 0.00000010014453, 10.000752, 9.999495 
1.09499425e+3, 2.7495804e+2, -446624.34, -397725.03, 21958.398, -0.1593096, -0.18962258, -389312.0, -143908.45, 0.0000018004142, 9.998822, 9.999498 
1.09497964e+3, 2.8495744e+2, -358395.2, -418916.72, 89087.16, -0.1777154, -0.14443211, -294569.63, -147159.97, 0.000016749305, 9.99925, 9.998471 
1.0949692e+3, 2.9495752e+2, 136574.55, -130696.64, 92005.84, 0.103570566, -0.013313394, 165184.28, 214596.64, 0.00010005187, 10.001971, 9.998471 
1.0949548e+3, 3.0495507e+2, 156726.5, -95318.81, -8972.462, 0.10769478, -0.095431715, 157045.52, 157045.52, 0.00032272984, 10.001812, 9.99845 
1.0949364e+3, 3.1495324e+2, -212480.9, -125636.414, 24672.307, -0.16565406, -0.14674434, -119116.555, -119116.555, 0.0006960898, 9.998568, 9.999813 
1.1052141e+3, 1.2499106e+2, -1486194.6, -1776922.6, -71272.57, -0.16875374, -0.021229284, -1469662.3, 245421.47, 0.00083503575, 10.002264, 9.998456 
1.1052012e+3, 1.349897e+2, -1539027.9, -1758856.8, -8745.945, -0.023930512, -0.02815687, -1538680.4, 78421.32, 0.0003918232, 10.001282, 9.998397 
1.1051832e+3, 1.4498885e+2, -1421557.6, -1552690.9, -64057.29, -0.30369824, 0.012459412, -1395460.1, 123651.74, 0.000102570426, 10.000984, 9.999275 
1.10516846e+3, 1.549886e+2, -1243764.3, -1414988.1, -80631.336, -0.14858194, 0.033307824, -1211771.6, 209341.67, 0.0000061708192, 10.001536, 9.999278 
1.1051547e+3, 1.6498743e+2, -1210622.5, -1460344.6, 38638.547, -0.03889098, 0.042730436, -1204780.8, 118342.37, 0.0000000015512864, 10.00158, 9.998271 
1.1051419e+3, 1.7498508e+2, -1163217.5, -1385271.8, 48893.78, 0.04649194, -0.041611, -1152928.5, 72215.38, 0.0, 10.001229, 9.9982815 
1.1051277e+3, 1.849832e+2, -1106699.5, -1312049.4, 54912.277, 0.04290119, -0.04985178, -1092937.8, 34224.62, 0.0, 10.000966, 9.998239 
1.1051123e+3, 1.949815e+2, -1031958.56, -1222838.3, 70648.2, -0.04974534, -0.06594691, -1008655.25, 20526.342, 0.0, 10.000801, 9.998254 
1.10509776e+3, 2.0498057e+2, -905972.2, -1015543.4, 96623.01, -0.06083676, -0.024766965, -849683.6, 81508.42, 0.0, 10.000565, 9.999128 
1.1050841e+3, 2.1498019e+2, -848121.2, -936522.0, 87078.516, 0.009495586, 0.0049311216, -794667.4, 38528.047, 0.0, 10.000287, 9.999132 
1.1050686e+3, 2.249798e+2, -700952.5, -772760.1, 67620.5, -0.07312451, 0.04043312, -660295.1, 74903.1, 0.0, 10.000444, 9.999506 
1.1050516e+3, 2.3497912e+2, -522262.66, -637066.1, 19208.03, -0.30298734, 0.0031617729, -519134.16, 118068.9, 0.0, 10.001003, 9.999497 
1.1050379e+3, 2.4497797e+2, -507231.44, -637352.4, 60825.547, -0.2425112, -0.030688703, -483226.7, 55985.7, 0.0, 10.000692, 9.998963 
1.1050276e+3, 2.549761e+2, -578958.9, -621935.8, 76834.88, 0.110363424, -0.13675977, -520664.2, -79435.95, 0.0, 9.99953, 9.998958 
1.10501334e+3, 2.649749e+2, -474468.3, -500218.9, 6792.9595, 0.17884713, -0.1564109, -472786.22, -129547.69, 0.00000018749917, 9.9994755, 9.999152 
1.104995e+3, 2.749741e+2, -239143.23, -336184.5, -21070.398, -0.039592054, -0.17176403, -234765.72, 10479.809, 0.0000025324416, 10.000416, 9.999154 
1.10498026e+3, 2.8497362e+2, -200671.98, -349547.6, 125916.57, -0.09055067, -0.09185961, -128836.19, 18416.947, 0.000018771152, 10.000377, 9.998405 
1.1049692e+3, 2.949732e+2, -259578.73, -331039.34, 117471.55, 0.049979307, -0.000805195, -172523.78, -123260.54, 0.00010057408, 9.999303, 9.998379 
1.10495485e+3, 3.0497128e+2, -148327.66, -146026.42, -16397.578, 0.06265901, -0.06915549, -130739.14, -130739.14, 0.0003198817, 9.999276, 9.999328 
1.10493734e+3, 3.1497094e+2, 56830.56, 116632.555, -3936.7693, 0.018609386, -0.06990374, 116890.6, 116890.6, 0.0006923279, 9.999941, 10.000804 
1.11521445e+3, 1.2500396e+2, -1483405.9, -1759446.9, -75292.625, -0.40065864, -0.1368866, -1464204.8, 250750.44, 0.000944546, 10.002234, 9.998588 
1.1152019e+3, 1.3500369e+2, -1529972.1, -1733400.1, -35457.273, -0.1053855, -0.04431779, -1523969.1, 92994.86, 0.00045159098, 10.001259, 9.998585 
1.1151838e+3, 1.4500315e+2, -1421510.8, -1553109.4, -57864.844, -0.3746342, 0.019006109, -1399686.5, 119285.08, 0.00012308804, 10.000986, 9.999272 
1.1151697e+3, 1.5500289e+2, -1244581.3, -1418358.5, -48925.51, -0.20475404, 0.03713592, -1231753.6, 189219.33, 0.000008505592, 10.001541, 9.999255 
1.11515574e+3, 1.6500197e+2, -1169981.3, -1373213.6, 11678.151, -0.108722694, 0.044228416, -1169312.4, 153667.81, 0.0000000033697685, 10.001566, 9.998879 
1.1151425e+3, 1.7500037e+2, -1123324.3, -1299016.3, 44738.656, -0.029902058, -0.02453667, -1112588.0, 112406.01, 0.0, 10.001206, 9.998892 
1.1151283e+3, 1.8499896e+2, -1063734.6, -1214159.6, 36221.645, -0.017282108, -0.049786683, -1055467.0, 71539.63, 0.0, 10.00093, 9.998928 
1.11511305e+3, 1.9499753e+2, -996393.9, -1131382.1, 73251.06, -0.083389066, -0.10778778, -964282.94, 64737.652, 0.0, 10.000727, 9.998919 
1.1150983e+3, 2.0499684e+2, -911772.75, -1008327.9, 70517.22, -0.09168931, -0.076331966, -874590.4, 56436.727, 0.0, 10.000479, 9.999217 
1.11508414e+3, 2.1499667e+2, -864452.0, -937917.5, 87163.87, -0.033876568, -0.038767934, -806597.06, 26431.861, 0.0, 10.000144, 9.999192 
1.1150696e+3, 2.2499622e+2, -794566.25, -931064.1, 78955.76, -0.037490476, 0.041502126, -758450.8, -23415.408, 0.0, 10.000296, 9.998489 
1.1150548e+3, 2.3499541e+2, -613282.1, -793314.3, 52413.063, -0.09190319, 0.09021474, -599134.75, 37913.38, 0.0, 10.000865, 9.998491 
1.1150399e+3, 2.4499404e+2, -473902.03, -536262.5, 8555.087, -0.13315733, 0.04860152, -472749.66, 66310.75, 0.0, 10.000556, 9.999723 
1.11502476e+3, 2.549919e+2, -539213.44, -519759.13, 45487.734, -0.15437415, -0.16188215, -482970.13, -41895.46, 0.0, 9.999445, 9.9997 
1.11501075e+3, 2.649912e+2, -517996.44, -572539.25, 31370.207, -0.050200123, -0.14515522, -503700.8, -160620.63, 0.00000020790911, 9.999398, 9.9986925 
1.1149978e+3, 2.749917e+2, -281618.88, -404982.2, 28130.713, 0.18007591, 0.009116003, -275507.0, -30427.824, 0.0000030041272, 10.000332, 9.99872 
1.11498326e+3, 2.8499135e+2, -208253.17, -339665.5, 76847.42, 0.15476121, 0.121760726, -172851.34, -25764.102, 0.000021469468, 10.00027, 9.998524 
1.114967e+3, 2.9498988e+2, -259610.78, -317075.13, 96853.08, -0.13000818, 0.09405028, -187317.92, -138210.17, 0.00010458993, 9.999246, 9.998501 
1.1149521e+3, 3.049887e+2, -80749.734, 5517.5503, 4249.215, -0.14898689, 0.041624285, 5726.3457, 5726.3457, 0.00032358713, 9.999229, 10.000391 
1.11493945e+3, 3.1499064e+2, 127045.4, 285060.13, 55509.41, 0.18511614, 0.15703599, 302610.8, 302610.8, 0.00069615606, 9.999845, 10.002008 
1.1252164e+3, 1.2501863e+2, -1497542.8, -1740413.0, 29626.705, -0.4138875, -0.14868937, -1493981.0, 220831.11, 0.0010643419, 10.002026, 9.998824 
1.12520315e+3, 1.3501906e+2, -1537235.3, -1714058.5, -26831.78, -0.08948099, -0.005920183, -1533253.4, 83559.086, 0.00051804923, 10.001119, 9.998781 
1.12518504e+3, 1.450183e+2, -1463387.8, -1585541.4, 35861.316, -0.33132035, 0.030568684, -1453638.0, 65183.44, 0.00014661087, 10.000756, 9.999156 
1.1251714e+3, 1.5501729e+2, -1310700.9, -1460889.1, 7152.372, -0.1597114, -0.016999861, -1310361.0, 110468.9, 0.00001150662, 10.00114, 9.999152 
1.1251571e+3, 1.650164e+2, -1241526.0, -1385704.8, 40836.45, -0.09290615, -0.010535672, -1230763.1, 92074.21, 0.0000000061074554, 10.000971, 9.9990835 
1.1251426e+3, 1.7501557e+2, -1230914.5, -1322045.3, 26743.01, -0.09023223, -0.025931658, -1223646.3, 1198.3844, 0.0, 10.000347, 9.999144 
1.1251284e+3, 1.8501478e+2, -1144300.5, -1211295.0, 38260.867, -0.050944146, -0.021212846, -1126945.4, -93.93641, 0.0, 10.000191, 9.999307 
1.1251145e+3, 1.9501376e+2, -995889.3, -1092618.1, 31759.496, 0.011377578, -0.076011546, -986393.7, 42467.105, 0.0, 10.000538, 9.999288 
1.1250995e+3, 2.0501314e+2, -883059.06, -984579.25, 30621.842, -0.017107293, -0.06146896, -874537.75, 56328.563, 0.0, 10.000644, 9.999298 
1.1250835e+3, 2.1501265e+2, -790655.25, -886442.0, 20558.48, -0.12263797, -0.06330091, -786429.25, 46441.383, 0.0, 10.000598, 9.999318 
1.1250691e+3, 2.2501215e+2, -821230.2, -956671.3, 71363.516, -0.1096943, 0.00712821, -790569.75, -55691.695, 0.0, 10.000159, 9.998382 
1.12505615e+3, 2.3501149e+2, -836163.94, -909859.5, 92045.805, 0.02624177, 0.08185047, -773864.4, -136974.47, 0.0, 9.999368, 9.998409 
1.1250412e+3, 2.4501033e+2, -663395.25, -640755.75, 67342.69, -0.0004255908, 0.0698393, -583788.06, -44886.492, 0.0, 9.999314, 9.999608 
1.125024e+3, 2.5500846e+2, -466618.25, -498748.1, 20506.62, -0.18521349, -0.096797645, -456633.16, -15718.247, 0.0, 10.000007, 9.99958 
1.12501e+3, 2.6500788e+2, -381883.13, -494731.72, 39640.95, -0.102969095, -0.06773665, -369350.16, -26429.875, 0.00000016860811, 10.000296, 9.998789 
1.1249986e+3, 2.7500823e+2, -294765.0, -401820.28, 47082.32, 0.24561374, 0.06613165, -277004.8, -32084.363, 0.0000038179373, 10.000214, 9.998792 
1.12498425e+3, 2.8500786e+2, -194488.61, -306700.22, 108039.27, 0.23079222, 0.1575945, -128855.56, 18072.246, 0.000026281929, 10.000233, 9.998772 
1.1249665e+3, 2.950065e+2, -102616.37, -210008.66, 111600.33, -0.14858611, 0.1115215, -32466.195, 16478.842, 0.00011359424, 10.000186, 9.998781 
1.1249514e+3, 3.0500534e+2, -3037.1438, -2460.0872, 15474.774, -0.1784586, 0.07003281, 12728.849, 12728.849, 0.00033605486, 9.999982, 9.999968 
1.1249401e+3, 3.1500703e+2, 30857.102, 190466.1, -89693.54, 0.28657228, 0.214619, 230718.63, 230718.63, 0.0007117771, 9.999377, 10.001598 
1.13521926e+3, 1.2503503e+2, -1466625.4, -1665519.4, 30055.002, -0.38296092, -0.0563799, -1462182.9, 252471.31, 0.0011953667, 10.001996, 9.999344 
1.1352044e+3, 1.3503574e+2, -1516660.8, -1667271.8, -54962.18, -0.09549015, 0.078004986, -1498736.6, 117911.21, 0.00059164723, 10.001099, 9.999115 
1.13518655e+3, 1.4503433e+2, -1479953.0, -1615993.4, 36047.83, -0.28678173, 0.042873982, -1470991.5, 47669.492, 0.00017336896, 10.000743, 9.998954 
1.1351734e+3, 1.5503189e+2, -1325766.8, -1492854.8, 32773.195, -0.106566705, -0.12196523, -1319568.5, 101114.94, 0.000015247707, 10.0011425, 9.998933 
1.1351583e+3, 1.650308e+2, -1247681.4, -1401206.8, 4223.1997, -0.09884753, -0.11955442, -1247565.3, 75128.37, 0.000000009421829, 10.00098, 9.998971 
1.1351417e+3, 1.7503081e+2, -1236648.1, -1339707.4, 12526.444, -0.23112182, -0.041363247, -1235147.5, -10452.748, 0.0, 10.00037, 9.999011 
1.13512784e+3, 1.850307e+2, -1134583.6, -1194004.5, 38279.848, -0.1509322, 0.031950623, -1115837.4, 10859.238, 0.0, 10.000197, 9.999425 
1.13511644e+3, 1.9503027e+2, -1000462.0, -1082218.1, 52988.707, 0.1351332, 0.024420466, -974416.1, 54285.574, 0.0, 10.000446, 9.999405 
1.1351012e+3, 2.050295e+2, -896339.9, -989775.75, 15969.6045, 0.06818343, 0.018029554, -893685.8, 37022.992, 0.0, 10.000545, 9.999312 
1.1350822e+3, 2.1502821e+2, -809851.7, -894064.94, 26475.523, -0.33598992, -0.06464411, -802219.8, 30500.064, 0.0, 10.000456, 9.999337 
1.13506675e+3, 2.2502756e+2, -780825.1, -840587.75, 27837.668, -0.37161776, -0.053033147, -769867.4, -35141.582, 0.0, 10.000021, 9.999244 
1.13505505e+3, 2.3502731e+2, -797556.3, -799841.3, 73044.445, -0.03781955, -0.024773072, -725645.44, -88916.35, 0.0, 9.999238, 9.999228 
1.1350411e+3, 2.450268e+2, -747664.9, -791761.75, 81867.35, 0.056108523, 0.038229946, -684928.9, -146192.8, 0.0, 9.999209, 9.998621 
1.1350254e+3, 2.550259e+2, -544420.94, -642025.44, 57437.8, -0.071545966, 0.061779033, -517852.34, -77104.26, 0.0, 9.999924, 9.998637 
1.1350107e+3, 2.6502496e+2, -350429.4, -416485.3, 29904.64, -0.06846574, 0.07591945, -338902.53, 3855.6843, 0.00000020663475, 10.000233, 9.999362 
1.1349973e+3, 2.750237e+2, -264224.97, -329871.6, 60044.516, 0.0603429, -0.006831374, -228617.94, 16151.87, 0.0000055002247, 10.00017, 9.999313 
1.1349828e+3, 2.8502297e+2, -182409.27, -259713.81, 93957.62, 0.040049415, 0.00438453, -119464.13, 27312.063, 0.00003348711, 10.00015, 9.999128 
1.1349673e+3, 2.9502267e+2, -90519.53, -161331.36, 122604.94, -0.1152402, 0.02975731, 1689.4042, 50467.21, 0.00012808957, 10.000087, 9.99916 
1.134952e+3, 3.0502096e+2, -158205.94, -294513.06, -13318.865, -0.12532143, 0.0057479017, -156916.72, -156916.72, 0.0003591798, 9.999856, 9.998022 
1.1349382e+3, 3.1502008e+2, -121874.305, -96802.945, -82664.375, 0.11729539, 0.08853208, -25729.158, -25729.158, 0.0007452587, 9.999257, 9.999676 
1.1452213e+3, 1.2505083e+2, -1813494.9, -1778303.0, 64717.246, -0.23546977, 0.031239253, -1728832.3, -14331.55, 0.0013373722, 9.999352, 9.999864 
1.1452052e+3, 1.3505057e+2, -1559181.8, -1643208.0, -95101.41, -0.08448618, 0.02807475, -1497226.8, 119273.88, 0.000672049, 10.000582, 9.99955 
1.14518814e+3, 1.4504917e+2, -1433685.9, -1593309.3, 34786.438, -0.20330738, -0.030115845, -1426434.4, 92078.55, 0.0002032588, 10.0010605, 9.998958 
1.1451746e+3, 1.5504734e+2, -1356169.3, -1507642.4, 18076.178, -0.08700442, -0.12821425, -1354042.0, 66488.57, 0.000019742625, 10.00094, 9.998929 
1.14515916e+3, 1.6504657e+2, -1250619.5, -1363278.6, 18230.674, -0.09151653, -0.11309912, -1247742.9, 74794.99, 0.000000013934886, 10.000798, 9.999316 
1.1451427e+3, 1.750465e+2, -1170489.5, -1270303.0, 39726.414, -0.18776004, -0.07559663, -1156608.5, 67929.16, 0.0, 10.000664, 9.999345 
1.1451285e+3, 1.8504632e+2, -1104850.1, -1203910.0, 106956.87, -0.116180405, -0.016428905, -1036511.56, 90029.016, 0.0, 10.000513, 9.999201 
1.1451166e+3, 1.950458e+2, -1020650.44, -1108491.5, 73019.6, 0.11001437, -0.009880695, -979360.2, 49188.027, 0.0, 10.000406, 9.999229 
1.14510156e+3, 2.0504513e+2, -936086.2, -1017346.1, 37223.055, 0.0651121, 0.006822115, -921613.06, 8942.265, 0.0, 10.0003, 9.999244 
1.1450834e+3, 2.1504411e+2, -854510.75, -923503.06, 24174.729, -0.23697002, -0.041938182, -846883.25, -14319.044, 0.0, 10.000174, 9.999276 
1.1450677e+3, 2.2504322e+2, -696199.9, -787178.3, 20765.133, -0.2984994, -0.05617957, -691684.5, 42887.234, 0.0, 10.000549, 9.999355 
1.1450545e+3, 2.3504227e+2, -470200.34, -625567.2, -13586.798, -0.121612385, -0.11124954, -469021.13, 167559.05, 0.0, 10.00142, 9.999372 
1.1450406e+3, 2.4504194e+2, -468481.97, -661796.1, 10559.283, -0.003323875, -0.03641139, -467906.9, 70678.68, 0.0, 10.001145, 9.998579 
1.14502646e+3, 2.5504205e+2, -567968.06, -651241.4, 34279.43, 0.065927625, 0.09142749, -555672.44, -115082.695, 0.0, 9.999769, 9.998635 
1.14501186e+3, 2.6504126e+2, -472263.1, -503738.88, 56858.926, 0.059108764, 0.12924175, -429004.22, -86404.555, 0.00000038376965, 9.999502, 9.999122 
1.1449967e+3, 2.750393e+2, -261210.86, -355422.06, 7874.875, -0.021862859, -0.0029423921, -260557.16, -15938.97, 0.0000075917305, 10.000293, 9.999085 
1.1449819e+3, 2.8503805e+2, -149834.05, -243643.4, 1615.9708, -0.05352079, -0.027997237, -149806.22, -3178.409, 0.0000412879, 10.000363, 9.999141 
1.1449681e+3, 2.950376e+2, -161378.56, -197854.6, -23673.922, -0.011208998, -0.018471254, -149732.14, -101103.44, 0.00014511992, 9.999603, 9.999148 
1.144953e+3, 3.0503565e+2, -162017.33, -371843.53, -65979.555, -0.020649262, -0.031989794, -142994.72, -142994.72, 0.00038843177, 10.000123, 9.997369 
1.1449381e+3, 3.15034e+2, 180234.92, -19673.848, -82326.945, 0.079689614, 0.036333364, 209774.19, 209774.19, 0.0007935078, 10.001629, 9.999056 
1.1552215e+3, 1.2506597e+2, -1778071.1, -1695042.8, 90406.59, -0.18727098, 0.10337502, -1637074.4, 77277.914, 0.001489488, 9.999323, 10.000441 
1.1552053e+3, 1.350638e+2, -1522872.4, -1565728.9, -41203.457, -0.15360577, -0.14527604, -1497858.3, 118510.24, 0.00075867696, 10.000577, 10.000077 
1.1551897e+3, 1.4506291e+2, -1424850.1, -1576528.6, 16277.858, -0.18088612, -0.18573007, -1423122.9, 95253.24, 0.0002361324, 10.001058, 9.99908 
1.1551745e+3, 1.5506364e+2, -1341256.6, -1483849.0, 23283.953, -0.20035553, -0.046026587, -1337550.9, 82820.87, 0.000024990082, 10.00096, 9.999085 
1.1551594e+3, 1.6506359e+2, -1193866.5, -1243828.8, -203.68399, -0.17297395, -0.007856221, -1193865.8, 128504.98, 0.000000023716384, 10.000795, 10.000135 
1.1551449e+3, 1.7506264e+2, -1117681.6, -1154822.9, 41729.152, -0.049705263, -0.13922194, -1090577.4, 133796.61, 0.0, 10.000645, 10.000142 
1.15513e+3, 1.850617e+2, -1152684.0, -1298120.0, 89566.12, -0.04011963, -0.16266288, -1110033.0, 16349.71, 0.0, 10.000488, 9.998567 
1.1551146e+3, 1.9506045e+2, -1071379.5, -1203527.1, 76244.69, -0.15488926, -0.17035736, -1036562.25, -8162.5215, 0.0, 10.000355, 9.998605 
1.1551001e+3, 2.0506008e+2, -951630.44, -1030725.5, 16293.39, -0.11830304, -0.09101264, -948405.5, -17999.627, 0.0, 10.000217, 9.999191 
1.1550869e+3, 2.1506034e+2, -878841.8, -945580.44, 28599.39, 0.077496916, -0.006053755, -868263.06, -35859.03, 0.0, 10.000042, 9.99919 
1.15507156e+3, 2.2505915e+2, -763994.2, -894199.7, 43093.746, 0.011723827, -0.011578745, -751023.6, -16607.805, 0.0, 10.000406, 9.998689 
1.15505405e+3, 2.3505639e+2, -535004.0, -731130.1, 29447.473, -0.30990902, -0.18230025, -530678.0, 105764.97, 0.0, 10.001296, 9.998707 
1.15503944e+3, 2.4505569e+2, -423639.34, -536077.44, -55100.17, -0.2604652, -0.15509233, -401139.84, 137310.53, 0.0, 10.001008, 9.999506 
1.1550272e+3, 2.5505692e+2, -523723.6, -533016.75, -7944.2407, 0.1444573, -0.010050261, -519166.84, -78726.68, 0.0, 9.999654, 9.999502 
1.1550129e+3, 2.6505664e+2, -558822.3, -660700.9, 75444.625, 0.1939037, 0.09014122, -518730.28, -176284.94, 0.0000005356376, 9.999406, 9.99809 
1.1549963e+3, 2.7505472e+2, -338675.2, -494171.84, 49735.28, -0.104299985, 0.06365822, -324128.3, -79660.97, 0.000008957139, 10.000202, 9.998173 
1.15498155e+3, 2.8505313e+2, -184367.83, -290926.1, -35405.824, -0.14520207, 0.055193495, -173676.36, -27193.592, 0.00004724257, 10.0002575, 9.99887 
1.1549687e+3, 2.9505143e+2, -188752.75, -251608.02, -32507.287, 0.056232736, -0.026669428, -174965.11, -126469.37, 0.00015981888, 9.999578, 9.998796 
1.1549538e+3, 3.050495e+2, -145224.66, -309077.66, -14828.837, 0.02776581, -0.041480083, -143893.45, -143893.45, 0.00041743313, 10.000016, 9.997842 
1.1549389e+3, 3.1504846e+2, 198537.47, 49129.754, 11984.978, -0.04748453, 0.03140763, 199492.75, 199492.75, 0.0008473706, 10.001498, 9.999586 
1.1652219e+3, 1.2507945e+2, -1747778.9, -1675650.4, 109733.4, -0.07464789, 0.025785327, -1596206.9, 118010.82, 0.0016512593, 9.999505, 10.000483 
1.1652053e+3, 1.3507807e+2, -1595560.9, -1574110.3, -58158.195, -0.17715618, -0.15777068, -1525696.8, 90531.7, 0.0008513687, 9.9999895, 10.000291 
1.16519116e+3, 1.4507811e+2, -1499137.0, -1540550.3, -1356.3503, -0.096948534, -0.15068637, -1499092.6, 19134.64, 0.00027198074, 10.000244, 9.999714 
1.1651749e+3, 1.5507933e+2, -1417200.8, -1451159.1, 13132.593, -0.21086727, -0.023444189, -1412714.6, 7501.777, 0.00003101119, 10.000146, 9.999701 
1.1651598e+3, 1.650793e+2, -1284906.1, -1313528.4, -2335.9106, -0.18972301, -0.0006487646, -1284716.8, 37498.383, 0.00000004774233, 10.000286, 9.999903 
1.1651461e+3, 1.7507792e+2, -1114208.1, -1180876.9, -59996.613, 0.009973658, -0.15141188, -1078907.5, 145317.16, 0.0, 10.000786, 9.999904 
1.16513126e+3, 1.8507688e+2, -1086762.4, -1257324.5, -14901.321, 0.016218252, -0.17657305, -1085470.3, 40764.086, 0.0, 10.000888, 9.998658 
1.16511464e+3, 1.9507597e+2, -1026582.7, -1172659.6, 4739.604, -0.1926993, -0.15717167, -1026429.06, 1817.4337, 0.0, 10.000613, 9.998697 
1.1651001e+3, 2.0507552e+2, -917058.9, -1046547.94, -7683.145, -0.15467168, -0.078224085, -916604.56, 13649.347, 0.0, 10.0006, 9.998895 
1.1650879e+3, 2.1507528e+2, -780310.5, -924404.75, -40597.91, 0.13700306, -0.0152370045, -769659.5, 62598.95, 0.0, 10.000849, 9.998938 
1.16507284e+3, 2.2507426e+2, -763132.4, -884883.4, 9514.734, 0.11457498, 0.001889379, -762393.25, -28123.768, 0.0, 10.0003805, 9.998764 
1.1650553e+3, 2.350721e+2, -837402.7, -867795.4, 31069.844, -0.20789413, -0.11107801, -818012.0, -181721.84, 0.0, 9.9991865, 9.998785 
1.1650401e+3, 2.4507122e+2, -661073.1, -663704.06, -32757.799, -0.19795588, -0.10482995, -629604.4, -91305.31, 0.0, 9.9994135, 9.999405 
1.1650273e+3, 2.550714e+2, -338439.16, -459061.53, -82817.2, 0.13020706, -0.05296959, -296299.72, 143998.36, 0.0, 10.000963, 9.9993925 
1.1650128e+3, 2.6507092e+2, -257636.77, -511020.0, 27027.758, 0.15252368, 0.03073801, -254785.86, 87518.56, 0.00000056359414, 10.001468, 9.998116 
1.1649967e+3, 2.750696e+2, -231808.28, -443832.7, 49959.598, -0.11631457, 0.062636964, -220625.98, 23694.21, 0.00000928475, 10.000952, 9.998156 
1.164982e+3, 2.8506798e+2, -155656.58, -308298.38, -4797.002, -0.1417305, 0.06844453, -155505.97, -9170.051, 0.000050363375, 10.000592, 9.998585 
1.1649686e+3, 2.9506582e+2, -99134.91, -235021.61, -29503.81, 0.062692575, -0.031504814, -93005.49, -44651.266, 0.00017050822, 10.000332, 9.998535 
1.164954e+3, 3.0506396e+2, -33262.387, -237296.72, 67986.35, 0.024471698, -0.03400913, -12684.091, -12684.091, 0.00044292747, 10.000701, 9.998015 
1.1649407e+3, 3.1506276e+2, 172241.45, 51898.39, 37216.32, -0.010619003, 0.014692489, 182820.66, 182820.66, 0.00089617184, 10.001246, 9.9997425 
1.1752208e+3, 1.2509102e+2, -1784791.0, -1741533.0, 33207.38, -0.1831016, -0.23771363, -1723531.9, -9432.119, 0.0018234614, 9.999467, 10.000048 
1.17520496e+3, 1.3509336e+2, -1600386.4, -1592270.0, -29945.049, -0.23664133, -0.030987507, -1566109.4, 49971.367, 0.0009506097, 10.000022, 10.000153 
1.175192e+3, 1.450947e+2, -1422783.1, -1378199.8, -16266.652, -0.05744685, 0.054292377, -1372895.8, 145171.34, 0.00031097958, 10.000232, 10.000831 
1.1751753e+3, 1.5509456e+2, -1345838.5, -1302827.1, 18206.828, -0.2079799, -0.06252255, -1296155.1, 123908.445, 0.00003785508, 10.000143, 10.00072 
1.1751598e+3, 1.650938e+2, -1380649.6, -1507522.3, 2944.1428, -0.24207328, -0.09457612, -1380581.4, -58510.73, 0.00000010132158, 10.000269, 9.998575 
1.1751461e+3, 1.7509234e+2, -1206540.1, -1367993.4, -30729.748, -0.09048951, -0.12391616, -1200889.1, 23199.615, 0.0, 10.000767, 9.998626 
1.1751317e+3, 1.8509199e+2, -1034063.9, -1141509.1, -37407.77, -0.037394214, -0.06077824, -1022323.06, 103770.66, 0.0, 10.000859, 9.999468 
1.17511645e+3, 1.9509238e+2, -979750.7, -1064945.0, 6359.038, -0.094509356, 0.006986657, -979278.6, 48810.164, 0.0, 10.00056, 9.999467 
1.1751011e+3, 2.0509146e+2, -969811.44, -1134852.6, -10740.4795, -0.13702255, 0.03255688, -969115.4, -39016.156, 0.0, 10.000511, 9.998329 
1.17508605e+3, 2.150891e+2, -837843.9, -1015525.94, -22074.455, -0.14275967, -0.06388839, -835142.5, -3016.2043, 0.0, 10.000721, 9.998377 
1.1750715e+3, 2.250885e+2, -727507.8, -773284.2, -47989.26, -0.066009745, -0.017378129, -697228.0, 36905.12, 0.0, 10.000223, 9.999604 
1.1750576e+3, 2.3508945e+2, -800616.44, -754786.0, -1839.2769, 0.08513768, 0.0930878, -754712.3, -118590.28, 0.0, 9.999035, 9.99963 
1.1750426e+3, 2.4508849e+2, -760362.06, -838229.8, 15454.516, 0.08097614, 0.10768765, -757406.94, -219275.13, 0.0, 9.999276, 9.998277 
1.1750265e+3, 2.5508547e+2, -423266.16, -614475.56, -13816.211, -0.06803511, -0.047916524, -422273.0, 17890.523, 0.0, 10.000875, 9.998365 
1.1750116e+3, 2.650841e+2, -202802.63, -378457.78, -3891.121, -0.13734376, -0.05651581, -202716.47, 139460.63, 0.0000005132723, 10.001381, 9.999073 
1.17499754e+3, 2.7508387e+2, -175833.22, -315957.8, 44487.875, -0.15403505, -0.009438673, -162902.16, 81274.41, 0.000009286575, 10.000897, 9.999063 
1.1749828e+3, 2.8508264e+2, -195743.83, -374489.25, -23513.406, -0.14458556, 0.015964054, -192702.45, -46515.816, 0.00005131962, 10.000517, 9.998166 
1.17496766e+3, 2.9508042e+2, -119701.52, -276781.7, -24250.324, -0.09820158, -0.05659203, -116042.93, -67835.55, 0.0001770123, 10.000315, 9.99826 
1.17495336e+3, 3.0507872e+2, -53985.867, -249708.45, 85195.97, -0.119484425, -0.036357768, -22096.686, -22096.686, 0.0004593758, 10.00059, 9.997978 
1.1749425e+3, 3.1507722e+2, 147606.81, 38011.51, 89440.88, 0.005667381, -0.008741704, 197701.75, 197701.75, 0.0009233706, 10.001107, 9.999704 
1.18522145e+3, 1.2510605e+2, -1656578.1, -1726257.0, 27580.408, -0.12260371, -0.18580998, -1646982.6, 66969.5, 0.0020081834, 10.000531, 9.999638 
1.18520536e+3, 1.3510792e+2, -1587078.6, -1609649.6, -4981.255, -0.1963668, -0.014524567, -1586028.1, 29909.725, 0.0010574218, 10.000196, 9.999956 
1.18519284e+3, 1.451088e+2, -1457488.5, -1405134.1, -16367.821, 0.014212733, 0.040611748, -1400438.3, 117490.71, 0.00035351914, 10.000035, 10.000739 
1.1851764e+3, 1.5510865e+2, -1357522.4, -1312038.4, -95238.89, -0.101348676, -0.072816804, -1236863.9, 183062.53, 0.00004562391, 10.000087, 10.000677 
1.1851608e+3, 1.65108e+2, -1399340.8, -1525788.3, -63340.676, -0.15848579, -0.08692444, -1373069.9, -51137.215, 0.00000019883093, 10.0001745, 9.998503 
1.1851465e+3, 1.7510681e+2, -1270284.4, -1401884.8, -28638.62, -0.104128174, -0.08729373, -1264322.3, -40373.332, 0.0, 10.000343, 9.998594 
1.1851322e+3, 1.8510647e+2, -1078016.1, -1159821.0, -11980.4, -0.060122, -0.019811854, -1076297.6, 49656.223, 0.0, 10.00056, 9.999481 
1.1851176e+3, 1.9510671e+2, -928710.56, -1031535.4, -53632.707, -0.044123903, 0.029593049, -905828.25, 122122.2, 0.0, 10.00089, 9.999527 
1.1851022e+3, 2.0510587e+2, -916692.4, -1092828.1, -53936.063, -0.09213691, 0.05038712, -901488.5, 28471.328, 0.0, 10.000802, 9.998486 
1.18508615e+3, 2.1510367e+2, -890321.8, -1019276.2, -29250.371, -0.18007797, -0.04147402, -883997.25, -52013.03, 0.0, 10.000276, 9.998566 
1.1850714e+3, 2.2510312e+2, -734730.9, -779191.94, -48905.723, -0.08927493, -0.00008219311, -703240.25, 30750.025, 0.0, 10.000165, 9.999598 
1.1850581e+3, 2.3510395e+2, -593828.5, -657131.2, -90624.96, 0.16622368, 0.09716898, -529486.7, 106493.805, 0.0, 10.000441, 9.999631 
1.1850432e+3, 2.4510299e+2, -601455.7, -776853.4, -1718.2002, 0.16333055, 0.118352436, -601438.9, -63448.84, 0.0, 10.0004425, 9.998133 
1.18502684e+3, 2.5510004e+2, -528235.7, -688531.2, 16762.348, -0.08167713, -0.012205694, -526501.56, -86480.625, 0.0, 10.0002575, 9.99816 
1.18501194e+3, 2.650984e+2, -402807.22, -458692.8, 2345.2517, -0.16122963, -0.039310846, -402708.97, -60672.883, 0.0000005059796, 9.999957, 9.999199 
1.18499815e+3, 2.7509776e+2, -367295.4, -397460.7, -40320.402, -0.104996756, -0.047561456, -339329.0, -95290.24, 0.000009353779, 9.999547, 9.99915 
1.1849836e+3, 2.850964e+2, -232020.14, -388371.9, -51794.36, -0.08696115, -0.040650077, -216419.03, -70369.39, 0.000051335024, 10.000265, 9.998186 
1.1849689e+3, 2.9509443e+2, 128953.4, -156628.66, -47464.56, -0.07785937, -0.08451034, 136635.5, 184703.7, 0.00017979782, 10.002035, 9.998253 
1.1849549e+3, 3.05093e+2, 151605.05, -168897.53, 33043.24, -0.10601235, -0.02864239, 154976.28, 154976.28, 0.0004625388, 10.00205, 9.997842 
1.18494384e+3, 3.1509095e+2, -16987.72, -80777.54, -7457.1367, 0.085934736, -0.042903997, -16127.566, -16127.566, 0.00092024915, 10.000103, 9.999387 
1.1952219e+3, 1.2512392e+2, -1681823.4, -1768317.4, -85667.25, -0.17519423, 0.09833662, -1629105.9, 84674.68, 0.0022081332, 10.0004835, 9.9993725 
1.1952062e+3, 1.351218e+2, -1598899.9, -1633378.3, -8684.928, -0.15240085, -0.11667619, -1596835.8, 18963.428, 0.0011730703, 10.000192, 9.999793 
1.195193e+3, 1.4512059e+2, -1543545.0, -1584343.5, -26038.857, 0.0027981927, -0.19898252, -1530866.3, -13054.8, 0.00040013902, 10.000037, 9.999509 
1.19517796e+3, 1.5512174e+2, -1434574.0, -1485397.8, -80620.375, 0.019980215, -0.05579969, -1375455.4, 44347.418, 0.00005450229, 10.000133, 9.999473 
1.1951624e+3, 1.6512208e+2, -1311038.0, -1347477.3, -72574.94, -0.03475486, 0.021958759, -1254430.6, 67369.164, 0.00000035173326, 10.000196, 9.999717 
1.195147e+3, 1.7512137e+2, -1195711.3, -1238576.6, -14340.801, -0.11089367, -0.045385174, -1191356.0, 32448.355, 0.0, 10.000305, 9.999737 
1.19513206e+3, 1.851204e+2, -1139841.3, -1280471.8, -11711.394, -0.14210095, -0.055193517, -1138872.6, -13058.271, 0.0, 10.000527, 9.998668 
1.1951178e+3, 1.9511905e+2, -996952.2, -1154616.5, -31494.857, -0.13134699, -0.0830788, -990893.6, 36937.24, 0.0, 10.000807, 9.998726 
1.1951029e+3, 2.0511869e+2, -866781.6, -964517.0, -88133.42, -0.10901074, -0.022039281, -814874.56, 114961.38, 0.0, 10.000699, 9.9994135 
1.19508766e+3, 2.1511899e+2, -847009.56, -897751.9, -40021.047, -0.06717413, 0.0406253, -824995.25, 6837.3345, 0.0, 10.000142, 9.999462 
1.1950722e+3, 2.2511803e+2, -813686.3, -912159.1, -50544.324, -0.04809864, 0.041446105, -792361.06, -58519.355, 0.0, 10.0000305, 9.998748 
1.1950565e+3, 2.3511572e+2, -669633.5, -784910.5, -70948.555, -0.04847111, -0.091980234, -635861.44, 2.7665088, 0.0, 10.000316, 9.998811 
1.19504176e+3, 2.4511486e+2, -564098.6, -673776.5, -21159.195, -0.03661141, -0.057277046, -560158.2, -22285.855, 0.0, 10.000328, 9.998899 
1.19502805e+3, 2.551152e+2, -490925.38, -582944.2, 19878.81, -0.011118269, 0.060937833, -486814.63, -46945.633, 0.0, 10.00014, 9.998939 
1.1950135e+3, 2.6511398e+2, -478517.53, -594311.25, -23158.723, -0.01669538, 0.0833551, -474057.56, -132177.27, 0.0000006389743, 9.999858, 9.998322 
1.1949984e+3, 2.7511114e+2, -432822.5, -515359.0, -42386.05, -0.05639834, -0.0594515, -414932.94, -171025.5, 0.000009301616, 9.999474, 9.998376 
1.1949845e+3, 2.851092e+2, -214560.55, -338934.13, 4937.935, -0.047627717, -0.097196974, -214364.81, -68439.484, 0.000051838055, 10.0002, 9.998559 
1.1949722e+3, 2.951078e+2, 145314.9, -113978.61, 33639.656, 0.013853893, -0.1230282, 149608.08, 197545.13, 0.00018153801, 10.0019865, 9.998572 
1.19495764e+3, 3.0510682e+2, 103884.81, -234294.36, -45315.426, -0.040769227, -0.01248979, 109851.72, 109851.72, 0.0004580292, 10.001918, 9.99745 
1.1949439e+3, 3.151038e+2, -83427.53, -170932.44, -36583.543, 0.041814867, -0.09537638, -70148.13, -70148.13, 0.0008969489, 9.99991, 9.998849 
1.2052233e+3, 1.2513871e+2, -1797061.6, -1805891.0, -97352.32, -0.030497571, 0.123909794, -1704024.0, 9613.592, 0.0024257244, 9.999636, 9.999534 
1.2052074e+3, 1.3513619e+2, -1545766.9, -1611219.1, -36201.38, -0.0645281, -0.120644726, -1529692.0, 85965.26, 0.0012988481, 10.000601, 9.999744 
1.2051929e+3, 1.451341e+2, -1487257.0, -1653245.6, -26531.75, -0.055018403, -0.24127972, -1483119.3, 34559.156, 0.00045139206, 10.000828, 9.99866 
1.2051788e+3, 1.5513527e+2, -1434829.9, -1571789.9, -79503.23, 0.07784659, -0.019420173, -1398380.0, 21293.672, 0.00006471426, 10.000508, 9.998697 
1.20516345e+3, 1.651356e+2, -1276338.5, -1289923.8, -58211.074, 0.05425243, 0.0790704, -1224525.1, 97145.86, 0.00000057087306, 10.000257, 10.000078 
1.20514736e+3, 1.7513481e+2, -1187964.4, -1190479.1, -82370.445, -0.08941887, -0.035863426, -1106841.8, 116831.766, 0.0, 10.000173, 10.000123 
1.20513245e+3, 1.8513384e+2, -1215658.6, -1307525.3, -48789.67, -0.122728765, -0.06828466, -1194582.3, -68900.0, 0.0, 9.9999695, 9.998747 
1.20511875e+3, 1.9513257e+2, -1151354.5, -1216265.9, -21838.578, -0.055257767, -0.10049723, -1144691.3, -116992.484, 0.0, 9.999694, 9.998831 
1.20510414e+3, 2.0513235e+2, -960965.8, -974901.6, -43185.09, -0.013827876, -0.044054184, -924190.1, 5511.6626, 0.0, 9.999898, 9.999724 
1.2050887e+3, 2.1513292e+2, -758726.0, -823257.1, -65887.74, 0.01020026, 0.0127887605, -717627.6, 114067.14, 0.0, 10.000592, 9.999763 
1.205073e+3, 2.2513196e+2, -701554.3, -871395.4, -49555.89, -0.011232775, 0.004992869, -688152.5, 45550.918, 0.0, 10.000867, 9.998626 
1.20505676e+3, 2.3512937e+2, -616062.56, -771558.75, -37799.086, -0.0709642, -0.14052418, -607361.06, 28367.709, 0.0, 10.000751, 9.9986925 
1.2050421e+3, 2.451285e+2, -501048.06, -617103.8, 27302.402, -0.05317074, -0.11367805, -494945.94, 42790.586, 0.0, 10.0006485, 9.999126 
1.2050286e+3, 2.55129e+2, -417620.72, -525457.25, 4415.1646, 0.021516392, -0.0019824726, -417440.25, 22290.023, 0.00000000020898414, 10.000539, 9.999141 
1.2050143e+3, 2.651278e+2, -381008.84, -576724.06, -8073.848, 0.036744654, 0.026060132, -380676.34, -38935.047, 0.00000074892756, 10.000652, 9.998053 
1.204999e+3, 2.7512485e+2, -228609.67, -448014.97, -7149.6895, 0.000050039464, -0.09950886, -228376.92, 15393.614, 0.000009032264, 10.001, 9.998096 
1.20498575e+3, 2.85123e+2, -137442.88, -310939.25, 79598.625, 0.025470192, -0.112905204, -106457.516, 39331.773, 0.000052112464, 10.000772, 9.998477 
1.2049739e+3, 2.9512185e+2, -164778.73, -272328.03, 42831.285, 0.10790276, -0.10103718, -149805.78, -102005.28, 0.00018292993, 9.999903, 9.998487 
1.2049591e+3, 3.0512124e+2, -109900.06, -255607.69, -19815.883, 0.009760222, 0.015744448, -107253.234, -107253.234, 0.000455038, 10.0001135, 9.998158 
1.2049442e+3, 3.1511828e+2, 92828.695, -39903.203, 31948.184, 0.040754985, -0.13124692, 100118.2, 100118.2, 0.0008751653, 10.000964, 9.999224 
1.2152247e+3, 1.251506e+2, -1751330.8, -1707986.1, -44523.58, 0.11080641, -0.112715065, -1680140.4, 33381.18, 0.0026624324, 9.999649, 10.000186 
1.2152088e+3, 1.3515113e+2, -1560241.5, -1642564.0, 5485.4814, -0.0068049855, -0.034282885, -1559877.6, 55633.45, 0.0014356553, 10.0006, 9.999535 
1.21519215e+3, 1.4514929e+2, -1517083.4, -1703515.4, -53455.18, -0.23988697, -0.105542585, -1502843.9, 14686.532, 0.0005075534, 10.000789, 9.998328 
1.21517874e+3, 1.5514912e+2, -1460597.8, -1627699.8, -78084.29, -0.011198821, 0.018677447, -1429790.0, -10250.344, 0.000076397075, 10.000518, 9.99831 
1.21516354e+3, 1.6514851e+2, -1304215.6, -1349962.0, -71475.875, 0.013188703, 0.065072946, -1252042.3, 69504.74, 0.0000008702971, 10.000271, 9.999654 
1.21514745e+3, 1.7514719e+2, -1220658.0, -1252242.3, -75068.516, -0.12202445, -0.060160674, -1159738.5, 63816.855, 0.0, 10.000143, 9.999715 
1.2151329e+3, 1.8514685e+2, -1144090.8, -1155265.5, -71259.81, -0.09397157, -0.06471969, -1078199.6, 47357.297, 0.0, 9.999952, 9.999801 
1.2151201e+3, 1.9514726e+2, -1088890.3, -1075384.1, -21238.623, 0.08518672, -0.03185372, -1059850.9, -32296.918, 0.0, 9.999641, 9.999826 
1.21510535e+3, 2.051469e+2, -999255.1, -1030467.56, -29600.271, 0.095933616, -0.022047201, -981399.0, -51841.41, 0.0, 9.9998, 9.999386 
1.215089e+3, 2.1514563e+2, -803868.4, -879312.94, -31211.674, -0.04184315, -0.1154629, -792630.06, 38939.098, 0.0, 10.000432, 9.99945 
1.2150735e+3, 2.2514506e+2, -683099.56, -800728.4, -67050.56, -0.064652085, -0.10002932, -652723.6, 80850.27, 0.0, 10.000721, 9.999186 
1.2150586e+3, 2.3514491e+2, -594660.56, -698987.94, -30495.797, 0.022165889, -0.057002503, -586400.4, 49173.656, 0.0, 10.000624, 9.999255 
1.2150436e+3, 2.451438e+2, -549224.8, -677375.9, 15149.029, 0.01739018, -0.065580025, -547458.4, -9874.978, 0.0, 10.000485, 9.998785 
1.2150285e+3, 2.551415e+2, -455734.47, -582282.1, 11795.393, -0.066267215, -0.19960491, -454644.4, -15040.3545, 0.00000000018849695, 10.000446, 9.998791 
1.2150139e+3, 2.6514e+2, -373435.7, -540579.9, -5052.881, -0.088015154, -0.20302226, -373283.06, -31665.217, 0.00000061447383, 10.000561, 9.998348 
1.21499985e+3, 2.751389e+2, -218778.77, -410334.6, 17512.912, -0.040096972, -0.17006762, -217190.81, 26436.94, 0.000008322687, 10.00092, 9.998396 
1.2149867e+3, 2.8513783e+2, -204577.73, -415519.6, 37060.445, 0.02564022, -0.086673826, -198256.03, -52614.93, 0.000050693892, 10.000632, 9.997825 
1.21497415e+3, 2.9513663e+2, -215239.17, -357811.22, 28579.62, 0.105173655, -0.019873358, -209723.56, -162065.39, 0.00018223259, 9.999824, 9.997934 
1.2149589e+3, 3.0513623e+2, -13630.041, -30005.133, 5648.598, -0.040955454, 0.060672674, -11870.599, -11870.599, 0.00045375043, 10.000005, 9.999764 
1.2149441e+3, 3.1513414e+2, 158003.6, 132720.58, 106194.79, -0.124090135, -0.15702948, 252306.66, 252306.66, 0.0008639957, 10.000818, 10.000477 
1.2252246e+3, 1.2516457e+2, -1529016.3, -1582752.3, 5647.1587, 0.076022044, -0.09575533, -1528429.3, 184958.06, 0.0029179724, 10.001046, 10.00039 
1.22521035e+3, 1.3516507e+2, -1662137.9, -1724377.0, -51612.215, 0.12726812, 0.004832246, -1632989.4, -17611.912, 0.0015834377, 10.000023, 9.999253 
1.2251934e+3, 1.4516334e+2, -1597238.1, -1723640.8, -40739.137, -0.15793683, -0.04897516, -1585245.9, -67851.11, 0.00056846405, 10.000156, 9.998495 
1.2251796e+3, 1.551628e+2, -1281396.5, -1512756.0, -54590.305, -0.018091688, 0.015606194, -1269162.5, 150243.25, 0.00008951281, 10.001635, 9.998551 
1.2251643e+3, 1.6516203e+2, -1161640.1, -1329320.1, -56192.363, 0.007915754, 0.054558843, -1144550.8, 176864.28, 0.0000012652538, 10.001426, 9.99926 
1.2251479e+3, 1.7516077e+2, -1318400.5, -1339728.3, -72867.195, -0.055141706, -0.028028581, -1255421.0, -31995.326, 0.0, 9.999626, 9.999377 
1.2251331e+3, 1.8516055e+2, -1219944.1, -1146087.1, -20115.04, -0.034838464, -0.024056714, -1140964.1, -15538.162, 0.0, 9.9992285, 10.000219 
1.22511975e+3, 1.9516115e+2, -973645.3, -970591.25, -41949.4, 0.06376145, -0.013669436, -930141.1, 97277.61, 0.0, 10.000225, 10.000268 
1.2251052e+3, 2.0516095e+2, -858341.0, -975544.7, -36886.355, 0.06708952, -0.0041783396, -847698.5, 81721.96, 0.0, 10.000808, 9.999285 
1.2250899e+3, 2.1515982e+2, -734152.44, -854013.3, -40381.777, -0.016719751, -0.073873624, -721817.06, 109615.38, 0.0, 10.000949, 9.999373 
1.2250746e+3, 2.251595e+2, -663658.3, -750347.7, -80921.06, -0.017731218, -0.046696097, -615204.44, 118230.13, 0.0, 10.000679, 9.999547 
1.2250592e+3, 2.3515971e+2, -658455.94, -691284.75, -88740.51, 0.053064864, -0.0059215007, -584624.5, 50805.188, 0.0, 10.000015, 9.9996 
1.2250442e+3, 2.4515855e+2, -623583.56, -730031.0, 4994.9043, 0.06094844, -0.028123444, -623349.7, -85910.65, 0.0, 10.000035, 9.998652 
1.22502975e+3, 2.5515598e+2, -422868.84, -574392.0, -1199.5682, 0.016123172, -0.17868589, -422859.34, 16603.908, 0.0, 10.000717, 9.9987135 
1.2250152e+3, 2.6515442e+2, -319329.9, -492283.84, -7562.846, -0.011107973, -0.19226469, -318999.8, 22477.104, 0.0000003685213, 10.000837, 9.9985485 
1.2250006e+3, 2.7515355e+2, -294555.97, -424740.47, -17119.672, -0.022161186, -0.15954192, -292342.3, -48858.73, 0.0000073761885, 10.000319, 9.998584 
1.2249869e+3, 2.8515235e+2, -215069.28, -426655.78, 48008.234, 0.010197019, -0.09059707, -204685.92, -59189.082, 0.00004908337, 10.000562, 9.997785 
1.2249744e+3, 2.9515082e+2, 9409.278, -259134.44, 59614.457, 0.08717155, -0.05081828, 22048.33, 69565.47, 0.00018069774, 10.001394, 9.997864 
1.2249595e+3, 3.051504e+2, 136710.72, 69046.12, 11196.285, -0.02022327, 0.01430832, 138515.22, 138515.22, 0.00045143487, 10.000921, 10.000002 
1.2249448e+3, 3.1514934e+2, -127039.79, -35277.902, -29728.098, -0.022585727, -0.11789603, -26488.736, -26488.736, 0.0008578977, 9.99893, 10.000255 
1.2352244e+3, 1.2518047e+2, -1527488.9, -1580177.4, 23905.486, -0.10875319, 0.17124094, -1518259.4, 194976.58, 0.0031899144, 10.001053, 10.000398 
1.2352114e+3, 1.351778e+2, -1667545.1, -1754256.1, -89925.96, 0.21107854, -0.02248667, -1611068.9, 4188.582, 0.0017411282, 10.000087, 9.999022 
1.2351959e+3, 1.451762e+2, -1546633.6, -1628902.4, 1797.956, 0.06362841, -0.08567182, -1546594.4, -29322.617, 0.0006337289, 10.000194, 9.999132 
1.2351814e+3, 1.5517624e+2, -1239106.0, -1423753.1, 7915.7236, -0.028505508, -0.02571845, -1238767.3, 180505.48, 0.00010392506, 10.001611, 9.999185 
1.2351654e+3, 1.6517603e+2, -1177868.9, -1354317.5, -138396.92, -0.045866888, 0.045954023, -1101967.5, 219309.22, 0.0000017603737, 10.00139, 9.999103 
1.23514846e+3, 1.7517546e+2, -1328288.0, -1367842.0, -129577.57, 0.0162095, 0.05013839, -1216986.9, 6298.15, 0.0, 9.999652, 9.999175 
1.23513244e+3, 1.851749e+2, -1236040.0, -1181959.4, 6893.321, -0.03921341, 0.041078452, -1181094.5, -55804.453, 0.0, 9.999241, 9.999968 
1.23511754e+3, 1.9517417e+2, -1000725.25, -1011968.3, 7114.5117, -0.19926476, -0.053424474, -997279.4, 30014.246, 0.0, 10.000157, 10.000019 
1.23510376e+3, 2.0517446e+2, -860961.3, -951052.4, -45416.41, -0.18049467, 0.004248786, -842040.06, 87251.0, 0.0, 10.000682, 9.999512 
1.2350912e+3, 2.151755e+2, -739607.7, -835095.6, -25619.518, 0.0037070792, 0.12747873, -733168.25, 98116.38, 0.0, 10.000814, 9.999571 
1.2350759e+3, 2.251753e+2, -676843.44, -746923.06, -116703.266, 0.037475582, 0.15469453, -590033.2, 143252.48, 0.0, 10.000544, 9.999639 
1.2350581e+3, 2.3517376e+2, -672527.5, -692177.3, -100728.96, -0.0672784, 0.011791119, -581145.44, 54150.535, 0.0, 9.99989, 9.999658 
1.23504356e+3, 2.4517284e+2, -633519.44, -720059.5, 19025.555, -0.021138323, 0.0038663535, -629521.44, -92218.45, 0.0, 9.999905, 9.998782 
1.2350324e+3, 2.5517228e+2, -424196.75, -559414.56, 34988.04, 0.17672531, 0.043685805, -415679.9, 23628.83, 0.0, 10.000631, 9.998863 
1.2350181e+3, 2.6517093e+2, -337634.78, -494405.8, -35652.383, 0.17122489, 0.038107242, -329907.7, 11412.406, 0.00000016286783, 10.000692, 9.9986 
1.2350011e+3, 2.7516857e+2, -306632.0, -425931.25, -20861.396, -0.032781567, -0.08048572, -303089.25, -59750.395, 0.000006622681, 10.00022, 9.998619 
1.23498656e+3, 2.8516647e+2, -192223.11, -353048.03, 71400.62, -0.11350908, -0.1329349, -165098.55, -19741.068, 0.00004875032, 10.000453, 9.9983425 
1.23497464e+3, 2.9516438e+2, 39137.35, -185277.34, 106272.34, -0.061879437, -0.20948757, 81475.46, 128853.95, 0.00018165374, 10.001336, 9.998403 
1.2349603e+3, 3.0516356e+2, 35994.945, -117064.484, -66216.03, -0.0462276, -0.1423164, 60664.832, 60664.832, 0.00045300575, 10.000821, 9.998773 
1.234946e+3, 3.1516388e+2, -260457.55, -272028.0, -65734.625, 0.15903303, -0.019614814, -200254.06, -200254.06, 0.0008590856, 9.998764, 9.998704 
1.24522604e+3, 1.2519349e+2, -1644889.8, -1672285.3, 35842.816, -0.0018018081, 0.21738009, -1620216.5, 92895.33, 0.003475539, 10.000431, 10.00005 
1.24521144e+3, 1.3519076e+2, -1501802.4, -1678989.4, -140572.05, 0.16066958, 0.02467283, -1424235.4, 190902.84, 0.0019075654, 10.001257, 9.998976 
1.2451971e+3, 1.4519018e+2, -1403007.8, -1434108.1, -3673.3076, 0.14842242, 0.009215979, -1402579.8, 114561.43, 0.0007030745, 10.000646, 10.000249 
1.245182e+3, 1.5519032e+2, -1576199.4, -1466419.5, 10761.06, 0.023093864, -0.0306273, -1465374.6, -46239.203, 0.00011956255, 9.998786, 10.000251 
1.2451656e+3, 1.6519046e+2, -1505422.8, -1493759.5, -62969.06, -0.032616667, 0.015408757, -1436352.6, -115218.43, 0.0000023468863, 9.999083, 9.99925 
1.2451488e+3, 1.7519055e+2, -1053240.5, -1214565.0, -56088.63, -0.0008694903, 0.07316815, -1035656.44, 187481.23, 0.0, 10.001477, 9.999333 
1.2451329e+3, 1.8519e+2, -896131.94, -1057256.9, 79511.086, -0.041686084, 0.07446138, -863502.9, 261640.08, 0.0, 10.001729, 9.999625 
1.245118e+3, 1.9518858e+2, -1050347.4, -1075380.6, 57420.785, -0.14968042, -0.05689833, -1004094.8, 23057.797, 0.0, 9.9999695, 9.999678 
1.24510415e+3, 2.0518859e+2, -1047003.25, -1038116.94, 47766.78, -0.14065912, -0.0112643195, -994587.1, -65434.953, 0.0, 9.999392, 9.9995365 
1.2450913e+3, 2.1518975e+2, -872666.75, -893623.56, 28417.666, -0.012403832, 0.12192793, -852857.2, -21713.277, 0.0, 9.999877, 9.9996195 
1.2450763e+3, 2.251894e+2, -693972.44, -795363.5, -71484.61, 0.028971422, 0.14756276, -657031.9, 76115.18, 0.0, 10.000603, 9.999274 
1.2450593e+3, 2.3518735e+2, -454999.97, -623924.8, -111102.836, -0.010250961, -0.011222919, -399899.72, 235263.88, 0.0, 10.001546, 9.999324 
1.2450451e+3, 2.4518636e+2, -385213.97, -598751.94, 6697.56, 0.046322357, -0.011424364, -385004.13, 152167.75, 0.0, 10.001596, 9.998802 
1.2450332e+3, 2.551862e+2, -401048.94, -545385.1, -8212.1455, 0.19593525, 0.06452329, -400583.2, 38590.69, 0.0, 10.000777, 9.998886 
1.2450189e+3, 2.6518506e+2, -305351.22, -461262.66, -52091.906, 0.18339898, 0.072831854, -289548.4, 51634.69, 0.000000050542315, 10.000823, 9.998766 
1.24500245e+3, 2.751828e+2, -88011.51, -306948.0, -51537.94, 0.018195588, -0.05183309, -76486.13, 166715.14, 0.0000061370592, 10.001642, 9.998763 
1.2449878e+3, 2.8518075e+2, -64429.418, -294451.72, 31687.137, -0.076629974, -0.10439499, -60144.133, 85075.05, 0.000049451537, 10.001354, 9.998311 
1.2449749e+3, 2.9517856e+2, -157603.95, -280272.94, -7220.791, -0.09446599, -0.18405144, -157180.38, -109940.41, 0.00018703903, 10.000001, 9.998388 
1.2449604e+3, 3.051772e+2, -91490.445, -218627.78, -143373.11, -0.06417879, -0.15426056, 1774.6376, 1774.6376, 0.00046630288, 10.000094, 9.998439 
1.2449469e+3, 3.151784e+2, 104275.92, -134932.48, -108154.67, 0.24070875, 0.08966924, 145924.94, 145924.94, 0.0008809238, 10.001435, 9.998365 
1.2552296e+3, 1.2520385e+2, -1690009.6, -1786422.1, -9115.766, 0.24049021, 0.052998707, -1689155.4, 23857.752, 0.0037739007, 10.000495, 9.999248 
1.2552105e+3, 1.3520397e+2, -1491942.0, -1659414.8, -98265.99, -0.09002947, 0.14245133, -1446573.9, 168444.67, 0.0020822603, 10.001253, 9.999118 
1.2551971e+3, 1.452053e+2, -1289911.5, -1202172.4, -83441.93, 0.035482664, 0.22442444, -1151770.5, 365232.2, 0.0007764397, 10.000652, 10.001841 
1.2551811e+3, 1.5520506e+2, -1459324.6, -1240677.5, -46528.79, 0.040239774, -0.008153527, -1231187.9, 187805.56, 0.00013646827, 9.998852, 10.001771 
1.2551649e+3, 1.6520527e+2, -1473948.3, -1441860.1, 12022.57, -0.044309147, -0.045362137, -1437855.4, -116867.8, 0.0000030208696, 9.999137, 9.999581 
1.2551488e+3, 1.7520599e+2, -1033353.1, -1168562.3, 38724.035, -0.17574374, 0.040468104, -1023047.94, 199935.88, 0.0, 10.001453, 9.999661 
1.2551342e+3, 1.8520576e+2, -923160.5, -1105182.9, -580.743, -0.1170122, 0.07311936, -923158.6, 201827.14, 0.0, 10.00169, 9.999316 
1.2551208e+3, 1.9520432e+2, -1076188.3, -1122456.9, 1272.0804, 0.1077497, -0.032596316, -1076153.4, -49156.973, 0.0, 9.999935, 9.999372 
1.2551059e+3, 2.0520334e+2, -1075020.8, -1071122.0, 52671.71, 0.088774756, -0.060932968, -1020363.6, -91359.7, 0.0, 9.9992895, 9.999359 
1.25509e+3, 2.1520267e+2, -908885.3, -935762.3, 56441.22, -0.15377226, -0.09091106, -864304.8, -33294.58, 0.0, 9.999737, 9.9994 
1.2550755e+3, 2.2520174e+2, -772091.2, -919827.4, -48964.996, -0.13621262, -0.071725205, -757336.1, -24316.615, 0.0, 10.000441, 9.998497 
1.2550625e+3, 2.3520039e+2, -525257.0, -743204.4, -66706.79, 0.13223141, -0.083219, -506461.16, 128572.27, 0.0, 10.001426, 9.998565 
1.2550479e+3, 2.4519911e+2, -410717.03, -617495.44, -34964.598, 0.17012408, -0.07228311, -404964.8, 132080.78, 0.0, 10.0014515, 9.998741 
1.2550321e+3, 2.5519764e+2, -427457.94, -571501.1, -26863.365, -0.0106491465, -0.1183653, -422611.13, 16447.564, 0.0, 10.00065, 9.998768 
1.2550175e+3, 2.651967e+2, -307691.22, -434371.63, -31120.28, -0.05719579, -0.094959885, -300459.1, 40607.707, 0.00000007625481, 10.000688, 9.999016 
1.2550044e+3, 2.7519616e+2, -84266.88, -274913.94, -7447.2656, 0.029857371, -0.07741186, -83976.414, 159095.03, 0.0000061507535, 10.001537, 9.999034 
1.2549902e+3, 2.851952e+2, -122096.13, -398223.94, -28965.28, 0.011896498, -0.0013676876, -119090.445, 25991.33, 0.000051588533, 10.001278, 9.997637 
1.2549749e+3, 2.9519352e+2, -213916.2, -385125.44, -40698.7, -0.10282471, 0.032023866, -204734.03, -157633.14, 0.00019968531, 9.999941, 9.997699 
1.2549597e+3, 3.0519125e+2, -68905.58, -151646.38, -99249.52, -0.16956528, -0.019294078, -2749.3376, -2749.3376, 0.00050037476, 10.000013, 9.998932 
1.2549464e+3, 3.1519258e+2, 130374.17, -40289.813, -14636.685, 0.0046909647, 0.18581614, 131620.36, 131620.36, 0.00094181777, 10.001266, 9.999096 
1.2652312e+3, 1.2521802e+2, -1665479.4, -1735125.6, 106835.836, 0.37142885, 0.033530045, -1587934.6, 124941.58, 0.004085261, 10.00052, 9.999586 
1.2652105e+3, 1.3521948e+2, -1676819.3, -1645529.1, 116750.805, -0.12116602, 0.17299116, -1543379.8, 71487.125, 0.0022650692, 9.999572, 10.000008 
1.2651975e+3, 1.452211e+2, -1439878.3, -1315490.8, 104618.195, 0.07403829, 0.25824532, -1255975.8, 260872.63, 0.00085386867, 9.999803, 10.001472 
1.2651813e+3, 1.5522063e+2, -1155344.4, -1134083.1, -24104.934, 0.051911734, 0.043858822, -1118368.8, 300474.7, 0.00015477135, 10.001122, 10.001406 
1.265165e+3, 1.6522056e+2, -1194233.6, -1299663.9, 10759.308, -0.034899876, -0.00696501, -1193146.8, 127692.99, 0.0000038088367, 10.001023, 9.999642 
1.2651496e+3, 1.7522088e+2, -1266008.3, -1276860.0, -4502.044, -0.15968794, 0.029707938, -1264383.6, -41546.316, 0.0, 9.99983, 9.999704 
1.2651351e+3, 1.8522057e+2, -1205188.4, -1272657.9, -60415.484, -0.08761073, 0.06753987, -1169727.3, -44887.156, 0.0, 9.999902, 9.999026 
1.2651217e+3, 1.9521944e+2, -918447.25, -1077388.8, -84858.35, 0.15173034, 0.026594074, -881657.3, 145192.95, 0.0, 10.001173, 9.99908 
1.2651066e+3, 2.0521808e+2, -787979.2, -947023.9, -10384.87, 0.13611877, -0.018811893, -787303.94, 141557.38, 0.0, 10.001318, 9.999231 
1.2650904e+3, 2.1521634e+2, -830529.1, -912694.75, -24518.158, -0.11875733, -0.14439742, -823769.1, 7106.1543, 0.0, 10.000337, 9.999266 
1.2650761e+3, 2.2521518e+2, -786021.56, -939073.2, -30857.375, -0.10196329, -0.1365307, -780034.5, -47148.375, 0.0, 10.000387, 9.998398 
1.2650642e+3, 2.3521446e+2, -545637.44, -761394.06, -20460.043, 0.177533, -0.07383143, -543714.4, 91180.65, 0.0, 10.001321, 9.998493 
1.2650496e+3, 2.4521318e+2, -422347.8, -636298.56, -13094.28, 0.18782763, -0.055323943, -421549.4, 115358.1, 0.0, 10.001427, 9.998625 
1.2650323e+3, 2.5521106e+2, -422474.78, -583240.9, -29294.543, -0.05176803, -0.15364185, -417303.16, 21623.113, 0.0, 10.000743, 9.998645 
1.2650177e+3, 2.6521e+2, -391597.66, -512643.44, 4243.582, -0.075644165, -0.12164393, -391449.06, -50511.813, 0.00000015326442, 10.000275, 9.99868 
1.2650059e+3, 2.7520972e+2, -336067.6, -428499.75, -44051.11, 0.105794676, -0.041849166, -318436.78, -75494.24, 0.0000068361555, 9.999951, 9.99874 
1.2649918e+3, 2.85209e+2, -282376.03, -435189.6, -50661.52, 0.10061323, 0.05779397, -267106.28, -122155.98, 0.000055437977, 10.000007, 9.997989 
1.2649755e+3, 2.9520765e+2, -99861.37, -291380.8, -10826.944, -0.070632234, 0.087380186, -99251.24, -52287.574, 0.00021948728, 10.00056, 9.998036 
1.26496e+3, 3.0520472e+2, -34572.668, -132767.22, -12452.943, -0.16002807, -0.047512896, -33018.008, -33018.008, 0.0005556111, 10.000248, 9.998941 
1.2649466e+3, 3.1520572e+2, -191341.61, -145991.05, -1049.6178, 0.033883054, 0.12593514, -145966.77, -145966.77, 0.0010464599, 9.998854, 9.99952 
1.2752293e+3, 1.252361e+2, -1554589.1, -1526462.8, -82315.79, 0.07068399, 0.15526052, -1457017.5, 255683.1, 0.0044096503, 10.000584, 10.001 
1.2752111e+3, 1.3523729e+2, -1574768.8, -1445456.1, 90159.03, -0.025841698, 0.124503545, -1399166.1, 215517.44, 0.0024558255, 9.999604, 10.001372 
1.2751983e+3, 1.4523755e+2, -1584070.9, -1629304.1, 139868.56, 0.13177957, 0.11666194, -1465002.3, 51676.91, 0.00093550276, 9.999865, 9.999287 
1.2751818e+3, 1.5523708e+2, -1305799.6, -1450522.1, 32596.092, -0.026818536, 0.12131116, -1298796.8, 119888.12, 0.00017466526, 10.001138, 9.999226 
1.2751658e+3, 1.652363e+2, -1199530.0, -1321843.5, -48294.895, -0.08880264, 0.11558522, -1182760.3, 137930.66, 0.0000047674703, 10.0010605, 9.999477 
1.2751506e+3, 1.752352e+2, -1271245.6, -1297714.3, -38292.03, -0.05118508, 0.026965972, -1243965.4, -21267.625, 0.0, 9.999866, 9.999546 
1.2751356e+3, 1.852345e+2, -1231641.6, -1328960.6, -22929.018, -0.054160014, 0.05306324, -1226510.0, -101805.31, 0.0, 9.999906, 9.998638 
1.2751207e+3, 1.9523394e+2, -952410.1, -1137638.6, -26601.797, -0.09622924, 0.1080965, -948665.4, 78048.625, 0.0, 10.001122, 9.998692 
1.275106e+3, 2.0523275e+2, -810785.4, -967024.44, -59880.8, -0.07746077, 0.10213572, -790475.4, 138249.31, 0.0, 10.001202, 9.99915 
1.2750919e+3, 2.152308e+2, -853531.5, -929317.94, -51148.727, 0.0005448715, -0.039401516, -827768.75, 2969.9844, 0.0, 10.0002, 9.999218 
1.275078e+3, 2.252298e+2, -766162.94, -859923.7, -6362.508, 0.039283376, -0.044224158, -765733.2, -32987.3, 0.0, 10.000232, 9.999013 
1.2750643e+3, 2.3522954e+2, -527426.9, -690787.2, 25483.703, 0.04097689, 0.0016165755, -523543.8, 111204.94, 0.0, 10.001181, 9.999043 
1.2750494e+3, 2.4522842e+2, -462204.2, -681754.9, -49396.703, 0.017321713, 0.026285965, -451602.38, 85156.36, 0.0, 10.001269, 9.998388 
1.2750335e+3, 2.552264e+2, -452808.78, -618309.25, -41736.92, -0.026862297, -0.04460892, -442879.06, -4102.492, 0.0, 10.000623, 9.998461 
1.2750192e+3, 2.6522487e+2, -473350.3, -657161.06, -18263.99, 0.023470704, -0.0022428283, -471553.13, -130759.2, 0.00000020123079, 10.000167, 9.997738 
1.2750065e+3, 2.752235e+2, -418941.4, -572675.8, -42610.76, 0.15040958, 0.058525976, -407920.94, -165107.02, 0.0000077157165, 9.999837, 9.997803 
1.274992e+3, 2.8522217e+2, -202810.28, -248529.81, -42366.9, 0.09947844, 0.076127626, -177529.39, -32704.31, 0.000060411407, 9.999913, 9.999315 
1.274976e+3, 2.952208e+2, -25323.48, -109410.28, 24826.576, -0.10124385, -0.029437926, -18540.594, 28289.031, 0.0002426435, 10.000445, 9.999342 
1.2749606e+3, 3.052175e+2, -90667.29, -226983.58, -71041.65, -0.13588719, -0.23287942, -60375.2, -60375.2, 0.0006215773, 10.000153, 9.998339 
1.2749471e+3, 3.1521827e+2, -224518.61, -164135.4, -13221.058, 0.1438976, -0.03272294, -161367.5, -161367.5, 0.0011780667, 9.998654, 9.999482 
1.2852287e+3, 1.2525366e+2, -1642705.9, -1596035.1, -116407.914, 0.0040819747, 0.23101573, -1500646.8, 211883.16, 0.0047468157, 10.000068, 10.000775 
1.285213e+3, 1.3525338e+2, -1509815.8, -1469604.4, -67060.664, 0.1657145, 0.101115175, -1419700.4, 194824.63, 0.0026545508, 10.00029, 10.000865 
1.2851988e+3, 1.4525239e+2, -1557856.9, -1694077.4, 34608.1, 0.17703947, 0.027038176, -1549568.6, -33035.75, 0.0010215283, 10.000384, 9.998593 
1.2851824e+3, 1.552522e+2, -1382888.1, -1558231.3, 12839.209, -0.067848586, 0.12736675, -1381953.0, 36585.293, 0.00019628371, 10.000913, 9.998598 
1.2851667e+3, 1.6525126e+2, -1204865.0, -1346325.9, -46911.39, -0.0956302, 0.14455724, -1190722.3, 129824.336, 0.0000059623408, 10.001123, 9.999283 
1.285152e+3, 1.7524952e+2, -1113134.4, -1243379.5, -62388.984, 0.036688827, 0.0147572225, -1088072.0, 134486.52, 0.0, 10.001055, 9.999345 
1.2851365e+3, 1.852485e+2, -1126331.3, -1299665.6, 12753.848, 0.005421497, 0.030804785, -1125397.9, -829.3246, 0.0, 10.000731, 9.998436 
1.2851205e+3, 1.9524795e+2, -1094648.3, -1226922.9, 387.51892, -0.17097242, 0.10569353, -1094647.1, -68068.12, 0.0, 10.000248, 9.998497 
1.2851062e+3, 2.0524698e+2, -920416.0, -1030273.2, -18335.643, -0.14534202, 0.13598186, -917436.5, 11151.962, 0.0, 10.00049, 9.999062 
1.2850934e+3, 2.1524544e+2, -688997.56, -856028.44, -30245.938, 0.067048505, 0.045730706, -683689.3, 146909.6, 0.0, 10.001359, 9.999163 
1.2850794e+3, 2.2524442e+2, -597452.1, -768366.94, 14937.232, 0.10313481, 0.03501038, -596156.5, 136449.39, 0.0, 10.001349, 9.999102 
1.2850645e+3, 2.3524366e+2, -619340.06, -724577.75, -15483.676, -0.021257797, 0.025680412, -617109.25, 17502.602, 0.0, 10.000511, 9.999132 
1.2850498e+3, 2.4524255e+2, -550512.25, -716825.7, -68178.13, -0.033868004, 0.04198668, -526136.2, 10485.128, 0.0, 10.000619, 9.998464 
1.2850353e+3, 2.5524098e+2, -314732.66, -545048.7, -64306.883, 0.060166307, 0.00898399, -297993.94, 140641.39, 0.0, 10.00154, 9.998526 
1.2850212e+3, 2.6523927e+2, -271334.22, -583163.1, -5271.3213, 0.12857834, 0.039417576, -271245.16, 69409.18, 0.00000014147287, 10.001652, 9.997531 
1.285007e+3, 2.752371e+2, -246602.66, -511620.2, 1598.8762, 0.17028207, 0.045537587, -246593.02, -3912.2104, 0.000007879153, 10.001108, 9.99761 
1.2849921e+3, 2.8523564e+2, -104433.64, -165020.69, 24967.318, 0.102470785, 0.041210826, -95470.77, 49222.164, 0.00006527563, 10.000432, 9.999644 
1.2849765e+3, 2.952346e+2, -137900.23, -129512.23, -13925.916, -0.052614413, -0.06358793, -119162.48, -72468.21, 0.00026928063, 9.999516, 9.999657 
1.2849611e+3, 3.0523166e+2, -198646.1, -310438.75, -108998.1, -0.063300915, -0.2307909, -132047.58, -132047.58, 0.0006972263, 9.999532, 9.9980755 
1.284947e+3, 3.1523213e+2, 43607.402, -20774.547, -66755.875, 0.20382391, -0.0358818, 85528.55, 85528.55, 0.0013269355, 10.000387, 9.999654 
1.2952277e+3, 1.2527096e+2, -1756412.8, -1830871.6, -99243.016, -0.15742469, 0.2589978, -1687645.9, 24716.291, 0.0050962004, 10.000079, 9.99915 
1.2952156e+3, 1.3526802e+2, -1673698.5, -1807951.1, -55352.26, 0.38416624, 0.094852485, -1653820.1, -39431.973, 0.0028611089, 10.000295, 9.998537 
1.2951988e+3, 1.452658e+2, -1506944.0, -1593740.3, 38125.26, 0.10903772, -0.012743296, -1492575.9, 23831.41, 0.00111182, 10.000407, 9.99927 
1.2951826e+3, 1.5526626e+2, -1333862.8, -1451813.4, 44500.73, -0.15986915, 0.07310729, -1318957.0, 99443.97, 0.000219555, 10.000892, 9.999338 
1.2951677e+3, 1.6526555e+2, -1225432.3, -1384099.3, -62890.53, -0.15100323, 0.09113996, -1203528.3, 116876.98, 0.0000074533, 10.001098, 9.999037 
1.295153e+3, 1.752638e+2, -1133644.4, -1284774.3, -56370.582, 0.028588505, -0.0140390415, -1114934.6, 107484.75, 0.0, 10.001046, 9.999065 
1.2951374e+3, 1.8526256e+2, -1131580.4, -1308923.5, -16306.256, 0.0050905566, -0.0045860424, -1130093.5, -5661.898, 0.0, 10.000721, 9.99838 
1.295121e+3, 1.9526148e+2, -1101536.0, -1235122.1, -6791.4287, -0.16565777, 0.021450877, -1101191.6, -74746.664, 0.0, 10.000216, 9.998458 
1.2951067e+3, 2.0526074e+2, -939178.3, -1046000.7, 3529.7676, -0.162019, 0.08024021, -939061.8, -10609.118, 0.0, 10.000395, 9.998997 
1.295094e+3, 2.152602e+2, -719537.75, -880685.2, 9927.364, -0.0059021693, 0.09653842, -718928.5, 111528.22, 0.0, 10.001196, 9.999069 
1.2950799e+3, 2.2525892e+2, -655290.5, -848830.1, -27362.117, 0.0065147737, 0.09065763, -651496.5, 80970.44, 0.0, 10.001178, 9.998633 
1.2950644e+3, 2.3525684e+2, -668648.06, -795625.2, -31386.145, -0.10792947, -0.007572916, -661313.7, -26829.217, 0.0, 10.000373, 9.998713 
1.2950502e+3, 2.4525556e+2, -551374.1, -676524.06, -44202.582, -0.0673485, -0.006183837, -537336.44, -841.0696, 0.0, 10.000446, 9.99882 
1.2950376e+3, 2.552548e+2, -313736.28, -505144.8, -19416.596, 0.11804422, 0.007613024, -311786.53, 126715.984, 0.0, 10.001389, 9.998867 
1.2950233e+3, 2.6525316e+2, -250385.61, -521772.28, -35931.633, 0.15871583, 0.00605945, -245708.84, 94809.46, 0.000000052302592, 10.001562, 9.998002 
1.2950073e+3, 2.7525064e+2, -229628.61, -449380.22, -4637.909, 0.066193305, -0.07496115, -229530.77, 13011.781, 0.000007172051, 10.000989, 9.998098 
1.2949917e+3, 2.852495e+2, -173416.38, -278018.2, -18591.55, 0.0009844047, -0.035952367, -170210.25, -25657.11, 0.00006969282, 10.000299, 9.99893 
1.2949763e+3, 2.9524916e+2, -209371.5, -247475.86, -30721.096, -0.0381017, 0.0041116634, -192274.38, -145718.67, 0.00030090305, 9.99939, 9.998902 
1.2949611e+3, 3.0524734e+2, -213615.25, -319800.53, -86000.95, -0.040669102, -0.014878046, -165638.66, -165638.66, 0.0007862506, 9.999444, 9.998054 
1.2949462e+3, 3.1524754e+2, 38741.01, 21729.625, 5606.978, 0.043733194, 0.14825219, 40422.813, 40422.813, 0.0014963577, 10.000178, 10.000043 
1.3052294e+3, 1.2528682e+2, -1708123.5, -1866890.4, -30534.668, -0.008675428, 0.26657614, -1702453.5, 9753.439, 0.0054552136, 10.000678, 9.998612 
1.3052168e+3, 1.352835e+2, -1481680.5, -1813533.3, -37030.426, 0.39703503, 0.15410666, -1477598.6, 136641.3, 0.003073975, 10.0020275, 9.997673 
1.305198e+3, 1.4528123e+2, -1367416.4, -1489569.8, 78750.984, -0.028837161, 0.06755542, -1328833.3, 187426.44, 0.0012055306, 10.0012, 9.9996 
1.3051832e+3, 1.5528126e+2, -1521441.9, -1501076.1, 41408.176, -0.11511634, 0.075273395, -1468617.1, -50362.652, 0.000244213, 9.999425, 9.999702 
1.3051687e+3, 1.652807e+2, -1513569.0, -1521560.5, -3450.2864, -0.037759386, 0.08680009, -1512285.5, -192028.44, 0.000009295233, 9.999125, 9.999041 
1.305154e+3, 1.7527951e+2, -1258672.4, -1344058.5, -3035.8713, 0.06310531, 0.03906143, -1258564.6, -36297.523, 0.0, 10.000191, 9.999068 
1.3051385e+3, 1.8527807e+2, -1090555.6, -1285692.1, 54869.04, 0.028527047, 0.028441966, -1076185.5, 48094.48, 0.0, 10.000972, 9.998427 
1.3051224e+3, 1.9527622e+2, -912981.44, -1138914.1, 50405.652, -0.096021235, -0.029749248, -902246.06, 124051.57, 0.0, 10.001476, 9.998517 
1.3051082e+3, 2.052753e+2, -821279.3, -1020553.25, 78739.36, -0.09619135, 0.023942392, -793922.56, 134384.47, 0.0, 10.001347, 9.998713 
1.3050951e+3, 2.1527515e+2, -814803.5, -956816.8, 49488.242, 0.00513048, 0.10944763, -799259.44, 31050.639, 0.0, 10.000681, 9.9987955 
1.305081e+3, 2.2527373e+2, -724958.3, -891233.5, 37068.56, 0.0096006645, 0.105707556, -717068.75, 15253.548, 0.0, 10.000734, 9.998549 
1.3050656e+3, 2.3527096e+2, -525867.44, -735030.1, 36398.945, -0.068136126, -0.053985912, -519714.25, 114630.47, 0.0, 10.00139, 9.99863 
1.3050516e+3, 2.452695e+2, -483088.53, -685555.2, 29161.383, -0.0038548373, -0.05079202, -478972.1, 57386.344, 0.0, 10.001094, 9.998444 
1.305039e+3, 2.5526893e+2, -541178.56, -654596.3, -19985.105, 0.19252168, 0.02051725, -537760.06, -99393.445, 0.0, 9.999983, 9.998521 
1.3050242e+3, 2.6526758e+2, -456537.16, -534834.7, -26043.41, 0.19306858, 0.024441961, -448665.88, -108287.055, 0.000000026393016, 9.999783, 9.998769 
1.3050073e+3, 2.7526528e+2, -260328.67, -386844.3, -2992.37, 0.012205683, -0.105327524, -260257.94, -17861.574, 0.0000066700077, 10.000437, 9.9988 
1.3049915e+3, 2.852641e+2, -211125.06, -383353.16, -14213.064, -0.030492218, -0.064719655, -209960.02, -65551.74, 0.00007506801, 10.000424, 9.998141 
1.3049768e+3, 2.9526365e+2, -188258.89, -322646.38, -60156.824, 0.056748666, 0.041140463, -165264.81, -118847.19, 0.00033560226, 9.999903, 9.998137 
1.3049616e+3, 3.0526227e+2, -147245.48, -224932.56, -25571.254, 0.06762426, 0.07725191, -139584.08, -139584.08, 0.0008828964, 9.999629, 9.998614 
1.3049458e+3, 3.1526175e+2, -12819.102, 68488.95, 66990.68, 0.010575622, 0.115572006, 106196.27, 106196.27, 0.0016816291, 9.999506, 10.000693 
1.3152328e+3, 1.25301e+2, -1678334.8, -1801969.4, 164637.38, 0.21864568, 0.22160566, -1564291.8, 147774.78, 0.005819013, 10.000687, 9.999045 
1.3152161e+3, 1.352997e+2, -1454794.0, -1746099.0, 4797.1343, 0.113262184, 0.26326174, -1454715.0, 159366.75, 0.0032902497, 10.001973, 9.998164 
1.3151966e+3, 1.4529853e+2, -1367476.9, -1480403.4, -12068.578, -0.3268828, 0.2569446, -1366201.5, 149890.03, 0.0013013786, 10.0011635, 9.999681 
1.3151838e+3, 1.5529725e+2, -1516658.8, -1494582.9, -14942.108, -0.014581438, 0.12976259, -1487043.9, -68945.06, 0.00026992275, 9.99944, 9.999742 
1.31517e+3, 1.6529666e+2, -1490932.9, -1489644.1, 23337.662, 0.14346354, 0.12759441, -1466942.0, -146840.11, 0.00001153221, 9.999179, 9.999238 
1.3151543e+3, 1.7529657e+2, -1241246.9, -1311160.9, 43563.8, 0.05895903, 0.16501373, -1220348.8, 1753.3383, 0.0, 10.000196, 9.999292 
1.3151392e+3, 1.8529505e+2, -1086763.5, -1266473.3, 60076.355, -0.014157899, 0.12680653, -1068530.1, 55583.777, 0.0, 10.000925, 9.998581 
1.3151246e+3, 1.952921e+2, -912720.1, -1123384.6, 74850.01, -0.046361137, -0.05543029, -888833.94, 137303.81, 0.0, 10.001412, 9.998653 
1.3151102e+3, 2.0529066e+2, -868756.8, -1096233.0, 41092.254, -0.034284778, -0.03691126, -861561.4, 66590.266, 0.0, 10.001251, 9.998238 
1.315096e+3, 2.152904e+2, -865690.44, -1035353.94, 35915.656, 0.012553011, 0.08610983, -858400.75, -28242.447, 0.0, 10.00056, 9.998318 
1.3150819e+3, 2.2528888e+2, -725766.4, -856775.7, 51866.605, 0.018959336, 0.08086676, -707718.6, 24453.006, 0.0, 10.000584, 9.998859 
1.3150679e+3, 2.3528607e+2, -530757.1, -709563.25, 71693.01, 0.004426681, -0.11249136, -505561.78, 128630.81, 0.0, 10.001241, 9.9988785 
1.3150536e+3, 2.4528435e+2, -580417.75, -851615.94, -23744.354, 0.062456068, -0.09001721, -578354.56, -42143.992, 0.0, 10.000937, 9.997382 
1.3150392e+3, 2.5528353e+2, -633615.44, -810888.56, -47782.62, 0.19071591, 0.0609598, -621556.3, -183330.05, 0.0, 9.999829, 9.997524 
1.3150236e+3, 2.6528257e+2, -406283.25, -401139.25, -11879.42, 0.13485481, 0.10241438, -391556.6, -51321.168, 0.000000066602475, 9.999656, 9.999747 
1.3150069e+3, 2.7528116e+2, -216687.94, -261169.27, 35834.31, -0.090315506, -0.040624075, -196753.44, 45488.4, 0.0000067822207, 10.000301, 9.999722 
1.3149919e+3, 2.8527963e+2, -283627.88, -523457.53, -43244.633, -0.08351319, -0.028837377, -276068.53, -131811.7, 0.000081610815, 10.000361, 9.997221 
1.3149779e+3, 2.952779e+2, -265361.8, -455883.25, -61008.05, 0.13504325, 0.03890639, -247500.53, -201220.0, 0.0003693925, 9.999777, 9.997292 
1.3149622e+3, 3.0527636e+2, -91011.4, -76345.54, -36083.027, 0.15458317, 0.04285021, -46857.867, -46857.867, 0.00097559066, 9.999503, 9.999686 
1.3149445e+3, 3.1527486e+2, 10808.816, 187165.47, 100411.555, -0.107502416, -0.123297, 232620.58, 232620.58, 0.0018605303, 9.999235, 10.001627 
1.3252343e+3, 1.2531422e+2, -1574203.4, -1705761.5, 220293.16, 0.27385393, 0.14132208, -1410078.3, 301854.22, 0.006183249, 10.001164, 9.999489 
1.3252157e+3, 1.3531394e+2, -1811953.0, -1821069.5, -52297.004, 0.02209528, 0.20092852, -1764016.0, -150078.75, 0.0035072896, 9.99911, 9.999014 
1.3251974e+3, 1.4531362e+2, -1702039.8, -1679528.8, -13928.624, -0.2412624, 0.25004143, -1672876.4, -156936.0, 0.0013982238, 9.999025, 9.999349 
1.325184e+3, 1.553121e+2, -1292392.9, -1426079.9, -61624.23, -0.015826546, 0.13576628, -1268321.1, 149631.9, 0.00029637254, 10.001146, 9.999394 
1.3251698e+3, 1.6531143e+2, -1198510.0, -1345764.5, -43797.887, 0.11769986, 0.14150685, -1186468.0, 133490.2, 0.000014169166, 10.0011835, 9.999251 
1.3251542e+3, 1.7531142e+2, -1356971.8, -1368865.9, -61105.363, 0.07072469, 0.18811, -1301524.8, -79567.27, 0.0, 9.9994135, 9.999275 
1.3251397e+3, 1.8530986e+2, -1253627.4, -1327692.3, 31428.447, 0.012268561, 0.1393394, -1242088.8, -118119.72, 0.0, 9.999703, 9.998746 
1.3251263e+3, 1.9530678e+2, -836316.94, -1068843.4, 21042.412, -0.034299005, -0.07251399, -834428.0, 191564.98, 0.0, 10.00187, 9.998802 
1.3251121e+3, 2.0530532e+2, -722043.2, -1025916.5, -58926.063, -0.016162934, -0.06333592, -711016.6, 216990.08, 0.0, 10.002252, 9.9982395 
1.3250972e+3, 2.1530516e+2, -797295.0, -1001079.5, -46353.74, 0.05056963, 0.068716876, -787246.7, 42766.117, 0.0, 10.001019, 9.998331 
1.3250831e+3, 2.2530395e+2, -697305.25, -829697.3, 56719.527, 0.0735163, 0.08765513, -676328.94, 55694.86, 0.0, 10.000733, 9.998971 
1.3250697e+3, 2.3530167e+2, -509704.2, -680403.7, 39263.055, 0.07160737, -0.06663758, -501106.25, 132934.42, 0.0, 10.001317, 9.999039 
1.325055e+3, 2.4530002e+2, -489968.13, -768406.1, -31387.77, 0.09859128, -0.06276353, -486473.7, 49583.42, 0.0, 10.001386, 9.997741 
1.3250391e+3, 2.5529882e+2, -443421.6, -677931.75, 27960.967, 0.14838067, 0.015358211, -440133.88, -2059.6445, 0.0, 10.000965, 9.997888 
1.3250233e+3, 2.6529792e+2, -304314.56, -396177.8, 114174.38, 0.107055, 0.065170035, -227179.13, 112904.516, 0.0000000978673, 10.000555, 9.999344 
1.3250078e+3, 2.752969e+2, -257841.19, -324348.78, 32868.46, -0.021642704, 0.0044302605, -244338.7, -2249.2588, 0.000006920427, 10.000196, 9.999341 
1.3249929e+3, 2.8529528e+2, -221245.34, -444107.2, -10677.698, -0.006801935, 0.0040429533, -220734.92, -76630.07, 0.000086783395, 10.000598, 9.9976425 
1.3249785e+3, 2.952931e+2, 60324.777, -251809.36, 35559.895, 0.13690048, -0.015638804, 64324.68, 110454.22, 0.00039491727, 10.00182, 9.997702 
1.3249627e+3, 3.052917e+2, 108881.305, -18692.432, 18938.0, 0.1741165, 0.000059850354, 111633.24, 111633.24, 0.0010484561, 10.0010395, 9.999348 
1.3249438e+3, 3.1529015e+2, -169064.19, 24471.264, -1081.7252, -0.049732003, -0.13417365, 24477.309, 24477.309, 0.0020034304, 9.998297, 10.000971 
1.335233e+3, 1.253261e+2, -1539511.8, -1615173.0, 117683.53, -0.004447262, -0.010831774, -1453727.8, 258080.72, 0.0065457188, 10.001091, 10.000144 
1.335215e+3, 1.3532639e+2, -1723995.3, -1643846.5, -130203.195, 0.012843997, -0.015423336, -1547690.0, 66115.2, 0.0037237175, 9.999131, 10.000221 
1.3352004e+3, 1.4532645e+2, -1734787.8, -1760799.8, 47271.14, 0.111077875, 0.0381443, -1698766.0, -182959.34, 0.0014951822, 9.999075, 9.998774 
1.3351835e+3, 1.5532593e+2, -1338248.6, -1521384.3, 24556.912, -0.19585462, 0.09010572, -1335012.9, 82802.914, 0.00032323142, 10.001137, 9.99875 
1.335168e+3, 1.6532518e+2, -1221524.5, -1386726.4, -122021.266, -0.19857879, 0.133863, -1156775.1, 163049.06, 0.000017128494, 10.001154, 9.998984 
1.3351533e+3, 1.7532422e+2, -1368747.3, -1402453.3, -111846.23, 0.021405986, 0.10973834, -1272491.5, -50659.555, 0.00000000003443261, 9.999452, 9.999025 
1.3351397e+3, 1.8532264e+2, -1239013.8, -1307443.8, 101871.234, 0.019485254, 0.0639598, -1165765.1, -41921.13, 0.0, 9.999741, 9.998871 
1.3351274e+3, 1.953203e+2, -836081.6, -1055320.3, 107831.99, -0.14255911, -0.08625856, -791934.44, 233928.19, 0.0, 10.001805, 9.998931 
1.3351133e+3, 2.0531933e+2, -708964.9, -965545.2, -116702.84, -0.12832087, -0.059399925, -663825.2, 264046.3, 0.0, 10.0021105, 9.998722 
1.3350981e+3, 2.1531944e+2, -787654.2, -948508.75, -80838.86, 0.03385776, 0.050397452, -754048.75, 75824.84, 0.0, 10.000872, 9.998768 
1.335084e+3, 2.2531888e+2, -723711.3, -848104.94, 70053.57, 0.08063054, 0.11733025, -692228.1, 39651.27, 0.0, 10.000576, 9.998919 
1.3350709e+3, 2.3531769e+2, -531124.3, -691806.3, 72731.414, 0.03946773, 0.07697252, -503093.13, 130796.02, 0.0, 10.001172, 9.999031 
1.3350555e+3, 2.453164e+2, -386681.78, -519446.3, -58247.477, -0.0010382929, 0.025233014, -364749.97, 171148.78, 0.0, 10.00124, 9.999518 
1.3350384e+3, 2.5531483e+2, -347326.63, -448642.5, 22682.387, -0.03687005, -0.11231733, -342480.34, 95430.0, 0.0, 10.000839, 9.99952 
1.3350232e+3, 2.653136e+2, -442872.28, -666869.8, 89757.29, 0.010866133, -0.078218445, -411343.72, -71420.125, 0.00000008871969, 10.000473, 9.997527 
1.3350098e+3, 2.7531245e+2, -393525.3, -577995.56, 34809.56, 0.12606864, 0.022896754, -387175.34, -145235.06, 0.000006673535, 10.000074, 9.99766 
1.3349947e+3, 2.8531104e+2, -119188.23, -207607.2, 22182.572, 0.09216999, 0.03734961, -113935.15, 30018.047, 0.00008871381, 10.00049, 9.999317 
1.3349786e+3, 2.953093e+2, 149209.78, -33900.465, 95594.55, -0.049612045, -0.10622748, 190020.28, 235984.36, 0.00040757706, 10.0016775, 9.999268 
1.3349622e+3, 3.053085e+2, -26225.627, -269792.2, -87869.67, 0.011680303, -0.017734805, 2165.1477, 2165.1477, 0.0010919488, 10.000921, 9.997675 
1.334943e+3, 3.1530735e+2, -368334.56, -323542.5, -72247.7, 0.0025799042, 0.055156205, -270299.16, -270299.16, 0.002095802, 9.998029, 9.998706 
1.3452327e+3, 1.2533954e+2, -1867378.3, -1739999.5, 69315.31, -0.01137417, -0.011756759, -1709556.3, 2118.7932, 0.0069055543, 9.998697, 10.000434 
1.3452142e+3, 1.3534002e+2, -1494296.1, -1472806.1, -178900.3, -0.02756705, -0.04700047, -1304328.4, 309340.6, 0.0039389143, 10.000459, 10.000765 
1.3452022e+3, 1.4534013e+2, -1459789.8, -1588904.5, 48362.582, 0.3076051, -0.033663165, -1443683.6, 71985.52, 0.0015916337, 10.000803, 9.999115 
1.3451837e+3, 1.553403e+2, -1492111.1, -1563503.4, 66616.19, -0.21896775, 0.055858247, -1452229.9, -34558.824, 0.0003501717, 9.999958, 9.999021 
1.3451679e+3, 1.6533946e+2, -1349309.3, -1487915.0, -46261.02, -0.28498256, 0.09835204, -1335287.6, -15606.859, 0.000020254476, 10.000453, 9.998628 
1.3451543e+3, 1.7533769e+2, -997757.4, -1257056.4, -65924.12, 0.04238544, 0.028478911, -981959.4, 239738.55, 0.0000000014653116, 10.002156, 9.998714 
1.3451411e+3, 1.8533646e+2, -935827.4, -1141003.9, 159238.89, 0.08568095, 0.021126427, -848991.9, 274716.56, 0.0, 10.001744, 9.999043 
1.3451281e+3, 1.9533543e+2, -1155194.9, -1191664.0, 148592.78, -0.11595955, -0.010827536, -1023722.0, 1993.754, 0.0, 9.999546, 9.999083 
1.3451141e+3, 2.0533459e+2, -1096952.9, -1143727.3, -57722.082, -0.12667347, 0.018552648, -1058060.1, -130336.47, 0.0, 9.999406, 9.998802 
1.345099e+3, 2.1533382e+2, -755939.56, -914685.1, -75596.85, 0.027530415, 0.029972555, -725699.75, 104033.27, 0.0, 10.001029, 9.998911 
1.3450845e+3, 2.2533317e+2, -649532.94, -801450.6, 66940.95, 0.05987979, 0.07422685, -624245.4, 107494.445, 0.0, 10.001027, 9.999026 
1.3450707e+3, 2.3533249e+2, -751805.25, -783893.6, 64268.563, -0.008330918, 0.073808424, -701608.5, -67862.52, 0.0, 9.999589, 9.999163 
1.3450556e+3, 2.4533184e+2, -625548.8, -575439.75, -66661.21, -0.031403705, 0.052667987, -529280.2, 6469.0835, 0.0, 9.999361, 10.000034 
1.345039e+3, 2.55331e+2, -404374.9, -420766.28, -100472.2, -0.015229144, -0.05967621, -311764.66, 125987.23, 0.0, 10.0002165, 10.000013 
1.3450243e+3, 2.6532975e+2, -352088.94, -640992.7, 16446.258, 0.051542368, -0.044283353, -351155.75, -11390.459, 0.000000062099474, 10.001186, 9.997356 
1.3450113e+3, 2.7532786e+2, -71644.45, -437006.47, 54271.895, 0.1624943, 0.00066483946, -63753.195, 178036.88, 0.0000065347235, 10.002356, 9.99752 
1.3449958e+3, 2.853266e+2, 75374.19, -89540.36, 32124.16, 0.094068505, 0.02425385, 81410.78, 225212.63, 0.00008986311, 10.001706, 9.999553 
1.3449784e+3, 2.9532596e+2, -160896.1, -148905.53, -33373.527, -0.119428135, -0.03341474, -120993.06, -75191.59, 0.00041353333, 9.999393, 9.99958 
1.3449626e+3, 3.0532482e+2, -159353.73, -366276.94, -151107.67, -0.005772492, 0.0134762265, -79681.95, -79681.95, 0.0011124206, 10.00012, 9.997414 
1.3449445e+3, 3.1532282e+2, 373350.13, -32253.785, -86896.664, 0.10774407, 0.030371211, 391182.84, 391182.84, 0.0021418033, 10.003408, 9.9981165 
1.3552326e+3, 1.2535436e+2, -1867375.3, -1741808.1, -61213.973, 0.0438327, 0.08875974, -1716905.1, -5372.3687, 0.0072628423, 9.998704, 10.000425 
1.3552135e+3, 1.3535492e+2, -1508322.9, -1494814.0, -98906.9, -0.16601473, 0.07779781, -1402431.1, 211095.94, 0.004152666, 10.000443, 10.000615 
1.3552026e+3, 1.453548e+2, -1388331.4, -1437662.9, 5098.551, 0.24709241, 0.025759945, -1387810.0, 127716.25, 0.0016872559, 10.000787, 10.000161 
1.3551842e+3, 1.5535524e+2, -1416018.5, -1413631.9, 47259.207, -0.1888983, 0.031803638, -1367550.9, 49967.76, 0.0003769789, 9.999981, 10.000041 
1.3551691e+3, 1.6535419e+2, -1376933.6, -1549778.3, 1330.2896, -0.24165238, 0.023857435, -1376923.4, -57394.117, 0.000023370363, 10.000466, 9.998202 
1.3551569e+3, 1.753517e+2, -1034718.1, -1323597.5, 1066.3368, 0.057698686, -0.07128148, -1034714.2, 186842.66, 0.0000000068048798, 10.002101, 9.998292 
1.3551433e+3, 1.8535116e+2, -934335.8, -1118838.8, 63730.563, 0.10940787, 0.0027050944, -914462.7, 209100.44, 0.0, 10.001667, 9.9992285 
1.3551287e+3, 1.9535206e+2, -1150732.6, -1171468.4, 81234.34, -0.051777005, 0.14353307, -1079207.3, -53653.766, 0.0, 9.999496, 9.999243 
1.355114e+3, 2.0535104e+2, -1132262.3, -1194914.1, -8365.881, -0.10348316, 0.16209558, -1131164.4, -203600.94, 0.0, 9.999314, 9.998494 
1.3550994e+3, 2.1534826e+2, -797074.06, -967157.75, -9190.079, -0.05168038, 0.0031628679, -796578.94, 33012.625, 0.0, 10.000883, 9.998624 
1.3550843e+3, 2.2534671e+2, -655553.44, -768491.8, -721.7316, -0.072107345, -0.044783987, -655548.8, 76057.375, 0.0, 10.000836, 9.999344 
1.355069e+3, 2.3534611e+2, -755123.75, -755709.44, 22086.37, -0.15592207, -0.06766069, -733328.25, -99717.67, 0.0, 9.999441, 9.999426 
1.3550545e+3, 2.4534643e+2, -694607.5, -689905.44, -45045.7, -0.081919804, 0.032375503, -647149.5, -111541.914, 0.0, 9.999231, 9.999314 
1.3550408e+3, 2.5534734e+2, -468651.5, -522687.8, -55108.035, 0.1233631, 0.16445701, -434294.75, 3304.7617, 0.0, 10.000083, 9.999379 
1.3550265e+3, 2.6534626e+2, -269057.0, -444464.88, 49037.6, 0.13507755, 0.15462601, -256278.78, 83331.27, 0.000000036385206, 10.0010805, 9.998758 
1.355012e+3, 2.7534312e+2, -2660.479, -262319.3, 108841.805, -0.00737293, -0.06243831, 36927.39, 278566.72, 0.0000068750182, 10.00222, 9.998788 
1.3549957e+3, 2.8534204e+2, -26252.957, -271260.78, -64646.043, -0.11339511, -0.020225205, -10242.18, 133408.16, 0.00009120505, 10.001583, 9.998361 
1.3549775e+3, 2.9534277e+2, -260663.02, -325673.8, -96477.914, -0.18439245, 0.18115069, -191361.8, -145716.63, 0.00041554915, 9.999259, 9.998436 
1.354963e+3, 3.053402e+2, -96799.36, -200335.39, -36168.418, 0.014141277, 0.08130606, -85416.11, -85416.11, 0.00111335, 9.999983, 9.9986105 
1.354948e+3, 3.15336e+2, 408063.72, 97463.98, 57326.81, 0.057511274, -0.24039865, 418306.63, 418306.63, 0.002141611, 10.003179, 9.999113 
1.3652319e+3, 1.2536867e+2, -1772975.5, -1689139.6, -16898.752, 0.09089156, 0.024860844, -1685861.5, 25529.46, 0.0076198755, 9.999296, 10.00051 
1.3652132e+3, 1.3536991e+2, -1608574.3, -1581892.1, 3638.4004, -0.20369183, 0.11190671, -1581404.9, 31974.303, 0.004366158, 9.999904, 10.000278 
1.3652022e+3, 1.4536959e+2, -1500608.1, -1490185.8, 31018.592, 0.16531001, 0.05572329, -1463943.6, 51436.754, 0.0017823466, 10.000014, 10.000168 
1.3651852e+3, 1.553694e+2, -1404061.4, -1400540.3, -21037.969, -0.09304133, -0.0022032803, -1381189.3, 36188.78, 0.0004035849, 10.000048, 10.000092 
1.3651703e+3, 1.6536844e+2, -1448148.0, -1556125.3, -14427.193, -0.12158458, -0.015429874, -1446253.5, -126866.33, 0.000026350568, 9.999853, 9.998449 
1.3651575e+3, 1.7536674e+2, -1387800.3, -1463588.4, 8462.662, 0.05041405, -0.060804147, -1386866.8, -165459.75, 0.000000016360648, 9.999555, 9.998549 
1.3651435e+3, 1.8536636e+2, -1236440.9, -1283871.5, 52101.82, 0.07939365, 0.024594009, -1202911.0, -79498.27, 0.0, 9.99967, 9.99906 
1.3651288e+3, 1.9536693e+2, -1065528.0, -1140830.5, 24391.676, -0.011589231, 0.14502326, -1058317.5, -32909.64, 0.0, 10.000137, 9.999139 
1.3651145e+3, 2.0536584e+2, -999291.7, -1125316.1, 11325.514, -0.031713583, 0.15638849, -998281.94, -70862.57, 0.0, 10.000198, 9.99855 
1.3651003e+3, 2.1536312e+2, -932778.25, -1027962.25, 16567.629, 0.0101939645, 0.0025806956, -929977.0, -100530.43, 0.0, 9.999926, 9.998673 
1.3650851e+3, 2.253617e+2, -778153.9, -810610.9, 8271.097, -0.032932814, -0.042159952, -776167.7, -44708.266, 0.0, 9.999921, 9.999492 
1.3650687e+3, 2.3536131e+2, -650113.44, -693933.9, -4141.1973, -0.15406924, -0.059539646, -649725.5, -16264.337, 0.0, 10.000106, 9.9995365 
1.3650544e+3, 2.4536137e+2, -527495.06, -640736.7, 11226.256, -0.06970952, 0.026141953, -526392.8, 9067.827, 0.0, 10.000517, 9.999029 
1.3650419e+3, 2.5536168e+2, -322802.9, -478727.1, 7415.2646, 0.18429676, 0.12231725, -322451.03, 115008.75, 0.0, 10.001198, 9.999139 
1.3650279e+3, 2.6536083e+2, -273878.13, -385193.38, 84718.15, 0.17787743, 0.12330269, -228170.38, 111296.85, 0.000000033203506, 10.00078, 9.999314 
1.3650124e+3, 2.753589e+2, -369643.0, -371267.88, 57242.875, -0.048170667, -0.036828265, -313206.8, -71723.11, 0.0000069323874, 9.999408, 9.999393 
1.3649958e+3, 2.8535813e+2, -349452.53, -429611.6, -82623.68, -0.12753788, 0.009975291, -297700.47, -154208.94, 0.000089487476, 9.9994, 9.998312 
1.3649786e+3, 2.9535848e+2, -42746.47, -213702.9, -46162.64, -0.0665614, 0.17633568, -31077.813, 14413.826, 0.00040599194, 10.00075, 9.998472 
1.3649645e+3, 3.0535576e+2, 126076.2, -43339.938, 126391.32, 0.124055274, 0.032678165, 193520.11, 193520.11, 0.0010855788, 10.001296, 9.999066 
1.3649498e+3, 3.1535307e+2, 109992.12, 14827.587, 100168.12, 0.052025322, -0.17446811, 173304.95, 173304.95, 0.0020884634, 10.000828, 9.999701 
1.375231e+3, 1.2538269e+2, -1773179.5, -1683784.6, -58829.0, 0.018910028, -0.18934175, -1654598.9, 56648.36, 0.0079810945, 9.999289, 10.000542 
1.375213e+3, 1.3538499e+2, -1647521.5, -1665069.9, 28899.857, -0.24038792, 0.052765638, -1626093.1, -12867.346, 0.0045821774, 9.999914, 9.9997 
1.3752005e+3, 1.4538443e+2, -1564314.0, -1627427.8, 13132.932, -0.036291834, 0.05560468, -1561690.3, -46458.16, 0.0018779465, 10.000035, 9.999217 
1.3751861e+3, 1.5538281e+2, -1464627.9, -1523940.6, -8455.565, -0.020329412, -0.057384945, -1463446.0, -46197.31, 0.00043006244, 10.00004, 9.999247 
1.3751715e+3, 1.6538236e+2, -1382269.0, -1426283.4, -40232.44, -0.022636697, -0.024927475, -1358418.1, -39164.76, 0.000029160963, 9.999874, 9.999336 
1.3751562e+3, 1.753828e+2, -1322401.6, -1337829.9, 6913.414, -0.065713294, 0.05491995, -1319757.0, -98508.36, 0.000000027808229, 9.999583, 9.999408 
1.3751417e+3, 1.8538202e+2, -1267410.8, -1348438.5, 55844.227, -0.09021865, 0.082404844, -1238932.3, -115674.85, 0.0, 9.999677, 9.998612 
1.3751285e+3, 1.9537997e+2, -1107039.1, -1210542.6, 47726.758, -0.074746735, -0.00990432, -1088391.4, -63112.027, 0.0, 10.000065, 9.998698 
1.3751149e+3, 2.0537888e+2, -982174.06, -1064914.9, -10163.186, -0.007270504, -0.0008597154, -980944.0, -53652.03, 0.0, 10.000093, 9.999015 
1.3751015e+3, 2.153784e+2, -924584.4, -976735.56, 19015.16, 0.11126041, 0.023318902, -918387.44, -89089.58, 0.0, 9.999779, 9.999096 
1.3750862e+3, 2.253782e+2, -807297.0, -829722.1, 6274.098, 0.070722796, 0.0817542, -805661.0, -74361.91, 0.0, 9.999747, 9.999442 
1.3750695e+3, 2.3537804e+2, -677100.7, -709770.1, 15220.724, -0.10170234, 0.09270229, -671108.44, -37810.49, 0.0, 9.999941, 9.999501 
1.3750549e+3, 2.4537662e+2, -542276.44, -639559.3, 23099.342, -0.09064295, 0.028420586, -537070.25, -1760.9186, 0.0, 10.000376, 9.999108 
1.3750423e+3, 2.5537404e+2, -337814.47, -477776.75, 40037.406, 0.08670962, -0.17341, -327170.84, 110161.47, 0.0, 10.001058, 9.999216 
1.3750279e+3, 2.6537374e+2, -306271.97, -422846.3, 23364.348, 0.09127553, -0.1140694, -301763.56, 37571.723, 0.000000022673568, 10.000656, 9.999114 
1.3750118e+3, 2.7537507e+2, -403672.84, -406265.66, 22059.383, -0.055237576, 0.07654705, -382871.8, -141547.45, 0.0000066245593, 9.999267, 9.999217 
1.3749963e+3, 2.8537476e+2, -273880.7, -258309.58, -45161.863, -0.04299108, 0.1149343, -220267.1, -76940.27, 0.000084736, 9.999328, 9.999528 
1.3749814e+3, 2.9537317e+2, 15981.447, -58496.02, 20252.51, 0.1282488, -0.03596533, 21132.424, 66472.66, 0.00038240635, 10.000598, 9.999619 
1.374967e+3, 3.053714e+2, 80662.29, -99571.09, 106834.8, 0.21082745, -0.12335329, 130312.164, 130312.164, 0.0010235131, 10.001144, 9.998743 
1.3749494e+3, 3.1537345e+2, 63189.9, -3350.3916, 103884.695, -0.12022505, 0.18081968, 139001.98, 139001.98, 0.001977613, 10.000518, 9.999709 
1.3852304e+3, 1.2539859e+2, -1800210.5, -1710841.5, -68186.625, 0.050347645, -0.10771491, -1674002.3, 37089.25, 0.008351057, 9.999164, 10.000419 
1.3852139e+3, 1.3539913e+2, -1607293.1, -1676925.4, -21417.53, -0.15393572, -0.01214178, -1601232.9, 11852.5625, 0.004803759, 10.000323, 9.999423 
1.3852002e+3, 1.453984e+2, -1555653.4, -1657261.5, -3490.8047, -0.06018812, 0.0017204662, -1555533.5, -40439.54, 0.0019753822, 10.000243, 9.998912 
1.3851869e+3, 1.5539724e+2, -1487658.3, -1563961.3, -4657.751, 0.062066346, -0.037732333, -1487375.0, -70266.98, 0.00045665295, 10.0, 9.998994 
1.3851723e+3, 1.6539682e+2, -1298568.9, -1355646.0, 3201.0964, 0.058636487, -0.0005717525, -1298389.9, 20721.998, 0.00003186285, 10.00034, 9.999592 
1.385156e+3, 1.7539707e+2, -1074469.4, -1185933.1, -22617.43, -0.10574169, 0.032329362, -1070054.9, 151052.4, 0.000000039188958, 10.001167, 9.999682 
1.3851415e+3, 1.853963e+2, -1088267.5, -1244549.4, 26540.572, -0.13776375, 0.039501436, -1083883.3, 39231.72, 0.0, 10.000824, 9.998778 
1.3851285e+3, 1.9539455e+2, -1150663.5, -1206665.3, 47415.273, -0.044010725, -0.043989737, -1123598.4, -98463.875, 0.0, 9.99966, 9.998918 
1.3851152e+3, 2.0539382e+2, -1042133.06, -1075283.0, 50548.41, 0.031726398, -0.016563963, -1005511.5, -78367.66, 0.0, 9.999601, 9.999177 
1.3851014e+3, 2.1539386e+2, -803291.06, -896646.2, 33831.355, 0.09480484, 0.038122747, -792320.06, 36825.438, 0.0, 10.000516, 9.9992895 
1.3850865e+3, 2.2539376e+2, -648344.2, -762855.25, 26447.463, 0.08202644, 0.10057432, -642531.0, 88614.984, 0.0, 10.000863, 9.999377 
1.385071e+3, 2.3539335e+2, -547761.94, -654337.94, 15156.517, 0.0066091386, 0.09326617, -545648.44, 87499.04, 0.0, 10.000845, 9.999455 
1.3850562e+3, 2.4539174e+2, -496731.28, -635419.94, 46351.24, -0.0032823305, 0.022259232, -482666.53, 52493.902, 0.0, 10.000777, 9.998933 
1.3850427e+3, 2.553891e+2, -395091.94, -520696.9, 14193.535, 0.040286537, -0.16879232, -393508.03, 43675.6, 0.0, 10.000738, 9.999065 
1.3850279e+3, 2.653885e+2, -307010.9, -433611.7, -22686.361, 0.037563793, -0.12992299, -303068.38, 36120.92, 0.0000000049794013, 10.000697, 9.999016 
1.3850123e+3, 2.753893e+2, -191802.44, -314672.78, -34110.887, -0.0071264855, 0.02155072, -182967.89, 58214.87, 0.0000064670485, 10.000753, 9.999134 
1.384997e+3, 2.8538895e+2, -63790.145, -135003.22, -69591.19, 0.03389725, 0.047034025, -21225.342, 121960.17, 0.00007993784, 10.000666, 9.9997425 
1.3849823e+3, 2.9538754e+2, 26701.453, -20413.715, -108842.836, 0.15998757, -0.107748635, 114506.89, 159703.27, 0.00035406946, 10.000522, 9.999918 
1.3849677e+3, 3.0538613e+2, 5835.5083, -168505.7, -49404.543, 0.20692143, -0.16084465, 18862.324, 18862.324, 0.00094634306, 10.000761, 9.998456 
1.3849506e+3, 3.153887e+2, 179815.4, 74711.73, -95369.06, -0.076151714, 0.22165531, 236153.2, 236153.2, 0.0018380386, 10.001208, 9.999914 
1.3952301e+3, 1.2541531e+2, -1821053.5, -1740517.4, -3877.7883, 0.052697666, 0.17447653, -1740331.1, -29397.824, 0.008733579, 9.999136, 10.000213 
1.3952154e+3, 1.3541238e+2, -1597864.0, -1657642.4, 12190.836, -0.0591578, -0.089787364, -1595473.5, 17484.043, 0.005033633, 10.000327, 9.999551 
1.3952012e+3, 1.4541167e+2, -1528292.0, -1608052.0, -37398.29, -0.011869344, -0.09604739, -1513499.8, 1463.8734, 0.002076125, 10.000269, 9.99924 
1.3951871e+3, 1.5541264e+2, -1466711.8, -1522436.6, -1831.4633, 0.045497973, 0.048654344, -1466651.6, -49695.434, 0.00048381835, 10.000005, 9.999279 
1.3951725e+3, 1.6541183e+2, -1322206.4, -1410676.5, 18984.105, 0.011048837, 0.05059134, -1318304.9, 658.62555, 0.000034571214, 10.000363, 9.999206 
1.395157e+3, 1.7540945e+2, -1109362.9, -1245381.3, 11703.102, -0.1492447, -0.1359212, -1108363.3, 112620.27, 0.00000005013657, 10.001109, 9.999305 
1.3951424e+3, 1.854092e+2, -1026935.44, -1113231.4, -33922.883, -0.15949264, -0.104094446, -1015197.06, 107788.33, 0.0, 10.000804, 9.999689 
1.3951288e+3, 1.9541061e+2, -1100240.6, -1089287.1, 14497.509, -0.01214831, 0.03770409, -1079266.4, -54292.906, 0.0, 9.999598, 9.999758 
1.3951147e+3, 2.0541064e+2, -1063260.8, -1095245.0, 72282.055, -0.006543414, 0.10634683, -1005222.94, -78247.59, 0.0, 9.999503, 9.999085 
1.3950999e+3, 2.1540943e+2, -837732.7, -926184.1, 74861.25, -0.1261423, 0.047771525, -795009.5, 33980.266, 0.0, 10.000341, 9.999169 
1.3950858e+3, 2.2540839e+2, -668805.5, -774060.1, 13452.8545, -0.09285941, 0.022189206, -667113.25, 63886.777, 0.0, 10.000718, 9.9993725 
1.3950726e+3, 2.3540737e+2, -570091.25, -671253.06, 26336.986, 0.084065385, -0.04883106, -563645.3, 69362.96, 0.0, 10.00071, 9.999406 
1.3950582e+3, 2.4540693e+2, -548848.5, -710827.0, 34191.46, 0.09128048, 0.02063691, -541926.94, -6914.8135, 0.0, 10.000638, 9.99848 
1.3950427e+3, 2.5540677e+2, -454556.0, -603104.5, 24498.576, -0.044369698, 0.12486527, -450620.0, -13605.432, 0.0, 10.000571, 9.998575 
1.3950278e+3, 2.6540494e+2, -321053.72, -438918.7, -32067.58, -0.069177195, 0.07006155, -312893.97, 26136.514, 0.0000000011462398, 10.000589, 9.999033 
1.3950135e+3, 2.7540174e+2, -215222.67, -328657.56, -18376.676, 0.008288882, -0.19005433, -212319.9, 28738.416, 0.0000063015364, 10.000598, 9.999117 
1.3949975e+3, 2.8540084e+2, -143091.8, -265324.7, -85074.734, -0.003739511, -0.17162538, -99456.49, 43609.57, 0.00007549819, 10.000524, 9.998911 
1.3949805e+3, 2.9540154e+2, -56879.098, -158264.11, -97128.48, -0.08421217, -0.029084634, 1989.663, 47050.484, 0.0003302392, 10.000375, 9.999039 
1.3949667e+3, 3.0539984e+2, -15989.276, -186508.38, -43904.367, 0.0049915714, -0.06526214, -5348.96, -5348.96, 0.0008840725, 10.000645, 9.998386 
1.394953e+3, 3.1539908e+2, 160279.6, 111534.05, -59700.28, 0.0037492772, -0.018684074, 200390.6, 200390.6, 0.0017240661, 10.000888, 10.000319 
1.4052308e+3, 1.2543005e+2, -1570659.9, -1696917.0, 97527.7, 0.10885949, 0.19109008, -1517612.5, 193174.02, 0.009133226, 10.001166, 9.999543 
1.4052163e+3, 1.3542661e+2, -1618966.8, -1698563.9, 20656.918, 0.018608611, -0.09727235, -1613925.1, -1107.7264, 0.005275387, 10.000297, 9.999292 
1.4052026e+3, 1.4542575e+2, -1526855.6, -1625817.8, -14128.742, 0.09999979, -0.10090943, -1524878.0, -10052.499, 0.0021822979, 10.000348, 9.999085 
1.4051874e+3, 1.5542659e+2, -1294647.4, -1463235.1, -43447.57, 0.031328693, 0.049101014, -1284109.0, 132710.34, 0.00051218417, 10.001282, 9.999077 
1.4051726e+3, 1.6542564e+2, -1240391.8, -1371392.0, -17564.334, -0.028859563, 0.049071822, -1238077.6, 80750.23, 0.000037386584, 10.000928, 9.999196 
1.4051579e+3, 1.7542316e+2, -1299334.5, -1333092.6, -18689.68, -0.09184771, -0.1555197, -1291030.0, -70180.77, 0.00000006103049, 9.999784, 9.999334 
1.4051431e+3, 1.85423e+2, -1176412.6, -1160190.4, -49079.043, -0.09291896, -0.12781528, -1118556.8, 4293.3613, 0.0, 9.999678, 9.999907 
1.4051285e+3, 1.9542477e+2, -951256.0, -989317.2, -74592.14, -0.036697496, 0.025665771, -893305.1, 131529.02, 0.0, 10.0005, 10.000008 
1.4051142e+3, 2.0542502e+2, -950277.1, -1000007.25, -780.4024, -0.020060068, 0.08447481, -950264.9, -23432.607, 0.0, 10.000107, 9.999451 
1.4051002e+3, 2.1542388e+2, -1031603.44, -975370.1, 18257.525, -0.041569322, -0.003505768, -969962.4, -141118.86, 0.0, 9.99883, 9.999556 
1.4050865e+3, 2.254229e+2, -915826.7, -927245.0, 24428.53, -0.009359136, -0.024451476, -896449.06, -165594.84, 0.0, 9.999195, 9.9990425 
1.4050734e+3, 2.3542193e+2, -552712.3, -687149.94, -14379.265, 0.07392329, -0.058869552, -551191.5, 81673.88, 0.0, 10.000956, 9.999167 
1.405059e+3, 2.4542165e+2, -441241.25, -634306.9, -15831.508, 0.06964353, 0.02607342, -439951.7, 94916.59, 0.0, 10.001262, 9.998715 
1.4050433e+3, 2.5542176e+2, -463349.6, -580917.9, 9907.545, -0.018509187, 0.1357996, -462520.53, -25654.336, 0.0, 10.000388, 9.998824 
1.4050288e+3, 2.6541984e+2, -357067.9, -471203.47, 29553.502, -0.0070993803, 0.06429266, -349869.5, -10986.779, 0.0000000047036606, 10.0004015, 9.998904 
1.4050151e+3, 2.7541628e+2, -123767.61, -293230.0, -2177.0117, 0.09769534, -0.21441309, -123739.65, 117174.38, 0.000006310061, 10.001269, 9.999034 
1.4049987e+3, 2.8541523e+2, -41742.84, -265470.06, -55534.33, 0.03329661, -0.18968378, -28716.38, 114207.875, 0.00007173929, 10.001439, 9.998463 
1.4049804e+3, 2.9541573e+2, 4740.2876, -176333.8, -57413.37, -0.16442275, -0.017094988, 21409.828, 66331.32, 0.0003165935, 10.001019, 9.998599 
1.4049667e+3, 3.0541405e+2, 48197.367, -154554.83, 63390.56, -0.077438004, -0.028780898, 66384.96, 66384.96, 0.00085306494, 10.001071, 9.998405 
1.404955e+3, 3.1541178e+2, 266701.25, 190165.2, -2656.147, 0.09889384, -0.13576035, 266793.3, 266793.3, 0.0016667417, 10.001481, 10.0005865 
1.4152311e+3, 1.2544265e+2, -1642772.8, -1839313.6, -20949.55, -0.025518522, -0.08434459, -1640564.6, 70088.73, 0.009556688, 10.001122, 9.998591 
1.4152165e+3, 1.3544182e+2, -1661403.1, -1784518.0, -2165.9036, -0.021082785, -0.043919224, -1661365.0, -48699.41, 0.0055341963, 10.000292, 9.998705 
1.4152038e+3, 1.4544043e+2, -1560977.6, -1706617.4, 3404.512, 0.15835121, -0.04987481, -1560898.1, -46216.086, 0.0022969088, 10.000391, 9.998511 
1.415188e+3, 1.5543918e+2, -1347844.5, -1561554.1, -2842.4336, -0.06324653, -0.03780912, -1347806.6, 68889.5, 0.0005425403, 10.001232, 9.9984255 
1.4151727e+3, 1.6543853e+2, -1211282.4, -1308217.0, -76438.44, -0.15301369, 0.0017621289, -1169240.5, 149461.8, 0.000040406845, 10.00091, 9.999643 
1.4151585e+3, 1.7543827e+2, -1276531.6, -1276433.3, -48374.145, -0.02646827, -0.02384082, -1228108.3, -7404.9087, 0.00000007226826, 9.999739, 9.999751 
1.4151436e+3, 1.8543778e+2, -1209754.5, -1224369.6, -30287.271, -0.03952533, -0.026747204, -1185905.8, -63198.027, 0.0, 9.999658, 9.999473 
1.4151275e+3, 1.9543707e+2, -992316.56, -1055356.3, -37830.33, -0.20265095, -0.0739787, -974595.8, 50119.633, 0.0, 10.000422, 9.99959 
1.4151138e+3, 2.0543699e+2, -896736.44, -876077.4, -66016.49, -0.09566833, -0.07528202, -819587.2, 107126.89, 0.0, 10.00004, 10.000338 
1.4151022e+3, 2.1543728e+2, -994065.5, -870149.6, -16443.467, 0.25612968, -0.11165992, -868004.75, -39298.18, 0.0, 9.998703, 10.000344 
1.4150883e+3, 2.2543725e+2, -981364.44, -1029120.8, 77279.195, 0.23271947, -0.040699285, -924358.5, -193649.67, 0.0, 9.999049, 9.998411 
1.4150727e+3, 2.3543692e+2, -625832.06, -790367.9, 58853.7, -0.1110952, 0.054401528, -606947.75, 25772.195, 0.0, 10.000755, 9.998549 
1.415058e+3, 2.4543594e+2, -389462.28, -499897.88, -58800.04, -0.16685236, 0.048650667, -364017.53, 170711.31, 0.0, 10.001134, 9.9997015 
1.4150444e+3, 2.5543424e+2, -413965.78, -453742.34, -7320.355, 0.0238282, -0.12810017, -412661.34, 24076.465, 0.0, 10.000275, 9.999755 
1.4150308e+3, 2.6543325e+2, -400576.47, -531443.25, 51752.72, 0.13026418, -0.130601, -382584.0, -43839.055, 0.000000079284355, 10.000277, 9.998547 
1.4150172e+3, 2.754328e+2, -173250.56, -361146.56, 43653.355, 0.16219473, -0.061649747, -163603.97, 77147.74, 0.000007370644, 10.001127, 9.998632 
1.4150006e+3, 2.8543186e+2, -46423.13, -260103.75, -82165.47, 0.039060313, -0.01054516, -18482.076, 124280.01, 0.00007202747, 10.001364, 9.998538 
1.4149815e+3, 2.954301e+2, -15013.831, -187237.25, -52408.7, -0.18639328, -0.07788148, -319.2993, 44459.637, 0.0003176136, 10.000871, 9.998604 
1.4149672e+3, 3.054287e+2, 13549.998, -174281.27, 73000.09, -0.1561976, -0.054981504, 38584.605, 38584.605, 0.0008555333, 10.000874, 9.998346 
1.414956e+3, 3.1542698e+2, 213056.31, 151615.13, 45952.86, 0.012766754, -0.10753012, 237611.58, 237611.58, 0.0016666559, 10.0012045, 10.000431 
1.4252314e+3, 1.2545544e+2, -1933244.9, -1974963.3, -138374.66, -0.003183207, -0.15779379, -1814166.1, -103639.195, 0.010011913, 9.999123, 9.998625 
1.4252174e+3, 1.354562e+2, -1533989.4, -1718085.8, -64859.227, 0.0070126047, 0.048001654, -1513433.9, 99091.55, 0.0058154534, 10.001189, 9.998718 
1.425205e+3, 1.4545454e+2, -1440972.8, -1635413.3, -39172.58, 0.19002496, 0.006908564, -1433377.6, 81167.36, 0.002423067, 10.00118, 9.998608 
1.4251883e+3, 1.5545246e+2, -1658170.1, -1699751.6, -22098.09, -0.026144786, -0.07409843, -1648619.9, -232053.52, 0.00057589856, 9.99907, 9.998506 
1.4251725e+3, 1.6545211e+2, -1516030.3, -1421082.8, -25943.521, -0.1208392, -0.027663348, -1414456.4, -95886.94, 0.00004378684, 9.998657, 9.999957 
1.4251587e+3, 1.7545308e+2, -1236009.0, -1220172.9, -28765.283, 0.016116498, 0.03918923, -1198255.8, 22302.762, 0.00000008454083, 9.999852, 10.000084 
1.425144e+3, 1.854528e+2, -1166427.1, -1197077.4, 27824.998, 0.018172603, 0.035920806, -1149986.0, -27425.7, 0.0, 9.999933, 9.999526 
1.425128e+3, 1.9545135e+2, -1168420.9, -1136506.5, 36318.8, -0.1411284, -0.089387834, -1112793.9, -88220.16, 0.0, 9.9992, 9.999622 
1.4251141e+3, 2.0545076e+2, -955425.7, -959203.44, 4554.541, -0.0483163, -0.117259435, -952383.9, -25806.5, 0.0, 9.999874, 9.999846 
1.4251025e+3, 2.1545064e+2, -574884.44, -719798.0, -71991.17, 0.27435616, -0.14281254, -545200.56, 283374.2, 0.0, 10.001787, 9.999896 
1.4250888e+3, 2.254507e+2, -641877.6, -830883.7, 7469.937, 0.2627103, -0.062233012, -641582.9, 88993.62, 0.0, 10.001225, 9.998727 
1.4250728e+3, 2.3545082e+2, -901803.6, -889011.5, 39528.29, -0.04746282, 0.04789965, -855365.1, -222782.67, 0.0, 9.998695, 9.998874 
1.4250585e+3, 2.4544993e+2, -705382.06, -605789.56, -1871.668, -0.094974004, 0.016008426, -605754.44, -71165.055, 0.0, 9.998785, 10.0001 
1.4250457e+3, 2.5544807e+2, -248189.98, -326799.56, -26502.967, 0.08249036, -0.21593446, -240089.36, 196509.16, 0.00000000006254562, 10.001222, 10.000164 
1.4250319e+3, 2.6544744e+2, -229234.8, -485717.0, 357.6423, 0.15129489, -0.18683289, -229234.3, 109369.125, 0.00000036239143, 10.001606, 9.998224 
1.4250174e+3, 2.7544782e+2, -322698.56, -465512.44, -20596.639, 0.12788053, -0.0061606267, -319787.47, -79181.91, 0.000010087366, 10.000228, 9.99835 
1.4250013e+3, 2.854467e+2, -209611.38, -341880.06, -96173.97, 0.048848417, 0.04795888, -159027.31, -16409.654, 0.00007869426, 10.0002575, 9.998516 
1.4249839e+3, 2.9544416e+2, 99404.984, -130017.555, -114080.23, -0.05463489, -0.09670387, 146474.34, 191114.73, 0.00033370158, 10.001654, 9.998623 
1.4249693e+3, 3.0544275e+2, 118307.37, -160331.28, 2235.1614, -0.06928511, -0.064011656, 118325.29, 118325.29, 0.00088811334, 10.001724, 9.998049 
1.4249565e+3, 3.1544074e+2, 67289.05, 10008.28, -75629.2, -0.009657749, -0.11587611, 119519.23, 119519.23, 0.0017196501, 10.000487, 9.999815 
1.4352305e+3, 1.254692e+2, -1847103.1, -1816063.8, -114209.09, -0.041986246, -0.0028396382, -1716324.8, -5925.9634, 0.010506618, 9.99919, 9.999685 
1.435219e+3, 1.354702e+2, -1523499.0, -1670233.6, 32357.197, 0.038631875, 0.18394043, -1516680.6, 95711.87, 0.006123269, 10.001088, 9.999085 
1.4352053e+3, 1.454684e+2, -1387678.8, -1526063.8, -126794.055, 0.08370583, 0.07444387, -1312426.4, 201984.9, 0.002563054, 10.001176, 9.99937 
1.4351884e+3, 1.5546651e+2, -1604507.0, -1591126.1, -85985.38, 0.044137947, -0.06269699, -1511571.3, -95142.164, 0.0006133788, 9.999075, 9.999255 
1.4351724e+3, 1.6546634e+2, -1496728.6, -1389305.9, 3764.0522, -0.041704804, -0.04406746, -1389174.1, -70744.71, 0.000047750204, 9.9986925, 10.00016 
1.4351581e+3, 1.754675e+2, -1223581.6, -1193189.3, 21448.715, -0.049324494, 0.021766905, -1182099.1, 38317.04, 0.00000010052836, 9.999844, 10.000276 
1.4351438e+3, 1.8546793e+2, -1129893.1, -1117170.6, -16122.365, -0.007194203, 0.05217777, -1106200.0, 16209.406, 0.0, 9.999915, 10.000085 
1.4351292e+3, 1.9546756e+2, -1147112.6, -1077787.3, 21286.795, 0.045209914, -0.020976719, -1071772.9, -47363.22, 0.0, 9.999137, 10.000056 
1.4351149e+3, 2.0546629e+2, -1094610.1, -1229068.8, 62277.7, 0.011725604, -0.043692447, -1070197.3, -143774.81, 0.0, 9.999788, 9.998035 
1.435101e+3, 2.1546407e+2, -725638.7, -985340.25, 3838.5588, -0.067290395, -0.09754524, -725581.94, 102865.33, 0.0, 10.001586, 9.998167 
1.4350875e+3, 2.2546332e+2, -583136.5, -665375.9, -99968.04, -0.0023798144, -0.075665, -516161.63, 214294.28, 0.0, 10.00104, 9.999951 
1.4350739e+3, 2.3546372e+2, -843195.2, -728444.1, -37797.773, 0.17363207, -0.06244319, -717112.8, -84661.09, 0.0, 9.998538, 10.00005 
1.4350604e+3, 2.4546365e+2, -738779.6, -648311.75, 74842.29, 0.18299836, -0.05779451, -606095.8, -71646.3, 0.0, 9.998659, 9.999874 
1.435047e+3, 2.554631e+2, -291441.16, -378548.88, 68811.29, 0.059096206, -0.1353122, -253558.34, 182891.84, 0.000000006122379, 10.00106, 9.999887 
1.4350319e+3, 2.6546234e+2, -253358.97, -510606.5, -63866.004, -0.03345332, -0.09753633, -238375.84, 100082.82, 0.0000008787704, 10.00149, 9.998114 
1.4350156e+3, 2.7546138e+2, -349735.1, -493700.53, -53638.93, -0.09886262, -0.038598277, -331947.84, -91472.914, 0.000014147242, 10.000101, 9.998224 
1.435001e+3, 2.854599e+2, -242558.69, -384226.2, -55335.844, -0.04123213, -0.0034372043, -223506.53, -81016.11, 0.000090676054, 10.00014, 9.99828 
1.4349875e+3, 2.9545772e+2, 53630.168, -194707.9, -48503.465, 0.120099045, -0.0856838, 62767.305, 107275.63, 0.00036367134, 10.001515, 9.998247 
1.4349726e+3, 3.0545595e+2, 78071.19, -209463.97, -53633.91, 0.06962734, -0.049618978, 87749.73, 87749.73, 0.00095384644, 10.001595, 9.997766 
1.434956e+3, 3.1545323e+2, -48257.574, -152334.64, -78047.43, -0.14033157, -0.14815141, -6490.9375, -6490.9375, 0.0018355994, 10.00016, 9.998859 
1.4452304e+3, 1.2548175e+2, -1539305.3, -1563949.1, 13838.391, -0.060151923, -0.07074856, -1533098.0, 177176.22, 0.011047917, 10.000843, 10.000632 
1.4452197e+3, 1.3548297e+2, -1865440.5, -1789187.5, 108617.68, 0.14105855, 0.07936363, -1712199.1, -99936.016, 0.00646129, 9.9985075, 9.999516 
1.445205e+3, 1.4548191e+2, -1768760.1, -1681107.1, -40393.695, 0.0814191, 0.017442621, -1665331.5, -151057.13, 0.0027186894, 9.998448, 9.999608 
1.4451887e+3, 1.554811e+2, -1383656.3, -1448207.9, -63893.242, 0.093917124, -0.043817576, -1344349.5, 71934.305, 0.0006559602, 10.00044, 9.999576 
1.4451726e+3, 1.6548091e+2, -1236098.4, -1272313.9, 22886.309, 0.030318687, -0.037395306, -1225022.8, 93261.98, 0.000052490832, 10.000536, 10.000065 
1.4451578e+3, 1.7548114e+2, -1303658.8, -1240371.5, -839.2882, -0.026648596, -0.056038067, -1240360.4, -20080.658, 0.00000012546444, 9.999345, 10.000183 
1.445144e+3, 1.8548135e+2, -1185295.9, -1176609.0, -39449.508, 0.03447838, -0.026868897, -1141264.5, -18989.346, 0.0, 9.999659, 9.9998045 
1.4451304e+3, 1.9548146e+2, -855049.9, -961308.6, -85178.516, 0.16113195, -0.028825393, -807789.5, 216482.66, 0.0, 10.001242, 9.99984 
1.4451158e+3, 2.0548038e+2, -923015.3, -1138032.4, 7449.079, 0.08260385, -0.027313674, -922757.5, 3526.2244, 0.0, 10.0009365, 9.998105 
1.4451006e+3, 2.1547809e+2, -1076577.3, -1144144.0, 62894.965, -0.1470668, -0.095602565, -1038966.7, -210657.22, 0.0, 9.999134, 9.998259 
1.4450867e+3, 2.2547719e+2, -823182.1, -790306.56, -6432.892, -0.08152496, -0.08909721, -789092.6, -58773.863, 0.0, 9.999425, 9.999876 
1.4450744e+3, 2.3547731e+2, -417004.38, -533187.9, -61456.4, 0.21702543, -0.097712696, -390529.34, 241786.28, 0.0, 10.001493, 9.99997 
1.445061e+3, 2.4547721e+2, -395743.9, -538695.06, 32117.334, 0.25517645, -0.06607766, -388859.53, 145455.77, 0.0, 10.001259, 9.999368 
1.445047e+3, 2.554768e+2, -587741.75, -577754.4, -13416.225, 0.07088967, -0.076570734, -568432.6, -132113.6, 0.000000012932129, 9.999244, 9.999404 
1.4450319e+3, 2.6547626e+2, -593310.1, -593937.1, -111541.91, -0.03388387, -0.03458309, -482081.28, -143755.06, 0.0000016431604, 9.998823, 9.9988165 
1.4450158e+3, 2.7547553e+2, -335709.75, -405977.4, -71191.67, -0.07192632, -0.022125816, -291454.4, -51117.594, 0.000019343763, 9.999864, 9.998928 
1.4450015e+3, 2.8547403e+2, -158323.38, -356927.38, 30436.086, -0.017796174, -0.020415256, -153763.72, -11412.13, 0.00010742276, 10.000777, 9.998156 
1.4449888e+3, 2.9547164e+2, 42644.05, -208353.3, 27498.23, 0.11908176, -0.11352372, 45621.33, 89993.195, 0.00040939415, 10.001474, 9.998163 
1.444974e+3, 3.0546987e+2, 70524.555, -193131.14, 12179.38, 0.076957785, -0.08282283, 71085.98, 71085.98, 0.0010584168, 10.001441, 9.99797 
1.4449574e+3, 3.1546828e+2, 46705.49, -114145.64, -24256.996, -0.048402157, -0.08657885, 50283.93, 50283.93, 0.002024874, 10.000853, 9.998787 
1.4552318e+3, 1.254937e+2, -1489011.8, -1460068.1, 12577.959, -0.05670527, -0.31953514, -1455366.0, 254782.45, 0.011640448, 10.000857, 10.00134 
1.4552194e+3, 1.3549466e+2, -1831414.8, -1720014.1, 34673.785, 0.22409885, -0.253154, -1710103.5, -97967.0, 0.0068325973, 9.998507, 9.999995 
1.4552036e+3, 1.4549525e+2, -1785570.1, -1718825.8, 21181.176, 0.063612826, -0.15202229, -1712671.4, -198538.14, 0.0028915813, 9.998468, 9.999334 
1.4551885e+3, 1.5549618e+2, -1404306.8, -1475083.6, 13796.014, 0.026181031, -0.025926204, -1401712.8, 14418.304, 0.00070428615, 10.0003805, 9.9994135 
1.455173e+3, 1.6549583e+2, -1255500.3, -1319018.1, -38024.13, -0.0003809954, -0.011443382, -1237716.6, 80418.76, 0.000058062662, 10.000556, 9.999738 
1.4551577e+3, 1.7549413e+2, -1330289.6, -1296028.8, -29722.258, 0.0012683963, -0.1871442, -1278853.8, -58705.875, 0.00000016567238, 9.999342, 9.9998045 
1.455144e+3, 1.8549332e+2, -1259029.0, -1327759.6, 8886.718, 0.045632083, -0.19147581, -1257898.6, -135742.84, 0.0, 9.999655, 9.998769 
1.4551315e+3, 1.9549319e+2, -936157.44, -1106095.1, -20733.092, 0.122581474, -0.10833162, -933664.5, 90495.3, 0.0, 10.001141, 9.998898 
1.4551169e+3, 2.05493e+2, -811033.2, -874534.8, -73001.2, 0.07136084, -0.067007035, -763176.94, 162984.47, 0.0, 10.000807, 9.999974 
1.4551006e+3, 2.1549259e+2, -975083.75, -900025.75, 11099.037, -0.06642583, -0.13754833, -898418.94, -70256.38, 0.0, 9.998996, 9.999999 
1.4550865e+3, 2.2549215e+2, -928430.2, -977252.75, 58276.14, -0.08459482, -0.10340908, -889659.0, -159492.63, 0.0, 9.999289, 9.998657 
1.4550738e+3, 2.3549165e+2, -536528.9, -728364.75, 21240.871, -0.0071954336, -0.0499336, -534205.1, 97968.05, 0.0, 10.001276, 9.998731 
1.4550602e+3, 2.4549073e+2, -469008.6, -661104.4, -54177.383, 0.029198132, -0.0030463936, -454782.34, 79403.31, 0.0, 10.001116, 9.998603 
1.4550461e+3, 2.5548935e+2, -649488.94, -678269.25, -71797.51, 0.032244228, -0.033575393, -590653.7, -154449.98, 0.000000017460069, 9.999123, 9.998775 
1.455032e+3, 2.6548928e+2, -510187.97, -397758.7, -81455.29, 0.053366832, 0.012848134, -355003.4, -16798.85, 0.000002726617, 9.998713, 10.00022 
1.4550176e+3, 2.7549013e+2, -264710.63, -223835.55, -19537.268, 0.09549908, 0.04018478, -215999.45, 24193.37, 0.000025176965, 9.999717, 10.000248 
1.4550029e+3, 2.8548893e+2, -165256.7, -339152.8, 45896.086, 0.01861665, 0.00069895276, -153886.83, -11684.46, 0.00012772917, 10.00064, 9.998345 
1.454988e+3, 2.9548594e+2, 37259.492, -186486.83, 68312.08, -0.15700406, -0.17363137, 56467.008, 100697.414, 0.0004671954, 10.00133, 9.998388 
1.4549734e+3, 3.054846e+2, 91604.02, -113560.31, -19689.836, -0.14805368, -0.1455331, 93476.586, 93476.586, 0.0011937756, 10.001287, 9.998587 
1.4549598e+3, 3.154856e+2, 36008.465, -74017.375, -8656.528, 0.06493947, 0.050073694, 36685.37, 36685.37, 0.0022758725, 10.000589, 9.999187 
1.4652324e+3, 1.2550855e+2, -1769568.4, -1603961.4, 47075.27, 0.015062595, -0.24212341, -1591515.3, 118487.125, 0.012283002, 9.99896, 10.001261 
1.4652182e+3, 1.355084e+2, -1551305.8, -1572796.3, -69426.22, 0.18232009, -0.29299623, -1491798.3, 120202.28, 0.00723705, 10.000388, 10.000099 
1.4652029e+3, 1.4550929e+2, -1539657.5, -1564361.6, 106.85329, 0.0796351, -0.1820606, -1539657.0, -25663.736, 0.0030819494, 9.999971, 9.999687 
1.465188e+3, 1.5551063e+2, -1585389.1, -1516035.9, 10987.448, 0.014785655, -0.05924107, -1514336.9, -98351.234, 0.0007585455, 9.998911, 9.999855 
1.4651732e+3, 1.6551046e+2, -1497238.5, -1484275.4, -10048.671, 0.033198174, -0.025750946, -1478799.3, -160810.66, 0.00006440502, 9.999105, 9.999306 
1.4651586e+3, 1.7550871e+2, -1189867.9, -1275776.6, -34353.117, 0.096967325, -0.16375798, -1177820.4, 42183.61, 0.00000022299002, 10.000508, 9.999384 
1.4651446e+3, 1.8550746e+2, -1157054.1, -1302567.0, 57792.375, 0.11215415, -0.17780146, -1136894.3, -14877.068, 0.0, 10.000473, 9.99854 
1.4651313e+3, 1.9550662e+2, -1200211.6, -1249959.0, 65071.277, 0.09079738, -0.1472352, -1155422.0, -131393.66, 0.0, 9.999409, 9.998736 
1.4651169e+3, 2.0550656e+2, -971801.0, -924952.4, -12237.212, 0.056930266, -0.09895733, -921948.5, 4080.1123, 0.0, 9.999579, 10.000226 
1.4651014e+3, 2.15507e+2, -685457.6, -730636.0, -63649.723, 0.017140076, -0.11023273, -640507.5, 187513.61, 0.0, 10.000858, 10.000268 
1.4650871e+3, 2.255065e+2, -690610.75, -892999.3, 20266.3, -0.029774453, -0.08230578, -688601.3, 41423.984, 0.0, 10.001061, 9.998381 
1.4650737e+3, 2.3550501e+2, -671804.4, -824157.44, 27013.705, -0.08537453, -0.09719196, -667156.4, -35115.223, 0.0, 10.000467, 9.998468 
1.4650598e+3, 2.4550389e+2, -638469.4, -751286.9, -31054.928, -0.06020998, -0.05270325, -630485.94, -96429.8, 0.0, 9.999996, 9.998524 
1.4650454e+3, 2.55503e+2, -560524.2, -639765.06, -20570.3, 0.026969109, -0.024465162, -555502.5, -119431.78, 0.000000044837254, 9.99976, 9.99873 
1.4650315e+3, 2.6550293e+2, -346315.25, -319041.22, 19399.504, 0.09855452, 0.021843472, -308965.2, 29106.469, 0.0000038968087, 9.99984, 10.000218 
1.4650181e+3, 2.7550334e+2, -193340.84, -193065.39, -40417.81, 0.15315013, 0.009542945, -152785.08, 87277.63, 0.000030518888, 10.000205, 10.000236 
1.4650035e+3, 2.855024e+2, -237751.22, -335076.06, -15475.872, 0.05530853, -0.01732311, -235349.61, -93279.99, 0.00014669269, 9.999971, 9.998696 
1.464988e+3, 2.9550052e+2, -230953.95, -271327.7, -23200.402, -0.16782786, -0.11788808, -220387.47, -176299.0, 0.0005242596, 9.999306, 9.998774 
1.4649737e+3, 3.0549902e+2, -32484.615, -159946.1, -67239.82, -0.1803473, -0.1278711, -3571.952, -3571.952, 0.0013356343, 10.00039, 9.998683 
1.4649616e+3, 3.1550047e+2, 379756.56, 115007.98, -118948.016, 0.08878422, 0.101661235, 425347.38, 425347.38, 0.002548591, 10.002828, 9.999412 
1.4752315e+3, 1.255248e+2, -1815608.1, -1699403.5, 50555.348, -0.008402523, 0.041234, -1680488.1, 29361.787, 0.012969953, 9.998986, 10.0005665 
1.4752159e+3, 1.3552393e+2, -1571773.9, -1602771.5, -29631.686, -0.12395375, -0.059562787, -1553832.5, 58024.527, 0.0076708426, 10.000341, 9.999907 
1.4752027e+3, 1.4552386e+2, -1455296.1, -1403507.1, -63149.324, 0.03263911, -0.09474923, -1361149.5, 152706.17, 0.0032881629, 10.000019, 10.000776 
1.4751868e+3, 1.5552466e+2, -1519695.5, -1377248.3, -15530.278, -0.025114113, -0.13038015, -1375574.8, 40270.69, 0.00081847684, 9.998898, 10.000817 
1.4751725e+3, 1.6552499e+2, -1525473.5, -1558978.9, 27878.7, 0.019298052, -0.06445977, -1509701.1, -191858.22, 0.000071419374, 9.9991665, 9.998763 
1.47516e+3, 1.7552482e+2, -1228575.4, -1352922.6, 22507.229, 0.16009876, 0.008613643, -1224626.9, -4778.631, 0.0000002932695, 10.000495, 9.998859 
1.4751457e+3, 1.8552369e+2, -1112820.4, -1218355.0, 4671.8096, 0.13452506, 0.0037497864, -1112614.0, 9246.298, 0.0, 10.000496, 9.999112 
1.4751299e+3, 1.9552164e+2, -1171373.9, -1181814.1, 37924.055, -0.021492412, -0.1450116, -1138312.4, -114433.22, 0.0, 9.999367, 9.999229 
1.4751154e+3, 2.0552102e+2, -1066018.4, -1104706.6, 20732.682, -0.056839835, -0.115297675, -1057007.0, -131120.86, 0.0, 9.999511, 9.999023 
1.4751023e+3, 2.1552144e+2, -791394.44, -911143.7, -10801.157, 0.013122801, -0.0061269267, -790428.0, 37456.06, 0.0, 10.000693, 9.999105 
1.4750884e+3, 2.2552022e+2, -672318.75, -819231.56, -14149.801, -0.008717079, -0.022935005, -670968.4, 58926.79, 0.0, 10.000898, 9.99897 
1.4750741e+3, 2.3551752e+2, -649493.2, -745696.5, 16045.182, -0.11163534, -0.2235051, -646887.7, -14969.165, 0.0, 10.000328, 9.999076 
1.4750594e+3, 2.4551682e+2, -616243.6, -681120.1, -53524.25, -0.12048385, -0.19467221, -586095.25, -52169.246, 0.0, 9.999884, 9.999062 
1.4750446e+3, 2.5551763e+2, -552985.7, -588255.9, -18424.533, -0.03908928, -0.050609726, -545116.7, -109195.09, 0.000000082863835, 9.999605, 9.999157 
1.4750305e+3, 2.655171e+2, -460571.34, -524221.78, 24926.424, 0.0015592171, -0.0005995531, -451971.7, -114043.445, 0.0000048986644, 9.9997, 9.998876 
1.4750169e+3, 2.755152e+2, -301044.0, -383251.56, -11315.836, 0.0033545545, -0.112800874, -299514.84, -59569.11, 0.00003489947, 10.000066, 9.99899 
1.475003e+3, 2.8551462e+2, -236138.8, -305904.6, -53042.438, -0.011405687, -0.063261576, -207536.92, -65584.836, 0.00016199038, 9.999846, 9.998963 
1.4749889e+3, 2.9551518e+2, -236731.38, -247113.3, -29512.32, -0.03727346, 0.054039802, -211956.97, -168008.83, 0.0005762134, 9.999147, 9.999019 
1.4749749e+3, 3.0551302e+2, -76967.28, -212895.02, 16103.671, -0.13686362, -0.019476034, -75085.49, -75085.49, 0.0014700064, 10.000229, 9.99839 
1.4749621e+3, 3.1551275e+2, 338504.94, 118688.71, 14717.96, -0.17875417, 0.06328291, 339486.03, 339486.03, 0.0028040595, 10.002473, 9.999594 
1.4852324e+3, 1.2553965e+2, -1694172.4, -1673740.1, 106832.84, 0.13971137, 0.05018769, -1576636.0, 133067.77, 0.013700781, 9.999942, 10.000302 
1.4852156e+3, 1.3553885e+2, -1725543.5, -1670566.6, 73858.31, -0.12353523, -0.041367162, -1619247.3, -7536.5107, 0.00813248, 9.999229, 9.999993 
1.4852035e+3, 1.455386e+2, -1577058.1, -1457487.4, 30609.002, 0.14586556, -0.10080281, -1450107.3, 63602.887, 0.0035089266, 9.999195, 10.000786 
1.4851867e+3, 1.555387e+2, -1320925.5, -1277037.5, -21640.494, 0.0138154, -0.20786989, -1268161.9, 147542.92, 0.0008836724, 10.000262, 10.000831 
1.4851725e+3, 1.6553897e+2, -1286901.4, -1427564.4, 69328.81, 0.030783067, -0.15630995, -1258475.6, 59226.633, 0.00007901186, 10.000762, 9.998886 
1.4851609e+3, 1.7553923e+2, -1141436.8, -1293895.3, 85220.24, 0.18692952, -0.0502005, -1103327.1, 116376.41, 0.00000037325287, 10.001031, 9.999003 
1.4851466e+3, 1.8553847e+2, -1043234.5, -1182910.0, 43409.758, 0.16394651, -0.026480673, -1030842.56, 90869.805, 0.0, 10.000964, 9.999131 
1.4851299e+3, 1.9553676e+2, -954978.06, -1076703.4, 15338.891, -0.020665476, -0.14457464, -953074.94, 70653.67, 0.0, 10.000847, 9.999239 
1.4851156e+3, 2.055359e+2, -935342.1, -1114368.0, 63325.8, -0.05371468, -0.102027446, -915206.9, 10532.432, 0.0, 10.000731, 9.998363 
1.4851032e+3, 2.1553567e+2, -839658.25, -1001822.75, 48527.527, 0.043260302, 0.006863317, -826245.8, 1500.7372, 0.0, 10.000649, 9.998503 
1.4850894e+3, 2.255344e+2, -752342.5, -836824.8, 34141.543, 0.03063227, 0.0026856542, -740270.1, -10510.957, 0.0, 10.000259, 9.999153 
1.4850743e+3, 2.3553222e+2, -723183.6, -758894.5, 10799.493, -0.08482615, -0.16172063, -720171.75, -88394.88, 0.0, 9.999732, 9.999269 
1.4850596e+3, 2.4553142e+2, -616909.75, -685546.0, -49196.42, -0.09235799, -0.15111506, -591244.4, -57460.42, 0.0, 9.999904, 9.999021 
1.485045e+3, 2.5553158e+2, -403538.56, -523591.3, -78531.27, -0.009314658, -0.06646488, -364719.97, 71063.53, 0.00000011463164, 10.000663, 9.999093 
1.4850308e+3, 2.6553053e+2, -336310.97, -519059.75, -8902.083, 0.007830985, -0.03764862, -335878.34, 1916.5103, 0.000005857849, 10.000799, 9.998379 
1.4850168e+3, 2.755283e+2, -268267.8, -419658.75, -16926.69, -0.036277123, -0.13079265, -266398.38, -26581.182, 0.000039275426, 10.0005245, 9.99852 
1.4850032e+3, 2.8552765e+2, -127164.805, -250453.0, -23386.434, -0.020275274, -0.064961426, -122877.73, 18946.81, 0.00017769578, 10.0006, 9.99897 
1.4849897e+3, 2.9552832e+2, 32325.637, -119277.945, -41531.95, 0.04475311, 0.065322936, 42957.715, 86776.85, 0.0006294966, 10.000992, 9.999013 
1.4849758e+3, 3.055259e+2, -18854.893, -202406.0, 59358.293, -0.072839215, -0.028273594, -1331.9597, -1331.9597, 0.0015962292, 10.000675, 9.998267 
1.4849631e+3, 3.1552514e+2, -26831.887, -3404.2766, 21368.035, -0.18678921, 0.019153384, 9250.057, 9250.057, 0.0030239006, 9.999698, 10.000099 
1.4952321e+3, 1.2555389e+2, -1651901.5, -1599185.1, -111786.91, 0.06917848, -0.13086389, -1510691.0, 198865.47, 0.014485426, 9.999984, 10.000808 
1.4952171e+3, 1.3555364e+2, -1715255.9, -1635368.8, 54626.84, 0.07719241, -0.19476172, -1607639.8, 3917.893, 0.008627366, 9.999187, 10.000248 
1.4952044e+3, 1.4555374e+2, -1627963.3, -1594499.6, 47495.89, 0.2963595, -0.18477866, -1560874.5, -47319.11, 0.0037456865, 9.999307, 9.999802 
1.4951873e+3, 1.5555295e+2, -1390614.6, -1422256.4, 25790.256, 0.02468057, -0.27531335, -1376179.3, 39382.582, 0.0009542572, 10.000257, 9.999844 
1.4951728e+3, 1.6555257e+2, -1223651.6, -1307488.5, 63652.082, -0.045961633, -0.2834874, -1189354.9, 128209.875, 0.00008722728, 10.000805, 9.999687 
1.4951612e+3, 1.7555211e+2, -1100291.9, -1194999.5, 100751.51, 0.10054894, -0.32803485, -1036320.7, 183248.25, 0.0000004647829, 10.000977, 9.999705 
1.4951472e+3, 1.8555197e+2, -1076565.3, -1257076.3, 22583.695, 0.10416575, -0.24887769, -1073782.8, 47789.793, 0.0, 10.000977, 9.99862 
1.4951311e+3, 1.9555205e+2, -1001699.7, -1158964.6, 18162.068, -0.013061594, -0.13570483, -999629.5, 23946.525, 0.0, 10.00078, 9.998707 
1.4951167e+3, 2.055513e+2, -953664.75, -1134612.5, 46604.367, -0.037705436, -0.052954286, -942366.9, -16778.826, 0.0, 10.000647, 9.998266 
1.4951038e+3, 2.1554974e+2, -866187.1, -1024896.56, 53185.227, 0.027096394, -0.068827055, -850012.56, -22404.248, 0.0, 10.000514, 9.998407 
1.4950895e+3, 2.255491e+2, -787224.25, -882446.5, -196.22829, 0.0037260782, 0.0074553834, -787223.8, -57607.035, 0.0, 10.0001335, 9.998906 
1.495074e+3, 2.3554912e+2, -764595.94, -810066.3, 3365.1497, -0.092351966, 0.08462445, -764348.25, -132731.52, 0.0, 9.999579, 9.998994 
1.4950597e+3, 2.4554765e+2, -685093.44, -788460.1, -30289.18, -0.07901619, 0.0784057, -676871.8, -143241.47, 0.0, 9.999736, 9.998395 
1.4950462e+3, 2.5554487e+2, -466537.25, -620475.9, -39029.555, 0.028329335, -0.07361252, -457207.2, -21550.676, 0.00000015644366, 10.000518, 9.998497 
1.495032e+3, 2.655433e+2, -343264.25, -501407.2, -29430.53, 0.024339078, -0.0789357, -337964.78, -293.50485, 0.000006865855, 10.000658, 9.998568 
1.4950173e+3, 2.7554256e+2, -280174.63, -408262.9, -12821.196, -0.06471603, -0.04141093, -278903.88, -39225.844, 0.00004412461, 10.000373, 9.99867 
1.4950033e+3, 2.8554145e+2, -164017.2, -296146.25, -18823.47, -0.08311279, -0.01719338, -161387.89, -19699.635, 0.00019465707, 10.000461, 9.998727 
1.4949901e+3, 2.9553998e+2, -5477.2515, -160778.42, -9086.509, -0.03562724, -0.07968938, -4947.4175, 38753.938, 0.00068026775, 10.000834, 9.998805 
1.4949764e+3, 3.0553776e+2, -50085.44, -221875.98, 13712.063, -0.102254555, -0.14133932, -48997.85, -48997.85, 0.0016995047, 10.000494, 9.998215 
1.4949635e+3, 3.1553754e+2, -35891.74, 52403.33, 26534.656, -0.15337811, -0.03404813, 59763.977, 59763.977, 0.0031810992, 9.999395, 10.000625 
1.5052325e+3, 1.255684e+2, -1722004.9, -1663392.3, -148689.36, 0.118561395, -0.24876644, -1541148.6, 168261.36, 0.015336173, 9.999651, 10.000513 
1.5052177e+3, 1.3556865e+2, -1529285.5, -1575282.0, -2814.278, 0.16475587, -0.25059235, -1529113.9, 82293.84, 0.0091627855, 10.000583, 9.999995 
1.5052038e+3, 1.4556886e+2, -1461234.4, -1560579.9, 23903.98, 0.24037962, -0.18971989, -1455781.9, 57624.188, 0.0040015904, 10.000679, 9.999363 
1.5051888e+3, 1.55568e+2, -1374620.1, -1454405.9, 16748.396, 0.13888663, -0.24757136, -1371247.0, 44168.207, 0.001031135, 10.0005455, 9.999483 
1.5051742e+3, 1.6556755e+2, -1307780.5, -1339174.5, 58561.31, 0.05280045, -0.25064057, -1262849.0, 54570.246, 0.000096309515, 10.000166, 9.999791 
1.5051608e+3, 1.75567e+2, -1257197.9, -1256316.0, 25038.637, 0.02215524, -0.31781587, -1231714.4, -12291.138, 0.000000575819, 9.999818, 9.999848 
1.5051469e+3, 1.8556677e+2, -1209418.1, -1323026.3, -13257.381, 0.029401656, -0.25368956, -1207891.6, -86464.41, 0.0, 10.000087, 9.998586 
1.5051325e+3, 1.955668e+2, -972367.7, -1144536.5, -4531.386, 0.044252273, -0.14257036, -972248.5, 51182.44, 0.0, 10.000991, 9.998695 
1.5051183e+3, 2.0556599e+2, -860028.0, -1090192.0, 51918.13, 0.033375222, -0.064957805, -848858.8, 76584.58, 0.0, 10.001307, 9.998253 
1.5051045e+3, 2.1556434e+2, -758088.6, -978429.06, 37605.938, 0.0041350927, -0.08617964, -751847.1, 75617.39, 0.0, 10.001279, 9.9983635 
1.50509e+3, 2.2556365e+2, -652950.75, -854193.9, -3203.8064, -0.019651879, 0.005116717, -652899.75, 76574.68, 0.0, 10.001235, 9.998558 
1.505075e+3, 2.3556365e+2, -550060.0, -743241.9, -32635.701, -0.048394, 0.11641027, -544695.56, 86780.33, 0.0, 10.001217, 9.998655 
1.5050608e+3, 2.4556197e+2, -475569.63, -690005.06, 1885.5796, -0.012155567, 0.104833424, -475553.03, 57938.746, 0.0, 10.001194, 9.998362 
1.5050474e+3, 2.5555888e+2, -364725.03, -570194.3, 7765.832, 0.07203575, -0.076890066, -364431.94, 71087.984, 0.00000020302433, 10.0012245, 9.99849 
1.505033e+3, 2.6555717e+2, -266612.34, -459729.7, 32405.12, 0.04429219, -0.09540123, -261319.81, 76214.64, 0.0000077496, 10.001167, 9.998607 
1.5050179e+3, 2.7555645e+2, -173513.08, -356552.66, 19714.498, -0.07261875, -0.05979664, -171413.78, 68125.72, 0.000048509926, 10.001089, 9.998686 
1.505004e+3, 2.8555495e+2, -106786.336, -320818.88, 41481.4, -0.08205668, -0.04970201, -99028.09, 42525.555, 0.00020995413, 10.001085, 9.998256 
1.5049915e+3, 2.955528e+2, 29375.662, -185485.63, -7717.105, 0.003104724, -0.13419019, 29652.479, 73227.3, 0.0007218437, 10.001275, 9.99841 
1.504978e+3, 3.0555075e+2, 60739.05, -194666.86, -2944.0476, -0.04368773, -0.15025535, 60772.98, 60772.98, 0.0017668722, 10.0013485, 9.998004 
1.5049645e+3, 3.1554925e+2, 199802.9, 161723.73, -32492.654, -0.06084022, -0.14238249, 218423.36, 218423.36, 0.0032563144, 10.001009, 10.00062 
1.5152325e+3, 1.2558404e+2, -1782742.5, -1819026.6, -82622.5, 0.106447265, -0.2736307, -1716293.8, -7038.3486, 0.016257107, 9.99977, 9.999383 
1.5152176e+3, 1.355842e+2, -1604345.5, -1706009.6, 46849.18, 0.06431323, -0.21164581, -1586049.1, 25208.326, 0.009740974, 10.00049, 9.999133 
1.515201e+3, 1.4558434e+2, -1456248.6, -1566996.9, 1443.6763, -0.14689429, -0.103749365, -1456229.8, 57028.582, 0.0042781597, 10.000733, 9.999299 
1.5151906e+3, 1.5558386e+2, -1372138.1, -1448358.8, 22820.938, 0.24976805, -0.12913711, -1365827.9, 49436.887, 0.0011151112, 10.000537, 9.999529 
1.5151764e+3, 1.6558391e+2, -1330117.4, -1401869.8, 29768.69, 0.21422152, -0.061075203, -1319375.1, -2109.7502, 0.000106548556, 10.000229, 9.9993305 
1.5151593e+3, 1.7558396e+2, -1288209.8, -1318727.5, 24574.854, -0.13531058, -0.026823683, -1274541.9, -55276.14, 0.0000007145684, 9.999806, 9.999427 
1.5151455e+3, 1.8558295e+2, -1172801.9, -1253530.5, 9183.183, -0.15923068, -0.04471314, -1171770.4, -50495.0, 0.0, 10.000109, 9.999056 
1.515134e+3, 1.9558111e+2, -952105.25, -1085703.6, 36676.938, 0.064600796, -0.1659191, -942698.6, 80593.875, 0.0, 10.00092, 9.999133 
1.5151201e+3, 2.0558012e+2, -873462.44, -1096968.4, 35792.074, 0.062207665, -0.1284644, -867870.6, 57433.914, 0.0, 10.001209, 9.998258 
1.5151048e+3, 2.1557961e+2, -782285.9, -990718.7, 46112.188, -0.11092682, -0.034793258, -772540.0, 54773.844, 0.0, 10.001114, 9.998361 
1.5150902e+3, 2.2557819e+2, -713056.4, -935446.56, -14631.689, -0.13915814, 0.0074323625, -712097.9, 17232.652, 0.0, 10.001047, 9.998093 
1.5150763e+3, 2.3557593e+2, -604062.06, -817447.2, -20472.023, -0.046111014, -0.05836569, -602115.75, 29237.955, 0.0, 10.001057, 9.998223 
1.5150625e+3, 2.4557444e+2, -461387.13, -628875.94, -10033.26, 0.0045992644, -0.055569414, -460788.22, 72579.16, 0.0, 10.001047, 9.9988575 
1.5150483e+3, 2.555735e+2, -352504.06, -512353.6, 19834.186, 0.02820518, -0.069232546, -350079.78, 85294.414, 0.00000026346208, 10.001078, 9.998962 
1.5150335e+3, 2.65572e+2, -292847.13, -479325.8, 19886.637, -0.0321501, -0.08758022, -290749.94, 46635.836, 0.000008336701, 10.001016, 9.998548 
1.5150182e+3, 2.7557e+2, -204080.11, -381420.75, 33413.188, -0.15998234, -0.17833582, -197993.55, 41407.863, 0.00005112129, 10.000935, 9.998588 
1.515005e+3, 2.8556824e+2, -182952.31, -453917.56, 36664.68, -0.13110955, -0.14225969, -178078.83, -36659.043, 0.00022272031, 10.000963, 9.997402 
1.5149935e+3, 2.9556665e+2, -51470.473, -319281.5, 16773.52, 0.040948305, -0.09079599, -50424.004, -6983.404, 0.000756888, 10.001122, 9.997563 
1.5149797e+3, 3.0556464e+2, 6135.499, -250245.48, -24260.87, -0.012788343, -0.047852412, 8411.064, 8411.064, 0.0018087787, 10.001127, 9.997714 
1.5149654e+3, 3.155604e+2, 118035.52, 86516.86, -6769.1997, -0.113482356, -0.2915811, 119427.83, 119427.83, 0.0032696738, 10.00066, 10.000241 
1.5252325e+3, 1.2559903e+2, -1740086.9, -1763856.1, -31436.64, 0.12222174, -0.24909842, -1718363.4, -9252.405, 0.017244658, 9.999939, 9.999674 
1.5252176e+3, 1.3559948e+2, -1754976.9, -1772196.5, 7359.559, 0.08306983, -0.17377377, -1752260.0, -141151.05, 0.010359608, 9.999418, 9.999202 
1.5252e+3, 1.4559937e+2, -1673708.0, -1667732.1, 50495.457, -0.24188538, -0.08939031, -1620136.3, -107024.34, 0.0045741852, 9.999237, 9.99932 
1.525191e+3, 1.5559901e+2, -1401690.8, -1450241.5, 48359.855, 0.2593653, -0.11690553, -1371855.5, 43261.62, 0.0012060112, 10.000279, 9.999637 
1.5251772e+3, 1.6559888e+2, -1303843.8, -1417264.6, 65685.98, 0.27447897, -0.057192676, -1273774.4, 43345.105, 0.000118081814, 10.0005665, 9.999057 
1.5251595e+3, 1.7559871e+2, -1204207.0, -1301215.1, 48385.23, -0.11241426, -0.014034028, -1184200.0, 34921.984, 0.0000008766353, 10.00051, 9.999204 
1.5251458e+3, 1.8559769e+2, -1119823.4, -1209629.1, 70699.93, -0.14375034, -0.030044364, -1080972.3, 40159.332, 0.0, 10.000397, 9.999222 
1.5251347e+3, 1.9559596e+2, -1012400.6, -1103295.5, 51839.62, 0.09623881, -0.15410846, -988907.4, 34239.707, 0.0, 10.000444, 9.999253 
1.5251212e+3, 2.0559484e+2, -973097.4, -1159862.0, 45038.223, 0.09585802, -0.12599951, -962803.75, -37643.637, 0.0, 10.000571, 9.998133 
1.5251057e+3, 2.1559413e+2, -840948.8, -1029464.44, 24042.74, -0.10041307, -0.046875823, -837930.8, -10759.199, 0.0, 10.000744, 9.998267 
1.5250914e+3, 2.2559243e+2, -720395.25, -932755.1, 8254.256, -0.121981196, -0.02969533, -720074.9, 9114.768, 0.0, 10.0009575, 9.998159 
1.5250778e+3, 2.355899e+2, -574484.06, -796431.6, 22481.67, -0.005477329, -0.13144372, -572229.7, 58984.137, 0.0, 10.001225, 9.998288 
1.5250637e+3, 2.4558857e+2, -466237.5, -663977.94, 31285.709, 0.02770752, -0.10126437, -461405.66, 71821.19, 0.0, 10.001173, 9.998545 
1.5250489e+3, 2.555881e+2, -394986.38, -565327.75, -22651.465, -0.0072219777, -0.037104405, -392025.72, 43206.17, 0.0000003530132, 10.000927, 9.998668 
1.5250346e+3, 2.6558658e+2, -291524.84, -484880.03, -17355.174, -0.03675214, -0.04062842, -289979.44, 47264.984, 0.000008619123, 10.001051, 9.998491 
1.5250203e+3, 2.7558416e+2, -122701.47, -342595.8, -32639.549, -0.0676332, -0.1673701, -117958.97, 121304.47, 0.000051931653, 10.001504, 9.998571 
1.5250069e+3, 2.855824e+2, -124513.72, -429208.63, 15030.503, -0.047932126, -0.13034113, -123774.06, 17507.742, 0.00023518385, 10.001388, 9.997374 
1.5249941e+3, 2.9558104e+2, -93358.05, -343330.3, 30518.945, 0.017237607, -0.04518558, -89685.95, -46385.203, 0.0007914608, 10.00084, 9.997549 
1.5249804e+3, 3.0557963e+2, -58505.066, -230719.11, 70233.96, -0.013272611, 0.032672383, -33494.004, -33494.004, 0.001844471, 10.000435, 9.998199 
1.5249671e+3, 3.155748e+2, 12568.138, 17558.955, 95226.7, 0.037532277, -0.31505924, 110322.94, 110322.94, 0.0032658095, 9.999946, 10.000144 
1.5352337e+3, 1.2561315e+2, -1626811.8, -1532666.1, 90641.67, 0.18070944, -0.1975028, -1477602.9, 231375.48, 0.018294634, 9.999965, 10.001261 
1.5352172e+3, 1.3561463e+2, -1681822.1, -1622558.3, -17166.104, 0.084608115, -0.12148848, -1617945.0, -6984.289, 0.011016667, 9.999432, 10.00022 
1.5352005e+3, 1.4561428e+2, -1645945.8, -1641036.9, 66250.03, -0.16330934, -0.1170752, -1577195.9, -64232.418, 0.0048880493, 9.999357, 9.999456 
1.5351897e+3, 1.5561366e+2, -1398682.1, -1427168.6, 91583.32, 0.08119813, -0.18672216, -1320241.1, 94729.42, 0.0013030368, 10.000217, 9.999826 
1.535177e+3, 1.6561273e+2, -1304913.5, -1433030.4, 46862.953, 0.14203252, -0.20863062, -1289601.8, 27377.531, 0.00013086536, 10.000614, 9.998931 
1.5351614e+3, 1.756115e+2, -1217970.1, -1324853.8, 55124.324, -0.0023786104, -0.2569063, -1194634.9, 24355.352, 0.0000010420176, 10.000493, 9.999049 
1.5351474e+3, 1.8561113e+2, -1127377.3, -1235821.9, 58265.586, -0.035670016, -0.18963777, -1102007.3, 18987.322, 0.0, 10.000435, 9.999026 
1.535135e+3, 1.9561133e+2, -1029448.94, -1129002.0, 61693.477, 0.04674792, -0.10587511, -999955.1, 23039.96, 0.0, 10.000401, 9.999098 
1.5351215e+3, 2.0561017e+2, -1006340.94, -1198586.0, 41523.26, 0.033166405, -0.06403349, -997755.6, -72745.36, 0.0, 10.000446, 9.997925 
1.535107e+3, 2.1560787e+2, -878730.2, -1068137.9, 41511.34, -0.060746487, -0.12081407, -870031.9, -42994.16, 0.0, 10.000577, 9.99808 
1.5350929e+3, 2.2560641e+2, -701636.44, -853187.5, 6964.904, -0.07428183, -0.10394017, -701317.0, 27734.95, 0.0, 10.000776, 9.998795 
1.535079e+3, 2.3560557e+2, -557812.9, -725875.1, 44611.086, -0.012590467, -0.103760704, -546705.25, 84351.445, 0.0, 10.001068, 9.99885 
1.5350643e+3, 2.4560426e+2, -575693.44, -844716.6, 11882.16, -0.04295582, -0.035857584, -575169.7, -42098.625, 0.0, 10.00098, 9.997393 
1.5350488e+3, 2.556026e+2, -497601.7, -738699.44, -17615.416, -0.13319433, 0.022379918, -496321.44, -61228.3, 0.0000004707298, 10.00077, 9.997548 
1.5350354e+3, 2.6560086e+2, -313543.0, -504325.78, -14365.813, -0.07836558, 0.053493403, -312467.34, 24643.334, 0.0000086272985, 10.000929, 9.998419 
1.5350236e+3, 2.7559894e+2, -142377.69, -354632.1, -8647.183, 0.092936926, -0.018699879, -142026.0, 97099.86, 0.000052741245, 10.00138, 9.998548 
1.5350094e+3, 2.855973e+2, -94230.66, -334079.88, -17461.07, 0.049134403, -0.0069874944, -92966.15, 48175.066, 0.00024875673, 10.00124, 9.998103 
1.5349934e+3, 2.9559588e+2, -63456.76, -246893.69, 28853.387, -0.1719978, -0.0027445934, -59025.37, -15868.774, 0.0008280687, 10.000693, 9.998281 
1.5349796e+3, 3.0559573e+2, -4346.311, -71356.9, 40562.418, -0.15358609, 0.106581785, 14759.368, 14759.368, 0.001889822, 10.000248, 9.999376 
1.5349689e+3, 3.155926e+2, -16222.019, 53232.07, 113646.734, 0.17945847, -0.19772698, 137339.14, 137339.14, 0.003290945, 9.999577, 10.0005455 
1.5452337e+3, 1.2562783e+2, -1709279.1, -1565764.3, 191697.58, 0.24006267, -0.14669637, -1432834.0, 276002.44, 0.019406972, 9.999374, 10.001313 
1.5452169e+3, 1.356288e+2, -1573825.6, -1542814.4, -62549.527, 0.091777205, -0.14521426, -1493877.3, 116945.29, 0.0117135905, 10.0000305, 10.000484 
1.545202e+3, 1.4562891e+2, -1544623.5, -1581784.4, 56258.504, 0.037166376, -0.1152343, -1503956.6, 8863.49, 0.0052204016, 10.000013, 9.999548 
1.5451893e+3, 1.5562846e+2, -1374315.9, -1413149.4, 50710.46, 0.01768866, -0.1721802, -1339432.0, 75393.836, 0.0014059248, 10.000345, 9.999879 
1.5451765e+3, 1.6562736e+2, -1306757.9, -1400136.5, 24175.275, 0.06066571, -0.22858605, -1300870.3, 15964.624, 0.00014487762, 10.000466, 9.999211 
1.545163e+3, 1.7562588e+2, -1179092.0, -1283069.3, 39660.78, 0.11004588, -0.3341924, -1165691.1, 53154.844, 0.000001197513, 10.000645, 9.99926 
1.5451492e+3, 1.8562545e+2, -1131213.6, -1282155.8, 68708.36, 0.09805514, -0.26186252, -1104622.3, 16229.378, 0.0, 10.000613, 9.998615 
1.5451354e+3, 1.9562581e+2, -1026327.9, -1164471.4, 36276.0, 0.04701937, -0.1207569, -1017381.3, 5472.1484, 0.0, 10.000594, 9.998757 
1.5451218e+3, 2.0562497e+2, -936607.4, -1120565.5, 62296.742, 0.015312258, -0.0520304, -917496.25, 7369.661, 0.0, 10.000751, 9.998314 
1.5451083e+3, 2.1562314e+2, -777422.94, -977563.0, 81954.01, -0.010215161, -0.0975887, -748146.6, 78740.32, 0.0, 10.001109, 9.998446 
1.5450944e+3, 2.2562179e+2, -651603.06, -825018.4, 54752.54, -0.013796925, -0.08906795, -635762.9, 93136.266, 0.0, 10.001116, 9.998819 
1.5450801e+3, 2.3562074e+2, -586954.1, -736733.56, 17305.893, -0.0051453537, -0.10934208, -584980.56, 45924.555, 0.0, 10.000868, 9.998868 
1.5450652e+3, 2.456191e+2, -569780.6, -865367.9, 31863.855, -0.048264198, -0.06445707, -566384.75, -33462.586, 0.000000000009610117, 10.0011015, 9.997208 
1.54505e+3, 2.5561696e+2, -372877.75, -703041.2, 56327.72, -0.1281651, -0.03419839, -363532.47, 71416.26, 0.0000005675007, 10.001715, 9.997353 
1.5450369e+3, 2.6561496e+2, -257623.4, -537051.8, 84736.18, -0.049026016, 0.010437606, -233935.4, 103034.766, 0.000008574752, 10.001583, 9.997881 
1.5450251e+3, 2.7561292e+2, -244106.94, -466913.25, 27961.604, 0.14045703, -0.0130782975, -240651.42, -1662.0311, 0.00005426492, 10.000935, 9.998007 
1.5450107e+3, 2.8561115e+2, -143972.25, -303742.0, 5907.039, 0.08372246, -0.013443215, -143754.16, -2748.5818, 0.00026286932, 10.000691, 9.99855 
1.5449938e+3, 2.9560962e+2, -22298.297, -186125.38, -1756.1825, -0.18436596, -0.06425075, -22279.475, 20739.676, 0.0008684361, 10.000812, 9.998629 
1.5449801e+3, 3.0560964e+2, 77498.164, -40448.086, -30313.549, -0.14153606, 0.05301699, 84832.96, 84832.96, 0.0019566913, 10.000841, 9.99931 
1.54497e+3, 3.1560785e+2, 98990.71, 27024.955, -100864.375, 0.27974516, -0.10146497, 170098.4, 170098.4, 0.0033753177, 10.000697, 9.999841 
1.555232e+3, 1.2564342e+2, -1782289.4, -1751246.5, 61055.32, 0.06199326, -0.029714277, -1703770.5, 4911.168, 0.020587768, 9.999507, 9.999962 
1.555216e+3, 1.3564196e+2, -1598059.1, -1576213.9, -52821.516, -0.01840025, -0.22554971, -1533197.5, 77496.695, 0.012455585, 9.999967, 10.000286 
1.5552045e+3, 1.4564325e+2, -1528102.6, -1557739.0, 47409.44, 0.24490416, -0.090094775, -1493249.5, 19432.42, 0.0055746003, 10.000048, 9.999698 
1.5551893e+3, 1.5564355e+2, -1381258.0, -1417029.4, 74678.555, -0.040699042, -0.06799, -1322353.1, 92327.9, 0.001515748, 10.000315, 9.99986 
1.555176e+3, 1.6564295e+2, -1248004.1, -1295652.8, 17369.535, -0.07939616, -0.109239504, -1242344.6, 74339.92, 0.00016035176, 10.00053, 9.999907 
1.5551642e+3, 1.7564179e+2, -1139591.3, -1191270.6, 50938.5, 0.14495385, -0.25040174, -1108313.4, 110376.516, 0.0000013687348, 10.000604, 9.999911 
1.5551507e+3, 1.856407e+2, -1175764.1, -1370143.9, 55140.25, 0.16525222, -0.24396515, -1161211.9, -40509.742, 0.0, 10.000597, 9.998018 
1.5551357e+3, 1.956395e+2, -1076831.4, -1248021.6, 46983.29, 0.005893282, -0.19675568, -1064784.5, -42063.117, 0.0, 10.000511, 9.99822 
1.555122e+3, 2.0563935e+2, -880891.6, -990897.5, 63416.676, -0.06003394, -0.08298065, -851948.1, 72777.945, 0.0, 10.000677, 9.999247 
1.5551093e+3, 2.1563995e+2, -734721.7, -862622.56, 103775.26, -0.035495456, 0.022044199, -676774.8, 149944.9, 0.0, 10.000984, 9.999302 
1.5550953e+3, 2.2563851e+2, -721486.4, -933643.75, 34416.477, -0.044257578, 0.01441342, -716042.94, 12689.166, 0.0, 10.000957, 9.998151 
1.5550803e+3, 2.3563536e+2, -650140.9, -836514.8, 21180.787, -0.07752161, -0.14673613, -647764.06, -17004.19, 0.0, 10.0007305, 9.998251 
1.5550661e+3, 2.4563305e+2, -536498.9, -758212.4, 44971.754, -0.09615452, -0.18356389, -527724.2, 5056.7417, 0.0, 10.000936, 9.998024 
1.5550524e+3, 2.556313e+2, -343060.03, -606770.75, 87277.19, -0.08505995, -0.19901931, -316791.56, 118006.24, 0.0000005355393, 10.001571, 9.998081 
1.5550385e+3, 2.6562896e+2, -355976.1, -708721.7, 51943.344, -0.053670112, -0.16398188, -348486.25, -11663.659, 0.000008556659, 10.001439, 9.996773 
1.5550248e+3, 2.7562618e+2, -339841.7, -630770.9, 22698.969, -0.008067057, -0.15381145, -338081.3, -99227.51, 0.000056489618, 10.00079, 9.996947 
1.5550102e+3, 2.85624e+2, -165394.3, -313976.25, 1070.8939, -0.040352613, -0.14575791, -165386.58, -24511.604, 0.00027893353, 10.000543, 9.998552 
1.5549953e+3, 2.956222e+2, -48655.66, -200769.97, 18459.576, -0.1315618, -0.23204474, -46447.582, -3558.4846, 0.00091525615, 10.0006485, 9.998601 
1.5549816e+3, 3.056214e+2, -63628.1, -273589.1, -47586.633, -0.098553285, -0.11738176, -53346.324, -53346.324, 0.0020505092, 10.000613, 9.997805 
1.5549697e+3, 3.156202e+2, -84288.72, -245814.28, -69629.02, 0.15287636, -0.063504845, -58417.418, -58417.418, 0.0035280038, 10.000292, 9.998133 
1.5652321e+3, 1.2565829e+2, -1677737.9, -1773844.5, -13521.269, 0.094116285, 0.0032872509, -1675871.8, 32663.443, 0.021849003, 10.000566, 9.999299 
1.5652159e+3, 1.3565612e+2, -1590997.8, -1585525.9, -39378.81, -0.02673026, -0.24078675, -1548788.1, 61767.813, 0.013250772, 10.000071, 10.000181 
1.565205e+3, 1.4565697e+2, -1550107.6, -1555828.4, 85070.36, 0.3137794, -0.1552434, -1467849.6, 44698.55, 0.0059556314, 9.999861, 9.999798 
1.5651898e+3, 1.5565763e+2, -1451051.1, -1450448.3, 88965.42, 0.015088039, -0.09738917, -1361783.8, 52759.336, 0.0016345053, 9.999844, 9.99985 
1.5651761e+3, 1.6565761e+2, -1358470.4, -1357652.8, 29217.854, -0.07267667, -0.07624522, -1328840.9, -12298.987, 0.00017771397, 9.999807, 9.999838 
1.5651642e+3, 1.7565714e+2, -1219669.3, -1234238.3, -10471.886, 0.11560008, -0.14064062, -1214197.5, 4345.403, 0.0000016137079, 10.000061, 9.999887 
1.565151e+3, 1.8565588e+2, -1219300.0, -1370586.9, 17920.475, 0.15668409, -0.15960932, -1217206.3, -96650.266, 0.0, 10.000206, 9.998203 
1.5651363e+3, 1.9565395e+2, -1074269.5, -1230038.5, 48364.254, 0.028369308, -0.20771407, -1060474.8, -37895.117, 0.0, 10.000444, 9.998381 
1.5651229e+3, 2.0565349e+2, -881903.06, -993297.56, 78572.766, -0.027380891, -0.12786849, -841289.0, 83296.63, 0.0, 10.000695, 9.9992075 
1.5651105e+3, 2.1565424e+2, -712888.9, -851140.8, 25671.791, -0.013558903, -0.008655951, -708275.8, 118302.03, 0.0, 10.00115, 9.999286 
1.5650965e+3, 2.2565278e+2, -699285.9, -932988.1, -53365.81, -0.018141612, -0.0111285215, -687676.5, 40913.75, 0.0, 10.001146, 9.998063 
1.5650815e+3, 2.3564953e+2, -648039.3, -844690.3, -38095.016, -0.0414972, -0.17887472, -640917.5, -10297.938, 0.0, 10.0007715, 9.998173 
1.5650675e+3, 2.4564706e+2, -537675.7, -780953.4, 18363.867, -0.038423814, -0.21666223, -536297.3, -3655.0017, 0.0, 10.001019, 9.99783 
1.5650545e+3, 2.556452e+2, -322370.9, -614187.3, -41277.313, -0.021341784, -0.22270657, -316644.63, 118015.89, 0.00000039469393, 10.001787, 9.997924 
1.5650403e+3, 2.65643e+2, -292868.66, -664668.25, -89469.445, -0.024527816, -0.17206305, -272459.16, 64224.9, 0.000008163994, 10.001825, 9.996882 
1.5650253e+3, 2.7564046e+2, -263623.94, -581595.9, -53313.3, -0.050099265, -0.14734074, -254923.16, -16210.075, 0.000058543963, 10.001268, 9.997046 
1.5650108e+3, 2.8563812e+2, -136207.61, -314299.4, 1864.3373, -0.039392605, -0.1523261, -136188.1, 4547.3975, 0.00029613846, 10.000796, 9.998446 
1.5649971e+3, 2.956359e+2, -86644.625, -232726.84, -24859.857, -0.0000052825226, -0.26071554, -82529.945, -39777.02, 0.00096595153, 10.00043, 9.998504 
1.5649828e+3, 3.0563462e+2, -81138.766, -271489.1, 7676.946, -0.00911036, -0.1977061, -80829.66, -80829.66, 0.0021626693, 10.00041, 9.997918 
1.5649696e+3, 3.1563443e+2, -27192.71, -213569.14, 71673.02, 0.10873653, -0.055120707, -2817.8977, -2817.8977, 0.0037320128, 10.000574, 9.998245 
1.5752319e+3, 1.2567206e+2, -1671906.4, -1771467.6, -181649.81, -0.053554878, -0.11551622, -1533339.5, 175061.03, 0.023204513, 10.00059, 9.999328 
1.5752162e+3, 1.3567194e+2, -1609290.0, -1615856.5, -40422.63, -0.0192854, -0.13998257, -1572017.5, 38383.492, 0.014108494, 10.000053, 9.999972 
1.5752035e+3, 1.456704e+2, -1529139.6, -1547517.8, 70659.125, 0.13982636, -0.28154725, -1467074.5, 45340.91, 0.0063687824, 9.999997, 9.999797 
1.5751907e+3, 1.5567078e+2, -1458528.4, -1463111.3, 93051.02, 0.10099329, -0.24801014, -1367740.5, 46670.63, 0.00176415, 9.999832, 9.999771 
1.5751766e+3, 1.6567144e+2, -1403203.9, -1460839.0, 22754.215, -0.023463672, -0.11686304, -1395303.5, -78897.14, 0.00019721544, 9.999846, 9.999111 
1.5751627e+3, 1.7567202e+2, -1267665.5, -1329775.3, 9172.394, -0.06390308, -0.0035937133, -1266339.3, -47935.344, 0.0000019795527, 10.000046, 9.999236 
1.5751496e+3, 1.8567115e+2, -1142462.0, -1226697.1, 15264.819, -0.027341427, -0.005067207, -1139781.1, -19369.34, 0.0, 10.000264, 9.999166 
1.575137e+3, 1.9566919e+2, -1026490.7, -1117354.1, 65405.406, 0.026305163, -0.14896214, -992286.3, 30141.186, 0.0, 10.000385, 9.999184 
1.5751243e+3, 2.0566753e+2, -963751.75, -1144878.6, 84925.414, 0.00940345, -0.17577958, -930161.8, -5718.1143, 0.0, 10.000609, 9.998207 
1.5751116e+3, 2.1566601e+2, -802102.7, -998241.25, 50047.766, -0.036435913, -0.18042201, -790070.4, 36390.605, 0.0, 10.000988, 9.998352 
1.5750977e+3, 2.2566463e+2, -682890.94, -862829.1, -74988.89, -0.03345329, -0.16399609, -655737.2, 72736.5, 0.0, 10.000988, 9.998621 
1.5750828e+3, 2.3566319e+2, -639322.2, -791757.1, -40040.547, 0.009788294, -0.20443645, -629444.7, 1039.382, 0.0, 10.000625, 9.998606 
1.5750693e+3, 2.4566118e+2, -648324.94, -972904.7, 36748.355, 0.015222124, -0.15344901, -644216.4, -111710.7, 0.0, 10.000852, 9.9965925 
1.5750566e+3, 2.556587e+2, -421236.75, -786155.44, -4569.0244, -0.012310361, -0.102050856, -421179.56, 13356.813, 0.00000029448665, 10.001642, 9.996811 
1.5750423e+3, 2.65657e+2, -229364.83, -499296.25, -117458.38, -0.04573677, -0.011135197, -185410.95, 151144.22, 0.000007127328, 10.001676, 9.998093 
1.5750264e+3, 2.7565578e+2, -200861.3, -420505.72, -58776.395, -0.08793661, 0.015234194, -186121.94, 52445.473, 0.000059012113, 10.001139, 9.998216 
1.5750119e+3, 2.856535e+2, -177239.5, -375847.5, -23893.63, -0.03077869, -0.01854537, -174405.4, -33817.914, 0.00030982727, 10.000687, 9.998077 
1.574999e+3, 2.9565072e+2, -130674.79, -284774.03, -17409.385, 0.10988667, -0.14475675, -128732.445, -86121.67, 0.0010138974, 10.000259, 9.998229 
1.5749836e+3, 3.0564928e+2, 10902.998, -19434.164, 6786.767, 0.0044791023, -0.1800431, 12352.061, 12352.061, 0.0022779866, 10.00018, 9.999739 
1.5749687e+3, 3.156504e+2, 59799.535, 75680.36, 124458.28, -0.07444662, -0.10352626, 192451.27, 192451.27, 0.003951804, 10.000163, 10.000401 
1.5852319e+3, 1.2568668e+2, -1919685.8, -1850674.3, -95899.375, 0.009997574, -0.21424295, -1783261.8, -75005.6, 0.024665277, 9.998703, 9.999674 
1.5852165e+3, 1.3568781e+2, -1621373.8, -1668417.0, 14092.178, 0.009017256, -0.0780659, -1617475.4, -7232.152, 0.0150364665, 10.000166, 9.999551 
1.5852022e+3, 1.4568523e+2, -1478722.5, -1605145.3, 80392.31, -0.0040019313, -0.26424244, -1439666.6, 72602.414, 0.0068181083, 10.000712, 9.999047 
1.5851913e+3, 1.5568462e+2, -1411437.1, -1520325.4, 21952.936, 0.1613251, -0.25386956, -1407177.9, 7098.932, 0.0019058621, 10.000493, 9.999061 
1.5851778e+3, 1.6568491e+2, -1326706.5, -1433662.3, -8676.3545, 0.08116705, -0.12182135, -1326007.3, -9730.47, 0.0002187055, 10.000418, 9.999017 
1.585163e+3, 1.7568551e+2, -1170713.6, -1283416.4, 1174.4851, -0.05981361, -0.0008710136, -1170701.4, 47573.133, 0.000002466339, 10.000728, 9.999216 
1.5851502e+3, 1.8568486e+2, -1045293.2, -1141837.3, 16826.854, -0.010909801, 0.0018473577, -1042444.44, 77834.695, 0.0, 10.000776, 9.9995 
1.5851386e+3, 1.9568327e+2, -936459.6, -1035188.0, 1611.133, 0.12562335, -0.13792591, -936433.3, 85855.414, 0.0, 10.000837, 9.999527 
1.5851256e+3, 2.0568147e+2, -981050.6, -1157367.6, 59037.383, 0.0926379, -0.19365762, -963108.56, -38803.652, 0.0, 10.000496, 9.998189 
1.5851119e+3, 2.1567935e+2, -955903.7, -1079792.6, 79937.266, -0.043987427, -0.25663698, -916719.1, -90391.31, 0.0, 9.999931, 9.99832 
1.5850987e+3, 2.2567806e+2, -730415.0, -911323.8, 9299.542, -0.0323193, -0.21564648, -729938.2, -1597.1456, 0.0, 10.000786, 9.998391 
1.5850854e+3, 2.3567735e+2, -320750.88, -663895.2, -40969.324, 0.08129854, -0.15351151, -315927.22, 314419.94, 0.0, 10.002923, 9.998391 
1.5850717e+3, 2.456754e+2, -385937.28, -829465.2, 27704.39, 0.08784375, -0.09220592, -384213.47, 148155.61, 0.0, 10.002611, 9.996711 
1.5850577e+3, 2.5567243e+2, -584580.5, -853463.06, 62558.96, 0.0026950708, -0.094424695, -570737.94, -136334.55, 0.00000023115544, 10.000481, 9.996901 
1.5850432e+3, 2.6567078e+2, -427142.8, -563692.7, 11868.007, -0.026740022, -0.021964803, -426119.0, -89697.43, 0.0000061293663, 10.000188, 9.998361 
1.5850283e+3, 2.7566993e+2, -140445.25, -360999.38, -29293.457, -0.017255524, 0.020496141, -136620.88, 101807.96, 0.000060026516, 10.001435, 9.998471 
1.5850139e+3, 2.8566784e+2, -48506.035, -346668.84, -31611.049, 0.051916596, 0.006434002, -45191.496, 95256.31, 0.0003212461, 10.001716, 9.997776 
1.5850002e+3, 2.9566494e+2, -14063.608, -254059.05, -50904.285, 0.16501507, -0.10589123, -3712.9521, 38761.09, 0.0010568721, 10.00116, 9.998001 
1.5849842e+3, 3.0566314e+2, 81840.26, 5181.79, -61125.37, 0.034416195, -0.16520493, 115659.766, 115659.766, 0.0023826924, 10.000664, 9.99972 
1.5849692e+3, 3.1566387e+2, 78104.21, 124938.25, -126025.29, -0.032207873, -0.1075172, 229703.64, 229703.64, 0.004144855, 10.000078, 10.00082 
1.5952331e+3, 1.2570332e+2, -1850116.3, -1749186.1, 51244.215, 0.2007738, -0.19450928, -1727729.8, -19639.38, 0.026239868, 9.998865, 10.000299 
1.5952167e+3, 1.3570368e+2, -1670532.0, -1772373.9, 77561.32, -0.014908068, -0.07948996, -1628669.9, -18586.105, 0.016040104, 10.0001745, 9.99883 
1.5952012e+3, 1.4570142e+2, -1567610.3, -1821450.5, 57379.855, -0.22736564, -0.11423156, -1555242.3, -43132.863, 0.0073062, 10.000825, 9.997518 
1.5951917e+3, 1.5569928e+2, -1501508.1, -1714853.6, 23920.686, 0.10803177, -0.11301412, -1498859.0, -84720.73, 0.002060233, 10.000515, 9.99772 
1.595179e+3, 1.6569826e+2, -1282991.1, -1358060.8, -12055.264, 0.14021608, -0.07347207, -1281102.8, 35047.754, 0.00024185247, 10.000481, 9.999507 
1.595165e+3, 1.7569779e+2, -1145161.4, -1223468.8, 20392.633, 0.044877797, -0.10918778, -1140169.1, 77984.05, 0.0000030340082, 10.000701, 9.99964 
1.5951525e+3, 1.8569708e+2, -1057008.6, -1170881.8, 7079.2075, 0.09957991, -0.1215431, -1056570.3, 63587.184, 0.0, 10.000793, 9.999291 
1.5951407e+3, 1.9569625e+2, -959336.8, -1062236.4, 13186.913, 0.23357193, -0.16631047, -957673.75, 64488.69, 0.0, 10.000756, 9.999376 
1.5951265e+3, 2.0569535e+2, -928043.06, -1028746.0, 27236.113, 0.1279389, -0.17438644, -921148.75, 3020.1992, 0.0, 10.000415, 9.999109 
1.5951112e+3, 2.1569423e+2, -924282.4, -974097.4, 72611.81, -0.12704577, -0.23165378, -872424.94, -46246.773, 0.0, 9.99977, 9.999119 
1.5950988e+3, 2.2569317e+2, -826925.75, -1075526.8, 78928.77, -0.116928615, -0.14937158, -803983.75, -75792.484, 0.0, 10.00062, 9.997347 
1.5950884e+3, 2.356921e+2, -414443.03, -811815.7, 44148.81, 0.08589858, -0.022122616, -409597.13, 220610.73, 0.0, 10.002722, 9.997472 
1.5950744e+3, 2.456898e+2, -324093.88, -652584.5, -58265.324, 0.07884423, -0.022334171, -314065.34, 218166.44, 0.0, 10.002406, 9.99802 
1.5950575e+3, 2.5568643e+2, -526402.94, -687492.75, 2551.181, -0.07163002, -0.1979314, -526362.5, -92100.23, 0.00000009760233, 10.000303, 9.998115 
1.5950434e+3, 2.656843e+2, -497788.13, -684446.6, 47257.863, -0.059307482, -0.18986712, -486505.47, -150222.25, 0.0000054247644, 10.000066, 9.997593 
1.5950307e+3, 2.7568305e+2, -215855.16, -481844.84, 27826.025, 0.06768295, -0.11631243, -212975.38, 25321.584, 0.0000627863, 10.001278, 9.997717 
1.5950164e+3, 2.85681e+2, -90912.83, -392715.1, -62444.445, 0.09824666, -0.0760435, -78503.02, 61814.777, 0.0003316825, 10.0015335, 9.997549 
1.5950003e+3, 2.9567823e+2, -62792.46, -310486.78, -53331.25, 0.04855108, -0.15741843, -51797.707, -9452.213, 0.0010852148, 10.000967, 9.997709 
1.5949844e+3, 3.0567595e+2, -95769.016, -298434.0, -96574.41, -0.038077112, -0.14370243, -57119.758, -57119.758, 0.0024471504, 10.000415, 9.997742 
1.5949705e+3, 3.1567502e+2, -91592.16, -119673.13, -95980.53, 0.050649457, -0.054163802, -8630.594, -8630.594, 0.004255502, 9.999665, 9.999319 
1.6052325e+3, 1.257165e+2, -1642091.5, -1607107.3, -91961.82, 0.20141776, -0.131256, -1530988.8, 176975.39, 0.027939666, 10.000157, 10.000659 
1.6052179e+3, 1.357162e+2, -1570978.1, -1673698.4, -104140.85, 0.074910186, -0.12601177, -1506221.1, 103742.07, 0.01712635, 10.000669, 9.999267 
1.6052029e+3, 1.4571469e+2, -1580211.0, -1798271.3, -29077.156, -0.120520964, -0.11586306, -1576400.3, -64419.496, 0.007836914, 10.000643, 9.997745 
1.605192e+3, 1.5571332e+2, -1474117.4, -1668164.8, 29119.521, 0.09398548, -0.06730962, -1469841.8, -55839.867, 0.0022287087, 10.000578, 9.9979925 
1.6051793e+3, 1.6571222e+2, -1294674.0, -1343350.3, 67794.3, 0.13765034, -0.060301263, -1246981.5, 69032.06, 0.00026665046, 10.000324, 9.999678 
1.605166e+3, 1.7571105e+2, -1196410.4, -1232860.6, 56582.066, 0.102032855, -0.17997783, -1155190.8, 62829.855, 0.0000036433328, 10.0002775, 9.999784 
1.6051537e+3, 1.8571045e+2, -1123724.8, -1226722.8, 56432.008, 0.1684995, -0.17677566, -1098825.3, 21199.02, 0.0, 10.000431, 9.9990835 
1.6051419e+3, 1.9571021e+2, -944488.5, -1076637.3, 39263.6, 0.27619374, -0.14357868, -933702.94, 88323.35, 0.0, 10.000933, 9.999196 
1.6051278e+3, 2.057094e+2, -829960.56, -984230.3, 16632.838, 0.17425196, -0.13083108, -828187.6, 95845.53, 0.0, 10.001113, 9.999078 
1.6051121e+3, 2.1570812e+2, -718982.8, -872361.6, -28350.736, -0.07958632, -0.19902912, -713910.2, 112133.97, 0.0, 10.001178, 9.999136 
1.6050994e+3, 2.2570714e+2, -815316.6, -1015003.3, 53960.504, -0.08270353, -0.1352733, -801668.0, -73612.22, 0.0, 10.000469, 9.997823 
1.6050893e+3, 2.3570636e+2, -885100.7, -979698.4, 105893.74, 0.09051323, -0.029225381, -816422.5, -186354.63, 0.0, 9.999248, 9.997972 
1.6050756e+3, 2.4570437e+2, -670680.06, -811361.1, 11765.295, 0.08401322, -0.028161565, -669702.94, -137614.67, 0.0, 9.999975, 9.998118 
1.605059e+3, 2.5570133e+2, -239270.61, -542086.56, -35964.8, -0.04291918, -0.17688322, -235057.75, 199058.13, 0.000000007673713, 10.002223, 9.998209 
1.6050449e+3, 2.6569906e+2, -179250.17, -528729.5, 10878.308, -0.013881443, -0.18468332, -178911.89, 157225.94, 0.0000049768487, 10.002247, 9.997618 
1.6050321e+3, 2.756974e+2, -319100.97, -536785.7, 15370.368, 0.12158516, -0.14605224, -318021.06, -79865.555, 0.00006482946, 10.000569, 9.997701 
1.6050176e+3, 2.8569558e+2, -255352.56, -467245.44, 7369.902, 0.14377339, -0.08594474, -255096.53, -114920.95, 0.00033743004, 10.000366, 9.997602 
1.6050017e+3, 2.9569358e+2, 4182.98, -274304.66, 1132.2241, 0.07666554, -0.0952867, 4187.583, 46385.586, 0.001089985, 10.001406, 9.997746 
1.6049859e+3, 3.0569163e+2, 7568.74, -320553.0, 24453.617, 0.031209134, -0.023067325, 9381.16, 9381.16, 0.0024499798, 10.001432, 9.997086 
1.6049717e+3, 3.1568867e+2, 3298.1487, -136489.42, 82381.414, 0.19430345, -0.07220565, 41440.65, 41440.65, 0.0042540967, 10.000546, 9.998776 
1.6152309e+3, 1.257258e+2, -1628454.1, -1626189.0, -80426.07, -0.034851644, -0.09927749, -1546887.5, 160993.72, 0.02978273, 10.00034, 10.000449 
1.6152197e+3, 1.3572608e+2, -1468944.6, -1456604.1, -81513.18, 0.16318884, -0.17865221, -1381028.0, 228846.11, 0.018308382, 10.000643, 10.00079 
1.6152069e+3, 1.4572561e+2, -1441828.0, -1524907.4, -41614.895, 0.18147412, -0.23602812, -1424568.5, 87309.19, 0.008418617, 10.000697, 9.999598 
1.6151921e+3, 1.5572679e+2, -1356304.5, -1422475.3, 34669.324, 0.027645493, -0.1104406, -1341467.0, 72400.62, 0.0024150687, 10.000577, 9.99968 
1.6151783e+3, 1.6572665e+2, -1282481.0, -1349104.6, 48212.914, -0.027099973, -0.08299166, -1257191.1, 58676.453, 0.0002938315, 10.000441, 9.999588 
1.6151658e+3, 1.7572524e+2, -1203376.8, -1252757.8, 63264.19, 0.03529523, -0.217326, -1160155.8, 57722.0, 0.000004294035, 10.000288, 9.999648 
1.6151538e+3, 1.8572484e+2, -1139089.4, -1262640.1, 62664.387, 0.10327354, -0.17228316, -1112870.3, 7010.887, 0.0, 10.000451, 9.998825 
1.615142e+3, 1.9572511e+2, -977538.06, -1127293.4, 65843.92, 0.17144233, -0.06159599, -952705.7, 69174.71, 0.0, 10.00086, 9.998881 
1.6151287e+3, 2.0572373e+2, -915459.25, -1131307.4, 5344.2373, 0.12799588, -0.040597826, -915327.0, 8569.319, 0.0, 10.000982, 9.998129 
1.6151144e+3, 2.1572112e+2, -793864.1, -993030.8, -19054.8, 0.0176307, -0.15174565, -792057.5, 33867.363, 0.0, 10.001034, 9.998373 
1.6151008e+3, 2.2572002e+2, -709757.75, -752859.2, -2184.3037, -0.019457929, -0.16403937, -709647.3, 18286.533, 0.0, 10.000288, 9.999709 
1.6150878e+3, 2.3572005e+2, -789966.06, -744025.6, 79905.64, -0.001114171, -0.16858976, -683854.1, -53925.57, 0.0, 9.999091, 9.999662 
1.6150749e+3, 2.45719e+2, -765525.7, -976674.94, 83557.016, -0.0024732628, -0.09388152, -736460.9, -204521.02, 0.0, 9.999831, 9.997056 
1.6150619e+3, 2.5571713e+2, -331747.8, -691985.75, 52162.83, -0.0097341575, -0.025836172, -324346.63, 109617.125, 0.00000000987263, 10.002045, 9.997262 
1.6150475e+3, 2.6571512e+2, -166712.44, -452884.63, -64074.94, 0.004906266, -0.00038427894, -153020.89, 182964.5, 0.000004852571, 10.002038, 9.998235 
1.615032e+3, 2.7571282e+2, -305142.53, -458777.38, -24533.652, 0.036697507, -0.08890771, -301319.9, -63312.973, 0.00006465758, 10.000382, 9.998313 
1.6150177e+3, 2.8571156e+2, -259922.67, -444164.88, 32608.248, 0.08170911, -0.012751227, -254321.75, -114300.125, 0.0003366383, 10.000217, 9.997838 
1.615004e+3, 2.9571113e+2, -1079.3932, -245430.77, 54676.184, 0.13356303, 0.10561685, 10597.016, 52627.47, 0.0010765177, 10.001232, 9.998033 
1.6149883e+3, 3.0570984e+2, 23834.58, -228290.19, -22576.887, 0.1117442, 0.19440123, 25840.305, 25840.305, 0.0024046022, 10.001206, 9.997808 
1.6149724e+3, 3.1570512e+2, -27179.918, -85623.91, 105254.49, 0.16157825, -0.110252455, 52833.766, 52833.766, 0.004159517, 10.00012, 9.999297 
1.6252318e+3, 1.2573862e+2, -1779409.4, -1792572.9, 167481.03, 0.057390936, -0.077208295, -1618380.8, 89377.375, 0.03179242, 9.999706, 9.999589 
1.6252196e+3, 1.3573962e+2, -1660889.5, -1561339.6, 41837.074, 0.168429, -0.06811264, -1546092.4, 63655.438, 0.019603958, 9.999346, 10.000681 
1.6252075e+3, 1.4573897e+2, -1623090.6, -1520258.1, 27953.027, 0.26332963, -0.18320344, -1513150.9, -1398.9005, 0.009062119, 9.999065, 10.000414 
1.6251926e+3, 1.557404e+2, -1420413.1, -1361678.3, 18901.752, 0.06675007, -0.11841559, -1356121.1, 57613.406, 0.002624408, 9.999748, 10.000495 
1.625179e+3, 1.6574067e+2, -1320647.5, -1384686.0, 17621.807, 0.018144798, -0.080133714, -1316118.8, -389.253, 0.00032476612, 10.000264, 9.999423 
1.6251668e+3, 1.7573968e+2, -1147627.3, -1238472.9, 3411.3337, 0.0898033, -0.15864258, -1147499.4, 70237.73, 0.000005034694, 10.000738, 9.999519 
1.6251545e+3, 1.857389e+2, -1148886.6, -1264798.9, 24145.32, 0.1396667, -0.14484267, -1144058.1, -24314.121, 0.0, 10.000376, 9.99885 
1.625142e+3, 1.9573838e+2, -1163461.4, -1204705.3, 31048.303, 0.16281174, -0.12182754, -1146810.5, -125060.664, 0.0, 9.999548, 9.998978 
1.625129e+3, 2.0573735e+2, -1113516.9, -1211524.8, 66186.87, 0.14459418, -0.079094134, -1080167.4, -156404.78, 0.0, 9.999555, 9.998265 
1.6251157e+3, 2.1573581e+2, -900565.56, -1032297.3, 98820.34, 0.09871257, -0.09255116, -847672.1, -21890.115, 0.0, 10.000238, 9.998492 
1.6251023e+3, 2.2573473e+2, -610338.06, -716438.7, 65208.957, 0.06439392, -0.104293816, -579325.6, 148465.36, 0.0, 10.001004, 9.999619 
1.6250885e+3, 2.357339e+2, -394054.78, -565481.75, -18966.178, 0.022997864, -0.18316692, -391981.5, 237811.36, 0.0, 10.001842, 9.999574 
1.625076e+3, 2.4573272e+2, -503231.94, -817125.75, 22329.408, 0.044818934, -0.13251929, -501651.47, 30153.582, 0.0, 10.001492, 9.997345 
1.625064e+3, 2.5573123e+2, -562910.8, -774338.4, 57861.016, 0.097825825, -0.055491257, -548111.94, -114286.31, 0.000000011745934, 10.000316, 9.997533 
1.6250493e+3, 2.6572967e+2, -427775.38, -537836.06, -40604.414, 0.0748518, -0.012848206, -414416.72, -78574.49, 0.0000048598445, 10.0000725, 9.998596 
1.625032e+3, 2.75728e+2, -253221.84, -399055.56, -44572.227, -0.0038130553, -0.07418671, -240677.88, -2820.7979, 0.00006306325, 10.000574, 9.998634 
1.6250177e+3, 2.8572685e+2, -160337.66, -379930.94, 67539.5, 0.04615725, -0.009867976, -141227.8, -1356.8868, 0.00033149842, 10.0008545, 9.997963 
1.6250053e+3, 2.9572603e+2, -13298.734, -232412.7, 33849.27, 0.17186734, 0.063770965, -8188.7837, 33695.28, 0.0010551804, 10.001072, 9.998197 
1.62499e+3, 3.0572543e+2, 73358.73, -98088.19, -49774.68, 0.17832176, 0.15968177, 86761.6, 86761.6, 0.0023358958, 10.001071, 9.998791 
1.624973e+3, 3.1572193e+2, 109539.73, 17813.576, 47177.098, 0.18686053, -0.10566323, 129472.55, 129472.55, 0.004008395, 10.000828, 9.999714 
1.6352332e+3, 1.2575512e+2, -1851698.0, -1966352.3, 19963.139, 0.15830684, -0.04694659, -1848321.6, -140727.45, 0.03398967, 9.999791, 9.998348 
1.6352178e+3, 1.3575655e+2, -1776016.6, -1814061.0, 28453.686, 0.02317846, 0.1895832, -1760812.3, -151224.89, 0.02102759, 9.999412, 9.998905 
1.6352046e+3, 1.4575449e+2, -1600447.1, -1515785.9, 26894.492, 0.028733274, 0.02340633, -1507964.9, 3641.815, 0.009775217, 9.999231, 10.000372 
1.635193e+3, 1.5575433e+2, -1417313.3, -1356519.8, 52437.23, 0.10162787, -0.07783818, -1326306.0, 87294.984, 0.002860367, 9.999753, 10.000528 
1.635181e+3, 1.6575447e+2, -1332736.4, -1418938.5, 24064.535, 0.15666093, -0.04027615, -1326473.5, -10876.544, 0.00036087315, 10.000297, 9.999177 
1.6351686e+3, 1.7575432e+2, -1168988.6, -1275924.1, 22761.191, 0.17818974, -0.003666137, -1164345.5, 53253.55, 0.000005927034, 10.00071, 9.999276 
1.6351555e+3, 1.8575263e+2, -1113016.8, -1200657.5, -19930.936, 0.176145, -0.095141605, -1108697.0, 10916.25, 0.0, 10.000416, 9.999274 
1.6351417e+3, 1.9574992e+2, -1134113.6, -1138180.9, 12136.999, 0.16411453, -0.3307, -1123841.0, -102206.09, 0.0, 9.999521, 9.999451 
1.6351286e+3, 2.0575e+2, -1043219.4, -1047579.1, 80357.88, 0.12792999, -0.2608318, -965011.8, -41377.66, 0.0, 9.9994755, 9.999432 
1.635116e+3, 2.1575202e+2, -856289.25, -910848.75, 135231.69, 0.08005168, -0.034574658, -745613.25, 80004.74, 0.0, 10.000105, 9.999394 
1.6351034e+3, 2.2575107e+2, -786509.44, -1032620.94, 87549.54, 0.056080528, 0.039493885, -758543.2, -30914.166, 0.0, 10.000792, 9.997548 
1.635091e+3, 2.3574795e+2, -546589.75, -837817.94, 19191.633, 0.069049686, -0.06773903, -545330.5, 84329.79, 0.0, 10.001655, 9.997789 
1.6350783e+3, 2.4574555e+2, -428187.03, -611364.2, -32106.756, 0.11808059, -0.14007698, -422722.47, 108960.77, 0.0, 10.001278, 9.998859 
1.6350654e+3, 2.5574362e+2, -484723.8, -575251.6, 30515.205, 0.185227, -0.25573412, -475398.34, -41697.406, 0.000000006263202, 10.000169, 9.998965 
1.6350497e+3, 2.6574296e+2, -438847.16, -537722.1, -31940.963, 0.09608177, -0.19592491, -429426.4, -93719.9, 0.000005059976, 9.999956, 9.998662 
1.6350318e+3, 2.7574316e+2, -269708.13, -399976.2, -6594.458, -0.10150772, -0.083342046, -269375.16, -31671.291, 0.000060994436, 10.000424, 9.998703 
1.6350174e+3, 2.8574145e+2, -199349.45, -415843.84, 64810.027, -0.093026765, -0.06767521, -181430.9, -41707.816, 0.0003219481, 10.000672, 9.997798 
1.6350058e+3, 2.9573825e+2, -50781.973, -259907.53, 62196.992, 0.06725587, -0.21458465, -33681.938, 8077.257, 0.0010249827, 10.0008745, 9.998094 
1.6349904e+3, 3.0573836e+2, 117168.36, 50448.977, -71919.53, 0.10684565, -0.10133023, 163088.48, 163088.48, 0.0022521797, 10.000834, 9.999921 
1.6349733e+3, 3.1573913e+2, 89441.06, 72004.62, 76357.76, 0.08494951, -0.061995532, 157576.7, 157576.7, 0.0038299921, 10.0004425, 10.00026 
1.645233e+3, 1.2576932e+2, -1830243.3, -1917064.1, -114794.09, 0.18826249, -0.0005581825, -1750925.8, -43468.742, 0.036383986, 9.999791, 9.998693 
1.6452186e+3, 1.3577068e+2, -1486096.4, -1624424.3, 10236.272, 0.08936195, 0.18431102, -1485343.0, 124104.31, 0.022584815, 10.00122, 9.999341 
1.6452043e+3, 1.4576848e+2, -1421888.6, -1486329.8, 75215.67, 0.008564705, 0.013589896, -1372282.8, 139184.34, 0.010560797, 10.000707, 9.9998665 
1.6451932e+3, 1.5576771e+2, -1413463.0, -1409158.6, 46824.797, 0.15589558, -0.099619545, -1364436.6, 49031.996, 0.0031241647, 9.999994, 10.000057 
1.6451818e+3, 1.6576767e+2, -1422774.9, -1460375.8, 45110.082, 0.24308313, -0.06338135, -1392704.3, -77236.85, 0.0004029895, 9.999674, 9.999191 
1.6451691e+3, 1.7576772e+2, -1315055.6, -1349084.4, 43185.184, 0.20568752, -0.0035562064, -1285654.0, -68185.7, 0.0000070009137, 9.999711, 9.999264 
1.6451557e+3, 1.857662e+2, -1144476.5, -1203622.5, 9842.504, 0.17196286, -0.079147235, -1142881.6, -23400.674, 0.0, 10.00016, 9.999365 
1.6451418e+3, 1.9576365e+2, -894069.2, -1011019.06, -6785.982, 0.15089194, -0.31331316, -893676.75, 127824.4, 0.0, 10.001123, 9.999545 
1.6451287e+3, 2.0576374e+2, -799089.06, -914417.8, 25770.912, 0.12194237, -0.25121948, -793592.4, 129906.98, 0.0, 10.001082, 9.999569 
1.645116e+3, 2.1576583e+2, -807821.1, -863387.7, -11863.836, 0.07623277, -0.035754126, -805394.1, 20087.416, 0.0, 10.000347, 9.99959 
1.6451038e+3, 2.25765e+2, -894364.44, -1055216.8, 41733.83, 0.08279365, 0.024157645, -884181.1, -156690.31, 0.0, 9.999928, 9.997817 
1.6450922e+3, 2.3576187e+2, -802578.06, -934343.6, 120295.195, 0.13539599, -0.10566631, -731305.94, -101784.305, 0.0, 9.999779, 9.998042 
1.6450796e+3, 2.457598e+2, -596637.3, -668690.7, 84389.734, 0.18241131, -0.16736044, -540905.9, -9364.124, 0.0, 10.000024, 9.999069 
1.6450658e+3, 2.557584e+2, -410398.8, -521965.38, 28309.469, 0.19971973, -0.24463056, -403626.53, 29928.377, 0.000000005166704, 10.000598, 9.999132 
1.6450503e+3, 2.6575783e+2, -278151.84, -432931.4, -27487.207, 0.11547591, -0.19407444, -273415.34, 62144.113, 0.000005473011, 10.000945, 9.998895 
1.645033e+3, 2.7575782e+2, -132692.88, -303506.75, -29828.813, -0.053402044, -0.12946431, -127633.77, 109924.62, 0.000058881178, 10.001247, 9.998956 
1.6450186e+3, 2.8575623e+2, -136022.03, -363357.28, 67962.375, -0.056141034, -0.12676236, -117253.95, 22321.234, 0.0003079229, 10.001012, 9.998001 
1.6450062e+3, 2.9575345e+2, -137816.55, -288680.13, 63387.992, 0.07114959, -0.24507259, -114719.18, -73114.02, 0.0009850244, 10.000221, 9.998213 
1.6449913e+3, 3.0575287e+2, 67979.78, -20600.535, -60572.625, 0.13101315, -0.18265866, 98727.35, 98727.35, 0.00216182, 10.000655, 9.999532 
1.6449748e+3, 3.1575382e+2, 246398.38, 73624.375, -97166.23, 0.13005872, -0.09223158, 290026.72, 290026.72, 0.0036594307, 10.001833, 9.999597 
1.6552314e+3, 1.2578139e+2, -1686383.1, -1646896.3, 21717.6, -0.012461213, 0.07051093, -1637289.1, 70055.27, 0.03897044, 9.999923, 10.000489 
1.6552217e+3, 1.357825e+2, -1324273.0, -1274834.4, 36355.523, 0.25385845, -0.04133592, -1255590.4, 353733.03, 0.024272982, 10.001154, 10.001833 
1.6552061e+3, 1.457813e+2, -1489000.5, -1622671.0, 21664.914, 0.07817249, -0.1836291, -1485576.9, 25753.967, 0.0114189135, 10.000686, 9.9989395 
1.6551934e+3, 1.5578069e+2, -1483083.1, -1553615.6, 30935.568, 0.14253017, -0.17316239, -1471437.5, -58100.965, 0.0034161112, 9.999998, 9.9990635 
1.655181e+3, 1.6578029e+2, -1385248.8, -1412269.5, 33529.266, 0.16959314, -0.13731909, -1362610.3, -47269.58, 0.00045137366, 9.999788, 9.999471 
1.6551678e+3, 1.7578003e+2, -1294155.1, -1303022.5, 53471.336, 0.09543157, -0.1469034, -1244934.0, -27590.363, 0.000008273259, 9.999702, 9.999579 
1.6551548e+3, 1.8577974e+2, -1159991.8, -1245828.6, 35588.656, 0.043078143, -0.10014415, -1147155.9, -27809.354, 0.0, 10.000192, 9.999065 
1.6551422e+3, 1.9577937e+2, -929218.5, -1069839.8, 31195.223, 0.039539713, -0.08008018, -922608.9, 98740.95, 0.0, 10.001053, 9.999181 
1.655129e+3, 2.057786e+2, -874748.44, -1042269.25, -11658.065, 0.022582684, -0.04678644, -873941.06, 49417.184, 0.0, 10.000959, 9.99875 
1.6551158e+3, 2.1577743e+2, -869212.5, -954027.56, -27646.207, 0.0023000983, -0.080132775, -860996.75, -35625.59, 0.0, 10.000189, 9.999043 
1.6551036e+3, 2.2577643e+2, -741404.9, -700430.56, 24406.021, 0.04046331, -0.14632934, -689052.7, 38324.445, 0.0, 9.999765, 10.000332 
1.6550921e+3, 2.3577555e+2, -670090.75, -622877.94, 128293.54, 0.1331653, -0.3016035, -516037.03, 113341.445, 0.0, 9.999622, 10.0002575 
1.6550793e+3, 2.4577531e+2, -703095.6, -847844.44, 99816.95, 0.12540591, -0.21725166, -652175.75, -120793.63, 0.0, 9.9998455, 9.997923 
1.6550651e+3, 2.557755e+2, -507795.66, -680873.94, 62112.637, 0.059244476, -0.027078005, -487812.5, -54424.324, 0.00000000856411, 10.000427, 9.998114 
1.6550507e+3, 2.6577422e+2, -283367.5, -410941.25, -26881.912, 0.03885691, -0.014755215, -277934.4, 57467.74, 0.0000057188686, 10.000794, 9.999123 
1.6550355e+3, 2.757718e+2, -131828.2, -270263.72, -5244.561, 0.042620715, -0.21681863, -131629.81, 105792.92, 0.00005720022, 10.001106, 9.999253 
1.6550207e+3, 2.8577098e+2, -124633.984, -295061.53, 24828.516, 0.04506663, -0.17853534, -121090.55, 18338.11, 0.0002952708, 10.000815, 9.998568 
1.6550066e+3, 2.9577133e+2, -133111.6, -247622.42, 60193.793, 0.066237554, -0.04684007, -107291.89, -65866.97, 0.00095027586, 10.000078, 9.998566 
1.6549921e+3, 3.057686e+2, -117342.516, -336632.25, -29076.25, 0.11351449, -0.1030631, -113552.71, -113552.71, 0.002094606, 10.000382, 9.997483 
1.6549769e+3, 3.1576538e+2, 48479.863, -248914.27, -4138.189, 0.12717788, -0.22841182, 48537.434, 48537.434, 0.0035466496, 10.001454, 9.997558 
1.6652316e+3, 1.257922e+2, -1696360.4, -1660020.6, 125909.586, 0.018393373, -0.0025256204, -1550976.6, 156260.39, 0.041736465, 9.999889, 10.000431 
1.6652219e+3, 1.3579369e+2, -1638729.8, -1398126.8, -150373.83, 0.28933513, -0.098893516, -1325854.4, 283358.75, 0.026087236, 9.998806, 10.002111 
1.6652068e+3, 1.457934e+2, -1750839.3, -1704805.9, -151333.8, 0.192922, -0.1863738, -1574748.5, -63536.613, 0.012349877, 9.998704, 9.999327 
1.6651934e+3, 1.5579328e+2, -1472282.6, -1504467.5, -54196.45, 0.16478404, -0.1676513, -1431840.0, -18627.025, 0.003737191, 9.999893, 9.999444 
1.6651808e+3, 1.6579299e+2, -1327890.6, -1373718.0, -7618.958, 0.14411716, -0.14135326, -1326657.1, -11441.729, 0.00050616945, 10.000153, 9.999552 
1.6651674e+3, 1.7579246e+2, -1262720.4, -1282270.3, -30237.637, 0.07368131, -0.18874782, -1240717.0, -23496.422, 0.000009797576, 9.999884, 9.999637 
1.6651545e+3, 1.8579237e+2, -1252078.0, -1295493.5, -4676.5854, 0.03536464, -0.11933427, -1251580.0, -132357.95, 0.0, 9.999594, 9.999004 
1.665142e+3, 1.9579272e+2, -1143581.3, -1169770.5, -12306.609, 0.01887152, -0.024254926, -1138705.9, -117485.76, 0.0, 9.999586, 9.999185 
1.6651292e+3, 2.0579177e+2, -1071159.6, -1101937.3, -10783.673, 0.028495774, -0.026945643, -1067757.4, -144528.05, 0.0, 9.999456, 9.999064 
1.6651161e+3, 2.157898e+2, -978560.0, -970923.44, 37235.36, 0.059011552, -0.17124408, -937311.1, -112063.375, 0.0, 9.999279, 9.999366 
1.6651039e+3, 2.2578919e+2, -719831.06, -642874.0, 84966.99, 0.0996947, -0.2356317, -588078.8, 139171.13, 0.0, 9.999717, 10.00074 
1.6650923e+3, 2.357896e+2, -490619.06, -482575.75, 9759.246, 0.14325179, -0.30663744, -476042.0, 153198.42, 0.0, 10.0006275, 10.000722 
1.6650793e+3, 2.4579003e+2, -554868.2, -721482.94, -8732.222, 0.121366814, -0.2070846, -554411.8, -23174.693, 0.0, 10.000605, 9.998445 
1.6650651e+3, 2.5579035e+2, -546249.7, -646464.44, 59348.383, 0.053019065, -0.052800737, -518684.84, -85445.15, 0.0000000057748837, 9.999922, 9.998607 
1.6650513e+3, 2.6578906e+2, -369553.0, -470893.63, 57017.563, 0.0583811, -0.054496557, -343944.34, -8690.313, 0.0000055479773, 10.000292, 9.99895 
1.6650373e+3, 2.757865e+2, -89743.836, -279105.47, 15081.369, 0.09940234, -0.24535225, -88550.23, 148727.36, 0.000055377644, 10.0014925, 9.999026 
1.6650225e+3, 2.857859e+2, 61418.35, -160028.33, 4890.5313, 0.09700482, -0.19235551, 61526.305, 200806.9, 0.00028510438, 10.001896, 9.998965 
1.6650073e+3, 2.9578695e+2, 120776.01, -86818.49, -10560.4795, 0.06371868, -0.029065127, 121311.84, 162579.28, 0.00092673383, 10.001683, 9.998883 
1.6649933e+3, 3.0578363e+2, 93535.055, -314866.97, 37810.664, 0.120211996, -0.12474497, 97006.14, 97006.14, 0.0020606702, 10.002164, 9.996775 
1.6649799e+3, 3.1578013e+2, 225210.84, -207340.36, 102572.13, 0.21510081, -0.20484176, 248301.45, 248301.45, 0.0035071587, 10.002862, 9.997163 
1.6752331e+3, 1.2580232e+2, -1789183.9, -1859731.3, 76816.31, 0.13042083, -0.14490877, -1739929.6, -32799.836, 0.044670317, 9.999908, 9.999023 
1.675219e+3, 1.3580438e+2, -1754436.3, -1646536.5, -185683.45, 0.090772636, 0.012536555, -1507124.3, 101990.34, 0.028026333, 9.998856, 10.000355 
1.6752064e+3, 1.4580467e+2, -1614065.3, -1445799.4, -118178.49, 0.26076558, -0.03302793, -1384865.0, 126245.67, 0.013357116, 9.998802, 10.001066 
1.6751933e+3, 1.5580553e+2, -1362713.3, -1275699.0, -1851.84, 0.13812748, -0.08858382, -1275659.6, 137437.13, 0.004090086, 9.999883, 10.001026 
1.6751803e+3, 1.6580568e+2, -1329152.1, -1390077.4, -30889.498, 0.05542427, -0.08507792, -1316231.3, -1138.6782, 0.0005678562, 10.000206, 9.999417 
1.6751674e+3, 1.7580496e+2, -1277675.4, -1305177.3, -33125.492, 0.05583678, -0.1299431, -1255560.1, -38461.23, 0.000011659807, 9.999855, 9.999495 
1.6751544e+3, 1.858043e+2, -1232232.5, -1266667.0, -16039.657, 0.036895283, -0.124295, -1225918.9, -106813.33, 0.0, 9.999636, 9.999189 
1.6751418e+3, 1.9580375e+2, -1135040.9, -1137352.3, -4159.69, -0.004337368, -0.13752756, -1131879.3, -110767.625, 0.0, 9.999518, 9.999446 
1.6751291e+3, 2.0580329e+2, -980115.75, -895983.3, -28410.709, 0.039802082, -0.18073311, -887288.0, 35825.33, 0.0, 9.999379, 10.000517 
1.6751164e+3, 2.1580279e+2, -916429.44, -813563.7, 42499.145, 0.15682577, -0.3157892, -798276.9, 26836.078, 0.0, 9.999148, 10.000514 
1.6751043e+3, 2.2580312e+2, -865777.9, -896403.25, 110166.84, 0.15516202, -0.2513236, -769864.6, -42753.91, 0.0, 9.999507, 9.999098 
1.6750926e+3, 2.3580402e+2, -612344.4, -692106.75, 49086.563, 0.07795528, -0.11168317, -588980.0, 40127.332, 0.0, 10.000443, 9.99937 
1.6750795e+3, 2.458039e+2, -428291.53, -415657.28, -47362.742, 0.06284586, -0.12506254, -374192.25, 156914.75, 0.0, 10.000416, 10.000636 
1.6750656e+3, 2.55803e+2, -432442.38, -371538.3, 51017.082, 0.08861468, -0.3117983, -342575.97, 90533.17, 0.0000000017385277, 9.999755, 10.000573 
1.6750519e+3, 2.6580235e+2, -441875.53, -579485.06, 92436.516, 0.06521252, -0.30188602, -395447.47, -60332.734, 0.0000048816705, 10.000108, 9.998297 
1.675038e+3, 2.7580175e+2, -152427.75, -379691.84, 74922.19, 0.016856806, -0.22901788, -129951.1, 107173.805, 0.000051551386, 10.001362, 9.998401 
1.6750236e+3, 2.8580093e+2, 35366.67, -169116.39, -12302.994, -0.025375172, -0.17583345, 36104.24, 175236.4, 0.0002714196, 10.001701, 9.999001 
1.6750082e+3, 2.9580018e+2, 112406.086, -72210.42, 7853.3496, -0.057064347, -0.20146915, 112739.555, 153874.33, 0.00089928973, 10.001525, 9.999068 
1.6749947e+3, 3.0579776e+2, 83009.234, -253062.8, 54975.38, 0.016369017, -0.25245455, 91773.66, 91773.66, 0.0020308485, 10.001833, 9.997347 
1.6749826e+3, 3.1579742e+2, 262735.16, -55369.297, 167837.52, 0.15616183, -0.07104289, 334912.34, 334912.34, 0.003496756, 10.002574, 9.998331 
1.685234e+3, 1.2581488e+2, -1947689.4, -1973885.5, 113421.51, 0.2836214, -0.12808515, -1846612.1, -139611.08, 0.04776628, 9.998997, 9.99867 
1.6852175e+3, 1.358161e+2, -1624601.9, -1596363.0, -4685.4697, 0.007900311, -0.03924167, -1595605.9, 13391.963, 0.030093629, 9.99982, 10.000213 
1.6852066e+3, 1.458168e+2, -1404427.1, -1337394.8, 83090.28, 0.3286586, -0.045231048, -1281315.6, 229676.73, 0.0144471, 10.000213, 10.00114 
1.685193e+3, 1.5581825e+2, -1391560.8, -1285434.6, 49959.02, 0.12894282, -0.046051, -1265617.0, 147356.83, 0.004479329, 9.999663, 10.001069 
1.6851796e+3, 1.6581842e+2, -1423480.8, -1439038.3, -2584.7285, 0.014010059, -0.038016085, -1423062.5, -108092.51, 0.0006375465, 9.999586, 9.999378 
1.6851674e+3, 1.7581743e+2, -1202452.3, -1257821.6, -12303.738, 0.05852085, -0.112340614, -1199841.4, 17137.469, 0.00001399049, 10.000339, 9.999575 
1.6851547e+3, 1.8581684e+2, -1157033.3, -1159172.8, 11795.109, 0.08916362, -0.1395652, -1146259.5, -27276.162, 0.0, 9.999851, 9.99982 
1.6851413e+3, 1.9581653e+2, -1233695.3, -1123483.9, 43219.92, 0.059896827, -0.18803325, -1108556.8, -87572.08, 0.0, 9.998564, 10.000008 
1.6851284e+3, 2.0581648e+2, -1069607.3, -923562.5, 37386.273, 0.084371045, -0.222098, -914548.25, 8433.999, 0.0, 9.998703, 10.000657 
1.685116e+3, 2.1581668e+2, -797101.1, -734351.9, -9756.238, 0.16043216, -0.30354136, -732869.94, 92106.73, 0.0, 9.999887, 10.000701 
1.685104e+3, 2.2581744e+2, -864752.3, -897766.25, 85121.52, 0.18298791, -0.20459516, -794552.0, -67580.67, 0.0, 9.999502, 9.999108 
1.6850924e+3, 2.358185e+2, -975993.7, -868171.1, 131131.5, 0.15247637, -0.043803353, -780301.25, -151333.97, 0.0, 9.997938, 9.999385 
1.6850796e+3, 2.4581821e+2, -701118.3, -529288.2, 54172.61, 0.13530791, -0.08311658, -513635.22, 17333.36, 0.0, 9.998473, 10.000775 
1.685066e+3, 2.5581682e+2, -302813.8, -300871.78, -27443.615, 0.117141135, -0.3350187, -274382.0, 158592.45, 0.0000000018399801, 10.000592, 10.000655 
1.6850527e+3, 2.658163e+2, -272996.13, -494420.34, -7821.0806, 0.08122957, -0.32017994, -272720.22, 62258.152, 0.0000039092515, 10.001256, 9.998326 
1.6850394e+3, 2.7581632e+2, -211178.97, -395242.88, -880.9227, 0.03334242, -0.1898859, -211174.75, 25807.256, 0.000046409757, 10.000945, 9.998474 
1.6850251e+3, 2.8581503e+2, -61325.223, -260758.19, -64350.6, -0.0017554624, -0.16503201, -42364.09, 96629.96, 0.00025645504, 10.001219, 9.998614 
1.6850102e+3, 2.9581308e+2, 142885.55, -91157.64, -109870.36, -0.024631543, -0.26974908, 186380.47, 227389.63, 0.0008662299, 10.001873, 9.998777 
1.6849966e+3, 3.058111e+2, 185359.23, -190225.33, -52559.55, 0.009372233, -0.27265143, 192575.8, 192575.8, 0.0019879541, 10.002443, 9.997509 
1.6849847e+3, 3.1581154e+2, 320735.28, 18741.0, -19870.303, 0.119280145, -0.010516827, 322037.1, 322037.1, 0.0034694744, 10.002712, 9.998823 
1.6952327e+3, 1.2582847e+2, -1903903.0, -1914379.5, -32336.334, 0.18942824, -0.11246574, -1876383.4, -169518.81, 0.051028147, 9.999102, 9.999043 
1.6952169e+3, 1.3582866e+2, -1554469.6, -1426622.9, 46409.742, -0.0516902, -0.2628625, -1411552.1, 197313.16, 0.032295942, 9.999717, 10.001462 
1.6952068e+3, 1.4582981e+2, -1499722.6, -1548071.0, 59371.33, 0.28202182, -0.20615119, -1459792.6, 51064.367, 0.015627254, 10.0002575, 9.999663 
1.695192e+3, 1.5583159e+2, -1490961.4, -1498096.9, 40862.668, 0.04509764, -0.016073056, -1453511.0, -40668.08, 0.004910431, 9.999686, 9.9996 
1.6951786e+3, 1.6583125e+2, -1402571.9, -1411358.9, 11317.814, -0.08946196, 0.0028109024, -1394824.6, -79977.41, 0.0007170378, 9.999649, 9.999537 
1.6951674e+3, 1.7582986e+2, -1190455.1, -1226961.0, 20190.578, -0.001659707, -0.12759888, -1181489.9, 35370.266, 0.000016975888, 10.00031, 9.999801 
1.6951548e+3, 1.8582997e+2, -1076810.0, -1004652.5, -49183.89, 0.08540601, -0.15273418, -979733.44, 139122.27, 0.0, 9.999895, 10.000862 
1.6951406e+3, 1.9583091e+2, -1179930.3, -1001465.9, 7331.7783, 0.11508106, -0.17760949, -1001165.1, 19675.766, 0.0, 9.998518, 10.000867 
1.695127e+3, 2.0583133e+2, -1166215.8, -1093811.0, 68707.7, 0.062053476, -0.1466841, -1052351.5, -129515.1, 0.0, 9.998574, 9.99955 
1.6951142e+3, 2.1583137e+2, -879875.8, -875365.06, 36990.316, -0.01839352, -0.1326476, -840561.44, -15722.227, 0.0, 9.999751, 9.999801 
1.6951026e+3, 2.2583207e+2, -772490.44, -662555.5, 15045.053, 0.07071189, -0.092263654, -660533.7, 66298.83, 0.0, 9.999319, 10.000809 
1.6950917e+3, 2.3583311e+2, -905178.06, -679157.06, 95867.39, 0.27267876, -0.102790385, -643972.0, -15151.698, 0.0, 9.997762, 10.000763 
1.6950794e+3, 2.4583288e+2, -870522.1, -828424.7, 123647.2, 0.23788376, -0.09370235, -724047.44, -193224.25, 0.0, 9.998247, 9.998834 
1.6950661e+3, 2.558317e+2, -447194.34, -561772.4, 57663.785, 0.05242465, -0.12980664, -423199.03, 9637.895, 0.0000000033657745, 10.00043, 9.9989395 
1.6950533e+3, 2.6583076e+2, -255211.98, -411337.0, -29068.207, -0.003862485, -0.11319115, -249975.55, 84869.86, 0.0000030031388, 10.001059, 9.998991 
1.6950406e+3, 2.7582997e+2, -196247.55, -324445.72, 4958.749, 0.04795867, -0.13408074, -196056.03, 40794.516, 0.000041455987, 10.000779, 9.999038 
1.695027e+3, 2.8582796e+2, -150741.6, -397419.4, -53553.625, 0.056063775, -0.1615544, -139616.84, -748.22974, 0.0002433747, 10.001006, 9.997782 
1.6950127e+3, 2.958252e+2, 66089.984, -216892.53, -70242.6, 0.04314614, -0.26151457, 82566.445, 123461.766, 0.0008327765, 10.001718, 9.997995 
1.6949987e+3, 3.058232e+2, 115524.88, -255356.03, -53015.734, -0.034509074, -0.21720888, 122954.414, 122954.414, 0.0019274647, 10.002126, 9.997202 
1.6949855e+3, 3.15823e+2, 267554.88, 12315.734, 40828.77, -0.121530086, 0.0024389683, 273926.88, 273926.88, 0.0033941083, 10.0023, 9.998955 
1.7052315e+3, 1.2584153e+2, -1878008.1, -1845412.4, -69852.76, 0.17854057, -0.13023691, -1789981.4, -83243.9, 0.054460447, 9.999023, 9.999564 
1.7052166e+3, 1.3584259e+2, -1671644.0, -1459417.5, -39398.125, 0.018682666, -0.2160683, -1452339.6, 156387.58, 0.034638863, 9.998787, 10.001687 
1.7052065e+3, 1.4584291e+2, -1727670.3, -1662668.9, -4059.311, 0.30513933, -0.24758463, -1662416.4, -151689.73, 0.016903277, 9.998744, 9.999596 
1.7051916e+3, 1.5584488e+2, -1577152.8, -1542280.4, 53868.73, 0.073983654, -0.032150853, -1503096.3, -90384.22, 0.00538814, 9.999123, 9.999557 
1.7051785e+3, 1.6584474e+2, -1431704.3, -1410108.3, 112374.96, -0.04422793, -0.0019098478, -1308013.8, 6701.4927, 0.0008082668, 9.999364, 9.999687 
1.7051676e+3, 1.7584355e+2, -1278621.3, -1252739.5, 102656.89, 0.04035449, -0.12856023, -1162211.0, 54515.19, 0.000020835996, 9.999617, 9.999969 
1.7051551e+3, 1.8584383e+2, -1116688.1, -1032463.9, -28755.469, 0.13639848, -0.13829951, -1023582.75, 95138.36, 0.0, 9.999659, 10.000795 
1.7051403e+3, 1.9584492e+2, -1002356.7, -922295.1, -68026.71, 0.18184787, -0.14108542, -883394.94, 137311.4, 0.0, 9.999758, 10.000826 
1.7051268e+3, 2.0584543e+2, -995330.4, -1009550.56, 69029.914, 0.11089678, -0.10015222, -933045.4, -10343.931, 0.0, 9.999742, 9.999554 
1.7051138e+3, 2.1584557e+2, -885054.9, -879017.44, 93973.09, -0.031844307, -0.078500554, -788014.6, 36688.29, 0.0, 9.999723, 9.999782 
1.705102e+3, 2.2584593e+2, -678608.75, -617210.06, 12300.083, 0.058822192, -0.06906033, -614837.6, 111860.81, 0.0, 9.999968, 10.000802 
1.705091e+3, 2.3584634e+2, -526420.6, -497997.53, -51050.902, 0.3120732, -0.14360978, -459217.0, 169474.02, 0.0, 10.000374, 10.000745 
1.7050791e+3, 2.4584623e+2, -589454.6, -735877.4, 66055.33, 0.28915265, -0.10050919, -564059.6, -33366.016, 0.0, 10.000364, 9.998452 
1.7050664e+3, 2.5584567e+2, -521359.16, -629092.9, 88312.09, 0.057657342, -0.03668876, -471782.03, -39078.19, 0.0000000026261497, 10.000072, 9.998647 
1.7050539e+3, 2.6584455e+2, -359662.97, -442179.06, 23630.652, 0.0086062765, -0.035016328, -353374.88, -18660.941, 0.0000021613648, 10.000246, 9.999177 
1.7050417e+3, 2.7584305e+2, -187374.2, -309298.66, -2681.1477, 0.08447234, -0.14321867, -187315.27, 49408.797, 0.000036656253, 10.000777, 9.999151 
1.7050289e+3, 2.8584105e+2, -103479.16, -410202.97, -3336.5168, 0.112198986, -0.15910901, -103442.87, 35300.184, 0.00022920681, 10.001496, 9.997449 
1.7050155e+3, 2.958386e+2, 131705.02, -222472.67, -16706.15, 0.09749053, -0.19017369, 132491.28, 173260.72, 0.00079251203, 10.002341, 9.997654 
1.7050008e+3, 3.0583668e+2, 146171.45, -239087.81, 19609.68, -0.034245882, -0.11888552, 147167.02, 147167.02, 0.0018379622, 10.002314, 9.99722 
1.7049864e+3, 3.1583515e+2, 146656.67, -57091.984, 83529.63, -0.20041607, -0.03155609, 176522.92, 176522.92, 0.0032495628, 10.001509, 9.998844 
1.71523e+3, 1.2585412e+2, -1818452.8, -1714110.5, -52207.734, 0.07478895, -0.19383311, -1692474.6, 14144.236, 0.058051143, 9.999001, 10.000472 
1.7152168e+3, 1.3585846e+2, -1736502.1, -1573171.1, -37933.563, 0.12742642, 0.13636887, -1564791.0, 43786.207, 0.037118543, 9.998733, 10.000899 
1.715205e+3, 1.458562e+2, -1626024.3, -1480468.4, -1292.2567, 0.2637271, -0.17430425, -1480456.9, 30143.14, 0.018276531, 9.998842, 10.000812 
1.7151915e+3, 1.5585792e+2, -1496150.6, -1373383.4, 78320.73, 0.10890331, -0.107892886, -1335257.8, 77325.64, 0.005915651, 9.999113, 10.000725 
1.7151791e+3, 1.6585882e+2, -1411700.1, -1372951.1, 105611.055, 0.04403045, -0.040716685, -1284952.1, 29622.313, 0.0009130136, 9.999388, 9.999926 
1.7151679e+3, 1.7585856e+2, -1279454.6, -1239273.5, 116861.96, 0.09282271, -0.10273434, -1140787.8, 75788.91, 0.000025810483, 9.999562, 10.000079 
1.715155e+3, 1.8585841e+2, -1194982.5, -1197154.0, -36281.203, 0.13860151, -0.095228, -1159770.9, -41191.6, 0.0, 9.999658, 9.999669 
1.7151402e+3, 1.9585854e+2, -1075285.1, -1060157.1, -53643.707, 0.17033176, -0.0869676, -1013546.8, 7033.763, 0.0, 9.999698, 9.9999075 
1.7151268e+3, 2.0585883e+2, -935628.75, -864037.4, 60242.36, 0.12137799, -0.082720205, -829758.25, 92818.0, 0.0, 9.999648, 10.0006 
1.7151143e+3, 2.1585912e+2, -850571.7, -770657.1, 104517.04, 0.027395237, -0.14939691, -698719.9, 125849.19, 0.0, 9.999564, 10.000603 
1.7151022e+3, 2.2585887e+2, -825111.06, -872878.5, 19042.656, 0.056119114, -0.14969835, -818448.8, -91878.125, 0.0, 9.999754, 9.999154 
1.7150903e+3, 2.3585823e+2, -647782.06, -716661.0, -24286.963, 0.17953119, -0.16281475, -640079.7, -11500.669, 0.0, 10.000223, 9.99932 
1.7150784e+3, 2.4585822e+2, -542649.4, -586147.2, 44897.96, 0.1596871, -0.10552385, -514510.03, 16070.147, 0.0, 10.000146, 9.999581 
1.7150664e+3, 2.5585854e+2, -477394.66, -498115.94, 92826.22, 0.04176335, -0.06612004, -394352.7, 38224.395, 0.0000000000058928205, 9.999901, 9.999627 
1.7150545e+3, 2.6585743e+2, -411475.28, -501797.25, 30748.809, 0.009025735, -0.09220616, -402001.06, -67414.55, 0.0000014626683, 10.000046, 9.998862 
1.7150423e+3, 2.7585533e+2, -231278.73, -357631.25, 30495.225, 0.042905163, -0.22420874, -224303.75, 12300.421, 0.000032258973, 10.000595, 9.998906 
1.7150299e+3, 2.8585404e+2, -132375.75, -419447.3, 18879.914, 0.042146478, -0.16365217, -131139.39, 7479.0493, 0.00021422074, 10.001274, 9.997496 
1.7150171e+3, 2.9585314e+2, 113113.48, -220010.31, 34459.6, 0.011291135, -0.053884584, 116640.76, 157272.47, 0.0007452291, 10.002164, 9.997754 
1.7150027e+3, 3.058513e+2, 101426.97, -253009.02, -25510.299, -0.116238214, 0.017218968, 103253.64, 103253.64, 0.0017263927, 10.001997, 9.997272 
1.7149872e+3, 3.1584737e+2, 54716.47, -119236.01, 106222.22, -0.31555682, -0.14562213, 105028.34, 105028.34, 0.0030576424, 10.001007, 9.998638 
1.7252292e+3, 1.2586565e+2, -1873320.6, -1648153.9, -103948.8, 0.13144907, -0.20109156, -1607504.3, 99007.086, 0.06177432, 9.9982, 10.001346 
1.7252152e+3, 1.3587104e+2, -1787570.1, -1551831.9, -73501.76, 0.1306842, 0.17543966, -1530792.3, 77664.8, 0.039721623, 9.998162, 10.001327 
1.7252035e+3, 1.4586936e+2, -1677035.3, -1470467.5, 25848.855, 0.26649654, -0.11282123, -1467282.1, 43190.938, 0.019743169, 9.998333, 10.001132 
1.7251906e+3, 1.5587102e+2, -1480833.5, -1319062.6, 14393.743, 0.12795235, -0.09188418, -1317791.9, 94665.04, 0.006494274, 9.998988, 10.001178 
1.7251787e+3, 1.6587237e+2, -1459883.3, -1324758.5, 35954.61, 0.09592043, -0.033993043, -1315787.1, -1344.5509, 0.001032908, 9.998757, 10.000565 
1.7251675e+3, 1.7587265e+2, -1438323.8, -1252714.8, 53935.18, 0.16624619, -0.10089539, -1238180.1, -21742.4, 0.00003215152, 9.998194, 10.000653 
1.7251544e+3, 1.8587282e+2, -1392670.1, -1297931.9, 1609.7385, 0.19747606, -0.0871875, -1297904.5, -179466.3, 0.0, 9.998338, 9.999601 
1.7251396e+3, 1.958732e+2, -1143022.9, -1097144.5, 34961.637, 0.16659138, -0.04544346, -1078268.4, -57828.99, 0.0, 9.999261, 9.999855 
1.7251267e+3, 2.0587343e+2, -918231.9, -850770.4, 142078.45, 0.13382481, -0.046745624, -738473.56, 183961.92, 0.0, 9.999747, 10.000651 
1.7251147e+3, 2.1587336e+2, -787975.0, -742685.5, 95376.27, 0.10586825, -0.14983903, -667302.6, 157127.22, 0.0, 10.000001, 10.000593 
1.7251027e+3, 2.2587273e+2, -801956.56, -931064.25, 51878.15, 0.11719792, -0.15428752, -783694.1, -57258.35, 0.0, 10.000224, 9.998519 
1.7250901e+3, 2.3587176e+2, -652205.25, -782519.2, 55939.332, 0.1404178, -0.13614458, -631486.5, -3037.4314, 0.0, 10.000482, 9.9987335 
1.7250782e+3, 2.4587147e+2, -519410.3, -567191.8, 106587.73, 0.13520709, -0.08228185, -434068.7, 96384.43, 0.0, 10.000268, 9.999646 
1.7250668e+3, 2.5587162e+2, -503013.84, -498121.84, 62227.137, 0.10680576, -0.07135598, -438292.66, -5841.4336, 0.0000000000049057277, 9.999681, 9.999722 
1.725055e+3, 2.6587063e+2, -446509.56, -501502.97, 43750.977, 0.0783108, -0.09614848, -422332.13, -87872.89, 0.0000011502509, 9.999733, 9.999012 
1.7250428e+3, 2.7586886e+2, -276398.28, -365300.75, 51599.25, 0.050297897, -0.2101869, -252743.75, -16269.399, 0.000029351942, 10.0002165, 9.999039 
1.725031e+3, 2.8586808e+2, -171976.92, -402721.13, 97423.29, 0.05652004, -0.11970131, -136345.64, 2138.0872, 0.00020332911, 10.0008545, 9.997805 
1.7250194e+3, 2.9586777e+2, 58191.04, -212396.73, 85058.484, 0.064523295, 0.022555504, 82707.61, 123198.65, 0.00070499646, 10.001655, 9.99804 
1.7250054e+3, 3.0586597e+2, 150276.17, -166612.56, 38493.71, -0.026691735, 0.0497796, 154885.11, 154885.11, 0.0016286852, 10.002026, 9.997874 
1.7249891e+3, 3.1586194e+2, 186599.63, -65494.113, 165382.34, -0.24752125, -0.17017217, 268492.97, 268492.97, 0.00288782, 10.001858, 9.998657 
1.7352284e+3, 1.2587728e+2, -1817588.1, -1549414.4, -97982.65, 0.16940893, -0.037828896, -1517429.3, 188974.16, 0.06561491, 9.998266, 10.002025 
1.7352115e+3, 1.358801e+2, -1684248.1, -1332744.1, -75303.4, -0.08716262, -0.11082088, -1317291.1, 291077.88, 0.042436883, 9.998113, 10.002915 
1.7352016e+3, 1.4588222e+2, -1706205.8, -1541334.4, 34617.754, 0.2084289, -0.06023098, -1534360.6, -24013.176, 0.021297567, 9.998378, 10.000615 
1.7351887e+3, 1.5588422e+2, -1492832.3, -1343857.9, 42707.375, 0.025811883, 0.022992797, -1332483.1, 79848.51, 0.0071235094, 9.998993, 10.0009985 
1.7351766e+3, 1.6588546e+2, -1373608.6, -1169283.0, 2725.0803, -0.006871017, 0.02144565, -1169246.8, 145071.58, 0.0011691477, 9.998842, 10.001599 
1.7351662e+3, 1.7588592e+2, -1368642.4, -1111979.8, 45056.31, 0.18107715, -0.12827574, -1104300.0, 112009.08, 0.00004011834, 9.9982, 10.00162 
1.7351532e+3, 1.8588707e+2, -1329169.5, -1174391.6, 20797.941, 0.20803463, -0.10490795, -1171645.6, -53347.96, 0.0, 9.99837, 10.000435 
1.7351381e+3, 1.9588876e+2, -1107844.3, -1004825.94, 72860.984, 0.0797869, -0.016749045, -967105.56, 53178.836, 0.0, 9.999179, 10.000526 
1.7351256e+3, 2.0588912e+2, -997998.1, -989960.2, 137345.94, 0.046445087, 0.012557236, -856574.44, 65706.08, 0.0, 9.999631, 9.999752 
1.735115e+3, 2.1588837e+2, -864285.2, -869150.94, 113423.87, 0.106914334, -0.07215122, -753268.1, 71016.766, 0.0, 9.999862, 9.99979 
1.735103e+3, 2.258875e+2, -813546.6, -906963.75, 50444.902, 0.11574427, -0.07542329, -791506.56, -65213.21, 0.0, 10.000019, 9.998781 
1.7350903e+3, 2.3588666e+2, -663091.2, -766173.0, 73306.875, 0.09142065, -0.07779594, -625019.8, 3284.2654, 0.0, 10.000311, 9.998926 
1.7350785e+3, 2.4588576e+2, -617471.0, -715558.6, 74518.6, 0.10768141, -0.04533911, -577305.44, -46990.26, 0.0, 10.000038, 9.998738 
1.735067e+3, 2.5588483e+2, -583055.7, -619317.5, 57416.082, 0.15380526, -0.051817693, -540975.8, -108649.26, 0.000000000000012544113, 9.999498, 9.998974 
1.7350551e+3, 2.658841e+2, -438416.28, -437063.22, 53060.086, 0.10494575, -0.0483407, -384675.34, -50342.6, 0.0000010511417, 9.999527, 9.999555 
1.7350426e+3, 2.758836e+2, -264833.75, -300230.1, 85964.71, -0.004156024, -0.095949955, -194764.3, 41570.383, 0.000029114979, 10.000048, 9.999562 
1.7350319e+3, 2.85883e+2, -181042.06, -373823.6, 110618.51, 0.03404676, -0.025624443, -130709.84, 7630.6284, 0.00019954717, 10.000645, 9.998108 
1.7350222e+3, 2.9588208e+2, 48143.305, -176361.22, 130133.42, 0.14920148, 0.022258414, 107749.35, 148100.83, 0.00068326393, 10.001413, 9.9984045 
1.7350088e+3, 3.0588028e+2, 172975.73, -33370.465, 17885.527, 0.0858875, -0.02398884, 174514.53, 174514.53, 0.0015767389, 10.001681, 9.998939 
1.7349915e+3, 3.1587797e+2, 146563.02, -10778.23, 203100.11, -0.23518883, -0.19517839, 285696.72, 285696.72, 0.0028063208, 10.001323, 9.999261 
1.745227e+3, 1.258916e+2, -1743194.3, -1594427.1, 96765.89, 0.15996525, 0.033160336, -1546759.3, 159502.44, 0.06957688, 9.999159, 10.001277 
1.7452098e+3, 1.3589296e+2, -1618739.9, -1315900.8, 7708.3325, -0.072989814, -0.16376016, -1315704.6, 292539.13, 0.045260757, 9.998612, 10.002809 
1.7452013e+3, 1.4589566e+2, -1670189.5, -1521452.4, 141834.52, 0.33984366, -0.053873952, -1435671.9, 74544.836, 0.022935338, 9.998641, 10.000615 
1.745188e+3, 1.558973e+2, -1561086.1, -1375060.5, 132147.53, 0.07915655, -0.005745393, -1306474.0, 105729.15, 0.0078018596, 9.998536, 10.000988 
1.745175e+3, 1.6589855e+2, -1489669.8, -1217153.1, 53325.43, -0.008101698, -0.013413152, -1207090.1, 107100.055, 0.0013223152, 9.998014, 10.001671 
1.7451636e+3, 1.7589948e+2, -1442911.3, -1138229.5, 16166.486, 0.15671715, -0.118724465, -1137374.1, 78803.586, 0.000049909977, 9.99766, 10.001701 
1.7451516e+3, 1.8590088e+2, -1308877.0, -1144703.3, 15602.849, 0.21486564, -0.08400306, -1143233.6, -25069.8, 0.0000000000000006446772, 9.998436, 10.000601 
1.7451383e+3, 1.9590247e+2, -979740.56, -932565.1, -7697.3657, 0.13134256, -0.023218708, -931340.94, 88809.25, 0.0, 10.000016, 10.000612 
1.745126e+3, 2.0590268e+2, -940402.5, -1008369.56, 28862.146, 0.09300516, 0.011445376, -929800.1, -7651.7373, 0.0, 10.000217, 9.99934 
1.7451145e+3, 2.1590196e+2, -927662.2, -931311.3, 18945.648, 0.09927382, -0.032835145, -910453.44, -86298.79, 0.0, 9.999565, 9.999501 
1.7451027e+3, 2.2590135e+2, -838012.56, -856471.6, 25188.4, 0.097980484, -0.030285072, -820416.0, -94255.45, 0.0, 9.99957, 9.999354 
1.7450903e+3, 2.3590079e+2, -672699.0, -716882.0, 48808.78, 0.08128557, -0.056273162, -641215.0, -13048.475, 0.0, 10.000007, 9.99942 
1.7450787e+3, 2.4589999e+2, -597255.94, -733285.06, 84743.62, 0.13162847, -0.022073338, -556608.4, -26431.955, 0.0, 10.000308, 9.998483 
1.7450677e+3, 2.5589895e+2, -451399.7, -591836.94, 87453.445, 0.21613112, -0.009996541, -409463.25, 22726.488, 0.0, 10.000558, 9.998656 
1.7450562e+3, 2.6589802e+2, -283160.88, -426993.1, 95432.125, 0.1926858, 0.01659301, -235581.31, 98618.73, 0.0000010008785, 10.00087, 9.998977 
1.745044e+3, 2.758971e+2, -115720.04, -284069.72, 16211.874, 0.08291564, -0.007493227, -114173.07, 122035.19, 0.000030147008, 10.0013, 9.999072 
1.7450333e+3, 2.8589633e+2, -68291.02, -240640.27, 33983.49, 0.10814381, 0.02815256, -61832.27, 76382.12, 0.00019895253, 10.001083, 9.998807 
1.7450236e+3, 2.9589537e+2, -75682.586, -179449.38, 42830.79, 0.20786463, 0.0025619897, -60287.73, -20066.012, 0.0006793162, 10.000289, 9.998936 
1.7450109e+3, 3.058934e+2, 54435.21, -73801.77, -42925.445, 0.19767547, -0.08522998, 67477.42, 67477.42, 0.0015806378, 10.0007715, 9.99911 
1.7449948e+3, 3.1589255e+2, 325884.5, 87961.5, -2002.9597, -0.093142554, -0.13150673, 325901.34, 325901.34, 0.0028403166, 10.002482, 9.999379 
1.7552233e+3, 1.2590675e+2, -1884189.5, -1878835.1, -158564.56, -0.17046595, -0.140051, -1722925.3, -16820.305, 0.07366958, 9.999117, 9.999292 
1.7552099e+3, 1.3590974e+2, -1738058.3, -1542287.3, 15012.929, 0.04797558, 0.02572762, -1541142.6, 66937.5, 0.048192136, 9.998582, 10.001188 
1.7552023e+3, 1.4591004e+2, -1621652.8, -1450113.4, 132313.56, 0.52430123, -0.06450236, -1378202.0, 131875.17, 0.024652572, 9.998752, 10.00107 
1.755188e+3, 1.5591037e+2, -1553815.1, -1363411.1, 133684.64, 0.19424844, -0.16490223, -1294494.3, 117576.5, 0.008527423, 9.998542, 10.001075 
1.7551732e+3, 1.6591145e+2, -1546531.8, -1343662.1, 17423.438, -0.020256665, -0.13966787, -1342176.5, -28116.504, 0.0014925194, 9.998053, 10.000785 
1.7551601e+3, 1.7591326e+2, -1499522.1, -1250273.6, 17299.77, 0.0051335027, -0.07886442, -1249078.6, -33034.113, 0.00006156021, 9.997645, 10.000934 
1.7551494e+3, 1.8591426e+2, -1337403.0, -1209324.6, 66153.305, 0.11431331, -0.02546703, -1181291.8, -63255.504, 0.0000000010737394, 9.998458, 10.000147 
1.7551394e+3, 1.959144e+2, -1020187.94, -1001841.5, 53801.633, 0.22173835, -0.061022118, -956436.7, 63599.113, 0.0, 9.999953, 10.000168 
1.755127e+3, 2.0591424e+2, -953872.7, -1012254.1, -8210.3, 0.15232055, -0.044956006, -952740.06, -30702.135, 0.0, 10.00011, 9.999365 
1.7551132e+3, 2.1591398e+2, -938076.25, -922995.4, 6601.963, -0.0060728854, -0.047272064, -920513.6, -96473.12, 0.0, 9.999431, 9.999624 
1.7551011e+3, 2.2591406e+2, -804917.56, -744651.5, 32372.168, -0.035893366, -0.028077967, -730558.3, -4519.4165, 0.0, 9.999389, 10.00021 
1.7550898e+3, 2.3591429e+2, -640788.94, -612573.7, 76554.28, 0.012660579, -0.062143173, -548838.0, 79197.32, 0.0, 9.999845, 10.000214 
1.7550787e+3, 2.4591422e+2, -611740.75, -714853.2, 85557.59, 0.080026604, -0.0047682463, -563406.3, -33369.586, 0.0, 10.000096, 9.998713 
1.7550682e+3, 2.559139e+2, -469050.8, -590779.8, 107931.51, 0.18316758, 0.055931, -406005.28, 26036.488, 0.0, 10.000402, 9.998734 
1.7550576e+3, 2.6591215e+2, -429736.84, -701677.8, 97790.21, 0.22759838, 0.09414755, -398223.3, -64159.867, 0.00000094846536, 10.0007305, 9.997164 
1.7550467e+3, 2.7590936e+2, -245619.34, -511712.38, 44079.473, 0.20791382, 0.055572663, -238507.45, -2411.5195, 0.000030605133, 10.001123, 9.997588 
1.7550352e+3, 2.8590804e+2, -28979.563, -113773.47, -6435.4644, 0.15439521, 0.0474794, -28493.922, 109611.766, 0.00020031627, 10.000881, 9.999778 
1.755023e+3, 2.9590753e+2, -58749.25, -92366.41, 36284.797, 0.09656717, -0.030208869, -35568.895, 4533.019, 0.0006943286, 10.0000725, 9.999635 
1.7550115e+3, 3.0590552e+2, -65612.33, -249221.92, -1132.2567, 0.13659085, -0.0917974, -65605.34, -65605.34, 0.0016369672, 10.000458, 9.99805 
1.7549983e+3, 3.1590602e+2, 195176.52, -63402.977, 94904.05, -0.03442367, 0.07093029, 226269.48, 226269.48, 0.0029657707, 10.001997, 9.998552 
1.7652221e+3, 1.2592243e+2, -2096756.5, -1967312.8, -212103.14, -0.11275166, -0.18716009, -1810276.5, -104325.234, 0.07790593, 9.997583, 9.999415 
1.76521e+3, 1.3592525e+2, -1680485.8, -1616771.1, 60588.938, 0.16958335, 0.05747273, -1580174.8, 27753.707, 0.05123237, 9.9994135, 10.00026 
1.7652005e+3, 1.4592482e+2, -1556009.1, -1432193.3, 141051.58, 0.438262, -0.0528499, -1340061.8, 169870.36, 0.026445003, 9.999264, 10.0009575 
1.765187e+3, 1.5592489e+2, -1579339.4, -1398244.8, 96549.91, 0.24794966, -0.16454867, -1356426.3, 55501.26, 0.009296644, 9.998477, 10.000867 
1.7651728e+3, 1.6592565e+2, -1493870.4, -1398120.3, 31135.6, 0.09527415, -0.12128136, -1388886.3, -74965.3, 0.0016790463, 9.998777, 10.000044 
1.7651594e+3, 1.7592694e+2, -1239573.8, -1207950.5, 11015.016, 0.064436294, -0.03932423, -1204492.0, 11421.045, 0.000074904594, 9.999778, 10.000193 
1.7651485e+3, 1.8592742e+2, -1175557.6, -1161842.5, 95507.43, 0.12406022, 0.010327204, -1072946.8, 44963.777, 0.000000009428086, 9.999694, 9.999883 
1.7651387e+3, 1.9592723e+2, -1145428.1, -1081566.5, 74578.266, 0.19543485, -0.032491088, -1032370.9, -12458.2, 0.0, 9.999176, 10.000002 
1.7651264e+3, 2.05927e+2, -1049953.1, -1020080.4, 34384.785, 0.13966574, -0.03332742, -997528.0, -75613.766, 0.0, 9.999295, 9.9997 
1.7651129e+3, 2.1592686e+2, -859439.3, -856021.75, 51167.844, 0.011369452, -0.055602975, -806534.1, 17380.268, 0.0, 9.999857, 9.999876 
1.7651008e+3, 2.2592683e+2, -744963.3, -756983.1, 56263.215, -0.014499226, -0.037542555, -694389.94, 31524.379, 0.0, 9.999982, 9.999833 
1.7650896e+3, 2.3592685e+2, -659724.7, -654115.3, -14277.277, 0.010629008, -0.055095065, -642369.8, -14455.201, 0.0, 9.99986, 9.999917 
1.765079e+3, 2.4592684e+2, -518894.13, -637256.9, 2110.8223, 0.080097765, 0.004897972, -518856.5, 11058.459, 0.0, 10.000566, 9.999035 
1.7650692e+3, 2.559268e+2, -237505.36, -455400.25, 10938.308, 0.1851637, 0.059974317, -236957.64, 194958.28, 0.0, 10.001856, 9.998982 
1.7650591e+3, 2.6592502e+2, -261035.05, -629581.94, 65443.37, 0.25294444, 0.09786394, -249759.17, 84177.016, 0.0000007067664, 10.00195, 9.997061 
1.7650485e+3, 2.759221e+2, -241931.66, -529669.4, 102255.34, 0.26736566, 0.0560278, -209294.4, 26675.535, 0.000029110019, 10.001239, 9.997411 
1.7650367e+3, 2.859203e+2, 18298.188, -153384.02, 60674.965, 0.19573922, 0.039383236, 37576.76, 175562.02, 0.00020317562, 10.00148, 9.999223 
1.765024e+3, 2.9591918e+2, 250490.86, -11998.223, -49593.586, 0.08547649, -0.028272478, 259548.33, 299536.5, 0.00072254677, 10.002497, 9.999024 
1.7650132e+3, 3.0591658e+2, 253844.02, -163048.64, -51594.688, 0.15914598, -0.0913651, 260134.47, 260134.47, 0.0017154181, 10.002936, 9.997451 
1.7650011e+3, 3.1591633e+2, 285455.63, -48363.73, -2467.7102, 0.020231076, 0.0671488, 285473.88, 285473.88, 0.003103051, 10.002694, 9.998345 
1.775223e+3, 1.2594056e+2, -1933612.5, -1660288.4, -97427.93, 0.16300347, 0.04576087, -1629115.1, 76665.96, 0.08231803, 9.997686, 10.001521 
1.7752104e+3, 1.359397e+2, -1712837.3, -1672004.8, 117467.72, 0.22517955, -0.06254533, -1573192.3, 34594.227, 0.054393712, 9.999361, 9.9999075 
1.7751953e+3, 1.459398e+2, -1605675.9, -1534883.5, 87652.586, -0.030971846, -0.047213025, -1475750.0, 34034.027, 0.02831169, 9.999254, 10.000242 
1.7751846e+3, 1.559408e+2, -1609728.4, -1462315.5, 84445.7, 0.13900349, -0.019309789, -1423933.9, -12160.146, 0.010105246, 9.998483, 10.000418 
1.7751731e+3, 1.6594115e+2, -1534617.4, -1495282.8, 59023.438, 0.22784856, 0.034682374, -1452736.1, -138963.4, 0.0018804772, 9.998828, 9.999354 
1.775161e+3, 1.7594056e+2, -1295603.3, -1312205.4, 51957.44, 0.23804799, 0.0025402799, -1251288.0, -35504.883, 0.00008970714, 9.999732, 9.9994955 
1.7751485e+3, 1.8594041e+2, -1179652.9, -1176325.6, 62894.277, 0.12909827, 0.030641539, -1115073.0, 2713.2144, 0.000000028818846, 9.999713, 9.999777 
1.7751357e+3, 1.9594082e+2, -1150768.4, -1084076.6, 69130.3, -0.038376745, 0.05347505, -1040669.94, -20887.766, 0.0, 9.999136, 10.000006 
1.7751242e+3, 2.0594086e+2, -1020316.44, -937645.94, 44810.87, -0.0466537, 0.043896988, -918017.1, 3761.5725, 0.0, 9.999213, 10.000299 
1.7751135e+3, 2.1594049e+2, -859582.4, -815309.2, 76907.25, 0.0630177, -0.05998308, -757416.06, 66360.9, 0.0, 9.999691, 10.000227 
1.7751019e+3, 2.2593959e+2, -888484.56, -1016517.9, 41281.496, 0.059909567, -0.051780388, -876328.44, -150541.27, 0.0, 9.999804, 9.998144 
1.7750894e+3, 2.3593837e+2, -777989.1, -874533.25, -2195.8828, -0.01577926, -0.033000313, -777939.25, -150133.88, 0.0, 9.999741, 9.998464 
1.7750792e+3, 2.4593775e+2, -516658.1, -588606.75, 40085.66, 0.023713535, 0.006628167, -498771.38, 31041.113, 0.0, 10.000377, 9.999458 
1.7750707e+3, 2.559376e+2, -227627.8, -391511.38, 64469.613, 0.14087376, 0.010309694, -205306.52, 226504.66, 0.0, 10.001679, 9.999501 
1.7750604e+3, 2.659368e+2, -192411.89, -440211.63, 30209.414, 0.17249227, 0.04035147, -188782.22, 145034.89, 0.00000032366296, 10.001747, 9.998462 
1.7750487e+3, 2.7593538e+2, -201160.77, -390359.7, 96706.055, 0.14712915, 0.0148836095, -160478.61, 75350.81, 0.00002512301, 10.001021, 9.998465 
1.7750375e+3, 2.8593308e+2, -177451.89, -512624.25, 82531.32, 0.099876985, 0.030779256, -158231.89, -20379.28, 0.0002007502, 10.001266, 9.996864 
1.7750265e+3, 2.959303e+2, 80666.96, -320134.7, 1422.0309, 0.053605855, 0.011778343, 80672.01, 120553.68, 0.0007396981, 10.002305, 9.997 
1.775016e+3, 3.0592638e+2, 190914.06, -214878.06, -67895.125, 0.123053536, -0.080770165, 201972.58, 201972.58, 0.0017576203, 10.002615, 9.997241 
1.7750026e+3, 3.1592524e+2, 229315.36, -6322.052, 13602.172, -0.13983549, 0.013151356, 230097.94, 230097.94, 0.0031473008, 10.002084, 9.998894 
1.7852217e+3, 1.2595569e+2, -1785030.3, -1493022.8, -44447.1, 0.24444133, 0.17674437, -1486407.3, 219228.25, 0.08696164, 9.998282, 10.002456 
1.7852095e+3, 1.3595217e+2, -1985289.8, -1866974.0, -62815.402, 0.29780644, -0.14230266, -1839845.0, -232179.86, 0.057701517, 9.9977865, 9.999316 
1.785193e+3, 1.4595227e+2, -1825820.9, -1632773.8, -23860.42, -0.11376341, -0.09736453, -1629868.4, -120205.42, 0.030258754, 9.997711, 10.000309 
1.7851831e+3, 1.5595454e+2, -1408433.8, -1354874.5, 704.74335, 0.0892987, 0.042059574, -1354865.3, 56776.297, 0.0109521225, 9.999801, 10.00053 
1.7851725e+3, 1.6595499e+2, -1391076.1, -1452587.0, 2898.587, 0.23656191, 0.10942434, -1390939.9, -77299.734, 0.0020959692, 9.999914, 9.999127 
1.7851605e+3, 1.759534e+2, -1470437.3, -1417758.1, 4051.7, 0.27412495, 0.0011445385, -1417448.4, -201788.47, 0.000105867584, 9.998623, 9.999307 
1.785148e+3, 1.8595305e+2, -1327063.8, -1224300.4, 82768.46, 0.16595861, 0.006914078, -1178261.9, -60598.063, 0.0000000562377, 9.998606, 9.999987 
1.7851353e+3, 1.959539e+2, -1061931.6, -1022009.75, 94131.1, -0.024063757, 0.05139881, -945746.5, 73906.875, 0.0, 9.999655, 10.000185 
1.7851241e+3, 2.0595376e+2, -931040.8, -957796.75, 47489.113, -0.009185252, 0.046430185, -895081.3, 26570.162, 0.0, 10.000086, 9.999756 
1.7851141e+3, 2.1595275e+2, -817299.8, -855674.5, -24287.852, 0.13763411, -0.064497165, -805534.7, 18122.646, 0.0, 10.000221, 9.999713 
1.7851025e+3, 2.2595163e+2, -795250.9, -985798.5, -10017.524, 0.1232561, -0.047168452, -794725.6, -69055.445, 0.0, 10.000524, 9.998002 
1.7850897e+3, 2.359505e+2, -613026.25, -813472.56, 30224.418, -0.006666047, -0.0014937535, -608568.0, 19119.188, 0.0, 10.000969, 9.998289 
1.7850798e+3, 2.4594945e+2, -461467.84, -583936.56, 114596.02, 0.02644796, 0.017037585, -392771.88, 136926.3, 0.0, 10.000877, 9.999234 
1.785072e+3, 2.5594845e+2, -414181.03, -499398.13, 64176.656, 0.15256754, -0.04328006, -379756.25, 51948.605, 0.0, 10.000491, 9.999324 
1.7850618e+3, 2.6594764e+2, -264489.1, -403031.8, -14222.571, 0.18198386, -0.040425286, -263044.13, 70664.2, 0.00000018370703, 10.000927, 9.999119 
1.7850499e+3, 2.7594677e+2, -20408.959, -252935.84, -24799.459, 0.12798546, -0.0726922, -17793.465, 217918.05, 0.000020759246, 10.002001, 9.998957 
1.785039e+3, 2.8594443e+2, -81297.32, -515036.6, 58983.258, 0.1034961, -0.055595372, -73419.41, 64316.02, 0.00019246842, 10.002163, 9.996397 
1.785029e+3, 2.9594138e+2, -25119.588, -419408.4, 75300.83, 0.11813645, -0.051168837, -11228.141, 28542.28, 0.0007361142, 10.001797, 9.996552 
1.7850189e+3, 3.0593774e+2, 114629.14, -263508.56, 83092.79, 0.18036023, -0.09251199, 132082.55, 132082.55, 0.001742138, 10.002141, 9.997132 
1.7850052e+3, 3.1593612e+2, 311484.38, 7028.9277, 71729.61, -0.09353898, -0.01720001, 327537.4, 327537.4, 0.0030650639, 10.002721, 9.998696 
1.7952189e+3, 1.2596682e+2, -1802998.4, -1526653.4, 113568.88, 0.071776405, 0.08214196, -1485969.8, 219555.14, 0.09190124, 9.998305, 10.002203 
1.795207e+3, 1.3596295e+2, -2030078.0, -1976135.9, -106873.82, 0.25165352, -0.18166901, -1892882.4, -285320.7, 0.06119029, 9.997837, 9.998554 
1.7951927e+3, 1.459625e+2, -1779540.8, -1539087.8, 23750.494, 0.06712438, -0.18921462, -1536764.3, -27198.426, 0.03230053, 9.997724, 10.000947 
1.7951824e+3, 1.5596633e+2, -1376619.8, -1270747.0, 79418.6, 0.010332692, 0.040158257, -1228239.3, 183289.42, 0.011841973, 9.999734, 10.001142 
1.7951706e+3, 1.6596726e+2, -1372458.9, -1421910.8, -57913.77, 0.023213765, 0.118928805, -1334213.6, -20691.5, 0.0023264778, 9.999935, 9.999335 
1.7951576e+3, 1.7596541e+2, -1448771.4, -1375629.0, -31384.232, 0.10076619, -0.037595063, -1364008.6, -148464.44, 0.00012352158, 9.998628, 9.999599 
1.7951465e+3, 1.8596527e+2, -1283323.1, -1141290.5, 110367.27, 0.13138817, -0.057758115, -1081065.6, 36478.254, 0.000000085167756, 9.998642, 10.000537 
1.7951368e+3, 1.959665e+2, -1051646.4, -985845.5, 136643.38, 0.13633236, -0.0270872, -878197.56, 141328.6, 0.0, 9.999594, 10.000462 
1.7951259e+3, 2.0596585e+2, -1057160.9, -1200840.8, 39300.875, 0.13359469, -0.0056402464, -1047113.5, -125581.96, 0.0, 9.999996, 9.998134 
1.7951144e+3, 2.1596386e+2, -927524.9, -1058443.3, -7071.6587, 0.14303146, -0.057160385, -927144.0, -103590.44, 0.0, 10.000102, 9.998383 
1.7951027e+3, 2.25963e+2, -736066.94, -824558.56, -1752.3757, 0.07548491, -0.017471818, -736032.25, -10469.484, 0.0, 10.000356, 9.999192 
1.7950904e+3, 2.3596308e+2, -570352.8, -682189.25, 55057.07, -0.045520894, 0.030455926, -547797.25, 79764.61, 0.0, 10.000789, 9.999274 
1.7950805e+3, 2.4596173e+2, -558101.94, -738583.7, 91534.06, -0.016039632, 0.026547266, -519805.28, 9768.986, 0.0, 10.000675, 9.998274 
1.7950723e+3, 2.5595927e+2, -498401.6, -636258.1, 67203.61, 0.12796284, -0.084032685, -471062.38, -39465.563, 0.0, 10.000335, 9.998455 
1.7950627e+3, 2.6595747e+2, -298274.97, -433113.44, 17729.76, 0.167887, -0.13205361, -295982.7, 37627.355, 0.00000013255313, 10.000749, 9.9990015 
1.7950518e+3, 2.759562e+2, -44436.633, -251948.03, 23073.709, 0.10585807, -0.20427133, -41901.973, 193714.36, 0.0000188634, 10.001798, 9.999054 
1.7950414e+3, 2.859545e+2, -26283.658, -353254.75, 29777.037, 0.08386812, -0.19926566, -23594.01, 114038.12, 0.00018763817, 10.0019455, 9.997621 
1.7950314e+3, 2.9595268e+2, 12592.378, -274209.44, 87659.625, 0.14433, -0.193666, 37262.973, 76915.82, 0.0007283647, 10.001524, 9.997673 
1.7950213e+3, 3.059506e+2, 38515.934, -350428.9, 91487.46, 0.179927, -0.100477, 58960.887, 58960.887, 0.0016996954, 10.001816, 9.996703 
1.7950083e+3, 3.1594917e+2, 210781.06, -92121.57, 123724.83, -0.11303608, 0.011360606, 254893.89, 254893.89, 0.002917687, 10.002286, 9.998203 
1.8052176e+3, 1.2597764e+2, -1893302.6, -1513792.6, 177057.83, 0.16076216, -0.007943326, -1444016.4, 261403.94, 0.097200245, 9.997456, 10.002726 
1.8052037e+3, 1.3597547e+2, -2012435.5, -1976931.9, -107937.81, 0.14110613, -0.0978339, -1885295.9, -277853.06, 0.06490086, 9.997981, 9.998489 
1.8051916e+3, 1.4597566e+2, -1730850.4, -1504757.3, 106977.82, 0.19127034, -0.048631247, -1462164.0, 47276.85, 0.034457777, 9.998005, 10.001049 
1.8051815e+3, 1.5597789e+2, -1618071.6, -1376798.9, 98955.945, 0.044034615, 0.01196851, -1341405.1, 70013.23, 0.0127833225, 9.998032, 10.001223 
1.8051691e+3, 1.6597888e+2, -1613344.0, -1484580.4, -71976.6, -0.016240578, 0.07098802, -1452392.9, -138983.05, 0.0025744103, 9.998075, 9.9998 
1.8051557e+3, 1.7597854e+2, -1458006.8, -1327133.3, -43881.043, 0.06913876, 0.016790666, -1313782.3, -98366.57, 0.00014305822, 9.998358, 10.000053 
1.8051454e+3, 1.8597849e+2, -1227671.9, -1148209.1, 142786.6, 0.15441455, -0.0017305397, -1039729.2, 77684.57, 0.00000010953618, 9.999154, 10.000242 
1.8051372e+3, 1.9597875e+2, -959172.9, -974406.94, 85911.11, 0.1939109, -0.039378732, -880541.75, 138863.58, 0.0, 10.000371, 10.000163 
1.8051265e+3, 2.0597774e+2, -964382.7, -1174119.6, 10719.577, 0.17401937, -0.030847227, -963836.25, -42422.04, 0.0, 10.000716, 9.997972 
1.8051147e+3, 2.1597579e+2, -877293.25, -1048455.06, 50504.855, 0.13187632, -0.06046618, -863502.0, -40066.316, 0.0, 10.000518, 9.998245 
1.805103e+3, 2.2597492e+2, -719836.0, -824216.5, 70978.36, 0.068601154, -0.014374074, -683925.5, 41519.832, 0.0, 10.000517, 9.999106 
1.8050914e+3, 2.3597477e+2, -585482.8, -705517.25, 12943.739, -0.02521937, 0.025898652, -584102.94, 43343.953, 0.0, 10.000753, 9.999129 
1.8050818e+3, 2.4597324e+2, -471815.28, -716208.3, 58593.91, 0.018819043, 0.019160597, -458493.4, 70967.22, 0.0, 10.001329, 9.998129 
1.8050738e+3, 2.559707e+2, -255002.14, -545927.6, 69813.79, 0.15986323, -0.0821174, -239116.28, 192367.11, 0.0, 10.00209, 9.998257 
1.8050644e+3, 2.6596856e+2, -141435.56, -414731.84, 48454.387, 0.19299506, -0.12542342, -133099.08, 200402.42, 0.00000007008213, 10.002083, 9.998481 
1.8050537e+3, 2.759667e+2, -100204.0, -335701.78, -8494.746, 0.1113383, -0.19620952, -99897.984, 135618.55, 0.000018211349, 10.001653, 9.998557 
1.8050434e+3, 2.8596514e+2, 1400.6667, -303812.78, -36105.496, 0.09661703, -0.16902001, 5613.6455, 143145.55, 0.0001838329, 10.001969, 9.997949 
1.8050337e+3, 2.9596394e+2, 239955.92, -131713.83, -79000.96, 0.17072923, -0.12987806, 256051.11, 295597.5, 0.0007150246, 10.002918, 9.997994 
1.8050237e+3, 3.059624e+2, 259681.34, -164041.61, -34323.523, 0.18368989, -0.040396933, 262443.7, 262443.7, 0.0016464369, 10.003013, 9.9974 
1.8050116e+3, 3.159614e+2, 215629.36, -91725.06, -3700.1216, 0.00005597562, 0.07244736, 215673.89, 215673.89, 0.0027767634, 10.002245, 9.998273 
1.8152155e+3, 1.2598848e+2, -1812089.3, -1365969.9, 50190.43, 0.15841255, -0.04738799, -1360393.0, 344925.72, 0.10291468, 9.99743, 10.003865 
1.8151991e+3, 1.3598932e+2, -1965547.6, -1866328.0, -88880.08, -0.15380567, 0.08674971, -1814149.8, -206837.63, 0.06887483, 9.997939, 9.999261 
1.8151899e+3, 1.4599155e+2, -1738681.0, -1536926.9, 88738.54, 0.16583158, 0.3087403, -1503451.0, 5838.6704, 0.036753505, 9.998061, 10.000803 
1.8151803e+3, 1.559891e+2, -1639240.0, -1426344.1, 108748.305, 0.09038179, -0.052578773, -1380616.6, 30694.94, 0.01378539, 9.998044, 10.000882 
1.8151675e+3, 1.659899e+2, -1559179.4, -1382145.3, -77296.85, -0.01709605, -0.034098204, -1353146.0, -39843.098, 0.002842686, 9.998116, 10.000481 
1.8151546e+3, 1.7599276e+2, -1418094.4, -1254384.6, -21678.947, 0.094552316, 0.16256759, -1251562.5, -36287.535, 0.00016504708, 9.998392, 10.000539 
1.8151447e+3, 1.8599267e+2, -1295518.9, -1296293.8, 176517.52, 0.14118987, 0.17663892, -1119388.4, -2114.404, 0.00000012908751, 9.999184, 9.999214 
1.8151365e+3, 1.9599065e+2, -1022163.2, -1094157.4, 134196.97, 0.06657132, 0.01358916, -919219.25, 100071.625, 0.0, 10.00032, 9.999367 
1.815126e+3, 2.0598933e+2, -898806.5, -1009600.4, -5961.575, 0.017390622, -0.03882837, -898486.6, 22813.646, 0.0, 10.000597, 9.999157 
1.8151143e+3, 2.1598841e+2, -835398.4, -925227.8, 53312.234, 0.028028915, -0.08196169, -810602.8, 12702.651, 0.0, 10.000363, 9.999164 
1.8151031e+3, 2.259872e+2, -846509.5, -1041027.56, 68144.734, 0.006702075, -0.03730511, -825012.4, -99692.47, 0.0, 10.000315, 9.997718 
1.815092e+3, 2.3598568e+2, -693710.1, -893095.7, 35058.707, -0.043506067, 0.0038179564, -687725.25, -60384.05, 0.0, 10.000595, 9.997917 
1.8150833e+3, 2.4598409e+2, -464498.1, -657204.25, 79192.805, 0.013008811, 0.018512491, -436129.8, 93226.555, 0.0, 10.001135, 9.998628 
1.8150759e+3, 2.559825e+2, -248771.66, -492810.66, 105135.32, 0.15785193, -0.046119425, -209725.34, 221641.02, 0.0, 10.001921, 9.998697 
1.8150663e+3, 2.6598063e+2, -247006.55, -587916.25, 21164.55, 0.15524438, -0.02869164, -245697.63, 87687.43, 0.0000000874347, 10.001877, 9.997394 
1.8150549e+3, 2.7597833e+2, -205330.78, -502763.38, -3974.4133, 0.040801875, -0.040009405, -205277.69, 30133.9, 0.00001648955, 10.001446, 9.997499 
1.8150447e+3, 2.8597653e+2, -81960.75, -431079.94, -10855.106, 0.004987755, 0.057074655, -81623.56, 55809.598, 0.00017253889, 10.001759, 9.99718 
1.815036e+3, 2.959752e+2, 182417.77, -208413.66, -28061.121, 0.05943104, 0.1460036, 184422.23, 223872.47, 0.000680335, 10.002732, 9.997552 
1.8150254e+3, 3.0597308e+2, 313853.25, 22199.486, -75718.29, 0.031198047, 0.11243819, 332339.28, 332339.28, 0.0015763064, 10.002711, 9.998822 
1.815013e+3, 3.1597063e+2, 194164.56, 35940.89, 9025.346, -0.118190095, -0.06692976, 194677.72, 194677.72, 0.0026708979, 10.001589, 9.999425 
1.825212e+3, 1.2600008e+2, -2128276.0, -1439139.8, 34473.227, 0.19922766, 0.07515498, -1437419.5, 267789.44, 0.10907774, 9.994934, 10.004515 
1.8251966e+3, 1.3600153e+2, -1995181.5, -1856318.6, -127758.48, -0.16276366, 0.23688568, -1780343.9, -173148.0, 0.07313931, 9.997601, 9.999499 
1.825188e+3, 1.4600284e+2, -1690871.8, -1519873.8, -16869.002, 0.16230118, 0.354919, -1518225.5, -9043.159, 0.039204508, 9.998445, 10.00072 
1.8251784e+3, 1.5600006e+2, -1738650.9, -1495133.5, -6409.3384, 0.1277967, -0.017869787, -1494965.0, -83757.516, 0.014855209, 9.997468, 10.00068 
1.8251659e+3, 1.6600065e+2, -1499287.1, -1333016.1, -119732.78, 0.0058056866, -0.019315712, -1270386.5, 42812.523, 0.0031336718, 9.998427, 10.000669 
1.8251543e+3, 1.760034e+2, -1034717.25, -1048006.9, -121441.016, 0.105082415, 0.141627, -919739.4, 295429.75, 0.00019006866, 10.00093, 10.000731 
1.825145e+3, 1.8600313e+2, -1080380.4, -1225789.1, 52833.297, 0.17192592, 0.14305797, -1063211.0, 53958.887, 0.00000015151502, 10.000811, 9.998912 
1.8251364e+3, 1.9600084e+2, -1226301.0, -1213790.4, 43397.04, 0.091663964, -0.012306843, -1176200.1, -157009.22, 0.0, 9.999033, 9.999161 
1.8251258e+3, 2.0599984e+2, -1076477.1, -1019411.3, -50522.46, 0.030929128, -0.06313243, -989921.44, -68724.62, 0.0, 9.999053, 9.999823 
1.8251145e+3, 2.1599951e+2, -804805.94, -852950.7, -47436.605, 0.019920787, -0.11561549, -775683.25, 47510.945, 0.0, 10.000326, 9.999671 
1.825104e+3, 2.2599815e+2, -771469.44, -1093971.6, -3189.0886, 0.039802942, -0.06429305, -771437.9, -46227.31, 0.0, 10.001186, 9.996946 
1.825094e+3, 2.3599614e+2, -571094.9, -905143.8, -11958.331, 0.053255785, -0.00047965962, -570667.3, 56572.117, 0.0, 10.001738, 9.997287 
1.8250853e+3, 2.4599443e+2, -397726.8, -613799.8, 41696.723, 0.10143867, 0.024092684, -389959.6, 139297.17, 0.0, 10.001558, 9.998709 
1.8250775e+3, 2.5599286e+2, -393978.0, -559284.6, 11403.002, 0.17817892, -0.043346185, -393195.1, 38071.434, 0.0, 10.000913, 9.998714 
1.8250678e+3, 2.6599127e+2, -331606.56, -641527.94, -19082.008, 0.15723558, 0.010269017, -330436.1, 2847.9146, 0.00000011582431, 10.001369, 9.997263 
1.8250568e+3, 2.759895e+2, -42973.23, -444497.97, -10727.849, 0.05019948, 0.072499394, -42686.813, 192621.45, 0.000015405387, 10.002635, 9.997336 
1.8250471e+3, 2.859875e+2, 70068.836, -357124.44, 64705.89, 0.035003815, 0.15450945, 79654.58, 216986.7, 0.00016027999, 10.002816, 9.997175 
1.8250385e+3, 2.9598546e+2, 114717.88, -251012.84, 61218.92, 0.07946776, 0.1871494, 124693.12, 164047.17, 0.00063771853, 10.002306, 9.99747 
1.8250273e+3, 3.0598298e+2, 258515.16, 14460.933, -16652.877, -0.01519355, 0.1116173, 259646.22, 259646.22, 0.0015065027, 10.002231, 9.998999 
1.8250157e+3, 3.1598127e+2, 343746.3, 103647.055, -92661.02, -0.030383702, -0.0011969547, 375347.5, 375347.5, 0.0026114455, 10.002539, 9.999487 
1.8352062e+3, 1.2601066e+2, -2118610.3, -1441012.4, 112435.87, 0.06690397, 0.1496034, -1422842.8, 282266.06, 0.11569034, 9.995002, 10.004503 
1.8351965e+3, 1.3601267e+2, -2009917.0, -1878466.6, -11094.1875, 0.029445166, 0.3888201, -1877536.9, -270448.7, 0.07769921, 9.997576, 9.99935 
1.8351854e+3, 1.460098e+2, -1689785.5, -1528829.1, -59966.4, 0.026787156, 0.098124295, -1508944.5, 171.6558, 0.04181763, 9.998487, 10.00064 
1.8351753e+3, 1.5601078e+2, -1743071.4, -1513107.6, -22288.6, 0.055574495, 0.10861405, -1510967.3, -99861.04, 0.015997248, 9.9974985, 10.000544 
1.8351643e+3, 1.6601124e+2, -1506922.4, -1359018.1, -40899.336, -0.037999403, 0.11453508, -1348461.8, -35364.21, 0.0034491862, 9.99847, 10.00047 
1.8351546e+3, 1.7601056e+2, -1044928.4, -1066335.9, -35679.895, 0.020206207, -0.049681056, -1018381.25, 196716.36, 0.00021871291, 10.000909, 10.00062 
1.8351457e+3, 1.860098e+2, -1061445.1, -1180550.1, -25454.043, 0.123212375, -0.11031035, -1056233.4, 60868.613, 0.00000018976193, 10.000791, 9.999229 
1.8351364e+3, 1.9600928e+2, -1215440.4, -1179077.0, -3483.0364, 0.17344834, -0.11989281, -1178746.4, -159639.86, 0.0, 9.99898, 9.999424 
1.8351258e+3, 2.0600916e+2, -1071632.0, -990810.3, -13041.084, 0.1064915, -0.105397776, -988758.2, -67653.445, 0.0, 9.998972, 10.000057 
1.8351148e+3, 2.1600911e+2, -809795.25, -834299.3, 4597.7197, 0.0074084774, -0.15262431, -808960.94, 14140.145, 0.0, 10.000202, 9.999857 
1.8351056e+3, 2.260079e+2, -810866.25, -1131679.3, 9367.033, 0.051119126, -0.08506762, -810593.0, -85476.8, 0.0, 10.000995, 9.996782 
1.8350972e+3, 2.3600599e+2, -606660.94, -936613.75, 17377.053, 0.17989285, 0.0017806517, -605748.25, 21394.842, 0.0, 10.001559, 9.997157 
1.835088e+3, 2.4600406e+2, -453775.63, -679454.06, 7380.8564, 0.1877874, 0.02887346, -453534.5, 75629.47, 0.0, 10.001337, 9.998369 
1.8350782e+3, 2.5600195e+2, -442514.56, -614873.25, 8493.936, 0.12861174, -0.05418648, -442096.97, -10914.823, 0.0, 10.00073, 9.998421 
1.8350686e+3, 2.6600084e+2, -319544.34, -580123.4, 21441.117, 0.075759225, 0.03226381, -317791.9, 15403.709, 0.000000090536304, 10.001202, 9.997769 
1.8350594e+3, 2.7600023e+2, -23426.05, -367678.97, 47494.92, 0.02633279, 0.1514335, -16993.598, 218213.33, 0.00001528185, 10.002479, 9.997936 
1.8350504e+3, 2.8599787e+2, 82371.0, -289440.03, 26733.137, 0.049961433, 0.13728596, 84283.27, 221513.55, 0.00015297614, 10.0026245, 9.997737 
1.8350413e+3, 2.959946e+2, 107404.29, -207762.19, 63152.836, 0.114514254, -0.015327082, 119587.83, 158847.03, 0.000605686, 10.0020685, 9.997873 
1.835029e+3, 3.0599228e+2, 104635.22, -226067.48, -20363.908, -0.109007224, -0.0064793476, 105884.46, 105884.46, 0.0014557011, 10.001892, 9.997508 
1.8350177e+3, 3.1599385e+2, 186280.22, -106829.08, -1234.3483, -0.12516253, 0.3326317, 186285.4, 186285.4, 0.0025875783, 10.002073, 9.998241 
1.8452e+3, 1.2601818e+2, -1972224.0, -1408765.0, 189421.89, -0.09225665, -0.0043295473, -1351006.4, 354022.78, 0.12272786, 9.996175, 10.004228 
1.845195e+3, 1.360206e+2, -2111297.0, -1933296.1, -6740.5786, 0.18095544, 0.285514, -1933041.3, -326035.63, 0.08254445, 9.996936, 9.999281 
1.8451835e+3, 1.4601693e+2, -1799763.4, -1572865.4, -87740.98, 0.054577984, -0.08135852, -1542894.9, -33851.777, 0.04459436, 9.997678, 10.000742 
1.8451731e+3, 1.5602024e+2, -1602187.5, -1428428.0, -58049.434, 0.046256244, 0.14597034, -1410819.3, 193.77763, 0.017215712, 9.998389, 10.000704 
1.8451631e+3, 1.6602126e+2, -1497381.1, -1366295.3, 6758.883, -0.0043187016, 0.2061611, -1365947.8, -52947.477, 0.0037916328, 9.998608, 10.000353 
1.8451546e+3, 1.7601955e+2, -1364547.6, -1229023.1, -13719.632, 0.050252415, -0.045717753, -1227648.1, -12637.385, 0.00025177147, 9.998774, 10.000528 
1.8451457e+3, 1.8601862e+2, -1291070.1, -1252935.9, -48970.72, 0.13933216, -0.13798533, -1219451.3, -102434.586, 0.00000025167606, 9.9990425, 9.999575 
1.8451357e+3, 1.9601864e+2, -1117889.3, -1102438.9, -35816.633, 0.18878703, -0.13127042, -1073523.8, -54508.4, 0.0, 9.999509, 9.999695 
1.8451259e+3, 2.0601878e+2, -924355.1, -984601.3, 706.2047, 0.1459514, -0.07182207, -924346.8, -3333.1394, 0.0, 10.00026, 9.999487 
1.845116e+3, 2.160188e+2, -674166.94, -813366.6, -62195.34, 0.05887628, -0.053110257, -650426.56, 172587.2, 0.0, 10.001335, 9.99946 
1.8451072e+3, 2.2601776e+2, -662504.94, -954530.9, -46179.98, 0.10363373, -0.0013790507, -655376.2, 69649.31, 0.0, 10.001578, 9.9977045 
1.845099e+3, 2.3601593e+2, -591862.56, -845518.0, 14395.233, 0.21440879, 0.0034459536, -591048.2, 35997.715, 0.0, 10.001298, 9.997901 
1.8450896e+3, 2.4601398e+2, -467208.13, -730117.75, 43778.875, 0.2151853, 0.01416811, -460109.88, 68956.77, 0.0, 10.001443, 9.997964 
1.8450794e+3, 2.5601187e+2, -292053.03, -582250.8, 18376.846, 0.1294199, -0.02757553, -290893.94, 140194.05, 0.0, 10.001923, 9.998071 
1.8450703e+3, 2.660106e+2, -180110.45, -500486.16, 63265.332, 0.08359824, 0.055873558, -168069.81, 165033.36, 0.00000009817215, 10.002116, 9.997872 
1.8450621e+3, 2.7600986e+2, -65733.25, -379836.06, 31107.242, 0.054816242, 0.15151525, -62682.176, 172432.92, 0.000013983738, 10.002161, 9.998 
1.8450533e+3, 2.8600767e+2, 98675.72, -268222.72, -22303.229, 0.08704665, 0.1458672, 100026.53, 237162.6, 0.00014295103, 10.002693, 9.997849 
1.8450443e+3, 2.9600486e+2, 330220.9, -94523.664, -67554.375, 0.13361096, 0.034432545, 340706.38, 379865.78, 0.00057309034, 10.003568, 9.997945 
1.8450317e+3, 3.0600172e+2, 310407.06, -225633.52, -103547.53, -0.107781254, 0.0031600376, 329714.06, 329714.06, 0.0014018476, 10.003734, 9.9966345 
1.8450211e+3, 3.160015e+2, 395407.5, -62779.703, -65769.33, -0.07025407, 0.26820457, 404661.3, 404661.3, 0.0025416845, 10.0037365, 9.997749 
1.8551943e+3, 1.2602426e+2, -1999724.1, -1494149.9, 280459.84, -0.34944728, -0.2342311, -1369367.1, 335587.94, 0.13014582, 9.99633, 10.00355 
1.8551925e+3, 1.3602515e+2, -2113593.5, -1937916.4, 23479.926, 0.20631672, -0.095955715, -1934832.4, -327882.7, 0.08765755, 9.996928, 9.999254 
1.8551823e+3, 1.4602438e+2, -1776998.3, -1532395.5, -69204.28, 0.12998599, -0.18229024, -1514173.4, -5211.3687, 0.04753598, 9.997704, 10.001011 
1.8551713e+3, 1.560285e+2, -1569377.9, -1372164.9, -25363.436, -0.0037591553, 0.08888082, -1368955.3, 41972.727, 0.01851746, 9.998427, 10.001081 
1.8551618e+3, 1.6603062e+2, -1494214.6, -1372563.8, -2018.21, -0.023326522, 0.2410274, -1372530.3, -59621.953, 0.0041650403, 9.99866, 10.000283 
1.8551542e+3, 1.7603017e+2, -1373746.9, -1248782.6, 3588.366, 0.10290275, 0.13033359, -1248679.8, -33769.09, 0.00029041685, 9.998768, 10.000398 
1.8551448e+3, 1.8602937e+2, -1259326.6, -1191689.8, -43578.41, 0.117217064, 0.03849082, -1170346.9, -53431.164, 0.0000003514084, 9.999065, 9.999984 
1.855134e+3, 1.9602886e+2, -1107251.8, -1069813.4, -10381.325, 0.047315244, -0.04900631, -1067127.4, -48209.44, 0.0, 9.999464, 9.999941 
1.8551254e+3, 2.0602866e+2, -1033254.5, -1188768.3, 31097.076, 0.0434205, 0.040998045, -1027266.75, -106343.266, 0.0, 10.000167, 9.998132 
1.855118e+3, 2.160285e+2, -768706.3, -971289.4, -16364.549, 0.097924046, 0.17353363, -767392.9, 55539.883, 0.0, 10.001172, 9.998453 
1.8551092e+3, 2.2602756e+2, -554072.6, -684413.06, -65401.953, 0.10131306, 0.17134717, -526914.2, 198026.13, 0.0, 10.001377, 9.9996605 
1.855099e+3, 2.3602602e+2, -499551.03, -616123.25, 16842.47, 0.06584434, 0.014754165, -497166.4, 129781.17, 0.0, 10.001134, 9.9995575 
1.8550897e+3, 2.4602434e+2, -535330.94, -824666.75, 49866.37, 0.06756843, 0.012053389, -526977.75, 1985.5181, 0.0, 10.001239, 9.997415 
1.8550812e+3, 2.5602254e+2, -350569.3, -659915.75, 44715.098, 0.09625939, 0.050211657, -344235.56, 86749.16, 0.0, 10.001745, 9.997617 
1.8550727e+3, 2.660206e+2, -228834.27, -557139.3, 51864.285, 0.08470403, 0.09842194, -220835.83, 112171.836, 0.00000008466028, 10.001924, 9.997578 
1.8550642e+3, 2.7601838e+2, -123273.555, -446218.97, 53356.164, 0.043164406, 0.07745319, -114686.52, 120346.77, 0.000011476472, 10.001944, 9.997646 
1.8550557e+3, 2.8601685e+2, 21557.504, -376525.34, -3244.8599, 0.022974014, 0.19297595, 21583.953, 158633.2, 0.00012752597, 10.002456, 9.997228 
1.8550469e+3, 2.960162e+2, 268743.16, -172613.25, -21678.572, 0.016682776, 0.3458247, 269805.4, 308860.72, 0.0005311809, 10.003351, 9.997515 
1.855035e+3, 3.0601123e+2, 234282.88, -314042.3, -127549.24, -0.17839223, 0.17191881, 262500.72, 262500.72, 0.001327311, 10.003439, 9.996166 
1.8550265e+3, 3.160062e+2, 320704.3, -74725.5, 28131.902, 0.053275518, 0.012418091, 322695.66, 322695.66, 0.002436143, 10.003161, 9.99793 
1.865193e+3, 1.2603143e+2, -1820426.0, -1528357.9, 126637.94, -0.19749054, -0.1385753, -1481096.5, 223790.17, 0.1378835, 9.998113, 10.002369 
1.8651888e+3, 1.3603236e+2, -1990034.8, -1734553.3, -52334.926, 0.13970348, -0.11938211, -1724248.1, -117368.766, 0.09301642, 9.99716, 10.000528 
1.8651792e+3, 1.4603303e+2, -1827385.5, -1534114.1, -36625.098, 0.067389786, -0.13957824, -1529609.5, -20732.734, 0.050644647, 9.997289, 10.00118 
1.8651697e+3, 1.5603651e+2, -1578590.5, -1364599.9, -44145.117, 0.007379662, 0.055987544, -1355850.6, 54997.33, 0.01991141, 9.998328, 10.001169 
1.865161e+3, 1.6603853e+2, -1462045.3, -1344887.8, -27552.354, 0.033501852, 0.18741375, -1338731.6, -25901.793, 0.0045744055, 9.998824, 10.00039 
1.8651533e+3, 1.7603873e+2, -1333183.0, -1215330.6, -20892.314, 0.13526404, 0.12747985, -1211736.5, 3090.4856, 0.0003360051, 9.99899, 10.000509 
1.8651442e+3, 1.8603846e+2, -1181292.5, -1160939.4, -36380.813, 0.1321239, 0.08565136, -1133338.6, -16510.273, 0.00000050835786, 9.999634, 9.999921 
1.8651341e+3, 1.9603829e+2, -916401.0, -983510.1, -56749.777, 0.037650317, 0.03714574, -884028.0, 134800.66, 0.0, 10.000803, 9.99989 
1.8651259e+3, 2.0603809e+2, -957950.44, -1170427.5, 21163.059, 0.06315628, 0.13620494, -955863.06, -35027.445, 0.0, 10.000769, 9.997961 
1.8651192e+3, 2.1603762e+2, -942524.3, -1071848.6, 38849.94, 0.16004242, 0.25420696, -931750.94, -108901.48, 0.0, 10.000037, 9.998313 
1.86511e+3, 2.260365e+2, -727071.06, -728536.3, -27813.67, 0.13337424, 0.22272867, -699980.4, 24877.564, 0.0, 10.000026, 10.000012 
1.865099e+3, 2.3603505e+2, -563084.94, -611466.94, -79946.45, 0.006950753, 0.041968007, -503749.66, 123112.36, 0.0, 10.000547, 9.999883 
1.8650907e+3, 2.460336e+2, -513669.3, -807433.3, -26524.469, 0.043250706, 0.046048973, -511293.6, 17581.117, 0.0, 10.001358, 9.997473 
1.8650839e+3, 2.560321e+2, -256875.53, -613889.3, -15258.127, 0.17412941, 0.107045196, -256224.61, 174669.31, 0.0, 10.002381, 9.99763 
1.8650754e+3, 2.6602992e+2, -154813.64, -512423.66, 9421.315, 0.15754503, 0.13246725, -154565.61, 178351.98, 0.000000065173005, 10.002388, 9.997661 
1.8650658e+3, 2.7602735e+2, -144994.88, -451267.9, 13258.575, 0.030344747, 0.06568757, -144421.98, 90522.68, 0.000009433609, 10.001758, 9.997705 
1.8650578e+3, 2.860257e+2, -13155.771, -423095.6, 65224.54, 0.010313898, 0.17681137, -3028.251, 133934.06, 0.00011541126, 10.002354, 9.9969425 
1.8650506e+3, 2.9602483e+2, 327685.3, -164948.31, 25799.51, 0.041514512, 0.34321046, 329032.75, 368004.84, 0.0004957237, 10.00385, 9.997308 
1.8650396e+3, 3.0602005e+2, 323961.94, -221572.2, -64506.477, -0.06091398, 0.16575363, 331485.72, 331485.72, 0.001252489, 10.003829, 9.996607 
1.86503e+3, 3.1601435e+2, 318089.97, -29796.963, 143281.02, 0.10749499, -0.107415654, 369503.5, 369503.5, 0.002297273, 10.0028925, 9.998373 
1.8751945e+3, 1.2603883e+2, -1954771.5, -1811644.5, -93254.46, 0.07484964, 0.16806386, -1765659.3, -60828.44, 0.14588223, 9.9982, 10.000183 
1.8751837e+3, 1.3604215e+2, -1807234.9, -1384888.6, -65005.09, -0.11766128, 0.19043922, -1375109.9, 231684.89, 0.0986057, 9.99718, 10.003094 
1.8751739e+3, 1.4604281e+2, -1812730.3, -1522147.3, -7607.871, -0.23949015, 0.02644237, -1521948.3, -13161.007, 0.053927336, 9.99736, 10.001228 
1.8751681e+3, 1.5604423e+2, -1589390.4, -1394251.8, 5800.2915, -0.017222902, 0.03980386, -1394079.5, 16694.205, 0.021407956, 9.998354, 10.000951 
1.8751603e+3, 1.6604507e+2, -1430465.6, -1290708.9, -32982.133, 0.053634845, 0.04675745, -1283316.3, 29448.04, 0.0050250688, 9.998872, 10.000742 
1.8751517e+3, 1.7604531e+2, -1314138.8, -1175077.8, -4993.378, 0.052111734, -0.042246904, -1174898.6, 39860.652, 0.00038988978, 9.998978, 10.000798 
1.8751435e+3, 1.8604587e+2, -1209796.4, -1222062.6, -6112.285, 0.0581273, 0.0077352105, -1207270.6, -90515.87, 0.000000733184, 9.999645, 9.999497 
1.8751353e+3, 1.960469e+2, -950148.2, -1032022.94, -11607.955, 0.06585888, 0.12560613, -948534.25, 70213.39, 0.0, 10.000717, 9.9995985 
1.8751273e+3, 2.0604695e+2, -899315.0, -1032486.5, -21244.48, 0.096109614, 0.20850743, -896008.0, 24743.313, 0.0, 10.00069, 9.99895 
1.8751192e+3, 2.160462e+2, -912906.7, -977314.4, 24603.945, 0.14766133, 0.20401096, -904583.44, -81819.87, 0.0, 9.999894, 9.999031 
1.8751097e+3, 2.2604476e+2, -840995.56, -925218.3, -19323.979, 0.08026512, 0.17752242, -836773.56, -111996.65, 0.0, 9.9998455, 9.998753 
1.8750992e+3, 2.3604292e+2, -659408.9, -771679.94, -47188.938, -0.05745952, 0.079513706, -642209.6, -15419.501, 0.0, 10.000379, 9.998858 
1.8750921e+3, 2.4604154e+2, -500795.63, -735783.2, 3620.1348, 0.030851861, 0.10114692, -500739.88, 28063.166, 0.0, 10.001159, 9.998067 
1.8750875e+3, 2.5604036e+2, -245838.23, -543593.5, 30874.707, 0.2650218, 0.1396122, -242670.48, 188145.84, 0.0, 10.002185, 9.998206 
1.8750784e+3, 2.660387e+2, -157767.6, -475839.5, -25980.783, 0.19093023, 0.16485552, -155659.4, 177173.02, 0.00000004605578, 10.002188, 9.998018 
1.8750666e+3, 2.7603674e+2, -146457.34, -411833.44, 10719.677, -0.08899793, 0.12697652, -146025.03, 88824.46, 0.000008319171, 10.001571, 9.998071 
1.8750595e+3, 2.860341e+2, -42589.074, -435851.84, 107083.36, -0.09350981, 0.12283601, -15321.492, 121554.09, 0.00010877432, 10.002141, 9.996963 
1.8750553e+3, 2.960308e+2, 286765.4, -177938.9, 93494.84, 0.10116343, 0.042723622, 304870.47, 343780.97, 0.0004720907, 10.003553, 9.99736 
1.8750452e+3, 3.0602792e+2, 376485.2, -38618.59, -120316.95, 0.08059941, -0.015132542, 408837.38, 408837.38, 0.001187898, 10.003517, 9.998014 
1.8750328e+3, 3.1602487e+2, 288774.4, 51096.582, 188602.81, 0.04786216, -0.1694089, 392856.34, 392856.34, 0.0021561233, 10.002325, 9.999189 
1.8851936e+3, 1.2604813e+2, -2079587.6, -1863009.5, 99140.734, 0.22566238, 0.26034713, -1824481.0, -119737.34, 0.15411249, 9.997284, 10.000278 
1.8851812e+3, 1.3605069e+2, -1745950.4, -1334493.4, 69051.375, -0.08044711, 0.15775141, -1323214.3, 283497.56, 0.10442951, 9.9974785, 10.003345 
1.8851715e+3, 1.4605229e+2, -1736400.0, -1557978.8, 67270.91, -0.24090545, 0.11755456, -1535458.0, -26764.084, 0.057399224, 9.998203, 10.000575 
1.8851663e+3, 1.5605238e+2, -1507242.4, -1398194.1, 37751.89, -0.050062995, 0.047784287, -1386400.1, 24293.617, 0.023018045, 9.999137, 10.000536 
1.8851593e+3, 1.6605254e+2, -1378224.8, -1291217.4, -36196.2, 0.041085057, 0.0146898, -1278128.4, 34563.453, 0.005521801, 9.999333, 10.000518 
1.8851508e+3, 1.7605284e+2, -1296785.3, -1188237.0, -67395.016, 0.052180167, -0.047108438, -1155979.3, 58707.79, 0.0004532519, 9.999181, 10.000618 
1.8851428e+3, 1.8605359e+2, -1263011.9, -1221671.4, -9571.382, 0.06870891, 0.017060967, -1219562.9, -102882.76, 0.0000010252129, 9.999172, 9.999722 
1.8851356e+3, 1.9605455e+2, -1109066.6, -1087009.4, 14959.825, 0.08361206, 0.103047244, -1079452.4, -60779.85, 0.0, 9.999522, 9.999795 
1.8851279e+3, 2.0605457e+2, -995356.3, -1071975.1, -25754.154, 0.12423552, 0.17076331, -987504.2, -66828.5, 0.0, 10.000009, 9.999003 
1.8851197e+3, 2.1605392e+2, -788077.94, -914108.75, -65944.375, 0.16845903, 0.17265385, -759881.5, 62804.824, 0.0, 10.000747, 9.999049 
1.8851109e+3, 2.2605251e+2, -675125.0, -903947.7, -69180.77, 0.14318617, 0.17617646, -655835.44, 68865.375, 0.0, 10.001249, 9.998211 
1.8851013e+3, 2.3605043e+2, -508562.47, -754837.44, -66832.11, 0.061317593, 0.11024353, -491595.1, 135124.2, 0.0, 10.001647, 9.9983635 
1.8850943e+3, 2.4604899e+2, -412198.4, -659330.1, 7427.087, 0.1170622, 0.13198197, -411975.4, 116757.766, 0.0, 10.001634, 9.998359 
1.8850888e+3, 2.560479e+2, -341638.6, -565649.0, -16957.17, 0.24837118, 0.15425658, -340362.25, 90381.805, 0.0, 10.001417, 9.998427 
1.8850802e+3, 2.660462e+2, -183734.14, -489653.97, -80379.57, 0.16047917, 0.16746935, -163900.5, 168859.2, 0.000000017635879, 10.00204, 9.997982 
1.8850689e+3, 2.7604416e+2, 113861.4, -279948.13, -100524.49, -0.10070367, 0.12291328, 138037.3, 372814.8, 0.000007223604, 10.003354, 9.998109 
1.885062e+3, 2.8604183e+2, 72829.875, -306784.56, 18259.932, -0.073034726, 0.11266665, 73706.18, 210506.63, 0.00010058898, 10.002645, 9.997597 
1.8850583e+3, 2.960389e+2, -86074.445, -302229.13, 23318.594, 0.18688904, 0.012621291, -83587.47, -44756.617, 0.00044321027, 10.000741, 9.997868 
1.8850501e+3, 3.0603713e+2, 249017.33, -55948.5, -131200.88, 0.28680378, 0.022776393, 297692.84, 297692.84, 0.0011140514, 10.0024185, 9.9984455 
1.8850374e+3, 3.160357e+2, 847546.0, 309846.75, 24338.564, 0.10315337, -0.018498968, 848645.44, 848645.44, 0.0020106253, 10.006197, 9.999119 
1.8951899e+3, 1.2606081e+2, -1852780.0, -1474337.8, -1207.3896, 0.07144393, 0.26633775, -1474333.9, 230277.44, 0.16258536, 9.997414, 10.003206 
1.8951811e+3, 1.3605817e+2, -1905582.9, -1636398.9, 101619.586, 0.11990137, -0.19182177, -1602344.6, 4284.4854, 0.110513955, 9.997466, 10.001072 
1.8951717e+3, 1.4606144e+2, -1821699.5, -1731218.6, 87356.72, -0.078510776, 0.13839668, -1678082.8, -169485.23, 0.06108175, 9.998199, 9.999384 
1.8951644e+3, 1.5606087e+2, -1554938.3, -1491505.8, 78331.71, -0.17858924, 0.07377446, -1438713.0, -28103.566, 0.024752133, 9.999119, 9.999901 
1.8951574e+3, 1.6606072e+2, -1415836.1, -1383064.5, -51242.258, -0.118608795, 0.07231273, -1345652.0, -33037.758, 0.0060684755, 9.999392, 9.999858 
1.8951501e+3, 1.7606123e+2, -1337623.9, -1269840.0, -63240.773, 0.04501469, 0.10279633, -1231981.9, -17371.543, 0.0005270964, 9.999167, 10.000064 
1.8951423e+3, 1.860615e+2, -1194032.1, -1088710.0, -7041.529, 0.061205696, 0.09620464, -1088241.4, 28363.977, 0.0000013718216, 9.999218, 10.000609 
1.8951344e+3, 1.9606143e+2, -1069029.4, -990002.25, 34708.953, -0.010164063, -0.00988339, -976922.75, 41678.617, 0.0, 9.999468, 10.0004835 
1.8951271e+3, 2.0606112e+2, -1067556.5, -1208830.3, -8431.184, 0.027623989, 0.04468855, -1067055.1, -146448.2, 0.0, 9.99994, 9.998103 
1.8951203e+3, 2.1606076e+2, -859408.75, -1035385.0, -30409.033, 0.14185296, 0.15961088, -854302.2, -31684.355, 0.0, 10.000623, 9.998281 
1.895113e+3, 2.2605951e+2, -695065.4, -899550.6, -64235.68, 0.220353, 0.20719051, -676561.25, 48070.83, 0.0, 10.001052, 9.998337 
1.8951051e+3, 2.3605765e+2, -530553.6, -753090.94, -41099.65, 0.25940585, 0.14832102, -523205.7, 103443.086, 0.0, 10.00145, 9.9984665 
1.8950969e+3, 2.4605611e+2, -452200.34, -695891.5, -12691.061, 0.18301298, 0.16352424, -451541.2, 77122.15, 0.0, 10.00142, 9.998219 
1.8950884e+3, 2.5605476e+2, -380004.94, -601268.6, -8033.967, 0.041858356, 0.16707581, -379713.63, 50963.082, 0.0, 10.001232, 9.998271 
1.8950805e+3, 2.660524e+2, -241297.86, -569050.56, -41295.4, -0.040848717, 0.14996128, -236174.9, 96525.44, 0.0000000071100716, 10.001861, 9.997525 
1.8950723e+3, 2.7604946e+2, 60591.01, -334077.22, -49177.063, -0.11088433, 0.061453585, 66626.36, 301355.88, 0.0000064443307, 10.003124, 9.99784 
1.895065e+3, 2.860487e+2, 124303.2, -152616.73, -70895.234, -0.058911435, 0.1527388, 141398.03, 278135.56, 0.0000894982, 10.002423, 9.998768 
1.8950589e+3, 2.9604894e+2, -69373.06, -203456.08, -4736.603, 0.1596813, 0.24755864, -69205.945, -30470.209, 0.00040204544, 10.000462, 9.998684 
1.8950535e+3, 3.060475e+2, 146925.53, -181888.03, 3211.7068, 0.36477262, 0.30129477, 146956.89, 146956.89, 0.001023062, 10.002073, 9.997734 
1.8950437e+3, 3.160464e+2, 638155.2, 38948.902, 191779.84, 0.06792031, 0.35657018, 694278.9, 694278.9, 0.0018605974, 10.005568, 9.997528 
1.9051869e+3, 1.260691e+2, -2026526.3, -1461618.5, -202041.72, 0.107647285, 0.16151205, -1396795.8, 307729.28, 0.1713416, 9.995842, 10.004124 
1.9051786e+3, 1.3606545e+2, -1849360.0, -1748535.6, -50515.22, 0.080246285, -0.30519593, -1727581.4, -121025.58, 0.11689223, 9.998497, 9.99978 
1.9051722e+3, 1.460694e+2, -1704330.4, -1703554.1, 7133.8223, 0.12608021, 0.1820433, -1696797.9, -188279.08, 0.06499328, 9.999115, 9.999136 
1.9051638e+3, 1.5606819e+2, -1597535.4, -1497167.3, 32865.13, -0.124698676, 0.039273556, -1487363.4, -76826.72, 0.026617203, 9.998738, 10.000053 
1.9051564e+3, 1.6606814e+2, -1533467.6, -1472154.3, -34589.785, -0.11954468, 0.05304976, -1456591.0, -144049.55, 0.0066676727, 9.998721, 9.999572 
1.9051498e+3, 1.7606911e+2, -1320672.3, -1289717.8, -33959.473, 0.08727563, 0.1571082, -1267874.9, -53340.06, 0.0006122247, 9.9994135, 9.999801 
1.9051422e+3, 1.8606903e+2, -1110699.8, -1081963.5, 5937.3345, 0.10296728, 0.14297213, -1080785.0, 35748.52, 0.0000017786746, 9.999941, 10.00031 
1.905134e+3, 1.9606805e+2, -933396.94, -955340.9, -57750.8, -0.036712363, -0.019522596, -885585.06, 132952.78, 0.0, 10.000533, 10.000216 
1.905127e+3, 2.0606747e+2, -922690.3, -1119851.4, -69676.4, -0.012019515, 0.01384337, -900552.5, 19991.973, 0.0, 10.000875, 9.998251 
1.9051209e+3, 2.1606718e+2, -769092.6, -979258.44, -41527.83, 0.1242723, 0.1217358, -761184.5, 61367.926, 0.0, 10.001196, 9.998385 
1.9051144e+3, 2.26066e+2, -666397.1, -889032.7, -44354.277, 0.24857447, 0.17163935, -657886.06, 66679.5, 0.0, 10.001249, 9.998319 
1.9051073e+3, 2.3606423e+2, -571078.56, -780124.7, -53352.734, 0.34388816, 0.12342185, -558249.25, 68332.75, 0.0, 10.001188, 9.998412 
1.9050987e+3, 2.4606256e+2, -464151.78, -712765.3, -7594.5684, 0.23268238, 0.13545434, -463920.0, 64678.047, 0.0, 10.001404, 9.998095 
1.9050893e+3, 2.5606075e+2, -283313.44, -561706.0, -24329.92, -0.018986303, 0.10708186, -281203.13, 149412.52, 0.0, 10.001926, 9.9982 
1.9050822e+3, 2.6605868e+2, -214131.67, -526145.75, 9948.337, -0.05432875, 0.10256811, -213814.8, 118822.43, 0.000000016068412, 10.001918, 9.997791 
1.9050759e+3, 2.7605653e+2, -136701.47, -414065.22, 22769.033, 0.02059704, 0.06633856, -134844.77, 99815.22, 0.000006020835, 10.001666, 9.998008 
1.9050683e+3, 2.8605577e+2, 68234.23, -204012.9, -45772.14, 0.05428148, 0.16726023, 75723.73, 212391.14, 0.00007835106, 10.002143, 9.998551 
1.9050604e+3, 2.9605573e+2, 322395.66, -34012.15, -109186.984, 0.12575223, 0.25710672, 353185.6, 391853.03, 0.00035541624, 10.003243, 9.998502 
1.9050567e+3, 3.0605322e+2, 433661.3, -71912.98, 13621.903, 0.3813728, 0.22326246, 434028.06, 434028.06, 0.000923281, 10.004171, 9.997486 
1.9050506e+3, 3.16052e+2, 472158.1, -155536.3, 123087.5, 0.2557602, 0.30760294, 495431.94, 495431.94, 0.0017138573, 10.004827, 9.996598 
1.9151837e+3, 1.2607194e+2, -2131277.3, -1642040.5, -180297.75, 0.14388539, -0.1777156, -1582775.0, 121719.805, 0.18042894, 9.99582, 10.00265 
1.9151735e+3, 1.3607253e+2, -1871370.1, -1794358.3, 30946.316, -0.29896474, -0.19922066, -1783464.0, -176972.6, 0.12358676, 9.998508, 9.999454 
1.9151731e+3, 1.4607592e+2, -1636589.4, -1591261.6, -17174.307, 0.26342702, 0.21678926, -1585489.5, -77030.02, 0.069141634, 9.99923, 9.999853 
1.915164e+3, 1.5607443e+2, -1535072.8, -1366611.5, 27638.045, -0.0021193887, -0.04936, -1362193.0, 48281.87, 0.028615344, 9.998729, 10.000963 
1.9151558e+3, 1.6607495e+2, -1516860.4, -1452558.1, -24965.889, -0.092707425, -0.024788542, -1444003.1, -131531.1, 0.0073205116, 9.998785, 9.999673 
1.9151492e+3, 1.7607659e+2, -1331464.1, -1303880.9, -3690.5208, 0.084686875, 0.13598047, -1303395.6, -88936.47, 0.00070924795, 9.999386, 9.999711 
1.9151424e+3, 1.8607618e+2, -1205426.5, -1290130.4, 16620.318, 0.085535936, 0.1726975, -1202282.0, -85817.51, 0.0000023137907, 9.99998, 9.998869 
1.9151343e+3, 1.9607443e+2, -1027860.75, -1131193.1, -27307.607, -0.079787046, 0.07785307, -1021088.06, -2606.525, 0.0, 10.000443, 9.999054 
1.9151273e+3, 2.0607354e+2, -863937.3, -976342.94, -66920.88, -0.09936461, 0.07228195, -832749.25, 87739.66, 0.0, 10.000771, 9.999289 
1.9151214e+3, 2.1607317e+2, -726256.5, -856036.4, -23446.088, 0.01876306, 0.066896625, -722150.6, 100339.61, 0.0, 10.001042, 9.999304 
1.9151147e+3, 2.2607194e+2, -707637.6, -926406.5, -54733.684, 0.13093112, 0.080940165, -694708.0, 29793.252, 0.0, 10.001038, 9.998168 
1.9151075e+3, 2.3607019e+2, -610296.56, -813930.56, -41875.44, 0.2346472, 0.051927008, -602021.5, 24496.963, 0.0, 10.000993, 9.998273 
1.9150996e+3, 2.4606816e+2, -501918.97, -746577.5, 2454.418, 0.15021558, 0.042927787, -501894.34, 26644.533, 0.0, 10.001204, 9.997962 
1.9150911e+3, 2.5606593e+2, -309324.28, -572997.9, 3438.1316, -0.044267748, -0.017753994, -309279.47, 121281.94, 0.0, 10.001746, 9.998207 
1.9150847e+3, 2.6606518e+2, -177634.66, -407712.7, -14087.806, -0.0034238102, 0.058166396, -176775.27, 155794.22, 0.000000038925435, 10.001727, 9.998702 
1.9150794e+3, 2.760653e+2, -123767.8, -336731.47, 29700.313, 0.17407377, 0.15724747, -119703.305, 114865.47, 0.0000054500297, 10.001461, 9.998633 
1.9150715e+3, 2.8606305e+2, -79301.17, -467013.4, -19846.748, 0.117607795, 0.17711677, -78287.88, 58302.215, 0.00006657065, 10.001949, 9.996843 
1.9150622e+3, 2.9605922e+2, 178669.47, -271591.72, -51220.2, -0.036654606, 0.059315056, 184422.6, 223049.28, 0.00030457476, 10.00299, 9.996991 
1.9150592e+3, 3.060546e+2, 407960.44, -61664.336, 23048.574, 0.18598163, -0.13237116, 409088.9, 409088.9, 0.00081276876, 10.00389, 9.9976845 
1.9150546e+3, 3.1605482e+2, 380678.8, -184320.39, 144562.5, 0.13616441, 0.05574076, 415518.7, 415518.7, 0.0015532362, 10.004186, 9.9966755 
1.9251813e+3, 1.2607965e+2, -1848746.6, -1676776.5, -20727.533, 0.20389117, -0.12952931, -1674313.5, 30104.254, 0.18987963, 9.998538, 10.000988 
1.925172e+3, 1.3608019e+2, -1791241.1, -1790803.3, 125471.805, -0.3318189, -0.12330959, -1665550.1, -59131.91, 0.13060497, 9.999183, 9.999164 
1.9251734e+3, 1.460831e+2, -1661945.3, -1610599.0, 22071.406, 0.37068728, 0.25764054, -1602415.6, -94023.91, 0.07352615, 9.999095, 9.999781 
1.9251633e+3, 1.5608136e+2, -1543102.5, -1375541.9, -27967.094, 0.05437819, -0.028479207, -1370997.3, 39411.29, 0.030745408, 9.9987, 10.000914 
1.9251549e+3, 1.6608164e+2, -1482006.0, -1434109.6, -54017.723, -0.056997683, -0.02505706, -1398969.5, -86562.53, 0.008026891, 9.999041, 9.999668 
1.9251496e+3, 1.7608328e+2, -1218816.5, -1261339.3, -62367.938, 0.12432819, 0.13619168, -1174185.5, 40207.55, 0.0008187495, 10.00021, 9.999611 
1.9251429e+3, 1.8608278e+2, -1240458.4, -1376555.1, -22895.943, 0.13982393, 0.20281813, -1236709.8, -120309.8, 0.0000031359323, 10.000031, 9.99825 
1.9251345e+3, 1.9608076e+2, -1246768.6, -1293308.8, -23517.11, -0.03876552, 0.13820784, -1236954.6, -218533.17, 0.0, 9.999174, 9.998549 
1.9251278e+3, 2.0607953e+2, -1090327.3, -1066723.0, -36297.85, -0.04762651, 0.10896259, -1040356.75, -119925.164, 0.0, 9.999136, 9.999458 
1.9251223e+3, 2.1607882e+2, -891414.25, -917152.7, -75774.13, 0.07563428, 0.05428342, -827424.3, -4990.3765, 0.0, 9.999838, 9.999463 
1.9251157e+3, 2.2607748e+2, -777653.8, -960493.5, -110669.74, 0.16550916, 0.049439896, -725527.9, -1082.4017, 0.0, 10.000577, 9.998148 
1.9251083e+3, 2.3607557e+2, -556353.0, -785460.94, -111073.875, 0.20789467, 0.0072269905, -511345.0, 115119.73, 0.0, 10.001352, 9.998296 
1.925101e+3, 2.4607384e+2, -419159.4, -672665.75, -25693.418, 0.15376902, 0.007983112, -416581.53, 111900.74, 0.0, 10.001612, 9.99828 
1.9250935e+3, 2.5607234e+2, -304187.53, -547955.8, -13983.474, 0.029858185, -0.00796171, -303388.0, 127109.664, 0.0, 10.00166, 9.998438 
1.9250873e+3, 2.660717e+2, -156673.1, -405998.0, -46552.42, 0.073486, 0.07791304, -148264.69, 184239.3, 0.000000047147957, 10.001916, 9.99862 
1.9250813e+3, 2.7607143e+2, -964.92346, -288641.66, -99945.195, 0.19210012, 0.14754383, 30349.55, 264856.06, 0.0000044268, 10.002352, 9.998536 
1.9250742e+3, 2.8606847e+2, 68257.2, -444271.6, -61711.605, 0.13584627, 0.12005904, 75582.945, 212117.78, 0.000054025306, 10.003193, 9.996386 
1.9250663e+3, 2.9606393e+2, 369049.6, -234983.75, -42259.293, 0.004355438, -0.018135527, 371991.8, 410570.16, 0.0002523582, 10.004517, 9.996513 
1.9250627e+3, 3.0605948e+2, 392744.5, -48418.164, 35891.14, 0.16616377, -0.17529581, 395645.4, 395645.4, 0.00069489056, 10.003695, 9.997871 
1.9250579e+3, 3.160601e+2, 16459.361, -289718.66, 62150.49, 0.21973985, 0.03651262, 28594.225, 28594.225, 0.0013684693, 10.001302, 9.997371 
1.9351776e+3, 1.2609063e+2, -1952472.1, -1914948.0, -1044.504, -0.085064046, 0.16196175, -1914919.0, -210609.31, 0.1997211, 9.998657, 9.999255 
1.9351733e+3, 1.3608809e+2, -1816061.8, -1825403.8, 142321.25, -0.13580544, -0.09611742, -1678334.9, -71994.83, 0.13795441, 9.999116, 9.998959 
1.935172e+3, 1.4609121e+2, -1707783.0, -1714571.6, -2337.5247, 0.29194063, 0.34190208, -1707055.9, -198742.8, 0.07814733, 9.999127, 9.999054 
1.9351612e+3, 1.5608901e+2, -1606846.6, -1514650.5, -31070.18, -0.041555688, 0.1081738, -1505157.3, -94820.24, 0.033007, 9.998727, 9.999943 
1.9351538e+3, 1.6608806e+2, -1476604.6, -1437867.0, -23676.576, -0.122115955, 0.038636807, -1426646.1, -114298.82, 0.008786739, 9.999102, 9.999617 
1.9351499e+3, 1.7608917e+2, -1226416.8, -1269273.6, -17653.37, 0.12290254, 0.15697873, -1220081.5, -5745.1943, 0.00094156526, 10.000175, 9.999577 
1.9351432e+3, 1.8608889e+2, -1222414.6, -1343744.1, -65067.35, 0.14965189, 0.23362064, -1194118.9, -77779.25, 0.0000044945964, 10.000048, 9.998469 
1.9351342e+3, 1.9608714e+2, -1245104.9, -1283976.1, -41459.55, -0.00747759, 0.1757945, -1218751.5, -200394.27, 0.0, 9.99914, 9.998635 
1.9351278e+3, 2.0608544e+2, -1143983.5, -1166125.0, -20958.531, 0.022346351, 0.13576248, -1131351.5, -210978.75, 0.0, 9.999082, 9.998805 
1.9351235e+3, 2.1608408e+2, -957975.3, -1016483.8, -40552.52, 0.20540111, 0.08235747, -937226.4, -114842.25, 0.0, 9.999673, 9.998862 
1.9351172e+3, 2.2608234e+2, -806672.94, -962682.4, -89405.2, 0.23494364, 0.06038336, -766026.8, -41626.195, 0.0, 10.000336, 9.998245 
1.9351093e+3, 2.3608027e+2, -573343.25, -773624.7, -74343.266, 0.15792103, -0.0073296186, -548764.0, 77657.375, 0.0, 10.00116, 9.998464 
1.9351023e+3, 2.4607961e+2, -397851.1, -583187.0, -37564.695, 0.11687325, 0.05204853, -390526.78, 137901.28, 0.0, 10.001412, 9.998995 
1.9350962e+3, 2.5607988e+2, -293095.56, -482523.03, -3013.0935, 0.11237043, 0.14234598, -293047.66, 137377.47, 0.0, 10.001486, 9.998969 
1.9350894e+3, 2.6607814e+2, -268166.72, -583000.9, -42728.598, 0.06988495, 0.1561881, -262470.75, 69971.375, 0.00000001782158, 10.001689, 9.99751 
1.9350818e+3, 2.7607498e+2, -99309.35, -432827.75, -68745.98, -0.018912375, 0.046954367, -85694.94, 148778.33, 0.0000033385966, 10.002119, 9.997644 
1.9350761e+3, 2.8607222e+2, 88592.1, -363877.2, -32700.479, -0.016422495, 0.042435095, 90943.19, 227442.77, 0.00004416703, 10.003011, 9.997035 
1.9350721e+3, 2.960698e+2, 379910.16, -153380.44, 9916.681, 0.09841276, 0.04228573, 380094.5, 418617.06, 0.00021030295, 10.004274, 9.997186 
1.9350666e+3, 3.0606797e+2, 340446.16, -87627.15, -67003.49, 0.15442872, 0.12000079, 350688.7, 350688.7, 0.00059144275, 10.003395, 9.997746 
1.935059e+3, 3.1606635e+2, 11341.919, -147917.64, 20738.168, 0.14172797, 0.11467658, 13998.063, 13998.063, 0.0011865399, 10.000718, 9.998592 
1.9451769e+3, 1.2609485e+2, -1789476.6, -1908012.9, -132339.47, -0.08368514, 0.17141075, -1703739.8, 529.85583, 0.20999403, 10.000079, 9.998616 
1.9451737e+3, 1.3609298e+2, -1890535.5, -1737531.6, -90509.13, 0.0514535, -0.11155059, -1695524.4, -89233.38, 0.14565058, 9.998041, 10.000094 
1.9451685e+3, 1.4609633e+2, -1871845.5, -1821666.5, -88712.305, 0.085666224, 0.29644442, -1754564.0, -246301.94, 0.083007626, 9.998097, 9.998834 
1.9451609e+3, 1.5609445e+2, -1508915.1, -1523396.9, -115068.01, 0.007728226, 0.14476061, -1400860.4, 9424.74, 0.03539992, 9.99962, 9.999462 
1.9451542e+3, 1.6609323e+2, -1429719.4, -1420146.8, -86151.87, 0.0049509224, 0.0688678, -1338648.4, -26349.885, 0.009600047, 9.999434, 9.999584 
1.9451489e+3, 1.7609404e+2, -1474988.8, -1380242.9, -89925.54, 0.09725807, 0.15746605, -1325975.3, -111685.61, 0.0010784023, 9.99843, 9.999653 
1.9451424e+3, 1.8609369e+2, -1342887.1, -1335308.9, -89285.24, 0.13324517, 0.19077618, -1249732.4, -133441.25, 0.0000066792873, 9.998944, 9.999055 
1.9451351e+3, 1.960919e+2, -994067.0, -1107116.9, -56874.883, 0.09693618, 0.06998517, -970405.75, 47900.25, 0.0, 10.000645, 9.999117 
1.9451289e+3, 2.0609045e+2, -903315.0, -1100820.9, -9523.158, 0.12756209, 0.057594, -902856.94, 17463.291, 0.0, 10.000958, 9.998347 
1.9451235e+3, 2.160894e+2, -865714.5, -1015229.1, -28957.25, 0.20611139, 0.08538955, -860302.1, -37970.004, 0.0, 10.000486, 9.998481 
1.9451174e+3, 2.2608793e+2, -783067.94, -920432.94, -26455.781, 0.23230883, 0.08898944, -778148.9, -53801.97, 0.0, 10.000346, 9.998535 
1.9451107e+3, 2.3608603e+2, -649873.2, -786553.25, -14761.355, 0.21356192, 0.009892809, -648297.2, -21932.293, 0.0, 10.000516, 9.998697 
1.9451044e+3, 2.4608544e+2, -484659.4, -642300.9, 3341.2803, 0.20719106, 0.0782065, -484588.63, 43782.68, 0.0, 10.000919, 9.998821 
1.9450985e+3, 2.5608563e+2, -291345.03, -504326.38, -51961.617, 0.19521077, 0.18113977, -279344.06, 151026.97, 0.0, 10.001599, 9.998766 
1.9450915e+3, 2.660835e+2, -181631.19, -549832.56, -44952.176, 0.099299125, 0.1681073, -176222.63, 156168.98, 0.000000002142629, 10.002307, 9.997442 
1.9450837e+3, 2.760799e+2, 42718.055, -378996.4, -20934.688, -0.0728689, 0.023440018, 43754.742, 278180.28, 0.0000030022966, 10.003114, 9.997558 
1.945079e+3, 2.860772e+2, 113673.89, -313500.66, 47424.535, -0.0142339, 0.015074304, 118875.586, 255326.55, 0.00003904193, 10.0030155, 9.997388 
1.9450764e+3, 2.9607534e+2, 134811.1, -226770.64, 22053.143, 0.21050958, 0.038581293, 136151.16, 174620.36, 0.0001845939, 10.00238, 9.997604 
1.94507e+3, 3.0607462e+2, 147142.47, -199532.97, -87050.72, 0.23374759, 0.21032837, 167773.28, 167773.28, 0.0005147042, 10.002165, 9.99756 
1.9450602e+3, 3.1607217e+2, 321961.4, 79592.79, -31129.283, 0.13067824, 0.16023742, 325895.72, 325895.72, 0.0010263633, 10.00247, 9.999332 
1.9551785e+3, 1.2609343e+2, -1749048.4, -1855034.5, 66724.03, 0.01414418, 0.012127063, -1716833.8, -12547.333, 0.22070916, 10.00018, 9.9989395 
1.955173e+3, 1.36095e+2, -1700947.0, -1397173.8, -129975.32, 0.15224683, -0.15583111, -1349152.5, 257116.61, 0.15369554, 9.99812, 10.002682 
1.9551623e+3, 1.4609846e+2, -1833350.0, -1767641.8, -37725.55, -0.37508795, 0.110036045, -1750469.9, -242231.25, 0.08810495, 9.998207, 9.999149 
1.9551617e+3, 1.5609777e+2, -1510879.3, -1534013.3, -58341.78, 0.092078656, 0.080555715, -1462968.9, -52716.676, 0.037922986, 9.999639, 9.999383 
1.9551559e+3, 1.6609724e+2, -1416643.5, -1409624.4, -136467.64, 0.19161774, 0.077254735, -1276621.1, 35638.465, 0.010466628, 9.999505, 9.999624 
1.955146e+3, 1.7609788e+2, -1459851.4, -1360633.9, -109467.93, -0.040988516, 0.14328933, -1290058.4, -75805.734, 0.0012294218, 9.998471, 9.999769 
1.9551401e+3, 1.8609713e+2, -1266071.1, -1189323.8, -34068.06, -0.028643548, 0.078612566, -1176383.0, -60127.906, 0.000009908067, 9.999007, 10.000024 
1.9551368e+3, 1.9609508e+2, -944848.44, -990279.25, 5254.2134, 0.18140218, -0.16264173, -944248.7, 74019.016, 0.0, 10.000584, 9.999948 
1.9551304e+3, 2.0609435e+2, -940720.25, -1149399.9, -38378.19, 0.15957448, -0.12419497, -933885.94, -13610.112, 0.0, 10.000833, 9.998075 
1.9551219e+3, 2.1609472e+2, -899761.6, -1047782.8, -35016.918, -0.013509254, 0.06644879, -891895.75, -69616.65, 0.0, 10.00033, 9.998328 
1.9551162e+3, 2.260941e+2, -772359.9, -858897.3, -27101.408, 0.047960747, 0.1341636, -764573.06, -40287.207, 0.0, 10.000168, 9.999046 
1.9551119e+3, 2.3609279e+2, -652937.94, -750056.3, 3806.816, 0.27499977, 0.062970355, -652789.0, -26493.352, 0.0, 10.000341, 9.999026 
1.9551064e+3, 2.4609128e+2, -598712.44, -829642.9, 19954.02, 0.29312906, 0.08859865, -597000.94, -68688.1, 0.0, 10.000704, 9.997639 
1.9551001e+3, 2.5608957e+2, -382913.66, -650899.6, -13557.447, 0.18164411, 0.11493187, -382229.53, 48105.914, 0.0, 10.001424, 9.997834 
1.9550936e+3, 2.6608795e+2, -145562.02, -434552.0, -24143.389, 0.04945517, 0.14247826, -143558.88, 188791.67, 0.00000003752054, 10.002121, 9.99833 
1.955087e+3, 2.7608615e+2, 69797.71, -277728.22, 17090.861, -0.08350606, 0.092098266, 70636.195, 304998.97, 0.0000033251551, 10.002923, 9.998345 
1.9550824e+3, 2.8608355e+2, 63330.453, -352622.5, 8416.169, -0.0035130095, 0.060894735, 63500.67, 199888.14, 0.000036409245, 10.002736, 9.997252 
1.9550793e+3, 2.960808e+2, 95588.66, -242750.69, 19204.959, 0.2328348, 0.00678366, 96675.28, 135091.47, 0.00016708692, 10.002114, 9.997614 
1.9550726e+3, 3.0607972e+2, 83089.234, -273102.53, -103149.21, 0.24039437, 0.15194851, 110803.71, 110803.71, 0.00045037686, 10.001888, 9.997198 
1.955063e+3, 3.1607693e+2, 281438.56, 112206.15, 69619.8, 0.12821482, 0.1044568, 306398.0, 306398.0, 0.00087174913, 10.002015, 9.999756 
1.965177e+3, 1.260941e+2, -2278722.3, -2121264.0, 150654.38, 0.02479718, 0.0050949776, -2030007.9, -325726.2, 0.23177752, 9.996673, 9.998767 
1.9651712e+3, 1.3609773e+2, -1538290.8, -1110958.9, -98253.3, 0.16767897, -0.17363463, -1089450.8, 516790.4, 0.1620495, 9.9982395, 10.004935 
1.9651596e+3, 1.461019e+2, -1725404.6, -1663792.4, 18699.889, -0.48721805, 0.02687007, -1658561.0, -150358.9, 0.093428105, 9.998765, 9.999567 
1.9651608e+3, 1.5610243e+2, -1600078.1, -1536098.1, 8.09203, 0.09544825, 0.08358757, -1536098.1, -125894.75, 0.04057487, 9.998888, 9.9997015 
1.965156e+3, 1.6610213e+2, -1448052.9, -1421672.1, -77930.3, 0.27395475, 0.08226213, -1355823.9, -43615.523, 0.011385711, 9.999267, 9.99966 
1.9651458e+3, 1.761021e+2, -1263306.9, -1261274.9, -62986.27, 0.005397345, 0.07785816, -1199296.4, 14911.252, 0.0013940044, 9.999801, 9.999813 
1.9651398e+3, 1.8610162e+2, -1118682.9, -1110328.1, 28018.184, -0.008950278, 0.032679297, -1086177.6, 30031.191, 0.000014255441, 9.999977, 10.000101 
1.9651373e+3, 1.9610046e+2, -1004717.75, -1007425.06, -18724.342, 0.19642124, -0.12605451, -987298.2, 30916.459, 0.0, 10.0001135, 10.000058 
1.9651312e+3, 2.0610018e+2, -994037.94, -1121792.1, -72493.87, 0.1909682, -0.077570096, -961293.9, -41074.695, 0.0, 10.000225, 9.998559 
1.9651225e+3, 2.1610051e+2, -864294.5, -984912.5, -31411.285, 0.015625903, 0.063304596, -856604.7, -34382.547, 0.0, 10.000353, 9.998755 
1.9651169e+3, 2.2610001e+2, -663186.3, -795927.44, 17049.277, 0.06793072, 0.11820155, -661031.5, 63195.477, 0.0, 10.000887, 9.99913 
1.9651127e+3, 2.3609878e+2, -437522.78, -649389.56, -7726.8267, 0.25336114, 0.05445854, -437241.38, 188993.25, 0.0, 10.00182, 9.999011 
1.9651075e+3, 2.4609686e+2, -446563.97, -812903.06, 33138.797, 0.26581734, 0.06783859, -443590.38, 84665.99, 0.0, 10.00197, 9.99715 
1.9651014e+3, 2.5609463e+2, -386722.78, -699850.7, 28075.537, 0.15231657, 0.08991258, -384225.38, 46060.527, 0.0, 10.001588, 9.997425 
1.9650957e+3, 2.6609308e+2, -220913.7, -431034.9, 42630.875, 0.08089634, 0.12687846, -212593.88, 119706.53, 0.00000006167767, 10.001444, 9.998678 
1.9650902e+3, 2.7609175e+2, -113017.25, -329470.13, 11158.673, 0.025743913, 0.08985191, -112443.516, 121863.93, 0.000003603985, 10.001526, 9.998653 
1.9650854e+3, 2.860895e+2, -53928.863, -395184.13, 10229.123, 0.08373153, 0.074646145, -53622.52, 82705.84, 0.00003430298, 10.001874, 9.997371 
1.9650812e+3, 2.960872e+2, 147635.28, -211994.78, 3890.5059, 0.21839708, 0.06397366, 147677.38, 186030.03, 0.00015136057, 10.002431, 9.997685 
1.9650751e+3, 3.060848e+2, 204740.78, -170681.8, -64221.715, 0.29203904, 0.055884007, 215422.92, 215422.92, 0.0003913985, 10.0025215, 9.997608 
1.9650649e+3, 3.1608304e+2, 273595.38, 68870.09, 93736.07, 0.10818556, 0.080718644, 310029.56, 310029.56, 0.0007265236, 10.002075, 9.999462 
1.9751729e+3, 1.260978e+2, -2296174.5, -2223262.3, -126471.53, -0.13213329, 0.21002656, -2128097.3, -423851.03, 0.24301729, 9.99691, 9.997978 
1.9751677e+3, 1.3610117e+2, -1435086.3, -910000.9, -42242.73, -0.033208363, -0.17779633, -906624.2, 699582.8, 0.17062773, 9.998279, 10.006631 
1.9751601e+3, 1.4610663e+2, -1679168.4, -1591156.0, 6779.622, -0.3671071, 0.042403273, -1590636.8, -82483.67, 0.09895461, 9.998847, 10.000033 
1.9751583e+3, 1.5610822e+2, -1550562.0, -1446021.4, 12109.7295, -0.0700676, 0.14354266, -1444637.0, -34495.65, 0.04335473, 9.998933, 10.000304 
1.9751541e+3, 1.6610762e+2, -1425038.0, -1387758.0, -68495.086, 0.13919209, 0.07627359, -1335411.9, -23264.342, 0.012356995, 9.999335, 9.999857 
1.9751471e+3, 1.7610659e+2, -1259481.3, -1251759.3, -38263.72, 0.14389844, -0.03967237, -1217162.1, -3006.1892, 0.0015709848, 9.999802, 9.999876 
1.975141e+3, 1.8610696e+2, -1172260.0, -1224989.4, 20975.504, 0.083879374, 0.04242206, -1164934.0, -48780.133, 0.000019593592, 9.999988, 9.999312 
1.975136e+3, 1.9610782e+2, -1056189.5, -1094613.4, -4322.983, 0.042477865, 0.16204078, -1055709.1, -37560.19, 0.0, 10.000032, 9.999497 
1.9751307e+3, 2.0610763e+2, -932303.0, -962327.8, -74767.67, 0.097619854, 0.18165368, -871055.44, 49096.965, 0.0, 10.000093, 9.999715 
1.9751249e+3, 2.161069e+2, -821789.94, -854491.44, -16454.066, 0.19624276, 0.100356996, -814944.06, 7215.9375, 0.0, 10.000175, 9.999734 
1.975119e+3, 2.2610568e+2, -725290.0, -877354.4, 40138.953, 0.16990109, 0.063894935, -715345.3, 8824.381, 0.0, 10.00067, 9.99868 
1.9751129e+3, 2.3610395e+2, -486916.72, -715434.25, 33546.023, 0.07228571, -0.009856078, -482094.0, 144088.47, 0.0, 10.001657, 9.998637 
1.9751073e+3, 2.4610229e+2, -466066.38, -809954.0, 8983.053, 0.026649645, 0.037231717, -465831.88, 62369.477, 0.0, 10.001776, 9.997269 
1.9751017e+3, 2.5610077e+2, -401661.5, -696320.56, 25672.104, 0.01980591, 0.11824415, -399441.53, 30781.611, 0.0, 10.001438, 9.997522 
1.9750972e+3, 2.6609886e+2, -276149.3, -493278.97, 32787.125, 0.06418828, 0.1293112, -271306.38, 60936.004, 0.000000055759365, 10.001219, 9.998356 
1.9750932e+3, 2.7609664e+2, -156242.95, -369867.38, 28728.7, 0.14965676, 0.02802991, -152446.9, 81813.09, 0.0000036492006, 10.001326, 9.998462 
1.975088e+3, 2.8609523e+2, -67192.555, -380217.84, 14864.045, 0.1281509, 0.09091026, -66488.32, 69783.97, 0.00003270768, 10.001676, 9.99758 
1.9750822e+3, 2.9609442e+2, 140899.83, -184740.64, 42497.008, 0.045872517, 0.20295137, 146354.44, 184634.8, 0.00013942833, 10.002254, 9.997957 
1.9750772e+3, 3.0608997e+2, 191245.83, -101871.766, -97452.57, 0.21534856, -0.06007417, 220688.4, 220688.4, 0.00034788088, 10.00213, 9.998262 
1.9750676e+3, 3.1608987e+2, 138677.88, -82244.23, 125827.734, 0.12774162, 0.061148133, 195651.19, 195651.19, 0.0006197176, 10.001568, 9.998646 
1.9851702e+3, 1.2610345e+2, -2209337.0, -2053694.5, -49476.46, -0.08272054, 0.19435634, -2039298.3, -335110.25, 0.25424254, 9.996938, 9.999146 
1.9851658e+3, 1.3610616e+2, -1493182.6, -1033084.5, 85098.02, -0.054324422, -0.18144968, -1017849.56, 588305.1, 0.17932345, 9.998266, 10.005673 
1.98516e+3, 1.4611074e+2, -1699105.8, -1589281.0, 17861.035, -0.229352, 0.0005706282, -1586449.3, -78340.99, 0.104643695, 9.998664, 10.00014 
1.9851564e+3, 1.5611206e+2, -1534645.6, -1407329.0, -14348.534, -0.15931909, 0.046443433, -1405731.9, 4365.075, 0.046255346, 9.998912, 10.000588 
1.9851525e+3, 1.6611153e+2, -1460837.1, -1424618.5, -91227.23, 0.0477857, -0.018034326, -1349720.6, -37617.48, 0.013380272, 9.999183, 9.99967 
1.9851476e+3, 1.7611052e+2, -1282288.3, -1283334.1, -107675.37, 0.21280685, -0.112391025, -1175134.5, 38978.883, 0.0017591557, 9.999736, 9.999692 
1.9851418e+3, 1.8611129e+2, -1272017.3, -1279014.5, -40699.293, 0.20314434, 0.017013978, -1234666.4, -118556.62, 0.0000256483, 9.999317, 9.999265 
1.9851358e+3, 1.961127e+2, -1288545.6, -1210751.0, -27429.379, 0.10618714, 0.19645287, -1202052.4, -183950.7, 0.0, 9.998433, 9.999477 
1.9851305e+3, 2.0611271e+2, -1132583.1, -1022422.94, -63717.324, 0.14455755, 0.21947649, -993278.9, -73175.164, 0.0, 9.998567, 10.00004 
1.9851252e+3, 2.1611193e+2, -895725.25, -856844.4, -86421.09, 0.24662441, 0.102858596, -787704.1, 34406.9, 0.0, 9.999528, 10.000032 
1.9851196e+3, 2.2611079e+2, -794305.2, -877613.94, -327.48138, 0.20980944, 0.045163814, -794303.9, -70184.766, 0.0, 10.000057, 9.998969 
1.9851139e+3, 2.3610924e+2, -664920.7, -769244.7, 23646.174, 0.07856153, -0.038860753, -659811.25, -33681.906, 0.0, 10.000301, 9.998914 
1.9851087e+3, 2.4610785e+2, -566596.7, -819546.8, 35191.43, 0.038819794, 0.006508563, -561791.94, -33647.965, 0.0, 10.000952, 9.9975815 
1.9851035e+3, 2.561065e+2, -308217.38, -629268.56, 38989.676, 0.038167916, 0.07838163, -303550.16, 126611.91, 0.0, 10.001992, 9.997714 
1.9850993e+3, 2.661044e+2, -171665.5, -499124.84, 45713.02, 0.11896456, 0.0930708, -165403.73, 166780.25, 0.00000004684117, 10.002177, 9.997855 
1.9850957e+3, 2.7610192e+2, -117604.15, -405326.3, 1493.5746, 0.24868767, 0.018517552, -117596.39, 116611.07, 0.000003631824, 10.00181, 9.9979925 
1.9850905e+3, 2.8610045e+2, -20987.838, -329817.63, 21697.957, 0.20497178, 0.083837435, -19470.822, 116749.39, 0.000030883682, 10.001894, 9.997808 
1.9850844e+3, 2.960994e+2, 154650.75, -164975.33, 5738.0547, 0.037149534, 0.1549443, 154753.73, 192981.64, 0.00012822116, 10.002319, 9.998048 
1.9850801e+3, 3.0609465e+2, 314509.66, -57264.906, -155510.39, 0.25668678, -0.12931205, 370980.7, 370980.7, 0.00031412422, 10.003012, 9.998142 
1.9850713e+3, 3.160948e+2, 423051.72, 16298.643, -99021.12, 0.25101233, 0.02693886, 445876.84, 445876.84, 0.00054942287, 10.003628, 9.998343 
1.9951673e+3, 1.2611143e+2, -1949580.3, -1587293.3, -301571.9, -0.14746599, -0.0222407, -1416643.4, 287459.8, 0.26535824, 9.997096, 10.002826 
1.9951648e+3, 1.3611282e+2, -1729763.1, -1485958.8, 129138.71, -0.0017195937, -0.18226205, -1430274.5, 175809.3, 0.18805622, 9.998323, 10.001909 
1.9951594e+3, 1.461142e+2, -1697299.3, -1616349.6, 12849.696, -0.20401964, -0.104114436, -1614358.9, -106290.7, 0.11045076, 9.99879, 9.999899 
1.9951545e+3, 1.56114e+2, -1531731.3, -1405992.4, 3086.1628, -0.26538727, -0.21008345, -1405916.6, 4153.658, 0.04926506, 9.998936, 10.0005865 
1.9951504e+3, 1.661139e+2, -1492602.4, -1502948.4, -81652.164, -0.10375324, -0.20149182, -1415959.5, -103884.836, 0.014456319, 9.999231, 9.99911 
1.9951467e+3, 1.7611387e+2, -1311357.9, -1342835.6, -87450.87, 0.13388515, -0.14422831, -1238240.9, -24160.8, 0.0019582892, 9.999729, 9.999286 
1.9951417e+3, 1.8611445e+2, -1222159.9, -1182046.1, -80921.98, 0.24299984, -0.05132033, -1118732.5, -2654.4575, 0.000032105352, 9.999351, 9.999914 
1.9951363e+3, 1.961152e+2, -1254752.3, -1131522.6, -45454.49, 0.29827437, -0.003915206, -1116570.5, -98497.766, 0.0, 9.998405, 10.00003 
1.9951302e+3, 2.0611553e+2, -1180374.9, -1105299.1, -39593.05, 0.23142928, 0.053730756, -1088277.9, -168205.4, 0.0, 9.99849, 9.99951 
1.9951233e+3, 2.1611553e+2, -940746.3, -919295.4, -42836.93, 0.08511409, 0.0689832, -885861.6, -63785.93, 0.0, 9.999394, 9.999666 
1.9951186e+3, 2.2611526e+2, -755675.06, -754551.44, 3224.5686, 0.07757253, 0.059889995, -751840.1, -27764.35, 0.0, 9.99987, 9.999904 
1.9951154e+3, 2.3611468e+2, -627711.9, -653883.0, 48583.39, 0.17355444, -0.022036025, -590482.6, 35591.93, 0.0, 10.000135, 9.999784 
1.9951113e+3, 2.4611342e+2, -576342.8, -787356.3, 61762.34, 0.17027196, -0.02321305, -559594.6, -31509.24, 0.0, 10.000722, 9.997917 
1.9951065e+3, 2.5611174e+2, -315410.0, -603061.4, 81064.51, 0.11415535, -0.022360537, -294137.88, 135965.66, 0.0, 10.001817, 9.997976 
1.9951019e+3, 2.6610973e+2, -260141.64, -630471.8, 20257.94, 0.14037888, 0.030232223, -259036.78, 73089.19, 0.000000042002604, 10.001956, 9.997059 
1.9950974e+3, 2.7610755e+2, -198955.08, -523464.47, 3915.412, 0.22262645, 0.062961, -198907.84, 35242.855, 0.0000035134383, 10.001609, 9.997271 
1.9950923e+3, 2.8610492e+2, -61671.98, -363155.7, 23050.03, 0.16662592, 0.05436929, -59919.867, 76254.11, 0.00002820436, 10.001667, 9.997692 
1.995087e+3, 2.9610187e+2, 108363.125, -212512.14, 38988.656, 0.050152972, -0.07864927, 113032.58, 151230.61, 0.00011358975, 10.002102, 9.997827 
1.9950834e+3, 3.060987e+2, 174656.03, -239113.45, -145142.23, 0.25037357, -0.13549891, 220491.61, 220491.61, 0.00027761376, 10.002571, 9.997092 
1.9950742e+3, 3.1609893e+2, 328849.47, -52239.477, -103016.5, 0.12318146, 0.105838396, 354914.3, 354914.3, 0.0004898738, 10.003124, 9.998091 
2.0051649e+3, 1.2611909e+2, -1773230.9, -1437048.4, -311917.53, -0.12522332, -0.12994993, -1250813.1, 453209.44, 0.27641812, 9.998001, 10.00374 
2.0051634e+3, 1.361183e+2, -1887510.0, -1863522.6, 83980.375, 0.021004926, -0.2152824, -1790683.8, -184654.75, 0.1968332, 9.998626, 9.99893 
2.0051585e+3, 1.4611891e+2, -1706496.8, -1605436.0, 20944.117, -0.15932275, -0.07319251, -1601267.4, -93245.89, 0.11636926, 9.9986725, 10.00002 
2.0051539e+3, 1.561179e+2, -1526233.5, -1390043.4, 1472.8693, -0.20018762, -0.27734113, -1390027.5, 20002.336, 0.05238356, 9.998906, 10.000716 
2.0051497e+3, 1.6611819e+2, -1531352.5, -1496939.6, -25649.236, -0.076242484, -0.24508308, -1483260.0, -171230.23, 0.015589432, 9.998846, 9.999343 
2.0051457e+3, 1.7611945e+2, -1413472.0, -1369728.0, 10461.721, 0.104387484, -0.0910539, -1367354.8, -153331.34, 0.0021699998, 9.998916, 9.999497 
2.0051411e+3, 1.8611954e+2, -1201583.3, -1186456.8, 19097.5, 0.24031818, -0.04529164, -1173479.4, -57454.137, 0.00003871999, 9.999575, 9.999767 
2.0051365e+3, 1.9611882e+2, -905838.56, -985499.5, -25205.81, 0.3379115, -0.12895642, -898533.06, 119500.16, 0.0, 10.00091, 9.999822 
2.00513e+3, 2.0611909e+2, -869709.25, -994364.3, -28018.313, 0.2685157, -0.047810465, -863701.25, 56332.895, 0.0, 10.000794, 9.999158 
2.0051228e+3, 2.1611995e+2, -899701.1, -935058.56, -34025.016, 0.07657563, 0.086065434, -879036.1, -57005.254, 0.0, 9.999826, 9.999352 
2.0051186e+3, 2.2611962e+2, -751081.5, -761228.4, 5945.511, 0.08837404, 0.09326062, -748339.0, -24306.41, 0.0, 9.999952, 9.999815 
2.0051162e+3, 2.3611847e+2, -517062.2, -596866.06, -48260.355, 0.22199902, -0.03666199, -494344.44, 131693.63, 0.0, 10.000897, 9.999805 
2.0051126e+3, 2.4611752e+2, -444562.16, -643281.5, -29760.492, 0.22983532, -0.048016965, -440200.9, 87843.41, 0.0, 10.0012455, 9.998669 
2.0051081e+3, 2.5611666e+2, -368641.78, -563300.5, -1524.8518, 0.14691316, -0.0399973, -368629.84, 61421.89, 0.0, 10.00115, 9.998576 
2.005104e+3, 2.6611468e+2, -322549.3, -717135.94, -23620.908, 0.16352122, 0.017636972, -321140.34, 10933.78, 0.000000029896977, 10.001775, 9.996545 
2.0050998e+3, 2.7611178e+2, -31716.996, -497903.75, -47967.793, 0.22974631, 0.032687355, -26832.576, 207275.8, 0.0000031274246, 10.002974, 9.996795 
2.005095e+3, 2.8610885e+2, 123226.05, -240455.52, -4814.263, 0.22156635, -0.0018471706, 123289.76, 259424.27, 0.000025154262, 10.002787, 9.998 
2.0050898e+3, 2.961059e+2, 46684.273, -225815.28, -1364.1254, 0.15627158, -0.14450075, 46691.1, 84846.91, 0.00009776422, 10.001607, 9.997975 
2.0050853e+3, 3.0610344e+2, 65365.41, -324962.78, -63341.008, 0.23803665, -0.11779071, 75386.86, 75386.86, 0.0002403355, 10.001941, 9.996828 
2.0050775e+3, 3.1610116e+2, 361830.66, -8660.272, -80899.82, 0.15754244, -0.09445694, 378725.4, 378725.4, 0.00043342356, 10.0032, 9.998383 
2.0151627e+3, 1.2612541e+2, -1899528.4, -1674034.3, -12825.629, -0.20029275, -0.20915988, -1673307.1, 30648.975, 0.28771394, 9.99803, 10.001289 
2.0151615e+3, 1.3612232e+2, -2013128.6, -2135898.8, 86671.91, -0.05823613, -0.2936387, -1968305.6, -362313.03, 0.20582092, 9.998673, 9.997046 
2.015157e+3, 1.4612482e+2, -1659832.5, -1532715.4, 19960.836, -0.21801479, 0.09191618, -1529654.6, -21686.389, 0.12247417, 9.998767, 10.000478 
2.0151544e+3, 1.5612356e+2, -1504647.1, -1351258.0, 13152.545, -0.07350089, -0.16337942, -1350138.4, 59838.65, 0.055639356, 9.99892, 10.000991 
2.0151497e+3, 1.6612436e+2, -1445177.9, -1336872.0, -36235.727, 0.0025035192, -0.15086783, -1325867.0, -13897.7705, 0.016791714, 9.998924, 10.000407 
2.0151442e+3, 1.7612709e+2, -1351206.3, -1242556.3, 22531.363, 0.04652501, 0.04645062, -1238069.1, -24124.459, 0.0023981123, 9.998926, 10.000365 
2.0151395e+3, 1.8612647e+2, -1262811.3, -1326842.8, 53123.098, 0.09152574, 0.035045795, -1232802.3, -116849.38, 0.000045425786, 9.999622, 9.998786 
2.0151354e+3, 1.9612347e+2, -981970.3, -1123974.3, 20277.176, 0.13864614, -0.17724872, -979131.6, 38852.863, 0.0, 10.000828, 9.998911 
2.0151299e+3, 2.0612338e+2, -899386.75, -1024630.7, -75384.78, 0.1422882, -0.08145747, -864006.8, 55982.26, 0.0, 10.000663, 9.999015 
2.0151232e+3, 2.1612519e+2, -944785.6, -989984.6, -54229.777, 0.13182041, 0.16646032, -908634.75, -86658.18, 0.0, 9.999668, 9.99905 
2.0151192e+3, 2.2612382e+2, -861354.9, -948442.06, 32177.725, 0.12806861, 0.15155998, -850755.56, -126765.07, 0.0, 9.99976, 9.998629 
2.0151165e+3, 2.3612046e+2, -599066.9, -737193.2, -6350.281, 0.13805866, -0.08461198, -598775.5, 27245.508, 0.0, 10.000755, 9.998916 
2.0151128e+3, 2.4611995e+2, -397157.94, -489581.2, -39955.605, 0.10033118, -0.07875527, -382279.75, 145742.9, 0.0, 10.001017, 9.999831 
2.0151085e+3, 2.561212e+2, -329043.38, -435491.72, 9068.907, 0.04150457, 0.028354555, -328276.28, 101730.34, 0.0, 10.000968, 9.999537 
2.015105e+3, 2.6611903e+2, -376375.34, -782656.06, 11598.543, 0.06435704, 0.04497237, -376044.47, -44013.957, 0.0000000091701935, 10.001572, 9.996196 
2.0151024e+3, 2.7611464e+2, -73945.56, -539925.56, 3346.7612, 0.1634831, -0.057006523, -73921.53, 160158.64, 0.0000023642951, 10.002779, 9.9966 
2.0150979e+3, 2.861124e+2, 117044.664, -191003.4, -65153.184, 0.21205604, -0.046363838, 130258.01, 266358.28, 0.000021595964, 10.002526, 9.998461 
2.0150924e+3, 2.961112e+2, 50210.96, -184850.03, -21871.38, 0.2257922, -0.061963234, 52228.676, 90333.125, 0.000083873885, 10.001448, 9.998337 
2.0150855e+3, 3.061084e+2, 24016.375, -320084.63, -30713.818, 0.03183289, -0.09374952, 26736.332, 26736.332, 0.00020822523, 10.001582, 9.997017 
2.0150791e+3, 3.1610343e+2, 331141.9, 102100.15, -20822.256, -0.04842444, -0.38404614, 333019.47, 333019.47, 0.0003832048, 10.002522, 9.999432 
2.0251605e+3, 1.2612933e+2, -1966007.6, -1794604.8, -6738.449, -0.21343103, -0.10064203, -1794340.1, -90421.42, 0.29983783, 9.998029, 10.0003605 
2.0251617e+3, 1.3612509e+2, -1780987.0, -1920694.0, 22023.936, 0.03085768, -0.37119687, -1777597.3, -171630.3, 0.21537028, 9.999826, 9.997958 
2.0251569e+3, 1.4613046e+2, -1446223.1, -1425224.0, 1652.6117, -0.16552308, 0.23149583, -1425094.8, 82819.7, 0.12892798, 10.000235, 10.000596 
2.0251533e+3, 1.5612839e+2, -1555565.6, -1400220.4, -59337.375, -0.057180393, -0.08403297, -1380148.6, 29781.973, 0.05909158, 9.998686, 10.000756 
2.0251487e+3, 1.6612804e+2, -1477580.5, -1357793.8, -102034.03, 0.024113772, -0.1686373, -1299373.3, 12559.763, 0.018083457, 9.998749, 10.000337 
2.0251442e+3, 1.7613022e+2, -1156386.1, -1150631.9, -144956.4, 0.089903675, -0.01814578, -1008524.06, 205388.72, 0.0026487417, 10.000309, 10.000319 
2.0251395e+3, 1.8613024e+2, -1169257.1, -1253165.5, -102912.21, 0.11012575, 0.021418223, -1100075.9, 15838.562, 0.000052423693, 10.000132, 9.999045 
2.0251347e+3, 1.9612826e+2, -1234741.8, -1229888.4, -59370.652, 0.07365106, -0.11273115, -1172894.9, -154958.88, 0.0, 9.999002, 9.999068 
2.0251295e+3, 2.0612775e+2, -1066106.4, -1138726.5, -91833.37, 0.09875939, -0.0523185, -1003665.3, -83721.2, 0.0, 9.999667, 9.998705 
2.025124e+3, 2.1612819e+2, -685597.0, -905139.0, -104121.17, 0.15266383, 0.09201606, -644070.6, 177872.75, 0.0, 10.0016165, 9.99869 
2.0251201e+3, 2.2612639e+2, -637007.75, -897227.2, 6479.3267, 0.16926473, 0.075988874, -636846.56, 87115.56, 0.0, 10.001548, 9.998112 
2.025117e+3, 2.3612317e+2, -710187.4, -842726.44, -640.32056, 0.14617002, -0.09638491, -710184.25, -84191.055, 0.0, 10.000218, 9.998442 
2.0251136e+3, 2.4612269e+2, -539332.44, -560671.1, -38117.1, 0.1179458, -0.06537423, -510419.63, 17577.15, 0.0, 10.000067, 9.99979 
2.0251095e+3, 2.561238e+2, -354404.25, -441117.1, -92388.1, 0.06786267, 0.03784834, -295705.1, 134278.95, 0.0, 10.000767, 9.999594 
2.025107e+3, 2.6612225e+2, -325271.53, -625769.2, -18208.809, 0.11221382, 0.04544191, -324172.2, 7828.2803, 0.000000001074916, 10.001346, 9.997387 
2.0251049e+3, 2.7611905e+2, -150380.9, -460902.03, 52836.41, 0.21654001, -0.054048385, -141636.81, 92397.695, 0.0000018159459, 10.00177, 9.997622 
2.0251009e+3, 2.8611723e+2, 61515.69, -278277.3, -27375.836, 0.26541132, -0.01716339, 63707.125, 199758.69, 0.000018189116, 10.002383, 9.997934 
2.0250948e+3, 2.9611596e+2, 269261.66, -102112.516, -83336.24, 0.24634366, 0.012499851, 287104.97, 325165.78, 0.000072171526, 10.003063, 9.998118 
2.0250867e+3, 3.06113e+2, 326998.2, -55485.49, -25047.334, -0.06547119, -0.09351195, 328631.47, 328631.47, 0.00017992307, 10.003086, 9.998146 
2.0250815e+3, 3.161111e+2, 296563.66, 40491.566, 5812.5806, -0.033392183, -0.15446426, 296695.53, 296695.53, 0.0003355793, 10.002402, 9.999103 
2.0351583e+3, 1.2613057e+2, -1915775.1, -1735076.8, 81280.88, -0.3155829, 0.14454941, -1703895.9, 17.400837, 0.3135409, 9.998195, 10.000702 
2.0351629e+3, 1.3612634e+2, -1540986.3, -1437682.4, 89114.37, 0.1425115, -0.46327227, -1386332.9, 219622.25, 0.22593072, 9.999838, 10.001608 
2.035158e+3, 1.4613558e+2, -1443027.0, -1440324.8, -56051.27, -0.13425933, 0.34527192, -1385608.4, 122254.195, 0.13594478, 10.00034, 10.000431 
2.0351505e+3, 1.5613233e+2, -1592641.1, -1484199.5, -106333.42, -0.22883457, -0.035459578, -1419060.9, -9169.959, 0.06282382, 9.998727, 10.000143 
2.0351464e+3, 1.6612928e+2, -1549989.8, -1529861.8, -58932.547, -0.1328194, -0.29783583, -1480140.1, -168219.22, 0.019494196, 9.998835, 9.999116 
2.0351453e+3, 1.7612895e+2, -1214524.1, -1277157.4, -88333.73, 0.13526534, -0.2800095, -1152120.0, 61806.42, 0.0029308582, 10.000324, 9.999442 
2.0351407e+3, 1.8613093e+2, -1063861.8, -1042517.6, -151501.63, 0.17266864, -0.09079494, -901312.6, 214596.38, 0.00006041413, 10.000167, 10.000477 
2.0351338e+3, 1.9613324e+2, -1154683.8, -1054183.6, -81255.96, 0.050592713, 0.06498679, -1008895.25, 8992.482, 0.0, 9.998965, 10.000293 
2.0351285e+3, 2.0613208e+2, -1111822.5, -1214981.4, -29203.516, 0.007482445, 0.034562685, -1104129.0, -184228.89, 0.0, 9.999589, 9.998218 
2.0351249e+3, 2.1612902e+2, -733586.7, -969520.9, -36036.195, 0.04720804, -0.12824076, -728205.3, 93725.74, 0.0, 10.001465, 9.998321 
2.035121e+3, 2.2612739e+2, -664080.6, -892800.25, -51702.934, 0.09233432, -0.12050162, -652936.0, 71011.125, 0.0, 10.001298, 9.998259 
2.0351174e+3, 2.3612651e+2, -742171.2, -864111.2, -29670.629, 0.15134718, -0.06740295, -735334.94, -109379.6, 0.0, 10.000037, 9.998378 
2.0351142e+3, 2.4612553e+2, -659014.6, -762891.0, -20174.691, 0.15634574, -0.010903896, -655233.9, -127265.55, 0.0, 9.999864, 9.998503 
2.035111e+3, 2.5612453e+2, -431083.1, -569123.8, -55953.195, 0.1320812, -0.002035134, -411252.06, 18732.031, 0.0, 10.000624, 9.998789 
2.035109e+3, 2.6612434e+2, -181850.61, -265132.38, -10094.651, 0.17055902, 0.035432417, -180644.5, 151339.69, 0.000000023664393, 10.001094, 9.999976 
2.0351076e+3, 2.7612457e+2, -28284.66, -165847.03, 81332.05, 0.27378172, 0.017572952, 9450.601, 243426.13, 0.0000019634658, 10.0015955, 9.99973 
2.0351033e+3, 2.8612283e+2, -87302.88, -518262.03, -16606.041, 0.24974144, 0.05529452, -86663.95, 49329.39, 0.000016146072, 10.002097, 9.996421 
2.0350969e+3, 2.9612005e+2, 173762.34, -253442.81, -42659.496, 0.11494033, 0.079452395, 177980.55, 216006.4, 0.00006227005, 10.002849, 9.997189 
2.035088e+3, 3.0611706e+2, 376033.22, 171410.2, -69250.875, -0.27323622, -0.09938679, 397266.56, 397266.56, 0.00015436458, 10.002584, 9.999926 
2.0350856e+3, 3.161209e+2, 118418.43, -180430.9, 166764.6, 0.091561384, 0.2500203, 192909.28, 192909.28, 0.00029086813, 10.001823, 9.997831 
2.0451589e+3, 1.2613058e+2, -1719114.6, -1724481.4, 71106.94, -0.1467825, 0.15758094, -1650640.5, 53276.258, 0.3294151, 9.999971, 10.000022 
2.0451617e+3, 1.3612822e+2, -1787018.6, -1376011.1, 66755.44, 0.19218251, -0.44150707, -1365440.6, 240498.02, 0.23787552, 9.997145, 10.003496 
2.045156e+3, 1.4613853e+2, -1871505.9, -1618114.8, -121674.586, -0.18150893, 0.37123623, -1569150.3, -61316.246, 0.14372098, 9.997238, 10.000631 
2.0451507e+3, 1.5613465e+2, -1444900.8, -1400601.1, -139922.3, -0.12975891, -0.0862477, -1281086.4, 128780.73, 0.06692591, 9.999695, 10.000288 
2.0451467e+3, 1.6613147e+2, -1394241.1, -1455053.4, -14317.639, -0.02986138, -0.37040052, -1391038.8, -79141.125, 0.021061258, 9.999907, 9.999109 
2.0451443e+3, 1.7613128e+2, -1433339.0, -1393777.0, 15568.898, 0.08445041, -0.33694923, -1388385.0, -174483.1, 0.003256253, 9.998864, 9.999348 
2.04514e+3, 1.8613341e+2, -1221119.1, -1137550.4, -77835.6, 0.14395574, -0.11307603, -1090992.8, 24890.674, 0.00007088071, 9.999182, 10.000298 
2.0451345e+3, 1.9613594e+2, -937543.56, -965612.5, -138829.94, 0.1440501, 0.08049429, -812040.5, 205820.64, 0.0, 10.000543, 10.000132 
2.0451297e+3, 2.061345e+2, -924201.5, -1139903.8, -73209.29, 0.09674, 0.035438288, -901701.3, 18175.098, 0.0, 10.000935, 9.9980955 
2.0451257e+3, 2.1613085e+2, -832112.0, -1020533.3, -80841.27, 0.02247792, -0.17126116, -802181.8, 19730.188, 0.0, 10.000814, 9.998284 
2.0451221e+3, 2.2612953e+2, -699375.2, -882351.1, -111246.41, 0.083570965, -0.14516656, -646829.06, 77095.55, 0.0, 10.00093, 9.998513 
2.0451187e+3, 2.3612931e+2, -558885.06, -758507.06, -97273.86, 0.21644269, -0.050347846, -519324.47, 106601.805, 0.0, 10.001209, 9.998545 
2.0451152e+3, 2.4612811e+2, -544870.3, -752617.6, -7645.8047, 0.23651314, -0.0017859332, -544589.25, -16647.05, 0.0, 10.000831, 9.998108 
2.0451117e+3, 2.5612643e+2, -537216.1, -648576.25, 3052.914, 0.16714588, -0.020107767, -537132.5, -107166.71, 0.0, 10.000022, 9.998525 
2.0451096e+3, 2.6612642e+2, -251985.31, -234558.03, 32641.53, 0.16729595, 0.012856635, -209487.1, 122476.15, 0.00000011200642, 10.000309, 10.000572 
2.0451085e+3, 2.7612734e+2, -31554.521, -110272.59, -46681.184, 0.22851977, 0.0055919643, -9854.023, 224091.7, 0.000002326167, 10.001313, 10.000253 
2.045105e+3, 2.861259e+2, -95078.984, -509837.47, -113638.305, 0.22100219, 0.041963305, -65984.516, 69977.13, 0.000014696717, 10.001983, 9.996535 
2.0450994e+3, 2.9612315e+2, 98634.04, -276178.63, -68248.195, 0.11394082, 0.06365432, 110674.32, 148671.28, 0.00005375532, 10.002287, 9.997298 
2.045091e+3, 3.0612117e+2, 323395.94, 134601.97, -141923.78, -0.2083203, -0.013236616, 399448.78, 399448.78, 0.00013253847, 10.002264, 9.999816 
2.045088e+3, 3.1612456e+2, 217850.05, -128027.164, -2105.7966, 0.1151132, 0.32015428, 217862.86, 217862.86, 0.00025389736, 10.002428, 9.997909 
2.0551616e+3, 1.2613042e+2, -1829740.0, -1978788.8, -283061.3, 0.038972225, 0.0070570987, -1611557.0, 92361.85, 0.3476065, 10.000174, 9.998239 
2.055158e+3, 1.3613133e+2, -1772468.8, -1369263.8, 10037.902, 0.07408902, -0.27441588, -1369014.0, 236897.05, 0.2513395, 9.997203, 10.003555 
2.0551512e+3, 1.461393e+2, -1828846.9, -1547932.9, -39953.727, -0.4666381, 0.28608444, -1542360.9, -34532.168, 0.15236652, 9.997319, 10.001072 
2.0551531e+3, 1.5613559e+2, -1378568.0, -1276151.1, -48094.207, 0.1125665, -0.23209602, -1257107.5, 152749.55, 0.071473114, 9.999713, 10.001169 
2.0551492e+3, 1.6613472e+2, -1316271.3, -1312975.3, -64836.02, 0.20113562, -0.380863, -1249766.3, 62096.46, 0.022826005, 9.999987, 10.000057 
2.0551412e+3, 1.7613694e+2, -1392697.4, -1309642.5, -9170.367, -0.13948216, -0.1900061, -1308642.0, -94800.51, 0.0036400491, 9.998863, 9.9999275 
2.0551372e+3, 1.8613745e+2, -1333557.0, -1388408.9, -36109.93, -0.09325995, -0.057218067, -1315638.6, -199798.22, 0.00008593674, 9.999246, 9.99855 
2.0551363e+3, 1.9613627e+2, -1040083.75, -1181687.4, -86678.33, 0.2486623, -0.06589319, -998965.8, 18891.652, 0.0, 10.000544, 9.998655 
2.0551324e+3, 2.0613489e+2, -921991.5, -1116556.3, -85814.3, 0.23557563, -0.05154653, -889551.25, 30322.557, 0.0, 10.000855, 9.998293 
2.0551263e+3, 2.1613353e+2, -840940.75, -1004019.1, -72225.53, -0.013959125, -0.0510424, -813552.6, 8335.552, 0.0, 10.00066, 9.998473 
2.0551226e+3, 2.2613244e+2, -715496.25, -855857.8, -108789.13, 0.014875174, -0.027426038, -656215.0, 67683.625, 0.0, 10.000681, 9.998813 
2.0551203e+3, 2.361314e+2, -560371.7, -717504.2, -81131.37, 0.24131571, -0.04746542, -526000.06, 99907.66, 0.0, 10.001026, 9.998911 
2.0551161e+3, 2.4613033e+2, -551594.06, -702988.44, -49770.45, 0.23534565, -0.029591069, -536697.9, -8778.345, 0.0, 10.00057, 9.998569 
2.0551111e+3, 2.5612926e+2, -546491.0, -623873.6, -10334.729, 0.08137641, -0.030551847, -545134.56, -115201.94, 0.0, 9.999849, 9.998773 
2.0551084e+3, 2.661283e+2, -378526.84, -443732.75, 60495.56, -0.009666891, -0.031184498, -342408.16, -10467.731, 0.00000017468948, 10.000081, 9.999245 
2.0551074e+3, 2.7612734e+2, -129474.18, -273492.38, 2474.1123, -0.023982389, -0.09085256, -129431.69, 104513.69, 0.0000023499456, 10.001135, 9.999219 
2.0551054e+3, 2.8612635e+2, -47131.473, -326430.53, -112632.07, 0.032378796, -0.044003975, -7370.9272, 128586.16, 0.000012296112, 10.00164, 9.997953 
2.0551018e+3, 2.9612496e+2, 137256.97, -144921.06, -42967.242, 0.10288661, -0.036226314, 143654.55, 181630.44, 0.000044415407, 10.002072, 9.9983 
2.055095e+3, 3.0612424e+2, 100401.914, -214523.38, -169921.92, -0.06882361, 0.08852631, 174602.7, 174602.7, 0.00011238554, 10.001806, 9.997624 
2.0550884e+3, 3.1612313e+2, 174351.14, -60316.883, 145233.16, -0.13224413, 0.15392998, 243725.3, 243725.3, 0.00022330374, 10.001779, 9.998677 
2.0651628e+3, 1.2613533e+2, -1805873.5, -1934647.3, -26109.213, 0.1695374, -0.044905104, -1800781.1, -96912.945, 0.36771804, 10.000011, 9.998469 
2.0651573e+3, 1.361355e+2, -1646382.9, -1465738.5, 70794.76, 0.19902438, -0.2585956, -1441300.1, 164566.98, 0.26616043, 9.998903, 10.001885 
2.0651494e+3, 1.4614135e+2, -1801276.4, -1571608.9, 111446.695, -0.3739803, 0.19846763, -1526420.4, -18614.756, 0.1618756, 9.997649, 10.000756 
2.0651531e+3, 1.5613791e+2, -1521245.5, -1342849.3, 22650.908, 0.19497348, -0.29100809, -1340018.1, 69814.13, 0.07651462, 9.998719, 10.00116 
2.0651497e+3, 1.6613802e+2, -1419604.3, -1368353.4, -112175.76, 0.29388985, -0.34244922, -1278913.4, 32916.066, 0.024829434, 9.999302, 10.000001 
2.0651409e+3, 1.7614076e+2, -1326554.5, -1292778.4, -135363.38, -0.07738739, -0.09313541, -1173253.6, 40550.332, 0.0041003036, 9.999387, 9.999787 
2.0651367e+3, 1.8614022e+2, -1254310.5, -1413220.0, -56738.95, -0.08338391, -0.02221632, -1236131.4, -120318.7, 0.000108260756, 10.000075, 9.99797 
2.0651364e+3, 1.9613747e+2, -940639.1, -1185590.1, -53236.016, 0.18815927, -0.13516611, -929569.44, 88275.43, 0.0, 10.00146, 9.99818 
2.065133e+3, 2.0613612e+2, -875003.2, -1092020.0, -84488.24, 0.21727909, -0.09691917, -845989.5, 73871.69, 0.0, 10.001167, 9.998305 
2.0651272e+3, 2.1613568e+2, -956591.9, -1059536.8, -98054.29, 0.05335551, -0.003591786, -897321.1, -75453.625, 0.0, 9.999868, 9.998469 
2.065123e+3, 2.2613467e+2, -824935.5, -902487.7, -82777.0, 0.05489473, 0.025138007, -772302.5, -48424.508, 0.0, 9.99988, 9.998891 
2.0651203e+3, 2.3613322e+2, -603930.3, -731072.5, -92905.46, 0.17170325, -0.043508638, -554928.3, 70963.44, 0.0, 10.000692, 9.998982 
2.0651168e+3, 2.461322e+2, -433103.0, -660821.9, -97197.45, 0.18348579, -0.016642965, -397258.34, 130644.086, 0.0, 10.001445, 9.998441 
2.065112e+3, 2.5613126e+2, -217557.42, -482219.75, -124803.92, 0.09666006, 0.009007739, -167988.73, 261924.08, 0.0, 10.002176, 9.998626 
2.0651093e+3, 2.6612967e+2, -217128.3, -413164.06, -25065.959, 0.009390769, -0.02589172, -213974.02, 117952.84, 0.00000012472299, 10.001397, 9.998818 
2.0651074e+3, 2.7612773e+2, -361496.94, -418401.9, -32136.395, -0.065912485, -0.1426389, -347027.5, -113084.51, 0.0000018192295, 9.99969, 9.998916 
2.0651059e+3, 2.8612706e+2, -213753.73, -333199.28, -79074.336, 0.013162063, -0.080099575, -174382.81, -38432.777, 0.000008845643, 10.000169, 9.998622 
2.065104e+3, 2.961269e+2, 145016.97, -91931.336, -120251.555, 0.12386812, -0.017374976, 195352.06, 233307.95, 0.000033872344, 10.001913, 9.998742 
2.0650989e+3, 3.0612576e+2, 151624.42, -231883.02, -206877.92, 0.1356296, 0.06994105, 241948.64, 241948.64, 0.00009226444, 10.002276, 9.997317 
2.0650901e+3, 3.161226e+2, 192673.4, -11016.451, 168687.23, -0.12183933, -0.04244358, 287876.13, 287876.13, 0.00019349625, 10.00168, 9.999095 
2.075162e+3, 1.26145e+2, -1691580.9, -1642349.0, 198277.08, -0.016895423, -0.0153080085, -1467165.6, 236602.38, 0.38886976, 10.0000305, 10.001029 
2.0751587e+3, 1.3614035e+2, -1852733.1, -1900060.0, -6386.183, 0.40903467, -0.4030574, -1851886.6, -246076.05, 0.28190908, 9.99908, 9.9984665 
2.0751506e+3, 1.4614448e+2, -1851140.9, -1705053.1, 116464.67, -0.04357146, 0.113899946, -1640621.8, -132854.6, 0.17213808, 9.997776, 9.999782 
2.0751505e+3, 1.5614136e+2, -1570509.0, -1448108.9, 70429.27, 0.023670945, -0.26697996, -1416004.4, -6208.898, 0.08207624, 9.99876, 10.000375 
2.0751478e+3, 1.6614106e+2, -1473650.3, -1497583.5, -119645.72, 0.12695031, -0.27087486, -1365374.1, -53573.87, 0.027111659, 9.9993725, 9.999077 
2.0751429e+3, 1.7614271e+2, -1372096.9, -1396479.3, -122251.27, 0.16806348, -0.042462375, -1261430.4, -47641.465, 0.0046569863, 9.999426, 9.999055 
2.0751387e+3, 1.8614185e+2, -1208319.8, -1339075.5, -12392.599, 0.05635035, 0.00065619795, -1207155.6, -91355.96, 0.00014131474, 10.000165, 9.998435 
2.0751353e+3, 1.9613932e+2, -924146.06, -1137298.6, -5584.439, -0.10961056, -0.13171081, -923999.9, 93825.38, 0.0000000002137382, 10.001399, 9.998543 
2.0751315e+3, 2.061379e+2, -905017.5, -1127879.0, -143864.03, -0.061613154, -0.10876286, -834476.6, 85364.94, 0.0, 10.00105, 9.998116 
2.075128e+3, 2.1613713e+2, -985637.25, -1092801.1, -127824.66, 0.12509455, -0.031977635, -900618.44, -78766.12, 0.0, 9.999746, 9.998301 
2.0751235e+3, 2.2613607e+2, -867027.9, -934459.2, -55972.324, 0.08987036, 0.004621436, -835401.0, -111536.414, 0.0, 9.999656, 9.998771 
2.0751189e+3, 2.3613478e+2, -647170.2, -775797.56, -49988.813, -0.0753551, -0.036505114, -630027.56, -4149.1157, 0.0, 10.000511, 9.998757 
2.0751162e+3, 2.4613357e+2, -521152.6, -787474.8, -75277.87, -0.047369223, 0.024241615, -501347.56, 26544.924, 0.0, 10.001207, 9.997682 
2.0751147e+3, 2.561324e+2, -287818.7, -585035.75, -96666.125, 0.10783416, 0.098050915, -259145.44, 170761.52, 0.0, 10.001995, 9.998003 
2.0751119e+3, 2.6613054e+2, -230420.95, -376702.1, -101513.42, 0.09180414, 0.042169735, -178443.52, 153479.47, 0.000000021824269, 10.001131, 9.999194 
2.0751078e+3, 2.7612814e+2, -360167.47, -373222.5, -68363.766, -0.010029752, -0.15721622, -298020.28, -64079.387, 0.00000084431264, 9.999523, 9.999301 
2.0751062e+3, 2.861277e+2, -269872.0, -383371.13, -27416.664, -0.0021330637, -0.08765503, -263596.28, -127651.15, 0.000005133315, 9.999888, 9.998409 
2.0751052e+3, 2.9612842e+2, 98447.96, -145596.55, -48751.06, 0.046861976, 0.092985675, 107826.22, 145767.3, 0.000023723636, 10.001708, 9.998479 
2.0751023e+3, 3.0612576e+2, 153081.63, -79975.93, -246993.72, 0.22826074, -0.022896938, 309655.13, 309655.13, 0.00007269625, 10.001695, 9.998612 
2.0750913e+3, 3.1612366e+2, 66721.46, -76022.04, 115171.57, -0.21169096, -0.18665962, 130842.945, 130842.945, 0.0001604348, 10.000933, 9.998964 
2.0851599e+3, 1.2614857e+2, -2043978.5, -1593252.3, 92900.47, 0.0014604117, 0.031310145, -1574855.3, 128879.234, 0.40993002, 9.996114, 10.003259 
2.0851602e+3, 1.3614382e+2, -1584067.8, -1800546.0, -191954.75, 0.5462251, -0.35931426, -1471938.3, 133834.66, 0.29801235, 10.001359, 9.998154 
2.0851518e+3, 1.4614525e+2, -1310258.4, -1487448.8, -15033.845, 0.07871698, -0.068096235, -1308991.9, 198764.3, 0.18298064, 10.002078, 9.999222 
2.0851491e+3, 1.5614352e+2, -1536399.4, -1500516.8, -63907.523, 0.014038706, -0.24485432, -1452080.0, -42305.945, 0.088167645, 9.999292, 9.999765 
2.0851468e+3, 1.6614343e+2, -1506208.9, -1518348.4, -126717.76, 0.09785729, -0.19367713, -1385415.5, -73637.71, 0.029713616, 9.999162, 9.999046 
2.0851436e+3, 1.7614397e+2, -1114631.9, -1269907.4, -89446.91, 0.20244303, -0.077684335, -1073828.3, 139948.86, 0.005333032, 10.001178, 9.999086 
2.0851396e+3, 1.8614289e+2, -1074046.0, -1285315.9, 3056.53, 0.101328775, -0.05475382, -1074001.8, 41788.184, 0.00018960002, 10.001132, 9.998348 
2.0851357e+3, 1.9614087e+2, -1133132.0, -1243598.0, -44283.016, -0.129884, -0.12648089, -1117571.9, -99761.03, 0.000000020895914, 9.999988, 9.998496 
2.0851319e+3, 2.0613953e+2, -1006791.5, -1134928.6, -161899.56, -0.09240116, -0.1102747, -896744.44, 23080.85, 0.0, 10.000192, 9.998477 
2.0851281e+3, 2.161386e+2, -720225.4, -928582.75, -125786.23, 0.1079057, -0.08599956, -661078.06, 160758.25, 0.0, 10.001427, 9.998612 
2.085124e+3, 2.2613783e+2, -599181.94, -841664.0, -24528.688, 0.08781457, -0.01801384, -596725.56, 127120.85, 0.0, 10.001636, 9.998465 
2.0851193e+3, 2.3613706e+2, -565062.06, -765776.0, -50269.95, -0.08475595, 0.023844495, -553175.56, 72681.49, 0.0, 10.001181, 9.998514 
2.085117e+3, 2.4613559e+2, -594915.75, -818171.5, -24204.027, -0.0387904, 0.064896084, -592321.9, -64448.574, 0.0, 10.000673, 9.99773 
2.0851159e+3, 2.5613356e+2, -547352.94, -717025.44, -5648.871, 0.13609709, 0.052946143, -547165.06, -117270.75, 0.0, 10.000228, 9.997955 
2.0851131e+3, 2.6613164e+2, -327294.7, -482102.47, -22637.781, 0.14911519, 0.025745599, -324052.25, 7860.073, 0.0, 10.000717, 9.998669 
2.0851092e+3, 2.7612972e+2, -59706.195, -278837.25, -82530.67, 0.045458145, -0.07272465, -32100.602, 201828.8, 0.000000115745564, 10.001805, 9.998849 
2.085107e+3, 2.861291e+2, -31305.568, -227948.39, -11754.162, 0.01945678, -0.021451699, -30605.465, 105329.414, 0.0000020138657, 10.00134, 9.998777 
2.0851058e+3, 2.9612938e+2, -154946.81, -220196.75, -22386.26, 0.0087731145, 0.07943194, -148004.95, -110072.96, 0.000014504671, 9.9997835, 9.998883 
2.0851037e+3, 3.0612734e+2, -34557.13, -158338.31, -188092.53, 0.28224647, -0.0036630188, 101565.53, 101565.53, 0.000053401807, 10.0003, 9.998768 
2.085094e+3, 3.161259e+2, 211297.38, -32767.16, -96295.05, -0.059930265, -0.10052861, 244714.81, 244714.81, 0.00012548068, 10.00192, 9.99883 
2.0951556e+3, 1.2614377e+2, -1929650.5, -1466382.5, 193143.3, -0.11827103, -0.11014249, -1396423.0, 307365.94, 0.42994058, 9.996291, 10.004866 
2.0951614e+3, 1.3614592e+2, -1415938.1, -1422187.6, -22884.184, 0.50547314, -0.11888994, -1395966.3, 209787.31, 0.31401625, 10.001344, 10.001231 
2.0951521e+3, 1.4614353e+2, -1320371.1, -1522877.6, -112128.3, -0.14278075, -0.35170618, -1270545.0, 237228.19, 0.19429262, 10.00213, 9.999 
2.0951492e+3, 1.5614435e+2, -1555920.3, -1561715.9, -144936.08, 0.052257508, -0.22052526, -1413853.0, -4085.113, 0.094824284, 9.999372, 9.999312 
2.095146e+3, 1.661451e+2, -1429156.6, -1389884.9, -63080.758, 0.07076526, -0.10610802, -1343454.5, -31692.252, 0.032688897, 9.999296, 9.999862 
2.0951423e+3, 1.7614459e+2, -1062147.0, -1163892.3, -22813.477, -0.05043341, -0.18117248, -1057265.9, 156502.48, 0.0061590113, 10.001188, 9.999812 
2.0951396e+3, 1.8614337e+2, -1109471.1, -1369147.9, -53079.516, -0.06152206, -0.17422998, -1099040.4, 16743.506, 0.00026052183, 10.001173, 9.997752 
2.0951374e+3, 1.961421e+2, -1170126.0, -1313457.3, -69969.4, 0.016905252, -0.10872047, -1141633.4, -123832.12, 0.00000016154512, 9.99996, 9.998028 
2.0951334e+3, 2.0614108e+2, -962217.8, -1023199.6, -124783.695, -0.002078962, -0.08728929, -864253.8, 55558.234, 0.0, 10.00011, 9.99928 
2.095128e+3, 2.1614e+2, -698252.25, -846557.5, -78308.02, -0.07773168, -0.1561409, -664558.9, 157261.56, 0.0, 10.001274, 9.999244 
2.0951246e+3, 2.2613971e+2, -665065.4, -925594.3, -50191.887, -0.059641723, -0.043265145, -655730.2, 68095.586, 0.0, 10.001409, 9.997997 
2.095122e+3, 2.3613994e+2, -616343.0, -825421.56, -57766.727, 0.030324524, 0.14407727, -601444.2, 24384.846, 0.0, 10.000983, 9.998199 
2.0951192e+3, 2.461381e+2, -573303.6, -713160.56, -50472.582, 0.06821968, 0.11345775, -556991.3, -29144.494, 0.0, 10.000414, 9.998576 
2.095116e+3, 2.561347e+2, -526146.9, -644693.7, -5959.141, 0.08798664, -0.117195584, -525848.06, -95972.01, 0.0, 10.000103, 9.998513 
2.0951131e+3, 2.6613286e+2, -465052.94, -715293.44, 9622.689, 0.04818713, -0.07732176, -464683.47, -132786.63, 0.0, 10.000502, 9.997167 
2.0951106e+3, 2.7613217e+2, -181942.61, -482084.13, -37328.445, -0.009135419, 0.09284679, -177369.77, 56541.87, 0.0, 10.001593, 9.997553 
2.0951079e+3, 2.8613117e+2, -31590.148, -134101.66, -82152.5, -0.059904836, 0.11987919, 13984.804, 149905.72, 0.00000039293647, 10.000944, 9.999611 
2.0951045e+3, 2.9612985e+2, -124532.3, -102313.27, -46211.434, -0.107205056, -0.029112946, -65894.71, -27967.191, 0.000007667558, 9.999556, 9.9998 
2.0951022e+3, 3.0612904e+2, -200894.31, -358009.7, -135964.88, 0.066932425, 0.014987534, -122424.11, -122424.11, 0.000037309004, 9.999727, 9.997652 
2.0950982e+3, 3.1612808e+2, 111401.45, -29057.227, -55910.945, 0.09856443, 0.09951739, 130939.555, 130939.555, 0.00009604867, 10.001102, 9.999212 
2.105155e+3, 1.2614301e+2, -1470842.3, -1329869.4, 217838.9, -0.033269037, -0.07561612, -1171397.0, 532401.44, 0.44859928, 10.00082, 10.004295 
2.1051611e+3, 1.361473e+2, -1669673.8, -1472063.4, 14407.603, 0.49916366, 0.04935061, -1471018.5, 134727.3, 0.3298663, 9.998584, 10.002109 
2.1051519e+3, 1.4614372e+2, -1680505.3, -1607210.6, -169219.06, -0.2157167, -0.401399, -1470716.0, 37060.152, 0.20615475, 9.998907, 9.999937 
2.1051496e+3, 1.5614621e+2, -1356676.3, -1377821.8, -95695.79, 0.12216786, -0.20005552, -1270970.9, 138779.81, 0.10215144, 10.000437, 10.000086 
2.1051465e+3, 1.6614701e+2, -1276225.5, -1386596.3, 33669.492, 0.13328537, -0.08392733, -1266765.3, 44979.08, 0.036114734, 10.000659, 9.999225 
2.1051428e+3, 1.7614563e+2, -1205603.9, -1284177.3, -52571.867, -0.08790083, -0.18333736, -1179260.9, 34499.64, 0.007176738, 10.000417, 9.999353 
2.1051401e+3, 1.8614489e+2, -1187911.8, -1311319.1, -96666.82, -0.05759795, -0.1563247, -1134934.1, -19163.453, 0.0003661867, 10.000229, 9.998603 
2.1051385e+3, 1.9614471e+2, -1077376.5, -1188532.3, -21066.254, 0.11341173, -0.06387211, -1073517.9, -55742.813, 0.00000091193453, 10.00026, 9.998737 
2.1051346e+3, 2.0614374e+2, -877781.3, -1032422.9, -13172.487, 0.080252476, -0.047425676, -876667.3, 43117.773, 0.0, 10.000865, 9.998868 
2.1051294e+3, 2.1614191e+2, -628555.25, -861123.1, -77076.75, -0.09296623, -0.14913425, -605330.1, 216471.63, 0.0, 10.001924, 9.998852 
2.105126e+3, 2.2614108e+2, -634879.7, -915135.25, -109597.4, -0.0641853, -0.067441545, -597110.4, 126701.36, 0.0, 10.001657, 9.997932 
2.1051233e+3, 2.361408e+2, -659520.3, -848696.8, -107218.88, 0.07544739, 0.07600413, -611130.1, 14688.259, 0.0, 10.00071, 9.998157 
2.1051204e+3, 2.4613912e+2, -462944.2, -641860.25, -64654.563, 0.12556301, 0.056761168, -442025.8, 85808.766, 0.0, 10.001088, 9.998747 
2.1051171e+3, 2.5613642e+2, -200564.75, -466141.0, -89789.06, 0.10186839, -0.12041883, -173057.02, 256801.11, 0.0, 10.002262, 9.998694 
2.1051143e+3, 2.6613495e+2, -297610.38, -627676.4, -32875.008, 0.060504306, -0.06155727, -294367.84, 37508.14, 0.0, 10.001592, 9.997259 
2.1051113e+3, 2.7613422e+2, -452783.9, -611966.5, 16119.278, 0.0042811097, 0.10298252, -451168.03, -217277.5, 0.0, 9.999708, 9.997579 
2.105109e+3, 2.8613308e+2, -186370.31, -237025.05, 11763.631, 0.0021069557, 0.1337094, -183771.73, -47869.88, 0.00000006547354, 10.000024, 9.999334 
2.1051063e+3, 2.961314e+2, 181984.45, 14570.484, -83247.16, 0.001601317, -0.014038249, 216332.33, 254246.17, 0.000004738257, 10.001809, 9.999516 
2.105103e+3, 3.061305e+2, 154473.42, -149930.31, -122036.625, 0.0779016, 0.012539944, 197357.05, 197357.05, 0.00002905632, 10.001968, 9.998011 
2.1050994e+3, 3.1613013e+2, 68507.195, -50703.5, -25904.908, 0.15292957, 0.13125049, 73893.086, 73893.086, 0.00007990105, 10.0007715, 9.999234 
2.1151584e+3, 1.2614647e+2, -1578618.4, -1565223.3, -11016.7295, 0.15678099, 0.115983725, -1559028.0, 144733.6, 0.46656317, 10.000925, 10.001374 
2.1151592e+3, 1.3614783e+2, -1756745.6, -1605781.8, -25814.684, 0.39378524, 0.11464704, -1601489.5, 4261.109, 0.34608045, 9.99866, 10.000708 
2.1151507e+3, 1.4614566e+2, -1534087.4, -1369680.3, -95718.38, -0.27631992, -0.23161785, -1325711.6, 182055.16, 0.21890919, 9.99907, 10.00174 
2.1151504e+3, 1.5614894e+2, -1213915.3, -1111316.6, -47910.5, 0.115135096, -0.18237934, -1092423.1, 317301.38, 0.110347085, 10.000564, 10.00206 
2.1151477e+3, 1.66149e+2, -1395142.0, -1656481.4, 10894.077, 0.1514244, -0.13034868, -1394688.6, -82963.1, 0.040102176, 10.000749, 9.997325 
2.1151443e+3, 1.7614709e+2, -1315372.0, -1514783.1, -53127.145, -0.014777771, -0.08291576, -1302101.1, -88347.836, 0.008443992, 10.000426, 9.997764 
2.1151412e+3, 1.8614726e+2, -1031929.3, -995509.3, -106618.47, -0.016841836, -0.014980066, -905556.94, 210195.02, 0.00052604213, 10.000262, 10.000754 
2.1151385e+3, 1.961485e+2, -965674.4, -940864.9, -11115.63, 0.07183386, 0.0051123, -936613.25, 81121.3, 0.0000034897541, 10.000195, 10.000466 
2.1151352e+3, 2.0614724e+2, -1005887.6, -1266558.6, 16503.867, 0.03881408, 0.0026689868, -1004846.9, -85099.56, 0.0, 10.000731, 9.997326 
2.115132e+3, 2.1614428e+2, -749858.75, -1066530.6, -38669.55, -0.039385848, -0.0591417, -745205.06, 76575.16, 0.0, 10.001743, 9.9975195 
2.1151279e+3, 2.2614186e+2, -654143.0, -897503.94, -151538.25, -0.05945663, -0.09185652, -581478.5, 142326.23, 0.0, 10.001406, 9.998174 
2.115123e+3, 2.3613964e+2, -673637.75, -841934.06, -122254.53, -0.033580683, -0.16572043, -609370.7, 16454.889, 0.0, 10.000552, 9.998279 
2.1151203e+3, 2.4613865e+2, -536027.7, -732917.9, -27392.648, 0.0032302788, -0.09441057, -532287.7, -4450.3945, 0.0, 10.000836, 9.998236 
2.1151194e+3, 2.5613844e+2, -248461.75, -520398.16, -48338.363, 0.07633551, 0.026520528, -240124.89, 189718.13, 0.0, 10.002077, 9.998402 
2.115116e+3, 2.661375e+2, -230332.55, -418709.16, -111484.01, 0.052279364, 0.064377874, -178575.25, 153277.13, 0.0, 10.0013, 9.99883 
2.1151109e+3, 2.7613586e+2, -379031.66, -430816.5, -25617.59, -0.029051531, -0.026524894, -368500.47, -134634.27, 0.0, 9.999585, 9.998879 
2.1151094e+3, 2.861344e+2, -345790.25, -501930.8, 65602.375, 0.011254509, 0.0043586097, -321886.8, -186004.5, 0.00000005479561, 9.999743, 9.997647 
2.1151102e+3, 2.961334e+2, 37240.32, -236198.84, -1990.8564, 0.18488672, 0.082585774, 37254.813, 75151.93, 0.0000044706885, 10.001581, 9.997906 
2.1151052e+3, 3.0613145e+2, 148769.81, 34881.57, -186725.7, 0.05430659, 0.0050239987, 287041.28, 287041.28, 0.000027145721, 10.001188, 9.999625 
2.1150984e+3, 3.1613192e+2, -122568.98, -254373.73, 92158.06, -0.09047524, 0.013572548, -75174.266, -75174.266, 0.00007500409, 10.000011, 9.998174 
2.125157e+3, 1.2614739e+2, -1440834.0, -1819702.8, -340396.84, -0.29207775, -0.15922916, -1240710.5, 463035.4, 0.48543465, 10.005113, 9.997583 
2.125157e+3, 1.3615038e+2, -1813444.6, -1772664.1, 83343.07, 0.31329197, 0.083598085, -1707253.3, -101526.74, 0.3637423, 9.99895, 9.999368 
2.1251512e+3, 1.4614901e+2, -1587574.3, -1461301.6, 75699.305, -0.10901543, -0.07173355, -1425865.3, 81873.43, 0.23315269, 9.999023, 10.00099 
2.1251509e+3, 1.5615132e+2, -1124180.8, -1118121.1, -92189.516, 0.05841362, -0.058291804, -1028911.7, 380795.56, 0.1197026, 10.001482, 10.001616 
2.1251485e+3, 1.661507e+2, -1263705.1, -1565135.4, -114518.92, 0.10933003, -0.06979514, -1225133.1, 86580.31, 0.044803485, 10.001551, 9.997582 
2.1251452e+3, 1.7614847e+2, -1298860.5, -1494746.0, -31870.11, 0.053531423, -0.06966759, -1293805.8, -80064.75, 0.01004214, 10.000478, 9.997885 
2.1251419e+3, 1.8614842e+2, -1094740.1, -1033707.75, -85766.13, 0.053161662, -0.023587462, -973190.6, 142549.8, 0.0007722133, 9.999851, 10.000683 
2.1251385e+3, 1.9614938e+2, -1036225.56, -982234.2, -161054.44, 0.06671417, -0.028589414, -845928.6, 171797.11, 0.000010944595, 9.999725, 10.000409 
2.1251358e+3, 2.0614831e+2, -1083726.4, -1289367.9, -73950.47, 0.04505844, -0.013476181, -1059895.0, -140158.33, 0.0, 10.000163, 9.997431 
2.1251336e+3, 2.161459e+2, -831507.7, -1093582.4, -40730.64, -0.017590323, -0.030471314, -825323.44, -3558.7031, 0.0, 10.001149, 9.99761 
2.1251297e+3, 2.2614332e+2, -629984.3, -885362.2, -143563.44, -0.012321448, -0.08795271, -565540.7, 158249.89, 0.0, 10.001551, 9.998199 
2.1251245e+3, 2.3614049e+2, -535225.3, -772611.4, -141032.14, 0.004972559, -0.22267398, -469586.88, 156229.1, 0.0, 10.001499, 9.9983 
2.1251217e+3, 2.4613963e+2, -531188.94, -760256.7, -2333.5247, 0.0397394, -0.124749556, -531165.1, -3337.8184, 0.0, 10.001003, 9.997966 
2.1251206e+3, 2.5613993e+2, -522396.13, -676326.2, -31491.357, 0.07979406, 0.0788526, -516202.72, -86372.0, 0.0, 10.000293, 9.998199 
2.1251172e+3, 2.6613903e+2, -272092.0, -374783.7, -134181.25, 0.07118303, 0.10175635, -179768.08, 152070.36, 0.0, 10.000757, 9.999383 
2.1251118e+3, 2.7613702e+2, -9282.979, -200052.22, -155913.4, 0.0033347197, -0.073484324, 78108.81, 311961.56, 0.0, 10.001927, 9.99933 
2.1251103e+3, 2.8613555e+2, -105628.02, -418191.3, 3499.264, 0.06710288, -0.049086675, -105588.85, 30280.826, 0.000000117451826, 10.001506, 9.997395 
2.1251114e+3, 2.961348e+2, -197359.72, -367108.47, 7043.6143, 0.23468062, 0.08662395, -197067.95, -159182.72, 0.0000050467984, 10.000044, 9.997749 
2.1251069e+3, 3.0613425e+2, 78676.08, 44129.42, -143655.77, 0.1698966, 0.12520662, 206093.27, 206093.27, 0.00002697455, 10.000431, 10.000107 
2.1250996e+3, 3.1613374e+2, 103300.55, -97000.984, -14664.115, -0.026473848, 0.0041961204, 104368.414, 104368.414, 0.00007158717, 10.001255, 9.998714 
2.1351548e+3, 1.3615488e+2, -1904975.1, -1971923.5, -59808.836, 0.15711097, 0.00010260978, -1869910.1, -264235.4, 0.38411817, 9.9990015, 9.997955 
2.1351531e+3, 1.4615367e+2, -1786728.5, -1899064.6, 169910.55, 0.12689464, 0.09746107, -1663942.9, -156249.92, 0.24951555, 9.999178, 9.997766 
2.1351506e+3, 1.5615332e+2, -1287334.8, -1469081.6, -21471.521, -0.14393236, 0.16902791, -1284832.6, 124866.43, 0.13052814, 10.001522, 9.99891 
2.1351482e+3, 1.6615184e+2, -1105375.9, -1245901.6, -162702.39, -0.11441092, 0.07049203, -998413.06, 313297.28, 0.050404422, 10.001637, 9.999764 
2.1351458e+3, 1.761496e+2, -1177386.9, -1243133.8, -64622.418, 0.025740342, -0.15160176, -1137757.0, 75968.34, 0.012084308, 10.000487, 9.999606 
2.1351418e+3, 1.8614833e+2, -1236652.3, -1349556.0, -98607.91, 0.031195, -0.1810439, -1179480.5, -63743.938, 0.001155736, 9.999939, 9.998474 
2.1351378e+3, 1.9614749e+2, -1159700.5, -1240037.0, -154480.48, 0.0027250291, -0.14762801, -1040251.4, -22504.348, 0.000030850606, 9.999727, 9.998642 
2.1351352e+3, 2.0614697e+2, -986938.44, -1062139.3, -48326.387, -0.040895343, -0.09119353, -963307.9, -43554.715, 0.0, 10.000051, 9.999045 
2.135134e+3, 2.1614656e+2, -756411.0, -899205.25, 1079.1094, -0.105717316, -0.06678949, -756402.8, 65354.652, 0.0, 10.000983, 9.999025 
2.135131e+3, 2.2614527e+2, -679037.7, -919616.7, -150582.25, -0.053055756, -0.05195937, -606597.94, 117172.55, 0.0, 10.001274, 9.998091 
2.1351269e+3, 2.361432e+2, -569428.8, -809426.8, -136000.69, 0.09151869, -0.097324155, -508055.44, 117735.42, 0.0, 10.00135, 9.99812 
2.1351235e+3, 2.4614179e+2, -574806.3, -798706.44, -37116.887, 0.09330271, -0.037915822, -568813.7, -41006.117, 0.0, 10.000787, 9.997802 
2.1351203e+3, 2.561407e+2, -555539.06, -712753.7, -38739.17, 0.019420696, 0.03948177, -546511.75, -116689.336, 0.0, 10.000154, 9.9980135 
2.1351172e+3, 2.6613927e+2, -356180.94, -484853.28, -97040.46, -0.0156167885, 0.046511937, -304086.9, 27750.11, 0.0, 10.000495, 9.998746 
2.135114e+3, 2.7613732e+2, -75104.09, -290038.53, -108695.65, -0.007367458, -0.059373617, -29718.623, 204135.25, 0.00000000014169585, 10.00173, 9.998805 
2.1351114e+3, 2.8613597e+2, -92929.13, -295192.4, -61861.44, -0.01326553, -0.0536991, -75509.32, 60360.11, 0.000000256191, 10.001117, 9.998409 
2.1351096e+3, 2.961353e+2, -157286.56, -242712.83, -7638.942, 0.043867666, -0.022845546, -156608.86, -118727.445, 0.0000052967753, 9.999853, 9.998696 
2.1351077e+3, 3.061374e+2, -77084.11, -99572.33, -108970.39, 0.13747627, 0.27536753, 21220.744, 21220.744, 0.000025200057, 9.999738, 9.999417 
2.1351008e+3, 3.1613296e+2, 86184.875, 122059.18, 82569.97, -0.07973483, -0.18442161, 188617.83, 188617.83, 0.00006359548, 10.000252, 10.000662 
2.1451555e+3, 1.3615502e+2, -1659833.5, -1882575.3, -218974.22, 0.25134993, -0.1376038, -1525535.6, 80131.875, 0.40760165, 10.001028, 9.9977045 
2.1451536e+3, 1.4615448e+2, -1528685.4, -1863385.4, 24892.027, 0.1510983, 0.07673213, -1526844.3, -19162.281, 0.26811564, 10.00133, 9.996974 
2.1451509e+3, 1.561527e+2, -1596892.3, -1713529.4, 3365.9343, -0.16573645, 0.09216693, -1596795.1, -187090.13, 0.14296411, 9.999646, 9.998135 
2.145149e+3, 1.661514e+2, -1355806.5, -1336567.6, -146750.08, -0.09498355, 0.033276442, -1199122.1, 112594.44, 0.057087187, 9.999738, 10.000038 
2.145147e+3, 1.7615038e+2, -1115044.9, -1181926.8, -200781.81, 0.09542992, -0.10287669, -944938.2, 268782.94, 0.014719365, 10.0008135, 9.99987 
2.1451429e+3, 1.8614915e+2, -1085516.4, -1311512.0, -190373.66, 0.07088195, -0.1189702, -977130.75, 138601.64, 0.0017550356, 10.001148, 9.998155 
2.1451376e+3, 1.961477e+2, -931487.4, -1157390.6, -128549.23, -0.053283527, -0.11311953, -873316.3, 144432.9, 0.00008036648, 10.001429, 9.998389 
2.1451357e+3, 2.061471e+2, -789638.3, -904972.8, 5133.6836, -0.058843493, -0.07999226, -789410.25, 130345.234, 0.000000018813253, 10.001133, 9.9996 
2.1451356e+3, 2.161471e+2, -775936.94, -851537.0, -37151.723, -0.025476562, -0.07405769, -760736.1, 61018.97, 0.0, 10.000595, 9.999538 
2.1451329e+3, 2.2614664e+2, -709811.75, -902284.75, -177822.56, 0.029648727, -0.0134762665, -603854.44, 119905.875, 0.0, 10.000926, 9.998377 
2.1451284e+3, 2.3614568e+2, -467315.22, -723914.9, -158282.27, 0.08817477, 0.025367832, -391864.9, 233906.5, 0.0, 10.001898, 9.9984455 
2.1451245e+3, 2.4614418e+2, -394514.16, -641704.6, -38492.7, 0.09516627, 0.028443847, -388658.75, 139127.34, 0.0, 10.001717, 9.99844 
2.1451211e+3, 2.5614226e+2, -428494.0, -593784.7, 3965.0352, 0.05375352, -0.039875176, -428398.94, 1405.0253, 0.0, 10.000779, 9.998527 
2.145118e+3, 2.6614082e+2, -438129.53, -593243.75, 28113.926, 0.036636848, -0.024777023, -433191.2, -101371.664, 0.0, 10.000211, 9.998149 
2.145115e+3, 2.7613947e+2, -374958.13, -484736.13, -10127.898, 0.026114596, -0.008220548, -374031.56, -140196.4, 0.00000000016893417, 9.99988, 9.998363 
2.145112e+3, 2.8613842e+2, -236757.08, -309848.1, 5525.321, 0.017471595, 0.012738169, -236341.75, -100493.43, 0.0000002738674, 9.999846, 9.998935 
2.1451093e+3, 2.9613736e+2, -109056.5, -156315.2, -9026.936, 0.020067828, -0.04212051, -107390.95, -69529.0, 0.0000047479944, 9.99992, 9.9992485 
2.1451081e+3, 3.0613953e+2, -31167.766, -143527.9, -49579.64, 0.21090333, 0.25493652, -12418.929, -12418.929, 0.000021563434, 10.000237, 9.998918 
2.145102e+3, 3.161349e+2, 153450.17, 280450.75, 2843.8647, 0.055148203, -0.16280207, 280514.4, 280514.4, 0.000054127435, 10.000107, 10.001827 
2.155159e+3, 1.3615128e+2, -1567866.9, -1707126.9, -57967.97, 0.4047773, -0.26816094, -1546895.4, 58804.414, 0.43279883, 10.001149, 9.998771 
2.1551517e+3, 1.461512e+2, -1426508.0, -1629609.9, -82389.29, -0.25449455, -0.16958804, -1397289.8, 110418.48, 0.28823382, 10.001551, 9.998511 
2.1551514e+3, 1.5614955e+2, -1513502.5, -1569322.8, -38192.938, -0.12280151, -0.2740216, -1494108.6, -84383.85, 0.15688464, 9.999764, 9.999065 
2.1551502e+3, 1.661496e+2, -1437377.0, -1547125.5, -113297.96, 0.016241018, -0.15540501, -1366364.0, -54633.953, 0.06501248, 9.999908, 9.998483 
2.1551487e+3, 1.7615077e+2, -1196409.9, -1351138.0, -161628.94, 0.15513577, 0.079491735, -1094583.8, 119143.945, 0.018139776, 10.000818, 9.998692 
2.155144e+3, 1.8615071e+2, -980151.0, -1105703.3, -191503.98, 0.043312278, 0.15269871, -841396.44, 274332.84, 0.0026903055, 10.001199, 9.999545 
2.155138e+3, 1.9614978e+2, -850411.44, -979635.06, -112493.016, -0.20324306, 0.06720116, -785295.2, 232439.0, 0.00019736934, 10.001395, 9.999618 
2.1551362e+3, 2.0614862e+2, -842421.94, -988684.56, -22832.352, -0.1437081, 0.01636785, -838940.56, 80804.06, 0.0000007869328, 10.00102, 9.999081 
2.1551377e+3, 2.1614733e+2, -823773.25, -918313.75, -43375.4, 0.116442606, -0.05373574, -806888.2, 14870.489, 0.0, 10.000451, 9.999147 
2.1551348e+3, 2.2614723e+2, -704503.5, -835924.25, -148633.89, 0.09528227, 0.024667857, -607702.7, 116058.93, 0.0, 10.000687, 9.998947 
2.1551287e+3, 2.3614769e+2, -444813.38, -635517.1, -118951.36, -0.09985969, 0.14384173, -387713.94, 238045.16, 0.0, 10.001714, 9.99914 
2.1551247e+3, 2.4614659e+2, -340822.3, -459449.28, -81048.21, -0.07962767, 0.07478192, -299702.25, 228062.75, 0.0, 10.001426, 9.999825 
2.1551226e+3, 2.5614434e+2, -372522.2, -441316.78, -20643.625, 0.092276655, -0.16120139, -366803.0, 62974.523, 0.0, 10.000623, 9.999649 
2.1551189e+3, 2.6614332e+2, -516519.53, -698793.9, 8100.123, 0.08672851, -0.11842673, -516160.28, -184371.03, 0.0, 9.999973, 9.997535 
2.1551147e+3, 2.7614295e+2, -433544.13, -572715.06, -7418.6655, 0.0010827291, 0.05318689, -433149.78, -199348.45, 0.0, 9.999729, 9.997833 
2.155112e+3, 2.8614202e+2, -295255.22, -337560.16, -831.5653, -0.0018727795, 0.1131504, -295238.88, -159424.4, 0.000000100631844, 9.999478, 9.998906 
2.1551096e+3, 2.961405e+2, -162296.19, -199948.3, 19088.65, 0.034148484, 0.01238704, -154311.86, -116481.03, 0.0000031808167, 9.999637, 9.9990835 
2.1551074e+3, 3.0613944e+2, -187910.66, -273060.13, -63140.24, 0.06365963, 0.02805115, -154332.27, -154332.27, 0.000016664693, 9.9994545, 9.998373 
2.155102e+3, 3.1613958e+2, 2564.3433, 131410.69, 25321.438, -0.039357815, 0.10731139, 136208.33, 136208.33, 0.00004561872, 9.999427, 10.001119 
2.1651609e+3, 1.3615014e+2, -1581134.3, -1759694.9, 82783.02, 0.4984512, -0.26904035, -1548660.8, 57052.49, 0.45757636, 10.001348, 9.998318 
2.1651518e+3, 1.461505e+2, -1441637.3, -1512221.5, -93000.18, -0.33766407, -0.16354579, -1377457.9, 130261.71, 0.3088363, 10.000866, 9.999738 
2.1651521e+3, 1.5614973e+2, -1282710.0, -1360890.4, -73959.875, -0.08474859, -0.28551227, -1238145.5, 171578.25, 0.17204043, 10.001146, 9.999884 
2.1651511e+3, 1.661505e+2, -1381613.5, -1540288.9, -73612.85, 0.089207985, -0.12432297, -1352723.1, -41000.65, 0.07433442, 10.000346, 9.998332 
2.1651489e+3, 1.7615196e+2, -1338722.6, -1427760.5, -29870.678, 0.16138417, 0.15340306, -1329630.0, -115909.766, 0.022589553, 9.999832, 9.998654 
2.1651448e+3, 1.8615204e+2, -1129220.0, -1111767.8, -36101.273, 0.060647, 0.20987149, -1083353.0, 32367.398, 0.00413868, 9.999899, 10.000125 
2.1651392e+3, 1.9615115e+2, -953221.4, -979817.2, -49715.223, -0.16099538, 0.07908769, -915056.3, 102666.41, 0.00045452762, 10.000473, 10.000071 
2.1651372e+3, 2.0615035e+2, -963266.4, -1050377.0, 17728.398, -0.08992076, 0.04460852, -959796.56, -40066.89, 0.000007502901, 10.000189, 9.999064 
2.165138e+3, 2.1614952e+2, -947421.0, -976769.0, 21762.633, 0.13638555, 0.024596713, -935847.4, -114106.61, 0.0, 9.999594, 9.999168 
2.165135e+3, 2.2614947e+2, -844307.06, -845657.5, -16282.308, 0.12519361, 0.0841466, -828686.0, -104943.555, 0.0, 9.999494, 9.999446 
2.16513e+3, 2.3614983e+2, -693573.75, -708672.7, -19327.945, -0.055435732, 0.14099012, -680373.2, -54633.97, 0.0, 9.999812, 9.999548 
2.1651259e+3, 2.4614877e+2, -563125.94, -595328.94, -75771.19, -0.015748164, 0.07196109, -501764.34, 25980.959, 0.0, 10.000007, 9.999578 
2.1651232e+3, 2.561466e+2, -454689.28, -486505.1, -144868.64, 0.14000715, -0.13117829, -324857.75, 104901.08, 0.0, 10.000101, 9.9995775 
2.1651193e+3, 2.6614588e+2, -408083.88, -572187.2, -72662.13, 0.11530664, -0.09796136, -380535.06, -48768.32, 0.0, 10.000394, 9.998199 
2.165115e+3, 2.7614576e+2, -238392.88, -412427.9, -17837.441, -0.0110952845, 0.034108207, -236583.45, -2809.9526, 0.0, 10.00081, 9.998396 
2.1651125e+3, 2.8614524e+2, -127598.82, -300544.53, 24283.773, 0.04467945, 0.124858685, -124253.766, 11528.442, 0.0000000029805467, 10.000809, 9.998523 
2.1651106e+3, 2.9614428e+2, -74317.47, -190739.27, -15846.785, 0.12859611, 0.13620923, -72199.02, -34405.34, 0.000001345268, 10.000392, 9.998782 
2.165107e+3, 3.0614156e+2, -96128.42, -217507.08, -41057.055, 0.07558573, -0.019366624, -83545.13, -83545.13, 0.000010778314, 10.00001, 9.998492 
2.1651016e+3, 3.1614307e+2, 47652.22, 78901.83, -1389.6183, -0.042593896, 0.21143687, 78963.5, 78963.5, 0.00003608632, 10.000066, 10.000442 
2.1751621e+3, 1.3615242e+2, -1672689.9, -2072425.6, -105216.0, 0.40341294, -0.06335107, -1646687.1, -40988.066, 0.48078975, 10.001722, 9.995846 
2.1751541e+3, 1.4615282e+2, -1395061.1, -1440709.8, -53689.063, -0.2677503, 0.105523884, -1359546.3, 148164.98, 0.32934, 10.00108, 10.000212 
2.175153e+3, 1.5615311e+2, -1255525.3, -1303491.0, -68121.055, -0.14179492, 0.044277005, -1207288.6, 202414.22, 0.18832743, 10.00116, 10.000368 
2.1751507e+3, 1.6615364e+2, -1287544.6, -1370450.3, -102759.0, -0.035030555, 0.1037802, -1218192.5, 93505.4, 0.0852701, 10.000491, 9.999444 
2.1751477e+3, 1.7615394e+2, -1250022.3, -1260164.4, -34242.18, 0.011966082, 0.13392249, -1220477.8, -6778.7515, 0.028395085, 9.9999075, 9.999761 
2.1751443e+3, 1.8615313e+2, -1145315.4, -1167036.0, -23774.998, -0.006151976, 0.070082635, -1130037.6, -14331.459, 0.006367479, 9.999989, 9.9997015 
2.1751411e+3, 1.9615166e+2, -982782.9, -1035624.5, -28818.74, -0.032259364, -0.07343371, -970106.6, 47609.883, 0.0009868387, 10.000445, 9.999697 
2.1751381e+3, 2.0615204e+2, -947058.6, -998268.0, -15560.541, -0.047337875, 0.002302933, -942701.1, -22987.746, 0.000047582707, 10.000103, 9.999467 
2.175136e+3, 2.161534e+2, -937920.7, -922897.2, 9195.044, -0.04506653, 0.15653451, -918535.6, -96832.05, 0.00000000032497088, 9.999448, 9.999607 
2.1751335e+3, 2.2615312e+2, -857835.75, -814436.44, -11393.206, 0.008678948, 0.15500166, -811627.3, -87921.914, 0.0, 9.999243, 9.99978 
2.1751316e+3, 2.3615175e+2, -715711.7, -710480.3, 597.7597, 0.11348226, 0.0076985923, -710412.9, -84697.62, 0.0, 9.99963, 9.999618 
2.1751279e+3, 2.4615034e+2, -735582.4, -878391.56, -81165.1, 0.13133445, 0.0010610517, -698883.4, -171152.98, 0.0, 9.999696, 9.997779 
2.1751232e+3, 2.5614882e+2, -575844.44, -694731.75, -129224.516, 0.098653, 0.02895928, -493047.03, -63297.0, 0.0, 9.999923, 9.998229 
2.1751189e+3, 2.6614818e+2, -321548.6, -318453.7, -65732.58, -0.008354656, 0.031635232, -254250.36, 77503.68, 0.0, 10.0000925, 10.00008 
2.175115e+3, 2.7614775e+2, -158260.28, -201875.08, 7716.7656, -0.11980828, -0.052290086, -156935.22, 76816.84, 0.0, 10.00063, 9.999924 
2.1751128e+3, 2.861476e+2, -241448.0, -446446.2, -3023.0388, -0.03194608, 0.053455617, -241403.44, -105648.24, 0.0, 10.00044, 9.99769 
2.1751113e+3, 2.9614815e+2, -154129.56, -307250.1, -18517.695, 0.13861018, 0.28248638, -151921.95, -114166.18, 0.00000028754212, 10.000182, 9.99808 
2.1751067e+3, 3.061443e+2, -159412.23, -203665.53, -73207.984, -0.009167764, 0.037334777, -105060.15, -105060.15, 0.0000061263827, 9.99945, 9.998825 
2.1751015e+3, 3.1614628e+2, -126807.07, -80533.79, 144719.02, -0.097570896, 0.26358703, 42886.37, 42886.37, 0.000027574106, 9.99924, 9.999723 
2.1851581e+3, 1.4615841e+2, -1424246.6, -1455672.4, 49018.64, 0.0736365, 0.31083897, -1388484.1, 119179.46, 0.34983045, 10.000746, 10.000236 
2.1851534e+3, 1.5615682e+2, -1226645.1, -1363275.1, 48439.57, -0.2473071, 0.1695378, -1211214.5, 198458.0, 0.2059314, 10.001806, 9.999578 
2.1851526e+3, 1.6615586e+2, -1193353.6, -1297144.1, -39241.08, 0.08857472, 0.10817604, -1180187.6, 131492.5, 0.09816949, 10.001111, 9.999637 
2.185148e+3, 1.7615613e+2, -1086384.0, -1148906.5, -47858.285, 0.0074866335, 0.11104821, -1060481.6, 153196.73, 0.036017943, 10.000974, 10.000015 
2.1851438e+3, 1.861555e+2, -1067917.3, -1154150.1, -29180.371, -0.08925821, 0.06363868, -1058971.0, 56712.105, 0.009796201, 10.000602, 9.999503 
2.1851419e+3, 1.9615413e+2, -1032250.4, -1085813.4, -30768.85, 0.015121227, -0.050531667, -1018240.06, -546.42053, 0.0020521113, 10.000198, 9.999472 
2.1851392e+3, 2.061543e+2, -915079.8, -980638.5, -8722.0625, 0.038842954, 0.015752291, -913939.25, 5753.4995, 0.00020967671, 10.000333, 9.999475 
2.1851355e+3, 2.1615535e+2, -707354.4, -806394.44, -40072.496, -0.09851999, 0.13739978, -693171.6, 128513.84, 0.00000086887735, 10.001012, 9.999654 
2.1851331e+3, 2.2615515e+2, -634945.0, -708218.7, -73948.12, -0.033587392, 0.14072685, -589055.56, 134631.33, 0.0, 10.000753, 9.999796 
2.185132e+3, 2.3615405e+2, -661944.2, -677734.4, -95699.0, 0.19118647, 0.02076504, -573815.1, 51879.664, 0.0, 9.999975, 9.999678 
2.1851285e+3, 2.46153e+2, -710164.75, -872808.4, -74366.41, 0.2286291, 0.04853857, -681288.56, -153580.63, 0.0, 9.999895, 9.997722 
2.1851233e+3, 2.5615185e+2, -526388.56, -686233.25, -24695.377, 0.10285837, 0.12586518, -522660.2, -92934.6, 0.0, 10.000306, 9.998115 
2.1851191e+3, 2.6615104e+2, -270397.78, -313995.66, 10095.351, 0.008025114, 0.12052474, -268173.6, 63557.76, 0.0, 10.000502, 9.99993 
2.185116e+3, 2.7614993e+2, -165952.33, -226008.28, -87202.86, -0.061558634, -0.006536658, -103752.23, 129982.055, 0.0, 10.000641, 9.999776 
2.1851137e+3, 2.861492e+2, -205533.92, -434045.28, -116476.91, 0.008727467, 0.047627494, -156629.47, -20888.479, 0.0, 10.000676, 9.997677 
2.1851113e+3, 2.96149e+2, -84379.47, -281271.84, -113378.44, 0.10772255, 0.21335916, -32671.328, 5075.9785, 0.000000027227998, 10.000675, 9.998029 
2.1851072e+3, 3.061459e+2, 65878.55, -40013.027, -113271.57, 0.05171522, 0.013895591, 137967.58, 137967.58, 0.0000044959556, 10.000701, 9.999383 
2.1851014e+3, 3.161487e+2, -10819.476, -80844.81, 23591.902, -0.08758376, 0.30104014, -3612.8977, -3612.8977, 0.000025056477, 10.000155, 9.999345 
2.195163e+3, 1.4616592e+2, -1382017.8, -1369983.3, -99318.23, 0.39023542, 0.4522401, -1276500.1, 231090.34, 0.371045, 10.000808, 10.001151 
2.1951523e+3, 1.5616055e+2, -1328856.6, -1618871.3, 60050.086, -0.549729, 0.10972625, -1316914.5, 92722.27, 0.22535217, 10.001855, 9.997729 
2.1951568e+3, 1.6615719e+2, -1225347.8, -1379731.5, -75574.34, 0.33476317, -0.076544754, -1194511.5, 117157.266, 0.113554515, 10.001182, 9.999038 
2.1951497e+3, 1.7615825e+2, -1132965.5, -1239765.8, -44073.33, 0.060886208, 0.080190934, -1117126.8, 96534.32, 0.046104282, 10.000959, 9.999383 
2.1951424e+3, 1.8615872e+2, -1050293.0, -1131621.9, -46169.09, -0.31661758, 0.16528085, -1029433.6, 86221.94, 0.015073848, 10.000667, 9.999631 
2.1951412e+3, 1.9615845e+2, -1028647.44, -1077418.8, -35335.996, -0.103647366, 0.15001069, -1010099.5, 7555.5664, 0.004138987, 10.000203, 9.999526 
2.1951398e+3, 2.0615713e+2, -960735.2, -1057792.1, 7536.8325, 0.031256396, 0.09395718, -960153.44, -40485.684, 0.00072646124, 10.000257, 9.9989805 
2.1951365e+3, 2.1615534e+2, -764630.2, -879451.8, -14767.951, -0.13511692, -0.024289714, -762761.2, 58925.84, 0.000022642807, 10.000821, 9.999237 
2.1951331e+3, 2.2615553e+2, -693643.0, -763580.06, -110423.875, -0.13767627, 0.04650269, -612783.06, 110904.164, 0.000000000011542125, 10.000464, 9.999554 
2.195131e+3, 2.3615669e+2, -683649.4, -690931.75, -110564.76, 0.08535508, 0.17083342, -576665.9, 49012.19, 0.0, 9.999835, 9.999653 
2.1951278e+3, 2.4615665e+2, -649408.6, -678108.8, -68812.766, 0.13098678, 0.21753329, -593465.56, -65786.96, 0.0, 9.999609, 9.999191 
2.1951233e+3, 2.561556e+2, -479188.88, -550871.75, -2637.591, 0.043708067, 0.16211843, -479091.94, -49404.465, 0.0, 10.000146, 9.99912 
2.1951199e+3, 2.6615405e+2, -480614.4, -667334.6, 4703.547, 0.0058991956, 0.1648063, -480496.0, -148793.66, 0.0, 10.000164, 9.997653 
2.1951179e+3, 2.7615187e+2, -327850.88, -509954.8, -68963.56, 0.03691559, 0.14042474, -304681.84, -70958.02, 0.0, 10.000436, 9.997908 
2.1951145e+3, 2.8614944e+2, -212344.8, -368771.22, -127503.72, -0.012073336, 0.07384158, -140976.9, -5231.4746, 0.0, 10.000351, 9.998275 
2.1951103e+3, 2.9614693e+2, -92161.54, -237130.53, -92844.516, -0.08060497, -0.045787808, -46857.633, -9090.8545, 0.000000020729713, 10.0004225, 9.99845 
2.1951075e+3, 3.061458e+2, 18839.691, 11515.027, -126494.586, -0.03206674, -0.096062414, 141724.95, 141724.95, 0.0000055230016, 10.000107, 9.99999 
2.1951006e+3, 3.1614888e+2, -262993.66, -381760.47, 17106.813, -0.22141662, 0.13669111, -260578.75, -260578.75, 0.000029811183, 9.9992895, 9.99765 
2.2051638e+3, 1.4616793e+2, -1285602.9, -1328442.4, -56514.35, 0.35075402, 0.17393589, -1246585.3, 260982.38, 0.39437363, 10.001988, 10.001104 
2.2051528e+3, 1.5616474e+2, -1633093.8, -1832898.5, -46780.258, -0.58142346, 0.14612639, -1622683.5, -213086.98, 0.24751917, 9.999822, 9.997241 
2.2051567e+3, 1.6616115e+2, -1549596.4, -1532726.3, -28650.098, 0.37017938, -0.059208415, -1511295.3, -199663.63, 0.13222682, 9.998803, 9.999142 
2.2051512e+3, 1.7616165e+2, -1157664.1, -1297592.6, 53334.21, 0.105425216, 0.06662181, -1139653.8, 73974.45, 0.059555795, 10.000918, 9.9990425 
2.2051443e+3, 1.8616186e+2, -916145.3, -1107840.1, 15658.172, -0.25681543, 0.16837557, -914874.7, 200751.0, 0.023171267, 10.001798, 9.999252 
2.2051418e+3, 1.9616169e+2, -825970.56, -1010939.56, -29818.438, -0.13033365, 0.19493201, -821282.44, 196343.4, 0.008108057, 10.0017395, 9.999256 
2.2051401e+3, 2.0616019e+2, -897204.9, -1036765.7, 29431.693, 0.02289363, 0.13735357, -891252.0, 28388.479, 0.0021629941, 10.000727, 9.998906 
2.2051372e+3, 2.1615787e+2, -977319.56, -999666.5, 22380.45, -0.051069587, -0.02171249, -963478.4, -141814.11, 0.00023583506, 9.999414, 9.999102 
2.2051337e+3, 2.2615802e+2, -884491.94, -872958.94, -35423.93, -0.04563398, 0.06484042, -842835.25, -119169.31, 0.0000019906881, 9.99923, 9.999398 
2.2051309e+3, 2.361599e+2, -698114.7, -711706.7, -54671.438, 0.07259801, 0.2758186, -649818.5, -24166.611, 0.0, 9.999782, 9.999549 
2.2051275e+3, 2.4615963e+2, -544307.7, -588511.75, -26710.078, 0.13424747, 0.28830922, -531740.9, -4087.8354, 0.0, 10.000148, 9.999555 
2.205124e+3, 2.561579e+2, -409374.6, -472170.4, -58882.973, 0.10157147, 0.12181389, -374041.44, 55623.117, 0.0, 10.000481, 9.999475 
2.205121e+3, 2.6615638e+2, -397392.16, -676886.0, 16569.387, 0.084828295, 0.13806382, -396413.28, -64734.063, 0.0, 10.000944, 9.997218 
2.2051191e+3, 2.7615464e+2, -193955.7, -495825.0, 48983.215, 0.08598727, 0.20939673, -186206.31, 47493.4, 0.0, 10.001553, 9.9974785 
2.2051157e+3, 2.8615203e+2, -99269.625, -282759.8, 7848.937, 0.048841663, 0.12672378, -98934.49, 36788.938, 0.0, 10.001001, 9.998547 
2.2051108e+3, 2.9614842e+2, -153520.89, -237976.47, -18615.693, -0.043746345, -0.11959705, -149599.67, -111845.45, 0.00000007580395, 9.999879, 9.99871 
2.2051081e+3, 3.061496e+2, -15934.371, -9547.285, -17214.238, 0.060519405, 0.040026728, 4767.1333, 4767.1333, 0.0000083740215, 9.999844, 9.999995 
2.2051023e+3, 3.1615022e+2, -59233.047, -253165.19, -53829.223, -0.031203758, 0.049756438, -45293.734, -45293.734, 0.000042885644, 10.0005045, 9.997953 
2.215164e+3, 1.4616704e+2, -1379355.5, -1459706.1, 254746.95, 0.09826297, -0.23417543, -1161635.4, 345934.47, 0.4221777, 10.001841, 10.000183 
2.2151552e+3, 1.561689e+2, -1578670.5, -1718190.6, -149015.83, -0.34080303, 0.26042014, -1483894.3, -74337.62, 0.27423543, 9.999821, 9.998038 
2.2151525e+3, 1.6616729e+2, -1471093.9, -1394102.1, 13623.255, 0.006477938, 0.15308012, -1391762.6, -80189.53, 0.15564767, 9.99891, 10.000034 
2.2151513e+3, 1.7616633e+2, -1158753.9, -1288434.1, 126347.0, 0.02245316, 0.08290276, -1081580.6, 131999.77, 0.07778218, 10.000901, 9.999123 
2.2151487e+3, 1.86165e+2, -980556.4, -1249725.6, 8557.547, -0.035172105, 0.08947746, -980284.6, 135308.72, 0.035576556, 10.001829, 9.998265 
2.2151433e+3, 1.9616382e+2, -884359.0, -1109565.8, -32930.473, -0.15586017, 0.09821384, -879642.6, 137963.78, 0.0154146915, 10.001651, 9.998619 
2.2151397e+3, 2.0616326e+2, -891616.56, -1000375.0, -27256.566, -0.12395712, 0.14048296, -885168.0, 34445.152, 0.005714695, 10.000619, 9.9992075 
2.2151376e+3, 2.161627e+2, -980211.1, -978648.3, -8858.687, 0.040783037, 0.13093138, -970536.6, -148916.7, 0.0013616167, 9.999303, 9.999294 
2.2151345e+3, 2.2616278e+2, -939464.56, -929586.9, -23280.082, 0.08449006, 0.21913044, -910727.5, -187105.86, 0.00013056793, 9.998984, 9.999128 
2.2151306e+3, 2.3616347e+2, -738430.1, -760542.25, -25782.59, 0.056078188, 0.3318573, -721433.06, -95814.47, 0.0000045921656, 9.999629, 9.999287 
2.2151275e+3, 2.4616179e+2, -646202.4, -717951.6, -27721.004, 0.09071694, 0.25779548, -636740.0, -109107.34, 0.000000030624218, 9.999811, 9.998821 
2.2151256e+3, 2.5615853e+2, -469958.6, -547151.25, -36385.152, 0.17513874, 0.002078453, -455511.97, -25853.813, 0.0, 10.000275, 9.999052 
2.2151226e+3, 2.6615766e+2, -361060.75, -524066.1, 24536.383, 0.10967206, 0.033156157, -357447.5, -25781.787, 0.0, 10.000628, 9.998413 
2.2151199e+3, 2.7615815e+2, -158920.81, -363406.56, 71076.234, -0.018685106, 0.20252194, -136642.86, 97020.85, 0.0, 10.001309, 9.998496 
2.2151165e+3, 2.861567e+2, -190218.47, -362751.34, -48984.8, -0.0099905515, 0.20874786, -177281.03, -41602.777, 0.0, 10.000561, 9.998193 
2.2151123e+3, 2.9615286e+2, -209803.11, -298968.75, -36157.082, 0.081458464, -0.035354223, -196984.16, -159269.3, 0.00000027397763, 9.9996605, 9.998382 
2.2151086e+3, 3.0615664e+2, -117632.375, -109699.35, -4436.0806, 0.07876657, 0.42327148, -107715.06, -107715.06, 0.000015050563, 9.999411, 9.99949 
2.2151032e+3, 3.1615192e+2, -102124.41, -135232.81, 56637.453, -0.04374197, -0.07293468, -59671.47, -59671.47, 0.00007034586, 9.999671, 9.999141 
2.2251667e+3, 1.4616875e+2, -1704925.4, -1968627.6, 287056.25, 0.24003391, 0.2577224, -1520887.3, -13332.405, 0.45833316, 10.000224, 9.996698 
2.2251578e+3, 1.5616933e+2, -1444830.3, -1363372.9, -209616.5, -0.058302503, 0.117045976, -1190564.9, 218988.94, 0.30885017, 9.999603, 10.000949 
2.2251526e+3, 1.6617183e+2, -1136660.5, -1263417.9, -18099.648, -0.012329257, 0.3051962, -1134126.6, 177403.9, 0.18666483, 10.00164, 9.999686 
2.2251521e+3, 1.761695e+2, -1221113.1, -1325969.1, 3255.8103, 0.04230324, 0.11876426, -1221012.1, -7459.493, 0.103338934, 10.0004635, 9.99905 
2.2251506e+3, 1.861678e+2, -1260704.8, -1332907.3, -44681.504, 0.09939651, 0.061089803, -1239362.6, -123794.07, 0.054786276, 9.999613, 9.998781 
2.225145e+3, 1.9616704e+2, -1039415.75, -1137326.5, -3747.4856, -0.09681768, 0.06136756, -1039272.5, -21696.898, 0.028543482, 10.000332, 9.999069 
2.2251406e+3, 2.061669e+2, -830470.06, -980675.6, 17196.734, -0.10670053, 0.1284268, -828526.44, 91051.16, 0.013685946, 10.001097, 9.9991045 
2.2251387e+3, 2.1616687e+2, -650912.06, -842571.5, -15945.627, 0.073068984, 0.1887778, -649594.5, 171984.88, 0.005262215, 10.001676, 9.999088 
2.2251353e+3, 2.2616626e+2, -553183.56, -803091.8, -10361.08, 0.1337151, 0.24515894, -552754.75, 170833.0, 0.001420654, 10.001874, 9.998613 
2.2251314e+3, 2.3616542e+2, -446138.84, -669658.6, -49818.793, 0.06488274, 0.2556852, -435537.84, 190061.17, 0.0002619265, 10.001836, 9.9988575 
2.225128e+3, 2.4616368e+2, -410112.9, -621825.94, -27805.1, 0.09231501, 0.20566194, -406522.06, 121091.945, 0.000035642544, 10.0014925, 9.998681 
2.225126e+3, 2.561614e+2, -343231.5, -501203.75, -8948.486, 0.16722192, 0.059305582, -342726.22, 86905.12, 0.0000011567587, 10.001147, 9.998979 
2.225123e+3, 2.661606e+2, -380984.38, -475493.06, 39704.17, 0.12592803, 0.07578233, -366518.44, -34880.297, 0.0, 10.000237, 9.998933 
2.2251204e+3, 2.7616087e+2, -418596.03, -421543.4, 6493.306, -0.0058567734, 0.17271136, -413411.28, -179773.53, 0.0, 9.999269, 9.999073 
2.225117e+3, 2.861603e+2, -267597.8, -346737.94, -58812.137, 0.039366394, 0.20846948, -236283.06, -100638.586, 0.0, 9.999784, 9.998694 
2.2251135e+3, 2.9615757e+2, 94630.72, -105942.23, -18744.035, 0.1474802, 0.044845395, 96367.36, 134038.47, 0.00000073017384, 10.001575, 9.998774 
2.2251104e+3, 3.061616e+2, 166295.3, -22983.475, 22619.703, 0.20269127, 0.51856405, 168960.92, 168960.92, 0.00002755439, 10.001548, 9.999083 
2.2251032e+3, 3.161547e+2, 4061.0063, 399.54797, 9519.49, -0.029832145, -0.10630612, 11924.207, 11924.207, 0.000118261974, 9.999987, 9.999958 
2.235159e+3, 1.561664e+2, -1206190.1, -865191.56, -109491.42, 0.061738648, -0.2028671, -833062.1, 576522.0, 0.35698506, 9.999267, 10.006166 
2.235157e+3, 1.6617435e+2, -1244243.3, -1498884.9, -31495.719, 0.19614555, 0.35978743, -1240405.5, 71102.805, 0.23053116, 10.00156, 9.998037 
2.2351533e+3, 1.7617086e+2, -1252636.9, -1373156.5, -45119.81, 0.079197906, 0.14352337, -1237616.9, -24069.074, 0.14104874, 10.000374, 9.998772 
2.2351494e+3, 1.8617006e+2, -1129187.5, -1061475.4, -36040.39, -0.011581938, 0.06542895, -1045883.06, 69670.27, 0.08532412, 9.999604, 10.000683 
2.235146e+3, 1.9617121e+2, -946040.25, -925057.3, 30820.242, -0.056944724, 0.07948769, -902991.75, 114543.14, 0.05187056, 10.000263, 10.000595 
2.2351426e+3, 2.0617124e+2, -892642.44, -1076342.5, 31595.707, -0.067907125, 0.12995932, -887360.0, 32172.78, 0.030293982, 10.000955, 9.998515 
2.2351395e+3, 2.161703e+2, -716048.94, -935460.25, 7792.257, -0.03981242, 0.1548079, -715772.5, 105771.45, 0.015773455, 10.001499, 9.998535 
2.2351357e+3, 2.261683e+2, -658102.1, -940370.25, -19302.19, -0.033576187, 0.13912454, -656788.3, 66777.625, 0.0069356123, 10.001541, 9.99782 
2.2351326e+3, 2.3616572e+2, -510737.78, -765769.8, -42731.3, -0.013713403, 0.041299775, -503768.47, 121825.19, 0.002541045, 10.001672, 9.998269 
2.2351287e+3, 2.461653e+2, -440123.97, -604801.75, -54823.973, -0.01710259, 0.13488252, -423541.88, 104055.516, 0.00075579167, 10.001165, 9.998948 
2.2351255e+3, 2.5616634e+2, -356336.9, -471155.84, -17467.709, -0.028728807, 0.2796917, -353738.28, 75846.67, 0.00014769337, 10.000909, 9.999293 
2.235122e+3, 2.6616523e+2, -475740.13, -566900.0, -19517.842, -0.036071304, 0.27342114, -471737.03, -140140.98, 0.000007045108, 9.999806, 9.998499 
2.23512e+3, 2.7616268e+2, -461261.53, -459297.13, -8536.489, 0.0043813004, 0.11749803, -451686.53, -218063.89, 0.00000000065814787, 9.999054, 9.998906 
2.235117e+3, 2.8616232e+2, -252697.86, -210867.11, -16543.127, 0.022513406, 0.11378866, -205115.5, -69489.65, 0.0, 9.99937, 9.999807 
2.235114e+3, 2.9616237e+2, 82928.93, -26815.06, 49470.316, 0.011446705, 0.1050508, 101936.89, 139561.45, 0.0000012574419, 10.0011635, 9.9994955 
2.2351117e+3, 3.061638e+2, -12321.459, -212706.89, -54031.16, 0.15355818, 0.3423259, 1318.8021, 1318.8021, 0.000044073433, 10.000818, 9.998103 
2.2351031e+3, 3.1616014e+2, -161441.1, -109197.39, 98502.99, -0.083303936, 0.1210806, -33411.492, -33411.492, 0.00018419352, 9.999074, 9.999608 
2.2451572e+3, 1.5617187e+2, -1842022.1, -1358224.9, 63087.15, 0.10399978, 0.16943976, -1350133.6, 59404.605, 0.42759266, 9.995836, 10.002556 
2.2451569e+3, 1.6617504e+2, -1594295.4, -1547666.0, -83626.05, 0.22096066, 0.3724698, -1484165.4, -172657.67, 0.29616648, 9.998453, 9.9992 
2.2451538e+3, 1.7617404e+2, -1129999.1, -1180925.8, 5880.3047, 0.0868864, 0.2775812, -1129329.0, 84189.71, 0.19952731, 10.000798, 9.999935 
2.2451502e+3, 1.8617411e+2, -935809.2, -949759.7, -17540.25, 0.039068665, 0.21520425, -923908.2, 191607.02, 0.13536815, 10.000997, 10.000918 
2.2451472e+3, 1.9617505e+2, -957102.2, -913103.2, -70611.97, 0.05861036, 0.18990266, -861143.0, 156357.31, 0.09319166, 10.000103, 10.000807 
2.2451441e+3, 2.0617485e+2, -985459.5, -1112648.5, -42542.293, 0.026610836, 0.19514804, -972541.9, -53041.91, 0.06306426, 10.000203, 9.99867 
2.2451404e+3, 2.1617325e+2, -787902.25, -961039.7, -41690.316, -0.04884515, 0.14884268, -778386.5, 43128.902, 0.0400799, 10.000924, 9.998666 
2.2451372e+3, 2.2617106e+2, -720181.4, -983494.8, -23348.504, -0.03125028, 0.11954749, -718127.06, 5411.411, 0.023131557, 10.001144, 9.997735 
2.2451343e+3, 2.3616871e+2, -639737.25, -836706.6, -32089.85, 0.04674182, 0.05374761, -634641.06, -9076.8, 0.011994159, 10.000811, 9.998205 
2.24513e+3, 2.4616812e+2, -524338.6, -656591.94, -30304.014, 0.022901576, 0.14132948, -517725.6, 9844.636, 0.0054928027, 10.000601, 9.998877 
2.2451252e+3, 2.5616893e+2, -399411.16, -479439.97, -40558.977, -0.10224248, 0.26551858, -382450.28, 47110.332, 0.002050329, 10.000561, 9.999409 
2.2451213e+3, 2.6616812e+2, -401992.03, -476416.66, -14104.912, -0.07448645, 0.26156577, -399408.53, -67840.83, 0.0004876709, 10.000058, 9.999012 
2.2451197e+3, 2.7616617e+2, -304199.03, -326060.97, 60995.684, 0.05710912, 0.11081154, -253162.6, -19575.816, 0.000047167257, 9.999882, 9.999428 
2.2451174e+3, 2.8616586e+2, -219230.14, -187038.97, 82329.56, 0.12566791, 0.08078574, -119246.39, 16342.791, 0.00000034188096, 9.99954, 9.999902 
2.245115e+3, 2.9616567e+2, -87471.7, -110895.64, 39136.293, 0.072806306, 0.068601266, -58332.48, -20742.014, 0.0000013302117, 9.999943, 9.999542 
2.2451125e+3, 3.0616653e+2, 21786.596, -152213.86, -28031.52, 0.16768016, 0.20325653, 26190.994, 26190.994, 0.0000584347, 10.000803, 9.99854 
2.2451043e+3, 3.161661e+2, 182531.94, 80257.73, 53492.266, 0.026539072, 0.30106863, 205397.72, 205397.72, 0.00025945, 10.00123, 9.999884 
2.2551523e+3, 1.6617458e+2, -1438877.9, -1208171.6, -28164.484, -0.17120804, 0.4227146, -1204783.1, 106739.19, 0.39765337, 9.9980755, 10.002175 
2.2551538e+3, 1.7617874e+2, -1021132.56, -927710.8, 43049.95, -0.04678687, 0.508188, -910898.44, 302570.44, 0.29298013, 10.00071, 10.002471 
2.2551526e+3, 1.8617953e+2, -1083885.5, -1188481.5, -88894.336, 0.10536387, 0.49403, -1033046.25, 82412.234, 0.21888196, 10.000699, 9.99927 
2.2551484e+3, 1.9617803e+2, -1071679.9, -1087771.3, -105126.26, 0.13339959, 0.3599493, -974291.9, 43184.844, 0.16615056, 9.999855, 9.999662 
2.2551443e+3, 2.0617723e+2, -967434.94, -1011561.9, -21069.475, 0.0050469856, 0.28928563, -958990.7, -39507.484, 0.12546477, 9.999934, 9.999475 
2.2551411e+3, 2.1617553e+2, -767633.4, -868215.75, -10822.441, -0.08759843, 0.1460888, -766482.06, 55013.094, 0.0914258, 10.000746, 9.999372 
2.2551386e+3, 2.2617453e+2, -746214.4, -964712.7, -39100.758, -0.01590798, 0.18402646, -739428.0, -15922.36, 0.062582165, 10.000828, 9.998018 
2.2551365e+3, 2.3617424e+2, -645354.2, -807555.0, -35060.535, 0.16552879, 0.28281358, -638100.1, -12587.611, 0.039919913, 10.000618, 9.998505 
2.2551312e+3, 2.461721e+2, -651106.0, -779236.5, -50431.617, 0.052688785, 0.23967837, -633637.8, -106104.93, 0.023601582, 10.000018, 9.998303 
2.2551252e+3, 2.561693e+2, -444923.25, -509110.4, -36831.62, -0.17943273, 0.025913458, -428164.34, 1392.592, 0.012405956, 10.0002985, 9.999317 
2.255121e+3, 2.6616922e+2, -382002.5, -334079.72, -52738.707, -0.15390176, 0.0399137, -300114.28, 31439.828, 0.005154125, 9.999648, 10.000179 
2.2551194e+3, 2.7617115e+2, -284049.53, -190185.53, 60640.535, 0.018044064, 0.12852556, -160437.11, 73094.97, 0.0013586987, 9.999497, 10.000536 
2.2551171e+3, 2.861706e+2, -410341.2, -419692.06, 57670.543, 0.13328053, 0.09363118, -357156.88, -221619.48, 0.00015517221, 9.9988785, 9.998602 
2.2551164e+3, 2.9616782e+2, -200770.77, -236847.98, 75621.97, 0.19230893, -0.05562106, -141065.73, -103499.23, 0.0000026982873, 9.999553, 9.998822 
2.2551121e+3, 3.061699e+2, 36104.16, 14313.629, -18991.457, -0.020111334, 0.13027664, 47103.695, 47103.695, 0.000065484004, 10.000268, 9.999921 
2.2551036e+3, 3.1616968e+2, 103312.14, 99121.87, 88833.83, -0.22765115, 0.15062803, 190075.53, 190075.53, 0.00034262822, 10.000518, 10.000338 
2.2651511e+3, 1.7617242e+2, -1007483.7, -795691.1, -235704.61, -0.30568075, 0.0135704605, -643187.2, 570346.6, 0.44342524, 9.99951, 10.005613 
2.2651538e+3, 1.861763e+2, -1724749.5, -1563161.4, -106974.53, 0.35572892, -0.012396279, -1509898.6, -394410.53, 0.3585124, 9.99631, 9.998803 
2.2651486e+3, 1.9617714e+2, -1244461.8, -1201133.9, -119188.04, 0.24533476, 0.1628619, -1101656.9, -84168.77, 0.29413474, 9.998773, 9.999336 
2.265145e+3, 2.0617735e+2, -921882.9, -886332.06, -27.425642, 0.091884285, 0.15392692, -886332.0, 33152.324, 0.24160613, 9.999661, 10.000571 
2.2651413e+3, 2.161775e+2, -866126.06, -824698.7, -1652.8894, -0.062248427, 0.105814725, -824632.8, -3157.7507, 0.1940874, 9.999567, 10.000267 
2.2651392e+3, 2.2617751e+2, -711972.75, -892469.2, 12726.613, -0.048226357, 0.1771665, -711079.8, 12393.688, 0.14888066, 10.000787, 9.998553 
2.265137e+3, 2.361777e+2, -438788.9, -636504.8, -14601.816, 0.07762227, 0.28546622, -437716.34, 187758.67, 0.108788945, 10.001936, 9.99905 
2.2651324e+3, 2.4617597e+2, -365735.84, -597782.6, 11719.798, 0.08235139, 0.24116807, -365145.4, 162346.33, 0.07581198, 10.001811, 9.998721 
2.2651277e+3, 2.5617346e+2, -311093.06, -445360.72, 52254.957, 0.0066717225, 0.031952433, -293153.22, 136360.77, 0.048806984, 10.001159, 9.999413 
2.2651225e+3, 2.6617295e+2, -297327.66, -392573.13, -38715.105, -0.00330942, 0.0597857, -283576.25, 47940.617, 0.026684597, 10.000568, 9.999372 
2.2651191e+3, 2.761742e+2, -180163.22, -190249.3, -88445.6, 0.020646378, 0.13605861, -96617.0, 136885.81, 0.010897145, 10.000322, 10.000192 
2.2651163e+3, 2.8617373e+2, -349023.44, -358418.56, -43660.492, 0.13984948, 0.109436266, -309808.53, -174300.81, 0.002788968, 9.999124, 9.998926 
2.2651172e+3, 2.961718e+2, 20844.564, -117463.04, 110848.3, 0.24232593, 0.031706084, 82341.414, 119870.07, 0.0003034348, 10.001039, 9.998929 
2.265113e+3, 3.0617368e+2, 121402.05, -86772.26, -89729.27, 0.011195321, 0.21838534, 154739.34, 154739.34, 0.000074942734, 10.001524, 9.998621 
2.265106e+3, 3.1616879e+2, 4191.5024, -100280.18, -267433.0, -0.037562136, 0.061887942, 224442.34, 224442.34, 0.00045627946, 10.000358, 9.999143 
2.2751452e+3, 2.0617802e+2, -878803.2, -877634.5, -17166.549, 0.08453955, 0.10235136, -861042.4, 58433.61, 0.4526298, 10.00023, 10.000474 
2.2751428e+3, 2.1618047e+2, -757872.1, -712488.75, -2042.5835, 0.08599129, 0.17603534, -712397.0, 109044.89, 0.38963944, 10.000141, 10.001175 
2.2751424e+3, 2.2618002e+2, -953015.0, -988548.6, 39239.504, 0.14728886, 0.107057735, -927707.5, -204264.83, 0.32267725, 9.999051, 9.998686 
2.2751367e+3, 2.3617761e+2, -644510.94, -676255.9, 45999.57, -0.14371964, -0.10934124, -611722.4, 13744.263, 0.25840095, 10.0001135, 9.999609 
2.275133e+3, 2.4617824e+2, -477892.8, -609165.3, -11947.67, -0.093855575, 0.024559194, -476814.28, 50647.348, 0.20062341, 10.000884, 9.999055 
2.2751328e+3, 2.5618097e+2, -398445.03, -460613.13, 39885.086, 0.34805894, 0.2171224, -378961.9, 50474.742, 0.14660953, 10.00049, 9.999588 
2.2751257e+3, 2.6617953e+2, -757754.06, -1011870.06, -81023.68, 0.2127295, 0.34742695, -734118.44, -402664.72, 0.09444842, 9.999148, 9.995768 
2.2751194e+3, 2.7617607e+2, -385442.1, -482688.56, -104707.18, -0.032289207, 0.17891298, -318619.16, -85127.914, 0.04983968, 9.99978, 9.998398 
2.275114e+3, 2.8617576e+2, -393240.78, -219106.9, -96883.16, -0.029976824, 0.15473782, -175916.42, -40420.813, 0.019500945, 9.998175, 10.000314 
2.2751161e+3, 2.9617774e+2, -24605.918, -52066.742, 176957.8, 0.028922923, 0.2969421, 139153.34, 176629.75, 0.004786881, 10.000418, 9.999642 
2.2751142e+3, 3.06178e+2, -335178.38, -771584.2, -192355.73, -0.08318208, 0.4837326, -262497.72, -262497.72, 0.0007184054, 10.000477, 9.994384 
2.2751094e+3, 3.1616634e+2, -457386.16, -702834.75, -134352.84, 0.20697723, 0.12888904, -398143.6, -398143.6, 0.0007782504, 9.999034, 9.9955435 
2.285135e+3, 2.461837e+2, -790841.75, -970797.94, 322963.4, 0.00040569028, -0.20975181, -545556.6, -18163.658, 0.45869297, 9.998748, 9.99811 
2.2851329e+3, 2.5618607e+2, -506760.06, -844941.06, -287992.16, 0.25075153, 0.53168035, -341887.88, 87502.11, 0.36361384, 10.001314, 9.996773 
2.2851229e+3, 2.6617396e+2, -272782.7, -520391.2, -172968.19, -0.16304845, -0.432285, -183877.06, 147639.63, 0.26167566, 10.001476, 9.998169 
2.2851238e+3, 2.7617806e+2, 111221.805, -232911.97, 46575.938, 0.26701787, 0.09300365, 117414.086, 350890.38, 0.1640845, 10.003603, 9.998388 
2.2851162e+3, 2.8617892e+2, -118441.836, -258694.63, -106627.08, 0.25672275, 0.33257642, -60947.527, 74520.555, 0.0825175, 10.000733, 9.998874 
2.2851153e+3, 2.9617745e+2, 75512.06, -8489.71, 152876.81, -0.11956008, 0.18504174, 192052.63, 229535.55, 0.030766618, 10.000991, 9.999765 
2.2851168e+3, 3.0618e+2, -14349.268, -282216.84, -90611.88, 0.09548312, 0.4358993, 13422.765, 13422.765, 0.009050316, 10.001065, 9.997517 
2.2851065e+3, 3.1617352e+2, -252847.13, 75051.6, 295888.16, 0.104041025, 0.28661427, 249376.1, 249376.1, 0.003965916, 9.99747, 10.001623 
2.2951233e+3, 2.7618524e+2, 211126.6, 3882.679, 98557.62, -0.19131777, 0.3626067, 250512.03, 483920.84, 0.434636, 10.005226, 10.0003395 
2.2951214e+3, 2.8618443e+2, -1159900.8, -1500803.8, -425340.94, 0.6017064, 0.6527254, -872128.94, -736715.1, 0.25417706, 9.996806, 9.992168 
2.2951142e+3, 2.9617465e+2, -117115.75, -153980.8, 243926.66, -0.38598812, -0.18399468, 109073.82, 146585.9, 0.12176492, 10.0000925, 9.999109 
2.29512e+3, 3.0618265e+2, -402277.63, 290701.5, -219365.05, 0.2154808, 0.22041522, 354304.66, 354304.66, 0.05398611, 9.995226, 10.004284 
2.2951004e+3, 3.161876e+2, 407888.75, 1793896.8, 20288.746, -0.39894894, 0.14699465, 1794193.8, 1794193.8, 0.031403303, 9.996103, 10.014355 
2.3051174e+3, 2.9618576e+2, 249589.6, 903655.06, -381181.3, -0.42330208, -0.17242196, 1078866.9, 1116269.8, 0.3611189, 9.997242, 10.011976 
2.3051238e+3, 3.0620572e+2, -1229409.3, -761765.06, 333608.47, 0.60540265, 0.99831885, -588196.2, -588196.2, 0.21465111, 9.992092, 9.998512 
2.3051043e+3, 3.1618148e+2, -68138.25, -1247292.5, 92210.336, -0.18663117, -0.24642475, -60970.926, -60970.926, 0.16657484, 10.004128, 9.989926 
2.3508306e+3, 2.753398e+2, -220509.45, -51402.793, 573311.0, 0.26047057, 0.26296207, 443556.4, 685260.2, 0.45029643, 9.9993305, 10.003022 
2.3504287e+3, 2.8533447e+2, -128787.51, -992380.75, -685057.1, -1.0896505, 0.5613523, 249200.75, 392947.34, 0.35422537, 10.004013, 9.992071 
2.3500691e+3, 2.9532164e+2, 734377.0, 314153.47, 427766.34, 0.82783973, -0.28346542, 1000847.9, 1046728.94, 0.27819893, 10.007499, 9.999447 
2.3496972e+3, 3.0532e+2, -372803.25, 626090.25, -40083.086, -0.5928541, 0.37570542, 627696.1, 627696.1, 0.22432256, 9.994504, 10.008504 
2.364573e+3, 1.7580374e+2, -1972366.6, -1003216.2, -18767.895, -0.8862002, 0.48654494, -1002852.9, 214296.77, 0.4364118, 9.990945, 10.006261 
2.3642106e+3, 1.857878e+2, -411326.13, -1059861.3, 184585.86, 0.4259056, -0.3923283, -362469.84, 756827.56, 0.3776002, 10.009383, 9.99529 
2.3638335e+3, 1.95789e+2, -821337.1, -1329928.1, 106218.234, 0.32082114, 0.72176385, -800045.0, 221250.77, 0.33353606, 10.003513, 9.995454 
2.363449e+3, 2.0577954e+2, -907753.8, -871464.25, -201063.05, -0.9331865, 0.66858834, -687728.94, 235660.17, 0.30097756, 9.999615, 10.000109 
2.3630813e+3, 2.1576865e+2, -1038335.5, -834033.44, 5713.223, -0.33530298, 0.14060809, -833873.8, -8384.39, 0.27814174, 9.997414, 10.000537 
2.3627023e+3, 2.2576435e+2, -147247.2, -524422.44, -196077.5, -0.7134224, 0.37961936, -63783.95, 663742.4, 0.261044, 10.005196, 9.998686 
2.3623233e+3, 2.3575535e+2, -1055446.8, -920754.75, -207737.39, -1.2077909, 0.16316797, -769719.6, -140108.92, 0.24562666, 9.996768, 9.998899 
2.3619527e+3, 2.457487e+2, -676813.44, -1099899.9, 156485.69, -0.4677836, 0.4881093, -625224.94, -93545.02, 0.2300855, 10.000491, 9.995186 
2.361571e+3, 2.5573483e+2, -365555.7, -719696.1, 461979.94, -1.036112, 0.2744082, -47874.133, 385951.9, 0.20983039, 10.001593, 9.996868 
2.3611909e+3, 2.65726e+2, 583417.2, 389609.72, -5391.8413, -0.6448847, 0.007828078, 583567.06, 919482.94, 0.17457391, 10.005335, 10.002942 
2.360823e+3, 2.7572024e+2, -785711.3, -1138435.9, 89825.27, 0.23485841, 0.14123228, -764153.8, -526183.75, 0.12479512, 9.998498, 9.993871 
2.3604397e+3, 2.857124e+2, 173271.53, -439584.9, -338764.22, 0.23994438, 0.5884379, 323635.88, 463682.56, 0.08188689, 10.003744, 9.995576 
2.3600559e+3, 2.9570922e+2, 209485.89, 17837.338, 342753.78, -0.57711554, 0.850604, 469558.3, 511638.22, 0.055353098, 10.001969, 9.999265 
2.3596933e+3, 3.056906e+2, -610073.6, -521571.75, -298934.88, 0.36908856, 0.06008029, -263630.34, -263630.34, 0.039775804, 9.997257, 9.997879 
2.3753245e+3, 1.5618542e+2, -1829362.9, -2493610.3, 153253.2, 0.6841061, -0.14060973, -1795709.8, -386296.88, 0.40917337, 10.000102, 9.991864 
2.3749422e+3, 1.6618298e+2, -1557671.1, -1290577.6, 312628.34, -0.3593407, 0.60349864, -1084166.8, 227278.19, 0.3191415, 9.99716, 10.001336 
2.3745778e+3, 1.7617708e+2, -1243123.0, -1149916.8, 43131.89, 0.36830583, 0.5105482, -1133020.1, 80465.01, 0.25440004, 9.998763, 10.000607 
2.3742051e+3, 1.8616486e+2, -1113307.8, -1304035.0, -76831.77, 0.47318622, 0.08797404, -1086207.8, 29394.852, 0.20803122, 10.000428, 9.997827 
2.3738289e+3, 1.9615288e+2, -886966.75, -1172442.6, -10620.386, 0.31330857, -0.23493508, -886572.2, 131156.06, 0.17323056, 10.001413, 9.997684 
2.373453e+3, 2.0614603e+2, -795940.94, -723615.4, -22158.604, 0.1624579, -0.17792955, -717366.44, 202428.83, 0.14628343, 9.999676, 10.001115 
2.373079e+3, 2.1614319e+2, -1054953.1, -761457.4, -24296.81, 0.4086412, 0.078195445, -759459.56, 62358.14, 0.1255341, 9.996954, 10.0013485 
2.3727085e+3, 2.2613692e+2, -977466.7, -784169.6, 146994.16, 0.7661328, 0.07131841, -704897.1, 18977.807, 0.10829949, 9.9973545, 10.000265 
2.3723345e+3, 2.3612647e+2, -617541.8, -559285.2, 83200.164, 0.6980149, -0.2795164, -500261.8, 125712.11, 0.09199208, 9.999145, 10.000331 
2.3719513e+3, 2.4612132e+2, -488181.78, -423877.56, -47682.133, 0.23948675, -0.16011389, -398520.16, 129505.43, 0.07586676, 9.999272, 10.000537 
2.3715691e+3, 2.5611788e+2, -777351.6, -834276.0, 80770.65, -0.34189066, 0.30286458, -720175.06, -290111.22, 0.059159193, 9.998076, 9.997519 
2.371187e+3, 2.6610988e+2, -256958.75, -482211.56, -140779.98, -0.42529544, 0.41007653, -189297.3, 142848.48, 0.04041217, 10.00072, 9.998026 
2.3708135e+3, 2.7609783e+2, -253759.4, -816976.75, 184418.27, -0.12822255, 0.2247041, -198747.31, 35519.11, 0.021718537, 10.0020075, 9.994306 
2.3704316e+3, 2.8608716e+2, 118345.32, -307290.13, -49615.5, -0.22577453, 0.31600404, 124052.38, 260421.86, 0.009489436, 10.002804, 9.996674 
2.3700514e+3, 2.9607984e+2, -15526.383, -18858.691, 384876.84, -0.49909064, 0.2777023, 367687.9, 406125.4, 0.0043448824, 10.000175, 9.999581 
2.3696876e+3, 3.060684e+2, -54965.5, -425941.75, -89273.86, 0.44840446, 0.27884912, -34600.117, -34600.117, 0.0025833023, 10.001571, 9.996091 
2.385686e+3, 1.4656593e+2, -1449790.0, -1287521.4, 151278.02, -0.41906515, 0.1659905, -1196993.8, 306681.72, 0.38968232, 9.998977, 10.002256 
2.3853117e+3, 1.5656644e+2, -1091339.5, -1154403.8, -98258.65, -0.07899896, 0.5942833, -1019677.44, 386001.5, 0.27836236, 10.001836, 10.000937 
2.3849376e+3, 1.6655752e+2, -1194165.3, -1323553.0, 70772.445, -0.08066329, 0.4268469, -1162973.6, 144790.39, 0.19862524, 10.000879, 9.998836 
2.3845635e+3, 1.7654696e+2, -1493601.0, -1523191.0, 29899.152, -0.30345997, 0.1108135, -1475036.5, -265177.34, 0.1461588, 9.998286, 9.998077 
2.3841885e+3, 1.8653978e+2, -1480599.6, -1406188.9, 44972.742, -0.45680395, 0.2543621, -1385026.5, -273096.3, 0.11113541, 9.99754, 9.998515 
2.3838142e+3, 1.9653255e+2, -1384722.8, -1316556.4, 35724.547, -0.47515348, 0.32407743, -1301264.5, -287257.7, 0.08556882, 9.99739, 9.998622 
2.383438e+3, 2.0652647e+2, -964116.9, -747926.2, -38403.395, -0.5775584, 0.36786804, -741307.0, 174757.86, 0.065839775, 9.998252, 10.001459 
2.3830569e+3, 2.1652089e+2, -809288.94, -695620.3, -71969.5, -0.9402669, 0.3244586, -660749.94, 157364.44, 0.050802168, 9.998946, 10.000816 
2.3826812e+3, 2.2651573e+2, -772131.94, -571845.6, 95790.234, -1.1205957, 0.37068105, -533408.75, 186753.17, 0.038884565, 9.998392, 10.001197 
2.3823108e+3, 2.3650965e+2, -980512.0, -792616.1, -25027.412, -0.93205553, 0.37213713, -789339.6, -167119.72, 0.028499383, 9.997014, 9.999682 
2.381937e+3, 2.465025e+2, -658508.44, -450602.63, -206818.45, -0.45638928, 0.28326344, -323081.8, 201208.06, 0.019239577, 9.998002, 10.000863 
2.3815659e+3, 2.5649366e+2, -858612.06, -856089.75, -63285.156, 0.18903905, 0.12034169, -794053.2, -367675.66, 0.011432521, 9.997586, 9.99757 
2.3811865e+3, 2.6648608e+2, -318986.03, -522599.44, -152448.03, 0.13842355, 0.25601733, -237476.05, 90979.24, 0.005416997, 10.000517, 9.9977455 
2.3808052e+3, 2.7647683e+2, -268494.16, -644609.56, 48704.152, -0.4785828, 0.24299556, -262289.7, -31739.482, 0.001679893, 10.001166, 9.995898 
2.380422e+3, 2.8646308e+2, 224612.8, -85508.22, -191070.67, -0.7966621, -0.1287542, 315624.97, 448306.13, 0.00032890253, 10.002788, 9.998227 
2.3800473e+3, 2.9645407e+2, -195817.39, -275825.84, 111606.84, -0.35575524, -0.4016184, -117261.82, -82500.555, 0.000101582686, 9.999599, 9.998159 
2.3796807e+3, 3.064534e+2, -297759.66, -467395.5, 49596.55, 0.15325995, 0.68118185, -284323.34, -284323.34, 0.00014370115, 9.999604, 9.99676 
2.3960589e+3, 1.3696031e+2, -2390875.3, -2374594.5, -41039.258, -0.08355737, 0.63842547, -2340896.0, -743095.8, 0.42782584, 9.995815, 9.995934 
2.3956838e+3, 1.4694545e+2, -1658337.3, -1818463.0, 108887.26, 0.05278101, 0.13090236, -1603246.5, -103292.516, 0.2998544, 9.999448, 9.9975 
2.3953068e+3, 1.569385e+2, -1278969.6, -1652565.4, -39077.98, -0.12981, 0.38009042, -1274925.9, 127105.8, 0.19614406, 10.00183, 9.996925 
2.3949309e+3, 1.6692998e+2, -1115792.9, -1255658.0, -64246.25, -0.22682044, 0.36828747, -1090761.5, 213353.19, 0.12585048, 10.001145, 9.99926 
2.3945554e+3, 1.7692046e+2, -1432142.5, -1428354.3, -68594.83, -0.31072077, 0.15179093, -1361627.4, -155424.75, 0.083471425, 9.998372, 9.998721 
2.3941824e+3, 1.8691343e+2, -1327666.5, -1178432.3, 10406.634, -0.17685457, 0.18703656, -1177710.1, -69438.484, 0.057587944, 9.997877, 9.999935 
2.3938103e+3, 1.9690727e+2, -1240259.6, -1131465.3, 55325.574, 0.018181382, 0.25074553, -1108274.0, -97939.04, 0.03970386, 9.997867, 9.999658 
2.393434e+3, 2.0690075e+2, -903812.9, -767801.56, 5410.893, -0.13994806, 0.2354792, -767586.6, 144809.42, 0.026570952, 9.99893, 10.000929 
2.3930551e+3, 2.168939e+2, -590570.0, -631502.3, -5818.225, -0.49257302, 0.15005445, -589759.06, 224698.53, 0.017417854, 10.0006695, 10.000393 
2.3926799e+3, 2.2688782e+2, -577466.3, -593632.1, -2022.586, -0.54252946, 0.1849567, -577217.06, 139299.73, 0.011141793, 10.000224, 10.000147 
2.3923077e+3, 2.3688081e+2, -736476.1, -735712.0, -79708.41, -0.43375358, 0.21404141, -656384.75, -37797.152, 0.0065593217, 9.998937, 9.999122 
2.3919299e+3, 2.4687436e+2, -417919.66, -277436.9, -228200.97, -0.38376403, 0.18837267, -108911.586, 411739.66, 0.0032030866, 9.999417, 10.001334 
2.3915537e+3, 2.568679e+2, -501567.2, -555258.7, -59301.12, -0.29261106, 0.18754776, -463318.25, -40603.668, 0.0011282732, 9.9995, 9.998667 
2.391178e+3, 2.668609e+2, -309161.0, -503274.3, -84050.625, -0.124819055, 0.35631755, -277825.66, 46959.508, 0.00023273825, 10.00056, 9.997826 
2.3908032e+3, 2.768524e+2, -189266.22, -379830.53, 28012.629, -0.14256693, 0.36982465, -185233.73, 41638.043, 0.000018051116, 10.000735, 9.997873 
2.3904204e+3, 2.8684056e+2, 63903.23, -157085.2, -220557.95, -0.4849686, 0.07969221, 200096.64, 329083.7, 0.000004039042, 10.001627, 9.998275 
2.3900422e+3, 2.96834e+2, 131907.86, -188748.81, -58739.98, -0.32548875, 0.16298181, 142329.53, 173377.44, 0.00001362104, 10.0020275, 9.997604 
2.3896736e+3, 3.0682427e+2, 214886.08, 232122.56, -214078.34, 0.1369913, 0.27170485, 437756.06, 437756.06, 0.00005414364, 10.00107, 10.000937 
2.4064307e+3, 1.2732434e+2, -1322287.3, -1110625.9, 156873.67, 0.112950675, -0.11806844, -1027222.56, 665026.6, 0.49043512, 10.001334, 10.006343 
2.4060541e+3, 1.3732547e+2, -1201999.8, -1120507.6, -70809.81, 0.14105834, -0.04790655, -1079557.4, 514672.44, 0.36336103, 10.001833, 10.00362 
2.4056782e+3, 1.4731963e+2, -1478584.0, -1803240.0, -67888.984, 0.11439465, 0.07116768, -1464959.4, 31329.053, 0.24041095, 10.001232, 9.996634 
2.405301e+3, 1.5731095e+2, -1664502.3, -1895587.4, -40233.625, -0.08518017, 0.20628636, -1657697.6, -259318.03, 0.14389461, 9.99928, 9.996382 
2.404924e+3, 1.6730334e+2, -1436198.5, -1407832.8, -15087.679, -0.19927591, 0.31413984, -1401308.3, -100852.89, 0.08188297, 9.998827, 9.999258 
2.4045478e+3, 1.7729506e+2, -1395512.8, -1397809.6, -45367.656, -0.2058631, 0.2443045, -1351279.0, -148743.56, 0.047678713, 9.998575, 9.998858 
2.4041755e+3, 1.8728808e+2, -1163646.8, -1022323.2, 38336.0, 0.00045225385, 0.23162332, -1012593.8, 92010.164, 0.028905774, 9.99871, 10.000616 
2.4038045e+3, 1.9728224e+2, -1160271.8, -1073873.5, -3376.7634, 0.2938445, 0.26998964, -1073741.6, -67079.75, 0.017015342, 9.998402, 9.999793 
2.4034287e+3, 2.0727547e+2, -974280.0, -835167.44, -9400.914, 0.1083017, 0.23675156, -834535.0, 74190.75, 0.00915297, 9.99868, 10.000556 
2.4030516e+3, 2.1726792e+2, -938760.7, -876344.56, -53103.6, -0.15363164, 0.12537114, -845957.7, -35162.215, 0.0045936005, 9.998678, 9.999656 
2.4026768e+3, 2.2726105e+2, -893704.5, -775289.6, -33933.438, -0.12419375, 0.11244902, -766254.8, -53392.453, 0.0022051786, 9.99822, 9.999848 
2.4023028e+3, 2.3725303e+2, -1106127.6, -957994.0, -7099.9224, -0.03823787, 0.06412802, -957654.44, -342711.44, 0.0009056362, 9.996645, 9.998708 
2.4019226e+3, 2.4724759e+2, -486534.16, -284013.22, -111364.91, -0.32831722, 0.14092493, -234755.16, 282241.94, 0.00023937336, 9.998951, 10.001449 
2.4015427e+3, 2.5724277e+2, -389091.22, -517393.3, -85324.5, -0.69045186, 0.26160377, -346491.97, 72552.36, 0.000025130046, 10.000377, 9.998526 
2.4011692e+3, 2.67236e+2, -199703.52, -401932.2, -101763.41, -0.38379925, 0.4436105, -157360.89, 163750.89, 0.00000030344088, 10.001196, 9.998185 
2.4007995e+3, 2.7722853e+2, -406577.38, -397155.25, -57399.086, 0.12099812, 0.4554135, -344274.22, -121087.375, 0.000000006555133, 9.998903, 9.998661 
2.4004187e+3, 2.8721973e+2, -107182.68, -234309.66, -187219.88, -0.1129071, 0.39520195, 26969.787, 152245.8, 0.00000087941476, 10.000508, 9.998255 
2.400037e+3, 2.9721358e+2, -290975.53, -591224.0, -37928.797, -0.39320982, 0.64358604, -286258.3, -258920.31, 0.0000072209577, 10.000073, 9.995761 
2.399668e+3, 3.0719528e+2, 335466.7, 620517.1, -127801.94, 0.069524586, -0.26665854, 669425.4, 669425.4, 0.00003484927, 10.000633, 10.003696 
2.4164209e+3, 1.2771358e+2, -1763990.8, -1719793.4, 88463.0, -0.31076393, 0.7153573, -1650710.6, 37722.945, 0.44509998, 9.999166, 9.999643 
2.4160446e+3, 1.3770276e+2, -1482865.3, -1676176.1, -55470.168, -0.3767752, 0.30098882, -1468079.1, 122459.445, 0.31930807, 10.001348, 9.9982605 
2.4156694e+3, 1.4769384e+2, -1385571.5, -1561845.6, -127521.13, -0.23992671, 0.22487777, -1318693.1, 173931.6, 0.20041417, 10.001197, 9.998381 
2.4152935e+3, 1.5768462e+2, -1554496.0, -1684424.0, -79321.914, -0.1516092, 0.13703874, -1516930.6, -122216.164, 0.110025235, 9.999385, 9.9977665 
2.4149175e+3, 1.6767752e+2, -1397899.0, -1399044.5, -36313.574, -0.10387524, 0.2382126, -1362153.6, -65366.324, 0.054970514, 9.999145, 9.9991455 
2.4145415e+3, 1.7767076e+2, -1357138.1, -1390667.3, -28083.186, -0.09097973, 0.3337471, -1341196.3, -142338.5, 0.027314784, 9.998881, 9.998756 
2.4141672e+3, 1.8766358e+2, -1150392.6, -1089497.1, 34626.13, -0.036179084, 0.3415177, -1073836.0, 27092.873, 0.013986388, 9.999107, 9.999958 
2.413794e+3, 1.9765621e+2, -1095963.3, -1088993.4, 9236.479, -0.011971938, 0.30132923, -1082606.3, -79605.42, 0.006556314, 9.999008, 9.999402 
2.4134184e+3, 2.0765e+2, -917912.6, -851499.94, -26465.105, -0.13133587, 0.36154467, -842243.8, 62818.855, 0.002469395, 9.999241, 10.000192 
2.4130425e+3, 2.1764387e+2, -801387.75, -771061.25, -50202.414, -0.33493415, 0.43647194, -733782.1, 73341.516, 0.00078321603, 9.999385, 10.000061 
2.4126665e+3, 2.2763792e+2, -721087.1, -437833.97, -69971.85, -0.29418182, 0.3592793, -421491.75, 287683.72, 0.00023610769, 9.998274, 10.002146 
2.4122913e+3, 2.3763113e+2, -972377.6, -728742.6, 67965.52, -0.2124109, 0.21803883, -711065.25, -99831.266, 0.000047296035, 9.996803, 10.000206 
2.411915e+3, 2.4762274e+2, -663089.75, -658129.9, 57350.68, -0.30873102, 0.12282693, -603205.5, -89888.77, 0.0000020598873, 9.998954, 9.998898 
2.4115399e+3, 2.5761384e+2, -241025.11, -529918.0, -10148.235, -0.48474395, 0.06064301, -240669.06, 174738.33, 0.0, 10.001711, 9.997785 
2.4111643e+3, 2.6760697e+2, -152964.0, -321676.88, -159868.75, -0.33507508, 0.23447108, -56560.863, 260913.45, 0.0, 10.001271, 9.998702 
2.4107896e+3, 2.7760112e+2, -320106.03, -277509.4, -132690.44, -0.120466165, 0.3886126, -164418.84, 55111.438, 0.0, 9.999047, 9.999444 
2.4104103e+3, 2.8759214e+2, -121341.96, -187336.83, -188135.08, -0.24433538, 0.24918528, 36667.51, 158287.89, 0.0000001537889, 10.000034, 9.998893 
2.4100329e+3, 2.975845e+2, 109696.836, -345257.53, -21506.412, -0.34959847, 0.33128342, 110711.22, 134408.72, 0.000003139397, 10.002402, 9.996374 
2.4096672e+3, 3.0756944e+2, 654155.2, 464485.53, -185252.22, 0.39471278, -0.11749735, 767435.75, 767435.75, 0.000017282315, 10.003863, 10.001173 
2.4264136e+3, 1.28085e+2, -1980800.6, -1952248.0, 3194.9827, -0.2126107, 0.2854616, -1951894.9, -267109.06, 0.4141129, 9.998057, 9.998485 
2.4260373e+3, 1.3807812e+2, -1908941.5, -2008634.5, -37869.38, -0.37154287, 0.4095685, -1896188.0, -309328.47, 0.28877336, 9.998394, 9.997418 
2.4256626e+3, 1.4806943e+2, -1477023.0, -1467379.1, -13337.181, -0.24663106, 0.30665705, -1458019.0, 30924.832, 0.17287979, 9.999594, 9.999832 
2.4252877e+3, 1.5806025e+2, -1265801.0, -1449919.1, 3897.136, -0.058310375, 0.111933775, -1265718.5, 125312.26, 0.08747846, 10.000912, 9.998722 
2.4249107e+3, 1.6805327e+2, -1242229.5, -1363435.3, 18469.621, -0.04450553, 0.21191764, -1239477.6, 53626.156, 0.038149297, 10.000332, 9.998847 
2.4245337e+3, 1.7804712e+2, -1384514.4, -1433761.1, 15827.043, -0.040112607, 0.4090077, -1379866.5, -184695.94, 0.01570925, 9.998817, 9.998483 
2.4241592e+3, 1.8803926e+2, -1136554.8, -1124028.9, 121811.31, -0.07825831, 0.36898482, -1008319.56, 88928.21, 0.0064830934, 9.999361, 9.999584 
2.4237853e+3, 1.980307e+2, -1037096.75, -1118994.0, 87936.516, -0.0995397, 0.25669068, -981042.1, 18288.008, 0.0021827125, 9.999683, 9.998867 
2.4234097e+3, 2.0802486e+2, -925701.94, -863247.56, 82185.39, -0.22915086, 0.37627715, -806556.75, 94833.82, 0.00044835047, 9.999265, 10.0000725 
2.4230337e+3, 2.180197e+2, -1030051.8, -869468.5, 54298.043, -0.36868846, 0.5499112, -852832.2, -49387.22, 0.000068581576, 9.9978485, 10.000104 
2.422657e+3, 2.2801436e+2, -642952.56, -279455.16, -69556.09, -0.38308007, 0.4768595, -266600.06, 438887.97, 0.0000096515805, 9.998419, 10.003123 
2.422281e+3, 2.3800825e+2, -772244.3, -632983.6, -39884.074, -0.27653033, 0.2983483, -622369.8, -14835.036, 0.00000040342232, 9.998276, 10.000149 
2.4219082e+3, 2.479982e+2, -647096.4, -833079.5, 116080.375, -0.24309844, 0.12675363, -591353.0, -81718.45, 0.0, 9.999909, 9.997214 
2.4215369e+3, 2.579867e+2, -530170.6, -809477.4, 66467.836, -0.23885457, -0.05422494, -515159.7, -103406.6, 0.0, 10.0003805, 9.99653 
2.4211594e+3, 2.6797947e+2, -131978.1, -271935.38, -148939.13, -0.2656644, 0.08146065, -37397.094, 276425.06, 0.0, 10.001307, 9.998984 
2.4207802e+3, 2.779737e+2, -292561.03, -406887.63, -148885.06, -0.30579525, 0.26309234, -190242.64, 25631.55, 0.0, 9.99991, 9.998149 
2.4204019e+3, 2.879636e+2, -140342.23, -184774.22, -96065.2, -0.42785454, 0.06785438, -63957.652, 54015.59, 0.0000000009564638, 10.000018, 9.998835 
2.4200287e+3, 2.9795378e+2, -621717.4, -726642.0, 113543.2, -0.3031492, -0.11127737, -549102.25, -529031.9, 0.0000004799063, 9.997659, 9.996023 
2.4196638e+3, 3.0794722e+2, 2091.94, -194168.97, -151857.33, 0.3172136, 0.2969292, 84765.9, 84765.9, 0.0000055147566, 10.000969, 9.998011 
2.4364048e+3, 1.2845203e+2, -1842026.3, -1792528.1, -21239.285, -0.300377, -0.36736712, -1784663.9, -103485.875, 0.39271495, 9.998673, 9.9992695 
2.436031e+3, 1.3845137e+2, -1837435.0, -1808920.6, 4326.428, -0.22536424, 0.30467823, -1808278.6, -225081.95, 0.26710206, 9.998254, 9.99883 
2.4356572e+3, 1.48445e+2, -1384713.0, -1280724.5, 16241.148, -0.10661474, 0.28123692, -1278246.9, 207013.45, 0.15331793, 9.999649, 10.001309 
2.4352825e+3, 1.584371e+2, -1246879.8, -1356708.6, 31544.371, -0.030333215, 0.08353968, -1238464.5, 148871.64, 0.07196278, 10.000702, 9.999473 
2.4349035e+3, 1.6843049e+2, -1272295.9, -1448633.4, -38704.77, -0.1302155, 0.24172144, -1264174.5, 25230.64, 0.027363949, 10.000435, 9.998211 
2.4345237e+3, 1.784239e+2, -1388295.5, -1468365.0, 13455.783, -0.30234534, 0.45238346, -1386094.8, -194619.66, 0.009079448, 9.99896, 9.998155 
2.4341509e+3, 1.8841526e+2, -1098241.1, -1095096.4, 156362.36, -0.19766897, 0.34480095, -940298.44, 153259.14, 0.002868925, 9.999595, 9.999664 
2.4337795e+3, 1.9840601e+2, -905307.8, -998358.3, 114840.82, -0.06757388, 0.15944254, -827925.75, 167718.33, 0.00059867656, 10.0003195, 9.999393 
2.4334033e+3, 2.0839997e+2, -830560.6, -747327.0, 57545.387, -0.14228131, 0.20327684, -717926.7, 179776.95, 0.000045539302, 9.999572, 10.000737 
2.4330261e+3, 2.1839464e+2, -969385.6, -843629.1, 80875.87, -0.296236, 0.31702244, -804064.3, -4307.054, 0.0000022398012, 9.998241, 10.000081 
2.4326499e+3, 2.2838753e+2, -738274.1, -596762.8, -18169.775, -0.27756795, 0.23516816, -594467.06, 107355.62, 0.000000052409952, 9.998912, 10.000713 
2.432275e+3, 2.3837991e+2, -568232.25, -600646.75, -14903.522, -0.21263352, 0.119370036, -562421.56, 41470.08, 0.0, 9.999917, 9.99958 
2.4319029e+3, 2.483733e+2, -446960.06, -552762.5, 132635.13, -0.16342656, 0.21857582, -357065.56, 148894.31, 0.0, 10.000437, 9.998918 
2.4315317e+3, 2.5836644e+2, -372489.25, -548907.3, 130933.86, -0.16792537, 0.3467445, -302823.3, 105209.99, 0.0, 10.000575, 9.998232 
2.431155e+3, 2.6835728e+2, -98940.195, -340859.3, -77682.55, -0.19139448, 0.28586307, -76143.734, 233978.11, 0.0, 10.001784, 9.998334 
2.4307771e+3, 2.7834788e+2, 184422.72, -157155.73, -108305.76, -0.18759009, 0.18972643, 215868.75, 428079.0, 0.0, 10.002971, 9.998408 
2.4303977e+3, 2.883386e+2, 159822.6, 49604.426, -89524.33, -0.26122546, 0.033312187, 209840.19, 324136.16, 0.0, 10.001551, 9.999766 
2.4300218e+3, 2.983302e+2, -237543.75, -225101.7, 202246.6, -0.23225191, -0.11443693, -28980.475, -12607.037, 0.000000008678429, 9.998789, 9.998942 
2.4296558e+3, 3.083277e+2, 95188.29, 40643.26, 1419.3552, 0.11698135, 0.5103245, 95225.195, 95225.195, 0.0000009202062, 10.000443, 10.00004 
2.4467815e+3, 1.1883682e+2, -1626348.0, -1353495.6, -90001.68, 0.32608157, 0.2277781, -1326482.5, 448941.34, 0.4945417, 9.998529, 10.005899 
2.4463981e+3, 1.2882651e+2, -1487925.5, -1575301.4, -43143.414, -0.30549756, -0.33711368, -1470213.3, 207300.13, 0.3775347, 10.00171, 9.999777 
2.446022e+3, 1.3882564e+2, -1749995.5, -1655416.4, -21822.893, -0.27846044, 0.26710406, -1650623.9, -71094.76, 0.25111946, 9.998357, 9.999839 
2.4456485e+3, 1.4882037e+2, -1633462.4, -1389816.1, -14907.796, -0.14689809, 0.31497163, -1388907.4, 92675.31, 0.13882844, 9.997829, 10.001286 
2.4452752e+3, 1.5881346e+2, -1644778.1, -1495231.3, -98321.92, 0.04816203, 0.20683044, -1446480.4, -62829.64, 0.060861234, 9.997681, 9.999945 
2.444897e+3, 1.6880666e+2, -1271078.8, -1322338.5, -81385.85, -0.08438227, 0.23647358, -1211382.5, 74333.22, 0.02025213, 9.999985, 9.999263 
2.4445176e+3, 1.7879951e+2, -933157.25, -1239550.1, 61140.637, -0.26764748, 0.3183077, -921407.25, 266377.2, 0.0052852775, 10.002075, 9.998233 
2.4441445e+3, 1.8879034e+2, -862745.56, -1120812.6, 138856.0, -0.2041855, 0.23350166, -802225.25, 287649.1, 0.0012089658, 10.001826, 9.998427 
2.4437734e+3, 1.9878086e+2, -912787.75, -1061941.8, -29170.629, -0.022849998, 0.12755154, -907285.7, 84680.64, 0.00012403581, 10.000587, 9.9988165 
2.4433967e+3, 2.08775e+2, -889573.06, -735257.2, -162997.73, -0.040873278, 0.14835382, -632077.6, 261945.22, 0.000001917801, 9.99905, 10.001022 
2.443019e+3, 2.1876948e+2, -1225264.4, -1071856.0, -121876.32, -0.08421323, 0.21171162, -1004555.4, -208479.3, 0.000000018702426, 9.996969, 9.999112 
2.442643e+3, 2.2876063e+2, -886664.1, -897474.7, -89149.27, -0.15430841, 0.09652819, -802756.44, -104594.43, 0.0, 9.998867, 9.998648 
2.4422683e+3, 2.387513e+2, -628503.8, -757777.8, -62785.438, -0.17120916, -0.030561224, -603030.0, -2776.74, 0.0, 10.000094, 9.998411 
2.4418965e+3, 2.4874763e+2, -559980.75, -432563.44, 15184.798, -0.11778963, 0.2740458, -430778.8, 71514.8, 0.0, 9.999026, 10.000372 
2.4415252e+3, 2.5874466e+2, -939729.25, -788239.4, -3850.4153, -0.075299725, 0.645584, -788141.56, -383813.63, 0.0, 9.99663, 9.99848 
2.4411494e+3, 2.6873422e+2, -535721.7, -591607.7, -86400.76, -0.14331481, 0.4555531, -472857.75, -166428.69, 0.0, 9.999028, 9.997916 
2.4407732e+3, 2.7872217e+2, -177468.39, -354315.4, -115308.87, -0.1169359, 0.1097012, -120582.39, 87961.79, 0.0, 10.00066, 9.99818 
2.4403945e+3, 2.8871447e+2, 213219.45, 188167.66, -190437.19, -0.04895876, 0.005729626, 391542.25, 502152.63, 0.0, 10.001511, 10.000709 
2.4400151e+3, 2.9870847e+2, -302426.28, -164375.0, 94983.43, -0.15763377, -0.0002462497, -115985.18, -103325.86, 0.0, 9.998066, 9.999717 
2.4396436e+3, 3.0870408e+2, -267916.8, 198308.22, 207827.28, -0.47544423, 0.12148149, 277499.44, 277499.44, 0.00000009984614, 9.996928, 10.0026455 
2.4567693e+3, 1.1921623e+2, -1588924.1, -1284227.8, 207184.23, -0.21897113, 0.8716242, -1179408.1, 592317.3, 0.48539782, 9.998694, 10.006639 
2.4563932e+3, 1.2920365e+2, -1464075.4, -1475094.6, -128927.06, -0.31092262, -0.013107447, -1340540.3, 333290.97, 0.36593348, 10.001372, 10.000964 
2.45601e+3, 1.392011e+2, -1730682.3, -1640717.8, -77886.18, -0.68672276, 0.33217585, -1595757.5, -19904.754, 0.23856215, 9.998537, 9.999825 
2.455637e+3, 1.4919582e+2, -1670677.9, -1520758.0, -10460.306, -0.4225155, 0.45419234, -1520031.6, -42124.016, 0.1275105, 9.998142, 10.000111 
2.4552661e+3, 1.5918931e+2, -1598344.8, -1424320.1, -48692.953, -0.008360348, 0.46873936, -1411622.1, -31648.393, 0.052560914, 9.997834, 10.000334 
2.4548917e+3, 1.691814e+2, -1038351.7, -909291.06, 28781.063, 0.032840166, 0.18657584, -903163.7, 378874.1, 0.01541553, 10.000286, 10.001988 
2.4545154e+3, 1.7917298e+2, -850593.1, -1152877.6, 128260.37, -0.07659416, -0.07902174, -803506.5, 380600.6, 0.0031067657, 10.00244, 9.998649 
2.4541403e+3, 1.8916368e+2, -1011921.4, -1506562.4, 103982.99, -0.17326836, 0.01611952, -990951.2, 95255.34, 0.00048131414, 10.002158, 9.995611 
2.4537659e+3, 1.9915438e+2, -977117.75, -1271585.6, -92319.734, -0.23235363, 0.18055348, -950568.0, 37740.883, 0.000015932997, 10.000904, 9.997205 
2.4533895e+3, 2.0914857e+2, -902553.06, -791997.06, -273596.16, -0.008948942, 0.29122084, -568150.5, 322216.0, 0.0000000054715246, 9.999168, 10.000578 
2.4530125e+3, 2.1914297e+2, -1141363.8, -1034773.4, -164728.16, 0.17881943, 0.38919923, -914933.56, -122513.6, 0.0, 9.9975, 9.9991255 
2.4526362e+3, 2.2913328e+2, -850998.44, -920531.8, -32296.963, -0.08495685, 0.21632507, -838311.8, -143796.78, 0.0, 9.999207, 9.998377 
2.4522606e+3, 2.3912303e+2, -478739.75, -660438.8, -81082.21, -0.39157125, 0.028728085, -447819.16, 148796.9, 0.0, 10.000925, 9.9987 
2.4518874e+3, 2.4911757e+2, -622507.75, -476421.9, -145935.69, -0.21616897, 0.16269803, -386270.2, 112400.67, 0.0, 9.998591, 10.000324 
2.4515152e+3, 2.5911298e+2, -977733.6, -679466.8, -106147.18, -0.02646863, 0.36325282, -645548.3, -244831.14, 0.0, 9.995704, 9.999704 
2.4511404e+3, 2.6910457e+2, -593463.9, -429459.72, -26481.494, -0.15937789, 0.21512173, -425289.8, -122493.78, 0.0, 9.997693, 9.999729 
2.4507658e+3, 2.790956e+2, -44000.625, -129747.94, -60026.773, -0.26645026, 0.01190068, -13108.682, 191771.3, 0.0, 10.000757, 9.9997015 
2.4503902e+3, 2.8909007e+2, 327623.56, 177996.88, -226840.19, 0.010211455, 0.12431474, 491669.0, 598598.44, 0.0, 10.002448, 10.000246 
2.4500139e+3, 2.9908466e+2, 342854.25, 24984.418, -114098.02, 0.19245137, 0.2590584, 379568.7, 388546.72, 0.0, 10.002801, 9.998784 
2.4496341e+3, 3.09074e+2, -241913.23, -4936.831, -142736.03, -0.5581168, 0.033030514, 62082.457, 62082.457, 0.000000000000427524, 9.997741, 10.000948 
2.4667598e+3, 1.19590595e+2, -1899416.1, -1548622.1, 459474.53, -0.38224465, 0.5995571, -1232205.3, 535843.3, 0.47722325, 9.997378, 10.004638 
2.4663879e+3, 1.2958013e+2, -1731583.3, -1604401.1, -78520.44, -0.12961291, 0.03111252, -1566951.3, 103188.58, 0.3557266, 9.998741, 10.000937 
2.466005e+3, 1.3957722e+2, -1468231.5, -1528282.0, -36070.734, -0.47272965, 0.37271097, -1451324.8, 120840.31, 0.22774403, 10.000538, 9.999757 
2.4656303e+3, 1.4957029e+2, -1279451.8, -1371607.5, 53167.184, -0.3667448, 0.35817972, -1255174.0, 219060.05, 0.11809006, 10.001177, 9.999771 
2.4652585e+3, 1.595627e+2, -1121723.9, -1227301.5, 59140.645, -0.054014325, 0.31446907, -1095239.3, 281069.78, 0.04605504, 10.001294, 10.00008 
2.4648856e+3, 1.6955526e+2, -1044866.0, -934785.0, -19927.816, 0.07959682, 0.09913674, -931288.56, 347081.53, 0.012013259, 10.000321, 10.001787 
2.4645115e+3, 1.7954746e+2, -1324314.1, -1396934.8, -102201.805, 0.13237233, -0.1109405, -1252164.1, -71729.98, 0.0018483637, 9.999225, 9.998533 
2.464135e+3, 1.8953827e+2, -1330460.5, -1676992.4, 16635.277, -0.12810405, -0.020421764, -1329663.9, -247130.58, 0.00018026956, 10.0, 9.995505 
2.4637586e+3, 1.9952908e+2, -1097299.3, -1383460.0, 4690.8433, -0.32284135, 0.1815465, -1097222.4, -112586.46, 0.0000007906511, 10.000348, 9.99672 
2.463382e+3, 2.0952229e+2, -703874.0, -789891.56, -166434.31, -0.018380476, 0.26908085, -574981.25, 311722.84, 0.0, 10.0009575, 9.999757 
2.4630056e+3, 2.1951573e+2, -756418.56, -902584.9, -41667.055, 0.32954928, 0.35992813, -745375.06, 43392.793, 0.0, 10.000485, 9.998581 
2.462629e+3, 2.2950712e+2, -733781.3, -809242.4, 171715.4, -0.074899524, 0.28275156, -595700.1, 95153.97, 0.0, 9.999964, 9.998691 
2.4622527e+3, 2.3949793e+2, -842399.06, -873695.3, 92353.41, -0.5036094, 0.19488688, -764377.5, -171431.39, 0.0, 9.99869, 9.998296 
2.4618782e+3, 2.4948995e+2, -615372.75, -532395.56, -45465.41, -0.2952172, 0.1261714, -512334.13, -17311.424, 0.0, 9.998894, 9.999791 
2.461505e+3, 2.5948247e+2, -702894.56, -556637.75, 38384.11, 0.0044517866, 0.09046055, -547176.2, -150082.52, 0.0, 9.9977, 9.9995775 
2.4611321e+3, 2.694756e+2, -414998.6, -188740.94, 149577.72, -0.117242254, -0.006698666, -114328.78, 184827.69, 0.0, 9.998336, 10.001027 
2.4607593e+3, 2.7946967e+2, -419800.8, -293862.6, 25822.404, -0.25822255, -0.008137232, -288773.63, -87563.15, 0.0, 9.998218, 9.9997835 
2.4603842e+3, 2.894656e+2, -231882.88, -168736.31, -143175.02, -0.047804587, 0.27102938, -53694.586, 49555.547, 0.0, 9.999011, 9.999488 
2.4600117e+3, 2.994584e+2, -772291.7, -905983.0, -92591.305, 0.4499813, 0.4087371, -724938.0, -719616.0, 0.0, 9.997036, 9.995133 
2.4596255e+3, 3.0944148e+2, -646882.8, -515190.97, -92591.31, -0.57270646, -0.121770695, -467419.84, -467419.84, 0.0, 9.996735, 9.997757 
2.4767515e+3, 1.1996481e+2, -1982795.5, -1798238.3, 372971.1, -0.40400296, 0.17701419, -1506299.8, 258060.55, 0.4678463, 9.998076, 10.001198 
2.4763821e+3, 1.2995662e+2, -1764906.0, -1692294.0, -40606.453, 0.09381153, -0.0029188206, -1674129.8, -7689.9385, 0.34520847, 9.99903, 9.999818 
2.4760042e+3, 1.3995293e+2, -1543194.8, -1623842.9, -3264.919, 0.049602676, 0.35680643, -1543062.8, 25415.404, 0.21743059, 10.000178, 9.999167 
2.4756268e+3, 1.4994322e+2, -1273925.6, -1324693.4, 67967.625, -0.18519416, 0.047871068, -1226756.5, 243811.92, 0.109704144, 10.001062, 10.00014 
2.475251e+3, 1.5993337e+2, -1224167.9, -1411012.4, 56454.33, -0.30862328, -0.22019362, -1208435.3, 164225.6, 0.040704507, 10.001185, 9.998811 
2.474878e+3, 1.6992779e+2, -1251525.1, -1389085.4, -69613.42, -0.036448736, 0.01685263, -1222444.5, 52274.527, 0.00953522, 10.000422, 9.998601 
2.4745047e+3, 1.7992228e+2, -1317215.8, -1367071.0, -116050.125, 0.16327786, 0.28640205, -1223446.3, -46670.5, 0.0011160366, 9.999166, 9.998764 
2.4741285e+3, 1.8991409e+2, -1053539.4, -1097092.6, 53420.715, -0.12762633, 0.18301645, -1017627.2, 61228.008, 0.00006263998, 9.99998, 9.999496 
2.4737515e+3, 1.9990535e+2, -914797.2, -1074028.1, 55252.67, -0.4397704, 0.08507544, -897503.0, 83437.66, 0.0000000031066179, 10.000647, 9.998696 
2.4733745e+3, 2.0989604e+2, -657735.5, -882155.4, -96006.93, -0.21017703, -0.04815926, -622268.75, 260764.23, 0.0, 10.001731, 9.998788 
2.4729978e+3, 2.1988735e+2, -479445.75, -719127.4, 2750.2844, 0.0038868824, -0.088539995, -479414.2, 305705.56, 0.0, 10.002119, 9.999066 
2.4726209e+3, 2.2988342e+2, -551445.0, -569132.1, 166959.95, -0.26762715, 0.2023734, -393094.56, 294068.53, 0.0, 10.000512, 10.000103 
2.4722444e+3, 2.3987909e+2, -732162.2, -721866.6, 148099.14, -0.5733743, 0.49362293, -578825.8, 10383.854, 0.0, 9.998942, 9.999229 
2.4718699e+3, 2.4986966e+2, -547711.56, -561871.94, 73720.04, -0.3963793, 0.30974957, -480732.5, 10566.099, 0.0, 9.999551, 9.999309 
2.4714968e+3, 2.5985983e+2, -355821.56, -437670.78, 147172.22, -0.13591155, 0.10610006, -243989.89, 149401.02, 0.0, 10.000183, 9.999211 
2.4711269e+3, 2.6985297e+2, -328684.72, -288024.66, 183624.11, 0.10814746, 0.12504607, -123608.58, 171849.94, 0.0, 9.999456, 9.999838 
2.4707554e+3, 2.798474e+2, -353978.84, -231970.88, -4797.966, 0.15447398, 0.2653494, -231782.48, -34269.113, 0.0, 9.998449, 10.000099 
2.4703726e+3, 2.89841e+2, -431481.0, -198117.64, -158294.56, -0.29701367, 0.26355284, -118147.91, -18571.781, 0.0, 9.997169, 10.000263 
2.469996e+3, 2.9983178e+2, -648122.7, -606449.5, 91633.2, -0.13023216, 0.1207055, -533313.7, -531647.8, 0.0, 9.996635, 9.997435 
2.4696212e+3, 3.098205e+2, 443964.2, 352631.22, 359978.94, -0.4085207, -0.05826673, 761161.7, 761161.7, 0.0, 10.0023775, 10.001144 
2.4867459e+3, 1.2033723e+2, -1566098.0, -1566921.8, -12213.365, -0.3470239, 0.078834996, -1554289.5, 206424.75, 0.45571515, 10.001173, 10.001505 
2.4863754e+3, 1.3033137e+2, -1603659.5, -1591399.8, -138654.78, 0.17115314, 0.064957656, -1458739.5, 204030.73, 0.33319858, 10.000132, 10.000395 
2.485998e+3, 1.4032698e+2, -1539328.0, -1566491.1, -61059.555, 0.1346745, 0.29202655, -1490357.8, 74456.37, 0.20679392, 9.999942, 9.999756 
2.4856204e+3, 1.5031801e+2, -1472300.3, -1434610.0, -27018.473, -0.14778069, 0.03977341, -1420513.8, 46383.242, 0.10179194, 9.999544, 10.000083 
2.4852441e+3, 1.6030857e+2, -1574553.6, -1603550.4, -58691.254, -0.28750992, -0.18308261, -1528596.5, -159611.44, 0.036105353, 9.998831, 9.998623 
2.4848706e+3, 1.7030281e+2, -1464421.8, -1567899.3, -25925.943, -0.058604382, 0.08880103, -1458289.5, -187241.25, 0.0076701324, 9.999312, 9.99791 
2.4844971e+3, 1.8029727e+2, -1269553.1, -1317639.3, 78994.73, 0.17173533, 0.43147668, -1211023.5, -37914.188, 0.000687035, 9.999414, 9.998961 
2.484121e+3, 1.9028948e+2, -1181943.8, -983747.7, 77818.836, -0.09622448, 0.24883519, -956844.94, 118336.12, 0.000019881356, 9.998413, 10.0009775 
2.4837446e+3, 2.0028107e+2, -1356037.0, -1208182.9, -60450.426, -0.34361032, 0.043564092, -1186614.1, -209356.1, 0.0, 9.997326, 9.999344 
2.4833679e+3, 2.102718e+2, -1077026.9, -1082293.6, -118517.55, -0.22783822, -0.12287274, -961113.44, -81763.37, 0.0, 9.998924, 9.998694 
2.4829908e+3, 2.2026318e+2, -808573.44, -867355.1, 3285.4219, -0.10199621, -0.16186379, -808390.4, -26953.525, 0.0, 9.999832, 9.999145 
2.482613e+3, 2.3026066e+2, -615137.7, -527069.1, 71992.414, -0.364334, 0.19805619, -486711.9, 196753.47, 0.0, 9.999731, 10.000783 
2.482236e+3, 2.4025802e+2, -782632.75, -751271.75, 60537.94, -0.58731407, 0.6019036, -704416.5, -118922.62, 0.0, 9.998709, 9.999127 
2.481862e+3, 2.5024793e+2, -526793.25, -583574.2, 44194.656, -0.44514143, 0.35222962, -502655.75, -15068.16, 0.0, 9.99991, 9.99894 
2.4814898e+3, 2.602372e+2, -514002.2, -641274.7, 101971.3, -0.15767963, 0.10240252, -457439.78, -67751.45, 0.0, 9.99975, 9.998017 
2.4811213e+3, 2.7023056e+2, -623888.6, -563014.94, 130015.39, 0.3025241, 0.24952117, -459921.22, -168163.73, 0.0, 9.998085, 9.99859 
2.4807493e+3, 2.8022444e+2, -825493.06, -560587.06, -8354.664, 0.46379045, 0.4581029, -560323.9, -366501.8, 0.0, 9.995729, 9.999154 
2.4803604e+3, 2.9021543e+2, -278254.8, -22301.855, -166253.0, -0.55182153, 0.14112397, 59526.43, 155436.98, 0.0, 9.997961, 10.00101 
2.4799812e+3, 3.00207e+2, -290593.56, -200192.9, 143116.13, -0.6898823, -0.040856592, -95308.94, -95308.94, 0.0, 9.998245, 9.999425 
2.4796197e+3, 3.1020486e+2, 240083.5, 689497.6, 291268.0, -0.1744673, 0.25707358, 832663.25, 832663.25, 0.0, 9.99921, 10.004977 
2.496741e+3, 1.207103e+2, -1569461.3, -1411108.5, -74224.234, -0.34535247, 0.3823051, -1381757.8, 375316.06, 0.43991756, 10.000045, 10.003816 
2.4963681e+3, 1.30705e+2, -1509235.5, -1384948.6, -82588.586, 0.08325887, 0.20968997, -1343735.0, 315383.47, 0.31901658, 10.000026, 10.002348 
2.4959879e+3, 1.4070009e+2, -1557916.9, -1528481.8, -45177.367, -0.24715044, 0.23215581, -1495685.1, 65478.977, 0.19536594, 9.999611, 10.000168 
2.4956124e+3, 1.5069433e+2, -1517897.6, -1487986.9, -23913.281, -0.24729203, 0.3198648, -1474737.5, -11516.779, 0.094030365, 9.999419, 9.999723 
2.4952377e+3, 1.6068763e+2, -1531025.4, -1486024.8, -42277.95, -0.1774539, 0.37977302, -1460632.6, -95346.68, 0.032013185, 9.998749, 9.999449 
2.4948628e+3, 1.7067982e+2, -1310425.0, -1267736.9, 17780.07, -0.097014055, 0.2699679, -1261301.5, 6059.7783, 0.0062260167, 9.999415, 9.999893 
2.494488e+3, 1.8067196e+2, -1264596.6, -1312407.9, 88705.31, -0.062156428, 0.23588471, -1196632.1, -27194.281, 0.00043419475, 9.999443, 9.998968 
2.494113e+3, 1.9066353e+2, -1303701.4, -1249795.8, 36884.016, -0.09017038, 0.13494408, -1231066.1, -159544.9, 0.0000058323185, 9.998448, 9.999139 
2.4937375e+3, 2.0065564e+2, -1335587.4, -1185335.1, -69894.01, -0.13419546, 0.122277096, -1157849.8, -184250.39, 0.000000000090419006, 9.997375, 9.9994755 
2.4933621e+3, 2.1065105e+2, -961127.75, -853104.44, -59023.527, -0.0039123828, 0.3017422, -827109.6, 48538.043, 0.0, 9.998903, 10.000293 
2.4929856e+3, 2.2064586e+2, -690902.6, -710476.9, 20346.668, 0.02136156, 0.46361056, -678111.56, 99588.98, 0.0, 10.000166, 10.000051 
2.4926065e+3, 2.3063798e+2, -602883.5, -563403.44, 46428.36, -0.34278068, 0.30422345, -532692.9, 147078.88, 0.0, 9.999953, 10.000447 
2.4922284e+3, 2.4062997e+2, -613152.56, -652961.25, 46741.633, -0.64896595, 0.19991039, -582253.75, -409.791, 0.0, 9.999741, 9.999303 
2.4918567e+3, 2.506211e+2, -422766.47, -542111.2, 53114.367, -0.3528544, 0.07815122, -402551.88, 81372.96, 0.0, 10.000578, 9.998934 
2.4914852e+3, 2.6061216e+2, -303650.75, -463195.25, 14271.739, -0.018186389, -0.0021875044, -302384.16, 83624.35, 0.0, 10.00078, 9.99875 
2.491111e+3, 2.7060506e+2, -606034.3, -491791.13, 25820.492, 0.19039567, 0.048120577, -486226.4, -198145.05, 0.0, 9.997857, 9.999229 
2.4907358e+3, 2.8059825e+2, -780147.1, -515550.72, 73747.16, 0.1901178, 0.14862962, -496384.53, -306232.72, 0.0, 9.9957905, 9.999468 
2.4903548e+3, 2.905917e+2, -20133.604, 10459.902, 21279.66, -0.3873174, 0.15939075, 21370.297, 113588.484, 0.0, 10.0000105, 10.000308 
2.4899809e+3, 3.0058527e+2, 349945.28, -130483.68, 103498.19, -0.3001093, 0.2785315, 371293.16, 371293.16, 0.0, 10.003546, 9.997381 
2.4896118e+3, 3.1057605e+2, -135792.2, -75638.71, -163103.2, -0.2084501, 0.35254726, 60137.69, 60137.69, 0.0, 9.998823, 10.0000305 
2.5067335e+3, 1.2108782e+2, -1831710.8, -1610593.4, 166073.72, -0.33194423, 0.26480052, -1521643.4, 231726.52, 0.42027465, 9.998046, 10.002533 
2.50636e+3, 1.310834e+2, -1667669.0, -1523932.5, 70338.82, 0.032671466, 0.33123872, -1495239.4, 160171.55, 0.30251706, 9.998938, 10.001509 
2.5059813e+3, 1.4107667e+2, -1607777.9, -1567473.9, 63701.504, -0.14755957, 0.269678, -1520812.8, 36663.83, 0.18302314, 9.999182, 10.000122 
2.5056067e+3, 1.5107127e+2, -1393454.6, -1413574.5, 115241.13, -0.09416897, 0.37942487, -1287835.1, 171695.84, 0.08629053, 10.000139, 9.999978 
2.505232e+3, 1.6106546e+2, -1264541.5, -1311417.0, 109345.12, 0.013967302, 0.51231056, -1176150.5, 185438.16, 0.028287582, 10.000349, 9.999905 
2.5048548e+3, 1.7105721e+2, -1411889.6, -1275829.4, 58606.086, -0.11439474, 0.31445858, -1254066.6, 9600.108, 0.0050760456, 9.998452, 10.000341 
2.504478e+3, 1.8104854e+2, -1641356.1, -1484364.8, 105365.305, -0.18508187, 0.1677752, -1431470.1, -265721.13, 0.00028139996, 9.996849, 9.999051 
2.504105e+3, 1.910404e+2, -1295293.0, -1285083.3, 160256.94, -0.05522213, 0.12726194, -1129849.9, -62019.59, 0.0000014559199, 9.998752, 9.998756 
2.5037313e+3, 2.0103288e+2, -1005727.94, -1063411.3, 137083.72, 0.09058913, 0.21783379, -894484.6, 75422.266, 0.0, 9.999839, 9.999139 
2.503355e+3, 2.1102965e+2, -933323.9, -812722.0, 36700.383, 0.11586909, 0.5336201, -802431.75, 69513.336, 0.0, 9.999074, 10.000468 
2.5029787e+3, 2.2102548e+2, -1014423.5, -913724.2, 1171.3546, 0.084998704, 0.8025956, -913710.6, -139721.67, 0.0, 9.998209, 9.999606 
2.5026e+3, 2.3101422e+2, -755214.7, -687665.3, -6278.367, -0.27256408, 0.3367672, -687086.75, -10999.221, 0.0, 9.999177, 9.99995 
2.502222e+3, 2.41003e+2, -734619.75, -771020.9, 6551.643, -0.5311816, -0.044501636, -733476.44, -155290.72, 0.0, 9.999207, 9.998744 
2.501851e+3, 2.5099513e+2, -655083.8, -650675.94, 23342.594, -0.22327013, -0.078195855, -629433.5, -149175.95, 0.0, 9.999054, 9.998888 
2.5014794e+3, 2.6098755e+2, -628885.4, -613410.3, -71217.9, 0.07968663, -0.02078256, -549510.9, -167182.92, 0.0, 9.998574, 9.99878 
2.501101e+3, 2.7097955e+2, -343152.84, -304676.0, -113416.375, 0.009026434, -0.13284944, -208877.95, 75529.83, 0.0, 9.999417, 9.999764 
2.500723e+3, 2.809723e+2, -370858.3, -383263.78, 50670.78, -0.064033225, -0.10579899, -326012.03, -139530.89, 0.0, 9.998991, 9.998809 
2.5003508e+3, 2.9096836e+2, -14690.426, -104625.18, 122788.945, -0.11147698, 0.22562103, 71106.07, 159628.23, 0.0, 10.000626, 9.999184 
2.4999805e+3, 3.0096224e+2, -272633.97, -820064.8, 50948.402, -0.0063494355, 0.55775994, -267932.66, -267932.66, 0.0, 10.00112, 9.993772 
2.4996015e+3, 3.1094447e+2, -696507.4, -1011569.2, -112056.78, -0.5000716, 0.18357415, -660718.06, -660718.06, 0.0, 9.998177, 9.993794 
2.5167248e+3, 1.21469066e+2, -2014654.0, -1912207.3, 230580.72, -0.36346948, 0.21793227, -1727228.9, 22391.96, 0.39734322, 9.998107, 9.999541 
2.5163513e+3, 1.3146344e+2, -1811912.4, -1815433.0, 106958.87, -0.044550903, 0.40329614, -1706699.4, -55017.105, 0.28406283, 9.999169, 9.99893 
2.515977e+3, 1.4145447e+2, -1680839.5, -1652860.4, 107812.14, 0.14525045, 0.32081094, -1558134.0, -4359.085, 0.16993596, 9.998979, 9.999558 
2.5156027e+3, 1.5144806e+2, -1336858.9, -1278227.8, 163461.83, 0.14708641, 0.25075743, -1141473.6, 314363.06, 0.078587286, 10.000095, 10.000957 
2.5152272e+3, 1.6144174e+2, -1300957.0, -1358974.8, 67496.664, 0.081962734, 0.28246036, -1256499.4, 101398.22, 0.024857625, 10.000244, 9.999608 
2.5148457e+3, 1.7143467e+2, -1469570.9, -1390257.3, -6275.0664, -0.18217023, 0.27945483, -1389763.9, -129796.12, 0.0041356636, 9.998449, 9.999551 
2.514467e+3, 1.8142745e+2, -1579839.9, -1355598.1, 128382.88, -0.36510366, 0.30856994, -1297268.8, -135230.6, 0.00018434241, 9.996856, 9.999915 
2.5140968e+3, 1.914208e+2, -1133542.4, -1016932.2, 281342.72, -0.08597901, 0.26843953, -787916.5, 276182.28, 0.00000026313862, 9.99903, 10.000468 
2.5137255e+3, 2.0141362e+2, -949393.6, -1114247.9, 159278.52, 0.09122068, 0.30503243, -852477.8, 113689.75, 0.0, 10.000562, 9.998434 
2.513346e+3, 2.1140558e+2, -1052545.8, -1158250.6, 6733.2827, -0.06668, 0.3732265, -1052118.6, -183862.66, 0.0, 9.999471, 9.9979315 
2.512968e+3, 2.2139755e+2, -1023596.5, -1040051.1, 5514.134, -0.2008122, 0.47486326, -1021919.56, -251578.8, 0.0, 9.998595, 9.998574 
2.512594e+3, 2.3138857e+2, -747164.75, -750710.3, 20898.998, -0.14192066, 0.3106857, -727963.44, -55543.316, 0.0, 9.999441, 9.999425 
2.5122195e+3, 2.4137965e+2, -604203.4, -697880.9, -22053.076, -0.12779504, 0.19640526, -599271.4, -24772.145, 0.0, 9.999993, 9.998871 
2.5118443e+3, 2.5137123e+2, -645580.94, -650993.3, -31721.18, -0.12707399, 0.11803457, -616450.7, -139871.22, 0.0, 9.9990425, 9.998937 
2.5114694e+3, 2.613632e+2, -568594.2, -539204.0, -61782.324, -0.11104158, 0.11376909, -490393.2, -111736.53, 0.0, 9.998686, 9.999268 
2.5110936e+3, 2.7135593e+2, -86057.84, -186589.03, -67620.19, -0.097402066, 0.07413626, -52067.164, 228660.95, 0.0, 10.001088, 9.999836 
2.5107184e+3, 2.813485e+2, 218558.08, -116514.94, 23956.877, -0.1289032, 0.09029092, 220262.27, 403063.38, 0.0, 10.002996, 9.998737 
2.5103453e+3, 2.913413e+2, 181588.73, -120387.016, 51817.85, -0.20826527, 0.16775492, 190233.02, 275105.84, 0.0, 10.002264, 9.998359 
2.509974e+3, 3.013343e+2, -34644.445, -400336.34, 3056.822, -0.13037725, 0.37905088, -34618.895, -34618.895, 0.0, 10.001302, 9.996593 
2.5095984e+3, 3.1132415e+2, 55658.016, -234479.19, 107372.984, -0.17665824, 0.42012548, 91071.7, 91071.7, 0.0, 10.001346, 9.997667 
2.5267208e+3, 1.2184732e+2, -1600251.3, -1730998.9, 33665.38, -0.13183549, 0.1039672, -1592092.1, 153814.39, 0.3720952, 10.001557, 9.9991455 
2.5263438e+3, 1.3184029e+2, -1620105.0, -1878319.6, -9123.409, -0.12030228, 0.26052046, -1619783.0, 28200.291, 0.26429757, 10.001132, 9.997586 
2.52597e+3, 1.4183109e+2, -1599253.8, -1635540.1, 69795.516, 0.19735162, 0.24020042, -1545281.8, 4798.555, 0.15642525, 9.999652, 9.99933 
2.5255957e+3, 1.5182489e+2, -1588357.1, -1436203.1, 57770.383, 0.19569325, 0.21892667, -1416754.6, 35387.863, 0.071005836, 9.998523, 10.000537 
2.5252196e+3, 1.6181855e+2, -1627624.0, -1541398.6, -76499.06, 0.16375513, 0.27918845, -1496700.1, -142494.69, 0.021693112, 9.9981365, 9.999368 
2.5248384e+3, 1.718115e+2, -1210886.1, -1280630.3, -135624.53, -0.14961566, 0.29534617, -1105722.3, 150554.0, 0.00335279, 10.000415, 9.999331 
2.5244594e+3, 1.8180472e+2, -887081.1, -1018091.5, 45217.47, -0.32468534, 0.3732677, -872990.1, 285352.2, 0.00011963712, 10.001554, 9.999978 
2.5240898e+3, 1.9179834e+2, -927312.6, -882217.2, 103023.625, -0.072731294, 0.3026616, -799302.75, 261093.89, 0.00000002568285, 10.000228, 10.000826 
2.5237182e+3, 2.0179112e+2, -1189499.8, -1342898.6, -70398.65, 0.10741764, 0.31365505, -1162089.8, -199626.72, 0.0, 9.999372, 9.997445 
2.523338e+3, 2.1178037e+2, -1011621.75, -1315734.8, -141080.67, -0.15352492, 0.21673964, -956253.7, -91675.805, 0.0, 10.000465, 9.99638 
2.522959e+3, 2.217703e+2, -783731.2, -1004054.25, 1838.8107, -0.29693413, 0.23117262, -783715.9, -17032.355, 0.0, 10.000664, 9.997793 
2.5225878e+3, 2.3176333e+2, -637124.75, -724210.25, 55256.33, -0.038856976, 0.27792335, -610316.7, 58429.414, 0.0, 10.000362, 9.999145 
2.522215e+3, 2.41756e+2, -698707.75, -809884.06, 12432.972, 0.14022627, 0.37435874, -697334.4, -126520.92, 0.0, 9.999706, 9.998238 
2.5218374e+3, 2.5174686e+2, -565124.75, -645440.44, -49761.19, -0.06472751, 0.24612099, -541338.6, -68433.41, 0.0, 9.999818, 9.998584 
2.5214604e+3, 2.6173857e+2, -519469.5, -565996.0, -37644.39, -0.21872544, 0.25704077, -498480.3, -123491.875, 0.0, 9.999351, 9.998736 
2.5210866e+3, 2.7173245e+2, -342165.13, -315992.97, -24314.352, -0.15758057, 0.32372418, -301466.84, -24418.889, 0.0, 9.99948, 9.999654 
2.520713e+3, 2.8172478e+2, -357362.75, -462933.06, 22192.691, -0.17724195, 0.3506342, -352887.2, -173765.34, 0.0, 9.999468, 9.998031 
2.5203383e+3, 2.9171357e+2, -166661.67, -325297.25, 56552.902, -0.39789718, 0.049726255, -148565.19, -67334.49, 0.0, 10.000163, 9.997919 
2.5199667e+3, 3.0170634e+2, -75403.086, -127237.29, 14122.576, -0.25386515, 0.192753, -71805.055, -71805.055, 0.0, 9.999891, 9.999108 
2.5195923e+3, 3.1170246e+2, 76285.85, 300827.47, 64242.426, -0.26367012, 0.3746585, 317908.22, 317908.22, 0.0, 9.999454, 10.002168 
2.536717e+3, 1.2222339e+2, -1683627.1, -1734972.8, 45585.99, -0.05588955, -0.036468405, -1656981.9, 85234.08, 0.34545994, 10.000461, 9.99963 
2.5363368e+3, 1.3221532e+2, -1694952.5, -1950168.1, -45578.24, -0.2507415, 0.022810586, -1687057.1, -42755.816, 0.24384509, 10.000722, 9.997265 
2.53596e+3, 1.422067e+2, -1738599.3, -1795955.0, 35819.266, -0.097353525, 0.11073695, -1721392.1, -174999.06, 0.14280653, 9.999194, 9.998405 
2.5355858e+3, 1.5220135e+2, -1665365.0, -1593891.3, 42865.99, 0.018907895, 0.29052567, -1573819.4, -125366.516, 0.06363834, 9.998604, 9.999356 
2.5352108e+3, 1.621953e+2, -1629812.3, -1575041.9, -24667.064, 0.09532481, 0.47247085, -1565570.4, -215052.98, 0.0187796, 9.998279, 9.999057 
2.5348327e+3, 1.7218669e+2, -1162730.0, -1245592.9, -28614.787, -0.10199791, 0.32367074, -1153809.0, 98792.516, 0.0026956536, 10.0006485, 9.999473 
2.5344554e+3, 1.821785e+2, -886585.2, -1081231.0, 29664.227, -0.2614358, 0.27462718, -882164.7, 272515.03, 0.00007576087, 10.001862, 9.9993725 
2.534083e+3, 1.9217092e+2, -970869.06, -1028490.2, 29340.979, -0.13087094, 0.19397461, -958558.56, 98187.68, 0.00000000011876218, 10.000459, 9.999706 
2.53371e+3, 2.0216301e+2, -1136853.5, -1269651.1, -89431.68, -0.044893928, 0.20160787, -1091866.4, -133047.66, 0.0, 9.999522, 9.997854 
2.5333324e+3, 2.1215379e+2, -831870.56, -1118233.5, -84937.12, -0.11661672, 0.17450672, -808573.06, 52340.28, 0.0, 10.001196, 9.997379 
2.5329554e+3, 2.2214505e+2, -491569.03, -739382.44, -8365.446, -0.21468355, 0.2162735, -491286.97, 271714.53, 0.0, 10.002099, 9.9989195 
2.5325802e+3, 2.3213814e+2, -468599.78, -573413.9, 38116.99, -0.19507772, 0.2124743, -456204.0, 208861.11, 0.0, 10.001166, 9.999822 
2.5322062e+3, 2.421306e+2, -596234.5, -792341.25, 21508.633, -0.14986365, 0.25878417, -593903.2, -26765.453, 0.0, 10.000455, 9.998024 
2.531831e+3, 2.5212124e+2, -477429.6, -716452.06, -17194.69, -0.0688399, 0.2157306, -476199.0, -6961.0635, 0.0, 10.000836, 9.997637 
2.5314555e+3, 2.62113e+2, -312544.44, -499693.38, -62574.41, -0.075558685, 0.3075952, -293550.1, 77775.2, 0.0, 10.000835, 9.998495 
2.5310788e+3, 2.7210763e+2, -406227.3, -412626.25, -77247.42, -0.17950693, 0.51759845, -332113.13, -58733.523, 0.0, 9.9992285, 9.999146 
2.5307038e+3, 2.8210068e+2, -437713.84, -360099.56, 34838.05, -0.28200334, 0.6018839, -346756.13, -171309.9, 0.0, 9.998254, 9.999318 
2.5303316e+3, 2.9208925e+2, -162699.98, -164881.97, 130183.43, -0.3595189, 0.16745003, -33602.98, 43946.24, 0.0, 9.999435, 9.9994135 
2.5299615e+3, 3.0208024e+2, -46277.492, -215328.36, 35765.055, -0.15389691, 0.07896375, -39022.273, -39022.273, 0.0, 10.000395, 9.998321 
2.529587e+3, 3.1207556e+2, 79096.73, 59121.414, -101163.86, -0.12528276, 0.42886248, 170764.77, 170764.77, 0.0, 10.000245, 10.000257 
2.5467142e+3, 1.2259718e+2, -1859624.0, -1603756.1, 24113.836, 0.44499472, 0.0905587, -1601503.4, 137056.4, 0.31815657, 9.997799, 10.002159 
2.546331e+3, 1.3259055e+2, -1742033.5, -1756125.0, -215082.45, -0.12744029, 0.07238789, -1533881.5, 106744.66, 0.22319712, 9.999495, 9.99931 
2.5459543e+3, 1.4258313e+2, -1476049.9, -1625112.9, -18595.281, 0.014686692, 0.12868872, -1473765.3, 68937.086, 0.12934339, 10.000796, 9.99885 
2.5455785e+3, 1.5257694e+2, -1236750.4, -1439530.4, 18017.541, -0.04113649, 0.25061896, -1235161.9, 209607.27, 0.05657354, 10.0018, 9.998942 
2.5452033e+3, 1.6257028e+2, -1136074.6, -1384398.8, 15969.981, -0.004600226, 0.42161533, -1135051.9, 211787.72, 0.016116831, 10.001856, 9.998651 
2.5448266e+3, 1.7256162e+2, -1194185.5, -1337793.1, -42897.945, -0.05759812, 0.30865958, -1182347.0, 66578.86, 0.0021455006, 10.000689, 9.998839 
2.544451e+3, 1.8255296e+2, -1220313.0, -1344757.3, -9463.093, -0.10841461, 0.28116748, -1219597.5, -68587.8, 0.000046550977, 9.99999, 9.998484 
2.544077e+3, 1.925444e+2, -991768.94, -1156238.9, -31344.088, -0.11440121, 0.18955554, -985998.0, 67089.836, 0.0, 10.000813, 9.998679 
2.5437027e+3, 2.0253587e+2, -947331.7, -1141894.8, -92689.195, -0.068319894, 0.19053021, -910244.4, 44921.97, 0.0, 10.000717, 9.998139 
2.5433272e+3, 2.1252711e+2, -984700.9, -1086046.5, -99324.984, -0.027659329, 0.11268542, -923869.5, -66619.43, 0.0, 9.999751, 9.998273 
2.5429508e+3, 2.2251894e+2, -945265.7, -931948.2, -60505.855, -0.054292537, 0.14670365, -877735.75, -118406.98, 0.0, 9.998915, 9.999138 
2.542573e+3, 2.3251194e+2, -814118.5, -724206.7, -84615.086, -0.2789238, 0.1000562, -673346.44, -11950.242, 0.0, 9.998792, 9.999914 
2.542197e+3, 2.4250472e+2, -896808.1, -976631.06, -58148.71, -0.3159324, 0.18575242, -866191.56, -302722.72, 0.0, 9.998679, 9.997566 
2.5418252e+3, 2.5249594e+2, -652616.5, -838448.5, -8177.0903, -0.018269192, 0.20636421, -652257.44, -186691.33, 0.0, 9.999867, 9.997223 
2.5414512e+3, 2.6248786e+2, -449503.7, -629569.6, -38442.145, 0.10405738, 0.3668751, -441640.1, -73985.15, 0.0, 10.000275, 9.997838 
2.5410712e+3, 2.7248213e+2, -378195.97, -448252.3, -65411.3, -0.19387963, 0.5663548, -339024.34, -69310.36, 0.0, 9.999722, 9.998633 
2.5406948e+3, 2.8247583e+2, -379922.28, -297245.94, 98878.04, -0.3512793, 0.75400776, -231412.7, -59639.277, 0.0, 9.998599, 9.999561 
2.5403252e+3, 2.924656e+2, -297570.6, -101004.13, 139445.88, -0.2566345, 0.31204483, -28686.236, 45173.29, 0.0, 9.998073, 10.00046 
2.5399554e+3, 3.0245364e+2, -555879.44, -683587.6, 19219.293, -0.06769292, -0.047807362, -553049.75, -553049.75, 0.0, 9.998008, 9.996219 
2.5395805e+3, 3.124458e+2, -223025.52, -209523.14, -12121.412, -0.12510735, 0.1943868, -202399.64, -202399.64, 0.0, 9.998906, 9.999007 
2.5566977e+3, 1.229678e+2, -1981190.3, -1726630.4, 98426.336, -0.4170863, 0.19716835, -1693013.0, 41927.535, 0.29081753, 9.997621, 10.001034 
2.5563258e+3, 1.3296542e+2, -1474300.9, -1287793.9, -84955.05, 0.074395716, 0.28296313, -1254898.4, 382061.22, 0.2027681, 9.999862, 10.002829 
2.555951e+3, 1.4295946e+2, -1398551.4, -1465735.0, 20537.42, 0.21794958, 0.24296668, -1392770.8, 146244.34, 0.11625642, 10.000903, 9.9999275 
2.5555727e+3, 1.5295126e+2, -1205515.6, -1364810.6, 71600.164, -0.1330278, 0.08840977, -1178063.6, 263031.25, 0.04988728, 10.001763, 9.999477 
2.5551957e+3, 1.6294336e+2, -1218080.4, -1520808.9, -9170.306, -0.2951132, 0.1479183, -1217802.8, 125371.15, 0.013707004, 10.001728, 9.997768 
2.5548205e+3, 1.7293571e+2, -1279150.3, -1509372.5, -61120.074, -0.08919845, 0.26186803, -1263930.1, -18675.316, 0.0016894786, 10.000685, 9.997661 
2.5544456e+3, 1.8292773e+2, -1236284.3, -1409336.9, 17278.393, -0.0050769174, 0.39621848, -1234576.0, -87239.47, 0.000027889511, 10.000141, 9.9979515 
2.5540718e+3, 1.9291879e+2, -977904.9, -1209889.0, 30311.842, -0.09184108, 0.32071078, -974009.6, 75412.66, 0.0, 10.001172, 9.998135 
2.553697e+3, 2.0290959e+2, -814990.94, -1013158.06, -129439.57, -0.10621542, 0.26881024, -751064.8, 200443.05, 0.0, 10.001318, 9.998741 
2.5533208e+3, 2.1289952e+2, -903738.9, -973036.0, -132803.78, 0.03263969, -0.00015874727, -801138.2, 52458.934, 0.0, 9.999922, 9.998995 
2.5529438e+3, 2.2289069e+2, -977892.3, -976816.2, -79995.01, 0.044703264, -0.069769226, -897357.44, -141678.25, 0.0, 9.998794, 9.998887 
2.5525653e+3, 2.3288429e+2, -894555.06, -871688.1, -93322.16, -0.2129559, 0.045634, -789101.7, -131354.56, 0.0, 9.998674, 9.998969 
2.5521898e+3, 2.4287803e+2, -724839.3, -721139.0, -44941.594, -0.28255528, 0.22098093, -678009.5, -118195.85, 0.0, 9.9990425, 9.999165 
2.5518194e+3, 2.5287127e+2, -469795.22, -543521.8, 51790.36, 0.067485444, 0.2694356, -443088.53, 18797.3, 0.0, 10.0001335, 9.999163 
2.551446e+3, 2.6286376e+2, -280851.34, -443621.5, 1397.5511, 0.18496348, 0.33621538, -280839.34, 83123.76, 0.0, 10.000893, 9.998854 
2.551065e+3, 2.728554e+2, -187587.02, -346944.78, -15197.017, -0.17865166, 0.2779774, -186150.72, 79892.99, 0.0, 10.000895, 9.99882 
2.5506878e+3, 2.8284737e+2, -202091.14, -331745.66, 97735.78, -0.37434506, 0.3229107, -149637.3, 18482.688, 0.0, 10.000218, 9.99858 
2.5503168e+3, 2.928384e+2, -437180.66, -392476.63, 50693.723, -0.18582633, 0.2120814, -359425.88, -289222.63, 0.0, 9.997945, 9.998578 
2.5499475e+3, 3.0282736e+2, -421803.6, -309448.3, 54393.42, 0.09265551, -0.06690684, -287430.22, -287430.22, 0.0, 9.99747, 9.999099 
2.5495696e+3, 3.128187e+2, 153131.14, 182866.1, 158811.72, -0.5329569, -0.1767791, 327504.75, 327504.75, 0.0, 10.000363, 10.001082 
2.5666937e+3, 1.2334481e+2, -1618071.5, -1547658.5, 260608.73, -0.062078282, 0.12544067, -1319888.9, 411350.66, 0.26403108, 10.000234, 10.00155 
2.5663203e+3, 1.3334127e+2, -1321061.5, -1313455.0, 64461.37, 0.11494088, 0.24701717, -1252684.8, 380588.13, 0.18292536, 10.001641, 10.00173 
2.5659448e+3, 1.4333512e+2, -1227323.0, -1409246.5, 19948.06, 0.14788926, 0.27174032, -1225161.4, 310170.78, 0.1037245, 10.002253, 9.9997225 
2.565567e+3, 1.5332665e+2, -1216747.3, -1408276.3, -16093.632, -0.18063001, 0.09724822, -1215404.4, 222010.39, 0.043632858, 10.001744, 9.999205 
2.5651902e+3, 1.6331846e+2, -1231851.8, -1482515.8, -62378.43, -0.28400064, 0.11333262, -1217186.6, 122308.96, 0.011545959, 10.001457, 9.998137 
2.5648153e+3, 1.7331086e+2, -1054838.9, -1379223.5, -26676.285, -0.027047476, 0.19693144, -1052659.8, 188913.72, 0.0013158798, 10.002154, 9.997824 
2.564441e+3, 1.8330291e+2, -1000017.1, -1283161.0, 151787.56, 0.11310769, 0.33111727, -934026.9, 209627.25, 0.000016496271, 10.001771, 9.998021 
2.564066e+3, 1.9329385e+2, -1195404.8, -1337593.6, 178560.1, -0.0037401407, 0.265244, -1074306.3, -28563.922, 0.0, 9.999805, 9.997931 
2.5636908e+3, 2.0328455e+2, -1130647.5, -1141138.4, 44779.836, -0.04164805, 0.2323357, -1090807.0, -142977.06, 0.0, 9.999098, 9.99893 
2.5633138e+3, 2.1327434e+2, -811190.56, -914829.6, -27009.78, 0.038454123, -0.06124243, -804573.9, 45345.746, 0.0, 10.00055, 9.999096 
2.5629368e+3, 2.2326522e+2, -716231.25, -945088.5, -784.16974, 0.07593738, -0.11354387, -716228.56, 35776.586, 0.0, 10.001051, 9.997985 
2.5625587e+3, 2.3325819e+2, -818963.3, -960898.9, -32718.516, -0.10237788, 0.028852925, -811784.25, -157700.67, 0.0, 9.999773, 9.997801 
2.562183e+3, 2.4325189e+2, -706698.3, -625687.56, 49062.324, -0.15489984, 0.24924973, -602570.6, -46418.566, 0.0, 9.998859, 9.999886 
2.561812e+3, 2.532462e+2, -578534.44, -461557.5, 55872.004, 0.04842662, 0.26234046, -439159.75, 19049.098, 0.0, 9.998868, 10.00032 
2.561439e+3, 2.6323932e+2, -563085.25, -543192.44, -51358.035, 0.15544468, 0.310428, -500826.53, -140551.39, 0.0, 9.9989195, 9.999058 
2.5610593e+3, 2.7322924e+2, -359706.0, -419492.8, -67648.9, -0.12319085, 0.034319915, -315640.03, -53271.215, 0.0, 9.999762, 9.998822 
2.5606817e+3, 2.8321937e+2, -349189.3, -599177.3, 6206.7563, -0.32780823, -0.03330974, -349035.28, -184571.2, 0.0, 10.000137, 9.996752 
2.5603086e+3, 2.9321048e+2, -275610.03, -555645.1, -8346.27, -0.19526027, 0.0368322, -275361.5, -208805.42, 0.0, 10.000168, 9.996342 
2.5599402e+3, 3.032022e+2, 39633.066, 152185.66, 94132.586, 0.22030085, 0.08233954, 205581.44, 205581.44, 0.0, 9.999756, 10.001085 
2.559563e+3, 3.132002e+2, -153967.92, 183063.77, 312669.06, -0.5616717, 0.26748267, 369737.34, 369737.34, 0.0, 9.99788, 10.002159 
2.576689e+3, 1.23723276e+2, -1749455.8, -1800416.8, 218943.88, 0.05923345, -0.093067035, -1554514.6, 173000.38, 0.23823552, 10.0001955, 9.999369 
2.5763136e+3, 1.3371682e+2, -1537620.6, -1752805.6, 106133.8, -0.060389955, 0.04725463, -1494082.3, 135501.22, 0.16394834, 10.001526, 9.998255 
2.575937e+3, 1.4371005e+2, -1360796.0, -1580744.4, 26464.547, -0.2243588, 0.25563863, -1357656.5, 173998.77, 0.09188186, 10.001761, 9.998663 
2.5755614e+3, 1.5370259e+2, -1298443.8, -1511860.3, 1716.9381, -0.2284271, 0.25004727, -1298429.9, 135303.7, 0.03784501, 10.001458, 9.998619 
2.5751865e+3, 1.6369492e+2, -1134195.9, -1252188.0, -40848.598, -0.15528244, 0.28795126, -1121434.5, 214375.03, 0.009625426, 10.001396, 9.9997225 
2.5748116e+3, 1.7368655e+2, -911893.6, -1104004.9, 34980.324, 0.00389309, 0.10785482, -905722.5, 332163.56, 0.0010124295, 10.002266, 9.999648 
2.574436e+3, 1.836783e+2, -915012.3, -1129824.8, 97394.74, 0.086214095, 0.07459038, -877429.5, 262532.9, 0.000009793076, 10.001881, 9.999004 
2.5740603e+3, 1.9366984e+2, -1156078.9, -1237357.6, 146344.02, 0.08869416, 0.006458255, -1044836.3, -2794.6418, 0.0, 9.999706, 9.998665 
2.5736836e+3, 2.0366155e+2, -1157489.1, -1207350.1, 129113.64, -0.0041496158, 0.050771113, -1050921.1, -106800.125, 0.0, 9.999108, 9.998475 
2.573306e+3, 2.1365324e+2, -734820.44, -973078.3, 108424.22, -0.19330655, 0.044578098, -692867.06, 153334.73, 0.0, 10.001436, 9.998285 
2.5729293e+3, 2.2364438e+2, -565008.5, -949019.6, -6880.4697, -0.22027035, 0.09478645, -564885.25, 183405.97, 0.0, 10.002358, 9.997331 
2.5725535e+3, 2.3363465e+2, -713116.6, -1007026.6, -38381.695, -0.009999336, 0.061657593, -708187.0, -57791.684, 0.0, 10.00082, 9.9970045 
2.572177e+3, 2.4362639e+2, -621526.7, -632241.9, 60332.72, -0.033520907, 0.1448909, -566314.1, -13832.817, 0.0, 9.999598, 9.9995 
2.5718e+3, 2.536201e+2, -596221.5, -548241.94, 54910.184, -0.3734356, 0.19509867, -512309.78, -57768.184, 0.0, 9.99901, 9.999692 
2.5714254e+3, 2.6361305e+2, -541537.56, -517265.75, -52462.67, -0.41824594, 0.25295722, -475553.6, -118943.85, 0.0, 9.998923, 9.999239 
2.571053e+3, 2.7360415e+2, -343024.66, -410027.13, -62563.223, -0.05591235, 0.10215738, -305557.66, -46861.492, 0.0, 9.99977, 9.998907 
2.5706792e+3, 2.835957e+2, -167509.7, -486417.94, 52691.23, 0.0074063176, 0.15440698, -159029.36, 1751.7781, 0.0, 10.001192, 9.997037 
2.5703043e+3, 2.9358786e+2, 237256.47, -313744.16, 89759.32, -0.24458563, 0.34922102, 251509.77, 314374.3, 0.0, 10.003598, 9.996395 
2.569933e+3, 3.035776e+2, 368409.03, 143394.63, -24901.287, -0.032682177, 0.25441512, 371131.8, 371131.8, 0.0, 10.002606, 9.999691 
2.5695547e+3, 3.135691e+2, -584390.7, -248821.67, 97828.836, -0.40298733, 0.031012595, -222384.34, -222384.34, 0.0, 9.995664, 10.000321 
2.5866812e+3, 1.2409852e+2, -1427665.4, -1657401.9, 52581.207, -0.26442814, -0.09480078, -1416202.8, 307635.78, 0.21373183, 10.002755, 9.999108 
2.5863084e+3, 1.3409233e+2, -1409374.4, -1702707.3, -10336.409, -0.08584843, 0.03961938, -1409010.6, 216891.02, 0.14603193, 10.002456, 9.998182 
2.585932e+3, 1.4408499e+2, -1426115.9, -1609457.5, 8500.196, -0.1739702, 0.18657622, -1425722.6, 102255.23, 0.080827504, 10.001241, 9.998699 
2.5855553e+3, 1.5407757e+2, -1550569.8, -1660905.0, -20244.521, -0.21254748, 0.20424017, -1546972.5, -116916.36, 0.032553293, 9.99981, 9.99838 
2.5851798e+3, 1.6406997e+2, -1417128.4, -1368788.8, -1568.3313, -0.14039682, 0.25138986, -1368737.9, -36605.53, 0.007938516, 9.999324, 9.999915 
2.5848058e+3, 1.7406195e+2, -1238005.8, -1242475.0, -63921.367, 0.02587783, 0.07539481, -1176279.9, 57925.71, 0.00076767127, 9.999935, 9.9998255 
2.5844306e+3, 1.8405391e+2, -1031042.75, -1152486.1, -93879.734, 0.12245669, 0.024681723, -979958.7, 156319.38, 0.000005913737, 10.000948, 9.999293 
2.5840542e+3, 1.9404559e+2, -832707.75, -1042281.25, -103798.02, 0.1301055, -0.095502235, -790001.1, 248351.7, 0.0, 10.0018015, 9.998968 
2.583677e+3, 2.0403777e+2, -859480.8, -1124292.4, -38972.645, 0.011311672, -0.016494809, -853864.25, 86563.54, 0.0, 10.001428, 9.997923 
2.5832984e+3, 2.1403034e+2, -1054965.1, -1207036.8, -25609.54, -0.32520074, 0.0892516, -1050768.1, -208262.42, 0.0, 9.999578, 9.997576 
2.582922e+3, 2.2402175e+2, -990041.9, -1189457.6, -97280.336, -0.36517173, 0.21398757, -950447.5, -205851.56, 0.0, 9.999712, 9.996935 
2.582548e+3, 2.3401095e+2, -600319.75, -998379.6, -105451.94, 0.030682722, 0.09462346, -574109.75, 72599.26, 0.0, 10.001903, 9.996527 
2.5821713e+3, 2.4400179e+2, -308340.03, -546017.0, 11454.911, 0.03101082, 0.13802484, -307789.22, 241012.75, 0.0, 10.002131, 9.998827 
2.58179e+3, 2.5399455e+2, -562226.3, -628611.2, 2707.676, -0.6151871, 0.14300951, -562116.06, -111246.43, 0.0, 9.999758, 9.998742 
2.5814146e+3, 2.63987e+2, -563917.0, -566516.1, -22969.65, -0.71680784, 0.22486837, -542210.2, -189266.7, 0.0, 9.9989805, 9.998879 
2.5810468e+3, 2.7397907e+2, -302682.94, -415271.22, -40078.594, 0.023682643, 0.16138116, -289873.34, -34848.598, 0.0, 10.000241, 9.998625 
2.5806764e+3, 2.8397244e+2, -190946.2, -433547.5, 132071.55, 0.28383029, 0.3967247, -132923.86, 24170.383, 0.0, 10.00084, 9.997535 
2.5803003e+3, 2.93966e+2, -189465.69, -464193.16, 202429.73, -0.2582192, 0.6342975, -82193.79, -23029.836, 0.0, 10.000516, 9.996819 
2.5799248e+3, 3.0395296e+2, -135940.11, -297409.03, -120150.945, -0.34773892, 0.33421472, -71918.555, -71918.555, 0.0, 10.000095, 9.997842 
2.5795493e+3, 3.1394374e+2, -188726.11, 83924.65, -248516.33, 0.09130647, 0.22131547, 231051.17, 231051.17, 0.0, 9.997901, 10.001521 
2.5966752e+3, 1.2447359e+2, -1496232.1, -1564929.0, 8338.189, -0.5678417, 0.14217447, -1495234.5, 224937.39, 0.19077115, 10.001543, 10.000438 
2.5963044e+3, 1.3446775e+2, -1371097.1, -1498567.0, 45.023716, -0.038894165, 0.12922601, -1371097.1, 251127.02, 0.12932457, 10.001901, 9.999967 
2.5959286e+3, 1.4445946e+2, -1449651.1, -1579981.0, -47466.867, 0.0351851, 0.07373416, -1434196.1, 90108.01, 0.07062259, 10.000927, 9.999043 
2.5955477e+3, 1.5445098e+2, -1560499.6, -1640372.4, -40165.324, -0.29665706, -0.034522716, -1543795.4, -117405.81, 0.027766839, 9.999662, 9.99858 
2.5951707e+3, 1.6444337e+2, -1491288.3, -1519843.0, 24186.943, -0.36087507, 0.052913703, -1477479.1, -149011.48, 0.0064744665, 9.999335, 9.998864 
2.5947985e+3, 1.7443658e+2, -1316600.8, -1424396.8, -6536.6846, -0.059448868, 0.13221583, -1316205.9, -85667.664, 0.0005723583, 9.999994, 9.99856 
2.5944242e+3, 1.8442906e+2, -1027331.56, -1158772.8, -53233.184, 0.0556862, 0.20525268, -1008476.94, 124133.305, 0.0000035552432, 10.001011, 9.999218 
2.594048e+3, 1.944201e+2, -753178.75, -1011510.0, -45877.063, -0.05481539, 0.033705298, -745273.4, 289416.5, 0.0, 10.00234, 9.9989395 
2.5936705e+3, 2.0441154e+2, -732821.7, -1011425.7, -140641.81, -0.18872254, 0.018176299, -674171.25, 262599.8, 0.0, 10.002071, 9.998395 
2.5932914e+3, 2.1440336e+2, -993950.4, -1141192.8, -116130.58, -0.3502519, 0.03162156, -930071.06, -91215.67, 0.0, 9.999785, 9.997965 
2.5929147e+3, 2.2439541e+2, -907585.9, -1054707.9, -6650.9033, -0.38175046, 0.15822875, -907285.8, -166347.52, 0.0, 9.999849, 9.997791 
2.592542e+3, 2.3438728e+2, -348378.97, -797356.25, 36649.7, -0.22321768, 0.2425735, -345406.97, 297617.03, 0.0, 10.003229, 9.997285 
2.5921664e+3, 2.443786e+2, -59140.15, -443014.97, -80149.14, -0.13158198, 0.29439566, -43077.91, 502032.5, 0.0, 10.003839, 9.998732 
2.5917885e+3, 2.5436926e+2, -419135.16, -601098.3, -90574.76, -0.17807539, 0.14266525, -381736.7, 65460.766, 0.0, 10.000819, 9.998452 
2.591413e+3, 2.6436067e+2, -447681.9, -535902.0, 31549.533, -0.16971599, 0.1427005, -437560.34, -88279.305, 0.0, 9.999862, 9.998668 
2.5910416e+3, 2.743529e+2, -117164.29, -361728.06, 30326.898, 0.03698043, 0.16362263, -113459.75, 137901.67, 0.0, 10.001602, 9.998361 
2.5906688e+3, 2.8434587e+2, 20879.53, -139613.38, 55936.785, 0.0890517, 0.28055686, 38451.363, 191884.53, 0.0, 10.001392, 9.999305 
2.5902933e+3, 2.9433882e+2, -351018.1, -337332.1, 116588.54, -0.19683336, 0.30681816, -227385.9, -171883.27, 0.0, 9.998407, 9.998747 
2.589919e+3, 3.0432984e+2, -235314.39, -271164.13, 12422.543, -0.1535681, 0.26976332, -231430.53, -231430.53, 0.0, 9.999026, 9.998581 
2.5895378e+3, 3.1432003e+2, 634326.5, 341226.94, 160649.63, -0.5845678, 0.11144244, 705228.2, 705228.2, 0.0, 10.004051, 10.000368 
2.606669e+3, 1.24849595e+2, -1916583.9, -1865568.5, 73000.31, -0.45637944, 0.19078818, -1813747.8, -97259.36, 0.16949552, 9.998703, 9.999524 
2.606299e+3, 1.3484254e+2, -1505616.8, -1571100.0, 18865.055, -0.0021737071, 0.08600566, -1500570.8, 117981.63, 0.11391175, 10.000831, 9.99992 
2.605923e+3, 1.448344e+2, -1397931.6, -1522246.3, -119897.38, 0.0773963, 0.027534418, -1325037.5, 195592.67, 0.061296463, 10.001163, 9.999325 
2.6055416e+3, 1.5482669e+2, -1503380.4, -1596193.9, -135366.02, -0.19446497, -0.033085138, -1406687.4, 16019.61, 0.023481611, 9.999977, 9.998727 
2.605164e+3, 1.6481905e+2, -1404173.8, -1554873.9, 58408.793, -0.30180797, 0.07079937, -1384186.4, -59400.695, 0.005220199, 10.000256, 9.998206 
2.6047915e+3, 1.7481165e+2, -1123457.8, -1438008.5, 30905.531, -0.14199726, 0.16992751, -1120449.9, 106415.21, 0.00041937284, 10.001765, 9.997641 
2.6044175e+3, 1.8480384e+2, -974280.1, -1141240.9, -18586.105, -0.06544545, 0.26620743, -972236.1, 156705.77, 0.0000020172258, 10.001393, 9.999165 
2.6040414e+3, 1.9479509e+2, -1259588.5, -1279114.4, -31303.98, -0.120740876, 0.12153727, -1236560.4, -205539.86, 0.0, 9.998971, 9.998724 
2.6036638e+3, 2.0478632e+2, -1140980.8, -1201749.9, -113888.59, -0.20655085, 0.09984419, -1053493.3, -120388.89, 0.0, 9.999289, 9.9984045 
2.603285e+3, 2.1477744e+2, -782112.8, -1040083.2, -137370.0, -0.29663372, 0.025396852, -722663.1, 112531.68, 0.0, 10.001327, 9.997881 
2.6029083e+3, 2.2476982e+2, -646035.4, -839028.75, 46936.31, -0.3504169, 0.15387742, -635225.9, 102046.4, 0.0, 10.001276, 9.998584 
2.6025352e+3, 2.3476318e+2, -954459.7, -1010115.3, 87622.71, -0.34033486, 0.2890725, -890352.06, -251011.97, 0.0, 9.998769, 9.997961 
2.6021615e+3, 2.4475487e+2, -776131.6, -802405.8, -86141.3, -0.15079947, 0.35174978, -702131.44, -160710.63, 0.0, 9.999019, 9.998582 
2.6017863e+3, 2.5474438e+2, -441339.47, -654732.06, -90672.74, 0.23426439, 0.09511332, -408015.6, 35503.008, 0.0, 10.000904, 9.998038 
2.6014107e+3, 2.647352e+2, -242190.27, -530253.7, 130127.125, 0.27679643, 0.107908465, -192113.23, 153495.77, 0.0, 10.001753, 9.997783 
2.6010358e+3, 2.74727e+2, -227908.17, -538984.56, 92715.836, -0.01265074, 0.1568429, -202370.8, 45324.566, 0.0, 10.001429, 9.997231 
2.6006615e+3, 2.847187e+2, -6453.434, -9685.091, -65252.652, -0.115862764, 0.15053116, 57203.39, 206980.39, 0.0, 10.000668, 10.00053 
2.6002857e+3, 2.9471055e+2, -280099.88, -178623.31, -76616.305, -0.11252439, -0.0883744, -137468.02, -85617.03, 0.0, 9.998473, 9.999779 
2.599913e+3, 3.0470625e+2, -234147.6, -218775.8, 64423.12, 0.04103653, 0.26235348, -161581.72, -161581.72, 0.0, 9.9989395, 9.998918 
2.59954e+3, 3.1470188e+2, 115470.48, 154373.53, 511009.94, -0.08368873, 0.5735483, 646302.0, 646302.0, 0.0, 10.000378, 10.000807 
2.616665e+3, 1.2522706e+2, -1959015.1, -1870147.1, 108387.31, -0.14259778, 0.32298312, -1797439.4, -84652.03, 0.14988421, 9.998428, 9.99959 
2.6162925e+3, 1.3521703e+2, -1628991.8, -1766449.8, 103973.914, -0.10099563, 0.0033992296, -1573084.3, 41799.38, 0.09979623, 10.000535, 9.998667 
2.615916e+3, 1.452096e+2, -1419815.4, -1480359.8, -158511.03, -0.066155955, 0.05719405, -1288711.8, 228245.14, 0.05285716, 10.000808, 9.9997835 
2.6155367e+3, 1.5520415e+2, -1518831.5, -1599662.9, -146373.69, -0.0109074, 0.19635497, -1407396.4, 11616.521, 0.019694533, 9.999855, 9.998774 
2.6151595e+3, 1.651963e+2, -1414202.9, -1579498.1, 127276.03, -0.14540039, 0.29161814, -1345094.8, -24002.248, 0.004163879, 10.000297, 9.9979925 
2.6147842e+3, 1.751862e+2, -1125780.1, -1471242.4, 113836.07, -0.42077255, 0.14730078, -1091642.5, 131551.84, 0.00030229846, 10.001913, 9.99732 
2.6144093e+3, 1.8517786e+2, -938058.4, -1098828.5, -113461.17, -0.3807463, 0.18966727, -879392.4, 245883.75, 0.0000010444409, 10.001515, 9.999399 
2.6140338e+3, 1.9517066e+2, -1272435.3, -1288400.4, -95226.02, -0.10970928, 0.20266585, -1184857.8, -157514.34, 0.0, 9.998833, 9.998746 
2.6136574e+3, 2.0516239e+2, -1150357.4, -1241478.6, 12008.068, -0.09089483, 0.24400489, -1148801.5, -219377.03, 0.0, 9.999342, 9.998109 
2.6132804e+3, 2.1515295e+2, -619834.06, -1006472.9, -2074.6035, -0.31481978, 0.16450755, -619822.94, 211696.86, 0.0, 10.002581, 9.997512 
2.612904e+3, 2.2514446e+2, -418843.9, -581656.4, -87727.3, -0.3262322, 0.15045564, -380571.2, 353030.06, 0.0, 10.002136, 9.999959 
2.6125285e+3, 2.3513672e+2, -960023.94, -875004.4, -26583.984, -0.14633384, 0.06783355, -867376.44, -231705.16, 0.0, 9.998029, 9.999283 
2.6121542e+3, 2.451289e+2, -862831.0, -763884.9, 66512.39, 0.02537383, 0.07539994, -730463.5, -192720.08, 0.0, 9.9980345, 9.999331 
2.6117808e+3, 2.551207e+2, -218355.27, -490413.38, 95465.336, 0.19443366, 0.007987772, -188199.08, 251621.72, 0.0, 10.002106, 9.998616 
2.611406e+3, 2.6511204e+2, -78298.83, -622939.25, 137963.83, 0.15018335, 0.12314394, -45344.88, 296565.7, 0.0, 10.003535, 9.996321 
2.6110303e+3, 2.751029e+2, -190454.97, -684440.7, 89741.2, -0.10077484, 0.26520348, -174657.13, 69355.3, 0.0, 10.0022745, 9.995862 
2.6106545e+3, 2.8509328e+2, 26716.15, -45715.688, -102704.47, -0.19546127, 0.21078278, 99402.945, 245509.45, 0.0, 10.001088, 10.000082 
2.6102778e+3, 2.9508358e+2, -59227.316, -129230.2, -138020.77, -0.18913509, -0.09724109, 48160.97, 96350.93, 0.0, 10.000182, 9.999304 
2.609904e+3, 3.0507898e+2, -104754.08, -104074.57, 19746.559, -0.116723046, 0.21053296, -84664.84, -84664.84, 0.0, 9.999455, 9.999499 
2.6095363e+3, 3.1507248e+2, -278257.66, -145297.67, 102020.12, 0.3317366, 0.27397695, -90008.64, -90008.64, 0.0, 9.997952, 9.999932 
2.6266578e+3, 1.255983e+2, -1547568.5, -1534483.6, -59190.55, -0.17342548, 0.17119764, -1481475.0, 227679.08, 0.13183987, 10.0007515, 10.000927 
2.6262864e+3, 1.3559157e+2, -1710124.9, -1683724.5, -23185.943, -0.021348106, 0.058967408, -1670244.5, -59028.313, 0.08692974, 9.999388, 9.999792 
2.6259097e+3, 1.4558513e+2, -1595345.9, -1602488.8, -206609.34, -0.018457333, 0.16420607, -1392277.1, 121002.84, 0.045284748, 9.999623, 9.999559 
2.6255298e+3, 1.5557921e+2, -1352139.0, -1536303.5, -229269.81, -0.03677206, 0.2775574, -1197150.9, 218191.25, 0.01638905, 10.00102, 9.998697 
2.625153e+3, 1.6557129e+2, -1218359.3, -1404526.5, 100536.52, -0.16800477, 0.31771514, -1174431.4, 142988.06, 0.0032885466, 10.001277, 9.99874 
2.6247784e+3, 1.7556123e+2, -1301445.5, -1492764.0, 143341.6, -0.4230469, 0.11098121, -1224775.1, -5260.4854, 0.00021471751, 10.000402, 9.997929 
2.624403e+3, 1.8555275e+2, -1088421.5, -1242827.5, -120557.695, -0.37261102, 0.14271082, -1022465.6, 99132.77, 0.00000047553752, 10.000803, 9.99875 
2.6240274e+3, 1.9554578e+2, -973853.1, -1230605.4, -184672.58, -0.034122266, 0.23883376, -877319.5, 146350.06, 0.0, 10.0012865, 9.99796 
2.623651e+3, 2.0553774e+2, -936526.5, -1096784.8, 36291.176, -0.018781759, 0.31968802, -928691.3, -2942.0596, 0.0, 10.000654, 9.998462 
2.6232752e+3, 2.1552856e+2, -1152397.1, -1237076.6, 73127.99, -0.27067703, 0.22523049, -1110236.3, -282397.2, 0.0, 9.998854, 9.997723 
2.6228988e+3, 2.2551964e+2, -787020.7, -716775.3, -122681.16, -0.24468997, 0.14261797, -624288.2, 105633.17, 0.0, 9.999481, 10.000291 
2.622522e+3, 2.355109e+2, -640208.6, -699459.06, -158785.72, 0.036147725, -0.0939876, -508308.13, 123689.09, 0.0, 10.00022, 9.999411 
2.6221478e+3, 2.4550319e+2, -466535.4, -575148.94, 60692.35, 0.14460665, -0.088594705, -439400.25, 94667.516, 0.0, 10.000842, 9.999244 
2.6217753e+3, 2.5549608e+2, -444949.28, -650286.0, 18711.154, 0.13160716, -0.05728178, -443258.16, -7122.231, 0.0, 10.000835, 9.998115 
2.621401e+3, 2.6548803e+2, -471554.3, -865420.9, -10003.171, 0.031244893, 0.15112159, -471300.44, -133078.2, 0.0, 10.001113, 9.995783 
2.6210248e+3, 2.7547893e+2, -538187.25, -946524.8, 60151.004, -0.14586587, 0.3223228, -529510.94, -289184.3, 0.0, 10.000373, 9.994946 
2.6206478e+3, 2.8546864e+2, -130906.15, -209137.55, -53147.61, -0.27946916, 0.28524077, -104031.65, 38395.12, 0.0, 10.000476, 9.999224 
2.6202697e+3, 2.9545712e+2, -137104.75, -305644.9, -73994.67, -0.34905022, -0.13270947, -109229.13, -64704.37, 0.0, 10.000321, 9.998019 
2.619896e+3, 3.0545178e+2, 4381.1714, -8913.699, 17289.105, -0.19979478, 0.15874392, 16256.738, 16256.738, 0.0, 10.000118, 9.999809 
2.6195234e+3, 3.1544256e+2, -483239.38, -671290.0, 18422.86, -0.14951529, -0.0950416, -481451.53, -481451.53, 0.0, 9.99856, 9.996009 
2.63665e+3, 1.2596773e+2, -1491102.8, -1281006.6, -79747.664, -0.42920822, 0.04984279, -1254165.4, 451376.2, 0.11528824, 10.000178, 10.003115 
2.6362807e+3, 1.3596597e+2, -1670167.8, -1481208.6, -29690.602, 0.10101123, 0.20069353, -1476653.3, 130897.45, 0.07524984, 9.998853, 10.00151 
2.6359028e+3, 1.459603e+2, -1669272.8, -1669916.1, -138725.19, 0.0054362467, 0.32845742, -1530868.9, -21262.277, 0.038529176, 9.999306, 9.999201 
2.6355204e+3, 1.5595183e+2, -1368164.5, -1554335.3, -136432.69, -0.41430902, 0.2146959, -1296087.0, 115608.14, 0.013527696, 10.000995, 9.998562 
2.6351452e+3, 1.659442e+2, -1077091.4, -1120092.8, 79660.984, -0.41728374, 0.18609732, -1016080.5, 297684.1, 0.0025719018, 10.001329, 10.000667 
2.634775e+3, 1.7593688e+2, -1194638.9, -1263707.4, 144190.69, -0.20611914, 0.06545755, -1080904.6, 134919.61, 0.00015054179, 10.000361, 9.999517 
2.6343998e+3, 1.8592836e+2, -1199124.6, -1495361.9, -77032.26, -0.115619466, 0.12043411, -1180290.9, -62381.223, 0.0000001940375, 10.000904, 9.996965 
2.6340213e+3, 1.9591914e+2, -983244.9, -1392932.6, -127418.234, -0.12780076, 0.17387216, -946849.44, 73162.01, 0.0, 10.001857, 9.996583 
2.6336443e+3, 2.059113e+2, -761194.4, -797078.06, -44780.29, -0.14138724, 0.23052336, -730895.3, 191192.17, 0.0, 10.000948, 10.000361 
2.633268e+3, 2.1590419e+2, -1046022.94, -997236.6, 41664.047, -0.21439429, 0.16627371, -973350.2, -149201.61, 0.0, 9.998729, 9.999434 
2.6328918e+3, 2.2589569e+2, -892155.4, -946260.44, -10833.865, -0.1771316, 0.13363571, -890066.6, -163839.61, 0.0, 9.999486, 9.998729 
2.632516e+3, 2.358864e+2, -441370.25, -763320.75, -63215.137, -0.07623459, 0.014500192, -429402.78, 198912.56, 0.0, 10.002204, 9.998034 
2.6321423e+3, 2.4587712e+2, -334289.16, -701459.2, -28064.406, 0.039090756, 0.01172885, -332156.47, 198251.2, 0.0, 10.002521, 9.997578 
2.6317695e+3, 2.558679e+2, -486966.56, -785069.5, -82179.74, 0.13905975, -0.0037967467, -465812.72, -33310.37, 0.0, 10.000973, 9.9971285 
2.6313946e+3, 2.658603e+2, -331875.53, -413272.8, -67694.125, 0.04031582, 0.09973302, -293587.63, 40990.688, 0.0, 10.000341, 9.999292 
2.6310182e+3, 2.758536e+2, -309874.38, -454182.56, 79662.266, -0.18995015, 0.19470635, -274546.88, -37902.84, 0.0, 10.000193, 9.998438 
2.6306415e+3, 2.8584448e+2, -112932.86, -270876.6, 37612.297, -0.27097335, 0.14116868, -104433.35, 34297.53, 0.0, 10.000781, 9.998698 
2.630265e+3, 2.9583347e+2, 72919.02, -229153.39, 33837.59, -0.26941207, -0.14494166, 76663.05, 117495.48, 0.0, 10.001739, 9.997907 
2.629892e+3, 3.0582562e+2, 153794.53, -154594.75, 36537.67, -0.06630118, 0.0008918985, 158064.36, 158064.36, 0.0, 10.001972, 9.997982 
2.629521e+3, 3.1581774e+2, 77455.35, -19656.916, -90642.39, 0.27263036, 0.1062723, 131727.9, 131727.9, 0.0, 10.000557, 9.999603 
2.6466462e+3, 1.263435e+2, -1289971.0, -1228422.3, 6582.6787, -0.22218059, 0.07410316, -1227726.1, 474134.13, 0.10017185, 10.001775, 10.00277 
2.6462716e+3, 1.3634266e+2, -1804379.4, -1539096.1, -58594.3, 0.082088105, 0.3804631, -1526730.6, 77133.586, 0.06469282, 9.997927, 10.001528 
2.645894e+3, 1.463361e+2, -1752819.1, -1694531.9, 25338.477, -0.040863805, 0.40809897, -1685057.0, -179130.28, 0.032530583, 9.998652, 9.999341 
2.6455152e+3, 1.5632562e+2, -1238938.9, -1486312.8, 24875.615, -0.40897772, 0.09484353, -1236462.3, 171567.75, 0.011066901, 10.001847, 9.998615 
2.64514e+3, 1.6631775e+2, -1016943.8, -1128052.9, 36958.605, -0.39437377, 0.055258293, -1005773.2, 304327.5, 0.0019930317, 10.00187, 10.00036 
2.6447687e+3, 1.763114e+2, -1387072.1, -1418330.9, -72039.016, -0.11562501, 0.06479936, -1328986.5, -116835.25, 0.00010503105, 9.999267, 9.999015 
2.6443934e+3, 1.8630278e+2, -1400311.1, -1598819.3, -136239.81, -0.07144734, 0.1164136, -1331004.8, -216765.83, 0.00000008640195, 9.999648, 9.9968 
2.6440153e+3, 1.9629265e+2, -1089168.9, -1471432.5, -105200.42, -0.18499792, 0.0937925, -1062129.9, -45778.953, 0.0, 10.0013075, 9.996286 
2.643638e+3, 2.0628494e+2, -663193.56, -682129.4, -130615.47, -0.17689134, 0.13570628, -541703.25, 376720.2, 0.0, 10.001334, 10.000978 
2.6432613e+3, 2.1627879e+2, -952717.06, -932949.8, -153030.98, -0.068587705, 0.09429822, -789483.6, 30987.402, 0.0, 9.999286, 9.999635 
2.6428854e+3, 2.2627054e+2, -935908.44, -1063306.9, -35772.156, -0.064757675, 0.10924963, -926551.25, -204003.63, 0.0, 9.999625, 9.997837 
2.6425105e+3, 2.3626104e+2, -817801.44, -1085073.9, -30439.945, -0.105277166, 0.043002952, -814378.44, -189736.52, 0.0, 10.00026, 9.996762 
2.6421365e+3, 2.4625123e+2, -680650.75, -965287.6, -17216.922, -0.02429846, 0.08859932, -679613.1, -152869.06, 0.0, 10.000596, 9.996684 
2.641763e+3, 2.562409e+2, -811853.25, -1034192.56, 8456.111, 0.14229888, 0.0555926, -811532.1, -382678.66, 0.0, 9.99919, 9.9962845 
2.641388e+3, 2.6623338e+2, -298439.6, -103688.695, 20363.705, 0.04810331, 0.071688324, -101582.195, 229340.7, 0.0, 9.99939, 10.001839 
2.641011e+3, 2.762277e+2, -337887.03, -261499.77, 19216.9, -0.20040615, -0.0051330957, -256937.78, -23970.9, 0.0, 9.999191, 10.0002365 
2.640636e+3, 2.8621978e+2, -250778.11, -380363.6, -23071.674, -0.20427652, -0.0037107186, -246792.94, -111751.49, 0.0, 10.000098, 9.998236 
2.640261e+3, 2.9621026e+2, -164790.89, -440440.8, -7483.1924, -0.1368758, -0.123325095, -164587.89, -127450.96, 0.0, 10.000612, 9.996978 
2.639886e+3, 3.0619934e+2, -108393.016, -464359.8, -421.6513, -0.1017633, -0.1739333, -108392.52, -108392.52, 0.0, 10.001086, 9.996201 
2.6395103e+3, 3.1619063e+2, 57503.957, 308892.13, 208149.8, -0.18194479, -0.024636688, 426355.1, 426355.1, 0.0, 9.9991255, 10.002484 
2.656644e+3, 1.2672259e+2, -1629228.6, -1536446.3, -126826.375, 0.020267632, 0.22327001, -1447792.8, 250350.17, 0.086430125, 10.000041, 10.001176 
2.6562604e+3, 1.3672028e+2, -1891423.1, -1742667.4, -107830.33, -0.16235241, 0.524324, -1686051.1, -85881.86, 0.055199515, 9.998067, 10.000024 
2.6558846e+3, 1.4671202e+2, -1676638.5, -1590562.3, 173700.86, -0.20686707, 0.41222295, -1454647.1, 47597.855, 0.027235242, 9.998939, 9.999901 
2.6555127e+3, 1.5670024e+2, -1257014.6, -1492817.3, 158662.98, -0.196974, -0.07838285, -1177242.9, 227108.02, 0.0089680515, 10.001727, 9.998623 
2.6551366e+3, 1.6669163e+2, -1207824.9, -1476003.8, -35651.8, -0.26933914, -0.057400312, -1203166.3, 103265.59, 0.0015322798, 10.001729, 9.998003 
2.654759e+3, 1.7668456e+2, -1507883.6, -1671201.4, -112411.086, -0.38281217, 0.1148955, -1450602.1, -242101.89, 0.00007382683, 9.999282, 9.997265 
2.6543835e+3, 1.8667588e+2, -1253385.9, -1339905.1, -49505.926, -0.37241483, 0.1390669, -1230901.9, -120314.03, 0.000000036839044, 9.99983, 9.998496 
2.654009e+3, 1.966662e+2, -937741.5, -1238159.8, -22284.121, -0.35222542, 0.002972033, -936097.5, 76589.9, 0.0, 10.001624, 9.997738 
2.6536325e+3, 2.0665792e+2, -732472.9, -880181.25, -181575.47, -0.20607038, 0.0045422483, -610306.4, 304458.38, 0.0, 10.001584, 9.99948 
2.653255e+3, 2.1665053e+2, -872173.94, -1011074.56, -188932.77, -0.038312208, -0.0060407715, -740331.06, 76497.195, 0.0, 10.000301, 9.9986105 
2.6528797e+3, 2.266421e+2, -779392.25, -880272.4, -32655.32, 0.009692775, -0.024432644, -769744.3, -50838.223, 0.0, 10.000186, 9.998841 
2.6525053e+3, 2.3663317e+2, -657455.3, -872836.25, 5052.475, -0.021239057, -0.124279894, -657336.9, -36345.12, 0.0, 10.000688, 9.998035 
2.6521298e+3, 2.4662562e+2, -579083.06, -721204.06, -1812.7115, -0.038526114, -0.001319175, -579059.94, -55990.914, 0.0, 10.000392, 9.9984865 
2.651754e+3, 2.5661862e+2, -641464.75, -775833.06, 94434.03, -0.060179118, 0.14900583, -592754.56, -167611.0, 0.0, 9.999511, 9.997923 
2.651379e+3, 2.666098e+2, -410139.72, -383785.8, 100473.445, -0.079374485, 0.08079469, -295628.94, 31598.125, 0.0, 9.999527, 9.99987 
2.6510054e+3, 2.766004e+2, -312217.78, -391918.9, 8838.76, -0.06758326, -0.16188012, -311249.34, -81938.29, 0.0, 9.999872, 9.999039 
2.6506308e+3, 2.865927e+2, -162586.2, -331158.47, -48846.414, -0.06463614, -0.10084603, -149455.06, -18068.97, 0.0, 10.000564, 9.998409 
2.650255e+3, 2.9658577e+2, -3868.2332, -288905.03, -40900.41, -0.18230237, 0.044721376, 1884.5299, 35341.92, 0.0, 10.001279, 9.9977255 
2.6498783e+3, 3.0657575e+2, -64673.055, -245178.9, -58409.063, -0.2851276, -0.054587312, -47421.52, -47421.52, 0.0, 10.0004425, 9.998055 
2.6495007e+3, 3.1657082e+2, 140337.31, 529265.94, 320441.16, -0.38258812, 0.32389957, 709633.5, 709633.5, 0.0, 9.998741, 10.004232 
2.6666337e+3, 1.2710044e+2, -2218000.3, -2017851.3, -27437.195, -0.098394334, 0.14537458, -2014158.3, -319733.63, 0.07399981, 9.996757, 9.999337 
2.666255e+3, 1.3709515e+2, -1439385.1, -1715843.1, -59193.047, -0.036516916, 0.34447265, -1427244.4, 169244.92, 0.046711504, 10.001988, 9.998337 
2.66588e+3, 1.4708667e+2, -1138696.4, -1398670.4, 145808.14, -0.095862366, 0.3133809, -1073346.1, 425225.88, 0.022592498, 10.0029335, 9.999346 
2.6655084e+3, 1.5707651e+2, -1311372.8, -1565713.9, 36240.84, -0.11944086, 0.038186956, -1306309.6, 94354.73, 0.0071954923, 10.001496, 9.998274 
2.6651317e+3, 1.670677e+2, -1254881.0, -1496865.1, -91492.77, -0.1888818, 0.03891961, -1224182.6, 78564.71, 0.001170623, 10.001361, 9.998069 
2.6647532e+3, 1.7705971e+2, -1241915.6, -1546873.9, 8438.133, -0.28307354, 0.1277447, -1241682.4, -36857.42, 0.00005271245, 10.001144, 9.997228 
2.664377e+3, 1.8705086e+2, -1085983.5, -1238333.3, 116643.72, -0.34942254, 0.1394716, -1022844.4, 84069.28, 0.000000014947995, 10.000865, 9.998718 
2.664003e+3, 1.9704166e+2, -1190616.8, -1361482.3, 6293.9844, -0.32870865, 0.03727588, -1190385.3, -181378.81, 0.0, 9.999922, 9.997723 
2.6636267e+3, 2.0703281e+2, -924391.8, -1066308.6, -160298.3, -0.179946, 0.025250904, -820048.6, 91041.49, 0.0, 10.000731, 9.99857 
2.6632494e+3, 2.170243e+2, -850459.6, -1095047.1, -127657.99, 0.040713813, -0.008281378, -795970.1, 17197.982, 0.0, 10.000953, 9.997685 
2.6628736e+3, 2.2701555e+2, -655977.44, -723048.5, 51044.26, 0.057225216, -0.07013036, -628438.06, 86809.71, 0.0, 10.000699, 9.999621 
2.662499e+3, 2.3700668e+2, -860637.25, -900679.2, 41003.637, 0.022866571, -0.2455303, -835027.75, -217698.97, 0.0, 9.999066, 9.99861 
2.662123e+3, 2.4700068e+2, -621369.25, -592218.3, -18151.994, -0.035123397, -0.06818626, -583514.2, -64126.516, 0.0, 9.999529, 9.999769 
2.6617458e+3, 2.5699583e+2, -641773.1, -730704.94, 16714.436, -0.13273536, 0.16232868, -638735.5, -217297.45, 0.0, 9.9994135, 9.99826 
2.6613715e+3, 2.669859e+2, -524334.94, -652904.2, 64737.984, -0.11432924, 0.069662966, -497386.25, -173852.02, 0.0, 9.999812, 9.997815 
2.6609993e+3, 2.769736e+2, -553657.25, -732264.06, 21784.848, 0.028921854, -0.27340835, -551038.5, -325387.2, 0.0, 9.999321, 9.996931 
2.6606256e+3, 2.8696594e+2, -206862.22, -314273.13, -8324.926, 0.012330135, -0.14094707, -206220.81, -78493.47, 0.0, 10.000231, 9.998622 
2.6602486e+3, 2.9696068e+2, -169248.03, -364790.7, -26932.555, -0.25535393, 0.14285165, -165606.36, -135824.08, 0.0, 10.00026, 9.997669 
2.6598704e+3, 3.0695203e+2, -70934.91, -49580.793, -169375.5, -0.38243794, 0.069081895, 109453.84, 109453.84, 0.0, 9.999633, 9.999737 
2.6594946e+3, 3.1694314e+2, -175919.8, 235130.84, 87255.695, -0.19872332, -0.15020746, 252886.11, 252886.11, 0.0, 9.997346, 10.002839 
2.6766205e+3, 1.2747684e+2, -2365660.0, -2285127.3, 87631.34, -0.5082877, -0.027216218, -2228953.8, -538240.2, 0.062782034, 9.996727, 9.997482 
2.676253e+3, 1.3746752e+2, -1663231.1, -2047583.6, 87703.27, 0.2153846, -0.058530416, -1644164.4, -51337.836, 0.039146993, 10.001398, 9.996339 
2.675878e+3, 1.4746022e+2, -1302567.1, -1618607.8, 105368.06, 0.08242528, 0.18229887, -1270658.9, 224249.5, 0.018543638, 10.002451, 9.998024 
2.6755014e+3, 1.574536e+2, -1372140.9, -1645946.6, 23998.203, -0.31368977, 0.38462004, -1370053.4, 26924.268, 0.005710664, 10.001308, 9.9978075 
2.6751265e+3, 1.6744532e+2, -1077391.9, -1120634.5, -68931.29, -0.19404306, 0.29402158, -1026770.5, 272281.22, 0.0008890518, 10.001352, 10.000631 
2.6747513e+3, 1.7743638e+2, -1098097.4, -1294390.9, 49556.336, 0.05328025, 0.047499683, -1086295.9, 114832.85, 0.000037964888, 10.001347, 9.998845 
2.6743746e+3, 1.8742774e+2, -1160337.4, -1435666.0, 106854.414, -0.047431313, 0.11301492, -1123733.8, -20517.553, 0.0000000057994387, 10.001059, 9.997268 
2.6739973e+3, 1.9741936e+2, -1219601.0, -1472523.5, 14833.758, -0.27500692, 0.2362313, -1218734.0, -213427.7, 0.0, 10.000115, 9.996868 
2.6736206e+3, 2.0741087e+2, -869011.9, -999043.8, -90772.34, -0.17432244, 0.27195284, -822373.44, 85016.266, 0.0, 10.000923, 9.998947 
2.6732442e+3, 2.1740222e+2, -624832.56, -921455.75, -53535.184, 0.011248434, 0.19842277, -615466.2, 194005.03, 0.0, 10.002152, 9.998312 
2.6728666e+3, 2.2739284e+2, -560236.25, -665290.8, 25886.576, -0.06454347, 0.045197666, -554203.94, 157351.0, 0.0, 10.001263, 9.999774 
2.6724893e+3, 2.3738328e+2, -762189.1, -826733.5, 40199.586, -0.23767659, -0.18993676, -742910.4, -129271.75, 0.0, 9.999554, 9.998903 
2.672116e+3, 2.4737583e+2, -592036.2, -620863.75, 24524.67, -0.033217393, -0.1462787, -578003.25, -62295.402, 0.0, 9.99984, 9.999456 
2.671743e+3, 2.5736928e+2, -451699.53, -651782.1, 32003.53, 0.23670876, -0.03935923, -446705.2, -28934.469, 0.0, 10.000674, 9.9982195 
2.6713672e+3, 2.6735964e+2, -435651.78, -689213.56, 41120.125, 0.08004346, -0.057361387, -429150.06, -109284.87, 0.0, 10.000698, 9.9971695 
2.6709908e+3, 2.7734855e+2, -404530.16, -667272.4, 34997.023, -0.16774634, -0.20153138, -399948.5, -177974.44, 0.0, 10.0002985, 9.996915 
2.670618e+3, 2.8733987e+2, -147609.2, -266202.2, 31604.133, -0.08868151, -0.18034016, -139712.72, -15655.396, 0.0, 10.00051, 9.998846 
2.6702446e+3, 2.9733247e+2, -57464.73, -282037.22, -17852.377, -0.044674423, -0.106942475, -56054.414, -29926.31, 0.0, 10.000788, 9.998023 
2.6698652e+3, 3.0732313e+2, -118375.8, -193716.84, -259607.8, -0.14813665, -0.188566, 106280.34, 106280.34, 0.0, 9.999731, 9.998755 
2.669488e+3, 3.1731474e+2, -281621.66, -223820.98, 34657.766, 0.0047781183, -0.21413608, -207594.94, -207594.94, 0.0, 9.998154, 9.999358 
2.686615e+3, 1.2784791e+2, -1795466.8, -1917962.0, -114896.04, -0.22696424, -0.18014124, -1726513.1, -39439.652, 0.05267765, 10.000043, 9.998504 
2.686247e+3, 1.3783951e+2, -1797170.3, -2000620.1, -27722.27, 0.24567057, -0.22270429, -1793460.4, -204289.45, 0.03242507, 9.999956, 9.997364 
2.6858717e+3, 1.4783347e+2, -1607553.3, -1735206.1, 60679.242, 0.0015405437, 0.067690745, -1583312.8, -92071.37, 0.015032841, 10.000161, 9.99832 
2.6854947e+3, 1.5782817e+2, -1510040.8, -1684779.9, 38883.285, -0.38674268, 0.37644127, -1501779.0, -108476.68, 0.0044764117, 10.00024, 9.998053 
2.6851207e+3, 1.6782016e+2, -1163907.1, -1162462.5, -122484.57, -0.17113316, 0.30977827, -1040698.1, 254679.03, 0.00066900725, 10.0007925, 10.000609 
2.6847473e+3, 1.7781118e+2, -1160477.9, -1323529.8, -195874.4, 0.24577664, 0.04476638, -1029840.5, 167616.14, 0.000027210404, 10.000924, 9.998858 
2.68437e+3, 1.8780284e+2, -1130565.4, -1411621.6, -95168.08, 0.08079796, 0.109443896, -1101372.9, -1832.3179, 0.000000001728097, 10.001223, 9.997368 
2.683991e+3, 1.9779511e+2, -1156834.0, -1454048.5, -67514.16, -0.22996888, 0.2834273, -1142216.6, -140593.52, 0.0, 10.000609, 9.99677 
2.6836145e+3, 2.0778684e+2, -914941.25, -1046732.56, -127406.53, -0.14809395, 0.3454639, -837398.2, 66308.484, 0.0, 10.000697, 9.99875 
2.683239e+3, 2.177784e+2, -972919.4, -1121979.8, -153407.34, 0.078635454, 0.3058791, -876895.9, -71106.22, 0.0, 9.99992, 9.998034 
2.6828602e+3, 2.2776927e+2, -658595.9, -699885.56, -115599.016, -0.098515294, 0.15663525, -561812.7, 146057.45, 0.0, 10.000551, 9.999872 
2.6824808e+3, 2.377599e+2, -729441.9, -863575.4, -76918.32, -0.35940734, -0.07658701, -694457.75, -84507.87, 0.0, 10.00008, 9.998389 
2.6821095e+3, 2.477509e+2, -425785.75, -591276.94, -23718.318, -0.025040345, -0.1603215, -422453.5, 89577.94, 0.0, 10.0013275, 9.998855 
2.68174e+3, 2.5774238e+2, -376254.88, -724029.94, -44650.06, 0.48901233, -0.21696989, -370613.84, 43496.9, 0.0, 10.001765, 9.997166 
2.681363e+3, 2.677333e+2, -238973.7, -625077.3, -37782.582, 0.20559049, -0.13636705, -235311.19, 80889.234, 0.0, 10.002237, 9.996837 
2.6809835e+3, 2.7772367e+2, -314535.2, -686226.8, -4589.7554, -0.30114087, -0.11547049, -314478.5, -96181.63, 0.0, 10.001237, 9.996333 
2.680611e+3, 2.8771392e+2, -140276.95, -248721.14, 4312.4565, -0.15279052, -0.20104791, -140105.72, -19718.08, 0.0, 10.000548, 9.99892 
2.68024e+3, 2.9770446e+2, -404714.28, -520074.97, -63891.88, 0.15290615, -0.3495267, -376317.97, -353843.84, 0.0, 9.998809, 9.99732 
2.67986e+3, 3.076944e+2, -174321.27, -367843.16, -308234.7, 0.04541287, -0.40415382, 51983.27, 51983.27, 0.0, 10.000112, 9.997306 
2.6794806e+3, 3.176878e+2, -401113.4, -762402.9, 184216.7, 0.044186752, -0.08560994, -323749.78, -323749.78, 0.0, 9.999636, 9.994885 
2.6966134e+3, 1.2821628e+2, -1683426.5, -1562274.3, -91503.27, 0.20171507, -0.27776834, -1513112.9, 170355.63, 0.0436191, 9.999658, 10.001074 
2.6962373e+3, 1.3821143e+2, -1673416.1, -1682697.6, -1629.7512, -0.055641342, -0.2532784, -1673138.3, -87620.76, 0.026486209, 9.999761, 9.999605 
2.695862e+3, 1.4820614e+2, -1528030.4, -1527315.8, 86372.02, -0.3110442, -0.06658164, -1441300.3, 46274.813, 0.012009438, 10.000017, 9.999805 
2.6954874e+3, 1.5820035e+2, -1516026.8, -1662156.8, 64269.523, -0.49401858, 0.06664898, -1491782.6, -102143.51, 0.003455713, 10.00011, 9.998257 
2.695114e+3, 1.681922e+2, -1336998.4, -1532361.8, -90921.47, -0.22212361, 0.13368697, -1301231.9, -9506.211, 0.00049606664, 10.000818, 9.998047 
2.6947406e+3, 1.781835e+2, -1217017.0, -1490517.8, -159836.11, 0.11017222, 0.13435796, -1143414.8, 50401.37, 0.00001910138, 10.001119, 9.997615 
2.6943627e+3, 1.8817504e+2, -955047.7, -1081374.0, -94823.44, -0.07252359, 0.082223035, -904276.3, 191621.31, 0.0000000002885943, 10.001361, 9.999551 
2.693984e+3, 1.9816694e+2, -987754.8, -1232578.3, -57283.785, -0.39626876, 0.021673176, -975014.56, 22960.129, 0.0, 10.001125, 9.998036 
2.693608e+3, 2.0815869e+2, -942661.06, -1177244.6, -132800.05, -0.1991116, 0.108090974, -882771.56, 17287.693, 0.0, 10.000948, 9.997755 
2.693233e+3, 2.181506e+2, -908756.6, -1129377.5, -148886.3, 0.10906803, 0.20146504, -833768.56, -31625.28, 0.0, 10.000471, 9.997717 
2.6928547e+3, 2.2814323e+2, -588661.44, -635300.9, -99920.65, -0.029806744, 0.21998891, -509375.38, 194834.25, 0.0, 10.000859, 10.000185 
2.6924762e+3, 2.3813593e+2, -497933.03, -711670.3, -49832.375, -0.30183026, 0.17146437, -486885.72, 119385.945, 0.0, 10.00144, 9.99878 
2.6921034e+3, 2.4812548e+2, -310277.22, -643738.06, 2313.9817, -0.14732458, -0.008787739, -310261.16, 198107.05, 0.0, 10.00252, 9.99796 
2.691733e+3, 2.5811425e+2, -89450.875, -587776.44, -43211.664, 0.11736882, -0.23642458, -85731.59, 324742.03, 0.0, 10.003638, 9.997223 
2.6913583e+3, 2.68106e+2, 76667.03, -351084.3, -65873.94, 0.10173231, -0.1479599, 86581.836, 399136.22, 0.0, 10.003786, 9.998022 
2.6909825e+3, 2.780985e+2, 67654.18, -385863.13, -27363.1, -0.016315276, -0.010344151, 69299.17, 283928.78, 0.0, 10.003254, 9.997441 
2.690606e+3, 2.8808945e+2, -54143.39, -228362.64, -73713.54, -0.043575756, -0.05737756, -27140.035, 89576.78, 0.0, 10.001135, 9.998797 
2.6902297e+3, 2.980802e+2, -403596.56, -523069.13, -91086.43, -0.06680688, -0.15979281, -354405.53, -335600.22, 0.0, 9.998728, 9.997339 
2.6898503e+3, 3.0807048e+2, -19903.582, -370887.88, -162055.45, -0.31632215, -0.1320647, 43475.496, 43475.496, 0.0, 10.001382, 9.996718 
2.6894757e+3, 3.1806442e+2, 316149.78, -226633.34, 40763.836, -0.07502378, 0.29369423, 319194.13, 319194.13, 0.0, 10.003543, 9.996719 
2.7066073e+3, 1.2859195e+2, -1427729.4, -1537185.9, 113422.33, 0.18289223, -0.11821899, -1356521.9, 323270.88, 0.03554995, 10.001807, 10.000241 
2.7062306e+3, 1.3858496e+2, -1308982.5, -1539800.1, -2115.7612, -0.14794998, -0.1946209, -1308963.1, 272895.63, 0.021269772, 10.00234, 9.9994135 
2.7058557e+3, 1.4857878e+2, -1311073.5, -1349389.5, -12096.241, -0.30709624, -0.14168686, -1307574.3, 176346.67, 0.009415533, 10.001144, 10.000535 
2.705482e+3, 1.585726e+2, -1595172.5, -1654923.8, -65520.637, -0.3332968, -0.10958759, -1553037.6, -167052.48, 0.0026134893, 9.999331, 9.9987 
2.7051076e+3, 1.685654e+2, -1491555.5, -1634779.9, -63350.125, -0.18610248, 0.040849622, -1467556.3, -179491.02, 0.0003600524, 9.999825, 9.997838 
2.7047333e+3, 1.7855789e+2, -1355382.0, -1572250.9, 8327.72, 0.0023871453, 0.19537416, -1355062.8, -164913.19, 0.000012952271, 10.000253, 9.997465 
2.7043563e+3, 1.8854925e+2, -1086654.8, -1117041.0, -32173.715, -0.12398298, 0.12594767, -1066267.4, 25966.143, 0.000000000007316074, 10.0004, 9.999747 
2.7039784e+3, 1.9854042e+2, -1172449.1, -1314555.3, -131907.64, -0.3188527, -0.024697058, -1093675.1, -99359.13, 0.0, 9.999861, 9.998087 
2.703602e+3, 2.0853205e+2, -945871.7, -1155082.9, -146775.22, -0.16851483, 0.019432144, -870240.56, 26159.074, 0.0, 10.0008745, 9.997924 
2.7032265e+3, 2.1852411e+2, -837405.75, -1125167.1, -66806.41, 0.09202378, 0.12276983, -822652.44, -24171.445, 0.0, 10.0011635, 9.997393 
2.7028495e+3, 2.2851737e+2, -502482.63, -628508.94, -39940.582, 0.00304287, 0.22841941, -490890.75, 209653.4, 0.0, 10.001686, 9.99977 
2.7024716e+3, 2.3851095e+2, -626488.2, -867128.6, -41922.63, -0.17305711, 0.30636725, -619393.9, -16791.986, 0.0, 10.001013, 9.997908 
2.7020982e+3, 2.4849981e+2, -553632.94, -801523.25, 45003.313, -0.19475919, 0.099520266, -545715.6, -41009.21, 0.0, 10.001054, 9.997559 
2.701726e+3, 2.584876e+2, -662668.56, -893154.9, 47623.36, -0.13523963, -0.19623134, -653216.2, -246394.3, 0.0, 9.999932, 9.9968815 
2.7013534e+3, 2.6848012e+2, -311193.44, -401594.06, 8576.769, 0.04084668, -0.10041655, -310386.9, -1492.1093, 0.0, 10.000626, 9.999149 
2.7009806e+3, 2.7847403e+2, -338041.34, -527682.44, -949.9281, 0.2321513, 0.07096245, -338036.56, -127081.164, 0.0, 10.000359, 9.997843 
2.7006012e+3, 2.8846595e+2, -197709.92, -306621.63, -97817.055, 0.03287121, 0.11692369, -140212.14, -27175.258, 0.0, 10.000312, 9.998612 
2.7002192e+3, 2.9845724e+2, -445221.56, -613349.8, -27142.123, -0.3298206, 0.098794065, -440948.4, -425823.38, 0.0, 9.99885, 9.996654 
2.6998404e+3, 3.0844745e+2, -169642.94, -466524.03, 75794.34, -0.74858797, 0.1446086, -151412.02, -151412.02, 0.0, 10.00055, 9.996433 
2.6994717e+3, 3.1844e+2, 169545.45, 108328.195, -150381.52, -0.110730566, 0.39036033, 292401.78, 292401.78, 0.0, 10.000981, 10.000232 
2.7166e+3, 1.289711e+2, -1717614.6, -1953519.3, 99012.445, -0.13074042, 0.25120035, -1681566.3, -5482.4385, 0.028414978, 10.001067, 9.997673 
2.716226e+3, 1.3895892e+2, -1501129.5, -1825757.4, 17647.105, -0.22371806, -0.122247696, -1500173.0, 78029.516, 0.016713178, 10.001893, 9.997632 
2.7158517e+3, 1.4895125e+2, -1345502.0, -1354443.9, -50595.996, -0.17836533, -0.17371863, -1299179.8, 181097.03, 0.0071980846, 10.0009165, 10.000569 
2.715477e+3, 1.5894489e+2, -1580001.8, -1564822.0, -69316.95, -0.120017864, -0.17522916, -1502680.6, -120341.76, 0.0019202423, 9.999121, 9.999403 
2.715101e+3, 1.6893978e+2, -1344657.1, -1321689.6, -5244.3604, -0.15505968, 0.015943317, -1320548.9, -36153.72, 0.00025324232, 9.999825, 9.999975 
2.714725e+3, 1.789345e+2, -1313731.0, -1497263.6, 45092.81, -0.22235425, 0.22248054, -1303250.5, -116795.805, 0.000008369746, 10.000292, 9.997964 
2.71435e+3, 1.8892577e+2, -1262462.3, -1459264.9, -23912.398, -0.11286114, 0.28661463, -1259598.4, -171051.73, 0.0, 10.000313, 9.997438 
2.7139747e+3, 1.9891647e+2, -1182798.0, -1361597.9, -106309.2, -0.03931833, 0.28730753, -1133295.1, -142653.03, 0.0, 9.999959, 9.997719 
2.7135968e+3, 2.0890765e+2, -741754.2, -809304.0, -76885.84, -0.1083197, 0.1544358, -691551.9, 201169.45, 0.0, 10.001195, 10.00016 
2.713219e+3, 2.1889924e+2, -582857.8, -883885.7, 426.7869, -0.20918263, 0.021577157, -582857.2, 211938.81, 0.0, 10.002348, 9.998493 
2.712843e+3, 2.2889073e+2, -516712.47, -833869.4, -20227.0, -0.13431, 0.050670892, -515427.66, 181451.63, 0.0, 10.002389, 9.998062 
2.712468e+3, 2.3888253e+2, -486901.1, -829984.8, -44611.05, -0.06314106, 0.113614574, -481195.25, 117765.68, 0.0, 10.002028, 9.997681 
2.712094e+3, 2.4887402e+2, -484577.63, -612241.56, 27209.633, -0.044328455, 0.09140278, -479020.22, 22021.555, 0.0, 10.000815, 9.998991 
2.71172e+3, 2.588654e+2, -640545.2, -713427.6, 79512.24, -0.045352805, 0.030246025, -589521.25, -186397.9, 0.0, 9.9992895, 9.998422 
2.7113461e+3, 2.688575e+2, -446432.13, -425329.2, 83738.0, 0.012246889, 0.018047286, -351480.5, -46280.234, 0.0, 9.999436, 9.999591 
2.710972e+3, 2.788502e+2, -342564.13, -436231.06, 48358.902, 0.095010325, 0.03151866, -322077.78, -114804.984, 0.0, 9.999864, 9.998703 
2.7105936e+3, 2.8884402e+2, -160912.44, -251895.58, -41189.266, -0.018280512, 0.23300157, -145035.95, -35699.797, 0.0, 10.000391, 9.998965 
2.7102128e+3, 2.988372e+2, -96740.96, -328210.9, 49071.48, -0.29009128, 0.3831368, -86767.56, -75361.76, 0.0, 10.000645, 9.997763 
2.7098358e+3, 3.088233e+2, -105873.21, -282164.72, 188598.77, -0.551972, -0.09216554, 14161.653, 14161.653, 0.0, 10.000232, 9.997917 
2.7094674e+3, 3.1881666e+2, 178636.89, 306279.5, -6017.757, 0.16015656, 0.13067026, 306562.6, 306562.6, 0.0, 10.000075, 10.002075 
2.7265942e+3, 1.2934577e+2, -1555804.5, -1726535.6, 53229.51, -0.14569506, 0.29840758, -1540568.5, 131853.25, 0.022191126, 10.001438, 9.9991255 
2.72622e+3, 1.3933493e+2, -1512321.1, -1754714.0, 71747.94, -0.2943093, -0.018947849, -1492676.0, 81846.65, 0.012784308, 10.001394, 9.998403 
2.7258453e+3, 1.4932723e+2, -1377087.5, -1415117.5, 6854.3096, -0.18618156, -0.063932635, -1375889.9, 100707.125, 0.00532732, 10.00085, 10.000219 
2.7254707e+3, 1.5932056e+2, -1436580.9, -1463544.3, 2690.2417, -0.0050461, -0.05160825, -1436315.1, -57652.938, 0.0013580795, 9.999961, 9.999711 
2.725095e+3, 1.6931547e+2, -1170651.0, -1103781.9, 40338.93, -0.10145885, 0.05041748, -1084822.8, 195890.88, 0.00016970174, 10.000485, 10.001149 
2.7247187e+3, 1.793105e+2, -1216502.6, -1420411.3, 17041.03, -0.22045012, 0.19593412, -1215088.4, -32322.953, 0.0000049540654, 10.000835, 9.998238 
2.7243438e+3, 1.8930182e+2, -1123467.0, -1473586.6, 38072.66, -0.10057973, 0.2984584, -1119374.8, -34516.223, 0.0, 10.001578, 9.996737 
2.7239695e+3, 1.992924e+2, -999037.06, -1318067.9, 64897.74, 0.08762882, 0.3659014, -986340.75, 617.39404, 0.0, 10.001429, 9.997304 
2.7235916e+3, 2.092832e+2, -661946.0, -719137.94, -4455.158, -0.08733081, 0.17759867, -661601.06, 227439.08, 0.0, 10.001573, 10.000569 
2.7232128e+3, 2.1927428e+2, -816766.6, -1021247.0, -63617.43, -0.29726684, -0.04021662, -798589.9, -7472.8853, 0.0, 10.000905, 9.998248 
2.722838e+3, 2.2926524e+2, -711153.94, -986883.7, -30878.168, -0.16044202, -0.030967738, -707738.3, -14531.148, 0.0, 10.001384, 9.997478 
2.722464e+3, 2.3925649e+2, -725646.56, -976587.7, 30365.771, 0.06291058, 0.038981974, -722024.3, -126727.375, 0.0, 10.00064, 9.99732 
2.722089e+3, 2.4924938e+2, -484957.28, -512068.34, 31634.74, 0.08887402, 0.10139435, -464096.13, 33268.973, 0.0, 10.000472, 9.999804 
2.7217135e+3, 2.5924283e+2, -639118.3, -682509.6, 42898.355, 0.074276865, 0.17419697, -612741.44, -213314.33, 0.0, 9.999238, 9.99867 
2.7213383e+3, 2.692348e+2, -428817.4, -371447.06, 77823.88, -0.01377095, 0.093443386, -317190.1, -15684.839, 0.0, 9.999433, 9.999944 
2.7209637e+3, 2.7922684e+2, -535876.75, -546073.1, 40340.35, -0.057586692, 0.016846433, -500313.72, -296730.03, 0.0, 9.998674, 9.998526 
2.7205864e+3, 2.8922185e+2, -313442.34, -287257.47, -37853.29, -0.059178166, 0.291322, -260296.39, -154661.56, 0.0, 9.999207, 9.999269 
2.7202073e+3, 2.9921645e+2, -364475.9, -430849.9, 48521.76, -0.20120035, 0.54405314, -338877.38, -331187.6, 0.0, 9.998777, 9.997941 
2.719832e+3, 3.0919892e+2, -54849.86, -105334.25, 118156.58, -0.23637678, -0.41687363, 40730.73, 40730.73, 0.0, 9.999997, 9.999183 
2.7194607e+3, 3.1919488e+2, 202162.38, 356468.94, 11979.862, 0.12284965, -0.08281788, 357393.47, 357393.47, 0.0, 10.000236, 10.0022745 
2.736589e+3, 1.2971848e+2, -1441162.0, -1307648.5, 53823.68, -0.19251333, 0.26006982, -1288653.0, 380127.06, 0.016854001, 10.0007715, 10.002291 
2.7362123e+3, 1.3971256e+2, -1526456.3, -1612799.0, 66230.55, -0.5358134, 0.11827646, -1490569.1, 80255.36, 0.009467282, 10.000727, 9.999666 
2.735837e+3, 1.4970572e+2, -1458453.9, -1508706.9, 749.5364, -0.37794265, 0.15858251, -1458442.8, 14449.641, 0.0037924994, 10.000577, 9.999675 
2.735463e+3, 1.5969865e+2, -1475278.3, -1502027.0, 23034.361, -0.13864239, 0.17894351, -1462017.0, -87052.89, 0.0009170214, 9.99982, 9.999491 
2.7350888e+3, 1.6969202e+2, -1163977.9, -1074386.0, 92967.01, -0.10764324, 0.122739464, -1015985.3, 261039.61, 0.0001065257, 10.000454, 10.001351 
2.734714e+3, 1.7968562e+2, -1145651.8, -1292237.6, 64742.55, -0.16266407, 0.10087076, -1121151.8, 57932.176, 0.0000025959862, 10.00093, 9.999061 
2.7343377e+3, 1.896771e+2, -984751.06, -1236507.8, 92211.42, -0.20596609, 0.0930976, -954590.0, 126579.22, 0.0, 10.001773, 9.998288 
2.7339616e+3, 1.9966812e+2, -915347.94, -1286387.6, 104426.1, -0.23800996, 0.096494116, -887977.1, 95283.37, 0.0, 10.002013, 9.997234 
2.7335852e+3, 2.0965827e+2, -795281.4, -1077910.5, 11230.959, -0.20237707, 0.034572706, -794835.8, 90524.18, 0.0, 10.00189, 9.997964 
2.7332088e+3, 2.1964899e+2, -717358.0, -1005963.0, -62310.26, -0.19628818, 0.0026294412, -704479.8, 82972.54, 0.0, 10.001676, 9.997982 
2.7328333e+3, 2.2964251e+2, -525225.2, -668330.1, -6432.001, -0.10187043, 0.12868564, -524936.7, 164578.75, 0.0, 10.00162, 9.999566 
2.7324578e+3, 2.3963611e+2, -548214.2, -783547.8, 68736.74, 0.004740341, 0.26293555, -529608.44, 61969.2, 0.0, 10.001335, 9.99831 
2.7320826e+3, 2.4962625e+2, -483485.53, -641268.3, 50524.152, 0.07146473, 0.11410698, -468693.72, 24977.813, 0.0, 10.000962, 9.998717 
2.7317074e+3, 2.5961667e+2, -438957.66, -562355.8, 37264.74, 0.09217811, -0.025842896, -428577.34, -32815.01, 0.0, 10.000441, 9.998917 
2.731331e+3, 2.696104e+2, -302063.56, -239826.05, 64791.45, -0.047022205, 0.027661173, -199067.77, 98754.25, 0.0, 9.999948, 10.000624 
2.7309552e+3, 2.796043e+2, -355566.9, -347647.53, 38864.332, -0.13684173, 0.07731906, -312541.7, -112661.04, 0.0, 9.999302, 9.999615 
2.7305794e+3, 2.8959668e+2, -283158.13, -199726.9, -26822.352, 0.02758952, 0.023465095, -191847.84, -89895.31, 0.0, 9.99896, 10.000058 
2.7302018e+3, 2.9958907e+2, -335350.2, -383272.9, 105759.26, 0.06614141, 0.0018747891, -250871.86, -246846.34, 0.0, 9.998737, 9.998298 
2.7298263e+3, 3.0957755e+2, -58666.313, -244383.77, 159190.84, -0.15290447, -0.2728063, 32769.473, 32769.473, 0.0, 10.000467, 9.998042 
2.7294537e+3, 3.195744e+2, 306843.28, 131480.45, -112437.15, -0.033390794, 0.3114941, 361745.7, 361745.7, 0.0, 10.00194, 9.999962 
2.746586e+3, 1.3009463e+2, -1323104.4, -1301157.8, 187615.81, 0.054932863, 0.21629444, -1124194.6, 540896.94, 0.012358423, 10.001688, 10.00191 
2.746206e+3, 1.4008822e+2, -1541035.4, -1607537.6, 12357.016, -0.52135634, 0.08621532, -1538813.5, 28331.084, 0.006744914, 10.000523, 9.999792 
2.7458304e+3, 1.5008205e+2, -1405312.5, -1463817.5, -28971.873, -0.43917444, 0.16632691, -1393393.8, 75811.414, 0.0025850076, 10.000798, 9.999882 
2.7454558e+3, 1.600755e+2, -1342370.8, -1484140.4, 29996.648, -0.20433767, 0.23685396, -1336285.0, 34985.465, 0.0005889778, 10.000882, 9.999101 
2.745082e+3, 1.7006724e+2, -1150927.6, -1210134.1, 28793.252, -0.15308216, 0.10023615, -1139234.4, 134113.81, 0.00006228534, 10.001076, 10.000145 
2.744708e+3, 1.800591e+2, -1180905.0, -1336220.3, -67579.2, -0.13227113, -0.0024195844, -1155617.8, 19805.648, 0.0000011486238, 10.0007925, 9.998826 
2.7443323e+3, 1.900514e+2, -970092.6, -1095854.0, -70298.21, -0.20645331, -0.03671397, -938655.6, 138841.9, 0.0, 10.001324, 9.999448 
2.743956e+3, 2.0004366e+2, -1035352.6, -1329438.3, -71841.24, -0.27163097, -0.01750035, -1018741.06, -39167.27, 0.0, 10.001188, 9.997321 
2.7435794e+3, 2.1003456e+2, -1030873.06, -1294889.8, -50299.703, -0.21599118, 0.03514166, -1021614.75, -139943.77, 0.0, 10.000727, 9.997026 
2.7432036e+3, 2.2002566e+2, -1038923.5, -1168975.1, 25313.605, -0.10582673, 0.12142698, -1034170.1, -250404.45, 0.0, 9.99955, 9.997871 
2.7428278e+3, 2.3001997e+2, -597541.7, -558482.75, 23050.047, -0.0598351, 0.2245351, -547801.25, 138017.4, 0.0, 10.000561, 10.000797 
2.742452e+3, 2.4001431e+2, -643242.0, -842522.75, 28203.014, -0.008382094, 0.34417677, -639327.5, -51457.6, 0.0, 10.000775, 9.998174 
2.7420765e+3, 2.5000298e+2, -526353.94, -739696.44, 36039.746, 0.07757607, 0.07830667, -520430.25, -30452.664, 0.0, 10.001033, 9.997985 
2.741701e+3, 2.5999182e+2, -536532.75, -682329.56, 64638.836, 0.122159354, -0.14826883, -512002.4, -119918.73, 0.0, 10.0001745, 9.998197 
2.7413237e+3, 2.6998645e+2, -331691.7, -237282.69, 40110.426, -0.071734324, -0.01906951, -222542.77, 71591.805, 0.0, 9.999721, 10.000714 
2.7409467e+3, 2.7998134e+2, -484259.6, -413168.16, -30542.908, -0.20036018, 0.12118256, -401848.44, -205666.34, 0.0, 9.998548, 9.999499 
2.740572e+3, 2.899715e+2, -196603.0, -83574.586, -112488.61, 0.097190745, -0.22891004, -14201.773, 84070.38, 0.0, 9.999349, 10.000624 
2.740196e+3, 2.9996204e+2, -346340.1, -476574.84, 38583.99, 0.27098823, -0.4657271, -335767.34, -335406.7, 0.0, 9.999174, 9.997425 
2.7398202e+3, 3.0995724e+2, -225255.02, -466008.1, 162690.69, -0.12402768, 0.02115095, -143248.81, -143248.81, 0.0, 10.000068, 9.99664 
2.7394482e+3, 3.1994963e+2, -122946.58, -387833.2, -117478.64, -0.07875524, 0.31702134, -78351.87, -78351.87, 0.0, 10.000514, 9.997026 
2.7565837e+3, 1.30472e+2, -1630488.9, -1701682.0, 106928.47, 0.28827384, 0.17748751, -1553387.5, 107997.92, 0.008685319, 10.000774, 9.999536 
2.7562004e+3, 1.4046235e+2, -1667302.3, -1771047.5, 22711.877, -0.49478105, -0.092288226, -1662548.0, -99069.02, 0.004592608, 10.000159, 9.998825 
2.7558237e+3, 1.5045702e+2, -1374571.3, -1365916.9, 14899.858, -0.4863114, 0.03496982, -1354728.6, 110798.97, 0.0016782222, 10.000694, 10.000593 
2.7554488e+3, 1.6045128e+2, -1431666.3, -1631042.1, 58343.668, -0.36488047, 0.16352852, -1415848.1, -48266.813, 0.0003582281, 10.000757, 9.998138 
2.7550748e+3, 1.7044073e+2, -1332797.6, -1559797.6, 50761.094, -0.319379, 0.00446092, -1321963.8, -52276.582, 0.000033741435, 10.000981, 9.997774 
2.7547008e+3, 1.8043065e+2, -1211047.8, -1412495.4, -51641.934, -0.29872274, -0.10293002, -1198580.6, -26792.447, 0.00000040337267, 10.000846, 9.998266 
2.7543274e+3, 1.9042434e+2, -907865.4, -981965.1, -41375.61, -0.16049041, -0.041320287, -889375.75, 184474.33, 0.0, 10.001373, 10.000209 
2.7539527e+3, 2.0041873e+2, -871840.4, -1072311.8, -92703.125, -0.08639968, 0.100687675, -835543.75, 140361.72, 0.0, 10.001505, 9.998945 
2.7535737e+3, 2.1041268e+2, -855687.75, -964092.3, -60507.49, -0.18653232, 0.25533265, -828655.5, 49312.715, 0.0, 10.000806, 9.999291 
2.7531952e+3, 2.2040595e+2, -896271.5, -984211.5, 68695.79, -0.26639098, 0.36806455, -858678.8, -78641.96, 0.0, 10.000005, 9.998913 
2.7528208e+3, 2.303967e+2, -610060.06, -657197.8, 94978.87, -0.14249599, 0.16797897, -535769.44, 146352.11, 0.0, 10.0008335, 10.000012 
2.7524468e+3, 2.4038774e+2, -468450.75, -701913.5, 46247.83, -0.020088209, 0.011775188, -459623.06, 124580.23, 0.0, 10.001652, 9.998734 
2.7520716e+3, 2.5037932e+2, -374467.44, -559806.6, 51784.68, 0.104335345, -0.028615132, -360980.03, 125303.11, 0.0, 10.001568, 9.998993 
2.7516955e+3, 2.6037097e+2, -374852.5, -584709.06, 85326.2, 0.15202893, -0.036041614, -344538.4, 43825.027, 0.0, 10.001125, 9.998418 
2.751317e+3, 2.7036318e+2, -353215.03, -418477.2, 25226.371, -0.06300608, -0.021497227, -344601.03, -54158.758, 0.0, 10.000236, 9.99926 
2.7509388e+3, 2.8035584e+2, -401662.72, -447203.56, -50030.586, -0.25164333, 0.02803873, -369464.5, -176947.77, 0.0, 9.999371, 9.998873 
2.7505624e+3, 2.9034817e+2, -115216.63, -125956.766, -134613.0, -0.1411819, -0.010946755, 14133.37, 108724.27, 0.0, 10.000246, 9.999919 
2.750187e+3, 3.0034056e+2, -52052.285, -309281.72, -26875.408, -0.024186349, -0.002850212, -49274.336, -49274.336, 0.0, 10.000987, 9.997734 
2.7498192e+3, 3.103339e+2, -66297.5, -320532.38, 102076.42, 0.38763145, 0.24599256, -30385.986, -30385.986, 0.0, 10.000718, 9.997407 
2.7494413e+3, 3.2032377e+2, -52350.04, -280641.16, -39393.984, -0.14435919, 0.22888763, -45743.395, -45743.395, 0.0, 10.000487, 9.997811 
2.7665752e+3, 1.3084756e+2, -1695284.6, -1761499.1, 68528.59, 0.07770773, 0.030936522, -1652285.0, 5418.035, 0.005822695, 10.00036, 9.9993725 
2.7661976e+3, 1.408416e+2, -1435821.6, -1670102.3, 28699.168, -0.17728795, 0.1813216, -1432357.3, 127406.95, 0.0029696804, 10.001762, 9.998772 
2.7658197e+3, 1.5083332e+2, -1177009.3, -1295439.5, -4125.957, -0.3437964, 0.034219824, -1176865.6, 284972.13, 0.0010279784, 10.002157, 10.000383 
2.7654427e+3, 1.6082521e+2, -1232814.6, -1547600.8, 21185.494, -0.39241394, -0.053186584, -1231395.1, 132516.34, 0.0002033788, 10.002124, 9.998088 
2.7650687e+3, 1.7081635e+2, -1192277.6, -1493287.4, 145388.88, -0.34060597, -0.045761626, -1133522.8, 132480.45, 0.000016580547, 10.00191, 9.997815 
2.7646953e+3, 1.8080764e+2, -1173590.4, -1398547.5, 184919.88, -0.26787132, 0.0044861836, -1069627.8, 98466.08, 0.00000009587778, 10.001151, 9.998219 
2.7643222e+3, 1.9080059e+2, -1052088.1, -1065798.6, 117315.47, -0.10680594, 0.02420875, -941427.75, 128736.5, 0.0, 10.000468, 10.000074 
2.7639475e+3, 2.0079441e+2, -1087169.6, -1118365.5, 15067.598, 0.017982796, 0.12393745, -1081080.5, -108855.08, 0.0, 9.999788, 9.999469 
2.763568e+3, 2.1078923e+2, -712881.75, -731755.56, -44513.883, -0.15368737, 0.2409393, -676815.44, 197458.94, 0.0, 10.001113, 10.000733 
2.7631888e+3, 2.2078341e+2, -709512.6, -899557.25, 38541.76, -0.2769346, 0.34234685, -701993.7, 74335.69, 0.0, 10.001385, 9.998824 
2.762815e+3, 2.3077258e+2, -616007.1, -768641.25, 55843.62, -0.12078111, 0.03832924, -597757.8, 80673.27, 0.0, 10.001308, 9.999005 
2.7624416e+3, 2.4076214e+2, -699455.8, -851833.1, -7073.238, 0.05473762, -0.18202558, -699128.2, -118599.375, 0.0, 10.000338, 9.998308 
2.7620655e+3, 2.5075582e+2, -515079.44, -545636.75, -40665.797, 0.10052352, -0.09226874, -486916.8, -4327.16, 0.0, 10.000307, 9.9996605 
2.7616888e+3, 2.6074943e+2, -652660.7, -786301.75, -19768.092, 0.118436106, 0.049702987, -649797.94, -265145.22, 0.0, 9.999582, 9.997782 
2.7613106e+3, 2.707401e+2, -518139.84, -594060.94, -20766.973, -0.01945816, -0.023609815, -512830.66, -226081.38, 0.0, 9.999654, 9.998297 
2.7609318e+3, 2.807312e+2, -578995.3, -686821.4, 13648.135, -0.17513773, -0.013163749, -577294.56, -388452.25, 0.0, 9.998904, 9.997451 
2.7605537e+3, 2.907252e+2, -214506.8, -310572.25, -36680.63, -0.34309635, 0.22247463, -202102.67, -111195.99, 0.0, 10.000172, 9.998689 
2.7601779e+3, 3.007192e+2, -186048.1, -406749.4, 31888.95, -0.3215342, 0.4996663, -181532.86, -181532.86, 0.0, 10.000308, 9.997371 
2.7598184e+3, 3.1070954e+2, -128605.38, -230831.48, 113243.82, 0.93590844, 0.35972774, -55473.887, -55473.887, 0.0, 9.999887, 9.998374 
2.7594283e+3, 3.2069847e+2, -270019.3, -208799.89, 71909.29, -0.79027957, 0.116552986, -161256.55, -161256.55, 0.0, 9.998484, 9.999188 
2.776564e+3, 1.3122275e+2, -1705533.1, -1659337.9, 88134.984, -0.4304691, -0.03467641, -1591324.1, 62703.316, 0.0036891417, 9.999953, 10.000202 
2.7761966e+3, 1.4122353e+2, -1532269.5, -1740270.3, 64622.426, 0.19959348, 0.70580345, -1513827.5, 42195.38, 0.001804215, 10.001279, 9.998486 
2.7758166e+3, 1.5120995e+2, -1287953.3, -1440874.8, 31383.043, -0.1705542, 0.0855495, -1281763.3, 176382.31, 0.00058557204, 10.001835, 9.99951 
2.775438e+3, 1.6119765e+2, -1188976.3, -1406007.9, 33546.95, -0.45891428, -0.38718808, -1183909.1, 176348.48, 0.00010501939, 10.001917, 9.999153 
2.7750644e+3, 1.7119451e+2, -1019560.75, -1125544.0, 160568.5, -0.31554723, -0.032592755, -903465.56, 358826.16, 0.0000068884756, 10.001872, 10.000358 
2.774691e+3, 1.8119057e+2, -1154040.1, -1355458.9, 176019.83, -0.1967888, 0.3185623, -1051955.6, 112378.64, 0.00000000965895, 10.001164, 9.998495 
2.774315e+3, 1.9118053e+2, -1152951.9, -1268267.9, 131864.75, -0.17228903, 0.1460471, -1066690.6, -255.72643, 0.0, 10.000428, 9.9987135 
2.7739388e+3, 2.0117073e+2, -1096345.4, -1145398.0, 63061.063, -0.1829304, -0.006977716, -1053209.0, -84678.48, 0.0, 9.99984, 9.999236 
2.7735618e+3, 2.1116264e+2, -667228.4, -708721.4, 54005.438, -0.20297779, -0.16745943, -630121.6, 240478.83, 0.0, 10.001443, 10.000725 
2.7731854e+3, 2.21155e+2, -550549.44, -874701.06, 51266.78, -0.2020905, -0.22162406, -542634.5, 230034.33, 0.0, 10.00265, 9.998404 
2.7728114e+3, 2.3114696e+2, -595481.7, -873303.8, 37800.703, 0.016443549, -0.13940468, -590430.3, 84322.836, 0.0, 10.001883, 9.998055 
2.7724364e+3, 2.4113902e+2, -608357.3, -793841.44, -31096.625, 0.13796245, -0.044336803, -603282.75, -26446.512, 0.0, 10.000875, 9.998439 
2.772057e+3, 2.5113168e+2, -502112.25, -559258.44, -61699.926, -0.10553002, -0.030571936, -462690.47, 16220.031, 0.0, 10.000439, 9.999533 
2.7716786e+3, 2.6112467e+2, -473880.16, -541906.7, -52436.41, -0.24856262, 0.028093033, -445391.6, -64410.83, 0.0, 10.000051, 9.99925 
2.7713045e+3, 2.7111793e+2, -311467.38, -296611.84, 5269.062, 0.07650557, 0.05252897, -294932.75, -11885.475, 0.0, 10.000143, 10.000144 
2.7709296e+3, 2.8111058e+2, -342979.22, -536170.75, 113573.75, 0.28742385, 0.09264222, -290478.6, -105357.625, 0.0, 10.000267, 9.997837 
2.7705503e+3, 2.911015e+2, -152631.45, -443861.1, 75355.586, -0.07721686, 0.1331703, -134288.53, -47071.082, 0.0, 10.001131, 9.997375 
2.770172e+3, 3.0109283e+2, -9571.053, -323122.5, 99887.89, -0.34614706, 0.2453322, 19546.252, 19546.252, 0.0, 10.001395, 9.997435 
2.769806e+3, 3.110843e+2, -110660.125, -177112.97, 128016.086, 0.40248242, 0.19915242, -11628.8, -11628.8, 0.0, 9.999718, 9.99884 
2.7694216e+3, 3.2107553e+2, -217030.4, -75852.47, 59229.703, -0.6236372, 0.15779711, -54295.035, -54295.035, 0.0, 9.998237, 10.000231 
2.786557e+3, 1.3159877e+2, -1372967.8, -1507328.9, 97285.29, -0.5890049, -0.017012427, -1321921.3, 328412.22, 0.0021708824, 10.00217, 10.000212 
2.7861923e+3, 1.4159623e+2, -1464248.0, -1676894.6, -5672.889, 0.34810188, 0.39140123, -1464096.8, 88264.58, 0.001007235, 10.001482, 9.998879 
2.7858126e+3, 1.5158491e+2, -1392765.9, -1480618.4, 4323.96, -0.014998627, -0.026553027, -1392553.6, 61910.773, 0.00030058212, 10.000936, 9.999746 
2.7854335e+3, 1.6157432e+2, -1410594.9, -1483957.5, 44079.04, -0.3071702, -0.34421343, -1389930.9, -33368.637, 0.000046417692, 10.000248, 9.999435 
2.7850592e+3, 1.7157106e+2, -1252258.3, -1210556.4, -5823.638, -0.26424503, -0.034134038, -1209758.4, 48840.945, 0.0000020738605, 10.0001545, 10.000608 
2.7846846e+3, 1.8156733e+2, -1296487.9, -1414933.9, -67043.36, -0.1908842, 0.30043682, -1266256.0, -105615.64, 0.00000000000031198744, 10.000138, 9.998577 
2.7843085e+3, 1.915577e+2, -1002693.4, -1192987.5, -26564.89, -0.18009987, 0.1318252, -999054.5, 63681.12, 0.0, 10.0014715, 9.998708 
2.7839327e+3, 2.0154768e+2, -836484.8, -1059941.9, 21670.594, -0.18216528, -0.03991676, -834402.6, 130429.19, 0.0, 10.001847, 9.998846 
2.7835563e+3, 2.1153781e+2, -707574.94, -769909.44, -8474.949, -0.21681884, -0.35498697, -706443.25, 160473.25, 0.0, 10.001402, 10.000305 
2.7831805e+3, 2.2152889e+2, -906271.6, -1121177.4, -19945.205, -0.15935914, -0.4888113, -904436.2, -135440.14, 0.0, 10.000567, 9.997697 
2.7828068e+3, 2.3152255e+2, -723099.9, -979341.8, -9695.641, 0.080539405, -0.21148811, -722733.56, -51664.766, 0.0, 10.001237, 9.997609 
2.782431e+3, 2.4151613e+2, -666031.94, -881553.4, -30245.924, 0.18918566, 0.082969226, -661867.75, -88725.336, 0.0, 10.000803, 9.997867 
2.7820492e+3, 2.5150782e+2, -537190.75, -593575.56, -68687.41, -0.2475127, 0.017668115, -491135.1, -15906.844, 0.0, 10.000367, 9.999308 
2.7816692e+3, 2.6150036e+2, -556329.0, -510716.94, -45302.6, -0.46620974, 0.03689755, -482803.72, -105500.164, 0.0, 9.999315, 9.999769 
2.7812985e+3, 2.7149558e+2, -258451.28, -109280.9, -52804.688, 0.16772737, 0.108093366, -92480.72, 186866.31, 0.0, 9.999882, 10.00152 
2.7809265e+3, 2.8148946e+2, -456900.84, -626910.25, 28308.03, 0.63936186, 0.1837984, -452311.22, -270906.06, 0.0, 9.999746, 9.997441 
2.7805468e+3, 2.9147756e+2, -302067.13, -600250.8, 57479.586, 0.17202379, -0.009151911, -291370.72, -207841.58, 0.0, 10.000601, 9.996488 
2.7801666e+3, 3.014668e+2, -182867.11, -431153.6, 82782.3, -0.3683871, -0.038146265, -157797.58, -157797.58, 0.0, 10.0004635, 9.997104 
2.7797917e+3, 3.114598e+2, -152923.98, -137256.77, 82153.4, -0.31042635, 0.012474305, -62564.344, -62564.344, 0.0, 9.999296, 9.999283 
2.7794212e+3, 3.2145363e+2, -289903.97, -17836.697, 49716.168, 0.17079638, 0.19287865, -9036.472, -9036.472, 0.0, 9.9974985, 10.000977 
2.796552e+3, 1.3197418e+2, -1504147.4, -1616995.9, 58219.36, -0.6912979, -0.023115406, -1479496.4, 167143.23, 0.001167355, 10.001574, 9.999706 
2.796186e+3, 1.4196353e+2, -1548752.8, -1684525.6, -28749.633, 0.2288002, -0.40069237, -1542915.9, 5829.9453, 0.00050489604, 10.000832, 9.99911 
2.7958074e+3, 1.5195972e+2, -1374772.6, -1337069.0, 9886.084, 0.066834316, -0.17979181, -1334634.0, 116147.62, 0.00013439951, 10.000545, 10.000887 
2.7954292e+3, 1.6195445e+2, -1525713.3, -1657105.4, 45760.484, -0.11246412, 0.0051180134, -1511346.9, -158512.97, 0.000016423304, 10.000001, 9.998353 
2.795052e+3, 1.7194508e+2, -1418953.3, -1516493.9, 17214.799, -0.30967143, -0.104906626, -1416004.3, -161068.67, 0.0000003300107, 10.000007, 9.998568 
2.794676e+3, 1.8193708e+2, -1247141.9, -1315727.9, -30146.402, -0.4232664, -0.08317099, -1235775.0, -78754.27, 0.0, 10.0001335, 9.999266 
2.7943036e+3, 1.919314e+2, -846352.9, -912981.3, 46688.566, -0.1969743, -0.014493446, -822311.5, 236762.75, 0.0, 10.001644, 10.000566 
2.7939293e+3, 2.0192504e+2, -735960.94, -972757.44, 8875.285, -0.090274245, 0.055228442, -735628.75, 225504.55, 0.0, 10.002386, 9.9991665 
2.79355e+3, 2.119159e+2, -736858.6, -868697.4, -26855.023, -0.30653015, -0.11901459, -731598.25, 131619.06, 0.0, 10.00157, 9.999547 
2.793172e+3, 2.219072e+2, -793659.7, -1015913.9, -8582.336, -0.41719052, -0.18900153, -793328.8, -28029.164, 0.0, 10.001059, 9.998186 
2.792799e+3, 2.3189999e+2, -591533.2, -829179.25, 38924.848, -0.17311388, -0.06547957, -585320.0, 82056.836, 0.0, 10.001695, 9.998434 
2.792424e+3, 2.4189293e+2, -454146.97, -722533.8, -30231.566, -0.02879161, 0.09598395, -450783.75, 118668.664, 0.0, 10.001947, 9.998419 
2.792043e+3, 2.5188476e+2, -432497.22, -561473.9, -64311.855, -0.22825043, 0.062076684, -405909.97, 65625.52, 0.0, 10.001062, 9.999248 
2.7916637e+3, 2.6187715e+2, -425155.84, -469483.9, -22310.64, -0.3294337, 0.07506428, -415871.38, -42259.516, 0.0, 10.000217, 9.999627 
2.7912906e+3, 2.7187094e+2, -221520.17, -206701.45, -55123.836, 0.032233145, 0.10288897, -158491.25, 117180.08, 0.0, 10.000527, 10.000576 
2.7909172e+3, 2.818643e+2, -249673.05, -436955.75, -4190.158, 0.31713548, 0.16388352, -249579.34, -71842.99, 0.0, 10.000742, 9.998253 
2.7905402e+3, 2.9185492e+2, -131012.21, -366706.3, 60261.19, 0.07127113, 0.116863996, -116498.625, -36665.957, 0.0, 10.001077, 9.997865 
2.7901617e+3, 3.0184594e+2, 53739.047, -134420.97, 94819.086, -0.25445262, 0.11304417, 93231.89, 93231.89, 0.0, 10.00117, 9.998835 
2.7897865e+3, 3.118389e+2, 153521.36, 122643.5, 92901.14, -0.17747687, 0.060645632, 232257.7, 232257.7, 0.0, 10.000754, 10.000447 
2.7894133e+3, 3.2183218e+2, -69880.555, 160860.55, -8532.716, 0.25788653, 0.11456286, 161175.66, 161175.66, 0.0, 9.998511, 10.001772 
2.8065512e+3, 1.3234818e+2, -1479416.0, -1751591.5, -29295.678, -0.27235994, -0.16863136, -1476298.5, 166669.58, 0.0005664125, 10.002238, 9.998516 
2.806177e+3, 1.4233698e+2, -1505967.5, -1600988.0, -89454.91, -0.030416809, -0.53873885, -1452189.0, 92895.49, 0.00022570654, 10.000826, 9.999684 
2.8058e+3, 1.5233563e+2, -1213090.3, -1152944.6, -51164.21, -0.05225122, -0.16689324, -1123669.8, 323426.0, 0.00005282333, 10.001163, 10.001856 
2.8054234e+3, 1.6233215e+2, -1376633.9, -1574704.1, 15993.234, -0.047899924, 0.12850094, -1375350.9, -26219.604, 0.000004777361, 10.001004, 9.998394 
2.805046e+3, 1.7232105e+2, -1414504.4, -1566599.5, 73981.04, -0.20435941, -0.12764317, -1384455.6, -133204.98, 0.00000002399446, 10.000237, 9.998096 
2.80467e+3, 1.8231164e+2, -1300287.5, -1274239.6, 160470.98, -0.30526492, -0.22601253, -1126264.9, 27084.844, 0.0, 9.999522, 9.999836 
2.8042978e+3, 1.9230752e+2, -1019935.25, -888666.2, 163119.98, -0.15239248, -0.08547439, -778471.2, 276915.22, 0.0, 10.0, 10.001527 
2.803924e+3, 2.023025e+2, -1048810.0, -1189709.6, 64464.4, -0.054031104, 0.090799555, -1023767.2, -66334.47, 0.0, 10.000498, 9.998611 
2.8035447e+3, 2.1229383e+2, -777956.0, -985509.9, -13502.497, -0.25979647, 0.037893653, -777081.25, 82438.016, 0.0, 10.001678, 9.99871 
2.8031668e+3, 2.222855e+2, -703610.6, -948041.06, 33225.35, -0.3956842, 0.055524483, -699174.8, 62427.816, 0.0, 10.00168, 9.9983225 
2.8027922e+3, 2.3227757e+2, -670473.56, -782984.75, 41693.313, -0.27457023, 0.034869093, -656707.56, 6974.641, 0.0, 10.00087, 9.999133 
2.8024167e+3, 2.4226989e+2, -736689.3, -836043.94, -28340.146, -0.15633586, 0.09000121, -729173.94, -163414.6, 0.0, 9.999988, 9.998571 
2.8020373e+3, 2.5226197e+2, -516002.44, -569411.94, -55904.82, -0.16884384, 0.04529595, -480751.63, -12914.455, 0.0, 10.000435, 9.999459 
2.8016588e+3, 2.6225433e+2, -508456.1, -626233.2, 44889.605, -0.17541604, 0.08997563, -493297.78, -123384.64, 0.0, 10.000209, 9.998559 
2.801283e+3, 2.722465e+2, -250986.5, -355458.94, 10870.778, -0.10122814, 0.059989303, -249867.34, 22124.664, 0.0, 10.000951, 9.999348 
2.8009078e+3, 2.8223935e+2, -250925.38, -397890.34, 50168.496, -0.018139169, 0.14894718, -235432.84, -61368.695, 0.0, 10.000648, 9.998552 
2.8005326e+3, 2.9223248e+2, -221390.84, -236731.27, 95171.99, -0.052207958, 0.20588242, -133580.47, -57447.88, 0.0, 9.999796, 9.999356 
2.8001565e+3, 3.0222562e+2, -271998.5, -189608.8, 84171.91, -0.13968967, 0.29210168, -137091.72, -137091.72, 0.0, 9.998642, 9.999614 
2.7997825e+3, 3.1221828e+2, -175743.77, 60984.863, 24964.582, 0.10201282, 0.113075666, 63588.9, 63588.9, 0.0, 9.998226, 10.0011635 
2.7994016e+3, 3.2221046e+2, -115305.02, 234376.2, -191841.8, -0.09319759, -0.04927558, 319097.75, 319097.75, 0.0, 9.998089, 10.002364 
2.8165516e+3, 1.3272241e+2, -1738205.3, -2041012.6, -99094.41, 0.19330253, -0.23425516, -1708659.3, -69359.414, 0.00024939072, 10.001287, 9.996948 
2.8161663e+3, 1.4271428e+2, -1513576.9, -1523496.6, -76423.65, -0.53501207, -0.25206485, -1441952.4, 99441.9, 0.00009135431, 10.000502, 10.000348 
2.8157908e+3, 1.5271215e+2, -1201393.1, -1022857.25, 2801.754, -0.41366103, -0.07129199, -1022813.3, 420595.75, 0.000018191195, 10.00075, 10.00294 
2.8154165e+3, 1.6270818e+2, -1344033.8, -1430683.1, 5486.618, -0.20960659, 0.07651857, -1343687.8, 1758.2635, 0.000001253609, 10.000699, 9.99953 
2.8150415e+3, 1.7269947e+2, -1346452.8, -1389005.8, 82154.36, -0.022988673, -0.05873308, -1282864.5, -35324.99, 0.0000000065346386, 10.000104, 9.999381 
2.8146663e+3, 1.8269172e+2, -1282097.4, -1204845.5, 171705.22, 0.0016831969, -0.0818491, -1067475.4, 82144.6, 0.0, 9.999442, 10.000316 
2.8142905e+3, 1.9268614e+2, -1048758.8, -920621.75, 213562.88, -0.20582297, -0.07317268, -761724.2, 289946.44, 0.0, 9.999897, 10.001349 
2.813916e+3, 2.0267999e+2, -1064038.1, -1252343.3, 113130.57, -0.26851112, 0.029166419, -1011006.4, -57275.887, 0.0, 10.000622, 9.998115 
2.813542e+3, 2.1267167e+2, -761656.0, -1061910.3, 80182.59, -0.07941045, 0.089220114, -741585.0, 114235.984, 0.0, 10.002107, 9.997995 
2.813166e+3, 2.2266342e+2, -536896.8, -832512.0, 22701.348, -0.022326786, 0.15701847, -535163.7, 222742.98, 0.0, 10.002648, 9.998652 
2.8127876e+3, 2.3265499e+2, -574601.44, -704313.56, 26619.396, -0.17267051, 0.066054985, -569351.1, 90634.805, 0.0, 10.001327, 9.999479 
2.812409e+3, 2.4264696e+2, -576783.5, -633689.1, -8195.814, -0.25888148, 0.025662115, -575626.6, -13565.842, 0.0, 10.000492, 9.999717 
2.8120306e+3, 2.5263947e+2, -359650.03, -392723.7, 3553.7285, -0.20960756, -0.057974678, -359272.5, 104856.984, 0.0, 10.00101, 10.000416 
2.8116533e+3, 2.626319e+2, -322928.44, -576934.2, 107396.73, -0.16579044, -0.05038434, -283606.97, 82595.875, 0.0, 10.001557, 9.9982815 
2.8112775e+3, 2.7262336e+2, -149300.94, -443354.5, 82042.54, -0.11918116, -0.02887231, -127959.51, 140334.48, 0.0, 10.002112, 9.998249 
2.810902e+3, 2.8261554e+2, 655.5438, -152290.7, 63900.094, -0.08240732, 0.028233958, 23838.63, 194212.25, 0.0, 10.001733, 9.999748 
2.810525e+3, 2.9260892e+2, -121043.65, -40100.88, 92555.21, -0.12987141, -0.0050106132, 20444.564, 92877.99, 0.0, 9.999735, 10.000791 
2.8101483e+3, 3.0260256e+2, -426010.7, -351059.03, 87775.664, -0.10441585, 0.07979823, -293093.75, -293093.75, 0.0, 9.9978895, 9.998875 
2.8097764e+3, 3.125963e+2, -461896.25, -293314.44, -24283.514, 0.4490051, 0.20632988, -289886.22, -289886.22, 0.0, 9.997095, 9.999315 
2.8093952e+3, 3.2258642e+2, 281052.1, 420552.66, -6102.599, 0.000930634, -0.05003158, 420819.13, 420819.13, 0.0, 10.000613, 10.002506 
2.8265455e+3, 1.3309954e+2, -1646047.0, -1930411.4, 45207.086, 0.1475139, -0.2702955, -1639033.1, -3428.6736, 0.00010698146, 10.001605, 9.99756 
2.826161e+3, 1.4309368e+2, -1260414.9, -1385421.0, 53319.797, -0.4937904, -0.052239653, -1240761.8, 296914.88, 0.000035101017, 10.002168, 10.000488 
2.8257847e+3, 1.5308858e+2, -1298223.3, -1118709.9, 11304.492, -0.37589505, -0.112793334, -1118000.8, 321718.8, 0.0000055355054, 10.000324, 10.002479 
2.8254098e+3, 1.6308346e+2, -1497210.4, -1417275.4, 6980.17, -0.1335045, -0.07561657, -1416670.5, -74904.266, 0.0000002527922, 9.999284, 10.000319 
2.825036e+3, 1.7307736e+2, -1267674.9, -1224213.1, 45598.715, 0.12354714, -0.052595258, -1195431.9, 48398.684, 0.0, 10.000138, 10.000519 
2.824661e+3, 1.83071e+2, -1125238.9, -1179722.1, 154823.92, 0.17067361, 0.0076308334, -995278.25, 150617.69, 0.0, 10.000689, 9.999917 
2.824284e+3, 1.9306363e+2, -960265.2, -985091.94, 128424.055, -0.18205407, -0.09268907, -843655.94, 204310.95, 0.0, 10.00091, 10.000453 
2.8239092e+3, 2.0305648e+2, -1049197.8, -1264466.4, 59883.54, -0.3126929, -0.034162473, -1033660.7, -83621.05, 0.0, 10.000894, 9.9978485 
2.823537e+3, 2.1304883e+2, -874464.44, -1116437.8, 74802.984, -0.021250397, 0.073744945, -853207.44, -1081.366, 0.0, 10.001411, 9.9979105 
2.8231627e+3, 2.2304109e+2, -691013.56, -901332.4, 24369.904, 0.105033316, 0.19747382, -688226.7, 65981.29, 0.0, 10.001621, 9.9986515 
2.822782e+3, 2.3303248e+2, -544535.1, -658165.3, -8320.919, -0.13687149, 0.052832343, -543929.06, 112357.1, 0.0, 10.001478, 9.999685 
2.8224027e+3, 2.4302444e+2, -529751.3, -597097.4, -30682.373, -0.28852, -0.0011023489, -517869.13, 40489.23, 0.0, 10.000845, 9.999781 
2.8220248e+3, 2.530169e+2, -446290.84, -403633.0, -87490.82, -0.17355943, -0.13798928, -334908.78, 125517.11, 0.0, 10.000342, 10.000649 
2.8216478e+3, 2.6300937e+2, -634756.0, -784438.75, 19744.9, -0.10301426, -0.11970611, -632195.2, -269697.25, 0.0, 9.999791, 9.997655 
2.8212723e+3, 2.730006e+2, -512727.7, -665337.6, 65109.945, -0.11581464, -0.10246101, -488724.38, -224131.86, 0.0, 9.99993, 9.997717 
2.8208956e+3, 2.829926e+2, -288607.25, -242218.6, 17430.096, -0.14461252, -0.043823015, -236399.39, -69725.56, 0.0, 9.999662, 10.000085 
2.8205168e+3, 2.9298553e+2, -87940.01, 83234.92, -39807.727, -0.189952, -0.22981392, 92039.56, 160772.3, 0.0, 9.999607, 10.001657 
2.8201398e+3, 3.029792e+2, -356221.0, -498072.44, -34269.605, -0.076586045, -0.1303853, -348375.78, -348375.78, 0.0, 9.999238, 9.997197 
2.8197697e+3, 3.1297353e+2, -318262.3, -441375.44, -74199.734, 0.7208528, 0.2193497, -283409.28, -283409.28, 0.0, 9.999093, 9.997314 
2.81939e+3, 3.2296145e+2, 116298.67, 371795.0, 359200.66, 0.046309594, -0.16613753, 625287.9, 625287.9, 0.0, 9.999554, 10.002612 
2.836537e+3, 1.3347884e+2, -1673506.4, -1751257.4, 72692.21, -0.21739498, -0.19101349, -1629947.3, 1940.8721, 0.00005051965, 10.0006485, 9.999228 
2.8361595e+3, 1.434743e+2, -1440125.0, -1567839.8, -8364.503, -0.20321083, 0.08542018, -1439579.5, 94363.03, 0.000015386411, 10.001412, 9.999567 
2.83578e+3, 1.5346484e+2, -1490385.8, -1406085.9, -31323.014, -0.1710326, -0.2617515, -1395721.5, 40307.65, 0.0000020566958, 9.999894, 10.000692 
2.8354037e+3, 1.634579e+2, -1488783.5, -1348342.4, 28372.836, -0.045500215, -0.31806675, -1342826.9, -4734.0596, 0.00000005936716, 9.999088, 10.000867 
2.835029e+3, 1.7345431e+2, -1220783.6, -1109672.1, 110525.62, 0.07613742, -0.13621224, -1041525.2, 198602.63, 0.0, 10.000051, 10.001347 
2.8346542e+3, 1.834488e+2, -1179529.0, -1312624.8, 173029.84, 0.067153625, 0.0029700731, -1060691.0, 81493.04, 0.0, 10.000758, 9.998981 
2.834279e+3, 1.9343944e+2, -1046412.1, -1190180.6, 163300.67, -0.14101076, -0.15659033, -939874.25, 104407.18, 0.0, 10.001007, 9.999006 
2.833904e+3, 2.0343144e+2, -937010.94, -1101690.5, 69400.58, -0.29921767, -0.13514856, -911664.7, 34700.813, 0.0, 10.0012045, 9.998814 
2.8335285e+3, 2.1342485e+2, -748862.9, -928974.2, 124613.85, -0.3822806, -0.022358382, -685169.94, 163266.86, 0.0, 10.001701, 9.999076 
2.8331527e+3, 2.2341794e+2, -575530.44, -773603.7, 37943.58, -0.3960386, 0.09001582, -568510.6, 181996.97, 0.0, 10.002086, 9.999307 
2.8327754e+3, 2.3340996e+2, -446364.3, -614012.6, 22624.188, -0.3320778, 0.012435244, -443364.84, 209217.14, 0.0, 10.00212, 9.999703 
2.8323978e+3, 2.4340208e+2, -446736.56, -657391.56, -61654.207, -0.2221832, 0.009896116, -430018.5, 124638.52, 0.0, 10.001789, 9.998926 
2.8320208e+3, 2.5339392e+2, -473829.13, -591122.0, -129255.164, 0.031891484, -0.032503325, -390537.88, 66200.35, 0.0, 10.000812, 9.999173 
2.831643e+3, 2.6338628e+2, -497017.88, -544521.6, -15189.385, 0.10134636, -0.0065994896, -492576.3, -133763.28, 0.0, 9.999935, 9.999241 
2.8312644e+3, 2.7337882e+2, -453776.3, -443876.4, 60947.8, -0.15776071, -0.021043714, -387677.88, -126792.055, 0.0, 9.999461, 9.99948 
2.8308868e+3, 2.8337127e+2, -345213.06, -338221.25, 63231.484, -0.24728572, -0.0018974489, -278389.1, -115430.41, 0.0, 9.999498, 9.999526 
2.8305113e+3, 2.9336324e+2, -33709.098, -95304.04, -39888.19, -0.10684067, -0.10293091, -14112.6, 50920.96, 0.0, 10.000758, 9.999913 
2.8301346e+3, 3.0335498e+2, 80584.03, -243372.19, -58029.457, -0.0003796536, -0.11910086, 90665.0, 90665.0, 0.0, 10.001941, 9.997676 
2.829762e+3, 3.133461e+2, 307477.97, -114071.805, -51522.523, 0.43244073, -0.124317616, 313683.78, 313683.78, 0.0, 10.003143, 9.997665 
2.829383e+3, 3.233381e+2, -146134.45, -220675.17, 108577.734, 0.04700093, 0.05184611, -68608.45, -68608.45, 0.0, 9.999558, 9.99863 
2.8465298e+3, 1.3385719e+2, -1751905.9, -1771474.8, 8552.604, -0.27202234, -0.07519801, -1748694.9, -120512.07, 0.000026715652, 9.999843, 9.999575 
2.8461546e+3, 1.4385015e+2, -1585069.5, -1596269.8, -114383.79, -0.036741983, -0.08016383, -1476148.8, 54108.977, 0.000008259592, 10.000178, 9.999993 
2.8457746e+3, 1.53842e+2, -1312497.9, -1340931.6, -76782.27, -0.048810404, -0.29110673, -1248627.4, 183703.42, 0.0000013335809, 10.001126, 10.000577 
2.8453973e+3, 1.6383494e+2, -1142521.4, -1232046.5, 65144.293, -0.012309964, -0.33025098, -1108243.0, 226152.3, 0.000000073245815, 10.001703, 10.000387 
2.845022e+3, 1.7382957e+2, -997606.94, -1073194.6, 10902.61, -0.02172395, -0.2674562, -996065.8, 240380.7, 0.0, 10.001897, 10.0007 
2.8446472e+3, 1.8382362e+2, -1121839.4, -1305686.6, 33216.848, -0.0593447, -0.14245428, -1116021.9, 22485.574, 0.0, 10.001267, 9.99877 
2.844273e+3, 1.9381529e+2, -1251012.9, -1328509.5, 78414.15, -0.12803537, -0.19586818, -1202295.8, -161697.6, 0.0, 9.999779, 9.998638 
2.8438976e+3, 2.0380807e+2, -1191463.0, -1078393.9, 110395.11, -0.25409228, -0.1327745, -1010899.25, -68224.914, 0.0, 9.998826, 10.000129 
2.843521e+3, 2.1380228e+2, -1099917.3, -941195.06, 173327.14, -0.49212542, -0.10115309, -829924.4, 14806.901, 0.0, 9.998642, 10.000459 
2.8431445e+3, 2.237958e+2, -1071870.5, -993863.4, 122478.77, -0.5666691, -0.018636804, -904327.75, -157533.22, 0.0, 9.9986105, 9.999488 
2.842769e+3, 2.3378788e+2, -879759.9, -841741.06, 92293.59, -0.36500242, -0.1001952, -766519.56, -117648.375, 0.0, 9.999218, 9.999565 
2.842393e+3, 2.437801e+2, -813436.9, -925423.8, 23809.734, -0.13367021, -0.033493243, -808584.9, -257635.66, 0.0, 9.999725, 9.998084 
2.8420156e+3, 2.537718e+2, -670733.6, -802073.7, -9590.976, 0.19193557, -0.0024819279, -670036.94, -216999.58, 0.0, 10.000039, 9.998087 
2.8416374e+3, 2.6376432e+2, -405353.38, -399912.44, 136638.25, 0.22915746, 0.08733828, -265967.56, 89144.77, 0.0, 10.000244, 10.000044 
2.8412572e+3, 2.737574e+2, -182964.19, -184835.75, 101934.125, -0.19497034, -0.0073500653, -81961.55, 175211.92, 0.0, 10.000864, 10.000547 
2.8408793e+3, 2.8374997e+2, -276566.4, -463591.3, 90332.164, -0.323612, 0.03258225, -240061.64, -80818.33, 0.0, 10.000727, 9.998052 
2.8405058e+3, 2.937411e+2, -309215.4, -447359.63, 24490.63, -0.00029193546, 0.0047202096, -305002.13, -243667.92, 0.0, 9.999884, 9.997903 
2.84013e+3, 3.0373123e+2, -161071.05, -294115.53, 52803.027, 0.03525912, -0.065512046, -142661.73, -142661.73, 0.0, 10.000145, 9.998138 
2.8397536e+3, 3.13719e+2, 147148.45, -95939.0, 69981.54, 0.0113584045, -0.52118766, 165855.55, 165855.55, 0.0, 10.001782, 9.998384 
2.839376e+3, 3.2371676e+2, -520255.6, -864410.1, -85033.57, 0.060394887, 0.33526415, -500392.0, -500392.0, 0.0, 9.999239, 9.994242 
2.8565222e+3, 1.3423412e+2, -1874581.8, -1837160.9, 3046.2092, -0.34037077, 0.014826656, -1836914.5, -212422.06, 0.000013313982, 9.999112, 9.999454 
2.8561473e+3, 1.4422336e+2, -1580390.9, -1469118.4, -74487.484, -0.08284603, -0.398882, -1431782.6, 94817.5, 0.0000038169696, 9.999724, 10.001055 
2.8557685e+3, 1.5422054e+2, -1284561.6, -1225217.1, -6411.43, -0.09668632, -0.19435365, -1224532.3, 204087.22, 0.0000005153316, 10.000908, 10.001461 
2.8553912e+3, 1.642141e+2, -1269453.4, -1473960.0, 78785.41, -0.12611686, -0.14281644, -1242621.9, 88056.34, 0.00000002542409, 10.001638, 9.998742 
2.8550145e+3, 1.7420301e+2, -1168025.9, -1385887.8, 51147.86, -0.28371936, -0.45860273, -1156615.4, 76172.766, 0.0, 10.001747, 9.998612 
2.854639e+3, 1.8419547e+2, -1042570.06, -1144801.4, -8785.061, -0.35601348, -0.4183001, -1041820.6, 93045.625, 0.0, 10.001295, 9.999849 
2.854264e+3, 1.9419163e+2, -1172483.4, -1147954.8, 58624.016, -0.30335203, -0.14295372, -1100325.9, -63412.938, 0.0, 9.999684, 9.999929 
2.8538898e+3, 2.0418726e+2, -1058804.8, -766674.8, 110157.69, -0.27211934, 0.029140713, -729792.56, 209164.4, 0.0, 9.998649, 10.002348 
2.8535149e+3, 2.141818e+2, -992862.3, -657689.8, 204295.3, -0.27060217, -0.10511611, -561038.06, 279963.25, 0.0, 9.998342, 10.002553 
2.8531393e+3, 2.2417529e+2, -1050021.5, -931268.75, 166121.08, -0.25346494, -0.15966165, -814231.5, -71170.734, 0.0, 9.99852, 9.999951 
2.8527626e+3, 2.3416683e+2, -870532.3, -819815.4, 174547.98, -0.2240628, -0.29274866, -668793.44, -23647.982, 0.0, 9.999136, 9.999768 
2.8523856e+3, 2.4415924e+2, -722764.25, -782204.94, 95245.83, -0.12863049, -0.25912702, -652709.5, -105487.17, 0.0, 9.999842, 9.999033 
2.8520074e+3, 2.5415236e+2, -516601.75, -628431.56, 122038.805, 0.04695594, -0.14927661, -438278.25, 11015.888, 0.0, 10.000576, 9.999052 
2.85163e+3, 2.641448e+2, -316402.25, -491678.03, 277419.78, 0.03779218, -0.062854454, -113106.945, 238262.72, 0.0, 10.001368, 9.9988985 
2.8512517e+3, 2.741362e+2, -15643.773, -275819.0, 202532.42, -0.2595602, -0.12689532, 94980.414, 348431.72, 0.0, 10.002672, 9.999084 
2.850875e+3, 2.8412774e+2, -38654.08, -406277.25, 47576.496, -0.27770436, -0.093181804, -32596.705, 122939.53, 0.0, 10.002499, 9.997634 
2.8504997e+3, 2.9411897e+2, -278905.66, -478124.75, 8696.528, 0.0679067, -0.04152414, -278526.75, -220895.52, 0.0, 10.000201, 9.997577 
2.850123e+3, 3.041106e+2, -82312.45, -95585.3, 219929.23, 0.069685854, -0.010691776, 131080.47, 131080.47, 0.0, 9.999879, 9.999685 
2.8497478e+3, 3.1410214e+2, 361670.44, 167873.42, 268776.84, -0.10001565, -0.19836058, 550482.1, 550482.1, 0.0, 10.002444, 9.999944 
2.8493717e+3, 3.240975e+2, 15253.71, -352882.28, -167318.56, 0.27920017, 0.266884, 79935.65, 79935.65, 0.0, 10.001545, 9.996767 
2.8665158e+3, 1.3461004e+2, -1701788.4, -1636073.4, 120402.02, -0.24151, -0.20232147, -1544126.0, 76681.89, 0.0000059672334, 9.99971, 10.000576 
2.8661397e+3, 1.4460225e+2, -1442418.4, -1488457.8, 47557.94, -0.16476585, -0.31092867, -1412601.9, 110282.61, 0.0000015122073, 10.001008, 10.00032 
2.8657633e+3, 1.5459895e+2, -1126512.8, -1261999.3, -22153.588, -0.10196025, -0.051499523, -1122982.4, 301932.97, 0.0000000966577, 10.002434, 10.000488 
2.8653866e+3, 1.645919e+2, -1206494.9, -1496645.6, -23800.283, -0.10605991, 0.0002810393, -1204555.5, 122427.87, 0.00000000026919006, 10.002241, 9.998336 
2.8650084e+3, 1.7457996e+2, -1467724.9, -1589300.3, 29131.19, -0.31263208, -0.3582199, -1461105.0, -232004.38, 0.0, 9.999888, 9.998144 
2.8646317e+3, 1.8457201e+2, -1294134.4, -1173629.5, 61711.34, -0.39694366, -0.36478814, -1147634.4, -16453.357, 0.0, 9.999257, 10.000606 
2.8642577e+3, 1.9456875e+2, -1040040.56, -994552.5, 49149.21, -0.26893523, -0.101756655, -963139.94, 70078.0, 0.0, 10.000315, 10.000637 
2.863883e+3, 2.0456477e+2, -770907.56, -604450.4, 32070.797, -0.16819096, 0.058361117, -598485.1, 336770.06, 0.0, 10.000491, 10.002604 
2.8635085e+3, 2.1455915e+2, -816172.7, -562814.3, -45900.16, -0.07934533, -0.1320609, -554755.06, 282544.0, 0.0, 9.99946, 10.002707 
2.8631333e+3, 2.2455274e+2, -958059.3, -871264.6, -91525.79, -0.037152853, -0.21836652, -813368.8, -74012.336, 0.0, 9.999119, 10.000042 
2.8627566e+3, 2.3454465e+2, -838441.7, -791681.6, -81707.06, -0.049260274, -0.38065708, -730075.4, -88637.88, 0.0, 9.999398, 9.999784 
2.862379e+3, 2.4453779e+2, -655615.5, -652169.0, -113310.164, -0.06611475, -0.33704537, -540569.0, 2937.3457, 0.0, 10.000028, 9.999744 
2.8620002e+3, 2.5453165e+2, -443256.47, -530602.44, -109839.555, -0.057309117, -0.28114715, -368726.0, 76841.33, 0.0, 10.000916, 9.999494 
2.8616226e+3, 2.6452422e+2, -415392.88, -663717.75, 105564.46, -0.124564245, -0.17130373, -376582.4, -28941.566, 0.0, 10.001289, 9.997724 
2.8612468e+3, 2.7451465e+2, -375091.28, -615245.06, 125065.74, -0.28145403, -0.25285116, -321790.28, -72055.18, 0.0, 10.000956, 9.99757 
2.8608707e+3, 2.845057e+2, -311219.88, -551783.94, -54174.832, -0.20980941, -0.17365807, -299582.7, -147754.78, 0.0, 10.000829, 9.997385 
2.8604934e+3, 2.9449695e+2, -293489.9, -518983.16, -80000.625, 0.12708981, -0.12961137, -267990.75, -214065.19, 0.0, 10.00036, 9.997184 
2.8601164e+3, 3.044903e+2, -30827.748, 57889.332, 250460.4, 0.092255846, 0.03721312, 267889.0, 267889.0, 0.0, 9.999808, 10.000713 
2.859742e+3, 3.144862e+2, -118607.24, 18211.092, 256473.3, -0.15276545, 0.14503063, 215241.88, 215241.88, 0.0, 9.998926, 10.000554 
2.859368e+3, 3.2447645e+2, 61210.305, 153516.48, -453233.75, 0.5066312, -0.16970843, 562941.0, 562941.0, 0.0, 9.999977, 10.000922 
2.8765094e+3, 1.3498706e+2, -1661291.3, -1400480.4, 120278.26, -0.19581802, -0.37947536, -1353481.0, 263628.7, 0.0000021513692, 9.999123, 10.002456 
2.876132e+3, 1.4498447e+2, -1637774.5, -1824115.4, 90015.99, -0.34913853, 0.045335326, -1601393.4, -82258.2, 0.00000043033984, 10.000746, 9.998126 
2.875758e+3, 1.5497662e+2, -1395673.0, -1667426.4, 58250.6, -0.18791126, 0.08071268, -1383713.3, 37510.22, 0.000000019645139, 10.001795, 9.998013 
2.875382e+3, 1.6496897e+2, -1202501.6, -1366289.8, -105861.59, -0.07481194, 0.14724675, -1150555.0, 172747.63, 0.0, 10.001751, 9.99945 
2.8750023e+3, 1.7496113e+2, -1456745.5, -1471407.6, -23955.705, -0.22587427, 0.094861485, -1439024.3, -213647.25, 0.0, 9.99949, 9.999142 
2.874626e+3, 1.8495332e+2, -1292147.1, -1160435.5, 110526.64, -0.25431857, 0.039669544, -1097632.4, 29817.854, 0.0, 9.999194, 10.0007305 
2.874253e+3, 1.9494541e+2, -1032540.3, -1018207.56, 136987.73, -0.105868064, -0.14692505, -888198.9, 141325.31, 0.0, 10.000439, 10.000438 
2.8738782e+3, 2.0493862e+2, -863601.06, -880615.5, -4905.8384, -0.07682054, -0.15470268, -862287.9, 69301.39, 0.0, 10.000892, 10.0004835 
2.8735006e+3, 2.1493232e+2, -892000.75, -863715.6, -81368.41, -0.20935847, -0.16632941, -795269.9, 38380.81, 0.0, 10.000067, 10.000344 
2.873125e+3, 2.2492638e+2, -800164.3, -730355.44, -127582.664, -0.17175372, -0.117569186, -632988.7, 102719.11, 0.0, 9.99989, 10.000648 
2.8727508e+3, 2.349203e+2, -656936.2, -631952.5, -105439.84, 0.022600083, -0.12968607, -538267.06, 99498.95, 0.0, 10.000271, 10.000486 
2.872374e+3, 2.4491358e+2, -491138.9, -535007.75, -143682.6, 0.049038224, -0.13335912, -367726.13, 172104.94, 0.0, 10.000929, 10.000147 
2.8719947e+3, 2.5490588e+2, -247640.94, -401911.28, -145425.3, -0.10773488, -0.24429649, -160160.34, 281745.94, 0.0, 10.002013, 9.99989 
2.8716168e+3, 2.6489884e+2, -157950.03, -327276.53, -978.82837, -0.23010805, -0.2256971, -157944.38, 186029.52, 0.0, 10.002057, 9.999692 
2.8712404e+3, 2.7489194e+2, -223353.2, -331102.25, 67151.69, -0.33470657, -0.20456164, -191135.84, 54902.97, 0.0, 10.000998, 9.999525 
2.8708646e+3, 2.8488427e+2, -262230.25, -457900.5, -30950.115, -0.19248873, -0.13528046, -257451.44, -109334.95, 0.0, 10.000809, 9.998054 
2.8704882e+3, 2.948755e+2, -17381.535, -321332.47, -28161.088, 0.15951917, -0.12781258, -14794.428, 35416.215, 0.0, 10.001887, 9.99783 
2.870111e+3, 3.048675e+2, 65446.01, -2580.8784, 156538.05, 0.14712322, -0.088352896, 191623.31, 191623.31, 0.0, 10.000835, 9.99983 
2.8697345e+3, 3.1486094e+2, -370579.94, -206633.23, 76703.53, -0.06142426, -0.09073932, -176343.23, -176343.23, 0.0, 9.997522, 9.999721 
2.86936e+3, 3.248524e+2, 105862.83, -3493.3494, -378237.34, 0.3864101, -0.15631546, 433353.78, 433353.78, 0.0, 10.000893, 9.99944 
2.8865024e+3, 1.353652e+2, -1489882.9, -1426290.6, 114410.516, -0.23787695, -0.25936335, -1339340.1, 274062.75, 0.00000033823923, 10.000638, 10.001567 
2.8861272e+3, 1.4536123e+2, -1449331.9, -1724211.1, -38094.188, -0.28471482, 0.056893606, -1444150.3, 71290.34, 0.000000039050374, 10.001939, 9.998258 
2.8857517e+3, 1.5535177e+2, -1598910.3, -1779156.0, 42889.652, -0.20969442, -0.054903414, -1589225.0, -171680.83, 0.0000000006124831, 10.000411, 9.997941 
2.885376e+3, 1.6534443e+2, -1275309.1, -1340989.3, -15637.844, -0.096826024, 0.02347499, -1271776.0, 47844.695, 0.0, 10.000994, 9.999954 
2.8849974e+3, 1.7533872e+2, -856058.25, -1129495.8, -7012.1294, -0.12208069, 0.12183898, -855878.56, 365796.53, 0.0, 10.003362, 9.99961 
2.884621e+3, 1.8533146e+2, -787803.06, -951166.3, 90528.66, -0.12014589, 0.11109475, -747553.0, 376189.84, 0.0, 10.002824, 10.00043 
2.8842476e+3, 1.9532242e+2, -1134014.8, -1112021.5, 75366.766, 0.016157914, -0.16638981, -1046853.3, -21026.547, 0.0, 9.99994, 10.00006 
2.883872e+3, 2.0531467e+2, -1186761.0, -1134739.6, 44876.54, 0.00034238386, -0.20600541, -1108880.8, -180977.55, 0.0, 9.999191, 9.999539 
2.8834942e+3, 2.1530779e+2, -1008397.5, -1052029.0, 56062.813, -0.1563759, -0.1714475, -970055.4, -140079.47, 0.0, 9.999935, 9.999091 
2.883118e+3, 2.2530177e+2, -725620.6, -645313.2, 80153.09, -0.16364242, -0.062427368, -595818.5, 136217.11, 0.0, 10.000265, 10.001045 
2.8827438e+3, 2.3529647e+2, -708394.94, -636445.9, 47942.816, 0.03479367, -0.025077606, -612481.44, 21602.588, 0.0, 9.999928, 10.000614 
2.8823677e+3, 2.4528982e+2, -642782.56, -599554.0, 20977.006, 0.07376102, -0.01348555, -591048.3, -54900.18, 0.0, 9.999869, 10.000233 
2.881989e+3, 2.5528133e+2, -658656.7, -613676.1, -326.47858, -0.06435162, -0.2101109, -613673.75, -175442.17, 0.0, 9.999314, 9.999742 
2.881611e+3, 2.6527482e+2, -446701.84, -296644.25, 58427.21, -0.2215275, -0.19522984, -276578.03, 63714.957, 0.0, 9.999447, 10.001124 
2.881234e+3, 2.7526957e+2, -422560.22, -303801.66, 32178.021, -0.32555816, -0.1725362, -295643.38, -53303.766, 0.0, 9.999199, 10.000557 
2.8808582e+3, 2.852628e+2, -342274.7, -436313.5, -26866.385, -0.175836, -0.09087242, -335140.34, -190734.7, 0.0, 10.000066, 9.998529 
2.8804833e+3, 2.95254e+2, -155692.89, -377162.63, -18766.693, 0.1961263, -0.15496531, -154113.92, -107618.625, 0.0, 10.000969, 9.997871 
2.8801057e+3, 3.0524457e+2, -11535.101, -187646.28, 22464.951, 0.2180643, -0.19797128, -8714.616, -8714.616, 0.0, 10.001063, 9.9984255 
2.8797272e+3, 3.1523454e+2, -315806.22, -418997.1, -22497.441, 0.102777526, -0.40635183, -311114.7, -311114.7, 0.0, 9.999037, 9.997528 
2.8793517e+3, 3.252288e+2, -306439.75, -452367.6, 68212.23, 0.13035358, -0.04383202, -279520.53, -279520.53, 0.0, 9.999451, 9.996911 
2.8964955e+3, 1.3574322e+2, -1717998.4, -1764258.9, 202808.83, -0.35071683, 0.012762479, -1537005.0, 72694.34, 0.0000000028010363, 10.000134, 9.99947 
2.896123e+3, 1.4573443e+2, -1426713.9, -1521476.9, -92172.445, -0.18801746, -0.14334673, -1370457.8, 141323.27, 0.0, 10.001319, 9.999915 
2.895744e+3, 1.5572537e+2, -1546435.0, -1577109.3, 16575.885, -0.34026948, -0.38572532, -1539189.3, -125319.0, 0.0, 10.00003, 9.999502 
2.8953686e+3, 1.6571818e+2, -1283041.0, -1336844.8, 78866.24, -0.2595776, -0.3787442, -1226614.6, 89326.46, 0.0, 10.000907, 10.000019 
2.894994e+3, 1.7571223e+2, -867961.1, -1143774.6, 98781.164, -0.15506522, -0.29937235, -836233.0, 381766.78, 0.0, 10.003308, 9.99954 
2.8946173e+3, 1.8570635e+2, -802430.44, -1010576.9, -23088.494, -0.1259186, -0.14888817, -799900.1, 320159.66, 0.0, 10.002925, 9.999974 
2.8942394e+3, 1.9570024e+2, -1173829.3, -1176371.8, -10291.112, -0.12845317, -0.067754954, -1164731.3, -142608.39, 0.0, 9.999816, 9.999693 
2.8938642e+3, 2.0569366e+2, -1086428.3, -941771.4, 90704.195, -0.02874175, -0.044482756, -898088.4, 26100.523, 0.0, 9.999216, 10.000857 
2.8934902e+3, 2.1568644e+2, -836605.4, -818573.75, 156395.28, 0.07804482, -0.16406766, -670934.6, 155326.05, 0.0, 10.000397, 10.000489 
2.8931132e+3, 2.2567953e+2, -641023.9, -627495.3, 118515.96, -0.04475982, -0.2036123, -515550.75, 212775.72, 0.0, 10.0009, 10.0008745 
2.892734e+3, 2.3567288e+2, -598050.25, -590394.7, 107264.195, -0.33057308, -0.2618263, -486890.0, 143497.17, 0.0, 10.000629, 10.000619 
2.8923577e+3, 2.4566709e+2, -602753.0, -573460.94, 49654.234, -0.22668895, -0.17033279, -536337.8, -3892.929, 0.0, 10.000047, 10.000347 
2.8919828e+3, 2.5566128e+2, -659821.7, -585554.06, 55607.71, 0.08432886, -0.08580546, -555821.3, -121314.88, 0.0, 9.999083, 10.000075 
2.891606e+3, 2.6565444e+2, -557906.75, -424216.88, 136850.69, 0.06238047, -0.08071738, -338758.3, -2186.4187, 0.0, 9.998958, 10.000501 
2.891228e+3, 2.7564672e+2, -387314.66, -344997.66, 82232.16, -0.19817725, -0.20516936, -281245.56, -42603.734, 0.0, 9.999614, 10.00009 
2.890852e+3, 2.856395e+2, -241266.47, -346766.34, 22783.504, -0.13644521, -0.16630767, -236556.47, -95845.02, 0.0, 10.000485, 9.998973 
2.8904775e+3, 2.9563224e+2, -3672.638, -234437.92, 34939.676, 0.16179122, -0.103964016, 1501.4912, 44286.563, 0.0, 10.001615, 9.998566 
2.8901017e+3, 3.0562344e+2, 210764.97, -110646.484, 66009.21, 0.2919041, -0.10735805, 223793.36, 223793.36, 0.0, 10.002661, 9.998238 
2.8897262e+3, 3.1561327e+2, 356466.03, -95126.625, 27091.742, 0.44338262, -0.2522752, 358085.5, 358085.5, 0.0, 10.003548, 9.997655 
2.8893495e+3, 3.256083e+2, -115615.85, -199605.5, -34260.758, 0.63684696, 0.18017952, -103413.21, -103413.21, 0.0, 9.999841, 9.998628 
2.9064915e+3, 1.3611682e+2, -1399318.9, -1531437.5, 169416.27, -0.24192935, -0.09211581, -1283538.4, 322500.53, 0.00000000011876347, 10.001887, 10.000283 
2.906118e+3, 1.4610817e+2, -1343058.3, -1439392.8, -114958.664, -0.1347113, -0.28476086, -1266583.8, 241532.52, 0.0, 10.001703, 10.000323 
2.9057395e+3, 1.5610057e+2, -1226041.9, -1360069.4, -100328.88, -0.22461052, -0.42516193, -1172404.4, 237786.0, 0.0, 10.00195, 10.000075 
2.9053634e+3, 1.6609435e+2, -1168729.3, -1199425.0, -8136.523, -0.20244557, -0.40218517, -1166705.9, 145544.95, 0.0, 10.001349, 10.000756 
2.9049888e+3, 1.7608878e+2, -1340408.6, -1304501.8, 43146.996, -0.16871181, -0.36220196, -1275722.0, -61416.9, 0.0, 9.999767, 10.000168 
2.9046112e+3, 1.8608297e+2, -1255744.1, -1188859.4, -51331.75, -0.15439902, -0.2532141, -1161037.3, -44673.426, 0.0, 9.99962, 10.000337 
2.9042324e+3, 1.9607721e+2, -1156217.4, -1127429.9, 23754.523, -0.10472793, -0.18471992, -1114048.5, -95624.2, 0.0, 9.999778, 10.000012 
2.9038575e+3, 2.060717e+2, -845342.1, -767982.7, 219285.11, 0.0017562252, -0.096528836, -583992.06, 336488.2, 0.0, 10.000629, 10.001341 
2.9034853e+3, 2.1606565e+2, -652617.6, -692260.7, 190587.17, 0.1960551, -0.1578235, -480824.03, 341715.75, 0.0, 10.001523, 10.000793 
2.903108e+3, 2.2605854e+2, -605257.56, -624416.9, 83308.234, 0.0046336856, -0.2289517, -530980.0, 193626.88, 0.0, 10.001279, 10.000667 
2.902726e+3, 2.3605068e+2, -802778.75, -748705.3, 57817.344, -0.45190808, -0.40371266, -711915.44, -85235.62, 0.0, 9.99952, 10.000045 
2.9023495e+3, 2.460453e+2, -679906.25, -595866.5, 24998.975, -0.33110178, -0.24820769, -588992.44, -60258.3, 0.0, 9.999583, 10.000326 
2.9019764e+3, 2.560412e+2, -598758.3, -592050.4, 14565.977, 0.21196778, -0.016206456, -580457.25, -149677.1, 0.0, 9.999776, 9.999634 
2.9016003e+3, 2.6603365e+2, -419025.22, -440840.28, 147129.88, 0.23776789, -0.024773484, -282399.1, 50454.086, 0.0, 10.000328, 9.999695 
2.901222e+3, 2.7602363e+2, -404813.25, -479504.16, 94997.23, -0.08217475, -0.3257357, -340084.44, -105138.39, 0.0, 10.000104, 9.998921 
2.9008457e+3, 2.8601655e+2, -292121.94, -297543.6, 45244.617, -0.101131216, -0.24572806, -249507.0, -112493.02, 0.0, 9.999951, 9.99953 
2.900471e+3, 2.9601088e+2, -372661.38, -401592.34, 83801.086, 0.11369411, -0.073730126, -302086.44, -263015.9, 0.0, 9.999181, 9.998541 
2.900093e+3, 3.0599898e+2, 10868.064, -185778.69, 137633.53, -0.086093195, -0.4038994, 81691.0, 81691.0, 0.0, 10.00137, 9.998196 
2.8997147e+3, 3.159851e+2, 207556.69, -362258.63, 81501.37, -0.36342984, -0.9002586, 218984.73, 218984.73, 0.0, 10.003568, 9.995696 
2.899336e+3, 3.259857e+2, 182307.1, 13297.225, -331201.97, -0.08686614, 0.08369138, 439614.72, 439614.72, 0.0, 10.001856, 9.998889 
2.9164878e+3, 1.3648885e+2, -1353228.1, -1218071.4, 110866.5, -0.1516264, -0.285128, -1155810.5, 446582.63, 0.0000000000007792345, 10.001027, 10.002838 
2.9161122e+3, 1.4648253e+2, -1447257.1, -1534890.5, -86579.555, -0.16885513, -0.32473037, -1394038.1, 110407.97, 0.0, 10.001225, 9.999877 
2.9157364e+3, 1.5647703e+2, -1323322.4, -1449302.1, -64218.04, -0.051897775, -0.20969476, -1296358.5, 110147.89, 0.0, 10.001478, 9.999692 
2.915359e+3, 1.664725e+2, -1119376.8, -1009522.75, -62028.613, -0.093557686, -0.09155047, -981597.3, 326954.53, 0.0, 10.000987, 10.00222 
2.91498e+3, 1.764683e+2, -1287116.5, -1120838.5, 483.01028, -0.35505685, -0.05742507, -1120837.1, 89753.875, 0.0, 9.99944, 10.001592 
2.9146025e+3, 1.8646108e+2, -1156808.8, -953702.06, -40441.516, -0.28335962, -0.25339037, -945945.75, 166712.13, 0.0, 9.999477, 10.002019 
2.9142264e+3, 1.9645236e+2, -1056368.9, -930536.94, 75220.766, -0.044742502, -0.63573563, -895388.75, 119350.22, 0.0, 9.9997835, 10.001374 
2.9138514e+3, 2.0644812e+2, -825349.0, -828683.4, 268135.97, -0.017885642, -0.44672942, -558875.06, 357907.4, 0.0, 10.001007, 10.000768 
2.9134774e+3, 2.1644585e+2, -562410.2, -691395.9, 230261.52, -0.14441279, -0.060516268, -387780.28, 431029.28, 0.0, 10.002256, 10.000474 
2.9131013e+3, 2.2643974e+2, -542075.7, -598263.94, 7791.7837, -0.12299228, -0.018104475, -541015.2, 179855.72, 0.0, 10.001687, 10.000673 
2.9127225e+3, 2.3643127e+2, -730687.1, -704556.0, 19446.13, -0.096512996, -0.23071893, -694193.8, -71240.35, 0.0, 9.999883, 10.000205 
2.9123452e+3, 2.4642456e+2, -627154.94, -596459.9, 66839.984, -0.06849278, -0.2088003, -543228.06, -18210.055, 0.0, 9.999974, 10.000155 
2.9119682e+3, 2.564188e+2, -377532.2, -479176.4, 58072.32, -0.015755938, -0.113401085, -351183.8, 75889.555, 0.0, 10.001144, 9.999779 
2.9115924e+3, 2.6641014e+2, -263602.03, -398234.72, 146848.7, -0.018502194, -0.22798432, -169375.72, 159780.5, 0.0, 10.001428, 9.999505 
2.911216e+3, 2.7639988e+2, -221301.28, -355326.53, 103093.18, -0.1246851, -0.51928556, -165354.98, 65899.26, 0.0, 10.001112, 9.999313 
2.9108393e+3, 2.863944e+2, -167278.69, -117653.43, 55350.27, -0.055164028, -0.3609074, -81808.67, 51498.625, 0.0, 10.000233, 10.000649 
2.9104635e+3, 2.963903e+2, -383484.2, -228288.17, 141226.64, 0.17256549, -0.122450314, -144745.2, -109397.63, 0.0, 9.998184, 10.000233 
2.9264838e+3, 1.3686658e+2, -1268023.0, -1150408.1, 273520.7, -0.015042797, -0.30539227, -929444.5, 669249.06, 0.0, 10.001423, 10.00312 
2.9261065e+3, 1.4686112e+2, -1356615.9, -1473652.9, 111360.93, -0.20520282, -0.26339242, -1289334.3, 211402.9, 0.0, 10.001709, 10.000082 
2.9257312e+3, 1.5685518e+2, -1278679.9, -1388161.1, 150197.4, -0.03085865, -0.18543673, -1173558.8, 229243.66, 0.0, 10.001566, 10.000082 
2.9253528e+3, 1.6685064e+2, -1212404.1, -999527.0, 84970.85, -0.081612885, -0.09358544, -969770.06, 335077.0, 0.0, 10.000085, 10.00274 
2.9249716e+3, 1.7684653e+2, -1491174.0, -1153160.9, 100753.18, -0.33688897, -0.083760396, -1125407.6, 81476.58, 0.0, 9.997753, 10.002191 
2.9245952e+3, 1.8683997e+2, -1176254.8, -927310.5, 85025.2, -0.26019892, -0.25160274, -901042.44, 207901.72, 0.0, 9.999239, 10.0022955 
2.9242212e+3, 1.9683157e+2, -753988.9, -789263.4, 69392.84, 0.084359095, -0.62905365, -700027.0, 310994.13, 0.0, 10.001857, 10.001369 
2.9238462e+3, 2.0682678e+2, -746925.5, -831917.9, 209162.27, -0.0028340511, -0.48007733, -575986.0, 337082.2, 0.0, 10.001767, 10.000369 
2.9234704e+3, 2.1682414e+2, -971995.44, -947404.7, 160692.44, -0.30643323, -0.106980026, -798537.94, 16560.045, 0.0, 9.999746, 9.999924 
2.9230946e+3, 2.2681847e+2, -825405.75, -758181.44, -70844.875, -0.18074842, 0.0057525923, -713379.44, 3778.6563, 0.0, 9.999882, 10.000437 
2.9227182e+3, 2.368108e+2, -738370.5, -742638.4, -71424.76, 0.17940012, -0.1236034, -669047.8, -49810.645, 0.0, 10.000049, 9.999852 
2.92234e+3, 2.4680339e+2, -537064.56, -529787.0, 68912.375, 0.092827134, -0.17580184, -464417.4, 56888.383, 0.0, 10.00055, 10.000326 
2.9219607e+3, 2.5679603e+2, -504153.0, -552585.0, 87987.23, -0.18121804, -0.27304468, -437110.22, -13739.654, 0.0, 10.000408, 9.999623 
2.9215848e+3, 2.6678753e+2, -429350.72, -440063.03, 163730.31, -0.20139806, -0.37955254, -270889.0, 54562.83, 0.0, 10.000295, 9.999673 
2.9212093e+3, 2.7677837e+2, -503723.4, -461319.94, 143238.1, -0.12573, -0.5966209, -337722.97, -110180.81, 0.0, 9.999156, 9.9994955 
2.920833e+3, 2.8677398e+2, -251272.8, -31173.703, 75159.055, 0.005916267, -0.40522623, -7957.4023, 121626.61, 0.0, 9.999217, 10.0016775 
2.9204556e+3, 2.9677007e+2, -392236.3, -42537.273, 143557.64, 0.2516285, -0.31681165, 8845.718, 40466.348, 0.0, 9.997415, 10.001875 
2.9364786e+3, 1.372479e+2, -1445574.4, -1311721.1, 235058.16, -0.03183948, -0.14420138, -1134247.4, 460712.63, 0.0, 10.000629, 10.002366 
2.9361e+3, 1.4724194e+2, -1369640.5, -1385686.0, 101943.16, -0.32183093, -0.17876975, -1275404.9, 221602.89, 0.0, 10.00122, 10.000919 
2.9357237e+3, 1.5723436e+2, -1322123.3, -1346433.1, 127240.75, -0.28503582, -0.3429671, -1206458.3, 192626.88, 0.0, 10.001, 10.000645 
2.935345e+3, 1.6722873e+2, -1262302.5, -1050276.9, -8575.011, -0.2077977, -0.37744296, -1049930.6, 251207.38, 0.0, 9.999866, 10.002487 
2.9349637e+3, 1.7722385e+2, -1564988.1, -1245053.5, 69876.83, -0.27696225, -0.4165015, -1230457.6, -27276.068, 0.0, 9.997477, 10.0016985 
2.9345885e+3, 1.872204e+2, -1262519.8, -1123025.0, 196414.55, -0.16061632, -0.17253427, -984341.6, 120874.99, 0.0, 9.999292, 10.000934 
2.934217e+3, 1.9721681e+2, -782890.75, -910234.3, 152899.05, 0.057144895, 0.07218778, -680935.8, 326318.66, 0.0, 10.002102, 10.0004225 
2.933841e+3, 2.0720844e+2, -735521.4, -821685.1, 113582.016, -0.031767875, -0.10318699, -657125.2, 252207.34, 0.0, 10.001842, 10.000399 
2.9334635e+3, 2.1719849e+2, -968043.75, -952492.94, 95460.7, -0.32550064, -0.44948885, -864491.5, -53067.258, 0.0, 9.999737, 9.999912 
2.933087e+3, 2.2719252e+2, -838831.44, -841704.5, -52383.414, -0.23717004, -0.32728967, -787864.9, -74376.56, 0.0, 10.0, 9.999864 
2.9327103e+3, 2.3718788e+2, -578308.6, -650992.0, -58233.03, -0.03097524, -0.09386637, -546007.7, 69535.586, 0.0, 10.000955, 10.000098 
2.9323328e+3, 2.4718097e+2, -339669.44, -296111.7, 42972.64, -0.055297, -0.19187726, -269714.13, 247891.86, 0.0, 10.001207, 10.001671 
2.9319546e+3, 2.5717294e+2, -299771.2, -297268.97, 72553.83, -0.20453963, -0.46609023, -225955.47, 193718.19, 0.0, 10.001006, 10.001134 
2.9315788e+3, 2.6716778e+2, -393403.44, -348328.03, 125304.42, -0.14839266, -0.34886882, -243550.6, 78175.25, 0.0, 10.0001135, 10.000431 
2.931203e+3, 2.7716342e+2, -396901.75, -284271.84, 110350.07, -0.04555396, -0.15337452, -216697.67, 7077.053, 0.0, 9.999169, 10.00076 
2.9308277e+3, 2.8715637e+2, -241163.4, 12931.116, 70203.45, 0.27564356, -0.31180966, 31037.33, 156876.28, 0.0, 9.998906, 10.00224 
2.9304463e+3, 2.9715005e+2, 50929.266, 313511.72, 211381.47, 0.13050087, -0.5012604, 431056.8, 458947.25, 0.0, 9.999532, 10.003403 
2.946469e+3, 1.3763033e+2, -1305596.3, -1319329.5, 288685.8, -0.46299338, 0.008889994, -1023695.4, 567520.3, 0.0, 10.001768, 10.001825 
2.946099e+3, 1.4762205e+2, -1387735.1, -1476949.9, 121104.38, 0.15115924, -0.17299038, -1303284.0, 190005.94, 0.0, 10.001403, 10.0002365 
2.9457182e+3, 1.5761566e+2, -1332301.6, -1384374.0, 26311.635, -0.21963073, -0.16283166, -1321321.9, 74036.74, 0.0, 10.001047, 10.000381 
2.9453382e+3, 1.676096e+2, -944371.94, -897592.4, -114820.36, -0.22672701, -0.23889093, -803803.7, 493608.22, 0.0, 10.002086, 10.002465 
2.9449576e+3, 1.7760362e+2, -746047.8, -902294.9, -18187.06, -0.20494606, -0.38739592, -743958.75, 455502.34, 0.0, 10.003329, 10.001215 
2.9445833e+3, 1.8759967e+2, -816019.1, -1053406.9, 177397.86, -0.114875205, -0.104440816, -721269.25, 380232.88, 0.0, 10.002984, 9.999621 
2.9442123e+3, 1.9759634e+2, -881174.06, -1068194.6, 99444.22, 0.083991304, 0.27996087, -838180.44, 165360.66, 0.0, 10.001926, 9.999411 
2.9438353e+3, 2.0758662e+2, -923472.9, -892250.0, -13246.083, -0.04915938, -0.025809519, -887387.7, 18242.604, 0.0, 10.000463, 10.00057 
2.943456e+3, 2.1757418e+2, -1242662.0, -1113484.3, 2808.5977, -0.28238058, -0.63063633, -1113423.3, -305681.72, 0.0, 9.997993, 9.99966 
2.9430792e+3, 2.275688e+2, -1057782.9, -906946.2, 31825.662, -0.24161343, -0.4621288, -900506.1, -190707.5, 0.0, 9.998437, 10.00009 
2.9427028e+3, 2.3756592e+2, -881477.06, -795770.25, 80094.68, -0.09064278, -0.083320685, -747785.5, -135948.23, 0.0, 9.998971, 10.000005 
2.942326e+3, 2.4755883e+2, -565953.06, -343682.9, 99755.16, -0.10407504, -0.21641293, -305479.13, 208422.63, 0.0, 9.999536, 10.002078 
2.9419488e+3, 2.5755057e+2, -567700.0, -385799.8, 28621.734, -0.13298573, -0.5762053, -381402.53, 34569.684, 0.0, 9.999138, 10.001394 
2.9415724e+3, 2.6754785e+2, -415803.97, -296227.25, 47061.223, -0.077472895, -0.267252, -279927.47, 38075.383, 0.0, 9.999719, 10.000982 
2.9411957e+3, 2.7754682e+2, -371254.84, -242402.38, 29367.396, 0.020260498, 0.18568575, -236024.78, -16002.145, 0.0, 9.99933, 10.000949 
2.9408216e+3, 2.8753695e+2, -137202.27, 106483.06, -15890.146, 0.49159107, -0.2908856, 107514.85, 229626.27, 0.0, 9.999595, 10.002488 
2.9404342e+3, 2.975306e+2, -69025.86, 311021.56, 274118.4, -0.3954025, -0.5117874, 454539.3, 478695.88, 0.0, 9.998765, 10.003662 
2.95646e+3, 1.38013e+2, -1444967.3, -1418032.4, 183593.42, -0.8774279, 0.15965337, -1247413.1, 340055.84, 0.0, 10.000982, 10.001533 
2.9561007e+3, 1.480024e+2, -1584219.8, -1770843.3, 84765.984, 0.8533425, -0.14456388, -1551466.6, -61892.63, 0.0, 10.000949, 9.998421 
2.955714e+3, 1.5799889e+2, -1496016.3, -1606058.1, 22216.338, -0.08826584, 0.32991987, -1491700.3, -100077.805, 0.0, 10.000539, 9.999114 
2.9553333e+3, 1.679927e+2, -959538.94, -880912.44, -73478.3, -0.24214569, 0.26292655, -836891.44, 456781.2, 0.0, 10.001875, 10.002678 
2.954953e+3, 1.7798562e+2, -790439.4, -949662.1, 14372.094, -0.32762384, -0.00013500737, -789152.5, 406572.13, 0.0, 10.003121, 10.000996 
2.954579e+3, 1.879767e+2, -881192.6, -1214621.3, 121189.09, -0.21930964, -0.13745147, -841799.06, 256012.02, 0.0, 10.003064, 9.998482 
2.9542065e+3, 1.9796753e+2, -917564.7, -1155636.4, 37387.395, -0.0447833, -0.22373043, -911831.4, 88073.77, 0.0, 10.001917, 9.998835 
2.9538277e+3, 2.0796034e+2, -879881.94, -815022.9, -111173.22, -0.15302533, -0.29314294, -731645.9, 170325.3, 0.0, 10.000408, 10.001178 
2.9534462e+3, 2.1795343e+2, -1099273.6, -911631.44, -61149.58, -0.3985023, -0.40558484, -893462.94, -89431.26, 0.0, 9.99832, 10.000918 
2.9530707e+3, 2.2794935e+2, -919054.8, -631761.2, 66832.54, -0.23913209, -0.27540183, -616975.06, 89095.13, 0.0, 9.998468, 10.001981 
2.9526964e+3, 2.3794594e+2, -741771.25, -611406.56, 121408.17, 0.008970462, -0.11148923, -538789.44, 69315.445, 0.0, 9.999331, 10.001116 
2.9523197e+3, 2.479383e+2, -707009.1, -648509.2, 97426.74, 0.03804158, -0.20921871, -576036.4, -65857.164, 0.0, 9.99948, 10.000068 
2.9519427e+3, 2.5792947e+2, -560764.5, -502505.3, 4114.053, -0.008412491, -0.4177351, -502216.22, -89952.23, 0.0, 9.999566, 10.000438 
2.9515657e+3, 2.679253e+2, -286793.38, -184420.7, 14313.904, -0.06601787, -0.2609115, -182456.98, 131850.11, 0.0, 10.00028, 10.0015335 
2.9511878e+3, 2.779225e+2, -76852.164, -69261.805, -21522.791, -0.15492684, -0.015129988, -51202.15, 165136.13, 0.0, 10.001076, 10.001345 
2.9508138e+3, 2.879129e+2, 24757.648, 56927.46, -115654.57, 0.32610473, -0.4223187, 157610.28, 276039.9, 0.0, 10.001096, 10.001496 
2.9504257e+3, 2.9791006e+2, 22556.879, 120606.37, 39140.926, -0.537722, -0.15622814, 134314.69, 154765.14, 0.0, 10.000132, 10.001754 
2.9664588e+3, 1.3839151e+2, -1508828.0, -1353277.5, -18649.957, -0.40072575, 0.19819862, -1351072.6, 232695.11, 0.0, 10.000128, 10.002388 
2.9660922e+3, 1.4838122e+2, -1596630.1, -1685572.6, 52041.78, 0.6650487, -0.15768784, -1572646.6, -86780.164, 0.0, 10.000494, 9.999234 
2.9657075e+3, 1.5837826e+2, -1437455.3, -1542944.8, 127447.78, -0.071046814, 0.31656602, -1352269.0, 35637.09, 0.0, 10.000752, 9.99946 
2.9653284e+3, 1.6837136e+2, -1051723.4, -1029470.7, 59472.363, -0.19362155, 0.22881809, -980092.8, 309870.2, 0.0, 10.001614, 10.001818 
2.9649496e+3, 1.7836332e+2, -955448.25, -1092097.3, 65867.8, -0.25551075, -0.051568497, -928868.56, 263156.53, 0.0, 10.002235, 10.000464 
2.964574e+3, 1.8835416e+2, -1179156.4, -1324385.1, 150602.84, -0.21178333, -0.20646954, -1084576.0, 9536.883, 0.0, 10.000937, 9.998735 
2.9642e+3, 1.9834422e+2, -1374393.4, -1366445.4, 167472.83, -0.018924788, -0.3722905, -1202899.4, -206686.67, 0.0, 9.998795, 9.998886 
2.9638207e+3, 2.0833856e+2, -951544.2, -798500.06, 56924.92, -0.16933778, -0.30130446, -779648.8, 118616.53, 0.0, 9.999808, 10.001537 
2.9634383e+3, 2.1833408e+2, -769301.2, -727188.3, 69664.88, -0.40083483, -0.19690372, -675467.2, 124837.44, 0.0, 10.000572, 10.001067 
2.963063e+3, 2.2832888e+2, -537998.25, -408605.5, 114982.93, -0.23795463, -0.20000942, -341367.44, 360983.53, 0.0, 10.000944, 10.00231 
2.96269e+3, 2.3832384e+2, -596039.2, -563184.5, 33940.25, 0.0829473, -0.24378176, -541905.1, 62491.43, 0.0, 10.000489, 10.000897 
2.9623136e+3, 2.4831684e+2, -511503.7, -639115.6, 75765.31, 0.108184636, -0.23556943, -476256.22, 30211.516, 0.0, 10.001238, 9.999254 
2.961937e+3, 2.5830892e+2, -414544.6, -542870.06, 119030.695, 0.076599106, -0.2714972, -343484.7, 65065.043, 0.0, 10.001136, 9.999373 
2.9615587e+3, 2.683031e+2, -201264.56, -128831.36, 116534.5, -0.091665044, -0.2476118, -43015.46, 267591.3, 0.0, 10.000884, 10.001579 
2.96118e+3, 2.7829784e+2, -347387.72, -283212.56, 27601.396, -0.31342348, -0.24531434, -272974.6, -60317.15, 0.0, 9.999713, 10.000494 
2.9608053e+3, 2.8828898e+2, -126683.48, -144692.03, -79230.52, 0.075880475, -0.4860141, -55947.22, 58800.31, 0.0, 10.000749, 10.000208 
2.9604217e+3, 2.9828733e+2, -117709.805, -208512.81, -66732.77, -0.33232114, 0.021521688, -82398.484, -65630.94, 0.0, 10.00048, 9.999284 
2.9764557e+3, 1.3876924e+2, -1513989.5, -1185457.9, -61185.867, -0.074135885, 0.33606732, -1174432.6, 405643.56, 0.0, 9.999472, 10.00382 
2.9760784e+3, 1.4875892e+2, -1488902.0, -1360340.3, 70301.78, -0.08641978, -0.23598613, -1329361.6, 152803.14, 0.0, 10.000098, 10.001636 
2.9757e+3, 1.5875469e+2, -1422839.1, -1429858.4, 135125.81, -0.26285893, -0.09836469, -1291177.4, 93027.484, 0.0, 10.000421, 10.000388 
2.9753232e+3, 1.6874647e+2, -1192811.4, -1277528.5, 91190.234, -0.17560552, -0.24691743, -1134621.9, 151655.2, 0.0, 10.001433, 10.000198 
2.974946e+3, 1.7873745e+2, -1011282.8, -1183354.3, 45860.94, -0.1808083, -0.47041312, -999823.06, 188532.97, 0.0, 10.002111, 9.999906 
2.974569e+3, 1.8873312e+2, -1052663.0, -1071286.4, 52448.7, -0.12808694, -0.24461898, -1008705.75, 81691.28, 0.0, 10.00091, 10.000518 
2.9741925e+3, 1.987292e+2, -1281593.5, -1165674.6, 128262.164, -0.049102586, 0.022661686, -1082884.4, -90448.336, 0.0, 9.998692, 10.000338 
2.973813e+3, 2.0872298e+2, -945649.94, -813080.2, 130673.445, -0.19804332, 0.00052034436, -732841.25, 161652.6, 0.0, 9.999901, 10.00141 
2.9734328e+3, 2.1871616e+2, -664431.0, -769888.94, 119327.34, -0.439101, -0.097129226, -586701.7, 209854.98, 0.0, 10.001588, 10.000325 
2.973057e+3, 2.2870655e+2, -567974.3, -738248.2, 96322.59, -0.3317557, -0.33043382, -524556.44, 174093.02, 0.0, 10.001965, 9.999621 
2.9726824e+3, 2.3869713e+2, -413382.5, -544949.7, -2314.6877, -0.16384618, -0.56915665, -413341.78, 187399.52, 0.0, 10.001937, 10.00036 
2.972307e+3, 2.4869339e+2, -132163.67, -174601.27, 84055.78, -0.11971129, -0.39385238, -66689.84, 436089.2, 0.0, 10.002513, 10.00188 
2.9719308e+3, 2.5869033e+2, -4114.9565, -170442.03, 130435.664, -0.11587633, -0.17061175, 67413.58, 472224.38, 0.0, 10.00305, 10.001045 
2.9715526e+3, 2.686838e+2, -122121.68, -217483.47, 83926.94, -0.17764837, -0.18987218, -73276.93, 233598.88, 0.0, 10.00185, 10.000582 
2.9711732e+3, 2.7867627e+2, -275131.97, -332856.97, 24204.766, -0.34684247, -0.2841789, -266326.0, -57375.86, 0.0, 10.000395, 9.999891 
2.970796e+3, 2.886681e+2, -81177.83, -226995.3, 1516.3638, -0.27607006, -0.37210062, -81162.055, 29872.541, 0.0, 10.001386, 9.999417 
2.9704183e+3, 2.9866508e+2, 296627.94, 57423.984, -7005.4087, -0.18611386, 0.103295736, 296832.94, 309902.22, 0.0, 10.002906, 10.000003 
2.986448e+3, 1.3914542e+2, -1473368.5, -1227439.3, -48577.223, -0.12271425, 0.10320077, -1218191.8, 358199.47, 0.0, 9.999913, 10.003348 
2.9860684e+3, 1.491409e+2, -1431391.4, -1278959.0, 81309.73, -0.3917069, 0.10889991, -1243729.4, 234695.11, 0.0, 10.00019, 10.002184 
2.9856947e+3, 1.5913467e+2, -1358075.0, -1361268.3, 52972.57, -0.1455291, -0.021380804, -1306675.0, 73805.95, 0.0, 10.000653, 10.000793 
2.985318e+3, 1.691268e+2, -1240899.1, -1300683.3, 80363.77, -0.120009035, -0.15207796, -1185048.1, 97500.336, 0.0, 10.001106, 10.000229 
2.984941e+3, 1.79118e+2, -1145738.3, -1250244.4, 115501.875, -0.17056425, -0.337243, -1071219.6, 113405.22, 0.0, 10.001184, 9.999921 
2.9845622e+3, 1.89113e+2, -1126268.1, -1009243.9, 19899.004, -0.12273457, -0.2241938, -1005952.75, 80717.37, 0.0, 9.999986, 10.001409 
2.9841837e+3, 1.9910942e+2, -1314848.1, -1139274.4, 88199.33, -0.044079307, -0.023438413, -1102619.9, -113916.5, 0.0, 9.998285, 10.000723 
2.9838067e+3, 2.09102e+2, -950166.56, -942482.75, 124733.14, -0.15394023, -0.1166571, -821532.4, 69243.03, 0.0, 10.000352, 10.000337 
2.9834297e+3, 2.1909435e+2, -693247.2, -906113.5, 39484.305, -0.23816721, -0.22241025, -686159.3, 106690.44, 0.0, 10.001958, 9.99922 
2.9830524e+3, 2.2908492e+2, -687321.5, -911693.75, 62483.598, -0.28505453, -0.34542412, -671094.56, 23848.246, 0.0, 10.001732, 9.998521 
2.9826754e+3, 2.390746e+2, -685052.7, -745254.5, 100553.52, -0.29732376, -0.5534405, -610191.3, -13145.896, 0.0, 10.000449, 9.999692 
2.9823005e+3, 2.4907167e+2, -302456.16, -92583.516, 101410.516, -0.25562263, -0.37500978, -51589.285, 447485.3, 0.0, 10.000767, 10.003247 
2.981926e+3, 2.5907043e+2, -375401.7, -351952.4, 1542.9883, -0.13700634, -0.07790477, -351851.3, 49235.754, 0.0, 10.000623, 10.000959 
2.9815483e+3, 2.6906344e+2, -203746.58, -313303.7, -56186.207, -0.08833227, -0.122494176, -180054.88, 123102.04, 0.0, 10.001635, 9.999993 
2.9811683e+3, 2.7905512e+2, -223811.9, -413979.88, -18593.842, -0.20104814, -0.25692207, -222010.92, -16770.232, 0.0, 10.001352, 9.998857 
2.9807872e+3, 2.890478e+2, -145513.45, -295639.4, 44180.71, -0.5927627, -0.20922008, -133476.56, -26160.406, 0.0, 10.001252, 9.998969 
2.980417e+3, 2.99041e+2, -112876.62, 8032.229, 62031.168, 0.12514366, -0.110096775, 34195.375, 43582.063, 0.0, 9.99971, 10.001137 
2.9964387e+3, 1.3952148e+2, -1627965.5, -1437284.6, -58210.22, -0.4205428, -0.1863818, -1420919.0, 151784.7, 0.0, 9.999552, 10.002079 
2.996061e+3, 1.495245e+2, -1542851.9, -1389376.1, 79092.73, -0.47038257, 0.6458304, -1355912.5, 118759.01, 0.0, 9.999734, 10.00164 
2.9956907e+3, 1.5951669e+2, -1477366.5, -1407090.1, 58336.746, 0.062408693, 0.40337348, -1374126.4, 2620.6309, 0.0, 9.999805, 10.000889 
2.995313e+3, 1.6951047e+2, -1233665.1, -1141659.4, 75140.98, -0.04369515, 0.33882615, -1099557.5, 179235.97, 0.0, 10.000499, 10.001615 
2.9949334e+3, 1.7950405e+2, -1139761.3, -1108569.9, 79479.57, -0.39538842, 0.25515068, -1043170.3, 137670.23, 0.0, 10.000671, 10.00112 
2.9945529e+3, 1.8949258e+2, -1143058.5, -999087.7, -30756.695, -0.38604298, -0.32363713, -992792.3, 90151.88, 0.0, 9.999843, 10.001523 
2.994174e+3, 1.994812e+2, -1446133.8, -1314673.8, 86417.984, -0.20149408, -0.862269, -1271828.9, -286778.6, 0.0, 9.997857, 9.999715 
2.9938024e+3, 2.0947368e+2, -1081539.1, -1199636.1, 208003.23, 0.046343535, -0.8048961, -924365.3, -37235.305, 0.0, 10.000292, 9.998594 
2.9934293e+3, 2.1946672e+2, -568921.4, -866663.6, 36167.707, 0.11452222, -0.6781937, -564590.94, 224614.19, 0.0, 10.002846, 9.999064 
2.9930487e+3, 2.2946405e+2, -515497.2, -632305.6, -9413.12, -0.1531287, -0.24081106, -514743.5, 176488.33, 0.0, 10.001986, 10.000357 
2.992669e+3, 2.3946187e+2, -562989.25, -620816.7, 96344.22, -0.35416076, 0.20586751, -491313.66, 101939.55, 0.0, 10.000941, 10.000319 
2.992296e+3, 2.4945402e+2, -447673.56, -456628.8, 80766.28, -0.09426818, 0.0684155, -371260.88, 124073.14, 0.0, 10.000986, 10.00068 
2.9919234e+3, 2.5944564e+2, -380860.78, -431127.1, -49847.4, 0.19745965, -0.11738815, -350168.88, 47251.305, 0.0, 10.000801, 10.000389 
2.9915494e+3, 2.6944056e+2, -66781.19, -124024.0, -56417.69, 0.52003235, -0.017043782, -32140.115, 267330.75, 0.0, 10.001993, 10.00119 
2.9911718e+3, 2.7943555e+2, 177789.72, -58597.945, -47762.813, 0.5532784, 0.07867875, 187075.56, 388595.94, 0.0, 10.003289, 10.000443 
2.9907826e+3, 2.8942648e+2, 20032.365, -100386.3, -25355.404, -0.50384617, -0.16708703, 25153.424, 128764.45, 0.0, 10.001764, 10.000209 
2.9904017e+3, 2.9941773e+2, -327164.38, -154710.73, -126755.82, -0.59272444, -0.29976457, -87633.6, -81937.2, 0.0, 9.998221, 10.000933 
3.0064386e+3, 1.3990605e+2, -1309850.8, -1592069.9, -25840.322, 0.025800597, 0.07796339, -1307504.3, 261427.2, 0.0, 10.002779, 9.999549 
3.0060562e+3, 1.4990073e+2, -1456608.0, -1708211.5, 89872.79, -0.30448046, 0.37802452, -1427803.1, 43181.125, 0.0, 10.001827, 9.998415 
3.0056858e+3, 1.5988733e+2, -1590593.3, -1513878.3, -49222.594, 0.2724253, -0.18605115, -1489832.5, -116716.96, 0.0, 9.999143, 10.000446 
3.0053076e+3, 1.698816e+2, -1145587.6, -845560.4, 49371.863, 0.111533195, -0.40108526, -837644.7, 437509.28, 0.0, 9.999895, 10.003896 
3.004931e+3, 1.7987707e+2, -1084461.8, -1136405.1, 93845.54, -0.056708273, -0.49153966, -1013060.4, 164119.53, 0.0, 10.00112, 10.000739 
3.0045494e+3, 1.8987279e+2, -1087127.5, -1267445.5, -255178.31, -0.10386387, -0.20301619, -906649.0, 172568.88, 0.0, 10.001344, 9.998949 
3.0041683e+3, 1.9986348e+2, -970767.06, -1310425.3, -169093.64, -0.11703989, -0.29674205, -900941.0, 80366.79, 0.0, 10.001949, 9.997774 
3.0037948e+3, 2.0985922e+2, -674860.0, -859863.1, 210529.4, -0.16872613, -0.0014309515, -537406.9, 345948.66, 0.0, 10.002448, 9.999806 
3.0034217e+3, 2.1985422e+2, -530078.25, -873202.8, 157227.23, -0.29918787, 0.25707352, -468930.34, 316481.25, 0.0, 10.0031805, 9.998823 
3.003041e+3, 2.298433e+2, -366487.38, -555103.7, -28187.867, -0.4069136, -0.15026034, -362364.94, 325152.5, 0.0, 10.002978, 10.000307 
3.002662e+3, 2.398359e+2, -678960.6, -788331.94, -20417.734, -0.47811568, -0.2590977, -675273.3, -85684.7, 0.0, 10.00062, 9.999267 
3.0022886e+3, 2.4982907e+2, -636896.6, -777636.0, 71254.94, -0.22740878, -0.16616595, -607120.6, -115459.12, 0.0, 10.000741, 9.998459 
3.001914e+3, 2.5982097e+2, -448649.28, -498258.63, 42500.566, -0.110852465, -0.18620817, -424244.5, -30497.508, 0.0, 10.000531, 9.999977 
3.0015364e+3, 2.6981655e+2, -377892.4, -12512.799, 179319.08, -0.17168649, -0.20056576, 60787.43, 356575.22, 0.0, 9.99885, 10.003319 
3.0011576e+3, 2.798135e+2, -508960.47, -257663.22, 285901.6, -0.34700143, -0.08890834, -71018.24, 126797.07, 0.0, 9.998083, 10.001498 
3.0007777e+3, 2.8980732e+2, 127776.984, 84048.586, 288883.9, -0.42226508, -0.14756459, 395622.9, 495501.63, 0.0, 10.002111, 10.001151 
3.0003956e+3, 2.998037e+2, 625100.5, 413177.34, -26381.469, -0.4496694, 0.12600201, 628335.25, 630247.0, 0.0, 10.004526, 10.001642 
