coord_x,coord_y,stress_xx,stress_yy,tau_xy,velocity_x,velocity_y,stress_1,eps,damage,lx,ly
4.9990416e+0, 1.2622131e+2, -1908950.3, -1703475.3, -15408.128, -0.006704622, 0.07952546, -1702326.4, 715.69464, 0.000055290777, 9.998215, 10.000937 
4.999214e+0, 1.3622262e+2, -1798978.0, -1661801.1, -11208.223, -0.006937915, 0.16719502, -1660891.4, -55860.44, 0.000019222676, 9.998566, 10.000382 
4.999411e+0, 1.4622214e+2, -1670887.8, -1579173.8, -9736.888, -0.0040004556, 0.09698618, -1578151.5, -71114.19, 0.000002703532, 9.9989, 10.000113 
4.9995947e+0, 1.5622291e+2, -1527729.4, -1462857.5, -9003.514, -0.0018541398, 0.16070926, -1461631.1, -52599.664, 0.000000021272871, 9.999226, 10.000081 
4.999712e+0, 1.6622317e+2, -1428700.4, -1428612.0, -10404.739, -0.004294937, 0.2099635, -1418251.4, -107220.09, 0.0, 9.99951, 9.999507 
4.999792e+0, 1.7622288e+2, -1294253.4, -1315709.4, -11344.004, -0.009368429, 0.22518766, -1289368.1, -76330.984, 0.0, 9.999771, 9.999483 
4.9999768e+0, 1.8622223e+2, -1191213.6, -1279139.8, -6952.6616, -0.0064065224, 0.24343923, -1190667.3, -75621.98, 0.0, 10.000081, 9.998913 
5.000226e+0, 1.9622143e+2, -1042221.44, -1154164.6, -1445.073, 0.0015337721, 0.26828605, -1042202.8, -25148.363, 0.0, 10.000421, 9.998934 
5.0003815e+0, 2.0622e+2, -915095.75, -1065029.0, -2270.678, 0.0021464415, 0.24431458, -915061.4, 4005.1584, 0.0, 10.000719, 9.99873 
5.000477e+0, 2.1621816e+2, -779779.4, -952406.4, -5666.966, -0.0018573825, 0.18339543, -779593.56, 41487.402, 0.0, 10.00099, 9.998699 
5.000583e+0, 2.2621639e+2, -695245.94, -926989.9, -5351.957, -0.00087078905, 0.16776763, -695122.44, 27973.844, 0.0, 10.001183, 9.998108 
5.000695e+0, 2.3621462e+2, -574127.5, -814138.75, 657.9413, 0.0032707304, 0.17908293, -574125.7, 50986.504, 0.0, 10.001326, 9.998141 
5.000761e+0, 2.462124e+2, -459360.0, -722452.2, 2056.4307, 0.0009708917, 0.14614603, -459343.94, 67787.62, 0.0, 10.001502, 9.998013 
5.0007975e+0, 2.562098e+2, -330950.44, -607658.25, -1414.8334, -0.005398539, 0.0812084, -330943.2, 98210.17, 0.0, 10.001702, 9.998032 
5.000842e+0, 2.6620737e+2, -239613.94, -543105.1, -2661.738, -0.005103883, 0.050798867, -239590.6, 91583.76, 0.0, 10.001786, 9.997762 
5.000894e+0, 2.7620503e+2, -135434.63, -435129.53, 2114.8904, -0.00054637034, 0.03967996, -135419.7, 97775.28, 0.0, 10.001799, 9.997824 
5.000917e+0, 2.8620294e+2, -35079.492, -331762.5, -513.15674, 0.001839371, 0.043042928, -35078.6, 100135.94, 0.0000000005106852, 10.001797, 9.997862 
5.000921e+0, 2.9620093e+2, 61705.742, -233655.78, -7188.5986, 0.002811579, 0.05148141, 61880.598, 99114.39, 0.000003227908, 10.001785, 9.997868 
5.000918e+0, 3.0619803e+2, 103879.91, -195164.72, -7464.31, 0.0033095302, -0.021166038, 104066.1, 104066.1, 0.000038102575, 10.001769, 9.997807 
5.0008726e+0, 3.1619677e+2, 171156.56, -49449.52, -3123.743, 0.00003241863, 0.07049383, 171200.78, 171200.78, 0.00014042419, 10.001743, 9.998819 
1.4997123e+1, 1.2622084e+2, -1902637.8, -1690092.4, -3689.2837, -0.02025353, 0.08917937, -1690028.4, 13019.802, 0.000051840474, 9.998214, 10.00103 
1.4997642e+1, 1.362223e+2, -1792988.9, -1649212.3, 1875.4641, -0.020829314, 0.1840685, -1649187.8, -44153.133, 0.000017729604, 9.998565, 10.000469 
1.4998233e+1, 1.4622183e+2, -1669189.5, -1575489.0, 2404.7532, -0.011996529, 0.10811984, -1575427.4, -68386.75, 0.0000024017909, 9.9989, 10.000138 
1.4998785e+1, 1.5622248e+2, -1526561.4, -1460334.3, 2897.7915, -0.0055530802, 0.15711498, -1460207.6, -51171.785, 0.000000014045858, 9.999225, 10.000098 
1.4999136e+1, 1.6622272e+2, -1430860.1, -1433034.4, -667.05347, -0.012888114, 0.20430587, -1430671.8, -119635.76, 0.0, 9.999509, 9.999477 
1.4999376e+1, 1.7622244e+2, -1294874.3, -1316897.4, -1151.7904, -0.028116751, 0.22660553, -1294814.1, -81772.57, 0.0, 9.999771, 9.9994755 
1.499993e+1, 1.8622185e+2, -1180544.6, -1256885.1, 5840.055, -0.019219749, 0.24107644, -1180100.4, -65051.418, 0.0, 10.000081, 9.999065 
1.5000679e+1, 1.9622108e+2, -1033526.3, -1136067.4, 11086.577, 0.0045934725, 0.2551733, -1032341.4, -15284.199, 0.0, 10.000421, 9.999059 
1.5001145e+1, 2.0621976e+2, -920894.7, -1077010.4, 7949.715, 0.006440663, 0.23905951, -920490.94, -1422.2683, 0.0, 10.000719, 9.998648 
1.500143e+1, 2.1621804e+2, -783620.1, -960287.2, 3992.1646, -0.0055708867, 0.19817778, -783529.94, 37552.863, 0.0, 10.00099, 9.998646 
1.5001749e+1, 2.2621618e+2, -684096.94, -903742.7, -5.619289, -0.0026202088, 0.1693639, -684096.94, 39001.527, 0.0, 10.001182, 9.998268 
1.5002085e+1, 2.3621427e+2, -565056.8, -795218.94, 6273.101, 0.00980432, 0.14711802, -564885.94, 60229.2, 0.0, 10.001325, 9.998271 
1.5002283e+1, 2.4621218e+2, -465092.34, -734295.5, 9579.5625, 0.002904917, 0.13114339, -464751.88, 62380.984, 0.0, 10.001502, 9.9979315 
1.500239e+1, 2.5621e+2, -334841.97, -615681.2, 5288.565, -0.016206782, 0.114707656, -334742.4, 94409.15, 0.0, 10.001701, 9.997977 
1.5002526e+1, 2.6620743e+2, -230390.84, -523877.34, -2257.4968, -0.0153145045, 0.065749064, -230373.48, 100800.2, 0.0, 10.001786, 9.997894 
1.5002681e+1, 2.7620465e+2, -128938.77, -421540.03, 2463.0903, -0.0016437693, -0.0049003083, -128918.04, 104280.02, 0.0, 10.001799, 9.997917 
1.500275e+1, 2.862027e+2, -47696.36, -357841.88, -950.43115, 0.005513006, 0.01948604, -47693.445, 87523.24, 0.00000000036389677, 10.001796, 9.997683 
1.5002763e+1, 2.9620123e+2, 51567.87, -254631.42, -7502.784, 0.008437457, 0.0994232, 51751.6, 88983.69, 0.0000031171262, 10.001785, 9.997724 
1.5002754e+1, 3.061982e+2, 111775.516, -178697.78, -8363.96, 0.009919903, 0.015464892, 112016.15, 112016.15, 0.0000374169, 10.001769, 9.997919 
1.5002617e+1, 3.161964e+2, 178427.17, -34184.668, -3686.4773, 0.000017241839, 0.040636353, 178491.08, 178491.08, 0.00013856335, 10.001743, 9.998924 
2.4995261e+1, 1.2622023e+2, -1888284.4, -1675766.4, -10628.234, -0.031340048, 0.11122768, -1675236.1, 27819.607, 0.000046849033, 9.998281, 10.001097 
2.4996239e+1, 1.3622163e+2, -1769831.3, -1630736.3, -6058.543, -0.024154263, 0.19347413, -1630472.9, -25431.117, 0.000015561249, 9.9986925, 10.000534 
2.4997169e+1, 1.4622116e+2, -1659187.4, -1567854.3, -10823.065, -0.011241116, 0.113018215, -1566589.3, -59541.81, 0.0000019703923, 9.998957, 10.000163 
2.4997927e+1, 1.5622184e+2, -1539092.9, -1463415.8, -9912.352, -0.0089336485, 0.16211867, -1462139.0, -53096.523, 0.000000006345991, 9.999126, 10.000126 
2.4998578e+1, 1.6622207e+2, -1440262.3, -1432716.0, -7532.238, -0.01543461, 0.20464861, -1428064.8, -117022.164, 0.0, 9.999424, 9.99952 
2.4999185e+1, 1.7622176e+2, -1286424.4, -1307339.6, -2553.935, -0.026046013, 0.21960555, -1286117.1, -73068.875, 0.0, 9.999805, 9.999525 
2.500001e+1, 1.8622123e+2, -1169468.8, -1241406.3, 3084.862, -0.02114284, 0.2338819, -1169336.8, -54281.973, 0.0, 10.000113, 9.999157 
2.500096e+1, 1.9622059e+2, -1034644.44, -1127473.8, 3542.468, -0.0069593424, 0.25237387, -1034509.44, -17447.941, 0.0, 10.000374, 9.999141 
2.5001726e+1, 2.0621936e+2, -935535.2, -1082111.1, 1426.9695, -0.0020373613, 0.23995392, -935521.3, -16448.844, 0.0, 10.00061, 9.998665 
2.5002366e+1, 2.1621768e+2, -804552.6, -967000.75, 4706.885, -0.0029214057, 0.20251831, -804416.3, 16670.178, 0.0, 10.000832, 9.998675 
2.5002897e+1, 2.2621587e+2, -689984.7, -892361.56, 787.6978, -0.0009106757, 0.16893874, -689981.6, 33119.953, 0.0, 10.0010805, 9.998395 
2.5003353e+1, 2.3621397e+2, -554076.06, -777412.4, 4469.051, 0.002908905, 0.13689466, -553986.6, 71130.62, 0.0, 10.001347, 9.9983835 
2.5003722e+1, 2.4621196e+2, -461680.06, -732207.9, 9335.027, -0.004487652, 0.12103981, -461358.3, 65776.08, 0.0, 10.001524, 9.997936 
2.5004035e+1, 2.5620985e+2, -342487.88, -618272.94, 10787.272, -0.019002622, 0.111276545, -342066.56, 87086.13, 0.0, 10.001644, 9.997987 
2.5004262e+1, 2.662073e+2, -234411.97, -520042.88, -1959.4644, -0.017960906, 0.062268417, -234398.53, 96776.164, 0.0, 10.001734, 9.997946 
2.5004432e+1, 2.7620453e+2, -124555.15, -414131.28, -3266.007, -0.006926453, -0.012348986, -124518.32, 108680.75, 0.0, 10.001805, 9.997965 
2.500452e+1, 2.8620267e+2, -39405.355, -351515.47, -1098.1965, 0.00063182745, 0.01666275, -39401.492, 95815.484, 0.00000000025082827, 10.001843, 9.997704 
2.5004557e+1, 2.962013e+2, 63189.895, -247101.67, 7235.319, 0.005793154, 0.106762156, 63358.516, 100589.73, 0.000002969252, 10.001857, 9.997741 
2.5004596e+1, 3.0619827e+2, 123651.04, -174333.95, 5773.67, 0.01285283, 0.021287024, 123762.87, 123762.87, 0.00003639656, 10.001857, 9.997908 
2.5004452e+1, 3.1619638e+2, 192191.53, -29511.402, 1387.1665, 0.0039996807, 0.03807533, 192200.22, 192200.22, 0.0001357669, 10.001846, 9.998907 
3.4993458e+1, 1.2621948e+2, -1885868.6, -1670214.9, 3544.8132, -0.040156342, 0.14574087, -1670156.6, 32908.152, 0.000040315306, 9.998279, 10.001136 
3.4995002e+1, 1.362206e+2, -1766813.5, -1624411.8, 8555.932, -0.01712409, 0.19553624, -1623899.5, -18847.086, 0.000012732851, 9.9986925, 10.000578 
3.499622e+1, 1.4622012e+2, -1657275.1, -1564050.6, -4527.631, -0.0020061205, 0.1118534, -1563831.3, -56773.51, 0.0000014374052, 9.998958, 10.00019 
3.4997025e+1, 1.5622097e+2, -1536527.4, -1458088.8, -2592.5525, -0.012121753, 0.17582044, -1458003.1, -48951.984, 0.0000000013691683, 9.999126, 10.000162 
3.4998035e+1, 1.662212e+2, -1432135.0, -1415700.1, 6874.64, -0.012030048, 0.21100408, -1413203.8, -102152.78, 0.0, 9.999423, 9.999638 
3.499922e+1, 1.762208e+2, -1278923.6, -1291775.5, 11390.286, -0.00332154, 0.20421208, -1272271.6, -59214.633, 0.0, 9.999805, 9.999632 
3.500021e+1, 1.8622038e+2, -1167415.6, -1237157.3, 12955.25, -0.012349456, 0.22186637, -1165086.9, -50024.195, 0.0, 10.000113, 9.9991865 
3.5001072e+1, 1.9621997e+2, -1031883.5, -1121685.1, 13262.686, -0.03323105, 0.25989702, -1029965.7, -12898.15, 0.0, 10.000373, 9.999181 
3.500212e+1, 2.0621881e+2, -927358.9, -1065070.1, 9797.665, -0.023409262, 0.24700682, -926665.3, -7587.417, 0.0, 10.00061, 9.998782 
3.500329e+1, 2.1621712e+2, -796551.75, -950338.5, 13287.344, 0.0059453547, 0.19646114, -795412.1, 25679.95, 0.0, 10.000832, 9.99879 
3.500403e+1, 2.2621544e+2, -683382.7, -878566.06, 10864.491, 0.0041058655, 0.16650777, -682779.8, 40325.715, 0.0, 10.00108, 9.99849 
3.5004494e+1, 2.3621377e+2, -547510.2, -763700.1, 13904.251, -0.017512215, 0.14835799, -546619.56, 78498.95, 0.0, 10.001346, 9.998478 
3.5005078e+1, 2.4621168e+2, -455496.53, -719285.1, 13876.236, -0.021308107, 0.11583036, -454768.6, 72367.52, 0.0, 10.001523, 9.998025 
3.5005733e+1, 2.5620928e+2, -337362.13, -607477.0, 15086.609, -0.013870299, 0.07101254, -336522.13, 92634.65, 0.0, 10.001644, 9.998061 
3.5006043e+1, 2.6620698e+2, -236571.5, -524349.44, 715.46027, -0.013155319, 0.04044009, -236569.72, 94607.64, 0.0, 10.001733, 9.997916 
3.5006142e+1, 2.762047e+2, -124556.63, -413973.47, -737.23846, -0.01648398, 0.017269654, -124554.76, 108643.234, 0.0, 10.001805, 9.997967 
3.5006228e+1, 2.8620282e+2, -24045.65, -319508.0, -625.0225, -0.01292888, 0.034468476, -24044.328, 111171.086, 0.00000000021451357, 10.0018425, 9.997924 
3.5006303e+1, 2.9620117e+2, 75579.24, -221274.36, 7657.4785, -0.0052601113, 0.07346221, 75776.64, 113007.83, 0.0000027944461, 10.001857, 9.997919 
3.5006446e+1, 3.0619824e+2, 114029.66, -194240.27, 5420.229, 0.012037019, -0.0036256234, 114124.93, 114124.93, 0.000035014476, 10.001857, 9.99777 
3.5006377e+1, 3.161967e+2, 182487.47, -49674.19, 1410.847, 0.0117070675, 0.06278809, 182496.05, 182496.05, 0.00013190451, 10.001846, 9.998769 
4.499194e+1, 1.2621853e+2, -1823762.5, -1649162.4, 20925.625, -0.043057684, 0.14945829, -1646689.5, 56384.547, 0.000032724987, 9.998744, 10.001056 
4.4993722e+1, 1.3621947e+2, -1749701.5, -1623526.6, 17957.318, -0.022069275, 0.18689863, -1621020.8, -15957.276, 0.0000095173555, 9.998842, 10.000512 
4.4995198e+1, 1.4621896e+2, -1651858.6, -1564895.3, -3377.609, -0.0025077597, 0.10381598, -1564764.3, -57695.11, 0.00000089505704, 9.999009, 10.000159 
4.4996223e+1, 1.5621985e+2, -1522935.3, -1453267.6, -5045.7603, -0.009618919, 0.17573665, -1452904.1, -43841.766, 0.00000000008098328, 9.999228, 10.000147 
4.4997492e+1, 1.6622013e+2, -1418095.3, -1398115.4, 6282.525, -0.011139715, 0.21123376, -1396304.1, -85242.64, 0.0, 9.999473, 9.999735 
4.499896e+1, 1.7621978e+2, -1282307.4, -1282931.8, 9066.012, -0.0064022373, 0.19989549, -1273548.1, -60481.46, 0.0, 9.999737, 9.999725 
4.500024e+1, 1.8621944e+2, -1176243.0, -1233850.9, 10356.638, -0.01585784, 0.21855974, -1174437.8, -59366.227, 0.0, 10.00002, 9.999254 
4.5001397e+1, 1.9621915e+2, -1035291.4, -1115362.8, 13318.352, -0.035229594, 0.26129106, -1033134.25, -16058.804, 0.0, 10.000316, 9.999252 
4.500268e+1, 2.0621806e+2, -925623.8, -1053438.6, 8431.382, -0.026753446, 0.24743973, -925070.06, -5984.9487, 0.0, 10.000575, 9.9988785 
4.5004046e+1, 2.1621642e+2, -792563.94, -937240.44, 10237.441, -0.0003205142, 0.19222885, -791843.06, 29255.707, 0.0, 10.000811, 9.99889 
4.5005e+1, 2.2621487e+2, -687770.8, -866951.7, 7809.6694, -0.0018877035, 0.1639764, -687431.06, 35679.715, 0.0, 10.000991, 9.998613 
4.50057e+1, 2.362134e+2, -569849.56, -761438.2, 12509.37, -0.02131356, 0.15145305, -569036.25, 56085.52, 0.0, 10.001137, 9.998594 
4.5006463e+1, 2.4621134e+2, -488939.8, -728010.8, 9341.058, -0.022023749, 0.113604724, -488575.38, 38563.582, 0.0, 10.001262, 9.998091 
4.5007274e+1, 2.562089e+2, -371766.7, -617065.25, 8814.172, -0.010907115, 0.05691247, -371450.38, 57709.863, 0.0, 10.001377, 9.998124 
4.500772e+1, 2.6620668e+2, -263424.16, -532531.56, -2720.4739, -0.008449833, 0.032307614, -263396.66, 67783.32, 0.0, 10.001529, 9.997959 
4.5007947e+1, 2.7620462e+2, -136064.63, -413496.88, 854.28705, -0.01135318, 0.025982695, -136061.98, 97136.85, 0.0, 10.0017, 9.99802 
4.500807e+1, 2.862028e+2, -15244.405, -300634.4, -2821.3855, -0.013274898, 0.03713604, -15216.516, 119999.13, 0.00000000034042036, 10.001841, 9.9980545 
4.5008117e+1, 2.9620105e+2, 98541.414, -198009.33, -1411.9918, -0.014688432, 0.055725556, 98548.14, 135779.67, 0.0000026033522, 10.001962, 9.998028 
4.5008337e+1, 3.0619815e+2, 133085.31, -190875.33, -4750.671, 0.008010195, -0.019954849, 133154.97, 133154.97, 0.00003329706, 10.002013, 9.997719 
4.5008355e+1, 3.161967e+2, 202069.5, -47231.105, -2317.299, 0.01639655, 0.06337015, 202091.05, 202091.05, 0.00012697614, 10.002011, 9.998707 
5.4990697e+1, 1.262174e+2, -1837515.1, -1678119.0, 23297.416, -0.041749436, 0.12285326, -1674783.6, 28299.867, 0.000024933155, 9.998746, 10.000857 
5.4992396e+1, 1.3621822e+2, -1762143.0, -1649092.0, 21990.941, -0.03911016, 0.16765425, -1644965.0, -39890.316, 0.000006388969, 9.99884, 10.000338 
5.4994106e+1, 1.4621761e+2, -1658303.3, -1577896.0, 4800.5303, -0.012716573, 0.08885054, -1577610.5, -70528.75, 0.00000045379167, 9.999008, 10.000071 
5.499553e+1, 1.5621844e+2, -1527668.9, -1463180.4, 3428.423, -0.0020171136, 0.16190681, -1462998.6, -53922.71, 0.0, 9.999228, 10.000079 
5.4996943e+1, 1.6621882e+2, -1412547.1, -1386795.6, 16174.294, -0.013298213, 0.20541799, -1378997.9, -67923.63, 0.0, 9.999474, 9.999812 
5.4998404e+1, 1.7621867e+2, -1276660.5, -1271176.4, 19133.318, -0.035386737, 0.2067456, -1254589.6, -41512.242, 0.0, 9.999737, 9.999806 
5.5000097e+1, 1.8621841e+2, -1168864.0, -1218418.4, 21542.205, -0.03180605, 0.22402838, -1160808.6, -45727.34, 0.0, 10.000019, 9.99936 
5.500193e+1, 1.9621812e+2, -1028099.8, -1100416.5, 24299.412, -0.013298057, 0.25662395, -1020693.4, -3608.2505, 0.0, 10.000316, 9.999354 
5.50034e+1, 2.0621711e+2, -920279.25, -1042344.8, 17356.365, -0.012352581, 0.24127524, -917859.4, 1234.7063, 0.0, 10.000575, 9.998955 
5.500464e+1, 2.1621558e+2, -786581.75, -924785.8, 18770.555, -0.021904832, 0.18977459, -784077.75, 37028.93, 0.0, 10.000811, 9.998976 
5.500582e+1, 2.2621416e+2, -677220.8, -844991.8, 13342.343, -0.019104581, 0.16126853, -676166.4, 46951.02, 0.0, 10.00099, 9.998764 
5.5006963e+1, 2.362128e+2, -560189.6, -741300.2, 17872.049, -0.008706018, 0.14623308, -558442.8, 66684.164, 0.0, 10.001136, 9.9987335 
5.5007875e+1, 2.4621089e+2, -485998.1, -721803.7, 13675.572, -0.0068832613, 0.114360884, -485207.63, 41935.3, 0.0, 10.001262, 9.998134 
5.5008656e+1, 2.5620863e+2, -368254.28, -609717.2, 13450.789, -0.010349326, 0.06889836, -367507.3, 61655.785, 0.0, 10.001377, 9.998175 
5.5009294e+1, 2.662064e+2, -255411.03, -515868.38, 3756.5007, -0.004045244, 0.037769273, -255356.86, 75825.69, 0.0, 10.001529, 9.998074 
5.500984e+1, 2.762043e+2, -128709.87, -398147.22, 7028.4624, 0.008198598, 0.013863302, -128526.65, 104674.96, 0.0, 10.0017, 9.998126 
5.501003e+1, 2.8620252e+2, -12375.954, -294511.28, 1745.4337, -0.0005936068, 0.024724292, -12365.156, 122852.52, 0.0000000006700443, 10.00184, 9.998096 
5.501e+1, 2.9620093e+2, 101346.8, -191972.52, 2726.8394, -0.022513233, 0.053519018, 101372.15, 138604.4, 0.0000023959767, 10.001961, 9.99807 
5.5010283e+1, 3.06198e+2, 135369.63, -186101.08, -4769.4434, 0.0006589704, -0.027887953, 135440.38, 135440.38, 0.000031288328, 10.002012, 9.997752 
5.501037e+1, 3.1619647e+2, 203162.4, -45197.86, -2187.2874, 0.01721994, 0.03952864, 203181.67, 203181.67, 0.0001210288, 10.002012, 9.99872 
6.498968e+1, 1.2621629e+2, -1799950.4, -1681400.3, 6589.5493, -0.03611811, 0.1210871, -1681035.1, 22058.646, 0.00001782932, 9.999095, 10.000666 
6.4991343e+1, 1.36217e+2, -1739942.6, -1656088.8, 8025.47, -0.03997361, 0.17142308, -1655327.5, -50240.684, 0.0000037958928, 9.999069, 10.000179 
6.4993185e+1, 1.4621627e+2, -1630662.3, -1566816.1, 904.29407, -0.015313208, 0.090672046, -1566803.4, -59708.285, 0.0000001737419, 9.9992075, 10.00005 
6.4994806e+1, 1.5621701e+2, -1496052.6, -1449125.9, 4413.9688, -0.008030623, 0.15583915, -1448714.3, -39624.332, 0.0, 9.99945, 10.000069 
6.499644e+1, 1.6621743e+2, -1384254.0, -1366517.0, 17606.857, -0.019567603, 0.20159222, -1355671.3, -44583.676, 0.0, 9.9996395, 9.999871 
6.499813e+1, 1.7621744e+2, -1262980.6, -1257652.5, 19381.506, -0.039679047, 0.21199942, -1240752.9, -27663.588, 0.0, 9.999802, 9.999868 
6.5000117e+1, 1.8621722e+2, -1167873.6, -1208914.4, 21344.416, -0.030881554, 0.22579871, -1158785.4, -43692.688, 0.0, 9.999988, 9.99944 
6.500227e+1, 1.9621691e+2, -1040396.06, -1096735.8, 22057.354, -0.0052472, 0.24695472, -1032787.94, -15691.133, 0.0, 10.00019, 9.99944 
6.500394e+1, 2.0621601e+2, -933993.44, -1035073.06, 16376.0625, -0.008687492, 0.2319928, -931406.5, -12301.991, 0.0, 10.000422, 9.999079 
6.50053e+1, 2.1621467e+2, -798243.6, -916724.7, 20904.488, -0.029875726, 0.18830287, -794663.5, 26451.63, 0.0, 10.000671, 9.999098 
6.500669e+1, 2.2621334e+2, -688638.5, -838849.1, 11556.854, -0.024963824, 0.1564677, -687754.56, 35370.45, 0.0, 10.000862, 9.998868 
6.5008086e+1, 2.3621197e+2, -570651.0, -734582.4, 12594.245, -0.0037354662, 0.13135234, -569689.1, 55445.4, 0.0, 10.001014, 9.998838 
6.500914e+1, 2.4621022e+2, -487531.97, -710382.3, 10579.745, -0.0031903868, 0.10441976, -487030.84, 40118.13, 0.0, 10.001199, 9.998242 
6.5009993e+1, 2.5620818e+2, -356473.25, -591631.3, 15278.062, -0.015506227, 0.07305924, -355484.78, 73682.01, 0.0, 10.001405, 9.998285 
6.5010786e+1, 2.6620606e+2, -239971.4, -493973.28, 8222.078, -0.009165492, 0.036089607, -239705.53, 91479.914, 0.0, 10.001572, 9.998202 
6.501155e+1, 2.762039e+2, -118637.54, -381274.3, 12251.022, 0.0086193355, -0.0058742594, -118067.31, 115137.37, 0.0, 10.001718, 9.998234 
6.501187e+1, 2.862022e+2, -16733.88, -301371.5, 1810.1183, -0.000115378134, 0.011135752, -16722.371, 118497.85, 0.0000000009839726, 10.00183, 9.9980545 
6.501192e+1, 2.9620078e+2, 93508.5, -198915.48, -3595.241, -0.0252894, 0.06115615, 93552.695, 130786.52, 0.0000021664155, 10.001921, 9.998041 
6.5012336e+1, 3.0619782e+2, 148631.75, -172148.36, -12140.073, 0.0023675938, -0.024406034, 149090.53, 149090.53, 0.000029021434, 10.002071, 9.99782 
6.501257e+1, 3.1619614e+2, 242489.98, -21401.082, -7008.102, 0.023034776, 0.02232932, 242675.97, 242675.97, 0.00011410821, 10.002262, 9.998763 
7.4988866e+1, 1.262152e+2, -1813081.4, -1708264.8, 4482.857, -0.026423262, 0.1434808, -1708073.4, -4968.449, 0.000012032456, 9.999094, 10.000483 
7.499055e+1, 1.3621578e+2, -1749849.9, -1676883.9, 8223.019, -0.025802942, 0.19803461, -1675968.6, -70868.63, 0.000001957589, 9.99907, 10.000036 
7.499244e+1, 1.4621495e+2, -1627214.3, -1559880.8, 9918.951, -0.011282358, 0.10930157, -1558450.0, -51340.9, 0.00000004027787, 9.999208, 10.000097 
7.4994063e+1, 1.5621556e+2, -1492907.3, -1442457.5, 13030.628, -0.027661797, 0.15752028, -1439290.6, -30186.143, 0.0, 9.99945, 10.000114 
7.4995977e+1, 1.6621599e+2, -1381514.6, -1360661.5, 23606.303, -0.029944137, 0.19972232, -1345281.6, -34179.94, 0.0, 9.9996395, 9.999912 
7.499813e+1, 1.762161e+2, -1260034.0, -1251510.6, 25686.063, -0.019832328, 0.21553178, -1229735.1, -16632.73, 0.0, 9.999802, 9.99991 
7.5000274e+1, 1.8621586e+2, -1164143.8, -1201121.0, 28969.773, -0.013517014, 0.22379984, -1148265.5, -33159.777, 0.0, 9.999988, 9.999494 
7.5002396e+1, 1.9621547e+2, -1035638.8, -1086792.8, 29926.781, -0.011055236, 0.23229218, -1021848.4, -4738.0117, 0.0, 10.00019, 9.999509 
7.5004286e+1, 2.0621473e+2, -921993.75, -1010113.2, 25857.682, -0.015777618, 0.21962823, -914966.5, 4149.9673, 0.0, 10.000422, 9.99925 
7.5006026e+1, 2.1621369e+2, -787202.7, -893718.06, 29961.818, -0.0244463, 0.18779074, -779353.2, 41770.938, 0.0, 10.000671, 9.999256 
7.5007606e+1, 2.2621237e+2, -684697.75, -830566.1, 17309.307, -0.019699985, 0.1496088, -682671.94, 40461.695, 0.0, 10.000861, 9.998925 
7.500907e+1, 2.3621091e+2, -565645.0, -724158.7, 18588.54, -0.0066119353, 0.1068797, -563494.3, 61649.996, 0.0, 10.001014, 9.99891 
7.5010264e+1, 2.4620932e+2, -475260.25, -684867.0, 18360.855, -0.011083762, 0.083802454, -473664.06, 53493.0, 0.0, 10.001199, 9.998418 
7.501129e+1, 2.5620762e+2, -344497.63, -566644.06, 22728.973, -0.026510611, 0.06940192, -342195.97, 86975.38, 0.0, 10.001404, 9.998457 
7.5012213e+1, 2.662056e+2, -229934.86, -472976.6, 13667.252, -0.02390363, 0.027337344, -229168.7, 102019.99, 0.0, 10.001572, 9.998347 
7.5013083e+1, 2.7620336e+2, -110975.18, -365189.66, 17508.936, -0.010098297, -0.03325238, -109774.92, 123433.15, 0.0, 10.001717, 9.998344 
7.501359e+1, 2.8620178e+2, -25675.82, -319842.88, 5121.565, -0.011931274, -0.003699045, -25586.678, 109636.6, 0.0000000010869243, 10.00183, 9.997928 
7.501385e+1, 2.962006e+2, 86668.81, -213111.14, 85.66031, -0.023424454, 0.078504756, 86668.836, 123905.08, 0.0000019142904, 10.001921, 9.997944 
7.5014514e+1, 3.0619764e+2, 155813.06, -157179.23, -4964.192, 0.012753924, -0.009557999, 155891.78, 155891.78, 0.000026528098, 10.002071, 9.997922 
7.5014937e+1, 3.161958e+2, 247690.52, -10569.908, 18.195183, 0.033606723, 0.011737184, 247690.52, 247690.52, 0.000106300286, 10.002262, 9.998837 
8.498803e+1, 1.2621385e+2, -1802382.6, -1707895.6, -6901.077, -0.024702504, 0.15482719, -1707394.3, -4275.4863, 0.000007783007, 9.999188, 10.00044 
8.498977e+1, 1.3621433e+2, -1722116.5, -1665252.6, 9116.462, -0.021159725, 0.20246063, -1663826.8, -58712.07, 0.0000008582932, 9.999269, 10.00002 
8.4991753e+1, 1.4621352e+2, -1600520.3, -1541491.6, 20183.377, -0.0085481135, 0.11227858, -1535250.3, -28126.781, 0.00000000288778, 9.999369, 10.000146 
8.4993464e+1, 1.5621418e+2, -1484882.5, -1433775.3, 23298.613, -0.034382943, 0.16092028, -1424748.4, -15630.437, 0.0, 9.999484, 10.000157 
8.499558e+1, 1.662146e+2, -1382640.9, -1360857.8, 31701.736, -0.032683164, 0.20067841, -1338228.9, -27113.688, 0.0, 9.999631, 9.999914 
8.499803e+1, 1.7621467e+2, -1260054.3, -1250561.4, 30866.305, -0.009645716, 0.2123273, -1224078.8, -10962.532, 0.0, 9.999798, 9.999919 
8.500033e+1, 1.8621445e+2, -1162114.3, -1194112.9, 33988.14, -0.005989764, 0.21851942, -1140548.0, -25428.58, 0.0, 9.999976, 9.999547 
8.500252e+1, 1.962141e+2, -1035405.1, -1079696.4, 35004.93, -0.016261758, 0.22615914, -1016128.9, 994.5568, 0.0, 10.000162, 9.99957 
8.500462e+1, 2.0621344e+2, -927372.0, -1000070.1, 28529.326, -0.019752495, 0.21358609, -917513.1, 1615.5045, 0.0, 10.00033, 9.999363 
8.5006666e+1, 2.1621253e+2, -806063.0, -890389.0, 28191.742, -0.018240359, 0.18258859, -797506.25, 23628.8, 0.0, 10.000488, 9.999368 
8.500845e+1, 2.2621132e+2, -699822.2, -827269.0, 15778.734, -0.014104075, 0.14469908, -697897.7, 25245.8, 0.0, 10.000712, 9.99902 
8.5010046e+1, 2.3620994e+2, -563982.2, -712140.5, 19456.287, -0.008474948, 0.101886116, -561469.8, 63683.465, 0.0, 10.000977, 9.99901 
8.5011405e+1, 2.4620843e+2, -476185.2, -669794.94, 16404.828, -0.0130299395, 0.07485829, -474805.03, 52360.008, 0.0, 10.001125, 9.998556 
8.501262e+1, 2.562068e+2, -365269.7, -562416.25, 18040.553, -0.023903374, 0.054124605, -363632.44, 65545.91, 0.0, 10.0012, 9.998585 
8.501369e+1, 2.6620492e+2, -260840.31, -482933.2, 4071.342, -0.021870619, 0.017547786, -260765.7, 70428.805, 0.0, 10.001338, 9.998391 
8.501469e+1, 2.762029e+2, -137265.5, -372824.66, 588.0951, -0.011796376, -0.03030281, -137264.03, 95948.54, 0.0, 10.001514, 9.998389 
8.5015345e+1, 2.8620133e+2, -36843.1, -319273.84, -6085.5054, -0.014253195, -0.0017048686, -36712.04, 98515.48, 0.0000000009777485, 10.001727, 9.997982 
8.5015786e+1, 2.9620007e+2, 96391.586, -203537.27, 2573.3855, -0.024583815, 0.07128049, 96413.664, 133654.47, 0.0000016479609, 10.001966, 9.997989 
8.501667e+1, 3.0619714e+2, 177889.25, -150120.2, -755.22675, 0.013295749, -0.016027717, 177890.98, 177890.98, 0.000023861305, 10.002238, 9.99789 
8.501731e+1, 3.1619534e+2, 282359.2, -144.87357, -6199.137, 0.031396408, 0.012994248, 282495.16, 282495.16, 0.00009776159, 10.002527, 9.998781 
9.4987136e+1, 1.2621224e+2, -1795360.8, -1693459.5, -4880.7485, -0.03269662, 0.15514232, -1693226.3, 9908.823, 0.0000050394015, 9.999188, 10.000538 
9.4988984e+1, 1.3621265e+2, -1714228.5, -1648992.0, 12092.25, -0.026255086, 0.1844212, -1646822.8, -41691.83, 0.00000033786506, 9.999269, 10.000132 
9.4991136e+1, 1.4621197e+2, -1596938.4, -1533975.1, 24418.092, -0.007326344, 0.099327646, -1525615.4, -18477.18, 0.0, 9.999368, 10.000198 
9.4992995e+1, 1.5621285e+2, -1482188.4, -1428040.9, 27862.2, -0.029078495, 0.16571242, -1416265.0, -7134.564, 0.0, 9.999484, 10.000196 
9.4995254e+1, 1.6621326e+2, -1385435.6, -1366516.9, 37969.105, -0.028497944, 0.20424657, -1336846.5, -25718.66, 0.0, 9.99963, 9.999876 
9.4997835e+1, 1.7621315e+2, -1262034.9, -1254654.0, 37210.74, -0.009203962, 0.20241167, -1220951.1, -7820.4043, 0.0, 9.999797, 9.99989 
9.5000285e+1, 1.8621297e+2, -1158315.9, -1186209.0, 40997.637, -0.008436721, 0.20998265, -1128957.6, -13823.973, 0.0, 9.999976, 9.999601 
9.5002633e+1, 1.9621278e+2, -1031560.2, -1071665.8, 41943.98, -0.021219008, 0.22848131, -1005122.0, 12014.025, 0.0, 10.000162, 9.999625 
9.5004934e+1, 2.0621215e+2, -923661.56, -992340.5, 34476.79, -0.020880967, 0.21382613, -909340.5, 9800.481, 0.0, 10.00033, 9.999416 
9.500722e+1, 2.1621118e+2, -801617.0, -881167.6, 34654.355, -0.011474401, 0.17278665, -788638.1, 32509.832, 0.0, 10.000488, 9.999431 
9.5009214e+1, 2.2621016e+2, -690608.1, -808117.44, 25811.34, -0.008357643, 0.14178444, -685188.56, 37966.17, 0.0, 10.000712, 9.999151 
9.501102e+1, 2.3620908e+2, -555039.2, -693493.9, 28610.533, -0.009401044, 0.11620431, -549360.0, 75801.336, 0.0, 10.000977, 9.999138 
9.5012575e+1, 2.4620757e+2, -468986.38, -654790.06, 19187.504, -0.009141594, 0.07748941, -467025.6, 60147.277, 0.0, 10.001124, 9.99866 
9.5013976e+1, 2.5620577e+2, -359416.28, -550237.7, 21297.195, -0.0079550585, 0.027345706, -357068.25, 72119.555, 0.0, 10.0012, 9.998669 
9.5015216e+1, 2.6620403e+2, -264666.9, -490870.53, 10673.403, -0.0033534414, 0.006776231, -264164.4, 67038.49, 0.0, 10.001338, 9.998337 
9.501635e+1, 2.7620238e+2, -138575.77, -375564.2, 7425.154, 0.0031818382, 0.0027928592, -138343.36, 94874.86, 0.0, 10.001514, 9.99837 
9.5017135e+1, 2.862008e+2, -20392.74, -285151.38, 2818.7183, -0.007391133, 0.016966924, -20362.734, 114870.19, 0.00000000065795036, 10.001728, 9.998216 
9.501771e+1, 2.961993e+2, 109390.45, -176499.77, 11648.017, -0.028712135, 0.039421342, 109864.24, 147111.78, 0.000001379458, 10.001966, 9.998175 
9.501882e+1, 3.0619636e+2, 166289.69, -174093.9, 10118.128, 0.004035454, -0.043858092, 166590.2, 166590.2, 0.000021105876, 10.002237, 9.997726 
9.5019686e+1, 3.1619483e+2, 269346.34, -27061.613, 4134.165, 0.015602139, 0.025905171, 269404.0, 269404.0, 0.000088718174, 10.002526, 9.998597 
1.0498643e+2, 1.2621075e+2, -1770671.1, -1680797.9, 13033.488, -0.030501349, 0.14486259, -1678946.0, 24203.13, 0.0000035788082, 9.999355, 10.000545 
1.049882e+2, 1.3621114e+2, -1709945.1, -1644677.0, 24279.715, -0.03189802, 0.16872041, -1636635.8, -31490.605, 0.000000177014, 9.999289, 10.000152 
1.0499049e+2, 1.4621049e+2, -1597677.9, -1537739.3, 34947.83, -0.008904392, 0.0895165, -1521670.5, -14518.499, 0.0, 9.999378, 10.000168 
1.0499259e+2, 1.5621145e+2, -1471925.0, -1426819.8, 32064.178, -0.022295078, 0.16585395, -1410171.3, -1027.4115, 0.0, 9.99957, 10.000163 
1.04995e+2, 1.6621181e+2, -1371886.5, -1364686.4, 39898.324, -0.023388572, 0.20308276, -1328226.0, -17084.223, 0.0, 9.999743, 9.999834 
1.0499766e+2, 1.7621158e+2, -1249052.4, -1251851.0, 38929.92, -0.011890633, 0.19325297, -1211496.6, 1649.0265, 0.0, 9.999902, 9.999859 
1.0500026e+2, 1.8621142e+2, -1144289.8, -1174690.9, 42194.414, -0.011977389, 0.20283173, -1114641.4, 506.9648, 0.0, 10.0000515, 9.999644 
1.05002806e+2, 1.9621137e+2, -1023228.44, -1063031.5, 42062.88, -0.021189494, 0.22934525, -996596.56, 20553.086, 0.0, 10.000199, 9.999667 
1.0500527e+2, 2.0621079e+2, -917064.9, -985464.44, 33134.875, -0.021872561, 0.21676493, -903645.9, 15508.224, 0.0, 10.00036, 9.99945 
1.05007686e+2, 2.1620986e+2, -793167.4, -872570.8, 32016.506, -0.016395055, 0.17426755, -781866.3, 39294.76, 0.0, 10.000527, 9.999471 
1.050099e+2, 2.2620888e+2, -685729.3, -796278.1, 22517.162, -0.01125214, 0.14250757, -681318.8, 41848.336, 0.0, 10.000705, 9.999236 
1.0501198e+2, 2.3620789e+2, -562447.8, -688373.44, 21249.58, -0.0065415944, 0.116495706, -558958.7, 66214.23, 0.0, 10.000888, 9.999216 
1.0501373e+2, 2.4620642e+2, -477903.16, -655991.06, 3301.9404, -0.0025358694, 0.07771451, -477841.97, 49342.098, 0.0, 10.00105, 9.998688 
1.0501526e+2, 2.5620466e+2, -357077.5, -545243.94, 263.6094, 0.0010753286, 0.027885538, -357077.13, 72121.77, 0.0, 10.001199, 9.998703 
1.0501668e+2, 2.6620302e+2, -249090.8, -473771.28, -2769.922, 0.0064040646, 0.007584936, -249056.66, 82156.68, 0.0, 10.001403, 9.998424 
1.0501802e+2, 2.7620143e+2, -114946.39, -355972.16, 4486.361, 0.0125427125, 0.003906388, -114862.91, 118364.74, 0.0, 10.001641, 9.998445 
1.0501902e+2, 2.8619987e+2, 3391.5056, -275251.16, -5883.306, -0.0004682823, 0.017865853, 3515.6714, 138757.86, 0.00000000025503108, 10.001898, 9.998202 
1.0501981e+2, 2.9619834e+2, 137527.11, -163993.52, -15354.181, -0.025503308, 0.03965769, 138306.97, 175564.13, 0.000001118805, 10.002164, 9.998165 
1.0502112e+2, 3.0619538e+2, 194815.6, -157021.36, -14363.145, 0.00088427117, -0.04675812, 195400.97, 195400.97, 0.000018367069, 10.0024185, 9.997756 
1.0502212e+2, 3.1619382e+2, 289435.3, -17902.006, -6273.5938, -0.00020852355, 0.018227337, 289563.3, 289563.3, 0.00007944771, 10.002666, 9.998592 
1.149859e+2, 1.2620941e+2, -1776655.6, -1693493.8, 9743.543, -0.018843079, 0.12352827, -1692367.5, 10793.364, 0.000003050449, 9.999356, 10.000457 
1.14987426e+2, 1.3620979e+2, -1715265.0, -1655280.0, 22794.13, -0.038808603, 0.15500477, -1647601.4, -42444.184, 0.00000018630364, 9.999287, 10.00008 
1.1498982e+2, 1.4620914e+2, -1606219.9, -1555057.0, 42258.867, -0.014057773, 0.08259513, -1531239.9, -24075.143, 0.0000000000835116, 9.999376, 10.00005 
1.1499224e+2, 1.5620999e+2, -1479604.9, -1442910.6, 39238.414, -0.014621347, 0.16136628, -1417941.9, -8783.859, 0.0, 9.999571, 10.000052 
1.1499479e+2, 1.6621026e+2, -1374916.3, -1371011.3, 45790.92, -0.017776825, 0.19718271, -1327131.1, -15974.382, 0.0, 9.999743, 9.99979 
1.149975e+2, 1.7620996e+2, -1251610.9, -1256880.5, 44840.33, -0.018100943, 0.18467726, -1209328.0, 3833.0945, 0.0, 9.999901, 9.9998255 
1.1500026e+2, 1.8620984e+2, -1142459.8, -1170696.4, 47747.35, -0.016854074, 0.19695807, -1106787.1, 8376.414, 0.0, 10.000051, 9.999672 
1.1500306e+2, 1.9620985e+2, -1021397.7, -1059253.0, 47757.27, -0.01626888, 0.22874112, -988954.06, 28210.305, 0.0, 10.000199, 9.999693 
1.1500562e+2, 2.0620936e+2, -916187.1, -983625.3, 39465.027, -0.022836743, 0.22240895, -897998.0, 21170.188, 0.0, 10.00036, 9.999462 
1.1500804e+2, 2.162085e+2, -792021.8, -870186.8, 38442.223, -0.033063468, 0.18692237, -776284.2, 44890.08, 0.0, 10.000527, 9.999487 
1.15010485e+2, 2.2620748e+2, -683039.44, -790686.9, 29418.256, -0.02286475, 0.14678665, -675524.5, 47656.4, 0.0, 10.000705, 9.999275 
1.1501292e+2, 2.3620634e+2, -560552.1, -684330.1, 28003.795, -0.00011894013, 0.10293079, -554511.3, 70676.64, 0.0, 10.000887, 9.999244 
1.1501486e+2, 2.4620499e+2, -481229.56, -662828.5, 8890.534, 0.0065604523, 0.07565814, -480795.34, 46403.184, 0.0, 10.00105, 9.998641 
1.1501649e+2, 2.5620347e+2, -358023.2, -547193.44, 6275.8335, 0.0031306194, 0.055551335, -357815.22, 71396.39, 0.0, 10.001199, 9.99869 
1.150181e+2, 2.662018e+2, -233168.81, -440728.06, 6151.4043, 0.0073973574, 0.019854125, -232986.67, 98239.17, 0.0, 10.001403, 9.998651 
1.150197e+2, 2.762e+2, -103258.32, -331695.56, 13532.602, 0.016271368, -0.026817746, -102459.445, 130781.44, 0.0, 10.001641, 9.998611 
1.1502098e+2, 2.8619853e+2, -14742.598, -312860.53, 4099.057, 0.0063994722, 0.0010607976, -14686.247, 120569.03, 0.000000000026412617, 10.001897, 9.997945 
1.1502207e+2, 2.961972e+2, 123435.85, -193138.11, -5470.584, -0.015307092, 0.0718156, 123530.36, 160799.98, 0.0000008745259, 10.002163, 9.997966 
1.1502356e+2, 3.061942e+2, 210368.94, -124506.75, -4986.367, 0.0034849986, -0.024920352, 210443.16, 210443.16, 0.000015743772, 10.0024185, 9.99798 
1.1502462e+2, 3.1619236e+2, 301509.75, 7383.527, 2780.768, -0.01643163, -0.0103943385, 301536.03, 301536.03, 0.000070235736, 10.0026655, 9.998767 
1.249853e+2, 1.262081e+2, -1773295.8, -1705559.1, 1229.6945, -0.01900176, 0.116977215, -1705536.8, -2363.9324, 0.0000030832873, 9.999438, 10.000335 
1.2498684e+2, 1.3620846e+2, -1685427.0, -1652000.0, 13006.787, -0.038846202, 0.1565578, -1647535.3, -42365.242, 0.0000002714346, 9.999539, 9.999981 
1.2498934e+2, 1.4620775e+2, -1569921.9, -1549014.1, 37530.52, -0.013674037, 0.08940201, -1520508.8, -13330.337, 0.0000000011616538, 9.999674, 9.999948 
1.2499193e+2, 1.5620852e+2, -1449630.1, -1438793.1, 35558.055, -0.015237683, 0.16777655, -1408243.1, 929.6056, 0.0, 9.999821, 9.99996 
1.24994636e+2, 1.6620867e+2, -1349025.6, -1360725.1, 42084.754, -0.017138971, 0.19796278, -1312386.0, -1213.6509, 0.0, 9.99993, 9.99977 
1.2499749e+2, 1.7620827e+2, -1235834.8, -1251992.9, 42788.59, -0.014809733, 0.17722937, -1200369.3, 12808.031, 0.0, 10.00002, 9.999801 
1.2500039e+2, 1.862081e+2, -1134272.8, -1172646.3, 43040.566, -0.014100494, 0.19042389, -1106336.0, 8844.04, 0.0, 10.000133, 9.9996195 
1.250033e+2, 1.9620815e+2, -1015695.06, -1060660.4, 37092.285, -0.015992474, 0.22859913, -994803.7, 22377.504, 0.0, 10.000257, 9.999656 
1.2500599e+2, 2.062077e+2, -906437.5, -970682.3, 29953.676, -0.02308968, 0.22415474, -894638.7, 24545.83, 0.0, 10.000391, 9.999536 
1.2500857e+2, 2.162069e+2, -786800.75, -861162.2, 33532.965, -0.032690924, 0.18758902, -773912.9, 47276.87, 0.0, 10.000535, 9.999545 
1.2501119e+2, 2.2620586e+2, -687125.5, -798664.5, 22897.041, -0.022805318, 0.14628032, -682608.1, 40588.57, 0.0, 10.000702, 9.999221 
1.250138e+2, 2.3620465e+2, -564021.5, -690716.0, 14656.303, -0.0009781856, 0.10120849, -562348.1, 62856.715, 0.0, 10.000884, 9.999202 
1.2501594e+2, 2.4620332e+2, -473021.7, -654326.75, -3041.6663, 0.0081094755, 0.07692292, -472970.66, 54244.625, 0.0, 10.001086, 9.998682 
1.2501779e+2, 2.562019e+2, -340157.06, -533726.3, 910.0849, 0.00910857, 0.062600926, -340152.78, 89074.68, 0.0, 10.001301, 9.9987335 
1.2501957e+2, 2.6620027e+2, -214167.97, -424234.97, -2963.7026, 0.009087439, 0.02705415, -214126.17, 117114.86, 0.0, 10.001502, 9.998716 
1.2502128e+2, 2.761985e+2, -92090.74, -320478.28, -7318.8906, 0.008185123, -0.023181902, -91856.44, 141399.19, 0.0, 10.001692, 9.998664 
1.2502284e+2, 2.8619707e+2, -17881.592, -318800.4, -10478.177, 0.002574471, 0.0058627585, -17517.176, 117752.836, 0.0, 10.001894, 9.997905 
1.250243e+2, 2.9619575e+2, 112805.75, -201445.58, -3497.3613, -0.00608578, 0.08087058, 112844.664, 150129.25, 0.0000006546641, 10.002104, 9.997937 
1.2502603e+2, 3.0619276e+2, 216063.75, -116555.06, -1585.9253, 0.009296625, -0.017263677, 216071.31, 216071.31, 0.0000132978475, 10.002435, 9.998027 
1.2502725e+2, 3.161909e+2, 327421.56, 20238.527, -7470.783, -0.028462349, -0.00813525, 327603.16, 327603.16, 0.000061306615, 10.002842, 9.998771 
1.3498461e+2, 1.2620682e+2, -1784655.6, -1728832.1, 4641.135, -0.031248638, 0.12530959, -1728448.9, -25263.816, 0.0000033913916, 9.999436, 10.000175 
1.3498643e+2, 1.3620713e+2, -1694090.6, -1670544.5, 17265.533, -0.033289578, 0.17368655, -1661420.1, -56236.176, 0.00000039333747, 9.999541, 9.999852 
1.3498907e+2, 1.4620636e+2, -1575543.0, -1560983.5, 42979.758, -0.008819192, 0.110065416, -1524671.4, -17478.25, 0.0000000035362315, 9.999676, 9.999865 
1.3499166e+2, 1.56207e+2, -1454952.1, -1449414.8, 40755.71, -0.024328854, 0.18497321, -1411333.8, -2145.7278, 0.0, 9.99982, 9.999888 
1.3499452e+2, 1.6620703e+2, -1349085.6, -1360531.8, 45481.25, -0.0215957, 0.20533182, -1308968.8, 2219.676, 0.0, 9.999929, 9.999773 
1.3499764e+2, 1.762065e+2, -1236884.5, -1254225.6, 46441.363, -0.0024983338, 0.1708892, -1198311.3, 14882.852, 0.0, 10.00002, 9.999785 
1.3500062e+2, 1.8620624e+2, -1143517.0, -1191902.4, 47743.137, -0.0040832483, 0.18321475, -1114186.9, 1011.1549, 0.0, 10.000133, 9.999487 
1.3500349e+2, 1.9620623e+2, -1022733.75, -1075299.4, 41869.605, -0.020521285, 0.22891623, -999581.25, 17618.898, 0.0, 10.000257, 9.999555 
1.350064e+2, 2.0620579e+2, -897023.0, -951197.9, 35328.117, -0.022817701, 0.2219862, -879592.94, 39610.33, 0.0, 10.000391, 9.999669 
1.3500927e+2, 2.1620502e+2, -779782.56, -846605.4, 39140.58, -0.015497174, 0.17636046, -761732.25, 59475.137, 0.0, 10.000535, 9.999645 
1.3501202e+2, 2.26204e+2, -697368.0, -819877.0, 29732.486, -0.011285146, 0.14101578, -690533.4, 32681.15, 0.0, 10.000702, 9.999076 
1.3501461e+2, 2.362028e+2, -571930.3, -707101.3, 21679.758, -0.009222012, 0.11124801, -568538.25, 56685.293, 0.0, 10.000884, 9.999089 
1.3501696e+2, 2.4620144e+2, -464060.16, -635729.0, 5002.5522, 0.0020429203, 0.08153142, -463914.5, 63319.844, 0.0, 10.001086, 9.998809 
1.350192e+2, 2.562e+2, -333080.16, -519058.53, 8881.507, 0.018845394, 0.04919784, -332657.0, 96589.414, 0.0, 10.001301, 9.998835 
1.3502109e+2, 2.661985e+2, -220692.05, -437828.94, 4212.7466, 0.011263906, 0.029124988, -220610.34, 110648.56, 0.0, 10.001502, 9.998623 
1.3502276e+2, 2.76197e+2, -96311.9, -329243.8, -26.818027, -0.011786163, 0.014594112, -96311.89, 136959.98, 0.0, 10.001692, 9.998604 
1.3502458e+2, 2.861955e+2, -5389.178, -292894.28, -2690.4958, -0.012042172, 0.032154992, -5364.0024, 129922.37, 0.0, 10.001895, 9.998083 
1.3502647e+2, 2.9619396e+2, 122766.55, -180850.78, 5128.9614, 0.0020093478, 0.066899575, 122853.164, 160155.22, 0.0000004660869, 10.002104, 9.998078 
1.3502857e+2, 3.06191e+2, 207112.73, -135106.14, 13771.629, 0.01805415, -0.023837004, 207666.05, 207666.05, 0.000011042731, 10.002435, 9.997899 
1.3503002e+2, 3.161894e+2, 315746.38, -3633.999, 7373.3164, -0.037063673, 0.024390195, 315916.5, 315916.5, 0.000052781335, 10.002841, 9.998608 
1.44984e+2, 1.2620503e+2, -1822283.9, -1751763.6, -11493.633, -0.023387622, 0.11660983, -1749937.6, -46735.64, 0.000003766588, 9.999199, 10.000133 
1.4498603e+2, 1.362055e+2, -1687121.9, -1669196.5, 9928.784, -0.030404877, 0.18002702, -1664783.5, -59583.332, 0.00000052701, 9.9995985, 9.999834 
1.4498883e+2, 1.4620468e+2, -1551829.1, -1551792.0, 38402.2, -0.009386363, 0.11552434, -1513408.4, -6198.887, 0.000000006774009, 9.999848, 9.999845 
1.4499153e+2, 1.5620513e+2, -1430765.8, -1440979.6, 40457.195, -0.027888443, 0.17516239, -1395094.5, 14111.1, 0.0, 9.999999, 9.99986 
1.449945e+2, 1.6620512e+2, -1328984.1, -1360228.0, 40877.4, -0.02559277, 0.19608632, -1300845.3, 10361.189, 0.0, 10.000108, 9.999689 
1.4499772e+2, 1.762046e+2, -1218948.3, -1254658.0, 35547.24, -0.0051261317, 0.17257525, -1197023.8, 16188.527, 0.0, 10.000182, 9.999705 
1.4500083e+2, 1.8620427e+2, -1125393.6, -1189048.6, 39299.613, -0.004176505, 0.18282358, -1106649.9, 8567.123, 0.0, 10.000282, 9.999434 
1.4500386e+2, 1.962041e+2, -1005362.94, -1072447.5, 39423.2, -0.017576844, 0.21832044, -987143.5, 30077.002, 0.0, 10.000399, 9.999506 
1.450069e+2, 2.0620362e+2, -877933.25, -944418.44, 28831.082, -0.01897526, 0.21286972, -867172.4, 52051.51, 0.0, 10.000532, 9.999648 
1.4500992e+2, 2.1620294e+2, -760594.8, -839763.6, 21205.629, -0.0119786095, 0.17606933, -755272.6, 65955.03, 0.0, 10.000677, 9.999623 
1.4501277e+2, 2.2620195e+2, -681210.44, -814622.44, 13701.105, -0.01022808, 0.1459035, -679817.9, 43416.83, 0.0, 10.000824, 9.999053 
1.4501551e+2, 2.3620078e+2, -559816.1, -702906.9, 15106.29, -0.011983578, 0.1189813, -558238.75, 67005.28, 0.0, 10.000974, 9.999075 
1.4501806e+2, 2.4619941e+2, -446107.38, -621785.75, 547.6157, -0.0035655913, 0.08695394, -446105.66, 81149.1, 0.0, 10.001187, 9.998857 
1.450205e+2, 2.561979e+2, -310821.78, -504616.0, -1815.0461, 0.011010012, 0.0490742, -310804.78, 118461.88, 0.0, 10.001438, 9.998867 
1.4502262e+2, 2.6619646e+2, -207001.81, -438758.63, -9737.791, 0.0069456203, 0.035018492, -206593.38, 124685.805, 0.0, 10.001629, 9.998555 
1.4502454e+2, 2.7619508e+2, -87315.06, -330409.16, -11732.101, -0.008913167, 0.033690114, -86750.164, 146542.1, 0.0, 10.001779, 9.998554 
1.4502661e+2, 2.8619355e+2, 20712.738, -272189.6, -15071.741, -0.007037086, 0.04763538, 21486.234, 156792.95, 0.0, 10.002039, 9.998156 
1.4502877e+2, 2.9619193e+2, 165354.97, -154254.72, -14769.878, 0.0059127854, 0.068439625, 166036.08, 203358.33, 0.00000031171322, 10.002371, 9.998133 
1.4503114e+2, 3.06189e+2, 233090.11, -130908.61, -5063.4727, 0.021124588, -0.020625679, 233160.55, 233160.55, 0.000008961074, 10.002649, 9.997825 
1.4503287e+2, 3.161874e+2, 314526.13, -16980.781, -8046.0967, -0.037942447, 0.03840523, 314721.3, 314721.3, 0.000044704477, 10.002888, 9.998493 
1.5498348e+2, 1.2620273e+2, -1816750.0, -1740439.5, 3313.4583, 0.0032144205, 0.09095501, -1740295.9, -37072.16, 0.000004107076, 9.9992, 10.00021 
1.5498564e+2, 1.3620351e+2, -1680680.1, -1655421.5, 23938.764, -0.029944323, 0.17544143, -1640984.9, -35766.1, 0.00000065226897, 9.999597, 9.999929 
1.5498862e+2, 1.4620271e+2, -1549160.9, -1545902.8, 44258.074, -0.015325617, 0.105689146, -1503243.8, 3983.8774, 0.000000011338887, 9.999846, 9.999886 
1.5499155e+2, 1.5620294e+2, -1429695.6, -1438845.6, 46022.965, -0.026874878, 0.13833913, -1388020.8, 21204.621, 0.0, 9.999999, 9.999874 
1.5499456e+2, 1.6620295e+2, -1340818.5, -1384836.0, 43705.875, -0.029908417, 0.17025006, -1313892.8, -2666.1565, 0.0, 10.000108, 9.99952 
1.549977e+2, 1.7620263e+2, -1229250.4, -1275933.4, 38563.47, -0.022736564, 0.1823361, -1207514.5, 5717.022, 0.0, 10.000182, 9.999559 
1.5500098e+2, 1.8620221e+2, -1123529.9, -1185114.4, 43710.133, -0.0144411875, 0.18927406, -1100854.9, 14382.122, 0.0, 10.000281, 9.999462 
1.5500437e+2, 1.9620177e+2, -1005166.0, -1072075.8, 43998.848, -0.0073863994, 0.196796, -983347.7, 33894.6, 0.0, 10.000399, 9.999509 
1.550075e+2, 2.0620127e+2, -890297.0, -970139.06, 34241.598, -0.0116836, 0.19679236, -877623.56, 41622.895, 0.0, 10.000533, 9.999471 
1.5501049e+2, 2.1620066e+2, -770616.94, -860572.2, 26695.3, -0.02223931, 0.18669766, -763291.3, 57959.07, 0.0, 10.000677, 9.999481 
1.550135e+2, 2.2619972e+2, -674230.1, -800134.5, 19288.11, -0.019767147, 0.16095415, -671341.56, 51915.754, 0.0, 10.000824, 9.999152 
1.5501651e+2, 2.3619853e+2, -553982.75, -690785.5, 21213.193, -0.009430035, 0.12445677, -550768.8, 74497.305, 0.0, 10.000974, 9.999158 
1.5501918e+2, 2.4619721e+2, -448428.66, -626574.4, 10012.42, -0.008851416, 0.093133494, -447867.7, 79408.86, 0.0, 10.001187, 9.998824 
1.5502167e+2, 2.5619575e+2, -313281.4, -509613.53, 7262.8755, -0.01440688, 0.062160123, -313013.1, 116275.17, 0.0, 10.001437, 9.998834 
1.5502413e+2, 2.6619425e+2, -209995.81, -444934.28, -4164.35, -0.003971758, 0.044819295, -209922.03, 121379.81, 0.0, 10.001629, 9.998512 
1.5502657e+2, 2.761927e+2, -90032.73, -336169.3, -5344.836, 0.016356459, 0.034289185, -89916.72, 143400.03, 0.0, 10.001779, 9.998514 
1.5502888e+2, 2.8619117e+2, 18629.818, -276702.47, -2565.7034, 0.0172555, 0.052350715, 18652.107, 153983.14, 0.0, 10.00204, 9.998124 
1.5503113e+2, 2.9618964e+2, 163252.2, -158701.55, -2533.9133, 0.005618612, 0.0853533, 163272.14, 200617.33, 0.000000191647, 10.002371, 9.998102 
1.5503375e+2, 3.0618665e+2, 231371.98, -134413.23, 3986.7527, 0.018334066, -0.0075387317, 231415.42, 231415.42, 0.000007033754, 10.002649, 9.997801 
1.5503581e+2, 3.1618488e+2, 309603.7, -26960.326, 944.1896, -0.03211285, 0.03423675, 309606.34, 309606.34, 0.00003709365, 10.002886, 9.998425 
1.6498277e+2, 1.2620023e+2, -1792527.1, -1724643.6, -8386.173, 0.0049616657, 0.07540945, -1723622.9, -20375.28, 0.000004370903, 9.999349, 10.000247 
1.6498527e+2, 1.3620116e+2, -1673526.3, -1645834.5, 8704.145, -0.026946628, 0.1688818, -1643325.9, -38084.69, 0.00000075351153, 9.999619, 9.999985 
1.6498847e+2, 1.4620039e+2, -1548833.1, -1546029.6, 20400.393, -0.012761985, 0.10054872, -1526982.9, -19733.32, 0.000000017178404, 9.999849, 9.999884 
1.6499159e+2, 1.5620053e+2, -1424344.6, -1437304.3, 18698.867, -0.024112187, 0.124122374, -1411034.6, -1786.4452, 0.0, 10.00004, 9.999866 
1.6499472e+2, 1.6620053e+2, -1327683.5, -1384362.6, 19102.012, -0.031132344, 0.15835851, -1321846.8, -10597.116, 0.0, 10.000222, 9.999468 
1.6499792e+2, 1.7620026e+2, -1200485.8, -1267057.0, 22558.535, -0.03097534, 0.1806509, -1193561.6, 19692.81, 0.0, 10.000401, 9.999515 
1.6500133e+2, 1.8619983e+2, -1088169.3, -1166861.6, 29462.307, -0.02157943, 0.18880084, -1078361.1, 36898.78, 0.0, 10.000519, 9.999474 
1.6500485e+2, 1.9619936e+2, -976540.75, -1058763.4, 28673.168, -0.007986626, 0.19160852, -967529.3, 49735.87, 0.0, 10.000597, 9.999505 
1.6500811e+2, 2.061988e+2, -876318.25, -976123.56, 22060.39, -0.010237482, 0.19249435, -871659.6, 47610.57, 0.0, 10.000684, 9.999357 
1.6501123e+2, 2.1619813e+2, -762998.44, -867756.3, 19375.643, -0.021745637, 0.1868738, -759529.6, 61745.688, 0.0, 10.000775, 9.999384 
1.6501437e+2, 2.2619717e+2, -658174.5, -789466.75, 11988.723, -0.020621074, 0.16260588, -657088.75, 66193.71, 0.0, 10.000921, 9.999178 
1.6501752e+2, 2.3619601e+2, -534050.6, -678842.4, 8561.288, -0.011939617, 0.12566385, -533546.1, 91744.81, 0.0, 10.001101, 9.999179 
1.6502036e+2, 2.4619468e+2, -442542.1, -625866.06, -3634.56, -0.012657548, 0.094977036, -442470.06, 84831.3, 0.0, 10.001237, 9.998804 
1.6502301e+2, 2.5619322e+2, -328073.53, -518878.5, -4978.668, -0.01912802, 0.06523953, -327943.72, 101369.56, 0.0, 10.001346, 9.998814 
1.6502574e+2, 2.661917e+2, -215382.64, -450761.9, -12956.798, -0.0043250583, 0.04929393, -214671.56, 116655.59, 0.0, 10.001606, 9.998484 
1.650285e+2, 2.7619013e+2, -65867.375, -328019.9, -12914.105, 0.023632817, 0.04039204, -65232.742, 168109.69, 0.0, 10.00196, 9.998483 
1.6503108e+2, 2.8618857e+2, 50045.434, -266839.1, -8640.048, 0.021101682, 0.058233004, 50280.836, 185637.92, 0.0, 10.002278, 9.998076 
1.6503352e+2, 2.9618698e+2, 189284.66, -150634.27, -10485.888, -0.0008573809, 0.0898008, 189607.81, 226979.38, 0.000000103903474, 10.002569, 9.998061 
1.6503642e+2, 3.0618396e+2, 246607.13, -127259.086, -7859.7554, 0.014465937, -0.0018279457, 246772.28, 246772.28, 0.0000052712203, 10.002754, 9.997799 
1.6503872e+2, 3.161822e+2, 303592.97, -35561.76, -8924.5625, -0.027957086, 0.038656585, 303827.66, 303827.66, 0.00002996744, 10.002869, 9.998374 
1.7498189e+2, 1.261975e+2, -1792927.4, -1725518.3, 1611.6028, -0.018464794, 0.070334576, -1725479.8, -22205.95, 0.000004515703, 9.999349, 10.000241 
1.7498495e+2, 1.3619842e+2, -1672644.0, -1644061.8, 18846.17, -0.02246157, 0.16067813, -1634701.0, -29433.729, 0.0000008179498, 9.999619, 9.999997 
1.7498843e+2, 1.461977e+2, -1551979.3, -1552509.9, 27639.09, -0.002517211, 0.10041835, -1524604.3, -17328.89, 0.000000022541565, 9.999849, 9.999839 
1.7499167e+2, 1.561979e+2, -1426681.9, -1441999.4, 25794.002, -0.01946749, 0.13275851, -1407433.6, 1840.4426, 0.0, 10.000039, 9.999833 
1.7499496e+2, 1.6619785e+2, -1323123.8, -1374800.5, 25864.428, -0.029164735, 0.16056167, -1312402.8, -1126.8783, 0.0, 10.000222, 9.999535 
1.7499833e+2, 1.761975e+2, -1196458.3, -1258727.9, 28941.465, -0.030260911, 0.1675511, -1185084.4, 28196.635, 0.0, 10.000401, 9.999573 
1.750018e+2, 1.8619715e+2, -1088514.0, -1167582.8, 32381.973, -0.025968127, 0.1813932, -1076944.9, 38340.656, 0.0, 10.000519, 9.999469 
1.7500533e+2, 1.9619685e+2, -977305.4, -1060336.1, 31676.035, -0.019474898, 0.2028022, -966601.06, 50688.227, 0.0, 10.000597, 9.999494 
1.7500876e+2, 2.0619623e+2, -879873.44, -983465.6, 25479.379, -0.014753575, 0.19996661, -873945.75, 45349.27, 0.0, 10.000683, 9.999308 
1.7501211e+2, 2.1619533e+2, -766569.4, -875152.1, 23238.99, -0.010699523, 0.17667736, -761804.8, 59497.594, 0.0, 10.000775, 9.999333 
1.7501536e+2, 2.261943e+2, -661455.8, -796305.94, 18759.086, -0.012990906, 0.15090272, -658894.9, 64415.363, 0.0, 10.000921, 9.999131 
1.7501853e+2, 2.361932e+2, -536951.0, -684886.0, 15035.247, -0.01959502, 0.12263247, -535438.4, 89880.09, 0.0, 10.001101, 9.999137 
1.7502157e+2, 2.4619183e+2, -442941.44, -626766.5, 372.35358, -0.015153758, 0.09255401, -442940.7, 84388.48, 0.0, 10.001237, 9.998798 
1.7502452e+2, 2.5619033e+2, -328406.22, -519722.72, 210.13712, -0.0035541868, 0.058393862, -328406.0, 100935.73, 0.0, 10.001346, 9.998808 
1.7502744e+2, 2.6618883e+2, -216391.7, -453062.63, 405.26144, 0.005701783, 0.048445284, -216391.0, 114964.164, 0.0, 10.001606, 9.998467 
1.7503037e+2, 2.761874e+2, -67380.38, -331301.84, 301.7688, 0.012999232, 0.051929306, -67380.04, 165989.31, 0.0, 10.001961, 9.99846 
1.7503318e+2, 2.8618574e+2, 45457.824, -276405.06, 2402.9104, 0.0044463817, 0.06537545, 45475.76, 180860.61, 0.0, 10.002279, 9.998011 
1.7503597e+2, 2.9618397e+2, 185576.6, -158263.72, -154.24474, -0.013815891, 0.082103096, 185576.67, 222978.05, 0.00000004563321, 10.002569, 9.99801 
1.7503913e+2, 3.06181e+2, 248168.92, -123985.945, -3529.8823, 0.009254896, -0.0033511054, 248202.39, 248202.39, 0.0000037135492, 10.002754, 9.997822 
1.7504162e+2, 3.1617936e+2, 301470.2, -40067.066, -3975.8962, -0.026016045, 0.051203392, 301516.47, 301516.47, 0.000023373406, 10.00287, 9.9983425 
1.849811e+2, 1.2619455e+2, -1792275.4, -1726474.6, -3433.2354, -0.03243477, 0.06487439, -1726296.0, -22993.838, 0.000004500078, 9.999358, 10.000229 
1.8498462e+2, 1.3619535e+2, -1656347.4, -1635793.3, 12800.879, -0.020950984, 0.14335093, -1629654.5, -24358.197, 0.0000008390777, 9.999729, 10.000001 
1.849884e+2, 1.4619471e+2, -1538371.3, -1552760.1, 15523.267, 0.0017657357, 0.093037084, -1528456.3, -21152.293, 0.000000025661054, 9.999971, 9.999779 
1.8499178e+2, 1.5619503e+2, -1417683.0, -1442670.4, 12120.019, -0.017383294, 0.1422978, -1412770.1, -3467.6606, 0.0, 10.000122, 9.999788 
1.8499522e+2, 1.6619493e+2, -1316645.3, -1363607.3, 10694.277, -0.02556526, 0.16480307, -1314324.6, -3020.1863, 0.0, 10.000231, 9.999607 
1.8499875e+2, 1.7619446e+2, -1205418.1, -1256399.0, 14146.825, -0.023075696, 0.1530997, -1201755.5, 11554.486, 0.0, 10.00031, 9.999632 
1.8500231e+2, 1.8619414e+2, -1103756.3, -1178741.1, 15919.363, -0.022415591, 0.16923861, -1100516.5, 14797.75, 0.0, 10.00043, 9.999434 
1.8500587e+2, 1.9619398e+2, -982311.4, -1066089.5, 13048.772, -0.023989454, 0.20613703, -980326.0, 36991.21, 0.0, 10.000577, 9.999464 
1.8500942e+2, 2.0619331e+2, -874849.56, -980961.94, 8501.752, -0.018938981, 0.20141126, -874172.7, 45150.598, 0.0, 10.000717, 9.999308 
1.8501294e+2, 2.1619229e+2, -755051.8, -869772.94, 10387.958, -0.009349588, 0.16539755, -754118.75, 67212.98, 0.0, 10.000855, 9.999331 
1.8501636e+2, 2.2619125e+2, -647570.4, -790631.0, 11372.679, -0.011616725, 0.1396703, -646671.94, 76667.73, 0.0, 10.001021, 9.999122 
1.8501967e+2, 2.3619021e+2, -522274.47, -678887.5, 10407.648, -0.02156196, 0.11952841, -521585.84, 103761.44, 0.0, 10.001206, 9.999127 
1.8502288e+2, 2.461889e+2, -418970.56, -617137.2, -4384.5654, -0.017846536, 0.09257175, -418873.63, 108484.414, 0.0, 10.0014105, 9.998781 
1.8502599e+2, 2.5618735e+2, -289333.63, -503037.9, -4761.817, -0.005370857, 0.058462363, -289227.6, 140143.39, 0.0, 10.001624, 9.998789 
1.8502915e+2, 2.6618585e+2, -180311.3, -439207.2, -803.35895, 0.0020019244, 0.048891794, -180308.81, 151075.78, 0.0, 10.00187, 9.998435 
1.8503234e+2, 2.7618435e+2, -44714.01, -323731.06, -2591.5598, 0.005778886, 0.05262405, -44689.94, 188708.88, 0.0, 10.002131, 9.998429 
1.8503544e+2, 2.8618264e+2, 48781.69, -277572.4, -2263.0518, -0.0013888454, 0.062406875, 48797.387, 184212.25, 0.0, 10.002314, 9.997986 
1.8503846e+2, 2.9618078e+2, 166439.89, -169539.78, -1734.1646, -0.0151738515, 0.07352626, 166448.84, 203881.03, 0.000000013949684, 10.002446, 9.997991 
1.8504189e+2, 3.0617785e+2, 240854.17, -124844.87, -4090.6917, 0.013167342, -0.008585528, 240899.92, 240899.92, 0.0000024106344, 10.002692, 9.997846 
1.8504463e+2, 3.1617627e+2, 318999.13, -35181.18, -4278.3447, -0.018227894, 0.046918508, 319050.78, 319050.78, 0.000017412012, 10.003005, 9.99831 
1.9498041e+2, 1.2619136e+2, -1793767.8, -1729196.3, 10612.835, -0.03763459, 0.05936606, -1727496.8, -24164.021, 0.000004294411, 9.999356, 10.000212 
1.9498435e+2, 1.3619195e+2, -1656726.9, -1636474.0, 26012.68, -0.022407705, 0.11700934, -1618686.3, -13357.887, 0.0000008137795, 9.999728, 9.999996 
1.9498834e+2, 1.461914e+2, -1543835.1, -1564066.4, 21320.004, 0.000045573986, 0.078434765, -1530352.6, -23016.95, 0.000000025948266, 9.999971, 9.9997015 
1.9499189e+2, 1.5619189e+2, -1421818.0, -1451188.9, 17561.467, -0.018258255, 0.15275328, -1413610.9, -4277.5776, 0.0, 10.000122, 9.99973 
1.949955e+2, 1.6619177e+2, -1311128.9, -1352039.1, 13623.505, -0.020668738, 0.17113559, -1307007.3, 4328.0474, 0.0, 10.000231, 9.999686 
1.949992e+2, 1.7619115e+2, -1201096.3, -1247338.5, 17397.027, -0.009512189, 0.1373598, -1195282.3, 18059.342, 0.0, 10.00031, 9.999695 
1.9500285e+2, 1.8619081e+2, -1108205.3, -1187874.9, 21436.635, -0.010993654, 0.15241212, -1102803.5, 12542.524, 0.0, 10.00043, 9.9993725 
1.9500647e+2, 1.9619071e+2, -985724.8, -1073130.8, 18511.229, -0.0216799, 0.20161802, -981966.06, 35382.953, 0.0, 10.000577, 9.999416 
1.9501008e+2, 2.0619006e+2, -871279.75, -973549.3, 13671.451, -0.022963328, 0.19686055, -869483.7, 49871.32, 0.0, 10.000717, 9.999359 
1.9501372e+2, 2.1618901e+2, -751734.3, -862849.44, 15832.749, -0.017813344, 0.15305428, -749522.3, 71840.96, 0.0, 10.000855, 9.999379 
1.9501732e+2, 2.2618803e+2, -645654.2, -786611.44, 18314.863, -0.016617984, 0.12889563, -643313.4, 80057.31, 0.0, 10.001021, 9.99915 
1.9502091e+2, 2.3618707e+2, -520805.94, -675794.7, 17551.996, -0.018050801, 0.11626816, -518843.1, 106534.414, 0.0, 10.001206, 9.999149 
1.9502425e+2, 2.4618581e+2, -421025.47, -621365.2, 3654.4004, -0.02085652, 0.09496854, -420958.8, 106429.19, 0.0, 10.00141, 9.998752 
1.9502743e+2, 2.561843e+2, -291545.3, -507688.34, 3561.8484, -0.02453937, 0.06537453, -291486.63, 137914.42, 0.0, 10.001624, 9.998756 
1.9503084e+2, 2.6618272e+2, -183684.19, -446302.84, 9118.469, -0.015468395, 0.050610013, -183367.97, 148047.47, 0.0, 10.00187, 9.998386 
1.9503443e+2, 2.7618104e+2, -47506.258, -329577.75, 6778.648, 0.0017728133, 0.042638585, -47343.45, 186087.4, 0.0, 10.002131, 9.998389 
1.950378e+2, 2.861793e+2, 49908.0, -275283.88, 2715.5322, 0.0033113398, 0.04954636, 49930.676, 185377.8, 0.0, 10.002314, 9.998001 
1.95041e+2, 2.9617745e+2, 167650.77, -167236.75, 4217.858, -0.0051175756, 0.0640805, 167703.88, 205167.88, 0.0000000023315327, 10.002447, 9.998006 
1.9504471e+2, 3.0617455e+2, 242522.75, -121557.414, 7735.532, 0.025975347, -0.017429247, 242687.03, 242687.03, 0.0000014034579, 10.002693, 9.997868 
1.9504778e+2, 3.1617287e+2, 316405.28, -40494.895, 7725.85, -0.0052911243, 0.025964044, 316572.44, 316572.44, 0.000012235335, 10.003005, 9.998274 
2.0497984e+2, 1.2618798e+2, -1779115.5, -1722764.1, -3747.5818, -0.034266073, 0.06912146, -1722516.0, -19150.148, 0.000003892583, 9.99946, 10.000205 
2.0498405e+2, 1.3618839e+2, -1650273.6, -1631619.3, 11339.092, -0.025787877, 0.106248766, -1626264.0, -20901.223, 0.00000074131736, 9.999765, 10.000011 
2.0498826e+2, 1.4618786e+2, -1546780.4, -1563640.9, 3961.275, -0.004833978, 0.068146035, -1545896.1, -38526.164, 0.000000023374444, 9.999944, 9.999718 
2.04992e+2, 1.5618838e+2, -1433131.0, -1454352.1, 7204.37, -0.016307386, 0.1486154, -1430916.4, -21549.21, 0.0, 10.000034, 9.999751 
2.0499572e+2, 1.6618834e+2, -1315743.3, -1348691.8, 4657.365, -0.018638186, 0.16924998, -1315097.6, -3729.0466, 0.0, 10.000175, 9.999737 
2.0499949e+2, 1.7618777e+2, -1193345.9, -1238927.1, 6138.0063, -0.012285994, 0.13608673, -1192533.9, 20840.197, 0.0, 10.000342, 9.999736 
2.0500329e+2, 1.861874e+2, -1104774.6, -1188468.4, 11220.97, -0.012350182, 0.14657299, -1103296.3, 12082.627, 0.0, 10.0004635, 9.999352 
2.0500708e+2, 1.9618721e+2, -989476.56, -1076001.3, 11577.745, -0.017464582, 0.18749928, -987954.1, 29428.877, 0.0, 10.000556, 9.999407 
2.0501082e+2, 2.0618662e+2, -868531.06, -964859.5, 10112.901, -0.020567166, 0.18629591, -867480.8, 51907.477, 0.0, 10.000705, 9.999425 
2.0501454e+2, 2.1618575e+2, -742813.7, -852165.25, 13291.615, -0.02194583, 0.1538326, -741221.3, 80173.36, 0.0, 10.000889, 9.999436 
2.050183e+2, 2.2618477e+2, -647604.4, -789283.56, 13511.212, -0.020389434, 0.12840146, -646327.44, 77074.59, 0.0, 10.001016, 9.999134 
2.0502208e+2, 2.3618372e+2, -536283.8, -684770.44, 10230.614, -0.017115813, 0.10641042, -535582.25, 89827.836, 0.0, 10.001106, 9.999135 
2.050256e+2, 2.4618247e+2, -429351.63, -625263.5, 1164.9976, -0.023688164, 0.088536575, -429344.72, 98075.76, 0.0, 10.001352, 9.998753 
2.0502895e+2, 2.5618106e+2, -281153.4, -502357.97, 3085.9946, -0.0364239, 0.070381925, -281110.34, 148322.23, 0.0, 10.001694, 9.998759 
2.0503268e+2, 2.6617944e+2, -170956.28, -437612.13, 11120.218, -0.022848504, 0.052386187, -170493.34, 160953.53, 0.0, 10.001946, 9.998409 
2.0503663e+2, 2.761777e+2, -45593.523, -327605.78, 13954.762, 0.007546828, 0.031907856, -44904.688, 188558.06, 0.0, 10.002139, 9.998399 
2.050402e+2, 2.8617588e+2, 56821.086, -281601.72, 6918.022, 0.009185449, 0.036180984, 56962.445, 192442.11, 0.0, 10.002403, 9.997915 
2.0504357e+2, 2.9617402e+2, 201091.16, -158010.06, 772.4439, -0.007476889, 0.054616403, 201092.81, 238590.11, 0.000000000097020676, 10.002707, 9.997945 
2.0504752e+2, 3.0617115e+2, 274074.47, -93733.47, 4219.1636, 0.02926414, -0.0255143, 274122.88, 274122.88, 0.0000007042908, 10.002856, 9.99798 
2.050509e+2, 3.1616944e+2, 305648.78, -39892.71, 11294.865, 0.012741666, 0.004432972, 306017.6, 306017.6, 0.000007994477, 10.002907, 9.998325 
2.1497943e+2, 1.2618437e+2, -1778839.6, -1722150.5, 7873.022, -0.022701118, 0.09420277, -1721077.4, -17675.813, 0.0000033185577, 9.999459, 10.00021 
2.1498376e+2, 1.361846e+2, -1647930.3, -1626683.6, 21988.508, -0.03125467, 0.11127828, -1612886.6, -7486.8774, 0.00000061904166, 9.999764, 10.000046 
2.1498811e+2, 1.4618404e+2, -1539122.0, -1547534.0, 7421.748, -0.013034667, 0.062316, -1534797.4, -27390.498, 0.000000017936356, 9.999943, 9.999829 
2.1499206e+2, 1.5618455e+2, -1426293.1, -1439879.5, 11035.914, -0.011677246, 0.12992871, -1420127.3, -10723.323, 0.0, 10.000033, 9.999851 
2.1499589e+2, 1.6618465e+2, -1314447.4, -1345840.5, 10984.131, -0.019594656, 0.1591752, -1310985.9, 418.24988, 0.0, 10.0001745, 9.999756 
2.1499965e+2, 1.7618434e+2, -1191857.8, -1235806.5, 12101.612, -0.031530593, 0.14927864, -1188745.9, 24661.682, 0.0, 10.000342, 9.999758 
2.150036e+2, 1.8618391e+2, -1103297.1, -1185329.6, 14656.046, -0.026637929, 0.15168723, -1100757.3, 14655.716, 0.0, 10.0004635, 9.999373 
2.150077e+2, 1.9618344e+2, -987544.7, -1071860.0, 15464.604, -0.011510499, 0.16385135, -984797.75, 32621.486, 0.0, 10.000555, 9.999435 
2.1501161e+2, 2.0618299e+2, -862895.25, -953064.0, 17104.928, -0.011889503, 0.16975756, -859759.5, 59663.65, 0.0, 10.000704, 9.999506 
2.1501543e+2, 2.161825e+2, -738258.4, -842628.0, 19866.97, -0.021925101, 0.16760904, -734604.56, 86821.3, 0.0, 10.000889, 9.999502 
2.1501929e+2, 2.2618148e+2, -651684.5, -797682.5, 16886.86, -0.02312649, 0.13809569, -649756.75, 73676.99, 0.0, 10.001015, 9.999077 
2.1502316e+2, 2.361801e+2, -539646.0, -691757.94, 14769.181, -0.018836303, 0.09007183, -538225.25, 87219.7, 0.0, 10.001106, 9.999087 
2.1502693e+2, 2.4617887e+2, -427196.7, -620859.25, 14100.313, -0.026428124, 0.073343605, -426175.47, 101279.96, 0.0, 10.001352, 9.998783 
2.150306e+2, 2.5617766e+2, -278545.22, -496891.03, 15375.353, -0.041279253, 0.07353456, -277467.84, 151997.75, 0.0, 10.001694, 9.998796 
2.1503463e+2, 2.661761e+2, -164430.72, -424037.2, 18337.775, -0.020468814, 0.054331664, -163141.8, 168337.14, 0.0, 10.001946, 9.998503 
2.1503891e+2, 2.761743e+2, -41416.51, -319060.06, 21716.24, 0.02281178, 0.02041952, -39728.215, 193766.31, 0.0, 10.00214, 9.998458 
2.1504268e+2, 2.861724e+2, 43820.465, -308803.78, 18372.887, 0.016016774, 0.022274092, 44775.168, 180287.7, 0.0, 10.002403, 9.997728 
2.1504611e+2, 2.9617038e+2, 191465.78, -178165.72, 11195.794, -0.022272978, 0.045273375, 191804.58, 229336.69, 0.0, 10.0027075, 9.997807 
2.1505031e+2, 3.061676e+2, 288360.44, -64259.586, 6033.8467, 0.022982063, -0.03257573, 288463.66, 288463.66, 0.00000028677624, 10.002857, 9.998182 
2.1505404e+2, 3.1616592e+2, 315612.97, -19695.357, 13842.976, 0.035269488, -0.018065117, 316183.5, 316183.5, 0.0000047712674, 10.002909, 9.998464 
2.2497885e+2, 1.2618019e+2, -1773751.1, -1714752.1, -10533.804, -0.026369244, 0.09536058, -1712927.9, -9485.114, 0.0000026194793, 9.999473, 10.000255 
2.2498344e+2, 1.3618048e+2, -1674874.1, -1631996.5, 6206.1797, -0.029072179, 0.11321696, -1631116.3, -25676.201, 0.0000004546107, 9.999547, 10.000114 
2.2498795e+2, 1.4617999e+2, -1572293.3, -1550750.3, -9804.151, -0.009129808, 0.062417023, -1546956.5, -39510.39, 0.000000010467296, 9.99966, 9.999943 
2.2499208e+2, 1.5618052e+2, -1454413.8, -1441567.6, -5830.552, -0.002255296, 0.1181215, -1439315.9, -29873.033, 0.0, 9.999789, 9.999957 
2.2499602e+2, 1.6618073e+2, -1343092.5, -1355118.4, -2255.177, -0.013297584, 0.15102448, -1342683.5, -31241.297, 0.0, 9.999958, 9.999797 
2.2499986e+2, 1.7618059e+2, -1215670.6, -1241998.6, 78.565254, -0.034518857, 0.15540697, -1215670.4, -2225.9282, 0.0, 10.000156, 9.9998045 
2.2500397e+2, 1.8618023e+2, -1116377.3, -1181172.6, 4419.1196, -0.030704191, 0.15792522, -1116077.3, -628.1594, 0.0, 10.000328, 9.999467 
2.250082e+2, 1.9617976e+2, -992480.2, -1064915.3, 10609.946, -0.011120235, 0.1608231, -990958.1, 26496.803, 0.0, 10.000482, 9.999518 
2.2501229e+2, 2.0617932e+2, -876383.9, -957918.44, 12082.691, -0.009590716, 0.16397849, -874631.0, 44827.492, 0.0, 10.000605, 9.99952 
2.2501625e+2, 2.1617886e+2, -763124.06, -853072.7, 9949.598, -0.019544072, 0.16331379, -762036.6, 59424.355, 0.0, 10.000711, 9.999516 
2.2502024e+2, 2.2617784e+2, -664315.7, -802358.56, 9533.011, -0.024024153, 0.13278574, -663660.44, 59808.324, 0.0, 10.000922, 9.999089 
2.2502427e+2, 2.3617645e+2, -525377.94, -683656.06, 13061.976, -0.02508889, 0.082188204, -524307.2, 101172.914, 0.0, 10.001199, 9.999099 
2.2502829e+2, 2.4617523e+2, -414459.3, -613707.9, 16551.465, -0.029029949, 0.06653078, -413093.75, 114396.62, 0.0, 10.001435, 9.998793 
2.2503233e+2, 2.5617412e+2, -285389.3, -499889.38, 16141.361, -0.034467734, 0.07030212, -284181.47, 145318.67, 0.0, 10.001645, 9.998799 
2.2503662e+2, 2.6617253e+2, -166586.05, -429973.88, 12413.248, -0.017201085, 0.05074062, -166002.31, 165511.4, 0.0, 10.001952, 9.99846 
2.2504105e+2, 2.761706e+2, -18069.842, -311836.97, 5661.618, 0.014310095, 0.013663417, -17960.77, 215569.2, 0.0, 10.002317, 9.998422 
2.250451e+2, 2.8616866e+2, 71660.37, -292761.13, 7144.414, 0.0087953545, 0.011284152, 71800.375, 207348.58, 0.0, 10.0025835, 9.997752 
2.2504888e+2, 2.9616663e+2, 203490.75, -171127.98, 14829.599, -0.019748293, 0.029940218, 204076.88, 241644.5, 0.0, 10.002785, 9.997818 
2.2505328e+2, 3.0616394e+2, 302267.3, -67391.91, -1382.2347, 0.028006503, -0.037209988, 302272.47, 302272.47, 0.00000008572978, 10.002995, 9.9980955 
2.2505714e+2, 3.161622e+2, 350676.78, -17664.805, -14556.045, 0.039220173, -0.019257078, 351251.1, 351251.1, 0.000002540607, 10.003213, 9.998332 
2.3497814e+2, 1.2617542e+2, -1767697.1, -1702114.0, -7799.6743, -0.045956474, 0.07229157, -1701199.3, 2290.1616, 0.0000018640146, 9.999473, 10.000341 
2.3498309e+2, 1.3617603e+2, -1667825.8, -1616837.9, 9300.801, -0.019276025, 0.11197104, -1615194.3, -9710.469, 0.0000002777255, 9.999544, 10.000219 
2.3498778e+2, 1.4617574e+2, -1564443.1, -1534048.9, -4832.0166, 0.0068878573, 0.06848786, -1533299.3, -25811.379, 0.0000000036051038, 9.999658, 10.000059 
2.34992e+2, 1.5617627e+2, -1446616.9, -1425308.3, -727.1786, 0.011724914, 0.11334198, -1425283.5, -15799.253, 0.0, 9.999789, 10.00007 
2.3499611e+2, 1.6617653e+2, -1338890.4, -1346272.3, 5175.098, 0.00006236659, 0.14488527, -1336224.9, -24741.775, 0.0, 9.999958, 9.999858 
2.3500015e+2, 1.7617652e+2, -1210748.5, -1231484.4, 7433.861, -0.02136113, 0.15451886, -1208358.9, 5125.875, 0.0, 10.000155, 9.999878 
2.3500435e+2, 1.8617637e+2, -1104984.4, -1157243.3, 10205.543, -0.024688635, 0.16533308, -1103062.1, 12425.204, 0.0, 10.000327, 9.999632 
2.3500864e+2, 1.9617616e+2, -982764.9, -1044648.3, 16184.161, -0.016426643, 0.17834496, -978787.9, 38702.168, 0.0, 10.000481, 9.999658 
2.3501284e+2, 2.0617563e+2, -880143.0, -965686.25, 16069.246, -0.013816882, 0.16889778, -877224.0, 42270.367, 0.0, 10.000605, 9.999468 
2.3501702e+2, 2.1617486e+2, -765820.1, -858644.06, 14728.228, -0.014922926, 0.14110978, -763539.3, 57960.727, 0.0, 10.000711, 9.999477 
2.3502117e+2, 2.2617388e+2, -658613.6, -790463.2, 20038.936, -0.02319523, 0.11261513, -655635.3, 67871.89, 0.0, 10.000922, 9.999171 
2.3502535e+2, 2.3617278e+2, -520482.0, -673359.7, 23256.98, -0.035970703, 0.08269202, -517022.25, 108493.27, 0.0, 10.001199, 9.999169 
2.350297e+2, 2.4617158e+2, -415427.38, -615657.44, 24427.559, -0.031681664, 0.068012714, -412490.34, 115034.984, 0.0, 10.001435, 9.998779 
2.3503417e+2, 2.5617033e+2, -287751.1, -504814.56, 24751.754, -0.016253898, 0.060655322, -284964.44, 144571.84, 0.0, 10.001645, 9.998766 
2.3503862e+2, 2.6616865e+2, -178965.25, -455783.16, 26224.246, -0.013063328, 0.041590277, -176502.81, 155048.45, 0.0, 10.001953, 9.998282 
2.3504305e+2, 2.7616665e+2, -27072.047, -330554.3, 18788.602, -0.017781101, 0.011676155, -25913.27, 207655.81, 0.0, 10.002317, 9.998294 
2.3504747e+2, 2.861647e+2, 87871.05, -259180.4, 14725.096, -0.012583498, 0.003301657, 88494.695, 224081.31, 0.0, 10.002584, 9.997983 
2.3505187e+2, 2.9616275e+2, 214846.23, -147818.31, 22383.828, -0.0003734688, 0.008695237, 216222.55, 253826.42, 0.0, 10.002786, 9.997978 
2.3505643e+2, 3.061601e+2, 276638.75, -121097.88, 6726.455, 0.04402253, -0.039732054, 276752.5, 276752.5, 0.000000016806371, 10.002996, 9.9977255 
2.350602e+2, 3.161582e+2, 323422.56, -74721.27, -5983.816, 0.024392614, -0.00023207358, 323512.47, 323512.47, 0.0000011714155, 10.003215, 9.997939 
2.4497752e+2, 1.2617086e+2, -1800986.5, -1713487.6, -2188.4614, -0.04185468, 0.06516312, -1713432.9, -9898.97, 0.0000011498672, 9.999225, 10.000383 
2.4498254e+2, 1.3617156e+2, -1700634.3, -1625801.5, 11284.553, -0.015004263, 0.10998996, -1624136.9, -18609.262, 0.00000012802465, 9.99929, 10.00028 
2.4498732e+2, 1.4617139e+2, -1592455.8, -1535958.3, -1956.445, 0.008404507, 0.06969269, -1535890.6, -28360.174, 0.00000000023702618, 9.999416, 10.000163 
2.4499173e+2, 1.5617195e+2, -1469324.5, -1425140.0, 1108.9426, 0.016306607, 0.10730733, -1425112.1, -15586.01, 0.0, 9.999585, 10.000169 
2.4499601e+2, 1.6617228e+2, -1370050.5, -1354665.0, 6378.347, 0.006640567, 0.13871868, -1352364.8, -40840.31, 0.0, 9.999716, 9.999917 
2.4500021e+2, 1.7617239e+2, -1255881.8, -1246446.1, 8466.25, -0.014307321, 0.15368228, -1241471.9, -27946.592, 0.0, 9.999817, 9.999938 
2.4500453e+2, 1.8617235e+2, -1150062.9, -1170477.1, 8274.233, -0.02133879, 0.16829339, -1147130.5, -31603.664, 0.0, 9.999981, 9.999708 
2.4500896e+2, 1.9617224e+2, -1020029.6, -1054730.0, 7658.245, -0.019198777, 0.18376064, -1018414.6, -886.2357, 0.0, 10.000192, 9.999728 
2.4501333e+2, 2.0617169e+2, -901697.9, -973052.4, 9019.261, -0.019250575, 0.16841857, -900575.5, 18957.133, 0.0, 10.000443, 9.999495 
2.4501766e+2, 2.1617083e+2, -761949.5, -853222.3, 13840.917, -0.0208928, 0.1295662, -759896.75, 61642.11, 0.0, 10.000723, 9.99951 
2.4502206e+2, 2.2616991e+2, -650861.75, -779038.9, 22232.955, -0.028210493, 0.10081455, -647114.8, 76430.59, 0.0, 10.000942, 9.999241 
2.4502647e+2, 2.3616895e+2, -527412.06, -670254.7, 24697.709, -0.038937308, 0.07751453, -523262.3, 102289.97, 0.0, 10.001123, 9.999228 
2.4503112e+2, 2.4616776e+2, -422654.66, -622984.44, 26166.297, -0.031891696, 0.06292384, -419293.3, 108268.664, 0.0, 10.001402, 9.998745 
2.4503589e+2, 2.561664e+2, -276380.1, -503559.0, 25232.674, -0.013379275, 0.051565293, -273611.28, 155962.44, 0.0, 10.001741, 9.998729 
2.4504063e+2, 2.6616466e+2, -170378.33, -457961.25, 33065.055, -0.0131280925, 0.0296824, -166625.63, 164963.81, 0.0, 10.002039, 9.998226 
2.4504529e+2, 2.761626e+2, -32077.338, -338758.28, 34085.957, -0.024533961, -0.0023222992, -28334.543, 205273.42, 0.0, 10.002308, 9.998242 
2.4505003e+2, 2.8616062e+2, 92723.77, -258289.55, 21023.209, -0.016704144, -0.011425228, 93978.43, 229604.25, 0.0, 10.002624, 9.997971 
2.4505478e+2, 2.9615867e+2, 239622.89, -138536.16, 10499.245, 0.004047996, -0.0053552627, 239914.17, 277557.28, 0.0, 10.002968, 9.997954 
2.4505958e+2, 3.0615607e+2, 303531.6, -120453.59, -2151.3267, 0.04849382, -0.040237885, 303542.5, 303542.5, 0.0000000018495133, 10.003235, 9.997615 
2.4506356e+2, 3.161541e+2, 348467.4, -78897.57, 4590.011, 0.025538558, 0.0010728786, 348516.7, 348516.7, 0.00000045275593, 10.003457, 9.997793 
2.5497705e+2, 1.2616648e+2, -1801717.0, -1714606.8, 530.3699, -0.013843841, 0.074509904, -1714603.6, -11027.109, 0.0000005982307, 9.999223, 10.000377 
2.5498182e+2, 1.361671e+2, -1699464.6, -1623473.3, 14052.001, -0.017218342, 0.10768554, -1620958.0, -15386.574, 0.00000003796869, 9.99929, 10.000297 
2.549866e+2, 1.4616697e+2, -1586080.6, -1522629.0, 4437.317, -0.005468288, 0.06632559, -1522320.3, -14746.419, 0.0, 9.999415, 10.000255 
2.5499126e+2, 1.5616757e+2, -1463505.4, -1412523.6, 7316.3545, 0.01150779, 0.100099154, -1411494.5, -1925.6831, 0.0, 9.999583, 10.000257 
2.5499573e+2, 1.66168e+2, -1366384.3, -1346616.5, 10130.886, 0.0064142477, 0.13263609, -1342346.8, -30780.506, 0.0, 9.999714, 9.999973 
2.5500003e+2, 1.761682e+2, -1252486.9, -1239387.4, 12683.023, -0.013787235, 0.15303902, -1231662.8, -18096.525, 0.0, 9.999817, 9.999987 
2.5500453e+2, 1.8616816e+2, -1150900.8, -1172235.3, 16189.767, -0.021027219, 0.16693176, -1142179.9, -26612.229, 0.0, 9.999981, 9.999696 
2.5500914e+2, 1.96168e+2, -1019993.44, -1054549.8, 15917.467, -0.019525433, 0.17723922, -1013779.0, 3790.9678, 0.0, 10.000191, 9.99973 
2.550137e+2, 2.0616752e+2, -894299.0, -957518.56, 19610.365, -0.025937542, 0.16264924, -888710.06, 30863.283, 0.0, 10.0004425, 9.999601 
2.550182e+2, 2.1616681e+2, -754939.0, -838459.5, 24023.523, -0.037556138, 0.12859635, -748521.94, 73055.67, 0.0, 10.000722, 9.999612 
2.5502288e+2, 2.2616594e+2, -647012.7, -770908.0, 29017.604, -0.03923335, 0.09725474, -640553.2, 83030.26, 0.0, 10.000941, 9.999297 
2.5502765e+2, 2.3616496e+2, -524420.75, -663978.75, 32185.877, -0.0342574, 0.06669898, -517355.47, 108234.94, 0.0, 10.001122, 9.99927 
2.5503254e+2, 2.4616376e+2, -426469.03, -630857.44, 38919.707, -0.029834416, 0.05134587, -419308.78, 108291.57, 0.0, 10.001402, 9.998692 
2.5503752e+2, 2.5616238e+2, -279182.28, -509296.47, 37699.68, -0.0258498, 0.043141, -273163.34, 156449.08, 0.0, 10.001741, 9.99869 
2.550426e+2, 2.6616058e+2, -166187.64, -449243.63, 43136.31, -0.017622102, 0.015127084, -159759.84, 171868.4, 0.0, 10.002039, 9.998286 
2.5504777e+2, 2.7615848e+2, -30437.256, -335464.6, 44483.3, -0.0065165125, -0.028247574, -24082.479, 209564.22, 0.0, 10.002309, 9.998264 
2.5505278e+2, 2.861564e+2, 75223.03, -294809.06, 33925.684, -0.003892603, -0.032889564, 78307.73, 213973.58, 0.0, 10.0026245, 9.997719 
2.5505763e+2, 2.9615432e+2, 225373.53, -168245.75, 22843.7, -0.006347899, -0.012378394, 226694.83, 264380.13, 0.0, 10.002968, 9.99775 
2.5506276e+2, 3.0615184e+2, 313681.47, -99678.25, 6229.0176, 0.041450754, -0.038749143, 313775.3, 313775.3, 0.000000000039700524, 10.003236, 9.997757 
2.5506717e+2, 3.1614977e+2, 355394.66, -65043.75, 13313.848, 0.041772053, -0.015519452, 355815.84, 355815.84, 0.00000014491832, 10.00346, 9.997888 
2.649763e+2, 1.261619e+2, -1842277.9, -1728722.6, -8219.385, 0.0057229144, 0.07886487, -1728130.8, -24509.344, 0.00000026973817, 9.998921, 10.000424 
2.6498103e+2, 1.3616253e+2, -1731431.1, -1632295.3, 8983.558, -0.014144812, 0.10952251, -1631487.8, -25871.54, 0.0000000060296985, 9.999043, 10.000355 
2.649858e+2, 1.4616251e+2, -1620771.5, -1531857.3, 742.28516, -0.013291741, 0.07183872, -1531851.1, -24233.396, 0.0, 9.9991455, 10.000321 
2.6499063e+2, 1.5616316e+2, -1510384.0, -1427588.3, 2059.584, 0.00628441, 0.1034118, -1427537.1, -17924.871, 0.0, 9.999229, 10.000324 
2.649953e+2, 1.6616365e+2, -1400211.3, -1355365.4, 7474.703, 0.005949141, 0.13468757, -1354152.3, -42543.27, 0.0, 9.99945, 10.000041 
2.6499987e+2, 1.7616393e+2, -1256311.9, -1234264.6, 10672.584, -0.00916872, 0.1551944, -1229944.6, -16336.433, 0.0, 9.999761, 10.00005 
2.6500455e+2, 1.8616389e+2, -1151423.0, -1170152.4, 14962.973, -0.014895235, 0.1662948, -1143135.8, -27526.404, 0.0, 9.999968, 9.999717 
2.6500934e+2, 1.961637e+2, -1030575.56, -1057329.0, 17431.39, -0.013877385, 0.17164412, -1021979.8, -4368.0264, 0.0, 10.000108, 9.999751 
2.6501408e+2, 2.0616321e+2, -914595.06, -964360.1, 20780.455, -0.024776243, 0.15318093, -907058.94, 12556.091, 0.0, 10.000291, 9.999628 
2.6501876e+2, 2.1616249e+2, -785364.7, -850473.94, 19153.648, -0.043481983, 0.11610778, -780148.06, 41471.145, 0.0, 10.000502, 9.999636 
2.650237e+2, 2.2616167e+2, -671391.7, -782601.44, 19395.178, -0.042944506, 0.08804504, -668106.2, 55518.504, 0.0, 10.000773, 9.999297 
2.650288e+2, 2.3616076e+2, -529865.4, -666855.1, 18819.172, -0.029814629, 0.06474866, -527327.1, 98304.11, 0.0, 10.001086, 9.999269 
2.6503396e+2, 2.4615957e+2, -428376.66, -634161.06, 28087.57, -0.027777012, 0.051132463, -424611.84, 103029.336, 0.0, 10.001399, 9.99867 
2.6503915e+2, 2.5615814e+2, -284880.03, -513908.84, 29099.492, -0.032878786, 0.041053955, -281240.6, 148413.02, 0.0, 10.00171, 9.9986725 
2.650446e+2, 2.6615635e+2, -166443.89, -448330.16, 32330.354, -0.021673447, 0.011816157, -162783.36, 168886.08, 0.0, 10.002033, 9.998295 
2.6505017e+2, 2.7615422e+2, -22608.406, -331619.5, 30194.67, 0.00012795052, -0.032212388, -19685.613, 214002.02, 0.0, 10.002362, 9.998265 
2.650555e+2, 2.8615206e+2, 80774.18, -299793.63, 27875.146, 0.002132515, -0.038614344, 82805.09, 218512.44, 0.0, 10.002696, 9.99765 
2.6506063e+2, 2.9614994e+2, 231021.75, -171229.61, 29912.803, -0.008162755, -0.020235792, 233234.0, 270961.88, 0.0, 10.003032, 9.997699 
2.6506603e+2, 3.0614746e+2, 341828.75, -78013.016, 14326.955, 0.039369892, -0.045491133, 342317.06, 342317.06, 0.0, 10.003395, 9.997829 
2.6507086e+2, 3.1614527e+2, 404638.34, -37514.246, 16097.495, 0.04824189, -0.044325598, 405223.66, 405223.66, 0.000000037775372, 10.003782, 9.997921 
2.749753e+2, 1.2615709e+2, -1835344.9, -1714122.0, -3650.33, 0.015114519, 0.07828866, -1714012.3, -10343.378, 0.00000012804327, 9.99892, 10.0005245 
2.7498013e+2, 1.3615791e+2, -1724754.5, -1617765.4, 13466.208, -0.0052999104, 0.11575084, -1616096.4, -10434.446, 0.0000000018569922, 9.999041, 10.000457 
2.7498493e+2, 1.4615802e+2, -1618211.5, -1525963.9, 3953.674, -0.014645188, 0.08653206, -1525794.8, -18132.678, 0.0, 9.999143, 10.000363 
2.7498978e+2, 1.5615872e+2, -1507191.3, -1420776.5, 6116.5967, -0.0003274802, 0.117565215, -1420345.8, -10689.1455, 0.0, 9.9992285, 10.000371 
2.7499473e+2, 1.6615923e+2, -1394732.8, -1343835.1, 19208.822, 0.0043734014, 0.14512421, -1337399.4, -25746.48, 0.0, 9.999449, 10.00012 
2.749997e+2, 1.7615953e+2, -1251035.5, -1223094.9, 21736.64, -0.00047509235, 0.16037025, -1211226.1, 2425.1982, 0.0, 9.99976, 10.000127 
2.7500463e+2, 1.8615954e+2, -1147789.1, -1162439.5, 20229.346, -0.0029046496, 0.16649716, -1133599.5, -17947.617, 0.0, 9.999967, 9.99977 
2.7500954e+2, 1.9615933e+2, -1027760.06, -1051403.3, 23022.104, -0.0025108699, 0.1669884, -1013701.8, 3951.9543, 0.0, 10.000108, 9.999791 
2.7501443e+2, 2.0615874e+2, -918380.1, -972159.44, 28712.73, -0.016029706, 0.14004456, -905931.8, 13726.013, 0.0, 10.00029, 9.999575 
2.7501932e+2, 2.1615787e+2, -789099.06, -858214.75, 27560.113, -0.038900822, 0.09231074, -779455.06, 42208.56, 0.0, 10.000502, 9.999582 
2.750245e+2, 2.2615707e+2, -675239.4, -790574.3, 31168.242, -0.039561115, 0.07328873, -667355.4, 56313.773, 0.0, 10.000773, 9.999243 
2.750299e+2, 2.3615633e+2, -533202.25, -673719.94, 30604.922, -0.025735809, 0.07153547, -526825.8, 98848.9, 0.0, 10.001086, 9.999222 
2.7503538e+2, 2.4615516e+2, -427726.66, -632750.2, 39751.242, -0.02582616, 0.062104966, -420289.22, 107395.305, 0.0, 10.001399, 9.99868 
2.7504084e+2, 2.5615367e+2, -284581.6, -513284.47, 40844.563, -0.03466917, 0.04517963, -277506.0, 152191.3, 0.0, 10.00171, 9.998677 
2.750466e+2, 2.6615188e+2, -169248.02, -454165.16, 44624.504, -0.025404237, 0.019532263, -162422.33, 169290.63, 0.0, 10.002033, 9.998256 
2.750525e+2, 2.7614984e+2, -24216.78, -334870.47, 42543.82, -0.004620197, -0.014694362, -18495.79, 215234.98, 0.0, 10.002362, 9.998243 
2.750582e+2, 2.8614768e+2, 88397.445, -283902.7, 40353.45, 0.0012579212, -0.02895625, 92721.125, 228471.48, 0.0, 10.002696, 9.99776 
2.7506372e+2, 2.9614544e+2, 237920.25, -157015.08, 42473.664, -0.0017033801, -0.028853888, 242436.47, 280207.28, 0.0, 10.003033, 9.997796 
2.7506945e+2, 3.0614296e+2, 342151.13, -77658.336, 28711.33, 0.04209995, -0.06026431, 344105.63, 344105.63, 0.0, 10.003396, 9.997831 
2.7507457e+2, 3.161405e+2, 402818.75, -41728.69, 30117.016, 0.04435993, -0.08530771, 404849.8, 404849.8, 0.00000000643165, 10.003784, 9.997891 
2.8497398e+2, 1.261521e+2, -1903201.9, -1728034.8, -20769.941, 0.01652375, 0.087885514, -1725605.8, -21887.156, 0.000000073181255, 9.998374, 10.000693 
2.8497902e+2, 1.3615298e+2, -1787554.6, -1629753.3, 1424.2203, 0.0023154125, 0.114787124, -1629740.4, -24029.816, 0.00000000048290855, 9.99853, 10.00062 
2.849839e+2, 1.4615327e+2, -1663664.1, -1539014.0, -2038.6554, -0.012562432, 0.09111338, -1538980.8, -31271.725, 0.0, 9.998793, 10.0004425 
2.8498894e+2, 1.561541e+2, -1517012.5, -1416803.3, 2727.7874, -0.0005494888, 0.12831646, -1416729.0, -7026.7383, 0.0, 9.999124, 10.000449 
2.8499416e+2, 1.6615465e+2, -1409485.0, -1345361.5, 15851.13, 0.005843874, 0.15343098, -1341657.3, -29959.053, 0.0, 9.999324, 10.000171 
2.8499937e+2, 1.7615494e+2, -1294369.4, -1238790.0, 16228.252, 0.0043180515, 0.1614251, -1234398.6, -20702.055, 0.0, 9.999439, 10.000174 
2.850045e+2, 1.861549e+2, -1189611.4, -1180822.6, 12535.721, 0.0007077932, 0.16310152, -1171933.4, -56236.402, 0.0, 9.999672, 9.999786 
2.8500962e+2, 1.9615471e+2, -1045371.4, -1058893.3, 12442.452, -0.002542821, 0.16094382, -1037971.7, -20273.043, 0.0, 9.999983, 9.999801 
2.8501472e+2, 2.061541e+2, -927200.9, -981595.3, 17437.025, -0.015553715, 0.13421799, -922091.2, -2388.2764, 0.0, 10.000252, 9.999529 
2.8501984e+2, 2.161532e+2, -793479.25, -865822.5, 17173.244, -0.035481, 0.08864507, -789609.56, 32099.553, 0.0, 10.000495, 9.999534 
2.8502533e+2, 2.2615238e+2, -679792.9, -800465.9, 23088.7, -0.0354155, 0.072403036, -675526.1, 48189.04, 0.0, 10.000775, 9.999174 
2.8503105e+2, 2.3615158e+2, -538300.94, -683199.56, 21552.748, -0.02221513, 0.073695034, -535163.06, 90558.15, 0.0, 10.001081, 9.999159 
2.8503683e+2, 2.4615036e+2, -426772.94, -633741.0, 29918.475, -0.021114482, 0.062439766, -422534.8, 105196.66, 0.0, 10.001411, 9.998667 
2.8504264e+2, 2.5614884e+2, -279156.47, -512907.9, 29132.434, -0.027602015, 0.040722523, -275580.4, 154164.22, 0.0, 10.001758, 9.998657 
2.850487e+2, 2.6614702e+2, -170292.81, -462788.88, 29873.125, -0.019133354, 0.016653568, -167273.0, 164487.72, 0.0, 10.002061, 9.998182 
2.8505486e+2, 2.7614492e+2, -31910.193, -345107.84, 25535.97, -0.0012366599, -0.012050672, -29841.826, 203937.16, 0.0, 10.002337, 9.998184 
2.850609e+2, 2.861427e+2, 90501.38, -277929.03, 21694.402, 0.0037325877, -0.030629799, 91774.43, 227573.19, 0.0, 10.002689, 9.997804 
2.850668e+2, 2.9614043e+2, 248333.97, -148694.77, 18855.53, 0.0012442153, -0.040611092, 249227.44, 287046.72, 0.0, 10.00309, 9.997826 
2.850729e+2, 3.0613804e+2, 349338.9, -82804.55, 329.56622, 0.04304918, -0.06070552, 349339.16, 349339.16, 0.0, 10.003483, 9.997754 
2.8507847e+2, 3.1613547e+2, 408884.4, -49400.746, -4577.7036, 0.04684796, -0.08733766, 408930.13, 408930.13, 0.00000000043435586, 10.003871, 9.997797 
2.949723e+2, 1.261469e+2, -1886898.1, -1693709.9, -14729.001, 0.0097828675, 0.10787004, -1692593.4, 11177.087, 0.000000040732502, 9.998371, 10.000931 
2.9497758e+2, 1.3614775e+2, -1772006.6, -1597083.3, 8061.37, 0.0071365703, 0.106894605, -1596712.5, 9049.663, 0.0000000000036468957, 9.9985285, 10.000846 
2.9498276e+2, 1.4614822e+2, -1655855.6, -1522381.3, 10571.895, -0.008477384, 0.085852645, -1521549.1, -13790.67, 0.0, 9.998791, 10.000558 
2.9498813e+2, 1.5614931e+2, -1509737.0, -1401359.1, 14353.255, 0.0056524924, 0.13603538, -1399490.4, 10258.973, 0.0, 9.999122, 10.000556 
2.949935e+2, 1.661499e+2, -1408081.6, -1342247.1, 20150.082, 0.01055352, 0.15994585, -1336569.4, -24824.678, 0.0, 9.999323, 10.000193 
2.9499882e+2, 1.761501e+2, -1293369.0, -1236465.3, 21417.236, 0.0047463826, 0.15843274, -1229305.3, -15561.535, 0.0, 9.999438, 10.00019 
2.9500413e+2, 1.8615004e+2, -1191331.9, -1184213.4, 24219.99, -0.004503115, 0.15619843, -1163292.5, -47548.125, 0.0, 9.999672, 9.9997635 
2.9500946e+2, 1.9614981e+2, -1047082.8, -1062408.0, 23881.633, -0.014074371, 0.15365598, -1029664.56, -11918.261, 0.0, 9.999983, 9.999777 
2.950149e+2, 2.0614925e+2, -929924.4, -987189.9, 26587.941, -0.023424102, 0.13570398, -919483.44, 266.83496, 0.0, 10.000252, 9.999491 
2.9502034e+2, 2.1614845e+2, -796579.6, -872221.56, 26623.303, -0.033352155, 0.104884185, -788148.8, 33607.004, 0.0, 10.000495, 9.99949 
2.9502615e+2, 2.2614753e+2, -685726.7, -812775.56, 34573.066, -0.030610947, 0.08525505, -676927.9, 46834.863, 0.0, 10.000775, 9.99909 
2.9503214e+2, 2.3614651e+2, -543699.75, -694500.0, 33239.508, -0.019422257, 0.07138426, -536698.1, 89072.586, 0.0, 10.001081, 9.999082 
2.950383e+2, 2.4614516e+2, -429283.44, -639091.8, 42876.152, -0.013925724, 0.05229257, -420859.56, 106922.44, 0.0, 10.001412, 9.99863 
2.9504454e+2, 2.561436e+2, -282266.8, -519463.78, 41799.07, -0.011997629, 0.027698377, -275116.47, 154679.14, 0.0, 10.001758, 9.998612 
2.9505092e+2, 2.6614162e+2, -177633.72, -478161.16, 40125.36, -0.0031846168, 0.0033103586, -172368.56, 159444.1, 0.0, 10.002062, 9.998076 
2.9505733e+2, 2.7613947e+2, -38408.2, -358853.66, 36355.023, 0.010049298, -0.023914851, -34335.434, 199496.75, 0.0, 10.002338, 9.99809 
2.950636e+2, 2.861372e+2, 89240.75, -280870.03, 36687.484, 0.0093897, -0.04334897, 92842.375, 228694.9, 0.0, 10.00269, 9.997783 
2.9506987e+2, 2.961349e+2, 245951.45, -153946.66, 33729.29, 0.0005534194, -0.05552555, 248776.39, 286649.56, 0.0, 10.003091, 9.997788 
2.950764e+2, 3.0613267e+2, 338707.03, -105228.16, 14877.105, 0.041969642, -0.047281086, 339205.06, 339205.06, 0.0, 10.003484, 9.9976 
2.950824e+2, 3.161302e+2, 398246.28, -71893.65, 9620.079, 0.054926053, -0.05226344, 398443.06, 398443.06, 0.0, 10.003873, 9.997642 
3.0497032e+2, 1.2614146e+2, -1958566.1, -1711397.8, -6976.573, 0.007833238, 0.10537764, -1711201.0, -7377.3096, 0.000000022140249, 9.9978075, 10.0010805 
3.0497596e+2, 1.3614239e+2, -1813699.1, -1601503.4, 9339.665, 0.010566793, 0.09867277, -1601093.1, 4721.1226, 0.0, 9.998176, 10.000986 
3.049814e+2, 1.46143e+2, -1694607.4, -1534711.3, 8344.2705, -0.008028041, 0.08194242, -1534277.0, -26467.887, 0.0, 9.998498, 10.000614 
3.0498716e+2, 1.5614417e+2, -1555023.6, -1417557.5, 7149.6826, 0.010390097, 0.13375637, -1417186.6, -7387.0664, 0.0, 9.998787, 10.000607 
3.0499274e+2, 1.6614479e+2, -1444915.9, -1360812.5, 5992.5684, 0.014250568, 0.15906793, -1360387.6, -48593.0, 0.0, 9.999074, 10.000185 
3.0499816e+2, 1.76145e+2, -1305307.9, -1242811.8, 5234.946, 0.0026630382, 0.15959515, -1242376.3, -28582.63, 0.0, 9.999359, 10.000184 
3.050037e+2, 1.8614493e+2, -1200519.1, -1187233.8, 11050.987, -0.008421945, 0.15457627, -1180982.8, -65188.25, 0.0, 9.999602, 9.999776 
3.0500934e+2, 1.9614464e+2, -1070422.3, -1073444.4, 13530.976, -0.016800063, 0.14587852, -1058318.3, -40521.72, 0.0, 9.999822, 9.999779 
3.050151e+2, 2.061441e+2, -954097.6, -1009489.7, 16063.295, -0.023432605, 0.13403952, -949776.5, -29975.979, 0.0, 10.000132, 9.999395 
3.050209e+2, 2.1614334e+2, -801838.25, -884859.1, 11973.167, -0.029826583, 0.11741047, -800146.0, 21660.172, 0.0, 10.000502, 9.999399 
3.0502704e+2, 2.261423e+2, -676587.7, -813791.94, 20698.248, -0.024783198, 0.09247389, -673533.2, 50280.95, 0.0, 10.000861, 9.999042 
3.0503336e+2, 2.3614106e+2, -528214.7, -692880.56, 21994.107, -0.012037857, 0.06065522, -525327.6, 100496.23, 0.0, 10.001213, 9.999029 
3.0503985e+2, 2.461396e+2, -414916.72, -641742.7, 30821.453, -0.006182247, 0.039815027, -410803.25, 117032.73, 0.0, 10.001553, 9.998545 
3.0504644e+2, 2.5613803e+2, -269780.84, -522696.22, 26000.568, -0.0047630966, 0.02419453, -267135.56, 162714.34, 0.0, 10.0018835, 9.998529 
3.0505314e+2, 2.6613608e+2, -158078.38, -475518.66, 24186.941, 0.005141341, 0.005388262, -156246.06, 175621.2, 0.0, 10.002226, 9.998015 
3.0505988e+2, 2.761339e+2, -8299.781, -351181.63, 23793.686, 0.020613836, -0.018696126, -6656.535, 227230.64, 0.0, 10.002576, 9.998028 
3.0506656e+2, 2.8613147e+2, 115220.94, -275786.75, 24684.963, 0.020133613, -0.045038942, 116773.18, 252681.89, 0.0, 10.002901, 9.997716 
3.050731e+2, 2.9612896e+2, 258924.08, -154982.52, 18488.77, 0.009827375, -0.06997958, 259748.31, 297679.3, 0.0, 10.003212, 9.997724 
3.050799e+2, 3.0612686e+2, 347015.78, -107259.0, 3980.7, 0.04172516, -0.041630324, 347050.66, 347050.66, 0.0, 10.003567, 9.997546 
3.0508623e+2, 3.1612447e+2, 406120.5, -74192.87, 5443.0044, 0.04498645, -0.032827795, 406182.2, 406182.2, 0.0, 10.003953, 9.997587 
3.1496817e+2, 1.2613577e+2, -1954828.0, -1702550.0, 6861.84, 0.009103775, 0.08047169, -1702363.5, 1514.6733, 0.00000002336468, 9.997803, 10.001144 
3.1497416e+2, 1.3613693e+2, -1810053.4, -1593719.9, 23088.203, 0.012281085, 0.09047509, -1591283.1, 14583.678, 0.0, 9.998175, 10.0010395 
3.1497985e+2, 1.4613762e+2, -1694747.1, -1534960.0, 19316.498, -0.011277509, 0.079747215, -1532658.0, -24796.8, 0.0, 9.998498, 10.000613 
3.1498596e+2, 1.5613867e+2, -1555744.1, -1418553.1, 18069.197, 0.012963562, 0.12148354, -1416213.1, -6360.444, 0.0, 9.998785, 10.000601 
3.1499183e+2, 1.6613933e+2, -1448081.8, -1366907.9, 16781.27, 0.016218264, 0.15075429, -1363575.4, -51727.438, 0.0, 9.999071, 10.000144 
3.1499746e+2, 1.7613964e+2, -1307447.3, -1247170.9, 15687.268, -0.0022046433, 0.1650343, -1243332.5, -29486.174, 0.0, 9.999359, 10.0001545 
3.1500328e+2, 1.8613954e+2, -1197051.9, -1180105.0, 19207.473, -0.011206336, 0.1583731, -1167585.0, -51737.95, 0.0, 9.999602, 9.999825 
3.150092e+2, 1.9613919e+2, -1068636.1, -1069666.3, 22398.992, -0.010880115, 0.13759556, -1046746.25, -28897.076, 0.0, 9.999821, 9.9998045 
3.150153e+2, 2.061386e+2, -964806.8, -1031607.75, 30043.486, -0.01573727, 0.12922524, -953282.9, -33429.125, 0.0, 10.000131, 9.999244 
3.1502146e+2, 2.1613784e+2, -811453.1, -904761.9, 25900.729, -0.025094192, 0.12629062, -804745.75, 17114.406, 0.0, 10.000502, 9.999263 
3.1502795e+2, 2.2613665e+2, -677562.1, -815829.06, 33996.934, -0.018169247, 0.09412462, -669655.2, 54214.203, 0.0, 10.000861, 9.999027 
3.150347e+2, 2.361352e+2, -530062.3, -696779.6, 35103.977, -0.0002157557, 0.04153843, -522972.34, 102908.24, 0.0, 10.001214, 9.999002 
3.150415e+2, 2.461337e+2, -424307.38, -661310.4, 43195.23, 0.0020375196, 0.024992283, -416680.22, 111213.18, 0.0, 10.001553, 9.99841 
3.150483e+2, 2.561322e+2, -278170.03, -540106.1, 38439.24, -0.0058740065, 0.0301146, -272645.56, 157261.89, 0.0, 10.0018835, 9.99841 
3.1505537e+2, 2.661303e+2, -159317.08, -478154.5, 37259.605, 0.0057964525, 0.022612546, -155020.78, 176903.75, 0.0, 10.002226, 9.997997 
3.1506255e+2, 2.761281e+2, -10190.972, -355335.56, 36683.34, 0.030232463, 0.003192341, -6335.195, 227608.78, 0.0, 10.002576, 9.997999 
3.1506962e+2, 2.861255e+2, 107478.94, -292078.25, 36209.3, 0.035579883, -0.035870053, 110733.836, 246701.11, 0.0, 10.002902, 9.997604 
3.1507653e+2, 2.9612267e+2, 252382.3, -168592.47, 30360.17, 0.028730767, -0.08392943, 254560.56, 292553.25, 0.0, 10.003212, 9.99763 
3.1508347e+2, 3.0612066e+2, 350003.56, -101296.41, 18437.09, 0.042219825, -0.043560598, 350755.53, 350755.53, 0.0, 10.003568, 9.997586 
3.1508988e+2, 3.161184e+2, 409387.47, -68110.11, 19385.568, 0.016591316, -0.029553184, 410173.22, 410173.22, 0.0, 10.003956, 9.997627 
3.2496563e+2, 1.261297e+2, -1999081.6, -1718268.9, -3223.4463, -0.0064485944, 0.05332106, -1718231.9, -14295.72, 0.00000007294155, 9.997476, 10.001193 
3.249722e+2, 1.3613118e+2, -1841809.9, -1604506.5, 11412.266, 0.012020002, 0.0896283, -1603959.0, 1963.5138, 0.00000000003860718, 9.997937, 10.00108 
3.249782e+2, 1.4613196e+2, -1727472.1, -1548977.6, 2219.208, -0.01414838, 0.08489905, -1548950.1, -41034.008, 0.0, 9.998266, 10.000628 
3.2498455e+2, 1.5613286e+2, -1596699.6, -1436836.1, 2432.4868, 0.009262381, 0.110230915, -1436799.1, -26890.266, 0.0, 9.998498, 10.000613 
3.2499075e+2, 1.6613346e+2, -1483594.1, -1385202.4, 6146.5156, 0.014305276, 0.1363752, -1384819.9, -72915.38, 0.0, 9.998833, 10.0001335 
3.249968e+2, 1.7613384e+2, -1325823.9, -1257647.9, 6870.7896, -0.0016080644, 0.1568844, -1256962.3, -43059.707, 0.0, 9.99924, 10.000139 
3.250029e+2, 1.8613376e+2, -1202956.8, -1188325.0, 3815.7969, -0.0074453223, 0.15524586, -1187389.6, -71486.48, 0.0, 9.999585, 9.999777 
3.2500917e+2, 1.9613339e+2, -1062265.6, -1072587.5, -19.31534, -0.0032449542, 0.13830836, -1062265.5, -44359.965, 0.0, 9.99989, 9.999751 
3.2501557e+2, 2.061327e+2, -960901.7, -1039960.1, 10211.044, -0.0059391055, 0.12493658, -959604.1, -39692.773, 0.0, 10.000202, 9.999152 
3.2502207e+2, 2.1613173e+2, -815055.9, -916183.4, 10614.73, -0.014409398, 0.11145551, -813953.75, 7965.904, 0.0, 10.000519, 9.999176 
3.250289e+2, 2.2613052e+2, -677553.7, -821675.44, 19987.73, -0.011131767, 0.0821166, -674833.0, 49096.26, 0.0, 10.000887, 9.998975 
3.2503596e+2, 2.3612909e+2, -523068.0, -699551.06, 17925.354, 0.00035360816, 0.04104197, -521265.75, 104674.305, 0.0, 10.001288, 9.998947 
3.2504308e+2, 2.4612758e+2, -420544.6, -668904.5, 24934.115, 0.0028934958, 0.028899787, -418066.06, 109887.29, 0.0, 10.001619, 9.998325 
3.2505026e+2, 2.56126e+2, -280445.94, -550053.6, 24165.863, -0.0003388913, 0.033888612, -278297.0, 151671.52, 0.0, 10.001905, 9.998331 
3.2505766e+2, 2.6612404e+2, -155477.55, -481827.13, 25736.932, 0.009992595, 0.028864615, -153460.33, 178525.72, 0.0, 10.002276, 9.997949 
3.250652e+2, 2.7612188e+2, 4398.184, -353906.56, 22329.252, 0.029083285, 0.0134865325, 5784.362, 239789.84, 0.0, 10.002701, 9.99795 
3.2507256e+2, 2.8611916e+2, 117154.055, -294883.5, 18950.072, 0.037918642, -0.029714713, 118023.76, 254053.38, 0.0, 10.003001, 9.997538 
3.2507986e+2, 2.9611614e+2, 249392.06, -176925.38, 16893.365, 0.04031603, -0.08698073, 250060.44, 288116.84, 0.0, 10.0032215, 9.997568 
3.250871e+2, 3.0611414e+2, 350556.13, -104351.55, 8459.339, 0.046418026, -0.045614917, 350713.38, 350713.38, 0.0, 10.003587, 9.997556 
3.2509378e+2, 3.1611156e+2, 421267.8, -63917.31, 3674.1987, 0.007459193, -0.05377936, 421295.63, 421295.63, 0.0, 10.0040455, 9.997613 
3.349628e+2, 1.2612328e+2, -1996883.3, -1713574.3, 13647.177, -0.040277604, 0.023721637, -1712918.4, -8920.625, 0.00000025481785, 9.997475, 10.001226 
3.349701e+2, 1.3612513e+2, -1840704.8, -1601195.6, 28053.988, 0.009324207, 0.09582486, -1597953.5, 8027.602, 0.0000000058941185, 9.997932, 10.001104 
3.3497643e+2, 1.46126e+2, -1726044.3, -1545047.0, 11143.727, -0.017051123, 0.097212344, -1544363.4, -36389.473, 0.0, 9.998261, 10.000657 
3.3498293e+2, 1.5612671e+2, -1594701.8, -1432637.4, 11909.898, -0.0014159733, 0.10006435, -1431766.8, -21798.531, 0.0, 9.998498, 10.000642 
3.3498952e+2, 1.6612726e+2, -1482128.3, -1382362.5, 21437.45, 0.008021985, 0.11600035, -1377951.1, -65986.76, 0.0, 9.998834, 10.000153 
3.349961e+2, 1.7612763e+2, -1326019.4, -1257824.9, 21832.803, 0.0043433146, 0.13510747, -1251433.9, -37471.66, 0.0, 9.999239, 10.000139 
3.350026e+2, 1.8612757e+2, -1213506.3, -1209900.0, 15288.64, 0.002751682, 0.14506643, -1196308.6, -80345.58, 0.0, 9.999584, 9.999629 
3.3500913e+2, 1.9612727e+2, -1071826.5, -1092323.5, 11526.96, 0.005908049, 0.14791372, -1066650.9, -48685.133, 0.0, 9.99989, 9.999616 
3.3501586e+2, 2.0612635e+2, -963160.56, -1044645.6, 22137.408, 0.0057538026, 0.12122363, -957534.8, -37561.39, 0.0, 10.000202, 9.99912 
3.3502275e+2, 2.16125e+2, -817667.25, -921701.94, 22955.016, 0.0020415091, 0.073126696, -812827.44, 9157.097, 0.0, 10.000519, 9.999139 
3.3502984e+2, 2.2612384e+2, -683800.5, -834789.8, 35126.047, -0.0038070704, 0.0565129, -676028.8, 47965.047, 0.0, 10.000887, 9.998885 
3.3503714e+2, 2.3612277e+2, -528870.56, -711642.94, 32542.082, -0.010331094, 0.058930133, -523249.4, 102752.766, 0.0, 10.001288, 9.998865 
3.3504465e+2, 2.4612124e+2, -422971.2, -674078.1, 35581.31, -0.0036848923, 0.051350176, -418026.75, 109989.055, 0.0, 10.001619, 9.99829 
3.3505228e+2, 2.5611943e+2, -283076.25, -555792.44, 35365.41, 0.01157439, 0.035575375, -278564.75, 151468.34, 0.0, 10.001907, 9.998291 
3.3506e+2, 2.6611736e+2, -160989.23, -493412.03, 41570.24, 0.017589936, 0.024376547, -155869.63, 176182.13, 0.0, 10.002276, 9.997869 
3.3506775e+2, 2.7611515e+2, -789.71405, -364325.53, 37318.31, 0.01735274, 0.012328422, 3001.6099, 237073.25, 0.0, 10.002699, 9.997878 
3.3507547e+2, 2.8611243e+2, 115376.445, -298417.53, 26978.027, 0.02731557, -0.02671019, 117127.91, 253223.61, 0.0, 10.003, 9.997514 
3.3508313e+2, 2.9610944e+2, 247406.14, -181594.53, 25912.033, 0.044506885, -0.07938795, 248965.58, 287087.72, 0.0, 10.003223, 9.997535 
3.3509076e+2, 3.0610725e+2, 343920.88, -118508.86, 25506.367, 0.053885303, -0.047622032, 345323.5, 345323.5, 0.0, 10.003589, 9.997458 
3.3509794e+2, 3.1610408e+2, 416278.06, -73935.336, 19952.973, 0.016081193, -0.105444886, 417088.88, 417088.88, 0.0, 10.004044, 9.997545 
3.4495997e+2, 1.2611657e+2, -2045699.3, -1727836.9, -18281.484, -0.051456124, 0.025878653, -1726788.9, -22725.77, 0.00000066099744, 9.997101, 10.001308 
3.449678e+2, 1.3611847e+2, -1913109.3, -1628095.9, 365.60025, 0.013370299, 0.0944738, -1628095.4, -22049.195, 0.000000050287014, 9.997401, 10.001176 
3.449745e+2, 1.4611939e+2, -1780974.0, -1565283.8, -13186.789, -0.019354915, 0.09469326, -1564480.5, -56442.16, 0.0000000000012273421, 9.997858, 10.000712 
3.449813e+2, 1.5612008e+2, -1603506.8, -1431171.6, -11051.452, -0.009347636, 0.08963996, -1430465.8, -20433.225, 0.0, 9.998413, 10.000692 
3.4498826e+2, 1.661206e+2, -1491745.1, -1386159.4, -4236.076, 0.0012532977, 0.10377805, -1385989.8, -73961.25, 0.0, 9.998764, 10.000159 
3.4499517e+2, 1.7612101e+2, -1363151.9, -1276045.8, -4343.2324, 0.0019643363, 0.12581679, -1275829.6, -61803.652, 0.0, 9.998985, 10.000136 
3.4500206e+2, 1.8612097e+2, -1249552.3, -1236982.4, -5293.7163, 0.00013538593, 0.14002548, -1235050.0, -119022.79, 0.0, 9.999378, 9.999542 
3.4500897e+2, 1.961206e+2, -1077711.8, -1103624.3, -4680.0806, 0.0005299996, 0.14778021, -1076892.4, -58861.52, 0.0, 9.9998865, 9.99954 
3.4501612e+2, 2.0611964e+2, -943963.1, -1034769.06, 7828.331, 0.002933663, 0.119590245, -943293.2, -23254.266, 0.0, 10.000331, 9.9991255 
3.4502336e+2, 2.1611826e+2, -787302.94, -908128.1, 11382.045, 0.005091523, 0.0658242, -786240.06, 35809.953, 0.0, 10.000732, 9.999129 
3.4503084e+2, 2.2611704e+2, -667642.7, -841600.5, 22190.225, -0.0014491618, 0.053098403, -664856.7, 59203.125, 0.0, 10.001061, 9.9987545 
3.450384e+2, 2.3611595e+2, -529548.4, -726124.56, 16596.25, -0.012889392, 0.06565329, -528157.06, 97911.92, 0.0, 10.001345, 9.998738 
3.4504628e+2, 2.4611433e+2, -415628.97, -680657.7, 16441.635, -0.004397837, 0.058296744, -414612.88, 113471.02, 0.0, 10.001714, 9.998199 
3.4505436e+2, 2.5611234e+2, -255190.86, -551542.0, 11876.044, 0.017102152, 0.036313355, -254715.7, 175387.06, 0.0, 10.002138, 9.998209 
3.450624e+2, 2.661102e+2, -144402.63, -487982.63, 16884.895, 0.024628676, 0.02296928, -143574.83, 188547.11, 0.0, 10.002401, 9.997846 
3.4507042e+2, 2.7610797e+2, -22790.705, -378173.9, 16923.484, 0.022925215, 0.011291531, -21986.623, 212155.11, 0.0, 10.002562, 9.997849 
3.4507847e+2, 2.861052e+2, 96110.805, -316922.06, 7444.538, 0.031049278, -0.027602313, 96244.945, 232411.42, 0.0, 10.002907, 9.997431 
3.4508643e+2, 2.9610214e+2, 264132.1, -181669.0, 2002.4562, 0.046042558, -0.07984757, 264141.06, 302335.2, 0.0, 10.003373, 9.997463 
3.4509438e+2, 3.061e+2, 351961.8, -112585.68, 3103.4907, 0.055714883, -0.038220204, 351982.53, 351982.53, 0.0, 10.003634, 9.997477 
3.4510192e+2, 3.1609678e+2, 378451.03, -86335.555, 5335.421, 0.026455747, -0.107860625, 378512.25, 378512.25, 0.0, 10.003758, 9.997598 
3.5495716e+2, 1.2610957e+2, -2037521.5, -1709005.8, -7689.3306, -0.04010276, 0.060268607, -1708825.9, -4693.471, 0.0000013452728, 9.997092, 10.001442 
3.549653e+2, 1.3611116e+2, -1904983.3, -1611037.4, 12843.354, 0.0230544, 0.08572163, -1610477.3, -4359.5444, 0.00000017487064, 9.9974, 10.001294 
3.5497233e+2, 1.4611208e+2, -1775255.5, -1553550.0, 7766.4517, -0.021994585, 0.07722389, -1553278.3, -45169.02, 0.0000000006565857, 9.997858, 10.000793 
3.5497966e+2, 1.5611291e+2, -1598776.5, -1420940.5, 8483.494, -0.014489251, 0.07869099, -1420536.8, -10434.98, 0.0, 9.998411, 10.000764 
3.5498694e+2, 1.6611356e+2, -1492500.5, -1387360.0, 3950.74, -0.005982515, 0.09951871, -1387211.8, -75114.984, 0.0, 9.998762, 10.000153 
3.5499406e+2, 1.7611402e+2, -1363845.3, -1277407.3, 5124.2466, -0.009154186, 0.12891266, -1277104.6, -63010.69, 0.0, 9.998985, 10.000127 
3.5500124e+2, 1.8611392e+2, -1251389.6, -1240800.8, 13843.666, -0.015631653, 0.1401106, -1231273.6, -115177.88, 0.0, 9.999378, 9.9995165 
3.5500863e+2, 1.9611345e+2, -1078978.3, -1106206.8, 14112.523, -0.019471288, 0.13794611, -1072983.5, -54882.52, 0.0, 9.999886, 9.999522 
3.5501626e+2, 2.061126e+2, -941069.75, -1028694.8, 22967.66, -0.01441087, 0.11996286, -935414.56, -15306.723, 0.0, 10.000331, 9.999167 
3.55024e+2, 2.1611148e+2, -786007.94, -905352.2, 26016.986, -0.0052839075, 0.089258865, -780582.8, 41533.258, 0.0, 10.000731, 9.999148 
3.5503188e+2, 2.2611016e+2, -679697.8, -866660.5, 32797.824, -0.0041715824, 0.07167787, -674111.2, 50016.04, 0.0, 10.001061, 9.998583 
3.550398e+2, 2.3610865e+2, -541330.75, -750746.3, 27807.152, -0.0076109595, 0.061392546, -537701.3, 88439.18, 0.0, 10.001346, 9.998569 
3.5504806e+2, 2.4610683e+2, -425745.03, -701772.4, 32410.613, 0.0005583399, 0.049933605, -421990.53, 106167.09, 0.0, 10.001714, 9.9980545 
3.550565e+2, 2.5610477e+2, -263974.97, -569579.6, 26698.896, 0.016200067, 0.03603705, -261659.98, 168517.45, 0.0, 10.002137, 9.998086 
3.5506487e+2, 2.6610264e+2, -142147.97, -483366.78, 22681.736, 0.030893743, 0.024525357, -140646.86, 191549.7, 0.0, 10.002401, 9.997877 
3.550732e+2, 2.7610037e+2, -21616.541, -376342.7, 23982.371, 0.045127828, 0.01054384, -20002.48, 214213.2, 0.0, 10.002564, 9.997861 
3.550815e+2, 2.860975e+2, 86555.68, -336998.47, 24868.395, 0.048596922, -0.03210024, 88010.8, 224252.64, 0.0, 10.002908, 9.9972925 
3.5508978e+2, 2.9609427e+2, 256015.52, -197707.86, 18158.635, 0.044896957, -0.08842255, 256741.08, 295013.25, 0.0, 10.003369, 9.9973545 
3.5509795e+2, 3.0609247e+2, 360541.34, -94210.59, 7541.776, 0.0518281, -0.01820469, 360666.4, 360666.4, 0.0, 10.003632, 9.997604 
3.551058e+2, 3.1608957e+2, 390421.38, -62196.49, 9558.715, 0.037203755, -0.0648361, 390623.16, 390623.16, 0.0, 10.003761, 9.997762 
3.6495417e+2, 1.2610191e+2, -2067127.6, -1712148.4, -16926.713, -0.03648608, 0.060487855, -1711343.0, -7135.8745, 0.000002293197, 9.996841, 10.001541 
3.649627e+2, 1.3610345e+2, -1903106.3, -1600964.1, 2158.407, 0.02463955, 0.07324789, -1600948.8, 5243.626, 0.00000039420158, 9.997374, 10.001375 
3.6497006e+2, 1.4610444e+2, -1781807.3, -1551805.5, -5147.3984, -0.027811384, 0.064556226, -1551690.4, -43507.316, 0.000000005977529, 9.997792, 10.000836 
3.6497793e+2, 1.5610531e+2, -1637477.0, -1434862.0, -7727.2373, -0.0153373275, 0.0664557, -1434567.8, -24392.65, 0.0, 9.998125, 10.000806 
3.6498556e+2, 1.6610599e+2, -1522410.4, -1400666.6, -15303.37, -0.0077618626, 0.08759587, -1398772.4, -86602.484, 0.0, 9.998552, 10.000162 
3.6499298e+2, 1.7610648e+2, -1353818.8, -1271404.6, -12462.557, -0.01702935, 0.11770988, -1269561.3, -55394.367, 0.0, 9.999049, 10.000137 
3.6500058e+2, 1.8610641e+2, -1237654.1, -1234019.8, 747.6166, -0.02654133, 0.1317134, -1233871.9, -117703.3, 0.0, 9.999472, 9.999517 
3.6500838e+2, 1.9610597e+2, -1085208.1, -1109966.0, 2869.1033, -0.030951858, 0.13359576, -1084880.0, -66706.39, 0.0, 9.999846, 9.999516 
3.6501646e+2, 2.0610511e+2, -957161.6, -1044670.6, 6469.78, -0.025342215, 0.11920642, -956685.9, -36505.1, 0.0, 10.000256, 9.999094 
3.6502463e+2, 2.1610396e+2, -797322.7, -918548.56, 453.75223, -0.015002371, 0.091637716, -797320.94, 24868.719, 0.0, 10.000688, 9.999079 
3.650329e+2, 2.2610253e+2, -678708.8, -870591.4, 6940.9844, -0.008002782, 0.07045988, -678458.06, 45743.508, 0.0, 10.001087, 9.998543 
3.6504126e+2, 2.3610091e+2, -527140.2, -749169.7, 11895.658, -0.0024775506, 0.052225374, -526504.7, 99711.03, 0.0, 10.001466, 9.998522 
3.6504984e+2, 2.4609901e+2, -422028.06, -712831.8, 22944.963, 0.0030174814, 0.042427227, -420228.78, 108004.91, 0.0, 10.001795, 9.99794 
3.6505854e+2, 2.5609693e+2, -277667.3, -588135.44, 18983.861, 0.008264873, 0.03646202, -276510.84, 153743.55, 0.0, 10.002094, 9.997979 
3.6506727e+2, 2.660947e+2, -136202.48, -485423.4, 10065.364, 0.024914375, 0.027243886, -135912.63, 196361.53, 0.0, 10.002463, 9.997833 
3.6507598e+2, 2.7609244e+2, 21239.088, -360287.9, 5690.6187, 0.049297582, 0.011886693, 21323.945, 255617.72, 0.0, 10.002878, 9.99782 
3.6508456e+2, 2.8608954e+2, 106657.92, -329783.34, 7980.55, 0.055323776, -0.029663146, 106803.8, 243124.1, 0.0, 10.003057, 9.997272 
3.6509305e+2, 2.960863e+2, 212420.58, -221016.52, 9932.964, 0.04910503, -0.083093934, 212648.1, 250998.95, 0.0, 10.003079, 9.997334 
3.6510146e+2, 3.0608463e+2, 318280.16, -115519.46, -1970.8455, 0.05307396, 0.0032014018, 318289.1, 318289.1, 0.0, 10.0033455, 9.997596 
3.651096e+2, 3.1608176e+2, 395157.8, -54961.656, -10402.24, 0.040480025, -0.044171948, 395398.1, 395398.1, 0.0, 10.003772, 9.997807 
3.7495095e+2, 1.2609358e+2, -2063008.8, -1702953.4, 1793.6573, -0.04181922, 0.025744233, -1702944.5, 1343.0509, 0.000003431768, 9.996839, 10.001606 
3.7496004e+2, 1.3609535e+2, -1900527.6, -1594827.4, 21480.414, 0.01821264, 0.05655651, -1593325.4, 12944.657, 0.0000006949508, 9.99737, 10.00142 
3.7496778e+2, 1.4609645e+2, -1781798.1, -1551146.3, 7347.011, -0.0367216, 0.056393124, -1550912.5, -42652.703, 0.00000001953993, 9.997789, 10.000842 
3.7497607e+2, 1.5609728e+2, -1636895.6, -1433473.1, 5309.8228, -0.012467306, 0.052898962, -1433334.6, -23081.959, 0.0, 9.998124, 10.000816 
3.7498417e+2, 1.660979e+2, -1520434.8, -1396616.5, 3299.0337, -0.0045270445, 0.067980714, -1396528.8, -84280.8, 0.0, 9.998552, 10.00019 
3.7499198e+2, 1.7609836e+2, -1351828.5, -1267275.0, 5788.542, -0.021753196, 0.092086844, -1266880.6, -52635.42, 0.0, 9.999048, 10.000166 
3.7499997e+2, 1.860984e+2, -1235762.0, -1230086.1, 14831.605, -0.032701526, 0.11472994, -1217823.4, -101577.57, 0.0, 9.999472, 9.999545 
3.750082e+2, 1.9609818e+2, -1084997.4, -1109511.5, 17217.31, -0.034102585, 0.13465947, -1076119.9, -57870.984, 0.0, 9.999846, 9.999519 
3.7501663e+2, 2.0609719e+2, -970364.3, -1072095.3, 22786.553, -0.030039025, 0.11733381, -965493.56, -45235.82, 0.0, 10.000256, 9.998906 
3.750252e+2, 2.1609567e+2, -808327.06, -941486.06, 16589.568, -0.024229318, 0.073216274, -806291.4, 15979.349, 0.0, 10.000688, 9.998921 
3.7503394e+2, 2.260942e+2, -672362.25, -857502.06, 21225.13, -0.01309568, 0.04972926, -669960.06, 54322.785, 0.0, 10.001087, 9.998633 
3.750428e+2, 2.3609275e+2, -522054.22, -738515.4, 25766.67, 0.0023900927, 0.038250264, -519029.3, 107265.375, 0.0, 10.001465, 9.998595 
3.7505162e+2, 2.4609092e+2, -428112.06, -725384.0, 34126.3, 0.0028807514, 0.03576131, -424244.72, 104067.45, 0.0, 10.001794, 9.997854 
3.7506047e+2, 2.560888e+2, -284035.88, -601361.0, 30660.512, -0.0067151785, 0.037707377, -281100.56, 149233.02, 0.0, 10.002094, 9.997888 
3.7506953e+2, 2.6608655e+2, -144632.1, -502677.34, 25666.154, 0.00691255, 0.031198587, -142801.6, 189553.05, 0.0, 10.002462, 9.997716 
3.750787e+2, 2.760841e+2, 14213.292, -374073.88, 19757.139, 0.035768162, 0.015029831, 15216.001, 249591.94, 0.0, 10.002875, 9.997727 
3.750876e+2, 2.8608128e+2, 112682.82, -316843.44, 8640.291, 0.05120559, -0.020674305, 112856.56, 249258.36, 0.0, 10.003055, 9.997361 
3.7509623e+2, 2.9607823e+2, 217214.17, -211560.56, 12191.246, 0.058112856, -0.063963294, 217560.52, 255990.73, 0.0, 10.003082, 9.997398 
3.7510484e+2, 3.0607656e+2, 308761.75, -135549.9, 13964.399, 0.05899798, 0.02639878, 309200.2, 309200.2, 0.0, 10.003346, 9.9974575 
3.751133e+2, 3.1607327e+2, 389899.9, -64959.992, 4605.0884, 0.035531484, -0.04714349, 389946.5, 389946.5, 0.0, 10.003768, 9.99774 
3.8494775e+2, 1.2608512e+2, -2063270.6, -1700241.8, -7063.683, -0.04606234, 0.01206373, -1700104.4, 4264.757, 0.000004652705, 9.996824, 10.001631 
3.8495728e+2, 1.3608679e+2, -1920333.1, -1603254.5, 10195.431, 0.015895283, 0.032344464, -1602927.0, 3425.3555, 0.0000010439659, 9.997229, 10.00143 
3.849654e+2, 1.4608797e+2, -1807996.9, -1561775.1, -8967.833, -0.042632665, 0.038338155, -1561448.9, -53107.375, 0.000000039313953, 9.9976015, 10.00086 
3.8497412e+2, 1.5608892e+2, -1661088.9, -1442827.1, -9731.864, -0.010071362, 0.045255195, -1442394.0, -32060.52, 0.0, 9.997948, 10.000836 
3.8498265e+2, 1.6608955e+2, -1542620.4, -1404499.8, -6157.0747, -0.0030076632, 0.058767296, -1404225.9, -91897.13, 0.0, 9.998388, 10.000215 
3.8499087e+2, 1.7608994e+2, -1373149.0, -1275553.1, -4240.023, -0.02808151, 0.073783666, -1275369.3, -61042.8, 0.0, 9.998894, 10.000184 
3.8499933e+2, 1.8608998e+2, -1252108.1, -1242703.1, -1139.3718, -0.03963492, 0.097471364, -1242567.0, -126239.82, 0.0, 9.99938, 9.999502 
3.8500804e+2, 1.9608979e+2, -1086659.4, -1114660.1, -3861.1873, -0.036562905, 0.124932654, -1086136.6, -67806.27, 0.0, 9.999853, 9.99948 
3.850169e+2, 2.060888e+2, -962219.7, -1069816.8, 8215.666, -0.033474594, 0.11021717, -961596.0, -41256.57, 0.0, 10.000319, 9.998891 
3.8502586e+2, 2.1608727e+2, -796253.75, -937127.1, 14464.364, -0.03234984, 0.065599814, -794783.94, 27568.809, 0.0, 10.000777, 9.998908 
3.8503495e+2, 2.2608578e+2, -665859.5, -854390.6, 16294.101, -0.022003435, 0.041249108, -664461.6, 59903.31, 0.0, 10.001132, 9.998632 
3.8504413e+2, 2.3608431e+2, -528770.44, -741864.25, 13986.497, -0.004684154, 0.028409226, -527856.3, 98520.445, 0.0, 10.001419, 9.998594 
3.850533e+2, 2.4608247e+2, -440043.72, -732917.6, 21819.346, -0.0012870658, 0.027802708, -438427.1, 89967.07, 0.0, 10.00172, 9.997838 
3.850625e+2, 2.5608042e+2, -294586.28, -608605.9, 23650.697, -0.007314492, 0.033841204, -292815.0, 137600.4, 0.0, 10.002031, 9.997869 
3.8507187e+2, 2.660781e+2, -169651.52, -519374.56, 25250.68, 0.0017082735, 0.029099662, -167837.78, 164599.0, 0.0, 10.002311, 9.997674 
3.8508126e+2, 2.7607566e+2, -32503.957, -400379.72, 24239.22, 0.020552425, 0.013054975, -30913.717, 203545.0, 0.0, 10.00257, 9.997693 
3.850904e+2, 2.8607285e+2, 88475.07, -325780.66, 7341.214, 0.037746232, -0.021412488, 88605.125, 225089.64, 0.0, 10.002876, 9.997385 
3.8509932e+2, 2.9606983e+2, 237284.86, -200388.94, 6272.1563, 0.054207392, -0.06272919, 237374.72, 275887.16, 0.0, 10.003213, 9.997412 
3.8510823e+2, 3.0606815e+2, 308498.28, -142394.7, 11170.395, 0.062078714, 0.029888727, 308774.84, 308774.84, 0.0, 10.003374, 9.997397 
3.85117e+2, 3.160646e+2, 339464.6, -87632.18, 6706.5903, 0.04810018, -0.063438006, 339569.88, 339569.88, 0.0, 10.003415, 9.997753 
3.9494452e+2, 1.2607652e+2, -2065091.6, -1703107.3, 6567.6533, -0.049359698, 0.019430818, -1702988.1, 1463.9141, 0.000005817951, 9.99682, 10.001613 
3.9495453e+2, 1.3607778e+2, -1922470.0, -1607262.5, 25118.686, 0.017238963, 0.00066209276, -1605273.4, 1166.0157, 0.0000013925978, 9.997227, 10.001404 
3.94963e+2, 1.4607899e+2, -1806152.5, -1557711.4, 3947.1436, -0.045955926, 0.010386982, -1557648.8, -49220.445, 0.00000005997622, 9.9976, 10.000889 
3.9497212e+2, 1.5608023e+2, -1659163.8, -1438560.4, 3787.1804, -0.008229596, 0.043457683, -1438495.4, -28077.676, 0.0, 9.997947, 10.000867 
3.9498103e+2, 1.6608092e+2, -1541249.1, -1401461.4, 12789.644, -0.0033063346, 0.05992411, -1400300.9, -87888.555, 0.0, 9.998387, 10.0002365 
3.949897e+2, 1.7608121e+2, -1372647.5, -1274433.5, 14694.865, -0.036128905, 0.06282759, -1272282.0, -57871.223, 0.0, 9.998893, 10.000192 
3.9499864e+2, 1.8608113e+2, -1260131.9, -1259361.1, 16716.318, -0.047451455, 0.0799843, -1243025.8, -126612.734, 0.0, 9.999379, 9.999388 
3.9500785e+2, 1.9608077e+2, -1092445.9, -1126705.9, 13989.03, -0.038449805, 0.10451351, -1087459.6, -69041.484, 0.0, 9.999853, 9.999397 
3.9501718e+2, 2.0607993e+2, -951287.4, -1047093.56, 25535.787, -0.035794895, 0.09790405, -944906.2, -24480.305, 0.0, 10.000319, 9.999047 
3.9502656e+2, 2.160787e+2, -787261.8, -918252.3, 31102.576, -0.039531298, 0.068620086, -780251.94, 42183.72, 0.0, 10.000776, 9.999039 
3.9503595e+2, 2.2607724e+2, -672308.06, -867583.2, 27105.547, -0.034803078, 0.044795852, -668615.5, 55832.375, 0.0, 10.001131, 9.998543 
3.9504534e+2, 2.3607558e+2, -534032.94, -752760.56, 24849.277, -0.023625521, 0.02269368, -531245.44, 95216.56, 0.0, 10.001419, 9.99852 
3.9505497e+2, 2.4607371e+2, -436456.25, -725473.2, 33454.684, -0.009588768, 0.018636152, -432634.28, 95845.34, 0.0, 10.00172, 9.9978895 
3.9506465e+2, 2.560717e+2, -291188.44, -601453.4, 35056.75, 0.0059766606, 0.024901284, -287276.72, 143223.14, 0.0, 10.002031, 9.997918 
3.9507422e+2, 2.6606947e+2, -167402.69, -514638.3, 34844.258, 0.008785361, 0.021039722, -163940.67, 168579.9, 0.0, 10.00231, 9.997707 
3.9508367e+2, 2.7606705e+2, -30892.928, -396985.7, 34111.863, 0.0034854214, 0.00636885, -27741.574, 206800.53, 0.0, 10.00257, 9.997717 
3.9509305e+2, 2.8606418e+2, 85524.12, -331570.28, 19842.822, 0.0150731485, -0.03128162, 86465.984, 223034.44, 0.0, 10.002875, 9.997346 
3.9510235e+2, 2.9606107e+2, 234393.38, -205604.67, 17628.193, 0.03770789, -0.078874156, 235098.52, 273696.03, 0.0, 10.00321, 9.997377 
3.9511162e+2, 3.060594e+2, 308990.75, -140914.19, 12520.432, 0.062090896, 0.014303287, 309338.9, 309338.9, 0.0, 10.003371, 9.997409 
3.951207e+2, 3.160557e+2, 345774.94, -74831.836, 7910.9155, 0.07604606, -0.095098644, 345923.7, 345923.7, 0.0, 10.003416, 9.997841 
4.049414e+2, 1.2606744e+2, -2052534.6, -1700892.0, -9662.239, -0.04955083, 0.013829228, -1700626.6, 3913.3875, 0.0000067594556, 9.996923, 10.001578 
4.0495172e+2, 1.3606858e+2, -1936551.8, -1618818.8, 9695.628, 0.019488512, -0.011121584, -1618523.3, -11994.539, 0.0000016759602, 9.99715, 10.001361 
4.0496048e+2, 1.4606982e+2, -1811957.4, -1557470.6, -8458.235, -0.05282947, 0.0017792517, -1557189.8, -48672.37, 0.00000007424828, 9.997547, 10.0009165 
4.0497002e+2, 1.5607114e+2, -1642438.8, -1427716.9, -9044.192, -0.015339995, 0.038694907, -1427336.6, -16830.363, 0.0, 9.99805, 10.000892 
4.049794e+2, 1.6607183e+2, -1529968.6, -1396285.6, -968.0436, -0.008482802, 0.05539079, -1396278.6, -83777.82, 0.0, 9.998466, 10.000235 
4.049885e+2, 1.7607209e+2, -1381836.6, -1278510.9, -619.5957, -0.039075926, 0.05651759, -1278507.1, -64007.75, 0.0, 9.998829, 10.000195 
4.0499792e+2, 1.8607204e+2, -1271357.1, -1260336.5, 9706.89, -0.051655527, 0.07321325, -1254685.0, -138183.55, 0.0, 9.999284, 9.999428 
4.050076e+2, 1.9607174e+2, -1097476.0, -1124872.4, 17916.248, -0.045748703, 0.09810252, -1088621.4, -70115.27, 0.0, 9.999801, 9.999435 
4.0501738e+2, 2.0607093e+2, -965844.2, -1051786.9, 24438.84, -0.04368009, 0.09254146, -959380.8, -38867.402, 0.0, 10.000209, 9.999068 
4.0502715e+2, 2.1606973e+2, -820169.75, -932427.4, 19631.273, -0.046461895, 0.064545445, -816835.7, 5687.1753, 0.0, 10.000543, 9.999054 
4.0503693e+2, 2.2606827e+2, -705165.4, -887689.56, 12431.301, -0.040518634, 0.042851835, -704322.6, 20212.648, 0.0, 10.000924, 9.998505 
4.050467e+2, 2.3606661e+2, -547859.94, -762362.5, 13780.863, -0.028005095, 0.02360506, -546978.2, 79571.68, 0.0, 10.001337, 9.998493 
4.050566e+2, 2.4606474e+2, -433297.03, -716181.0, 24059.42, -0.01512756, 0.01697138, -431265.38, 97301.95, 0.0, 10.001708, 9.997958 
4.050666e+2, 2.5606272e+2, -283511.1, -590705.4, 26548.639, -0.0023903807, 0.016897677, -281233.56, 149353.27, 0.0, 10.002053, 9.997981 
4.0507647e+2, 2.6606047e+2, -168447.45, -515219.25, 21952.32, 0.0042173415, 0.009336342, -167063.28, 165544.17, 0.0, 10.002303, 9.997706 
4.0508625e+2, 2.7605805e+2, -42100.58, -402224.97, 19043.137, 0.007297353, -0.007247458, -41096.39, 193532.94, 0.0, 10.002492, 9.997718 
4.0509588e+2, 2.860552e+2, 63264.6, -340015.56, 8730.192, 0.01901032, -0.04449502, 63453.504, 200109.13, 0.0, 10.002712, 9.997367 
4.0510544e+2, 2.9605213e+2, 198813.39, -219970.28, 10343.202, 0.035972666, -0.09006691, 199068.7, 237753.06, 0.0, 10.002954, 9.997402 
4.051149e+2, 3.060505e+2, 288357.22, -143898.38, 4659.457, 0.062260736, 0.005395374, 288407.44, 288407.44, 0.0, 10.0032, 9.997471 
4.0512425e+2, 3.1604674e+2, 360459.0, -52127.105, 3037.5278, 0.087780096, -0.11859363, 360481.34, 360481.34, 0.000000000010644798, 10.003449, 9.997981 
4.1493836e+2, 1.2605788e+2, -2056317.3, -1708446.5, -3324.4365, -0.04685693, -0.0051340437, -1708414.8, -3781.4697, 0.0000073152505, 9.996922, 10.001528 
4.149489e+2, 1.3605922e+2, -1940937.9, -1627556.0, 19122.027, 0.022635268, -0.0027804403, -1626393.5, -19773.121, 0.0000018222407, 9.9971485, 10.001302 
4.149579e+2, 1.4606048e+2, -1810474.4, -1553969.9, 10470.6455, -0.063381195, 0.012791471, -1553543.1, -44934.22, 0.00000007352536, 9.997545, 10.000941 
4.149679e+2, 1.5606163e+2, -1641119.3, -1424851.8, 9249.734, -0.031637147, 0.031078974, -1424456.9, -13857.667, 0.0, 9.998049, 10.000912 
4.1497776e+2, 1.6606228e+2, -1532007.9, -1400531.6, 12480.734, -0.018684685, 0.045251627, -1399357.4, -86763.28, 0.0, 9.998466, 10.000205 
4.1498736e+2, 1.7606261e+2, -1382188.1, -1279125.3, 13592.046, -0.03706001, 0.054865163, -1277362.9, -62770.48, 0.0, 9.998828, 10.000192 
4.149972e+2, 1.8606271e+2, -1257952.4, -1232365.0, 29186.105, -0.05242112, 0.07713006, -1213291.6, -96699.15, 0.0, 9.999283, 9.99962 
4.1500726e+2, 1.9606264e+2, -1086440.1, -1101851.0, 36768.727, -0.058586754, 0.10557128, -1056578.1, -37983.87, 0.0, 9.9998, 9.999594 
4.1501743e+2, 2.0606177e+2, -973973.9, -1068611.8, 36989.855, -0.05721654, 0.09410069, -961231.75, -40629.625, 0.0, 10.000208, 9.998953 
4.1502762e+2, 2.1606036e+2, -827212.3, -947061.94, 32599.191, -0.053259008, 0.053544406, -818919.1, 3695.2366, 0.0, 10.000543, 9.998954 
4.1503784e+2, 2.2605889e+2, -704378.44, -885995.3, 28023.973, -0.03944468, 0.035487704, -700152.56, 24474.602, 0.0, 10.000924, 9.998516 
4.1504812e+2, 2.3605737e+2, -546609.4, -759656.6, 29060.252, -0.018253919, 0.03091136, -542716.6, 83923.92, 0.0, 10.001336, 9.998512 
4.1505828e+2, 2.4605554e+2, -427279.56, -703522.44, 36974.363, -0.018059902, 0.022627102, -422416.25, 106240.96, 0.0, 10.001707, 9.998046 
4.150684e+2, 2.560535e+2, -278430.25, -579866.3, 38860.277, -0.031979267, 0.009930461, -273501.1, 157175.22, 0.0, 10.002051, 9.998056 
4.150786e+2, 2.6605117e+2, -170914.63, -520125.25, 28940.164, -0.01192643, -0.0057668774, -168532.52, 164164.89, 0.0, 10.002302, 9.997673 
4.1508895e+2, 2.7604863e+2, -43688.89, -405428.6, 26251.607, 0.031072497, -0.027668172, -41793.73, 192926.6, 0.0, 10.002491, 9.997697 
4.1509888e+2, 2.860459e+2, 68644.85, -328688.03, 17643.502, 0.04837218, -0.06101399, 69426.766, 206172.77, 0.0, 10.002711, 9.997445 
4.151085e+2, 2.96043e+2, 204259.45, -208372.73, 19214.236, 0.04816387, -0.09634162, 205152.23, 243925.22, 0.0, 10.002952, 9.997482 
4.151181e+2, 3.0604154e+2, 295945.78, -127868.43, 13837.714, 0.062353134, 0.003063733, 296397.1, 296397.1, 0.0, 10.003199, 9.9975815 
4.1512766e+2, 3.160377e+2, 373540.34, -24683.947, 11085.933, 0.08270647, -0.13724531, 373848.72, 373848.72, 0.0000000027849782, 10.0034485, 9.99817 
4.2493528e+2, 1.2604818e+2, -2055435.5, -1709764.3, -20295.67, -0.047193978, -0.0037714285, -1708576.6, -3848.1636, 0.000007399852, 9.996937, 10.001512 
4.249461e+2, 1.360495e+2, -1929863.4, -1625769.6, 7374.16, 0.022545107, 0.00021536805, -1625590.9, -18875.16, 0.0000017914846, 9.99724, 10.00127 
4.249554e+2, 1.4605075e+2, -1812416.1, -1556682.4, 2177.204, -0.07000945, 0.0172387, -1556663.8, -47959.36, 0.000000055205398, 9.9975395, 10.000925 
4.2496583e+2, 1.5605184e+2, -1674304.4, -1441881.1, -2094.3967, -0.0327888, 0.032721207, -1441862.3, -31167.07, 0.0, 9.997826, 10.000902 
4.249761e+2, 1.6605252e+2, -1558804.4, -1409189.3, 4893.4385, -0.017530547, 0.04472495, -1409029.4, -96339.44, 0.0, 9.998263, 10.000243 
4.2498618e+2, 1.7605285e+2, -1382127.4, -1274535.6, 10910.358, -0.03687724, 0.052685864, -1273440.4, -58752.496, 0.0, 9.998809, 10.000232 
4.2499647e+2, 1.86053e+2, -1256515.1, -1225260.5, 22441.219, -0.053486858, 0.07316249, -1213541.5, -96854.16, 0.0, 9.999266, 9.999677 
4.25007e+2, 1.9605297e+2, -1102989.3, -1103902.0, 19528.518, -0.060710635, 0.09974368, -1083911.8, -65223.418, 0.0, 9.999661, 9.999646 
4.2501754e+2, 2.0605211e+2, -993576.1, -1075755.4, 18919.354, -0.059681877, 0.08731568, -989429.75, -68733.83, 0.0, 10.000064, 9.998974 
4.2502812e+2, 2.1605068e+2, -836399.1, -949246.3, 24656.635, -0.055708803, 0.046210703, -831247.0, -8538.846, 0.0, 10.00047, 9.998973 
4.2503873e+2, 2.2604923e+2, -710041.4, -888749.94, 25166.664, -0.041987028, 0.027356606, -706564.94, 18156.08, 0.0, 10.000885, 9.998516 
4.250494e+2, 2.3604771e+2, -550171.4, -760048.0, 24789.203, -0.020808343, 0.021856997, -547283.2, 79451.414, 0.0, 10.001307, 9.998524 
4.250599e+2, 2.4604595e+2, -432205.2, -693298.56, 29372.389, -0.021003598, 0.012659879, -428941.66, 99808.83, 0.0, 10.001619, 9.998158 
4.250703e+2, 2.56044e+2, -299235.03, -578802.3, 32797.824, -0.035630386, -0.0010660215, -295438.88, 135329.28, 0.0, 10.001862, 9.998155 
4.250808e+2, 2.6604173e+2, -194405.61, -534066.5, 22998.994, -0.014710705, -0.015240855, -192855.38, 139933.47, 0.0, 10.0021515, 9.99765 
4.2509145e+2, 2.760392e+2, -46713.055, -408448.28, 20787.72, 0.030062588, -0.0339317, -45522.375, 189289.7, 0.0, 10.002478, 9.997683 
4.2510158e+2, 2.8603643e+2, 70194.69, -321525.8, 9392.876, 0.048972923, -0.07185068, 70419.78, 207257.67, 0.0, 10.002694, 9.997502 
4.251114e+2, 2.960335e+2, 190897.69, -209396.52, 9682.238, 0.050414808, -0.11715849, 191131.73, 229996.73, 0.0, 10.002836, 9.997531 
4.2512125e+2, 3.0603212e+2, 278231.13, -138796.64, 1406.1608, 0.062834755, -0.00730403, 278235.88, 278235.88, 0.0, 10.003087, 9.99756 
4.2513108e+2, 3.1602845e+2, 372779.28, -17645.316, -11915.8545, 0.08195485, -0.1327319, 373142.63, 373142.63, 0.000000013858652, 10.003411, 9.998236 
4.3493217e+2, 1.2603836e+2, -2054463.1, -1707310.8, -11162.916, -0.051226053, 0.018393071, -1706952.1, -2126.4224, 0.0000070344795, 9.996935, 10.00153 
4.349433e+2, 1.3603945e+2, -1930173.6, -1626537.1, 18866.455, 0.018890724, -0.0020901782, -1625369.4, -18554.537, 0.0000016069694, 9.99724, 10.001266 
4.3495288e+2, 1.4604065e+2, -1816767.6, -1565543.4, 12811.472, -0.072837114, 0.0150511395, -1564891.8, -56087.816, 0.000000030249723, 9.997539, 10.000865 
4.3496376e+2, 1.5604183e+2, -1677426.9, -1447912.8, 9427.847, -0.018693447, 0.043561604, -1447526.1, -36731.957, 0.0, 9.997824, 10.000862 
4.349745e+2, 1.660425e+2, -1551724.4, -1394095.1, 25407.734, -0.005052686, 0.053725764, -1390101.0, -77312.52, 0.0, 9.998261, 10.000348 
4.3498495e+2, 1.7604282e+2, -1376243.9, -1262201.1, 30975.684, -0.038775336, 0.04999096, -1254330.9, -39544.98, 0.0, 9.998808, 10.000317 
4.349957e+2, 1.8604288e+2, -1262194.5, -1236988.5, 37284.84, -0.05508833, 0.06143266, -1210234.3, -93448.19, 0.0, 9.999265, 9.999597 
4.350067e+2, 1.9604269e+2, -1106869.0, -1111879.5, 34492.47, -0.05227213, 0.08076703, -1074790.9, -56002.504, 0.0, 9.9996605, 9.999592 
4.3501768e+2, 2.0604195e+2, -982804.75, -1053312.1, 34276.0, -0.051282007, 0.07216399, -968888.7, -48093.93, 0.0, 10.000063, 9.999127 
4.3502855e+2, 2.1604079e+2, -826854.7, -929345.8, 40058.58, -0.054032724, 0.04242582, -813055.7, 9748.459, 0.0, 10.000469, 9.99911 
4.3503955e+2, 2.2603934e+2, -711057.75, -890734.9, 40981.996, -0.048236195, 0.018550072, -702151.75, 22665.072, 0.0, 10.000885, 9.998503 
4.3505058e+2, 2.3603764e+2, -550139.75, -759734.25, 39947.27, -0.035563227, -0.0031396374, -542784.2, 84047.83, 0.0, 10.001305, 9.998527 
4.3506148e+2, 2.4603595e+2, -422751.3, -673507.6, 38324.38, -0.024214704, -0.012591237, -417024.78, 111822.305, 0.0, 10.001618, 9.998295 
4.3507236e+2, 2.5603426e+2, -290755.84, -561225.3, 41988.566, -0.01431446, -0.015974613, -284387.34, 146475.0, 0.0, 10.001862, 9.998276 
4.3508306e+2, 2.6603213e+2, -195402.48, -536130.06, 35058.816, -0.004648334, -0.019220663, -191832.55, 141049.27, 0.0, 10.0021515, 9.997636 
4.3509367e+2, 2.7602974e+2, -47498.64, -409746.2, 32242.592, 0.005020522, -0.026474738, -44651.203, 190253.4, 0.0, 10.002476, 9.997675 
4.35104e+2, 2.8602684e+2, 72813.875, -316030.0, 14635.046, 0.021649668, -0.077085294, 73363.92, 210295.25, 0.0, 10.002694, 9.99754 
4.3511418e+2, 2.960236e+2, 192518.36, -206739.42, 15476.266, 0.042937525, -0.15167513, 193117.36, 232077.66, 0.0, 10.002839, 9.997547 
4.3512434e+2, 3.0602238e+2, 268380.8, -160084.98, 13483.105, 0.063538216, -0.025261786, 268804.7, 268804.7, 0.0, 10.003091, 9.997413 
4.351345e+2, 3.1601894e+2, 369316.5, -25126.926, -782.04675, 0.08426057, -0.10929805, 369318.03, 369318.03, 0.00000003127768, 10.003412, 9.998184 
4.44929e+2, 1.260282e+2, -2066656.4, -1707856.9, -24698.676, -0.052956358, 0.037838675, -1706164.6, -1238.2463, 0.00000631539, 9.996829, 10.001576 
4.4494045e+2, 1.3602918e+2, -1938883.0, -1627965.3, 10151.1, 0.016646957, 0.0052603274, -1627634.3, -20718.139, 0.0000013346397, 9.9971695, 10.001289 
4.4495037e+2, 1.4603035e+2, -1819807.6, -1570612.5, 6268.629, -0.07793963, 0.018702501, -1570454.9, -61549.516, 0.000000013876045, 9.997534, 10.000833 
4.449617e+2, 1.5603147e+2, -1667629.6, -1446397.5, 5350.1704, -0.011857629, 0.04606726, -1446268.1, -35372.29, 0.0, 9.997905, 10.0008335 
4.4497287e+2, 1.6603218e+2, -1539399.3, -1388959.0, 23581.133, 0.002789105, 0.05927445, -1385349.4, -72459.33, 0.0, 9.99835, 10.00034 
4.4498375e+2, 1.7603256e+2, -1371232.3, -1260258.0, 20215.707, -0.038000323, 0.06147408, -1256690.1, -41803.117, 0.0, 9.998845, 10.000313 
4.4499496e+2, 1.8603252e+2, -1261976.5, -1234481.4, 22695.893, -0.053378116, 0.0629871, -1221694.1, -104806.5, 0.0, 9.999256, 9.999618 
4.4500643e+2, 1.9603214e+2, -1112287.0, -1111811.6, 27478.08, -0.044097517, 0.061651, -1084570.1, -65679.12, 0.0, 9.999612, 9.999616 
4.4501776e+2, 2.0603141e+2, -989878.75, -1052714.1, 25950.48, -0.04500695, 0.05373439, -980547.2, -59650.305, 0.0, 9.999998, 9.999164 
4.45029e+2, 2.1603046e+2, -833817.3, -928149.2, 22708.877, -0.055318415, 0.039294332, -828635.25, -5730.5674, 0.0, 10.000402, 9.99915 
4.4504032e+2, 2.2602905e+2, -721804.25, -886222.6, 23556.87, -0.05325213, 0.014255667, -718495.75, 6420.972, 0.0, 10.00077, 9.9985895 
4.450517e+2, 2.3602733e+2, -572840.4, -761311.8, 29506.9, -0.04171564, -0.019997563, -568328.8, 58603.156, 0.0, 10.001109, 9.9986105 
4.4506302e+2, 2.4602567e+2, -441336.44, -677119.4, 24603.82, -0.025887307, -0.032154, -438796.4, 90150.29, 0.0, 10.001468, 9.9983425 
4.450743e+2, 2.5602406e+2, -289621.38, -554245.44, 21593.002, -0.007848674, -0.031339757, -287871.0, 143090.31, 0.0, 10.001842, 9.998333 
4.450852e+2, 2.6602212e+2, -191801.13, -518676.94, 17224.36, -0.0032452838, -0.027348552, -190896.02, 142083.05, 0.0, 10.002109, 9.997776 
4.4509593e+2, 2.7601993e+2, -63645.234, -403634.0, 25734.012, -0.007188765, -0.025562562, -61708.44, 173291.02, 0.0, 10.002305, 9.997799 
4.4510657e+2, 2.86017e+2, 66654.33, -321243.3, 11930.304, 0.010271979, -0.082654655, 67020.914, 204047.19, 0.0, 10.002662, 9.99752 
4.4511712e+2, 2.9601365e+2, 232017.44, -191461.78, 8153.031, 0.041836157, -0.17412251, 232174.34, 271231.34, 0.0, 10.003127, 9.997514 
4.451276e+2, 3.0601236e+2, 304055.2, -158362.4, 2429.548, 0.06586774, -0.038782135, 304067.94, 304067.94, 0.0, 10.003403, 9.997273 
4.45138e+2, 3.1600904e+2, 384854.47, -22697.385, -11924.583, 0.086951464, -0.09995184, 385203.06, 385203.06, 0.000000050440626, 10.003541, 9.998138 
4.5492584e+2, 1.2601767e+2, -2061730.6, -1696924.6, -14912.183, -0.052994594, 0.054010756, -1696316.1, 8714.571, 0.0000053674253, 9.996825, 10.001653 
4.5493764e+2, 1.3601874e+2, -1935336.4, -1620131.6, 23156.404, 0.015713492, 0.022169502, -1618439.5, -11420.0205, 0.0000010357217, 9.997167, 10.001345 
4.5494783e+2, 1.4601986e+2, -1820482.3, -1571660.5, 20333.514, -0.085695915, 0.028051414, -1570009.8, -61000.92, 0.000000007555667, 9.997532, 10.000826 
4.549596e+2, 1.5602084e+2, -1668945.0, -1449185.0, 19818.148, -0.012913485, 0.040185384, -1447412.1, -36411.703, 0.0, 9.997905, 10.000814 
4.5497125e+2, 1.6602153e+2, -1547883.1, -1406616.0, 42129.11, 0.005592085, 0.061427053, -1395006.3, -82011.56, 0.0, 9.99835, 10.000219 
4.5498267e+2, 1.7602204e+2, -1378112.4, -1274347.0, 38308.13, -0.034570843, 0.08714373, -1261736.9, -46745.67, 0.0, 9.998844, 10.0002165 
4.5499426e+2, 1.860219e+2, -1253608.8, -1216896.9, 36072.73, -0.0484407, 0.077728465, -1194778.4, -77786.3, 0.0, 9.999255, 9.99974 
4.550061e+2, 1.9602129e+2, -1105299.3, -1097225.3, 41091.67, -0.036414366, 0.042310618, -1059972.8, -40976.418, 0.0, 9.999612, 9.999716 
4.550178e+2, 2.0602055e+2, -995717.75, -1064847.6, 41152.492, -0.04101096, 0.032057878, -976540.1, -55537.797, 0.0, 9.999998, 9.99908 
4.5502934e+2, 2.1601972e+2, -837848.75, -936434.3, 37766.09, -0.059674513, 0.03689598, -825044.4, -2034.7173, 0.0, 10.000402, 9.999094 
4.5504105e+2, 2.260184e+2, -709093.9, -859712.2, 36313.855, -0.05720738, 0.014421138, -700795.8, 24224.896, 0.0, 10.000769, 9.998772 
4.5505282e+2, 2.3601677e+2, -561598.44, -737925.06, 42289.55, -0.039548125, -0.028870232, -551980.44, 75054.01, 0.0, 10.001108, 9.998771 
4.5506448e+2, 2.460151e+2, -444065.3, -682766.9, 38534.176, -0.02609555, -0.04608682, -437998.8, 91050.46, 0.0, 10.001468, 9.998303 
4.55076e+2, 2.5601342e+2, -290162.4, -555055.4, 34927.46, -0.01597649, -0.047156677, -285634.44, 145430.55, 0.0, 10.00184, 9.998328 
4.550872e+2, 2.660117e+2, -171759.97, -476793.84, 24405.299, -0.010455955, -0.03950481, -169819.69, 163260.88, 0.0, 10.002108, 9.998065 
4.550982e+2, 2.7600986e+2, -46006.258, -367113.3, 33772.273, -0.007264483, -0.030743476, -42492.723, 192603.89, 0.0, 10.002305, 9.99805 
4.5510924e+2, 2.8600702e+2, 61406.598, -332206.22, 29173.541, 0.014048718, -0.08840547, 63557.113, 200679.84, 0.0, 10.002662, 9.997445 
4.551203e+2, 2.9600352e+2, 226092.89, -203371.5, 24203.021, 0.046640866, -0.18512487, 227452.58, 266607.78, 0.0, 10.003125, 9.997434 
4.5513105e+2, 3.0600214e+2, 294939.78, -177486.14, 7594.8677, 0.06954442, -0.04802448, 295061.84, 295061.84, 0.0, 10.003403, 9.997142 
4.5514154e+2, 3.1599873e+2, 382834.7, -28486.66, -7061.135, 0.08915585, -0.10589048, 382955.88, 382955.88, 0.00000006878811, 10.003548, 9.9980955 
4.6492273e+2, 1.2600665e+2, -2070094.5, -1697859.1, -26987.42, -0.041368723, 0.04765348, -1695912.8, 9226.612, 0.000004304928, 9.996756, 10.00168 
4.6493486e+2, 1.3600801e+2, -1938586.1, -1620865.4, 10819.245, 0.024391366, 0.045376517, -1620497.4, -13371.92, 0.0000007438799, 9.997141, 10.001353 
4.6494535e+2, 1.460091e+2, -1813849.6, -1571515.1, 7446.6787, -0.088507235, 0.049799193, -1571286.5, -62171.58, 0.0000000034677494, 9.997591, 10.000799 
4.6495754e+2, 1.560098e+2, -1647269.3, -1442250.0, 5135.8926, -0.017180054, 0.037074763, -1442121.4, -31012.52, 0.0, 9.998069, 10.000783 
4.6496964e+2, 1.6601042e+2, -1531539.1, -1405625.6, 29983.994, 0.004084084, 0.05595173, -1398850.1, -85746.21, 0.0, 9.998492, 10.000157 
4.6498153e+2, 1.7601098e+2, -1376270.3, -1279049.3, 30346.832, -0.031367235, 0.094626255, -1270354.4, -55254.55, 0.0, 9.998881, 10.000166 
4.6499357e+2, 1.8601088e+2, -1242806.6, -1204956.1, 25620.014, -0.04526476, 0.08653376, -1192029.4, -74929.19, 0.0, 9.999301, 9.9998 
4.6500576e+2, 1.9601026e+2, -1083021.5, -1080487.4, 25823.912, -0.036012325, 0.044607945, -1055899.4, -36795.51, 0.0, 9.999739, 9.999769 
4.6501783e+2, 2.0600948e+2, -985993.8, -1060318.5, 25099.777, -0.040176507, 0.026303748, -978311.56, -57201.324, 0.0, 10.000066, 9.999079 
4.6502972e+2, 2.1600853e+2, -849913.2, -941343.06, 27812.012, -0.05652921, 0.021941029, -842117.7, -18999.113, 0.0, 10.000316, 9.999102 
4.650418e+2, 2.2600734e+2, -718626.4, -853168.5, 26667.393, -0.054439176, 0.004813871, -713533.44, 11595.11, 0.0, 10.000655, 9.998871 
4.650539e+2, 2.3600595e+2, -562573.75, -727549.06, 26249.656, -0.038890444, -0.02301723, -558497.8, 68642.11, 0.0, 10.001056, 9.998868 
4.6506587e+2, 2.4600436e+2, -451876.97, -677940.0, 23326.574, -0.028655104, -0.042590782, -449495.1, 79658.95, 0.0, 10.001377, 9.998381 
4.650777e+2, 2.560026e+2, -312742.03, -557025.8, 27796.385, -0.022310976, -0.058237266, -309619.1, 121551.17, 0.0, 10.001646, 9.998408 
4.6508923e+2, 2.6600093e+2, -184999.88, -470271.44, 11490.669, -0.012283505, -0.056750674, -184537.78, 148647.44, 0.0, 10.001961, 9.998179 
4.651006e+2, 2.759992e+2, -38179.555, -351537.5, 8640.116, 0.00078904023, -0.04824928, -37941.504, 197258.42, 0.0, 10.002308, 9.998155 
4.6511194e+2, 2.8599644e+2, 61237.703, -330079.47, 7439.1807, 0.019033888, -0.100958295, 61379.074, 198604.1, 0.0, 10.002651, 9.997464 
4.651233e+2, 2.9599303e+2, 206728.31, -211548.75, 9234.293, 0.03990358, -0.18939391, 206932.08, 246188.84, 0.0, 10.002987, 9.997444 
4.651344e+2, 3.059916e+2, 302856.28, -180850.81, -2120.6118, 0.061353363, -0.059467513, 302865.6, 302865.6, 0.0, 10.003489, 9.997078 
4.6514535e+2, 3.1598788e+2, 464182.78, 12632.357, -12903.089, 0.08818332, -0.13766895, 464551.2, 464551.2, 0.00000008220781, 10.004099, 9.998114 
4.749197e+2, 1.2599507e+2, -2072569.3, -1702111.5, -16225.143, -0.018824225, 0.017031182, -1701402.3, 3850.458, 0.0000032345054, 9.996751, 10.001654 
4.7493216e+2, 1.35997e+2, -1941714.0, -1627362.4, 25816.447, 0.042432953, 0.07523184, -1625256.4, -18022.373, 0.00000048107097, 9.99714, 10.001308 
4.7494292e+2, 1.4599809e+2, -1817267.8, -1578625.1, 25369.031, -0.08667682, 0.08456463, -1575958.0, -66734.336, 0.000000000765976, 9.997591, 10.000751 
4.7495553e+2, 1.5599838e+2, -1650390.3, -1448712.6, 22595.715, -0.024865782, 0.03678949, -1446212.0, -34990.67, 0.0, 9.998069, 10.000738 
4.7496808e+2, 1.6599886e+2, -1531747.5, -1406147.4, 44416.78, -0.0020069273, 0.042634327, -1392027.4, -78809.9, 0.0, 9.998492, 10.000154 
4.7498044e+2, 1.7599943e+2, -1376601.3, -1279650.1, 45214.492, -0.028904757, 0.0836759, -1261836.6, -46623.742, 0.0, 9.99888, 10.000162 
4.7499287e+2, 1.8599947e+2, -1243028.0, -1205311.0, 42156.145, -0.044248622, 0.08940908, -1177987.5, -60775.535, 0.0, 9.9993, 9.999797 
4.7500542e+2, 1.9599907e+2, -1082648.6, -1079666.9, 41677.734, -0.043022405, 0.06855059, -1039453.4, -20239.635, 0.0, 9.999739, 9.999776 
4.7501785e+2, 2.0599818e+2, -980630.1, -1049180.6, 34409.527, -0.042638548, 0.036407035, -966337.8, -45117.12, 0.0, 10.000065, 9.999155 
4.7503015e+2, 2.1599694e+2, -844894.4, -931051.4, 37718.285, -0.046113897, -0.005405499, -830715.3, -7483.9297, 0.0, 10.000316, 9.999172 
4.7504252e+2, 2.2599587e+2, -717345.2, -850620.3, 41626.65, -0.0451559, -0.014470334, -705412.1, 19828.209, 0.0, 10.000655, 9.998889 
4.7505492e+2, 2.3599489e+2, -560339.3, -722724.44, 40738.797, -0.03993902, -0.0028080537, -550692.0, 76556.26, 0.0, 10.001054, 9.998901 
4.750672e+2, 2.4599342e+2, -438978.7, -651001.8, 33156.77, -0.033725128, -0.022055138, -433914.5, 95346.484, 0.0, 10.001376, 9.998566 
4.750793e+2, 2.5599158e+2, -301471.63, -533647.2, 37865.56, -0.026991095, -0.064543664, -295452.2, 135824.98, 0.0, 10.001646, 9.998569 
4.7509122e+2, 2.6598978e+2, -188636.36, -477922.38, 24198.35, -0.009002327, -0.07873342, -186626.17, 146666.88, 0.0, 10.001961, 9.998127 
4.7510305e+2, 2.7598792e+2, -40721.895, -356766.56, 21383.61, 0.016430182, -0.07767429, -39281.64, 196027.56, 0.0, 10.002308, 9.998119 
4.7511464e+2, 2.8598532e+2, 68777.07, -314279.5, 19718.734, 0.024944255, -0.120153755, 69789.47, 207122.47, 0.0, 10.00265, 9.997574 
4.751261e+2, 2.9598224e+2, 213374.9, -197624.73, 22411.902, 0.0219802, -0.18726599, 214593.42, 253955.06, 0.0, 10.002987, 9.9975395 
4.7513765e+2, 3.0598065e+2, 302717.9, -180984.2, 20547.504, 0.041734345, -0.07290059, 303589.2, 303589.2, 0.0, 10.003488, 9.997078 
4.7514942e+2, 3.1597653e+2, 469106.66, 23155.19, 8486.155, 0.0832492, -0.19555704, 469268.1, 469268.1, 0.00000008180223, 10.004097, 9.998187 
4.849166e+2, 1.2598334e+2, -2057064.8, -1696049.4, -33328.45, -0.0092739705, 0.011823377, -1692998.3, 12369.122, 0.000002270887, 9.996864, 10.00164 
4.8492947e+2, 1.359852e+2, -1915973.9, -1618668.1, 14006.84, 0.049695116, 0.064855635, -1618009.6, -10660.221, 0.0000002759338, 9.997333, 10.001275 
4.8494062e+2, 1.4598632e+2, -1797744.1, -1580346.5, 11986.427, -0.087691456, 0.08355141, -1579687.6, -70348.31, 0.000000000009128432, 9.997773, 10.00065 
4.8495364e+2, 1.5598668e+2, -1642116.8, -1454879.6, 4904.09, -0.024755687, 0.053909108, -1454751.3, -43414.55, 0.0, 9.99817, 10.000648 
4.8496658e+2, 1.6598707e+2, -1520356.3, -1400274.6, 23879.758, -0.0020267405, 0.05559979, -1395700.0, -82366.53, 0.0, 9.998569, 10.000157 
4.8497933e+2, 1.7598747e+2, -1363147.5, -1273087.8, 25057.723, -0.03032646, 0.07712963, -1266585.4, -51255.24, 0.0, 9.998972, 10.000163 
4.8499215e+2, 1.8598743e+2, -1240745.0, -1206226.4, 20793.982, -0.04616446, 0.07836638, -1196462.1, -79132.76, 0.0, 9.999325, 9.999779 
4.850051e+2, 1.9598708e+2, -1097565.4, -1087774.8, 18848.893, -0.04473488, 0.06305993, -1073195.9, -53864.992, 0.0, 9.99964, 9.999767 
4.850179e+2, 2.0598626e+2, -984318.1, -1042340.6, 9230.525, -0.041327305, 0.034197997, -982885.06, -61547.953, 0.0, 10.000003, 9.999232 
4.8503056e+2, 2.159851e+2, -828259.56, -915000.06, 12632.397, -0.039787594, -0.0057372507, -826457.25, -3110.4404, 0.0, 10.000396, 9.999245 
4.8504326e+2, 2.2598405e+2, -708329.56, -843890.44, 16857.63, -0.038515415, -0.017160445, -706264.7, 19090.88, 0.0, 10.000708, 9.99891 
4.8505598e+2, 2.3598304e+2, -571476.8, -724782.56, 16061.427, -0.036135305, -0.010818306, -569812.2, 57551.64, 0.0, 10.000964, 9.998931 
4.8506853e+2, 2.4598166e+2, -447236.3, -642182.0, 4614.029, -0.029255511, -0.029707916, -447127.2, 82248.46, 0.0, 10.001265, 9.99868 
4.8508096e+2, 2.5597996e+2, -301207.9, -521840.2, 4252.8667, -0.019654382, -0.06789071, -301125.97, 130264.23, 0.0, 10.001598, 9.9986725 
4.850932e+2, 2.6597822e+2, -192671.98, -478564.9, -7549.933, -0.004011404, -0.08257714, -192472.75, 140932.86, 0.0, 10.001928, 9.998138 
4.851053e+2, 2.7597636e+2, -47455.945, -358169.06, -5721.504, 0.015547368, -0.08510339, -47350.625, 188071.53, 0.0, 10.0022545, 9.998136 
4.851173e+2, 2.859738e+2, 68188.62, -306902.34, -6498.043, 0.023528818, -0.12780158, 68301.16, 205746.72, 0.0, 10.002613, 9.997642 
4.851291e+2, 2.959708e+2, 218767.6, -188264.3, -6009.8022, 0.023688702, -0.19331022, 218856.3, 258329.67, 0.0, 10.0029955, 9.9976 
4.8514116e+2, 3.059692e+2, 302359.3, -181865.17, -1438.0925, 0.03959465, -0.079230204, 302363.6, 302363.6, 0.0, 10.003489, 9.997071 
4.8515338e+2, 3.159651e+2, 466721.06, 29279.865, -14942.009, 0.075069025, -0.2013118, 467230.84, 467230.84, 0.00000006385957, 10.00405, 9.998251 
4.9491343e+2, 1.2597148e+2, -2057351.9, -1696095.6, -20353.904, -0.013973341, 0.033269156, -1694952.4, 10531.097, 0.0000015131092, 9.996862, 10.001641 
4.9492675e+2, 1.3597259e+2, -1917466.6, -1621896.8, 31443.305, 0.04535204, 0.012915286, -1618588.9, -11116.703, 0.00000014199817, 9.997333, 10.001254 
4.949383e+2, 1.4597376e+2, -1808466.8, -1602631.1, 26730.023, -0.09233836, 0.04541875, -1599216.6, -89754.61, 0.0, 9.997772, 10.000498 
4.9495187e+2, 1.559747e+2, -1651834.4, -1475085.1, 19529.635, -0.017258499, 0.08880004, -1472953.0, -61497.83, 0.0, 9.99817, 10.000509 
4.949652e+2, 1.659751e+2, -1519564.8, -1398716.4, 38816.75, 0.0037720765, 0.09560337, -1387322.6, -73870.67, 0.0, 9.9985695, 10.000168 
4.9497825e+2, 1.7597508e+2, -1362718.0, -1272276.8, 39958.44, -0.035884425, 0.07533202, -1257151.9, -41700.508, 0.0, 9.998973, 10.000169 
4.9499142e+2, 1.8597479e+2, -1243210.3, -1211318.4, 32623.73, -0.051243532, 0.053427476, -1190952.0, -73499.38, 0.0, 9.999324, 9.999744 
4.9500477e+2, 1.959743e+2, -1099238.8, -1091217.8, 31041.043, -0.04135102, 0.028113374, -1063929.3, -44473.793, 0.0, 9.9996395, 9.999743 
4.9501795e+2, 2.0597373e+2, -978847.56, -1031043.75, 23983.59, -0.03641855, 0.019635007, -969501.0, -48041.434, 0.0, 10.000003, 9.99931 
4.9503094e+2, 2.1597306e+2, -823181.4, -904491.44, 26878.64, -0.037708625, 0.020566206, -815099.44, 8365.491, 0.0, 10.000396, 9.999316 
4.9504396e+2, 2.2597192e+2, -706750.25, -840619.44, 26340.014, -0.034696445, -0.0033811666, -701754.06, 23720.107, 0.0, 10.000707, 9.998932 
4.9505705e+2, 2.3597044e+2, -569774.8, -721350.9, 25839.902, -0.02766164, -0.04617218, -565490.9, 61995.51, 0.0, 10.000964, 9.998955 
4.9506995e+2, 2.459691e+2, -444063.3, -635713.6, 16899.213, -0.0155897, -0.0647838, -442584.6, 86913.28, 0.0, 10.001265, 9.998724 
4.9508277e+2, 2.559678e+2, -297878.1, -514899.78, 16577.7, -0.0009312456, -0.06851327, -296619.06, 134890.1, 0.0, 10.001597, 9.998721 
4.950952e+2, 2.6596624e+2, -187792.4, -468361.75, 4387.425, 0.0024300162, -0.069008276, -187723.81, 145799.03, 0.0, 10.001927, 9.998209 
4.9510738e+2, 2.7596444e+2, -42925.41, -348743.6, 6361.599, -0.0012303178, -0.07145713, -42793.137, 192745.56, 0.0, 10.002254, 9.9982 
4.9511978e+2, 2.8596184e+2, 70158.914, -302873.84, 7424.988, 0.014995792, -0.124354385, 70306.65, 207869.27, 0.0, 10.002613, 9.997669 
4.9513227e+2, 2.9595867e+2, 220554.47, -184778.47, 8535.356, 0.043957934, -0.20699342, 220734.13, 260325.83, 0.0, 10.0029955, 9.997623 
4.9514475e+2, 3.0595726e+2, 301483.44, -183892.7, 19157.635, 0.053879745, -0.07885653, 302238.4, 302238.4, 0.0, 10.0034895, 9.997057 
4.9515733e+2, 3.1595355e+2, 470494.63, 37079.75, 4854.6323, 0.062928654, -0.16000094, 470549.0, 470549.0, 0.000000037671512, 10.00405, 9.998305 
5.049101e+2, 1.259591e+2, -2055418.8, -1700531.8, -41172.598, -0.032302655, 0.04971232, -1695817.8, 9787.401, 0.0000009949754, 9.996899, 10.001593 
5.049241e+2, 1.3595991e+2, -1897324.9, -1618549.9, 11283.769, 0.04452045, 0.0060771327, -1618093.9, -10497.474, 0.000000065122016, 9.9974985, 10.001197 
5.049362e+2, 1.4596103e+2, -1775803.6, -1589559.1, 6039.643, -0.09217499, 0.03825018, -1589363.4, -79776.76, 0.0, 9.998009, 10.000474 
5.0495017e+2, 1.559621e+2, -1615276.8, -1460368.3, 8154.9897, -0.016844457, 0.09642655, -1459940.1, -48361.473, 0.0, 9.998433, 10.000483 
5.049639e+2, 1.6596244e+2, -1485774.9, -1386905.3, 28137.758, 0.0039942185, 0.10328169, -1379458.3, -65882.69, 0.0, 9.99882, 10.000128 
5.049773e+2, 1.759623e+2, -1335716.0, -1263464.5, 25027.088, -0.036138132, 0.07313213, -1255642.3, -40066.07, 0.0, 9.999176, 10.000131 
5.049908e+2, 1.8596192e+2, -1218687.5, -1201226.1, 14499.161, -0.047083575, 0.04385215, -1193031.9, -75453.64, 0.0, 9.9995, 9.999729 
5.050046e+2, 1.9596136e+2, -1076965.9, -1082433.9, 14464.602, -0.029485404, 0.012972539, -1064979.1, -45397.465, 0.0, 9.999802, 9.999726 
5.0501806e+2, 2.0596083e+2, -967605.56, -1029758.5, 4055.034, -0.027203603, 0.012667017, -967342.1, -45756.52, 0.0, 10.000097, 9.999273 
5.0503135e+2, 2.159603e+2, -825662.75, -908340.0, -1955.8556, -0.038272172, 0.030904984, -825616.5, -2026.2572, 0.0, 10.00039, 9.999293 
5.050447e+2, 2.2595915e+2, -702126.0, -826797.3, -4508.4175, -0.03516366, 0.0015825364, -701963.1, 23636.273, 0.0, 10.0006895, 9.999036 
5.0505805e+2, 2.3595756e+2, -558918.7, -705582.2, 1064.1344, -0.021227647, -0.062211994, -558910.94, 68700.99, 0.0, 10.000994, 9.999048 
5.050713e+2, 2.4595626e+2, -441307.3, -633263.6, -6079.3467, -0.008055065, -0.08169252, -441114.97, 88508.055, 0.0, 10.00128, 9.9987335 
5.0508434e+2, 2.559551e+2, -303486.2, -516180.88, -8903.859, 0.003666296, -0.07214224, -303114.1, 128519.23, 0.0, 10.001554, 9.9987335 
5.0509715e+2, 2.659536e+2, -190226.94, -464145.0, -21578.453, 0.006155716, -0.06769072, -188537.47, 145108.86, 0.0, 10.001888, 9.998257 
5.0510967e+2, 2.7595183e+2, -38839.254, -342610.88, -21222.27, 0.0030977742, -0.07109363, -37363.777, 198297.97, 0.0, 10.002265, 9.998237 
5.051224e+2, 2.8594923e+2, 73441.41, -306800.0, -22672.607, 0.015247788, -0.12550345, 74788.53, 212474.55, 0.0, 10.002661, 9.99762 
5.0513524e+2, 2.9594597e+2, 227065.48, -187688.03, -26722.283, 0.036724344, -0.20981443, 228780.1, 268496.13, 0.0, 10.003067, 9.997569 
5.051482e+2, 3.059446e+2, 309306.63, -189261.14, -15248.369, 0.045359384, -0.07360373, 309772.56, 309772.56, 0.0, 10.003583, 9.996975 
5.051614e+2, 3.15941e+2, 486265.47, 43312.668, -35235.29, 0.05982634, -0.13364512, 489050.8, 489050.8, 0.000000015915695, 10.004165, 9.998292 
5.149067e+2, 1.2594615e+2, -2062971.0, -1715712.5, -24017.557, -0.06633091, 0.06015688, -1714059.3, -8326.794, 0.00000067894854, 9.996897, 10.00149 
5.1492167e+2, 1.3594714e+2, -1903781.9, -1632198.3, 33077.484, 0.046997, 0.04636405, -1628227.6, -20505.26, 0.000000029496794, 9.9974985, 10.001103 
5.1493424e+2, 1.4594814e+2, -1768157.1, -1573944.4, 21730.691, -0.087449916, 0.063748024, -1571542.6, -61829.273, 0.0, 9.998009, 10.000581 
5.1494855e+2, 1.5594885e+2, -1608825.6, -1447229.1, 23647.463, -0.024166903, 0.07649404, -1443839.8, -32132.402, 0.0, 9.998434, 10.000573 
5.149627e+2, 1.6594914e+2, -1492127.3, -1400175.0, 41239.914, -0.0018982951, 0.07799808, -1384389.3, -70684.5, 0.0, 9.99882, 10.000037 
5.149765e+2, 1.7594913e+2, -1341468.6, -1275416.9, 38144.848, -0.031305224, 0.0703577, -1257987.5, -42282.84, 0.0, 9.999176, 10.00005 
5.1499045e+2, 1.8594879e+2, -1218382.5, -1200646.1, 25799.84, -0.033860955, 0.04974909, -1182232.9, -64526.527, 0.0, 9.999499, 9.999733 
5.150046e+2, 1.9594823e+2, -1077738.3, -1084146.5, 25761.908, -0.009369436, 0.01778619, -1054982.0, -35272.305, 0.0, 9.999802, 9.999715 
5.150183e+2, 2.0594758e+2, -978149.5, -1051720.0, 14953.957, -0.01384519, 0.013352406, -975226.1, -53510.836, 0.0, 10.000097, 9.999123 
5.150317e+2, 2.1594682e+2, -834029.94, -925814.6, 9027.377, -0.04149203, 0.025557783, -833150.5, -9427.732, 0.0, 10.00039, 9.999173 
5.150453e+2, 2.2594576e+2, -689366.56, -800423.2, 6883.889, -0.039996274, -0.002157584, -688941.5, 36789.703, 0.0, 10.0006895, 9.999217 
5.1505905e+2, 2.359444e+2, -547493.0, -681909.75, 12281.511, -0.01698468, -0.059514426, -546380.06, 81360.484, 0.0, 10.000994, 9.999211 
5.150726e+2, 2.4594313e+2, -443088.84, -637069.2, 3936.9912, -0.006630464, -0.080939636, -443008.97, 86742.086, 0.0, 10.00128, 9.998708 
5.150858e+2, 2.5594187e+2, -305057.1, -519639.34, 1533.63, -0.005478812, -0.078606494, -305046.13, 126716.44, 0.0, 10.0015545, 9.998709 
5.15099e+2, 2.6594037e+2, -188441.03, -460659.4, -7715.575, 0.007094363, -0.078103416, -188222.53, 145553.38, 0.0, 10.001889, 9.998281 
5.1511216e+2, 2.759386e+2, -38033.02, -341201.22, -7291.6714, 0.027418034, -0.083317645, -37857.746, 197933.33, 0.0, 10.002266, 9.998246 
5.1512516e+2, 2.8593594e+2, 64566.035, -325335.44, -7815.23, 0.023727372, -0.13098879, 64722.62, 202538.2, 0.0, 10.002661, 9.997492 
5.151379e+2, 2.9593274e+2, 217749.78, -206801.34, -11175.889, 0.0032345823, -0.20255361, 218043.78, 257889.94, 0.0, 10.003066, 9.997438 
5.151515e+2, 3.059312e+2, 298847.63, -210808.88, 6583.3574, 0.014985192, -0.06377819, 298932.66, 298932.66, 0.0, 10.003581, 9.996828 
5.1516557e+2, 3.1592754e+2, 480863.4, 31918.162, -14137.972, 0.06454084, -0.12144239, 481308.2, 481308.2, 0.0000000042376214, 10.004166, 9.998215 
5.2490354e+2, 1.2593246e+2, -2035097.3, -1705901.9, -48305.633, -0.07766613, 0.05206563, -1698959.9, 6906.309, 0.0000005002885, 9.997105, 10.001456 
5.2491933e+2, 1.3593356e+2, -1879662.1, -1624968.3, 18690.105, 0.05173613, 0.053881705, -1623604.0, -15748.844, 0.000000016983103, 9.997683, 10.001064 
5.249324e+2, 1.4593446e+2, -1742266.4, -1558497.4, -365.26575, -0.08355929, 0.06279239, -1558496.8, -48650.125, 0.0, 9.998174, 10.0006075 
5.2494705e+2, 1.5593496e+2, -1586618.6, -1433999.4, -5292.9272, -0.025515236, 0.051126223, -1433816.0, -21973.895, 0.0, 9.998575, 10.000595 
5.249615e+2, 1.6593528e+2, -1481365.0, -1396173.4, 9653.171, -0.0037699211, 0.053316373, -1395093.3, -81253.88, 0.0, 9.998899, 10.000027 
5.249757e+2, 1.759354e+2, -1343457.1, -1277971.4, 12463.666, -0.030439092, 0.06357441, -1275679.4, -59841.336, 0.0, 9.999169, 10.000035 
5.2498996e+2, 1.8593514e+2, -1219946.5, -1205926.3, 1571.1647, -0.030246774, 0.051025715, -1205752.3, -87912.64, 0.0, 9.999509, 9.999693 
5.250045e+2, 1.9593452e+2, -1066954.8, -1082901.6, -2104.3962, -0.0029037565, 0.020135645, -1066681.8, -46838.098, 0.0, 9.999892, 9.99968 
5.250185e+2, 2.0593384e+2, -962683.3, -1042765.0, -9410.123, -0.007880727, 0.012582263, -961592.44, -39742.72, 0.0, 10.000197, 9.999136 
5.250321e+2, 2.1593304e+2, -824451.94, -919561.8, -3153.3691, -0.038549744, 0.019017365, -824347.5, -489.85852, 0.0, 10.000449, 9.999187 
5.2504593e+2, 2.2593203e+2, -683374.0, -794024.4, -6134.241, -0.04055543, -0.0035960118, -683035.0, 42830.473, 0.0, 10.000715, 9.999248 
5.2506e+2, 2.3593085e+2, -545285.75, -677535.0, -11898.498, -0.021190787, -0.048546106, -544223.8, 83649.734, 0.0, 10.000995, 9.999241 
5.250738e+2, 2.4592958e+2, -440224.0, -634374.6, -23093.781, -0.0073703933, -0.071684346, -437514.84, 92369.06, 0.0, 10.001294, 9.998719 
5.250875e+2, 2.5592822e+2, -296947.94, -515149.66, -22518.682, 0.002334244, -0.080831684, -294648.22, 137247.95, 0.0, 10.001608, 9.9987135 
5.25101e+2, 2.6592663e+2, -182030.05, -462970.03, -30907.143, 0.013774989, -0.08455886, -178670.03, 155240.1, 0.0, 10.001957, 9.998231 
5.251144e+2, 2.7592483e+2, -31998.59, -343491.6, -35732.45, 0.02581368, -0.08875984, -27952.16, 207973.66, 0.0, 10.00233, 9.998199 
5.2512777e+2, 2.8592217e+2, 67989.96, -327755.0, -34198.145, 0.018495653, -0.13273017, 70923.44, 208873.88, 0.0, 10.002702, 9.997456 
5.2514094e+2, 2.9591897e+2, 215375.28, -212747.14, -30209.615, -0.0019423063, -0.19928168, 217496.45, 257477.38, 0.0, 10.003071, 9.997395 
5.2515495e+2, 3.059173e+2, 293437.47, -223913.47, -36.170696, 0.0059408713, -0.06846264, 293437.47, 293437.47, 0.0, 10.00359, 9.996734 
5.251696e+2, 3.159134e+2, 485263.3, 30961.729, -17949.719, 0.050124075, -0.13427329, 485971.4, 485971.4, 0.00000000051682275, 10.0042095, 9.998186 
5.349008e+2, 1.25918e+2, -2032411.3, -1700686.8, -32540.28, -0.06663069, 0.024624154, -1697524.9, 8481.731, 0.00000041209, 9.997107, 10.001491 
5.3491706e+2, 1.3591915e+2, -1878203.4, -1622459.5, 39756.43, 0.05814557, 0.02766553, -1616421.8, -8426.88, 0.000000018082496, 9.9976845, 10.001081 
5.349305e+2, 1.4592e+2, -1746285.1, -1566880.5, 14436.681, -0.08126486, 0.034730144, -1565726.1, -55739.543, 0.0, 9.998174, 10.00055 
5.349456e+2, 1.5592043e+2, -1589940.6, -1440794.9, 8896.121, -0.021048551, 0.020567248, -1440266.1, -28283.152, 0.0, 9.998575, 10.000549 
5.349604e+2, 1.6592082e+2, -1476492.0, -1386067.1, 19458.184, -0.0017804932, 0.029619249, -1382057.8, -68078.22, 0.0, 9.998899, 10.000096 
5.349748e+2, 1.7592116e+2, -1339649.0, -1270099.4, 22923.223, -0.0338521, 0.052986898, -1263223.6, -47247.15, 0.0, 9.999168, 10.00009 
5.349894e+2, 1.8592092e+2, -1226034.1, -1218506.6, 15979.901, -0.0364708, 0.047731124, -1205853.3, -87875.02, 0.0, 9.999508, 9.999607 
5.3500426e+2, 1.9592027e+2, -1071238.9, -1091786.4, 11797.312, -0.010189577, 0.019962797, -1065868.9, -45885.438, 0.0, 9.999892, 9.999619 
5.350187e+2, 2.0591964e+2, -950432.1, -1017347.8, -72.22655, -0.009471724, 0.010368191, -950432.0, -28443.137, 0.0, 10.000197, 9.9993105 
5.3503263e+2, 2.1591896e+2, -814108.75, -898201.56, 6262.9067, -0.02970359, 0.011334209, -813644.9, 10349.936, 0.0, 10.000449, 9.999334 
5.3504676e+2, 2.2591804e+2, -691409.56, -810936.3, 4221.572, -0.0369801, -0.0028597955, -691260.6, 34741.5, 0.0, 10.000716, 9.999131 
5.3506094e+2, 2.3591691e+2, -552348.56, -692471.7, -1418.2913, -0.03372346, -0.029524146, -552334.25, 75676.51, 0.0, 10.000996, 9.999138 
5.3507507e+2, 2.459156e+2, -436752.6, -627554.25, -11474.141, -0.010436819, -0.05409819, -436065.03, 93956.45, 0.0, 10.001296, 9.998765 
5.350893e+2, 2.5591415e+2, -294504.53, -510611.3, -10726.409, 0.026296908, -0.07891565, -293973.44, 138060.58, 0.0, 10.00161, 9.998744 
5.351031e+2, 2.6591244e+2, -190147.14, -480306.5, -17147.16, 0.025920065, -0.087246776, -189137.33, 144911.53, 0.0, 10.001959, 9.998112 
5.351165e+2, 2.7591056e+2, -39141.72, -358636.28, -21928.482, -0.0006832292, -0.08782396, -37643.684, 198422.16, 0.0, 10.002331, 9.998095 
5.3513026e+2, 2.859079e+2, 71635.36, -320674.66, -20636.271, -0.00015124927, -0.13090593, 72717.875, 210808.34, 0.0, 10.002704, 9.997503 
5.351442e+2, 2.9590473e+2, 218541.19, -206993.52, -15905.498, 0.019341586, -0.19947739, 219134.88, 259255.05, 0.0, 10.003074, 9.997433 
5.3515863e+2, 3.0590287e+2, 290110.56, -230854.08, 22877.084, 0.016854893, -0.086491, 291113.25, 291113.25, 0.0, 10.00359, 9.996686 
5.351735e+2, 3.1589875e+2, 485050.88, 32396.287, 4533.8555, 0.017296582, -0.17129222, 485096.28, 485096.28, 0.0000000000003731001, 10.004201, 9.9982 
5.44898e+2, 1.2590335e+2, -1993776.3, -1690056.8, -38515.457, -0.07240155, 0.006566525, -1685248.6, 20900.031, 0.00000036785775, 9.997407, 10.001418 
5.449148e+2, 1.3590431e+2, -1843741.1, -1614074.5, 30619.93, 0.053307872, -0.000006153843, -1610062.3, -1923.279, 0.000000024396927, 9.997956, 10.001007 
5.449288e+2, 1.4590517e+2, -1714031.9, -1550225.9, -2185.1658, -0.08422012, 0.009408578, -1550196.8, -40065.934, 0.0, 9.998391, 10.00056 
5.449443e+2, 1.5590571e+2, -1568362.1, -1429491.8, -3434.6787, -0.017952159, 0.007614935, -1429406.9, -17281.207, 0.0, 9.998719, 10.000557 
5.4495937e+2, 1.6590615e+2, -1457119.1, -1376671.1, 3261.8228, 0.0022705835, 0.019964926, -1376539.1, -62417.117, 0.0, 9.999032, 10.000096 
5.449741e+2, 1.7590645e+2, -1316239.4, -1258805.6, 1458.4652, -0.031801563, 0.04000815, -1258768.5, -42649.113, 0.0, 9.99933, 10.000089 
5.4498893e+2, 1.8590623e+2, -1213164.3, -1213277.3, -3050.0408, -0.03798835, 0.036346875, -1210170.3, -92048.88, 0.0, 9.9996, 9.9995985 
5.4500407e+2, 1.9590563e+2, -1076993.5, -1094778.0, -1660.6423, -0.016645374, 0.013756604, -1076839.9, -56713.344, 0.0, 9.999854, 9.999617 
5.450188e+2, 2.05905e+2, -950002.06, -1010010.6, -16572.895, -0.014597681, 0.0030846489, -945729.3, -23597.568, 0.0, 10.00017, 9.999373 
5.4503316e+2, 2.1590433e+2, -798745.2, -884998.25, -18738.742, -0.028845856, -0.0014309777, -794850.06, 29287.22, 0.0, 10.00053, 9.999386 
5.450475e+2, 2.2590347e+2, -677190.56, -810588.1, -22615.832, -0.034195274, -0.009519057, -673460.6, 52683.867, 0.0, 10.000842, 9.999073 
5.4506195e+2, 2.3590241e+2, -537702.0, -691307.6, -23821.213, -0.031885494, -0.021834837, -534092.6, 94060.516, 0.0, 10.0011215, 9.999084 
5.450765e+2, 2.459011e+2, -415649.0, -615750.06, -31829.816, -0.007429815, -0.04701256, -410707.88, 119456.27, 0.0, 10.001434, 9.998779 
5.450911e+2, 2.5589952e+2, -270552.06, -498024.44, -33285.86, 0.03169877, -0.08310858, -265781.4, 166395.67, 0.0, 10.00177, 9.998753 
5.451051e+2, 2.658978e+2, -172149.16, -477305.4, -36774.098, 0.026289178, -0.09249414, -167780.11, 166412.1, 0.0, 10.002108, 9.99806 
5.4511875e+2, 2.7589592e+2, -26942.777, -358714.63, -36367.23, -0.01021162, -0.08686719, -23003.158, 213206.19, 0.0, 10.002441, 9.998041 
5.45133e+2, 2.8589326e+2, 89390.04, -319686.53, -35535.492, -0.0064828903, -0.12436035, 92453.97, 230688.31, 0.0, 10.002859, 9.997436 
5.451475e+2, 2.9589006e+2, 252558.34, -196783.23, -39441.77, 0.025049597, -0.18802531, 255994.16, 296258.66, 0.0, 10.003335, 9.997376 
5.451623e+2, 3.058881e+2, 302789.84, -218380.13, -348.3054, 0.01824095, -0.08601905, 302790.06, 302790.06, 0.0, 10.00365, 9.996742 
5.4517734e+2, 3.1588393e+2, 441035.06, 23550.531, -11171.56, 0.005648213, -0.179822, 441333.78, 441333.78, 0.000000000015387011, 10.003845, 9.99831 
5.548951e+2, 1.258885e+2, -2006117.9, -1716755.1, -23845.436, -0.097062066, -0.0015684931, -1714803.3, -8510.65, 0.0000003291145, 9.997412, 10.001233 
5.549125e+2, 1.3588907e+2, -1855215.8, -1638820.8, 50475.707, 0.036428187, -0.028704159, -1627626.1, -19338.588, 0.000000025104656, 9.99796, 10.000836 
5.549271e+2, 1.4588994e+2, -1708434.0, -1538946.9, 10003.332, -0.0930566, -0.012935648, -1538358.5, -28079.428, 0.0, 9.998392, 10.000637 
5.5494297e+2, 1.5589084e+2, -1564071.9, -1420686.0, 8552.451, -0.016738215, 0.012781239, -1420177.8, -7907.494, 0.0, 9.998719, 10.000618 
5.5495846e+2, 1.6589125e+2, -1462117.9, -1387049.9, 14295.991, 0.008159592, 0.02484391, -1384419.5, -70153.016, 0.0, 9.999032, 10.000026 
5.549734e+2, 1.758913e+2, -1320280.6, -1267237.0, 12368.779, -0.02444007, 0.024771025, -1264494.6, -48227.906, 0.0, 9.99933, 10.000031 
5.5498856e+2, 1.8589103e+2, -1208418.8, -1203518.9, 6274.653, -0.03498259, 0.016874228, -1199232.8, -80963.81, 0.0, 9.9996, 9.999665 
5.550039e+2, 1.9589056e+2, -1073081.5, -1086742.0, 8120.201, -0.022411456, 0.0015180188, -1069300.9, -49028.113, 0.0, 9.999854, 9.999672 
5.5501884e+2, 2.0588994e+2, -953400.6, -1017130.4, -3129.5798, -0.023324843, -0.009246143, -953247.3, -30969.088, 0.0, 10.00017, 9.999325 
5.5503356e+2, 2.1588917e+2, -801880.25, -891537.44, -5498.023, -0.03606903, -0.019224804, -801544.3, 22740.646, 0.0, 10.000529, 9.999341 
5.550484e+2, 2.2588833e+2, -677311.44, -810981.25, -12202.688, -0.032475043, -0.023413744, -676206.6, 50085.824, 0.0, 10.000842, 9.99907 
5.5506325e+2, 2.358874e+2, -537947.2, -692125.1, -13172.582, -0.016229646, -0.025201896, -536829.8, 91470.8, 0.0, 10.001122, 9.999079 
5.55078e+2, 2.4588604e+2, -416636.28, -618170.5, -19373.596, 0.0014228772, -0.05013739, -414790.78, 115520.984, 0.0, 10.001435, 9.998762 
5.5509263e+2, 2.5588438e+2, -271292.28, -499956.44, -20711.441, 0.019103305, -0.09319778, -269431.47, 162893.77, 0.0, 10.001772, 9.998739 
5.551071e+2, 2.658827e+2, -170906.98, -475234.06, -24388.38, 0.01505813, -0.100209445, -168964.92, 165375.1, 0.0, 10.00211, 9.998074 
5.551213e+2, 2.7588093e+2, -26921.17, -359300.75, -23552.822, -0.0038483893, -0.08584601, -25260.486, 211095.8, 0.0, 10.002443, 9.998036 
5.5513585e+2, 2.8587827e+2, 76895.164, -345948.3, -17749.377, -0.001252566, -0.11325027, 77638.91, 216020.83, 0.0, 10.00286, 9.997254 
5.551507e+2, 2.95875e+2, 241981.78, -218541.02, -22541.234, 0.015913984, -0.16549692, 243082.48, 283496.28, 0.0, 10.003334, 9.997229 
5.551658e+2, 3.0587298e+2, 313530.66, -196133.73, 6868.1655, 0.0102853, -0.068081655, 313623.2, 313623.2, 0.0, 10.00365, 9.996896 
5.5518126e+2, 3.1586897e+2, 455282.28, 52502.758, -3716.5608, 0.012776734, -0.16202109, 455316.56, 455316.56, 0.0000000020600701, 10.003848, 9.998508 
5.6489253e+2, 1.2587339e+2, -1982019.6, -1721352.6, -35765.3, -0.10863154, -0.00029026502, -1716534.5, -10094.823, 0.00000027083397, 9.997646, 10.001088 
5.649106e+2, 1.358738e+2, -1841336.6, -1647784.4, 46813.41, 0.03395173, -0.02816656, -1637056.5, -28619.871, 0.000000017878008, 9.998122, 10.000697 
5.6492555e+2, 1.4587457e+2, -1684674.8, -1524030.5, -525.914, -0.092433564, -0.018001068, -1524028.8, -13599.697, 0.0, 9.99854, 10.000668 
5.6494176e+2, 1.5587544e+2, -1535897.9, -1404280.8, -5899.4854, -0.017331501, 0.0012682461, -1404016.9, 8402.987, 0.0, 9.998901, 10.000643 
5.6495756e+2, 1.6587579e+2, -1438341.9, -1379527.3, -2051.8987, 0.008045255, 0.008501822, -1379455.8, -65039.324, 0.0, 9.999212, 9.9999895 
5.649729e+2, 1.7587577e+2, -1300040.5, -1261246.3, -1758.7823, -0.022427095, 0.0048771636, -1261166.8, -44749.35, 0.0, 9.999485, 9.999997 
5.6498826e+2, 1.8587552e+2, -1189220.9, -1195096.3, -11660.8955, -0.03398991, -0.000032837437, -1180133.3, -61713.47, 0.0, 9.999737, 9.999658 
5.650038e+2, 1.9587511e+2, -1056233.1, -1079159.8, -15304.28, -0.024766194, -0.00774746, -1048575.0, -28151.44, 0.0, 9.999972, 9.999667 
5.65019e+2, 2.0587455e+2, -940078.5, -1006204.75, -22174.31, -0.027942372, -0.014523966, -933331.2, -10902.574, 0.0, 10.000242, 9.999365 
5.6503403e+2, 2.1587382e+2, -798379.44, -886199.56, -18122.314, -0.042175684, -0.023062201, -794786.75, 29648.057, 0.0, 10.000538, 9.999373 
5.650492e+2, 2.2587298e+2, -676780.9, -814201.1, -24006.115, -0.034287937, -0.025902959, -672707.94, 53734.52, 0.0, 10.000861, 9.999039 
5.6506443e+2, 2.3587203e+2, -527883.6, -690304.3, -26978.555, -0.0096498225, -0.02652858, -523519.66, 104931.67, 0.0, 10.001205, 9.999051 
5.6507945e+2, 2.4587068e+2, -400685.1, -607818.5, -31808.324, 0.0029254474, -0.050922338, -395910.53, 134551.9, 0.0, 10.0015335, 9.998786 
5.6509435e+2, 2.5586906e+2, -258806.72, -491937.4, -30043.37, 0.0061812317, -0.093941204, -254997.3, 177478.05, 0.0, 10.001849, 9.998756 
5.6510913e+2, 2.6586735e+2, -158101.64, -472823.72, -33184.082, 0.0051329946, -0.1019613, -154640.8, 179849.45, 0.0, 10.0022135, 9.99804 
5.6512386e+2, 2.758655e+2, -4964.549, -352663.63, -35792.582, 0.0013198893, -0.089364834, -1318.2537, 235188.83, 0.0, 10.002611, 9.998 
5.651388e+2, 2.8586283e+2, 88490.07, -348841.3, -25467.928, 0.00035004178, -0.11303085, 89968.195, 228501.48, 0.0, 10.002976, 9.997178 
5.651539e+2, 2.9585955e+2, 234081.45, -230323.17, -23095.393, 0.0010034565, -0.15766944, 235227.19, 275792.9, 0.0, 10.003314, 9.997157 
5.651694e+2, 3.0585754e+2, 317452.66, -195536.9, -1396.4386, -0.00055209047, -0.05864274, 317456.44, 317456.44, 0.0, 10.003683, 9.996883 
5.6518537e+2, 3.1585366e+2, 491359.5, 74476.34, -23984.646, 0.022869872, -0.13848446, 492734.88, 492734.88, 0.000000017271022, 10.004077, 9.9985485 
5.7489014e+2, 1.2585804e+2, -1988902.5, -1736577.8, -23921.64, -0.10824407, 0.010238781, -1734329.9, -27740.05, 0.00000019303324, 9.99765, 10.000981 
5.749088e+2, 1.3585854e+2, -1848567.1, -1663472.6, 64185.55, 0.04613936, 0.0028415055, -1643393.1, -34806.95, 0.000000007774616, 9.998124, 10.000588 
5.749242e+2, 1.4585906e+2, -1685904.6, -1526762.3, 13009.843, -0.08210149, -0.0047043385, -1525705.8, -15125.172, 0.0, 9.998541, 10.0006485 
5.749407e+2, 1.558595e+2, -1536854.0, -1406414.0, 7235.376, -0.01993849, -0.027115345, -1406013.9, 6560.674, 0.0, 9.998901, 10.0006275 
5.749567e+2, 1.6585976e+2, -1438474.3, -1379916.4, 8031.0386, 0.001573485, -0.029576365, -1378835.0, -64263.27, 0.0, 9.999212, 9.999988 
5.749723e+2, 1.7585985e+2, -1300853.3, -1263055.1, 8237.984, -0.025950382, -0.019815821, -1261337.8, -44766.426, 0.0, 9.999485, 9.999985 
5.7498795e+2, 1.8585965e+2, -1195230.9, -1207665.5, -2911.0693, -0.035129856, -0.014341338, -1194583.1, -76009.23, 0.0, 9.999737, 9.999571 
5.7500374e+2, 1.9585924e+2, -1061014.6, -1089142.8, -6345.667, -0.02389691, -0.014015864, -1059649.3, -39070.59, 0.0, 9.999972, 9.9995985 
5.7501924e+2, 2.0585878e+2, -931245.3, -987898.7, -11175.596, -0.02862844, -0.012825107, -929120.5, -6537.6416, 0.0, 10.000242, 9.999491 
5.7503456e+2, 2.1585828e+2, -790704.9, -870429.7, -6898.988, -0.04724303, -0.013189473, -790112.3, 34474.465, 0.0, 10.000539, 9.999481 
5.7505e+2, 2.2585745e+2, -680945.75, -823103.25, -11156.988, -0.039651718, -0.017186303, -680075.44, 46519.063, 0.0, 10.000862, 9.998978 
5.750656e+2, 2.3585634e+2, -531317.25, -697633.3, -14133.147, -0.012006944, -0.025821788, -530124.75, 98480.43, 0.0, 10.001205, 9.999001 
5.7508093e+2, 2.4585503e+2, -396181.63, -598754.94, -20032.422, -0.0027977927, -0.049513035, -394219.63, 136396.47, 0.0, 10.001534, 9.998848 
5.750961e+2, 2.558535e+2, -255155.69, -484809.6, -18050.371, -0.0072466237, -0.0857822, -253745.61, 178881.81, 0.0, 10.001851, 9.998805 
5.7511127e+2, 2.6585174e+2, -163536.45, -484558.03, -18334.627, -0.00373588, -0.09796262, -162492.7, 172150.14, 0.0, 10.002215, 9.997959 
5.751265e+2, 2.758497e+2, -9626.703, -362700.6, -21035.781, 0.005221933, -0.09701436, -8377.83, 228283.83, 0.0, 10.002613, 9.9979315 
5.751417e+2, 2.8584698e+2, 90408.19, -345271.6, -12882.372, -0.00169861, -0.123021744, 90788.766, 229477.1, 0.0, 10.002977, 9.997203 
5.75157e+2, 2.9584378e+2, 234757.13, -229586.98, -10419.873, -0.01981206, -0.163748, 234990.83, 275711.06, 0.0, 10.003316, 9.997161 
5.751729e+2, 3.0584174e+2, 305773.34, -220324.86, 13272.011, -0.014587463, -0.05722275, 306107.94, 306107.94, 0.00000000021282408, 10.003684, 9.996713 
5.7518953e+2, 3.1583798e+2, 483460.53, 58201.1, -9391.311, 0.035207935, -0.110316746, 483667.84, 483667.84, 0.0000000699572, 10.004075, 9.998438 
5.848879e+2, 1.2584199e+2, -1961706.3, -1723013.9, -51641.79, -0.09836118, 0.0039721373, -1712320.1, -5573.824, 0.00000011738098, 9.997836, 10.000984 
5.84907e+2, 1.358425e+2, -1830347.1, -1655894.8, 50126.074, 0.0470719, -0.0021426359, -1642517.5, -33775.227, 0.0000000014227642, 9.998255, 10.000578 
5.849228e+2, 1.4584292e+2, -1675883.8, -1530651.4, -3094.0955, -0.08053621, -0.01552802, -1530585.4, -19847.84, 0.0, 9.998648, 10.00057 
5.8493966e+2, 1.558432e+2, -1525829.9, -1408623.9, -14279.886, -0.014669314, -0.04511742, -1406909.3, 5823.875, 0.0, 9.99901, 10.00056 
5.84956e+2, 1.6584343e+2, -1428008.5, -1370806.6, -18563.65, 0.005293324, -0.048768874, -1365310.4, -50579.934, 0.0, 9.999268, 10.000023 
5.849717e+2, 1.7584358e+2, -1303971.3, -1260872.0, -15489.225, -0.026818238, -0.036120716, -1255883.0, -39153.715, 0.0, 9.999449, 10.000017 
5.849877e+2, 1.8584344e+2, -1202823.5, -1210855.6, -20564.115, -0.036729675, -0.026602786, -1185887.0, -67155.484, 0.0, 9.999683, 9.999575 
5.850037e+2, 1.9584309e+2, -1062781.6, -1088978.9, -17158.625, -0.023672527, -0.021381212, -1054293.4, -33557.016, 0.0, 9.999956, 9.999607 
5.8501947e+2, 2.058427e+2, -920846.5, -976028.1, -19295.56, -0.028863104, -0.017011829, -914768.75, 7971.3076, 0.0, 10.000284, 9.999552 
5.850351e+2, 2.1584228e+2, -770018.8, -854078.25, -19953.057, -0.04950699, -0.015404898, -765523.06, 59220.137, 0.0, 10.000653, 9.999538 
5.850508e+2, 2.2584149e+2, -665043.3, -813520.5, -23844.09, -0.04471344, -0.017653802, -661308.1, 65442.348, 0.0, 10.000963, 9.998995 
5.8506674e+2, 2.3584042e+2, -526702.6, -693769.44, -20950.844, -0.020374069, -0.024811361, -524115.38, 104645.68, 0.0, 10.00123, 9.999015 
5.850824e+2, 2.4583909e+2, -390182.88, -596371.0, -25319.082, -0.009074216, -0.04944245, -387119.3, 143652.75, 0.0, 10.001578, 9.998843 
5.8509797e+2, 2.5583756e+2, -236377.58, -476125.13, -28294.088, -0.0075623957, -0.088488884, -233083.67, 199699.97, 0.0, 10.001982, 9.998801 
5.851135e+2, 2.6583576e+2, -144603.6, -474986.6, -26807.498, -0.0054593366, -0.10273159, -142442.56, 192356.58, 0.0, 10.002343, 9.997963 
5.85129e+2, 2.758337e+2, -852.3226, -358460.38, -23275.857, -0.0031814536, -0.10305266, 656.2834, 237474.14, 0.0, 10.002673, 9.9979315 
5.851447e+2, 2.85831e+2, 103493.17, -343318.0, -13817.137, -0.008646474, -0.12689215, 103920.04, 242764.61, 0.0, 10.003086, 9.997164 
5.851604e+2, 2.9582778e+2, 267029.63, -219235.7, -16444.729, -0.019443875, -0.163374, 267585.13, 308461.78, 0.0, 10.003561, 9.997114 
5.851767e+2, 3.0582562e+2, 325278.7, -226216.58, 3357.6074, -0.011458384, -0.0616088, 325299.13, 325299.13, 0.000000006848287, 10.003884, 9.996576 
5.851937e+2, 3.1582177e+2, 481559.38, 48090.0, -16685.98, 0.039141998, -0.107282914, 482200.72, 482200.72, 0.00000018333391, 10.004102, 9.998356 
5.94886e+2, 1.2582524e+2, -1953270.6, -1706171.5, -42037.6, -0.0793622, -0.019864827, -1699215.6, 7693.666, 0.000000058921596, 9.997839, 10.001099 
5.949051e+2, 1.3582566e+2, -1823703.6, -1642834.0, 65557.13, 0.036007643, -0.044428248, -1621572.0, -12666.971, 0.000000000010343272, 9.998257, 10.000667 
5.9492135e+2, 1.4582613e+2, -1685923.5, -1551759.6, 10397.735, -0.0885139, -0.05155154, -1550958.6, -40058.375, 0.0, 9.998649, 10.000425 
5.9493876e+2, 1.5582654e+2, -1534620.4, -1427065.5, -1465.1328, -0.001613896, -0.052631963, -1427045.5, -14150.081, 0.0, 9.99901, 10.000434 
5.949554e+2, 1.6582683e+2, -1422817.4, -1360209.8, -11991.416, 0.019296028, -0.048606195, -1357991.6, -43099.176, 0.0, 9.999268, 10.000095 
5.949712e+2, 1.7582698e+2, -1298651.8, -1249904.5, -8515.696, -0.025146373, -0.043837756, -1248459.8, -31568.664, 0.0, 9.999449, 10.000093 
5.9498733e+2, 1.858269e+2, -1196404.9, -1197621.6, -10421.782, -0.038991276, -0.036779113, -1186573.8, -67681.07, 0.0, 9.999683, 9.999666 
5.950036e+2, 1.9582665e+2, -1056956.6, -1077033.3, -6715.6934, -0.024198053, -0.029838348, -1054917.4, -34020.77, 0.0, 9.999956, 9.999689 
5.9501976e+2, 2.0582628e+2, -921078.2, -976596.75, -5493.4634, -0.02878399, -0.027010202, -920539.9, 2360.3794, 0.0, 10.000284, 9.999548 
5.9503573e+2, 2.1582583e+2, -769798.6, -853605.4, -6410.3135, -0.04924934, -0.029493207, -769311.2, 55592.887, 0.0, 10.000653, 9.999542 
5.9505177e+2, 2.2582513e+2, -658586.8, -800177.3, -13879.762, -0.049624857, -0.027178165, -657239.06, 69671.36, 0.0, 10.000963, 9.999086 
5.950678e+2, 2.3582424e+2, -521113.75, -682489.2, -10585.585, -0.034681357, -0.023585007, -520422.34, 108496.58, 0.0, 10.001231, 9.999092 
5.9508395e+2, 2.458229e+2, -394906.6, -606558.2, -10249.74, -0.016101247, -0.050641023, -394411.38, 136518.89, 0.0, 10.001579, 9.998773 
5.9510005e+2, 2.5582117e+2, -240262.34, -484422.47, -13436.476, 0.0045595504, -0.101475924, -239525.14, 193418.8, 0.0, 10.001982, 9.998745 
5.951159e+2, 2.658194e+2, -138390.11, -462433.94, -14624.996, -0.0004213135, -0.11583945, -137731.38, 197227.67, 0.0, 10.002344, 9.998049 
5.951315e+2, 2.7581754e+2, 4254.4097, -348483.22, -10733.119, -0.02363261, -0.107854165, 4580.696, 241556.39, 0.0, 10.002675, 9.997999 
5.9514767e+2, 2.8581485e+2, 96693.87, -358000.75, 3842.3538, -0.020812375, -0.12513103, 96726.336, 235728.36, 0.0, 10.003088, 9.997062 
5.951641e+2, 2.958116e+2, 260222.81, -233590.36, 471.6429, 0.0006109792, -0.1567139, 260223.27, 301258.22, 0.0, 10.003561, 9.997016 
5.951808e+2, 3.0580914e+2, 318167.8, -241297.8, 11352.838, 0.0076172734, -0.07106948, 318398.1, 318398.1, 0.000000033052434, 10.003885, 9.996472 
5.951977e+2, 3.158051e+2, 477973.47, 40206.496, -8029.479, 0.03470948, -0.12834713, 478120.72, 478120.72, 0.00000037488923, 10.004104, 9.998301 
6.048839e+2, 1.2580815e+2, -1947254.0, -1699347.4, -58300.605, -0.06772373, -0.040929284, -1686321.1, 20754.621, 0.000000021349177, 9.997865, 10.001132 
6.0490334e+2, 1.3580865e+2, -1813034.1, -1634925.8, 48178.55, 0.030373411, -0.06304452, -1622728.6, -13657.926, 0.0, 9.998319, 10.00069 
6.049199e+2, 1.4580911e+2, -1688646.4, -1558411.6, -9965.632, -0.09277623, -0.06617438, -1557653.5, -46587.645, 0.0, 9.998653, 10.000377 
6.0493773e+2, 1.5580957e+2, -1553397.4, -1440482.3, -14913.405, 0.00083281513, -0.058077473, -1438545.8, -25484.764, 0.0, 9.998901, 10.000394 
6.049546e+2, 1.6580985e+2, -1434090.1, -1360489.3, -26285.541, 0.02064254, -0.053934984, -1352065.8, -37007.71, 0.0, 9.999168, 10.000141 
6.049706e+2, 1.7581e+2, -1295572.3, -1242849.1, -24926.148, -0.029430825, -0.0557124, -1232930.6, -15873.882, 0.0, 9.999446, 10.000142 
6.0498697e+2, 1.8581001e+2, -1181736.8, -1180990.5, -25834.463, -0.04365882, -0.04655225, -1155526.5, -36469.03, 0.0, 9.9997425, 9.999751 
6.050036e+2, 1.9580992e+2, -1036623.0, -1058173.3, -22695.8, -0.025785647, -0.031115176, -1022274.4, -1214.5555, 0.0, 10.000057, 9.999769 
6.050201e+2, 2.0580961e+2, -912375.0, -967828.1, -19517.293, -0.027561272, -0.029427385, -906194.5, 16868.574, 0.0, 10.000325, 9.999589 
6.050364e+2, 2.1580909e+2, -780825.94, -854317.56, -16980.217, -0.04526816, -0.040296596, -777092.4, 47974.938, 0.0, 10.000558, 9.999582 
6.0505265e+2, 2.2580844e+2, -661861.7, -796673.25, -22929.566, -0.04730492, -0.03805789, -658068.44, 69004.8, 0.0, 10.000919, 9.999131 
6.050691e+2, 2.3580767e+2, -497936.88, -667220.44, -23251.033, -0.03726769, -0.028428085, -494801.44, 134279.25, 0.0, 10.001373, 9.999128 
6.050855e+2, 2.4580634e+2, -377200.97, -602684.0, -24039.834, -0.019930925, -0.05276586, -374666.44, 156425.58, 0.0, 10.001721, 9.998732 
6.05102e+2, 2.5580457e+2, -241792.27, -489326.72, -25000.26, 0.0021381252, -0.10328094, -239292.56, 193813.81, 0.0, 10.001989, 9.998708 
6.051182e+2, 2.6580274e+2, -130350.07, -456312.16, -25434.81, -0.0026761151, -0.121923864, -128377.336, 206744.55, 0.0, 10.00239, 9.998069 
6.051342e+2, 2.7580082e+2, 35995.055, -331305.22, -26449.426, -0.026609624, -0.1216156, 37889.914, 275028.63, 0.0, 10.002886, 9.998015 
6.051508e+2, 2.857982e+2, 125643.14, -346602.34, -10426.859, -0.021551982, -0.13416308, 125873.24, 265037.9, 0.0, 10.003299, 9.997039 
6.051678e+2, 2.9579505e+2, 271653.0, -230707.03, -8734.689, 0.0042181076, -0.15196142, 271804.84, 313001.7, 0.00000000003092486, 10.003651, 9.996992 
6.051847e+2, 3.0579248e+2, 328837.25, -238181.81, 2459.4744, 0.012329807, -0.07619729, 328847.9, 328847.9, 0.00000008707832, 10.003968, 9.996453 
6.052019e+2, 3.1578836e+2, 502769.3, 54665.137, -10818.482, 0.040294744, -0.14008021, 503030.34, 503030.34, 0.0000006525611, 10.004264, 9.9983225 
6.148818e+2, 1.2579072e+2, -1951000.0, -1707341.6, -46910.195, -0.06510261, -0.059700098, -1698622.4, 8623.561, 0.0000000039655865, 9.997865, 10.001078 
6.149016e+2, 1.3579139e+2, -1816141.8, -1641925.5, 64250.598, 0.030227872, -0.057191454, -1620793.4, -11553.91, 0.0, 9.99832, 10.000643 
6.149186e+2, 1.4579189e+2, -1685059.4, -1551066.4, -1018.9618, -0.09315335, -0.05864386, -1551058.6, -39824.246, 0.0, 9.998653, 10.000427 
6.1493653e+2, 1.557923e+2, -1550137.6, -1433592.1, -5658.05, -0.0076242723, -0.061317515, -1433318.0, -20088.121, 0.0, 9.998899, 10.000442 
6.1495364e+2, 1.6579254e+2, -1433007.6, -1358250.0, -16017.966, 0.00896769, -0.06482836, -1354962.4, -39735.16, 0.0, 9.999167, 10.000157 
6.149699e+2, 1.7579263e+2, -1294101.1, -1239942.5, -14563.255, -0.03990154, -0.07179305, -1236274.9, -19048.656, 0.0, 9.999446, 10.000162 
6.1498666e+2, 1.8579277e+2, -1176276.0, -1169796.1, -14164.191, -0.050920203, -0.055915482, -1158506.0, -39280.2, 0.0, 9.999743, 9.999827 
6.150036e+2, 1.9579291e+2, -1031261.56, -1047097.6, -11181.22, -0.028623924, -0.025195865, -1025478.7, -4252.5874, 0.0, 10.000057, 9.9998455 
6.150204e+2, 2.0579267e+2, -906475.94, -955691.0, -10931.469, -0.02534048, -0.024271056, -904157.1, 19071.44, 0.0, 10.000325, 9.999672 
6.1503696e+2, 2.1579212e+2, -775315.8, -843079.3, -7681.0283, -0.03768304, -0.047831833, -774456.06, 50776.824, 0.0, 10.000559, 9.99966 
6.150537e+2, 2.2579145e+2, -662040.1, -797115.94, -5929.4106, -0.038013913, -0.050224483, -661780.4, 65458.48, 0.0, 10.000919, 9.999128 
6.150705e+2, 2.357907e+2, -498306.53, -667924.7, -6778.079, -0.028634006, -0.03907611, -498036.1, 131210.19, 0.0, 10.001373, 9.999125 
6.150872e+2, 2.4578942e+2, -378392.3, -605128.1, -14184.552, -0.020757832, -0.05579613, -377508.38, 153748.84, 0.0, 10.00172, 9.998715 
6.1510384e+2, 2.5578776e+2, -243181.47, -492178.97, -14462.369, -0.014390179, -0.09458097, -242344.27, 190926.69, 0.0, 10.001989, 9.998689 
6.151205e+2, 2.6578578e+2, -133552.69, -462927.7, -6943.116, -0.012195334, -0.12137615, -133406.39, 201881.14, 0.0, 10.002389, 9.998024 
6.151373e+2, 2.7578363e+2, 33464.07, -336476.88, -8339.872, -0.013092643, -0.14356852, 33651.99, 270958.66, 0.0, 10.002885, 9.997981 
6.151542e+2, 2.85781e+2, 129069.78, -339257.53, 2596.8105, -0.011543587, -0.15319708, 129084.18, 268416.44, 0.0, 10.003297, 9.99709 
6.1517125e+2, 2.9577813e+2, 274647.88, -223900.9, 4149.0986, -0.008130205, -0.14929715, 274682.4, 316044.6, 0.0000000010306047, 10.003648, 9.997041 
6.151886e+2, 3.057756e+2, 332700.44, -230149.31, 13393.505, 0.0030145491, -0.0775556, 333018.97, 333018.97, 0.00000016756015, 10.003967, 9.99651 
6.152063e+2, 3.1577152e+2, 509640.0, 67843.56, 154.85464, 0.054451697, -0.143576, 509640.03, 509640.03, 0.000001002472, 10.004268, 9.998411 
6.248797e+2, 1.2577316e+2, -1953204.5, -1712886.3, -53474.902, -0.06230108, -0.06660289, -1701524.4, 5893.1597, 0.00000000008306351, 9.9978695, 10.001037 
6.249e+2, 1.3577397e+2, -1825002.5, -1650195.8, 63570.86, 0.033679195, -0.046895508, -1629522.3, -20112.174, 0.0, 9.998276, 10.000607 
6.249172e+2, 1.4577442e+2, -1690098.6, -1553455.0, -8879.907, -0.09022657, -0.050539713, -1552880.4, -41474.82, 0.0, 9.998619, 10.000427 
6.249353e+2, 1.5577471e+2, -1548429.5, -1432879.3, -17501.506, -0.017882042, -0.06445586, -1430286.5, -16884.666, 0.0, 9.998913, 10.000441 
6.249527e+2, 1.6577491e+2, -1429748.3, -1356373.5, -30232.398, -0.0009978721, -0.07341587, -1345521.8, -30122.201, 0.0, 9.999189, 10.000159 
6.2496936e+2, 1.7577499e+2, -1292451.6, -1238646.6, -29994.584, -0.038682535, -0.081696585, -1225257.4, -7858.809, 0.0, 9.999455, 10.000166 
6.249864e+2, 1.8577518e+2, -1173650.6, -1163383.8, -30389.969, -0.047394224, -0.06381865, -1137696.8, -18298.967, 0.0, 9.99974, 9.999873 
6.250036e+2, 1.957754e+2, -1031304.8, -1041955.6, -29939.775, -0.029786523, -0.028595997, -1006220.5, 15176.685, 0.0, 10.000035, 9.999891 
6.250207e+2, 2.0577522e+2, -899609.3, -945348.2, -32617.879, -0.028684063, -0.026708884, -882642.4, 40756.656, 0.0, 10.000342, 9.999735 
6.2503755e+2, 2.157747e+2, -756296.94, -827202.7, -30716.145, -0.041332938, -0.051992852, -744841.56, 80561.305, 0.0, 10.000661, 9.99972 
6.2505454e+2, 2.2577405e+2, -653117.0, -790382.9, -25105.092, -0.041466568, -0.05815356, -648669.56, 78739.17, 0.0, 10.000971, 9.99915 
6.2507176e+2, 2.3577325e+2, -511578.0, -672145.5, -24283.482, -0.031420708, -0.052168284, -507985.84, 121430.49, 0.0, 10.001272, 9.999144 
6.250888e+2, 2.4577205e+2, -394781.38, -613805.8, -32651.008, -0.025521701, -0.063861, -390017.56, 141409.38, 0.0, 10.001612, 9.998708 
6.251057e+2, 2.557705e+2, -245497.45, -493953.0, -31844.621, -0.022965293, -0.09048943, -241480.84, 191959.03, 0.0, 10.001976, 9.998682 
6.251228e+2, 2.657685e+2, -133043.39, -463752.7, -16823.22, -0.01632546, -0.12011813, -132189.78, 203267.08, 0.0, 10.002398, 9.9980135 
6.251402e+2, 2.7576616e+2, 29667.63, -338627.63, -16257.612, -0.006838856, -0.1557965, 30383.896, 267861.1, 0.0, 10.00286, 9.997977 
6.2515754e+2, 2.8576362e+2, 124611.484, -333945.8, -8928.043, -0.0050575156, -0.16394943, 124785.25, 264287.44, 0.0, 10.003235, 9.997157 
6.251749e+2, 2.9576093e+2, 264056.94, -222134.78, -6126.724, -0.008676719, -0.14791094, 264134.13, 305664.38, 0.000000004235602, 10.003546, 9.997102 
6.251926e+2, 3.0575833e+2, 334782.8, -230224.48, 4253.3506, 0.0036196646, -0.08391793, 334814.84, 334814.84, 0.000000262113, 10.003987, 9.996499 
6.252108e+2, 3.1575423e+2, 549059.06, 89370.375, -13966.805, 0.06397741, -0.14925495, 549483.0, 549483.0, 0.0000013873902, 10.004529, 9.998434 
6.3487756e+2, 1.257555e+2, -1954905.5, -1716543.1, -43589.707, -0.06047134, -0.06139912, -1708822.0, -1231.4211, 0.0, 9.99787, 10.001012 
6.3489825e+2, 1.3575637e+2, -1826579.9, -1653761.8, 78251.97, 0.040783446, -0.031900074, -1623595.1, -14012.448, 0.0, 9.998277, 10.000583 
6.349159e+2, 1.4575674e+2, -1693904.4, -1561431.0, 1973.742, -0.084045045, -0.041731283, -1561401.6, -49822.527, 0.0, 9.998618, 10.000373 
6.3493407e+2, 1.5575686e+2, -1552116.3, -1440659.4, -6776.731, -0.030331519, -0.06746397, -1440248.9, -26672.02, 0.0, 9.998913, 10.000387 
6.349518e+2, 1.6575699e+2, -1430758.4, -1358574.9, -20482.674, -0.009608066, -0.07965388, -1353167.8, -37592.734, 0.0, 9.999189, 10.000145 
6.3496894e+2, 1.7575708e+2, -1293393.0, -1240688.4, -20033.068, -0.025787484, -0.0853155, -1233938.4, -16364.526, 0.0, 9.999455, 10.000153 
6.349863e+2, 1.8575723e+2, -1172764.4, -1161668.6, -19452.717, -0.033067383, -0.070151456, -1146988.1, -27414.918, 0.0, 9.99974, 9.999886 
6.350037e+2, 1.957574e+2, -1030277.75, -1040005.8, -18889.955, -0.029366756, -0.0412138, -1015635.6, 5937.456, 0.0, 10.000035, 9.999905 
6.350209e+2, 2.0575728e+2, -896749.3, -939527.44, -20836.457, -0.037717026, -0.03668793, -888277.9, 35296.586, 0.0, 10.000342, 9.999775 
6.35038e+2, 2.157569e+2, -753515.3, -821530.94, -18871.84, -0.056305334, -0.052844353, -748630.0, 76947.15, 0.0, 10.000661, 9.999759 
6.3505536e+2, 2.2575626e+2, -650016.8, -783962.8, -13911.774, -0.05762653, -0.061895937, -648587.2, 78995.54, 0.0, 10.00097, 9.999194 
6.3507295e+2, 2.3575538e+2, -508841.4, -666246.2, -12836.532, -0.045405377, -0.06765357, -507801.44, 121789.35, 0.0, 10.001271, 9.999185 
6.3509035e+2, 2.4575421e+2, -394967.63, -614078.6, -19146.543, -0.034263276, -0.076796904, -393307.13, 138293.84, 0.0, 10.001611, 9.998707 
6.351076e+2, 2.557528e+2, -245133.84, -493548.13, -18096.818, -0.024110513, -0.09062641, -243822.42, 189790.58, 0.0, 10.001977, 9.998685 
6.351252e+2, 2.6575086e+2, -131278.84, -460426.72, 231.4788, -0.015506097, -0.11803333, -131278.69, 204351.05, 0.0, 10.0023985, 9.998036 
6.35143e+2, 2.7574846e+2, 31362.744, -334887.16, 342.74197, -0.007889993, -0.15898883, 31363.064, 269013.38, 0.0, 10.002858, 9.998004 
6.3516074e+2, 2.8574598e+2, 130128.164, -322659.5, 2355.8987, -0.0023118793, -0.16700874, 130140.42, 269814.9, 0.0, 10.003235, 9.997234 
6.351785e+2, 2.957434e+2, 269718.5, -211642.58, 5754.24, 0.0017943663, -0.14739823, 269787.25, 311488.25, 0.000000008608103, 10.0035515, 9.997171 
6.3519657e+2, 3.0574068e+2, 330258.56, -240638.61, 24017.865, 0.013414918, -0.09464486, 331267.22, 331267.22, 0.00000035003856, 10.003991, 9.996426 
6.3521534e+2, 3.1573653e+2, 545611.8, 82901.73, 5526.19, 0.06836911, -0.15796408, 545677.8, 545677.8, 0.0000017531546, 10.004525, 9.998391 
6.4487547e+2, 1.2573734e+2, -1959732.9, -1720469.9, -76077.53, -0.05634906, -0.048121996, -1698328.8, 9440.04, 0.0, 9.997845, 10.000997 
6.4489645e+2, 1.3573813e+2, -1834735.6, -1658777.1, 51077.637, 0.0367993, -0.028220406, -1645025.0, -35263.176, 0.0, 9.998225, 10.000573 
6.449145e+2, 1.4573842e+2, -1703891.6, -1569769.1, -26900.596, -0.08341955, -0.04218153, -1564574.9, -52816.066, 0.0, 9.998566, 10.000341 
6.44933e+2, 1.5573856e+2, -1558375.4, -1447168.4, -34060.97, -0.031721957, -0.061967183, -1437565.4, -23808.889, 0.0, 9.998885, 10.000356 
6.449509e+2, 1.6573867e+2, -1432844.5, -1360395.8, -48190.96, -0.011134291, -0.07226283, -1336332.8, -20577.994, 0.0, 9.999179, 10.000137 
6.449684e+2, 1.7573875e+2, -1294389.3, -1241300.0, -47460.582, -0.024692014, -0.07929202, -1213465.1, 4288.667, 0.0, 9.99945, 10.000151 
6.44986e+2, 1.8573889e+2, -1171704.8, -1149394.0, -42889.434, -0.032837342, -0.06997531, -1116232.9, 3519.9187, 0.0, 9.999697, 9.99999 
6.450036e+2, 1.9573909e+2, -1038978.44, -1033523.75, -35262.32, -0.03305357, -0.05000928, -1000883.44, 20868.525, 0.0, 9.99993, 10.0 
6.4502114e+2, 2.05739e+2, -911434.0, -947341.94, -33437.375, -0.043907598, -0.044880822, -891435.3, 32317.531, 0.0, 10.000245, 9.999767 
6.4503855e+2, 2.157387e+2, -759558.94, -824750.44, -35304.652, -0.063725285, -0.053323116, -744103.7, 81651.695, 0.0, 10.000621, 9.999755 
6.450562e+2, 2.257381e+2, -655543.1, -779262.4, -34272.344, -0.06434543, -0.061046556, -646683.56, 81076.94, 0.0, 10.000901, 9.99926 
6.45074e+2, 2.3573726e+2, -528437.0, -669167.0, -31121.95, -0.05011375, -0.070351675, -521861.7, 107906.12, 0.0, 10.001109, 9.999243 
6.4509183e+2, 2.4573605e+2, -412084.78, -627017.3, -31278.857, -0.037162215, -0.083047174, -407625.3, 124152.9, 0.0, 10.0015135, 9.998664 
6.451096e+2, 2.5573453e+2, -235109.92, -492983.72, -33643.92, -0.025334742, -0.10045274, -230792.78, 202998.4, 0.0, 10.002065, 9.998646 
6.4512765e+2, 2.6573262e+2, -117880.04, -453140.63, -19773.875, -0.018070616, -0.12527317, -116717.8, 219090.19, 0.0, 10.002488, 9.998043 
6.451458e+2, 2.757303e+2, 25534.176, -336248.66, -20649.918, -0.013915384, -0.15918702, 26709.021, 264537.03, 0.0, 10.002813, 9.998016 
6.45164e+2, 2.8572786e+2, 142035.34, -309831.3, -17531.268, -0.0039850986, -0.16909137, 142714.5, 282566.16, 0.0, 10.003287, 9.997297 
6.451823e+2, 2.9572526e+2, 320211.1, -181316.53, -15672.721, 0.010327364, -0.1578673, 320700.4, 362578.13, 0.000000011710588, 10.003873, 9.997225 
6.452008e+2, 3.057224e+2, 359293.78, -235164.78, -1707.561, 0.024342896, -0.115404315, 359298.7, 359298.7, 0.00000040808163, 10.004228, 9.996349 
6.452199e+2, 3.1571832e+2, 525304.44, 67452.38, -20431.473, 0.07757678, -0.16495344, 526214.4, 526214.4, 0.0000020408997, 10.004411, 9.99834 
6.548734e+2, 1.257187e+2, -1960046.5, -1721350.3, -67028.586, -0.050745368, -0.026686069, -1703816.0, 4136.1914, 0.0, 9.997846, 10.000991 
6.548945e+2, 1.357192e+2, -1834420.1, -1658401.0, 64571.875, 0.020969614, -0.03610558, -1637253.8, -27306.09, 0.0, 9.998225, 10.000576 
6.5491295e+2, 1.4571945e+2, -1704626.3, -1571243.8, -15446.419, -0.08894127, -0.0522922, -1569478.3, -57533.37, 0.0, 9.998565, 10.000332 
6.5493196e+2, 1.5571983e+2, -1559092.9, -1448658.1, -22415.22, -0.021854553, -0.0477569, -1444281.9, -30341.244, 0.0, 9.998884, 10.000346 
6.5495014e+2, 1.6572002e+2, -1433112.3, -1361027.6, -38242.28, -0.005337721, -0.050839905, -1344519.8, -28581.205, 0.0, 9.999179, 10.000133 
6.549677e+2, 1.7572004e+2, -1293693.8, -1239965.8, -37619.68, -0.03573895, -0.0634673, -1220603.0, -2664.5515, 0.0, 9.99945, 10.00016 
6.549855e+2, 1.857202e+2, -1157976.6, -1121002.8, -34425.047, -0.047125626, -0.06320321, -1100414.8, 19521.959, 0.0, 9.999697, 10.000185 
6.550034e+2, 1.9572046e+2, -1026640.75, -1008026.5, -26281.617, -0.041004114, -0.054915275, -989452.7, 32481.082, 0.0, 9.99993, 10.000175 
6.550213e+2, 2.0572041e+2, -915340.44, -955513.7, -19475.586, -0.04735938, -0.05128351, -907449.06, 16485.168, 0.0, 10.000245, 9.999712 
6.550392e+2, 2.157201e+2, -762942.5, -831701.1, -21745.543, -0.06379778, -0.05346938, -756642.5, 69294.914, 0.0, 10.00062, 9.999708 
6.5505713e+2, 2.2571959e+2, -649692.3, -767084.1, -26657.13, -0.061915, -0.0557727, -643922.6, 84019.15, 0.0, 10.0009, 9.999344 
6.550752e+2, 2.3571888e+2, -523154.0, -658603.25, -22636.76, -0.04595923, -0.06061355, -519471.0, 110476.33, 0.0, 10.00111, 9.999314 
6.550934e+2, 2.4571757e+2, -417951.16, -639415.06, -10847.847, -0.034576308, -0.08271748, -417421.06, 114537.49, 0.0, 10.001514, 9.998579 
6.551116e+2, 2.557158e+2, -241121.36, -504952.38, -13854.595, -0.026839739, -0.119515, -240395.8, 193578.45, 0.0, 10.002063, 9.998566 
6.551301e+2, 2.6571384e+2, -118908.836, -454806.84, -7980.112, -0.024017317, -0.14148298, -118719.35, 217272.08, 0.0, 10.002485, 9.998034 
6.5514845e+2, 2.7571175e+2, 25285.025, -336866.8, -8149.43, -0.024659058, -0.15644751, 25468.316, 263478.44, 0.0, 10.002813, 9.998013 
6.551672e+2, 2.8570923e+2, 145177.69, -303180.38, 4010.0364, -0.009960303, -0.16997002, 145213.56, 285247.16, 0.0, 10.003285, 9.997344 
6.5518624e+2, 2.9570648e+2, 322054.47, -176444.42, 4839.1445, 0.016637582, -0.17858648, 322101.44, 364161.72, 0.000000011654482, 10.003868, 9.997261 
6.5520513e+2, 3.0570352e+2, 353321.78, -247317.98, 4691.646, 0.035915457, -0.14557225, 353358.4, 353358.4, 0.00000041978168, 10.004226, 9.996267 
6.5522444e+2, 3.1569958e+2, 521837.63, 58630.55, -13643.09, 0.090819865, -0.17128333, 522239.13, 522239.13, 0.000002202288, 10.004416, 9.998277 
6.648712e+2, 1.2569928e+2, -1979394.0, -1723883.0, -93656.12, -0.0414523, -0.029271152, -1693231.0, 14911.641, 0.0, 9.9976845, 10.00105 
6.6489255e+2, 1.3569988e+2, -1834368.5, -1650619.5, 46615.836, 0.011740549, -0.03508613, -1639469.9, -29332.998, 0.0, 9.998193, 10.000645 
6.6491145e+2, 1.4570017e+2, -1710309.8, -1572139.5, -36548.688, -0.09199299, -0.05270744, -1563067.4, -50933.39, 0.0, 9.998518, 10.000348 
6.649307e+2, 1.5570058e+2, -1582283.6, -1457616.1, -41388.547, -0.02006086, -0.047653653, -1445126.8, -30997.084, 0.0, 9.998716, 10.000365 
6.6494924e+2, 1.6570082e+2, -1454439.4, -1364593.9, -51857.664, -0.006871974, -0.048407406, -1340907.0, -24779.992, 0.0, 9.999004, 10.000193 
6.64967e+2, 1.7570093e+2, -1302836.1, -1237755.3, -46771.156, -0.04556232, -0.057301138, -1213318.3, 4807.7393, 0.0, 9.999359, 10.000219 
6.6498506e+2, 1.8570113e+2, -1158214.0, -1113795.6, -49309.402, -0.05615562, -0.059186574, -1081924.6, 38198.92, 0.0, 9.999663, 10.00025 
6.650033e+2, 1.957014e+2, -1022246.4, -999075.2, -50993.293, -0.042751916, -0.057406086, -958367.94, 63752.29, 0.0, 9.999931, 10.000236 
6.650215e+2, 2.0570135e+2, -924883.0, -957725.7, -43489.35, -0.046641856, -0.0573976, -894817.94, 29302.441, 0.0, 10.00017, 9.999733 
6.6503966e+2, 2.1570104e+2, -795329.0, -845216.5, -39990.12, -0.06429417, -0.061093323, -773141.0, 52982.523, 0.0, 10.000389, 9.999726 
6.650579e+2, 2.2570053e+2, -672573.94, -780319.5, -45182.12, -0.063003466, -0.06254464, -656135.25, 71992.59, 0.0, 10.000753, 9.999324 
6.650763e+2, 2.3569983e+2, -507847.06, -653599.0, -48734.22, -0.04701916, -0.06472572, -493053.6, 137079.78, 0.0, 10.001226, 9.999293 
6.650949e+2, 2.4569847e+2, -410029.9, -640879.8, -36157.938, -0.033932492, -0.088142924, -404499.0, 127646.086, 0.0, 10.001592, 9.998531 
6.651136e+2, 2.556966e+2, -271643.94, -524761.0, -36416.582, -0.023204442, -0.12921238, -266508.78, 167652.94, 0.0, 10.001876, 9.998519 
6.6513246e+2, 2.6569462e+2, -147675.08, -471195.6, -29321.244, -0.021098059, -0.15018082, -145039.13, 191140.22, 0.0, 10.002299, 9.99801 
6.6515124e+2, 2.7569252e+2, 26550.656, -338002.06, -30521.379, -0.025423372, -0.16020316, 29088.326, 267286.47, 0.0, 10.00283, 9.997996 
6.651705e+2, 2.8569007e+2, 148318.13, -293213.28, -16109.317, -0.011158875, -0.17192245, 148905.1, 289126.03, 0.0, 10.003272, 9.997418 
6.651899e+2, 2.956874e+2, 294733.25, -182176.1, -13531.515, 0.017487818, -0.18134479, 295116.88, 337363.25, 0.000000008469742, 10.003649, 9.997326 
6.6520935e+2, 3.056843e+2, 336316.44, -262122.88, -15120.6455, 0.037423525, -0.16164011, 336698.25, 336698.25, 0.00000038345433, 10.004138, 9.996207 
6.65229e+2, 3.1568033e+2, 561223.44, 72567.27, -32015.605, 0.093813695, -0.18323778, 563312.1, 563312.1, 0.0000022156376, 10.00471, 9.998231 
6.7486894e+2, 1.2567909e+2, -1970698.0, -1705567.5, -78942.94, -0.029731423, -0.05788272, -1683842.4, 24498.17, 0.0, 9.997683, 10.001177 
6.7489076e+2, 1.3568023e+2, -1824535.0, -1630642.6, 64490.574, 0.00921414, -0.025106125, -1611151.6, -822.1331, 0.0, 9.998194, 10.000782 
6.749099e+2, 1.4568059e+2, -1707443.8, -1566417.9, -29540.627, -0.09259245, -0.043073703, -1560480.0, -48154.195, 0.0, 9.998519, 10.000387 
6.749294e+2, 1.5568079e+2, -1579202.0, -1451061.5, -33714.605, -0.026961727, -0.06180925, -1442732.4, -28408.873, 0.0, 9.998715, 10.000411 
6.749481e+2, 1.656811e+2, -1446027.3, -1346877.4, -38639.086, -0.016376942, -0.06526142, -1333598.0, -17277.885, 0.0, 9.999002, 10.000315 
6.749663e+2, 1.7568146e+2, -1295337.1, -1222160.1, -33771.95, -0.054320265, -0.060949057, -1208956.4, 9360.063, 0.0, 9.999358, 10.000327 
6.749847e+2, 1.8568172e+2, -1163010.5, -1123879.9, -39457.613, -0.059994675, -0.05796013, -1099403.1, 20910.457, 0.0, 9.999664, 10.000181 
6.750033e+2, 1.956819e+2, -1026221.4, -1007443.7, -41287.832, -0.038517173, -0.05752506, -974490.6, 47820.63, 0.0, 9.999931, 10.000178 
6.750217e+2, 2.0568183e+2, -918155.1, -943931.1, -35479.434, -0.041953467, -0.06321321, -893295.4, 31016.02, 0.0, 10.00017, 9.999827 
6.7504007e+2, 2.1568152e+2, -789546.75, -833442.75, -31301.83, -0.06536058, -0.07597357, -773264.94, 53048.72, 0.0, 10.00039, 9.999807 
6.7505866e+2, 2.2568093e+2, -681228.1, -798382.7, -27533.414, -0.06772174, -0.080969155, -675079.94, 53238.594, 0.0, 10.000753, 9.9992 
6.7507744e+2, 2.3568013e+2, -516092.78, -670577.9, -31600.455, -0.053320415, -0.08225739, -509878.75, 120446.98, 0.0, 10.001225, 9.999177 
6.7509645e+2, 2.4567877e+2, -411101.22, -643042.94, -25812.207, -0.035370793, -0.099215366, -408263.38, 124074.27, 0.0, 10.001592, 9.998517 
6.751156e+2, 2.5567698e+2, -272676.4, -527077.75, -25503.31, -0.014774643, -0.13000497, -270144.94, 164208.45, 0.0, 10.001876, 9.998503 
6.7513484e+2, 2.6567495e+2, -150425.86, -476897.38, -9691.659, -0.00990127, -0.1516084, -150138.4, 186233.11, 0.0, 10.002299, 9.997972 
6.751541e+2, 2.7567276e+2, 24128.818, -342534.4, -11217.728, -0.017049301, -0.17006363, 24471.693, 262863.47, 0.0, 10.002828, 9.997967 
6.7517376e+2, 2.856704e+2, 154815.14, -279125.44, -2358.8762, -0.008104043, -0.17507204, 154827.95, 295241.38, 0.0, 10.003268, 9.997517 
6.7519355e+2, 2.95668e+2, 300725.22, -169371.45, 692.7243, 0.013213803, -0.16737358, 300726.22, 343162.13, 0.0000000040864183, 10.003647, 9.997416 
6.752134e+2, 3.0566478e+2, 333047.63, -268313.4, 5936.2847, 0.029563176, -0.16444102, 333106.22, 333106.22, 0.0000003121116, 10.004135, 9.996166 
6.7523366e+2, 3.1566063e+2, 558144.25, 67581.91, -11041.023, 0.08693114, -0.20083012, 558392.6, 558392.6, 0.0000020914758, 10.0047035, 9.9982 
6.8486667e+2, 1.2565885e+2, -1976006.1, -1706602.6, -80049.0, -0.025727306, -0.0704933, -1684612.4, 23926.117, 0.0, 9.997642, 10.001189 
6.8488884e+2, 1.3566016e+2, -1849213.5, -1638615.6, 57538.285, 0.010504172, -0.022912469, -1623920.8, -13394.732, 0.0, 9.998008, 10.000816 
6.849084e+2, 1.4566058e+2, -1727333.1, -1568506.0, -45152.664, -0.08769239, -0.04018909, -1556567.1, -44045.313, 0.0, 9.998351, 10.000453 
6.84928e+2, 1.5566081e+2, -1578226.3, -1443293.6, -47305.85, -0.03695022, -0.06274484, -1428361.3, -13842.1045, 0.0, 9.998692, 10.000476 
6.8494695e+2, 1.6566119e+2, -1444861.8, -1339327.1, -52925.57, -0.027439205, -0.067162886, -1317358.3, -842.9026, 0.0, 9.998981, 10.000377 
6.849655e+2, 1.7566161e+2, -1309841.3, -1222752.4, -52779.348, -0.054341435, -0.06188101, -1197873.4, 20637.496, 0.0, 9.999232, 10.000383 
6.8498427e+2, 1.8566188e+2, -1185940.4, -1136991.4, -58763.754, -0.057075784, -0.058645763, -1097809.1, 22698.512, 0.0, 9.9995165, 10.000162 
6.850031e+2, 1.9566205e+2, -1042353.9, -1017005.0, -57049.547, -0.03949553, -0.058586754, -971238.94, 51266.71, 0.0, 9.999829, 10.000162 
6.850219e+2, 2.0566191e+2, -923397.44, -945965.3, -54602.77, -0.041618977, -0.06851779, -878924.9, 45581.176, 0.0, 10.000133, 9.999831 
6.850405e+2, 2.1566154e+2, -783822.4, -830758.94, -56935.285, -0.05961045, -0.08847854, -745708.3, 80800.234, 0.0, 10.00043, 9.999805 
6.8505937e+2, 2.2566092e+2, -688727.9, -811410.8, -49565.72, -0.06302008, -0.09412556, -671205.3, 57308.656, 0.0, 10.000743, 9.999115 
6.8507856e+2, 2.3566005e+2, -544916.6, -693485.0, -51050.023, -0.054714356, -0.09078924, -529066.25, 101455.66, 0.0, 10.001066, 9.999096 
6.8509793e+2, 2.456587e+2, -433766.06, -656538.4, -45865.594, -0.03790099, -0.1035363, -424692.56, 107841.586, 0.0, 10.001448, 9.998493 
6.851174e+2, 2.556569e+2, -274675.1, -530235.9, -46028.152, -0.014505335, -0.13078374, -266637.88, 167912.05, 0.0, 10.001872, 9.998483 
6.8513715e+2, 2.6565492e+2, -151708.72, -475237.56, -24370.56, -0.0064295027, -0.15226766, -149883.25, 186684.75, 0.0, 10.002281, 9.997991 
6.8515694e+2, 2.7565268e+2, 3684.8206, -350275.97, -21968.2, -0.0100916205, -0.17314337, 5043.0415, 243631.2, 0.0, 10.002678, 9.997985 
6.8517697e+2, 2.8565037e+2, 131933.78, -289317.72, -16682.91, -0.0031449834, -0.1772536, 132593.44, 273202.97, 0.0, 10.003109, 9.997523 
6.8519706e+2, 2.9564798e+2, 289655.25, -173162.67, -19973.328, 0.011980686, -0.1661584, 290515.63, 333147.22, 0.0000000009738006, 10.003565, 9.997429 
6.852173e+2, 3.0564466e+2, 321639.0, -263930.13, -9330.689, 0.025631446, -0.177332, 321787.66, 321787.66, 0.00000022618863, 10.004015, 9.996254 
6.852382e+2, 3.156406e+2, 529146.25, 63140.94, -17595.535, 0.08468799, -0.2126272, 529809.7, 529809.7, 0.0000018666766, 10.004463, 9.998284 
6.948643e+2, 1.256386e+2, -1983665.3, -1722778.0, -69649.34, -0.031302284, -0.066488124, -1705348.1, 3388.0364, 0.0, 9.997642, 10.001079 
6.9488686e+2, 1.3563973e+2, -1854780.1, -1649977.6, 70903.34, 0.015339377, -0.028415581, -1627826.4, -17100.285, 0.0, 9.998007, 10.00074 
6.9490683e+2, 1.4564018e+2, -1721230.6, -1555415.6, -32558.62, -0.07736662, -0.04415034, -1549251.8, -36529.902, 0.0, 9.998348, 10.000545 
6.949265e+2, 1.5564066e+2, -1572472.1, -1431503.1, -34705.867, -0.05035436, -0.05042762, -1423422.0, -8705.297, 0.0, 9.998692, 10.000557 
6.949458e+2, 1.6564107e+2, -1445020.1, -1339969.5, -43589.23, -0.04036191, -0.053952787, -1324238.5, -7526.161, 0.0, 9.998982, 10.000372 
6.949648e+2, 1.7564137e+2, -1309905.0, -1222854.5, -43371.293, -0.04578393, -0.059934262, -1204934.5, 13774.423, 0.0, 9.999231, 10.000382 
6.949839e+2, 1.8564163e+2, -1184009.4, -1132857.9, -47226.25, -0.04749061, -0.06124121, -1104726.6, 15979.34, 0.0, 9.999516, 10.000191 
6.9500285e+2, 1.9564182e+2, -1040840.7, -1013940.44, -45500.348, -0.045723666, -0.060610943, -979943.9, 42759.47, 0.0, 9.999829, 10.000183 
6.950219e+2, 2.0564163e+2, -929484.5, -958769.5, -43607.797, -0.04579094, -0.07328811, -898126.5, 26577.693, 0.0, 10.000133, 9.999743 
6.95041e+2, 2.1564111e+2, -789640.94, -843048.56, -45857.395, -0.047371715, -0.09865525, -763278.8, 63429.227, 0.0, 10.00043, 9.999722 
6.9506025e+2, 2.2564045e+2, -692078.4, -818592.7, -37538.613, -0.049219906, -0.10220647, -681778.7, 46935.305, 0.0, 10.000743, 9.999066 
6.950796e+2, 2.3563962e+2, -548341.8, -700749.5, -38816.336, -0.05141132, -0.09057758, -539025.3, 91696.49, 0.0, 10.001066, 9.999046 
6.950993e+2, 2.4563824e+2, -436124.3, -661603.4, -30121.266, -0.041587178, -0.10121863, -432169.84, 100564.625, 0.0, 10.001448, 9.998459 
6.951192e+2, 2.556364e+2, -276311.28, -534054.8, -30434.672, -0.022217695, -0.13144185, -272766.28, 161984.83, 0.0, 10.001873, 9.998456 
6.9513935e+2, 2.656344e+2, -146388.52, -464649.4, -9891.355, -0.010506416, -0.15220934, -146081.39, 190687.22, 0.0, 10.002282, 9.998063 
6.951597e+2, 2.756323e+2, 7950.1133, -341494.94, -7427.6387, -0.004589623, -0.16982141, 8107.9204, 246895.08, 0.0, 10.002678, 9.998045 
6.951801e+2, 2.8562993e+2, 125930.89, -301285.13, -78.6839, 0.0035084393, -0.1783377, 125930.91, 266739.9, 0.0, 10.003106, 9.997443 
6.952007e+2, 2.956274e+2, 284642.56, -182346.42, -3222.1492, 0.0135347, -0.17684856, 284664.8, 327497.94, 0.000000000021633938, 10.003559, 9.997369 
6.9522136e+2, 3.0562398e+2, 334854.88, -234951.48, 6972.4556, 0.025233645, -0.19973059, 334940.2, 334940.2, 0.00000014519733, 10.004007, 9.996457 
6.9524264e+2, 3.156203e+2, 541173.06, 89681.734, -1477.1654, 0.08593554, -0.22025682, 541177.94, 541177.94, 0.0000015881137, 10.004456, 9.998471 
7.048619e+2, 1.2561804e+2, -1963861.5, -1721493.8, -85666.43, -0.039458167, -0.059835363, -1694271.9, 14665.21, 0.0, 9.997815, 10.001003 
7.048848e+2, 1.3561897e+2, -1850104.5, -1652848.1, 60110.215, 0.010872092, -0.036056083, -1635974.1, -25044.96, 0.0, 9.998061, 10.000693 
7.049052e+2, 1.4561938e+2, -1722319.9, -1553317.1, -44124.395, -0.07010564, -0.054514214, -1542490.4, -29565.082, 0.0, 9.998331, 10.0005665 
7.049251e+2, 1.5562e+2, -1577336.5, -1431344.9, -51468.715, -0.051296644, -0.049278494, -1415024.3, -105.20164, 0.0, 9.998649, 10.000578 
7.0494473e+2, 1.6562046e+2, -1454553.1, -1343189.8, -65333.27, -0.042666357, -0.0484698, -1313029.3, 3885.009, 0.0, 9.998912, 10.000383 
7.0496404e+2, 1.7562078e+2, -1323803.5, -1228128.0, -63919.086, -0.04290248, -0.05586735, -1196127.8, 22783.105, 0.0, 9.999131, 10.000395 
7.0498335e+2, 1.85621e+2, -1200496.8, -1139709.8, -65485.69, -0.044432685, -0.062362168, -1097908.1, 22999.977, 0.0, 9.999398, 10.0002 
7.050026e+2, 1.956211e+2, -1058533.6, -1022078.3, -65387.234, -0.04684954, -0.069797754, -972425.6, 50480.188, 0.0, 9.999706, 10.000186 
7.05022e+2, 2.0562088e+2, -947420.56, -976114.94, -63037.71, -0.048214894, -0.08151804, -897117.94, 27789.043, 0.0, 10.000048, 9.999665 
7.050414e+2, 2.1562037e+2, -797476.0, -855232.2, -64880.656, -0.04859563, -0.09896797, -755336.9, 71574.21, 0.0, 10.000413, 9.999646 
7.05061e+2, 2.2561963e+2, -696370.06, -823648.25, -56650.406, -0.04615759, -0.10259531, -674808.2, 54109.31, 0.0, 10.000727, 9.999039 
7.0508075e+2, 2.3561871e+2, -560027.3, -709666.4, -55880.746, -0.041719045, -0.09736747, -541462.56, 89463.37, 0.0, 10.001001, 9.999017 
7.0510083e+2, 2.4561729e+2, -444812.5, -673673.25, -41376.242, -0.03586688, -0.10759786, -437561.72, 95377.45, 0.0, 10.001422, 9.998387 
7.0512104e+2, 2.556154e+2, -268570.25, -537861.0, -44864.617, -0.028868034, -0.13208847, -261292.36, 173664.02, 0.0, 10.00196, 9.998388 
7.051416e+2, 2.6561344e+2, -135513.8, -460772.4, -33826.03, -0.01761438, -0.15103382, -132033.22, 204940.98, 0.0, 10.002364, 9.998051 
7.0516235e+2, 2.7561128e+2, 5034.2417, -344039.7, -37466.3, -0.0027279689, -0.1697598, 9010.233, 248003.16, 0.0, 10.002664, 9.9980345 
7.0518315e+2, 2.8560886e+2, 106940.02, -308709.9, -27732.746, 0.009159763, -0.18260063, 108782.23, 249797.17, 0.0, 10.002969, 9.9974575 
7.052041e+2, 2.9560626e+2, 245589.4, -198561.48, -23979.88, 0.01890161, -0.18823864, 246880.34, 289919.63, 0.0, 10.00328, 9.997392 
7.0522517e+2, 3.0560285e+2, 297040.97, -241068.86, -11412.686, 0.024576318, -0.22039032, 297282.9, 297282.9, 0.00000008201181, 10.003696, 9.996565 
7.052468e+2, 3.155994e+2, 509231.1, 84354.0, -26650.62, 0.0758874, -0.22221145, 510896.22, 510896.22, 0.0000012936833, 10.004194, 9.99856 
7.1485955e+2, 1.255972e+2, -1966439.9, -1727214.5, -78918.83, -0.051486894, -0.050527643, -1703525.5, 5615.708, 0.0, 9.997816, 10.000963 
7.148827e+2, 1.355979e+2, -1850950.9, -1655140.3, 68979.57, -0.0039006106, -0.046357706, -1633280.6, -22145.746, 0.0, 9.998063, 10.000677 
7.149036e+2, 1.455982e+2, -1725870.4, -1561004.3, -32490.148, -0.06665076, -0.07197088, -1554832.5, -41700.31, 0.0, 9.998332, 10.000514 
7.149239e+2, 1.5559885e+2, -1580553.6, -1438096.4, -39793.406, -0.0397063, -0.059439633, -1427734.4, -12608.266, 0.0, 9.998648, 10.000532 
7.1494365e+2, 1.6559938e+2, -1452690.1, -1339393.4, -57240.098, -0.034202266, -0.05078886, -1315509.4, 1611.4866, 0.0, 9.998912, 10.00041 
7.1496314e+2, 1.755998e+2, -1322188.8, -1224945.0, -55646.145, -0.045951188, -0.049854826, -1199671.1, 19445.398, 0.0, 9.999131, 10.000417 
7.149827e+2, 1.8559995e+2, -1201511.6, -1141929.6, -54081.395, -0.04825732, -0.062030975, -1109976.8, 11137.208, 0.0, 9.999398, 10.000185 
7.150023e+2, 1.955999e+2, -1059722.3, -1024657.4, -53798.67, -0.043102868, -0.086087175, -985606.4, 37506.61, 0.0, 9.999706, 10.000169 
7.1502197e+2, 2.0559967e+2, -952469.8, -986726.2, -49398.97, -0.04893309, -0.0933016, -917313.8, 7800.45, 0.0, 10.000048, 9.999593 
7.1504164e+2, 2.1559928e+2, -802255.9, -865340.1, -51448.438, -0.06310854, -0.0896332, -773450.25, 53667.363, 0.0, 10.000414, 9.999577 
7.1506166e+2, 2.2559851e+2, -696728.1, -824747.0, -46500.0, -0.05387032, -0.09530723, -681620.8, 47503.598, 0.0, 10.000728, 9.999031 
7.1508193e+2, 2.3559737e+2, -560416.3, -711257.1, -45123.406, -0.026092498, -0.11082936, -547948.4, 83185.83, 0.0, 10.001004, 9.999004 
7.151024e+2, 2.4559586e+2, -452134.6, -689392.0, -21349.844, -0.021173792, -0.122456186, -450228.72, 82919.43, 0.0, 10.001424, 9.998279 
7.1512294e+2, 2.5559402e+2, -276545.3, -554053.3, -25382.266, -0.03456474, -0.13278353, -274242.84, 160922.73, 0.0, 10.001957, 9.998279 
7.151438e+2, 2.6559195e+2, -142623.58, -474934.72, -22695.834, -0.02770443, -0.14873452, -141080.69, 196103.86, 0.0, 10.00236, 9.997955 
7.1516496e+2, 2.7558967e+2, -973.93677, -356121.66, -26255.424, -0.0044099553, -0.17288122, 956.5849, 240161.69, 0.0, 10.002662, 9.997953 
7.151862e+2, 2.8558722e+2, 113740.9, -294173.72, -16342.669, 0.013651781, -0.18999408, 114394.6, 255621.63, 0.0, 10.002966, 9.997559 
7.1520746e+2, 2.9558468e+2, 251863.03, -184903.56, -12258.66, 0.027388694, -0.20006986, 252206.81, 295456.7, 0.0, 10.003277, 9.997487 
7.152288e+2, 3.0558124e+2, 297636.53, -238651.81, 6993.0435, 0.023355044, -0.23921499, 297727.72, 297727.72, 0.00000004119849, 10.003691, 9.996584 
7.152508e+2, 3.1557807e+2, 507681.56, 83498.77, -8268.111, 0.055130467, -0.2203551, 507842.66, 507842.66, 0.0000010048329, 10.004183, 9.99856 
7.248573e+2, 1.2557584e+2, -1970794.4, -1727888.8, -97353.766, -0.054847114, -0.052308254, -1693686.4, 15663.812, 0.0, 9.997781, 10.000976 
7.2488064e+2, 1.355765e+2, -1836460.1, -1643743.6, 55821.14, -0.018538162, -0.056232966, -1628742.5, -17398.78, 0.0, 9.998144, 10.000716 
7.249019e+2, 1.4557682e+2, -1716517.1, -1555720.9, -42797.063, -0.06690093, -0.08425284, -1545039.8, -31698.639, 0.0, 9.998393, 10.00052 
7.2492254e+2, 1.5557751e+2, -1589471.0, -1441607.4, -45635.14, -0.033508904, -0.06563714, -1428657.3, -13322.454, 0.0, 9.998584, 10.000538 
7.2494256e+2, 1.6557811e+2, -1463321.1, -1342228.5, -61548.816, -0.028534265, -0.052763455, -1316437.6, 891.4502, 0.0, 9.99883, 10.000429 
7.2496223e+2, 1.7557856e+2, -1322657.9, -1223466.4, -60513.82, -0.04510358, -0.049029272, -1194821.0, 24503.273, 0.0, 9.999122, 10.000431 
7.249821e+2, 1.8557867e+2, -1201433.9, -1146860.8, -58603.906, -0.048419088, -0.06522168, -1109502.3, 11819.816, 0.0, 9.99942, 10.00014 
7.2500205e+2, 1.9557846e+2, -1060148.6, -1029927.9, -60616.09, -0.04173006, -0.09882851, -982567.2, 40754.957, 0.0, 9.999726, 10.000122 
7.25022e+2, 2.055782e+2, -958535.2, -997351.1, -55837.246, -0.04775126, -0.10536172, -918829.1, 6494.8345, 0.0, 10.000039, 9.999523 
7.25042e+2, 2.1557784e+2, -814616.5, -878870.5, -57660.387, -0.06340135, -0.092802934, -780736.94, 46590.555, 0.0, 10.000361, 9.999509 
7.250624e+2, 2.2557697e+2, -694226.25, -830084.75, -53494.656, -0.053346563, -0.09994357, -675691.3, 53643.71, 0.0, 10.000773, 9.998972 
7.2508305e+2, 2.3557566e+2, -527569.56, -701822.0, -56034.043, -0.022850683, -0.12536663, -511106.25, 120239.67, 0.0, 10.001258, 9.998947 
7.2510386e+2, 2.455741e+2, -433220.6, -687837.1, -32722.914, -0.0147601245, -0.13722742, -429082.34, 104278.14, 0.0, 10.001587, 9.998211 
7.251249e+2, 2.5557226e+2, -305317.7, -575623.44, -33909.207, -0.024577111, -0.14003679, -301128.78, 134249.4, 0.0, 10.001794, 9.998209 
7.251461e+2, 2.655702e+2, -186123.98, -505236.34, -30143.367, -0.021443542, -0.1482236, -183301.61, 154096.05, 0.0, 10.002103, 9.99787 
7.2516745e+2, 2.755679e+2, -30541.72, -378992.9, -33205.785, -0.0078948075, -0.16421935, -27405.588, 212013.25, 0.0, 10.002497, 9.997875 
7.2518903e+2, 2.855654e+2, 95518.336, -301801.25, -28290.502, 0.010348052, -0.1834213, 97522.6, 238963.75, 0.0, 10.002837, 9.997568 
7.2521067e+2, 2.9556277e+2, 232382.66, -192889.63, -30559.13, 0.03231356, -0.20402479, 234567.34, 278031.56, 0.0, 10.003138, 9.9974985 
7.2523236e+2, 3.0555928e+2, 262530.7, -252574.14, -10628.141, 0.0228337, -0.25307587, 262749.88, 262749.88, 0.000000018939705, 10.003437, 9.996611 
7.2525454e+2, 3.1555632e+2, 442895.4, 52016.836, -25710.709, 0.038530663, -0.21364754, 444579.3, 444579.3, 0.0000007295325, 10.00374, 9.998556 
7.348551e+2, 1.25554e+2, -1966499.4, -1718651.6, -85382.67, -0.05059182, -0.066432044, -1692085.1, 17478.871, 0.0, 9.997779, 10.00104 
7.348786e+2, 1.355548e+2, -1829765.1, -1629988.8, 68463.305, -0.033099104, -0.06541035, -1608778.4, 2777.149, 0.0, 9.998144, 10.000811 
7.349003e+2, 1.4555523e+2, -1711882.5, -1546317.8, -36000.598, -0.07113632, -0.090955906, -1538828.5, -25276.77, 0.0, 9.998394, 10.000585 
7.349211e+2, 1.5555602e+2, -1585199.3, -1433052.5, -38333.16, -0.03339267, -0.06798841, -1423940.3, -8395.418, 0.0, 9.998585, 10.000596 
7.349414e+2, 1.6555665e+2, -1462576.9, -1341029.9, -50672.492, -0.026203085, -0.054560754, -1322676.1, -5137.2705, 0.0, 9.998831, 10.000438 
7.349614e+2, 1.7555709e+2, -1322322.9, -1222994.0, -49619.867, -0.040443867, -0.05340624, -1202453.9, 17080.234, 0.0, 9.999122, 10.000434 
7.349815e+2, 1.8555714e+2, -1206847.9, -1158176.4, -47261.86, -0.04491102, -0.07201746, -1129352.9, -7820.4585, 0.0, 9.99942, 10.000062 
7.3500174e+2, 1.9555683e+2, -1065466.1, -1041144.7, -49264.156, -0.042820726, -0.10808625, -1002562.5, 20970.703, 0.0, 9.999726, 10.000046 
7.3502207e+2, 2.0555645e+2, -963219.3, -1007312.5, -43926.273, -0.044933386, -0.117591, -936117.5, -10581.505, 0.0, 10.00004, 9.9994545 
7.3504245e+2, 2.15556e+2, -819431.06, -889096.25, -45364.3, -0.049915545, -0.108290255, -797069.0, 30471.629, 0.0, 10.000362, 9.999438 
7.3506325e+2, 2.2555502e+2, -701889.44, -846139.5, -35376.402, -0.04477163, -0.116403945, -693680.75, 35868.363, 0.0, 10.000773, 9.998862 
7.350842e+2, 2.3555364e+2, -534925.94, -717084.0, -38523.082, -0.031618673, -0.14097804, -527114.06, 104446.89, 0.0, 10.001257, 9.998843 
7.3510545e+2, 2.45552e+2, -435390.66, -692504.6, -25091.355, -0.01664222, -0.15182132, -432964.94, 100611.18, 0.0, 10.001587, 9.998179 
7.351269e+2, 2.5555015e+2, -307374.0, -580354.06, -25878.436, 0.000037712565, -0.15358518, -304942.38, 130651.734, 0.0, 10.001795, 9.998177 
7.351484e+2, 2.6554817e+2, -191354.02, -516401.66, -15551.93, 0.00022171439, -0.14953487, -190611.63, 147001.8, 0.0, 10.002104, 9.997794 
7.351699e+2, 2.7554598e+2, -36250.51, -390564.7, -18709.578, -0.013133384, -0.1443321, -35265.29, 204368.78, 0.0, 10.002495, 9.997797 
7.351917e+2, 2.855434e+2, 89878.73, -313067.0, -16908.521, -0.00044562932, -0.16360456, 90587.0, 232244.23, 0.0, 10.002834, 9.997493 
7.352138e+2, 2.9554054e+2, 227622.16, -202520.34, -18983.875, 0.033782654, -0.20110807, 228458.36, 272140.6, 0.0, 10.003136, 9.997434 
7.3523575e+2, 3.055369e+2, 263650.66, -249328.16, 965.9113, 0.022728771, -0.26273793, 263652.47, 263652.47, 0.0000000073965225, 10.003432, 9.996635 
7.352581e+2, 3.1553414e+2, 440121.38, 49012.684, -13635.361, 0.02482212, -0.20349135, 440596.2, 440596.2, 0.0000004773962, 10.003727, 9.998543 
7.4485284e+2, 1.2553218e+2, -1942291.5, -1706659.5, -79758.59, -0.058669318, -0.07266556, -1682201.0, 27576.195, 0.0, 9.997944, 10.001042 
7.448766e+2, 1.3553292e+2, -1838589.3, -1630370.8, 69314.61, -0.03450114, -0.08315253, -1609407.1, 2361.99, 0.0, 9.998067, 10.000845 
7.448986e+2, 1.4553337e+2, -1734803.3, -1555217.4, -40092.81, -0.06016202, -0.10610519, -1546673.1, -32908.215, 0.0, 9.998228, 10.000603 
7.4491954e+2, 1.5553437e+2, -1601769.0, -1439305.4, -45425.945, -0.035548173, -0.06642857, -1427466.6, -11709.973, 0.0, 9.998465, 10.000611 
7.449401e+2, 1.6553502e+2, -1473049.6, -1347416.9, -56417.637, -0.032424193, -0.051676955, -1325800.8, -8050.1865, 0.0, 9.998765, 10.000424 
7.449604e+2, 1.7553532e+2, -1324307.8, -1225708.1, -57171.637, -0.04204769, -0.06192514, -1199515.8, 20231.107, 0.0, 9.999116, 10.000418 
7.449809e+2, 1.8553531e+2, -1204555.1, -1162913.0, -54480.45, -0.046763532, -0.082885884, -1125410.5, -3664.879, 0.0, 9.999462, 10.00001 
7.450014e+2, 1.9553499e+2, -1057980.0, -1043794.9, -54814.008, -0.049263354, -0.113987036, -995616.44, 28130.074, 0.0, 9.9998045, 9.9999895 
7.450221e+2, 2.0553455e+2, -960993.9, -1018842.7, -51534.0, -0.048434015, -0.12130191, -930822.0, -5071.908, 0.0, 10.00011, 9.999342 
7.450429e+2, 2.1553397e+2, -823947.75, -903482.0, -56105.184, -0.044332255, -0.1121672, -794945.56, 32810.44, 0.0, 10.000384, 9.999329 
7.45064e+2, 2.255329e+2, -712103.94, -859171.44, -40615.92, -0.038976997, -0.12206232, -701632.5, 28133.064, 0.0, 10.000739, 9.99879 
7.4508536e+2, 2.355314e+2, -554136.94, -734185.75, -41630.76, -0.032854643, -0.14951837, -544977.06, 86801.21, 0.0, 10.00116, 9.998772 
7.45107e+2, 2.4552973e+2, -446229.44, -702249.6, -33826.19, -0.017202515, -0.15910354, -441835.63, 91958.305, 0.0, 10.0015335, 9.998138 
7.451288e+2, 2.5552788e+2, -299312.13, -580845.6, -35320.027, 0.006373106, -0.15638237, -294948.66, 140863.47, 0.0, 10.00187, 9.9981365 
7.4515057e+2, 2.6552588e+2, -184959.81, -516455.56, -21721.889, 0.0069126445, -0.14917502, -183542.52, 154289.14, 0.0, 10.002161, 9.997766 
7.451724e+2, 2.7552372e+2, -49230.355, -399836.72, -21553.127, -0.011301358, -0.14182855, -47910.37, 191942.17, 0.0, 10.0024185, 9.997769 
7.4519444e+2, 2.8552112e+2, 69765.97, -323487.75, -16195.186, -0.0004701716, -0.1608198, 70431.8, 212307.66, 0.0, 10.0027, 9.997485 
7.4521685e+2, 2.955182e+2, 207906.81, -211976.75, -13944.201, 0.034257125, -0.19992372, 208369.39, 252270.38, 0.0, 10.003001, 9.997434 
7.452391e+2, 3.055145e+2, 231427.58, -255511.58, 5700.8325, 0.022554882, -0.26828304, 231494.3, 231494.3, 0.0000000015345106, 10.003172, 9.996717 
7.4526155e+2, 3.1551206e+2, 372085.44, 20558.404, -4566.765, 0.022965362, -0.19042213, 372144.75, 372144.75, 0.00000026410652, 10.003242, 9.99858 
7.548505e+2, 1.2551042e+2, -1946840.8, -1716307.6, -75623.36, -0.08117755, -0.07071947, -1693714.5, 16274.816, 0.0, 9.997944, 10.000977 
7.548748e+2, 1.3551083e+2, -1841062.3, -1635432.8, 73336.05, -0.02290899, -0.109957084, -1611957.9, 26.318077, 0.0, 9.998066, 10.000811 
7.548971e+2, 1.4551128e+2, -1737026.0, -1559746.4, -31704.16, -0.033743966, -0.13031588, -1554247.0, -40266.617, 0.0, 9.998227, 10.000572 
7.54918e+2, 1.5551254e+2, -1603891.4, -1443841.8, -36419.79, -0.039997, -0.06077777, -1435944.1, -19973.877, 0.0, 9.998465, 10.000581 
7.549387e+2, 1.6551319e+2, -1475623.6, -1352989.0, -43340.105, -0.04743085, -0.04382727, -1339218.5, -21254.166, 0.0, 9.998765, 10.000386 
7.5495946e+2, 1.7551324e+2, -1326918.1, -1231353.9, -44123.293, -0.05027887, -0.074669465, -1214097.6, 5864.9385, 0.0, 9.999117, 10.00038 
7.549802e+2, 1.8551317e+2, -1206646.8, -1167409.0, -41752.332, -0.05428929, -0.097991966, -1140895.9, -18934.092, 0.0, 9.999462, 9.999979 
7.550011e+2, 1.9551295e+2, -1060569.1, -1049337.4, -42193.348, -0.061182503, -0.11667485, -1012387.75, 11574.305, 0.0, 9.9998045, 9.999951 
7.550221e+2, 2.0551248e+2, -972109.0, -1042125.94, -41402.785, -0.058274712, -0.11666792, -952897.7, -26931.545, 0.0, 10.000111, 9.999182 
7.550432e+2, 2.1551177e+2, -834347.56, -925551.2, -45662.69, -0.04660571, -0.104606204, -815415.6, 12558.008, 0.0, 10.000385, 9.999177 
7.550648e+2, 2.2551057e+2, -714576.94, -864771.4, -24838.51, -0.03610913, -0.117095865, -710575.8, 19408.523, 0.0, 10.000741, 9.998751 
7.5508654e+2, 2.3550898e+2, -557045.1, -740246.5, -26012.572, -0.026988119, -0.15127276, -553423.2, 78574.71, 0.0, 10.001159, 9.998731 
7.5510854e+2, 2.4550727e+2, -450084.94, -710046.1, -21215.07, -0.016475106, -0.1594426, -448365.0, 85648.94, 0.0, 10.001532, 9.998085 
7.5513047e+2, 2.5550544e+2, -302940.22, -588146.56, -22866.855, -0.00463186, -0.14876908, -301118.47, 134913.69, 0.0, 10.001868, 9.998087 
7.5515264e+2, 2.6550338e+2, -184176.0, -514497.34, -12070.312, -0.00082237506, -0.14695457, -183735.52, 154316.72, 0.0, 10.002159, 9.99778 
7.551748e+2, 2.7550107e+2, -48458.88, -397453.13, -11698.26, -0.0033605623, -0.15581276, -48067.19, 192006.95, 0.0, 10.002415, 9.997787 
7.551973e+2, 2.854985e+2, 72427.17, -316509.56, -4990.803, 0.0092152245, -0.17411269, 72491.2, 214588.17, 0.0, 10.002693, 9.997537 
7.552199e+2, 2.9549578e+2, 210281.33, -204912.67, -3194.27, 0.033766866, -0.1995989, 210305.9, 254426.44, 0.0, 10.002991, 9.997487 
7.5524217e+2, 3.054922e+2, 239725.33, -236506.33, 8291.624, 0.021945093, -0.2692995, 239869.66, 239869.66, 0.00000000001992495, 10.003163, 9.996853 
7.552648e+2, 3.1549e+2, 377197.4, 32335.113, -1110.3828, 0.030600324, -0.1764489, 377201.0, 377201.0, 0.000000109993245, 10.003236, 9.998665 
7.648485e+2, 1.2548839e+2, -1928969.9, -1711078.0, -86373.43, -0.08807804, -0.07838418, -1680993.0, 29211.646, 0.0, 9.998082, 10.000945 
7.6487285e+2, 1.3548884e+2, -1836129.9, -1633146.4, 64746.21, -0.027627295, -0.113447964, -1614252.8, -2053.4758, 0.0, 9.998101, 10.000809 
7.6489544e+2, 1.4548926e+2, -1734999.3, -1566010.3, -32368.344, -0.026100365, -0.13332403, -1560022.5, -45826.668, 0.0, 9.998273, 10.000507 
7.649164e+2, 1.5549043e+2, -1586393.1, -1442450.0, -39526.516, -0.04195026, -0.06551038, -1432310.4, -16123.713, 0.0, 9.998615, 10.000517 
7.649375e+2, 1.6549101e+2, -1458777.3, -1346204.3, -46915.9, -0.052279525, -0.050254263, -1329215.4, -11034.192, 0.0, 9.998887, 10.000374 
7.6495856e+2, 1.7549105e+2, -1330084.8, -1234660.5, -45813.043, -0.051759563, -0.08278428, -1216226.8, 3952.5908, 0.0, 9.999103, 10.000363 
7.649796e+2, 1.854909e+2, -1225689.3, -1188685.1, -43740.883, -0.05535459, -0.10578927, -1159694.1, -37514.855, 0.0, 9.999384, 9.99987 
7.650008e+2, 1.9549058e+2, -1080640.8, -1070716.5, -49970.84, -0.06460432, -0.1226787, -1025462.0, -1281.1061, 0.0, 9.999718, 9.999846 
7.6502216e+2, 2.0549008e+2, -971715.0, -1048170.5, -45909.57, -0.062493898, -0.11918234, -950201.25, -24015.65, 0.0, 10.00014, 9.999126 
7.650437e+2, 2.1548936e+2, -802361.56, -916321.75, -42886.363, -0.05010691, -0.1018829, -788025.7, 40167.36, 0.0, 10.000632, 9.999121 
7.6506555e+2, 2.254881e+2, -689313.06, -859044.8, -22977.549, -0.037171744, -0.115650274, -686257.44, 43946.9, 0.0, 10.000942, 9.9986925 
7.650877e+2, 2.3548637e+2, -569096.6, -752353.3, -25586.523, -0.024158696, -0.15673123, -565591.25, 66627.81, 0.0, 10.001104, 9.998674 
7.651099e+2, 2.4548464e+2, -473064.97, -723969.3, -17757.404, -0.015307972, -0.16328861, -471814.44, 62420.992, 0.0, 10.001387, 9.998059 
7.6513225e+2, 2.5548288e+2, -318759.97, -598397.1, -17971.594, -0.009799635, -0.14373137, -317609.72, 118643.55, 0.0, 10.001772, 9.998063 
7.6515466e+2, 2.654808e+2, -204103.06, -523653.34, -12665.331, -0.0031103527, -0.14457305, -203601.86, 134671.86, 0.0, 10.002021, 9.997784 
7.6517713e+2, 2.7547833e+2, -85390.086, -414778.53, -13229.118, 0.004673861, -0.16569212, -84859.625, 155436.94, 0.0, 10.00216, 9.997791 
7.6519984e+2, 2.8547582e+2, 25577.563, -335943.38, -5344.1724, 0.018024668, -0.18091519, 25656.547, 167975.58, 0.0, 10.002358, 9.997564 
7.6522267e+2, 2.954733e+2, 156998.23, -226646.61, -5627.2466, 0.03568015, -0.19098923, 157080.77, 201421.9, 0.0, 10.002608, 9.997521 
7.652452e+2, 3.054697e+2, 195115.23, -239270.88, -276.87598, 0.023577465, -0.271899, 195115.42, 195115.42, 0.0, 10.002776, 9.99702 
7.6526797e+2, 3.154676e+2, 332290.2, 22431.564, -7241.0684, 0.03654709, -0.18600543, 332459.3, 332459.3, 0.000000028836135, 10.002877, 9.998769 
7.748466e+2, 1.2546605e+2, -1928617.4, -1710653.0, -85457.74, -0.079455905, -0.09657579, -1681142.9, 29280.338, 0.0, 9.998082, 10.000949 
7.748707e+2, 1.3546692e+2, -1833866.0, -1628693.8, 65059.44, -0.04950954, -0.09255913, -1609802.9, 2610.9236, 0.0, 9.998102, 10.000839 
7.748936e+2, 1.454673e+2, -1742204.9, -1581286.4, -19962.357, -0.03837123, -0.11396523, -1578847.0, -64436.004, 0.0, 9.998274, 10.000402 
7.7491504e+2, 1.5546802e+2, -1593092.6, -1456938.1, -26987.613, -0.04176571, -0.080798365, -1451784.0, -35378.008, 0.0, 9.998617, 10.000417 
7.749364e+2, 1.654685e+2, -1457570.5, -1344248.4, -39115.75, -0.04697189, -0.07147557, -1332058.0, -13656.801, 0.0, 9.998889, 10.000387 
7.749577e+2, 1.7546871e+2, -1329645.5, -1234057.4, -37677.96, -0.046502475, -0.08625801, -1220991.8, -594.6198, 0.0, 9.999104, 10.000367 
7.7497905e+2, 1.8546852e+2, -1238852.8, -1216144.9, -31303.93, -0.050029065, -0.10610705, -1194199.4, -71801.56, 0.0, 9.999384, 9.999682 
7.750006e+2, 1.9546792e+2, -1092957.5, -1096447.8, -37281.52, -0.059638623, -0.13194437, -1057380.3, -32977.4, 0.0, 9.999718, 9.99967 
7.7502227e+2, 2.0546734e+2, -968569.44, -1041734.25, -27490.51, -0.061262697, -0.12878257, -959391.6, -32983.344, 0.0, 10.00014, 9.99917 
7.7504426e+2, 2.1546675e+2, -799854.94, -910980.0, -25140.402, -0.054943096, -0.104021326, -794431.94, 33982.152, 0.0, 10.000631, 9.999159 
7.7506644e+2, 2.2546548e+2, -695052.94, -870915.8, -17146.072, -0.042196453, -0.11773253, -693396.8, 37028.695, 0.0, 10.000942, 9.998611 
7.750887e+2, 2.3546359e+2, -574164.5, -763212.6, -19288.762, -0.02437154, -0.1656912, -572216.56, 60225.203, 0.0, 10.001104, 9.9986 
7.751113e+2, 2.4546184e+2, -473225.94, -724496.0, -3404.1848, -0.013916103, -0.17044002, -473179.8, 61278.563, 0.0, 10.001387, 9.998055 
7.7513397e+2, 2.5546017e+2, -319386.44, -599131.2, -4041.0232, -0.00977094, -0.14135312, -319328.06, 117147.42, 0.0, 10.001769, 9.998059 
7.751567e+2, 2.6545808e+2, -205366.23, -525550.94, -7685.5293, -0.00053323247, -0.14216071, -205181.88, 133314.2, 0.0, 10.002017, 9.997772 
7.751794e+2, 2.7545553e+2, -86639.8, -416949.63, -7991.739, 0.012892445, -0.17120002, -86446.55, 154073.27, 0.0, 10.002157, 9.997778 
7.752022e+2, 2.8545305e+2, 25557.365, -335568.34, 4049.4946, 0.025848538, -0.18119514, 25602.77, 168144.78, 0.0, 10.002356, 9.997569 
7.752252e+2, 2.954507e+2, 157671.36, -224604.28, 3695.404, 0.03885744, -0.17520334, 157707.08, 202269.98, 0.0, 10.0026045, 9.997538 
7.7524793e+2, 3.05447e+2, 207779.61, -212026.75, 3478.4985, 0.02638923, -0.2760441, 207808.44, 207808.44, 0.0, 10.002771, 9.99721 
7.752708e+2, 3.1544483e+2, 339409.84, 39006.156, -3248.0278, 0.040547274, -0.21693729, 339444.94, 339444.94, 0.0000000029769756, 10.002869, 9.998887 
7.8484464e+2, 1.2544356e+2, -1972042.0, -1734476.0, -96756.484, -0.069161154, -0.10314493, -1700055.9, 10587.568, 0.0, 9.997797, 10.000922 
7.8486866e+2, 1.3544461e+2, -1825696.1, -1623631.3, 49627.297, -0.06555695, -0.08340409, -1612100.6, 532.146, 0.0, 9.998154, 10.000849 
7.848918e+2, 1.4544497e+2, -1724892.4, -1572699.0, -28776.23, -0.043339595, -0.10623608, -1567439.8, -52809.9, 0.0, 9.998391, 10.000404 
7.849137e+2, 1.5544553e+2, -1598724.5, -1459777.8, -27246.67, -0.035024863, -0.08987733, -1454625.9, -38000.035, 0.0, 9.998579, 10.000416 
7.849353e+2, 1.6544594e+2, -1465127.6, -1355581.4, -38108.633, -0.040443935, -0.0841623, -1343628.5, -25006.88, 0.0, 9.99887, 10.000319 
7.849568e+2, 1.7544617e+2, -1313834.6, -1234353.3, -42916.145, -0.049095042, -0.091446966, -1215603.6, 5014.019, 0.0, 9.999247, 10.000297 
7.849785e+2, 1.8544589e+2, -1214432.8, -1217426.8, -34786.758, -0.053762086, -0.10854934, -1181110.9, -58491.574, 0.0, 9.999608, 9.999566 
7.850004e+2, 1.9544518e+2, -1065966.3, -1096119.5, -35561.855, -0.058218468, -0.13555564, -1042417.1, -17791.438, 0.0, 9.999959, 9.999557 
7.8502244e+2, 2.054445e+2, -959707.9, -1043555.1, -27302.277, -0.059227467, -0.1326728, -951601.5, -24969.59, 0.0, 10.000228, 9.999115 
7.850447e+2, 2.1544386e+2, -833179.7, -933046.2, -32680.39, -0.05588111, -0.10704279, -823436.0, 5202.2085, 0.0, 10.000429, 9.9991045 
7.850672e+2, 2.2544253e+2, -726099.5, -888505.4, -28050.701, -0.046662454, -0.12126745, -721391.1, 9258.892, 0.0, 10.000741, 9.998588 
7.850898e+2, 2.354406e+2, -569816.25, -763363.4, -26248.684, -0.032985825, -0.17146282, -566319.56, 66347.03, 0.0, 10.001145, 9.998579 
7.851126e+2, 2.4543884e+2, -470955.25, -723662.1, -9428.983, -0.019207137, -0.17551877, -470603.9, 64079.402, 0.0, 10.001404, 9.998053 
7.851357e+2, 2.554372e+2, -352616.47, -615395.6, -10312.059, -0.005368017, -0.14276652, -352212.4, 84487.87, 0.0, 10.001542, 9.998057 
7.8515863e+2, 2.6543513e+2, -241205.75, -538547.8, -13993.308, 0.0048106476, -0.14268409, -240548.66, 98172.0, 0.0, 10.001753, 9.99781 
7.851814e+2, 2.7543262e+2, -102536.086, -420313.8, -10894.386, 0.011788601, -0.1732499, -102163.03, 138581.14, 0.0, 10.00203, 9.997816 
7.8520447e+2, 2.8543022e+2, 11974.254, -335899.16, 4412.29, 0.023854902, -0.1813916, 12030.208, 154796.02, 0.0, 10.002235, 9.997623 
7.852277e+2, 2.9542795e+2, 128936.49, -231965.7, 7269.112, 0.040697005, -0.17080128, 129082.84, 173868.72, 0.0, 10.002379, 9.997595 
7.8525054e+2, 3.0542427e+2, 172242.45, -218204.5, 754.44446, 0.029974267, -0.27733508, 172243.9, 172243.9, 0.0, 10.0024805, 9.997307 
7.8527355e+2, 3.1542227e+2, 295045.7, 20446.41, -12012.468, 0.04304536, -0.21008472, 295570.16, 295570.16, 0.0, 10.002552, 9.998911 
7.9484254e+2, 1.2542096e+2, -1976957.5, -1743712.5, -81866.72, -0.05841883, -0.09733652, -1717846.6, -6981.3457, 0.0, 9.997792, 10.000862 
7.948666e+2, 1.3542187e+2, -1826838.4, -1626119.0, 61893.23, -0.07563772, -0.08613159, -1608568.4, 4287.6772, 0.0, 9.998154, 10.000833 
7.948902e+2, 1.4542226e+2, -1716739.4, -1556294.8, -22584.508, -0.04076951, -0.110568956, -1553176.4, -38324.02, 0.0, 9.998393, 10.000517 
7.949124e+2, 1.5542297e+2, -1591535.3, -1445084.1, -20069.58, -0.02170889, -0.09265745, -1442383.6, -25537.648, 0.0, 9.998579, 10.000517 
7.949343e+2, 1.6542332e+2, -1475928.8, -1378150.9, -23990.234, -0.03283154, -0.088066146, -1372582.0, -53739.81, 0.0, 9.99887, 10.000164 
7.949559e+2, 1.7542337e+2, -1324137.9, -1256077.1, -28900.504, -0.059706897, -0.09830704, -1245461.0, -24620.154, 0.0, 9.999248, 10.000147 
7.9497796e+2, 1.8542302e+2, -1217764.4, -1224571.0, -21822.43, -0.06678928, -0.11317608, -1199081.5, -76238.19, 0.0, 9.999608, 9.9995165 
7.9500026e+2, 1.9542232e+2, -1069616.6, -1103859.5, -22823.37, -0.060544983, -0.13360329, -1058206.5, -33357.496, 0.0, 9.999959, 9.999504 
7.950227e+2, 2.0542155e+2, -970556.25, -1066339.5, -19950.83, -0.05655157, -0.13085347, -966566.8, -39710.473, 0.0, 10.000228, 9.99896 
7.9504514e+2, 2.154207e+2, -843469.8, -954714.0, -24994.379, -0.05312102, -0.110855155, -838112.06, -9246.917, 0.0, 10.00043, 9.998956 
7.9506785e+2, 2.254193e+2, -724052.2, -884361.8, -12988.847, -0.05066777, -0.1262449, -723006.56, 7871.103, 0.0, 10.000741, 9.998616 
7.9509073e+2, 2.3541743e+2, -568045.56, -759346.6, -11636.838, -0.049845397, -0.1742934, -567340.25, 65553.29, 0.0, 10.001143, 9.998608 
7.951139e+2, 2.4541566e+2, -471680.97, -724739.9, -4463.6987, -0.031123172, -0.1785991, -471602.28, 63307.88, 0.0, 10.001402, 9.998047 
7.951373e+2, 2.55414e+2, -353139.6, -616152.75, -5046.758, 0.0030764595, -0.14747399, -353042.8, 83884.695, 0.0, 10.00154, 9.998054 
7.951604e+2, 2.6541197e+2, -235881.64, -527028.2, -3778.8877, 0.012688926, -0.14574938, -235832.61, 103114.766, 0.0, 10.00175, 9.997891 
7.9518336e+2, 2.7540958e+2, -97301.96, -408643.2, -856.3285, 0.001337794, -0.17240414, -97299.61, 143670.06, 0.0, 10.002026, 9.997898 
7.9520655e+2, 2.8540727e+2, 18098.6, -321947.94, 9648.867, 0.012005315, -0.1815873, 18372.168, 161362.64, 0.0, 10.00223, 9.997723 
7.952301e+2, 2.9540506e+2, 134245.27, -218991.8, 12422.13, 0.041437052, -0.17595997, 134681.58, 179691.6, 0.0, 10.002371, 9.997688 
7.9525304e+2, 3.0540153e+2, 172113.61, -217019.88, 3398.0867, 0.03439281, -0.27547312, 172143.28, 172143.28, 0.0, 10.002474, 9.997318 
7.9527605e+2, 3.153999e+2, 290594.5, 11272.111, -8444.673, 0.042621475, -0.17178945, 290849.56, 290849.56, 0.0, 10.002551, 9.998849 
8.048405e+2, 1.2539807e+2, -1940306.6, -1730864.9, -83269.54, -0.050420284, -0.09789394, -1701793.8, 9295.604, 0.0, 9.998065, 10.000819 
8.048649e+2, 1.3539897e+2, -1807539.5, -1617394.5, 58543.168, -0.07397628, -0.08787692, -1600815.4, 12265.39, 0.0, 9.998289, 10.000827 
8.0488867e+2, 1.4539939e+2, -1702822.5, -1544136.9, -31815.756, -0.03207821, -0.112384416, -1537995.6, -22919.09, 0.0, 9.998465, 10.000566 
8.0491096e+2, 1.554001e+2, -1578870.3, -1434341.9, -33543.77, -0.023993341, -0.09709118, -1426936.1, -9866.876, 0.0, 9.998647, 10.000558 
8.049331e+2, 1.6540039e+2, -1474826.6, -1394594.0, -32048.787, -0.038043547, -0.09328401, -1383364.0, -64297.89, 0.0, 9.998951, 10.000011 
8.049552e+2, 1.754003e+2, -1317554.4, -1269210.8, -37030.9, -0.06035011, -0.10276868, -1249160.8, -28093.855, 0.0, 9.999363, 10.000001 
8.049776e+2, 1.853999e+2, -1204643.0, -1221078.0, -31596.05, -0.066530064, -0.113946, -1180213.4, -57143.375, 0.0, 9.999711, 9.999491 
8.050002e+2, 1.9539922e+2, -1065653.1, -1105249.9, -31103.072, -0.06265684, -0.1281357, -1048581.9, -23506.744, 0.0, 10.000001, 9.999474 
8.050229e+2, 2.0539835e+2, -974803.6, -1083607.8, -30244.918, -0.060214028, -0.12815869, -966961.5, -39878.066, 0.0, 10.000265, 9.998822 
8.050456e+2, 2.1539725e+2, -840946.2, -967946.3, -33854.31, -0.05773431, -0.11874731, -832485.4, -3390.511, 0.0, 10.00051, 9.998826 
8.0506855e+2, 2.2539578e+2, -724412.5, -882298.2, -18796.697, -0.054561533, -0.13439819, -722205.56, 8902.404, 0.0, 10.00073, 9.998635 
8.0509174e+2, 2.3539402e+2, -598223.8, -771542.9, -18572.475, -0.051398586, -0.17375001, -596255.94, 36866.793, 0.0, 10.000926, 9.998628 
8.051151e+2, 2.4539232e+2, -506593.3, -736486.75, -13990.461, -0.035076246, -0.17682782, -505745.06, 29393.754, 0.0, 10.001141, 9.998092 
8.051386e+2, 2.5539064e+2, -374515.8, -621214.6, -10913.295, -0.007336171, -0.15099844, -374034.0, 63122.137, 0.0, 10.001371, 9.998099 
8.0516195e+2, 2.6538864e+2, -257677.64, -529998.75, -7069.6304, 0.0026335618, -0.15218318, -257494.23, 81681.49, 0.0, 10.001569, 9.997958 
8.0518514e+2, 2.7538633e+2, -134287.64, -418700.72, -5381.797, -0.002583892, -0.1796618, -134185.83, 107011.71, 0.0, 10.001739, 9.997968 
8.0520856e+2, 2.8538412e+2, -23516.98, -326947.34, 2552.2234, 0.010129958, -0.18639101, -23495.514, 119721.56, 0.0, 10.00188, 9.997857 
8.0523217e+2, 2.9538208e+2, 89466.13, -225643.44, 7809.55, 0.038037192, -0.1757544, 89659.56, 134894.27, 0.0, 10.001999, 9.997822 
8.0525535e+2, 3.0537862e+2, 135948.17, -226633.66, 3444.0142, 0.033141974, -0.27808625, 135980.88, 135980.88, 0.0, 10.0021925, 9.997387 
8.0527854e+2, 3.1537715e+2, 273326.03, 1619.5914, -4383.5845, 0.04551405, -0.16627352, 273396.72, 273396.72, 0.0, 10.002439, 9.9988365 
8.1483865e+2, 1.2537493e+2, -1941460.6, -1734357.0, -72630.1, -0.046513926, -0.10524711, -1711425.1, -109.39641, 0.0, 9.998069, 10.000793 
8.1486326e+2, 1.353759e+2, -1807045.5, -1616755.3, 65922.72, -0.060390998, -0.0888638, -1596148.9, 17157.746, 0.0, 9.99829, 10.000831 
8.148873e+2, 1.4537632e+2, -1703934.5, -1546821.0, -25516.93, -0.017085977, -0.11180381, -1542780.6, -27478.299, 0.0, 9.998466, 10.000546 
8.149094e+2, 1.5537696e+2, -1580284.5, -1437749.9, -26567.375, -0.04235289, -0.10309985, -1432959.0, -15663.413, 0.0, 9.998648, 10.000535 
8.149318e+2, 1.6537715e+2, -1485280.6, -1416606.8, -16804.988, -0.05663788, -0.09975521, -1412715.0, -93421.61, 0.0, 9.998952, 9.999861 
8.149546e+2, 1.7537694e+2, -1327604.8, -1290379.8, -21858.775, -0.051237106, -0.10484403, -1280282.8, -58987.066, 0.0, 9.999364, 9.999855 
8.149774e+2, 1.8537652e+2, -1204872.6, -1221767.6, -20841.52, -0.05303688, -0.110819206, -1190831.6, -67532.58, 0.0, 9.999711, 9.999487 
8.150002e+2, 1.9537592e+2, -1066135.8, -1106454.0, -20464.084, -0.064576045, -0.119138874, -1057569.1, -32265.564, 0.0, 10.000001, 9.999466 
8.15023e+2, 2.0537491e+2, -983213.9, -1101256.1, -21300.863, -0.07024509, -0.124653146, -979487.7, -52174.625, 0.0, 10.000266, 9.998702 
8.1504595e+2, 2.1537353e+2, -848859.8, -984658.2, -24942.748, -0.06970483, -0.13064155, -844423.4, -15096.295, 0.0, 10.00051, 9.998712 
8.150692e+2, 2.2537203e+2, -723649.2, -881082.56, -11617.974, -0.05854678, -0.14563686, -722796.44, 8544.282, 0.0, 10.0007305, 9.998644 
8.150928e+2, 2.3537043e+2, -597400.6, -769996.2, -11297.48, -0.03840726, -0.16989037, -596664.3, 36689.734, 0.0, 10.000926, 9.998639 
8.151162e+2, 2.453688e+2, -500532.94, -723675.7, -5592.76, -0.031416256, -0.1703562, -500392.88, 34976.316, 0.0, 10.001139, 9.998181 
8.1513965e+2, 2.5536713e+2, -368687.6, -608461.9, -2626.1177, -0.035813857, -0.15344869, -368658.84, 68727.27, 0.0, 10.001368, 9.998189 
8.151632e+2, 2.6536512e+2, -254574.28, -522655.34, -985.6481, -0.024800261, -0.16172473, -254570.66, 84834.984, 0.0, 10.001564, 9.998011 
8.151869e+2, 2.753628e+2, -131138.94, -411010.0, 696.54926, -0.00051194214, -0.19408229, -131137.2, 110290.445, 0.0, 10.001733, 9.998023 
8.152105e+2, 2.8536078e+2, -12890.138, -303650.78, 6659.852, 0.017500937, -0.19520435, -12737.674, 130707.87, 0.0, 10.001873, 9.99802 
8.1523407e+2, 2.9535905e+2, 100266.34, -202118.53, 12144.94, 0.029808432, -0.17084186, 100753.35, 146213.38, 0.0, 10.001994, 9.997986 
8.1525743e+2, 3.0535558e+2, 143222.45, -210151.1, 12514.671, 0.025649717, -0.28469366, 143665.11, 143665.11, 0.0, 10.002186, 9.997504 
8.1528103e+2, 3.1535405e+2, 273866.53, 5016.2393, 4870.319, 0.05133255, -0.19141744, 273954.75, 273954.75, 0.0000000016901937, 10.002428, 9.998865 
8.248367e+2, 1.2535146e+2, -1941003.6, -1736041.8, -88851.95, -0.043415565, -0.109278925, -1702887.1, 8658.692, 0.0, 9.99808, 10.000775 
8.248615e+2, 1.3535249e+2, -1817557.3, -1620574.5, 46471.656, -0.058568116, -0.08797925, -1610161.5, 3374.4956, 0.0, 9.998214, 10.000841 
8.248858e+2, 1.4535291e+2, -1705332.8, -1554986.4, -41532.32, -0.008375076, -0.10734828, -1544276.3, -28744.604, 0.0, 9.998489, 10.00048 
8.249081e+2, 1.5535346e+2, -1543230.6, -1427458.8, -46127.96, -0.04769177, -0.101506785, -1411327.3, 6198.611, 0.0, 9.998936, 10.000466 
8.2493085e+2, 1.6535355e+2, -1444329.5, -1402638.9, -34194.402, -0.06300187, -0.1028423, -1383436.9, -63912.24, 0.0, 9.999258, 9.999808 
8.2495403e+2, 1.7535321e+2, -1315565.6, -1290331.5, -31944.303, -0.04686575, -0.113964155, -1268602.9, -47075.027, 0.0, 9.999472, 9.999804 
8.2497716e+2, 1.8535277e+2, -1208312.9, -1229041.9, -30555.262, -0.04721098, -0.117462836, -1186412.1, -62880.656, 0.0, 9.999712, 9.999435 
8.250001e+2, 1.953522e+2, -1073072.5, -1115211.9, -33764.957, -0.065624095, -0.11613778, -1054342.6, -28806.863, 0.0, 9.999977, 9.999416 
8.250232e+2, 2.0535114e+2, -984905.2, -1106591.3, -32777.656, -0.07321412, -0.12186929, -976637.8, -49092.094, 0.0, 10.000274, 9.998661 
8.250464e+2, 2.1534964e+2, -839271.75, -984479.4, -30827.229, -0.06997415, -0.13649428, -832998.25, -3437.4675, 0.0, 10.000596, 9.998671 
8.2506996e+2, 2.2534813e+2, -717326.6, -880854.0, -21639.92, -0.05774491, -0.15055566, -714511.44, 17063.24, 0.0, 10.000786, 9.998618 
8.250936e+2, 2.3534657e+2, -608478.1, -777808.1, -23950.2, -0.038049378, -0.16566527, -605155.8, 28431.86, 0.0, 10.000861, 9.998616 
8.2511723e+2, 2.4534497e+2, -521406.75, -725144.75, -18601.39, -0.032927133, -0.16601259, -519722.34, 15880.096, 0.0, 10.000959, 9.998257 
8.2514083e+2, 2.5534332e+2, -405366.53, -617473.25, -16710.246, -0.040394306, -0.15686987, -404058.13, 33560.965, 0.0, 10.001079, 9.998266 
8.251645e+2, 2.6534134e+2, -298536.8, -535160.7, -14789.028, -0.030688064, -0.16851258, -297616.06, 42022.074, 0.0, 10.001225, 9.998088 
8.2518834e+2, 2.753391e+2, -174582.44, -423133.9, -11578.968, -0.0063748052, -0.2004991, -174044.19, 67615.33, 0.0, 10.001397, 9.998101 
8.252122e+2, 2.853372e+2, -49811.27, -307613.56, -7569.8916, 0.012005814, -0.19809975, -49589.184, 94086.98, 0.0, 10.001561, 9.998143 
8.252359e+2, 2.9533565e+2, 67974.01, -203624.9, -4908.7476, 0.025378376, -0.16753043, 68062.695, 113751.56, 0.0, 10.001712, 9.998111 
8.252594e+2, 3.0533227e+2, 108973.195, -212683.45, -2522.4858, 0.023299629, -0.28942138, 108992.97, 108992.97, 0.0, 10.001891, 9.997628 
8.252833e+2, 3.1533074e+2, 227338.53, -13641.454, -9644.883, 0.050000753, -0.20474114, 227723.94, 227723.94, 0.000000023716037, 10.002092, 9.9988985 
8.3483475e+2, 1.2532768e+2, -1941691.0, -1737721.3, -80862.64, -0.042445, -0.11008678, -1709553.6, 2225.8853, 0.0, 9.99808, 10.000765 
8.3485955e+2, 1.3532877e+2, -1816611.9, -1618559.9, 50894.65, -0.069316655, -0.08489107, -1606246.8, 7522.0366, 0.0, 9.998213, 10.000855 
8.348843e+2, 1.453292e+2, -1713779.6, -1572740.0, -25328.531, -0.0065559326, -0.09861871, -1568329.4, -52564.92, 0.0, 9.998489, 10.000358 
8.349071e+2, 1.553296e+2, -1551042.1, -1444387.4, -29834.871, -0.03998201, -0.092093974, -1436608.9, -18848.586, 0.0, 9.998938, 10.000349 
8.349301e+2, 1.6532958e+2, -1440525.9, -1395562.4, -26433.734, -0.056934293, -0.10241095, -1383342.9, -63583.063, 0.0, 9.999261, 9.999856 
8.349535e+2, 1.7532913e+2, -1312309.4, -1284088.9, -24041.02, -0.04730768, -0.13023394, -1270323.1, -48560.055, 0.0, 9.999474, 9.999846 
8.349768e+2, 1.8532866e+2, -1215182.5, -1243546.5, -20790.746, -0.049318906, -0.13409933, -1204197.4, -80430.5, 0.0, 9.999713, 9.999336 
8.3500004e+2, 1.9532813e+2, -1079541.1, -1128867.4, -23928.98, -0.06602794, -0.11916789, -1069840.5, -44069.082, 0.0, 9.999977, 9.999323 
8.350235e+2, 2.0532711e+2, -982292.56, -1101356.6, -20888.205, -0.069401644, -0.11976281, -978734.3, -50953.09, 0.0, 10.000275, 9.998697 
8.350471e+2, 2.1532561e+2, -837045.0, -979876.4, -19315.875, -0.05901134, -0.13644807, -834478.94, -4683.1973, 0.0, 10.000595, 9.998703 
8.350707e+2, 2.2532408e+2, -721818.4, -890126.0, -19140.748, -0.052365955, -0.14935704, -719669.06, 12140.663, 0.0, 10.000785, 9.998555 
8.3509433e+2, 2.353225e+2, -612599.4, -786456.8, -21367.055, -0.049857497, -0.16104984, -610011.9, 23811.527, 0.0, 10.000861, 9.998557 
8.351181e+2, 2.4532089e+2, -517033.63, -716154.75, -14428.384, -0.039710082, -0.16364832, -515993.56, 19844.918, 0.0, 10.000958, 9.99832 
8.35142e+2, 2.553192e+2, -401075.75, -608474.25, -12384.8955, -0.022695193, -0.1611618, -400338.8, 37516.094, 0.0, 10.001078, 9.998328 
8.3516586e+2, 2.6531732e+2, -292059.47, -521350.34, -8686.767, -0.016418718, -0.17275509, -291730.84, 48142.246, 0.0, 10.001223, 9.998184 
8.351896e+2, 2.7531525e+2, -168449.89, -409728.9, -5347.511, -0.019996053, -0.19951546, -168331.42, 73561.67, 0.0, 10.001393, 9.998196 
8.352135e+2, 2.853135e+2, -44541.703, -295603.38, -1952.3458, -0.00600767, -0.19547822, -44526.523, 99382.336, 0.0, 10.001555, 9.998228 
8.3523756e+2, 2.95312e+2, 73127.39, -191373.95, 624.5872, 0.024417374, -0.16558726, 73128.87, 119049.86, 0.0, 10.001704, 9.998199 
8.352613e+2, 3.053086e+2, 116725.11, -194800.73, 4791.339, 0.025821865, -0.2924903, 116798.78, 116798.78, 0.0, 10.001883, 9.997756 
8.3528525e+2, 3.1530723e+2, 228273.88, -9603.627, -1842.7177, 0.04111253, -0.21006556, 228288.14, 228288.14, 0.00000010288848, 10.002083, 9.998931 
8.4483296e+2, 1.2530375e+2, -1924387.4, -1730395.5, -88883.49, -0.03424564, -0.097276516, -1695829.8, 16184.988, 0.0, 9.998204, 10.000755 
8.448578e+2, 1.3530475e+2, -1771733.6, -1595209.3, 38145.957, -0.08042484, -0.08257029, -1587318.8, 26685.438, 0.0, 9.998514, 10.00087 
8.4488285e+2, 1.4530513e+2, -1680908.9, -1570244.4, -33180.207, -0.008478039, -0.0969373, -1561058.5, -45058.184, 0.0, 9.998774, 10.000237 
8.4490615e+2, 1.5530542e+2, -1546517.8, -1455039.8, -37313.31, -0.032985833, -0.08900657, -1441750.4, -23752.883, 0.0, 9.999024, 10.000235 
8.4492946e+2, 1.6530533e+2, -1430855.8, -1390437.5, -38171.426, -0.051157676, -0.10018259, -1367455.5, -47457.848, 0.0, 9.999326, 9.99986 
8.44953e+2, 1.7530487e+2, -1283380.0, -1269955.0, -39361.957, -0.05127008, -0.13085444, -1236737.3, -14736.563, 0.0, 9.999671, 9.999847 
8.4497654e+2, 1.8530431e+2, -1189019.0, -1240129.3, -39003.723, -0.053030416, -0.13656507, -1167944.1, -43939.125, 0.0, 9.999932, 9.999254 
8.4500015e+2, 1.953037e+2, -1064873.4, -1130467.5, -40929.844, -0.060700182, -0.122527204, -1045221.4, -19210.703, 0.0, 10.000116, 9.999246 
8.450238e+2, 2.0530261e+2, -983532.44, -1101070.0, -38672.77, -0.06212977, -0.12465, -971949.56, -43928.727, 0.0, 10.000262, 9.998704 
8.450476e+2, 2.1530111e+2, -868589.25, -994337.06, -39581.6, -0.056151263, -0.14337535, -857167.6, -27132.426, 0.0, 10.000377, 9.998709 
8.450714e+2, 2.252996e+2, -758229.94, -907422.56, -40902.176, -0.053358383, -0.15625905, -747752.2, -15703.079, 0.0, 10.000535, 9.998556 
8.450951e+2, 2.3529804e+2, -631062.3, -794851.56, -38517.227, -0.05413848, -0.16650291, -622456.6, 11606.213, 0.0, 10.000732, 9.998561 
8.4511894e+2, 2.4529643e+2, -528330.9, -716825.44, -31787.64, -0.04209012, -0.16982435, -523114.56, 12963.285, 0.0, 10.000861, 9.998362 
8.451431e+2, 2.5529477e+2, -419704.8, -612439.6, -31367.44, -0.018643055, -0.16948308, -414728.28, 23365.807, 0.0, 10.000929, 9.998373 
8.45167e+2, 2.65293e+2, -310017.44, -512827.56, -24347.744, -0.012898039, -0.17982326, -307135.4, 32975.656, 0.0, 10.001026, 9.998337 
8.451908e+2, 2.7529112e+2, -193543.38, -405145.2, -17023.783, -0.023003533, -0.20255677, -192182.53, 49946.35, 0.0, 10.00115, 9.998343 
8.452148e+2, 2.8528944e+2, -85783.89, -313987.16, -15061.62, -0.011499944, -0.19522972, -84794.1, 59349.734, 0.0, 10.0012665, 9.99824 
8.4523904e+2, 2.95288e+2, 26462.94, -211890.61, -17858.45, 0.01989431, -0.16266252, 27793.541, 73949.945, 0.0, 10.001376, 9.998216 
8.45263e+2, 3.0528474e+2, 79113.74, -195253.84, -12276.661, 0.02442831, -0.28918955, 79661.97, 79661.97, 0.00000000024035085, 10.001549, 9.997912 
8.452871e+2, 3.152835e+2, 186207.14, -22795.875, -16709.895, 0.04332548, -0.20331451, 187534.67, 187534.67, 0.00000026211356, 10.001764, 9.998993 
8.548313e+2, 1.2527971e+2, -1925056.3, -1732479.6, -73073.234, -0.019660655, -0.06991002, -1707891.4, 4359.782, 0.0, 9.998206, 10.00074 
8.5485613e+2, 1.3528046e+2, -1770705.5, -1593874.8, 48922.64, -0.092023015, -0.08093221, -1581242.1, 33000.15, 0.0, 9.998518, 10.000877 
8.548816e+2, 1.452807e+2, -1688703.4, -1587359.9, -24361.918, -0.014348424, -0.10262695, -1581807.6, -65568.336, 0.0, 9.998776, 10.000119 
8.549051e+2, 1.5528092e+2, -1554236.3, -1471688.8, -27963.111, -0.02691644, -0.09242173, -1463108.1, -44870.465, 0.0, 9.999026, 10.000119 
8.549288e+2, 1.652808e+2, -1433709.4, -1396850.3, -25383.16, -0.045911875, -0.09617764, -1383911.8, -63673.703, 0.0, 9.999328, 9.999815 
8.549526e+2, 1.752804e+2, -1286205.8, -1276319.1, -26710.146, -0.059031803, -0.11554995, -1254098.8, -31858.133, 0.0, 9.999673, 9.999804 
8.549764e+2, 1.8527979e+2, -1193466.0, -1249789.8, -32301.084, -0.058635797, -0.124474585, -1178774.0, -54528.38, 0.0, 9.999933, 9.999187 
8.550003e+2, 1.9527893e+2, -1069226.8, -1139880.6, -34332.457, -0.049846556, -0.12613885, -1055292.1, -29038.854, 0.0, 10.000117, 9.999181 
8.5502416e+2, 2.0527773e+2, -985014.06, -1104572.4, -34674.63, -0.051498484, -0.13656794, -975685.5, -47421.047, 0.0, 10.000264, 9.99868 
8.5504794e+2, 2.1527618e+2, -869884.75, -997494.94, -35477.766, -0.061224926, -0.15712748, -860684.6, -30405.615, 0.0, 10.000378, 9.998687 
8.5507184e+2, 2.2527467e+2, -753819.06, -898549.25, -33769.88, -0.06072766, -0.17093697, -746327.4, -14034.676, 0.0, 10.000535, 9.998617 
8.550958e+2, 2.3527317e+2, -626719.75, -785865.6, -31463.133, -0.05143178, -0.18169099, -620725.25, 13580.462, 0.0, 10.000732, 9.998624 
8.551198e+2, 2.4527161e+2, -527087.1, -714153.94, -29560.29, -0.040351454, -0.18426707, -522527.16, 13793.206, 0.0, 10.00086, 9.998381 
8.5514385e+2, 2.5527e+2, -418302.94, -609529.06, -29013.115, -0.027560348, -0.18157795, -413997.94, 24338.568, 0.0, 10.000928, 9.998393 
8.551679e+2, 2.652684e+2, -295843.34, -483179.38, -19925.13, -0.019725518, -0.189451, -293747.56, 46604.344, 0.0, 10.001025, 9.998542 
8.5519195e+2, 2.752667e+2, -180143.88, -376629.88, -12654.823, -0.016377218, -0.20949508, -179332.19, 63034.605, 0.0, 10.001146, 9.998542 
8.5521615e+2, 2.8526515e+2, -90627.36, -323042.6, -11206.528, -0.005575207, -0.19741708, -90088.26, 54292.754, 0.0, 10.001262, 9.998181 
8.552403e+2, 2.952637e+2, 22015.545, -220095.05, -13634.541, 0.01165509, -0.15887675, 22780.959, 69175.86, 0.0, 10.001371, 9.998162 
8.552645e+2, 3.0526057e+2, 90811.06, -169654.38, -3941.1802, 0.018841999, -0.28012747, 90870.69, 90870.69, 0.0000000059514194, 10.001542, 9.998092 
8.55289e+2, 3.1525958e+2, 190793.78, -11319.663, -8106.7896, 0.054863147, -0.18804626, 191118.42, 191118.42, 0.0000005093443, 10.001755, 9.999077 
8.6482966e+2, 1.2525503e+2, -1911432.1, -1734286.3, -78650.64, -0.0071372245, -0.073178984, -1704406.3, 8086.5713, 0.00000000000000000000885557, 9.998336, 10.000665 
8.6485475e+2, 1.3525578e+2, -1745585.0, -1587465.3, 32936.883, -0.09134579, -0.079755045, -1580878.8, 33605.26, 0.0, 9.998715, 10.000826 
8.6488044e+2, 1.4525597e+2, -1664457.9, -1584031.1, -45158.055, -0.010829643, -0.10090105, -1563776.6, -47295.04, 0.0, 9.99898, 10.000044 
8.649042e+2, 1.5525599e+2, -1538248.6, -1472276.0, -45447.63, -0.029357404, -0.10153492, -1449105.5, -30623.818, 0.0, 9.999172, 10.000045 
8.649281e+2, 1.6525583e+2, -1422457.9, -1397985.5, -37993.047, -0.050075665, -0.104180336, -1370306.9, -49824.06, 0.0, 9.9994335, 9.999756 
8.649522e+2, 1.7525549e+2, -1278218.6, -1278581.1, -40611.547, -0.061052058, -0.111538656, -1237787.9, -15303.021, 0.0, 9.999755, 9.999748 
8.649764e+2, 1.8525486e+2, -1183257.4, -1245835.4, -49892.965, -0.057752546, -0.11784995, -1155654.0, -31163.88, 0.0, 10.000009, 9.999178 
8.650005e+2, 1.9525394e+2, -1058099.8, -1135371.6, -47817.324, -0.045357294, -0.12529664, -1035260.2, -8762.003, 0.0, 10.000197, 9.999172 
8.6502445e+2, 2.0525269e+2, -975337.44, -1101491.5, -48773.73, -0.047081713, -0.13899337, -958680.0, -30170.344, 0.0, 10.000338, 9.998665 
8.650483e+2, 2.1525112e+2, -863000.6, -995663.4, -48846.96, -0.060299855, -0.16065793, -846955.56, -16431.287, 0.0, 10.000432, 9.998673 
8.650723e+2, 2.2524959e+2, -755853.6, -897172.94, -47469.24, -0.061130024, -0.17596392, -741389.1, -8851.101, 0.0, 10.000512, 9.998638 
8.6509645e+2, 2.3524807e+2, -647654.0, -793434.5, -48596.49, -0.05103923, -0.18847762, -632939.44, 1611.7301, 0.0, 10.000579, 9.998645 
8.6512053e+2, 2.4524656e+2, -548539.94, -716543.9, -47501.098, -0.040193945, -0.190927, -536039.6, 525.64453, 0.0, 10.00068, 9.998451 
8.651447e+2, 2.5524506e+2, -430134.06, -607207.3, -43272.36, -0.02842042, -0.1863844, -420125.1, 18455.406, 0.0, 10.0008135, 9.998465 
8.651688e+2, 2.6524347e+2, -307870.4, -475034.44, -36685.773, -0.019794717, -0.19708332, -300173.72, 40421.273, 0.0, 10.000883, 9.998665 
8.65193e+2, 2.7524185e+2, -208218.55, -376449.5, -35433.21, -0.014334493, -0.22431146, -201060.13, 41548.92, 0.0, 10.0008955, 9.998663 
8.652172e+2, 2.852404e+2, -128104.42, -336877.38, -30767.969, -0.003969991, -0.20898283, -123664.41, 20958.01, 0.0, 10.000987, 9.998218 
8.652415e+2, 2.9523915e+2, -7762.809, -229706.89, -26381.43, 0.010679283, -0.15766108, -4670.0713, 41965.402, 0.0, 10.001147, 9.998203 
8.6526585e+2, 3.0523613e+2, 64512.71, -169178.2, -14054.827, 0.019804193, -0.27382225, 65354.973, 65354.973, 0.000000027135602, 10.001306, 9.998208 
8.652906e+2, 3.1523523e+2, 147672.56, -29476.219, -22572.762, 0.060211714, -0.18487647, 150503.6, 150503.6, 0.00000083365, 10.001449, 9.999099 
8.7482804e+2, 1.2522972e+2, -1921242.4, -1755096.3, -59905.32, 0.002005699, -0.10932383, -1735749.6, -23009.922, 0.0000000055054987, 9.998337, 10.000523 
8.7485355e+2, 1.3523072e+2, -1753498.4, -1604494.0, 46162.098, -0.078258276, -0.0793426, -1591351.9, 23377.445, 0.0, 9.998717, 10.000708 
8.7487954e+2, 1.452309e+2, -1666432.1, -1589061.6, -38570.688, 0.002209037, -0.09135972, -1573118.6, -56391.566, 0.0, 9.998982, 10.000008 
8.7490326e+2, 1.5523066e+2, -1540628.3, -1477811.1, -38465.082, -0.040687878, -0.11621079, -1459560.3, -40830.766, 0.0, 9.999174, 10.000007 
8.7492734e+2, 1.652304e+2, -1427471.9, -1408800.0, -26243.771, -0.06419143, -0.12420041, -1390281.0, -69549.45, 0.0, 9.999434, 9.999681 
8.7495196e+2, 1.752301e+2, -1282938.5, -1288872.0, -28837.965, -0.05752171, -0.11902116, -1256915.1, -34181.43, 0.0, 9.999756, 9.999677 
8.7497646e+2, 1.8522954e+2, -1179732.3, -1239013.3, -43016.52, -0.05042527, -0.116871424, -1157133.1, -32394.809, 0.0, 10.00001, 9.999225 
8.7500066e+2, 1.9522871e+2, -1054701.8, -1128753.8, -41062.79, -0.04732549, -0.12001819, -1036436.9, -9691.417, 0.0, 10.000198, 9.999218 
8.750248e+2, 2.052275e+2, -975485.2, -1102250.5, -45555.375, -0.049083073, -0.13195065, -960812.4, -32056.0, 0.0, 10.000339, 9.99866 
8.7504876e+2, 2.152259e+2, -863162.7, -996536.44, -45609.656, -0.053767588, -0.15421866, -849057.4, -18286.441, 0.0, 10.000434, 9.998667 
8.750729e+2, 2.2522435e+2, -757204.94, -900569.2, -45195.53, -0.05489928, -0.17172429, -744146.5, -11361.466, 0.0, 10.000514, 9.998614 
8.75097e+2, 2.3522279e+2, -648866.3, -796550.3, -46256.098, -0.05291125, -0.18715684, -635574.7, -775.7831, 0.0, 10.00058, 9.998623 
8.7512124e+2, 2.4522133e+2, -540250.3, -699587.44, -42651.55, -0.041682713, -0.19011343, -529551.6, 7260.861, 0.0, 10.00068, 9.998568 
8.751455e+2, 2.5521994e+2, -422256.2, -590537.0, -38516.12, -0.021920664, -0.18444362, -413859.56, 24966.457, 0.0, 10.000812, 9.99858 
8.7516975e+2, 2.6521835e+2, -305119.84, -468862.97, -36449.977, -0.013664238, -0.20293067, -297372.47, 43467.766, 0.0, 10.00088, 9.998709 
8.7519383e+2, 2.752166e+2, -205258.33, -370089.25, -34996.09, -0.016631953, -0.24630119, -198135.89, 44719.46, 0.0, 10.000894, 9.998708 
8.7521815e+2, 2.852153e+2, -119869.9, -319286.72, -24890.254, -0.006579405, -0.22919405, -116810.164, 28057.672, 0.0, 10.000984, 9.998341 
8.7524265e+2, 2.9521433e+2, 230.3708, -211985.4, -20486.213, 0.016120112, -0.15902786, 2189.91, 49068.01, 0.0, 10.001142, 9.998328 
8.752672e+2, 3.0521145e+2, 67792.42, -161347.31, -8701.053, 0.026630638, -0.2701117, 68122.35, 68122.35, 0.00000006425192, 10.001301, 9.998264 
8.75292e+2, 3.1521046e+2, 144881.39, -34914.668, -16790.813, 0.059224755, -0.19534165, 146436.02, 146436.02, 0.0000011924308, 10.001446, 9.999063 
8.8482654e+2, 1.252045e+2, -1855707.4, -1743366.8, -61452.074, -0.0052543944, -0.11586059, -1716281.8, -3295.7249, 0.00000006865042, 9.998873, 10.000344 
8.848524e+2, 1.3520531e+2, -1742297.6, -1616467.4, 35683.453, -0.067927726, -0.08941887, -1607052.6, 7925.6523, 0.0, 9.998871, 10.000551 
8.848787e+2, 1.4520545e+2, -1654839.4, -1585751.4, -45663.348, 0.018610587, -0.096988164, -1563037.8, -46061.24, 0.0, 9.999073, 9.999987 
8.849025e+2, 1.552052e+2, -1494908.4, -1458158.3, -44316.76, -0.04750853, -0.118198425, -1428558.1, -9579.632, 0.0, 9.999499, 9.999984 
8.849268e+2, 1.6520491e+2, -1382277.5, -1393286.6, -33898.547, -0.074557886, -0.12562864, -1353439.5, -32458.547, 0.0, 9.999773, 9.999624 
8.8495183e+2, 1.7520455e+2, -1266190.6, -1286947.0, -35482.023, -0.052847117, -0.12271714, -1239600.1, -16616.203, 0.0, 9.999899, 9.999621 
8.849765e+2, 1.8520395e+2, -1173582.8, -1236406.1, -52488.375, -0.044937186, -0.12003455, -1143824.9, -18835.887, 0.0, 10.000054, 9.999221 
8.8500077e+2, 1.9520316e+2, -1049175.9, -1126166.6, -54528.508, -0.05437541, -0.11997768, -1020923.6, 6072.319, 0.0, 10.000237, 9.999216 
8.85025e+2, 2.0520195e+2, -963768.9, -1089615.4, -61124.645, -0.057516377, -0.13293844, -938967.8, -9961.317, 0.0, 10.00039, 9.998721 
8.850493e+2, 2.1520038e+2, -847817.5, -982244.44, -56376.3, -0.053070854, -0.16045205, -827304.5, 3715.8806, 0.0, 10.00051, 9.998728 
8.850734e+2, 2.2519884e+2, -747348.9, -898277.9, -55432.64, -0.051092524, -0.17806783, -729177.56, 3856.7563, 0.0, 10.000593, 9.998591 
8.8509756e+2, 2.3519729e+2, -641408.0, -795322.6, -56608.656, -0.051657714, -0.18834493, -622830.1, 12218.235, 0.0, 10.000643, 9.998601 
8.851218e+2, 2.4519587e+2, -539755.2, -690623.6, -54982.97, -0.042090353, -0.19092691, -521843.6, 15218.1, 0.0, 10.000647, 9.998645 
8.851462e+2, 2.5519451e+2, -446365.9, -593590.2, -53914.992, -0.02326765, -0.18956982, -428733.47, 10341.028, 0.0, 10.000609, 9.998655 
8.8517046e+2, 2.6519296e+2, -335609.25, -478762.84, -52823.85, -0.013847866, -0.21185571, -318227.63, 22860.752, 0.0, 10.000651, 9.998751 
8.8519466e+2, 2.7519122e+2, -220919.19, -372798.66, -51599.734, -0.01356678, -0.25860777, -205047.28, 38056.203, 0.0, 10.000767, 9.99875 
8.8521904e+2, 2.8519e+2, -132786.98, -316029.97, -41422.805, -0.0036486376, -0.24037346, -123858.266, 21257.125, 0.0, 10.000855, 9.998424 
8.8524365e+2, 2.951891e+2, -27208.637, -215626.13, -39987.28, 0.01588672, -0.16449332, -19073.5, 28051.031, 0.0, 10.000913, 9.998413 
8.8526833e+2, 3.051864e+2, 40909.395, -164115.7, -25002.555, 0.023920419, -0.26984558, 43914.383, 43914.383, 0.00000010587227, 10.001073, 9.998355 
8.8529336e+2, 3.151855e+2, 127159.82, -43202.805, -30540.26, 0.052986003, -0.19720988, 132469.19, 132469.19, 0.0000015115112, 10.001324, 9.999064 
8.9482516e+2, 1.2517942e+2, -1869594.6, -1774943.0, -56619.816, -0.031991236, -0.090707, -1748475.0, -35243.773, 0.00000033535434, 9.998883, 10.000123 
8.948513e+2, 1.3517955e+2, -1756226.9, -1645992.6, 34791.844, -0.060711112, -0.109826066, -1635930.1, -20699.715, 0.00000000007521531, 9.998873, 10.000347 
8.948779e+2, 1.451796e+2, -1655213.8, -1586848.5, -30135.379, 0.038614567, -0.11819641, -1575461.5, -58231.418, 0.0, 9.999074, 9.999979 
8.9490193e+2, 1.5517968e+2, -1494849.8, -1458962.3, -28692.8, -0.04999996, -0.107240774, -1443064.4, -23835.584, 0.0, 9.999503, 9.999977 
8.949265e+2, 1.6517942e+2, -1384785.6, -1399527.6, -29393.088, -0.08140886, -0.10797451, -1361853.4, -40622.74, 0.0, 9.999777, 9.99958 
8.9495176e+2, 1.7517881e+2, -1269003.1, -1293366.4, -30983.729, -0.047185488, -0.12234432, -1247892.4, -24656.78, 0.0, 9.9999, 9.999577 
8.9497656e+2, 1.8517812e+2, -1177357.6, -1244623.8, -45903.285, -0.041467078, -0.12722392, -1154084.6, -28842.83, 0.0, 10.000055, 9.999165 
8.950009e+2, 1.9517727e+2, -1052685.1, -1133838.0, -47945.223, -0.06661807, -0.12517253, -1030450.8, -3201.326, 0.0, 10.000238, 9.999164 
8.950252e+2, 2.0517607e+2, -954687.4, -1071211.1, -56916.785, -0.072429374, -0.14189674, -931500.06, -2240.3298, 0.0, 10.000391, 9.998848 
8.950497e+2, 2.1517453e+2, -838917.5, -964200.44, -52210.582, -0.05826538, -0.17905721, -820012.06, 11260.419, 0.0, 10.000511, 9.998852 
8.9507395e+2, 2.2517306e+2, -748817.7, -901700.8, -53883.477, -0.04984549, -0.19470538, -731735.25, 1550.4974, 0.0, 10.000593, 9.998568 
8.950982e+2, 2.3517163e+2, -642964.9, -798904.9, -54949.66, -0.04758328, -0.19205765, -625547.3, 9752.137, 0.0, 10.000643, 9.998577 
8.951224e+2, 2.451702e+2, -536937.9, -685263.8, -56570.5, -0.041583102, -0.19332805, -517825.1, 19487.654, 0.0, 10.000648, 9.998681 
8.9514667e+2, 2.551688e+2, -443480.5, -588353.9, -55255.832, -0.03209435, -0.20133194, -424811.3, 14514.48, 0.0, 10.000612, 9.998691 
8.9517105e+2, 2.651673e+2, -332762.3, -473426.97, -48598.133, -0.020139625, -0.22375473, -317605.38, 23733.9, 0.0, 10.000653, 9.998787 
8.951955e+2, 2.7516568e+2, -218300.78, -367313.8, -47281.7, -0.0057731895, -0.26204193, -204564.56, 38788.83, 0.0, 10.000766, 9.998788 
8.9522e+2, 2.8516445e+2, -130048.92, -309889.56, -39133.55, 0.0042862855, -0.24313645, -121902.44, 23462.564, 0.0, 10.000853, 9.998467 
8.952445e+2, 2.951636e+2, -24563.463, -209403.98, -37671.22, 0.010296045, -0.17362198, -17180.791, 30193.742, 0.0, 10.000909, 9.998458 
8.952692e+2, 3.0516103e+2, 48410.305, -147516.7, -15473.173, 0.012308161, -0.2728537, 49624.758, 49624.758, 0.00000013409642, 10.001068, 9.998472 
8.952945e+2, 3.1516027e+2, 128582.3, -39049.844, -20380.242, 0.04140372, -0.19409825, 131024.49, 131024.49, 0.0000016978646, 10.001318, 9.999096 
9.0482414e+2, 1.2515399e+2, -1868142.6, -1789489.0, -65881.63, -0.019388013, -0.07265556, -1752089.1, -38608.594, 0.0000010631732, 9.998959, 9.999987 
9.0485036e+2, 1.3515373e+2, -1710199.1, -1637508.5, 25612.0, -0.063192874, -0.117993705, -1629390.9, -13907.295, 0.000000007369457, 9.999249, 10.000224 
9.048772e+2, 1.4515369e+2, -1592630.6, -1559647.6, -28991.658, 0.03855206, -0.12751055, -1542785.3, -25301.254, 0.0, 9.999517, 9.999951 
9.049016e+2, 1.5515387e+2, -1456106.8, -1443199.3, -29360.176, -0.043904234, -0.10228104, -1419591.9, -110.36271, 0.0, 9.999783, 9.99995 
9.049264e+2, 1.6515362e+2, -1359704.3, -1389561.6, -38806.027, -0.07551766, -0.09985412, -1333054.5, -11571.244, 0.0, 9.999959, 9.99956 
9.049517e+2, 1.7515294e+2, -1247898.6, -1285322.4, -38677.2, -0.047954954, -0.121604584, -1223644.6, -155.82243, 0.0, 10.000055, 9.999557 
9.049766e+2, 1.8515213e+2, -1164106.9, -1244854.0, -51026.293, -0.044036895, -0.13215646, -1139413.5, -13917.363, 0.0, 10.000175, 9.9991045 
9.050011e+2, 1.9515118e+2, -1045897.3, -1136938.6, -53530.42, -0.06609835, -0.13405962, -1021149.7, 6355.3516, 0.0, 10.000314, 9.999105 
9.050256e+2, 2.0515001e+2, -944601.5, -1054381.8, -66280.91, -0.07380575, -0.15104428, -913433.0, 16081.937, 0.0, 10.00041, 9.998954 
9.0505004e+2, 2.151486e+2, -838227.8, -952094.0, -63326.03, -0.06644333, -0.1850465, -810004.8, 21521.162, 0.0, 10.000466, 9.998956 
9.050744e+2, 2.2514719e+2, -759965.94, -906649.56, -66530.914, -0.058482308, -0.20006195, -734285.6, -747.06024, 0.0, 10.000516, 9.998571 
9.0509874e+2, 2.3514573e+2, -654814.3, -804235.06, -65688.71, -0.050613493, -0.19941923, -630042.8, 5509.821, 0.0, 10.000561, 9.998579 
9.0512305e+2, 2.4514434e+2, -536794.25, -678401.94, -66697.74, -0.044826306, -0.20287338, -510326.44, 27239.396, 0.0, 10.000621, 9.998741 
9.051472e+2, 2.5514296e+2, -427621.16, -574145.56, -63790.117, -0.04092929, -0.21300943, -403741.56, 35836.723, 0.0, 10.000693, 9.998749 
9.0517163e+2, 2.6514155e+2, -319699.3, -462008.38, -54969.035, -0.029009214, -0.23110484, -300939.66, 40651.203, 0.0, 10.000721, 9.998832 
9.051962e+2, 2.7514008e+2, -224176.47, -365133.9, -53228.68, -0.009393068, -0.25889716, -206334.52, 37269.19, 0.0, 10.000704, 9.998833 
9.052207e+2, 2.8513888e+2, -151091.2, -319662.34, -46693.688, 0.0040672715, -0.24046992, -139021.4, 6593.899, 0.0, 10.000708, 9.99847 
9.052453e+2, 2.951379e+2, -50349.734, -221143.45, -48292.457, 0.0115561355, -0.18166833, -37640.605, 9985.38, 0.0, 10.00073, 9.998463 
9.052702e+2, 3.0513543e+2, 31607.016, -136993.1, -17943.143, 0.012444562, -0.2792587, 33495.45, 33495.45, 0.0000001316986, 10.000873, 9.998637 
9.052956e+2, 3.1513485e+2, 105433.36, -40738.88, -19191.537, 0.036078464, -0.20074841, 107911.09, 107911.09, 0.0000016698094, 10.001119, 9.99918 
9.148236e+2, 1.2512822e+2, -1871225.8, -1796804.6, -49437.29, 0.034479074, -0.061389998, -1772139.0, -58405.38, 0.0000026057617, 9.998961, 9.999936 
9.148494e+2, 1.3512786e+2, -1712419.1, -1643298.1, 35938.918, -0.07619394, -0.11365072, -1627998.5, -12261.352, 0.00000007607973, 9.999254, 10.000182 
9.1487646e+2, 1.4512774e+2, -1595536.5, -1567022.8, -19344.234, 0.016694196, -0.12450299, -1557249.3, -39511.363, 0.0, 9.999522, 9.999899 
9.149015e+2, 1.5512784e+2, -1459326.6, -1450726.5, -19768.826, -0.029292947, -0.103081636, -1434795.5, -15059.024, 0.0, 9.999785, 9.999898 
9.149265e+2, 1.6512756e+2, -1359256.3, -1389307.8, -35537.887, -0.05649293, -0.10125243, -1335698.1, -13959.744, 0.0, 9.999961, 9.999561 
9.149517e+2, 1.7512691e+2, -1247487.5, -1285008.0, -35267.934, -0.055269036, -0.12056506, -1226300.6, -2557.009, 0.0, 10.000057, 9.999558 
9.149766e+2, 1.8512602e+2, -1168642.1, -1254700.5, -46093.87, -0.052974403, -0.13486293, -1148614.6, -22862.924, 0.0, 10.000176, 9.999037 
9.150015e+2, 1.9512492e+2, -1050336.9, -1146571.3, -48685.457, -0.053144917, -0.14660186, -1030003.06, -2240.7317, 0.0, 10.000315, 9.99904 
9.1502607e+2, 2.0512378e+2, -938560.8, -1042292.75, -64500.56, -0.061849557, -0.16047075, -907659.6, 22112.313, 0.0, 10.000411, 9.999037 
9.150503e+2, 2.1512263e+2, -832191.5, -940118.1, -61489.42, -0.07754181, -0.17882402, -804344.1, 27436.56, 0.0, 10.000467, 9.999038 
9.150747e+2, 2.2512124e+2, -757757.7, -902734.25, -65041.6, -0.076852754, -0.19445, -732855.25, 937.41925, 0.0, 10.000518, 9.998597 
9.150992e+2, 2.3511966e+2, -652606.25, -800279.75, -64026.33, -0.060615283, -0.21016587, -628712.56, 7095.244, 0.0, 10.000563, 9.998606 
9.151235e+2, 2.4511826e+2, -531026.4, -666811.9, -63947.777, -0.051764075, -0.21926716, -505652.1, 32168.754, 0.0, 10.000622, 9.99882 
9.1514784e+2, 2.55117e+2, -422180.8, -562880.4, -61104.984, -0.049895763, -0.22462277, -399348.44, 40483.465, 0.0, 10.000692, 9.998827 
9.1517216e+2, 2.651157e+2, -316170.16, -454671.66, -55630.65, -0.04038285, -0.23417406, -296592.78, 45250.305, 0.0, 10.000721, 9.998883 
9.1519666e+2, 2.7511445e+2, -220661.61, -357997.6, -53913.043, -0.023860281, -0.24988528, -202026.05, 41828.434, 0.0, 10.000704, 9.998882 
9.1522133e+2, 2.8511322e+2, -153745.61, -325469.5, -46052.523, -0.004079079, -0.23301037, -142174.97, 3691.3586, 0.0, 10.000708, 9.998431 
9.1524607e+2, 2.951121e+2, -52419.613, -226118.13, -47398.19, 0.01900154, -0.188541, -40327.563, 7551.2744, 0.0, 10.000731, 9.998428 
9.152711e+2, 3.0510968e+2, 46207.92, -106816.03, -8521.139, 0.023249011, -0.2884503, 46680.957, 46680.957, 0.00000009563079, 10.000873, 9.998845 
9.152967e+2, 3.1510922e+2, 113390.625, -22461.834, -9598.346, 0.035306677, -0.21917942, 114065.42, 114065.42, 0.0000014046396, 10.00111, 9.9993105 
9.248229e+2, 1.2510213e+2, -1813369.8, -1770892.8, -41804.02, 0.053271603, -0.06872618, -1745241.5, -31252.18, 0.000005355975, 9.999368, 9.999917 
9.248488e+2, 1.3510178e+2, -1653034.5, -1615903.3, 39440.375, -0.07935726, -0.118063115, -1590877.3, 25114.861, 0.00000033393198, 9.999669, 10.00017 
9.248761e+2, 1.4510164e+2, -1557868.8, -1556778.5, -20904.178, 0.012802524, -0.12751144, -1536412.4, -18419.262, 0.0, 9.999816, 9.999827 
9.2490137e+2, 1.551016e+2, -1456144.0, -1456930.6, -22863.736, -0.022454368, -0.113836184, -1433670.1, -13676.745, 0.0, 9.999842, 9.999827 
9.249265e+2, 1.651013e+2, -1356203.9, -1383284.8, -37608.75, -0.04944374, -0.1103911, -1329772.3, -7776.774, 0.0, 9.999964, 9.999601 
9.2495173e+2, 1.751008e+2, -1227539.4, -1270738.5, -34559.42, -0.05767045, -0.1189433, -1208384.9, 15614.374, 0.0, 10.0001745, 9.999599 
9.249768e+2, 1.8509994e+2, -1152050.4, -1244953.4, -43724.938, -0.057284888, -0.1330173, -1134708.4, -8701.446, 0.0, 10.000284, 9.999051 
9.2500174e+2, 1.9509876e+2, -1052323.4, -1145788.3, -40282.55, -0.052406974, -0.15494193, -1037358.1, -9339.938, 0.0, 10.000295, 9.999054 
9.250264e+2, 2.0509765e+2, -942458.7, -1045260.5, -55178.94, -0.06061647, -0.16665755, -918448.94, 11578.92, 0.0, 10.00039, 9.999026 
9.2505085e+2, 2.1509661e+2, -818921.9, -934707.56, -59469.06, -0.08004201, -0.1708389, -793819.9, 38216.15, 0.0, 10.000564, 9.999028 
9.250752e+2, 2.2509529e+2, -732846.6, -878695.2, -67467.07, -0.08214462, -0.1853342, -706424.25, 27623.08, 0.0, 10.000638, 9.998704 
9.250997e+2, 2.350937e+2, -637789.75, -781302.2, -60767.277, -0.06773853, -0.21255802, -615516.06, 20545.703, 0.0, 10.000614, 9.998712 
9.2512405e+2, 2.4509229e+2, -535470.3, -669488.4, -60450.82, -0.05880143, -0.22824503, -512232.38, 25842.266, 0.0, 10.000593, 9.998816 
9.2514837e+2, 2.55091e+2, -439729.1, -572088.06, -64017.37, -0.055006247, -0.2352855, -413832.8, 26253.283, 0.0, 10.000576, 9.99882 
9.251728e+2, 2.6508975e+2, -335157.5, -463131.9, -63800.184, -0.04350064, -0.24169558, -308785.28, 33311.906, 0.0, 10.000587, 9.998889 
9.251973e+2, 2.7508855e+2, -231444.86, -362488.44, -65406.727, -0.025045842, -0.24985822, -204386.17, 39721.87, 0.0, 10.0006275, 9.998888 
9.25222e+2, 2.8508735e+2, -151909.36, -323655.88, -54862.13, -0.0053567365, -0.23327328, -135880.36, 10239.457, 0.0, 10.000717, 9.998439 
9.252468e+2, 2.9508612e+2, -34874.426, -216540.97, -53025.46, 0.016001247, -0.19617881, -20529.836, 27602.836, 0.0, 10.000848, 9.998438 
9.25272e+2, 3.050838e+2, 52229.176, -97394.18, -17371.406, 0.021655822, -0.29366404, 54219.535, 54219.535, 0.00000004550982, 10.000887, 9.998903 
9.252977e+2, 3.150833e+2, 73373.58, -42977.08, -28679.95, 0.035524674, -0.23179694, 80058.94, 80058.94, 0.0000009683944, 10.000842, 9.999298 
9.348221e+2, 1.2507571e+2, -1811390.3, -1768694.6, -24693.402, 0.031953853, -0.09658042, -1757400.5, -43153.04, 0.000009813605, 9.999375, 9.999929 
9.348485e+2, 1.3507552e+2, -1651026.0, -1613212.1, 50258.82, -0.07272007, -0.13132045, -1578421.6, 37826.582, 0.0000009955157, 9.999675, 10.000185 
9.34876e+2, 1.450754e+2, -1563917.1, -1570682.6, -20401.86, 0.027852632, -0.13619697, -1546619.5, -28370.344, 0.00000000002439963, 9.999821, 9.99973 
9.349011e+2, 1.5507512e+2, -1462595.8, -1470725.5, -22122.986, -0.023784047, -0.13502628, -1444167.3, -23915.023, 0.0, 9.999843, 9.999733 
9.349264e+2, 1.6507487e+2, -1350775.3, -1372140.1, -29698.416, -0.05511977, -0.12775567, -1329896.4, -7642.076, 0.0, 9.999963, 9.999679 
9.3495184e+2, 1.7507464e+2, -1221880.4, -1259412.3, -26796.875, -0.055399295, -0.116776824, -1207932.0, 16323.58, 0.0, 10.000176, 9.999677 
9.3497705e+2, 1.8507391e+2, -1145273.8, -1231420.9, -43657.02, -0.05704296, -0.12657884, -1127018.1, -756.48517, 0.0, 10.000286, 9.999144 
9.3500197e+2, 1.9507271e+2, -1045566.06, -1132265.6, -40194.77, -0.0638734, -0.159159, -1029798.8, -1526.3359, 0.0, 10.000297, 9.999146 
9.350267e+2, 2.0507161e+2, -949733.0, -1060727.5, -48911.766, -0.07020448, -0.16967724, -931255.2, -972.6639, 0.0, 10.00039, 9.9989195 
9.350514e+2, 2.1507059e+2, -826183.0, -949950.9, -53181.51, -0.074398816, -0.1610685, -806471.0, 25820.828, 0.0, 10.000564, 9.998923 
9.3507594e+2, 2.2506933e+2, -719912.0, -852078.06, -68536.266, -0.07482696, -0.1728217, -690789.0, 43513.48, 0.0, 10.000638, 9.998887 
9.351002e+2, 2.3506787e+2, -624834.25, -754947.94, -61767.59, -0.07215245, -0.20706174, -600182.5, 36132.074, 0.0, 10.000616, 9.998892 
9.351245e+2, 2.450664e+2, -541303.4, -682391.5, -61191.633, -0.0661578, -0.23022182, -518461.78, 19865.514, 0.0, 10.000596, 9.998726 
9.3514884e+2, 2.5506496e+2, -445548.0, -585043.75, -64553.42, -0.056764614, -0.24512191, -420259.5, 20081.25, 0.0, 10.000579, 9.99873 
9.351734e+2, 2.6506364e+2, -337441.84, -468582.75, -62281.203, -0.03911958, -0.2534772, -312577.6, 29775.398, 0.0, 10.00059, 9.998851 
9.35198e+2, 2.7506244e+2, -233789.5, -367788.88, -63680.723, -0.013901753, -0.2580142, -208354.39, 36009.785, 0.0, 10.000628, 9.998852 
9.3522274e+2, 2.8506124e+2, -148298.78, -316350.25, -49534.164, -0.00033039323, -0.24055772, -134785.0, 11590.633, 0.0, 10.000717, 9.998489 
9.352475e+2, 2.9506007e+2, -31330.432, -209230.95, -47873.535, 0.0028173912, -0.20480406, -19265.72, 29121.76, 0.0, 10.000847, 9.998489 
9.352727e+2, 3.0505776e+2, 46339.48, -109620.336, -18768.107, 0.0080649, -0.29557312, 48566.23, 48566.23, 0.000000010385675, 10.000886, 9.99882 
9.3529844e+2, 3.150571e+2, 63037.81, -64284.43, -29082.873, 0.035992, -0.24275853, 69366.34, 69366.34, 0.00000050425, 10.00084, 9.999153 
9.448216e+2, 1.2504947e+2, -1727044.5, -1732368.9, -16978.7, 0.020358847, -0.10464779, -1712520.5, 1983.9149, 0.000016619406, 9.999972, 9.999891 
9.448483e+2, 1.3504931e+2, -1635394.8, -1609525.5, 47403.164, -0.063441284, -0.13249415, -1573324.0, 43180.85, 0.0000023427797, 9.9998, 10.00015 
9.448759e+2, 1.450492e+2, -1561203.1, -1569649.0, -18565.42, 0.040844705, -0.13503484, -1546386.4, -27880.717, 0.0000000053592455, 9.999842, 9.999726 
9.4490105e+2, 1.5504883e+2, -1423461.4, -1452015.8, -13163.417, -0.026350886, -0.14272901, -1418319.1, 2190.423, 0.0, 10.000113, 9.99973 
9.449264e+2, 1.6504855e+2, -1311136.5, -1354722.4, -22270.295, -0.06037449, -0.13590708, -1301770.1, 20741.777, 0.0, 10.000243, 9.999662 
9.449521e+2, 1.7504838e+2, -1214187.8, -1257294.1, -26610.258, -0.051113926, -0.117458165, -1201497.0, 23015.78, 0.0, 10.0002365, 9.999661 
9.4497734e+2, 1.850477e+2, -1139799.1, -1221379.6, -49554.355, -0.053036895, -0.12529233, -1116406.3, 10112.18, 0.0, 10.000293, 9.999208 
9.450022e+2, 1.9504653e+2, -1024648.9, -1114803.9, -48387.07, -0.06945716, -0.16118452, -1003595.5, 24933.17, 0.0, 10.000409, 9.999211 
9.4502705e+2, 2.0504546e+2, -939951.06, -1055440.6, -53723.473, -0.07601507, -0.17190215, -918824.6, 11713.941, 0.0, 10.000456, 9.998924 
9.450519e+2, 2.1504447e+2, -844901.75, -958401.56, -49801.688, -0.07129308, -0.16054982, -826148.3, 6399.7715, 0.0, 10.000434, 9.998928 
9.4507647e+2, 2.2504333e+2, -734260.9, -845226.9, -64694.527, -0.07070915, -0.16985494, -704516.25, 30041.576, 0.0, 10.000482, 9.999009 
9.451008e+2, 2.3504198e+2, -619105.56, -738722.5, -62624.08, -0.07480918, -0.20176625, -592318.25, 44249.69, 0.0, 10.000598, 9.999012 
9.451251e+2, 2.4504054e+2, -536345.25, -686104.6, -65363.723, -0.06879399, -0.22688234, -511829.84, 26750.592, 0.0, 10.000657, 9.998672 
9.4514954e+2, 2.5503898e+2, -438061.63, -587670.25, -66366.33, -0.05270549, -0.24818137, -412865.06, 27730.352, 0.0, 10.000658, 9.998673 
9.4517404e+2, 2.6503763e+2, -329262.8, -466046.22, -61264.176, -0.034144625, -0.2552411, -305835.53, 36772.574, 0.0, 10.000652, 9.998838 
9.451986e+2, 2.750365e+2, -232930.25, -368657.1, -61068.793, -0.013455428, -0.25054657, -209498.31, 35120.297, 0.0, 10.00064, 9.998839 
9.4522333e+2, 2.8503528e+2, -148871.3, -312310.53, -42280.652, -0.004610229, -0.23735377, -138581.4, 8048.712, 0.0, 10.000695, 9.998528 
9.452482e+2, 2.9503396e+2, -33205.8, -205796.02, -41831.637, -0.006729954, -0.21910639, -23601.316, 25041.43, 0.0, 10.000816, 9.998528 
9.4527346e+2, 3.0503178e+2, 46889.934, -106784.42, -14949.905, -0.0014423438, -0.3033847, 48330.797, 48330.797, 0.00000000032400083, 10.000879, 9.998842 
9.4529927e+2, 3.150312e+2, 66662.055, -66447.086, -17756.754, 0.029928347, -0.24342732, 68990.09, 68990.09, 0.00000016973306, 10.000883, 9.999118 
9.548215e+2, 1.2502345e+2, -1731735.0, -1745569.6, -17888.498, 0.01722857, -0.09081183, -1719473.0, -4713.3296, 0.000026449812, 9.999986, 9.999795 
9.5484823e+2, 1.3502319e+2, -1641895.6, -1623422.3, 40229.563, -0.05166183, -0.12105054, -1591382.6, 25378.945, 0.0000047469885, 9.999801, 10.000054 
9.548758e+2, 1.4502306e+2, -1554759.6, -1556213.0, -8251.565, 0.051580667, -0.12390503, -1547202.9, -28440.527, 0.000000046136613, 9.999841, 9.99982 
9.549011e+2, 1.5502273e+2, -1416544.0, -1438484.9, -2825.64, -0.03038272, -0.13640817, -1416186.0, 4579.083, 0.0, 10.000115, 9.999823 
9.5492655e+2, 1.650224e+2, -1318763.0, -1371490.8, -22674.041, -0.06546763, -0.1343654, -1310353.9, 12413.996, 0.0, 10.000247, 9.999546 
9.5495236e+2, 1.7502207e+2, -1221942.6, -1273909.9, -27050.861, -0.044952318, -0.12092758, -1210417.6, 14353.055, 0.0, 10.000238, 9.999547 
9.5497775e+2, 1.8502133e+2, -1137261.0, -1216535.5, -45457.484, -0.045364633, -0.12922487, -1116586.6, 10190.401, 0.0, 10.000294, 9.999242 
9.5500255e+2, 1.9502023e+2, -1022144.3, -1110008.9, -44331.824, -0.069320016, -0.16104148, -1003663.8, 25122.795, 0.0, 10.00041, 9.999244 
9.5502746e+2, 2.0501922e+2, -932014.75, -1039351.4, -54919.492, -0.07821154, -0.17327182, -908894.8, 21900.984, 0.0, 10.000457, 9.999034 
9.550523e+2, 2.1501829e+2, -836875.06, -942219.9, -50853.2, -0.07080077, -0.1691166, -816332.5, 16472.094, 0.0, 10.000435, 9.999039 
9.5507693e+2, 2.2501722e+2, -729893.56, -836631.94, -60512.188, -0.06990258, -0.17627004, -702578.25, 32235.057, 0.0, 10.000483, 9.999068 
9.551013e+2, 2.3501606e+2, -614886.4, -730207.94, -58289.246, -0.075920895, -0.19669001, -590556.9, 46264.926, 0.0, 10.000598, 9.99907 
9.5512575e+2, 2.4501467e+2, -538090.7, -689856.56, -65357.836, -0.0670168, -0.21849155, -513824.4, 25009.63, 0.0, 10.000657, 9.998646 
9.551502e+2, 2.5501302e+2, -439741.4, -591341.75, -66131.6, -0.043258764, -0.24490602, -414948.06, 25901.967, 0.0, 10.000658, 9.998649 
9.551747e+2, 2.6501173e+2, -328421.7, -464927.6, -61454.95, -0.02879827, -0.24773884, -304831.4, 38031.117, 0.0, 10.000654, 9.998845 
9.551992e+2, 2.7501073e+2, -231559.33, -367143.1, -61222.12, -0.023404982, -0.22884436, -208006.33, 36865.18, 0.0, 10.000646, 9.998848 
9.5522386e+2, 2.8500944e+2, -146492.98, -308428.97, -37409.94, -0.017972415, -0.22461371, -138268.38, 8615.076, 0.0, 10.000699, 9.998553 
9.552489e+2, 2.9500785e+2, -31500.61, -202217.47, -36719.824, -0.012983911, -0.23850265, -23937.53, 24960.945, 0.0, 10.000815, 9.998553 
9.552742e+2, 3.0500576e+2, 54702.95, -90403.84, -14233.934, -0.007294823, -0.31663832, 56086.01, 56086.01, 0.0, 10.000877, 9.998956 
9.552999e+2, 3.1500548e+2, 71127.68, -57618.848, -16678.9, 0.01629062, -0.23950574, 73253.305, 73253.305, 0.000000027453995, 10.000884, 9.999178 
9.648216e+2, 1.2499731e+2, -1704277.3, -1740053.6, -15975.306, 0.018421488, -0.088315256, -1698182.3, 16833.658, 0.00003990401, 10.000209, 9.999724 
9.648481e+2, 1.3499695e+2, -1592585.3, -1607554.4, 37986.91, -0.05657173, -0.120838754, -1561352.6, 55666.23, 0.000008636752, 10.0001745, 9.999982 
9.648758e+2, 1.4499682e+2, -1499527.4, -1527422.8, -730.97327, 0.045497343, -0.11876082, -1499508.3, 19511.082, 0.00000019058375, 10.000212, 9.999838 
9.649013e+2, 1.5499659e+2, -1384847.6, -1421039.0, -1196.135, -0.029669728, -0.12533875, -1384808.1, 36213.215, 0.0, 10.000324, 9.999841 
9.649269e+2, 1.6499622e+2, -1305581.1, -1367803.9, -29109.303, -0.0627177, -0.12703733, -1294086.5, 28937.934, 0.0, 10.000349, 9.999521 
9.649526e+2, 1.7499572e+2, -1216356.5, -1273679.4, -26595.518, -0.045390192, -0.12682632, -1205918.0, 19110.707, 0.0, 10.000288, 9.999524 
9.64978e+2, 1.8499498e+2, -1136454.5, -1213605.1, -37128.44, -0.04400141, -0.13623951, -1121489.4, 5545.8203, 0.0, 10.000289, 9.999264 
9.650031e+2, 1.9499402e+2, -1028902.94, -1110776.1, -36988.953, -0.060987413, -0.15724172, -1014667.2, 14376.551, 0.0, 10.000354, 9.999266 
9.650279e+2, 2.0499305e+2, -930583.94, -1027605.6, -51106.53, -0.071895294, -0.16952924, -908630.75, 22421.525, 0.0, 10.00042, 9.999132 
9.6505266e+2, 2.149921e+2, -822525.6, -924269.94, -48196.95, -0.075666495, -0.17625815, -803319.8, 29740.994, 0.0, 10.000486, 9.999137 
9.6507734e+2, 2.249911e+2, -722951.44, -828859.0, -58341.094, -0.07664851, -0.18511878, -697115.7, 37953.25, 0.0, 10.000512, 9.999107 
9.6510184e+2, 2.3499006e+2, -627507.1, -731891.3, -57782.484, -0.07498103, -0.1981073, -601835.0, 35241.656, 0.0, 10.000493, 9.999108 
9.6512634e+2, 2.4498874e+2, -557130.2, -694261.3, -64330.867, -0.061568428, -0.21602194, -531676.06, 7412.158, 0.0, 10.000506, 9.998688 
9.651509e+2, 2.5498715e+2, -452538.47, -592655.94, -60512.957, -0.036437105, -0.24212982, -430022.66, 11081.0, 0.0, 10.000549, 9.998692 
9.6517533e+2, 2.6498583e+2, -329663.03, -468402.53, -52431.902, -0.026620423, -0.24653852, -312077.25, 31039.002, 0.0, 10.000659, 9.998819 
9.6519977e+2, 2.7498478e+2, -206156.03, -357801.1, -54882.766, -0.03202405, -0.2309173, -188377.4, 56748.48, 0.0, 10.000833, 9.998822 
9.6522456e+2, 2.8498352e+2, -115855.97, -287124.38, -33807.68, -0.027721182, -0.22671437, -109424.02, 37713.57, 0.0, 10.000881, 9.998611 
9.652497e+2, 2.94982e+2, -28836.256, -194157.02, -31020.262, -0.013905135, -0.23712948, -23207.365, 25944.043, 0.0, 10.000805, 9.998613 
9.652751e+2, 3.0498004e+2, 48896.79, -94702.09, -9465.362, -0.0049760616, -0.3060592, 49518.016, 49518.016, 0.0, 10.000845, 9.998941 
9.6530086e+2, 3.1497964e+2, 84795.17, -57697.453, -20574.334, 0.013230063, -0.23968546, 87706.4, 87706.4, 0.00000000015790982, 10.001007, 9.999118 
9.7482187e+2, 1.2497106e+2, -1707005.9, -1746540.8, -11648.769, 0.022580298, -0.098768264, -1703829.0, 11443.943, 0.000057479218, 10.000211, 9.99968 
9.7484803e+2, 1.3497064e+2, -1595278.0, -1614465.1, 36772.47, -0.07948031, -0.13252765, -1566868.3, 50407.926, 0.000014404859, 10.00018, 9.999932 
9.7487575e+2, 1.4497058e+2, -1503275.1, -1536551.3, 3428.5833, 0.0211316, -0.11977532, -1502925.5, 16350.939, 0.0000005546723, 10.0002165, 9.999773 
9.749017e+2, 1.5497042e+2, -1388984.0, -1430281.6, 2824.7964, -0.02438283, -0.109488815, -1388791.8, 32486.39, 0.0, 10.000326, 9.999777 
9.749273e+2, 1.6497004e+2, -1300534.8, -1357935.1, -31472.432, -0.05184789, -0.11378493, -1286641.4, 36640.14, 0.0, 10.000351, 9.999589 
9.7495276e+2, 1.7496939e+2, -1211306.0, -1263809.6, -29092.941, -0.0525497, -0.13516591, -1198371.6, 26915.043, 0.0, 10.00029, 9.999592 
9.7497815e+2, 1.8496868e+2, -1135693.5, -1212483.0, -35048.43, -0.04928259, -0.14644966, -1122102.1, 5190.632, 0.0, 10.00029, 9.999271 
9.750035e+2, 1.949679e+2, -1028171.5, -1109710.0, -34877.438, -0.044707175, -0.14991793, -1015288.44, 14011.453, 0.0, 10.000355, 9.999272 
9.7502846e+2, 2.0496699e+2, -924648.75, -1015627.25, -48897.52, -0.05718147, -0.16070011, -903353.0, 27954.82, 0.0, 10.000421, 9.999215 
9.75053e+2, 2.1496597e+2, -816672.1, -912283.56, -45918.73, -0.08580473, -0.18187395, -798191.25, 35125.33, 0.0, 10.000486, 9.999219 
9.750777e+2, 2.2496496e+2, -721793.25, -826640.25, -59208.832, -0.09089253, -0.19622439, -695135.06, 40189.684, 0.0, 10.000512, 9.999123 
9.7510237e+2, 2.3496397e+2, -626175.2, -729510.9, -58495.32, -0.072268955, -0.20584355, -599796.44, 37535.97, 0.0, 10.000494, 9.9991255 
9.75127e+2, 2.4496277e+2, -549592.9, -679307.1, -62626.83, -0.052764375, -0.21933587, -524291.44, 15051.463, 0.0, 10.000508, 9.99879 
9.751514e+2, 2.5496134e+2, -444733.0, -577508.8, -58698.223, -0.032221265, -0.23987387, -422504.7, 18851.703, 0.0, 10.000553, 9.998795 
9.75176e+2, 2.6495996e+2, -333415.13, -476960.25, -45644.57, -0.027572352, -0.25115752, -320130.5, 23238.83, 0.0, 10.000662, 9.998759 
9.752005e+2, 2.7495864e+2, -210508.9, -366663.72, -47839.027, -0.039649714, -0.2550969, -197018.55, 48363.14, 0.0, 10.000832, 9.998762 
9.752253e+2, 2.849575e+2, -110108.266, -275207.84, -36255.754, -0.034616824, -0.24285084, -102497.38, 44895.195, 0.0, 10.000881, 9.998693 
9.752505e+2, 2.9495642e+2, -21947.838, -181259.27, -33515.188, -0.010728908, -0.21711926, -15184.222, 34217.71, 0.0, 10.000811, 9.998699 
9.75276e+2, 3.0495456e+2, 40538.33, -113510.38, -3019.9766, 0.003986802, -0.27383384, 40597.51, 40597.51, 0.0, 10.000851, 9.998811 
9.7530186e+2, 3.1495363e+2, 72670.62, -82748.62, -13231.565, 0.01857691, -0.24744529, 73789.03, 73789.03, 0.0, 10.001005, 9.998947 
9.8482215e+2, 1.2494471e+2, -1664053.8, -1723723.9, -23151.803, 0.021679854, -0.098181635, -1656124.6, 59406.84, 0.00007951568, 10.000497, 9.999699 
9.848482e+2, 1.3494422e+2, -1554238.8, -1592978.1, 24510.486, -0.08580228, -0.14008424, -1542368.3, 75166.46, 0.000022398126, 10.000456, 9.999946 
9.848759e+2, 1.4494415e+2, -1485362.6, -1535504.3, -5309.546, 0.013640175, -0.12373241, -1484806.5, 34728.56, 0.0000013019285, 10.000372, 9.999705 
9.849019e+2, 1.5494406e+2, -1404637.1, -1445023.9, -6196.5264, -0.020535434, -0.10246769, -1403707.9, 17829.234, 0.0, 10.000251, 9.999712 
9.8492765e+2, 1.649437e+2, -1307206.3, -1351310.6, -37866.99, -0.044215627, -0.10539151, -1285438.3, 38102.18, 0.0, 10.000264, 9.999676 
9.849531e+2, 1.7494304e+2, -1186640.0, -1241942.0, -34049.613, -0.048800427, -0.13546298, -1170428.1, 55117.023, 0.0, 10.000417, 9.9996805 
9.849785e+2, 1.849424e+2, -1105146.0, -1187003.0, -37815.555, -0.046661053, -0.1483179, -1090350.5, 37199.707, 0.0, 10.000454, 9.999367 
9.850039e+2, 1.9494177e+2, -1018698.9, -1094235.0, -31123.887, -0.040453427, -0.14615849, -1007526.94, 22028.78, 0.0, 10.000373, 9.99937 
9.8502886e+2, 2.0494094e+2, -934954.25, -1015989.9, -41801.89, -0.05341319, -0.15653521, -917256.1, 14306.771, 0.0, 10.000331, 9.999255 
9.850535e+2, 2.1493992e+2, -837002.94, -917571.25, -42275.367, -0.08455359, -0.18244658, -818891.7, 14680.089, 0.0, 10.000329, 9.999259 
9.850781e+2, 2.2493894e+2, -738358.7, -827876.3, -55520.582, -0.08955855, -0.19879736, -711802.06, 23777.697, 0.0, 10.00037, 9.999182 
9.8510283e+2, 2.3493803e+2, -627915.25, -723481.1, -51954.76, -0.06832159, -0.20804156, -605111.3, 32475.564, 0.0, 10.000454, 9.999186 
9.8512745e+2, 2.4493687e+2, -536464.94, -666519.8, -53726.188, -0.05173889, -0.21962945, -517141.47, 22455.043, 0.0, 10.000572, 9.998847 
9.85152e+2, 2.5493553e+2, -415978.56, -557307.94, -53540.207, -0.039688773, -0.23644535, -397986.34, 43622.496, 0.0, 10.000725, 9.99885 
9.8517656e+2, 2.6493415e+2, -318795.6, -471835.4, -42699.816, -0.035982158, -0.25223076, -307688.03, 35933.832, 0.0, 10.0007715, 9.998741 
9.852012e+2, 2.749327e+2, -229394.14, -377586.9, -42271.207, -0.0413587, -0.26920176, -218184.44, 27451.197, 0.0, 10.0007105, 9.998745 
9.852261e+2, 2.8493148e+2, -121262.016, -280459.75, -30761.918, -0.037851397, -0.25761676, -115524.63, 32122.049, 0.0, 10.000805, 9.998693 
9.852513e+2, 2.9493055e+2, 13496.217, -164089.66, -34267.176, -0.02377904, -0.21978311, 19879.04, 69533.984, 0.0, 10.001055, 9.998699 
9.852769e+2, 3.049288e+2, 74285.586, -107700.98, -8447.778, -0.005025236, -0.2626084, 74676.88, 74676.88, 0.0, 10.001129, 9.998716 
9.853029e+2, 3.1492767e+2, 66968.516, -99231.05, -15889.848, 0.026035674, -0.24474993, 68474.055, 68474.055, 0.0, 10.001027, 9.998823 
9.948225e+2, 1.2491827e+2, -1657609.0, -1711616.8, -20031.693, 0.012528226, -0.08627711, -1650990.4, 64800.785, 0.00010622788, 10.000501, 9.99978 
9.948487e+2, 1.3491769e+2, -1548412.3, -1581646.9, 22617.67, -0.07472934, -0.14335978, -1536963.8, 80830.555, 0.00003292342, 10.000458, 10.000023 
9.948763e+2, 1.449176e+2, -1490023.0, -1545859.5, -10156.354, 0.024167214, -0.13092002, -1488233.0, 31561.896, 0.0000026281716, 10.000375, 9.999633 
9.9490213e+2, 1.549175e+2, -1409452.6, -1455208.1, -11050.3545, -0.01825825, -0.1045944, -1406923.6, 14874.328, 0.00000000019976186, 10.000251, 9.999642 
9.9492794e+2, 1.6491719e+2, -1299774.0, -1336087.9, -32299.533, -0.040292557, -0.10212418, -1280877.8, 42923.168, 0.0, 10.000263, 9.999781 
9.949537e+2, 1.749167e+2, -1178768.1, -1226214.5, -28489.695, -0.034185044, -0.12771446, -1165417.8, 60386.164, 0.0, 10.000419, 9.999787 
9.949791e+2, 1.8491618e+2, -1092083.0, -1160573.1, -41172.61, -0.036062147, -0.1416652, -1072775.3, 55032.02, 0.0, 10.000456, 9.999548 
9.950042e+2, 1.9491568e+2, -1005630.3, -1067630.6, -34601.496, -0.048183374, -0.14579397, -990173.25, 39637.777, 0.0, 10.000375, 9.999552 
9.9502903e+2, 2.0491493e+2, -934902.4, -1016315.94, -42299.19, -0.06072957, -0.15700792, -916904.25, 14913.138, 0.0, 10.000332, 9.999252 
9.950538e+2, 2.1491395e+2, -837098.25, -918152.44, -42687.633, -0.07240707, -0.17825855, -818763.9, 15062.56, 0.0, 10.000329, 9.999254 
9.950786e+2, 2.2491305e+2, -731403.56, -813805.3, -52620.992, -0.07315975, -0.19317809, -705772.7, 30061.281, 0.0, 10.000371, 9.999278 
9.951033e+2, 2.3491219e+2, -620686.5, -708983.8, -49018.117, -0.06319532, -0.20476818, -598866.4, 38973.633, 0.0, 10.000455, 9.999285 
9.951279e+2, 2.449111e+2, -535459.9, -664891.25, -48110.035, -0.05817488, -0.21691576, -519536.25, 20312.775, 0.0, 10.000573, 9.9988575 
9.951525e+2, 2.5490978e+2, -415366.16, -556058.2, -47678.887, -0.058389246, -0.23204124, -400730.75, 41130.258, 0.0, 10.000724, 9.998859 
9.9517715e+2, 2.6490837e+2, -317727.3, -469924.22, -44866.234, -0.051809907, -0.25013658, -305485.78, 38388.2, 0.0, 10.0007715, 9.9987545 
9.952019e+2, 2.749069e+2, -227505.2, -374910.7, -44394.836, -0.037910923, -0.27378303, -215167.28, 30720.629, 0.0, 10.000715, 9.998761 
9.9522686e+2, 2.8490555e+2, -126180.25, -291684.56, -21069.291, -0.037849974, -0.27084422, -123540.17, 24359.887, 0.0, 10.000809, 9.998615 
9.95252e+2, 2.949044e+2, 7659.051, -175881.08, -24336.813, -0.052034397, -0.24334711, 10831.207, 60741.57, 0.0, 10.001053, 9.99862 
9.952777e+2, 3.0490273e+2, 69319.875, -118090.34, -11821.029, -0.031164488, -0.2708996, 70062.55, 70062.55, 0.0, 10.001128, 9.998646 
9.95304e+2, 3.149017e+2, 61738.547, -112145.81, -18694.238, 0.033796676, -0.2373666, 63725.65, 63725.65, 0.0, 10.001035, 9.998731 
1.0048229e+3, 1.2489168e+2, -1632037.9, -1699301.4, -14423.082, 0.0025912442, -0.092984974, -1629075.8, 86975.945, 0.00013782152, 10.000676, 9.99978 
1.0048492e+3, 1.3489123e+2, -1541264.0, -1578611.0, 17365.24, -0.06760768, -0.13909395, -1534437.5, 83616.29, 0.000046236724, 10.00051, 10.000018 
1.0048768e+3, 1.4489114e+2, -1484716.9, -1544813.1, -15149.939, 0.030423053, -0.12389935, -1481113.8, 38940.652, 0.00000474816, 10.000418, 9.9996195 
1.0049025e+3, 1.5489092e+2, -1389222.3, -1447060.4, -12019.095, -0.016779386, -0.105716154, -1386824.1, 35234.41, 0.000000004412824, 10.000397, 9.999628 
1.0049282e+3, 1.6489066e+2, -1277697.5, -1317816.4, -26974.434, -0.03938826, -0.10440056, -1264141.4, 59919.992, 0.0, 10.000382, 9.999848 
1.00495405e+3, 1.748903e+2, -1179461.4, -1218525.3, -26070.97, -0.030164862, -0.124108694, -1166417.4, 59645.7, 0.0, 10.00038, 9.999859 
1.00497946e+3, 1.8488988e+2, -1097210.8, -1150862.5, -47399.76, -0.033013, -0.13792704, -1069572.3, 58493.13, 0.0, 10.000369, 9.999656 
1.0050044e+3, 1.9488941e+2, -1001205.8, -1053216.1, -46510.61, -0.049967382, -0.14775091, -973923.94, 56144.41, 0.0, 10.000353, 9.999661 
1.0050294e+3, 2.0488875e+2, -931817.1, -1007619.1, -53621.36, -0.06274623, -0.15898429, -904054.3, 28019.486, 0.0, 10.000322, 9.999316 
1.0050541e+3, 2.1488789e+2, -839896.06, -912310.7, -49158.72, -0.07026698, -0.17457803, -815049.7, 19032.041, 0.0, 10.00028, 9.999318 
1.005079e+3, 2.2488703e+2, -734166.25, -810935.25, -53440.11, -0.069813244, -0.18896689, -706754.0, 29334.852, 0.0, 10.000335, 9.999315 
1.0051037e+3, 2.3488617e+2, -612850.8, -700880.75, -54637.723, -0.0612263, -0.20535696, -586704.56, 51390.504, 0.0, 10.000491, 9.999322 
1.0051285e+3, 2.448851e+2, -529703.06, -655220.2, -55712.473, -0.05709095, -0.22001714, -508541.9, 31561.816, 0.0, 10.000585, 9.998918 
1.0051531e+3, 2.5488386e+2, -427857.9, -555106.7, -51931.465, -0.057908874, -0.23536246, -409354.72, 32760.139, 0.0, 10.000609, 9.99892 
1.0051779e+3, 2.6488248e+2, -323971.7, -472948.8, -48141.438, -0.053822152, -0.25240725, -309768.97, 34358.33, 0.0, 10.0007305, 9.998753 
1.0052026e+3, 2.74881e+2, -194019.58, -358809.75, -49224.082, -0.044332683, -0.27364537, -180435.7, 65705.266, 0.0, 10.000947, 9.998759 
1.00522764e+3, 2.848796e+2, -100576.52, -287792.8, -26756.824, -0.04472094, -0.27309206, -96827.52, 51326.324, 0.0, 10.001022, 9.998538 
1.0052529e+3, 2.9487836e+2, -11833.36, -193669.8, -30230.014, -0.055365074, -0.25275227, -6939.3867, 43226.49, 0.0, 10.000957, 9.998543 
1.00527875e+3, 3.0487671e+2, 57524.793, -126515.77, -15820.459, -0.03151364, -0.27066404, 58874.848, 58874.848, 0.0, 10.00106, 9.99862 
1.0053052e+3, 3.148757e+2, 102074.28, -97491.79, -19362.977, 0.034390237, -0.23160397, 103935.625, 103935.625, 0.0, 10.001333, 9.998688 
1.0148235e+3, 1.2486499e+2, -1638010.3, -1712270.5, -16629.168, -0.010754881, -0.12056076, -1634456.5, 81856.18, 0.00017450533, 10.000678, 9.999691 
1.0148498e+3, 1.3486482e+2, -1547851.8, -1592256.0, 10908.751, -0.06508024, -0.12703484, -1545316.5, 72996.45, 0.000062540406, 10.000509, 9.999925 
1.0148771e+3, 1.4486483e+2, -1481792.6, -1538926.3, -15968.011, 0.031735286, -0.101849236, -1477632.8, 42680.316, 0.000007860604, 10.000418, 9.9996605 
1.0149028e+3, 1.5486445e+2, -1386026.9, -1441017.4, -12911.433, -0.016274994, -0.10577852, -1383146.3, 39171.984, 0.000000028517778, 10.000398, 9.999669 
1.0149285e+3, 1.6486411e+2, -1275534.5, -1313982.4, -27374.045, -0.041597754, -0.11243357, -1261308.5, 63012.965, 0.0, 10.000384, 9.999874 
1.0149544e+3, 1.7486385e+2, -1177132.8, -1214160.0, -26466.213, -0.03701669, -0.12472009, -1163347.5, 62974.81, 0.0, 10.0003805, 9.999888 
1.0149798e+3, 1.8486346e+2, -1094540.1, -1145813.1, -48357.27, -0.037860192, -0.13716178, -1065444.1, 62880.277, 0.0, 10.00037, 9.99969 
1.0150048e+3, 1.9486299e+2, -998536.7, -1048203.9, -47488.348, -0.04607869, -0.15212917, -969780.6, 60546.906, 0.0, 10.000355, 9.999695 
1.0150297e+3, 2.0486243e+2, -922810.8, -989440.3, -55646.86, -0.059601933, -0.1625486, -891268.44, 41063.5, 0.0, 10.000324, 9.99944 
1.0150543e+3, 2.1486175e+2, -830740.44, -893823.5, -51102.145, -0.077965364, -0.17132242, -802229.5, 32108.16, 0.0, 10.000281, 9.999445 
1.0150792e+3, 2.2486095e+2, -735691.25, -814469.3, -47922.742, -0.079327635, -0.18599422, -713047.4, 23296.92, 0.0, 10.000336, 9.99929 
1.0151042e+3, 2.3485997e+2, -614654.56, -704734.44, -48867.668, -0.06255514, -0.20969446, -593236.6, 45115.2, 0.0, 10.000491, 9.999296 
1.0151291e+3, 2.448589e+2, -522460.4, -640398.9, -54786.29, -0.049197886, -0.22864665, -500937.97, 39422.508, 0.0, 10.000585, 9.99902 
1.0151539e+3, 2.5485775e+2, -420180.03, -539754.0, -50945.02, -0.039538268, -0.24573492, -401418.44, 40951.82, 0.0, 10.000611, 9.999025 
1.0151786e+3, 2.6485646e+2, -325206.66, -475931.8, -39886.117, -0.042904377, -0.2586425, -315302.47, 29079.248, 0.0, 10.000731, 9.998733 
1.01520345e+3, 2.7485508e+2, -195782.19, -362165.8, -40825.01, -0.06035077, -0.26949725, -186304.92, 60089.926, 0.0, 10.000945, 9.998738 
1.0152285e+3, 2.8485367e+2, -106507.99, -300106.7, -29078.078, -0.05882225, -0.26545423, -102234.85, 46173.313, 0.0, 10.001021, 9.998455 
1.015254e+3, 2.9485226e+2, -16813.467, -205197.72, -32451.838, -0.036389783, -0.24865007, -11379.901, 39041.69, 0.0, 10.00096, 9.998463 
1.01528004e+3, 3.0485064e+2, 59220.613, -124244.44, -5012.2285, -0.008591742, -0.26213774, 59357.445, 59357.445, 0.0, 10.001064, 9.998633 
1.0153064e+3, 3.1484956e+2, 102040.55, -97704.42, -8018.0015, 0.02664802, -0.23245011, 102361.88, 102361.88, 0.0, 10.001333, 9.998687 
1.0248242e+3, 1.2483858e+2, -1612623.4, -1711085.5, -13527.839, -0.015869228, -0.12627085, -1610798.6, 105772.41, 0.0002164286, 10.0009, 9.999591 
1.0248503e+3, 1.3483846e+2, -1538441.9, -1599726.9, 8833.651, -0.060477886, -0.11912972, -1537194.0, 81377.87, 0.00008198819, 10.0006275, 9.999816 
1.0248776e+3, 1.4483842e+2, -1469548.4, -1530045.3, -11391.834, 0.0315291, -0.09218119, -1467474.3, 53097.945, 0.000012107449, 10.000489, 9.999686 
1.0249032e+3, 1.5483795e+2, -1370715.8, -1430332.4, -9490.573, -0.016357047, -0.10727547, -1369241.4, 53336.3, 0.00000009714164, 10.000489, 9.999698 
1.024929e+3, 1.648376e+2, -1270384.0, -1315566.6, -28334.83, -0.040967785, -0.115136564, -1256736.8, 67844.16, 0.0, 10.000438, 9.999837 
1.0249547e+3, 1.748374e+2, -1187064.8, -1223121.1, -32632.87, -0.03509693, -0.118054636, -1167811.4, 58770.56, 0.0, 10.000331, 9.999851 
1.0249801e+3, 1.8483706e+2, -1100601.5, -1140239.1, -53076.977, -0.03473164, -0.12948647, -1063763.9, 64819.914, 0.0, 10.000293, 9.999765 
1.0250051e+3, 1.9483657e+2, -996067.9, -1038230.5, -49023.813, -0.041935984, -0.15251616, -963784.8, 66801.83, 0.0, 10.000334, 9.999773 
1.02503e+3, 2.0483604e+2, -914654.3, -975752.5, -58856.664, -0.055599242, -0.16659158, -878890.9, 53699.42, 0.0, 10.000339, 9.999527 
1.0250545e+3, 2.1483548e+2, -821072.9, -879278.25, -57351.5, -0.075367786, -0.17454395, -785862.56, 48732.246, 0.0, 10.000306, 9.999532 
1.0250795e+3, 2.2483471e+2, -738837.7, -815353.44, -49584.082, -0.077557534, -0.18876696, -714467.75, 22133.205, 0.0, 10.000312, 9.999295 
1.0251046e+3, 2.3483376e+2, -633554.7, -713338.5, -48535.67, -0.061041832, -0.21195082, -610620.8, 27987.893, 0.0, 10.0003605, 9.9993 
1.0251296e+3, 2.4483272e+2, -532161.5, -636850.9, -54097.566, -0.048131607, -0.23234694, -509229.94, 31387.152, 0.0, 10.0004835, 9.999092 
1.0251545e+3, 2.5483158e+2, -404310.03, -523648.7, -52807.78, -0.038919058, -0.25340074, -384298.16, 58327.965, 0.0, 10.000685, 9.999099 
1.0251795e+3, 2.6483032e+2, -317220.34, -475770.72, -43449.055, -0.04304333, -0.2665674, -306094.3, 38543.016, 0.0, 10.000804, 9.998698 
1.0252042e+3, 2.748289e+2, -214405.88, -374877.25, -45752.668, -0.06175338, -0.27395043, -202277.77, 44373.004, 0.0, 10.000834, 9.998703 
1.0252295e+3, 2.8482747e+2, -120638.84, -312173.8, -35326.707, -0.05887578, -0.267755, -114330.93, 34333.543, 0.0, 10.000948, 9.998406 
1.0252551e+3, 2.9482606e+2, 6758.7827, -199105.66, -36463.285, -0.031987436, -0.24976374, 13026.439, 63704.77, 0.0, 10.001146, 9.998414 
1.0252811e+3, 3.0482447e+2, 84854.086, -115252.7, -7127.2695, -0.00576532, -0.2581282, 85107.62, 85107.62, 0.0, 10.001256, 9.998603 
1.0253076e+3, 3.1482324e+2, 90637.17, -108073.19, -13138.78, 0.0194003, -0.23677747, 91502.15, 91502.15, 0.0, 10.001276, 9.998642 
1.0348251e+3, 1.2481253e+2, -1620484.5, -1728222.0, -20554.262, -0.012985695, -0.1095131, -1616696.4, 100129.67, 0.0002637313, 10.000903, 9.999474 
1.0348509e+3, 1.3481213e+2, -1547269.8, -1618449.0, -1500.3392, -0.053743463, -0.11553378, -1547238.1, 71591.82, 0.00010469639, 10.000628, 9.999687 
1.03487805e+3, 1.4481197e+2, -1468885.8, -1529014.8, -11608.819, 0.02975789, -0.09572323, -1466722.4, 54109.26, 0.000017566988, 10.00049, 9.999693 
1.0349037e+3, 1.548115e+2, -1369583.6, -1428386.9, -9583.656, -0.017167704, -0.110329814, -1368061.1, 54775.094, 0.00000023822265, 10.00049, 9.999711 
1.0349293e+3, 1.6481118e+2, -1277507.6, -1330822.0, -32511.94, -0.037684042, -0.11238784, -1262121.6, 62718.008, 0.0, 10.00044, 9.999732 
1.0349551e+3, 1.7481098e+2, -1194372.6, -1238796.4, -36956.73, -0.024493681, -0.10408135, -1173466.4, 53375.14, 0.0, 10.000332, 9.9997425 
1.0349805e+3, 1.8481064e+2, -1092515.9, -1123952.9, -52067.285, -0.023665912, -0.11487746, -1053846.1, 74997.4, 0.0, 10.000294, 9.999877 
1.0350055e+3, 1.9481017e+2, -987515.7, -1020993.1, -47849.004, -0.037560128, -0.14882435, -953562.06, 77283.43, 0.0, 10.000336, 9.999891 
1.0350304e+3, 2.0480965e+2, -911075.8, -968770.9, -60439.297, -0.050938763, -0.17101562, -872952.5, 59896.1, 0.0, 10.00034, 9.999575 
1.0350551e+3, 2.1480906e+2, -817500.8, -872440.9, -58930.508, -0.06292889, -0.18415442, -779952.3, 54900.656, 0.0, 10.000308, 9.999578 
1.0350798e+3, 2.2480837e+2, -736444.5, -811047.56, -48151.99, -0.0649689, -0.19722195, -712836.1, 24022.541, 0.0, 10.000315, 9.999324 
1.035105e+3, 2.348075e+2, -631263.7, -709266.2, -46956.387, -0.0568143, -0.21220256, -609224.0, 29641.61, 0.0, 10.000362, 9.999327 
1.03513e+3, 2.4480651e+2, -529080.44, -630977.25, -46722.57, -0.0535573, -0.2313161, -510900.44, 29973.072, 0.0, 10.000484, 9.999132 
1.03515506e+3, 2.5480536e+2, -401369.4, -517767.63, -45275.906, -0.0552925, -0.25855675, -385832.22, 57050.2, 0.0, 10.000685, 9.99914 
1.03518e+3, 2.6480404e+2, -320791.7, -483517.3, -42271.656, -0.054086145, -0.2759439, -310465.9, 34428.168, 0.0, 10.000804, 9.998645 
1.0352052e+3, 2.748026e+2, -217774.63, -382540.4, -44560.625, -0.049884517, -0.28580087, -206495.4, 40413.184, 0.0, 10.000836, 9.99865 
1.0352306e+3, 2.8480113e+2, -121875.09, -315194.16, -27756.824, -0.04596593, -0.2787621, -117968.695, 30953.998, 0.0, 10.000949, 9.998385 
1.0352561e+3, 2.9479972e+2, 5175.64, -202174.69, -28795.924, -0.04134833, -0.25599396, 9100.405, 60036.594, 0.0, 10.001144, 9.998394 
1.03528224e+3, 3.0479813e+2, 79193.93, -126891.33, -6205.602, -0.02196833, -0.25838128, 79380.625, 79380.625, 0.0, 10.001254, 9.998524 
1.0353087e+3, 3.1479675e+2, 84613.36, -120877.75, -11447.801, 0.011952413, -0.24445322, 85249.14, 85249.14, 0.0, 10.001277, 9.998554 
1.0448259e+3, 1.2478623e+2, -1630499.9, -1741714.4, -36290.01, -0.008965943, -0.099879205, -1619705.8, 97377.93, 0.00031664252, 10.000872, 9.999395 
1.0448517e+3, 1.3478562e+2, -1523599.5, -1616677.6, -16304.585, -0.051173292, -0.116983175, -1520826.0, 98263.72, 0.00013079311, 10.0008335, 9.9996 
1.0448785e+3, 1.4478537e+2, -1440783.4, -1514755.6, -24235.338, 0.022605238, -0.10320209, -1433550.5, 87541.9, 0.000024312307, 10.000681, 9.999699 
1.0449041e+3, 1.5478495e+2, -1383946.6, -1434053.0, -22902.547, -0.018994298, -0.114889376, -1375055.9, 48040.45, 0.0000004785213, 10.000387, 9.999722 
1.0449297e+3, 1.6478465e+2, -1298729.5, -1340820.1, -36338.063, -0.036603667, -0.11272102, -1277782.4, 47316.95, 0.0, 10.000294, 9.999734 
1.0449555e+3, 1.7478451e+2, -1180742.1, -1231615.4, -32352.156, -0.02366387, -0.09901707, -1165024.4, 62076.813, 0.0, 10.000424, 9.999747 
1.0449808e+3, 1.8478419e+2, -1070698.0, -1108821.0, -47826.96, -0.021493327, -0.11032372, -1038274.0, 90829.016, 0.0, 10.000424, 9.999917 
1.04500584e+3, 1.9478369e+2, -992054.56, -1018336.56, -49468.293, -0.032187548, -0.15129548, -954011.6, 77093.305, 0.0, 10.000284, 9.999933 
1.04503065e+3, 2.0478319e+2, -921489.3, -968557.94, -62374.32, -0.044296764, -0.17642199, -878357.1, 54750.47, 0.0, 10.000247, 9.99962 
1.0450553e+3, 2.1478267e+2, -811817.75, -864390.94, -61045.977, -0.057208177, -0.18772444, -771639.3, 63471.89, 0.0, 10.000324, 9.999625 
1.0450802e+3, 2.2478198e+2, -726659.3, -807949.44, -51042.277, -0.06151451, -0.20050295, -702056.1, 35060.535, 0.0, 10.000389, 9.999309 
1.0451054e+3, 2.347811e+2, -621253.6, -706182.9, -53255.434, -0.056852277, -0.21735598, -595605.25, 43518.867, 0.0, 10.00044, 9.9993105 
1.0451305e+3, 2.447801e+2, -522012.47, -626393.25, -51493.977, -0.054949846, -0.23664074, -500885.28, 40246.89, 0.0, 10.000529, 9.999142 
1.0451557e+3, 2.5477898e+2, -403927.16, -517723.97, -52538.344, -0.055973932, -0.26185736, -383380.7, 59760.215, 0.0, 10.000663, 9.99915 
1.0451808e+3, 2.6477772e+2, -322149.28, -484436.6, -52207.47, -0.054029666, -0.2744707, -306805.06, 38347.086, 0.0, 10.000797, 9.998641 
1.04520604e+3, 2.747763e+2, -204647.98, -376536.84, -51154.695, -0.048982482, -0.27663714, -190576.17, 56589.81, 0.0, 10.000929, 9.998646 
1.0452316e+3, 2.8477478e+2, -116237.93, -320190.53, -33035.555, -0.043733098, -0.27225325, -111020.414, 38160.344, 0.0, 10.001022, 9.998315 
1.0452572e+3, 2.9477316e+2, -9672.08, -217189.23, -37974.254, -0.03735647, -0.26354843, -2941.354, 48255.074, 0.0, 10.001077, 9.9983225 
1.0452833e+3, 3.0477154e+2, 66498.13, -125949.95, -15522.466, -0.0230847, -0.26674092, 67742.1, 67742.1, 0.0, 10.001138, 9.998586 
1.0453098e+3, 3.1477034e+2, 77274.89, -117887.59, -10790.73, -0.0018508855, -0.24377774, 77869.7, 77869.7, 0.0, 10.001199, 9.998611 
1.05482675e+3, 1.2475967e+2, -1633261.4, -1747215.8, -36548.332, -0.007158247, -0.100481935, -1622546.8, 94797.33, 0.0003754382, 10.00087, 9.999359 
1.0548525e+3, 1.3475898e+2, -1526518.6, -1623279.6, -17778.094, -0.053111326, -0.12381854, -1523355.5, 95995.37, 0.00016041061, 10.000834, 9.999555 
1.05487905e+3, 1.4475864e+2, -1440403.4, -1514686.9, -35274.18, 0.009520578, -0.11471823, -1426322.4, 95031.84, 0.000032450233, 10.000683, 9.999699 
1.0549044e+3, 1.5475827e+2, -1383743.4, -1433732.8, -34428.26, -0.022177031, -0.12109359, -1366193.5, 57164.316, 0.0000008393984, 10.000387, 9.999724 
1.05492994e+3, 1.6475806e+2, -1291169.1, -1325159.5, -32005.146, -0.037915, -0.1162693, -1271926.6, 53433.336, 0.0, 10.000293, 9.999842 
1.0549557e+3, 1.7475803e+2, -1172398.6, -1214826.9, -27591.895, -0.032793876, -0.102931306, -1158808.3, 68552.086, 0.0, 10.000425, 9.999863 
1.0549812e+3, 1.8475774e+2, -1072564.9, -1113402.4, -53248.055, -0.02851681, -0.115892336, -1035954.8, 93407.12, 0.0, 10.000427, 9.999886 
1.0550062e+3, 1.9475718e+2, -994192.2, -1023441.44, -55171.38, -0.02612452, -0.16012, -951740.0, 79624.59, 0.0, 10.000286, 9.999898 
1.055031e+3, 2.0475668e+2, -918270.4, -962500.5, -59971.89, -0.035812326, -0.18299517, -876465.94, 56901.156, 0.0, 10.000249, 9.999661 
1.0550556e+3, 2.147563e+2, -808413.6, -857981.75, -58400.484, -0.058138918, -0.18540642, -769755.9, 65613.45, 0.0, 10.000327, 9.999669 
1.0550806e+3, 2.247556e+2, -730509.06, -816619.75, -49428.727, -0.0671225, -0.19869304, -708013.2, 29361.645, 0.0, 10.000391, 9.9992485 
1.0551057e+3, 2.3475453e+2, -625099.06, -714874.94, -51469.23, -0.06118426, -0.22717151, -601693.44, 37690.58, 0.0, 10.000442, 9.99925 
1.05513096e+3, 2.4475348e+2, -523364.5, -629841.3, -46497.492, -0.05278695, -0.24800111, -505918.1, 35474.855, 0.0, 10.000531, 9.999118 
1.0551564e+3, 2.5475243e+2, -405351.88, -521066.44, -47308.496, -0.04211161, -0.26327837, -388472.56, 54928.87, 0.0, 10.000664, 9.999127 
1.0551816e+3, 2.6475132e+2, -319403.56, -479017.94, -47045.695, -0.04363717, -0.26281387, -306569.03, 38842.43, 0.0, 10.000797, 9.998679 
1.0552068e+3, 2.7475008e+2, -201647.39, -370746.4, -46045.78, -0.05846036, -0.24831805, -189922.13, 57500.914, 0.0, 10.00093, 9.998686 
1.0552324e+3, 2.847485e+2, -124588.07, -337885.56, -30873.965, -0.051894348, -0.24963653, -120209.086, 29229.67, 0.0, 10.001022, 9.998194 
1.05525844e+3, 2.9474646e+2, -18575.484, -235415.44, -35573.496, -0.02153503, -0.27146035, -12888.648, 38570.223, 0.0, 10.001075, 9.998199 
1.0552845e+3, 3.0474478e+2, 78972.17, -99650.22, -12894.011, -0.010650183, -0.28198197, 79898.13, 79898.13, 0.0, 10.001135, 9.998769 
1.0553108e+3, 3.1474403e+2, 90338.445, -90669.38, -8418.485, -0.022768326, -0.23305744, 90729.13, 90729.13, 0.0, 10.001198, 9.998799 
1.0648277e+3, 1.2473327e+2, -1613923.4, -1736815.3, -27967.36, -0.009318421, -0.09790148, -1607858.0, 109744.74, 0.00044022893, 10.0009985, 9.999368 
1.0648534e+3, 1.3473241e+2, -1524945.4, -1622237.8, -6435.489, -0.047232512, -0.13806437, -1524521.6, 95089.086, 0.0001936281, 10.000846, 9.999557 
1.0648797e+3, 1.4473201e+2, -1437002.0, -1516523.1, -27100.37, 0.004138464, -0.13389756, -1428644.6, 92969.87, 0.00004209593, 10.000723, 9.999666 
1.0649048e+3, 1.5473181e+2, -1352028.8, -1421948.0, -29350.826, -0.02978199, -0.12015982, -1341341.4, 82275.586, 0.0000013547506, 10.000621, 9.999692 
1.0649302e+3, 1.6473165e+2, -1265904.1, -1311562.3, -26170.6, -0.044375084, -0.10767765, -1254004.8, 71613.96, 0.0, 10.000462, 9.999853 
1.06495604e+3, 1.7473158e+2, -1198890.3, -1225948.0, -29361.408, -0.03426282, -0.10048242, -1180090.8, 47528.73, 0.0, 10.000237, 9.999876 
1.06498145e+3, 1.8473125e+2, -1108309.6, -1130282.1, -56177.695, -0.02919326, -0.118193015, -1062054.0, 67567.36, 0.0, 10.000181, 9.999887 
1.0650063e+3, 1.9473065e+2, -989584.75, -1020735.94, -55270.72, -0.030884016, -0.16601408, -947736.9, 83887.33, 0.0, 10.000317, 9.999901 
1.0650312e+3, 2.0473018e+2, -897024.75, -952222.7, -58328.145, -0.03965066, -0.18855375, -860095.6, 73531.03, 0.0, 10.000395, 9.999661 
1.065056e+3, 2.1472985e+2, -796110.56, -852102.25, -60107.074, -0.05554291, -0.1857701, -757799.3, 77829.164, 0.0, 10.000412, 9.999668 
1.0650809e+3, 2.2472914e+2, -721632.4, -811720.4, -50280.047, -0.061839446, -0.19866619, -699170.5, 38463.465, 0.0, 10.00045, 9.999253 
1.0651062e+3, 2.3472804e+2, -614439.06, -708984.3, -47645.664, -0.05724317, -0.2322262, -594593.8, 45049.555, 0.0, 10.000512, 9.999256 
1.0651316e+3, 2.4472696e+2, -519118.44, -632268.8, -39266.47, -0.04877745, -0.2528148, -506827.06, 34825.426, 0.0, 10.00058, 9.999077 
1.0651571e+3, 2.5472593e+2, -409648.13, -527604.2, -41675.44, -0.036421034, -0.2621074, -396409.47, 47251.645, 0.0, 10.000654, 9.999086 
1.06518246e+3, 2.647248e+2, -323494.84, -484103.13, -42337.156, -0.03842913, -0.2591692, -313017.97, 32653.404, 0.0, 10.000783, 9.998651 
1.0652078e+3, 2.7472356e+2, -197394.19, -371715.34, -46329.05, -0.056287143, -0.24584429, -185846.36, 61836.938, 0.0, 10.000973, 9.998657 
1.0652334e+3, 2.847219e+2, -127464.89, -346546.38, -38307.445, -0.050529577, -0.24579418, -120959.8, 28739.703, 0.0, 10.001035, 9.998128 
1.0652595e+3, 2.9471985e+2, -40110.766, -253116.0, -39243.48, -0.01849538, -0.2634003, -33110.703, 18609.549, 0.0, 10.000959, 9.998133 
1.06528565e+3, 3.0471814e+2, 60368.504, -98938.766, -14430.438, -0.011686799, -0.28074712, 61665.098, 61665.098, 0.0, 10.000967, 9.998854 
1.0653118e+3, 3.147174e+2, 78420.125, -85936.414, -17323.508, -0.03484672, -0.2379507, 80226.21, 80226.21, 0.0, 10.001072, 9.998892 
1.0748286e+3, 1.2470709e+2, -1609985.3, -1728872.5, -32891.58, -0.016588395, -0.09139129, -1601492.1, 116366.95, 0.0005108164, 10.000999, 9.999423 
1.07485436e+3, 1.3470598e+2, -1521723.8, -1615263.3, -12203.56, -0.033337414, -0.16018194, -1520157.9, 99710.62, 0.00023041679, 10.000844, 9.999605 
1.07488036e+3, 1.4470552e+2, -1441910.0, -1526828.9, -30628.902, 0.0067389267, -0.16137046, -1432015.5, 89857.4, 0.000053336094, 10.000722, 9.999597 
1.07490525e+3, 1.5470561e+2, -1356605.0, -1432245.6, -33192.367, -0.04201111, -0.11190966, -1344105.3, 79768.24, 0.0000020676762, 10.000624, 9.99962 
1.0749306e+3, 1.6470551e+2, -1271965.9, -1324919.1, -34777.125, -0.056360606, -0.08648775, -1254733.6, 71141.53, 0.0000000000166348, 10.0004635, 9.999761 
1.0749563e+3, 1.7470522e+2, -1205233.4, -1239512.9, -38142.25, -0.02824495, -0.091615625, -1180556.8, 47321.47, 0.0, 10.000238, 9.999783 
1.07498154e+3, 1.8470477e+2, -1105833.1, -1125493.0, -51808.32, -0.02355653, -0.11734045, -1062930.5, 66950.63, 0.0, 10.000182, 9.99992 
1.0750065e+3, 1.9470417e+2, -986575.6, -1014974.75, -50478.33, -0.04642415, -0.16893594, -948337.7, 83545.836, 0.0, 10.000318, 9.999941 
1.07503146e+3, 2.0470367e+2, -899795.8, -958484.8, -57955.68, -0.05590029, -0.19303718, -864179.1, 69706.94, 0.0, 10.000397, 9.999619 
1.0750564e+3, 2.1470332e+2, -799198.6, -859004.44, -59706.492, -0.049753107, -0.18880966, -762325.44, 73563.125, 0.0, 10.000413, 9.99962 
1.0750815e+3, 2.2470264e+2, -716817.94, -802214.7, -48217.707, -0.046130672, -0.20045677, -695110.56, 42783.234, 0.0, 10.000451, 9.999319 
1.0751068e+3, 2.3470162e+2, -609455.25, -699197.06, -45325.523, -0.045491178, -0.23280467, -590546.8, 49355.22, 0.0, 10.000514, 9.999323 
1.0751322e+3, 2.4470057e+2, -522975.38, -640889.9, -36498.055, -0.043147534, -0.25139815, -512592.4, 29318.367, 0.0, 10.000582, 9.999017 
1.07515775e+3, 2.546995e+2, -413617.06, -536507.25, -38667.06, -0.038538575, -0.2584639, -402462.97, 41456.938, 0.0, 10.000656, 9.999025 
1.0751832e+3, 2.646982e+2, -329858.7, -497527.16, -35020.77, -0.03831536, -0.26283976, -322837.9, 23093.906, 0.0, 10.000783, 9.998559 
1.07520886e+3, 2.746967e+2, -204511.73, -385730.3, -38694.094, -0.043624807, -0.26694098, -196595.52, 51350.996, 0.0, 10.000968, 9.998564 
1.0752345e+3, 2.8469506e+2, -129359.08, -349688.22, -40469.53, -0.040566485, -0.2591292, -122160.89, 27801.945, 0.0, 10.001031, 9.998109 
1.0752603e+3, 2.9469335e+2, -41184.953, -255635.84, -41490.18, -0.027087549, -0.24104884, -33437.656, 18543.127, 0.0, 10.000959, 9.998116 
1.07528634e+3, 3.0469155e+2, 59924.465, -99910.28, -9893.127, -0.025073882, -0.2647493, 60534.48, 60534.48, 0.0, 10.000966, 9.998848 
1.0753127e+3, 3.1469047e+2, 76973.0, -86578.08, -12301.139, -0.039760344, -0.25654954, 77893.02, 77893.02, 0.0, 10.0010605, 9.998894 
1.0848295e+3, 1.24680966e+2, -1596307.6, -1719808.9, -23919.986, -0.02514802, -0.09456854, -1591836.6, 126277.89, 0.0005868399, 10.001083, 9.999444 
1.0848551e+3, 1.3467985e+2, -1517363.8, -1611869.5, -7217.743, -0.036142528, -0.16520563, -1516815.6, 103308.016, 0.00027068684, 10.00087, 9.999616 
1.084881e+3, 1.4467934e+2, -1445522.8, -1533820.1, -22840.893, -0.0036653078, -0.17105521, -1439964.1, 82164.53, 0.00006622561, 10.000721, 9.999548 
1.0849059e+3, 1.5467943e+2, -1358076.1, -1438524.5, -24111.78, -0.041281845, -0.116922155, -1351403.0, 72726.5, 0.000003027, 10.000638, 9.999569 
1.08493105e+3, 1.6467929e+2, -1263823.1, -1330462.3, -26896.475, -0.051934708, -0.089174345, -1254322.0, 71809.9, 0.000000000186287, 10.000562, 9.999675 
1.0849567e+3, 1.7467889e+2, -1174318.3, -1234221.1, -29871.639, -0.028885202, -0.09477305, -1161968.4, 66167.64, 0.0, 10.000493, 9.999696 
1.0849818e+3, 1.8467839e+2, -1072163.6, -1113330.9, -38817.18, -0.027157923, -0.11989418, -1048810.3, 81329.25, 0.0, 10.000431, 9.999883 
1.0850068e+3, 1.9467779e+2, -980229.0, -1015821.6, -43044.605, -0.05036581, -0.16969332, -951446.94, 80695.15, 0.0, 10.00038, 9.999905 
1.0850317e+3, 2.0467725e+2, -907480.06, -965395.9, -54023.723, -0.05791745, -0.19244647, -875142.6, 59002.3, 0.0, 10.000359, 9.999589 
1.0850569e+3, 2.1467689e+2, -806912.2, -865798.4, -54696.45, -0.047544096, -0.18754847, -774237.7, 61910.254, 0.0, 10.000375, 9.999592 
1.085082e+3, 2.246762e+2, -718635.9, -798836.5, -41490.105, -0.042532012, -0.19926211, -701034.7, 37118.457, 0.0, 10.000422, 9.999356 
1.0851073e+3, 2.3467521e+2, -607821.94, -693897.44, -40773.97, -0.04380048, -0.23228563, -591574.25, 48586.434, 0.0, 10.000506, 9.999363 
1.08513266e+3, 2.4467415e+2, -522356.9, -645401.2, -31761.172, -0.04328232, -0.25212714, -514642.16, 27527.17, 0.0, 10.0006075, 9.998974 
1.0851583e+3, 2.54673e+2, -406804.88, -538192.3, -32968.363, -0.04020449, -0.2612921, -398996.38, 45182.79, 0.0, 10.000725, 9.9989805 
1.085184e+3, 2.6467165e+2, -335830.63, -506752.0, -28540.596, -0.037681967, -0.2666952, -331190.84, 15000.976, 0.0, 10.000771, 9.998501 
1.0852097e+3, 2.746701e+2, -242349.48, -410432.94, -29918.863, -0.036466822, -0.27007812, -237182.75, 11024.656, 0.0, 10.000737, 9.998506 
1.0852355e+3, 2.846685e+2, -164401.47, -365693.34, -30978.861, -0.035685014, -0.25661227, -159741.69, -9517.986, 0.0, 10.000787, 9.9981165 
1.0852611e+3, 2.946669e+2, -44856.637, -256379.64, -30346.076, -0.03421464, -0.22806475, -40589.145, 11651.564, 0.0, 10.000931, 9.998124 
1.0852871e+3, 3.046651e+2, 55793.82, -88865.125, 1383.5787, -0.03741686, -0.25823474, 55807.05, 55807.05, 0.0, 10.000882, 9.998963 
1.0853135e+3, 3.146641e+2, 22749.377, -98250.94, 6914.0176, -0.04997713, -0.2562929, 23143.166, 23143.166, 0.0, 10.0006275, 9.999022 
1.0948304e+3, 1.24654956e+2, -1597627.8, -1722128.3, -30438.746, -0.03680055, -0.11087253, -1590584.4, 127784.41, 0.00066826155, 10.0010805, 9.99943 
1.09485574e+3, 1.346541e+2, -1519748.6, -1616751.9, -15256.975, -0.056813616, -0.15220313, -1517405.5, 102970.21, 0.00031450897, 10.000869, 9.999583 
1.0948814e+3, 1.4465351e+2, -1447686.8, -1538482.6, -26057.186, -0.028140428, -0.16172412, -1440740.1, 81641.19, 0.000080840386, 10.000721, 9.9995165 
1.0949066e+3, 1.546533e+2, -1360317.4, -1443408.1, -27402.545, -0.027425548, -0.13553882, -1352094.0, 72290.7, 0.0000043066148, 10.000639, 9.9995365 
1.0949317e+3, 1.64653e+2, -1269413.5, -1342557.1, -29636.213, -0.030637354, -0.11659822, -1258913.0, 67475.45, 0.0000000006358386, 10.000563, 9.999592 
1.094957e+3, 1.7465265e+2, -1179755.6, -1246302.6, -32642.697, -0.03629878, -0.11022166, -1166417.3, 61975.4, 0.0, 10.000496, 9.999612 
1.0949822e+3, 1.8465215e+2, -1079655.9, -1129580.9, -41246.824, -0.040396065, -0.12585266, -1056406.1, 73990.32, 0.0, 10.000434, 9.99977 
1.0950072e+3, 1.9465148e+2, -987872.56, -1032338.4, -45359.64, -0.04299802, -0.1684327, -959590.1, 72809.55, 0.0, 10.000381, 9.999791 
1.09503224e+3, 2.0465095e+2, -908526.2, -968148.1, -53795.305, -0.045895178, -0.18697526, -876834.06, 57568.98, 0.0, 10.00036, 9.999569 
1.0950571e+3, 2.1465054e+2, -807526.6, -867791.7, -54285.27, -0.048875894, -0.18212351, -775571.6, 60834.93, 0.0, 10.000377, 9.9995775 
1.09508224e+3, 2.2464986e+2, -717517.1, -797276.75, -38646.445, -0.05083026, -0.19514221, -701863.6, 36548.24, 0.0, 10.000423, 9.999366 
1.09510764e+3, 2.3464885e+2, -606733.6, -692303.9, -37586.07, -0.051895734, -0.23065332, -592568.94, 47850.195, 0.0, 10.000508, 9.999373 
1.0951333e+3, 2.4464774e+2, -524305.1, -649802.4, -27244.195, -0.049058255, -0.2548964, -518645.9, 23782.17, 0.0, 10.000608, 9.998943 
1.09515905e+3, 2.546465e+2, -409187.7, -542961.75, -28202.605, -0.04172266, -0.27024692, -403485.03, 40953.75, 0.0, 10.000723, 9.998949 
1.0951848e+3, 2.6464516e+2, -338082.47, -511239.56, -29277.016, -0.03678713, -0.27083257, -333266.34, 13185.146, 0.0, 10.000769, 9.998471 
1.0952105e+3, 2.7464378e+2, -244158.2, -414533.63, -30685.605, -0.03449857, -0.2567514, -238800.05, 9666.133, 0.0, 10.000737, 9.998477 
1.09523624e+3, 2.8464222e+2, -162602.3, -361862.6, -25212.85, -0.035579197, -0.23946503, -159461.56, -8979.209, 0.0, 10.000786, 9.998143 
1.09526195e+3, 2.946405e+2, -43748.145, -252552.7, -24007.803, -0.04028697, -0.22331399, -41023.344, 11476.801, 0.0, 10.000923, 9.998155 
1.0952879e+3, 3.0463877e+2, 70047.125, -57700.67, -7137.6797, -0.04915905, -0.26033422, 70444.695, 70444.695, 0.0, 10.0008745, 9.999182 
1.0953139e+3, 3.146382e+2, 38709.543, -64218.344, -2311.1982, -0.06557562, -0.23615739, 38761.414, 38761.414, 0.0, 10.000622, 9.999259 
1.1048314e+3, 1.2462896e+2, -1619830.3, -1736377.9, -28663.781, -0.037630517, -0.12703136, -1613162.1, 105460.71, 0.00075576623, 10.000944, 9.999397 
1.1048566e+3, 1.3462828e+2, -1507333.4, -1616175.9, -16664.174, -0.058045805, -0.14665988, -1504839.3, 115789.45, 0.00036234639, 10.0009775, 9.999534 
1.10488206e+3, 1.4462765e+2, -1419795.3, -1527622.1, -29229.33, -0.039735034, -0.15622996, -1412381.6, 110253.19, 0.00009737699, 10.000925, 9.999493 
1.1049073e+3, 1.5462725e+2, -1345573.8, -1438612.4, -30224.043, -0.026051769, -0.14486624, -1336617.5, 88022.09, 0.0000060098255, 10.0007515, 9.999515 
1.10493235e+3, 1.646269e+2, -1263248.8, -1347101.5, -28725.213, -0.027042534, -0.12829243, -1254352.3, 72291.62, 0.0000000015512864, 10.000639, 9.999523 
1.1049574e+3, 1.746266e+2, -1168455.5, -1248489.1, -30656.848, -0.04282232, -0.110011116, -1158062.1, 70585.59, 0.0, 10.0006075, 9.999542 
1.1049826e+3, 1.8462607e+2, -1069799.8, -1131603.0, -38371.79, -0.04764567, -0.121404074, -1051433.8, 79218.23, 0.0, 10.000531, 9.999709 
1.1050076e+3, 1.946253e+2, -988707.4, -1039342.06, -38662.48, -0.040448625, -0.1691078, -967810.44, 64845.98, 0.0, 10.000405, 9.999731 
1.1050326e+3, 2.0462473e+2, -907622.4, -971669.6, -40341.008, -0.041368246, -0.18682164, -888139.56, 46520.805, 0.0, 10.000384, 9.999533 
1.1050575e+3, 2.1462438e+2, -794173.25, -865241.56, -42280.67, -0.051213957, -0.17369936, -774477.6, 62186.016, 0.0, 10.000485, 9.999542 
1.1050828e+3, 2.2462367e+2, -700379.4, -791267.2, -28996.15, -0.05622848, -0.18443114, -691916.6, 46752.484, 0.0, 10.000552, 9.999345 
1.1051082e+3, 2.3462258e+2, -598334.1, -690591.1, -30407.928, -0.055749115, -0.22512878, -589213.4, 51463.727, 0.0, 10.000577, 9.9993515 
1.1051338e+3, 2.4462143e+2, -528997.6, -652774.6, -20998.3, -0.051781837, -0.25180683, -525532.4, 17153.936, 0.0, 10.00058, 9.998937 
1.1051595e+3, 2.546202e+2, -433509.28, -555488.8, -20505.672, -0.044076856, -0.26606378, -430154.4, 14542.378, 0.0, 10.000561, 9.99894 
1.10518545e+3, 2.6461887e+2, -364997.1, -528486.94, -21420.98, -0.03822838, -0.26430312, -362237.06, -15527.46, 0.0, 10.000603, 9.998433 
1.10521115e+3, 2.7461746e+2, -250423.0, -422128.3, -23896.17, -0.03416779, -0.24629056, -247159.4, 1565.3488, 0.0, 10.000714, 9.998436 
1.1052369e+3, 2.8461596e+2, -163515.5, -348464.06, -16957.215, -0.03584134, -0.2292045, -161973.61, -11233.056, 0.0, 10.00072, 9.998266 
1.1052627e+3, 2.9461432e+2, -80518.1, -255753.28, -9040.609, -0.044189334, -0.2183144, -80052.92, -27295.879, 0.0, 10.000608, 9.998283 
1.1052884e+3, 3.0461258e+2, 17890.152, -76352.35, -1539.7484, -0.0558764, -0.26342458, 17915.303, 17915.303, 0.0, 10.000489, 9.999239 
1.1053142e+3, 3.1461218e+2, 6221.839, -71784.23, -9166.435, -0.07372807, -0.22932725, 7284.5034, 7284.5034, 0.0, 10.000365, 9.99933 
1.1148324e+3, 1.2460301e+2, -1624504.1, -1744760.3, -25882.863, -0.02930618, -0.14545612, -1619169.9, 99706.54, 0.00085056474, 10.000937, 9.999344 
1.1148578e+3, 1.346024e+2, -1512671.5, -1627078.8, -15373.33, -0.03876644, -0.14900677, -1510641.8, 110240.34, 0.00041499882, 10.000977, 9.99946 
1.1148829e+3, 1.4460178e+2, -1420885.6, -1530234.0, -35628.402, -0.037673626, -0.15477741, -1410301.5, 112587.06, 0.00011616446, 10.000926, 9.999475 
1.1149079e+3, 1.5460135e+2, -1346399.3, -1440785.5, -37149.73, -0.03774528, -0.14450721, -1333531.6, 91361.836, 0.000008247579, 10.000752, 9.999499 
1.1149329e+3, 1.64601e+2, -1266909.0, -1355334.1, -30526.973, -0.042034455, -0.1237436, -1257394.0, 69503.734, 0.0000000033697685, 10.000641, 9.999466 
1.114958e+3, 1.7460075e+2, -1172134.4, -1256853.5, -32160.947, -0.04868972, -0.093967244, -1161308.8, 67592.29, 0.0, 10.000609, 9.999485 
1.114983e+3, 1.8460019e+2, -1070464.4, -1133642.4, -43413.0, -0.048925616, -0.106504075, -1048363.94, 82541.89, 0.0, 10.000533, 9.999695 
1.1150079e+3, 1.9459923e+2, -989063.5, -1040745.06, -43825.688, -0.042796146, -0.17159149, -964027.6, 68884.54, 0.0, 10.000407, 9.999721 
1.11503296e+3, 2.0459859e+2, -911220.56, -979686.3, -37140.055, -0.04441406, -0.19190596, -894943.3, 39973.367, 0.0, 10.000385, 9.999477 
1.115058e+3, 2.1459834e+2, -797992.25, -873537.9, -38625.46, -0.054722015, -0.16246517, -781739.94, 55179.07, 0.0, 10.000486, 9.999485 
1.11508325e+3, 2.2459766e+2, -704155.75, -799361.5, -28073.389, -0.059003167, -0.16747798, -696494.3, 42430.465, 0.0, 10.000552, 9.9992895 
1.1151087e+3, 2.3459643e+2, -601969.4, -698412.06, -29419.025, -0.05573342, -0.21591778, -593703.75, 47230.613, 0.0, 10.000577, 9.999298 
1.1151343e+3, 2.4459526e+2, -528187.06, -651415.9, -21500.617, -0.051726088, -0.24320541, -524543.44, 18400.494, 0.0, 10.000581, 9.998946 
1.1151601e+3, 2.5459412e+2, -432573.97, -553884.9, -20825.59, -0.04732465, -0.24954405, -429098.38, 15854.891, 0.0, 10.000561, 9.998952 
1.1151859e+3, 2.6459277e+2, -368670.2, -535972.2, -16831.854, -0.0419596, -0.2478084, -366993.56, -20027.309, 0.0, 10.000602, 9.998383 
1.1152118e+3, 2.745912e+2, -255049.38, -430593.0, -18794.543, -0.03558394, -0.23845567, -253059.69, -4076.5337, 0.0, 10.00071, 9.998381 
1.11523755e+3, 2.8458974e+2, -149977.63, -319108.66, -20013.344, -0.036833327, -0.22522089, -147641.7, 3356.7073, 0.0, 10.000714, 9.998471 
1.1152632e+3, 2.9458836e+2, -65796.945, -224655.2, -12400.737, -0.04646585, -0.21290079, -64834.75, -11823.022, 0.0, 10.000606, 9.998499 
1.11528896e+3, 3.045866e+2, 11324.119, -89737.37, -5454.2773, -0.058338925, -0.26713046, 11617.634, 11617.634, 0.0, 10.000487, 9.999148 
1.1153146e+3, 3.145861e+2, 12.088492, -83795.33, -12972.264, -0.0758275, -0.23092835, 1974.089, 1974.089, 0.0, 10.0003605, 9.99925 
1.1248335e+3, 1.2457725e+2, -1589544.5, -1724457.0, -21016.947, -0.026252715, -0.15054576, -1586346.3, 132782.53, 0.0009537465, 10.001164, 9.999373 
1.1248588e+3, 1.3457668e+2, -1516669.4, -1627969.5, -6192.872, -0.026644107, -0.15108185, -1516325.9, 104808.375, 0.00047316175, 10.000946, 9.999469 
1.1248838e+3, 1.4457604e+2, -1438486.1, -1546096.8, -24631.322, -0.039409764, -0.15363856, -1433116.3, 90024.586, 0.00013752929, 10.000838, 9.999407 
1.12490855e+3, 1.5457568e+2, -1336129.1, -1443548.3, -30861.328, -0.04350698, -0.13288212, -1327894.1, 97251.49, 0.00001111389, 10.000857, 9.999429 
1.1249334e+3, 1.6457523e+2, -1252873.4, -1353981.9, -28301.424, -0.048231278, -0.113891676, -1245490.5, 81660.0, 0.0000000061074554, 10.000761, 9.999417 
1.1249585e+3, 1.7457478e+2, -1187715.5, -1269647.8, -29287.72, -0.051300336, -0.10064991, -1178322.9, 50832.773, 0.0, 10.000526, 9.999436 
1.1249834e+3, 1.8457416e+2, -1087070.1, -1144566.5, -36753.76, -0.050803028, -0.11460936, -1069156.9, 62004.137, 0.0, 10.000433, 9.999667 
1.1250083e+3, 1.9457333e+2, -975814.3, -1037113.06, -38277.19, -0.047102828, -0.1633039, -957427.7, 75738.51, 0.0, 10.000511, 9.999695 
1.12503335e+3, 2.045727e+2, -893313.2, -972979.94, -29653.535, -0.04712996, -0.18167147, -883487.44, 51683.363, 0.0, 10.000518, 9.99946 
1.12505846e+3, 2.1457228e+2, -805816.56, -879255.25, -28471.217, -0.051325485, -0.167084, -796071.75, 41102.766, 0.0, 10.0004425, 9.999467 
1.1250837e+3, 2.2457159e+2, -724986.1, -813524.56, -14869.645, -0.05486, -0.17128506, -722555.56, 16625.04, 0.0, 10.000427, 9.999252 
1.1251091e+3, 2.3457052e+2, -617994.75, -710164.1, -15237.284, -0.057365116, -0.20055415, -615541.1, 25648.24, 0.0, 10.000485, 9.999261 
1.12513475e+3, 2.4456936e+2, -536628.2, -656267.2, -8976.78, -0.056617074, -0.22159368, -535958.44, 7240.3213, 0.0, 10.000526, 9.998939 
1.1251605e+3, 2.5456816e+2, -435142.03, -555909.44, -10095.54, -0.052148424, -0.23694435, -434303.9, 10904.849, 0.0, 10.000547, 9.998944 
1.1251864e+3, 2.6456672e+2, -376726.84, -532582.06, -2951.48, -0.044513162, -0.24504268, -376670.97, -29448.816, 0.0, 10.000516, 9.998446 
1.1252124e+3, 2.7456513e+2, -291879.63, -440760.28, 3506.7424, -0.033431634, -0.24598785, -291797.06, -42557.996, 0.0, 10.000424, 9.998447 
1.1252382e+3, 2.8456378e+2, -191776.34, -329858.34, 879.30475, -0.03424334, -0.22788095, -191770.75, -40517.77, 0.0, 10.000387, 9.998554 
1.12526365e+3, 2.945627e+2, -87791.82, -225849.06, -1125.2721, -0.04844497, -0.19348013, -87782.65, -34519.24, 0.0, 10.000415, 9.998583 
1.1252892e+3, 3.0456084e+2, -14595.123, -104990.27, -2118.062, -0.062702164, -0.2563941, -14545.521, -14545.521, 0.0, 10.000321, 9.999123 
1.1253147e+3, 3.1456012e+2, -38777.535, -102918.05, -5290.961, -0.07966289, -0.24194497, -38344.016, -38344.016, 0.0, 10.000096, 9.999246 
1.1348346e+3, 1.2455172e+2, -1581934.1, -1708292.1, -27225.49, -0.02910105, -0.14209439, -1576317.6, 143061.78, 0.0010656647, 10.001163, 9.999485 
1.1348598e+3, 1.3455115e+2, -1510688.1, -1615078.5, -14815.734, -0.022592388, -0.1527315, -1508626.1, 112758.35, 0.00053702114, 10.000943, 9.999558 
1.1348845e+3, 1.4455052e+2, -1447308.6, -1564197.6, -24339.053, -0.045789625, -0.15302904, -1442443.3, 80947.71, 0.00016162105, 10.000836, 9.999285 
1.1349094e+3, 1.5455022e+2, -1345208.5, -1462802.6, -30347.549, -0.043289594, -0.10966604, -1337838.6, 87556.75, 0.000014669085, 10.000858, 9.999297 
1.1349342e+3, 1.6454963e+2, -1255671.5, -1360468.3, -37127.58, -0.045358133, -0.09831331, -1243851.1, 83550.93, 0.000000009421829, 10.000764, 9.999372 
1.134959e+3, 1.7454869e+2, -1190342.5, -1275645.5, -38552.26, -0.050678883, -0.13013035, -1175501.1, 53910.082, 0.0, 10.000528, 9.999394 
1.13498375e+3, 1.84548e+2, -1089951.5, -1151047.4, -34765.703, -0.053402428, -0.14606397, -1074219.5, 57197.582, 0.0, 10.000435, 9.999623 
1.1350088e+3, 1.9454764e+2, -978506.9, -1043282.1, -35649.957, -0.05350783, -0.14467397, -962729.44, 70689.055, 0.0, 10.000512, 9.999653 
1.1350338e+3, 2.0454706e+2, -892069.5, -970899.8, -32603.275, -0.04978011, -0.15626197, -880332.7, 55089.926, 0.0, 10.000519, 9.999474 
1.1350589e+3, 2.145462e+2, -804408.94, -876884.06, -31495.447, -0.041377306, -0.18693961, -792634.75, 44795.11, 0.0, 10.000443, 9.999483 
1.13508426e+3, 2.2454545e+2, -726398.1, -816858.75, -13128.99, -0.044046927, -0.19530568, -724531.2, 14905.33, 0.0, 10.000428, 9.999229 
1.1351096e+3, 2.3454481e+2, -619648.75, -713635.7, -12990.996, -0.060597822, -0.1795308, -617886.1, 23555.896, 0.0, 10.000484, 9.999238 
1.1351352e+3, 2.4454378e+2, -538861.8, -660645.56, -7990.7876, -0.06638001, -0.18760338, -538339.75, 5111.0957, 0.0, 10.0005245, 9.998909 
1.135161e+3, 2.5454226e+2, -437480.28, -560379.6, -8933.732, -0.05867569, -0.2279432, -436834.28, 8629.032, 0.0, 10.0005455, 9.998915 
1.1351869e+3, 2.6454073e+2, -365359.88, -508489.66, -5778.0493, -0.04623712, -0.25497076, -365127.0, -17649.666, 0.0, 10.000512, 9.998613 
1.1352128e+3, 2.7453917e+2, -280074.3, -415385.1, 627.5613, -0.02836207, -0.2675534, -280071.4, -30578.656, 0.0, 10.00042, 9.998625 
1.13523856e+3, 2.8453806e+2, -194888.97, -334929.22, 2191.8762, -0.02864628, -0.23668396, -194854.67, -43350.05, 0.0, 10.0003805, 9.998524 
1.13526404e+3, 2.9453734e+2, -91874.18, -232439.78, 608.3206, -0.050286762, -0.1615789, -91871.55, -38359.04, 0.0, 10.000406, 9.998542 
1.13528945e+3, 3.045354e+2, -13292.311, -101073.85, -9274.892, -0.0690754, -0.23253155, -12323.039, -12323.039, 0.0, 10.000315, 9.999154 
1.1353147e+3, 3.1453434e+2, -34358.117, -93790.055, -12650.003, -0.08602451, -0.25659826, -31777.625, -31777.625, 0.0, 10.000095, 9.99931 
1.1448357e+3, 1.24526314e+2, -1589248.6, -1716314.5, -7673.697, -0.024350652, -0.14817786, -1588786.9, 130841.25, 0.0011858052, 10.001133, 9.999444 
1.1448608e+3, 1.3452584e+2, -1499531.3, -1617098.4, -10096.68, -0.014135727, -0.14271589, -1498670.5, 122962.29, 0.00060623867, 10.001053, 9.999492 
1.14488535e+3, 1.4452517e+2, -1437178.3, -1565368.0, -20959.223, -0.05015424, -0.14050984, -1433838.5, 89801.34, 0.00018835878, 10.000933, 9.999229 
1.14491016e+3, 1.5452471e+2, -1365806.1, -1478903.4, -21373.943, -0.043480195, -0.1076124, -1361901.5, 63744.242, 0.000018936791, 10.000745, 9.999241 
1.144935e+3, 1.6452403e+2, -1270976.4, -1371757.9, -24750.633, -0.044269085, -0.102744736, -1265226.1, 62427.19, 0.000000013934886, 10.000676, 9.999335 
1.1449596e+3, 1.7452303e+2, -1158512.0, -1264041.4, -25784.203, -0.05169451, -0.13634975, -1152549.0, 77113.63, 0.0, 10.000764, 9.99936 
1.1449844e+3, 1.8452233e+2, -1051428.0, -1138451.6, -21399.424, -0.05514087, -0.14871123, -1046450.5, 85218.055, 0.0, 10.000726, 9.999569 
1.14500925e+3, 1.9452201e+2, -979436.2, -1049647.5, -23321.523, -0.054393623, -0.13769743, -972395.6, 61274.293, 0.0, 10.000532, 9.9995985 
1.1450342e+3, 2.0452139e+2, -905807.94, -978614.6, -20948.203, -0.04975408, -0.14958577, -900210.9, 35463.57, 0.0, 10.00043, 9.999463 
1.1450593e+3, 2.1452041e+2, -805961.2, -878399.2, -21722.283, -0.04037315, -0.1924882, -799946.6, 37736.06, 0.0, 10.000437, 9.9994755 
1.1450846e+3, 2.2451964e+2, -730049.2, -820219.8, -3163.1382, -0.04411408, -0.2007305, -729938.4, 9751.075, 0.0, 10.000411, 9.999214 
1.14511e+3, 2.3451915e+2, -640776.06, -725573.6, -2613.3767, -0.0642959, -0.16965385, -640695.6, 998.53906, 0.0, 10.000348, 9.999222 
1.14513546e+3, 2.4451815e+2, -568584.94, -675406.0, 4133.2334, -0.07191953, -0.1732194, -568425.25, -24722.406, 0.0, 10.000323, 9.998904 
1.1451614e+3, 2.5451654e+2, -466840.8, -574918.56, 4782.12, -0.0638139, -0.22222309, -466629.63, -20913.451, 0.0, 10.000346, 9.99891 
1.14518724e+3, 2.64515e+2, -388789.03, -507719.13, 1744.1897, -0.051540196, -0.2542869, -388763.44, -41033.47, 0.0, 10.0003, 9.99872 
1.145213e+3, 2.7451357e+2, -308441.66, -416499.03, 3001.808, -0.03446776, -0.26719463, -308358.3, -58614.426, 0.0, 10.000172, 9.998735 
1.14523865e+3, 2.8451252e+2, -235354.63, -346817.97, 8594.68, -0.03228001, -0.23624401, -234695.8, -82941.055, 0.0, 10.000071, 9.99859 
1.1452643e+3, 2.9451185e+2, -145526.02, -250926.75, 14515.217, -0.047739033, -0.16141891, -143563.6, -89801.305, 0.0, 10.000007, 9.998607 
1.14528954e+3, 3.0450997e+2, -61304.84, -116554.78, 5517.9927, -0.06520775, -0.23635781, -60759.13, -60759.13, 0.0, 9.999954, 9.999221 
1.1453147e+3, 3.1450912e+2, -53445.113, -91019.625, 3396.6472, -0.085684486, -0.2432264, -53140.53, -53140.53, 0.0, 9.999915, 9.999414 
1.15483694e+3, 1.2450106e+2, -1604696.9, -1747055.1, -8043.601, -0.013365175, -0.17167838, -1604243.8, 115630.76, 0.0013130474, 10.001126, 9.999237 
1.154862e+3, 1.345008e+2, -1516276.3, -1651776.1, -13223.434, -0.00088050065, -0.120358415, -1514997.9, 106880.72, 0.0006802244, 10.001051, 9.999254 
1.15488626e+3, 1.4450006e+2, -1436342.1, -1563848.6, -28238.127, -0.052088752, -0.114900425, -1430368.3, 93518.63, 0.00021757523, 10.000933, 9.99924 
1.1549109e+3, 1.5449917e+2, -1364568.3, -1476309.9, -29001.111, -0.044333406, -0.12720935, -1357489.8, 68406.53, 0.000023929451, 10.000744, 9.999259 
1.1549356e+3, 1.6449842e+2, -1272991.1, -1376184.1, -22302.145, -0.0453721, -0.12812261, -1268377.4, 59526.594, 0.000000023716384, 10.000677, 9.999306 
1.1549603e+3, 1.744978e+2, -1160232.8, -1268331.6, -22721.736, -0.054595713, -0.119346716, -1155651.0, 74258.586, 0.0, 10.000766, 9.9993305 
1.154985e+3, 1.8449716e+2, -1055739.1, -1148161.0, -28595.06, -0.056275252, -0.12213332, -1047607.4, 84307.695, 0.0, 10.000728, 9.999501 
1.1550098e+3, 1.9449645e+2, -983883.1, -1059590.5, -31026.49, -0.049864233, -0.14197896, -972792.5, 61127.855, 0.0, 10.000535, 9.99953 
1.1550347e+3, 2.0449571e+2, -908120.56, -983999.1, -21352.492, -0.047044892, -0.16153467, -902524.6, 33401.688, 0.0, 10.000432, 9.999426 
1.1550597e+3, 2.144949e+2, -807998.5, -883091.5, -21684.754, -0.04817403, -0.18439548, -802186.4, 35746.457, 0.0, 10.000439, 9.999443 
1.1550848e+3, 2.2449416e+2, -730743.7, -822099.06, -5672.209, -0.054970272, -0.18808171, -730392.8, 9546.546, 0.0, 10.000413, 9.999201 
1.1551102e+3, 2.3449351e+2, -641452.4, -727420.8, -5112.365, -0.06866111, -0.17020905, -641149.44, 796.1826, 0.0, 10.000349, 9.999208 
1.15513586e+3, 2.4449247e+2, -567558.6, -673361.75, 4816.1636, -0.07359379, -0.1774885, -567339.8, -23385.037, 0.0, 10.000323, 9.9989195 
1.1551616e+3, 2.5449094e+2, -466183.56, -572802.8, 5884.9824, -0.06788243, -0.21974246, -465859.72, -19892.219, 0.0, 10.000342, 9.998927 
1.1551874e+3, 2.6448953e+2, -386322.72, -501507.2, -2511.8315, -0.060379647, -0.2438815, -386267.97, -38287.69, 0.0, 10.000296, 9.998766 
1.15521304e+3, 2.7448824e+2, -305740.2, -410140.22, -1484.2039, -0.050955668, -0.24674702, -305719.1, -55726.324, 0.0, 10.000168, 9.998782 
1.1552387e+3, 2.844872e+2, -225000.45, -324500.84, 6475.723, -0.044749126, -0.22696748, -224580.77, -72577.22, 0.0, 10.000067, 9.998746 
1.1552643e+3, 2.9448628e+2, -135394.42, -228286.67, 12666.131, -0.04211268, -0.18944566, -133698.33, -79685.625, 0.0, 9.999999, 9.998766 
1.1552897e+3, 3.0448452e+2, -56270.563, -104328.1, 4260.3203, -0.052810017, -0.26514682, -55895.805, -55895.805, 0.0, 9.999946, 9.99931 
1.1553147e+3, 3.1448448e+2, -45209.195, -72752.24, 1801.8523, -0.079591945, -0.20271397, -45091.82, -45091.82, 0.0, 9.999908, 9.999543 
1.16483815e+3, 1.2447578e+2, -1611661.8, -1753094.8, -21979.791, -0.0061539942, -0.176668, -1608324.6, 111797.87, 0.0014461256, 10.001091, 9.999212 
1.164863e+3, 1.3447559e+2, -1522249.0, -1659951.8, -15708.713, 0.009493751, -0.113314725, -1520479.8, 101646.4, 0.0007584584, 10.001034, 9.999207 
1.1648871e+3, 1.4447483e+2, -1433216.1, -1568403.9, -27687.465, -0.05411591, -0.1035339, -1427765.3, 96369.46, 0.00024917058, 10.000981, 9.999185 
1.16491176e+3, 1.5447383e+2, -1341586.1, -1471583.5, -34881.773, -0.041028157, -0.12226213, -1332817.8, 93327.51, 0.000029664654, 10.00093, 9.999202 
1.1649364e+3, 1.6447303e+2, -1245985.0, -1361734.4, -25675.61, -0.04155644, -0.1261251, -1240545.3, 87608.086, 0.00000004774233, 10.000856, 9.999318 
1.1649611e+3, 1.7447242e+2, -1160719.0, -1266733.4, -22535.863, -0.056158874, -0.11674078, -1156127.4, 74030.84, 0.0, 10.000755, 9.999346 
1.1649856e+3, 1.8447176e+2, -1070970.3, -1163290.6, -31676.78, -0.06011537, -0.11961157, -1061146.6, 71017.24, 0.0, 10.000658, 9.999431 
1.16501026e+3, 1.9447097e+2, -984323.0, -1068073.3, -34944.32, -0.052345015, -0.13979767, -971657.94, 62512.453, 0.0, 10.000568, 9.9994545 
1.1650351e+3, 2.044702e+2, -900858.1, -981892.7, -20819.697, -0.051199637, -0.15841627, -895822.0, 40354.81, 0.0, 10.000488, 9.999413 
1.16505995e+3, 2.1446939e+2, -811264.5, -885636.3, -19356.191, -0.05755232, -0.17951933, -806528.4, 31654.727, 0.0, 10.000421, 9.9994335 
1.16508506e+3, 2.2446863e+2, -740440.44, -830346.25, -4312.655, -0.063821174, -0.18303084, -740234.06, -44.21723, 0.0, 10.000362, 9.999168 
1.1651105e+3, 2.3446794e+2, -649362.75, -734975.6, -5529.3735, -0.06981876, -0.16644676, -649007.1, -6810.429, 0.0, 10.000312, 9.999174 
1.1651361e+3, 2.444669e+2, -579844.2, -673562.8, 4201.278, -0.071710184, -0.1736862, -579656.2, -35450.3, 0.0, 10.000215, 9.998969 
1.1651617e+3, 2.5446546e+2, -502980.66, -584416.5, 7695.9526, -0.06892679, -0.21503945, -502259.75, -56041.824, 0.0, 10.000064, 9.998981 
1.16518736e+3, 2.644641e+2, -429691.22, -513352.13, 1033.4744, -0.06443567, -0.23813626, -429678.47, -81448.516, 0.0, 9.999959, 9.998846 
1.1652129e+3, 2.744629e+2, -337380.88, -416294.03, 4348.853, -0.05805925, -0.23904607, -337141.94, -86900.46, 0.0, 9.999912, 9.998862 
1.16523854e+3, 2.8446195e+2, -254637.05, -328120.1, 10442.885, -0.050509166, -0.21738665, -253181.8, -100930.55, 0.0, 9.999818, 9.99884 
1.165264e+3, 2.944612e+2, -177398.83, -237798.95, 11623.813, -0.041085657, -0.17886284, -175239.1, -120979.66, 0.0, 9.999665, 9.998861 
1.1652894e+3, 3.0445942e+2, -105053.88, -121339.8, 3124.66, -0.04554997, -0.26234114, -104474.95, -104474.95, 0.0, 9.999583, 9.999367 
1.1653145e+3, 3.1445947e+2, -84865.54, -79834.98, -1278.9215, -0.065779686, -0.19354041, -79528.51, -79528.51, 0.0, 9.999586, 9.99965 
1.1748392e+3, 1.2445049e+2, -1600839.1, -1729660.1, -21775.857, -0.0029082634, -0.16185938, -1597257.8, 123113.83, 0.0015842223, 10.001086, 9.999375 
1.1748642e+3, 1.3445023e+2, -1512205.9, -1638579.6, -18527.963, 0.016238116, -0.122415826, -1509545.5, 112829.78, 0.0008407167, 10.001031, 9.999355 
1.1748881e+3, 1.4444953e+2, -1442261.1, -1587091.0, -30042.904, -0.056997463, -0.10769168, -1436276.5, 88106.57, 0.0002831922, 10.00098, 9.999057 
1.17491275e+3, 1.5444873e+2, -1350944.3, -1491569.5, -37262.836, -0.033580415, -0.09206085, -1341680.6, 84711.68, 0.000036181405, 10.000931, 9.9990635 
1.1749373e+3, 1.6444787e+2, -1242178.0, -1354589.6, -29929.227, -0.032648664, -0.09556081, -1234706.0, 93694.65, 0.00000010132158, 10.000859, 9.999367 
1.1749618e+3, 1.7444693e+2, -1156270.5, -1258114.4, -26828.564, -0.056429703, -0.12838824, -1149635.4, 80772.875, 0.0, 10.000757, 9.999405 
1.1749862e+3, 1.8444614e+2, -1076004.9, -1174361.0, -35539.652, -0.066831395, -0.14143752, -1064507.1, 67907.64, 0.0, 10.00066, 9.999354 
1.1750107e+3, 1.9444558e+2, -989698.9, -1079921.9, -38638.656, -0.061958753, -0.13150854, -975413.5, 59006.31, 0.0, 10.00057, 9.9993725 
1.1750354e+3, 2.0444486e+2, -900122.8, -981008.5, -23737.842, -0.062337372, -0.1405103, -893671.0, 42754.934, 0.0, 10.00049, 9.999418 
1.1750603e+3, 2.144439e+2, -810239.94, -884033.94, -22138.568, -0.06863383, -0.17756703, -804107.8, 34325.53, 0.0, 10.0004225, 9.999444 
1.1750853e+3, 2.2444306e+2, -744151.75, -838394.5, -6440.7407, -0.070874, -0.1852594, -743713.56, -3272.979, 0.0, 10.000362, 9.999113 
1.17511086e+3, 2.3444243e+2, -653441.8, -743480.75, -7446.3984, -0.068052694, -0.15870893, -652830.1, -10382.776, 0.0, 10.000311, 9.999117 
1.17513634e+3, 2.4444143e+2, -574434.2, -662257.1, -1334.8368, -0.0666699, -0.16230388, -574413.9, -29957.715, 0.0, 10.000214, 9.999048 
1.1751619e+3, 2.5444004e+2, -496938.47, -571830.0, 2124.5427, -0.0672982, -0.20815551, -496878.22, -50410.684, 0.0, 10.000063, 9.999068 
1.1751874e+3, 2.6443872e+2, -422376.7, -497713.0, -682.95447, -0.064321674, -0.2365902, -422370.5, -73891.49, 0.0, 9.999956, 9.998956 
1.1752128e+3, 2.744376e+2, -330646.75, -400791.38, 2988.9204, -0.05713657, -0.24315487, -330519.63, -80029.58, 0.0, 9.999905, 9.998973 
1.1752383e+3, 2.8443682e+2, -253603.6, -324098.16, 5115.5654, -0.050736416, -0.20793444, -253234.3, -100736.29, 0.0, 9.999809, 9.998873 
1.1752637e+3, 2.9443645e+2, -176326.17, -234300.98, 5931.1543, -0.044556133, -0.13366045, -175725.61, -121222.64, 0.0, 9.999659, 9.998889 
1.1752891e+3, 3.0443457e+2, -103545.31, -117200.67, 3260.1165, -0.04341184, -0.2308136, -102806.914, -102806.914, 0.0, 9.9995775, 9.999398 
1.1753142e+3, 3.144342e+2, -79412.25, -67299.02, -840.9505, -0.0461227, -0.20990738, -67240.914, -67240.914, 0.0, 9.999579, 9.99974 
1.18484035e+3, 1.24425374e+2, -1559605.4, -1707982.5, -6312.4995, -0.0054406794, -0.14950095, -1559337.4, 161281.39, 0.0017273793, 10.001363, 9.999391 
1.1848652e+3, 1.3442506e+2, -1495420.0, -1630857.0, -18648.488, 0.023357043, -0.11328463, -1492899.1, 129723.44, 0.0009271282, 10.001148, 9.9993515 
1.184889e+3, 1.4442436e+2, -1441812.9, -1590439.6, -30467.053, -0.059840057, -0.09896667, -1435809.9, 88820.516, 0.00031980837, 10.000999, 9.999024 
1.1849136e+3, 1.5442348e+2, -1355875.9, -1497574.3, -29944.924, -0.03425419, -0.08824038, -1349807.5, 76832.836, 0.0000435681, 10.000914, 9.99903 
1.1849381e+3, 1.6442256e+2, -1248139.4, -1357441.0, -21620.506, -0.0315578, -0.09489946, -1244018.1, 84630.945, 0.00000019883093, 10.000818, 9.999366 
1.1849624e+3, 1.7442161e+2, -1161630.5, -1260232.6, -22855.969, -0.05402107, -0.12853523, -1156590.1, 74066.234, 0.0, 10.000719, 9.999409 
1.1849868e+3, 1.8442081e+2, -1079932.1, -1180768.8, -31036.943, -0.06782403, -0.14186633, -1071144.9, 61518.22, 0.0, 10.000652, 9.999313 
1.1850113e+3, 1.9442022e+2, -985046.06, -1082307.9, -31405.092, -0.07207309, -0.13214745, -975787.0, 58881.676, 0.0, 10.000623, 9.9993305 
1.1850358e+3, 2.0441946e+2, -895869.4, -983356.56, -18461.012, -0.073676415, -0.13815661, -892133.4, 44541.727, 0.0, 10.000539, 9.999378 
1.1850607e+3, 2.1441855e+2, -817692.6, -891852.44, -20786.865, -0.0714262, -0.16779757, -812263.56, 26418.76, 0.0, 10.00039, 9.999406 
1.1850857e+3, 2.2441772e+2, -761183.6, -848666.0, -5098.5757, -0.07014227, -0.17464422, -760887.44, -20197.69, 0.0, 10.000256, 9.999094 
1.18511096e+3, 2.3441696e+2, -679725.75, -758069.1, -3406.1907, -0.07038865, -0.15581845, -679577.94, -36880.67, 0.0, 10.000139, 9.999099 
1.1851364e+3, 2.4441595e+2, -600438.7, -670750.75, 668.9834, -0.06908942, -0.16224279, -600432.3, -55726.06, 0.0, 10.000018, 9.9990835 
1.18516184e+3, 2.5441462e+2, -519251.3, -578210.94, 334.33115, -0.06565742, -0.20513387, -519249.4, -72532.45, 0.0, 9.999892, 9.999106 
1.1851871e+3, 2.644134e+2, -447856.97, -497929.16, -4336.0986, -0.062518425, -0.23244703, -447484.25, -98756.664, 0.0, 9.99973, 9.999063 
1.1852124e+3, 2.744124e+2, -378137.63, -411152.53, -1040.8662, -0.060155943, -0.23964295, -378104.84, -127367.36, 0.0, 9.999526, 9.9990835 
1.1852378e+3, 2.844117e+2, -312596.44, -348714.6, 2154.726, -0.054764505, -0.20120345, -312468.34, -159723.86, 0.0, 9.999389, 9.998906 
1.1852632e+3, 2.9441145e+2, -221518.31, -252916.39, 3311.7715, -0.04478172, -0.11990615, -221172.8, -166424.0, 0.0, 9.999335, 9.998916 
1.1852884e+3, 3.044095e+2, -138862.02, -127308.45, 4931.887, -0.03988193, -0.22565363, -125489.53, -125489.53, 0.0, 9.999307, 9.999458 
1.1853137e+3, 3.1440914e+2, -111794.28, -68587.305, 2206.5212, -0.037312426, -0.20937519, -68474.914, -68474.914, 0.0, 9.999296, 9.9998665 
1.1948416e+3, 1.2440047e+2, -1569864.6, -1729160.6, -10875.623, -0.015130143, -0.14143169, -1569125.6, 151738.16, 0.0018763061, 10.001362, 9.999246 
1.19486645e+3, 1.3440019e+2, -1507051.5, -1655342.0, -27290.252, 0.030845324, -0.084805906, -1502188.8, 120679.08, 0.0010180003, 10.001149, 9.999184 
1.1948899e+3, 1.4439937e+2, -1437412.6, -1581572.6, -34490.797, -0.062448863, -0.07605948, -1429585.5, 95290.98, 0.00035919753, 10.000999, 9.999086 
1.1949144e+3, 1.543981e+2, -1350818.6, -1487257.5, -33788.21, -0.043537002, -0.11148773, -1342909.6, 83979.52, 0.00005194898, 10.000914, 9.999102 
1.1949389e+3, 1.6439712e+2, -1251531.9, -1364846.1, -25820.475, -0.038861427, -0.12531379, -1245925.6, 82972.445, 0.00000035173326, 10.000819, 9.999315 
1.1949632e+3, 1.7439653e+2, -1165107.4, -1268040.8, -26948.957, -0.049101744, -0.117451146, -1158478.8, 72423.6, 0.0, 10.000721, 9.999354 
1.1949875e+3, 1.843958e+2, -1080356.9, -1182262.4, -32706.023, -0.06314266, -0.12071806, -1070763.3, 62145.316, 0.0, 10.000654, 9.999303 
1.1950117e+3, 1.9439489e+2, -985205.75, -1083276.0, -32910.9, -0.08273655, -0.14132772, -975185.25, 59731.652, 0.0, 10.000625, 9.999324 
1.1950361e+3, 2.0439406e+2, -901517.7, -995717.2, -24160.268, -0.0853827, -0.15112664, -895682.5, 41241.664, 0.0, 10.000541, 9.999293 
1.19506106e+3, 2.1439336e+2, -823578.2, -904775.7, -26593.127, -0.06629495, -0.1506714, -815643.94, 23285.963, 0.0, 10.000392, 9.999316 
1.19508594e+3, 2.2439252e+2, -760135.56, -847119.3, -9751.12, -0.061936624, -0.15164708, -759055.9, -18118.61, 0.0, 10.0002575, 9.999104 
1.195111e+3, 2.3439156e+2, -678470.44, -755692.94, -7863.943, -0.07668494, -0.15737256, -677677.75, -34731.36, 0.0, 10.000139, 9.999115 
1.1951362e+3, 2.4439046e+2, -601145.0, -671997.2, -4073.4963, -0.07877917, -0.17287987, -600911.56, -55955.547, 0.0, 10.000017, 9.999076 
1.1951617e+3, 2.543892e+2, -520354.97, -579772.25, -4172.0835, -0.064373374, -0.20595618, -520063.44, -73097.25, 0.0, 9.999887, 9.999099 
1.1951869e+3, 2.6438808e+2, -441617.0, -484222.63, -11520.48, -0.059528463, -0.22609657, -438701.4, -89725.65, 0.0, 9.999726, 9.999159 
1.1952119e+3, 2.7438724e+2, -371015.72, -396195.3, -8499.295, -0.06706164, -0.22904058, -368415.34, -117431.39, 0.0, 9.999524, 9.999187 
1.19523704e+3, 2.843866e+2, -310149.1, -343477.4, 205.3119, -0.06265268, -0.19669804, -310147.84, -157157.08, 0.0, 9.999387, 9.998943 
1.19526245e+3, 2.9438615e+2, -220107.44, -248985.16, 2009.9735, -0.042875964, -0.13477652, -219968.22, -164971.47, 0.0, 9.9993305, 9.998946 
1.1952877e+3, 3.043842e+2, -134821.16, -117090.11, 5127.4355, -0.035775047, -0.24470352, -115714.14, -115714.14, 0.0, 9.999298, 9.999534 
1.19531296e+3, 3.143843e+2, -102944.76, -47810.406, 2260.4385, -0.038552124, -0.19134463, -47717.887, -47717.887, 0.0, 9.999285, 10.000015 
1.204843e+3, 1.243757e+2, -1561188.0, -1733715.3, -5943.9995, -0.015535869, -0.12592077, -1560983.5, 160123.94, 0.002031728, 10.00146, 9.9991665 
1.20486766e+3, 1.3437527e+2, -1500581.1, -1662762.8, -21397.383, 0.037745874, -0.07496801, -1497805.5, 125307.49, 0.001113559, 10.001239, 9.999088 
1.2048908e+3, 1.4437442e+2, -1421336.8, -1570281.0, -21526.729, -0.0670325, -0.06711923, -1418287.9, 106834.08, 0.0004014388, 10.001095, 9.999117 
1.2049153e+3, 1.5437312e+2, -1328943.4, -1472347.4, -23360.408, -0.048650805, -0.108248636, -1325233.9, 101900.26, 0.000061428385, 10.001045, 9.999141 
1.20493956e+3, 1.643721e+2, -1236692.5, -1366513.3, -19475.617, -0.042295653, -0.12490911, -1233833.8, 95309.53, 0.00000057087306, 10.000959, 9.999236 
1.204964e+3, 1.7437144e+2, -1156215.3, -1273563.4, -23371.873, -0.04773725, -0.11684377, -1151731.6, 79417.055, 0.0, 10.000825, 9.999266 
1.2049881e+3, 1.8437065e+2, -1072826.9, -1177814.9, -28206.943, -0.059243444, -0.119815506, -1065728.5, 67426.79, 0.0, 10.000703, 9.99931 
1.20501235e+3, 1.9436976e+2, -988152.75, -1083140.3, -27028.498, -0.07935646, -0.13973647, -981000.4, 54162.688, 0.0, 10.000598, 9.999337 
1.20503664e+3, 2.0436893e+2, -912828.5, -1010529.3, -19334.041, -0.0850025, -0.14800029, -909141.6, 28028.88, 0.0, 10.0005045, 9.999208 
1.2050614e+3, 2.1436815e+2, -825621.9, -915944.7, -22255.32, -0.07203986, -0.1453332, -820435.94, 18741.28, 0.0, 10.0004225, 9.999225 
1.2050862e+3, 2.2436725e+2, -761876.1, -851682.1, -9908.709, -0.0689448, -0.14710751, -760795.9, -19610.443, 0.0, 10.000262, 9.99907 
1.2051111e+3, 2.3436621e+2, -700851.25, -769717.5, -11878.1, -0.078509636, -0.15690596, -698860.1, -55665.004, 0.0, 10.000001, 9.999085 
1.2051361e+3, 2.443651e+2, -635410.5, -684559.2, -7811.3975, -0.077923186, -0.17396046, -634198.9, -88994.12, 0.0, 9.999765, 9.99911 
1.2051614e+3, 2.543639e+2, -564444.1, -596308.9, -4649.119, -0.06428001, -0.20603365, -563779.7, -116565.34, 0.0, 9.999566, 9.99914 
1.2051864e+3, 2.6436278e+2, -481699.38, -496695.88, -10451.574, -0.0598529, -0.22868478, -476334.53, -127111.016, 0.0, 9.999423, 9.999219 
1.2052113e+3, 2.7436194e+2, -391582.06, -398930.38, -10372.487, -0.06721319, -0.23812135, -384252.22, -133020.63, 0.0, 9.999352, 9.999251 
1.2052363e+3, 2.8436136e+2, -325136.66, -340831.9, -921.9439, -0.06396512, -0.20589802, -325082.7, -171845.14, 0.0, 9.999243, 9.99903 
1.2052616e+3, 2.9436108e+2, -250905.19, -253701.69, 4508.242, -0.047335915, -0.13680756, -247583.34, -192341.42, 0.0, 9.999077, 9.999035 
1.2052868e+3, 3.0435917e+2, -179272.34, -132826.1, 11867.329, -0.038339384, -0.25435653, -129969.586, -129969.586, 0.0, 9.998969, 9.999583 
1.20531216e+3, 3.1435922e+2, -146617.33, -54440.89, 6907.554, -0.030369306, -0.20684345, -53926.125, -53926.125, 0.0, 9.998924, 10.000142 
1.2148445e+3, 1.2435115e+2, -1562224.6, -1736013.9, -10611.524, -0.006193741, -0.10222421, -1561579.1, 159770.05, 0.0021936102, 10.00146, 9.999151 
1.214869e+3, 1.3435036e+2, -1502288.6, -1666516.5, -30542.271, 0.0436998, -0.08488876, -1496792.5, 126565.49, 0.0012136708, 10.001239, 9.9990635 
1.2148918e+3, 1.4434953e+2, -1421203.8, -1570141.8, -24259.928, -0.074119106, -0.07346451, -1417351.8, 108014.734, 0.00044641417, 10.001095, 9.999119 
1.21491626e+3, 1.543486e+2, -1328346.3, -1471695.1, -25603.27, -0.049579035, -0.07792751, -1323910.5, 103464.38, 0.00007201624, 10.001047, 9.999145 
1.21494055e+3, 1.6434756e+2, -1244355.0, -1383194.6, -24861.564, -0.041778773, -0.09256689, -1240037.4, 89346.836, 0.0000008702971, 10.000962, 9.999121 
1.2149647e+3, 1.7434634e+2, -1164538.4, -1291618.9, -28907.334, -0.050091155, -0.12644863, -1158271.8, 73123.33, 0.0, 10.000827, 9.999142 
1.2149889e+3, 1.843454e+2, -1071018.4, -1174827.6, -32692.22, -0.05645065, -0.13935994, -1061580.8, 71822.34, 0.0, 10.000706, 9.99933 
1.21501304e+3, 1.9434486e+2, -985477.5, -1078335.0, -31293.117, -0.062248755, -0.12782809, -975916.2, 59490.938, 0.0, 10.000601, 9.99937 
1.21503726e+3, 2.0434406e+2, -918785.8, -1023524.56, -22829.1, -0.07269112, -0.12901542, -914026.2, 23387.736, 0.0, 10.000506, 9.999119 
1.21506155e+3, 2.1434294e+2, -832196.94, -929981.5, -25558.78, -0.088430956, -0.15118815, -825919.44, 13504.719, 0.0, 10.000423, 9.999128 
1.2150862e+3, 2.2434187e+2, -767404.9, -863453.2, -19488.15, -0.09098051, -0.1604313, -763601.4, -22167.283, 0.0, 10.000262, 9.998989 
1.2151111e+3, 2.343409e+2, -706317.3, -781404.75, -21686.0, -0.076316796, -0.1547392, -700504.2, -57060.906, 0.0, 10.000001, 9.999005 
1.215136e+3, 2.4433985e+2, -630218.5, -674191.8, -15419.551, -0.06718909, -0.1660035, -625350.44, -79898.03, 0.0, 9.999766, 9.999182 
1.21516086e+3, 2.5433865e+2, -558432.25, -584225.0, -11894.991, -0.06549449, -0.20529287, -553784.2, -106322.75, 0.0, 9.999566, 9.999223 
1.2151858e+3, 2.643375e+2, -479926.03, -493041.47, -12861.542, -0.06358992, -0.2395306, -472046.88, -122575.945, 0.0, 9.999422, 9.999246 
1.2152107e+3, 2.743365e+2, -390640.88, -396118.16, -12391.253, -0.061659247, -0.26563415, -380689.22, -129208.875, 0.0, 9.999348, 9.999273 
1.2152356e+3, 2.8433606e+2, -317197.75, -322934.4, -6474.8657, -0.059822127, -0.22817545, -312984.34, -159499.38, 0.0, 9.999235, 9.999157 
1.2152605e+3, 2.943362e+2, -242346.66, -234819.64, -1491.3573, -0.057947565, -0.12743697, -234534.92, -179050.22, 0.0, 9.999071, 9.999167 
1.21528566e+3, 3.0433428e+2, -178251.84, -129351.44, 10418.744, -0.0474081, -0.25528204, -127224.16, -127224.16, 0.0, 9.998962, 9.999611 
1.21531114e+3, 3.1433395e+2, -140810.7, -39803.613, 5840.104, -0.014843751, -0.25058904, -39467.066, -39467.066, 0.0, 9.998912, 10.00025 
1.22484595e+3, 1.2432661e+2, -1551712.1, -1730297.5, -7794.064, -0.0070816413, -0.08141449, -1551372.5, 170218.42, 0.0023606704, 10.001532, 9.999155 
1.2248702e+3, 1.3432562e+2, -1480576.5, -1655860.5, -30927.166, 0.04465083, -0.08270793, -1475279.8, 148321.6, 0.0013175874, 10.001389, 9.999064 
1.22489296e+3, 1.4432478e+2, -1401334.9, -1560540.1, -21229.37, -0.08147655, -0.07189884, -1398552.6, 127056.89, 0.0004937232, 10.001232, 9.999118 
1.2249173e+3, 1.5432394e+2, -1328293.8, -1471853.1, -23327.559, -0.04501531, -0.069205046, -1324598.3, 103018.625, 0.000083587045, 10.001049, 9.999143 
1.2249415e+3, 1.6432287e+2, -1253238.4, -1395713.8, -20248.182, -0.03425896, -0.08268062, -1250416.6, 79209.82, 0.0000012652538, 10.000937, 9.999046 
1.2249656e+3, 1.743215e+2, -1156248.5, -1296205.3, -20801.914, -0.05113424, -0.122749016, -1153222.1, 78416.7, 0.0, 10.000921, 9.999064 
1.2249896e+3, 1.8432046e+2, -1055655.0, -1175415.9, -27985.525, -0.059068054, -0.13896267, -1049438.1, 84209.805, 0.0, 10.000846, 9.999257 
1.22501366e+3, 1.9431986e+2, -977587.06, -1082492.3, -34689.69, -0.057479545, -0.12706348, -967153.6, 68498.836, 0.0, 10.0006895, 9.999297 
1.2250379e+3, 2.0431902e+2, -920989.94, -1027520.3, -29211.2, -0.06605279, -0.12741631, -913505.9, 24153.709, 0.0, 10.0005045, 9.999092 
1.2250619e+3, 2.1431789e+2, -854369.06, -943079.94, -26756.191, -0.08683308, -0.14803414, -846923.94, -7254.2046, 0.0, 10.000282, 9.999105 
1.2250863e+3, 2.2431676e+2, -798807.1, -884853.0, -19824.496, -0.091461234, -0.15894507, -794459.4, -52779.12, 0.0, 10.000075, 9.998933 
1.225111e+3, 2.343157e+2, -727425.94, -798039.25, -20999.934, -0.07531377, -0.15912215, -721652.7, -77961.99, 0.0, 9.999886, 9.998947 
1.2251356e+3, 2.4431463e+2, -637172.56, -670948.3, -13648.207, -0.06540084, -0.169846, -632347.0, -86647.15, 0.0, 9.999691, 9.99924 
1.2251604e+3, 2.543136e+2, -564061.6, -579144.5, -11354.98, -0.063681036, -0.20047502, -557971.9, -110264.66, 0.0, 9.9994955, 9.999291 
1.2251852e+3, 2.643125e+2, -499579.63, -501573.2, -12220.09, -0.059796344, -0.23305026, -488315.72, -138599.66, 0.0, 9.999284, 9.999252 
1.22521e+3, 2.743114e+2, -433774.25, -416444.78, -13446.295, -0.053526025, -0.2661838, -409113.25, -157387.06, 0.0, 9.999051, 9.999276 
1.22523464e+3, 2.8431094e+2, -363821.84, -338116.16, -9262.316, -0.052712616, -0.2331539, -335126.47, -181395.67, 0.0, 9.998885, 9.999221 
1.2252594e+3, 2.9431117e+2, -276993.2, -243981.81, -8779.387, -0.058639478, -0.13439429, -241792.17, -186062.36, 0.0, 9.998801, 9.999234 
1.2252844e+3, 3.0430928e+2, -212715.14, -135243.22, 3059.606, -0.05310952, -0.26531962, -135122.56, -135122.56, 0.0, 9.99868, 9.999705 
1.2253098e+3, 3.1430918e+2, -188166.56, -41639.883, 3099.638, -0.019050451, -0.2486719, -41574.344, -41574.344, 0.0, 9.998498, 10.000436 
1.2348473e+3, 1.2430209e+2, -1550530.5, -1727303.5, -8752.488, -0.01894886, -0.064825326, -1550098.1, 171734.42, 0.0025307094, 10.001529, 9.999177 
1.2348716e+3, 1.3430111e+2, -1478375.1, -1652013.0, -37059.656, 0.040193874, -0.06783622, -1470796.3, 153046.11, 0.0014240493, 10.00139, 9.99909 
1.234894e+3, 1.4430025e+2, -1401630.3, -1561848.8, -28700.287, -0.08924798, -0.061655406, -1396644.3, 129206.21, 0.00054276333, 10.001234, 9.999108 
1.23491846e+3, 1.5429914e+2, -1329180.8, -1474068.1, -30904.11, -0.0350362, -0.08251454, -1322864.4, 104995.52, 0.00009593835, 10.001049, 9.999127 
1.2349426e+3, 1.6429804e+2, -1255349.1, -1400549.8, -21779.527, -0.019775901, -0.096049964, -1252152.6, 77716.92, 0.0000017602412, 10.000938, 9.999013 
1.23496644e+3, 1.7429695e+2, -1158140.4, -1300827.4, -21739.002, -0.05092335, -0.10598334, -1154901.8, 76977.83, 0.0, 10.000924, 9.999032 
1.23499036e+3, 1.8429585e+2, -1067059.5, -1199836.0, -33958.3, -0.067172304, -0.11846113, -1058878.5, 75010.984, 0.0, 10.000849, 9.999089 
1.2350143e+3, 1.9429475e+2, -989621.56, -1108228.8, -40909.77, -0.06512608, -0.13701315, -976879.9, 59019.0, 0.0, 10.000692, 9.999121 
1.23503834e+3, 2.0429377e+2, -918547.4, -1023245.44, -37702.65, -0.065369494, -0.14296912, -906383.5, 31523.68, 0.0, 10.000507, 9.99912 
1.2350624e+3, 2.1429297e+2, -850831.8, -936470.5, -35311.84, -0.0679389, -0.1364345, -838149.6, 1764.3475, 0.0, 10.000285, 9.99915 
1.23508655e+3, 2.242919e+2, -801094.3, -890228.7, -27223.912, -0.07106361, -0.1431276, -793437.2, -51513.39, 0.0, 10.000077, 9.998895 
1.2351108e+3, 2.3429051e+2, -730316.56, -804503.9, -28138.857, -0.07549133, -0.16953045, -720851.3, -76913.95, 0.0, 9.9998865, 9.998902 
1.2351353e+3, 2.442894e+2, -633887.4, -664494.7, -20906.123, -0.072367534, -0.18495134, -623282.2, -77335.125, 0.0, 9.999692, 9.999284 
1.2351599e+3, 2.5428864e+2, -560495.06, -571831.8, -18420.184, -0.059301943, -0.19212814, -546890.8, -98939.07, 0.0, 9.999495, 9.999342 
1.2351846e+3, 2.642877e+2, -500650.34, -503837.28, -20411.389, -0.04927857, -0.21066234, -481770.34, -131811.17, 0.0, 9.999283, 9.999238 
1.23520896e+3, 2.7428663e+2, -434823.22, -419165.44, -21625.38, -0.043298777, -0.2418933, -403995.44, -152026.05, 0.0, 9.999052, 9.999257 
1.2352336e+3, 2.8428605e+2, -363578.1, -337584.6, -12148.369, -0.043257207, -0.2221595, -332790.94, -178815.63, 0.0, 9.998884, 9.999225 
1.2352583e+3, 2.9428592e+2, -277941.34, -243960.25, -11105.62, -0.050919246, -0.1565099, -240652.69, -184675.5, 0.0, 9.998792, 9.999239 
1.2352831e+3, 3.0428416e+2, -204443.13, -115171.76, -2733.843, -0.056264803, -0.28443, -115088.12, -115088.12, 0.0, 9.998667, 9.99985 
1.2353081e+3, 3.1428483e+2, -171966.25, -6150.813, -3266.2869, -0.041339245, -0.20484093, -6086.4976, -6086.4976, 0.0, 9.998488, 10.000685 
1.24484874e+3, 1.24277666e+2, -1554380.4, -1734375.4, 3513.7437, -0.019931152, -0.050406948, -1554311.8, 167760.88, 0.002701762, 10.001527, 9.999129 
1.244873e+3, 1.3427654e+2, -1477422.5, -1656155.8, -35615.703, 0.046667404, -0.0647794, -1470586.9, 153497.05, 0.0015319061, 10.001418, 9.999048 
1.2448952e+3, 1.4427565e+2, -1387116.0, -1549624.3, -29131.393, -0.0905727, -0.060370766, -1382051.6, 144040.34, 0.00059303787, 10.001312, 9.999154 
1.2449195e+3, 1.5427452e+2, -1302707.5, -1455037.4, -26541.889, -0.033049773, -0.08787042, -1298215.4, 129885.66, 0.00010892868, 10.001205, 9.999182 
1.2449436e+3, 1.6427344e+2, -1239478.5, -1401036.4, -13774.4, -0.016064512, -0.10057931, -1238312.5, 91798.04, 0.0000023447426, 10.001083, 9.9989395 
1.2449674e+3, 1.7427237e+2, -1161677.9, -1311812.4, -17532.654, -0.04715045, -0.099820904, -1159657.5, 72463.12, 0.0, 10.00094, 9.998948 
1.2449912e+3, 1.8427122e+2, -1080409.8, -1217271.8, -31778.826, -0.06376099, -0.10888273, -1073390.9, 60740.54, 0.0, 10.000805, 9.99899 
1.24501504e+3, 1.9426996e+2, -998920.44, -1123694.4, -33436.355, -0.06286273, -0.13341305, -990525.2, 45617.22, 0.0, 10.000677, 9.999022 
1.2450388e+3, 2.0426887e+2, -922263.1, -1030314.8, -32901.266, -0.061616573, -0.14225973, -913033.25, 25118.451, 0.0, 10.000505, 9.999072 
1.2450627e+3, 2.1426803e+2, -855129.9, -943318.8, -37589.45, -0.05935545, -0.13447192, -841282.25, -1123.6924, 0.0, 10.0002775, 9.999106 
1.24508664e+3, 2.2426693e+2, -804679.75, -891822.8, -31211.094, -0.061842088, -0.14218119, -794654.5, -52485.97, 0.0, 10.000052, 9.998896 
1.2451107e+3, 2.342655e+2, -737392.1, -807214.7, -28827.26, -0.070912726, -0.17277078, -727028.56, -82846.26, 0.0, 9.999836, 9.998908 
1.2451349e+3, 2.4426441e+2, -645641.9, -669355.94, -21792.385, -0.06976025, -0.18792889, -632689.7, -86497.67, 0.0, 9.999608, 9.99929 
1.2451594e+3, 2.5426373e+2, -578563.9, -579577.9, -22877.252, -0.055251423, -0.18907388, -556188.0, -107991.71, 0.0, 9.999368, 9.99935 
1.2451837e+3, 2.6426286e+2, -518387.25, -513127.16, -25527.316, -0.04732182, -0.20164232, -490094.75, -139891.45, 0.0, 9.999166, 9.99923 
1.245208e+3, 2.742618e+2, -441023.06, -422930.56, -26042.229, -0.047978416, -0.22666878, -404408.13, -152195.03, 0.0, 9.999014, 9.999249 
1.24523245e+3, 2.842612e+2, -377503.22, -338127.6, -16499.541, -0.047153447, -0.21215518, -332127.97, -177908.84, 0.0, 9.998762, 9.999279 
1.2452568e+3, 2.9426092e+2, -334833.1, -264766.72, -12423.02, -0.04448286, -0.1670877, -262629.28, -206407.42, 0.0, 9.998374, 9.999297 
1.2452815e+3, 3.0425915e+2, -276429.63, -148868.78, -496.6512, -0.053156458, -0.29716712, -148866.84, -148866.84, 0.0, 9.998169, 9.999858 
1.2453063e+3, 3.1426015e+2, -207295.42, -11365.919, -10840.5625, -0.05612358, -0.18682356, -10767.948, -10767.948, 0.0, 9.998196, 10.00079 
1.2548505e+3, 1.24253385e+2, -1563722.6, -1753753.5, 3711.329, -0.009602541, -0.038591065, -1563650.1, 158660.39, 0.002872962, 10.001526, 9.998997 
1.2548746e+3, 1.3425192e+2, -1485953.1, -1674127.1, -40662.098, 0.06445326, -0.07412452, -1477542.5, 146783.11, 0.001640651, 10.001418, 9.998925 
1.2548967e+3, 1.4425102e+2, -1379814.8, -1534714.1, -33833.746, -0.08532456, -0.06863579, -1372747.1, 153586.52, 0.0006444068, 10.001312, 9.999257 
1.2549208e+3, 1.5425013e+2, -1293727.9, -1437106.5, -31087.17, -0.039341833, -0.08527771, -1287277.8, 141062.27, 0.00012257921, 10.001207, 9.999305 
1.2549447e+3, 1.6424908e+2, -1247360.0, -1418160.9, -19663.783, -0.023550982, -0.096028514, -1245125.4, 85223.65, 0.0000030126384, 10.001085, 9.998821 
1.2549683e+3, 1.7424779e+2, -1170988.8, -1331901.5, -23367.955, -0.04007057, -0.104154535, -1167664.0, 64697.727, 0.0, 10.000942, 9.99881 
1.254992e+3, 1.8424657e+2, -1082499.6, -1222416.8, -37015.65, -0.04903156, -0.11031141, -1073310.5, 61062.71, 0.0, 10.000808, 9.998954 
1.2550157e+3, 1.9424547e+2, -1000309.25, -1127334.8, -38578.746, -0.050833836, -0.11665688, -989510.56, 46872.355, 0.0, 10.000679, 9.998996 
1.2550393e+3, 2.0424432e+2, -930722.6, -1048688.1, -41479.547, -0.054838445, -0.12550572, -917597.7, 20795.33, 0.0, 10.000508, 9.998945 
1.2550628e+3, 2.142431e+2, -863990.6, -962798.94, -46273.258, -0.06096939, -0.1416195, -845704.44, -5301.071, 0.0, 10.000281, 9.998971 
1.2550867e+3, 2.2424187e+2, -801695.94, -886825.56, -39443.773, -0.06377268, -0.15563682, -786229.94, -43815.617, 0.0, 10.000057, 9.998928 
1.2551107e+3, 2.3424067e+2, -733584.75, -800114.0, -36876.82, -0.061985746, -0.1694118, -717186.1, -72760.39, 0.0, 9.999838, 9.998956 
1.2551346e+3, 2.4423963e+2, -647747.94, -674192.5, -30571.666, -0.058149103, -0.17942558, -627661.75, -81226.875, 0.0, 9.999609, 9.999257 
1.2551586e+3, 2.542388e+2, -580974.44, -585103.8, -31500.145, -0.051671322, -0.19085377, -551471.4, -103030.5, 0.0, 9.999369, 9.999311 
1.2551829e+3, 2.6423788e+2, -518596.44, -513790.72, -30822.021, -0.053476013, -0.20508902, -485278.03, -134829.53, 0.0, 9.999166, 9.999227 
1.2552068e+3, 2.7423698e+2, -441659.25, -423415.03, -31006.443, -0.066622764, -0.22010742, -400216.66, -147759.28, 0.0, 9.999009, 9.9992485 
1.2552309e+3, 2.842364e+2, -371671.8, -325072.66, -29800.98, -0.06370048, -0.20344235, -310544.1, -156081.61, 0.0, 9.998757, 9.999372 
1.2552552e+3, 2.9423615e+2, -327537.22, -250316.56, -26465.459, -0.03948819, -0.16725275, -242116.88, -185652.56, 0.0, 9.998376, 9.999395 
1.2552796e+3, 3.042343e+2, -284190.06, -165448.5, 36.83461, -0.044677485, -0.3038083, -165448.48, -165448.48, 0.0, 9.99817, 9.999744 
1.2553044e+3, 3.142352e+2, -210433.19, -15563.087, -8804.372, -0.06515644, -0.19018944, -15166.108, -15166.108, 0.0, 9.998184, 10.000767 
1.264852e+3, 1.242291e+2, -1536368.1, -1742442.5, 14928.333, -0.013563659, -0.04188104, -1535292.3, 187256.14, 0.0030443578, 10.001723, 9.99898 
1.2648761e+3, 1.342276e+2, -1485800.6, -1674024.1, -26077.814, 0.07801801, -0.08123418, -1482254.4, 142309.47, 0.0017503432, 10.001419, 9.998925 
1.2648979e+3, 1.4422676e+2, -1393578.1, -1545163.9, -13814.713, -0.07598029, -0.06852831, -1392329.4, 134242.14, 0.00069703115, 10.001235, 9.999222 
1.264922e+3, 1.5422587e+2, -1293478.8, -1441266.0, -22982.426, -0.035877988, -0.08048193, -1289987.3, 138590.86, 0.00013704965, 10.001228, 9.999266 
1.2649457e+3, 1.6422479e+2, -1234168.1, -1410402.6, -16834.865, -0.020587904, -0.09159849, -1232574.4, 98012.836, 0.0000037895563, 10.001171, 9.998833 
1.2649694e+3, 1.7422345e+2, -1156127.8, -1322933.5, -9392.273, -0.029591382, -0.10698393, -1155600.6, 76999.24, 0.0, 10.001039, 9.998824 
1.2649931e+3, 1.8422215e+2, -1078700.6, -1235040.4, -20320.322, -0.036733728, -0.114697434, -1076102.6, 58509.363, 0.0, 10.000897, 9.998823 
1.2650165e+3, 1.9422099e+2, -1000941.1, -1143632.4, -30942.28, -0.044750206, -0.11476738, -994520.25, 42102.832, 0.0, 10.000745, 9.998852 
1.2650399e+3, 2.0421976e+2, -917174.94, -1046473.8, -36497.12, -0.054018456, -0.12111326, -907584.3, 31049.873, 0.0, 10.000621, 9.998905 
1.2650633e+3, 2.142185e+2, -829643.44, -949627.56, -34017.305, -0.06382348, -0.13979104, -820670.1, 19974.754, 0.0, 10.000532, 9.9989395 
1.2650868e+3, 2.2421722e+2, -767039.4, -871937.6, -30684.559, -0.06545716, -0.15575089, -758722.94, -16066.834, 0.0, 10.000303, 9.998911 
1.2651105e+3, 2.3421599e+2, -728043.5, -799114.9, -33456.047, -0.056133408, -0.17082001, -714772.5, -70104.84, 0.0, 9.999885, 9.9989395 
1.2651342e+3, 2.4421495e+2, -657994.75, -682033.9, -26473.068, -0.0520724, -0.17856985, -640940.4, -94263.58, 0.0, 9.999553, 9.99923 
1.265158e+3, 2.5421417e+2, -586925.5, -590795.4, -26617.479, -0.055211633, -0.18285516, -562172.7, -113489.95, 0.0, 9.999341, 9.999286 
1.2651819e+3, 2.6421323e+2, -534430.7, -525219.8, -27595.451, -0.059121083, -0.19759344, -501848.13, -151157.28, 0.0, 9.999074, 9.999191 
1.2652057e+3, 2.7421215e+2, -484613.94, -447835.03, -30665.979, -0.064137444, -0.22323084, -430467.34, -177766.33, 0.0, 9.998732, 9.999214 
1.2652296e+3, 2.8421158e+2, -409629.16, -340580.8, -32954.14, -0.05881174, -0.20860283, -327377.7, -172671.48, 0.0, 9.998486, 9.999396 
1.2652537e+3, 2.9421142e+2, -327345.16, -246910.75, -34620.13, -0.040280588, -0.16312276, -234062.17, -177355.58, 0.0, 9.9983635, 9.999425 
1.2652777e+3, 3.0420956e+2, -290876.88, -173840.38, -6096.2163, -0.04745398, -0.29965574, -173523.69, -173523.69, 0.0, 9.998147, 9.999697 
1.2653023e+3, 3.1421033e+2, -262856.47, -34436.125, -9444.301, -0.060811687, -0.19684806, -34046.305, -34046.305, 0.0, 9.997798, 10.000822 
1.2748535e+3, 1.24204844e+2, -1528905.0, -1727238.0, 8600.781, -0.0327024, -0.061637778, -1528532.8, 194253.11, 0.003216271, 10.001724, 9.9990835 
1.2748776e+3, 1.3420361e+2, -1476630.1, -1655453.1, -38414.043, 0.086977966, -0.08630008, -1468727.4, 156070.88, 0.0018611854, 10.00142, 9.999053 
1.2748992e+3, 1.442029e+2, -1406377.0, -1571902.3, -15674.538, -0.062524736, -0.05979924, -1404905.9, 121899.26, 0.0007511169, 10.001235, 9.999039 
1.2749234e+3, 1.5420178e+2, -1308120.6, -1472078.6, -23688.205, -0.02260504, -0.07330385, -1304766.8, 124048.13, 0.0001525157, 10.001229, 9.999054 
1.2749471e+3, 1.6420062e+2, -1224146.1, -1390235.5, -21966.434, -0.0071507827, -0.08723209, -1221290.0, 109534.81, 0.000004722807, 10.001173, 9.998971 
1.2749706e+3, 1.7419939e+2, -1143970.5, -1298482.4, -14805.49, -0.0157242, -0.10834847, -1142564.5, 90270.41, 0.0, 10.00104, 9.998991 
1.274994e+3, 1.8419802e+2, -1094374.6, -1268345.9, -26409.266, -0.026935104, -0.122022204, -1090454.0, 44393.4, 0.0, 10.0009, 9.998594 
1.2750173e+3, 1.9419654e+2, -1018955.0, -1181870.4, -36913.22, -0.044740863, -0.12749633, -1010981.5, 25881.23, 0.0, 10.000748, 9.998588 
1.2750404e+3, 2.0419523e+2, -914082.9, -1040845.9, -40181.87, -0.059329543, -0.12897372, -902419.06, 36455.984, 0.0, 10.000624, 9.998943 
1.2750638e+3, 2.1419421e+2, -824811.06, -939984.6, -37476.355, -0.06804854, -0.12945054, -813690.4, 27192.715, 0.0, 10.000533, 9.999006 
1.275087e+3, 2.2419296e+2, -771649.7, -881912.2, -45588.48, -0.06699565, -0.1429488, -755242.4, -12348.518, 0.0, 10.000304, 9.998842 
1.2751104e+3, 2.3419146e+2, -732964.2, -810425.25, -49138.24, -0.053376563, -0.17660807, -709127.8, -64219.78, 0.0, 9.999888, 9.998861 
1.2751338e+3, 2.4419037e+2, -659080.7, -685619.9, -34793.83, -0.05141427, -0.18503644, -635112.0, -88194.05, 0.0, 9.9995575, 9.999204 
1.2751572e+3, 2.541898e+2, -587954.94, -593459.56, -34184.438, -0.06557438, -0.16592978, -556412.2, -107490.11, 0.0, 9.999342, 9.999268 
1.2751807e+3, 2.6418883e+2, -539063.75, -535127.4, -39611.234, -0.06458533, -0.17989059, -497435.47, -146504.86, 0.0, 9.999074, 9.999124 
1.2752046e+3, 2.741874e+2, -488979.25, -457921.47, -42779.457, -0.04245717, -0.23504566, -427939.6, -174995.45, 0.0, 9.998734, 9.999145 
1.2752283e+3, 2.8418666e+2, -412004.72, -346350.84, -37232.133, -0.03431082, -0.22647583, -329540.72, -174590.22, 0.0, 9.998488, 9.999355 
1.2752518e+3, 2.9418677e+2, -330430.22, -252822.47, -38203.766, -0.046445474, -0.15557706, -237172.08, -180223.11, 0.0, 9.998361, 9.999387 
1.2752758e+3, 3.0418497e+2, -290729.22, -172994.94, -17518.355, -0.060903113, -0.2859258, -170443.58, -170443.58, 0.0, 9.998144, 9.999705 
1.2753002e+3, 3.1418553e+2, -253749.39, -16694.037, -21025.6, -0.045349766, -0.2046628, -14843.617, -14843.617, 0.0, 9.997802, 10.000943 
1.2848552e+3, 1.24180995e+2, -1539685.0, -1738088.9, 27796.16, -0.027707137, -0.06548854, -1535864.4, 187154.89, 0.0033890037, 10.001677, 9.999031 
1.2848791e+3, 1.3417973e+2, -1465405.5, -1652915.5, -37382.297, 0.093525596, -0.089677036, -1458227.6, 166804.39, 0.0019731622, 10.001511, 9.999026 
1.2849006e+3, 1.4417905e+2, -1386901.5, -1570812.1, -9806.331, -0.06219414, -0.055554286, -1386380.1, 140658.64, 0.0008066489, 10.001406, 9.998963 
1.2849247e+3, 1.5417787e+2, -1291143.5, -1472794.4, -7438.953, -0.013733521, -0.06763092, -1290839.4, 138210.22, 0.00016903538, 10.001386, 9.998973 
1.2849484e+3, 1.6417664e+2, -1208216.8, -1385450.6, -11292.852, 0.0030691957, -0.08338342, -1207500.1, 123560.11, 0.00000585612, 10.001296, 9.998943 
1.2849717e+3, 1.7417532e+2, -1134893.8, -1296536.0, -19111.227, -0.01393622, -0.11034706, -1132664.9, 100405.8, 0.0, 10.001115, 9.998968 
1.284995e+3, 1.8417388e+2, -1088045.4, -1273150.1, -31860.537, -0.029193562, -0.12601228, -1082715.0, 52368.734, 0.0, 10.000978, 9.998523 
1.2850179e+3, 1.9417237e+2, -1002483.4, -1182218.3, -28587.223, -0.044915844, -0.12805043, -998046.06, 39053.676, 0.0, 10.000897, 9.998512 
1.2850411e+3, 2.0417103e+2, -904754.1, -1040049.75, -30554.959, -0.056988515, -0.12590156, -898173.75, 40938.832, 0.0, 10.000705, 9.998909 
1.2850642e+3, 2.1417002e+2, -852912.4, -956629.3, -35396.645, -0.06262668, -0.12303256, -841983.7, -863.0136, 0.0, 10.000355, 9.998978 
1.2850873e+3, 2.2416878e+2, -798807.25, -893588.3, -45938.58, -0.063695714, -0.13570954, -780196.2, -37064.68, 0.0, 10.000113, 9.998855 
1.2851103e+3, 2.3416726e+2, -712652.0, -798840.1, -43051.016, -0.05952409, -0.17182043, -694832.3, -49686.85, 0.0, 10.00002, 9.998877 
1.2851334e+3, 2.4416614e+2, -635653.44, -687563.1, -31264.988, -0.057905145, -0.17841291, -620973.9, -73818.07, 0.0, 9.999776, 9.999085 
1.2851566e+3, 2.5416553e+2, -600358.6, -613941.8, -39192.008, -0.059729364, -0.15135686, -567374.06, -118212.77, 0.0, 9.99932, 9.999137 
1.28518e+3, 2.641645e+2, -552556.7, -539339.44, -43919.742, -0.054816995, -0.16159037, -501533.9, -150363.55, 0.0, 9.998972, 9.999144 
1.2852034e+3, 2.7416313e+2, -481166.03, -450259.28, -39702.703, -0.040425565, -0.21888922, -423108.53, -169925.27, 0.0, 9.998772, 9.999179 
1.2852268e+3, 2.8416234e+2, -406628.63, -344952.06, -27454.865, -0.034274787, -0.21485046, -334501.5, -179311.83, 0.0, 9.99853, 9.999345 
1.2852502e+3, 2.9416236e+2, -350866.22, -264560.28, -27026.654, -0.040426042, -0.15168715, -256795.48, -199606.42, 0.0, 9.998229, 9.999369 
1.2852737e+3, 3.0416057e+2, -313419.16, -183756.83, -7026.122, -0.058132906, -0.2807157, -183377.2, -183377.2, 0.0, 9.997989, 9.999705 
1.285298e+3, 3.1416118e+2, -241901.89, 1913.5961, -11178.41, -0.054655384, -0.1929701, 2425.029, 2425.029, 0.0, 9.9978285, 10.001057 
1.2948571e+3, 1.24157615e+2, -1555471.4, -1770669.3, 26659.238, 0.0030776989, -0.052963708, -1552217.9, 171029.94, 0.0035624073, 10.001675, 9.998809 
1.2948807e+3, 1.3415602e+2, -1478869.9, -1681513.6, -44511.418, 0.09756183, -0.09116366, -1469523.8, 155740.89, 0.0020858154, 10.001513, 9.99883 
1.2949018e+3, 1.4415526e+2, -1384382.0, -1566105.8, -11806.099, -0.07582984, -0.055966236, -1383618.3, 143654.13, 0.00086324645, 10.001408, 9.998996 
1.294926e+3, 1.5415418e+2, -1287278.8, -1465450.6, -8670.832, -0.009532715, -0.0636381, -1286857.8, 142424.0, 0.0001865044, 10.001388, 9.9990225 
1.2949497e+3, 1.6415288e+2, -1221662.0, -1414192.6, -18216.42, 0.010011939, -0.08012136, -1219953.5, 111339.54, 0.0000072252774, 10.001299, 9.998746 
1.2949726e+3, 1.7415127e+2, -1149845.1, -1328393.5, -26408.48, -0.024465945, -0.113025695, -1146021.1, 87285.82, 0.0, 10.001117, 9.998749 
1.2949957e+3, 1.8414979e+2, -1082025.8, -1261400.0, -35523.652, -0.04383522, -0.12678422, -1075246.8, 60073.965, 0.0, 10.00098, 9.998603 
1.2950188e+3, 1.9414848e+2, -994697.94, -1166752.5, -31882.842, -0.045488175, -0.11658195, -988979.9, 48354.195, 0.0, 10.000899, 9.998618 
1.2950419e+3, 2.0414719e+2, -911774.3, -1055361.6, -43131.24, -0.0472195, -0.11195741, -899814.56, 39531.984, 0.0, 10.000707, 9.998803 
1.2950647e+3, 2.1414593e+2, -860912.56, -974400.75, -48656.01, -0.04793882, -0.12033368, -842908.44, -1550.8177, 0.0, 10.000359, 9.998854 
1.2950873e+3, 2.2414465e+2, -792300.0, -881369.3, -50108.44, -0.055811126, -0.13397186, -769795.94, -26427.02, 0.0, 10.000117, 9.998937 
1.2951101e+3, 2.3414339e+2, -705227.2, -783936.44, -46349.957, -0.074261665, -0.15709063, -683778.0, -38397.89, 0.0, 10.000022, 9.998979 
1.295133e+3, 2.4414226e+2, -650174.7, -718086.75, -47056.41, -0.07145838, -0.15929629, -626102.1, -78711.45, 0.0, 9.999776, 9.998877 
1.2951562e+3, 2.5414133e+2, -616249.5, -648198.75, -55781.84, -0.038932595, -0.13878758, -574199.94, -124799.53, 0.0, 9.999324, 9.9989 
1.2951791e+3, 2.641403e+2, -544967.7, -525221.56, -51299.56, -0.030760558, -0.14279962, -482853.63, -131443.44, 0.0, 9.998978, 9.999238 
1.295202e+3, 2.7413926e+2, -471689.13, -431456.72, -46265.953, -0.056516573, -0.17725475, -401122.94, -147704.05, 0.0, 9.998775, 9.999307 
1.295225e+3, 2.8413856e+2, -405541.8, -343274.8, -37620.96, -0.057177186, -0.17620844, -325575.63, -170151.28, 0.0, 9.998532, 9.999356 
1.2952486e+3, 2.941382e+2, -350438.94, -264719.47, -37412.098, -0.023782933, -0.1508558, -250687.89, -193260.66, 0.0, 9.998232, 9.999367 
1.295272e+3, 3.0413634e+2, -313909.5, -185558.72, -12595.127, -0.040572844, -0.28310022, -184334.44, -184334.44, 0.0, 9.997991, 9.999692 
1.2952954e+3, 3.1413728e+2, -235185.7, 16081.464, -15830.712, -0.08626806, -0.16348465, 17074.926, 17074.926, 0.0, 9.997827, 10.001156 
1.3048589e+3, 1.2413402e+2, -1579254.1, -1787241.3, 23261.836, 0.01912763, -0.04782295, -1576684.3, 146794.9, 0.0037353144, 10.001534, 9.998761 
1.3048823e+3, 1.3413231e+2, -1449846.6, -1668779.6, -40004.695, 0.10651167, -0.09628145, -1442765.8, 182731.3, 0.002198173, 10.0017185, 9.998817 
1.3049035e+3, 1.4413153e+2, -1341814.1, -1548991.6, -6956.116, -0.07737249, -0.058885064, -1341580.9, 185923.86, 0.00092024496, 10.001716, 9.998964 
1.3049275e+3, 1.5413046e+2, -1277221.5, -1464307.6, -10605.11, -0.0058455174, -0.062713005, -1276622.3, 152892.02, 0.00020472471, 10.001473, 9.998988 
1.3049509e+3, 1.6412915e+2, -1218739.0, -1416391.6, -16809.8, 0.0135533, -0.07694119, -1217319.6, 114206.21, 0.000008878654, 10.001335, 9.998713 
1.3049738e+3, 1.7412752e+2, -1119949.9, -1317403.8, -10927.519, -0.027684728, -0.10951569, -1119347.0, 114192.97, 0.0, 10.001338, 9.998717 
1.3049968e+3, 1.84126e+2, -1052672.3, -1249833.3, -20480.299, -0.04645548, -0.12273554, -1050567.4, 84986.664, 0.0, 10.001194, 9.998578 
1.3050197e+3, 1.941247e+2, -1004660.2, -1174027.8, -27223.516, -0.03779249, -0.11177706, -1000391.94, 37175.664, 0.0, 10.000843, 9.998595 
1.3050427e+3, 2.041234e+2, -923011.75, -1061884.3, -39345.87, -0.037852056, -0.1067997, -912638.94, 26941.441, 0.0, 10.000635, 9.998793 
1.3050652e+3, 2.1412213e+2, -822677.6, -956868.94, -36666.168, -0.049044073, -0.11511813, -813312.6, 28279.102, 0.0, 10.000626, 9.998845 
1.3050877e+3, 2.2412087e+2, -747561.6, -860343.25, -40341.234, -0.060919728, -0.12664604, -734617.44, 8985.51, 0.0, 10.000427, 9.998931 
1.30511e+3, 2.3411962e+2, -714408.3, -788908.6, -45025.45, -0.073710434, -0.1451753, -693221.6, -47607.977, 0.0, 9.999962, 9.998973 
1.3051325e+3, 2.441185e+2, -677284.5, -737336.56, -46172.52, -0.06969647, -0.14525698, -652233.6, -104609.14, 0.0, 9.999618, 9.99882 
1.3051555e+3, 2.5411752e+2, -603162.94, -648730.5, -42625.027, -0.04270395, -0.12573066, -577614.56, -127979.125, 0.0, 9.999444, 9.998839 
1.3051781e+3, 2.6411647e+2, -513026.03, -509608.75, -33450.22, -0.035897, -0.12831998, -477823.56, -126177.97, 0.0, 9.999197, 9.99924 
1.3052008e+3, 2.7411544e+2, -460964.5, -425362.88, -37204.008, -0.056682453, -0.15835151, -401920.44, -148266.84, 0.0, 9.998845, 9.999314 
1.3052236e+3, 2.8411478e+2, -404039.53, -338983.66, -32887.047, -0.054659896, -0.15682673, -325255.5, -169596.89, 0.0, 9.998528, 9.999387 
1.3052468e+3, 2.9411438e+2, -344763.3, -258401.8, -30627.373, -0.02243178, -0.1360235, -248642.83, -190981.3, 0.0, 9.998257, 9.999398 
1.3052699e+3, 3.0411255e+2, -316432.75, -193421.05, -3224.934, -0.045230962, -0.26622233, -193336.55, -193336.55, 0.0, 9.998003, 9.999632 
1.3052931e+3, 3.1411338e+2, -239948.48, 18446.594, -9572.21, -0.09962228, -0.15354437, 18800.709, 18800.709, 0.0, 9.997775, 10.001197 
1.3148603e+3, 1.2411022e+2, -1570862.5, -1768707.8, 34116.016, 0.01942327, -0.05046154, -1565144.9, 158567.89, 0.003906043, 10.00153, 9.998892 
1.3148841e+3, 1.3410862e+2, -1437187.8, -1643283.6, -33955.406, 0.12042232, -0.10540933, -1431737.5, 193991.22, 0.0023090318, 10.00172, 9.998992 
1.3149051e+3, 1.4410792e+2, -1348070.3, -1563150.9, -15803.905, -0.06637233, -0.0645227, -1346915.1, 180820.25, 0.000976971, 10.001719, 9.998865 
1.314929e+3, 1.5410677e+2, -1285592.3, -1482356.4, -20409.46, -0.002835276, -0.06495292, -1283497.6, 146249.16, 0.00022350362, 10.001475, 9.998864 
1.3149522e+3, 1.641055e+2, -1209430.6, -1397620.1, -17960.191, 0.0133434115, -0.07398554, -1207731.9, 124026.36, 0.000010883257, 10.001337, 9.99884 
1.3149752e+3, 1.741041e+2, -1108858.9, -1295154.8, -11142.205, -0.023715774, -0.099803776, -1108194.9, 125574.83, 0.0, 10.001341, 9.99887 
1.3149981e+3, 1.8410258e+2, -1061150.5, -1268314.3, -32969.54, -0.03717002, -0.11371352, -1056030.0, 79753.45, 0.0, 10.001197, 9.998451 
1.3150208e+3, 1.94101e+2, -1014957.6, -1196361.4, -40713.863, -0.021989698, -0.113564715, -1006238.94, 31561.223, 0.0, 10.000846, 9.998441 
1.3150433e+3, 2.0409964e+2, -917239.56, -1050752.8, -40925.02, -0.028941989, -0.110445604, -905693.5, 34120.375, 0.0, 10.000638, 9.998868 
1.3150656e+3, 2.1409859e+2, -815539.3, -942431.6, -37016.258, -0.06567297, -0.10751353, -805530.6, 36292.43, 0.0, 10.000627, 9.998944 
1.3150878e+3, 2.2409739e+2, -753914.7, -873965.4, -56400.68, -0.07892901, -0.11378886, -731574.56, 12259.19, 0.0, 10.000428, 9.998837 
1.3151102e+3, 2.34096e+2, -721509.2, -804840.4, -62377.53, -0.05876022, -0.13583429, -688161.56, -42315.402, 0.0, 9.999966, 9.998862 
1.3151324e+3, 2.4409485e+2, -670672.44, -725074.25, -53228.56, -0.053255253, -0.13611469, -638097.3, -90239.97, 0.0, 9.999622, 9.998902 
1.3151546e+3, 2.54094e+2, -595478.6, -633622.56, -48602.383, -0.06953053, -0.11241305, -562340.1, -112473.43, 0.0, 9.999447, 9.998942 
1.315177e+3, 2.6409295e+2, -519121.13, -522840.1, -45536.926, -0.06878773, -0.11785884, -475405.75, -123528.74, 0.0, 9.999198, 9.999149 
1.3151997e+3, 2.740917e+2, -467966.6, -440956.28, -49541.8, -0.04266566, -0.16014273, -403111.84, -149224.34, 0.0, 9.998849, 9.999207 
1.3152222e+3, 2.8409103e+2, -400024.2, -332144.75, -42263.246, -0.02877268, -0.15519172, -311880.34, -155987.6, 0.0, 9.998533, 9.999432 
1.3152449e+3, 2.9409096e+2, -339589.16, -249511.05, -39808.4, -0.034860898, -0.10917782, -234440.0, -176547.48, 0.0, 9.998263, 9.999456 
1.3152675e+3, 3.0408913e+2, -322815.38, -208562.28, -11011.879, -0.07053665, -0.2320503, -207510.63, -207510.63, 0.0, 9.998011, 9.999525 
1.3152908e+3, 3.1408948e+2, -240109.23, 16460.762, -16254.092, -0.09784362, -0.1591248, 17486.383, 17486.383, 0.0, 9.997781, 10.001181 
1.324862e+3, 1.2408646e+2, -1505589.5, -1732551.4, 43817.22, 0.008695641, -0.055159405, -1497423.9, 226521.92, 0.004073657, 10.001961, 9.998932 
1.324886e+3, 1.3408498e+2, -1449173.8, -1639303.4, -37062.17, 0.13550456, -0.10507176, -1442204.6, 183755.53, 0.0024175402, 10.001596, 9.999079 
1.3249068e+3, 1.440844e+2, -1391551.3, -1584766.6, -18846.66, -0.0510433, -0.058773443, -1389730.1, 138235.83, 0.0010328876, 10.001425, 9.998859 
1.3249305e+3, 1.5408316e+2, -1276180.3, -1479506.1, -15029.369, -0.0063775317, -0.06550451, -1275075.4, 154903.03, 0.00024265106, 10.001548, 9.998849 
1.3249536e+3, 1.640819e+2, -1180250.6, -1377994.5, -13386.869, 0.0053311195, -0.075058, -1179348.5, 152641.52, 0.000013283229, 10.001514, 9.99889 
1.3249765e+3, 1.7408063e+2, -1117920.4, -1293102.4, -14342.396, -0.015230119, -0.09251365, -1116753.9, 117246.23, 0.0, 10.001251, 9.998926 
1.3249993e+3, 1.8407921e+2, -1074882.3, -1269474.3, -36597.87, -0.025849018, -0.1043565, -1068226.8, 67786.41, 0.0, 10.0010805, 9.998499 
1.3250215e+3, 1.9407761e+2, -983870.4, -1175944.3, -29745.121, -0.027468376, -0.111218266, -979369.44, 58660.465, 0.0, 10.001037, 9.998488 
1.3250439e+3, 2.0407626e+2, -887298.2, -1038896.2, -25306.9, -0.038816586, -0.10794519, -883185.2, 56858.36, 0.0, 10.000855, 9.998844 
1.3250661e+3, 2.1407528e+2, -839906.44, -957509.8, -31189.443, -0.06179768, -0.094392, -832146.7, 9905.712, 0.0, 10.000475, 9.998914 
1.3250883e+3, 2.240741e+2, -785700.25, -887950.6, -55576.453, -0.07180562, -0.098051496, -761310.4, -17247.197, 0.0, 10.000205, 9.998849 
1.32511e+3, 2.3407264e+2, -701557.7, -793455.4, -53074.008, -0.06408082, -0.12913404, -677305.8, -31229.615, 0.0, 10.000096, 9.998877 
1.325132e+3, 2.4407145e+2, -636369.1, -712009.06, -42908.066, -0.06363764, -0.13125384, -616992.44, -68904.85, 0.0, 9.999874, 9.99887 
1.3251539e+3, 2.5407067e+2, -591962.44, -635909.8, -48588.06, -0.07379432, -0.09871157, -560610.3, -110513.61, 0.0, 9.999489, 9.998905 
1.3251762e+3, 2.6406965e+2, -522659.47, -520390.25, -47900.3, -0.07003629, -0.10085984, -473611.13, -121504.29, 0.0, 9.999157, 9.999185 
1.3251984e+3, 2.740684e+2, -457411.6, -430875.4, -41455.883, -0.045805886, -0.1484281, -400616.13, -146498.88, 0.0, 9.9989, 9.99925 
1.3252208e+3, 2.840677e+2, -380145.8, -325163.3, -27719.883, -0.032193597, -0.14702402, -313614.06, -157491.5, 0.0, 9.998682, 9.999408 
1.3252433e+3, 2.940676e+2, -305280.75, -236602.4, -31751.178, -0.03602783, -0.100867175, -224172.83, -166050.3, 0.0, 9.998516, 9.999423 
1.3252658e+3, 3.040658e+2, -288401.44, -198388.97, -7611.179, -0.072463475, -0.21771097, -197749.94, -197749.94, 0.0, 9.998276, 9.999467 
1.3252886e+3, 3.140659e+2, -215699.67, 32874.246, -8233.155, -0.1011788, -0.15936206, 33146.64, 33146.64, 0.0, 9.99793, 10.001222 
1.3348636e+3, 1.24062784e+2, -1508786.3, -1740665.3, 34903.31, -0.013826726, -0.06281559, -1503646.4, 220531.58, 0.0042385682, 10.001966, 9.998874 
1.3348877e+3, 1.3406147e+2, -1449728.5, -1640552.9, -52200.42, 0.1515502, -0.09486671, -1436382.4, 189808.63, 0.0025235927, 10.0015955, 9.999072 
1.3349085e+3, 1.4406098e+2, -1386190.5, -1573013.0, -16763.115, -0.031405717, -0.04120061, -1384698.3, 143497.61, 0.0010875799, 10.001421, 9.998941 
1.3349319e+3, 1.540597e+2, -1269614.0, -1466267.8, -10707.15, -0.016714197, -0.06428271, -1269032.8, 161175.98, 0.00026189684, 10.001549, 9.9989395 
1.334955e+3, 1.640584e+2, -1182056.3, -1382663.4, -22506.6, -0.010833549, -0.080135874, -1179562.3, 152658.53, 0.000016032998, 10.001517, 9.998857 
1.3349779e+3, 1.7405717e+2, -1120588.4, -1299478.1, -24738.293, -0.0024242313, -0.08771528, -1117230.4, 117000.484, 0.00000000003443261, 10.001254, 9.998881 
1.3350004e+3, 1.8405588e+2, -1059140.5, -1237531.3, -39292.125, -0.012521169, -0.0948039, -1050869.6, 85373.18, 0.0, 10.001082, 9.998717 
1.3350223e+3, 1.9405448e+2, -966428.75, -1140392.5, -31630.148, -0.054041095, -0.104780346, -960856.25, 77400.43, 0.0, 10.001039, 9.998733 
1.3350445e+3, 2.0405324e+2, -895443.4, -1056576.3, -38746.598, -0.06753911, -0.099323876, -886610.44, 53658.906, 0.0, 10.000858, 9.998722 
1.3350667e+3, 2.140522e+2, -850671.2, -980722.5, -45649.55, -0.038315494, -0.07593946, -836247.4, 6032.461, 0.0, 10.000478, 9.998754 
1.3350888e+3, 2.2405098e+2, -777940.9, -872665.7, -60431.813, -0.040255066, -0.07961287, -748523.06, -4231.755, 0.0, 10.000208, 9.998953 
1.3351099e+3, 2.3404951e+2, -691982.06, -774294.2, -56920.89, -0.088708766, -0.12501207, -662897.0, -16593.264, 0.0, 10.000098, 9.999008 
1.3351315e+3, 2.440483e+2, -645927.4, -732692.44, -56077.973, -0.0999709, -0.13046665, -618410.1, -70094.76, 0.0, 9.999877, 9.998728 
1.3351536e+3, 2.5404748e+2, -603489.94, -660902.9, -62297.83, -0.05729281, -0.08449536, -563602.8, -113277.234, 0.0, 9.999493, 9.998733 
1.3351755e+3, 2.6404652e+2, -511665.28, -498693.56, -56916.89, -0.041623395, -0.077756375, -447894.16, -95558.836, 0.0, 9.999161, 9.999332 
1.3351971e+3, 2.7404544e+2, -443843.63, -403961.2, -50084.473, -0.06465035, -0.12467371, -369994.1, -115650.77, 0.0, 9.998905, 9.9994335 
1.3352193e+3, 2.840447e+2, -386131.3, -338710.38, -33333.395, -0.06303096, -0.13303916, -321514.84, -165166.19, 0.0, 9.998686, 9.999313 
1.3352418e+3, 2.9404426e+2, -313600.5, -254748.31, -36665.43, -0.027797638, -0.10888998, -237161.13, -178809.27, 0.0, 9.998519, 9.999297 
1.3352641e+3, 3.0404246e+2, -288957.03, -200749.9, -18764.055, -0.05375224, -0.22091593, -196924.22, -196924.22, 0.0, 9.99828, 9.999449 
1.3352863e+3, 3.1404263e+2, -208183.42, 46172.55, -19293.207, -0.109363034, -0.15448101, 47627.64, 47627.64, 0.0, 9.997938, 10.001309 
1.3448657e+3, 1.2403933e+2, -1511420.8, -1746361.3, 43224.094, -0.010349777, -0.06150812, -1503720.8, 220687.45, 0.0044024647, 10.001969, 9.998833 
1.3448893e+3, 1.3403806e+2, -1420917.4, -1626156.8, -48928.72, 0.15234214, -0.09119604, -1409849.6, 216571.55, 0.0026278205, 10.001793, 9.999075 
1.34491e+3, 1.4403765e+2, -1348611.8, -1551293.0, -3899.1062, -0.034363557, -0.03251893, -1348536.8, 179888.78, 0.0011408281, 10.001664, 9.998973 
1.3449335e+3, 1.5403637e+2, -1255687.5, -1455645.9, -1105.2609, -0.011737379, -0.05370418, -1255681.5, 174756.4, 0.00028088767, 10.001629, 9.998974 
1.3449565e+3, 1.6403511e+2, -1181601.4, -1377607.3, -23474.814, -0.005366659, -0.07121772, -1178829.1, 153620.52, 0.000018979208, 10.0015, 9.998899 
1.344979e+3, 1.740339e+2, -1120291.9, -1294282.8, -20259.178, -0.007061681, -0.08476372, -1117964.1, 116495.97, 0.0000000014653116, 10.001235, 9.998926 
1.3450013e+3, 1.8403265e+2, -1056010.1, -1225007.5, -27897.525, -0.021964908, -0.09173926, -1051524.0, 84947.24, 0.0, 10.001057, 9.998815 
1.3450234e+3, 1.9403146e+2, -964386.75, -1127767.3, -30419.574, -0.060468864, -0.092955425, -958906.75, 79576.39, 0.0, 10.001003, 9.998836 
1.3450453e+3, 2.040303e+2, -896398.75, -1053687.3, -48860.47, -0.07159136, -0.0843259, -882456.44, 58038.414, 0.0, 10.000838, 9.998752 
1.3450673e+3, 2.1402925e+2, -844464.8, -974969.3, -43811.305, -0.041413326, -0.06609768, -831121.4, 11384.501, 0.0, 10.000509, 9.998777 
1.345089e+3, 2.2402804e+2, -767868.2, -863420.25, -45501.93, -0.043040376, -0.07049755, -749667.1, -5149.888, 0.0, 10.000259, 9.998991 
1.34511e+3, 2.3402667e+2, -685256.56, -766301.6, -48137.62, -0.091651544, -0.10983135, -662856.06, -16327.289, 0.0, 10.000126, 9.999049 
1.3451314e+3, 2.440255e+2, -637921.06, -722799.06, -53076.75, -0.10271395, -0.11615583, -612402.6, -63862.78, 0.0, 9.9999075, 9.998779 
1.345153e+3, 2.5402462e+2, -589378.75, -647923.0, -44403.895, -0.059605803, -0.08094754, -565466.6, -114916.5, 0.0, 9.999564, 9.998786 
1.3451746e+3, 2.6402366e+2, -498034.28, -496754.44, -32026.984, -0.04486134, -0.0742213, -465361.0, -112801.26, 0.0, 9.999276, 9.9992895 
1.345196e+3, 2.740227e+2, -423910.28, -399946.75, -41757.227, -0.070362546, -0.10632643, -368486.25, -113919.0, 0.0, 9.999068, 9.999382 
1.3452178e+3, 2.8402194e+2, -362432.0, -323456.56, -30076.19, -0.07121091, -0.11565182, -307106.47, -150533.61, 0.0, 9.998834, 9.999346 
1.3452402e+3, 2.9402134e+2, -305076.78, -246174.19, -22200.518, -0.03908599, -0.11348511, -238744.03, -180166.9, 0.0, 9.99856, 9.999335 
1.3452624e+3, 3.040195e+2, -287139.66, -213636.11, -1643.9741, -0.06142189, -0.22194362, -213599.36, -213599.36, 0.0, 9.998353, 9.999325 
1.3452846e+3, 3.1401956e+2, -167260.98, 59914.97, -10755.964, -0.099321194, -0.15486194, 60423.09, 60423.09, 0.0, 9.998247, 10.001255 
1.354868e+3, 1.2401616e+2, -1513975.5, -1750917.5, 40841.527, 0.021081666, -0.050732512, -1507133.3, 217502.77, 0.0045679878, 10.0019655, 9.998803 
1.354891e+3, 1.3401476e+2, -1419557.9, -1624168.4, -56583.598, 0.13736482, -0.094086826, -1404952.6, 221697.7, 0.0027314809, 10.001796, 9.999088 
1.3549113e+3, 1.4401436e+2, -1349981.0, -1555018.0, -6804.1904, -0.061279655, -0.033077776, -1349755.5, 178898.97, 0.0011927416, 10.001667, 9.998947 
1.3549353e+3, 1.5401328e+2, -1257444.8, -1459850.9, -3038.6208, 0.008482474, -0.033645503, -1257399.1, 173266.13, 0.00029931884, 10.00163, 9.998944 
1.3549583e+3, 1.6401209e+2, -1172986.0, -1360408.9, -33139.08, 0.022220293, -0.04804155, -1167299.1, 165377.27, 0.00002192539, 10.001502, 9.999017 
1.35498e+3, 1.7401075e+2, -1110512.1, -1274816.6, -30681.258, -0.02911519, -0.08360253, -1104969.8, 129717.48, 0.0000000068048798, 10.001238, 9.999059 
1.3550021e+3, 1.8400955e+2, -1057393.4, -1228605.5, -31019.148, -0.054617975, -0.09516393, -1051946.9, 84751.54, 0.0, 10.00106, 9.99879 
1.3550244e+3, 1.9400851e+2, -966933.9, -1133653.6, -32626.316, -0.047399614, -0.075925015, -960776.44, 77932.79, 0.0, 10.001005, 9.998795 
1.3550463e+3, 2.0400746e+2, -884072.1, -1028582.75, -60405.195, -0.051269658, -0.06309242, -862148.8, 78571.29, 0.0, 10.000839, 9.998924 
1.3550675e+3, 2.140064e+2, -830130.8, -946117.44, -56348.105, -0.070201576, -0.06450766, -807264.1, 35466.332, 0.0, 10.000512, 9.998975 
1.3550888e+3, 2.2400528e+2, -769102.8, -867020.8, -51159.613, -0.07942316, -0.07038564, -747250.1, -2509.0864, 0.0, 10.000263, 9.998965 
1.3551103e+3, 2.3400412e+2, -688809.25, -773926.06, -52866.97, -0.07431126, -0.0841778, -663499.1, -16747.814, 0.0, 10.000126, 9.998997 
1.3551314e+3, 2.4400304e+2, -621629.75, -689103.44, -64772.66, -0.07342493, -0.0889393, -582334.6, -33573.258, 0.0, 9.999907, 9.999012 
1.3551524e+3, 2.5400206e+2, -570251.06, -609370.3, -56897.73, -0.07948053, -0.08758501, -529644.8, -78874.055, 0.0, 9.999569, 9.999049 
1.3551736e+3, 2.6400107e+2, -512876.0, -529135.06, -39701.49, -0.07812771, -0.0892077, -480480.25, -127699.8, 0.0, 9.999282, 9.999065 
1.3551952e+3, 2.740001e+2, -442847.44, -440119.13, -48500.37, -0.06472444, -0.092591025, -392963.72, -138174.31, 0.0, 9.99907, 9.999105 
1.3552168e+3, 2.8399935e+2, -352217.16, -302825.78, -39031.402, -0.058940545, -0.09480214, -281333.5, -124537.914, 0.0, 9.998836, 9.999488 
1.3552386e+3, 2.939987e+2, -291537.9, -219382.92, -31536.113, -0.06792631, -0.11572288, -207542.66, -148743.58, 0.0, 9.998564, 9.999518 
1.3552603e+3, 3.039969e+2, -301929.28, -245802.55, -5242.6655, -0.09330205, -0.22143874, -245317.05, -245317.05, 0.0, 9.998358, 9.999102 
1.3552831e+3, 3.1399667e+2, -180431.11, 32402.332, -12102.284, -0.07495759, -0.15734027, 33088.29, 33088.29, 0.0, 9.998246, 10.001066 
1.36487e+3, 1.2399305e+2, -1505657.4, -1753018.1, 55830.46, 0.037850168, -0.047591247, -1493640.0, 231223.33, 0.0047382293, 10.002051, 9.998747 
1.3648929e+3, 1.3399178e+2, -1378885.1, -1605889.1, -49138.785, 0.12866944, -0.07704365, -1368704.8, 258171.86, 0.0028363883, 10.002083, 9.999075 
1.364913e+3, 1.4399141e+2, -1308838.0, -1534143.0, -3591.0234, -0.07825371, -0.011976858, -1308780.8, 220099.73, 0.0012438492, 10.001946, 9.998955 
1.3649368e+3, 1.539902e+2, -1261020.5, -1460390.6, 3049.1992, 0.015715579, -0.027750827, -1260973.9, 169918.52, 0.0003170788, 10.001601, 9.998955 
1.3649598e+3, 1.6398898e+2, -1182222.1, -1358206.8, -24975.596, 0.03368841, -0.04558868, -1178746.3, 154157.23, 0.00002472805, 10.0014105, 9.999076 
1.3649812e+3, 1.7398788e+2, -1075551.6, -1250736.8, -27681.014, -0.042599004, -0.06618607, -1071281.9, 163630.83, 0.000000016360648, 10.001448, 9.999124 
1.365003e+3, 1.8398677e+2, -1018753.2, -1201305.1, -32329.736, -0.07384452, -0.07401205, -1013196.8, 123726.016, 0.0, 10.001287, 9.998867 
1.3650253e+3, 1.9398569e+2, -985886.06, -1134100.5, -25819.45, -0.044290908, -0.06827919, -981517.06, 57416.965, 0.0, 10.000838, 9.998872 
1.365047e+3, 2.0398468e+2, -914803.44, -1030062.44, -47489.402, -0.043971907, -0.06106883, -897757.6, 43186.69, 0.0, 10.000571, 9.9990425 
1.3650678e+3, 2.139838e+2, -812270.2, -923689.0, -48839.113, -0.08532508, -0.055704616, -793893.1, 49059.53, 0.0, 10.000576, 9.999097 
1.3650888e+3, 2.2398278e+2, -746254.25, -852640.8, -49440.21, -0.09863931, -0.05851287, -726826.2, 18135.996, 0.0, 10.000406, 9.998994 
1.3651103e+3, 2.3398161e+2, -709359.06, -781790.25, -47080.477, -0.07065082, -0.07541095, -686176.5, -39203.715, 0.0, 9.999977, 9.999014 
1.3651313e+3, 2.4398059e+2, -639023.6, -681568.5, -55345.605, -0.063563794, -0.08276563, -601003.1, -52020.965, 0.0, 9.999721, 9.999152 
1.365152e+3, 2.5397977e+2, -537177.1, -575973.3, -55252.05, -0.08798924, -0.08250411, -498016.9, -47027.52, 0.0, 9.9997225, 9.999204 
1.3651729e+3, 2.6397878e+2, -479763.97, -522607.25, -43637.86, -0.09432975, -0.08647999, -452573.38, -99574.79, 0.0, 9.999552, 9.998979 
1.3651942e+3, 2.739777e+2, -443068.3, -452681.1, -41989.34, -0.07288706, -0.09511367, -405611.16, -150601.53, 0.0, 9.999125, 9.998992 
1.3652156e+3, 2.8397685e+2, -350414.5, -298422.72, -25021.615, -0.059769064, -0.096715264, -288337.22, -131320.67, 0.0, 9.998835, 9.999517 
1.3652372e+3, 2.9397634e+2, -262199.66, -200183.27, -27113.338, -0.0624105, -0.10617131, -190001.16, -130982.72, 0.0, 9.998746, 9.999561 
1.3652588e+3, 3.039747e+2, -278733.4, -238755.36, -3010.5776, -0.08535902, -0.19742571, -238529.92, -238529.92, 0.0, 9.998537, 9.9990635 
1.3652813e+3, 3.1397414e+2, -192873.2, 28659.945, 5727.7207, -0.06699934, -0.16313766, 28807.938, 28807.938, 0.0, 9.998153, 10.001085 
1.374872e+3, 1.2397003e+2, -1511872.6, -1765806.8, 60653.438, 0.0386702, -0.052966945, -1498129.1, 226960.66, 0.0049160505, 10.00205, 9.99866 
1.3748948e+3, 1.3396913e+2, -1381492.3, -1612081.4, -49062.113, 0.12623069, -0.03938759, -1371487.4, 255612.45, 0.0029444871, 10.002085, 9.999032 
1.3749148e+3, 1.4396882e+2, -1305648.3, -1528365.5, -16517.498, -0.08490938, 0.031686995, -1304430.0, 224673.3, 0.0012949365, 10.001949, 9.998994 
1.3749385e+3, 1.5396714e+2, -1257410.8, -1453463.9, -10636.486, 0.00964493, -0.03606189, -1256835.4, 174283.53, 0.0003342444, 10.001602, 9.999002 
1.374961e+3, 1.6396585e+2, -1182179.5, -1358660.0, -25416.31, 0.028406547, -0.06428726, -1178592.0, 154538.78, 0.000027345353, 10.001411, 9.999073 
1.3749826e+3, 1.7396528e+2, -1075453.9, -1251383.0, -26563.545, -0.04783024, -0.03267195, -1071530.6, 163605.39, 0.000000027808229, 10.00145, 9.999118 
1.3750042e+3, 1.8396436e+2, -1006227.5, -1176231.1, -47880.176, -0.07973114, -0.028237358, -993670.0, 143474.38, 0.0, 10.001291, 9.999038 
1.3750261e+3, 1.9396299e+2, -971886.8, -1106001.8, -43082.016, -0.050992366, -0.0697176, -959240.06, 79917.26, 0.0, 10.000841, 9.9990635 
1.3750474e+3, 2.0396195e+2, -910075.3, -1020946.0, -49124.59, -0.049713593, -0.0780027, -891441.06, 49726.273, 0.0, 10.000574, 9.9991045 
1.3750684e+3, 2.1396145e+2, -808897.56, -916909.06, -48556.03, -0.08749213, -0.040133692, -790278.9, 52893.637, 0.0, 10.000576, 9.999145 
1.3750893e+3, 2.239606e+2, -740821.1, -841711.25, -63857.883, -0.10131397, -0.03526362, -709887.25, 35293.53, 0.0, 10.000407, 9.999069 
1.3751103e+3, 2.3395918e+2, -703190.3, -770173.8, -63032.785, -0.079994015, -0.08260391, -665304.0, -18110.738, 0.0, 9.999981, 9.999092 
1.375131e+3, 2.4395815e+2, -634875.94, -674212.1, -56472.12, -0.072432, -0.09662762, -594744.94, -45542.547, 0.0, 9.999725, 9.999202 
1.3751517e+3, 2.539577e+2, -534111.1, -569464.2, -54600.41, -0.0863432, -0.066349044, -494397.22, -43191.016, 0.0, 9.999721, 9.999249 
1.3751724e+3, 2.639568e+2, -477699.6, -517968.3, -57528.01, -0.0948457, -0.06679431, -436884.28, -83669.84, 0.0, 9.999549, 9.999013 
1.3751931e+3, 2.7395532e+2, -440005.72, -447828.72, -57393.668, -0.09377408, -0.1128609, -386390.4, -131162.06, 0.0, 9.99913, 9.999023 
1.3752143e+3, 2.8395444e+2, -354701.22, -309237.44, -28783.443, -0.07311208, -0.12003105, -295292.0, -138055.84, 0.0, 9.998841, 9.99944 
1.3752362e+3, 2.9395428e+2, -268725.44, -213391.73, -29552.031, -0.0269286, -0.085167974, -200576.78, -141341.08, 0.0, 9.998743, 9.999473 
1.3752578e+3, 3.0395287e+2, -270590.25, -221529.89, -15647.08, -0.042381022, -0.15100515, -216964.34, -216964.34, 0.0, 9.998534, 9.999184 
1.3752794e+3, 3.1395194e+2, -176939.16, 57946.56, -7288.748, -0.07396537, -0.17094839, 58172.52, 58172.52, 0.0, 9.998168, 10.00128 
1.3848744e+3, 1.2394729e+2, -1442931.1, -1740947.9, 68073.875, 0.034232948, -0.038898855, -1428117.9, 297195.8, 0.0051032617, 10.002564, 9.998583 
1.384897e+3, 1.3394637e+2, -1368315.9, -1609533.1, -46173.883, 0.13354596, -0.024135865, -1359779.3, 267544.88, 0.003057239, 10.0021925, 9.998998 
1.3849168e+3, 1.4394608e+2, -1309309.0, -1520790.8, -15311.847, -0.078762844, 0.044821218, -1308206.1, 221121.3, 0.0013467348, 10.001884, 9.999077 
1.38494e+3, 1.539444e+2, -1235290.9, -1431678.1, -5796.877, -0.00080793357, -0.03154736, -1235120.0, 196222.56, 0.0003509688, 10.001707, 9.999101 
1.3849624e+3, 1.6394314e+2, -1169517.3, -1351419.4, -13044.582, 0.015102655, -0.061814588, -1168586.5, 164767.44, 0.000029813278, 10.001494, 9.999083 
1.384984e+3, 1.7394266e+2, -1107818.8, -1267192.1, -13411.452, -0.043676194, -0.021374954, -1106698.1, 128660.93, 0.000000039188958, 10.001229, 9.999115 
1.3850056e+3, 1.8394187e+2, -1036879.25, -1172153.3, -41649.36, -0.07218798, -0.012189044, -1025084.3, 112282.23, 0.0, 10.000999, 9.999206 
1.3850267e+3, 1.9394067e+2, -961007.94, -1079704.5, -38281.21, -0.06101714, -0.05497049, -949732.8, 89644.41, 0.0, 10.000826, 9.999251 
1.385048e+3, 2.0393972e+2, -899905.0, -1009510.7, -38739.914, -0.06468858, -0.066161394, -887595.0, 53790.9, 0.0, 10.000616, 9.999162 
1.3850689e+3, 2.1393922e+2, -838575.94, -926443.8, -38126.555, -0.0883045, -0.033490922, -824339.25, 19051.84, 0.0, 10.000353, 9.999186 
1.3850895e+3, 2.2393839e+2, -768224.3, -843875.1, -56818.465, -0.09909769, -0.03169923, -737792.1, 7606.7515, 0.0, 10.000173, 9.9991665 
1.3851102e+3, 2.3393708e+2, -675770.8, -744954.44, -54818.96, -0.09155718, -0.0795019, -645542.0, 1868.0303, 0.0, 10.000119, 9.999199 
1.3851306e+3, 2.4393608e+2, -605856.9, -662412.5, -48216.02, -0.08649021, -0.09512227, -578238.2, -28819.488, 0.0, 9.999935, 9.99918 
1.3851513e+3, 2.5393558e+2, -560784.2, -586220.06, -52506.46, -0.086246446, -0.067303464, -519477.38, -68054.22, 0.0, 9.999556, 9.999213 
1.3851719e+3, 2.6393467e+2, -504332.13, -524321.6, -58214.02, -0.09058751, -0.06926463, -455261.1, -101829.69, 0.0, 9.99934, 9.999069 
1.3851923e+3, 2.7393326e+2, -400791.56, -421310.03, -56009.723, -0.09997, -0.11676584, -354109.22, -98664.89, 0.0, 9.999368, 9.999089 
1.3852133e+3, 2.8393233e+2, -313084.78, -297347.66, -30803.88, -0.080105245, -0.12535618, -273423.25, -115970.95, 0.0, 9.999164, 9.999366 
1.385235e+3, 2.9393214e+2, -294539.5, -235975.45, -32879.906, -0.020749139, -0.088357806, -221228.78, -161775.53, 0.0, 9.998611, 9.99938 
1.3852564e+3, 3.0393088e+2, -300606.44, -240850.33, -15954.353, -0.03142324, -0.13232194, -236857.45, -236857.45, 0.0, 9.99835, 9.999139 
1.3852778e+3, 3.1392983e+2, -123688.18, 83282.18, -17844.867, -0.06672686, -0.15812156, 84809.484, 84809.484, 0.0, 9.998536, 10.001276 
1.3948768e+3, 1.23924896e+2, -1447154.1, -1750814.0, 57495.62, 0.02388548, -0.005002692, -1436632.4, 288902.25, 0.005300489, 10.002569, 9.998513 
1.3948993e+3, 1.3392352e+2, -1370238.4, -1614177.4, -61643.55, 0.15068905, -0.031621378, -1355546.0, 272003.28, 0.0031755816, 10.002194, 9.998965 
1.3949189e+3, 1.4392315e+2, -1300327.1, -1502439.8, -23864.55, -0.05963342, 0.02632767, -1297547.5, 232005.48, 0.0013999565, 10.001885, 9.999204 
1.3949415e+3, 1.5392198e+2, -1224488.6, -1409858.1, -12976.4795, -0.015813168, -0.014167759, -1223584.6, 207978.13, 0.0003674642, 10.001709, 9.99925 
1.3949636e+3, 1.6392088e+2, -1167926.1, -1348954.5, -23268.98, -0.0065437676, -0.0375852, -1164983.0, 168589.66, 0.00003219316, 10.001497, 9.999099 
1.3949852e+3, 1.7392005e+2, -1107397.5, -1267191.4, -23815.006, -0.030322753, -0.032229226, -1103923.6, 131657.97, 0.00000005013657, 10.001232, 9.999115 
1.3950066e+3, 1.839193e+2, -1025298.8, -1148905.5, -48800.36, -0.051346514, -0.026103811, -1008354.94, 129234.08, 0.0, 10.001002, 9.999365 
1.3950275e+3, 1.9391872e+2, -948063.1, -1053603.8, -45000.58, -0.074364014, -0.0245791, -931481.06, 108112.53, 0.0, 10.000829, 9.99943 
1.3950484e+3, 2.03918e+2, -895902.25, -1002072.7, -48481.51, -0.08892809, -0.026046708, -877095.25, 64504.67, 0.0, 10.000619, 9.999211 
1.395069e+3, 2.1391712e+2, -835845.06, -921656.0, -48022.734, -0.08799358, -0.03520434, -814352.8, 29255.537, 0.0, 10.000356, 9.999218 
1.3950898e+3, 2.239162e+2, -759723.56, -826925.1, -59443.844, -0.09227495, -0.047057066, -725041.25, 20575.203, 0.0, 10.0001745, 9.999283 
1.39511e+3, 2.3391531e+2, -666726.0, -726396.2, -56481.566, -0.1054017, -0.06675371, -632683.9, 14939.461, 0.0, 10.000119, 9.999327 
1.3951303e+3, 2.4391438e+2, -612177.75, -675884.44, -60843.84, -0.10574945, -0.07896903, -575353.5, -25722.21, 0.0, 9.999935, 9.999088 
1.3951509e+3, 2.539134e+2, -568519.7, -603461.9, -66203.63, -0.08771079, -0.08426318, -517520.63, -65880.21, 0.0, 9.99956, 9.999093 
1.3951713e+3, 2.6391238e+2, -498849.0, -513926.16, -57859.082, -0.082011625, -0.09254696, -448039.47, -94389.875, 0.0, 9.999343, 9.99914 
1.3951917e+3, 2.7391142e+2, -394739.7, -407835.78, -53910.063, -0.093294054, -0.10740455, -346981.47, -91323.48, 0.0, 9.999363, 9.999186 
1.3952123e+3, 2.8391054e+2, -319180.13, -309535.06, -48456.6, -0.082007386, -0.11330513, -265661.63, -107996.195, 0.0, 9.999161, 9.999284 
1.3952334e+3, 2.9390985e+2, -299841.06, -250617.53, -53177.637, -0.041336134, -0.1138318, -216632.38, -156960.88, 0.0, 9.998626, 9.999273 
1.3952546e+3, 3.0390865e+2, -311446.13, -267510.88, -11198.116, -0.04979032, -0.13935982, -264821.38, -264821.38, 0.0, 9.998367, 9.998948 
1.3952765e+3, 3.1390783e+2, -137411.1, 56357.0, -8127.7295, -0.048399072, -0.12452823, 56697.324, 56697.324, 0.0, 9.998528, 10.001096 
1.4048795e+3, 1.2390261e+2, -1407736.9, -1731920.9, 75628.43, 0.026778297, 0.0059310016, -1390961.6, 334792.47, 0.0055082403, 10.002844, 9.99851 
1.4049016e+3, 1.3390118e+2, -1342419.4, -1596890.5, -43915.734, 0.15495643, -0.031091306, -1335053.8, 292715.3, 0.0033006065, 10.002371, 9.999 
1.4049208e+3, 1.4390078e+2, -1281642.6, -1492806.3, 1425.349, -0.05736226, 0.024787152, -1281633.0, 248139.64, 0.0014556336, 10.002012, 9.9992075 
1.4049432e+3, 1.5389977e+2, -1199382.0, -1397255.1, 2911.875, -0.021715859, -0.0012933976, -1199339.1, 232442.06, 0.00038406154, 10.001881, 9.999253 
1.404965e+3, 1.6389877e+2, -1148906.6, -1333431.4, -20409.932, -0.013311934, -0.019386465, -1146676.1, 187114.4, 0.00003454216, 10.001601, 9.999154 
1.4049864e+3, 1.738979e+2, -1123887.5, -1268196.8, -17785.223, -0.027310655, -0.021331891, -1121727.9, 114071.84, 0.00000006103049, 10.00109, 9.999176 
1.4050075e+3, 1.8389721e+2, -1051565.8, -1154814.0, -32805.7, -0.04614154, -0.015786285, -1042023.94, 95782.734, 0.0, 10.000794, 9.999424 
1.4050283e+3, 1.9389679e+2, -943250.4, -1044665.25, -36798.168, -0.078192025, -0.004936459, -931305.2, 108504.61, 0.0, 10.000834, 9.999488 
1.4050488e+3, 2.0389614e+2, -871634.2, -977519.75, -51085.875, -0.09619136, -0.008626402, -851005.9, 90809.34, 0.0, 10.000731, 9.999326 
1.4050695e+3, 2.1389517e+2, -819701.5, -900491.5, -45477.16, -0.09060685, -0.0372397, -799269.5, 44554.215, 0.0, 10.000409, 9.999336 
1.4050898e+3, 2.2389431e+2, -757709.6, -816338.9, -48429.76, -0.09368934, -0.054940417, -730413.4, 15417.532, 0.0, 10.000148, 9.999368 
1.4051099e+3, 2.3389365e+2, -681607.8, -724639.94, -48480.477, -0.11059075, -0.060076166, -650083.3, -2247.5986, 0.0, 9.999979, 9.999405 
1.4051302e+3, 2.4389277e+2, -627258.94, -683234.1, -56578.742, -0.112001695, -0.07036061, -592123.94, -42280.84, 0.0, 9.999833, 9.999086 
1.4051504e+3, 2.5389165e+2, -546368.8, -594237.94, -55222.074, -0.09071735, -0.092438124, -510117.47, -58263.65, 0.0, 9.99972, 9.99908 
1.4051707e+3, 2.638906e+2, -472257.38, -495124.13, -41313.996, -0.07786995, -0.105937995, -440823.88, -86960.77, 0.0, 9.999501, 9.999192 
1.405191e+3, 2.7388978e+2, -424694.25, -415180.2, -39941.176, -0.07641085, -0.10970186, -379713.75, -123844.31, 0.0, 9.999128, 9.999247 
1.4052115e+3, 2.838889e+2, -356296.2, -343380.97, -37523.184, -0.07068675, -0.11348649, -311763.78, -153886.78, 0.0, 9.998976, 9.99914 
1.4052321e+3, 2.9388797e+2, -234475.34, -238220.69, -46948.477, -0.063451774, -0.12157958, -189362.2, -129476.12, 0.0, 9.999158, 9.999102 
1.405253e+3, 3.0388677e+2, -231574.52, -235504.27, -9000.982, -0.07423163, -0.13309623, -224326.44, -224326.44, 0.0, 9.998944, 9.998889 
1.405275e+3, 3.1388575e+2, -195686.5, 23765.285, 5058.7104, -0.02500041, -0.13351424, 23881.836, 23881.836, 0.0, 9.998148, 10.001054 
1.4148824e+3, 1.2388049e+2, -1402959.0, -1722566.1, 61262.547, 0.043521523, -0.0077701784, -1391618.5, 334353.2, 0.0057284734, 10.002846, 9.998573 
1.414904e+3, 1.3387938e+2, -1335278.8, -1582821.5, -62845.76, 0.14593124, -0.02238846, -1320237.5, 307745.5, 0.00343434, 10.002373, 9.999096 
1.4149226e+3, 1.4387907e+2, -1290092.5, -1510859.8, -6203.192, -0.07276677, 0.04077075, -1289918.4, 240067.67, 0.001515353, 10.002014, 9.9990835 
1.4149451e+3, 1.5387782e+2, -1209477.9, -1418943.5, -2423.8833, -0.01870814, 0.007102774, -1209449.9, 222547.61, 0.00040130108, 10.001883, 9.9991045 
1.4149667e+3, 1.638768e+2, -1142084.6, -1320336.1, -38602.008, -0.0051283813, -0.007413414, -1134084.1, 199923.17, 0.000036934056, 10.001605, 9.999243 
1.4149874e+3, 1.7387629e+2, -1114992.0, -1250823.6, -37567.43, -0.0346448, 0.011311938, -1105294.3, 130718.9, 0.00000007226826, 10.001094, 9.999293 
1.4150082e+3, 1.8387564e+2, -1054019.0, -1160815.4, -33838.99, -0.056746624, 0.018936746, -1044199.8, 93819.6, 0.0, 10.000797, 9.999382 
1.415029e+3, 1.9387491e+2, -947420.1, -1053910.4, -35226.047, -0.072978094, 0.00429265, -936822.3, 103203.414, 0.0, 10.000835, 9.999424 
1.4150497e+3, 2.0387414e+2, -859446.06, -952552.25, -61726.918, -0.08700587, -0.0135435965, -828685.5, 113346.37, 0.0, 10.000731, 9.999497 
1.4150698e+3, 2.1387342e+2, -805304.06, -871182.7, -57574.176, -0.09611513, -0.03989874, -771912.5, 72124.586, 0.0, 10.000411, 9.999537 
1.41509e+3, 2.2387269e+2, -753769.94, -808933.2, -55162.855, -0.103281386, -0.05577025, -719677.5, 26364.922, 0.0, 10.00015, 9.999418 
1.41511e+3, 2.338721e+2, -679238.06, -720397.06, -54388.766, -0.10770659, -0.05900278, -641665.56, 6381.696, 0.0, 9.999981, 9.999434 
1.4151302e+3, 2.4387127e+2, -621515.3, -671856.5, -60534.17, -0.10600011, -0.068687744, -581127.2, -31073.002, 0.0, 9.999835, 9.999165 
1.41515e+3, 2.538702e+2, -540539.5, -582205.1, -58890.945, -0.095447786, -0.09223406, -498905.1, -46841.402, 0.0, 9.999719, 9.999163 
1.4151701e+3, 2.6386917e+2, -470132.2, -491020.97, -53695.477, -0.07843051, -0.10990089, -425874.75, -71802.37, 0.0, 9.999501, 9.999221 
1.4151904e+3, 2.738683e+2, -422207.16, -411714.3, -53485.883, -0.0503944, -0.122892454, -363218.16, -107139.05, 0.0, 9.999134, 9.999269 
1.4152107e+3, 2.8386736e+2, -369473.63, -372203.03, -32263.672, -0.04730863, -0.1251139, -338545.8, -180458.36, 0.0, 9.9989805, 9.99894 
1.415231e+3, 2.938664e+2, -251661.98, -272413.56, -39012.86, -0.08767473, -0.11262431, -221668.73, -161571.16, 0.0, 9.99915, 9.998871 
1.4152515e+3, 3.038652e+2, -229084.58, -228846.05, -34097.652, -0.1052882, -0.113868296, -194867.45, -194867.45, 0.0, 9.998938, 9.9989395 
1.4152734e+3, 3.138636e+2, -188685.89, 34817.46, -22475.248, 0.002153146, -0.17901725, 37055.14, 37055.14, 0.0, 9.998162, 10.001124 
1.4248854e+3, 1.2385899e+2, -1399763.0, -1731082.4, 86976.47, 0.050916582, -0.0032593205, -1378318.4, 347864.72, 0.0059650266, 10.002913, 9.998482 
1.4249063e+3, 1.3385789e+2, -1296843.1, -1572572.3, -54617.105, 0.13544378, -0.007905638, -1286418.6, 341775.63, 0.0035795863, 10.002675, 9.99902 
1.4249246e+3, 1.4385752e+2, -1247199.0, -1493060.5, -898.38586, -0.08477342, 0.05518278, -1247195.6, 283002.2, 0.0015810293, 10.002323, 9.999057 
1.4249471e+3, 1.538562e+2, -1218555.4, -1425301.1, 13128.577, -0.01207247, 0.013710725, -1217725.1, 214485.23, 0.00041995206, 10.00183, 9.999085 
1.4249684e+3, 1.6385515e+2, -1160395.3, -1331344.3, -21256.17, 0.0053656166, -0.0017730314, -1157791.9, 176428.67, 0.000039492217, 10.001491, 9.999222 
1.4249885e+3, 1.7385471e+2, -1072574.0, -1232645.8, -30966.863, -0.04420273, 0.027323855, -1066792.1, 169433.63, 0.00000008454083, 10.001396, 9.999271 
1.425009e+3, 1.8385412e+2, -999726.3, -1130520.0, -28088.023, -0.070621215, 0.03866069, -993949.5, 144282.19, 0.0, 10.001153, 9.999417 
1.42503e+3, 1.9385335e+2, -967748.8, -1058659.3, -21567.902, -0.06643715, 0.01716446, -962891.5, 77346.586, 0.0, 10.000675, 9.999468 
1.4250503e+3, 2.0385258e+2, -906576.75, -963099.4, -44970.36, -0.07418223, -0.008718752, -881724.6, 60519.355, 0.0, 10.000357, 9.999605 
1.42507e+3, 2.1385187e+2, -814941.75, -862634.1, -47110.28, -0.09904833, -0.0453397, -785986.25, 58262.316, 0.0, 10.000289, 9.999655 
1.42509e+3, 2.2385125e+2, -745673.0, -797367.6, -47360.82, -0.1107131, -0.062438343, -717565.44, 28687.418, 0.0, 10.000174, 9.999486 
1.42511e+3, 2.3385082e+2, -675187.8, -711662.06, -44760.945, -0.10203433, -0.05231486, -645091.4, 3164.7095, 0.0, 9.99998, 9.999494 
1.42513e+3, 2.438501e+2, -623211.06, -664992.7, -49130.457, -0.094432496, -0.058220815, -590714.4, -40452.28, 0.0, 9.99979, 9.999232 
1.4251497e+3, 2.5384897e+2, -551869.25, -579795.56, -48718.234, -0.089485936, -0.092880554, -515152.66, -62881.05, 0.0, 9.999607, 9.999232 
1.4251697e+3, 2.6384792e+2, -479031.75, -500173.94, -49078.5, -0.07736507, -0.11357966, -439398.78, -85118.59, 0.0, 9.999462, 9.999176 
1.4251895e+3, 2.738471e+2, -391590.44, -403670.88, -55208.02, -0.052590907, -0.11833063, -342093.2, -85806.46, 0.0, 9.999373, 9.999208 
1.4252098e+3, 2.838461e+2, -339690.6, -358776.97, -26495.19, -0.045059334, -0.123584054, -321072.34, -162776.64, 0.0, 9.999189, 9.998932 
1.42523e+3, 2.9384497e+2, -293913.25, -293113.13, -17264.125, -0.06969065, -0.12749861, -276244.44, -215937.14, 0.0, 9.998862, 9.998867 
1.4252503e+3, 3.0384392e+2, -273991.44, -243558.17, -15352.587, -0.09441915, -0.11746293, -237158.89, -237158.89, 0.0, 9.9986, 9.999 
1.4252715e+3, 3.1384233e+2, -142806.31, 60723.688, -4720.0684, -0.026827043, -0.18970059, 60833.094, 60833.094, 0.0, 9.998462, 10.001157 
1.4348882e+3, 1.2383815e+2, -1418243.6, -1769287.0, 80786.805, 0.04810224, 0.019629965, -1400544.4, 325843.4, 0.0062221796, 10.002912, 9.99822 
1.4349088e+3, 1.3383679e+2, -1314525.0, -1610219.4, -64630.223, 0.12304518, 0.012785302, -1301015.9, 327386.34, 0.0037388662, 10.002679, 9.998759 
1.4349267e+3, 1.4383623e+2, -1241887.0, -1483285.4, -19773.12, -0.09361528, 0.068024024, -1240278.0, 290129.9, 0.0016542807, 10.002327, 9.999123 
1.4349489e+3, 1.5383491e+2, -1210452.9, -1409254.6, -6119.494, -0.0018205893, 0.018467246, -1210264.6, 222154.75, 0.00044086375, 10.001833, 9.999195 
1.4349699e+3, 1.6383381e+2, -1169593.0, -1351133.6, -26967.56, 0.01815178, -0.0024469735, -1165671.6, 168758.27, 0.000042391872, 10.0014925, 9.999085 
1.4349899e+3, 1.738332e+2, -1083840.9, -1256959.8, -34664.816, -0.056156203, 0.026604043, -1077157.8, 159279.73, 0.00000010052836, 10.001399, 9.999104 
1.43501e+3, 1.8383262e+2, -991609.56, -1114597.0, -44724.26, -0.0880497, 0.043166216, -977065.56, 161377.95, 0.0, 10.001156, 9.999526 
1.4350307e+3, 1.9383213e+2, -957088.9, -1037594.4, -39761.273, -0.05873824, 0.033455763, -940762.06, 99684.805, 0.0, 10.000679, 9.999612 
1.4350508e+3, 2.0383143e+2, -902866.8, -956349.6, -49193.137, -0.057876725, 0.005707829, -873616.56, 68835.11, 0.0, 10.00036, 9.999651 
1.4350703e+3, 2.1383052e+2, -812189.6, -857767.0, -49375.996, -0.09968334, -0.05326562, -780597.1, 63860.88, 0.0, 10.000292, 9.999687 
1.4350902e+3, 2.2382991e+2, -739602.5, -785606.0, -53793.86, -0.116370656, -0.07465299, -704099.06, 42363.125, 0.0, 10.000175, 9.999566 
1.4351101e+3, 2.3382983e+2, -669015.3, -699470.4, -51681.438, -0.09386387, -0.040422052, -630364.75, 18097.582, 0.0, 9.999982, 9.9995775 
1.43513e+3, 2.4382924e+2, -618936.44, -656676.0, -55587.715, -0.07780631, -0.03953954, -579103.06, -28636.06, 0.0, 9.999792, 9.9992895 
1.4351496e+3, 2.5382796e+2, -547907.3, -572310.2, -55146.24, -0.073792055, -0.09422947, -503628.8, -51151.055, 0.0, 9.999609, 9.999284 
1.4351691e+3, 2.638269e+2, -486584.63, -516562.84, -52088.67, -0.07489557, -0.116822146, -447371.3, -92884.52, 0.0, 9.999463, 9.9990635 
1.4351887e+3, 2.7382615e+2, -401186.2, -423704.16, -57535.883, -0.08106316, -0.09715645, -353818.03, -97325.445, 0.0, 9.9993725, 9.999072 
1.4352088e+3, 2.8382507e+2, -328669.72, -335883.4, -37065.883, -0.0631042, -0.10963751, -295035.6, -136533.48, 0.0, 9.999188, 9.99909 
1.4352295e+3, 2.9382363e+2, -280013.5, -264779.38, -29198.318, -0.014201636, -0.16396116, -242220.92, -181705.23, 0.0, 9.998863, 9.999062 
1.4352494e+3, 3.0382285e+2, -268600.78, -232881.66, -21133.572, -0.045532722, -0.14196579, -223071.89, -223071.89, 0.0, 9.998601, 9.999073 
1.4352691e+3, 3.1382176e+2, -142887.25, 60586.246, -7833.9624, -0.10635669, -0.1676668, 60887.418, 60887.418, 0.0, 9.998461, 10.001157 
1.4448912e+3, 1.2381734e+2, -1368522.4, -1752624.6, 80650.77, 0.039846905, 0.035656612, -1352275.1, 374317.28, 0.0065024868, 10.00329, 9.998152 
1.4449117e+3, 1.3381578e+2, -1291367.8, -1605806.6, -53442.145, 0.12326551, 0.015300403, -1282532.9, 346075.78, 0.0039134515, 10.002869, 9.998697 
1.4449292e+3, 1.438151e+2, -1228064.4, -1481372.5, -7986.428, -0.087238766, 0.06390279, -1227812.9, 302802.7, 0.0017359345, 10.002444, 9.999078 
1.4449508e+3, 1.538139e+2, -1179242.5, -1398442.4, -5582.1094, -0.001966281, 0.029381871, -1179100.4, 253525.72, 0.000464682, 10.002067, 9.999155 
1.4449716e+3, 1.6381282e+2, -1137782.4, -1336034.6, -20969.648, 0.015421123, 0.013011121, -1135588.6, 199047.9, 0.000045794342, 10.001713, 9.999082 
1.4449912e+3, 1.7381209e+2, -1085148.1, -1257434.8, -15550.088, -0.055603597, 0.030202044, -1083755.9, 152889.2, 0.00000012546444, 10.00139, 9.999104 
1.445011e+3, 1.8381147e+2, -1004397.44, -1117077.3, -28415.572, -0.08524627, 0.042152066, -997637.2, 141014.11, 0.0, 10.001054, 9.9995575 
1.4450313e+3, 1.9381107e+2, -951445.94, -1030828.44, -32634.059, -0.05559912, 0.03916428, -939752.56, 100901.03, 0.0, 10.000702, 9.999646 
1.4450513e+3, 2.0381045e+2, -886612.9, -945347.7, -35832.844, -0.055038076, 0.014438776, -869650.6, 73007.125, 0.0, 10.000459, 9.999678 
1.4450707e+3, 2.1380955e+2, -796874.75, -847685.9, -35436.29, -0.09795903, -0.046720974, -778677.9, 65986.26, 0.0, 10.000386, 9.99971 
1.4450903e+3, 2.2380896e+2, -726895.94, -773213.6, -46826.38, -0.11383811, -0.06848384, -697814.56, 48853.496, 0.0, 10.000237, 9.99962 
1.4451101e+3, 2.3380896e+2, -667528.44, -692301.2, -47723.402, -0.08730882, -0.032496322, -630610.2, 18057.336, 0.0, 9.999966, 9.999635 
1.4451298e+3, 2.4380842e+2, -623342.06, -656881.75, -51211.652, -0.07066526, -0.029931704, -586224.44, -35552.81, 0.0, 9.999754, 9.999307 
1.4451492e+3, 2.5380722e+2, -543175.06, -569129.75, -53876.48, -0.071800046, -0.08205622, -500735.03, -48052.957, 0.0, 9.999639, 9.999291 
1.4451686e+3, 2.6380613e+2, -480889.34, -513835.44, -48629.934, -0.07627337, -0.10547952, -446018.16, -91327.11, 0.0, 9.999503, 9.999063 
1.445188e+3, 2.738053e+2, -406841.28, -426524.25, -44826.465, -0.082716264, -0.093658246, -370788.7, -114091.25, 0.0, 9.999334, 9.99907 
1.4452079e+3, 2.8380418e+2, -333702.66, -328653.4, -27301.082, -0.063260056, -0.11367108, -303760.47, -145053.39, 0.0, 9.999113, 9.999176 
1.4452283e+3, 2.9380283e+2, -281216.0, -254736.47, -27284.197, -0.010502214, -0.17024659, -237649.38, -176929.8, 0.0, 9.99881, 9.999157 
1.445248e+3, 3.0380225e+2, -274679.5, -232626.3, -19292.959, -0.043712735, -0.13248584, -225116.31, -225116.31, 0.0, 9.998547, 9.999101 
1.4452675e+3, 3.1380105e+2, -157611.8, 47409.12, -6533.824, -0.11428906, -0.17262971, 47617.137, 47617.137, 0.0, 9.998386, 10.001102 
1.4548944e+3, 1.2379657e+2, -1359178.0, -1734214.1, 66121.266, 0.025158111, 0.043732595, -1347861.9, 378934.97, 0.006805916, 10.003294, 9.998277 
1.4549145e+3, 1.3379492e+2, -1281365.0, -1585759.6, -70574.54, 0.1363823, -0.0010298548, -1265798.3, 363014.88, 0.0041034617, 10.0028715, 9.998836 
1.454932e+3, 1.4379418e+2, -1238918.3, -1504458.4, -23788.906, -0.065155454, 0.042034302, -1236804.0, 294016.38, 0.0018261567, 10.002446, 9.998919 
1.4549528e+3, 1.5379319e+2, -1192441.4, -1426822.3, -20297.52, -0.012801133, 0.046368595, -1190696.6, 242133.58, 0.00049169204, 10.00207, 9.99896 
1.454973e+3, 1.637922e+2, -1128649.8, -1318202.5, -33852.535, -0.0033829045, 0.04483023, -1122785.5, 212054.64, 0.0000497536, 10.001717, 9.999203 
1.4549927e+3, 1.7379138e+2, -1073214.5, -1233729.8, -28031.3, -0.04284009, 0.038299754, -1068460.1, 168388.31, 0.00000016567238, 10.001394, 9.999266 
1.4550123e+3, 1.837907e+2, -1007085.06, -1123714.9, -41887.133, -0.062397975, 0.035883676, -993600.5, 145254.45, 0.0, 10.001058, 9.999511 
1.455032e+3, 1.9379024e+2, -955950.4, -1041352.5, -45932.48, -0.056968924, 0.034423355, -935936.44, 104921.73, 0.0, 10.000706, 9.999573 
1.4550516e+3, 2.0378965e+2, -885902.2, -944948.7, -39687.68, -0.065670766, 0.017400103, -865961.0, 76901.305, 0.0, 10.000463, 9.99968 
1.4550711e+3, 2.1378894e+2, -795870.0, -846146.6, -37828.617, -0.09419295, -0.026325803, -775588.75, 69278.336, 0.0, 10.000387, 9.999721 
1.4550906e+3, 2.2378841e+2, -724935.6, -769386.4, -55799.47, -0.103546165, -0.044506628, -687098.1, 59772.45, 0.0, 10.000237, 9.999647 
1.4551102e+3, 2.3378822e+2, -665117.75, -687954.44, -57505.754, -0.082478166, -0.028144892, -617907.7, 30963.941, 0.0, 9.999967, 9.999663 
1.4551295e+3, 2.4378768e+2, -624812.56, -660731.9, -55609.688, -0.072761685, -0.028875696, -584334.3, -33458.258, 0.0, 9.999756, 9.99928 
1.4551486e+3, 2.5378665e+2, -545590.7, -574485.8, -57358.49, -0.082759336, -0.057247207, -500888.22, -48003.49, 0.0, 9.999639, 9.999255 
1.455168e+3, 2.6378557e+2, -473916.75, -499417.7, -53842.094, -0.08156949, -0.0804719, -431336.0, -76442.65, 0.0, 9.999502, 9.999163 
1.4551875e+3, 2.7378452e+2, -398714.94, -409617.13, -50291.313, -0.060230494, -0.10643376, -353580.16, -96678.56, 0.0, 9.999333, 9.999187 
1.4552072e+3, 2.8378338e+2, -332060.5, -325546.56, -37273.375, -0.04715384, -0.13430619, -291388.13, -132477.16, 0.0, 9.999113, 9.999198 
1.4552267e+3, 2.9378247e+2, -280202.3, -253672.31, -38035.727, -0.053805258, -0.14909539, -226654.86, -165735.3, 0.0, 9.998813, 9.999163 
1.455246e+3, 3.0378208e+2, -275832.6, -235733.42, -25540.793, -0.0852388, -0.092127256, -223312.73, -223312.73, 0.0, 9.9985485, 9.999079 
1.4552663e+3, 3.137802e+2, -166498.92, 30324.428, -9790.509, -0.059443053, -0.19982968, 30810.234, 30810.234, 0.0, 9.998379, 10.000989 
1.4648975e+3, 1.2377618e+2, -1339898.1, -1723589.4, 91825.6, 0.018043544, 0.0392254, -1319054.5, 407942.44, 0.007131011, 10.003425, 9.998287 
1.4649175e+3, 1.3377461e+2, -1277697.1, -1583272.1, -58022.934, 0.140119, 0.0016808321, -1267050.6, 361961.53, 0.004308632, 10.002895, 9.99884 
1.4649345e+3, 1.4377382e+2, -1241952.0, -1515647.0, -9153.616, -0.05538727, 0.042826824, -1241646.3, 289373.66, 0.001924857, 10.002469, 9.99883 
1.4649548e+3, 1.5377274e+2, -1174543.6, -1429320.9, 2611.6897, -0.016403599, 0.0480057, -1174516.9, 258514.19, 0.0005218786, 10.002242, 9.998858 
1.4649749e+3, 1.637717e+2, -1102343.6, -1308151.5, -15852.639, -0.008420712, 0.048981506, -1101129.8, 233911.84, 0.0000541964, 10.00191, 9.999178 
1.4649943e+3, 1.7377093e+2, -1072157.0, -1234732.0, -24223.293, -0.031913802, 0.04776584, -1068624.5, 168424.97, 0.00000022299002, 10.00141, 9.99925 
1.4650136e+3, 1.8377024e+2, -1005865.7, -1122226.8, -37819.824, -0.048648216, 0.04502442, -994653.75, 144402.28, 0.0, 10.001063, 9.999517 
1.4650328e+3, 1.937697e+2, -917445.1, -1021682.56, -35093.043, -0.060566224, 0.034108806, -906731.7, 134328.23, 0.0, 10.000966, 9.999581 
1.465052e+3, 2.0376912e+2, -844139.2, -922008.1, -26140.754, -0.07320849, 0.015692402, -836177.7, 106886.3, 0.0, 10.000738, 9.999703 
1.4650716e+3, 2.1376854e+2, -806873.4, -848585.1, -23665.65, -0.08481054, -0.016505526, -796185.2, 48882.383, 0.0, 10.0003, 9.999745 
1.4650908e+3, 2.2376807e+2, -759847.6, -787794.75, -39689.316, -0.08904201, -0.029292332, -731743.9, 15326.773, 0.0, 10.000005, 9.999633 
1.46511e+3, 2.3376782e+2, -671072.56, -693005.4, -44908.82, -0.08182946, -0.017384483, -635810.56, 13261.898, 0.0, 9.999936, 9.999643 
1.4651291e+3, 2.4376723e+2, -616327.9, -657196.94, -44466.85, -0.07812797, -0.022043418, -587825.0, -36747.465, 0.0, 9.999818, 9.999274 
1.4651483e+3, 2.5376615e+2, -550203.1, -577208.7, -44339.906, -0.08113866, -0.053351466, -517355.56, -64269.035, 0.0, 9.99961, 9.999249 
1.4651676e+3, 2.6376513e+2, -481404.56, -491348.0, -40419.28, -0.07587716, -0.076020606, -445652.38, -90557.82, 0.0, 9.999401, 9.999267 
1.4651869e+3, 2.7376425e+2, -410780.66, -402317.84, -37260.973, -0.055534255, -0.09657987, -369048.78, -111947.914, 0.0, 9.999194, 9.999305 
1.4652061e+3, 2.8376317e+2, -345653.03, -333300.47, -25816.645, -0.046765488, -0.12525974, -312931.6, -153821.97, 0.0, 9.999025, 9.9991865 
1.4652255e+3, 2.9376215e+2, -267344.88, -250628.33, -29648.277, -0.06277257, -0.14746065, -228182.69, -167063.34, 0.0, 9.998915, 9.999134 
1.4652444e+3, 3.037619e+2, -259619.42, -216980.31, -20637.33, -0.09429065, -0.07802698, -208627.95, -208627.95, 0.0, 9.998614, 9.999175 
1.4652646e+3, 3.137601e+2, -213968.47, 7886.634, 5700.886, -0.055517666, -0.18818326, 8033.03, 8033.03, 0.0, 9.998053, 10.000991 
1.474901e+3, 1.2375623e+2, -1347862.6, -1740425.5, 73421.95, 0.018726734, 0.020689534, -1334579.8, 392612.44, 0.007477118, 10.003426, 9.998171 
1.4749204e+3, 1.3375492e+2, -1286948.3, -1602990.5, -78985.23, 0.1339199, 0.02383409, -1268307.8, 360897.47, 0.004529035, 10.002897, 9.998704 
1.4749369e+3, 1.4375408e+2, -1243407.0, -1519269.4, -20258.592, -0.058738448, 0.06703865, -1241927.1, 289286.7, 0.00203202, 10.002471, 9.998805 
1.4749572e+3, 1.537526e+2, -1174807.3, -1430747.8, -6290.905, -0.012897582, 0.034182973, -1174652.8, 258575.67, 0.0005551443, 10.002245, 9.998848 
1.4749768e+3, 1.6375138e+2, -1113999.3, -1333511.4, -34035.28, 0.00035420613, 0.0250592, -1108843.1, 226397.64, 0.000059017875, 10.001914, 9.999002 
1.4749958e+3, 1.7375076e+2, -1085434.4, -1263441.6, -43450.816, -0.022912027, 0.058330357, -1075394.5, 161853.63, 0.0000002932695, 10.001413, 9.999052 
1.4750147e+3, 1.8375011e+2, -1001506.1, -1114248.4, -43496.84, -0.04415985, 0.06941714, -986675.56, 152578.88, 0.0, 10.001067, 9.999571 
1.4750338e+3, 1.9374947e+2, -910881.44, -1008990.2, -38669.688, -0.066570744, 0.0383414, -897472.44, 143786.42, 0.0, 10.00097, 9.999667 
1.4750527e+3, 2.0374884e+2, -840771.7, -915849.25, -41138.555, -0.07798266, 0.009623712, -822619.0, 120643.92, 0.0, 10.000741, 9.999745 
1.4750719e+3, 2.1374835e+2, -804060.9, -843749.2, -40044.406, -0.07016763, -0.016916495, -779213.4, 66052.28, 0.0, 10.000304, 9.999778 
1.4750911e+3, 2.2374794e+2, -763388.56, -796007.8, -43579.05, -0.070595294, -0.02261392, -733167.1, 14101.157, 0.0, 10.000008, 9.999576 
1.4751099e+3, 2.3374774e+2, -675987.3, -703593.4, -46848.83, -0.08518128, -0.00057988975, -640950.44, 8319.805, 0.0, 9.999937, 9.999571 
1.475129e+3, 2.4374706e+2, -615660.56, -655846.8, -50990.617, -0.08683925, -0.00970628, -580947.0, -29670.676, 0.0, 9.999817, 9.999284 
1.4751479e+3, 2.5374573e+2, -548914.3, -574564.0, -51421.85, -0.06823526, -0.06906122, -508742.13, -55454.46, 0.0, 9.999609, 9.999269 
1.475167e+3, 2.6374477e+2, -473979.0, -476123.4, -47281.492, -0.060212027, -0.09087241, -427757.56, -72462.57, 0.0, 9.9994, 9.9993725 
1.4751859e+3, 2.7374443e+2, -402574.53, -385657.44, -44092.96, -0.067064606, -0.065953515, -349219.03, -91923.17, 0.0, 9.999195, 9.999419 
1.4752051e+3, 2.8374347e+2, -348878.2, -340149.06, -29562.043, -0.06104026, -0.08875458, -314631.13, -155327.42, 0.0, 9.999024, 9.999141 
1.4752246e+3, 2.9374185e+2, -272575.28, -260774.9, -32892.734, -0.04144316, -0.16333726, -233257.36, -171938.17, 0.0, 9.998911, 9.999067 
1.4752434e+3, 3.0374172e+2, -245956.47, -188110.23, -39119.637, -0.0742676, -0.08807896, -168382.64, -168382.64, 0.0, 9.9986105, 9.999376 
1.4752622e+3, 3.1374073e+2, -206098.19, 23242.275, -12853.043, -0.09699519, -0.14022663, 23960.357, 23960.357, 0.0, 9.998055, 10.001097 
1.4849046e+3, 1.2373681e+2, -1329738.3, -1740469.4, 83577.875, 0.023390897, 0.025132235, -1313382.8, 413999.88, 0.007846053, 10.003592, 9.99809 
1.4849232e+3, 1.3373542e+2, -1254570.5, -1599291.6, -68734.12, 0.12830251, 0.028214656, -1241371.0, 388025.56, 0.0047656777, 10.003174, 9.998596 
1.4849395e+3, 1.4373441e+2, -1206723.4, -1509718.0, -5418.0103, -0.062228255, 0.065920755, -1206626.5, 324780.22, 0.0021480275, 10.00276, 9.998731 
1.4849594e+3, 1.5373293e+2, -1160767.4, -1431470.1, 5129.863, -0.008752336, 0.03930923, -1160670.1, 272751.25, 0.0005915989, 10.002376, 9.998779 
1.4849788e+3, 1.6373165e+2, -1103720.5, -1339057.1, -25550.867, 0.0063982364, 0.0325443, -1100978.4, 234456.16, 0.0000641918, 10.002031, 9.998907 
1.4849971e+3, 1.7373088e+2, -1042930.6, -1254111.1, -28499.533, -0.02564301, 0.060742456, -1039152.1, 198291.2, 0.00000037325287, 10.001755, 9.998951 
1.4850159e+3, 1.8373017e+2, -951551.7, -1093403.6, -23080.326, -0.049088873, 0.071374156, -947890.8, 191559.72, 0.0, 10.001425, 9.99954 
1.4850347e+3, 1.9372956e+2, -906203.9, -1008821.1, -25845.17, -0.06268274, 0.04786161, -900062.1, 141392.34, 0.0, 10.001012, 9.999647 
1.4850534e+3, 2.0372897e+2, -853945.1, -922122.6, -37739.98, -0.07022071, 0.022876136, -837177.7, 106280.68, 0.0, 10.000651, 9.999744 
1.4850722e+3, 2.1372846e+2, -793494.6, -838369.9, -39866.434, -0.066960186, -0.007174031, -770185.4, 75276.1, 0.0, 10.000377, 9.999779 
1.485091e+3, 2.2372803e+2, -750222.2, -791773.06, -37386.813, -0.069746815, -0.014419163, -728226.25, 19238.178, 0.0, 10.000109, 9.999556 
1.4851099e+3, 2.3372781e+2, -690700.2, -713454.1, -36605.816, -0.08281167, 0.010398679, -663744.1, -14277.578, 0.0, 9.999849, 9.999545 
1.4851287e+3, 2.4372716e+2, -640353.7, -663359.1, -38750.06, -0.08396476, 0.002944016, -611435.1, -59962.65, 0.0, 9.999629, 9.999322 
1.4851476e+3, 2.537259e+2, -566024.94, -577814.8, -37877.926, -0.06677237, -0.05678176, -533585.94, -80102.48, 0.0, 9.999471, 9.999312 
1.4851664e+3, 2.63725e+2, -484076.13, -476612.66, -35106.78, -0.061154444, -0.07522819, -445039.84, -89549.664, 0.0, 9.999313, 9.999411 
1.485185e+3, 2.737248e+2, -406215.88, -383372.22, -37903.867, -0.07177254, -0.042276192, -355206.66, -97716.57, 0.0, 9.999154, 9.9994545 
1.485204e+3, 2.8372386e+2, -351773.13, -328684.38, -21899.318, -0.06499274, -0.06863738, -315472.9, -155975.42, 0.0, 9.998951, 9.999254 
1.4852233e+3, 2.9372218e+2, -297508.97, -258876.31, -12209.885, -0.037726346, -0.16152638, -255340.9, -193827.92, 0.0, 9.998681, 9.99919 
1.4852418e+3, 3.037222e+2, -274685.06, -192248.16, -22927.213, -0.07298628, -0.08167813, -186300.77, -186300.77, 0.0, 9.998373, 9.999461 
1.48526e+3, 3.137214e+2, -212973.92, 12994.837, -6737.715, -0.117014326, -0.12436292, 13195.558, 13195.558, 0.0, 9.998038, 10.001034 
1.4949082e+3, 1.2371801e+2, -1333362.0, -1748361.6, 67804.914, 0.031223163, 0.053249378, -1322564.6, 405002.94, 0.008242229, 10.003593, 9.998035 
1.4949264e+3, 1.337161e+2, -1260142.8, -1611596.3, -85384.02, 0.12333807, 0.014335873, -1240497.3, 389088.66, 0.005020872, 10.003177, 9.99851 
1.4949422e+3, 1.4371485e+2, -1215136.1, -1528177.6, -21294.127, -0.06590779, 0.038588535, -1213694.3, 317903.97, 0.0022740322, 10.002764, 9.998603 
1.4949618e+3, 1.5371375e+2, -1169517.4, -1450651.9, -9913.373, -0.004300309, 0.06342175, -1169168.3, 264441.53, 0.0006317744, 10.002378, 9.998647 
1.4949809e+3, 1.6371256e+2, -1104651.6, -1342021.9, -36957.254, 0.009467548, 0.07186737, -1099030.8, 236591.61, 0.000069858055, 10.002035, 9.998886 
1.4949988e+3, 1.7371131e+2, -1042983.0, -1255315.8, -39241.29, -0.04019175, 0.05529702, -1035962.94, 201672.11, 0.00000046463128, 10.001759, 9.998941 
1.4950171e+3, 1.837104e+2, -958993.56, -1110021.4, -38248.22, -0.063721746, 0.05109682, -949859.5, 189784.67, 0.0, 10.001429, 9.999425 
1.4950357e+3, 1.9371003e+2, -914624.6, -1027476.1, -41464.484, -0.04929085, 0.06234966, -901027.75, 140619.03, 0.0, 10.001016, 9.999518 
1.4950544e+3, 2.0370951e+2, -856682.3, -928795.44, -48615.46, -0.050183125, 0.05488987, -832211.7, 111438.75, 0.0, 10.000654, 9.999698 
1.4950727e+3, 2.1370883e+2, -795276.1, -843095.2, -49894.54, -0.0748588, 0.0125889145, -763858.2, 81796.93, 0.0, 10.00038, 9.999745 
1.495091e+3, 2.237083e+2, -748808.0, -789810.3, -46745.508, -0.08621748, -0.004602454, -718265.6, 29393.508, 0.0, 10.000112, 9.999568 
1.4951098e+3, 2.3370807e+2, -689302.94, -711167.56, -45772.105, -0.07542921, 0.01582422, -653175.7, -3514.2441, 0.0, 9.99985, 9.99956 
1.4951284e+3, 2.4370751e+2, -636141.25, -654846.7, -44436.895, -0.07020784, 0.015783263, -600083.5, -48417.08, 0.0, 9.999629, 9.999381 
1.4951469e+3, 2.5370654e+2, -561643.56, -568783.56, -42926.09, -0.0759204, -0.018157285, -522139.28, -68464.77, 0.0, 9.99947, 9.999375 
1.4951655e+3, 2.6370576e+2, -486296.63, -481057.6, -40108.48, -0.07779054, -0.030838348, -443483.2, -87802.555, 0.0, 9.999311, 9.999381 
1.4951842e+3, 2.7370524e+2, -409777.06, -390059.84, -42857.31, -0.07075588, -0.025066456, -355941.88, -98257.984, 0.0, 9.999149, 9.999411 
1.495203e+3, 2.8370425e+2, -334494.5, -291943.2, -30598.213, -0.05986541, -0.06387288, -275950.84, -116259.51, 0.0, 9.998945, 9.99951 
1.4952219e+3, 2.93703e+2, -277320.94, -216346.05, -21865.6, -0.04996702, -0.14339653, -209315.64, -147614.13, 0.0, 9.998677, 9.999485 
1.49524e+3, 3.0370325e+2, -276415.38, -195501.48, -35010.72, -0.08879017, -0.06020978, -182455.95, -182455.95, 0.0, 9.99837, 9.999441 
1.495258e+3, 3.13702e+2, -228557.61, -19216.352, -16521.035, -0.11872988, -0.13575538, -17920.547, -17920.547, 0.0, 9.998036, 10.0008135 
1.504912e+3, 1.23699196e+2, -1314905.1, -1743370.3, 73289.12, 0.03421453, 0.062088467, -1302715.8, 425036.8, 0.008671076, 10.00374, 9.997998 
1.5049297e+3, 1.3369718e+2, -1215452.6, -1598326.1, -79847.01, 0.11891051, 0.019268686, -1199468.1, 430303.38, 0.00529775, 10.003524, 9.998434 
1.504945e+3, 1.4369576e+2, -1165481.9, -1516029.9, -20665.074, -0.06613631, 0.034654558, -1164267.9, 367517.6, 0.0024117443, 10.003158, 9.998495 
1.5049644e+3, 1.5369458e+2, -1149561.8, -1453709.9, -8710.608, 0.00264377, 0.06323004, -1149312.5, 284485.5, 0.0006764208, 10.002572, 9.998532 
1.504983e+3, 1.6369332e+2, -1093052.4, -1336488.4, -27165.814, 0.018319217, 0.07399136, -1090057.6, 245753.27, 0.0000762831, 10.002116, 9.998884 
1.5050006e+3, 1.7369212e+2, -1024974.6, -1244820.4, -26993.19, -0.040275317, 0.056499105, -1021708.9, 216114.39, 0.00000057502143, 10.001876, 9.998957 
1.5050186e+3, 1.8369116e+2, -947762.6, -1113395.9, -30248.943, -0.06674414, 0.05171911, -942411.25, 197421.44, 0.0, 10.001545, 9.999346 
1.5050368e+3, 1.9369069e+2, -913778.25, -1037547.1, -32127.17, -0.0448501, 0.06285343, -905935.8, 135900.89, 0.0, 10.001068, 9.999423 
1.505055e+3, 2.0369016e+2, -851579.44, -927448.6, -29913.35, -0.04542354, 0.05802866, -841204.2, 102636.76, 0.0, 10.000695, 9.999687 
1.505073e+3, 2.1368955e+2, -778356.06, -834649.56, -27805.86, -0.081636354, 0.02339749, -766937.6, 78907.28, 0.0, 10.000496, 9.999747 
1.505091e+3, 2.2368902e+2, -735210.06, -786756.7, -28175.283, -0.0977055, 0.00924509, -722798.1, 25050.707, 0.0, 10.000221, 9.999536 
1.5051095e+3, 2.3368871e+2, -697000.1, -719441.2, -32214.186, -0.08016504, 0.024796523, -674108.25, -24256.176, 0.0, 9.999819, 9.999518 
1.505128e+3, 2.4368814e+2, -651824.4, -658167.75, -28549.098, -0.070831984, 0.024476891, -626271.3, -74414.07, 0.0, 9.999505, 9.999417 
1.5051462e+3, 2.536873e+2, -578264.06, -571586.2, -27945.271, -0.077016115, -0.0019551222, -546781.06, -92916.84, 0.0, 9.999335, 9.99942 
1.5051647e+3, 2.636866e+2, -511361.78, -491454.94, -26254.086, -0.08015348, -0.0119919935, -473330.84, -117460.89, 0.0, 9.999134, 9.999394 
1.5051831e+3, 2.73686e+2, -449025.44, -408355.53, -26078.408, -0.07590287, -0.011888875, -395620.97, -137747.06, 0.0, 9.998879, 9.999415 
1.5052016e+3, 2.8368506e+2, -372039.5, -297781.1, -17739.68, -0.06410224, -0.05274099, -293760.88, -133879.77, 0.0, 9.998636, 9.999619 
1.5052205e+3, 2.9368398e+2, -307448.9, -216872.4, -21762.834, -0.04649543, -0.12707864, -211914.8, -150025.47, 0.0, 9.998411, 9.999609 
1.5052384e+3, 3.0368435e+2, -297602.63, -187745.42, -38536.008, -0.08312113, -0.04240548, -175575.78, -175575.78, 0.0, 9.998149, 9.9996 
1.5052558e+3, 3.1368312e+2, -253600.66, -30945.285, -2674.1099, -0.12666522, -0.13222525, -30913.174, -30913.174, 0.0, 9.997865, 10.000815 
1.5149155e+3, 1.2368042e+2, -1316395.9, -1746674.9, 63625.992, 0.03161967, 0.051023584, -1307184.6, 420752.44, 0.00913664, 10.003742, 9.997975 
1.5149331e+3, 1.3367869e+2, -1219962.0, -1608325.6, -88845.77, 0.11452397, 0.043313794, -1200602.0, 429351.2, 0.0055990065, 10.003527, 9.9983635 
1.5149483e+3, 1.4367715e+2, -1171357.0, -1529422.0, -42210.02, -0.06323338, 0.0549062, -1166448.5, 365519.63, 0.0025626542, 10.003162, 9.998402 
1.5149671e+3, 1.5367542e+2, -1156243.6, -1468757.8, -31512.582, 0.0120829735, 0.038637873, -1153097.6, 280888.13, 0.000726107, 10.002576, 9.998428 
1.5149853e+3, 1.6367401e+2, -1091317.6, -1333934.0, -38332.383, 0.032831803, 0.038506445, -1085405.4, 250594.83, 0.00008370529, 10.002119, 9.9989 
1.5150025e+3, 1.7367326e+2, -1021967.3, -1239586.5, -36213.164, -0.026151031, 0.06402125, -1016099.44, 221908.5, 0.00000071310234, 10.001879, 9.998991 
1.5150201e+3, 1.8367244e+2, -950660.44, -1120464.8, -47335.21, -0.05829249, 0.07310902, -938356.6, 201659.4, 0.0, 10.001549, 9.999296 
1.5150379e+3, 1.9367157e+2, -917645.5, -1046861.4, -50201.1, -0.04923741, 0.04985771, -900434.56, 141589.55, 0.0, 10.001072, 9.999358 
1.5150556e+3, 2.0367089e+2, -849438.06, -924182.9, -38692.844, -0.055929832, 0.033046428, -833016.1, 111013.79, 0.0, 10.000699, 9.999708 
1.5150733e+3, 2.1367058e+2, -775802.8, -829950.56, -35081.133, -0.08762571, 0.025343304, -758563.25, 87467.81, 0.0, 10.000498, 9.999779 
1.5150912e+3, 2.236702e+2, -740715.3, -798516.4, -42008.035, -0.10442022, 0.026838215, -718626.5, 29407.316, 0.0, 10.000221, 9.999455 
1.5151091e+3, 2.3366973e+2, -703639.5, -734004.2, -46880.574, -0.096432336, 0.037239194, -669544.2, -19505.383, 0.0, 9.999821, 9.999418 
1.5151273e+3, 2.4366903e+2, -650749.9, -656729.8, -35286.06, -0.085390456, 0.0294272, -618327.3, -66282.016, 0.0, 9.999507, 9.999427 
1.5151456e+3, 2.5366813e+2, -576554.94, -568062.6, -33375.027, -0.07097303, -0.006958704, -538664.7, -84611.74, 0.0, 9.999334, 9.999446 
1.515164e+3, 2.636674e+2, -508472.9, -485076.13, -34408.176, -0.06936339, -0.017343959, -460432.06, -104373.64, 0.0, 9.999131, 9.99944 
1.515182e+3, 2.7366707e+2, -446124.63, -402158.5, -34515.1, -0.086857066, -0.0024100614, -383220.34, -125159.63, 0.0, 9.998878, 9.999459 
1.5152001e+3, 2.836662e+2, -374511.75, -302549.66, -25270.838, -0.07736594, -0.035455957, -294561.94, -134494.55, 0.0, 9.998633, 9.999587 
1.515219e+3, 2.9366505e+2, -311124.1, -222961.14, -29223.0, -0.029204221, -0.112522274, -214154.42, -152077.63, 0.0, 9.998404, 9.999572 
1.5152366e+3, 3.0366555e+2, -276615.13, -142694.97, -48080.746, -0.058232795, -0.028530417, -127220.766, -127220.766, 0.0, 9.998141, 9.999914 
1.5152535e+3, 3.136647e+2, -239670.58, -2448.5146, -10537.939, -0.14045718, -0.11342995, -1981.3157, -1981.3157, 0.0, 9.997866, 10.001012 
1.5249193e+3, 1.23662114e+2, -1258251.8, -1720828.5, 73598.61, 0.0153778745, 0.05633058, -1246824.0, 481292.97, 0.009639791, 10.004159, 9.9979515 
1.5249367e+3, 1.3366038e+2, -1219516.6, -1615857.5, -79045.484, 0.11588031, 0.05312768, -1204333.6, 425799.72, 0.005925827, 10.003567, 9.998292 
1.5249515e+3, 1.4365868e+2, -1181853.6, -1537697.5, -31412.123, -0.050837032, 0.055849113, -1179102.0, 353047.53, 0.0027274925, 10.003105, 9.998372 
1.5249698e+3, 1.5365687e+2, -1116291.1, -1452361.4, -14938.24, 0.007741443, 0.034159675, -1115628.4, 318539.28, 0.00078103994, 10.002865, 9.998401 
1.5249874e+3, 1.6365544e+2, -1038392.9, -1312239.0, -20068.877, 0.025110027, 0.033815704, -1036929.94, 299252.28, 0.00009220657, 10.002501, 9.998865 
1.5250047e+3, 1.7365472e+2, -1017164.75, -1241641.9, -23769.67, -0.016551826, 0.066255674, -1014675.4, 223514.27, 0.0000008739153, 10.001931, 9.998951 
1.5250218e+3, 1.8365388e+2, -964210.5, -1133275.5, -37160.74, -0.046173837, 0.07717928, -956403.06, 183795.05, 0.0, 10.001483, 9.999239 
1.525039e+3, 1.9365288e+2, -897574.6, -1043866.1, -39825.047, -0.05894029, 0.04780031, -887435.7, 154771.83, 0.0, 10.00124, 9.999297 
1.5250562e+3, 2.0365213e+2, -825577.9, -919331.5, -31093.025, -0.07216242, 0.032223944, -816203.3, 128010.73, 0.0, 10.000893, 9.999647 
1.5250738e+3, 2.1365191e+2, -798710.0, -847928.94, -34770.164, -0.08485332, 0.038326543, -780721.44, 65493.363, 0.0, 10.000371, 9.999716 
1.5250914e+3, 2.2365153e+2, -776515.9, -814897.25, -40965.22, -0.09417528, 0.043091144, -750469.06, -2251.3901, 0.0, 9.999973, 9.999462 
1.5251088e+3, 2.3365092e+2, -707866.2, -733981.56, -37360.28, -0.09866202, 0.038486015, -681347.44, -31123.912, 0.0, 9.999784, 9.999435 
1.5251267e+3, 2.4365021e+2, -645174.06, -651799.3, -19882.283, -0.09477057, 0.02502644, -628330.3, -76100.02, 0.0, 9.999537, 9.999446 
1.5251447e+3, 2.536494e+2, -596958.1, -575970.25, -18636.133, -0.0779382, -0.00038515773, -565076.6, -110839.68, 0.0, 9.999187, 9.999461 
1.5251629e+3, 2.636488e+2, -540135.7, -492941.44, -19057.996, -0.07396535, -0.0044351476, -486206.53, -129964.95, 0.0, 9.998883, 9.999505 
1.5251805e+3, 2.7364847e+2, -473838.72, -407417.66, -17704.635, -0.08955369, 0.008106735, -402993.2, -144749.63, 0.0, 9.998653, 9.99953 
1.5251987e+3, 2.8364772e+2, -407817.06, -309132.13, -6138.899, -0.080793485, -0.026283706, -308751.72, -148502.03, 0.0, 9.998366, 9.99967 
1.5252171e+3, 2.9364663e+2, -366623.94, -239711.13, -1882.0046, -0.037500355, -0.10202226, -239683.22, -177425.23, 0.0, 9.997981, 9.99966 
1.5252346e+3, 3.0364725e+2, -326606.63, -151158.03, -15493.515, -0.061433185, -0.019421568, -149800.33, -149800.33, 0.0, 9.997733, 10.0000515 
1.5252514e+3, 3.1364664e+2, -260462.02, -15128.237, 9539.1045, -0.13043316, -0.09689519, -14757.8955, -14757.8955, 0.0, 9.997735, 10.000986 
1.5349232e+3, 1.2364432e+2, -1260064.0, -1725482.8, 49805.535, -0.01626096, 0.078420185, -1254793.8, 473498.2, 0.010178839, 10.004164, 9.997918 
1.5349403e+3, 1.3364223e+2, -1224950.5, -1627642.6, -102199.67, 0.12297542, 0.04833912, -1200498.0, 429813.63, 0.0062783384, 10.003569, 9.998211 
1.5349549e+3, 1.4364037e+2, -1179295.5, -1532871.0, -43098.938, -0.028662227, 0.036979835, -1174117.8, 358211.7, 0.002906611, 10.003107, 9.9984045 
1.5349723e+3, 1.5363896e+2, -1112253.1, -1444905.0, -24333.701, -0.01071831, 0.049796287, -1110482.5, 323861.03, 0.0008412227, 10.002868, 9.998451 
1.5349896e+3, 1.6363762e+2, -1044376.7, -1325849.5, -40344.12, -0.005289219, 0.060182806, -1038708.2, 297648.75, 0.00010173792, 10.002504, 9.998771 
1.5350066e+3, 1.736365e+2, -1024938.06, -1259055.1, -45555.473, -0.011699401, 0.06346216, -1016386.1, 221982.14, 0.0000010362653, 10.001936, 9.998831 
1.5350235e+3, 1.8363544e+2, -968298.8, -1142929.6, -48083.977, -0.030665403, 0.064140506, -955934.5, 184444.28, 0.0, 10.001488, 9.999171 
1.53504e+3, 1.936346e+2, -901223.1, -1052484.3, -48878.934, -0.07402825, 0.0563206, -886803.0, 155584.06, 0.0, 10.001244, 9.999237 
1.5350568e+3, 2.036339e+2, -835099.8, -940147.2, -49354.715, -0.09414332, 0.054935653, -815549.75, 128843.83, 0.0, 10.0008955, 9.999503 
1.5350743e+3, 2.1363355e+2, -809353.44, -871234.75, -54193.047, -0.07370679, 0.062101178, -777890.5, 68505.79, 0.0, 10.000375, 9.999555 
1.5350915e+3, 2.23633e+2, -769807.6, -801981.0, -49251.6, -0.06778111, 0.058148023, -734082.1, 14318.325, 0.0, 9.999976, 9.99955 
1.5351088e+3, 2.336323e+2, -698835.1, -715779.5, -43754.355, -0.08766651, 0.029002152, -662740.25, -12333.652, 0.0, 9.999785, 9.99956 
1.5351261e+3, 2.436316e+2, -643515.4, -648527.75, -31636.305, -0.09931577, 0.0115512945, -614286.1, -61873.613, 0.0, 9.9995365, 9.999469 
1.5351439e+3, 2.5363114e+2, -596852.06, -575774.56, -30976.57, -0.09731632, 0.01710478, -553593.06, -99176.516, 0.0, 9.9991865, 9.999464 
1.5351614e+3, 2.6363072e+2, -535104.4, -482044.25, -27280.414, -0.09347453, 0.025710555, -470520.88, -114100.85, 0.0, 9.99888, 9.999581 
1.5351793e+3, 2.7363026e+2, -468678.75, -395195.7, -25337.496, -0.0848705, 0.019214988, -387306.2, -128883.14, 0.0, 9.998646, 9.999618 
1.535197e+3, 2.8362948e+2, -396013.47, -283092.7, -18865.697, -0.07515382, -0.025007641, -280024.2, -119595.54, 0.0, 9.998359, 9.999854 
1.5352148e+3, 2.9362872e+2, -352362.7, -210721.08, -15823.421, -0.06961234, -0.09484112, -208974.9, -146541.14, 0.0, 9.997983, 9.999859 
1.535232e+3, 3.036294e+2, -328369.25, -155207.33, -16740.053, -0.09095625, -0.014663, -153603.88, -153603.88, 0.0, 9.997733, 10.000025 
1.5352495e+3, 3.1362882e+2, -279518.03, -50106.754, 13091.06, -0.09943615, -0.08156899, -49362.15, -49362.15, 0.0, 9.997714, 10.000757 
1.5449274e+3, 1.2362674e+2, -1255460.0, -1725001.9, 66096.95, -0.008381934, 0.07682527, -1246333.0, 482131.72, 0.010753456, 10.004206, 9.997901 
1.5449439e+3, 1.336247e+2, -1192757.4, -1620168.4, -84182.09, 0.11941433, 0.05955505, -1176774.8, 453709.25, 0.006657342, 10.003829, 9.998136 
1.544958e+3, 1.4362273e+2, -1134088.9, -1519721.1, -22938.91, -0.03257561, 0.044908177, -1132729.3, 399773.72, 0.0031007265, 10.003458, 9.998325 
1.5449752e+3, 1.5362123e+2, -1084458.6, -1440811.6, -13324.233, -0.014011939, 0.056180898, -1083961.1, 350556.75, 0.000906799, 10.003099, 9.998367 
1.5449922e+3, 1.6361982e+2, -1018860.25, -1313804.3, -40634.48, -0.0072451425, 0.06454059, -1013364.44, 323167.3, 0.0001122654, 10.002682, 9.998768 
1.5450086e+3, 1.7361867e+2, -991558.0, -1241777.3, -37952.863, -0.014120817, 0.064063005, -985928.0, 252614.94, 0.0000011877057, 10.002161, 9.99884 
1.545025e+3, 1.8361756e+2, -948253.44, -1147274.9, -29583.133, -0.034028035, 0.06500056, -943949.2, 196604.64, 0.0, 10.001686, 9.999045 
1.5450412e+3, 1.9361666e+2, -904524.0, -1070707.1, -35984.984, -0.07806712, 0.064447306, -897066.5, 145496.78, 0.0, 10.001293, 9.999087 
1.5450577e+3, 2.0361587e+2, -842369.8, -953677.2, -43895.406, -0.09753491, 0.06643191, -827142.4, 117428.76, 0.0, 10.000891, 9.999413 
1.5450747e+3, 2.1361539e+2, -801386.25, -876588.1, -44232.94, -0.074930206, 0.069863446, -780932.2, 65643.016, 0.0, 10.00047, 9.999472 
1.5450916e+3, 2.236148e+2, -756044.9, -794613.9, -32773.918, -0.06768368, 0.06378838, -737302.75, 11277.243, 0.0, 10.000069, 9.999555 
1.5451086e+3, 2.336141e+2, -710554.44, -719483.5, -34293.773, -0.087147914, 0.036094856, -680435.8, -29850.389, 0.0, 9.999698, 9.999577 
1.5451255e+3, 2.4361345e+2, -671327.0, -657110.75, -29142.566, -0.10113157, 0.018571647, -634221.94, -81631.09, 0.0, 9.999327, 9.999511 
1.5451427e+3, 2.5361297e+2, -628161.6, -585948.0, -26571.734, -0.10622939, 0.020567628, -573120.25, -118525.38, 0.0, 9.998952, 9.999507 
1.5451601e+3, 2.636126e+2, -573591.7, -486150.0, -18838.656, -0.101544954, 0.027641466, -482264.06, -125666.36, 0.0, 9.998556, 9.999709 
1.5451777e+3, 2.7361232e+2, -534999.2, -411671.7, -13356.308, -0.07903095, 0.0242634, -410241.78, -151642.78, 0.0, 9.998126, 9.999755 
1.5451951e+3, 2.836117e+2, -460865.16, -302890.75, -2223.8372, -0.068878435, -0.018384352, -302859.44, -142256.31, 0.0, 9.997866, 9.999954 
1.5452126e+3, 2.93611e+2, -360496.97, -203657.36, -6227.2617, -0.08491525, -0.09158776, -203410.5, -140803.05, 0.0, 9.997882, 9.999955 
1.5452296e+3, 3.0361173e+2, -335196.63, -137097.06, -12464.86, -0.10187963, -0.022486608, -136315.83, -136315.83, 0.0, 9.997596, 10.000215 
1.545247e+3, 3.1361148e+2, -406460.13, -105551.086, 36759.137, -0.0741196, -0.071534835, -101125.664, -101125.664, 0.0, 9.9968195, 10.000806 
1.5549321e+3, 1.23609416e+2, -1255644.8, -1725294.1, 48991.645, 0.039764818, 0.051990606, -1250588.6, 478046.16, 0.011368947, 10.004207, 9.997899 
1.5549476e+3, 1.3360783e+2, -1197492.9, -1630457.8, -98809.09, 0.104785904, 0.08672209, -1176009.1, 454640.75, 0.0070661255, 10.003832, 9.998065 
1.5549612e+3, 1.4360581e+2, -1147482.0, -1548658.5, -37409.93, -0.063676216, 0.08029627, -1144023.4, 388646.22, 0.003311601, 10.003463, 9.998125 
1.5549785e+3, 1.536037e+2, -1099648.8, -1473545.9, -27320.623, -0.0023634478, 0.053603202, -1097663.0, 337027.47, 0.0009784598, 10.003104, 9.998141 
1.5549952e+3, 1.6360205e+2, -1012296.6, -1301322.0, -59819.69, 0.019272141, 0.04688838, -1000405.0, 336301.53, 0.0001239549, 10.002686, 9.998852 
1.5550107e+3, 1.7360124e+2, -981573.0, -1222167.8, -57879.496, -0.02374074, 0.06782869, -968373.2, 270340.53, 0.0000013544981, 10.002165, 9.998973 
1.5550263e+3, 1.8360025e+2, -960670.25, -1174244.9, -45260.617, -0.05625562, 0.07957647, -951474.56, 189248.78, 0.0, 10.001691, 9.998858 
1.5550426e+3, 1.9359903e+2, -920842.06, -1105732.9, -50671.418, -0.07151261, 0.07227572, -907865.7, 134870.64, 0.0, 10.001297, 9.998846 
1.5550587e+3, 2.0359802e+2, -844964.7, -959983.2, -59388.594, -0.082926966, 0.06704999, -819804.0, 124942.75, 0.0, 10.000894, 9.999369 
1.5550749e+3, 2.1359745e+2, -801691.7, -878198.0, -59753.055, -0.08823101, 0.062130734, -768996.06, 77755.61, 0.0, 10.000474, 9.99946 
1.5550914e+3, 2.2359684e+2, -760899.6, -805765.7, -46503.51, -0.09313887, 0.060283247, -731701.1, 17055.363, 0.0, 10.0000725, 9.999477 
1.555108e+3, 2.3359632e+2, -716639.44, -732812.56, -47569.395, -0.09687933, 0.058989737, -676474.1, -25713.803, 0.0, 9.9997, 9.999485 
1.5551248e+3, 2.4359569e+2, -667503.5, -649415.8, -42426.05, -0.10067461, 0.045208212, -615080.4, -62314.75, 0.0, 9.999327, 9.999564 
1.5551417e+3, 2.5359493e+2, -623004.8, -575179.56, -39742.883, -0.10550373, 0.010696609, -552709.94, -97937.84, 0.0, 9.99895, 9.999581 
1.5551586e+3, 2.635945e+2, -561799.2, -461700.44, -33725.28, -0.09899653, 0.0028122372, -451398.06, -94623.15, 0.0, 9.998555, 9.999878 
1.555176e+3, 2.7359468e+2, -522133.53, -385687.53, -28591.396, -0.07265761, 0.02357999, -379938.6, -121166.695, 0.0, 9.998128, 9.999932 
1.555193e+3, 2.835943e+2, -459658.22, -300388.03, -2942.5642, -0.062895656, -0.006728233, -300333.7, -139559.9, 0.0, 9.997865, 9.999973 
1.5552105e+3, 2.9359344e+2, -363113.28, -205733.48, -4692.464, -0.08517391, -0.092023395, -205593.7, -142814.06, 0.0, 9.997866, 9.9999485 
1.5552272e+3, 3.0359414e+2, -310717.78, -82818.516, -36958.793, -0.095920265, -0.042390008, -76974.695, -76974.695, 0.0, 9.99758, 10.000596 
1.555244e+3, 3.1359458e+2, -384178.97, -61115.55, 9755.331, -0.05466823, -0.0655243, -60821.242, -60821.242, 0.0, 9.996826, 10.001109 
1.5649365e+3, 1.2359271e+2, -1228764.8, -1721515.0, 63906.297, 0.049330384, 0.056137837, -1220611.5, 508187.5, 0.012035697, 10.004437, 9.997813 
1.5649515e+3, 1.3359109e+2, -1151596.9, -1625154.6, -87960.03, 0.09283271, 0.10019161, -1135786.8, 495028.2, 0.0075103496, 10.004226, 9.9979105 
1.5649647e+3, 1.4358892e+2, -1093798.4, -1524359.3, -32408.678, -0.07693574, 0.088551894, -1091372.6, 441463.38, 0.0035420775, 10.003841, 9.99811 
1.5649816e+3, 1.5358676e+2, -1093395.8, -1470160.0, -6691.073, -0.0011505275, 0.05768385, -1093276.9, 341579.8, 0.0010575285, 10.003146, 9.998143 
1.5649977e+3, 1.6358505e+2, -1032267.2, -1323830.9, -31659.898, 0.024811713, 0.04889278, -1028868.94, 308004.3, 0.00013719169, 10.002605, 9.998735 
1.5650128e+3, 1.735841e+2, -966295.7, -1230279.5, -49520.08, -0.033480078, 0.07038512, -957312.06, 281569.88, 0.0000015912761, 10.002337, 9.998834 
1.5650281e+3, 1.8358299e+2, -926380.3, -1163801.5, -47887.05, -0.06853757, 0.08045011, -917085.56, 223807.31, 0.0, 10.001953, 9.998803 
1.565044e+3, 1.935817e+2, -914331.2, -1107573.9, -39865.61, -0.064140305, 0.06818544, -906430.06, 136476.44, 0.0, 10.001365, 9.9988 
1.5650599e+3, 2.0358063e+2, -855687.06, -975643.6, -38435.71, -0.06936969, 0.06456949, -844428.44, 100488.89, 0.0, 10.000866, 9.999274 
1.5650754e+3, 2.1358006e+2, -801610.9, -889901.56, -45194.695, -0.0916154, 0.07222988, -782578.94, 64343.55, 0.0, 10.000525, 9.999353 
1.5650915e+3, 2.2357944e+2, -758907.3, -813070.0, -38264.58, -0.104057975, 0.07518447, -739110.4, 9817.562, 0.0, 10.000123, 9.999402 
1.5651077e+3, 2.3357877e+2, -734908.0, -749833.44, -38935.785, -0.09915839, 0.06534689, -702726.2, -51793.027, 0.0, 9.999611, 9.99941 
1.5651241e+3, 2.4357803e+2, -693852.2, -657088.7, -32420.459, -0.09716002, 0.046041604, -638201.5, -85262.375, 0.0, 9.9991255, 9.999607 
1.5651405e+3, 2.5357732e+2, -657118.5, -584827.9, -30949.842, -0.10133021, 0.0110305315, -573387.75, -118442.836, 0.0, 9.998689, 9.99964 
1.5651572e+3, 2.6357698e+2, -590760.06, -465875.97, -26489.523, -0.09654233, 0.0022688508, -460489.53, -103542.6, 0.0, 9.998316, 9.999964 
1.565174e+3, 2.7357724e+2, -528082.5, -378719.22, -28039.863, -0.07612018, 0.022505844, -373628.8, -114685.94, 0.0, 9.998047, 10.000019 
1.5651909e+3, 2.8357697e+2, -478690.97, -290443.3, -331.02686, -0.06513548, -0.0075570657, -290442.72, -129499.445, 0.0, 9.997653, 10.000142 
1.565208e+3, 2.9357627e+2, -469770.16, -236141.39, 11467.358, -0.073040776, -0.09483096, -235579.89, -172632.6, 0.0, 9.9970455, 10.000134 
1.5652245e+3, 3.03577e+2, -420290.97, -112468.9, -17105.107, -0.07985324, -0.06328397, -111521.31, -111521.31, 0.0, 9.99673, 10.0008 
1.5652408e+3, 3.1357786e+2, -363965.75, -41985.156, 14883.81, -0.06835164, -0.06434205, -41298.605, -41298.605, 0.0, 9.996925, 10.001192 
1.5749405e+3, 1.2357672e+2, -1241155.6, -1747745.4, 51944.617, 0.017263208, 0.09165256, -1235884.3, 493072.34, 0.012763913, 10.00444, 9.997633 
1.5749557e+3, 1.3357447e+2, -1168625.0, -1661357.4, -96435.69, 0.08327029, 0.10003405, -1150423.4, 480555.34, 0.007995979, 10.00423, 9.997661 
1.5749685e+3, 1.4357206e+2, -1081224.1, -1499506.9, -56894.74, -0.0718297, 0.069337934, -1073623.4, 459378.7, 0.003795428, 10.003846, 9.998279 
1.5749846e+3, 1.5357043e+2, -1076742.9, -1436597.8, -33523.637, -0.010489261, 0.06811535, -1073646.5, 361370.06, 0.0011455863, 10.00315, 9.998372 
1.5750003e+3, 1.6356882e+2, -1054141.9, -1370296.4, -44293.668, 0.009043309, 0.07055219, -1048053.56, 288978.16, 0.0001523179, 10.002609, 9.998416 
1.575015e+3, 1.7356728e+2, -994834.2, -1290636.1, -59555.13, -0.043720476, 0.07189733, -983293.94, 255753.64, 0.0000019351096, 10.002341, 9.998419 
1.5750301e+3, 1.8356581e+2, -921039.75, -1153787.9, -68485.28, -0.071388565, 0.06787043, -902383.56, 238678.7, 0.0, 10.001957, 9.998871 
1.5750454e+3, 1.9356461e+2, -903528.56, -1086454.8, -62088.164, -0.056096785, 0.052400377, -884445.56, 158628.22, 0.0, 10.0013685, 9.998944 
1.5750608e+3, 2.0356366e+2, -865438.56, -997229.0, -52440.195, -0.056892198, 0.059029996, -847118.8, 97964.25, 0.0, 10.000871, 9.999125 
1.575076e+3, 2.1356325e+2, -815103.7, -918927.7, -57557.902, -0.085580535, 0.099504575, -789505.9, 57581.883, 0.0, 10.000529, 9.999153 
1.5750915e+3, 2.2356251e+2, -764102.0, -824609.8, -56167.668, -0.10125922, 0.1078206, -730558.5, 18536.066, 0.0, 10.000125, 9.999323 
1.5751073e+3, 2.3356135e+2, -739005.94, -758853.56, -57532.363, -0.09446955, 0.055885095, -690547.75, -39443.582, 0.0, 9.999612, 9.999349 
1.5751232e+3, 2.4356045e+2, -691774.06, -653169.0, -48393.348, -0.09096481, 0.022169963, -620370.6, -67259.07, 0.0, 9.9991255, 9.999635 
1.5751393e+3, 2.5356016e+2, -654018.8, -578927.44, -46315.64, -0.0942944, 0.020995561, -556850.8, -101737.12, 0.0, 9.99869, 9.999681 
1.5751554e+3, 2.6355994e+2, -590553.3, -465892.28, -36276.207, -0.09465392, 0.024660941, -456104.44, -98990.17, 0.0, 9.998316, 9.999965 
1.5751718e+3, 2.7355993e+2, -528807.9, -379919.2, -36762.746, -0.088864274, 0.02087839, -371336.7, -112224.32, 0.0, 9.998044, 10.000012 
1.5751883e+3, 2.8355968e+2, -457784.1, -246432.05, -20375.404, -0.07525495, -0.020290913, -244485.69, -83373.53, 0.0, 9.997649, 10.000447 
1.5752052e+3, 2.9355943e+2, -444642.28, -183911.03, -10897.526, -0.050541017, -0.100294106, -183456.34, -120345.13, 0.0, 9.997044, 10.000495 
1.5752214e+3, 3.035602e+2, -418455.16, -107780.734, -13064.002, -0.05541356, -0.08580863, -107232.35, -107232.35, 0.0, 9.996724, 10.000836 
1.5752372e+3, 3.1356126e+2, -375330.1, -61424.11, 25510.34, -0.11233905, -0.06641331, -59364.465, -59364.465, 0.0, 9.996906, 10.001068 
1.584945e+3, 1.23560876e+2, -1197601.4, -1727658.9, 62583.07, 0.004842197, 0.10953951, -1190312.5, 538800.1, 0.013558159, 10.004753, 9.997621 
1.5849598e+3, 1.3355839e+2, -1166522.0, -1667504.9, -68639.35, 0.08308028, 0.10002564, -1157288.0, 473848.75, 0.008526374, 10.004279, 9.997593 
1.5849724e+3, 1.435558e+2, -1084696.9, -1501963.4, -34792.254, -0.064649776, 0.05595701, -1081815.8, 451345.78, 0.0040738685, 10.003828, 9.99827 
1.5849878e+3, 1.5355435e+2, -1040609.7, -1419831.6, -30627.49, -0.021300416, 0.07259522, -1038152.0, 397022.13, 0.0012437182, 10.003403, 9.998365 
1.585003e+3, 1.6355273e+2, -1013176.44, -1366614.6, -39932.14, -0.006627439, 0.08189113, -1008721.0, 328468.3, 0.00016938407, 10.00296, 9.998271 
1.5850174e+3, 1.7355089e+2, -985822.25, -1305278.3, -36515.418, -0.043911688, 0.070362695, -981701.5, 257507.03, 0.0000023797534, 10.002486, 9.998248 
1.585032e+3, 1.8354927e+2, -917506.7, -1159225.5, -44746.246, -0.06448646, 0.062623784, -909489.3, 231735.69, 0.0, 10.002013, 9.998806 
1.585047e+3, 1.9354816e+2, -881631.44, -1081504.5, -53634.426, -0.05618955, 0.059791353, -868148.56, 175086.95, 0.0, 10.001545, 9.998893 
1.5850617e+3, 2.0354718e+2, -845618.44, -1001895.8, -48200.016, -0.059889622, 0.07187023, -831948.1, 113296.95, 0.0, 10.001069, 9.998996 
1.5850766e+3, 2.1354654e+2, -817629.25, -936184.44, -49049.336, -0.08431372, 0.10499585, -799967.44, 47284.62, 0.0, 10.000582, 9.999009 
1.5850917e+3, 2.2354566e+2, -779389.06, -838520.25, -49927.098, -0.096493535, 0.109143734, -750930.2, -1669.7292, 0.0, 10.00005, 9.999263 
1.585107e+3, 2.3354448e+2, -767165.3, -777640.6, -51366.242, -0.087929726, 0.058797162, -720770.4, -69500.08, 0.0, 9.999443, 9.9993 
1.5851223e+3, 2.4354358e+2, -720152.7, -666677.75, -37293.766, -0.0851347, 0.028464658, -647527.1, -94249.57, 0.0, 9.998932, 9.999635 
1.585138e+3, 2.5354335e+2, -668567.9, -585086.94, -37099.203, -0.09321249, 0.033115473, -570982.9, -115703.836, 0.0, 9.998588, 9.999687 
1.5851536e+3, 2.6354313e+2, -601748.0, -458484.34, -25318.727, -0.09351583, 0.030504417, -454141.47, -96862.086, 0.0, 9.998186, 10.000077 
1.5851697e+3, 2.73543e+2, -572947.25, -386607.7, -16230.257, -0.07976087, 0.002141312, -385204.56, -125926.71, 0.0, 9.99768, 10.000142 
1.585186e+3, 2.8354284e+2, -512296.78, -257826.69, -3215.906, -0.06657929, -0.04203508, -257786.05, -96509.8, 0.0, 9.997212, 10.000578 
1.585202e+3, 2.93543e+2, -469502.53, -180692.16, -10918.111, -0.055584956, -0.09409011, -180280.0, -117008.586, 0.0, 9.996809, 10.000628 
1.585218e+3, 3.0354378e+2, -453213.94, -107369.23, -6037.0103, -0.05625741, -0.094133556, -107263.875, -107263.875, 0.0, 9.996413, 10.000988 
1.5852338e+3, 3.1354496e+2, -496669.38, -109529.7, 48951.56, -0.09793108, -0.07477423, -103435.98, -103435.98, 0.0, 9.996031, 10.001159 
1.5949498e+3, 1.2354523e+2, -1185931.4, -1703982.4, 40448.06, 0.011692273, 0.11095303, -1182792.4, 546474.2, 0.014416071, 10.004758, 9.997783 
1.5949643e+3, 1.3354285e+2, -1158348.1, -1650583.6, -86689.12, 0.09201454, 0.099674016, -1143527.3, 487761.38, 0.009100995, 10.004281, 9.997709 
1.5949763e+3, 1.4354016e+2, -1097851.9, -1529917.8, -51588.965, -0.055928767, 0.048435558, -1091777.5, 441536.47, 0.004377609, 10.003831, 9.998077 
1.5949911e+3, 1.5353853e+2, -1057544.1, -1456113.5, -46962.44, -0.033792105, 0.07140817, -1052085.5, 383243.84, 0.0013521055, 10.003407, 9.998116 
1.5950055e+3, 1.635368e+2, -1010773.2, -1362838.5, -57894.504, -0.022399398, 0.08312321, -1001497.3, 335848.7, 0.00018821016, 10.002965, 9.998296 
1.59502e+3, 1.7353497e+2, -980414.7, -1295240.4, -54598.535, -0.034223083, 0.06574934, -971214.75, 268149.94, 0.0000028938316, 10.00249, 9.998316 
1.5950342e+3, 1.8353337e+2, -930872.44, -1188143.6, -62504.082, -0.047917947, 0.06453237, -916491.0, 224890.0, 0.0, 10.002017, 9.998607 
1.5950483e+3, 1.9353229e+2, -898250.44, -1117164.4, -71085.78, -0.06441883, 0.08969425, -877192.94, 166198.88, 0.0, 10.001549, 9.998647 
1.5950625e+3, 2.0353113e+2, -853039.3, -1018399.2, -66159.66, -0.0784428, 0.10260671, -829827.5, 115575.95, 0.0, 10.001073, 9.998881 
1.5950772e+3, 2.1352994e+2, -823914.1, -950028.4, -66899.65, -0.08797218, 0.0896719, -795037.75, 52377.652, 0.0, 10.000585, 9.998914 
1.5950918e+3, 2.2352885e+2, -782271.7, -845280.6, -71591.74, -0.09004463, 0.08046722, -735559.06, 13866.537, 0.0, 10.0000515, 9.999216 
1.5951064e+3, 2.3352806e+2, -769265.8, -783279.4, -73436.21, -0.07971467, 0.07353947, -702502.9, -51070.992, 0.0, 9.999447, 9.99926 
1.5951213e+3, 2.4352732e+2, -721689.6, -671181.4, -50667.414, -0.07983617, 0.063632324, -639823.2, -86385.57, 0.0, 9.998936, 9.999602 
1.5951365e+3, 2.5352684e+2, -670661.2, -589854.94, -48661.555, -0.09794994, 0.047214117, -567009.7, -111568.414, 0.0, 9.998589, 9.999656 
1.5951519e+3, 2.6352647e+2, -586918.6, -427531.06, -42216.004, -0.09343526, 0.020513736, -417040.1, -59597.355, 0.0, 9.998184, 10.000292 
1.5951677e+3, 2.7352634e+2, -555625.94, -350124.63, -34198.2, -0.050901756, -0.032941647, -344583.03, -85142.98, 0.0, 9.997676, 10.000395 
1.5951833e+3, 2.8352636e+2, -515326.84, -263671.0, -17840.498, -0.04100649, -0.072346516, -262412.53, -100976.2, 0.0, 9.99721, 10.000541 
1.5951987e+3, 2.9352692e+2, -475538.06, -193512.48, -25007.268, -0.0861722, -0.07654407, -191312.25, -127883.664, 0.0, 9.996809, 10.000542 
1.5952143e+3, 3.0352762e+2, -435472.38, -70317.69, -19670.395, -0.080887094, -0.08909575, -69261.125, -69261.125, 0.0, 9.996411, 10.001245 
1.5952304e+3, 3.135289e+2, -478425.0, -68543.21, 36862.29, -0.031704813, -0.09041167, -65254.434, -65254.434, 0.0, 9.996016, 10.001449 
1.6049547e+3, 1.235299e+2, -1158990.8, -1686048.0, 49251.34, 0.011866296, 0.10892363, -1154428.0, 574989.0, 0.015332421, 10.00493, 9.997825 
1.6049686e+3, 1.335276e+2, -1135216.3, -1639941.0, -83609.4, 0.096499585, 0.1050039, -1121726.5, 509711.63, 0.009717418, 10.004449, 9.997701 
1.6049804e+3, 1.4352483e+2, -1075638.1, -1525527.8, -48048.727, -0.047129564, 0.048082646, -1070563.6, 462900.63, 0.0047058174, 10.004014, 9.998018 
1.6049945e+3, 1.535231e+2, -1030596.0, -1450953.4, -30134.424, -0.037909012, 0.06832072, -1028446.7, 407033.94, 0.001470569, 10.003628, 9.998043 
1.6050087e+3, 1.6352135e+2, -985747.0, -1356369.6, -40320.375, -0.029084291, 0.081989944, -981411.2, 356086.7, 0.0002086687, 10.003162, 9.998244 
1.6050225e+3, 1.7351957e+2, -973136.56, -1297407.8, -46797.547, -0.027378147, 0.07486758, -966518.0, 272998.22, 0.0000034510517, 10.002565, 9.998263 
1.6050363e+3, 1.8351793e+2, -933726.5, -1201940.6, -53467.547, -0.03937078, 0.078793496, -923460.9, 218072.08, 0.0, 10.002052, 9.998494 
1.6050498e+3, 1.9351667e+2, -887396.8, -1125875.5, -53047.688, -0.07448309, 0.09984627, -876129.2, 167416.25, 0.0, 10.001684, 9.998521 
1.6050635e+3, 2.0351537e+2, -844470.06, -1028957.25, -49688.53, -0.09394889, 0.11020163, -831938.56, 113620.08, 0.0, 10.001196, 9.998749 
1.6050777e+3, 2.1351406e+2, -846390.75, -976071.9, -54931.695, -0.08587588, 0.09809079, -826250.25, 21321.805, 0.0, 10.000497, 9.9987755 
1.6050918e+3, 2.2351287e+2, -804296.25, -859027.9, -57592.5, -0.080292016, 0.08843707, -767898.56, -18315.396, 0.0, 9.999915, 9.9991865 
1.605106e+3, 2.3351204e+2, -756184.2, -778269.5, -57238.26, -0.079974025, 0.07865543, -708933.1, -57343.676, 0.0, 9.999544, 9.999248 
1.6051203e+3, 2.4351129e+2, -701666.06, -660862.4, -32954.305, -0.08328835, 0.0673, -642505.75, -88910.68, 0.0, 9.999072, 9.999607 
1.605135e+3, 2.5351083e+2, -694701.2, -600868.1, -28776.94, -0.0921711, 0.051295694, -592745.8, -137147.28, 0.0, 9.998422, 9.99966 
1.60515e+3, 2.6351047e+2, -633341.4, -440106.1, -25187.424, -0.081898876, 0.022062076, -436876.97, -79277.25, 0.0, 9.997825, 10.000378 
1.6051653e+3, 2.7351037e+2, -600101.06, -360557.88, -28581.428, -0.04093111, -0.03641222, -357194.88, -97598.55, 0.0, 9.997325, 10.000491 
1.6051804e+3, 2.835105e+2, -558978.9, -278880.94, -11694.6, -0.03586477, -0.07426038, -278393.53, -116801.97, 0.0, 9.996886, 10.000591 
1.6051953e+3, 2.9351115e+2, -511696.22, -206013.52, -9046.7295, -0.089260206, -0.073064424, -205746.02, -142163.08, 0.0, 9.996541, 10.000585 
1.6052105e+3, 3.035117e+2, -473591.94, -68412.05, -7006.5537, -0.07872351, -0.10997321, -68290.92, -68290.92, 0.0, 9.996063, 10.001424 
1.6052262e+3, 3.135134e+2, -559481.0, -83695.87, 41408.984, -0.025972923, -0.08913938, -80118.81, -80118.81, 0.0, 9.995358, 10.00166 
1.6149595e+3, 1.23515e+2, -1165243.4, -1698836.1, 26412.314, 0.002755547, 0.105661556, -1163939.1, 565624.06, 0.016304819, 10.004932, 9.997736 
1.614973e+3, 1.3351269e+2, -1144944.9, -1660752.0, -101818.96, 0.096271574, 0.11650312, -1125573.6, 506011.28, 0.010375131, 10.004452, 9.997558 
1.6149844e+3, 1.4350982e+2, -1069869.9, -1514679.4, -63600.68, -0.03820188, 0.05538113, -1060954.6, 472657.34, 0.005058876, 10.004019, 9.998092 
1.6149981e+3, 1.5350808e+2, -1022822.25, -1435889.0, -45077.387, -0.033893615, 0.06320451, -1017960.25, 417667.72, 0.0015996711, 10.003632, 9.998146 
1.6150118e+3, 1.6350633e+2, -994198.1, -1375080.1, -62040.66, -0.026976176, 0.078284174, -984347.25, 353297.66, 0.00023102766, 10.003166, 9.998115 
1.6150251e+3, 1.7350465e+2, -984741.44, -1322708.6, -69376.09, -0.023553487, 0.09745958, -971054.56, 268608.53, 0.0000040571285, 10.00257, 9.998089 
1.6150384e+3, 1.8350294e+2, -935485.7, -1206695.0, -68499.87, -0.039084326, 0.105385125, -919166.5, 222514.27, 0.0, 10.002056, 9.998461 
1.6150513e+3, 1.9350132e+2, -887876.8, -1127807.4, -66597.75, -0.0865527, 0.091068484, -870630.8, 173065.45, 0.0, 10.001687, 9.998507 
1.6150646e+3, 2.034999e+2, -854905.8, -1051594.4, -73989.39, -0.10664102, 0.09549153, -830180.9, 115529.86, 0.0, 10.0012, 9.998592 
1.6150783e+3, 2.1349885e+2, -858699.56, -1002798.3, -80907.336, -0.078379445, 0.12915882, -822411.0, 25311.287, 0.0, 10.000501, 9.998591 
1.6150919e+3, 2.2349766e+2, -804893.1, -861400.6, -72713.92, -0.06757874, 0.13159405, -755136.7, -5403.1563, 0.0, 9.999919, 9.999169 
1.6151054e+3, 2.3349638e+2, -755186.7, -776840.06, -70201.62, -0.08853891, 0.07464527, -694981.8, -43238.46, 0.0, 9.999545, 9.999257 
1.6151193e+3, 2.4349542e+2, -699192.3, -656179.94, -54941.043, -0.09545013, 0.04086058, -618685.8, -64935.457, 0.0, 9.999073, 9.9996395 
1.6151336e+3, 2.534952e+2, -692163.1, -596135.0, -52180.47, -0.076763794, 0.045916032, -573239.6, -117488.16, 0.0, 9.998423, 9.999692 
1.615148e+3, 2.6349503e+2, -635953.44, -446212.03, -43552.305, -0.059788562, 0.03473592, -436692.8, -78941.68, 0.0, 9.997826, 10.000336 
1.6151625e+3, 2.7349502e+2, -603740.25, -368780.88, -46001.984, -0.048892695, -0.010139903, -360095.38, -100347.87, 0.0, 9.997327, 10.000435 
1.6151771e+3, 2.8349516e+2, -550205.4, -260489.22, -24366.572, -0.050371964, -0.0497539, -258454.16, -96711.4, 0.0, 9.996884, 10.000719 
1.6151918e+3, 2.9349557e+2, -501828.88, -183290.83, -20879.248, -0.06757574, -0.08366753, -181928.1, -118192.83, 0.0, 9.996531, 10.000747 
1.6152067e+3, 3.0349594e+2, -468375.1, -55255.11, -30509.9, -0.05228188, -0.15579633, -53014.035, -53014.035, 0.0, 9.996052, 10.001521 
1.6152209e+3, 3.1349835e+2, -550023.2, -64063.703, 16866.56, -0.07648323, -0.0709062, -63479.004, -63479.004, 0.0, 9.995357, 10.001797 
1.6249643e+3, 1.235005e+2, -1169596.3, -1704202.4, 42650.492, 0.00046677978, 0.10037805, -1166215.0, 563490.2, 0.01733467, 10.004922, 9.997703 
1.6249776e+3, 1.3349822e+2, -1128057.1, -1659912.1, -74959.63, 0.08629523, 0.11944728, -1117694.3, 514032.8, 0.011076275, 10.004607, 9.997487 
1.6249885e+3, 1.434953e+2, -1036144.3, -1498531.9, -37582.582, -0.04144335, 0.05704206, -1033109.56, 500645.28, 0.0054388344, 10.004255, 9.998088 
1.625002e+3, 1.5349363e+2, -997358.0, -1423188.1, -27250.277, -0.02204799, 0.069838665, -995621.25, 440148.9, 0.001740908, 10.003807, 9.998148 
1.6250153e+3, 1.6349186e+2, -977082.5, -1373382.1, -51884.727, -0.012858242, 0.086470544, -970402.2, 367384.94, 0.00025601638, 10.003313, 9.9980545 
1.6250277e+3, 1.7349005e+2, -964676.56, -1321268.1, -53225.63, -0.031658392, 0.1014867, -956901.56, 282904.97, 0.0000047593935, 10.002745, 9.9980135 
1.6250403e+3, 1.8348826e+2, -923768.06, -1210334.9, -46226.74, -0.053858113, 0.10770932, -916495.7, 225329.5, 0.0, 10.002178, 9.998376 
1.6250531e+3, 1.9348659e+2, -904623.0, -1145775.9, -49582.695, -0.07953824, 0.09638895, -894826.44, 149014.9, 0.0, 10.0016165, 9.998417 
1.625066e+3, 2.0348507e+2, -883091.44, -1079004.4, -64483.86, -0.09024659, 0.10403695, -863772.0, 82084.65, 0.0, 10.001067, 9.998467 
1.6250788e+3, 2.1348393e+2, -863313.8, -1020028.1, -69021.64, -0.075381614, 0.14043505, -837249.56, 10619.947, 0.0, 10.000535, 9.998456 
1.6250917e+3, 2.2348265e+2, -794360.1, -858120.1, -53983.64, -0.07070924, 0.14140542, -763545.9, -13664.142, 0.0, 10.0, 9.999152 
1.6251048e+3, 2.3348129e+2, -767603.1, -782588.56, -51675.0, -0.084527075, 0.076682545, -722880.44, -70988.625, 0.0, 9.99946, 9.999258 
1.6251183e+3, 2.4348031e+2, -722617.3, -663867.44, -42790.133, -0.08733473, 0.040043913, -641339.75, -87441.1, 0.0, 9.998898, 9.999671 
1.625132e+3, 2.5348017e+2, -708194.1, -599890.4, -41237.133, -0.07012478, 0.049680162, -585976.6, -130077.81, 0.0, 9.998297, 9.999726 
1.6251458e+3, 2.6348e+2, -655608.4, -458485.9, -29421.5, -0.056315824, 0.039876387, -454188.28, -96289.97, 0.0, 9.9977045, 10.000309 
1.6251597e+3, 2.7347997e+2, -636494.3, -388810.4, -30227.902, -0.05195092, -0.0066221086, -385174.72, -125279.125, 0.0, 9.997121, 10.000396 
1.6251738e+3, 2.8348017e+2, -593283.4, -266375.9, -6192.775, -0.05323771, -0.04191753, -266258.63, -104368.414, 0.0, 9.996526, 10.000851 
1.6251883e+3, 2.9348084e+2, -581121.56, -203317.1, -2847.7493, -0.05644364, -0.068247676, -203295.64, -139415.56, 0.0, 9.995909, 10.000907 
1.6252026e+3, 3.0348107e+2, -558782.06, -88943.41, -14469.684, -0.034370016, -0.16706328, -88498.2, -88498.2, 0.0, 9.99539, 10.001608 
1.625216e+3, 3.1348366e+2, -586362.6, -62053.637, 32969.67, -0.09403252, -0.07592642, -59988.566, -59988.566, 0.0, 9.995025, 10.00197 
1.6349694e+3, 1.2348651e+2, -1167524.8, -1700047.4, 24857.264, 0.0029379947, 0.09542022, -1166367.0, 563475.2, 0.018423807, 10.004927, 9.997731 
1.634982e+3, 1.3348421e+2, -1128096.1, -1659966.3, -86575.945, 0.06613232, 0.11340981, -1114358.4, 517505.9, 0.0118228635, 10.004609, 9.997486 
1.6349925e+3, 1.4348128e+2, -1041836.3, -1510893.5, -54130.91, -0.05732094, 0.052650344, -1035670.44, 498222.1, 0.0058475514, 10.004258, 9.998002 
1.6350059e+3, 1.5347973e+2, -1004124.0, -1438365.9, -44530.254, -0.002668033, 0.08836269, -999604.56, 436302.47, 0.0018957059, 10.003811, 9.998042 
1.6350187e+3, 1.6347793e+2, -976121.8, -1372628.1, -72915.98, 0.013103819, 0.10690215, -963138.0, 374786.4, 0.00028448043, 10.003318, 9.998058 
1.6350302e+3, 1.734758e+2, -962618.2, -1318329.3, -74783.02, -0.051668018, 0.08741482, -947535.7, 292410.75, 0.000005611926, 10.0027485, 9.998033 
1.6350421e+3, 1.8347387e+2, -932786.5, -1230476.0, -67390.09, -0.08378999, 0.08611793, -918241.56, 223724.66, 0.0, 10.002183, 9.998236 
1.635055e+3, 1.9347245e+2, -915970.94, -1170492.5, -70455.96, -0.054130487, 0.11510537, -897769.2, 146211.56, 0.0, 10.00162, 9.998245 
1.6350673e+3, 2.034709e+2, -889598.94, -1093472.0, -84259.45, -0.04558862, 0.13506074, -859283.0, 86713.59, 0.0, 10.00107, 9.998367 
1.6350794e+3, 2.1346928e+2, -869153.0, -1033258.25, -88376.19, -0.07676453, 0.13287999, -830611.4, 17402.496, 0.0, 10.000539, 9.9983635 
1.6350916e+3, 2.234678e+2, -795429.44, -861520.7, -73530.21, -0.08942621, 0.11936233, -747860.5, 2167.4705, 0.0, 10.000004, 9.999127 
1.6351044e+3, 2.3346671e+2, -768227.44, -784732.8, -71101.78, -0.06873592, 0.08450216, -704901.0, -52865.715, 0.0, 9.999462, 9.999243 
1.6351174e+3, 2.4346592e+2, -720579.56, -660243.75, -64062.465, -0.060027845, 0.063868865, -619601.3, -65560.875, 0.0, 9.9988985, 9.999696 
1.6351302e+3, 2.5346568e+2, -705739.2, -595444.3, -62589.723, -0.07200622, 0.06215147, -567172.9, -111131.64, 0.0, 9.998299, 9.999757 
1.6351433e+3, 2.634654e+2, -656488.7, -460891.06, -50148.965, -0.07083472, 0.03772182, -448782.97, -90740.984, 0.0, 9.997705, 10.000293 
1.6351569e+3, 2.7346516e+2, -638550.25, -393122.16, -50825.68, -0.050528802, -0.024768326, -383013.06, -122971.83, 0.0, 9.99712, 10.000367 
1.6351704e+3, 2.834655e+2, -584449.7, -247977.67, -27917.414, -0.045407295, -0.04974279, -245677.08, -83642.445, 0.0, 9.996524, 10.000978 
1.6351841e+3, 2.9346684e+2, -570481.44, -181597.67, -24815.824, -0.05585885, -0.027795972, -180020.5, -116002.1, 0.0, 9.995909, 10.001057 
1.6351981e+3, 3.0346695e+2, -553957.6, -78741.664, -28477.873, -0.025265211, -0.1452932, -77041.17, -77041.17, 0.0, 9.995388, 10.001679 
1.6352111e+3, 3.1346908e+2, -573057.0, -32460.691, 20798.938, -0.08132611, -0.10464456, -31661.652, -31661.652, 0.0, 9.995014, 10.002179 
1.6449742e+3, 1.2347302e+2, -1189208.5, -1713954.5, 51069.43, 0.009824532, 0.09256356, -1184284.5, 545689.56, 0.01957261, 10.004796, 9.997697 
1.6449866e+3, 1.3347073e+2, -1110964.0, -1657983.9, -58589.81, 0.062265377, 0.117171675, -1104759.0, 527237.56, 0.012614643, 10.004761, 9.997425 
1.644997e+3, 1.4346775e+2, -1005611.56, -1494107.6, -39493.426, -0.060607415, 0.055370532, -1002439.25, 531586.25, 0.006284978, 10.004515, 9.997994 
1.6450098e+3, 1.5346617e+2, -999951.06, -1436605.4, -25061.322, -0.0019495043, 0.089939624, -998517.4, 437522.63, 0.0020644073, 10.003842, 9.998038 
1.645022e+3, 1.6346437e+2, -980788.25, -1377090.0, -45994.355, 0.015936362, 0.10848396, -975520.25, 362537.2, 0.00031690818, 10.003297, 9.998037 
1.645033e+3, 1.7346226e+2, -929519.1, -1305560.9, -50956.023, -0.05213664, 0.09225315, -922736.56, 317342.78, 0.0000066388466, 10.002992, 9.998002 
1.6450445e+3, 1.8346028e+2, -893558.0, -1225146.9, -53397.375, -0.08371267, 0.09386149, -885171.25, 256928.42, 0.0, 10.002512, 9.998113 
1.6450566e+3, 1.9345872e+2, -912650.0, -1185090.3, -56485.78, -0.04623153, 0.12447948, -901403.0, 142712.89, 0.0, 10.001714, 9.998099 
1.6450685e+3, 2.0345709e+2, -895199.8, -1100523.4, -60868.758, -0.034898072, 0.14452064, -878511.5, 67621.375, 0.0, 10.001051, 9.998327 
1.64508e+3, 2.1345542e+2, -856930.8, -1030000.06, -59457.227, -0.07227049, 0.140049, -838473.06, 9677.255, 0.0, 10.000635, 9.998339 
1.6450916e+3, 2.2345391e+2, -784762.44, -863124.44, -48718.96, -0.08806258, 0.12566297, -761423.94, -11259.122, 0.0, 10.000108, 9.999066 
1.645104e+3, 2.3345275e+2, -786331.0, -801461.56, -51654.84, -0.06516755, 0.09255311, -741690.4, -89517.555, 0.0, 9.999374, 9.99917 
1.6451162e+3, 2.4345195e+2, -748285.3, -670677.44, -45525.367, -0.05667536, 0.07309629, -649662.44, -95484.27, 0.0, 9.998697, 9.999721 
1.6451284e+3, 2.5345173e+2, -728303.2, -601926.06, -43681.28, -0.0726941, 0.07077724, -588297.6, -132119.28, 0.0, 9.998125, 9.999795 
1.645141e+3, 2.6345146e+2, -679094.6, -465846.63, -30115.768, -0.072656095, 0.041591287, -461675.16, -103496.18, 0.0, 9.997525, 10.000345 
1.6451538e+3, 2.7345118e+2, -670663.56, -402776.1, -25550.592, -0.049754597, -0.030183338, -400360.9, -140182.3, 0.0, 9.996876, 10.000418 
1.6451667e+3, 2.8345162e+2, -619322.8, -256327.31, -627.8239, -0.044031143, -0.050651893, -256326.22, -94155.16, 0.0, 9.996249, 10.001053 
1.64518e+3, 2.9345325e+2, -602337.06, -188432.1, -2776.4568, -0.05373065, -0.006811012, -188413.47, -124261.26, 0.0, 9.995655, 10.001132 
1.6451934e+3, 3.034533e+2, -600360.0, -96773.39, -7507.7007, -0.0131260445, -0.13653211, -96661.484, -96661.484, 0.0, 9.995052, 10.001717 
1.6452059e+3, 3.1345546e+2, -643021.2, -41751.832, 39942.016, -0.07846512, -0.09897532, -39110.11, -39110.11, 0.0, 9.994431, 10.002395 
1.6549791e+3, 1.234601e+2, -1196628.5, -1728444.1, 42680.676, 0.018261366, 0.09383678, -1193225.0, 536875.25, 0.020781083, 10.004796, 9.997596 
1.6549915e+3, 1.3345781e+2, -1119697.6, -1676494.1, -59533.95, 0.074232034, 0.13119583, -1113403.3, 518720.03, 0.01345031, 10.004765, 9.997297 
1.6550016e+3, 1.4345475e+2, -1000566.8, -1484772.9, -61485.625, -0.05152827, 0.06550999, -992881.25, 541272.1, 0.006749969, 10.00452, 9.998057 
1.6550136e+3, 1.53453e+2, -992708.9, -1422748.9, -51036.277, -0.019925263, 0.074513294, -986734.94, 449433.97, 0.0022465773, 10.003847, 9.998133 
1.6550252e+3, 1.6345122e+2, -983822.25, -1384485.0, -59806.824, -0.0045586815, 0.09103778, -975085.44, 363100.7, 0.0003533976, 10.0033, 9.997985 
1.6550362e+3, 1.7344941e+2, -934872.0, -1317520.9, -62278.418, -0.03360277, 0.115597636, -924991.0, 315214.38, 0.000007849871, 10.002994, 9.99792 
1.6550474e+3, 1.834475e+2, -901116.5, -1241650.0, -80664.27, -0.054147504, 0.1306281, -882975.5, 259250.22, 0.0, 10.002514, 9.997999 
1.6550583e+3, 1.9344546e+2, -920759.7, -1203253.9, -86452.76, -0.055466797, 0.12503694, -896402.4, 147844.3, 0.0, 10.0017185, 9.997973 
1.6550693e+3, 2.0344363e+2, -893657.3, -1098740.9, -78219.88, -0.057674572, 0.13318872, -867229.44, 79036.055, 0.0, 10.001056, 9.998338 
1.6550806e+3, 2.1344233e+2, -854266.3, -1025146.4, -74370.13, -0.062474478, 0.16128567, -826432.7, 21846.605, 0.0, 10.000637, 9.998372 
1.655092e+3, 2.234409e+2, -791697.3, -877950.4, -73938.15, -0.06746111, 0.15921764, -749227.44, 1065.4375, 0.0, 10.000108, 9.998965 
1.6551033e+3, 2.3343939e+2, -794853.75, -820293.44, -78371.516, -0.07333535, 0.1008884, -728176.56, -75871.69, 0.0, 9.999377, 9.99904 
1.6551147e+3, 2.4343836e+2, -746348.8, -668111.3, -66775.305, -0.07644315, 0.068364814, -629840.06, -75527.766, 0.0, 9.998702, 9.999737 
1.6551267e+3, 2.534383e+2, -725183.6, -596110.94, -63839.125, -0.07236519, 0.075758114, -569870.8, -113559.99, 0.0, 9.998127, 9.999835 
1.6551386e+3, 2.6343814e+2, -671199.5, -449901.22, -53011.297, -0.062592775, 0.051457405, -437857.94, -79547.9, 0.0, 9.997526, 10.000455 
1.6551507e+3, 2.7343795e+2, -661818.06, -385331.06, -48896.09, -0.05016738, -0.023158342, -376938.66, -116630.016, 0.0, 9.996878, 10.000538 
1.655163e+3, 2.8343847e+2, -617463.0, -253227.86, -22298.615, -0.049276806, -0.04489641, -251867.81, -89567.266, 0.0, 9.996251, 10.001074 
1.6551757e+3, 2.9344004e+2, -602763.5, -189007.36, -24097.877, -0.04997972, -0.004990058, -187608.58, -123326.13, 0.0, 9.995652, 10.00113 
1.6551886e+3, 3.0344003e+2, -600725.5, -97387.85, -29797.37, 0.0019214855, -0.14029455, -95630.0, -95630.0, 0.0, 9.995049, 10.001714 
1.6552001e+3, 3.1344262e+2, -627072.9, -9720.041, 16734.11, -0.0856058, -0.06112424, -9266.775, -9266.775, 0.0, 9.994434, 10.002614 
1.6649841e+3, 1.2344743e+2, -1131313.8, -1694948.4, 52733.36, 0.010742376, 0.08721371, -1126422.5, 603801.56, 0.022048526, 10.005254, 9.99761 
1.6649961e+3, 1.334452e+2, -1137174.4, -1683761.8, -32973.613, 0.08017027, 0.12918116, -1135192.4, 497054.13, 0.014329182, 10.004643, 9.997304 
1.665006e+3, 1.4344215e+2, -1048049.25, -1508853.4, -35977.266, -0.03945072, 0.064133994, -1045257.25, 489019.3, 0.007242054, 10.004201, 9.998044 
1.6650173e+3, 1.5344042e+2, -971512.56, -1414599.9, -35098.71, -0.030880501, 0.07615555, -968749.5, 467542.8, 0.0024420295, 10.004004, 9.998112 
1.6650285e+3, 1.6343862e+2, -942099.3, -1368978.3, -51884.492, -0.020751059, 0.09436, -935883.56, 402426.3, 0.00039400847, 10.003608, 9.997943 
1.6650394e+3, 1.7343678e+2, -959424.7, -1335012.5, -53169.26, -0.023270002, 0.119107835, -952043.0, 288286.72, 0.000009278141, 10.002851, 9.997869 
1.66505e+3, 1.8343483e+2, -942239.1, -1260806.4, -68310.06, -0.034525037, 0.1341382, -928209.4, 214141.0, 0.0, 10.00223, 9.998004 
1.66506e+3, 1.934328e+2, -898608.5, -1191012.8, -64723.523, -0.058228537, 0.12821627, -884922.56, 159448.6, 0.0, 10.001865, 9.997986 
1.6650705e+3, 2.0343097e+2, -855678.7, -1084217.8, -53950.387, -0.068830036, 0.13611764, -843583.0, 102807.0, 0.0, 10.001334, 9.998302 
1.6650812e+3, 2.1342961e+2, -878481.0, -1042141.75, -56583.47, -0.056079045, 0.16431369, -860823.2, -12419.06, 0.0, 10.000495, 9.998323 
1.6650921e+3, 2.2342817e+2, -835721.44, -899226.06, -54823.98, -0.054701198, 0.16438173, -804118.6, -53700.754, 0.0, 9.999807, 9.998963 
1.6651027e+3, 2.3342672e+2, -791447.8, -818135.9, -49918.36, -0.07514977, 0.111744225, -753120.7, -100691.25, 0.0, 9.9994, 9.999043 
1.6651134e+3, 2.4342571e+2, -729689.8, -664048.4, -39454.207, -0.08325451, 0.079873055, -645548.2, -91111.15, 0.0, 9.998834, 9.999701 
1.6651246e+3, 2.534255e+2, -750007.56, -613327.1, -43853.344, -0.066071115, 0.07878899, -600467.0, -144030.16, 0.0, 9.99798, 9.999787 
1.665136e+3, 2.6342532e+2, -708743.8, -462635.84, -34340.473, -0.049740393, 0.05185027, -457934.0, -99497.57, 0.0, 9.997246, 10.000502 
1.6651475e+3, 2.7342528e+2, -678944.6, -386780.84, -33888.17, -0.04419885, -0.013634935, -382901.66, -122467.89, 0.0, 9.996732, 10.000597 
1.6651592e+3, 2.8342596e+2, -628213.3, -249055.19, -10904.508, -0.049124654, -0.027748303, -248741.83, -86317.484, 0.0, 9.996139, 10.001156 
1.6651711e+3, 2.9342762e+2, -634517.94, -195587.56, -7838.1284, -0.05001029, 0.01358444, -195447.64, -131042.31, 0.0, 9.995398, 10.001206 
1.6651836e+3, 3.0342755e+2, -648782.94, -134489.53, -9087.053, 0.009550478, -0.12771215, -134329.03, -134329.03, 0.0, 9.9947815, 10.001588 
1.6651946e+3, 3.1343e+2, -630131.5, -1621.4211, 26197.512, -0.095383525, -0.043193463, -531.349, -531.349, 0.0, 9.994373, 10.002699 
1.674989e+3, 1.23435095e+2, -1122540.5, -1676593.5, 24033.7, -0.016787093, 0.07438644, -1121500.0, 608845.0, 0.023371229, 10.005259, 9.997738 
1.6750008e+3, 1.3343295e+2, -1127555.1, -1663549.4, -55377.78, 0.07993242, 0.11091347, -1121893.4, 510472.4, 0.015250732, 10.004646, 9.997442 
1.6750103e+3, 1.4343e+2, -1054225.5, -1522200.9, -45688.195, -0.024419215, 0.05079152, -1049806.8, 484588.2, 0.0077619483, 10.004204, 9.997951 
1.6750212e+3, 1.5342844e+2, -980690.44, -1434594.5, -42534.78, -0.03515483, 0.094754316, -976738.94, 459671.06, 0.0026514174, 10.004007, 9.997973 
1.675032e+3, 1.6342661e+2, -944345.25, -1374750.4, -77457.01, -0.03298232, 0.11856032, -930830.25, 407598.34, 0.00043906242, 10.003612, 9.997903 
1.6750422e+3, 1.7342433e+2, -960686.1, -1338823.5, -81941.27, -0.021195589, 0.103201434, -943693.3, 296758.97, 0.000010990718, 10.002854, 9.997841 
1.6750522e+3, 1.8342228e+2, -933515.75, -1243738.8, -84133.09, -0.024996636, 0.104904056, -912167.75, 230305.89, 0.0, 10.0022335, 9.99812 
1.6750619e+3, 1.9342075e+2, -888390.25, -1170563.0, -77975.18, -0.054856595, 0.13383432, -868276.44, 176212.97, 0.0, 10.001867, 9.998126 
1.6750717e+3, 2.0341907e+2, -861135.4, -1096291.1, -82625.29, -0.068714075, 0.15305513, -835007.0, 111499.55, 0.0, 10.001336, 9.9982195 
1.6750818e+3, 2.1341728e+2, -887034.06, -1061142.4, -87810.46, -0.053034544, 0.14983678, -850439.1, -1913.9966, 0.0, 10.000499, 9.998192 
1.675092e+3, 2.2341573e+2, -828947.6, -886553.8, -71827.414, -0.049762182, 0.14219846, -780363.44, -29823.37, 0.0, 9.999812, 9.999048 
1.6751021e+3, 2.3341475e+2, -782359.9, -799936.44, -64217.055, -0.07112419, 0.124991655, -726332.56, -73785.45, 0.0, 9.999401, 9.999168 
1.6751122e+3, 2.434139e+2, -735785.2, -677248.7, -68264.164, -0.0778937, 0.10706382, -632242.94, -77689.78, 0.0, 9.998835, 9.99961 
1.6751228e+3, 2.5341332e+2, -758736.75, -632772.1, -75049.586, -0.054377466, 0.080068626, -597778.9, -141221.84, 0.0, 9.997984, 9.999652 
1.6751334e+3, 2.6341292e+2, -709305.56, -465380.8, -54349.133, -0.034472264, 0.043206796, -453819.22, -95260.39, 0.0, 9.9972515, 10.000482 
1.6751444e+3, 2.7341312e+2, -678762.2, -387046.72, -51790.973, -0.032107886, -0.0018674072, -378124.66, -117570.0, 0.0, 9.996734, 10.000596 
1.6751555e+3, 2.83414e+2, -618649.56, -229714.44, -36443.855, -0.04399117, 0.000073862575, -226329.05, -63785.71, 0.0, 9.996139, 10.001289 
1.6751665e+3, 2.934159e+2, -623471.8, -174085.55, -34797.508, -0.054331664, 0.048171118, -171407.02, -106885.19, 0.0, 9.995402, 10.001353 
1.6751784e+3, 3.0341572e+2, -665612.4, -170799.48, -25347.08, 0.009649024, -0.09869774, -169504.45, -169504.45, 0.0, 9.994786, 10.001337 
1.6751888e+3, 3.1341764e+2, -633608.8, -8523.8545, 10625.705, -0.107334934, -0.043459136, -8343.282, -8343.282, 0.0, 9.99437, 10.002653 
1.6849943e+3, 1.2342347e+2, -1138457.6, -1679722.9, 52100.53, -0.01886433, 0.06722768, -1133488.3, 596970.4, 0.024742758, 10.005135, 9.997776 
1.6850054e+3, 1.3342139e+2, -1101300.1, -1645058.1, -27914.174, 0.076962166, 0.10501985, -1099870.9, 532607.56, 0.016213037, 10.004812, 9.997488 
1.6850148e+3, 1.4341843e+2, -1028695.6, -1518749.9, -19892.916, -0.022035649, 0.045963798, -1027889.44, 506618.25, 0.008310287, 10.004422, 9.9978695 
1.6850252e+3, 1.5341684e+2, -1010825.94, -1461113.8, -14745.168, -0.03296383, 0.095644735, -1010343.6, 426180.38, 0.002875898, 10.003853, 9.997866 
1.6850354e+3, 1.6341498e+2, -982609.44, -1388546.8, -52757.223, -0.03323299, 0.122304246, -975864.94, 362678.2, 0.00048916513, 10.003329, 9.997943 
1.6850449e+3, 1.7341277e+2, -950082.75, -1326365.9, -52006.133, -0.029018577, 0.10525761, -943027.25, 297538.78, 0.000013084683, 10.002896, 9.997906 
1.6850545e+3, 1.8341075e+2, -910790.44, -1235040.9, -51469.336, -0.033913635, 0.107186995, -902816.6, 239770.34, 0.0, 10.0024, 9.998099 
1.6850638e+3, 1.934092e+2, -903844.2, -1182666.9, -58418.34, -0.05251469, 0.13990153, -892099.25, 152503.73, 0.0, 10.001782, 9.998083 
1.6850731e+3, 2.0340751e+2, -880337.6, -1101402.0, -74004.77, -0.06209986, 0.15781468, -857850.75, 88769.56, 0.0, 10.001188, 9.998256 
1.6850823e+3, 2.1340565e+2, -863450.4, -1044328.56, -68164.61, -0.055483896, 0.14407788, -840639.06, 7999.7383, 0.0, 10.000639, 9.998239 
1.6850917e+3, 2.234041e+2, -803398.94, -879291.06, -45719.633, -0.055099837, 0.13452177, -781929.6, -31275.852, 0.0, 10.0000105, 9.999002 
1.6851014e+3, 2.3340319e+2, -810759.9, -821136.75, -51570.918, -0.068008214, 0.13126132, -764117.06, -111456.266, 0.0, 9.99924, 9.9991 
1.6851111e+3, 2.4340239e+2, -778473.3, -697576.0, -65041.58, -0.07178224, 0.120847784, -661431.56, -106764.58, 0.0, 9.998543, 9.999611 
1.6851208e+3, 2.534018e+2, -759101.06, -631814.06, -62809.85, -0.05465868, 0.0893503, -606039.56, -149368.45, 0.0, 9.997978, 9.999661 
1.6851307e+3, 2.634014e+2, -690871.1, -451018.1, -31539.918, -0.033940822, 0.05193306, -446940.03, -88267.266, 0.0, 9.997355, 10.000529 
1.6851412e+3, 2.734017e+2, -690811.1, -386982.28, -24675.557, -0.019403053, 0.013753192, -384991.28, -124323.766, 0.0, 9.996627, 10.000647 
1.6851515e+3, 2.8340265e+2, -642624.8, -238525.69, -11015.723, -0.033188846, 0.01783396, -238225.63, -75569.92, 0.0, 9.995964, 10.001313 
1.6851617e+3, 2.9340452e+2, -621372.56, -172214.03, -19547.781, -0.06635515, 0.060404785, -171364.9, -106730.22, 0.0, 9.995415, 10.001359 
1.685173e+3, 3.0340433e+2, -669441.8, -184288.31, -9223.946, 0.005451792, -0.08118946, -184113.02, -184113.02, 0.0, 9.994811, 10.001232 
1.6851832e+3, 3.1340605e+2, -663427.3, -7042.6733, 38264.637, -0.09159071, -0.035479207, -4819.526, -4819.526, 0.0, 9.9941, 10.002793 
1.6949995e+3, 1.2341262e+2, -1142662.3, -1687400.6, 34012.797, 0.0014509476, 0.06764619, -1140546.8, 590017.8, 0.026157878, 10.0051365, 9.997722 
1.6950102e+3, 1.3341056e+2, -1104748.0, -1652412.9, -39460.234, 0.070622094, 0.11156142, -1101919.5, 530664.8, 0.017213266, 10.004816, 9.997437 
1.695019e+3, 1.4340748e+2, -1033505.2, -1529703.6, -39809.566, -0.032997232, 0.04966136, -1030331.56, 504282.97, 0.008886807, 10.004428, 9.997792 
1.6950291e+3, 1.5340562e+2, -1015933.6, -1472862.6, -36557.84, -0.024576757, 0.0789304, -1013027.25, 423606.9, 0.0031165276, 10.003858, 9.997784 
1.6950388e+3, 1.6340376e+2, -973906.7, -1371469.3, -69964.46, -0.021778274, 0.105560705, -961953.44, 376699.97, 0.0005450711, 10.003332, 9.998059 
1.6950478e+3, 1.7340206e+2, -938932.7, -1304310.1, -68212.75, -0.046746034, 0.124804996, -926613.4, 314057.66, 0.00001570412, 10.0029, 9.998056 
1.6950566e+3, 1.834002e+2, -921582.4, -1258523.3, -73598.83, -0.06113682, 0.14056894, -906207.56, 236482.88, 0.0, 10.002403, 9.997937 
1.6950655e+3, 1.9339816e+2, -919152.44, -1215397.0, -81472.07, -0.05142489, 0.14640534, -898224.7, 146487.34, 0.0, 10.001785, 9.997858 
1.6950744e+3, 2.0339628e+2, -869848.94, -1080424.1, -94627.45, -0.049465034, 0.15050241, -833574.44, 113157.0, 0.0, 10.00119, 9.9984 
1.695083e+3, 2.1339473e+2, -848074.2, -1013246.1, -88279.98, -0.06346184, 0.1468244, -809772.56, 38973.082, 0.0, 10.000641, 9.998452 
1.6950916e+3, 2.2339325e+2, -815295.25, -905023.0, -72961.89, -0.0705126, 0.14121729, -774507.44, -23748.055, 0.0, 10.000013, 9.998825 
1.6951007e+3, 2.3339204e+2, -828150.4, -858473.1, -79725.91, -0.06583144, 0.13085115, -762157.0, -109386.086, 0.0, 9.999244, 9.998842 
1.6951098e+3, 2.4339111e+2, -772230.8, -685962.9, -86256.3, -0.06503397, 0.12163739, -632656.75, -77877.87, 0.0, 9.998547, 9.999689 
1.6951187e+3, 2.533908e+2, -748791.06, -611424.2, -82685.8, -0.066489264, 0.1061868, -572616.44, -115836.64, 0.0, 9.997981, 9.999801 
1.695128e+3, 2.6339063e+2, -682856.94, -435385.0, -57053.88, -0.047703255, 0.0774024, -422864.8, -64085.805, 0.0, 9.997358, 10.000636 
1.6951379e+3, 2.7339098e+2, -683358.5, -372743.16, -51265.23, -0.006616044, 0.033290714, -364500.84, -103727.66, 0.0, 9.99663, 10.000744 
1.6951476e+3, 2.8339183e+2, -648135.1, -250906.22, -31838.73, -0.017326958, 0.026113478, -248370.45, -85608.12, 0.0, 9.995966, 10.001227 
1.695157e+3, 2.933934e+2, -630594.1, -191631.3, -39043.984, -0.08543561, 0.051100574, -188185.53, -123440.805, 0.0, 9.995415, 10.001226 
1.6951679e+3, 3.033933e+2, -667403.9, -180792.28, -34165.367, -0.0030361803, -0.073937595, -178405.2, -178405.2, 0.0, 9.994813, 10.001256 
1.6951777e+3, 3.1339523e+2, -640807.06, 37665.88, 9020.904, -0.050410442, -0.016757296, 37785.797, 37785.797, 0.0, 9.994107, 10.003098 
1.705005e+3, 1.23402245e+2, -1118769.8, -1685772.1, 53724.914, 0.01979929, 0.06353333, -1113724.0, 616941.6, 0.027613902, 10.005357, 9.997627 
1.705015e+3, 1.3340013e+2, -1112528.9, -1666062.9, -16976.373, 0.06766617, 0.11142394, -1112008.8, 520677.5, 0.018248972, 10.00481, 9.997345 
1.7050233e+3, 1.4339703e+2, -1050864.5, -1540995.3, -20190.295, -0.040973034, 0.05236448, -1050034.1, 484682.97, 0.009490694, 10.004323, 9.997764 
1.7050329e+3, 1.5339513e+2, -1013127.9, -1473190.4, -13181.361, -0.026926925, 0.0793414, -1012750.5, 423986.72, 0.003373872, 10.003885, 9.997767 
1.7050423e+3, 1.6339327e+2, -959767.44, -1363038.8, -45906.555, -0.021837668, 0.10717456, -954607.6, 384148.88, 0.0006074489, 10.003424, 9.998074 
1.7050505e+3, 1.7339168e+2, -934850.1, -1300537.1, -54296.996, -0.05080898, 0.13452163, -926958.44, 313814.72, 0.000019016989, 10.002921, 9.998072 
1.7050588e+3, 1.8338984e+2, -924938.0, -1260545.6, -65410.05, -0.066974916, 0.15352574, -912640.2, 230152.02, 0.0, 10.002383, 9.997932 
1.7050673e+3, 1.9338776e+2, -920199.3, -1217085.3, -58912.02, -0.055377528, 0.15340225, -908936.5, 135878.08, 0.0, 10.001784, 9.997847 
1.7050755e+3, 2.033858e+2, -868622.6, -1077589.8, -65611.734, -0.05337896, 0.15265007, -849729.9, 97104.43, 0.0, 10.00119, 9.998418 
1.7050834e+3, 2.1338426e+2, -851804.7, -1012772.0, -73296.125, -0.070330024, 0.14679357, -823430.94, 25417.213, 0.0, 10.0006075, 9.998471 
1.7050916e+3, 2.2338279e+2, -823215.7, -915151.94, -68195.61, -0.07633457, 0.14170712, -786942.06, -36080.16, 0.0, 9.999988, 9.998767 
1.7051e+3, 2.3338154e+2, -825132.94, -865356.25, -63595.652, -0.06385706, 0.13666542, -778544.6, -125670.37, 0.0, 9.999302, 9.998766 
1.7051083e+3, 2.4338064e+2, -758611.6, -673514.94, -60271.445, -0.060244452, 0.12934373, -642286.56, -87403.99, 0.0, 9.998617, 9.99974 
1.7051166e+3, 2.5338033e+2, -750475.5, -603975.56, -61023.527, -0.06726477, 0.11003466, -581887.0, -125004.29, 0.0, 9.997936, 9.999872 
1.7051253e+3, 2.6338026e+2, -700416.4, -445431.38, -45196.555, -0.050002705, 0.082663454, -437657.22, -78775.89, 0.0, 9.997247, 10.00062 
1.7051345e+3, 2.733806e+2, -699088.2, -384179.0, -49706.55, -0.004757338, 0.046990655, -376519.4, -115644.1, 0.0, 9.996541, 10.000708 
1.7051436e+3, 2.8338143e+2, -655962.06, -247467.08, -26657.826, -0.014975112, 0.036292065, -245734.77, -82869.805, 0.0, 9.995884, 10.00129 
1.7051524e+3, 2.933829e+2, -641524.25, -188864.67, -19059.77, -0.08451138, 0.043790344, -188063.56, -123215.24, 0.0, 9.995306, 10.001297 
1.7051627e+3, 3.0338308e+2, -681597.9, -195637.11, -9949.489, 0.009711617, -0.057052597, -195433.5, -195433.5, 0.0, 9.994751, 10.001183 
1.7051719e+3, 3.133849e+2, -614744.0, 62918.82, 18257.59, -0.04553696, -0.002067517, 63410.36, 63410.36, 0.0, 9.994233, 10.003209 
1.7150106e+3, 1.233924e+2, -1128872.0, -1705778.8, 28112.723, 0.031886015, 0.056526493, -1127505.4, 603256.2, 0.029108644, 10.00536, 9.997486 
1.71502e+3, 1.3339017e+2, -1121929.1, -1685990.9, -37000.457, 0.06831003, 0.10479129, -1119512.4, 513271.8, 0.01931887, 10.004814, 9.997207 
1.7150275e+3, 1.4338706e+2, -1049253.0, -1538324.0, -37029.137, -0.0458067, 0.05390022, -1046465.3, 488350.03, 0.010121678, 10.004328, 9.997781 
1.7150368e+3, 1.5338536e+2, -1009430.3, -1466603.8, -29861.453, -0.040303793, 0.0964829, -1007488.06, 429345.16, 0.0036483577, 10.00389, 9.997811 
1.7150456e+3, 1.6338353e+2, -965629.8, -1376472.0, -64518.566, -0.033775944, 0.12703727, -955736.1, 383116.25, 0.00067685224, 10.0034275, 9.99798 
1.7150536e+3, 1.7338161e+2, -942796.44, -1318168.4, -73220.17, -0.04167332, 0.13466148, -929019.7, 311852.75, 0.00002321552, 10.002924, 9.99795 
1.7150614e+3, 1.833797e+2, -914324.06, -1239433.4, -87283.45, -0.052140575, 0.14625566, -892372.9, 250519.48, 0.0, 10.002386, 9.998077 
1.715069e+3, 1.9337794e+2, -906281.3, -1188982.6, -81234.34, -0.06440052, 0.1608751, -884601.25, 160309.56, 0.0, 10.001786, 9.998039 
1.7150766e+3, 2.0337611e+2, -875987.9, -1093606.1, -87327.97, -0.07350142, 0.16443208, -845277.8, 101651.44, 0.0, 10.001192, 9.998308 
1.715084e+3, 2.1337426e+2, -863471.0, -1037890.9, -94615.44, -0.07625165, 0.1439716, -822004.4, 26942.102, 0.0, 10.000609, 9.998299 
1.7150916e+3, 2.2337267e+2, -819096.1, -907793.5, -92660.49, -0.07314866, 0.13584223, -760718.1, -9756.567, 0.0, 9.999991, 9.9988165 
1.7150992e+3, 2.3337169e+2, -818157.06, -852041.9, -88526.54, -0.062345196, 0.14854528, -744966.25, -91995.03, 0.0, 9.999306, 9.998857 
1.715107e+3, 2.4337086e+2, -756611.3, -670543.3, -84991.91, -0.057597704, 0.14404835, -618311.6, -63333.113, 0.0, 9.99862, 9.99976 
1.7151146e+3, 2.5337034e+2, -749519.44, -603389.6, -85487.42, -0.05768665, 0.10157581, -563997.5, -107016.97, 0.0, 9.99794, 9.999875 
1.7151226e+3, 2.6337013e+2, -709290.25, -465330.94, -70480.36, -0.04150621, 0.06864238, -446432.94, -87452.62, 0.0, 9.9972515, 10.000482 
1.715131e+3, 2.7337056e+2, -710281.4, -408642.9, -74890.375, -0.013240208, 0.05532492, -391072.7, -130098.16, 0.0, 9.996545, 10.000539 
1.7151393e+3, 2.8337142e+2, -641811.5, -219202.9, -47996.68, -0.025673132, 0.048392966, -213820.36, -50856.008, 0.0, 9.995887, 10.001484 
1.7151478e+3, 2.9337296e+2, -623284.6, -152072.6, -40024.9, -0.06563126, 0.038054492, -148697.05, -83750.555, 0.0, 9.99531, 10.001549 
1.7151578e+3, 3.0337352e+2, -692661.06, -219497.88, -29354.977, 0.041823592, -0.030519677, -217683.64, -217683.64, 0.0, 9.994754, 10.001019 
1.7151658e+3, 3.13375e+2, -619981.25, 51354.59, -5041.284, -0.07336017, 0.012896782, 51392.445, 51392.445, 0.0, 9.994235, 10.00313 
1.725016e+3, 1.2338309e+2, -1125857.1, -1711109.8, 45047.63, 0.042796463, 0.052613463, -1122410.1, 608442.5, 0.030640393, 10.005422, 9.997418 
1.7250247e+3, 1.3338082e+2, -1087190.1, -1674453.0, -8408.255, 0.06266415, 0.102322124, -1087069.8, 545806.06, 0.020422561, 10.00509, 9.997152 
1.725032e+3, 1.4337774e+2, -1003824.06, -1519093.9, -10045.532, -0.054432955, 0.055985335, -1003628.3, 531278.8, 0.010779774, 10.004659, 9.997754 
1.7250407e+3, 1.5337603e+2, -994873.94, -1461993.3, -9377.742, -0.042622287, 0.10143884, -994685.75, 442238.97, 0.0039402083, 10.004004, 9.997787 
1.725049e+3, 1.6337414e+2, -970458.7, -1384902.9, -43190.953, -0.033393804, 0.13089314, -966005.44, 372938.9, 0.00075369753, 10.003422, 9.997924 
1.7250565e+3, 1.7337207e+2, -938403.8, -1323360.5, -47642.063, -0.045909315, 0.13038859, -932595.3, 308370.78, 0.000028535813, 10.002987, 9.997884 
1.7250638e+3, 1.8337014e+2, -903850.25, -1230464.3, -69553.53, -0.059555445, 0.14122467, -889655.5, 253330.95, 0.0, 10.002441, 9.998111 
1.7250706e+3, 1.9336855e+2, -916708.5, -1188424.1, -75830.63, -0.07190392, 0.16891183, -896978.3, 148024.8, 0.0, 10.001692, 9.998089 
1.7250776e+3, 2.033668e+2, -894793.7, -1098963.6, -78620.086, -0.08109384, 0.17589015, -868028.1, 78992.625, 0.0, 10.001048, 9.99834 
1.7250845e+3, 2.1336484e+2, -862170.56, -1034207.7, -70886.27, -0.08431078, 0.14112224, -836725.9, 12312.954, 0.0, 10.000607, 9.998324 
1.7250915e+3, 2.233632e+2, -807757.9, -900806.8, -68353.85, -0.08036127, 0.12647274, -771597.56, -20543.373, 0.0, 10.000065, 9.998828 
1.7250985e+3, 2.333623e+2, -814098.2, -849462.44, -71916.305, -0.06633865, 0.14654624, -757722.1, -104658.99, 0.0, 9.999332, 9.99886 
1.7251056e+3, 2.4336153e+2, -753923.25, -665604.56, -70634.18, -0.059622563, 0.14512691, -626461.8, -71391.86, 0.0, 9.998625, 9.99979 
1.7251125e+3, 2.5336102e+2, -743074.06, -596388.25, -69092.25, -0.059917536, 0.099707015, -568969.5, -111897.69, 0.0, 9.99797, 9.999908 
1.7251198e+3, 2.633608e+2, -702916.25, -466084.25, -50612.8, -0.04341639, 0.066870846, -455721.38, -96649.92, 0.0, 9.9973135, 10.000445 
1.7251275e+3, 2.733612e+2, -698552.56, -408741.66, -47060.508, -0.015071507, 0.054386694, -401291.34, -140225.17, 0.0, 9.996652, 10.000485 
1.7251353e+3, 2.8336197e+2, -635185.6, -218310.39, -22057.117, -0.02859867, 0.042660702, -217146.58, -54089.5, 0.0, 9.995944, 10.001461 
1.725143e+3, 2.9336345e+2, -649419.8, -167461.61, -33851.992, -0.06733546, 0.030535871, -165095.52, -100055.51, 0.0, 9.995144, 10.001522 
1.7251526e+3, 3.033644e+2, -724441.8, -234599.11, -20123.297, 0.054450557, 0.0011665389, -233773.81, -233773.81, 0.0, 9.994536, 10.001019 
1.7251602e+3, 3.133655e+2, -607766.75, 67028.62, 17086.072, -0.063133046, 0.0026044506, 67460.96, 67460.96, 0.0, 9.994279, 10.003216 
1.7350215e+3, 1.2337434e+2, -1126693.0, -1711423.3, 27211.168, 0.04937104, 0.053332634, -1125429.5, 605509.0, 0.0322093, 10.005423, 9.9974165 
1.7350297e+3, 1.333721e+2, -1085622.5, -1670978.1, -20622.77, 0.050118882, 0.10391179, -1084896.8, 548064.3, 0.021559246, 10.005093, 9.997175 
1.7350365e+3, 1.43369e+2, -1008873.0, -1530204.9, -32606.377, -0.0675344, 0.05859093, -1006841.56, 528150.75, 0.011463729, 10.004663, 9.997676 
1.7350449e+3, 1.5336712e+2, -1000801.5, -1475539.0, -34510.07, -0.034054033, 0.09455779, -998305.94, 438705.72, 0.004248676, 10.004008, 9.997693 
1.7350525e+3, 1.6336511e+2, -971474.7, -1388218.6, -60880.027, -0.020926386, 0.1189217, -962763.1, 376269.3, 0.0008380689, 10.003427, 9.9979 
1.7350593e+3, 1.7336307e+2, -939027.8, -1325555.1, -63867.207, -0.06347614, 0.121689126, -928748.2, 312306.0, 0.000035226243, 10.00299, 9.997868 
1.7350659e+3, 1.8336116e+2, -909127.25, -1242227.9, -95749.21, -0.08901973, 0.13862404, -883565.8, 259508.92, 0.0, 10.002443, 9.998031 
1.7350723e+3, 1.9335958e+2, -922701.56, -1202298.4, -103875.586, -0.07807017, 0.17737025, -888334.1, 156757.56, 0.0, 10.001697, 9.997992 
1.7350785e+3, 2.0335786e+2, -882329.94, -1074650.6, -96534.5, -0.076813005, 0.18660282, -842234.2, 104874.79, 0.0, 10.001054, 9.998506 
1.735085e+3, 2.1335597e+2, -846818.7, -1003143.3, -86712.51, -0.094746515, 0.13839076, -808240.25, 40885.273, 0.0, 10.000609, 9.998537 
1.7350914e+3, 2.2335435e+2, -809695.56, -905395.3, -93530.734, -0.09780326, 0.11432401, -752485.4, -1345.214, 0.0, 10.000066, 9.998796 
1.7350978e+3, 2.3335336e+2, -819412.56, -861555.4, -98647.82, -0.07566763, 0.13126478, -739610.8, -86460.36, 0.0, 9.999336, 9.998776 
1.7351042e+3, 2.4335256e+2, -750689.1, -660309.3, -94675.28, -0.066291094, 0.13291773, -600591.94, -45434.504, 0.0, 9.99863, 9.9998255 
1.7351103e+3, 2.5335228e+2, -738520.6, -588200.8, -92527.15, -0.07359853, 0.1040166, -544153.9, -86996.7, 0.0, 9.997973, 9.999963 
1.7351171e+3, 2.633522e+2, -698739.5, -458567.1, -74588.85, -0.055421617, 0.0769004, -437287.84, -78132.305, 0.0, 9.997317, 10.000497 
1.7351243e+3, 2.7335244e+2, -694745.06, -401816.63, -71096.734, -0.011354583, 0.044982508, -385472.63, -124321.51, 0.0, 9.9966545, 10.000532 
1.7351313e+3, 2.83353e+2, -650598.2, -251256.48, -50595.63, -0.0248284, 0.02013928, -244945.86, -81801.79, 0.0, 9.995947, 10.001234 
1.735138e+3, 2.9335433e+2, -669035.44, -209651.19, -62956.734, -0.08791726, 0.021026243, -201179.45, -136049.7, 0.0, 9.99515, 10.001231 
1.7351471e+3, 3.0335563e+2, -713336.2, -213201.28, -31995.05, 0.048892166, 0.03844509, -211162.78, -211162.78, 0.0, 9.994542, 10.001164 
1.7351548e+3, 3.1335628e+2, -592438.9, 98551.21, 2097.6216, -0.017649353, -0.023348382, 98557.58, 98557.58, 0.0, 9.994279, 10.003433 
1.745027e+3, 1.23366185e+2, -1080452.4, -1694290.4, 51491.97, 0.04229025, 0.053180963, -1076162.9, 654855.6, 0.033814806, 10.005785, 9.997363 
1.7450349e+3, 1.333639e+2, -1072670.1, -1667522.8, 4562.73, 0.056051496, 0.10266967, -1072635.1, 560406.25, 0.022725288, 10.005205, 9.997145 
1.7450413e+3, 1.4336076e+2, -1013733.25, -1541906.0, -13754.709, -0.05506017, 0.05889579, -1013375.25, 521697.56, 0.012169373, 10.004676, 9.997588 
1.7450488e+3, 1.5335873e+2, -979865.2, -1476181.5, -17291.615, -0.039004307, 0.08996808, -979263.5, 457830.22, 0.0045711487, 10.004202, 9.997595 
1.7450559e+3, 1.6335668e+2, -945106.75, -1379808.6, -45488.74, -0.031701013, 0.11481752, -940397.7, 398717.63, 0.0009292908, 10.003628, 9.99786 
1.7450623e+3, 1.7335469e+2, -958662.06, -1338586.8, -50711.137, -0.057870355, 0.12798251, -952009.8, 289126.8, 0.000043435997, 10.0028715, 9.997835 
1.7450684e+3, 1.833528e+2, -932675.9, -1249511.9, -77861.09, -0.07847234, 0.14711037, -914575.9, 228581.19, 0.0000000000000006446772, 10.002266, 9.998065 
1.7450741e+3, 1.9335115e+2, -883574.7, -1178326.3, -75511.28, -0.084450915, 0.1722793, -865355.9, 179818.81, 0.0, 10.001945, 9.998036 
1.7450799e+3, 2.0334944e+2, -823004.94, -1038213.5, -69515.305, -0.0896177, 0.17866094, -802503.56, 144687.97, 0.0, 10.001429, 9.998573 
1.7450856e+3, 2.1334781e+2, -851101.6, -997612.1, -71505.664, -0.09378232, 0.1486582, -821987.94, 27217.762, 0.0, 10.000548, 9.998604 
1.7450914e+3, 2.233463e+2, -845387.5, -916145.44, -80627.34, -0.09168791, 0.1289014, -792718.5, -41499.285, 0.0, 9.999794, 9.998854 
1.745097e+3, 2.3334512e+2, -822628.5, -857136.3, -76260.21, -0.08151678, 0.122762635, -761694.7, -108464.08, 0.0, 9.9992895, 9.998829 
1.7451027e+3, 2.4334422e+2, -738960.5, -659021.75, -70735.44, -0.0794287, 0.11225643, -617744.25, -62505.813, 0.0, 9.998731, 9.999784 
1.7451082e+3, 2.53344e+2, -730100.4, -591012.0, -77592.35, -0.083423615, 0.09472426, -556359.4, -99121.31, 0.0, 9.998063, 9.9999 
1.7451143e+3, 2.63344e+2, -694281.1, -452713.06, -68140.92, -0.058821898, 0.08019395, -434817.72, -75582.07, 0.0, 9.997334, 10.000527 
1.7451209e+3, 2.733444e+2, -714133.94, -405840.9, -65241.96, -0.005553547, 0.056138232, -392602.66, -131373.02, 0.0, 9.996501, 10.000578 
1.7451271e+3, 2.833448e+2, -676128.75, -273743.22, -36618.293, -0.021747278, 0.01970597, -270438.0, -107214.305, 0.0, 9.995817, 10.001142 
1.7451331e+3, 2.9334572e+2, -642554.9, -210551.75, -37252.344, -0.10475425, -0.010091974, -207362.95, -142149.1, 0.0, 9.995392, 10.001106 
1.7451416e+3, 3.0334735e+2, -672078.3, -186557.23, -480.7661, 0.040520526, 0.04475877, -186556.77, -186556.77, 0.0, 9.994798, 10.001224 
1.7451492e+3, 3.13348e+2, -651692.94, 66731.88, 16700.033, 0.003147767, -0.026685772, 67119.875, 67119.875, 0.0, 9.993888, 10.003402 
1.7550325e+3, 1.2335866e+2, -1088521.3, -1710139.9, 25418.652, 0.01803734, 0.05294145, -1087483.6, 643608.6, 0.035452783, 10.00579, 9.99725 
1.7550404e+3, 1.3335624e+2, -1078969.5, -1680713.8, -16918.188, 0.08028568, 0.098777816, -1078494.3, 554622.06, 0.023914408, 10.005208, 9.997053 
1.7550464e+3, 1.4335304e+2, -1020779.25, -1556955.9, -32042.336, -0.017289761, 0.056992523, -1018871.1, 516277.4, 0.0128906295, 10.004679, 9.997484 
1.7550528e+3, 1.5335089e+2, -986895.9, -1491686.5, -35250.523, -0.057520717, 0.08749409, -984446.2, 452724.66, 0.0049036215, 10.004206, 9.997488 
1.7550592e+3, 1.633488e+2, -949004.75, -1389030.9, -72329.16, -0.06568915, 0.11841476, -937420.6, 401772.28, 0.0010258079, 10.003632, 9.997796 
1.7550655e+3, 1.7334694e+2, -961928.0, -1346736.1, -79258.664, -0.029934283, 0.14896083, -946242.5, 294970.84, 0.000053058222, 10.002876, 9.997778 
1.7550711e+3, 1.8334505e+2, -921933.94, -1228450.1, -92219.766, -0.02921098, 0.16622144, -896327.5, 246906.06, 0.0000000010737394, 10.00227, 9.998209 
1.7550759e+3, 1.933432e+2, -870533.8, -1152075.3, -86972.19, -0.09123674, 0.1541705, -845833.8, 199418.34, 0.0, 10.001946, 9.998217 
1.755081e+3, 2.0334153e+2, -824988.25, -1043096.8, -98896.22, -0.11916787, 0.15305217, -786824.0, 160444.66, 0.0, 10.0014305, 9.99854 
1.7550863e+3, 2.1334028e+2, -855990.6, -1009146.6, -104271.66, -0.08184853, 0.1712394, -803197.94, 46081.938, 0.0, 10.000552, 9.998524 
1.7550914e+3, 2.2333896e+2, -834952.75, -896130.8, -101066.08, -0.063028626, 0.16875839, -759948.0, -8656.183, 0.0, 9.9998, 9.998989 
1.7550963e+3, 2.3333754e+2, -809746.56, -831486.56, -94087.24, -0.084300816, 0.12085366, -725903.5, -72599.3, 0.0, 9.999293, 9.999003 
1.7551012e+3, 2.4333642e+2, -747095.06, -676670.4, -93937.14, -0.09899857, 0.083925776, -611562.75, -56249.258, 0.0, 9.998733, 9.999663 
1.7551063e+3, 2.533361e+2, -742536.4, -617612.94, -101672.13, -0.089997865, 0.07273202, -560748.7, -103433.5, 0.0, 9.998065, 9.999717 
1.7551117e+3, 2.6333618e+2, -693127.8, -451295.88, -97559.01, -0.054555606, 0.07719465, -416846.38, -57533.93, 0.0, 9.997336, 10.000537 
1.7551175e+3, 2.7333695e+2, -710486.6, -399588.4, -95526.59, 0.0025832443, 0.08657395, -372582.72, -111280.17, 0.0, 9.996505, 10.00062 
1.755123e+3, 2.8333732e+2, -674092.4, -270825.06, -54097.05, -0.01895174, 0.040126912, -263694.22, -100397.3, 0.0, 9.995821, 10.001161 
1.7551284e+3, 2.9333752e+2, -641186.0, -207970.72, -52664.77, -0.11983742, -0.06113076, -201660.33, -136367.08, 0.0, 9.995391, 10.001125 
1.7551364e+3, 3.0333945e+2, -673018.7, -188481.73, -31432.738, 0.027411083, 0.022375533, -186451.14, -186451.14, 0.0, 9.994796, 10.001212 
1.7551431e+3, 3.133406e+2, -670332.94, 26948.518, -24984.07, 0.0027539239, 0.0052752784, 27842.566, 27842.566, 0.0, 9.993892, 10.003127 
1.7650385e+3, 1.2335181e+2, -1025720.3, -1695169.6, 44275.883, 0.019130277, 0.059224445, -1022804.7, 708354.94, 0.037119433, 10.006318, 9.997101 
1.7650458e+3, 1.3334925e+2, -1038870.0, -1675132.0, 3205.4077, 0.08147704, 0.10260861, -1038853.8, 594331.3, 0.025121944, 10.005561, 9.996921 
1.7650512e+3, 1.4334594e+2, -1002909.75, -1559836.0, -10455.843, -0.012620594, 0.06257067, -1002713.56, 532505.0, 0.013622558, 10.004859, 9.997376 
1.7650571e+3, 1.5334369e+2, -991492.0, -1505006.9, -13481.375, -0.048831366, 0.09386699, -991138.3, 446103.53, 0.0052421433, 10.004225, 9.997386 
1.7650628e+3, 1.6334152e+2, -954085.8, -1393217.1, -52823.49, -0.056634177, 0.12322925, -947821.0, 391443.78, 0.0011256209, 10.003607, 9.997778 
1.7650683e+3, 1.733396e+2, -941430.56, -1337100.4, -56958.105, -0.02792178, 0.14804362, -933394.44, 307891.1, 0.00006369791, 10.003019, 9.997773 
1.7650735e+3, 1.833377e+2, -893241.25, -1206886.4, -63215.668, -0.029963238, 0.16315064, -880979.4, 262326.1, 0.000000009428086, 10.002435, 9.998277 
1.7650779e+3, 1.93336e+2, -878380.7, -1146957.5, -64593.117, -0.08637881, 0.15588285, -863653.5, 181669.14, 0.0, 10.001856, 9.998294 
1.7650823e+3, 2.0333439e+2, -845463.06, -1047884.4, -87942.1, -0.11334666, 0.15666342, -812593.9, 134744.45, 0.0, 10.001269, 9.998585 
1.7650868e+3, 2.1333316e+2, -836384.44, -995563.6, -87215.75, -0.083967604, 0.1706108, -797901.7, 51448.164, 0.0, 10.00067, 9.998559 
1.7650913e+3, 2.2333187e+2, -796142.5, -868077.3, -76922.4, -0.0688599, 0.16640152, -747194.0, 4167.3584, 0.0, 10.000028, 9.999071 
1.7650956e+3, 2.3333056e+2, -802302.5, -818106.8, -75908.21, -0.08577175, 0.12162192, -733886.25, -80514.29, 0.0, 9.999303, 9.99909 
1.7650999e+3, 2.4332947e+2, -771551.25, -692923.9, -79571.95, -0.096825935, 0.08273381, -643483.6, -88102.76, 0.0, 9.998585, 9.999622 
1.7651042e+3, 2.5332898e+2, -773635.2, -640177.1, -79904.805, -0.086015984, 0.06172103, -602802.6, -145418.28, 0.0, 9.997886, 9.999648 
1.765109e+3, 2.6332897e+2, -714216.9, -467068.06, -74286.05, -0.05168007, 0.06497041, -446458.38, -87075.875, 0.0, 9.997218, 10.000485 
1.765114e+3, 2.733298e+2, -699383.8, -399729.06, -79362.016, -0.0012839038, 0.08388935, -380008.28, -118636.195, 0.0, 9.996607, 10.000568 
1.7651188e+3, 2.833301e+2, -661645.25, -262876.9, -40006.484, -0.023982916, 0.03459186, -258902.84, -95535.984, 0.0, 9.9959, 10.001176 
1.7651236e+3, 2.9333022e+2, -694465.6, -229589.67, -36999.4, -0.113137245, -0.07919411, -226663.33, -161299.4, 0.0, 9.995009, 10.001161 
1.7651309e+3, 3.033325e+2, -729320.3, -198857.31, -7397.3823, 0.03856401, 0.03011017, -198754.17, -198754.17, 0.0, 9.994339, 10.00136 
1.7651369e+3, 3.1333357e+2, -662577.25, 10377.549, 2673.6802, -0.01593546, -0.010453458, 10388.171, 10388.171, 0.0, 9.994035, 10.002944 
1.7750451e+3, 1.23345695e+2, -1039452.6, -1721690.8, 12503.311, 0.042742774, 0.07287943, -1039223.56, 691996.44, 0.03881866, 10.006319, 9.996912 
1.775051e+3, 1.3334294e+2, -1050956.8, -1700968.1, -24666.055, 0.05941615, 0.11400243, -1050022.0, 583225.7, 0.026349314, 10.005567, 9.996741 
1.7750558e+3, 1.4333948e+2, -1010684.2, -1577104.3, -34804.07, -0.04119786, 0.07554834, -1008553.7, 526728.94, 0.014363984, 10.004865, 9.997256 
1.7750616e+3, 1.5333715e+2, -998271.7, -1520136.0, -37418.594, -0.013626954, 0.10894013, -995602.4, 441704.38, 0.0055844067, 10.00423, 9.997281 
1.775067e+3, 1.6333483e+2, -952060.94, -1389994.4, -75113.35, -0.005511458, 0.12920864, -939535.94, 399794.94, 0.0012270979, 10.00361, 9.9978 
1.7750712e+3, 1.7333268e+2, -937628.75, -1330572.9, -78817.88, -0.051203627, 0.12582804, -922408.75, 318944.47, 0.00007484196, 10.003024, 9.997817 
1.7750755e+3, 1.8333077e+2, -893505.1, -1208792.0, -84724.945, -0.07961157, 0.1385815, -872179.94, 271192.97, 0.000000028818846, 10.0024395, 9.998262 
1.7750798e+3, 1.933295e+2, -879907.56, -1151113.5, -85960.0, -0.07051234, 0.17660081, -854957.5, 190428.95, 0.0, 10.001859, 9.998265 
1.775084e+3, 2.0332803e+2, -836895.8, -1030944.56, -109710.85, -0.073592424, 0.18826246, -787461.3, 159939.6, 0.0, 10.001271, 9.9987 
1.7750874e+3, 2.133264e+2, -825659.9, -974472.0, -108944.68, -0.09991604, 0.147908, -768137.1, 81278.66, 0.0, 10.000674, 9.998703 
1.775091e+3, 2.23325e+2, -793747.25, -864510.7, -102593.78, -0.108193755, 0.12387991, -720605.5, 30822.57, 0.0, 10.000032, 9.999094 
1.7750949e+3, 2.3332416e+2, -801816.4, -818504.25, -102225.81, -0.08605728, 0.124894954, -707594.56, -54160.098, 0.0, 9.999308, 9.999086 
1.7750986e+3, 2.4332328e+2, -768625.25, -688264.06, -104987.13, -0.073961526, 0.10724225, -616031.25, -60590.035, 0.0, 9.9985895, 9.999653 
1.7751023e+3, 2.5332257e+2, -770501.7, -635130.94, -105001.3, -0.0719748, 0.060937002, -577890.0, -120443.6, 0.0, 9.99789, 9.999681 
1.7751062e+3, 2.6332235e+2, -721808.8, -484258.16, -96821.71, -0.050159406, 0.043917272, -449795.03, -90348.41, 0.0, 9.997222, 10.000366 
1.7751105e+3, 2.7332288e+2, -709335.1, -421423.94, -101261.99, -0.01794666, 0.05030429, -389376.13, -127937.15, 0.0, 9.99661, 10.00042 
1.7751145e+3, 2.8332314e+2, -660045.75, -260410.31, -71074.29, -0.038077526, 0.004946063, -248146.27, -84712.016, 0.0, 9.995902, 10.001193 
1.7751189e+3, 2.9332376e+2, -689650.44, -221146.86, -69703.695, -0.08463119, -0.06644976, -210996.3, -145569.42, 0.0, 9.995015, 10.001217 
1.7751257e+3, 3.0332643e+2, -708219.7, -156579.33, -20938.266, 0.07406536, 0.06524671, -155785.73, -155785.73, 0.0, 9.994344, 10.001649 
1.7751305e+3, 3.1332698e+2, -672420.94, -9443.448, -16702.432, -0.05381516, -0.05197443, -9022.929, -9022.929, 0.0, 9.994031, 10.0028105 
1.7850517e+3, 1.2334016e+2, -1000681.3, -1719133.8, 32552.389, 0.04299318, 0.077871956, -999209.44, 732065.25, 0.040560734, 10.006683, 9.996755 
1.7850569e+3, 1.3333724e+2, -1001553.1, -1691809.4, 1723.962, 0.0566586, 0.11936938, -1001548.8, 631755.1, 0.027601795, 10.005991, 9.996598 
1.7850608e+3, 1.433337e+2, -961625.06, -1562956.3, -6852.4307, -0.03906739, 0.08448277, -961547.0, 573792.8, 0.015116413, 10.005255, 9.997164 
1.7850661e+3, 1.5333128e+2, -976289.44, -1518185.3, -8157.9224, 0.0017419024, 0.116111584, -976166.6, 461198.13, 0.0059298896, 10.004422, 9.9972 
1.7850707e+3, 1.6332889e+2, -941640.75, -1388811.0, -40860.79, 0.011320643, 0.13426252, -937937.7, 401451.78, 0.0013293475, 10.0037, 9.997763 
1.7850742e+3, 1.7332666e+2, -916100.9, -1323407.3, -49454.21, -0.05423563, 0.12750497, -910182.25, 331230.1, 0.00008603958, 10.003188, 9.997786 
1.7850778e+3, 1.8332474e+2, -869857.4, -1193739.6, -61611.914, -0.088793926, 0.1364443, -858532.94, 284899.34, 0.0000000562377, 10.002588, 9.998293 
1.7850818e+3, 1.9332343e+2, -882517.5, -1147758.6, -59041.633, -0.060479347, 0.17011432, -869968.75, 175476.86, 0.0, 10.001822, 9.998304 
1.7850854e+3, 2.0332202e+2, -846933.3, -1026177.5, -76275.28, -0.056687817, 0.17954049, -818869.25, 128590.32, 0.0, 10.001163, 9.998785 
1.785088e+3, 2.133205e+2, -814840.8, -959081.56, -78888.07, -0.09958909, 0.14152622, -780074.94, 69398.5, 0.0, 10.000706, 9.998793 
1.785091e+3, 2.233192e+2, -775127.2, -851143.06, -81940.2, -0.11441537, 0.12048899, -722809.0, 28675.742, 0.0, 10.000142, 9.999132 
1.7850943e+3, 2.3331842e+2, -790923.9, -810149.0, -81214.78, -0.07967817, 0.124638416, -718754.75, -65264.15, 0.0, 9.999371, 9.999112 
1.7850974e+3, 2.4331757e+2, -759171.44, -680545.2, -80458.73, -0.0632117, 0.10797689, -630308.7, -74811.766, 0.0, 9.998643, 9.99968 
1.7851003e+3, 2.5331685e+2, -751947.5, -623495.94, -80954.55, -0.07212569, 0.059304036, -584384.5, -126882.586, 0.0, 9.998007, 9.999704 
1.7851035e+3, 2.633166e+2, -708568.0, -480496.88, -71094.27, -0.05588739, 0.037993494, -460150.5, -100648.24, 0.0, 9.997325, 10.000341 
1.7851071e+3, 2.73317e+2, -719306.1, -430244.44, -67331.78, -0.020254193, 0.03616377, -415330.2, -153834.58, 0.0, 9.996558, 10.000382 
1.7851104e+3, 2.8331724e+2, -678834.3, -274754.16, -38635.3, -0.039354388, -0.01167508, -271093.3, -107601.766, 0.0, 9.995797, 10.001144 
1.785114e+3, 2.9331788e+2, -687620.5, -223934.19, -45283.66, -0.08709475, -0.07284522, -219553.17, -154069.33, 0.0, 9.995047, 10.001182 
1.7851199e+3, 3.0332068e+2, -687006.75, -115048.31, 10379.887, 0.07341792, 0.05957268, -114860.0, -114860.0, 0.0, 9.994355, 10.001928 
1.7851244e+3, 3.1332144e+2, -737258.06, -57070.64, 6511.66, -0.05411313, -0.06774671, -57008.31, -57008.31, 0.0, 9.993658, 10.002662 
1.795058e+3, 1.2333523e+2, -1010424.4, -1738549.6, 3380.8562, 0.016984144, 0.07511099, -1010408.7, 720914.4, 0.042352896, 10.006689, 9.996616 
1.795063e+3, 1.3333222e+2, -1009618.7, -1708575.8, -23740.922, 0.07306747, 0.11857671, -1008813.25, 624540.44, 0.028883435, 10.005995, 9.996483 
1.7950664e+3, 1.4332864e+2, -966539.8, -1573479.1, -37134.184, -0.006563612, 0.08918644, -964276.25, 571113.75, 0.015881747, 10.005259, 9.997091 
1.7950706e+3, 1.5332611e+2, -979979.44, -1527086.6, -39454.98, -0.0027430558, 0.11553897, -977148.75, 460267.03, 0.0062793037, 10.004427, 9.997137 
1.7950743e+3, 1.6332367e+2, -948075.25, -1403645.5, -61861.246, -0.0058641434, 0.13840805, -939824.6, 399616.2, 0.0014321968, 10.003705, 9.99766 
1.7950776e+3, 1.7332155e+2, -923285.06, -1339530.8, -68315.88, -0.037791204, 0.15239398, -912359.56, 329103.6, 0.00009698782, 10.003192, 9.997674 
1.7950808e+3, 1.8331952e+2, -864416.6, -1183571.8, -88479.3, -0.058976416, 0.15614247, -841528.94, 301955.0, 0.000000085167756, 10.002591, 9.998362 
1.7950837e+3, 1.9331782e+2, -874350.7, -1132382.0, -87375.62, -0.05624477, 0.13747652, -847547.44, 197952.92, 0.0, 10.001827, 9.998408 
1.7950864e+3, 2.0331632e+2, -842922.2, -1019465.7, -94551.31, -0.062053334, 0.13200995, -801842.3, 145672.25, 0.0, 10.001167, 9.998829 
1.7950888e+3, 2.133154e+2, -812181.75, -954716.4, -95102.26, -0.08366431, 0.15059528, -764606.9, 84916.31, 0.0, 10.00071, 9.998821 
1.7950913e+3, 2.2331437e+2, -771179.8, -843936.5, -108221.77, -0.08896962, 0.15439449, -693385.75, 58146.395, 0.0, 10.000145, 9.999182 
1.7950937e+3, 2.3331328e+2, -786791.25, -802841.56, -109392.42, -0.06721467, 0.121096954, -685130.0, -31588.959, 0.0, 9.999374, 9.999162 
1.7950961e+3, 2.4331228e+2, -757204.7, -677887.94, -104035.41, -0.064321175, 0.08629966, -606208.3, -50659.668, 0.0, 9.998647, 9.999697 
1.7950982e+3, 2.5331178e+2, -750555.1, -621936.8, -103571.3, -0.086309515, 0.057345472, -564333.4, -106781.97, 0.0, 9.998011, 9.999714 
1.7951007e+3, 2.6331165e+2, -703334.6, -470982.56, -98035.2, -0.0691411, 0.046612993, -435146.2, -75595.97, 0.0, 9.997329, 10.000406 
1.7951037e+3, 2.733121e+2, -713775.3, -420164.06, -95144.33, -0.008471092, 0.039286077, -392028.75, -130485.67, 0.0, 9.996563, 10.000451 
1.7951064e+3, 2.8331223e+2, -686658.06, -292188.25, -66395.67, -0.02793018, -0.016568953, -281312.63, -117772.86, 0.0, 9.9958, 10.001024 
1.7951086e+3, 2.9331252e+2, -697063.25, -243908.45, -72596.414, -0.12124793, -0.09539745, -232562.42, -167026.86, 0.0, 9.995046, 10.001045 
1.795114e+3, 3.033152e+2, -667561.9, -74893.53, -14067.996, 0.035712454, 0.015232707, -74559.8, -74559.8, 0.0, 9.994354, 10.002205 
1.7951185e+3, 3.13317e+2, -748531.2, -81532.06, -29007.213, -0.017219769, -0.034654956, -80272.945, -80272.945, 0.0, 9.993662, 10.002493 
1.8050648e+3, 1.2333107e+2, -968206.75, -1730378.3, 29949.227, 0.0033784544, 0.07344309, -967031.75, 764332.0, 0.044194207, 10.007063, 9.996491 
1.8050691e+3, 1.3332804e+2, -976967.6, -1703045.4, 8024.6196, 0.07534512, 0.122738644, -976878.94, 656516.1, 0.030195342, 10.006282, 9.996382 
1.8050718e+3, 1.433244e+2, -934946.25, -1564853.8, -6691.3623, 0.0032481444, 0.097110264, -934875.2, 600556.75, 0.016661882, 10.005515, 9.9970255 
1.8050751e+3, 1.5332168e+2, -939314.7, -1514002.8, -9913.063, -0.002116112, 0.11163369, -939143.75, 498315.38, 0.0066342093, 10.004741, 9.997075 
1.8050782e+3, 1.6331916e+2, -910659.9, -1390394.1, -24672.408, -0.0069009294, 0.13103788, -909394.4, 430090.53, 0.0015360732, 10.003986, 9.997614 
1.8050809e+3, 1.7331712e+2, -913632.06, -1339585.9, -25270.09, -0.02722801, 0.15739286, -912138.1, 329368.56, 0.00010759822, 10.003281, 9.99763 
1.8050835e+3, 1.8331513e+2, -860468.0, -1180718.8, -46846.184, -0.04548351, 0.16614462, -853756.06, 289771.16, 0.000000109468616, 10.002616, 9.998368 
1.8050855e+3, 1.9331333e+2, -844132.0, -1115964.9, -53200.156, -0.055727735, 0.13824996, -834091.1, 211453.17, 0.0, 10.002029, 9.998423 
1.8050878e+3, 2.0331182e+2, -807172.2, -1001675.1, -62394.246, -0.06587939, 0.12911008, -788877.6, 158681.14, 0.0, 10.001412, 9.998832 
1.8050897e+3, 2.1331096e+2, -807956.7, -952638.9, -64766.15, -0.07573273, 0.15482424, -783200.5, 66366.414, 0.0, 10.00074, 9.99882 
1.8050915e+3, 2.2331001e+2, -775948.94, -836890.44, -83082.05, -0.076607816, 0.16118024, -717926.2, 33649.176, 0.0, 10.000073, 9.999263 
1.8050931e+3, 2.3330894e+2, -773420.5, -785690.1, -82518.01, -0.06447605, 0.12232319, -696809.56, -43225.875, 0.0, 9.999421, 9.999256 
1.8050948e+3, 2.4330801e+2, -736726.5, -660438.75, -72420.19, -0.066861115, 0.084937915, -616731.3, -61140.777, 0.0, 9.998755, 9.9997635 
1.8050961e+3, 2.5330758e+2, -738676.8, -609294.2, -68068.555, -0.08564312, 0.057308782, -580079.75, -122487.46, 0.0, 9.998064, 9.999775 
1.805098e+3, 2.6330745e+2, -701808.25, -469863.06, -66002.875, -0.067534305, 0.043881256, -452396.44, -92805.58, 0.0, 9.997339, 10.000408 
1.8051003e+3, 2.7330786e+2, -715128.1, -422015.8, -69757.03, -0.010444683, 0.031425364, -406261.3, -144676.75, 0.0, 9.99656, 10.000439 
1.8051021e+3, 2.8330806e+2, -697609.75, -300364.1, -42739.47, -0.03249941, -0.015416844, -295817.78, -132237.05, 0.0, 9.995738, 10.000998 
1.8051036e+3, 2.9330853e+2, -723035.8, -257658.88, -39170.45, -0.12600808, -0.07344002, -254384.95, -188810.06, 0.0, 9.994874, 10.001034 
1.8051082e+3, 3.0331087e+2, -680000.94, -54981.16, 28468.943, 0.030125234, -0.00420885, -53687.11, -53687.11, 0.0, 9.994159, 10.002436 
1.8051119e+3, 3.1331313e+2, -780835.75, -110480.81, -3403.1814, -0.019085472, -0.03242276, -110463.54, -110463.54, 0.0, 9.993499, 10.002371 
1.8150719e+3, 1.2332772e+2, -976622.4, -1746640.0, -2218.8557, 0.00051154394, 0.07277381, -976616.0, 754780.56, 0.046079237, 10.007067, 9.996378 
1.8150753e+3, 1.333247e+2, -983259.56, -1716105.1, -20277.174, 0.06260365, 0.13159953, -982698.94, 650729.0, 0.03153795, 10.006287, 9.99629 
1.8150772e+3, 1.4332098e+2, -939529.3, -1575113.9, -35251.617, -0.010189406, 0.10813223, -937580.1, 597885.3, 0.017459882, 10.00552, 9.996954 
1.8150799e+3, 1.5331802e+2, -943614.6, -1524135.3, -38967.594, 0.003667543, 0.1044058, -941010.56, 496484.25, 0.006997103, 10.0047455, 9.997004 
1.8150824e+3, 1.6331534e+2, -909600.75, -1389533.6, -51575.43, 0.007877255, 0.11250278, -904120.8, 435401.06, 0.0016420432, 10.003991, 9.997619 
1.8150842e+3, 1.7331336e+2, -911395.3, -1336535.8, -51399.246, -0.022751097, 0.14309825, -905269.44, 336273.53, 0.0001180569, 10.003285, 9.997649 
1.815086e+3, 1.833115e+2, -864109.75, -1189858.5, -69186.63, -0.048195742, 0.16662975, -850024.1, 293538.3, 0.00000012626741, 10.002622, 9.998304 
1.8150876e+3, 1.9330995e+2, -849091.8, -1127721.0, -74743.82, -0.05891667, 0.17127128, -830307.75, 215270.14, 0.0, 10.002034, 9.998341 
1.8150891e+3, 2.0330845e+2, -809270.0, -1007246.2, -86514.26, -0.06851183, 0.1694257, -776791.94, 170800.75, 0.0, 10.001416, 9.998793 
1.8150905e+3, 2.1330716e+2, -809736.75, -957421.4, -89175.35, -0.07584133, 0.15463614, -767799.4, 81805.5, 0.0, 10.000743, 9.998787 
1.8150917e+3, 2.2330604e+2, -768031.75, -821541.4, -106668.74, -0.07706521, 0.1420686, -684813.6, 66801.12, 0.0, 10.000076, 9.999368 
1.8150926e+3, 2.3330536e+2, -763466.8, -766415.44, -105920.79, -0.07113598, 0.12805219, -659010.06, -5390.899, 0.0, 9.999425, 9.999388 
1.8150935e+3, 2.4330467e+2, -728088.25, -644003.06, -97007.875, -0.07100384, 0.10277089, -580319.06, -24695.725, 0.0, 9.99876, 9.999875 
1.8150944e+3, 2.5330418e+2, -730940.5, -594327.0, -92945.51, -0.070972286, 0.05880892, -547287.8, -89662.56, 0.0, 9.998067, 9.999877 
1.8150954e+3, 2.6330397e+2, -705651.7, -478794.1, -93771.7, -0.051817752, 0.030194247, -445052.16, -85427.13, 0.0, 9.997341, 10.000347 
1.8150966e+3, 2.733042e+2, -721161.94, -435703.16, -98125.39, -0.026413286, 0.013752255, -405226.7, -143605.9, 0.0, 9.996563, 10.000344 
1.8150975e+3, 2.833046e+2, -692326.75, -290784.72, -74280.664, -0.05335315, -0.007682816, -277484.2, -113868.95, 0.0, 9.995743, 10.001062 
1.8150987e+3, 2.9330575e+2, -714597.25, -241740.14, -70197.5, -0.10221044, -0.009647638, -231539.11, -165936.13, 0.0, 9.994879, 10.001142 
1.8151027e+3, 3.0330765e+2, -666984.94, -29652.441, 5558.093, 0.055703647, -0.0029701034, -29603.973, -29603.973, 0.0, 9.9941635, 10.002608 
1.8151051e+3, 3.1331003e+2, -786438.94, -122637.24, -38524.4, -0.05923568, -0.031993505, -120408.914, -120408.914, 0.0, 9.9935, 10.002288 
1.825079e+3, 1.2332511e+2, -924691.75, -1726312.0, 19062.586, -0.004287353, 0.07361179, -924238.7, 807183.44, 0.0480037, 10.007483, 9.996318 
1.8250819e+3, 1.3332202e+2, -933835.9, -1694429.4, 9213.772, 0.061924234, 0.12973528, -933724.25, 699729.75, 0.032912623, 10.00666, 9.996258 
1.825083e+3, 1.433183e+2, -899271.1, -1563179.1, -3770.7954, -0.007812619, 0.1091802, -899249.7, 636242.0, 0.018279623, 10.005841, 9.99688 
1.8250848e+3, 1.5331526e+2, -911365.94, -1517560.5, -8567.006, 0.0032254502, 0.1055007, -911244.9, 526277.1, 0.007371066, 10.005012, 9.99692 
1.8250865e+3, 1.6331251e+2, -874084.5, -1370204.6, -18240.47, 0.00838441, 0.11121113, -873414.75, 466134.88, 0.0017517109, 10.004229, 9.997636 
1.8250878e+3, 1.7331049e+2, -873913.06, -1314610.5, -16905.19, -0.0125456, 0.13443622, -873265.5, 368305.1, 0.00012878962, 10.003529, 9.997682 
1.8250889e+3, 1.8330862e+2, -839265.7, -1188335.4, -33145.848, -0.03660507, 0.15754342, -836146.25, 307444.03, 0.00000013249935, 10.002839, 9.998209 
1.8250898e+3, 1.9330707e+2, -837965.2, -1136079.9, -41446.383, -0.062580794, 0.17582664, -832310.25, 213296.2, 0.0, 10.0021715, 9.998217 
1.8250905e+3, 2.0330559e+2, -796442.1, -995468.5, -55062.008, -0.07834314, 0.1820443, -782224.5, 165396.94, 0.0, 10.001482, 9.998841 
1.8250912e+3, 2.1330434e+2, -802816.5, -944850.2, -50605.4, -0.07384026, 0.16299334, -786630.7, 63002.293, 0.0, 10.000752, 9.998867 
1.8250918e+3, 2.2330324e+2, -764302.2, -813471.8, -62223.387, -0.07137908, 0.14452305, -721982.9, 29659.635, 0.0, 10.000076, 9.999423 
1.825092e+3, 2.3330253e+2, -749185.9, -753945.56, -66974.875, -0.07807369, 0.124028854, -684548.56, -30901.584, 0.0, 9.999501, 9.999435 
1.8250921e+3, 2.4330193e+2, -710739.6, -622661.06, -67255.055, -0.082360715, 0.09912157, -586309.44, -30659.168, 0.0, 9.998825, 9.9999895 
1.8250924e+3, 2.5330165e+2, -738092.56, -583972.8, -63286.21, -0.07081665, 0.0641363, -561316.25, -103666.266, 0.0, 9.997959, 10.0 
1.8250927e+3, 2.633015e+2, -723849.25, -481778.97, -56443.18, -0.046209097, 0.03267575, -469265.1, -109615.99, 0.0, 9.997192, 10.000398 
1.8250932e+3, 2.7330163e+2, -711147.0, -426698.78, -50963.36, -0.026992133, 0.0025267107, -417843.56, -156197.55, 0.0, 9.996614, 10.000381 
1.8250933e+3, 2.8330222e+2, -675972.0, -287163.9, -33131.363, -0.05540455, -0.0030886612, -284360.9, -120721.75, 0.0, 9.995874, 10.001023 
1.8250935e+3, 2.9330373e+2, -716959.2, -247634.16, -39779.383, -0.09760782, 0.036703326, -244286.39, -178662.66, 0.0, 9.9948845, 10.001099 
1.8250966e+3, 3.0330497e+2, -666714.25, -15960.497, 37057.105, 0.05340511, -0.022085829, -13857.083, -13857.083, 0.0, 9.994108, 10.002728 
1.8250984e+3, 3.1330773e+2, -784891.44, -106785.15, -20191.443, -0.06875866, -0.027033005, -106184.45, -106184.45, 0.0, 9.993447, 10.002421 
1.8350865e+3, 1.2332326e+2, -926809.7, -1728878.0, -14326.62, -0.013969005, 0.07517983, -926553.9, 804886.44, 0.04996796, 10.007488, 9.996298 
1.8350884e+3, 1.3332005e+2, -933102.7, -1692076.8, -20404.322, 0.07353424, 0.1174216, -932554.56, 700918.44, 0.034322336, 10.006665, 9.996273 
1.835089e+3, 1.4331634e+2, -904771.8, -1574889.6, -34443.78, 0.010320185, 0.10056728, -903006.06, 632504.5, 0.01912538, 10.005845, 9.9967985 
1.8350898e+3, 1.5331337e+2, -917398.7, -1531504.0, -39316.836, -0.004097919, 0.114509106, -914891.7, 522648.97, 0.0077595795, 10.005017, 9.996822 
1.8350905e+3, 1.6331063e+2, -871834.5, -1367368.9, -44959.746, -0.0056906426, 0.12644377, -867788.4, 471779.88, 0.001867059, 10.004234, 9.997653 
1.8350914e+3, 1.7330848e+2, -870486.0, -1309074.3, -42836.902, 0.003166958, 0.13121097, -866341.25, 375248.47, 0.00014041337, 10.003533, 9.997718 
1.8350919e+3, 1.8330641e+2, -847740.2, -1207082.4, -58094.086, -0.011331806, 0.13948536, -838581.7, 305029.25, 0.00000012564814, 10.002842, 9.998079 
1.8350919e+3, 1.9330467e+2, -848961.8, -1160259.1, -65819.664, -0.06699684, 0.15291564, -835617.1, 210013.03, 0.0, 10.002175, 9.998049 
1.8350919e+3, 2.0330322e+2, -787102.44, -977449.9, -81258.16, -0.095339715, 0.16770364, -757132.5, 190512.84, 0.0, 10.001486, 9.998964 
1.835092e+3, 2.1330246e+2, -789513.25, -918492.2, -77280.23, -0.06988478, 0.17958397, -753349.25, 96302.54, 0.0, 10.000756, 9.999047 
1.835092e+3, 2.2330153e+2, -763492.75, -812857.7, -83950.84, -0.060018383, 0.16783309, -700671.06, 50988.215, 0.0, 10.000079, 9.999427 
1.8350914e+3, 2.3330043e+2, -751269.1, -759177.44, -87381.99, -0.0856078, 0.11071087, -667751.9, -14084.185, 0.0, 9.999503, 9.9994 
1.8350907e+3, 2.4329974e+2, -702606.3, -606738.6, -96772.31, -0.100887746, 0.07499956, -546679.25, 8992.565, 0.0, 9.998827, 10.000099 
1.8350902e+3, 2.5329992e+2, -727838.2, -564145.2, -94755.35, -0.08477815, 0.07339056, -520782.16, -63114.98, 0.0, 9.997964, 10.000134 
1.8350899e+3, 2.633e+2, -712013.0, -458941.97, -78798.26, -0.050632134, 0.050612915, -436412.4, -76748.35, 0.0, 9.997198, 10.000553 
1.8350899e+3, 2.7330005e+2, -699758.25, -404220.0, -71888.836, -0.013062439, -0.0036288113, -387661.03, -125999.7, 0.0, 9.996617, 10.000535 
1.8350893e+3, 2.8330073e+2, -685719.0, -307988.63, -67845.37, -0.039595824, -0.002086477, -296172.34, -132518.83, 0.0, 9.995875, 10.00088 
1.8350883e+3, 2.9330236e+2, -730496.9, -276360.97, -75045.08, -0.11212742, 0.06804292, -264281.22, -198643.31, 0.0, 9.994885, 10.000901 
1.8350905e+3, 3.0330282e+2, -661765.2, -7370.743, 13929.169, 0.023381082, -0.060307518, -7074.3867, -7074.3867, 0.0, 9.994113, 10.002787 
1.835092e+3, 3.1330633e+2, -758870.9, -54714.934, -55809.72, -0.047659483, 0.0003925512, -50319.03, -50319.03, 0.0, 9.993454, 10.002777 
1.8450941e+3, 1.23322316e+2, -858537.94, -1702568.3, 23405.52, -0.018440198, 0.063347384, -857889.44, 873559.7, 0.051976025, 10.008031, 9.996226 
1.8450953e+3, 1.3331912e+2, -897114.1, -1678043.3, 17270.912, 0.073370345, 0.110956736, -896732.4, 736749.25, 0.035770997, 10.00695, 9.996231 
1.845095e+3, 1.4331543e+2, -881798.1, -1572715.9, 8520.362, 0.012662479, 0.10164826, -881693.06, 653826.1, 0.0200011, 10.006053, 9.996713 
1.845095e+3, 1.5331233e+2, -861701.75, -1515468.3, 4504.4106, -0.0065148138, 0.11284892, -861670.7, 575880.1, 0.008165893, 10.005454, 9.996721 
1.845095e+3, 1.6330951e+2, -805334.1, -1339902.6, -7851.931, -0.007979717, 0.12376706, -805218.8, 534360.44, 0.0019899523, 10.004714, 9.99761 
1.8450952e+3, 1.7330733e+2, -847277.7, -1301483.0, -11980.791, 0.008866742, 0.13044347, -846961.9, 394638.8, 0.00015365024, 10.00371, 9.9976845 
1.8450949e+3, 1.8330523e+2, -849514.4, -1210849.5, -20260.982, -0.0020832957, 0.13920829, -848381.8, 295240.3, 0.00000011027377, 10.002844, 9.998052 
1.8450941e+3, 1.9330345e+2, -840773.25, -1159528.0, -17332.254, -0.06234526, 0.15040296, -839833.56, 205808.63, 0.0, 10.002247, 9.998018 
1.8450934e+3, 2.03302e+2, -772115.94, -970221.0, -34993.15, -0.09366694, 0.16623856, -766116.5, 181541.2, 0.0, 10.001591, 9.998962 
1.8450928e+3, 2.133013e+2, -780548.44, -913696.3, -44636.73, -0.06833075, 0.18508497, -766969.25, 82694.19, 0.0, 10.000817, 9.99905 
1.845092e+3, 2.2330043e+2, -757380.7, -797917.2, -52265.418, -0.058532786, 0.17437524, -721591.1, 30079.217, 0.0, 10.000072, 9.999532 
1.8450908e+3, 2.3329936e+2, -760572.2, -749785.25, -44300.72, -0.083626136, 0.10860872, -710550.94, -56872.77, 0.0, 9.999381, 9.999522 
1.8450895e+3, 2.4329877e+2, -717267.4, -606732.1, -53059.34, -0.099938735, 0.07276653, -585385.1, -29703.719, 0.0, 9.998697, 10.000161 
1.8450882e+3, 2.5329915e+2, -716158.56, -552896.75, -58408.63, -0.08857825, 0.082996234, -534152.5, -76477.07, 0.0, 9.998021, 10.000183 
1.8450871e+3, 2.6329926e+2, -689768.7, -433419.97, -45015.39, -0.0566355, 0.059069227, -425744.97, -66073.27, 0.0, 9.997289, 10.000683 
1.8450864e+3, 2.732993e+2, -714074.06, -395166.25, -39044.31, -0.015076951, -0.010447173, -390455.6, -128786.83, 0.0, 9.996452, 10.000676 
1.845085e+3, 2.8330016e+2, -714973.7, -312600.72, -33660.934, -0.037921906, -0.0031090258, -309804.22, -146145.28, 0.0, 9.995635, 10.000963 
1.8450832e+3, 2.9330206e+2, -723202.4, -265716.13, -20625.438, -0.11132867, 0.08608426, -264788.13, -199147.58, 0.0, 9.994906, 10.000963 
1.8450846e+3, 3.0330187e+2, -667819.4, -31713.455, 72731.95, 0.010875702, -0.09777461, -23503.297, -23503.297, 0.0, 9.994165, 10.002593 
1.8450855e+3, 3.133055e+2, -784224.5, -40890.867, -34387.676, -0.040256847, -0.008226339, -39303.434, -39303.434, 0.0, 9.99317, 10.003008 
1.8551022e+3, 1.23322286e+2, -868107.2, -1719379.6, -17736.002, -0.018888792, 0.038191166, -867737.8, 863710.56, 0.054030303, 10.008033, 9.996104 
1.8551022e+3, 1.3331923e+2, -903773.6, -1691881.9, -21499.014, 0.060461603, 0.10969171, -903187.6, 730292.25, 0.037260756, 10.006956, 9.996134 
1.8551008e+3, 1.4331555e+2, -888305.3, -1587669.8, -15944.085, -0.0015965533, 0.11168666, -887942.0, 647575.5, 0.02090893, 10.006062, 9.996607 
1.8551004e+3, 1.5331213e+2, -869200.6, -1532136.9, -17447.244, -0.0041267932, 0.10090423, -868741.75, 568810.6, 0.008592045, 10.005459, 9.996606 
1.8550998e+3, 1.6330911e+2, -812112.8, -1354856.6, -42929.35, 0.0011544274, 0.1041574, -808738.25, 530844.7, 0.002121696, 10.004717, 9.997507 
1.8550988e+3, 1.7330705e+2, -853338.25, -1316105.4, -49451.9, 0.004529568, 0.13205417, -848112.75, 393491.0, 0.00016919235, 10.003717, 9.997582 
1.8550977e+3, 1.8330507e+2, -843875.5, -1201506.3, -44589.348, -0.008689606, 0.15573725, -838399.94, 305224.28, 0.00000010372912, 10.002852, 9.998113 
1.8550964e+3, 1.9330338e+2, -833632.25, -1146166.3, -39021.52, -0.04906389, 0.16764885, -828833.9, 216809.08, 0.0, 10.002252, 9.998109 
1.855095e+3, 2.0330186e+2, -780345.75, -988148.2, -62435.824, -0.074186556, 0.17763385, -763029.44, 184629.48, 0.0, 10.001593, 9.998839 
1.8550937e+3, 2.1330084e+2, -791894.25, -938392.6, -72811.72, -0.06934331, 0.17989017, -761862.3, 87806.04, 0.0, 10.00082, 9.99888 
1.855092e+3, 2.2329989e+2, -743172.44, -769698.5, -77679.016, -0.06675934, 0.16446564, -677632.3, 74043.8, 0.0, 10.000075, 9.999724 
1.8550903e+3, 2.3329929e+2, -741504.7, -711285.4, -69132.46, -0.07251139, 0.117361784, -655630.6, -1951.5187, 0.0, 9.999384, 9.999786 
1.8550883e+3, 2.4329895e+2, -715991.7, -605034.7, -77559.95, -0.08042166, 0.09174611, -565153.8, -9474.13, 0.0, 9.9987, 10.000173 
1.8550862e+3, 2.5329918e+2, -718678.06, -558996.6, -82703.305, -0.08284128, 0.09290062, -523883.53, -66208.06, 0.0, 9.998023, 10.000141 
1.8550843e+3, 2.6329923e+2, -682312.94, -418878.75, -74432.18, -0.064344786, 0.058475476, -399302.94, -39630.086, 0.0, 9.997292, 10.000783 
1.8550828e+3, 2.7329934e+2, -704597.2, -376770.3, -69844.43, -0.032697715, -0.017214036, -362510.06, -100841.016, 0.0, 9.996456, 10.000802 
1.8550807e+3, 2.8330046e+2, -693676.06, -269827.8, -61517.984, -0.050135817, -0.0058771926, -261079.56, -97423.234, 0.0, 9.99564, 10.001256 
1.8550782e+3, 2.933027e+2, -701382.5, -221509.66, -46141.09, -0.09601665, 0.089424856, -217113.33, -151480.38, 0.0, 9.994909, 10.001267 
1.8550788e+3, 3.0330208e+2, -699247.7, -98084.52, 39261.0, 0.014505257, -0.13514487, -95531.29, -95531.29, 0.0, 9.994168, 10.002137 
1.8550786e+3, 3.1330526e+2, -775207.0, -23431.623, -83120.81, -0.044691887, -0.037056826, -14350.97, -14350.97, 0.0, 9.993174, 10.003127 
1.8651104e+3, 1.2332332e+2, -865602.2, -1731191.8, 13376.576, -0.009993495, 0.031369485, -865395.5, 866042.06, 0.056125898, 10.008129, 9.995972 
1.8651094e+3, 1.3332012e+2, -822455.25, -1663178.3, 12581.286, 0.04946677, 0.10090419, -822267.0, 811203.56, 0.038788553, 10.007603, 9.996019 
1.8651071e+3, 1.433164e+2, -780793.7, -1540664.0, 15245.061, -0.014929409, 0.10826372, -780487.94, 755020.75, 0.021847501, 10.006849, 9.99655 
1.8651061e+3, 1.5331295e+2, -846925.9, -1526366.8, 17723.508, 0.005274702, 0.0987426, -846463.9, 591080.0, 0.009038066, 10.005639, 9.996558 
1.8651046e+3, 1.6330989e+2, -826565.06, -1369307.1, 506.4454, 0.017446762, 0.10266702, -826564.6, 513010.34, 0.002262623, 10.004652, 9.997438 
1.8651026e+3, 1.7330775e+2, -803603.3, -1300825.4, -3838.2063, -0.001469804, 0.1302905, -803573.7, 438023.13, 0.0001874543, 10.004098, 9.997503 
1.8651007e+3, 1.8330571e+2, -770873.06, -1172980.8, -3295.0686, -0.020991318, 0.15577987, -770846.06, 372771.88, 0.00000012857647, 10.003384, 9.998052 
1.8650989e+3, 1.9330402e+2, -822165.0, -1147044.6, -9021.095, -0.037337076, 0.17361122, -821914.7, 223722.0, 0.0, 10.002359, 9.998051 
1.8650968e+3, 2.0330249e+2, -796708.44, -993372.1, -30839.742, -0.05469186, 0.18355529, -791985.75, 155667.13, 0.0, 10.001471, 9.998861 
1.8650945e+3, 2.1330138e+2, -785310.9, -931260.2, -26408.482, -0.07370693, 0.17442387, -780679.44, 68983.52, 0.0, 10.000851, 9.998914 
1.865092e+3, 2.2330044e+2, -730568.44, -760434.1, -30485.053, -0.08141462, 0.1566256, -711555.3, 40115.363, 0.0, 10.00015, 9.999752 
1.8650897e+3, 2.333e+2, -754095.8, -714705.6, -40098.707, -0.070841506, 0.12475749, -689726.3, -36053.86, 0.0, 9.999289, 9.999807 
1.8650872e+3, 2.4329981e+2, -738016.75, -600193.75, -52349.13, -0.06915546, 0.10601386, -582564.94, -26893.086, 0.0, 9.998485, 10.000308 
1.8650842e+3, 2.533001e+2, -741244.44, -552634.1, -43388.906, -0.07653809, 0.097183466, -543131.5, -85464.58, 0.0, 9.997796, 10.000293 
1.8650815e+3, 2.633002e+2, -701332.94, -416827.6, -29361.742, -0.06673911, 0.057427358, -413828.97, -54165.45, 0.0, 9.997114, 10.000881 
1.8650791e+3, 2.7330047e+2, -702880.06, -366238.44, -28696.443, -0.04700532, -0.012579624, -363809.78, -102151.26, 0.0, 9.9964285, 10.000886 
1.8650761e+3, 2.8330174e+2, -677333.7, -238151.66, -27047.006, -0.060459856, 0.00081365905, -236492.23, -72848.15, 0.0, 9.995652, 10.001467 
1.8650733e+3, 2.9330415e+2, -714183.2, -204692.19, -17551.44, -0.08110425, 0.08698901, -204088.27, -138469.64, 0.0, 9.994724, 10.001471 
1.8650727e+3, 3.0330348e+2, -759336.5, -160924.08, 68057.67, 0.013890014, -0.13790241, -153281.45, -153281.45, 0.0, 9.993904, 10.001832 
1.8650718e+3, 3.133062e+2, -747633.06, 24039.68, -50913.184, -0.0452331, -0.05088455, 27384.316, 27384.316, 0.0, 9.993218, 10.00343 
1.8751186e+3, 1.233254e+2, -877137.3, -1753649.0, -10412.3545, 0.005145222, 0.041109376, -877013.6, 854403.2, 0.05825323, 10.008134, 9.995817 
1.8751168e+3, 1.3332182e+2, -832870.4, -1684036.1, -6175.5664, 0.04047328, 0.08554302, -832825.6, 800628.2, 0.04034781, 10.007606, 9.995875 
1.8751138e+3, 1.4331801e+2, -781670.75, -1542160.5, -25102.084, -0.027290927, 0.09278765, -780843.06, 754649.6, 0.02281322, 10.006852, 9.996539 
1.8751118e+3, 1.5331478e+2, -845034.5, -1523793.1, -27610.17, 0.020814272, 0.105861746, -843913.25, 593612.1, 0.0095027825, 10.005645, 9.996573 
1.8751095e+3, 1.6331181e+2, -828575.0, -1375630.0, -24012.344, 0.0400286, 0.11811743, -827523.0, 512032.63, 0.0024124729, 10.00466, 9.997392 
1.8751067e+3, 1.7330939e+2, -807389.8, -1310418.3, -24025.094, -0.009277482, 0.12528008, -806244.94, 435335.2, 0.00020849351, 10.004104, 9.997436 
1.8751039e+3, 1.8330714e+2, -782704.3, -1198814.0, -38639.188, -0.039026193, 0.14043535, -779146.75, 364456.88, 0.00000020872017, 10.003387, 9.997874 
1.8751013e+3, 1.9330534e+2, -835649.2, -1176649.9, -47103.1, -0.027311064, 0.16871825, -829262.4, 216361.4, 0.0, 10.002364, 9.997847 
1.8750985e+3, 2.0330381e+2, -785150.6, -970949.9, -55805.395, -0.03540484, 0.18375814, -769677.8, 177962.17, 0.0, 10.001475, 9.999014 
1.8750952e+3, 2.1330285e+2, -769333.06, -899129.0, -48705.484, -0.081432484, 0.16885102, -753089.4, 96558.445, 0.0, 10.000853, 9.999134 
1.875092e+3, 2.23302e+2, -739883.7, -780520.75, -60777.867, -0.10250968, 0.1513358, -696118.0, 55536.78, 0.0, 10.000151, 9.999614 
1.8750888e+3, 2.3330146e+2, -768636.5, -745865.8, -71508.016, -0.07849814, 0.1308864, -684842.44, -31183.793, 0.0, 9.99929, 9.999594 
1.8750857e+3, 2.4330129e+2, -720396.9, -564769.8, -78000.42, -0.065959856, 0.11540597, -532406.2, 23252.346, 0.0, 9.998487, 10.00055 
1.8750821e+3, 2.533018e+2, -717341.7, -504315.63, -67961.99, -0.069850534, 0.09581065, -484480.5, -26829.902, 0.0, 9.9978, 10.000624 
1.8750787e+3, 2.6330212e+2, -694570.8, -404036.03, -54315.574, -0.0643319, 0.055998717, -394213.78, -34569.22, 0.0, 9.997118, 10.000969 
1.8750753e+3, 2.733026e+2, -699919.4, -360961.06, -53962.434, -0.058490682, 0.0031586005, -352577.56, -90939.46, 0.0, 9.99643, 10.000922 
1.8750718e+3, 2.8330392e+2, -668323.8, -220270.14, -59896.563, -0.06913187, 0.016332066, -212401.27, -48777.984, 0.0, 9.995653, 10.00159 
1.8750681e+3, 2.933062e+2, -706179.1, -189791.98, -51258.73, -0.06643797, 0.07827616, -184753.0, -119154.42, 0.0, 9.99473, 10.001572 
1.8750666e+3, 3.0330592e+2, -770246.5, -185587.98, 41331.953, 0.008721288, -0.10472496, -182680.52, -182680.52, 0.0, 9.993911, 10.001661 
1.8750651e+3, 3.1330833e+2, -714301.56, 92506.305, -84394.84, -0.041975338, -0.04074562, 101239.75, 101239.75, 0.0, 9.993219, 10.003901 
1.885127e+3, 1.2332818e+2, -809843.3, -1728321.9, 12478.778, -0.0012734334, 0.048592, -809673.8, 921715.6, 0.060408417, 10.008686, 9.995725 
1.8851246e+3, 1.3332437e+2, -813938.44, -1682325.9, 25483.637, 0.042549845, 0.07866968, -813191.25, 820237.2, 0.04193453, 10.007789, 9.995798 
1.8851209e+3, 1.433205e+2, -774185.9, -1539894.9, -508.73538, -0.019255735, 0.08510535, -774185.56, 761282.4, 0.023803229, 10.00692, 9.99652 
1.8851177e+3, 1.5331729e+2, -784738.1, -1495572.4, -7400.689, 0.018809745, 0.09946412, -784661.06, 652839.4, 0.009984999, 10.006073, 9.996561 
1.8851143e+3, 1.633143e+2, -753342.4, -1346415.8, 3777.8103, 0.034171257, 0.11466971, -753318.3, 586212.5, 0.0025709476, 10.005211, 9.997327 
1.885111e+3, 1.7331186e+2, -781869.7, -1306878.1, 4467.732, -0.0068229213, 0.12678812, -781831.7, 459724.2, 0.0002321364, 10.004318, 9.997355 
1.8851073e+3, 1.8330954e+2, -779816.9, -1198746.9, -13814.778, -0.033349, 0.14176475, -779361.8, 364218.16, 0.0000003620115, 10.003415, 9.99786 
1.8851037e+3, 1.9330765e+2, -817114.25, -1168304.9, -10167.723, -0.028456545, 0.16004027, -816820.1, 228780.56, 0.0, 10.002496, 9.997839 
1.8851002e+3, 2.0330606e+2, -766931.94, -965961.8, -7994.234, -0.03786872, 0.17145473, -766611.4, 181005.94, 0.0, 10.001618, 9.998979 
1.8850961e+3, 2.1330516e+2, -777538.4, -907981.1, -18476.697, -0.07472104, 0.1660852, -774971.7, 74653.23, 0.0, 10.000819, 9.999089 
1.8850921e+3, 2.2330435e+2, -757681.25, -784046.0, -41085.492, -0.09296976, 0.15464523, -727715.1, 23916.553, 0.0, 10.00001, 9.999657 
1.8850881e+3, 2.3330384e+2, -781116.25, -745386.8, -33965.758, -0.077726156, 0.1318874, -724874.2, -71238.805, 0.0, 9.999179, 9.999649 
1.8850839e+3, 2.4330372e+2, -729209.9, -559294.8, -29537.826, -0.06908707, 0.11365524, -554306.44, 1328.545, 0.0, 9.998387, 10.000635 
1.8850799e+3, 2.533043e+2, -730857.6, -500607.16, -36194.906, -0.069232754, 0.09392474, -495051.44, -37425.13, 0.0, 9.997666, 10.000713 
1.8850757e+3, 2.6330483e+2, -714636.56, -396473.6, -32815.637, -0.0641961, 0.062429354, -393124.22, -33505.81, 0.0, 9.996909, 10.00112 
1.8850715e+3, 2.7330562e+2, -739671.4, -362181.5, -24531.688, -0.062486656, 0.024711417, -360593.97, -98985.12, 0.0, 9.996083, 10.00108 
1.8850672e+3, 2.83307e+2, -702082.0, -222826.2, -24656.242, -0.07026557, 0.025440175, -221561.06, -57967.28, 0.0, 9.995365, 10.00171 
1.8850629e+3, 2.9330897e+2, -689185.06, -172414.94, -17851.621, -0.06336403, 0.04725206, -171798.98, -106227.234, 0.0, 9.994809, 10.001651 
1.8850604e+3, 3.0330926e+2, -766708.7, -204821.77, 68871.44, -0.015449553, -0.07154463, -196503.22, -196503.22, 0.0, 9.994027, 10.0014715 
1.8850583e+3, 3.1331113e+2, -745543.9, 94508.3, -66420.21, -0.027578365, -0.04189346, 99727.5, 99727.5, 0.0, 9.992933, 10.004051 
1.8951353e+3, 1.23331666e+2, -814008.06, -1733916.5, -22079.516, -0.030271096, 0.054053318, -813478.44, 917876.75, 0.06259933, 10.008689, 9.995685 
1.8951325e+3, 1.3332778e+2, -816118.6, -1684967.9, -6538.9917, 0.054488856, 0.07933632, -816069.4, 817325.3, 0.04355142, 10.0077915, 9.99578 
1.895128e+3, 1.4332388e+2, -777115.2, -1545427.9, -31771.703, 0.0075125187, 0.084135614, -775803.56, 759630.8, 0.024817288, 10.006923, 9.996483 
1.8951237e+3, 1.5332043e+2, -787678.56, -1502812.9, -38862.72, -0.00029479392, 0.080407225, -785572.9, 651896.2, 0.010483924, 10.006079, 9.99651 
1.8951192e+3, 1.6331737e+2, -758280.1, -1358516.4, -29129.8, 0.0008174593, 0.09401093, -756869.75, 582630.5, 0.0027377422, 10.005218, 9.997242 
1.8951154e+3, 1.7331511e+2, -787750.56, -1320556.0, -28716.559, 0.0052791922, 0.1346413, -786207.3, 455316.78, 0.00025809358, 10.004323, 9.99726 
1.895111e+3, 1.833129e+2, -769786.5, -1179166.0, -47829.16, -0.0051324116, 0.15860868, -764272.75, 379274.53, 0.0000005804038, 10.003418, 9.997994 
1.8951061e+3, 1.9331089e+2, -803932.5, -1142614.0, -44317.75, -0.04052484, 0.14774053, -798229.4, 247338.55, 0.0, 10.002501, 9.998014 
1.8951014e+3, 2.033092e+2, -781489.25, -997763.25, -38202.234, -0.06137778, 0.14761631, -774939.6, 172645.61, 0.0, 10.001623, 9.998759 
1.8950972e+3, 2.1330823e+2, -798388.3, -952284.5, -47560.305, -0.054365523, 0.1658631, -784876.5, 64718.313, 0.0, 10.000822, 9.998784 
1.8950926e+3, 2.2330745e+2, -742829.06, -754040.56, -71144.766, -0.054203827, 0.1656251, -677069.56, 74532.41, 0.0, 10.0000105, 9.999864 
1.8950874e+3, 2.333071e+2, -759068.1, -700851.94, -64212.1, -0.06898992, 0.12817968, -659458.44, -5855.143, 0.0, 9.999182, 9.999954 
1.8950823e+3, 2.4330702e+2, -733623.25, -569848.44, -56394.145, -0.07850768, 0.10165851, -552308.25, 3293.7466, 0.0, 9.998391, 10.000562 
1.8950774e+3, 2.5330755e+2, -741032.3, -522818.6, -62205.836, -0.074590735, 0.09142102, -506331.38, -48736.594, 0.0, 9.997668, 10.00056 
1.8950726e+3, 2.6330826e+2, -699949.5, -367016.63, -62347.2, -0.06636504, 0.07625264, -355724.1, 3861.639, 0.0, 9.996911, 10.001322 
1.8950677e+3, 2.7330944e+2, -720420.44, -323681.88, -54769.563, -0.059565857, 0.05240403, -316259.8, -54688.18, 0.0, 9.996087, 10.001344 
1.8950626e+3, 2.8331074e+2, -693460.25, -206549.1, -46324.7, -0.06442049, 0.028332882, -202180.95, -38624.383, 0.0, 9.99537, 10.001821 
1.8950576e+3, 2.9331225e+2, -684811.6, -164732.55, -38456.586, -0.07164757, -0.007164795, -161904.31, -96365.03, 0.0, 9.994813, 10.001703 
1.895054e+3, 3.0331334e+2, -780954.25, -235260.89, 29974.363, -0.058674954, -0.037486233, -233619.36, -233619.36, 0.0, 9.994029, 10.001263 
1.8950514e+3, 3.133147e+2, -759168.44, 65756.8, -110236.484, -0.0019880987, -0.036776435, 80233.87, 80233.87, 0.0, 9.992933, 10.003855 
1.9051442e+3, 1.2333593e+2, -774674.9, -1718978.8, -2847.0066, -0.03279023, 0.058941476, -774666.3, 956647.25, 0.064835355, 10.009021, 9.995632 
1.9051404e+3, 1.3333191e+2, -794281.75, -1676908.4, 14311.336, 0.05591082, 0.072511315, -794049.75, 839304.7, 0.045202557, 10.007976, 9.995746 
1.905135e+3, 1.4332798e+2, -756186.3, -1532553.4, -3817.1223, 0.012535828, 0.07828672, -756167.56, 779226.5, 0.025855307, 10.007068, 9.9965 
1.9051297e+3, 1.5332462e+2, -743562.3, -1478261.9, -4556.898, -0.007110028, 0.079272434, -743534.06, 693893.7, 0.010997751, 10.006377, 9.996532 
1.9051246e+3, 1.6332155e+2, -717428.44, -1347298.4, 955.3001, -0.009235021, 0.09485913, -717427.0, 622032.0, 0.0029116573, 10.005539, 9.997163 
1.9051197e+3, 1.7331915e+2, -780212.6, -1328836.3, -1548.1558, 0.0087140035, 0.13243786, -780208.25, 461276.38, 0.00028585113, 10.004428, 9.997152 
1.9051145e+3, 1.8331689e+2, -765728.4, -1174005.4, -19405.04, 0.002424185, 0.15583561, -764808.1, 378700.34, 0.0000008310821, 10.003434, 9.998021 
1.9051087e+3, 1.9331495e+2, -776034.0, -1123533.3, -24288.125, -0.046887133, 0.14932027, -774344.6, 271183.03, 0.0, 10.00267, 9.998063 
1.905103e+3, 2.0331326e+2, -758483.6, -991834.3, -21657.842, -0.06969829, 0.14777628, -756490.56, 191054.19, 0.0, 10.001805, 9.998711 
1.905098e+3, 2.133121e+2, -814428.75, -968178.9, -15672.823, -0.042332415, 0.15383016, -812847.4, 36708.996, 0.0, 10.000749, 9.99871 
1.9050926e+3, 2.2331129e+2, -768519.2, -761719.6, -29318.465, -0.035017118, 0.1529669, -735604.5, 15959.506, 0.0, 9.999816, 9.999903 
1.9050865e+3, 2.3331119e+2, -764032.25, -696351.1, -39257.12, -0.067136765, 0.13507503, -678362.1, -24799.094, 0.0, 9.999121, 10.000014 
1.9050807e+3, 2.4331121e+2, -733327.94, -562826.7, -39506.016, -0.08326057, 0.1127873, -554117.75, 1443.1042, 0.0, 9.998367, 10.000621 
1.905075e+3, 2.533116e+2, -762626.6, -526991.4, -31063.564, -0.06723245, 0.08309822, -522965.13, -65410.234, 0.0, 9.997497, 10.000613 
1.9050695e+3, 2.6331237e+2, -724507.9, -364678.84, -23894.328, -0.059877325, 0.066786826, -363099.06, -3554.0676, 0.0, 9.996684, 10.001446 
1.9050635e+3, 2.733139e+2, -725622.3, -310645.4, -25448.512, -0.073057674, 0.06258451, -309090.63, -47563.1, 0.0, 9.995988, 10.001479 
1.9050579e+3, 2.8331518e+2, -702441.2, -200431.25, -20667.2, -0.07685323, 0.025723213, -199581.84, -36069.33, 0.0, 9.995267, 10.001911 
1.9050524e+3, 2.9331636e+2, -733116.4, -179996.2, -13386.863, -0.05832857, -0.048188504, -179672.39, -114174.06, 0.0, 9.994451, 10.001772 
1.9050476e+3, 3.0331832e+2, -829283.06, -242526.95, 60961.89, -0.072288655, -0.0050081643, -236260.16, -236260.16, 0.0, 9.993631, 10.001403 
1.9050445e+3, 3.1331936e+2, -766321.2, 47079.848, -51471.39, 0.002121903, -0.048304033, 50323.98, 50323.98, 0.0, 9.992952, 10.003716 
1.9151534e+3, 1.23340964e+2, -781445.94, -1729189.4, -41743.59, -0.012467496, 0.06217189, -779610.9, 951653.7, 0.06711146, 10.009023, 9.995557 
1.9151483e+3, 1.3333672e+2, -798453.4, -1685240.0, -22707.959, 0.04711613, 0.05935151, -797872.25, 835435.25, 0.04688412, 10.007984, 9.995685 
1.9151421e+3, 1.4333282e+2, -750840.44, -1522499.6, -30772.602, -0.0033923828, 0.06893262, -749615.2, 785731.44, 0.026913296, 10.007078, 9.996567 
1.9151363e+3, 1.533298e+2, -736674.9, -1464760.9, -29908.697, -0.0025000048, 0.09507707, -735448.4, 701928.4, 0.011522452, 10.006383, 9.996624 
1.9151303e+3, 1.633268e+2, -722985.0, -1359836.0, -38062.9, 0.0026008212, 0.115570456, -720718.2, 618689.1, 0.0030901844, 10.005543, 9.997076 
1.9151242e+3, 1.7332396e+2, -788258.75, -1347240.9, -43190.805, 0.003587033, 0.12055714, -784941.25, 456496.38, 0.00031462574, 10.004434, 9.997025 
1.9151178e+3, 1.8332149e+2, -770368.56, -1185586.0, -49688.63, -0.010087087, 0.13486286, -764505.2, 378958.47, 0.0000010775696, 10.00344, 9.99794 
1.9151114e+3, 1.9331986e+2, -780650.94, -1134649.4, -52115.992, -0.04800126, 0.16430858, -773137.9, 272342.34, 0.0, 10.002675, 9.997986 
1.9151048e+3, 2.0331822e+2, -750449.8, -976389.4, -58862.46, -0.06371573, 0.17059019, -736034.5, 211461.69, 0.0, 10.001808, 9.9988165 
1.9150989e+3, 2.1331675e+2, -804040.1, -948016.5, -54810.168, -0.038363088, 0.13065991, -785549.3, 63960.67, 0.0, 10.000752, 9.998847 
1.9150925e+3, 2.2331583e+2, -776593.5, -779923.1, -56869.984, -0.034675922, 0.118094936, -721364.0, 30154.305, 0.0, 9.999821, 9.999778 
1.9150858e+3, 2.3331608e+2, -776439.3, -723133.5, -64152.316, -0.0721561, 0.15190808, -680317.75, -26802.443, 0.0, 9.999123, 9.99983 
1.9150789e+3, 2.4331623e+2, -720496.56, -537150.7, -70058.2, -0.08386026, 0.14557628, -513445.63, 42066.668, 0.0, 9.998369, 10.000797 
1.9150728e+3, 2.533164e+2, -745060.5, -491901.72, -62928.227, -0.047883615, 0.06931157, -477122.34, -19615.041, 0.0, 9.9975, 10.000854 
1.9150662e+3, 2.6331717e+2, -720807.0, -358471.2, -50481.22, -0.045276996, 0.035168353, -351569.5, 7927.4194, 0.0, 9.996689, 10.001488 
1.9150594e+3, 2.7331895e+2, -724892.4, -310356.94, -50732.918, -0.10259333, 0.055299003, -304238.28, -42760.93, 0.0, 9.995991, 10.001481 
1.9150528e+3, 2.8332022e+2, -697475.5, -191304.44, -49887.676, -0.10715233, 0.017226694, -186434.42, -22971.861, 0.0, 9.99527, 10.001973 
1.9150472e+3, 2.9332128e+2, -727226.5, -169356.77, -44584.47, -0.024407884, -0.07542683, -165816.08, -100366.2, 0.0, 9.994455, 10.001843 
1.9150415e+3, 3.033241e+2, -794084.75, -170876.13, 33511.18, -0.057701174, 0.026101073, -169079.34, -169079.34, 0.0, 9.993635, 10.001894 
1.9150372e+3, 3.133253e+2, -773558.7, 31186.025, -72555.42, -0.015974844, -0.052201707, 37675.26, 37675.26, 0.0, 9.992954, 10.003608 
1.9251625e+3, 1.2334702e+2, -747594.4, -1717984.1, -469.4917, -0.006409151, 0.058849577, -747594.1, 983610.9, 0.06940473, 10.009321, 9.995495 
1.9251566e+3, 1.333427e+2, -732146.7, -1656910.1, 22141.846, 0.040329866, 0.05315104, -731616.9, 901631.94, 0.04857999, 10.008502, 9.995629 
1.9251493e+3, 1.433388e+2, -678022.0, -1491777.3, 13825.49, -0.010262906, 0.0685249, -677787.2, 857500.75, 0.02798059, 10.007624, 9.99652 
1.9251427e+3, 1.5333577e+2, -705166.3, -1454669.6, 5198.9443, -0.0027066555, 0.09924122, -705130.25, 732187.8, 0.012051375, 10.00663, 9.9965725 
1.9251359e+3, 1.6333273e+2, -713680.94, -1363572.6, -14729.97, 0.0028576637, 0.12154053, -713347.25, 626002.0, 0.003270041, 10.005645, 9.997 
1.9251285e+3, 1.7332977e+2, -759497.4, -1342698.1, -18726.031, -0.0071285767, 0.12257489, -758896.75, 482484.38, 0.0003435576, 10.004674, 9.996939 
1.9251214e+3, 1.8332723e+2, -732316.9, -1168404.6, -15918.217, -0.02264086, 0.13548571, -731736.6, 411671.3, 0.0000013020596, 10.00371, 9.997927 
1.925114e+3, 1.9332562e+2, -768703.1, -1129322.3, -12591.284, -0.04517776, 0.16870561, -768264.0, 277159.72, 0.0, 10.002761, 9.997979 
1.9251068e+3, 2.0332398e+2, -754001.06, -981871.1, -25864.93, -0.054507256, 0.17465904, -751102.06, 196337.55, 0.0, 10.001802, 9.99878 
1.9250996e+3, 2.1332237e+2, -796315.2, -949247.0, -36446.543, -0.040487602, 0.1271748, -788073.44, 61381.06, 0.0, 10.00083, 9.9988 
1.9250923e+3, 2.233214e+2, -769601.8, -779413.6, -36750.34, -0.04066477, 0.1108189, -737431.4, 14032.156, 0.0, 9.999883, 9.999749 
1.9250847e+3, 2.3332164e+2, -798346.44, -736826.3, -32142.137, -0.06660361, 0.14712751, -723097.06, -69636.36, 0.0, 9.998988, 9.9998 
1.9250774e+3, 2.4332179e+2, -748856.44, -541337.8, -35608.895, -0.07355272, 0.14065343, -535397.6, 20059.89, 0.0, 9.998136, 10.000879 
1.9250701e+3, 2.5332204e+2, -759105.5, -486993.6, -39060.13, -0.048641987, 0.060958967, -481497.72, -24046.25, 0.0, 9.997356, 10.000956 
1.9250628e+3, 2.6332286e+2, -736869.7, -364105.1, -31149.072, -0.054519236, 0.026420519, -361520.13, -2079.734, 0.0, 9.9965725, 10.001504 
1.9250551e+3, 2.733246e+2, -756945.9, -325876.16, -31280.104, -0.10826955, 0.047660127, -323618.2, -62197.06, 0.0, 9.995774, 10.001477 
1.925048e+3, 2.8332594e+2, -733332.75, -196608.3, -31531.074, -0.10045483, 0.008325738, -194762.28, -31355.96, 0.0, 9.994975, 10.002078 
1.9250417e+3, 2.933272e+2, -757671.2, -167855.78, -23072.65, -0.005766129, -0.07819219, -166954.58, -101562.66, 0.0, 9.994179, 10.001986 
1.9250348e+3, 3.0333048e+2, -797899.94, -120119.125, 60163.316, -0.07484496, 0.03878625, -114820.15, -114820.15, 0.0, 9.993385, 10.002362 
1.92503e+3, 3.133319e+2, -836725.7, -21974.215, -41613.96, -0.015069309, -0.05842655, -19854.27, -19854.27, 0.0, 9.99262, 10.003402 
1.935172e+3, 1.23354085e+2, -752471.7, -1725011.4, -31813.076, -0.015609018, 0.04869726, -751432.1, 979702.94, 0.07168771, 10.009328, 9.9954405 
1.935165e+3, 1.333498e+2, -736362.25, -1664821.9, -7081.6216, 0.034855578, 0.053182926, -736308.25, 896870.3, 0.050268, 10.00851, 9.995572 
1.935157e+3, 1.433459e+2, -689254.5, -1515149.3, -21481.0, -0.009217291, 0.0759306, -688696.1, 846521.94, 0.029042503, 10.00763, 9.996354 
1.9351493e+3, 1.5334253e+2, -718223.56, -1482732.5, -31498.297, -0.0076692505, 0.09262933, -716928.0, 720323.8, 0.012577171, 10.006634, 9.99638 
1.9351414e+3, 1.6333935e+2, -718268.1, -1374178.3, -50868.402, -0.0081559, 0.114341035, -714346.5, 624938.25, 0.003448562, 10.005649, 9.996927 
1.935133e+3, 1.7333655e+2, -762277.6, -1350324.8, -54826.39, -0.023373038, 0.13800563, -757209.56, 484105.84, 0.000372108, 10.00468, 9.996884 
1.9351248e+3, 1.8333405e+2, -728373.06, -1162135.5, -51210.84, -0.035435803, 0.15643004, -722409.06, 420932.72, 0.000001508784, 10.0037155, 9.997968 
1.935117e+3, 1.9333223e+2, -764169.56, -1121169.9, -47676.31, -0.03860937, 0.16287117, -757912.25, 287446.47, 0.0, 10.002764, 9.9980345 
1.9351088e+3, 2.0333046e+2, -766035.44, -1007899.8, -61620.57, -0.042296287, 0.16102077, -751241.06, 196134.34, 0.0, 10.001805, 9.998602 
1.9351004e+3, 2.1332893e+2, -811722.0, -982681.75, -72078.945, -0.048864514, 0.14240584, -785388.7, 64001.723, 0.0, 10.0008335, 9.99857 
1.935092e+3, 2.2332786e+2, -764783.44, -770973.25, -69868.22, -0.0531829, 0.12963519, -697941.6, 53458.72, 0.0, 9.999887, 9.999806 
1.9350839e+3, 2.3332778e+2, -789961.94, -720907.2, -64676.434, -0.050862048, 0.1218416, -682118.94, -28719.154, 0.0, 9.998993, 9.999908 
1.9350757e+3, 2.4332786e+2, -749082.1, -543353.25, -64587.363, -0.052701168, 0.09990706, -524757.3, 30639.71, 0.0, 9.99814, 10.000865 
1.9350673e+3, 2.533284e+2, -761316.9, -493137.97, -67322.4, -0.06918212, 0.0575707, -477186.47, -19798.273, 0.0, 9.997361, 10.000912 
1.9350591e+3, 2.6332936e+2, -737387.3, -366491.9, -60367.617, -0.08718815, 0.039112877, -356913.72, 2462.584, 0.0, 9.996576, 10.001487 
1.9350511e+3, 2.733309e+2, -757677.44, -328604.53, -60597.01, -0.0911032, 0.03952223, -320210.75, -58851.125, 0.0, 9.995777, 10.001458 
1.9350435e+3, 2.833323e+2, -722995.9, -176417.9, -61269.72, -0.058149267, -0.00032772377, -169633.95, -6289.2974, 0.0, 9.994978, 10.002216 
1.9350359e+3, 2.93334e+2, -742625.6, -137971.73, -52897.43, -0.002074352, -0.05626018, -133378.94, -68053.52, 0.0, 9.994183, 10.002191 
1.9350277e+3, 3.0333734e+2, -766619.7, -56290.016, 31071.18, -0.12307464, 0.030413078, -54933.492, -54933.492, 0.0, 9.993387, 10.0028 
1.9350228e+3, 3.133394e+2, -857200.25, -65807.2, -58731.61, 0.0029977001, -0.041118693, -61472.305, -61472.305, 0.0, 9.992624, 10.0031 
1.9451815e+3, 1.2336211e+2, -715326.1, -1724672.6, 4744.2593, -0.008596404, 0.03728349, -715303.8, 1015751.7, 0.073942654, 10.00971, 9.995258 
1.9451734e+3, 1.333577e+2, -694886.2, -1665101.5, 22751.943, 0.016869126, 0.049745306, -694352.94, 938748.0, 0.051931344, 10.008919, 9.995373 
1.9451645e+3, 1.4335375e+2, -643330.5, -1497163.5, -3103.631, -0.02900217, 0.08155883, -643319.25, 891822.06, 0.030087588, 10.007984, 9.996309 
1.945156e+3, 1.5335031e+2, -701411.06, -1475852.1, -3016.0303, -0.006132441, 0.09287053, -701399.3, 735776.2, 0.013094927, 10.006763, 9.996364 
1.945147e+3, 1.6334704e+2, -720828.3, -1388722.0, -8966.444, 0.0010548998, 0.11322213, -720708.0, 618501.3, 0.0036246332, 10.0056925, 9.996804 
1.9451378e+3, 1.7334417e+2, -738675.6, -1355275.5, -18502.283, -0.03166838, 0.14325605, -738120.9, 503120.3, 0.00040023954, 10.004915, 9.996736 
1.9451286e+3, 1.833416e+2, -689330.9, -1143890.4, -27460.7, -0.04867646, 0.16440497, -687677.94, 455590.4, 0.0000017173137, 10.003988, 9.99796 
1.9451198e+3, 1.9333975e+2, -761076.4, -1117478.4, -28710.502, -0.033056345, 0.1668314, -758778.4, 286506.66, 0.0, 10.002778, 9.998052 
1.9451106e+3, 2.0333794e+2, -785629.75, -1025649.44, -35299.277, -0.028449854, 0.16139044, -780546.0, 166756.02, 0.0, 10.001709, 9.998525 
1.9451012e+3, 2.1333627e+2, -808003.1, -991904.0, -35694.9, -0.047187362, 0.13962747, -801317.8, 48000.555, 0.0, 10.000909, 9.998469 
1.945092e+3, 2.2333512e+2, -744469.94, -762632.06, -32686.195, -0.05725847, 0.12394383, -719626.8, 31702.375, 0.0, 10.000035, 9.999791 
1.9450828e+3, 2.33335e+2, -786745.0, -719319.4, -36427.133, -0.047318604, 0.11458717, -703398.6, -50070.137, 0.0, 9.999017, 9.999907 
1.9450739e+3, 2.4333508e+2, -758841.44, -550942.94, -35792.855, -0.046991553, 0.0953827, -544953.25, 10372.31, 0.0, 9.998088, 10.000836 
1.9450645e+3, 2.5333568e+2, -769083.0, -501047.44, -37195.9, -0.07388227, 0.061379984, -495981.44, -38664.758, 0.0, 9.997328, 10.000873 
1.9450556e+3, 2.6333663e+2, -746017.2, -362713.4, -31836.352, -0.0968806, 0.040539537, -360087.13, -781.9709, 0.0, 9.996485, 10.001555 
1.9450466e+3, 2.733381e+2, -795804.6, -337096.72, -25723.186, -0.08964328, 0.02564176, -335658.75, -74369.69, 0.0, 9.995476, 10.001544 
1.9450383e+3, 2.8333962e+2, -781243.8, -198166.89, -20046.865, -0.042644333, -0.003951973, -197478.47, -34206.1, 0.0, 9.994554, 10.00227 
1.9450301e+3, 2.933418e+2, -787545.3, -150611.97, -19421.83, 0.016679417, -0.022477005, -150020.28, -84771.164, 0.0, 9.993838, 10.002268 
1.9450207e+3, 3.0334473e+2, -793680.4, -33621.496, 50077.598, -0.14273763, 0.0040937928, -30336.262, -30336.262, 0.0, 9.993052, 10.003117 
1.9450152e+3, 3.1334743e+2, -938067.9, -111965.91, -31409.865, -0.0012269444, -0.03179624, -110773.37, -110773.37, 0.0, 9.992104, 10.003033 
1.9551913e+3, 1.2337105e+2, -737567.2, -1770126.1, -25344.088, 0.010879651, 0.023393396, -736945.5, 994020.94, 0.07616566, 10.009714, 9.994943 
1.955182e+3, 1.3336638e+2, -718721.4, -1715147.8, -5044.6855, -0.012771167, 0.04356621, -718695.8, 914320.0, 0.05356724, 10.008923, 9.9950285 
1.9551721e+3, 1.4336237e+2, -639133.3, -1487744.3, -44833.152, -0.06816595, 0.08646803, -636771.3, 898286.1, 0.031114573, 10.007987, 9.996376 
1.9551629e+3, 1.5335909e+2, -690995.0, -1455029.3, -48460.21, 0.0011774582, 0.09951245, -687933.56, 749155.9, 0.013604519, 10.006769, 9.996505 
1.955153e+3, 1.6335578e+2, -732512.06, -1414820.3, -40440.184, 0.028965885, 0.1173856, -730123.5, 608999.56, 0.0037985838, 10.005698, 9.996623 
1.9551428e+3, 1.7335258e+2, -755459.5, -1391248.6, -46820.066, -0.032635678, 0.13875394, -752030.1, 489128.7, 0.00042821735, 10.004918, 9.996489 
1.9551325e+3, 1.8334986e+2, -693341.56, -1152945.5, -69651.17, -0.0626055, 0.16022047, -683018.06, 460169.88, 0.0000019545976, 10.003989, 9.997899 
1.9551225e+3, 1.9334815e+2, -762472.5, -1121748.8, -73617.2, -0.028816689, 0.18021691, -747973.2, 297229.97, 0.0, 10.002782, 9.998022 
1.9551124e+3, 2.0334633e+2, -784009.25, -1023896.2, -66923.22, -0.01330066, 0.17505987, -766602.25, 180617.72, 0.0, 10.001714, 9.998536 
1.9551022e+3, 2.1334435e+2, -806201.06, -989486.3, -64520.047, -0.035813447, 0.119769886, -785766.9, 63471.895, 0.0, 10.000913, 9.998486 
1.9550921e+3, 2.2334307e+2, -750368.25, -776065.8, -68714.34, -0.053231444, 0.094980985, -693311.7, 57938.777, 0.0, 10.000038, 9.999699 
1.955082e+3, 2.3334323e+2, -794415.75, -736550.44, -73654.65, -0.055995744, 0.12428686, -686349.6, -33102.023, 0.0, 9.999021, 9.999787 
1.9550718e+3, 2.4334343e+2, -761532.3, -557950.94, -64753.926, -0.05630139, 0.12536834, -539099.94, 16143.978, 0.0, 9.998093, 10.000787 
1.955062e+3, 2.5334382e+2, -771426.75, -507191.97, -64543.984, -0.0633587, 0.07279513, -492268.78, -35031.215, 0.0, 9.997331, 10.00083 
1.9550522e+3, 2.633446e+2, -735227.06, -341707.16, -67507.445, -0.08450754, 0.031530954, -330448.5, 28779.203, 0.0, 9.996489, 10.001699 
1.955042e+3, 2.7334613e+2, -782473.06, -311169.2, -63414.1, -0.10375665, 0.0052145994, -302785.94, -41575.563, 0.0, 9.995481, 10.001721 
1.9550326e+3, 2.8334793e+2, -783140.4, -203610.92, -49000.28, -0.05352101, -0.0032143237, -199497.06, -36306.566, 0.0, 9.994558, 10.002232 
1.9550243e+3, 2.933505e+2, -791112.2, -159008.44, -45766.145, 0.049602017, 0.024531808, -155712.03, -90548.12, 0.0, 9.99384, 10.002211 
1.9550137e+3, 3.0335256e+2, -780394.44, -7371.0313, 15463.855, -0.13495165, -0.040975977, -7061.81, -7061.81, 0.0, 9.993054, 10.003297 
1.955007e+3, 3.1335598e+2, -922945.7, -83143.055, -48118.656, -0.029716559, -0.023808744, -80394.97, -80394.97, 0.0, 9.992112, 10.003228 
1.965201e+3, 1.2338084e+2, -707124.6, -1754916.1, -8111.7256, -0.0023234112, 0.023418237, -707061.8, 1023808.3, 0.078362055, 10.00997, 9.994923 
1.965191e+3, 1.33376e+2, -713739.94, -1714769.9, 35712.21, -0.0116933165, 0.030087827, -712467.5, 920453.4, 0.05518413, 10.008985, 9.995 
1.9651803e+3, 1.4337195e+2, -645862.25, -1500937.5, -2580.8015, -0.05840108, 0.074812815, -645854.44, 889108.5, 0.03212999, 10.007996, 9.996278 
1.9651696e+3, 1.5336868e+2, -665686.94, -1455267.1, -25372.498, -0.008990313, 0.10182946, -664872.44, 772123.06, 0.0141085945, 10.007006, 9.9963875 
1.9651589e+3, 1.633654e+2, -692987.1, -1397862.0, -18004.854, 0.013187155, 0.12667017, -692527.5, 646502.0, 0.00397093, 10.005984, 9.996601 
1.9651477e+3, 1.733621e+2, -758357.8, -1392868.8, -6842.044, -0.027229007, 0.14111675, -758284.06, 482781.44, 0.00045613927, 10.004902, 9.996484 
1.9651365e+3, 1.8335928e+2, -722377.8, -1178807.8, -27116.35, -0.04966936, 0.15760703, -720772.44, 422322.9, 0.000002238432, 10.003844, 9.99779 
1.9651252e+3, 1.9335745e+2, -764188.5, -1137324.8, -39917.94, -0.03390749, 0.17762496, -759965.9, 285146.4, 0.0, 10.002837, 9.997888 
1.9651142e+3, 2.0335557e+2, -763779.56, -1011531.8, -30548.232, -0.024480216, 0.17387967, -760068.5, 187061.23, 0.0, 10.001843, 9.998557 
1.9651031e+3, 2.1335365e+2, -808225.1, -984787.4, -25007.686, -0.030832151, 0.12155424, -804751.5, 44395.867, 0.0, 10.000876, 9.998533 
1.965092e+3, 2.2335236e+2, -769306.44, -788969.8, -29139.334, -0.043105457, 0.09360149, -748384.9, 2774.0, 0.0, 9.9999275, 9.999662 
1.9650808e+3, 2.3335233e+2, -800004.4, -745653.75, -30633.666, -0.060800064, 0.110282, -731878.9, -78721.19, 0.0, 9.999012, 9.999728 
1.9650698e+3, 2.4335247e+2, -766200.25, -563650.7, -15707.454, -0.06511109, 0.11153645, -562439.8, -7285.256, 0.0, 9.998076, 10.000754 
1.9650593e+3, 2.5335303e+2, -807059.06, -527689.56, -14476.149, -0.05761061, 0.078185216, -526941.44, -69794.28, 0.0, 9.997104, 10.000797 
1.9650485e+3, 2.6335382e+2, -771233.2, -353166.0, -20012.074, -0.076509126, 0.038798276, -352210.25, 6927.1436, 0.0, 9.996219, 10.001749 
1.9650374e+3, 2.7335522e+2, -778077.0, -302360.13, -24765.791, -0.11140831, -0.0063204602, -301074.3, -39953.1, 0.0, 9.995484, 10.001779 
1.9650273e+3, 2.8335717e+2, -765865.0, -192108.19, -12772.205, -0.0603883, -0.005940625, -191824.02, -28724.033, 0.0, 9.994665, 10.002257 
1.9650182e+3, 2.9336005e+2, -810783.5, -164995.6, -1993.6664, 0.061358508, 0.05224923, -164989.44, -99919.23, 0.0, 9.993693, 10.002239 
1.9650066e+3, 3.033615e+2, -851616.6, -48522.05, 45453.27, -0.13846311, -0.07270722, -45957.688, -45957.688, 0.0, 9.992599, 10.003233 
1.9649988e+3, 3.1336546e+2, -1004966.1, -94069.41, -15159.19, -0.025183227, 0.0028498075, -93817.195, -93817.195, 0.0, 9.991429, 10.003482 
1.9752106e+3, 1.2339147e+2, -692301.75, -1718914.9, -43656.867, -0.046237323, 0.03648718, -690448.6, 1040317.9, 0.080541365, 10.009975, 9.995174 
1.9752003e+3, 1.3338657e+2, -698153.0, -1676980.1, 868.7758, 0.017232371, 0.009509115, -698152.2, 934664.0, 0.056791857, 10.008983, 9.995261 
1.9751887e+3, 1.4338247e+2, -665384.9, -1539483.4, -38355.27, -0.0042793704, 0.047129497, -663705.06, 871153.2, 0.03314019, 10.007992, 9.996009 
1.9751763e+3, 1.533791e+2, -691071.06, -1509579.1, -61458.723, -0.035853073, 0.10042085, -686482.1, 750411.6, 0.014609244, 10.00701, 9.996015 
1.9751641e+3, 1.6337581e+2, -683453.8, -1379902.4, -57454.0, -0.043614425, 0.14136761, -678745.94, 660182.6, 0.0041417205, 10.005991, 9.996723 
1.9751526e+3, 1.7337269e+2, -743020.06, -1361949.5, -47069.125, -0.015907789, 0.15007327, -739461.0, 501500.56, 0.00048382184, 10.004904, 9.996696 
1.9751407e+3, 1.8336982e+2, -733729.75, -1203046.6, -64932.79, -0.011568038, 0.15643252, -724911.6, 418079.56, 0.0000025625698, 10.003845, 9.997624 
1.9751279e+3, 1.9336757e+2, -780217.6, -1172459.3, -76890.836, -0.048051026, 0.1597141, -765683.3, 279329.56, 0.0, 10.002843, 9.997645 
1.9751155e+3, 2.0336556e+2, -761002.5, -1007908.1, -66134.69, -0.06094329, 0.15845212, -744403.94, 202627.89, 0.0, 10.00185, 9.99858 
1.975104e+3, 2.1336412e+2, -802713.5, -974563.1, -60255.027, -0.03228952, 0.14397945, -783691.94, 65352.734, 0.0, 10.000879, 9.998604 
1.9750921e+3, 2.2336288e+2, -768386.4, -787957.25, -62893.598, -0.027415972, 0.11857099, -714521.56, 36533.496, 0.0, 9.999928, 9.99967 
1.9750798e+3, 2.3336224e+2, -799989.7, -746992.56, -63886.785, -0.06191101, 0.07370562, -704326.9, -51267.5, 0.0, 9.999015, 9.999719 
1.9750679e+3, 2.4336219e+2, -767139.1, -567254.2, -50983.48, -0.073582545, 0.05563788, -555001.25, 56.92215, 0.0, 9.998081, 10.000729 
1.9750564e+3, 2.5336325e+2, -808586.9, -532432.9, -50240.51, -0.05682871, 0.077283844, -523576.66, -66530.32, 0.0, 9.9971075, 10.000764 
1.9750448e+3, 2.6336423e+2, -773925.94, -360230.47, -48285.79, -0.07292821, 0.06151908, -354669.4, 4365.776, 0.0, 9.9962225, 10.001699 
1.9750328e+3, 2.7336532e+2, -781961.5, -311704.56, -51921.89, -0.112981, -0.008627913, -306040.03, -45017.613, 0.0, 9.995487, 10.001714 
1.975022e+3, 2.8336725e+2, -759481.8, -180302.53, -47750.984, -0.06398929, -0.011733966, -176392.06, -13390.373, 0.0, 9.994669, 10.002338 
1.9750117e+3, 2.9337037e+2, -802595.8, -149898.44, -38858.754, 0.051482234, 0.059854534, -147593.11, -82624.016, 0.0, 9.993699, 10.002341 
1.974999e+3, 3.0337146e+2, -873881.8, -96169.57, -432.95627, -0.15296519, -0.091098316, -96169.33, -96169.33, 0.0, 9.992602, 10.002905 
1.9749905e+3, 3.1337565e+2, -981398.0, -46227.332, -33582.266, 0.008636629, 0.04235859, -45022.934, -45022.934, 0.0, 9.99143, 10.003811 
1.9852205e+3, 1.2340315e+2, -669932.8, -1697288.8, -3237.5361, -0.062260922, 0.036072046, -669922.6, 1060729.6, 0.08271113, 10.010119, 9.995266 
1.9852093e+3, 1.333983e+2, -713699.5, -1674765.5, 30505.822, 0.021192309, 0.007245433, -712732.2, 919968.3, 0.058394678, 10.008842, 9.995344 
1.9851968e+3, 1.433942e+2, -706444.2, -1577482.8, -2642.0872, 0.0123648215, 0.04557759, -706436.1, 828306.44, 0.034147035, 10.007786, 9.995846 
1.9851834e+3, 1.5339063e+2, -690992.7, -1532914.4, -12531.272, -0.0421429, 0.09946216, -690806.2, 745974.9, 0.015106897, 10.007118, 9.9958 
1.9851701e+3, 1.6338721e+2, -652871.7, -1366485.4, -18928.674, -0.058796287, 0.1412374, -652370.0, 686447.56, 0.0043107364, 10.006212, 9.996706 
1.9851576e+3, 1.7338412e+2, -747913.1, -1362030.5, -25202.094, -0.012636762, 0.15175603, -746880.6, 493968.84, 0.0005110571, 10.004863, 9.996715 
1.9851445e+3, 1.8338121e+2, -753905.3, -1218714.3, -36434.504, -0.0008502691, 0.15719151, -751066.7, 391812.25, 0.0000029053074, 10.003735, 9.997569 
1.9851309e+3, 1.9337884e+2, -759476.44, -1170527.5, -34851.258, -0.051483676, 0.15376747, -756542.5, 288359.78, 0.0, 10.003022, 9.99757 
1.9851175e+3, 2.0337677e+2, -722203.06, -988771.06, -26864.506, -0.0710269, 0.15040821, -719522.6, 227399.31, 0.0, 10.002118, 9.998581 
1.9851048e+3, 2.1337539e+2, -806579.5, -974962.0, -27234.957, -0.034487613, 0.1430208, -802284.0, 46649.91, 0.0, 10.000849, 9.998614 
1.985092e+3, 2.233742e+2, -794438.94, -797345.06, -23650.512, -0.02530227, 0.12002879, -772196.94, -21253.252, 0.0, 9.999738, 9.999696 
1.9850788e+3, 2.3337352e+2, -811224.06, -749270.5, -20937.053, -0.062338915, 0.06852627, -742858.5, -89910.3, 0.0, 9.998927, 9.999743 
1.985066e+3, 2.433734e+2, -772108.3, -573124.9, -10704.831, -0.07384595, 0.04541379, -572550.6, -17603.244, 0.0, 9.998065, 10.000695 
1.9850536e+3, 2.533744e+2, -813017.3, -539921.44, -11667.692, -0.052405987, 0.06557336, -539423.9, -82487.51, 0.0, 9.997102, 10.000714 
1.985041e+3, 2.6337537e+2, -786868.06, -368696.72, -5559.927, -0.06889316, 0.053022012, -368622.8, -9697.316, 0.0, 9.996145, 10.0016775 
1.9850282e+3, 2.7337655e+2, -826541.9, -335875.5, -6039.0186, -0.11698028, -0.005815071, -335801.2, -74888.945, 0.0, 9.995195, 10.001687 
1.9850163e+3, 2.8337854e+2, -800997.1, -192412.11, -682.48474, -0.07038922, -0.0044542123, -192411.34, -29520.123, 0.0, 9.994352, 10.002406 
1.9850054e+3, 2.9338166e+2, -810161.6, -145585.31, 4954.6294, 0.049023874, 0.058743328, -145548.38, -80689.8, 0.0, 9.993615, 10.002411 
1.9849916e+3, 3.0338275e+2, -921935.94, -140876.02, 23717.547, -0.1496016, -0.083883815, -140156.47, -140156.47, 0.0, 9.992368, 10.002709 
1.9849816e+3, 3.1338662e+2, -1075637.9, -49219.004, 29338.719, 0.015349152, 0.037184056, -48381.082, -48381.082, 0.0, 9.990604, 10.004188 
1.9952308e+3, 1.2341584e+2, -678620.3, -1708244.4, -47134.355, -0.055929404, 0.021271486, -676467.06, 1054060.6, 0.08487164, 10.010108, 9.995191 
1.995218e+3, 1.334112e+2, -720712.9, -1689092.1, -14255.451, 0.0018467958, 0.0229546, -720503.06, 912070.9, 0.059993204, 10.00885, 9.995242 
1.9952045e+3, 1.4340709e+2, -709965.6, -1586893.8, -29930.09, -0.005449688, 0.069726214, -708945.25, 825670.8, 0.03515198, 10.007799, 9.995776 
1.9951905e+3, 1.5340321e+2, -696179.5, -1543613.4, -36562.25, -0.029430106, 0.09867604, -694605.0, 742052.9, 0.01560291, 10.007118, 9.9957285 
1.9951765e+3, 1.6339953e+2, -664638.25, -1390143.0, -65013.457, -0.03566246, 0.12666136, -658858.3, 679838.5, 0.004478459, 10.006207, 9.996548 
1.9951624e+3, 1.7339636e+2, -759195.6, -1387440.4, -75347.984, -0.017272757, 0.14661144, -750285.25, 490444.34, 0.0005379026, 10.004869, 9.996538 
1.9951482e+3, 1.8339345e+2, -749636.8, -1212648.4, -65922.43, -0.016179051, 0.15974565, -740433.8, 402325.16, 0.0000032528642, 10.003744, 9.997607 
1.9951339e+3, 1.9339117e+2, -753932.3, -1159877.3, -60387.914, -0.044865828, 0.1593374, -745139.56, 299641.44, 0.0, 10.003024, 9.997644 
1.9951198e+3, 2.0338908e+2, -724390.25, -993526.6, -70544.68, -0.05621741, 0.14960012, -707020.44, 239780.34, 0.0, 10.002116, 9.99855 
1.9951057e+3, 2.1338741e+2, -809589.2, -982945.5, -74160.234, -0.037605498, 0.119790606, -782193.5, 66622.01, 0.0, 10.0008545, 9.998559 
1.9950917e+3, 2.2338624e+2, -790571.2, -791611.4, -55755.816, -0.036455616, 0.099010244, -735333.06, 15492.217, 0.0, 9.999745, 9.999733 
1.9950776e+3, 2.3338607e+2, -806893.8, -741891.3, -50121.47, -0.062301632, 0.093570665, -714655.7, -61830.82, 0.0, 9.998932, 9.999794 
1.995064e+3, 2.4338605e+2, -774895.75, -580355.75, -45140.098, -0.06628436, 0.079272546, -570392.0, -15568.907, 0.0, 9.998069, 10.000645 
1.9950508e+3, 2.5338644e+2, -817302.3, -550327.25, -47039.227, -0.044693932, 0.043357518, -542281.7, -85463.75, 0.0, 9.997107, 10.000642 
1.995037e+3, 2.6338717e+2, -786499.56, -369420.3, -40875.813, -0.06478147, 0.014184045, -365452.06, -6642.989, 0.0, 9.996149, 10.001673 
1.9950233e+3, 2.7338886e+2, -826031.6, -336358.44, -41239.992, -0.12366376, 0.002333751, -332909.53, -72117.89, 0.0, 9.9952, 10.001683 
1.9950107e+3, 2.8339097e+2, -796574.94, -184916.75, -28756.602, -0.07980438, 0.01540838, -183567.75, -20798.133, 0.0, 9.994357, 10.002457 
1.994999e+3, 2.9339382e+2, -807172.2, -141170.34, -24518.895, 0.053406153, 0.047968954, -140268.9, -75529.16, 0.0, 9.99362, 10.0024395 
1.9949841e+3, 3.0339533e+2, -926585.8, -151487.64, -42458.004, -0.1283247, -0.048681777, -149168.83, -149168.83, 0.0, 9.99237, 10.002637 
1.994972e+3, 3.1339833e+2, -1047613.5, 8116.0474, -11001.796, -0.009808397, -0.013214348, 8230.686, 8230.686, 0.0, 9.990604, 10.004582 
2.0052408e+3, 1.2342972e+2, -722408.25, -1731560.1, -9510.848, -0.048936713, 0.019426228, -722318.6, 1008072.8, 0.08702179, 10.009813, 9.995158 
2.0052266e+3, 1.33425e+2, -694632.2, -1681258.6, 28206.426, -0.016460104, 0.019211851, -693826.5, 938611.7, 0.061590698, 10.009083, 9.995183 
2.0052123e+3, 1.4342082e+2, -666282.44, -1577383.3, 14194.892, -0.021159468, 0.065543965, -666061.3, 868419.75, 0.036160257, 10.008175, 9.995659 
2.0051977e+3, 1.5341683e+2, -729386.8, -1574492.3, 3517.0657, -0.016015768, 0.09730723, -729372.2, 707152.2, 0.016101353, 10.006955, 9.995594 
2.0051828e+3, 1.6341306e+2, -714936.9, -1420044.3, -27466.238, -0.014282599, 0.12623061, -713868.56, 624695.8, 0.0046465844, 10.005887, 9.996495 
2.0051673e+3, 1.734098e+2, -728538.25, -1377267.0, -29465.832, -0.026922634, 0.14276907, -727202.6, 513394.9, 0.0005646921, 10.005103, 9.996494 
2.0051518e+3, 1.8340681e+2, -695753.4, -1195521.0, -16543.271, -0.038327992, 0.15393774, -695206.4, 447421.25, 0.0000035903113, 10.004155, 9.997525 
2.0051369e+3, 1.9340445e+2, -778682.0, -1182030.0, -23001.47, -0.044780213, 0.15472636, -777374.56, 267276.2, 0.0, 10.002901, 9.99755 
2.0051219e+3, 2.0340233e+2, -766500.44, -1006611.2, -39304.336, -0.045902707, 0.1454131, -760230.3, 186440.53, 0.0, 10.001799, 9.998612 
2.0051065e+3, 2.1340075e+2, -785069.2, -961199.3, -33660.027, -0.04004903, 0.11489908, -778855.7, 69828.84, 0.0, 10.000982, 9.998645 
2.0050915e+3, 2.2339961e+2, -744257.25, -773066.3, -8596.39, -0.044287894, 0.09487248, -741887.1, 8806.658, 0.0, 10.000082, 9.999697 
2.0050767e+3, 2.3339938e+2, -798511.9, -744866.8, -10967.105, -0.06150496, 0.09179951, -742711.4, -90017.43, 0.0, 9.999022, 9.999729 
2.0050621e+3, 2.4339934e+2, -787469.6, -585154.6, -10772.973, -0.060805786, 0.07676048, -584582.6, -29889.977, 0.0, 9.997979, 10.000654 
2.0050478e+3, 2.533997e+2, -835556.44, -556398.9, -6467.797, -0.041198872, 0.037187725, -556249.1, -99561.445, 0.0, 9.996971, 10.000664 
2.0050333e+3, 2.634005e+2, -810508.06, -385146.63, 4438.606, -0.06028784, 0.012033855, -385100.3, -26421.846, 0.0, 9.996005, 10.001633 
2.0050186e+3, 2.7340218e+2, -841505.8, -349715.53, 1238.1139, -0.11564689, 0.009477744, -349712.4, -89051.68, 0.0, 9.995121, 10.001629 
2.0050049e+3, 2.8340417e+2, -823759.0, -195892.08, 9452.527, -0.0764971, 0.01264909, -195749.8, -33109.633, 0.0, 9.9941635, 10.002474 
2.0049922e+3, 2.9340687e+2, -901630.3, -185224.97, 7813.314, 0.045689378, 0.025684042, -185139.77, -120527.164, 0.0, 9.992969, 10.00245 
2.0049764e+3, 3.0340904e+2, -1020569.9, -185579.53, -21119.12, -0.10652108, -0.007955455, -185045.72, -185045.72, 0.0, 9.99168, 10.002733 
2.0049626e+3, 3.134115e+2, -1037200.25, 30505.322, 46025.914, -0.014683067, -0.038063064, 32485.703, 32485.703, 0.0, 9.990603, 10.004736 
2.0152505e+3, 1.2344479e+2, -722874.0, -1730098.5, -36465.777, -0.042998813, 0.030293368, -721555.5, 1008688.2, 0.08917884, 10.009823, 9.995166 
2.0152354e+3, 1.3343972e+2, -697145.3, -1684321.6, 2431.5579, -0.034408834, -0.003726665, -697139.3, 935153.9, 0.0632009, 10.009085, 9.995162 
2.0152202e+3, 1.4343533e+2, -679368.6, -1603908.9, -27210.54, -0.03560525, 0.0333852, -678568.5, 855769.3, 0.037182063, 10.008174, 9.995479 
2.0152049e+3, 1.5343145e+2, -743387.8, -1604681.5, -41385.68, -0.0023346222, 0.09587057, -741403.75, 694977.06, 0.016608804, 10.006959, 9.995386 
2.0151888e+3, 1.6342773e+2, -711796.94, -1414922.5, -58740.5, 0.0050672553, 0.13985243, -706923.4, 631497.25, 0.0048181447, 10.005892, 9.99653 
2.0151722e+3, 1.7342438e+2, -723253.06, -1367071.3, -58092.53, -0.041450053, 0.14025912, -718053.3, 522400.7, 0.00059209444, 10.005104, 9.996565 
2.0151557e+3, 1.8342124e+2, -710251.44, -1226075.3, -60313.363, -0.06707287, 0.14030525, -703293.1, 439192.3, 0.000003912104, 10.004155, 9.997317 
2.0151398e+3, 1.934186e+2, -796320.3, -1220266.5, -69392.53, -0.05104935, 0.14049242, -785251.0, 259260.95, 0.0, 10.002905, 9.997287 
2.0151237e+3, 2.0341645e+2, -755462.94, -985780.7, -71349.1, -0.040136337, 0.13778627, -735151.3, 211381.38, 0.0, 10.001805, 9.998754 
2.0151076e+3, 2.1341528e+2, -769484.9, -930236.2, -63047.24, -0.042056087, 0.12746197, -747707.7, 100833.99, 0.0, 10.000986, 9.9988575 
2.0150915e+3, 2.2341421e+2, -752045.8, -790323.94, -46223.24, -0.04904722, 0.10695725, -721156.0, 29393.959, 0.0, 10.000085, 9.999578 
2.0150757e+3, 2.3341343e+2, -810776.9, -771739.7, -49884.684, -0.060172454, 0.06432033, -737690.94, -85135.1, 0.0, 9.999025, 9.999544 
2.0150602e+3, 2.4341318e+2, -782412.8, -576357.1, -48028.367, -0.057671037, 0.039150868, -565712.4, -11155.784, 0.0, 9.997984, 10.000714 
2.0150448e+3, 2.534141e+2, -827689.1, -541646.75, -43658.406, -0.04206571, 0.046824776, -535131.56, -78585.266, 0.0, 9.996976, 10.000765 
2.0150293e+3, 2.6341516e+2, -815310.8, -396732.8, -29266.12, -0.055415157, 0.04608793, -394696.47, -36161.89, 0.0, 9.996009, 10.001553 
2.0150138e+3, 2.7341646e+2, -848531.7, -365848.53, -31082.36, -0.093097664, 0.01565231, -363855.22, -103334.85, 0.0, 9.995125, 10.001517 
2.0149991e+3, 2.8341806e+2, -824968.0, -199829.81, -33161.5, -0.06104523, -0.012828102, -198075.63, -35571.883, 0.0, 9.994167, 10.002446 
2.014985e+3, 2.9342064e+2, -902680.3, -188587.97, -40032.117, 0.024711467, -0.008479163, -186350.77, -121872.63, 0.0, 9.992971, 10.002426 
2.0149682e+3, 3.0342376e+2, -1001294.4, -146374.73, -66714.34, -0.0837105, 0.038994994, -141199.95, -141199.95, 0.0, 9.991682, 10.003003 
2.0149532e+3, 3.1342626e+2, -1046184.9, 10240.671, 22022.604, -0.0012052476, -0.014825744, 10699.5625, 10699.5625, 0.0, 9.990608, 10.004596 
2.0252602e+3, 1.2346054e+2, -694372.7, -1712502.1, -6465.114, -0.059204515, 0.023757242, -694331.6, 1035757.4, 0.09138508, 10.010048, 9.995188 
2.0252445e+3, 1.3345554e+2, -699490.5, -1684760.0, 34640.16, -0.04281971, -0.00048411058, -698274.1, 933863.44, 0.0648496, 10.009082, 9.99516 
2.0252284e+3, 1.4345114e+2, -699284.2, -1622991.4, 444.92407, -0.032047827, 0.03634179, -699284.0, 834898.5, 0.038231295, 10.008081, 9.995391 
2.0252118e+3, 1.5344702e+2, -742800.4, -1616468.8, -8626.053, -0.003576285, 0.08685697, -742715.25, 693512.6, 0.017132755, 10.007021, 9.995274 
2.0251948e+3, 1.634432e+2, -698784.8, -1409622.0, -15525.624, 0.0007773025, 0.12755425, -698445.9, 639822.8, 0.0049967854, 10.00599, 9.996517 
2.0251772e+3, 1.7343996e+2, -736764.94, -1373084.4, -18673.457, -0.044934798, 0.14127287, -736217.4, 504083.22, 0.0006210973, 10.0050125, 9.996566 
2.0251597e+3, 1.8343684e+2, -732363.6, -1241176.1, -26928.887, -0.06956283, 0.1450635, -730942.4, 411389.44, 0.0000042517295, 10.0040245, 9.997274 
2.0251428e+3, 1.9343401e+2, -783903.7, -1220484.5, -23448.877, -0.052705023, 0.13100414, -782647.9, 261712.48, 0.0, 10.003019, 9.997229 
2.0251255e+3, 2.034318e+2, -725070.25, -971677.3, -14760.245, -0.042179894, 0.12462442, -724189.94, 222192.02, 0.0, 10.002019, 9.998746 
2.0251083e+3, 2.1343079e+2, -764716.5, -927903.44, -20957.36, -0.04627215, 0.1301555, -762068.0, 86321.69, 0.0, 10.001021, 9.998855 
2.0250915e+3, 2.2342977e+2, -759224.5, -788049.1, -12648.37, -0.05250723, 0.113313735, -754461.44, -4064.0237, 0.0, 10.000013, 9.999628 
2.0250747e+3, 2.3342884e+2, -812987.1, -766577.2, -497.55655, -0.058730308, 0.051386412, -766571.8, -114167.58, 0.0, 9.998985, 9.999598 
2.0250581e+3, 2.4342856e+2, -785905.9, -579461.1, 10230.746, -0.056638394, 0.020346077, -578955.4, -24550.111, 0.0, 9.997969, 10.000699 
2.0250416e+3, 2.5342965e+2, -830879.06, -546428.5, 5285.8945, -0.048424292, 0.04875401, -546330.3, -89936.42, 0.0, 9.99697, 10.000733 
2.0250253e+3, 2.6343077e+2, -829129.06, -402864.94, 15874.61, -0.055088036, 0.05833935, -402274.56, -43893.023, 0.0, 9.995914, 10.0015545 
2.0250091e+3, 2.73432e+2, -902267.06, -390324.34, 23076.824, -0.06755879, 0.0147478795, -389286.22, -128918.09, 0.0, 9.994753, 10.001528 
2.0249933e+3, 2.8343344e+2, -902730.2, -249142.75, 22921.504, -0.043483365, -0.023291545, -248339.88, -85987.0, 0.0, 9.993688, 10.002337 
2.0249775e+3, 2.9343593e+2, -934955.5, -217520.81, 5674.3286, -0.007113476, -0.012524711, -217475.94, -153146.95, 0.0, 9.99281, 10.002304 
2.02496e+3, 3.034393e+2, -972116.3, -104147.88, -31793.736, -0.07160198, 0.05587276, -102984.83, -102984.83, 0.0, 9.991763, 10.003253 
2.0249438e+3, 3.1344202e+2, -1091892.0, -35847.637, 63675.645, 0.014621188, -0.006072929, -32022.086, -32022.086, 0.0, 9.9904, 10.004378 
2.0352699e+3, 1.2347697e+2, -695912.56, -1710494.8, -39583.96, -0.09744905, -0.0025151873, -694370.56, 1035557.2, 0.09368652, 10.010046, 9.995205 
2.0352535e+3, 1.3347255e+2, -701027.06, -1684522.0, 862.95795, -0.043343727, 0.028120082, -701026.3, 930944.94, 0.06656624, 10.00908, 9.995163 
2.0352367e+3, 1.4346822e+2, -701472.06, -1626017.5, -37388.375, -0.012898721, 0.07358346, -699962.56, 834052.8, 0.039323915, 10.0080805, 9.995373 
2.0352186e+3, 1.5346351e+2, -745021.7, -1621400.6, -47522.574, -0.018827457, 0.070047736, -742452.25, 693613.44, 0.017681062, 10.007023, 9.995241 
2.0352004e+3, 1.6345944e+2, -703068.94, -1419477.0, -51873.082, -0.025476571, 0.0900307, -699332.44, 638776.3, 0.0051861033, 10.005992, 9.99645 
2.0351823e+3, 1.7345656e+2, -741374.06, -1383827.9, -54558.7, -0.03834845, 0.14556062, -736773.75, 503364.03, 0.0006528111, 10.005014, 9.996493 
2.0351641e+3, 1.8345362e+2, -724862.1, -1226745.0, -63769.543, -0.048027664, 0.16707008, -716886.3, 425281.0, 0.000004674712, 10.004027, 9.997374 
2.0351456e+3, 1.9345066e+2, -774659.0, -1202361.9, -60467.7, -0.05017057, 0.12608965, -766274.56, 277922.0, 0.0, 10.003022, 9.997354 
2.0351274e+3, 2.0344831e+2, -735846.4, -995086.44, -51475.348, -0.0515705, 0.10650517, -725999.3, 220220.03, 0.0, 10.002021, 9.998587 
2.0351094e+3, 2.1344718e+2, -779301.7, -959524.56, -57416.76, -0.05285225, 0.12371251, -762563.9, 85665.18, 0.0, 10.001024, 9.998637 
2.0350914e+3, 2.2344619e+2, -744403.9, -758750.8, -50128.496, -0.055148292, 0.114232674, -700938.2, 49298.56, 0.0, 10.000016, 9.999828 
2.0350738e+3, 2.3344554e+2, -793199.06, -726852.9, -38181.25, -0.05728555, 0.05231033, -709446.75, -57206.84, 0.0, 9.998989, 9.99987 
2.035056e+3, 2.4344535e+2, -791934.75, -593514.3, -26767.885, -0.057712864, 0.019782571, -589966.6, -35727.09, 0.0, 9.9979725, 10.000602 
2.0350385e+3, 2.5344625e+2, -841885.5, -570908.7, -31564.084, -0.060560327, 0.043251656, -567280.56, -111049.53, 0.0, 9.996975, 10.000565 
2.0350212e+3, 2.6344728e+2, -823170.44, -392069.94, -26661.617, -0.05954685, 0.04890824, -390427.28, -32207.197, 0.0, 9.995918, 10.001628 
2.035004e+3, 2.7344862e+2, -893407.2, -373348.22, -20595.82, -0.039071925, 0.0067618205, -372533.84, -112329.086, 0.0, 9.994757, 10.001643 
2.0349872e+3, 2.8345016e+2, -916051.25, -278092.53, -12277.42, -0.024082124, -0.018161483, -277856.34, -115667.98, 0.0, 9.9936905, 10.002138 
2.0349698e+3, 2.9345265e+2, -950717.94, -251364.38, -28146.662, -0.050495803, 0.014704513, -250233.39, -186067.45, 0.0, 9.992812, 10.002072 
2.0349519e+3, 3.0345556e+2, -955730.5, -71437.125, -80734.305, -0.07023533, 0.040267628, -64126.67, -64126.67, 0.0, 9.991766, 10.003477 
2.0349345e+3, 3.134589e+2, -1113067.9, -81378.516, 9416.161, 0.035759117, 0.017287532, -81292.586, -81292.586, 0.0, 9.990405, 10.004065 
2.0452799e+3, 1.2349457e+2, -700580.7, -1711011.9, -11721.324, -0.10135059, -0.004124007, -700444.75, 1029310.5, 0.09610506, 10.010032, 9.995207 
2.0452626e+3, 1.3349022e+2, -722947.56, -1695892.0, 28180.207, -0.036978263, 0.035490256, -722132.0, 909666.06, 0.068369105, 10.008938, 9.995152 
2.0452447e+3, 1.4348587e+2, -724313.6, -1631009.8, -7261.9185, -0.0002238073, 0.07704468, -724255.44, 809586.9, 0.040472165, 10.0079, 9.995423 
2.0452255e+3, 1.5348113e+2, -749795.2, -1616749.9, -10925.852, -0.031414766, 0.06265507, -749657.5, 686235.0, 0.018260097, 10.006966, 9.995298 
2.0452063e+3, 1.63477e+2, -700769.5, -1420844.1, -9249.351, -0.046727106, 0.0762831, -700650.7, 637284.94, 0.0053889244, 10.006022, 9.996425 
2.0451872e+3, 1.7347409e+2, -737817.3, -1387330.4, -10289.138, -0.0381542, 0.13281491, -737654.4, 502310.88, 0.00068819127, 10.005064, 9.996444 
2.0451681e+3, 1.8347114e+2, -718068.06, -1221671.8, -23674.28, -0.03778067, 0.15803914, -716957.56, 425037.25, 0.000005241839, 10.004068, 9.997388 
2.0451486e+3, 1.9346829e+2, -775763.1, -1200093.5, -28683.057, -0.05113184, 0.1257078, -773833.06, 270190.2, 0.0, 10.003005, 9.9973755 
2.0451294e+3, 2.0346597e+2, -743317.0, -999542.56, -17943.21, -0.058818415, 0.10940991, -742066.56, 203979.19, 0.0, 10.001976, 9.998575 
2.0451103e+3, 2.1346477e+2, -783190.06, -963734.3, -10267.146, -0.05683736, 0.119921975, -782608.06, 65448.504, 0.0, 10.00101, 9.998614 
2.0450914e+3, 2.2346379e+2, -740311.75, -746036.06, -911.33386, -0.055112716, 0.108273864, -740170.1, 9894.1045, 0.0, 10.000001, 9.999922 
2.0450726e+3, 2.334633e+2, -796744.4, -715898.2, -1703.4011, -0.05307209, 0.05383905, -715862.3, -63796.867, 0.0, 9.998913, 9.99998 
2.045054e+3, 2.4346323e+2, -810002.56, -603763.44, 7298.932, -0.052739292, 0.025650296, -603505.5, -49441.395, 0.0, 9.997857, 10.000586 
2.0450354e+3, 2.53464e+2, -861406.8, -585196.25, 11599.313, -0.058143128, 0.04384469, -584710.0, -128653.125, 0.0, 9.996864, 10.000519 
2.045017e+3, 2.6346496e+2, -835358.0, -395000.4, 15196.378, -0.054205935, 0.0419296, -394476.6, -36429.613, 0.0, 9.995825, 10.001652 
2.0449989e+3, 2.734663e+2, -900217.25, -372380.7, 14047.1, -0.027742539, -0.0019377547, -372007.13, -111975.78, 0.0, 9.994695, 10.001678 
2.0449808e+3, 2.83468e+2, -942800.4, -296308.28, 27835.732, -0.020598939, -0.0098055685, -295111.97, -133098.64, 0.0, 9.993533, 10.002088 
2.0449623e+3, 2.9347068e+2, -1013959.8, -287683.94, 27657.69, -0.062039863, 0.04858502, -286632.22, -222642.67, 0.0, 9.992407, 10.002017 
2.0449437e+3, 3.0347297e+2, -993768.8, -88235.62, -27665.926, -0.045299474, 0.013201749, -87391.15, -87391.15, 0.0, 9.991502, 10.003488 
2.044925e+3, 3.134767e+2, -1076345.4, -77167.64, 34327.082, 0.024131957, 0.033660732, -75989.71, -75989.71, 0.0, 9.990717, 10.003942 
2.0552903e+3, 1.23513326e+2, -704695.2, -1714095.1, -47903.125, -0.07638055, 0.01732704, -702426.94, 1027144.8, 0.09863431, 10.010032, 9.995185 
2.0552717e+3, 1.335086e+2, -726634.06, -1700497.1, -9581.764, -0.025050882, 0.021348689, -726539.8, 905078.4, 0.070257954, 10.008937, 9.995122 
2.0552526e+3, 1.435041e+2, -718267.1, -1616308.5, -41261.453, 0.0060913535, 0.046905234, -716375.3, 817288.1, 0.041678645, 10.007899, 9.995526 
2.0552322e+3, 1.534998e+2, -740947.8, -1597726.9, -44699.184, -0.04210669, 0.064503014, -738622.1, 697086.56, 0.018872416, 10.006965, 9.995432 
2.0552121e+3, 1.6349584e+2, -701105.06, -1421600.4, -44262.254, -0.064036265, 0.085626595, -698396.1, 639353.8, 0.0056070467, 10.006021, 9.996422 
2.0551924e+3, 1.734925e+2, -740542.06, -1393051.6, -45532.92, -0.044054903, 0.10411944, -737380.06, 502403.34, 0.0007280763, 10.005061, 9.9964075 
2.0551722e+3, 1.8348943e+2, -723424.1, -1232948.9, -62347.375, -0.03802381, 0.11975552, -715906.0, 425908.75, 0.0000060129605, 10.004066, 9.997313 
2.0551516e+3, 1.934869e+2, -781213.94, -1212488.9, -67811.93, -0.05568196, 0.12957326, -770802.8, 273037.94, 0.0, 10.003007, 9.997292 
2.0551313e+3, 2.0348477e+2, -734097.4, -981889.3, -53695.297, -0.06456824, 0.13205396, -722962.25, 222899.44, 0.0, 10.00198, 9.998696 
2.0551114e+3, 2.1348348e+2, -772050.44, -941793.9, -45489.563, -0.05837544, 0.11859774, -760628.25, 87244.46, 0.0, 10.001013, 9.998765 
2.0550916e+3, 2.2348247e+2, -741359.9, -749323.06, -40401.824, -0.052374657, 0.09581509, -704743.94, 45136.61, 0.0, 10.000003, 9.9999 
2.0550716e+3, 2.334821e+2, -799946.9, -724054.2, -41815.95, -0.04649089, 0.05628527, -705533.75, -53652.293, 0.0, 9.998917, 9.999924 
2.055052e+3, 2.4348208e+2, -805439.5, -596039.4, -29893.203, -0.042164292, 0.038008317, -591855.56, -37975.957, 0.0, 9.997863, 10.000638 
2.0550324e+3, 2.5348288e+2, -856192.6, -575897.44, -25149.574, -0.041392773, 0.050428733, -573658.75, -117786.695, 0.0, 9.996868, 10.000582 
2.0550129e+3, 2.6348373e+2, -837111.5, -400169.22, -26301.17, -0.039348748, 0.0373997, -398591.75, -40728.758, 0.0, 9.995829, 10.0016165 
2.0549934e+3, 2.7348495e+2, -903238.06, -380372.22, -28869.064, -0.034255873, -0.011561146, -378783.1, -118934.445, 0.0, 9.9946995, 10.001623 
2.0549741e+3, 2.834869e+2, -935948.1, -283414.47, -15908.228, -0.033356618, 0.001680232, -283026.88, -121198.31, 0.0, 9.993536, 10.002176 
2.054955e+3, 2.9349e+2, -1006340.06, -272211.2, -13961.366, -0.040990245, 0.08990214, -271945.75, -208145.31, 0.0, 9.992405, 10.002125 
2.0549358e+3, 3.034914e+2, -1009171.94, -120958.695, -56821.582, 0.0031153143, -0.026895951, -117338.414, -117338.414, 0.0, 9.991503, 10.003263 
2.0549153e+3, 3.134955e+2, -1067828.5, -62545.21, -11376.371, -0.016152173, 0.051170245, -62416.49, -62416.49, 0.0, 9.990726, 10.004039 
2.0653003e+3, 1.2353303e+2, -718172.4, -1714283.4, -12104.44, -0.05603374, 0.025228595, -718025.3, 1011353.5, 0.1012526, 10.00993, 9.995232 
2.0652805e+3, 1.335282e+2, -740366.44, -1701332.4, 31414.74, -0.019513933, 0.014011771, -739340.56, 892085.3, 0.072217494, 10.008828, 9.995169 
2.0652606e+3, 1.4352362e+2, -731236.4, -1617050.0, 7520.976, 0.01076376, 0.028204499, -731172.5, 802299.06, 0.042935226, 10.007794, 9.99557 
2.0652393e+3, 1.535195e+2, -751682.6, -1598590.8, -1061.3888, -0.039438065, 0.059677977, -751681.25, 683833.56, 0.019515535, 10.006877, 9.995466 
2.0652181e+3, 1.6351558e+2, -719293.0, -1431107.8, -7653.612, -0.06254013, 0.08481345, -719210.75, 618344.7, 0.0058408217, 10.005901, 9.996413 
2.0651972e+3, 1.735121e+2, -776357.94, -1412052.1, -8587.252, -0.041756853, 0.089781575, -776241.94, 463348.53, 0.0007731246, 10.004825, 9.996389 
2.065176e+3, 1.8350896e+2, -756211.0, -1248407.9, -19934.777, -0.036693174, 0.10076899, -755404.94, 386217.53, 0.0000070836827, 10.003842, 9.9973135 
2.0651546e+3, 1.9350654e+2, -779032.1, -1211464.6, -19670.893, -0.058990855, 0.122336544, -778139.2, 265508.38, 0.0, 10.003024, 9.997289 
2.0651333e+3, 2.0350449e+2, -713455.8, -964974.56, -8089.7793, -0.068781406, 0.12969416, -713195.9, 232472.06, 0.0, 10.002094, 9.998756 
2.0651123e+3, 2.1350317e+2, -775246.3, -935823.2, -7262.4004, -0.05661307, 0.10792308, -774918.5, 72760.41, 0.0, 10.000961, 9.998829 
2.0650913e+3, 2.2350219e+2, -760739.1, -760481.3, -5458.4155, -0.048168644, 0.08449036, -755150.25, -5463.6084, 0.0, 9.999881, 9.999881 
2.0650706e+3, 2.335019e+2, -805622.06, -731004.5, -6120.647, -0.04644172, 0.059552312, -730505.8, -78818.445, 0.0, 9.9988985, 9.999884 
2.0650499e+3, 2.4350196e+2, -806136.44, -593666.4, 3749.9543, -0.04255917, 0.049860943, -593600.25, -39915.016, 0.0, 9.9978485, 10.000659 
2.0650293e+3, 2.5350276e+2, -881214.7, -584358.6, 5155.744, -0.03490103, 0.05723257, -584269.1, -128591.35, 0.0, 9.996684, 10.000611 
2.0650087e+3, 2.6350358e+2, -872165.1, -414068.97, 5058.6157, -0.031635277, 0.038048435, -414013.13, -56344.17, 0.0, 9.995579, 10.001639 
2.064988e+3, 2.735048e+2, -920020.44, -386611.25, 7494.828, -0.037641022, -0.012470097, -386505.97, -126851.2, 0.0, 9.994578, 10.001637 
2.0649676e+3, 2.8350684e+2, -936970.2, -278260.22, 18724.799, -0.039163206, 0.0077406503, -277728.38, -116094.61, 0.0, 9.993507, 10.002224 
2.0649475e+3, 2.9351002e+2, -1016390.8, -273168.38, 16898.404, -0.027133176, 0.10257776, -272784.38, -209180.0, 0.0, 9.992323, 10.002157 
2.0649275e+3, 3.0351108e+2, -1045668.7, -162713.61, -15618.724, 0.031871706, -0.03979469, -162437.4, -162437.4, 0.0, 9.99136, 10.003044 
2.0649058e+3, 3.13515e+2, -1054803.1, -22996.684, 18954.873, -0.030072076, 0.046968084, -22648.59, -22648.59, 0.0, 9.990676, 10.004334 
2.0753103e+3, 1.2355364e+2, -714252.94, -1700962.1, -47253.375, -0.041591924, 0.017727884, -711995.1, 1017181.9, 0.103930965, 10.0099325, 9.995334 
2.0752893e+3, 1.3354897e+2, -733968.7, -1684581.9, -6308.88, -0.020195812, 0.014224523, -733926.8, 897294.9, 0.07422536, 10.008834, 9.995282 
2.0752683e+3, 1.435444e+2, -733773.4, -1621999.0, -26119.658, 0.01337957, 0.021918345, -733006.0, 800261.06, 0.04422815, 10.007798, 9.995536 
2.0752463e+3, 1.5354016e+2, -756774.1, -1608688.3, -34300.37, -0.025115795, 0.04778467, -755395.3, 679916.25, 0.020183586, 10.006875, 9.995399 
2.075224e+3, 1.6353619e+2, -720920.25, -1434134.0, -46274.137, -0.04417553, 0.07312165, -717930.44, 619422.2, 0.006089024, 10.0058975, 9.996396 
2.0752022e+3, 1.7353283e+2, -776349.4, -1413320.3, -48229.035, -0.03227453, 0.088525325, -772718.4, 466668.56, 0.00082357076, 10.0048275, 9.996381 
2.07518e+3, 1.8352969e+2, -751358.44, -1240069.9, -51196.676, -0.03443922, 0.10001929, -746052.75, 395365.8, 0.000008570251, 10.003847, 9.99737 
2.0751575e+3, 1.9352718e+2, -774238.25, -1202533.9, -49385.43, -0.061215237, 0.104938984, -768617.56, 274826.66, 0.0, 10.003026, 9.997351 
2.0751353e+3, 2.0352507e+2, -713873.8, -966467.56, -48129.707, -0.07139771, 0.10375001, -705013.9, 240450.98, 0.0, 10.002093, 9.998748 
2.0751132e+3, 2.135238e+2, -776695.1, -939943.0, -49012.484, -0.05207248, 0.088224724, -763110.4, 84365.25, 0.0, 10.000963, 9.998801 
2.0750913e+3, 2.2352287e+2, -761988.25, -764665.2, -42360.316, -0.043132, 0.07430628, -720945.25, 28537.904, 0.0, 9.999886, 9.999851 
2.0750694e+3, 2.3352268e+2, -807313.0, -736118.5, -42180.848, -0.052904338, 0.06354297, -716521.6, -65037.98, 0.0, 9.998903, 9.999847 
2.0750473e+3, 2.4352281e+2, -806744.0, -596505.1, -38557.15, -0.053708933, 0.0610879, -589656.94, -36175.285, 0.0, 9.997852, 10.000639 
2.0750259e+3, 2.5352353e+2, -881465.2, -586556.8, -38206.953, -0.03889013, 0.064487725, -581687.3, -126212.7, 0.0, 9.996688, 10.000595 
2.0750044e+3, 2.6352435e+2, -866237.3, -403397.7, -33325.344, -0.031268895, 0.04401415, -401010.5, -43545.0, 0.0, 9.995583, 10.001713 
2.0749827e+3, 2.7352566e+2, -914133.2, -375815.6, -30296.174, -0.0378363, -0.0046757767, -374115.9, -114665.53, 0.0, 9.994582, 10.001711 
2.0749612e+3, 2.8352767e+2, -936717.7, -279096.8, -25315.744, -0.038022067, 0.008094351, -278123.72, -116694.0, 0.0, 9.99351, 10.002218 
2.0749398e+3, 2.9353067e+2, -1019794.8, -281826.0, -27499.035, -0.021316115, 0.08587113, -280802.72, -217400.53, 0.0, 9.992327, 10.002097 
2.0749187e+3, 3.035319e+2, -1061409.1, -196705.17, -43978.844, 0.039416987, -0.023589946, -194474.17, -194474.17, 0.0, 9.991363, 10.002811 
2.0748965e+3, 3.1353518e+2, -1019754.06, 48520.355, -21802.963, -0.012884148, 0.015004824, 48965.156, 48965.156, 0.0, 9.990678, 10.004826 
2.0853204e+3, 1.2357562e+2, -716865.44, -1713955.9, 3457.053, -0.034496497, 0.015655171, -716853.44, 1012107.8, 0.10663134, 10.010001, 9.995201 
2.0852983e+3, 1.335709e+2, -729648.25, -1696052.5, 28346.973, -0.024011612, 0.01940773, -728817.5, 902189.7, 0.07625568, 10.008946, 9.995148 
2.0852761e+3, 1.4356619e+2, -726833.25, -1616140.0, 2243.9436, 0.016607871, 0.021356747, -726827.56, 806226.3, 0.0455422, 10.007851, 9.99555 
2.0852531e+3, 1.5356193e+2, -780123.9, -1615280.4, 1746.134, -0.00828333, 0.044159293, -780120.25, 654977.56, 0.020868994, 10.006697, 9.995439 
2.08523e+3, 1.6355798e+2, -753870.3, -1452788.6, -1950.1368, -0.02552852, 0.06815568, -753864.9, 583273.8, 0.0063487357, 10.005686, 9.996368 
2.0852071e+3, 1.7355457e+2, -766597.4, -1413373.6, -6140.052, -0.032625083, 0.08554165, -766539.1, 472634.34, 0.0008789617, 10.004917, 9.996336 
2.0851839e+3, 1.8355143e+2, -720681.8, -1218983.4, -12406.239, -0.041796014, 0.09641702, -720373.1, 420832.06, 0.000010563093, 10.004032, 9.997424 
2.0851606e+3, 1.9354892e+2, -782023.5, -1198407.8, -10891.39, -0.054158743, 0.09585284, -781738.8, 261491.48, 0.0, 10.00294, 9.997418 
2.0851375e+3, 2.0354682e+2, -740750.56, -977632.5, -11582.067, -0.05982208, 0.0908273, -740185.56, 205065.03, 0.0, 10.0019045, 9.99876 
2.0851143e+3, 2.1354555e+2, -776337.56, -939715.3, -11659.125, -0.053674817, 0.075644694, -775509.75, 71751.9, 0.0, 10.000968, 9.998799 
2.085091e+3, 2.2354464e+2, -751361.44, -763256.2, -4456.162, -0.05019077, 0.06640331, -749877.25, -607.96643, 0.0, 9.999977, 9.999815 
2.0850681e+3, 2.3354451e+2, -812993.5, -743943.2, -5703.6924, -0.05182378, 0.06550204, -743475.2, -92205.305, 0.0, 9.998888, 9.9998 
2.0850454e+3, 2.4354464e+2, -809516.1, -593134.25, -3005.673, -0.05082654, 0.063637495, -593092.5, -39824.293, 0.0, 9.997816, 10.000678 
2.0850225e+3, 2.5354528e+2, -864971.44, -572691.25, 1682.5817, -0.045009337, 0.055658635, -572681.56, -117420.11, 0.0, 9.9967785, 10.000646 
2.0849998e+3, 2.6354617e+2, -855024.7, -398891.0, 5967.1943, -0.03815528, 0.040553734, -398812.94, -41561.383, 0.0, 9.9956665, 10.001702 
2.0849773e+3, 2.735477e+2, -935679.44, -388796.84, 1363.3447, -0.03092016, 0.017216764, -388793.44, -129558.61, 0.0, 9.994449, 10.001685 
2.0849545e+3, 2.8354967e+2, -957637.94, -285399.34, 4614.861, -0.026114121, 0.02116857, -285367.66, -124152.37, 0.0, 9.993354, 10.00225 
2.0849322e+3, 2.935522e+2, -1009780.5, -275643.94, 6439.644, -0.020711577, 0.05372813, -275587.47, -212396.02, 0.0, 9.992393, 10.002107 
2.0849101e+3, 3.0355397e+2, -1059129.5, -205606.44, 8689.965, 0.034081742, 0.0018261623, -205517.98, -205517.98, 0.0, 9.991424, 10.002719 
2.0848872e+3, 3.135568e+2, -1037567.94, 48681.977, 27604.094, 0.000872586, 0.0038712274, 49383.008, 49383.008, 0.0, 9.990521, 10.004901 
2.0953304e+3, 1.2359891e+2, -742432.4, -1765018.3, -31041.715, -0.035117183, 0.01897314, -741490.94, 987241.5, 0.10931466, 10.009999, 9.994842 
2.0953071e+3, 1.3359386e+2, -755478.4, -1750510.8, -8168.9746, -0.031402122, 0.02779223, -755411.3, 875371.6, 0.07828385, 10.008947, 9.994775 
2.0952842e+3, 1.4358892e+2, -723373.0, -1607771.3, -37890.78, 0.019621316, 0.024166696, -721752.56, 811079.94, 0.04686354, 10.0078535, 9.995608 
2.09526e+3, 1.535848e+2, -770571.56, -1596171.6, -39871.613, 0.010726998, 0.048390947, -768650.5, 666223.56, 0.021564305, 10.006702, 9.995569 
2.0952359e+3, 1.6358086e+2, -756755.4, -1460515.6, -31726.553, -0.0070014363, 0.07043957, -755328.0, 581585.94, 0.006616283, 10.005692, 9.996314 
2.0952117e+3, 1.735773e+2, -772422.56, -1426746.5, -33816.313, -0.04258646, 0.0810267, -770679.56, 468270.97, 0.0009383089, 10.00492, 9.996244 
2.0951878e+3, 1.8357411e+2, -717173.6, -1212572.8, -50703.96, -0.05827806, 0.089623444, -712037.4, 428945.4, 0.000013084553, 10.004033, 9.99747 
2.0951636e+3, 1.9357172e+2, -777083.2, -1189270.4, -51026.47, -0.038585257, 0.094048, -770860.4, 272145.94, 0.0, 10.002942, 9.997482 
2.0951395e+3, 2.0356967e+2, -738521.56, -974444.7, -46620.844, -0.035350904, 0.0901937, -729642.94, 215382.92, 0.0, 10.001907, 9.998782 
2.095115e+3, 2.1356836e+2, -774819.0, -938167.1, -45790.188, -0.061385136, 0.07022941, -762858.75, 84178.73, 0.0, 10.000973, 9.99881 
2.0950907e+3, 2.2356744e+2, -754469.94, -771135.56, -43844.152, -0.06872117, 0.060719635, -718173.8, 30871.768, 0.0, 9.99998, 9.999762 
2.0950672e+3, 2.3356731e+2, -817193.9, -754131.9, -45874.04, -0.04358333, 0.06549527, -729997.5, -78950.82, 0.0, 9.998892, 9.999729 
2.0950432e+3, 2.4356735e+2, -802776.44, -580827.4, -41734.523, -0.034604296, 0.05781677, -573239.2, -20193.615, 0.0, 9.997821, 10.000762 
2.0950192e+3, 2.535679e+2, -856834.8, -557444.44, -37056.848, -0.053581025, 0.03046131, -552925.94, -97886.91, 0.0, 9.996783, 10.00075 
2.0949954e+3, 2.6356894e+2, -861755.94, -414393.78, -39230.277, -0.052387048, 0.02749471, -410979.63, -53951.758, 0.0, 9.995669, 10.0015955 
2.0949717e+3, 2.7357084e+2, -944670.5, -408929.13, -44275.785, -0.017150234, 0.05423821, -405294.66, -146285.88, 0.0, 9.9944515, 10.001547 
2.0949483e+3, 2.835726e+2, -952972.94, -277153.66, -32726.066, -0.0036043532, 0.047131293, -275572.63, -114581.34, 0.0, 9.993357, 10.002306 
2.0949246e+3, 2.9357448e+2, -1003850.56, -265058.3, -31002.092, -0.025351476, 0.0043977825, -263759.66, -200786.56, 0.0, 9.992396, 10.002179 
2.0949014e+3, 3.0357718e+2, -1055519.4, -199642.84, -26854.46, 0.015154525, 0.038225625, -198801.08, -198801.08, 0.0, 9.991427, 10.00276 
2.094878e+3, 3.1357998e+2, -1065633.8, -10179.148, -15132.237, 0.010501385, 0.035488635, -9962.239, -9962.239, 0.0, 9.9905205, 10.0044985 
2.1053405e+3, 1.2362303e+2, -752943.9, -1773700.4, -18230.22, -0.020022143, 0.03891718, -752618.4, 975878.7, 0.111955516, 10.009963, 9.994798 
2.1053159e+3, 1.3361792e+2, -758413.8, -1753256.1, 25386.363, -0.02994798, 0.04352112, -757766.44, 872781.9, 0.0802896, 10.008951, 9.994754 
2.105292e+3, 1.4361283e+2, -715265.1, -1600522.3, 6227.271, 0.021624006, 0.028752588, -715221.3, 817377.5, 0.04817773, 10.007913, 9.995627 
2.1052669e+3, 1.5360874e+2, -749324.94, -1582796.0, -3065.7075, 0.014028175, 0.0509938, -749313.7, 685326.06, 0.022260621, 10.006846, 9.99559 
2.1052417e+3, 1.636048e+2, -735339.44, -1447780.6, 11494.7295, -0.003340015, 0.070855424, -735154.0, 601525.3, 0.0068872254, 10.005833, 9.996332 
2.1052168e+3, 1.7360121e+2, -772536.56, -1424660.4, 18080.736, -0.04044531, 0.07851944, -772035.7, 466680.34, 0.0010002131, 10.004913, 9.996262 
2.1051916e+3, 1.83598e+2, -725623.9, -1215686.0, -2103.3977, -0.05690186, 0.083544016, -725614.8, 415133.6, 0.000016062608, 10.003974, 9.997475 
2.1051665e+3, 1.9359554e+2, -769115.56, -1185209.0, -8461.57, -0.036722776, 0.0838316, -768943.56, 273828.6, 0.0, 10.002999, 9.997481 
2.1051414e+3, 2.0359352e+2, -726182.2, -970528.0, -6640.4224, -0.03403657, 0.081659645, -726001.8, 218789.86, 0.0, 10.002004, 9.998762 
2.105116e+3, 2.1359229e+2, -776662.4, -942037.6, -8931.902, -0.06249204, 0.07261627, -776181.4, 70621.7, 0.0, 10.000975, 9.99878 
2.1050908e+3, 2.2359139e+2, -761127.4, -773923.5, -10121.91, -0.07191513, 0.06808313, -755551.0, -6739.7856, 0.0, 9.999936, 9.999763 
2.1050659e+3, 2.335912e+2, -819271.44, -754706.9, -8049.328, -0.0479199, 0.068211295, -753718.44, -102905.79, 0.0, 9.998879, 9.99973 
2.105041e+3, 2.4359122e+2, -801488.75, -578106.4, -2495.805, -0.03855311, 0.05644545, -578078.5, -25266.74, 0.0, 9.997824, 10.000778 
2.1050158e+3, 2.5359175e+2, -858403.0, -556620.75, -4678.4155, -0.05507214, 0.027203603, -556548.25, -101743.19, 0.0, 9.996768, 10.000761 
2.104991e+3, 2.635928e+2, -867578.7, -426795.2, -14931.826, -0.051911708, 0.028770112, -426289.94, -69495.96, 0.0, 9.995674, 10.001507 
2.1049663e+3, 2.735947e+2, -942229.0, -419136.7, -17946.818, -0.014483074, 0.06619609, -418521.7, -159746.0, 0.0, 9.99452, 10.001442 
2.1049416e+3, 2.8359637e+2, -946751.0, -273067.16, -925.4016, -0.0007822966, 0.056551706, -273065.88, -112306.61, 0.0, 9.993398, 10.002313 
2.1049167e+3, 2.9359818e+2, -1006206.1, -261525.27, -2860.693, -0.02773449, 0.001752017, -261514.28, -198772.77, 0.0, 9.992363, 10.002217 
2.1048926e+3, 3.0360118e+2, -1030527.0, -154192.89, 14122.059, 0.006254973, 0.04983709, -153965.36, -153965.36, 0.0, 9.991458, 10.003056 
2.1048684e+3, 3.1360406e+2, -1074294.0, -47838.598, 37901.33, 0.011716963, 0.03092818, -46441.016, -46441.016, 0.0, 9.990608, 10.004196 
2.1153505e+3, 1.2364797e+2, -741663.4, -1741228.4, -49619.5, 0.0072917817, 0.072262384, -739206.25, 989049.0, 0.11454248, 10.009961, 9.995025 
2.1153249e+3, 1.3364303e+2, -742187.8, -1712262.3, -9488.48, -0.021081947, 0.06627341, -742095.0, 888208.5, 0.082254276, 10.008947, 9.995037 
2.1152999e+3, 1.4363796e+2, -719016.06, -1606628.1, -31365.729, 0.022130864, 0.03574637, -717909.06, 814444.25, 0.04946614, 10.007911, 9.995588 
2.1152735e+3, 1.5363368e+2, -755565.25, -1596725.1, -41601.14, 0.0023984471, 0.051830854, -753512.8, 680882.7, 0.022945369, 10.00685, 9.995495 
2.1152472e+3, 1.636297e+2, -728813.0, -1435881.8, -22480.537, -0.013604271, 0.06881061, -728099.0, 608336.3, 0.007155704, 10.005838, 9.996413 
2.1152216e+3, 1.7362623e+2, -764617.7, -1409345.4, -15490.262, -0.027077554, 0.07768659, -764245.75, 474224.78, 0.0010628271, 10.004915, 9.996367 
2.1151958e+3, 1.8362302e+2, -728312.94, -1222154.0, -37687.555, -0.039337605, 0.07852827, -725453.4, 415049.3, 0.000019345696, 10.003975, 9.997432 
2.1151695e+3, 1.9362038e+2, -773385.3, -1195788.1, -44021.504, -0.048199486, 0.066125356, -768846.3, 273681.94, 0.0, 10.003003, 9.997408 
2.1151431e+3, 2.0361829e+2, -730278.06, -980855.25, -43908.926, -0.054584537, 0.065614626, -722806.6, 221742.02, 0.0, 10.002008, 9.998691 
2.115117e+3, 2.1361724e+2, -781467.94, -953304.25, -46464.863, -0.05738208, 0.08211655, -769708.5, 76850.586, 0.0, 10.0009775, 9.998703 
2.1150908e+3, 2.2361642e+2, -757499.06, -767846.8, -48864.348, -0.06085548, 0.08802228, -713535.44, 35031.31, 0.0, 9.999939, 9.999804 
2.1150647e+3, 2.3361613e+2, -814197.6, -746246.1, -46987.473, -0.06490233, 0.07356925, -722237.6, -71669.125, 0.0, 9.998885, 9.999787 
2.1150386e+3, 2.4361613e+2, -804856.94, -587067.56, -41736.273, -0.062202163, 0.059282374, -579343.4, -26775.873, 0.0, 9.997829, 10.000715 
2.1150127e+3, 2.5361675e+2, -863779.6, -569581.8, -44070.86, -0.049528286, 0.04614008, -563121.9, -108561.6, 0.0, 9.996773, 10.000671 
2.1149868e+3, 2.6361766e+2, -872705.0, -439114.9, -57953.777, -0.037046164, 0.04462475, -431502.44, -74951.85, 0.0, 9.995678, 10.001422 
2.1149607e+3, 2.736192e+2, -947442.1, -431478.88, -61712.223, -0.023685765, 0.052116565, -424200.4, -165664.08, 0.0, 9.994524, 10.001357 
2.1149348e+3, 2.836209e+2, -949676.0, -280806.97, -41659.28, -0.018343683, 0.049011733, -278222.28, -117702.21, 0.0, 9.993402, 10.002259 
2.1149091e+3, 2.9362315e+2, -1005422.44, -261594.28, -42069.19, -0.027885543, 0.047938127, -259222.5, -196725.23, 0.0, 9.992367, 10.002217 
2.114884e+3, 3.0362582e+2, -991066.94, -73728.164, -17675.557, 0.0074904654, 0.034838624, -73387.71, -73387.71, 0.0, 9.991461, 10.003608 
2.1148589e+3, 3.1362933e+2, -1088283.4, -78057.19, -668.6554, 0.0051139253, 0.023328742, -78056.74, -78056.74, 0.0, 9.990611, 10.003988 
2.1253608e+3, 1.2367387e+2, -743459.8, -1731594.5, -10908.54, 0.021113344, 0.08991694, -743339.44, 984663.94, 0.11706056, 10.009933, 9.9951 
2.125334e+3, 1.3366905e+2, -752693.1, -1701713.6, 18037.666, -0.018058743, 0.083613664, -752350.44, 877699.5, 0.084155366, 10.008821, 9.99517 
2.1253076e+3, 1.43664e+2, -729437.9, -1599175.8, -1322.3105, 0.024633164, 0.044022594, -729435.9, 802663.1, 0.05070667, 10.007794, 9.995693 
2.1252802e+3, 1.5365978e+2, -738281.94, -1576809.8, 2327.342, 0.00060767593, 0.0542692, -738275.5, 695864.75, 0.02360347, 10.006931, 9.99559 
2.1252532e+3, 1.6365579e+2, -708724.5, -1428587.0, 24946.547, -0.016078658, 0.06869052, -707861.0, 628318.7, 0.0074144956, 10.005994, 9.996387 
2.1252266e+3, 1.736523e+2, -766001.6, -1415015.5, 20427.744, -0.024029411, 0.080910355, -765359.3, 472856.06, 0.0011237543, 10.0049305, 9.996319 
2.1251997e+3, 1.8364911e+2, -728256.25, -1212542.4, -2082.7744, -0.03638645, 0.08221185, -728247.3, 412000.06, 0.00002271786, 10.003937, 9.997515 
2.1251723e+3, 1.9364652e+2, -758303.6, -1177100.5, 3638.0347, -0.055093814, 0.065065764, -758272.06, 283999.88, 0.0, 10.00306, 9.997508 
2.125145e+3, 2.0364442e+2, -722048.3, -986663.75, 5506.4634, -0.063967034, 0.06386161, -721933.8, 222358.3, 0.0, 10.0021105, 9.9986 
2.125118e+3, 2.1364331e+2, -782427.2, -967374.5, -1701.0669, -0.05673627, 0.086830676, -782411.56, 63892.246, 0.0, 10.001033, 9.998579 
2.1250908e+3, 2.2364241e+2, -749535.4, -767222.7, -6512.958, -0.057776205, 0.09396129, -747395.94, 916.50604, 0.0, 10.0000105, 9.999772 
2.1250635e+3, 2.3364204e+2, -787220.0, -735431.9, -10418.013, -0.07197244, 0.07233847, -733414.7, -83099.805, 0.0, 9.999083, 9.999765 
2.1250364e+3, 2.4364202e+2, -778828.94, -578494.94, -13390.127, -0.07033362, 0.058739826, -577603.94, -25289.994, 0.0, 9.998028, 10.000677 
2.1250094e+3, 2.5364268e+2, -868244.9, -576638.4, -14092.629, -0.04395001, 0.056412764, -575958.94, -121652.66, 0.0, 9.996767, 10.000625 
2.1249825e+3, 2.6364353e+2, -883648.6, -452063.56, -21715.256, -0.03036405, 0.050656874, -450973.72, -94675.914, 0.0, 9.995639, 10.001349 
2.124955e+3, 2.7364475e+2, -926108.06, -430036.84, -24795.406, -0.035296153, 0.038691327, -428800.56, -170514.0, 0.0, 9.994711, 10.001276 
2.124928e+3, 2.8364652e+2, -921297.6, -265664.25, -7626.341, -0.03388732, 0.049852233, -265575.56, -105306.1, 0.0, 9.993593, 10.00227 
2.1249014e+3, 2.9364923e+2, -1018166.7, -261750.86, -2025.9747, -0.027875721, 0.09116858, -261745.44, -199503.4, 0.0, 9.992257, 10.002267 
2.1248752e+3, 3.0365118e+2, -1018205.2, -65739.25, 20926.031, -0.0027306804, -0.0058083953, -65279.72, -65279.72, 0.0, 9.991187, 10.003794 
2.1248494e+3, 3.1365535e+2, -1123456.0, -83324.78, 5865.6646, 0.0037333407, 0.031347718, -83291.7, -83291.7, 0.0, 9.990322, 10.00409 
2.1353707e+3, 1.2370071e+2, -750524.25, -1742542.9, -45254.47, 0.02179052, 0.09333262, -748464.06, 979277.7, 0.11948495, 10.0099325, 9.9950285 
2.1353428e+3, 1.3369596e+2, -754901.56, -1704424.0, -19737.982, -0.020533638, 0.09640907, -754491.44, 875296.3, 0.08597159, 10.008824, 9.995151 
2.1353154e+3, 1.4369094e+2, -714385.06, -1566170.4, -32281.824, 0.028491464, 0.053490944, -713163.4, 818672.6, 0.051882602, 10.007799, 9.995919 
2.1352874e+3, 1.5368693e+2, -720474.44, -1539249.1, -28667.137, 0.00759272, 0.058263533, -719472.0, 714402.5, 0.024223482, 10.006933, 9.995849 
2.1352592e+3, 1.6368301e+2, -718257.1, -1449222.0, -13050.167, -0.011795848, 0.07073029, -718024.25, 617888.75, 0.00765725, 10.005995, 9.996246 
2.1352315e+3, 1.7367938e+2, -779419.6, -1444755.6, -18473.152, -0.031084279, 0.08798603, -778907.1, 459043.8, 0.0011805345, 10.004936, 9.996114 
2.1352036e+3, 1.836762e+2, -713617.06, -1184182.5, -34676.895, -0.047313638, 0.09358314, -711075.4, 428907.6, 0.000025925034, 10.0039425, 9.997708 
2.1351753e+3, 1.9367388e+2, -740174.44, -1140742.8, -28184.67, -0.05771444, 0.07922176, -738201.06, 303802.78, 0.0, 10.003063, 9.997758 
2.1351472e+3, 2.0367186e+2, -730139.44, -1004662.4, -33251.684, -0.06304057, 0.07568581, -726169.25, 217853.58, 0.0, 10.002112, 9.998477 
2.1351188e+3, 2.1367045e+2, -794311.6, -994112.5, -41248.44, -0.060703658, 0.087309666, -786130.94, 59906.797, 0.0, 10.001039, 9.998394 
2.1350908e+3, 2.236693e+2, -756406.8, -783608.56, -41335.273, -0.06241084, 0.0863939, -726492.25, 21556.576, 0.0, 10.000016, 9.999659 
2.1350625e+3, 2.3366882e+2, -793973.4, -750984.8, -44483.46, -0.06952146, 0.06449936, -723074.8, -73022.445, 0.0, 9.999085, 9.999659 
2.1350344e+3, 2.4366876e+2, -780127.4, -582606.94, -58813.38, -0.06357896, 0.05503185, -566421.1, -14369.381, 0.0, 9.998031, 10.000649 
2.1350063e+3, 2.5366947e+2, -868895.7, -579498.9, -61226.316, -0.038885053, 0.0580576, -567078.56, -113034.82, 0.0, 9.99677, 10.000605 
2.134978e+3, 2.636702e+2, -887337.9, -461446.06, -58076.773, -0.03211821, 0.046405513, -453668.47, -97632.12, 0.0, 9.995644, 10.001286 
2.1349497e+3, 2.7367127e+2, -930641.6, -441860.44, -60442.39, -0.04934347, 0.025707958, -434497.1, -176470.1, 0.0, 9.994718, 10.001193 
2.1349214e+3, 2.8367326e+2, -916309.06, -257330.34, -57553.06, -0.0474698, 0.059483998, -252341.61, -92333.61, 0.0, 9.993598, 10.002326 
2.1348935e+3, 2.9367635e+2, -1012341.1, -250350.02, -51520.25, -0.028518088, 0.13199662, -246882.38, -184905.95, 0.0, 9.992257, 10.002347 
2.1348663e+3, 3.0367714e+2, -1032460.1, -95678.37, -12937.95, -0.025869029, -0.07446447, -95499.71, -95499.71, 0.0, 9.991186, 10.00359 
2.1348399e+3, 3.1368202e+2, -1090412.8, -15853.607, -29750.76, 0.010836925, 0.053188525, -15030.544, -15030.544, 0.0, 9.990323, 10.004555 
2.1453807e+3, 1.2372877e+2, -745083.7, -1736169.1, -4549.794, 0.021691104, 0.1046559, -745062.8, 982405.3, 0.12179232, 10.009991, 9.995041 
2.1453516e+3, 1.3372408e+2, -737558.6, -1685701.1, 25259.863, -0.020534132, 0.107125066, -736886.1, 892627.25, 0.087690406, 10.008933, 9.995225 
2.1453233e+3, 1.4371912e+2, -699424.1, -1553268.3, 17290.176, 0.03375427, 0.06287505, -699074.1, 832487.06, 0.05298708, 10.007898, 9.995958 
2.1452942e+3, 1.5371521e+2, -718214.2, -1533921.1, 7199.3853, 0.008951215, 0.07761649, -718150.6, 715447.8, 0.024800163, 10.006939, 9.99588 
2.1452652e+3, 1.6371134e+2, -715360.06, -1439792.4, 17671.014, -0.01373269, 0.08838087, -714929.25, 620707.2, 0.0078800805, 10.005985, 9.996313 
2.1452363e+3, 1.7370754e+2, -759677.0, -1427175.4, 30333.428, -0.03560656, 0.0851028, -758301.4, 479373.75, 0.0012313863, 10.005041, 9.996182 
2.1452075e+3, 1.8370435e+2, -693471.9, -1173227.8, 21113.03, -0.05261487, 0.0847866, -692544.56, 447162.44, 0.000028741768, 10.004079, 9.997716 
2.1451785e+3, 1.9370219e+2, -737000.25, -1139478.5, 9240.665, -0.060599975, 0.08872355, -736788.2, 304938.38, 0.0, 10.00309, 9.997751 
2.1451491e+3, 2.037002e+2, -732213.6, -1010287.8, -6474.1074, -0.06381387, 0.08982568, -732062.94, 211682.45, 0.0, 10.002121, 9.998432 
2.14512e+3, 2.1369854e+2, -776850.1, -991503.94, -6096.204, -0.060238272, 0.08324759, -776677.1, 69085.17, 0.0, 10.001186, 9.998339 
2.1450908e+3, 2.2369726e+2, -738678.6, -782086.06, -638.01013, -0.060950506, 0.07377506, -738669.25, 9105.442, 0.0, 10.000172, 9.999593 
2.1450615e+3, 2.3369677e+2, -807961.7, -765305.94, -1839.183, -0.0667548, 0.060319606, -765226.75, -115448.41, 0.0, 9.999025, 9.999587 
2.1450324e+3, 2.4369673e+2, -801344.6, -600005.56, -19983.645, -0.059753556, 0.05860798, -598041.25, -46263.32, 0.0, 9.997919, 10.000583 
2.1450032e+3, 2.536974e+2, -858417.0, -581997.25, -26711.889, -0.035859905, 0.06572572, -579439.56, -125669.01, 0.0, 9.996877, 10.000535 
2.1449736e+3, 2.6369807e+2, -867436.25, -448409.28, -19765.332, -0.03351925, 0.050768945, -447479.0, -91715.15, 0.0, 9.995768, 10.001314 
2.144944e+3, 2.7369907e+2, -952044.25, -447914.22, -13858.665, -0.0566982, 0.01968255, -447533.53, -189778.64, 0.0, 9.994556, 10.001227 
2.144915e+3, 2.8370112e+2, -927122.3, -253554.67, -6820.109, -0.050207984, 0.05610209, -253485.63, -93750.64, 0.0, 9.993488, 10.002404 
2.144886e+3, 2.9370442e+2, -958905.0, -218338.44, -194.82646, -0.020325728, 0.14106143, -218338.38, -156636.75, 0.0, 9.9925995, 10.002401 
2.1448572e+3, 3.0370498e+2, -1027938.25, -127306.08, 27648.988, -0.046203647, -0.07282617, -126458.07, -126458.07, 0.0, 9.991365, 10.003284 
2.1448296e+3, 3.1370956e+2, -1142267.9, 12238.87, 8083.925, 0.007865006, 0.054745276, 12295.472, 12295.472, 0.0, 9.989743, 10.005026 
2.1553904e+3, 1.23757996e+2, -741881.44, -1725290.0, -35663.69, 0.019696653, 0.12241291, -740589.8, 986593.3, 0.123969875, 10.009997, 9.995115 
2.1553603e+3, 1.3375336e+2, -729343.6, -1664626.6, -10640.244, -0.01873451, 0.11587881, -729222.56, 900004.9, 0.08930675, 10.008935, 9.99537 
2.1553314e+3, 1.4374842e+2, -709171.4, -1574515.8, -16622.178, 0.039727326, 0.07206319, -708852.2, 822422.94, 0.05401847, 10.007903, 9.995811 
2.155301e+3, 1.5374456e+2, -729750.94, -1560861.6, -26787.37, 0.0048270384, 0.110772565, -728888.44, 704424.25, 0.02533208, 10.006949, 9.995692 
2.155271e+3, 1.6374068e+2, -696658.94, -1403140.5, -16288.915, -0.02163568, 0.11984351, -696283.6, 639066.94, 0.008081698, 10.005994, 9.996562 
2.1552412e+3, 1.7373677e+2, -737651.75, -1382404.6, -4236.9126, -0.037816837, 0.07290824, -737623.94, 499764.47, 0.0012757016, 10.005042, 9.9964905 
2.1552114e+3, 1.8373351e+2, -706225.44, -1200356.3, -15133.712, -0.05280835, 0.05782039, -705762.4, 433657.72, 0.000031044907, 10.004079, 9.997532 
2.1551815e+3, 1.9373141e+2, -754523.5, -1177428.3, -27065.523, -0.064136185, 0.09427375, -752798.4, 288642.2, 0.0, 10.003093, 9.997491 
2.1551514e+3, 2.0372939e+2, -729852.5, -1007096.4, -40861.855, -0.066483304, 0.10593333, -723955.44, 219504.86, 0.0, 10.002125, 9.998454 
2.1551211e+3, 2.1372753e+2, -772285.0, -983046.6, -40128.887, -0.055694092, 0.07438931, -764903.06, 80574.94, 0.0, 10.001187, 9.998398 
2.155091e+3, 2.2372621e+2, -740645.9, -787224.8, -41900.168, -0.053769715, 0.0563099, -715997.6, 31492.945, 0.0, 10.000173, 9.999558 
2.1550606e+3, 2.3372585e+2, -810755.8, -772840.7, -44278.977, -0.06393467, 0.06008075, -743631.7, -94138.27, 0.0, 9.99903, 9.999536 
2.1550302e+3, 2.4372582e+2, -808516.44, -616777.2, -59274.492, -0.058929235, 0.06929672, -599932.8, -48439.598, 0.0, 9.997924, 10.000466 
2.155e+3, 2.537264e+2, -866312.2, -600304.9, -65543.12, -0.03513949, 0.07915176, -585032.2, -131544.72, 0.0, 9.9968815, 10.000409 
2.1549694e+3, 2.6372704e+2, -858945.6, -432594.47, -64835.73, -0.03484714, 0.06392653, -422952.84, -67471.89, 0.0, 9.995772, 10.001422 
2.1549387e+3, 2.7372807e+2, -942016.1, -428208.28, -59825.81, -0.05780647, 0.020973867, -421334.38, -163863.6, 0.0, 9.994557, 10.001364 
2.1549085e+3, 2.8373003e+2, -919975.8, -239797.6, -41467.02, -0.042139146, 0.039184492, -237278.88, -77827.836, 0.0, 9.993489, 10.0025 
2.154879e+3, 2.9373333e+2, -955870.94, -214921.31, -34103.72, -0.0028077045, 0.116580226, -213354.92, -151936.61, 0.0, 9.992608, 10.002422 
2.1548484e+3, 3.037347e+2, -1057475.0, -191042.02, -33380.117, -0.063824624, 0.0026936778, -189757.92, -189757.92, 0.0, 9.991372, 10.002846 
2.154819e+3, 3.1373775e+2, -1112330.8, 75413.89, -43129.48, -0.01109287, 0.018614732, 76977.95, 76977.95, 0.0, 9.989736, 10.0054655 
2.1654007e+3, 1.2378844e+2, -731515.9, -1728981.5, 15943.547, 0.02855641, 0.12673521, -731261.1, 995624.4, 0.12600742, 10.010146, 9.995016 
2.1653694e+3, 1.3378386e+2, -716659.6, -1660795.3, 28538.348, -0.015484121, 0.13129747, -715797.8, 913131.8, 0.090812325, 10.009061, 9.995335 
2.1653391e+3, 1.437789e+2, -689830.75, -1566040.3, 26808.303, 0.042002093, 0.08940482, -689011.3, 841966.25, 0.054971587, 10.008061, 9.995791 
2.1653081e+3, 1.5377495e+2, -694096.7, -1545282.8, 29104.955, 0.0010349238, 0.12060169, -693102.7, 739913.3, 0.025817176, 10.007216, 9.995668 
2.1652772e+3, 1.6377102e+2, -658735.44, -1378355.9, 34411.945, -0.025820924, 0.123989604, -657093.56, 677960.44, 0.008261951, 10.006234, 9.996614 
2.1652463e+3, 1.7376712e+2, -734178.94, -1373349.0, 28176.527, -0.033894844, 0.074353635, -732939.25, 504151.78, 0.0013136953, 10.005038, 9.996552 
2.1652156e+3, 1.8376385e+2, -729659.9, -1222467.6, 14917.8545, -0.04436023, 0.05882747, -729208.75, 409914.0, 0.00003282025, 10.003968, 9.997432 
2.1651846e+3, 1.9376166e+2, -762781.3, -1195619.6, 12427.75, -0.056968514, 0.09855465, -762424.75, 278720.06, 0.0, 10.003101, 9.99736 
2.1651536e+3, 2.0375957e+2, -723617.5, -1000373.75, 820.87714, -0.060643148, 0.11066914, -723615.06, 219550.34, 0.0, 10.002155, 9.998484 
2.1651223e+3, 2.1375772e+2, -784811.7, -983291.0, -215.27902, -0.05127663, 0.07533074, -784811.44, 60371.164, 0.0, 10.0010805, 9.998446 
2.165091e+3, 2.237564e+2, -761313.6, -797707.56, -3895.1582, -0.05135402, 0.056828313, -760901.4, -13706.658, 0.0, 10.000036, 9.999551 
2.1650596e+3, 2.3375605e+2, -810288.44, -774889.0, -4573.051, -0.06387821, 0.06425578, -774307.8, -125110.2, 0.0, 9.999045, 9.999512 
2.1650283e+3, 2.43756e+2, -799948.44, -616565.25, -16724.908, -0.060390376, 0.073340215, -615052.4, -63854.48, 0.0, 9.998002, 10.000429 
2.1649969e+3, 2.537565e+2, -870793.75, -606603.44, -17120.371, -0.038008004, 0.08163715, -605498.6, -152305.42, 0.0, 9.996872, 10.000368 
2.1649651e+3, 2.637572e+2, -861724.56, -429116.25, -18494.8, -0.03924576, 0.07455349, -428327.0, -73141.016, 0.0, 9.995735, 10.001462 
2.1649331e+3, 2.7375835e+2, -931700.56, -417634.5, -19916.842, -0.060988687, 0.042482514, -416864.0, -159690.23, 0.0, 9.994606, 10.001412 
2.1649021e+3, 2.8376013e+2, -910581.44, -237650.95, -1545.3203, -0.03919571, 0.037402153, -237647.4, -78491.34, 0.0, 9.9935665, 10.002476 
2.1648715e+3, 2.9376298e+2, -967983.44, -227093.77, -4776.8516, 0.007592187, 0.07116166, -227062.97, -165934.36, 0.0, 9.992556, 10.002362 
2.1648397e+3, 3.0376533e+2, -1068119.3, -189797.77, -8426.45, -0.06729654, 0.05918075, -189716.94, -189716.94, 0.0, 9.991275, 10.0029 
2.1648088e+3, 3.1376776e+2, -1086749.6, 95714.62, 32609.477, -0.033379447, 0.0064154975, 96613.23, 96613.23, 0.0, 9.9898815, 10.005532 
2.1754108e+3, 1.2382e+2, -749607.0, -1767048.9, -17215.83, 0.04581321, 0.11842583, -749315.75, 977260.6, 0.12788978, 10.010143, 9.994758 
2.1753784e+3, 1.3381553e+2, -729485.94, -1689939.6, -8120.851, -0.011873937, 0.15272291, -729417.25, 899203.25, 0.09219344, 10.00907, 9.995131 
2.1753472e+3, 1.4381051e+2, -683707.8, -1554240.3, -3291.3875, 0.04033535, 0.11376552, -683695.4, 846973.7, 0.05583798, 10.008073, 9.995869 
2.1753152e+3, 1.5380631e+2, -687031.4, -1529753.6, -1168.8157, -0.0024582322, 0.10962752, -687029.75, 745679.0, 0.026253045, 10.007215, 9.995778 
2.1752831e+3, 1.6380228e+2, -669061.44, -1399509.1, -7946.346, -0.026704384, 0.10402682, -668975.0, 665772.4, 0.00842141, 10.00623, 9.996473 
2.1752514e+3, 1.7379855e+2, -745142.75, -1398717.9, -15829.281, -0.024765944, 0.088463254, -744759.6, 492023.84, 0.0013460268, 10.005047, 9.996376 
2.1752195e+3, 1.8379529e+2, -730029.1, -1226569.8, -17928.627, -0.028441211, 0.085114196, -729382.6, 409432.94, 0.000034127257, 10.003979, 9.997399 
2.1751878e+3, 1.9379286e+2, -763238.7, -1198214.9, -18853.186, -0.039936967, 0.10130967, -762423.06, 278416.88, 0.0, 10.003105, 9.997343 
2.1751557e+3, 2.0379068e+2, -721835.6, -997683.56, -37537.15, -0.04683277, 0.104983665, -716818.8, 226042.39, 0.0, 10.002156, 9.998504 
2.1751232e+3, 2.1378902e+2, -782544.2, -980132.9, -39670.22, -0.047359083, 0.086177774, -774877.06, 69999.55, 0.0, 10.001083, 9.998468 
2.175091e+3, 2.237878e+2, -760091.44, -797033.5, -40721.816, -0.053836793, 0.07486282, -733847.3, 13040.4795, 0.0, 10.000041, 9.999555 
2.1750586e+3, 2.3378734e+2, -809856.94, -775624.4, -41132.91, -0.06682009, 0.072398275, -748188.6, -99297.13, 0.0, 9.999049, 9.999507 
2.1750261e+3, 2.4378717e+2, -797455.2, -612987.6, -58261.77, -0.06437785, 0.07063591, -596127.4, -45234.63, 0.0, 9.998006, 10.000453 
2.1749935e+3, 2.5378767e+2, -868069.5, -602605.25, -59594.375, -0.04476446, 0.0733693, -589840.6, -136952.27, 0.0, 9.996876, 10.000396 
2.1749607e+3, 2.6378855e+2, -863699.1, -434816.47, -61379.74, -0.046854798, 0.08283993, -426205.0, -71325.414, 0.0, 9.995738, 10.001423 
2.1749277e+3, 2.7378997e+2, -934121.25, -424823.7, -61768.742, -0.066709094, 0.08415838, -417439.28, -160574.8, 0.0, 9.994612, 10.001362 
2.1748956e+3, 2.8379136e+2, -920943.25, -261130.22, -39980.42, -0.04208765, 0.050295528, -258716.48, -99865.766, 0.0, 9.993572, 10.002314 
2.174864e+3, 2.937932e+2, -978724.7, -250587.47, -46263.508, 0.009958788, 0.0037723596, -247659.8, -186826.47, 0.0, 9.992558, 10.002202 
2.174831e+3, 3.0379683e+2, -1028009.75, -107590.516, -62865.496, -0.0562206, 0.097687915, -103316.586, -103316.586, 0.0, 9.991275, 10.003467 
2.1747984e+3, 3.1379992e+2, -1112174.9, 40546.04, -1085.1677, -0.065098345, 0.053719707, 40547.06, 40547.06, 0.0, 9.989889, 10.005151 
2.1854211e+3, 1.2385264e+2, -750645.0, -1772219.3, 7136.024, 0.0514097, 0.13608125, -750595.2, 975662.5, 0.1296025, 10.010177, 9.994703 
2.1853875e+3, 1.3384812e+2, -695212.9, -1668651.4, 27262.02, -0.0214888, 0.1645924, -694449.94, 933852.0, 0.093440615, 10.009332, 9.99515 
2.1853553e+3, 1.4384307e+2, -649400.94, -1537135.9, 36092.215, 0.031754214, 0.12127874, -647936.0, 882414.7, 0.05661359, 10.008334, 9.995859 
2.1853222e+3, 1.5383872e+2, -699985.0, -1537489.4, 30389.258, 0.005455982, 0.10578211, -698883.75, 733507.75, 0.026639897, 10.007135, 9.995761 
2.1852896e+3, 1.6383468e+2, -690536.3, -1410928.8, 24612.594, -0.0110025965, 0.09950909, -689696.4, 644733.94, 0.008561662, 10.00609, 9.99646 
2.1852566e+3, 1.738311e+2, -712249.44, -1384401.8, 27501.25, -0.013969059, 0.101270676, -711126.1, 525339.06, 0.0013736864, 10.005282, 9.996359 
2.1852238e+3, 1.8382785e+2, -680407.4, -1204757.1, 30255.19, -0.01930861, 0.103351496, -678667.44, 459829.66, 0.000035078865, 10.004333, 9.997377 
2.1851909e+3, 1.9382524e+2, -757456.56, -1197813.8, 27958.232, -0.02777861, 0.10501973, -755688.56, 284834.5, 0.0, 10.003159, 9.997317 
2.185158e+3, 2.03823e+2, -736226.1, -1005070.7, 7815.6094, -0.037055522, 0.104324564, -735999.1, 206545.94, 0.0, 10.002063, 9.998496 
2.1851245e+3, 2.1382146e+2, -781866.06, -980224.9, 3250.0566, -0.04835904, 0.09808819, -781812.8, 62746.723, 0.0, 10.001094, 9.998461 
2.1850911e+3, 2.2382027e+2, -753376.8, -790792.94, 736.461, -0.05923861, 0.09176393, -753362.3, -6792.067, 0.0, 10.000078, 9.999578 
2.1850576e+3, 2.3381977e+2, -817404.8, -776240.9, 1703.6089, -0.06662685, 0.081836835, -776170.5, -127596.25, 0.0, 9.998988, 9.999531 
2.1850239e+3, 2.4381955e+2, -809231.1, -617903.7, -16563.18, -0.06278799, 0.07348371, -616480.4, -65904.49, 0.0, 9.997925, 10.000457 
2.1849902e+3, 2.5381997e+2, -865183.7, -601681.1, -20521.691, -0.047871076, 0.07186103, -600092.44, -147520.3, 0.0, 9.996901, 10.000389 
2.1849564e+3, 2.6382086e+2, -846364.0, -427153.7, -23567.05, -0.050461397, 0.08521064, -425832.97, -71269.63, 0.0, 9.995864, 10.001414 
2.1849224e+3, 2.7382246e+2, -908197.9, -413091.6, -21110.748, -0.06579008, 0.10181067, -412193.06, -155645.94, 0.0, 9.994797, 10.001351 
2.1848889e+3, 2.8382382e+2, -919607.25, -267019.34, 2759.3137, -0.044054523, 0.072435364, -267007.7, -108474.336, 0.0, 9.993613, 10.002252 
2.1848562e+3, 2.938255e+2, -1019070.0, -273244.72, 2864.9338, -0.0018106673, 0.016679328, -273233.72, -212716.4, 0.0, 9.992298, 10.00217 
2.1848223e+3, 3.03829e+2, -1019192.25, -64976.47, -16146.065, -0.045006745, 0.08492308, -64703.34, -64703.34, 0.0, 9.991173, 10.003807 
2.1847883e+3, 3.1383264e+2, -1092747.5, -1518.2234, 38166.305, -0.07082, 0.06087645, -184.96628, -184.96628, 0.0, 9.990247, 10.004688 
2.1954311e+3, 1.2388629e+2, -742898.75, -1754920.0, -17247.793, 0.04505518, 0.17367922, -742604.9, 983325.2, 0.13114704, 10.010197, 9.994815 
2.1953964e+3, 1.3388161e+2, -682957.25, -1639601.1, -1166.1492, -0.042196102, 0.16814318, -682955.9, 945018.44, 0.09456036, 10.009336, 9.995348 
2.1953635e+3, 1.4387651e+2, -656464.8, -1552224.6, -4434.16, 0.017357644, 0.114415705, -656442.8, 873579.9, 0.057306293, 10.008335, 9.995756 
2.1953295e+3, 1.5387213e+2, -708273.1, -1557499.6, -12664.73, 0.022699004, 0.10809966, -708084.3, 723980.44, 0.026983764, 10.007144, 9.995621 
2.1952958e+3, 1.638681e+2, -682525.4, -1397085.3, -5959.368, 0.018646669, 0.108391374, -682475.7, 651627.8, 0.008686108, 10.0061, 9.996552 
2.195262e+3, 1.7386469e+2, -703606.5, -1367731.1, -1673.453, -0.001913342, 0.11307328, -703602.25, 532534.4, 0.0013981272, 10.005285, 9.996474 
2.195228e+3, 1.8386148e+2, -682299.25, -1209387.0, -11370.158, -0.016425904, 0.11460664, -682054.06, 456113.84, 0.00003586108, 10.004333, 9.997347 
2.195194e+3, 1.9385876e+2, -760082.2, -1205015.8, -15313.042, -0.020446816, 0.10985807, -759555.8, 280639.2, 0.0, 10.003162, 9.997268 
2.19516e+3, 2.0385645e+2, -738025.2, -1011081.0, -28598.268, -0.03148886, 0.10852483, -735062.1, 207155.44, 0.0, 10.002069, 9.998453 
2.1951255e+3, 2.1385497e+2, -784132.44, -986897.1, -32048.496, -0.054293275, 0.11085096, -779187.56, 65044.47, 0.0, 10.001099, 9.998415 
2.1950908e+3, 2.238538e+2, -750583.06, -786709.94, -38936.41, -0.06747339, 0.10735235, -725724.1, 20518.574, 0.0, 10.000082, 9.999606 
2.1950564e+3, 2.3385327e+2, -814135.2, -771144.2, -38612.863, -0.063487805, 0.092728816, -748446.8, -100200.46, 0.0, 9.998992, 9.999565 
2.195022e+3, 2.4385303e+2, -810679.5, -622723.94, -55108.57, -0.05584295, 0.082094096, -607757.8, -57509.785, 0.0, 9.99793, 10.000423 
2.1949871e+3, 2.5385338e+2, -867820.0, -609149.9, -58894.184, -0.047776718, 0.07674486, -596372.0, -144126.77, 0.0, 9.996906, 10.000338 
2.1949522e+3, 2.6385415e+2, -845093.2, -426421.25, -63734.027, -0.050411124, 0.08118443, -416934.06, -62696.2, 0.0, 9.995869, 10.001418 
2.1949172e+3, 2.7385575e+2, -906469.3, -411194.78, -61828.555, -0.058164105, 0.09553867, -403592.97, -147370.67, 0.0, 9.994801, 10.001365 
2.1948826e+3, 2.8385752e+2, -916802.0, -262692.44, -47065.008, -0.04520328, 0.10529237, -259323.34, -101118.98, 0.0, 9.993615, 10.002282 
2.1948482e+3, 2.9385987e+2, -1011826.7, -259943.14, -46949.426, -0.029303553, 0.11224904, -257022.84, -196842.06, 0.0, 9.992301, 10.002262 
2.1948135e+3, 3.0386186e+2, -1012202.94, -52104.082, -52383.113, -0.03396239, 0.01449576, -49254.51, -49254.51, 0.0, 9.991177, 10.003896 
2.1947786e+3, 3.138661e+2, -1128653.4, -78143.72, 10268.963, -0.046754647, 0.05705922, -78043.34, -78043.34, 0.0, 9.9902525, 10.00416 
2.2054414e+3, 1.23920724e+2, -681285.6, -1719723.3, 23936.217, 0.03243426, 0.17647432, -680734.2, 1044859.2, 0.1325414, 10.010696, 9.99482 
2.205406e+3, 1.3391611e+2, -654777.2, -1616485.8, 30224.24, -0.033834532, 0.17112249, -653828.25, 973808.2, 0.09557123, 10.009524, 9.995423 
2.2053719e+3, 1.4391112e+2, -648893.75, -1551465.3, 23740.3, 0.033547573, 0.12468853, -648269.75, 881414.1, 0.057931196, 10.008412, 9.995723 
2.205337e+3, 1.5390666e+2, -675174.4, -1546268.4, 21509.209, 0.025550058, 0.115905344, -674643.6, 757083.56, 0.02729388, 10.007405, 9.995571 
2.205302e+3, 1.6390261e+2, -639528.7, -1367725.1, 35846.305, 0.017025584, 0.11442298, -637768.4, 695997.9, 0.008799046, 10.006365, 9.996625 
2.2052674e+3, 1.7389925e+2, -699116.2, -1355525.1, 38228.34, 0.0038444248, 0.117560185, -696897.3, 538901.0, 0.0014210134, 10.005277, 9.99656 
2.2052324e+3, 1.8389608e+2, -696609.7, -1213951.1, 24596.387, -0.008918419, 0.11716817, -695442.94, 442386.03, 0.000036715162, 10.004228, 9.997365 
2.2051972e+3, 1.9389334e+2, -748832.2, -1198554.1, 23775.148, -0.019283446, 0.11088984, -747578.75, 292277.38, 0.0, 10.003239, 9.997274 
2.205162e+3, 2.0389104e+2, -713855.5, -1000446.75, 16280.34, -0.03195107, 0.10949536, -712933.6, 228945.22, 0.0, 10.002243, 9.998441 
2.2051264e+3, 2.1388951e+2, -765627.6, -979826.6, 14312.447, -0.049025953, 0.113066815, -764675.5, 79218.195, 0.0, 10.001237, 9.998395 
2.2050911e+3, 2.2388835e+2, -737438.2, -776641.2, 3177.2236, -0.059892427, 0.11004064, -737182.4, 8722.103, 0.0, 10.000159, 9.999636 
2.2050554e+3, 2.3388787e+2, -814719.6, -767373.7, 2499.5042, -0.05924324, 0.09630249, -767242.1, -119334.4, 0.0, 9.998975, 9.999598 
2.2050197e+3, 2.4388766e+2, -823963.0, -629656.75, -9998.798, -0.05607488, 0.08912532, -629143.56, -79234.625, 0.0, 9.997845, 10.000415 
2.2049838e+3, 2.53888e+2, -884196.06, -618442.8, -11375.5, -0.053196806, 0.086242765, -617956.75, -166050.48, 0.0, 9.996803, 10.00032 
2.204948e+3, 2.6388866e+2, -855610.75, -427376.78, -14238.435, -0.05455783, 0.08012696, -426903.88, -73003.84, 0.0, 9.995783, 10.0014515 
2.2049119e+3, 2.738901e+2, -909791.1, -408784.5, -11593.332, -0.05376253, 0.07805134, -408516.38, -152630.38, 0.0, 9.994764, 10.001397 
2.2048762e+3, 2.8389218e+2, -907097.7, -247422.1, -1794.5865, -0.0465943, 0.111295946, -247417.2, -89552.08, 0.0, 9.993641, 10.002373 
2.2048403e+3, 2.9389513e+2, -985122.8, -235047.97, 2768.0586, -0.05050205, 0.16657545, -235037.75, -175202.34, 0.0, 9.992436, 10.002365 
2.2048047e+3, 3.0389604e+2, -1018756.4, -91250.24, -14128.162, -0.023407564, -0.027259259, -91035.086, -91035.086, 0.0, 9.99129, 10.00357 
2.2047691e+3, 3.1390068e+2, -1149807.6, -83404.01, 22105.262, -0.028119992, 0.08953263, -82945.99, -82945.99, 0.0, 9.990089, 10.004201 
2.2154519e+3, 1.23955935e+2, -686824.94, -1732541.3, -9372.544, 0.014530296, 0.1490508, -686740.94, 1038507.06, 0.13380611, 10.01071, 9.994721 
2.2154158e+3, 1.3395159e+2, -658204.9, -1622489.8, -8251.265, -0.0022200143, 0.17386591, -658134.3, 969154.6, 0.096489824, 10.009525, 9.9953785 
2.2153807e+3, 1.4394678e+2, -648080.56, -1549732.0, -11090.791, 0.074247904, 0.14947008, -647944.2, 881390.56, 0.058500618, 10.008413, 9.995736 
2.2153443e+3, 1.5394223e+2, -672782.5, -1543808.1, -14092.684, 0.015592545, 0.12904733, -672554.56, 758824.9, 0.027578149, 10.007415, 9.995585 
2.2153078e+3, 1.639381e+2, -634809.7, -1360872.4, -3079.3167, -0.012047736, 0.118479006, -634796.6, 698622.5, 0.008904479, 10.006375, 9.996669 
2.2152725e+3, 1.7393473e+2, -694781.9, -1348695.3, -1625.4314, 0.0035886408, 0.11524997, -694777.8, 540672.9, 0.0014439292, 10.005282, 9.996606 
2.2152366e+3, 1.8393157e+2, -691984.75, -1206249.8, -12097.639, 0.0021233924, 0.1116808, -691700.3, 445780.47, 0.00003789237, 10.004231, 9.997417 
2.2152005e+3, 1.9392893e+2, -744363.25, -1191277.8, -12289.253, -0.024131756, 0.1084565, -744025.56, 295481.63, 0.0, 10.003243, 9.997324 
2.215164e+3, 2.0392665e+2, -713230.0, -1000786.1, -20514.055, -0.03790224, 0.10725823, -711773.94, 229755.67, 0.0, 10.002247, 9.998439 
2.215128e+3, 2.1392506e+2, -766239.6, -981971.2, -22500.912, -0.033113062, 0.105473876, -763917.75, 79627.37, 0.0, 10.001237, 9.998382 
2.2150913e+3, 2.2392389e+2, -735819.1, -774275.3, -40039.504, -0.03742004, 0.10077961, -710630.06, 34926.055, 0.0, 10.00016, 9.999654 
2.2150545e+3, 2.3392347e+2, -812566.25, -764673.6, -41536.816, -0.054331247, 0.09265389, -740674.8, -93115.96, 0.0, 9.998979, 9.999617 
2.2150175e+3, 2.4392337e+2, -822964.8, -629516.56, -49564.28, -0.06360711, 0.09444107, -617556.9, -67997.62, 0.0, 9.997849, 10.000416 
2.2149804e+3, 2.539238e+2, -883234.3, -618248.44, -50135.984, -0.06430848, 0.10069751, -609079.8, -157524.13, 0.0, 9.996808, 10.000321 
2.2149436e+3, 2.639244e+2, -851550.6, -420690.16, -52820.035, -0.06303948, 0.08201196, -414309.34, -60758.95, 0.0, 9.995787, 10.001497 
2.2149065e+3, 2.7392554e+2, -906031.9, -402957.4, -51052.95, -0.053317565, 0.04734986, -397828.75, -142289.86, 0.0, 9.994769, 10.001436 
2.2148696e+3, 2.8392777e+2, -896868.3, -227869.27, -47575.688, -0.048867773, 0.0884366, -224502.88, -66986.58, 0.0, 9.993644, 10.002508 
2.2148325e+3, 2.939312e+2, -977949.3, -221598.48, -41550.9, -0.06520068, 0.17963763, -219322.69, -159841.03, 0.0, 9.992439, 10.002459 
2.2147961e+3, 3.039315e+2, -1072656.5, -204696.28, -59458.34, -0.013381873, -0.03808594, -200642.11, -200642.11, 0.0, 9.991294, 10.002791 
2.214759e+3, 3.1393585e+2, -1101628.3, 14105.698, -30780.58, -0.013355733, 0.12534721, 14954.22, 14954.22, 0.0, 9.990095, 10.00487 
2.2254626e+3, 1.2399262e+2, -639632.2, -1715536.0, 28657.332, 0.012114782, 0.1437794, -638869.44, 1086018.5, 0.13495483, 10.011135, 9.994641 
2.2254255e+3, 1.3398814e+2, -637150.6, -1614936.3, 28094.14, 0.008898007, 0.1602319, -636344.1, 990586.06, 0.09732469, 10.009709, 9.995345 
2.2253892e+3, 1.439834e+2, -637271.7, -1547356.8, 38346.28, 0.08560445, 0.14598247, -635658.9, 893316.8, 0.059020318, 10.008513, 9.995704 
2.2253516e+3, 1.5397891e+2, -640216.9, -1530995.4, 34496.492, 0.009627556, 0.13619165, -638882.94, 792137.1, 0.027840978, 10.007665, 9.995552 
2.2253142e+3, 1.6397478e+2, -593697.1, -1340030.6, 34924.855, -0.023891957, 0.12728067, -592066.4, 740993.7, 0.009005138, 10.00666, 9.996674 
2.2252779e+3, 1.739713e+2, -674071.1, -1337757.0, 32663.46, 0.003609795, 0.11390942, -672467.44, 562625.06, 0.0014679881, 10.005424, 9.996612 
2.2252409e+3, 1.8396814e+2, -678345.6, -1191532.9, 27232.238, 0.0073598875, 0.10626086, -676904.6, 460217.88, 0.00003961102, 10.004293, 9.997487 
2.2252037e+3, 1.9396558e+2, -727712.94, -1174540.3, 28576.66, -0.024104219, 0.1067768, -725892.75, 313254.94, 0.0, 10.003324, 9.997398 
2.2251663e+3, 2.0396338e+2, -710542.1, -993868.4, 17423.879, -0.039272547, 0.10578948, -709474.6, 231694.9, 0.0, 10.002245, 9.998486 
2.2251289e+3, 2.1396178e+2, -797577.1, -992066.4, 18391.205, -0.029982412, 0.09971384, -795853.3, 47331.797, 0.0, 10.001004, 9.998423 
2.2250913e+3, 2.2396064e+2, -770648.56, -784815.1, 6705.0537, -0.03269367, 0.09392185, -767978.4, -22782.494, 0.0, 9.999898, 9.999705 
2.2250535e+3, 2.3396029e+2, -807241.75, -756256.44, 7356.133, -0.052854776, 0.08904363, -755216.3, -108018.3, 0.0, 9.998994, 9.999664 
2.2250153e+3, 2.4396025e+2, -797978.4, -613079.7, 0.7361735, -0.06530336, 0.093091875, -613079.7, -63881.72, 0.0, 9.998006, 10.00045 
2.2249773e+3, 2.5396073e+2, -869704.6, -607426.25, 1630.6451, -0.06782494, 0.101434544, -607416.1, -156222.13, 0.0, 9.996886, 10.000356 
2.2249392e+3, 2.6396137e+2, -850313.6, -416507.66, 818.1703, -0.06448424, 0.08672422, -416506.13, -63318.086, 0.0, 9.995784, 10.001525 
2.2249013e+3, 2.7396256e+2, -909272.25, -401292.28, 683.26495, -0.049463168, 0.054412972, -401291.38, -146115.25, 0.0, 9.994738, 10.001461 
2.2248633e+3, 2.839647e+2, -885680.1, -217283.86, -4139.496, -0.04981913, 0.0813789, -217258.23, -60103.547, 0.0, 9.993703, 10.00255 
2.224825e+3, 2.9396787e+2, -956135.75, -212244.56, -6953.8237, -0.079276465, 0.14625642, -212179.56, -153057.02, 0.0, 9.992599, 10.002444 
2.2247873e+3, 3.039687e+2, -1093794.5, -257323.03, -19487.531, -0.010548797, 0.0035840378, -256869.27, -256869.27, 0.0, 9.991336, 10.002407 
2.224749e+3, 3.1397232e+2, -1093675.3, 62115.457, 27654.21, -0.009998779, 0.1279568, 62776.75, 62776.75, 0.0, 9.9899645, 10.00526 
2.2354738e+3, 1.24030635e+2, -645976.44, -1725266.0, -13602.134, 0.020386456, 0.15521388, -645805.06, 1078709.5, 0.13600478, 10.011127, 9.994571 
2.2354351e+3, 1.3402572e+2, -637485.8, -1618207.9, -19668.666, 0.0024679604, 0.13300009, -637091.56, 989469.3, 0.098087505, 10.009727, 9.995314 
2.2353974e+3, 1.4402093e+2, -640164.94, -1558833.6, 7241.5894, 0.07192985, 0.11904239, -640107.8, 888499.1, 0.059497688, 10.008535, 9.995616 
2.2353591e+3, 1.5401664e+2, -645922.8, -1544336.4, 4577.232, 0.0063443924, 0.13808052, -645899.5, 784750.44, 0.028086582, 10.007668, 9.9954605 
2.2353211e+3, 1.6401255e+2, -596475.4, -1345953.1, -8512.539, -0.02157752, 0.14005286, -596378.7, 736311.2, 0.009102987, 10.006658, 9.996635 
2.2352833e+3, 1.740089e+2, -675274.25, -1343029.9, -12620.277, 0.0036027213, 0.11388855, -675035.8, 559688.3, 0.0014937496, 10.005432, 9.996573 
2.2352451e+3, 1.8400572e+2, -671734.2, -1181070.4, -9011.031, 0.007407678, 0.10119029, -671574.8, 465179.75, 0.000042034117, 10.004304, 9.997556 
2.2352068e+3, 1.9400328e+2, -721488.06, -1163102.8, -6904.271, -0.019685896, 0.10608713, -721380.1, 317398.16, 0.0, 10.003326, 9.997478 
2.2351685e+3, 2.0400116e+2, -704326.9, -981939.3, -27460.475, -0.036825236, 0.10549026, -701636.7, 239162.4, 0.0, 10.002245, 9.9985695 
2.2351299e+3, 2.139996e+2, -790984.44, -980222.2, -27363.707, -0.039421543, 0.09549305, -787107.1, 55707.055, 0.0, 10.001009, 9.998504 
2.235091e+3, 2.2399852e+2, -764837.9, -774973.0, -27805.53, -0.045027524, 0.08893726, -741641.94, 3182.3376, 0.0, 9.999905, 9.999772 
2.2350523e+3, 2.3399824e+2, -802288.94, -747746.94, -26079.7, -0.054745924, 0.08557901, -737283.94, -90458.16, 0.0, 9.998998, 9.9997225 
2.2350134e+3, 2.4399823e+2, -793333.56, -605138.94, -41053.297, -0.06130696, 0.08533117, -596573.3, -47747.73, 0.0, 9.99801, 10.0005045 
2.234974e+3, 2.539987e+2, -865040.8, -599711.94, -40683.29, -0.064048216, 0.08815105, -593614.06, -142792.34, 0.0, 9.996891, 10.000409 
2.234935e+3, 2.6399958e+2, -850056.9, -417771.3, -39523.324, -0.059054114, 0.094627626, -414187.47, -61374.047, 0.0, 9.995788, 10.001516 
2.234896e+3, 2.7400112e+2, -909336.4, -402981.47, -38510.89, -0.04214624, 0.10130816, -400069.25, -145271.31, 0.0, 9.9947405, 10.00145 
2.234857e+3, 2.8400287e+2, -889918.1, -227506.22, -45418.684, -0.049490385, 0.090605944, -224406.56, -67625.78, 0.0, 9.993705, 10.0024805 
2.2348171e+3, 2.94005e+2, -965029.8, -233065.8, -50295.71, -0.09367294, 0.06225336, -229625.98, -170866.89, 0.0, 9.992604, 10.0023 
2.2347786e+3, 3.040076e+2, -1091993.1, -255380.98, -71482.54, -0.016316833, 0.101511925, -249317.27, -249317.27, 0.0, 9.99134, 10.002421 
2.234739e+3, 3.1401005e+2, -1091650.6, 64631.484, -41744.203, -0.019327015, 0.09986174, 66136.58, 66136.58, 0.0, 9.989966, 10.0052805 
2.245485e+3, 1.2406951e+2, -642006.7, -1735595.0, 16196.226, 0.03288897, 0.1484697, -641766.9, 1082366.0, 0.13698104, 10.011228, 9.99445 
2.2454448e+3, 1.340645e+2, -580550.9, -1600390.9, 3327.5366, -0.009654903, 0.12637644, -580540.0, 1045640.7, 0.09879742, 10.010218, 9.995211 
2.245406e+3, 1.4405976e+2, -566145.06, -1518547.8, 34531.08, 0.053917594, 0.12269829, -564894.7, 963331.75, 0.05994436, 10.009071, 9.995636 
2.2453669e+3, 1.5405537e+2, -633731.7, -1534302.4, 40899.617, 0.017030094, 0.1309922, -631878.0, 798391.9, 0.02831961, 10.007741, 9.995493 
2.2453277e+3, 1.6405128e+2, -609668.56, -1354278.8, 34453.65, -0.0030204752, 0.13105428, -608077.75, 724232.25, 0.009198815, 10.006578, 9.996615 
2.2452886e+3, 1.740477e+2, -645338.3, -1331597.1, 30337.783, -0.000742283, 0.115065806, -643999.75, 590344.44, 0.0015210499, 10.005654, 9.996543 
2.2452493e+3, 1.8404454e+2, -629454.25, -1156399.5, 30542.143, -0.0038361556, 0.10760562, -627689.94, 508684.6, 0.00004520134, 10.00458, 9.997591 
2.2452103e+3, 1.9404213e+2, -725066.75, -1159879.4, 29495.117, -0.014528217, 0.11134955, -723075.06, 315322.94, 0.0, 10.003284, 9.997519 
2.2451706e+3, 2.0404007e+2, -715492.44, -973929.06, 8967.177, -0.028739873, 0.11060135, -715181.7, 225236.33, 0.0, 10.002115, 9.998685 
2.2451307e+3, 2.1403864e+2, -765230.56, -954065.8, 11264.583, -0.047971033, 0.1017592, -764560.94, 77870.84, 0.0, 10.00113, 9.998623 
2.2450908e+3, 2.2403762e+2, -739105.3, -759212.44, 12977.672, -0.057310097, 0.09480393, -732742.6, 11698.576, 0.0, 10.000071, 9.999798 
2.2450513e+3, 2.3403732e+2, -815361.44, -752122.25, 11348.797, -0.052015558, 0.087717555, -750147.3, -103704.195, 0.0, 9.998904, 9.999736 
2.2450112e+3, 2.440373e+2, -808123.75, -598810.9, -2680.3765, -0.05311476, 0.082852736, -598776.56, -50333.637, 0.0, 9.997855, 10.000621 
2.244971e+3, 2.540379e+2, -844808.0, -575721.0, 2878.269, -0.06416784, 0.08364927, -575690.2, -125252.25, 0.0, 9.996973, 10.000531 
2.2449307e+3, 2.6403892e+2, -825505.56, -404044.94, 2511.3257, -0.0625182, 0.09979175, -404029.97, -51601.855, 0.0, 9.995953, 10.001529 
2.2448906e+3, 2.740406e+2, -911815.3, -403415.75, 4177.825, -0.041593, 0.123255245, -403381.4, -148970.13, 0.0, 9.994725, 10.0014515 
2.2448504e+3, 2.840422e+2, -914989.4, -239069.75, 239.40504, -0.047402125, 0.09827914, -239069.66, -82674.01, 0.0, 9.993536, 10.0024805 
2.2448096e+3, 2.9404402e+2, -990671.8, -244619.05, 801.6851, -0.093649514, 0.03701899, -244618.19, -186240.94, 0.0, 9.99243, 10.002303 
2.2447698e+3, 3.0404735e+2, -1067386.8, -211466.67, -5770.7075, -0.024366805, 0.1362837, -211427.77, -211427.77, 0.0, 9.991375, 10.002704 
2.244729e+3, 3.1404936e+2, -1076972.4, 27751.445, 19562.365, -0.021542665, 0.06885129, 28097.746, 28097.746, 0.0, 9.990261, 10.004882 
2.2554964e+3, 1.241092e+2, -653450.3, -1761827.0, -13401.297, 0.047691386, 0.12376062, -653288.25, 1070455.1, 0.13790023, 10.01123, 9.99427 
2.2554548e+3, 1.3410437e+2, -592395.44, -1623963.4, -29757.89, -0.028068027, 0.13772362, -591537.7, 1034252.7, 0.099468246, 10.010217, 9.995033 
2.2554147e+3, 1.4409976e+2, -559330.75, -1504772.5, -10148.306, 0.031082252, 0.15235457, -559221.9, 968613.06, 0.060368553, 10.009073, 9.995738 
2.2553748e+3, 1.5409508e+2, -623551.2, -1514890.1, -6744.3975, 0.039837673, 0.1164233, -623500.1, 806380.2, 0.028542446, 10.00775, 9.995624 
2.2553344e+3, 1.640909e+2, -610123.8, -1357779.0, -297.92484, 0.02966293, 0.10350846, -610123.7, 721797.1, 0.009291976, 10.006586, 9.99659 
2.2552939e+3, 1.7408758e+2, -648068.0, -1338134.5, -3288.0105, -0.009606472, 0.11754585, -648052.4, 585901.0, 0.0015491736, 10.005654, 9.996501 
2.2552536e+3, 1.8408455e+2, -629757.94, -1157310.1, -15773.571, -0.025751142, 0.1245882, -629286.75, 506696.4, 0.000049011967, 10.004577, 9.997588 
2.2552134e+3, 1.9408207e+2, -724546.06, -1160315.3, -17942.47, -0.008769654, 0.121945366, -723808.56, 314198.84, 0.0, 10.003287, 9.997516 
2.2551729e+3, 2.0408005e+2, -705497.44, -955394.7, -27846.484, -0.015440627, 0.12039438, -702432.06, 237594.88, 0.0, 10.002121, 9.998812 
2.2551316e+3, 2.1407883e+2, -754743.6, -934065.94, -24728.566, -0.055816274, 0.11837794, -751396.06, 90642.46, 0.0, 10.001134, 9.99876 
2.2550908e+3, 2.2407788e+2, -740381.3, -763438.4, -29522.416, -0.06963603, 0.11162722, -720216.3, 23830.865, 0.0, 10.000073, 9.999769 
2.2550501e+3, 2.3407744e+2, -817740.7, -758922.0, -32033.979, -0.045031685, 0.09508598, -744844.75, -98794.125, 0.0, 9.998908, 9.999689 
2.255009e+3, 2.4407743e+2, -795753.9, -575201.3, -36592.793, -0.04106801, 0.08533508, -569288.56, -21238.188, 0.0, 9.99786, 10.000782 
2.2549678e+3, 2.5407818e+2, -831480.7, -550193.25, -30241.564, -0.06857116, 0.08782296, -546978.7, -96935.414, 0.0, 9.996979, 10.000706 
2.2549266e+3, 2.640793e+2, -823574.1, -401748.06, -43007.426, -0.07523594, 0.10203416, -397407.88, -45375.227, 0.0, 9.995956, 10.001545 
2.2548853e+3, 2.7408096e+2, -911544.44, -404201.5, -42671.34, -0.048438184, 0.11928181, -400637.56, -146620.86, 0.0, 9.994727, 10.001448 
2.254844e+3, 2.8408265e+2, -910372.44, -230456.73, -42859.637, -0.043600183, 0.10438617, -227765.66, -71765.875, 0.0, 9.993536, 10.002542 
2.2548023e+3, 2.9408485e+2, -979933.56, -223541.25, -40790.12, -0.07853382, 0.07324938, -221347.92, -163370.84, 0.0, 9.99243, 10.00245 
2.254761e+3, 3.0408785e+2, -1028553.56, -132223.16, -45359.563, -0.035074644, 0.10432624, -129933.54, -129933.54, 0.0, 9.991377, 10.003248 
2.2547193e+3, 3.140909e+2, -1136868.1, -99406.69, -35964.223, -0.012174195, 0.092012644, -98161.46, -98161.46, 0.0, 9.99027, 10.004007 
2.2655076e+3, 1.2415029e+2, -629969.3, -1750699.1, 19620.871, 0.046546645, 0.13577579, -629625.9, 1093715.0, 0.13874693, 10.011439, 9.994245 
2.2654651e+3, 1.341452e+2, -576499.94, -1619213.8, 10153.081, -0.020902028, 0.12721485, -576401.06, 1048989.4, 0.100089446, 10.010362, 9.994998 
2.2654238e+3, 1.4414066e+2, -539292.9, -1490540.9, 26769.752, 0.034275267, 0.14949797, -538540.1, 988894.1, 0.060763303, 10.009207, 9.995775 
2.2653826e+3, 1.5413606e+2, -591893.1, -1494072.9, 23991.563, 0.035188925, 0.12111892, -591255.56, 838223.0, 0.028750617, 10.0079565, 9.995665 
2.2653411e+3, 1.6413194e+2, -588248.06, -1345100.0, 36226.703, 0.02293912, 0.11058097, -586518.06, 745000.56, 0.009379861, 10.006734, 9.996604 
2.2652996e+3, 1.7412859e+2, -662940.25, -1343687.4, 37322.348, -0.011734968, 0.121122815, -660900.1, 572651.6, 0.0015770142, 10.005549, 9.9965105 
2.265258e+3, 1.8412556e+2, -646814.44, -1150987.8, 25937.148, -0.027145475, 0.12384564, -645483.56, 490097.75, 0.000053258278, 10.004401, 9.997714 
2.2652166e+3, 1.9412313e+2, -713440.1, -1139698.6, 31972.713, -0.014136998, 0.114863336, -711055.25, 326549.3, 0.0, 10.003302, 9.997648 
2.2651748e+3, 2.0412122e+2, -689897.06, -946445.2, 29153.965, -0.019806784, 0.11557424, -686625.75, 252997.48, 0.0, 10.002226, 9.99882 
2.2651328e+3, 2.1412012e+2, -747782.8, -930595.9, 22253.69, -0.052632965, 0.12763156, -745112.9, 96521.34, 0.0, 10.001185, 9.998757 
2.2650908e+3, 2.241192e+2, -731146.25, -750844.8, 10111.568, -0.0657602, 0.12257373, -726879.9, 16762.973, 0.0, 10.000106, 9.999838 
2.2650488e+3, 2.3411869e+2, -803675.1, -743586.4, 15705.772, -0.049289618, 0.091775864, -739728.9, -94082.086, 0.0, 9.998972, 9.999762 
2.2650069e+3, 2.4411876e+2, -794843.06, -562865.5, 17796.395, -0.044714898, 0.08322088, -561508.1, -13862.552, 0.0, 9.997819, 10.000884 
2.2649646e+3, 2.541198e+2, -873304.0, -558580.2, 18449.123, -0.061303157, 0.10494616, -557502.4, -107866.555, 0.0, 9.996645, 10.000807 
2.2649221e+3, 2.6412097e+2, -867183.9, -410498.06, 4743.827, -0.07196721, 0.11283017, -410448.78, -58823.938, 0.0, 9.995609, 10.00165 
2.26488e+3, 2.741224e+2, -904131.7, -389257.0, 11637.327, -0.06506148, 0.09733794, -388994.13, -135383.1, 0.0, 9.994734, 10.001545 
2.2648375e+3, 2.8412428e+2, -886462.56, -214132.31, 10177.708, -0.0533458, 0.09799637, -213978.28, -58386.38, 0.0, 9.993683, 10.002581 
2.2647947e+3, 2.941271e+2, -972255.56, -210625.1, 9435.457, -0.055953532, 0.12583527, -210508.22, -152945.03, 0.0, 9.992449, 10.002526 
2.264752e+3, 3.041293e+2, -1020891.6, -112471.64, -10913.154, -0.04989837, 0.06386315, -112340.555, -112340.555, 0.0, 9.9913645, 10.003387 
2.2647095e+3, 3.141332e+2, -1128279.5, -110409.02, -25718.982, -0.013938326, 0.130634, -109759.586, -109759.586, 0.0, 9.990396, 10.00387 
2.2755188e+3, 1.24192625e+2, -623223.0, -1736475.6, -11340.642, 0.031057272, 0.17482859, -623107.5, 1099819.4, 0.1394723, 10.011455, 9.994336 
2.2754756e+3, 1.3418694e+2, -571994.06, -1609540.5, -24698.117, 0.007108042, 0.098444164, -571406.44, 1053574.9, 0.10062396, 10.010364, 9.995072 
2.2754334e+3, 1.441824e+2, -542157.8, -1496515.0, -15495.786, 0.05853428, 0.119856775, -541906.3, 985118.5, 0.06110477, 10.009206, 9.995734 
2.2753902e+3, 1.5417828e+2, -594660.6, -1501814.9, -20345.135, 0.0057729348, 0.1428761, -594204.56, 834860.75, 0.028932232, 10.007962, 9.995611 
2.2753471e+3, 1.641743e+2, -584548.06, -1339599.5, -6489.841, -0.01861821, 0.1478356, -584492.3, 746612.06, 0.009458129, 10.00674, 9.99664 
2.275305e+3, 1.7417066e+2, -658925.56, -1337153.9, -5634.0723, -0.0076406077, 0.12542358, -658878.75, 574261.25, 0.0016033504, 10.005554, 9.996555 
2.2752625e+3, 1.8416753e+2, -630254.44, -1118443.0, -14477.996, -0.010243321, 0.106802374, -629825.44, 505344.3, 0.000057698264, 10.004405, 9.997937 
2.2752197e+3, 1.941653e+2, -696028.06, -1105460.0, -8436.147, -0.030248187, 0.091899194, -695854.3, 341335.8, 0.000000000000000002497382, 10.003305, 9.997884 
2.2751768e+3, 2.041635e+2, -697175.4, -963277.9, -9372.501, -0.040638655, 0.09775714, -696845.7, 242361.8, 0.0, 10.002229, 9.998705 
2.275134e+3, 2.1416244e+2, -757955.44, -952939.9, -15720.4, -0.039022837, 0.12962471, -756696.2, 84523.4, 0.0, 10.001186, 9.998606 
2.2750911e+3, 2.2416157e+2, -720242.06, -729452.44, -31476.912, -0.046814423, 0.1272452, -693035.25, 50193.363, 0.0, 10.000108, 9.999986 
2.2750476e+3, 2.3416102e+2, -790695.7, -718304.94, -26435.836, -0.06499715, 0.07809024, -709678.9, -64446.74, 0.0, 9.998976, 9.999935 
2.2750044e+3, 2.4416128e+2, -792418.56, -559545.2, -26241.72, -0.06372733, 0.07711375, -556624.75, -9395.744, 0.0, 9.997823, 10.000908 
2.2749615e+3, 2.541627e+2, -871783.9, -557052.56, -25544.309, -0.042190626, 0.13537918, -554992.8, -105776.87, 0.0, 9.996648, 10.000818 
2.274918e+3, 2.6416385e+2, -854053.4, -384600.72, -29331.979, -0.052723415, 0.13192639, -382775.13, -31569.984, 0.0, 9.99561, 10.001829 
2.274874e+3, 2.7416483e+2, -890416.8, -362635.66, -22212.178, -0.09268216, 0.05598675, -361702.47, -108507.734, 0.0, 9.994737, 10.001728 
2.2748308e+3, 2.8416705e+2, -886398.25, -215571.89, -36277.29, -0.0776925, 0.078820735, -213615.77, -58443.35, 0.0, 9.993686, 10.002571 
2.2747874e+3, 2.9417074e+2, -973133.75, -213707.4, -36463.754, -0.025551073, 0.19657384, -211960.63, -154824.77, 0.0, 9.99245, 10.002506 
2.2747432e+3, 3.0417156e+2, -1040826.7, -155416.27, -48494.19, -0.06988028, 0.012592087, -152768.16, -152768.16, 0.0, 9.991367, 10.003094 
2.2746995e+3, 3.14176e+2, -1077269.5, -7055.0723, -39759.066, -0.033680733, 0.15981005, -5580.0337, -5580.0337, 0.0, 9.990403, 10.004578 
2.2855303e+3, 1.24236025e+2, -565993.2, -1706066.4, 37338.254, 0.019704465, 0.17501256, -564771.6, 1157730.4, 0.14001052, 10.011918, 9.994337 
2.2854859e+3, 1.3423023e+2, -558095.25, -1606280.5, 16824.947, 0.0075967163, 0.09419921, -557825.25, 1066731.9, 0.101019695, 10.010494, 9.995032 
2.2854424e+3, 1.4422578e+2, -544575.75, -1498136.1, 27609.996, 0.055519305, 0.1263923, -543777.0, 982822.94, 0.061358232, 10.009198, 9.995723 
2.285398e+3, 1.5422161e+2, -577630.7, -1493781.1, 26776.215, -0.0074400296, 0.14760561, -576848.75, 851792.1, 0.029069617, 10.00809, 9.995602 
2.2853537e+3, 1.6421759e+2, -558878.5, -1323618.0, 40265.367, -0.031659488, 0.14922339, -556764.25, 773916.0, 0.009520568, 10.006908, 9.996667 
2.2853105e+3, 1.7421392e+2, -647164.75, -1328075.4, 39192.676, -0.005781404, 0.120966874, -644916.25, 587799.9, 0.0016267438, 10.005625, 9.996581 
2.2852668e+3, 1.8421084e+2, -619875.4, -1102131.3, 30310.799, -0.0033749302, 0.10053998, -617977.7, 516767.7, 0.00006211535, 10.004433, 9.998034 
2.2852229e+3, 1.9420871e+2, -680306.9, -1085895.6, 26622.736, -0.032439083, 0.08959245, -678566.9, 358197.47, 0.00000000020988672, 10.003367, 9.997986 
2.2851789e+3, 2.04207e+2, -693529.9, -957108.44, 23416.1, -0.044949364, 0.096248165, -691465.8, 247315.31, 0.0, 10.00224, 9.998739 
2.285135e+3, 2.1420592e+2, -779489.6, -959968.75, 29010.67, -0.03565285, 0.1246724, -774941.0, 65852.766, 0.0, 10.001029, 9.998631 
2.2850911e+3, 2.2420512e+2, -738052.0, -722699.25, 22255.031, -0.042465035, 0.12552044, -706833.9, 35968.33, 0.0, 9.999924, 10.000119 
2.2850464e+3, 2.3420483e+2, -782810.6, -698429.0, 24821.994, -0.068730675, 0.088558875, -691668.9, -46865.473, 0.0, 9.998964, 10.000074 
2.2850022e+3, 2.4420522e+2, -771531.7, -540556.94, 21186.926, -0.0691668, 0.08994023, -538629.56, 8169.3545, 0.0, 9.9979315, 10.000983 
2.284958e+3, 2.542066e+2, -845657.5, -535727.4, 26012.691, -0.041251592, 0.1370808, -533559.3, -84773.27, 0.0, 9.996795, 10.000892 
2.2849135e+3, 2.6420772e+2, -848722.1, -377726.9, 23653.621, -0.04981623, 0.12855926, -376542.0, -25766.947, 0.0, 9.995633, 10.0018635 
2.2848687e+3, 2.742088e+2, -929155.25, -377490.66, 18674.002, -0.090913504, 0.05726587, -376859.28, -124095.09, 0.0, 9.994459, 10.001758 
2.2848243e+3, 2.8421104e+2, -909633.9, -224131.42, 533.4408, -0.07457882, 0.08048638, -224131.02, -69389.24, 0.0, 9.99352, 10.00259 
2.2847798e+3, 2.9421464e+2, -924447.3, -190985.33, 2204.2437, -0.025941452, 0.18819216, -190978.7, -134272.42, 0.0, 9.99279, 10.002497 
2.2847344e+3, 3.0421543e+2, -1024561.0, -174327.75, -19077.936, -0.085343145, 0.015340162, -173899.89, -173899.89, 0.0, 9.991596, 10.002852 
2.2846894e+3, 3.142197e+2, -1091279.9, 37784.586, 24260.984, -0.05192833, 0.17313854, 38305.656, 38305.656, 0.0, 9.990091, 10.005033 
2.295542e+3, 1.2428039e+2, -572093.4, -1717561.9, -5262.0884, 0.009758992, 0.14183721, -572069.2, 1149997.9, 0.14029928, 10.011912, 9.994248 
2.2954962e+3, 1.3427496e+2, -566797.06, -1626199.8, -29745.47, -0.01554887, 0.11120732, -565962.56, 1058156.6, 0.10122727, 10.010499, 9.994882 
2.2954512e+3, 1.4427063e+2, -543023.44, -1497767.3, -10718.998, 0.029256497, 0.16322711, -542903.1, 983257.8, 0.061490335, 10.009208, 9.995724 
2.2954057e+3, 1.5426598e+2, -575912.75, -1491716.9, -12290.461, -0.0067698658, 0.13733873, -575747.8, 852458.1, 0.029144952, 10.008094, 9.995617 
2.2953609e+3, 1.6426179e+2, -558420.8, -1324272.0, -5579.701, -0.020301865, 0.11946742, -558380.2, 771866.6, 0.009560305, 10.006911, 9.996662 
2.2953162e+3, 1.7425829e+2, -646403.0, -1329421.8, -7675.3755, -0.0064600497, 0.109263405, -646316.75, 585964.1, 0.0016454834, 10.005633, 9.99657 
2.2952713e+3, 1.8425535e+2, -620820.44, -1106831.4, -9073.353, -0.0057523977, 0.10454856, -620651.1, 513657.97, 0.00006630557, 10.00444, 9.998 
2.2952263e+3, 1.9425331e+2, -682577.06, -1091690.9, -12109.221, -0.021884678, 0.1059262, -682219.0, 354108.9, 0.0000000020348991, 10.003368, 9.997948 
2.2951812e+3, 2.042516e+2, -682105.6, -934017.06, -20459.104, -0.03421646, 0.1091259, -680454.9, 257889.8, 0.0, 10.002238, 9.998901 
2.295136e+3, 2.1425048e+2, -766614.2, -934415.7, -15371.627, -0.042365443, 0.1132688, -765217.7, 75139.79, 0.0, 10.00103, 9.998808 
2.2950906e+3, 2.2424987e+2, -730363.9, -708335.7, -13692.792, -0.05198508, 0.11844081, -701777.0, 40587.094, 0.0, 9.999927, 10.000218 
2.2950454e+3, 2.3425008e+2, -775791.9, -685601.0, -10779.247, -0.060852516, 0.12269342, -684330.6, -39969.42, 0.0, 9.998968, 10.000163 
2.295e+3, 2.4425052e+2, -762746.6, -524181.22, -21020.996, -0.061801672, 0.120735645, -522343.13, 24012.865, 0.0, 9.997935, 10.001096 
2.2949547e+3, 2.5425142e+2, -836609.6, -518777.2, -17122.246, -0.059552472, 0.10907643, -517857.47, -69510.945, 0.0, 9.9967985, 10.001008 
2.2949089e+3, 2.642526e+2, -857160.5, -396657.16, -21169.607, -0.06344687, 0.10281387, -395686.03, -45351.03, 0.0, 9.995635, 10.001734 
2.2948633e+3, 2.742542e+2, -938675.2, -398272.88, -25137.674, -0.058107946, 0.10322582, -397106.06, -144786.5, 0.0, 9.994459, 10.0016165 
2.2948179e+3, 2.8425616e+2, -907051.94, -219740.58, -27857.002, -0.04280243, 0.10319002, -218613.38, -64312.996, 0.0, 9.99352, 10.002623 
2.2947723e+3, 2.9425862e+2, -924358.6, -193297.6, -27820.209, -0.060058497, 0.095674865, -192240.44, -135965.06, 0.0, 9.992797, 10.00248 
2.2947258e+3, 3.0426082e+2, -1038339.94, -205146.06, -78870.734, -0.097058594, 0.07668284, -197745.83, -197745.83, 0.0, 9.9916, 10.002642 
2.2946791e+3, 3.142642e+2, -1084321.9, 52373.223, 846.70374, -0.083561115, 0.15596381, 52373.855, 52373.855, 0.0, 9.990088, 10.005136 
2.3055537e+3, 1.24326706e+2, -569452.94, -1720931.4, 34582.7, 0.012499435, 0.16798782, -568415.25, 1153198.8, 0.14029232, 10.011959, 9.994199 
2.3055066e+3, 1.3432094e+2, -549728.3, -1630274.4, 11595.008, -0.019246772, 0.11665759, -549603.94, 1074065.4, 0.101211675, 10.010691, 9.994759 
2.3054603e+3, 1.4431646e+2, -518319.4, -1490950.5, 36579.207, 0.01941099, 0.16669226, -516945.66, 1008766.44, 0.061477814, 10.009418, 9.995668 
2.3054138e+3, 1.5431172e+2, -570028.4, -1493936.3, 32199.225, -0.0058669825, 0.13535276, -568907.56, 858850.6, 0.029144896, 10.0081625, 9.995565 
2.3053677e+3, 1.6430748e+2, -549269.5, -1316982.3, 37301.797, -0.01748612, 0.11568015, -547461.4, 782337.94, 0.009571114, 10.006968, 9.996683 
2.3053215e+3, 1.7430402e+2, -613252.2, -1309969.5, 36990.156, -0.014369536, 0.10923125, -611293.8, 620539.0, 0.0016575421, 10.005853, 9.996595 
2.3052756e+3, 1.8430114e+2, -595512.8, -1095992.5, 35882.03, -0.01515805, 0.10981113, -592953.3, 540907.4, 0.00006998502, 10.004626, 9.997982 
2.3052295e+3, 1.9429913e+2, -701434.2, -1103308.9, 32945.547, -0.020369293, 0.11826409, -698751.25, 337128.66, 0.000000006496825, 10.003254, 9.99792 
2.3051831e+3, 2.042975e+2, -702920.56, -923568.25, 27946.71, -0.030949771, 0.12237186, -699435.94, 238460.16, 0.0, 10.002012, 9.999079 
2.3051368e+3, 2.1429646e+2, -766276.25, -912126.9, 33842.242, -0.04933221, 0.11900674, -758806.3, 81100.875, 0.0, 10.000942, 9.999001 
2.3050903e+3, 2.2429596e+2, -741892.4, -708883.7, 36364.25, -0.05894743, 0.12369586, -685453.7, 56458.88, 0.0, 9.99983, 10.000258 
2.3050442e+3, 2.3429628e+2, -818764.7, -703033.44, 34782.395, -0.05463507, 0.13685651, -693384.25, -49474.85, 0.0, 9.998663, 10.000188 
2.3049977e+3, 2.4429677e+2, -799015.44, -526184.44, 24367.316, -0.05608821, 0.13224487, -524025.22, 21878.676, 0.0, 9.997624, 10.001229 
2.304951e+3, 2.5429764e+2, -834072.8, -501552.0, 29915.152, -0.070993215, 0.10453954, -498882.13, -50988.227, 0.0, 9.996751, 10.001147 
2.3049043e+3, 2.6429886e+2, -845637.44, -400481.6, 22243.277, -0.07140749, 0.10336848, -399372.9, -49491.434, 0.0, 9.995758, 10.001646 
2.304858e+3, 2.7430066e+2, -923783.06, -401984.97, 21597.877, -0.039235063, 0.12984413, -401092.53, -149227.25, 0.0, 9.994613, 10.001515 
2.3048115e+3, 2.8430244e+2, -910696.5, -223937.3, 26306.332, -0.033484142, 0.11894024, -222931.1, -69082.93, 0.0, 9.993509, 10.002597 
2.3047644e+3, 2.9430446e+2, -977665.94, -220617.03, 19760.32, -0.09589912, 0.073608726, -220101.61, -164274.63, 0.0, 9.992442, 10.002461 
2.3047173e+3, 3.043073e+2, -1047174.8, -178060.05, -24326.52, -0.076374464, 0.10641649, -177379.69, -177379.69, 0.0, 9.991409, 10.002917 
2.3046692e+3, 3.143102e+2, -1055141.1, 33209.527, 95949.016, -0.1067218, 0.10738021, 41603.652, 41603.652, 0.0, 9.990438, 10.004831 
2.3155656e+3, 1.2437468e+2, -570529.4, -1724846.8, -4826.332, 0.024497218, 0.23699608, -570509.2, 1150636.3, 0.13996422, 10.011957, 9.994174 
2.3155174e+3, 1.3436806e+2, -556474.6, -1646878.8, -30228.316, -0.007869037, 0.11199375, -555637.3, 1067571.0, 0.10095528, 10.010688, 9.994648 
2.3154697e+3, 1.443633e+2, -525586.9, -1508023.8, -6145.023, 0.02249479, 0.14256667, -525548.44, 999705.4, 0.061309475, 10.00942, 9.995544 
2.3154218e+3, 1.5435871e+2, -577519.9, -1512367.0, -11983.249, -0.0052370634, 0.14099169, -577366.3, 849932.0, 0.029062368, 10.008168, 9.995439 
2.3153745e+3, 1.6435455e+2, -546761.7, -1313337.9, -2845.0896, -0.022524271, 0.13454692, -546751.1, 782587.6, 0.009548815, 10.00697, 9.99671 
2.3153271e+3, 1.7435102e+2, -610842.0, -1304785.4, -3287.1306, -0.02891381, 0.11903354, -610826.44, 620546.2, 0.0016611712, 10.005848, 9.996635 
2.31528e+3, 1.8434812e+2, -597598.5, -1100350.3, -13480.83, -0.031015376, 0.11574589, -597237.3, 536163.7, 0.00007282552, 10.0046215, 9.997956 
2.3152326e+3, 1.9434611e+2, -703050.2, -1108633.8, -17105.887, -0.027247882, 0.127434, -702330.0, 333091.0, 0.000000012642861, 10.003259, 9.997884 
2.315185e+3, 2.0434459e+2, -689141.4, -897517.44, -11634.2295, -0.03471748, 0.13665317, -688493.8, 248942.2, 0.0, 10.002019, 9.999257 
2.3151374e+3, 2.1434383e+2, -752131.2, -884418.5, -5288.9814, -0.056868263, 0.1406101, -751920.06, 87523.56, 0.0, 10.000945, 9.999191 
2.3150901e+3, 2.2434336e+2, -743683.3, -714093.1, -6499.4736, -0.06374194, 0.14003469, -712728.44, 28720.012, 0.0, 9.999832, 10.000224 
2.3150428e+3, 2.343434e+2, -821618.06, -710741.2, -8758.621, -0.050172396, 0.13134412, -710053.56, -66604.94, 0.0, 9.998667, 10.000135 
2.3149954e+3, 2.4434392e+2, -788202.75, -505778.7, -9059.812, -0.05194663, 0.12522984, -505488.38, 39954.684, 0.0, 9.997629, 10.001369 
2.3149477e+3, 2.5434518e+2, -822814.1, -480385.3, -3041.1563, -0.07573302, 0.12388869, -480358.3, -32929.76, 0.0, 9.996757, 10.001292 
2.3148999e+3, 2.6434657e+2, -849265.44, -409921.7, -20865.232, -0.07408481, 0.13047077, -408932.97, -59518.145, 0.0, 9.995762, 10.001582 
2.3148525e+3, 2.7434805e+2, -928921.8, -414157.1, -21698.703, -0.03600299, 0.13643524, -413244.03, -161842.38, 0.0, 9.994615, 10.001432 
2.3148046e+3, 2.8434977e+2, -917415.44, -238637.66, -14479.953, -0.048329968, 0.1282181, -238328.9, -84943.516, 0.0, 9.993508, 10.002499 
2.3147564e+3, 2.9435214e+2, -979931.06, -225905.58, -21427.158, -0.13327272, 0.12552893, -225297.17, -169936.16, 0.0, 9.99244, 10.002428 
2.3147093e+3, 3.0435482e+2, -992075.4, -64235.85, -61271.4, -0.019830452, 0.10214762, -60207.188, -60207.188, 0.0, 9.991406, 10.003703 
2.3146594e+3, 3.1435823e+2, -1107826.3, -78316.7, 38175.19, -0.108103186, 0.08772283, -76903.08, -76903.08, 0.0, 9.990441, 10.004067 
2.3255776e+3, 1.24423034e+2, -561736.1, -1710276.0, 22241.15, 0.036382984, 0.23619169, -561305.56, 1159366.8, 0.13929972, 10.011972, 9.994275 
2.3255278e+3, 1.3441658e+2, -551155.44, -1642091.0, 4089.9302, -0.0054354337, 0.12676248, -551140.06, 1071593.5, 0.10044695, 10.010717, 9.994664 
2.3254788e+3, 1.4441185e+2, -522631.0, -1513108.9, 36418.508, 0.013861787, 0.16412993, -521293.75, 1003485.06, 0.060977615, 10.009474, 9.995479 
2.3254299e+3, 1.5440702e+2, -569418.5, -1515762.8, 34848.586, -0.011522557, 0.14725785, -568136.94, 858688.7, 0.02889223, 10.008262, 9.995368 
2.3253813e+3, 1.6440278e+2, -542442.7, -1307423.8, 46139.37, -0.026135998, 0.13624734, -539669.9, 789197.0, 0.009490522, 10.0069895, 9.996738 
2.3253328e+3, 1.7439936e+2, -638756.75, -1314109.1, 44970.07, -0.029916612, 0.1296348, -635775.44, 595124.25, 0.0016552683, 10.005643, 9.996667 
2.3252845e+3, 1.8439652e+2, -623512.25, -1107670.0, 37278.26, -0.032792207, 0.12968425, -620658.75, 512268.75, 0.00007460285, 10.004427, 9.997997 
2.3252356e+3, 1.943945e+2, -683633.44, -1094185.6, 38128.01, -0.033914145, 0.13743313, -680122.5, 354825.16, 0.000000017833118, 10.003376, 9.997924 
2.325187e+3, 2.04393e+2, -656499.5, -875007.44, 42678.95, -0.041279163, 0.14493059, -648459.3, 288503.22, 0.0, 10.002219, 9.999312 
2.3251384e+3, 2.1439229e+2, -750945.3, -877207.6, 38759.69, -0.056851733, 0.15022038, -739996.44, 98973.0, 0.0, 10.000929, 9.999247 
2.3250899e+3, 2.2439185e+2, -752106.0, -715471.8, 37571.29, -0.062346224, 0.14988016, -691990.4, 48983.56, 0.0, 9.999767, 10.000243 
2.3250413e+3, 2.343919e+2, -806293.06, -701272.9, 40200.28, -0.054437105, 0.13994136, -687651.5, -44677.188, 0.0, 9.998768, 10.00015 
2.3249929e+3, 2.4439242e+2, -775390.75, -495919.0, 40829.063, -0.057402268, 0.13490926, -490076.28, 54892.336, 0.0, 9.997705, 10.001398 
2.3249441e+3, 2.5439376e+2, -849102.2, -489723.78, 37701.496, -0.075148456, 0.13762116, -485811.22, -38857.574, 0.0, 9.996566, 10.001317 
2.3248956e+3, 2.6439512e+2, -878963.9, -415795.84, 18191.814, -0.071088284, 0.14027552, -415082.44, -66142.6, 0.0, 9.995527, 10.001652 
2.324847e+3, 2.7439654e+2, -928293.75, -405130.5, 27564.744, -0.038940605, 0.13430193, -403682.16, -152755.33, 0.0, 9.994587, 10.001506 
2.3247981e+3, 2.8439838e+2, -925471.3, -245561.36, 39397.62, -0.059014097, 0.13594092, -243286.06, -90376.625, 0.0, 9.993471, 10.002466 
2.3247485e+3, 2.94401e+2, -1013137.1, -243271.73, 36600.69, -0.1433183, 0.163694, -241535.58, -186652.56, 0.0, 9.992225, 10.00241 
2.3247005e+3, 3.0440325e+2, -977905.3, -19992.854, -11286.101, -0.007119607, 0.082679905, -19859.9, -19859.9, 0.0, 9.991348, 10.004032 
2.3246498e+3, 3.1440744e+2, -1097795.3, -95353.375, 24949.58, -0.11393551, 0.11539171, -94732.8, -94732.8, 0.0, 9.990605, 10.00387 
2.3355895e+3, 1.24471836e+2, -551394.4, -1688529.5, -15263.548, 0.04599452, 0.17760013, -551189.5, 1169004.6, 0.13828214, 10.011954, 9.994457 
2.3355383e+3, 1.3446638e+2, -544152.0, -1627985.9, -36505.98, -0.011077867, 0.15877536, -542923.75, 1079322.5, 0.09967294, 10.010713, 9.994766 
2.335488e+3, 1.4446196e+2, -524133.5, -1518528.4, -4846.7964, -0.005048911, 0.22368896, -524109.88, 1000178.8, 0.060472123, 10.009474, 9.995441 
2.335438e+3, 1.5445657e+2, -572550.0, -1522487.6, -7787.541, -0.023961069, 0.15345895, -572486.2, 853854.94, 0.028628457, 10.008255, 9.995327 
2.3353882e+3, 1.6445212e+2, -542194.94, -1306857.1, -1844.9453, -0.028567197, 0.12321144, -542190.5, 786193.9, 0.009393885, 10.006984, 9.996747 
2.3353384e+3, 1.7444895e+2, -637664.56, -1313584.8, -3839.6816, -0.019023923, 0.1414958, -637642.75, 592772.06, 0.0016394028, 10.005647, 9.996672 
2.3352888e+3, 1.8444625e+2, -616620.06, -1095485.4, -1398.1843, -0.022379309, 0.15096135, -616616.0, 515825.1, 0.000075269054, 10.004432, 9.998081 
2.3352388e+3, 1.944442e+2, -677246.5, -1081706.6, -56.364815, -0.040878117, 0.1475024, -677246.5, 357214.44, 0.000000019606611, 10.003375, 9.998012 
2.335189e+3, 2.0444264e+2, -661761.6, -886556.25, -4298.7666, -0.050525386, 0.14712815, -661679.44, 274796.88, 0.0, 10.002217, 9.999236 
2.3351392e+3, 2.144418e+2, -756510.56, -890359.6, -8532.816, -0.04972604, 0.14896093, -755968.8, 82516.32, 0.0, 10.000932, 9.999157 
2.3350893e+3, 2.244414e+2, -747214.0, -707444.1, 101.61955, -0.055293635, 0.15417483, -707443.9, 33045.574, 0.0, 9.999772, 10.0002985 
2.3350398e+3, 2.3444168e+2, -800950.5, -692181.06, 3000.9648, -0.06783804, 0.16226815, -692098.4, -49611.285, 0.0, 9.998772, 10.000213 
2.3349902e+3, 2.4444222e+2, -781618.4, -510658.16, -1880.065, -0.07256756, 0.1608314, -510645.13, 33836.055, 0.0, 9.997709, 10.001298 
2.3349407e+3, 2.544433e+2, -856394.25, -506306.34, -5315.664, -0.06931297, 0.14553995, -506225.66, -59756.01, 0.0, 9.996568, 10.0012045 
2.3348911e+3, 2.6444453e+2, -864870.94, -387505.72, -17926.12, -0.062401198, 0.13229819, -386833.5, -38376.598, 0.0, 9.995527, 10.001848 
2.3348413e+3, 2.744461e+2, -911739.94, -372775.88, -8923.336, -0.048538785, 0.1219961, -372628.16, -122187.02, 0.0, 9.994591, 10.001728 
2.3347913e+3, 2.8444824e+2, -924325.7, -244819.28, -8155.606, -0.06556281, 0.14108808, -244721.4, -92300.875, 0.0, 9.993474, 10.002473 
2.3347408e+3, 2.9445106e+2, -1016084.4, -248998.77, -8120.7695, -0.12557426, 0.18775699, -248912.81, -194519.6, 0.0, 9.992218, 10.002376 
2.3346914e+3, 3.0445257e+2, -991171.3, -46914.21, -36166.516, -0.042365897, 0.046663336, -45531.004, -45531.004, 0.0, 9.991343, 10.003851 
2.3346403e+3, 3.1445733e+2, -1065516.4, -32112.494, -40307.12, -0.10730377, 0.15183388, -30542.73, -30542.73, 0.0, 9.990615, 10.004304 
2.3456016e+3, 1.2452264e+2, -576968.8, -1702771.4, 40990.12, 0.0525216, 0.16066867, -575478.4, 1144217.1, 0.13689613, 10.011744, 9.994444 
2.3455489e+3, 1.3451724e+2, -561080.9, -1648944.8, 10387.792, -0.015604763, 0.15841065, -560981.7, 1060766.4, 0.0986212, 10.010628, 9.99466 
2.3454973e+3, 1.4451286e+2, -531554.3, -1520704.3, 35374.527, -0.016492847, 0.23313433, -530290.9, 993499.9, 0.05978431, 10.009413, 9.995452 
2.345446e+3, 1.545075e+2, -594764.1, -1531493.3, 36508.637, -0.021743128, 0.16621749, -593343.4, 832499.75, 0.028265903, 10.008091, 9.995341 
2.3453951e+3, 1.6450307e+2, -560832.1, -1313109.5, 46223.652, -0.022944206, 0.13755204, -558002.56, 769883.56, 0.009256964, 10.006847, 9.996767 
2.345344e+3, 1.7449991e+2, -628629.0, -1306573.0, 44617.758, -0.022331972, 0.15538827, -625705.2, 604211.1, 0.0016133683, 10.005703, 9.99669 
2.345293e+3, 1.8449715e+2, -607074.4, -1088778.9, 47090.914, -0.027210275, 0.15955463, -602514.0, 529428.8, 0.00007484813, 10.004494, 9.998095 
2.3452419e+3, 1.9449499e+2, -701599.5, -1091838.9, 42608.816, -0.038579095, 0.14487669, -697001.4, 336962.03, 0.000000017443154, 10.003205, 9.998021 
2.345191e+3, 2.0449339e+2, -693404.9, -904755.44, 36437.89, -0.045825664, 0.14382167, -687299.2, 248680.05, 0.0, 10.002018, 9.999206 
2.3451401e+3, 2.1449263e+2, -756322.56, -893714.94, 35230.246, -0.048093885, 0.15771617, -747815.56, 90172.375, 0.0, 10.000953, 9.999122 
2.3450892e+3, 2.2449227e+2, -728668.7, -690238.2, 50444.105, -0.055036258, 0.16563548, -655473.5, 84518.46, 0.0, 9.999868, 10.000368 
2.3450385e+3, 2.3449251e+2, -797701.4, -681722.0, 54374.87, -0.066571884, 0.16528, -660216.9, -18227.834, 0.0, 9.99876, 10.000287 
2.3449878e+3, 2.4449304e+2, -791701.75, -521958.8, 49121.195, -0.07172994, 0.16092607, -513292.13, 30691.205, 0.0, 9.997672, 10.001235 
2.344937e+3, 2.5449404e+2, -856418.1, -513563.75, 48409.6, -0.07152169, 0.15004937, -506859.63, -60886.633, 0.0, 9.996604, 10.001135 
2.3448865e+3, 2.644953e+2, -865230.94, -380617.7, 34219.87, -0.06849945, 0.14242883, -378213.25, -30253.238, 0.0, 9.995499, 10.001907 
2.3448357e+3, 2.74497e+2, -941119.3, -378152.78, 30928.977, -0.055981573, 0.13613144, -376458.66, -126516.03, 0.0, 9.994356, 10.001802 
2.3447847e+3, 2.84499e+2, -944796.5, -252445.89, 23811.03, -0.06026648, 0.13661565, -251627.95, -99704.75, 0.0, 9.993328, 10.002488 
2.3447332e+3, 2.9450142e+2, -989098.44, -238085.77, 26234.61, -0.10120347, 0.14804864, -237170.44, -183270.69, 0.0, 9.992417, 10.002353 
2.3446824e+3, 3.0450383e+2, -984718.4, -52073.742, 9128.066, -0.08039514, 0.09893954, -51984.41, -51984.41, 0.0, 9.991427, 10.003773 
2.3446308e+3, 3.1450805e+2, -1096187.4, -27468.732, 3220.909, -0.09938957, 0.15659255, -27459.025, -27459.025, 0.0, 9.990327, 10.004472 
2.355613e+3, 1.2457515e+2, -586751.6, -1727628.5, 4308.5396, 0.05536797, 0.17292355, -586735.3, 1132444.3, 0.13514605, 10.011732, 9.994263 
2.3555593e+3, 1.3456908e+2, -578864.2, -1691220.9, -25690.51, -0.019778624, 0.13082644, -578271.1, 1042968.6, 0.09729643, 10.010613, 9.99438 
2.3555064e+3, 1.4456451e+2, -529648.9, -1517931.3, -8593.247, -0.021847725, 0.20143254, -529574.2, 993710.9, 0.058917385, 10.009404, 9.995479 
2.3554541e+3, 1.545597e+2, -591564.44, -1526206.8, -10108.412, -0.007398162, 0.18530154, -591455.1, 833877.5, 0.027805543, 10.008089, 9.99538 
2.3554018e+3, 1.6455549e+2, -559187.3, -1311607.5, 4741.819, -0.011088527, 0.17532346, -559157.44, 768216.1, 0.009079436, 10.006849, 9.9967785 
2.3553494e+3, 1.7455211e+2, -627075.06, -1305145.0, 2890.6868, -0.038647417, 0.17061983, -627062.75, 602342.7, 0.0015768736, 10.005706, 9.9967 
2.355297e+3, 1.8454915e+2, -611149.44, -1098995.0, 155.82918, -0.045533936, 0.1568936, -611149.4, 520284.16, 0.00007329205, 10.004497, 9.998025 
2.355245e+3, 1.945468e+2, -706417.5, -1103560.9, -4556.9263, -0.027714597, 0.13126232, -706365.25, 327090.6, 0.000000012769815, 10.003208, 9.997942 
2.355193e+3, 2.0454523e+2, -692941.8, -905851.94, -2764.4072, -0.028568463, 0.13594666, -692905.94, 242565.78, 0.0, 10.002022, 9.999198 
2.3551409e+3, 2.1454471e+2, -755747.6, -894625.75, -3874.5918, -0.052133214, 0.17568646, -755639.6, 81838.945, 0.0, 10.0009575, 9.999115 
2.3550889e+3, 2.2454436e+2, -722881.8, -680182.7, 9637.761, -0.06123545, 0.18332721, -678108.1, 61373.99, 0.0, 9.999873, 10.000437 
2.3550373e+3, 2.3454434e+2, -791926.4, -671555.3, 12889.658, -0.051008657, 0.14913425, -670190.5, -28709.863, 0.0, 9.998764, 10.000358 
2.3549856e+3, 2.4454482e+2, -793788.8, -528108.7, 8921.045, -0.055453382, 0.1356977, -527809.5, 15665.988, 0.0, 9.997676, 10.001194 
2.3549336e+3, 2.5454602e+2, -858520.2, -519890.3, 7962.9536, -0.0826677, 0.15128388, -519703.16, -74239.125, 0.0, 9.996608, 10.001092 
2.3548816e+3, 2.645475e+2, -871985.3, -396182.0, -9386.667, -0.090052254, 0.17131017, -395996.88, -48547.44, 0.0, 9.995501, 10.0018015 
2.3548299e+3, 2.7454922e+2, -948329.2, -393501.9, -12589.158, -0.06095891, 0.1777652, -393216.4, -143784.86, 0.0, 9.994353, 10.0017 
2.354778e+3, 2.845506e+2, -943927.8, -250795.89, -10999.036, -0.042195313, 0.12180909, -250621.39, -99203.53, 0.0, 9.993324, 10.002503 
2.3547259e+3, 2.9455212e+2, -989311.1, -241382.75, -7743.288, -0.07046341, 0.0399996, -241302.6, -187899.3, 0.0, 9.992425, 10.002329 
2.3546731e+3, 3.0455703e+2, -983780.25, -52582.043, -32891.445, -0.122875795, 0.24536735, -51421.707, -51421.707, 0.0, 9.991433, 10.003769 
2.3546208e+3, 3.1455928e+2, -1112188.8, -58882.08, -15074.021, -0.109388895, 0.102761686, -58666.395, -58666.395, 0.0, 9.990316, 10.004262 
2.3656243e+3, 1.2462859e+2, -605788.44, -1724319.4, 30636.287, 0.030005673, 0.1772491, -604949.94, 1113705.9, 0.13306355, 10.011497, 9.994398 
2.3655696e+3, 1.346225e+2, -600300.2, -1696990.8, 21408.248, -0.016981006, 0.12972106, -599882.44, 1020833.6, 0.0957218, 10.010411, 9.994435 
2.3655157e+3, 1.4461789e+2, -555803.75, -1540453.6, 41696.832, -0.01407531, 0.19690403, -554041.1, 968721.0, 0.0578851, 10.009249, 9.995395 
2.3654622e+3, 1.5461309e+2, -608140.6, -1543899.5, 32840.04, -0.0064158016, 0.19409873, -606989.56, 817820.5, 0.027253069, 10.008015, 9.995293 
2.3654084e+3, 1.6460885e+2, -562258.8, -1315791.1, 47922.805, -0.013643902, 0.18734218, -559223.25, 767628.4, 0.00886209, 10.0068445, 9.996749 
2.365355e+3, 1.7460534e+2, -623737.2, -1306348.9, 43279.59, -0.041622486, 0.17389944, -621004.1, 607880.56, 0.0015293439, 10.005746, 9.996671 
2.3653015e+3, 1.8460234e+2, -601858.44, -1091758.5, 35112.99, -0.049077168, 0.15803726, -599354.56, 531558.3, 0.00007044763, 10.004554, 9.998045 
2.3652484e+3, 1.9460005e+2, -698638.44, -1096983.8, 36138.902, -0.031357896, 0.13802516, -695386.4, 337548.03, 0.000000007665355, 10.003255, 9.997962 
2.365195e+3, 2.0459847e+2, -688848.1, -910754.44, 48168.95, -0.030960055, 0.14410546, -678843.2, 256107.27, 0.0, 10.002085, 9.999131 
2.3651417e+3, 2.1459782e+2, -745621.94, -897125.3, 42341.426, -0.05207603, 0.18069583, -734591.6, 102367.13, 0.0, 10.001063, 9.999044 
2.3650886e+3, 2.2459744e+2, -709927.94, -669693.8, 47214.332, -0.062052134, 0.18735647, -638489.44, 100473.18, 0.0, 9.9999485, 10.00047 
2.3650359e+3, 2.3459746e+2, -795816.3, -668972.75, 47301.8, -0.055812992, 0.15360819, -653275.75, -12315.289, 0.0, 9.998723, 10.000393 
2.364983e+3, 2.4459788e+2, -814028.25, -543756.8, 44236.098, -0.05913902, 0.13913973, -536700.8, 6254.7866, 0.0, 9.997567, 10.001137 
2.3649299e+3, 2.5459903e+2, -880308.0, -536307.56, 42100.71, -0.08066545, 0.15498646, -531230.0, -86284.71, 0.0, 9.996489, 10.001035 
2.364877e+3, 2.6460052e+2, -880062.7, -405697.6, 26460.193, -0.08891607, 0.18352059, -404226.22, -57295.51, 0.0, 9.995475, 10.001747 
2.364824e+3, 2.746023e+2, -925644.44, -388278.13, 27006.398, -0.0650632, 0.20147623, -386924.28, -138012.02, 0.0, 9.994539, 10.001644 
2.3647712e+3, 2.846034e+2, -919884.2, -244792.53, 27407.705, -0.041009706, 0.12564239, -243681.64, -92780.58, 0.0, 9.993518, 10.002449 
2.3647183e+3, 2.9460448e+2, -1002385.06, -253681.27, 23918.03, -0.05840506, 0.005830913, -252917.97, -200027.27, 0.0, 9.992365, 10.002272 
2.3646644e+3, 3.0461028e+2, -1004491.5, -63433.938, -1405.2523, -0.118399516, 0.30614525, -63431.836, -63431.836, 0.0, 9.991299, 10.003757 
2.364611e+3, 3.1461155e+2, -1105247.3, -76041.12, 39930.71, -0.11931584, 0.06064011, -74494.23, -74494.23, 0.0, 9.9904585, 10.004073 
2.3756352e+3, 1.24682866e+2, -582798.75, -1679827.1, -3990.1707, -0.01817633, 0.17021146, -582784.25, 1135340.5, 0.1306951, 10.011483, 9.994749 
2.37558e+3, 1.3467737e+2, -581697.7, -1655078.4, -15076.619, -0.009648456, 0.15112495, -581485.94, 1038692.4, 0.0939269, 10.01039, 9.994735 
2.375525e+3, 1.446728e+2, -568819.56, -1569833.9, -1519.8075, 0.0029062175, 0.21559368, -568817.25, 953406.6, 0.056702908, 10.009235, 9.995202 
2.3754697e+3, 1.546676e+2, -621182.2, -1574454.1, -10909.785, -0.017027386, 0.19402573, -621057.4, 803218.94, 0.026614688, 10.008016, 9.995085 
2.375415e+3, 1.6466312e+2, -566894.9, -1327809.8, 8711.998, -0.02804783, 0.17743956, -566795.1, 759525.56, 0.008606494, 10.006848, 9.996667 
2.3753606e+3, 1.7465955e+2, -630098.0, -1319382.0, 3677.105, -0.0328804, 0.1668685, -630078.4, 598276.06, 0.0014706854, 10.00574, 9.996586 
2.3753062e+3, 1.8465666e+2, -596378.0, -1080507.0, -12148.07, -0.040096037, 0.16267483, -596073.4, 534308.25, 0.00006628175, 10.00455, 9.998126 
2.3752512e+3, 1.9465466e+2, -691228.2, -1084253.1, -11610.299, -0.048779257, 0.16323653, -690885.5, 341514.5, 0.000000003596552, 10.0032625, 9.998048 
2.3751968e+3, 2.0465302e+2, -696911.3, -930535.9, 10325.256, -0.051441982, 0.16672075, -696455.9, 237960.48, 0.0, 10.002093, 9.998994 
2.3751426e+3, 2.1465194e+2, -755389.56, -918917.3, 5047.3174, -0.048281997, 0.1735689, -755233.9, 81195.055, 0.0, 10.001065, 9.998897 
2.3750883e+3, 2.2465146e+2, -710989.8, -673118.44, 2043.1461, -0.05835044, 0.17915702, -673008.56, 65425.32, 0.0, 9.999949, 10.000449 
2.3750342e+3, 2.3465179e+2, -796492.6, -672026.7, 1442.3809, -0.081109904, 0.17874031, -672010.0, -31580.998, 0.0, 9.998726, 10.000373 
2.3749802e+3, 2.4465224e+2, -819399.4, -556776.44, 3263.1663, -0.08237399, 0.170848, -556735.9, -14311.788, 0.0, 9.99757, 10.001047 
2.3749265e+3, 2.5465304e+2, -886141.2, -549943.25, 981.32996, -0.06496074, 0.1605138, -549940.4, -105523.21, 0.0, 9.9964905, 10.000942 
2.3748726e+3, 2.6465437e+2, -880848.6, -408759.66, -9494.287, -0.0647493, 0.17837211, -408568.78, -62164.582, 0.0, 9.995477, 10.001727 
2.3748183e+3, 2.746562e+2, -926373.75, -392264.25, -7852.245, -0.070158154, 0.20634179, -392148.8, -143763.66, 0.0, 9.994545, 10.0016165 
2.3747644e+3, 2.8465742e+2, -929246.7, -266439.38, -16352.998, -0.058758937, 0.14941956, -266036.16, -115663.1, 0.0, 9.993524, 10.0023 
2.3747101e+3, 2.9465857e+2, -1010262.3, -270416.72, -21779.7, -0.06431842, 0.050486557, -269776.13, -217414.33, 0.0, 9.992362, 10.002161 
2.3746562e+3, 3.0466354e+2, -1006489.9, -66936.36, -35947.28, -0.061804574, 0.27461934, -65563.02, -65563.02, 0.0, 9.991291, 10.003739 
2.374601e+3, 3.1466523e+2, -1109629.6, -85905.46, 37663.996, -0.14433733, 0.07762725, -84521.63, -84521.63, 0.0, 9.99046, 10.004005 
2.3856463e+3, 1.24738574e+2, -600387.56, -1685605.6, 31494.848, -0.029864203, 0.17851073, -599474.3, 1118105.1, 0.12808156, 10.011299, 9.994789 
2.3855901e+3, 1.3473308e+2, -629793.94, -1683381.4, 5717.2837, -0.0115663195, 0.16443935, -629762.94, 989870.3, 0.091934994, 10.01002, 9.994717 
2.3855339e+3, 1.4472844e+2, -606245.56, -1580640.9, 22546.621, -0.0007075833, 0.22043118, -605724.1, 915955.1, 0.055381883, 10.00892, 9.995276 
2.3854776e+3, 1.5472333e+2, -616235.75, -1563124.5, 31372.746, -0.023126718, 0.19977356, -615197.44, 808533.0, 0.025895625, 10.008012, 9.995162 
2.3854217e+3, 1.6471882e+2, -566215.9, -1335031.4, 54585.1, -0.03395457, 0.1820347, -562359.75, 763415.25, 0.00831549, 10.006888, 9.996595 
2.3853663e+3, 1.7471512e+2, -666283.4, -1344899.5, 49454.47, -0.034821864, 0.16782688, -662698.3, 565112.2, 0.001402144, 10.00553, 9.996509 
2.3853102e+3, 1.8471222e+2, -621416.8, -1094722.8, 35478.63, -0.042029746, 0.16806345, -618772.1, 511066.06, 0.00006108566, 10.004393, 9.998101 
2.3852544e+3, 1.9471031e+2, -659374.94, -1071352.4, 27806.105, -0.055950154, 0.18219577, -657506.6, 374349.2, 0.0000000010889621, 10.003496, 9.998021 
2.3851988e+3, 2.0470867e+2, -658606.9, -912749.9, 44953.293, -0.05640568, 0.18640922, -650889.75, 282982.4, 0.0, 10.002364, 9.998982 
2.3851435e+3, 2.1470742e+2, -770839.75, -927076.94, 48238.35, -0.042080473, 0.17883536, -757146.3, 78739.45, 0.0, 10.000968, 9.998885 
2.3850882e+3, 2.247068e+2, -748810.5, -708193.9, 49423.477, -0.050648157, 0.18022147, -675069.0, 62822.98, 0.0, 9.999767, 10.000293 
2.3850328e+3, 2.3470703e+2, -799422.75, -690931.2, 38139.523, -0.08316046, 0.18921061, -678865.4, -38976.64, 0.0, 9.998786, 10.000212 
2.3849775e+3, 2.4470745e+2, -800733.9, -546601.06, 36267.875, -0.088232785, 0.18634835, -541526.56, 357.85318, 0.0, 9.997699, 10.001053 
2.3849228e+3, 2.547082e+2, -884947.56, -547544.1, 41113.11, -0.06626028, 0.17224886, -542606.7, -98729.42, 0.0, 9.996496, 10.000953 
2.384868e+3, 2.647094e+2, -890046.75, -420306.53, 40568.832, -0.059120204, 0.18334177, -416828.56, -70963.234, 0.0, 9.995449, 10.001658 
2.384813e+3, 2.747112e+2, -929871.6, -401815.2, 37827.867, -0.059003472, 0.21008852, -399119.1, -151271.36, 0.0, 9.99456, 10.001541 
2.3847578e+3, 2.847125e+2, -919327.75, -258901.19, 25295.451, -0.061546817, 0.17046647, -257933.75, -108099.39, 0.0, 9.993585, 10.002319 
2.3847024e+3, 2.9471382e+2, -990156.4, -259303.58, 30305.64, -0.09292342, 0.08766258, -258049.08, -206228.16, 0.0, 9.992501, 10.002167 
2.3846477e+3, 3.0471787e+2, -1031078.0, -136844.08, 4121.311, -0.025891885, 0.24444737, -136825.1, -136825.1, 0.0, 9.991377, 10.003216 
2.3845913e+3, 3.1471977e+2, -1098983.1, -18524.066, 49029.613, -0.1489271, 0.12388863, -16303.739, -16303.739, 0.0, 9.990268, 10.0045595 
2.3956574e+3, 1.2479549e+2, -618573.8, -1717375.1, -13423.993, -0.016417127, 0.19652498, -618409.9, 1098612.3, 0.12525536, 10.011229, 9.994576 
2.3955998e+3, 1.347896e+2, -644707.6, -1723833.4, -36747.63, -0.021059873, 0.16954637, -643457.7, 975623.3, 0.08976505, 10.010019, 9.994442 
2.3955424e+3, 1.4478482e+2, -583792.6, -1539524.3, -8193.341, -0.020657044, 0.21217166, -583722.4, 937406.0, 0.053933416, 10.008936, 9.995553 
2.3954853e+3, 1.547802e+2, -597219.94, -1522016.3, -1106.9589, -0.026211018, 0.21036434, -597218.6, 825954.9, 0.0251043, 10.007998, 9.995453 
2.3954284e+3, 1.6477586e+2, -573432.75, -1347989.5, 5119.784, -0.033578537, 0.19931424, -573398.94, 751816.94, 0.0079948185, 10.006872, 9.996516 
2.3953713e+3, 1.7477198e+2, -671492.44, -1357955.6, -422.03125, -0.046437107, 0.17600964, -671492.2, 555761.7, 0.0013264518, 10.005535, 9.996419 
2.3953144e+3, 1.8476893e+2, -629624.9, -1114646.0, 2395.7527, -0.05352795, 0.17437749, -629613.0, 499670.4, 0.000055411754, 10.0044, 9.997964 
2.3952578e+3, 1.9476697e+2, -669888.8, -1093163.4, -4646.3535, -0.053861354, 0.19556974, -669837.8, 361464.47, 0.0000000001152025, 10.003491, 9.997876 
2.3952012e+3, 2.0476532e+2, -652841.94, -900605.9, -6019.9336, -0.047364373, 0.20361868, -652695.75, 280622.53, 0.0, 10.002359, 9.999071 
2.3951446e+3, 2.1476416e+2, -763297.94, -913403.56, -3476.1755, -0.033802886, 0.1956683, -763217.5, 72112.27, 0.0, 10.000972, 9.998979 
2.395088e+3, 2.2476336e+2, -768891.7, -752544.75, 12552.329, -0.038844097, 0.18970382, -745739.4, -8401.788, 0.0, 9.999774, 9.999988 
2.3950315e+3, 2.3476316e+2, -820911.9, -737402.7, 1247.8452, -0.06262674, 0.18507801, -737384.06, -98044.02, 0.0, 9.99879, 9.999893 
2.3949753e+3, 2.447635e+2, -794034.2, -534330.1, -8954.48, -0.07761214, 0.18616763, -534021.75, 7314.958, 0.0, 9.997702, 10.001139 
2.394919e+3, 2.547645e+2, -877506.7, -533704.8, -4272.659, -0.08589793, 0.19059579, -533651.7, -90325.8, 0.0, 9.996499, 10.001049 
2.394863e+3, 2.6476568e+2, -899451.6, -441491.94, 6414.449, -0.072472595, 0.19881466, -441402.1, -96087.78, 0.0, 9.995452, 10.0015135 
2.3948076e+3, 2.7476716e+2, -939278.75, -422915.94, 4054.092, -0.029342348, 0.21251483, -422884.13, -175583.81, 0.0, 9.994562, 10.001397 
2.3947515e+3, 2.8476867e+2, -906953.5, -234177.95, -15739.776, -0.04837756, 0.1883638, -233809.9, -84524.625, 0.0, 9.993585, 10.002492 
2.3946941e+3, 2.9477027e+2, -982654.44, -245279.48, -11598.174, -0.15007018, 0.11535066, -245097.11, -193828.8, 0.0, 9.992503, 10.002264 
2.394639e+3, 3.0477318e+2, -1106720.8, -295102.22, -38186.22, -0.014406176, 0.21344067, -293309.56, -293309.56, 0.0, 9.991378, 10.0021305 
2.3945817e+3, 3.1477487e+2, -1010606.0, 163964.95, -14852.903, -0.11711007, 0.17174044, 164152.75, 164152.75, 0.0, 9.990264, 10.005819 
2.4056682e+3, 1.2485302e+2, -729159.94, -1756250.8, 2695.1877, 0.0020654574, 0.21332668, -729152.9, 987306.9, 0.12224579, 10.010233, 9.994786 
2.4056096e+3, 1.3484727e+2, -640583.4, -1701465.0, 8303.873, -0.027488941, 0.18381028, -640518.44, 977998.44, 0.0874395, 10.009943, 9.99463 
2.4055511e+3, 1.4484252e+2, -552797.44, -1512897.4, 30171.703, -0.03855897, 0.21425986, -551850.2, 968713.56, 0.052375633, 10.009103, 9.995656 
2.405493e+3, 1.54838e+2, -635834.75, -1529488.9, 25862.377, -0.031507928, 0.21586709, -635086.94, 787520.5, 0.024254898, 10.007674, 9.995555 
2.4054348e+3, 1.6483375e+2, -623921.1, -1370784.9, 32573.809, -0.036090896, 0.20867942, -622503.1, 702145.8, 0.0076530366, 10.006517, 9.996528 
2.4053767e+3, 1.7482993e+2, -654109.94, -1348283.9, 33027.848, -0.057054218, 0.19018151, -652542.06, 574144.75, 0.0012469983, 10.005653, 9.996427 
2.4053186e+3, 1.8482687e+2, -610701.94, -1109894.0, 40158.645, -0.062963285, 0.1887034, -607491.94, 521224.88, 0.00004982443, 10.004554, 9.99792 
2.405261e+3, 1.9482478e+2, -715668.56, -1119965.3, 39059.77, -0.052013367, 0.20523196, -711929.5, 318807.3, 0.000000000004061441, 10.003203, 9.9978285 
2.4052031e+3, 2.0482305e+2, -695572.4, -924254.44, 36856.574, -0.04533767, 0.2101532, -689779.0, 242974.42, 0.0, 10.002084, 9.999039 
2.4051453e+3, 2.1482183e+2, -730667.25, -900934.7, 29661.42, -0.04342373, 0.20047115, -725648.06, 109116.945, 0.0, 10.001215, 9.998944 
2.4050876e+3, 2.2482094e+2, -725846.1, -743657.06, 46541.227, -0.045828383, 0.19223273, -687366.0, 49407.723, 0.0, 10.000126, 9.999877 
2.4050303e+3, 2.3482056e+2, -827968.5, -753221.94, 49873.04, -0.051637005, 0.185058, -728272.8, -89494.79, 0.0, 9.998799, 9.999777 
2.4049729e+3, 2.448208e+2, -805445.9, -550876.1, 43222.133, -0.06350068, 0.19014828, -543737.8, -2962.109, 0.0, 9.997676, 10.001035 
2.4049152e+3, 2.5482184e+2, -847112.25, -530272.6, 32230.838, -0.084381856, 0.20512407, -527027.1, -84262.03, 0.0, 9.99676, 10.000944 
2.4048585e+3, 2.6482287e+2, -868004.3, -433350.13, 38091.41, -0.074592315, 0.21084014, -430037.2, -85282.43, 0.0, 9.995704, 10.001446 
2.404802e+3, 2.748241e+2, -951792.5, -434788.9, 41724.13, -0.026120739, 0.21085058, -431443.25, -184700.33, 0.0, 9.994508, 10.001339 
2.4047449e+3, 2.8482568e+2, -913532.25, -235933.14, 22011.018, -0.049372096, 0.193533, -235218.89, -86491.414, 0.0, 9.993539, 10.002499 
2.4046865e+3, 2.948275e+2, -944610.3, -227415.58, 11336.3545, -0.1614601, 0.14125337, -227236.44, -176528.17, 0.0, 9.992769, 10.002256 
2.4046303e+3, 3.048298e+2, -1099910.3, -319341.34, -831.7483, -0.0012507209, 0.19567193, -319340.44, -319340.44, 0.0, 9.9915495, 10.001879 
2.4045718e+3, 3.1483117e+2, -1054050.8, 173941.02, 57085.98, -0.100279644, 0.14659104, 176589.08, 176589.08, 0.0, 9.989842, 10.006086 
2.4156785e+3, 1.2491109e+2, -688448.2, -1682326.4, -6547.5845, 0.021721868, 0.22004275, -688405.06, 1027487.8, 0.11907979, 10.010269, 9.995309 
2.4156193e+3, 1.3490604e+2, -608699.6, -1627323.0, -254.57848, -0.033118516, 0.20729537, -608699.56, 1009241.94, 0.08498943, 10.009905, 9.995159 
2.4155599e+3, 1.4490141e+2, -561275.6, -1524932.0, -19859.938, -0.055684425, 0.22706941, -560866.5, 959120.0, 0.05073712, 10.009055, 9.995597 
2.4155004e+3, 1.548967e+2, -639491.0, -1539691.5, -25371.068, -0.03879063, 0.21659073, -638776.5, 783256.2, 0.023367595, 10.007673, 9.995488 
2.4154411e+3, 1.6489248e+2, -617094.0, -1360201.5, 1448.6068, -0.04129758, 0.21050249, -617091.1, 706983.3, 0.0073005594, 10.006526, 9.996598 
2.4153821e+3, 1.7488888e+2, -650340.56, -1338850.0, 1741.8811, -0.06726302, 0.20902319, -650336.1, 575773.94, 0.001167236, 10.005641, 9.996499 
2.415323e+3, 1.848859e+2, -610737.0, -1108178.8, -9570.568, -0.070804395, 0.20970915, -610552.94, 517586.2, 0.00004475003, 10.004541, 9.99794 
2.415264e+3, 1.9488369e+2, -713453.8, -1117506.6, -11062.976, -0.0505298, 0.21158399, -713151.1, 317008.94, 0.000000000003904099, 10.003208, 9.997846 
2.4152051e+3, 2.0488179e+2, -705432.8, -947965.8, 4516.155, -0.050176572, 0.20705721, -705348.75, 226829.39, 0.0, 10.002093, 9.998874 
2.415146e+3, 2.1488036e+2, -741934.7, -925915.56, -2118.9705, -0.07071661, 0.19422999, -741910.3, 92281.56, 0.0, 10.001217, 9.998775 
2.4150874e+3, 2.2487944e+2, -721253.1, -735281.0, -2440.7373, -0.071225286, 0.18854922, -720840.6, 15360.085, 0.0, 10.000126, 9.999936 
2.4150291e+3, 2.3487921e+2, -822853.9, -744338.94, 132.76529, -0.049925942, 0.18887928, -744338.7, -106135.664, 0.0, 9.998802, 9.999839 
2.4149707e+3, 2.4487936e+2, -826994.4, -597722.25, 8451.7, -0.045539364, 0.19789456, -597411.1, -57209.375, 0.0, 9.99768, 10.000713 
2.4149121e+3, 2.5488007e+2, -869304.4, -578728.56, -2773.9246, -0.061253592, 0.21544567, -578702.06, -136506.83, 0.0, 9.996766, 10.000611 
2.414854e+3, 2.6488093e+2, -867228.0, -433832.34, -7507.288, -0.065825135, 0.21913539, -433702.34, -89515.31, 0.0, 9.9957075, 10.001443 
2.4147962e+3, 2.7488205e+2, -950806.3, -433900.3, -3396.2993, -0.052845806, 0.2043702, -433878.0, -187702.11, 0.0, 9.994508, 10.001348 
2.4147381e+3, 2.8488347e+2, -926405.3, -263552.13, -7334.354, -0.065906905, 0.18483995, -263470.97, -115309.71, 0.0, 9.993539, 10.002312 
2.4146794e+3, 2.9488543e+2, -952546.9, -246400.72, -18951.148, -0.120641, 0.16542129, -245892.48, -195751.4, 0.0, 9.992776, 10.002126 
2.414622e+3, 3.048878e+2, -1056570.8, -230917.13, -63367.715, 0.015463208, 0.19420822, -226082.06, -226082.06, 0.0, 9.9915495, 10.002489 
2.4145615e+3, 3.1488994e+2, -1122432.9, 33541.64, -25672.79, -0.093815565, 0.17161873, 34111.523, 34111.523, 0.0, 9.989828, 10.005133 
2.4256887e+3, 1.24970526e+2, -627517.9, -1646501.8, 48627.29, 0.0019095232, 0.21577394, -625202.56, 1090108.3, 0.11577658, 10.010675, 9.995388 
2.4256286e+3, 1.3496569e+2, -690367.9, -1662551.0, 34015.457, -0.019778373, 0.21734227, -689179.2, 928178.2, 0.08244745, 10.009235, 9.995238 
2.4255684e+3, 1.4496107e+2, -667828.4, -1564771.6, 5308.6514, -0.04408045, 0.22939225, -667796.94, 851605.3, 0.049049634, 10.008212, 9.995726 
2.4255078e+3, 1.5495646e+2, -638381.5, -1524399.0, 11975.211, -0.05764779, 0.21594407, -638219.7, 783228.0, 0.02246336, 10.007616, 9.995618 
2.4254476e+3, 1.6495235e+2, -598483.56, -1347468.8, 38281.496, -0.060290936, 0.2143649, -596532.0, 726956.4, 0.006947331, 10.006641, 9.996629 
2.4253875e+3, 1.7494889e+2, -700259.2, -1358943.4, 35592.035, -0.0562112, 0.22446482, -698341.5, 527181.3, 0.0010901807, 10.005285, 9.996531 
2.4253275e+3, 1.8494588e+2, -663693.8, -1139412.5, 22399.787, -0.055266548, 0.22469312, -662641.4, 464910.8, 0.000040454543, 10.004208, 9.997883 
2.4252671e+3, 1.9494346e+2, -687800.8, -1111446.5, 14937.493, -0.0561247, 0.21335414, -687274.75, 342300.47, 0.0000000000084542815, 10.003415, 9.997785 
2.425207e+3, 2.0494148e+2, -661198.4, -924135.4, 33111.746, -0.063739516, 0.20456333, -657092.75, 274501.16, 0.0, 10.002392, 9.998891 
2.425147e+3, 2.1494012e+2, -753975.7, -929395.0, 38780.426, -0.079295084, 0.19754043, -745784.8, 87821.86, 0.0, 10.00113, 9.998791 
2.4250871e+3, 2.2493918e+2, -739679.94, -752919.2, 37946.582, -0.07633893, 0.19525829, -707779.94, 27835.61, 0.0, 10.000043, 9.999853 
2.4250278e+3, 2.3493886e+2, -780640.56, -732856.8, 29307.348, -0.05242, 0.19588183, -718936.75, -81317.81, 0.0, 9.999136, 9.999755 
2.4249683e+3, 2.449389e+2, -784931.1, -590182.2, 39712.414, -0.03948, 0.20435011, -582395.5, -42776.59, 0.0, 9.99803, 10.000594 
2.4249089e+3, 2.5493947e+2, -884416.94, -599146.9, 43700.383, -0.04152295, 0.22114168, -592602.56, -150988.7, 0.0, 9.996725, 10.000488 
2.4248496e+3, 2.6494017e+2, -877689.6, -444329.2, 47440.31, -0.054027822, 0.22110254, -439196.66, -95589.695, 0.0, 9.995665, 10.001389 
2.4247903e+3, 2.7494118e+2, -909436.1, -419881.72, 45647.66, -0.0686947, 0.19799489, -415661.75, -170064.67, 0.0, 9.994822, 10.00129 
2.4247314e+3, 2.849426e+2, -913068.44, -274711.1, 38886.523, -0.0748175, 0.19314139, -272351.0, -124768.59, 0.0, 9.993711, 10.002149 
2.4246721e+3, 2.949448e+2, -1013924.6, -285215.84, 29345.521, -0.09357564, 0.2178322, -284035.97, -234475.73, 0.0, 9.992402, 10.002035 
2.4246132e+3, 3.0494654e+2, -1034231.1, -161735.08, -25472.367, 0.0065259053, 0.15939207, -160992.05, -160992.05, 0.0, 9.991457, 10.003006 
2.4245517e+3, 3.1494978e+2, -1042705.3, -5891.303, 4799.157, -0.07910671, 0.20255819, -5869.09, -5869.09, 0.0, 9.990713, 10.004433 
2.4356987e+3, 1.250312e+2, -645382.44, -1685905.0, -522.8376, -0.04827655, 0.20678762, -645382.2, 1069333.0, 0.11234805, 10.010642, 9.995098 
2.4356382e+3, 1.3502613e+2, -704415.25, -1703620.9, -13763.669, 0.007956405, 0.21331665, -704225.7, 912539.6, 0.07983679, 10.009247, 9.994952 
2.4355766e+3, 1.4502144e+2, -646022.94, -1525707.1, -14332.168, -0.011467408, 0.21990897, -645789.5, 873021.8, 0.047336526, 10.008228, 9.995989 
2.435515e+3, 1.5501718e+2, -621474.4, -1486819.5, -9316.948, -0.087284304, 0.21480204, -621374.06, 799478.94, 0.021557562, 10.007597, 9.995888 
2.4354537e+3, 1.6501327e+2, -602494.75, -1352238.3, -12046.51, -0.0904615, 0.22112799, -602301.25, 720590.4, 0.0066006123, 10.0066185, 9.996609 
2.4353929e+3, 1.7500986e+2, -700847.9, -1362220.8, -14629.164, -0.026550833, 0.23756759, -700524.5, 524401.25, 0.0010178975, 10.005289, 9.996509 
2.4353318e+3, 1.8500672e+2, -672165.94, -1160260.0, -6581.765, -0.020103445, 0.23439603, -672077.2, 454879.38, 0.00003703, 10.004216, 9.997738 
2.4352702e+3, 1.9500403e+2, -698304.06, -1133476.4, -13655.502, -0.06899914, 0.21052083, -697875.94, 331106.78, 0.00000000002968512, 10.003411, 9.997638 
2.435209e+3, 2.0500207e+2, -649816.2, -900275.44, -13292.508, -0.08504718, 0.20260496, -649112.75, 281888.28, 0.0, 10.002386, 9.99906 
2.4351479e+3, 2.1500102e+2, -741623.75, -905344.7, -8021.6406, -0.06976633, 0.20989959, -741231.7, 91778.29, 0.0, 10.001132, 9.998957 
2.4350871e+3, 2.250001e+2, -755750.06, -788620.25, 4159.503, -0.062296294, 0.2117241, -755231.9, -20213.068, 0.0, 10.000048, 9.999607 
2.4350266e+3, 2.3499945e+2, -797110.44, -768900.44, -4898.9604, -0.059961427, 0.20623305, -768073.94, -131047.734, 0.0, 9.999139, 9.999508 
2.4349661e+3, 2.4499936e+2, -779169.06, -579845.3, -9596.02, -0.045767047, 0.20982836, -579384.4, -40356.953, 0.0, 9.998032, 10.000666 
2.4349058e+3, 2.5499997e+2, -878772.7, -588689.6, -5353.2324, -0.025521977, 0.2216278, -588590.9, -147569.66, 0.0, 9.996726, 10.000562 
2.4348453e+3, 2.6500058e+2, -886546.2, -464228.44, 15976.801, -0.038878422, 0.21645316, -463624.88, -120610.2, 0.0, 9.9956665, 10.001253 
2.4347849e+3, 2.750014e+2, -918138.4, -441041.22, 12930.344, -0.072177835, 0.19241002, -440691.03, -195684.5, 0.0, 9.99483, 10.001143 
2.4347249e+3, 2.85003e+2, -923726.94, -298989.7, -11544.8955, -0.07575849, 0.22002876, -298776.4, -151785.58, 0.0, 9.993715, 10.001983 
2.4346645e+3, 2.9500562e+2, -1020632.8, -297751.66, -18222.729, -0.084833644, 0.2993517, -297292.56, -248326.78, 0.0, 9.992391, 10.001957 
2.434604e+3, 3.05006e+2, -1006109.4, -103417.07, -52370.24, -0.03265758, 0.08727634, -100388.94, -100388.94, 0.0, 9.991452, 10.003411 
2.4345425e+3, 3.1501022e+2, -1070004.8, -69421.13, 2221.9658, -0.06249855, 0.19786122, -69416.2, -69416.2, 0.0, 9.990742, 10.0039835 
2.445709e+3, 1.2509303e+2, -704363.7, -1719815.9, 21813.594, -0.023620563, 0.21931651, -703895.3, 1010214.1, 0.10880089, 10.010171, 9.995068 
2.445647e+3, 1.3508774e+2, -680491.6, -1692736.8, 26679.547, -0.007630581, 0.20779341, -679788.94, 936372.44, 0.07716539, 10.00941, 9.994947 
2.4455847e+3, 1.4508301e+2, -625639.06, -1520942.0, 29399.795, -0.030502915, 0.21285182, -624674.7, 893533.6, 0.045605518, 10.008389, 9.995941 
2.4455222e+3, 1.5507892e+2, -690302.75, -1525552.3, 15227.564, -0.0747322, 0.23006499, -690025.25, 730224.0, 0.020655638, 10.007133, 9.995843 
2.44546e+3, 1.6507508e+2, -664710.06, -1370716.0, 4055.699, -0.07524462, 0.24066374, -664686.75, 657600.56, 0.006262989, 10.00614, 9.996711 
2.445398e+3, 1.7507161e+2, -676561.9, -1338750.9, 8790.88, -0.035732802, 0.24462445, -676445.2, 547876.1, 0.0009507973, 10.005409, 9.99661 
2.4453357e+3, 1.8506849e+2, -643101.1, -1145653.5, 25069.57, -0.032809857, 0.23698099, -641853.6, 484498.34, 0.000034343182, 10.004418, 9.997739 
2.4452733e+3, 1.9506581e+2, -732684.56, -1148987.9, 27675.098, -0.06555351, 0.21662538, -730852.8, 297525.38, 0.00000000008671795, 10.003177, 9.997642 
2.445211e+3, 2.0506391e+2, -688585.9, -917708.2, 25657.133, -0.079430014, 0.21325953, -685747.94, 244648.22, 0.0, 10.00212, 9.999066 
2.445149e+3, 2.1506289e+2, -725338.7, -896435.56, 19063.62, -0.0747597, 0.2254425, -723240.4, 109164.38, 0.0, 10.001244, 9.998961 
2.4450871e+3, 2.2506192e+2, -739078.6, -785572.44, 31753.695, -0.066491395, 0.22623831, -722971.8, 11442.143, 0.0, 10.00019, 9.9995575 
2.4450256e+3, 2.3506114e+2, -827049.4, -788553.94, 36778.586, -0.053159717, 0.2146984, -766290.94, -129868.47, 0.0, 9.998961, 9.999455 
2.444964e+3, 2.4506094e+2, -794693.75, -592783.75, 34349.094, -0.038322724, 0.21303135, -587100.2, -48675.48, 0.0, 9.997953, 10.000612 
2.4449024e+3, 2.5506142e+2, -820410.06, -565577.75, 28665.54, -0.02679776, 0.22051556, -562393.0, -121973.625, 0.0, 9.997152, 10.000512 
2.4448411e+3, 2.6506203e+2, -833221.4, -444824.22, 46083.906, -0.04058105, 0.2205252, -439431.2, -97018.32, 0.0, 9.996065, 10.001192 
2.4447797e+3, 2.7506292e+2, -939059.56, -457114.63, 47592.715, -0.06544674, 0.2096524, -452459.75, -208055.61, 0.0, 9.9947195, 10.001083 
2.4447183e+3, 2.8506437e+2, -954756.9, -320889.63, 26201.547, -0.07221149, 0.22869699, -319808.4, -173418.13, 0.0, 9.993538, 10.001915 
2.4446565e+3, 2.9506665e+2, -1014499.9, -303591.4, 26531.9, -0.09845098, 0.28348294, -302602.56, -254233.47, 0.0, 9.9924755, 10.001874 
2.4445954e+3, 3.0506763e+2, -985318.7, -79976.98, -6878.846, -0.03021612, 0.13132705, -79924.71, -79924.71, 0.0, 9.991541, 10.003527 
2.4445333e+3, 3.1507194e+2, -1058255.0, -59888.813, 46692.6, -0.04692918, 0.2374636, -57709.8, -57709.8, 0.0, 9.990809, 10.004014 
2.4557197e+3, 1.2515582e+2, -688771.9, -1694273.0, -3016.4204, 0.053035535, 0.24274677, -688762.8, 1024732.0, 0.10514202, 10.010162, 9.995262 
2.4556558e+3, 1.3515046e+2, -667021.5, -1665507.3, 140.81221, -0.05962876, 0.20446491, -667021.5, 948524.8, 0.07443323, 10.009392, 9.995144 
2.4555923e+3, 1.4514568e+2, -646820.8, -1568616.8, -15402.897, -0.08989967, 0.2112406, -646563.5, 871030.6, 0.043853827, 10.008376, 9.995624 
2.4555296e+3, 1.5514158e+2, -710824.2, -1571184.8, -29217.816, -0.026931433, 0.25801298, -709833.1, 709803.9, 0.01975491, 10.007131, 9.995533 
2.4554662e+3, 1.6513766e+2, -651610.4, -1344691.0, -20923.283, -0.02410508, 0.26895514, -650979.3, 670696.6, 0.005932434, 10.006139, 9.996892 
2.4554026e+3, 1.7513412e+2, -664684.94, -1312664.5, -17027.283, -0.08013462, 0.24552466, -664237.8, 559472.06, 0.0008875232, 10.005398, 9.996797 
2.4553393e+3, 1.851311e+2, -636538.6, -1130423.4, -20332.404, -0.0865872, 0.2337358, -635703.0, 490035.94, 0.000032058673, 10.004406, 9.997851 
2.4552764e+3, 1.9512872e+2, -724706.0, -1132983.6, -17837.457, -0.04654713, 0.23184937, -723928.1, 303834.1, 0.00000000016280782, 10.003174, 9.997755 
2.455213e+3, 2.0512687e+2, -699100.1, -941274.7, -6379.216, -0.04999736, 0.23561127, -698932.2, 230847.9, 0.0, 10.002122, 9.998905 
2.4551499e+3, 2.1512564e+2, -735659.7, -919273.2, -12910.903, -0.09446809, 0.24351162, -734756.3, 97035.16, 0.0, 10.0012455, 9.998807 
2.4550869e+3, 2.251246e+2, -730571.1, -769255.5, -13715.659, -0.08798098, 0.2388764, -726201.7, 7599.5127, 0.0, 10.000191, 9.999671 
2.4550244e+3, 2.3512389e+2, -818515.8, -772660.3, -9100.063, -0.0318209, 0.22084703, -770920.4, -135112.19, 0.0, 9.998964, 9.999566 
2.454962e+3, 2.4512357e+2, -807786.3, -622079.5, 4067.6045, -0.017505782, 0.2137062, -621990.5, -84179.24, 0.0, 9.997958, 10.000412 
2.4548991e+3, 2.5512382e+2, -832516.4, -593591.2, -2109.6318, -0.046752684, 0.21828394, -593572.56, -153763.8, 0.0, 9.99716, 10.000319 
2.4548367e+3, 2.651245e+2, -832426.06, -445530.66, -5610.028, -0.06023519, 0.23373844, -445449.34, -103647.56, 0.0, 9.996071, 10.001187 
2.4547744e+3, 2.7512565e+2, -938422.1, -455881.28, -3263.8516, -0.048470497, 0.24918221, -455859.22, -212069.1, 0.0, 9.994715, 10.001096 
2.4547116e+3, 2.8512663e+2, -953564.9, -318134.66, -13519.641, -0.063896276, 0.21690941, -317847.13, -172066.14, 0.0, 9.993531, 10.00194 
2.4546485e+3, 2.9512784e+2, -1020352.56, -317993.06, -13333.083, -0.13476335, 0.16599733, -317740.03, -269969.7, 0.0, 9.992479, 10.001776 
2.4545872e+3, 3.051315e+2, -999978.56, -112419.91, -36225.77, 0.01808208, 0.30302253, -110943.805, -110943.805, 0.0, 9.991545, 10.0033045 
2.4545237e+3, 3.1513333e+2, -1041228.0, -24184.38, 11936.43, -0.048109487, 0.17137048, -24044.31, -24044.31, 0.0, 9.990804, 10.004265 
2.4657297e+3, 1.2521926e+2, -694358.8, -1697543.3, 23946.006, 0.0537144, 0.24268395, -693787.56, 1019085.6, 0.10137938, 10.010082, 9.995275 
2.4656647e+3, 1.3521402e+2, -709109.25, -1686418.6, 15844.082, -0.05002757, 0.21483198, -708852.44, 906071.6, 0.07163822, 10.009052, 9.995163 
2.4656004e+3, 1.4520928e+2, -687202.06, -1579715.0, 595.4241, -0.082822725, 0.22266087, -687201.6, 829769.8, 0.042073224, 10.008037, 9.995708 
2.4655364e+3, 1.5520518e+2, -715171.94, -1563225.8, 12269.504, -0.030736472, 0.2618305, -714994.5, 704019.8, 0.018846761, 10.007055, 9.995622 
2.4654722e+3, 1.6520134e+2, -656720.5, -1336364.6, 38752.063, -0.02826096, 0.2706612, -654518.06, 666534.56, 0.0056031873, 10.006061, 9.9969845 
2.4654077e+3, 1.7519788e+2, -708211.44, -1322101.5, 36329.645, -0.07688309, 0.24984038, -706068.94, 517016.63, 0.0008255581, 10.0050535, 9.996895 
2.4653435e+3, 1.8519495e+2, -682531.44, -1147496.9, 19550.498, -0.08504122, 0.24239428, -681710.8, 443402.94, 0.000029759234, 10.004073, 9.997892 
2.4652793e+3, 1.9519268e+2, -729444.44, -1129794.9, 16852.77, -0.053586405, 0.24661192, -728736.3, 298400.06, 0.00000000021615258, 10.003122, 9.9978 
2.465215e+3, 2.0519081e+2, -699751.4, -942778.2, 35546.098, -0.057229012, 0.24946482, -694658.94, 234495.45, 0.0, 10.002128, 9.99889 
2.465151e+3, 2.1518949e+2, -758900.56, -931256.75, 38272.594, -0.09505475, 0.2504522, -750784.1, 80382.7, 0.0, 10.001095, 9.998795 
2.4650869e+3, 2.2518843e+2, -739994.06, -771386.1, 34199.543, -0.08763829, 0.24512322, -718060.7, 15116.038, 0.0, 10.00012, 9.999688 
2.4650234e+3, 2.3518775e+2, -783266.25, -752826.5, 31877.309, -0.035411287, 0.23143975, -732722.06, -97539.2, 0.0, 9.999199, 9.999586 
2.4649598e+3, 2.451874e+2, -789063.8, -621384.25, 48616.625, -0.022242883, 0.22396505, -608308.2, -71122.016, 0.0, 9.998128, 10.000332 
2.464896e+3, 2.551875e+2, -873571.44, -621392.94, 50575.023, -0.05018989, 0.22436132, -611628.06, -172442.94, 0.0, 9.996919, 10.000241 
2.4648325e+3, 2.6518813e+2, -871846.1, -465796.4, 43010.15, -0.058021925, 0.23863538, -461290.63, -120111.74, 0.0, 9.9958105, 10.001171 
2.464769e+3, 2.7518925e+2, -928380.06, -452090.1, 44014.05, -0.037068408, 0.25585577, -448056.9, -204889.61, 0.0, 9.994792, 10.001082 
2.4647053e+3, 2.8519017e+2, -922018.56, -304251.22, 34173.06, -0.06281275, 0.21921822, -302366.63, -157207.72, 0.0, 9.993758, 10.001924 
2.4646406e+3, 2.9519123e+2, -993514.7, -309163.1, 30291.844, -0.15663405, 0.15732594, -307824.9, -260675.17, 0.0, 9.992686, 10.001734 
2.4645789e+3, 3.051951e+2, -992718.8, -145995.19, 17940.738, 0.0430818, 0.33555916, -145615.22, -145615.22, 0.0, 9.991761, 10.002967 
2.4645142e+3, 3.1519592e+2, -1025302.25, -19784.848, 22407.158, -0.069829315, 0.13396388, -19285.77, -19285.77, 0.0, 9.990932, 10.00423 
2.475739e+3, 1.2528339e+2, -699220.6, -1717497.5, -9722.347, -0.0024677918, 0.22720118, -699127.8, 1013116.7, 0.09751351, 10.010081, 9.995128 
2.4756743e+3, 1.3527834e+2, -719026.75, -1708356.3, -18427.246, 0.008073846, 0.23414382, -718683.7, 895611.3, 0.06877092, 10.009021, 9.9950285 
2.4756086e+3, 1.4527376e+2, -662563.4, -1525452.8, -32524.934, -0.025478654, 0.24190658, -661339.1, 855001.8, 0.04024923, 10.008011, 9.996097 
2.4755427e+3, 1.5526968e+2, -688178.75, -1507435.4, -22289.578, -0.0789409, 0.24649146, -687572.75, 730808.94, 0.017918348, 10.00705, 9.99601 
2.4754776e+3, 1.65266e+2, -657010.44, -1337155.6, 2259.3606, -0.07730419, 0.25226697, -657002.94, 663415.3, 0.005267713, 10.006054, 9.9969845 
2.4754131e+3, 1.7526282e+2, -709900.4, -1323066.4, -535.7559, -0.03166097, 0.25833237, -709899.94, 512549.47, 0.0007622882, 10.005037, 9.996899 
2.4753477e+3, 1.8526e+2, -686543.06, -1154339.0, -15002.82, -0.03687706, 0.26096365, -686062.4, 438415.03, 0.000027118162, 10.004062, 9.997853 
2.475282e+3, 1.952576e+2, -731179.75, -1134482.1, -17407.102, -0.08569037, 0.2596498, -730429.9, 296071.34, 0.00000000023303823, 10.003121, 9.99777 
2.4752165e+3, 2.052557e+2, -692568.3, -929272.44, -2148.6904, -0.09729159, 0.2552397, -692548.8, 235970.7, 0.0, 10.00213, 9.998984 
2.4751519e+3, 2.1525438e+2, -752239.9, -918470.4, 320.78644, -0.07694757, 0.24746296, -752239.25, 78292.2, 0.0, 10.001095, 9.998884 
2.4750869e+3, 2.2525336e+2, -745679.9, -784810.6, 35.69989, -0.06723962, 0.24552606, -745679.9, -13138.97, 0.0, 10.000123, 9.999598 
2.475022e+3, 2.3525275e+2, -788060.3, -764805.4, -2835.332, -0.06464924, 0.2464362, -764464.7, -129917.914, 0.0, 9.999204, 9.999505 
2.4749573e+3, 2.4525242e+2, -786802.56, -618320.8, 2815.3145, -0.052429352, 0.24376214, -618273.75, -81723.984, 0.0, 9.99813, 10.000354 
2.4748929e+3, 2.5525248e+2, -872109.5, -619232.94, 4791.2056, -0.036197208, 0.23823622, -619142.2, -180593.5, 0.0, 9.996918, 10.000259 
2.4748284e+3, 2.652529e+2, -875390.2, -473538.13, 4716.541, -0.032962665, 0.23471427, -473482.75, -132938.53, 0.0, 9.995807, 10.0011215 
2.4747637e+3, 2.7525374e+2, -931930.9, -461350.66, 6400.509, -0.032168005, 0.22946948, -461263.63, -218727.97, 0.0, 9.994796, 10.00102 
2.4746987e+3, 2.85255e+2, -927029.25, -317195.78, -6144.021, -0.070098355, 0.23711163, -317133.9, -172610.11, 0.0, 9.993764, 10.001834 
2.474633e+3, 2.9525685e+2, -993987.3, -311758.94, -10465.313, -0.16388027, 0.26155934, -311598.44, -265091.66, 0.0, 9.992688, 10.001718 
2.4745706e+3, 3.0525827e+2, -1026277.75, -217070.8, -11127.847, 0.041685645, 0.21684124, -216917.8, -216917.8, 0.0, 9.991762, 10.0024805 
2.4745049e+3, 3.1526077e+2, -991730.5, 45939.58, -44800.145, -0.087699555, 0.23875687, 47870.176, 47870.176, 0.0, 9.99094, 10.004682 
2.4857488e+3, 1.253486e+2, -689194.8, -1695572.6, 7385.0967, -0.012065721, 0.22753096, -689140.56, 1022465.8, 0.09352398, 10.010036, 9.995309 
2.4856831e+3, 1.3534379e+2, -757568.4, -1708726.8, 18461.178, 0.019539217, 0.24144481, -757210.25, 856444.3, 0.06580537, 10.008629, 9.995213 
2.4856165e+3, 1.4533937e+2, -711659.3, -1529901.8, 22456.44, -0.013955741, 0.24833074, -711043.44, 804655.1, 0.03835873, 10.007565, 9.996277 
2.4855493e+3, 1.5533538e+2, -705512.56, -1495416.4, 19346.055, -0.086937405, 0.24528249, -705039.0, 712698.75, 0.01695456, 10.006839, 9.996191 
2.4854831e+3, 1.6533178e+2, -684199.7, -1346242.4, 28093.97, -0.087248966, 0.25057688, -683009.6, 636763.8, 0.0049189143, 10.005852, 9.997018 
2.4854177e+3, 1.7532869e+2, -766058.4, -1345107.0, 27491.785, -0.02718546, 0.26315376, -764756.06, 457048.4, 0.0006957738, 10.004634, 9.996939 
2.4853516e+3, 1.8532598e+2, -730675.9, -1160486.4, 31362.977, -0.03186064, 0.269379, -728399.44, 395432.1, 0.000023972061, 10.003699, 9.997984 
2.4852847e+3, 1.9532372e+2, -737937.56, -1122619.8, 39537.813, -0.09301489, 0.2691873, -733915.9, 291937.88, 0.00000000017417703, 10.003016, 9.9979 
2.4852185e+3, 2.0532182e+2, -699912.44, -938106.25, 44574.203, -0.10426776, 0.26282907, -691844.4, 236027.61, 0.0, 10.002107, 9.998932 
2.4851528e+3, 2.1532038e+2, -769971.25, -931675.75, 36592.37, -0.07164883, 0.2497921, -762076.1, 67809.13, 0.0, 10.000998, 9.998838 
2.4850869e+3, 2.2531936e+2, -764525.56, -792330.75, 40491.824, -0.061723728, 0.24933147, -735616.1, -3721.1963, 0.0, 9.999992, 9.999606 
2.485021e+3, 2.3531881e+2, -806104.44, -772003.4, 44135.293, -0.07050884, 0.25914127, -741739.6, -107839.67, 0.0, 9.999079, 9.999513 
2.4849553e+3, 2.4531843e+2, -793840.1, -630042.0, 41540.375, -0.061039653, 0.25642058, -620109.4, -84206.05, 0.0, 9.998122, 10.000275 
2.4848896e+3, 2.553183e+2, -846797.94, -614599.44, 35557.305, -0.038573522, 0.2412595, -609276.44, -171372.52, 0.0, 9.9971285, 10.000187 
2.4848239e+3, 2.653186e+2, -834675.2, -453333.22, 35314.457, -0.033888984, 0.22927862, -450090.47, -110189.68, 0.0, 9.996089, 10.001122 
2.4847583e+3, 2.753194e+2, -903589.7, -447146.75, 39953.816, -0.035961907, 0.22025083, -443675.88, -201783.03, 0.0, 9.994992, 10.00102 
2.4846923e+3, 2.8532085e+2, -897547.7, -302153.2, 34964.375, -0.06948527, 0.24934821, -300106.97, -156228.11, 0.0, 9.993967, 10.001837 
2.4846257e+3, 2.95323e+2, -941669.4, -282736.1, 37232.29, -0.15363033, 0.30726483, -280639.0, -234780.77, 0.0, 9.993035, 10.001747 
2.484562e+3, 3.053234e+2, -1019839.6, -248928.58, 41651.76, 0.021208663, 0.17102055, -246684.69, -246684.69, 0.0, 9.991962, 10.002162 
2.4844956e+3, 3.1532618e+2, -1001720.94, 93494.71, 11750.904, -0.06389539, 0.25937262, 93620.77, 93620.77, 0.0, 9.990651, 10.005145 
2.4957588e+3, 1.2541479e+2, -665459.56, -1642557.6, -36490.9, 0.012162891, 0.23968883, -664098.7, 1046860.9, 0.08937415, 10.009971, 9.995741 
2.4956912e+3, 1.354103e+2, -727476.8, -1648811.8, -28706.592, -0.008478475, 0.24132657, -726583.25, 886420.3, 0.06270775, 10.008627, 9.995626 
2.4956235e+3, 1.4540605e+2, -708881.0, -1531726.9, -2346.1785, -0.039083637, 0.2469355, -708874.3, 806171.06, 0.036378756, 10.007577, 9.996262 
2.4955563e+3, 1.5540215e+2, -708165.9, -1498397.1, -5988.35, -0.061075825, 0.2557052, -708120.5, 708963.06, 0.015944477, 10.006816, 9.996184 
2.495489e+3, 1.6539861e+2, -683772.06, -1341539.5, -15269.718, -0.06595902, 0.2617011, -683417.75, 635701.44, 0.0045534153, 10.005828, 9.997064 
2.4954219e+3, 1.7539544e+2, -761163.44, -1336808.0, -15724.785, -0.059259687, 0.26400086, -760734.2, 460417.22, 0.0006255409, 10.004637, 9.996997 
2.4953547e+3, 1.8539289e+2, -711439.3, -1123157.5, 6933.21, -0.06372138, 0.2694969, -711322.6, 411854.06, 0.000020335405, 10.003705, 9.9982395 
2.4952877e+3, 1.9539095e+2, -721508.5, -1087984.1, 13793.468, -0.077245586, 0.27683106, -720990.06, 304204.53, 0.00000000005180779, 10.003009, 9.998143 
2.4952205e+3, 2.0538908e+2, -714758.8, -968463.7, 3286.6814, -0.08187508, 0.27223694, -714716.25, 212496.27, 0.0, 10.0021, 9.998729 
2.4951532e+3, 2.1538742e+2, -782406.06, -959184.2, -3882.362, -0.07941155, 0.25597134, -782320.8, 46908.145, 0.0, 10.001, 9.998651 
2.4950866e+3, 2.2538634e+2, -758014.2, -780933.3, 6757.666, -0.070033826, 0.25603905, -756170.06, -24930.871, 0.0, 9.999996, 9.999684 
2.49502e+3, 2.3538592e+2, -800492.94, -762272.4, 9568.652, -0.053070948, 0.2698373, -760010.6, -126768.02, 0.0, 9.999082, 9.99958 
2.4949531e+3, 2.4538542e+2, -807054.94, -659158.44, 3866.7732, -0.048644178, 0.26192892, -659057.44, -123810.305, 0.0, 9.998125, 10.000076 
2.4948862e+3, 2.5538495e+2, -858685.6, -641421.8, -1983.3912, -0.059059884, 0.23297083, -641403.75, -204152.5, 0.0, 9.997133, 10.000003 
2.4948196e+3, 2.6538518e+2, -831028.3, -448237.22, -6216.7017, -0.06256395, 0.22207604, -448136.28, -108887.56, 0.0, 9.996095, 10.001157 
2.494753e+3, 2.7538615e+2, -898870.94, -439871.34, -1946.7162, -0.048860647, 0.22825678, -439863.1, -198624.14, 0.0, 9.994998, 10.00107 
2.4946862e+3, 2.853877e+2, -890292.8, -289473.22, -256.3662, -0.06004632, 0.25531223, -289473.1, -146249.1, 0.0, 9.993973, 10.0019245 
2.4946189e+3, 2.9538977e+2, -934967.94, -272008.47, 4262.4097, -0.12532876, 0.29249576, -271981.06, -226777.22, 0.0, 9.993044, 10.001819 
2.4945532e+3, 3.0539054e+2, -1030394.6, -272941.72, -6404.314, -0.020316938, 0.20389143, -272887.56, -272887.56, 0.0, 9.991966, 10.001998 
2.4944861e+3, 3.1539294e+2, -1025096.3, 46904.12, -15749.7295, -0.050725266, 0.2678978, 47135.465, 47135.465, 0.0, 9.990639, 10.004833 
2.5057682e+3, 1.2548256e+2, -768589.06, -1695139.3, 28542.27, 0.035991047, 0.25091863, -767710.7, 942585.5, 0.08503669, 10.009165, 9.995729 
2.5056994e+3, 1.3547811e+2, -725725.75, -1647901.6, 11440.702, -0.02735631, 0.2588964, -725583.8, 886756.6, 0.059460107, 10.008615, 9.995637 
2.5056306e+3, 1.4547393e+2, -686039.1, -1498480.8, 29715.914, -0.05660584, 0.26178256, -684953.7, 829427.56, 0.03430192, 10.007632, 9.996464 
2.5055626e+3, 1.5547012e+2, -767301.44, -1505580.9, 40236.984, -0.038352676, 0.2609346, -765114.94, 651302.75, 0.014888272, 10.006309, 9.996377 
2.5054947e+3, 1.654666e+2, -755936.9, -1375821.6, 40621.246, -0.04330519, 0.26405331, -753286.3, 565166.4, 0.0041736616, 10.005331, 9.997065 
2.505426e+3, 1.7546347e+2, -758728.3, -1334157.5, 36790.277, -0.071376674, 0.26879206, -756385.7, 464099.56, 0.00055293157, 10.004653, 9.9970045 
2.505358e+3, 1.854609e+2, -705834.2, -1121214.6, 48717.563, -0.07872792, 0.27393907, -700196.9, 422314.0, 0.000016423164, 10.003753, 9.998227 
2.5052902e+3, 1.954589e+2, -771708.75, -1111777.4, 36747.49, -0.06759036, 0.27877003, -767783.1, 256746.25, 0.0000000000010010511, 10.002667, 9.998142 
2.5052226e+3, 2.0545712e+2, -758806.0, -977427.5, 27511.031, -0.06689786, 0.27661255, -755397.2, 171149.28, 0.0, 10.00175, 9.998834 
2.5051543e+3, 2.154556e+2, -779880.56, -946518.2, 40973.695, -0.075702995, 0.26760527, -770350.75, 58210.316, 0.0, 10.000975, 9.998747 
2.5050864e+3, 2.254545e+2, -756228.7, -791831.4, 52388.56, -0.07067382, 0.2674844, -718699.7, 11871.935, 0.0, 10.000065, 9.999574 
2.5050187e+3, 2.3545389e+2, -813634.5, -778883.3, 41388.61, -0.051632673, 0.27388567, -751371.0, -118793.69, 0.0, 9.999042, 9.999483 
2.504951e+3, 2.454533e+2, -810132.5, -651912.94, 40358.82, -0.050307404, 0.25821662, -642212.9, -107630.336, 0.0, 9.998072, 10.000149 
2.504883e+3, 2.5545284e+2, -853791.4, -630752.9, 53824.777, -0.068906225, 0.22342111, -618443.0, -181856.97, 0.0, 9.997136, 10.0000725 
2.5048155e+3, 2.6545316e+2, -827752.8, -453162.66, 50533.535, -0.071123414, 0.22201702, -446465.25, -107882.516, 0.0, 9.99615, 10.001094 
2.5047478e+3, 2.7545422e+2, -883556.75, -437689.28, 46267.453, -0.046471525, 0.2463839, -432938.75, -192366.3, 0.0, 9.995131, 10.001019 
2.5046802e+3, 2.8545552e+2, -874675.2, -280683.2, 41575.867, -0.047378566, 0.25488725, -277787.25, -135227.72, 0.0, 9.994079, 10.001931 
2.504612e+3, 2.9545718e+2, -943967.5, -275207.25, 39592.37, -0.10578411, 0.2526784, -272871.4, -228328.72, 0.0, 9.992982, 10.001825 
2.504545e+3, 3.054588e+2, -1011615.3, -236552.44, 37788.563, -0.029996544, 0.23603494, -234714.4, -234714.4, 0.0, 9.9919815, 10.002238 
2.5044766e+3, 3.154605e+2, -990369.9, 16895.662, 67186.5, -0.076503485, 0.20696723, 21357.363, 21357.363, 0.0, 9.991085, 10.004409 
2.5157776e+3, 1.2555167e+2, -783396.1, -1744520.9, 10319.123, 0.057167552, 0.2619883, -783285.4, 926333.56, 0.08051876, 10.0091915, 9.99537 
2.5157076e+3, 1.3554706e+2, -745902.9, -1694849.1, -6636.1797, -0.038779978, 0.29024935, -745856.5, 865810.06, 0.056078956, 10.008592, 9.995328 
2.515638e+3, 1.4554287e+2, -662609.2, -1449861.0, -15520.192, -0.06792846, 0.2889384, -662303.3, 851404.0, 0.032145966, 10.00761, 9.996821 
2.515569e+3, 1.5553917e+2, -741770.5, -1456639.6, -6449.499, -0.019292895, 0.26196173, -741712.3, 674028.8, 0.013799443, 10.006317, 9.996711 
2.5155e+3, 1.6553573e+2, -757570.1, -1383761.4, 16088.592, -0.02009745, 0.26015568, -757157.06, 560617.8, 0.0037874067, 10.005344, 9.997005 
2.5154307e+3, 1.7553267e+2, -763296.9, -1343617.6, 11769.675, -0.0663901, 0.27777722, -763058.25, 456748.66, 0.000480621, 10.004648, 9.996944 
2.5153616e+3, 1.8552992e+2, -724847.8, -1160136.3, 9368.852, -0.07952123, 0.2817621, -724646.25, 397188.72, 0.000012596134, 10.003745, 9.997966 
2.5152928e+3, 1.9552755e+2, -787031.8, -1145163.0, -1668.4583, -0.06435588, 0.2742999, -787024.0, 236834.34, 0.0, 10.002669, 9.997914 
2.515224e+3, 2.0552589e+2, -732658.56, -925077.8, -183.30818, -0.05864284, 0.27661416, -732658.4, 193215.55, 0.0, 10.001754, 9.999193 
2.515155e+3, 2.1552491e+2, -756539.25, -898948.0, 12137.0205, -0.0612561, 0.28563035, -755512.25, 72369.66, 0.0, 10.000973, 9.999077 
2.5150862e+3, 2.2552378e+2, -777346.56, -836986.06, 14281.37, -0.064519964, 0.28348684, -774103.1, -44210.406, 0.0, 10.000066, 9.999267 
2.5150177e+3, 2.3552267e+2, -831627.6, -818462.4, 3266.4497, -0.066625565, 0.27015698, -817696.44, -185792.11, 0.0, 9.999046, 9.999211 
2.5149488e+3, 2.4552202e+2, -786429.9, -604569.1, 5089.929, -0.06593961, 0.2450505, -604426.8, -70517.06, 0.0, 9.998075, 10.000475 
2.51488e+3, 2.5552192e+2, -831720.56, -586635.6, 18196.48, -0.06768582, 0.2130004, -585291.94, -149383.66, 0.0, 9.997138, 10.000377 
2.5148115e+3, 2.6552245e+2, -840583.5, -480990.4, 12075.704, -0.058398645, 0.2296409, -480585.34, -142682.64, 0.0, 9.99615, 10.000905 
2.514743e+3, 2.7552357e+2, -895860.4, -464292.97, 8285.201, -0.02805212, 0.275509, -464133.97, -224240.81, 0.0, 9.995131, 10.000838 
2.514674e+3, 2.8552434e+2, -881275.44, -295740.72, 542.93506, -0.031191504, 0.24717827, -295740.22, -153854.81, 0.0, 9.994079, 10.00183 
2.5146046e+3, 2.9552534e+2, -948893.7, -286527.44, -1425.5139, -0.09431009, 0.18417169, -286524.38, -242649.23, 0.0, 9.992981, 10.001751 
2.514537e+3, 3.055282e+2, -963120.75, -136138.52, 4302.683, -0.0055302437, 0.26453695, -136116.13, -136116.13, 0.0, 9.991978, 10.002932 
2.5144672e+3, 3.155292e+2, -1021773.0, -50162.14, 25029.947, -0.096121706, 0.095165476, -49517.76, -49517.76, 0.0, 9.991088, 10.003949 
2.5257865e+3, 1.256216e+2, -729767.8, -1703539.1, 33815.785, 0.025782872, 0.26929706, -728594.9, 980339.0, 0.0758627, 10.009489, 9.995508 
2.525716e+3, 1.3561696e+2, -789411.75, -1702863.9, 46468.45, -0.016664565, 0.28127348, -787053.94, 823927.4, 0.052609075, 10.008188, 9.995465 
2.5256455e+3, 1.4561287e+2, -720419.0, -1475883.3, 38365.87, -0.042305242, 0.2832009, -718475.6, 794545.7, 0.029945826, 10.007181, 9.99684 
2.5255752e+3, 1.5560934e+2, -726765.8, -1446512.9, 26533.855, -0.028215466, 0.27376473, -725789.0, 689265.25, 0.0126986755, 10.006409, 9.996734 
2.5255048e+3, 1.6560595e+2, -734840.9, -1365920.8, 48501.977, -0.030357072, 0.27270028, -731135.0, 585952.56, 0.0034042683, 10.005475, 9.997063 
2.525435e+3, 1.756028e+2, -792240.2, -1350279.0, 51225.617, -0.052104127, 0.278579, -787576.9, 431542.94, 0.00041149824, 10.004423, 9.9970045 
2.525365e+3, 1.8560007e+2, -761058.5, -1174435.3, 59820.066, -0.06280319, 0.28109327, -752575.94, 368571.7, 0.000009210979, 10.003489, 9.997989 
2.525295e+3, 1.9559777e+2, -788195.9, -1142536.8, 67579.34, -0.06269967, 0.28011742, -775744.75, 247426.0, 0.0, 10.002654, 9.997937 
2.5252256e+3, 2.055961e+2, -736337.06, -928978.25, 65057.457, -0.059094824, 0.2841061, -716424.56, 208762.02, 0.0, 10.001743, 9.999168 
2.5251558e+3, 2.1559507e+2, -787107.4, -914570.5, 49903.742, -0.053528566, 0.29099795, -769893.94, 57301.29, 0.0, 10.000772, 9.999063 
2.5250858e+3, 2.2559391e+2, -792453.2, -836687.0, 54368.76, -0.05997808, 0.28331962, -755874.94, -26668.8, 0.0, 9.999935, 9.999329 
2.5250164e+3, 2.3559275e+2, -804993.6, -797890.8, 69728.05, -0.07414033, 0.2627238, -731623.8, -100406.055, 0.0, 9.999202, 9.999275 
2.5249466e+3, 2.4559218e+2, -755034.94, -584149.75, 66393.66, -0.073000096, 0.24224539, -561386.25, -28163.996, 0.0, 9.998273, 10.000517 
2.524877e+3, 2.5559223e+2, -821014.56, -576028.2, 57410.125, -0.06392824, 0.22274083, -563242.0, -128022.484, 0.0, 9.997194, 10.00042 
2.5248075e+3, 2.655928e+2, -840468.2, -486146.9, 47059.88, -0.050158337, 0.24357964, -480003.06, -142789.33, 0.0, 9.996179, 10.000854 
2.5247377e+3, 2.7559385e+2, -889305.1, -465148.13, 52625.945, -0.021249175, 0.29008892, -458716.25, -219511.55, 0.0, 9.995198, 10.000797 
2.5246683e+3, 2.8559446e+2, -861564.0, -276551.25, 53649.945, -0.02454507, 0.2402129, -271671.88, -130473.07, 0.0, 9.994179, 10.001911 
2.5245976e+3, 2.9559496e+2, -922007.94, -264423.28, 65122.727, -0.0827943, 0.12976429, -258036.0, -214843.78, 0.0, 9.993134, 10.001825 
2.5245288e+3, 3.0559883e+2, -942942.0, -132588.9, 48416.758, 0.0009946105, 0.30576065, -129706.37, -129706.37, 0.0, 9.99215, 10.00287 
2.5244582e+3, 3.156007e+2, -998212.2, -13234.616, -7255.1343, -0.08613671, 0.23397312, -13181.18, -13181.18, 0.0, 9.991141, 10.004177 
2.535795e+3, 1.2569232e+2, -693073.25, -1636181.3, -8459.035, -0.04430901, 0.27326587, -692997.4, 1015244.2, 0.07112703, 10.009479, 9.996012 
2.5357243e+3, 1.3568774e+2, -757750.75, -1638179.4, 2682.3706, 0.031637568, 0.24179365, -757742.6, 852543.1, 0.04910242, 10.008175, 9.995916 
2.5356528e+3, 1.4568383e+2, -738284.2, -1515485.9, 11124.73, 0.010459004, 0.25317892, -738125.0, 774199.5, 0.027738547, 10.007171, 9.996568 
2.535581e+3, 1.5568054e+2, -744350.9, -1482743.6, -1137.4268, -0.060781613, 0.29488078, -744349.1, 670008.5, 0.011606329, 10.006393, 9.996494 
2.5355098e+3, 1.6567715e+2, -726380.8, -1347318.9, 11259.924, -0.067396, 0.29800022, -726176.7, 590214.75, 0.0030327742, 10.005464, 9.997198 
2.5354394e+3, 1.7567381e+2, -781845.3, -1329425.0, 14363.1455, -0.029748045, 0.27171788, -781468.8, 436955.44, 0.0003478735, 10.004421, 9.99715 
2.5353688e+3, 1.8567127e+2, -743263.1, -1139009.9, 30027.166, -0.031701915, 0.2737737, -740997.75, 379451.78, 0.0000064896744, 10.00349, 9.998233 
2.5352976e+3, 1.9566944e+2, -773000.8, -1112110.4, 36695.184, -0.062892705, 0.2964057, -769075.5, 253392.25, 0.0, 10.002654, 9.998148 
2.535227e+3, 2.0566764e+2, -763136.0, -986367.7, 29200.234, -0.06750818, 0.29823148, -759379.6, 165105.8, 0.0, 10.001746, 9.9987755 
2.5351563e+3, 2.1566601e+2, -809726.44, -964227.75, 15139.497, -0.052578628, 0.2829236, -808256.94, 18244.438, 0.0, 10.00078, 9.998721 
2.5350857e+3, 2.2566481e+2, -763581.75, -779168.1, 27601.395, -0.057049982, 0.26766992, -742694.44, -14182.281, 0.0, 9.999941, 9.9997225 
2.535015e+3, 2.3566413e+2, -779086.94, -745811.44, 41193.742, -0.074404985, 0.25261298, -718022.4, -87504.75, 0.0, 9.999205, 9.999634 
2.5349447e+3, 2.4566376e+2, -773127.44, -623201.94, 25484.793, -0.07158841, 0.2504071, -618988.4, -86468.01, 0.0, 9.998275, 10.000251 
2.534874e+3, 2.5566378e+2, -837373.94, -611583.8, 16904.69, -0.057833508, 0.25352344, -610325.2, -175805.25, 0.0, 9.997196, 10.000177 
2.5348035e+3, 2.6566416e+2, -834683.25, -475725.72, 10097.709, -0.04701994, 0.26403522, -475441.88, -138925.88, 0.0, 9.996181, 10.000927 
2.5347325e+3, 2.7566507e+2, -882314.06, -452842.6, 15594.984, -0.027982295, 0.28835395, -452277.06, -213769.86, 0.0, 9.995202, 10.000882 
2.534662e+3, 2.8566578e+2, -843846.1, -241057.58, 14151.83, -0.02916454, 0.23319459, -240725.52, -100226.055, 0.0, 9.99418, 10.002157 
2.5345907e+3, 2.9566622e+2, -908921.25, -237116.11, 27124.803, -0.07247597, 0.09009504, -236022.7, -193529.22, 0.0, 9.993128, 10.002018 
2.5345206e+3, 3.056707e+2, -1007611.94, -268529.97, 13316.543, -0.011992629, 0.37173247, -268290.1, -268290.1, 0.0, 9.992152, 10.001938 
2.534449e+3, 3.1567252e+2, -917416.6, 147350.56, -67746.055, -0.08239766, 0.37834862, 151643.61, 151643.61, 0.0, 9.99116, 10.005277 
2.545804e+3, 1.257643e+2, -696903.94, -1628787.1, 29057.744, -0.040102467, 0.2671611, -695998.75, 1011537.9, 0.066360824, 10.009363, 9.996118 
2.5457323e+3, 1.3575992e+2, -777497.6, -1637944.0, 19637.904, 0.026713762, 0.24657398, -777049.7, 832528.44, 0.045598228, 10.007962, 9.996019 
2.5456595e+3, 1.45756e+2, -780827.75, -1541962.6, 44621.355, 0.012072542, 0.2587865, -778220.75, 733396.1, 0.025551697, 10.006883, 9.996522 
2.545587e+3, 1.5575263e+2, -794342.0, -1509526.6, 45612.77, -0.042940397, 0.29492435, -791444.7, 622207.3, 0.010537675, 10.006056, 9.99647 
2.545515e+3, 1.6574928e+2, -749406.2, -1331804.0, 62445.02, -0.05079819, 0.29356766, -742786.06, 572898.94, 0.0026788088, 10.005193, 9.997433 
2.5454435e+3, 1.7574613e+2, -782439.06, -1304626.5, 71865.5, -0.026252333, 0.2630191, -772729.25, 444985.88, 0.0002909838, 10.004313, 9.997371 
2.545372e+3, 1.857437e+2, -752222.25, -1144264.8, 83778.336, -0.028948866, 0.26910436, -735069.5, 384669.63, 0.0000044800267, 10.003439, 9.9982195 
2.5453e+3, 1.9574195e+2, -785882.5, -1118161.9, 72358.19, -0.05203271, 0.30185, -770809.3, 250947.97, 0.0, 10.00257, 9.998144 
2.5452286e+3, 2.0574018e+2, -762833.56, -984870.4, 71956.08, -0.061231136, 0.3069931, -741553.94, 182221.14, 0.0, 10.001748, 9.998782 
2.545157e+3, 2.157385e+2, -782712.75, -949601.56, 85349.875, -0.059990924, 0.29041195, -746793.94, 78997.41, 0.0, 10.000964, 9.99873 
2.5450855e+3, 2.257373e+2, -747685.5, -767072.94, 94140.03, -0.063363425, 0.27294263, -662741.44, 65060.766, 0.0, 10.000037, 9.999757 
2.545014e+3, 2.3573661e+2, -806989.44, -755162.0, 80987.64, -0.06876949, 0.25481388, -696043.25, -66235.93, 0.0, 9.999001, 9.999665 
2.5449425e+3, 2.4573624e+2, -804585.4, -651412.8, 58072.0, -0.06284283, 0.25945532, -631885.56, -100075.125, 0.0, 9.998121, 10.000128 
2.544871e+3, 2.5573626e+2, -823097.3, -615992.1, 59248.55, -0.05202457, 0.27768153, -600240.4, -166429.5, 0.0, 9.997349, 10.000071 
2.5447994e+3, 2.6573652e+2, -793247.5, -448105.5, 53413.43, -0.047088265, 0.27793062, -440028.38, -104220.36, 0.0, 9.996437, 10.00099 
2.544728e+3, 2.7573717e+2, -846775.4, -428851.3, 57194.516, -0.03647656, 0.2711902, -421165.38, -183364.81, 0.0, 9.995421, 10.000938 
2.544656e+3, 2.8573796e+2, -814054.44, -239655.45, 38775.805, -0.030540733, 0.23099707, -237049.66, -97257.93, 0.0, 9.994444, 10.002037 
2.544584e+3, 2.9573888e+2, -863041.9, -226554.73, 23180.273, -0.05495618, 0.14224894, -225711.64, -183929.27, 0.0, 9.993494, 10.001913 
2.5445125e+3, 3.057425e+2, -971336.2, -255920.86, 31316.066, -0.02591408, 0.3449673, -254552.67, -254552.67, 0.0, 9.992426, 10.00189 
2.5444403e+3, 3.1574184e+2, -915643.06, 137160.8, 15184.403, -0.06895126, 0.116960496, 137379.75, 137379.75, 0.0, 9.991233, 10.005165 
2.5558138e+3, 1.2583739e+2, -714503.06, -1660088.3, -19241.201, 0.015744902, 0.25537875, -714111.75, 992708.94, 0.06159487, 10.00929, 9.995922 
2.5557393e+3, 1.3583331e+2, -784523.5, -1662048.4, -26098.1, -0.020934569, 0.28502163, -783748.0, 825111.9, 0.042119738, 10.007968, 9.995853 
2.555666e+3, 1.4582933e+2, -768042.1, -1524995.8, 17165.498, -0.024776552, 0.29058334, -767653.06, 743246.4, 0.023402171, 10.0069065, 9.99663 
2.5555936e+3, 1.5582554e+2, -784928.4, -1491443.1, 16934.637, 0.016183967, 0.27768856, -784522.7, 628415.2, 0.009502435, 10.006051, 9.996599 
2.5555205e+3, 1.6582233e+2, -729597.6, -1289861.9, 31128.943, 0.007950595, 0.26588827, -727873.4, 587095.56, 0.002345541, 10.005183, 9.997727 
2.5554475e+3, 1.7581964e+2, -764387.4, -1267818.8, 39734.125, -0.04015972, 0.2538234, -761270.6, 455722.7, 0.00024091937, 10.004312, 9.997626 
2.5553748e+3, 1.8581727e+2, -769485.2, -1181513.1, 51951.254, -0.05004735, 0.2665399, -763035.75, 355981.63, 0.000003092642, 10.00344, 9.997966 
2.5553027e+3, 1.9581527e+2, -799772.8, -1148004.0, 41236.7, -0.031175278, 0.2968047, -794956.25, 226083.58, 0.0, 10.00257, 9.997942 
2.5552303e+3, 2.0581368e+2, -737837.4, -934447.25, 43522.45, -0.042313267, 0.31135258, -728633.9, 194421.95, 0.0, 10.00175, 9.99913 
2.5551575e+3, 2.1581253e+2, -760986.94, -906129.4, 55651.504, -0.075672306, 0.31368986, -742105.06, 82960.79, 0.0, 10.000966, 9.99903 
2.5550848e+3, 2.258113e+2, -770343.56, -815904.4, 55226.94, -0.07834834, 0.29860523, -733383.2, -6306.3447, 0.0, 10.00004, 9.999422 
2.555013e+3, 2.3581015e+2, -827483.9, -799788.0, 42589.207, -0.057640143, 0.26864934, -768851.94, -139764.72, 0.0, 9.999005, 9.999359 
2.5549406e+3, 2.4580961e+2, -803559.06, -651132.8, 28891.666, -0.04700506, 0.26908153, -645840.3, -114747.75, 0.0, 9.998124, 10.000132 
2.5548682e+3, 2.558097e+2, -821446.94, -614638.7, 29368.758, -0.04719387, 0.2941706, -610548.9, -177456.39, 0.0, 9.997353, 10.000081 
2.5547957e+3, 2.658099e+2, -789992.2, -443429.1, 15117.244, -0.050820656, 0.284478, -442770.9, -107681.14, 0.0, 9.996442, 10.001022 
2.554723e+3, 2.7581018e+2, -845586.0, -428391.7, 19281.85, -0.04651004, 0.2383701, -427502.4, -190417.72, 0.0, 9.995425, 10.000943 
2.55465e+3, 2.858111e+2, -849941.75, -316940.2, 3410.574, -0.028172672, 0.23713695, -316918.34, -177843.08, 0.0, 9.994451, 10.001506 
2.5545773e+3, 2.9581293e+2, -891364.0, -289885.75, -12505.128, -0.030672273, 0.2993809, -289625.88, -248567.75, 0.0, 9.993508, 10.001473 
2.5545043e+3, 3.0581376e+2, -909532.3, -130629.26, -15708.385, -0.04071632, 0.19418089, -130312.586, -130312.586, 0.0, 9.992434, 10.002749 
2.5544313e+3, 3.1581527e+2, -1011060.94, -59578.508, 2066.901, -0.05975147, 0.102460235, -59574.02, -59574.02, 0.0, 9.991224, 10.003819 
2.5658226e+3, 1.2591153e+2, -809874.0, -1691800.5, 8181.3135, 0.031218652, 0.26575243, -809798.1, 896296.75, 0.05685554, 10.008484, 9.996077 
2.5657472e+3, 1.3590762e+2, -758410.2, -1633395.9, 20789.773, -0.018702103, 0.29753748, -757916.5, 850215.9, 0.038684033, 10.008064, 9.996001 
2.5656727e+3, 1.4590369e+2, -730201.7, -1500677.5, 63204.44, -0.023525167, 0.29909605, -725051.25, 785120.06, 0.021300348, 10.007137, 9.996684 
2.5655994e+3, 1.5589984e+2, -807203.4, -1494670.5, 60774.918, 0.025528708, 0.2763458, -801871.94, 610338.2, 0.00850584, 10.005863, 9.996666 
2.5655255e+3, 1.6589671e+2, -762182.3, -1293566.4, 76419.9, 0.019958297, 0.2653934, -751410.5, 562829.8, 0.0020340858, 10.00491, 9.997831 
2.5654516e+3, 1.7589422e+2, -774449.9, -1260552.1, 71953.58, -0.030345554, 0.26253662, -764022.9, 452239.97, 0.00019708787, 10.004195, 9.99773 
2.565378e+3, 1.8589187e+2, -779873.3, -1180569.5, 86301.21, -0.043963615, 0.2723785, -762076.4, 356210.06, 0.0000021707326, 10.003347, 9.9980135 
2.565305e+3, 1.9588977e+2, -819868.2, -1152414.0, 95909.13, -0.029050821, 0.2910197, -794189.94, 226119.56, 0.0, 10.002414, 9.997985 
2.5652316e+3, 2.0588815e+2, -757937.94, -949030.06, 96517.51, -0.041986365, 0.3052679, -717672.8, 204653.06, 0.0, 10.001638, 9.999082 
2.5651583e+3, 2.1588704e+2, -762602.1, -910651.75, 79204.95, -0.07615495, 0.31563103, -728215.25, 96120.71, 0.0, 10.0009775, 9.998991 
2.565085e+3, 2.2588585e+2, -750867.44, -808287.9, 71559.516, -0.080408365, 0.30707029, -702473.56, 23873.295, 0.0, 10.000187, 9.999401 
2.565012e+3, 2.3588471e+2, -785870.0, -781780.25, 81578.41, -0.06093004, 0.28259534, -702221.1, -73863.87, 0.0, 9.999306, 9.999335 
2.5649387e+3, 2.4588408e+2, -778762.56, -645883.06, 75664.94, -0.046240397, 0.27981326, -611628.1, -81264.516, 0.0, 9.998329, 10.000066 
2.5648654e+3, 2.55884e+2, -834806.44, -625869.0, 70182.12, -0.039922964, 0.29608834, -604483.6, -172118.4, 0.0, 9.997288, 10.000032 
2.5647917e+3, 2.6588413e+2, -787865.2, -436893.3, 54829.324, -0.04683582, 0.28179818, -428527.22, -94164.44, 0.0, 9.996438, 10.001066 
2.564718e+3, 2.758844e+2, -801283.1, -402893.8, 58045.313, -0.050863646, 0.23198035, -394608.9, -158251.64, 0.0, 9.995718, 10.000975 
2.5646445e+3, 2.8588536e+2, -823010.75, -319762.53, 50749.36, -0.02846564, 0.24324732, -314695.78, -176348.25, 0.0, 9.99471, 10.001358 
2.564571e+3, 2.9588735e+2, -905212.94, -310454.3, 64053.28, -0.020212924, 0.33771515, -303634.22, -263304.72, 0.0, 9.993484, 10.001339 
2.5644967e+3, 3.0588743e+2, -883847.9, -99594.77, 44040.957, -0.0397673, 0.15724465, -97129.336, -97129.336, 0.0, 9.992536, 10.002911 
2.5644225e+3, 3.1589296e+2, -938994.25, -52117.203, 22517.574, -0.072557166, 0.45188102, -51545.855, -51545.855, 0.0, 9.991834, 10.003577 
2.5758305e+3, 1.2598662e+2, -776020.6, -1635572.9, -1885.4459, 0.01802048, 0.2902465, -776016.5, 929344.0, 0.052177805, 10.008503, 9.996474 
2.5757554e+3, 1.359828e+2, -736862.2, -1585419.0, 4813.616, 0.020893855, 0.29146197, -736834.9, 870561.3, 0.03530981, 10.008021, 9.996358 
2.57568e+3, 1.45979e+2, -733534.5, -1503954.1, 17448.55, 0.004627675, 0.2915253, -733139.56, 776293.9, 0.019254504, 10.007101, 9.996681 
2.5756046e+3, 1.5597536e+2, -804261.7, -1494009.4, 17092.871, -0.006007755, 0.28823408, -803838.4, 607632.0, 0.0075511923, 10.005877, 9.996666 
2.5755298e+3, 1.6597228e+2, -762846.3, -1302020.3, 51568.453, -0.0047194865, 0.28646177, -757958.44, 555541.94, 0.0017449933, 10.004934, 9.997764 
2.575456e+3, 1.7596973e+2, -775399.3, -1265181.1, 45969.715, 0.00007310429, 0.2858518, -771122.06, 444402.1, 0.00015888238, 10.004201, 9.997698 
2.5753814e+3, 1.8596743e+2, -758688.2, -1138746.6, 52179.984, -0.015825635, 0.28553125, -751654.3, 365892.28, 0.0000015520778, 10.003352, 9.9983015 
2.575307e+3, 1.9596542e+2, -802126.75, -1119081.1, 62095.996, -0.044383198, 0.2851445, -790395.44, 229171.61, 0.0, 10.002424, 9.998211 
2.5752327e+3, 2.059636e+2, -786452.44, -1011482.56, 71974.55, -0.058013745, 0.2899296, -765401.1, 156184.64, 0.0, 10.001648, 9.998651 
2.575159e+3, 2.1596202e+2, -787374.44, -963832.5, 54309.25, -0.062596224, 0.2971101, -771999.2, 51602.742, 0.0, 10.00098, 9.998627 
2.575085e+3, 2.2596091e+2, -732000.2, -770504.4, 39020.66, -0.07083704, 0.2991954, -707740.75, 17871.572, 0.0, 10.000188, 9.999662 
2.5750107e+3, 2.3596025e+2, -769402.94, -749057.6, 47828.938, -0.078777134, 0.29682618, -710331.5, -82714.06, 0.0, 9.999307, 9.999561 
2.5749364e+3, 2.4595961e+2, -789365.25, -669335.06, 36112.547, -0.060544014, 0.29163116, -659307.8, -129684.18, 0.0, 9.998331, 9.999906 
2.5748625e+3, 2.5595912e+2, -843483.7, -645098.4, 31806.12, -0.030235343, 0.2833177, -640123.8, -208494.64, 0.0, 9.997288, 9.999903 
2.574788e+3, 2.6595923e+2, -785111.94, -432595.56, 27930.293, -0.03474852, 0.26981553, -430396.34, -96769.305, 0.0, 9.99644, 10.001098 
2.5747135e+3, 2.7595988e+2, -797007.9, -396761.88, 29720.826, -0.05032544, 0.253049, -394566.94, -158948.75, 0.0, 9.995725, 10.001016 
2.574639e+3, 2.859608e+2, -805083.56, -284910.06, 4544.324, -0.03232335, 0.24621984, -284870.38, -147261.86, 0.0, 9.994716, 10.001597 
2.574564e+3, 2.9596207e+2, -893512.25, -286570.75, 19866.48, -0.023353359, 0.24222015, -285921.16, -246324.13, 0.0, 9.993481, 10.001508 
2.574489e+3, 3.059639e+2, -923725.56, -183435.3, 19405.281, -0.022906234, 0.26584008, -182926.97, -182926.97, 0.0, 9.992537, 10.0023365 
2.5744137e+3, 3.15967e+2, -902305.9, 18888.078, -24716.53, -0.09883828, 0.36448634, 19550.77, 19550.77, 0.0, 9.991849, 10.004061 
2.5858387e+3, 1.2606291e+2, -746274.0, -1631514.3, 58322.14, 0.011011933, 0.28450865, -742448.06, 962164.3, 0.04759909, 10.008727, 9.996392 
2.585763e+3, 1.3605908e+2, -828607.75, -1636845.3, 38214.395, 0.035036944, 0.29453644, -826804.94, 779844.44, 0.0320167, 10.007374, 9.99631 
2.5856864e+3, 1.4605534e+2, -802367.44, -1517667.6, 50797.527, 0.018953294, 0.29523572, -798778.0, 709907.9, 0.017273558, 10.006524, 9.996861 
2.5856102e+3, 1.5605184e+2, -769374.75, -1458845.9, 61422.043, -0.007191263, 0.2891789, -763945.7, 646774.94, 0.006642469, 10.00604, 9.996827 
2.5855348e+3, 1.6604882e+2, -725295.6, -1290282.4, 98357.73, -0.007801205, 0.29091898, -708662.4, 604087.8, 0.0014791968, 10.005224, 9.997704 
2.5854596e+3, 1.7604628e+2, -781256.6, -1273356.6, 92847.63, 0.005823199, 0.29726505, -764321.3, 450453.53, 0.00012588607, 10.004189, 9.997646 
2.5853845e+3, 1.8604393e+2, -757211.06, -1136180.8, 90993.74, -0.010894175, 0.29630852, -736495.1, 380302.66, 0.0000011128841, 10.003359, 9.998313 
2.585309e+3, 1.9604187e+2, -764418.0, -1097845.4, 81822.09, -0.047666047, 0.28949508, -745421.4, 273396.9, 0.0, 10.002676, 9.998233 
2.585234e+3, 2.0604e+2, -760291.94, -994565.9, 102044.91, -0.060237087, 0.28829315, -722076.94, 198760.11, 0.0, 10.001815, 9.998684 
2.5851595e+3, 2.1603838e+2, -807058.94, -970254.9, 116316.54, -0.05678764, 0.29035422, -746573.25, 76280.04, 0.0, 10.000837, 9.998649 
2.5850847e+3, 2.2603723e+2, -771054.8, -798898.6, 98230.88, -0.06365187, 0.2947632, -685764.2, 39100.277, 0.0, 9.999968, 9.999571 
2.5850096e+3, 2.3603654e+2, -794452.1, -767937.0, 80484.03, -0.07573763, 0.30069378, -699625.94, -72755.23, 0.0, 9.99917, 9.999495 
2.5849345e+3, 2.4603595e+2, -775234.8, -650977.2, 66790.19, -0.06192182, 0.29765502, -621886.94, -93010.56, 0.0, 9.9983835, 10.000004 
2.5848597e+3, 2.5603554e+2, -792503.5, -610096.9, 80895.914, -0.03471271, 0.285586, -579389.56, -148509.0, 0.0, 9.997599, 9.9999895 
2.5847843e+3, 2.6603562e+2, -759226.06, -425063.66, 80574.95, -0.03562126, 0.27063102, -406649.72, -73771.016, 0.0, 9.996644, 10.001048 
2.584709e+3, 2.760362e+2, -821810.8, -411823.03, 75034.234, -0.044439334, 0.25763416, -398522.1, -163651.23, 0.0, 9.995574, 10.000981 
2.5846332e+3, 2.860372e+2, -798118.7, -271534.1, 37121.65, -0.0305743, 0.2549916, -268930.06, -132069.53, 0.0, 9.994724, 10.001683 
2.5845572e+3, 2.9603848e+2, -812087.44, -240602.81, 39108.563, -0.030741144, 0.24552831, -237938.89, -199090.58, 0.0, 9.994011, 10.001567 
2.5844815e+3, 3.0604026e+2, -873174.3, -178704.27, 50788.99, -0.028623546, 0.26953337, -175009.55, -175009.55, 0.0, 9.992972, 10.002156 
2.5844052e+3, 3.160406e+2, -922418.5, 19396.04, 25964.982, -0.09100899, 0.11724245, 20111.328, 20111.328, 0.0, 9.991679, 10.004141 
2.5958472e+3, 1.2614024e+2, -778607.0, -1695830.6, 9328.491, 0.005455043, 0.25935745, -778512.1, 925340.5, 0.043151826, 10.008672, 9.995955 
2.5957698e+3, 1.3613632e+2, -846586.4, -1686288.6, -6529.3403, 0.030382512, 0.3036022, -846535.6, 759357.75, 0.028826945, 10.007395, 9.995963 
2.595693e+3, 1.4613262e+2, -775421.06, -1472601.3, 34606.26, 0.024100702, 0.3057998, -773707.5, 734222.2, 0.015370894, 10.006555, 9.997163 
2.5956163e+3, 1.5612923e+2, -750957.0, -1421019.4, 42176.53, 0.014894736, 0.28143668, -748312.7, 661649.0, 0.00578607, 10.006032, 9.997093 
2.5955397e+3, 1.6612628e+2, -732088.06, -1302553.3, 59775.684, 0.004674635, 0.28276047, -725891.8, 586098.56, 0.0012381012, 10.00521, 9.997628 
2.5954634e+3, 1.7612377e+2, -787099.9, -1286958.9, 55622.063, -0.009857112, 0.29986024, -780985.3, 433030.3, 0.00009782155, 10.0041895, 9.997554 
2.5953874e+3, 1.8612133e+2, -772786.94, -1171214.9, 66171.78, -0.025273236, 0.30558732, -762084.44, 353955.97, 0.00000077554597, 10.003366, 9.998072 
2.5953114e+3, 1.9611906e+2, -775337.5, -1121957.4, 56389.887, -0.04027184, 0.30278125, -766394.44, 251669.11, 0.0, 10.002677, 9.998069 
2.5952357e+3, 2.0611733e+2, -729173.7, -931080.8, 66204.97, -0.050538976, 0.2988909, -709401.44, 210678.47, 0.0, 10.001815, 9.999122 
2.59516e+3, 2.1611607e+2, -782187.94, -920088.06, 80426.95, -0.058082417, 0.2942251, -745201.2, 76889.484, 0.0, 10.000838, 9.998995 
2.5950846e+3, 2.261148e+2, -802330.6, -865580.3, 68354.62, -0.05829772, 0.29364404, -758639.56, -34535.727, 0.0, 9.99997, 9.999114 
2.595009e+3, 2.3611361e+2, -819233.8, -821283.44, 50253.668, -0.052704815, 0.29464814, -769994.5, -143877.28, 0.0, 9.999174, 9.999129 
2.594933e+3, 2.4611309e+2, -750467.75, -601463.6, 37293.656, -0.051037665, 0.29803142, -592650.8, -64528.945, 0.0, 9.998387, 10.000344 
2.5948566e+3, 2.561132e+2, -771202.94, -568257.2, 50607.875, -0.05468256, 0.30304196, -556337.4, -126217.96, 0.0, 9.997604, 10.000277 
2.5947806e+3, 2.6611325e+2, -769759.9, -448648.66, 40162.6, -0.050196618, 0.28491932, -443701.6, -111584.05, 0.0, 9.996647, 10.000887 
2.5947043e+3, 2.7611345e+2, -831935.94, -432772.38, 36035.984, -0.031810373, 0.24603176, -429545.16, -195430.1, 0.0, 9.995568, 10.000843 
2.594628e+3, 2.8611463e+2, -804224.0, -285026.47, 11510.391, -0.022959402, 0.2723904, -284771.4, -148668.19, 0.0, 9.994723, 10.001594 
2.5945508e+3, 2.9611677e+2, -814474.7, -250032.98, 11700.128, -0.046904944, 0.35813084, -249790.55, -211708.4, 0.0, 9.994026, 10.001497 
2.594474e+3, 3.0611625e+2, -857841.25, -151142.97, 2484.4373, -0.058609083, 0.14457205, -151134.23, -151134.23, 0.0, 9.992986, 10.002342 
2.5943968e+3, 3.1611896e+2, -912497.44, 38642.07, -4910.7744, -0.07339391, 0.20639685, 38667.42, 38667.42, 0.0, 9.991678, 10.004277 
2.6058555e+3, 1.2621847e+2, -839937.3, -1726261.5, 19368.291, 0.01297249, 0.26779288, -839514.25, 863572.06, 0.038863633, 10.008197, 9.995973 
2.605777e+3, 1.3621451e+2, -813928.25, -1667253.4, 29334.428, 0.029311797, 0.3070095, -812921.0, 792206.8, 0.025766052, 10.007595, 9.995995 
2.6056993e+3, 1.4621083e+2, -739220.1, -1445727.1, 77754.77, 0.023020223, 0.30743635, -730764.06, 776399.56, 0.013563475, 10.006761, 9.997248 
2.6056218e+3, 1.562075e+2, -781242.94, -1427416.8, 70760.71, 0.022565002, 0.28258103, -773584.94, 635609.56, 0.0049894173, 10.005788, 9.997165 
2.6055446e+3, 1.6620456e+2, -777639.2, -1329032.8, 79142.414, 0.012017148, 0.2831414, -766504.56, 544718.9, 0.0010230275, 10.004921, 9.997583 
2.605467e+3, 1.7620197e+2, -797890.1, -1294256.8, 77222.33, -0.010080297, 0.29897532, -786153.75, 427096.2, 0.00007449481, 10.00413, 9.99753 
2.6053903e+3, 1.8619959e+2, -772471.5, -1160761.1, 106593.23, -0.024578515, 0.30877012, -745134.2, 370139.88, 0.0000005058523, 10.00333, 9.998158 
2.605314e+3, 1.9619748e+2, -792770.06, -1121770.9, 117430.15, -0.032376986, 0.3141971, -755156.1, 262139.27, 0.0, 10.002526, 9.998141 
2.6052374e+3, 2.0619574e+2, -749531.1, -947423.3, 109117.664, -0.04165472, 0.31169015, -701178.2, 218133.78, 0.0, 10.001709, 9.999058 
2.6051608e+3, 2.1619439e+2, -778624.56, -922513.3, 87648.92, -0.052792683, 0.3037696, -737174.4, 84149.76, 0.0, 10.000887, 9.998952 
2.6050842e+3, 2.2619312e+2, -785234.44, -850388.06, 86934.12, -0.053954985, 0.30438554, -724973.8, -1636.5287, 0.0, 10.000064, 9.99917 
2.605008e+3, 2.36192e+2, -805673.9, -807177.8, 106117.02, -0.046629585, 0.30877763, -700306.1, -74956.21, 0.0, 9.99924, 9.999191 
2.604931e+3, 2.461915e+2, -739711.8, -587671.3, 95364.54, -0.047668893, 0.30738074, -541734.7, -14380.517, 0.0, 9.998429, 10.000416 
2.604854e+3, 2.5619155e+2, -764840.94, -557844.1, 86836.56, -0.058378596, 0.30431014, -526240.7, -96889.305, 0.0, 9.9976225, 10.000337 
2.604777e+3, 2.6619166e+2, -753874.1, -450328.44, 65936.3, -0.054265045, 0.2907849, -436624.4, -105274.66, 0.0, 9.996801, 10.000798 
2.6047e+3, 2.7619183e+2, -779520.8, -415295.6, 66944.71, -0.02941892, 0.2623079, -403380.9, -170032.67, 0.0, 9.995966, 10.000769 
2.6046225e+3, 2.8619298e+2, -748972.7, -258104.78, 53092.707, -0.024140578, 0.2903623, -252427.89, -117091.414, 0.0, 9.995107, 10.001591 
2.6045445e+3, 2.961951e+2, -786831.3, -236787.69, 57739.324, -0.062477645, 0.37661368, -230792.02, -193477.39, 0.0, 9.994224, 10.001489 
2.6044667e+3, 3.061941e+2, -834187.2, -150286.06, 23250.004, -0.047456555, 0.12223596, -149496.56, -149496.56, 0.0, 9.993197, 10.002244 
2.6043883e+3, 3.161989e+2, -849329.94, 74652.914, 13549.864, -0.063323446, 0.39903882, 74851.58, 74851.58, 0.0, 9.992089, 10.004325 
2.6158634e+3, 1.262975e+2, -813827.6, -1679097.0, -812.6182, 0.030396901, 0.29742864, -813826.9, 888486.7, 0.03475587, 10.008195, 9.9963045 
2.6157844e+3, 1.3629358e+2, -796414.25, -1628463.6, 6086.7314, 0.027380183, 0.3074522, -796369.75, 807983.56, 0.022855466, 10.007563, 9.996279 
2.6157054e+3, 1.4628994e+2, -748501.5, -1463302.0, 41969.715, 0.015014448, 0.30435884, -746045.7, 760342.7, 0.011865405, 10.006737, 9.997139 
2.615627e+3, 1.5628664e+2, -787271.06, -1442010.3, 36351.785, 0.019117167, 0.29166874, -785258.94, 623160.4, 0.004258034, 10.005788, 9.9970665 
2.6155493e+3, 1.6628358e+2, -778622.4, -1334082.1, 50935.15, 0.01577088, 0.28987223, -773990.3, 536459.25, 0.0008345702, 10.004928, 9.997547 
2.6154712e+3, 1.7628086e+2, -795721.4, -1291634.1, 49051.586, 0.0023669323, 0.29416957, -790916.2, 421561.75, 0.000055652294, 10.004134, 9.997549 
2.6153937e+3, 1.8627872e+2, -747440.75, -1110240.9, 77289.64, -0.011543527, 0.30661732, -731661.5, 382837.6, 0.0000003029616, 10.003332, 9.998507 
2.6153162e+3, 1.9627705e+2, -775316.25, -1086941.8, 87154.086, -0.024067787, 0.32412273, -752597.6, 263917.03, 0.0, 10.002527, 9.998382 
2.615239e+3, 2.0627518e+2, -786948.6, -1026831.6, 78442.69, -0.033598337, 0.3269308, -763575.0, 154958.8, 0.0, 10.001712, 9.998513 
2.6151615e+3, 2.162733e+2, -806304.0, -981838.75, 57504.473, -0.042395137, 0.31952256, -789143.44, 31410.303, 0.0, 10.00089, 9.998546 
2.615084e+3, 2.2627221e+2, -746817.6, -772512.56, 56623.47, -0.051211286, 0.32670182, -701602.44, 20962.283, 0.0, 10.000067, 9.999706 
2.6150066e+3, 2.3627172e+2, -773468.7, -742081.6, 75295.234, -0.057039514, 0.34187764, -680861.8, -56292.85, 0.0, 9.999243, 9.9996395 
2.614929e+3, 2.4627115e+2, -755019.3, -620973.3, 64918.367, -0.051361326, 0.32527235, -594687.8, -68114.266, 0.0, 9.998431, 10.000189 
2.6148513e+3, 2.5627065e+2, -777805.75, -586251.06, 56092.79, -0.0452622, 0.28907531, -571034.25, -142457.48, 0.0, 9.997624, 10.000143 
2.6147735e+3, 2.662708e+2, -755140.2, -454637.53, 34578.074, -0.047783595, 0.2881081, -450710.06, -120134.62, 0.0, 9.996804, 10.00077 
2.6146954e+3, 2.7627143e+2, -779436.4, -417965.66, 35777.125, -0.03993397, 0.30810922, -414458.6, -181888.56, 0.0, 9.995974, 10.00075 
2.614617e+3, 2.8627232e+2, -742848.25, -248811.52, 20164.094, -0.03533109, 0.30720678, -247989.88, -113429.69, 0.0, 9.995116, 10.001653 
2.6145384e+3, 2.9627347e+2, -783533.2, -232728.23, 23829.857, -0.0745481, 0.2909333, -231699.19, -195152.83, 0.0, 9.994231, 10.001516 
2.6144603e+3, 3.0627415e+2, -860639.4, -207333.98, -18334.379, 0.011553342, 0.22559792, -206819.86, -206819.86, 0.0, 9.993202, 10.001853 
2.6143798e+3, 3.162766e+2, -895102.2, -20265.086, -10157.292, -0.08599364, 0.3122196, -20147.172, -20147.172, 0.0, 9.992089, 10.003674 
2.6258713e+3, 1.263774e+2, -827206.1, -1678335.1, 37399.367, 0.03954272, 0.3165453, -825565.94, 875965.9, 0.0308413, 10.008038, 9.996383 
2.6257914e+3, 1.3637337e+2, -836914.6, -1638763.3, 29382.17, 0.029872531, 0.3085349, -835839.44, 767732.56, 0.020106172, 10.00722, 9.996371 
2.6257116e+3, 1.4636981e+2, -784463.0, -1468005.9, 64067.184, 0.011860942, 0.3040098, -778509.94, 727096.1, 0.010283581, 10.006428, 9.9972515 
2.6256326e+3, 1.5636669e+2, -799235.8, -1435980.0, 71466.77, 0.012821236, 0.3005908, -791313.1, 616322.2, 0.0035940015, 10.005657, 9.997168 
2.6255536e+3, 1.663637e+2, -786069.8, -1333587.8, 95420.12, 0.012005892, 0.29939747, -769916.8, 539748.2, 0.0006720264, 10.004866, 9.997578 
2.6254752e+3, 1.7636093e+2, -803123.06, -1290526.4, 97149.086, 0.004423624, 0.299127, -784473.0, 427220.56, 0.000040790543, 10.004069, 9.997584 
2.6253968e+3, 1.8635876e+2, -755526.75, -1111874.1, 112227.336, -0.0070952084, 0.30769753, -723127.8, 390587.03, 0.00000016598092, 10.003273, 9.998521 
2.6253185e+3, 1.9635707e+2, -781383.4, -1087298.9, 99035.88, -0.019377973, 0.32147613, -752121.0, 263609.53, 0.0, 10.0024805, 9.998399 
2.62524e+3, 2.0635523e+2, -787445.25, -1026546.1, 105351.8, -0.032173965, 0.32764304, -747649.2, 170100.45, 0.0, 10.001712, 9.998512 
2.625162e+3, 2.163534e+2, -796146.6, -975276.06, 121473.82, -0.045851447, 0.32821655, -734788.44, 84981.2, 0.0, 10.000959, 9.998554 
2.6250836e+3, 2.263524e+2, -727315.56, -757591.5, 111869.11, -0.055266865, 0.3406703, -629564.9, 92215.305, 0.0, 10.000183, 9.99975 
2.6250055e+3, 2.36352e+2, -748549.2, -723094.4, 94262.31, -0.059750322, 0.35982943, -640704.1, -16920.563, 0.0, 9.99939, 9.999696 
2.6249272e+3, 2.463514e+2, -733592.3, -604155.25, 82251.58, -0.051474515, 0.33802897, -564213.3, -38425.43, 0.0, 9.998556, 10.000241 
2.6248488e+3, 2.5635082e+2, -763844.44, -574064.0, 93896.945, -0.04125353, 0.29018483, -535459.7, -107667.98, 0.0, 9.997701, 10.000188 
2.62477e+3, 2.6635098e+2, -735976.0, -446360.47, 81803.88, -0.04586125, 0.2930984, -424851.78, -95061.664, 0.0, 9.996944, 10.000756 
2.624691e+3, 2.7635175e+2, -742103.9, -398929.5, 82716.375, -0.04369033, 0.32782477, -380032.7, -148248.94, 0.0, 9.996231, 10.000753 
2.6246122e+3, 2.8635252e+2, -694315.3, -218088.39, 63749.24, -0.043260083, 0.31157565, -209702.39, -75927.484, 0.0, 9.995422, 10.001713 
2.6245323e+3, 2.9635334e+2, -735467.94, -206015.08, 64947.055, -0.086528555, 0.25773296, -198164.53, -162400.72, 0.0, 9.994548, 10.001546 
2.6244536e+3, 3.0635473e+2, -815632.3, -208409.67, 24196.291, 0.038528364, 0.27834955, -207447.03, -207447.03, 0.0, 9.993613, 10.001645 
2.6243716e+3, 3.1635508e+2, -827894.7, -12025.182, 48718.504, -0.12251777, 0.17416649, -9126.324, -9126.324, 0.0, 9.992663, 10.0034485 
2.6358792e+3, 1.2645812e+2, -831555.4, -1694922.1, 9757.321, 0.041602273, 0.33105123, -831445.1, 869296.5, 0.027132532, 10.0080385, 9.996266 
2.6357985e+3, 1.3645384e+2, -839655.6, -1647973.3, 3137.115, 0.034541752, 0.3099377, -839643.44, 763140.6, 0.01752538, 10.007213, 9.996313 
2.6357177e+3, 1.4645042e+2, -765347.6, -1431185.5, 37853.914, 0.011551592, 0.30492246, -763202.44, 741614.5, 0.008821607, 10.006425, 9.99751 
2.6356378e+3, 1.5644762e+2, -782238.94, -1402117.8, 43104.49, 0.0037970552, 0.3090447, -779255.94, 627587.0, 0.0029974799, 10.005655, 9.997403 
2.6355582e+3, 1.6644481e+2, -781241.2, -1324764.4, 65714.625, 0.0019105123, 0.31166172, -773408.8, 535461.75, 0.0005337557, 10.004866, 9.997641 
2.6354787e+3, 1.7644212e+2, -800999.94, -1288013.0, 67617.68, -0.0026187047, 0.31302398, -791786.06, 419111.7, 0.0000292738, 10.004073, 9.997602 
2.6353997e+3, 1.864397e+2, -775349.5, -1154857.5, 83181.695, -0.010462339, 0.31162092, -757918.1, 355003.72, 0.00000008213487, 10.003276, 9.998226 
2.6353207e+3, 1.9643755e+2, -793883.8, -1114379.9, 70785.86, -0.018571867, 0.30775002, -778946.0, 235996.8, 0.0, 10.002481, 9.998215 
2.6352417e+3, 2.064359e+2, -753905.9, -957653.3, 78002.69, -0.036942106, 0.31508768, -727472.6, 189486.86, 0.0, 10.001711, 9.998988 
2.6351625e+3, 2.1643467e+2, -771177.3, -924257.56, 93156.875, -0.061749753, 0.32891053, -727149.6, 91822.805, 0.0, 10.000958, 9.998907 
2.6350838e+3, 2.2643359e+2, -758667.6, -823688.9, 82232.266, -0.06560747, 0.34608534, -702752.6, 18231.549, 0.0, 10.000183, 9.999298 
2.6350045e+3, 2.3643275e+2, -771523.6, -772134.5, 63855.98, -0.05576619, 0.36376876, -707972.4, -84978.555, 0.0, 9.999392, 9.999361 
2.6349255e+3, 2.4643223e+2, -710562.3, -557874.56, 49806.85, -0.048531234, 0.34610653, -543064.1, -18066.81, 0.0, 9.998558, 10.000561 
2.6348463e+3, 2.5643206e+2, -744166.4, -534853.6, 62638.78, -0.047151927, 0.3082804, -517540.47, -90544.414, 0.0, 9.997704, 10.000458 
2.6347667e+3, 2.664323e+2, -736432.6, -449195.5, 55534.28, -0.048759796, 0.3057621, -438832.4, -109838.92, 0.0, 9.996948, 10.000738 
2.634687e+3, 2.7643284e+2, -740349.06, -398111.4, 55689.164, -0.03972534, 0.31951568, -389277.66, -158288.5, 0.0, 9.996239, 10.000757 
2.6346073e+3, 2.8643364e+2, -689252.6, -210385.69, 31616.232, -0.047665074, 0.30258048, -208307.31, -75327.05, 0.0, 9.99543, 10.001765 
2.6345265e+3, 2.9643482e+2, -732448.6, -201973.52, 32333.922, -0.10044657, 0.28084517, -200009.94, -165043.89, 0.0, 9.994553, 10.001574 
2.634447e+3, 3.064359e+2, -816036.2, -213602.84, -9848.929, 0.025266634, 0.2726265, -213441.88, -213441.88, 0.0, 9.993627, 10.001605 
2.6343644e+3, 3.164368e+2, -772094.6, 91758.23, 4108.301, -0.08254329, 0.22235753, 91777.766, 91777.766, 0.0, 9.992703, 10.004148 
2.6458868e+3, 1.2653983e+2, -819971.9, -1671346.5, 43839.055, 0.04119511, 0.3410745, -817720.5, 882221.4, 0.023651436, 10.008015, 9.996441 
2.6458052e+3, 1.3653556e+2, -856617.56, -1640739.9, 56004.055, 0.040773425, 0.30585757, -852637.8, 749345.25, 0.015126143, 10.007015, 9.996456 
2.6457238e+3, 1.4653215e+2, -802974.8, -1460154.6, 89505.94, 0.017487148, 0.30487913, -791002.5, 713013.44, 0.007485013, 10.00621, 9.99741 
2.6456434e+3, 1.5652938e+2, -805248.06, -1420294.3, 71840.56, 0.0061897635, 0.32213163, -796968.2, 609074.56, 0.0024685517, 10.00553, 9.997336 
2.645563e+3, 1.665266e+2, -784652.7, -1316074.3, 85203.85, 0.001769474, 0.32550496, -771326.0, 536744.25, 0.0004179601, 10.004803, 9.997727 
2.6454824e+3, 1.7652391e+2, -798373.7, -1276530.8, 87702.17, -0.0043758736, 0.32078436, -782795.1, 427301.66, 0.000020552334, 10.004053, 9.997687 
2.6454026e+3, 1.8652149e+2, -780321.8, -1150713.4, 115734.34, -0.01317739, 0.3137689, -747132.8, 364987.72, 0.000000036221024, 10.003221, 9.998279 
2.6453227e+3, 1.9651932e+2, -810780.7, -1116351.0, 125931.63, -0.02180745, 0.30478472, -765570.7, 248570.78, 0.0, 10.002346, 9.998263 
2.6452428e+3, 2.065177e+2, -780893.9, -970338.6, 122371.78, -0.03699943, 0.31456336, -720867.44, 195290.53, 0.0, 10.001531, 9.998985 
2.645163e+3, 2.1651654e+2, -800296.06, -935572.2, 104084.02, -0.056860458, 0.33526692, -743803.56, 74367.06, 0.0, 10.000752, 9.998926 
2.6450834e+3, 2.2651547e+2, -772445.25, -821133.94, 106202.945, -0.061821323, 0.34898248, -687832.2, 32349.97, 0.0, 10.000054, 9.999374 
2.6450038e+3, 2.3651458e+2, -765792.75, -761433.44, 125234.76, -0.055825315, 0.35706252, -638359.4, -16167.357, 0.0, 9.999402, 9.999426 
2.644924e+3, 2.4651413e+2, -687532.1, -547568.56, 106767.56, -0.05327205, 0.3445029, -489891.56, 34303.645, 0.0, 9.998725, 10.000548 
2.6448435e+3, 2.565141e+2, -697913.94, -510904.66, 94083.59, -0.056683283, 0.32119077, -471763.75, -45570.574, 0.0, 9.99802, 10.000466 
2.6447633e+3, 2.665143e+2, -696967.9, -422183.2, 81062.016, -0.05546621, 0.31726524, -400052.16, -71862.01, 0.0, 9.9971895, 10.000804 
2.644683e+3, 2.7651477e+2, -728193.75, -384789.94, 86954.7, -0.04104323, 0.31797835, -364027.13, -133841.28, 0.0, 9.996294, 10.00082 
2.6446024e+3, 2.8651544e+2, -668738.4, -201185.34, 62490.188, -0.046685297, 0.28861663, -192977.39, -60799.25, 0.0, 9.995579, 10.001754 
2.6445207e+3, 2.965166e+2, -675423.0, -173868.02, 56043.586, -0.09241295, 0.26322672, -167682.02, -133516.95, 0.0, 9.994947, 10.001573 
2.64444e+3, 3.065183e+2, -748641.94, -175223.2, 8776.036, -0.00061117404, 0.31136855, -175088.92, -175088.92, 0.0, 9.99407, 10.001652 
2.6443574e+3, 3.1651944e+2, -707994.8, 143178.25, 47365.574, -0.051605243, 0.28657016, 145805.9, 145805.9, 0.0, 9.993058, 10.004329 
2.6558942e+3, 1.2662238e+2, -794093.75, -1618634.6, 8943.031, 0.03652432, 0.34642786, -793996.75, 905136.9, 0.020424083, 10.00799, 9.996823 
2.655812e+3, 1.3661836e+2, -833357.0, -1600583.9, 20523.924, 0.04837552, 0.29876387, -832808.4, 768362.1, 0.0129248025, 10.007033, 9.996724 
2.65573e+3, 1.4661491e+2, -826949.0, -1516779.4, 64193.246, 0.028542053, 0.3052224, -821026.25, 682178.1, 0.006280126, 10.006227, 9.997013 
2.6556483e+3, 1.5661192e+2, -828157.06, -1467498.4, 47870.707, 0.01607753, 0.33944592, -824592.56, 580642.6, 0.0020070635, 10.005522, 9.997019 
2.6555675e+3, 1.6660902e+2, -780141.8, -1304907.9, 59416.805, 0.008265547, 0.34060767, -773498.44, 533765.6, 0.0003229492, 10.00479, 9.997812 
2.6554865e+3, 1.7660631e+2, -790234.44, -1258817.5, 60883.324, -0.0020944863, 0.3231131, -782453.06, 426837.56, 0.000014183917, 10.0040455, 9.997815 
2.6554054e+3, 1.8660411e+2, -757299.3, -1103345.9, 83784.26, -0.01521179, 0.31429976, -738080.94, 373230.34, 0.000000014940222, 10.003218, 9.998608 
2.6553246e+3, 1.9660231e+2, -795101.44, -1085708.4, 93360.28, -0.028383818, 0.3103597, -767693.5, 245634.08, 0.0, 10.00235, 9.998474 
2.6552442e+3, 2.0660058e+2, -811918.3, -1036847.0, 93268.164, -0.032711957, 0.32471013, -778275.94, 137070.08, 0.0, 10.001535, 9.9985285 
2.6551637e+3, 2.1659899e+2, -819962.44, -977954.06, 76528.336, -0.03350845, 0.3480612, -788972.25, 28392.021, 0.0, 10.000754, 9.998636 
2.6550832e+3, 2.2659801e+2, -732172.56, -739282.56, 82372.48, -0.0449884, 0.34949115, -653278.4, 66095.76, 0.0, 10.000057, 9.999937 
2.655003e+3, 2.3659748e+2, -735072.4, -699816.0, 100460.26, -0.060004357, 0.33861986, -615449.0, 5929.3164, 0.0, 9.999407, 9.999849 
2.654922e+3, 2.4659707e+2, -712424.75, -601070.5, 80390.31, -0.06606738, 0.33280718, -558959.3, -35577.66, 0.0, 9.998729, 10.000181 
2.654841e+3, 2.5659686e+2, -716375.4, -551501.94, 66326.11, -0.07089817, 0.32930535, -528132.4, -102749.195, 0.0, 9.998026, 10.000188 
2.65476e+3, 2.6659706e+2, -686274.75, -401883.22, 46856.613, -0.06633931, 0.32732546, -394361.97, -66981.85, 0.0, 9.997193, 10.000944 
2.6546788e+3, 2.7659762e+2, -720671.0, -369677.63, 54900.473, -0.04786583, 0.32259107, -361290.78, -131917.06, 0.0, 9.996292, 10.000927 
2.6545978e+3, 2.8659803e+2, -675969.06, -217802.4, 39573.74, -0.040008232, 0.26883644, -214409.39, -83040.9, 0.0, 9.995581, 10.001641 
2.6545158e+3, 2.9659867e+2, -677528.6, -182627.42, 30500.893, -0.061677948, 0.20312487, -180754.73, -147393.66, 0.0, 9.994962, 10.001508 
2.6544333e+3, 3.066019e+2, -736367.7, -154446.36, -30823.055, -0.037818518, 0.39944714, -152818.28, -152818.28, 0.0, 9.994085, 10.00179 
2.6543498e+3, 3.1660202e+2, -763420.56, 20835.822, 77120.945, -0.0719341, 0.2667132, 28347.668, 28347.668, 0.0, 9.993085, 10.003478 
2.6659018e+3, 1.2670574e+2, -853688.5, -1656923.9, 48428.508, 0.04908831, 0.3382844, -850779.2, 847536.94, 0.017465038, 10.007595, 9.996742 
2.6658186e+3, 1.3670178e+2, -818371.5, -1599510.8, 31388.771, 0.038526256, 0.30523807, -817112.25, 783241.0, 0.010928686, 10.007154, 9.996672 
2.6657358e+3, 1.4669834e+2, -810370.44, -1502083.4, 76031.19, 0.02047655, 0.31108972, -802111.9, 700275.4, 0.0052080974, 10.006311, 9.99707 
2.6656535e+3, 1.5669529e+2, -860533.06, -1475203.5, 88039.03, 0.022689682, 0.33666852, -848171.9, 556246.6, 0.0016108311, 10.005268, 9.997085 
2.6655716e+3, 1.6669251e+2, -824861.7, -1315655.1, 114688.586, 0.0150051955, 0.3411959, -799383.9, 507062.44, 0.00024658602, 10.004442, 9.997903 
2.6654896e+3, 1.7668995e+2, -830450.0, -1270140.3, 115440.02, -0.0030685351, 0.33345008, -801984.25, 406486.78, 0.000009716243, 10.003741, 9.997881 
2.6654083e+3, 1.8668771e+2, -788717.44, -1129891.4, 117765.445, -0.019529838, 0.3251492, -752015.7, 358476.78, 0.000000005798, 10.0030575, 9.998499 
2.6653266e+3, 1.9668576e+2, -793770.25, -1091052.3, 98059.94, -0.033420764, 0.31740406, -764338.5, 248172.27, 0.0, 10.00239, 9.998415 
2.6652452e+3, 2.0668405e+2, -783434.94, -1005033.75, 114359.21, -0.03568418, 0.32873037, -735003.3, 179525.38, 0.0, 10.001658, 9.998684 
2.6651642e+3, 2.1668257e+2, -791063.6, -948685.25, 139209.92, -0.032298822, 0.34884167, -709903.94, 106641.29, 0.0, 10.000894, 9.998767 
2.665083e+3, 2.2668163e+2, -721623.3, -735845.9, 134983.83, -0.044934236, 0.35241428, -593563.56, 124991.07, 0.0, 10.000142, 9.999917 
2.665002e+3, 2.3668112e+2, -737216.2, -701244.9, 110994.79, -0.0644075, 0.3466728, -606788.0, 13770.844, 0.0, 9.999399, 9.99984 
2.6649204e+3, 2.4668069e+2, -721629.4, -609023.56, 91789.43, -0.07227184, 0.3408777, -557644.9, -35082.117, 0.0, 9.998686, 10.000144 
2.6648387e+3, 2.5668043e+2, -722946.9, -555934.6, 101133.88, -0.07742226, 0.33504, -508286.88, -83721.484, 0.0, 9.997991, 10.000172 
2.6647568e+3, 2.6668066e+2, -654723.2, -377001.7, 84813.81, -0.074355274, 0.33291048, -353148.9, -26587.186, 0.0, 9.997374, 10.001026 
2.664675e+3, 2.7668127e+2, -647309.56, -328077.6, 87225.48, -0.056460824, 0.32910562, -305799.25, -77245.46, 0.0, 9.996775, 10.0009775 
2.6645932e+3, 2.866816e+2, -634783.8, -214096.31, 66633.06, -0.04963021, 0.27273542, -203794.52, -73244.88, 0.0, 9.995938, 10.001492 
2.6645103e+3, 2.9668197e+2, -683059.8, -198140.98, 54540.734, -0.07521691, 0.20041229, -192082.28, -159537.34, 0.0, 9.994984, 10.0013895 
2.6644275e+3, 3.066854e+2, -680615.94, -133290.14, -14943.117, -0.026847458, 0.42148325, -132882.47, -132882.47, 0.0, 9.994496, 10.001735 
2.664343e+3, 3.1668475e+2, -646505.56, 12090.017, 88313.11, -0.07343807, 0.22169279, 23726.59, 23726.59, 0.0, 9.994174, 10.002889 
2.6759094e+3, 1.2678987e+2, -876707.25, -1717351.1, 32313.871, 0.07269313, 0.3218675, -875466.94, 822023.6, 0.014770311, 10.007625, 9.99631 
2.675825e+3, 1.367858e+2, -842436.4, -1644936.4, 13989.31, 0.0133370925, 0.32230082, -842192.6, 757338.44, 0.009131515, 10.007115, 9.99638 
2.6757413e+3, 1.467824e+2, -786906.94, -1448902.5, 39133.47, -0.003285653, 0.32068858, -784601.6, 716962.94, 0.0042630965, 10.006282, 9.997454 
2.6756588e+3, 1.5677945e+2, -834622.1, -1425436.5, 51958.88, 0.027247982, 0.31757033, -830087.44, 573505.9, 0.0012749643, 10.00528, 9.997423 
2.675576e+3, 1.6677693e+2, -816588.1, -1303725.9, 88422.766, 0.022314116, 0.33034512, -801034.6, 504583.38, 0.0001861007, 10.00446, 9.997978 
2.675493e+3, 1.7677473e+2, -830261.0, -1272567.6, 88913.84, -0.0072410316, 0.35025615, -813056.44, 394583.13, 0.0000066689386, 10.003749, 9.997863 
2.6754108e+3, 1.8677221e+2, -823037.0, -1202707.4, 93314.625, -0.02631133, 0.34479487, -801342.0, 308322.97, 0.0000000017280947, 10.003059, 9.998 
2.6753286e+3, 1.9676967e+2, -814044.4, -1133728.6, 74342.43, -0.038049616, 0.32652634, -797601.75, 214089.14, 0.0, 10.002388, 9.998125 
2.6752466e+3, 2.0676814e+2, -734963.75, -905327.2, 86790.625, -0.04567263, 0.32721955, -698537.3, 215168.55, 0.0, 10.001658, 9.999371 
2.675165e+3, 2.1676722e+2, -757053.0, -879733.06, 110573.58, -0.051876478, 0.33733162, -691944.94, 123769.234, 0.0, 10.000896, 9.999241 
2.6750827e+3, 2.2676633e+2, -762598.56, -822255.25, 106911.02, -0.060942415, 0.35790247, -681432.8, 36291.33, 0.0, 10.000144, 9.999325 
2.675001e+3, 2.3676553e+2, -767263.75, -764692.75, 83105.84, -0.06958631, 0.38206774, -682862.44, -63128.844, 0.0, 9.9994, 9.999406 
2.6749188e+3, 2.4676502e+2, -701602.94, -568785.2, 65363.617, -0.0715934, 0.3688463, -542013.94, -20275.363, 0.0, 9.998688, 10.0004225 
2.6748365e+3, 2.5676477e+2, -705770.9, -521757.16, 75814.52, -0.07579174, 0.33794037, -494545.3, -70805.48, 0.0, 9.9979925, 10.000408 
2.674754e+3, 2.667651e+2, -653709.44, -377030.78, 63209.777, -0.08028467, 0.33415052, -363273.94, -37539.145, 0.0, 9.997378, 10.001025 
2.6746714e+3, 2.7676576e+2, -647493.44, -332804.84, 62987.895, -0.069743305, 0.33930942, -320665.5, -92939.65, 0.0, 9.996789, 10.00094 
2.6745883e+3, 2.8676617e+2, -647693.8, -243961.58, 29731.494, -0.077858865, 0.30454016, -241783.84, -112062.734, 0.0, 9.995947, 10.001285 
2.6745045e+3, 2.9676667e+2, -698178.25, -228887.34, 22403.508, -0.13472761, 0.2626161, -227820.25, -196104.42, 0.0, 9.994976, 10.0011835 
2.6744223e+3, 3.067686e+2, -700374.1, -180674.8, -22466.666, 0.033967275, 0.36097342, -179705.36, -179705.36, 0.0, 9.994518, 10.001402 
2.674337e+3, 3.1676856e+2, -645065.1, 4015.7244, -4918.0425, -0.07854462, 0.25661302, 4052.9858, 4052.9858, 0.0, 9.994219, 10.002813 
2.6859164e+3, 1.2687474e+2, -855255.4, -1699707.8, 38837.094, 0.05141611, 0.326148, -853473.0, 843186.0, 0.012325251, 10.007728, 9.99638 
2.6858318e+3, 1.368707e+2, -923555.0, -1674589.8, 51108.973, 0.02912288, 0.32160437, -920092.9, 678606.6, 0.007520878, 10.006505, 9.996469 
2.6857474e+3, 1.4686738e+2, -851758.8, -1465865.6, 81695.945, 0.0075542997, 0.31953835, -841076.44, 659655.56, 0.0034357784, 10.005774, 9.997578 
2.6856634e+3, 1.5686457e+2, -825209.2, -1408929.3, 77825.83, 0.013625091, 0.31769374, -815011.06, 587748.1, 0.0009930349, 10.005297, 9.997525 
2.68558e+3, 1.6686206e+2, -800373.8, -1299772.9, 102085.81, 0.010353985, 0.33205715, -780311.6, 524472.2, 0.00013853874, 10.004594, 9.997938 
2.6854965e+3, 1.7685983e+2, -825946.25, -1271784.5, 95521.445, -0.004880855, 0.35416663, -806342.6, 400463.47, 0.0000046173277, 10.003789, 9.997846 
2.6854137e+3, 1.8685731e+2, -826906.75, -1196042.6, 122937.086, -0.020052155, 0.3456389, -789711.6, 319119.84, 0.0000000002885943, 10.003002, 9.998071 
2.6853308e+3, 1.9685477e+2, -833167.9, -1134518.3, 140414.4, -0.032868657, 0.32159272, -777883.8, 232973.44, 0.0, 10.002227, 9.998194 
2.685248e+3, 2.0685333e+2, -750869.94, -909016.44, 136387.5, -0.04710766, 0.32901996, -672291.25, 240580.06, 0.0, 10.001537, 9.999401 
2.6851654e+3, 2.1685258e+2, -755641.0, -875367.44, 114813.49, -0.06286959, 0.3517544, -686021.6, 128856.664, 0.0, 10.0008955, 9.999269 
2.6850826e+3, 2.2685163e+2, -761609.94, -825797.94, 119580.25, -0.070128396, 0.37007654, -669891.75, 46996.94, 0.0, 10.000174, 9.999284 
2.685e+3, 2.368507e+2, -767939.6, -767591.3, 135404.4, -0.07040276, 0.38540912, -632360.94, -13461.188, 0.0, 9.999412, 9.999378 
2.6849172e+3, 2.4685018e+2, -689479.94, -560294.8, 120947.4, -0.07115552, 0.37446603, -487772.56, 33132.05, 0.0, 9.998764, 10.000441 
2.6848343e+3, 2.5684997e+2, -679260.25, -505263.4, 111412.86, -0.07792141, 0.3501619, -450905.72, -28000.662, 0.0, 9.998164, 10.000435 
2.684751e+3, 2.6685023e+2, -638482.25, -368490.25, 91693.98, -0.083192244, 0.3368413, -340294.0, -15393.26, 0.0, 9.997483, 10.001031 
2.6846677e+3, 2.7685076e+2, -652071.44, -334885.9, 90405.29, -0.07205057, 0.32614496, -310927.9, -84034.65, 0.0, 9.996762, 10.0009365 
2.6845837e+3, 2.8685138e+2, -623539.56, -239075.5, 60055.523, -0.08735205, 0.31754634, -229912.84, -101026.45, 0.0, 9.996147, 10.001219 
2.684499e+3, 2.968522e+2, -620340.7, -202955.72, 64739.824, -0.1573518, 0.31872204, -193144.67, -162266.92, 0.0, 9.995565, 10.001075 
2.6844168e+3, 3.0685258e+2, -648375.5, -176517.05, 39892.793, 0.040177163, 0.280302, -173168.13, -173168.13, 0.0, 9.99497, 10.001209 
2.6843306e+3, 3.1685346e+2, -623451.1, 26360.814, 19293.672, -0.09993503, 0.28282437, 26933.162, 26933.162, 0.0, 9.994322, 10.002914 
2.6959234e+3, 1.269603e+2, -832768.25, -1643221.4, -5266.8096, -0.0017125254, 0.34459084, -832734.0, 863087.7, 0.010116114, 10.007666, 9.996802 
2.6958385e+3, 1.3695635e+2, -895375.8, -1623802.3, 10875.454, 0.076228015, 0.30690908, -895213.44, 702646.3, 0.0060858387, 10.006527, 9.996808 
2.695753e+3, 1.4695317e+2, -854033.9, -1477592.9, 64271.69, 0.043453217, 0.3104533, -847478.1, 652412.56, 0.0027167886, 10.0057955, 9.997489 
2.695668e+3, 1.569505e+2, -833782.75, -1424329.9, 58476.52, -0.015920727, 0.33314285, -828048.06, 573868.94, 0.0007584135, 10.0052805, 9.997429 
2.6955837e+3, 1.6694784e+2, -813026.1, -1323114.5, 73046.9, -0.017183512, 0.34360757, -802771.6, 501172.34, 0.00010126035, 10.004577, 9.997788 
2.6955003e+3, 1.769453e+2, -827620.0, -1275051.6, 67303.56, 0.002715279, 0.34749407, -817715.3, 388254.75, 0.0000032248547, 10.003783, 9.9978285 
2.6954165e+3, 1.86943e+2, -789176.56, -1118743.5, 94665.47, -0.0028413013, 0.33047614, -763920.2, 344071.84, 0.000000000007316074, 10.003002, 9.998604 
2.6953328e+3, 1.9694094e+2, -808943.94, -1085905.5, 111792.555, -0.018947946, 0.30369866, -769451.44, 240559.47, 0.0, 10.00223, 9.9985285 
2.6952493e+3, 2.0693955e+2, -790873.06, -993008.1, 112340.09, -0.040892757, 0.334201, -740828.25, 171197.63, 0.0, 10.001537, 9.998826 
2.695166e+3, 2.1693857e+2, -782413.3, -930548.1, 90806.57, -0.066723496, 0.39100018, -739297.9, 74739.81, 0.0, 10.00089, 9.998895 
2.695082e+3, 2.2693753e+2, -728965.5, -758875.7, 91481.96, -0.07290598, 0.3879886, -651224.3, 64824.047, 0.0, 10.000174, 9.999745 
2.694999e+3, 2.3693657e+2, -743509.0, -718806.1, 107851.516, -0.06740809, 0.35671127, -622601.06, -4543.7905, 0.0, 9.999415, 9.999713 
2.6949155e+3, 2.4693616e+2, -706851.8, -598113.94, 98451.88, -0.071669996, 0.35792404, -540016.2, -19955.234, 0.0, 9.998768, 10.000181 
2.6948318e+3, 2.5693613e+2, -693073.56, -535533.9, 88008.22, -0.084811516, 0.37258127, -496193.0, -74132.04, 0.0, 9.998167, 10.000228 
2.694748e+3, 2.669361e+2, -638785.94, -370202.16, 64211.773, -0.082100235, 0.3402506, -355640.22, -31580.629, 0.0, 9.997483, 10.00102 
2.6946643e+3, 2.7693617e+2, -651174.0, -332811.4, 64344.027, -0.060286865, 0.28600505, -320298.66, -94242.35, 0.0, 9.996757, 10.000956 
2.69458e+3, 2.8693715e+2, -616865.9, -227591.8, 39791.977, -0.07582967, 0.3086941, -223565.84, -95520.414, 0.0, 9.996153, 10.001298 
2.6944944e+3, 2.9693863e+2, -616772.9, -203440.86, 44512.633, -0.14288549, 0.36827245, -198701.53, -168671.6, 0.0, 9.995595, 10.00106 
2.6944107e+3, 3.0693737e+2, -649824.75, -184636.66, 17047.398, -0.015472542, 0.17444567, -184012.78, -184012.78, 0.0, 9.994988, 10.001147 
2.6943246e+3, 3.1693944e+2, -606260.94, 60273.637, 7061.8926, -0.11393215, 0.29433486, 60348.45, 60348.45, 0.0, 9.994321, 10.003152 
2.7059305e+3, 1.2704667e+2, -931094.44, -1674168.5, 26572.463, 0.010275905, 0.35829338, -930145.44, 764830.75, 0.008135243, 10.0069, 9.996955 
2.7058443e+3, 1.3704276e+2, -878414.7, -1599151.0, 26407.361, 0.060795248, 0.3102354, -877448.44, 719565.0, 0.0048184204, 10.00657, 9.996955 
2.7057582e+3, 1.4703965e+2, -845673.94, -1466541.4, 79091.97, 0.03527275, 0.31280848, -835756.9, 663286.6, 0.0020977193, 10.005824, 9.997548 
2.705673e+3, 1.5703708e+2, -885099.3, -1442592.4, 82305.9, -0.002571573, 0.33867246, -873201.9, 527867.06, 0.00056490116, 10.004904, 9.997482 
2.7055877e+3, 1.6703445e+2, -870195.4, -1348038.0, 107373.77, -0.008356086, 0.35129705, -847176.75, 455919.0, 0.00007211134, 10.004178, 9.997807 
2.7055034e+3, 1.7703192e+2, -858933.44, -1283901.6, 111092.74, -0.0036878644, 0.35627654, -831644.56, 373477.44, 0.000002222292, 10.003548, 9.997878 
2.705419e+3, 1.8702972e+2, -796892.56, -1105995.3, 123826.93, -0.0110913925, 0.33897814, -753405.44, 353737.3, 0.0, 10.002884, 9.998745 
2.7053344e+3, 1.9702779e+2, -804436.3, -1070855.1, 115337.85, -0.022926679, 0.31212965, -761442.56, 247717.25, 0.0, 10.00221, 9.998639 
2.7052504e+3, 2.0702632e+2, -810953.9, -1008738.56, 130151.51, -0.038728982, 0.3363458, -746386.44, 164788.86, 0.0, 10.0014305, 9.998767 
2.7051663e+3, 2.1702519e+2, -825395.94, -953766.75, 143770.56, -0.057580378, 0.38397524, -732133.75, 81055.18, 0.0, 10.00061, 9.998867 
2.705082e+3, 2.2702417e+2, -741992.56, -755268.56, 141868.6, -0.06950178, 0.3812799, -606606.75, 108592.44, 0.0, 10.000047, 9.999828 
2.704998e+3, 2.3702332e+2, -712275.8, -695184.25, 130354.12, -0.07517118, 0.35378367, -573096.06, 44110.64, 0.0, 9.9995985, 9.999784 
2.704914e+3, 2.470229e+2, -689831.06, -593622.8, 119502.12, -0.07754437, 0.353117, -512906.28, 6304.149, 0.0, 9.998907, 10.000142 
2.7048296e+3, 2.5702277e+2, -705250.94, -544969.4, 125438.305, -0.08321717, 0.36486462, -476256.8, -55045.582, 0.0, 9.998105, 10.000191 
2.7047452e+3, 2.670227e+2, -636777.06, -376132.56, 106242.664, -0.084291555, 0.3345423, -338313.8, -15103.357, 0.0, 9.997533, 10.000954 
2.7046606e+3, 2.7702275e+2, -612327.25, -319561.94, 100672.625, -0.07003865, 0.28307566, -288285.22, -63077.293, 0.0, 9.997053, 10.0009 
2.7045757e+3, 2.8702366e+2, -575788.75, -210333.25, 67566.65, -0.08187959, 0.3035192, -198241.39, -71043.7, 0.0, 9.996451, 10.001269 
2.7044898e+3, 2.9702505e+2, -591718.56, -195068.5, 64193.934, -0.1418136, 0.35954383, -184938.08, -155755.34, 0.0, 9.99579, 10.00102 
2.7044052e+3, 3.0702367e+2, -627698.8, -183873.02, 36142.336, -0.03060855, 0.16436656, -180949.08, -180949.08, 0.0, 9.995188, 10.001053 
2.7043185e+3, 3.1702626e+2, -560083.25, 98310.89, 37814.984, -0.09590431, 0.3375761, 100475.68, 100475.68, 0.0, 9.994573, 10.00329 
2.7159375e+3, 1.2713376e+2, -932514.9, -1681748.0, 16209.088, 0.0649105, 0.36810106, -932164.4, 761959.0, 0.0063801864, 10.006906, 9.996901 
2.71585e+3, 1.3712987e+2, -882268.5, -1602399.1, 11765.977, -0.0026023616, 0.327418, -882076.3, 714084.56, 0.0037129393, 10.006537, 9.99695 
2.7157634e+3, 1.471268e+2, -837894.7, -1446262.6, 45850.625, -0.0047500613, 0.32373852, -834458.5, 663731.94, 0.0015716138, 10.005799, 9.997702 
2.715678e+3, 1.5712424e+2, -874333.25, -1420757.6, 50896.85, 0.044664584, 0.33614892, -869632.9, 530582.56, 0.0004072252, 10.004902, 9.997636 
2.715592e+3, 1.6712183e+2, -859735.75, -1328539.4, 84396.7, 0.02815163, 0.3559689, -845005.0, 457234.9, 0.000049426126, 10.004184, 9.997939 
2.7155063e+3, 1.7711958e+2, -852563.75, -1272856.6, 87512.7, -0.022469085, 0.37762502, -835070.1, 369193.06, 0.0000014402623, 10.003553, 9.997952 
2.715421e+3, 1.8711737e+2, -810797.06, -1135936.5, 99154.445, -0.04087685, 0.36764055, -782944.8, 323339.78, 0.0, 10.002885, 9.998541 
2.715336e+3, 1.9711529e+2, -810587.1, -1083018.5, 89771.71, -0.043268535, 0.34355563, -783665.8, 224638.2, 0.0, 10.002204, 9.99856 
2.7152514e+3, 2.071137e+2, -784176.5, -953889.2, 99453.31, -0.040171906, 0.334769, -738298.1, 172021.42, 0.0, 10.0014305, 9.9991455 
2.7151668e+3, 2.1711242e+2, -806477.06, -916954.5, 115616.43, -0.036458705, 0.33387807, -733581.2, 78751.02, 0.0, 10.000617, 9.999118 
2.715082e+3, 2.2711156e+2, -761125.4, -797156.06, 125150.266, -0.06081817, 0.3522582, -652700.44, 61641.004, 0.0, 10.0000515, 9.99954 
2.714997e+3, 2.3711096e+2, -725176.8, -723097.56, 110802.125, -0.09422065, 0.37653592, -613330.2, 3017.982, 0.0, 9.9996, 9.999594 
2.7149123e+3, 2.4711038e+2, -677948.06, -569879.7, 88991.12, -0.088531844, 0.35906148, -519802.8, -1449.7552, 0.0, 9.998907, 10.000307 
2.7148277e+3, 2.5710994e+2, -696979.2, -528584.6, 97955.125, -0.07291044, 0.32525757, -483613.88, -63258.066, 0.0, 9.998104, 10.000305 
2.7147424e+3, 2.671101e+2, -646773.2, -398233.47, 88972.805, -0.09125919, 0.32026786, -369666.28, -47313.246, 0.0, 9.997535, 10.000803 
2.714657e+3, 2.7711055e+2, -622364.56, -343149.28, 81802.94, -0.10620237, 0.3231403, -320948.34, -96601.08, 0.0, 9.997061, 10.000737 
2.7145717e+3, 2.8711084e+2, -587106.06, -236346.6, 42278.21, -0.108526416, 0.30100822, -231322.61, -104979.37, 0.0, 9.996458, 10.00109 
2.7144852e+3, 2.971113e+2, -597228.9, -207289.9, 39574.27, -0.15358739, 0.28004953, -203314.13, -174976.53, 0.0, 9.995789, 10.000939 
2.7144003e+3, 3.071119e+2, -632619.5, -194979.2, 14745.089, 0.0038493718, 0.28208208, -194482.97, -194482.97, 0.0, 9.995188, 10.000979 
2.714313e+3, 3.1711265e+2, -565297.5, 87422.55, 39718.188, -0.08150159, 0.28883585, 89830.53, 89830.53, 0.0, 9.994573, 10.003215 
2.725944e+3, 1.2722136e+2, -961757.75, -1689351.0, 48970.492, 0.058579236, 0.35236618, -958476.6, 734787.9, 0.00485118, 10.006668, 9.996962 
2.725856e+3, 1.3721777e+2, -958267.1, -1631410.0, 49153.094, 0.0060210405, 0.33680063, -954696.9, 640602.94, 0.0027658064, 10.005979, 9.997018 
2.7257687e+3, 1.4721482e+2, -904200.8, -1472368.8, 74562.945, 0.00049109495, 0.33792984, -894578.56, 602750.2, 0.0011334202, 10.005321, 9.99775 
2.7256823e+3, 1.5721223e+2, -900061.06, -1424507.8, 74254.96, 0.041282255, 0.34559757, -889750.25, 509603.66, 0.00028124754, 10.004692, 9.997708 
2.7255958e+3, 1.6720983e+2, -863109.75, -1315403.9, 109925.39, 0.020417796, 0.35780954, -837808.8, 463568.94, 0.00003198061, 10.004102, 9.998066 
2.7255094e+3, 1.7720765e+2, -849906.3, -1261529.6, 111011.46, -0.033519402, 0.37184456, -821876.2, 381523.88, 0.0000008235445, 10.003533, 9.998038 
2.7254236e+3, 1.8720548e+2, -832105.6, -1156805.4, 122027.71, -0.046835005, 0.3701527, -791358.9, 314062.7, 0.0, 10.0027895, 9.998441 
2.7253377e+3, 1.9720341e+2, -846100.44, -1103470.3, 119126.4, -0.040150724, 0.36023015, -799426.0, 208015.58, 0.0, 10.00198, 9.998525 
2.7252525e+3, 2.0720181e+2, -781767.56, -934420.1, 122938.125, -0.035394277, 0.34361774, -713389.0, 196067.56, 0.0, 10.001373, 9.999304 
2.725167e+3, 2.1720053e+2, -764009.06, -882783.56, 124614.555, -0.0327538, 0.3252356, -685354.2, 126114.15, 0.0, 10.0008545, 9.999236 
2.7250817e+3, 2.2719967e+2, -749673.5, -798798.25, 141142.22, -0.05664282, 0.34496185, -630972.4, 82505.09, 0.0, 10.000167, 9.999471 
2.7249962e+3, 2.371991e+2, -756125.6, -741560.75, 141604.7, -0.08925308, 0.3796689, -607051.4, 8433.122, 0.0, 9.999408, 9.999557 
2.724911e+3, 2.4719849e+2, -680140.4, -565417.2, 117459.95, -0.084406435, 0.35767022, -492060.8, 25428.865, 0.0, 9.998874, 10.000351 
2.7248254e+3, 2.5719798e+2, -648800.2, -501740.72, 117548.64, -0.07010407, 0.31231812, -436618.72, -17125.875, 0.0, 9.998425, 10.000333 
2.7247396e+3, 2.6719818e+2, -603289.44, -384436.03, 111584.85, -0.09914396, 0.3184739, -337576.53, -16087.274, 0.0, 9.99787, 10.000732 
2.7246535e+3, 2.7719873e+2, -598783.1, -340506.06, 109372.82, -0.1273203, 0.34161058, -300413.47, -76931.1, 0.0, 9.997267, 10.000652 
2.7245677e+3, 2.8719857e+2, -564818.8, -242626.94, 69928.55, -0.11177213, 0.28795624, -228104.23, -102621.25, 0.0, 9.996691, 10.000932 
2.7244806e+3, 2.971984e+2, -559809.06, -199446.78, 67827.5, -0.13055249, 0.2192418, -187103.08, -159619.19, 0.0, 9.996095, 10.000842 
2.724395e+3, 3.072004e+2, -569530.2, -159830.92, 48692.84, -0.03198444, 0.36718258, -154123.28, -154123.28, 0.0, 9.995605, 10.001016 
2.7243072e+3, 3.1719977e+2, -500118.72, 84421.71, 49522.145, -0.121966675, 0.23530325, 88587.52, 88587.52, 0.0, 9.995176, 10.0029 
2.7359498e+3, 1.273095e+2, -956064.9, -1672220.1, 24654.854, 0.011582603, 0.3201581, -955217.06, 737182.9, 0.0035503479, 10.006634, 9.997097 
2.735862e+3, 1.3730639e+2, -952944.6, -1617968.3, 24791.914, 0.06753954, 0.34025127, -952021.6, 642409.56, 0.0019751869, 10.00596, 9.997121 
2.735774e+3, 1.4730357e+2, -907688.5, -1479870.4, 51725.36, 0.037197392, 0.35398614, -903050.1, 593409.3, 0.00077926746, 10.005316, 9.997703 
2.7356863e+3, 1.5730098e+2, -899648.6, -1425169.1, 52033.906, -0.0027424812, 0.3642096, -894546.06, 503939.13, 0.0001835753, 10.004695, 9.9977045 
2.735599e+3, 1.6729847e+2, -856064.44, -1300607.6, 89459.44, -0.021692218, 0.35703403, -838737.1, 461772.56, 0.000018985376, 10.004098, 9.998172 
2.7355126e+3, 1.7729609e+2, -846193.06, -1251135.0, 88246.98, -0.037923664, 0.34363922, -827797.5, 374735.16, 0.00000037747915, 10.003518, 9.998118 
2.735426e+3, 1.8729402e+2, -834923.56, -1162230.5, 91840.91, -0.03284402, 0.3508958, -810914.5, 293639.06, 0.0, 10.002784, 9.998408 
2.7353397e+3, 1.9729218e+2, -846328.4, -1106812.9, 91532.78, -0.017004373, 0.36513945, -817381.1, 189191.53, 0.0, 10.001989, 9.998499 
2.7352536e+3, 2.0729068e+2, -783875.9, -941356.75, 104133.77, -0.02563403, 0.36298847, -732064.0, 176522.67, 0.0, 10.001381, 9.999254 
2.7351674e+3, 2.1728945e+2, -764482.2, -884164.94, 103809.69, -0.04575522, 0.35437733, -704501.0, 106096.484, 0.0, 10.000854, 9.999229 
2.7350816e+3, 2.272885e+2, -741137.8, -781867.1, 112622.78, -0.056244966, 0.3571741, -647053.3, 65553.95, 0.0, 10.000167, 9.999589 
2.7349955e+3, 2.3728776e+2, -749506.4, -729334.7, 115410.27, -0.06091376, 0.3642379, -623570.4, -8954.785, 0.0, 9.999412, 9.999641 
2.7349097e+3, 2.472872e+2, -686081.1, -579350.5, 100753.69, -0.065766566, 0.35023916, -518701.97, -2081.6826, 0.0, 9.998877, 10.000257 
2.7348235e+3, 2.5728685e+2, -653168.2, -512998.25, 99625.37, -0.07628611, 0.32797518, -461275.5, -42653.24, 0.0, 9.99843, 10.000255 
2.734737e+3, 2.6728696e+2, -602347.6, -384784.34, 88626.77, -0.107667975, 0.32927072, -353251.53, -32632.412, 0.0, 9.997876, 10.00073 
2.7346507e+3, 2.7728736e+2, -599357.94, -343464.84, 87175.1, -0.13036968, 0.33498508, -316589.5, -93976.13, 0.0, 9.997272, 10.000632 
2.7345642e+3, 2.872869e+2, -574620.7, -264857.5, 48141.28, -0.08673649, 0.26357558, -257548.19, -132931.38, 0.0, 9.996695, 10.000779 
2.734477e+3, 2.9728648e+2, -568359.7, -219553.72, 46122.574, -0.06778036, 0.18170872, -213558.0, -186937.06, 0.0, 9.9961, 10.000704 
2.734389e+3, 3.072892e+2, -560508.25, -145722.34, 34094.72, -0.1644675, 0.4064444, -142938.5, -142938.5, 0.0, 9.995622, 10.001107 
2.7343023e+3, 3.172885e+2, -543718.25, -17523.936, -57945.02, -0.101310045, 0.26412192, -11218.532, -11218.532, 0.0, 9.995211, 10.002191 
2.7459556e+3, 1.2739867e+2, -1035393.8, -1700285.1, 50247.215, 0.017245641, 0.3210685, -1031618.0, 659907.8, 0.0024793833, 10.006039, 9.9971895 
2.7458674e+3, 1.3739568e+2, -1014857.7, -1639266.6, 48274.18, 0.06887056, 0.34498617, -1011147.56, 582408.75, 0.0013388611, 10.005498, 9.997195 
2.745779e+3, 1.4739285e+2, -954126.7, -1505729.8, 76949.914, 0.036362354, 0.35790825, -943593.1, 551991.8, 0.00050477433, 10.005014, 9.997668 
2.7456903e+3, 1.5739019e+2, -919259.06, -1433059.4, 76350.82, -0.0054971687, 0.3654344, -908153.4, 489458.25, 0.00011108484, 10.004557, 9.997714 
2.7456027e+3, 1.6738772e+2, -881465.44, -1299181.0, 109915.25, -0.018867312, 0.3568654, -854308.56, 445326.75, 0.000009967996, 10.003869, 9.998289 
2.7455157e+3, 1.7738545e+2, -899639.2, -1264774.3, 109903.87, -0.025679154, 0.34217373, -869111.06, 332545.78, 0.00000012200492, 10.003104, 9.998221 
2.7454284e+3, 1.8738347e+2, -861907.44, -1171952.5, 118669.195, -0.025823716, 0.3530022, -821700.94, 281976.22, 0.0, 10.00259, 9.998432 
2.7453417e+3, 1.973817e+2, -817785.44, -1090156.0, 121329.18, -0.021047693, 0.37354267, -771577.75, 234118.25, 0.0, 10.002177, 9.998521 
2.7452546e+3, 2.0738016e+2, -766809.56, -935696.75, 134240.97, -0.02861574, 0.36767665, -692661.4, 215049.05, 0.0, 10.001514, 9.999227 
2.745168e+3, 2.173788e+2, -779588.4, -892297.2, 135029.22, -0.04311572, 0.35148892, -689625.6, 120096.39, 0.0, 10.000758, 9.999216 
2.7450812e+3, 2.2737788e+2, -735832.7, -778536.0, 138866.27, -0.05209876, 0.3584205, -616686.2, 95045.51, 0.0, 10.000205, 9.999591 
2.7449948e+3, 2.3737721e+2, -702347.06, -705662.56, 133935.75, -0.055762153, 0.37307146, -570058.8, 43680.8, 0.0, 9.999736, 9.999644 
2.7449083e+3, 2.4737664e+2, -641419.8, -561141.25, 122482.83, -0.06356315, 0.35954466, -472388.3, 43356.016, 0.0, 9.999203, 10.000221 
2.7448216e+3, 2.5737622e+2, -625167.9, -502023.06, 124790.45, -0.07935047, 0.33566225, -424441.53, -6694.911, 0.0, 9.99864, 10.000226 
2.7447346e+3, 2.6737618e+2, -572778.06, -373908.66, 110924.875, -0.10337408, 0.32854697, -324374.94, -4630.3633, 0.0, 9.9981, 10.000693 
2.7446476e+3, 2.7737644e+2, -562189.25, -330783.56, 105782.336, -0.11338301, 0.32390013, -289715.72, -67975.445, 0.0, 9.997554, 10.000581 
2.7445608e+3, 2.8737608e+2, -544622.94, -263535.13, 65977.43, -0.08068311, 0.26862288, -248819.22, -125075.89, 0.0, 9.996963, 10.000656 
2.744473e+3, 2.973757e+2, -536039.6, -215443.84, 68112.195, -0.08048772, 0.20919901, -201573.19, -175826.36, 0.0, 9.996378, 10.000595 
2.7443844e+3, 3.0737796e+2, -507979.7, -118144.516, 57547.152, -0.15844558, 0.38787055, -109826.92, -109826.92, 0.0, 9.995977, 10.001123 
2.744298e+3, 3.1737745e+2, -515474.66, -29216.941, -49793.82, -0.021543141, 0.26880535, -24170.326, -24170.326, 0.0, 9.995518, 10.00196 
2.7559617e+3, 1.2748869e+2, -1032165.06, -1693467.8, 28891.268, 0.056556497, 0.34362417, -1030905.25, 659738.5, 0.001634507, 10.006031, 9.997241 
2.755872e+3, 1.3748558e+2, -1013158.44, -1634527.8, 28282.186, 0.025057454, 0.350879, -1011873.8, 580801.75, 0.00085094693, 10.0054865, 9.997235 
2.7557832e+3, 1.4748263e+2, -958797.9, -1512705.6, 60317.508, 0.008904233, 0.35333315, -952305.75, 542399.6, 0.00030341468, 10.004998, 9.99763 
2.7556947e+3, 1.5747987e+2, -921466.9, -1433468.9, 57459.035, 0.024018483, 0.3535192, -915097.8, 481635.4, 0.000060647715, 10.004536, 9.997724 
2.7556068e+3, 1.6747762e+2, -874847.3, -1283641.6, 81380.37, 0.018867485, 0.3575683, -859242.3, 439512.63, 0.0000044184594, 10.003858, 9.998403 
2.7555186e+3, 1.7747565e+2, -891549.0, -1249423.4, 84270.41, -0.0007174369, 0.3628922, -872698.4, 328075.0, 0.000000024025011, 10.003107, 9.998327 
2.7554306e+3, 1.8747374e+2, -857612.94, -1163790.6, 103572.74, -0.025474295, 0.37282094, -825868.06, 276924.94, 0.0, 10.00259, 9.998489 
2.755343e+3, 1.9747192e+2, -815531.5, -1083877.5, 102883.234, -0.049049787, 0.38371268, -780626.56, 224185.53, 0.0, 10.002167, 9.99857 
2.7552557e+3, 2.0747018e+2, -769019.94, -940174.44, 105529.73, -0.042508427, 0.35828862, -718729.6, 188098.42, 0.0, 10.001511, 9.999199 
2.7551684e+3, 2.174686e+2, -781576.5, -898343.3, 109288.52, -0.026883483, 0.32048008, -716054.25, 92787.56, 0.0, 10.000764, 9.999174 
2.7550814e+3, 2.2746782e+2, -743323.2, -796317.75, 121285.28, -0.045548085, 0.3508804, -645674.5, 65176.094, 0.0, 10.000212, 9.999468 
2.754994e+3, 2.3746742e+2, -707936.75, -718243.6, 115381.49, -0.07398681, 0.4054482, -597593.6, 15262.913, 0.0, 9.999737, 9.999559 
2.754907e+3, 2.4746677e+2, -640205.56, -559785.5, 101293.44, -0.077763796, 0.38478568, -491012.94, 23848.91, 0.0, 9.999205, 10.000231 
2.7548197e+3, 2.574661e+2, -624346.6, -501994.0, 104132.41, -0.07908997, 0.33506614, -442397.38, -25531.523, 0.0, 9.998644, 10.000226 
2.7547327e+3, 2.6746592e+2, -578038.44, -386926.94, 90725.78, -0.08502799, 0.3157461, -350717.5, -31851.807, 0.0, 9.998105, 10.000604 
2.7546453e+3, 2.77466e+2, -568143.25, -345354.3, 84239.69, -0.075538374, 0.30859134, -317088.28, -96225.14, 0.0, 9.99756, 10.00048 
2.754557e+3, 2.874661e+2, -551841.94, -279668.25, 43133.42, -0.099759944, 0.3089413, -272996.16, -150134.05, 0.0, 9.996964, 10.000546 
2.7544677e+3, 2.9746628e+2, -543086.2, -230790.98, 50468.53, -0.18307573, 0.31422365, -222837.56, -197977.11, 0.0, 9.996378, 10.000492 
2.7543822e+3, 3.0746642e+2, -512863.28, -132612.52, 42358.875, 0.03690605, 0.29517394, -127951.0, -127951.0, 0.0, 9.995991, 10.00102 
2.7542922e+3, 3.174669e+2, -479565.47, 45720.12, 15566.917, -0.10723553, 0.27517194, 46181.043, 46181.043, 0.0, 9.995524, 10.002467 
2.765967e+3, 1.2757877e+2, -1081201.3, -1705042.6, 31719.979, 0.06353964, 0.34470698, -1079592.6, 610168.94, 0.0010030861, 10.00564, 9.997349 
2.765877e+3, 1.3757585e+2, -1060527.5, -1643240.6, 34526.86, 0.028196849, 0.36078572, -1058488.9, 533302.6, 0.00049931835, 10.005101, 9.997359 
2.7657872e+3, 1.4757304e+2, -1014677.25, -1523764.4, 76027.3, 0.0071177557, 0.3636078, -1003565.8, 490254.16, 0.00016572834, 10.004549, 9.997768 
2.7656987e+3, 1.5757038e+2, -990780.3, -1453898.4, 82105.914, 0.020015422, 0.36100268, -976654.6, 419192.03, 0.000028743689, 10.004007, 9.997836 
2.76561e+3, 1.6756815e+2, -922631.6, -1306348.6, 101077.555, 0.015944012, 0.36335608, -897634.5, 400233.84, 0.0000015734482, 10.003532, 9.998402 
2.765521e+3, 1.7756616e+2, -893339.75, -1247110.0, 96897.01, -0.0022881406, 0.368242, -868538.5, 331348.72, 0.0000000017471812, 10.003085, 9.998352 
2.765433e+3, 1.8756433e+2, -871519.9, -1162350.0, 115654.73, -0.02471044, 0.38224182, -831135.2, 270770.84, 0.0, 10.002463, 9.998558 
2.7653447e+3, 1.9756263e+2, -864801.56, -1098427.6, 115599.94, -0.045672566, 0.39719993, -817271.56, 186652.44, 0.0, 10.001794, 9.998648 
2.7652565e+3, 2.0756091e+2, -786264.0, -941837.5, 122559.22, -0.042120703, 0.36728686, -718890.3, 187049.3, 0.0, 10.0013685, 9.999253 
2.7651688e+3, 2.175593e+2, -740096.8, -873407.94, 131430.7, -0.030633926, 0.32287002, -659385.5, 148567.9, 0.0, 10.001032, 9.999214 
2.7650812e+3, 2.2755852e+2, -708230.6, -781530.94, 148925.64, -0.045653116, 0.3534265, -591511.7, 118450.414, 0.0, 10.000466, 9.999444 
2.7649936e+3, 2.3755813e+2, -697113.8, -712902.8, 150879.98, -0.06847841, 0.41033363, -553921.94, 58046.098, 0.0, 9.999816, 9.999556 
2.764906e+3, 2.4755739e+2, -619746.94, -548538.75, 140481.86, -0.0737383, 0.3849854, -439219.4, 74754.19, 0.0, 9.999345, 10.000238 
2.7648184e+3, 2.5755665e+2, -584147.56, -485211.94, 141016.58, -0.07759515, 0.3282987, -385238.34, 30739.818, 0.0, 9.998936, 10.000198 
2.7647305e+3, 2.6755634e+2, -548473.8, -389822.94, 119882.914, -0.07891487, 0.30983707, -325397.06, -7417.618, 0.0, 9.998387, 10.000445 
2.7646425e+3, 2.7755633e+2, -543897.75, -346810.75, 109364.945, -0.063669465, 0.30660844, -298141.78, -78163.06, 0.0, 9.997789, 10.000356 
2.7645537e+3, 2.8755653e+2, -478600.5, -248254.86, 74987.91, -0.105432205, 0.3270865, -225994.19, -104017.6, 0.0, 9.99749, 10.000506 
2.7644637e+3, 2.9755688e+2, -425048.13, -185172.94, 84777.484, -0.20977272, 0.35612658, -158235.6, -134262.52, 0.0, 9.997242, 10.000386 
2.7643782e+3, 3.075559e+2, -466957.2, -149238.42, 57864.824, 0.077882856, 0.24929161, -139027.88, -139027.88, 0.0, 9.996477, 10.0006695 
2.764286e+3, 3.1755692e+2, -439304.84, 87061.02, 36308.418, -0.23460247, 0.31293017, 89553.75, 89553.75, 0.0, 9.995711, 10.002659 
2.7759722e+3, 1.2766905e+2, -1075050.9, -1687094.0, 13421.286, 0.04980841, 0.3323959, -1074756.8, 614121.1, 0.0005625798, 10.005613, 9.997486 
2.7758822e+3, 1.3766652e+2, -1050394.6, -1618928.8, 16477.076, 0.06392765, 0.37313494, -1049917.5, 540986.6, 0.0002649113, 10.005083, 9.997537 
2.775792e+3, 1.4766403e+2, -998062.1, -1487657.9, 56765.37, 0.022272527, 0.38409615, -991566.75, 501362.38, 0.000079692516, 10.004538, 9.998024 
2.775702e+3, 1.5766162e+2, -979335.4, -1429567.8, 62865.906, -0.010258389, 0.3831464, -970722.2, 424230.66, 0.000011229114, 10.004002, 9.998008 
2.7756128e+3, 1.6765925e+2, -931051.8, -1322488.4, 84658.74, -0.018959876, 0.3730163, -913526.7, 383449.44, 0.00000042374444, 10.003524, 9.998297 
2.7755237e+3, 1.7765701e+2, -898556.3, -1255519.6, 78133.51, -0.025685098, 0.3612106, -882203.3, 316794.9, 0.00000000000031093438, 10.003072, 9.998302 
2.775435e+3, 1.8765529e+2, -867836.6, -1153372.9, 90471.51, -0.022993194, 0.38325155, -841584.56, 259431.5, 0.0, 10.002455, 9.998626 
2.7753463e+3, 1.9765383e+2, -858630.25, -1085827.9, 94228.85, -0.01556425, 0.41489667, -824635.8, 178395.8, 0.0, 10.001792, 9.998736 
2.7752578e+3, 2.0765232e+2, -778094.0, -925689.06, 110717.766, -0.030061187, 0.39379576, -718833.25, 186211.95, 0.0, 10.0013685, 9.999366 
2.7751693e+3, 2.1765086e+2, -732949.6, -858584.8, 116202.94, -0.052670088, 0.35504064, -663671.94, 143385.31, 0.0, 10.001029, 9.999318 
2.7750814e+3, 2.2764993e+2, -704026.1, -773144.4, 124300.23, -0.051170733, 0.36381733, -609570.2, 99496.29, 0.0, 10.000464, 9.999504 
2.7749932e+3, 2.3764928e+2, -692809.6, -705039.25, 128639.55, -0.040384278, 0.3883584, -570139.6, 40934.28, 0.0, 9.999818, 9.99961 
2.7749053e+3, 2.4764854e+2, -620045.7, -550851.3, 125465.17, -0.05201316, 0.36054072, -455300.6, 57778.836, 0.0, 9.999349, 10.000222 
2.7748168e+3, 2.576479e+2, -588496.4, -496019.94, 124223.195, -0.075962506, 0.31526875, -409708.63, 5374.7344, 0.0, 9.99894, 10.000124 
2.7747285e+3, 2.6764756e+2, -565767.25, -426613.9, 97020.836, -0.086823665, 0.3112351, -376800.66, -59715.05, 0.0, 9.998388, 10.000194 
2.77464e+3, 2.776474e+2, -555429.94, -371710.56, 91285.4, -0.08023487, 0.31935573, -334066.5, -114979.77, 0.0, 9.99779, 10.000186 
2.774551e+3, 2.8764734e+2, -473679.88, -244025.16, 68599.695, -0.09311116, 0.3184708, -225094.38, -104007.44, 0.0, 9.997511, 10.000527 
2.7744615e+3, 2.9764745e+2, -426492.72, -199830.42, 68789.086, -0.14883636, 0.32242206, -180587.5, -157502.06, 0.0, 9.997288, 10.000266 
2.7743727e+3, 3.076465e+2, -510660.78, -242463.89, 21939.879, -0.09134759, 0.26263487, -240680.95, -240680.95, 0.0, 9.996485, 10.000027 
2.774282e+3, 3.1764722e+2, -464109.22, 34526.97, -27293.102, -0.14833522, 0.3576505, 36016.42, 36016.42, 0.0, 9.995701, 10.002311 
2.785977e+3, 1.2776019e+2, -1152047.0, -1701564.8, 40680.152, 0.052274738, 0.339896, -1149051.9, 538933.56, 0.00028129685, 10.004988, 9.997687 
2.7858865e+3, 1.3775775e+2, -1104864.9, -1624915.8, 46013.117, 0.049266275, 0.37071243, -1100825.1, 489185.44, 0.0001231295, 10.004623, 9.997716 
2.7857956e+3, 1.477554e+2, -1044759.3, -1499933.0, 78589.85, 0.012069446, 0.38539928, -1031572.06, 460461.97, 0.000032032433, 10.004176, 9.998112 
2.7857053e+3, 1.5775315e+2, -1018030.3, -1440852.9, 74948.1, -0.008696567, 0.3930099, -1005138.4, 388918.0, 0.00000335601, 10.003707, 9.998071 
2.7856156e+3, 1.6775085e+2, -983803.6, -1352397.4, 97155.6, -0.01562905, 0.3888135, -959762.94, 336316.7, 0.00000007042765, 10.003184, 9.998254 
2.7855262e+3, 1.777486e+2, -956999.0, -1280013.5, 93721.46, -0.023412429, 0.38098976, -931775.7, 266326.72, 0.0, 10.002658, 9.998332 
2.7854368e+3, 1.8774697e+2, -893523.56, -1143925.1, 110939.71, -0.021407157, 0.3990761, -851443.56, 248675.56, 0.0, 10.002189, 9.998817 
2.7853477e+3, 1.9774564e+2, -855686.25, -1067202.5, 123565.28, -0.014458858, 0.42495197, -798800.1, 203332.89, 0.0, 10.001742, 9.998887 
2.785259e+3, 2.0774415e+2, -796160.8, -934027.7, 140167.81, -0.028015349, 0.40441108, -708893.0, 195252.9, 0.0, 10.001247, 9.999365 
2.7851698e+3, 2.1774273e+2, -772327.44, -873252.06, 137112.22, -0.04966452, 0.3679055, -676686.3, 129471.414, 0.0, 10.000744, 9.999352 
2.7850813e+3, 2.2774176e+2, -716251.8, -767778.25, 141854.69, -0.050884496, 0.3660022, -597839.8, 110327.06, 0.0, 10.000337, 9.999599 
2.7849928e+3, 2.3774102e+2, -668490.1, -686800.56, 148410.33, -0.04239666, 0.3753011, -528952.9, 81221.516, 0.0, 9.999961, 9.999664 
2.7849042e+3, 2.4774034e+2, -608077.06, -554897.94, 142201.14, -0.049196064, 0.35528827, -436821.78, 75358.016, 0.0, 9.999477, 10.000131 
2.7848154e+3, 2.5773975e+2, -590480.9, -502970.1, 136289.05, -0.0679664, 0.32580626, -403584.84, 10598.815, 0.0, 9.998958, 10.000065 
2.7847266e+3, 2.6773933e+2, -527575.3, -408212.97, 122366.945, -0.09240433, 0.3165915, -331748.94, -15562.412, 0.0, 9.998656, 10.000189 
2.7846375e+3, 2.7773905e+2, -469751.16, -335821.34, 133802.47, -0.102604315, 0.3130934, -253162.05, -34973.383, 0.0, 9.998406, 10.0001335 
2.7845484e+3, 2.8773886e+2, -434737.2, -246587.08, 103310.06, -0.09353793, 0.31639382, -200937.1, -80746.69, 0.0, 9.997875, 10.000332 
2.7844587e+3, 2.9773885e+2, -440041.78, -221380.89, 85538.58, -0.120442495, 0.32939857, -191894.94, -169704.34, 0.0, 9.997265, 10.000126 
2.784368e+3, 3.0773804e+2, -433101.3, -205883.92, 63287.824, -0.16382734, 0.28670573, -189445.38, -189445.38, 0.0, 9.997026, 10.000014 
2.784279e+3, 3.177385e+2, -378181.97, 28906.83, 17362.082, -0.048401177, 0.3668745, 29645.969, 29645.969, 0.0, 9.996497, 10.001886 
2.7959818e+3, 1.2785202e+2, -1135582.1, -1667860.3, 28295.139, 0.06282521, 0.35964102, -1134082.3, 553003.75, 0.0001208615, 10.004986, 9.997921 
2.7958903e+3, 1.3784948e+2, -1093396.0, -1600954.3, 31046.977, -0.00124782, 0.3586241, -1091503.9, 497607.72, 0.00004739166, 10.00462, 9.997884 
2.795799e+3, 1.4784719e+2, -1049470.4, -1507044.4, 60897.668, -0.015420934, 0.37386006, -1041504.4, 449630.6, 0.000009819438, 10.004162, 9.998072 
2.795709e+3, 1.5784504e+2, -1023170.44, -1445969.0, 57334.7, 0.016177246, 0.39402166, -1015533.4, 377623.53, 0.00000067164456, 10.00368, 9.99805 
2.7956188e+3, 1.6784291e+2, -987375.25, -1354862.9, 78632.375, 0.017016016, 0.40947413, -971257.0, 323922.03, 0.0000000035986794, 10.0031595, 9.99825 
2.7955285e+3, 1.7784089e+2, -953575.25, -1269130.8, 76603.13, -0.0004315506, 0.42228293, -935962.4, 261237.94, 0.0, 10.002639, 9.998417 
2.7954388e+3, 1.8783933e+2, -875293.8, -1104127.1, 95240.97, -0.02086251, 0.42689583, -840841.3, 258374.42, 0.0, 10.002177, 9.999097 
2.7953488e+3, 1.97838e+2, -843432.4, -1041075.44, 106185.98, -0.038796842, 0.427642, -797198.2, 204030.31, 0.0, 10.001737, 9.99907 
2.7952597e+3, 2.0783645e+2, -804031.4, -950539.25, 121086.11, -0.03410983, 0.40017268, -735765.06, 167476.84, 0.0, 10.0012455, 9.999254 
2.7951705e+3, 2.1783493e+2, -775052.9, -879497.7, 119932.086, -0.024815442, 0.36393794, -696466.7, 108788.1, 0.0, 10.000744, 9.999311 
2.7950814e+3, 2.2783402e+2, -707845.7, -751659.56, 128109.09, -0.04669475, 0.361531, -599784.0, 107479.305, 0.0, 10.0003395, 9.999711 
2.794992e+3, 2.378334e+2, -665580.8, -681704.2, 132846.75, -0.07446126, 0.37100905, -540551.4, 68718.17, 0.0, 9.999962, 9.999701 
2.7949032e+3, 2.4783278e+2, -620678.25, -581417.7, 122104.63, -0.0649189, 0.3693377, -477375.44, 33899.316, 0.0, 9.999476, 9.999949 
2.794814e+3, 2.5783223e+2, -593967.94, -510670.63, 119566.51, -0.05318789, 0.36161134, -425706.63, -12427.683, 0.0, 9.998958, 10.000013 
2.7947247e+3, 2.6783168e+2, -508705.56, -371647.63, 114510.46, -0.096498705, 0.3258827, -306726.72, 8555.367, 0.0, 9.998664, 10.000438 
2.794635e+3, 2.7783126e+2, -462931.4, -327102.84, 121715.086, -0.13518368, 0.28452185, -255636.67, -38352.3, 0.0, 9.9984255, 10.000186 
2.7945456e+3, 2.8783116e+2, -467293.0, -315552.28, 78717.14, -0.109597564, 0.32306716, -282094.22, -162807.66, 0.0, 9.997878, 9.999858 
2.7944553e+3, 2.9783124e+2, -454946.8, -247421.73, 67729.62, -0.12447293, 0.38833404, -227273.16, -205985.34, 0.0, 9.997242, 9.99996 
2.7943656e+3, 3.078306e+2, -378073.72, -97492.49, 61781.57, -0.11280864, 0.32281438, -84491.17, -84491.17, 0.0, 9.997047, 10.0007515 
2.794274e+3, 3.178308e+2, -420105.5, -61651.145, -53359.082, -0.13324645, 0.32273468, -53876.793, -53876.793, 0.0, 9.996517, 10.001253 
2.805986e+3, 1.2794428e+2, -1176253.9, -1692730.6, 46714.996, 0.045963373, 0.3673957, -1172062.6, 514119.97, 0.00004135459, 10.004731, 9.997871 
2.805894e+3, 1.3794185e+2, -1164093.9, -1632735.5, 33680.723, 0.0019414763, 0.38072285, -1161685.6, 426522.25, 0.000013419498, 10.004127, 9.997902 
2.8058028e+3, 1.4793961e+2, -1121894.9, -1525513.4, 67196.164, -0.006096973, 0.39286208, -1111001.8, 379228.88, 0.000001926778, 10.003596, 9.998216 
2.8057122e+3, 1.5793751e+2, -1094200.9, -1461226.4, 74634.055, 0.028296215, 0.40443915, -1079604.6, 312647.16, 0.000000061834285, 10.003114, 9.998217 
2.8056213e+3, 1.679355e+2, -1048183.94, -1362027.9, 108204.73, 0.023626477, 0.41385165, -1014494.3, 279778.1, 0.0, 10.00265, 9.998445 
2.8055307e+3, 1.779336e+2, -1007478.4, -1279671.5, 118262.555, -0.0023586496, 0.42317137, -963274.3, 233017.86, 0.0, 10.002206, 9.998551 
2.80544e+3, 1.8793216e+2, -931350.25, -1136651.6, 126312.6, -0.019538593, 0.4367418, -871237.2, 227069.88, 0.0, 10.00182, 9.999044 
2.80535e+3, 1.9793087e+2, -882513.8, -1058127.0, 116458.63, -0.030272616, 0.44795388, -824469.06, 175850.7, 0.0, 10.001464, 9.999083 
2.80526e+3, 2.0792936e+2, -811612.56, -939372.6, 136943.14, -0.027222225, 0.41282725, -724383.1, 177949.64, 0.0, 10.001134, 9.999383 
2.805171e+3, 2.1792781e+2, -760864.56, -862949.56, 150583.78, -0.02183969, 0.36518043, -652907.6, 151437.5, 0.0, 10.000804, 9.999394 
2.8050813e+3, 2.2792695e+2, -713450.5, -759275.0, 153029.64, -0.04213688, 0.3681567, -581627.4, 124725.914, 0.0, 10.000326, 9.999663 
2.8049916e+3, 2.3792636e+2, -690215.44, -696139.1, 147973.86, -0.067620516, 0.3868672, -545173.8, 63185.637, 0.0, 9.999808, 9.999674 
2.8049022e+3, 2.4792568e+2, -617441.06, -580783.75, 145224.7, -0.063683316, 0.3814757, -452735.66, 57629.633, 0.0, 9.999507, 9.999937 
2.8048128e+3, 2.5792506e+2, -549769.2, -489264.4, 153336.7, -0.0584727, 0.3678858, -363224.25, 49146.063, 0.0, 9.999264, 10.0000105 
2.8047228e+3, 2.6792458e+2, -486848.88, -360853.13, 136589.42, -0.104653046, 0.3403843, -273433.56, 40939.2, 0.0, 9.9988165, 10.000436 
2.804633e+3, 2.7792427e+2, -481799.28, -338390.28, 125250.42, -0.14389478, 0.3088173, -265771.5, -49397.355, 0.0, 9.99831, 10.000161 
2.804543e+3, 2.8792393e+2, -453304.53, -319989.53, 96311.12, -0.10159905, 0.33219755, -269518.66, -151139.86, 0.0, 9.998027, 9.999754 
2.8044528e+3, 2.9792374e+2, -377753.88, -206200.19, 112840.6, -0.101571396, 0.37947097, -150235.48, -129852.48, 0.0, 9.997757, 9.999992 
2.804362e+3, 3.0792388e+2, -340469.38, -41882.504, 93838.04, -0.14026801, 0.37229234, -14840.724, -14840.724, 0.0, 9.997147, 10.001084 
2.8042698e+3, 3.1792384e+2, -398166.6, -82460.766, -61156.24, -0.19698393, 0.32458025, -71028.05, -71028.05, 0.0, 9.996807, 10.000968 
2.81599e+3, 1.2803693e+2, -1201429.1, -1733090.1, 21488.557, 0.010686091, 0.36852545, -1200562.0, 484713.22, 0.000009407355, 10.00468, 9.99762 
2.815898e+3, 1.3803473e+2, -1177046.4, -1648813.6, 13557.611, 0.04243828, 0.42648056, -1176657.1, 410642.88, 0.0000021889277, 10.004079, 9.997815 
2.8158063e+3, 1.4803258e+2, -1108037.0, -1489182.4, 50872.754, 0.02872558, 0.43285516, -1101363.6, 387957.9, 0.00000016251443, 10.00356, 9.998484 
2.8157148e+3, 1.5803052e+2, -1076415.4, -1419315.6, 58234.313, 0.030402938, 0.42146432, -1066795.5, 324546.06, 0.0000000005064632, 10.00309, 9.998517 
2.8156236e+3, 1.680286e+2, -1026052.44, -1313797.3, 91887.22, 0.009115194, 0.4055457, -999213.0, 294147.4, 0.0, 10.002638, 9.998783 
2.815532e+3, 1.780268e+2, -997228.6, -1258283.9, 101994.04, -0.025626881, 0.3919205, -962105.3, 233273.08, 0.0, 10.002203, 9.998701 
2.8154418e+3, 1.8802543e+2, -955687.2, -1186562.4, 113132.53, -0.017010888, 0.43230784, -909493.06, 187900.36, 0.0, 10.001815, 9.998706 
2.8153515e+3, 1.9802426e+2, -892863.2, -1078103.3, 104863.17, 0.0064504216, 0.484144, -845573.44, 153833.52, 0.0, 10.001454, 9.998951 
2.8152612e+3, 2.0802282e+2, -789038.7, -892263.06, 125599.31, -0.009772082, 0.44061112, -704860.56, 196558.0, 0.0, 10.00113, 9.999709 
2.8151712e+3, 2.1802136e+2, -748720.56, -838000.94, 136254.05, -0.038694352, 0.3706595, -649980.44, 153448.58, 0.0, 10.000802, 9.999567 
2.8150812e+3, 2.2802053e+2, -727846.2, -789621.94, 133027.05, -0.035941184, 0.38508576, -622168.1, 83268.97, 0.0, 10.000326, 9.999456 
2.8149915e+3, 2.3801994e+2, -696452.06, -709898.7, 131527.64, -0.023401432, 0.42296243, -571476.0, 35968.01, 0.0, 9.999809, 9.999579 
2.8149015e+3, 2.4801907e+2, -606842.44, -560181.94, 136836.34, -0.046829894, 0.391176, -444701.25, 64750.117, 0.0, 9.999511, 10.000079 
2.8148115e+3, 2.5801823e+2, -547240.75, -485994.97, 141666.22, -0.08669201, 0.34218398, -371679.7, 39778.17, 0.0, 9.9992695, 10.000032 
2.8147212e+3, 2.6801807e+2, -507437.53, -403796.5, 116476.54, -0.116030216, 0.36236024, -328133.1, -14674.658, 0.0, 9.998816, 10.000143 
2.8146312e+3, 2.780181e+2, -490863.44, -355096.47, 108672.02, -0.12224612, 0.39598534, -294848.1, -79390.5, 0.0, 9.998299, 10.000053 
2.8145412e+3, 2.8801715e+2, -430161.06, -272504.06, 88898.68, -0.06641247, 0.34089005, -232517.97, -115050.75, 0.0, 9.998026, 10.000082 
2.8144506e+3, 2.980162e+2, -357928.06, -170672.0, 99646.69, -0.05590774, 0.28117177, -127567.92, -108090.945, 0.0, 9.997778, 10.000229 
2.8143573e+3, 3.0801812e+2, -355434.94, -70580.46, 66329.45, -0.26265842, 0.45241266, -55892.727, -55892.727, 0.0, 9.997133, 10.000895 
2.814267e+3, 3.1801745e+2, -372210.5, -34637.508, -10851.743, -0.11878555, 0.35333434, -34289.023, -34289.023, 0.0, 9.996823, 10.001294 
2.825994e+3, 1.2812987e+2, -1305064.6, -1738466.9, 9046.498, 0.018908875, 0.3964212, -1304875.9, 379490.8, 0.000000966965, 10.0037775, 9.998016 
2.8259015e+3, 1.3812785e+2, -1250067.5, -1645975.0, 35792.793, 0.0464017, 0.4363011, -1246857.5, 339530.8, 0.000000116965474, 10.003416, 9.998153 
2.825809e+3, 1.4812587e+2, -1184956.9, -1505419.0, 78873.305, 0.028994208, 0.43504474, -1166596.3, 321811.94, 0.0000000014119189, 10.002947, 9.998666 
2.825717e+3, 1.5812394e+2, -1152548.0, -1435709.0, 81666.03, 0.027156116, 0.42011395, -1130683.3, 259743.52, 0.0, 10.002482, 9.998695 
2.8256255e+3, 1.6812226e+2, -1081976.0, -1325408.9, 107984.195, 0.012717855, 0.41473213, -1040979.56, 251463.73, 0.0, 10.002192, 9.998918 
2.825534e+3, 1.7812072e+2, -1024837.75, -1257789.1, 106207.875, -0.0121231675, 0.41401768, -983685.06, 210773.72, 0.0, 10.001957, 9.998821 
2.825443e+3, 1.8811935e+2, -982885.0, -1192699.4, 132264.03, -0.0079255765, 0.44531733, -918974.9, 177498.97, 0.0, 10.001602, 9.998764 
2.8253525e+3, 1.9811808e+2, -924937.6, -1088198.8, 149282.11, 0.007251878, 0.48343322, -836425.06, 162063.06, 0.0, 10.001216, 9.998995 
2.825262e+3, 2.0811667e+2, -821959.56, -910621.2, 160058.02, -0.0057744617, 0.44465008, -700206.7, 200292.88, 0.0, 10.000918, 9.999683 
2.8251714e+3, 2.1811529e+2, -772227.1, -850242.4, 146274.31, -0.028645525, 0.38452578, -659848.6, 142661.03, 0.0, 10.0006485, 9.999557 
2.825081e+3, 2.2811447e+2, -726799.7, -789065.44, 144203.13, -0.029851733, 0.40081134, -610407.0, 94110.766, 0.0, 10.000337, 9.999453 
2.824991e+3, 2.3811387e+2, -668590.06, -696325.56, 157539.58, -0.022378761, 0.43808314, -524309.06, 82215.84, 0.0, 10.000004, 9.9995775 
2.8249007e+3, 2.4811295e+2, -590929.8, -554913.56, 159244.73, -0.04317705, 0.4043327, -412661.97, 95870.516, 0.0, 9.999633, 10.000054 
2.8248104e+3, 2.5811204e+2, -554500.1, -494763.38, 150987.0, -0.080146775, 0.3525877, -370718.8, 39820.61, 0.0, 9.999246, 9.999982 
2.8247198e+3, 2.6811182e+2, -499505.6, -414554.75, 129050.734, -0.11349365, 0.37926093, -321169.03, -8628.072, 0.0, 9.998936, 10.00001 
2.8246292e+3, 2.7811185e+2, -445695.16, -339060.38, 133320.2, -0.12274246, 0.42357296, -248791.5, -34250.414, 0.0, 9.998637, 9.999999 
2.824539e+3, 2.8811088e+2, -382258.34, -238490.89, 106161.836, -0.057472456, 0.3611383, -182165.39, -65614.63, 0.0, 9.998311, 10.000176 
2.8244483e+3, 2.9810986e+2, -324654.3, -147195.27, 94425.555, -0.037918072, 0.28739116, -106351.98, -87791.58, 0.0, 9.997978, 10.000291 
2.824354e+3, 3.0811194e+2, -291569.0, -49181.69, 51856.223, -0.31412008, 0.47764453, -38553.613, -38553.613, 0.0, 9.997617, 10.000806 
2.8242642e+3, 3.1811082e+2, -317796.53, -14050.072, 25145.996, -0.053363234, 0.33986068, -11982.407, -11982.407, 0.0, 9.997225, 10.001239 
2.8359976e+3, 1.2822308e+2, -1250642.5, -1619181.5, 1057.3871, 0.057214264, 0.44126186, -1250639.5, 432816.72, 0.000000016734337, 10.003748, 9.998851 
2.8359044e+3, 1.3822128e+2, -1215107.5, -1560362.8, 21755.89, 0.019782383, 0.4217561, -1213741.9, 371731.13, 0.00000000000042985277, 10.003358, 9.99877 
2.8358114e+3, 1.4821948e+2, -1182728.1, -1493530.6, 61333.11, 0.0016271237, 0.41134778, -1171062.6, 316427.97, 0.0, 10.002913, 9.998765 
2.835719e+3, 1.5821774e+2, -1147997.5, -1425972.4, 67441.64, 0.02004295, 0.40595117, -1132499.1, 257008.67, 0.0, 10.00248, 9.998765 
2.8356275e+3, 1.6821647e+2, -1085201.6, -1330780.8, 100124.85, 0.03157949, 0.4382788, -1049554.3, 241967.3, 0.0, 10.002183, 9.998885 
2.835536e+3, 1.782153e+2, -1020369.25, -1244416.9, 96642.22, 0.031350296, 0.47869405, -984443.56, 209090.56, 0.0, 10.001938, 9.998923 
2.8354442e+3, 1.8821384e+2, -957017.9, -1138091.3, 117731.016, 0.0050690835, 0.47152135, -899036.94, 196511.88, 0.0, 10.001596, 9.999143 
2.835353e+3, 1.9821233e+2, -912253.7, -1064085.3, 135681.67, -0.023954555, 0.4502022, -832693.7, 164870.02, 0.0, 10.001224, 9.999158 
2.8352624e+3, 2.082109e+2, -845819.7, -961448.1, 149812.13, -0.013077916, 0.42807078, -743053.2, 156522.75, 0.0, 10.000922, 9.999334 
2.835172e+3, 2.182096e+2, -784876.7, -876395.8, 135953.03, 0.0049574478, 0.4067956, -687188.8, 114398.12, 0.0, 10.000646, 9.999379 
2.835081e+3, 2.2820875e+2, -714063.3, -763526.4, 132059.27, -0.02547656, 0.41526827, -604439.75, 99155.4, 0.0, 10.000339, 9.999629 
2.83499e+3, 2.3820812e+2, -663857.56, -687253.06, 144722.38, -0.06428381, 0.43228915, -530360.94, 75241.14, 0.0, 10.000005, 9.99964 
2.8349e+3, 2.4820732e+2, -605031.06, -584852.06, 144466.05, -0.05170827, 0.4217282, -450123.63, 57485.05, 0.0, 9.999634, 9.999849 
2.8348094e+3, 2.5820652e+2, -563491.1, -513857.16, 137178.77, -0.0364955, 0.4018335, -399268.63, 10346.186, 0.0, 9.999245, 9.999852 
2.8347185e+3, 2.682059e+2, -496954.06, -410191.7, 118381.85, -0.097146034, 0.38847023, -327492.78, -15872.307, 0.0, 9.998937, 10.00004 
2.834627e+3, 2.7820542e+2, -445889.47, -342179.03, 122075.71, -0.15256055, 0.37995142, -261401.5, -47776.14, 0.0, 9.998647, 9.999974 
2.8345367e+3, 2.8820512e+2, -396022.94, -268338.1, 92994.04, -0.08040224, 0.40011898, -219380.92, -103752.055, 0.0, 9.998315, 9.99997 
2.8344455e+3, 2.9820496e+2, -336451.66, -170412.3, 80219.055, -0.048139192, 0.4299958, -137987.78, -120356.73, 0.0, 9.997971, 10.000136 
2.8343514e+3, 3.0820495e+2, -288944.47, -46463.87, 36260.004, -0.27597103, 0.41619155, -41157.746, -41157.746, 0.0, 9.997625, 10.000822 
2.8342605e+3, 3.1820458e+2, -370069.25, -120177.336, 4728.5483, -0.08851116, 0.3664571, -120087.89, -120087.89, 0.0, 9.997216, 10.000514 
2.8460005e+3, 1.2831688e+2, -1331203.4, -1639572.3, 42861.625, 0.055897642, 0.43701783, -1325356.6, 357181.16, 0.0, 10.003117, 9.999014 
2.8459066e+3, 1.3831541e+2, -1343777.8, -1601237.6, 31266.725, 0.022959786, 0.43459812, -1340035.0, 244516.72, 0.0, 10.002384, 9.998958 
2.8458133e+3, 1.483138e+2, -1275284.1, -1517126.1, 76244.7, 0.008861888, 0.42605758, -1253253.6, 233313.58, 0.0, 10.00219, 9.998951 
2.8457212e+3, 1.5831223e+2, -1185159.3, -1427711.1, 86415.15, 0.032708224, 0.4186006, -1157521.0, 231061.63, 0.0, 10.002157, 9.998907 
2.8456292e+3, 1.6831097e+2, -1133614.4, -1349792.8, 120086.836, 0.041293085, 0.44733876, -1080135.9, 210460.44, 0.0, 10.001837, 9.9989195 
2.8455374e+3, 1.7830981e+2, -1086638.9, -1268662.3, 121285.39, 0.035689764, 0.48460442, -1026015.25, 166593.84, 0.0, 10.001453, 9.998988 
2.8454453e+3, 1.8830845e+2, -987452.7, -1141448.6, 132398.7, 0.0063264766, 0.4775758, -911290.25, 183332.4, 0.0, 10.001342, 9.999241 
2.8453538e+3, 1.9830701e+2, -896370.3, -1047682.44, 131672.3, -0.02511502, 0.45588604, -820166.44, 176469.8, 0.0, 10.001297, 9.999233 
2.845263e+3, 2.0830563e+2, -840534.4, -959012.06, 155077.33, -0.016185522, 0.43544355, -733766.5, 164881.73, 0.0, 10.000962, 9.99933 
2.845172e+3, 2.1830434e+2, -799458.6, -884117.56, 164836.84, 0.0010800152, 0.4179744, -671602.94, 129056.43, 0.0, 10.000552, 9.999369 
2.845081e+3, 2.2830345e+2, -714687.6, -768387.7, 156785.16, -0.027802998, 0.4242229, -582470.0, 120198.17, 0.0, 10.000357, 9.999585 
2.8449896e+3, 2.3830271e+2, -637201.3, -677839.94, 152732.25, -0.065297276, 0.4364723, -503442.7, 101233.16, 0.0, 10.000205, 9.999607 
2.8448993e+3, 2.4830191e+2, -576939.06, -575643.6, 153462.25, -0.05231609, 0.43001837, -422827.72, 83854.61, 0.0, 9.999848, 9.999808 
2.8448087e+3, 2.5830114e+2, -541853.44, -509610.4, 157954.9, -0.03446446, 0.41742504, -366956.44, 41731.832, 0.0, 9.999424, 9.999793 
2.844717e+3, 2.683003e+2, -485753.7, -415932.97, 136237.63, -0.08843832, 0.39079326, -310204.0, 492.39294, 0.0, 9.999064, 9.999938 
2.8446254e+3, 2.782995e+2, -439613.75, -346441.7, 129993.43, -0.13876724, 0.3648193, -254938.8, -42234.496, 0.0, 9.998723, 9.9999075 
2.8445348e+3, 2.882996e+2, -378143.9, -263039.25, 109605.36, -0.08810753, 0.42609137, -196794.95, -82090.71, 0.0, 9.998455, 9.999938 
2.844443e+3, 2.9829988e+2, -300012.34, -157327.48, 112200.83, -0.080694936, 0.50288415, -95708.39, -79006.15, 0.0, 9.998244, 10.0000925 
2.8443494e+3, 3.0829835e+2, -180628.5, -4290.1606, 71619.086, -0.22326763, 0.3448806, 21132.463, 21132.463, 0.0, 9.998416, 10.00073 
2.8442577e+3, 3.1829926e+2, -229069.47, -152009.05, 19823.0, -0.12688932, 0.44318137, -147208.8, -147208.8, 0.0, 9.998617, 9.999619 
2.856003e+3, 1.2841116e+2, -1363708.8, -1689868.1, 14087.413, 0.023774385, 0.4022284, -1363101.4, 318511.94, 0.0, 10.003041, 9.998705 
2.855909e+3, 1.3841009e+2, -1347309.0, -1615398.4, 14362.301, 0.050824538, 0.46783683, -1346541.8, 237083.8, 0.0, 10.002413, 9.998847 
2.8558153e+3, 1.4840873e+2, -1254810.5, -1479654.6, 77063.79, 0.043198794, 0.46841845, -1230933.0, 254705.86, 0.0, 10.00221, 9.9992 
2.8557232e+3, 1.5840729e+2, -1174055.4, -1400904.5, 80990.516, 0.058447246, 0.45051593, -1148107.8, 239544.7, 0.0, 10.00214, 9.999101 
2.8556305e+3, 1.6840577e+2, -1129005.9, -1339517.5, 104724.75, 0.041275237, 0.4442722, -1085782.5, 203885.34, 0.0, 10.001832, 9.998993 
2.855538e+3, 1.7840433e+2, -1083262.4, -1265827.0, 110965.47, 0.0072349855, 0.44379154, -1030858.2, 160825.03, 0.0, 10.00147, 9.999001 
2.8554463e+3, 1.8840317e+2, -996738.9, -1162462.9, 131942.3, -0.0013202517, 0.46858153, -923796.9, 169898.22, 0.0, 10.001348, 9.999095 
2.8553548e+3, 1.984021e+2, -897193.6, -1047343.4, 126707.734, -0.00064206455, 0.49567333, -824989.56, 170716.27, 0.0, 10.0012865, 9.999242 
2.8552634e+3, 2.0840082e+2, -820322.06, -916672.8, 139220.2, -0.01673397, 0.4633772, -721177.6, 176538.98, 0.0, 10.000958, 9.999623 
2.855172e+3, 2.1839952e+2, -790700.2, -867010.0, 152426.5, -0.03746821, 0.4183497, -671725.75, 128001.414, 0.0, 10.000556, 9.999486 
2.8550807e+3, 2.2839853e+2, -732484.8, -806598.94, 151497.25, -0.035478283, 0.42803824, -613578.3, 88158.71, 0.0, 10.0003605, 9.999322 
2.85499e+3, 2.3839764e+2, -645626.2, -696348.3, 144176.3, -0.0271702, 0.45018327, -524597.4, 79148.914, 0.0, 10.000208, 9.99948 
2.8548986e+3, 2.4839672e+2, -568273.5, -558661.8, 137339.5, -0.04652559, 0.42845446, -426044.1, 79709.37, 0.0, 9.99985, 9.999925 
2.854807e+3, 2.5839588e+2, -541727.7, -510469.3, 142959.34, -0.07800391, 0.39663282, -382287.34, 25472.445, 0.0, 9.999427, 9.999787 
2.854716e+3, 2.6839498e+2, -503853.94, -454081.78, 123339.84, -0.08706822, 0.38655198, -353142.44, -43373.824, 0.0, 9.999065, 9.999677 
2.8546244e+3, 2.7839422e+2, -447850.28, -363432.63, 117361.97, -0.07341092, 0.3843435, -280920.1, -69142.766, 0.0, 9.99872, 9.999793 
2.8545326e+3, 2.8839424e+2, -367113.03, -239555.5, 101203.22, -0.07839146, 0.4337505, -183710.61, -69933.55, 0.0, 9.99845, 10.000103 
2.8544402e+3, 2.983944e+2, -294307.78, -146780.69, 111428.45, -0.14503632, 0.48351738, -86912.8, -71137.49, 0.0, 9.998248, 10.000164 
2.854348e+3, 3.0839217e+2, -191123.0, -35122.816, 84949.52, -0.1531898, 0.26734394, 2204.6086, 2204.6086, 0.0, 9.998453, 10.000501 
2.8542557e+3, 3.1839442e+2, -294243.6, -305392.75, 19521.389, -0.16592805, 0.5351908, -279516.44, -279516.44, 0.0, 9.998692, 9.998531 
2.866005e+3, 1.2850618e+2, -1499837.8, -1742858.3, 28384.314, 0.0341861, 0.4112982, -1496566.6, 184116.05, 0.0, 10.002052, 9.998818 
2.8659105e+3, 1.3850519e+2, -1363299.1, -1615626.8, 49934.188, 0.04779961, 0.47598603, -1353776.8, 228917.52, 0.0, 10.002272, 9.998912 
2.8658172e+3, 1.4850383e+2, -1286845.1, -1500631.0, 101356.47, 0.044369157, 0.47854397, -1246431.5, 238276.56, 0.0, 10.002016, 9.999147 
2.8657246e+3, 1.5850237e+2, -1244664.5, -1433361.3, 88784.91, 0.06740225, 0.4632958, -1209458.4, 177263.89, 0.0, 10.001651, 9.999112 
2.865632e+3, 1.6850096e+2, -1162304.3, -1343223.4, 111256.03, 0.044771057, 0.46005705, -1109373.3, 179363.14, 0.0, 10.001553, 9.999102 
2.8655392e+3, 1.7849962e+2, -1069069.9, -1247905.3, 119757.17, 0.0025980433, 0.4609873, -1009030.9, 181719.53, 0.0, 10.001521, 9.999099 
2.865447e+3, 1.8849845e+2, -1006628.5, -1159849.8, 151089.86, -0.0035225556, 0.4771408, -913836.25, 178925.89, 0.0, 10.00125, 9.999159 
2.8653556e+3, 1.9849735e+2, -948216.8, -1068522.8, 157378.55, 0.0022646508, 0.49565881, -839887.2, 154885.81, 0.0, 10.000926, 9.999269 
2.8652638e+3, 2.0849612e+2, -849957.1, -938240.0, 151648.45, -0.01711909, 0.47267535, -736156.44, 160627.34, 0.0, 10.00079, 9.999555 
2.865172e+3, 2.1849488e+2, -771189.8, -858755.8, 142770.36, -0.04296862, 0.439639, -665639.9, 133154.4, 0.0, 10.000697, 9.999473 
2.8650808e+3, 2.2849384e+2, -712535.5, -789506.3, 155549.77, -0.035796523, 0.44005635, -590780.9, 110023.2, 0.0, 10.000468, 9.999386 
2.8649896e+3, 2.3849286e+2, -645882.4, -694851.2, 168594.3, -0.01906864, 0.44884825, -500003.88, 102809.62, 0.0, 10.000203, 9.999491 
2.864898e+3, 2.4849191e+2, -559358.1, -568931.3, 148088.48, -0.04513803, 0.43124363, -415978.88, 88842.59, 0.0, 9.999977, 9.999792 
2.864806e+3, 2.5849098e+2, -507075.6, -505990.34, 135412.1, -0.08763609, 0.4072091, -371119.78, 35709.223, 0.0, 9.999719, 9.999677 
2.8647146e+3, 2.6849008e+2, -475961.25, -449052.6, 120789.195, -0.08848058, 0.40072793, -340970.72, -32132.426, 0.0, 9.999295, 9.999599 
2.8646228e+3, 2.7848926e+2, -436339.06, -361563.16, 129231.42, -0.060709316, 0.40217617, -264420.0, -53572.816, 0.0, 9.998819, 9.999756 
2.8645307e+3, 2.8848916e+2, -335646.72, -223732.73, 115154.42, -0.08543332, 0.43873313, -151659.55, -38811.152, 0.0, 9.998668, 10.000105 
2.864438e+3, 2.9848912e+2, -235088.27, -122654.195, 117888.4, -0.1760644, 0.4729551, -48264.84, -33416.438, 0.0, 9.998677, 10.000122 
2.8643468e+3, 3.0848724e+2, -144574.47, -39259.05, 100090.5, -0.11906538, 0.30745423, 21180.285, 21180.285, 0.0, 9.998892, 10.000258 
2.8642535e+3, 3.1848907e+2, -206250.67, -259398.81, 42558.734, -0.20292795, 0.55447805, -182650.78, -182650.78, 0.0, 9.999284, 9.99856 
2.876007e+3, 1.2860173e+2, -1467756.1, -1681907.6, 35678.55, 0.07294545, 0.44855115, -1461968.4, 217778.88, 0.0, 10.002076, 9.999226 
2.8759125e+3, 1.3860065e+2, -1355510.3, -1592678.9, 48254.703, 0.019298991, 0.46573558, -1346068.3, 235690.58, 0.0, 10.002241, 9.999085 
2.8758186e+3, 1.4859912e+2, -1309731.0, -1543534.4, 85157.28, 0.019526673, 0.46566904, -1282002.9, 201771.84, 0.0, 10.001995, 9.998863 
2.875726e+3, 1.5859751e+2, -1253356.4, -1452310.6, 79615.18, 0.063559875, 0.46304363, -1225419.8, 160371.53, 0.0, 10.001654, 9.9989805 
2.875633e+3, 1.6859649e+2, -1154132.1, -1325602.3, 111403.03, 0.05171843, 0.4918044, -1099292.9, 188509.23, 0.0, 10.001548, 9.999226 
2.8755403e+3, 1.785956e+2, -1060327.4, -1225517.8, 115548.28, 0.017143436, 0.5243533, -1000889.56, 188922.02, 0.0, 10.001501, 9.999263 
2.875448e+3, 1.8859422e+2, -991278.94, -1126551.0, 138127.61, -0.0021510136, 0.49852103, -905116.9, 186707.55, 0.0, 10.001243, 9.999392 
2.875356e+3, 1.9859275e+2, -946085.5, -1065833.9, 147654.27, -0.013843797, 0.46095642, -846627.7, 147210.17, 0.0, 10.000932, 9.999285 
2.8752643e+3, 2.0859154e+2, -877179.2, -996394.1, 148609.36, -0.016816048, 0.46670026, -776668.6, 119181.055, 0.0, 10.000795, 9.999154 
2.8751725e+3, 2.1859042e+2, -779453.6, -876271.06, 137801.19, -0.019513655, 0.48066762, -681805.6, 116055.1, 0.0, 10.000697, 9.999353 
2.875081e+3, 2.2858937e+2, -686200.8, -735460.06, 145650.84, -0.03023341, 0.45934615, -563111.8, 136757.6, 0.0, 10.000469, 9.999758 
2.8749895e+3, 2.3858838e+2, -637287.2, -677468.8, 159639.25, -0.040425397, 0.4323454, -496479.47, 105397.94, 0.0, 10.000203, 9.999611 
2.8748977e+3, 2.4858743e+2, -587422.3, -627988.4, 138964.22, -0.047500376, 0.43908635, -467268.7, 36617.79, 0.0, 9.999979, 9.999387 
2.8748056e+3, 2.5858653e+2, -521453.9, -537648.1, 122913.63, -0.06231085, 0.45143804, -406370.97, -475.0052, 0.0, 9.999725, 9.999457 
2.8747132e+3, 2.685855e+2, -466980.97, -431529.16, 101967.7, -0.09472643, 0.43531448, -345758.1, -37852.734, 0.0, 9.999298, 9.99972 
2.874621e+3, 2.785846e+2, -434135.53, -358279.8, 114996.875, -0.11152603, 0.41668084, -275117.63, -65203.69, 0.0, 9.998822, 9.999779 
2.8745288e+3, 2.8858423e+2, -348995.94, -252983.56, 115177.29, -0.11359568, 0.43982768, -176208.33, -64289.63, 0.0, 9.998673, 9.999902 
2.8744364e+3, 2.9858407e+2, -246111.61, -148046.42, 119348.54, -0.16649961, 0.4773061, -68050.836, -54128.992, 0.0, 9.998688, 9.999942 
2.874345e+3, 3.0858397e+2, -164159.03, -78515.8, 110518.54, -0.13156284, 0.5149278, -2812.9927, -2812.9927, 0.0, 9.998888, 9.99999 
2.8742525e+3, 3.1858242e+2, -91991.82, -25036.764, 63419.59, -0.20417489, 0.41945675, 13198.95, 13198.95, 0.0, 9.999292, 10.000168 
2.8860086e+3, 1.2869698e+2, -1499402.9, -1681788.5, 27888.443, 0.063455075, 0.46886346, -1495233.9, 183581.55, 0.0, 10.001792, 9.999363 
2.8859138e+3, 1.3869599e+2, -1446082.0, -1621109.9, 24843.45, 0.026400652, 0.4811147, -1442624.0, 138201.73, 0.0, 10.0015545, 9.99922 
2.88582e+3, 1.4869455e+2, -1381359.5, -1566764.0, 72316.984, 0.020931074, 0.47860926, -1356488.6, 126352.08, 0.0, 10.001456, 9.998962 
2.8857267e+3, 1.5869305e+2, -1283693.4, -1454903.0, 88935.7, 0.05434399, 0.47496995, -1245857.0, 138999.39, 0.0, 10.001394, 9.999087 
2.8856337e+3, 1.6869208e+2, -1197021.3, -1333917.3, 125826.03, 0.048726425, 0.49982455, -1122230.5, 164635.8, 0.0, 10.001201, 9.999335 
2.8855413e+3, 1.7869124e+2, -1129515.3, -1248254.3, 128840.72, 0.024554648, 0.5286425, -1047023.3, 141851.61, 0.0, 10.000982, 9.999355 
2.8854486e+3, 1.8868998e+2, -1031014.3, -1139327.6, 141134.7, 0.006718531, 0.5069271, -934002.4, 156884.39, 0.0, 10.000943, 9.999447 
2.8853565e+3, 1.9868861e+2, -941345.94, -1058439.4, 141234.94, -0.006065236, 0.47412592, -847003.75, 145895.58, 0.0, 10.000942, 9.9993305 
2.8852648e+3, 2.0868745e+2, -875995.3, -992618.1, 163083.73, -0.01096832, 0.48178926, -761111.7, 133799.2, 0.0, 10.000791, 9.999182 
2.885173e+3, 2.1868636e+2, -790723.5, -876722.06, 178190.34, -0.015374843, 0.49768993, -650417.75, 146504.13, 0.0, 10.000601, 9.999396 
2.8850812e+3, 2.2868533e+2, -687113.3, -728384.7, 171844.61, -0.029952893, 0.47283936, -534669.8, 164260.5, 0.0, 10.000433, 9.999823 
2.8849894e+3, 2.3868433e+2, -628036.2, -671086.2, 165578.81, -0.04465181, 0.44107988, -482589.1, 118348.97, 0.0, 10.000261, 9.999625 
2.8848973e+3, 2.4868342e+2, -588493.6, -639753.94, 156965.77, -0.051646758, 0.4565421, -455079.25, 47868.266, 0.0, 10.000024, 9.999283 
2.8848052e+3, 2.5868252e+2, -514336.25, -537553.25, 161547.53, -0.06403636, 0.48189723, -363980.7, 40976.785, 0.0, 9.999795, 9.999421 
2.8847122e+3, 2.6868153e+2, -425291.34, -410821.56, 132896.72, -0.10458665, 0.4654631, -284962.94, 22003.615, 0.0, 9.999587, 9.99972 
2.8846192e+3, 2.7868047e+2, -379917.06, -343390.22, 135084.0, -0.1323776, 0.43952295, -225340.63, -16365.13, 0.0, 9.999248, 9.999674 
2.884527e+3, 2.886797e+2, -330228.2, -296151.84, 138050.06, -0.12625761, 0.4502771, -174092.48, -63107.254, 0.0, 9.999035, 9.999428 
2.8844348e+3, 2.9867905e+2, -213351.8, -189648.2, 126326.57, -0.16299069, 0.4889721, -74618.68, -61624.875, 0.0, 9.999167, 9.999423 
2.884344e+3, 3.0867928e+2, -103831.86, -135979.34, 88460.36, -0.113812275, 0.62574804, -29996.756, -29996.756, 0.0, 9.999679, 9.999216 
2.8842518e+3, 3.1867573e+2, 79373.945, 111859.53, 3566.373, -0.20890513, 0.3844058, 112246.445, 112246.445, 0.0, 10.000232, 10.000661 
2.8960094e+3, 1.2879206e+2, -1508423.9, -1692454.3, 16972.87, 0.02259143, 0.4789424, -1506871.6, 171013.69, 0.0, 10.001759, 9.999306 
2.8959152e+3, 1.3879128e+2, -1442320.0, -1607035.5, 18767.89, 0.058706153, 0.51519334, -1440208.6, 139685.42, 0.0, 10.001528, 9.9993305 
2.895821e+3, 1.4879012e+2, -1358176.1, -1514470.1, 70499.84, 0.040444005, 0.5102156, -1331074.9, 150830.78, 0.0, 10.001436, 9.999331 
2.8957275e+3, 1.5878884e+2, -1266760.8, -1416243.6, 84802.234, 0.040842913, 0.49530604, -1228463.8, 155454.44, 0.0, 10.001378, 9.999361 
2.8956345e+3, 1.6878772e+2, -1190684.3, -1319808.0, 116507.586, 0.037672862, 0.48792696, -1122046.1, 163883.16, 0.0, 10.001195, 9.999435 
2.8955418e+3, 1.7878667e+2, -1127000.4, -1244401.3, 123010.41, 0.025486168, 0.48550823, -1049402.3, 138537.5, 0.0, 10.000987, 9.99938 
2.8954494e+3, 1.8878575e+2, -1038234.3, -1154402.5, 141578.28, 0.021833412, 0.50657165, -943288.44, 146660.45, 0.0, 10.000942, 9.999345 
2.8953573e+3, 1.9878489e+2, -937103.0, -1047340.5, 139508.14, 0.02133028, 0.52921087, -842219.75, 149737.92, 0.0, 10.000931, 9.999413 
2.8952652e+3, 2.087838e+2, -848200.5, -933524.56, 155919.72, -0.000938912, 0.51408386, -729211.6, 164756.17, 0.0, 10.000784, 9.999592 
2.8951728e+3, 2.1878268e+2, -779476.94, -852901.9, 171291.98, -0.028614845, 0.49151668, -641007.4, 154970.56, 0.0, 10.000597, 9.999562 
2.895081e+3, 2.2878169e+2, -703900.25, -763454.5, 165437.39, -0.03445686, 0.4818999, -565581.56, 132405.38, 0.0, 10.000433, 9.999582 
2.894989e+3, 2.3878075e+2, -633656.56, -683015.8, 157459.23, -0.034157913, 0.47556064, -498954.6, 101040.95, 0.0, 10.000261, 9.999544 
2.894897e+3, 2.4877986e+2, -574447.3, -610684.5, 147504.17, -0.058756035, 0.48354897, -443953.13, 58051.434, 0.0, 10.000024, 9.999483 
2.8948042e+3, 2.5877902e+2, -504926.63, -518701.97, 155582.97, -0.09544189, 0.496957, -356078.94, 47934.35, 0.0, 9.999797, 9.99955 
2.8947112e+3, 2.687781e+2, -434373.25, -433078.94, 122236.26, -0.11806887, 0.49077916, -311488.13, -5466.4033, 0.0, 9.999598, 9.999563 
2.8946182e+3, 2.7877694e+2, -394915.06, -380186.3, 118494.33, -0.117931634, 0.4715011, -268827.72, -60795.902, 0.0, 9.999269, 9.999413 
2.8945255e+3, 2.8877547e+2, -384979.06, -408987.2, 140973.25, -0.119379535, 0.47219062, -255499.7, -145451.86, 0.0, 9.999035, 9.998651 
2.8944337e+3, 2.9877397e+2, -280496.13, -326024.16, 139189.5, -0.1707703, 0.5031541, -162221.44, -150156.48, 0.0, 9.999158, 9.998489 
2.894344e+3, 3.0877233e+2, -200501.84, -338937.2, 105056.84, -0.0596697, 0.5743455, -143910.03, -143910.03, 0.0, 9.999691, 9.997815 
2.8942513e+3, 3.1876972e+2, 3131.0715, -49743.297, 35472.492, -0.23356809, 0.5695168, 20934.395, 20934.395, 0.0, 10.000249, 9.999541 
2.9060102e+3, 1.2888715e+2, -1595968.1, -1708489.3, -640.2783, 0.012924974, 0.50683624, -1595964.5, 80991.15, 0.0, 10.001044, 9.99954 
2.905916e+3, 1.3888636e+2, -1510090.0, -1610075.0, 19801.096, 0.0687044, 0.519355, -1506311.4, 72652.18, 0.0, 10.000934, 9.999596 
2.9058218e+3, 1.488855e+2, -1413071.8, -1507498.6, 74604.55, 0.04680494, 0.51488096, -1371996.1, 108975.62, 0.0, 10.000915, 9.999631 
2.9057282e+3, 1.5888457e+2, -1321680.0, -1421182.4, 83720.29, 0.03823325, 0.50556594, -1274044.0, 108936.56, 0.0, 10.000907, 9.999555 
2.905635e+3, 1.6888352e+2, -1233750.6, -1337628.3, 107774.57, 0.032901395, 0.49845362, -1166052.5, 118938.54, 0.0, 10.000886, 9.999462 
2.9055423e+3, 1.7888248e+2, -1142011.5, -1243271.6, 111362.49, 0.021048596, 0.493721, -1070310.0, 116691.58, 0.0, 10.000846, 9.999456 
2.9054496e+3, 1.8888165e+2, -1065756.3, -1150082.5, 142819.06, 0.022827202, 0.5095056, -959006.56, 130003.055, 0.0, 10.000676, 9.999504 
2.9053578e+3, 1.988809e+2, -992678.5, -1057482.6, 155933.81, 0.028424429, 0.528126, -865815.8, 125201.2, 0.0, 10.000477, 9.999562 
2.9052654e+3, 2.0887995e+2, -896372.9, -939438.44, 160543.78, 0.0029298181, 0.51320094, -755924.25, 137101.47, 0.0, 10.000377, 9.999747 
2.9051727e+3, 2.1887901e+2, -813893.25, -854059.7, 160766.1, -0.030186638, 0.49190596, -671960.8, 123073.55, 0.0, 10.000293, 9.999701 
2.905081e+3, 2.2887823e+2, -737925.3, -765462.1, 171801.05, -0.03649296, 0.4921927, -579341.8, 117699.67, 0.0, 10.000136, 9.999712 
2.9049888e+3, 2.3887752e+2, -667177.4, -686445.94, 189494.55, -0.034653578, 0.49709365, -487072.34, 111975.99, 0.0, 9.999977, 9.999658 
2.904896e+3, 2.4887669e+2, -569702.6, -588556.25, 182098.45, -0.0633294, 0.49816564, -396787.16, 104269.54, 0.0, 9.999972, 9.999659 
2.9048035e+3, 2.588759e+2, -476836.53, -486356.47, 184515.48, -0.10675583, 0.5008209, -297019.63, 106045.04, 0.0, 9.99991, 9.999716 
2.9047102e+3, 2.6887518e+2, -452538.13, -420443.8, 158561.69, -0.12749396, 0.50082093, -277119.34, 27951.67, 0.0, 9.999386, 9.99975 
2.9046166e+3, 2.7887437e+2, -435749.53, -371863.22, 185248.6, -0.11642867, 0.49167976, -215823.92, -8745.506, 0.0, 9.9988785, 9.999652 
2.9045236e+3, 2.8887317e+2, -558187.6, -413594.9, 250874.14, -0.116684005, 0.4752296, -224807.77, -115716.96, 0.0, 9.997521, 9.99934 
2.916011e+3, 1.2898225e+2, -1573425.3, -1648435.5, -3966.2122, 0.022365903, 0.5462889, -1573216.1, 102810.234, 0.0, 10.000988, 9.999979 
2.9159164e+3, 1.3898133e+2, -1484844.4, -1556411.6, 18780.723, 0.06213415, 0.5023693, -1480215.4, 97818.42, 0.0, 10.000928, 9.999967 
2.9158223e+3, 1.4898075e+2, -1396486.8, -1471844.9, 73940.65, 0.043871757, 0.5002531, -1351178.4, 128860.18, 0.0, 10.000909, 9.99988 
2.9157287e+3, 1.5898022e+2, -1315178.4, -1403625.6, 82602.63, 0.04345138, 0.50879186, -1265706.1, 116337.164, 0.0, 10.000889, 9.999684 
2.9156354e+3, 1.6897947e+2, -1238585.5, -1344213.4, 106380.83, 0.032646965, 0.52766746, -1172630.0, 111421.71, 0.0, 10.00087, 9.999426 
2.9155424e+3, 1.7897862e+2, -1135451.6, -1226305.0, 108473.43, 0.011748155, 0.54348963, -1063277.0, 122783.89, 0.0, 10.000831, 9.999581 
2.91545e+3, 1.8897763e+2, -1040027.7, -1095364.3, 134687.53, 0.011802353, 0.5131102, -930195.9, 157873.44, 0.0, 10.000669, 9.999884 
2.9153576e+3, 1.9897667e+2, -978903.75, -1029283.75, 149637.55, 0.0182903, 0.47755045, -852350.75, 137726.44, 0.0, 10.000478, 9.999756 
2.9152653e+3, 2.0897596e+2, -901654.75, -950621.6, 157297.2, 0.0013882058, 0.48436335, -766946.94, 125137.52, 0.0, 10.000377, 9.999672 
2.915173e+3, 2.1897534e+2, -805330.4, -835782.8, 156560.39, -0.022868479, 0.49954522, -663257.5, 130833.39, 0.0, 10.00029, 9.999829 
2.9150805e+3, 2.2897497e+2, -703781.44, -694807.56, 164894.39, -0.036899354, 0.5031088, -534339.06, 161754.95, 0.0, 10.000136, 10.000197 
2.9149884e+3, 2.3897466e+2, -646440.8, -644130.1, 186341.28, -0.045399398, 0.5044037, -458940.6, 139155.86, 0.0, 9.999979, 9.999948 
2.9148957e+3, 2.4897394e+2, -559344.0, -568378.4, 182604.9, -0.06488386, 0.49960515, -381200.4, 118903.47, 0.0, 9.999976, 9.999797 
2.914803e+3, 2.589732e+2, -461899.94, -457610.4, 172991.3, -0.098745435, 0.49262592, -286750.56, 115360.89, 0.0, 9.999918, 9.99991 
2.914709e+3, 2.6897287e+2, -417001.8, -345205.25, 135164.9, -0.1345176, 0.49424097, -241252.77, 62861.42, 0.0, 9.999379, 10.00027 
2.914615e+3, 2.7897274e+2, -385395.06, -263860.66, 174125.81, -0.13553827, 0.49822044, -140203.22, 65911.49, 0.0, 9.998863, 10.0004015 
2.9145208e+3, 2.889728e+2, -403412.0, -99736.76, 156932.56, -0.11629117, 0.455842, -33211.17, 74901.57, 0.0, 9.997535, 10.001499 
2.926011e+3, 1.290772e+2, -1672243.6, -1664690.0, 14212.947, 0.034438957, 0.55152124, -1653760.6, 21335.88, 0.0, 10.000173, 10.000261 
2.9259166e+3, 1.3907652e+2, -1522890.9, -1552138.4, 24224.945, 0.060256228, 0.505401, -1509218.0, 67883.055, 0.0, 10.000567, 10.000171 
2.9258224e+3, 1.4907612e+2, -1443272.8, -1485849.4, 61500.363, 0.040168267, 0.507861, -1399480.4, 79623.87, 0.0, 10.000548, 9.999958 
2.925729e+3, 1.5907575e+2, -1375705.3, -1421015.4, 63651.223, 0.041874595, 0.52222997, -1330797.6, 50310.39, 0.0, 10.00042, 9.999792 
2.925636e+3, 1.6907504e+2, -1295805.9, -1353426.4, 96740.85, 0.028880408, 0.53367794, -1223676.4, 59439.08, 0.0, 10.000394, 9.999593 
2.9255426e+3, 1.7907427e+2, -1190358.1, -1235576.1, 109068.62, 0.0065235207, 0.5410841, -1101579.9, 83543.84, 0.0, 10.000376, 9.999739 
2.92545e+3, 1.8907346e+2, -1073184.9, -1094747.1, 123043.3, 0.013481824, 0.5116561, -960451.25, 126679.266, 0.0, 10.000366, 10.000034 
2.9253575e+3, 1.9907266e+2, -986613.56, -1014054.75, 125136.68, 0.026333774, 0.47698098, -874447.5, 114689.164, 0.0, 10.0003395, 9.999928 
2.925265e+3, 2.0907213e+2, -919868.75, -935678.3, 144819.1, 0.0037624964, 0.48108143, -782738.9, 108403.17, 0.0, 10.000146, 9.9998865 
2.9251727e+3, 2.190717e+2, -845460.6, -837160.44, 163331.45, -0.02682652, 0.4950882, -677926.4, 115220.08, 0.0, 9.999934, 9.999992 
2.92508e+3, 2.2907153e+2, -722088.06, -688856.25, 156215.3, -0.042362925, 0.5045727, -548375.7, 146772.48, 0.0, 9.999944, 10.000333 
2.9249877e+3, 2.3907141e+2, -634633.6, -615400.44, 153696.94, -0.051762357, 0.51026464, -471019.53, 126129.62, 0.0, 9.999956, 10.000158 
2.924895e+3, 2.4907094e+2, -592904.6, -539845.56, 158474.53, -0.06555674, 0.49682224, -405695.34, 93458.36, 0.0, 9.999548, 10.000202 
2.9248023e+3, 2.5907055e+2, -562041.0, -470204.5, 166310.3, -0.09053027, 0.48388553, -343589.84, 57567.668, 0.0, 9.999071, 10.000236 
2.924708e+3, 2.690707e+2, -417589.8, -306336.28, 126758.97, -0.12629506, 0.50383276, -223535.55, 79620.31, 0.0, 9.999199, 10.0006275 
2.9246137e+3, 2.79071e+2, -288194.75, -175118.9, 144148.75, -0.13184904, 0.5151626, -76816.914, 128335.766, 0.0, 9.999338, 10.00079 
2.9245183e+3, 2.890711e+2, -189586.22, 51511.23, -199.77939, -0.115831815, 0.42503327, 51511.4, 158661.22, 0.0, 9.998768, 10.001962 
2.936011e+3, 1.2917204e+2, -1657644.1, -1638004.5, 30098.96, 0.047917694, 0.5328602, -1616164.0, 58002.438, 0.0, 10.00019, 10.000435 
2.935917e+3, 1.3917185e+2, -1522916.1, -1542850.1, 32271.326, 0.061677366, 0.52214944, -1499107.8, 77058.66, 0.0, 10.000528, 10.000254 
2.9358226e+3, 1.4917155e+2, -1450329.1, -1494652.4, 55556.254, 0.03523526, 0.5309008, -1412677.4, 65492.293, 0.0, 10.000523, 9.99991 
2.935729e+3, 1.5917109e+2, -1369310.1, -1406539.4, 61123.32, 0.033939157, 0.54264635, -1324029.8, 56144.63, 0.0, 10.000414, 9.999895 
2.9356354e+3, 1.6917033e+2, -1272079.5, -1305097.3, 95593.81, 0.02152933, 0.5201058, -1191579.5, 90602.47, 0.0, 10.000398, 9.999924 
2.9355425e+3, 1.7916955e+2, -1177219.6, -1209602.0, 107823.414, 0.004338775, 0.49651954, -1084378.5, 99811.0, 0.0, 10.0003805, 9.999915 
2.93545e+3, 1.8916917e+2, -1075939.5, -1100668.9, 121912.77, 0.025493158, 0.5080884, -965766.0, 120427.01, 0.0, 10.000366, 9.999995 
2.935358e+3, 1.9916886e+2, -975706.7, -990104.8, 121342.555, 0.048572127, 0.5200445, -861349.8, 126845.78, 0.0, 10.000333, 10.000097 
2.935265e+3, 2.0916845e+2, -886291.9, -865603.8, 135088.86, 0.008941648, 0.49884796, -740463.56, 149735.1, 0.0, 10.000143, 10.00037 
2.935172e+3, 2.191681e+2, -832366.44, -810528.06, 158840.39, -0.040547032, 0.47786224, -662232.0, 129969.17, 0.0, 9.999935, 10.000175 
2.9350796e+3, 2.2916792e+2, -735906.44, -718144.3, 157787.02, -0.052539077, 0.49779075, -568988.6, 125215.266, 0.0, 9.999945, 10.000133 
2.9349872e+3, 2.391678e+2, -623988.7, -593942.25, 147061.3, -0.055660132, 0.516875, -461138.8, 135067.39, 0.0, 9.999957, 10.000306 
2.9348943e+3, 2.4916773e+2, -545025.5, -440045.53, 138731.81, -0.06632934, 0.49044418, -344205.78, 154000.23, 0.0, 9.999544, 10.00089 
2.9348007e+3, 2.5916794e+2, -529849.3, -402780.75, 158260.61, -0.08349359, 0.4744371, -295777.56, 104425.086, 0.0, 9.999067, 10.000701 
2.934707e+3, 2.6916876e+2, -400217.94, -274724.47, 137091.45, -0.100032136, 0.5315625, -186702.45, 115493.04, 0.0, 9.999215, 10.000838 
2.934613e+3, 2.791692e+2, -280680.6, -173701.47, 129068.086, -0.10886871, 0.5428809, -87478.1, 116714.086, 0.0, 9.999396, 10.000772 
2.9345167e+3, 2.8916833e+2, -260001.67, -90712.91, -18776.293, -0.12788981, 0.4212409, -88655.38, 17543.594, 0.0, 9.998758, 10.000983 
2.9460108e+3, 1.2926677e+2, -1677927.3, -1652520.9, 21840.016, 0.049474146, 0.51513696, -1639958.4, 33279.582, 0.0, 10.000069, 10.000396 
2.9459167e+3, 1.3926677e+2, -1612018.9, -1584499.6, 15830.449, 0.06792545, 0.524653, -1577284.8, -2047.9045, 0.0, 9.999909, 10.000267 
2.9458225e+3, 1.4926645e+2, -1517446.0, -1519813.6, 39407.19, 0.04505577, 0.5282004, -1479204.9, -1964.5542, 0.0, 10.000028, 9.999978 
2.945729e+3, 1.5926598e+2, -1399636.9, -1410216.8, 51201.555, 0.046720486, 0.5282255, -1353452.8, 25792.697, 0.0, 10.000155, 9.999996 
2.9456356e+3, 1.692655e+2, -1278741.6, -1287857.6, 79071.945, 0.035705484, 0.51772124, -1204096.4, 77153.75, 0.0, 10.000259, 10.000111 
2.9455423e+3, 1.7926504e+2, -1179094.5, -1195193.6, 81596.74, 0.015361649, 0.50801396, -1105151.3, 78103.11, 0.0, 10.000298, 10.000055 
2.94545e+3, 1.892648e+2, -1100179.0, -1104180.5, 97775.336, 0.022166982, 0.5256028, -1004384.0, 80872.69, 0.0, 10.000159, 10.000073 
2.9453576e+3, 1.9926463e+2, -1012889.3, -994116.9, 103979.484, 0.03356206, 0.54249686, -899100.8, 88157.47, 0.0, 10.000011, 10.000228 
2.9452643e+3, 2.092643e+2, -891148.8, -846837.25, 101961.84, 0.0028531882, 0.5115921, -764651.75, 124608.54, 0.0, 10.000012, 10.000565 
2.9451713e+3, 2.1926406e+2, -807547.7, -781159.94, 109537.63, -0.035836846, 0.48210895, -684024.44, 107236.945, 0.0, 10.000024, 10.000338 
2.945079e+3, 2.2926417e+2, -748875.3, -709085.0, 124890.22, -0.05086868, 0.5154616, -602515.2, 90746.305, 0.0, 9.999783, 10.000277 
2.9449862e+3, 2.3926431e+2, -679684.06, -603313.44, 133178.67, -0.06027666, 0.54400533, -502953.88, 92307.93, 0.0, 9.999493, 10.000469 
2.9448932e+3, 2.4926426e+2, -537077.1, -414826.28, 97572.8, -0.0741878, 0.49904513, -360813.66, 136447.75, 0.0, 9.999498, 10.001089 
2.9447997e+3, 2.592646e+2, -445478.1, -335557.7, 87721.734, -0.08906127, 0.4735906, -287001.1, 112255.49, 0.0, 9.999522, 10.00095 
2.9447058e+3, 2.6926592e+2, -378382.53, -240207.34, 73335.2, -0.08892315, 0.55667096, -208542.05, 92702.76, 0.0, 9.9992485, 10.001066 
2.944612e+3, 2.7926645e+2, -329337.84, -199855.94, 61104.324, -0.094705634, 0.5629628, -175573.69, 27667.484, 0.0, 9.999057, 10.000764 
2.9445153e+3, 2.8926593e+2, -79134.94, -14719.247, -35677.617, -0.13295944, 0.49529687, 1137.84, 106382.79, 0.0, 10.000042, 10.00089 
2.9560104e+3, 1.2936144e+2, -1693945.9, -1679898.6, 13081.504, 0.041055616, 0.5050598, -1672074.5, 235.79488, 0.0, 10.000045, 10.000218 
2.9559162e+3, 1.3936137e+2, -1608022.5, -1585838.9, 15556.555, 0.076553434, 0.5218283, -1577824.8, -3513.8838, 0.0, 9.999951, 10.000237 
2.9558223e+3, 1.49361e+2, -1501457.9, -1495031.3, 43352.508, 0.06647891, 0.50929964, -1454773.1, 21541.56, 0.0, 10.000063, 10.000132 
2.955729e+3, 1.5936044e+2, -1390828.6, -1394691.9, 54638.62, 0.077424176, 0.48945367, -1338087.5, 40232.51, 0.0, 10.000167, 10.000097 
2.9556358e+3, 1.693605e+2, -1272724.8, -1275579.8, 80657.75, 0.06815966, 0.52590036, -1193481.9, 86837.74, 0.0, 10.000259, 10.0001955 
2.9555428e+3, 1.7936064e+2, -1171954.4, -1178373.1, 78248.68, 0.037169464, 0.5646801, -1096849.3, 85469.45, 0.0, 10.000289, 10.000175 
2.9554495e+3, 1.8936034e+2, -1088386.6, -1078387.9, 90063.13, 0.0057614855, 0.5595474, -993185.44, 91136.17, 0.0, 10.000153, 10.000254 
2.9553565e+3, 1.9936006e+2, -1006402.4, -980401.1, 100706.305, -0.012849168, 0.5483202, -891859.75, 94464.48, 0.0, 10.00001, 10.000323 
2.955264e+3, 2.0935975e+2, -895771.6, -856608.6, 102325.26, -0.0127210235, 0.5226527, -772008.1, 116318.266, 0.0, 10.000012, 10.000499 
2.9551715e+3, 2.1935965e+2, -796732.5, -758280.4, 106014.24, -0.015605071, 0.50783473, -669762.94, 120563.836, 0.0, 10.00002, 10.000497 
2.9550785e+3, 2.2936033e+2, -715309.0, -638623.56, 112776.33, -0.03871897, 0.55619997, -557850.1, 134470.9, 0.0, 9.999778, 10.000763 
2.9549855e+3, 2.3936091e+2, -667790.75, -578432.0, 126912.44, -0.0655357, 0.5898988, -488563.97, 105752.11, 0.0, 9.999491, 10.000642 
2.9548922e+3, 2.4936047e+2, -556013.7, -455428.28, 100220.2, -0.09001031, 0.5225272, -393589.6, 102730.39, 0.0, 9.999503, 10.000809 
2.9547986e+3, 2.593605e+2, -439030.0, -326421.72, 81937.61, -0.110489175, 0.48371944, -283307.9, 115011.45, 0.0, 9.999538, 10.001005 
2.9547045e+3, 2.693622e+2, -358976.06, -199283.81, 62500.734, -0.09663585, 0.57965636, -177730.98, 122573.01, 0.0, 9.999246, 10.001349 
2.9546103e+3, 2.793628e+2, -328514.97, -191947.52, 67388.5, -0.09454626, 0.57393384, -164294.4, 38005.43, 0.0, 9.999032, 10.000831 
2.954515e+3, 2.89363e+2, -24305.703, 91063.984, 20251.877, -0.15499656, 0.55594575, 94515.71, 198811.9, 0.0, 10.000087, 10.001591 
2.96601e+3, 1.294562e+2, -1726551.3, -1689089.3, -9952.142, 0.06050873, 0.5486583, -1686609.5, -15227.203, 0.0, 9.99979, 10.000279 
2.9659158e+3, 1.3945624e+2, -1564269.8, -1564341.1, 4561.523, 0.06870817, 0.56994087, -1559743.8, 13638.673, 0.0, 10.000247, 10.000244 
2.965822e+3, 1.494558e+2, -1468084.5, -1480391.8, 19197.287, 0.04609698, 0.55236524, -1454078.8, 21307.838, 0.0, 10.000295, 10.000122 
2.9657283e+3, 1.5945527e+2, -1383667.5, -1387961.5, 24417.066, 0.051484123, 0.5334137, -1361303.1, 16088.188, 0.0, 10.000197, 10.000132 
2.9656354e+3, 1.6945516e+2, -1295773.0, -1286887.5, 43888.113, 0.04419864, 0.548214, -1247217.9, 32175.188, 0.0, 10.000096, 10.0002 
2.9655424e+3, 1.7945515e+2, -1210515.5, -1185479.1, 35495.875, 0.026199957, 0.5696625, -1160358.8, 21034.951, 0.0, 9.999967, 10.000286 
2.965449e+3, 1.8945506e+2, -1096183.4, -1053820.9, 51059.47, 0.009677031, 0.56305385, -1019723.6, 63670.516, 0.0, 9.999971, 10.000513 
2.965356e+3, 1.9945496e+2, -997493.06, -961348.5, 65815.0, -0.0045121736, 0.54721254, -911169.6, 74225.05, 0.0, 10.000003, 10.00046 
2.9652634e+3, 2.0945485e+2, -900765.06, -852198.25, 75247.22, -0.012537123, 0.531343, -797413.2, 89982.29, 0.0, 9.999944, 10.000565 
2.9651707e+3, 2.1945493e+2, -809262.3, -751559.2, 84808.46, -0.020033982, 0.5263658, -690829.0, 98565.67, 0.0, 9.999874, 10.000617 
2.9650778e+3, 2.2945562e+2, -709035.25, -620940.4, 67373.64, -0.040586416, 0.5639019, -584493.2, 106895.266, 0.0, 9.999751, 10.000901 
2.9649845e+3, 2.3945631e+2, -643430.75, -546360.6, 63736.39, -0.0651069, 0.58829224, -514783.4, 78599.05, 0.0, 9.999562, 10.000832 
2.9648912e+3, 2.4945621e+2, -572084.5, -451291.5, 65570.266, -0.09161606, 0.5379429, -422540.97, 72842.28, 0.0, 9.999332, 10.000924 
2.9647973e+3, 2.594565e+2, -480578.53, -340320.2, 71441.555, -0.113687426, 0.5135317, -310339.44, 87041.0, 0.0, 9.999218, 10.001069 
2.9647037e+3, 2.6945797e+2, -324408.66, -197836.53, 33383.785, -0.10602803, 0.5906041, -189571.19, 109796.21, 0.0, 9.99954, 10.001222 
2.9646093e+3, 2.794583e+2, -225066.77, -161043.4, 17766.094, -0.11254191, 0.5741978, -156443.86, 44921.8, 0.0, 9.999816, 10.000671 
2.9645142e+3, 2.8945884e+2, -87839.21, 48833.438, -40948.56, -0.16799746, 0.60619503, 60162.902, 163522.77, 0.0, 9.999697, 10.001494 
2.9760098e+3, 1.2955076e+2, -1716758.1, -1659454.8, 4016.1904, 0.10012423, 0.6058607, -1659174.6, 11282.6, 0.0, 9.999752, 10.000501 
2.9759157e+3, 1.3955104e+2, -1568145.1, -1560466.5, 16308.187, 0.049475387, 0.6377374, -1547551.8, 24902.582, 0.0, 10.000197, 10.000295 
2.9758212e+3, 1.4955066e+2, -1472270.9, -1494886.9, 17223.488, -0.00839273, 0.6316191, -1462975.0, 11482.907, 0.0, 10.000321, 10.0000105 
2.9757273e+3, 1.5955031e+2, -1375394.1, -1385100.3, 24141.455, -0.025685398, 0.63569933, -1355622.8, 20838.342, 0.0, 10.00026, 10.00012 
2.9756343e+3, 1.6954944e+2, -1292940.5, -1292377.8, 41226.17, -0.030053, 0.5787395, -1251432.0, 27038.23, 0.0, 10.000145, 10.000138 
2.9755414e+3, 1.7954873e+2, -1197209.0, -1166950.8, 34678.727, -0.014000039, 0.53311515, -1144244.6, 36232.887, 0.0, 10.000007, 10.000394 
2.9754487e+3, 1.8954906e+2, -1070325.8, -1004544.94, 53272.88, 0.029269787, 0.5405104, -974827.2, 107646.086, 0.0, 9.99999, 10.000842 
2.9753563e+3, 1.9954932e+2, -984394.06, -934591.2, 65831.93, 0.048657876, 0.53566164, -889108.5, 95361.22, 0.0, 10.000004, 10.000643 
2.975263e+3, 2.0954955e+2, -887041.44, -822932.75, 71868.35, 0.00023486774, 0.5348514, -776294.4, 110173.28, 0.0, 9.999939, 10.000768 
2.97517e+3, 2.1954988e+2, -804887.06, -740452.06, 81320.59, -0.04637796, 0.5373252, -685199.5, 103265.5, 0.0, 9.999865, 10.000698 
2.975077e+3, 2.2955014e+2, -723485.75, -649791.75, 61775.87, -0.055629455, 0.54095495, -614708.5, 75754.914, 0.0, 9.999745, 10.000706 
2.9749838e+3, 2.3955052e+2, -628251.7, -514199.53, 54566.965, -0.06101866, 0.5432541, -492298.25, 100162.234, 0.0, 9.999558, 10.001055 
2.9748902e+3, 2.4955145e+2, -535212.0, -373832.47, 57702.23, -0.07870645, 0.5479363, -355323.5, 139127.28, 0.0, 9.999328, 10.001459 
2.9747963e+3, 2.5955254e+2, -476668.97, -330616.72, 74958.37, -0.09728381, 0.56435853, -298993.1, 97446.37, 0.0, 9.99921, 10.00114 
2.9747024e+3, 2.6955312e+2, -361384.0, -275427.47, 50967.29, -0.11912444, 0.5857392, -251736.44, 46698.9, 0.0, 9.999545, 10.000686 
2.9746082e+3, 2.7955303e+2, -248253.61, -214131.36, 17139.48, -0.15704317, 0.5676979, -207008.95, -6570.5674, 0.0, 9.999842, 10.000293 
2.9745138e+3, 2.8955352e+2, -175048.19, -125353.664, -44677.297, -0.13046663, 0.6590948, -99079.04, 3356.167, 0.0, 9.999674, 10.000304 
2.9860082e+3, 1.2964416e+2, -1783187.3, -1688240.9, 75940.5, 0.056033146, 0.4768562, -1646155.9, 23386.559, 0.0, 9.999291, 10.000524 
2.9859146e+3, 1.3964412e+2, -1649341.4, -1577691.9, 81193.13, 0.01888158, 0.47006932, -1524771.3, 46771.063, 0.0, 9.9995575, 10.00048 
2.9858217e+3, 1.4964406e+2, -1474150.3, -1482987.6, 86746.09, 0.053742096, 0.48112822, -1391710.4, 81832.21, 0.0, 10.000263, 10.000114 
2.985729e+3, 1.596436e+2, -1337072.0, -1373857.3, 85021.62, 0.12671873, 0.47189575, -1268476.4, 107070.45, 0.0, 10.000565, 10.000046 
2.9856357e+3, 1.6964386e+2, -1220522.0, -1263566.1, 95921.36, 0.12497963, 0.5388246, -1143737.9, 133807.38, 0.0, 10.000679, 10.000074 
2.985542e+3, 1.7964402e+2, -1082894.0, -1118299.4, 86905.375, 0.07137138, 0.5860082, -1011906.6, 167638.06, 0.0, 10.00083, 10.000327 
2.9854485e+3, 1.8964396e+2, -1015019.4, -990929.4, 70364.26, 0.021102682, 0.5685125, -931586.6, 149957.1, 0.0, 10.000432, 10.000721 
2.9853553e+3, 1.996442e+2, -990299.5, -941411.25, 66728.42, 0.0007700164, 0.5684925, -894790.6, 88749.36, 0.0, 9.999981, 10.0006075 
2.9852623e+3, 2.0964447e+2, -903860.75, -844453.0, 54986.883, -0.023761097, 0.5797498, -811659.9, 73878.625, 0.0, 9.99988, 10.00065 
2.9851693e+3, 2.1964477e+2, -826690.6, -753974.1, 39292.57, -0.05388377, 0.5898498, -736798.94, 50737.996, 0.0, 9.999724, 10.000674 
2.9850763e+3, 2.2964491e+2, -735239.25, -640812.6, 37032.555, -0.04991611, 0.5717934, -628021.7, 61514.504, 0.0, 9.999599, 10.000839 
2.984983e+3, 2.3964518e+2, -616015.7, -494799.13, 43326.223, -0.049536686, 0.5513929, -480905.56, 110628.39, 0.0, 9.999581, 10.001178 
2.9848891e+3, 2.4964646e+2, -496882.4, -338882.97, 21427.236, -0.07558753, 0.57342446, -336028.66, 157492.11, 0.0, 9.999516, 10.00161 
2.9847953e+3, 2.5964776e+2, -440368.6, -313917.9, 25018.666, -0.094640255, 0.59960437, -309147.84, 86359.33, 0.0, 9.999458, 10.001138 
2.9847017e+3, 2.6964784e+2, -355055.97, -295960.06, 29396.354, -0.112338185, 0.5803973, -283827.97, 13680.2, 0.0, 9.999685, 10.000481 
2.9846075e+3, 2.7964768e+2, -223715.56, -185513.83, 8075.6816, -0.16917188, 0.56477153, -183876.81, 15634.603, 0.0, 9.999935, 10.000448 
2.984513e+3, 2.8964818e+2, -198028.84, -160608.89, 2767.16, -0.1306934, 0.6365769, -160405.36, -58896.88, 0.0, 9.999613, 10.000106 
2.9960072e+3, 1.2974079e+2, -1698653.1, -1673850.9, -58553.504, 0.051172853, 0.606236, -1626399.8, 42196.125, 0.0, 9.999963, 10.00031 
2.995914e+3, 1.3974024e+2, -1472255.0, -1474548.5, -75320.28, 0.046973847, 0.54916173, -1398072.8, 172527.5, 0.0, 10.000671, 10.000664 
2.995821e+3, 1.4974104e+2, -1418709.1, -1445950.9, -93849.95, -0.015364683, 0.62593967, -1337496.8, 135094.78, 0.0, 10.000567, 10.000238 
2.9957277e+3, 1.5974016e+2, -1419222.4, -1439800.6, -99577.51, 0.015657965, 0.5714256, -1329403.9, 45195.9, 0.0, 10.000083, 9.999842 
2.995635e+3, 1.6973907e+2, -1347966.9, -1344033.0, -84164.7, 0.030073969, 0.51747364, -1261812.3, 14800.125, 0.0, 9.999854, 9.999935 
2.9955423e+3, 1.7974003e+2, -1260951.6, -1237159.0, -102315.02, 0.047820423, 0.65377843, -1146051.0, 32553.844, 0.0, 9.999717, 10.000064 
2.9954484e+3, 1.897383e+2, -1109316.1, -1096796.8, -79684.14, 0.014524834, 0.50928324, -1023126.8, 57493.383, 0.0, 10.000017, 10.000208 
2.9953545e+3, 1.997382e+2, -1014491.44, -985590.5, -33923.227, -0.048075974, 0.5084043, -963168.2, 19451.146, 0.0, 9.999937, 10.000335 
2.9952618e+3, 2.0973876e+2, -902360.0, -891450.3, -2777.1245, 0.0041802735, 0.58273584, -890784.06, -6167.927, 0.0, 10.000086, 10.000233 
2.9951683e+3, 2.1973884e+2, -744188.06, -727409.0, -4578.727, -0.07764636, 0.6088398, -726240.9, 60376.76, 0.0, 10.000343, 10.000561 
2.9950753e+3, 2.2973946e+2, -678674.75, -562289.3, -3744.6978, -0.076873176, 0.6070334, -562168.94, 126442.555, 0.0, 9.9997635, 10.0013 
2.9949823e+3, 2.397401e+2, -596409.4, -482324.53, 20846.434, -0.042030644, 0.59190786, -478634.66, 111970.01, 0.0, 9.999701, 10.001206 
2.994888e+3, 2.4974117e+2, -505211.5, -368889.7, 15738.125, -0.084747106, 0.61146045, -367096.34, 125497.03, 0.0, 9.999571, 10.001376 
2.9947942e+3, 2.5974208e+2, -445028.66, -324608.94, 27254.246, -0.108397655, 0.61788034, -318727.8, 75856.055, 0.0, 9.999462, 10.001061 
2.9947013e+3, 2.6974198e+2, -345361.03, -276923.03, 41597.453, -0.08446152, 0.5740533, -257278.4, 39307.82, 0.0, 9.999689, 10.000608 
2.994607e+3, 2.7974218e+2, -172547.38, -76806.47, 6832.9683, -0.14959994, 0.5603127, -76321.26, 122264.055, 0.0, 9.999931, 10.001194 
2.9945117e+3, 2.8974384e+2, -119017.02, 13064.612, -5421.7354, -0.16595209, 0.6301993, 13286.792, 113855.016, 0.0, 9.999581, 10.001311 
