coord_x,coord_y,stress_xx,stress_yy,tau_xy,velocity_x,velocity_y,stress_1,eps,damage,lx,ly
5.000212e+0, 1.2478511e+2, -1704238.3, -1683827.5, 77499.555, 0.024230631, 0.30681577, -1615864.3, 101261.82, 0.0027102246, 9.999778, 10.000316 
5.000245e+0, 1.347839e+2, -1586715.4, -1570311.6, 37581.66, 0.02263474, 0.05002645, -1540047.3, 79085.99, 0.0016001622, 9.999954, 10.000323 
5.0001687e+0, 1.4478631e+2, -1515213.9, -1519234.4, 14243.02, 0.015027881, 0.28633264, -1502840.0, 18267.244, 0.00071385584, 9.999942, 9.999992 
4.9997148e+0, 1.5478455e+2, -1443940.6, -1431501.9, -33978.293, -0.020186648, 0.03707051, -1403178.5, 19946.557, 0.00020880907, 9.99975, 10.000016 
4.999555e+0, 1.6478485e+2, -1395038.4, -1438695.4, -13599.967, -0.036693163, 0.10603669, -1391148.4, -66023.88, 0.00003056022, 9.999769, 9.999287 
4.9997067e+0, 1.7478661e+2, -1273978.3, -1345198.4, 12261.333, -0.032852978, 0.29686728, -1271926.5, -44814.863, 0.0000010193884, 9.999994, 9.999148 
4.9999404e+0, 1.8478619e+2, -1156779.6, -1214342.0, 34145.824, -0.0119865015, 0.3359227, -1140903.3, -11786.423, 0.0, 10.000037, 9.999348 
5.000231e+0, 1.9478309e+2, -1089124.5, -1142603.8, 14284.437, 0.02559344, 0.035891887, -1085548.3, -54403.445, 0.0, 9.999876, 9.99925 
5.000244e+0, 2.0478262e+2, -991440.25, -1033685.0, 22666.877, 0.028866656, 0.06474225, -981579.7, -48429.906, 0.0, 9.999834, 9.999338 
4.9998918e+0, 2.1478452e+2, -886858.75, -943194.25, 1532.2194, -0.01078658, 0.26180536, -886817.1, -51682.8, 0.0, 9.999923, 9.999247 
4.9998546e+0, 2.2478501e+2, -811759.06, -899379.0, 13636.315, -0.01581122, 0.41447148, -809685.9, -72553.55, 0.0, 9.999954, 9.998859 
5.0001943e+0, 2.3478372e+2, -723565.7, -811414.1, 9329.508, 0.020026831, 0.33739972, -722585.8, -83437.84, 0.0, 9.9999075, 9.998814 
5.0003475e+0, 2.4478264e+2, -545675.8, -557021.0, 3219.4524, 0.034175918, 0.30002317, -544825.94, -3669.902, 0.0, 9.999944, 9.999871 
5.000299e+0, 2.547812e+2, -440354.5, -471528.56, -57177.13, 0.023144003, 0.11193098, -396677.88, 46483.555, 0.000000000017365094, 10.000058, 9.999735 
5.000106e+0, 2.647799e+2, -399007.5, -501461.9, -72231.53, 0.001761417, 0.06445549, -361681.78, -16511.629, 0.000000288742, 10.000107, 9.998824 
4.9997488e+0, 2.7477902e+2, -309125.38, -411941.66, -87515.7, -0.032734085, 0.033071384, -259035.75, -11855.089, 0.0000033591298, 10.000068, 9.998784 
4.999771e+0, 2.847799e+2, -237262.64, -438138.53, -55881.637, -0.04532436, 0.2948547, -222763.48, -73588.27, 0.000018802597, 10.000372, 9.997779 
5.0001174e+0, 2.947807e+2, -22268.682, -269485.88, -40047.69, -0.048089862, 0.5321361, -15943.055, 35229.598, 0.000081046455, 10.001092, 9.997924 
5.0002027e+0, 3.0477482e+2, -18631.094, -282007.16, -36152.85, -0.03119185, 0.15650636, -13758.639, -13758.639, 0.0003038914, 10.000944, 9.997573 
5.0000983e+0, 3.147752e+2, -50076.195, -49012.566, -8715.484, 0.021384502, 0.39177713, -40812.688, -40812.688, 0.00078894256, 9.999571, 9.999856 
1.5000607e+1, 1.2478555e+2, -1780553.5, -1753331.3, 43019.08, 0.07362381, 0.16066688, -1721821.4, -4707.911, 0.0026043395, 9.999454, 10.000014 
1.5000819e+1, 1.3478342e+2, -1638909.5, -1631517.0, 57387.242, 0.079612516, -0.09012482, -1577707.1, 41426.164, 0.0015429672, 9.999797, 10.000003 
1.5000491e+1, 1.4478579e+2, -1601280.8, -1639828.0, -5568.3345, 0.0454655, 0.19267614, -1600492.5, -79381.13, 0.0006869522, 9.999719, 9.999286 
1.4999124e+1, 1.5478544e+2, -1528232.6, -1557878.8, -26218.611, -0.060591448, 0.19552433, -1512937.0, -89818.055, 0.0001968844, 9.99957, 9.999247 
1.4998685e+1, 1.6478549e+2, -1349440.5, -1292747.6, -17121.125, -0.10624112, 0.22455983, -1287978.3, 37141.62, 0.000026649353, 9.999576, 10.000393 
1.4999163e+1, 1.7478552e+2, -1214708.3, -1180600.1, 34176.53, -0.09426077, 0.16180623, -1159459.0, 67659.055, 0.00000066228677, 9.999832, 10.00037 
1.4999789e+1, 1.8478581e+2, -1194341.8, -1232443.4, 15910.235, -0.03615263, 0.2057189, -1188571.9, -59456.19, 0.0, 9.999814, 9.999339 
1.5000698e+1, 1.9478619e+2, -1124663.3, -1164348.0, 22236.602, 0.07931986, 0.28906238, -1114703.1, -83589.055, 0.0, 9.999678, 9.999208 
1.5000705e+1, 2.0478554e+2, -1033008.5, -1062561.0, 15702.859, 0.085891955, 0.30725008, -1026222.8, -93101.055, 0.0, 9.999618, 9.999252 
1.4999656e+1, 2.147836e+2, -923171.3, -964483.9, 20561.611, -0.033476923, 0.15989043, -914682.06, -79541.02, 0.0, 9.999717, 9.9992075 
1.499955e+1, 2.2478268e+2, -818053.25, -857096.2, -1942.9503, -0.044980332, 0.14834337, -817956.8, -80805.89, 0.0, 9.999748, 9.999258 
1.5000552e+1, 2.347828e+2, -732225.06, -771369.56, 21561.88, 0.059884936, 0.21131514, -722677.06, -83525.766, 0.0, 9.999691, 9.9992 
1.5001051e+1, 2.4478261e+2, -656085.06, -740843.9, -5381.3423, 0.104421526, 0.3005332, -655744.75, -114590.414, 0.0, 9.999774, 9.998702 
1.5000898e+1, 2.5478178e+2, -550123.5, -643103.44, -41220.727, 0.07167221, 0.32025474, -534480.8, -91317.766, 0.0, 9.999841, 9.9986725 
1.5000314e+1, 2.6478007e+2, -422596.2, -504335.2, -84820.734, 0.005818567, 0.27319396, -369312.22, -24133.07, 0.00000013049092, 9.99994, 9.998895 
1.4999263e+1, 2.7477747e+2, -343530.2, -428105.1, -78440.99, -0.0958082, 0.10076182, -296704.13, -49501.68, 0.0000024373799, 9.999853, 9.998789 
1.4999269e+1, 2.8477684e+2, -208219.39, -332170.0, -40330.03, -0.13838695, 0.17298253, -196252.48, -47044.004, 0.000015368285, 10.000207, 9.998598 
1.5000339e+1, 2.9477715e+2, 2305.8625, -156767.48, 7570.906, -0.1460115, 0.31361702, 2665.3782, 53872.5, 0.000069496324, 10.000844, 9.998832 
1.5000676e+1, 3.0477372e+2, 41437.508, -91198.61, -94624.15, -0.08024694, 0.06924027, 90669.5, 90669.5, 0.00026841622, 10.000738, 9.999003 
1.500025e+1, 3.147757e+2, -110034.266, -53189.414, -17485.605, 0.06791304, 0.37772018, -48241.484, -48241.484, 0.0007052667, 9.999131, 10.000059 
2.50009e+1, 1.2478614e+2, -1744573.6, -1793290.8, 45754.43, 0.14682648, 0.11939255, -1717097.9, 4.9915056, 0.0024837567, 9.999981, 9.9994545 
2.5000754e+1, 1.3478398e+2, -1598718.6, -1683520.6, 9484.44, 0.07556875, -0.08614953, -1597670.9, 21456.441, 0.0014731403, 10.000422, 9.999324 
2.500038e+1, 1.4478576e+2, -1483575.3, -1590615.5, -4745.89, 0.030340945, 0.17597544, -1483365.3, 37747.27, 0.00065158884, 10.000583, 9.999188 
2.4999216e+1, 1.547854e+2, -1388713.4, -1503601.1, 7878.448, -0.0505517, 0.17377022, -1388175.6, 34942.69, 0.0001815959, 10.000595, 9.999112 
2.4998602e+1, 1.6478528e+2, -1274540.3, -1266677.3, 37104.094, -0.09191378, 0.19991988, -1233296.9, 91822.87, 0.000022322774, 10.000146, 10.000283 
2.4998672e+1, 1.7478503e+2, -1316115.8, -1236040.1, -21005.17, -0.08584499, 0.10801505, -1230864.6, -3744.3733, 0.00000035252413, 9.999189, 10.000281 
2.4999306e+1, 1.8478525e+2, -1297878.6, -1287988.1, -24041.748, -0.022854691, 0.15210816, -1268388.3, -139269.77, 0.0, 9.999116, 9.999288 
2.5000694e+1, 1.9478591e+2, -1099012.6, -1152309.4, -28215.162, 0.11043018, 0.2557696, -1086850.8, -55736.137, 0.0, 9.999859, 9.999187 
2.5000873e+1, 2.0478548e+2, -960935.56, -1028095.0, -3382.7268, 0.123546705, 0.29599792, -960765.6, -27645.295, 0.0, 10.000113, 9.999245 
2.4999689e+1, 2.1478358e+2, -918669.2, -965907.9, -5319.7837, 0.0029736145, 0.14744483, -918077.56, -82938.7, 0.0, 9.999765, 9.999168 
2.4999504e+1, 2.2478247e+2, -813120.8, -869406.7, 7959.5747, -0.022789612, 0.124909475, -812016.9, -74866.69, 0.0, 9.999841, 9.999114 
2.5000486e+1, 2.3478201e+2, -652533.5, -755564.8, -17961.693, 0.05883359, 0.13284534, -649492.0, -10336.8125, 0.0, 10.00032, 9.998997 
2.5000986e+1, 2.4478179e+2, -588705.44, -743601.5, -5319.503, 0.09582225, 0.2471862, -588523.0, -47362.984, 0.0, 10.000404, 9.998363 
2.5000903e+1, 2.5478157e+2, -539657.0, -675415.5, 6259.5083, 0.08444232, 0.35281864, -539369.0, -96202.0, 0.0, 10.000084, 9.998316 
2.5000435e+1, 2.6478016e+2, -409592.53, -493084.1, 36815.582, 0.027252285, 0.35475326, -395677.75, -50496.305, 0.00000003137998, 10.000025, 9.9989195 
2.4999543e+1, 2.747775e+2, -281349.9, -393218.6, 27699.182, -0.06599813, 0.16423409, -274867.16, -27663.283, 0.0000016497497, 10.000275, 9.998816 
2.4999593e+1, 2.8477627e+2, -246968.33, -329945.03, 75683.25, -0.100681074, 0.1687651, -202147.7, -52933.633, 0.000012071121, 9.99986, 9.998769 
2.5000778e+1, 2.9477593e+2, -306276.47, -287215.88, 59333.984, -0.067260385, 0.21074905, -236651.67, -185433.36, 0.00005739791, 9.998677, 9.998962 
2.5001246e+1, 3.04774e+2, -141344.8, -120974.984, -29562.533, -0.007606665, 0.089913726, -99892.086, -99892.086, 0.00023072664, 9.99925, 9.999512 
2.500059e+1, 3.1477514e+2, 205488.98, 34623.97, -51883.492, 0.08845605, 0.23876335, 220009.52, 220009.52, 0.000617959, 10.001608, 9.999447 
3.5000762e+1, 1.24786735e+2, -1815944.9, -1897596.6, 18069.38, 0.0688423, 0.1154704, -1812124.9, -95029.37, 0.0023583595, 9.999808, 9.99882 
3.4999627e+1, 1.3478558e+2, -1649940.5, -1768273.0, 33744.02, -0.113116175, 0.08632326, -1640994.3, -21878.982, 0.0013953737, 10.000352, 9.998769 
3.499948e+1, 1.447861e+2, -1445921.0, -1484254.5, -19798.469, -0.15837729, 0.21312417, -1437531.5, 83580.44, 0.0006105934, 10.000465, 9.999973 
3.4999615e+1, 1.5478438e+2, -1338505.8, -1376585.3, 22412.898, -0.10579906, -0.0033570009, -1328137.1, 94986.57, 0.00016453842, 10.000513, 10.000018 
3.4999076e+1, 1.6478412e+2, -1358174.6, -1421316.0, -14121.983, -0.093297504, 0.009632604, -1355160.0, -30035.082, 0.000017966355, 10.000052, 9.999277 
3.499791e+1, 1.7478488e+2, -1400158.1, -1400432.5, -42805.484, -0.11478182, 0.13385235, -1357489.6, -130369.09, 0.00000014192928, 9.999139, 9.999186 
3.4998167e+1, 1.8478431e+2, -1301896.8, -1261010.0, -9710.733, -0.07865195, 0.14472298, -1258820.9, -129693.67, 0.0, 9.998976, 9.999535 
3.4999898e+1, 1.9478218e+2, -1095814.5, -1116055.8, 13373.649, 0.013362577, -0.053311527, -1089163.8, -58016.668, 0.0, 9.999739, 9.999493 
3.500045e+1, 2.0478229e+2, -959243.56, -986785.3, -31131.756, 0.04360195, 0.007320461, -938972.94, -5826.216, 0.0, 9.999958, 9.999603 
3.4999707e+1, 2.1478452e+2, -915851.7, -922512.2, -5212.311, -0.00024572798, 0.24222457, -912996.56, -77868.84, 0.0, 9.999609, 9.999541 
3.4999412e+1, 2.2478433e+2, -866818.1, -934863.6, 16326.158, -0.043761484, 0.31343186, -863103.75, -125972.91, 0.0, 9.999656, 9.99875 
3.4999645e+1, 2.3478144e+2, -703423.75, -815483.9, 13764.923, -0.08694128, 0.1216315, -701757.75, -62598.86, 0.0, 10.000138, 9.998668 
3.4999883e+1, 2.4478026e+2, -560835.2, -656739.8, -28701.324, -0.08222513, 0.12348297, -552902.0, -11729.583, 0.0, 10.000276, 9.999026 
3.5000047e+1, 2.5478068e+2, -515592.9, -589725.56, 8577.817, -0.0390963, 0.23224318, -514613.3, -71440.8, 0.0, 9.999932, 9.998979 
3.5000184e+1, 2.6478034e+2, -405027.06, -465232.84, 34651.02, -0.027570652, 0.29850385, -389229.22, -44052.96, 0.0000000045955626, 9.999947, 9.9991455 
3.5000193e+1, 2.7477923e+2, -281599.5, -363226.88, 52682.523, -0.05976277, 0.24245298, -255770.83, -8586.946, 0.0000011896407, 10.000145, 9.999082 
3.5000464e+1, 2.8477833e+2, -271143.1, -361161.2, 19718.855, -0.030599678, 0.270841, -267013.1, -117821.35, 0.000009641755, 9.999787, 9.998589 
3.5001075e+1, 2.9477695e+2, -350625.9, -348473.34, 27159.762, 0.058550447, 0.24185607, -322368.53, -271161.9, 0.0000464018, 9.998553, 9.998604 
3.5001466e+1, 3.0477545e+2, -149638.61, -132068.89, 46348.56, 0.06156513, 0.18869783, -93680.0, -93680.0, 0.00019513248, 9.9992075, 9.999454 
3.5000408e+1, 3.1477395e+2, 105508.14, -157457.13, 77518.125, -0.15715714, 0.07345969, 126658.21, 126658.21, 0.00053834624, 10.001526, 9.998166 
4.500109e+1, 1.2478576e+2, -1804909.6, -1842753.8, -35879.367, 0.15415066, 0.09669125, -1783268.5, -66160.82, 0.0022337737, 9.999702, 9.999227 
4.4999602e+1, 1.347864e+2, -1816697.9, -1804690.8, -11977.946, -0.06337166, 0.20518938, -1797296.1, -178185.81, 0.0013153872, 9.999022, 9.999156 
4.4999447e+1, 1.4478663e+2, -1675626.1, -1568556.9, 2559.1443, -0.10687215, 0.27080706, -1568495.8, -47386.234, 0.00056916923, 9.998767, 10.000226 
4.499937e+1, 1.5478463e+2, -1530665.5, -1447829.8, -35402.965, -0.09579397, 0.011716087, -1434760.9, -11638.336, 0.00014812649, 9.99909, 10.000232 
4.4999018e+1, 1.6478425e+2, -1425307.0, -1463511.8, -40926.008, -0.07110338, 0.005737319, -1399244.8, -74120.48, 0.000013959289, 9.999648, 9.999179 
4.499851e+1, 1.7478499e+2, -1207263.9, -1318895.8, -24147.207, -0.026798824, 0.13816866, -1202264.5, 24855.412, 0.000000037538413, 10.000518, 9.999082 
4.4998682e+1, 1.8478435e+2, -1050199.9, -1119060.0, 71048.92, 0.00481811, 0.14146812, -1005678.2, 123448.195, 0.0, 10.000615, 9.99973 
4.4999507e+1, 1.9478224e+2, -1083800.0, -1089423.8, 66017.29, 0.012146958, -0.07288267, -1020534.7, 10609.785, 0.0, 9.99973, 9.999686 
4.49999e+1, 2.0478225e+2, -1029165.0, -1066714.8, 27508.537, 0.018135635, -0.013052402, -1014635.0, -81489.56, 0.0, 9.999664, 9.999201 
4.499985e+1, 2.1478426e+2, -831113.4, -928193.0, -30368.252, 0.026744, 0.24259995, -822396.3, 12733.718, 0.0, 10.000383, 9.999131 
4.499964e+1, 2.2478396e+2, -779279.6, -886243.3, -12299.144, -0.003548941, 0.31689826, -777883.6, -40748.605, 0.0, 10.00022, 9.998823 
4.4999278e+1, 2.3478092e+2, -859623.56, -883637.8, -4629.6885, -0.07082712, 0.106605455, -858761.94, -219598.61, 0.0, 9.999034, 9.998746 
4.4999424e+1, 2.4477981e+2, -756728.75, -709156.25, 5764.0596, -0.068562195, 0.094845645, -708467.8, -167292.78, 0.0, 9.998757, 9.999391 
4.500005e+1, 2.547804e+2, -553909.6, -571363.56, -5127.3496, -0.0016578912, 0.18420313, -552514.9, -109342.39, 0.0, 9.999504, 9.9993105 
4.5000398e+1, 2.6478034e+2, -416764.03, -449663.78, 27268.348, 0.016933769, 0.24876422, -401368.0, -56194.625, 0.000000013083459, 9.99978, 9.999331 
4.5000544e+1, 2.747796e+2, -338764.72, -371782.6, 18574.855, -0.004359151, 0.21389326, -330422.7, -83245.3, 0.0000010541644, 9.99967, 9.999258 
4.5000717e+1, 2.8477883e+2, -261524.23, -373235.44, -889.8863, 0.019438105, 0.25611234, -261517.14, -112332.63, 0.000008106713, 9.999922, 9.998453 
4.5000857e+1, 2.9477745e+2, -67356.51, -236461.63, -15365.037, 0.0906965, 0.24328615, -65971.766, -14770.991, 0.000037622078, 10.000595, 9.9984 
4.5001656e+1, 3.0477652e+2, 47325.313, -17960.799, 87962.92, 0.108949274, 0.25183854, 108506.805, 108506.805, 0.00016443121, 10.000467, 9.999625 
4.500141e+1, 3.147747e+2, -204152.17, -301953.5, 96359.914, -0.08687736, 0.07178116, -144994.95, -144994.95, 0.00047154687, 9.999365, 9.998212 
5.500048e+1, 1.2478352e+2, -1717136.3, -1677562.5, -102934.73, 0.032839928, 0.065269984, -1592530.1, 124606.17, 0.0021078985, 9.999751, 10.000346 
5.5000246e+1, 1.3478653e+2, -1713930.9, -1610997.8, -23386.908, 0.05014599, 0.27854192, -1605933.3, 13177.988, 0.0012334009, 9.999093, 10.000454 
5.4999924e+1, 1.4478742e+2, -1696592.1, -1615692.9, -5020.1377, 0.012879445, 0.35723704, -1615382.5, -94278.336, 0.00052778376, 9.9987755, 9.999901 
5.499801e+1, 1.547863e+2, -1557782.1, -1508873.3, -9613.656, -0.18292056, 0.22522084, -1507051.4, -83937.81, 0.00013278752, 9.999104, 9.999808 
5.499781e+1, 1.6478577e+2, -1383885.4, -1362488.4, -22986.613, -0.1942668, 0.1924063, -1347832.5, -22715.736, 0.0000106646075, 9.999586, 9.999898 
5.499993e+1, 1.7478524e+2, -1154370.3, -1203274.9, 21014.563, 0.02625259, 0.11808253, -1146580.9, 80538.516, 0.000000007551507, 10.000494, 9.999883 
5.5000424e+1, 1.8478534e+2, -1049311.3, -1097826.0, 24781.344, 0.08448268, 0.14083083, -1038891.06, 90225.19, 0.0, 10.000531, 9.999917 
5.4999053e+1, 1.9478606e+2, -1082238.4, -1069523.9, 44475.08, -0.04055746, 0.19549787, -1030954.0, 153.45868, 0.0, 9.9996605, 9.999857 
5.4998755e+1, 2.0478536e+2, -1129316.4, -1240325.9, 42811.215, -0.09253296, 0.23098187, -1114724.1, -181608.16, 0.0, 9.999526, 9.998071 
5.4999644e+1, 2.1478285e+2, -929076.2, -1104429.0, 9377.137, -0.065713055, 0.14937393, -928576.1, -93430.086, 0.0, 10.000271, 9.997973 
5.499973e+1, 2.2478127e+2, -758731.06, -816266.06, -67646.336, -0.046837967, 0.13129102, -713989.4, 23173.605, 0.0, 10.000105, 9.999358 
5.4998994e+1, 2.347806e+2, -837609.5, -811070.94, -36097.0, -0.032386426, 0.09789163, -785881.56, -146714.33, 0.0, 9.9989195, 9.999298 
5.4999125e+1, 2.4478048e+2, -766724.8, -711184.25, 22513.922, -0.007037737, 0.1571265, -703204.44, -162036.53, 0.0, 9.998681, 9.999411 
5.500034e+1, 2.5478074e+2, -573795.06, -573363.0, 34839.246, 0.041651633, 0.20968983, -538739.1, -95571.836, 0.0, 9.999349, 9.999363 
5.5000705e+1, 2.6478016e+2, -412055.63, -434317.25, 10380.11, 0.035437733, 0.21214385, -407966.66, -62794.063, 0.000000016276152, 9.999745, 9.999459 
5.500026e+1, 2.7477852e+2, -342318.7, -363191.22, 27162.377, -0.03410552, 0.075709954, -323656.7, -76471.41, 0.00000094951764, 9.99959, 9.999363 
5.4999864e+1, 2.8477773e+2, -269328.6, -379813.63, 11622.279, -0.09089154, 0.11488068, -268119.25, -118926.07, 0.0000068871877, 9.999888, 9.998418 
5.4999644e+1, 2.9477745e+2, -85303.74, -251445.14, 24295.709, -0.13033226, 0.21645199, -81823.75, -30623.244, 0.00003070153, 10.000497, 9.998344 
5.5001384e+1, 3.047773e+2, 77424.016, 61559.25, 42804.914, 0.0030898838, 0.2744101, 113025.336, 113025.336, 0.00013855331, 10.000407, 10.000201 
5.5002767e+1, 3.1477717e+2, -121335.484, -101819.45, 91789.875, 0.044648588, 0.21175863, -19270.37, -19270.37, 0.0004144919, 9.999259, 9.999633 
6.499989e+1, 1.2478332e+2, -1727306.8, -1670706.3, 31068.19, 0.028174577, 0.060287412, -1656981.0, 60158.547, 0.0019834668, 9.999585, 10.000501 
6.499978e+1, 1.3478675e+2, -1638428.8, -1523759.4, 1853.0115, 0.095457576, 0.27823618, -1523729.4, 95378.31, 0.001149572, 9.999364, 10.00094 
6.499989e+1, 1.447873e+2, -1642336.1, -1602135.6, 61873.914, 0.12247926, 0.30192542, -1557178.9, -36075.125, 0.00048384682, 9.999215, 9.999778 
6.499813e+1, 1.547869e+2, -1513119.1, -1499327.4, 42593.82, -0.08789294, 0.25548187, -1463074.8, -39965.875, 0.00011744106, 9.999484, 9.999677 
6.499806e+1, 1.6478659e+2, -1359599.9, -1322342.9, 54877.33, -0.11904286, 0.2387434, -1283018.4, 42092.25, 0.000008467286, 9.999631, 10.000152 
6.500013e+1, 1.7478567e+2, -1289266.3, -1239825.3, 33405.73, 0.057917446, 0.10210586, -1222988.0, 4127.488, 0.000000004638606, 9.999457, 10.000126 
6.500046e+1, 1.8478586e+2, -1202252.5, -1189991.3, 3622.9534, 0.0943524, 0.13046616, -1189000.8, -59889.25, 0.0, 9.999564, 9.999745 
6.499885e+1, 1.9478716e+2, -1059754.5, -1079574.3, -30947.852, -0.029386502, 0.25948513, -1037168.56, -6070.043, 0.0, 9.999903, 9.999672 
6.499865e+1, 2.0478636e+2, -1034137.75, -1173706.4, 47015.94, -0.07425434, 0.28641742, -1019777.25, -86669.6, 0.0, 10.000076, 9.998273 
6.499996e+1, 2.1478309e+2, -971548.6, -1100614.1, 96282.31, -0.032415014, 0.107229516, -920172.94, -85030.26, 0.0, 9.999871, 9.998196 
6.500008e+1, 2.247815e+2, -795479.25, -838736.3, 45526.79, -0.0012558873, 0.07824739, -766704.56, -29545.254, 0.0, 9.99987, 9.999317 
6.499892e+1, 2.3478162e+2, -667690.8, -731853.9, 4901.5396, 0.018744778, 0.12848394, -667318.56, -28161.49, 0.0, 10.000092, 9.999274 
6.4998925e+1, 2.4478151e+2, -578850.3, -634141.4, 83785.07, 0.047323324, 0.19515134, -518267.63, 22889.834, 0.0, 10.000021, 9.999312 
6.5000296e+1, 2.5478098e+2, -537420.1, -566015.06, 61760.594, 0.09853377, 0.18284504, -488323.7, -45161.293, 0.0, 9.999637, 9.999293 
6.500067e+1, 2.6477996e+2, -460840.56, -497024.7, 38039.85, 0.07463503, 0.16406749, -436809.56, -91637.56, 0.00000000394634, 9.999579, 9.999114 
6.5000015e+1, 2.7477828e+2, -303770.53, -376541.16, -4104.6997, -0.028432526, 0.059744682, -303539.75, -56352.586, 0.0000007712445, 10.000011, 9.999057 
6.4999664e+1, 2.8477755e+2, -228061.58, -332115.84, -2197.39, -0.097052746, 0.10444787, -228015.2, -78820.18, 0.000006042053, 10.000057, 9.99866 
6.499988e+1, 2.947774e+2, -204902.7, -269338.8, 4534.2896, -0.095341556, 0.19026995, -204585.19, -153386.13, 0.000026519589, 9.999531, 9.9986725 
6.5001404e+1, 3.04777e+2, -104205.29, -42068.71, 15479.971, 0.036408443, 0.21581489, -38425.79, -38425.79, 0.00012024143, 9.999218, 10.000071 
6.500213e+1, 3.1477827e+2, -104150.945, -17841.47, -33978.98, 0.08406267, 0.31085658, -6069.8696, -6069.8696, 0.00036921015, 9.999026, 10.000345 
7.499848e+1, 1.2478494e+2, -1758054.0, -1741998.0, -29028.336, -0.15083137, 0.08687934, -1719908.0, -2788.215, 0.0018629195, 9.999627, 9.999985 
7.4997604e+1, 1.3478696e+2, -1651772.6, -1563861.6, -1233.4938, -0.100337066, 0.19028538, -1563844.4, 55256.547, 0.0010666472, 9.999416, 10.000641 
7.4998593e+1, 1.4478625e+2, -1641613.1, -1592192.8, 56126.355, 0.028694706, 0.101096205, -1555577.9, -34469.168, 0.0004391749, 9.999181, 9.999862 
7.499932e+1, 1.5478633e+2, -1504177.5, -1491386.4, 68829.17, 0.042631786, 0.09335179, -1428656.3, -5546.848, 0.00010226521, 9.999518, 9.999722 
7.499932e+1, 1.6478664e+2, -1386102.0, -1362170.4, 34668.414, 0.00870117, 0.14706858, -1337460.9, -12354.369, 0.000007138289, 9.999572, 9.999903 
7.4998695e+1, 1.747863e+2, -1313369.1, -1283603.1, 37266.29, -0.067634195, 0.092034936, -1258357.9, -31249.549, 0.00000003688298, 9.999428, 9.99984 
7.499839e+1, 1.8478586e+2, -1254526.6, -1281476.9, 2351.1523, -0.10135431, 0.10396981, -1254323.0, -125210.305, 0.0, 9.999486, 9.99916 
7.499847e+1, 1.9478537e+2, -1105512.9, -1164224.5, -6487.609, -0.09228995, 0.10984962, -1104804.5, -73685.2, 0.0, 9.999858, 9.999114 
7.4999166e+1, 2.0478515e+2, -938650.7, -952418.5, 28882.252, -0.05888746, 0.1472762, -915843.3, 17277.643, 0.0, 9.999978, 9.999837 
7.50004e+1, 2.1478496e+2, -874051.5, -874550.9, 100224.9, -0.007254292, 0.11212175, -774076.0, 61044.06, 0.0, 9.9997635, 9.999802 
7.500026e+1, 2.2478461e+2, -857076.75, -939154.4, 42761.88, 0.00093821506, 0.15506354, -838847.0, -101723.35, 0.0, 9.999752, 9.998684 
7.499868e+1, 2.3478393e+2, -735082.56, -843000.5, 27799.986, -0.044696674, 0.19207904, -728342.2, -89208.76, 0.0, 9.999962, 9.998577 
7.499836e+1, 2.4478291e+2, -605149.44, -671952.5, 57810.242, -0.039344482, 0.21335319, -571785.06, -30641.494, 0.0, 9.9999485, 9.999084 
7.4999505e+1, 2.5478128e+2, -571420.8, -612745.8, 59246.066, 0.025943602, 0.10754238, -529337.5, -86180.625, 0.0, 9.999525, 9.999027 
7.499981e+1, 2.6477993e+2, -529159.9, -619227.06, 42260.34, 0.0014364604, 0.11572188, -512436.2, -167266.25, 0.00000000015133415, 9.999504, 9.998307 
7.4999315e+1, 2.7477902e+2, -379170.4, -505792.97, 29366.72, -0.13454358, 0.16569582, -372691.13, -125508.53, 0.00000065427645, 9.999898, 9.998222 
7.499975e+1, 2.8477833e+2, -190518.47, -248867.42, -32257.49, -0.12782246, 0.22737408, -176199.31, -27009.574, 0.0000058927376, 10.000028, 9.9992485 
7.500112e+1, 2.947772e+2, -170369.38, -182699.72, -1492.4133, 0.036742236, 0.15620801, -170191.3, -118994.2, 0.000025865007, 9.999446, 9.999318 
7.500123e+1, 3.047756e+2, -176024.45, -171795.72, 4911.5347, 0.06603254, 0.067820996, -168562.78, -168562.78, 0.00011203884, 9.999153, 9.999199 
7.4998647e+1, 3.1477773e+2, -121081.02, -14584.286, 7880.208, -0.23065822, 0.3448346, -14004.35, -14004.35, 0.00034091447, 9.998871, 10.000433 
8.499775e+1, 1.24785736e+2, -2028434.9, -1910265.6, 8193.917, -0.08761399, 0.06588705, -1909700.1, -192591.13, 0.0017451695, 9.997955, 9.999623 
8.499709e+1, 1.3478732e+2, -1599221.5, -1544271.1, -6072.152, -0.097984165, 0.13950914, -1543608.1, 75486.375, 0.0009891815, 9.9998255, 10.000563 
8.499826e+1, 1.4478625e+2, -1487348.3, -1514109.3, 46736.984, 0.03823139, 0.01342377, -1452114.1, 68992.09, 0.000399723, 10.0002, 9.999918 
8.4998924e+1, 1.547869e+2, -1569203.5, -1518279.0, 28555.643, 0.084049605, 0.058269095, -1505482.3, -82380.59, 0.00008899464, 9.999049, 9.999764 
8.4998953e+1, 1.6478759e+2, -1485639.8, -1431474.4, 54515.23, 0.053977318, 0.15957187, -1397685.3, -72589.41, 0.000006071428, 9.998974, 9.999722 
8.499849e+1, 1.7478745e+2, -1250850.0, -1271816.1, 38273.125, -0.04658305, 0.14263341, -1221650.3, 5447.494, 0.000000076650345, 9.999934, 9.9996805 
8.4998435e+1, 1.8478675e+2, -1143905.8, -1240923.3, 34604.13, -0.07635696, 0.14283127, -1132828.1, -3722.4656, 0.0, 10.000293, 9.999053 
8.499891e+1, 1.947856e+2, -1110069.4, -1180314.0, 36595.27, -0.026007427, 0.09492585, -1094469.0, -63350.184, 0.0, 9.99988, 9.998995 
8.499947e+1, 2.0478542e+2, -988279.75, -931699.9, 53104.375, 0.0077349157, 0.121756725, -899820.1, 33299.453, 0.0, 9.999459, 10.000224 
8.499993e+1, 2.1478602e+2, -959444.4, -872975.1, 3143.7073, 0.016513621, 0.1316571, -872861.0, -37751.715, 0.0, 9.999003, 10.000178 
8.4999865e+1, 2.2478591e+2, -930403.7, -973313.25, -23740.74, 0.018554566, 0.17930563, -919859.56, -182749.78, 0.0, 9.999256, 9.99868 
8.4999335e+1, 2.3478492e+2, -698304.8, -824623.7, -13858.74, 0.01981493, 0.18703046, -696802.2, -57679.67, 0.0, 10.000226, 9.998567 
8.4998983e+1, 2.4478361e+2, -533972.0, -676629.25, 28001.09, 0.0036369718, 0.197495, -528672.7, 12462.936, 0.0, 10.000593, 9.998737 
8.4998894e+1, 2.547818e+2, -473202.66, -602104.2, -4091.2925, -0.019599194, 0.110727586, -473072.94, -29921.95, 0.0, 10.000362, 9.998688 
8.499917e+1, 2.6478043e+2, -427947.6, -588325.4, 42835.59, -0.040844884, 0.13470341, -417223.66, -72058.695, 0.0000000019213902, 10.00024, 9.9981785 
8.500003e+1, 2.7477944e+2, -367211.0, -516638.34, 56261.117, -0.049411908, 0.18882686, -348396.9, -101218.44, 0.0000006294421, 10.000017, 9.998105 
8.500052e+1, 2.8477842e+2, -222867.89, -244468.23, 16661.373, -0.028554654, 0.2156985, -213812.45, -64625.207, 0.0000062489003, 9.999714, 9.999433 
8.500056e+1, 2.9477695e+2, -130205.375, -135339.66, -10421.383, 0.040439323, 0.08728122, -122039.6, -70844.61, 0.000027811611, 9.999607, 9.999562 
8.5000074e+1, 3.0477488e+2, -129875.54, -228382.31, 24988.969, 0.016783379, -0.024189498, -123899.0, -123899.0, 0.00011222166, 9.9997835, 9.998523 
8.49984e+1, 3.1477642e+2, -13333.903, 22924.926, 3813.322, -0.1651994, 0.26252502, 23321.63, 23321.63, 0.00032900518, 9.999666, 10.000303 
9.499686e+1, 1.2478584e+2, -2049845.9, -1946995.6, 40814.46, -0.045404244, 0.006752203, -1932767.4, -215661.52, 0.0016362383, 9.997925, 9.999384 
9.499767e+1, 1.3478781e+2, -1583681.4, -1535396.4, 75650.25, -0.06290309, 0.11491491, -1480129.6, 138959.58, 0.0009229167, 9.999917, 10.000581 
9.499846e+1, 1.4478727e+2, -1483938.1, -1506058.8, -8248.83, -0.0020948146, 0.035303585, -1481200.9, 39895.84, 0.00036888671, 10.000197, 9.999973 
9.49965e+1, 1.5478863e+2, -1567811.1, -1519118.8, -1508.482, -0.10187314, 0.15136036, -1519072.0, -95986.71, 0.00007923838, 9.999063, 9.999753 
9.4996625e+1, 1.6478957e+2, -1499344.0, -1448625.8, 77619.805, -0.10717289, 0.28243798, -1392327.5, -67249.625, 0.0000051224774, 9.998922, 9.99963 
9.499904e+1, 1.747892e+2, -1256454.5, -1283069.3, 89053.06, -0.020523341, 0.25143847, -1179720.0, 47363.03, 0.00000007826353, 9.999929, 9.999606 
9.500016e+1, 1.8478864e+2, -1131129.0, -1200082.3, 10189.634, 0.036559198, 0.25236928, -1129654.6, -565.338, 0.0, 10.000229, 9.999363 
9.49998e+1, 1.9478792e+2, -1097181.9, -1139988.8, 35015.85, 0.04172493, 0.21219121, -1077546.1, -46449.563, 0.0, 9.999816, 9.999301 
9.499917e+1, 2.047872e+2, -1068453.6, -1073567.9, 24342.918, 0.0027118742, 0.21466897, -1046533.94, -113431.055, 0.0, 9.999346, 9.999307 
9.499812e+1, 2.1478616e+2, -1039832.25, -1016964.5, 1389.2689, -0.09520367, 0.15185903, -1016880.4, -181768.89, 0.0, 9.9988985, 9.999243 
9.499846e+1, 2.2478527e+2, -906725.75, -898600.4, 2363.7744, -0.078904144, 0.14123796, -897962.75, -160843.83, 0.0, 9.9991455, 9.999245 
9.500041e+1, 2.3478435e+2, -671061.44, -747827.75, 34096.977, 0.073184595, 0.09437312, -658103.9, -18977.316, 0.0, 10.000129, 9.999144 
9.500037e+1, 2.4478348e+2, -578137.75, -744594.6, 7867.647, 0.053646322, 0.1391674, -577766.7, -36631.79, 0.0, 10.000492, 9.998318 
9.499809e+1, 2.5478253e+2, -515226.13, -674166.7, 3956.5593, -0.1692858, 0.17900516, -515127.7, -71981.99, 0.0, 10.000286, 9.998234 
9.499841e+1, 2.6478118e+2, -398094.9, -507869.47, 22842.525, -0.16996425, 0.20339717, -393531.4, -48372.367, 0.0000000017799018, 10.000172, 9.998758 
9.500168e+1, 2.7477932e+2, -342650.72, -437238.22, 59294.12, 0.08114757, 0.10967414, -314099.28, -66922.625, 0.0000005677249, 9.999898, 9.998705 
9.5001554e+1, 2.8477782e+2, -248286.1, -285068.78, -1015.741, 0.07193687, 0.07085078, -248258.06, -99070.49, 0.0000064583187, 9.999662, 9.999176 
9.4997764e+1, 2.947765e+2, -166793.47, -187362.66, 8227.037, -0.23750585, -0.019639507, -163907.77, -112714.4, 0.000029725905, 9.999497, 9.999259 
9.4997525e+1, 3.0477482e+2, -164019.83, -284953.78, 16964.63, -0.24543051, -0.06147702, -161685.1, -161685.1, 0.0001135958, 9.999726, 9.998153 
9.5000464e+1, 3.1477442e+2, -63503.867, -51552.96, 43469.125, 0.0073648016, 0.0686051, -13650.506, -13650.506, 0.00032168903, 9.999536, 9.999853 
1.0499695e+2, 1.2478651e+2, -1715658.9, -1821780.6, 56341.59, 0.067973666, 0.043701604, -1691325.8, 25774.08, 0.0015480418, 10.000345, 9.999088 
1.0499752e+2, 1.3478829e+2, -1705639.9, -1614376.5, 19650.979, -0.018790947, 0.15553476, -1610325.1, 8761.547, 0.00087241904, 9.999158, 10.000412 
1.04998365e+2, 1.447878e+2, -1655306.6, -1588531.5, -54887.13, 0.035879035, 0.0866021, -1557674.8, -36581.043, 0.0003471946, 9.999046, 9.99995 
1.0499637e+2, 1.5478863e+2, -1398040.9, -1452198.1, -83123.82, -0.07155196, 0.16284059, -1337696.3, 85389.44, 0.000073446034, 10.000294, 9.999622 
1.0499646e+2, 1.6478926e+2, -1279011.9, -1325844.4, 24647.195, -0.079850376, 0.26305032, -1268431.0, 56649.26, 0.000004420773, 10.000379, 9.999758 
1.0499906e+2, 1.7478894e+2, -1358195.6, -1320580.5, 23716.555, 0.034165755, 0.22290377, -1309119.4, -82034.36, 0.000000050630582, 9.999195, 9.999695 
1.0500031e+2, 1.8478872e+2, -1284433.9, -1240001.9, -14582.065, 0.09521741, 0.2371904, -1235643.8, -106556.16, 0.0, 9.999042, 9.999656 
1.05000004e+2, 1.9478865e+2, -1077785.1, -1095387.4, -21183.217, 0.08967699, 0.23335959, -1063647.5, -32560.045, 0.0, 9.999815, 9.9995985 
1.0499931e+2, 2.0478791e+2, -957247.8, -1060085.4, -428.93945, 0.044507112, 0.23685975, -957246.06, -24151.574, 0.0, 10.000287, 9.998942 
1.0499823e+2, 2.1478619e+2, -863777.7, -971532.1, -8791.589, -0.035408493, 0.14366518, -863065.1, -27953.422, 0.0, 10.000284, 9.99888 
1.0499858e+2, 2.2478506e+2, -714346.1, -788888.75, 52287.65, -0.03537193, 0.119770594, -687405.7, 49716.023, 0.0, 10.000382, 9.999419 
1.0500063e+2, 2.3478441e+2, -593433.5, -688439.9, 29405.635, 0.06799598, 0.08625344, -585068.6, 54056.445, 0.0, 10.000571, 9.999347 
1.05000645e+2, 2.447837e+2, -595107.7, -739564.1, -7123.2783, 0.047605418, 0.13176845, -594757.3, -53626.18, 0.0, 10.000323, 9.998433 
1.0499856e+2, 2.5478277e+2, -616647.9, -708422.0, 6157.1724, -0.10765819, 0.16148822, -616236.6, -173094.56, 0.0, 9.999544, 9.998349 
1.0499881e+2, 2.6478156e+2, -522338.56, -532190.8, 74791.21, -0.08936215, 0.17578226, -452311.4, -107157.62, 0.00000000014537505, 9.9991865, 9.999058 
1.05001815e+2, 2.747799e+2, -401417.28, -432336.5, 60732.67, 0.14059143, 0.07306276, -354207.47, -107039.29, 0.00000042821608, 9.999369, 9.998988 
1.0500147e+2, 2.8477842e+2, -258098.16, -322437.0, 19740.666, 0.1024447, 0.036944453, -252524.16, -103345.34, 0.0000059800022, 9.999713, 9.998905 
1.049975e+2, 2.9477707e+2, -96095.2, -189578.28, -1126.446, -0.23528826, -0.026700146, -96081.63, -44895.402, 0.000029321069, 10.000124, 9.998949 
1.0499728e+2, 3.047756e+2, -136023.61, -252412.5, 29366.959, -0.23794074, -0.038034268, -129033.62, -129033.62, 0.000109980174, 9.999847, 9.998312 
1.0500076e+2, 3.1477416e+2, -188782.4, -119468.84, 52789.81, 0.13739263, -0.034518156, -90976.15, -90976.15, 0.0003078243, 9.998716, 9.999775 
1.1499712e+2, 1.2478755e+2, -1737627.6, -1879622.5, -22427.2, -0.02546171, 0.1691271, -1734169.6, -17076.797, 0.0014882531, 10.00039, 9.9986725 
1.14996254e+2, 1.3478869e+2, -1724400.0, -1661893.8, -18090.576, -0.09674371, 0.25687194, -1657035.5, -37948.035, 0.000840427, 9.999194, 10.000066 
1.1499767e+2, 1.4478774e+2, -1674179.0, -1614718.3, -25508.559, 0.024693027, 0.16687074, -1605274.9, -84176.87, 0.00033535642, 9.998986, 9.999801 
1.14997886e+2, 1.5478691e+2, -1406289.8, -1469960.9, -18575.537, 0.0140716685, 0.08891746, -1401266.8, 21835.791, 0.0000716502, 10.000307, 9.999487 
1.14998035e+2, 1.6478673e+2, -1263222.5, -1291578.5, -29463.076, 0.0033322212, 0.10264418, -1244703.6, 80399.06, 0.0000041980056, 10.000362, 10.000008 
1.14998266e+2, 1.747866e+2, -1337387.1, -1276768.9, -8878.065, 0.0004998989, 0.051134028, -1275495.4, -48391.184, 0.000000024917117, 9.999192, 9.999997 
1.14998646e+2, 1.8478693e+2, -1283281.8, -1213448.0, 1646.3909, -0.0030985228, 0.096189655, -1213409.3, -84308.56, 0.0, 9.998936, 9.999894 
1.1499907e+2, 1.9478768e+2, -1066225.8, -1061236.4, 21458.5, -0.02124657, 0.1512868, -1042128.06, -11035.541, 0.0, 9.999767, 9.99986 
1.1499949e+2, 2.047875e+2, -962420.7, -1046358.06, -12714.808, 0.0052651106, 0.18903898, -960536.94, -27442.164, 0.0, 10.00018, 9.999089 
1.14999846e+2, 2.1478598e+2, -871023.75, -959216.2, 1458.5138, 0.070184164, 0.1003812, -870999.6, -35888.434, 0.0, 10.000162, 9.999026 
1.1499987e+2, 2.2478522e+2, -748450.8, -829389.4, 47373.02, 0.03154552, 0.118714824, -726614.7, 10504.1455, 0.0, 10.000256, 9.999199 
1.1499956e+2, 2.3478507e+2, -624638.6, -727095.44, 50686.965, -0.12501429, 0.1538936, -603800.94, 35317.66, 0.0, 10.000451, 9.999141 
1.14999495e+2, 2.4478424e+2, -566654.4, -653221.6, -48021.207, -0.12936626, 0.16648725, -545288.9, -4163.964, 0.0, 10.0002165, 9.999075 
1.1499981e+2, 2.547825e+2, -587596.25, -620099.06, -13952.326, 0.033464964, 0.05294269, -582428.6, -139288.28, 0.0, 9.999428, 9.999011 
1.1500001e+2, 2.6478148e+2, -529387.0, -537713.9, 69891.92, 0.08349212, 0.050984826, -463534.63, -118385.06, 0.0, 9.999143, 9.999048 
1.1500009e+2, 2.7478102e+2, -416231.4, -444162.8, 83545.32, -0.00015310437, 0.073574364, -345492.56, -98338.7, 0.0000002594802, 9.999275, 9.998961 
1.1499984e+2, 2.8478009e+2, -289458.8, -367343.78, 25259.852, -0.06179564, 0.10725362, -281983.88, -132822.06, 0.000005001763, 9.999638, 9.998631 
1.149993e+2, 2.9477862e+2, -145971.6, -257993.34, 28896.822, -0.104143225, 0.06419766, -138956.73, -87782.39, 0.000026475647, 9.999979, 9.998549 
1.1499893e+2, 3.0477723e+2, -95182.17, -148787.2, -14444.461, -0.086448476, 0.05129379, -91537.73, -91537.73, 0.000100772006, 9.999784, 9.999047 
1.1499843e+2, 3.1477565e+2, -182831.34, -79230.09, 46615.184, -0.03578499, -0.048642837, -61343.707, -61343.707, 0.00028477798, 9.998607, 10.000103 
1.2499743e+2, 1.24786794e+2, -2057541.1, -2014757.5, -31701.98, 0.09192846, 0.18946144, -1997905.1, -280802.44, 0.0014562852, 9.998135, 9.998821 
1.24995686e+2, 1.3478775e+2, -1617681.3, -1623304.4, -59420.38, -0.0978533, 0.26792848, -1561006.0, 58093.473, 0.0008261713, 9.999982, 9.999952 
1.249972e+2, 1.4478707e+2, -1463290.3, -1473855.4, -10881.434, 0.028121242, 0.19335489, -1456476.9, 64629.438, 0.00033346904, 10.000263, 10.000149 
1.2499839e+2, 1.5478612e+2, -1544612.8, -1497677.1, -289.81998, 0.097588114, 0.06653853, -1497675.4, -74565.516, 0.00007407354, 9.999187, 9.999831 
1.24998696e+2, 1.6478577e+2, -1445099.5, -1409763.1, 8544.479, 0.09665907, 0.059476297, -1407805.5, -82694.89, 0.000004716059, 9.999232, 9.999753 
1.24998115e+2, 1.7478558e+2, -1192017.1, -1241132.5, -35311.43, 0.018995408, 0.034056198, -1173563.5, 53549.96, 0.000000012759114, 10.000315, 9.999717 
1.24998145e+2, 1.847857e+2, -1063112.5, -1087863.0, -26017.498, -0.00923063, 0.06257102, -1046677.0, 82434.93, 0.0, 10.000364, 10.000058 
1.249988e+2, 1.9478616e+2, -1131934.8, -1076543.4, -38979.69, 0.009473047, 0.07222213, -1056422.1, -25316.76, 0.0, 9.999246, 10.000004 
1.2499956e+2, 2.0478624e+2, -1105712.6, -1092339.9, -32495.314, 0.055369433, 0.11921781, -1065850.1, -132745.39, 0.0, 9.9991, 9.999294 
1.2500043e+2, 2.147857e+2, -894704.06, -947056.06, -37966.566, 0.13350719, 0.107290246, -874764.5, -39651.645, 0.0, 9.999904, 9.999232 
1.2500049e+2, 2.2478522e+2, -774491.06, -844308.2, 21487.225, 0.08467685, 0.14333619, -768408.06, -31289.537, 0.0, 10.000081, 9.999175 
1.24999724e+2, 2.3478468e+2, -756426.2, -790804.6, 13697.698, -0.09966814, 0.14363432, -751636.0, -112513.46, 0.0, 9.999561, 9.99912 
1.2499961e+2, 2.447839e+2, -631578.2, -639737.9, -59385.03, -0.09833169, 0.13827385, -576133.0, -35004.734, 0.0, 9.999569, 9.999482 
1.250004e+2, 2.547826e+2, -449153.56, -510815.38, -66647.45, 0.12102715, 0.027708877, -406551.3, 36586.848, 0.0, 10.000177, 9.999411 
1.250004e+2, 2.647817e+2, -363781.0, -468431.22, 28414.377, 0.15718606, 0.027439304, -356563.75, -11418.17, 0.0, 10.000332, 9.998941 
1.2499963e+2, 2.7478117e+2, -315409.97, -405206.3, 10161.725, -0.0020850324, 0.050257113, -314274.38, -67122.414, 0.00000012209664, 10.000031, 9.99885 
1.24999404e+2, 2.847806e+2, -258282.98, -340281.56, -4180.8657, -0.06808088, 0.116597034, -258070.36, -108912.15, 0.000003888246, 9.999807, 9.998732 
1.25e+2, 2.947799e+2, -185447.11, -261552.45, 4436.125, -0.003909906, 0.14199573, -185189.4, -134025.0, 0.00002250982, 9.999652, 9.998677 
1.24999605e+2, 3.04778e+2, -37080.418, -108499.516, -13083.348, 0.000121063546, 0.065181434, -34759.113, -34759.113, 0.000088219014, 10.000087, 9.999209 
1.2499791e+2, 3.1477708e+2, 127183.81, 35511.5, -58196.324, -0.04616625, 0.014527291, 155427.11, 155427.11, 0.00025421134, 10.000874, 9.999814 
1.349971e+2, 1.2478414e+2, -2017533.3, -1924075.0, -10078.434, 0.17693974, 0.093759336, -1923000.5, -205869.94, 0.0014504807, 9.998101, 9.999459 
1.3499528e+2, 1.3478546e+2, -1594113.1, -1583083.3, 19251.125, -0.17321444, 0.18384126, -1568572.8, 50549.79, 0.0008289551, 10.000027, 10.000201 
1.3499649e+2, 1.4478585e+2, -1407050.6, -1368081.5, -67195.33, -0.11151732, 0.1684524, -1317602.8, 203514.95, 0.0003411424, 10.000296, 10.000867 
1.3499752e+2, 1.547862e+2, -1493874.4, -1388943.6, -28640.16, 0.05774029, 0.09703793, -1381635.5, 41472.023, 0.00008049032, 9.999165, 10.000594 
1.34998e+2, 1.6478638e+2, -1514307.8, -1522228.5, 33839.94, 0.07821699, 0.13912803, -1484197.3, -159093.0, 0.0000062176173, 9.999112, 9.999034 
1.3499804e+2, 1.7478596e+2, -1253323.8, -1355095.9, 21600.545, -0.05262323, 0.16627441, -1248928.9, -21816.242, 0.000000017143847, 10.000275, 9.998946 
1.3499826e+2, 1.847852e+2, -1068234.0, -1091168.8, -77915.34, -0.06893331, 0.14767188, -1000946.7, 128173.14, 0.0, 10.000317, 10.000065 
1.3499866e+2, 1.9478406e+2, -1137770.9, -1075627.6, -67302.55, 0.034777768, -0.008485892, -1032570.44, -1444.2255, 0.0, 9.999182, 10.000042 
1.3499908e+2, 2.0478414e+2, -1104245.0, -1064956.9, -17313.658, 0.07144222, 0.024642041, -1058416.0, -125291.25, 0.0, 9.998992, 9.9995365 
1.3499951e+2, 2.1478525e+2, -894935.0, -918052.56, 7444.046, 0.021359004, 0.15367752, -892745.4, -57627.97, 0.0, 9.999774, 9.999495 
1.3500005e+2, 2.2478503e+2, -779777.8, -831208.9, -9655.571, 0.0018699219, 0.1962114, -778024.8, -40904.043, 0.0, 9.99997, 9.999319 
1.3500065e+2, 2.347832e+2, -762593.7, -775977.8, 6484.0967, 0.005409683, 0.04888825, -759967.6, -120830.14, 0.0, 9.999437, 9.999281 
1.3500062e+2, 2.4478255e+2, -631311.06, -617527.94, -48272.324, 0.01458279, 0.03935587, -575657.75, -34515.56, 0.0, 9.999478, 9.999677 
1.3499995e+2, 2.5478297e+2, -454207.47, -491277.44, -29501.38, 0.028159784, 0.0828713, -437901.72, 5233.9136, 0.0, 10.00005, 9.999603 
1.3499966e+2, 2.6478228e+2, -392089.66, -509806.9, 5678.558, 0.020752192, 0.104903385, -391816.34, -46674.445, 0.0, 10.000261, 9.998688 
1.3499989e+2, 2.747802e+2, -350281.03, -448444.3, 11236.888, -0.009878666, -0.0013116596, -349011.16, -101847.18, 0.000000046518082, 9.999909, 9.998609 
1.3499977e+2, 2.847797e+2, -223170.92, -261729.3, -21400.291, -0.044516657, 0.058153216, -213646.3, -64476.926, 0.0000029362805, 9.999779, 9.999286 
1.349992e+2, 2.947807e+2, -155634.16, -183110.17, 14772.24, -0.08594955, 0.19006297, -149199.13, -98040.56, 0.000019015239, 9.999569, 9.999261 
1.3499883e+2, 3.0477783e+2, -69615.0, -158250.8, 9296.089, -0.110252514, -0.00015694216, -68650.52, -68650.52, 0.000075927965, 10.000023, 9.998891 
1.3499837e+2, 3.1477842e+2, 42137.047, -112414.95, -718.7505, -0.15413341, 0.14003697, 42140.387, 42140.387, 0.0002226974, 10.000753, 9.998856 
1.449968e+2, 1.2478323e+2, -1595501.5, -1657236.4, 47257.027, 0.22365713, 0.14198944, -1569924.0, 147220.55, 0.0014659849, 10.00074, 10.000017 
1.4499474e+2, 1.3478436e+2, -1797227.9, -1659383.0, 13587.722, -0.14608972, 0.19177654, -1658056.4, -38920.887, 0.0008466132, 9.998546, 10.000386 
1.449961e+2, 1.4478487e+2, -1707025.4, -1520260.9, -49043.977, -0.06969851, 0.1819855, -1508165.4, 12963.662, 0.00035647568, 9.998264, 10.000806 
1.4499737e+2, 1.547857e+2, -1349279.1, -1323348.4, -96794.47, 0.08638691, 0.16539322, -1238654.9, 184460.88, 0.00008921642, 10.000171, 10.000564 
1.4499807e+2, 1.6478597e+2, -1279269.1, -1395986.8, -16565.2, 0.10650421, 0.21052441, -1276963.6, 48148.27, 0.000008328298, 10.000675, 9.999139 
1.449984e+2, 1.7478527e+2, -1340663.9, -1387085.5, 6649.3647, -0.0033944338, 0.19941679, -1339730.3, -112608.414, 0.0000000715251, 9.999627, 9.999036 
1.449986e+2, 1.8478455e+2, -1197081.5, -1146133.0, -46419.43, -0.013624304, 0.1747845, -1118657.3, 10470.88, 0.0, 9.999408, 10.0001335 
1.449985e+2, 1.9478361e+2, -1008460.56, -1009461.25, -60203.977, 0.06859448, 0.038382646, -948754.9, 82377.06, 0.0, 10.000045, 10.000096 
1.4499876e+2, 2.047836e+2, -904906.6, -978847.4, 28283.063, 0.07699469, 0.06381373, -895328.75, 37802.473, 0.0, 10.000403, 9.999442 
1.4499937e+2, 2.1478438e+2, -814597.06, -891743.8, -1579.082, 0.0083501395, 0.1662691, -814564.8, 20562.584, 0.0, 10.000383, 9.999376 
1.4499994e+2, 2.2478423e+2, -749244.9, -763862.3, -35570.52, 0.0026788847, 0.1997116, -720240.0, 16889.924, 0.0, 9.999967, 9.9997835 
1.4500049e+2, 2.3478293e+2, -772851.6, -731243.3, -24647.861, 0.06831061, 0.060812283, -719793.3, -80652.29, 0.0, 9.999155, 9.99973 
1.4500056e+2, 2.4478266e+2, -667322.75, -642765.75, 3157.991, 0.08109163, 0.0713701, -642366.1, -101223.81, 0.0, 9.99926, 9.999615 
1.450002e+2, 2.5478333e+2, -411819.72, -476319.94, -22935.912, 0.042023018, 0.1475259, -404495.5, 38639.145, 0.0, 10.00037, 9.999551 
1.4499989e+2, 2.647826e+2, -366411.66, -497725.22, -17928.346, 0.017947923, 0.16436751, -364007.88, -18865.496, 0.0, 10.00043, 9.998697 
1.4499974e+2, 2.7478015e+2, -426745.7, -487584.9, -19667.611, 0.019425966, 0.025096651, -420941.47, -173773.64, 0.00000002138944, 9.999378, 9.9986105 
1.4499938e+2, 2.847798e+2, -331808.97, -296961.16, -3964.6394, -0.011009062, 0.09178949, -296515.78, -147344.36, 0.0000023054517, 9.998952, 9.999444 
1.4499879e+2, 2.9478148e+2, -184424.55, -170341.05, -30154.975, -0.059600417, 0.27324915, -146416.55, -95263.21, 0.000016570593, 9.999262, 9.999487 
1.449991e+2, 3.047777e+2, -81149.83, -136715.22, 28926.629, -0.06445762, -0.030260328, -68824.81, -68824.81, 0.0000664134, 9.999847, 9.999109 
1.4500003e+2, 3.147793e+2, -18732.033, -173740.72, -1015.2729, -0.03403401, 0.19412988, -18725.383, -18725.383, 0.0001967113, 10.000485, 9.998555 
1.5499583e+2, 1.24784455e+2, -1552630.9, -1594873.3, -65714.08, -0.022750907, 0.3682132, -1504727.1, 212413.7, 0.0014879738, 10.00084, 10.000408 
1.5499365e+2, 1.3478458e+2, -1791368.9, -1648815.1, -64342.44, -0.14271435, 0.3104769, -1624069.4, -4932.181, 0.0008684092, 9.998548, 10.000465 
1.5499556e+2, 1.4478417e+2, -1766354.5, -1630395.9, 2961.5647, 0.013191785, 0.24188814, -1630331.4, -109191.805, 0.00037251608, 9.998215, 10.000071 
1.5499741e+2, 1.5478471e+2, -1407264.5, -1431617.4, -10715.486, 0.036119655, 0.27128413, -1403221.0, 19912.412, 0.00009664872, 10.000131, 9.999831 
1.5499854e+2, 1.6478468e+2, -1224818.6, -1271858.4, -66856.55, 0.050739784, 0.28033444, -1177465.5, 147666.78, 0.000009881803, 10.00062, 10.000024 
1.549989e+2, 1.7478372e+2, -1284208.0, -1254484.5, -19162.371, 0.052890103, 0.15180147, -1245096.1, -17956.686, 0.00000020107916, 9.99956, 9.999982 
1.5499875e+2, 1.847838e+2, -1201279.9, -1138802.8, -36314.824, 0.032360654, 0.15555517, -1122139.1, 6996.8794, 0.0, 9.999335, 10.00022 
1.5499796e+2, 1.947848e+2, -1016904.5, -1006456.3, -20581.006, -0.02138569, 0.20644867, -990446.75, 40675.87, 0.0, 9.999965, 10.000154 
1.5499823e+2, 2.0478465e+2, -950682.5, -1051577.0, 17312.318, -0.046846997, 0.23870888, -947794.56, -14670.738, 0.0, 10.0003, 9.998999 
1.5499954e+2, 2.1478309e+2, -865231.44, -964565.44, 10279.196, -0.043040447, 0.15208052, -864178.9, -29036.373, 0.0, 10.000244, 9.998945 
1.5499981e+2, 2.2478281e+2, -717050.6, -674771.5, -77487.375, -0.035901695, 0.16144496, -615591.9, 121553.74, 0.0, 9.999862, 10.000449 
1.5499891e+2, 2.3478378e+2, -741268.6, -642672.44, -41036.61, -0.03248371, 0.18043372, -627827.7, 11305.954, 0.0, 9.999044, 10.000396 
1.5499914e+2, 2.4478415e+2, -699303.6, -689635.0, 30685.846, -0.015682125, 0.23343469, -663405.0, -122275.72, 0.0, 9.999177, 9.999331 
1.5500072e+2, 2.5478354e+2, -451978.0, -533011.6, 33696.016, 0.026696933, 0.21277253, -439797.25, 3338.9255, 0.0, 10.000248, 9.999225 
1.5500066e+2, 2.6478255e+2, -358431.75, -464722.7, -67575.586, 0.020934658, 0.20784855, -325606.88, 19540.178, 0.0, 10.000365, 9.99895 
1.5499875e+2, 2.7478096e+2, -430529.6, -468061.06, -43325.863, -0.04521655, 0.122457, -402080.03, -154916.03, 0.000000019825112, 9.999259, 9.998801 
1.5499789e+2, 2.847808e+2, -354289.4, -335398.44, -4657.0654, -0.08735608, 0.2149799, -334312.75, -185147.81, 0.0000019865888, 9.998914, 9.999199 
1.5499832e+2, 2.9478204e+2, -210003.36, -202362.25, -2679.8801, -0.07396574, 0.3816307, -201516.08, -150365.81, 0.000014949104, 9.999164, 9.99932 
1.55e+2, 3.0477765e+2, -37605.273, -26820.16, 46121.52, 0.012737925, -0.02071568, 14222.985, 14222.985, 0.000059797247, 9.999784, 9.999878 
1.55002e+2, 3.1477973e+2, -19421.996, -138777.34, 46421.68, 0.05335514, 0.17732865, -3492.811, -3492.811, 0.00017773658, 10.000346, 9.998849 
1.6499591e+2, 1.2478438e+2, -1927238.3, -1777980.9, 35711.945, 0.04237014, 0.3841527, -1769876.4, -52735.09, 0.0014964563, 9.998273, 10.000381 
1.6499357e+2, 1.3478425e+2, -1532780.8, -1549969.4, -37041.258, -0.08675172, 0.31751755, -1503349.9, 115789.23, 0.0008776996, 10.000411, 10.000252 
1.6499558e+2, 1.4478321e+2, -1422602.0, -1495869.6, 79778.79, 0.077529, 0.21259475, -1371448.0, 149700.1, 0.00037921302, 10.00074, 9.999763 
1.6499749e+2, 1.5478387e+2, -1531269.3, -1529820.0, 66187.98, 0.07489668, 0.28398395, -1464352.6, -41209.535, 0.00009882513, 9.999451, 9.999484 
1.649986e+2, 1.6478385e+2, -1437977.8, -1357893.4, 8284.896, 0.08449429, 0.3049818, -1357045.3, -31902.816, 0.000009884257, 9.999077, 10.0001745 
1.6499887e+2, 1.747829e+2, -1258093.9, -1221789.6, -28436.658, 0.09820415, 0.158472, -1206205.4, 20942.777, 0.0000002904704, 9.999643, 10.000164 
1.6499878e+2, 1.847829e+2, -1117684.9, -1139680.1, -37293.15, 0.071336664, 0.16562173, -1089801.5, 39344.1, 0.0, 10.000104, 9.9998255 
1.6499832e+2, 1.9478379e+2, -969588.6, -1027175.2, -81949.71, 0.0021915955, 0.24060307, -911521.06, 119614.86, 0.0, 10.000482, 9.999745 
1.6499859e+2, 2.0478356e+2, -944550.75, -1005313.06, -42680.645, -0.025883717, 0.2666961, -922542.44, 10595.593, 0.0, 10.000176, 9.9993725 
1.6499953e+2, 2.1478198e+2, -996175.44, -983828.25, -13188.959, -0.004371903, 0.1432807, -975439.5, -140285.31, 0.0, 9.99916, 9.999337 
1.6499953e+2, 2.2478177e+2, -841800.06, -746076.2, -52214.543, -0.0022797808, 0.14334968, -723106.44, 14049.453, 0.0, 9.999061, 10.000341 
1.6499838e+2, 2.34783e+2, -618212.25, -591063.5, -102176.65, -0.026543332, 0.19825502, -501563.47, 137578.83, 0.0, 9.999938, 10.000312 
1.6499873e+2, 2.4478328e+2, -557492.2, -613912.75, -12153.735, -0.014421687, 0.2477616, -554985.44, -13846.302, 0.0, 10.000125, 9.999393 
1.6500083e+2, 2.5478244e+2, -540531.5, -562146.75, -9281.398, 0.053969745, 0.19497229, -537093.1, -93944.375, 0.0, 9.999594, 9.999331 
1.6500089e+2, 2.6478174e+2, -445975.88, -501121.72, -89256.29, 0.04755977, 0.21260782, -380130.63, -34973.938, 0.0, 9.999719, 9.999017 
1.6499871e+2, 2.74781e+2, -225719.86, -353382.4, -105862.75, -0.033221852, 0.20076554, -165933.36, 81231.87, 0.000000024295247, 10.000598, 9.998932 
1.6499761e+2, 2.8478047e+2, -163135.1, -296413.22, -59807.508, -0.07430969, 0.27590844, -140232.53, 8936.952, 0.0000019697127, 10.000469, 9.998717 
1.649981e+2, 2.9478025e+2, -200798.66, -242010.06, -104137.47, -0.015441043, 0.34095994, -115247.83, -64078.246, 0.000013995548, 9.999417, 9.998931 
1.6500035e+2, 3.0477598e+2, -58834.426, -41666.12, -9949.896, 0.0908653, -0.029004918, -37109.19, -37109.19, 0.000055183133, 9.999615, 9.999879 
1.6500315e+2, 3.1477836e+2, 82339.42, -69125.016, -132620.97, 0.119265705, 0.2021378, 159328.16, 159328.16, 0.00016346599, 10.000918, 9.999065 
1.749961e+2, 1.2478314e+2, -1958735.0, -1839913.3, 86651.97, 0.16376469, 0.19233456, -1794261.3, -77116.58, 0.0014785845, 9.998259, 9.999957 
1.7499399e+2, 1.3478358e+2, -1572582.0, -1618045.4, 50997.75, -0.11869767, 0.22046924, -1539479.1, 79660.41, 0.00086354057, 10.000368, 9.999791 
1.7499584e+2, 1.4478216e+2, -1425611.8, -1501531.6, 18972.38, -0.009047008, 0.10279676, -1421134.5, 100019.18, 0.00037008742, 10.000719, 9.9997425 
1.7499724e+2, 1.5478319e+2, -1529447.3, -1522229.3, 32837.316, 0.070118435, 0.20807666, -1492803.3, -69658.4, 0.000094032526, 9.999433, 9.999546 
1.7499794e+2, 1.6478354e+2, -1477673.8, -1436661.0, 15121.102, 0.07664263, 0.28986624, -1431688.8, -106547.11, 0.000008393363, 9.99905, 9.999653 
1.7499787e+2, 1.747829e+2, -1302649.6, -1305242.5, 5859.145, 0.00034876625, 0.22822534, -1297945.1, -70798.13, 0.00000020811186, 9.999606, 9.999609 
1.7499827e+2, 1.8478201e+2, -1184048.5, -1270096.6, -34217.555, -0.02059377, 0.21669775, -1172100.6, -42944.594, 0.0, 10.000058, 9.998959 
1.7499919e+2, 1.947807e+2, -1041870.44, -1155798.3, -55135.816, 0.008276959, 0.15665938, -1019557.3, 11613.593, 0.0, 10.000389, 9.998909 
1.7499943e+2, 2.0478038e+2, -878668.25, -846088.56, -94927.18, 0.014961216, 0.16175672, -766063.7, 167109.44, 0.0, 10.000072, 10.000518 
1.74999e+2, 2.14781e+2, -933046.44, -825070.56, -38422.867, -0.0018826242, 0.13701297, -812793.8, 22369.576, 0.0, 9.999039, 10.000485 
1.749987e+2, 2.247811e+2, -915936.6, -875264.1, -32866.34, -0.017017992, 0.15035197, -856951.2, -119790.375, 0.0, 9.998951, 9.999507 
1.7499846e+2, 2.3478043e+2, -697539.1, -728833.06, -55655.05, -0.040443886, 0.10378034, -655373.4, -16205.291, 0.0, 9.999817, 9.999425 
1.749989e+2, 2.4478008e+2, -544432.9, -568370.5, -42676.742, -0.03623511, 0.115212925, -512078.38, 29093.467, 0.0, 10.000047, 9.99974 
1.7500013e+2, 2.5477993e+2, -535371.8, -522563.5, -16622.654, -0.0026783692, 0.09556992, -511154.0, -67980.98, 0.0, 9.99947, 9.999662 
1.7500035e+2, 2.6478013e+2, -448077.88, -502062.72, -71074.42, -0.0073612016, 0.18420392, -399042.9, -53871.066, 0.0, 9.999696, 9.999022 
1.7499922e+2, 2.7478033e+2, -237922.05, -360678.7, -61220.645, -0.07346979, 0.27041593, -212609.73, 34561.47, 0.000000035492793, 10.000511, 9.998928 
1.7499809e+2, 2.8477898e+2, -214020.45, -398649.53, -111832.25, -0.10384483, 0.2923237, -161323.17, -12138.855, 0.0000021240596, 10.000458, 9.998014 
1.7499746e+2, 2.94776e+2, -264391.06, -348263.3, -126382.4, -0.05411446, 0.15460925, -173168.83, -121957.42, 0.000013429294, 9.999321, 9.998239 
1.7499983e+2, 3.0477265e+2, -104899.7, -138291.19, 30997.223, 0.049815826, -0.060288437, -86387.84, -86387.84, 0.000050919698, 9.999615, 9.999221 
1.750026e+2, 3.147756e+2, 78615.86, -46617.508, -57241.03, -0.09282258, 0.30148745, 100836.58, 100836.58, 0.00014908816, 10.000813, 9.999262 
1.8499604e+2, 1.2478121e+2, -1717914.4, -1743050.5, 25875.957, 0.2565081, 0.10224856, -1701715.8, 15444.349, 0.0014297328, 9.99999, 9.999786 
1.8499431e+2, 1.3478252e+2, -1675055.9, -1663654.0, -37611.77, -0.076814786, 0.21630438, -1631313.6, -12165.734, 0.00082590414, 9.999652, 9.999819 
1.849962e+2, 1.4478105e+2, -1596273.0, -1573968.5, -58072.566, 0.02623834, 0.088490374, -1525987.1, -4824.204, 0.00034715154, 9.999495, 9.99983 
1.8499702e+2, 1.5478191e+2, -1465545.5, -1477482.5, -66705.99, 0.09665843, 0.16234158, -1404541.5, 18613.584, 0.0000844504, 9.999797, 9.999679 
1.8499756e+2, 1.6478232e+2, -1362259.1, -1386277.6, -11772.03, 0.0978308, 0.24445999, -1357451.6, -32300.129, 0.000006352812, 9.9999, 9.999574 
1.8499786e+2, 1.7478184e+2, -1268189.4, -1299384.4, -10459.271, 0.031683944, 0.20986553, -1265007.1, -37851.02, 0.000000056960435, 9.999902, 9.999501 
1.849984e+2, 1.8478106e+2, -1227797.5, -1273502.6, 15863.963, 0.010039159, 0.20553342, -1222831.0, -93665.9, 0.0, 9.999698, 9.9991045 
1.8499899e+2, 1.9477984e+2, -1205512.0, -1216034.9, 44432.8, 0.017983807, 0.14147086, -1166030.3, -134850.73, 0.0, 9.999194, 9.99907 
1.8499905e+2, 2.0477968e+2, -993464.5, -914254.8, 20574.57, 0.015383644, 0.15755835, -909229.44, 23951.5, 0.0, 9.999323, 10.000411 
1.8499853e+2, 2.1478055e+2, -783719.3, -764496.1, -44576.07, 0.00035204037, 0.1675366, -728507.2, 106662.32, 0.0, 10.000099, 10.000391 
1.8499845e+2, 2.2478057e+2, -713395.4, -790621.3, -21647.6, -0.0025747195, 0.18576917, -707741.2, 29426.395, 0.0, 10.0004, 9.9993925 
1.8499887e+2, 2.3477954e+2, -655664.94, -722323.1, -11708.007, 0.009671084, 0.11441894, -653668.3, -14490.232, 0.0, 10.000161, 9.999306 
1.8499917e+2, 2.4477899e+2, -557675.44, -588799.2, 15248.128, -0.0067874873, 0.11908186, -551450.25, -10266.949, 0.0, 10.000006, 9.999623 
1.8499939e+2, 2.547789e+2, -476080.16, -503642.03, -17951.578, -0.039344728, 0.110609055, -467229.84, -24046.135, 0.0, 9.999909, 9.999581 
1.8499966e+2, 2.6477882e+2, -432235.66, -487928.6, -37950.734, -0.044201966, 0.17657745, -413011.06, -67826.96, 0.0, 9.999794, 9.999071 
1.8499982e+2, 2.7477852e+2, -338359.22, -400384.06, -49825.89, -0.02121819, 0.2066782, -310682.72, -63495.234, 0.000000044067633, 9.999794, 9.999004 
1.8499903e+2, 2.8477693e+2, -239578.52, -428047.13, -69473.805, -0.042447366, 0.20750037, -216737.16, -67534.36, 0.000002141611, 10.000324, 9.9978895 
1.8499774e+2, 2.9477417e+2, 22910.129, -229351.7, -71769.4, -0.050458305, 0.10662416, 41899.35, 93128.305, 0.000012353572, 10.001345, 9.9980955 
1.850001e+2, 3.0477157e+2, 21137.928, -132822.44, 127477.58, 0.07121183, 0.0013851005, 93075.445, 93075.445, 0.00004451732, 10.000723, 9.998719 
1.850018e+2, 3.1477305e+2, -242729.0, -175000.45, 7901.21, -0.12280943, 0.2735284, -174090.92, -174090.92, 0.00012893318, 9.998439, 9.999552 
1.94995e+2, 1.2477867e+2, -1723859.6, -1735874.1, -18308.66, 0.0830058, 0.1320942, -1710597.9, 6589.025, 0.0013506947, 9.999923, 9.999865 
1.9499418e+2, 1.347811e+2, -1651025.1, -1595550.0, -44917.375, -0.084206015, 0.31269303, -1570496.1, 48667.594, 0.00077082973, 9.9995985, 10.000304 
1.9499625e+2, 1.4477997e+2, -1581030.8, -1535881.0, -63711.813, 0.04211719, 0.17882322, -1490862.8, 30312.352, 0.0003170448, 9.999455, 10.000116 
1.9499646e+2, 1.5478022e+2, -1450066.9, -1439634.3, -44312.836, 0.025598058, 0.16405678, -1400231.8, 22940.36, 0.000073711046, 9.999772, 9.999951 
1.9499709e+2, 1.6478033e+2, -1342130.5, -1340387.9, -22030.545, 0.03010431, 0.18750368, -1319211.4, 5959.0293, 0.0000047225935, 9.9998665, 9.999913 
1.949985e+2, 1.7477985e+2, -1249072.0, -1250496.9, 4765.202, 0.073930115, 0.11353956, -1244966.3, -17791.613, 0.0000000036456946, 9.999858, 9.999863 
1.9499873e+2, 1.8478009e+2, -1158230.1, -1114612.9, -15779.914, 0.044314917, 0.13918735, -1109502.6, 19669.63, 0.0, 9.999626, 10.0002365 
1.9499741e+2, 1.9478111e+2, -1137626.3, -1058374.9, 37800.88, -0.08731629, 0.18633759, -1043236.56, -12073.684, 0.0, 9.999117, 10.0001955 
1.9499707e+2, 2.047814e+2, -1103823.4, -1113131.3, 38780.543, -0.14279075, 0.25454545, -1069418.5, -136256.72, 0.0, 9.999197, 9.999104 
1.9499771e+2, 2.1478061e+2, -896822.4, -969354.56, -2874.1304, -0.118880406, 0.23512438, -896708.6, -61536.117, 0.0, 9.9999695, 9.999046 
1.9499841e+2, 2.2478028e+2, -695390.56, -720363.25, -43426.875, -0.07023384, 0.2570984, -662690.6, 74485.39, 0.0, 10.000265, 9.999938 
1.949992e+2, 2.347803e+2, -634666.8, -643862.25, -8473.232, 0.00006202811, 0.23403823, -629624.3, 9548.49, 0.0, 10.000017, 9.999911 
1.9499914e+2, 2.4478005e+2, -609835.9, -670378.3, -746.4271, -0.033688463, 0.2607833, -609826.7, -68653.08, 0.0, 9.999896, 9.999114 
1.9499812e+2, 2.5477934e+2, -534554.44, -590165.4, -9360.457, -0.18611264, 0.24494794, -533021.2, -89840.92, 0.0, 9.999765, 9.999054 
1.9499843e+2, 2.6477796e+2, -432082.94, -481209.8, -50701.023, -0.17535062, 0.20211893, -400308.5, -55116.273, 0.0, 9.999758, 9.999143 
1.950001e+2, 2.7477542e+2, -345005.06, -401771.75, -33276.59, -0.002543525, 0.006265516, -329651.16, -82436.79, 0.000000036761158, 9.999729, 9.999036 
1.9500007e+2, 2.8477412e+2, -215398.73, -367866.13, -41949.582, -0.0013730731, 0.016715098, -204618.95, -55392.707, 0.0000018181237, 10.000285, 9.998321 
1.9499859e+2, 2.9477477e+2, 35612.043, -173683.28, -17933.52, -0.13433786, 0.2118839, 37137.563, 88358.84, 0.000010151812, 10.001229, 9.99853 
1.9500078e+2, 3.0477288e+2, -4877.096, -180316.48, 34493.035, 0.033530984, 0.16991743, 1660.9105, 1660.9105, 0.00003534469, 10.000703, 9.998395 
1.949999e+2, 3.1477118e+2, -212325.63, -80381.01, -23341.313, -0.21762374, 0.14696087, -76373.59, -76373.59, 0.000103030594, 9.998329, 10.000236 
2.0499499e+2, 1.2477647e+2, -1665010.3, -1706556.8, 64505.53, 0.08562329, 0.12059616, -1618015.6, 99191.93, 0.0012481128, 10.000333, 9.999871 
2.0499393e+2, 1.3477907e+2, -1618972.5, -1544823.6, -38108.688, -0.058272105, 0.283449, -1528730.5, 90451.74, 0.0007037624, 9.9996395, 10.000656 
2.0499596e+2, 1.4477843e+2, -1585006.5, -1512423.9, 5674.4727, 0.0814043, 0.17480527, -1511982.9, 9205.571, 0.00028324383, 9.999335, 10.000334 
2.0499603e+2, 1.547788e+2, -1428240.3, -1407006.5, -16098.128, 0.012898042, 0.15173605, -1398339.5, 24845.207, 0.000063005726, 9.999832, 10.000147 
2.049968e+2, 1.6477907e+2, -1329932.4, -1327161.1, -3942.6997, 0.019378604, 0.17736849, -1324367.6, 814.68304, 0.0000035155435, 9.999919, 9.999982 
2.0499854e+2, 1.7477877e+2, -1303437.3, -1272099.0, -26483.553, 0.11855298, 0.122241594, -1256996.4, -29810.662, 0.0000000004928599, 9.99946, 9.999911 
2.0499869e+2, 1.8477932e+2, -1180840.6, -1110135.1, -62078.97, 0.095273055, 0.16694306, -1074048.3, 55133.07, 0.0, 9.999405, 10.00037 
2.0499694e+2, 1.947807e+2, -1025674.44, -992089.5, -110712.47, -0.07520329, 0.23715231, -896903.25, 134265.27, 0.0, 9.999822, 10.00031 
2.0499659e+2, 2.0478104e+2, -984678.56, -1055976.9, -60001.605, -0.1458598, 0.30421016, -950534.8, -17367.914, 0.0, 10.000022, 9.999098 
2.0499778e+2, 2.1478e+2, -907792.7, -975887.56, -22865.191, -0.09906493, 0.26304027, -900827.4, -65647.72, 0.0, 9.999908, 9.999031 
2.0499858e+2, 2.2477959e+2, -758026.44, -746789.0, -24372.008, -0.05098992, 0.27672017, -727396.44, 9787.1875, 0.0, 9.999805, 9.999979 
2.0499898e+2, 2.3477972e+2, -682061.75, -665202.6, -56328.984, 0.0006680043, 0.25836843, -616675.94, 22503.375, 0.0, 9.99967, 9.999937 
2.0499884e+2, 2.447794e+2, -634445.06, -671875.7, -16136.03, -0.035341762, 0.27194142, -628449.4, -87269.16, 0.0, 9.999682, 9.999205 
2.0499815e+2, 2.5477841e+2, -506077.13, -566922.94, -2575.5085, -0.1593852, 0.2216498, -505968.3, -62780.105, 0.0, 9.999921, 9.999137 
2.0499861e+2, 2.6477692e+2, -390734.78, -464792.7, -1246.7343, -0.14134346, 0.16516148, -390713.78, -45512.973, 0.0, 10.000063, 9.9991 
2.0500013e+2, 2.7477443e+2, -294709.5, -380162.97, -22072.719, 0.017640287, -0.021617744, -289344.88, -42122.23, 0.00000002096579, 10.000097, 9.998995 
2.0500033e+2, 2.8477353e+2, -230654.36, -367148.9, 2587.3533, 0.009906602, 0.026961746, -230605.33, -81373.55, 0.0000012828043, 10.000165, 9.998378 
2.0499948e+2, 2.9477498e+2, -86904.96, -219320.88, -25746.793, -0.1148024, 0.2932255, -82074.96, -30854.482, 0.000007381431, 10.000346, 9.998634 
2.0500173e+2, 3.0477297e+2, -125500.26, -203490.7, -27805.79, 0.11783841, 0.21824601, -116601.96, -116601.96, 0.00002618385, 9.999721, 9.998724 
2.0499861e+2, 3.1477067e+2, -197279.02, -21539.463, -60957.29, -0.16316222, 0.10126583, -2465.8486, -2465.8486, 0.000078949044, 9.998241, 10.000676 
2.1499504e+2, 1.2477455e+2, -1676902.1, -1719190.3, 15030.291, -0.010204993, 0.06978304, -1672104.4, 45118.07, 0.0011286415, 10.000275, 9.999815 
2.149932e+2, 1.3477646e+2, -1592486.0, -1499571.8, -52726.703, -0.12740251, 0.13354212, -1475755.4, 143447.16, 0.00062779407, 9.999675, 10.000951 
2.1499488e+2, 1.4477663e+2, -1586613.3, -1511937.4, 7306.612, 0.00047347, 0.090236224, -1511229.3, 9971.642, 0.00024660726, 9.999315, 10.000346 
2.1499543e+2, 1.547777e+2, -1424089.1, -1402725.3, 17141.748, -0.06808634, 0.13415475, -1393209.6, 29982.334, 0.000052325075, 9.999845, 10.000171 
2.1499626e+2, 1.6477849e+2, -1355887.9, -1368055.3, -33038.363, -0.056539472, 0.2225456, -1328377.8, -3190.7, 0.000002586899, 9.999861, 9.999728 
2.1499756e+2, 1.7477863e+2, -1329241.3, -1310030.1, -30557.168, 0.045985445, 0.23097491, -1287604.3, -60414.78, 0.000000000052014764, 9.999398, 9.999675 
2.1499786e+2, 1.8477872e+2, -1258085.4, -1250923.1, -57579.516, 0.04630067, 0.28841975, -1196813.5, -67621.234, 0.0, 9.999315, 9.99945 
2.1499716e+2, 1.9477856e+2, -1095761.8, -1124525.8, -80344.71, -0.067435406, 0.29436514, -1028521.94, 2674.769, 0.0, 9.999762, 9.999429 
2.1499725e+2, 2.047786e+2, -909463.0, -875664.75, -76479.34, -0.106757276, 0.31185234, -814239.75, 118956.414, 0.0, 9.999917, 10.000385 
2.1499832e+2, 2.1477863e+2, -832033.9, -789358.7, -16183.623, -0.063598275, 0.24355713, -783915.7, 51276.113, 0.0, 9.999781, 10.000372 
2.1499853e+2, 2.2477843e+2, -812555.06, -823620.44, -41433.086, -0.05933583, 0.23261596, -776286.9, -39095.41, 0.0, 9.999656, 9.999519 
2.1499778e+2, 2.3477782e+2, -740781.9, -747339.06, -47110.094, -0.11175182, 0.18842171, -696836.44, -57639.117, 0.0, 9.999505, 9.999447 
2.1499792e+2, 2.447771e+2, -599289.4, -582939.25, -19981.885, -0.12417662, 0.15723959, -569524.8, -28322.559, 0.0, 9.999609, 9.999853 
2.1499914e+2, 2.5477618e+2, -475921.22, -475858.75, 19468.393, -0.08294168, 0.045942344, -456421.56, -13214.422, 0.0, 9.999798, 9.999823 
2.1499978e+2, 2.6477578e+2, -412772.72, -494338.88, -12477.269, -0.057989225, 0.072015636, -410906.75, -65697.34, 0.0, 9.999996, 9.998923 
2.1499948e+2, 2.7477553e+2, -327862.88, -421350.9, -6668.459, -0.08823223, 0.12683457, -327389.63, -80176.586, 0.00000000626477, 9.999979, 9.998766 
2.149994e+2, 2.8477508e+2, -246911.9, -395632.1, -4201.422, -0.13002402, 0.23913273, -246793.31, -97573.14, 0.00000075455597, 10.000144, 9.998192 
2.1500014e+2, 2.9477477e+2, -115474.88, -264718.34, -7375.3755, -0.118272334, 0.35171866, -115111.29, -63884.535, 0.0000049684672, 10.000284, 9.998354 
2.1500269e+2, 3.047718e+2, -61758.008, -75951.82, -94501.336, 0.21673293, 0.15679842, 25912.533, 25912.533, 0.000019575336, 9.999737, 9.999596 
2.1499737e+2, 3.1477144e+2, -212137.31, -36882.15, -35432.875, -0.17634866, 0.14773674, -29989.457, -29989.457, 0.00006230811, 9.998171, 10.000612 
2.2499548e+2, 1.24773905e+2, -1650279.5, -1744365.0, 76122.414, 0.0053769625, 0.09093442, -1607836.9, 109390.37, 0.0009987325, 10.000601, 9.999487 
2.249934e+2, 1.3477473e+2, -1629225.3, -1543383.4, -111507.78, -0.058140755, 0.06956787, -1466821.3, 152397.28, 0.0005469882, 9.999554, 10.000692 
2.2499453e+2, 1.4477521e+2, -1638001.4, -1540517.6, 4587.1484, 0.0582575, 0.06913453, -1540302.3, -19088.053, 0.00020906689, 9.998978, 10.000323 
2.249949e+2, 1.5477598e+2, -1533622.4, -1456326.6, -11476.055, -0.05829793, 0.08895686, -1454658.8, -31451.379, 0.000042237294, 9.999104, 10.000165 
2.249957e+2, 1.6477689e+2, -1421437.0, -1399162.6, -38659.06, -0.06966738, 0.18932559, -1370068.5, -44867.133, 0.0000020119714, 9.999415, 9.999718 
2.2499695e+2, 1.7477752e+2, -1260126.4, -1281096.5, -49676.363, 0.026958924, 0.2502546, -1219840.5, 7359.5713, 0.0, 9.999895, 9.999626 
2.2499734e+2, 1.8477759e+2, -1165106.6, -1215658.0, -13690.117, 0.035094853, 0.31041715, -1161637.1, -32433.525, 0.0, 9.9999895, 9.999368 
2.2499685e+2, 1.9477691e+2, -1137881.6, -1155079.4, -531.3097, -0.055819463, 0.2718105, -1137865.1, -106652.02, 0.0, 9.999527, 9.999334 
2.2499718e+2, 2.0477675e+2, -999088.4, -890303.25, 11856.399, -0.06291325, 0.2652307, -889026.06, 44187.184, 0.0, 9.99917, 10.000657 
2.2499844e+2, 2.1477696e+2, -949699.7, -815927.0, -29047.205, 0.025424888, 0.18813914, -809892.0, 25313.338, 0.0, 9.998835, 10.000655 
2.249985e+2, 2.2477692e+2, -905265.06, -872546.9, -35965.953, 0.009470422, 0.17944789, -849394.3, -112191.15, 0.0, 9.999031, 9.999488 
2.2499724e+2, 2.3477641e+2, -705932.5, -733384.2, -33603.53, -0.12125312, 0.14882362, -683359.7, -44150.473, 0.0, 9.999758, 9.999422 
2.2499739e+2, 2.44776e+2, -573505.1, -553981.75, -4617.8223, -0.13634712, 0.14145483, -552944.56, -11732.428, 0.0, 9.999715, 10.000003 
2.2499913e+2, 2.547755e+2, -595136.56, -520618.25, -32699.45, -0.010973902, 0.058494233, -508304.25, -65090.594, 0.0, 9.998909, 9.999954 
2.2499998e+2, 2.647754e+2, -541177.06, -528485.94, -10262.519, 0.017768139, 0.095170654, -522765.6, -177552.25, 0.0, 9.998996, 9.999172 
2.2499967e+2, 2.7477545e+2, -276788.16, -366180.8, 4999.581, -0.07012154, 0.15308261, -276509.4, -29295.697, 0.00000000006385136, 10.000195, 9.999043 
2.2499967e+2, 2.8477496e+2, -173031.4, -336528.2, 36397.9, -0.12795757, 0.23721123, -165294.56, -16074.027, 0.00000032397858, 10.000541, 9.998408 
2.2500043e+2, 2.9477417e+2, -160617.84, -269579.63, 32937.465, -0.089250006, 0.27822807, -151435.22, -100204.0, 0.000003287384, 9.999902, 9.998501 
2.250028e+2, 3.0477133e+2, -52126.758, -12613.598, -34976.03, 0.2739539, 0.06752494, 7800.0273, 7800.0273, 0.00001601569, 9.999555, 10.000112 
2.2499692e+2, 3.1477273e+2, -20285.877, 23272.64, 1936.959, -0.09447337, 0.16562681, 23358.604, 23358.604, 0.000054019332, 9.999627, 10.0003195 
2.349957e+2, 1.24774426e+2, -1698030.0, -1840494.0, 8414.794, -0.104534976, 0.16804698, -1697534.6, 19688.105, 0.0008678289, 10.000595, 9.998831 
2.3499408e+2, 1.3477376e+2, -1688527.6, -1678328.0, -150810.58, 0.022867907, 0.09713117, -1532531.0, 86700.95, 0.00046623294, 9.999588, 9.999761 
2.3499437e+2, 1.4477392e+2, -1647439.9, -1533487.5, -7494.0815, 0.11471829, 0.105252855, -1532996.8, -11766.218, 0.00017258529, 9.998873, 10.000421 
2.3499411e+2, 1.5477355e+2, -1532528.0, -1448226.1, 9139.589, -0.08065461, 0.0062718275, -1447246.6, -24015.19, 0.000033446406, 9.999081, 10.000234 
2.3499471e+2, 1.647741e+2, -1425016.9, -1388607.6, -34909.145, -0.14093433, 0.06495516, -1367441.5, -42214.76, 0.0000017722703, 9.999342, 9.999828 
2.3499636e+2, 1.7477529e+2, -1254018.1, -1258123.3, -18864.37, -0.051706236, 0.16567993, -1237095.0, -9875.298, 0.0000000001389195, 9.999847, 9.99981 
2.3499672e+2, 1.8477583e+2, -1132520.1, -1120704.1, -43033.16, -0.053876165, 0.23147811, -1083175.3, 46041.176, 0.0, 9.999877, 10.000074 
2.3499559e+2, 1.9477561e+2, -1099628.6, -1058914.0, -7238.62, -0.1633704, 0.16978168, -1057665.4, -26446.844, 0.0, 9.9994545, 10.000032 
2.3499586e+2, 2.0477541e+2, -1070008.3, -1001926.56, -12771.134, -0.13410641, 0.15705334, -999609.75, -66390.63, 0.0, 9.999022, 9.99996 
2.3499772e+2, 2.14775e+2, -1022860.1, -931393.3, -26954.463, 0.043676715, 0.08807696, -924041.06, -88820.32, 0.0, 9.998677, 9.999938 
2.3499815e+2, 2.2477509e+2, -903430.4, -830950.25, -19193.701, 0.046033785, 0.11168328, -826181.25, -88962.59, 0.0, 9.998876, 9.999848 
2.3499699e+2, 2.3477556e+2, -699186.3, -687554.2, 8291.749, -0.15065955, 0.14531498, -683242.1, -44027.707, 0.0, 9.999622, 9.999804 
2.3499678e+2, 2.4477601e+2, -609265.9, -612257.2, -46816.902, -0.19924614, 0.22371958, -563920.75, -22710.277, 0.0, 9.999642, 9.999638 
2.3499763e+2, 2.547763e+2, -641122.56, -584428.8, -50610.91, -0.08115822, 0.25510618, -554767.0, -111558.39, 0.0, 9.998773, 9.999579 
2.349988e+2, 2.6477578e+2, -503915.94, -433666.13, 20221.813, -0.026363436, 0.2376821, -428261.03, -83048.73, 0.0, 9.998924, 9.999858 
2.3500034e+2, 2.7477413e+2, -242209.13, -270285.34, 65843.78, -0.051940113, 0.055096462, -188923.6, 58301.457, 0.0, 10.000088, 9.999757 
2.3500068e+2, 2.8477323e+2, -132398.27, -243977.84, 3241.028, -0.11264144, 0.028864132, -132304.2, 16928.27, 0.00000009734078, 10.0005045, 9.999062 
2.349999e+2, 2.9477316e+2, -134810.81, -198280.08, 21146.22, -0.17299859, 0.08286692, -128410.83, -77177.04, 0.0000024854203, 9.999816, 9.99904 
2.3500153e+2, 3.0477157e+2, -27912.563, 37862.965, -43418.414, 0.1630322, -0.046085283, 59443.207, 59443.207, 0.000014818684, 9.999554, 10.000461 
2.349965e+2, 3.1477448e+2, -61989.695, -52907.4, 86170.484, -0.16458775, 0.166486, 28841.514, 28841.514, 0.00005156838, 9.999573, 9.999828 
2.4499647e+2, 1.2477413e+2, -1834310.6, -1894416.8, 46212.336, -0.02529102, 0.17322361, -1809238.8, -92012.375, 0.00074233726, 9.9996395, 9.99892 
2.4499434e+2, 1.3477363e+2, -1536627.1, -1642163.8, -122921.97, 0.04024263, 0.15414195, -1455625.9, 163609.38, 0.00038816038, 10.000808, 9.999422 
2.4499394e+2, 1.4477386e+2, -1358707.6, -1439402.1, 47893.965, 0.086182885, 0.20687665, -1336431.1, 184802.67, 0.00013769997, 10.001039, 10.000018 
2.4499457e+2, 1.5477267e+2, -1369064.0, -1418113.5, -4369.94, -0.0010989895, 0.06501711, -1368677.8, 54565.14, 0.000025817635, 10.00042, 9.999787 
2.44995e+2, 1.6477261e+2, -1327410.5, -1332635.5, -29005.035, -0.07027948, 0.08258346, -1300900.5, 24342.729, 0.0000016011192, 9.999963, 9.999924 
2.449956e+2, 1.747735e+2, -1286990.4, -1259830.0, -38720.934, -0.09093539, 0.14233547, -1232376.9, -5139.928, 0.0000000006420841, 9.999561, 9.999941 
2.449958e+2, 1.8477415e+2, -1191412.6, -1125320.3, -67281.32, -0.10129251, 0.20052798, -1083407.6, 45823.797, 0.0, 9.999387, 10.000269 
2.4499549e+2, 1.9477439e+2, -1098895.9, -1035761.4, -95388.805, -0.10782586, 0.16537167, -966852.2, 64376.008, 0.0, 9.999379, 10.000216 
2.4499583e+2, 2.0477429e+2, -989559.56, -1000913.3, -71616.734, -0.06628299, 0.16979876, -923395.06, 9833.16, 0.0, 9.999737, 9.999619 
2.4499714e+2, 2.1477364e+2, -805747.8, -865621.6, -84222.9, 0.04391402, 0.11318399, -746299.5, 88934.12, 0.0, 10.000343, 9.999581 
2.4499762e+2, 2.2477347e+2, -699764.2, -731809.06, -58697.113, 0.04388751, 0.12822424, -654942.0, 82292.57, 0.0, 10.000265, 9.99986 
2.4499719e+2, 2.3477367e+2, -726082.75, -696021.56, -78986.79, -0.07525961, 0.12976377, -630648.0, 8584.157, 0.0, 9.999422, 9.999841 
2.4499688e+2, 2.4477415e+2, -694715.5, -654427.1, -117746.12, -0.11855316, 0.21003754, -555114.5, -13886.603, 0.0, 9.999061, 9.999636 
2.449967e+2, 2.547748e+2, -571026.56, -546885.94, -118398.54, -0.0663019, 0.27935895, -439944.03, 3279.1536, 0.0, 9.999249, 9.999608 
2.4499787e+2, 2.6477438e+2, -481743.9, -399596.13, -7093.581, -0.008386456, 0.2572674, -398988.1, -53761.094, 0.0, 9.998961, 10.000081 
2.4500048e+2, 2.7477264e+2, -506629.5, -367789.1, -21278.271, 0.059029773, 0.041999277, -364601.25, -117359.92, 0.0, 9.998147, 10.000021 
2.4500088e+2, 2.8477237e+2, -417906.0, -278790.44, -64732.6, -0.013793309, 0.022666868, -253329.31, -104087.85, 0.00000009803459, 9.998104, 9.999983 
2.449989e+2, 2.9477346e+2, -196002.84, -120350.125, -53785.223, -0.20114341, 0.095677085, -92421.76, -41193.242, 0.0000023443192, 9.998943, 9.999992 
2.4500029e+2, 3.0477208e+2, -23626.484, 32972.78, -79917.125, 0.09073923, -0.05847065, 89452.95, 89452.95, 0.000014153015, 9.9996195, 10.000395 
2.4499735e+2, 3.1477484e+2, -16982.434, -61005.05, 6334.6177, -0.045479324, 0.14577504, -16089.047, -16089.047, 0.00004937861, 10.000039, 9.999536 
2.5499693e+2, 1.2477322e+2, -1782674.1, -1779316.6, 52274.313, -0.008396972, 0.12503506, -1728694.1, -11458.265, 0.00062344765, 9.999605, 9.999729 
2.5499383e+2, 1.347742e+2, -1510791.1, -1585561.6, -69437.69, -0.11930586, 0.2223672, -1469314.1, 149915.4, 0.0003143659, 10.000804, 9.99981 
2.5499302e+2, 1.4477493e+2, -1436345.8, -1588515.8, 8599.279, -0.1466278, 0.35638854, -1435861.3, 85363.47, 0.00010539114, 10.00099, 9.999015 
2.5499567e+2, 1.5477325e+2, -1444948.8, -1565021.5, -15253.896, 0.03622878, 0.26320574, -1443041.3, -19798.566, 0.000019009012, 10.000379, 9.998794 
2.549961e+2, 1.647724e+2, -1328904.0, -1315891.1, -57223.29, 0.015530166, 0.24206096, -1264805.5, 60445.625, 0.0000013062046, 9.99988, 10.000078 
2.549942e+2, 1.7477228e+2, -1282260.8, -1239123.3, -38638.19, -0.21650554, 0.18712084, -1216441.4, 10809.56, 0.000000000635992, 9.999519, 10.000101 
2.5499418e+2, 1.8477258e+2, -1226620.9, -1180628.0, -78869.65, -0.23136291, 0.22081123, -1121470.6, 7776.9883, 0.0, 9.999305, 9.999929 
2.549961e+2, 1.9477312e+2, -1132273.8, -1087573.4, -82174.11, -0.016183611, 0.24535902, -1024764.25, 6478.9473, 0.0, 9.999298, 9.999899 
2.5499684e+2, 2.0477325e+2, -1018422.6, -1021760.25, -60469.67, 0.033434436, 0.29234082, -959598.75, -26357.049, 0.0, 9.999575, 9.999553 
2.5499636e+2, 2.1477278e+2, -829077.75, -881463.9, -49451.766, -0.09850393, 0.25853798, -799310.56, 35934.723, 0.0, 10.000208, 9.999536 
2.549965e+2, 2.24772e+2, -736295.9, -780266.75, -102420.18, -0.11827849, 0.22867347, -653528.06, 83723.63, 0.0, 10.000145, 9.999586 
2.549974e+2, 2.3477064e+2, -764592.06, -745896.8, -97841.86, -0.022933066, 0.1005726, -656957.06, -17693.742, 0.0, 9.9992895, 9.999562 
2.549973e+2, 2.4477032e+2, -682689.2, -608622.25, -124651.66, -0.008496541, 0.09627422, -515619.13, 25646.059, 0.0, 9.998974, 9.99999 
2.5499603e+2, 2.547709e+2, -564792.56, -504724.25, -100286.766, -0.08781546, 0.122039884, -430070.84, 13187.947, 0.0, 9.999122, 9.99996 
2.5499675e+2, 2.647711e+2, -506672.25, -431123.22, -49798.49, -0.045203146, 0.15632321, -406393.3, -61135.46, 0.0, 9.998882, 9.999901 
2.5499964e+2, 2.747709e+2, -535459.8, -403683.28, -38006.98, 0.130671, 0.10893428, -393507.16, -146243.3, 0.0, 9.99804, 9.999829 
2.549999e+2, 2.8477228e+2, -341695.34, -106438.95, -48613.14, 0.04694905, 0.20799945, -96789.38, 52459.523, 0.00000013920514, 9.998051, 10.001187 
2.5499701e+2, 2.9477495e+2, -131355.6, 47973.305, -12480.552, -0.317612, 0.31425652, 48837.734, 100054.34, 0.0000022917138, 9.998805, 10.00121 
2.5499865e+2, 3.0477262e+2, -57881.35, -33591.68, -72332.336, -0.062542886, 0.027139032, 27608.318, 27608.318, 0.0000129202135, 9.9995985, 9.999946 
2.5499865e+2, 3.147733e+2, -47532.96, -112165.945, 96271.14, 0.016305637, 0.077851415, 21700.965, 21700.965, 0.000045825393, 9.999984, 9.999215 
2.6499665e+2, 1.24771565e+2, -1743123.9, -1724715.3, 31979.26, 0.016246578, 0.108525775, -1700642.1, 16609.758, 0.00051409315, 9.999679, 10.000074 
2.6499453e+2, 1.3477245e+2, -1594497.4, -1629397.6, -156141.92, -0.08604513, 0.18479514, -1454833.5, 164412.39, 0.0002486299, 10.000198, 9.999815 
2.649934e+2, 1.4477313e+2, -1529747.5, -1630422.0, -56625.242, -0.16436689, 0.3132783, -1504320.3, 16921.285, 0.00007773356, 10.000342, 9.999039 
2.6499626e+2, 1.5477219e+2, -1405316.3, -1542140.5, -32413.432, 0.054040708, 0.28899494, -1398026.0, 25227.057, 0.000013419433, 10.000624, 9.998839 
2.6499653e+2, 1.6477147e+2, -1271555.6, -1289738.9, -31290.256, 0.059917193, 0.2798272, -1248062.9, 77197.22, 0.0000010267595, 10.000281, 10.000064 
2.6499394e+2, 1.7477094e+2, -1334504.3, -1267338.4, -55280.516, -0.17099132, 0.18366426, -1236239.4, -8976.46, 0.0000000012219834, 9.9991665, 10.000077 
2.649939e+2, 1.8477085e+2, -1257880.0, -1214110.4, -23249.39, -0.17826039, 0.18900064, -1204065.9, -74803.39, 0.0, 9.99917, 9.99977 
2.6499665e+2, 1.947711e+2, -996628.8, -1041903.1, -40627.605, 0.06777993, 0.2048908, -972757.44, 58502.734, 0.0, 10.00031, 9.99973 
2.6499754e+2, 2.0477107e+2, -910502.4, -983053.1, -19715.047, 0.11598049, 0.2479488, -905491.1, 27769.54, 0.0, 10.000371, 9.999435 
2.649964e+2, 2.1477059e+2, -995901.1, -978486.9, -40226.234, -0.05413508, 0.22504894, -946036.2, -110770.56, 0.0, 9.999131, 9.9993925 
2.6499626e+2, 2.2476989e+2, -926847.0, -866133.56, -52049.875, -0.08862913, 0.21043704, -836234.8, -98962.89, 0.0, 9.998808, 9.999644 
2.6499718e+2, 2.3476888e+2, -734305.7, -728397.6, -53137.4, 0.027283553, 0.11115909, -678132.25, -38851.49, 0.0, 9.999479, 9.999597 
2.6499704e+2, 2.4476847e+2, -609190.75, -561810.3, -60030.586, 0.05127172, 0.09371334, -520964.5, 20318.639, 0.0, 9.999444, 10.000079 
2.6499546e+2, 2.5476855e+2, -620326.75, -519350.5, -78430.414, -0.025985971, 0.06000557, -476562.78, -33282.22, 0.0, 9.998699, 10.000056 
2.6499563e+2, 2.647688e+2, -579065.25, -477267.9, -8886.449, -0.014828757, 0.09767886, -476498.0, -131218.34, 0.0, 9.998428, 9.999805 
2.6499778e+2, 2.7476934e+2, -438663.78, -360889.7, -17029.604, 0.11318675, 0.13986059, -357324.28, -110044.76, 0.0, 9.998735, 9.999783 
2.6499823e+2, 2.8477117e+2, -282559.16, -101130.65, -38038.03, 0.057407644, 0.29034635, -93478.41, 55783.652, 0.00000017298198, 9.998546, 10.000987 
2.6499635e+2, 2.9477355e+2, -283245.6, -42899.473, -133896.27, -0.20607814, 0.3865535, 16843.484, 68077.234, 0.000002277503, 9.997817, 10.00107 
2.6499796e+2, 3.0477056e+2, -265340.88, -108803.78, -160888.61, -0.0012635507, 0.028524278, -8155.841, -8155.841, 0.000011809922, 9.99805, 10.00019 
2.6499894e+2, 3.147715e+2, -174478.9, -120157.65, 43728.402, 0.114481725, 0.08544121, -95841.36, -95841.36, 0.000042458643, 9.998849, 9.999719 
2.7499515e+2, 1.24769084e+2, -1748556.3, -1736364.6, -5697.794, -0.17748481, 0.110345766, -1734116.4, -16841.006, 0.00042131313, 9.999672, 10.000002 
2.749957e+2, 1.3476844e+2, -1612637.1, -1666446.8, -133733.72, -0.019847747, 0.061962947, -1503128.6, 116154.48, 0.0001952308, 10.000199, 9.9995575 
2.7499458e+2, 1.4476857e+2, -1460889.9, -1479063.0, -66588.66, -0.123382986, 0.09441297, -1402770.6, 118512.164, 0.000056360343, 10.000306, 10.000096 
2.7499604e+2, 1.5476955e+2, -1331739.0, -1382102.0, -7003.4395, -0.063470826, 0.15502936, -1330783.3, 92489.734, 0.000009372096, 10.000598, 9.99995 
2.74996e+2, 1.647699e+2, -1288566.6, -1315423.8, -84758.49, -0.0518926, 0.20161831, -1216179.5, 109089.766, 0.0000008660051, 10.00024, 9.999905 
2.7499422e+2, 1.7476939e+2, -1357507.1, -1302472.5, -84948.055, -0.09121083, 0.12811446, -1240696.1, -13422.444, 0.000000004874734, 9.999118, 9.999857 
2.7499446e+2, 1.847689e+2, -1275511.1, -1226130.9, 4865.123, -0.065432996, 0.10675267, -1225656.1, -96379.48, 0.0, 9.999064, 9.999737 
2.7499676e+2, 1.9476834e+2, -1009358.7, -1048688.9, 17639.23, 0.017828578, 0.042215478, -1002606.75, 28672.56, 0.0, 10.000231, 9.99972 
2.7499762e+2, 2.0476782e+2, -941280.56, -1019568.75, -76585.18, 0.06066059, 0.04767917, -894415.7, 38868.49, 0.0, 10.000256, 9.99924 
2.7499685e+2, 2.1476702e+2, -1032097.6, -1015601.25, -73548.875, 0.053143118, 0.012593921, -949839.5, -114544.84, 0.0, 9.998971, 9.999212 
2.749964e+2, 2.2476716e+2, -929615.3, -835146.44, -40336.65, 0.022152547, 0.07437281, -820266.94, -82971.84, 0.0, 9.998649, 9.999937 
2.7499622e+2, 2.3476817e+2, -734148.7, -694854.8, -15871.442, -0.04524624, 0.1504731, -689245.0, -49959.125, 0.0, 9.999331, 9.999902 
2.7499563e+2, 2.4476844e+2, -635097.75, -592109.25, -98646.875, -0.057199035, 0.19270113, -512642.1, 28640.746, 0.0, 9.999346, 9.999916 
2.7499458e+2, 2.5476757e+2, -650033.4, -556051.7, -93425.586, -0.016246114, 0.08195917, -498464.94, -55175.207, 0.0, 9.998584, 9.999863 
2.7499413e+2, 2.647673e+2, -591060.3, -481997.94, -13857.809, -0.036091987, 0.0767793, -480264.7, -134971.73, 0.0, 9.998352, 9.999805 
2.749945e+2, 2.7476782e+2, -458844.28, -375121.63, 6893.865, -0.11785877, 0.11768165, -374557.75, -127267.04, 0.00000000009324417, 9.998619, 9.99974 
2.749955e+2, 2.8476873e+2, -397191.0, -327367.16, -78788.24, -0.099656485, 0.25509953, -276102.34, -126818.43, 0.00000023612336, 9.9985, 9.999452 
2.7499646e+2, 2.9476917e+2, -400362.56, -267828.7, -144752.73, -0.016437339, 0.31011635, -174895.58, -123614.586, 0.0000024951785, 9.997733, 9.999567 
2.749977e+2, 3.0476606e+2, -193110.3, 55416.85, -136880.47, 0.14051646, -0.042016003, 116025.4, 116025.4, 0.0000116764495, 9.998012, 10.001324 
2.7499723e+2, 3.147697e+2, -110001.53, 54943.83, 117015.3, -0.00613221, 0.17569132, 115629.53, 115629.53, 0.000040637482, 9.99869, 10.000992 
2.8499493e+2, 1.2476708e+2, -1682919.1, -1681803.8, 28420.645, -0.16889864, 0.1319491, -1653935.4, 63361.29, 0.00034670465, 10.000057, 10.0001745 
2.8499663e+2, 1.3476667e+2, -1635386.0, -1641959.0, -87132.46, 0.079317786, 0.07522689, -1551478.0, 67822.13, 0.00015383656, 9.999916, 9.999847 
2.849952e+2, 1.4476636e+2, -1541690.9, -1477633.1, 4965.11, -0.044152033, 0.03450843, -1477250.6, 44051.47, 0.00004093297, 9.999582, 10.000453 
2.8499612e+2, 1.5476745e+2, -1494352.5, -1417463.5, -19593.453, -0.039570604, 0.068674244, -1412758.4, 10531.38, 0.0000066741927, 9.999289, 10.000341 
2.849959e+2, 1.6476795e+2, -1419380.4, -1405304.4, -108422.51, -0.039944272, 0.12180065, -1303691.6, 21593.225, 0.00000074756446, 9.999465, 9.999664 
2.8499445e+2, 1.747676e+2, -1215464.1, -1267282.5, -139713.48, -0.031425443, 0.094084315, -1099277.8, 128011.77, 0.000000006090155, 10.000229, 9.999574 
2.849946e+2, 1.847672e+2, -1086046.8, -1116108.5, -3605.2637, -0.011391703, 0.08798207, -1085620.5, 43671.734, 0.0, 10.000293, 9.999894 
2.8499648e+2, 1.947666e+2, -1101176.0, -1076921.3, -2833.7654, 0.008774533, 0.0055811233, -1076594.6, -45300.438, 0.0, 9.999528, 9.999864 
2.8499722e+2, 2.0476615e+2, -1063069.5, -1071449.9, -82729.55, 0.047496937, 0.0069165924, -984424.06, -51125.8, 0.0, 9.999398, 9.999291 
2.8499678e+2, 2.1476561e+2, -902654.06, -948511.6, -88614.25, 0.11022024, -0.0068515376, -834050.25, 1256.9312, 0.0, 9.999845, 9.99925 
2.8499615e+2, 2.2476593e+2, -767275.2, -748305.75, -12177.284, 0.08329083, 0.069337524, -742355.25, -5048.698, 0.0, 9.999738, 10.0 
2.8499532e+2, 2.3476712e+2, -770944.25, -702562.9, -31244.926, -0.04540532, 0.15608254, -690436.7, -51140.484, 0.0, 9.999049, 9.999977 
2.8499448e+2, 2.447675e+2, -692120.6, -645133.94, -96977.78, -0.08515109, 0.21557325, -568844.4, -27551.258, 0.0, 9.999046, 9.999698 
2.8499362e+2, 2.5476682e+2, -484973.2, -498012.9, -120910.79, -0.02175266, 0.14340381, -370406.6, 72892.76, 0.0, 9.999818, 9.9996605 
2.8499314e+2, 2.647664e+2, -382501.56, -384714.7, -28537.777, -0.034741826, 0.13303375, -355048.9, -9745.584, 0.0, 9.999793, 9.999783 
2.8499332e+2, 2.7476618e+2, -428013.47, -362121.72, -34772.535, -0.097580396, 0.1014956, -347166.03, -99860.84, 0.0000000018932573, 9.998819, 9.99974 
2.8499433e+2, 2.847663e+2, -438499.53, -412638.47, -39518.754, -0.058465183, 0.18901533, -383988.6, -234683.38, 0.00000028816427, 9.998496, 9.998871 
2.8499553e+2, 2.947663e+2, -229884.11, -242085.2, -55441.004, 0.054592337, 0.26009437, -180209.02, -128900.52, 0.0000027347362, 9.999163, 9.999046 
2.849963e+2, 3.0476353e+2, -24651.717, 103205.05, -45658.55, 0.15049724, -0.024925316, 117835.82, 117835.82, 0.000012525966, 9.999291, 10.001038 
2.8499636e+2, 3.1476685e+2, -224926.03, 8400.372, 44447.305, 0.09842219, 0.19272333, 16580.535, 16580.535, 0.00004059471, 9.997858, 10.001067 
2.9499492e+2, 1.247658e+2, -1648689.6, -1626894.9, -57371.645, -0.25255522, 0.19544491, -1579394.9, 137918.55, 0.00028489743, 10.000112, 10.000528 
2.9499695e+2, 1.3476706e+2, -1581560.4, -1534782.4, -85513.984, 0.082063936, 0.22352386, -1469516.5, 149780.55, 0.000121053716, 9.999938, 10.000571 
2.9499504e+2, 1.4476644e+2, -1564637.4, -1527711.5, -25658.365, -0.060541995, 0.13294406, -1514563.9, 6736.134, 0.000029834508, 9.99958, 10.000115 
2.94996e+2, 1.5476583e+2, -1524231.9, -1471705.3, -20176.203, -0.016783154, 0.028001647, -1464850.0, -41545.977, 0.000004731658, 9.999257, 9.999984 
2.9499573e+2, 1.6476561e+2, -1452509.8, -1457802.5, -91559.664, -0.033528723, 0.047576644, -1363558.3, -38251.527, 0.00000054097734, 9.999403, 9.999329 
2.9499412e+2, 1.7476572e+2, -1242359.4, -1310952.1, -93712.15, -0.12033062, 0.094195634, -1176865.0, 50443.99, 0.0000000012704189, 10.000189, 9.999284 
2.9499394e+2, 1.8476589e+2, -1076543.8, -1080225.0, -44332.67, -0.13870385, 0.14277413, -1034013.5, 95294.32, 0.0, 10.000217, 10.00018 
2.9499534e+2, 1.9476582e+2, -1092745.9, -1039540.7, -19458.088, -0.089920975, 0.08475946, -1033184.0, -1878.3351, 0.0, 9.999443, 10.00016 
2.9499596e+2, 2.0476599e+2, -1065071.8, -1039257.3, -78511.336, -0.04317088, 0.11863354, -972599.25, -39295.383, 0.0, 9.999246, 9.999583 
2.9499558e+2, 2.1476625e+2, -905921.5, -915994.6, -56638.535, -0.016153727, 0.15716396, -854096.0, -18791.986, 0.0, 9.99968, 9.99955 
2.94995e+2, 2.2476621e+2, -803945.5, -786733.94, -49915.184, -0.030165631, 0.19011696, -744688.1, -7381.8525, 0.0, 9.999578, 9.999812 
2.9499418e+2, 2.3476566e+2, -807535.06, -742528.5, -42279.313, -0.090056084, 0.12511131, -721702.56, -82390.42, 0.0, 9.9988985, 9.999774 
2.949933e+2, 2.4476568e+2, -720024.25, -683716.8, -82940.04, -0.13613524, 0.16979419, -616967.0, -75653.65, 0.0, 9.998959, 9.999479 
2.9499224e+2, 2.5476614e+2, -516683.5, -540585.25, -79728.14, -0.17198864, 0.23586829, -448015.53, -4704.715, 0.0, 9.999712, 9.999426 
2.9499227e+2, 2.647658e+2, -389943.97, -383664.13, -74424.336, -0.12932417, 0.24635328, -312313.53, 32999.64, 0.0, 9.999727, 9.999818 
2.9499376e+2, 2.7476433e+2, -442101.06, -361981.9, -60511.145, 0.029690484, 0.08652088, -329471.75, -82148.6, 0.0000000016821552, 9.998698, 9.999798 
2.9499426e+2, 2.8476408e+2, -413130.63, -353071.44, -30147.963, 0.053285457, 0.10643128, -340548.97, -191224.64, 0.00000022409213, 9.998464, 9.9993 
2.9499313e+2, 2.9476494e+2, -212758.73, -199208.44, -4786.546, -0.1394043, 0.2279549, -197688.19, -146371.31, 0.0000026534976, 9.999115, 9.999375 
2.9499343e+2, 3.0476272e+2, -142269.25, -131588.1, -96598.82, -0.09980334, 0.067320414, -40182.33, -40182.33, 0.00001292508, 9.999257, 9.999436 
2.9499543e+2, 3.1476265e+2, -315416.7, -163007.25, 16007.716, 0.14589052, 0.10344704, -161344.1, -161344.1, 0.000040888393, 9.997785, 9.999925 
3.0499595e+2, 1.24764785e+2, -1728461.8, -1674157.0, 20879.113, -0.1233785, 0.18688172, -1667057.5, 50265.71, 0.00023189843, 9.9996195, 10.000444 
3.049971e+2, 1.3476612e+2, -1499838.8, -1472259.1, -63377.1, 0.092808455, 0.2046012, -1421189.0, 198115.95, 0.000094942065, 10.000389, 10.000792 
3.049948e+2, 1.447657e+2, -1425893.8, -1481672.1, -2998.1855, -0.0897337, 0.13289806, -1425733.0, 95573.22, 0.000021738364, 10.000651, 9.999902 
3.0499607e+2, 1.5476522e+2, -1327469.8, -1403082.8, -24912.941, 0.00096126186, 0.06574377, -1319999.5, 103311.49, 0.0000030875526, 10.00073, 9.999737 
3.04996e+2, 1.6476493e+2, -1297277.6, -1386113.4, -44855.363, 0.010969899, 0.0889589, -1278569.0, 46746.27, 0.0000002653173, 10.000463, 9.999314 
3.0499434e+2, 1.7476471e+2, -1314995.3, -1347407.4, -52195.176, -0.07871379, 0.10501488, -1276548.0, -49227.96, 0.0, 9.999683, 9.999283 
3.0499396e+2, 1.8476482e+2, -1217341.8, -1170464.4, 3577.3347, -0.10648496, 0.15807967, -1170192.9, -40872.863, 0.0, 9.999339, 9.999994 
3.0499488e+2, 1.94765e+2, -1118422.5, -1082608.4, -36926.844, -0.069850266, 0.14623904, -1059475.9, -28158.137, 0.0, 9.999373, 9.999918 
3.0499527e+2, 2.0476525e+2, -1012880.9, -984591.44, -63542.605, -0.043188456, 0.18845943, -933638.25, -322.88504, 0.0, 9.99947, 9.999856 
3.0499503e+2, 2.1476547e+2, -894341.9, -883860.25, -70914.336, -0.030005375, 0.19618894, -817993.3, 17320.781, 0.0, 9.999631, 9.999802 
3.049944e+2, 2.2476542e+2, -807860.56, -793110.75, -63498.48, -0.036861043, 0.21769772, -736560.4, 755.19257, 0.0, 9.999569, 9.999775 
3.049935e+2, 2.347649e+2, -757843.8, -722989.6, -70937.625, -0.057710014, 0.15649575, -667369.8, -28048.277, 0.0, 9.999258, 9.999736 
3.0499277e+2, 2.4476482e+2, -706401.56, -677392.75, -35486.4, -0.086144194, 0.19424032, -653561.0, -112237.6, 0.0, 9.99908, 9.999456 
3.0499208e+2, 2.5476503e+2, -587866.75, -571879.4, -40855.805, -0.12894525, 0.24105695, -538242.6, -94920.375, 0.0, 9.999232, 9.999434 
3.0499217e+2, 2.6476455e+2, -469281.5, -439260.1, -44018.563, -0.082217656, 0.2416064, -407763.22, -62437.766, 0.0, 9.9992485, 9.999669 
3.0499327e+2, 2.7476302e+2, -378640.5, -348021.63, -70995.64, 0.100233875, 0.08761988, -290703.53, -43367.6, 0.00000000014964384, 9.999204, 9.999648 
3.0499357e+2, 2.8476256e+2, -320044.97, -278590.56, -1457.8286, 0.119164005, 0.08480218, -278539.38, -129201.56, 0.00000013461268, 9.998992, 9.999549 
3.0499232e+2, 2.947634e+2, -287476.84, -206049.52, -11636.735, -0.09428577, 0.17580166, -204419.16, -153090.28, 0.0000024184974, 9.998506, 9.999604 
3.0499232e+2, 3.0476156e+2, -284633.56, -282641.75, -67715.11, -0.09472225, 0.080681555, -215915.23, -215915.23, 0.00001259153, 9.998625, 9.998715 
3.0499405e+2, 3.1476033e+2, -147672.72, -76978.734, 51135.547, 0.19042678, 0.06540116, -50162.605, -50162.605, 0.000039642433, 9.998898, 9.999995 
3.149974e+2, 1.2476416e+2, -1760714.1, -1744058.0, -38619.477, -0.009690701, 0.12673981, -1712878.8, 4446.082, 0.0001887222, 9.999638, 9.999954 
3.1499657e+2, 1.3476406e+2, -1530071.0, -1516594.4, -27253.479, -0.027648207, 0.032949638, -1495258.5, 124063.19, 0.00007509751, 10.000335, 10.000505 
3.1499383e+2, 1.4476432e+2, -1442294.0, -1515456.1, -15776.273, -0.28809735, 0.052901663, -1439037.0, 82282.164, 0.00001598166, 10.000634, 9.9996805 
3.1499594e+2, 1.5476562e+2, -1342767.5, -1435441.8, -8385.363, -0.11954812, 0.18295874, -1342014.9, 81296.17, 0.00000170519, 10.000731, 9.999513 
3.1499648e+2, 1.6476579e+2, -1284545.3, -1350462.8, -92798.19, -0.01863884, 0.25293285, -1219026.6, 106284.78, 0.000000057148895, 10.000416, 9.999587 
3.149949e+2, 1.747645e+2, -1299788.9, -1305029.6, -72573.17, -0.025486654, 0.13041015, -1229788.8, -2465.4385, 0.0, 9.999636, 9.9995985 
3.1499422e+2, 1.8476404e+2, -1278734.3, -1275723.3, -8825.623, -0.04216143, 0.14282489, -1268275.6, -138947.02, 0.0, 9.999241, 9.999321 
3.149946e+2, 1.947642e+2, -1178297.0, -1184384.8, -21219.98, -0.06530341, 0.19566433, -1159903.6, -128574.12, 0.0, 9.999279, 9.999263 
3.1499472e+2, 2.0476405e+2, -1023474.5, -968621.2, -70845.88, -0.06902526, 0.22368805, -920078.4, 13253.114, 0.0, 9.999311, 10.000042 
3.1499463e+2, 2.1476342e+2, -902924.8, -864146.2, -50410.055, -0.05808563, 0.12374435, -829525.1, 5811.1035, 0.0, 9.999474, 10.000011 
3.14994e+2, 2.247637e+2, -814518.0, -776996.7, -86657.39, -0.061276976, 0.1611349, -707092.44, 30240.938, 0.0, 9.999438, 9.999953 
3.149928e+2, 2.3476483e+2, -765597.3, -707920.75, -69013.98, -0.07953482, 0.25177634, -661962.1, -22637.963, 0.0, 9.999123, 9.999911 
3.1499234e+2, 2.4476482e+2, -704419.25, -660792.2, -43291.598, -0.06481579, 0.28014407, -634129.0, -92805.02, 0.0, 9.999022, 9.9995985 
3.149926e+2, 2.5476345e+2, -595854.5, -558957.4, -24318.215, -0.021946207, 0.15251973, -546881.75, -103547.195, 0.0, 9.999101, 9.999588 
3.1499243e+2, 2.647627e+2, -495344.53, -480365.06, -57718.348, -0.008343781, 0.128984, -429652.53, -84312.54, 0.0, 9.999193, 9.999415 
3.149917e+2, 2.7476218e+2, -409535.4, -394205.0, -58940.336, -0.012311623, 0.10352404, -342433.53, -95089.664, 0.00000000001473293, 9.999119, 9.999376 
3.1499177e+2, 2.8476173e+2, -324138.03, -274444.3, -32939.254, 0.0117846485, 0.116689086, -258031.5, -108685.18, 0.000000108201135, 9.998943, 9.999596 
3.1499243e+2, 2.9476148e+2, -303867.28, -217316.0, -12687.921, 0.027983947, 0.09349539, -215494.36, -164147.95, 0.0000023186144, 9.998401, 9.99958 
3.149925e+2, 3.047599e+2, -270250.56, -246408.11, -62670.0, 0.033360265, 0.014470916, -194535.58, -194535.58, 0.000012381474, 9.998595, 9.998978 
3.149917e+2, 3.1475955e+2, -52494.37, 123276.82, 93229.47, -0.0059433104, 0.05220887, 163514.66, 163514.66, 0.000038038284, 9.998876, 10.001385 
3.2499775e+2, 1.2476367e+2, -1755979.3, -1758719.5, -47344.453, 0.07171534, 0.121071495, -1709985.1, 7344.72, 0.0001575099, 9.999709, 9.999827 
3.2499674e+2, 1.3476315e+2, -1509286.0, -1533970.8, -43177.027, -0.043350592, 0.0036389658, -1476721.9, 142609.84, 0.00006189271, 10.000549, 10.000298 
3.249943e+2, 1.4476371e+2, -1498562.5, -1566536.0, -32621.137, -0.28216356, 0.072822616, -1485440.5, 35887.168, 0.000012633238, 10.0003395, 9.999482 
3.2499608e+2, 1.5476495e+2, -1539924.4, -1552742.1, -49589.254, -0.10587987, 0.21885698, -1496331.6, -73010.445, 0.0000008198343, 9.999454, 9.999335 
3.249966e+2, 1.6476525e+2, -1400173.0, -1367429.3, -79741.26, 0.005701241, 0.29562873, -1302396.5, 22923.357, 0.000000004124255, 9.99949, 9.999903 
3.2499528e+2, 1.7476438e+2, -1142168.1, -1195961.8, -88426.75, 0.0074853953, 0.18444784, -1076638.1, 150688.02, 0.0, 10.00059, 9.999882 
3.249946e+2, 1.8476383e+2, -1045749.7, -1188084.3, -2091.7, -0.005777271, 0.18626092, -1045719.0, 83612.62, 0.0, 10.000954, 9.999084 
3.249947e+2, 1.9476351e+2, -1030992.94, -1136728.3, -12688.712, -0.026856309, 0.21229377, -1029491.56, 1846.4183, 0.0, 10.000413, 9.999027 
3.249946e+2, 2.0476316e+2, -947446.06, -923118.44, -26615.682, -0.026505928, 0.22559157, -906018.75, 27323.102, 0.0, 9.999779, 10.000132 
3.2499427e+2, 2.1476263e+2, -977616.75, -887243.5, -37550.926, -0.0061742445, 0.12638518, -873677.2, -38332.785, 0.0, 9.998899, 10.00013 
3.2499334e+2, 2.2476295e+2, -913890.6, -836318.56, -39007.04, -0.030845357, 0.16265123, -820096.3, -82755.414, 0.0, 9.9988, 9.999852 
3.2499188e+2, 2.3476397e+2, -701611.8, -688895.25, -64448.99, -0.09976564, 0.24976629, -630491.7, 8840.914, 0.0, 9.999606, 9.999805 
3.249916e+2, 2.4476375e+2, -597602.5, -616156.56, -45190.395, -0.07322092, 0.26593035, -560746.7, -19413.074, 0.0, 9.999767, 9.999556 
3.249926e+2, 2.5476205e+2, -560213.4, -545188.7, -59670.418, 0.058927264, 0.1073638, -492559.56, -49213.53, 0.0, 9.999336, 9.999575 
3.2499224e+2, 2.647612e+2, -538915.0, -536907.44, -72840.19, 0.06951089, 0.09331516, -465064.1, -119711.36, 0.0, 9.999051, 9.999099 
3.249905e+2, 2.7476093e+2, -450177.56, -446626.7, -104290.87, -0.029112725, 0.12545569, -344096.16, -96739.24, 0.00000000010851988, 9.998994, 9.999073 
3.249905e+2, 2.8476045e+2, -311553.0, -292169.25, -64210.832, -0.007187022, 0.15882652, -236922.97, -87561.64, 0.00000014604628, 9.999116, 9.999401 
3.2499236e+2, 2.947598e+2, -176146.72, -173211.39, -88355.49, 0.14334974, 0.113610126, -86311.375, -34946.594, 0.0000023415487, 9.999354, 9.999426 
3.249924e+2, 3.047581e+2, -179985.72, -171879.95, -120494.586, 0.15258282, 0.017995972, -55370.11, -55370.11, 0.000012312151, 9.999117, 9.999222 
3.2499012e+2, 3.147583e+2, -118654.375, 155723.05, -23901.969, -0.005548353, 0.0818657, 157789.67, 157789.67, 0.000036624067, 9.998189, 10.001917 
3.3499604e+2, 1.2476334e+2, -1750641.8, -1731585.9, -87800.984, -0.14057288, 0.18293291, -1652797.4, 64540.49, 0.00013854062, 9.999655, 10.000033 
3.349972e+2, 1.3476357e+2, -1522575.5, -1543034.6, -10754.018, -0.08395984, 0.14506137, -1517962.8, 101370.85, 0.000055370125, 10.000501, 10.000241 
3.349958e+2, 1.4476396e+2, -1513889.5, -1586282.8, -85759.26, -0.20093815, 0.20955236, -1457001.0, 64329.42, 0.000011804474, 10.000285, 9.999374 
3.3499607e+2, 1.5476346e+2, -1545415.9, -1556632.0, -70331.22, -0.08552167, 0.18598041, -1480469.5, -57130.57, 0.00000057438905, 9.999426, 9.999321 
3.3499587e+2, 1.6476355e+2, -1389314.9, -1334671.4, -52654.45, -0.044927932, 0.22675495, -1302672.3, 22666.402, 0.00000000201948, 9.999441, 10.000154 
3.3499506e+2, 1.7476426e+2, -1129222.0, -1164251.3, -31623.064, -0.10539363, 0.2522837, -1110587.3, 116741.88, 0.0, 10.000566, 10.0001135 
3.349947e+2, 1.8476412e+2, -1052834.5, -1176274.0, -35652.098, -0.12225262, 0.27538976, -1043277.4, 86052.58, 0.0, 10.000839, 9.999221 
3.349949e+2, 1.9476275e+2, -1032437.4, -1120303.4, -21497.645, -0.081338316, 0.1849461, -1027459.6, 3884.9382, 0.0, 10.000332, 9.999178 
3.3499452e+2, 2.0476243e+2, -962317.8, -924630.9, -73418.555, -0.03463044, 0.19138353, -867676.2, 65671.37, 0.0, 9.999656, 10.000182 
3.349935e+2, 2.1476305e+2, -997630.9, -888118.56, -58260.977, 0.0054143365, 0.19873863, -862921.1, -27581.441, 0.0, 9.998729, 10.000205 
3.349921e+2, 2.2476305e+2, -964271.9, -904589.1, -24144.385, -0.06014563, 0.22016174, -896044.8, -158705.9, 0.0, 9.998649, 9.999454 
3.3499032e+2, 2.3476225e+2, -754756.56, -754782.94, -24441.088, -0.23833966, 0.1645622, -730328.6, -90981.695, 0.0, 9.999427, 9.9994335 
3.3499014e+2, 2.447616e+2, -612059.94, -636273.7, -73126.695, -0.22259264, 0.16015485, -550044.7, -8692.531, 0.0, 9.999717, 9.999444 
3.3499157e+2, 2.5476086e+2, -585796.2, -570467.2, -64329.98, -0.005147758, 0.10771132, -513346.72, -69990.43, 0.0, 9.999219, 9.999456 
3.3499134e+2, 2.6476023e+2, -575902.56, -604018.2, -89396.87, 0.04585062, 0.1398871, -499464.94, -154101.98, 0.0, 9.99901, 9.998655 
3.3498922e+2, 2.7475932e+2, -499189.25, -520361.97, -92407.22, -0.08687004, 0.15292417, -416763.97, -169388.44, 0.000000000044508567, 9.998874, 9.998623 
3.349894e+2, 2.847587e+2, -334786.3, -337839.0, -67757.96, -0.06116473, 0.21001561, -268537.5, -119154.96, 0.00000018851506, 9.999093, 9.999103 
3.349917e+2, 2.947584e+2, -204169.92, -225804.1, -64103.145, 0.1018207, 0.23159139, -149977.61, -98594.234, 0.0000023038672, 9.999311, 9.999096 
3.3499157e+2, 3.0475596e+2, -179223.28, -166289.81, -163252.03, 0.1281144, 0.07781616, -9376.4795, -9376.4795, 0.000011796056, 9.9991045, 9.999265 
3.3498833e+2, 3.1475618e+2, -163439.45, 84013.78, -4477.642, -0.069535464, 0.1423649, 84094.78, 84094.78, 0.000034748333, 9.998085, 10.001485 
3.4499648e+2, 1.2476358e+2, -1607621.4, -1682045.1, 5006.15, -0.0962463, 0.21779938, -1607286.1, 110051.2, 0.00012841672, 10.000736, 9.9998455 
3.449979e+2, 1.347641e+2, -1579206.6, -1634261.6, 5075.3574, -0.03830907, 0.2609763, -1578742.6, 40591.01, 0.00005393956, 10.000366, 9.9997 
3.449973e+2, 1.447642e+2, -1518889.0, -1560000.8, -52167.426, -0.06473499, 0.31433976, -1483373.6, 37959.496, 0.00001321429, 10.000142, 9.999613 
3.449964e+2, 1.5476279e+2, -1386653.5, -1457723.9, -54105.95, -0.034357745, 0.17755236, -1357456.9, 65890.055, 0.00000089811203, 10.000427, 9.999512 
3.449957e+2, 1.6476242e+2, -1263329.1, -1299491.4, 3924.771, -0.04732419, 0.173319, -1262908.0, 62441.688, 0.0000000015154811, 10.000395, 9.999942 
3.449949e+2, 1.7476317e+2, -1235455.4, -1238198.6, -32871.125, -0.13732111, 0.22159371, -1203927.3, 23413.502, 0.0, 9.999929, 9.999914 
3.4499475e+2, 1.8476322e+2, -1183772.4, -1192102.3, -37918.78, -0.13785526, 0.25503278, -1149790.5, -20451.234, 0.0, 9.999734, 9.999651 
3.449954e+2, 1.9476224e+2, -1083593.9, -1097840.1, -23202.555, -0.027324071, 0.15896872, -1066445.8, -35096.996, 0.0, 9.999769, 9.999611 
3.4499472e+2, 2.0476215e+2, -961812.06, -959299.9, -64155.785, 0.017384354, 0.18196923, -896387.9, 36961.375, 0.0, 9.999814, 9.999865 
3.4499243e+2, 2.1476279e+2, -867688.44, -867572.3, -107816.05, -0.020494718, 0.22882928, -759814.3, 75528.08, 0.0, 9.9998, 9.999833 
3.4499097e+2, 2.2476237e+2, -797966.44, -842681.1, -23260.613, -0.09418476, 0.23344712, -788060.7, -50714.746, 0.0, 9.999864, 9.999299 
3.4499034e+2, 2.3476055e+2, -680258.2, -738672.94, -29131.275, -0.19902413, 0.09314357, -668213.9, -28851.316, 0.0, 10.000003, 9.999277 
3.449903e+2, 2.4475989e+2, -607738.3, -638800.3, -80227.98, -0.1725257, 0.0976836, -541551.9, -183.89737, 0.0, 9.999782, 9.99939 
3.4499073e+2, 2.5476015e+2, -586238.8, -583710.2, -96900.805, -0.0051460085, 0.1543778, -488065.44, -44701.234, 0.0, 9.999263, 9.9993515 
3.449903e+2, 2.6475948e+2, -556603.6, -623640.5, -61348.945, 0.038342886, 0.20678511, -520213.7, -174841.8, 0.0, 9.99928, 9.998384 
3.44989e+2, 2.7475756e+2, -363969.38, -481725.0, -76237.555, -0.039825916, 0.14640717, -326520.88, -79126.38, 0.0, 9.99993, 9.998374 
3.4498906e+2, 2.847567e+2, -260823.69, -287145.66, -35074.836, -0.019392662, 0.18330826, -236521.95, -87118.016, 0.00000016974016, 9.999561, 9.999215 
3.4499025e+2, 2.9475692e+2, -357051.3, -283327.0, -27648.91, 0.091919005, 0.24809244, -274110.06, -222711.03, 0.0000020169734, 9.998204, 9.999229 
3.4498972e+2, 3.0475497e+2, -340548.78, -256122.06, -60323.45, 0.09724453, 0.1389588, -224708.77, -224708.77, 0.0000103175025, 9.998022, 9.999182 
3.4498775e+2, 3.1475452e+2, -116876.99, 45626.844, 62205.24, 0.05449324, 0.14074661, 66704.62, 66704.62, 0.000031962787, 9.998665, 10.000933 
3.5499835e+2, 1.2476441e+2, -1660766.5, -1784581.4, -49825.1, -0.06309372, 0.22885595, -1643206.6, 74121.52, 0.00012227354, 10.000702, 9.999157 
3.5499847e+2, 1.3476473e+2, -1639159.1, -1756926.8, 1445.2318, -0.0547522, 0.34592503, -1639141.4, -19809.658, 0.00005490219, 10.000378, 9.998841 
3.549982e+2, 1.4476462e+2, -1490028.8, -1504137.1, -58599.004, -0.02979287, 0.39695808, -1438060.9, 83273.18, 0.000015641235, 10.000151, 10.000001 
3.5499674e+2, 1.5476295e+2, -1359163.0, -1408792.4, -29839.994, -0.082328126, 0.20221716, -1345168.0, 78177.445, 0.0000017221555, 10.000455, 9.99984 
3.5499555e+2, 1.6476187e+2, -1314945.0, -1389476.6, -29312.527, -0.133063, 0.13800974, -1304798.1, 20555.506, 0.000000007086625, 10.000323, 9.999356 
3.5499433e+2, 1.7476116e+2, -1282042.5, -1325277.5, -37531.625, -0.2202345, 0.09877389, -1260347.9, -32987.355, 0.0, 9.9998865, 9.999336 
3.549943e+2, 1.8476126e+2, -1149908.5, -1097031.3, -47607.24, -0.18282776, 0.13041432, -1069013.9, 60344.844, 0.0, 9.999627, 10.000356 
3.5499588e+2, 1.9476213e+2, -1044919.44, -996188.44, -7442.0513, 0.015057216, 0.1481161, -995077.25, 36271.242, 0.0, 9.999677, 10.000354 
3.549948e+2, 2.0476244e+2, -1036680.9, -1082852.6, -77331.336, 0.021270463, 0.21115237, -979063.0, -45717.656, 0.0, 9.999673, 9.999088 
3.5499072e+2, 2.1476191e+2, -944699.25, -994084.0, -94692.82, -0.19593881, 0.22056244, -871532.3, -36180.28, 0.0, 9.999654, 9.999036 
3.549896e+2, 2.2476088e+2, -812349.25, -841852.44, -27265.27, -0.24177663, 0.20269813, -796100.8, -58738.914, 0.0, 9.999733, 9.999367 
3.549916e+2, 2.3475903e+2, -698252.56, -738533.25, -10786.341, -0.10053056, 0.05004405, -695546.06, -56168.61, 0.0, 9.999847, 9.999352 
3.5499167e+2, 2.4475875e+2, -632271.75, -662531.2, -110487.32, -0.04135722, 0.09559894, -535883.06, 5496.5522, 0.0, 9.999672, 9.999276 
3.5498965e+2, 2.547599e+2, -614716.25, -611828.8, -103841.83, -0.0690987, 0.25225347, -509420.66, -66051.08, 0.0, 9.999138, 9.999217 
3.5498884e+2, 2.647591e+2, -566542.44, -634245.7, -48290.668, -0.06585843, 0.29887104, -541420.1, -196041.14, 0.0, 9.999233, 9.998335 
3.5498944e+2, 2.7475587e+2, -383513.03, -501583.97, -36225.676, -0.01993305, 0.110740125, -373284.63, -125871.97, 0.0, 9.99984, 9.9982815 
3.549891e+2, 2.8475446e+2, -233213.75, -222041.03, -96668.69, -0.002076602, 0.08085854, -130797.43, 18627.852, 0.00000011654808, 9.999531, 9.999676 
3.549876e+2, 2.9475528e+2, -336720.7, -220766.13, -59717.91, -0.03741919, 0.15137243, -195511.23, -144098.28, 0.0000016052002, 9.99812, 9.9997 
3.549864e+2, 3.04755e+2, -337904.47, -256021.55, -44430.285, -0.06800792, 0.18957493, -236545.69, -236545.69, 0.000008325357, 9.998033, 9.999184 
3.5498738e+2, 3.1475413e+2, -177241.78, -68695.5, 135884.11, 0.07843001, 0.14686708, 23353.148, 23353.148, 0.000028551576, 9.998607, 10.000182 
3.650004e+2, 1.24764755e+2, -1576955.4, -1751477.9, 17272.389, 0.059352905, 0.14031564, -1575262.4, 142059.58, 0.000118926524, 10.001291, 9.999114 
3.6499885e+2, 1.3476516e+2, -1609658.3, -1756876.5, 54763.23, -0.05374841, 0.2827313, -1591521.5, 27803.568, 0.000056465244, 10.000636, 9.998718 
3.6499903e+2, 1.447651e+2, -1473002.8, -1494161.9, 70139.086, 0.041929387, 0.34162828, -1412649.9, 108677.58, 0.00001794202, 10.000259, 10.000018 
3.6499754e+2, 1.5476418e+2, -1378019.6, -1412598.8, 44570.434, -0.030926365, 0.21849301, -1347502.8, 75829.08, 0.000002788093, 10.000306, 9.999887 
3.6499646e+2, 1.6476317e+2, -1322804.3, -1396977.6, 69099.77, -0.06232175, 0.16521981, -1281467.8, 43871.402, 0.00000008230677, 10.000284, 9.999327 
3.6499533e+2, 1.7476197e+2, -1255815.3, -1315078.5, 71071.766, -0.10892923, 0.08004414, -1208445.4, 18905.572, 0.0, 10.000079, 9.999316 
3.649949e+2, 1.847619e+2, -1119394.3, -1119904.4, 80309.22, -0.09587812, 0.113587566, -1039339.7, 90011.52, 0.0, 10.000003, 10.000018 
3.6499554e+2, 1.947629e+2, -1024146.56, -1025272.7, 13612.209, 0.0050527127, 0.1775687, -1011085.75, 20255.42, 0.0, 9.99999, 10.000004 
3.6499426e+2, 2.0476289e+2, -1001010.7, -1088248.5, -50117.03, -0.009931968, 0.23724945, -978189.2, -44847.7, 0.0, 10.000007, 9.998894 
3.6499083e+2, 2.1476158e+2, -907856.0, -997099.3, -49261.742, -0.16016655, 0.18608613, -886011.0, -50655.66, 0.0, 9.9999895, 9.998855 
3.6498988e+2, 2.2476038e+2, -824149.6, -866865.94, 51527.12, -0.17937534, 0.16874915, -789729.5, -52362.855, 0.0, 9.999737, 9.999195 
3.6499164e+2, 2.3475906e+2, -800456.3, -805233.0, 23481.818, -0.041633386, 0.08664095, -779241.7, -139864.44, 0.0, 9.999226, 9.999192 
3.649917e+2, 2.4475864e+2, -698513.06, -720676.94, -53539.81, 0.019669274, 0.13721518, -654920.3, -113539.234, 0.0, 9.999307, 9.999067 
3.6498982e+2, 2.5475907e+2, -502673.94, -572431.94, -76090.836, 0.0001806518, 0.24056661, -453848.94, -10470.139, 0.0, 9.999973, 9.999084 
3.649888e+2, 2.6475835e+2, -462320.03, -564929.5, 1658.4194, -0.016416451, 0.2944474, -462293.22, -116905.875, 0.0, 9.999874, 9.998498 
3.6498892e+2, 2.7475598e+2, -495300.63, -535441.8, 5332.017, -0.0060027246, 0.17695853, -494604.44, -247192.34, 0.0, 9.998987, 9.998461 
3.6498836e+2, 2.8475448e+2, -368497.4, -292474.97, -50727.59, 0.023527153, 0.13062188, -267097.38, -117672.17, 0.000000055764154, 9.998605, 9.999647 
3.6498678e+2, 2.9475433e+2, -251015.19, -183642.58, -77849.57, 0.051570736, 0.10324036, -132503.63, -81081.22, 0.0000011855267, 9.99873, 9.999659 
3.6498493e+2, 3.0475473e+2, -252878.34, -212601.17, -33081.645, -0.03437434, 0.21131952, -194010.47, -194010.47, 0.0000067298934, 9.99863, 9.999186 
3.6498627e+2, 3.147542e+2, -277769.06, -109942.55, 96513.33, 0.15349689, 0.2011704, -65964.22, -65964.22, 0.00002565761, 9.997901, 10.00024 
3.7500167e+2, 1.2476481e+2, -1528617.6, -1648057.4, 217.68811, -0.010061656, -0.001027449, -1528617.1, 188699.5, 0.0001191897, 10.001278, 9.999821 
3.7499866e+2, 1.3476546e+2, -1558515.3, -1650701.4, 37543.07, -0.1740197, 0.085609294, -1545160.4, 74152.54, 0.00005856906, 10.000638, 9.999438 
3.7499928e+2, 1.4476566e+2, -1504441.6, -1542299.3, 52832.637, 0.0045262836, 0.14842756, -1467249.3, 54063.715, 0.000020069963, 10.00019, 9.99972 
3.749984e+2, 1.5476632e+2, -1394533.0, -1453478.3, 61203.188, -0.012027466, 0.21636787, -1356075.8, 67231.55, 0.0000038584762, 10.00033, 9.999598 
3.7499803e+2, 1.6476634e+2, -1296717.0, -1330174.6, 49917.023, 0.035362102, 0.25398365, -1260800.1, 64506.44, 0.00000020238203, 10.000232, 9.999808 
3.7499753e+2, 1.747657e+2, -1229044.5, -1251550.1, 78094.586, 0.074379906, 0.17727599, -1161396.3, 65914.65, 0.0, 10.00004, 9.999772 
3.7499613e+2, 1.8476516e+2, -1230590.5, -1326126.8, 67407.4, -0.0027013742, 0.20540106, -1195741.8, -66424.9, 0.0, 9.999899, 9.99865 
3.7499395e+2, 1.9476444e+2, -1139303.6, -1237078.3, 27285.098, -0.1808919, 0.23752348, -1132204.9, -100877.33, 0.0, 9.999879, 9.9986 
3.749927e+2, 2.047634e+2, -996651.9, -1048430.4, -63355.93, -0.19210288, 0.24941202, -954099.7, -20761.195, 0.0, 9.999871, 9.999234 
3.7499225e+2, 2.1476184e+2, -904782.4, -949955.75, -38835.523, -0.041698292, 0.13701603, -882442.94, -47091.184, 0.0, 9.99982, 9.999257 
3.7499142e+2, 2.2476092e+2, -871645.8, -937341.1, 16193.405, -0.020309443, 0.14808205, -867871.1, -130511.625, 0.0, 9.999603, 9.998781 
3.749901e+2, 2.3476045e+2, -848194.6, -877687.6, 15123.778, -0.14498577, 0.1903962, -841818.0, -202454.36, 0.0, 9.9991, 9.99876 
3.7498996e+2, 2.4475946e+2, -726506.0, -757612.56, -41138.395, -0.108924545, 0.21683292, -698078.94, -156705.55, 0.0, 9.999217, 9.998857 
3.7499085e+2, 2.5475767e+2, -535380.4, -615722.1, -37149.254, 0.07634727, 0.121876, -520835.97, -77444.375, 0.0, 9.999862, 9.998842 
3.7498984e+2, 2.6475722e+2, -442279.66, -511874.53, -42028.777, 0.06966853, 0.19345637, -422512.63, -77114.95, 0.0, 9.999825, 9.998885 
3.7498695e+2, 2.747578e+2, -477716.63, -479983.75, -13734.086, -0.13317755, 0.3344059, -465069.4, -217675.44, 0.0, 9.998902, 9.998884 
3.7498623e+2, 2.8475684e+2, -401956.7, -354888.03, -57333.887, -0.078065656, 0.33388132, -316446.25, -167042.63, 0.00000003400916, 9.998572, 9.999235 
3.7498742e+2, 2.947542e+2, -303185.22, -273497.5, -56224.42, 0.20620364, 0.109673895, -230190.48, -178763.77, 0.000000899484, 9.998641, 9.999089 
3.7498483e+2, 3.0475414e+2, -261519.94, -221366.45, -62936.816, 0.0681262, 0.20818534, -175381.72, -175381.72, 0.000005766145, 9.998595, 9.999143 
3.7498346e+2, 3.1475428e+2, -240123.83, -18691.787, 87956.52, 0.017348537, 0.2632769, 11993.704, 11993.704, 0.000023929499, 9.99784, 10.000902 
3.850028e+2, 1.2476627e+2, -1508249.9, -1611952.5, 24372.8, -0.017858302, 0.047517814, -1502807.3, 214497.53, 0.00012316402, 10.001307, 10.00006 
3.8499948e+2, 1.3476701e+2, -1579540.9, -1624081.5, -73188.51, -0.12692036, 0.10715032, -1525309.4, 93987.695, 0.000061385945, 10.000314, 9.999795 
3.8500002e+2, 1.4476688e+2, -1552998.4, -1545761.1, 10808.739, 0.09032678, 0.110583715, -1537981.3, -16682.814, 0.000022093489, 9.99977, 9.999896 
3.849984e+2, 1.5476748e+2, -1461308.9, -1464594.5, 16069.532, -0.0061760154, 0.15368639, -1446798.5, -23505.666, 0.000004863891, 9.999793, 9.999772 
3.8499814e+2, 1.6476764e+2, -1291768.3, -1364335.1, 34219.586, 0.02106781, 0.21028997, -1278177.1, 47114.29, 0.00000029520132, 10.000404, 9.9995 
3.849985e+2, 1.7476736e+2, -1025910.6, -1186947.5, -18175.475, 0.09681612, 0.19984375, -1023884.75, 203409.38, 0.0, 10.001568, 9.99948 
3.8499716e+2, 1.8476671e+2, -990668.2, -1231453.8, -27168.371, 0.032205135, 0.24010861, -987640.75, 141661.1, 0.0, 10.001626, 9.998471 
3.8499436e+2, 1.9476521e+2, -1069534.1, -1229119.9, -3852.5027, -0.14938827, 0.21306814, -1069441.3, -38121.938, 0.0, 10.000444, 9.998391 
3.8499296e+2, 2.0476395e+2, -953646.2, -1033139.5, 2196.6138, -0.16379045, 0.2154928, -953585.5, -20253.252, 0.0, 10.000199, 9.999178 
3.849929e+2, 2.1476276e+2, -742368.4, -883582.6, -29220.084, -0.011044195, 0.14570151, -736560.94, 98781.195, 0.0, 10.000975, 9.999166 
3.84992e+2, 2.247619e+2, -646706.25, -832092.8, 20086.563, 0.007162333, 0.17026338, -644554.9, 92794.3, 0.0, 10.001174, 9.998735 
3.8499022e+2, 2.3476127e+2, -605028.7, -764049.8, 18681.139, -0.12444062, 0.19966486, -602863.56, 36491.0, 0.0, 10.000797, 9.9987135 
3.8498974e+2, 2.4475999e+2, -589394.4, -702587.8, 18789.828, -0.094356, 0.20327617, -586356.8, -44990.15, 0.0, 10.000223, 9.998733 
3.8499066e+2, 2.5475776e+2, -598528.94, -665669.56, 2202.832, 0.09808207, 0.07399594, -598456.75, -155068.14, 0.0, 9.999508, 9.998667 
3.8498962e+2, 2.6475707e+2, -536343.0, -540909.9, 644.61115, 0.10829509, 0.12760009, -536253.75, -190857.75, 0.0, 9.999098, 9.999045 
3.849867e+2, 2.7475795e+2, -445975.0, -440900.06, -15023.766, -0.0475743, 0.2775075, -428200.97, -180812.08, 0.0, 9.999021, 9.999095 
3.849858e+2, 2.847573e+2, -374663.72, -377001.53, -18737.488, 0.010777345, 0.31377542, -357058.72, -207662.17, 0.000000026095549, 9.99892, 9.998913 
3.8498658e+2, 2.9475483e+2, -308721.5, -313826.97, -31555.402, 0.25779885, 0.13754442, -279615.75, -228194.48, 0.00000066980994, 9.998775, 9.998745 
3.8498306e+2, 3.0475417e+2, -293231.28, -231615.08, -22116.086, 0.055295795, 0.19607969, -224498.78, -224498.78, 0.000005131084, 9.998357, 9.999179 
3.8498136e+2, 3.147544e+2, -309194.44, -7836.857, 45947.785, 0.06810188, 0.24695788, -986.93, -986.93, 0.000023471404, 9.997198, 10.001269 
3.950032e+2, 1.2476921e+2, -1548319.0, -1663117.5, 5786.5137, -0.17674938, 0.28305295, -1548028.1, 169257.33, 0.0001272644, 10.001207, 9.99975 
3.9500096e+2, 1.3476986e+2, -1588330.3, -1627815.4, -98386.29, -0.0402025, 0.33630386, -1507725.3, 111552.055, 0.00006380605, 10.000279, 9.99978 
3.950008e+2, 1.4476883e+2, -1526936.3, -1480706.4, -5168.351, 0.15141653, 0.23055446, -1480135.6, 41147.67, 0.000023677207, 9.999707, 10.000378 
3.9499706e+2, 1.547676e+2, -1423466.9, -1389325.5, 30074.834, -0.15385416, 0.036334265, -1371814.4, 51474.363, 0.000005569423, 9.999799, 10.000288 
3.9499637e+2, 1.6476688e+2, -1370237.9, -1507864.8, 60287.027, -0.22652328, 0.02656097, -1347564.6, -22269.441, 0.00000035120044, 10.000333, 9.998548 
3.9499786e+2, 1.7476684e+2, -1105957.5, -1332778.6, 38586.723, -0.15233415, 0.13909912, -1099572.9, 127728.62, 0.0, 10.00149, 9.998516 
3.9499778e+2, 1.8476647e+2, -938051.25, -1096194.1, -81796.01, -0.097416416, 0.208105, -903355.9, 225951.25, 0.0, 10.001509, 9.99946 
3.9499635e+2, 1.9476542e+2, -1013251.9, -1080763.0, -35735.344, -0.025061479, 0.123514056, -997850.0, 33465.027, 0.0, 10.000315, 9.99947 
3.949946e+2, 2.0476472e+2, -1005842.6, -1105143.3, 15814.359, -0.041725285, 0.14885929, -1003384.94, -70063.87, 0.0, 10.000044, 9.998759 
3.9499235e+2, 2.1476431e+2, -803074.2, -960963.2, 15414.407, -0.18787599, 0.20323776, -801583.44, 33742.99, 0.0, 10.000776, 9.998725 
3.949913e+2, 2.2476335e+2, -646119.5, -798895.44, -3918.135, -0.20770173, 0.22442834, -646019.06, 91316.02, 0.0, 10.001032, 9.999037 
3.9499152e+2, 2.347615e+2, -604522.94, -727707.9, 19262.713, -0.09764197, 0.10546146, -601581.06, 37769.008, 0.0, 10.000647, 9.999035 
3.9499074e+2, 2.4476022e+2, -605196.9, -716604.1, -19820.535, -0.046848502, 0.09390188, -601775.7, -60414.547, 0.0, 10.000138, 9.998685 
3.9498883e+2, 2.547592e+2, -616762.75, -679510.94, -10793.88, -0.06722067, 0.09476772, -614957.94, -171587.38, 0.0, 9.999398, 9.998631 
3.9498776e+2, 2.64758e+2, -549400.4, -552682.4, -13713.262, -0.014579244, 0.09772003, -537230.3, -191848.25, 0.0, 9.999029, 9.999001 
3.9498773e+2, 2.7475634e+2, -464371.97, -459351.28, -3593.542, 0.12429238, 0.004499187, -457478.1, -210080.78, 0.0, 9.998926, 9.99902 
3.949866e+2, 2.847558e+2, -396387.75, -402777.7, -35964.414, 0.17250729, 0.06418156, -363476.66, -214071.94, 0.000000010243951, 9.998853, 9.998763 
3.9498374e+2, 2.9475614e+2, -336626.7, -339544.16, -17002.564, 0.062530465, 0.18955623, -321020.4, -269614.25, 0.0000005130985, 9.998647, 9.998628 
3.9497918e+2, 3.0475488e+2, -281493.6, -207136.22, -67957.44, -0.19749725, 0.18030658, -166852.22, -166852.22, 0.0000059963604, 9.998349, 9.9993515 
3.9497906e+2, 3.1475407e+2, -317065.7, -6137.047, -3337.8906, 0.057382822, 0.11639367, -6101.2183, -6101.2183, 0.000027747768, 9.997121, 10.001318 
4.0500453e+2, 1.2477136e+2, -1636667.3, -1740210.5, 170244.44, -0.11972744, 0.3169146, -1510496.6, 206767.36, 0.0001282802, 10.000724, 9.999461 
4.0500253e+2, 1.3477138e+2, -1509936.0, -1603568.6, -48119.688, 0.0749721, 0.31715024, -1489616.1, 129645.766, 0.00006493345, 10.000871, 9.9996605 
4.050014e+2, 1.4477034e+2, -1364892.4, -1426304.3, 69815.945, 0.1918615, 0.22653382, -1319328.3, 201939.77, 0.00002457309, 10.00092, 10.000167 
4.0499756e+2, 1.547691e+2, -1301237.5, -1355834.3, 19140.88, -0.123539664, 0.049193833, -1295195.6, 128078.48, 0.000005781208, 10.000734, 10.0000725 
4.0499696e+2, 1.6476813e+2, -1354609.8, -1487192.5, 107392.49, -0.19599709, 0.022528505, -1294696.3, 30586.203, 0.0000003430959, 10.0003805, 9.998665 
4.0499857e+2, 1.7476767e+2, -1331971.1, -1429375.5, 137710.27, -0.14198598, 0.07992669, -1234604.8, -7313.0938, 0.0, 9.999875, 9.998632 
4.0499854e+2, 1.8476738e+2, -1136227.9, -1175138.0, 35303.336, -0.091135606, 0.14485611, -1115373.9, 13922.186, 0.0, 10.000089, 9.9995985 
4.0499717e+2, 1.9476691e+2, -908429.56, -1016108.44, -7601.8745, 0.00233022, 0.10727205, -907895.5, 123402.945, 0.0, 10.000981, 9.999594 
4.0499538e+2, 2.0476635e+2, -873200.94, -1062874.1, 42560.65, -0.007642107, 0.14741014, -864088.56, 69215.055, 0.0, 10.001043, 9.998565 
4.0499312e+2, 2.1476547e+2, -905135.9, -1036169.3, 32031.824, -0.1511846, 0.17567822, -897724.75, -62411.1, 0.0, 10.000176, 9.998498 
4.04992e+2, 2.2476438e+2, -866742.94, -907176.2, 23654.97, -0.15946054, 0.19551975, -855842.5, -118518.25, 0.0, 9.999531, 9.999014 
4.049921e+2, 2.3476274e+2, -825473.1, -842013.25, -3326.046, -0.021919651, 0.10055967, -824829.3, -185491.23, 0.0, 9.999154, 9.998975 
4.04991e+2, 2.4476156e+2, -720109.2, -744900.0, -6912.3496, 0.018065445, 0.091692336, -718312.1, -176964.27, 0.0, 9.999233, 9.998924 
4.049885e+2, 2.547607e+2, -532590.44, -601104.06, 2439.6023, -0.05323471, 0.080827296, -532503.7, -89149.49, 0.0, 9.999842, 9.998942 
4.0498728e+2, 2.6475945e+2, -402445.2, -474393.2, 37398.754, -0.0043239007, 0.05971202, -386527.03, -41162.344, 0.0, 9.999996, 9.999066 
4.0498757e+2, 2.747575e+2, -359232.72, -405101.28, 33331.777, 0.19217582, -0.074052274, -341707.28, -94325.07, 0.0, 9.999618, 9.999056 
4.0498602e+2, 2.8475705e+2, -338631.53, -394998.28, 38928.96, 0.21791853, 0.0019705996, -318754.88, -169365.97, 0.0000000008315615, 9.999318, 9.998596 
4.0498227e+2, 2.947579e+2, -263898.2, -312137.94, 32963.6, 0.036144063, 0.1888597, -247172.42, -195785.42, 0.0000007104038, 9.999169, 9.998557 
4.0497762e+2, 3.0475652e+2, -186000.52, -140929.0, -13252.761, -0.20712943, 0.15736564, -137321.0, -137321.0, 0.000009515816, 9.998917, 9.999538 
4.0497744e+2, 3.1475562e+2, -197271.1, 9510.317, -35134.04, 0.1508486, 0.072203584, 15316.858, 15316.858, 0.000039448827, 9.99808, 10.000982 
4.1500598e+2, 1.2477249e+2, -1640590.9, -1765135.6, 180666.77, -0.118552, 0.13774407, -1511765.5, 205476.97, 0.00012596608, 10.000775, 9.999266 
4.1500372e+2, 1.3477165e+2, -1506453.9, -1622614.1, -32950.938, 0.069832854, 0.060539022, -1497757.8, 121492.6, 0.00006410072, 10.00095, 9.999496 
4.1500148e+2, 1.4477138e+2, -1431310.0, -1551422.5, 51168.223, 0.06797205, 0.09291059, -1412468.0, 108785.34, 0.00002430965, 10.000883, 9.999322 
4.1499954e+2, 1.5477194e+2, -1368116.0, -1480275.4, 27840.076, -0.03054074, 0.18754525, -1361585.8, 61662.71, 0.0000053776803, 10.000687, 9.999237 
4.149995e+2, 1.6477145e+2, -1291628.4, -1334468.8, 75665.52, -0.010100263, 0.19577904, -1234409.5, 90842.8, 0.0000002359893, 10.000286, 9.999756 
4.1500014e+2, 1.7476998e+2, -1259556.1, -1265924.6, 134031.13, -0.006553257, 0.037250858, -1128671.4, 98592.03, 0.0, 9.999819, 9.99978 
4.1499898e+2, 1.8476948e+2, -1198387.1, -1282187.5, 54330.24, -0.08415149, 0.056278363, -1171676.9, -42408.46, 0.0, 9.999999, 9.998903 
4.1499636e+2, 1.9476971e+2, -975203.7, -1128920.1, 37111.4, -0.20065251, 0.16028178, -966713.0, 64556.668, 0.0, 10.00088, 9.99886 
4.1499498e+2, 2.0476876e+2, -893485.8, -1078816.9, -1350.1853, -0.17927971, 0.20272437, -893476.0, 39804.26, 0.0, 10.000917, 9.998524 
4.1499475e+2, 2.1476632e+2, -930477.44, -1045277.94, 10312.45, -0.028124332, 0.07471914, -929558.44, -94255.38, 0.0, 9.9999895, 9.998526 
4.1499364e+2, 2.2476509e+2, -917478.75, -975015.75, -3623.757, 0.029505072, 0.098511025, -917251.4, -179935.89, 0.0, 9.999369, 9.998628 
4.149915e+2, 2.3476493e+2, -872663.8, -908531.4, -4371.3257, -0.024215572, 0.18783338, -872138.75, -232819.7, 0.0, 9.99902, 9.998584 
4.1498998e+2, 2.4476403e+2, -690460.2, -664147.2, 4203.647, -0.034836017, 0.19809894, -663491.94, -122165.21, 0.0, 9.999148, 9.999517 
4.149892e+2, 2.547621e+2, -504498.2, -518816.56, 38808.11, 0.0026972669, 0.016720043, -472194.44, -28853.336, 0.0, 9.999735, 9.999558 
4.1498786e+2, 2.647613e+2, -393949.03, -440191.97, 12861.166, 0.025293585, -0.004199165, -390612.75, -45266.734, 0.0, 9.999932, 9.99933 
4.1498584e+2, 2.747615e+2, -357861.44, -377118.44, 31556.537, 0.020199414, 0.05263936, -334497.16, -87154.21, 0.0, 9.99952, 9.999291 
4.1498372e+2, 2.847612e+2, -344791.8, -415613.75, 19140.62, 0.019879304, 0.13896707, -339949.84, -190601.9, 0.00000000001177225, 9.999334, 9.998454 
4.1498163e+2, 2.9476014e+2, -281012.3, -333592.84, 43030.824, 0.012166441, 0.14888008, -256876.1, -205512.58, 0.0000013022876, 9.999096, 9.998454 
4.1497782e+2, 3.04759e+2, -165787.5, -89263.08, -45648.965, -0.110813454, 0.13004902, -67961.664, -67961.664, 0.000014575742, 9.99889, 9.999897 
4.149758e+2, 3.1475958e+2, -255536.97, -80682.65, -69874.86, 0.11087632, 0.15959239, -56190.176, -56190.176, 0.000055427667, 9.997967, 10.00041 
4.25007e+2, 1.2477328e+2, -1851559.5, -1822015.8, 159194.48, -0.0028865521, 0.041687667, -1676909.3, 40320.105, 0.00012015749, 9.999121, 9.999673 
4.2500475e+2, 1.3477297e+2, -1560728.0, -1611241.6, -67534.71, 0.11550925, -0.02190407, -1513881.9, 105349.37, 0.00006079175, 10.00041, 9.99983 
4.2500135e+2, 1.4477313e+2, -1421724.5, -1595671.1, 47548.574, -0.038488388, 0.059914503, -1409575.5, 111656.02, 0.00002257458, 10.001163, 9.99888 
4.2500108e+2, 1.5477362e+2, -1359282.9, -1525264.4, 12812.564, 0.051461868, 0.18945584, -1358299.6, 64932.473, 0.0000044461326, 10.00097, 9.998787 
4.2500135e+2, 1.6477336e+2, -1185062.8, -1240994.8, 75281.836, 0.12659523, 0.22873901, -1132720.3, 192514.55, 0.00000009724189, 10.000848, 10.000122 
4.250009e+2, 1.7477229e+2, -1094302.6, -1140999.5, 51716.324, 0.048184663, 0.07242033, -1060908.4, 166331.4, 0.0, 10.000768, 10.000176 
4.249993e+2, 1.8477184e+2, -1160402.5, -1281601.6, -895.3111, -0.061489556, 0.08072247, -1160395.9, -31151.754, 0.0, 10.00032, 9.998761 
4.2499685e+2, 1.9477165e+2, -1198764.0, -1257912.1, 2516.054, -0.15894015, 0.16119215, -1198657.3, -167406.0, 0.0, 9.999415, 9.998691 
4.2499563e+2, 2.0477074e+2, -1069175.0, -1096813.8, 35503.887, -0.12392888, 0.18470937, -1044895.75, -111634.68, 0.0, 9.999439, 9.999104 
4.2499554e+2, 2.1476874e+2, -825533.0, -931898.56, 65549.56, 0.03635433, 0.043725815, -794305.2, 40971.56, 0.0, 10.000444, 9.999084 
4.2499435e+2, 2.2476766e+2, -720281.25, -889189.94, 92077.48, 0.10351777, 0.058411796, -679792.44, 57494.28, 0.0, 10.000768, 9.998539 
4.2499194e+2, 2.3476745e+2, -690087.4, -827945.06, 84328.28, 0.060612354, 0.15573846, -650101.3, -10809.814, 0.0, 10.000315, 9.998508 
4.249901e+2, 2.4476661e+2, -618015.44, -645835.94, 112540.57, 0.038396757, 0.1826245, -518528.72, 22771.475, 0.0, 9.999715, 9.999376 
4.2498896e+2, 2.5476474e+2, -622691.94, -597254.44, 64203.254, 0.048437633, 0.02498637, -544522.25, -101206.37, 0.0, 9.999002, 9.999383 
4.2498735e+2, 2.6476416e+2, -550071.8, -503224.8, 28488.363, 0.044476073, 0.031250224, -489766.78, -144447.14, 0.0, 9.99881, 9.999445 
4.2498514e+2, 2.7476475e+2, -401714.84, -381539.28, 11778.088, 0.0250092, 0.11653587, -376119.44, -128806.79, 0.0, 9.999157, 9.999439 
4.2498282e+2, 2.847644e+2, -357649.75, -380027.3, 27559.018, 0.013584836, 0.17486975, -339094.8, -189778.19, 0.0000000012455732, 9.9991, 9.9987955 
4.2498067e+2, 2.9476285e+2, -323930.5, -313896.3, 58055.457, 0.043215178, 0.10414183, -260641.58, -209307.1, 0.0000019825331, 9.998639, 9.998806 
4.2497757e+2, 3.0476213e+2, -223259.44, -133042.48, 1420.7682, 0.007003949, 0.10823714, -133020.13, -133020.13, 0.000019679212, 9.998559, 9.99976 
4.2497414e+2, 3.1476215e+2, -163863.22, -75009.66, -132692.3, 0.12660468, 0.09850025, 20495.63, 20495.63, 0.00007104561, 9.998752, 10.00007 
4.350068e+2, 1.2477378e+2, -1792078.1, -1672291.9, 144064.94, 0.00008549143, 0.023934804, -1576166.1, 141057.75, 0.00011272219, 9.999047, 10.000726 
4.350054e+2, 1.3477536e+2, -1500248.8, -1482430.1, -855.2893, 0.09838319, 0.06585481, -1482389.1, 136814.84, 0.00005585788, 10.000417, 10.000709 
4.3500057e+2, 1.4477552e+2, -1436359.1, -1619182.6, 32982.984, -0.27270994, 0.11319453, -1430590.8, 90612.68, 0.000019900395, 10.0011215, 9.998744 
4.3500164e+2, 1.5477407e+2, -1362100.9, -1541432.6, 20850.266, -0.025251096, 0.05940899, -1359708.5, 63516.48, 0.0000034951138, 10.000998, 9.998669 
4.3500203e+2, 1.6477375e+2, -1219837.1, -1292683.4, 58769.906, 0.07859693, 0.113012016, -1187118.8, 138112.33, 0.000000032016867, 10.00077, 9.999801 
4.3500045e+2, 1.747746e+2, -1126966.8, -1192392.3, 61384.586, -0.10508125, 0.18040092, -1090122.4, 137098.7, 0.0, 10.000704, 9.999853 
4.3499902e+2, 1.847744e+2, -1148372.3, -1228447.5, -46217.684, -0.14761464, 0.2135328, -1127261.9, 1961.722, 0.0, 10.000203, 9.999184 
4.349982e+2, 1.9477288e+2, -1183924.4, -1198161.4, -16732.521, 0.0051091854, 0.11410564, -1172859.1, -141617.39, 0.0, 9.999297, 9.999158 
4.3499696e+2, 2.0477235e+2, -1013922.4, -946517.94, 59551.82, 0.037324898, 0.09804691, -911793.1, 21452.105, 0.0, 9.999288, 10.000207 
4.3499503e+2, 2.1477266e+2, -770842.56, -782106.8, 116257.4, -0.08633407, 0.07418501, -660080.94, 175154.16, 0.0, 10.000291, 10.000185 
4.349937e+2, 2.2477211e+2, -729701.0, -873550.5, 64365.28, -0.063688815, 0.07822077, -705106.0, 32131.227, 0.0, 10.000616, 9.998719 
4.3499303e+2, 2.3477034e+2, -699036.25, -812497.9, 80179.77, 0.11180083, 0.0016505314, -657547.0, -18291.508, 0.0, 10.000167, 9.998685 
4.3499094e+2, 2.4476928e+2, -702063.6, -794563.2, 73131.945, 0.12600523, 0.04598474, -661784.1, -120515.78, 0.0, 9.99961, 9.9984 
4.349873e+2, 2.5476876e+2, -708882.1, -749243.3, 51070.63, -0.046162352, 0.120503716, -674149.44, -230872.25, 0.0, 9.998894, 9.998385 
4.3498528e+2, 2.647682e+2, -556084.7, -509340.72, 30405.809, -0.06826134, 0.18196955, -494362.16, -149078.5, 0.0, 9.998777, 9.999421 
4.3498495e+2, 2.747673e+2, -411537.16, -385481.7, 40367.098, 0.06043012, 0.11392511, -356092.16, -108801.44, 0.0, 9.999078, 9.999453 
4.3498275e+2, 2.8476664e+2, -311231.5, -270905.28, -108.23203, 0.0672384, 0.10235104, -270905.0, -121609.47, 0.000000012355592, 9.999056, 9.999559 
4.349792e+2, 2.947662e+2, -285738.66, -216795.0, 56277.063, -0.009408178, 0.059519283, -185271.27, -133971.92, 0.0000027662056, 9.998571, 9.999502 
4.349765e+2, 3.0476582e+2, -266434.53, -228943.34, -1579.8931, 0.015349333, 0.101418175, -228876.89, -228876.89, 0.000024180765, 9.998575, 9.999095 
4.3497172e+2, 3.1476322e+2, -202224.66, -134968.53, -86147.875, -0.065629154, -0.10397358, -76117.93, -76117.93, 0.00008333817, 9.998664, 9.999702 
4.450072e+2, 1.24774955e+2, -1506539.4, -1539454.9, 146382.53, 0.050960176, 0.048382923, -1375692.4, 341518.6, 0.00010688196, 10.001064, 10.000658 
4.4500712e+2, 1.347761e+2, -1566738.0, -1529151.0, -69074.53, 0.26147604, 0.06413806, -1476359.0, 142837.66, 0.000051033883, 10.00005, 10.000568 
4.4500107e+2, 1.4477621e+2, -1580994.3, -1637622.6, -14380.085, -0.2628394, 0.091401055, -1577551.9, -56355.008, 0.000017295639, 9.999905, 9.999201 
4.4500223e+2, 1.5477502e+2, -1416078.4, -1511346.5, -17488.15, -0.029648839, 0.012254701, -1412969.5, 10244.803, 0.0000027656245, 10.000389, 9.999162 
4.4500247e+2, 1.647751e+2, -1280214.1, -1318865.3, 69201.66, 0.080453955, 0.076360166, -1227690.3, 97526.68, 0.000000035556127, 10.000313, 9.999859 
4.4500065e+2, 1.7477643e+2, -1285837.6, -1265112.9, 77071.195, -0.09089313, 0.1872539, -1197710.6, 29493.879, 0.0, 9.999579, 9.999907 
4.4499922e+2, 1.8477668e+2, -1202625.0, -1194194.4, 26611.826, -0.1092247, 0.23542188, -1171466.1, -42263.14, 0.0, 9.999587, 9.999702 
4.4499877e+2, 1.9477539e+2, -998367.9, -1049424.0, 32349.422, 0.08899688, 0.10876625, -982687.1, 48529.41, 0.0, 10.000328, 9.999671 
4.4499752e+2, 2.0477505e+2, -864842.25, -882282.1, 98693.625, 0.11884432, 0.09119023, -774484.1, 158733.83, 0.0, 10.000362, 10.000122 
4.4499522e+2, 2.1477552e+2, -880107.8, -843154.5, 38507.863, -0.050771598, 0.09380199, -818920.0, 16288.147, 0.0, 9.999586, 10.000099 
4.449937e+2, 2.2477506e+2, -882050.1, -910267.7, -33599.563, -0.056596834, 0.094120845, -859717.4, -122507.62, 0.0, 9.999407, 9.999051 
4.4499308e+2, 2.347733e+2, -724778.4, -791030.75, -31102.21, 0.12245733, -0.014481346, -712465.7, -73239.06, 0.0, 9.999838, 9.998994 
4.4499084e+2, 2.4477239e+2, -637544.44, -781842.7, 11653.493, 0.13792181, 0.035024486, -636609.4, -95371.38, 0.0, 10.000127, 9.998239 
4.4498703e+2, 2.5477222e+2, -527231.3, -679197.7, 25482.725, -0.022733558, 0.15838715, -523072.03, -79827.04, 0.0, 10.000217, 9.998225 
4.4498473e+2, 2.6477155e+2, -446773.4, -467329.9, 50039.836, -0.03660682, 0.22146696, -405967.13, -60713.973, 0.0, 9.999578, 9.999316 
4.449839e+2, 2.7477008e+2, -542386.3, -462662.84, 24460.998, 0.093466684, 0.11098449, -455756.0, -208490.34, 0.0, 9.998241, 9.999323 
4.449814e+2, 2.8476927e+2, -464267.6, -324623.8, 3790.0723, 0.091648184, 0.080879435, -324521.03, -175249.06, 0.00000003062236, 9.997903, 9.999755 
4.4497806e+2, 2.9476896e+2, -290662.44, -187891.31, -16360.249, 0.03897605, 0.03674685, -185349.77, -134076.63, 0.0000032986038, 9.998411, 9.999774 
4.449762e+2, 3.0476928e+2, -228224.95, -189097.13, -13812.66, 0.12871717, 0.121340446, -184712.42, -184712.42, 0.000027227657, 9.998756, 9.999266 
4.449704e+2, 3.1476736e+2, -76887.734, -18624.12, -51947.406, -0.080045596, -0.038070634, 11802.407, 11802.407, 0.000091368296, 9.999305, 10.000175 
4.5500708e+2, 1.247767e+2, -1597669.3, -1727363.4, -19555.684, -0.13954227, 0.09531155, -1594784.6, 122407.01, 0.000102696926, 10.001058, 9.99937 
4.5500934e+2, 1.3477515e+2, -1643125.3, -1705532.6, -90100.4, 0.44596654, -0.03622479, -1578978.3, 40231.74, 0.000047349753, 10.000107, 9.999336 
4.550024e+2, 1.4477497e+2, -1515105.1, -1485745.0, -3969.447, -0.15884599, -0.026311716, -1485217.9, 35995.94, 0.000015080613, 9.99985, 10.000265 
4.550024e+2, 1.5477636e+2, -1343608.1, -1353314.8, 16214.683, -0.08606131, 0.045159798, -1331536.0, 91665.1, 0.0000021144335, 10.000364, 10.000256 
4.5500234e+2, 1.6477732e+2, -1249995.4, -1245048.8, 26238.016, 0.0026499913, 0.11650776, -1221167.8, 104025.28, 0.00000004449902, 10.0002575, 10.000392 
4.550011e+2, 1.7477778e+2, -1251240.0, -1192799.4, 63211.266, -0.035916105, 0.08631461, -1152381.4, 74808.94, 0.0, 9.99957, 10.000409 
4.549995e+2, 1.8477854e+2, -1178709.3, -1123198.9, 40310.24, -0.06734637, 0.13426219, -1102012.6, 27170.586, 0.0, 9.999498, 10.00023 
4.5499814e+2, 1.9477923e+2, -982335.94, -983688.06, 70862.45, -0.037943754, 0.15107685, -912146.3, 119029.12, 0.0, 10.000194, 10.000183 
4.5499688e+2, 2.0477892e+2, -975187.6, -1077794.6, 57022.387, -0.005788306, 0.1740912, -949786.5, -16607.895, 0.0, 10.000214, 9.998854 
4.5499572e+2, 2.1477738e+2, -996469.7, -1039828.06, 22518.121, 0.012808355, 0.103879295, -986891.06, -151695.69, 0.0, 9.999397, 9.998837 
4.5499402e+2, 2.2477658e+2, -873675.5, -858166.2, -29674.9, 0.00799309, 0.11397777, -835249.5, -98046.06, 0.0, 9.999251, 9.99949 
4.5499158e+2, 2.3477636e+2, -707855.5, -726530.06, -40.014828, -0.03798795, 0.109552376, -707855.4, -68650.9, 0.0, 9.999706, 9.9995 
4.549894e+2, 2.4477594e+2, -608719.9, -690713.5, 3444.5955, -0.0454244, 0.15038282, -608575.44, -67366.58, 0.0, 10.000002, 9.998926 
4.5498773e+2, 2.5477496e+2, -495785.94, -583277.7, 42811.15, -0.0014596346, 0.12910186, -478323.2, -35103.47, 0.0, 10.000088, 9.998951 
4.5498523e+2, 2.6477402e+2, -477633.7, -512912.8, -10037.84, 0.027687041, 0.13878381, -474977.63, -129748.29, 0.0, 9.999503, 9.999035 
4.5498148e+2, 2.74773e+2, -580768.6, -518942.13, -8220.822, -0.00259567, 0.100404225, -517867.72, -270629.25, 0.0, 9.998144, 9.998977 
4.5497838e+2, 2.847723e+2, -491715.47, -376988.3, 9881.016, -0.03397258, 0.1169123, -376143.5, -226898.16, 0.000000022691747, 9.997873, 9.9994135 
4.549769e+2, 2.947713e+2, -311965.28, -227221.92, 14540.773, 0.03967001, 0.035895072, -224796.36, -173540.67, 0.0000033720132, 9.998368, 9.999535 
4.5497614e+2, 3.047725e+2, -157224.05, -35713.56, -3387.734, 0.21557704, 0.16305417, -35619.184, -35619.184, 0.000028360193, 9.998742, 10.0003195 
4.549696e+2, 3.1477404e+2, 2109.6406, 157697.88, 53080.53, -0.15741816, 0.24804404, 174081.61, 174081.61, 0.00009465621, 9.999251, 10.001412 
4.6500802e+2, 1.2477862e+2, -1866176.0, -1872902.5, -49751.816, -0.048832804, 0.10083207, -1819673.9, -102498.91, 0.00009773488, 9.999245, 9.999244 
4.6501017e+2, 1.3477722e+2, -1530356.4, -1666713.8, 37779.414, 0.4913154, -0.012093434, -1520588.8, 98604.805, 0.000043477085, 10.000907, 9.999227 
4.65003e+2, 1.4477725e+2, -1287810.0, -1343113.0, 152972.23, -0.14396301, 0.00947779, -1160010.3, 361184.75, 0.000012657647, 10.00126, 10.000572 
4.6500292e+2, 1.5477906e+2, -1359976.8, -1324910.8, 80001.016, -0.04773783, 0.0920003, -1260544.0, 162631.25, 0.0000014631825, 10.00009, 10.00059 
4.6500266e+2, 1.6478008e+2, -1349657.5, -1296092.6, 75269.04, 0.050137427, 0.15139619, -1242983.1, 82182.805, 0.000000030371112, 9.999609, 10.000343 
4.650014e+2, 1.7478001e+2, -1207389.0, -1178080.3, 38832.426, 0.026386516, 0.07691577, -1151229.1, 75940.266, 0.0, 9.999912, 10.0003395 
4.6499968e+2, 1.8478078e+2, -1104448.3, -1068291.0, 18942.586, -0.015878139, 0.11902521, -1060184.5, 68978.04, 0.0, 9.999906, 10.000421 
4.6499783e+2, 1.9478211e+2, -1069103.4, -1004318.56, 3468.3308, -0.04146679, 0.17967466, -1004133.44, 27014.225, 0.0, 9.999481, 10.000398 
4.649967e+2, 2.0478202e+2, -1079831.5, -1127502.6, 41914.44, -0.0014664626, 0.21088988, -1055449.3, -122300.48, 0.0, 9.999475, 9.998874 
4.649962e+2, 2.1478015e+2, -919813.75, -1007136.1, 76190.73, 0.09979236, 0.10962252, -875660.8, -40490.984, 0.0, 9.999927, 9.998814 
4.6499434e+2, 2.2477953e+2, -770352.7, -789130.06, 92516.66, 0.09192356, 0.12943599, -686749.56, 50427.652, 0.0, 9.999896, 9.999637 
4.64991e+2, 2.3478001e+2, -745661.1, -727577.6, 69215.9, -0.042736813, 0.18104984, -666815.44, -27643.492, 0.0, 9.99939, 9.999636 
4.6498874e+2, 2.4477977e+2, -703594.8, -701153.4, 76589.71, -0.06290494, 0.21724007, -625774.6, -84600.84, 0.0, 9.999182, 9.99925 
4.649879e+2, 2.5477847e+2, -589591.0, -594169.94, 63786.84, 0.056843154, 0.12862822, -528052.56, -84866.484, 0.0, 9.999282, 9.999265 
4.649854e+2, 2.647776e+2, -480154.9, -538582.4, 1164.4299, 0.09951257, 0.1371401, -480131.7, -134936.69, 0.0, 9.999575, 9.9988365 
4.6498072e+2, 2.7477697e+2, -328604.6, -421675.94, -12969.214, 0.022277135, 0.16312487, -326831.16, -79629.59, 0.0, 9.9999695, 9.998776 
4.649771e+2, 2.8477615e+2, -247572.42, -299526.72, 51315.65, -0.031606577, 0.19563529, -216033.42, -66822.51, 0.00000001636591, 9.999728, 9.999049 
4.6497574e+2, 2.9477447e+2, -252020.89, -222972.06, 11804.612, 0.07147292, 0.08137567, -218779.97, -167551.34, 0.0000038591365, 9.998899, 9.999297 
4.6497527e+2, 3.0477563e+2, -218087.02, -64114.35, -8830.649, 0.28686255, 0.2123792, -63609.55, -63609.55, 0.000029778155, 9.998282, 10.0003805 
4.6496913e+2, 3.1477758e+2, -192043.03, 79385.516, -22330.479, -0.04624976, 0.3415377, 81210.38, 81210.38, 0.00009717631, 9.997841, 10.001571 
4.7500888e+2, 1.2478056e+2, -1804192.4, -1706947.0, -151834.45, 0.03695462, 0.064393885, -1596139.9, 121022.27, 0.00009217974, 9.999121, 10.000425 
4.750092e+2, 1.3478225e+2, -1449999.4, -1491021.0, 117961.75, 0.26815087, 0.14229818, -1350778.5, 268369.44, 0.00003847725, 10.0008955, 10.000423 
4.7500244e+2, 1.4478305e+2, -1318043.0, -1403338.9, 96735.62, -0.3736318, 0.19928549, -1254971.4, 266168.97, 0.000009911169, 10.001233, 10.000178 
4.7500327e+2, 1.5478314e+2, -1382402.5, -1379943.1, 49233.816, -0.059834067, 0.14882363, -1331923.6, 91213.05, 0.0000009593812, 10.0001135, 10.000207 
4.7500312e+2, 1.6478328e+2, -1404796.4, -1397870.5, 72343.36, 0.099474296, 0.17311275, -1328907.3, -3771.0466, 0.000000014696447, 9.999557, 9.999675 
4.750012e+2, 1.7478308e+2, -1262931.8, -1281886.0, 65349.8, -0.017249981, 0.15827899, -1206375.5, 20766.975, 0.0, 9.999865, 9.999654 
4.749992e+2, 1.847834e+2, -1120501.4, -1081618.1, -7394.1763, -0.08377025, 0.19475433, -1080259.5, 48881.41, 0.0, 9.999816, 10.000376 
4.7499752e+2, 1.9478406e+2, -1084800.4, -1017556.75, 2349.9436, -0.05026536, 0.19148277, -1017474.75, 13658.236, 0.0, 9.9993925, 10.000355 
4.7499654e+2, 2.0478433e+2, -1011176.9, -951720.1, 46361.38, 0.0101326, 0.19981878, -926374.44, 6754.145, 0.0, 9.999339, 10.000141 
4.749962e+2, 2.1478397e+2, -853316.5, -827267.44, 106632.98, 0.08371789, 0.11738368, -732866.5, 102264.0, 0.0, 9.999755, 10.000127 
4.7499436e+2, 2.2478393e+2, -800566.1, -827350.1, 62251.94, 0.07560074, 0.13832267, -750282.0, -13151.354, 0.0, 9.999774, 9.999442 
4.749909e+2, 2.3478408e+2, -781778.3, -770476.75, 63560.332, -0.01801244, 0.1807871, -712316.5, -73186.15, 0.0, 9.999244, 9.999416 
4.7498843e+2, 2.4478377e+2, -723177.2, -716986.6, 69065.0, -0.03994645, 0.22260188, -650947.56, -109813.445, 0.0, 9.999071, 9.999196 
4.7498715e+2, 2.5478268e+2, -612507.9, -618130.6, 82459.88, 0.021096518, 0.15818404, -532811.44, -89666.766, 0.0, 9.999169, 9.999158 
4.7498488e+2, 2.647822e+2, -496651.06, -552207.44, 4037.613, 0.06095724, 0.21922846, -496359.16, -151208.67, 0.0, 9.999494, 9.998777 
4.749811e+2, 2.7478203e+2, -344383.72, -431735.66, 17437.07, 0.03495627, 0.2945378, -341031.6, -93876.82, 0.0, 9.999882, 9.998746 
4.7497723e+2, 2.8478077e+2, -281908.66, -370602.72, 6695.4478, -0.023039969, 0.30759352, -281406.06, -132236.95, 0.0000000367379, 9.999718, 9.9985695 
4.749742e+2, 2.9477823e+2, -296642.03, -302798.34, -6067.8516, -0.014020893, 0.15319794, -292916.22, -241721.52, 0.000004901276, 9.998824, 9.998795 
4.7497314e+2, 3.047785e+2, -289734.44, -196749.44, -41854.254, 0.22166073, 0.26300287, -180685.31, -180685.31, 0.000032907166, 9.998224, 9.999492 
4.74968e+2, 3.1477785e+2, -264041.0, -59976.44, 46542.707, -0.013313639, 0.2311453, -49862.348, -49862.348, 0.00010232853, 9.997805, 10.000625 
4.8500922e+2, 1.2478439e+2, -1691564.5, -1612769.1, -96391.95, 0.14870651, 0.09547268, -1548034.3, 169093.88, 0.00008688649, 9.999714, 10.000805 
4.8500878e+2, 1.347868e+2, -1587636.3, -1526372.0, 151566.81, 0.20371555, 0.22272077, -1402372.9, 216732.77, 0.000032757685, 9.999805, 10.000726 
4.8500368e+2, 1.447876e+2, -1494956.9, -1508750.1, 101476.77, -0.30522874, 0.27488494, -1400142.6, 120954.48, 0.000007215262, 10.000118, 9.999984 
4.850044e+2, 1.5478674e+2, -1275858.4, -1355927.8, 30952.928, 0.010088986, 0.1498936, -1265288.1, 157814.53, 0.00000059770906, 10.000967, 9.999958 
4.8500356e+2, 1.6478644e+2, -1233432.1, -1343932.5, 95668.35, 0.13529536, 0.1555594, -1178206.0, 146900.25, 0.0000000048834687, 10.00086, 9.999412 
4.850007e+2, 1.7478639e+2, -1302604.4, -1325563.5, 98886.664, -0.036323585, 0.18020326, -1214533.3, 12577.645, 0.0, 9.999715, 9.999413 
4.849986e+2, 1.8478653e+2, -1222216.0, -1142969.1, 74982.84, -0.07954206, 0.21531655, -1097784.3, 31326.996, 0.0, 9.999182, 10.000249 
4.849978e+2, 1.9478665e+2, -1112029.9, -1037848.1, 55169.473, 0.053926233, 0.16507499, -1008460.4, 22648.635, 0.0, 9.999256, 10.000264 
4.849968e+2, 2.0478699e+2, -996272.94, -906729.5, 99785.04, 0.11170949, 0.16755559, -842132.3, 90971.234, 0.0, 9.99927, 10.000499 
4.8499566e+2, 2.147873e+2, -927292.6, -817811.25, 71926.086, 0.09522813, 0.11803471, -782164.44, 52932.73, 0.0, 9.999051, 10.000539 
4.8499385e+2, 2.2478747e+2, -881168.94, -877899.9, 16680.225, 0.077630036, 0.14429976, -862774.25, -125679.46, 0.0, 9.999274, 9.999337 
4.8499122e+2, 2.3478724e+2, -681574.1, -740962.8, -40.097572, 0.059270326, 0.1619423, -681574.06, -42474.57, 0.0, 9.999997, 9.999264 
4.8498866e+2, 2.4478678e+2, -586966.44, -629995.7, 25039.588, 0.039975718, 0.18863441, -575468.06, -34363.47, 0.0, 9.999917, 9.999384 
4.849862e+2, 2.5478595e+2, -636419.56, -604698.7, 26724.477, 0.027563142, 0.13324447, -589482.6, -146371.48, 0.0, 9.998915, 9.999367 
4.849838e+2, 2.6478565e+2, -623947.1, -609880.75, 21354.549, 0.05471724, 0.19714902, -594431.0, -249316.16, 0.0, 9.998598, 9.998813 
4.8498118e+2, 2.747854e+2, -464821.1, -487086.22, 14632.457, 0.104761936, 0.26013026, -457567.72, -210447.36, 0.0, 9.999031, 9.99878 
4.8497748e+2, 2.8478393e+2, -344836.0, -425402.38, 20547.39, 0.054584276, 0.26561943, -339898.28, -190761.55, 0.00000008825205, 9.999385, 9.998354 
4.849734e+2, 2.9478154e+2, -200159.06, -285659.47, -8816.09, -0.0056450972, 0.14567906, -199259.48, -148097.69, 0.0000056092463, 9.999612, 9.99853 
4.8497143e+2, 3.0478162e+2, -131909.02, -192167.2, 9060.6, 0.17207284, 0.28412178, -130576.12, -130576.12, 0.000035389916, 9.999617, 9.998841 
4.8496726e+2, 3.1478018e+2, -33042.023, 33141.746, 112420.13, 0.06184357, 0.23353282, 117239.28, 117239.28, 0.00010599746, 9.999465, 10.000461 
4.950077e+2, 1.2479002e+2, -1713021.9, -1671560.0, -222604.73, -0.053891424, 0.1987911, -1468723.0, 248350.72, 0.00007926606, 9.999771, 10.000374 
4.9500832e+2, 1.3479085e+2, -1623000.6, -1605443.6, 163940.94, 0.14783594, 0.21919103, -1450046.4, 169020.2, 0.000026309035, 9.999827, 10.00017 
4.950064e+2, 1.4479093e+2, -1512885.4, -1531936.3, 117094.47, -0.08544978, 0.23425774, -1404929.5, 116135.47, 0.0000047383246, 10.000058, 9.999855 
4.950059e+2, 1.5478991e+2, -1288192.1, -1376472.5, 76938.05, 0.029370267, 0.106467016, -1243631.6, 179440.92, 0.0000002991547, 10.000946, 9.999827 
4.9500367e+2, 1.6478963e+2, -1223475.9, -1313975.8, 39456.297, 0.027414177, 0.10984185, -1208689.5, 116385.9, 0.0000000005507737, 10.000815, 9.999641 
4.9499962e+2, 1.747899e+2, -1291365.6, -1293710.0, 66338.22, -0.14727464, 0.14215246, -1226189.3, 886.0395, 0.0, 9.999675, 9.999653 
4.949977e+2, 1.8479007e+2, -1248337.9, -1174806.0, 64548.54, -0.118418604, 0.17696555, -1137287.0, -8212.263, 0.0, 9.999088, 10.000074 
4.9499825e+2, 1.9478984e+2, -1138183.8, -1072200.1, 67709.03, 0.1415417, 0.11006238, -1029872.8, 1203.5684, 0.0, 9.9991665, 10.000073 
4.9499708e+2, 2.0478997e+2, -1044963.0, -978439.94, 76482.51, 0.19002116, 0.12101577, -928299.4, 4774.476, 0.0, 9.999136, 10.000075 
4.949941e+2, 2.1479025e+2, -978592.6, -896308.4, 76433.72, 0.008678545, 0.11313168, -850647.4, -15578.359, 0.0, 9.998917, 10.000072 
4.9499226e+2, 2.2479014e+2, -912465.06, -904389.56, 32974.223, -0.033911332, 0.14108352, -875206.75, -138136.42, 0.0, 9.999118, 9.999226 
4.9499154e+2, 2.3478942e+2, -710558.56, -762468.94, 43210.98, 0.06443802, 0.11608421, -686106.8, -47026.582, 0.0, 9.999837, 9.999191 
4.94989e+2, 2.4478887e+2, -574159.06, -576871.1, -23190.695, 0.055299588, 0.11640641, -552284.75, -11199.834, 0.0, 9.999807, 9.999802 
4.9498454e+2, 2.547882e+2, -620064.8, -549329.5, 3326.915, -0.062101502, 0.037131563, -549173.4, -106086.44, 0.0, 9.998819, 9.999794 
4.949817e+2, 2.647877e+2, -626593.44, -594387.94, 22209.404, -0.04164381, 0.054257825, -583057.94, -237967.63, 0.0, 9.998516, 9.998954 
4.9498042e+2, 2.7478704e+2, -476679.5, -478804.44, 45774.324, 0.09697096, 0.060031425, -431955.3, -184856.78, 0.0, 9.9988985, 9.998895 
4.9497736e+2, 2.8478596e+2, -347786.06, -417321.06, 18950.475, 0.07085956, 0.08950733, -342956.84, -193845.17, 0.00000018947561, 9.999328, 9.998435 
4.9497294e+2, 2.9478446e+2, -206733.92, -288601.75, 15668.166, -0.052545577, 0.059730303, -203837.73, -152708.27, 0.000005650319, 9.999571, 9.998527 
4.9496987e+2, 3.0478504e+2, -153406.88, -244170.34, -4705.6265, 0.023460343, 0.27023017, -153163.56, -153163.56, 0.00003451672, 9.999637, 9.998478 
4.9496576e+2, 3.147846e+2, 1400.5104, 116618.23, 170552.75, -0.10469554, 0.3383079, 239028.86, 239028.86, 0.00010176044, 9.999409, 10.0010605 
5.050081e+2, 1.2479444e+2, -1772377.9, -1744143.0, -211071.03, 0.034215413, 0.19302855, -1546717.8, 170311.3, 0.000066640154, 9.999587, 9.999944 
5.0500745e+2, 1.3479416e+2, -1591863.9, -1657415.1, 144181.03, 0.065624386, 0.16118339, -1476780.1, 142253.39, 0.0000195532, 10.000329, 9.999569 
5.05008e+2, 1.4479391e+2, -1514794.9, -1525036.0, 123017.66, 0.07691129, 0.17291772, -1396791.3, 124244.61, 0.0000028130235, 10.000029, 9.99991 
5.05006e+2, 1.5479359e+2, -1559921.4, -1494736.1, 64470.39, 0.05294919, 0.1072474, -1455088.1, -32050.625, 0.00000011765629, 9.999048, 9.999921 
5.050032e+2, 1.6479367e+2, -1475581.1, -1409588.6, 59853.277, 0.0024634553, 0.13080496, -1374238.9, -49202.34, 0.000000000026416515, 9.998963, 9.999881 
5.0499976e+2, 1.7479394e+2, -1261233.6, -1254472.8, 60898.98, -0.09829381, 0.13972223, -1196860.5, 30174.95, 0.0, 9.99976, 9.9998865 
5.049978e+2, 1.847941e+2, -1121979.0, -1131160.6, 89045.36, -0.057979953, 0.16836487, -1037406.2, 91628.37, 0.0, 10.000033, 9.999921 
5.049977e+2, 1.9479384e+2, -1069307.1, -1056491.3, 72626.49, 0.14460848, 0.120192565, -989990.56, 41046.016, 0.0, 9.9997225, 9.999913 
5.049963e+2, 2.0479389e+2, -966997.6, -968174.2, 116985.57, 0.17255093, 0.14430028, -850598.9, 82436.805, 0.0, 9.999811, 9.9998 
5.0499374e+2, 2.1479404e+2, -812513.75, -845503.9, 96108.95, 0.021310456, 0.14864232, -731494.6, 103539.29, 0.0, 10.000209, 9.999779 
5.04992e+2, 2.2479373e+2, -791255.8, -856120.0, 78320.22, -0.005033727, 0.17790738, -738918.25, -1880.3861, 0.0, 9.999985, 9.999147 
5.049913e+2, 2.3479281e+2, -845245.5, -829919.56, 62313.19, 0.107238285, 0.1401467, -774799.94, -135750.55, 0.0, 9.998939, 9.999154 
5.049887e+2, 2.4479222e+2, -713685.06, -641204.0, 14822.072, 0.0957769, 0.13733757, -638290.1, -97235.89, 0.0, 9.998833, 9.999831 
5.049841e+2, 2.5479168e+2, -472077.3, -473992.13, -12057.239, -0.031553593, 0.06628304, -460939.53, -17884.564, 0.0, 9.999815, 9.999834 
5.0498116e+2, 2.647911e+2, -366822.66, -445144.25, 25360.898, -0.027887497, 0.0633037, -359327.88, -14269.833, 0.0, 10.000189, 9.999183 
5.049797e+2, 2.747903e+2, -328150.2, -381821.88, 23024.545, 0.10027274, 0.028686812, -319626.56, -72560.305, 0.00000000061010413, 9.999804, 9.999129 
5.04977e+2, 2.8478932e+2, -269047.44, -382885.13, 39942.77, 0.08216037, 0.06487957, -256430.83, -107353.99, 0.00000027597625, 9.999888, 9.998404 
5.0497305e+2, 2.9478833e+2, -87406.36, -244583.97, -5810.185, -0.029913677, 0.08750351, -87191.87, -36101.523, 0.0000049916057, 10.000449, 9.998415 
5.0496924e+2, 3.0478773e+2, -123241.164, -257945.98, -42713.207, -0.0063970513, 0.20303227, -110839.164, -110839.164, 0.000030276777, 9.999966, 9.998225 
5.049651e+2, 3.147874e+2, -172843.94, 41179.16, 101516.79, -0.0375239, 0.2977588, 81670.59, 81670.59, 0.000090633286, 9.998176, 10.001135 
5.1500934e+2, 1.2479778e+2, -1804139.8, -1820002.3, -200305.47, 0.12717633, 0.08922927, -1611608.5, 105384.62, 0.000052165007, 9.999617, 9.999413 
5.150057e+2, 1.3479686e+2, -1630578.1, -1749635.1, 183197.11, -0.16983959, 0.052017152, -1497480.5, 121524.84, 0.000013925394, 10.000375, 9.998915 
5.1500803e+2, 1.4479665e+2, -1500499.5, -1494592.9, 68843.77, 0.03785147, 0.09266287, -1428639.1, 92369.664, 0.000001645238, 10.000019, 10.000129 
5.150044e+2, 1.5479773e+2, -1546021.6, -1462119.5, 43291.492, -0.046335854, 0.1434435, -1443787.5, -20789.54, 0.00000003629146, 9.999028, 10.000159 
5.1500183e+2, 1.6479853e+2, -1471642.5, -1381813.4, 78724.086, -0.06505398, 0.21435376, -1336092.4, -11101.947, 0.0, 9.998883, 10.000106 
5.150006e+2, 1.7479864e+2, -1254430.0, -1227236.6, 104591.266, -0.022437768, 0.18158393, -1135362.0, 91628.234, 0.0, 9.999711, 10.000092 
5.149985e+2, 1.8479879e+2, -1140342.8, -1151993.0, 65553.21, -0.026208488, 0.2047131, -1080356.4, 48632.656, 0.0, 9.999957, 9.99981 
5.149955e+2, 1.9479872e+2, -1084945.9, -1077111.1, 75222.5, -0.06901729, 0.18346928, -1005704.1, 25284.936, 0.0, 9.999663, 9.9998 
5.149941e+2, 2.0479867e+2, -1009801.4, -1022372.94, 119201.305, -0.05800872, 0.21872623, -896720.25, 36269.707, 0.0, 9.999659, 9.999503 
5.149941e+2, 2.1479848e+2, -849652.8, -893018.5, 123389.01, 0.010384381, 0.21313642, -746056.0, 88937.555, 0.0, 10.000073, 9.99952 
5.149928e+2, 2.247981e+2, -809791.06, -867980.0, 24355.418, 0.05284631, 0.24776912, -800942.5, -63943.64, 0.0, 9.999862, 9.99913 
5.149899e+2, 2.3479733e+2, -866007.0, -843480.44, 35403.543, 0.05134463, 0.22788389, -817591.7, -178583.69, 0.0, 9.998806, 9.999128 
5.1498705e+2, 2.4479683e+2, -746003.2, -690365.7, 37744.766, 0.026557302, 0.25097457, -671295.75, -130282.89, 0.0, 9.998754, 9.999531 
5.149843e+2, 2.547964e+2, -508857.13, -525523.5, 40090.75, -0.02294707, 0.21709609, -476242.7, -33227.355, 0.0, 9.999701, 9.9995365 
5.1498157e+2, 2.6479593e+2, -357297.78, -408401.78, -316.0362, -0.031526133, 0.22518077, -357295.84, -12278.032, 0.0, 10.000119, 9.999471 
5.1497877e+2, 2.7479506e+2, -316194.53, -342400.47, 28566.521, -0.00999316, 0.16143598, -297869.25, -50845.13, 0.0000000018853024, 9.999733, 9.999441 
5.1497597e+2, 2.8479412e+2, -286408.97, -412196.38, 47934.39, -0.041541625, 0.19340365, -270224.72, -121192.01, 0.00000034894228, 9.999865, 9.99821 
5.149733e+2, 2.9479304e+2, -115564.13, -287931.0, 33633.86, -0.10116826, 0.22324368, -109233.67, -58188.082, 0.000004315403, 10.000381, 9.998148 
5.1496905e+2, 3.047896e+2, -137835.69, -277273.34, -115031.98, -0.058795013, 0.07804446, -73044.02, -73044.02, 0.000026122347, 9.999935, 9.998107 
5.1496446e+2, 3.1478798e+2, -221406.66, -33594.37, 92599.69, 0.01396615, 0.06481153, 4382.2607, 4382.2607, 0.000081293096, 9.998083, 10.000664 
5.250106e+2, 1.2480194e+2, -1652760.9, -1766415.9, -155784.88, 0.24149935, 0.13848627, -1543762.4, 173191.63, 0.000041919076, 10.000728, 9.999244 
5.250048e+2, 1.3480063e+2, -1745565.0, -1825050.9, 128071.05, -0.2537976, 0.08159341, -1651212.1, -32242.553, 0.000010470756, 9.999671, 9.9987335 
5.250088e+2, 1.4480011e+2, -1624806.0, -1543675.8, 63744.95, 0.16010575, 0.09318145, -1508683.4, 12292.906, 0.0000009776196, 9.999123, 10.00022 
5.250039e+2, 1.5480156e+2, -1446756.9, -1401838.0, -1300.2273, -0.02321472, 0.17093362, -1401800.5, 21161.436, 0.000000005050013, 9.999655, 10.000266 
5.2500105e+2, 1.6480248e+2, -1345857.3, -1326430.6, 64731.844, -0.06881012, 0.25032854, -1270687.4, 54265.836, 0.0, 9.9997635, 10.000071 
5.2500063e+2, 1.748024e+2, -1298035.5, -1253541.9, 43177.14, 0.033470962, 0.2053524, -1227217.3, -263.17145, 0.0, 9.999419, 10.000063 
5.2499866e+2, 1.8480232e+2, -1219944.0, -1197577.8, 10867.397, 0.033413343, 0.21131061, -1193167.3, -64212.69, 0.0, 9.999441, 9.999757 
5.249952e+2, 1.94802e+2, -1082937.6, -1080239.6, -5911.0254, -0.07101886, 0.1763243, -1075525.6, -44569.137, 0.0, 9.999717, 9.999755 
5.249934e+2, 2.0480198e+2, -1015085.1, -1032300.25, 74745.836, -0.08383011, 0.21944065, -948452.9, -15495.01, 0.0, 9.999644, 9.999445 
5.2499354e+2, 2.14802e+2, -992957.56, -973399.4, 72560.65, 0.0022436432, 0.24405469, -909961.8, -75000.625, 0.0, 9.999126, 9.99943 
5.249924e+2, 2.2480185e+2, -886427.1, -871567.2, 11157.089, 0.06755494, 0.29079264, -865592.5, -128627.77, 0.0, 9.999212, 9.999403 
5.249898e+2, 2.3480119e+2, -678095.6, -724991.75, 15659.747, 0.10743455, 0.2552926, -673347.25, -34375.81, 0.0, 9.999978, 9.999374 
5.24987e+2, 2.448007e+2, -601279.5, -638921.0, 57938.754, 0.098401114, 0.27502173, -559181.3, -18205.234, 0.0, 9.999829, 9.999371 
5.2498406e+2, 2.5480026e+2, -673100.3, -622155.4, 43167.6, 0.04378889, 0.25798473, -597505.06, -154525.11, 0.0, 9.99866, 9.9993725 
5.2498114e+2, 2.647997e+2, -606948.8, -538798.44, 33294.46, 0.008966888, 0.27315494, -525232.9, -180248.98, 0.0, 9.998454, 9.999367 
5.2497834e+2, 2.7479887e+2, -388698.4, -379603.97, 3475.8152, 0.0058941455, 0.21854691, -378427.7, -131437.44, 0.00000000009174081, 9.999273, 9.999387 
5.249759e+2, 2.8479803e+2, -315896.16, -419906.75, 47424.066, -0.012664923, 0.2576063, -297519.7, -148522.25, 0.00000033351301, 9.99963, 9.998269 
5.2497375e+2, 2.9479697e+2, -245702.39, -340015.44, 21111.31, -0.03269625, 0.28220558, -241192.42, -190183.73, 0.0000041082662, 9.99944, 9.9982395 
5.2496904e+2, 3.047931e+2, -118530.164, -233071.34, -87696.04, -0.03248378, 0.07024893, -71060.52, -71060.52, 0.000024723933, 9.999914, 9.998429 
5.249646e+2, 3.147915e+2, 113443.52, 78389.58, 93122.37, 0.11022673, 0.03667838, 190673.98, 190673.98, 0.00007789345, 10.000595, 10.000231 
5.35011e+2, 1.24806814e+2, -1622468.9, -1715089.9, -121551.016, 0.1285819, 0.3304954, -1538705.1, 178207.28, 0.000035694404, 10.000789, 9.999562 
5.350042e+2, 1.3480555e+2, -1733245.0, -1791896.0, 90261.875, -0.31042016, 0.25440988, -1667664.3, -48738.77, 0.000008273398, 9.999641, 9.9989805 
5.3500956e+2, 1.4480428e+2, -1633930.0, -1553341.1, 67090.09, 0.29005954, 0.18434763, -1515374.9, 5562.689, 0.00000061502607, 9.999078, 10.000172 
5.35004e+2, 1.5480514e+2, -1455309.9, -1416801.8, 31970.78, -0.00751244, 0.20083517, -1398734.9, 24193.89, 0.00000000036285042, 9.999639, 10.00017 
5.350005e+2, 1.6480549e+2, -1375123.4, -1375824.5, 36295.87, -0.1280828, 0.24510233, -1339176.4, -14251.5, 0.0, 9.999716, 9.999756 
5.3499955e+2, 1.7480513e+2, -1325049.1, -1303211.6, 43450.85, -0.045273196, 0.20549579, -1269328.6, -42400.797, 0.0, 9.999391, 9.99974 
5.3499806e+2, 1.8480463e+2, -1234125.5, -1211038.6, 8701.744, -0.0009576957, 0.18822019, -1208126.3, -79194.54, 0.0, 9.999371, 9.999697 
5.34996e+2, 1.9480366e+2, -1100972.9, -1101413.6, 18062.857, 0.0124718975, 0.08983991, -1083129.0, -52189.555, 0.0, 9.999637, 9.999652 
5.3499377e+2, 2.0480375e+2, -1023649.5, -1011572.0, 43047.367, -0.031367086, 0.14196476, -974141.9, -41201.98, 0.0, 9.999488, 9.999657 
5.349916e+2, 2.1480484e+2, -1000996.2, -952316.6, 64220.457, -0.12612973, 0.25023746, -907978.25, -73043.58, 0.0, 9.998967, 9.999647 
5.349905e+2, 2.2480515e+2, -875738.75, -818424.25, 26251.004, -0.06986687, 0.31108245, -808218.25, -71284.484, 0.0, 9.999071, 9.999841 
5.349905e+2, 2.348044e+2, -666794.9, -664333.8, 57721.832, 0.14624086, 0.21970378, -607829.4, 31109.98, 0.0, 9.999818, 9.999866 
5.349881e+2, 2.4480379e+2, -621650.94, -655891.06, 2824.6846, 0.19555616, 0.20263539, -621419.5, -80475.08, 0.0, 9.999727, 9.999301 
5.3498304e+2, 2.54803e+2, -694529.8, -642551.5, 13930.335, 0.044597134, 0.1638244, -639053.56, -196102.36, 0.0, 9.99856, 9.99928 
5.3497964e+2, 2.6480237e+2, -645256.8, -607834.1, 49129.695, -0.021911044, 0.1967968, -573973.25, -229015.86, 0.0, 9.998403, 9.99892 
5.349779e+2, 2.748016e+2, -431711.03, -454445.22, 49849.863, 0.0021361532, 0.19321369, -391948.7, -144982.63, 0.0, 9.999197, 9.9989195 
5.349763e+2, 2.848009e+2, -294023.06, -366584.53, 30052.256, 0.034127347, 0.24593681, -283192.97, -134219.75, 0.00000019037492, 9.999602, 9.998646 
5.3497434e+2, 2.9479998e+2, -228484.08, -286350.72, 35709.656, 0.04401902, 0.2533102, -211457.45, -160476.39, 0.0000040138116, 9.999361, 9.998648 
5.3496903e+2, 3.04798e+2, -73048.92, -142070.22, -66214.125, -0.056101367, 0.17832923, -32891.67, -32891.67, 0.000024880646, 9.999919, 9.999051 
5.3496444e+2, 3.147979e+2, 93623.836, 17385.902, 164294.84, -0.0443807, 0.2326625, 224163.84, 224163.84, 0.00007745561, 10.000658, 9.999787 
5.450117e+2, 1.2480906e+2, -1591107.9, -1692570.6, -26505.023, 0.12661684, 0.28651908, -1584601.3, 132290.27, 0.00003031358, 10.000966, 9.999666 
5.4500395e+2, 1.3480876e+2, -1707475.4, -1740087.8, -6008.566, -0.28712294, 0.2856239, -1706403.6, -87509.56, 0.000006366235, 9.999666, 9.999327 
5.450095e+2, 1.4480767e+2, -1690580.9, -1605810.6, 69346.805, 0.40050587, 0.22381617, -1566921.8, -46017.04, 0.00000037085837, 9.998791, 9.999963 
5.4500395e+2, 1.5480798e+2, -1548545.8, -1483197.0, -4581.1436, 0.059014183, 0.21115781, -1482877.4, -59976.008, 0.00000000007720086, 9.9990835, 9.999989 
5.4500026e+2, 1.64808e+2, -1431766.8, -1394754.5, 21369.484, -0.098588414, 0.22798608, -1384991.8, -60090.98, 0.0, 9.99932, 9.999802 
5.4499894e+2, 1.7480758e+2, -1323932.9, -1294588.9, 24967.79, -0.037234202, 0.17624362, -1280301.3, -53397.383, 0.0, 9.999394, 9.999784 
5.449976e+2, 1.8480705e+2, -1209941.6, -1187705.0, 47164.676, 0.01486062, 0.1505625, -1150365.9, -21458.98, 0.0, 9.999463, 9.999824 
5.44996e+2, 1.9480623e+2, -1101009.4, -1084134.6, 48445.805, 0.067461565, 0.052128214, -1043397.0, -12485.178, 0.0, 9.99954, 9.99982 
5.449937e+2, 2.0480639e+2, -1023815.25, -1030665.94, 77605.664, 0.01460824, 0.107701726, -949559.4, -16647.574, 0.0, 9.999566, 9.999497 
5.449906e+2, 2.1480733e+2, -952745.8, -942706.25, 45518.95, -0.137355, 0.2213086, -901931.1, -67021.9, 0.0, 9.99937, 9.999519 
5.4498935e+2, 2.2480777e+2, -858860.56, -790777.6, 26023.854, -0.09184802, 0.29310876, -781969.8, -45062.0, 0.0, 9.999094, 10.000024 
5.449899e+2, 2.3480739e+2, -815257.56, -722569.8, 7288.483, 0.16799833, 0.21990693, -722000.1, -83089.64, 0.0, 9.998729, 10.000003 
5.449878e+2, 2.4480706e+2, -710692.8, -682292.9, -34380.656, 0.23531893, 0.22149415, -659295.2, -118382.56, 0.0, 9.999045, 9.999447 
5.449827e+2, 2.5480664e+2, -456382.0, -512905.8, -36520.664, 0.082992226, 0.20095192, -438464.97, 4451.1973, 0.0, 10.000131, 9.999415 
5.4497904e+2, 2.6480594e+2, -400461.2, -524836.5, 40348.1, 0.0015031405, 0.2360367, -388518.72, -43594.73, 0.0, 10.000248, 9.998594 
5.449773e+2, 2.7480456e+2, -426714.6, -487250.25, 20569.81, 0.01855361, 0.20686673, -420386.53, -173446.5, 0.0, 9.999389, 9.998599 
5.4497606e+2, 2.8480363e+2, -323059.75, -322899.03, 42916.055, 0.080464624, 0.22823022, -280063.25, -131113.97, 0.00000011177434, 9.999165, 9.999159 
5.4497504e+2, 2.948031e+2, -151794.27, -181888.48, 34159.73, 0.17416556, 0.21989205, -129514.4, -78563.234, 0.0000045059896, 9.999629, 9.999225 
5.449696e+2, 3.0480236e+2, -69020.97, -177190.55, -55441.758, 0.0054270797, 0.25729117, -45652.85, -45652.85, 0.000026381855, 10.000101, 9.998714 
5.4496473e+2, 3.1480196e+2, -57392.227, -104421.74, 51011.39, -0.031232268, 0.3104522, -24736.656, -24736.656, 0.00007890932, 9.9998455, 9.999324 
5.550121e+2, 1.2480889e+2, -1584780.8, -1677166.9, 22097.271, 0.0064697084, 0.043038443, -1579767.4, 137121.7, 0.000026661766, 10.000963, 9.999767 
5.5500364e+2, 1.3481036e+2, -1684801.4, -1695031.4, -54224.66, -0.31020692, 0.18690419, -1635451.0, -16576.178, 0.0000052899522, 9.999665, 9.999643 
5.550083e+2, 1.4481011e+2, -1715100.0, -1643975.8, 59790.453, 0.36527914, 0.20460384, -1609971.0, -89092.7, 0.00000021782215, 9.998749, 9.999715 
5.5500335e+2, 1.548101e+2, -1572136.8, -1527910.1, 23690.15, 0.05634573, 0.19165882, -1517616.3, -94736.55, 0.00000000000011946363, 9.999066, 9.999694 
5.5499977e+2, 1.6481006e+2, -1409651.6, -1345238.0, 11810.661, -0.10957283, 0.20004722, -1343140.8, -18260.443, 0.0, 9.9993, 10.000153 
5.5499834e+2, 1.7480965e+2, -1305393.0, -1248216.9, 39646.703, -0.06515938, 0.11427716, -1227926.1, -1043.327, 0.0, 9.999355, 10.000126 
5.5499685e+2, 1.8480961e+2, -1194243.1, -1132878.9, 37808.92, -0.030948853, 0.09885204, -1114869.0, 14010.811, 0.0, 9.999368, 10.000246 
5.54995e+2, 1.9480976e+2, -1085885.9, -1034474.7, 65733.1, -0.020738106, 0.06012084, -989599.7, 41273.67, 0.0, 9.9994545, 10.00021 
5.549927e+2, 2.0480983e+2, -1078489.3, -1109545.1, 58692.277, -0.066454224, 0.11058896, -1033305.56, -100431.82, 0.0, 9.999425, 9.999019 
5.5499005e+2, 2.1480952e+2, -1011967.3, -1028876.25, 52220.45, -0.16123645, 0.14765956, -967521.4, -132637.03, 0.0, 9.999209, 9.999004 
5.549883e+2, 2.2480965e+2, -895172.5, -827117.56, -193.15822, -0.12214424, 0.22345188, -827117.0, -90229.375, 0.0, 9.998928, 9.999854 
5.5498767e+2, 2.3481007e+2, -852626.1, -756531.94, 7742.3228, 0.051798634, 0.24834302, -755912.1, -117027.24, 0.0, 9.998548, 9.999854 
5.549858e+2, 2.4481066e+2, -702647.94, -644547.5, -5253.3228, 0.10541644, 0.33149326, -644076.3, -103196.5, 0.0, 9.998941, 9.999765 
5.549825e+2, 2.5481117e+2, -446397.03, -468632.3, 20190.678, 0.01929256, 0.37234607, -434465.47, 8409.096, 0.0, 10.000021, 9.999777 
5.549792e+2, 2.6481032e+2, -424579.4, -561697.8, -3544.5305, -0.04120245, 0.38602844, -424487.84, -79603.87, 0.0, 10.000194, 9.998367 
5.5497605e+2, 2.7480763e+2, -458513.1, -535667.9, 1972.8787, -0.07092333, 0.25008586, -458462.7, -211548.94, 0.0, 9.9993105, 9.998307 
5.54975e+2, 2.8480613e+2, -281567.38, -228927.95, 45021.01, 0.020688029, 0.20076934, -203097.7, -54170.59, 0.00000024371042, 9.999126, 9.999827 
5.549753e+2, 2.9480606e+2, -109432.72, -89491.12, 71947.62, 0.1960113, 0.16795203, -26826.691, 24094.725, 0.0000058589785, 9.999596, 9.999884 
5.5497e+2, 3.0480596e+2, -163562.86, -359704.38, -69963.164, 0.011100198, 0.29837468, -141164.88, -141164.88, 0.000029984647, 10.000053, 9.997478 
5.549646e+2, 3.148034e+2, -112496.59, -199074.98, 77601.836, -0.09188066, 0.26039827, -66926.35, -66926.35, 0.00008416486, 9.999753, 9.998722 
5.650124e+2, 1.2481114e+2, -1681699.1, -1737560.4, 173958.75, -0.013467853, 0.009366263, -1533443.0, 183421.02, 0.000022362967, 10.000341, 9.999642 
5.650042e+2, 1.3481261e+2, -1568290.6, -1628552.8, -94595.32, -0.24824354, 0.13922542, -1499143.5, 119706.85, 0.000004259607, 10.000417, 9.999722 
5.65007e+2, 1.4481248e+2, -1501880.4, -1543324.4, 79601.45, 0.29316887, 0.16736345, -1440347.9, 80504.54, 0.00000013010742, 10.000194, 9.999723 
5.6500286e+2, 1.5481248e+2, -1436717.5, -1455356.0, 43477.4, 0.063497856, 0.15054944, -1401571.9, 21282.201, 0.0, 9.999959, 9.999765 
5.6499964e+2, 1.6481264e+2, -1358362.1, -1335424.4, 56468.82, -0.062387913, 0.18217354, -1289271.5, 35581.72, 0.0, 9.999702, 10.000031 
5.6499827e+2, 1.7481256e+2, -1284269.9, -1247408.4, 24529.414, -0.009150234, 0.13832535, -1235157.1, -8303.136, 0.0, 9.999529, 10.000045 
5.649968e+2, 1.8481266e+2, -1150980.8, -1099017.1, 27586.5, 0.020757291, 0.13520464, -1087103.5, 41746.816, 0.0, 9.999623, 10.000344 
5.649949e+2, 1.948128e+2, -1019384.5, -983549.3, 9569.43, 0.011873515, 0.08079166, -981154.0, 49689.574, 0.0, 9.999852, 10.000349 
5.649925e+2, 2.0481268e+2, -995336.9, -1074673.8, 27319.367, -0.053618424, 0.107339345, -986839.6, -53994.598, 0.0, 10.000017, 9.998971 
5.649896e+2, 2.1481209e+2, -890679.5, -971973.25, 30230.396, -0.1556655, 0.12097842, -880670.2, -45813.004, 0.0, 10.000058, 9.9989805 
5.649877e+2, 2.24812e+2, -767186.4, -785961.94, 11445.606, -0.11792307, 0.18305339, -761771.06, -24908.979, 0.0, 9.999899, 9.999664 
5.649868e+2, 2.3481216e+2, -729415.9, -715583.7, -6382.576, 0.07358612, 0.19859882, -713088.7, -74226.84, 0.0, 9.999474, 9.999681 
5.649849e+2, 2.448127e+2, -678931.1, -624300.75, 25546.281, 0.12060996, 0.28463945, -614216.3, -73358.75, 0.0, 9.999097, 9.99981 
5.6498176e+2, 2.5481337e+2, -613574.4, -547140.5, -2160.6704, 0.009144193, 0.3407377, -547070.3, -104218.32, 0.0, 9.998879, 9.999781 
5.649788e+2, 2.648129e+2, -581182.0, -602165.9, -15550.237, -0.033559415, 0.37178966, -572915.2, -228056.34, 0.0, 9.998959, 9.998684 
5.6497616e+2, 2.7481082e+2, -430723.94, -480194.47, 8731.912, 0.012012546, 0.26419583, -429227.94, -182345.98, 0.0, 9.999327, 9.998671 
5.6497496e+2, 2.8480962e+2, -228280.2, -207271.84, 100629.61, 0.09947639, 0.22904448, -116599.664, 32292.566, 0.00000046127252, 9.999488, 9.999805 
5.649748e+2, 2.9480958e+2, -134528.28, -112561.9, 51252.055, 0.2003182, 0.19877651, -71129.41, -20242.209, 0.000007820285, 9.999451, 9.999801 
5.649697e+2, 3.0480906e+2, -160629.9, -364911.53, -35013.01, -0.016380375, 0.2922767, -154795.47, -154795.47, 0.00003595913, 10.000101, 9.997422 
5.6496674e+2, 3.148063e+2, 102142.43, -40109.258, 140260.48, 0.09818607, 0.23564331, 188280.34, 188280.34, 0.000094486146, 10.000998, 9.999211 
5.7501227e+2, 1.2481551e+2, -1708524.3, -1776113.6, 218176.28, -0.12927713, 0.15463924, -1521540.9, 195278.4, 0.000015098279, 10.000283, 9.999395 
5.75005e+2, 1.3481528e+2, -1587372.4, -1665249.5, -88737.88, -0.24241975, 0.13530518, -1529405.8, 89416.664, 0.0000026568694, 10.000404, 9.999473 
5.750051e+2, 1.4481471e+2, -1476362.6, -1483357.8, 49844.797, 0.054184724, 0.11146984, -1429892.8, 90935.45, 0.000000050157187, 10.000169, 10.000145 
5.750021e+2, 1.548151e+2, -1413698.0, -1399719.6, 47839.992, -0.039774574, 0.09257083, -1358361.0, 64463.586, 0.0, 9.999926, 10.000168 
5.749995e+2, 1.648157e+2, -1400601.9, -1407728.3, 34036.477, -0.07697926, 0.16993204, -1369942.6, -45122.254, 0.0, 9.999635, 9.999564 
5.749983e+2, 1.7481627e+2, -1327362.8, -1328805.5, 31222.615, 0.0036989355, 0.24206777, -1296853.3, -70035.234, 0.0, 9.99949, 9.999507 
5.7499695e+2, 1.8481627e+2, -1171465.4, -1124145.9, 24851.465, 0.046244226, 0.26228026, -1113492.8, 15325.003, 0.0, 9.999555, 10.000203 
5.749953e+2, 1.9481534e+2, -1045489.3, -1010096.0, 31392.342, 0.0349833, 0.11631897, -991755.8, 39066.836, 0.0, 9.999738, 10.00022 
5.749927e+2, 2.04815e+2, -987138.0, -1022093.7, 13631.4, -0.055622492, 0.10504901, -982450.75, -49625.492, 0.0, 9.999861, 9.99941 
5.749891e+2, 2.1481511e+2, -886440.1, -923333.25, 44008.367, -0.24304375, 0.14649372, -857168.6, -22341.37, 0.0, 9.999885, 9.9994 
5.7498705e+2, 2.2481477e+2, -796464.56, -812943.6, -16519.504, -0.19837146, 0.17121163, -786243.75, -49412.484, 0.0, 9.999747, 9.999555 
5.749868e+2, 2.348137e+2, -759643.7, -743208.7, -8383.6875, 0.09767163, 0.076077916, -739686.8, -100846.49, 0.0, 9.99932, 9.999567 
5.749846e+2, 2.4481325e+2, -714495.8, -683255.7, 2567.6174, 0.15258777, 0.08428892, -683046.06, -142200.44, 0.0, 9.999018, 9.999453 
5.7498014e+2, 2.548132e+2, -654568.6, -607708.44, 4636.695, -0.068776935, 0.10174664, -607254.06, -164404.44, 0.0, 9.998764, 9.999426 
5.749775e+2, 2.648135e+2, -520983.75, -470460.4, -14748.368, -0.08388797, 0.1890108, -466470.28, -121621.336, 0.0, 9.998918, 9.999617 
5.74977e+2, 2.7481404e+2, -368828.63, -341838.78, 34018.105, 0.12627926, 0.24324463, -318736.66, -71890.875, 0.0, 9.999268, 9.999659 
5.7497567e+2, 2.8481415e+2, -276645.3, -295516.94, 84676.75, 0.1861001, 0.31470877, -200880.27, -52035.22, 0.0000006054728, 9.999438, 9.999225 
5.7497305e+2, 2.9481363e+2, -193112.5, -216020.72, 69532.39, 0.036575634, 0.30278805, -134097.11, -83247.875, 0.000009307056, 9.999376, 9.999127 
5.7496834e+2, 3.0481172e+2, -87731.3, -204879.66, -5200.0244, -0.19586934, 0.23973969, -87500.93, -87500.93, 0.000040671366, 10.00007, 9.998541 
5.749705e+2, 3.1480992e+2, 197534.48, 169485.47, 202273.98, 0.29579088, 0.16126654, 386269.56, 386269.56, 0.000103750725, 10.000946, 10.000685 
5.850118e+2, 1.24818124e+2, -1803036.4, -1789161.3, 211073.0, -0.14636037, 0.1953023, -1584911.9, 131880.75, 0.000008007214, 9.999458, 9.999723 
5.850061e+2, 1.3481729e+2, -1722132.5, -1690371.5, -121333.22, -0.109100334, 0.08503201, -1583884.0, 34915.434, 0.0000012151539, 9.999299, 9.999843 
5.850038e+2, 1.4481682e+2, -1627070.1, -1554777.9, 65448.035, -0.037251797, 0.05270423, -1516157.8, 4645.9985, 0.000000012980553, 9.999166, 10.0001135 
5.8500177e+2, 1.5481758e+2, -1470241.0, -1424038.4, -5295.33, -0.038181297, 0.07174773, -1423439.3, -642.0315, 0.0, 9.999552, 10.000154 
5.8499956e+2, 1.6481815e+2, -1364894.1, -1398396.5, 9443.941, -0.038251393, 0.14944574, -1362415.4, -37621.793, 0.0, 9.999906, 9.999505 
5.849982e+2, 1.7481837e+2, -1224620.3, -1281303.3, 16941.46, 0.0183999, 0.18971972, -1219942.8, 6851.8345, 0.0, 10.000201, 9.999492 
5.8499664e+2, 1.8481836e+2, -1134238.3, -1144533.9, 32638.367, 0.050522447, 0.22803833, -1106344.3, 22451.492, 0.0, 9.999969, 9.999873 
5.849948e+2, 1.9481778e+2, -1160008.5, -1107984.9, -1842.861, 0.053524394, 0.15438212, -1107919.6, -77119.04, 0.0, 9.999119, 9.999864 
5.8499235e+2, 2.0481758e+2, -1107054.3, -1031742.9, 17647.158, -0.016980805, 0.15386598, -1027812.8, -95010.72, 0.0, 9.998827, 9.999836 
5.8498925e+2, 2.148176e+2, -961381.7, -913486.0, 24286.8, -0.16988118, 0.14029132, -903325.94, -68523.93, 0.0, 9.999157, 9.999822 
5.8498716e+2, 2.2481737e+2, -845272.1, -820445.44, -13180.667, -0.13255002, 0.14534055, -814752.94, -77949.43, 0.0, 9.999359, 9.999693 
5.849862e+2, 2.3481654e+2, -734246.6, -721397.25, -17255.805, 0.10865989, 0.06749703, -709408.94, -70599.23, 0.0, 9.9994545, 9.999661 
5.849837e+2, 2.4481583e+2, -677312.25, -695620.7, 32825.395, 0.15016262, 0.059003193, -652388.5, -111571.17, 0.0, 9.999398, 9.999178 
5.849794e+2, 2.54815e+2, -597002.7, -608405.7, 14056.813, -0.033156615, 0.024900738, -587535.1, -144706.47, 0.0, 9.999284, 9.999159 
5.8497703e+2, 2.648152e+2, -441985.8, -423367.72, 19603.191, -0.045253363, 0.11137939, -410975.53, -66146.5, 0.0, 9.999446, 9.999677 
5.8497673e+2, 2.7481633e+2, -259533.55, -280742.3, -26550.895, 0.1513005, 0.22189192, -241547.67, 5272.338, 0.0, 10.000008, 9.999714 
5.849754e+2, 2.848167e+2, -212398.05, -296486.25, -4143.026, 0.20114289, 0.32912433, -212194.4, -63376.523, 0.00000055145284, 10.000016, 9.998935 
5.8497256e+2, 2.9481596e+2, -228457.0, -265560.44, -24757.193, 0.06424205, 0.32150972, -216071.92, -165245.6, 0.000008783807, 9.999273, 9.998831 
5.849678e+2, 3.048134e+2, -153158.42, -175722.25, -26246.11, -0.20809008, 0.18618609, -135872.17, -135872.17, 0.000039667964, 9.999352, 9.99908 
5.849719e+2, 3.148121e+2, 70205.58, 152091.38, 47591.97, 0.4152108, 0.09498791, 173928.38, 173928.38, 0.00010388018, 9.99988, 10.001065 
5.950106e+2, 1.24818906e+2, -1717370.5, -1608611.6, 127268.8, -0.28932843, 0.13908993, -1524591.4, 192193.36, 0.0000033727015, 9.999472, 10.000943 
5.9500706e+2, 1.3481864e+2, -1654732.9, -1545860.0, -122401.01, 0.027787024, -0.015871804, -1466336.3, 152445.05, 0.00000044999516, 9.999288, 10.000838 
5.9500253e+2, 1.4481877e+2, -1665422.4, -1626341.0, 59871.523, -0.122296035, -0.017439583, -1582902.0, -62122.95, 0.000000014541682, 9.999132, 9.999636 
5.9500134e+2, 1.5481989e+2, -1512804.4, -1507564.8, 21883.193, -0.0669031, 0.08779037, -1488145.1, -65372.617, 0.0, 9.999527, 9.999596 
5.949995e+2, 1.6482008e+2, -1344096.1, -1339812.4, 6388.2085, -0.06844569, 0.13497302, -1335216.6, -10444.152, 0.0, 9.99985, 9.9999275 
5.9499776e+2, 1.7481886e+2, -1200186.8, -1217111.9, 41264.39, -0.08072106, -0.009916263, -1166526.1, 60256.965, 0.0, 10.00015, 9.999954 
5.9499556e+2, 1.848189e+2, -1182286.0, -1227498.9, -13515.741, -0.08329181, 0.033609256, -1178553.8, -49769.336, 0.0, 9.999894, 9.99934 
5.9499294e+2, 1.9482005e+2, -1217014.6, -1197273.1, -21341.041, -0.07567882, 0.18588065, -1183630.6, -152852.61, 0.0, 9.998998, 9.999307 
5.9499097e+2, 2.0482044e+2, -1094827.6, -973694.75, 17207.033, -0.06756373, 0.2491062, -971297.9, -38522.293, 0.0, 9.998684, 10.000304 
5.949899e+2, 2.148197e+2, -950556.9, -853318.7, 50514.15, -0.053222287, 0.11188222, -831827.2, 2953.0867, 0.0, 9.998998, 10.000311 
5.949878e+2, 2.2481985e+2, -840073.75, -784298.4, -24529.555, -0.034428846, 0.11559853, -775045.5, -38267.76, 0.0, 9.999238, 10.000007 
5.9498465e+2, 2.3482065e+2, -735970.56, -690153.5, 89.53162, -0.019581802, 0.16824791, -690153.4, -51382.96, 0.0, 9.999296, 9.999958 
5.949818e+2, 2.448204e+2, -703526.2, -728260.0, 16017.594, -0.013637199, 0.2009591, -695656.94, -154883.73, 0.0, 9.999297, 9.999006 
5.949791e+2, 2.548189e+2, -623623.6, -637765.94, 20988.234, -0.02365806, 0.11483376, -608547.4, -165758.81, 0.0, 9.99917, 9.999013 
5.9497684e+2, 2.6481807e+2, -507325.6, -547635.9, 25429.4, -0.03878982, 0.14500491, -495032.56, -150234.25, 0.0, 9.999395, 9.998852 
5.949751e+2, 2.7481773e+2, -331215.78, -413804.2, 10297.799, -0.05234468, 0.19629866, -329951.13, -83146.27, 0.0, 9.999937, 9.998839 
5.949739e+2, 2.8481728e+2, -219655.83, -298818.0, -42723.535, 0.018053906, 0.26658288, -200996.36, -52185.336, 0.0000003359344, 9.999966, 9.9989395 
5.9497285e+2, 2.948164e+2, -237039.5, -259010.58, -36197.13, 0.12875363, 0.24482746, -210197.61, -159378.17, 0.000006914508, 9.999177, 9.998917 
5.949678e+2, 3.048141e+2, -159773.66, -185509.05, -13225.41, -0.175522, 0.12267154, -154189.02, -154189.02, 0.000035638073, 9.999325, 9.99903 
5.9497017e+2, 3.1481308e+2, 27404.908, 72402.64, 61714.89, 0.1708924, 0.07446417, 115591.875, 115591.875, 0.00009897654, 9.999839, 10.000538 
6.0500944e+2, 1.2481974e+2, -2002373.4, -1697759.4, 103016.48, -0.22260237, 0.11414299, -1666191.9, 50584.836, 0.0000011596172, 9.997307, 10.001383 
6.050078e+2, 1.3482015e+2, -1580595.6, -1454152.4, -170991.67, 0.17530343, -0.015151713, -1335069.0, 283697.0, 0.00000014603442, 9.999585, 10.001307 
6.0500175e+2, 1.4482044e+2, -1472585.4, -1535359.0, 4157.201, -0.16280557, -0.024726352, -1472311.3, 48450.652, 0.0000000031309833, 10.000437, 9.999654 
6.0500133e+2, 1.548213e+2, -1424871.6, -1463615.0, -27494.55, -0.040994834, 0.060282245, -1410609.8, 12147.888, 0.0, 10.000111, 9.999631 
6.049997e+2, 1.648215e+2, -1324233.4, -1333461.8, -1384.902, -0.029242001, 0.107486255, -1324030.1, 727.5034, 0.0, 9.999981, 9.999917 
6.0499763e+2, 1.748206e+2, -1219525.9, -1227579.8, -25802.736, -0.09216386, -0.008364293, -1197437.8, 29327.568, 0.0, 10.0000105, 9.999954 
6.049952e+2, 1.8482062e+2, -1190962.4, -1225025.6, -81812.69, -0.1004466, 0.03218813, -1124427.4, 4339.276, 0.0, 9.9998255, 9.999382 
6.049923e+2, 1.9482143e+2, -1152453.1, -1157917.8, -73191.54, -0.05287684, 0.14545493, -1081942.9, -51179.6, 0.0, 9.999421, 9.999369 
6.049904e+2, 2.048218e+2, -1012094.44, -928786.1, 28998.316, -0.011275326, 0.2013924, -919686.25, 13074.756, 0.0, 9.9992285, 10.0003605 
6.049897e+2, 2.1482132e+2, -919831.44, -835002.4, 2916.9104, 0.03042615, 0.08730708, -834902.2, -138.70486, 0.0, 9.9991865, 10.000356 
6.049875e+2, 2.2482176e+2, -874937.2, -823006.25, -87050.17, 0.026332304, 0.12966985, -758131.56, -21372.168, 0.0, 9.999104, 9.999792 
6.0498357e+2, 2.3482297e+2, -793325.56, -734680.3, -128290.375, -0.031159831, 0.2420408, -632404.2, 6346.477, 0.0, 9.998999, 9.999777 
6.0498065e+2, 2.4482284e+2, -720982.06, -698521.75, -82173.26, -0.040862065, 0.28025997, -626814.8, -86063.12, 0.0, 9.999038, 9.999329 
6.049785e+2, 2.548211e+2, -586011.06, -584799.4, -66565.02, -0.0011024546, 0.13904212, -518837.44, -76071.71, 0.0, 9.9992895, 9.99932 
6.049765e+2, 2.648199e+2, -513037.94, -575147.94, 11815.46, -0.008116934, 0.12532972, -510866.16, -166089.03, 0.0, 9.999453, 9.998641 
6.0497475e+2, 2.7481896e+2, -412387.53, -478531.38, 15734.671, -0.047565855, 0.14199972, -408835.25, -162046.56, 0.0, 9.999471, 9.998625 
6.049738e+2, 2.848181e+2, -279149.2, -344772.34, -7161.5923, 0.032945864, 0.19163, -278376.75, -129577.94, 0.00000016006682, 9.99964, 9.998781 
6.0497314e+2, 2.9481715e+2, -122157.04, -219723.17, -42337.48, 0.20836414, 0.177008, -106347.15, -55538.074, 0.0000052467194, 10.000034, 9.998779 
6.0496795e+2, 3.048152e+2, -54516.62, -118115.63, 11157.958, -0.109095536, 0.09369694, -52615.85, -52615.85, 0.000031333126, 9.999992, 9.999169 
6.049695e+2, 3.1481442e+2, -93026.24, 15924.13, -4489.4385, 0.17515858, 0.061469864, 16108.81, 16108.81, 0.00009226463, 9.998997, 10.000573 
6.1500776e+2, 1.2482063e+2, -2012667.0, -1711988.8, 37494.78, -0.19616383, 0.12433168, -1707383.8, 9384.59, 0.000000319301, 9.997291, 10.001283 
6.1500806e+2, 1.3482179e+2, -1595160.8, -1484958.0, -73869.73, 0.20403598, 0.090105884, -1447902.5, 170851.0, 0.000000018009526, 9.999593, 10.001091 
6.150012e+2, 1.4482178e+2, -1435751.1, -1462190.9, -29254.879, -0.30361328, 0.039272863, -1416867.9, 103884.516, 0.0, 10.000445, 10.000152 
6.150013e+2, 1.5482177e+2, -1385194.3, -1390100.4, -28715.166, -0.0838312, -0.017910527, -1358827.6, 63925.938, 0.0, 10.00013, 10.0001335 
6.149999e+2, 1.6482241e+2, -1359392.4, -1391590.0, -14117.675, -0.04223067, 0.06721333, -1354079.0, -29329.764, 0.0, 9.999924, 9.999545 
6.149975e+2, 1.7482352e+2, -1255339.3, -1295368.5, -10542.846, -0.13476343, 0.1930584, -1252732.3, -25990.758, 0.0, 9.999976, 9.99951 
6.1499506e+2, 1.848235e+2, -1162317.9, -1143027.6, -109105.63, -0.12232355, 0.22259796, -1043141.6, 85600.8, 0.0, 9.999731, 9.999988 
6.1499256e+2, 1.9482203e+2, -1123231.5, -1078539.0, -73267.67, 0.005871826, 0.045271434, -1024285.6, 6469.484, 0.0, 9.999336, 9.999956 
6.1499035e+2, 2.0482175e+2, -1056067.6, -989568.25, 14019.9795, 0.031973552, 0.025146103, -986733.3, -53975.984, 0.0, 9.999099, 10.000005 
6.149884e+2, 2.1482241e+2, -971147.3, -904318.75, 13806.102, -0.042674698, 0.062145036, -901578.9, -66827.37, 0.0, 9.999023, 9.99996 
6.149858e+2, 2.248231e+2, -951062.44, -941653.75, -101320.86, -0.07394272, 0.18405847, -844928.06, -108179.836, 0.0, 9.998939, 9.999055 
6.149826e+2, 2.3482358e+2, -870505.1, -853617.7, -118475.32, -0.055966973, 0.29572973, -743285.56, -104535.83, 0.0, 9.998824, 9.999042 
6.149798e+2, 2.4482317e+2, -679142.9, -590927.3, -88545.445, -0.058912527, 0.30184254, -536111.94, 4640.968, 0.0, 9.998941, 10.000116 
6.149772e+2, 2.5482157e+2, -544640.3, -478914.72, -44808.867, -0.097953685, 0.09530767, -456209.56, -13449.242, 0.0, 9.999194, 10.000098 
6.149755e+2, 2.648206e+2, -494780.3, -521995.0, -323.16672, -0.0771542, 0.04794947, -494776.47, -150010.98, 0.0, 9.999388, 9.999036 
6.149752e+2, 2.7482003e+2, -402178.66, -429214.8, 31796.19, 0.022145959, 0.057074785, -381146.25, -134375.1, 0.0, 9.999354, 9.999016 
6.149746e+2, 2.8481928e+2, -308846.0, -398306.22, -6226.133, 0.11650635, 0.11150461, -308414.78, -159634.28, 0.00000012615395, 9.999599, 9.998433 
6.1497295e+2, 2.948183e+2, -154196.38, -270742.94, -7933.414, 0.13978048, 0.12614971, -153658.81, -102865.21, 0.000004351736, 9.999973, 9.998452 
6.1496794e+2, 3.048168e+2, -39047.797, -91426.9, -31709.418, -0.14126407, 0.09635021, -24110.96, -24110.96, 0.000027327982, 10.000006, 9.99936 
6.149691e+2, 3.1481642e+2, -66975.72, 88320.945, -44952.727, 0.16139413, 0.08894957, 100394.47, 100394.47, 0.00008384043, 9.998919, 10.001115 
6.2500685e+2, 1.2482177e+2, -1782647.5, -1663258.8, 72520.63, -0.08657982, 0.060618807, -1629024.0, 87729.875, 0.00000004128188, 9.99911, 10.000764 
6.250079e+2, 1.348233e+2, -1622598.8, -1547564.4, 4764.449, 0.24590692, 0.11119242, -1547263.1, 71475.8, 0.000000000001578113, 9.999593, 10.000682 
6.2500113e+2, 1.4482328e+2, -1545604.8, -1524891.5, 9399.417, -0.3092861, 0.08684621, -1521262.1, -522.7029, 0.0, 9.999731, 10.000069 
6.2500167e+2, 1.548234e+2, -1393885.4, -1390565.9, -55239.996, -0.05831559, 0.045165375, -1336960.8, 85778.64, 0.0, 10.000083, 10.000136 
6.250002e+2, 1.6482404e+2, -1334947.3, -1355839.1, -23503.21, 0.0028099865, 0.119536646, -1319673.1, 5061.524, 0.0, 10.0000105, 9.99974 
6.249977e+2, 1.7482501e+2, -1333816.6, -1302965.8, -10792.106, -0.07585736, 0.21072274, -1299565.3, -72837.56, 0.0, 9.999347, 9.999746 
6.249951e+2, 1.8482499e+2, -1200420.8, -1144977.3, -56557.76, -0.06383821, 0.21862495, -1109712.6, 19014.863, 0.0, 9.99936, 10.000168 
6.249925e+2, 1.9482356e+2, -1014167.2, -1002397.9, -73802.23, 0.040029354, 0.026333848, -934246.06, 96491.75, 0.0, 9.999961, 10.000182 
6.249898e+2, 2.0482336e+2, -962569.1, -989714.9, 5292.101, 0.039061774, 0.022080658, -961573.94, -28834.434, 0.0, 9.999931, 9.999607 
6.249873e+2, 2.1482413e+2, -967570.94, -939573.9, -23005.15, -0.05876601, 0.10875975, -926642.94, -91907.79, 0.0, 9.999218, 9.999619 
6.249846e+2, 2.2482434e+2, -905155.4, -905564.75, -57255.324, -0.09414325, 0.19372217, -848104.4, -111368.336, 0.0, 9.999186, 9.999192 
6.2498194e+2, 2.3482367e+2, -709825.5, -765698.75, -31312.2, -0.049158867, 0.181684, -695798.94, -57053.67, 0.0, 9.999863, 9.999162 
6.249793e+2, 2.4482317e+2, -523464.53, -541813.94, 13694.455, -0.04865547, 0.1841454, -516155.5, 24593.541, 0.0, 10.000108, 9.999901 
6.249766e+2, 2.5482264e+2, -444425.38, -451952.44, -49122.35, -0.10431671, 0.105686136, -398922.6, 43826.523, 0.0, 9.999974, 9.9999075 
6.2497514e+2, 2.648219e+2, -435383.13, -461110.7, -38146.656, -0.06048791, 0.07468866, -407989.7, -63237.324, 0.0, 9.999648, 9.999326 
6.249752e+2, 2.7482057e+2, -428431.7, -410511.44, -43465.62, 0.11287133, -0.020536494, -375092.0, -128329.33, 0.0, 9.999028, 9.999303 
6.249746e+2, 2.848199e+2, -374039.22, -390729.9, 3143.1558, 0.19352835, 0.015466605, -373466.94, -224697.78, 0.000000116905284, 9.9989805, 9.998791 
6.249725e+2, 2.9481992e+2, -190486.8, -256679.25, 24818.19, 0.1320427, 0.0947651, -182215.13, -131442.88, 0.000004287332, 9.999562, 9.998766 
6.249682e+2, 3.0481827e+2, -63363.484, -113280.96, 5550.3906, -0.09741151, 0.04164888, -62753.777, -62753.777, 0.000025852014, 9.99991, 9.99924 
6.249694e+2, 3.148178e+2, 33982.47, 118957.88, -118332.63, 0.2828981, 0.0343666, 202199.31, 202199.31, 0.00007870898, 9.999709, 10.000933 
6.3500583e+2, 1.2482303e+2, -1832812.8, -1780276.4, -80064.42, -0.17096612, -0.07196724, -1722281.1, -5546.0264, 0.000000010756334, 9.999165, 9.999936 
6.350071e+2, 1.348245e+2, -1669555.0, -1651306.5, 22978.008, 0.17470868, 0.04112357, -1635707.5, -16983.197, 0.0, 9.999607, 9.999971 
6.3500124e+2, 1.4482494e+2, -1584344.6, -1590005.8, 2378.159, -0.31122276, 0.119432, -1583478.1, -62754.45, 0.0, 9.999674, 9.999645 
6.3500184e+2, 1.5482624e+2, -1426990.9, -1461494.9, -24109.402, -0.08266767, 0.24160628, -1414596.8, 8118.2666, 0.0, 10.000088, 9.999652 
6.3500035e+2, 1.6482629e+2, -1291395.5, -1257773.8, -62303.62, -0.013370271, 0.2495925, -1210052.9, 114661.94, 0.0, 9.999973, 10.000432 
6.349978e+2, 1.7482486e+2, -1287046.6, -1205716.0, -22355.447, -0.03272024, 0.03083389, -1199976.3, 26749.512, 0.0, 9.999329, 10.000432 
6.3499486e+2, 1.8482481e+2, -1222263.9, -1166543.8, -48620.883, -0.047938615, 0.0064381, -1138366.5, -9642.244, 0.0, 9.999267, 10.000059 
6.349915e+2, 1.9482592e+2, -1040245.7, -1032271.4, -39915.668, -0.07923418, 0.078401685, -996144.25, 34568.56, 0.0, 9.999856, 10.000028 
6.349885e+2, 2.0482655e+2, -1015653.94, -1062412.8, -34129.594, -0.11195065, 0.18879375, -997663.94, -64955.555, 0.0, 9.999771, 9.999182 
6.349859e+2, 2.1482642e+2, -1023119.44, -1013026.1, -35279.746, -0.14452827, 0.22589386, -982433.9, -147719.42, 0.0, 9.999036, 9.999202 
6.349835e+2, 2.2482546e+2, -858954.1, -769692.94, -44974.54, -0.15286386, 0.16370118, -750962.6, -14239.699, 0.0, 9.999017, 10.000203 
6.3498116e+2, 2.3482327e+2, -662092.8, -628107.44, 10409.067, -0.13809073, -0.106956534, -625172.8, 13564.4, 0.0, 9.999698, 10.000185 
6.3497883e+2, 2.448229e+2, -629757.94, -737378.0, -1932.4285, -0.13634045, -0.07881841, -629723.25, -88983.5, 0.0, 10.000005, 9.998604 
6.3497645e+2, 2.5482425e+2, -556024.8, -655653.3, -41433.05, -0.15045072, 0.16675797, -541045.9, -98313.71, 0.0, 9.999855, 9.998566 
6.3497496e+2, 2.6482368e+2, -435150.06, -441120.8, -75835.055, -0.07445037, 0.21119346, -362241.66, -17503.508, 0.0, 9.99957, 9.999498 
6.349744e+2, 2.7482066e+2, -429870.25, -388786.8, -52200.617, 0.09432096, -0.07847291, -353231.6, -106469.19, 0.0, 9.998927, 9.999497 
6.3497335e+2, 2.848201e+2, -302382.9, -231833.0, 8264.782, 0.13941635, -0.098127276, -230877.72, -82113.125, 0.0000001448745, 9.99894, 9.999904 
6.3497144e+2, 2.9482213e+2, -134153.58, -109186.336, 67393.195, 0.025282048, 0.07845571, -53130.31, -2386.6475, 0.000005079309, 9.999449, 9.999829 
6.3496816e+2, 3.048199e+2, -105167.12, -210149.73, -5115.849, -0.1308636, -0.051364455, -104918.414, -104918.414, 0.000027855136, 9.999924, 9.998581 
6.3496953e+2, 3.1481826e+2, -57803.793, -58440.793, -92236.89, 0.2523913, -0.116840765, 34115.145, 34115.145, 0.00008149468, 9.999637, 9.999755 
6.45006e+2, 1.2482502e+2, -1883487.0, -1807928.4, -160082.02, -0.040095143, -0.035065893, -1681228.1, 35488.043, 0.0000000047013002, 9.998839, 9.999895 
6.450065e+2, 1.348259e+2, -1546020.5, -1574382.8, 31149.275, 0.120444074, 0.008055373, -1525976.3, 92732.375, 0.0, 10.000419, 10.000082 
6.4500177e+2, 1.4482617e+2, -1448815.5, -1535362.3, 40582.33, -0.26786137, 0.06785262, -1432763.5, 87944.87, 0.0, 10.0006485, 9.999551 
6.4500207e+2, 1.5482713e+2, -1493593.4, -1503934.6, 7285.829, -0.034315784, 0.16739836, -1489829.9, -67127.125, 0.0, 9.999667, 9.999565 
6.450004e+2, 1.6482714e+2, -1392106.6, -1316890.8, -10292.265, 0.03717685, 0.17774159, -1315507.9, 9195.791, 0.0, 9.999317, 10.000349 
6.4499766e+2, 1.7482594e+2, -1243771.3, -1190667.9, -51633.008, 0.019394932, -0.009414405, -1159159.6, 67553.24, 0.0, 9.999648, 10.0003805 
6.449946e+2, 1.8482602e+2, -1168221.5, -1160791.5, -70389.7, -0.015688892, -0.009155794, -1094018.9, 34692.02, 0.0, 9.99973, 9.999873 
6.449911e+2, 1.9482715e+2, -1111398.4, -1082593.6, -95761.13, -0.08170173, 0.085256025, -1000157.9, 30541.877, 0.0, 9.999458, 9.999866 
6.4498806e+2, 2.0482767e+2, -1059240.9, -1072589.9, -61148.105, -0.11167067, 0.18450466, -1004404.06, -71707.46, 0.0, 9.999424, 9.999275 
6.449857e+2, 2.1482717e+2, -943206.1, -967116.06, -52418.664, -0.0891379, 0.1748592, -901396.44, -66691.06, 0.0, 9.999549, 9.999268 
6.4498323e+2, 2.2482634e+2, -765556.8, -699121.4, -22906.459, -0.09867085, 0.111563876, -691989.1, 44722.316, 0.0, 9.999524, 10.000448 
6.4498067e+2, 2.3482487e+2, -691392.5, -609440.0, -56631.527, -0.13522287, -0.11801603, -580515.06, 58202.375, 0.0, 9.999346, 10.000478 
6.449785e+2, 2.448246e+2, -734802.94, -806026.25, -34083.047, -0.13109502, -0.08609556, -721121.1, -180402.36, 0.0, 9.999371, 9.998442 
6.4497685e+2, 2.5482538e+2, -601108.7, -693724.7, -6313.3457, -0.07106897, 0.12317551, -600680.3, -157962.84, 0.0, 9.999621, 9.998419 
6.449753e+2, 2.6482475e+2, -404919.03, -438764.8, 14494.748, -0.0023619095, 0.17222595, -399560.06, -54834.5, 0.0, 9.999835, 9.999386 
6.449739e+2, 2.7482215e+2, -270058.97, -326268.7, -19862.479, 0.09876127, -0.058052458, -263748.7, -17001.555, 0.000000000000000000046744374, 10.000089, 9.9993725 
6.4497256e+2, 2.8482178e+2, -170562.5, -136853.75, 21004.363, 0.13770935, -0.06749633, -126777.6, 21970.016, 0.00000034821963, 9.999711, 10.000179 
6.4497095e+2, 2.9482353e+2, -250179.39, -137688.4, -15152.21, 0.08828105, 0.05354783, -135683.19, -84955.484, 0.0000068469953, 9.9985285, 10.000072 
6.4496857e+2, 3.0482158e+2, -219902.48, -284522.1, -7153.1475, -0.036909733, -0.050639533, -219120.13, -219120.13, 0.00003364889, 9.999241, 9.998376 
6.4497006e+2, 3.1482044e+2, 216908.73, -9679.027, -127787.8, 0.2403965, -0.054514457, 274393.16, 274393.16, 0.000093661416, 10.001891, 9.998985 
6.550061e+2, 1.24827586e+2, -1823241.1, -1680477.8, -193112.03, 0.019995803, 0.14775065, -1545977.0, 170721.56, 0.000000001405694, 9.998834, 10.000768 
6.550055e+2, 1.3482757e+2, -1474291.5, -1431807.3, 96854.27, -0.052732278, 0.009415026, -1353893.0, 264797.97, 0.0, 10.000445, 10.001043 
6.5500236e+2, 1.4482701e+2, -1443080.6, -1514587.5, -13401.723, -0.30632535, -0.07271133, -1440651.5, 80041.67, 0.0, 10.000609, 9.999716 
6.55002e+2, 1.548261e+2, -1488471.0, -1487431.3, -15768.951, -0.040941186, -0.17484254, -1472173.6, -49470.785, 0.0, 9.999634, 9.9997015 
6.549999e+2, 1.648265e+2, -1453048.9, -1428415.9, -14269.879, 0.021988241, -0.09516859, -1421882.4, -97180.7, 0.0, 9.999254, 9.999609 
6.549969e+2, 1.748282e+2, -1301962.8, -1304861.8, -25620.418, -0.056063913, 0.082774624, -1277750.8, -51061.41, 0.0, 9.99962, 9.999607 
6.5499395e+2, 1.8482862e+2, -1198626.6, -1203132.9, -94122.72, -0.087489426, 0.17103992, -1106730.1, 21956.791, 0.0, 9.999643, 9.999623 
6.5499073e+2, 1.9482736e+2, -1141525.5, -1120672.5, -90354.21, -0.09155605, 0.046319008, -1040145.2, -9446.951, 0.0, 9.999355, 9.999653 
6.549881e+2, 2.0482664e+2, -1039378.7, -999620.75, -70846.805, -0.07220833, 0.0065668356, -945916.8, -13212.058, 0.0, 9.999286, 9.999847 
6.5498614e+2, 2.1482624e+2, -926389.94, -891145.7, -35094.863, -0.022498798, -0.05069074, -869497.06, -34788.008, 0.0, 9.999376, 9.999873 
6.5498346e+2, 2.2482695e+2, -826559.0, -785115.6, -42862.58, -0.047552165, 0.032953605, -758228.6, -21526.719, 0.0, 9.999353, 9.999937 
6.5497994e+2, 2.3482849e+2, -754121.56, -698790.5, -50660.09, -0.16824986, 0.15858793, -668734.06, -30048.094, 0.0, 9.999175, 9.999944 
6.549779e+2, 2.4482831e+2, -679662.25, -661372.06, -40262.6, -0.15321784, 0.17538153, -629229.06, -88543.25, 0.0, 9.999247, 9.999492 
6.549775e+2, 2.5482607e+2, -544503.9, -543867.8, 17949.85, -0.0020892331, -0.031332046, -526233.2, -83528.15, 0.0, 9.999492, 9.999504 
6.5497583e+2, 2.648251e+2, -442622.63, -509884.5, 10829.543, 0.036299776, -0.04533508, -440922.0, -96207.82, 0.0, 9.999793, 9.998921 
6.549731e+2, 2.7482522e+2, -311534.84, -403379.06, 8515.374, -0.024876695, 0.046759978, -310752.0, -64036.742, 0.0000000002377775, 10.000035, 9.998874 
6.5497154e+2, 2.8482515e+2, -219679.3, -221050.98, -35981.65, 0.032225385, 0.11852872, -184376.95, -35660.36, 0.0000008000927, 9.999646, 9.999624 
6.549707e+2, 2.9482433e+2, -306568.3, -224203.0, -43791.266, 0.17020944, 0.03282951, -205271.72, -154548.97, 0.000010270006, 9.99841, 9.999527 
6.54969e+2, 3.048235e+2, -206870.56, -262755.06, 82531.484, 0.047397576, 0.05723727, -147679.48, -147679.48, 0.00004390313, 9.9992485, 9.998531 
6.5497017e+2, 3.1482396e+2, 187420.83, -63785.78, 22192.26, -0.015118681, 0.20191598, 189366.3, 189366.3, 0.00011355634, 10.001857, 9.998635 
6.6500646e+2, 1.2482954e+2, -1535474.1, -1564911.8, -99837.695, 0.08717926, 0.18836772, -1449276.1, 267403.5, 0.00000000035571668, 10.000904, 10.000562 
6.650052e+2, 1.3482891e+2, -1612016.3, -1542103.6, 52645.59, -0.07462599, 0.01880997, -1513865.8, 104813.42, 0.0, 9.999669, 10.000676 
6.650036e+2, 1.4482836e+2, -1644645.9, -1574012.3, -81839.66, -0.15779682, -0.058122512, -1520194.3, 486.42456, 0.0, 9.99907, 10.000045 
6.650018e+2, 1.5482765e+2, -1452528.1, -1428535.5, -99838.64, -0.015049314, -0.17942657, -1339975.0, 82711.94, 0.0, 9.999719, 10.000053 
6.6499925e+2, 1.6482812e+2, -1365184.5, -1408591.4, -28853.215, 0.0067391847, -0.09926045, -1350783.3, -26099.004, 0.0, 9.999957, 9.999408 
6.649968e+2, 1.748297e+2, -1317937.5, -1334311.3, -28382.248, -0.0188693, 0.0881214, -1296585.0, -69911.4, 0.0, 9.999604, 9.999412 
6.64994e+2, 1.8482995e+2, -1206074.3, -1215306.0, -38394.79, -0.033404794, 0.17016417, -1172018.9, -43345.43, 0.0, 9.99964, 9.99954 
6.6499066e+2, 1.9482838e+2, -1045869.8, -1088802.3, -52282.797, -0.059537563, 0.024168367, -1010817.94, 19870.531, 0.0, 10.000063, 9.999536 
6.6498774e+2, 2.0482756e+2, -930351.25, -926661.06, -29568.98, -0.05962797, -0.028752405, -898879.7, 33815.918, 0.0, 9.999945, 10.000036 
6.649854e+2, 2.1482733e+2, -940416.44, -878225.2, -52894.305, -0.017498147, -0.08615717, -847963.25, -13266.668, 0.0, 9.999193, 10.000057 
6.6498274e+2, 2.2482821e+2, -889448.3, -835716.75, -22233.316, -0.032075357, 0.016172972, -827710.06, -91022.5, 0.0, 9.9990225, 9.999751 
6.649797e+2, 2.3483004e+2, -728823.6, -711185.6, -30741.71, -0.11659524, 0.1931657, -688022.94, -49352.5, 0.0, 9.999463, 9.999724 
6.6497785e+2, 2.4482955e+2, -575677.25, -594536.44, -8195.121, -0.1057214, 0.18112849, -572613.75, -31940.69, 0.0, 9.999862, 9.999664 
6.649773e+2, 2.5482634e+2, -439857.72, -478066.78, -51786.586, 0.010141443, -0.14041959, -403764.13, 38935.156, 0.0, 10.0001135, 9.999669 
6.6497564e+2, 2.6482543e+2, -400725.0, -492008.53, -61372.676, 0.031405963, -0.15324044, -369882.94, -25175.674, 0.0, 10.000085, 9.998909 
6.649729e+2, 2.748269e+2, -347284.84, -416355.63, -56153.58, -0.027712792, 0.069907, -315896.66, -69199.3, 0.0000000023427176, 9.999788, 9.998895 
6.649712e+2, 2.848268e+2, -208452.86, -292938.03, -58774.707, 0.023563333, 0.17253299, -178315.19, -29614.475, 0.0000014418595, 10.000039, 9.998952 
6.649702e+2, 2.9482445e+2, -10940.504, -153527.19, -107876.63, 0.17358299, 0.0032459977, 47072.418, 97795.76, 0.000014823799, 10.00074, 9.998896 
6.649693e+2, 3.0482426e+2, -3363.7937, -103409.586, 86501.586, 0.10856728, 0.09373837, 46537.35, 46537.35, 0.000057815294, 10.000393, 9.99907 
6.6497123e+2, 3.1482467e+2, -232274.61, -180033.0, 4379.548, 0.08648659, 0.18845852, -179668.4, -179668.4, 0.00014076945, 9.998599, 9.999408 
6.750064e+2, 1.24831e+2, -1637880.5, -1771333.9, -166053.9, -0.07635836, 0.08177323, -1525648.1, 191009.95, 0.0000000023126079, 10.00089, 9.99915 
6.750052e+2, 1.3482982e+2, -1732692.6, -1789989.1, 11522.787, -0.07043716, 0.02451954, -1730462.1, -111788.58, 0.0, 9.999668, 9.998976 
6.7500496e+2, 1.4483024e+2, -1615250.6, -1499893.3, -77700.12, 0.033404436, 0.107653394, -1460803.4, 59867.457, 0.0, 9.999017, 10.000578 
6.75001e+2, 1.5483192e+2, -1409086.1, -1339213.6, -59469.07, -0.106489345, 0.16909438, -1305178.0, 117475.77, 0.0, 9.999723, 10.000664 
6.7499816e+2, 1.6483214e+2, -1343877.4, -1358026.4, -56363.977, -0.13442028, 0.17450246, -1294145.6, 30504.793, 0.0, 9.999926, 9.999772 
6.749971e+2, 1.7483059e+2, -1299249.5, -1283658.1, -28571.527, 0.015063482, 0.010032623, -1261837.9, -35173.375, 0.0, 9.999554, 9.9997835 
6.749946e+2, 1.8483e+2, -1212703.1, -1209960.8, -40352.77, 0.028376013, -0.011442677, -1170955.9, -42285.508, 0.0, 9.999555, 9.999621 
6.749904e+2, 1.948303e+2, -1058744.3, -1084550.3, -23209.531, -0.121765345, 0.02512595, -1045092.2, -14422.602, 0.0, 9.999935, 9.999627 
6.749866e+2, 2.0483056e+2, -969801.94, -977531.2, -69803.99, -0.19869186, 0.08955697, -903755.7, 28911.918, 0.0, 9.999801, 9.999761 
6.74983e+2, 2.1483052e+2, -983173.7, -927439.4, -68509.305, -0.19756001, 0.076370336, -881346.44, -46679.277, 0.0, 9.99902, 9.999802 
6.7498064e+2, 2.2483027e+2, -906858.8, -831337.9, -19923.902, -0.1632508, 0.07339483, -826403.9, -89736.67, 0.0, 9.998848, 9.999867 
6.749795e+2, 2.3482953e+2, -746480.56, -704396.25, 2116.904, -0.10577062, -0.0189304, -704290.0, -65619.25, 0.0, 9.999279, 9.99986 
6.7497796e+2, 2.4482833e+2, -650548.5, -716606.75, -9388.879, -0.10285015, -0.07232761, -649240.0, -108559.81, 0.0, 9.9997225, 9.99889 
6.7497593e+2, 2.548263e+2, -516824.72, -607111.5, -28565.5, -0.1653526, -0.19418848, -508546.06, -65846.9, 0.0, 9.999979, 9.998847 
6.7497426e+2, 2.648259e+2, -384291.25, -432896.06, -87638.016, -0.14139003, -0.13694485, -317648.47, 27054.9, 0.0, 9.999984, 9.999362 
6.7497295e+2, 2.7482706e+2, -328306.03, -353900.2, -51992.316, -0.033321463, 0.007284914, -287559.03, -40864.95, 0.0000000015372758, 9.999691, 9.9993725 
6.749714e+2, 2.848266e+2, -262485.28, -397347.56, -45262.395, 0.004590838, 0.086781, -248702.86, -100002.28, 0.0000017821444, 10.000008, 9.998248 
6.74969e+2, 2.9482412e+2, -74682.61, -262252.53, -60830.2, -0.06361262, -0.021998534, -56682.367, -5955.1753, 0.000019076204, 10.000643, 9.998193 
6.749689e+2, 3.0482385e+2, 45372.77, 10773.833, 12939.059, -0.00811442, 0.05581899, 49676.332, 49676.332, 0.000073988194, 10.000346, 9.999873 
6.749724e+2, 3.1482273e+2, -115841.586, 92373.055, -19628.63, 0.27192333, -0.08852669, 94207.31, 94207.31, 0.00017626988, 9.998483, 10.0013275 
6.850077e+2, 1.2483211e+2, -1676819.6, -1816228.4, -133590.14, -0.011187083, -0.038857657, -1595842.1, 120800.37, 0.0000000036242784, 10.000712, 9.998938 
6.850044e+2, 1.3483134e+2, -1667873.8, -1800358.6, 34292.215, -0.13562956, -0.01082032, -1659523.9, -40867.195, 0.0, 10.000322, 9.998571 
6.8500465e+2, 1.4483206e+2, -1512080.4, -1478075.5, 45235.844, 0.072337575, 0.13285339, -1446752.4, 73900.89, 0.0, 9.999833, 10.0003395 
6.850008e+2, 1.5483397e+2, -1455868.0, -1389521.3, -23951.377, -0.08109012, 0.24334922, -1381778.4, 40856.586, 0.0, 9.999507, 10.000433 
6.84998e+2, 1.6483405e+2, -1411649.9, -1366982.4, -43833.418, -0.105556, 0.23121992, -1340121.0, -15487.727, 0.0, 9.99935, 9.999994 
6.8499684e+2, 1.7483185e+2, -1317895.6, -1273115.9, -54637.203, 0.0521968, -0.017486745, -1236458.9, -9807.008, 0.0, 9.99933, 9.999974 
6.849943e+2, 1.8483138e+2, -1252353.6, -1222480.8, -31876.357, 0.06554738, -0.04051317, -1202214.9, -73558.32, 0.0, 9.9992485, 9.9996805 
6.8499005e+2, 1.948324e+2, -1189297.3, -1139158.0, -41805.98, -0.09372526, 0.06158726, -1115481.0, -84831.29, 0.0, 9.998996, 9.9997 
6.8498623e+2, 2.0483302e+2, -1061614.0, -1025243.75, -59282.723, -0.17402625, 0.15798204, -981419.7, -48774.805, 0.0, 9.99922, 9.999691 
6.849828e+2, 2.1483286e+2, -845422.1, -871524.94, -71091.98, -0.16925369, 0.1417337, -786193.5, 48452.04, 0.0, 10.000023, 9.999693 
6.8498045e+2, 2.2483197e+2, -711161.7, -767447.06, -1108.8834, -0.13529849, 0.09263208, -711139.9, 25511.322, 0.0, 10.000307, 9.999602 
6.849794e+2, 2.3483008e+2, -660077.2, -694185.6, -37235.414, -0.071363464, -0.0872701, -636176.3, 2488.1738, 0.0, 9.999987, 9.999591 
6.84978e+2, 2.448289e+2, -645230.2, -728617.7, -7211.4087, -0.06549805, -0.119688295, -644611.1, -103936.86, 0.0, 9.999833, 9.998743 
6.849763e+2, 2.5482818e+2, -527845.8, -624927.4, -1335.3855, -0.12602767, -0.09619285, -527827.44, -85144.58, 0.0, 9.999979, 9.998712 
6.849744e+2, 2.648279e+2, -378339.4, -418743.66, -35848.477, -0.122419365, -0.025689445, -357392.53, -12706.458, 0.0, 9.999967, 9.999466 
6.849725e+2, 2.7482778e+2, -327568.66, -343735.63, -58879.45, -0.031208446, -0.018655902, -276220.38, -29533.635, 0.00000000039754933, 9.999634, 9.999474 
6.8497103e+2, 2.8482696e+2, -315428.38, -402150.13, 25402.438, -0.0012729836, 0.009130217, -308535.4, -159840.28, 0.000001935021, 9.999565, 9.998421 
6.8496937e+2, 2.9482508e+2, -156301.88, -280368.5, 46251.92, -0.046741698, -0.057573862, -140957.08, -90242.0, 0.000022833043, 9.999987, 9.9983835 
6.849694e+2, 3.0482432e+2, -50296.457, -80313.73, 69271.33, 0.048406128, -0.017032584, 5573.512, 5573.512, 0.00009092674, 9.999885, 9.999471 
6.849719e+2, 3.1482288e+2, -86865.26, 120653.266, -107142.58, 0.38322648, -0.14523952, 166043.31, 166043.31, 0.00021663251, 9.9985895, 10.00149 
6.950098e+2, 1.2483306e+2, -1600676.9, -1656544.9, -116551.37, 0.055705085, -0.15989327, -1508758.8, 207872.03, 0.00000000017840025, 10.000721, 10.000018 
6.950024e+2, 1.3483357e+2, -1605519.3, -1674377.9, 27884.545, -0.40341264, -0.08566869, -1595643.6, 22983.879, 0.0, 10.000341, 9.999422 
6.950024e+2, 1.4483374e+2, -1581667.0, -1618335.6, 16718.998, -0.17428863, 0.003248482, -1575188.5, -54560.2, 0.0, 9.999811, 9.999391 
6.950008e+2, 1.5483376e+2, -1528607.8, -1543929.3, -20841.447, -0.059835676, 0.026112977, -1514063.6, -91432.44, 0.0, 9.999511, 9.999379 
6.949983e+2, 1.6483378e+2, -1416440.4, -1362086.5, -58312.703, -0.03487833, 0.060828693, -1324928.8, -295.67914, 0.0, 9.999294, 10.000049 
6.949956e+2, 1.748337e+2, -1320538.3, -1265292.3, -38847.305, -0.034388438, 0.01612476, -1245248.3, -18614.111, 0.0, 9.999273, 10.000054 
6.9499266e+2, 1.8483418e+2, -1263090.4, -1218699.3, -52275.066, -0.048165016, 0.08030887, -1184102.9, -55471.848, 0.0, 9.999141, 9.999754 
6.949893e+2, 1.9483486e+2, -1203254.9, -1139841.8, -37387.37, -0.098835744, 0.13977389, -1122526.8, -91899.086, 0.0, 9.998884, 9.999743 
6.949864e+2, 2.0483498e+2, -1073166.9, -1022442.5, -45189.67, -0.10430593, 0.1812843, -995984.4, -63357.1, 0.0, 9.999096, 9.999773 
6.949842e+2, 2.1483427e+2, -865131.6, -871758.94, -28084.709, -0.055482745, 0.10398897, -840165.75, -5533.3853, 0.0, 9.999847, 9.999775 
6.9498175e+2, 2.248333e+2, -781796.4, -874116.75, -24664.598, -0.062516145, 0.073307306, -775620.06, -38980.742, 0.0, 10.0001335, 9.998952 
6.94979e+2, 2.348317e+2, -730860.7, -802540.0, -36576.78, -0.13765532, -0.011362827, -715491.56, -76840.06, 0.0, 9.9998255, 9.99892 
6.9497764e+2, 2.4483135e+2, -621453.1, -656442.94, -15056.112, -0.116960585, 0.04781447, -615866.5, -75212.125, 0.0, 9.99973, 9.9992895 
6.9497776e+2, 2.5483203e+2, -500869.97, -546582.75, 19345.83, 0.0012472958, 0.14920315, -493781.8, -51131.71, 0.0, 9.999877, 9.9993 
6.949757e+2, 2.6483145e+2, -409772.47, -463281.0, -58298.586, -0.01623401, 0.17174542, -372382.25, -27726.752, 0.0, 9.999881, 9.9992 
6.9497114e+2, 2.748292e+2, -363262.25, -394594.7, -56398.38, -0.16871376, -0.0022651018, -320394.66, -73720.086, 0.0000000054780975, 9.9995365, 9.99917 
6.9496953e+2, 2.8482792e+2, -252479.03, -259834.3, 25487.88, -0.13331354, -0.05661781, -230404.83, -81720.69, 0.000002364329, 9.999515, 9.999419 
6.9497085e+2, 2.948273e+2, -96797.336, -135786.9, 83807.164, 0.06047858, -0.102027066, -30247.434, 20439.197, 0.000027093956, 9.999902, 9.999413 
6.9497067e+2, 3.048257e+2, -166352.7, -320394.16, 17135.81, 0.14985174, -0.12021368, -164469.52, -164469.52, 0.00010798756, 9.99987, 9.997829 
6.949692e+2, 3.148252e+2, -209125.19, -122928.46, -112788.61, 0.1769293, 0.015448241, -45284.37, -45284.37, 0.00025661878, 9.998541, 9.999838 
7.0501e+2, 1.2483531e+2, -1782653.1, -1701825.4, -12975.173, 0.08938012, -0.147487, -1699793.6, 16816.504, 0.0, 9.999261, 10.000429 
7.0500255e+2, 1.3483654e+2, -1556367.5, -1610677.0, -13646.231, -0.4081891, -0.03886468, -1553131.4, 65465.2, 0.0, 10.000472, 9.999807 
7.050025e+2, 1.4483592e+2, -1514859.4, -1611264.3, -17521.402, -0.16647539, -0.037937865, -1511773.6, 8829.281, 0.0, 10.000386, 9.999154 
7.050005e+2, 1.5483461e+2, -1539275.4, -1571565.0, -27540.652, -0.037265893, -0.12527585, -1523496.1, -100878.11, 0.0, 9.999555, 9.999153 
7.049976e+2, 1.648346e+2, -1418562.4, -1379048.8, 18307.623, -0.03059141, -0.070867285, -1371870.5, -47249.81, 0.0, 9.999365, 9.9998865 
7.049946e+2, 1.7483585e+2, -1271055.1, -1253932.5, -10928.54, -0.07268611, 0.032175623, -1248611.1, -21999.24, 0.0, 9.999686, 9.999919 
7.049919e+2, 1.8483664e+2, -1155193.6, -1152249.6, -17505.643, -0.06675174, 0.12645625, -1136154.3, -7547.8735, 0.0, 9.999818, 9.999884 
7.0498925e+2, 1.9483653e+2, -1069029.5, -1062392.1, -24893.219, -0.025720121, 0.09616942, -1040597.4, -9988.52, 0.0, 9.9997425, 9.999867 
7.0498693e+2, 2.0483641e+2, -970533.0, -1010677.1, 13214.728, 0.0023047745, 0.122321844, -966573.5, -33962.504, 0.0, 9.999939, 9.999459 
7.049849e+2, 2.1483605e+2, -818179.44, -883942.9, -24082.963, 0.020668557, 0.10911877, -810303.4, 24311.393, 0.0, 10.0003, 9.999481 
7.0498246e+2, 2.2483501e+2, -747996.56, -871038.7, -18572.293, -0.00670025, 0.09443225, -745254.3, -8631.182, 0.0, 10.000439, 9.99882 
7.049794e+2, 2.3483297e+2, -656777.25, -779457.94, -18091.424, -0.09396466, -0.02140899, -654164.94, -15525.53, 0.0, 10.000404, 9.998797 
7.0497787e+2, 2.4483272e+2, -569621.75, -594042.56, 31704.11, -0.07344661, 0.037369963, -547858.0, -7217.0547, 0.0, 9.99992, 9.999636 
7.049778e+2, 2.5483403e+2, -618775.44, -564155.3, 23576.697, 0.06918948, 0.16969068, -555386.3, -112756.586, 0.0, 9.998893, 9.999663 
7.0497566e+2, 2.6483348e+2, -570295.94, -556136.6, -3669.4343, 0.05425426, 0.1796109, -555242.2, -210607.31, 0.0, 9.998848, 9.999063 
7.0497125e+2, 2.7483058e+2, -324076.53, -386974.66, -22074.66, -0.1176043, -0.045767535, -317102.5, -70442.24, 0.000000016182126, 9.999867, 9.999056 
7.049696e+2, 2.848294e+2, -177058.7, -206329.14, 39667.137, -0.09545328, -0.08924649, -149413.06, -744.3703, 0.0000030357212, 9.99993, 9.999604 
7.049706e+2, 2.9482982e+2, -251430.39, -192198.47, 7227.4995, 0.1127172, -0.051646873, -191329.33, -140667.52, 0.000031540207, 9.998732, 9.999607 
7.0497036e+2, 3.0482814e+2, -320337.78, -383057.25, 22859.902, 0.20214605, -0.09062473, -312890.2, -312890.2, 0.00012311795, 9.99877, 9.997918 
7.049686e+2, 3.148277e+2, -19984.445, -62170.44, -34751.2, 0.20113191, 0.037567355, -425.74765, -425.74765, 0.0002906225, 9.999986, 9.999542 
7.150076e+2, 1.24838896e+2, -1782377.3, -1705128.0, 44142.355, -0.14648645, 0.013582932, -1685097.6, 31482.494, 0.0, 9.999278, 10.000394 
7.150047e+2, 1.3484015e+2, -1548863.8, -1607109.8, 37743.496, -0.27947488, 0.115484096, -1530313.8, 88251.21, 0.0, 10.000514, 9.999816 
7.150045e+2, 1.4483862e+2, -1483189.8, -1542197.6, -67009.07, -0.044190247, 0.0033323297, -1439476.9, 81100.055, 0.0, 10.000379, 9.999625 
7.149994e+2, 1.5483657e+2, -1506689.3, -1501219.5, -43009.94, -0.14463507, -0.20727207, -1460857.5, -38263.207, 0.0, 9.99954, 9.999641 
7.1499544e+2, 1.6483651e+2, -1454707.0, -1437376.5, 16423.188, -0.21509495, -0.1656326, -1427472.8, -102876.47, 0.0, 9.999297, 9.999518 
7.1499354e+2, 1.7483826e+2, -1305706.6, -1318942.3, 14979.426, -0.18393156, 0.0254692, -1295948.3, -69362.78, 0.0, 9.999659, 9.999487 
7.149915e+2, 1.848387e+2, -1150039.8, -1127020.0, -33580.625, -0.11257911, 0.09675297, -1103031.5, 25551.791, 0.0, 9.999753, 10.000092 
7.1498954e+2, 1.948375e+2, -1071209.6, -1039159.56, -12591.525, -0.0014718791, -0.06406175, -1034804.5, -4211.7085, 0.0, 9.999622, 10.000089 
7.149872e+2, 2.0483743e+2, -1043434.4, -1119593.6, 15427.029, 0.017823188, -0.010120851, -1040428.06, -107833.336, 0.0, 9.999767, 9.998789 
7.1498466e+2, 2.1483825e+2, -898878.8, -1000039.06, 1385.0134, -0.061187845, 0.16306649, -898859.8, -64268.133, 0.0, 10.000093, 9.998777 
7.1498245e+2, 2.2483723e+2, -744984.7, -828498.94, -34915.086, -0.08656072, 0.16739778, -732310.94, 4290.4624, 0.0, 10.0002775, 9.999193 
7.149804e+2, 2.3483397e+2, -654179.1, -735358.2, -5580.075, -0.064095214, -0.10932114, -653797.3, -15170.008, 0.0, 10.000235, 9.999185 
7.149782e+2, 2.44833e+2, -582338.3, -585928.4, -20312.74, -0.051791955, -0.1465673, -563741.44, -23107.793, 0.0, 9.999773, 9.9997635 
7.149757e+2, 2.5483418e+2, -630645.8, -557012.7, -1567.7936, -0.055591557, -0.03820946, -556979.3, -114357.28, 0.0, 9.998763, 9.999773 
7.149738e+2, 2.6483393e+2, -575832.8, -561205.7, 18569.928, -0.042905677, 0.00041876268, -548561.0, -203936.88, 0.0, 9.998813, 9.999048 
7.1497256e+2, 2.7483183e+2, -338150.06, -396742.0, 32883.81, -0.0106168045, -0.14894262, -323405.16, -76761.07, 0.000000020828322, 9.999777, 9.999037 
7.1497077e+2, 2.848314e+2, -228572.14, -292061.2, -16456.484, -0.0013350844, -0.08827243, -224560.13, -75911.01, 0.0000037854625, 9.999855, 9.999045 
7.1496814e+2, 2.9483265e+2, -309308.7, -283148.6, -16791.3, -0.047867272, 0.095151864, -274944.0, -224304.19, 0.000035842306, 9.99863, 9.9990225 
7.14968e+2, 3.048318e+2, -196561.0, -135239.3, 59316.855, 0.05853717, 0.08484411, -99127.57, -99127.57, 0.000135526, 9.998795, 9.999619 
7.149692e+2, 3.1482998e+2, 32031.508, 63008.86, 52400.816, 0.19661182, -0.09979502, 102162.15, 102162.15, 0.00031586387, 9.999901, 10.000454 
7.250073e+2, 1.2484158e+2, -1615548.3, -1650788.4, 159173.88, -0.14982809, 0.027952012, -1473022.1, 243531.44, 0.0, 10.000504, 10.000208 
7.25006e+2, 1.3484256e+2, -1654119.3, -1637653.9, 62164.44, -0.15266535, 0.09944941, -1583179.4, 35361.92, 0.0, 9.999734, 9.999978 
7.2500527e+2, 1.4484107e+2, -1592383.5, -1568808.1, -27154.744, 0.042133477, -0.028319538, -1550993.0, -30440.473, 0.0, 9.9995, 9.999882 
7.249994e+2, 1.5483984e+2, -1420821.9, -1425923.8, -46817.434, -0.1069161, -0.18180364, -1376485.9, 46074.668, 0.0, 9.999979, 9.999952 
7.249953e+2, 1.6483977e+2, -1351593.9, -1411461.0, 48783.004, -0.19069153, -0.15010096, -1324292.9, 269.17886, 0.0, 10.000073, 9.99934 
7.2499347e+2, 1.7484057e+2, -1307039.6, -1336921.5, 37426.8, -0.15115109, -0.035240527, -1281681.8, -55121.957, 0.0, 9.999707, 9.999347 
7.249915e+2, 1.8484062e+2, -1177095.8, -1186926.9, 9086.048, -0.08218669, 0.024074785, -1171680.8, -43119.348, 0.0, 9.999769, 9.999672 
7.249894e+2, 1.9483955e+2, -1011477.56, -1053306.3, -46903.11, 0.003925825, -0.08128776, -981037.2, 49533.33, 0.0, 10.000224, 9.999698 
7.249871e+2, 2.0483923e+2, -986624.8, -1104702.5, -6130.453, 0.010106896, -0.027875435, -986307.44, -53732.188, 0.0, 10.000222, 9.998678 
7.249845e+2, 2.1483932e+2, -968730.5, -1048588.9, -871.4406, -0.058236994, 0.08629824, -968720.94, -134141.84, 0.0, 9.999678, 9.998652 
7.249826e+2, 2.2483848e+2, -826003.7, -829970.2, 22143.115, -0.051915716, 0.10010299, -805755.2, -69168.17, 0.0, 9.999552, 9.99954 
7.249814e+2, 2.3483643e+2, -680832.5, -709872.25, 19689.723, 0.03993401, -0.09205894, -670887.9, -32286.072, 0.0, 9.999875, 9.999539 
7.2497886e+2, 2.4483544e+2, -552371.56, -605125.1, -407.79376, 0.029548435, -0.13499773, -552368.4, -11759.632, 0.0, 10.000131, 9.99945 
7.249748e+2, 2.5483534e+2, -411439.75, -488617.8, -42198.96, -0.10139239, -0.1236984, -392846.03, 49764.28, 0.0, 10.000424, 9.999439 
7.2497296e+2, 2.648351e+2, -353026.97, -435128.22, 14613.667, -0.07801466, -0.07342805, -350503.38, -5890.979, 0.0, 10.000278, 9.9992 
7.249736e+2, 2.748344e+2, -337233.03, -380283.75, 11213.389, 0.13242719, -0.09829891, -334487.4, -87868.664, 0.000000011844985, 9.99971, 9.999185 
7.2497153e+2, 2.848341e+2, -341780.9, -387579.72, -25456.033, 0.13423283, -0.015369527, -330440.1, -181816.44, 0.000004675658, 9.999276, 9.998656 
7.2496635e+2, 2.9483405e+2, -280614.1, -311713.97, -50982.9, -0.09822153, 0.07838151, -242862.47, -192233.61, 0.000040333267, 9.999023, 9.998627 
7.2496635e+2, 3.048335e+2, -141555.95, -44015.605, 68493.76, 0.018853532, 0.09396526, -8702.934, -8702.934, 0.00014552829, 9.998898, 10.00021 
7.2496927e+2, 3.148321e+2, -109624.04, 68938.7, -71193.44, 0.28373015, -0.11123392, 93848.7, 93848.7, 0.00033116215, 9.998608, 10.001128 
7.3500866e+2, 1.2484343e+2, -1637474.6, -1689425.1, 108583.13, -0.12454528, -0.08423044, -1551803.1, 164726.63, 0.0, 10.000483, 9.999945 
7.35006e+2, 1.348438e+2, -1649071.0, -1632860.1, 37622.383, -0.158422, -0.083320856, -1602480.0, 16045.673, 0.0, 9.9997425, 10.000012 
7.35004e+2, 1.4484312e+2, -1597922.3, -1557174.4, -27509.744, -0.06164181, -0.14178813, -1543315.5, -22784.168, 0.0, 9.999414, 9.999992 
7.3500025e+2, 1.5484425e+2, -1420765.8, -1425031.5, -11701.91, -0.055768643, -0.067492984, -1411003.9, 11514.71, 0.0, 9.999975, 9.99996 
7.3499674e+2, 1.648443e+2, -1344313.5, -1392647.5, 20169.96, -0.08121698, -0.028860025, -1337002.4, -12484.136, 0.0, 10.000058, 9.999475 
7.3499405e+2, 1.7484292e+2, -1305697.3, -1321670.3, 38921.266, -0.088402964, -0.14568198, -1273951.6, -47418.297, 0.0, 9.999648, 9.999484 
7.349914e+2, 1.8484251e+2, -1272185.3, -1353956.6, 13704.461, -0.10105945, -0.086405426, -1269949.6, -141409.52, 0.0, 9.999647, 9.998578 
7.349885e+2, 1.9484277e+2, -1109919.4, -1227203.4, -17358.332, -0.13597775, 0.05186078, -1107404.3, -76862.88, 0.0, 10.000103, 9.998556 
7.3498607e+2, 2.0484184e+2, -972317.6, -1044994.56, -41680.348, -0.1353876, 0.08061053, -953359.3, -20807.162, 0.0, 10.000088, 9.999154 
7.34984e+2, 2.1483935e+2, -957711.3, -982840.2, -7212.2007, -0.10195494, -0.1167549, -955788.44, -121212.555, 0.0, 9.999493, 9.999189 
7.3498267e+2, 2.2483891e+2, -833081.2, -801073.44, 20516.348, -0.023309423, -0.1050903, -791057.25, -54478.395, 0.0, 9.999365, 9.999827 
7.349821e+2, 2.3484035e+2, -688741.4, -680558.6, 46732.453, 0.09524625, 0.02336001, -637738.8, 823.9324, 0.0, 9.999685, 9.999828 
7.349795e+2, 2.4484006e+2, -616230.3, -716378.8, -1852.3987, 0.045140967, 0.07156219, -616196.06, -75630.1, 0.0, 10.000032, 9.9987335 
7.349747e+2, 2.548376e+2, -484159.0, -607218.06, -17507.975, -0.1859718, -0.07774013, -481716.56, -39123.457, 0.0, 10.000283, 9.998694 
7.349728e+2, 2.6483718e+2, -348182.1, -401348.2, -16957.543, -0.15363272, -0.022918107, -343233.94, 1363.5781, 0.0, 10.00018, 9.999476 
7.349741e+2, 2.7483845e+2, -331004.2, -345823.75, 10203.089, 0.16616502, 0.12105608, -325804.13, -79221.766, 0.000000051096855, 9.999622, 9.999461 
7.349716e+2, 2.8483748e+2, -352060.9, -418743.3, -48558.164, 0.16542585, 0.13513076, -326499.38, -177907.89, 0.0000058850314, 9.999303, 9.998433 
7.349649e+2, 2.9483405e+2, -308121.56, -360063.56, -40416.914, -0.19079368, -0.0941585, -286050.7, -235422.42, 0.000044056193, 9.998975, 9.998322 
7.349649e+2, 3.0483332e+2, -184460.75, -130636.73, 50767.4, -0.048457198, -0.05205501, -100089.32, -100089.32, 0.00015023243, 9.998888, 9.999618 
7.3496735e+2, 3.1483358e+2, -102515.14, 109616.93, -24241.277, 0.15799755, -0.029691176, 112351.83, 112351.83, 0.0003329124, 9.998499, 10.001457 
7.450098e+2, 1.2484607e+2, -1774166.3, -1775117.6, 121008.875, -0.011535428, -0.09225498, -1653632.1, 62869.945, 0.0, 9.999665, 9.99972 
7.450063e+2, 1.3484639e+2, -1632468.3, -1618169.9, -11067.809, -0.08757681, -0.09900219, -1612143.0, 6357.4517, 0.0, 9.99986, 10.000036 
7.450032e+2, 1.4484617e+2, -1546723.8, -1515554.9, -28066.672, -0.08516077, -0.11850082, -1499036.1, 21466.664, 0.0, 9.999697, 10.000136 
7.450005e+2, 1.5484756e+2, -1497943.4, -1439778.1, -42693.383, 0.009284593, -0.03841086, -1417203.0, 5284.9863, 0.0, 9.999364, 10.00014 
7.4499744e+2, 1.6484769e+2, -1408069.6, -1436679.1, 23696.422, 0.007478971, 0.005363888, -1394695.0, -70208.65, 0.0, 9.999684, 9.999355 
7.4499464e+2, 1.7484619e+2, -1156084.8, -1258269.4, -5685.692, -0.042313017, -0.11181547, -1155769.4, 70732.164, 0.0, 10.000719, 9.999402 
7.4499184e+2, 1.8484548e+2, -1099469.5, -1306016.6, 2659.2642, -0.07691483, -0.06404751, -1099435.3, 29075.535, 0.0, 10.000968, 9.998282 
7.44989e+2, 1.948452e+2, -1100979.8, -1260831.5, 11030.236, -0.10758423, 0.051114067, -1100222.1, -69704.51, 0.0, 10.000307, 9.998237 
7.4498653e+2, 2.0484407e+2, -960437.7, -1013048.5, 33776.348, -0.093751445, 0.06421991, -943931.7, -11401.951, 0.0, 10.000055, 9.999375 
7.4498445e+2, 2.1484175e+2, -834344.25, -899917.94, 13858.12, -0.03348975, -0.13822722, -831535.8, 3014.488, 0.0, 10.0002365, 9.999394 
7.449829e+2, 2.2484156e+2, -732358.8, -764890.5, 46152.6, 0.033734363, -0.10780249, -699689.56, 36861.555, 0.0, 10.000113, 9.999713 
7.449817e+2, 2.3484331e+2, -704483.5, -704731.0, 11621.43, 0.09941607, 0.06273765, -692985.2, -54450.754, 0.0, 9.99963, 9.999697 
7.4497926e+2, 2.4484308e+2, -713310.25, -782297.3, 9919.689, 0.05485089, 0.13220485, -711912.25, -171373.92, 0.0, 9.999449, 9.99857 
7.4497545e+2, 2.5484046e+2, -574842.3, -665790.9, 7313.022, -0.09676916, -0.015878703, -574258.06, -131691.06, 0.0, 9.999727, 9.998561 
7.4497366e+2, 2.6483974e+2, -386948.3, -415562.75, 29844.957, -0.059034977, 0.014461592, -368158.44, -23584.566, 0.0, 9.999891, 9.999522 
7.4497396e+2, 2.7484065e+2, -284466.4, -311221.0, 8386.17, 0.1912137, 0.12005761, -282055.1, -35494.1, 0.00000017449423, 9.9999075, 9.999555 
7.449711e+2, 2.848395e+2, -260830.45, -394046.03, -20295.326, 0.15876955, 0.11625143, -257807.08, -109235.56, 0.0000070145306, 10.000017, 9.998262 
7.449647e+2, 2.948358e+2, -135372.56, -294168.88, -40628.36, -0.16033499, -0.11787313, -125581.42, -74971.734, 0.00004543542, 10.000233, 9.998173 
7.4496454e+2, 3.0483457e+2, -125237.734, -174050.4, 56341.926, 0.005520539, -0.08736931, -88243.08, -88243.08, 0.00014809403, 9.999609, 9.9989605 
7.44965e+2, 3.1483525e+2, -213264.89, 38852.734, -56178.05, 0.12642992, 0.038867936, 50804.055, 50804.055, 0.00032280377, 9.997833, 10.001271 
7.550097e+2, 1.2484925e+2, -1794088.4, -1805386.5, 71419.01, -0.05258291, -0.03322856, -1728095.4, -11622.75, 0.0, 9.999617, 9.999537 
7.5500685e+2, 1.3485028e+2, -1633784.6, -1626501.8, 8411.13, -0.05985039, 0.034463536, -1620977.6, -2511.0103, 0.0, 9.999873, 9.99998 
7.550027e+2, 1.4485025e+2, -1540457.4, -1491899.6, -58759.363, -0.15000138, 0.029125204, -1452600.8, 67866.69, 0.0, 9.999658, 10.000316 
7.5499964e+2, 1.548499e+2, -1491374.3, -1413751.6, -42795.11, -0.04999361, -0.07915574, -1394789.8, 27677.555, 0.0, 9.999315, 10.000344 
7.5499684e+2, 1.6484998e+2, -1437919.0, -1487609.5, 44757.125, -0.05750635, -0.03772737, -1411573.5, -87107.49, 0.0, 9.999633, 9.999031 
7.549947e+2, 1.7485031e+2, -1189331.9, -1317301.6, 47000.746, -0.14209495, 0.065551296, -1173924.5, 52540.684, 0.0, 10.000676, 9.999018 
7.5499254e+2, 1.8484944e+2, -1067002.9, -1220298.4, -37455.85, -0.13096789, 0.089043535, -1058340.5, 70134.0, 0.0, 10.00089, 9.99891 
7.549903e+2, 1.9484691e+2, -1071538.4, -1170457.4, 266.16135, -0.033725366, -0.08550618, -1071537.6, -41039.043, 0.0, 10.000186, 9.998915 
7.5498796e+2, 2.0484601e+2, -993879.8, -1046308.44, 26208.813, 0.02040793, -0.07719566, -983025.4, -50518.152, 0.0, 9.999895, 9.999229 
7.549855e+2, 2.1484658e+2, -873653.44, -932403.8, 33287.965, 0.028225834, 0.026220711, -858632.8, -24131.184, 0.0, 10.000035, 9.999268 
7.549829e+2, 2.2484653e+2, -793943.75, -851771.75, 16025.571, 0.0023896222, 0.10151803, -789799.6, -53296.62, 0.0, 9.999937, 9.999201 
7.5497985e+2, 2.3484544e+2, -770824.6, -794555.2, 9201.353, -0.06951383, 0.043909337, -767674.9, -129159.67, 0.0, 9.999432, 9.999173 
7.5497776e+2, 2.4484468e+2, -706771.94, -740240.3, 5970.202, -0.06308835, 0.06817626, -705738.8, -165215.11, 0.0, 9.999324, 9.998919 
7.5497675e+2, 2.548438e+2, -565209.4, -621729.06, 31635.248, 0.028410446, 0.055421952, -551049.75, -108517.125, 0.0, 9.999622, 9.998914 
7.549752e+2, 2.648427e+2, -405138.22, -440383.97, 17466.68, 0.0775672, 0.035766948, -397948.78, -53406.67, 0.0, 9.999838, 9.999377 
7.5497305e+2, 2.748411e+2, -313455.56, -345509.6, 26565.623, 0.07672214, -0.09580598, -298456.84, -51902.33, 0.0000002213921, 9.999796, 9.999373 
7.549698e+2, 2.848401e+2, -277749.2, -419066.0, -24339.176, -0.002080913, -0.061628822, -273674.72, -125111.36, 0.000006961638, 9.999968, 9.998117 
7.5496525e+2, 2.9483932e+2, -149864.16, -312393.78, -12328.387, -0.16692288, 0.011165674, -148934.33, -98361.03, 0.00004401986, 10.000172, 9.998082 
7.5496477e+2, 3.0483714e+2, -185432.06, -283360.75, -17315.451, 0.032805108, -0.01777725, -182460.56, -182460.56, 0.0001416952, 9.999556, 9.998225 
7.5496125e+2, 3.148375e+2, -274718.2, -68030.91, -45879.715, -0.11268103, 0.15104207, -58304.41, -58304.41, 0.0003069929, 9.997756, 10.000565 
7.650106e+2, 1.2485203e+2, -1686118.8, -1764845.0, 55778.35, 0.056420047, -0.0017268852, -1657212.8, 59235.098, 0.00000000032551553, 10.000346, 9.999481 
7.65007e+2, 1.3485283e+2, -1664913.9, -1653571.4, -39982.367, -0.006533969, 0.05022723, -1618860.0, -415.61987, 0.0, 9.999684, 9.999888 
7.650022e+2, 1.4485306e+2, -1548704.1, -1529688.0, -54452.316, -0.15605663, 0.08802927, -1483919.9, 36523.055, 0.0, 9.999717, 10.000044 
7.6500005e+2, 1.5485226e+2, -1264006.1, -1334841.5, -99738.01, -0.011594945, -0.040674727, -1193584.0, 228863.72, 0.0, 10.000982, 10.000098 
7.6499766e+2, 1.648521e+2, -1219030.8, -1365718.9, 4508.1284, 0.00737796, -0.017359784, -1218892.4, 105555.61, 0.0, 10.001078, 9.999163 
7.6499563e+2, 1.7485234e+2, -1290150.3, -1352209.0, 14594.7, -0.074882984, 0.062621444, -1286889.3, -60442.96, 0.0, 9.999927, 9.999136 
7.6499337e+2, 1.8485153e+2, -1207614.3, -1261635.1, -29722.12, -0.07805171, 0.07257405, -1194462.9, -66008.96, 0.0, 9.999822, 9.999132 
7.649909e+2, 1.9484921e+2, -962518.5, -1095065.3, -54160.207, -0.012178283, -0.10232985, -943202.8, 87272.555, 0.0, 10.000834, 9.999121 
7.649885e+2, 2.0484842e+2, -858040.0, -992721.8, -36056.477, 0.04080122, -0.08767302, -848994.6, 83487.875, 0.0, 10.000889, 9.999119 
7.64986e+2, 2.148489e+2, -896754.0, -962412.25, -51876.5, 0.07618944, 0.017812295, -868191.56, -33713.48, 0.0, 9.999942, 9.999115 
7.6498306e+2, 2.2484866e+2, -825657.6, -877264.7, -10964.878, 0.038211398, 0.08720401, -823424.56, -86943.055, 0.0, 9.999776, 9.999102 
7.649796e+2, 2.348474e+2, -627703.4, -733430.94, -15702.81, -0.084162585, 0.020737663, -625420.44, 13075.37, 0.0, 10.0004635, 9.999085 
7.6497763e+2, 2.448465e+2, -514925.56, -622242.75, 10489.331, -0.060756005, 0.024379145, -513909.94, 26594.83, 0.0, 10.000528, 9.999147 
7.649773e+2, 2.5484568e+2, -514344.63, -571885.8, 1707.2523, 0.119359106, -0.0060767555, -514294.0, -71782.945, 0.0, 9.99986, 9.999143 
7.649758e+2, 2.648446e+2, -473105.53, -504925.0, 9100.393, 0.17244521, -0.01683387, -470686.7, -126166.02, 0.0, 9.999513, 9.999091 
7.649728e+2, 2.7484304e+2, -381324.06, -411334.22, -24305.838, 0.09574402, -0.11264516, -367764.72, -121228.67, 0.00000016204108, 9.999475, 9.99908 
7.649694e+2, 2.8484237e+2, -321573.25, -396420.3, -21712.791, 0.0025967688, -0.053980444, -315730.56, -167187.81, 0.000006290961, 9.999482, 9.998498 
7.649657e+2, 2.9484218e+2, -225973.58, -292721.06, -2006.743, -0.09851684, 0.037236933, -225913.31, -175369.27, 0.000041719115, 9.999439, 9.998548 
7.6496446e+2, 3.048397e+2, -217755.53, -287134.97, 29613.148, 0.075083, -0.05307326, -206834.78, -206834.78, 0.00013461517, 9.999258, 9.998362 
7.6495916e+2, 3.148403e+2, -213161.19, -84271.625, 49343.71, -0.11621163, 0.13445538, -67550.33, -67550.33, 0.00029005748, 9.998349, 10.000192 
7.750116e+2, 1.2485439e+2, -1687535.3, -1751081.6, -63053.84, 0.04248955, -0.00023927884, -1648701.6, 67726.05, 0.0000000023621072, 10.000283, 9.999607 
7.7500635e+2, 1.34854e+2, -1678511.5, -1678867.1, -61686.92, -0.0749485, -0.04449544, -1617002.1, 1431.8121, 0.0, 9.999678, 9.99972 
7.7500135e+2, 1.4485456e+2, -1585338.6, -1604021.6, -29603.42, -0.25897208, 0.05579465, -1563637.8, -43207.98, 0.0, 9.999703, 9.999542 
7.7500147e+2, 1.5485473e+2, -1303745.9, -1416250.5, -36071.082, -0.0056170197, 0.081439234, -1293174.3, 129253.6, 0.0, 10.000975, 9.999543 
7.7499986e+2, 1.6485417e+2, -1184416.3, -1279871.9, -53458.543, 0.08468127, 0.06370443, -1160479.9, 163951.22, 0.0, 10.001022, 9.999779 
7.7499694e+2, 1.748524e+2, -1251143.9, -1258594.8, -12257.378, 0.03832447, -0.12202387, -1242058.3, -15614.225, 0.0, 9.999877, 9.999803 
7.7499384e+2, 1.8485183e+2, -1236026.5, -1302751.0, -5098.713, -0.04139953, -0.11035974, -1235639.1, -107190.72, 0.0, 9.999734, 9.998901 
7.749905e+2, 1.9485223e+2, -996487.44, -1139532.5, -1212.9517, -0.16965881, 0.013559722, -996477.2, 33969.31, 0.0, 10.000716, 9.998878 
7.749876e+2, 2.0485137e+2, -888342.3, -1014920.94, -85859.164, -0.16467518, 0.036692146, -844967.0, 87488.09, 0.0, 10.000717, 9.999047 
7.749853e+2, 2.1484882e+2, -930799.4, -986503.06, -75810.04, -0.010452433, -0.15376785, -877886.8, -43408.418, 0.0, 9.999749, 9.999039 
7.749829e+2, 2.2484809e+2, -833966.0, -851894.94, -1173.5167, 0.023768706, -0.1400675, -833889.5, -97404.39, 0.0, 9.999589, 9.999372 
7.749804e+2, 2.34849e+2, -630827.2, -703216.06, 24335.023, -0.07378336, -0.018179199, -623407.06, 15070.486, 0.0, 10.000299, 9.999377 
7.749784e+2, 2.4484845e+2, -526379.8, -610103.56, -27883.94, -0.064928666, -0.0012015112, -517943.28, 22538.727, 0.0, 10.0003805, 9.999301 
7.749768e+2, 2.5484616e+2, -525856.06, -560075.7, -8019.201, 0.05471607, -0.1928846, -524070.0, -81568.65, 0.0, 9.999712, 9.999293 
7.74975e+2, 2.648456e+2, -518795.63, -580723.44, -5142.7227, 0.11530146, -0.1378825, -518371.47, -173862.81, 0.0, 9.999432, 9.998611 
7.7497274e+2, 2.7484643e+2, -427444.3, -488099.78, -10305.104, 0.10818615, 0.056531936, -425741.34, -179233.84, 0.00000014054619, 9.99939, 9.998598 
7.749696e+2, 2.848461e+2, -267239.9, -264117.84, -35736.34, 0.035147063, 0.12704647, -229908.47, -81396.98, 0.0000059856334, 9.999404, 9.999439 
7.749655e+2, 2.9484427e+2, -166543.25, -157975.6, 16657.809, -0.104979046, -0.047482323, -145059.61, -94536.07, 0.0000396548, 9.999387, 9.999497 
7.749634e+2, 3.048422e+2, -148992.42, -130009.0, -10816.475, 0.013142539, -0.1956082, -125110.14, -125110.14, 0.00012692052, 9.999207, 9.999466 
7.749578e+2, 3.1484416e+2, -236044.14, -107836.18, 94470.24, -0.16556507, 0.024637192, -57773.848, -57773.848, 0.00027215088, 9.998246, 10.000085 
7.8501123e+2, 1.2485709e+2, -1902274.9, -1818699.6, -34108.9, 0.078239456, 0.04860574, -1806546.3, -90142.29, 0.0000000040597263, 9.998697, 9.9998865 
7.850074e+2, 1.3485624e+2, -1491237.4, -1584394.1, -41391.19, 0.01173978, -0.04432039, -1475503.8, 142908.6, 0.0, 10.00098, 9.999721 
7.850028e+2, 1.4485653e+2, -1362715.4, -1531358.1, 6851.681, -0.1571986, 0.045871492, -1362437.5, 157972.69, 0.0, 10.001393, 9.99922 
7.8500223e+2, 1.5485664e+2, -1464996.6, -1533437.9, -18631.652, 0.03600918, 0.10209006, -1460253.3, -37842.984, 0.0, 10.000048, 9.999182 
7.850004e+2, 1.6485593e+2, -1360436.6, -1361078.5, -21512.283, 0.10526885, 0.08568475, -1339242.9, -14826.969, 0.0, 9.999794, 9.999807 
7.8499746e+2, 1.7485398e+2, -1146657.6, -1202274.6, -60159.49, 0.0731563, -0.12236038, -1108190.4, 118240.15, 0.0, 10.000578, 9.999842 
7.849944e+2, 1.8485361e+2, -1081890.0, -1206732.9, -20018.62, 0.0074500996, -0.101941675, -1078758.6, 49673.97, 0.0, 10.000703, 9.999087 
7.849913e+2, 1.948546e+2, -1089617.8, -1160057.8, -10080.139, -0.10855571, 0.05987745, -1088203.8, -57779.188, 0.0, 9.999988, 9.999075 
7.8498805e+2, 2.0485382e+2, -1033169.75, -1090978.3, -65958.81, -0.1305255, 0.08323736, -990059.94, -57627.87, 0.0, 9.999739, 9.999002 
7.849847e+2, 2.1485084e+2, -921172.5, -985613.6, -81123.586, -0.04329513, -0.14371489, -866105.0, -31645.668, 0.0, 9.999831, 9.999007 
7.849823e+2, 2.2484982e+2, -804070.9, -834033.56, 38814.137, 0.005015422, -0.16095257, -777447.2, -40978.89, 0.0, 9.999774, 9.999401 
7.84981e+2, 2.3485056e+2, -744241.7, -756756.9, 17480.342, 0.004634492, -0.057796244, -731932.7, -93471.63, 0.0, 9.999514, 9.99939 
7.8497916e+2, 2.4485022e+2, -647151.4, -673204.75, -36297.797, 0.023460468, -0.017152078, -621613.5, -81149.81, 0.0, 9.999579, 9.999248 
7.8497666e+2, 2.5484845e+2, -486226.4, -548116.1, -62352.395, 0.063381925, -0.15133028, -447562.3, -5082.4106, 0.0, 10.0000105, 9.999229 
7.849743e+2, 2.6484808e+2, -449082.88, -539527.44, -29482.787, 0.09715357, -0.07656853, -440321.0, -95834.57, 0.0, 9.9998865, 9.998669 
7.8497213e+2, 2.7484885e+2, -457501.94, -495222.75, -22236.441, 0.13003196, 0.10239667, -447204.63, -200717.92, 0.0000001311964, 9.999158, 9.998653 
7.84969e+2, 2.8484857e+2, -326338.06, -235798.16, -186.05621, 0.07757362, 0.15086022, -235797.78, -87308.0, 0.0000058891046, 9.998747, 9.999959 
7.8496504e+2, 2.9484713e+2, -253925.6, -147510.66, -14471.174, -0.044581644, -0.02878773, -145577.86, -95081.27, 0.000037489564, 9.998547, 9.999987 
7.8496253e+2, 3.0484587e+2, -180304.6, -130191.65, -59368.703, 0.034191735, -0.1290649, -90808.46, -90808.46, 0.00011865352, 9.998918, 9.999601 
7.849571e+2, 3.1484738e+2, -62652.61, -40735.305, -60022.01, -0.103203826, 0.02601528, 9320.252, 9320.252, 0.00025448482, 9.999504, 9.99993 
7.9500854e+2, 1.2486069e+2, -1858542.0, -1760433.1, -23132.229, -0.14203559, 0.18061353, -1755252.5, -38881.098, 0.0000000034592607, 9.998815, 10.000239 
7.950098e+2, 1.3485955e+2, -1468187.6, -1555682.6, 52986.36, 0.110089034, 0.042294633, -1443222.8, 175156.53, 0.0, 10.001046, 9.99989 
7.950063e+2, 1.4485902e+2, -1384363.4, -1566097.1, -62704.785, 0.011550293, 0.052348513, -1364827.9, 155555.64, 0.0, 10.001355, 9.998995 
7.9500216e+2, 1.54858e+2, -1479570.8, -1560858.8, -52536.117, -0.022194374, 0.009350738, -1453792.0, -31396.807, 0.0, 10.000041, 9.998991 
7.949988e+2, 1.6485742e+2, -1403800.1, -1448040.4, -7368.015, -0.06707227, 0.047237154, -1402605.3, -78203.48, 0.0, 9.999771, 9.9992285 
7.949966e+2, 1.748571e+2, -1187047.6, -1288901.1, -16213.411, -0.1017446, 0.060414452, -1184529.0, 41876.41, 0.0, 10.000576, 9.999253 
7.949948e+2, 1.8485685e+2, -1058189.5, -1129146.5, -60138.42, -0.061940353, 0.09294551, -1023844.25, 104562.695, 0.0, 10.000588, 9.99967 
7.9499316e+2, 1.9485626e+2, -1059958.6, -1073580.3, -23255.533, 0.038936403, 0.034036037, -1042537.06, -12127.18, 0.0, 9.9998865, 9.999713 
7.949895e+2, 2.0485577e+2, -1052376.1, -1095817.4, -77711.26, 0.01624572, 0.050359465, -993407.06, -60993.82, 0.0, 9.999588, 9.999042 
7.949837e+2, 2.1485494e+2, -945354.2, -995590.9, -63822.527, -0.14574526, 0.035116386, -901885.0, -67464.01, 0.0, 9.999656, 9.999024 
7.949808e+2, 2.2485384e+2, -850506.44, -883608.44, 18376.348, -0.14170441, 0.020585593, -842326.4, -105895.61, 0.0, 9.999573, 9.999157 
7.94981e+2, 2.3485218e+2, -784060.9, -804133.94, 24023.541, 0.028559769, -0.09124259, -768061.56, -129616.35, 0.0, 9.999358, 9.999141 
7.949796e+2, 2.4485184e+2, -686766.0, -722651.3, -34060.234, 0.07920336, -0.025297718, -666211.4, -125761.79, 0.0, 9.999442, 9.998974 
7.9497635e+2, 2.548525e+2, -526878.25, -600690.0, -31011.057, 0.0037172858, 0.11504144, -515579.06, -73131.91, 0.0, 9.999874, 9.998935 
7.949734e+2, 2.648521e+2, -413389.0, -451246.2, -68723.39, -0.016581718, 0.16781738, -361035.1, -16581.07, 0.0, 9.999819, 9.999309 
7.949705e+2, 2.7485028e+2, -424655.84, -410689.06, -30054.918, 0.022437945, 0.025367575, -386816.88, -140343.42, 0.000000103459534, 9.999083, 9.99927 
7.9496735e+2, 2.8484988e+2, -327914.63, -228311.52, -19765.066, 0.006324493, 0.026967607, -224532.73, -76056.23, 0.0000054454867, 9.998701, 10.000033 
7.9496354e+2, 2.9485083e+2, -264435.66, -148381.94, 1116.6147, -0.08492678, 0.08018547, -148371.19, -97907.75, 0.00003447301, 9.998455, 10.000028 
7.9496133e+2, 3.048508e+2, -248144.67, -259873.34, -40285.715, -0.011586212, 0.14264128, -213298.69, -213298.69, 0.0001104858, 9.998862, 9.998736 
7.949565e+2, 3.1484854e+2, -110604.71, -122945.125, 26376.348, -0.18924202, 0.0060193418, -89686.484, -89686.484, 0.000240168, 9.999419, 9.99941 
8.050081e+2, 1.2486191e+2, -1601621.6, -1627722.0, -24609.598, -0.13701163, 0.13081683, -1586816.1, 129541.625, 0.0000000057252847, 10.000567, 10.000317 
8.0501086e+2, 1.3486111e+2, -1657895.9, -1662045.5, -2265.577, 0.18902092, 0.04565644, -1656898.6, -38536.074, 0.0, 9.9998045, 9.999782 
8.050082e+2, 1.4486043e+2, -1590386.5, -1639519.0, -104704.945, 0.15031424, 0.036259104, -1507404.5, 12964.058, 0.0, 9.999841, 9.99922 
8.050028e+2, 1.5485942e+2, -1314198.5, -1462243.3, -102787.38, 0.0027698642, -0.023807997, -1261553.8, 160826.23, 0.0, 10.001091, 9.999168 
8.049991e+2, 1.6485912e+2, -1193493.4, -1353377.4, 5140.5664, -0.08126642, 0.03510005, -1193328.4, 131056.47, 0.0, 10.001261, 9.999162 
8.0499727e+2, 1.7485936e+2, -1230455.8, -1322189.6, 3130.7927, -0.07706608, 0.11903407, -1230349.0, -3964.559, 0.0, 10.000342, 9.999145 
8.049954e+2, 1.8485902e+2, -1122888.8, -1139271.0, -17647.752, -0.02153149, 0.14087693, -1111623.9, 16762.941, 0.0, 10.000063, 9.999854 
8.049935e+2, 1.9485773e+2, -981403.1, -1021832.7, -46222.793, 0.07471739, -0.0050531104, -951168.1, 79227.18, 0.0, 10.000365, 9.999847 
8.049898e+2, 2.0485727e+2, -908822.0, -1016812.44, -84860.79, 0.053913612, 0.00662525, -862234.75, 70163.01, 0.0, 10.000531, 9.999134 
8.049843e+2, 2.1485735e+2, -823677.44, -926370.25, -97349.16, -0.09031087, 0.075336784, -764963.4, 69433.95, 0.0, 10.000452, 9.999115 
8.049812e+2, 2.2485639e+2, -746088.6, -856133.6, 7231.244, -0.10048263, 0.07852376, -745615.44, -9209.309, 0.0, 10.000396, 9.99894 
8.049807e+2, 2.34854e+2, -666235.3, -769964.4, -12497.088, 0.022652002, -0.0827226, -664750.94, -26323.637, 0.0, 10.000282, 9.998919 
8.04979e+2, 2.448534e+2, -647725.75, -704322.06, -37154.72, 0.07200167, -0.032522578, -629320.0, -88885.47, 0.0, 9.999689, 9.998993 
8.04976e+2, 2.5485432e+2, -723164.3, -691944.7, -39280.26, 0.056039684, 0.12637104, -665286.25, -222855.42, 0.0, 9.998501, 9.9989805 
8.04973e+2, 2.6485404e+2, -597100.94, -507761.84, -28000.666, 0.044673026, 0.1751989, -499711.3, -155275.52, 0.0, 9.998402, 9.999617 
8.0496997e+2, 2.748522e+2, -343212.66, -334369.25, -40167.566, 0.047145717, -0.005185256, -298380.75, -51927.332, 0.00000004701224, 9.999458, 9.999626 
8.0496657e+2, 2.8485188e+2, -215869.05, -211667.02, -47740.754, 0.021253921, 0.0037038275, -165981.06, -17525.158, 0.000004093495, 9.99963, 9.9997 
8.049626e+2, 2.9485297e+2, -218462.72, -163198.19, -91377.63, -0.03999158, 0.104080155, -95366.25, -44921.527, 0.000029631305, 9.998934, 9.999694 
8.0496025e+2, 3.0485302e+2, -239994.17, -261286.2, -47316.543, 0.010919426, 0.19910288, -202140.78, -202140.78, 0.00010221737, 9.998942, 9.998697 
8.0495715e+2, 3.1485054e+2, -95312.27, -64040.414, 45916.613, -0.047147416, 0.03801117, -31170.49, -31170.49, 0.00023173698, 9.999319, 9.999863 
8.1500894e+2, 1.24861196e+2, -1615965.9, -1677412.0, -105644.66, -0.1873808, -0.06409311, -1536667.6, 179691.2, 0.000000004999778, 10.000645, 9.999941 
8.1501013e+2, 1.3486116e+2, -1683142.3, -1722611.6, -21640.322, 0.102721885, -0.033755668, -1673589.4, -55228.938, 0.0, 9.999847, 9.99934 
8.15008e+2, 1.4486098e+2, -1548548.8, -1562059.1, -77816.336, 0.10562726, 0.005742896, -1477195.0, 43168.41, 0.0, 9.999872, 9.9997425 
8.1500405e+2, 1.5486105e+2, -1273951.8, -1377372.3, -41670.824, -0.024832763, 0.0009791293, -1259251.1, 163112.63, 0.0, 10.001083, 9.999757 
8.150008e+2, 1.6486111e+2, -1179027.9, -1310100.6, -44560.445, -0.06656867, 0.050571177, -1165313.8, 159050.22, 0.0, 10.001206, 9.999482 
8.1499887e+2, 1.7486084e+2, -1210949.0, -1271764.5, -16697.756, 0.014255842, 0.04491495, -1206666.0, 19701.033, 0.0, 10.000305, 9.999501 
8.1499594e+2, 1.8486027e+2, -1156711.6, -1194420.8, -19440.803, 0.0003557887, 0.042064507, -1148484.1, -20112.836, 0.0, 9.9999895, 9.999516 
8.149921e+2, 1.9485907e+2, -1019623.2, -1081345.8, -19653.77, -0.13890594, -0.059187707, -1013896.4, 16483.424, 0.0, 10.000273, 9.999485 
8.149887e+2, 2.0485845e+2, -931967.5, -1025603.1, -102507.125, -0.13849029, -0.04575715, -866092.75, 66291.67, 0.0, 10.0003605, 9.999158 
8.149859e+2, 2.1485816e+2, -844597.25, -929092.56, -85427.09, 0.0046074153, -0.022307858, -791541.94, 42845.89, 0.0, 10.000275, 9.999182 
8.149829e+2, 2.2485748e+2, -787822.06, -895364.94, -12161.553, 0.006121105, 0.016062133, -786463.9, -50069.547, 0.0, 10.000195, 9.998768 
8.1497955e+2, 2.3485601e+2, -706098.44, -808208.06, -2721.8542, -0.1515083, -0.038153257, -706025.94, -67618.04, 0.0, 10.000091, 9.998747 
8.14977e+2, 2.4485488e+2, -651749.44, -670350.0, -96415.78, -0.12359948, -0.046406798, -564186.44, -23767.291, 0.0, 9.999512, 9.999312 
8.149752e+2, 2.5485387e+2, -722484.4, -656351.0, -70380.42, 0.09949493, -0.11035922, -611656.5, -169225.78, 0.0, 9.998357, 9.999295 
8.149729e+2, 2.6485386e+2, -604855.4, -501314.13, -2493.4712, 0.1678425, -0.055000104, -501254.13, -156822.14, 0.0, 9.99831, 9.999703 
8.149699e+2, 2.748545e+2, -363707.22, -337024.6, 18300.965, 0.0656974, 0.011362162, -327718.25, -81292.055, 0.000000004527389, 9.999296, 9.999684 
8.149662e+2, 2.848545e+2, -276850.25, -326246.84, -86448.32, -0.013196811, 0.08172202, -211641.28, -63213.07, 0.0000024308686, 9.999572, 9.998942 
8.149617e+2, 2.948536e+2, -294408.3, -296165.4, -96033.57, -0.06920807, 0.06059415, -199249.27, -148809.22, 0.00002455122, 9.998831, 9.99883 
8.149591e+2, 3.0485258e+2, -182297.73, -144569.9, -42147.2, -0.03186783, 0.052080836, -117257.71, -117257.71, 0.00009685274, 9.998955, 9.999491 
8.149577e+2, 3.1485227e+2, -12075.93, 145115.7, 115138.664, 0.0036425004, 0.02760446, 205926.53, 205926.53, 0.00023260372, 9.999175, 10.0013685 
8.250103e+2, 1.2486226e+2, -1701966.9, -1734260.9, -51441.707, -0.070771515, -0.11453444, -1664197.5, 52148.625, 0.0000000017683296, 10.000107, 9.999806 
8.2501024e+2, 1.348623e+2, -1544169.4, -1675995.5, 5522.204, 0.09083275, -0.065522626, -1543938.5, 74409.22, 0.0, 10.000871, 9.999169 
8.2500845e+2, 1.44862e+2, -1395121.3, -1473698.6, 1582.9448, 0.120369144, -0.034884445, -1395089.4, 125263.08, 0.0, 10.000874, 9.999859 
8.250048e+2, 1.5486267e+2, -1372161.0, -1412673.1, -30205.643, -0.00897331, 0.009687786, -1356048.3, 66299.375, 0.0, 10.00037, 9.999846 
8.250017e+2, 1.6486299e+2, -1285297.1, -1331946.3, -45849.844, -0.04644975, 0.064913884, -1257180.0, 67165.29, 0.0, 10.000331, 9.999756 
8.249996e+2, 1.7486265e+2, -1135806.9, -1211657.4, -54073.4, 0.04462956, 0.024284756, -1107684.8, 118663.445, 0.0, 10.0006895, 9.999741 
8.249965e+2, 1.8486214e+2, -1077914.6, -1152719.6, -15485.901, 0.03204098, 0.0130941905, -1074835.5, 53515.695, 0.0, 10.000509, 9.999551 
8.2499224e+2, 1.9486108e+2, -1097975.6, -1117172.4, -17298.4, -0.113892965, -0.07499506, -1087791.0, -57433.133, 0.0, 9.999723, 9.9995 
8.249889e+2, 2.0486028e+2, -1032703.56, -1088776.4, -40220.86, -0.1149033, -0.074186474, -1011711.8, -79347.54, 0.0, 9.999741, 9.999008 
8.2498664e+2, 2.1485953e+2, -815616.2, -934810.44, -69639.18, 0.042864017, -0.080614194, -783554.0, 50818.727, 0.0, 10.000561, 9.9990015 
8.2498354e+2, 2.2485895e+2, -739843.75, -857352.0, 152.41447, 0.04605865, -0.031058254, -739843.56, -3464.7344, 0.0, 10.000442, 9.998929 
8.249795e+2, 2.3485814e+2, -813193.0, -845325.2, 4632.464, -0.113627546, -0.030474752, -812538.5, -174152.28, 0.0, 9.999275, 9.998901 
8.2497644e+2, 2.4485715e+2, -711001.4, -689407.56, -38885.273, -0.09448384, -0.03876021, -659848.06, -119452.0, 0.0, 9.999069, 9.999389 
8.2497436e+2, 2.5485566e+2, -490073.7, -533175.56, -61661.28, 0.10872812, -0.1586412, -446305.75, -3894.6003, 0.0, 9.999917, 9.999383 
8.24972e+2, 2.6485553e+2, -389868.06, -429720.84, 17655.89, 0.17217056, -0.10680629, -383171.3, -38757.855, 0.0, 9.999931, 9.999407 
8.249693e+2, 2.7485636e+2, -427202.94, -398643.34, -21004.94, 0.09686715, 0.0063010897, -387523.9, -141117.28, 0.0, 9.999003, 9.999392 
8.2496583e+2, 2.8485617e+2, -400222.38, -425660.78, -92812.586, 0.034597605, 0.09222211, -319261.5, -170850.34, 0.000001518397, 9.998904, 9.998581 
8.249615e+2, 2.9485455e+2, -202006.97, -290083.4, -103536.64, 0.00065112975, 0.033097666, -133532.08, -83101.164, 0.000022026383, 9.99962, 9.998492 
8.249585e+2, 3.048528e+2, -90365.88, -67145.57, -25364.945, -0.0027130363, -0.0395391, -50859.918, -50859.918, 0.00009707927, 9.999461, 9.999768 
8.249574e+2, 3.148529e+2, -134285.92, 113382.31, 27552.168, 0.1204853, -0.0625747, 116410.37, 116410.37, 0.00024343748, 9.998204, 10.001613 
8.350111e+2, 1.2486556e+2, -1700302.1, -1720960.4, -58817.21, -0.07146793, 0.022360852, -1650914.0, 65401.28, 0.000000000051048894, 10.000068, 9.999918 
8.350108e+2, 1.3486472e+2, -1516708.0, -1621601.5, 46740.777, 0.025923375, -0.044524014, -1498902.6, 119420.12, 0.0, 10.000888, 9.999531 
8.3500904e+2, 1.4486364e+2, -1431199.3, -1543854.3, -35244.33, 0.051248092, -0.08755248, -1421081.6, 99252.91, 0.0, 10.000854, 9.999386 
8.350047e+2, 1.5486433e+2, -1405172.9, -1476285.5, -35333.074, -0.09633939, -0.00016654267, -1390602.5, 31728.936, 0.0, 10.000351, 9.999414 
8.350013e+2, 1.6486476e+2, -1280722.4, -1301619.6, -48135.62, -0.15368074, 0.07762402, -1241914.4, 82414.34, 0.0, 10.000244, 10.000009 
8.349991e+2, 1.7486493e+2, -1123514.5, -1173190.6, -23595.709, -0.10616606, 0.06355365, -1114093.5, 112233.266, 0.0, 10.000644, 10.000023 
8.349965e+2, 1.8486473e+2, -1063337.9, -1109345.4, -60461.56, -0.042872973, 0.055580776, -1021651.9, 106673.85, 0.0, 10.000447, 9.999884 
8.349936e+2, 1.9486372e+2, -1087724.6, -1067068.6, -33258.74, 0.022193322, -0.065098174, -1042571.2, -12241.089, 0.0, 9.999602, 9.999902 
8.3499e+2, 2.0486276e+2, -1085729.6, -1158049.3, -24408.605, 0.0027035126, -0.08354552, -1078262.4, -145924.78, 0.0, 9.999561, 9.99862 
8.349859e+2, 2.1486151e+2, -869484.2, -1003799.4, -23366.826, -0.11147639, -0.10161612, -865535.2, -31183.523, 0.0, 10.000379, 9.998611 
8.349827e+2, 2.2486086e+2, -733157.44, -802744.44, -58060.56, -0.10649931, -0.062426653, -700263.3, 36095.5, 0.0, 10.0002575, 9.999395 
8.349803e+2, 2.348605e+2, -802825.44, -789016.44, -22730.645, 0.010837182, -0.06705519, -772164.8, -133803.0, 0.0, 9.999114, 9.99937 
8.349771e+2, 2.4486028e+2, -743031.1, -724460.2, -21141.674, 0.032949783, -0.013628902, -710654.7, -170290.17, 0.0, 9.998928, 9.999217 
8.34973e+2, 2.5485978e+2, -520511.1, -572459.3, -12392.308, -0.04967054, -0.016029647, -517706.3, -75335.36, 0.0, 9.999805, 9.999169 
8.3496976e+2, 2.6485908e+2, -452064.38, -537238.94, -28726.156, -0.06425974, 0.025032189, -443281.75, -98902.02, 0.0, 9.999838, 9.998714 
8.349676e+2, 2.7485782e+2, -493412.78, -509696.06, -37662.074, -0.0073359828, -0.004624069, -463022.38, -216628.36, 0.0, 9.998889, 9.998686 
8.34965e+2, 2.8485695e+2, -400606.3, -411327.06, -80648.28, 0.028291821, 0.045205202, -325140.47, -176736.11, 0.0000012583888, 9.998842, 9.99871 
8.349617e+2, 2.9485598e+2, -212898.81, -281863.97, -57512.832, 0.023555953, 0.04152568, -180323.4, -129907.84, 0.000022671806, 9.999489, 9.998616 
8.349579e+2, 3.048539e+2, -113329.64, -101735.555, -75773.36, -0.04072468, -0.06736344, -31537.814, -31537.814, 0.0001036696, 9.999409, 9.999555 
8.349552e+2, 3.148546e+2, -226425.3, -44629.85, 14359.993, 0.0040470376, 0.0017532307, -43502.55, -43502.55, 0.00026239955, 9.9980755, 10.000586 
8.450126e+2, 1.2486786e+2, -1486806.6, -1649161.3, 47579.215, 0.011606576, 0.0019374768, -1473890.8, 242400.19, 0.0, 10.001666, 9.999636 
8.450117e+2, 1.3486741e+2, -1463703.1, -1613011.3, 48239.227, 0.019733636, -0.013694078, -1449473.8, 168822.3, 0.0, 10.001327, 9.999379 
8.450097e+2, 1.448664e+2, -1455238.8, -1542382.6, -23273.002, 0.056544237, -0.04757685, -1449412.9, 70894.84, 0.0, 10.00063, 9.999504 
8.450048e+2, 1.5486673e+2, -1450618.3, -1491097.6, -14833.679, -0.090519495, -0.0061946115, -1445764.5, -23457.227, 0.0, 9.999999, 9.999492 
8.450013e+2, 1.6486703e+2, -1344410.3, -1322985.3, 49754.77, -0.14401242, 0.050338197, -1282802.8, 41502.34, 0.0, 9.999775, 10.000087 
8.449993e+2, 1.7486723e+2, -1243069.3, -1223607.9, 29360.37, -0.091940515, 0.03437393, -1202407.8, 23894.32, 0.0, 9.999803, 10.00008 
8.4499705e+2, 1.8486714e+2, -1126743.3, -1142371.5, -20392.613, -0.0045520146, 0.033259273, -1112718.9, 15581.67, 0.0, 10.000032, 9.999848 
8.4499437e+2, 1.9486628e+2, -969895.06, -1021248.94, -54032.02, 0.109153435, -0.06638259, -935749.2, 94556.06, 0.0, 10.000453, 9.99981 
8.4499085e+2, 2.0486549e+2, -904105.94, -1043145.4, 10410.784, 0.07637406, -0.07662378, -903330.75, 28980.615, 0.0, 10.000685, 9.998874 
8.449863e+2, 2.1486437e+2, -823875.0, -960435.0, 28630.268, -0.10902495, -0.101576574, -818115.5, 16206.931, 0.0, 10.000588, 9.998817 
8.4498286e+2, 2.248637e+2, -740435.6, -797790.3, -16411.373, -0.1046498, -0.076570354, -736071.75, 257.53546, 0.0, 10.000188, 9.999449 
8.4498036e+2, 2.3486331e+2, -753424.4, -755319.6, -49609.496, 0.095118426, -0.090616815, -704753.44, -66420.19, 0.0, 9.999437, 9.999431 
8.4497684e+2, 2.4486326e+2, -701841.9, -706160.1, 27976.375, 0.112759136, -0.02307113, -675941.44, -135606.8, 0.0, 9.999222, 9.999201 
8.449725e+2, 2.5486308e+2, -561478.6, -589864.25, 19242.383, -0.05797937, 0.011231776, -551761.1, -109423.68, 0.0, 9.999529, 9.999174 
8.449691e+2, 2.6486215e+2, -459721.0, -570946.56, 25556.035, -0.11048989, 0.04111703, -454130.1, -109781.87, 0.0, 9.999904, 9.998451 
8.4496695e+2, 2.748601e+2, -295214.7, -444922.7, 19765.805, -0.025840506, -0.039390083, -292649.0, -46278.78, 0.0000000050987805, 10.000366, 9.9984255 
8.4496456e+2, 2.8485912e+2, -203374.11, -321700.7, 25652.637, 0.04661649, 0.013679721, -198052.11, -49670.66, 0.0000017149706, 10.000209, 9.998664 
8.449619e+2, 2.9485875e+2, -239831.81, -288324.44, 1304.695, 0.103030615, 0.066735424, -239796.73, -189410.25, 0.0000255943, 9.999281, 9.998662 
8.449574e+2, 3.048569e+2, -198221.7, -183784.73, -7844.2695, 0.0079672495, -0.003793116, -180343.06, -180343.06, 0.000114914044, 9.998986, 9.999206 
8.44954e+2, 3.1485626e+2, -144030.13, -76797.78, -307.84247, 0.049954236, -0.030367203, -76796.37, -76796.37, 0.00028702893, 9.998909, 9.999979 
8.55014e+2, 1.24869056e+2, -1558907.3, -1783998.8, 11125.676, -0.08522963, -0.20919529, -1558358.6, 157915.34, 0.0, 10.001619, 9.998728 
8.550125e+2, 1.3487051e+2, -1516797.9, -1705993.8, 42969.402, -0.07440479, 0.031674728, -1507496.1, 110770.48, 0.0, 10.001286, 9.998743 
8.5501015e+2, 1.4487049e+2, -1406277.6, -1444352.6, -65796.82, -0.007774948, 0.09336347, -1356819.5, 163450.5, 0.0, 10.0006275, 10.000189 
8.5500485e+2, 1.5487005e+2, -1397160.5, -1382552.0, -19252.355, -0.12768719, -0.012433516, -1369264.9, 53008.93, 0.0, 10.00001, 10.000232 
8.550014e+2, 1.6486987e+2, -1366370.0, -1360391.5, 33955.035, -0.13984914, -0.025895474, -1329294.4, -5020.6353, 0.0, 9.999736, 9.999849 
8.55e+2, 1.7486963e+2, -1262547.1, -1253831.8, 42953.684, -0.038666584, -0.068623476, -1215015.3, 11258.475, 0.0, 9.999763, 9.999888 
8.5499763e+2, 1.8486941e+2, -1171676.3, -1218826.4, -18814.7, 0.014443497, -0.048642464, -1165088.8, -36813.47, 0.0, 9.999946, 9.9993725 
8.549941e+2, 1.948689e+2, -1010935.0, -1092566.9, -24156.877, 0.006101432, -0.06598405, -1004322.06, 25959.764, 0.0, 10.000382, 9.999357 
8.549908e+2, 2.048686e+2, -869271.06, -937998.9, -8257.874, -0.018122612, -0.041291058, -868292.8, 63991.047, 0.0, 10.000541, 9.999671 
8.5498756e+2, 2.1486808e+2, -790629.75, -845782.44, 40280.598, -0.06982131, -0.091329925, -769390.3, 64894.934, 0.0, 10.000394, 9.999698 
8.549836e+2, 2.2486748e+2, -800625.6, -875374.6, -58615.79, -0.061355375, -0.08362924, -768482.75, -32192.549, 0.0, 9.999981, 9.999019 
8.549791e+2, 2.3486654e+2, -807561.56, -830156.25, -60777.96, 0.0063315732, -0.10805964, -757039.9, -118738.87, 0.0, 9.999272, 9.998998 
8.549754e+2, 2.4486607e+2, -716669.4, -701071.44, 24922.059, 0.015879475, -0.06497965, -682756.56, -142450.25, 0.0, 9.99907, 9.999309 
8.5497254e+2, 2.5486556e+2, -576094.06, -584359.5, 45731.04, -0.033896904, -0.07904985, -534309.4, -91998.74, 0.0, 9.999373, 9.999289 
8.549698e+2, 2.6486468e+2, -460497.97, -547899.5, 28689.148, -0.06499802, -0.061236706, -451922.3, -107602.42, 0.0, 9.999796, 9.998665 
8.54967e+2, 2.7486312e+2, -295966.28, -422894.2, 56330.016, -0.09044264, -0.111289054, -274573.03, -28236.63, 0.0000001292932, 10.000268, 9.998626 
8.549642e+2, 2.8486276e+2, -225503.19, -350707.56, -18847.809, -0.043528933, -0.001038443, -222727.45, -74385.38, 0.0000031613251, 10.000136, 9.998499 
8.549612e+2, 2.948629e+2, -263543.38, -322353.88, -13963.431, 0.06953434, 0.12003508, -260396.42, -210053.11, 0.000030116835, 9.999206, 9.998468 
8.549566e+2, 3.0486175e+2, -240705.27, -243722.86, -17650.45, 0.0026259837, 0.1489062, -224499.25, -224499.25, 0.00012742863, 9.998888, 9.998833 
8.5495347e+2, 3.1485862e+2, -205550.6, -169550.69, 10075.195, 0.027784964, -0.082028694, -166922.8, -166922.8, 0.00031382052, 9.998776, 9.999402 
8.650161e+2, 1.248725e+2, -1443972.1, -1715763.5, 30174.402, -0.0575057, -0.21789318, -1440662.4, 275578.63, 0.00000000000000000000885557, 10.002344, 9.99885 
8.650129e+2, 1.3487384e+2, -1618667.3, -1745208.6, 62302.895, -0.10830569, -0.0034583344, -1593141.4, 25091.992, 0.0, 10.00051, 9.998865 
8.650102e+2, 1.4487402e+2, -1535594.9, -1501717.4, 40594.29, -0.007676834, 0.07043694, -1474669.6, 45564.68, 0.0, 9.999726, 10.000227 
8.650057e+2, 1.5487377e+2, -1345893.0, -1366872.6, -1957.5286, -0.054252632, -0.01296143, -1345712.0, 76524.51, 0.0, 10.00038, 10.000175 
8.6500233e+2, 1.648735e+2, -1241947.9, -1300926.9, 60094.41, -0.057291858, -0.035742555, -1204497.4, 119740.12, 0.0, 10.000604, 9.999827 
8.6500025e+2, 1.7487283e+2, -1167478.6, -1218896.9, 48666.336, -0.015747732, -0.11276135, -1138148.0, 88092.33, 0.0, 10.000452, 9.999796 
8.6499757e+2, 1.8487257e+2, -1160738.9, -1224817.1, 32272.582, 0.012977226, -0.08668435, -1147302.5, -19059.473, 0.0, 10.000093, 9.9992485 
8.649941e+2, 1.9487251e+2, -1153565.6, -1176013.4, 24912.691, 0.013570156, -0.045658942, -1137465.1, -107217.62, 0.0, 9.999492, 9.999202 
8.6499095e+2, 2.0487256e+2, -1023094.2, -961077.8, 68410.79, 0.016678901, -0.00019084687, -916975.8, 15271.245, 0.0, 9.999277, 10.00011 
8.6498815e+2, 2.1487233e+2, -914816.06, -861535.4, 52578.188, 0.011084654, -0.06532152, -829233.56, 5011.3364, 0.0, 9.999356, 10.000087 
8.649841e+2, 2.2487175e+2, -859387.9, -903929.25, -23737.701, 0.0066746147, -0.072526164, -849109.2, -112860.414, 0.0, 9.999589, 9.999009 
8.649786e+2, 2.3487058e+2, -706142.1, -782866.25, -24374.303, 0.00414832, -0.118155934, -699053.6, -60792.527, 0.0, 9.999983, 9.998976 
8.649748e+2, 2.4486983e+2, -565323.5, -640667.4, 107770.89, 0.0043719816, -0.09840777, -488830.03, 51438.348, 0.0, 10.000167, 9.999191 
8.6497265e+2, 2.5486904e+2, -467191.25, -545251.6, 80437.555, 0.0082678795, -0.12684198, -416814.75, 25459.748, 0.0, 10.000183, 9.999167 
8.649702e+2, 2.6486817e+2, -427952.4, -512447.22, 78410.055, -0.001593819, -0.109902196, -381132.53, -36849.457, 0.0000000005766255, 9.999943, 9.998835 
8.6496747e+2, 2.7486685e+2, -402417.84, -455841.06, 65764.47, -0.021288091, -0.15166087, -358147.22, -111850.1, 0.000000514823, 9.999465, 9.998784 
8.6496425e+2, 2.8486636e+2, -320859.63, -388950.94, 19306.672, -0.007016205, -0.0621323, -315766.34, -167463.2, 0.0000054394536, 9.999454, 9.998572 
8.6496055e+2, 2.9486626e+2, -158744.97, -259239.36, 12858.249, 0.058896285, 0.030193176, -157125.84, -106820.37, 0.000035908153, 9.9998865, 9.998577 
8.649561e+2, 3.0486542e+2, -119620.984, -229785.16, 48716.164, 0.019784624, 0.10205718, -101168.72, -101168.72, 0.00014009468, 9.999889, 9.9984455 
8.6495316e+2, 3.1486288e+2, -201805.17, -174534.64, 5717.636, 0.12919252, -0.03260634, -173384.38, -173384.38, 0.00033844914, 9.998847, 9.99932 
8.750179e+2, 1.2487853e+2, -1364650.5, -1550572.0, -67201.15, -0.18687685, 0.017426366, -1342904.3, 373284.06, 0.0000000055054987, 10.002336, 9.999986 
8.7501264e+2, 1.3487753e+2, -1542831.1, -1575131.3, 4468.684, -0.21387707, -0.122948155, -1542224.3, 75970.79, 0.0, 10.00047, 10.00004 
8.750096e+2, 1.448772e+2, -1598786.0, -1628854.8, 45374.348, -0.080787085, -0.11592002, -1566020.1, -45821.48, 0.0, 9.999705, 9.999367 
8.7500685e+2, 1.5487814e+2, -1408285.9, -1484242.0, 37737.89, -0.004393331, -0.00007414194, -1392724.4, 29469.043, 0.0, 10.000344, 9.999378 
8.7500346e+2, 1.6487814e+2, -1238003.3, -1288802.4, 39306.418, -0.031948946, 0.040389586, -1216604.0, 107589.36, 0.0, 10.000571, 9.999933 
8.7499964e+2, 1.7487708e+2, -1161935.0, -1203522.1, 56939.758, -0.1510437, -0.08876269, -1122110.9, 104088.89, 0.0, 10.000432, 9.999911 
8.749965e+2, 1.8487689e+2, -1160008.3, -1206855.6, -4932.0254, -0.13417794, -0.06817178, -1159494.6, -31293.514, 0.0, 10.000024, 9.999406 
8.7499386e+2, 1.948771e+2, -1156558.4, -1152624.4, 18035.438, 0.012448691, -0.017798131, -1136449.0, -106246.7, 0.0, 9.999371, 9.999417 
8.7499094e+2, 2.0487732e+2, -1047729.06, -976583.3, 57314.37, 0.06360347, 0.032982178, -944699.75, -12498.679, 0.0, 9.999116, 10.000086 
8.749877e+2, 2.1487728e+2, -941221.9, -875894.25, 68061.35, 0.0063134604, -0.011028715, -833064.56, 1135.2515, 0.0, 9.99918, 10.000073 
8.749836e+2, 2.2487678e+2, -862357.0, -866856.2, -24420.186, -0.020209735, -0.0265639, -840083.0, -103880.25, 0.0, 9.9994, 9.999356 
8.749786e+2, 2.3487544e+2, -711061.56, -743166.6, 6422.6484, -0.025725143, -0.12368134, -709824.4, -71610.92, 0.0, 9.999771, 9.99935 
8.7497485e+2, 2.4487446e+2, -610297.44, -703657.4, 93767.82, -0.0370089, -0.12683417, -552232.8, -12011.629, 0.0, 10.000025, 9.998833 
8.7497234e+2, 2.5487354e+2, -513528.8, -608789.6, 97559.67, -0.065485016, -0.13216552, -452593.38, -10364.735, 0.0, 10.000041, 9.998799 
8.7497e+2, 2.6487264e+2, -434120.1, -514629.25, 46249.813, -0.042528197, -0.099603094, -413060.13, -68822.555, 0.0000000691861, 9.9998865, 9.998849 
8.749679e+2, 2.748713e+2, -415923.97, -457464.94, 64570.19, 0.03911094, -0.15484312, -368865.84, -122613.305, 0.000001269736, 9.999349, 9.998827 
8.749645e+2, 2.8487012e+2, -303396.63, -342010.8, 20354.11, 0.036913015, -0.15288113, -294649.25, -146385.75, 0.000008255043, 9.999398, 9.99893 
8.749596e+2, 2.9486865e+2, -137459.38, -210088.19, 50692.44, -0.06697935, -0.22828083, -111416.27, -61140.992, 0.000042714033, 9.999852, 9.99894 
8.7495536e+2, 3.0486786e+2, -156120.3, -287125.8, 6520.9224, -0.06557452, -0.1546138, -155796.52, -155796.52, 0.00015288098, 9.999819, 9.99808 
8.749525e+2, 3.148668e+2, -204516.06, -165536.73, 2120.4287, 0.10294359, -0.098937176, -165421.73, -165421.73, 0.00035815634, 9.998775, 9.99942 
8.8501966e+2, 1.2488378e+2, -1652399.0, -1675931.9, -2796.593, -0.1248869, 0.10768054, -1652071.1, 64069.215, 0.00000006865043, 10.000295, 10.000119 
8.850133e+2, 1.348822e+2, -1489754.8, -1547040.0, -80407.516, -0.19804464, -0.09218686, -1433040.8, 185110.9, 0.0, 10.000806, 10.000082 
8.850098e+2, 1.4488159e+2, -1448389.1, -1563400.9, 18970.676, -0.0744761, -0.1110207, -1445340.8, 74816.14, 0.0, 10.0007925, 9.999278 
8.850075e+2, 1.5488233e+2, -1372431.0, -1479513.8, 30411.443, 0.023698313, -0.0027048625, -1364397.0, 57755.617, 0.0, 10.000652, 9.999252 
8.850043e+2, 1.6488239e+2, -1280224.5, -1306681.4, 64552.734, 0.012258529, 0.047894485, -1227558.8, 96593.336, 0.0, 10.0002775, 9.999952 
8.85e+2, 1.7488173e+2, -1273569.6, -1256594.8, 44880.875, -0.11375461, -0.041057948, -1219405.9, 6749.755, 0.0, 9.999664, 9.999921 
8.8499653e+2, 1.8488158e+2, -1190495.3, -1163289.3, 29596.92, -0.097508326, -0.042046428, -1144319.0, -16163.4375, 0.0, 9.999559, 9.999929 
8.849939e+2, 1.9488145e+2, -1032648.8, -1038200.2, 47818.246, 0.054121178, -0.07739358, -987525.75, 42630.84, 0.0, 9.999976, 9.999916 
8.8499075e+2, 2.048818e+2, -928004.44, -933901.1, 122078.34, 0.09057583, -0.030372607, -808838.8, 123314.7, 0.0, 10.000008, 9.9999485 
8.8498706e+2, 2.1488245e+2, -881652.2, -865881.9, 97895.77, 0.006984495, 0.01158644, -775554.2, 58594.105, 0.0, 9.999668, 9.999913 
8.8498336e+2, 2.248821e+2, -780222.0, -846793.8, 41038.07, -0.008879782, 0.027064845, -760667.8, -24516.316, 0.0, 10.000044, 9.999177 
8.8497955e+2, 2.3488034e+2, -523279.03, -678325.4, -3620.5237, 0.03728886, -0.09534497, -523194.53, 114972.22, 0.0, 10.001156, 9.999129 
8.8497597e+2, 2.4487919e+2, -450679.97, -629558.2, 58488.52, 0.021801824, -0.10235416, -433253.47, 106922.86, 0.0, 10.00114, 9.998796 
8.849723e+2, 2.5487825e+2, -510207.25, -613747.5, 55196.777, -0.07167798, -0.10871457, -486301.56, -44117.742, 0.00000000006372724, 10.000071, 9.998752 
8.849695e+2, 2.6487744e+2, -501671.88, -535702.4, 56198.62, -0.055152126, -0.06871976, -459969.13, -115777.39, 0.00000025387644, 9.999383, 9.99894 
8.849675e+2, 2.7487642e+2, -431964.78, -454309.53, 44797.71, 0.086530745, -0.09796573, -396967.28, -150763.83, 0.0000021793016, 9.999192, 9.99892 
8.849643e+2, 2.8487515e+2, -319318.25, -330935.97, 57116.926, 0.099132255, -0.11848593, -267715.56, -119500.695, 0.000011106664, 9.999225, 9.99907 
8.8495964e+2, 2.9487324e+2, -171292.94, -210405.64, 37022.586, -0.024355311, -0.25157636, -148978.98, -98749.03, 0.000049522223, 9.999556, 9.999072 
8.849555e+2, 3.0487216e+2, -118006.05, -279219.06, 1672.5255, -0.035721898, -0.20752683, -117988.7, -117988.7, 0.00016467013, 10.000128, 9.9979925 
8.849518e+2, 3.1487262e+2, 46663.19, -48006.43, -33055.0, 0.07824478, 0.012742846, 57062.402, 57062.402, 0.00037312726, 10.00053, 9.999391 
8.950205e+2, 1.2488814e+2, -1729065.5, -1814160.4, -19671.21, -0.13737461, 0.046382453, -1724738.3, -8640.017, 0.00000033567557, 10.000232, 9.9991865 
8.950145e+2, 1.3488819e+2, -1566667.6, -1697944.4, -54053.883, -0.18801789, 0.11605151, -1547275.4, 70824.375, 0.00000000007521531, 10.000787, 9.999045 
8.950103e+2, 1.4488758e+2, -1409066.4, -1477721.0, -5271.7446, -0.14366502, 0.11874919, -1408663.9, 111441.14, 0.0, 10.00077, 9.999881 
8.950073e+2, 1.5488654e+2, -1335075.0, -1394857.4, 43222.223, -0.10069287, -0.0096633015, -1312414.8, 109697.125, 0.0, 10.000625, 9.999846 
8.9500415e+2, 1.6488633e+2, -1293880.4, -1328160.3, 25390.256, -0.061718404, -0.008204705, -1280386.3, 43726.082, 0.0, 10.000247, 9.999819 
8.9500093e+2, 1.7488676e+2, -1290829.5, -1274519.9, 37431.9, -0.01703175, 0.022611434, -1244364.8, -18256.85, 0.0, 9.999596, 9.999827 
8.9499736e+2, 1.8488672e+2, -1146126.5, -1048969.3, 30990.754, 0.0046176985, -0.007186821, -1039925.75, 88179.48, 0.0, 9.9994545, 10.000767 
8.949936e+2, 1.9488576e+2, -995819.2, -926713.6, 76866.96, -0.000060971524, -0.21066868, -876990.56, 153117.8, 0.0, 9.999826, 10.0007515 
8.949897e+2, 2.0488623e+2, -966336.6, -982464.56, 95085.71, -0.036166757, -0.17993076, -878973.56, 53128.91, 0.0, 9.999867, 9.999686 
8.949858e+2, 2.148879e+2, -927436.94, -914464.3, 102838.28, -0.11021524, -0.009487532, -817908.0, 16182.145, 0.0, 9.999472, 9.999671 
8.94983e+2, 2.2488779e+2, -864153.75, -979504.6, 69788.71, -0.075472884, 0.082577415, -831292.4, -95197.98, 0.0, 9.999855, 9.998363 
8.9498127e+2, 2.3488548e+2, -605852.9, -806214.5, 52579.813, 0.06204812, -0.015871715, -592892.94, 45226.055, 0.0, 10.000967, 9.998342 
8.949777e+2, 2.4488412e+2, -449837.13, -596324.4, 3620.9158, 0.049380925, -0.019228054, -449747.7, 90384.76, 0.0, 10.001002, 9.999093 
8.94972e+2, 2.548833e+2, -516534.38, -582776.0, 30711.516, -0.12831871, -0.044286747, -504486.78, -62348.203, 0.0000000002378373, 9.999885, 9.999057 
8.9496815e+2, 2.6488283e+2, -504455.94, -517965.03, 36704.023, -0.15243936, 0.006512099, -473890.13, -129747.4, 0.00000030747992, 9.999281, 9.99911 
8.94966e+2, 2.7488235e+2, -441535.84, -446755.84, 58210.523, -0.016191509, 0.021842051, -385876.84, -139728.05, 0.0000026197797, 9.99908, 9.999027 
8.949633e+2, 2.8488144e+2, -336897.63, -360042.94, 55504.76, 0.040143482, 0.040412806, -291771.9, -143614.44, 0.000013171274, 9.999183, 9.998892 
8.949601e+2, 2.9487988e+2, -192366.66, -238364.72, 65814.82, 0.02422346, -0.046631873, -145648.08, -95476.93, 0.000055655084, 9.999476, 9.9989195 
8.949561e+2, 3.0487832e+2, -120984.14, -254409.13, 6714.4155, -0.0155185135, -0.054657217, -120647.09, -120647.09, 0.00017580122, 10.000015, 9.998209 
8.949499e+2, 3.1487855e+2, 22142.96, -54197.336, 36762.684, -0.23056322, 0.120127514, 36967.67, 36967.67, 0.00038747952, 10.000363, 9.999414 
9.0502137e+2, 1.24892406e+2, -1597011.5, -1766618.5, -15426.304, -0.10676537, 0.024202164, -1595619.9, 120437.28, 0.0000010657902, 10.001165, 9.999076 
9.0501595e+2, 1.3489272e+2, -1579486.5, -1734408.9, -39496.3, -0.11490399, 0.14139847, -1569998.4, 48058.543, 0.000000007369457, 10.000806, 9.998793 
9.050114e+2, 1.4489217e+2, -1468971.4, -1490231.9, 47629.703, -0.07256396, 0.1521969, -1430800.0, 89261.44, 0.0, 10.00027, 10.000038 
9.050075e+2, 1.5489085e+2, -1440158.6, -1428458.9, 26682.154, -0.09202528, -0.023846509, -1406992.9, 15076.675, 0.0, 9.999811, 10.000014 
9.0500414e+2, 1.6489059e+2, -1376143.5, -1368105.4, 35302.99, -0.049714353, -0.03291199, -1336593.4, -12523.433, 0.0, 9.999684, 9.999824 
9.0500146e+2, 1.748911e+2, -1247925.9, -1253835.4, 21309.033, 0.06932697, 0.0059681316, -1229367.8, -3301.939, 0.0, 9.999886, 9.999833 
9.049978e+2, 1.8489116e+2, -1117754.1, -1043527.2, 17013.367, 0.096172206, -0.01005133, -1039813.4, 88248.97, 0.0, 9.999672, 10.000701 
9.049931e+2, 1.9489044e+2, -1108178.9, -992865.0, -30218.795, 0.0169793, -0.18291913, -985425.9, 44637.125, 0.0, 9.999075, 10.0006695 
9.04989e+2, 2.0489064e+2, -1091873.5, -1045713.0, -3323.612, -0.04561745, -0.17324688, -1045474.94, -113415.73, 0.0, 9.9990225, 9.999649 
9.0498537e+2, 2.1489146e+2, -918435.25, -915866.4, -15184.554, -0.097427405, -0.085495785, -901912.0, -67857.664, 0.0, 9.999556, 9.999617 
9.049829e+2, 2.2489138e+2, -852014.7, -933216.6, 50337.145, -0.059106883, -0.004632322, -827945.2, -91887.664, 0.0, 9.9997835, 9.998713 
9.0498155e+2, 2.3489003e+2, -753781.2, -838996.6, 92360.95, 0.06614453, -0.037811197, -694673.8, -56601.645, 0.0, 9.999796, 9.998681 
9.049782e+2, 2.4488899e+2, -625047.4, -692563.6, 60994.805, 0.068909824, -0.019761562, -589092.0, -49008.91, 0.0, 9.999854, 9.9989805 
9.049726e+2, 2.5488797e+2, -510488.4, -590172.1, 22769.148, -0.05671217, -0.05567781, -504441.2, -62348.07, 0.0, 9.99998, 9.998953 
9.049685e+2, 2.648874e+2, -400173.2, -483235.66, 48337.867, -0.07864153, -0.0033293131, -377975.38, -33876.063, 0.0000002007212, 10.000073, 9.998968 
9.049658e+2, 2.7488688e+2, -288734.34, -383650.03, 17601.152, 0.013875588, 0.019927114, -285575.53, -39469.977, 0.0000025589381, 10.000183, 9.998924 
9.049628e+2, 2.848861e+2, -232740.55, -321279.38, 41121.555, 0.039662417, 0.06075243, -216588.42, -68474.78, 0.000014749117, 9.999937, 9.998811 
9.0495926e+2, 2.9488492e+2, -235417.45, -261928.42, 26285.396, 0.019011302, 0.027518772, -219234.36, -169110.03, 0.00006245814, 9.999206, 9.998891 
9.049557e+2, 3.0488354e+2, -190439.03, -228492.67, 43586.426, -0.008620043, 0.009194304, -161907.52, -161907.52, 0.00018874744, 9.999265, 9.998761 
9.049503e+2, 3.148832e+2, -51741.508, -75192.45, 54441.098, -0.17758666, 0.07879948, -7777.4834, -7777.4834, 0.0004049675, 9.999752, 9.999588 
9.1502106e+2, 1.2489696e+2, -1544914.6, -1652723.9, -76879.234, -0.3194253, 0.06983747, -1504925.0, 211088.56, 0.000002613721, 10.00116, 9.999855 
9.1501707e+2, 1.3489582e+2, -1535661.6, -1634717.5, -43041.383, -0.11063462, -0.026172824, -1519572.8, 98450.266, 0.00000007607973, 10.00078, 9.999484 
9.150128e+2, 1.4489518e+2, -1496700.9, -1537135.4, 11887.916, -0.009598925, -0.040722903, -1493464.8, 26562.764, 0.0, 10.000224, 9.999739 
9.1500777e+2, 1.5489537e+2, -1462578.6, -1468896.5, 25932.87, -0.08507754, -0.036762472, -1439613.0, -17588.996, 0.0, 9.999791, 9.9997425 
9.150038e+2, 1.6489543e+2, -1373725.4, -1359169.8, 24661.426, -0.087512575, -0.006528124, -1340734.8, -16712.191, 0.0, 9.999663, 9.999895 
9.150011e+2, 1.7489493e+2, -1248557.3, -1247382.4, 43561.094, 0.011706494, -0.07613878, -1204404.8, 21622.354, 0.0, 9.999848, 9.999896 
9.149973e+2, 1.8489505e+2, -1193726.8, -1183059.9, -18453.297, 0.040573444, -0.04297452, -1169184.8, -41159.293, 0.0, 9.999593, 9.999783 
9.149922e+2, 1.948956e+2, -1196578.1, -1140827.8, -36242.26, -0.013830376, 0.005156348, -1122980.6, -92960.875, 0.0, 9.998929, 9.999723 
9.1498816e+2, 2.0489517e+2, -1110531.8, -1045737.0, 3152.7925, -0.059085198, -0.0048414734, -1045583.94, -113561.13, 0.0, 9.998856, 9.999728 
9.149853e+2, 2.1489331e+2, -942718.44, -918854.0, 17616.723, -0.084295966, -0.19448556, -909508.9, -75469.74, 0.0, 9.999355, 9.999689 
9.149826e+2, 2.2489296e+2, -768013.8, -726753.7, 33966.875, -0.09087561, -0.21782458, -707642.75, 28397.096, 0.0, 9.999633, 10.000208 
9.149802e+2, 2.3489395e+2, -676615.4, -633798.56, 109410.97, -0.077525854, -0.16928129, -543721.2, 94305.41, 0.0, 9.999601, 10.000183 
9.149772e+2, 2.4489391e+2, -685262.3, -782577.5, 52659.707, -0.045541342, -0.1018936, -662221.9, -122194.734, 0.0, 9.999697, 9.998442 
9.1497356e+2, 2.5489232e+2, -570127.44, -685644.5, 43663.047, 0.0077842446, -0.13244353, -555480.8, -113434.31, 0.0, 9.999848, 9.998366 
9.1497e+2, 2.648911e+2, -440897.84, -546974.75, 38643.434, 0.03559609, -0.09666998, -428313.2, -84251.97, 0.00000011562638, 9.999991, 9.998567 
9.149667e+2, 2.7488983e+2, -331915.63, -447103.28, 39132.18, 0.044701952, -0.10747715, -319879.16, -73804.53, 0.0000025826089, 10.000073, 9.998542 
9.1496235e+2, 2.8488904e+2, -241539.84, -316850.28, -1736.531, -0.02804026, -0.053615183, -241499.81, -93416.68, 0.000017159802, 9.999847, 9.998881 
9.149568e+2, 2.948885e+2, -246773.0, -268011.84, 18997.738, -0.1911067, -0.0314321, -235628.1, -185539.58, 0.00007135739, 9.999132, 9.998886 
9.1495377e+2, 3.0488774e+2, -149204.81, -118305.84, 55263.145, -0.15465228, -0.021504773, -76373.26, -76373.26, 0.00020564985, 9.999171, 9.999551 
9.14952e+2, 3.148871e+2, -36532.168, 3112.6816, 137058.02, -0.058443006, -0.07391269, 121774.29, 121774.29, 0.00042848263, 9.999579, 10.00019 
9.2502224e+2, 1.249022e+2, -1726526.9, -1712457.8, 86652.195, -0.24114393, 0.025785498, -1632555.1, 83402.24, 0.0000053718704, 9.9998, 10.000103 
9.250183e+2, 1.3490097e+2, -1540404.9, -1604889.9, 39332.44, -0.046026416, -0.110951096, -1521788.6, 96177.46, 0.00000033393198, 10.00061, 9.9997835 
9.250136e+2, 1.4490026e+2, -1438380.1, -1537074.8, 100425.42, 0.038938135, -0.13178769, -1375832.8, 144139.13, 0.0, 10.0007515, 9.999484 
9.2500806e+2, 1.5490092e+2, -1369659.6, -1457701.8, 79580.24, -0.06439346, -0.05520621, -1322736.4, 99230.82, 0.0, 10.000573, 9.999442 
9.2500365e+2, 1.6490094e+2, -1302511.0, -1325039.8, 113540.24, -0.08060795, -0.0138702765, -1199677.8, 124289.34, 0.0, 10.000149, 9.999889 
9.2500055e+2, 1.7490005e+2, -1296152.4, -1271673.1, 93557.766, -0.00013832322, -0.12006311, -1189557.8, 36416.363, 0.0, 9.999529, 9.999882 
9.2499685e+2, 1.8490016e+2, -1214322.3, -1243083.8, 85290.64, 0.041570842, -0.064982995, -1142208.5, -14234.804, 0.0, 9.999677, 9.999331 
9.249923e+2, 1.9490097e+2, -993710.3, -1090670.6, 69545.15, 0.03394085, 0.053326964, -957415.1, 72553.58, 0.0, 10.000533, 9.999291 
9.2498845e+2, 2.0490031e+2, -888887.0, -978012.8, 132367.42, 0.010396314, 0.059930597, -793782.5, 138193.08, 0.0, 10.000546, 9.999387 
9.2498547e+2, 2.1489778e+2, -903193.94, -936080.44, 92843.06, -0.015394797, -0.15932675, -825349.25, 8648.921, 0.0, 9.999778, 9.999375 
9.249825e+2, 2.2489722e+2, -797443.75, -697808.5, 79470.73, -0.04087156, -0.2084246, -653831.75, 82168.29, 0.0, 9.999238, 10.000594 
9.2497945e+2, 2.3489845e+2, -750971.94, -629422.5, 35707.29, -0.07065799, -0.1751619, -619709.06, 18273.64, 0.0, 9.998899, 10.000555 
9.249766e+2, 2.448986e+2, -739634.7, -793737.8, 23124.209, -0.04555291, -0.112343155, -731098.1, -191117.53, 0.0, 9.999267, 9.998576 
9.249739e+2, 2.5489727e+2, -469661.28, -617125.0, 36233.496, 0.035778206, -0.13046357, -461239.3, -19241.693, 0.0, 10.00047, 9.998535 
9.249704e+2, 2.6489595e+2, -355729.16, -532252.44, 54878.75, 0.05379412, -0.102924414, -340059.13, 3953.818, 0.00000007319143, 10.00066, 9.998359 
9.2496634e+2, 2.7489418e+2, -396139.56, -502489.97, 44670.297, 0.028741926, -0.1472988, -379866.66, -133836.22, 0.0000027897247, 9.999712, 9.998344 
9.2496204e+2, 2.8489304e+2, -269736.22, -357660.28, 57616.96, -0.029690864, -0.10179403, -241224.97, -93182.84, 0.000020180585, 9.999772, 9.99863 
9.249574e+2, 2.9489246e+2, -2534.539, -179179.81, 17304.469, -0.12059078, -0.060472637, -855.327, 49194.145, 0.00008285034, 10.000929, 9.998623 
9.249542e+2, 3.0489182e+2, 71999.125, -17140.443, 7426.914, -0.094481, -0.026675386, 72613.68, 72613.68, 0.0002292469, 10.000669, 9.99954 
9.2495173e+2, 3.148901e+2, -183343.48, -62407.34, -11640.101, 0.025166556, -0.19064197, -61297.17, -61297.17, 0.0004645645, 9.998505, 10.000275 
9.350236e+2, 1.2490796e+2, -1753151.5, -1742254.6, 71551.48, -0.14904208, -0.13453072, -1675944.5, 39945.793, 0.000009857008, 9.999716, 9.999929 
9.35019e+2, 1.3490832e+2, -1537500.3, -1600904.4, 80263.54, -0.062481623, -0.11287628, -1482904.9, 134979.64, 0.0000009955157, 10.000639, 9.999784 
9.3501365e+2, 1.4490767e+2, -1460058.0, -1586762.1, 76547.055, -0.073523834, -0.11163865, -1424047.5, 95844.79, 0.00000000002439963, 10.00077, 9.999139 
9.3500805e+2, 1.5490748e+2, -1397567.1, -1502997.6, 88580.164, -0.15909657, -0.08298991, -1347203.0, 74695.914, 0.0, 10.000524, 9.999155 
9.3500334e+2, 1.6490717e+2, -1314031.8, -1338367.5, 71955.63, -0.15872236, -0.059893224, -1253222.4, 70680.83, 0.0, 10.000094, 9.999829 
9.349996e+2, 1.7490657e+2, -1303629.8, -1283650.4, 85801.41, -0.08607973, -0.13091068, -1207259.1, 18647.182, 0.0, 9.999507, 9.999814 
9.3499607e+2, 1.8490654e+2, -1231232.4, -1259261.3, 105395.82, -0.027385678, -0.080782615, -1138923.4, -11016.649, 0.0, 9.9995985, 9.99926 
9.34993e+2, 1.949066e+2, -1016782.2, -1111291.3, 115902.69, 0.02158864, -0.030004136, -938871.1, 91038.484, 0.0, 10.000417, 9.999209 
9.349895e+2, 2.0490614e+2, -952811.3, -1080475.4, 88965.914, 0.0298839, 0.032254152, -907146.94, 24769.98, 0.0, 10.000412, 9.998749 
9.349855e+2, 2.149049e+2, -977041.94, -1050092.4, 80292.52, -0.007559669, 0.008476227, -925357.3, -91425.89, 0.0, 9.9996, 9.998683 
9.3498206e+2, 2.2490416e+2, -883856.06, -828362.7, 53417.094, -0.028673967, 0.017016008, -795915.8, -59977.727, 0.0, 9.99903, 9.999797 
9.3497896e+2, 2.3490357e+2, -834710.75, -759580.4, 36565.65, -0.034790203, -0.05234263, -744722.4, -106782.09, 0.0, 9.998711, 9.999755 
9.34976e+2, 2.4490316e+2, -702902.4, -685079.0, 52422.45, -0.061851997, -0.045455456, -640816.1, -100873.484, 0.0, 9.9991255, 9.999392 
9.3497324e+2, 2.5490266e+2, -431956.3, -511922.84, 97601.67, -0.10180944, -0.06551873, -366465.66, 75482.54, 0.0, 10.000342, 9.999328 
9.349694e+2, 2.6490173e+2, -368183.3, -523975.38, 9788.273, -0.13778193, -0.039454255, -367570.72, -23614.57, 0.00000003612581, 10.000525, 9.998473 
9.3496436e+2, 2.7489996e+2, -412094.28, -502183.72, 27839.883, -0.16898912, -0.09212267, -404185.38, -158213.88, 0.0000027030533, 9.99958, 9.9984045 
9.349615e+2, 2.848983e+2, -321428.53, -451823.5, 89428.67, -0.095251404, -0.07184323, -275954.44, -127966.07, 0.000022488803, 9.999706, 9.998017 
9.3496084e+2, 2.9489678e+2, -53509.17, -278217.66, 83281.875, 0.08266709, -0.066338636, -26008.68, 23998.379, 0.00009525127, 10.000889, 9.997966 
9.3495655e+2, 3.0489567e+2, 6379.3237, -136448.19, -79348.95, 0.044613507, -0.006367622, 41718.46, 41718.46, 0.00025879213, 10.000613, 9.998743 
9.3494856e+2, 3.1489277e+2, -233689.66, -129020.56, -37814.434, -0.20550673, -0.20750365, -116788.586, -116788.586, 0.0005142612, 9.998362, 9.999879 
9.4502455e+2, 1.2491255e+2, -1679245.6, -1680955.0, -68071.234, -0.030410338, -0.17490743, -1612023.8, 103819.81, 0.000016753027, 10.00008, 10.000184 
9.4501907e+2, 1.3491346e+2, -1684677.9, -1649991.4, -91391.586, -0.056389704, -0.122844405, -1574312.0, 43520.973, 0.000002343361, 9.999515, 9.999997 
9.4501334e+2, 1.4491312e+2, -1690408.8, -1675101.6, -37342.465, -0.08469819, -0.11174822, -1644636.5, -124798.64, 0.0000000053592455, 9.999083, 9.999348 
9.45008e+2, 1.5491313e+2, -1588589.3, -1582187.8, -21764.822, -0.1353157, -0.08376346, -1563389.6, -141547.02, 0.0, 9.999135, 9.999294 
9.4500345e+2, 1.6491283e+2, -1392104.1, -1386892.6, 21579.955, -0.122028515, -0.05682287, -1367761.8, -43915.246, 0.0, 9.999612, 9.9997225 
9.449997e+2, 1.7491214e+2, -1163783.9, -1229189.4, -1261.0153, -0.06409461, -0.12863535, -1163759.5, 62091.26, 0.0, 10.000527, 9.99969 
9.449962e+2, 1.8491188e+2, -1099831.4, -1195572.8, 40317.35, -0.018292062, -0.09547353, -1085115.4, 42738.316, 0.0, 10.000521, 9.999236 
9.4499296e+2, 1.9491166e+2, -1130441.4, -1165862.3, 25722.701, 0.023816964, -0.07051421, -1116921.8, -87062.06, 0.0, 9.9996605, 9.999184 
9.449895e+2, 2.0491147e+2, -1065225.4, -1117817.1, 55817.316, 0.04029048, 0.010444313, -1029820.0, -97955.57, 0.0, 9.99955, 9.998913 
9.4498575e+2, 2.1491112e+2, -898121.9, -990149.44, 80511.67, 0.035023954, 0.055400804, -851402.75, -17532.688, 0.0, 10.000043, 9.998877 
9.449821e+2, 2.2491032e+2, -749455.6, -836419.75, 125340.79, 0.020402823, 0.0817157, -660268.94, 75609.14, 0.0, 10.000289, 9.999127 
9.449788e+2, 2.3490871e+2, -641125.1, -739029.8, 89594.29, 0.0010780705, -0.02006382, -587982.06, 49909.87, 0.0, 10.000372, 9.999088 
9.4497573e+2, 2.4490795e+2, -560281.2, -610120.94, 123362.17, -0.04143162, -0.0185621, -459347.06, 80551.65, 0.0, 10.000078, 9.999443 
9.449731e+2, 2.5490773e+2, -568713.5, -565353.1, 83294.336, -0.09247637, -0.014670762, -483722.06, -41821.438, 0.0, 9.9993515, 9.999426 
9.449695e+2, 2.6490694e+2, -473296.3, -544470.75, -1801.1843, -0.12901832, 0.0016451547, -473250.75, -129344.27, 0.000000027783642, 9.999665, 9.998751 
9.449648e+2, 2.749051e+2, -183776.83, -360576.25, -1606.7943, -0.13759612, -0.084352076, -183762.22, 62158.656, 0.000002329391, 10.001006, 9.998696 
9.4496214e+2, 2.849034e+2, -169129.6, -401924.72, 96109.62, -0.050162625, -0.07135299, -134578.66, 13359.407, 0.000023981273, 10.000863, 9.997806 
9.4496137e+2, 2.949018e+2, -336287.25, -439267.97, 88287.28, 0.14677961, -0.049919114, -285572.4, -235613.19, 0.00010679835, 9.999063, 9.997745 
9.4495654e+2, 3.0490038e+2, -265539.16, -296762.38, -7932.4346, 0.0854331, 0.010490003, -263639.47, -263639.47, 0.00028981623, 9.998892, 9.998469 
9.449486e+2, 3.1489772e+2, 31061.707, 10437.601, 13470.948, -0.10606071, -0.14199339, 37714.465, 37714.465, 0.00057081727, 10.000141, 9.999981 
9.5502394e+2, 1.24916136e+2, -1657356.1, -1613780.8, -134144.83, -0.16952163, -0.09205286, -1499665.8, 216149.61, 0.00002677623, 10.000019, 10.000654 
9.550179e+2, 1.3491648e+2, -1661217.6, -1582481.8, -100617.41, -0.1501878, -0.14415555, -1513804.8, 104005.37, 0.0000047533053, 9.999457, 10.00047 
9.550124e+2, 1.4491661e+2, -1650848.3, -1582083.1, -56065.492, -0.1359199, -0.14562564, -1550697.1, -30888.336, 0.000000046136613, 9.999025, 10.000019 
9.5500743e+2, 1.5491797e+2, -1536123.0, -1480284.1, -5598.7954, -0.13947266, -0.051405866, -1479728.4, -57931.492, 0.0, 9.999165, 9.999978 
9.5500356e+2, 1.6491818e+2, -1408435.9, -1418423.3, 41137.168, -0.11116598, 0.0023256787, -1371990.4, -48195.563, 0.0, 9.999602, 9.999512 
9.550007e+2, 1.7491688e+2, -1184861.6, -1261558.9, 47397.207, -0.053049777, -0.10877564, -1162242.1, 63564.54, 0.0, 10.000481, 9.99949 
9.549967e+2, 1.8491627e+2, -1105956.8, -1198987.3, -6618.686, -0.047309626, -0.10183157, -1105488.3, 22325.678, 0.0, 10.000466, 9.999246 
9.5499176e+2, 1.9491602e+2, -1141860.9, -1170663.8, 7631.925, -0.09725246, -0.07998937, -1139963.6, -110143.6, 0.0, 9.999568, 9.999199 
9.549881e+2, 2.0491618e+2, -1015380.75, -977845.6, 57348.574, -0.079824105, -0.015551182, -936271.8, -4452.838, 0.0, 9.999394, 9.9999485 
9.549856e+2, 2.1491642e+2, -856484.0, -854570.06, 111837.055, -0.0031102963, -0.015631814, -743685.9, 90128.16, 0.0, 9.999832, 9.99991 
9.549824e+2, 2.2491576e+2, -813352.7, -922511.56, 113758.164, -0.005353698, -0.0047711777, -741758.3, -5938.9614, 0.0, 10.000089, 9.998632 
9.5497847e+2, 2.3491378e+2, -707523.9, -833376.2, 109654.49, -0.08881613, -0.088975765, -644022.94, -6184.2925, 0.0, 10.000181, 9.998535 
9.5497537e+2, 2.4491283e+2, -634437.06, -720012.1, 83736.34, -0.11142703, -0.045449883, -583189.75, -43340.254, 0.0, 9.999898, 9.998768 
9.5497304e+2, 2.5491253e+2, -640169.94, -680207.75, 71641.14, -0.07102584, 0.017136201, -585803.3, -143948.13, 0.0, 9.99921, 9.998701 
9.549704e+2, 2.6491153e+2, -462761.63, -490705.25, 34887.367, -0.034175415, 0.030022297, -439152.3, -95288.49, 0.000000030362223, 9.9995365, 9.99918 
9.5496744e+2, 2.7490944e+2, -169665.08, -304191.75, 69167.805, -0.012784189, -0.12862888, -140447.63, 105431.85, 0.000002140531, 10.000896, 9.999133 
9.549635e+2, 2.849081e+2, -167986.31, -377228.53, 15559.978, -0.02524378, -0.111249, -166835.55, -18942.549, 0.000025889522, 10.00077, 9.998019 
9.5495856e+2, 2.9490745e+2, -335527.2, -415962.53, 41485.176, -0.074871965, -0.01614578, -317965.28, -268059.3, 0.00011778403, 9.998972, 9.997945 
9.549539e+2, 3.049062e+2, -261824.61, -271919.72, 36482.367, -0.09640476, 0.03761697, -230042.28, -230042.28, 0.00031950467, 9.998812, 9.998683 
9.5495105e+2, 3.1490433e+2, 58226.035, 84520.61, 99319.38, 0.050591834, -0.055002928, 171559.1, 171559.1, 0.00062882464, 10.000059, 10.000533 
9.65024e+2, 1.24921046e+2, -1813062.4, -1724215.1, 28204.18, -0.09920461, -0.06569402, -1716018.0, -248.2602, 0.000040530904, 9.999061, 10.000382 
9.6501714e+2, 1.3492173e+2, -1654402.0, -1600432.5, -33095.45, -0.16609184, -0.06415346, -1584715.0, 33048.47, 0.000008656152, 9.999576, 10.000306 
9.6501195e+2, 1.4492173e+2, -1509360.1, -1472642.1, 30648.654, -0.1102104, -0.084189326, -1455274.5, 64487.906, 0.00000019058375, 9.999851, 10.000353 
9.650081e+2, 1.5492247e+2, -1353821.9, -1357042.4, 14942.32, -0.04664499, -0.082242824, -1340403.3, 81349.51, 0.0, 10.000294, 10.000268 
9.650041e+2, 1.6492271e+2, -1351021.0, -1384925.4, 73127.27, -0.0297937, -0.042030625, -1292906.8, 30842.758, 0.0, 9.999994, 9.999543 
9.650003e+2, 1.7492212e+2, -1401137.8, -1367474.9, 64703.723, -0.06033296, -0.08436033, -1317449.3, -91693.195, 0.0, 9.999008, 9.999469 
9.6499604e+2, 1.8492165e+2, -1317843.1, -1292728.0, 51030.96, -0.0780623, -0.0668326, -1252732.3, -124969.99, 0.0, 9.998956, 9.999344 
9.6499145e+2, 1.9492099e+2, -1099884.1, -1143991.9, 44722.203, -0.08853945, -0.0927322, -1072073.8, -42302.516, 0.0, 9.999807, 9.999282 
9.649881e+2, 2.0492098e+2, -885886.3, -900628.5, 102818.81, -0.052098747, -0.05487996, -790174.75, 141596.13, 0.0, 10.000259, 10.000045 
9.64986e+2, 2.149213e+2, -772940.75, -802288.6, 50477.895, 0.036476694, -0.057947148, -735047.2, 98716.98, 0.0, 10.00038, 9.999993 
9.6498287e+2, 2.2492057e+2, -762799.94, -909915.56, 54349.348, 0.017692195, -0.049465194, -744899.56, -9130.255, 0.0, 10.00047, 9.998543 
9.6497864e+2, 2.3491852e+2, -663734.56, -815828.6, 54943.563, -0.10020771, -0.13682899, -645962.9, -8173.2935, 0.0, 10.000491, 9.998505 
9.6497554e+2, 2.4491736e+2, -549088.06, -707752.56, 79327.7, -0.10676994, -0.10025168, -516230.8, 23571.76, 0.0, 10.000592, 9.99853 
9.6497375e+2, 2.549169e+2, -432433.56, -608034.9, 72462.05, 0.012945528, -0.027268128, -406393.53, 35416.7, 0.0, 10.000756, 9.998461 
9.649712e+2, 2.6491603e+2, -345239.28, -420501.97, 85794.36, 0.06557319, 0.0070081176, -289186.1, 54632.33, 0.000000012060779, 10.000275, 9.999305 
9.649679e+2, 2.7491438e+2, -433421.53, -420306.6, 63209.266, 0.045972906, -0.11912021, -363315.56, -117484.164, 0.0000023356135, 9.999029, 9.999234 
9.649636e+2, 2.849135e+2, -360784.72, -401711.06, 37438.27, -0.002215783, -0.0926058, -338582.13, -190741.5, 0.000028869204, 9.999155, 9.998618 
9.649583e+2, 2.9491332e+2, -47103.633, -211724.56, 53117.645, -0.07348632, -0.009898689, -31452.387, 18395.17, 0.00012892728, 10.000681, 9.998517 
9.649539e+2, 3.049121e+2, 80593.82, -87782.82, 102988.54, -0.076101854, 0.005567703, 129425.47, 129425.47, 0.00034703137, 10.001064, 9.99886 
9.649526e+2, 3.1491122e+2, 22766.043, 88665.516, 92744.41, 0.22805771, -0.007404057, 154139.4, 154139.4, 0.0006841425, 9.999718, 10.000716 
9.750238e+2, 1.2492696e+2, -1871692.8, -1832599.9, -7307.657, -0.10021658, -0.11226558, -1831278.5, -115568.62, 0.000058506626, 9.999012, 9.999659 
9.7501624e+2, 1.3492927e+2, -1694277.9, -1684946.1, -6021.469, -0.2434373, 0.1159515, -1681994.4, -64302.605, 0.00001444443, 9.999591, 9.999715 
9.7501165e+2, 1.4492874e+2, -1521299.4, -1498732.4, 31225.252, -0.16536884, 0.07785917, -1476814.5, 42881.63, 0.0000005546723, 9.999854, 10.000176 
9.750094e+2, 1.5492673e+2, -1371265.3, -1384534.5, 50274.816, 0.026211487, -0.17709085, -1327189.1, 94520.39, 0.0, 10.00026, 10.000093 
9.7500473e+2, 1.6492647e+2, -1340058.8, -1356152.3, 18524.605, 0.0034334245, -0.18925638, -1327908.8, -4198.7383, 0.0, 9.999959, 9.999762 
9.7499806e+2, 1.749278e+2, -1388737.4, -1337310.4, 39406.24, -0.21173069, -0.060384516, -1315970.4, -90271.19, 0.0, 9.998984, 9.999689 
9.749937e+2, 1.8492801e+2, -1318129.5, -1271580.5, 69925.97, -0.2367215, 0.005033554, -1221157.4, -93458.8, 0.0, 9.998864, 9.999531 
9.749917e+2, 1.9492671e+2, -1104445.6, -1122439.5, 92174.9, -0.07539753, -0.10777338, -1020829.56, 8882.132, 0.0, 9.9996805, 9.999485 
9.7498924e+2, 2.0492603e+2, -974495.94, -1050813.3, 91300.68, 0.012123223, -0.09854313, -913700.6, 18017.549, 0.0, 10.000103, 9.999096 
9.749865e+2, 2.1492565e+2, -865884.44, -956120.44, 69493.23, 0.01993764, -0.07264688, -828147.5, 5573.4946, 0.0, 10.000204, 9.999026 
9.749829e+2, 2.2492471e+2, -762374.56, -864979.4, 38393.723, -0.042030524, -0.057114538, -749598.75, -13869.972, 0.0, 10.000279, 9.99894 
9.749787e+2, 2.349229e+2, -668846.9, -773957.44, 68182.3, -0.1701105, -0.16425242, -635315.7, 2429.4248, 0.0, 10.00027, 9.998895 
9.74976e+2, 2.4492167e+2, -556495.3, -688165.7, 70609.086, -0.14723317, -0.16300368, -525790.8, 13965.945, 0.0, 10.000438, 9.998743 
9.7497493e+2, 2.5492072e+2, -435177.28, -583859.3, 96070.79, 0.026324611, -0.15812637, -388043.28, 53723.53, 0.0, 10.000625, 9.9986925 
9.7497153e+2, 2.649203e+2, -373814.84, -454182.34, 24964.033, 0.044400565, -0.08789343, -366691.78, -22919.395, 0.0000000034767167, 10.000163, 9.999126 
9.749658e+2, 2.7492e+2, -460694.28, -452653.03, 34770.773, -0.09957799, -0.060094867, -421671.2, -175894.48, 0.0000028342504, 9.998921, 9.9990635 
9.74962e+2, 2.849198e+2, -308492.03, -270837.13, 83182.97, -0.115416825, -0.0048114103, -204377.53, -56597.855, 0.000032313746, 9.999066, 9.9995575 
9.7496e+2, 2.9491943e+2, 4727.548, -81368.52, 136494.8, -0.015354868, -0.033657596, 104801.7, 154585.84, 0.0001399921, 10.000591, 9.999452 
9.7495604e+2, 3.0491778e+2, 69830.6, -91004.67, 45090.563, 0.0033037474, -0.104873344, 81609.25, 81609.25, 0.00037284024, 10.000979, 9.998883 
9.749521e+2, 3.1491753e+2, -12882.104, 45173.78, 78809.32, 0.13146774, -0.060339663, 100131.14, 100131.14, 0.00073526404, 9.999591, 10.000476 
9.8502356e+2, 1.24932736e+2, -1966115.6, -1853838.8, -32899.695, 0.026517587, -0.059836812, -1844908.8, -129254.914, 0.00008108169, 9.998257, 9.99988 
9.850162e+2, 1.3493437e+2, -1723832.5, -1682514.1, -19263.947, -0.1739828, 0.0818623, -1674926.1, -57286.78, 0.000022462764, 9.999293, 9.999886 
9.8501194e+2, 1.449336e+2, -1574270.9, -1571112.3, 53821.324, -0.10816592, 0.030514967, -1518847.1, 798.79407, 0.0000013019285, 9.999678, 9.999764 
9.850093e+2, 1.5493168e+2, -1475863.8, -1480713.3, 16253.359, 0.034130156, -0.17758979, -1461855.3, -40194.594, 0.0, 9.99973, 9.999684 
9.850046e+2, 1.6493145e+2, -1365013.0, -1358849.9, -15456.351, 0.009971399, -0.17078705, -1346170.9, -22509.1, 0.0, 9.999742, 9.999853 
9.8499775e+2, 1.7493275e+2, -1263917.5, -1264869.4, -32543.172, -0.17245054, -0.05071011, -1231846.8, -6196.1694, 0.0, 9.999791, 9.9998 
9.849936e+2, 1.8493296e+2, -1157846.0, -1203878.5, 48271.086, -0.18006977, 0.013614971, -1127384.8, 264.82318, 0.0, 10.000017, 9.9994335 
9.8499215e+2, 1.9493169e+2, -1017743.8, -1095486.9, 14124.258, -0.026245218, -0.08595465, -1015257.25, 14405.06, 0.0, 10.000347, 9.999349 
9.849899e+2, 2.049307e+2, -935501.5, -1073666.4, 33772.617, 0.04830658, -0.08388376, -927688.06, 3983.71, 0.0, 10.000525, 9.998744 
9.8498696e+2, 2.1492967e+2, -856249.94, -991510.06, 29449.352, 0.03565293, -0.08852541, -850116.25, -16435.166, 0.0, 10.000434, 9.998676 
9.849835e+2, 2.2492862e+2, -717697.5, -839000.8, 44374.27, -0.018588038, -0.07062945, -703197.94, 32492.34, 0.0, 10.000555, 9.998992 
9.849798e+2, 2.3492725e+2, -579097.3, -725154.75, 21399.457, -0.10562015, -0.13619405, -576026.56, 61675.664, 0.0, 10.0008545, 9.998955 
9.849771e+2, 2.4492618e+2, -502465.16, -625618.75, 30047.352, -0.081432834, -0.1381471, -495525.22, 44186.316, 0.0, 10.000666, 9.999055 
9.8497534e+2, 2.5492498e+2, -506269.9, -586684.0, 28932.352, 0.046804212, -0.19120309, -496942.25, -55219.81, 0.0, 9.999996, 9.998978 
9.849715e+2, 2.6492447e+2, -411356.34, -477436.06, -11061.588, 0.040158756, -0.13901205, -409553.84, -65825.39, 0.00000001775074, 9.999935, 9.9990835 
9.8496556e+2, 2.749244e+2, -229027.05, -347972.5, -27997.004, -0.089387804, -0.077872574, -222766.69, 22965.113, 0.000003544514, 10.000541, 9.999013 
9.849619e+2, 2.849244e+2, -128744.06, -185428.2, 36052.793, -0.07963742, -0.0062754843, -111226.81, 36506.9, 0.00003520851, 10.000276, 9.999587 
9.8496056e+2, 2.9492396e+2, -223321.11, -191980.39, -8918.101, 0.07528961, -0.041181907, -189620.42, -139882.69, 0.00014922032, 9.998994, 9.999483 
9.849571e+2, 3.0492195e+2, -107151.55, -156426.4, -69873.95, 0.08668875, -0.15489036, -57698.684, -57698.684, 0.00039592202, 9.999708, 9.999031 
9.8495346e+2, 3.1492168e+2, 345736.34, 189353.14, -98869.71, 0.19911271, -0.12359157, 393596.9, 393596.9, 0.0007798097, 10.002191, 10.0002165 
9.950222e+2, 1.2493841e+2, -1898064.5, -1704466.1, -44116.848, -0.0062891874, 0.09151954, -1694886.9, 20714.057, 0.000108580556, 9.998237, 10.000903 
9.950169e+2, 1.349371e+2, -1659532.8, -1539137.8, 30313.29, -0.07313772, -0.16580501, -1531936.1, 85669.53, 0.000033028722, 9.999265, 10.000873 
9.9501246e+2, 1.4493631e+2, -1621105.9, -1670353.3, 33803.19, -0.07068411, -0.23059143, -1603908.8, -84297.27, 0.0000026281716, 9.999676, 9.999092 
9.950075e+2, 1.5493734e+2, -1516592.1, -1570059.8, 31171.385, -0.15760587, -0.07666439, -1502260.8, -80654.82, 0.00000000019976186, 9.9997425, 9.999071 
9.9500304e+2, 1.649377e+2, -1371385.4, -1360412.8, -29721.994, -0.15375717, 0.018000983, -1335675.0, -12070.695, 0.0, 9.999701, 9.999858 
9.9499905e+2, 1.7493704e+2, -1268119.8, -1265639.5, -15359.417, -0.055292867, -0.0599658, -1251470.3, -25860.402, 0.0, 9.999758, 9.999809 
9.949954e+2, 1.8493648e+2, -1204516.0, -1280615.5, 44958.95, -0.028619546, -0.047944296, -1183666.8, -56051.063, 0.0, 9.999935, 9.998946 
9.949923e+2, 1.9493575e+2, -1067268.9, -1169633.1, 41625.64, -0.07120462, -0.04166633, -1052479.0, -22854.525, 0.0, 10.000229, 9.998895 
9.9498945e+2, 2.0493484e+2, -945318.9, -1048592.3, 13144.128, -0.07236999, -0.023409666, -943672.2, -12039.149, 0.0, 10.000337, 9.999004 
9.949869e+2, 2.1493335e+2, -865257.1, -961270.2, 38657.6, -0.03598586, -0.10249856, -851627.3, -17982.719, 0.0, 10.000231, 9.998977 
9.9498427e+2, 2.2493239e+2, -767326.1, -889876.94, 40716.97, -0.021197613, -0.07913182, -755031.5, -19378.844, 0.0, 10.000334, 9.99875 
9.9498165e+2, 2.3493165e+2, -627123.25, -776087.8, 48783.816, -0.03319356, -0.05661148, -612569.2, 25091.31, 0.0, 10.0006485, 9.998703 
9.949784e+2, 2.4493086e+2, -501401.13, -586896.94, -9757.0205, -0.04191511, -0.03488047, -500301.78, 39365.504, 0.0, 10.000504, 9.9994 
9.949746e+2, 2.5492966e+2, -505070.1, -545224.2, 19214.564, -0.05040185, -0.12400491, -497357.1, -55680.383, 0.0, 9.999825, 9.999346 
9.949707e+2, 2.6492867e+2, -435325.94, -494547.2, -1891.712, -0.061155405, -0.13359919, -435265.56, -91580.16, 0.000000028595345, 9.999799, 9.999031 
9.9496657e+2, 2.749276e+2, -251898.1, -367444.72, 14148.087, -0.072665386, -0.1721895, -250190.95, -4493.815, 0.000003781716, 10.000427, 9.998934 
9.9496293e+2, 2.8492704e+2, -198861.64, -309473.44, -24938.016, -0.033631094, -0.104539976, -193499.2, -45794.906, 0.000036350866, 10.000183, 9.998777 
9.949598e+2, 2.949269e+2, -287669.8, -304857.2, -36074.867, 0.053077947, -0.0316647, -259179.17, -209471.17, 0.00015456251, 9.998909, 9.998744 
9.9495673e+2, 3.0492476e+2, -110055.31, -150336.16, 17556.025, 0.044408098, -0.13373262, -103477.75, -103477.75, 0.00041193186, 9.999655, 9.999102 
9.949556e+2, 3.1492344e+2, 303790.9, 138782.86, 30577.572, 0.1233188, -0.21054263, 309274.97, 309274.97, 0.0008105773, 10.002038, 9.999942 
1.0050216e+3, 1.2494219e+2, -1729392.1, -1632644.1, -1885.7429, 0.065228075, 0.060851905, -1632607.4, 82954.59, 0.00014134821, 9.999434, 10.000819 
1.0050167e+3, 1.3494065e+2, -1596086.3, -1518662.0, -52023.2, -0.02017572, -0.20919399, -1492527.9, 125041.24, 0.000046426092, 9.999749, 10.000774 
1.0050128e+3, 1.4493996e+2, -1633693.0, -1663572.4, -45116.2, 0.0060358727, -0.26575756, -1601107.3, -81532.59, 0.00000474816, 9.999564, 9.999178 
1.0050075e+3, 1.5494137e+2, -1571158.9, -1590118.1, -35410.508, -0.11336569, -0.07806593, -1543981.0, -122414.7, 0.000000004412824, 9.999352, 9.999122 
1.005003e+3, 1.6494173e+2, -1372323.1, -1368186.0, -20573.035, -0.12337583, 0.018261416, -1349577.8, -26013.06, 0.0, 9.999709, 9.999811 
1.0049994e+3, 1.7494072e+2, -1150002.5, -1212013.9, -39795.74, -0.025340907, -0.09173269, -1130559.8, 95013.15, 0.0, 10.000576, 9.999789 
1.004996e+3, 1.8494019e+2, -1082128.5, -1217990.6, 49596.777, -0.0034578922, -0.077511, -1065949.8, 61628.016, 0.0, 10.000762, 9.998977 
1.00499265e+3, 1.9493984e+2, -1051481.9, -1158988.5, 55953.164, -0.053114653, -0.039126776, -1027645.4, 1936.9639, 0.0, 10.000325, 9.998918 
1.00499004e+3, 2.0493874e+2, -901873.06, -1050197.6, 83774.26, -0.056797322, -0.029000243, -864150.7, 67441.3, 0.0, 10.000725, 9.998808 
1.004988e+3, 2.1493655e+2, -633879.44, -879369.75, 41125.133, -0.019625422, -0.15495318, -627173.25, 206437.0, 0.0, 10.001925, 9.998735 
1.0049856e+3, 2.2493541e+2, -554531.6, -778956.25, 22065.26, 0.0115619525, -0.14139749, -552382.75, 183237.61, 0.0, 10.001772, 9.998816 
1.0049826e+3, 2.3493499e+2, -678110.0, -794918.5, 17460.607, 0.029982464, -0.0924717, -675555.9, -37930.42, 0.0, 10.000278, 9.998753 
1.0049791e+3, 2.4493437e+2, -584793.25, -639471.44, 10345.934, 0.0032765623, -0.04811969, -582901.1, -43269.836, 0.0, 9.999984, 9.9992895 
1.00497484e+3, 2.5493333e+2, -352806.1, -476697.8, -26585.299, -0.058928866, -0.11401247, -347342.25, 94298.36, 0.0, 10.000913, 9.999279 
1.00497104e+3, 2.6493222e+2, -268227.47, -441178.84, -47534.984, -0.055216562, -0.12015887, -256023.78, 87626.92, 0.000000017098808, 10.001063, 9.998781 
1.0049677e+3, 2.7493066e+2, -285264.78, -406759.1, -74804.12, 0.014564018, -0.18494983, -249648.7, -3982.4595, 0.000003428396, 10.0002985, 9.998715 
1.0049641e+3, 2.849297e+2, -196326.53, -360534.5, -73428.7, 0.057549164, -0.12606564, -168281.36, -20604.016, 0.00003625069, 10.0004425, 9.998286 
1.00496024e+3, 2.9492915e+2, 48992.13, -198676.53, -99300.62, 0.08929733, -0.0453215, 83888.875, 133574.45, 0.00015744341, 10.001462, 9.998237 
1.0049574e+3, 3.049269e+2, 150302.8, -55943.617, 10653.251, 0.06817678, -0.1155495, 150851.61, 150851.61, 0.00042211023, 10.001549, 9.998858 
1.0049575e+3, 3.149254e+2, 26463.063, -52040.836, -57674.195, 0.20274045, -0.18455239, 56975.203, 56975.203, 0.0008305699, 10.000336, 9.999476 
1.0150209e+3, 1.24944136e+2, -1814559.0, -1792438.8, -51936.563, -0.024012525, -0.15513016, -1750397.8, -34861.34, 0.0001798155, 9.999381, 9.999739 
1.0150155e+3, 1.3494512e+2, -1675924.3, -1682466.5, -29233.264, -0.1614526, -0.06037878, -1649779.6, -32250.695, 0.000062927356, 9.999748, 9.999644 
1.0150122e+3, 1.4494452e+2, -1587813.5, -1564915.9, -75527.27, -0.050509125, -0.0855474, -1499974.5, 19560.76, 0.000007860604, 9.999548, 9.999862 
1.0150087e+3, 1.549438e+2, -1525682.4, -1493199.0, -28459.137, 0.040659074, -0.18280607, -1476673.1, -55131.5, 0.000000028517778, 9.999344, 9.999786 
1.015004e+3, 1.6494362e+2, -1382039.8, -1382731.3, -4258.399, -0.018493531, -0.16731521, -1378113.0, -54570.816, 0.0, 9.999683, 9.9997225 
1.0149985e+3, 1.7494382e+2, -1157667.4, -1226518.4, 5977.0366, -0.20840539, -0.14975609, -1157152.4, 68387.18, 0.0, 10.000566, 9.999695 
1.0149947e+3, 1.8494408e+2, -1055650.0, -1142793.5, 17127.617, -0.23535876, -0.07885378, -1052404.6, 75131.05, 0.0, 10.000677, 9.999532 
1.0149929e+3, 1.9494401e+2, -1030860.06, -1085616.4, 53134.324, -0.0980587, -0.067265816, -998465.1, 31069.05, 0.0, 10.000197, 9.999481 
1.01499125e+3, 2.0494255e+2, -972029.7, -1162747.8, 113614.836, -0.03458196, -0.0878746, -919059.06, 12488.003, 0.0, 10.000582, 9.998104 
1.0149899e+3, 2.1493934e+2, -707598.94, -991490.7, 99073.47, -0.044601794, -0.24694186, -676443.1, 157134.34, 0.0, 10.001754, 9.998044 
1.014987e+3, 2.2493774e+2, -567756.2, -755127.75, -50131.848, -0.047466576, -0.257283, -555186.5, 180406.11, 0.0, 10.001554, 9.999083 
1.0149824e+3, 2.3493741e+2, -686882.25, -765345.7, -25048.063, -0.047706705, -0.2289874, -679567.94, -41972.4, 0.0, 10.000075, 9.999049 
1.0149786e+3, 2.449369e+2, -651234.25, -735543.75, 27105.504, -0.06590262, -0.16165623, -643271.9, -103670.11, 0.0, 9.999804, 9.998719 
1.0149755e+3, 2.549359e+2, -414060.9, -571862.9, 23535.676, -0.10942943, -0.16548374, -410625.44, 30989.127, 0.0, 10.0007715, 9.998697 
1.01497225e+3, 2.649349e+2, -308577.97, -496991.38, -87575.125, -0.0714213, -0.113480985, -274160.0, 69465.805, 0.000000011022683, 10.000945, 9.998454 
1.0149686e+3, 2.749337e+2, -324755.8, -458384.34, -83163.664, 0.041803025, -0.1128263, -284891.4, -39252.688, 0.0000031084232, 10.000171, 9.998421 
1.014965e+3, 2.8493232e+2, -229913.16, -406623.66, -49190.207, 0.07567968, -0.064547874, -217143.11, -69490.31, 0.000035475467, 10.000346, 9.998012 
1.01496145e+3, 2.949306e+2, 7259.184, -251545.78, -40160.973, 0.022444034, -0.0772868, 13348.053, 63018.934, 0.00015874387, 10.001328, 9.997931 
1.0149587e+3, 3.049284e+2, 101261.32, -140681.52, -43373.113, 0.012503191, -0.09638215, 108801.81, 108801.81, 0.00042931808, 10.001475, 9.998311 
1.01495795e+3, 3.149276e+2, -56154.895, -164866.38, -58940.934, 0.15278842, -0.04328889, -30332.21, -30332.21, 0.00084597495, 10.000102, 9.998804 
1.0250199e+3, 1.2494676e+2, -1977927.0, -1875679.0, -76685.76, 0.012979303, -0.21981698, -1834638.1, -119128.766, 0.00022439056, 9.998265, 9.999718 
1.0250149e+3, 1.3494894e+2, -1757276.4, -1731293.8, -15182.622, -0.15607084, 0.008126574, -1724302.9, -106809.45, 0.0000828242, 9.9992285, 9.999573 
1.025012e+3, 1.4494878e+2, -1556300.4, -1528384.1, -25081.977, -0.031448163, 0.019013898, -1513638.0, 5858.194, 0.000012107546, 9.999657, 10.000073 
1.02500856e+3, 1.5494747e+2, -1438955.8, -1427070.0, -46373.48, 0.08194593, -0.15528761, -1386260.1, 35245.234, 0.00000009714164, 9.999826, 10.000012 
1.0250042e+3, 1.6494694e+2, -1383430.4, -1393164.0, 7044.2217, 0.029454703, -0.18265903, -1379735.3, -56226.8, 0.0, 9.999743, 9.999602 
1.0249988e+3, 1.7494702e+2, -1315406.5, -1311001.9, -18867.682, -0.17614315, -0.16463117, -1294208.4, -68701.75, 0.0, 9.999552, 9.999585 
1.02499515e+3, 1.8494695e+2, -1183261.4, -1219673.9, -14650.453, -0.21132345, -0.11469991, -1178098.9, -50593.406, 0.0, 9.9998455, 9.999413 
1.0249931e+3, 1.9494641e+2, -987162.25, -1078787.5, -55786.875, -0.09241851, -0.14000584, -960787.8, 68720.516, 0.0, 10.000545, 9.999371 
1.0249918e+3, 2.0494501e+2, -964906.7, -1129315.8, 44802.535, -0.024381367, -0.16029729, -953490.44, -21970.277, 0.0, 10.000518, 9.998366 
1.0249911e+3, 2.1494243e+2, -981642.75, -1095236.5, 70253.72, -0.003074555, -0.27997354, -948098.75, -114554.31, 0.0, 9.999769, 9.998288 
1.0249881e+3, 2.2494103e+2, -811121.4, -876299.1, -42348.188, -0.010531447, -0.27919316, -790274.3, -54716.48, 0.0, 9.999895, 9.999048 
1.0249826e+3, 2.3494056e+2, -584864.56, -722571.94, -68237.12, -0.05629047, -0.26095036, -556779.44, 80783.59, 0.0, 10.000806, 9.998993 
1.02497876e+3, 2.4493997e+2, -490357.88, -673950.1, 31386.74, -0.07753538, -0.18916295, -485140.3, 54430.17, 0.0, 10.0009985, 9.998549 
1.0249763e+3, 2.5493896e+2, -480206.6, -625883.4, 21808.795, -0.07830162, -0.17489618, -477011.75, -35427.832, 0.0, 10.000418, 9.998492 
1.0249734e+3, 2.64938e+2, -370443.22, -523722.56, -38885.15, -0.025049197, -0.11407592, -361142.84, -17547.76, 0.00000001218603, 10.000505, 9.998485 
1.02496974e+3, 2.7493677e+2, -165419.06, -374208.78, -40678.75, 0.0954926, -0.116144255, -157773.55, 87833.25, 0.0000027111198, 10.001242, 9.998481 
1.0249665e+3, 2.8493506e+2, -58306.313, -345902.97, 60743.836, 0.13137488, -0.09578256, -46002.836, 101620.64, 0.00003356842, 10.001614, 9.997828 
1.0249634e+3, 2.9493254e+2, 18943.87, -268652.84, 41490.7, 0.08176014, -0.16490075, 24809.957, 74458.7, 0.00015737157, 10.001497, 9.997745 
1.0249604e+3, 3.0493072e+2, 75404.36, -166167.34, 47539.86, 0.056762576, -0.13196582, 84423.2, 84423.2, 0.00043278775, 10.001387, 9.9981575 
1.02495864e+3, 3.1493056e+2, 63085.555, -129380.07, 278.40488, 0.18176757, -0.002210357, 63085.96, 63085.96, 0.00085734465, 10.001021, 9.998591 
1.0350176e+3, 1.24949865e+2, -1897918.0, -1721814.4, -106104.44, -0.11794953, -0.14620379, -1671984.8, 43497.71, 0.00027553758, 9.998312, 10.00075 
1.03501454e+3, 1.3495219e+2, -1695103.4, -1602071.5, 27930.314, -0.13780156, 0.0005628338, -1594330.4, 23131.607, 0.000106410545, 9.999223, 10.000463 
1.0350115e+3, 1.4495273e+2, -1570941.9, -1559092.3, -39965.508, -0.08513154, 0.051541556, -1524614.8, -5157.9087, 0.000017580353, 9.999661, 9.99986 
1.0350067e+3, 1.5495238e+2, -1449772.4, -1453064.6, -26233.2, -0.12573968, -0.008225451, -1425133.6, -3675.1033, 0.00000023822265, 9.999836, 9.999833 
1.03500284e+3, 1.6495165e+2, -1405115.9, -1425663.0, -20537.8, -0.12410413, -0.03825986, -1392425.4, -68961.73, 0.0, 9.999697, 9.999399 
1.035e+3, 1.749503e+2, -1338366.0, -1346777.9, -12737.018, -0.046460688, -0.14245981, -1329158.5, -103684.16, 0.0, 9.999501, 9.999364 
1.0349968e+3, 1.8494888e+2, -1249940.6, -1337529.9, -6404.463, -0.056511883, -0.17850372, -1249474.9, -121988.17, 0.0, 9.99976, 9.998645 
1.0349933e+3, 1.9494702e+2, -1057170.9, -1200137.0, -18822.482, -0.16056535, -0.25970498, -1054734.4, -25229.773, 0.0, 10.000439, 9.9985895 
1.0349914e+3, 2.0494609e+2, -911787.8, -977517.6, -133.97487, -0.14811087, -0.24986367, -911787.56, 19724.223, 0.0, 10.000337, 9.999495 
1.034991e+3, 2.1494569e+2, -919710.8, -935410.0, 57949.215, -0.0065062433, -0.26620853, -869082.0, -35569.97, 0.0, 9.999624, 9.999457 
1.0349883e+3, 2.2494519e+2, -862900.4, -936870.8, -22433.428, 0.0018250851, -0.22125226, -856628.6, -121111.805, 0.0, 9.9997, 9.998726 
1.034983e+3, 2.349443e+2, -634592.44, -781458.9, -19150.5, -0.1282609, -0.210171, -632136.44, 5392.191, 0.0, 10.000618, 9.998677 
1.03497915e+3, 2.4494353e+2, -513243.9, -674817.56, -1307.1697, -0.16358955, -0.1471061, -513233.3, 26304.88, 0.0, 10.0008, 9.998639 
1.03497684e+3, 2.5494254e+2, -495760.63, -619602.44, 17878.58, -0.09706652, -0.1406273, -493231.22, -51682.84, 0.0, 10.000257, 9.9986105 
1.034974e+3, 2.6494148e+2, -360183.13, -474053.9, -25816.188, -0.030364307, -0.114164, -354603.6, -11046.042, 0.00000000560088, 10.000386, 9.998882 
1.0349707e+3, 2.7493995e+2, -159251.38, -327310.9, 5587.077, 0.03364767, -0.19031022, -159065.83, 86504.21, 0.0000022721786, 10.001106, 9.998865 
1.0349679e+3, 2.8493786e+2, -77099.36, -362218.6, 43294.805, 0.0869686, -0.22076413, -70670.1, 76919.26, 0.000031172072, 10.001517, 9.99776 
1.0349656e+3, 2.9493526e+2, -6688.003, -287518.72, 61171.15, 0.1177594, -0.29561308, 6057.9336, 55674.57, 0.00015322318, 10.001357, 9.99768 
1.0349623e+3, 3.0493397e+2, 67832.445, -160370.94, 26457.537, 0.075060286, -0.21021552, 70859.734, 70859.734, 0.00043103905, 10.001298, 9.998238 
1.0349585e+3, 3.1493452e+2, 40147.67, -116608.57, 36567.242, -0.005292967, -0.016468182, 48258.24, 48258.24, 0.0008619147, 10.000795, 9.9987755 
1.0450165e+3, 1.2495349e+2, -1860802.5, -1685318.0, -10390.359, -0.05838606, -0.09087957, -1684705.0, 30741.86, 0.0003338259, 9.998463, 10.000934 
1.0450142e+3, 1.3495466e+2, -1698833.8, -1588226.0, 34675.402, -0.08353782, -0.07429869, -1578254.3, 39180.914, 0.00013404706, 9.999105, 10.000614 
1.045011e+3, 1.4495507e+2, -1646766.4, -1603900.3, -40066.418, -0.07141566, -0.0436262, -1579894.4, -60463.207, 0.000024406929, 9.999189, 9.999771 
1.0450062e+3, 1.5495527e+2, -1570359.0, -1515042.4, -57132.207, -0.11128571, -0.03831624, -1479225.8, -57796.805, 0.0000004785213, 9.999047, 9.999778 
1.0450027e+3, 1.6495489e+2, -1444910.6, -1435943.0, 7096.8525, -0.08006847, -0.035728797, -1432032.3, -108600.92, 0.0, 9.999371, 9.999501 
1.0450006e+3, 1.7495361e+2, -1224283.3, -1280592.1, 10843.41, 0.04554415, -0.1413892, -1222267.4, 3173.5269, 0.0, 10.000226, 9.999478 
1.0449978e+3, 1.8495224e+2, -1143391.4, -1294539.8, 81102.266, 0.034565404, -0.17496485, -1108109.6, 19343.766, 0.0, 10.000543, 9.998555 
1.044994e+3, 1.9495039e+2, -1077152.0, -1217950.0, 85325.695, -0.11987678, -0.24303718, -1036932.25, -7459.8354, 0.0, 10.000349, 9.998504 
1.0449917e+3, 2.049496e+2, -901921.7, -968424.2, 100078.82, -0.13827313, -0.21771483, -829714.8, 101764.53, 0.0, 10.000387, 9.999528 
1.04499094e+3, 2.1494949e+2, -779575.5, -859772.6, 43376.39, -0.014386486, -0.21060759, -760602.9, 72874.586, 0.0, 10.000568, 9.999512 
1.04498826e+3, 2.2494912e+2, -736750.25, -880840.56, -20751.854, -0.00090179435, -0.15132996, -733821.1, 1659.9044, 0.0, 10.000575, 9.998696 
1.04498364e+3, 2.3494819e+2, -670679.8, -806284.44, -26861.105, -0.10415929, -0.14233662, -665552.9, -28059.484, 0.0, 10.0003805, 9.998632 
1.04498014e+3, 2.4494714e+2, -530599.25, -662639.75, 24607.193, -0.12809268, -0.11321091, -526162.5, 13341.709, 0.0, 10.000575, 9.998842 
1.04497775e+3, 2.5494573e+2, -348657.5, -524883.75, 21651.021, -0.06396393, -0.1703156, -346036.47, 95479.51, 0.0, 10.001158, 9.998832 
1.044975e+3, 2.6494455e+2, -255055.39, -436180.6, -9934.801, -0.00976997, -0.16266295, -254512.1, 89013.555, 0.0000000009945924, 10.001157, 9.998782 
1.0449714e+3, 2.7494305e+2, -260116.6, -392915.38, -47247.785, 0.034768023, -0.21643026, -245022.22, 516.18256, 0.0000020282196, 10.000454, 9.998745 
1.04496874e+3, 2.8494123e+2, -230228.08, -421304.56, 19947.049, 0.07935084, -0.22744341, -228167.97, -80611.67, 0.00002862313, 10.000398, 9.997896 
1.0449668e+3, 2.9493892e+2, -54647.813, -288325.3, 16357.3, 0.13224016, -0.28307536, -53508.367, -3928.4414, 0.00014660136, 10.0009365, 9.997872 
1.0449635e+3, 3.0493793e+2, 43008.438, -143736.67, 5854.3604, 0.10103713, -0.19632739, 43191.79, 43191.79, 0.00042212423, 10.000983, 9.998508 
1.0449592e+3, 3.1493798e+2, -25295.557, -120126.56, -23305.035, 0.034840357, -0.07504741, -19877.787, -19877.787, 0.0008537748, 10.000155, 9.999088 
1.0550155e+3, 1.2495751e+2, -1898466.1, -1757142.1, -41239.566, -0.07377198, -0.079868294, -1745988.4, -30584.916, 0.00039971265, 9.998451, 10.000437 
1.0550132e+3, 1.349565e+2, -1742465.1, -1671105.3, 72215.97, -0.12854564, -0.22327973, -1626235.8, -8823.807, 0.00016604259, 9.999082, 10.000055 
1.0550099e+3, 1.4495595e+2, -1649354.3, -1607383.5, -66961.07, -0.14497294, -0.2581174, -1558196.4, -38779.207, 0.000032768716, 9.999178, 9.999753 
1.0550067e+3, 1.5495625e+2, -1576303.0, -1525723.3, -49546.305, -0.0018850481, -0.2444765, -1495385.6, -73970.21, 0.0000008393984, 9.999031, 9.999717 
1.0550034e+3, 1.6495672e+2, -1418652.0, -1372890.9, 22850.723, 0.026003562, -0.17207855, -1363434.5, -40024.117, 0.0, 9.999335, 9.999948 
1.0550005e+3, 1.7495707e+2, -1195244.8, -1216582.1, 56029.785, -0.02972108, -0.16485642, -1148877.0, 76528.41, 0.0, 10.000207, 9.999926 
1.0549977e+3, 1.849571e+2, -1119150.0, -1221970.5, 56011.605, -0.06939085, -0.10484802, -1094531.9, 32872.91, 0.0, 10.000446, 9.999102 
1.0549948e+3, 1.9495657e+2, -1052399.6, -1145664.9, 93062.1, -0.096101195, -0.09992777, -994940.2, 34471.324, 0.0, 10.000251, 9.999052 
1.0549925e+3, 2.0495562e+2, -1001911.3, -1139908.5, 89670.14, -0.11723882, -0.0623769, -957766.0, -26344.016, 0.0, 10.000231, 9.998428 
1.0549905e+3, 2.1495385e+2, -883583.6, -1037991.3, 63459.176, -0.13528953, -0.11090293, -860850.0, -27409.805, 0.0, 10.000395, 9.998377 
1.0549877e+3, 2.2495283e+2, -754720.06, -867820.75, -41239.773, -0.13316466, -0.06980435, -741279.94, -5829.191, 0.0, 10.000362, 9.998882 
1.05498426e+3, 2.349522e+2, -680894.7, -785268.75, -19135.432, -0.10501967, -0.05374278, -677497.06, -40039.996, 0.0, 10.000202, 9.998858 
1.0549812e+3, 2.4495088e+2, -535398.6, -631993.56, 31355.082, -0.097218044, -0.077670686, -526113.25, 13354.398, 0.0, 10.000403, 9.999134 
1.05497874e+3, 2.549486e+2, -350404.28, -493933.78, 56568.695, -0.10911745, -0.25593066, -330789.6, 110696.12, 0.0, 10.001009, 9.999115 
1.0549756e+3, 2.6494715e+2, -320689.28, -538235.4, -49878.324, -0.08597113, -0.2568083, -309798.53, 33700.668, 0.000000000012280949, 10.001016, 9.998142 
1.0549716e+3, 2.7494627e+2, -324693.25, -493933.97, -54093.715, -0.030336887, -0.19020145, -308880.88, -63370.01, 0.0000016155456, 10.000315, 9.998114 
1.0549685e+3, 2.8494525e+2, -222965.8, -378547.63, 26614.602, -0.011999038, -0.101545535, -218538.92, -71016.516, 0.000025306648, 10.000282, 9.998247 
1.05496645e+3, 2.9494375e+2, -50443.895, -250646.64, 60971.664, -0.0302725, -0.112943314, -33336.785, 16200.5205, 0.00013793015, 10.000817, 9.998193 
1.0549636e+3, 3.0494258e+2, 68829.64, -72885.984, -30512.26, -0.01983043, -0.085211895, 75119.914, 75119.914, 0.00040720604, 10.000902, 9.999036 
1.05496e+3, 3.149412e+2, -21392.074, -63167.055, -619.95, 0.020718114, -0.16194424, -21382.877, -21382.877, 0.00083313056, 9.999948, 9.999581 
1.0650151e+3, 1.24960825e+2, -1731462.1, -1691880.9, -37976.023, -0.0052306014, -0.09360051, -1668848.0, 46522.438, 0.00047318285, 9.99968, 10.000298 
1.06501296e+3, 1.3496007e+2, -1780114.3, -1697032.9, 46459.145, -0.038119074, -0.19750673, -1676251.1, -58873.67, 0.00020250746, 9.99888, 9.999974 
1.065009e+3, 1.449596e+2, -1706901.5, -1618470.9, -14798.569, -0.114798985, -0.22695133, -1616060.1, -96678.66, 0.000042863663, 9.998697, 9.999922 
1.0650066e+3, 1.5495938e+2, -1494396.0, -1462499.4, -20281.146, 0.07640893, -0.28130534, -1452647.0, -31264.35, 0.0000013547858, 9.999493, 9.999928 
1.06500365e+3, 1.6495974e+2, -1342108.4, -1351056.0, 82890.16, 0.09432981, -0.2257723, -1263571.4, 59807.344, 0.0, 9.999917, 9.999822 
1.0650005e+3, 1.7496037e+2, -1242139.9, -1253615.0, 39598.895, -0.02696542, -0.1737594, -1207865.0, 17507.607, 0.0, 9.999942, 9.999807 
1.0649977e+3, 1.849607e+2, -1174572.6, -1241258.9, 16815.283, -0.076184586, -0.08559429, -1170572.6, -43202.195, 0.0, 10.000023, 9.999175 
1.0649954e+3, 1.949604e+2, -1050166.8, -1136058.6, -12371.657, -0.06286246, -0.06329043, -1048420.25, -19045.518, 0.0, 10.000221, 9.999133 
1.06499314e+3, 2.0495947e+2, -979747.2, -1129907.6, 40329.19, -0.079017535, -0.026953682, -969601.3, -38216.156, 0.0, 10.000391, 9.998413 
1.06499106e+3, 2.1495761e+2, -860511.9, -1025490.0, 63339.098, -0.11966652, -0.083708875, -838999.56, -5594.8403, 0.0, 10.000559, 9.998377 
1.0649883e+3, 2.2495629e+2, -715295.56, -846971.8, 15320.095, -0.12051372, -0.07420214, -713536.56, 21880.893, 0.0, 10.000617, 9.998904 
1.0649849e+3, 2.3495518e+2, -630509.06, -753036.6, -2850.9263, -0.070139505, -0.10751574, -630442.8, 6983.6855, 0.0, 10.000523, 9.998917 
1.064982e+3, 2.4495396e+2, -554122.0, -634209.06, 63965.426, -0.051384628, -0.12872657, -518699.9, 20736.12, 0.0, 10.000247, 9.999194 
1.0649795e+3, 2.5495228e+2, -529340.6, -578295.8, 40583.254, -0.07099387, -0.24732903, -506424.66, -64974.645, 0.0, 9.999765, 9.999143 
1.0649763e+3, 2.6495108e+2, -443783.63, -600581.2, -16084.446, -0.05783184, -0.2206872, -442150.7, -98688.75, 0.0, 10.000169, 9.998122 
1.0649725e+3, 2.7495027e+2, -178913.19, -419798.9, -12325.694, 0.00026666967, -0.15092315, -178284.14, 67189.55, 0.00000091217555, 10.001308, 9.998138 
1.06496945e+3, 2.849492e+2, -44735.19, -290862.88, 100278.234, 0.011705322, -0.068637736, -9052.587, 138432.89, 0.000020761427, 10.001485, 9.998276 
1.06496714e+3, 2.949475e+2, -68121.57, -259012.81, 77673.04, -0.018841287, -0.10403698, -40510.42, 8991.805, 0.00012637535, 10.000663, 9.998219 
1.0649642e+3, 3.0494624e+2, -29253.605, -125916.4, -24452.035, -0.0058031254, -0.07790088, -23420.2, -23420.2, 0.00038601994, 10.000265, 9.998963 
1.0649604e+3, 3.1494483e+2, -2771.3438, -42192.656, -94506.51, 0.08968207, -0.16414517, 74058.09, 74058.09, 0.0008001297, 10.000049, 9.999647 
1.0750146e+3, 1.2496314e+2, -1723533.8, -1662576.5, -79499.39, -0.09061226, -0.15991215, -1607913.5, 107437.11, 0.00055371417, 9.999648, 10.000502 
1.0750129e+3, 1.3496538e+2, -1766425.0, -1659026.6, 22736.12, 0.044316832, 0.0060908394, -1654411.6, -37080.25, 0.00024334127, 9.998849, 10.000245 
1.0750079e+3, 1.4496599e+2, -1677417.4, -1560341.3, -9331.119, -0.13164274, 0.050454043, -1559602.3, -40278.348, 0.00005483326, 9.998697, 10.000327 
1.0750056e+3, 1.5496467e+2, -1463093.4, -1401461.0, 24037.555, -0.01151554, -0.15720397, -1393194.6, 28136.107, 0.000002073113, 9.9995, 10.000349 
1.0750029e+3, 1.6496398e+2, -1398945.0, -1454244.5, 65664.92, 0.00014901861, -0.19409929, -1355345.9, -32010.066, 0.0000000000166348, 9.999865, 9.999133 
1.0750004e+3, 1.7496358e+2, -1297487.8, -1356130.5, 55286.664, -0.058593884, -0.17782713, -1264228.3, -38886.063, 0.0, 9.999891, 9.999125 
1.0749977e+3, 1.8496303e+2, -1219819.0, -1309740.3, 8293.215, -0.10630703, -0.12068603, -1219060.5, -91710.95, 0.0, 9.999921, 9.998752 
1.0749951e+3, 1.9496189e+2, -1098396.9, -1202815.5, 8645.172, -0.14748527, -0.14094423, -1097685.9, -68324.08, 0.0, 10.000085, 9.998736 
1.0749932e+3, 2.0496118e+2, -932573.0, -995618.06, 27839.24, -0.14198944, -0.112738036, -922039.75, 9328.787, 0.0, 10.000231, 9.999417 
1.0749922e+3, 2.1496063e+2, -812888.3, -885660.8, 83577.09, -0.08957626, -0.14170761, -758120.3, 75251.74, 0.0, 10.000378, 9.999428 
1.0749895e+3, 2.2495943e+2, -751801.8, -872228.9, -1945.5536, -0.078957096, -0.16956577, -751770.44, -16388.643, 0.0, 10.000403, 9.998835 
1.0749853e+3, 2.349572e+2, -666775.8, -779967.56, 11522.069, -0.11407328, -0.3081859, -665614.9, -28213.928, 0.0, 10.000315, 9.998835 
1.0749819e+3, 2.4495639e+2, -605748.3, -689850.0, 33897.605, -0.11007597, -0.2697498, -593786.94, -54377.617, 0.0, 10.000035, 9.998907 
1.0749796e+3, 2.549567e+2, -567246.56, -622757.75, 40178.645, -0.06832784, -0.16391587, -546168.8, -104758.94, 0.0, 9.99962, 9.998901 
1.0749771e+3, 2.6495636e+2, -430757.25, -532274.94, 12588.908, -0.03407791, -0.06899228, -429219.44, -85804.875, 0.000000000031670343, 10.0, 9.998673 
1.0749741e+3, 2.7495503e+2, -161988.5, -354085.47, 51655.88, -0.011800186, -0.10281236, -148979.02, 96447.97, 0.00000057346807, 10.001179, 9.998655 
1.0749713e+3, 2.8495312e+2, -72695.63, -328855.9, 54225.082, 0.009946242, -0.1204203, -61689.9, 85755.555, 0.000016841232, 10.0014, 9.998052 
1.0749687e+3, 2.9495034e+2, -101279.49, -295745.3, 70075.1, 0.030291148, -0.24405503, -78659.33, -29186.549, 0.000114238224, 10.000528, 9.998029 
1.0749651e+3, 3.0494916e+2, -96498.984, -248797.17, -36151.81, 0.015343041, -0.16453022, -88353.13, -88353.13, 0.0003625103, 10.00019, 9.998158 
1.07495986e+3, 3.1494868e+2, -81208.69, -172551.08, -43417.62, -0.05013814, -0.075616516, -63864.426, -63864.426, 0.00076317973, 9.999902, 9.998832 
1.08501405e+3, 1.2496649e+2, -1963444.6, -1807935.1, 64275.867, -0.019455073, -0.18857376, -1784807.9, -69489.91, 0.00064071716, 9.998084, 10.000277 
1.08501256e+3, 1.3496885e+2, -1714506.6, -1649713.3, 32472.908, 0.12737949, 0.0012081215, -1636240.1, -18941.945, 0.00028839763, 9.999248, 10.000124 
1.08500734e+3, 1.449695e+2, -1528150.0, -1491643.4, 25146.148, -0.11257654, 0.059905037, -1478824.0, 40466.3, 0.00006873226, 9.999777, 10.000253 
1.0850055e+3, 1.5496834e+2, -1388374.5, -1374411.3, -21225.469, 0.008460414, -0.12329213, -1359048.6, 62246.734, 0.0000030594845, 10.000071, 10.000248 
1.0850032e+3, 1.6496745e+2, -1363440.9, -1488532.0, 25621.992, 0.022667442, -0.15263246, -1358396.3, -35093.215, 0.000000000186287, 10.000318, 9.998685 
1.0850006e+3, 1.749666e+2, -1230131.5, -1374636.1, -61.557568, -0.04863253, -0.13905592, -1230131.5, -4815.55, 0.0, 10.000568, 9.998672 
1.0849982e+3, 1.8496563e+2, -1085889.6, -1226884.8, 15515.631, -0.089714825, -0.108399376, -1084202.5, 43124.78, 0.0, 10.000759, 9.998924 
1.0849959e+3, 1.949642e+2, -981960.5, -1126211.1, 29469.277, -0.104320146, -0.17270915, -976172.4, 53167.754, 0.0, 10.000811, 9.998913 
1.084994e+3, 2.0496367e+2, -887993.3, -952268.25, 55338.63, -0.09038192, -0.14509206, -856137.2, 75207.336, 0.0, 10.000455, 9.999598 
1.0849926e+3, 2.1496366e+2, -900075.4, -910875.8, 11109.047, -0.050406616, -0.13880497, -893123.5, -59779.504, 0.0, 9.999715, 9.99957 
1.08498976e+3, 2.2496285e+2, -831657.3, -858844.06, -39800.195, -0.047089826, -0.15509337, -803193.1, -67843.46, 0.0, 9.999639, 9.999298 
1.0849857e+3, 2.3496094e+2, -647043.3, -720163.9, -22952.016, -0.08115965, -0.30423498, -640435.94, -3071.3582, 0.0, 10.000236, 9.9992895 
1.08498245e+3, 2.4496034e+2, -538239.4, -687974.75, 35880.668, -0.08012921, -0.2545628, -530085.44, 9285.72, 0.0, 10.000597, 9.998674 
1.08497985e+3, 2.5496078e+2, -445146.2, -591221.6, 17066.879, -0.03822697, -0.10835419, -443178.66, -1806.4236, 0.0, 10.000563, 9.998682 
1.08497754e+3, 2.649604e+2, -340075.75, -459220.3, 40300.59, -0.0016179145, -0.019037055, -327724.5, 15652.891, 0.000000020287489, 10.000497, 9.998926 
1.0849752e+3, 2.7495876e+2, -250880.92, -370449.03, 20339.277, 0.028084524, -0.11012023, -247515.8, -2124.8093, 0.0000009682407, 10.000445, 9.998894 
1.08497255e+3, 2.8495696e+2, -201698.05, -382897.9, 19924.758, 0.04713773, -0.13386323, -199532.98, -52124.67, 0.000016002106, 10.000493, 9.998109 
1.08496964e+3, 2.9495475e+2, -99653.81, -280146.0, 12859.568, 0.078010656, -0.20823959, -98742.21, -49310.676, 0.00010691048, 10.000496, 9.99814 
1.08496584e+3, 3.0495358e+2, -3699.0457, -173637.06, 13232.35, 0.066372916, -0.14351356, -2674.8713, -2674.8713, 0.00034615427, 10.000711, 9.998434 
1.0849609e+3, 3.149528e+2, 85609.72, -61848.72, 33611.926, 0.029922115, -0.10258817, 92909.875, 92909.875, 0.0007399488, 10.000947, 9.99909 
1.0950133e+3, 1.249708e+2, -2001294.1, -1873778.5, 136352.52, 0.03070818, -0.19424835, -1787013.6, -71740.445, 0.000734217, 9.9980345, 9.999848 
1.09501176e+3, 1.349707e+2, -1740080.0, -1710506.6, 85076.74, 0.07401408, -0.21145514, -1638941.1, -21665.863, 0.00033773432, 9.9992695, 9.9997015 
1.0950065e+3, 1.4497022e+2, -1580050.8, -1592036.9, 14887.847, -0.2079735, -0.20784798, -1569995.0, -50715.523, 0.0000845864, 9.999751, 9.999575 
1.0950059e+3, 1.5497035e+2, -1445315.9, -1477800.8, 5204.8784, 0.005973485, -0.19267997, -1444502.4, -23225.479, 0.0000043925156, 10.000016, 9.999561 
1.0950039e+3, 1.6497023e+2, -1380229.8, -1520622.6, 16425.17, 0.030411106, -0.1007293, -1378333.6, -55053.438, 0.0000000006358386, 10.000296, 9.99848 
1.0950009e+3, 1.7496939e+2, -1243765.8, -1404745.0, 24853.324, -0.119998716, -0.065909445, -1240016.0, -14721.864, 0.0, 10.000563, 9.998473 
1.0949986e+3, 1.8496856e+2, -1043580.6, -1120141.3, -553.8824, -0.15455045, -0.047640942, -1043576.6, 83726.04, 0.0, 10.000684, 9.999689 
1.09499745e+3, 1.9496748e+2, -945618.9, -1020510.3, 47205.73, -0.05858711, -0.15642987, -922810.5, 106497.77, 0.0, 10.000684, 9.999697 
1.09499514e+3, 2.0496692e+2, -961396.94, -1073596.1, 10844.056, -0.047869056, -0.13382141, -960358.5, -29044.998, 0.0, 10.000311, 9.998839 
1.0949917e+3, 2.1496658e+2, -977284.4, -1031922.94, -2403.9248, -0.1269569, -0.08243144, -977178.8, -143857.75, 0.0, 9.999539, 9.998827 
1.09498866e+3, 2.249665e+2, -804426.3, -750395.1, -33992.43, -0.14775965, -0.034055326, -733990.4, 1331.3757, 0.0, 9.99942, 10.000146 
1.094986e+3, 2.349662e+2, -617969.56, -610330.94, 14646.451, -0.105897814, -0.109689206, -599014.0, 38305.3, 0.0, 10.000024, 10.000144 
1.09498315e+3, 2.4496569e+2, -575013.2, -716440.8, 19614.59, -0.09369512, -0.090414524, -572343.25, -33019.91, 0.0, 10.000396, 9.998573 
1.09498e+3, 2.5496465e+2, -478598.06, -618915.94, 33278.125, -0.10841883, -0.08245902, -471105.78, -29769.459, 0.0, 10.000385, 9.998575 
1.09497756e+3, 2.6496345e+2, -373059.94, -487068.22, 27886.95, -0.07936303, -0.06728602, -366604.22, -23255.404, 0.00000010014453, 10.000327, 9.998816 
1.0949756e+3, 2.7496156e+2, -276682.28, -394608.78, 41770.316, -0.012465141, -0.17017983, -263386.13, -18021.01, 0.0000018117424, 10.000319, 9.998791 
1.0949728e+3, 2.849606e+2, -199458.03, -352703.4, 5384.2104, -0.0073086764, -0.11605595, -199269.1, -51893.64, 0.000017402066, 10.000385, 9.998364 
1.09496936e+3, 2.9496038e+2, -98849.836, -253595.39, 32840.598, -0.043630905, -0.02054076, -92168.75, -42787.176, 0.00010435712, 10.000387, 9.998374 
1.09496616e+3, 3.0495942e+2, 73576.39, 9308.773, 9260.049, -0.005414212, -0.012598509, 74884.02, 74884.02, 0.00033796718, 10.000619, 9.999732 
1.0949629e+3, 3.1495717e+2, 147917.3, 98807.17, 93656.94, 0.06158408, -0.24596044, 220184.61, 220184.61, 0.00073106954, 10.000801, 10.000272 
1.1050128e+3, 1.2497481e+2, -1835783.6, -1759536.1, 130951.34, 0.14080477, -0.04031864, -1661272.0, 53966.64, 0.00083503575, 9.999055, 10.000104 
1.1050109e+3, 1.3497335e+2, -1706915.6, -1667550.6, 1696.4318, 0.07681891, -0.21912535, -1667477.8, -50227.66, 0.0003918232, 9.999394, 9.99992 
1.1050069e+3, 1.449724e+2, -1583421.5, -1637990.5, 868.5181, -0.13686681, -0.26192534, -1583407.8, -64148.7, 0.000102570426, 9.999882, 9.999215 
1.10500656e+3, 1.549732e+2, -1358310.1, -1477979.1, -13863.844, 0.057803366, -0.14258753, -1356725.0, 64528.313, 0.0000061708192, 10.000765, 9.999211 
1.1050046e+3, 1.6497336e+2, -1287072.1, -1427379.8, 40346.023, 0.06340604, -0.025394002, -1276297.8, 46956.63, 0.0000000015512864, 10.00075, 9.998885 
1.1050012e+3, 1.7497249e+2, -1297781.4, -1379408.4, 58102.61, -0.10008457, -0.034981627, -1267590.3, -42323.938, 0.0, 9.999998, 9.998902 
1.104999e+3, 1.849719e+2, -1170615.9, -1158031.6, 76894.305, -0.12019747, -0.026601948, -1087172.4, 40098.996, 0.0, 9.999716, 9.999893 
1.1049983e+3, 1.9497122e+2, -1045041.1, -1043657.9, 48830.49, 0.0050303456, -0.11588739, -995514.1, 33759.07, 0.0, 9.999899, 9.999912 
1.104996e+3, 2.0497078e+2, -983106.4, -1070379.0, 46045.367, 0.018171774, -0.097575955, -963305.25, -32028.363, 0.0, 10.000098, 9.998968 
1.104992e+3, 2.1497028e+2, -845365.6, -954239.0, 66189.56, -0.08620602, -0.07445429, -814102.75, 19182.793, 0.0, 10.000375, 9.998961 
1.10498875e+3, 2.2497019e+2, -680009.75, -723884.3, 73312.11, -0.11792871, -0.017870048, -625423.06, 109863.766, 0.0, 10.000411, 9.999848 
1.1049863e+3, 2.3497014e+2, -613681.9, -641732.06, 6810.1094, -0.0739579, -0.03907509, -612115.9, 25168.32, 0.0, 10.000194, 9.9998455 
1.1049836e+3, 2.4496955e+2, -582086.1, -697901.5, 8461.979, -0.06328067, -0.022629373, -581471.1, -42182.24, 0.0, 10.0002775, 9.998739 
1.1049807e+3, 2.5496808e+2, -420385.44, -568322.94, 2007.1102, -0.08036708, -0.076450236, -420358.2, 20945.605, 0.0, 10.00071, 9.998746 
1.10497825e+3, 2.6496658e+2, -321237.88, -492179.13, 14959.319, -0.050900605, -0.0848011, -319938.63, 23379.787, 0.00000018749917, 10.000799, 9.998565 
1.1049763e+3, 2.749647e+2, -280906.44, -422589.63, -15209.926, 0.030563809, -0.16267477, -279292.03, -33955.676, 0.0000025365616, 10.000403, 9.998562 
1.1049735e+3, 2.8496388e+2, -175419.53, -315521.4, -3336.4, 0.029201841, -0.0928387, -175340.13, -27994.293, 0.000019295574, 10.000434, 9.998612 
1.10497e+3, 2.9496396e+2, -19746.402, -188880.06, -14043.338, -0.026537385, 0.013102614, -18588.3, 30760.459, 0.00010487227, 10.000815, 9.998624 
1.10496715e+3, 3.049631e+2, 173899.16, 40060.945, -51095.004, 0.01289848, 0.026978755, 191175.45, 191175.45, 0.00033641586, 10.001341, 9.999605 
1.10496484e+3, 3.1496102e+2, 245266.1, 140846.61, -125395.625, 0.15951613, -0.18715881, 328886.84, 328886.84, 0.00073074934, 10.001487, 10.000218 
1.1150116e+3, 1.2497896e+2, -1774821.5, -1630557.9, 137319.94, 0.04156694, 0.2756729, -1547577.6, 167632.14, 0.000944546, 9.999055, 10.000991 
1.11501e+3, 1.3497692e+2, -1662192.0, -1574049.8, 28290.854, 0.011884006, -0.021148138, -1565750.8, 51470.723, 0.00045159098, 9.999386, 10.000573 
1.11500815e+3, 1.44976e+2, -1575344.0, -1617487.5, 12021.074, -0.046686668, -0.101451226, -1572156.3, -52927.64, 0.00012308804, 9.999873, 9.999356 
1.1150075e+3, 1.5497708e+2, -1352262.3, -1463958.6, 33879.6, 0.031473577, 0.03352105, -1342789.3, 78432.78, 0.000008505592, 10.000761, 9.99931 
1.115005e+3, 1.6497706e+2, -1222257.4, -1290069.3, -8199.212, -0.01219194, 0.08138193, -1221280.0, 101943.23, 0.0000000033697685, 10.000727, 9.999847 
1.1150014e+3, 1.7497592e+2, -1231010.9, -1239199.4, 43531.945, -0.11434711, -0.050527353, -1191381.1, 33850.91, 0.0, 9.999974, 9.999888 
1.11499906e+3, 1.8497552e+2, -1204893.6, -1214612.1, 66681.05, -0.11933618, -0.05420906, -1142895.0, -15660.557, 0.0, 9.999653, 9.999536 
1.11499794e+3, 1.9497548e+2, -1090422.8, -1108837.0, 68767.516, -0.04397743, -0.044097267, -1030248.75, -1014.5056, 0.0, 9.999777, 9.999524 
1.11499585e+3, 2.0497532e+2, -932592.9, -933122.0, 34864.8, -0.022746418, -0.02705062, -897991.6, 33242.51, 0.0, 9.999958, 9.999975 
1.11499295e+3, 2.1497466e+2, -805643.4, -824700.1, 91112.37, -0.0525655, -0.12545007, -723562.56, 109675.49, 0.0, 10.000173, 9.999948 
1.11498974e+3, 2.2497395e+2, -807078.7, -940051.44, 50672.223, -0.083713755, -0.10892549, -789970.1, -54725.117, 0.0, 10.000214, 9.998457 
1.1149865e+3, 2.3497294e+2, -741718.2, -858746.9, 14171.702, -0.10511729, -0.08584355, -740026.5, -102768.89, 0.0, 9.999989, 9.998454 
1.1149838e+3, 2.4497204e+2, -586982.6, -665618.2, 11232.942, -0.109682925, -0.04681068, -585409.5, -46142.59, 0.0, 10.0000925, 9.999049 
1.11498155e+3, 2.5497085e+2, -423184.97, -537973.06, 36154.74, -0.093681484, -0.10411358, -412746.56, 28529.613, 0.0, 10.000549, 9.999031 
1.11497924e+3, 2.6496968e+2, -370328.88, -559709.25, -15476.759, -0.054078314, -0.07642884, -369072.4, -25784.447, 0.00000020790911, 10.000654, 9.998167 
1.1149768e+3, 2.7496806e+2, -325225.5, -484995.1, -10385.734, 0.01008075, -0.09025203, -324553.22, -79247.44, 0.0000030041283, 10.000275, 9.998193 
1.1149741e+3, 2.8496683e+2, -181669.63, -292377.56, -2665.4053, 0.02487892, -0.055558223, -181605.48, -34286.48, 0.000021785861, 10.000288, 9.9988365 
1.11497134e+3, 2.9496557e+2, -23805.965, -167499.89, 28448.13, -0.020880146, -0.10511786, -18378.855, 30952.916, 0.00010887074, 10.00069, 9.998829 
1.11496866e+3, 3.049647e+2, 45627.934, -202480.27, -52565.098, -0.009360172, -0.02562699, 56305.082, 56305.082, 0.00034133886, 10.001245, 9.997983 
1.1149658e+3, 3.1496406e+2, 105418.77, -111632.555, -59813.51, 0.03354114, 0.06483023, 120810.33, 120810.33, 0.0007374856, 10.001321, 9.998564 
1.125012e+3, 1.2498022e+2, -1596058.5, -1563813.3, 232573.98, 0.12224271, 0.19437388, -1346803.8, 368391.66, 0.0010643419, 10.000359, 10.000842 
1.12500906e+3, 1.3497896e+2, -1686434.8, -1609866.4, 10116.588, -0.006255261, 0.00005672396, -1608552.3, 8649.93, 0.00051804923, 9.999326, 10.000363 
1.12500876e+3, 1.4497858e+2, -1697482.0, -1624219.4, 58645.88, 0.087515905, -0.03799153, -1591704.5, -72499.69, 0.00014661087, 9.998823, 9.999809 
1.1250074e+3, 1.5497957e+2, -1557625.9, -1508034.4, 64484.383, 0.040951483, 0.038880862, -1463742.8, -42544.39, 0.00001150662, 9.999138, 9.999778 
1.1250049e+3, 1.6497967e+2, -1378553.1, -1359322.3, 18177.133, -0.030536326, 0.072056405, -1348374.0, -25175.715, 0.0000000061074554, 9.999624, 9.999905 
1.1250018e+3, 1.7497875e+2, -1165752.3, -1197072.6, -30362.643, -0.08245328, -0.042954996, -1147249.1, 77956.234, 0.0, 10.000385, 9.999974 
1.1249995e+3, 1.8497856e+2, -1090850.4, -1138299.8, -1773.4343, -0.06982001, -0.041112818, -1090784.1, 36421.695, 0.0, 10.000337, 9.999732 
1.1249978e+3, 1.9497862e+2, -1111757.4, -1103972.5, 13192.6045, -0.011374621, -0.039744437, -1094110.1, -64905.668, 0.0, 9.99953, 9.999692 
1.1249959e+3, 2.0497859e+2, -981955.8, -962307.8, 32772.465, 0.0021749844, -0.015122939, -937918.56, -6715.2314, 0.0, 9.999662, 9.99991 
1.1249938e+3, 2.1497808e+2, -705073.06, -777215.7, -28766.658, -0.021547245, -0.090521835, -695006.94, 138199.38, 0.0, 10.000885, 9.99992 
1.1249907e+3, 2.2497724e+2, -701304.94, -904786.75, -81452.35, -0.039988086, -0.08217703, -672716.7, 62498.0, 0.0, 10.00099, 9.998336 
1.1249869e+3, 2.3497583e+2, -736355.75, -868204.56, -53004.832, -0.0449996, -0.086633764, -717689.75, -80459.35, 0.0, 10.000062, 9.998357 
1.12498425e+3, 2.4497464e+2, -608563.4, -670942.25, 55569.027, -0.05271313, -0.07255967, -576029.2, -36787.664, 0.0, 9.999931, 9.999092 
1.1249824e+3, 2.5497338e+2, -408600.97, -527992.0, 30922.813, -0.058869228, -0.13900523, -401067.22, 40183.727, 0.0, 10.000647, 9.999061 
1.1249802e+3, 2.6497236e+2, -329975.6, -530278.4, -14598.559, -0.025886435, -0.097227946, -328917.2, 14343.478, 0.00000016860811, 10.0009, 9.998247 
1.12497754e+3, 2.749712e+2, -257113.3, -444037.9, -15245.311, 0.049945276, -0.0735585, -255878.08, -10603.384, 0.0000038179373, 10.000718, 9.998254 
1.1249751e+3, 2.849698e+2, -104210.09, -300093.84, 49048.3, 0.06335111, -0.03692645, -92615.0, 54674.69, 0.000026510976, 10.001001, 9.998437 
1.1249726e+3, 2.9496792e+2, 79666.08, -156621.1, -5585.965, 0.015596338, -0.11461354, 79798.06, 129106.914, 0.00011807009, 10.001573, 9.998467 
1.12497024e+3, 3.0496657e+2, 116826.06, -184237.23, -36122.164, 0.012438578, -0.054915886, 121099.414, 121099.414, 0.0003550206, 10.001834, 9.997823 
1.12496756e+3, 3.1496608e+2, 111303.336, -136073.66, 11231.84, 0.06920835, 0.07960137, 111812.26, 111812.26, 0.0007557831, 10.001475, 9.998338 
1.1350113e+3, 1.24978445e+2, -1682525.5, -1735865.9, 90656.42, -0.04886643, -0.30013263, -1614697.6, 100499.23, 0.0011953667, 10.000346, 9.999656 
1.13500744e+3, 1.3497949e+2, -1761736.6, -1755778.0, -17039.477, -0.1340002, -0.16441852, -1741459.4, -124267.48, 0.00059164723, 9.999294, 9.9993725 
1.1350083e+3, 1.4498036e+2, -1639804.3, -1504966.5, 51949.563, 0.10733473, -0.06913523, -1487273.4, 31912.182, 0.00017336896, 9.998822, 10.000632 
1.1350061e+3, 1.5498084e+2, -1501529.8, -1391638.1, 94661.3, -0.039011694, -0.12043258, -1337131.8, 84048.375, 0.000015247707, 9.999131, 10.000585 
1.13500394e+3, 1.6498123e+2, -1440781.4, -1484310.6, 28726.71, -0.1371066, -0.056942325, -1426505.5, -103326.85, 0.000000009421829, 9.999607, 9.999053 
1.1350019e+3, 1.749811e+2, -1229974.8, -1328047.9, 10927.931, -0.13869905, -0.00879541, -1228771.9, -3586.6326, 0.0, 10.000376, 9.999078 
1.13499984e+3, 1.8498106e+2, -1040110.8, -1023077.7, -51685.57, -0.09843319, 0.012724992, -979211.7, 147973.84, 0.0, 10.000288, 10.000551 
1.1349975e+3, 1.9498077e+2, -1076223.6, -994216.1, -3139.1284, -0.025923783, -0.10245825, -994096.1, 35086.61, 0.0, 9.999371, 10.000526 
1.1349955e+3, 2.0498075e+2, -1092595.9, -1154741.0, 60523.96, -0.034491565, -0.05915799, -1055634.3, -124451.055, 0.0, 9.999501, 9.998668 
1.1349939e+3, 2.1498063e+2, -825532.2, -975308.25, 28396.174, -0.10752495, 0.032562032, -820329.25, 12860.589, 0.0, 10.000667, 9.998666 
1.13499135e+3, 2.2498009e+2, -646254.6, -746133.7, -135447.44, -0.104704075, 0.075177185, -551833.6, 183361.7, 0.0, 10.0007925, 9.999521 
1.1349874e+3, 2.3497875e+2, -686767.0, -716568.8, -73012.41, -0.026142813, -0.045100648, -627150.5, 10052.515, 0.0, 9.999847, 9.999504 
1.13498464e+3, 2.4497734e+2, -653454.9, -720651.0, 67952.5, -0.031429626, -0.094736405, -611248.1, -72035.13, 0.0, 9.999743, 9.99884 
1.1349829e+3, 2.5497568e+2, -447798.97, -572152.94, 74218.5, -0.10068447, -0.17905374, -413154.66, 28072.863, 0.0, 10.000484, 9.998836 
1.13498084e+3, 2.6497474e+2, -313410.63, -469456.94, -33280.58, -0.083918996, -0.14446068, -306609.2, 36626.844, 0.00000020663475, 10.00078, 9.998728 
1.1349782e+3, 2.7497402e+2, -243969.73, -391991.13, -240.48766, 0.015762454, -0.1183632, -243969.34, 1273.9686, 0.0000055002247, 10.000604, 9.998672 
1.13497585e+3, 2.8497273e+2, -196316.0, -458080.63, 53964.367, 0.009496766, -0.044289555, -185627.38, -38368.715, 0.000033703815, 10.000871, 9.997409 
1.1349738e+3, 2.949707e+2, -13106.363, -315032.8, 35519.832, -0.081433795, -0.032596815, -8983.955, 40299.098, 0.00013271971, 10.001426, 9.99745 
1.1349715e+3, 3.0496857e+2, 187096.72, -1616.8737, -59554.082, -0.06623568, -0.06872233, 204319.02, 204319.02, 0.00037893685, 10.001682, 9.999149 
1.1349688e+3, 3.1496716e+2, 173419.2, 44344.336, 46933.863, -0.021425422, -0.15780367, 188680.69, 188680.69, 0.0007912106, 10.001264, 9.999677 
1.14501245e+3, 1.2498056e+2, -1895052.1, -1858437.5, -22824.334, 0.10657219, -0.30674005, -1847485.5, -132310.36, 0.0013373722, 9.99893, 9.999517 
1.1450069e+3, 1.3498162e+2, -1617322.0, -1676425.6, -16592.076, -0.14991032, -0.18299907, -1612982.8, 4187.7837, 0.000672049, 10.000203, 9.9994955 
1.1450078e+3, 1.4498268e+2, -1418340.5, -1391935.8, 90686.63, 0.12261207, -0.07862388, -1313495.5, 205666.83, 0.0002032588, 10.000317, 10.000686 
1.1450054e+3, 1.5498301e+2, -1452515.0, -1362044.4, 31213.895, -0.03199154, -0.14676411, -1352320.3, 68837.71, 0.000019742625, 9.999444, 10.000635 
1.14500344e+3, 1.6498351e+2, -1495000.5, -1475484.6, 46977.21, -0.107713446, -0.09113663, -1437262.6, -114107.85, 0.000000013934886, 9.999094, 9.999357 
1.1450025e+3, 1.7498375e+2, -1351169.4, -1349948.3, 91128.305, -0.06508777, -0.03685243, -1259428.5, -34272.1, 0.0, 9.999395, 9.999395 
1.1450006e+3, 1.8498385e+2, -1133614.8, -1105707.6, 35868.773, -0.021109534, 0.0003563333, -1081173.9, 45982.18, 0.0, 9.999823, 10.000198 
1.14499755e+3, 1.9498351e+2, -952100.6, -962988.1, -42136.043, 0.0027313095, -0.08744698, -915058.1, 114098.58, 0.0, 10.000385, 10.000227 
1.1449954e+3, 2.0498334e+2, -972375.1, -1108306.5, 70964.58, -0.024191927, -0.03957905, -942079.44, -10920.069, 0.0, 10.000345, 9.998596 
1.1449943e+3, 2.1498299e+2, -972749.75, -1055921.6, 102880.32, -0.08418986, 0.03413381, -903368.4, -70201.06, 0.0, 9.999665, 9.998612 
1.144992e+3, 2.2498238e+2, -761619.8, -779823.8, -24094.594, -0.06854198, 0.06496717, -744965.3, -9792.722, 0.0, 9.999933, 9.99969 
1.1449884e+3, 2.3498112e+2, -471703.78, -586058.25, -75821.23, 0.015240048, -0.06308394, -433917.38, 203261.33, 0.0, 10.001235, 9.999718 
1.1449855e+3, 2.449799e+2, -419794.5, -620807.75, 51252.695, 0.003089824, -0.103211045, -407480.8, 131706.2, 0.0, 10.001382, 9.998744 
1.1449834e+3, 2.5497845e+2, -465939.3, -585646.56, 40669.27, -0.09142129, -0.15677263, -453429.66, -12229.821, 0.0, 10.000379, 9.99879 
1.1449813e+3, 2.6497746e+2, -389249.5, -512987.84, -31907.705, -0.08358151, -0.12517647, -381506.22, -38296.965, 0.00000038376965, 10.000276, 9.998677 
1.1449792e+3, 2.7497643e+2, -177404.66, -362452.63, -68576.95, 0.028660709, -0.12764765, -154761.44, 90457.945, 0.0000075917305, 10.001064, 9.998654 
1.1449769e+3, 2.84975e+2, -139560.34, -435184.72, 37548.293, 0.020211974, -0.06402256, -134865.75, 12369.82, 0.000041535674, 10.001274, 9.997378 
1.1449748e+3, 2.9497308e+2, -109333.1, -364214.72, 57312.277, -0.0707465, -0.036087908, -97038.95, -47780.57, 0.00014998692, 10.000779, 9.997427 
1.1449729e+3, 3.0497083e+2, 92959.87, -51224.945, -10522.226, -0.05085116, -0.07989637, 93723.7, 93723.7, 0.00040887797, 10.00102, 9.999128 
1.1449704e+3, 3.1496966e+2, 219392.42, 71905.98, -68487.97, 0.019904986, -0.15447411, 246290.47, 246290.47, 0.0008407425, 10.001563, 9.999704 
1.1550122e+3, 1.2498584e+2, -1826185.3, -1705382.6, -120385.23, 0.12486422, 0.09432614, -1631095.6, 84041.484, 0.001489488, 9.998892, 10.000581 
1.15500696e+3, 1.3498557e+2, -1525538.5, -1480072.3, 46211.67, -0.19275971, -0.049320027, -1451304.8, 165831.11, 0.00075867696, 10.00019, 10.000838 
1.1550072e+3, 1.4498554e+2, -1476934.0, -1519448.9, 39019.29, -0.023539232, -0.078534044, -1453757.4, 65377.98, 0.0002361324, 10.000325, 9.999817 
1.1550047e+3, 1.5498604e+2, -1505622.9, -1480048.8, 11812.024, -0.08028689, -0.049116608, -1475428.0, -54295.133, 0.000024990082, 9.999465, 9.999823 
1.1550031e+3, 1.6498652e+2, -1384378.6, -1242792.4, 39892.113, -0.087286934, -0.03253869, -1232326.4, 90799.89, 0.000000023716384, 9.999087, 10.000953 
1.1550031e+3, 1.7498681e+2, -1249009.8, -1124173.4, 117931.57, 0.014048801, -0.13266002, -1053160.4, 171957.22, 0.0, 9.999345, 10.000964 
1.1550012e+3, 1.8498705e+2, -1259244.6, -1352280.0, 39693.348, 0.027569614, -0.07567744, -1244611.3, -117495.016, 0.0, 9.99976, 9.998536 
1.1549976e+3, 1.9498684e+2, -1083108.1, -1212285.0, -9410.768, -0.06553995, 0.010453496, -1082426.1, -53299.914, 0.0, 10.00028, 9.998568 
1.15499526e+3, 2.0498635e+2, -903816.25, -931746.8, 22928.9, -0.103677, 0.045757134, -890934.5, 40197.727, 0.0, 10.000195, 9.999881 
1.1549943e+3, 2.1498525e+2, -913001.7, -886197.8, 91429.625, -0.07576631, -0.08502496, -807193.1, 25944.545, 0.0, 9.999458, 9.99988 
1.1549923e+3, 2.2498421e+2, -856852.3, -930752.1, 9311.438, -0.05360861, -0.113751814, -855697.1, -120551.67, 0.0, 9.999733, 9.998749 
1.1549894e+3, 2.3498294e+2, -567163.3, -740371.5, -11581.426, -0.036586557, -0.14891121, -566392.4, 70765.77, 0.0, 10.001047, 9.99875 
1.1549863e+3, 2.449822e+2, -436930.5, -611396.8, -6611.514, -0.06755422, -0.098555855, -436680.3, 102484.59, 0.0, 10.001188, 9.9989 
1.1549834e+3, 2.549817e+2, -483349.4, -581335.6, 16069.452, -0.15425134, -0.07304925, -480781.38, -39613.09, 0.0, 10.000198, 9.998906 
1.1549812e+3, 2.6498047e+2, -451984.1, -603769.2, -16176.047, -0.14974633, -0.04143183, -450279.34, -107098.63, 0.0000005356376, 10.000111, 9.998128 
1.1549798e+3, 2.749782e+2, -232714.75, -442464.16, -19532.04, -0.055540822, -0.12265992, -230911.42, 14293.874, 0.000008957139, 10.000916, 9.998175 
1.1549779e+3, 2.849766e+2, -86491.33, -290534.22, 5874.614, -0.040458474, -0.10380168, -86322.336, 60898.605, 0.000047577858, 10.001129, 9.99844 
1.1549756e+3, 2.9497525e+2, -52805.65, -231328.61, 66199.97, -0.11048254, -0.12173239, -30936.357, 18296.438, 0.00016516355, 10.000698, 9.998384 
1.1549737e+3, 3.0497348e+2, -42880.383, -290095.0, 998.68976, -0.09263118, -0.086326666, -42876.348, -42876.348, 0.00043857994, 10.000852, 9.997557 
1.15497135e+3, 3.1497312e+2, 84601.805, -163909.4, 4728.5576, -0.11363962, 0.07551194, 84691.75, 84691.75, 0.0008950193, 10.001374, 9.99817 
1.165012e+3, 1.2498911e+2, -1656637.6, -1598061.0, -36107.49, 0.17558749, 0.17113888, -1580856.9, 134252.4, 0.0016512593, 9.999948, 10.000801 
1.16500735e+3, 1.349888e+2, -1639074.1, -1516177.4, 41936.414, -0.121111184, 0.012633407, -1503231.1, 113874.766, 0.0008513687, 9.999351, 10.00099 
1.1650066e+3, 1.4498827e+2, -1658961.0, -1646835.0, 31654.234, -0.055573564, -0.055462226, -1620668.4, -101558.79, 0.00027198074, 9.999265, 9.999441 
1.16500475e+3, 1.549886e+2, -1474516.4, -1509886.8, 387.88757, -0.030072138, -0.004560288, -1474512.1, -53402.504, 0.00003101119, 9.999877, 9.999414 
1.1650033e+3, 1.6498879e+2, -1252591.6, -1164316.0, 20377.414, -0.003935188, -0.0062554297, -1159839.3, 163266.31, 0.00000004774233, 9.999917, 10.001099 
1.16500296e+3, 1.7498855e+2, -1223685.4, -1100787.8, -45832.93, 0.07178289, -0.16847941, -1085577.4, 139522.02, 0.0, 9.999447, 10.001091 
1.16500124e+3, 1.8498872e+2, -1297807.6, -1377221.4, -56456.563, 0.074825205, -0.12323362, -1268492.9, -141394.7, 0.0, 9.999516, 9.998484 
1.1649982e+3, 1.9498898e+2, -1092254.0, -1223043.6, -12593.319, -0.024626529, 0.017754423, -1091052.5, -61947.867, 0.0, 10.000241, 9.998518 
1.16499595e+3, 2.0498851e+2, -858198.1, -891189.7, 26791.777, -0.052474473, 0.050320838, -843231.06, 87879.03, 0.0, 10.000453, 10.000019 
1.16499476e+3, 2.1498698e+2, -800615.9, -807789.2, -32097.734, -0.0016506711, -0.14056383, -771905.0, 61212.65, 0.0, 10.00016, 10.000059 
1.1649928e+3, 2.249859e+2, -808717.2, -945539.06, -49642.383, 0.0042319824, -0.16679, -792603.44, -57477.473, 0.0, 10.000216, 9.998425 
1.16499014e+3, 2.3498486e+2, -654860.2, -820013.9, -48235.824, -0.025711762, -0.14514156, -641804.25, -4665.4683, 0.0, 10.000594, 9.998432 
1.16498746e+3, 2.4498412e+2, -505091.16, -651551.94, -46545.895, -0.050268713, -0.075375624, -491550.5, 47596.58, 0.0, 10.000751, 9.998833 
1.1649845e+3, 2.5498343e+2, -414476.8, -556852.7, -74921.53, -0.075912, -0.06342559, -382316.03, 58837.297, 0.0, 10.0007, 9.998835 
1.164982e+3, 2.649822e+2, -352627.8, -537383.94, -23944.39, -0.08950093, -0.034640893, -349575.06, -6409.3677, 0.00000056359414, 10.000723, 9.998285 
1.1649802e+3, 2.749802e+2, -244080.33, -429975.25, -11819.681, -0.082586996, -0.09771696, -243331.81, 1854.8761, 0.00000928475, 10.000781, 9.9983225 
1.1649784e+3, 2.849788e+2, -100828.12, -249319.1, 17954.482, -0.069988005, -0.0895682, -98688.03, 48511.44, 0.000050789153, 10.000806, 9.998882 
1.1649768e+3, 2.949777e+2, -24474.32, -163340.88, -7670.5825, -0.04821561, -0.13304405, -24051.906, 25155.998, 0.00017624088, 10.0006695, 9.9988575 
1.1649751e+3, 3.04976e+2, -24361.977, -314290.9, 34182.746, -0.041466597, -0.10049897, -20386.332, -20386.332, 0.0004642717, 10.001101, 9.997291 
1.16497226e+3, 3.149759e+2, 105452.73, -166450.47, 87722.71, -0.15067884, 0.12433541, 131297.64, 131297.64, 0.0009430791, 10.001554, 9.998092 
1.17501095e+3, 1.2499011e+2, -1710637.9, -1682740.9, -84245.12, 0.010424459, -0.11850666, -1611297.4, 103796.414, 0.0018234614, 9.999861, 10.000255 
1.1750077e+3, 1.3499139e+2, -1715362.0, -1675913.8, 32848.94, -0.042958297, -0.004584398, -1657322.3, -40242.605, 0.0009506097, 9.999368, 9.999886 
1.1750055e+3, 1.4499097e+2, -1656937.8, -1635255.8, 37935.242, -0.12613325, -0.011745276, -1606642.9, -87558.84, 0.00031097958, 9.999238, 9.999528 
1.1750052e+3, 1.5499085e+2, -1472892.0, -1505027.5, 40798.883, -0.0133286, -0.012382149, -1445110.9, -24023.516, 0.00003785508, 9.999869, 9.999449 
1.17500365e+3, 1.6499022e+2, -1355853.3, -1373021.6, -15869.276, 0.0033454595, -0.02308324, -1346395.3, -23302.219, 0.00000010132158, 9.999893, 9.999674 
1.17500186e+3, 1.7498891e+2, -1327874.1, -1303940.0, -48134.215, -0.0141377635, -0.16156837, -1266307.5, -41204.906, 0.0, 9.999391, 9.999722 
1.1750002e+3, 1.8498895e+2, -1194771.3, -1148176.4, -46544.703, -0.0097047025, -0.14072564, -1119424.0, 7676.9097, 0.0, 9.999452, 10.000088 
1.174999e+3, 1.9499002e+2, -995713.9, -999876.4, 33173.402, 0.0015525871, -0.077232614, -964556.5, 64534.652, 0.0, 10.000139, 10.000102 
1.1749973e+3, 2.0498988e+2, -955611.56, -1060192.4, -1949.0487, 0.0005093148, -0.035218276, -955575.25, -24483.088, 0.0, 10.000312, 9.998925 
1.1749952e+3, 2.1498825e+2, -905118.9, -984128.3, -29453.578, 0.009327585, -0.12957403, -895347.44, -62240.47, 0.0, 9.999977, 9.998941 
1.1749929e+3, 2.2498733e+2, -812296.75, -902564.9, -53682.168, -0.020216644, -0.10090083, -787296.25, -52180.617, 0.0, 10.0, 9.998821 
1.1749904e+3, 2.3498692e+2, -657424.2, -771247.75, -17691.826, -0.09285926, -0.05914225, -654737.7, -17617.205, 0.0, 10.000368, 9.998871 
1.17498815e+3, 2.4498574e+2, -561437.9, -721168.06, -63930.79, -0.08123892, -0.03568611, -539001.56, 131.40266, 0.0, 10.000541, 9.99846 
1.1749864e+3, 2.5498354e+2, -456699.5, -609989.94, -61038.496, 0.01837089, -0.14325367, -435364.2, 5791.7456, 0.0, 10.000549, 9.998543 
1.1749839e+3, 2.6498258e+2, -320898.9, -437884.47, -38848.832, -0.00859009, -0.11247412, -309173.22, 33991.895, 0.0000005132723, 10.000576, 9.999044 
1.17498025e+3, 2.7498248e+2, -208514.19, -330417.53, 9010.332, -0.18815014, -0.062697776, -207851.8, 37312.52, 0.000009286575, 10.000668, 9.999064 
1.1749782e+3, 2.849817e+2, -140318.9, -298615.6, -17.12696, -0.20232545, -0.015426814, -140318.89, 6852.131, 0.000051726838, 10.000668, 9.99861 
1.174978e+3, 2.9498002e+2, -44638.715, -189916.06, 7876.42, -0.038910028, -0.092589505, -44212.934, 4974.4575, 0.00018255804, 10.000592, 9.998715 
1.1749767e+3, 3.0497795e+2, 34091.387, -150900.64, 43402.5, -0.025258629, -0.15186237, 43768.215, 43768.215, 0.00047999644, 10.000944, 9.998481 
1.1749725e+3, 3.1497815e+2, 178754.83, 49124.07, 146508.14, -0.34906697, -0.016728587, 274144.53, 274144.53, 0.0009686636, 10.001307, 9.9996805 
1.1850094e+3, 1.2499289e+2, -1860925.6, -1821227.8, 535.77795, -0.08254014, -0.18596621, -1821220.5, -106157.914, 0.0020081834, 9.999087, 9.999685 
1.1850088e+3, 1.349936e+2, -1560177.4, -1706466.8, 25475.62, 0.06389298, -0.04600868, -1555867.9, 61189.742, 0.0010574218, 10.000866, 9.998961 
1.1850061e+3, 1.4499292e+2, -1419485.6, -1528405.9, 34800.773, -0.07103459, -0.028029338, -1409316.0, 109749.87, 0.00035351914, 10.000881, 9.999479 
1.18500546e+3, 1.5499288e+2, -1543675.9, -1537611.6, -8509.1875, 0.065329716, -0.01788895, -1531610.5, -110542.516, 0.00004562391, 9.999379, 9.999465 
1.1850038e+3, 1.6499236e+2, -1504754.3, -1478221.4, 36924.742, 0.07145855, -0.0038420712, -1452252.3, -129179.16, 0.00000019883093, 9.999019, 9.999379 
1.18500136e+3, 1.7499104e+2, -1271799.5, -1303875.0, 52646.26, -0.019398808, -0.113692306, -1232802.4, -7718.587, 0.0, 9.9999, 9.999473 
1.1849999e+3, 1.8499091e+2, -1082664.0, -1068675.4, 71412.77, -0.01757891, -0.11118858, -1003915.2, 123168.03, 0.0, 10.000108, 10.000319 
1.1849994e+3, 1.9499156e+2, -1044149.2, -993483.8, 12610.752, 0.06266088, -0.11252962, -990518.5, 38556.363, 0.0, 9.999679, 10.000367 
1.1849979e+3, 2.0499139e+2, -1030521.25, -1126940.1, -1117.0901, 0.065315954, -0.075105324, -1030508.3, -99432.34, 0.0, 9.999924, 9.998668 
1.1849956e+3, 2.1499e+2, -792793.8, -952227.1, 9355.155, 0.010126864, -0.11476699, -792246.8, 40843.082, 0.0, 10.000853, 9.998739 
1.1849934e+3, 2.2498919e+2, -649234.1, -811295.25, 23843.666, -0.02140857, -0.07112813, -645798.9, 89299.43, 0.0, 10.00107, 9.998927 
1.1849912e+3, 2.3498864e+2, -624138.44, -743555.7, -761.8148, -0.03816191, -0.05508216, -624133.6, 12970.876, 0.0, 10.000545, 9.998972 
1.1849893e+3, 2.4498758e+2, -599841.1, -732307.44, -8641.0625, -0.002183457, -0.03106963, -599279.8, -60163.613, 0.0, 10.00025, 9.998523 
1.1849874e+3, 2.5498566e+2, -504242.4, -633982.2, -6316.651, 0.08929638, -0.10955575, -503935.6, -62798.676, 0.0, 10.000225, 9.998541 
1.1849849e+3, 2.649846e+2, -333971.9, -427113.34, 44395.617, 0.049099613, -0.09112216, -316201.34, 26945.25, 0.0000005059796, 10.000429, 9.99918 
1.1849813e+3, 2.7498412e+2, -177153.69, -304874.7, 4323.399, -0.14746054, -0.09231938, -177007.5, 68141.195, 0.000009353779, 10.000841, 9.999155 
1.18497916e+3, 2.8498346e+2, -141358.58, -310635.66, -10134.491, -0.17563376, -0.033199374, -140753.98, 6400.602, 0.000051580555, 10.000726, 9.998487 
1.1849786e+3, 2.949825e+2, -128124.375, -247155.25, -27356.139, -0.0006456333, -0.023837857, -122138.31, -72972.6, 0.00018437536, 10.000103, 9.998552 
1.1849777e+3, 3.0498022e+2, -32317.5, -119208.875, 43391.445, 0.028640388, -0.12373854, -14360.051, -14360.051, 0.0004810056, 10.000195, 9.999063 
1.1849741e+3, 3.1497955e+2, 130843.586, 103500.46, 35216.242, -0.27248827, -0.1353845, 154948.94, 154948.94, 0.0009623852, 10.000608, 10.0004 
1.1950079e+3, 1.2499776e+2, -1893728.6, -1888129.8, 112361.72, -0.2084746, -0.007410486, -1778532.6, -63519.953, 0.0022081332, 9.999086, 9.999217 
1.1950098e+3, 1.3499524e+2, -1597840.6, -1789796.8, 102298.8, 0.04611739, -0.13382334, -1553544.5, 63496.746, 0.0011730703, 10.000878, 9.998383 
1.19500756e+3, 1.4499404e+2, -1433557.5, -1554392.9, -42512.152, -0.053374182, -0.1311939, -1420099.8, 98956.32, 0.00040013902, 10.000872, 9.999305 
1.1950055e+3, 1.5499482e+2, -1552568.0, -1561952.3, -49333.813, 0.08621246, -0.023697117, -1507703.6, -86653.32, 0.00005450229, 9.999397, 9.999291 
1.195003e+3, 1.6499525e+2, -1444972.1, -1354802.1, 49714.934, 0.070546344, 0.052685454, -1332773.6, -9728.928, 0.00000035173326, 9.999017, 10.00023 
1.1950011e+3, 1.7499508e+2, -1221181.8, -1190598.9, 100014.445, -0.065462194, -0.024221325, -1104713.6, 120328.11, 0.0, 9.999858, 10.000276 
1.1949997e+3, 1.8499462e+2, -1174543.0, -1243554.8, 38506.82, -0.08153994, -0.03394126, -1157343.6, -30299.014, 0.0, 10.000043, 9.999147 
1.194999e+3, 1.949936e+2, -1143441.8, -1173189.0, 11044.896, 0.027907059, -0.08890851, -1139789.4, -110733.45, 0.0, 9.999562, 9.999191 
1.1949976e+3, 2.0499295e+2, -1005245.3, -1038842.94, 15396.829, 0.010921487, -0.07360047, -999256.8, -68194.98, 0.0, 9.999775, 9.99934 
1.19499534e+3, 2.1499236e+2, -775983.5, -870890.5, 59295.94, -0.12621284, -0.10297652, -747490.7, 85574.73, 0.0, 10.000653, 9.999393 
1.1949936e+3, 2.2499149e+2, -698914.7, -864716.0, -13452.548, -0.12586375, -0.08362541, -697830.25, 37243.664, 0.0, 10.000855, 9.998662 
1.1949926e+3, 2.3499009e+2, -670330.7, -791024.9, -8231.474, 0.017638383, -0.12886271, -669771.9, -32681.92, 0.0, 10.000341, 9.998739 
1.19499035e+3, 2.4498968e+2, -596051.94, -680826.8, -26977.455, 0.060717437, -0.049523804, -588195.2, -49099.332, 0.0, 10.000058, 9.998976 
1.1949871e+3, 2.5498995e+2, -497470.44, -574896.25, 8624.159, -0.0025988168, 0.044892836, -496521.47, -55426.727, 0.0, 10.000035, 9.999037 
1.1949846e+3, 2.649885e+2, -405010.88, -536643.9, 46123.09, -0.05019116, 0.03242224, -390458.53, -47349.95, 0.0000006389743, 10.000259, 9.998514 
1.19498305e+3, 2.7498516e+2, -239439.55, -400175.28, 38469.793, -0.086333625, -0.1937733, -230706.8, 14433.366, 0.000009301616, 10.000701, 9.998567 
1.1949808e+3, 2.8498417e+2, -158398.02, -324035.8, -46741.883, -0.10256133, -0.13576767, -146118.16, 1031.8385, 0.00005191434, 10.000622, 9.998451 
1.1949783e+3, 2.9498515e+2, -148550.88, -266698.4, -27117.342, -0.087568045, 0.06867157, -142624.17, -93481.63, 0.00018470343, 9.999991, 9.998477 
1.1949775e+3, 3.0498284e+2, -79027.555, -166486.25, 53637.145, -0.020147663, -0.015407685, -53552.863, -53552.863, 0.0004730737, 9.999996, 9.998825 
1.1949762e+3, 3.1497994e+2, 83321.08, 66094.11, 99344.84, -0.18676712, -0.23264347, 174425.14, 174425.14, 0.0009339275, 10.00036, 10.000253 
1.2050078e+3, 1.2499971e+2, -1724424.1, -1789048.3, 95888.69, -0.17707627, 0.040492453, -1655549.8, 59445.613, 0.0024257244, 10.000186, 9.999379 
1.2050099e+3, 1.3499743e+2, -1778581.3, -1824213.4, 56169.49, 0.053679768, -0.09978912, -1740770.6, -123748.836, 0.0012988481, 9.999426, 9.998844 
1.20500855e+3, 1.4499661e+2, -1640178.1, -1647794.4, -24884.47, 0.033084743, -0.083615415, -1618812.0, -99780.2, 0.00045139206, 9.999418, 9.999366 
1.205005e+3, 1.5499696e+2, -1377517.5, -1467780.9, -57259.055, 0.060296807, -0.02736587, -1349742.0, 71286.84, 0.00006471426, 10.000554, 9.99938 
1.2050026e+3, 1.6499722e+2, -1207032.0, -1268368.3, 59445.414, 0.036873136, 0.03833835, -1170810.0, 152214.88, 0.00000057087306, 10.00078, 9.999963 
1.2050015e+3, 1.7499708e+2, -1183614.5, -1196190.5, -6159.012, -0.015716262, -0.011262644, -1181100.6, 43922.33, 0.0, 10.000234, 10.000044 
1.20500036e+3, 1.8499655e+2, -1203202.5, -1291016.1, -53200.26, -0.0071358616, -0.0005645652, -1178130.5, -51103.42, 0.0, 9.999997, 9.998839 
1.2049992e+3, 1.949953e+2, -1079654.6, -1171078.4, -44926.79, 0.06140695, -0.049655803, -1061272.9, -32232.225, 0.0, 10.000132, 9.998922 
1.2049977e+3, 2.0499454e+2, -946057.9, -981917.25, 28550.781, 0.036543444, -0.046346024, -930273.75, 773.4927, 0.0, 10.000036, 9.999609 
1.2049959e+3, 2.1499392e+2, -891019.7, -899451.7, 8591.396, -0.07938083, -0.10569974, -885665.6, -52615.14, 0.0, 9.999716, 9.999659 
1.2049945e+3, 2.2499321e+2, -835122.94, -901553.06, -35666.49, -0.06826991, -0.097923934, -819600.56, -84543.52, 0.0, 9.999798, 9.998924 
1.2049934e+3, 2.349921e+2, -655811.06, -757695.25, -21753.252, 0.07712142, -0.13550393, -651360.9, -14291.107, 0.0, 10.000326, 9.998983 
1.2049911e+3, 2.44992e+2, -498491.13, -610967.44, -4978.9224, 0.10477978, -0.046124075, -498271.16, 40801.285, 0.0, 10.0006485, 9.999152 
1.2049873e+3, 2.5499254e+2, -381940.16, -501536.63, -26846.494, -0.0069598504, 0.058655042, -376190.22, 64878.41, 0.00000000020898414, 10.000758, 9.999183 
1.20498486e+3, 2.649913e+2, -361788.34, -531020.1, 48049.895, -0.0587552, 0.059842933, -349097.3, -6015.788, 0.00000074892756, 10.000614, 9.99838 
1.20498374e+3, 2.7498794e+2, -318807.94, -455604.88, 45766.01, -0.047946967, -0.14927763, -304908.9, -59795.316, 0.000009032264, 10.000209, 9.998422 
1.2049818e+3, 2.849867e+2, -152886.13, -327657.16, 18571.828, -0.05789938, -0.10983677, -150934.4, -3808.3022, 0.000052136886, 10.000699, 9.99839 
1.2049791e+3, 2.9498714e+2, 131370.3, -135898.17, -8091.7314, -0.084714554, 0.05503333, 131615.05, 180737.81, 0.0001849306, 10.001963, 9.998419 
1.2049789e+3, 3.0498478e+2, 195658.6, -107530.57, 69868.55, 0.020567974, -0.0016302234, 210984.75, 210984.75, 0.0004665325, 10.002192, 9.998171 
1.2049783e+3, 3.1498176e+2, 120058.63, 32677.611, 19411.195, -0.028740099, -0.16735637, 124176.65, 124176.65, 0.00090606173, 10.000861, 9.999766 
1.21500865e+3, 1.2499796e+2, -1672303.8, -1668054.3, 13084.108, -0.16978589, -0.12444635, -1656923.5, 58094.875, 0.0026624324, 10.000156, 10.000215 
1.2150088e+3, 1.3500024e+2, -1682251.9, -1622213.0, 34040.863, -0.030053334, 0.0573882, -1606845.9, 10152.239, 0.0014356553, 9.999421, 10.000235 
1.21500865e+3, 1.4500079e+2, -1612259.5, -1588295.8, -3753.5667, 0.05683886, 0.114191376, -1587721.6, -68729.12, 0.0005075534, 9.999416, 9.999774 
1.215004e+3, 1.5499936e+2, -1355257.4, -1422358.6, 4285.2954, -0.13930972, -0.04162143, -1354984.8, 66018.586, 0.000076397075, 10.000553, 9.999697 
1.2150016e+3, 1.6499819e+2, -1303916.0, -1465375.4, 22254.26, -0.1743161, -0.06490822, -1300904.9, 22109.38, 0.0000008702971, 10.000771, 9.998609 
1.2150023e+3, 1.7499703e+2, -1288220.3, -1400588.3, -12138.508, 0.0077928337, -0.08043797, -1286923.9, -61896.484, 0.0, 10.00018, 9.998667 
1.2150015e+3, 1.8499663e+2, -1165208.1, -1199875.4, -65392.727, 0.075818256, -0.020462906, -1114890.8, 12140.415, 0.0, 9.999945, 9.999493 
1.21499926e+3, 1.949967e+2, -1052485.9, -1089320.3, -24178.4, 0.02922098, -0.0011914931, -1040509.2, -11480.568, 0.0, 10.000021, 9.999539 
1.2149977e+3, 2.0499618e+2, -980076.75, -1013998.0, -2138.769, 0.010980734, 0.0051874015, -979942.44, -48910.484, 0.0, 9.999873, 9.999463 
1.21499695e+3, 2.1499485e+2, -932076.5, -930579.25, 9799.264, 0.023498792, -0.11620735, -921500.06, -88456.35, 0.0, 9.999485, 9.999552 
1.21499546e+3, 2.2499447e+2, -812391.4, -807485.1, -33570.707, 0.026701167, -0.10932673, -776278.06, -41231.645, 0.0, 9.999588, 9.999676 
1.2149934e+3, 2.3499475e+2, -629085.3, -658140.75, 13748.621, 0.021123568, -0.08165873, -623611.06, 13431.657, 0.0, 10.000132, 9.999762 
1.214991e+3, 2.4499457e+2, -547268.44, -657969.9, -14237.224, -0.0029626244, -0.030968688, -545466.7, -6421.2305, 0.0, 10.000418, 9.998939 
1.2149879e+3, 2.5499353e+2, -421870.47, -545039.8, -7732.653, -0.042447057, -0.0662778, -421386.9, 19671.07, 0.00000000018849695, 10.000589, 9.998962 
1.2149853e+3, 2.6499298e+2, -358414.75, -487601.94, 17143.873, -0.0954198, -0.0020090865, -356178.38, -13113.841, 0.00000061447383, 10.00045, 9.998763 
1.2149832e+3, 2.749925e+2, -309713.03, -407990.5, 48875.37, -0.16444957, 0.03850161, -289545.1, -44476.2, 0.000008322687, 10.000073, 9.99882 
1.2149816e+3, 2.8499103e+2, -201918.63, -376827.72, 52679.977, -0.18240766, 0.05074848, -187277.73, -40195.32, 0.000050710027, 10.000489, 9.998147 
1.2149809e+3, 2.9498842e+2, 97763.89, -174100.2, 64100.414, -0.13690956, -0.0691937, 112119.516, 161226.48, 0.00018357177, 10.001834, 9.998213 
1.21498145e+3, 3.0498582e+2, 92289.92, -287881.88, 9790.128, 0.02508755, -0.08081504, 92541.87, 92541.87, 0.00046227945, 10.00205, 9.997004 
1.2149795e+3, 3.149846e+2, 23120.967, -109772.234, 5682.268, -0.057276286, 0.04927386, 23363.486, 23363.486, 0.000888819, 10.000616, 9.998905 
1.2250098e+3, 1.2499928e+2, -1851975.3, -1705236.6, 95875.36, 0.009819371, -0.09185466, -1657878.4, 57130.19, 0.0029179724, 9.998688, 10.000671 
1.2250077e+3, 1.3500232e+2, -1610876.4, -1516452.5, 45850.98, -0.074593954, 0.103547335, -1497852.0, 119126.234, 0.0015834377, 9.999606, 10.000871 
1.22500814e+3, 1.4500295e+2, -1561742.8, -1560774.9, 15893.077, 0.061992668, 0.13600226, -1545358.4, -26388.197, 0.00056846405, 9.99976, 9.999794 
1.2250041e+3, 1.550014e+2, -1514065.4, -1482489.4, -41712.273, -0.11412791, -0.040621955, -1453677.3, -32695.469, 0.00008951281, 9.999425, 9.999808 
1.2250023e+3, 1.6499992e+2, -1480729.4, -1606793.5, 36501.23, -0.12292778, -0.07783408, -1470923.4, -147927.64, 0.0000012652538, 9.999762, 9.998153 
1.22500345e+3, 1.749982e+2, -1221490.1, -1415315.3, 44160.508, 0.07759453, -0.10400022, -1211902.9, 13112.435, 0.0, 10.000817, 9.998274 
1.2250024e+3, 1.8499768e+2, -1006728.1, -1096882.4, 19835.428, 0.13484742, -0.050809905, -1002556.94, 124463.125, 0.0, 10.000902, 9.999747 
1.2249993e+3, 1.94998e+2, -1026791.25, -1049593.0, -2353.9255, 0.037995618, -0.030289315, -1026550.8, 2462.8494, 0.0, 10.00007, 9.9998 
1.2249977e+3, 2.0499761e+2, -994259.06, -1028097.4, 55490.125, 0.027336223, -0.019350806, -953166.06, -22150.502, 0.0, 9.999823, 9.999384 
1.2249974e+3, 2.1499628e+2, -843918.75, -893857.94, 38879.492, 0.10200428, -0.13125217, -822681.25, 10347.097, 0.0, 10.000141, 9.999476 
1.224996e+3, 2.2499605e+2, -699626.56, -732612.4, 16136.986, 0.09689361, -0.116185434, -693045.3, 41984.72, 0.0, 10.0002575, 9.999869 
1.2249933e+3, 2.3499657e+2, -617763.56, -635367.0, -15756.514, 0.00627082, -0.08522608, -608517.06, 28506.68, 0.0, 10.000115, 9.999934 
1.22499086e+3, 2.4499623e+2, -586350.1, -688736.75, -28168.162, -0.03711782, -0.05378885, -579112.25, -40084.742, 0.0, 10.0001745, 9.998861 
1.22498855e+3, 2.5499472e+2, -447001.84, -564801.25, -40154.65, -0.0323804, -0.12770279, -434616.4, 6427.6265, 0.0, 10.000439, 9.99891 
1.2249863e+3, 2.649942e+2, -311508.4, -447400.75, 1630.6587, -0.044267546, -0.06243982, -311488.84, 31560.877, 0.0000003685213, 10.000721, 9.998893 
1.2249844e+3, 2.749943e+2, -174185.03, -323156.88, -24872.309, -0.08415041, 0.025233442, -170142.08, 74905.945, 0.0000073761885, 10.000969, 9.998947 
1.2249829e+3, 2.8499278e+2, -137066.33, -371386.28, 23636.738, -0.11047812, 0.031716675, -134705.78, 12356.949, 0.000049087277, 10.001011, 9.997938 
1.2249825e+3, 2.949894e+2, -84482.055, -292690.53, 6864.742, -0.09914543, -0.14514533, -84255.96, -35160.297, 0.00018153466, 10.000681, 9.997968 
1.224983e+3, 3.0498734e+2, -80539.984, -355501.8, 2137.606, 0.05392173, -0.09621602, -80523.37, -80523.37, 0.00045750884, 10.000812, 9.997124 
1.22498095e+3, 3.149868e+2, 93344.96, -71433.38, 18663.193, 0.014441326, 0.09182406, 95432.36, 95432.36, 0.0008771986, 10.001044, 9.99897 
1.2350091e+3, 1.250033e+2, -1821726.4, -1665540.5, -15842.108, 0.004120075, 0.09036593, -1663949.8, 51019.715, 0.0031899144, 9.998761, 10.000916 
1.235006e+3, 1.3500363e+2, -1613896.6, -1537731.0, 87808.516, -0.2383105, 0.02532495, -1480102.5, 136859.84, 0.0017411282, 9.999647, 10.0007105 
1.23500645e+3, 1.4500298e+2, -1581200.4, -1612147.5, -17856.807, -0.12493906, -0.043397285, -1573045.6, -54079.285, 0.0006337289, 9.9998, 9.999429 
1.2350051e+3, 1.5500297e+2, -1535705.6, -1535042.6, -43381.707, 0.013051763, -0.028138455, -1491991.1, -71025.81, 0.00010392506, 9.999439, 9.999454 
1.2350043e+3, 1.6500227e+2, -1432121.1, -1505343.3, 53299.938, 0.0646447, -0.004645662, -1404069.5, -81098.37, 0.0000017603737, 9.999762, 9.998843 
1.2350044e+3, 1.7500062e+2, -1178446.9, -1324302.8, 96142.35, 0.061136235, -0.09154376, -1130702.4, 94284.39, 0.0, 10.000801, 9.998908 
1.2350026e+3, 1.8499967e+2, -1027564.75, -1128407.3, -28344.137, 0.03104921, -0.10258365, -1020144.06, 106850.18, 0.0, 10.000852, 9.999555 
1.2349989e+3, 1.9499917e+2, -1054061.5, -1082195.1, -18587.44, -0.038344733, -0.14612007, -1044818.1, -15822.107, 0.0, 9.999964, 9.999626 
1.2349971e+3, 2.0499879e+2, -1017939.5, -1040078.1, 48127.934, -0.035768956, -0.12719038, -979624.3, -48625.914, 0.0, 9.999662, 9.999381 
1.2349972e+3, 2.1499825e+2, -873199.06, -911961.75, 65861.29, 0.038226373, -0.1582989, -823926.56, 9077.845, 0.0, 9.999952, 9.999446 
1.2349957e+3, 2.2499795e+2, -757439.06, -807125.94, -3406.059, 0.019785639, -0.12548925, -757206.7, -22198.662, 0.0, 10.000057, 9.999458 
1.2349927e+3, 2.3499762e+2, -676456.1, -711573.25, -2668.0425, -0.09149249, -0.1411186, -676254.56, -39242.51, 0.0, 9.999915, 9.99951 
1.2349902e+3, 2.449971e+2, -610756.9, -689642.75, -33319.65, -0.13721122, -0.109478034, -598567.0, -59549.582, 0.0, 9.999961, 9.998959 
1.2349884e+3, 2.5499612e+2, -463075.13, -558475.6, -13007.551, -0.106148936, -0.14202966, -461333.38, -20306.633, 0.0, 10.00026, 9.9990425 
1.23498745e+3, 2.6499498e+2, -361036.22, -497915.5, -1724.3412, -0.03536732, -0.13629419, -361014.5, -17977.143, 0.00000016286783, 10.000501, 9.998652 
1.23498715e+3, 2.7499333e+2, -216533.98, -372028.03, 4886.059, 0.06637363, -0.20201845, -216380.61, 28671.912, 0.000006622681, 10.000804, 9.998691 
1.2349856e+3, 2.8499177e+2, -170240.52, -397157.47, 779.3319, 0.027506158, -0.17878395, -170237.84, -23168.922, 0.000048750662, 10.000831, 9.997849 
1.2349833e+3, 2.9499e+2, -110525.836, -315270.88, 18866.156, -0.13303664, -0.18388805, -108801.94, -59712.39, 0.00018217463, 10.00054, 9.997885 
1.2349831e+3, 3.0498922e+2, -14106.009, -180179.33, 6552.7607, -0.05345274, -0.06415668, -13847.857, -13847.857, 0.00045752534, 10.000656, 9.998401 
1.2349817e+3, 3.1498823e+2, 120078.85, 50850.87, 60795.77, -0.08669414, -0.053748026, 155423.81, 155423.81, 0.0008745043, 10.000773, 9.999935 
1.245008e+3, 1.250042e+2, -1790562.1, -1664299.9, -51388.176, 0.022765223, 0.06302622, -1646029.0, 68929.11, 0.003475539, 9.999062, 10.000762 
1.24500595e+3, 1.350038e+2, -1691242.3, -1629971.9, -2293.2246, -0.17555006, -0.029892985, -1629886.3, -12927.554, 0.0019075654, 9.999349, 10.000222 
1.2450061e+3, 1.4500299e+2, -1587972.9, -1623701.8, -83580.25, -0.14260542, -0.086253524, -1520369.3, -1404.5325, 0.0007030745, 9.999792, 9.999348 
1.24500595e+3, 1.5500292e+2, -1354721.6, -1463222.5, -125924.01, 0.09962488, -0.06765297, -1271859.1, 149105.83, 0.00011956255, 10.00073, 9.99933 
1.24500535e+3, 1.6500257e+2, -1232624.3, -1327412.5, 11367.632, 0.15332907, -0.039108284, -1231280.1, 91686.43, 0.0000023468863, 10.000792, 9.99956 
1.2450046e+3, 1.7500177e+2, -1226098.0, -1264336.9, 23742.824, 0.045452263, -0.11273466, -1214733.5, 10237.894, 0.0, 10.0001335, 9.999633 
1.2450026e+3, 1.8500108e+2, -1156404.8, -1218121.8, -84079.33, -0.0098725045, -0.123797946, -1097700.0, 29276.342, 0.0, 10.000093, 9.999296 
1.24499924e+3, 1.950001e+2, -966197.5, -1071911.5, -109420.52, -0.02416897, -0.18900537, -897536.2, 131448.9, 0.0, 10.000699, 9.999341 
1.24499716e+3, 2.0499976e+2, -884064.4, -949368.4, -13869.064, -0.023927404, -0.16440475, -881241.0, 49746.703, 0.0, 10.000463, 9.999618 
1.24499634e+3, 2.1499975e+2, -943288.3, -917289.1, -11201.671, -0.0017581508, -0.16527879, -913128.7, -80141.695, 0.0, 9.99934, 9.999705 
1.244995e+3, 2.2499955e+2, -884762.5, -908241.0, -2773.9468, -0.010452531, -0.119575635, -884439.2, -149449.14, 0.0, 9.999384, 9.999073 
1.2449933e+3, 2.3499878e+2, -599680.25, -713101.94, -33601.14, -0.053447332, -0.14054401, -590473.3, 46526.99, 0.0, 10.000634, 9.999138 
1.24499135e+3, 2.4499807e+2, -449432.7, -603668.3, -55145.688, -0.07361107, -0.11337396, -431744.34, 107263.664, 0.0, 10.001046, 9.999018 
1.2449891e+3, 2.5499713e+2, -412191.44, -523813.3, -71556.26, -0.069984466, -0.14466938, -377254.6, 63760.992, 0.0, 10.000587, 9.999108 
1.2449883e+3, 2.6499584e+2, -342963.0, -502173.72, -9271.441, 0.0022294773, -0.15344492, -342424.9, 602.30835, 0.000000050542315, 10.000654, 9.998557 
1.2449887e+3, 2.749938e+2, -167824.2, -365769.34, -24273.77, 0.13523665, -0.24584487, -164891.0, 80155.08, 0.0000061370592, 10.001177, 9.998575 
1.244987e+3, 2.849925e+2, -97846.07, -319093.6, -1820.2144, 0.07945999, -0.21175732, -97831.1, 49229.4, 0.000049451548, 10.001155, 9.998225 
1.2449835e+3, 2.9499152e+2, -78584.79, -248827.06, 11545.9, -0.1517567, -0.1716258, -77805.305, -28731.84, 0.00018750013, 10.000568, 9.998312 
1.2449837e+3, 3.049914e+2, 28950.578, -139528.47, 56772.01, -0.0629326, -0.023890758, 46295.297, 46295.297, 0.000470274, 10.000825, 9.99862 
1.24498405e+3, 3.149899e+2, 253182.83, 90256.38, -35138.824, 0.038456567, -0.078494534, 260438.22, 260438.22, 0.0008943994, 10.001773, 9.999739 
1.2550056e+3, 1.2500271e+2, -1816031.3, -1739158.3, -17242.299, -0.20477349, -0.12059157, -1735468.0, -20500.55, 0.0037739007, 9.999141, 10.000215 
1.2550074e+3, 1.3500305e+2, -1743422.8, -1745620.6, 20347.469, 0.010985174, -0.06300329, -1724144.5, -107179.52, 0.0020822603, 9.999376, 9.999419 
1.2550065e+3, 1.4500318e+2, -1572842.9, -1596597.9, -65922.27, -0.121695794, 0.00910682, -1517736.6, 1226.6454, 0.0007764397, 9.999807, 9.999524 
1.2550062e+3, 1.550014e+2, -1339876.6, -1433838.0, -75234.96, 0.0045442414, -0.16355444, -1298158.5, 122820.66, 0.00013646827, 10.000737, 9.999524 
1.2550052e+3, 1.6500095e+2, -1184905.1, -1233980.9, -33873.574, 0.017758017, -0.187489, -1167615.6, 155364.83, 0.0000030208696, 10.000808, 10.000198 
1.2550038e+3, 1.7500177e+2, -1180501.0, -1167474.3, 11746.171, -0.07802105, -0.16553082, -1160556.5, 64411.23, 0.0, 10.000118, 10.000307 
1.255002e+3, 1.8500187e+2, -1181464.8, -1260886.8, -79103.805, -0.10034376, -0.118953966, -1132663.8, -5697.324, 0.0, 10.00005, 9.999028 
1.2550001e+3, 1.950008e+2, -997538.75, -1117702.8, -71246.266, -0.045769744, -0.16595471, -964422.75, 64557.844, 0.0, 10.00061, 9.999071 
1.2549976e+3, 2.0500053e+2, -876296.25, -893784.75, -72362.68, -0.06035561, -0.14165151, -812151.44, 118831.43, 0.0, 10.000295, 10.000084 
1.2549946e+3, 2.1500087e+2, -942706.94, -866215.75, -37850.47, -0.14603604, -0.15426026, -850652.56, -17677.135, 0.0, 9.9991255, 10.000164 
1.2549934e+3, 2.2500077e+2, -943934.06, -977692.7, 28480.75, -0.13063635, -0.1011209, -927706.5, -192729.78, 0.0, 9.999156, 9.998704 
1.2549946e+3, 2.3499995e+2, -653150.06, -781372.0, 29846.55, -0.0035839258, -0.091399744, -646543.06, -9553.677, 0.0, 10.000446, 9.998761 
1.2549935e+3, 2.4499904e+2, -476110.72, -613315.6, -88426.914, 0.024441384, -0.067398615, -432795.28, 106204.625, 0.0, 10.000849, 9.999047 
1.2549902e+3, 2.5499773e+2, -440921.78, -542315.06, -73017.0, -0.049195338, -0.14010558, -402727.3, 38283.984, 0.0, 10.000403, 9.999073 
1.2549885e+3, 2.649967e+2, -369066.1, -510547.94, -5789.354, -0.06513996, -0.11872048, -368829.6, -25809.092, 0.00000007625481, 10.000458, 9.998593 
1.2549886e+3, 2.7499574e+2, -187217.1, -367733.75, 15436.141, -0.019483015, -0.11029431, -185906.66, 59123.04, 0.0000061507535, 10.001011, 9.998642 
1.2549867e+3, 2.8499496e+2, -65266.727, -218405.84, -36357.438, -0.10094165, -0.062279996, -57073.316, 89964.234, 0.000051588533, 10.001014, 9.9989805 
1.2549831e+3, 2.94994e+2, -44871.215, -148694.31, 9591.29, -0.2973511, -0.107777394, -43992.598, 5055.347, 0.00020006, 10.00044, 9.999058 
1.2549843e+3, 3.049937e+2, -46042.26, -270200.53, 80780.51, -0.11132669, 0.028207812, -19964.877, -19964.877, 0.00050364254, 10.000715, 9.99777 
1.254987e+3, 3.1499195e+2, 111589.72, -145628.78, 35866.4, 0.08571448, 0.026719864, 116497.28, 116497.28, 0.00095308194, 10.001521, 9.998239 
1.2650053e+3, 1.2500212e+2, -1566135.9, -1660986.9, 4975.4814, -0.22296087, -0.12919942, -1565875.6, 149097.22, 0.004085261, 10.001062, 9.999839 
1.2650082e+3, 1.3500227e+2, -1726141.8, -1734619.4, -41415.84, 0.15215023, -0.07347097, -1688748.4, -71775.586, 0.0022650692, 9.999523, 9.999413 
1.265007e+3, 1.4500274e+2, -1662588.9, -1601159.0, 8538.4375, -0.01577465, 0.012800659, -1599994.3, -81026.54, 0.00085386867, 9.999024, 9.999877 
1.2650055e+3, 1.5500109e+2, -1422768.0, -1430731.6, -24099.418, -0.09057531, -0.17993087, -1402323.8, 18657.545, 0.00015477135, 10.0, 9.999901 
1.2650046e+3, 1.6500095e+2, -1307180.1, -1281929.1, -26607.225, -0.07019476, -0.19437115, -1265103.9, 57875.734, 0.0000038088367, 9.999933, 10.00028 
1.2650041e+3, 1.750022e+2, -1332912.8, -1235689.5, -58544.133, 0.009970585, -0.13660748, -1208205.8, 16758.492, 0.0, 9.999049, 10.000356 
1.2650026e+3, 1.850025e+2, -1362400.0, -1315702.8, -77357.52, 0.02715187, -0.08478757, -1258247.0, -131285.58, 0.0, 9.998667, 9.999317 
1.265e+3, 1.9500151e+2, -1240161.6, -1198738.6, -63196.773, -0.018792937, -0.15143028, -1152946.0, -123971.65, 0.0, 9.998808, 9.999376 
1.2649971e+3, 2.0500126e+2, -1003203.56, -962495.6, -43876.61, -0.06909566, -0.13955507, -934481.8, -3505.444, 0.0, 9.999455, 10.000011 
1.2649944e+3, 2.1500143e+2, -734423.2, -773567.9, -83150.695, -0.13397451, -0.16275857, -668572.4, 164398.23, 0.0, 10.0005865, 10.000091 
1.2649935e+3, 2.250012e+2, -699030.44, -861563.5, 21301.59, -0.10928802, -0.120059274, -696285.0, 38687.492, 0.0, 10.000821, 9.998713 
1.264995e+3, 2.3500036e+2, -701425.4, -802086.75, 23103.611, 0.01562089, -0.11254741, -696375.94, -59391.914, 0.0, 10.000089, 9.9988 
1.2649944e+3, 2.4499938e+2, -585243.7, -706630.5, -65123.14, 0.054812435, -0.08043718, -556916.25, -17920.254, 0.0, 10.000259, 9.998701 
1.2649916e+3, 2.5499797e+2, -327324.53, -527937.0, -105503.52, 0.009944286, -0.12786922, -282054.88, 158956.48, 0.0, 10.00134, 9.9987335 
1.2649898e+3, 2.6499712e+2, -194701.5, -385970.0, -23010.352, -0.021182165, -0.08665369, -191972.2, 151046.73, 0.00000015326442, 10.001493, 9.998948 
1.2649891e+3, 2.749966e+2, -203972.14, -330214.34, -18049.012, -0.039679725, -0.068653174, -201442.36, 43579.008, 0.0000068361555, 10.000711, 9.999033 
1.2649871e+3, 2.8499582e+2, -167567.83, -302075.8, -66767.4, -0.11511794, -0.027846094, -140053.77, 6974.8286, 0.000055437977, 10.000445, 9.998688 
1.2649843e+3, 2.9499438e+2, -2233.9666, -164016.2, -134079.89, -0.22873802, -0.08432482, 73466.07, 122510.23, 0.00021969865, 10.000867, 9.99876 
1.2649858e+3, 3.049934e+2, 74834.68, -173438.72, -77.57114, -0.046160802, -0.020550517, 74834.7, 74834.7, 0.00055763713, 10.001407, 9.998091 
1.2649888e+3, 3.1499168e+2, 134364.34, -141814.08, -32736.375, 0.12657502, -0.043765355, 138191.66, 138191.66, 0.0010544788, 10.001737, 9.998151 
1.2750079e+3, 1.2500228e+2, -1570460.6, -1684835.1, -7530.627, -0.14539646, 0.027161423, -1569966.9, 145008.61, 0.0044096503, 10.001128, 9.999635 
1.2750076e+3, 1.3500158e+2, -1682881.3, -1648626.1, -94128.26, 0.10025233, -0.062146645, -1570079.9, 46901.215, 0.0024558255, 9.999528, 10.000004 
1.2750065e+3, 1.4500168e+2, -1613643.5, -1513994.9, 25499.934, 0.004241022, -0.07441772, -1507848.6, 11128.983, 0.00093550276, 9.99908, 10.000449 
1.2750037e+3, 1.5500207e+2, -1381610.8, -1352960.5, 28114.027, -0.30458787, -0.11871693, -1335732.4, 85237.4, 0.00017466526, 10.000026, 10.000423 
1.2750031e+3, 1.6500257e+2, -1335611.5, -1354016.1, -77896.54, -0.23963562, -0.071016036, -1266375.6, 56588.293, 0.0000047674703, 9.999981, 9.999766 
1.2750053e+3, 1.7500302e+2, -1368883.3, -1311945.1, -76686.52, 0.18730105, -0.042238243, -1258613.8, -33652.504, 0.0, 9.999048, 9.999834 
1.2750039e+3, 1.8500303e+2, -1317640.6, -1208588.3, -86812.83, 0.23859169, -0.0315222, -1160598.3, -33637.12, 0.0, 9.998609, 10.000077 
1.2749985e+3, 1.9500227e+2, -1199398.9, -1092996.5, -42084.504, -0.07276502, -0.15292054, -1078363.5, -49397.305, 0.0, 9.998716, 10.000145 
1.2749958e+3, 2.0500186e+2, -1067696.6, -1062930.4, -19224.486, -0.18280172, -0.16631186, -1045941.8, -114972.79, 0.0, 9.999311, 9.9993925 
1.2749957e+3, 2.1500143e+2, -808457.3, -879685.5, -27041.436, -0.08763637, -0.18647714, -799354.5, 33618.066, 0.0, 10.00038, 9.999462 
1.274995e+3, 2.2500092e+2, -700143.94, -810192.3, -22088.994, -0.0665989, -0.16479884, -695875.75, 39100.934, 0.0, 10.000597, 9.999169 
1.274994e+3, 2.3499997e+2, -702654.44, -754011.4, 11180.786, -0.12106222, -0.21458286, -700325.9, -63341.273, 0.0, 9.999874, 9.99923 
1.2749931e+3, 2.44999e+2, -672244.0, -832406.2, -37795.27, -0.11147767, -0.16081512, -663773.06, -124776.17, 0.0, 10.0000305, 9.997944 
1.2749928e+3, 2.5499788e+2, -406270.4, -642496.75, -46084.992, -0.029261053, -0.109667376, -397598.16, 43417.035, 0.0, 10.001133, 9.998043 
1.2749918e+3, 2.6499718e+2, -181523.06, -313412.34, -66311.945, -0.0062121465, -0.052709617, -153947.81, 189073.81, 0.00000020123079, 10.001302, 9.999537 
1.27499e+3, 2.7499646e+2, -193625.33, -262791.75, -28665.523, -0.053408578, -0.11869452, -183289.6, 61731.234, 0.0000077157165, 10.000522, 9.999585 
1.2749884e+3, 2.84995e+2, -285194.75, -515455.6, -68013.195, -0.091200925, -0.09856769, -266606.03, -119572.11, 0.000060411407, 10.000309, 9.997286 
1.2749867e+3, 2.9499274e+2, -126642.61, -377544.47, -95392.16, -0.10220003, -0.101888835, -94494.05, -45432.02, 0.00024271311, 10.00068, 9.99738 
1.274988e+3, 3.0499044e+2, 142729.0, -1895.432, 4011.5964, -0.0074523645, -0.15849975, 142840.19, 142840.19, 0.00062258844, 10.001273, 9.999333 
1.274989e+3, 3.149897e+2, 162904.63, -3640.0825, 15480.655, -0.08971149, -0.22188362, 164331.36, 164331.36, 0.0011836756, 10.001424, 9.999238 
1.2850101e+3, 1.2500265e+2, -1816025.8, -1794378.5, 99405.73, 0.054991774, 0.08842061, -1705208.9, 9764.264, 0.0047468157, 9.999364, 9.999737 
1.2850069e+3, 1.3500175e+2, -1520283.0, -1534421.1, -51227.71, 0.038707063, -0.05438104, -1475639.0, 141339.47, 0.0026545508, 10.000462, 10.000336 
1.285007e+3, 1.450014e+2, -1424396.0, -1392450.5, 90788.88, 0.082379505, -0.14417256, -1316240.0, 202738.27, 0.0010215283, 10.000276, 10.000702 
1.285004e+3, 1.5500285e+2, -1444097.5, -1349756.5, 36921.594, -0.23969895, -0.1066145, -1337024.9, 83935.54, 0.00019628371, 9.999467, 10.00071 
1.2850036e+3, 1.650036e+2, -1442793.6, -1413782.5, -39710.45, -0.16427594, -0.044876363, -1386011.3, -63058.453, 0.0000059623408, 9.999265, 9.999714 
1.2850055e+3, 1.7500356e+2, -1277423.6, -1269863.3, -37378.22, 0.2739885, -0.060235266, -1236074.5, -11118.192, 0.0, 9.999682, 9.99982 
1.2850036e+3, 1.8500349e+2, -1104071.5, -1081858.4, -370.83905, 0.2962503, -0.06372832, -1081852.3, 45104.758, 0.0, 9.999986, 10.000281 
1.2849978e+3, 1.9500309e+2, -946002.94, -947735.6, -30869.955, -0.096374236, -0.16984835, -915987.2, 112970.63, 0.0, 10.000368, 10.000347 
1.2849955e+3, 2.0500292e+2, -898754.44, -1004131.7, 27891.563, -0.19760591, -0.15649877, -891827.4, 39131.176, 0.0, 10.00057, 9.999192 
1.2849969e+3, 2.150027e+2, -792747.5, -889526.0, 22579.37, -0.0070261303, -0.13792706, -787738.7, 45222.984, 0.0, 10.000575, 9.999299 
1.2849966e+3, 2.2500208e+2, -676041.8, -786897.0, 28839.383, 0.029807521, -0.122227766, -668988.0, 65978.766, 0.0, 10.000717, 9.99927 
1.2849946e+3, 2.3500077e+2, -536144.4, -659771.0, 790.1775, -0.08779343, -0.21544188, -536139.3, 100837.195, 0.0, 10.000972, 9.999343 
1.2849937e+3, 2.449998e+2, -512556.1, -747475.0, 30996.357, -0.10745567, -0.17346421, -508535.13, 30452.902, 0.0, 10.001092, 9.998012 
1.2849939e+3, 2.5499895e+2, -417829.94, -639705.9, 45874.418, -0.023498304, -0.10021664, -408719.2, 32284.016, 0.0, 10.001025, 9.998108 
1.2849933e+3, 2.6499793e+2, -190890.8, -363106.72, 29083.68, 0.012445802, -0.060566403, -186111.8, 156901.28, 0.00000014147287, 10.0014105, 9.999152 
1.2849918e+3, 2.7499634e+2, 41949.44, -192757.42, -39207.81, -0.0047342316, -0.17351297, 48325.88, 293347.5, 0.000007879153, 10.002309, 9.999215 
1.2849903e+3, 2.8499466e+2, 27534.867, -393171.34, -37725.27, -0.012547611, -0.14413546, 30890.969, 177928.17, 0.00006527563, 10.002584, 9.997032 
1.284989e+3, 2.949926e+2, 75072.82, -307826.2, -20831.316, 0.0033020615, -0.10076839, 76202.8, 125265.664, 0.000269289, 10.002176, 9.997141 
1.2849899e+3, 3.0498952e+2, 206041.52, 20854.424, 104752.86, 0.03869997, -0.22176698, 253257.58, 253257.58, 0.0006978516, 10.001722, 9.999289 
1.2849902e+3, 3.1498918e+2, 131230.19, -17453.994, -53375.83, -0.08410153, -0.23331167, 148407.08, 148407.08, 0.0013320218, 10.001129, 9.999314 
1.2950094e+3, 1.2500338e+2, -1774000.0, -1701883.0, -46288.38, -0.016956445, 0.05199642, -1679265.9, 35698.402, 0.0050962004, 9.9993515, 10.000379 
1.2950057e+3, 1.3500297e+2, -1527135.9, -1531270.0, -773.97626, -0.1378601, -0.04968611, -1526995.8, 89967.29, 0.0028611089, 10.0004015, 10.000386 
1.2950076e+3, 1.45002e+2, -1432172.6, -1409249.8, 38216.06, 0.085485235, -0.19371346, -1380813.4, 138155.75, 0.00111182, 10.00028, 10.000584 
1.295006e+3, 1.5500352e+2, -1453608.3, -1366986.3, 24550.352, -0.021172864, -0.13678266, -1360512.1, 60440.05, 0.000219555, 9.999457, 10.000599 
1.295005e+3, 1.6500416e+2, -1406226.8, -1342349.5, -43391.516, 0.009268008, -0.1055292, -1320409.6, 2535.6042, 0.0000074533, 9.999277, 10.000196 
1.2950043e+3, 1.7500387e+2, -1248812.0, -1208712.0, -7832.3164, 0.14560807, -0.19266635, -1207236.4, 17712.28, 0.0, 9.999669, 10.000246 
1.2950017e+3, 1.85004e+2, -1135599.1, -1145212.4, -3303.2268, 0.06551968, -0.17991807, -1134573.5, -7625.247, 0.0, 9.999971, 9.999856 
1.2949973e+3, 1.9500406e+2, -986067.2, -1016173.06, -2387.686, -0.20719649, -0.19860275, -985879.0, 43069.332, 0.0, 10.000293, 9.999917 
1.294996e+3, 2.050045e+2, -906814.0, -982238.25, 10801.758, -0.2367592, -0.11286066, -905297.5, 25646.982, 0.0, 10.000409, 9.999415 
1.2949976e+3, 2.1500513e+2, -807817.7, -871303.56, 35625.234, -0.022481188, -0.033361293, -791845.1, 41093.758, 0.0, 10.000364, 9.999522 
1.2949976e+3, 2.2500464e+2, -732609.56, -846560.5, 23765.824, 0.047961593, -0.0011808813, -727851.56, 7091.6616, 0.0, 10.000471, 9.998979 
1.2949966e+3, 2.350028e+2, -587594.56, -716573.4, 30003.115, -0.016971245, -0.118925944, -580956.8, 56003.016, 0.0, 10.000752, 9.999061 
1.2949955e+3, 2.4500175e+2, -496532.78, -647346.2, 12605.8545, -0.06746246, -0.112144135, -495486.38, 43483.242, 0.0, 10.000821, 9.998823 
1.2949944e+3, 2.5500113e+2, -397314.44, -538331.56, 60385.25, -0.09780247, -0.09971613, -374990.72, 65985.414, 0.0, 10.00079, 9.99891 
1.294994e+3, 2.6499933e+2, -311800.1, -577731.2, 46245.49, -0.0843814, -0.10394095, -303987.5, 39006.117, 0.000000052302592, 10.001244, 9.997764 
1.2949942e+3, 2.7499634e+2, -83402.6, -404356.72, 12480.071, -0.030369064, -0.21959062, -82918.055, 162104.73, 0.000007172051, 10.002099, 9.997864 
1.2949932e+3, 2.849948e+2, 56525.56, -284790.3, -67765.984, -0.024761373, -0.15415041, 69487.77, 216525.7, 0.00006969282, 10.002376, 9.997875 
1.294991e+3, 2.9499412e+2, 99526.48, -207246.7, -12339.873, -0.061346367, -0.06052189, 100022.04, 149066.94, 0.0003009035, 10.001969, 9.997927 
1.294991e+3, 3.0499065e+2, 92225.72, -194539.3, 69472.35, -0.045227643, -0.18313082, 108169.77, 108169.77, 0.0007869178, 10.001622, 9.997863 
1.2949918e+3, 3.1499052e+2, 29408.135, -161065.4, -34227.367, -0.102815405, -0.04377713, 35371.934, 35371.934, 0.0015023105, 10.000842, 9.998465 
1.30501e+3, 1.2500438e+2, -1725560.6, -1647218.0, -31660.258, 0.113946155, 0.014647035, -1636023.0, 78930.53, 0.0054552136, 9.999559, 10.000651 
1.3050063e+3, 1.3500376e+2, -1571087.6, -1574338.9, 3665.627, -0.0969243, -0.0871011, -1568703.4, 48251.137, 0.003073975, 10.000208, 10.000176 
1.3050076e+3, 1.450029e+2, -1495210.8, -1452986.4, 20916.922, 0.09341418, -0.20276135, -1444379.1, 74580.71, 0.0012055306, 9.999883, 10.000479 
1.3050067e+3, 1.5500449e+2, -1483733.1, -1389333.1, -21068.154, 0.121776596, -0.13530873, -1384844.6, 36098.926, 0.000244213, 9.999269, 10.000537 
1.3050054e+3, 1.6500524e+2, -1400429.1, -1293821.1, -10693.629, 0.14283238, -0.10990025, -1292759.0, 30176.283, 0.000009295233, 9.999162, 10.000572 
1.3050035e+3, 1.7500503e+2, -1197716.6, -1136064.1, -17423.422, 0.09241808, -0.22395429, -1131480.9, 93455.24, 0.0, 9.999851, 10.000643 
1.3050006e+3, 1.8500543e+2, -1141097.5, -1177412.3, 2928.037, -0.020124085, -0.1890239, -1140863.0, -13929.993, 0.0, 10.000044, 9.999609 
1.3049975e+3, 1.9500609e+2, -1094360.5, -1091695.9, -13353.226, -0.18006322, -0.12435461, -1079608.8, -50679.387, 0.0, 9.999652, 9.999708 
1.3049968e+3, 2.0500633e+2, -994071.44, -1021823.8, 45170.297, -0.15612295, -0.04957376, -960694.06, -29766.678, 0.0, 9.999789, 9.999449 
1.3049985e+3, 2.1500595e+2, -792495.5, -859252.75, 23267.898, 0.04558971, -0.07290936, -785185.94, 47743.133, 0.0, 10.000451, 9.999567 
1.3049988e+3, 2.2500516e+2, -726792.6, -871145.75, 21643.46, 0.11809458, -0.06009121, -723617.4, 11318.822, 0.0, 10.000621, 9.9987335 
1.3049978e+3, 2.3500371e+2, -682142.9, -787042.3, -2659.617, 0.069550514, -0.11855238, -682075.5, -45124.113, 0.0, 10.00021, 9.998832 
1.3049968e+3, 2.4500278e+2, -528440.75, -626499.2, 13835.234, 0.017429225, -0.106848285, -526526.1, 12433.537, 0.0, 10.000418, 9.99917 
1.304996e+3, 2.5500202e+2, -302847.56, -457227.16, -1188.4968, -0.03613484, -0.1390807, -302838.4, 138125.83, 0.0, 10.001255, 9.999257 
1.3049956e+3, 2.650004e+2, -294274.78, -587315.8, 37177.773, -0.045479257, -0.13966483, -289631.66, 53348.594, 0.000000026393016, 10.001447, 9.997601 
1.3049957e+3, 2.749976e+2, -252169.19, -509729.5, 56337.387, -0.018042557, -0.21727562, -240385.38, 4624.6567, 0.0000066700077, 10.001025, 9.997667 
1.3049948e+3, 2.8499606e+2, -101065.33, -331179.78, 33046.758, -0.016585857, -0.15180865, -96413.52, 50611.59, 0.00007506801, 10.001171, 9.998127 
1.304993e+3, 2.9499537e+2, 122912.055, -169606.67, 5067.8203, -0.036630355, -0.08317435, 122999.83, 172029.9, 0.00033561388, 10.002011, 9.998158 
1.3049929e+3, 3.0499178e+2, 127316.87, -247920.64, 100611.1, -0.03721816, -0.19829102, 152591.02, 152591.02, 0.00088381814, 10.002177, 9.997224 
1.3049938e+3, 3.1499192e+2, 137702.42, -111267.18, -8988.665, -0.013125944, 0.03451628, 138026.52, 138026.52, 0.0016890818, 10.001594, 9.998451 
1.3150087e+3, 1.2500566e+2, -1728630.4, -1668219.5, -55780.96, -0.046510633, -0.04179266, -1634990.9, 79949.75, 0.005819013, 9.99961, 10.000487 
1.3150083e+3, 1.3500412e+2, -1610683.9, -1662211.9, 38183.35, 0.033930235, -0.17360532, -1590385.4, 26566.867, 0.0032902497, 10.000221, 9.999572 
1.3150066e+3, 1.4500417e+2, -1488516.8, -1441658.3, -29673.328, -0.059441537, -0.17239812, -1427279.6, 91670.414, 0.0013013786, 9.999904, 10.000545 
1.3150057e+3, 1.5500589e+2, -1486902.4, -1388691.9, -33445.508, 0.07158528, -0.094524294, -1378383.9, 42549.22, 0.00026992275, 9.999239, 10.000559 
1.3150047e+3, 1.6500682e+2, -1382783.5, -1268680.8, -3770.9404, 0.11455972, -0.057663925, -1268556.4, 54366.344, 0.00001153221, 9.999194, 10.000736 
1.3150027e+3, 1.7500687e+2, -1181589.9, -1107175.6, 22393.373, 0.0032545496, -0.16851866, -1100956.6, 123963.08, 0.0, 9.999857, 10.000844 
1.3150004e+3, 1.8500772e+2, -1150814.0, -1180818.6, -29627.51, -0.08867779, -0.09937774, -1132607.0, -5695.219, 0.0, 9.999981, 9.99961 
1.3149978e+3, 1.950091e+2, -1109842.3, -1100632.8, -16474.885, -0.14240417, 0.03774999, -1088131.3, -59229.457, 0.0, 9.999555, 9.999693 
1.3149975e+3, 2.0500837e+2, -1027839.9, -1056400.6, 56497.76, -0.084253415, 0.024529625, -983845.7, -52938.355, 0.0, 9.9996395, 9.999283 
1.3149996e+3, 2.1500522e+2, -832466.4, -903736.2, 65795.04, 0.08236148, -0.2585742, -793275.94, 39655.94, 0.0, 10.000275, 9.9993515 
1.3149998e+3, 2.2500362e+2, -774717.8, -913812.0, -8428.276, 0.11471939, -0.3057234, -774208.94, -39262.79, 0.0, 10.000387, 9.9985485 
1.3149981e+3, 2.3500335e+2, -729335.44, -833604.9, -301.92328, 0.03914732, -0.22833581, -729334.56, -92381.914, 0.0, 9.999991, 9.998618 
1.3149974e+3, 2.4500282e+2, -568792.2, -652645.3, 29216.512, 0.010763784, -0.16025834, -559616.5, -20657.645, 0.0, 10.000174, 9.999107 
1.3149981e+3, 2.550019e+2, -340261.03, -481510.22, 46874.45, 0.026932865, -0.20456842, -326120.97, 114845.07, 0.0, 10.001026, 9.999201 
1.3149977e+3, 2.6500112e+2, -254783.77, -456028.38, 6089.215, -0.009576579, -0.16619344, -254599.69, 88373.11, 0.000000066602475, 10.001239, 9.998599 
1.3149962e+3, 2.7500013e+2, -215815.34, -379839.5, 62219.25, -0.103182994, -0.16463846, -194884.64, 50098.066, 0.0000067822207, 10.000809, 9.998655 
1.3149953e+3, 2.849987e+2, -145714.36, -399826.75, 51019.67, -0.119773716, -0.11686678, -135853.48, 11142.922, 0.000081610815, 10.001047, 9.997727 
1.3149953e+3, 2.949965e+2, 63437.656, -243908.98, 59166.44, -0.061469782, -0.16402946, 74434.18, 123451.6, 0.0003694415, 10.00179, 9.997765 
1.3149948e+3, 3.0499294e+2, 101649.13, -258559.9, 69709.1, -0.07885104, -0.25684616, 114668.92, 114668.92, 0.0009768684, 10.002002, 9.99723 
1.3149953e+3, 3.1499317e+2, 142639.22, -16612.146, 26010.662, -0.08586204, -0.01515494, 146779.9, 146779.9, 0.001869303, 10.001253, 9.999257 
1.3250084e+3, 1.2500788e+2, -1745601.8, -1714201.8, 112329.84, -0.019099955, -0.08120119, -1616480.0, 98434.375, 0.006183249, 9.999613, 10.000191 
1.3250092e+3, 1.3500667e+2, -1684719.9, -1714062.4, 115430.09, 0.13576053, -0.15801558, -1583032.4, 33893.27, 0.0035072896, 9.999793, 9.999414 
1.3250063e+3, 1.4500698e+2, -1560576.8, -1525013.4, 64806.84, -0.045257878, -0.10208579, -1475593.0, 43329.48, 0.0013982238, 9.9996195, 10.000106 
1.3250053e+3, 1.5500744e+2, -1414707.5, -1398705.6, -1335.2898, 0.07262065, -0.109742045, -1398595.0, 22323.455, 0.00029637254, 9.999934, 10.000148 
1.3250041e+3, 1.6500798e+2, -1303810.0, -1252897.9, 42983.867, 0.12652269, -0.082167685, -1228397.8, 94514.336, 0.000014169166, 9.999838, 10.0005245 
1.3250023e+3, 1.7500848e+2, -1265233.9, -1176147.9, 5553.9253, 0.0148992585, -0.1251374, -1175803.0, 49101.938, 0.0, 9.999397, 10.000592 
1.3250004e+3, 1.8500906e+2, -1219634.1, -1234540.8, -34729.184, -0.05580965, -0.059402358, -1191567.5, -64668.563, 0.0, 9.9995985, 9.999428 
1.3249986e+3, 1.9500948e+2, -977032.8, -1057579.9, -66479.13, -0.061622728, 0.002032618, -939579.6, 89316.87, 0.0, 10.000551, 9.999509 
1.3249986e+3, 2.0500833e+2, -859515.6, -992863.25, 22674.77, 0.002683977, -0.038987663, -855765.4, 75140.59, 0.0, 10.000886, 9.999109 
1.3250004e+3, 2.1500528e+2, -794828.3, -900082.94, 4270.6265, 0.12461018, -0.2944535, -794655.3, 38274.645, 0.0, 10.000617, 9.9992 
1.3250004e+3, 2.250039e+2, -692715.8, -859253.94, -25009.111, 0.1240843, -0.32046294, -689041.25, 45901.453, 0.0, 10.000888, 9.998688 
1.3249986e+3, 2.3500395e+2, -469837.44, -684853.06, -21895.725, 0.02507769, -0.22277415, -467630.38, 169315.64, 0.0, 10.001685, 9.998821 
1.3249983e+3, 2.4500372e+2, -342696.44, -549466.25, 52119.71, 0.0051554125, -0.13433875, -330301.8, 208648.34, 0.0, 10.001753, 9.999053 
1.3249993e+3, 2.550029e+2, -335437.75, -482755.5, 37197.617, 0.055997446, -0.16401948, -326578.2, 114379.46, 0.0, 10.00108, 9.999161 
1.3249992e+3, 2.6500213e+2, -261925.23, -419134.84, 2107.3923, 0.032652643, -0.13674878, -261897.0, 81066.86, 0.0000000978673, 10.001022, 9.998951 
1.3249977e+3, 2.7500117e+2, -70654.516, -269523.0, -26935.818, -0.0679513, -0.16946524, -67070.766, 177901.55, 0.000006920427, 10.001629, 9.999017 
1.324997e+3, 2.849998e+2, -7877.1636, -309629.34, 8954.048, -0.09871772, -0.1439257, -7611.699, 139373.17, 0.000086783395, 10.001927, 9.997911 
1.3249971e+3, 2.9499778e+2, 117273.195, -197080.64, 14027.899, -0.060190987, -0.18632926, 117897.945, 166902.34, 0.00039501933, 10.0020895, 9.997935 
1.3249967e+3, 3.0499464e+2, 118962.07, -244981.9, 58975.445, -0.086721055, -0.24902213, 128280.195, 128280.195, 0.0010501491, 10.002114, 9.997263 
1.3249977e+3, 3.14994e+2, 259676.6, 93468.83, -37724.926, 0.026350657, -0.09220494, 267838.4, 267838.4, 0.0020132647, 10.001825, 9.999735 
1.3350086e+3, 1.2501027e+2, -1762694.0, -1742716.8, 222586.61, -0.034090318, -0.17489718, -1529894.8, 184987.67, 0.0065457188, 9.999596, 9.999999 
1.3350086e+3, 1.3501142e+2, -1668557.5, -1676772.4, 117636.57, 0.07422097, -0.04499596, -1554956.6, 61917.77, 0.0037237175, 9.999776, 9.999678 
1.3350067e+3, 1.4501117e+2, -1610991.6, -1640655.0, 54146.07, -0.01248749, -0.018668277, -1569682.6, -50803.824, 0.0014951822, 9.999651, 9.999307 
1.3350049e+3, 1.5500918e+2, -1469366.0, -1518383.4, 26540.803, 0.0007647741, -0.18598947, -1457748.8, -36849.973, 0.00032323142, 9.999946, 9.999329 
1.3350035e+3, 1.6500877e+2, -1354830.1, -1354426.5, 7635.78, 0.041113365, -0.17761296, -1346989.9, -24087.162, 0.000017128494, 9.999823, 9.999832 
1.3350019e+3, 1.7500988e+2, -1319808.5, -1279481.8, 1803.017, 0.005432365, -0.093480736, -1279401.3, -54509.902, 0.00000000003443261, 9.999358, 9.999898 
1.3350004e+3, 1.8500954e+2, -1250310.6, -1294723.1, -16298.359, -0.045919355, -0.067378685, -1244971.4, -118077.914, 0.0, 9.999574, 9.999034 
1.3349995e+3, 1.9500735e+2, -1015673.9, -1122422.0, -16703.934, -0.056425616, -0.2272641, -1013121.1, 15791.725, 0.0, 10.00047, 9.99911 
1.3349995e+3, 2.0500624e+2, -893050.7, -1026879.75, -4405.01, -0.019505635, -0.23587924, -892905.9, 38016.902, 0.0, 10.000733, 9.998951 
1.3350005e+3, 2.1500598e+2, -837198.2, -943462.6, 9073.575, 0.05091485, -0.19545422, -836429.0, -3503.8794, 0.0, 10.000419, 9.999006 
1.3350004e+3, 2.250058e+2, -687237.7, -796525.94, -6282.109, 0.0149668865, -0.1157799, -686877.8, 48049.617, 0.0, 10.000668, 9.99922 
1.3349992e+3, 2.3500556e+2, -464455.28, -626842.06, 25941.48, -0.10358676, -0.104720086, -460411.78, 176519.53, 0.0, 10.001479, 9.999317 
1.3349989e+3, 2.450054e+2, -375296.5, -567221.2, 11708.804, -0.13987482, -0.030995226, -374584.8, 164349.14, 0.0, 10.001547, 9.999024 
1.3349992e+3, 2.55005e+2, -369236.75, -505560.97, 28397.375, -0.09146716, -0.01541216, -363557.9, 77381.0, 0.0, 10.000881, 9.999095 
1.3349997e+3, 2.6500347e+2, -311681.34, -483500.0, 9845.211, -0.056372467, -0.043006673, -311119.06, 31834.164, 0.00000008871969, 10.000851, 9.998591 
1.3349998e+3, 2.750006e+2, -125716.56, -330566.4, 14703.759, -0.04356812, -0.23319903, -124666.53, 120312.8, 0.000006673535, 10.001407, 9.998699 
1.3349992e+3, 2.8499928e+2, 11422.032, -226470.78, -3806.4744, -0.09525968, -0.22363967, 11482.924, 158474.14, 0.00008871381, 10.001742, 9.998571 
1.3349982e+3, 2.9499918e+2, 132329.45, -116923.83, 42110.57, -0.19180496, -0.14115512, 139251.66, 188243.08, 0.00040769653, 10.001882, 9.998588 
1.3349979e+3, 3.0499697e+2, 106004.16, -238308.22, 41347.97, -0.2227372, -0.14664787, 110899.96, 110899.96, 0.0010939079, 10.001967, 9.997378 
1.3350005e+3, 3.1499398e+2, 215431.66, 74516.36, 30401.89, 0.053266443, -0.24155323, 221710.92, 221710.92, 0.0021064403, 10.0015, 9.999768 
1.345008e+3, 1.2501065e+2, -1839555.3, -1788021.0, 87654.46, -0.005639858, -0.22420286, -1722424.9, -7549.6187, 0.0069055543, 9.999119, 9.999903 
1.3450074e+3, 1.3501272e+2, -1723004.5, -1667742.9, -74958.85, 0.018880872, -0.032731656, -1615484.5, 1376.487, 0.0039389143, 9.99927, 9.999976 
1.3450079e+3, 1.4501251e+2, -1638012.6, -1650186.1, -59447.457, 0.14271396, -0.01806748, -1584341.1, -65475.188, 0.0015916337, 9.999461, 9.999331 
1.3450052e+3, 1.5501057e+2, -1414832.4, -1489899.3, -57669.09, 0.029199753, -0.18250272, -1383558.3, 37327.08, 0.0003501717, 10.000321, 9.999341 
1.3450035e+3, 1.6501002e+2, -1244478.0, -1374067.1, -32071.398, 0.021368872, -0.15469712, -1236975.3, 85915.914, 0.000020254476, 10.000884, 9.999194 
1.3450024e+3, 1.7501077e+2, -1105451.8, -1245007.5, -68138.61, 0.027152786, -0.040113114, -1077701.0, 147183.86, 0.0000000014653116, 10.001128, 9.999285 
1.3450012e+3, 1.8500975e+2, -1042908.75, -1196695.3, -27774.25, 0.006837524, -0.050474837, -1038046.4, 88846.48, 0.0, 10.001009, 9.999009 
1.3450004e+3, 1.9500662e+2, -993433.1, -1110724.3, -30649.023, -0.006466546, -0.3031604, -985907.2, 43011.184, 0.0, 10.000635, 9.999102 
1.3450006e+3, 2.0500557e+2, -917938.4, -1050879.9, 19941.244, 0.021751896, -0.30002445, -915011.6, 15915.962, 0.0, 10.000598, 9.998856 
1.3450013e+3, 2.1500638e+2, -772661.3, -914465.06, 5914.778, 0.07800912, -0.14745721, -772415.0, 60507.266, 0.0, 10.000869, 9.9989805 
1.3450012e+3, 2.250064e+2, -685302.94, -779618.5, 11212.283, 0.035138823, -0.054370325, -683988.3, 50934.375, 0.0, 10.000619, 9.999359 
1.345e+3, 2.3500542e+2, -683243.7, -713792.2, -12252.868, -0.08842104, -0.12984058, -678936.44, -42005.152, 0.0, 9.9999075, 9.999475 
1.3449998e+3, 2.4500483e+2, -593999.0, -692082.7, -8473.945, -0.1272339, -0.09575446, -593272.25, -54334.477, 0.0, 10.0001335, 9.998857 
1.3450004e+3, 2.5500444e+2, -322647.22, -497152.5, -32199.244, -0.0813394, -0.06342182, -316895.47, 124049.3, 0.0, 10.001275, 9.998967 
1.3450009e+3, 2.6500326e+2, -202396.53, -426898.97, -15441.53, -0.04730672, -0.051063493, -201339.42, 141617.53, 0.000000062099474, 10.001593, 9.998624 
1.3450012e+3, 2.7500096e+2, -159799.83, -346219.28, -21627.91, -0.02581842, -0.18704453, -157323.52, 87654.68, 0.0000065347235, 10.001157, 9.998718 
1.3450012e+3, 2.8499955e+2, -71496.81, -268774.75, -4495.9824, -0.044277452, -0.18393447, -71394.4, 75596.77, 0.00008986311, 10.00115, 9.998578 
1.3450007e+3, 2.9499915e+2, 96230.69, -122463.484, -49865.906, -0.09681029, -0.13623017, 107064.27, 156059.39, 0.00041362355, 10.001573, 9.998698 
1.3450006e+3, 3.0499747e+2, 169979.56, -195141.25, -35729.05, -0.14981382, -0.10651062, 173443.0, 173443.0, 0.0011143722, 10.002319, 9.997517 
1.3450035e+3, 3.1499442e+2, 460816.66, 182868.61, -88550.734, 0.13654637, -0.22441034, 486630.4, 486630.4, 0.0021528488, 10.003237, 9.999664 
1.3550065e+3, 1.2500906e+2, -1838876.4, -1779268.9, -91543.164, -0.14101516, -0.25546804, -1712800.0, 2092.4053, 0.0072628423, 9.999102, 9.99997 
1.3550054e+3, 1.3501066e+2, -1710727.8, -1634376.6, -60970.023, -0.14546852, -0.13182701, -1600616.6, 16267.219, 0.004152666, 9.999247, 10.000216 
1.3550091e+3, 1.4501107e+2, -1592229.3, -1545857.6, -49827.688, 0.27583584, -0.10259694, -1514085.5, 4797.899, 0.0016872559, 9.999422, 10.000064 
1.3550058e+3, 1.550115e+2, -1362459.8, -1382431.9, -9258.557, 0.028642766, -0.103645965, -1358828.1, 62050.344, 0.0003769789, 10.000321, 10.00008 
1.355004e+3, 1.650116e+2, -1282566.1, -1452787.4, -42472.234, -0.058368687, -0.025585182, -1272557.3, 50321.305, 0.000023370363, 10.000881, 9.998655 
1.3550031e+3, 1.7501102e+2, -1153594.9, -1332787.3, -46024.758, -0.028077148, 0.012223277, -1142464.9, 82421.81, 0.0000000068048798, 10.001074, 9.99871 
1.3550021e+3, 1.8500966e+2, -1032194.44, -1153721.4, -59579.16, -0.027797254, -0.01893904, -1007858.7, 119038.77, 0.0, 10.000928, 9.999338 
1.355001e+3, 1.9500728e+2, -987891.6, -1073120.9, -29322.18, -0.03627175, -0.23116441, -978778.1, 50135.234, 0.0, 10.000524, 9.999413 
1.3550012e+3, 2.0500626e+2, -941127.8, -1063087.4, 12559.315, 0.00075109967, -0.23788227, -939847.9, -8926.944, 0.0, 10.000446, 9.998843 
1.3550025e+3, 2.1500638e+2, -806666.44, -934627.25, 28234.244, 0.08918709, -0.15227498, -800713.56, 32208.709, 0.0, 10.0006485, 9.998949 
1.3550024e+3, 2.2500554e+2, -734951.44, -825931.2, -34837.477, 0.06873656, -0.13443306, -723144.06, 11785.974, 0.0, 10.000376, 9.999157 
1.3550004e+3, 2.350035e+2, -729044.3, -759183.94, -24694.018, -0.053947747, -0.29663867, -715185.06, -78238.64, 0.0, 9.999696, 9.999264 
1.3550004e+3, 2.450021e+2, -643885.2, -746445.94, 19009.188, -0.08582528, -0.3178148, -640475.25, -101514.44, 0.0, 9.999921, 9.998588 
1.3550022e+3, 2.550012e+2, -372507.72, -550131.56, 27814.611, -0.037858892, -0.31171617, -368254.03, 72721.44, 0.0, 10.0010605, 9.998708 
1.3550025e+3, 2.6500133e+2, -205310.4, -389168.66, -48196.496, -0.064015605, -0.17471504, -193442.3, 149534.75, 0.000000036385206, 10.001404, 9.998977 
1.3550013e+3, 2.750021e+2, -171214.02, -316869.0, -17201.19, -0.14946747, -0.032158967, -169210.2, 75759.33, 0.0000068750182, 10.0009365, 9.999027 
1.355002e+3, 2.8500077e+2, -140585.78, -372751.1, -2785.5767, -0.10451598, -0.0055786753, -140552.38, 6431.0996, 0.00009120505, 10.000979, 9.997946 
1.3550043e+3, 2.949973e+2, 17929.934, -233297.69, -11805.218, 0.06407062, -0.19804643, 18483.443, 67502.39, 0.0004156126, 10.001343, 9.998053 
1.3550046e+3, 3.049957e+2, 144323.6, -186412.78, -14860.16, -0.0031470605, -0.13704753, 144989.92, 144989.92, 0.0011151334, 10.002079, 9.997683 
1.3550058e+3, 3.1499463e+2, 371053.0, 87409.1, 11435.995, -0.023208939, -0.07225719, 371513.34, 371513.34, 0.0021524278, 10.0028715, 9.999174 
1.3650057e+3, 1.2500964e+2, -1921475.0, -1789418.3, -16203.196, -0.096012704, -0.24238789, -1787459.3, -72571.77, 0.0076198755, 9.998379, 10.000257 
1.3650051e+3, 1.3501085e+2, -1683974.0, -1629414.4, 50380.406, -0.10518971, -0.15956627, -1599402.1, 17479.39, 0.004366158, 9.999425, 10.000176 
1.3650082e+3, 1.4501108e+2, -1564885.8, -1543779.9, 54622.668, 0.2461804, -0.13802305, -1498700.1, 20182.553, 0.0017823466, 9.999661, 9.999955 
1.365006e+3, 1.5501222e+2, -1450168.8, -1433978.3, 4107.293, 0.044965334, -0.061137863, -1432995.9, -12123.387, 0.0004035849, 9.999771, 9.999983 
1.3650048e+3, 1.6501224e+2, -1413206.8, -1485832.3, -9503.611, -0.011299373, 0.0015827012, -1411983.6, -89111.086, 0.000026350568, 9.999835, 9.998946 
1.365004e+3, 1.750109e+2, -1299468.6, -1368029.0, 16768.887, 0.017780839, -0.06720655, -1295586.9, -70701.37, 0.000000016360648, 9.999908, 9.999038 
1.3650031e+3, 1.8500972e+2, -1132298.1, -1222698.0, 55519.37, 0.02139843, -0.087258615, -1105905.9, 20988.697, 0.0, 10.00034, 9.999142 
1.3650024e+3, 1.9500847e+2, -903158.2, -1047919.1, 14733.958, 0.012521796, -0.16911729, -901673.75, 127228.15, 0.0, 10.00119, 9.999254 
1.3650024e+3, 2.0500742e+2, -844330.3, -1051454.5, 38235.93, 0.04539658, -0.15850538, -837497.25, 93413.94, 0.0, 10.001254, 9.998539 
1.3650034e+3, 2.1500632e+2, -838934.94, -984501.25, 2671.1287, 0.117967874, -0.16358949, -838885.94, -5961.3257, 0.0, 10.000566, 9.998652 
1.3650031e+3, 2.2500506e+2, -684805.4, -805097.94, -13261.876, 0.10101843, -0.1699423, -683360.7, 51575.664, 0.0, 10.000731, 9.99913 
1.3650016e+3, 2.3500344e+2, -432889.3, -623150.75, -25429.652, -0.009669332, -0.28598344, -429549.13, 207399.56, 0.0, 10.001743, 9.999222 
1.3650018e+3, 2.4500225e+2, -378716.94, -633849.5, 60173.418, -0.04049859, -0.27970988, -365237.13, 173724.6, 0.0, 10.001813, 9.998444 
1.3650036e+3, 2.5500125e+2, -383751.88, -572020.56, 43263.965, -0.0039377576, -0.2684253, -374285.8, 66692.195, 0.0, 10.001048, 9.998563 
1.3650039e+3, 2.650012e+2, -253299.66, -421022.25, -6395.58, -0.035576943, -0.13719407, -253056.14, 89925.32, 0.000000033203506, 10.001117, 9.998893 
1.365003e+3, 2.7500188e+2, -1650.0525, -234737.81, -41056.465, -0.1322091, -0.0016262506, 5370.2583, 250345.06, 0.0000069323874, 10.0021105, 9.999014 
1.365004e+3, 2.8500053e+2, 49757.414, -321271.44, 1893.1719, -0.07000162, 0.040423527, 49767.074, 196756.69, 0.000089487476, 10.002505, 9.997548 
1.365007e+3, 2.949971e+2, 160364.97, -200627.47, -23614.156, 0.15903075, -0.10922077, 161903.13, 210929.53, 0.0004060462, 10.002502, 9.997707 
1.3650076e+3, 3.0499545e+2, 202220.67, -143392.53, 27374.217, 0.080527864, -0.040336404, 204375.4, 204375.4, 0.0010871664, 10.002416, 9.9978285 
1.3650082e+3, 3.1499463e+2, 213633.13, -28531.266, 1889.7953, -0.020766199, 0.05127194, 213647.86, 213647.86, 0.0020984344, 10.001922, 9.998872 
1.3750044e+3, 1.2501222e+2, -1889819.6, -1726950.4, -95342.93, -0.13129413, -0.21172972, -1682998.1, 31863.59, 0.0079810945, 9.998402, 10.000669 
1.3750057e+3, 1.3501324e+2, -1704881.3, -1674355.9, 96295.22, -0.011285307, -0.11884348, -1592121.4, 24732.588, 0.0045821774, 9.999428, 9.999865 
1.3750048e+3, 1.4501262e+2, -1631380.8, -1685604.9, 29834.893, -0.098557256, -0.11898448, -1618179.3, -99315.75, 0.0018779465, 9.999674, 9.99898 
1.3750051e+3, 1.5501262e+2, -1520271.8, -1576789.3, 22321.93, -0.044663046, -0.06086391, -1512519.0, -91651.164, 0.00043006244, 9.999755, 9.999013 
1.3750054e+3, 1.6501197e+2, -1330569.3, -1313282.9, -26400.031, 0.02669125, -0.07449672, -1294147.1, 28725.885, 0.000029160963, 9.999824, 10.00014 
1.3750045e+3, 1.7501055e+2, -1216897.1, -1193785.1, 35478.97, 0.03984672, -0.27318943, -1168027.6, 56852.684, 0.000000027808229, 9.999883, 10.000255 
1.3750039e+3, 1.8501006e+2, -1188614.1, -1327796.8, 70683.31, 0.021430528, -0.25081688, -1159013.3, -32130.06, 0.0, 10.000298, 9.998438 
1.3750039e+3, 1.950101e+2, -974172.0, -1166511.6, 58075.62, 0.019832706, -0.12744318, -957996.75, 70888.414, 0.0, 10.001066, 9.998503 
1.3750038e+3, 2.0500891e+2, -901958.44, -1135075.0, -4375.051, 0.020567859, -0.06706351, -901876.4, 29023.2, 0.0, 10.0011, 9.998039 
1.3750033e+3, 2.1500628e+2, -908895.3, -1077179.8, -7450.536, 0.028930575, -0.17650892, -908566.06, -75637.945, 0.0, 10.00034, 9.998125 
1.375003e+3, 2.2500516e+2, -713619.1, -806926.06, 9524.392, -0.0069079204, -0.14636344, -712656.9, 22283.113, 0.0, 10.000486, 9.999232 
1.3750029e+3, 2.3500533e+2, -464227.1, -626056.1, 29125.918, -0.08573236, -0.0938211, -459144.63, 177792.88, 0.0, 10.001487, 9.999319 
1.375003e+3, 2.450052e+2, -413471.2, -660638.8, 11555.213, -0.11850788, 0.018406834, -412932.16, 126008.875, 0.0, 10.001606, 9.9983635 
1.3750039e+3, 2.550046e+2, -416737.4, -595856.2, 28183.807, -0.10057373, 0.07577936, -412407.44, 28544.621, 0.0, 10.0008545, 9.998493 
1.3750048e+3, 2.650031e+2, -306714.44, -496839.6, 16675.672, -0.094195396, 0.08321106, -305262.9, 37705.793, 0.000000022673568, 10.00096, 9.998446 
1.3750055e+3, 2.750002e+2, -64018.402, -314733.47, 14103.972, -0.10256136, -0.09293972, -63227.48, 181767.42, 0.0000066245593, 10.001904, 9.998562 
1.3750069e+3, 2.8499871e+2, 23540.854, -345946.7, -16710.488, -0.066531345, -0.036517724, 24295.064, 171305.66, 0.000084736, 10.002369, 9.997445 
1.3750087e+3, 2.9499853e+2, 119960.414, -231018.64, -709.34235, 0.031818345, 0.148236, 119961.85, 168978.27, 0.0003824706, 10.002272, 9.997611 
1.3750088e+3, 3.0499667e+2, 179341.97, -153079.88, 3541.7913, -0.06037192, 0.19520786, 179379.7, 179379.7, 0.0010250094, 10.002251, 9.997836 
1.3750091e+3, 3.1499386e+2, 133240.25, -88205.63, 53593.332, -0.15840927, 0.09071943, 145528.75, 145528.75, 0.0019870058, 10.001489, 9.9986515 
1.3850033e+3, 1.2501279e+2, -1759297.5, -1639121.6, -114622.52, -0.10684136, -0.17892563, -1569792.0, 145067.19, 0.008351057, 9.999214, 10.00088 
1.3850062e+3, 1.3501343e+2, -1751832.9, -1726066.4, -67520.766, 0.114552654, -0.09582963, -1670210.8, -53357.355, 0.004803759, 9.999244, 9.999604 
1.385003e+3, 1.4501281e+2, -1719759.3, -1695531.6, -43608.957, -0.19721973, -0.093064845, -1662385.3, -143524.19, 0.0019753822, 9.998915, 9.999288 
1.3850054e+3, 1.5501247e+2, -1532481.9, -1542208.1, 12033.128, 0.025930375, -0.10557747, -1524366.3, -103499.19, 0.00045665295, 9.999492, 9.999382 
1.3850063e+3, 1.6501185e+2, -1329927.9, -1317941.3, -2871.1777, 0.14461459, -0.12995292, -1317289.0, 5582.784, 0.00003186285, 9.999891, 10.000055 
1.3850048e+3, 1.750109e+2, -1184928.1, -1182332.1, -78150.83, 0.06818376, -0.2750484, -1105468.5, 119407.51, 0.000000039188958, 10.000154, 10.000186 
1.3850042e+3, 1.8501048e+2, -1174769.6, -1360368.4, -24063.889, 0.03222037, -0.22563708, -1171700.3, -44820.21, 0.0, 10.000531, 9.99812 
1.3850054e+3, 1.9501033e+2, -967660.1, -1191161.1, -26600.953, 0.06525216, -0.09592458, -964537.7, 64348.836, 0.0, 10.00121, 9.998271 
1.3850056e+3, 2.0500904e+2, -836013.8, -1110875.6, -58056.098, 0.080256246, -0.0297995, -824254.4, 106648.06, 0.0, 10.001592, 9.997965 
1.3850048e+3, 2.1500641e+2, -701013.8, -981770.44, -61531.7, 0.07814908, -0.1320835, -688120.4, 144809.4, 0.0, 10.001789, 9.998082 
1.3850042e+3, 2.2500533e+2, -590843.75, -789385.44, 4440.356, 0.01855727, -0.0818629, -590744.5, 144197.63, 0.0, 10.001493, 9.998876 
1.3850038e+3, 2.3500551e+2, -574292.8, -718539.7, -40282.457, -0.09910873, 0.00806569, -563805.94, 73136.18, 0.0, 10.000884, 9.9989805 
1.3850042e+3, 2.450053e+2, -481641.22, -682461.3, -33248.203, -0.12818348, 0.12338528, -476279.72, 62666.266, 0.0, 10.0011, 9.998449 
1.3850056e+3, 2.5500453e+2, -212680.81, -488316.6, -44062.1, -0.078755364, 0.15509951, -205808.56, 235146.88, 0.0, 10.00221, 9.998578 
1.3850069e+3, 2.650025e+2, -118552.516, -457129.16, -20577.236, -0.05262808, 0.13221052, -117306.51, 225669.48, 0.0000000049794013, 10.002471, 9.9979925 
1.385008e+3, 2.749989e+2, -77564.1, -374536.03, -55798.96, -0.05448655, -0.06916863, -67425.97, 177584.97, 0.0000064670485, 10.002014, 9.998111 
1.3850091e+3, 2.8499714e+2, -27471.18, -369575.66, -50087.984, -0.048951954, -0.01904569, -20288.533, 126740.9, 0.00007993784, 10.001993, 9.997483 
1.3850103e+3, 2.9499695e+2, 171809.31, -190410.61, -60324.87, -0.02664552, 0.16172934, 181591.75, 230625.03, 0.00035414053, 10.002546, 9.997765 
1.3850108e+3, 3.0499452e+2, 229302.77, -140966.0, -52166.363, -0.098637216, 0.14928846, 236512.0, 236512.0, 0.0009478654, 10.002635, 9.997733 
1.3850114e+3, 3.1499192e+2, 222150.33, -45373.44, -53810.332, -0.11022107, 0.0710256, 232568.17, 232568.17, 0.0018472242, 10.002064, 9.998671 
1.3950035e+3, 1.2501065e+2, -1767116.8, -1635435.6, 85348.62, -0.068079785, -0.19206367, -1593483.0, 121403.59, 0.008733579, 9.999163, 10.000911 
1.3950059e+3, 1.3501121e+2, -1763546.1, -1746235.3, -77171.36, 0.13227221, -0.10852497, -1677235.4, -60353.64, 0.005033633, 9.999229, 9.999467 
1.3950025e+3, 1.450118e+2, -1599334.9, -1452129.9, -51531.85, -0.18886182, -0.06310733, -1435883.3, 82990.97, 0.002076125, 9.9989395, 10.000947 
1.395006e+3, 1.5501186e+2, -1419905.0, -1302935.5, 50801.188, 0.10974846, -0.20029487, -1283952.6, 136916.55, 0.00048381835, 9.999466, 10.001038 
1.395007e+3, 1.6501187e+2, -1433177.5, -1534488.5, -13194.002, 0.19126739, -0.17194177, -1431487.4, -108618.21, 0.000034571214, 9.999898, 9.998569 
1.3950044e+3, 1.7501168e+2, -1302945.3, -1410469.6, -57940.125, -0.0056726076, -0.08845777, -1277666.8, -52791.277, 0.00000005013657, 10.000081, 9.998657 
1.3950041e+3, 1.850109e+2, -1155374.4, -1310260.1, -19299.186, -0.07711553, -0.014720718, -1153005.9, -26119.318, 0.0, 10.000491, 9.998482 
1.3950065e+3, 1.9500928e+2, -963929.94, -1154412.5, 12005.4, 0.01913211, -0.0655482, -963176.25, 65728.35, 0.0, 10.001083, 9.998589 
1.3950075e+3, 2.0500796e+2, -830608.9, -1067328.9, -67275.234, 0.09179311, -0.036687467, -812825.4, 118093.055, 0.0, 10.001451, 9.998329 
1.3950074e+3, 2.1500674e+2, -710284.4, -947141.5, -40916.184, 0.13676858, -0.031907503, -703415.5, 129514.195, 0.0, 10.001564, 9.998425 
1.3950062e+3, 2.2500555e+2, -667468.2, -910848.4, -34390.99, 0.04352182, 0.02860076, -662701.9, 72241.016, 0.0, 10.001314, 9.998133 
1.3950041e+3, 2.3500417e+2, -655015.9, -842839.44, -46060.324, -0.17138033, 0.031593174, -644328.56, -7368.1875, 0.0, 10.000687, 9.998225 
1.3950048e+3, 2.4500273e+2, -500591.63, -671023.44, -6900.0728, -0.20375381, 0.052785575, -500312.75, 38661.66, 0.0, 10.000885, 9.998632 
1.3950083e+3, 2.550009e+2, -241456.88, -485398.47, 14336.051, -0.05303599, -0.03511194, -240617.27, 200371.25, 0.0, 10.001952, 9.998718 
1.3950099e+3, 2.6499942e+2, -182796.72, -545523.06, -52919.508, -0.024948964, 0.013096499, -175233.78, 167770.13, 0.0000000011462398, 10.002274, 9.997484 
1.3950096e+3, 2.749981e+2, -146800.39, -466463.47, -53809.04, -0.10914769, 0.08762908, -137985.75, 107036.09, 0.0000063015364, 10.001787, 9.997592 
1.3950102e+3, 2.8499594e+2, -47992.016, -362447.72, -43725.94, -0.15826951, 0.12007579, -42025.03, 105019.25, 0.00007549819, 10.001785, 9.997629 
1.3950118e+3, 2.9499236e+2, 141117.64, -195756.17, -16322.233, -0.1642788, -0.050890706, 141906.64, 190983.17, 0.0003302732, 10.002303, 9.997843 
1.3950129e+3, 3.0498904e+2, 195455.7, -169565.38, -88893.37, -0.17441, -0.15021981, 215952.88, 215952.88, 0.0008854581, 10.002453, 9.997627 
1.3950138e+3, 3.1498933e+2, 178180.89, -29061.785, -22839.615, -0.1302459, 0.065379664, 180668.13, 180668.13, 0.0017326016, 10.001619, 9.998995 
1.4050034e+3, 1.2500976e+2, -1877415.8, -1685566.0, 264685.16, 0.044917267, -0.09410071, -1499959.6, 214939.03, 0.009133226, 9.998349, 10.000974 
1.4050043e+3, 1.3500957e+2, -1734094.8, -1670621.4, -29077.65, 0.06260591, -0.14426164, -1659314.8, -42414.977, 0.005275387, 9.99913, 10.000044 
1.405003e+3, 1.4501092e+2, -1532385.8, -1388268.9, 14829.19, -0.027586216, -0.06888275, -1386758.9, 132124.94, 0.0021822979, 9.99927, 10.001224 
1.4050053e+3, 1.5501167e+2, -1459663.0, -1297636.3, -31580.209, 0.12686384, -0.15863825, -1291698.6, 129173.35, 0.00051218417, 9.999093, 10.001252 
1.4050062e+3, 1.6501176e+2, -1516764.5, -1611042.5, -45503.965, 0.14583653, -0.11534818, -1498384.8, -175513.19, 0.000037386584, 9.999472, 9.99825 
1.405005e+3, 1.7501114e+2, -1222025.1, -1398830.1, -29477.09, 0.017430818, -0.053442, -1217240.3, 7643.1997, 0.00000006103049, 10.000748, 9.998412 
1.4050053e+3, 1.8501021e+2, -1050660.4, -1238606.4, 62099.68, -0.024764936, 0.008575236, -1031995.44, 94900.68, 0.0, 10.001132, 9.998662 
1.4050074e+3, 1.9500878e+2, -998923.6, -1146682.3, 46628.734, 0.026407331, -0.042942934, -985439.4, 43472.57, 0.0, 10.000744, 9.998804 
1.4050087e+3, 2.0500772e+2, -902872.5, -1065294.1, 2662.5483, 0.098051116, -0.01653555, -902828.9, 28093.275, 0.0, 10.000794, 9.998668 
1.4050093e+3, 2.1500677e+2, -696116.2, -896520.7, -2077.3652, 0.18040942, -0.020285733, -696094.7, 136834.42, 0.0, 10.001475, 9.998817 
1.4050084e+3, 2.250053e+2, -612291.5, -948406.6, 24876.096, 0.11035857, 0.022126103, -610460.4, 124484.21, 0.0, 10.001984, 9.997548 
1.4050062e+3, 2.3500308e+2, -449217.44, -801686.25, -8095.723, -0.10626356, -0.0006325712, -449031.6, 187939.03, 0.0, 10.002355, 9.997701 
1.405007e+3, 2.4500091e+2, -322292.2, -601778.5, 69780.93, -0.14334954, -0.019731663, -305838.25, 233153.08, 0.0, 10.002179, 9.998485 
1.4050102e+3, 2.549985e+2, -309341.63, -528014.1, 38881.168, -0.016810156, -0.15006046, -302634.06, 138375.31, 0.0, 10.001536, 9.998621 
1.4050119e+3, 2.64997e+2, -322368.34, -634749.0, -2445.659, -0.0005015754, -0.08910091, -322349.2, 20675.912, 0.0000000047036606, 10.001415, 9.997285 
1.4050117e+3, 2.7499634e+2, -143541.5, -479087.97, -23147.951, -0.08445723, 0.07258856, -141952.16, 103086.086, 0.000006310061, 10.001896, 9.997443 
1.4050125e+3, 2.8499442e+2, 3710.6235, -338222.44, 39742.34, -0.12460276, 0.13346736, 8269.043, 155328.64, 0.00007173929, 10.002141, 9.997619 
1.4050144e+3, 2.9499048e+2, 101805.555, -219344.14, 26075.709, -0.11311089, -0.07244703, 103908.99, 153004.92, 0.00031660267, 10.002052, 9.997802 
1.4050154e+3, 3.0498725e+2, 65728.87, -211660.1, -43557.91, -0.10749865, -0.16622576, 72407.875, 72407.875, 0.0008541431, 10.001478, 9.997804 
1.405015e+3, 3.149879e+2, 56905.734, -12993.414, -22711.664, -0.10090363, 0.063448526, 63637.0, 63637.0, 0.0016740352, 10.000457, 9.999669 
1.4150016e+3, 1.2500966e+2, -1858916.8, -1651438.6, 174287.33, -0.03768768, 0.05939265, -1552352.9, 162546.92, 0.009556688, 9.998358, 10.001212 
1.4150006e+3, 1.3500859e+2, -1645328.0, -1476060.0, 12493.547, -0.23839211, -0.20324878, -1475142.9, 141763.36, 0.0055341963, 9.999088, 10.001408 
1.4150044e+3, 1.4501014e+2, -1606659.8, -1550364.0, -14271.619, 0.12599146, -0.12885252, -1546952.8, -28062.47, 0.0022969088, 9.999304, 10.0000925 
1.4150032e+3, 1.5501188e+2, -1555423.1, -1491887.5, -25905.406, -0.042187285, 0.012625806, -1482664.0, -61788.227, 0.0005425403, 9.999074, 9.999928 
1.4150034e+3, 1.650117e+2, -1438315.0, -1454338.6, -20295.617, -0.122088365, 0.04328578, -1424507.0, -101629.24, 0.000040406845, 9.999495, 9.999319 
1.4150059e+3, 1.7500952e+2, -1159886.5, -1251777.3, 33101.41, 0.011607415, -0.15154333, -1149204.4, 75693.12, 0.00000007226826, 10.0006695, 9.999466 
1.4150076e+3, 1.8500866e+2, -1058545.4, -1241005.3, 30165.064, 0.049670294, -0.13690631, -1053687.6, 73219.19, 0.0, 10.001076, 9.998667 
1.4150077e+3, 1.9500884e+2, -1020442.56, -1162912.5, 44383.484, -0.036000956, -0.024927685, -1007747.1, 21161.61, 0.0, 10.000625, 9.998748 
1.4150086e+3, 2.0500822e+2, -893622.25, -1017524.5, 6371.0464, -0.026883608, 0.029267078, -893295.56, 37619.36, 0.0, 10.000664, 9.999061 
1.4150101e+3, 2.1500655e+2, -704677.06, -861825.5, 37300.277, 0.09646193, -0.08787326, -696273.0, 136654.83, 0.0, 10.001244, 9.999171 
1.4150105e+3, 2.2500457e+2, -673474.5, -1019985.0, 21116.14, 0.095804214, -0.095369406, -672192.44, 62754.535, 0.0, 10.001747, 9.997167 
1.4150096e+3, 2.3500212e+2, -518133.1, -885207.94, 20859.889, -0.02553889, -0.0975768, -516951.5, 120022.57, 0.0, 10.002105, 9.997245 
1.41501e+3, 2.4499984e+2, -376803.84, -672822.6, 32173.766, -0.09392244, -0.083114654, -373347.28, 165649.19, 0.0, 10.001987, 9.998089 
1.4150111e+3, 2.5499746e+2, -360777.72, -597365.8, 32293.74, -0.1049238, -0.17996629, -356448.9, 84568.23, 0.0, 10.001369, 9.998225 
1.4150125e+3, 2.6499537e+2, -346525.1, -644832.5, -396.14554, -0.10939679, -0.15734464, -346524.56, -3485.9272, 0.000000079284355, 10.001243, 9.997296 
1.4150135e+3, 2.7499342e+2, -178155.0, -500375.5, 16325.52, -0.11445579, -0.12543364, -177329.97, 67732.51, 0.000007370644, 10.001677, 9.997403 
1.4150153e+3, 2.8499222e+2, -22613.777, -350955.25, 21612.674, -0.098583765, 0.013758515, -21197.26, 125880.98, 0.00007202747, 10.001959, 9.997617 
1.4150177e+3, 2.9499114e+2, 60387.15, -250000.36, 46724.133, -0.02249897, 0.0911609, 67268.21, 116360.35, 0.00031764805, 10.001804, 9.997714 
1.4150177e+3, 3.0498892e+2, 44117.31, -191801.19, -90773.3, -0.050512563, 0.09054019, 75000.85, 75000.85, 0.00085660315, 10.001227, 9.998043 
1.4150143e+3, 3.1498748e+2, 36210.508, 52245.023, -14081.362, -0.2670375, 0.08107047, 60431.504, 60431.504, 0.0016729925, 10.000031, 10.0003 
1.425001e+3, 1.2500806e+2, -1946780.9, -1720039.3, 146036.27, 0.107323706, 0.014747743, -1648533.0, 66380.98, 0.010011913, 9.997894, 10.000961 
1.4249991e+3, 1.3500826e+2, -1646105.9, -1447606.9, -9713.846, -0.280332, -0.13595442, -1447132.6, 169776.75, 0.0058154534, 9.999001, 10.001637 
1.4250052e+3, 1.4500941e+2, -1554319.3, -1597201.3, -59043.844, 0.251473, -0.08169095, -1512943.9, 5955.008, 0.002423067, 9.999987, 9.999435 
1.4250027e+3, 1.5500996e+2, -1440746.0, -1513446.8, -68967.69, -0.04986382, 0.0080403015, -1399135.5, 21762.854, 0.00057589856, 10.000203, 9.999225 
1.4250025e+3, 1.650097e+2, -1292966.8, -1308718.6, 4545.982, -0.17225201, 0.0329195, -1291749.0, 31151.633, 0.00004378684, 10.000166, 9.999989 
1.4250067e+3, 1.7500861e+2, -1175547.8, -1180803.4, -4186.3413, 0.052523583, -0.1255954, -1173232.8, 51673.902, 0.00000008454083, 10.000218, 10.000165 
1.4250088e+3, 1.8500802e+2, -1190110.3, -1288752.5, -16065.142, 0.12803595, -0.12634711, -1187559.8, -60648.246, 0.0, 10.000098, 9.998811 
1.4250083e+3, 1.950078e+2, -1106597.9, -1183630.0, -17536.248, -0.003482198, -0.071509376, -1102793.6, -73877.0, 0.0, 9.999946, 9.998928 
1.425009e+3, 2.0500718e+2, -948406.9, -1054679.6, 9024.995, -0.01645567, -0.02074961, -947645.9, -16722.33, 0.0, 10.000326, 9.998965 
1.4250115e+3, 2.1500584e+2, -697900.25, -871727.8, -30296.896, 0.10674783, -0.09344905, -692771.06, 140164.48, 0.0, 10.00132, 9.999073 
1.4250125e+3, 2.250041e+2, -626620.6, -950965.06, -21830.352, 0.122933716, -0.09399707, -625157.94, 109794.4, 0.0, 10.001869, 9.997589 
1.425012e+3, 2.3500183e+2, -487016.97, -819847.5, 8576.978, 0.018556084, -0.12003262, -486796.1, 150178.97, 0.0, 10.002098, 9.9977045 
1.4250122e+3, 2.4499977e+2, -413681.63, -759079.1, 48606.195, -0.050620917, -0.07741123, -406971.84, 132024.53, 0.0, 10.002032, 9.9974785 
1.425013e+3, 2.5499764e+2, -337098.47, -653511.9, -3213.3203, -0.080142125, -0.0865105, -337065.84, 103952.98, 0.00000000006254562, 10.001815, 9.99763 
1.4250143e+3, 2.649953e+2, -211497.36, -547149.9, 35082.613, -0.08167922, -0.074194916, -207869.72, 135173.19, 0.00000036239143, 10.002021, 9.997591 
1.4250161e+3, 2.7499267e+2, -14340.724, -384159.5, 44413.434, -0.061290044, -0.14310461, -9081.674, 235987.66, 0.000010087366, 10.002629, 9.997741 
1.4250179e+3, 2.8499144e+2, 19469.828, -316194.2, 57622.984, -0.03663132, -0.029024543, 29086.38, 176170.5, 0.000078694284, 10.002187, 9.997752 
1.4250195e+3, 2.949912e+2, -58865.617, -287890.6, 40425.44, 0.028308593, 0.11403027, -51939.535, -2847.268, 0.0003338223, 10.000903, 9.997887 
1.4250197e+3, 3.0498958e+2, 52731.71, -221650.14, -20393.248, 0.018918997, 0.17808485, 54239.145, 54239.145, 0.00088968594, 10.001388, 9.997785 
1.4250165e+3, 3.1498685e+2, 508325.7, 257646.56, -35142.09, -0.20575857, 0.06594016, 513159.0, 513159.0, 0.0017268027, 10.003336, 10.000142 
1.4349991e+3, 1.2500586e+2, -1977690.0, -1806637.4, -60602.207, 0.052292958, -0.1722422, -1787343.0, -72410.234, 0.010506618, 9.997955, 10.000343 
1.4349996e+3, 1.3500887e+2, -1732680.4, -1616511.3, 67781.06, -0.16941878, 0.07207786, -1585331.6, 31574.668, 0.006123269, 9.9989605, 10.000483 
1.435005e+3, 1.4500892e+2, -1548485.1, -1598449.3, -64289.42, 0.18796551, 0.07194554, -1504494.5, 14413.66, 0.002563054, 10.000035, 9.999412 
1.4350034e+3, 1.5500611e+2, -1451220.8, -1527510.0, -45258.93, -0.029368201, -0.16670866, -1430176.0, -9238.37, 0.0006133788, 10.000164, 9.999154 
1.4350034e+3, 1.6500589e+2, -1277695.0, -1273843.5, -15981.215, -0.15022461, -0.14669512, -1259672.4, 63266.496, 0.000047750204, 10.000153, 10.000236 
1.435007e+3, 1.7500812e+2, -1163922.4, -1151445.3, 9568.537, 0.01607564, 0.00601863, -1146261.3, 78652.6, 0.00000010052836, 10.000191, 10.000385 
1.4350088e+3, 1.8500814e+2, -1168726.8, -1231823.4, -42280.52, 0.081044056, 0.034321543, -1147521.5, -20609.824, 0.0, 10.000047, 9.999227 
1.4350085e+3, 1.9500569e+2, -1097842.5, -1136924.5, -9262.197, -0.006646282, -0.17420414, -1095758.6, -66823.5, 0.0, 9.999823, 9.99931 
1.4350097e+3, 2.0500465e+2, -1007885.8, -1145206.9, 27370.148, -0.0193686, -0.1585476, -1002631.56, -71684.22, 0.0, 10.00018, 9.998413 
1.4350128e+3, 2.1500474e+2, -773197.7, -978459.75, 22022.934, 0.08215589, -0.03202527, -770861.4, 62090.14, 0.0, 10.001101, 9.9984455 
1.4350139e+3, 2.25004e+2, -577364.75, -788933.7, -28895.443, 0.058540735, 0.038697112, -573489.3, 161470.34, 0.0, 10.00162, 9.998816 
1.4350133e+3, 2.3500226e+2, -439412.4, -657253.94, 34227.734, -0.09389251, -0.060059447, -434161.06, 202812.13, 0.0, 10.001839, 9.99894 
1.4350137e+3, 2.4500059e+2, -505489.47, -898502.0, 20936.525, -0.14034292, 0.0030024226, -504377.28, 34614.387, 0.0, 10.001806, 9.996634 
1.4350152e+3, 2.5499883e+2, -437166.47, -799808.3, 4270.735, -0.06801756, 0.11736327, -437116.2, 3900.5474, 0.000000006122379, 10.001555, 9.99675 
1.435017e+3, 2.6499674e+2, -187748.73, -454801.16, 43576.46, -0.042170156, 0.16468526, -180817.98, 162220.22, 0.0000008787704, 10.001829, 9.998323 
1.4350191e+3, 2.749941e+2, 7916.3135, -295192.7, 87695.66, -0.058555875, 0.025035582, 31459.77, 276518.34, 0.000014147242, 10.002441, 9.998451 
1.4350198e+3, 2.849921e+2, 3603.3713, -307062.1, -7600.221, -0.08237322, 0.013821358, 3789.1943, 150866.52, 0.000090676775, 10.002002, 9.997902 
1.4350192e+3, 2.9499027e+2, -92974.94, -305748.6, 15388.067, -0.109773226, -0.012774702, -91867.81, -42769.11, 0.00036389777, 10.000662, 9.997887 
1.4350206e+3, 3.0498898e+2, -17062.69, -303360.16, 38940.344, -0.05451023, 0.11370932, -11860.79, -11860.79, 0.0009561929, 10.001146, 9.997325 
1.4350206e+3, 3.1498623e+2, 389608.94, 119221.445, 82480.016, -0.17494904, 0.04178963, 412782.8, 412782.8, 0.0018452968, 10.002888, 9.999404 
1.4449975e+3, 1.250048e+2, -1787421.4, -1727022.5, -101469.26, 0.048577476, -0.18620947, -1651354.0, 63588.01, 0.011047917, 9.999299, 10.000241 
1.4449993e+3, 1.3500711e+2, -1791203.0, -1709585.3, 88563.664, -0.07132029, 0.034154296, -1652880.6, -35957.133, 0.00646129, 9.998828, 9.999899 
1.4450036e+3, 1.4500697e+2, -1679659.6, -1611470.6, 24077.271, 0.11206159, 0.027682308, -1603826.1, -84899.15, 0.0027186894, 9.998935, 9.999837 
1.4450042e+3, 1.5500501e+2, -1487314.5, -1484210.0, 36012.03, 0.06874484, -0.17935818, -1449716.8, -28770.492, 0.0006559602, 9.9996605, 9.99969 
1.445005e+3, 1.65005e+2, -1331154.5, -1322959.3, 94090.47, -0.001051376, -0.15406309, -1232877.3, 90068.34, 0.000052490832, 9.999891, 10.000023 
1.4450072e+3, 1.750068e+2, -1203763.0, -1187866.3, 57545.246, 0.047343705, -0.024638258, -1137723.1, 87203.27, 0.00000012546444, 10.000007, 10.0002165 
1.4450088e+3, 1.8500683e+2, -1103422.9, -1178151.4, 23054.17, 0.06998987, 0.00114828, -1096882.9, 30041.396, 0.0, 10.000383, 9.999438 
1.445009e+3, 1.9500484e+2, -899519.75, -1013078.94, 10791.613, 0.01170798, -0.18614972, -898503.4, 130438.23, 0.0, 10.001054, 9.999566 
1.4450106e+3, 2.0500396e+2, -879095.7, -1087533.3, 89179.32, 0.018902153, -0.1640475, -846148.5, 84803.836, 0.0, 10.001109, 9.998358 
1.445014e+3, 2.1500398e+2, -840512.75, -1005491.2, 88296.875, 0.1250507, -0.039568517, -802168.2, 30790.656, 0.0, 10.000654, 9.998463 
1.4450155e+3, 2.2500356e+2, -691435.44, -834745.7, 58751.59, 0.10153621, 0.05727202, -670428.8, 64536.438, 0.0, 10.000773, 9.998919 
1.445015e+3, 2.3500241e+2, -489528.88, -668908.2, 8761.422, -0.06315025, 0.0055148513, -489101.97, 147872.25, 0.0, 10.001415, 9.999068 
1.4450158e+3, 2.4500084e+2, -473982.72, -861706.2, 15473.622, -0.10198562, 0.061284, -473366.16, 65625.25, 0.0, 10.001938, 9.996817 
1.4450176e+3, 2.549986e+2, -285562.6, -708539.6, 46189.61, -0.015595715, 0.109368265, -280577.4, 160441.98, 0.000000012932129, 10.002499, 9.996928 
1.4450197e+3, 2.6499644e+2, -129170.44, -439942.5, 115407.984, 0.02864888, 0.145736, -91000.734, 252040.64, 0.0000016431604, 10.002301, 9.998195 
1.4450218e+3, 2.7499416e+2, -141262.34, -376919.1, 53027.977, 0.028826188, 0.0560125, -129879.68, 115179.66, 0.000019343763, 10.001472, 9.998348 
1.4450222e+3, 2.8499195e+2, -39554.246, -353174.22, -43569.684, -0.021714576, 0.04011172, -33613.844, 113466.08, 0.00010742406, 10.001808, 9.997677 
1.4450212e+3, 2.949896e+2, 264976.72, -150175.11, -73663.86, -0.10901439, -0.018559534, 277660.03, 326764.75, 0.0004097107, 10.003201, 9.997721 
1.445023e+3, 3.0498806e+2, 288306.03, -211455.88, 5921.5186, -0.03058751, 0.116318926, 288376.2, 288376.2, 0.0010616613, 10.003473, 9.996851 
1.4450246e+3, 3.1498468e+2, 283642.44, -24643.57, -39349.055, -0.047621917, 0.022093868, 288585.63, 288585.63, 0.0020378157, 10.002568, 9.998565 
1.4549978e+3, 1.2500532e+2, -1757288.4, -1684911.3, -45306.75, 0.061313584, -0.024997987, -1663114.4, 51822.855, 0.011640448, 9.999382, 10.000494 
1.4549981e+3, 1.350031e+2, -1806369.5, -1728355.3, 89582.69, -0.10535583, -0.26070914, -1669655.6, -52696.004, 0.0068325973, 9.998769, 9.999805 
1.4550005e+3, 1.4500375e+2, -1623702.6, -1495774.8, 36479.18, -0.14794563, -0.21152593, -1486103.8, 32849.492, 0.0028915813, 9.998938, 10.0006275 
1.4550045e+3, 1.5500656e+2, -1423643.3, -1342288.5, 75875.53, 0.103642605, -0.038614575, -1296874.4, 124050.72, 0.00070428615, 9.999623, 10.00068 
1.4550066e+3, 1.6500705e+2, -1363700.5, -1398915.6, 74741.66, 0.13794151, 0.0108758565, -1304520.4, 18400.0, 0.000058062662, 9.999921, 9.999491 
1.4550073e+3, 1.7500478e+2, -1251253.4, -1275764.5, 77236.27, 0.023966912, -0.21081527, -1185306.4, 39636.816, 0.00000016567238, 9.99996, 9.999637 
1.4550084e+3, 1.8500417e+2, -1103507.0, -1169867.6, 31598.646, -0.040897585, -0.22142994, -1090868.0, 36080.383, 0.0, 10.000344, 9.999517 
1.4550096e+3, 1.9500522e+2, -913328.9, -1015402.5, 50566.652, -0.074292645, -0.11069068, -892520.4, 136416.17, 0.0, 10.000935, 9.999615 
1.4550115e+3, 2.0500503e+2, -876286.44, -1038927.8, 53324.71, -0.031799953, -0.04042044, -860362.2, 70577.07, 0.0, 10.000934, 9.998772 
1.4550148e+3, 2.1500339e+2, -845260.1, -959694.0, 85133.23, 0.11018638, -0.1258823, -799902.94, 33056.145, 0.0, 10.000423, 9.998886 
1.4550167e+3, 2.2500254e+2, -784707.06, -974820.8, 66115.57, 0.115104385, -0.049507022, -763975.0, -29003.588, 0.0, 10.000543, 9.998069 
1.4550172e+3, 2.3500237e+2, -594623.6, -818796.9, 48973.41, -0.021153131, 0.08368815, -584391.8, 52585.832, 0.0, 10.00113, 9.998175 
1.4550184e+3, 2.4500065e+2, -420316.8, -699356.06, 22175.049, -0.07808362, 0.10833933, -418565.6, 120429.12, 0.0, 10.001709, 9.998045 
1.45502e+3, 2.549971e+2, -228134.02, -543972.56, 85185.25, -0.049574655, -0.093255274, -206623.58, 234401.55, 0.000000017460069, 10.002301, 9.998157 
1.4550218e+3, 2.649945e+2, -231269.4, -611480.25, 69153.8, -0.0073747127, -0.10977559, -219082.17, 123968.75, 0.000002726617, 10.002121, 9.997104 
1.4550237e+3, 2.7499261e+2, -252707.2, -553637.5, 40096.906, 0.05457056, -0.058025923, -247456.2, -2382.2588, 0.000025176965, 10.001241, 9.997241 
1.4550248e+3, 2.8499088e+2, -100658.74, -422126.06, -5830.188, 0.013229005, 0.049465347, -100553.04, 46540.324, 0.00012772984, 10.001565, 9.997319 
1.4550246e+3, 2.9498914e+2, 209254.39, -212762.45, 2443.985, -0.12153812, 0.08769763, 209268.53, 258379.38, 0.0004676586, 10.002973, 9.997403 
1.4550264e+3, 3.0498686e+2, 214685.64, -315476.7, -39475.8, -0.05175424, 0.1933862, 217608.88, 217608.88, 0.0011983007, 10.003262, 9.996241 
1.4550273e+3, 3.1498173e+2, 128811.266, -258527.22, -36378.336, -0.08308088, -0.011976439, 132198.25, 132198.25, 0.002292943, 10.002183, 9.997149 
1.4649977e+3, 1.2500428e+2, -1793531.8, -1680424.9, 5198.937, 0.14424974, 0.014536838, -1680186.4, 34763.59, 0.012283002, 9.999059, 10.000678 
1.4649974e+3, 1.3500172e+2, -1775900.1, -1689427.8, 28472.936, -0.051009938, -0.2763391, -1680894.5, -63920.605, 0.00723705, 9.998891, 10.000009 
1.4649989e+3, 1.4500254e+2, -1672920.3, -1515558.0, 59808.09, -0.1611272, -0.21700615, -1495407.3, 23557.152, 0.0030819494, 9.998555, 10.000695 
1.4650041e+3, 1.550055e+2, -1434897.1, -1322204.0, 6263.021, 0.104855075, -0.050666377, -1321857.0, 99076.8, 0.0007585455, 9.999411, 10.000933 
1.4650068e+3, 1.6500603e+2, -1380222.9, -1446790.4, 2575.8264, 0.18727669, 0.006647212, -1380123.4, -57193.734, 0.00006440502, 9.999984, 9.999126 
1.465008e+3, 1.7500365e+2, -1198610.3, -1292562.4, -15801.851, 0.07049689, -0.18956861, -1196023.8, 28933.043, 0.00000022299002, 10.000493, 9.999264 
1.4650092e+3, 1.8500309e+2, -1072263.1, -1139132.1, -25074.39, 0.00024978715, -0.18253323, -1063905.4, 63057.438, 0.0, 10.0005245, 9.999626 
1.4650105e+3, 1.9500436e+2, -990800.1, -1032463.0, -36584.49, -0.028092992, -0.061627544, -969532.0, 59415.766, 0.0, 10.00034, 9.999769 
1.4650124e+3, 2.0500408e+2, -936823.94, -1056185.0, -14794.506, 0.0058503095, -0.015825542, -935017.56, -4067.6345, 0.0, 10.000439, 9.998907 
1.4650153e+3, 2.1500202e+2, -762008.0, -903414.44, -27631.629, 0.10711542, -0.15710065, -756800.44, 76171.1, 0.0, 10.0009, 9.999055 
1.4650175e+3, 2.250011e+2, -680722.94, -931170.75, 24175.293, 0.10873351, -0.09302025, -678410.7, 56573.637, 0.0, 10.001312, 9.997986 
1.4650188e+3, 2.3500109e+2, -495831.47, -780848.56, 27946.418, 0.006339465, 0.06529703, -493117.13, 143873.67, 0.0, 10.001853, 9.998086 
1.4650205e+3, 2.4499942e+2, -350560.97, -623072.75, 17790.07, -0.02680999, 0.08250811, -349404.53, 189602.47, 0.0, 10.002008, 9.9984255 
1.4650224e+3, 2.54996e+2, -264585.63, -513088.72, -15838.971, 0.00007338252, -0.14641868, -263580.16, 177453.92, 0.000000044837254, 10.001855, 9.998577 
1.4650242e+3, 2.649936e+2, -245767.84, -631201.7, -8598.022, 0.024006648, -0.15487266, -245576.14, 97481.35, 0.0000038968087, 10.002076, 9.996992 
1.4650257e+3, 2.7499205e+2, -45908.965, -468713.3, 8818.676, 0.045748696, -0.055866573, -45725.11, 199354.39, 0.000030518888, 10.002707, 9.997128 
1.465027e+3, 2.8499028e+2, 98725.21, -328722.28, 75412.57, 0.020406177, 0.058442045, 111639.71, 258739.38, 0.00014669313, 10.002952, 9.997294 
1.4650282e+3, 2.949884e+2, 188255.28, -220889.95, 53615.285, -0.04504975, 0.086731076, 195164.47, 244282.23, 0.00052498176, 10.002837, 9.997406 
1.4650302e+3, 3.0498582e+2, 185583.34, -289406.03, 53890.3, 0.02308285, 0.14002062, 191620.77, 191620.77, 0.0013417992, 10.002903, 9.996572 
1.4650302e+3, 3.1498158e+2, 231467.95, -204829.0, 65548.07, -0.029299794, -0.0006731089, 241102.95, 241102.95, 0.0025704885, 10.002868, 9.997176 
1.4749964e+3, 1.2500052e+2, -1776581.1, -1650083.3, -62063.22, 0.023628509, -0.15574475, -1624719.1, 90272.305, 0.012969953, 9.999095, 10.000854 
1.474996e+3, 1.3500297e+2, -1749767.9, -1622347.3, 8884.227, -0.093537755, 0.002166122, -1621730.8, -4764.3774, 0.0076708426, 9.998847, 10.000479 
1.4749987e+3, 1.4500329e+2, -1690151.1, -1573703.9, 60122.773, -0.08477395, 0.009622099, -1548233.3, -29272.133, 0.0032881629, 9.998633, 10.000266 
1.475002e+3, 1.5500201e+2, -1471676.3, -1390049.6, 52919.914, -0.058497824, -0.2032108, -1364033.0, 56937.457, 0.00081847684, 9.999373, 10.000488 
1.4750053e+3, 1.6500217e+2, -1385985.0, -1471012.9, 2985.3892, -0.003923526, -0.1521499, -1385880.3, -62909.133, 0.000071419374, 10.000026, 9.99894 
1.4750086e+3, 1.7500356e+2, -1223640.8, -1328450.1, 16173.907, 0.053990718, 0.046320993, -1221201.6, 3763.8796, 0.0000002932695, 10.00043, 9.9990425 
1.4750107e+3, 1.8500364e+2, -1065038.4, -1126695.0, -51663.78, 0.058379836, 0.12536867, -1035704.2, 91262.2, 0.0, 10.000521, 9.999721 
1.4750116e+3, 1.950022e+2, -997165.4, -1024905.3, -30460.316, 0.019863546, -0.036061462, -977565.9, 51410.137, 0.0, 10.000243, 9.999873 
1.475013e+3, 2.0500106e+2, -955480.06, -1063596.0, -17524.912, -0.008792442, -0.08317231, -952710.3, -21725.484, 0.0, 10.000301, 9.9989195 
1.4750151e+3, 2.1500006e+2, -798372.44, -922742.75, 2246.7854, -0.018960616, -0.12011762, -798331.9, 34662.44, 0.0, 10.000665, 9.999033 
1.4750175e+3, 2.2499934e+2, -670088.94, -864684.5, 26557.164, -0.05040191, -0.06204272, -666529.7, 68473.17, 0.0, 10.001102, 9.998553 
1.4750198e+3, 2.3499858e+2, -482584.2, -710095.9, 64246.68, -0.106571846, -0.036753647, -465695.38, 171318.06, 0.0, 10.001658, 9.9986725 
1.4750223e+3, 2.449972e+2, -410242.38, -703190.25, -5821.621, -0.0938824, 0.0010062765, -410126.72, 128901.32, 0.0, 10.001816, 9.997969 
1.4750245e+3, 2.5499505e+2, -331883.25, -599932.9, -7815.972, 0.0003343006, -0.058201816, -331655.53, 109392.62, 0.000000082863835, 10.001626, 9.998092 
1.4750262e+3, 2.6499358e+2, -213680.48, -514088.75, 2395.6812, -0.013821022, 0.006617774, -213661.38, 129401.49, 0.0000048986644, 10.001854, 9.997901 
1.4750268e+3, 2.7499253e+2, -12199.178, -347254.84, 56185.36, -0.13800232, 0.058762096, -3028.484, 242047.06, 0.00003489947, 10.002488, 9.99806 
1.4750284e+3, 2.849904e+2, 68620.3, -345684.84, 53740.434, -0.15331253, 0.08564728, 75477.59, 222574.88, 0.00016199093, 10.002747, 9.99728 
1.4750314e+3, 2.9498717e+2, 154216.55, -235857.39, 69242.37, -0.049950413, -0.02399802, 166143.17, 215271.05, 0.0005771533, 10.002594, 9.99742 
1.4750336e+3, 3.0498463e+2, 246182.83, -104993.05, 38917.223, 0.03951273, -0.036055412, 250443.92, 250443.92, 0.0014773308, 10.00265, 9.997959 
1.4750323e+3, 3.1498387e+2, 273831.47, -11899.753, 107743.37, -0.1745222, 0.031006398, 309905.0, 309905.0, 0.002829432, 10.002424, 9.998712 
1.4849962e+3, 1.2499958e+2, -1992416.4, -1761986.1, 48696.543, 0.1868823, -0.121138565, -1752117.9, -37113.613, 0.013700781, 9.997629, 10.000797 
1.4849967e+3, 1.3500242e+2, -1582326.8, -1535812.1, 32218.72, 0.031672835, 0.07659872, -1519333.5, 97639.53, 0.00813248, 9.999927, 10.000578 
1.4849995e+3, 1.4500214e+2, -1496186.0, -1558824.1, 83734.125, 0.04197433, 0.05294902, -1438105.5, 80868.65, 0.0035089266, 10.000346, 9.999523 
1.4850017e+3, 1.5499988e+2, -1401813.6, -1437478.6, 17091.734, -0.0658888, -0.18326333, -1394945.4, 26050.549, 0.0008836724, 10.000221, 9.99974 
1.4850047e+3, 1.6499993e+2, -1393629.5, -1422791.8, 1136.6844, -0.049332067, -0.12646021, -1393585.3, -70587.29, 0.00007901186, 9.999785, 9.99938 
1.4850083e+3, 1.7500204e+2, -1354948.4, -1340647.1, 26202.76, 0.049816262, 0.10367561, -1320636.9, -95654.086, 0.00000037325287, 9.999324, 9.9994955 
1.485011e+3, 1.8500224e+2, -1206545.5, -1214035.1, 31943.756, 0.09582808, 0.18099351, -1178127.9, -51145.734, 0.0, 9.999631, 9.99955 
1.4850128e+3, 1.9500041e+2, -903329.2, -996711.06, -424.461, 0.077962354, -0.0051705404, -903327.25, 125670.01, 0.0, 10.0009575, 9.999723 
1.4850144e+3, 2.049992e+2, -803631.4, -990936.7, 9414.452, 0.047737163, -0.049947403, -803159.3, 127847.99, 0.0, 10.001376, 9.998886 
1.485016e+3, 2.1499847e+2, -758021.7, -902071.3, -9603.16, 0.008707688, -0.05533419, -757384.3, 75629.16, 0.0, 10.000951, 9.999026 
1.4850184e+3, 2.2499768e+2, -704726.6, -861196.94, 49229.55, -0.032595243, -0.0135949515, -690526.44, 44495.457, 0.0, 10.000776, 9.99873 
1.4850211e+3, 2.349967e+2, -565651.06, -727579.4, 25710.371, -0.09543348, -0.027706517, -561666.9, 75366.836, 0.0, 10.000989, 9.998872 
1.4850236e+3, 2.4499552e+2, -481482.38, -727600.5, -19699.822, -0.087095395, 0.014402269, -479915.53, 59131.0, 0.0, 10.001283, 9.998063 
1.4850262e+3, 2.5499398e+2, -316742.1, -579924.5, -12816.822, 0.00033248946, 0.011591372, -316119.4, 124942.04, 0.00000011463164, 10.001678, 9.998206 
1.485028e+3, 2.649928e+2, -210009.83, -481364.84, 24881.879, -0.0032161013, 0.084284075, -207747.16, 135326.28, 0.000005857849, 10.0017605, 9.998162 
1.4850289e+3, 2.7499172e+2, -129264.37, -376955.88, -16429.838, -0.10943249, 0.11296145, -128179.3, 116905.805, 0.000039275426, 10.001578, 9.998291 
1.485031e+3, 2.8498945e+2, -78487.83, -406611.8, -7411.772, -0.12004045, 0.109464094, -78320.49, 68786.945, 0.00017769585, 10.001693, 9.997367 
1.4850338e+3, 2.9498586e+2, 85554.95, -264780.72, -19767.287, -0.02365193, -0.03746889, 86666.766, 135807.8, 0.000630339, 10.002083, 9.997482 
1.4850363e+3, 3.0498305e+2, 274006.16, -43633.83, -42418.227, 0.06484341, -0.09989537, 279573.22, 279573.22, 0.001603161, 10.002609, 9.998413 
1.4850359e+3, 3.1498343e+2, 422791.53, 151478.56, -132520.72, -0.06425554, 0.032992482, 476777.94, 476777.94, 0.0030493059, 10.003041, 9.99954 
1.494994e+3, 1.2500213e+2, -1966356.4, -1727401.4, 60295.953, 0.12238588, 0.1910675, -1713048.9, 1932.9313, 0.014485426, 9.997715, 10.000989 
1.4949985e+3, 1.3500059e+2, -1611136.1, -1578447.3, 118097.484, 0.18297127, -0.02433758, -1475568.5, 141420.56, 0.008627366, 9.999867, 10.000309 
1.4950004e+3, 1.4499937e+2, -1554128.0, -1712581.3, 47130.508, 0.058275215, -0.073972955, -1541169.3, -22168.51, 0.0037456865, 10.000464, 9.998422 
1.4950024e+3, 1.5499935e+2, -1489574.3, -1616690.3, 25632.563, -0.056886528, 0.030554038, -1484600.3, -63592.01, 0.0009542572, 10.000201, 9.998527 
1.4950044e+3, 1.6499947e+2, -1307551.3, -1259529.6, -35664.05, -0.105545975, 0.10131326, -1240546.9, 82461.914, 0.00008722728, 9.999843, 10.000472 
1.4950068e+3, 1.7499916e+2, -1285449.5, -1186479.8, 21004.531, -0.06334753, -0.018382467, -1182206.4, 42801.965, 0.0000004647829, 9.999285, 10.000568 
1.4950098e+3, 1.8499908e+2, -1234064.4, -1275849.1, 62116.73, -0.029236296, -0.0032187172, -1189420.6, -62412.086, 0.0, 9.999641, 9.9991255 
1.4950132e+3, 1.9499916e+2, -954423.2, -1074293.3, 62132.47, 0.0051652477, 0.045390982, -928029.5, 100980.58, 0.0, 10.000833, 9.999253 
1.4950159e+3, 2.0499861e+2, -830598.5, -1015152.0, -24839.115, 0.037076183, 0.09678216, -827313.9, 103702.3, 0.0, 10.001232, 9.998792 
1.495018e+3, 2.1499725e+2, -795156.44, -930393.1, -12604.031, 0.07984946, 0.034692373, -793991.75, 39037.332, 0.0, 10.000745, 9.998929 
1.4950201e+3, 2.2499621e+2, -750118.56, -909206.6, 39298.117, 0.038585726, 0.06686896, -740940.56, -5899.844, 0.0, 10.000567, 9.998507 
1.4950225e+3, 2.3499538e+2, -615290.3, -777288.9, 49106.36, -0.09031956, 0.08693428, -601567.25, 35485.098, 0.0, 10.000757, 9.998645 
1.4950247e+3, 2.4499436e+2, -473307.2, -654973.7, -18796.563, -0.14797117, 0.12752329, -471382.72, 67679.71, 0.0, 10.00104, 9.998677 
1.4950268e+3, 2.5499284e+2, -306025.5, -509418.03, 21050.625, -0.12492151, 0.06163386, -303869.66, 137204.3, 0.00000015644366, 10.001465, 9.9987955 
1.4950293e+3, 2.6499125e+2, -285375.84, -581840.5, 3041.304, -0.077150255, 0.09203692, -285344.63, 57744.605, 0.000006865855, 10.001523, 9.997583 
1.4950319e+3, 2.7498943e+2, -205430.25, -478699.97, -4915.8027, -0.0073760124, 0.1063148, -205341.84, 39767.97, 0.00004412461, 10.001345, 9.997702 
1.4950338e+3, 2.8498724e+2, -95032.58, -391619.5, -8263.021, -0.03083851, 0.13150302, -94802.55, 52329.363, 0.00019465707, 10.001475, 9.997576 
1.4950353e+3, 2.9498446e+2, 68398.64, -247270.48, 23525.982, -0.12848918, 0.036637858, 70142.336, 119299.9, 0.0006807663, 10.00185, 9.997716 
1.495038e+3, 3.0498117e+2, 183093.27, -166151.4, -37409.688, -0.06588485, -0.051062092, 187055.5, 187055.5, 0.0017048066, 10.002335, 9.997699 
1.4950404e+3, 3.1497997e+2, 346056.0, 84589.766, -72498.66, 0.0032066128, -0.0074214293, 364812.7, 364812.7, 0.0032039285, 10.002647, 9.999268 
1.5049927e+3, 1.2499887e+2, -1702833.3, -1608916.8, -38393.344, 0.1380694, 0.1894081, -1595219.3, 119795.58, 0.015336173, 9.999562, 10.000925 
1.504998e+3, 1.3499708e+2, -1718891.9, -1636471.0, -46350.742, 0.20691961, -0.051632114, -1615659.8, 1366.1588, 0.0091627855, 9.999128, 10.000275 
1.5050003e+3, 1.4499648e+2, -1763509.5, -1767419.6, -50300.074, 0.07358303, -0.05879959, -1715126.5, -196094.63, 0.0040015904, 9.998859, 9.99881 
1.5050024e+3, 1.5499704e+2, -1623196.6, -1631530.4, 8179.5684, -0.006386032, 0.06382882, -1618183.8, -197150.95, 0.001031135, 9.999088, 9.998955 
1.5050045e+3, 1.649972e+2, -1368288.3, -1301680.3, 6898.706, -0.060539108, 0.123811714, -1300973.3, 22058.975, 0.000096309515, 9.99946, 10.000379 
1.5050067e+3, 1.749965e+2, -1132615.1, -1119721.3, -56958.234, -0.046765916, -0.030374328, -1068846.3, 156189.3, 0.000000575819, 10.000343, 10.000523 
1.5050098e+3, 1.849963e+2, -1132318.3, -1229557.6, -5655.2886, -0.013136318, -0.02156471, -1131990.5, -4953.4907, 0.0, 10.000366, 9.99908 
1.5050136e+3, 1.9499657e+2, -1106924.4, -1147737.5, -5805.9077, 0.010158717, 0.04880251, -1106114.5, -77077.125, 0.0, 9.999795, 9.999235 
1.5050165e+3, 2.0499629e+2, -1005911.9, -1065182.3, -32035.404, 0.05466795, 0.11017751, -991906.4, -60865.254, 0.0, 9.999887, 9.999097 
1.5050192e+3, 2.1499527e+2, -770998.06, -887282.0, -24332.152, 0.12183616, 0.05510159, -766111.94, 66938.336, 0.0, 10.00077, 9.99922 
1.5050215e+3, 2.2499444e+2, -679894.56, -855532.3, 75614.164, 0.10351284, 0.0864145, -651827.06, 83232.19, 0.0, 10.00099, 9.998658 
1.5050238e+3, 2.3499367e+2, -628702.75, -764963.94, 76173.164, -0.012943864, 0.098080635, -594636.8, 42432.383, 0.0, 10.000599, 9.9987955 
1.5050262e+3, 2.449926e+2, -495649.72, -645271.1, 62995.37, -0.076317646, 0.11814038, -472659.3, 66419.43, 0.0, 10.000809, 9.998848 
1.5050286e+3, 2.5499105e+2, -263636.78, -466910.97, 32280.707, -0.09239277, 0.02987442, -258633.64, 182456.05, 0.00000020302433, 10.001668, 9.9989805 
1.5050313e+3, 2.649892e+2, -216378.61, -581250.06, 18523.955, -0.055067066, 0.041029952, -215440.58, 127666.445, 0.0000077496, 10.00213, 9.9973 
1.5050341e+3, 2.7498695e+2, -92353.25, -457654.22, 5245.0483, 0.036981672, 0.037798643, -92277.95, 152854.52, 0.000048509926, 10.002239, 9.997429 
1.5050362e+3, 2.8498486e+2, 26752.998, -313762.25, 55082.145, 0.029013362, 0.08149566, 35441.457, 182595.5, 0.00020995413, 10.002241, 9.997738 
1.5050378e+3, 2.9498288e+2, 139091.52, -184924.23, 28941.502, -0.066493444, 0.050133545, 141656.3, 190829.02, 0.00072207046, 10.0022545, 9.997925 
1.5050405e+3, 3.0498e+2, 180523.69, -219778.77, 22472.05, -0.028630564, 0.01708432, 181781.27, 181781.27, 0.0017705777, 10.002529, 9.997253 
1.5050435e+3, 3.149778e+2, 332593.53, 54874.61, -47893.97, 0.0752816, 0.016169317, 340621.06, 340621.06, 0.0032754042, 10.002637, 9.999096 
1.5149936e+3, 1.24990776e+2, -1700778.4, -1638770.6, -24463.879, 0.18465959, -0.06639956, -1630281.3, 84812.53, 0.016257107, 9.999707, 10.000652 
1.514995e+3, 1.3499227e+2, -1732334.9, -1634903.1, -36352.008, -0.03547008, 0.004814877, -1622835.0, -5754.8584, 0.009740974, 9.999028, 10.000325 
1.5149981e+3, 1.4499383e+2, -1616730.8, -1495780.1, -64741.094, -0.09145365, 0.12290908, -1467662.8, 51401.344, 0.0042781597, 9.998975, 10.000627 
1.5150014e+3, 1.5499297e+2, -1490825.9, -1362097.1, 29260.225, -0.051985193, -0.079955846, -1355758.4, 65311.03, 0.0011151112, 9.999102, 10.0008 
1.5150043e+3, 1.649932e+2, -1439177.3, -1467368.9, 17274.81, -0.06754572, -0.0507125, -1430977.1, -107909.04, 0.000106548556, 9.999532, 9.9992075 
1.5150078e+3, 1.7499411e+2, -1221899.3, -1297246.8, -10701.616, -0.02014942, 0.07272512, -1220408.8, 4654.797, 0.0000007145684, 10.000304, 9.999325 
1.5150107e+3, 1.8499401e+2, -1104525.0, -1171590.0, -43388.87, 0.0045530857, 0.12966317, -1083221.1, 43845.29, 0.0, 10.000363, 9.99948 
1.5150131e+3, 1.9499268e+2, -1098087.1, -1101691.3, -14353.251, -0.030671544, 0.0028632535, -1085423.3, -56344.266, 0.0, 9.9996805, 9.999606 
1.5150158e+3, 2.0499228e+2, -980205.44, -978978.7, -17443.605, -0.03709264, 0.0013361388, -962137.7, -31056.174, 0.0, 9.999741, 9.9997635 
1.515019e+3, 2.1499266e+2, -756353.0, -803748.2, 23347.934, 0.0078624645, 0.01902507, -746783.5, 86292.12, 0.0, 10.000539, 9.999906 
1.5150219e+3, 2.249925e+2, -682821.94, -804760.25, 45043.094, 0.021603245, 0.057628967, -667987.94, 67088.02, 0.0, 10.000742, 9.999129 
1.5150249e+3, 2.3499157e+2, -629328.06, -715994.8, 77822.95, 0.010462429, 0.009388208, -583587.3, 53497.055, 0.0, 10.000384, 9.999237 
1.5150279e+3, 2.4499026e+2, -548791.3, -708457.94, 78452.53, -0.0155250095, 0.0001338391, -516695.4, 22399.82, 0.0, 10.000595, 9.998524 
1.515031e+3, 2.5498846e+2, -316785.38, -528052.75, 80707.22, -0.042338878, -0.08214751, -289482.47, 151627.44, 0.00000026346208, 10.001449, 9.998672 
1.5150334e+3, 2.649865e+2, -245085.3, -582962.1, 8393.751, -0.077249356, -0.074881375, -244876.89, 98251.88, 0.000008336701, 10.001887, 9.997406 
1.515035e+3, 2.749842e+2, -122889.12, -460332.3, 31410.701, -0.115501225, -0.08779175, -119990.18, 125162.83, 0.00005112129, 10.001994, 9.997526 
1.5150374e+3, 2.849824e+2, -12466.058, -342278.38, 38128.305, -0.09723155, -0.015414545, -8115.5806, 139056.66, 0.00022272031, 10.002005, 9.997656 
1.515041e+3, 2.9498094e+2, 95865.19, -219381.14, 52195.914, -0.004848306, 0.007102076, 104282.61, 153470.45, 0.0007570027, 10.002013, 9.997802 
1.5150438e+3, 3.0497926e+2, 128817.66, -255368.02, 14864.785, 0.017455917, 0.10331299, 129391.94, 129391.94, 0.0018115009, 10.002243, 9.997136 
1.5150449e+3, 3.149769e+2, 278826.9, 50746.75, 20363.55, -0.123594746, 0.089153156, 280630.75, 280630.75, 0.0032857955, 10.0022135, 9.999252 
1.5249926e+3, 1.2498674e+2, -1866251.4, -1735270.6, 139020.08, 0.18290706, -0.122644044, -1647087.4, 68044.04, 0.017244658, 9.998678, 10.000471 
1.5249935e+3, 1.3498905e+2, -1786405.1, -1654256.4, 80622.06, -0.058327455, 0.023015644, -1616091.9, 1022.25195, 0.010359608, 9.998646, 10.000364 
1.5249975e+3, 1.4499114e+2, -1652131.0, -1445433.4, 71109.55, -0.0051329094, 0.1668101, -1423332.9, 95760.36, 0.0045741852, 9.998457, 10.001214 
1.5250008e+3, 1.549906e+2, -1477339.8, -1279798.1, 33283.77, -0.006864969, -0.07404748, -1274340.9, 146751.23, 0.0012060112, 9.998856, 10.001486 
1.5250039e+3, 1.6499077e+2, -1561841.1, -1567236.6, 49997.152, -0.016420532, -0.06301564, -1514469.0, -191378.08, 0.000118081814, 9.998905, 9.998813 
1.5250078e+3, 1.7499158e+2, -1421639.6, -1430112.9, 46195.332, 0.035794664, 0.0903343, -1379487.0, -154396.5, 0.0000008766353, 9.999125, 9.998971 
1.5250109e+3, 1.8499163e+2, -1252234.3, -1200904.6, 40569.336, 0.062284265, 0.15954581, -1178563.8, -51471.082, 0.0, 9.999158, 9.999875 
1.5250131e+3, 1.9499068e+2, -1135268.3, -1079576.4, 38466.824, 0.021369688, 0.035909705, -1059934.5, -30835.373, 0.0, 9.999231, 9.999994 
1.525016e+3, 2.0499024e+2, -996793.06, -998763.4, 81577.85, 0.0068138707, 0.016457632, -916194.4, 14906.878, 0.0, 9.999657, 9.999671 
1.5250196e+3, 2.1499018e+2, -768044.5, -819161.8, 34028.355, 0.021019211, -0.0039724763, -751045.25, 82054.99, 0.0, 10.000481, 9.99983 
1.5250228e+3, 2.249899e+2, -646142.56, -774010.1, 11134.947, 0.035269484, 0.021052303, -645180.1, 89921.28, 0.0, 10.000923, 9.999261 
1.5250258e+3, 2.3498923e+2, -528125.0, -650210.06, -9429.167, 0.04360522, -0.015206395, -527401.0, 109705.266, 0.0, 10.000996, 9.999396 
1.5250292e+3, 2.4498808e+2, -478212.44, -679736.6, 46769.426, 0.03450142, -0.014786077, -467887.28, 71228.27, 0.0, 10.00113, 9.998446 
1.525033e+3, 2.5498632e+2, -326589.13, -536858.3, 34423.156, 0.01076985, -0.08263756, -321097.16, 120033.48, 0.0000003530132, 10.001419, 9.9986105 
1.5250355e+3, 2.6498434e+2, -244529.34, -562384.75, -7167.6304, -0.034083925, -0.08270061, -244367.8, 98781.33, 0.000008619123, 10.001785, 9.997601 
1.525037e+3, 2.749821e+2, -78674.586, -409430.6, -14192.137, -0.10833335, -0.119578466, -78066.74, 167105.39, 0.000051931653, 10.002176, 9.997779 
1.5250398e+3, 2.8498024e+2, 30980.496, -318919.6, 23835.172, -0.06647991, -0.06849762, 32596.682, 179787.42, 0.00023518385, 10.002291, 9.997688 
1.525044e+3, 2.9497865e+2, 112844.15, -217178.47, 8845.631, 0.10126608, -0.052889477, 113081.06, 162287.89, 0.000791527, 10.002125, 9.997792 
1.5250471e+3, 3.049774e+2, 169583.11, -258485.02, 37023.063, 0.12047372, 0.100223206, 172761.58, 172761.58, 0.001847163, 10.002602, 9.996954 
1.5250479e+3, 3.1497458e+2, 432136.06, 69516.36, -33125.86, -0.08268861, 0.061844908, 435137.3, 435137.3, 0.0032816848, 10.003482, 9.998783 
1.5349895e+3, 1.2498669e+2, -1865313.8, -1765191.4, -25189.97, -0.0739303, -0.0015674969, -1759211.0, -44082.445, 0.018294634, 9.998791, 10.000212 
1.534993e+3, 1.3498777e+2, -1788514.5, -1658048.3, 89486.63, 0.0015548136, 0.025463535, -1612542.0, 4582.4824, 0.011016667, 9.998646, 10.000338 
1.5349981e+3, 1.4498876e+2, -1672685.3, -1523853.4, 59561.387, 0.15720853, 0.09427754, -1502952.5, 16163.686, 0.0048880493, 9.998601, 10.000613 
1.535e+3, 1.549901e+2, -1523369.4, -1356890.1, 58906.418, -0.0031036986, 0.09817162, -1338155.1, 82943.586, 0.0013030368, 9.998788, 10.00099 
1.535003e+3, 1.6499022e+2, -1528903.4, -1516674.3, 36348.457, -0.04424099, 0.10906345, -1485929.6, -162831.19, 0.00013086536, 9.998968, 9.999135 
1.5350068e+3, 1.7498896e+2, -1406690.9, -1390003.8, 65936.664, -0.00059608463, 0.025530808, -1331884.9, -106768.64, 0.0000010420176, 9.999085, 9.999265 
1.5350102e+3, 1.8498915e+2, -1225646.0, -1150541.9, 22786.85, 0.018099392, 0.080739275, -1144169.0, -17053.824, 0.0, 9.999172, 10.000216 
1.5350129e+3, 1.9499058e+2, -1118400.8, -1026694.56, 52318.39, 0.038491797, 0.15368801, -1002979.56, 26117.975, 0.0, 9.99915, 10.000397 
1.5350163e+3, 2.0499018e+2, -1078989.8, -1128010.4, 95700.6, 0.04604634, 0.15711802, -1004710.56, -73610.43, 0.0, 9.999482, 9.998866 
1.5350203e+3, 2.1498778e+2, -864969.06, -960704.7, 78811.71, 0.035786916, -0.013103912, -820627.25, 12497.299, 0.0, 10.000233, 9.998975 
1.5350237e+3, 2.2498667e+2, -694944.5, -816254.5, -1351.6199, 0.0029019262, -0.018068152, -694929.44, 40206.145, 0.0, 10.000665, 9.999096 
1.5350263e+3, 2.3498666e+2, -570112.7, -685118.6, 10809.034, -0.036594544, 0.022935655, -569105.6, 68029.39, 0.0, 10.000767, 9.9992695 
1.5350296e+3, 2.44986e+2, -510950.3, -681540.25, 42857.355, -0.06585877, 0.07053348, -500788.56, 38351.79, 0.0, 10.000855, 9.99856 
1.5350339e+3, 2.5498456e+2, -356260.22, -544071.1, 62472.824, -0.06321932, 0.024133978, -337377.88, 103774.79, 0.0000004707298, 10.001198, 9.998662 
1.5350372e+3, 2.649828e+2, -251439.55, -529059.6, -10842.472, -0.072526604, 0.02473682, -251016.73, 92151.85, 0.0000086272985, 10.001575, 9.997932 
1.5350397e+3, 2.7498043e+2, -83803.266, -375736.66, 14468.411, -0.095163174, -0.05071428, -83087.95, 162102.3, 0.000052741245, 10.001986, 9.998103 
1.5350427e+3, 2.849781e+2, 4944.907, -324095.06, 1774.9993, -0.037390325, -0.071101345, 4954.4824, 152165.69, 0.00024875673, 10.00207, 9.997766 
1.5350465e+3, 2.9497576e+2, 83767.83, -224046.42, 29374.79, 0.1015452, -0.1407988, 86546.0, 135776.97, 0.00082812813, 10.001892, 9.997856 
1.53505e+3, 3.049744e+2, 103723.2, -334673.56, 56060.535, 0.12248409, 0.016387993, 110778.47, 110778.47, 0.0018929114, 10.002351, 9.996547 
1.5350518e+3, 3.1497082e+2, 287060.22, -114184.8, 55262.406, -0.095684424, -0.064189225, 294532.22, 294532.22, 0.0033080075, 10.0029955, 9.997745 
1.5449885e+3, 1.249852e+2, -1944937.8, -1777512.4, -73795.76, -0.011355462, 0.033276647, -1749629.3, -34485.965, 0.019406972, 9.998141, 10.000429 
1.5449928e+3, 1.3498566e+2, -1729108.6, -1656247.6, 11007.632, 0.09402392, 0.013460836, -1654621.0, -37477.043, 0.0117135905, 9.999137, 10.000117 
1.544997e+3, 1.4498639e+2, -1670832.8, -1576354.3, 30839.547, 0.18271925, 0.09423096, -1567178.8, -48040.05, 0.0052204016, 9.998859, 10.000127 
1.5449996e+3, 1.5498772e+2, -1440299.6, -1364922.3, 12871.464, 0.05616046, 0.13817166, -1362784.9, 58339.492, 0.0014059248, 9.999548, 10.000577 
1.545003e+3, 1.6498767e+2, -1382742.1, -1409699.8, 15456.24, 0.030582456, 0.13798802, -1375713.0, -52587.684, 0.00014487762, 9.999818, 9.999454 
1.5450065e+3, 1.7498627e+2, -1280494.8, -1296911.0, 12083.451, 0.018774124, 0.0056889597, -1274095.3, -48953.71, 0.000001197513, 9.999792, 9.999567 
1.5450096e+3, 1.8498634e+2, -1131192.1, -1091314.0, 119.63053, 0.027301302, 0.03162311, -1091313.6, 35826.484, 0.0, 9.999788, 10.000313 
1.5450129e+3, 1.9498788e+2, -970302.0, -939031.5, -20435.89, 0.0778376, 0.10485052, -928935.7, 100185.89, 0.0, 10.000123, 10.000522 
1.5450168e+3, 2.049878e+2, -947957.9, -1064019.6, 82770.586, 0.10823706, 0.13176908, -904901.9, 26219.893, 0.0, 10.000388, 9.998869 
1.5450214e+3, 2.1498592e+2, -801530.0, -930821.06, 95450.7, 0.09972878, 0.014269255, -750893.8, 82248.23, 0.0, 10.000672, 9.998973 
1.545025e+3, 2.2498475e+2, -708775.75, -863174.7, 51748.246, 0.06341614, 0.024557473, -693036.3, 42118.25, 0.0, 10.000771, 9.998708 
1.5450273e+3, 2.3498419e+2, -594104.1, -734104.75, 5018.6963, -0.0031808682, 0.04937419, -593924.44, 43236.33, 0.0, 10.000797, 9.998901 
1.5450306e+3, 2.4498335e+2, -463956.56, -653520.3, 70378.016, -0.045728028, 0.09469947, -440684.75, 98483.83, 0.000000000009610117, 10.001127, 9.998642 
1.5450352e+3, 2.5498214e+2, -270367.4, -496446.88, 64265.035, -0.055743426, 0.06440106, -253376.45, 187802.39, 0.0000005675007, 10.001731, 9.998757 
1.5450391e+3, 2.6498067e+2, -206885.72, -473120.38, 3297.1143, -0.03836833, 0.07857099, -206844.89, 136346.33, 0.000008574752, 10.001751, 9.998232 
1.545042e+3, 2.7497864e+2, -170645.5, -394486.13, -10402.456, -0.015764397, 0.011549866, -170163.13, 75045.84, 0.00005426492, 10.001272, 9.998332 
1.5450454e+3, 2.849761e+2, -31409.104, -360024.16, 26361.475, 0.044012964, -0.029729981, -29307.824, 117923.41, 0.00026286932, 10.001934, 9.997553 
1.5450495e+3, 2.9497316e+2, 339709.6, -123746.2, -12805.15, 0.12670459, -0.13696836, 340063.13, 389319.97, 0.0008685198, 10.003778, 9.997614 
1.5450533e+3, 3.0497134e+2, 356127.2, -189751.39, 17893.984, 0.15495549, -0.02294117, 356713.13, 356713.13, 0.0019599411, 10.003975, 9.99677 
1.5450554e+3, 3.149681e+2, 162077.25, -225527.61, -12821.096, 0.023249043, -0.08514503, 162500.89, 162500.89, 0.003393183, 10.002338, 9.997299 
1.5549864e+3, 1.249824e+2, -1858813.0, -1625843.9, -51570.684, -0.112611525, 0.006222667, -1614938.5, 100235.97, 0.020587768, 9.998271, 10.001416 
1.5549919e+3, 1.3498265e+2, -1763206.5, -1704855.4, 13026.74, 0.06011609, 0.0019474248, -1702079.3, -84906.375, 0.012455585, 9.99906, 9.999823 
1.5549937e+3, 1.4498398e+2, -1676394.0, -1605734.4, 21717.43, -0.08942371, 0.16875891, -1599593.3, -80431.89, 0.0055746003, 9.998922, 9.9999 
1.5549992e+3, 1.5498354e+2, -1464176.1, -1408036.9, 54886.72, 0.03171147, 0.05983176, -1374458.8, 46708.742, 0.001515748, 9.999532, 10.000285 
1.5550037e+3, 1.6498339e+2, -1341318.1, -1345993.0, -1876.3995, 0.061619002, 0.04758276, -1340658.1, -17489.188, 0.00016035176, 9.999904, 9.999855 
1.555006e+3, 1.7498358e+2, -1258653.1, -1240509.3, 21365.672, -0.022997105, 0.038484402, -1226369.3, -1203.7175, 0.0000013687348, 9.999744, 9.999979 
1.555009e+3, 1.849834e+2, -1147327.8, -1114651.0, -5037.0894, -0.04531529, 0.020420209, -1113892.1, 13273.605, 0.0, 9.999748, 10.00017 
1.5550125e+3, 1.9498265e+2, -1006140.7, -977600.9, 7538.6836, 0.0099612335, -0.11684072, -975732.0, 53439.063, 0.0, 9.999979, 10.000321 
1.555017e+3, 2.0498306e+2, -910319.5, -961879.3, 76392.68, 0.05195323, -0.064628266, -855474.06, 75692.43, 0.0, 10.000267, 9.999639 
1.5550222e+3, 2.149846e+2, -772131.25, -828716.2, 120885.95, 0.091915354, 0.08013396, -676271.06, 156881.42, 0.0, 10.000481, 9.999776 
1.555026e+3, 2.2498421e+2, -791837.7, -983331.8, 36724.332, 0.07143648, 0.16163471, -785036.3, -49878.48, 0.0, 10.00054, 9.997995 
1.5550284e+3, 2.3498169e+2, -675786.0, -864110.25, 20643.027, 0.009193182, 0.06368269, -673549.8, -36364.8, 0.0, 10.000616, 9.998102 
1.555032e+3, 2.4498e+2, -490179.0, -650408.5, 79883.12, -0.056467876, 0.059587326, -457158.06, 82043.56, 0.0, 10.000881, 9.99878 
1.5550369e+3, 2.5497907e+2, -290071.7, -485611.94, 102460.79, -0.10036196, 0.040870283, -246218.31, 194990.31, 0.0000005355393, 10.001512, 9.998935 
1.5550408e+3, 2.6497802e+2, -229026.27, -467707.13, -26360.158, -0.07833822, 0.07681193, -226149.7, 117067.34, 0.000008556659, 10.00153, 9.998373 
1.5550438e+3, 2.7497664e+2, -194923.52, -392422.06, -5917.1807, 0.009736016, 0.056944884, -194746.4, 50482.063, 0.000056489618, 10.001052, 9.998447 
1.5550476e+3, 2.8497425e+2, -113720.69, -475056.78, 82054.35, 0.04182005, 0.057286993, -95960.26, 51290.965, 0.00027893353, 10.001697, 9.996876 
1.5550525e+3, 2.949707e+2, 257749.05, -228165.95, 77761.055, 0.02223788, -0.048271652, 269889.8, 319175.72, 0.0009153457, 10.003507, 9.997022 
1.5550566e+3, 3.0496824e+2, 360954.4, -112497.14, -59435.715, 0.053985555, -0.0054105734, 368301.78, 368301.78, 0.0020537302, 10.003701, 9.997424 
1.555058e+3, 3.14966e+2, 92206.164, -245626.31, -36939.88, -0.0010025075, -0.037293103, 96198.14, 96198.14, 0.003546435, 10.001837, 9.997386 
1.5649849e+3, 1.24979675e+2, -1836554.8, -1561665.8, -5046.888, -0.08232506, 0.04210643, -1561573.1, 153629.86, 0.021849003, 9.998183, 10.001926 
1.5649907e+3, 1.3497901e+2, -1902789.4, -1764244.5, -27719.572, 0.10374207, -0.05248302, -1758904.3, -141698.31, 0.013250772, 9.998049, 9.999924 
1.5649924e+3, 1.449801e+2, -1762117.6, -1651704.4, 74447.66, -0.05680648, 0.08203397, -1614227.5, -95032.195, 0.0059556314, 9.998362, 9.999851 
1.564999e+3, 1.5497968e+2, -1523331.3, -1455726.8, 81646.56, 0.09300022, -0.012144487, -1401161.9, 20041.639, 0.0016345053, 9.999207, 10.00011 
1.5650037e+3, 1.6497986e+2, -1364716.0, -1310182.5, 39300.08, 0.101250954, -0.0038960576, -1289616.5, 33585.18, 0.00017771397, 9.99954, 10.000282 
1.5650062e+3, 1.749808e+2, -1211775.1, -1167648.3, 40292.813, 0.013705332, 0.019419275, -1143773.6, 81415.016, 0.0000016137079, 9.999841, 10.00044 
1.5650092e+3, 1.8498076e+2, -1166336.0, -1180739.6, 32617.486, 0.010707982, 0.0164698, -1140134.8, -12946.939, 0.0, 9.999848, 9.999672 
1.5650128e+3, 1.949795e+2, -1075654.5, -1070994.4, -8055.554, 0.06146298, -0.1246792, -1064938.6, -35737.168, 0.0, 9.99973, 9.999808 
1.5650173e+3, 2.049797e+2, -972938.3, -977518.5, 66649.64, 0.09015244, -0.07165697, -908539.44, 22660.607, 0.0, 9.999821, 9.99972 
1.5650228e+3, 2.149814e+2, -768649.6, -806704.5, 24665.21, 0.09938963, 0.079475954, -756525.56, 76657.586, 0.0, 10.000465, 9.999906 
1.565027e+3, 2.2498092e+2, -690048.8, -936018.06, -26693.027, 0.08903088, 0.14363997, -687185.4, 48003.03, 0.0, 10.001221, 9.998005 
1.5650302e+3, 2.3497811e+2, -460755.94, -753137.75, -8385.86, 0.062108617, 0.012762123, -460515.63, 176701.69, 0.0, 10.002048, 9.998176 
1.5650341e+3, 2.4497631e+2, -347145.44, -596224.1, 74094.51, 0.019849082, 0.001007109, -326770.84, 212464.05, 0.0, 10.001911, 9.998661 
1.5650384e+3, 2.5497547e+2, -399965.47, -548967.2, 45916.09, -0.042558596, 0.0017231819, -386952.53, 54290.004, 0.00000039469393, 10.000798, 9.998839 
1.5650424e+3, 2.6497445e+2, -286547.28, -491597.75, -41033.168, -0.0366043, 0.0462344, -278640.88, 64610.2, 0.000008163994, 10.001119, 9.998405 
1.5650457e+3, 2.7497312e+2, 66372.32, -262323.22, -66298.12, 0.033364568, 0.026783507, 79240.89, 324503.4, 0.000058543963, 10.002829, 9.998482 
1.5650499e+3, 2.849711e+2, 68824.96, -374649.4, 65001.73, 0.05391911, 0.06031065, 78156.17, 225438.73, 0.00029613846, 10.002881, 9.997022 
1.565055e+3, 2.9496837e+2, -42863.66, -356783.6, 78206.195, 0.02784643, 0.027604984, -24459.322, 24852.36, 0.00096601865, 10.001344, 9.997204 
1.5650593e+3, 3.0496562e+2, 126248.414, -130857.39, 20216.87, 0.07409204, -0.010625281, 127828.41, 127828.41, 0.0021659639, 10.001662, 9.998275 
1.5650617e+3, 3.1496435e+2, 412861.6, -26316.184, -12945.373, 0.09116593, -0.02287851, 413242.84, 413242.84, 0.0037513892, 10.003704, 9.998014 
1.5749833e+3, 1.2497649e+2, -1814686.0, -1540683.5, -11370.131, -0.13182895, 0.10977709, -1540212.5, 175021.52, 0.023204513, 9.998263, 10.002047 
1.5749885e+3, 1.3497518e+2, -1856188.4, -1667859.8, -17697.604, 0.04741949, -0.10099429, -1666211.1, -48972.734, 0.014108494, 9.998052, 10.000579 
1.5749933e+3, 1.4497513e+2, -1729125.4, -1615875.8, 87895.04, 0.1450776, -0.13827743, -1567944.9, -48707.67, 0.0063687824, 9.998497, 10.000033 
1.5749991e+3, 1.5497613e+2, -1538981.3, -1477139.6, 121868.99, 0.12601785, -0.072363816, -1382330.0, 38902.164, 0.00176415, 9.999168, 9.999979 
1.5750025e+3, 1.6497706e+2, -1321211.1, -1231454.8, 29482.523, 0.002410358, -0.009506992, -1222636.9, 100586.46, 0.00019721544, 9.999581, 10.000805 
1.5750062e+3, 1.7497797e+2, -1178475.6, -1092341.9, 66377.16, -0.0029865047, -0.04880896, -1056284.3, 168925.86, 0.0000019795527, 9.999813, 10.000969 
1.5750098e+3, 1.8497857e+2, -1216398.6, -1289935.5, 11531.628, 0.05187532, 0.024292663, -1214632.8, -87427.48, 0.0, 9.999865, 9.998917 
1.5750133e+3, 1.949787e+2, -1152264.9, -1197286.5, -859.4663, 0.106396824, 0.10273303, -1152248.5, -123037.984, 0.0, 9.999595, 9.999007 
1.5750173e+3, 2.0497794e+2, -1038947.7, -1085721.1, 72926.37, 0.074000336, 0.13352689, -985749.9, -54529.76, 0.0, 9.999683, 9.999046 
1.5750223e+3, 2.1497622e+2, -847874.8, -928211.25, 60507.426, -0.0075672837, 0.012018364, -815416.3, 17818.89, 0.0, 10.000275, 9.999167 
1.5750274e+3, 2.2497477e+2, -658295.1, -819250.1, -7798.063, -0.022797415, -0.03069946, -657918.2, 77329.195, 0.0, 10.001003, 9.998909 
1.5750322e+3, 2.3497342e+2, -432868.34, -639716.56, 35768.73, 0.03264181, -0.104084894, -426857.78, 210400.13, 0.0, 10.001812, 9.999067 
1.5750363e+3, 2.449723e+2, -414856.75, -674276.7, 16354.7705, 0.040450666, -0.07473941, -413829.75, 125438.78, 0.0, 10.001639, 9.998254 
1.5750399e+3, 2.549713e+2, -462624.63, -630601.75, 18489.295, 0.0036021906, -0.052653346, -460613.6, -19332.857, 0.00000029448665, 10.0005865, 9.998378 
1.5750438e+3, 2.6497e+2, -331746.03, -536455.06, 8750.186, -0.03524843, -0.0018909789, -331372.7, 11920.936, 0.000007127328, 10.000904, 9.998204 
1.5750477e+3, 2.749681e+2, 28122.643, -295614.38, 17067.156, -0.08341852, -0.06370492, 29019.922, 274330.72, 0.000059012113, 10.002632, 9.998348 
1.5750517e+3, 2.8496674e+2, 102138.54, -265286.2, -8801.964, -0.07912205, -0.0019655698, 102349.28, 249674.31, 0.00030982727, 10.002701, 9.997859 
1.5750563e+3, 2.9496625e+2, -26983.555, -259300.28, 47694.64, -0.0092723025, 0.101265535, -17573.035, 31760.27, 0.0010139557, 10.00107, 9.998002 
1.5750611e+3, 3.0496353e+2, 153746.45, -1892.7222, 85167.93, 0.056304, -0.020684417, 191293.52, 191293.52, 0.002281504, 10.001378, 9.999281 
1.5750653e+3, 3.1496295e+2, 414666.0, 118463.07, 111148.01, 0.014288768, -0.07756145, 451734.53, 451734.53, 0.003972573, 10.003144, 9.999252 
1.5849823e+3, 1.24972194e+2, -1963380.3, -1600071.3, 51619.473, 0.005185132, 0.07198884, -1592879.5, 122394.2, 0.024665277, 9.997214, 10.002111 
1.5849875e+3, 1.3497098e+2, -1677731.5, -1583768.8, -16814.787, 0.08350595, -0.1281166, -1580850.4, 36426.965, 0.0150364665, 9.999285, 10.000552 
1.5849932e+3, 1.4497103e+2, -1505439.1, -1492529.8, 16424.178, 0.2217719, -0.16495866, -1481337.5, 37937.668, 0.0068181083, 9.999964, 10.000176 
1.5849979e+3, 1.5497229e+2, -1657005.5, -1529774.0, 21206.264, 0.16030794, -0.07649456, -1526332.5, -105064.92, 0.0019058621, 9.998327, 10.00003 
1.5850012e+3, 1.6497317e+2, -1583866.5, -1357506.6, -11815.168, 0.008822657, -0.019679362, -1356891.6, -33632.234, 0.0002187055, 9.997778, 10.000807 
1.5850055e+3, 1.7497365e+2, -1323012.6, -1156933.5, -47289.215, 0.008224521, -0.1050813, -1144412.4, 80838.28, 0.000002466339, 9.998805, 10.00101 
1.58501e+3, 1.8497427e+2, -1256409.4, -1328676.0, -81366.77, 0.088211924, -0.022908831, -1203513.6, -76267.79, 0.0, 9.999683, 9.998735 
1.5850137e+3, 1.9497485e+2, -998432.2, -1140468.1, -78199.39, 0.14688975, 0.12122386, -963815.4, 65431.54, 0.0, 10.000727, 9.998846 
1.5850179e+3, 2.049738e+2, -875180.8, -1056119.8, 50897.246, 0.11191332, 0.14725327, -861846.4, 69413.5, 0.0, 10.000995, 9.998633 
1.585023e+3, 2.149709e+2, -825545.94, -964464.8, 35833.76, 0.020906247, -0.050412852, -816847.4, 16438.979, 0.0, 10.000592, 9.998781 
1.5850285e+3, 2.2496942e+2, -728360.3, -811359.06, 1265.0844, 0.019064367, -0.093757786, -728341.0, 6957.674, 0.0, 10.00037, 9.9992695 
1.585034e+3, 2.3496926e+2, -590070.4, -682345.2, -28097.775, 0.087708436, -0.0759593, -582187.94, 55109.78, 0.0, 10.000584, 9.999386 
1.5850382e+3, 2.4496855e+2, -520163.38, -695325.3, -52286.066, 0.0899513, -0.03176747, -505743.06, 33561.125, 0.0, 10.0008135, 9.998496 
1.5850408e+3, 2.5496724e+2, -369537.2, -562724.75, -38537.19, 0.016284898, -0.056179088, -362133.5, 79184.984, 0.00000023115544, 10.001134, 9.998582 
1.5850449e+3, 2.6496586e+2, -262105.55, -477792.44, 72445.51, -0.02541771, -0.037646536, -240031.48, 103300.57, 0.0000061293663, 10.001293, 9.998408 
1.5850501e+3, 2.7496397e+2, -123372.95, -339071.44, 70842.85, -0.04536181, -0.11354426, -102186.664, 143161.13, 0.000060026516, 10.001494, 9.99858 
1.5850542e+3, 2.849629e+2, -33228.508, -285741.78, 243.94716, -0.035150908, -0.05632556, -33228.273, 114130.59, 0.0003212461, 10.001586, 9.99824 
1.5850577e+3, 2.949627e+2, 60590.35, -172836.3, -20530.156, 0.012270157, 0.0386341, 62382.25, 111746.47, 0.001056996, 10.00147, 9.998394 
1.5850624e+3, 3.0496013e+2, 239242.56, 53248.46, 94491.484, 0.05224588, -0.09906487, 278824.13, 278824.13, 0.0023867078, 10.001869, 9.999456 
1.5850684e+3, 3.1496063e+2, 386073.8, 180596.89, -17459.166, 0.06949748, -0.048309803, 387546.75, 387546.75, 0.004167416, 10.002581, 9.999987 
1.5949818e+3, 1.2496774e+2, -1937811.4, -1611337.5, -17415.244, 0.1572368, -0.032525323, -1610411.1, 104901.42, 0.026239868, 9.997433, 10.001953 
1.5949877e+3, 1.3496648e+2, -1750538.5, -1732221.1, 106903.336, 0.14224409, -0.15164289, -1634084.9, -16762.791, 0.016040104, 9.999281, 9.999529 
1.5949914e+3, 1.4496768e+2, -1482447.5, -1486145.1, -57700.313, -0.01013239, -0.010622075, -1426566.4, 92744.195, 0.0073062, 10.000121, 10.000155 
1.5949956e+3, 1.5496829e+2, -1634662.8, -1495825.6, -30703.91, 0.059160378, -0.011381873, -1489338.5, -68030.484, 0.002060233, 9.998369, 10.000248 
1.5949991e+3, 1.6496849e+2, -1610068.3, -1431113.8, 4315.627, -0.017318858, -0.008669412, -1431009.8, -107703.086, 0.00024185247, 9.997857, 10.000264 
1.5950039e+3, 1.7496799e+2, -1370091.3, -1244957.1, 3274.9692, -0.061028037, -0.13377559, -1244871.5, -19562.758, 0.0000030340082, 9.998767, 10.000422 
1.595009e+3, 1.8496786e+2, -1225355.8, -1266770.9, -58747.574, -0.02188569, -0.11931092, -1183773.0, -56463.355, 0.0, 9.99969, 9.999157 
1.5950137e+3, 1.9496801e+2, -989469.25, -1089777.8, -24601.346, 0.05556124, -0.06340206, -983760.5, 45550.195, 0.0, 10.000597, 9.999252 
1.5950188e+3, 2.0496732e+2, -899727.8, -1076666.8, 21203.174, 0.06976818, -0.015583679, -897222.44, 34095.965, 0.0, 10.000863, 9.998553 
1.5950242e+3, 2.149656e+2, -866581.0, -990360.0, 32709.107, 0.060885213, -0.09162343, -858469.06, -25134.436, 0.0, 10.000348, 9.998716 
1.5950295e+3, 2.2496508e+2, -779695.7, -868096.6, -5875.9995, 0.07450446, -0.021395048, -779306.8, -43966.703, 0.0, 10.000142, 9.998994 
1.5950347e+3, 2.3496568e+2, -645553.94, -745118.1, -232.42451, 0.10195251, 0.09721375, -645553.4, -8217.429, 0.0, 10.000353, 9.999068 
1.5950385e+3, 2.449652e+2, -507039.25, -606541.1, -49607.87, 0.025766071, 0.14246362, -486532.84, 52807.598, 0.0, 10.000554, 9.999226 
1.5950407e+3, 2.549634e+2, -353865.0, -465586.44, -10282.452, -0.13127072, -0.00832312, -352926.53, 88429.02, 0.00000009760233, 10.0008745, 9.999362 
1.5950455e+3, 2.64962e+2, -260867.67, -428172.13, 64866.91, -0.13330947, -0.055203445, -238664.3, 104702.1, 0.0000054247644, 10.0010805, 9.998854 
1.5950525e+3, 2.749608e+2, -128333.56, -296600.97, 97616.32, 0.017986355, -0.11414363, -83597.46, 161776.2, 0.0000627863, 10.001259, 9.998987 
1.595057e+3, 2.8495938e+2, -83089.19, -320424.13, -20846.719, 0.041902356, -0.10245808, -81272.0, 66114.3, 0.0003316825, 10.001296, 9.998141 
1.5950587e+3, 2.949574e+2, 14358.611, -201512.53, -851.1708, -0.064718105, -0.17676404, 14361.968, 63769.832, 0.0010854187, 10.001188, 9.998334 
1.595063e+3, 3.0495512e+2, 137283.52, -78818.37, 103636.55, -0.10514696, -0.23969732, 178950.78, 178950.78, 0.0024519642, 10.001553, 9.998691 
1.5950707e+3, 3.149576e+2, 309342.9, 156832.98, 54470.906, -0.014556117, 0.072335124, 326799.72, 326799.72, 0.004279934, 10.00204, 10.00007 
1.6049807e+3, 1.24962516e+2, -1742062.0, -1560820.4, -57972.766, 0.2378182, -0.06309156, -1543863.5, 171497.14, 0.027939666, 9.999007, 10.001552 
1.6049866e+3, 1.3496187e+2, -1926948.4, -1827308.0, 55572.27, 0.1837796, -0.10334788, -1802493.5, -185125.33, 0.01712635, 9.998152, 9.999413 
1.6049893e+3, 1.449629e+2, -1868029.6, -1647058.3, -60898.426, -0.08237735, 0.023629557, -1631386.5, -112026.84, 0.007836914, 9.997398, 10.0003395 
1.6049942e+3, 1.5496385e+2, -1596496.4, -1438062.5, -70080.03, 0.0955968, 0.02033189, -1411513.0, 9839.368, 0.0022287087, 9.998476, 10.000578 
1.6049986e+3, 1.6496404e+2, -1485428.0, -1402339.1, 42204.58, 0.09698729, 0.018232927, -1384662.3, -61311.613, 0.00026665046, 9.998872, 9.999961 
1.6050029e+3, 1.7496315e+2, -1358542.3, -1271942.4, 29186.047, -0.038573105, -0.11030964, -1263024.4, -37667.336, 0.0000036433328, 9.999002, 10.000115 
1.6050084e+3, 1.8496276e+2, -1259365.9, -1266020.9, 7346.7056, -0.023671072, -0.11292599, -1254628.3, -127268.46, 0.0, 9.999372, 9.999316 
1.6050147e+3, 1.949627e+2, -1020521.3, -1085572.0, -7319.31, 0.11109014, -0.10024427, -1019707.94, 9652.89, 0.0, 10.000273, 9.999444 
1.6050203e+3, 2.0496193e+2, -922862.6, -1106394.6, 17987.295, 0.1615324, -0.058853317, -921116.4, 10252.199, 0.0, 10.000808, 9.998373 
1.6050255e+3, 2.1496044e+2, -757227.94, -954775.8, -12313.137, 0.12768617, -0.091484785, -756463.44, 76920.24, 0.0, 10.001192, 9.9985485 
1.6050306e+3, 2.2495984e+2, -669863.9, -811583.0, -27161.98, 0.13332413, -0.020949187, -664836.4, 70553.88, 0.0, 10.00088, 9.999015 
1.6050355e+3, 2.3496014e+2, -696449.94, -753804.6, -30022.201, 0.16593774, 0.06108024, -683609.56, -46221.152, 0.0, 9.999953, 9.999171 
1.6050392e+3, 2.4495962e+2, -597640.8, -645872.4, -26568.195, 0.093989566, 0.09399646, -585875.6, -46482.824, 0.0, 9.999907, 9.999277 
1.605042e+3, 2.5495803e+2, -357688.97, -462413.25, -66350.54, -0.06575391, -0.036264364, -325527.8, 115878.06, 0.000000007673713, 10.000812, 9.999424 
1.6050471e+3, 2.6495674e+2, -235109.97, -394888.3, -21712.93, -0.06259756, -0.080607615, -232211.88, 111203.55, 0.0000049768487, 10.001153, 9.99906 
1.6050543e+3, 2.7495584e+2, -173386.38, -302428.5, -51924.695, 0.09934153, -0.12485002, -155087.52, 90333.31, 0.00006482946, 10.0008545, 9.999168 
1.6050589e+3, 2.8495443e+2, -89918.25, -348713.2, -116820.45, 0.12124438, -0.110601306, -44986.367, 102446.93, 0.00033743004, 10.001316, 9.997956 
1.605061e+3, 2.9495224e+2, 218111.92, -121554.58, -146641.61, -0.007834911, -0.1860852, 272660.25, 322116.03, 0.0010902431, 10.002652, 9.998187 
1.6050656e+3, 3.0494976e+2, 250182.53, -131836.63, -43283.395, -0.058697734, -0.21991615, 255025.22, 255025.22, 0.0024554476, 10.00278, 9.997731 
1.6050737e+3, 3.1495014e+2, 199654.45, 43436.438, -182792.72, 0.12486736, -0.013752266, 320327.22, 320327.22, 0.004280209, 10.001498, 9.9995575 
1.6149785e+3, 1.2495553e+2, -1765490.5, -1667827.5, 48817.85, 0.036339495, -0.12660159, -1647610.5, 67817.45, 0.02978273, 9.999254, 10.000687 
1.614984e+3, 1.3495772e+2, -1867125.3, -1715983.9, -4507.8237, 0.07632319, 0.051446002, -1715849.5, -98438.945, 0.018308382, 9.998195, 10.000165 
1.6149864e+3, 1.4495721e+2, -1826009.8, -1582551.9, -43833.758, -0.17201257, -0.031069674, -1574900.3, -55482.637, 0.008418617, 9.997487, 10.000743 
1.6149937e+3, 1.54959e+2, -1572643.0, -1387979.0, -14380.454, 0.14367224, 0.017099833, -1386865.9, 34534.434, 0.0024150687, 9.998477, 10.000921 
1.614999e+3, 1.6495974e+2, -1466971.6, -1405650.4, 25485.69, 0.20359693, 0.05880445, -1396441.3, -73049.375, 0.0002938315, 9.999031, 9.9998665 
1.6150022e+3, 1.7495914e+2, -1364778.1, -1290742.8, 44130.145, -0.038566656, -0.033370968, -1270160.3, -44764.71, 0.000004294035, 9.999009, 9.999991 
1.6150078e+3, 1.8495892e+2, -1265772.1, -1280290.9, 25071.756, -0.05765147, -0.007614157, -1246930.0, -119533.234, 0.0, 9.999378, 9.999211 
1.615016e+3, 1.9495894e+2, -1041406.6, -1106890.6, 39431.188, 0.18963192, 0.021349045, -1022895.75, 6501.052, 0.0, 10.000182, 9.99934 
1.6150223e+3, 2.0495777e+2, -970021.3, -1166540.3, 12887.271, 0.24299687, 0.042331684, -969179.8, -37770.793, 0.0, 10.000645, 9.998037 
1.6150267e+3, 2.1495534e+2, -813374.56, -1024132.8, 14715.05, 0.10562092, -0.048942193, -812352.1, 21081.9, 0.0, 10.000993, 9.998166 
1.615031e+3, 2.2495364e+2, -688858.6, -785919.25, -77404.77, 0.07033275, -0.08391505, -646028.7, 89420.52, 0.0, 10.000608, 9.999318 
1.6150355e+3, 2.3495254e+2, -709054.7, -723102.44, -49344.13, 0.1476275, -0.17643446, -666237.0, -28781.084, 0.0, 9.999719, 9.999493 
1.61504e+3, 2.4495171e+2, -670350.06, -751774.2, -9810.678, 0.14643395, -0.1601974, -669184.6, -129721.94, 0.0, 9.9997015, 9.998652 
1.6150446e+3, 2.549511e+2, -437022.03, -572915.9, -13558.097, 0.077429324, -0.14079516, -435682.53, 5787.51, 0.00000000987263, 10.000574, 9.998779 
1.6150495e+3, 2.6495022e+2, -290959.34, -442202.22, -48853.516, 0.04020423, -0.10080698, -276551.5, 66927.38, 0.000004852571, 10.000867, 9.998863 
1.6150548e+3, 2.7494895e+2, -219615.34, -342006.25, -41552.523, 0.046089344, -0.16729106, -206841.23, 38650.1, 0.00006465758, 10.00063, 9.998991 
1.6150598e+3, 2.84948e+2, -150741.33, -420781.22, -85564.25, 0.041482124, -0.07662366, -125912.516, 21587.809, 0.0003366383, 10.0010805, 9.997576 
1.6150643e+3, 2.9494742e+2, 152210.23, -193636.27, -72247.99, 0.019066108, 0.034815583, 166696.23, 216202.25, 0.0010768, 10.002369, 9.997829 
1.6150695e+3, 3.049438e+2, 115983.266, -324285.13, -109462.88, 0.020562967, -0.03951267, 141696.97, 141696.97, 0.0024101299, 10.002438, 9.996552 
1.6150764e+3, 3.149388e+2, 37633.22, -140054.6, -164474.66, 0.17705266, -0.2545659, 135725.53, 135725.53, 0.004186122, 10.000904, 9.998544 
1.624977e+3, 1.24948405e+2, -1959430.3, -1881230.3, 114960.47, 0.014457478, -0.19247799, -1798902.4, -83406.836, 0.03179242, 9.998451, 9.999563 
1.6249818e+3, 1.3495214e+2, -1743268.3, -1547050.5, -41124.2, 0.034878954, 0.035053067, -1538780.1, 78683.78, 0.019603958, 9.998536, 10.001163 
1.6249858e+3, 1.449524e+2, -1720087.4, -1562954.4, 7280.594, -0.011847685, -0.011253698, -1562617.8, -43153.965, 0.009062119, 9.998377, 10.00044 
1.6249926e+3, 1.5495314e+2, -1495983.8, -1386170.5, -37824.6, 0.17583558, -0.034509916, -1374403.0, 47053.59, 0.002624408, 9.99917, 10.000592 
1.6249982e+3, 1.6495368e+2, -1404738.4, -1364877.8, -21740.166, 0.20515336, 0.00012233069, -1355314.8, -31864.934, 0.00032476612, 9.99942, 9.999956 
1.625002e+3, 1.7495391e+2, -1321048.9, -1250981.4, -21621.947, 0.0254906, -0.023597697, -1244846.3, -19401.393, 0.000005034694, 9.999241, 10.000141 
1.625008e+3, 1.8495369e+2, -1285003.9, -1293367.3, 32967.844, 0.039437696, -0.0024859826, -1255953.6, -128508.25, 0.0, 9.999271, 9.999181 
1.6250168e+3, 1.9495293e+2, -1099118.1, -1127250.3, 23598.44, 0.26177934, -0.046555508, -1085711.6, -56259.563, 0.0, 9.9997835, 9.999387 
1.625023e+3, 2.0495191e+2, -1014648.75, -1133109.8, 44468.58, 0.28764215, -0.038791295, -999813.7, -68351.79, 0.0, 10.000082, 9.998544 
1.6250272e+3, 2.1495047e+2, -889277.5, -1005950.44, 84726.414, 0.10858597, -0.083884, -844746.56, -11269.967, 0.0, 10.000214, 9.998676 
1.6250318e+3, 2.2494887e+2, -686160.56, -822997.6, 22227.979, 0.0814045, -0.118367285, -682640.4, 52850.523, 0.0, 10.000778, 9.998987 
1.6250367e+3, 2.3494697e+2, -431592.88, -631489.44, -31501.082, 0.19888762, -0.25659478, -426746.22, 210760.3, 0.0, 10.001784, 9.999137 
1.6250417e+3, 2.4494581e+2, -360673.03, -624025.9, 25863.746, 0.2301965, -0.24189326, -358157.0, 181360.11, 0.0, 10.001927, 9.998452 
1.6250463e+3, 2.549454e+2, -350775.47, -555698.25, 15757.322, 0.1562299, -0.17903538, -349570.9, 91952.36, 0.000000011745934, 10.001266, 9.998564 
1.6250512e+3, 2.6494452e+2, -292085.6, -504109.4, 15614.74, 0.09889472, -0.10129645, -290941.78, 52592.242, 0.0000048598445, 10.001129, 9.998311 
1.6250561e+3, 2.7494296e+2, -124928.54, -360962.66, -42980.7, 0.071258456, -0.13353689, -117345.57, 128206.16, 0.00006306325, 10.001553, 9.998413 
1.6250616e+3, 2.8494182e+2, -39780.69, -358353.3, -26312.541, 0.084343135, -0.038978033, -37622.03, 109941.234, 0.00033149842, 10.001829, 9.99763 
1.6250674e+3, 2.9494104e+2, 103542.34, -214691.02, -38493.617, 0.115171045, 0.052568637, 108132.34, 157701.47, 0.0010554205, 10.002031, 9.997842 
1.6250722e+3, 3.049376e+2, 40154.65, -359750.78, -36977.426, 0.0883119, -0.0029550013, 43545.04, 43545.04, 0.0023408108, 10.001896, 9.996584 
1.6250774e+3, 3.1493226e+2, 81096.97, -159983.67, -72382.39, 0.19963494, -0.24970497, 101159.56, 101159.56, 0.0040329522, 10.001321, 9.998241 
1.634975e+3, 1.2494255e+2, -2035232.9, -2067923.4, -35769.13, -0.13125148, -0.13215506, -2012251.4, -296701.6, 0.03398967, 9.998566, 9.998231 
1.6349792e+3, 1.3494505e+2, -1653601.0, -1365766.3, -35606.996, -0.11182631, -0.15678456, -1361426.9, 256102.48, 0.02102759, 9.998542, 10.002429 
1.6349876e+3, 1.4494844e+2, -1757222.3, -1685520.6, 1998.7275, 0.26953936, 0.08623717, -1685465.0, -165966.05, 0.009775217, 9.998549, 9.999527 
1.634991e+3, 1.549464e+2, -1563615.5, -1532279.3, 2604.193, 0.052855447, -0.1132376, -1532064.4, -110544.26, 0.002860367, 9.99919, 9.999584 
1.6349955e+3, 1.6494599e+2, -1372810.8, -1311884.0, -46562.47, -0.055111676, -0.14108314, -1286705.0, 36817.883, 0.00036087315, 9.999472, 10.000298 
1.6350016e+3, 1.7494738e+2, -1305629.5, -1211472.3, -20298.979, 0.03283782, -0.07610629, -1207282.5, 18222.9, 0.000005927034, 9.99921, 10.000426 
1.6350086e+3, 1.8494697e+2, -1268282.6, -1270853.1, 32628.256, 0.12969922, -0.09735339, -1236914.4, -109407.836, 0.0, 9.999314, 9.999321 
1.6350162e+3, 1.9494456e+2, -1102614.9, -1116930.9, 54767.254, 0.21008122, -0.31830922, -1054539.9, -25011.826, 0.0, 9.9997015, 9.999503 
1.6350222e+3, 2.049442e+2, -941227.6, -943130.5, 34700.574, 0.16632308, -0.3201849, -907465.44, 24064.135, 0.0, 9.999918, 9.999931 
1.6350268e+3, 2.149457e+2, -818370.7, -816392.6, 105971.195, 0.017028881, -0.20802565, -711405.8, 122106.67, 0.0, 10.000025, 10.0000725 
1.6350323e+3, 2.2494549e+2, -801506.5, -997430.5, 47824.984, 0.016933097, -0.12273746, -790455.75, -54940.12, 0.0, 10.000503, 9.997918 
1.6350387e+3, 2.3494337e+2, -543592.3, -804087.06, 21681.445, 0.19626589, -0.17648171, -541800.0, 95740.04, 0.0, 10.001533, 9.998068 
1.6350436e+3, 2.449419e+2, -397101.4, -628694.2, -13910.978, 0.20886464, -0.14716841, -396268.8, 143287.52, 0.0, 10.001631, 9.998558 
1.6350466e+3, 2.54941e+2, -372116.1, -546483.75, 8987.376, 0.042196546, -0.1452674, -371654.06, 69911.47, 0.000000006263202, 10.001054, 9.998721 
1.6350512e+3, 2.6493979e+2, -387512.9, -662475.94, 15793.787, -0.020847904, -0.057781957, -386608.7, -43029.34, 0.000005059976, 10.00094, 9.997322 
1.6350576e+3, 2.7493817e+2, -224136.66, -519504.16, -1256.5433, 0.039886005, -0.009403963, -224131.31, 21468.754, 0.000060994436, 10.001336, 9.997433 
1.6350637e+3, 2.8493592e+2, -63573.16, -337034.7, -33692.395, 0.082152046, 0.008592893, -59483.188, 88138.99, 0.0003219481, 10.001544, 9.997905 
1.6350697e+3, 2.9493302e+2, 76410.25, -196427.13, -2649.1072, 0.10987406, -0.13480571, 76435.97, 126081.86, 0.0010251604, 10.001736, 9.9981 
1.6350733e+3, 3.0493116e+2, 61643.227, -232919.23, -76106.24, -0.02429725, -0.09567793, 80144.75, 80144.75, 0.002256268, 10.00155, 9.99762 
1.6350767e+3, 3.1493017e+2, 45040.57, -111176.12, -20179.092, -0.05992116, -0.019952899, 47605.082, 47605.082, 0.0038509592, 10.000806, 9.9988165 
1.6449733e+3, 1.24937475e+2, -2226296.3, -2086040.1, 3568.034, -0.05603106, -0.07452504, -2085949.4, -370349.56, 0.036383986, 9.996981, 9.998871 
1.6449781e+3, 1.3493833e+2, -1635157.0, -1354495.5, -52864.164, -0.08777661, -0.2660181, -1344868.5, 272724.7, 0.022584815, 9.998677, 10.002448 
1.6449869e+3, 1.4494288e+2, -1649709.8, -1610031.0, -21858.05, 0.336577, 0.08382622, -1600351.3, -80802.22, 0.010560797, 9.99917, 9.999755 
1.64499e+3, 1.5494068e+2, -1624992.0, -1535728.8, 41099.074, 0.0688599, -0.1595049, -1519688.1, -98117.73, 0.0031241647, 9.998635, 9.999836 
1.6449948e+3, 1.6493998e+2, -1495717.6, -1410317.6, 62955.11, -0.030654827, -0.214363, -1376947.8, -53371.49, 0.0004029895, 9.998792, 9.999956 
1.6450018e+3, 1.7494099e+2, -1213413.8, -1212681.9, 11409.139, 0.09258429, -0.14910565, -1201632.9, 23931.727, 0.0000070009137, 10.000025, 10.000041 
1.6450089e+3, 1.8494071e+2, -1133034.0, -1189865.4, 41690.402, 0.19807813, -0.14373647, -1110996.4, 16569.57, 0.0, 10.000199, 9.999426 
1.645016e+3, 1.949389e+2, -1118081.6, -1111891.1, 29044.49, 0.24122763, -0.3177921, -1085777.4, -56195.24, 0.0, 9.999559, 9.999587 
1.6450222e+3, 2.0493865e+2, -981076.6, -955218.3, 11284.837, 0.1931492, -0.3132868, -950986.2, -19403.102, 0.0, 9.999621, 9.999981 
1.6450273e+3, 2.1493989e+2, -748190.2, -769036.1, -50410.734, 0.048923854, -0.23717777, -707136.2, 126432.9, 0.0, 10.000468, 10.000165 
1.6450332e+3, 2.2493999e+2, -736349.6, -932169.2, -80960.484, 0.060614713, -0.14034505, -707212.5, 28356.521, 0.0, 10.000803, 9.998236 
1.6450402e+3, 2.3493871e+2, -655703.3, -823385.0, -32325.043, 0.23684815, -0.13776508, -649687.6, -12102.814, 0.0, 10.000615, 9.99839 
1.645045e+3, 2.4493751e+2, -518638.03, -704047.2, -6667.837, 0.24290495, -0.09085081, -518398.56, 21199.926, 0.0, 10.000853, 9.998424 
1.645048e+3, 2.549362e+2, -311966.3, -541776.7, -37413.67, 0.047839098, -0.110810444, -306028.7, 135583.25, 0.000000005166704, 10.001548, 9.998531 
1.6450529e+3, 2.6493454e+2, -247621.77, -596013.06, 29246.566, -0.0057016998, -0.05868984, -245183.66, 98446.21, 0.000005473011, 10.001931, 9.997285 
1.6450597e+3, 2.7493235e+2, -102490.63, -457764.8, 34160.35, 0.07712818, -0.059468128, -99235.86, 146418.22, 0.000058881178, 10.002195, 9.997423 
1.6450658e+3, 2.8492987e+2, 15206.976, -285357.28, 47213.82, 0.11734646, -0.07135803, 22449.014, 170126.86, 0.0003079229, 10.002018, 9.998052 
1.6450712e+3, 2.9492706e+2, -2270.123, -221180.4, 24252.19, 0.1232355, -0.21248253, 384.48825, 50085.543, 0.0009851817, 10.001135, 9.998231 
1.6450746e+3, 3.0492568e+2, 50963.586, -175833.33, -5778.875, -0.00013109676, -0.15994127, 51110.74, 51110.74, 0.0021653068, 10.001166, 9.998209 
1.6450788e+3, 3.1492612e+2, 221052.4, -1710.6581, -69821.41, 0.028057594, -0.0022865469, 241127.63, 241127.63, 0.0036772224, 10.001918, 9.999023 
1.6549711e+3, 1.2493321e+2, -1996728.3, -1665241.6, -54851.992, -0.046487574, -0.031533215, -1656400.9, 59244.734, 0.03897044, 9.99718, 10.001694 
1.6549781e+3, 1.3493232e+2, -1728260.9, -1542023.9, 27391.342, 0.020673567, -0.26658952, -1538078.9, 79572.695, 0.024272982, 9.998665, 10.001146 
1.6549833e+3, 1.4493594e+2, -1539995.4, -1399382.3, -61355.58, 0.0074694185, -0.012172872, -1376374.8, 143237.77, 0.0114189135, 9.999239, 10.001175 
1.6549891e+3, 1.5493602e+2, -1518976.0, -1320067.6, 32144.379, 0.09048407, -0.17134877, -1315002.0, 106604.99, 0.0034161112, 9.998656, 10.0013075 
1.6549957e+3, 1.6493572e+2, -1547928.6, -1545962.8, 88651.0, 0.1323742, -0.21064128, -1458289.3, -134679.94, 0.00045137366, 9.9988985, 9.998979 
1.655002e+3, 1.7493488e+2, -1282665.8, -1347997.5, 69721.99, 0.092395365, -0.23873277, -1238336.8, -12715.85, 0.000008273259, 9.999991, 9.9991255 
1.6550086e+3, 1.8493496e+2, -1132534.0, -1194907.5, 4605.073, 0.1148665, -0.14975981, -1132195.9, -4573.2803, 0.0, 10.000214, 9.999391 
1.6550158e+3, 1.9493587e+2, -1132864.9, -1125325.4, 15875.357, 0.2319336, -0.046263196, -1112778.4, -83163.375, 0.0, 9.9994755, 9.999541 
1.6550224e+3, 2.0493527e+2, -1095575.1, -1154294.4, 28677.348, 0.21893461, -0.010475869, -1083893.6, -152271.11, 0.0, 9.999458, 9.998692 
1.6550283e+3, 2.1493296e+2, -870311.4, -970457.5, -5955.7813, 0.087077454, -0.16172695, -869958.4, -36311.723, 0.0, 10.000248, 9.998887 
1.6550344e+3, 2.2493216e+2, -653300.0, -702822.0, -105016.86, 0.07541144, -0.1741269, -570164.5, 165488.66, 0.0, 10.000557, 9.999929 
1.6550405e+3, 2.3493278e+2, -569149.75, -589947.6, -22533.531, 0.19213107, -0.15212497, -554731.4, 82911.14, 0.0, 10.000384, 10.000105 
1.6550456e+3, 2.4493252e+2, -588849.1, -787573.1, 9119.317, 0.17535675, -0.07697256, -588431.5, -48786.93, 0.0, 10.0005865, 9.997975 
1.6550496e+3, 2.5493103e+2, -380690.7, -624437.06, 4618.1836, 0.046515055, -0.07133137, -380603.22, 61059.055, 0.00000000856411, 10.001304, 9.998071 
1.6550551e+3, 2.6492867e+2, -235264.73, -518486.6, 22128.385, 0.009397008, -0.099865936, -233546.25, 110139.74, 0.0000057188686, 10.001697, 9.997934 
1.6550618e+3, 2.7492532e+2, -81242.48, -367010.7, 65811.44, 0.051161405, -0.28846398, -66814.75, 178901.52, 0.00005720022, 10.001984, 9.998152 
1.6550672e+3, 2.849235e+2, -28543.676, -304867.56, -4427.6426, 0.037577562, -0.27575865, -28472.75, 119259.83, 0.0002952708, 10.001709, 9.998068 
1.6550712e+3, 2.949229e+2, -36368.234, -238299.22, 20328.188, -0.008967735, -0.2014296, -34342.145, 15395.509, 0.00095047243, 10.000893, 9.998234 
1.6550757e+3, 3.049208e+2, -10159.643, -211295.63, 5372.938, -0.034495477, -0.2124233, -10016.218, -10016.218, 0.0020977126, 10.000798, 9.998133 
1.6550827e+3, 3.1491932e+2, 120508.45, -93901.24, 23542.248, 0.17936681, -0.24558473, 123062.97, 123062.97, 0.0035619321, 10.001414, 9.998632 
1.6649699e+3, 1.2492792e+2, -1759773.5, -1493319.6, 31238.955, 0.06659, -0.0766515, -1489706.3, 225987.13, 0.041736465, 9.998503, 10.002293 
1.6649772e+3, 1.3492645e+2, -1793766.0, -1637002.5, 75222.94, 0.100854725, -0.32005298, -1606746.4, 10956.788, 0.026087236, 9.998467, 10.000584 
1.6649815e+3, 1.4492905e+2, -1735964.5, -1505248.3, -12617.1, -0.019328905, -0.12590389, -1504560.3, 15113.45, 0.012349877, 9.99798, 10.001028 
1.6649887e+3, 1.5492968e+2, -1407052.1, -1264197.8, -59552.934, 0.14676145, -0.23008768, -1242628.3, 179035.8, 0.003737191, 9.999442, 10.001297 
1.664996e+3, 1.6492972e+2, -1393707.3, -1473793.8, 5760.846, 0.2333508, -0.23179771, -1393295.0, -69630.914, 0.00050616945, 9.999993, 9.998929 
1.6650021e+3, 1.7492872e+2, -1334197.6, -1379590.0, 21227.648, 0.12532987, -0.27117214, -1325817.6, -100139.125, 0.000009797576, 9.999669, 9.999058 
1.6650084e+3, 1.849289e+2, -1239068.4, -1261797.9, -2450.5945, 0.101979546, -0.161043, -1238807.1, -111126.19, 0.0, 9.999555, 9.999246 
1.665015e+3, 1.9493032e+2, -1047253.44, -1094863.6, -26333.598, 0.1792048, 0.003134356, -1035560.06, -5889.4224, 0.0, 10.000117, 9.999433 
1.6650222e+3, 2.0492974e+2, -995122.44, -1120567.4, 66273.7, 0.22765474, 0.052187614, -966596.3, -34917.53, 0.0, 10.000211, 9.998565 
1.66503e+3, 2.1492699e+2, -931519.9, -1016837.0, 91786.266, 0.23730917, -0.12776035, -872963.44, -39256.33, 0.0, 9.999889, 9.99875 
1.6650361e+3, 2.2492589e+2, -719869.56, -699603.94, 10319.775, 0.21679072, -0.17736915, -695274.0, 40441.56, 0.0, 9.999954, 10.000225 
1.6650404e+3, 2.349264e+2, -529033.4, -533641.56, -47441.27, 0.15339296, -0.20010537, -483840.25, 153863.92, 0.0, 10.000498, 10.000422 
1.6650456e+3, 2.4492611e+2, -506497.38, -746421.1, -5236.9146, 0.109676875, -0.1445157, -506383.13, 33322.523, 0.0, 10.001131, 9.9980135 
1.6650516e+3, 2.549248e+2, -292941.13, -577202.75, -1733.847, 0.08755311, -0.12263685, -292930.56, 148791.92, 0.0000000057748837, 10.001881, 9.998128 
1.6650575e+3, 2.6492286e+2, -218820.92, -455028.47, 15511.546, 0.08617755, -0.13653806, -217806.64, 125935.234, 0.0000055479773, 10.001561, 9.998437 
1.665063e+3, 2.7492023e+2, -317214.22, -441251.13, 3684.782, 0.07975435, -0.2961786, -317104.84, -71340.65, 0.000055377644, 10.000155, 9.998541 
1.6650684e+3, 2.849189e+2, -258958.28, -386547.5, -7942.587, 0.079224415, -0.25922158, -258465.73, -110690.76, 0.00028510438, 9.999994, 9.998312 
1.6650732e+3, 2.949189e+2, 5304.3677, -186853.5, -21924.01, 0.0798323, -0.15490097, 7774.0195, 57549.207, 0.000926934, 10.001079, 9.998469 
1.665078e+3, 3.0491608e+2, 193183.13, -149968.45, 39176.46, 0.049744923, -0.23762862, 197598.94, 197598.94, 0.0020635044, 10.002346, 9.9978075 
1.6650856e+3, 3.149142e+2, 382737.25, 11904.468, -33977.637, 0.23674002, -0.27407518, 385824.75, 385824.75, 0.0035203707, 10.003313, 9.998438 
1.674969e+3, 1.24921285e+2, -1864806.0, -1718340.8, 153405.2, 0.057932723, -0.25982425, -1621584.6, 94161.24, 0.044670317, 9.998581, 10.000658 
1.6749752e+3, 1.3492092e+2, -1776378.1, -1617586.1, 33615.19, 0.0019439459, -0.41321856, -1610763.1, 6983.018, 0.028026333, 9.998527, 10.000692 
1.6749813e+3, 1.4492223e+2, -1839325.9, -1736752.5, 8991.834, 0.099242374, -0.27169067, -1735970.3, -216237.17, 0.013357116, 9.998049, 9.999407 
1.6749881e+3, 1.5492173e+2, -1515439.9, -1490569.3, 12630.746, 0.110798664, -0.33396676, -1485279.6, -63538.89, 0.004090086, 9.999444, 9.999742 
1.6749953e+3, 1.6492194e+2, -1319986.9, -1342639.1, -21456.598, 0.12166523, -0.2840806, -1307050.6, 16690.586, 0.0005678562, 10.000081, 9.999792 
1.6750015e+3, 1.7492257e+2, -1282163.0, -1261242.1, 17175.572, 0.0717341, -0.24081995, -1251592.3, -25855.172, 0.000011659807, 9.999626, 9.999892 
1.6750073e+3, 1.8492267e+2, -1254193.8, -1297854.8, 202.8255, 0.008367084, -0.16657086, -1254192.8, -126453.05, 0.0, 9.999563, 9.999002 
1.6750133e+3, 1.9492221e+2, -1078668.3, -1137537.1, 5421.148, -0.03499083, -0.16467245, -1078173.1, -48424.027, 0.0, 10.000016, 9.999195 
1.6750212e+3, 2.04922e+2, -937736.4, -974352.1, 39073.184, 0.08598583, -0.11992466, -912894.6, 18857.826, 0.0, 10.000087, 9.999631 
1.6750313e+3, 2.149219e+2, -888972.06, -881860.56, 94895.74, 0.37184897, -0.14140812, -790454.0, 43297.15, 0.0, 9.999681, 9.99978 
1.6750373e+3, 2.2492115e+2, -840190.4, -884019.2, 18483.438, 0.3362822, -0.15134673, -833436.4, -97680.13, 0.0, 9.999673, 9.999093 
1.6750397e+3, 2.3491964e+2, -644934.2, -721934.44, -13053.664, -0.0014719194, -0.26310694, -642781.44, -5012.3203, 0.0, 10.000272, 9.999237 
1.6750449e+3, 2.4491842e+2, -509898.94, -690163.0, 6821.184, -0.10027699, -0.26525995, -509641.22, 30139.719, 0.0, 10.000859, 9.998527 
1.6750532e+3, 2.5491747e+2, -291463.84, -513374.22, 46828.902, 0.043473657, -0.26101255, -281986.47, 159805.61, 0.0000000017385277, 10.001622, 9.998685 
1.6750593e+3, 2.6491702e+2, -244215.34, -441985.56, -51491.652, 0.07826803, -0.16710682, -231612.1, 112185.51, 0.0000048816705, 10.001274, 9.99867 
1.6750629e+3, 2.749168e+2, -331320.38, -428405.72, -26640.04, 0.022693064, -0.106895916, -324490.84, -78690.59, 0.000051551386, 9.999964, 9.998729 
1.6750686e+3, 2.8491598e+2, -289283.13, -375711.2, 18539.273, 0.06702526, -0.039034035, -285474.22, -137667.17, 0.0002714196, 9.999683, 9.998537 
1.675076e+3, 2.9491472e+2, -6059.6636, -154458.72, 46760.484, 0.2234931, -0.08835083, 7445.499, 57262.293, 0.0008994481, 10.000821, 9.998823 
1.675081e+3, 3.049111e+2, 86985.88, -261626.66, 59780.965, 0.07666477, -0.24970742, 96952.34, 96952.34, 0.0020333803, 10.0019045, 9.997246 
1.675086e+3, 3.1491002e+2, 313250.88, -26006.82, 62637.406, -0.10991921, -0.14408177, 324446.22, 324446.22, 0.0035085906, 10.002875, 9.998379 
1.6849685e+3, 1.2491417e+2, -1996052.6, -1820986.8, 56579.47, 0.18322182, -0.28420117, -1804292.8, -88479.4, 0.04776628, 9.997894, 10.000236 
1.6849737e+3, 1.3491432e+2, -1659127.5, -1559091.8, -136963.17, -0.023716317, -0.39137164, -1463299.1, 154510.95, 0.030093629, 9.999355, 10.0007 
1.6849819e+3, 1.4491539e+2, -1561588.4, -1645834.8, -85286.13, 0.2656166, -0.25914654, -1508590.1, 11210.694, 0.0144471, 10.000123, 9.999039 
1.6849874e+3, 1.5491408e+2, -1525421.4, -1545081.5, -25882.22, 0.09678374, -0.3584451, -1507565.4, -85747.07, 0.004479329, 9.99958, 9.999311 
1.6849938e+3, 1.6491432e+2, -1438784.3, -1343070.9, -23488.725, 0.029241707, -0.30623513, -1337617.3, -13798.807, 0.0006375465, 9.999018, 10.000305 
1.6850007e+3, 1.749161e+2, -1339463.3, -1224106.4, -32050.623, 0.066734955, -0.20613338, -1215799.6, 10002.18, 0.00001399049, 9.998958, 10.0004635 
1.6850072e+3, 1.8491644e+2, -1278252.0, -1287147.5, 17492.314, 0.05926546, -0.14797679, -1264650.9, -136850.25, 0.0, 9.9993105, 9.99919 
1.6850136e+3, 1.9491525e+2, -1035346.56, -1101791.9, 28716.049, -0.018189475, -0.23587734, -1024656.2, 5159.7847, 0.0, 10.000242, 9.999333 
1.6850215e+3, 2.0491502e+2, -836412.94, -907295.1, 34396.47, 0.076032296, -0.2076047, -822465.9, 109353.27, 0.0, 10.000708, 9.99979 
1.685031e+3, 2.149158e+2, -724111.0, -777680.2, -11993.75, 0.34351116, -0.15822734, -721548.25, 112261.41, 0.0, 10.00072, 9.999986 
1.6850376e+3, 2.2491552e+2, -718344.56, -866205.44, -45256.8, 0.34732017, -0.11643398, -705592.3, 30219.195, 0.0, 10.00066, 9.998765 
1.6850406e+3, 2.3491395e+2, -641834.1, -758525.25, -36967.71, 0.07326157, -0.19657055, -631108.6, 6718.236, 0.0, 10.000443, 9.998924 
1.6850463e+3, 2.4491253e+2, -582154.25, -695030.44, 38095.777, -0.017312529, -0.21384194, -570500.2, -30659.55, 0.0, 10.0002365, 9.998781 
1.6850542e+3, 2.5491118e+2, -498245.03, -593463.0, 17074.121, 0.06377046, -0.27590463, -495275.94, -53421.965, 0.0000000018399801, 10.0000925, 9.998879 
1.6850601e+3, 2.6491082e+2, -335173.47, -462437.94, -74520.336, 0.08164211, -0.19301656, -300814.2, 43043.695, 0.0000039092515, 10.000541, 9.998889 
1.685064e+3, 2.749113e+2, -59967.082, -258613.81, -86591.17, 0.039395314, -0.08519662, -27521.096, 218332.36, 0.000046409757, 10.001701, 9.99904 
1.6850698e+3, 2.849105e+2, 62241.438, -244283.63, 944.7252, 0.103555135, -0.019142792, 62244.35, 210105.39, 0.00025645504, 10.002239, 9.998234 
1.6850777e+3, 2.9490846e+2, 141849.14, -120181.66, -57063.1, 0.27560586, -0.10764869, 153736.63, 203616.17, 0.0008664291, 10.001981, 9.998521 
1.685083e+3, 3.0490485e+2, 103799.34, -253914.58, 2768.052, 0.12501937, -0.25443903, 103820.766, 103820.766, 0.0019906836, 10.00197, 9.997298 
1.685089e+3, 3.149042e+2, 213126.16, -31347.504, -20582.727, -0.0429562, -0.090814024, 214846.95, 214846.95, 0.0034818049, 10.001934, 9.998849 
1.6949658e+3, 1.2490583e+2, -1926327.9, -1722933.9, -151149.63, 0.034186214, -0.21902382, -1642453.8, 73449.45, 0.051028147, 9.998054, 10.000872 
1.6949722e+3, 1.349063e+2, -1663954.0, -1563899.9, -50090.6, -0.1512223, -0.27706844, -1543133.0, 74764.875, 0.032295942, 9.999322, 10.000678 
1.6949832e+3, 1.4490849e+2, -1481122.4, -1505017.1, -116502.41, 0.3393854, -0.089838676, -1375956.4, 143920.84, 0.015627254, 10.000234, 9.999962 
1.6949861e+3, 1.5490688e+2, -1476459.8, -1452894.4, -36795.95, -0.024203675, -0.28331506, -1426040.6, -4145.7354, 0.004910431, 9.9996195, 9.999925 
1.694991e+3, 1.64907e+2, -1407185.5, -1293761.3, -47098.03, -0.20327663, -0.29019997, -1276754.4, 47140.652, 0.0007170378, 9.999084, 10.00061 
1.6949992e+3, 1.7490938e+2, -1319697.9, -1177659.0, -20018.094, -0.009599662, -0.1638868, -1174891.6, 50980.246, 0.000016975888, 9.998934, 10.000792 
1.6950074e+3, 1.8491028e+2, -1232724.8, -1202467.5, 35469.758, 0.10838791, -0.09651657, -1179034.8, -51171.65, 0.0, 9.999348, 9.999754 
1.6950151e+3, 1.9490935e+2, -1012142.25, -1028600.4, 72350.57, 0.093904495, -0.21293284, -947554.25, 82317.625, 0.0, 10.000137, 9.999882 
1.6950223e+3, 2.0490883e+2, -921093.6, -1037794.5, 17441.639, 0.056595676, -0.20219228, -918542.6, 13335.732, 0.0, 10.000507, 9.998996 
1.695029e+3, 2.1490867e+2, -807138.1, -911580.3, 1492.5983, 0.028933864, -0.16336729, -807116.8, 26766.053, 0.0, 10.00054, 9.999163 
1.6950358e+3, 2.2490887e+2, -716803.44, -793832.6, -68356.39, 0.09262651, -0.063667186, -676858.06, 59024.2, 0.0, 10.000376, 9.999392 
1.6950431e+3, 2.3490922e+2, -640517.94, -687540.7, -26099.887, 0.24777016, -0.014043445, -628901.1, 8977.074, 0.0, 10.000158, 9.999545 
1.6950491e+3, 2.4490821e+2, -640032.9, -736293.7, 19711.283, 0.21637599, -0.017740324, -636153.0, -96265.79, 0.0, 9.999901, 9.998662 
1.695054e+3, 2.5490576e+2, -540700.9, -628512.94, 30455.156, 0.024453085, -0.17720728, -531172.3, -89262.14, 0.0000000033657745, 9.999866, 9.99875 
1.6950595e+3, 2.6490417e+2, -366175.84, -456574.9, -44368.848, -0.06121872, -0.2152391, -348038.25, -4115.078, 0.0000030031388, 10.000247, 9.999064 
1.6950655e+3, 2.7490357e+2, -79836.88, -244160.94, -21889.543, -0.008838712, -0.24247843, -76970.97, 168954.88, 0.000041455987, 10.001468, 9.999246 
1.6950716e+3, 2.8490213e+2, -43226.8, -390425.3, -27144.012, 0.033606723, -0.2080793, -41117.492, 106822.28, 0.00024337543, 10.001928, 9.997379 
1.6950782e+3, 2.9489973e+2, 46040.65, -267733.25, -44493.844, 0.07573855, -0.24718079, 52227.97, 102195.23, 0.0008331997, 10.001742, 9.99763 
1.6950843e+3, 3.0489695e+2, 71532.84, -210439.48, -13231.33, 0.0066490956, -0.2865076, 72152.35, 72152.35, 0.0019313671, 10.001531, 9.997791 
1.695093e+3, 3.148973e+2, 217413.89, 114814.39, 35167.207, 0.12442589, -0.08884531, 228310.58, 228310.58, 0.0034096164, 10.001369, 10.000107 
1.7049648e+3, 1.24899045e+2, -1598524.8, -1530669.4, -68029.38, 0.0420517, -0.12531047, -1488576.8, 227399.2, 0.054460447, 10.000176, 10.00123 
1.7049712e+3, 1.3489841e+2, -1869976.4, -1718200.3, -480.06454, -0.10929312, -0.23619404, -1718198.8, -100215.19, 0.034638863, 9.998156, 10.000173 
1.704982e+3, 1.4490148e+2, -1840002.4, -1593324.4, -61185.82, 0.34949163, 0.029471617, -1578981.8, -59028.11, 0.016903277, 9.997432, 10.000694 
1.7049855e+3, 1.5490071e+2, -1608359.6, -1432438.9, -12243.775, 0.020397998, -0.15611482, -1431590.8, -9630.146, 0.00538814, 9.998375, 10.000655 
1.7049904e+3, 1.6490076e+2, -1426383.1, -1331944.0, -4362.7905, -0.16122587, -0.19167523, -1331742.9, -7782.703, 0.0008082668, 9.999078, 10.000345 
1.7049983e+3, 1.7490244e+2, -1215724.0, -1155670.3, -50012.22, -0.030272905, -0.111877926, -1127363.4, 98581.82, 0.000020835996, 9.999763, 10.000546 
1.705007e+3, 1.849032e+2, -1129626.5, -1129370.4, 3125.6548, 0.098324224, -0.054383617, -1126370.1, 1566.7191, 0.0, 9.9999485, 9.999984 
1.7050157e+3, 1.9490269e+2, -1033257.4, -1016895.4, -11082.942, 0.15271886, -0.14848298, -1011301.0, 18638.201, 0.0, 9.999883, 10.000107 
1.7050229e+3, 2.0490217e+2, -1030467.0, -1087942.4, -32903.625, 0.1074115, -0.14799371, -1015518.3, -83573.77, 0.0, 9.999758, 9.998997 
1.7050283e+3, 2.1490173e+2, -933566.3, -973586.0, -19506.336, -0.0409694, -0.13940522, -925631.75, -91679.59, 0.0, 9.999698, 9.999129 
1.7050353e+3, 2.249018e+2, -756538.7, -819907.1, -45919.69, 0.015243766, -0.0489489, -732433.06, 3520.6448, 0.0, 10.000128, 9.999326 
1.7050438e+3, 2.3490219e+2, -523680.16, -633312.56, -89896.484, 0.2797005, 0.00834269, -473205.34, 164745.22, 0.0, 10.000974, 9.999512 
1.7050503e+3, 2.4490151e+2, -458363.97, -611260.9, -48847.125, 0.30845374, 0.02143895, -444090.8, 95865.32, 0.0, 10.000988, 9.999 
1.7050546e+3, 2.548996e+2, -469992.8, -545819.8, -33821.09, 0.087408654, -0.11847202, -457099.8, -15128.092, 0.0000000026261497, 10.000167, 9.999158 
1.7050603e+3, 2.6489785e+2, -382463.44, -495481.7, -16437.037, 0.0028595245, -0.18175308, -380121.4, -36135.574, 0.0000021613648, 10.000257, 9.998801 
1.7050675e+3, 2.7489626e+2, -132488.97, -305107.56, -63253.62, 0.058478463, -0.2740209, -111792.12, 134206.8, 0.000036656253, 10.001241, 9.998949 
1.7050737e+3, 2.8489473e+2, -83122.76, -418424.34, -66050.734, 0.08046692, -0.22892475, -70580.63, 77434.47, 0.00022921336, 10.001696, 9.997292 
1.7050794e+3, 2.94893e+2, 17824.402, -292701.22, -68908.37, 0.048483245, -0.18674603, 32428.902, 82466.32, 0.00079328316, 10.001615, 9.997511 
1.7050856e+3, 3.0489072e+2, 145839.06, -142355.95, 36188.824, -0.010380001, -0.18286827, 150313.84, 150313.84, 0.001843639, 10.001889, 9.998074 
1.705096e+3, 3.1488982e+2, 371008.9, 238376.66, -25071.143, 0.25878108, -0.1415744, 375589.84, 375589.84, 0.0032697637, 10.002237, 10.000504 
1.714966e+3, 1.24894224e+2, -1574924.9, -1499905.0, -29009.18, 0.060749743, 0.005332027, -1489996.3, 226031.34, 0.058051143, 10.000255, 10.001423 
1.7149709e+3, 1.3489115e+2, -1962967.4, -1902186.5, -58703.445, 0.022984846, -0.23358905, -1866473.5, -248411.95, 0.037118543, 9.998127, 9.998923 
1.7149775e+3, 1.4489453e+2, -1781438.1, -1501612.0, -42233.246, 0.09836318, 0.108184464, -1495376.9, 24651.887, 0.018276531, 9.997542, 10.00128 
1.7149849e+3, 1.5489535e+2, -1551003.3, -1316319.0, 39445.215, 0.09400547, 0.0015555407, -1309866.6, 112150.63, 0.005915651, 9.998377, 10.001458 
1.7149916e+3, 1.6489561e+2, -1477070.0, -1446287.5, 2827.633, 0.021365099, -0.014748656, -1446029.9, -122015.39, 0.0009130136, 9.999124, 9.999533 
1.7149974e+3, 1.748954e+2, -1284857.4, -1284164.0, -13623.453, -0.11592463, -0.03848333, -1270882.8, -44862.594, 0.000025810483, 9.999711, 9.999683 
1.715005e+3, 1.8489537e+2, -1138154.5, -1145671.1, -14240.403, -0.12022283, -0.01013865, -1127184.9, 835.80115, 0.0, 9.999938, 9.999878 
1.7150146e+3, 1.9489534e+2, -1050084.5, -1031618.8, 376.2046, 0.03541192, -0.049152765, -1031611.1, -1593.8274, 0.0, 9.999796, 10.000047 
1.7150226e+3, 2.0489514e+2, -1002378.75, -994172.7, -48767.453, 0.07544295, -0.050272167, -949336.0, -17319.03, 0.0, 9.999607, 9.999714 
1.7150287e+3, 2.1489476e+2, -917378.44, -883220.56, -8206.719, 0.0033878274, -0.10871476, -881351.1, -47331.477, 0.0, 9.9994545, 9.9998665 
1.7150354e+3, 2.2489403e+2, -851956.2, -949668.56, -26582.133, -0.013655263, -0.09818693, -845192.75, -109164.516, 0.0, 9.999827, 9.998585 
1.7150427e+3, 2.3489283e+2, -608787.7, -763508.75, -41577.098, 0.043323305, -0.12225381, -598322.8, 39721.266, 0.0, 10.000762, 9.998727 
1.7150493e+3, 2.4489237e+2, -446399.7, -509707.0, -94818.11, 0.08705654, -0.08884898, -378091.22, 161956.6, 0.0, 10.00067, 9.999844 
1.7150554e+3, 2.5489253e+2, -450335.72, -444308.44, -47918.984, 0.12346937, -0.10738589, -399308.4, 42732.113, 0.0000000000058928205, 9.9999075, 9.99998 
1.715062e+3, 2.6489148e+2, -472567.16, -617890.3, 3231.8113, 0.12349201, -0.10709482, -472495.3, -128446.055, 0.0000014626683, 9.999983, 9.998092 
1.7150693e+3, 2.7488923e+2, -220491.53, -427980.5, -9078.575, 0.09896908, -0.19195677, -220095.06, 25979.42, 0.000032258973, 10.000983, 9.998229 
1.7150757e+3, 2.8488812e+2, -94214.91, -364491.5, -86222.31, 0.07026066, -0.09541584, -69051.47, 79037.06, 0.00021422842, 10.001363, 9.997825 
1.715081e+3, 2.9488808e+2, 22986.541, -222466.6, -42715.35, 0.022257304, 0.052211735, 30207.701, 80300.055, 0.0007461243, 10.001354, 9.998118 
1.715087e+3, 3.0488586e+2, 66110.79, -202112.6, 33313.64, -0.09454424, 0.035926364, 70186.45, 70186.45, 0.0017331633, 10.001468, 9.997857 
1.7150973e+3, 3.1488115e+2, 243730.4, 140682.89, 37655.082, 0.08744162, -0.28404745, 256023.6, 256023.6, 0.0030820344, 10.00157, 10.000134 
1.7249672e+3, 1.24887235e+2, -1841136.9, -1634522.4, 5718.4966, 0.25740105, 0.053374827, -1634364.3, 81734.39, 0.06177432, 9.9984, 10.001328 
1.7249693e+3, 1.3488379e+2, -1851220.1, -1884468.3, -139141.89, 0.021946672, -0.2158311, -1727712.8, -109575.23, 0.039721623, 9.999041, 9.998585 
1.724975e+3, 1.4488721e+2, -1586568.1, -1403289.8, -6519.1807, 0.043308068, 0.14772223, -1403058.1, 117045.94, 0.019743169, 9.998833, 10.001358 
1.7249839e+3, 1.5488796e+2, -1406231.5, -1214897.0, -878.5853, 0.11105999, 0.012112711, -1214893.0, 207198.47, 0.006494274, 9.999204, 10.001785 
1.7249916e+3, 1.6488834e+2, -1461234.0, -1461675.1, -6891.464, 0.098323956, -0.0004898973, -1454559.6, -130472.74, 0.001032908, 9.999314, 9.9993515 
1.7249975e+3, 1.7488784e+2, -1320600.4, -1323276.6, -2369.5488, -0.07430775, -0.03491887, -1319217.3, -93122.09, 0.00003215152, 9.999542, 9.999505 
1.7250049e+3, 1.848875e+2, -1185594.8, -1171203.6, 42302.863, -0.10380721, -0.026429527, -1135488.8, -7390.5894, 0.0, 9.999626, 9.999848 
1.7250142e+3, 1.9488741e+2, -1037349.25, -1025351.0, 30866.166, 0.01103812, -0.06851928, -999906.4, 30188.586, 0.0, 9.999887, 10.00004 
1.7250226e+3, 2.0488726e+2, -922527.8, -957392.7, -13683.275, 0.095041506, -0.065478206, -917799.0, 14295.036, 0.0, 10.000159, 9.999709 
1.7250301e+3, 2.1488686e+2, -743412.7, -802498.06, -54296.863, 0.13942996, -0.121189296, -711141.8, 122955.22, 0.0, 10.000652, 9.999854 
1.7250368e+3, 2.2488612e+2, -737631.6, -865004.06, -39815.477, 0.12295653, -0.11863897, -726209.9, 9895.256, 0.0, 10.000519, 9.998816 
1.7250428e+3, 2.3488511e+2, -733962.94, -797020.7, -18627.121, 0.028930675, -0.14677581, -728871.56, -90753.19, 0.0, 9.999823, 9.998935 
1.7250493e+3, 2.4488474e+2, -549336.7, -579039.75, -39051.37, 0.052357722, -0.10548654, -522408.1, 17713.67, 0.0, 10.000024, 9.999681 
1.7250565e+3, 2.54885e+2, -290556.9, -383020.7, -91040.65, 0.18851897, -0.10260501, -234682.06, 207433.75, 0.0000000000049057277, 10.00106, 9.999845 
1.7250635e+3, 2.6488426e+2, -273247.4, -527956.1, -14009.302, 0.21119332, -0.061268114, -272479.2, 71643.93, 0.0000011502509, 10.001389, 9.998025 
1.7250703e+3, 2.7488244e+2, -227013.84, -444253.3, -14830.815, 0.12026511, -0.089626506, -226006.03, 20139.22, 0.000029351942, 10.000989, 9.998119 
1.7250772e+3, 2.8488144e+2, -89962.94, -312822.44, -31574.979, 0.10243202, 0.0024115809, -85575.73, 62582.316, 0.00020332959, 10.001203, 9.9982395 
1.7250839e+3, 2.948811e+2, 162370.52, -107919.79, -58144.75, 0.13079607, 0.080128, 174347.84, 224510.81, 0.0007057303, 10.002141, 9.998506 
1.7250898e+3, 3.0487922e+2, 220919.28, -149924.61, 35145.277, 0.0061963056, 0.089427695, 224220.66, 224220.66, 0.0016357158, 10.002575, 9.997714 
1.7250994e+3, 3.1487468e+2, 299179.53, 79929.49, -25905.664, 0.1316542, -0.18794572, 302198.88, 302198.88, 0.0029145537, 10.00222, 9.999465 
1.7349678e+3, 1.2487769e+2, -1872896.5, -1707828.5, 83617.3, 0.40597028, -0.027343968, -1672873.3, 43319.71, 0.06561491, 9.998463, 10.000765 
1.7349659e+3, 1.3487615e+2, -1811415.9, -1805403.4, -142727.17, -0.28364447, -0.18551321, -1665650.9, -47437.902, 0.042436883, 9.999046, 9.999129 
1.7349744e+3, 1.4487901e+2, -1606003.0, -1455129.1, -24779.965, 0.034262445, 0.12063283, -1451163.5, 69021.19, 0.021297567, 9.998892, 10.00096 
1.7349815e+3, 1.5487851e+2, -1420216.4, -1243472.3, 21927.313, -0.07071489, -0.120335646, -1240792.5, 181391.27, 0.0071235094, 9.9992075, 10.001581 
1.7349894e+3, 1.6487898e+2, -1405273.9, -1374930.5, -15676.018, -0.10058084, -0.13927314, -1368286.8, -44110.28, 0.0011691477, 9.999427, 9.999897 
1.7349978e+3, 1.7487966e+2, -1284326.9, -1254436.5, 16613.99, -0.023075242, -0.106966496, -1247034.8, -20864.303, 0.00004011834, 9.999558, 9.999974 
1.735006e+3, 1.8487953e+2, -1185999.1, -1170991.0, 32370.242, -0.0058727297, -0.10034331, -1145266.4, -17096.506, 0.0, 9.999626, 9.999846 
1.7350137e+3, 1.9487877e+2, -1061726.4, -1038803.56, 50423.766, -0.051105164, -0.21157108, -998555.0, 31618.443, 0.0, 9.99973, 10.000021 
1.7350224e+3, 2.048784e+2, -998618.5, -1074556.5, -11102.884, 0.019456925, -0.1938481, -997028.5, -64851.69, 0.0, 9.999979, 9.998991 
1.7350319e+3, 2.1487814e+2, -821799.4, -924838.56, -21948.512, 0.23203887, -0.16555367, -817318.94, 16863.906, 0.0, 10.000474, 9.999099 
1.7350389e+3, 2.2487822e+2, -703575.7, -731519.94, -80774.625, 0.25633153, -0.09736397, -635573.6, 100609.53, 0.0, 10.00025, 9.99986 
1.7350435e+3, 2.3487867e+2, -688790.25, -653412.56, -29039.453, 0.09855593, -0.089013, -637098.7, 1078.4481, 0.0, 9.9995985, 10.00003 
1.7350496e+3, 2.4487829e+2, -668447.3, -749729.75, -12491.28, 0.0567335, -0.054656092, -666571.0, -126389.664, 0.0, 9.999708, 9.998659 
1.7350574e+3, 2.5487697e+2, -400794.8, -550315.3, -31524.799, 0.14484595, -0.10276794, -394419.94, 47777.31, 0.000000000000012544113, 10.000806, 9.998815 
1.7350642e+3, 2.6487616e+2, -287478.38, -480916.75, -41463.47, 0.11385025, -0.04405972, -278965.34, 65242.227, 0.0000010511417, 10.001066, 9.9985 
1.7350702e+3, 2.748759e+2, -230603.22, -386892.56, -6603.623, -0.023173884, 0.03137125, -230324.7, 15886.637, 0.000029114979, 10.000727, 9.998629 
1.735078e+3, 2.8487453e+2, -137047.78, -342370.47, -17077.854, 0.012618051, 0.062180985, -135637.02, 12588.27, 0.00019954766, 10.000905, 9.998183 
1.735087e+3, 2.9487157e+2, 107607.25, -142479.28, 1732.2863, 0.20938237, -0.11855166, 107619.25, 157872.66, 0.0006841952, 10.001802, 9.998431 
1.7350936e+3, 3.0487055e+2, 143086.28, -198539.08, 1004.4168, 0.086892456, -0.017886305, 143089.23, 143089.23, 0.0015848163, 10.002118, 9.997581 
1.7351015e+3, 3.148693e+2, 150646.77, -50962.85, 20089.22, 0.053272035, 0.032443926, 152629.05, 152629.05, 0.0028348158, 10.001514, 9.99887 
1.7449668e+3, 1.2487005e+2, -1812518.4, -1610320.1, 203983.36, 0.45584038, -0.0024559346, -1483756.8, 232511.92, 0.06957688, 9.998625, 10.001422 
1.7449647e+3, 1.3486828e+2, -1864764.1, -1838622.3, -162931.28, -0.2649494, -0.16334786, -1688238.5, -69949.266, 0.045260757, 9.9987335, 9.999055 
1.7449746e+3, 1.4487055e+2, -1631223.9, -1522608.1, -32396.51, 0.17544907, 0.10828947, -1513679.4, 6588.2866, 0.022935338, 9.998971, 10.000434 
1.7449804e+3, 1.5487008e+2, -1579583.3, -1383896.5, -57169.293, -0.057007212, -0.07646315, -1368418.9, 53850.906, 0.0078018596, 9.998399, 10.00098 
1.744988e+3, 1.6487037e+2, -1517850.4, -1367951.1, -50037.6, -0.11748157, -0.11091278, -1352783.0, -28518.969, 0.0013223152, 9.998404, 10.0004425 
1.7449981e+3, 1.7487095e+2, -1231858.8, -1162124.0, -42113.32, 0.049402583, -0.14052738, -1142317.3, 83937.61, 0.000049909977, 9.999643, 10.000572 
1.7450067e+3, 1.848711e+2, -1109373.9, -1127792.0, -16144.797, 0.09901505, -0.1407901, -1099996.4, 28254.041, 0.0000000000000006446772, 10.000129, 9.999893 
1.7450139e+3, 1.948708e+2, -1026147.25, -1016952.06, -26609.686, -0.010290875, -0.21275735, -994545.7, 35705.094, 0.0, 9.999956, 10.000049 
1.7450222e+3, 2.0487057e+2, -1023253.1, -1083972.5, -19329.93, 0.03193065, -0.18382227, -1017621.75, -85368.49, 0.0, 9.9997835, 9.999029 
1.7450319e+3, 2.1487029e+2, -920480.6, -963808.56, -3696.4258, 0.23849423, -0.16164704, -920167.56, -85908.4, 0.0, 9.999754, 9.999184 
1.7450394e+3, 2.2487028e+2, -733384.4, -729029.25, -47554.383, 0.2944004, -0.11414186, -683602.56, 52656.53, 0.0, 9.999945, 10.000039 
1.7450443e+3, 2.3487058e+2, -566445.5, -573183.2, -88549.016, 0.18524379, -0.13652319, -481201.28, 157051.4, 0.0, 10.00034, 10.000229 
1.7450505e+3, 2.4487025e+2, -543862.1, -715513.1, -24394.752, 0.13132383, -0.098149754, -540462.5, -205.41234, 0.0, 10.000713, 9.998395 
1.745058e+3, 2.54869e+2, -382822.38, -571543.44, -25977.299, 0.11994948, -0.1055177, -379311.9, 62962.742, 0.0, 10.001095, 9.998518 
1.745065e+3, 2.648682e+2, -227552.44, -414286.34, -18185.92, 0.082959734, -0.04809161, -225797.8, 118487.24, 0.0000010008785, 10.00129, 9.998856 
1.7450714e+3, 2.748678e+2, -120395.37, -295484.97, -29797.271, 0.008578146, -0.021655377, -115463.305, 130824.625, 0.000030147008, 10.001292, 9.998988 
1.7450795e+3, 2.8486627e+2, -32295.857, -304830.4, 27410.53, 0.06537018, -0.020037774, -29566.344, 118735.9, 0.00019898178, 10.001654, 9.998092 
1.7450893e+3, 2.948631e+2, 165527.17, -142826.92, -6088.0337, 0.23276475, -0.21061352, 165647.31, 215980.39, 0.00068108423, 10.002269, 9.99823 
1.7450957e+3, 3.048621e+2, 174970.73, -134460.33, 7600.936, 0.11048865, -0.10760483, 175157.33, 175157.33, 0.0015910955, 10.002109, 9.998044 
1.7451037e+3, 3.148627e+2, 158454.88, -32656.504, -15464.46, 0.14833647, 0.07774172, 159698.14, 159698.14, 0.002872257, 10.001478, 9.9990225 
1.7549606e+3, 1.2486366e+2, -1652545.3, -1323364.8, 48881.316, -0.10528187, 0.07813713, -1316259.6, 400072.3, 0.07366958, 9.998713, 10.003487 
1.7549656e+3, 1.3486005e+2, -1914718.9, -1936147.8, -121430.914, -0.087993026, -0.17053588, -1803530.6, -185163.0, 0.048192136, 9.998711, 9.998392 
1.7549752e+3, 1.4486235e+2, -1653721.0, -1599305.3, -61339.926, 0.2935257, 0.15062547, -1559409.8, -39062.094, 0.024652572, 9.999091, 9.999857 
1.7549801e+3, 1.5486272e+2, -1646996.8, -1533086.6, -70278.85, 0.030934954, 0.1502037, -1499581.9, -77232.89, 0.008527423, 9.998428, 9.999949 
1.7549871e+3, 1.6486223e+2, -1475492.3, -1289766.0, -33308.957, -0.10730212, 0.070366815, -1283973.0, 40378.99, 0.0014925194, 9.998451, 10.000955 
1.7549977e+3, 1.7486164e+2, -1193184.4, -1066491.0, 17325.227, 0.016036514, -0.14370856, -1064164.5, 162184.89, 0.00006156021, 9.999588, 10.001249 
1.7550069e+3, 1.8486223e+2, -1099524.0, -1108988.5, -37468.6, 0.06591662, -0.14287154, -1066490.0, 61849.313, 0.0000000010737394, 10.000133, 10.00002 
1.7550142e+3, 1.948635e+2, -1033804.06, -1016432.5, -22718.055, 0.0037432094, -0.06416804, -1000796.44, 29530.41, 0.0, 9.999882, 10.000091 
1.7550218e+3, 2.0486371e+2, -991291.1, -984176.94, -37171.89, -0.01923865, -0.028818063, -950392.3, -18068.611, 0.0, 9.999638, 9.9997835 
1.75503e+3, 2.1486296e+2, -893136.0, -861172.4, 7684.16, 0.038883246, -0.13481072, -859421.0, -25092.113, 0.0, 9.999551, 9.999987 
1.7550376e+3, 2.2486213e+2, -818475.1, -842883.25, -46678.25, 0.097304545, -0.18113576, -782431.94, -46096.926, 0.0, 9.999678, 9.999387 
1.7550446e+3, 2.3486099e+2, -646645.06, -691085.75, -57198.41, 0.15694688, -0.27975574, -607502.56, 30841.268, 0.0, 10.000126, 9.999525 
1.7550513e+3, 2.4486057e+2, -565534.94, -693841.8, -20599.877, 0.105105296, -0.22577429, -562308.75, -21959.982, 0.0, 10.000425, 9.998682 
1.7550579e+3, 2.5486085e+2, -393457.53, -541242.56, 5325.639, -0.031295095, -0.118490934, -393265.84, 49084.625, 0.0, 10.000869, 9.998834 
1.7550653e+3, 2.6485997e+2, -255394.06, -414329.34, -36291.668, -0.040354703, -0.08718636, -247499.28, 96860.51, 0.00000094846536, 10.001037, 9.998982 
1.7550737e+3, 2.7485806e+2, -146592.42, -284773.56, -11122.871, 0.07302296, -0.23494056, -145702.83, 100672.98, 0.000030605133, 10.00102, 9.999188 
1.7550817e+3, 2.8485668e+2, -91490.64, -354092.84, 35215.758, 0.08809476, -0.22174343, -86850.1, 61538.54, 0.0002004244, 10.001337, 9.997904 
1.7550898e+3, 2.948555e+2, 94600.18, -205771.22, 38202.145, 0.01828527, -0.19475943, 99382.7, 149785.36, 0.000696978, 10.001917, 9.997961 
1.7550957e+3, 3.0485415e+2, 156505.97, -70966.94, -44518.832, -0.13215183, -0.14278749, 164908.4, 164908.4, 0.0016497148, 10.00168, 9.998678 
1.7551056e+3, 3.148551e+2, 83662.09, -19016.371, 28948.63, 0.12540285, -0.01481042, 91261.305, 91261.305, 0.0030015628, 10.000797, 9.99942 
1.7649579e+3, 1.2485449e+2, -1698643.5, -1245692.6, 39519.457, -0.19157967, -0.028723834, -1242270.5, 474151.13, 0.07790593, 9.99786, 10.004493 
1.7649648e+3, 1.3485184e+2, -1976992.4, -1989822.5, -118600.19, -0.010356981, -0.16629435, -1864633.9, -246187.63, 0.05123237, 9.998351, 9.998203 
1.7649734e+3, 1.4485392e+2, -1744182.8, -1657279.5, -23204.7, 0.23539792, 0.14540903, -1651471.6, -131043.58, 0.026445003, 9.998533, 9.999735 
1.764979e+3, 1.5485369e+2, -1577593.1, -1514919.5, -11102.41, 0.0647404, 0.103462406, -1513010.9, -90575.17, 0.009296644, 9.998996, 9.9998 
1.7649865e+3, 1.648533e+2, -1388486.0, -1248019.6, 98227.195, -0.03278969, 0.042161405, -1197499.9, 126938.53, 0.0016790463, 9.999059, 10.000935 
1.7649972e+3, 1.7485331e+2, -1302701.6, -1127777.4, 65750.1, 0.060870912, -0.11111435, -1105819.6, 120611.016, 0.000074904594, 9.998858, 10.001176 
1.7650068e+3, 1.8485406e+2, -1296815.8, -1191531.5, -4364.654, 0.114599824, -0.09556091, -1191350.9, -62931.31, 0.000000009428086, 9.998732, 10.000132 
1.7650144e+3, 1.9485523e+2, -1135215.4, -1046804.6, -17137.918, 0.0696859, -0.038035706, -1043598.75, -13190.103, 0.0, 9.999124, 10.000252 
1.7650217e+3, 2.048554e+2, -989597.56, -940371.75, -15304.679, 0.02466813, -0.03263453, -936001.44, -3596.575, 0.0, 9.999482, 10.000151 
1.7650291e+3, 2.1485461e+2, -831838.75, -789638.7, -30152.379, -0.0043513905, -0.17469051, -773936.9, 60470.637, 0.0, 9.999814, 10.00034 
1.765037e+3, 2.2485378e+2, -743894.6, -850104.3, -47328.16, 0.045123663, -0.21812499, -725865.25, 10548.339, 0.0, 10.000386, 9.998988 
1.7650452e+3, 2.3485276e+2, -502996.72, -663307.06, -74214.68, 0.15706839, -0.2647733, -473915.13, 164509.4, 0.0, 10.001304, 9.999141 
1.7650524e+3, 2.4485217e+2, -406881.38, -622537.2, -39432.867, 0.13935377, -0.21022838, -399897.22, 140534.77, 0.0, 10.001486, 9.99869 
1.7650588e+3, 2.548519e+2, -398543.7, -548115.9, -58408.004, -0.010570927, -0.15076907, -378437.97, 63998.684, 0.0, 10.000808, 9.99884 
1.7650662e+3, 2.6485097e+2, -346870.9, -457141.66, -79163.1, -0.020047642, -0.12714347, -305535.0, 38911.02, 0.0000007067664, 10.000428, 9.998969 
1.7650744e+3, 2.748493e+2, -239711.66, -331745.06, -110507.35, 0.09532241, -0.24688269, -166022.84, 80437.625, 0.000029110019, 10.000406, 9.999155 
1.7650831e+3, 2.848482e+2, -174245.55, -369997.5, -6051.955, 0.120185465, -0.21460405, -174058.61, -25587.87, 0.00020337792, 10.000678, 9.998113 
1.7650917e+3, 2.9484737e+2, 22832.451, -222547.11, -25586.63, 0.068499826, -0.15785545, 25472.068, 75951.91, 0.00072560523, 10.00136, 9.998113 
1.7650978e+3, 3.0484498e+2, 218759.83, -78172.8, -98647.1, -0.09125074, -0.20480444, 248544.73, 248544.73, 0.0017290524, 10.002246, 9.998356 
1.7651078e+3, 3.1484467e+2, 397361.44, 94478.1, -167474.39, 0.16867971, -0.15668058, 471712.25, 471712.25, 0.0031406845, 10.003063, 9.999133 
1.7749599e+3, 1.24843836e+2, -1716358.8, -1311337.0, 132129.4, 0.13517898, -0.22164461, -1272044.5, 444480.44, 0.08231803, 9.99799, 10.003973 
1.7749622e+3, 1.3484399e+2, -1954776.4, -1949366.3, -96735.42, -0.1257663, -0.12868601, -1855298.0, -236776.38, 0.054393712, 9.998365, 9.998475 
1.7749682e+3, 1.4484483e+2, -1718199.4, -1616899.9, -29889.08, -0.18795346, 0.049085822, -1608738.5, -88225.97, 0.02831169, 9.998586, 9.9999895 
1.7749767e+3, 1.5484291e+2, -1523596.0, -1406818.0, 19305.625, -0.10290344, -0.22908546, -1403709.3, 18821.332, 0.010105246, 9.999004, 10.000541 
1.7749858e+3, 1.6484362e+2, -1423215.4, -1330766.5, 74831.08, -0.041551337, -0.19874044, -1289034.3, 35488.7, 0.0018804772, 9.999105, 10.000342 
1.7749964e+3, 1.7484598e+2, -1361342.0, -1240761.3, 70273.23, 0.058839228, -0.040649697, -1208459.8, 18038.975, 0.00008970714, 9.998827, 10.000413 
1.7750058e+3, 1.8484667e+2, -1289875.9, -1182655.6, -6890.128, 0.09060388, 0.0052843313, -1182214.6, -53723.707, 0.000000028818846, 9.998751, 10.000185 
1.7750137e+3, 1.9484587e+2, -1137487.1, -1034811.44, 12518.485, 0.05760182, -0.14391688, -1033307.2, -2809.7764, 0.0, 9.999044, 10.000375 
1.7750216e+3, 2.0484547e+2, -1018109.1, -960333.56, -17380.191, 0.016770998, -0.20099726, -955508.25, -23010.129, 0.0, 9.999322, 10.000083 
1.775029e+3, 2.1484517e+2, -874987.7, -824596.4, -5837.4854, -0.01305151, -0.28798532, -823929.0, 10566.771, 0.0, 9.999588, 10.000202 
1.7750372e+3, 2.2484522e+2, -800419.3, -911429.2, -26286.074, -0.0040084417, -0.22156002, -794509.6, -58014.035, 0.0, 10.000134, 9.9986925 
1.7750458e+3, 2.3484561e+2, -546640.06, -716519.94, -23198.43, 0.0635523, -0.104167864, -543529.1, 94968.734, 0.0, 10.001123, 9.998869 
1.7750537e+3, 2.4484463e+2, -463934.03, -668168.0, -79472.27, 0.0875822, -0.06472988, -436653.47, 103856.76, 0.0, 10.001186, 9.998513 
1.7750606e+3, 2.5484225e+2, -446226.56, -590952.1, -67182.48, 0.06238835, -0.20472205, -419847.97, 22685.201, 0.0, 10.000579, 9.998651 
1.7750672e+3, 2.648412e+2, -410502.53, -523973.47, -92015.25, 0.0059691425, -0.16793324, -359137.5, -14593.681, 0.00000032366296, 10.0001545, 9.99864 
1.7750734e+3, 2.748415e+2, -307411.25, -398393.44, -90471.66, -0.07286205, -0.054358006, -251637.55, -5095.224, 0.00002512301, 10.000112, 9.998827 
1.7750826e+3, 2.8484073e+2, -197516.72, -347568.22, -2784.6208, -0.0141821, 0.014472341, -197465.06, -48916.176, 0.00020098852, 10.000369, 9.998418 
1.7750947e+3, 2.9483873e+2, 7754.079, -185252.77, 22200.887, 0.20979518, -0.0934703, 10274.846, 60839.72, 0.0007425487, 10.00107, 9.998506 
1.7751019e+3, 3.048346e+2, 64261.26, -300850.8, -82456.37, 0.04234767, -0.27129778, 82019.38, 82019.38, 0.0017707977, 10.001833, 9.997022 
1.7751098e+3, 3.1483334e+2, 221106.17, -72237.2, -55701.49, 0.00046940154, -0.17775762, 231326.94, 231326.94, 0.0031853206, 10.00227, 9.998338 
1.7849596e+3, 1.2483698e+2, -1669740.3, -1400422.0, 261022.5, 0.2721633, -0.11422684, -1241370.8, 475220.56, 0.08696164, 9.998943, 10.002845 
1.7849614e+3, 1.3483652e+2, -1808266.9, -1840563.6, -64468.297, -0.08627799, -0.11165573, -1757955.3, -139361.67, 0.057701517, 9.999274, 9.998756 
1.7849667e+3, 1.4483672e+2, -1650554.0, -1602932.0, 43651.566, -0.20597556, 0.00076664845, -1577019.5, -56430.14, 0.030258754, 9.999141, 9.999814 
1.7849764e+3, 1.5483424e+2, -1439596.8, -1383490.4, -1255.2916, -0.050151803, -0.32208163, -1383462.3, 39148.945, 0.0109521225, 9.999642, 10.000398 
1.7849857e+3, 1.6483489e+2, -1374643.8, -1347168.8, 28889.285, 0.01488718, -0.2751566, -1328917.0, -4313.0923, 0.0020959692, 9.999604, 9.999991 
1.784995e+3, 1.748373e+2, -1321722.8, -1258909.4, 14250.573, 0.041678656, -0.07667402, -1255827.6, -29246.854, 0.000105867584, 9.999273, 10.000068 
1.7850046e+3, 1.8483777e+2, -1230214.0, -1163958.0, 4737.8174, 0.084237814, -0.029100535, -1163620.9, -35045.113, 0.0000000562377, 9.9992, 10.000103 
1.7850135e+3, 1.9483668e+2, -1050337.5, -998602.9, -13783.529, 0.11511336, -0.20533675, -995159.7, 35425.6, 0.0, 9.999652, 10.000333 
1.785022e+3, 2.0483623e+2, -938235.25, -927698.56, -30069.91, 0.11301745, -0.26207352, -902438.94, 30147.455, 0.0, 9.99988, 10.0000515 
1.7850296e+3, 2.1483617e+2, -806801.2, -796620.2, -43242.594, 0.07506545, -0.32153043, -758169.5, 76412.445, 0.0, 10.000057, 10.000183 
1.7850377e+3, 2.2483641e+2, -796927.2, -905362.9, -6382.628, 0.03661016, -0.23237015, -796552.8, -59972.24, 0.0, 10.000149, 9.99873 
1.7850457e+3, 2.348371e+2, -681834.25, -777866.25, -14352.965, -0.0027075442, -0.08742067, -679734.94, -41153.31, 0.0, 10.000194, 9.998897 
1.785054e+3, 2.4483635e+2, -543164.0, -671293.7, -36782.086, 0.04927498, -0.039898496, -533355.8, 7235.9214, 0.0, 10.000513, 9.998799 
1.7850626e+3, 2.5483403e+2, -339661.88, -508446.0, -23476.264, 0.17800339, -0.20057087, -336457.4, 106154.5, 0.0, 10.001194, 9.998909 
1.7850694e+3, 2.6483276e+2, -212318.7, -481186.25, -5466.8677, 0.15144613, -0.17528476, -212207.6, 132416.55, 0.00000018370703, 10.00171, 9.998202 
1.7850746e+3, 2.7483237e+2, -51484.703, -341054.9, -42927.543, -0.05997784, -0.080579326, -45254.906, 201375.7, 0.000020759246, 10.002089, 9.998305 
1.7850837e+3, 2.848312e+2, 29507.03, -254679.27, 62178.797, -0.012709316, -0.016556095, 42515.996, 191158.1, 0.0001926232, 10.002019, 9.998247 
1.7850971e+3, 2.9482934e+2, 71843.21, -174853.23, -1798.1592, 0.32364678, -0.08984249, 71856.32, 122513.51, 0.00073852565, 10.001602, 9.998313 
1.7851047e+3, 3.048253e+2, 16188.096, -334604.28, -35411.34, 0.17790967, -0.24239017, 19727.05, 19727.05, 0.001755, 10.001553, 9.996923 
1.785112e+3, 3.1482354e+2, 121587.11, -126815.71, -2408.828, 0.059379257, -0.17612372, 121610.47, 121610.47, 0.0031042786, 10.001577, 9.998318 
1.7949557e+3, 1.2483202e+2, -1770758.3, -1643950.6, 135784.81, -0.0928899, 0.08296044, -1557496.0, 159143.27, 0.09190124, 9.999092, 10.000967 
1.7949612e+3, 1.3482931e+2, -1768153.9, -1785789.5, -61325.47, -0.076316245, -0.1371845, -1715015.5, -96352.5, 0.06119029, 9.999367, 9.999103 
1.7949687e+3, 1.4482974e+2, -1696079.3, -1709639.9, 34974.04, 0.030761251, 0.0042442232, -1667234.3, -146576.81, 0.03230053, 9.999202, 9.999049 
1.794978e+3, 1.5482776e+2, -1520736.6, -1543646.8, 29720.262, 0.105941154, -0.16469097, -1500340.3, -77663.195, 0.011841973, 9.9996195, 9.999301 
1.7949855e+3, 1.6482711e+2, -1372184.4, -1361951.6, -3604.267, -0.009180703, -0.178062, -1360809.5, -36127.66, 0.0023264778, 9.999675, 9.999864 
1.7949933e+3, 1.7482714e+2, -1317495.6, -1255157.5, 11092.247, -0.10743282, -0.21706574, -1253242.6, -26564.438, 0.00012352158, 9.999282, 10.000098 
1.7950027e+3, 1.8482725e+2, -1239951.6, -1188943.0, 2984.6409, -0.05569265, -0.20147678, -1188769.0, -60093.387, 0.000000085167756, 9.999226, 9.999915 
1.7950134e+3, 1.9482751e+2, -1085698.6, -1046147.1, 11530.567, 0.112271346, -0.21684743, -1043031.1, -12357.85, 0.0, 9.999545, 10.000056 
1.7950226e+3, 2.0482768e+2, -956260.56, -930048.9, -40700.824, 0.16146132, -0.20041578, -900395.9, 32273.764, 0.0, 9.999722, 10.000115 
1.7950305e+3, 2.1482764e+2, -826464.0, -796857.56, -23421.152, 0.1343243, -0.2666021, -783953.6, 50712.094, 0.0, 9.999874, 10.000276 
1.795038e+3, 2.248274e+2, -820150.44, -891458.25, -19132.848, 0.02779045, -0.24433263, -815341.2, -78672.47, 0.0, 9.999882, 9.998954 
1.7950445e+3, 2.3482703e+2, -702761.3, -762452.4, 3165.7043, -0.16278222, -0.22718874, -702593.9, -63915.97, 0.0, 9.999943, 9.999121 
1.795053e+3, 2.4482702e+2, -544326.9, -601855.4, -23514.238, -0.11928208, -0.14992239, -535938.7, 4740.5757, 0.0, 10.000207, 9.999424 
1.7950642e+3, 2.548272e+2, -331976.8, -430935.6, 16846.205, 0.20464052, -0.12526192, -329187.63, 113486.11, 0.0, 10.000941, 9.999557 
1.7950726e+3, 2.6482555e+2, -297745.5, -588917.5, -6654.4253, 0.2609474, -0.14158653, -297593.5, 47095.234, 0.00000013255313, 10.001409, 9.99761 
1.7950773e+3, 2.7482197e+2, -132607.39, -438258.06, -13159.872, -0.006582282, -0.31375358, -132041.83, 114683.53, 0.0000188634, 10.001802, 9.997765 
1.7950858e+3, 2.8481987e+2, -72914.64, -396065.94, 27185.719, -0.04217436, -0.27422217, -70643.55, 78104.29, 0.00018772867, 10.001701, 9.997435 
1.7950982e+3, 2.948194e+2, -35445.156, -307260.44, 12785.759, 0.23319694, -0.12841737, -34845.06, 15910.172, 0.00073078944, 10.001225, 9.997579 
1.795106e+3, 3.0481708e+2, -5523.7007, -277336.78, -51852.12, 0.10977662, -0.10755816, 4031.8848, 4031.8848, 0.0017134675, 10.001098, 9.997545 
1.7951135e+3, 3.1481543e+2, 111643.81, -2741.8557, 72402.39, -0.007859926, -0.11299182, 146717.58, 146717.58, 0.0029593005, 10.000998, 9.999428 
1.8049537e+3, 1.248235e+2, -2110251.3, -1859732.4, 101764.92, -0.08829728, 0.080716915, -1823604.0, -106882.53, 0.097200245, 9.99703, 10.000399 
1.8049611e+3, 1.3482131e+2, -1771627.1, -1698853.9, -123493.82, 0.0118122315, -0.15490782, -1606497.6, 12241.165, 0.06490086, 9.998964, 9.9999 
1.8049693e+3, 1.4482129e+2, -1649621.5, -1719421.5, 24541.855, 0.16147149, -0.09036419, -1641856.4, -121118.75, 0.034457777, 9.999643, 9.998772 
1.8049787e+3, 1.5482064e+2, -1472341.1, -1557392.3, 45223.965, 0.19766715, -0.09453196, -1452789.1, -30043.217, 0.0127833225, 10.000107, 9.998969 
1.8049857e+3, 1.6481976e+2, -1330547.8, -1383640.8, 44597.246, 0.03416687, -0.09439339, -1305194.0, 19559.51, 0.0025744103, 10.000152, 9.999484 
1.804993e+3, 1.7481841e+2, -1240636.1, -1252218.6, 433.34476, -0.08296085, -0.23839891, -1240619.9, -13856.828, 0.00014305822, 9.99997, 9.999775 
1.8050025e+3, 1.8481791e+2, -1187681.4, -1202649.9, 14731.026, -0.009707341, -0.24931595, -1178642.4, -49876.05, 0.00000010953618, 9.999742, 9.999576 
1.8050136e+3, 1.9481835e+2, -1089088.8, -1083699.6, -11842.382, 0.16552567, -0.21598855, -1074249.1, -43485.95, 0.0, 9.99968, 9.999733 
1.8050227e+3, 2.0481867e+2, -963977.56, -952224.5, -40284.355, 0.20022586, -0.16006641, -917390.3, 15369.256, 0.0, 9.999748, 9.999958 
1.8050303e+3, 2.1481882e+2, -808746.0, -802216.94, -70016.734, 0.122059226, -0.1896671, -735388.7, 99367.21, 0.0, 10.000064, 10.000147 
1.8050379e+3, 2.2481851e+2, -768217.6, -819085.75, -56735.32, 0.03445701, -0.18823779, -731476.25, 5282.6045, 0.0, 10.000048, 9.999357 
1.805045e+3, 2.348177e+2, -691327.5, -713425.9, -52265.33, -0.08748145, -0.25280398, -648956.2, -10187.325, 0.0, 9.999841, 9.999497 
1.805054e+3, 2.4481753e+2, -565368.0, -623698.7, -43598.51, -0.045953054, -0.20793898, -542079.1, -1308.7504, 0.0, 10.00008, 9.999363 
1.8050647e+3, 2.5481778e+2, -370453.2, -465263.2, -85794.1, 0.18305339, -0.1594594, -319838.47, 122926.195, 0.0, 10.000705, 9.999469 
1.8050738e+3, 2.6481625e+2, -324260.75, -600847.6, -95463.51, 0.25436088, -0.15802032, -294511.47, 50267.723, 0.00000007008213, 10.001239, 9.9976 
1.8050802e+3, 2.7481276e+2, -140461.27, -453412.22, -102842.42, 0.10259253, -0.31355587, -109690.54, 137125.1, 0.000018211349, 10.00179, 9.997673 
1.8050884e+3, 2.8481063e+2, -61987.137, -383736.66, -15226.652, 0.056585666, -0.2757816, -61268.15, 87571.23, 0.00018396281, 10.0017395, 9.9975 
1.8050985e+3, 2.9480994e+2, -29178.25, -300791.16, -13538.9375, 0.16498321, -0.15122142, -28505.05, 22344.861, 0.0007176876, 10.001242, 9.997622 
1.805107e+3, 3.0480835e+2, 106700.41, -180560.86, 27149.87, 0.094412796, -0.07386316, 109243.9, 109243.9, 0.0016608936, 10.001708, 9.997903 
1.8051171e+3, 3.148076e+2, 397458.8, 146931.27, 31153.402, 0.17663507, -0.0047032316, 401274.66, 401274.66, 0.0028185374, 10.002815, 9.99963 
1.8149523e+3, 1.24811105e+2, -2048164.4, -1761527.8, 217894.34, -0.013363726, -0.1475187, -1644043.3, 72797.92, 0.10291468, 9.997131, 10.001079 
1.8149608e+3, 1.3481238e+2, -1689038.0, -1530072.6, -56641.547, 0.04722514, -0.16215979, -1511955.4, 106866.8, 0.06887483, 9.998949, 10.001112 
1.8149681e+3, 1.4481117e+2, -1610594.8, -1650687.5, 14868.885, 0.022309568, -0.29901087, -1605682.4, -84850.47, 0.036753505, 9.99969, 9.999224 
1.814978e+3, 1.5481272e+2, -1432182.4, -1480749.8, 76620.016, 0.088723265, -0.12808494, -1376089.9, 46729.203, 0.01378539, 10.000131, 9.999491 
1.8149857e+3, 1.6481285e+2, -1365016.1, -1470568.5, 20943.008, -0.020445185, -0.029787352, -1361012.6, -36193.656, 0.002842686, 10.000218, 9.998853 
1.8149942e+3, 1.7481108e+2, -1299328.8, -1371440.5, 5337.777, 0.0038240643, -0.13928679, -1298935.8, -72100.23, 0.00016504708, 9.999951, 9.998969 
1.8150036e+3, 1.8480985e+2, -1218174.9, -1265123.8, -5245.98, 0.08855731, -0.16198187, -1217595.9, -88748.12, 0.00000012908751, 9.999738, 9.999149 
1.8150133e+3, 1.9480918e+2, -1124108.1, -1141329.5, -2864.9797, 0.1529175, -0.19641781, -1123644.0, -92789.36, 0.0, 9.999615, 9.99937 
1.8150215e+3, 2.0480914e+2, -1016587.94, -1023850.4, -42862.504, 0.085305676, -0.14073546, -977203.1, -44346.785, 0.0, 9.999593, 9.999538 
1.8150286e+3, 2.1480958e+2, -871806.56, -881560.2, -43699.51, -0.07503615, -0.099329665, -832712.56, 2140.9343, 0.0, 9.999844, 9.999706 
1.8150371e+3, 2.2480962e+2, -776897.44, -769637.06, -78032.32, -0.078512095, -0.0656337, -695150.5, 41701.984, 0.0, 9.999756, 9.99984 
1.815047e+3, 2.3480913e+2, -691653.7, -659829.7, -45312.17, 0.09051854, -0.14831935, -627716.9, 11137.408, 0.0, 9.999607, 9.999978 
1.8150558e+3, 2.4480781e+2, -664865.06, -765300.9, -31794.219, 0.108024165, -0.19691241, -655646.4, -114781.06, 0.0, 9.999802, 9.998522 
1.8150637e+3, 2.5480568e+2, -456502.38, -591427.7, -44702.688, -0.011714894, -0.31448433, -443035.8, -150.1728, 0.0, 10.0004835, 9.998701 
1.8150726e+3, 2.6480472e+2, -345553.9, -574685.75, -88021.31, -0.008421921, -0.23591243, -315644.56, 29252.295, 0.0000000874347, 10.000934, 9.997927 
1.8150824e+3, 2.7480474e+2, -162198.13, -421622.6, -59859.535, 0.123286426, -0.07906502, -149052.28, 97848.7, 0.00001648955, 10.001478, 9.99803 
1.8150908e+3, 2.848035e+2, -63802.477, -314470.0, -50911.133, 0.09731943, 0.000078376936, -53856.914, 95058.49, 0.00017264257, 10.001413, 9.998137 
1.8150981e+3, 2.9480094e+2, -13113.497, -209174.83, -7156.679, -0.05614598, -0.14485283, -12852.609, 38087.855, 0.00068283465, 10.000983, 9.998375 
1.8151075e+3, 3.0479923e+2, 31033.242, -245721.47, 49443.39, -0.08029348, -0.108913094, 39601.254, 39601.254, 0.0015899244, 10.001327, 9.997634 
1.8151204e+3, 3.147978e+2, 265246.3, 83841.95, 111039.41, 0.15721445, -0.089997716, 317919.97, 317919.97, 0.0027097075, 10.0019865, 9.999551 
1.824951e+3, 1.2479981e+2, -2090859.6, -1804945.9, 295352.94, 0.18008812, -0.23524232, -1619771.6, 97177.945, 0.10907774, 9.996943, 10.000866 
1.8249592e+3, 1.3480318e+2, -1638966.8, -1450936.8, -80835.414, 0.009374581, -0.09922873, -1420963.1, 197947.69, 0.07313931, 9.999002, 10.00168 
1.824968e+3, 1.4480074e+2, -1587509.8, -1572501.0, -53870.47, 0.06076576, -0.42220402, -1525614.8, -4682.248, 0.039204508, 9.999589, 9.999799 
1.8249778e+3, 1.5480348e+2, -1523035.6, -1474868.5, -30917.836, 0.10193105, -0.17710142, -1459761.1, -36853.844, 0.014855209, 9.9993105, 9.999918 
1.8249857e+3, 1.6480409e+2, -1451848.8, -1512077.4, -25192.947, -0.0012105255, -0.04866827, -1442700.4, -117798.08, 0.0031336718, 9.999613, 9.998858 
1.8249951e+3, 1.7480257e+2, -1180868.1, -1310546.5, -11564.478, 0.07321467, -0.13779375, -1179844.9, 47072.57, 0.00019006866, 10.000751, 9.999002 
1.8250047e+3, 1.8480134e+2, -1064464.1, -1227776.0, 13119.11, 0.16644095, -0.14297937, -1063417.0, 65513.37, 0.00000015151502, 10.000953, 9.99882 
1.8250132e+3, 1.9480035e+2, -1039358.75, -1136580.5, -13243.004, 0.14491458, -0.17592628, -1037587.1, -6645.374, 0.0, 10.000375, 9.999032 
1.825021e+3, 2.0480007e+2, -979224.7, -1019087.75, -4133.908, 0.07612474, -0.1201009, -978800.5, -45854.023, 0.0, 9.999912, 9.999398 
1.8250288e+3, 2.1480034e+2, -909478.1, -911738.3, -9430.03, -0.015459392, -0.0861899, -901110.75, -66164.945, 0.0, 9.999647, 9.999574 
1.8250377e+3, 2.2480029e+2, -767873.7, -774641.2, -11370.175, 0.015926393, -0.051526953, -759394.44, -22449.307, 0.0, 9.999839, 9.999777 
1.8250474e+3, 2.3479985e+2, -563203.44, -598678.0, -47192.19, 0.15359204, -0.12601404, -530525.3, 108419.67, 0.0, 10.000492, 9.999977 
1.8250567e+3, 2.4479842e+2, -480136.84, -703418.56, 14227.978, 0.16098858, -0.17654812, -479233.84, 61723.625, 0.0, 10.001194, 9.998262 
1.8250652e+3, 2.547959e+2, -262363.88, -527550.44, 10112.86, 0.0334824, -0.30316415, -261978.77, 181004.8, 0.0, 10.00195, 9.998418 
1.8250743e+3, 2.647951e+2, -177725.31, -448016.9, -20402.414, 0.027500317, -0.21536717, -176193.95, 168799.81, 0.00000011582431, 10.001896, 9.998334 
1.8250836e+3, 2.7479583e+2, -205914.58, -402818.1, -32718.926, 0.12710726, -0.022144763, -200620.13, 46369.676, 0.000015405387, 10.000991, 9.998406 
1.8250923e+3, 2.8479472e+2, -116242.0, -346967.5, 15124.123, 0.12664719, 0.05310502, -115254.836, 33747.65, 0.00016033727, 10.001096, 9.998065 
1.8251002e+3, 2.9479173e+2, 172089.14, -139974.55, -45344.168, 0.016980082, -0.11217144, 178544.31, 229575.72, 0.0006397898, 10.002335, 9.998207 
1.8251103e+3, 3.0478954e+2, 227293.89, -135666.25, 17807.098, 0.03029103, -0.12304729, 228165.44, 228165.44, 0.0015189088, 10.002595, 9.997785 
1.8251222e+3, 3.1478736e+2, 229717.73, 50558.047, -23410.979, 0.18567356, -0.17822137, 232726.34, 232726.34, 0.0026480635, 10.001735, 9.999493 
1.8349501e+3, 1.2479032e+2, -2150031.8, -1960997.8, 210492.55, 0.310191, -0.12689976, -1824775.5, -107735.58, 0.11569034, 9.997073, 9.999681 
1.8349561e+3, 1.3479371e+2, -1623125.1, -1438213.1, -5519.448, -0.24204284, 0.034219783, -1438048.5, 180955.97, 0.07769921, 9.999056, 10.001753 
1.8349683e+3, 1.4479011e+2, -1536352.0, -1487245.8, -85079.28, 0.08999899, -0.45190215, -1423247.5, 97790.69, 0.04181763, 9.999677, 10.00036 
1.8349774e+3, 1.547928e+2, -1503735.5, -1441367.8, -29253.004, 0.099992424, -0.24116386, -1429794.5, -6783.3975, 0.015997248, 9.99933, 10.000138 
1.8349853e+3, 1.6479342e+2, -1388862.1, -1400882.1, -3203.8237, -0.0513311, -0.15441592, -1388061.5, -63057.332, 0.0034491862, 9.999693, 9.999584 
1.8349954e+3, 1.7479265e+2, -1116638.8, -1186244.5, 40869.188, 0.0016184254, -0.25016746, -1097761.8, 129248.89, 0.00021871291, 10.000776, 9.999846 
1.835005e+3, 1.8479216e+2, -1086579.6, -1271878.3, -25261.773, 0.05999229, -0.21310666, -1083197.4, 45819.51, 0.00000018976193, 10.000951, 9.998517 
1.8350126e+3, 1.9479162e+2, -1079953.9, -1201181.3, -24549.611, 0.01549179, -0.16529338, -1075171.1, -44144.492, 0.0, 10.00029, 9.998629 
1.835021e+3, 2.0479123e+2, -986802.44, -999585.44, -30028.19, 0.028609764, -0.10749968, -962493.06, -29460.887, 0.0, 9.999757, 9.999609 
1.8350306e+3, 2.1479104e+2, -920732.75, -890473.9, -9887.11, 0.16838686, -0.14084879, -887529.75, -52496.46, 0.0, 9.9994545, 9.999812 
1.8350393e+3, 2.2479057e+2, -848339.5, -877111.25, 639.344, 0.16281536, -0.13249986, -848325.3, -111288.84, 0.0, 9.999559, 9.999211 
1.8350466e+3, 2.3478967e+2, -634229.5, -694725.06, -6404.055, -0.012381696, -0.19708058, -633559.0, 5483.9365, 0.0, 10.000272, 9.999427 
1.8350564e+3, 2.4478903e+2, -503265.44, -681328.75, 28050.86, -0.019729177, -0.15507567, -498951.03, 42098.535, 0.0, 10.000889, 9.998567 
1.8350689e+3, 2.5478852e+2, -286900.8, -510141.1, 56439.293, 0.18548639, -0.10963203, -273443.2, 169614.72, 0.0, 10.001662, 9.998678 
1.835078e+3, 2.6478755e+2, -204297.77, -438242.8, -64230.105, 0.18874602, -0.05638004, -187823.39, 157244.83, 0.000000090536304, 10.001609, 9.998541 
1.8350832e+3, 2.7478597e+2, -213528.78, -370486.94, -44371.93, -0.030097857, -0.12788567, -201853.36, 45229.223, 0.00001528185, 10.000786, 9.998724 
1.8350922e+3, 2.8478408e+2, -221542.06, -501300.0, 37970.14, -0.03362858, -0.10513367, -216480.16, -67378.07, 0.00015301339, 10.0008135, 9.997143 
1.8351048e+3, 2.9478204e+2, 57194.27, -298208.88, 28851.521, 0.20786464, -0.08352651, 59521.19, 110646.51, 0.00060731446, 10.001995, 9.997276 
1.8351151e+3, 3.0477938e+2, 158393.45, -161267.0, -30852.326, 0.21638653, -0.09438257, 161343.97, 161343.97, 0.0014671788, 10.002103, 9.997839 
1.8351206e+3, 3.1477672e+2, 112026.53, -40610.48, -26138.072, -0.20130524, -0.23126473, 116378.42, 116378.42, 0.0026243313, 10.001111, 9.999145 
1.8449491e+3, 1.2477931e+2, -1799513.4, -1843570.6, 133923.38, 0.37382343, -0.17579237, -1685819.0, 31328.129, 0.12272786, 9.999734, 9.999224 
1.8449546e+3, 1.3478415e+2, -1772899.8, -1465468.9, 26849.904, -0.23039272, 0.107144795, -1463141.5, 155957.55, 0.08254445, 9.997891, 10.002108 
1.8449678e+3, 1.447804e+2, -1772634.5, -1579760.0, -24038.486, 0.1625043, -0.4218671, -1576809.1, -55674.902, 0.04459436, 9.997933, 10.000561 
1.844977e+3, 1.5478273e+2, -1487988.5, -1414011.3, -6013.044, 0.13015045, -0.2646059, -1413525.8, 9583.317, 0.017215712, 9.999347, 10.000324 
1.8449853e+3, 1.6478352e+2, -1397947.0, -1388657.3, 19846.48, -0.0076619466, -0.17609887, -1372919.4, -47819.094, 0.0037916328, 9.999587, 9.999719 
1.8449953e+3, 1.7478317e+2, -1365556.1, -1289219.8, -21147.064, 0.0037208667, -0.24013437, -1283753.0, -56648.465, 0.00025177147, 9.9990225, 9.999981 
1.8450047e+3, 1.8478285e+2, -1339277.8, -1361378.0, -72021.336, 0.052280158, -0.20803471, -1277463.8, -148354.8, 0.00000025167606, 9.999068, 9.99881 
1.8450128e+3, 1.9478229e+2, -1100441.3, -1179143.8, -46597.75, 0.03308993, -0.19272393, -1078801.8, -47685.164, 0.0, 9.999996, 9.99892 
1.8450215e+3, 2.0478182e+2, -879546.5, -953782.75, -14802.144, 0.08249176, -0.15686801, -876703.9, 56417.83, 0.0, 10.000528, 9.999556 
1.8450314e+3, 2.147815e+2, -718179.4, -800408.7, -47056.188, 0.2325818, -0.1938811, -696806.44, 138317.22, 0.0, 10.000894, 9.999744 
1.8450403e+3, 2.2478087e+2, -625300.7, -801293.7, 9562.369, 0.23105802, -0.18346128, -624782.7, 112346.055, 0.0, 10.001235, 9.998915 
1.8450478e+3, 2.3477966e+2, -461553.6, -649329.5, -5675.905, 0.023272691, -0.24792784, -461382.2, 177757.36, 0.0, 10.001609, 9.999085 
1.8450578e+3, 2.4477917e+2, -450761.03, -640959.5, 29515.139, 0.02668382, -0.18316068, -446286.13, 94859.586, 0.0, 10.001202, 9.998679 
1.8450703e+3, 2.5477937e+2, -520274.66, -611739.75, 7974.693, 0.2538024, -0.07583495, -519584.56, -76436.91, 0.0, 10.000005, 9.998776 
1.8450797e+3, 2.647783e+2, -394095.84, -523716.88, -62660.74, 0.258254, -0.044552863, -368757.75, -23598.732, 0.00000009817215, 10.000292, 9.998584 
1.845085e+3, 2.747757e+2, -2088.9954, -266311.2, -92897.23, 0.0007217184, -0.21150668, 27302.96, 274484.53, 0.000013983738, 10.002242, 9.99873 
1.845094e+3, 2.8477377e+2, 58730.76, -340577.0, 25256.203, -0.0012007222, -0.20466118, 60321.88, 209522.98, 0.00014297603, 10.002619, 9.997385 
1.8451068e+3, 2.9477277e+2, -25282.129, -305527.84, 48605.77, 0.26043317, -0.10022958, -17091.346, 34122.95, 0.00057426473, 10.001276, 9.997585 
1.8451172e+3, 3.0477023e+2, -2424.7705, -223183.67, 88453.484, 0.29058322, -0.12389314, 28644.152, 28644.152, 0.0014121899, 10.000909, 9.998004 
1.8451221e+3, 3.147677e+2, 197604.64, 6880.0273, -33262.91, -0.1782634, -0.24587636, 203239.31, 203239.31, 0.002578712, 10.001636, 9.999231 
1.8549465e+3, 1.2476866e+2, -1760496.9, -1823509.4, -113684.25, 0.051345173, -0.20471798, -1674033.9, 43218.773, 0.13014582, 9.999961, 9.999278 
1.8549544e+3, 1.347744e+2, -1741631.5, -1410598.4, -10457.101, -0.07934512, 0.10460305, -1410268.4, 208926.8, 0.08765755, 9.997894, 10.002531 
1.8549658e+3, 1.4477146e+2, -1763957.9, -1581835.3, 14136.069, 0.11968211, -0.35091865, -1580744.6, -59522.902, 0.04753598, 9.998016, 10.000512 
1.854976e+3, 1.5477324e+2, -1469918.9, -1389651.9, 56369.293, 0.055515617, -0.25651225, -1360588.6, 62612.477, 0.01851746, 9.999398, 10.000475 
1.854985e+3, 1.6477439e+2, -1424073.5, -1460116.6, -22641.682, -0.04037882, -0.11980628, -1413156.9, -87965.914, 0.0041650403, 9.9996605, 9.999192 
1.8549943e+3, 1.7477404e+2, -1413803.6, -1387508.6, -30831.678, -0.03873979, -0.11990555, -1367138.3, -139938.3, 0.00029041685, 9.999007, 9.999316 
1.8550038e+3, 1.8477328e+2, -1272279.1, -1222417.8, -56398.92, 0.0010517573, -0.14161193, -1185685.0, -56477.027, 0.0000003514084, 9.99907, 9.999764 
1.8550134e+3, 1.9477236e+2, -1042010.1, -1035541.25, -2903.6436, 0.07195631, -0.26094592, -1034429.1, -3217.0757, 0.0, 9.999898, 9.999954 
1.8550223e+3, 2.0477183e+2, -933775.2, -1026911.6, -16834.521, 0.0870049, -0.262363, -930825.75, 2389.2031, 0.0, 10.000358, 9.999136 
1.8550308e+3, 2.1477161e+2, -780429.06, -881465.7, -20340.582, 0.069697544, -0.24753164, -776487.9, 58729.805, 0.0, 10.000688, 9.999285 
1.8550403e+3, 2.2477101e+2, -660961.0, -815970.75, 10876.984, 0.08263104, -0.21262048, -660201.5, 77022.1, 0.0, 10.00097, 9.998947 
1.8550506e+3, 2.3476985e+2, -494933.2, -666212.9, 23339.63, 0.12862986, -0.27330258, -491809.75, 147424.81, 0.0, 10.001378, 9.999085 
1.8550605e+3, 2.4476899e+2, -508759.78, -692860.0, -26770.73, 0.13859387, -0.23118246, -504945.97, 36298.324, 0.0, 10.000906, 9.998464 
1.8550694e+3, 2.5476846e+2, -564115.4, -647714.8, -21142.033, 0.124169886, -0.18551025, -559072.8, -115819.695, 0.0, 9.999778, 9.998632 
1.8550786e+3, 2.6476717e+2, -446616.97, -569441.9, -8341.578, 0.103117116, -0.15786439, -446053.03, -100786.16, 0.00000008466028, 10.000021, 9.9984 
1.8550883e+3, 2.7476493e+2, -60360.453, -317759.0, 2655.1885, 0.08378946, -0.27811003, -60333.066, 186955.22, 0.000011476472, 10.00195, 9.998514 
1.8550976e+3, 2.8476366e+2, 81292.08, -208655.95, -40556.36, 0.053027242, -0.24004476, 86858.03, 236158.17, 0.00012753508, 10.002252, 9.998471 
1.8551059e+3, 2.9476383e+2, 21501.623, -132987.03, 20378.973, 0.017570391, -0.1464465, 24144.646, 75443.69, 0.00053210376, 10.000959, 9.99892 
1.855116e+3, 3.04762e+2, -64538.715, -251073.75, 89270.47, 0.046300434, -0.17386733, -28701.447, -28701.447, 0.0013364267, 10.000479, 9.998015 
1.8551266e+3, 3.1476182e+2, 124053.055, 32070.326, 7864.1616, 0.04273359, -0.053555485, 124720.57, 124720.57, 0.002472215, 10.00091, 9.999734 
1.864945e+3, 1.24759644e+2, -2051313.6, -1996706.3, -48100.47, 0.017123159, -0.2043532, -1968700.5, -251363.75, 0.1378835, 9.998133, 9.99892 
1.8649533e+3, 1.3476475e+2, -1523124.9, -1356357.3, 7838.6006, -0.041117705, 0.0689771, -1355989.6, 263298.06, 0.09301642, 9.999695, 10.002065 
1.8649654e+3, 1.4476164e+2, -1573915.8, -1483429.6, 43719.04, 0.22666316, -0.3801104, -1465757.8, 55559.14, 0.050644647, 9.999304, 10.000572 
1.8649742e+3, 1.5476395e+2, -1691333.0, -1485459.3, 46142.15, 0.033335894, -0.24569413, -1475590.5, -52299.465, 0.01991141, 9.997837, 10.000563 
1.8649836e+3, 1.6476528e+2, -1696257.6, -1600817.8, 36377.992, -0.040405255, -0.090219885, -1588533.0, -263253.6, 0.0045744055, 9.997821, 9.999108 
1.8649943e+3, 1.747647e+2, -1323839.4, -1348203.1, 45066.31, 0.036805477, -0.111908175, -1289337.5, -62045.57, 0.0003360051, 9.999646, 9.999266 
1.8650045e+3, 1.8476395e+2, -1081606.8, -1113891.6, 32946.35, 0.10018352, -0.13949415, -1061060.8, 68239.36, 0.00000050835786, 10.00031, 9.999911 
1.8650138e+3, 1.9476332e+2, -1018478.9, -1007619.44, -8604.427, 0.121236145, -0.24533832, -1002874.75, 28425.814, 0.0, 9.999987, 10.00011 
1.8650226e+3, 2.0476283e+2, -1022862.06, -1099463.6, -19407.066, 0.10115205, -0.23935425, -1018225.9, -84922.875, 0.0, 9.999867, 9.998877 
1.8650307e+3, 2.1476221e+2, -878465.7, -962048.0, -35848.105, 0.017397907, -0.23730825, -865197.0, -29886.553, 0.0, 10.000138, 9.9990015 
1.8650404e+3, 2.2476138e+2, -784185.44, -880316.94, 16985.104, 0.048242554, -0.2076001, -781272.6, -43953.24, 0.0, 10.000155, 9.9989 
1.8650518e+3, 2.3476037e+2, -702143.3, -770144.56, -8407.101, 0.18268625, -0.2446967, -701119.3, -61789.207, 0.0, 9.999984, 9.99905 
1.8650617e+3, 2.4475968e+2, -541433.1, -674521.75, -16341.776, 0.19944681, -0.20039463, -539455.9, 1882.09, 0.0, 10.000527, 9.9987755 
1.8650694e+3, 2.5475922e+2, -239941.98, -458174.66, -395.39505, 0.0714724, -0.17579082, -239941.27, 203402.33, 0.0, 10.001861, 9.998932 
1.865079e+3, 2.6475796e+2, -180185.67, -437121.8, 71192.61, 0.06299922, -0.16311623, -161778.17, 183578.45, 0.000000065173005, 10.001829, 9.998441 
1.8650903e+3, 2.7475578e+2, -292898.56, -427753.72, 57808.004, 0.17405652, -0.2735678, -271510.34, -24131.943, 0.000009433609, 10.000336, 9.998542 
1.8650998e+3, 2.84755e+2, -187761.4, -283332.03, 30066.035, 0.17425424, -0.2159826, -179089.63, -29703.857, 0.00011541226, 10.000179, 9.998942 
1.8651071e+3, 2.9475573e+2, 134954.9, -27430.002, -9640.442, 0.025329094, -0.10442516, 135525.23, 186902.78, 0.00049646525, 10.001528, 9.999362 
1.8651167e+3, 3.0475342e+2, 157666.33, -152149.83, 67716.914, 0.0040217424, -0.20124641, 171820.64, 171820.64, 0.0012601638, 10.002026, 9.997943 
1.8651289e+3, 3.147537e+2, 238122.67, 90022.47, -127466.75, 0.17342182, -0.021471854, 311487.6, 311487.6, 0.002330116, 10.00163, 9.999792 
1.8749443e+3, 1.2475108e+2, -2095996.6, -2114678.3, -34551.06, 0.035565652, -0.35998642, -2069546.0, -352135.34, 0.14588223, 9.998232, 9.998072 
1.8749514e+3, 1.3475527e+2, -1617048.4, -1558473.6, 55451.984, -0.23777099, -0.0166586, -1525050.0, 94325.99, 0.0986057, 9.999738, 10.00053 
1.8749659e+3, 1.4475101e+2, -1551370.0, -1463115.8, -27437.133, 0.29213378, -0.51384664, -1455281.4, 66138.21, 0.053927336, 9.999405, 10.000671 
1.8749714e+3, 1.5475474e+2, -1685054.4, -1475960.9, 5669.2656, -0.0661475, -0.24007426, -1475807.3, -52427.406, 0.021407956, 9.997846, 10.000627 
1.8749808e+3, 1.6475624e+2, -1650956.9, -1520294.9, 87691.09, -0.1556258, -0.09663838, -1476273.9, -150908.2, 0.0050250688, 9.997882, 9.999633 
1.874995e+3, 1.7475514e+2, -1287423.9, -1271207.3, 126261.11, 0.09677426, -0.21880303, -1152794.4, 74585.9, 0.00038988978, 9.99963, 9.999811 
1.8750058e+3, 1.8475468e+2, -1125669.9, -1206235.9, 3315.3384, 0.17021893, -0.21394697, -1125533.8, 3853.0933, 0.000000733184, 10.000316, 9.999276 
1.8750134e+3, 1.947551e+2, -1084710.3, -1118315.5, -10593.092, 0.058665086, -0.14419557, -1081649.8, -50267.145, 0.0, 9.99988, 9.9994 
1.8750215e+3, 2.0475471e+2, -1042406.25, -1116855.6, -27746.602, -0.022061322, -0.088957414, -1033203.06, -99816.12, 0.0, 9.999755, 9.998817 
1.8750302e+3, 2.1475331e+2, -911441.8, -986339.6, -14129.839, -0.05445247, -0.15874349, -908864.8, -73463.12, 0.0, 9.999945, 9.998931 
1.8750401e+3, 2.2475208e+2, -843882.3, -940411.5, -3434.4253, -0.033868685, -0.15150748, -843760.3, -106344.93, 0.0, 9.999874, 9.998627 
1.8750508e+3, 2.347511e+2, -753185.75, -819841.94, 68.87966, 0.06295279, -0.16612224, -753185.6, -113757.97, 0.0, 9.999744, 9.998818 
1.8750611e+3, 2.447509e+2, -527731.2, -578968.9, 18541.03, 0.06289953, -0.09804075, -521725.75, 19703.709, 0.0, 10.000233, 9.99958 
1.8750705e+3, 2.5475144e+2, -219865.2, -353147.03, 67142.164, -0.039808523, -0.057689313, -191906.53, 251514.53, 0.0, 10.0015955, 9.999781 
1.8750803e+3, 2.6475057e+2, -213260.92, -442955.84, 2322.6711, -0.019765403, -0.05746689, -213237.44, 132191.25, 0.00000004605578, 10.001545, 9.998546 
1.8750905e+3, 2.7474827e+2, -320347.63, -427208.66, 21843.56, 0.13365015, -0.18961838, -316055.0, -68602.62, 0.000008319171, 10.000083, 9.9986725 
1.8751003e+3, 2.8474766e+2, -250489.2, -343753.5, 62021.45, 0.17133977, -0.112685874, -219524.84, -70065.85, 0.00010877432, 9.999875, 9.998678 
1.87511e+3, 2.9474822e+2, 56927.67, -105372.28, 69912.125, 0.11841552, 0.012936622, 82889.9, 134342.64, 0.00047256332, 10.001174, 9.998996 
1.8751185e+3, 3.0474412e+2, 77560.99, -212446.94, 32591.81, -0.05904326, -0.2304585, 81178.61, 81178.61, 0.0011935771, 10.001586, 9.997735 
1.8751305e+3, 3.147427e+2, 106904.41, -817.8039, -86727.48, 0.1009862, -0.2111551, 155134.8, 155134.8, 0.0021828366, 10.0008955, 9.999505 
1.8849449e+3, 1.2474184e+2, -1720179.5, -1909866.1, -32716.203, 0.17704518, -0.49376893, -1714695.3, 2802.7297, 0.15411249, 10.000658, 9.998327 
1.8849516e+3, 1.3474669e+2, -1801268.9, -1720577.6, 55423.62, -0.14938685, -0.034552924, -1692370.0, -72912.84, 0.10442951, 9.998767, 9.999843 
1.8849644e+3, 1.44742e+2, -1709616.1, -1598763.3, -2379.879, 0.24846664, -0.506217, -1598712.1, -77206.34, 0.057399224, 9.998622, 10.000072 
1.8849707e+3, 1.5474497e+2, -1458975.4, -1406694.6, -41912.414, -0.0041845026, -0.26998308, -1383439.0, 40036.36, 0.023018045, 9.99962, 10.000221 
1.8849804e+3, 1.6474617e+2, -1371022.0, -1373812.3, 73072.12, -0.06466329, -0.14033583, -1299331.8, 26132.154, 0.005521801, 9.999736, 9.99975 
1.8849944e+3, 1.747453e+2, -1318449.8, -1271391.5, 58250.9, 0.11566373, -0.25645214, -1232097.1, -4622.1606, 0.0004532519, 9.999335, 9.999961 
1.8850055e+3, 1.8474518e+2, -1282422.1, -1288733.8, -47767.383, 0.17077701, -0.22339009, -1237706.4, -108227.63, 0.0000010252129, 9.999276, 9.9992 
1.8850133e+3, 1.9474582e+2, -1075319.3, -1119586.5, -34909.68, 0.06372375, -0.12831098, -1056117.9, -24643.037, 0.0, 9.999966, 9.999338 
1.8850219e+3, 2.0474562e+2, -941236.5, -1051741.8, 8513.93, 0.009755373, -0.058051858, -940584.4, -7106.1445, 0.0, 10.000389, 9.998956 
1.885031e+3, 2.1474437e+2, -786391.2, -908376.06, 6303.91, 0.0008634404, -0.12289042, -786066.25, 49424.676, 0.0, 10.000726, 9.999091 
1.8850407e+3, 2.2474328e+2, -711933.44, -865610.3, 47979.98, 0.024449699, -0.116671436, -698183.7, 39319.258, 0.0, 10.000744, 9.998711 
1.8850508e+3, 2.3474227e+2, -637767.75, -759393.3, 47774.76, 0.059460953, -0.1359538, -621246.06, 18268.852, 0.0, 10.00052, 9.99886 
1.8850611e+3, 2.4474186e+2, -513082.22, -565891.7, 105377.88, 0.056876455, -0.09493538, -430851.28, 110667.055, 0.0, 10.000317, 9.999625 
1.8850715e+3, 2.547419e+2, -426739.94, -456153.6, 54575.668, -0.008589215, -0.102720134, -384924.25, 58589.734, 0.0, 10.00018, 9.999761 
1.8850817e+3, 2.6474124e+2, -356910.75, -472071.4, -40624.05, 0.0319971, -0.09842581, -344022.6, 1496.7336, 0.000000017635879, 10.000414, 9.998873 
1.8850912e+3, 2.7473995e+2, -136787.77, -293247.22, -39180.793, 0.15085435, -0.162787, -127524.5, 120008.42, 0.000007223604, 10.001183, 9.99904 
1.8851012e+3, 2.8473935e+2, -33493.94, -267571.3, 84403.11, 0.20590302, -0.08674318, -6234.535, 143304.66, 0.00010058898, 10.001516, 9.998399 
1.8851124e+3, 2.9473874e+2, 80310.99, -135114.48, 46316.652, 0.23418972, -0.049593545, 89846.99, 141391.89, 0.0004433926, 10.001511, 9.998628 
1.8851203e+3, 3.047349e+2, 159303.84, -128287.34, 49327.918, -0.039500196, -0.26837263, 167529.34, 167529.34, 0.0011175724, 10.001903, 9.9981985 
1.8851326e+3, 3.1473413e+2, 297177.94, 78280.414, -104897.64, 0.16390145, -0.2293518, 339329.13, 339329.13, 0.0020292015, 10.002233, 9.999425 
1.8949442e+3, 1.2473336e+2, -1632453.3, -1756648.4, -42130.395, -0.06278111, -0.47874284, -1619510.3, 98074.414, 0.16258536, 10.00089, 9.999304 
1.8949527e+3, 1.3473938e+2, -1784950.0, -1687174.9, 20550.514, 0.055473153, 0.051689446, -1683031.3, -63503.383, 0.110513955, 9.998756, 10.000092 
1.8949603e+3, 1.4473462e+2, -1790407.3, -1767617.9, 23015.336, -0.07385364, -0.36877123, -1753330.9, -231754.89, 0.06108175, 9.998639, 9.9989 
1.8949716e+3, 1.5473446e+2, -1530658.0, -1554331.3, 6682.357, 0.09158191, -0.34126052, -1528902.0, -105323.47, 0.024752133, 9.999619, 9.999205 
1.8949819e+3, 1.6473493e+2, -1363562.5, -1387935.6, 41497.902, 0.06284537, -0.22682272, -1332498.8, -6922.969, 0.0060684755, 9.999856, 9.999598 
1.8949927e+3, 1.7473511e+2, -1329943.5, -1294186.1, 51861.16, -0.027452419, -0.22293144, -1257208.4, -29631.871, 0.0005270964, 9.99933, 9.999808 
1.8950032e+3, 1.8473525e+2, -1235774.1, -1196613.0, -38639.176, -0.039741877, -0.18350278, -1172876.4, -43299.168, 0.0000013718216, 9.999305, 9.999813 
1.895013e+3, 1.9473565e+2, -1047039.94, -1034854.44, -803.7191, 0.00018691501, -0.17905387, -1034801.6, -3226.3843, 0.0, 9.999865, 9.999963 
1.8950227e+3, 2.0473574e+2, -941129.06, -1024611.5, 8229.239, 0.027867973, -0.12306504, -940325.56, -6750.533, 0.0, 10.000259, 9.999211 
1.8950327e+3, 2.1473545e+2, -794294.7, -882674.0, 33227.47, 0.06841534, -0.1229851, -783196.06, 52381.883, 0.0, 10.000536, 9.999362 
1.8950424e+3, 2.2473483e+2, -728282.94, -831932.25, 24279.725, 0.077848844, -0.09966626, -722877.4, 14706.1, 0.0, 10.000455, 9.999078 
1.8950513e+3, 2.3473397e+2, -645446.4, -719982.6, 56062.29, 0.034067407, -0.14655125, -615395.2, 24196.107, 0.0, 10.000285, 9.999237 
1.8950614e+3, 2.4473262e+2, -616137.0, -720521.75, 83921.82, 0.014759557, -0.17254536, -569501.7, -27898.066, 0.0, 10.000047, 9.9987 
1.8950725e+3, 2.547306e+2, -527568.25, -607849.5, 64233.824, 0.0424608, -0.2966194, -491964.22, -48341.887, 0.0, 9.999933, 9.998836 
1.8950829e+3, 2.6472983e+2, -363537.6, -420816.47, -27750.44, 0.07400236, -0.27689102, -352298.44, -6668.725, 0.0000000071100716, 10.000133, 9.999361 
1.895092e+3, 2.7473062e+2, -140160.83, -230650.42, 7010.289, 0.0855833, -0.19309863, -139620.97, 108001.336, 0.0000064443307, 10.0008955, 9.999604 
1.8951021e+3, 2.8473005e+2, -105527.94, -343132.03, 62626.523, 0.09741182, -0.1292645, -90031.78, 59596.13, 0.0000894982, 10.001188, 9.99804 
1.8951139e+3, 2.9472715e+2, -11858.955, -242445.58, 74906.93, 0.19993393, -0.2837039, 10338.08, 61993.887, 0.00040206578, 10.0011425, 9.998073 
1.895121e+3, 3.0472553e+2, 157193.75, -19216.994, 49333.535, -0.1829673, -0.29078048, 170052.64, 170052.64, 0.0010247865, 10.001447, 9.999149 
1.8951343e+3, 3.1472784e+2, 152229.34, -22643.775, 16704.541, 0.06490015, -0.058502547, 153810.72, 153810.72, 0.001871482, 10.001454, 9.999072 
1.9049424e+3, 1.2472429e+2, -1899066.5, -1681320.0, 69584.05, -0.16398156, -0.3870294, -1660982.9, 56695.633, 0.1713416, 9.998075, 10.001195 
1.9049531e+3, 1.3472888e+2, -1779195.3, -1704397.0, -148666.8, 0.23429415, -0.01936847, -1588497.4, 31134.799, 0.11689223, 9.998937, 9.999874 
1.9049571e+3, 1.4472571e+2, -1741630.5, -1783139.0, -41503.56, -0.25855565, -0.23860769, -1715981.3, -194317.66, 0.06499328, 9.999094, 9.998601 
1.9049717e+3, 1.5472446e+2, -1479279.6, -1522875.9, -8609.166, 0.14711691, -0.3276489, -1477641.1, -53962.99, 0.026617203, 9.999889, 9.999317 
1.9049828e+3, 1.6472478e+2, -1405280.5, -1393152.0, 52700.34, 0.1952015, -0.23819396, -1346168.1, -20491.377, 0.0066676727, 9.999524, 9.999719 
1.9049913e+3, 1.747253e+2, -1449066.0, -1334000.9, 53688.332, -0.05163922, -0.2123406, -1312841.4, -85168.04, 0.0006122247, 9.998457, 9.999943 
1.9050014e+3, 1.8472552e+2, -1332491.3, -1221656.0, 52404.15, -0.096700795, -0.18189462, -1200802.4, -71129.59, 0.0000017786746, 9.998555, 10.000009 
1.9050132e+3, 1.9472595e+2, -972615.0, -979381.25, 29789.037, 0.022902837, -0.18737459, -946017.56, 85652.57, 0.0, 10.000292, 10.000154 
1.9050238e+3, 2.0472617e+2, -881160.8, -963509.4, -10658.489, 0.09114874, -0.1390256, -879803.7, 53864.664, 0.0, 10.000562, 9.999467 
1.905033e+3, 2.1472597e+2, -936222.8, -923274.06, -22235.049, 0.10062443, -0.15310715, -906589.94, -70920.45, 0.0, 9.99946, 9.99959 
1.9050425e+3, 2.2472543e+2, -843680.25, -908771.4, 21591.623, 0.107704, -0.12759338, -837169.3, -99494.62, 0.0, 9.99973, 9.998909 
1.9050527e+3, 2.3472455e+2, -467047.8, -662122.06, -14788.945, 0.08284887, -0.15510544, -465933.0, 173750.56, 0.0, 10.0015955, 9.999019 
1.9050628e+3, 2.447232e+2, -368762.16, -608592.44, -10270.026, 0.07444424, -0.16584843, -368323.2, 173373.38, 0.0, 10.001806, 9.998605 
1.905073e+3, 2.5472105e+2, -468034.16, -585432.56, -2795.9443, 0.07818141, -0.29573938, -467967.63, -24250.555, 0.0, 10.000382, 9.998763 
1.905083e+3, 2.647202e+2, -359347.88, -428593.6, 15088.129, 0.09743391, -0.27435687, -356203.1, -10477.991, 0.000000016068412, 10.00018, 9.999293 
1.905093e+3, 2.747211e+2, -67468.72, -213729.61, -31641.023, 0.09067559, -0.16877823, -60917.19, 186799.83, 0.000006020835, 10.001415, 9.999493 
1.9051038e+3, 2.847203e+2, 40922.37, -256924.89, 20623.98, 0.1225524, -0.1294437, 42343.668, 192067.9, 0.00007835106, 10.002102, 9.998204 
1.905116e+3, 2.9471707e+2, 177814.0, -124066.805, 28191.607, 0.25329432, -0.33370143, 180424.14, 232178.06, 0.00035541714, 10.00233, 9.998309 
1.9051233e+3, 3.0471656e+2, 334566.63, 50566.176, 46391.152, -0.1508523, -0.23768876, 341952.47, 341952.47, 0.0009238466, 10.002745, 9.999008 
1.9051377e+3, 3.1471726e+2, 366402.25, -9836.739, -126283.484, 0.18659228, -0.13444573, 404858.25, 404858.25, 0.0017193621, 10.00323, 9.998353 
1.9149412e+3, 1.2471503e+2, -1746708.3, -1376808.3, 297556.84, -0.16585155, -0.18886074, -1211406.1, 506369.44, 0.18042894, 9.998053, 10.003793 
1.9149527e+3, 1.3471468e+2, -1831908.9, -1815757.8, -139736.11, 0.26193696, -0.28340653, -1683864.1, -64088.668, 0.12358676, 9.998947, 9.9990835 
1.9149546e+3, 1.4471492e+2, -1666326.9, -1665516.0, -36581.46, -0.48556128, -0.12977836, -1629337.8, -107565.66, 0.069141634, 9.999256, 9.999332 
1.9149707e+3, 1.5471496e+2, -1383262.9, -1324447.6, 28394.875, 0.018627718, -0.2201222, -1312976.5, 110797.11, 0.028615344, 9.999894, 10.000695 
1.9149825e+3, 1.6471593e+2, -1363728.3, -1329593.6, -4657.521, 0.1669061, -0.16171777, -1328969.6, -3204.5986, 0.0073205116, 9.999619, 10.000107 
1.9149897e+3, 1.7471597e+2, -1433811.0, -1294655.0, 22031.54, -0.08953813, -0.21367407, -1291250.3, -63485.69, 0.00070924795, 9.998428, 10.00022 
1.9149998e+3, 1.8471605e+2, -1347481.3, -1263152.4, 95564.46, -0.153898, -0.19694427, -1200864.0, -71099.38, 0.0000023137907, 9.998589, 9.999714 
1.9150135e+3, 1.9471678e+2, -1006462.7, -1024132.2, 105490.72, 0.014338084, -0.14347678, -909437.44, 122321.6, 0.0, 10.000182, 9.999899 
1.9150242e+3, 2.0471683e+2, -894872.9, -960577.0, -64196.914, 0.05079288, -0.10639601, -855610.44, 78148.32, 0.0, 10.000417, 9.999558 
1.9150312e+3, 2.1471588e+2, -954755.25, -917130.4, -53736.92, -0.032058645, -0.20936455, -879008.06, -43241.527, 0.0, 9.999264, 9.999724 
1.9150412e+3, 2.24715e+2, -932595.56, -1028404.94, 76604.53, -0.0247243, -0.19316272, -890150.3, -152373.39, 0.0, 9.999447, 9.998229 
1.9150546e+3, 2.3471418e+2, -556520.94, -782198.56, 70778.27, 0.08976507, -0.14108106, -536160.06, 103629.93, 0.0, 10.0013275, 9.998321 
1.9150649e+3, 2.4471356e+2, -368546.63, -540882.6, -74159.51, 0.08131739, -0.071547285, -341028.4, 200769.05, 0.0, 10.00151, 9.999216 
1.9150724e+3, 2.547131e+2, -454273.06, -501479.56, -40459.14, -0.04303662, -0.101270266, -431035.56, 12763.676, 0.0, 10.000147, 9.999451 
1.915082e+3, 2.6471242e+2, -446213.16, -546776.8, 39792.33, -0.06428521, -0.06545371, -432372.5, -86567.47, 0.000000038925435, 9.999905, 9.99862 
1.915094e+3, 2.747115e+2, -158394.3, -338426.4, 31582.926, 0.014403245, -0.0735914, -153014.48, 94801.984, 0.0000054500297, 10.001147, 9.998764 
1.915106e+3, 2.8471017e+2, 34105.906, -197371.06, 10572.755, 0.09160256, -0.07499198, 34587.816, 184416.14, 0.00006657065, 10.001787, 9.998766 
1.9151182e+3, 2.9470834e+2, 161218.19, -65414.17, 59380.08, 0.22213338, -0.2018608, 175833.83, 227675.23, 0.0003045757, 10.00194, 9.998899 
1.9151263e+3, 3.0470803e+2, 182733.44, -170207.89, 39988.723, -0.15644525, -0.0503349, 187207.5, 187207.5, 0.0008128925, 10.002336, 9.99768 
1.9151393e+3, 3.1470448e+2, 183056.17, -187593.44, -6430.4155, -0.023932014, -0.26192307, 183167.7, 183167.7, 0.0015555569, 10.002421, 9.997484 
1.9249399e+3, 1.2470586e+2, -1997575.6, -1453159.4, 301823.75, 0.018366335, 0.071116604, -1318925.8, 398939.22, 0.18987963, 9.996046, 10.00421 
1.9249515e+3, 1.3470155e+2, -1736215.0, -1711380.0, -74579.09, 0.24661893, -0.47831675, -1648191.8, -28288.043, 0.13060497, 9.999325, 9.999632 
1.9249554e+3, 1.4470516e+2, -1590007.6, -1588701.5, 49051.727, -0.33211347, -0.034588367, -1540298.5, -18430.324, 0.07352615, 9.999634, 9.999661 
1.9249693e+3, 1.5470515e+2, -1613115.9, -1387816.0, 11795.345, -0.0175249, -0.16823302, -1387200.1, 36670.8, 0.030745408, 9.998127, 10.001089 
1.9249806e+3, 1.6470583e+2, -1583994.0, -1416506.3, -18345.025, 0.100956686, -0.16848347, -1414520.4, -88654.9, 0.008026891, 9.998031, 10.00027 
1.9249889e+3, 1.7470634e+2, -1215996.6, -1175480.5, -29096.098, -0.067320995, -0.18921198, -1160284.8, 67574.875, 0.0008187495, 9.999857, 10.000356 
1.9249997e+3, 1.8470657e+2, -1129927.0, -1155528.1, 80656.414, -0.08278624, -0.16653721, -1061061.8, 68795.055, 0.0000031359323, 10.000038, 9.999763 
1.9250132e+3, 1.947067e+2, -1201513.0, -1112107.1, 90047.27, 0.039519522, -0.18451859, -1056277.1, -24421.828, 0.0, 9.998776, 9.999977 
1.9250241e+3, 2.0470649e+2, -1111468.8, -1076837.5, -37745.598, 0.077579044, -0.17469521, -1052625.3, -118768.18, 0.0, 9.998979, 9.999457 
1.9250318e+3, 2.1470581e+2, -693183.9, -804989.56, -70161.39, 0.011850164, -0.23638655, -659377.5, 176486.22, 0.0, 10.001118, 9.999607 
1.9250423e+3, 2.2470514e+2, -593297.4, -861120.06, 102926.57, 0.01807181, -0.19186077, -558311.9, 179561.06, 0.0, 10.001795, 9.998232 
1.9250554e+3, 2.3470433e+2, -611385.44, -805311.0, 115375.2, 0.073994346, -0.13912237, -557639.2, 82247.32, 0.0, 10.000954, 9.998336 
1.9250661e+3, 2.4470381e+2, -447284.2, -586548.5, -23627.383, 0.07281294, -0.05986424, -443384.78, 98508.766, 0.0, 10.000974, 9.999171 
1.9250737e+3, 2.547037e+2, -180502.4, -384061.63, -71732.7, -0.008253178, -0.04383523, -157764.27, 286128.25, 0.0, 10.002058, 9.999357 
1.9250835e+3, 2.6470283e+2, -120744.35, -428230.2, 41051.7, -0.01638137, -0.008452728, -115357.99, 230542.64, 0.000000047147957, 10.002321, 9.998262 
1.9250953e+3, 2.7470085e+2, -98492.23, -349580.6, 20320.395, 0.011560373, -0.0843003, -96858.34, 151063.45, 0.0000044268, 10.001738, 9.9984 
1.9251074e+3, 2.8469932e+2, -20304.605, -195901.02, 23014.377, 0.08887074, -0.098743714, -17338.355, 132597.02, 0.000054025306, 10.001313, 9.998991 
1.92512e+3, 2.9469848e+2, 82922.34, -87857.945, 1377.119, 0.2453447, -0.14219525, 82933.45, 134872.31, 0.0002523606, 10.001313, 9.999051 
1.9251294e+3, 3.046972e+2, 131462.97, -224040.27, 92337.016, -0.055023957, -0.08541632, 154015.52, 154015.52, 0.0006949562, 10.002098, 9.997425 
1.9251426e+3, 3.146945e+2, 390776.47, -54342.2, 59129.12, 0.023173008, -0.1740774, 398497.2, 398497.2, 0.0013694268, 10.003622, 9.997855 
1.9349356e+3, 1.2469168e+2, -2097046.6, -1657942.8, -107643.83, -0.10018247, -0.1027112, -1632974.3, 85022.34, 0.1997211, 9.996154, 10.0023575 
1.9349486e+3, 1.3468926e+2, -1604461.3, -1450570.9, 23584.86, -0.015113556, -0.62822056, -1447037.5, 172982.03, 0.13795441, 9.99929, 10.001623 
1.9349591e+3, 1.446968e+2, -1575925.0, -1589485.1, -25515.99, 0.009487912, 0.08850469, -1556303.6, -34356.03, 0.07814733, 9.999749, 9.999605 
1.934967e+3, 1.5469508e+2, -1652905.3, -1481461.6, -34173.813, -0.08459637, -0.15961364, -1474900.8, -50931.016, 0.033007, 9.998166, 10.000427 
1.9349764e+3, 1.646943e+2, -1570146.8, -1410647.1, 29622.621, -0.16942097, -0.26735723, -1405323.3, -79343.25, 0.008786739, 9.998121, 10.000274 
1.9349886e+3, 1.7469631e+2, -1209168.6, -1165485.0, 49307.535, -0.10735342, -0.14320792, -1133398.3, 94561.51, 0.00094156526, 9.999869, 10.000425 
1.9350004e+3, 1.8469709e+2, -1089579.8, -1080695.4, 20245.078, -0.05286515, -0.09411531, -1064410.9, 65538.68, 0.0000044945964, 10.000076, 10.000257 
1.9350116e+3, 1.9469586e+2, -1185356.9, -1057376.6, 54055.38, -0.02796161, -0.29330048, -1037600.9, -5643.5327, 0.0, 9.998681, 10.000402 
1.9350228e+3, 2.0469534e+2, -1156039.1, -1134135.6, 22682.537, 0.012742232, -0.3199712, -1119899.4, -185937.58, 0.0, 9.998825, 9.99914 
1.9350341e+3, 2.1469583e+2, -755196.4, -875639.1, 22184.145, 0.10579069, -0.22813758, -751240.25, 84720.18, 0.0, 10.000875, 9.999236 
1.9350448e+3, 2.2469574e+2, -600434.7, -798194.44, 60237.77, 0.072863266, -0.13578258, -583531.06, 154433.17, 0.0, 10.001462, 9.998823 
1.9350548e+3, 2.3469487e+2, -603086.6, -731018.94, 97900.57, -0.10042164, -0.15143035, -550107.5, 89867.016, 0.0, 10.0007105, 9.998961 
1.9350654e+3, 2.4469392e+2, -539796.7, -711631.7, -1107.246, -0.11982043, -0.11137784, -539789.56, 2195.866, 0.0, 10.000682, 9.998458 
1.9350766e+3, 2.5469285e+2, -268723.97, -509178.47, -16922.451, 0.054350857, -0.117190234, -267538.84, 176458.48, 0.0, 10.001816, 9.998613 
1.9350871e+3, 2.646913e+2, -179697.92, -473015.1, 4066.8809, 0.08774643, -0.10580011, -179641.55, 166371.48, 0.00000001782158, 10.001997, 9.998107 
1.9350965e+3, 2.7468905e+2, -151656.08, -384061.47, 13812.99, -0.05706506, -0.192484, -150837.98, 97195.84, 0.0000033385966, 10.001437, 9.998295 
1.9351076e+3, 2.8468788e+2, -75567.02, -250538.95, -3999.0557, -0.0627878, -0.15832965, -75475.67, 74568.57, 0.00004416703, 10.001041, 9.9987545 
1.9351207e+3, 2.9468757e+2, 28664.74, -125148.24, 20632.668, 0.13741992, -0.13287462, 31384.346, 83430.08, 0.00021030588, 10.001002, 9.9989395 
1.935132e+3, 3.0468437e+2, 105060.24, -184328.9, 125810.43, -0.050648447, -0.2878658, 152107.11, 152107.11, 0.0005915191, 10.001692, 9.997895 
1.9351451e+3, 3.1468517e+2, 363590.3, 96370.86, 186982.42, -0.13772708, -0.07678951, 459793.53, 459793.53, 0.0011872258, 10.002803, 9.999252 
1.9449328e+3, 1.24678485e+2, -1854717.1, -1730309.8, -158979.03, -0.11309303, -0.30442008, -1621798.4, 96324.39, 0.20999403, 9.998696, 10.00062 
1.9449456e+3, 1.3467821e+2, -1926254.5, -1528506.8, 39148.227, -0.11584758, -0.6471147, -1524690.3, 95436.71, 0.14565058, 9.996749, 10.002257 
1.9449599e+3, 1.446866e+2, -1858408.3, -1685615.0, -41178.07, 0.22529718, 0.085930414, -1676303.6, -154256.5, 0.083007626, 9.997609, 9.999999 
1.9449663e+3, 1.5468468e+2, -1487116.0, -1405969.9, -49086.55, -0.028025553, -0.1838419, -1382858.9, 41210.61, 0.03539992, 9.999304, 10.000415 
1.9449751e+3, 1.6468349e+2, -1373748.8, -1340619.0, 85963.734, -0.18477285, -0.32095027, -1269638.8, 56444.563, 0.009600047, 9.999577, 10.000058 
1.9449885e+3, 1.746856e+2, -1316636.4, -1238818.4, 62706.59, -0.06717148, -0.16774602, -1203930.1, 24132.79, 0.0010784023, 9.999226, 10.000231 
1.9450009e+3, 1.846864e+2, -1209526.0, -1153109.4, -13309.175, 0.022675207, -0.100715056, -1150127.3, -20073.705, 0.0000066792873, 9.999343, 10.000105 
1.9450112e+3, 1.9468485e+2, -970213.7, -968693.56, -55669.016, -0.009124268, -0.31358767, -913779.44, 118285.9, 0.0, 10.000264, 10.0002365 
1.9450223e+3, 2.0468444e+2, -905568.6, -1008216.6, -29073.814, 0.015053355, -0.32125178, -897905.8, 36163.367, 0.0, 10.000528, 9.999184 
1.9450347e+3, 2.1468544e+2, -838802.2, -910430.3, -24730.459, 0.109918274, -0.18073805, -831093.3, 4969.8296, 0.0, 10.000277, 9.999288 
1.9450457e+3, 2.2468534e+2, -760348.6, -837335.6, 5382.254, 0.091716826, -0.10674751, -759974.1, -21908.678, 0.0, 10.000183, 9.999172 
1.9450556e+3, 2.3468389e+2, -628996.75, -707018.7, -3811.4004, -0.0791758, -0.21762986, -628811.0, 11267.74, 0.0, 10.000356, 9.999306 
1.9450666e+3, 2.4468282e+2, -534006.06, -716546.75, -13651.067, -0.071508415, -0.2014067, -532990.8, 9099.017, 0.0, 10.0007925, 9.998359 
1.945079e+3, 2.5468212e+2, -296018.75, -542050.1, -17769.06, 0.11919351, -0.1541464, -294742.03, 149357.6, 0.0, 10.0017185, 9.998431 
1.9450898e+3, 2.6468033e+2, -133203.28, -470543.5, 13421.691, 0.14944121, -0.14624488, -132670.11, 213447.86, 0.000000002142629, 10.002377, 9.9979515 
1.9450988e+3, 2.746775e+2, 33181.89, -322955.38, -12091.821, -0.03782068, -0.27439064, 33591.97, 281736.22, 0.0000030022966, 10.002782, 9.998093 
1.9451094e+3, 2.846762e+2, 120012.41, -229260.81, -18686.137, -0.055063725, -0.20375678, 121009.27, 271166.44, 0.00003904193, 10.002693, 9.998113 
1.9451219e+3, 2.946766e+2, 150776.47, -134625.5, -74418.87, 0.12627883, -0.041436754, 169015.66, 221171.75, 0.00018459432, 10.002112, 9.998353 
1.9451343e+3, 3.046724e+2, 133702.61, -127445.26, 81855.59, 0.02754228, -0.28676334, 157238.67, 157238.67, 0.00051477127, 10.001729, 9.998253 
1.9451477e+3, 3.1467363e+2, 252686.97, 100239.016, 46624.773, -0.08381735, -0.0477794, 265816.03, 265816.03, 0.0010271312, 10.001733, 9.999822 
1.954933e+3, 1.2466908e+2, -1901703.8, -1916302.4, -158837.7, -0.06077088, -0.26338303, -1749997.8, -31781.49, 0.22070916, 9.999005, 9.999111 
1.9549419e+3, 1.3466857e+2, -1955841.5, -1602944.4, 32662.066, -0.18165149, -0.5268573, -1599946.8, 20277.686, 0.15369554, 9.996837, 10.001627 
1.9549571e+3, 1.4467448e+2, -1778100.5, -1552105.1, 23688.26, 0.1439674, -0.059119496, -1549648.9, -27481.768, 0.08810495, 9.997757, 10.00084 
1.9549663e+3, 1.546739e+2, -1441662.6, -1322509.4, 21213.65, 0.013593797, -0.25611234, -1318845.3, 105325.37, 0.037922986, 9.999333, 10.000995 
1.9549759e+3, 1.6467345e+2, -1387494.6, -1397836.0, 50537.09, -0.1238907, -0.328934, -1341864.4, -15689.5, 0.010466628, 9.999695, 9.999608 
1.9549881e+3, 1.7467424e+2, -1348592.5, -1313177.1, 60587.156, -0.06646152, -0.25707063, -1267763.0, -39593.95, 0.0012294218, 9.999252, 9.99971 
1.9550003e+3, 1.8467444e+2, -1259876.3, -1268272.1, 7810.61, -0.015538546, -0.18323782, -1255206.9, -125037.79, 0.000009908067, 9.999394, 9.999286 
1.9550116e+3, 1.9467355e+2, -1042337.8, -1096976.0, -11176.783, -0.030446276, -0.24410424, -1040139.94, -7959.7476, 0.0, 10.000176, 9.999396 
1.9550224e+3, 2.0467351e+2, -904091.2, -966029.75, -52499.27, -0.072246276, -0.19145268, -874107.44, 60074.742, 0.0, 10.000356, 9.9995575 
1.955033e+3, 2.1467453e+2, -838090.9, -858508.2, -21400.793, -0.105211034, -0.09395561, -824588.56, 11584.16, 0.0, 10.000065, 9.999742 
1.9550444e+3, 2.2467396e+2, -791672.3, -839685.3, 194.15082, -0.085238166, -0.10120887, -791671.5, -53494.37, 0.0, 9.999904, 9.999294 
1.955057e+3, 2.3467137e+2, -656380.6, -705895.2, 16386.748, 0.0024704146, -0.33402282, -651448.7, -11249.812, 0.0, 10.000115, 9.999425 
1.9550687e+3, 2.4467048e+2, -559740.7, -693826.8, 7256.1494, 0.04154177, -0.32226768, -559349.1, -17142.336, 0.0, 10.000464, 9.998671 
1.9550802e+3, 2.546714e+2, -308546.8, -507254.28, 33610.75, 0.05228674, -0.15046751, -303015.63, 141184.7, 0.0, 10.001468, 9.99878 
1.9550912e+3, 2.646701e+2, -189914.4, -523193.28, 12276.142, 0.012289187, -0.10083318, -189462.83, 156751.11, 0.00000003752054, 10.002089, 9.997733 
1.9551015e+3, 2.746662e+2, -19540.156, -372304.16, 19463.492, -0.07386257, -0.31627467, -18469.521, 229782.61, 0.0000033251551, 10.00253, 9.997871 
1.9551122e+3, 2.8466457e+2, -21633.697, -433949.88, -57965.516, -0.07362092, -0.21070498, -13639.601, 136632.23, 0.000036409245, 10.002313, 9.996888 
1.9551237e+3, 2.946659e+2, 19481.748, -318571.22, -70442.66, 0.050405834, 0.16231807, 33573.04, 85840.29, 0.00016708692, 10.001748, 9.997255 
1.9551358e+3, 3.0466148e+2, 80136.1, -152689.67, 54086.434, -0.03832032, -0.053408224, 92087.16, 92087.16, 0.00045041088, 10.001335, 9.998283 
1.955151e+3, 3.1465963e+2, 169863.8, 73000.9, 72935.766, 0.010521043, -0.13458686, 208983.66, 208983.66, 0.0008724613, 10.001156, 9.999891 
1.964932e+3, 1.24659285e+2, -2116680.8, -2091982.6, -102821.97, 0.0009707957, -0.15957576, -2000770.9, -282457.97, 0.23177752, 9.997931, 9.998368 
1.9649401e+3, 1.3465953e+2, -1585833.6, -1451587.3, 18908.852, -0.16386585, -0.32924575, -1448974.8, 171339.3, 0.1620495, 9.999526, 10.001515 
1.9649564e+3, 1.4466168e+2, -1562537.3, -1481152.1, 23071.346, 0.2264827, -0.21675384, -1475066.8, 47226.89, 0.093428105, 9.99939, 10.0005455 
1.9649653e+3, 1.5466265e+2, -1514207.5, -1380245.8, -81445.42, 0.0055284966, -0.2354151, -1341776.3, 82506.11, 0.04057487, 9.998963, 10.000743 
1.9649751e+3, 1.6466257e+2, -1504119.3, -1464096.8, -60841.625, -0.10742285, -0.25914478, -1420060.0, -93777.06, 0.011385711, 9.998937, 9.99952 
1.964988e+3, 1.7466223e+2, -1315755.8, -1307974.8, -47157.152, -0.017790813, -0.28928396, -1264547.9, -36260.434, 0.0013940044, 9.999526, 9.999615 
1.9650002e+3, 1.8466231e+2, -1232464.3, -1266944.5, -22433.27, 0.02643783, -0.21898489, -1221411.8, -91122.555, 0.000014255441, 9.99962, 9.999192 
1.9650112e+3, 1.9466238e+2, -1145000.8, -1158287.5, -10342.189, -0.039952856, -0.17465833, -1139352.0, -107059.91, 0.0, 9.999509, 9.999301 
1.9650221e+3, 2.046624e+2, -982190.94, -1001745.8, -12537.638, -0.08933845, -0.11292785, -976069.0, -41775.22, 0.0, 9.999803, 9.999575 
1.9650331e+3, 2.146624e+2, -753334.56, -819336.56, -39623.07, -0.12109767, -0.12090316, -734769.56, 101523.516, 0.0, 10.000628, 9.9997425 
1.965045e+3, 2.2466165e+2, -636468.4, -760254.1, -21811.086, -0.05496065, -0.14567675, -632737.7, 105560.81, 0.0, 10.000957, 9.999336 
1.965058e+3, 2.3465988e+2, -539839.6, -650605.94, -45834.934, 0.07982278, -0.29634455, -523333.06, 116979.62, 0.0, 10.000905, 9.9994335 
1.9650702e+3, 2.4465896e+2, -445590.16, -616403.06, -10562.631, 0.12395873, -0.29918236, -444939.47, 97380.7, 0.0, 10.001101, 9.998923 
1.9650815e+3, 2.5465915e+2, -286340.13, -472670.28, -19406.902, 0.048469663, -0.22187737, -284340.28, 159978.38, 0.0, 10.001488, 9.999033 
1.9650929e+3, 2.6465815e+2, -230670.22, -526003.7, -15449.033, 0.006355113, -0.16089496, -229864.27, 116464.88, 0.00000006167767, 10.001757, 9.9978695 
1.9651042e+3, 2.7465552e+2, -97961.336, -400799.72, -27825.225, -0.02371181, -0.25525698, -95425.94, 152930.52, 0.000003603985, 10.001965, 9.997943 
1.9651149e+3, 2.8465366e+2, -55812.277, -462267.66, -35405.258, -0.008952793, -0.1704222, -52751.273, 97627.4, 0.00003430298, 10.002135, 9.996778 
1.9651257e+3, 2.9465327e+2, 95893.19, -307415.5, -15083.601, 0.053703226, 0.058545955, 96456.52, 148845.72, 0.00015136057, 10.0023775, 9.997044 
1.9651377e+3, 3.0464968e+2, 223996.84, -116285.63, 161843.94, -0.019774122, -0.04824452, 288677.88, 288677.88, 0.00039140965, 10.002453, 9.998007 
1.965153e+3, 3.1464672e+2, 279155.03, 105938.01, 9280.478, 0.082925096, -0.1984634, 279650.8, 279650.8, 0.0007269925, 10.001948, 9.9997635 
1.9749281e+3, 1.2464723e+2, -2079558.4, -2087466.8, -6533.699, -0.28377613, -0.22751696, -2075875.5, -357444.63, 0.24301729, 9.998226, 9.998263 
1.97494e+3, 1.3465133e+2, -1557294.4, -1425466.3, 54472.188, -0.17073952, -0.04271672, -1405870.8, 214521.86, 0.17062773, 9.999666, 10.00169 
1.9749568e+3, 1.4464797e+2, -1641536.5, -1671856.1, -19171.104, 0.26622397, -0.41725087, -1632255.5, -109826.766, 0.09895461, 9.999511, 9.999154 
1.9749628e+3, 1.5465091e+2, -1587863.1, -1539561.6, -89652.27, -0.18599972, -0.120669544, -1470864.1, -46459.26, 0.04335473, 9.998998, 9.999618 
1.9749728e+3, 1.6465077e+2, -1461175.4, -1400980.5, -54587.496, -0.28517887, -0.10720236, -1368743.0, -42334.95, 0.012356995, 9.999056, 9.999895 
1.9749875e+3, 1.7464949e+2, -1290439.4, -1254484.4, -15797.089, -0.04063432, -0.26562017, -1248529.9, -20110.871, 0.0015709848, 9.999528, 9.99998 
1.9749999e+3, 1.8464984e+2, -1183710.4, -1175490.6, -43150.676, -0.0050163316, -0.21400753, -1136254.6, -5839.442, 0.000019593592, 9.999655, 9.999809 
1.9750096e+3, 1.9465123e+2, -1109411.5, -1063785.3, -3175.4548, -0.17481948, -0.104844674, -1063565.3, -31162.924, 0.0, 9.999424, 9.9999895 
1.9750212e+3, 2.04651e+2, -1035119.6, -1069183.9, 6637.453, -0.20070817, -0.08464225, -1033872.0, -99467.055, 0.0, 9.999621, 9.999198 
1.9750345e+3, 2.1464914e+2, -815351.8, -895128.6, 3557.788, -0.060858056, -0.23947716, -815193.44, 21229.543, 0.0, 10.000402, 9.9993305 
1.975047e+3, 2.2464861e+2, -695901.25, -812575.25, -37783.11, 0.015795818, -0.21306337, -684734.5, 53693.523, 0.0, 10.000642, 9.999132 
1.9750588e+3, 2.3464932e+2, -580829.4, -689510.1, -29610.096, 0.039031655, -0.101709545, -573285.7, 67135.22, 0.0, 10.000699, 9.999267 
1.9750707e+3, 2.4464831e+2, -477962.78, -621374.75, -10822.422, 0.025105566, -0.11253995, -477150.7, 65278.516, 0.0, 10.000825, 9.999027 
1.9750825e+3, 2.5464544e+2, -302639.34, -463239.94, 9169.668, -0.021078119, -0.3533219, -302117.5, 142336.42, 0.0, 10.001295, 9.999192 
1.9750945e+3, 2.6464438e+2, -261995.63, -514321.34, -24468.373, -0.04489061, -0.31938303, -259644.8, 86819.07, 0.000000055759365, 10.001429, 9.998103 
1.9751063e+3, 2.7464536e+2, -118755.27, -373223.0, -1346.2322, -0.02533049, -0.087979995, -118748.15, 129709.336, 0.0000036492006, 10.001671, 9.998262 
1.9751172e+3, 2.8464356e+2, -52682.49, -386471.56, -46234.15, -0.030828103, -0.051234063, -46396.824, 104079.55, 0.00003270768, 10.001822, 9.9974575 
1.9751275e+3, 2.946387e+2, 111684.23, -223529.64, 21827.861, -0.035983395, -0.34436163, 113099.6, 165622.36, 0.00013942833, 10.002151, 9.99773 
1.9751392e+3, 3.0463693e+2, 68521.266, -316759.4, 125071.88, -0.15119039, -0.24865404, 105561.74, 105561.74, 0.00034788318, 10.001958, 9.996856 
1.9751559e+3, 3.146351e+2, 159761.28, 46346.52, 23082.762, 0.10983962, -0.19451895, 164279.23, 164279.23, 0.0006200003, 10.001198, 9.999686 
1.9849272e+3, 1.2463228e+2, -2082069.1, -2014846.4, 7149.8623, -0.15875058, -0.48684222, -2014094.4, -295513.16, 0.25424254, 9.997859, 9.998973 
1.9849396e+3, 1.3464059e+2, -1704401.0, -1470904.9, -17451.447, -0.10265438, 0.09218151, -1469607.8, 150891.95, 0.17932345, 9.998434, 10.0019455 
1.9849545e+3, 1.4463541e+2, -1902128.5, -1813678.5, -46609.844, 0.17901425, -0.4658856, -1793651.4, -271097.94, 0.104643695, 9.997796, 9.999018 
1.9849621e+3, 1.5463914e+2, -1663567.9, -1577255.4, -40566.156, -0.12292828, -0.085736595, -1561182.6, -136659.38, 0.046255346, 9.998477, 9.999624 
1.9849727e+3, 1.646396e+2, -1466667.0, -1384062.5, 70719.5, -0.18212496, -0.024319926, -1343467.8, -16946.488, 0.013380272, 9.998945, 10.000054 
1.9849865e+3, 1.7463847e+2, -1318473.6, -1249726.3, 67365.445, -0.0681356, -0.18613228, -1208471.5, 20058.59, 0.0017591557, 9.999266, 10.000133 
1.9849989e+3, 1.846386e+2, -1204014.5, -1181742.9, 29797.215, -0.04963275, -0.16410574, -1161068.6, -30541.602, 0.0000256483, 9.99949, 9.999844 
1.9850096e+3, 1.9463937e+2, -1029027.56, -1022877.0, -3316.5098, -0.13786338, -0.12529984, -1021429.4, 11089.495, 0.0, 9.999933, 10.000032 
1.9850217e+3, 2.0463897e+2, -981074.56, -1032267.2, 30466.457, -0.10811122, -0.12949665, -966879.2, -32357.021, 0.0, 9.999943, 9.999304 
1.9850352e+3, 2.1463759e+2, -909518.4, -930816.3, 35426.53, 0.022647679, -0.24332918, -883174.94, -46639.51, 0.0, 9.999715, 9.999421 
1.9850479e+3, 2.2463718e+2, -801290.06, -892020.3, 45535.855, 0.08936449, -0.19747527, -782378.4, -43838.3, 0.0, 10.0000305, 9.9988785 
1.9850598e+3, 2.3463765e+2, -563515.75, -714354.44, 18647.174, 0.07417989, -0.08227501, -561244.7, 79292.51, 0.0, 10.000954, 9.99897 
1.9850719e+3, 2.4463661e+2, -435894.03, -622031.06, 32844.03, 0.05389051, -0.06893545, -430268.7, 112278.55, 0.0, 10.001262, 9.99878 
1.9850837e+3, 2.5463372e+2, -359183.1, -521581.88, -10568.687, -0.011978133, -0.281347, -358498.2, 86074.7, 0.0, 10.00107, 9.998886 
1.9850959e+3, 2.6463258e+2, -286553.9, -483876.1, -25078.994, -0.026508449, -0.25849894, -283416.34, 63167.285, 0.00000004684117, 10.001082, 9.998472 
1.985108e+3, 2.7463347e+2, -141946.39, -343356.78, -33950.64, 0.0050444263, -0.06924713, -136377.5, 112198.88, 0.000003631824, 10.00134, 9.99862 
1.9851196e+3, 2.8463176e+2, -28586.453, -325596.16, -46229.98, 0.024536498, -0.0610581, -21557.059, 129035.125, 0.000030883682, 10.001794, 9.997875 
1.9851303e+3, 2.9462677e+2, 176922.81, -151718.89, -51891.695, 0.02037935, -0.40302995, 184921.69, 237558.69, 0.00012822116, 10.002459, 9.998055 
1.9851415e+3, 3.0462503e+2, 150342.58, -270755.88, 77056.766, -0.12632576, -0.32201517, 164000.22, 164000.22, 0.0003141248, 10.002452, 9.996939 
1.985158e+3, 3.1462458e+2, 204671.14, 48944.164, -29436.875, 0.1976824, -0.13378964, 210049.78, 210049.78, 0.00054965925, 10.001511, 9.999572 
1.9949263e+3, 1.2462133e+2, -1962575.5, -1812507.8, -71155.02, -0.11170696, -0.21839233, -1784134.1, -65437.973, 0.26535824, 9.998055, 10.000261 
1.9949381e+3, 1.3462703e+2, -1666185.3, -1425100.6, -32690.367, -0.12645353, 0.061895713, -1420746.5, 199891.44, 0.18805622, 9.998515, 10.002311 
1.9949491e+3, 1.4462382e+2, -1798385.5, -1630331.1, -59666.984, -0.19081825, -0.37587696, -1611301.5, -88632.04, 0.11045076, 9.997931, 10.000213 
1.9949628e+3, 1.5462725e+2, -1576097.9, -1397657.4, -3224.6396, 0.0749552, -0.1444197, -1397599.1, 27039.592, 0.04926506, 9.998492, 10.0008545 
1.9949745e+3, 1.6462888e+2, -1453442.6, -1380007.9, 70942.57, 0.050600123, -0.025064344, -1336844.0, -10219.995, 0.014456319, 9.999041, 10.000038 
1.9949846e+3, 1.7462906e+2, -1319971.5, -1251824.0, 85461.086, -0.21839996, -0.05080284, -1193894.4, 34727.176, 0.0019582892, 9.999265, 10.000115 
1.9949967e+3, 1.8462852e+2, -1236809.9, -1256259.1, 31226.455, -0.25558645, -0.07438547, -1213828.9, -83202.63, 0.000032105352, 9.999521, 9.999316 
1.9950107e+3, 1.9462676e+2, -1082050.6, -1107339.0, 22686.504, -0.044396415, -0.23024426, -1068722.8, -36080.5, 0.0, 9.999836, 9.999494 
1.9950235e+3, 2.0462638e+2, -968708.06, -972592.5, 4970.264, 0.039937217, -0.2285065, -965314.06, -30669.27, 0.0, 9.999788, 9.99979 
1.9950351e+3, 2.1462758e+2, -897263.7, -864562.9, 39107.92, 0.006743024, -0.13986716, -838525.0, -1893.0835, 0.0, 9.999536, 9.999961 
1.9950475e+3, 2.2462723e+2, -867231.0, -963098.25, 68302.97, 0.0064305454, -0.10098787, -831720.44, -93084.47, 0.0, 9.999744, 9.998529 
1.9950609e+3, 2.34625e+2, -622326.2, -785513.0, 70565.61, 0.05863032, -0.22115235, -596044.75, 44615.83, 0.0, 10.00073, 9.9985895 
1.9950733e+3, 2.4462378e+2, -538168.8, -758549.1, 12220.428, 0.03889858, -0.1693857, -537493.25, 5181.8945, 0.0, 10.000932, 9.998004 
1.9950847e+3, 2.546238e+2, -444704.13, -647247.94, -735.37, -0.039602667, -0.017827507, -444701.44, -23.727207, 0.0, 10.000844, 9.998131 
1.9950965e+3, 2.646225e+2, -313978.2, -465867.56, -28816.299, -0.08537406, 0.0153206345, -308694.94, 37995.51, 0.000000042002604, 10.000768, 9.998745 
1.9951087e+3, 2.746198e+2, -157430.23, -311709.9, -6682.884, -0.0722262, -0.19116904, -157141.3, 91572.48, 0.0000035134383, 10.0010805, 9.998956 
1.995121e+3, 2.84618e+2, -87863.555, -373324.4, -41232.184, -0.039917924, -0.19989997, -82027.27, 68701.39, 0.00002820436, 10.001467, 9.997706 
1.9951333e+3, 2.946169e+2, 116198.56, -198858.42, -7728.5786, 0.045582984, -0.14807592, 116388.04, 169125.36, 0.00011358975, 10.002113, 9.997898 
1.9951439e+3, 3.0461377e+2, 136766.33, -155445.38, 23158.75, -0.16001974, -0.24944392, 138590.36, 138590.36, 0.0002776181, 10.00187, 9.997995 
1.9951575e+3, 3.146151e+2, 60949.72, -83997.36, 34457.41, -0.062383983, -0.010322936, 68724.086, 68724.086, 0.00049017585, 10.000857, 9.998942 
2.0049243e+3, 1.24609776e+2, -1988366.6, -1759478.4, 40604.28, -0.11223671, -0.09805173, -1752488.6, -33677.484, 0.27641812, 9.997613, 10.000808 
2.0049357e+3, 1.3461377e+2, -1651309.4, -1414434.0, -1380.0781, -0.20961738, -0.015474151, -1414425.9, 206344.31, 0.1968332, 9.998566, 10.002382 
2.0049483e+3, 1.4461276e+2, -1686690.0, -1514774.0, -15580.964, -0.08597815, -0.26751587, -1513373.4, 9405.948, 0.11636926, 9.998427, 10.000768 
2.0049621e+3, 1.5461548e+2, -1501569.1, -1313669.3, -20723.623, 0.15938248, -0.16228662, -1311410.8, 113342.47, 0.05238356, 9.998756, 10.001342 
2.0049737e+3, 1.64617e+2, -1493149.4, -1423784.3, 39738.12, 0.097375594, -0.0680998, -1405722.1, -78983.35, 0.015589432, 9.998848, 9.999842 
2.004984e+3, 1.7461726e+2, -1359392.1, -1298515.9, 15008.769, -0.1874335, -0.07077688, -1295016.6, -66279.6, 0.0021699998, 9.999072, 9.999905 
2.0049964e+3, 1.8461666e+2, -1299239.5, -1271211.3, 3928.895, -0.19303922, -0.095486194, -1270671.0, -139928.5, 0.00003871999, 9.999049, 9.999433 
2.005011e+3, 1.946151e+2, -1158192.5, -1134868.9, 15981.055, 0.024788028, -0.24143906, -1126747.1, -93991.32, 0.0, 9.99929, 9.999566 
2.0050238e+3, 2.0461485e+2, -1006401.1, -993694.4, 21629.654, 0.10556142, -0.2265318, -977504.3, -42747.336, 0.0, 9.999564, 9.999749 
2.0050351e+3, 2.1461605e+2, -820017.4, -831860.3, -13436.8125, 0.03431041, -0.13183469, -811255.1, 25490.045, 0.0, 10.000097, 9.999918 
2.0050478e+3, 2.246157e+2, -769404.56, -897720.6, 42794.895, 0.031520676, -0.0931796, -756441.56, -17692.213, 0.0, 10.000367, 9.99867 
2.0050615e+3, 2.3461358e+2, -650368.94, -778813.56, 48220.53, 0.06889481, -0.21249996, -634281.06, 6491.1665, 0.0, 10.000489, 9.99874 
2.0050742e+3, 2.4461251e+2, -546146.4, -755219.56, 53184.2, 0.061058298, -0.15819408, -533395.06, 9390.015, 0.0, 10.000798, 9.998111 
2.005086e+3, 2.546126e+2, -379794.1, -603589.06, 75882.086, -0.0130617535, -0.010463819, -356491.22, 88295.61, 0.0, 10.001216, 9.998256 
2.005098e+3, 2.6461118e+2, -229338.16, -474407.6, 91081.32, -0.051970705, 0.022066886, -199194.9, 147606.27, 0.000000029896977, 10.001537, 9.998324 
2.0051104e+3, 2.7460772e+2, -75930.51, -331370.06, 28985.332, -0.058045786, -0.20821294, -72682.766, 176150.14, 0.0000031274246, 10.001851, 9.998468 
2.005123e+3, 2.84606e+2, -1272.6477, -322511.66, 5898.8496, 0.012639448, -0.19117117, -1164.3647, 149683.67, 0.000025154262, 10.002012, 9.997802 
2.005136e+3, 2.946059e+2, 95578.22, -203399.83, 121.70354, 0.13625166, -0.04099642, 95578.266, 148425.81, 0.00009776422, 10.001945, 9.997952 
2.0051467e+3, 3.046023e+2, 239984.77, -33216.66, 50004.04, -0.059423205, -0.22541231, 248849.36, 248849.36, 0.00024035014, 10.002239, 9.998681 
2.0051596e+3, 3.1460312e+2, 304520.06, -53069.047, -8453.785, -0.029474795, -0.083696336, 304719.8, 304719.8, 0.0004337669, 10.002853, 9.998236 
2.0149224e+3, 1.2459618e+2, -2006176.1, -1816550.1, 10672.28, -0.13905503, -0.30361843, -1815951.4, -97011.24, 0.28771394, 9.997712, 10.000366 
2.014932e+3, 1.3460071e+2, -1662351.1, -1445001.4, 9717.059, -0.46814612, -0.15779619, -1444567.8, 176329.67, 0.20582092, 9.99861, 10.002126 
2.0149514e+3, 1.4460216e+2, -1674353.5, -1521692.0, -29186.299, 0.3329721, -0.14445424, -1516302.3, 6581.4697, 0.12247417, 9.998563, 10.000656 
2.0149596e+3, 1.5460382e+2, -1511125.9, -1332016.5, -3328.413, -0.0026103011, -0.12982737, -1331954.6, 92912.41, 0.055639356, 9.998758, 10.001207 
2.01497e+3, 1.6460411e+2, -1499137.6, -1457439.3, 31709.89, -0.20896837, -0.141324, -1440338.4, -113473.75, 0.016791714, 9.998939, 9.999571 
2.0149845e+3, 1.7460309e+2, -1384846.6, -1343034.4, 32811.555, -0.08126318, -0.23681444, -1325034.6, -96158.375, 0.0023981123, 9.999044, 9.999612 
2.0149978e+3, 1.8460314e+2, -1243200.0, -1171435.5, -8321.127, -0.013089443, -0.21476072, -1170483.3, -39608.14, 0.000045425786, 9.999109, 10.000094 
2.0150097e+3, 1.9460429e+2, -1122821.5, -1041753.75, 31618.95, -0.05748387, -0.15484281, -1030879.9, 1980.4248, 0.0, 9.999208, 10.000246 
2.015022e+3, 2.046044e+2, -1069279.3, -1086767.4, 26718.332, -0.07177962, -0.115941964, -1049910.5, -115051.99, 0.0, 9.999399, 9.999191 
2.0150349e+3, 2.1460304e+2, -898330.4, -945170.2, 19547.193, -0.010993762, -0.20886593, -891244.8, -54370.66, 0.0, 9.999886, 9.999244 
2.0150481e+3, 2.2460252e+2, -779656.75, -857334.75, 35411.3, 0.0069028563, -0.17181918, -765936.94, -27056.309, 0.0, 10.000088, 9.999087 
2.0150614e+3, 2.3460308e+2, -639524.44, -718906.25, 66924.414, -0.0095756175, -0.0745427, -601406.3, 39469.36, 0.0, 10.00031, 9.999244 
2.0150743e+3, 2.4460237e+2, -527299.7, -640664.8, 58131.88, -0.03941954, -0.056834735, -502789.7, 40091.668, 0.0, 10.000486, 9.999043 
2.0150869e+3, 2.5460005e+2, -348624.88, -481953.84, 103414.15, -0.06407616, -0.24387567, -292250.2, 152650.86, 0.0, 10.000982, 9.999202 
2.0150994e+3, 2.645983e+2, -350246.03, -655806.8, 86758.96, -0.09611525, -0.24015898, -327330.75, 19588.229, 0.0000000091701935, 10.001239, 9.997224 
2.015112e+3, 2.7459723e+2, -195180.03, -515545.75, 59859.535, -0.092924796, -0.11787121, -184360.81, 64573.78, 0.0000023642951, 10.001585, 9.997329 
2.0151252e+3, 2.8459588e+2, -53757.184, -343636.16, -15665.885, -0.024510145, -0.0074419375, -52913.01, 98036.48, 0.000021595964, 10.001645, 9.997826 
2.0151381e+3, 2.9459363e+2, 63328.223, -217424.53, 18176.873, 0.11768401, -0.084498, 64500.16, 117469.26, 0.000083873885, 10.001696, 9.997981 
2.0151493e+3, 3.0459005e+2, 164673.95, -68967.42, 47957.816, -0.07645757, -0.26396918, 174134.8, 174134.8, 0.00020823472, 10.001759, 9.998644 
2.0151615e+3, 3.1459093e+2, 126250.75, -180472.2, 119458.09, -0.16842707, -0.13649166, 167285.72, 167285.72, 0.0003833975, 10.0019, 9.997774 
2.0249227e+3, 1.2458504e+2, -1870495.9, -1833608.1, -30412.92, 0.06243112, -0.17588612, -1816483.5, -97433.336, 0.29983783, 9.999026, 9.999596 
2.0249315e+3, 1.3458753e+2, -1876324.1, -1494041.8, -28132.01, -0.2939723, -0.27669105, -1491982.6, 129045.5, 0.21537028, 9.996991, 10.002475 
2.0249496e+3, 1.4459184e+2, -1803171.8, -1601409.9, 15581.516, 0.35220373, 0.0038853663, -1600213.6, -77227.05, 0.12892798, 9.997753, 10.000494 
2.0249578e+3, 1.545919e+2, -1574161.3, -1400160.3, -14505.735, -0.041711006, -0.106375314, -1398959.3, 26026.027, 0.05909158, 9.998509, 10.000832 
2.024969e+3, 1.6459142e+2, -1525855.8, -1453740.5, 43346.5, -0.19115952, -0.18036014, -1433414.9, -106424.45, 0.018083457, 9.998721, 9.9996805 
2.0249848e+3, 1.7459098e+2, -1329825.6, -1297936.4, 54489.77, 0.03351198, -0.23046145, -1257106.3, -28110.219, 0.0026487417, 9.999386, 9.999736 
2.0249984e+3, 1.845914e+2, -1156597.1, -1108263.0, 26882.576, 0.116636954, -0.18761238, -1096281.5, 34709.188, 0.000052423693, 9.999607, 10.000284 
2.0250092e+3, 1.9459236e+2, -1053283.0, -994067.9, 4514.091, -0.03191446, -0.16560657, -993725.7, 39250.93, 0.0, 9.999605, 10.000382 
2.0250213e+3, 2.0459221e+2, -1009680.0, -1105257.6, 38170.37, -0.08184877, -0.14228791, -996307.2, -61329.39, 0.0, 10.00002, 9.998753 
2.0250352e+3, 2.1459055e+2, -747713.06, -927941.06, 14797.613, -0.03605582, -0.21775657, -746506.2, 90492.1, 0.0, 10.001153, 9.998741 
2.0250486e+3, 2.2458997e+2, -594433.2, -741001.0, 15346.802, 0.0015342097, -0.17359586, -592843.5, 146161.8, 0.0, 10.001244, 9.999321 
2.0250617e+3, 2.3459077e+2, -634006.6, -684967.75, 5810.3623, 0.009420668, -0.077791646, -633352.56, 7643.172, 0.0, 10.00022, 9.999509 
2.0250748e+3, 2.445901e+2, -599426.1, -672833.4, 16529.623, -0.008612901, -0.070610836, -595875.75, -52875.645, 0.0, 10.000005, 9.999037 
2.0250875e+3, 2.5458747e+2, -373209.06, -500847.72, -35508.82, -0.08662184, -0.28281006, -363995.63, 81027.72, 0.0, 10.0008545, 9.999124 
2.0251007e+3, 2.6458573e+2, -321513.47, -629992.56, -36916.367, -0.087480195, -0.27869302, -317157.13, 29884.063, 0.000000001074916, 10.001394, 9.997323 
2.0251144e+3, 2.7458522e+2, -198228.64, -499029.28, -10408.527, -0.00624955, -0.11085039, -197868.9, 51182.035, 0.0000018159459, 10.001519, 9.997459 
2.0251274e+3, 2.845839e+2, -45548.668, -374625.28, -19927.709, 0.056163248, 0.011132612, -44346.31, 106720.04, 0.000018189116, 10.001819, 9.997541 
2.0251393e+3, 2.9458112e+2, 118900.71, -209891.53, -51385.734, 0.055586703, -0.08737411, 126744.48, 179838.2, 0.000072171526, 10.002164, 9.997801 
2.025152e+3, 3.045778e+2, 250056.28, -70066.805, 1501.254, 0.0026901267, -0.2224178, 250063.33, 250063.33, 0.00017992329, 10.002447, 9.998346 
2.0251638e+3, 3.145786e+2, 205706.31, -88081.68, -65516.91, -0.13054596, -0.050497215, 219654.83, 219654.83, 0.00033564074, 10.002117, 9.998342 
2.0349209e+3, 1.245741e+2, -1936893.0, -2037563.6, -96817.94, -0.12210892, 0.021627788, -1878107.5, -158944.05, 0.3135409, 9.99926, 9.998112 
2.0349336e+3, 1.345741e+2, -1790591.1, -1381140.4, -28261.656, 0.18014926, -0.38533568, -1379198.9, 241964.64, 0.22593072, 9.99711, 10.003438 
2.0349422e+3, 1.4458166e+2, -1787875.4, -1618258.8, 47967.93, -0.23354799, 0.17253132, -1605633.1, -82544.09, 0.13594478, 9.997954, 10.000284 
2.0349564e+3, 1.5457971e+2, -1604048.9, -1473747.0, 14310.843, -0.080313385, -0.09302346, -1472193.8, -47085.594, 0.06282382, 9.998563, 10.000285 
2.03497e+3, 1.6457883e+2, -1481377.9, -1385257.3, 41582.063, -0.015598173, -0.19702509, -1369765.5, -42648.57, 0.019494196, 9.99882, 10.000103 
2.0349844e+3, 1.7458087e+2, -1284327.5, -1211179.5, 90407.664, 0.03003486, -0.053685203, -1150228.1, 78868.94, 0.0029308582, 9.9994135, 10.000319 
2.0349976e+3, 1.8458141e+2, -1172162.1, -1147002.8, 16409.9, 0.0332645, -0.02003223, -1138905.6, -7816.1475, 0.00006041413, 9.999636, 10.000007 
2.0350093e+3, 1.9457938e+2, -1091187.5, -1049999.4, 15062.928, -0.018241275, -0.26151305, -1045078.6, -11974.514, 0.0, 9.999513, 10.000043 
2.0350218e+3, 2.045783e+2, -1055775.8, -1165370.3, 64413.723, -0.095720634, -0.29649723, -1026004.3, -90889.75, 0.0, 9.99987, 9.998412 
2.0350353e+3, 2.1457843e+2, -799487.5, -986506.44, 70036.93, -0.16058424, -0.16116154, -776167.25, 60951.547, 0.0, 10.000944, 9.998442 
2.0350488e+3, 2.24578e+2, -637381.06, -749827.44, -30288.572, -0.14418867, -0.093847536, -629741.5, 109382.65, 0.0, 10.000913, 9.9994135 
2.0350622e+3, 2.3457673e+2, -668694.8, -694775.25, -15640.221, 0.000039213184, -0.21127547, -661371.75, -20239.553, 0.0, 9.999966, 9.999559 
2.0350751e+3, 2.4457566e+2, -712378.8, -841068.6, 32975.914, -0.017239686, -0.19664104, -704421.06, -161279.08, 0.0, 9.99972, 9.99802 
2.0350873e+3, 2.545748e+2, -473679.25, -666029.56, 9604.099, -0.20512806, -0.13045621, -473200.9, -28046.617, 0.0, 10.000664, 9.998085 
2.0351012e+3, 2.645734e+2, -295257.56, -496719.34, -43589.547, -0.20276539, -0.090978265, -286230.72, 60937.813, 0.000000023664393, 10.001069, 9.998387 
2.0351169e+3, 2.7457127e+2, -149805.06, -347912.34, 11119.311, 0.054534156, -0.20574014, -149182.92, 100002.66, 0.0000019634658, 10.001296, 9.998606 
2.0351298e+3, 2.845696e+2, -144886.55, -484699.44, -26727.414, 0.07157476, -0.15397972, -142797.2, 8405.838, 0.000016146072, 10.001426, 9.996967 
2.0351394e+3, 2.9456824e+2, 35513.176, -307697.8, -14706.353, -0.19094147, -0.04865072, 36142.18, 89364.68, 0.00006227005, 10.001832, 9.997294 
2.0351538e+3, 3.045652e+2, 99353.86, -225626.31, -25155.748, -0.09620175, -0.09357906, 101289.56, 101289.56, 0.00015436458, 10.00181, 9.997561 
2.0351663e+3, 3.1456408e+2, 212790.63, 116145.32, -53551.906, -0.13112828, -0.049844984, 236599.0, 236599.0, 0.0002908974, 10.001364, 10.000077 
2.0449191e+3, 1.2456303e+2, -2010833.9, -2125355.5, 94629.69, -0.19854705, 0.07039848, -1957489.3, -238219.03, 0.3294151, 9.998998, 9.997654 
2.0449321e+3, 1.3456227e+2, -1618104.9, -1341543.3, -26708.232, 0.26810312, -0.36216888, -1338987.6, 282290.13, 0.23787552, 9.998446, 10.003189 
2.044939e+3, 1.4456867e+2, -1720870.6, -1583013.4, 82117.29, -0.3564216, 0.093302235, -1544730.0, -21515.416, 0.14372098, 9.998416, 10.000297 
2.0449561e+3, 1.5456736e+2, -1521440.1, -1429992.0, 33774.39, 0.016960543, -0.10829348, -1418870.6, 6356.5264, 0.06692591, 9.999123, 10.000313 
2.0449704e+3, 1.6456686e+2, -1429136.0, -1332913.8, 84064.05, 0.15780737, -0.18999241, -1284167.0, 43064.836, 0.021061258, 9.999043, 10.000368 
2.0449834e+3, 1.7456895e+2, -1378161.1, -1231564.9, 84236.49, 0.039571345, -0.06863609, -1193201.0, 36010.168, 0.003256253, 9.9986515, 10.000554 
2.0449966e+3, 1.8456964e+2, -1310096.3, -1257623.0, 32252.549, 0.00967999, -0.011605019, -1242283.4, -111079.82, 0.00007088071, 9.998891, 9.999604 
2.0450096e+3, 1.9456783e+2, -1019338.2, -1058905.3, -1938.7666, 0.03201837, -0.19033232, -1019243.44, 13976.171, 0.0, 10.000212, 9.999636 
2.0450225e+3, 2.0456666e+2, -960981.8, -1113851.5, 67202.41, -0.007256283, -0.21450317, -935640.2, -408.2601, 0.0, 10.000474, 9.998492 
2.045036e+3, 2.1456641e+2, -974366.44, -1050550.4, 78428.58, -0.11775881, -0.13010113, -925268.75, -88030.984, 0.0, 9.99966, 9.998623 
2.0450492e+3, 2.245657e+2, -813938.4, -856458.3, 10804.662, -0.11655885, -0.09021467, -811350.3, -72105.61, 0.0, 9.99977, 9.9992485 
2.0450625e+3, 2.345641e+2, -523684.4, -647579.5, -19381.338, 0.0033245636, -0.22275637, -520723.3, 120533.35, 0.0, 10.001034, 9.999382 
2.0450759e+3, 2.4456297e+2, -441769.6, -729381.5, 88168.445, 0.014645303, -0.19944218, -416892.9, 126374.47, 0.0, 10.001638, 9.997878 
2.0450893e+3, 2.5456244e+2, -362009.97, -624788.1, 103086.91, -0.12102633, -0.0820638, -326396.03, 118880.195, 0.0, 10.001482, 9.997976 
2.0451035e+3, 2.6456088e+2, -227584.1, -464420.97, 72417.87, -0.107019454, -0.051661592, -207195.92, 140095.42, 0.00000011200642, 10.001509, 9.998402 
2.0451185e+3, 2.74558e+2, -75328.49, -318593.38, 6974.122, 0.082641736, -0.23850134, -75128.72, 174186.25, 0.000002326167, 10.001811, 9.998566 
2.0451312e+3, 2.84556e+2, -87066.1, -448022.16, -32546.736, 0.06353577, -0.22186807, -84154.9, 67180.48, 0.000014696717, 10.001767, 9.997057 
2.0451406e+3, 2.9455492e+2, -49301.58, -332980.5, -18507.756, -0.2144873, -0.08981692, -48099.195, 5253.094, 0.00005375532, 10.001196, 9.99742 
2.045156e+3, 3.0455315e+2, 46825.867, -248694.39, 83391.87, 0.0020042756, -0.018726973, 68733.83, 68733.83, 0.00013253847, 10.0014305, 9.997579 
2.0451692e+3, 3.145509e+2, 399742.63, 199683.14, -95982.39, -0.04473703, -0.07178323, 438343.94, 438343.94, 0.0002539401, 10.002619, 10.000057 
2.0549195e+3, 1.2455082e+2, -1914537.5, -1996011.3, 138682.73, -0.15539004, -0.12399717, -1810732.4, -91352.52, 0.3476065, 9.999286, 9.998406 
2.054926e+3, 1.3455246e+2, -1695712.4, -1482482.6, -28971.965, -0.22692092, -0.16927707, -1478616.3, 142749.84, 0.2513395, 9.998525, 10.001909 
2.0549394e+3, 1.4455265e+2, -1689456.8, -1552976.3, 93431.83, -0.21815538, -0.2688882, -1505517.6, 17847.264, 0.15236652, 9.998564, 10.000446 
2.0549563e+3, 1.5455498e+2, -1472544.0, -1347655.9, 69148.85, 0.105674036, -0.15598905, -1316929.0, 108412.03, 0.071473114, 9.9991865, 10.000893 
2.05497e+3, 1.6455562e+2, -1410902.8, -1332148.3, 51904.457, 0.15732709, -0.15363993, -1306374.6, 20959.736, 0.022826005, 9.999189, 10.000308 
2.0549814e+3, 1.7455523e+2, -1386469.6, -1253050.6, 76632.34, -0.06036955, -0.26750544, -1218159.6, 11178.776, 0.0036400491, 9.998662, 10.000405 
2.0549947e+3, 1.8455587e+2, -1339955.8, -1340424.1, 64635.074, -0.12506862, -0.17325586, -1275554.5, -144219.61, 0.00008593674, 9.998963, 9.99901 
2.0550095e+3, 1.9455741e+2, -1058425.6, -1136117.0, 56286.56, -0.01216647, 0.035074197, -1028881.5, 4444.4316, 0.0, 10.000175, 9.999132 
2.0550236e+3, 2.04557e+2, -949485.56, -1053344.4, 25956.982, 0.0146830585, 0.089103326, -943359.56, -8027.1836, 0.0, 10.000317, 9.998981 
2.0550366e+3, 2.1455431e+2, -968364.25, -989633.4, 59521.785, -0.038565543, -0.12742017, -918534.44, -81177.54, 0.0, 9.999447, 9.999144 
2.0550495e+3, 2.2455283e+2, -891440.3, -941745.75, 41668.625, -0.08440391, -0.17332155, -867921.3, -128551.14, 0.0, 9.999454, 9.998812 
2.0550628e+3, 2.3455267e+2, -589437.8, -728046.9, 42371.383, -0.10676612, -0.11619879, -577511.5, 63859.754, 0.0, 10.000797, 9.998942 
2.055077e+3, 2.4455182e+2, -445367.38, -654140.3, 70600.04, -0.076659456, -0.075683445, -423734.4, 119643.766, 0.0, 10.001297, 9.99855 
2.0550926e+3, 2.5455013e+2, -352044.88, -538237.2, 112404.78, 0.034176897, -0.1493212, -299189.9, 146202.25, 0.0, 10.001214, 9.998693 
2.0551068e+3, 2.64548e+2, -352480.03, -642605.25, 69233.17, 0.035366174, -0.16268489, -336805.63, 10606.553, 0.00000017468948, 10.001167, 9.997338 
2.0551194e+3, 2.7454525e+2, -194139.45, -510715.34, 36122.8, -0.057821006, -0.22156549, -190069.98, 59371.113, 0.0000023499456, 10.00157, 9.997365 
2.055131e+3, 2.8454292e+2, -120214.586, -412336.2, -63910.563, -0.15756507, -0.19407009, -106844.16, 44621.434, 0.000012296112, 10.001339, 9.9974985 
2.0551421e+3, 2.9454097e+2, -53403.23, -276367.7, -15398.341, -0.21034573, -0.22012395, -52344.816, 1140.7825, 0.000044415407, 10.000918, 9.997938 
2.0551585e+3, 3.0454057e+2, -4001.4153, -220038.77, 99286.78, 0.042517286, -0.060043816, 34696.984, 34696.984, 0.00011238554, 10.000894, 9.998015 
2.0551711e+3, 3.145383e+2, 119089.09, -173304.33, -117505.23, -0.17547697, -0.17386498, 160458.25, 160458.25, 0.00022337346, 10.0017605, 9.99789 
2.0649199e+3, 1.245369e+2, -2227448.5, -2049010.1, 132449.97, 0.11468757, -0.4045084, -1978532.5, -259024.63, 0.36771804, 9.996708, 9.999263 
2.0649236e+3, 1.3454066e+2, -1526887.0, -1490976.1, -41071.715, -0.39743298, -0.1619437, -1464106.5, 157367.78, 0.26616043, 10.000338, 10.000968 
2.0649397e+3, 1.4453828e+2, -1583927.1, -1537107.3, 67706.86, -0.06711786, -0.45533425, -1488877.5, 34621.695, 0.1618756, 9.999413, 10.000171 
2.0649555e+3, 1.5454152e+2, -1580280.3, -1400456.0, -4651.51, 0.14125536, -0.24927011, -1400335.8, 25132.281, 0.07651462, 9.998434, 10.00087 
2.064969e+3, 1.6454285e+2, -1536526.8, -1412508.5, -5488.232, 0.17087947, -0.17042497, -1412266.1, -84810.56, 0.024829434, 9.998433, 10.000103 
2.0649807e+3, 1.7454182e+2, -1304213.5, -1241845.1, -17049.063, -0.018232878, -0.3207194, -1237488.9, -8022.396, 0.0041003036, 9.999364, 10.00013 
2.0649941e+3, 1.8454206e+2, -1272644.0, -1317112.6, 20517.207, -0.06648657, -0.24752904, -1264624.1, -133155.77, 0.000108260756, 9.999479, 9.998905 
2.0650095e+3, 1.9454388e+2, -1194458.0, -1204872.9, 21518.238, 0.014370207, -0.005232608, -1177526.1, -144067.42, 0.0, 9.999261, 9.999094 
2.065024e+3, 2.04544e+2, -1048557.8, -1036755.25, 12571.151, 0.05823763, 0.074543424, -1028769.1, -93308.99, 0.0, 9.999363, 9.999547 
2.0650369e+3, 2.1454191e+2, -843607.94, -866545.4, 20977.275, 0.03388116, -0.1332665, -831169.0, 6306.9175, 0.0, 10.000044, 9.999697 
2.0650503e+3, 2.2454064e+2, -737510.8, -889005.1, 75342.695, -0.015052463, -0.17703071, -706420.94, 33065.74, 0.0, 10.000596, 9.998625 
2.0650634e+3, 2.345402e+2, -577310.6, -743703.56, 67233.38, -0.10203347, -0.12851463, -553539.9, 87952.51, 0.0, 10.000984, 9.998736 
2.0650783e+3, 2.4453925e+2, -434127.1, -653068.94, 76897.336, -0.06416551, -0.08544205, -409818.03, 133683.11, 0.0, 10.001392, 9.99851 
2.0650944e+3, 2.5453746e+2, -259980.39, -495216.53, 31871.91, 0.09748994, -0.16229865, -255738.6, 189777.11, 0.0, 10.001848, 9.998679 
2.0651087e+3, 2.6453543e+2, -274611.47, -603044.56, 10876.491, 0.10935566, -0.17327324, -274251.66, 73284.22, 0.00000012472299, 10.001677, 9.997376 
2.0651203e+3, 2.74533e+2, -294888.56, -544746.7, 36424.58, -0.06069212, -0.19838239, -289686.84, -40124.13, 0.0000018192295, 10.000825, 9.997487 
2.0651326e+3, 2.8453133e+2, -103293.81, -324841.22, 54800.836, -0.12959339, -0.14800811, -90479.72, 61099.887, 0.000008845643, 10.001103, 9.998223 
2.0651448e+3, 2.9453003e+2, 233479.25, -61517.234, 63727.96, -0.102310546, -0.1739662, 246657.66, 300246.94, 0.000033872344, 10.002575, 9.998616 
2.0651604e+3, 3.045285e+2, 355307.8, -65385.047, 197633.1, 0.039012674, -0.16077909, 433586.53, 433586.53, 0.00009226449, 10.003367, 9.997931 
2.0651749e+3, 3.1452626e+2, 258003.6, -195626.88, -211588.81, -0.024303444, -0.24936493, 341373.75, 341373.75, 0.00019361054, 10.00304, 9.99716 
2.0749177e+3, 1.2452496e+2, -2163479.5, -1955020.0, 16780.701, 0.10083675, -0.41566813, -1953677.9, -234059.31, 0.38886976, 9.996884, 9.999817 
2.0749243e+3, 1.3452652e+2, -1547837.0, -1558996.9, -9882.522, -0.4049641, -0.36268508, -1542067.9, 79537.85, 0.28190908, 10.000477, 10.000287 
2.0749398e+3, 1.4452547e+2, -1605231.1, -1610657.5, -20884.736, -0.087834075, -0.45271805, -1586884.1, -63265.293, 0.17213808, 9.999536, 9.999579 
2.0749526e+3, 1.545268e+2, -1609809.9, -1464062.8, -27988.898, -0.015910964, -0.38623843, -1458872.8, -33263.17, 0.08207624, 9.998463, 10.0004015 
2.0749666e+3, 1.6452833e+2, -1538607.9, -1445871.9, 16498.191, 0.025653716, -0.25027615, -1443024.3, -115426.88, 0.027111659, 9.998556, 9.999816 
2.0749809e+3, 1.7452875e+2, -1326449.8, -1289146.6, 23875.752, 0.04687399, -0.22296388, -1277500.8, -47905.57, 0.0046569863, 9.999375, 9.999795 
2.0749953e+3, 1.8452828e+2, -1239835.9, -1266707.1, -2572.744, 0.035355918, -0.21846275, -1239591.8, -107988.76, 0.00014131474, 9.999555, 9.999215 
2.075009e+3, 1.9452721e+2, -1182229.3, -1162214.6, 21220.104, -0.003245338, -0.30023062, -1148760.5, -115142.234, 0.0000000002137382, 9.9991865, 9.999424 
2.0750228e+3, 2.0452744e+2, -1028381.7, -962483.6, 19809.535, -0.032517083, -0.25381026, -956987.1, -21370.514, 0.0, 9.999215, 10.000131 
2.0750366e+3, 2.1452904e+2, -828838.4, -791419.2, 60025.74, -0.027701868, -0.15497412, -747254.8, 90341.94, 0.0, 9.999849, 10.000305 
2.0750505e+3, 2.2452891e+2, -786196.75, -910397.8, 81746.305, -0.05740147, -0.118252434, -745638.0, -6041.4814, 0.0, 10.000268, 9.998629 
2.0750646e+3, 2.3452659e+2, -620623.56, -767237.0, 95699.164, -0.107047066, -0.25476313, -573380.7, 68240.01, 0.0, 10.000716, 9.998697 
2.0750795e+3, 2.4452507e+2, -542135.6, -792081.2, 81563.05, -0.11847223, -0.2309359, -517874.6, 25763.426, 0.0, 10.001031, 9.997727 
2.075095e+3, 2.5452432e+2, -352459.97, -631252.75, 62586.742, -0.059259247, -0.124354064, -339054.34, 106594.23, 0.0, 10.001614, 9.997855 
2.0751092e+3, 2.6452297e+2, -254172.7, -471810.9, -36445.074, -0.05332335, -0.07064258, -248231.88, 99431.46, 0.000000021824269, 10.001307, 9.998452 
2.0751214e+3, 2.74521e+2, -245264.11, -379879.72, 20192.695, -0.0738428, -0.17717262, -242300.4, 7382.28, 0.00000084431264, 10.000571, 9.998738 
2.0751345e+3, 2.8452063e+2, -106156.43, -232925.5, 84278.94, -0.07288389, -0.103680216, -64087.0, 87596.695, 0.000005133315, 10.0007, 9.99904 
2.0751482e+3, 2.945215e+2, 231466.22, -1569.7164, 137603.56, -0.051291905, 0.011890031, 295256.8, 348926.22, 0.000023723636, 10.002282, 9.999173 
2.0751613e+3, 3.045167e+2, 193973.08, -225001.67, 162098.38, -0.22256002, -0.28718677, 249364.63, 249364.63, 0.00007269807, 10.002678, 9.997134 
2.0751785e+3, 3.1451574e+2, 123947.984, -230292.05, -157957.05, -0.036882985, -0.19614033, 184150.39, 184150.39, 0.00016065389, 10.002097, 9.997327 
2.0849147e+3, 1.2451128e+2, -2031046.5, -1850080.6, -58785.97, 0.098516, -0.35935408, -1832661.0, -112906.99, 0.40993002, 9.997645, 10.0001545 
2.0849246e+3, 1.3451242e+2, -1854385.1, -1620860.8, -83139.13, -0.27511612, -0.43766245, -1594285.8, 27457.916, 0.29801235, 9.997817, 10.001047 
2.08494e+3, 1.4451364e+2, -1756805.0, -1688138.8, -42214.996, 0.052983478, -0.3441781, -1668058.0, -144324.06, 0.18298064, 9.998549, 9.999508 
2.0849511e+3, 1.5451345e+2, -1611784.1, -1504690.8, -55123.38, -0.0140795475, -0.39858446, -1481388.0, -55647.695, 0.088167645, 9.998626, 10.000043 
2.0849648e+3, 1.6451465e+2, -1524997.5, -1432927.8, 76425.85, 0.014861518, -0.2767866, -1389743.1, -62011.78, 0.029713616, 9.998612, 9.999894 
2.0849805e+3, 1.7451556e+2, -1329842.0, -1273882.5, 89217.82, 0.06713995, -0.21413952, -1208360.0, 21363.25, 0.005333032, 9.999263, 9.999974 
2.084995e+3, 1.8451516e+2, -1242300.9, -1249424.8, 71290.09, 0.084591575, -0.221138, -1174483.8, -42754.74, 0.00018960002, 9.99946, 9.999392 
2.0850088e+3, 1.9451377e+2, -1120814.4, -1117767.9, 57984.406, 0.04408684, -0.34719253, -1061286.8, -27540.633, 0.000000020895914, 9.999556, 9.999552 
2.0850225e+3, 2.0451379e+2, -955024.56, -950981.1, 70528.734, 0.009758541, -0.31445816, -882445.1, 53301.555, 0.0, 9.99986, 9.999883 
2.0850366e+3, 2.1451527e+2, -721387.6, -766369.56, 16311.208, -0.037756957, -0.2020184, -716095.5, 121634.51, 0.0, 10.00072, 10.000046 
2.0850512e+3, 2.2451526e+2, -674715.8, -850996.9, 3620.6885, -0.05446587, -0.14278406, -674641.44, 65088.47, 0.0, 10.000988, 9.998704 
2.0850657e+3, 2.3451342e+2, -631158.8, -761927.8, -1452.5594, -0.05625238, -0.24078378, -631142.7, 10607.51, 0.0, 10.000576, 9.998813 
2.0850807e+3, 2.445122e+2, -598271.5, -787976.75, 73021.516, -0.051836394, -0.20447457, -573419.6, -29655.223, 0.0, 10.000501, 9.998013 
2.0850962e+3, 2.545116e+2, -433990.22, -643172.75, 109307.88, -0.060193032, -0.108814165, -387295.2, 58478.473, 0.0, 10.000924, 9.998112 
2.0851104e+3, 2.6451042e+2, -234354.47, -426582.88, 28512.104, -0.04278944, -0.06427799, -230214.6, 117571.336, 0.0, 10.001295, 9.998765 
2.0851228e+3, 2.745086e+2, -74943.25, -264817.13, -16790.58, -0.014813878, -0.18375015, -73469.89, 176332.47, 0.000000115745564, 10.001607, 9.999024 
2.0851368e+3, 2.8450796e+2, 79698.32, -159165.31, 49558.137, 0.029293269, -0.14624543, 89572.22, 241378.17, 0.0000020138657, 10.00201, 9.998925 
2.0851514e+3, 2.945085e+2, 238609.81, -2873.658, -877.1758, 0.042040113, -0.049935102, 238612.98, 292409.88, 0.000014504671, 10.002351, 9.99913 
2.0851636e+3, 3.045057e+2, 264803.9, -100663.05, 71173.53, -0.26384604, -0.19056442, 278175.5, 278175.5, 0.00005340342, 10.002706, 9.998002 
2.085182e+3, 3.145049e+2, 283447.78, -137582.75, -178548.78, 0.09801472, -0.15205388, 348969.38, 348969.38, 0.0001257325, 10.002985, 9.997585 
2.0949101e+3, 1.244938e+2, -2012212.6, -1845698.1, 140422.38, -0.21558669, -0.43402818, -1765706.5, -45771.58, 0.42994058, 9.99778, 10.000136 
2.0949243e+3, 1.3449813e+2, -1684420.3, -1374108.6, -30199.158, -0.14113311, -0.3957685, -1371197.0, 250693.58, 0.31401625, 9.997838, 10.003441 
2.0949402e+3, 1.4450277e+2, -1703624.5, -1616260.1, -45320.918, 0.15437157, -0.11868673, -1596996.9, -73151.95, 0.19429262, 9.998701, 9.999935 
2.0949504e+3, 1.545015e+2, -1619957.5, -1537475.0, -49166.16, -0.0014131633, -0.2681563, -1514543.4, -88683.24, 0.094824284, 9.998691, 9.999789 
2.0949633e+3, 1.6450177e+2, -1471067.8, -1358121.5, 74946.55, -0.042773966, -0.23949152, -1320753.3, 7104.498, 0.032688897, 9.998766, 10.000336 
2.0949785e+3, 1.745023e+2, -1277801.3, -1173853.9, 120424.26, -0.08249199, -0.2809658, -1094666.4, 135183.81, 0.0061590113, 9.999293, 10.00065 
2.0949934e+3, 1.8450275e+2, -1226838.0, -1238281.5, 60479.055, -0.0888894, -0.24373604, -1171810.6, -39964.332, 0.00026052183, 9.999546, 9.999427 
2.0950083e+3, 1.9450364e+2, -1133835.4, -1132931.5, 68974.164, 0.02129651, -0.13625884, -1064407.8, -30565.896, 0.00000016154512, 9.999505, 9.999471 
2.095023e+3, 2.0450309e+2, -1063094.9, -1137884.0, 87104.94, 0.021420745, -0.09993113, -1005696.9, -69846.69, 0.0, 9.999701, 9.998674 
2.0950368e+3, 2.1450058e+2, -845396.94, -966422.06, 59677.633, -0.116729066, -0.26160514, -820920.1, 16956.06, 0.0, 10.0004835, 9.998779 
2.0950513e+3, 2.2449963e+2, -710384.56, -850703.7, -21013.813, -0.16954614, -0.23824574, -707305.2, 32582.42, 0.0, 10.000669, 9.9988575 
2.0950662e+3, 2.3450054e+2, -650278.25, -744804.7, -2053.7117, -0.089509234, -0.08326499, -650233.7, -8352.213, 0.0, 10.000333, 9.999046 
2.0950815e+3, 2.4450056e+2, -560211.2, -628097.0, 75074.12, -0.0485226, 0.0004903245, -511763.28, 32118.295, 0.0, 10.0001545, 9.999275 
2.0950976e+3, 2.5449926e+2, -372252.28, -466029.78, 139432.9, -0.036225095, -0.106473655, -272035.3, 173856.19, 0.0, 10.000711, 9.999431 
2.0951118e+3, 2.6449767e+2, -318904.7, -526115.8, 25330.281, -0.047141485, -0.15285939, -315853.16, 32051.941, 0.0, 10.000979, 9.998229 
2.0951246e+3, 2.744956e+2, -161303.31, -386952.3, 10953.138, -0.032594416, -0.23367415, -160772.89, 89151.74, 0.0, 10.001364, 9.9983 
2.0951389e+3, 2.8449333e+2, -64510.83, -346332.28, 45257.254, -0.0005947539, -0.26620427, -57421.38, 94525.58, 0.00000039293647, 10.001541, 9.997863 
2.0951538e+3, 2.944913e+2, 137079.84, -133089.0, 39159.83, 0.012385595, -0.32933632, 142641.4, 196609.56, 0.000007667558, 10.002009, 9.998401 
2.0951653e+3, 3.044941e+2, 302754.03, 166326.52, 59643.438, -0.39038688, 0.011808924, 325151.84, 325151.84, 0.000037309022, 10.001957, 10.000171 
2.095186e+3, 3.1449306e+2, 205945.53, -46239.746, 46222.73, 0.12950723, -0.18317027, 214150.67, 214150.67, 0.00009614077, 10.002006, 9.998638 
2.1049084e+3, 1.2448067e+2, -1900171.9, -1902810.1, 247085.23, -0.21937968, -0.08987483, -1654402.3, 65665.24, 0.44859928, 9.999154, 9.99925 
2.1049224e+3, 1.3448317e+2, -1762659.6, -1341817.0, -91001.13, -0.052190535, -0.35012418, -1322982.3, 299059.44, 0.3298663, 9.996904, 10.0043125 
2.1049385e+3, 1.4448917e+2, -1943835.9, -1691497.1, -114868.91, 0.21417417, 0.0056853686, -1647039.5, -123057.66, 0.20615475, 9.99689, 10.000285 
2.1049495e+3, 1.5448777e+2, -1561331.3, -1455711.5, -115256.05, 0.0506538, -0.20378847, -1381742.6, 44252.777, 0.10215144, 9.998892, 10.000261 
2.1049625e+3, 1.6448733e+2, -1417024.5, -1345615.0, 6292.3633, -0.019225914, -0.26672623, -1345064.8, -17065.842, 0.036114734, 9.999205, 10.000192 
2.1049774e+3, 1.7448765e+2, -1437297.8, -1266358.0, -31698.316, -0.07637678, -0.31464165, -1260669.4, -30675.46, 0.007176738, 9.998263, 10.000497 
2.1049921e+3, 1.8448846e+2, -1397039.1, -1286488.3, -64091.465, -0.06988933, -0.24909294, -1257128.8, -125142.734, 0.0003661867, 9.998234, 9.999727 
2.1050076e+3, 1.9448969e+2, -1081999.4, -1070327.4, -50982.04, 0.0058652814, -0.13677901, -1024848.44, 9127.666, 0.00000091193453, 9.999708, 9.999798 
2.1050225e+3, 2.0448934e+2, -992910.1, -1102011.0, 27428.348, 0.012607534, -0.102325484, -986402.7, -50420.926, 0.0, 10.000129, 9.998735 
2.1050368e+3, 2.1448681e+2, -996275.75, -1043718.7, 72243.33, -0.09900708, -0.26849255, -943959.0, -105950.24, 0.0, 9.999415, 9.998795 
2.1050517e+3, 2.244859e+2, -860815.5, -897804.3, 86501.03, -0.1316308, -0.24925265, -790853.8, -50834.215, 0.0, 9.999548, 9.999059 
2.1050669e+3, 2.3448682e+2, -533112.5, -663214.1, 71666.734, -0.09609026, -0.114050485, -501376.28, 140636.19, 0.0, 10.001044, 9.999249 
2.1050827e+3, 2.444867e+2, -338118.56, -507867.5, 105097.2, -0.022414213, -0.057344586, -287903.8, 256109.3, 0.0, 10.001603, 9.999417 
2.1050991e+3, 2.5448525e+2, -334118.4, -431938.47, 55321.496, 0.05780998, -0.19041625, -309186.3, 136838.02, 0.0, 10.000902, 9.999578 
2.105114e+3, 2.6448402e+2, -291674.34, -494991.9, -20383.307, 0.07935133, -0.21785697, -289650.97, 58383.52, 0.0, 10.001069, 9.998412 
2.105127e+3, 2.7448276e+2, -10616.548, -298939.53, -2624.1897, 0.03247316, -0.22610518, -10592.666, 239453.4, 0.0, 10.002319, 9.998454 
2.1051411e+3, 2.8448054e+2, 78746.27, -286649.75, 90712.05, 0.038565535, -0.2573456, 100026.79, 252095.25, 0.00000006547354, 10.002606, 9.997736 
2.1051557e+3, 2.9447728e+2, 72560.516, -191611.03, 80866.95, 0.026332607, -0.41586983, 95349.26, 149451.56, 0.000004738257, 10.001723, 9.998121 
2.1051687e+3, 3.0447996e+2, 248535.73, 74261.56, 93153.4, -0.23595962, -0.044896282, 288954.25, 288954.25, 0.00002905632, 10.00184, 9.999601 
2.1051893e+3, 3.1447786e+2, 422454.2, 180926.8, -148037.16, 0.1999991, -0.2807008, 492737.28, 492737.28, 0.00007991688, 10.002928, 9.999768 
2.1149077e+3, 1.24467194e+2, -2029122.8, -2233625.5, 34827.887, -0.3288827, 0.16484581, -2023354.1, -303156.38, 0.46656317, 9.999298, 9.996722 
2.1149182e+3, 1.3446763e+2, -1800052.8, -1411200.6, -142884.55, -0.20612024, -0.29392737, -1364343.6, 257852.61, 0.34608045, 9.997012, 10.003655 
2.114934e+3, 1.4447251e+2, -1906220.4, -1662062.4, -46643.668, 0.028026488, -0.004674562, -1653455.0, -129307.05, 0.21890919, 9.997088, 10.000395 
2.1149482e+3, 1.5447217e+2, -1456191.6, -1284016.0, -35108.03, 0.0015381098, -0.2123418, -1277132.5, 149014.88, 0.110347085, 9.999019, 10.001473 
2.1149617e+3, 1.6447115e+2, -1440758.3, -1431656.9, -44065.82, -0.08724168, -0.37255192, -1391907.4, -63751.105, 0.040102176, 9.999359, 9.999529 
2.1149763e+3, 1.744716e+2, -1504602.5, -1414232.9, -59461.51, -0.038990233, -0.31137145, -1384736.1, -154581.34, 0.008443992, 9.998289, 9.999473 
2.1149914e+3, 1.8447214e+2, -1354495.9, -1207189.9, -30529.71, -0.030395018, -0.24303545, -1201113.1, -68963.34, 0.00052604213, 9.998274, 10.000249 
2.1150063e+3, 1.9447188e+2, -1049565.8, -979666.5, 11790.229, -0.12751974, -0.34486672, -977731.3, 56418.188, 0.0000034897541, 9.999615, 10.000459 
2.1150212e+3, 2.0447238e+2, -932823.75, -929345.9, -10801.565, -0.18053406, -0.32019058, -920144.2, 15998.754, 0.0, 9.999925, 10.000019 
2.1150364e+3, 2.1447392e+2, -939721.56, -866324.6, 54026.125, -0.11438714, -0.21147247, -837711.5, 416.3738, 0.0, 9.99918, 10.000118 
2.1150517e+3, 2.2447403e+2, -901642.9, -904387.3, 126441.3, -0.1196759, -0.16798127, -776566.4, -36439.887, 0.0, 9.999209, 9.999177 
2.1150671e+3, 2.344721e+2, -566227.9, -677145.56, 141634.05, -0.19862986, -0.32190347, -469581.88, 172562.88, 0.0, 10.000806, 9.9992695 
2.1150832e+3, 2.4447054e+2, -459625.38, -674510.75, 69726.484, -0.15352999, -0.36635512, -438983.28, 105177.305, 0.0, 10.001242, 9.99844 
2.1151006e+3, 2.5446942e+2, -440172.72, -599686.3, 41062.645, 0.09053226, -0.3660811, -430222.84, 15950.851, 0.0, 10.000686, 9.998522 
2.1151163e+3, 2.6446933e+2, -294109.47, -408643.13, 11839.299, 0.16183752, -0.26157844, -292898.44, 55277.11, 0.0, 10.0006895, 9.99918 
2.1151297e+3, 2.7447015e+2, 25310.29, -169377.39, 63720.02, 0.029278798, -0.15706909, 44311.043, 294477.06, 0.0, 10.002088, 9.99945 
2.1151428e+3, 2.8446904e+2, 42845.367, -267758.22, 43000.66, -0.09213971, -0.15224163, 48688.55, 200864.23, 0.00000005479561, 10.002203, 9.998061 
2.1151565e+3, 2.9446557e+2, 30995.867, -222883.22, 74154.49, -0.102006465, -0.36607763, 51068.35, 105276.29, 0.0000044706885, 10.001465, 9.998036 
2.1151721e+3, 3.0446294e+2, -119985.734, -467192.56, 104719.03, -0.109482035, -0.3420309, -90847.39, -90847.39, 0.000027145721, 10.000954, 9.996274 
2.1151912e+3, 3.1445977e+2, 286615.38, 150361.48, 10926.597, 0.035375945, -0.39796713, 287486.03, 287486.03, 0.00007500438, 10.00193, 10.000005 
2.1249104e+3, 1.2444546e+2, -2360224.3, -1685684.3, 75328.37, 0.26567742, -0.6583267, -1677374.5, 43035.17, 0.48543465, 9.99369, 10.003493 
2.1249153e+3, 1.3445327e+2, -1731729.0, -1469758.6, -70868.4, -0.22137584, -0.25942716, -1451816.1, 170518.45, 0.3637423, 9.997995, 10.002538 
2.1249314e+3, 1.4445472e+2, -1678418.4, -1590435.8, 71015.125, -0.017463624, -0.22982574, -1550890.4, -26570.098, 0.23315269, 9.998798, 10.000066 
2.124947e+3, 1.5445603e+2, -1523844.8, -1331469.0, -36492.87, -0.0041578, -0.2522117, -1324779.1, 101526.68, 0.1197026, 9.998591, 10.00135 
2.1249609e+3, 1.6445592e+2, -1534867.3, -1476006.6, -89178.38, -0.048807774, -0.32078296, -1411527.9, -83220.125, 0.044803485, 9.998694, 9.999559 
2.1249756e+3, 1.7445633e+2, -1312972.6, -1326649.8, -57515.406, -0.007876303, -0.2548615, -1261890.6, -31583.814, 0.01004214, 9.999625, 9.999431 
2.1249907e+3, 1.8445665e+2, -1116869.4, -1080907.9, 41499.0, -0.0016094847, -0.21126206, -1053661.8, 78641.836, 0.0007722133, 9.999843, 10.000359 
2.1250056e+3, 1.9445583e+2, -1035720.9, -964470.44, 22267.035, -0.14343782, -0.3820001, -958084.06, 76223.14, 0.000010944595, 9.999646, 10.000562 
2.1250208e+3, 2.044563e+2, -980841.9, -916196.6, -69040.03, -0.1692826, -0.37926456, -872287.5, 64011.805, 0.0, 9.999459, 10.000321 
2.1250361e+3, 2.1445842e+2, -860734.8, -787920.9, -113189.63, -0.064687654, -0.24428554, -705427.2, 132849.77, 0.0, 9.999578, 10.000442 
2.125052e+3, 2.2445871e+2, -845022.5, -865148.7, -18614.416, -0.014025563, -0.2063471, -833925.25, -93652.19, 0.0, 9.999532, 9.999299 
2.1250682e+3, 2.3445657e+2, -783935.56, -768833.25, -16391.572, -0.08794733, -0.38858, -758337.1, -116043.73, 0.0, 9.99925, 9.999394 
2.1250844e+3, 2.4445513e+2, -709256.1, -769085.4, -39398.95, -0.059211675, -0.4389052, -689701.94, -145394.11, 0.0, 9.999441, 9.998648 
2.1251011e+3, 2.5445434e+2, -483427.22, -599242.56, -11878.267, 0.08544294, -0.41891047, -482221.53, -35904.523, 0.0, 10.000314, 9.998704 
2.1251169e+3, 2.6445425e+2, -236762.02, -388194.44, 29666.068, 0.14343628, -0.31647432, -231157.75, 117161.1, 0.0, 10.001122, 9.999107 
2.1251313e+3, 2.7445462e+2, -38502.43, -210915.16, -32021.508, 0.029075284, -0.24110743, -32747.313, 217568.27, 0.0, 10.001718, 9.999336 
2.1251452e+3, 2.8445405e+2, 80106.734, -222423.45, -106929.32, -0.05677775, -0.1883847, 114084.75, 266405.0, 0.000000117451826, 10.002309, 9.998345 
2.1251592e+3, 2.944521e+2, 251971.9, -84615.1, -120368.9, -0.044031702, -0.2723322, 290587.5, 344924.13, 0.0000050467984, 10.002838, 9.998334 
2.1251765e+3, 3.044475e+2, 189513.02, -436252.06, 80499.74, 0.12082009, -0.41252917, 199702.75, 199702.75, 0.00002697455, 10.003473, 9.995341 
2.1251944e+3, 3.1444523e+2, 433831.2, 165885.39, -7310.364, 0.13529819, -0.260983, 434030.47, 434030.47, 0.00007158717, 10.0030575, 9.999643 
2.1349138e+3, 1.344404e+2, -1823702.5, -1607851.3, -27638.057, -0.22963336, -0.15147108, -1604368.6, 18084.467, 0.38411817, 9.998079, 10.000967 
2.1349299e+3, 1.4443567e+2, -1716124.4, -1714885.3, 26171.873, -0.12285383, -0.6563556, -1689325.6, -164825.78, 0.24951555, 9.998988, 9.999118 
2.1349451e+3, 1.5443932e+2, -1606274.4, -1516116.5, -43340.215, -0.0986999, -0.31462982, -1498661.5, -72189.734, 0.13052814, 9.998695, 9.999937 
2.1349597e+3, 1.6444145e+2, -1457806.6, -1357755.0, -73744.69, -0.089897886, -0.119198516, -1318669.3, 9785.52, 0.050404422, 9.998872, 10.000287 
2.1349743e+3, 1.7444177e+2, -1247211.3, -1192688.9, -15891.15, -0.112800576, -0.15190443, -1188395.4, 42055.45, 0.012084308, 9.9996395, 10.000342 
2.1349895e+3, 1.8444192e+2, -1131202.4, -1128958.0, 22629.527, -0.15249704, -0.15736337, -1107422.9, 25024.828, 0.001155736, 9.999919, 9.999991 
2.1350054e+3, 1.9444154e+2, -1075626.6, -1037149.06, 24365.566, -0.16964467, -0.23866345, -1025342.56, 9106.284, 0.000030850606, 9.999597, 10.00009 
2.135021e+3, 2.0444098e+2, -1059368.5, -1035241.56, -79306.29, -0.1465652, -0.28122947, -967086.5, -30634.64, 0.0, 9.999273, 9.999595 
2.1350358e+3, 2.1444009e+2, -944877.4, -909236.9, -96961.12, -0.06123392, -0.3719754, -828472.06, 9985.951, 0.0, 9.9993515, 9.999718 
2.135052e+3, 2.244399e+2, -885605.2, -862358.6, -36105.805, 0.015634242, -0.35461664, -836051.3, -95591.875, 0.0, 9.999173, 9.999482 
2.1350695e+3, 2.3444027e+2, -803307.2, -758873.0, -14097.624, 0.10434006, -0.30899414, -754777.7, -112319.66, 0.0, 9.999039, 9.999564 
2.1350855e+3, 2.4444029e+2, -674357.25, -621733.2, -20733.861, 0.06934014, -0.27652466, -614545.7, -70089.06, 0.0, 9.999126, 9.999806 
2.1350999e+3, 2.5443977e+2, -423297.53, -430932.56, 34653.035, -0.078922704, -0.3587206, -392252.38, 54203.984, 0.0, 10.000126, 9.999946 
2.1351154e+3, 2.6443845e+2, -365632.25, -572677.5, 39282.47, -0.14605166, -0.3952493, -358429.78, -9961.579, 0.0, 10.00078, 9.997998 
2.1351321e+3, 2.7443588e+2, -164674.25, -420757.88, 6805.312, -0.10218187, -0.49044198, -164493.53, 86004.09, 0.00000000014169585, 10.001489, 9.998006 
2.1351478e+3, 2.844351e+2, 8590.071, -247650.56, -103228.516, -0.090075694, -0.38832736, 45002.25, 197509.1, 0.000000256191, 10.001812, 9.99839 
2.1351631e+3, 2.9443645e+2, 235967.64, -51121.965, -65177.297, 0.03102254, -0.17035395, 250071.78, 304562.88, 0.0000052967753, 10.002543, 9.998702 
2.1351804e+3, 3.0443227e+2, 139076.08, -322566.25, 66929.48, 0.11757171, -0.35172784, 148583.78, 148583.78, 0.000025200057, 10.002624, 9.9964905 
2.1351963e+3, 3.1442964e+2, 184272.67, -38276.344, -877.4476, -0.06239392, -0.34548432, 184276.13, 184276.13, 0.00006359548, 10.001822, 9.998781 
2.1449122e+3, 1.3442567e+2, -1986847.4, -1683063.3, 37210.992, -0.10781254, -0.09646302, -1678571.6, -55975.27, 0.40760165, 9.996954, 10.000895 
2.144929e+3, 1.4441998e+2, -1884759.3, -1854600.1, -19229.037, -0.047821935, -0.6731211, -1845243.0, -320591.47, 0.26811564, 9.998095, 9.99858 
2.144944e+3, 1.544235e+2, -1581135.3, -1582819.5, -48767.33, -0.08601185, -0.27497992, -1533202.8, -106574.05, 0.14296411, 9.999231, 9.999208 
2.1449593e+3, 1.6442586e+2, -1353966.0, -1261697.5, -53254.402, -0.036694635, -0.036083035, -1237373.3, 91237.37, 0.057087187, 9.999397, 10.000719 
2.1449739e+3, 1.7442602e+2, -1351656.5, -1180629.4, -54833.434, -0.067893796, -0.14255808, -1164559.1, 66046.18, 0.014719365, 9.998674, 10.000891 
2.144989e+3, 1.8442619e+2, -1357021.3, -1236273.1, 10669.565, -0.10230309, -0.17545629, -1235337.6, -102736.625, 0.0017550356, 9.998366, 10.000004 
2.1450053e+3, 1.9442633e+2, -1135922.3, -1065624.3, 22455.762, -0.112221256, -0.2034426, -1059063.4, -24465.555, 0.00008036648, 9.999194, 10.000077 
2.1450213e+3, 2.044257e+2, -1000609.75, -1031289.25, -17075.727, -0.061223935, -0.24228191, -992995.44, -56393.516, 0.000000018813253, 9.999785, 9.999374 
2.1450366e+3, 2.1442394e+2, -812044.9, -874478.7, -19703.06, 0.019853266, -0.3974358, -806346.94, 32269.438, 0.0, 10.00037, 9.9994755 
2.1450527e+3, 2.2442342e+2, -709825.06, -811051.56, 43625.867, 0.100751005, -0.38568953, -693618.25, 47003.574, 0.0, 10.000519, 9.999193 
2.1450695e+3, 2.3442422e+2, -645322.44, -712621.7, -479.52283, 0.14786758, -0.26356748, -645319.06, -2700.687, 0.0, 10.00026, 9.999294 
2.1450856e+3, 2.4442452e+2, -472731.78, -496160.97, 1174.4724, 0.11736257, -0.20171762, -472673.06, 71941.59, 0.0, 10.000374, 10.000079 
2.1451008e+3, 2.5442407e+2, -279521.56, -328996.25, -33504.27, -0.030196961, -0.30308452, -262611.9, 184000.11, 0.0, 10.000963, 10.000247 
2.1451166e+3, 2.644226e+2, -286127.34, -532138.1, -18247.293, -0.09985785, -0.36807802, -284781.25, 63842.203, 0.0, 10.001295, 9.998036 
2.1451333e+3, 2.7441987e+2, -192689.19, -428158.0, 6390.4165, -0.110053964, -0.48364502, -192515.89, 58137.766, 0.00000000016893417, 10.001273, 9.998058 
2.1451497e+3, 2.8441885e+2, -26816.086, -307265.97, -15330.7295, -0.05078225, -0.39328513, -25980.525, 126684.22, 0.0000002738674, 10.001703, 9.998047 
2.1451665e+3, 2.9441947e+2, 240044.64, -68992.46, -61549.996, 0.130206, -0.20933217, 251852.23, 306509.72, 0.0000047479944, 10.002665, 9.998511 
2.1451843e+3, 3.0441606e+2, 388885.28, -59965.39, 64299.535, 0.213232, -0.38768682, 397914.78, 397914.78, 0.000021563434, 10.003617, 9.997859 
2.1451999e+3, 3.144148e+2, 446282.53, 47475.21, -127343.01, 0.07155894, -0.35327634, 483475.72, 483475.72, 0.000054127682, 10.003699, 9.998483 
2.1549101e+3, 1.3440916e+2, -1892491.3, -1563993.1, 87623.06, -0.10597067, -0.07459275, -1542082.1, 80681.41, 0.43279883, 9.997092, 10.002029 
2.1549277e+3, 1.4440732e+2, -1842926.8, -1855556.4, -25985.182, -0.10448104, -0.3278814, -1822500.1, -297721.03, 0.28823382, 9.998448, 9.998409 
2.1549433e+3, 1.5440866e+2, -1577732.6, -1606364.6, 219.38545, -0.11462623, -0.13542017, -1577731.0, -150954.56, 0.15688464, 9.999353, 9.998987 
2.1549587e+3, 1.6440925e+2, -1326170.4, -1246964.6, -88226.195, -0.08013622, -0.06646168, -1189860.5, 138913.48, 0.06501248, 9.999596, 10.000736 
2.1549736e+3, 1.74409e+2, -1346242.8, -1168517.5, -80052.1, -0.009430061, -0.22126244, -1137777.0, 92994.23, 0.018139776, 9.998679, 10.000968 
2.1549888e+3, 1.8440926e+2, -1318611.0, -1174716.6, 20533.037, -0.026455712, -0.26477888, -1171844.0, -39079.117, 0.0026903055, 9.998436, 10.000398 
2.1550049e+3, 1.9441016e+2, -1111191.5, -998501.0, 62203.414, -0.10824435, -0.2638528, -970917.4, 63836.977, 0.00019736934, 9.999131, 10.000566 
2.155021e+3, 2.0441043e+2, -1004014.0, -1005549.2, -9584.858, -0.09551902, -0.2508956, -995166.06, -58416.29, 0.0000007869328, 9.999638, 9.999625 
2.1550374e+3, 2.1440975e+2, -823372.1, -857061.06, 11102.792, 0.04411412, -0.3213423, -820042.1, 18711.838, 0.0, 10.000186, 9.999686 
2.155053e+3, 2.2440909e+2, -814156.25, -955615.75, 22458.375, 0.052548654, -0.29736632, -810676.3, -69914.445, 0.0, 10.000204, 9.998351 
2.1550676e+3, 2.3440826e+2, -737117.1, -854053.3, 3217.0295, -0.085525006, -0.25262687, -737028.7, -94252.914, 0.0, 10.000044, 9.998426 
2.1550842e+3, 2.4440767e+2, -571553.94, -613479.7, 9371.577, -0.087428175, -0.20756395, -569554.5, -24771.219, 0.0, 10.000011, 9.99944 
2.1551032e+3, 2.5440708e+2, -355078.03, -438170.22, 2222.5593, 0.103723206, -0.25790662, -355018.63, 91766.33, 0.0, 10.000755, 9.999598 
2.1551204e+3, 2.6440653e+2, -264958.97, -403324.8, -26124.186, 0.08231279, -0.25144044, -260190.89, 88595.92, 0.0, 10.000939, 9.999088 
2.1551345e+3, 2.7440602e+2, -141995.72, -272154.9, 20709.898, -0.14070024, -0.26384026, -138779.97, 112009.01, 0.0, 10.001048, 9.999242 
2.1551506e+3, 2.844044e+2, -157768.08, -457945.13, 3820.5398, -0.15083458, -0.25812387, -157719.47, -4916.199, 0.000000100631844, 10.001223, 9.997226 
2.1551692e+3, 2.9440087e+2, 111327.71, -245148.28, 6504.0083, 0.089694105, -0.3912076, 111446.336, 166284.08, 0.0000031808167, 10.002279, 9.997484 
2.1551865e+3, 3.043975e+2, 337355.16, 61569.473, 52560.477, 0.016508117, -0.5681292, 347032.75, 347032.75, 0.000016664693, 10.0027, 9.999103 
2.1552044e+3, 3.144018e+2, 268905.84, -100588.45, 38280.797, 0.035913754, -0.15382305, 272830.2, 272830.2, 0.000045618737, 10.00279, 9.997888 
2.1649075e+3, 1.3438909e+2, -1842584.5, -1533485.8, 63653.105, -0.07398711, -0.21335682, -1520890.9, 102072.875, 0.45757636, 9.997383, 10.002308 
2.1649262e+3, 1.4439075e+2, -1716741.1, -1638754.0, -164976.47, -0.07028238, -0.16094549, -1508225.5, 16718.922, 0.3088363, 9.998665, 9.999833 
2.1649422e+3, 1.5439141e+2, -1732427.0, -1545484.8, -59795.508, -0.089470334, -0.17606252, -1527994.8, -101050.56, 0.17204043, 9.997721, 10.000181 
2.1649578e+3, 1.6439189e+2, -1635486.9, -1398283.6, -71298.81, -0.03623143, -0.17596409, -1378502.1, -49561.145, 0.07433442, 9.997449, 10.000696 
2.1649727e+3, 1.7439243e+2, -1250957.0, -1128831.4, -77895.34, 0.0041304203, -0.24992208, -1090917.6, 140013.83, 0.022589553, 9.99932, 10.000959 
2.164988e+3, 1.8439296e+2, -1125508.5, -1086105.3, 6173.6523, 0.010876036, -0.26178434, -1085160.6, 47762.766, 0.00413868, 9.999814, 10.000334 
2.1650046e+3, 1.9439338e+2, -1137621.5, -1028868.6, -29829.621, -0.036038637, -0.29367, -1021224.06, 13694.5205, 0.00045452762, 9.999039, 10.000409 
2.165021e+3, 2.0439379e+2, -1094839.3, -1028731.0, -79108.48, 0.00091771473, -0.2672501, -976048.75, -39135.184, 0.000007502901, 9.9988985, 9.999829 
2.1650378e+3, 2.1439412e+2, -851799.44, -844562.56, -80461.68, 0.086080246, -0.25830865, -767638.0, 71271.11, 0.0, 9.999874, 9.999927 
2.1650535e+3, 2.2439371e+2, -784413.7, -942921.5, -44004.46, 0.06749408, -0.21707477, -773016.75, -32102.555, 0.0, 10.000433, 9.998319 
2.1650676e+3, 2.3439215e+2, -652249.44, -823391.5, -30441.107, -0.10417309, -0.24049073, -646996.1, -4062.5535, 0.0, 10.000669, 9.998336 
2.1650845e+3, 2.443909e+2, -514167.53, -667272.5, 34603.07, -0.078261085, -0.21863598, -506710.2, 38237.63, 0.0, 10.000741, 9.998723 
2.1651044e+3, 2.5438988e+2, -423446.75, -540366.7, -4939.2705, 0.1454453, -0.23843935, -423238.47, 23718.428, 0.0, 10.000618, 9.998942 
2.1651219e+3, 2.6438937e+2, -262396.16, -372961.16, -39454.242, 0.16643499, -0.20952909, -249761.13, 99197.555, 0.0, 10.000816, 9.999362 
2.1651365e+3, 2.7438903e+2, -63138.008, -198195.97, -80662.74, -0.045048747, -0.23006767, -25468.887, 225486.84, 0.0, 10.001436, 9.999561 
2.1651533e+3, 2.8438705e+2, -14148.768, -386154.56, -51899.15, -0.0519258, -0.2822013, -7043.9243, 145927.97, 0.0000000029805467, 10.002174, 9.997271 
2.1651714e+3, 2.9438302e+2, 201684.39, -197250.13, -21471.875, 0.071734, -0.45554358, 202836.73, 257848.98, 0.000001345268, 10.00289, 9.997515 
2.165189e+3, 3.0438212e+2, 387766.9, 103127.36, 26504.027, 0.009334748, -0.4063189, 390213.78, 390213.78, 0.000010778314, 10.002961, 9.999264 
2.165207e+3, 3.1438348e+2, 199197.52, -202406.39, -149630.88, 0.056154776, -0.2721559, 248816.84, 248816.84, 0.00003608632, 10.002629, 9.997257 
2.1749052e+3, 1.343669e+2, -1859340.0, -1573139.9, 9904.779, -0.12044211, -0.32988915, -1572797.5, 50385.207, 0.48078975, 9.997792, 10.0014515 
2.174925e+3, 1.4437099e+2, -1523957.4, -1349956.6, -124492.25, -0.15420218, -0.15744828, -1285077.5, 240063.1, 0.32934, 9.998981, 10.002259 
2.1749397e+3, 1.5437183e+2, -1569212.0, -1256511.0, -88681.96, -0.1343856, -0.38504854, -1233111.8, 194019.53, 0.18832743, 9.99777, 10.002426 
2.174955e+3, 1.6437347e+2, -1617249.8, -1402540.6, -23665.39, -0.11451532, -0.37384188, -1399963.1, -70848.85, 0.0852701, 9.99762, 10.000585 
2.1749705e+3, 1.7437638e+2, -1234485.1, -1112898.9, 3259.463, -0.16861783, -0.21790671, -1112811.5, 118273.98, 0.028395085, 9.999387, 10.001036 
2.1749866e+3, 1.8437734e+2, -1168065.8, -1193614.8, -33198.996, -0.1668553, -0.16052832, -1145268.4, -12192.148, 0.006367479, 9.999899, 9.99955 
2.1750039e+3, 1.9437578e+2, -1211405.6, -1167779.0, -52043.805, -0.027316041, -0.30115786, -1133162.0, -98069.47, 0.0009868387, 9.998982, 9.9994755 
2.1750207e+3, 2.0437552e+2, -1108844.9, -1023492.8, -58550.395, 0.03702034, -0.29660392, -993716.2, -56620.32, 0.000047582707, 9.998741, 9.999946 
2.1750374e+3, 2.143769e+2, -863632.9, -818227.4, -34003.484, 0.022180865, -0.20949815, -800044.25, 39038.402, 0.00000000032497088, 9.999654, 10.000213 
2.1750532e+3, 2.2437708e+2, -794181.5, -876910.44, -44003.406, -0.014789817, -0.15468635, -775152.94, -34072.234, 0.0, 10.000069, 9.998945 
2.1750693e+3, 2.3437548e+2, -644550.44, -747762.1, -8748.346, -0.043119587, -0.24806952, -643814.1, -718.5128, 0.0, 10.0004225, 9.998966 
2.175086e+3, 2.4437384e+2, -633749.06, -815549.7, 17496.066, -0.05511503, -0.26067042, -632080.6, -86968.46, 0.0, 10.000325, 9.997896 
2.1751036e+3, 2.543722e+2, -518408.66, -684040.25, 2413.0054, -0.025198702, -0.2590307, -518373.53, -71242.92, 0.0, 10.000393, 9.998059 
2.1751212e+3, 2.643709e+2, -357678.63, -475459.0, -32063.336, -0.017124265, -0.24062435, -349515.78, -373.90704, 0.0, 10.000429, 9.998836 
2.1751389e+3, 2.7436906e+2, -139640.16, -293234.5, -39727.86, 0.029360302, -0.3619531, -129972.84, 121180.05, 0.0, 10.00118, 9.999024 
2.1751565e+3, 2.8436676e+2, -36541.633, -313718.13, -39078.18, 0.0064622667, -0.44830585, -31137.496, 122034.28, 0.0, 10.001687, 9.997992 
2.1751726e+3, 2.943654e+2, 202319.13, -117764.22, 20865.541, -0.124762446, -0.45131359, 203673.58, 258859.39, 0.00000028754212, 10.002558, 9.998214 
2.1751912e+3, 3.0436823e+2, 181024.03, -143559.61, -21282.912, -0.12027352, 0.013831432, 182413.6, 182413.6, 0.0000061263827, 10.002239, 9.997881 
2.175209e+3, 3.1436288e+2, 4070.8647, -373451.88, -32672.46, -0.065811045, -0.4150475, 6877.6143, 6877.6143, 0.000027574106, 10.001667, 9.996521 
2.184924e+3, 1.4435555e+2, -1926004.5, -1506617.6, 34512.906, 0.01528592, -0.21527345, -1503796.5, 21492.71, 0.34983045, 9.996112, 10.002 
2.184938e+3, 1.5435512e+2, -1395244.0, -1213494.8, 12174.813, -0.12945998, -0.50563943, -1212682.9, 214607.84, 0.2059314, 9.999095, 10.0022 
2.1849541e+3, 1.6435817e+2, -1406740.6, -1330336.0, 56398.152, -0.031065939, -0.33674955, -1300419.6, 28840.11, 0.09816949, 9.99921, 10.000324 
2.1849702e+3, 1.7435993e+2, -1219425.6, -1140486.4, 41863.754, -0.14069708, -0.2573719, -1122419.6, 108823.35, 0.036017943, 9.999703, 10.000676 
2.184986e+3, 1.8436016e+2, -1162376.1, -1235736.1, -28461.938, -0.1923513, -0.23833206, -1152628.8, -19387.133, 0.009796201, 10.000082, 9.999191 
2.1850032e+3, 1.9435863e+2, -1040585.9, -1124887.1, -28375.451, -0.046930294, -0.34526706, -1031924.7, 3333.1084, 0.0020521113, 10.000283, 9.999149 
2.1850204e+3, 2.043583e+2, -942623.75, -992149.2, 26222.84, 0.0665712, -0.30955583, -931319.44, 5943.517, 0.00020967671, 10.000118, 9.999492 
2.1850373e+3, 2.1435933e+2, -843027.7, -860361.44, -32597.21, 0.05268022, -0.20951736, -817964.9, 21291.02, 0.00000086887735, 10.000026, 9.999745 
2.1850537e+3, 2.2435932e+2, -786676.44, -870446.1, -69158.695, 0.038270965, -0.14975345, -747707.94, -6451.2373, 0.0, 10.000086, 9.998993 
2.18507e+3, 2.3435788e+2, -631544.0, -724223.3, -98063.23, 0.017022641, -0.23269454, -569422.75, 73845.54, 0.0, 10.000452, 9.999111 
2.1850872e+3, 2.4435622e+2, -555024.06, -806122.8, -47095.4, 0.017259216, -0.24642518, -546481.56, -1197.0187, 0.0, 10.000971, 9.99766 
2.1851048e+3, 2.5435418e+2, -340633.16, -634666.06, -44774.047, 0.0032753102, -0.25485685, -333966.34, 113341.234, 0.0, 10.001738, 9.997766 
2.1851225e+3, 2.6435265e+2, -179589.64, -432922.25, -45396.184, 0.0165809, -0.22504668, -171700.5, 177621.47, 0.0, 10.001811, 9.998477 
2.1851401e+3, 2.743508e+2, -168476.13, -349491.6, -73800.695, 0.039147913, -0.301874, -142201.19, 109134.17, 0.0, 10.001151, 9.998664 
2.1851577e+3, 2.8434858e+2, -111561.625, -292574.38, -32734.318, 0.024610763, -0.3919981, -105823.836, 47529.652, 0.0, 10.000887, 9.998544 
2.1851748e+3, 2.9434687e+2, 18618.541, -164424.75, -37989.684, -0.08200804, -0.47337967, 26189.92, 81558.27, 0.000000027227998, 10.00108, 9.998626 
2.1851946e+3, 3.0434996e+2, 142804.02, -252365.23, -15668.565, 0.0241986, 0.02995239, 143424.31, 143424.31, 0.0000044959556, 10.0022745, 9.997168 
2.1852122e+3, 3.1434375e+2, 482322.0, 23056.926, -115510.71, -0.02814107, -0.38099375, 509737.75, 509737.75, 0.000025056477, 10.0040865, 9.998164 
2.1949224e+3, 1.4434291e+2, -2004187.4, -1673670.4, -192809.63, 0.1266995, -0.30394688, -1584988.1, -59583.336, 0.371045, 9.996221, 10.000707 
2.1949366e+3, 1.5434058e+2, -1528896.9, -1481063.0, 63840.406, -0.24740273, -0.54712284, -1436806.5, -9377.146, 0.22535217, 9.999225, 9.999923 
2.1949546e+3, 1.64346e+2, -1409694.5, -1363567.3, 32650.627, 0.030448198, -0.040951777, -1346656.0, -17279.213, 0.113554515, 9.999338, 10.000017 
2.1949714e+3, 1.7434281e+2, -1290858.6, -1280788.3, 73304.42, -0.03089446, -0.36891353, -1212346.4, 19060.72, 0.046104282, 9.999687, 9.9997 
2.1949863e+3, 1.8434091e+2, -1135616.4, -1196169.6, -25004.305, -0.24252483, -0.5151017, -1126626.1, 6798.519, 0.015073848, 10.000148, 9.999435 
2.1950021e+3, 1.9434191e+2, -1013634.4, -1058904.9, -16482.834, -0.22196804, -0.40936145, -1008268.94, 27145.215, 0.004138987, 10.000245, 9.999621 
2.1950193e+3, 2.0434217e+2, -1046379.56, -1171468.5, 3776.6792, -0.102209985, -0.28610712, -1046265.6, -108851.414, 0.00072646124, 9.999965, 9.998333 
2.1950373e+3, 2.1434124e+2, -968077.9, -1063730.9, -28181.35, 0.03372581, -0.2579159, -960392.56, -120962.01, 0.000022642807, 9.999791, 9.998454 
2.1950541e+3, 2.2434033e+2, -876606.25, -970567.25, -68687.74, 0.039689098, -0.19735347, -840369.1, -98926.02, 0.000000000011542125, 9.999713, 9.998484 
2.1950701e+3, 2.343393e+2, -689062.06, -798609.75, -73045.53, -0.05351861, -0.20047845, -652535.2, -9082.73, 0.0, 10.000256, 9.998692 
2.1950877e+3, 2.4433793e+2, -602792.6, -803197.06, -34055.426, -0.06001193, -0.17209339, -597163.6, -51697.766, 0.0, 10.000551, 9.997872 
2.1951076e+3, 2.5433573e+2, -359727.7, -616496.56, -5049.7515, 0.083823815, -0.22430584, -359628.44, 87859.94, 0.0, 10.001496, 9.998001 
2.195125e+3, 2.6433438e+2, -279407.97, -524971.6, -82315.414, 0.058498066, -0.16987398, -254368.27, 95133.81, 0.0, 10.001341, 9.998054 
2.1951397e+3, 2.743338e+2, -239948.42, -423132.4, -82311.266, -0.15812524, -0.08640673, -208397.25, 43110.527, 0.0, 10.000856, 9.99828 
2.1951568e+3, 2.8433174e+2, -164983.47, -296501.13, -44158.74, -0.20986041, -0.15226308, -151532.34, 1992.3967, 0.0, 10.000452, 9.998715 
2.1951772e+3, 2.9432753e+2, -22680.543, -179670.56, -7337.0186, 0.031157637, -0.5010863, -22338.389, 33220.348, 0.000000020729713, 10.000784, 9.99866 
2.195198e+3, 3.043268e+2, 10700.016, -343193.78, 50758.31, 0.09313992, -0.3501214, 17836.28, 17836.28, 0.0000055230016, 10.00154, 9.996862 
2.1952155e+3, 3.143242e+2, 439093.34, 229023.03, -29920.87, -0.16610067, -0.4186635, 443271.94, 443271.94, 0.000029811183, 10.00292, 10.000088 
2.2049187e+3, 1.4432614e+2, -1612590.0, -1474427.9, -188121.53, 0.024600541, -0.40083972, -1343104.6, 182463.05, 0.39437363, 9.9988985, 10.001317 
2.2049351e+3, 1.5432312e+2, -1773607.4, -1720483.1, -179170.88, -0.24379192, -0.54518163, -1565916.1, -138316.1, 0.24751917, 9.99809, 9.998824 
2.204954e+3, 1.6432892e+2, -1537396.5, -1428076.4, -176489.17, 0.1124336, 0.047519498, -1297976.8, 31567.73, 0.13222682, 9.998452, 10.000043 
2.204971e+3, 1.7432466e+2, -1423832.0, -1382169.8, -95169.16, -0.0008050399, -0.36467436, -1305578.5, -73993.086, 0.059555795, 9.998864, 9.999435 
2.2049865e+3, 1.8432243e+2, -1278414.1, -1242462.4, -131129.55, -0.15942298, -0.53701127, -1128082.4, 5523.722, 0.023171267, 9.99907, 9.999643 
2.2050029e+3, 1.9432409e+2, -1032707.44, -1038922.75, -163436.31, -0.15448943, -0.39221823, -872349.25, 163238.8, 0.008108057, 9.999989, 9.999907 
2.2050197e+3, 2.043244e+2, -997868.7, -1191141.0, -120396.86, -0.060815636, -0.25990483, -940122.3, -2535.4155, 0.0021629941, 10.000476, 9.997962 
2.2050373e+3, 2.1432252e+2, -870431.2, -1069423.1, -111234.6, 0.023805803, -0.2781965, -820687.1, 18925.094, 0.00023583506, 10.000667, 9.998005 
2.2050545e+3, 2.2432084e+2, -716835.6, -947192.7, -74844.18, 0.039607845, -0.24641973, -694654.25, 46978.715, 0.0000019906881, 10.001035, 9.998014 
2.2050713e+3, 2.3431975e+2, -500838.38, -764947.06, -114281.56, -0.045156363, -0.20793487, -458254.2, 185390.48, 0.0, 10.001776, 9.998209 
2.2050892e+3, 2.4431837e+2, -409921.25, -673716.44, -73349.47, -0.019348428, -0.16787404, -390897.97, 154760.38, 0.0, 10.001699, 9.998218 
2.2051087e+3, 2.543164e+2, -453570.03, -603672.0, -64411.797, 0.094397925, -0.24102533, -429719.4, 17957.066, 0.0, 10.000648, 9.998481 
2.205126e+3, 2.643153e+2, -414116.8, -567064.06, -85136.305, 0.08458291, -0.19529244, -376150.9, -26463.94, 0.0, 10.0002985, 9.998277 
2.2051409e+3, 2.7431506e+2, -206100.45, -398602.94, -63563.645, -0.113243125, -0.088875614, -187005.95, 64684.67, 0.0, 10.001008, 9.998398 
2.2051586e+3, 2.8431347e+2, -16390.76, -257140.27, 21757.47, -0.09671864, -0.103272274, -14440.255, 139263.38, 0.0, 10.001613, 9.998424 
2.2051802e+3, 2.943088e+2, 189183.86, -108172.9, -32073.66, 0.15902819, -0.45093757, 192604.06, 248345.78, 0.00000007580395, 10.002384, 9.998378 
2.2052005e+3, 3.0430627e+2, 103244.48, -299532.44, 61855.23, 0.16471982, -0.4821279, 112529.66, 112529.66, 0.0000083740215, 10.002143, 9.996895 
2.2052194e+3, 3.143058e+2, 127493.195, 137231.73, -140102.56, 0.07801348, -0.30566713, 272549.63, 272549.63, 0.000042885644, 10.000479, 10.000629 
2.2149149e+3, 1.4430873e+2, -1457263.8, -1224828.8, 165432.33, -0.3505572, -0.13561833, -1138872.3, 386871.8, 0.4221777, 9.998798, 10.004062 
2.2149341e+3, 1.5430248e+2, -1801961.8, -1757940.6, -145223.31, -0.18806289, -0.49960664, -1633069.3, -205263.75, 0.27423543, 9.99802, 9.998603 
2.214952e+3, 1.6430657e+2, -1479086.3, -1354689.5, -167501.69, -0.014846518, -0.0695752, -1238210.9, 91555.71, 0.15564767, 9.998652, 10.000501 
2.214968e+3, 1.7430551e+2, -1373032.8, -1281972.3, -83052.02, -0.20336011, -0.23660201, -1232789.0, -1010.542, 0.07778218, 9.998889, 10.000104 
2.2149865e+3, 1.8430479e+2, -1269181.0, -1235075.5, -117829.63, -0.119737975, -0.2950258, -1133071.0, 714.2838, 0.035576556, 9.999114, 9.999678 
2.2150049e+3, 1.9430509e+2, -1048056.4, -1041315.7, -119170.05, 0.032122307, -0.28574458, -925468.3, 110311.59, 0.0154146915, 9.999869, 9.999945 
2.2150213e+3, 2.0430478e+2, -993624.75, -1144429.0, -119976.63, 0.0069609154, -0.24187411, -927323.44, 10459.505, 0.005714695, 10.000307, 9.998364 
2.2150369e+3, 2.1430305e+2, -870861.8, -1024047.4, -92608.734, -0.11690744, -0.28567854, -827276.25, 12526.34, 0.0013616167, 10.000468, 9.998409 
2.2150537e+3, 2.2430107e+2, -818920.9, -1066782.6, -61943.76, -0.15994585, -0.27357957, -804302.56, -62478.1, 0.00013056793, 10.000641, 9.997382 
2.2150728e+3, 2.34299e+2, -582535.44, -876812.1, -72510.73, -0.08976614, -0.26682106, -565638.7, 78208.42, 0.0000045921656, 10.001521, 9.997564 
2.2150905e+3, 2.4429733e+2, -453663.1, -646421.5, -126983.09, -0.06588897, -0.23881786, -390625.7, 155237.86, 0.000000030624218, 10.001219, 9.998624 
2.2151077e+3, 2.542959e+2, -460258.53, -544553.94, -92170.44, -0.08667149, -0.31189167, -401056.25, 46817.71, 0.0, 10.000354, 9.999018 
2.215125e+3, 2.6429495e+2, -428882.88, -491173.1, -81010.66, -0.08294805, -0.31360683, -373236.6, -23355.43, 0.0, 9.999864, 9.998999 
2.2151436e+3, 2.7429464e+2, -195882.88, -307272.03, -26430.346, 0.022678321, -0.29702234, -189929.67, 61954.49, 0.0, 10.000725, 9.99915 
2.2151628e+3, 2.842938e+2, -170731.64, -449843.88, 30867.71, 0.104077294, -0.22849968, -167358.66, -13467.59, 0.0, 10.001093, 9.997335 
2.2151826e+3, 2.9429033e+2, 66043.83, -280381.34, 19241.266, 0.13936853, -0.3497028, 67109.25, 123030.83, 0.00000027397763, 10.0020485, 9.997342 
2.215201e+3, 3.042877e+2, 41319.516, -282290.63, -10653.271, -0.05833774, -0.36494273, 41669.844, 41669.844, 0.000015050563, 10.001562, 9.997264 
2.215221e+3, 3.1428674e+2, -133044.2, -161077.72, -36740.945, 0.1014953, -0.27971086, -107737.09, -107737.09, 0.00007034586, 9.999502, 9.999021 
2.2249155e+3, 1.442793e+2, -1606523.3, -1156435.6, 214424.2, -0.082667746, -0.5560365, -1070637.9, 455396.88, 0.45833316, 9.996592, 10.006289 
2.2249348e+3, 1.5428405e+2, -1558351.0, -1536676.1, -141148.22, 0.039693184, -0.29697955, -1405949.9, 22036.352, 0.30885017, 9.999265, 9.999531 
2.2249499e+3, 1.6428377e+2, -1497138.6, -1377210.5, -71050.87, -0.060576964, -0.32307014, -1344201.9, -14212.425, 0.18666483, 9.998568, 10.00031 
2.2249667e+3, 1.7428538e+2, -1325453.9, -1213970.5, -53735.043, -0.2064444, -0.25409162, -1192287.4, 39688.547, 0.103338934, 9.999028, 10.000523 
2.2249869e+3, 1.8428613e+2, -1272144.5, -1254058.6, -67109.22, -0.0022945467, -0.18755528, -1195385.9, -61416.688, 0.054786276, 9.999148, 9.999543 
2.2250059e+3, 1.9428544e+2, -1044004.6, -1066367.4, -101148.484, 0.14525485, -0.25535232, -953421.4, 82552.7, 0.028543482, 9.99999, 9.999715 
2.2250225e+3, 2.042845e+2, -968288.25, -1114872.8, -121976.9, 0.08977734, -0.27083543, -899277.6, 38705.19, 0.013685946, 10.00042, 9.9985075 
2.2250374e+3, 2.1428303e+2, -873199.94, -1009503.6, -147968.63, -0.11810406, -0.29905292, -778442.6, 61555.773, 0.005262215, 10.000399, 9.998545 
2.2250545e+3, 2.2428136e+2, -798049.5, -1018842.5, -44321.484, -0.15299302, -0.2830237, -789484.75, -47468.734, 0.001420654, 10.000592, 9.997745 
2.2250745e+3, 2.342795e+2, -623010.75, -850291.1, 4975.7935, -0.03505932, -0.29577118, -622901.9, 21133.11, 0.0002619265, 10.001022, 9.997995 
2.2250924e+3, 2.4427785e+2, -513692.38, -669202.7, -52234.61, 0.0059041027, -0.2860389, -497776.22, 48273.74, 0.000035642544, 10.000769, 9.998694 
2.2251077e+3, 2.5427648e+2, -519353.47, -567517.75, -73807.07, -0.08323262, -0.36063424, -465799.06, -17739.115, 0.0000011567587, 9.999876, 9.999118 
2.225125e+3, 2.642753e+2, -442419.56, -528244.06, -21101.875, -0.056247965, -0.37808216, -437511.84, -87441.836, 0.0, 9.999891, 9.998739 
2.2251453e+3, 2.742744e+2, -99057.26, -281964.84, -75099.836, 0.10185004, -0.38523936, -72173.48, 179905.89, 0.0, 10.001517, 9.998937 
2.2251652e+3, 2.8427368e+2, 6458.0796, -364699.47, -25568.46, 0.1931258, -0.29651862, 8211.17, 162297.64, 0.0, 10.002289, 9.997364 
2.2251843e+3, 2.9427093e+2, 123086.125, -247548.08, 14112.619, 0.10778887, -0.33228314, 123622.72, 179734.53, 0.00000073017384, 10.002424, 9.997386 
2.2252034e+3, 3.0426934e+2, 230183.25, -214463.84, -13222.107, -0.003505884, -0.25523844, 230576.08, 230576.08, 0.00002755439, 10.002927, 9.997101 
2.2252226e+3, 3.1426534e+2, 395007.75, 26538.139, -202461.05, 0.14193231, -0.39185634, 484511.75, 484511.75, 0.000118261974, 10.003347, 9.99851 
2.2349368e+3, 1.5426849e+2, -1487480.4, -1326183.3, -198938.72, 0.25245932, 0.15589584, -1192167.4, 235968.2, 0.35698506, 9.999032, 10.001625 
2.234948e+3, 1.6425987e+2, -1570820.0, -1529607.8, -71980.86, -0.20397839, -0.77251965, -1475341.6, -145122.16, 0.23053116, 9.998554, 9.999272 
2.234967e+3, 1.7426398e+2, -1334054.0, -1211440.6, -37025.65, -0.13284832, -0.4378302, -1201127.4, 31053.152, 0.14104874, 9.998934, 10.000587 
2.2349863e+3, 1.842663e+2, -1296653.5, -1298420.0, -55055.34, -0.013417627, -0.22228365, -1242474.4, -108315.586, 0.08532412, 9.999125, 9.999248 
2.2350053e+3, 1.9426501e+2, -1091874.5, -1140430.3, -63239.875, 0.054245774, -0.3009441, -1048412.44, -12241.262, 0.05187056, 9.999878, 9.999254 
2.2350222e+3, 2.0426369e+2, -1016825.7, -1164350.8, -134469.34, 0.0017571864, -0.31755653, -937216.4, 969.06104, 0.030293982, 10.000198, 9.998274 
2.2350381e+3, 2.1426235e+2, -911810.06, -1040298.6, -140462.42, -0.10949253, -0.32173946, -821597.2, 18604.344, 0.015773455, 10.000183, 9.998437 
2.2350554e+3, 2.2426148e+2, -763904.44, -848713.56, -40388.563, -0.13025196, -0.28146127, -747748.06, -5538.218, 0.0069356123, 10.000178, 9.999102 
2.2350757e+3, 2.3426104e+2, -551657.6, -646667.1, 34410.945, -0.02870626, -0.3076264, -540503.94, 103705.83, 0.002541045, 10.000785, 9.9995 
2.235093e+3, 2.4425988e+2, -606894.75, -757245.0, -100864.89, -0.012627751, -0.30967507, -556272.3, -10054.02, 0.00075579167, 10.000329, 9.998293 
2.2351082e+3, 2.542581e+2, -582818.0, -636136.1, -97690.0, -0.044453543, -0.39380845, -508214.8, -59980.12, 0.00014769337, 9.999606, 9.998771 
2.2351253e+3, 2.642563e+2, -624049.56, -781913.25, 5873.129, -0.061652463, -0.38553095, -623831.4, -273577.6, 0.000007045108, 9.999388, 9.997224 
2.2351457e+3, 2.742542e+2, -245601.16, -516446.34, -1689.0664, -0.020232163, -0.3695907, -245590.61, 6687.1953, 0.00000000065814787, 10.001224, 9.997455 
2.2351655e+3, 2.8425267e+2, -21149.725, -280504.72, -49654.367, -0.041780524, -0.3277165, -11968.266, 142325.89, 0.0, 10.001726, 9.998188 
2.2351848e+3, 2.9425055e+2, 97946.484, -168997.55, 36800.207, -0.119090736, -0.40985084, 102926.75, 159239.88, 0.0000012574419, 10.0019045, 9.998149 
2.2352068e+3, 3.0425036e+2, -11332.647, -497312.97, -18239.098, -0.006454505, -0.1552529, -10649.086, -10649.086, 0.000044073433, 10.002046, 9.995556 
2.2352253e+3, 3.1424478e+2, 200404.08, -74255.36, -94965.97, 0.035399843, -0.31032807, 230041.39, 230041.39, 0.00018419352, 10.002152, 9.998356 
2.244932e+3, 1.5424658e+2, -1737641.1, -1628622.3, -45975.605, -0.11455064, -0.2674245, -1611822.3, -183476.08, 0.42759266, 9.998078, 9.999268 
2.2449487e+3, 1.6424131e+2, -1270663.9, -1420960.3, 12449.436, -0.08518754, -0.76832724, -1269639.6, 60758.508, 0.29616648, 10.000995, 9.99885 
2.2449683e+3, 1.7424485e+2, -1155026.6, -1216312.4, -35712.973, 0.04292574, -0.4066881, -1138612.1, 93753.01, 0.19952731, 10.000732, 9.999687 
2.2449873e+3, 1.8424627e+2, -1171071.0, -1240156.4, -76553.12, 0.14546648, -0.22821511, -1121628.1, 12723.972, 0.13536815, 10.000008, 9.999217 
2.2450054e+3, 1.942446e+2, -1134909.1, -1156212.5, -74770.41, 0.10199225, -0.35438988, -1070035.5, -33667.21, 0.09319166, 9.999543, 9.999323 
2.2450227e+3, 2.0424342e+2, -1080878.9, -1193621.0, -70987.82, 0.055260748, -0.36421272, -1046602.44, -108221.414, 0.06306426, 9.999683, 9.998361 
2.2450395e+3, 2.1424258e+2, -831479.94, -996339.25, -86305.984, 0.016963024, -0.31724787, -794564.0, 45828.324, 0.0400799, 10.0006895, 9.998522 
2.2450574e+3, 2.2424173e+2, -663428.5, -787488.25, -30223.406, 0.013434211, -0.27984607, -656457.2, 85943.734, 0.023131557, 10.000797, 9.999242 
2.2450764e+3, 2.3424101e+2, -728555.3, -708888.4, -94962.03, 0.044061, -0.3546969, -623252.06, 21152.371, 0.011994159, 9.999462, 9.999719 
2.2450934e+3, 2.4423997e+2, -706618.06, -817269.7, -210117.08, 0.05254408, -0.34714207, -544664.94, 1747.163, 0.0054928027, 9.999636, 9.998241 
2.245109e+3, 2.5423896e+2, -272811.6, -488610.66, -201431.92, -0.022574805, -0.34890082, -152200.45, 296220.8, 0.002050329, 10.00173, 9.998775 
2.2451259e+3, 2.642371e+2, -216499.66, -634004.6, -32690.004, -0.054073956, -0.3168613, -213955.58, 136484.88, 0.0004876709, 10.002375, 9.996814 
2.245147e+3, 2.7423403e+2, -149308.78, -500677.22, 30764.21, -0.042596858, -0.36278534, -146635.55, 105838.08, 0.000047167257, 10.00201, 9.997196 
2.245167e+3, 2.8423232e+2, -47288.53, -263413.88, -772.71606, -0.03038565, -0.34634712, -47285.77, 107206.62, 0.00000034188096, 10.001392, 9.99848 
2.245187e+3, 2.9423073e+2, 101005.86, -160210.36, -7765.8926, -0.085212186, -0.37458885, 101236.54, 157744.53, 0.0000013302117, 10.001836, 9.998276 
2.2452097e+3, 3.0423042e+2, 23806.783, -462179.28, 29363.107, 0.10073843, -0.16870755, 25574.463, 25574.463, 0.0000584347, 10.00214, 9.995767 
2.2452287e+3, 3.1422564e+2, 287983.1, 132178.69, -51560.78, 0.17470525, -0.22343177, 303500.75, 303500.75, 0.00025945, 10.001927, 9.999896 
2.2549514e+3, 1.6422911e+2, -1370955.5, -1553321.1, -8531.151, -0.019469375, -0.19226626, -1370557.3, -40041.4, 0.39765337, 10.000441, 9.998182 
2.2549713e+3, 1.7422782e+2, -1275831.5, -1492604.5, -70392.03, 0.17846575, -0.16804148, -1254979.3, -22447.857, 0.29298013, 10.000673, 9.997775 
2.2549894e+3, 1.8422578e+2, -1223458.1, -1280809.6, -139052.56, 0.26980668, -0.22102888, -1110155.4, 24396.56, 0.21888196, 9.999737, 9.999066 
2.2550057e+3, 1.9422369e+2, -1140357.3, -1102073.8, -92476.51, 0.14091276, -0.44275886, -1026778.7, 9791.449, 0.16615056, 9.999275, 9.999809 
2.2550227e+3, 2.0422335e+2, -1105062.8, -1166564.4, -46134.35, 0.033305082, -0.43257603, -1080370.0, -141796.9, 0.12546477, 9.999362, 9.998679 
2.2550413e+3, 2.142235e+2, -851261.6, -982440.0, -36586.184, 0.09453378, -0.31616834, -841747.6, -1174.437, 0.0914258, 10.000453, 9.998708 
2.255059e+3, 2.2422208e+2, -827974.25, -1024724.5, -81360.01, 0.0748456, -0.27979383, -798689.2, -56099.684, 0.062582165, 10.000332, 9.997836 
2.2550765e+3, 2.342193e+2, -849326.4, -904978.4, -132873.78, 0.06730613, -0.4375258, -741396.25, -96776.52, 0.039919913, 9.999212, 9.998494 
2.255093e+3, 2.442181e+2, -800595.94, -844323.0, -162359.98, -0.008931823, -0.38813704, -658634.0, -112002.055, 0.023601582, 9.998947, 9.99837 
2.2551095e+3, 2.5421908e+2, -305591.13, -459929.22, -114406.56, -0.16557612, -0.23545246, -244760.45, 203858.86, 0.012405956, 10.001356, 9.999134 
2.255127e+3, 2.6421762e+2, -276644.88, -619076.06, -77549.59, -0.23551463, -0.18582514, -259901.11, 90730.57, 0.005154125, 10.001807, 9.997178 
2.2551484e+3, 2.7421376e+2, -163209.94, -409672.7, 25213.871, -0.13533236, -0.39955097, -160656.94, 92011.69, 0.0013586987, 10.001521, 9.998041 
2.2551687e+3, 2.8421226e+2, -215208.11, -423644.47, -33973.543, -0.041379128, -0.37987664, -209810.45, -55125.414, 0.00015517221, 10.000631, 9.997724 
2.2551902e+3, 2.942117e+2, -18358.656, -279443.25, 30902.303, 0.022333141, -0.22150728, -14750.874, 41943.348, 0.0000026982873, 10.001362, 9.997644 
2.2552115e+3, 3.0420968e+2, 19710.023, -295644.9, -1091.1968, -0.02916263, -0.23880024, 19713.8, 19713.8, 0.000065484004, 10.001449, 9.997217 
2.2552292e+3, 3.1420442e+2, 310653.3, 424214.53, 144087.19, -0.04052247, -0.47941333, 522305.34, 522305.34, 0.00034262822, 10.000951, 10.0023575 
2.2649683e+3, 1.7420195e+2, -1469258.8, -1253238.5, -73968.03, 0.0056109857, -0.6014658, -1230338.5, 2441.1062, 0.44342524, 9.997188, 10.001289 
2.2649902e+3, 1.8420434e+2, -890018.25, -1177845.4, 36128.41, 0.17563002, -0.61235565, -885552.6, 249204.66, 0.3585124, 10.003275, 9.9981 
2.2650051e+3, 1.9420378e+2, -996219.5, -1153628.0, -92464.34, 0.08208338, -0.5166058, -953498.8, 83265.52, 0.29413474, 10.001009, 9.998597 
2.2650212e+3, 2.0420305e+2, -974325.06, -1068554.6, -40497.66, -0.057279438, -0.5026059, -959312.06, -20539.355, 0.24160613, 9.999972, 9.999112 
2.2650383e+3, 2.1420245e+2, -880686.1, -955998.94, -44948.97, -0.21379977, -0.49733764, -859704.56, -18925.121, 0.1940874, 9.999996, 9.999152 
2.2650567e+3, 2.2420149e+2, -768286.1, -1041441.8, -28194.887, -0.21956854, -0.42781758, -765406.2, -22615.17, 0.14888066, 10.000883, 9.997482 
2.2650757e+3, 2.3420028e+2, -477327.34, -790912.75, -64242.223, -0.076582685, -0.34628403, -464676.78, 180129.84, 0.108788945, 10.002235, 9.997838 
2.2650938e+3, 2.441985e+2, -328570.6, -681031.4, -62850.438, 0.009799821, -0.27761182, -317698.53, 229126.58, 0.07581198, 10.002527, 9.9978 
2.2651125e+3, 2.541969e+2, -337515.72, -541470.4, -106538.69, 0.024451824, -0.3336803, -292014.7, 156823.27, 0.048806984, 10.00133, 9.998666 
2.2651301e+3, 2.6419473e+2, -415249.03, -658169.25, -99662.83, -0.005847942, -0.33671677, -379593.78, -28736.887, 0.026684597, 10.000638, 9.997512 
2.2651501e+3, 2.741924e+2, -112216.414, -346844.8, -54864.684, -0.084054135, -0.44004548, -100020.945, 152856.95, 0.010897145, 10.001616, 9.998478 
2.2651696e+3, 2.8419104e+2, -180314.55, -444767.38, -105525.66, 0.01451626, -0.40466493, -143368.02, 11523.616, 0.002788968, 10.000988, 9.9974375 
2.265194e+3, 2.9418996e+2, 199038.78, -198373.58, 24659.2, 0.20776138, -0.25393206, 200563.02, 257468.78, 0.0003034348, 10.002986, 9.997426 
2.2652146e+3, 3.041873e+2, 337139.1, -105846.54, -78312.02, 0.07901251, -0.38445053, 350575.7, 350575.7, 0.000074942734, 10.003517, 9.99754 
2.2652312e+3, 3.141833e+2, 324319.03, 290118.28, -116124.84, 0.02212714, -0.36128876, 424595.8, 424595.8, 0.00045627946, 10.001513, 10.001269 
2.2750232e+3, 2.0418745e+2, -947039.44, -1192811.9, 26855.291, 0.054425072, -0.033145085, -944139.2, -5207.403, 0.4526298, 10.000787, 9.997804 
2.27504e+3, 2.1418473e+2, -781422.6, -845189.0, -78545.55, -0.079774566, -0.3075459, -728535.9, 112422.84, 0.38963944, 10.000792, 9.999593 
2.2750618e+3, 2.2418353e+2, -849364.75, -1090183.8, -198385.64, 0.121588126, -0.33611757, -737706.8, 5263.4624, 0.32267725, 10.000414, 9.997325 
2.2750783e+3, 2.3418361e+2, -659867.8, -904641.25, -67983.016, -0.050752543, -0.13630822, -642253.8, 2714.7468, 0.25840095, 10.000959, 9.997593 
2.2750959e+3, 2.4417976e+2, -687891.5, -1124031.5, -93587.68, -0.13659118, -0.13819033, -668657.5, -121651.61, 0.20062341, 10.001093, 9.995413 
2.2751182e+3, 2.541723e+2, -551737.5, -785697.7, -134768.92, 0.39895666, -0.6940788, -490260.3, -41181.297, 0.14660953, 10.000459, 9.997348 
2.2751355e+3, 2.64169e+2, -708036.5, -887774.5, -115558.43, 0.39930168, -0.7134113, -651514.94, -300404.2, 0.09444842, 9.999057, 9.996654 
2.2751528e+3, 2.741708e+2, -211974.81, -397622.34, -24414.611, -0.041778702, -0.4235806, -208817.72, 44274.504, 0.04983968, 10.000993, 9.998379 
2.2751702e+3, 2.8416944e+2, -392290.2, -594454.0, -170762.14, -0.10264676, -0.35760412, -294935.03, -139830.27, 0.019500945, 9.999796, 9.996951 
2.2751972e+3, 2.9416564e+2, 70669.56, -262165.75, 112587.85, 0.22440438, -0.5133878, 105176.914, 162318.81, 0.004786881, 10.002179, 9.997339 
2.275218e+3, 3.0416304e+2, 39073.29, -396565.47, -203849.1, 0.022850739, -0.61362404, 119582.14, 119582.14, 0.0007184054, 10.002221, 9.996114 
2.275232e+3, 3.1416348e+2, -283697.5, -545353.0, -72159.11, -0.12280665, 0.048711892, -265116.94, -265116.94, 0.0007782504, 9.9999075, 9.996195 
2.285095e+3, 2.4415903e+2, -950224.44, -307744.75, -371302.1, -0.115911655, -0.38244164, -138005.69, 409210.4, 0.45869297, 9.993565, 10.0071945 
2.2851145e+3, 2.5415784e+2, -905484.56, -1091433.6, -21342.746, 0.07570416, -0.06143464, -903066.3, -453841.6, 0.36361384, 9.998522, 9.996326 
2.2851296e+3, 2.641544e+2, 15888.511, -606144.94, -99074.66, -0.46041462, 0.025938055, 31287.459, 382543.84, 0.26167566, 10.005221, 9.995735 
2.285154e+3, 2.7415106e+2, 100312.54, -399792.6, -127255.78, -0.14102517, -0.03698027, 130831.39, 384119.8, 0.1640845, 10.004234, 9.996957 
2.2851714e+3, 2.8414622e+2, -239227.17, -344219.63, -276727.97, 0.054913796, -0.2690271, -10060.098, 145274.39, 0.0825175, 9.999984, 9.998684 
2.2851968e+3, 2.9414517e+2, 309778.94, 143522.16, 310639.75, -0.048444327, -0.39995468, 548220.75, 605562.44, 0.030766618, 10.002431, 10.000156 
2.2852221e+3, 3.0414513e+2, 481979.44, 26486.04, 41347.887, 0.12261607, -0.4710772, 485702.4, 485702.4, 0.009050352, 10.004183, 9.998159 
2.2852343e+3, 3.1414264e+2, 145217.44, -26618.479, 14857.465, 0.047886863, -0.26163203, 146492.61, 146492.61, 0.003966805, 10.00145, 9.999008 
2.295164e+3, 2.741202e+2, 31464.48, -607014.8, -368434.7, 0.37996548, -0.61939454, 199726.7, 453321.4, 0.434636, 10.006315, 9.994743 
2.2951746e+3, 2.8412017e+2, -1186365.1, -796632.44, -485301.72, 0.26072654, -0.35071805, -468535.44, -312943.16, 0.25417715, 9.993536, 9.99855 
2.2951926e+3, 2.941321e+2, 443298.75, 701851.9, 467342.8, -0.81658816, 0.1613585, 1057468.9, 1114938.8, 0.12177424, 10.001477, 10.004979 
2.295226e+3, 3.0413702e+2, -429357.2, -394385.84, -61774.145, -0.05473472, 0.32127422, -347670.3, -347670.3, 0.05406059, 9.998005, 9.9981 
2.2952408e+3, 3.1411853e+2, 207945.33, 832858.75, -348890.1, 0.36578664, -1.7688566, 988753.9, 988753.9, 0.031639114, 9.998596, 10.006262 
2.3052037e+3, 2.941143e+2, -711917.1, -1223307.5, 56584.07, -0.24108773, -0.5417547, -705731.06, -648106.94, 0.36165994, 9.998628, 9.993046 
2.3052451e+3, 3.041068e+2, 939155.5, 776318.56, -200898.6, 0.9303684, -1.4998822, 1074507.0, 1074507.0, 0.21606353, 10.006113, 10.00388 
2.3052333e+3, 3.1412345e+2, -393228.94, -879101.25, 344694.25, -0.49645337, 0.3924759, -214463.67, -214463.67, 0.16907498, 9.999407, 9.994935 
2.345212e+3, 2.7885264e+2, 72549.984, -901196.06, -604446.25, 0.08888717, -0.5512968, 361821.66, 569072.5, 0.47186422, 10.008382, 9.99104 
2.3448965e+3, 2.888613e+2, 23251.115, 369956.38, -94813.0, 0.33493182, 0.58530784, 394190.78, 503365.06, 0.44363916, 9.997868, 10.006388 
2.358288e+3, 1.792249e+2, -1335892.8, -369124.2, 386940.06, 0.2304943, 1.0054804, -233329.19, 950282.3, 0.4365065, 9.992375, 10.013175 
2.3579781e+3, 1.8920816e+2, -1642893.0, -1462544.9, -59667.418, -0.16079648, -0.4578108, -1444591.5, -358819.6, 0.37766677, 9.996317, 9.998527 
2.357678e+3, 1.9921492e+2, -851251.25, -1047952.7, -182807.81, 0.864192, 0.6081751, -742016.9, 245687.67, 0.33359137, 10.001581, 9.998498 
2.3573571e+3, 2.092028e+2, -230562.42, -430688.56, -650802.3, -0.028900504, -0.19707194, 327824.4, 1217647.1, 0.30106258, 10.00536, 10.001433 
2.3570444e+3, 2.1920255e+2, -364137.0, -570185.9, -662036.7, 0.064864345, -0.0852314, 202843.52, 994665.9, 0.278278, 10.003354, 10.000653 
2.3567346e+3, 2.2920327e+2, -105882.79, -478927.34, -708462.9, -0.37910372, 0.3408958, 440200.0, 1134007.8, 0.2612283, 10.005276, 9.999498 
2.3564309e+3, 2.3919122e+2, -1682565.1, -1192452.4, -949034.2, -0.6636956, -0.6097195, -457346.28, 138572.84, 0.24576125, 9.992071, 9.999552 
2.3561387e+3, 2.4919379e+2, -538961.75, -615823.1, -230778.81, 0.53988373, 0.10859995, -343435.66, 154464.06, 0.23015663, 9.999776, 9.998885 
2.3558313e+3, 2.5919718e+2, 57738.695, -340700.06, 294910.22, 0.19058302, 0.9912186, 214413.11, 614289.1, 0.20992403, 10.003976, 9.99839 
2.3555091e+3, 2.6919043e+2, 812292.44, 505726.9, 177218.08, -0.5791931, 0.62879086, 893321.1, 1195257.9, 0.17522125, 10.00707, 10.003034 
2.3552002e+3, 2.7917716e+2, -526307.8, -988444.75, 503821.9, -0.86444986, -0.22295009, -203093.75, 964.8137, 0.13167812, 9.999908, 9.994328 
2.3548926e+3, 2.8917384e+2, -39696.203, 95151.84, -131530.42, 0.18643203, 0.1219863, 175532.6, 281630.28, 0.12170021, 9.999195, 10.001588 
2.3545949e+3, 2.9918104e+2, -1542104.0, -97570.82, 467214.22, 1.3561646, 0.52227783, 40370.79, 48405.63, 0.18200554, 9.986438, 10.006046 
2.3542824e+3, 3.0917707e+2, 287018.72, 552271.06, -698074.9, -0.12618811, 0.108139716, 1130206.8, 1130206.8, 0.30766034, 10.001293, 10.005309 
2.3689006e+3, 1.5954109e+2, -1288874.8, -1398845.8, -18848.14, 0.2826003, -0.26960364, -1285734.0, 90753.71, 0.40917805, 10.00053, 9.999195 
2.3685947e+3, 1.6953568e+2, -959725.6, -1555941.5, 116770.41, 0.73149616, 0.0210581, -937671.6, 340876.94, 0.31914255, 10.005002, 9.995183 
2.3682961e+3, 1.7952177e+2, -982822.3, -1451917.3, 77051.625, 1.4727178, -0.54046786, -970490.4, 210201.53, 0.25440094, 10.002978, 9.99632 
2.3679763e+3, 1.8951727e+2, -892649.94, -859518.94, 117411.76, 0.26269212, -0.42208582, -757509.8, 325227.44, 0.2080314, 10.000607, 10.001128 
2.3676538e+3, 1.9951805e+2, -1087242.1, -1103158.6, 134769.8, -1.1066276, 0.009013883, -960195.75, 24535.83, 0.17323087, 9.999012, 9.999307 
2.3673488e+3, 2.0951582e+2, -898135.5, -1078163.8, 89217.96, -0.5340697, 0.44054872, -861412.2, 25352.27, 0.1462846, 10.000263, 9.998126 
2.3670496e+3, 2.1951303e+2, -524351.6, -746231.6, 108571.97, 0.74001205, 0.7681185, -480064.2, 308738.03, 0.12553695, 10.0018835, 9.999057 
2.3667388e+3, 2.2950676e+2, -326470.6, -449891.97, 312827.13, 0.34653074, 0.6172386, -69325.49, 621532.9, 0.108311035, 10.00193, 10.000503 
2.3664226e+3, 2.3949726e+2, -263158.13, -177663.97, 367000.97, -0.68391055, 0.058882065, 149071.08, 742014.1, 0.092004545, 10.000634, 10.0024605 
2.3661193e+3, 2.4949402e+2, -274345.9, 455979.75, 262466.03, -0.6128976, -0.39534253, 540519.4, 1035486.44, 0.07587104, 9.997215, 10.008015 
2.3658235e+3, 2.594914e+2, -1056992.8, -515490.47, 32059.656, -0.01954624, -0.77682906, -513598.97, -116614.016, 0.059161138, 9.994103, 10.001616 
2.3655139e+3, 2.694916e+2, -454765.0, -177071.45, -278930.6, 0.16258194, -0.40504754, -4340.468, 294638.22, 0.040455908, 9.997636, 10.0015545 
2.3652065e+3, 2.7949074e+2, -409089.06, -601962.56, -67526.664, 0.1835762, -0.10325695, -387797.75, -186813.81, 0.022689842, 9.999611, 9.9969015 
2.3648867e+3, 2.8948313e+2, 383872.25, -78879.88, -517462.84, -0.07133911, -0.14753805, 719331.9, 822393.0, 0.017876834, 10.00426, 9.997497 
2.3645692e+3, 2.9947668e+2, 367380.3, -50440.957, 164608.72, -0.34672642, -0.46573707, 424439.0, 429568.03, 0.038467344, 10.003695, 9.997705 
2.3642816e+3, 3.0947256e+2, -762561.75, -631055.3, 277302.94, 0.3613, -0.038066402, -411816.6, -411816.6, 0.08539884, 9.996203, 9.997203 
2.3792104e+3, 1.4984547e+2, -1716891.1, -1210460.0, -32577.453, 0.25695127, -0.81312966, -1208373.0, 263139.5, 0.38968268, 9.995631, 10.004497 
2.3788983e+3, 1.5985376e+2, -1323505.1, -1520520.6, -100753.375, 0.2605314, 0.0054936777, -1281105.0, 92315.305, 0.27836236, 10.000909, 9.998201 
2.3785874e+3, 1.6984524e+2, -1241486.9, -1758605.6, 122879.61, -0.019800818, 0.07098716, -1213773.0, 61740.082, 0.19862524, 10.002244, 9.995073 
2.3782781e+3, 1.7983669e+2, -1013922.56, -1327067.0, 19931.148, -0.2544171, -0.018836783, -1012659.1, 164948.1, 0.1461588, 10.001971, 9.997602 
2.3779717e+3, 1.8983486e+2, -825131.1, -675737.75, 25556.768, 0.10171309, 0.16076306, -671486.7, 408131.34, 0.11113541, 10.000352, 10.002443 
2.3776655e+3, 1.9983193e+2, -1247544.4, -1159368.1, 26380.24, 0.5312884, 0.082164064, -1152078.5, -170439.0, 0.08556882, 9.997927, 9.999406 
2.3773527e+3, 2.0982502e+2, -1094560.4, -1198853.6, 92739.31, 0.25016126, 0.035748836, -1040312.2, -156595.67, 0.065839775, 9.999139, 9.99777 
2.3770379e+3, 2.198175e+2, -872190.25, -987055.9, 140922.61, -0.2541754, -0.1044446, -777446.5, 8353.565, 0.050802168, 9.9996395, 9.998404 
2.3767322e+3, 2.298151e+2, -521010.66, -340257.63, 254842.7, -0.11892026, 0.01008089, -160240.52, 527577.06, 0.03888462, 9.9996605, 10.002159 
2.3764297e+3, 2.398128e+2, -817539.5, -706966.3, 243177.92, 0.25355807, 0.07746875, -512869.44, 76962.58, 0.028499532, 9.998053, 9.999755 
2.3761186e+3, 2.4980962e+2, -794019.44, -411662.7, 76181.47, -0.073330425, 0.12107357, -397043.13, 94820.2, 0.019239584, 9.996651, 10.001702 
2.3758106e+3, 2.5980473e+2, -1431636.0, -1052680.9, -29708.523, -0.38898596, 0.004738054, -1050366.0, -656453.5, 0.011432521, 9.993278, 9.998269 
2.3755056e+3, 2.6980102e+2, -619295.9, -338115.38, -226060.64, -0.020191738, 0.095308065, -212493.23, 83457.25, 0.00541735, 9.997118, 10.000543 
2.3752023e+3, 2.7979633e+2, -530519.6, -615999.06, -133367.84, 0.19825606, 0.007107838, -433210.53, -235212.78, 0.0017239725, 9.998685, 9.997247 
2.3748843e+3, 2.897879e+2, 483403.1, -5889.334, -441825.34, -0.3622724, -0.117409565, 743792.94, 843871.25, 0.0009962119, 10.00477, 9.997758 
2.3745723e+3, 2.9978514e+2, 615569.94, 66176.17, -77128.87, -0.47180694, -0.038593743, 626192.6, 628296.56, 0.0037776493, 10.005276, 9.997805 
2.3742802e+3, 3.0977908e+2, -159987.61, -40253.77, 95429.46, 0.36996776, 0.121386066, 12532.897, 12532.897, 0.0111080455, 9.999051, 9.99996 
2.3895259e+3, 1.401756e+2, -1762325.6, -1778741.3, 225734.75, 0.892113, 0.8809516, -1544649.5, 21634.604, 0.42782643, 9.998874, 9.998496 
2.3892036e+3, 1.5016404e+2, -1214782.8, -1260085.4, -109048.945, -0.06375741, 0.15120548, -1126057.4, 342337.8, 0.2998544, 10.001595, 10.0008545 
2.3888938e+3, 1.6015989e+2, -1253289.6, -1540074.4, -197430.81, 0.06065763, 0.13545725, -1152673.1, 217762.06, 0.19614406, 10.00154, 9.997902 
2.3885857e+3, 1.7015375e+2, -1049554.9, -1410139.5, -19787.553, -0.04106738, 0.22004662, -1048472.25, 224028.38, 0.12585048, 10.002416, 9.997504 
2.3882776e+3, 1.8014738e+2, -834206.56, -1157168.6, -43995.61, -0.14951698, 0.20697285, -828320.56, 346247.28, 0.083471425, 10.002733, 9.998482 
2.387969e+3, 1.9014227e+2, -678651.56, -744912.0, -206806.19, 0.13877413, 0.12572706, -502338.66, 574271.8, 0.057587944, 10.001957, 10.00103 
2.3876601e+3, 2.00137e+2, -807663.3, -915548.7, -257486.13, 0.41877338, -0.060943507, -598530.1, 380123.94, 0.03970386, 10.000769, 9.99978 
2.3873469e+3, 2.1013159e+2, -775381.75, -844039.25, -144240.72, 0.10168991, -0.13363507, -661441.0, 219268.02, 0.026570952, 10.000383, 9.999664 
2.3870337e+3, 2.2012609e+2, -708697.2, -792254.44, -5946.1904, -0.28742126, -0.20752367, -708276.2, 74489.61, 0.017417854, 10.0001745, 9.999507 
2.3867282e+3, 2.3012382e+2, -504789.06, -409284.16, -4026.0383, -0.061897673, -0.06865582, -409114.72, 275669.5, 0.011141793, 10.000067, 10.001455 
2.3864253e+3, 2.4012105e+2, -590174.2, -716185.2, -55353.703, 0.27729276, 0.04630004, -569312.4, 17495.102, 0.0065593217, 10.000101, 9.998681 
2.3861143e+3, 2.5011623e+2, -296156.7, -512614.88, -110469.945, -0.019633314, 0.1477395, -249734.1, 239124.6, 0.0032030866, 10.0014715, 9.998697 
2.3858047e+3, 2.6011074e+2, -210859.53, -502187.6, -11180.3955, -0.37026256, 0.21244705, -210431.1, 180485.72, 0.0011282732, 10.001763, 9.997938 
2.3855002e+3, 2.7010638e+2, 2118.335, -28851.875, -55341.926, -0.08713753, 0.2312377, 44100.76, 337059.88, 0.00023273825, 10.001302, 10.000667 
2.3851973e+3, 2.801008e+2, -300689.0, -327724.6, 42631.742, 0.14761493, 0.048005655, -269483.25, -74470.59, 0.000018977813, 9.999412, 9.998872 
2.384883e+3, 2.9009277e+2, -135943.83, -206157.94, -109519.984, -0.29286048, -0.15064086, -56041.613, 41046.348, 0.000039610317, 10.000062, 9.998618 
2.3845747e+3, 3.0009115e+2, -141257.34, -351767.25, 23878.283, -0.07517808, 0.12697929, -138582.8, -138582.8, 0.00031053094, 10.0001955, 9.997353 
2.3842752e+3, 3.1008288e+2, -14364.497, 188578.17, -355021.97, 0.44585222, 0.079941876, 456345.3, 456345.3, 0.0010092399, 9.999522, 10.001129 
2.3998196e+3, 1.3047883e+2, -1939802.1, -1371172.5, 130498.484, -0.40269628, 0.15337622, -1342653.9, 318654.44, 0.49043694, 9.995172, 10.0055 
2.3995203e+3, 1.4047498e+2, -1627789.6, -1713984.3, -66576.805, 0.667482, -0.368814, -1591578.4, -28239.914, 0.36336103, 9.999815, 9.998582 
2.3992048e+3, 1.5046987e+2, -1599646.5, -1984213.5, -101975.79, 0.38568562, -0.05786035, -1574278.9, -108877.016, 0.24041095, 10.000932, 9.995429 
2.3988897e+3, 1.6046461e+2, -1483263.9, -1732404.4, -84246.35, -0.038919985, 0.20375839, -1457450.6, -89984.11, 0.14389461, 10.000202, 9.997017 
2.398586e+3, 1.7046118e+2, -1011156.06, -1062052.1, 96434.71, 0.21738274, 0.34420678, -936868.2, 332632.3, 0.08188297, 10.001271, 10.000515 
2.3982817e+3, 1.8045625e+2, -1047920.8, -1314269.9, -60830.977, 0.47060347, 0.2740382, -1034685.44, 136861.69, 0.047678713, 10.001358, 9.99807 
2.397965e+3, 1.9044794e+2, -988710.75, -1184880.5, -203324.52, 0.0445383, 0.081721455, -861049.1, 212575.02, 0.028905774, 10.001074, 9.998273 
2.3976482e+3, 2.004407e+2, -1013404.4, -1061000.9, -222818.03, -0.33647594, -0.09779364, -813117.25, 162572.25, 0.017015342, 9.999651, 9.999266 
2.3973408e+3, 2.104385e+2, -687361.56, -493807.28, -119888.055, -0.063294195, -0.033279493, -436509.9, 441194.1, 0.00915297, 9.999805, 10.002317 
2.3970345e+3, 2.2043575e+2, -918455.25, -909346.94, -38632.348, 0.27017885, -0.029431753, -875001.25, -95276.09, 0.0045936005, 9.998964, 9.999277 
2.3967236e+3, 2.3043087e+2, -750728.6, -738183.25, -18811.447, -0.06669217, -0.01691982, -724626.2, -42852.336, 0.0022051786, 9.999377, 9.999479 
2.3964138e+3, 2.4042456e+2, -907439.75, -1041831.4, -50893.99, -0.4188122, -0.09538637, -890341.56, -306503.53, 0.0009056362, 9.998772, 9.997088 
2.3961091e+3, 2.5041857e+2, -432237.84, -586236.06, -73173.86, -0.21844482, -0.069048814, -403014.2, 82889.02, 0.00023937336, 10.000798, 9.998403 
2.3958059e+3, 2.6041272e+2, -373915.97, -546906.94, -43110.71, 0.0000064763985, -0.07321683, -363767.78, 24196.834, 0.000025130046, 10.000597, 9.998194 
2.3954976e+3, 2.7041042e+2, 76107.93, 170314.42, -84299.59, -0.049686857, 0.048679914, 219777.92, 509755.34, 0.00000030344088, 10.001213, 10.002039 
2.39519e+3, 2.8040802e+2, -325670.47, -186678.47, -16519.973, -0.12921262, -0.008336684, -184741.95, 7249.532, 0.0000000068303647, 9.998651, 10.000224 
2.3948815e+3, 2.9040077e+2, -130920.75, -64331.094, -41624.844, -0.0061080526, -0.27270347, -44323.266, 49737.03, 0.0000039429096, 9.999616, 9.9997635 
2.3945749e+3, 3.003963e+2, -614303.8, -864543.8, 94571.36, 0.1522556, -0.21892326, -582583.9, -582583.9, 0.00006190627, 9.998256, 9.994749 
2.3942678e+3, 3.1038752e+2, -76542.55, -29101.486, -40943.523, -0.12796423, -0.14798343, -5503.567, -5503.567, 0.0002690841, 9.9997425, 9.999541 
2.4098091e+3, 1.3078284e+2, -1891577.3, -1516205.0, 79148.74, -0.8317931, -0.48714936, -1500198.8, 158121.69, 0.44510007, 9.996571, 10.002957 
2.4095127e+3, 1.4078473e+2, -1522578.6, -1712604.8, -129324.67, 0.21987543, -0.12557098, -1457116.3, 103189.32, 0.31930807, 10.000856, 9.9983015 
2.409201e+3, 1.507801e+2, -1447793.1, -1719281.0, -149823.08, 0.2873205, 0.10304831, -1381365.4, 80996.44, 0.20041417, 10.001209, 9.997164 
2.4088879e+3, 1.6077386e+2, -1402611.4, -1642442.3, 104543.75, 0.12356931, 0.16199552, -1363438.5, 994.6758, 0.110025235, 10.000467, 9.9975195 
2.4085827e+3, 1.7076904e+2, -1100767.3, -1191819.8, 170352.61, 0.21906915, 0.22260559, -969962.44, 296519.4, 0.054970514, 10.00092, 9.999733 
2.4082766e+3, 1.8076397e+2, -1087085.1, -1282569.4, -60555.496, 0.26985395, 0.2090831, -1069846.9, 98684.234, 0.027314784, 10.000745, 9.998606 
2.4079607e+3, 1.9075765e+2, -912734.94, -1066243.9, -101634.586, -0.022379952, 0.13034128, -862128.4, 208460.84, 0.013986388, 10.001119, 9.9991045 
2.407645e+3, 2.0075133e+2, -779504.06, -960337.1, 20716.955, -0.3219782, 0.03417682, -777161.0, 195485.69, 0.006556314, 10.001203, 9.999226 
2.4073374e+3, 2.1074764e+2, -490798.84, -542138.94, -29024.049, -0.03812078, 0.0689095, -477721.66, 396955.8, 0.002469395, 10.001762, 10.001046 
2.4070305e+3, 2.2074373e+2, -490053.38, -744002.3, -61258.63, 0.21512574, 0.091098085, -476048.66, 300662.94, 0.00078321603, 10.0019655, 9.998997 
2.4067195e+3, 2.3073782e+2, -574720.06, -719927.94, -31790.035, -0.067018, 0.03551417, -568065.3, 110706.03, 0.00023610769, 10.000723, 9.999005 
2.4064097e+3, 2.407311e+2, -739878.6, -893614.6, 75903.5, -0.36381, -0.0447194, -708718.7, -127878.82, 0.000047296035, 9.99946, 9.997808 
2.4061067e+3, 2.507253e+2, -478385.13, -541382.9, 130468.164, -0.08875215, -0.051322494, -375667.3, 107232.13, 0.0000020598873, 10.000128, 9.999063 
2.4058044e+3, 2.6071975e+2, -342111.1, -410176.38, 145443.63, 0.18588674, -0.07562948, -226771.48, 158183.22, 0.0, 10.000206, 9.999316 
2.4054942e+3, 2.7071646e+2, -210950.16, -25817.273, -25285.55, 0.012164955, -0.03166507, -22425.885, 264551.56, 0.0, 9.999437, 10.001575 
2.4051844e+3, 2.8071374e+2, -308050.84, -128211.03, -89399.02, -0.15505236, -0.05546657, -91332.766, 97662.13, 0.0, 9.998405, 10.000777 
2.4048774e+3, 2.9070836e+2, 69816.94, 87684.2, -155811.66, 0.029266862, -0.20836075, 234818.13, 325865.75, 0.00000028208012, 10.000605, 10.00041 
2.404572e+3, 3.007047e+2, -128016.586, -505624.72, 38951.668, 0.29937616, -0.10915934, -124040.445, -124040.445, 0.000017512673, 10.000889, 9.995992 
2.4042659e+3, 3.106934e+2, 49276.918, 89201.125, 15639.837, 0.067529775, -0.35917225, 94598.24, 94598.24, 0.0001005609, 10.000196, 10.000239 
2.4198145e+3, 1.3109054e+2, -2095717.8, -1846639.1, 192543.06, 0.4709589, -0.43625715, -1741868.9, -86567.22, 0.41411293, 9.996538, 9.999847 
2.4195051e+3, 1.41095e+2, -1833536.3, -1868677.0, -190860.33, -0.10654117, 0.36545926, -1659439.3, -102169.02, 0.28877336, 9.99842, 9.9983425 
2.4191962e+3, 1.5109019e+2, -1379101.8, -1348872.3, -196394.52, 0.2046308, 0.30679375, -1167011.8, 292309.84, 0.17287979, 10.000132, 10.000483 
2.4188872e+3, 1.6108364e+2, -1402592.8, -1648486.0, -4498.539, 0.46010402, 0.092361875, -1402510.5, -41120.7, 0.08747846, 10.000416, 9.997575 
2.4185786e+3, 1.7107715e+2, -1339444.8, -1471792.1, 138540.67, 0.1909753, 0.092907816, -1252085.1, 11372.211, 0.038149297, 9.999989, 9.998171 
2.4182695e+3, 1.810716e+2, -1338878.0, -1356432.9, -67233.56, -0.014749053, 0.11489134, -1279851.4, -114337.375, 0.01570925, 9.998885, 9.998943 
2.4179575e+3, 1.9106849e+2, -852047.25, -801794.9, -107764.01, 0.038883783, 0.16819564, -716266.6, 351273.4, 0.0064830934, 10.000565, 10.001148 
2.4176458e+3, 2.010643e+2, -959870.9, -1218271.9, -16953.11, 0.110840626, 0.16974011, -958763.3, 10813.765, 0.0021827125, 10.000765, 9.99765 
2.4173348e+3, 2.1105734e+2, -747098.5, -1021865.1, -21339.857, -0.010046057, 0.14695369, -745451.0, 126195.11, 0.00044835047, 10.001556, 9.997817 
2.4170247e+3, 2.2105055e+2, -792824.56, -1048895.1, -89847.8, -0.07630493, 0.11906334, -764444.8, 9269.02, 0.000068581576, 10.0007, 9.997483 
2.4167165e+3, 2.3104559e+2, -598106.44, -652516.94, -94949.586, 0.028150907, 0.14325806, -526541.5, 149222.44, 0.0000096515805, 10.000459, 9.999493 
2.4164099e+3, 2.4104036e+2, -828227.94, -865217.8, 39239.195, 0.16574919, 0.12827477, -803343.44, -225528.17, 0.00000040342232, 9.998728, 9.998319 
2.416105e+3, 2.5103617e+2, -417552.38, -362195.44, 147632.75, 0.17709514, 0.15485224, -239668.97, 240182.31, 0.0, 9.999994, 10.000315 
2.4157998e+3, 2.610313e+2, -595406.1, -657731.8, 71563.9, 0.13829602, 0.1119779, -548514.44, -166619.86, 0.0, 9.999114, 9.998153 
2.415489e+3, 2.7102458e+2, -468221.3, -390740.22, -81691.69, 0.024486028, -0.016397439, -339068.6, -55109.605, 0.0, 9.998846, 9.99928 
2.415179e+3, 2.8101876e+2, -695736.8, -575445.75, -71706.64, -0.13355727, -0.12444859, -542000.0, -355984.6, 0.0, 9.996967, 9.998397 
2.4148704e+3, 2.9101643e+2, -3182.7224, 63540.28, -67570.195, -0.3357043, 0.092846, 105536.07, 193578.0, 0.0000000009564638, 10.000221, 10.000354 
2.4145661e+3, 3.0101475e+2, -202538.86, -254503.66, 34608.152, -0.21353714, 0.28927642, -185245.28, -185245.28, 0.0000015325257, 9.999311, 9.998449 
2.4142656e+3, 3.1100544e+2, 12883.9, 368282.06, -93557.47, 0.28741962, -0.24513447, 391406.22, 391406.22, 0.000021924814, 9.998739, 10.002843 
2.4298024e+3, 1.3139798e+2, -1838919.5, -1613583.1, -2030.7673, -0.14639221, 0.02330586, -1613564.8, 38738.49, 0.39271495, 9.997681, 10.001111 
2.4295017e+3, 1.4139497e+2, -1972351.3, -1748649.3, -146818.44, 0.16623078, 0.005292108, -1675929.8, -121596.79, 0.26710206, 9.996649, 10.000039 
2.4291912e+3, 1.5139274e+2, -1341891.5, -1235168.5, -208045.4, 0.13067797, 0.0858225, -1073750.3, 382605.8, 0.15331793, 9.999852, 10.001538 
2.428881e+3, 1.6138954e+2, -1171789.9, -1337948.8, -134910.52, 0.09583153, 0.1037036, -1096429.9, 261959.17, 0.07196278, 10.001238, 9.999354 
2.4285735e+3, 1.7138456e+2, -1371186.6, -1326923.0, -14374.34, 0.14557181, 0.09077707, -1322664.8, -62224.14, 0.027363949, 9.999084, 9.9996 
2.4282649e+3, 1.813795e+2, -1502193.5, -1355290.1, -24201.05, 0.11127555, 0.060197376, -1351405.9, -188914.31, 0.009079448, 9.997366, 9.999671 
2.4279541e+3, 1.9137642e+2, -821276.1, -790634.8, -81322.04, 0.06934281, 0.108179845, -723202.8, 341315.8, 0.002868925, 10.000727, 10.001166 
2.4276431e+3, 2.0137249e+2, -579466.4, -1010326.7, -87837.8, 0.015392684, 0.14200434, -562247.4, 404307.0, 0.00059867656, 10.003168, 9.997944 
2.4273315e+3, 2.1136485e+2, -610807.7, -1014416.9, -43527.707, -0.097970806, 0.071520366, -606166.75, 262462.13, 0.000045539302, 10.002586, 9.997443 
2.427021e+3, 2.213575e+2, -629734.3, -982540.56, 4537.8784, -0.17719533, 0.043816768, -629676.0, 141026.33, 0.0000022398012, 10.001743, 9.997447 
2.4267136e+3, 2.3135263e+2, -342276.53, -599643.3, -41821.05, 0.020016234, 0.13911445, -335651.3, 337103.38, 0.000000052409952, 10.002462, 9.998915 
2.4264072e+3, 2.4134804e+2, -173869.08, -428918.4, 31707.123, 0.2018775, 0.21884955, -169986.44, 404815.16, 0.0, 10.002643, 9.99942 
2.4261013e+3, 2.5134397e+2, -172872.9, -176420.88, 76912.016, 0.15646026, 0.1887458, -97714.42, 379118.75, 0.0, 10.001309, 10.001001 
2.4257948e+3, 2.6133925e+2, -409856.1, -497774.06, -20136.209, 0.080713026, 0.119366296, -405463.7, -26590.852, 0.0, 9.999929, 9.998888 
2.4254847e+3, 2.713321e+2, -238518.72, -351723.66, -85653.734, 0.054566886, -0.026132768, -192454.72, 88489.39, 0.0, 10.000567, 9.998788 
2.4251753e+3, 2.8132597e+2, -142342.11, -248395.22, 70402.81, 0.032754492, -0.102453746, -107230.3, 75776.13, 0.0, 10.000368, 9.999017 
2.4248667e+3, 2.9132375e+2, -87496.59, 35008.453, 129672.59, -0.255357, 0.11586388, 117167.414, 202198.23, 0.0, 9.999392, 10.000641 
2.4245618e+3, 3.0132177e+2, -175528.38, 7060.8057, 162491.06, -0.21605219, 0.2314048, 102147.67, 102147.67, 0.000000086511356, 9.998203, 10.000848 
2.424264e+3, 3.1131685e+2, 296047.6, 614716.1, -413992.53, 0.61658585, -0.0037603995, 898977.6, 898977.6, 0.0000026170453, 9.999885, 10.004139 
2.4401143e+3, 1.21707544e+2, -1482966.8, -1343480.5, -191169.19, 0.93156695, 0.5622172, -1209729.8, 537576.5, 0.49454346, 10.000831, 10.004659 
2.4397908e+3, 1.3170509e+2, -1585683.8, -1427462.0, 59158.734, -0.7063006, 0.43202567, -1407788.9, 241519.06, 0.3775347, 9.999269, 10.00237 
2.4394988e+3, 1.4169392e+2, -1977295.1, -1641882.0, -9943.413, 0.66059047, -0.48611504, -1641587.5, -90182.94, 0.25111946, 9.996227, 10.000942 
2.439186e+3, 1.5169476e+2, -1398670.1, -1225495.4, -29357.969, 0.11490063, -0.15449817, -1220653.8, 232741.67, 0.13882844, 9.999219, 10.001819 
2.4388741e+3, 1.616949e+2, -1216740.9, -1227993.9, -114255.74, -0.23420714, 0.14251184, -1107973.1, 247421.34, 0.060861234, 10.000376, 10.000508 
2.4385682e+3, 1.7169142e+2, -1251746.1, -1056584.9, -127434.734, 0.19658199, 0.08585367, -993661.3, 263768.1, 0.02025213, 9.9990425, 10.001475 
2.4382615e+3, 1.8168731e+2, -1506329.9, -1375091.1, -52387.64, 0.4785011, 0.021804353, -1356744.1, -197274.1, 0.0052852775, 9.997478, 9.999496 
2.4379504e+3, 1.9168338e+2, -926073.4, -928970.8, -31495.133, 0.0989313, 0.034489956, -895993.6, 165513.9, 0.0012089658, 10.000458, 10.000332 
2.4376397e+3, 2.0167887e+2, -765424.2, -1078567.8, -142224.48, -0.15990555, 0.056453303, -710471.7, 253077.77, 0.00012403581, 10.001953, 9.998025 
2.4373285e+3, 2.1167207e+2, -630505.75, -888894.5, -130362.39, -0.15570316, -0.049593072, -576163.94, 289447.34, 0.000001917801, 10.002039, 9.9984665 
2.4370188e+3, 2.2166508e+2, -868430.8, -1218558.1, -21267.46, -0.11121116, -0.092707135, -867143.7, -99465.266, 0.000000018702426, 10.000752, 9.996257 
2.4367104e+3, 2.3165973e+2, -521755.56, -840453.6, -23301.078, -0.08365783, 0.07156767, -520060.94, 149679.36, 0.0, 10.001928, 9.997474 
2.4364029e+3, 2.4165452e+2, -461125.97, -658609.94, -11302.632, -0.04335098, 0.17673878, -460481.2, 111316.13, 0.0, 10.001147, 9.998556 
2.4360959e+3, 2.5164998e+2, -260265.8, -186321.84, 9896.373, -0.03444784, 0.08212741, -185020.27, 288812.72, 0.0, 10.000724, 10.001158 
2.4357893e+3, 2.6164523e+2, -591067.56, -616962.0, -45259.355, -0.019807361, -0.00016343809, -556939.94, -181068.03, 0.0, 9.998966, 9.998514 
2.4354807e+3, 2.7164027e+2, -249889.22, -266909.5, -66594.44, 0.05741007, 0.003948215, -191263.38, 86657.21, 0.0, 10.000206, 9.999499 
2.4351731e+3, 2.816352e+2, -315577.78, -299480.25, 17606.432, 0.1805207, -0.051027145, -288170.06, -108200.19, 0.0, 9.999146, 9.99926 
2.4348663e+3, 2.916298e+2, -209432.52, 8487.975, 84060.41, 0.19984391, -0.22528107, 37144.902, 119163.99, 0.0, 9.998501, 10.000864 
2.4345589e+3, 3.0162555e+2, -653575.0, -342134.88, 206941.42, 0.00075895776, -0.30689958, -238869.42, -238869.42, 0.0, 9.995586, 9.9997 
2.4342546e+3, 3.1162295e+2, 50449.473, 444427.06, 39928.688, -0.068488434, -0.3327151, 448433.0, 448433.0, 0.00000012758136, 9.998693, 10.003422 
2.450098e+3, 1.2202075e+2, -1416348.5, -1492551.9, 103117.45, -0.6545806, 0.47596496, -1344518.6, 399712.2, 0.485399, 10.003137, 10.001542 
2.4497929e+3, 1.3201609e+2, -1545837.6, -1579661.4, 66908.02, -0.10344946, 0.41226602, -1493737.3, 152522.34, 0.36593348, 10.0008135, 9.99997 
2.4494876e+3, 1.420059e+2, -1887382.8, -1638324.0, 164354.95, 0.23687917, -0.2029137, -1556649.3, -8301.872, 0.23856215, 9.996982, 10.000615 
2.4491805e+3, 1.5200478e+2, -1377674.8, -1173122.5, 192515.64, 0.05251359, -0.08835572, -1057401.6, 392951.66, 0.1275105, 9.999146, 10.0022745 
2.4488726e+3, 1.620029e+2, -1308499.8, -1414462.5, 16141.094, -0.051179897, 0.04977176, -1306095.6, 46274.094, 0.052560914, 10.000286, 9.99922 
2.4485633e+3, 1.7199805e+2, -1267575.3, -1327981.4, -163029.5, 0.17772381, 0.08317488, -1131974.8, 122448.02, 0.01541553, 9.999976, 9.999187 
2.4482541e+3, 1.8199274e+2, -1298083.8, -1400094.5, -116756.82, 0.25944367, 0.099026896, -1221677.6, -65198.074, 0.0031067657, 9.999374, 9.998428 
2.4479456e+3, 1.9198723e+2, -953446.2, -1065330.9, -88166.19, -0.038646057, 0.05690611, -904972.0, 153563.86, 0.00048131414, 10.000753, 9.999284 
2.4476367e+3, 2.01982e+2, -693322.44, -892149.4, -250156.34, -0.2533602, 0.034362324, -523549.7, 437036.2, 0.000015932997, 10.001723, 9.999409 
2.447327e+3, 2.1197781e+2, -447726.4, -572947.1, -252055.67, -0.124295324, -0.0051845247, -250621.3, 611995.75, 0.0000000054715246, 10.0023, 10.000508 
2.4470171e+3, 2.2197281e+2, -536798.44, -902617.6, -109508.14, -0.057124652, -0.017194316, -506522.78, 258137.13, 0.0, 10.00227, 9.997703 
2.446707e+3, 2.3196611e+2, -625793.1, -885213.3, -58613.508, -0.13927296, -0.018515991, -613164.7, 53566.87, 0.0, 10.001094, 9.997632 
2.446398e+3, 2.419599e+2, -585142.0, -674874.75, 1655.9016, -0.19573316, -0.0046625403, -585111.44, -16314.861, 0.0, 9.999927, 9.999078 
2.4460913e+3, 2.5195557e+2, -360504.38, -282803.03, 8287.3955, -0.09842847, -0.05048754, -281928.94, 188904.77, 0.0, 10.000054, 10.00092 
2.4457847e+3, 2.619515e+2, -363728.4, -409328.47, -48941.242, -0.024286713, -0.056515824, -332536.9, 40332.344, 0.0, 9.999942, 9.9995165 
2.4454765e+3, 2.7194712e+2, -238712.05, -233757.5, -86921.67, 0.05484598, -0.03755475, -149277.81, 125634.25, 0.0, 10.0000305, 9.999877 
2.4451694e+3, 2.8194246e+2, -71273.16, -121733.484, -45422.684, 0.20991999, -0.07346401, -44543.902, 132412.66, 0.0, 10.000373, 9.999929 
2.4448638e+3, 2.9193664e+2, 286211.78, 240978.7, -59149.313, 0.38947165, -0.29667625, 326920.97, 405928.66, 0.0, 10.001775, 10.000942 
2.444557e+3, 3.019319e+2, 172123.64, 34866.316, 55747.754, 0.28910604, -0.4110825, 191912.77, 191912.77, 0.0, 10.00113, 9.999657 
2.4442476e+3, 3.1192964e+2, 122228.96, 468236.97, -42906.563, -0.32771933, -0.25543612, 473478.2, 473478.2, 0.000000000000427524, 9.998988, 10.003498 
2.4600984e+3, 1.2233209e+2, -1786813.9, -1779156.9, 111282.516, -0.42903438, 0.2675139, -1671637.0, 69533.125, 0.47722498, 9.999483, 9.999945 
2.459796e+3, 1.3232681e+2, -1685303.0, -1878278.6, -216550.16, 0.5972041, 0.33945006, -1544717.3, 98494.01, 0.3557266, 10.000757, 9.9978075 
2.4594767e+3, 1.4231965e+2, -1532455.1, -1536666.9, 41704.203, -0.15113564, 0.19448817, -1492803.6, 52468.793, 0.22774403, 9.999778, 10.000019 
2.4591757e+3, 1.5231566e+2, -1356144.1, -1141362.0, 108155.09, 0.122931965, 0.0020950248, -1096338.0, 350964.94, 0.11809006, 9.999282, 10.002385 
2.458872e+3, 1.6231118e+2, -1679489.0, -1855784.4, -131830.84, 0.36842528, -0.049418755, -1609051.1, -259707.97, 0.04605504, 9.998889, 9.996863 
2.4585584e+3, 1.723049e+2, -1439465.3, -1736298.0, -203855.7, 0.16595231, 0.103237994, -1335721.8, -84306.984, 0.012013259, 10.000243, 9.996233 
2.4582466e+3, 1.8229821e+2, -1331907.5, -1630645.3, -28437.71, -0.008303733, 0.23140155, -1329224.5, -175734.28, 0.0018483637, 10.00013, 9.996475 
2.4579404e+3, 1.9229044e+2, -1108708.8, -1286150.8, 21500.947, -0.15247388, 0.08497698, -1106140.6, -50567.57, 0.00018026956, 10.000326, 9.997959 
2.4576342e+3, 2.0228444e+2, -927070.25, -916278.5, -174952.97, -0.18895428, 0.03555402, -746638.2, 210994.03, 0.0000007906511, 9.999845, 10.000145 
2.4573252e+3, 2.1228331e+2, -486812.47, -356808.75, -215081.6, -0.039647024, 0.1009339, -197121.2, 662507.44, 0.0, 10.001102, 10.002571 
2.4570154e+3, 2.2228028e+2, -737297.7, -903102.94, -156943.64, 0.051184837, 0.12231684, -642706.25, 118940.555, 0.0, 10.000666, 9.998454 
2.4567033e+3, 2.3227234e+2, -641782.2, -760138.2, -115183.945, -0.13431716, -0.116676316, -571463.56, 92259.53, 0.0, 10.000655, 9.998597 
2.4563928e+3, 2.4226537e+2, -770227.5, -832902.56, -14713.003, -0.22625028, -0.23200536, -766945.5, -201154.31, 0.0, 9.999117, 9.998345 
2.4560867e+3, 2.5226158e+2, -465692.38, -417603.25, -3474.2917, -0.09334226, -0.1743507, -417353.53, 50475.63, 0.0, 9.999756, 10.0001 
2.4557802e+3, 2.622577e+2, -606870.6, -599003.0, -78464.18, 0.0030359647, -0.10103836, -524374.06, -154506.31, 0.0, 9.998708, 9.998782 
2.4554715e+3, 2.7225274e+2, -318419.94, -252613.98, -87929.836, 0.014614248, -0.16505608, -191632.67, 80285.03, 0.0, 9.999522, 9.99993 
2.4551643e+3, 2.8224844e+2, -364746.63, -383718.88, 7827.908, 0.07670165, -0.12812723, -361933.88, -187973.9, 0.0, 9.999042, 9.998748 
2.4548596e+3, 2.9224503e+2, 120731.35, 72687.32, 324.9987, 0.20229414, -0.05829356, 120733.55, 196723.52, 0.0, 10.001137, 10.000051 
2.4545556e+3, 3.022392e+2, -370204.22, -534418.3, -43816.836, 0.3839806, -0.10645414, -359244.2, -359244.2, 0.0, 9.998953, 9.996749 
2.4542442e+3, 3.12233e+2, -404074.78, 92642.59, -71278.4, -0.25378302, -0.20655094, 102668.59, 102668.59, 0.0, 9.996248, 10.002097 
2.470094e+3, 1.2263438e+2, -1944181.0, -1595577.0, -85710.805, -0.29859865, 0.3264543, -1575643.3, 162560.16, 0.46784827, 9.996733, 10.003165 
2.4697927e+3, 1.326283e+2, -1477186.1, -1574731.0, -198466.89, 0.576878, 0.09841066, -1321586.8, 318663.63, 0.34520847, 10.001682, 9.999749 
2.4694781e+3, 1.4262305e+2, -1177879.1, -1462088.8, -104174.336, 0.06569472, 0.05081201, -1143785.0, 398510.47, 0.21743059, 10.003366, 9.998895 
2.4691711e+3, 1.5261842e+2, -1443232.1, -1402558.4, -186638.38, 0.10752534, -0.0086568985, -1235152.1, 209191.2, 0.109704144, 9.99979, 10.000128 
2.4688645e+3, 1.6261417e+2, -1640847.4, -1544982.0, -261359.14, 0.1569005, -0.00024589212, -1327196.5, 19189.354, 0.040704507, 9.997881, 9.999483 
2.468554e+3, 1.7261007e+2, -907469.8, -1061850.1, -80827.19, 0.021576751, 0.0035566376, -872895.25, 375528.84, 0.00953522, 10.002066, 10.00004 
2.4682444e+3, 1.8260539e+2, -754417.8, -1228778.3, 108418.94, -0.09536523, 0.08731348, -730812.44, 419659.7, 0.0011160366, 10.003508, 9.99762 
2.4679379e+3, 1.9259931e+2, -1188966.1, -1362884.6, 141759.5, 0.016465522, 0.14450067, -1109619.4, -57077.79, 0.00006263998, 9.999884, 9.997682 
2.4676307e+3, 2.0259362e+2, -1291354.9, -1078999.3, 59051.332, 0.019203432, 0.17679618, -1063683.1, -109083.01, 0.0000000031066179, 9.997215, 10.0003195 
2.4673194e+3, 2.1258955e+2, -837310.0, -593222.44, -38148.973, -0.13588189, 0.021789229, -587399.0, 269227.5, 0.0, 9.998902, 10.002075 
2.467009e+3, 2.2258516e+2, -673604.4, -742597.44, -71673.74, -0.23368739, -0.06992778, -628557.6, 130100.29, 0.0, 10.000406, 9.999725 
2.4667e+3, 2.325795e+2, -354569.56, -495418.47, -38915.645, -0.1643447, -0.19251706, -344532.66, 316176.1, 0.0, 10.001944, 9.999868 
2.4663913e+3, 2.4257395e+2, -251416.38, -592441.4, 25804.541, -0.09643455, -0.21590778, -249474.86, 313287.38, 0.0, 10.002604, 9.998344 
2.4660842e+3, 2.5256914e+2, -311747.94, -500747.72, -19797.832, 0.013238645, -0.12595008, -309696.38, 155120.23, 0.0, 10.001376, 9.998813 
2.4657767e+3, 2.6256454e+2, -307244.72, -401411.84, -75279.4, 0.07180007, -0.039812997, -265537.25, 101329.99, 0.0, 10.000359, 9.999376 
2.465468e+3, 2.7256015e+2, -69496.18, -104172.18, -83930.86, 0.07117447, -0.07998691, -1131.231, 267779.72, 0.0, 10.000961, 10.000314 
2.4651602e+3, 2.8255656e+2, -22363.908, -148616.63, 25966.205, 0.053856913, 0.00042811283, -17232.072, 153713.98, 0.0, 10.000973, 9.999449 
2.4648543e+3, 2.9255307e+2, 5402.277, -17977.41, 46193.12, 0.01467634, 0.09345448, 41361.746, 114339.445, 0.0, 10.00036, 9.999886 
2.4645522e+3, 3.025464e+2, -235137.5, -495293.2, 42404.52, 0.4199424, 0.024027998, -228400.19, -228400.19, 0.0, 9.999763, 9.996695 
2.4642397e+3, 3.1253743e+2, 97671.875, 222009.55, -30739.768, -0.11490231, -0.19879073, 229194.13, 229194.13, 0.0, 9.9998, 10.001424 
2.4800879e+3, 1.2293413e+2, -1813997.8, -1426323.4, 70950.266, -0.2259565, 0.07259858, -1413746.5, 321514.8, 0.45571682, 9.9965105, 10.005349 
2.4797891e+3, 1.3292965e+2, -1553718.5, -1466198.6, 1974.0062, 0.51812863, -0.17194511, -1466154.1, 171136.78, 0.33319858, 9.999838, 10.001548 
2.4794802e+3, 1.4292514e+2, -1521899.0, -1793412.9, -84006.164, 0.4578218, -0.1882775, -1498009.5, 41321.766, 0.20679392, 10.001063, 9.997583 
2.4791665e+3, 1.5292065e+2, -1548434.4, -1713256.3, -156538.31, 0.1073101, -0.01420933, -1453939.1, -12548.636, 0.10179194, 10.000126, 9.997777 
2.4788561e+3, 1.6291696e+2, -1278920.9, -1019229.25, -11630.391, -0.02950713, 0.08590701, -1018709.44, 324722.84, 0.036105353, 9.9988985, 10.002669 
2.4785505e+3, 1.7291541e+2, -712367.44, -411661.28, 67916.586, -0.049423996, -0.13112676, -397033.4, 848398.0, 0.0076701324, 10.001109, 10.004956 
2.4782442e+3, 1.8291345e+2, -987875.2, -1255284.0, -44835.258, 0.032125566, -0.09990841, -980558.06, 166884.84, 0.000687035, 10.001645, 9.998297 
2.477936e+3, 1.929105e+2, -1196958.0, -1344267.3, -51438.25, 0.3130712, 0.23053017, -1180774.5, -131291.39, 0.000019881356, 9.999874, 9.997739 
2.4776265e+3, 2.0290533e+2, -1327352.0, -1259782.4, 46989.793, 0.3517683, 0.35529348, -1235692.6, -284153.94, 0.0, 9.997773, 9.998758 
2.477312e+3, 2.1289624e+2, -951771.1, -835507.75, 21501.727, -0.29000637, -0.15641323, -831658.7, 21958.883, 0.0, 9.999012, 10.000269 
2.477001e+3, 2.2288959e+2, -831291.8, -812691.56, -10484.742, -0.58976763, -0.3784453, -807976.6, -52303.19, 0.0, 9.999386, 9.999699 
2.476697e+3, 2.3288776e+2, -395377.13, -388451.75, -578.80707, -0.18198058, -0.23875105, -388403.72, 269281.97, 0.0, 10.001149, 10.000963 
2.4763913e+3, 2.4288437e+2, -621298.3, -940263.56, -25417.799, 0.14315733, -0.061263487, -619285.5, -59565.723, 0.0, 10.000947, 9.996721 
2.4760826e+3, 2.528777e+2, -528012.44, -779386.6, -70415.92, 0.18844742, -0.018241491, -509631.34, -47831.473, 0.0, 10.000787, 9.997097 
2.4757737e+3, 2.628721e+2, -542370.6, -598832.25, -62603.75, 0.19711381, 0.09613807, -501926.78, -138062.14, 0.0, 9.999273, 9.99852 
2.4754651e+3, 2.728693e+2, -170284.67, -122489.29, -60579.824, 0.14171177, 0.1878966, -81263.91, 184627.89, 0.0, 10.000284, 10.000472 
2.4751562e+3, 2.8286594e+2, -267652.6, -300723.72, -11721.091, -0.006195846, 0.2903872, -263919.75, -95996.57, 0.0, 9.99955, 9.999081 
2.4748474e+3, 2.928598e+2, -115878.35, -13469.021, 16876.482, -0.2605821, 0.058068197, -10759.557, 59220.77, 0.0, 9.999423, 10.000293 
2.4745461e+3, 3.0285445e+2, -586992.8, -674874.44, 36071.15, 0.2310375, 0.09447203, -574083.6, -574083.6, 0.0, 9.997574, 9.996481 
2.4742371e+3, 3.1285048e+2, -185139.22, 118286.945, -20707.424, -0.05719067, 0.25639728, 119693.61, 119693.61, 0.0, 9.997881, 10.001597 
2.490084e+3, 1.2324126e+2, -2070572.0, -1700185.5, 293086.6, 0.045767285, -0.16432284, -1538685.4, 193558.02, 0.43991777, 9.996359, 10.00255 
2.4897812e+3, 1.3324183e+2, -1799573.6, -1552498.8, 169430.13, 0.29557094, 0.10868754, -1466350.5, 167879.08, 0.31901658, 9.99793, 10.001728 
2.4894717e+3, 1.4323393e+2, -1780863.4, -1760759.3, 105744.055, 0.039193735, -0.29181194, -1664590.5, -128286.125, 0.19536594, 9.998496, 9.999056 
2.4891628e+3, 1.5323237e+2, -1329100.6, -1412359.9, 166801.19, 0.10637465, 0.029318929, -1198812.6, 239516.2, 0.094030365, 10.000849, 9.999585 
2.488855e+3, 1.6322966e+2, -1076033.0, -1152659.3, 272250.16, 0.16102861, 0.24167801, -839413.3, 500948.03, 0.032013185, 10.00133, 10.000547 
2.4885486e+3, 1.7322563e+2, -1107166.3, -968714.2, 107412.21, 0.1304345, 0.1184824, -910152.8, 332246.0, 0.0062260167, 9.999932, 10.001663 
2.4882407e+3, 1.8322167e+2, -1225231.4, -1213177.8, -148952.56, 0.08013144, 0.093606375, -1070130.1, 74304.32, 0.00043419475, 9.999268, 9.999739 
2.4879307e+3, 1.9321746e+2, -833178.7, -930036.06, -89362.49, 0.14280383, 0.086460926, -779965.9, 266507.63, 0.0000058323185, 10.001259, 9.9999485 
2.4876204e+3, 2.0321251e+2, -681823.94, -914158.2, 57382.902, 0.0925393, 0.104010604, -668424.1, 280095.78, 0.000000000090419006, 10.001984, 9.999096 
2.4873093e+3, 2.1320578e+2, -618532.56, -752402.56, 79573.36, -0.2055224, -0.1111458, -581485.75, 269095.8, 0.0, 10.001508, 9.999672 
2.4869993e+3, 2.2319989e+2, -636683.1, -733567.6, 39488.97, -0.39380255, -0.20001562, -622627.1, 130008.21, 0.0, 10.000687, 9.999611 
2.4866934e+3, 2.3319656e+2, -605058.2, -572590.06, -24575.225, -0.15890026, -0.13121197, -559371.0, 95294.42, 0.0, 9.9999895, 10.000306 
2.4863869e+3, 2.4319254e+2, -678502.4, -857304.6, -62737.71, 0.06776277, 0.0031177287, -658685.44, -101978.8, 0.0, 9.999969, 9.9977665 
2.4860793e+3, 2.531866e+2, -385619.88, -648520.56, 6789.231, 0.20264308, 0.050266992, -385444.66, 73331.23, 0.0, 10.001357, 9.997769 
2.4857704e+3, 2.631811e+2, -158104.52, -396261.78, 54073.547, 0.22635466, 0.15191282, -146402.16, 214435.47, 0.0, 10.001667, 9.998786 
2.4854605e+3, 2.731773e+2, -185267.38, -212835.66, 17530.504, 0.08576141, 0.22502714, -176750.81, 86123.49, 0.0, 10.0003605, 9.999904 
2.4851511e+3, 2.8317297e+2, -224490.11, -209184.34, 44170.203, -0.07560385, 0.2630853, -172008.95, -7093.4604, 0.0, 9.999355, 9.999849 
2.4848425e+3, 2.9316646e+2, -51926.64, 53422.293, 40285.73, -0.26333684, -0.02605234, 67061.77, 134038.25, 0.0, 9.999539, 10.000772 
2.4845408e+3, 3.031624e+2, -116048.0, -318114.16, 123801.27, 0.19444731, 0.07273, -57286.086, -57286.086, 0.0, 10.00014, 9.997711 
2.4842338e+3, 3.13161e+2, 362402.88, 361724.97, -33724.48, 0.06948811, 0.51991886, 395790.13, 395790.13, 0.0, 10.001403, 10.001714 
2.5000814e+3, 1.2355417e+2, -1717387.4, -1792362.4, 193694.02, 0.42554054, 0.14724067, -1557586.5, 171583.58, 0.42027465, 10.000467, 9.99954 
2.4997735e+3, 1.3355471e+2, -1622766.1, -1474393.6, 33549.613, 0.16895545, 0.43518692, -1467160.1, 164002.67, 0.30251706, 9.999095, 10.001762 
2.4994619e+3, 1.4354406e+2, -1684662.4, -1520200.3, 18470.941, -0.32883596, -0.30219263, -1518151.3, 15113.696, 0.18302314, 9.998252, 10.000866 
2.4991599e+3, 1.535452e+2, -1216362.6, -1131238.3, 39156.492, 0.18813778, 0.035878822, -1115966.5, 319286.47, 0.08629053, 10.000562, 10.0018015 
2.4988554e+3, 1.6354364e+2, -1416258.6, -1754039.1, 51143.12, 0.5411041, 0.3823013, -1408684.9, -71410.45, 0.028287582, 10.000842, 9.996591 
2.4985464e+3, 1.7353675e+2, -1521996.6, -1756165.3, -16337.039, 0.39001015, 0.43261296, -1520862.4, -281502.66, 0.0050760456, 9.999562, 9.996435 
2.4982363e+3, 1.8352969e+2, -1254586.9, -1093246.3, -85636.23, 0.18322109, 0.35348478, -1056267.8, 85164.984, 0.00028139996, 9.9986105, 10.0008545 
2.4979243e+3, 1.9352311e+2, -763303.6, -583008.4, -62343.42, -0.15009181, -0.15956277, -563550.8, 479927.7, 0.0000014559199, 10.00053, 10.002647 
2.4976143e+3, 2.0351842e+2, -866538.25, -1001189.06, -6789.2783, -0.2210523, -0.27079275, -866196.8, 79316.664, 0.0, 10.00082, 9.999052 
2.4973084e+3, 2.1351703e+2, -800200.0, -824749.25, 10451.519, 0.04453284, 0.028988263, -796353.2, 51176.535, 0.0, 10.000378, 9.999667 
2.4970005e+3, 2.2351336e+2, -989534.5, -1112388.5, -22295.623, 0.12649983, 0.24193345, -985613.44, -236044.98, 0.0, 9.999289, 9.9976845 
2.496689e+3, 2.335057e+2, -792624.75, -847062.9, -56548.438, -0.115732394, 0.029449426, -757085.56, -105439.07, 0.0, 9.999585, 9.998582 
2.49638e+3, 2.434997e+2, -761368.75, -782429.9, -25383.238, -0.157906, 0.018053574, -744418.4, -190711.42, 0.0, 9.998992, 9.99874 
2.4960747e+3, 2.534961e+2, -367806.63, -394777.63, 43520.496, 0.08492016, 0.07500261, -335730.2, 120012.27, 0.0, 10.000535, 9.999866 
2.4957669e+3, 2.6349142e+2, -441085.03, -648109.1, -2692.704, 0.14224872, 0.17618915, -441050.0, -83260.836, 0.0, 10.000356, 9.997662 
2.4954545e+3, 2.734845e+2, -366854.44, -444637.16, -27712.553, -0.0786989, 0.036477838, -357990.97, -98133.15, 0.0, 9.9998, 9.998562 
2.4951452e+3, 2.8347835e+2, -458268.94, -378331.78, 31717.416, -0.17392388, 0.0025085257, -367276.03, -205358.83, 0.0, 9.998143, 9.999234 
2.4948388e+3, 2.9347363e+2, -180031.22, 8038.756, 65090.24, -0.13724418, -0.15052427, 28368.615, 92329.125, 0.0, 9.998691, 10.000817 
2.4945354e+3, 3.0347008e+2, -332275.22, -395737.8, 155046.8, 0.04220255, -0.009422847, -205746.02, -205746.02, 0.0, 9.998739, 9.997803 
2.4942303e+3, 3.1346738e+2, 19741.979, 129778.92, 133632.08, -0.13368039, 0.22779985, 219275.38, 219275.38, 0.0, 9.999701, 10.000817 
2.5100785e+3, 1.2385728e+2, -1512563.0, -1929064.4, -146010.8, 0.119139045, -0.01459426, -1466476.4, 259721.78, 0.39734322, 10.003839, 9.996674 
2.5097695e+3, 1.3385792e+2, -1483795.4, -1429312.9, -128120.29, 0.18748043, 0.30095327, -1325569.9, 302623.63, 0.28406283, 10.000584, 10.001391 
2.5094572e+3, 1.4384948e+2, -1707692.1, -1584534.5, -84083.46, -0.28158072, -0.17543335, -1541892.5, -11617.065, 0.16993596, 9.998355, 10.00033 
2.5091553e+3, 1.5384734e+2, -1245350.3, -1193411.5, -105688.586, 0.10230473, -0.12821053, -1110548.5, 321745.13, 0.078587286, 10.00054, 10.001334 
2.50885e+3, 1.6384509e+2, -1296267.5, -1481753.6, -225150.53, 0.3049475, 0.08251761, -1145506.9, 188812.06, 0.024857625, 10.000747, 9.998512 
2.5085396e+3, 1.7384152e+2, -1402436.1, -1463809.4, -73654.52, 0.18160258, 0.25849152, -1353331.4, -116963.984, 0.0041356636, 9.999357, 9.998562 
2.5082296e+3, 1.8383679e+2, -1256146.9, -1097609.8, 30822.592, 0.025511716, 0.31072888, -1091828.1, 46590.266, 0.00018434241, 9.998572, 10.000843 
2.5079206e+3, 1.9383107e+2, -890756.0, -740507.3, -32735.002, -0.07804981, -0.020030325, -733685.06, 306778.94, 0.00000026313862, 10.000023, 10.001834 
2.5076115e+3, 2.0382652e+2, -893004.25, -961508.0, -166468.5, -0.15816317, -0.08490898, -757300.44, 185201.55, 0.0, 10.000342, 9.99957 
2.5073025e+3, 2.13824e+2, -949267.9, -883948.3, -155568.22, -0.076987185, 0.087169304, -757648.56, 86879.62, 0.0, 9.999212, 9.99989 
2.506994e+3, 2.238201e+2, -910593.3, -972217.5, -79752.61, -0.044600833, 0.2288848, -855907.7, -109339.914, 0.0, 9.999227, 9.998732 
2.506685e+3, 2.3381327e+2, -535201.8, -680000.25, -13790.274, -0.12733756, 0.053472098, -533900.1, 114735.164, 0.0, 10.001003, 9.999123 
2.5063768e+3, 2.4380754e+2, -347148.28, -546258.44, 8821.041, -0.14943674, 0.038941253, -346758.25, 203934.45, 0.0, 10.001552, 9.999152 
2.50607e+3, 2.5380334e+2, -375305.13, -423038.22, -57784.44, -0.0009630744, 0.06419433, -336652.44, 116082.195, 0.0, 10.000451, 9.999781 
2.5057614e+3, 2.637985e+2, -425737.53, -537478.75, -157107.63, 0.018961566, 0.112284556, -314861.84, 39919.15, 0.0, 9.999918, 9.998659 
2.5054494e+3, 2.7379197e+2, -231135.25, -337076.78, -101153.516, -0.15617134, -0.023148889, -169922.23, 86919.2, 0.0, 10.000479, 9.999026 
2.5051406e+3, 2.8378573e+2, -68057.945, -277015.72, 31109.17, -0.18941508, -0.046596874, -63524.824, 95376.93, 0.0, 10.001022, 9.998587 
2.504836e+3, 2.9378045e+2, 183567.03, -4898.07, -69391.4, -0.022610126, -0.11296786, 206359.86, 267316.03, 0.0, 10.001733, 9.999374 
2.5045326e+3, 3.037766e+2, 87724.56, -98655.19, -12115.214, 0.1672079, 0.03714502, 88508.79, 88508.79, 0.0, 10.001014, 9.998801 
2.504228e+3, 3.1377292e+2, -28798.807, 138998.64, -10018.157, 0.13237746, 0.09426201, 139594.66, 139594.66, 0.0, 9.998905, 10.001354 
2.5200763e+3, 1.24161065e+2, -1762181.3, -2220398.8, -250986.23, -0.008756536, -0.23159386, -1651459.4, 71762.414, 0.3720952, 10.0017395, 9.995642 
2.519766e+3, 1.3416065e+2, -1413242.3, -1476481.8, -155010.28, 0.21303602, 0.07536559, -1286659.6, 338569.4, 0.26429757, 10.001654, 10.000392 
2.519455e+3, 1.4415516e+2, -1551054.1, -1610789.5, 50786.15, 0.04603299, 0.008044079, -1522004.0, 5279.467, 0.15642525, 9.999983, 9.999296 
2.5191507e+3, 1.541485e+2, -1441848.6, -1402788.0, 18791.693, 0.039954912, -0.2974652, -1395215.5, 34131.42, 0.071005836, 9.999772, 10.000064 
2.5188434e+3, 1.6414501e+2, -1336538.3, -1168703.1, -191032.77, 0.06649358, -0.25641048, -1043968.6, 287412.22, 0.021693112, 9.999122, 10.001447 
2.5185317e+3, 1.741454e+2, -1210091.1, -927213.25, -149611.97, -0.053099483, -0.053422857, -862767.0, 370612.66, 0.00335279, 9.998947, 10.002399 
2.518223e+3, 1.8414424e+2, -1383430.1, -1346514.3, 41838.44, -0.016313963, 0.21478117, -1319243.1, -183847.84, 0.00011963712, 9.998536, 9.999136 
2.5179186e+3, 1.9414036e+2, -1109578.9, -1088072.8, 8368.361, 0.18892911, 0.2484587, -1085200.3, -47761.668, 0.00000002568285, 9.999549, 9.999652 
2.5176096e+3, 2.0413546e+2, -1062826.9, -1103468.6, -171570.39, 0.1252448, 0.28595304, -910378.1, 29109.91, 0.0, 9.999466, 9.999012 
2.5172943e+3, 2.1412893e+2, -974439.9, -891894.9, -196439.38, -0.34693322, 0.0314199, -732439.1, 109110.66, 0.0, 9.999029, 9.999903 
2.516984e+3, 2.2412397e+2, -966125.7, -877109.9, -11717.367, -0.44909182, 0.021068713, -875593.3, -131998.6, 0.0, 9.998469, 9.999697 
2.5166813e+3, 2.3412062e+2, -545476.8, -499602.1, 28595.377, -0.12452628, 0.006790871, -485881.3, 159741.02, 0.0, 10.000255, 10.000674 
2.5163752e+3, 2.4411592e+2, -686938.94, -909554.56, -54482.31, 0.025548305, 0.0962382, -674320.4, -126651.37, 0.0, 10.00023, 9.997271 
2.5160655e+3, 2.5410903e+2, -617070.1, -730344.3, -108068.97, -0.053783234, 0.0015867637, -551696.3, -101951.37, 0.0, 9.999751, 9.997968 
2.515755e+3, 2.6410365e+2, -522091.44, -486923.78, -151830.55, -0.14664851, 0.065220304, -351662.25, 135.34464, 0.0, 9.998987, 9.999414 
2.5154445e+3, 2.740999e+2, -219955.56, -139928.31, -83691.54, -0.25227007, 0.017602563, -87176.836, 166645.72, 0.0, 9.999876, 10.000594 
2.5151372e+3, 2.8409436e+2, -418986.4, -728741.44, 45835.258, -0.2127273, 0.09085881, -412346.38, -256469.97, 0.0, 10.000014, 9.995922 
2.5148344e+3, 2.9408664e+2, -114641.47, -451190.03, -25610.559, 0.058579016, 0.039730214, -112703.73, -54736.85, 0.0, 10.001155, 9.996526 
2.514531e+3, 3.0408183e+2, 31466.605, -2235.3738, -103601.31, 0.2988464, 0.21047097, 119578.41, 119578.41, 0.0, 10.000255, 9.99978 
2.51422e+3, 3.1407443e+2, -159342.4, 261756.89, 16243.645, -0.24157755, -0.31397483, 262382.56, 262382.56, 0.0, 9.997431, 10.002835 
2.53007e+3, 1.2447542e+2, -1741147.0, -1789891.1, 142254.06, -0.3767426, 0.069951266, -1621192.3, 98951.96, 0.34545994, 9.999989, 9.999535 
2.529765e+3, 1.344692e+2, -1350776.0, -1547690.8, -989.9792, 0.29776162, -0.08816708, -1350771.1, 271433.78, 0.24384509, 10.002697, 9.999225 
2.5294545e+3, 1.4446585e+2, -1414465.3, -1627974.3, 122798.805, 0.2240845, 0.18435651, -1358505.1, 165734.34, 0.14280653, 10.001489, 9.998457 
2.5291452e+3, 1.5445936e+2, -1642679.9, -1591213.1, 118092.29, -0.017240744, 0.0075966245, -1496083.0, -69775.586, 0.06363834, 9.998797, 9.999221 
2.5288364e+3, 1.6445448e+2, -1545165.8, -1291990.9, -52422.008, -0.073384345, -0.020089533, -1281565.8, 46789.563, 0.0187796, 9.997703, 10.001275 
2.528527e+3, 1.7445153e+2, -1143908.5, -942611.94, -106486.46, -0.014458523, -0.107372664, -896735.7, 333643.78, 0.0026956536, 9.999443, 10.00211 
2.528219e+3, 1.844493e+2, -1152528.5, -1175927.0, -7306.6226, 0.018018745, 0.049292166, -1150434.3, -18031.61, 0.00007576087, 9.999857, 9.999647 
2.5279135e+3, 1.9444707e+2, -1093565.9, -1056832.3, 41025.605, 0.11559903, 0.23466137, -1030249.75, 4183.4434, 0.00000000011876218, 9.9994955, 9.99991 
2.5276047e+3, 2.0444301e+2, -972340.2, -1007430.0, -79780.984, 0.04923131, 0.33474192, -908197.7, 28279.025, 0.0, 9.999783, 9.999522 
2.5272912e+3, 2.1443655e+2, -621644.56, -724111.25, -85273.27, -0.2376991, 0.10372121, -573397.4, 265140.8, 0.0, 10.001345, 9.999983 
2.5269815e+3, 2.2443123e+2, -519262.06, -679755.4, 21167.629, -0.3456435, 0.07068019, -516517.2, 224070.45, 0.0, 10.001502, 9.999609 
2.5266773e+3, 2.344272e+2, -571840.6, -594362.75, -42889.438, -0.124420665, 0.07601048, -538758.56, 103865.03, 0.0, 10.000276, 10.000081 
2.526371e+3, 2.4442247e+2, -659243.3, -779290.2, -139949.47, 0.0020294758, 0.14567223, -566988.5, -22318.207, 0.0, 9.9998, 9.998387 
2.5260615e+3, 2.544165e+2, -443310.78, -580835.25, -62260.734, -0.007370105, 0.0942831, -419311.78, 27422.992, 0.0, 10.00057, 9.998629 
2.5257516e+3, 2.6441136e+2, -133680.11, -253002.22, -43884.793, -0.11495501, 0.13685106, -119278.234, 229506.28, 0.0, 10.001304, 9.999942 
2.525441e+3, 2.7440712e+2, 91349.164, -5347.6255, -100097.805, -0.26472548, 0.06660732, 154163.44, 404979.4, 0.0, 10.001908, 10.0006075 
2.525134e+3, 2.8440174e+2, -200725.3, -570700.06, 22150.932, -0.17412548, 0.13696139, -199403.81, -46534.918, 0.0, 10.001236, 9.996401 
2.5248313e+3, 2.9439434e+2, -363372.28, -583146.8, 107986.26, 0.15806592, 0.14139725, -319193.84, -264238.0, 0.0, 9.999431, 9.996481 
2.5245273e+3, 3.0438855e+2, -104418.79, -103506.8, 95562.43, 0.37188077, 0.26178184, -8399.276, -8399.276, 0.0, 9.999378, 9.999546 
2.5242162e+3, 3.1438273e+2, 331277.5, 446557.53, -28145.596, -0.13744691, 0.010867442, 453062.25, 453062.25, 0.0, 10.000873, 10.002533 
2.5400686e+3, 1.2478966e+2, -1561581.8, -1589706.9, 123749.68, -0.17525782, 0.39708903, -1451098.1, 265967.4, 0.31815657, 10.001046, 10.0006075 
2.5397652e+3, 1.34779e+2, -1554863.8, -1733146.8, -74253.03, 0.58933276, -0.17417315, -1527989.1, 91178.016, 0.22319712, 10.001224, 9.998491 
2.539453e+3, 1.4477669e+2, -1520565.6, -1765149.3, 3104.0273, 0.38761234, 0.2672194, -1520526.3, 667.2266, 0.12934339, 10.000931, 9.997774 
2.53914e+3, 1.5477207e+2, -1437103.0, -1598171.6, -12841.5205, -0.009001414, 0.35197747, -1436085.6, -12836.706, 0.05657354, 10.000626, 9.998344 
2.5388303e+3, 1.6476622e+2, -1351139.9, -1339033.9, -633.57587, -0.043623306, 0.34157407, -1339000.8, -13693.541, 0.016116831, 9.999705, 9.999954 
2.5385237e+3, 1.7475882e+2, -1165836.0, -1117961.5, -65816.89, 0.1453452, -0.0788291, -1071864.0, 155506.4, 0.0021455006, 10.000019, 10.0006075 
2.5382155e+3, 1.8475461e+2, -1193360.1, -1144017.1, -11339.494, 0.15754558, -0.061532386, -1141536.0, -12125.771, 0.000046550977, 9.99938, 10.000105 
2.537907e+3, 1.947533e+2, -1146562.3, -1000317.56, -3768.4453, -0.018275356, 0.122866884, -1000220.56, 31209.668, 0.0, 9.998802, 10.00064 
2.537599e+3, 2.047505e+2, -1141602.9, -1096996.6, -48238.953, -0.017616862, 0.31889057, -1066154.4, -132692.69, 0.0, 9.998786, 9.999336 
2.537291e+3, 2.1474558e+2, -761836.9, -779215.1, -64965.793, 0.084624544, 0.21074302, -704981.7, 130528.21, 0.0, 10.000455, 9.999977 
2.5369823e+3, 2.2473995e+2, -819007.4, -1041815.4, -31318.908, 0.055350978, 0.2501025, -814688.75, -77122.63, 0.0, 10.000513, 9.997574 
2.5366727e+3, 2.3473313e+2, -776475.44, -881054.56, -77770.17, -0.14030606, 0.13085796, -735050.56, -95415.375, 0.0, 9.999829, 9.998274 
2.5363648e+3, 2.4472862e+2, -671448.94, -601428.9, -105382.62, -0.11034896, 0.24685822, -525392.94, 16286.273, 0.0, 9.999082, 9.999901 
2.5360584e+3, 2.5472572e+2, -426009.94, -341307.25, -33023.586, 0.08603147, 0.26871616, -329953.9, 113751.1, 0.0, 9.999791, 10.000598 
2.5357497e+3, 2.647209e+2, -429358.94, -568178.0, -35921.867, 0.044543512, 0.3227983, -420614.38, -74863.21, 0.0, 10.000165, 9.99828 
2.5354388e+3, 2.7471387e+2, -150516.84, -276644.4, -73347.18, -0.21829619, 0.0860979, -116849.82, 130969.04, 0.0, 10.001034, 9.999125 
2.535131e+3, 2.8470865e+2, -233417.64, -378257.3, -53773.617, -0.19250926, 0.17443225, -215636.39, -65766.62, 0.0, 10.00022, 9.998195 
2.5348258e+3, 2.9470396e+2, -321379.25, -280381.84, 65004.65, 0.09888633, 0.16779855, -232720.44, -180802.81, 0.0, 9.998603, 9.998927 
2.5345206e+3, 3.0469745e+2, -494037.16, -621440.3, 176432.98, 0.19917947, 0.24182092, -370158.13, -370158.13, 0.0, 9.9983015, 9.996457 
2.5342134e+3, 3.1469387e+2, 26899.564, 103549.84, 110261.84, -0.16104412, 0.50644237, 181957.27, 181957.27, 0.0, 9.999789, 10.000663 
2.5500643e+3, 1.2509333e+2, -1658420.5, -1973364.6, 126433.71, -0.4884368, 0.044876486, -1613944.8, 100135.44, 0.29081753, 10.001749, 9.997289 
2.5497606e+3, 1.3508551e+2, -1621125.4, -1744136.0, -142291.39, 0.47793975, -0.2590976, -1527615.4, 88544.086, 0.2027681, 10.00058, 9.998775 
2.5494465e+3, 1.4508191e+2, -1430098.9, -1586564.4, 25353.271, 0.015334559, -0.017241906, -1426093.3, 92106.02, 0.11625642, 10.001065, 9.998933 
2.5491366e+3, 1.5507923e+2, -950921.1, -1262884.0, 68170.28, -0.16361985, 0.16321331, -936675.06, 483557.4, 0.04988728, 10.00366, 9.999257 
2.5488275e+3, 1.6507478e+2, -862102.6, -1203775.4, -22085.672, -0.15328392, 0.30222535, -860680.94, 461598.38, 0.013707004, 10.003555, 9.999044 
2.5485194e+3, 1.7506815e+2, -998528.0, -1168941.6, -50827.05, 0.023941785, 0.10123238, -984519.94, 239823.05, 0.0016894786, 10.001727, 9.999457 
2.5482106e+3, 1.8506311e+2, -1078658.9, -1065520.9, -28757.12, 0.073260374, 0.09036921, -1042591.94, 83799.96, 0.000027889511, 10.000015, 10.000348 
2.547902e+3, 1.9505946e+2, -1169782.5, -1020877.2, -33034.887, 0.032349538, 0.057959545, -1013877.4, 14551.177, 0.0, 9.998629, 10.000611 
2.547594e+3, 2.0505597e+2, -1130143.5, -1060730.5, -15762.22, 0.010355396, 0.17697449, -1057318.9, -126854.08, 0.0, 9.998668, 9.999655 
2.5472867e+3, 2.1505189e+2, -765883.6, -802434.2, -24797.809, 0.020300794, 0.1743256, -753354.4, 79153.25, 0.0, 10.000396, 9.999893 
2.5469786e+3, 2.2504689e+2, -580100.94, -825388.2, -11637.705, -0.031809993, 0.23561092, -579550.06, 155008.42, 0.0, 10.001663, 9.998513 
2.5466695e+3, 2.3504059e+2, -323783.97, -618693.94, 51796.29, -0.1683521, 0.14506736, -314951.3, 321669.94, 0.0, 10.002683, 9.998731 
2.5463608e+3, 2.450358e+2, -187944.69, -345856.84, -29562.35, -0.15404834, 0.20951131, -182591.84, 356075.6, 0.0, 10.002144, 10.000256 
2.5460532e+3, 2.5503218e+2, -414914.4, -369081.2, -86337.07, 0.018183291, 0.20750497, -302671.1, 138028.78, 0.0, 9.999804, 10.000515 
2.545745e+3, 2.6502746e+2, -615989.25, -657532.9, -55598.535, 0.045737818, 0.2762724, -577409.0, -234661.7, 0.0, 9.998778, 9.998377 
2.545436e+3, 2.750213e+2, -415984.16, -471870.53, -59000.48, -0.058771368, 0.20094174, -378644.28, -133831.58, 0.0, 9.999391, 9.998645 
2.5451276e+3, 2.8501627e+2, -189791.73, -212414.27, -88829.914, -0.063023366, 0.27185857, -111555.82, 35306.035, 0.0, 9.9997425, 9.999625 
2.5448197e+3, 2.9501188e+2, -54759.99, -39596.41, -124625.055, 0.012703745, 0.2103849, 77677.266, 126577.25, 0.0, 9.999826, 10.000063 
2.5445157e+3, 3.0500552e+2, -293607.4, -423647.5, 122323.555, 0.2360257, 0.18199655, -220097.11, -220097.11, 0.0, 9.999058, 9.997531 
2.544208e+3, 3.150002e+2, -458465.13, -258339.34, 184697.3, -0.15186231, 0.2792556, -148341.11, -148341.11, 0.0, 9.996737, 9.999754 
2.5600687e+3, 1.2540118e+2, -1778961.6, -1894523.8, -352882.56, 0.22727196, 0.019215843, -1479160.9, 231894.55, 0.26403108, 10.000351, 9.998719 
2.5597546e+3, 1.3539238e+2, -1487484.4, -1713521.4, -167916.7, 0.2289788, -0.34785494, -1398094.4, 215055.1, 0.18292536, 10.001874, 9.998403 
2.559441e+3, 1.4538768e+2, -1283361.9, -1413743.3, 80685.29, -0.22798863, -0.2333746, -1244822.4, 270377.38, 0.1037245, 10.001719, 9.999873 
2.5591347e+3, 1.5538567e+2, -1154772.1, -1282311.0, 47510.715, -0.2568874, -0.108523495, -1139019.1, 278201.72, 0.043632858, 10.001799, 9.999998 
2.5588256e+3, 1.6538267e+2, -1244953.6, -1488030.8, -122584.21, -0.18221775, 0.18265837, -1193869.8, 125386.4, 0.011545959, 10.001404, 9.998076 
2.558515e+3, 1.7537822e+2, -1215048.9, -1388950.4, -139816.33, -0.09201518, 0.28105652, -1137351.4, 83957.81, 0.0013158798, 10.000822, 9.998342 
2.5582054e+3, 1.853726e+2, -1121418.5, -1123139.3, -68664.05, 0.04098551, 0.29084548, -1053609.4, 69755.48, 0.000016496271, 10.000001, 9.999937 
2.5578976e+3, 1.9536562e+2, -1135565.8, -1068453.1, -94272.19, 0.20271796, -0.04874371, -1001943.1, 23483.756, 0.0, 9.999211, 10.000008 
2.5575894e+3, 2.0536086e+2, -1120209.6, -1068743.4, 42853.01, 0.13289608, -0.003064241, -1044490.75, -117017.125, 0.0, 9.998914, 9.999459 
2.5572804e+3, 2.1535748e+2, -900330.5, -883401.5, 16553.936, -0.1860064, 0.0583716, -873273.5, -43761.1, 0.0, 9.999673, 9.999661 
2.5569728e+3, 2.2535382e+2, -682217.75, -730384.0, 11829.181, -0.25781384, 0.21241164, -679469.44, 52079.223, 0.0, 10.00045, 9.999702 
2.5566673e+3, 2.3534918e+2, -470824.47, -547420.1, 49970.46, -0.1682564, 0.11447284, -446163.8, 187426.17, 0.0, 10.001145, 9.999917 
2.5563583e+3, 2.4534357e+2, -547811.4, -709636.4, -135952.3, -0.12380238, 0.13059929, -470515.6, 65128.45, 0.0, 10.000622, 9.998437 
2.5560462e+3, 2.553366e+2, -658974.1, -681624.94, -181729.64, -0.16251013, -0.071120776, -488217.34, -50503.813, 0.0, 9.999093, 9.998666 
2.555738e+3, 2.6533234e+2, -731535.6, -708135.3, -47625.273, -0.053898383, 0.14691085, -670794.06, -331033.72, 0.0, 9.998139, 9.998252 
2.5554332e+3, 2.7532938e+2, -507023.84, -522527.47, -29739.275, 0.16243802, 0.35089636, -484042.7, -242245.31, 0.0, 9.998913, 9.998474 
2.5551248e+3, 2.8532407e+2, -354963.2, -368648.88, -106681.695, 0.10933196, 0.44558534, -254905.11, -111054.77, 0.0, 9.999078, 9.998813 
2.5548133e+3, 2.9531717e+2, -224115.94, -218108.88, -122905.71, -0.17751534, 0.18036997, -98170.01, -52257.23, 0.0, 9.999178, 9.999094 
2.554511e+3, 3.053113e+2, -163426.31, 18175.193, -3190.7644, 0.29238242, 0.08954515, 18231.238, 18231.238, 0.0, 9.998522, 10.000711 
2.5542057e+3, 3.1530932e+2, -345929.1, 245303.55, 121474.17, 0.29696548, 0.11862557, 269288.5, 269288.5, 0.0, 9.995843, 10.003518 
2.570064e+3, 1.2570614e+2, -1894621.0, -1872268.1, -163025.06, 0.18381263, -0.21802904, -1720036.9, -11959.131, 0.23823552, 9.998944, 9.999293 
2.5697497e+3, 1.3570331e+2, -1334287.5, -1582705.9, -74538.79, -0.14086248, -0.032116592, -1313638.3, 296472.03, 0.16394834, 10.002855, 9.998771 
2.569438e+3, 1.4569816e+2, -1279226.6, -1478351.8, -4237.9536, -0.35767537, 0.06361728, -1279136.5, 233025.97, 0.09188186, 10.0020275, 9.999235 
2.569131e+3, 1.5569326e+2, -1562710.3, -1559707.5, -62296.195, -0.19054204, -0.014442169, -1498894.5, -84684.74, 0.03784501, 9.999208, 9.999342 
2.568822e+3, 1.65689e+2, -1560720.1, -1515069.0, -161155.28, -0.098354995, 0.11619342, -1375130.9, -58875.723, 0.009625426, 9.998672, 9.999206 
2.568511e+3, 1.7568448e+2, -1260443.3, -1330628.5, -85733.24, -0.10329358, 0.13267651, -1202898.5, 15408.32, 0.0010124295, 10.000114, 9.9991045 
2.568202e+3, 1.8567985e+2, -925534.9, -1016714.2, -31349.857, -0.0147349, 0.20662357, -915796.1, 204556.78, 0.000009793076, 10.001252, 10.000076 
2.5678945e+3, 1.9567451e+2, -700681.8, -886733.7, -16213.467, 0.19409136, 0.0694188, -699279.44, 323121.4, 0.0, 10.002221, 9.999845 
2.5675854e+3, 2.0566924e+2, -706046.0, -933224.4, 56800.434, 0.08639084, 0.099553466, -692636.0, 231818.44, 0.0, 10.001943, 9.998953 
2.5672758e+3, 2.1566404e+2, -745991.3, -897436.2, 22328.035, -0.25290066, 0.085216224, -742768.06, 83743.695, 0.0, 10.000991, 9.998981 
2.5669688e+3, 2.2566015e+2, -685727.1, -638176.4, -36103.242, -0.29994324, 0.19428685, -618723.2, 109826.34, 0.0, 9.99987, 10.00066 
2.5666633e+3, 2.356566e+2, -815384.06, -677247.4, -36672.01, -0.099763595, 0.16686772, -668115.5, -37537.35, 0.0, 9.998438, 10.0004 
2.566355e+3, 2.4565104e+2, -757764.1, -858314.3, -178596.11, -0.026273878, 0.18151213, -622501.75, -89869.16, 0.0, 9.99931, 9.998048 
2.5660434e+3, 2.5564355e+2, -266344.16, -573721.06, -193114.75, -0.07058502, 0.021893792, -173226.13, 261484.27, 0.0, 10.002052, 9.997999 
2.565735e+3, 2.656386e+2, -59512.547, -322224.75, -74322.875, -0.016551834, 0.16189294, -39943.78, 296819.0, 0.0, 10.002349, 9.998892 
2.565429e+3, 2.75635e+2, -185565.84, -344520.6, -60386.656, 0.17772746, 0.29937539, -165227.38, 73574.32, 0.0, 10.000854, 9.998789 
2.5651202e+3, 2.8562996e+2, -169715.75, -231117.34, -68658.97, 0.124262884, 0.37106255, -125206.22, 15643.591, 0.0, 10.000042, 9.9993 
2.5648087e+3, 2.956236e+2, -125939.26, -165640.31, -38237.113, -0.14178059, 0.18363394, -102707.07, -59801.24, 0.0, 9.999698, 9.999233 
2.5645044e+3, 3.056174e+2, -35441.75, 165986.78, 12152.569, 0.19990721, 0.01268986, 166717.31, 166717.31, 0.0, 9.99886, 10.001623 
2.5641963e+3, 3.1561446e+2, -158375.25, 151687.6, -328434.97, 0.14067683, -0.07835521, 359842.44, 359842.44, 0.0, 9.997668, 10.002074 
2.5800607e+3, 1.2601382e+2, -1865118.9, -1825387.0, -24143.82, 0.3722377, -0.022032294, -1813986.6, -108912.164, 0.21373183, 9.998896, 9.999636 
2.5797454e+3, 1.3601433e+2, -1398145.3, -1526723.6, -48971.72, -0.34647244, 0.3290038, -1381617.8, 225452.38, 0.14603193, 10.00177, 9.999751 
2.5794357e+3, 1.4600879e+2, -1382432.5, -1616925.1, -94737.22, -0.32350686, 0.37711364, -1348941.1, 160182.98, 0.080827504, 10.0016775, 9.998419 
2.5791278e+3, 1.560012e+2, -1460541.9, -1615904.1, -156282.34, 0.005493614, 0.12138666, -1363699.3, 47497.793, 0.032553293, 10.000436, 9.998345 
2.5788182e+3, 1.6599528e+2, -1297868.0, -1270211.8, -102819.36, 0.08856423, 0.08016867, -1180294.9, 132961.03, 0.007938516, 9.999998, 10.000207 
2.5785074e+3, 1.7598996e+2, -1203759.4, -1208542.9, -102787.914, -0.019982982, -0.113374904, -1103335.4, 111975.195, 0.00076767127, 10.000132, 9.999899 
2.5781986e+3, 1.859869e+2, -1027951.44, -1073510.4, -40993.316, 0.034098886, 0.08661572, -1003833.6, 113508.25, 0.000005913737, 10.000684, 9.999911 
2.577892e+3, 1.9598486e+2, -912558.56, -1016556.5, -50208.625, 0.19908758, 0.25693247, -892274.8, 127087.71, 0.0, 10.001027, 9.999463 
2.577583e+3, 2.059793e+2, -957352.0, -1198503.1, 6962.9893, 0.096502535, 0.35365534, -957151.1, -35730.383, 0.0, 10.000903, 9.9976 
2.5772724e+3, 2.1597098e+2, -977003.9, -1147005.6, -19071.457, -0.20754194, 0.11559305, -974890.6, -151381.45, 0.0, 10.000057, 9.997691 
2.5769645e+3, 2.2596636e+2, -819088.5, -671729.2, -72291.33, -0.19146544, 0.20623967, -642187.1, 83366.61, 0.0, 9.999036, 10.000766 
2.5766584e+3, 2.3596364e+2, -942387.2, -747517.1, -83848.164, 0.038515795, 0.22642817, -716406.06, -88831.516, 0.0, 9.997789, 10.000178 
2.5763515e+3, 2.4595906e+2, -897107.25, -966600.6, -70849.49, 0.15213108, 0.38720253, -852942.7, -323321.75, 0.0, 9.998686, 9.99755 
2.5760436e+3, 2.559524e+2, -458216.94, -723363.5, -83035.24, 0.17932518, 0.32137805, -434359.66, -2666.7976, 0.0, 10.001102, 9.997393 
2.5757337e+3, 2.6594576e+2, -198745.72, -348241.03, -125989.945, 0.0891707, 0.31396288, -126998.734, 206758.2, 0.0, 10.001327, 9.999187 
2.5754228e+3, 2.759391e+2, -329819.0, -379213.63, -97714.695, -0.053975064, 0.07785775, -253728.8, -17912.09, 0.0, 9.999845, 9.999006 
2.575114e+3, 2.8593493e+2, -196262.11, -98270.99, -64132.656, -0.048481323, 0.1650963, -66559.91, 71290.56, 0.0, 9.99934, 10.000516 
2.5748056e+3, 2.9593128e+2, -162637.5, -85981.35, -2235.4036, -0.018374424, 0.09885933, -85916.22, -46038.45, 0.0, 9.999116, 10.000048 
2.574495e+3, 3.0592558e+2, -246397.5, -116139.96, -2437.2446, -0.1791837, 0.038548566, -116094.37, -116094.37, 0.0, 9.99833, 9.999897 
2.5741914e+3, 3.1592527e+2, -545545.9, -463944.3, -19181.342, 0.2063425, 0.37586898, -459660.4, -459660.4, 0.0, 9.996998, 9.998161 
2.5900522e+3, 1.2632251e+2, -1767211.3, -1582861.3, 38117.027, -0.0613095, 0.15133291, -1575290.9, 126760.62, 0.19077115, 9.998689, 10.00158 
2.5897434e+3, 1.363206e+2, -1500862.9, -1524316.5, 35623.406, -0.2227818, 0.208525, -1475085.8, 128980.18, 0.12932457, 10.000656, 10.000314 
2.5894347e+3, 1.4631417e+2, -1369536.9, -1566845.9, -69021.91, -0.18262248, 0.12567444, -1347789.0, 158337.83, 0.07062259, 10.001565, 9.998815 
2.5891256e+3, 1.5630768e+2, -1125070.0, -1446896.0, -53987.313, -0.041104246, -0.021049831, -1116254.9, 291934.75, 0.027766839, 10.002736, 9.998407 
2.5888148e+3, 1.6630252e+2, -1015908.1, -1251490.3, -107118.42, 0.006771266, 0.07048161, -974485.2, 335759.94, 0.0064744665, 10.002421, 9.999179 
2.5885046e+3, 1.7629758e+2, -1140778.6, -1298827.9, -149388.9, 0.035903744, 0.050040215, -1050800.5, 161500.84, 0.0005723583, 10.000975, 9.998915 
2.5881958e+3, 1.8629415e+2, -1049927.4, -1046572.6, -127905.87, 0.10556274, 0.22754262, -920333.1, 194005.3, 0.0000035552432, 10.000308, 10.0003 
2.587888e+3, 1.9629131e+2, -1021303.1, -1049487.1, -99650.83, 0.18389264, 0.31855312, -934752.8, 81614.72, 0.0, 10.000063, 9.999756 
2.5875786e+3, 2.0628648e+2, -946250.94, -1031976.56, -21935.963, 0.041778952, 0.3826712, -940963.94, -22547.543, 0.0, 10.000245, 9.999081 
2.5872687e+3, 2.1627994e+2, -796204.9, -956967.6, 56759.81, -0.21616831, 0.24748702, -778184.8, 42297.28, 0.0, 10.000744, 9.998722 
2.5869608e+3, 2.2627452e+2, -599272.2, -638707.25, -15827.372, -0.18130064, 0.24903578, -593705.56, 128827.62, 0.0, 10.00079, 10.000157 
2.5866535e+3, 2.3626979e+2, -560255.75, -644484.75, -52307.992, 0.034985147, 0.18551122, -535215.56, 89359.35, 0.0, 10.000657, 9.999543 
2.586347e+3, 2.4626504e+2, -484234.53, -629234.3, 22007.111, 0.1326619, 0.28433615, -480968.03, 45652.363, 0.0, 10.00078, 9.998905 
2.58604e+3, 2.5625965e+2, -398226.0, -580224.8, 77611.76, 0.16214119, 0.2694729, -369624.1, 59051.074, 0.0, 10.000889, 9.99852 
2.5857297e+3, 2.662534e+2, -265434.1, -334226.28, 169.337, 0.041883957, 0.2304103, -265433.7, 65300.355, 0.0, 10.000596, 9.99966 
2.5854176e+3, 2.7624643e+2, -269766.1, -321905.06, 3395.8784, -0.13975613, -0.010277934, -269545.84, -36748.938, 0.0, 10.00003, 9.999363 
2.5851086e+3, 2.862422e+2, -157764.39, -31108.73, -2181.8088, -0.08176348, 0.030753769, -31071.156, 103759.83, 0.0, 9.999309, 10.001018 
2.5848007e+3, 2.9623884e+2, -229588.14, -104608.7, -67446.62, 0.06517109, -0.0064240647, -75152.72, -38297.61, 0.0, 9.998464, 10.00028 
2.5844896e+3, 3.0623376e+2, -177485.72, -128442.53, -51818.78, -0.14721492, 0.00049246283, -95636.164, -95636.164, 0.0, 9.998927, 9.999562 
2.5841892e+3, 3.1623062e+2, -386256.97, -526154.2, -285710.66, 0.66445667, 0.16598609, -162056.98, -162056.98, 0.0, 9.998583, 9.996998 
2.600046e+3, 1.2663242e+2, -1633877.0, -1642446.4, 71328.18, -0.20727502, 0.30501416, -1566705.0, 132309.25, 0.16949552, 10.000323, 10.000309 
2.5997424e+3, 1.3662572e+2, -1538683.6, -1589544.1, 777.32263, 0.05237695, -0.07145757, -1538671.8, 62399.703, 0.11391175, 10.0005865, 9.999843 
2.599434e+3, 1.4661951e+2, -1421788.0, -1518041.9, -59050.863, 0.044234645, -0.15149933, -1393736.1, 109393.09, 0.061296463, 10.00093, 9.999395 
2.5991234e+3, 1.5661456e+2, -1286207.0, -1541005.4, -75574.81, -0.062421773, -0.20531975, -1265477.5, 139700.27, 0.023481611, 10.001709, 9.99823 
2.5988126e+3, 1.6661042e+2, -1218374.9, -1527324.6, -145513.64, -0.0017473652, 0.09258558, -1160631.1, 146596.77, 0.005220199, 10.001809, 9.997603 
2.5985023e+3, 1.766063e+2, -1277401.9, -1544380.1, -175244.83, 0.1839406, 0.31405428, -1190595.5, 18687.402, 0.00041937284, 10.00085, 9.997309 
2.5981927e+3, 1.8660168e+2, -1035307.94, -1029653.0, -81378.53, 0.24139027, 0.44013676, -951052.8, 160281.28, 0.0000020172258, 10.0004225, 10.000325 
2.5978836e+3, 1.9659638e+2, -1072841.4, -1073603.5, -94891.09, 0.21058747, 0.26799765, -978330.56, 35056.613, 0.0, 9.999775, 9.999696 
2.5975743e+3, 2.0659293e+2, -875068.75, -767968.56, -2030.5002, 0.053461317, 0.3653016, -767930.06, 147488.05, 0.0, 9.999862, 10.001034 
2.5972652e+3, 2.1658999e+2, -902426.4, -869539.06, 33034.523, -0.16177915, 0.3694524, -849081.8, -31639.775, 0.0, 9.999558, 9.999844 
2.5969565e+3, 2.2658378e+2, -823154.56, -912015.75, -40808.836, -0.17397264, 0.33731613, -807257.4, -87758.31, 0.0, 10.000049, 9.998608 
2.5966486e+3, 2.3657535e+2, -786762.94, -900496.44, -71424.04, -0.04187696, 0.025462978, -752332.25, -130753.89, 0.0, 9.999823, 9.998156 
2.5963417e+3, 2.4657021e+2, -504435.94, -422286.72, 15264.23, -0.0019020366, 0.041985773, -419542.16, 104079.81, 0.0, 9.999827, 10.0007515 
2.5960344e+3, 2.565663e+2, -530563.44, -500495.97, 55752.594, -0.031837232, -0.04061824, -457785.75, -32132.965, 0.0, 9.999446, 9.999754 
2.5957242e+3, 2.6656157e+2, -442056.25, -431663.16, -42424.133, -0.10093615, 0.0352137, -394118.5, -66421.414, 0.0, 9.999571, 9.999439 
2.5954127e+3, 2.7655587e+2, -463471.88, -492633.56, -25325.396, -0.16344336, -0.08298775, -448829.84, -219075.86, 0.0, 9.999124, 9.998613 
2.5951037e+3, 2.865508e+2, -368435.5, -282685.53, -61028.965, -0.06317585, -0.0062611946, -250976.34, -119175.96, 0.0, 9.998616, 9.9995985 
2.5947946e+3, 2.9654592e+2, -511932.63, -413048.5, -107932.55, 0.038272865, -0.072113305, -343772.63, -309930.6, 0.0, 9.997406, 9.998642 
2.5944883e+3, 3.0653873e+2, -234246.84, -94974.266, -59448.96, 0.2976083, -0.2299546, -73049.69, -73049.69, 0.0, 9.998445, 9.999945 
2.5941828e+3, 3.1653795e+2, -338414.47, -312339.16, -41837.742, 0.49464497, 0.08957515, -281554.72, -281554.72, 0.0, 9.9982605, 9.998574 
2.610046e+3, 1.269376e+2, -1529582.4, -1581123.0, -43977.465, -0.024486983, 0.15525107, -1504380.9, 191639.14, 0.14988421, 10.001104, 10.000399 
2.6097405e+3, 1.3693172e+2, -1604741.6, -1689570.8, -46633.285, 0.2231747, -0.07767182, -1584119.3, 13953.833, 0.09979623, 10.000348, 9.999278 
2.609431e+3, 1.4692761e+2, -1473550.5, -1424106.5, -75769.44, 0.14874679, 0.012902033, -1369127.9, 130985.35, 0.05285716, 10.000017, 10.000515 
2.6091203e+3, 1.5692389e+2, -1406711.0, -1522440.5, -59693.645, -0.041428838, 0.007316877, -1381439.3, 20712.805, 0.019694533, 10.000464, 9.998998 
2.608809e+3, 1.6691932e+2, -1224206.0, -1425553.9, -115549.87, -0.095237345, 0.17425922, -1171625.3, 132578.19, 0.004163879, 10.001297, 9.998542 
2.608497e+3, 1.769142e+2, -1072939.6, -1385382.3, -45556.566, -0.07637989, 0.23400119, -1066432.6, 139830.02, 0.00030229846, 10.001972, 9.997858 
2.6081878e+3, 1.8690936e+2, -836705.06, -1021605.1, 14948.735, 0.018656138, 0.36394855, -835504.25, 272811.06, 0.0000010444409, 10.002079, 9.999617 
2.6078793e+3, 1.969042e+2, -847116.06, -1050065.0, -6375.5444, 0.11111066, 0.31803784, -846915.94, 163453.22, 0.0, 10.0015545, 9.99905 
2.607571e+3, 2.068998e+2, -681182.06, -696723.8, 623.57007, 0.05765332, 0.35311088, -681157.06, 231252.06, 0.0, 10.001161, 10.000944 
2.6072618e+3, 2.1689561e+2, -732847.5, -815782.5, -39642.95, -0.077026054, 0.2721702, -716946.75, 97497.44, 0.0, 10.000665, 9.99973 
2.6069537e+3, 2.2688982e+2, -630983.9, -826431.1, -88821.39, -0.11308347, 0.2705179, -596650.1, 119847.96, 0.0, 10.001257, 9.998673 
2.6066452e+3, 2.3688275e+2, -436482.3, -732958.1, -70057.69, -0.08811224, 0.12983888, -420761.22, 197804.81, 0.0, 10.002064, 9.998289 
2.6063368e+3, 2.4687715e+2, -420566.22, -328732.8, -100674.52, -0.050526988, 0.057581507, -263998.22, 256616.27, 0.0, 10.000148, 10.001234 
2.6060283e+3, 2.5687224e+2, -811039.5, -586498.3, -144421.67, -0.022357978, -0.12803991, -515841.88, -93188.3, 0.0, 9.997195, 10.000281 
2.6057184e+3, 2.6686874e+2, -701952.4, -431103.22, -148797.47, -0.04564355, -0.040772922, -365330.13, -40645.688, 0.0, 9.997129, 10.000665 
2.6054084e+3, 2.7686533e+2, -504651.9, -434603.06, -71211.086, -0.049647763, -0.008107557, -390269.25, -163551.42, 0.0, 9.998382, 9.9994 
2.6051e+3, 2.8685936e+2, -190275.11, -336937.34, -54281.164, 0.04566615, 0.009681513, -172370.83, -43596.6, 0.0, 10.000362, 9.998405 
2.604791e+3, 2.9685253e+2, 135796.95, -224008.1, -95706.375, 0.1326063, -0.08965175, 159670.36, 190508.48, 0.0, 10.002259, 9.997639 
2.6044863e+3, 3.0684468e+2, 288853.16, 170262.02, -69222.31, 0.5350906, -0.29255, 320704.13, 320704.13, 0.0, 10.001772, 10.000234 
2.6041755e+3, 3.1683907e+2, -201337.13, -327387.16, 93556.13, 0.27840695, -0.44501096, -151557.44, -151557.44, 0.0, 9.9993515, 9.997975 
2.6200458e+3, 1.2724136e+2, -1457626.6, -1547460.1, -39906.76, 0.27603215, -0.111020826, -1442459.5, 250581.03, 0.13183987, 10.0017605, 10.000253 
2.6197383e+3, 1.3723865e+2, -1555869.0, -1676677.6, -82657.6, 0.4074622, -0.015568685, -1513896.8, 81170.14, 0.08692974, 10.000825, 9.999112 
2.6194283e+3, 1.4723639e+2, -1351075.0, -1310478.6, -55832.063, 0.29520047, 0.22745652, -1271369.4, 225723.19, 0.045284748, 10.000576, 10.001091 
2.6191178e+3, 1.5723373e+2, -1368639.3, -1433142.6, -100037.984, 0.10041322, 0.26371327, -1295782.6, 103340.93, 0.01638905, 10.000416, 9.9996605 
2.618805e+3, 1.6722861e+2, -1160936.6, -1248272.4, -114197.94, -0.12863836, 0.26516464, -1082342.3, 218832.84, 0.0032885466, 10.001151, 9.999815 
2.6184916e+3, 1.7722213e+2, -1092726.3, -1330204.6, -72519.38, -0.3344422, 0.060644478, -1072332.3, 130906.62, 0.00021471751, 10.001585, 9.998432 
2.618183e+3, 1.8721741e+2, -935993.1, -1188047.4, -28268.783, -0.19563295, 0.23310684, -932861.6, 172427.47, 0.00000047553752, 10.001935, 9.998537 
2.617876e+3, 1.9721329e+2, -1004598.75, -1275343.4, -52542.566, 0.08780163, 0.38540864, -994759.56, 12574.99, 0.0, 10.001195, 9.99767 
2.6175678e+3, 2.0720698e+2, -803071.7, -883945.3, -8234.771, 0.12037758, 0.35724697, -802241.7, 107152.65, 0.0, 10.000952, 9.999727 
2.6172593e+3, 2.171995e+2, -967445.9, -1057985.5, -35917.027, 0.053813092, 0.04608774, -954928.25, -143465.48, 0.0, 9.999719, 9.998505 
2.616951e+3, 2.2719516e+2, -731546.44, -782109.6, -24220.41, -0.01580004, 0.20175755, -721816.75, -8312.032, 0.0, 10.000325, 9.999367 
2.6166427e+3, 2.3719178e+2, -716916.8, -854316.3, -50027.082, -0.08158395, 0.3472599, -700632.06, -85093.27, 0.0, 10.000243, 9.99829 
2.6163322e+3, 2.4718544e+2, -644284.0, -541999.6, -178152.39, -0.03716142, 0.26170424, -407794.0, 109804.85, 0.0, 9.9991865, 10.00018 
2.6160216e+3, 2.5717777e+2, -1014814.8, -774826.4, -196082.02, 0.07345387, -0.11822374, -664936.3, -245266.05, 0.0, 9.996308, 9.999382 
2.6157123e+3, 2.671758e+2, -626269.5, -174066.64, -86898.445, 0.101972766, 0.040126592, -157942.56, 163741.4, 0.0, 9.996784, 10.002543 
2.6154038e+3, 2.7717558e+2, -569199.06, -378052.3, -5576.5938, 0.09640609, 0.18157664, -377889.75, -154209.88, 0.0, 9.997658, 10.0001 
2.6150966e+3, 2.8716844e+2, -337184.03, -501003.1, 26239.506, 0.14448176, 0.11957228, -333083.78, -207336.06, 0.0, 9.9999075, 9.997435 
2.61479e+3, 2.971585e+2, -49657.816, -440365.28, -25777.72, 0.20826511, -0.22189291, -47964.418, -20119.178, 0.0, 10.001645, 9.9964285 
2.6144817e+3, 3.0715427e+2, 145643.8, 49363.246, -159506.28, 0.33139372, 0.009077219, 264116.06, 264116.06, 0.0, 10.001119, 9.999693 
2.6141658e+3, 3.1715363e+2, -469610.5, -521966.06, -149563.02, -0.2506829, 0.39510193, -343951.63, -343951.63, 0.0, 9.997977, 9.997282 
2.630046e+3, 1.2755086e+2, -1430120.3, -1542453.3, -70062.52, 0.39534062, 0.069396146, -1396490.1, 293521.78, 0.11528824, 10.001985, 10.000164 
2.629732e+3, 1.3754643e+2, -1495205.8, -1683990.5, -39950.07, 0.036883563, -0.002980775, -1487099.8, 104954.06, 0.07524984, 10.001352, 9.998828 
2.6294222e+3, 1.4754286e+2, -1358984.3, -1412622.0, -43761.055, 0.011728704, 0.17868216, -1334477.9, 159615.22, 0.038529176, 10.000971, 10.000155 
2.6291147e+3, 1.5753911e+2, -1330168.0, -1451438.5, -100628.164, 0.12512, 0.19568841, -1273318.5, 122817.4, 0.013527696, 10.000806, 9.999357 
2.6288033e+3, 1.6753516e+2, -1028167.8, -1069199.8, -143255.61, -0.004710704, 0.25329405, -903966.56, 394206.97, 0.0025719018, 10.001501, 10.000913 
2.6284906e+3, 1.7753083e+2, -953280.8, -1168979.3, -90960.67, -0.24283297, 0.16723102, -920043.9, 280168.44, 0.00015054179, 10.002031, 9.999359 
2.6281813e+3, 1.8752466e+2, -835505.2, -1153337.5, -75539.45, -0.17327832, 0.15755107, -818465.25, 283807.34, 0.0000001940375, 10.0026245, 9.998463 
2.627873e+3, 1.9751783e+2, -758537.06, -1129438.1, -45280.723, -0.019112023, 0.055830676, -753089.06, 251251.86, 0.0, 10.002641, 9.998016 
2.6275635e+3, 2.075132e+2, -588512.44, -702754.44, 20052.078, -0.04795877, 0.13139838, -585095.06, 321289.78, 0.0, 10.002062, 10.000447 
2.6272535e+3, 2.1750888e+2, -671915.06, -831403.5, 90945.06, -0.16191298, 0.10279265, -630704.2, 177720.3, 0.0, 10.001284, 9.9993305 
2.6269463e+3, 2.2750385e+2, -709767.4, -737305.8, 103891.625, -0.08350171, 0.14030851, -618736.5, 91737.53, 0.0, 10.000234, 9.999748 
2.626639e+3, 2.3749879e+2, -836516.56, -844487.56, 65406.848, 0.030367859, 0.1144811, -774973.94, -162449.17, 0.0, 9.998976, 9.999007 
2.6263273e+3, 2.4749397e+2, -636509.4, -525941.7, -27723.684, 0.00822515, 0.14327428, -519379.72, -4808.168, 0.0, 9.999045, 10.000417 
2.6260144e+3, 2.574888e+2, -513882.03, -493440.2, 51446.727, -0.045465935, 0.03390554, -451208.9, -34588.02, 0.0, 9.999418, 9.999856 
2.6257062e+3, 2.674855e+2, -203419.69, -37072.1, 122384.04, 0.051227774, 0.088250086, 27726.174, 346373.88, 0.0, 9.999847, 10.002063 
2.6253995e+3, 2.774832e+2, -196193.64, -211262.9, 53255.465, 0.1940559, 0.10433272, -149942.44, 70721.23, 0.0, 10.000104, 10.000125 
2.6250935e+3, 2.8747663e+2, -267075.78, -430903.6, 111518.625, 0.26628903, 0.0657979, -210619.58, -87891.93, 0.0, 10.000113, 9.997863 
2.6247877e+3, 2.9746807e+2, -245338.61, -459928.56, 110714.17, 0.309717, -0.14109376, -198458.89, -173645.22, 0.0, 9.999871, 9.9971895 
2.624477e+3, 3.0746385e+2, -7145.3926, -120784.52, -56588.55, 0.2837923, 0.104556166, 16226.856, 16226.856, 0.0, 10.000389, 9.998931 
2.624167e+3, 3.1745714e+2, -13204.14, -63794.875, -88920.0, 0.4287846, 0.023381328, 53948.434, 53948.434, 0.0, 9.999872, 9.999604 
2.6400456e+3, 1.2786125e+2, -1239956.0, -1480282.9, -63633.918, 0.5223764, 0.24505615, -1224146.9, 462828.1, 0.10017185, 10.003482, 9.999945 
2.6397258e+3, 1.3785544e+2, -1523131.4, -1744390.8, -87396.09, -0.26277617, 0.060213506, -1492775.3, 96254.445, 0.06469282, 10.001385, 9.998396 
2.6394168e+3, 1.4784986e+2, -1443640.5, -1586924.9, -3759.2495, -0.18006721, 0.1250164, -1443542.0, 47546.305, 0.032530583, 10.000966, 9.99892 
2.639112e+3, 1.5784389e+2, -1420919.3, -1597776.8, -60255.777, 0.22734083, 0.03777312, -1402341.4, -9188.693, 0.011066901, 10.00065, 9.998409 
2.6388022e+3, 1.6784142e+2, -985259.9, -956323.44, -78218.836, 0.21682474, 0.2213773, -891246.0, 403928.5, 0.0019930317, 10.001435, 10.001688 
2.6384908e+3, 1.7783977e+2, -1016371.5, -1175469.4, -95166.91, 0.038136743, 0.3309046, -971885.06, 225300.02, 0.00010503105, 10.001518, 9.999567 
2.6381806e+3, 1.8783173e+2, -929803.6, -1129461.1, -58369.074, -0.041654628, 0.090069905, -913991.8, 185267.05, 0.00000008640195, 10.001856, 9.998897 
2.63787e+3, 1.9782166e+2, -927962.94, -1168809.5, -47159.88, -0.07017694, -0.39042488, -919057.9, 82295.51, 0.0, 10.001442, 9.998271 
2.637559e+3, 2.0782015e+2, -607926.6, -570132.25, 709.7449, -0.24476096, -0.09689488, -570118.9, 333248.06, 0.0, 10.001349, 10.001693 
2.6372474e+3, 2.1782106e+2, -856905.7, -865542.8, 22121.115, -0.42613527, 0.26409698, -838685.56, -33327.754, 0.0, 9.999826, 9.99981 
2.6369408e+3, 2.2781415e+2, -808529.56, -775505.3, 38081.496, -0.15756401, 0.08965319, -750510.2, -43084.863, 0.0, 9.999582, 9.99976 
2.6366353e+3, 2.3780483e+2, -991913.3, -934360.0, 15987.185, 0.23957226, -0.3914371, -930217.25, -320700.7, 0.0, 9.998054, 9.998828 
2.6363218e+3, 2.4780335e+2, -614280.6, -398882.3, -34038.07, 0.04148451, -0.089512505, -393631.5, 117898.71, 0.0, 9.998797, 10.00137 
2.6360062e+3, 2.578038e+2, -675489.6, -607734.0, 42623.563, -0.3298121, 0.25962913, -587164.9, -173640.45, 0.0, 9.998564, 9.999476 
2.6356995e+3, 2.67797e+2, -457249.47, -411071.75, 112952.83, -0.13849604, 0.117990114, -318872.13, -3284.3247, 0.0, 9.99933, 9.999685 
2.6353955e+3, 2.7778804e+2, -519377.8, -586064.2, 56720.35, 0.23455328, -0.3179841, -486926.13, -269254.47, 0.0, 9.99895, 9.998095 
2.6350898e+3, 2.877843e+2, -286541.78, -287365.1, 95511.06, 0.34462205, -0.08132079, -191441.48, -71731.7, 0.0, 9.9994135, 9.999146 
2.634783e+3, 2.9778165e+2, -379047.97, -471332.8, 103816.68, 0.29957575, 0.15487167, -311581.28, -289842.3, 0.0, 9.998822, 9.9976015 
2.6344734e+3, 3.077719e+2, -118761.19, -234376.44, -37264.043, 0.34650734, -0.14705075, -107791.414, -107791.414, 0.0, 10.000024, 9.998247 
2.6341572e+3, 3.1776682e+2, -124162.32, -230005.69, 116843.46, -0.16478379, -0.035411987, -48814.37, -48814.37, 0.0, 9.999766, 9.998449 
2.6500407e+3, 1.2817067e+2, -1220097.9, -1516781.6, -159341.77, -0.010262832, 0.14314094, -1150735.5, 533209.94, 0.086430125, 10.003904, 9.999404 
2.649726e+3, 1.381688e+2, -1550520.4, -1790319.4, -72431.65, 0.014430811, 0.42095563, -1530340.5, 55627.266, 0.055199515, 10.001286, 9.998148 
2.649415e+3, 1.48162e+2, -1434244.5, -1561317.5, 85967.586, -0.014803105, 0.3535503, -1390882.4, 97151.26, 0.027235242, 10.000904, 9.999149 
2.6491067e+3, 1.5815337e+2, -1395510.6, -1611853.0, 98322.734, -0.0016796626, 0.0072495556, -1357502.5, 32614.203, 0.0089680515, 10.000872, 9.998223 
2.648798e+3, 1.681492e+2, -1095475.5, -1177085.6, 15521.411, 0.06361947, 0.13277411, -1092623.3, 199535.17, 0.0015322798, 10.001473, 10.00011 
2.648489e+3, 1.7814621e+2, -1019783.7, -1213714.9, -75237.336, 0.06643005, 0.26404163, -994017.94, 200170.2, 0.00007382683, 10.001612, 9.999257 
2.6481774e+3, 1.8814054e+2, -861374.7, -893196.06, -51238.117, -0.05377391, 0.15272222, -823633.75, 272603.22, 0.000000036839044, 10.001397, 10.000773 
2.6478657e+3, 1.981339e+2, -912185.44, -1011038.94, 23541.266, -0.23678951, -0.13700536, -906865.5, 91428.58, 0.0, 10.000806, 9.999685 
2.647555e+3, 2.0813058e+2, -780597.8, -754427.56, -13220.534, -0.26063812, -0.020055424, -748911.56, 151414.6, 0.0, 10.000536, 10.000835 
2.647245e+3, 2.1812859e+2, -815587.2, -852109.1, -47737.2, -0.2719118, 0.14130661, -782737.44, 19610.074, 0.0, 10.000032, 9.999827 
2.6469377e+3, 2.2812371e+2, -597926.25, -590511.0, -19365.877, -0.047889605, 0.10369027, -574501.06, 129894.766, 0.0, 10.000568, 10.000601 
2.646631e+3, 2.381175e+2, -431131.47, -586889.5, -1371.5931, 0.2340659, -0.12383415, -431119.38, 175336.73, 0.0, 10.001408, 9.999643 
2.6463178e+3, 2.4811418e+2, -183922.14, -272957.53, -103342.41, 0.04013104, -0.0009502727, -115916.61, 392569.28, 0.0, 10.00198, 10.000766 
2.6460028e+3, 2.58112e+2, -150594.05, -401625.2, -126028.33, -0.305488, 0.16578336, -98240.84, 312263.28, 0.0, 10.002205, 9.99919 
2.6456952e+3, 2.6810506e+2, -267493.84, -436420.72, -67564.77, -0.17016354, 0.063945554, -243795.05, 68775.94, 0.0, 10.001039, 9.998733 
2.64539e+3, 2.7809653e+2, -432195.2, -525803.1, -39325.18, 0.18711154, -0.22884962, -417867.47, -203213.44, 0.0, 9.999324, 9.998368 
2.645085e+3, 2.880933e+2, -179688.8, -89621.51, 61375.848, 0.32805344, -0.05316289, -58530.094, 58153.586, 0.0, 9.999359, 10.000594 
2.6447776e+3, 2.9809183e+2, -138453.28, -191585.66, 74775.17, 0.27865347, 0.19165435, -85665.27, -66968.875, 0.0, 9.999598, 9.999186 
2.644469e+3, 3.0808187e+2, -50253.855, -116266.49, 16208.061, 0.35931346, -0.24107721, -46489.01, -46489.01, 0.0, 9.99998, 9.999132 
2.6441514e+3, 3.1808075e+2, 35345.06, 51533.355, 273718.4, -0.3588683, 0.2011818, 317277.28, 317277.28, 0.0, 9.999746, 10.000449 
2.660037e+3, 1.2848073e+2, -1436535.1, -1696125.0, -262349.5, -0.33424315, 0.06215519, -1273628.9, 407280.13, 0.073999815, 10.002502, 9.998788 
2.6597276e+3, 1.3848232e+2, -1447722.4, -1812024.1, -175843.11, 0.4894508, 0.7251967, -1376694.0, 206209.11, 0.046711504, 10.002287, 9.997541 
2.6594144e+3, 1.4847487e+2, -1180224.8, -1367452.4, 67552.15, 0.24612379, 0.57816684, -1158396.6, 326573.8, 0.022592498, 10.0024805, 9.999721 
2.6591015e+3, 1.584647e+2, -1262623.4, -1602242.9, 45338.656, -0.17072801, 0.042658057, -1256675.0, 130386.28, 0.0071954923, 10.002092, 9.99771 
2.6587933e+3, 1.6845794e+2, -1181546.6, -1469248.3, 36792.633, -0.06812717, 0.07090461, -1176916.0, 112216.81, 0.001170623, 10.001969, 9.997871 
2.6584867e+3, 1.7845261e+2, -1193618.1, -1393820.4, -44499.21, 0.16300882, 0.16033222, -1184172.9, 7020.1855, 0.00005271245, 10.000923, 9.99834 
2.6581743e+3, 1.8845056e+2, -758104.94, -608941.75, -44979.047, -0.038630668, 0.29241636, -596428.4, 496777.5, 0.000000014947995, 10.001127, 10.002849 
2.657861e+3, 1.9844903e+2, -1000772.0, -1003306.75, -17753.266, -0.30040896, 0.32908323, -984240.94, 10969.277, 0.0, 10.000065, 10.000097 
2.657552e+3, 2.084421e+2, -952266.6, -1000962.8, -33127.164, -0.1410675, 0.16452785, -935502.2, -38223.13, 0.0, 10.000229, 9.999201 
2.657244e+3, 2.1843423e+2, -1070830.8, -1108685.4, -48275.824, 0.12747757, -0.12445092, -1037904.44, -238543.95, 0.0, 9.99903, 9.998489 
2.6569352e+3, 2.2843358e+2, -588490.8, -443470.28, 21471.414, 0.15192524, 0.22086295, -440358.06, 261010.67, 0.0, 10.000161, 10.001721 
2.6566267e+3, 2.3843403e+2, -656611.8, -718105.2, 2434.567, 0.13569677, 0.53885674, -656515.56, -53150.688, 0.0, 10.000105, 9.9993305 
2.6563153e+3, 2.4842577e+2, -422916.0, -570307.4, -98278.71, 0.051604867, 0.28262904, -373771.3, 131669.84, 0.0, 10.00123, 9.999039 
2.6560023e+3, 2.584156e+2, -516734.78, -768476.8, -124444.586, -0.09436437, -0.19349372, -465603.06, -58068.184, 0.0, 10.000665, 9.997378 
2.6556915e+3, 2.684115e+2, -396912.75, -478061.66, -117423.12, -0.11925932, 0.040205013, -313251.63, -3674.2947, 0.0, 10.000264, 9.99872 
2.6553828e+3, 2.7840853e+2, -586958.9, -576415.9, -45020.023, -0.031300288, 0.27943784, -536359.75, -324750.13, 0.0, 9.998333, 9.99845 
2.655078e+3, 2.8840336e+2, -127337.086, 139308.9, 84376.66, 0.14541341, 0.12974705, 163765.64, 277416.94, 0.0, 9.999011, 10.002249 
2.6547718e+3, 2.9839838e+2, -210332.81, -92379.58, 100255.586, 0.148027, -0.15092182, -35040.137, -19352.291, 0.0, 9.998695, 10.00026 
2.6544622e+3, 3.0839556e+2, -4241.7563, 122175.445, 25032.74, 0.14179637, -0.035788316, 126951.88, 126951.88, 0.0, 9.9994955, 10.000924 
2.6541483e+3, 3.183883e+2, -92014.27, 129215.3, 179463.63, -0.19427033, -0.419969, 229415.17, 229415.17, 0.0, 9.998434, 10.001567 
2.6700342e+3, 1.287909e+2, -1688660.6, -1761600.9, -297589.9, -0.36451733, 0.17854078, -1425314.4, 252552.95, 0.062782034, 10.000441, 9.999334 
2.6697257e+3, 1.3878682e+2, -1303887.1, -1699688.5, -127280.53, 0.39696112, 0.23870212, -1266490.0, 313420.75, 0.039146993, 10.003102, 9.99794 
2.6694137e+3, 1.4878139e+2, -928600.06, -1224544.4, 63127.207, 0.2163459, 0.26282182, -915697.1, 566264.3, 0.018543638, 10.004187, 9.99988 
2.6691017e+3, 1.5877523e+2, -905762.06, -1378550.6, 37668.957, -0.15430985, 0.12035463, -902779.6, 481238.4, 0.005710664, 10.004304, 9.99819 
2.6687923e+3, 1.687698e+2, -942146.06, -1294351.0, 33345.645, -0.060043875, 0.21925193, -939016.8, 347061.25, 0.0008890518, 10.003275, 9.998465 
2.6684833e+3, 1.7876476e+2, -1080671.6, -1297386.0, 72584.93, 0.10225371, 0.30151543, -1058607.0, 129529.37, 0.000037964888, 10.001425, 9.99877 
2.6681712e+3, 1.8876135e+2, -775315.06, -679269.7, 25449.674, -0.024655866, 0.32627946, -672942.9, 417220.4, 0.0000000057994387, 10.001222, 10.002336 
2.6678583e+3, 1.987583e+2, -863350.1, -932929.06, -26208.113, -0.22642787, 0.26643962, -854583.0, 137600.89, 0.0, 10.000878, 10.000205 
2.6675487e+3, 2.0875238e+2, -786280.75, -886787.94, -4293.483, -0.09942724, 0.1809331, -786097.7, 108144.22, 0.0, 10.001187, 9.999554 
2.66724e+3, 2.1874557e+2, -675346.5, -877669.7, 56535.313, 0.07660943, -0.00009545232, -660620.6, 135690.69, 0.0, 10.001428, 9.99896 
2.6669306e+3, 2.2874339e+2, -475036.44, -473975.9, 74670.13, 0.025683695, 0.2311424, -399834.16, 298500.9, 0.0, 10.001208, 10.001063 
2.6666212e+3, 2.3874229e+2, -516898.72, -644988.8, -21565.357, -0.07288212, 0.48468903, -513365.4, 86982.07, 0.0, 10.000895, 9.999492 
2.6663107e+3, 2.4873522e+2, -444684.22, -526666.44, -65237.477, -0.023835097, 0.3024895, -408628.6, 93783.56, 0.0, 10.00076, 9.999592 
2.6659998e+3, 2.5872642e+2, -476463.13, -673669.3, 11786.885, 0.010637372, -0.0634853, -475761.13, -71268.56, 0.0, 10.000482, 9.998138 
2.665689e+3, 2.687216e+2, -339470.34, -487892.44, 29851.977, 0.009455016, 0.10562907, -333691.28, -27150.723, 0.0, 10.000663, 9.998526 
2.665379e+3, 2.7871788e+2, -201525.73, -324497.66, 74386.76, 0.05769354, 0.30903757, -166503.08, 42076.223, 0.0, 10.000555, 9.999137 
2.6650724e+3, 2.8871194e+2, -150580.64, 164767.9, 116121.445, 0.14489622, 0.04392246, 202913.36, 313539.94, 0.0, 9.998623, 10.00267 
2.6647648e+3, 2.9870602e+2, -489931.2, -155151.69, 41444.715, 0.12316214, -0.3411625, -150097.27, -137426.9, 0.0, 9.996311, 10.001036 
2.6644552e+3, 3.0870697e+2, -223373.84, 38336.76, -89164.836, 0.01629902, 0.10756822, 65827.53, 65827.53, 0.0, 9.997823, 10.001205 
2.6641464e+3, 3.1869516e+2, -5940.8555, 233616.11, -231441.78, 0.16816498, -0.7387433, 374437.28, 374437.28, 0.0, 9.998559, 10.002286 
2.6800326e+3, 1.2910093e+2, -1508691.1, -1606254.3, -133167.22, -0.16450284, 0.26930216, -1415651.9, 259173.95, 0.05267765, 10.001355, 9.999969 
2.6797235e+3, 1.3909133e+2, -1371618.0, -1681501.4, -55554.832, 0.35597435, -0.28199503, -1361959.4, 214957.55, 0.03242507, 10.002431, 9.998346 
2.679413e+3, 1.4908795e+2, -1125455.4, -1333262.4, 109413.72, 0.20503476, -0.07274599, -1078470.5, 400481.1, 0.015032841, 10.0028105, 9.999756 
2.6791024e+3, 1.5908574e+2, -1174101.8, -1472905.4, 17408.49, 0.0018825174, 0.1709258, -1173090.9, 207885.34, 0.0044764117, 10.002321, 9.998483 
2.6787913e+3, 1.6908254e+2, -980682.75, -1153438.3, -16788.367, 0.024880124, 0.38619596, -979066.4, 303948.47, 0.00066900725, 10.002411, 9.999827 
2.6784799e+3, 1.7907885e+2, -1101082.3, -1289314.5, 25439.209, 0.10112851, 0.49086502, -1097704.8, 87353.13, 0.000027210404, 10.001286, 9.998892 
2.678168e+3, 1.8907262e+2, -828900.94, -860880.5, 26317.363, 0.03929651, 0.32254463, -814096.6, 273018.03, 0.000000001728097, 10.0016, 10.000887 
2.6778564e+3, 1.9906639e+2, -966361.2, -1078522.6, -35013.3, -0.021342212, 0.075992726, -956328.5, 32840.414, 0.0, 10.000691, 9.999275 
2.6775455e+3, 2.0906305e+2, -724764.56, -756783.1, -4126.51, -0.060300384, 0.20153572, -724241.25, 166958.34, 0.0, 10.001224, 10.000398 
2.677235e+3, 2.1905981e+2, -900011.6, -1045699.44, 26137.389, -0.08364589, 0.30808106, -895464.3, -102233.55, 0.0, 10.000222, 9.998387 
2.6769245e+3, 2.29053e+2, -677756.75, -758774.9, 45364.477, -0.20131704, 0.18520264, -657447.06, 37852.89, 0.0, 10.00065, 9.999353 
2.676615e+3, 2.3904625e+2, -816510.6, -902799.3, -36879.742, -0.29241982, 0.009927148, -802896.25, -205527.73, 0.0, 9.99944, 9.998407 
2.6763055e+3, 2.4904427e+2, -432293.38, -314700.78, -74917.05, -0.15186085, 0.23355454, -278262.8, 221121.4, 0.0, 10.000122, 10.001247 
2.6759955e+3, 2.590424e+2, -651126.9, -725254.75, -2192.8574, 0.02428414, 0.39431283, -651062.06, -249665.08, 0.0, 9.999286, 9.998321 
2.6756865e+3, 2.6903418e+2, -453964.75, -589883.44, 20799.904, 0.18135095, 0.23143946, -450852.97, -147379.25, 0.0, 10.000161, 9.998024 
2.6753777e+3, 2.790249e+2, -468456.47, -581791.6, 28914.082, 0.3388091, -0.076931395, -461506.13, -255945.67, 0.0, 9.999365, 9.99794 
2.6750675e+3, 2.8901905e+2, -319692.06, -36489.914, -1831.9113, 0.25759476, -0.24018508, -36478.063, 71132.53, 0.0, 9.998045, 10.001529 
2.674756e+3, 2.990146e+2, -789109.56, -494512.16, 489.1646, 0.060974456, -0.37520605, -494511.34, -484864.5, 0.0, 9.995212, 9.999222 
2.6744485e+3, 3.090148e+2, -417004.47, -251098.44, -30233.828, 0.047929544, 0.16532937, -245760.53, -245760.53, 0.0, 9.99745, 9.999345 
2.6741415e+3, 3.1900552e+2, -309938.22, -50676.688, -348156.34, 0.20902728, -0.2730006, 191198.92, 191198.92, 0.0, 9.997283, 10.000899 
2.690031e+3, 1.2941094e+2, -1488394.5, -1551852.5, -134473.23, -0.10273727, 0.16826695, -1381957.8, 289827.84, 0.043619107, 10.001413, 10.000218 
2.6897204e+3, 1.3940576e+2, -1572975.3, -1785810.0, 5168.9253, 0.2676686, 0.022349937, -1572849.9, 984.95483, 0.026486209, 10.00103, 9.998284 
2.6894093e+3, 1.4940034e+2, -1473511.8, -1593288.5, 123838.65, 0.12899728, 0.08237298, -1395840.6, 80050.96, 0.012009438, 10.000745, 9.998977 
2.689099e+3, 1.5939528e+2, -1461352.1, -1573939.6, 42850.656, -0.04920625, 0.10546471, -1446898.6, -68953.15, 0.003455713, 10.0001, 9.998878 
2.6887882e+3, 1.693925e+2, -976864.4, -981902.7, 44553.305, -0.03737083, 0.22981308, -934759.06, 345214.9, 0.00049606664, 10.001614, 10.001422 
2.6884767e+3, 1.7938988e+2, -833167.75, -1121636.6, 94605.07, -0.06329142, 0.32060894, -804909.6, 377091.22, 0.00001910138, 10.002853, 9.999314 
2.688165e+3, 1.8938397e+2, -628520.6, -924340.8, 57868.434, -0.11196834, 0.27056274, -617603.25, 466456.25, 0.0000000002885943, 10.0035715, 9.999534 
2.6878536e+3, 1.9937783e+2, -591385.25, -983358.44, -8286.486, -0.1679084, 0.17347616, -591210.1, 394909.3, 0.0, 10.00352, 9.998584 
2.6875427e+3, 2.0937337e+2, -510697.88, -710343.25, -42552.176, -0.1102586, 0.24049324, -502006.72, 386154.72, 0.0, 10.002842, 9.999975 
2.687232e+3, 2.1936923e+2, -652404.75, -915360.25, -50687.867, -0.0745411, 0.30068767, -642972.4, 147227.95, 0.0, 10.00176, 9.998559 
2.6869214e+3, 2.2936249e+2, -647411.25, -760425.06, -4673.7393, -0.16184406, 0.18871349, -647218.3, 45049.887, 0.0, 10.000821, 9.999326 
2.6866108e+3, 2.3935579e+2, -698162.4, -788210.4, -6526.344, -0.2599702, 0.037330583, -697691.9, -103356.195, 0.0, 9.999871, 9.999029 
2.6863012e+3, 2.4935316e+2, -340212.66, -318453.47, -78760.18, -0.1752582, 0.2028615, -249825.0, 246532.64, 0.0, 10.000805, 10.00099 
2.6859915e+3, 2.5935096e+2, -210980.19, -435525.44, -127589.484, -0.040616736, 0.36077, -153299.23, 245074.9, 0.0, 10.001782, 9.999164 
2.6856825e+3, 2.6934358e+2, -294856.97, -398964.72, -88903.56, 0.20058443, 0.18111087, -243889.25, 56550.305, 0.0, 10.000639, 9.999172 
2.6853737e+3, 2.7933514e+2, -469701.9, -523107.7, 9100.705, 0.44859746, -0.119969465, -468193.7, -265677.53, 0.0, 9.998964, 9.998561 
2.685063e+3, 2.8932896e+2, -177971.06, -110632.95, -2742.1396, 0.35642955, -0.24991098, -110521.47, -5948.718, 0.0, 9.999484, 10.000364 
2.6847506e+3, 2.9932418e+2, -161537.98, -317889.1, 15757.945, 0.1629846, -0.28037626, -159965.61, -153347.9, 0.0, 9.999924, 9.998168 
2.684443e+3, 3.093228e+2, -163318.69, -306126.84, 37102.125, 0.11750606, 0.24271321, -154254.7, -154254.7, 0.0, 9.999833, 9.997855 
2.684135e+3, 3.193164e+2, 164831.48, 281188.47, -349347.22, 0.1644003, 0.20556296, 577168.44, 577168.44, 0.0, 9.999931, 10.001916 
2.70003e+3, 1.2972198e+2, -1492313.0, -1567792.4, -144770.84, 0.05642296, 0.07826859, -1380443.5, 288291.4, 0.03555001, 10.001367, 10.000156 
2.699717e+3, 1.3972141e+2, -1457194.5, -1791296.5, -62542.203, 0.27787945, 0.42296693, -1445870.8, 124871.8, 0.021269772, 10.002057, 9.997801 
2.6994058e+3, 1.4971355e+2, -1345706.1, -1606662.6, 79094.305, 0.13241506, 0.29144585, -1323604.9, 149219.81, 0.009415533, 10.001971, 9.998297 
2.6990953e+3, 1.5970501e+2, -1325314.1, -1497059.1, 40602.883, 0.0013098042, 0.025969306, -1316198.9, 58713.86, 0.0026134893, 10.001028, 9.998949 
2.6987845e+3, 1.6970211e+2, -838002.9, -757337.5, 38373.324, -0.09219999, 0.022708114, -741999.44, 534936.6, 0.0003600524, 10.001939, 10.00276 
2.6984736e+3, 1.7970003e+2, -983308.0, -1206047.8, 30420.69, -0.17643756, 0.057889357, -979228.06, 199723.36, 0.000012952271, 10.0019655, 9.999132 
2.6981622e+3, 1.8969561e+2, -804121.56, -1136463.8, 22735.852, -0.26777554, 0.2310409, -802573.44, 278427.25, 0.000000000007316074, 10.003022, 9.998294 
2.6978508e+3, 1.9969055e+2, -852792.6, -1279971.6, -24140.24, -0.314127, 0.36615533, -851432.75, 131624.34, 0.0, 10.002524, 9.997038 
2.6975402e+3, 2.0968346e+2, -624247.25, -875346.0, -71786.39, -0.13703354, 0.27078882, -605173.2, 279952.44, 0.0, 10.00259, 9.998943 
2.6972303e+3, 2.196766e+2, -841666.06, -1088784.5, -63590.457, 0.064447485, 0.15089492, -826262.6, -39071.805, 0.0, 10.000949, 9.997728 
2.696919e+3, 2.296726e+2, -639656.7, -667328.44, -32627.322, 0.029599018, 0.26460457, -618052.9, 71178.22, 0.0, 10.000671, 9.9999275 
2.696608e+3, 2.3966874e+2, -910750.8, -994376.8, -6923.4077, -0.04806467, 0.35447016, -910181.5, -318911.8, 0.0, 9.998983, 9.998011 
2.6962975e+3, 2.4966154e+2, -516946.94, -569148.0, -38526.31, -0.13131268, 0.18417163, -496512.38, -3176.4324, 0.0, 10.000398, 9.999413 
2.6959872e+3, 2.5965467e+2, -490059.44, -608009.9, -132571.52, -0.1566847, -0.0145257935, -403937.16, -8539.304, 0.0, 10.0001955, 9.998701 
2.6956773e+3, 2.6965168e+2, -245726.6, -113242.29, -155545.4, 0.08878098, 0.074690595, -10421.141, 286999.5, 0.0, 9.999984, 10.001373 
2.6953673e+3, 2.7964875e+2, -610811.75, -550927.75, -1703.5118, 0.35196903, 0.12528533, -550879.3, -351435.53, 0.0, 9.997985, 9.998811 
2.695058e+3, 2.8964224e+2, -334324.88, -297792.28, 34319.684, 0.42513362, 0.030844953, -277180.56, -175672.77, 0.0, 9.99907, 9.999212 
2.694748e+3, 2.9963562e+2, -438953.1, -653832.3, 47804.586, 0.34183985, -0.05083538, -428797.84, -425222.28, 0.0, 9.999034, 9.996274 
2.6944375e+3, 3.096315e+2, -318590.94, -533215.8, 36392.4, -0.0048650587, 0.33409786, -312588.03, -312588.03, 0.0, 9.999532, 9.996407 
2.694129e+3, 3.196254e+2, 298514.16, 713037.7, -161706.7, -0.053169336, 0.34685296, 768657.06, 768657.06, 0.0, 9.999463, 10.005093 
2.7100277e+3, 1.3003165e+2, -1638237.3, -1705898.8, -158642.25, 0.08096017, -0.0019714977, -1509858.6, 155836.7, 0.028414996, 10.00065, 9.999553 
2.7097145e+3, 1.4002882e+2, -1311538.8, -1733507.4, -41555.05, 0.10357336, 0.16994068, -1307485.4, 260242.73, 0.016713178, 10.003121, 9.997691 
2.7094036e+3, 1.5002376e+2, -1058937.0, -1380667.0, 72118.02, 0.032580458, 0.2556234, -1043510.8, 426274.53, 0.0071980846, 10.003577, 9.999071 
2.7090934e+3, 1.6001798e+2, -1052497.1, -1394490.0, 61609.793, -0.049652994, 0.22037995, -1041736.75, 330111.75, 0.0019202423, 10.0029955, 9.998715 
2.708783e+3, 1.7001316e+2, -842127.56, -950719.06, -15055.936, -0.08505138, 0.16102834, -840078.75, 433815.0, 0.00025324232, 10.002728, 10.001071 
2.708472e+3, 1.80009e+2, -971068.94, -1173630.9, -96823.2, -0.1692348, 0.12223812, -932233.6, 243697.7, 0.000008369746, 10.001878, 9.999406 
2.7081603e+3, 1.9000517e+2, -798619.4, -954289.3, -28671.979, -0.24499474, 0.21877714, -793506.4, 284462.66, 0.0, 10.002271, 9.999921 
2.707849e+3, 2.0000114e+2, -753178.5, -1090675.9, 23056.322, -0.32191122, 0.31923482, -751610.7, 228398.98, 0.0, 10.00251, 9.998371 
2.7075383e+3, 2.0999403e+2, -467051.44, -792925.8, 24054.71, -0.19667068, 0.18962179, -465285.38, 416792.13, 0.0, 10.003502, 9.999151 
2.7072275e+3, 2.1998711e+2, -361924.66, -813712.7, 47224.395, -0.076868944, 0.064574845, -357041.16, 427102.5, 0.0, 10.003937, 9.99821 
2.7069163e+3, 2.2998334e+2, -304023.44, -587238.2, 14680.442, -0.04740692, 0.26080763, -303264.5, 382917.9, 0.0, 10.003247, 9.999297 
2.706605e+3, 2.3997945e+2, -423255.8, -766085.56, -4845.587, -0.045457806, 0.43099245, -423187.34, 165034.7, 0.0, 10.00224, 9.998018 
2.706295e+3, 2.4997078e+2, -497545.7, -613051.3, 7683.425, -0.007390048, 0.15720363, -497036.8, -6733.654, 0.0, 10.000702, 9.998991 
2.705985e+3, 2.599624e+2, -613778.44, -649907.9, -45892.11, 0.029501468, -0.124511726, -582523.56, -190142.73, 0.0, 9.99919, 9.99889 
2.705673e+3, 2.6995993e+2, -229896.94, -156452.73, -195409.4, 0.11862982, 0.04286327, 5655.1245, 300058.53, 0.0, 10.000218, 10.000994 
2.705362e+3, 2.7995798e+2, -77973.64, -258266.72, -189470.44, 0.26440564, 0.22046117, 41702.24, 238123.7, 0.0, 10.001371, 9.999195 
2.7050546e+3, 2.8995228e+2, 126216.234, -76401.77, -97054.39, 0.45408574, 0.1871215, 165203.6, 263682.47, 0.0, 10.002183, 9.999275 
2.7047452e+3, 2.9994607e+2, 50473.902, -357702.34, -34232.613, 0.44954258, 0.14799984, 53324.984, 53868.125, 0.0, 10.00201, 9.996907 
2.7044302e+3, 3.09941e+2, -278868.94, -469455.84, 48820.613, -0.23038788, 0.40225577, -267090.94, -267090.94, 0.0, 9.999516, 9.996911 
2.7041253e+3, 3.1993502e+2, 75538.586, 696500.3, 67870.29, 0.15847602, 0.40658993, 703831.9, 703831.9, 0.0, 9.997417, 10.005994 
2.7200258e+3, 1.3034151e+2, -1301213.6, -1628091.0, 43841.26, 0.17428167, -0.13545111, -1295435.8, 367218.53, 0.022191226, 10.003365, 9.998794 
2.7197123e+3, 1.4033592e+2, -1238314.1, -1722102.5, 38115.168, 0.033132784, -0.15438978, -1235329.6, 329387.5, 0.01278431, 10.0037, 9.997514 
2.719402e+3, 1.5033421e+2, -1021188.9, -1269880.3, 88426.61, -0.003691003, 0.20126538, -992953.06, 473790.4, 0.00532732, 10.003451, 9.999909 
2.7190927e+3, 1.6033183e+2, -1210244.4, -1559402.0, 50252.363, 0.040254653, 0.4739155, -1203155.8, 165619.75, 0.0013580795, 10.002375, 9.997878 
2.7187818e+3, 1.7032495e+2, -1058430.9, -1304162.3, 2095.6223, 0.02865726, 0.38295448, -1058413.0, 212433.22, 0.00016970174, 10.002396, 9.998779 
2.7184707e+3, 1.8031827e+2, -1080345.6, -1257932.3, -33326.766, -0.004104968, 0.27770674, -1074297.4, 98614.91, 0.0000049540654, 10.001323, 9.999099 
2.7181593e+3, 1.9031449e+2, -692002.4, -653433.3, 1463.6449, -0.12290958, 0.20048697, -653377.9, 421563.28, 0.0, 10.001954, 10.002104 
2.717848e+3, 2.0031089e+2, -874134.3, -1040254.94, 17197.549, -0.1910848, 0.15257736, -872372.6, 104595.57, 0.0, 10.001338, 9.999236 
2.7175367e+3, 2.1030538e+2, -541716.75, -728394.94, 16306.741, -0.22220331, 0.08661182, -540303.0, 338716.3, 0.0, 10.0027485, 9.999862 
2.717225e+3, 2.202997e+2, -648662.1, -1050310.6, 9111.104, -0.2279476, 0.050864153, -648455.5, 132617.7, 0.0, 10.002514, 9.99726 
2.7169132e+3, 2.302945e+2, -486171.47, -826439.75, -23465.414, -0.18830337, 0.2124153, -484560.9, 198566.36, 0.0, 10.002728, 9.997871 
2.7166015e+3, 2.4028918e+2, -717147.0, -1023066.2, -33492.176, -0.101581566, 0.3678011, -713523.2, -128341.31, 0.0, 10.000879, 9.996872 
2.7162927e+3, 2.502811e+2, -563565.56, -618673.9, -42078.773, 0.18089893, 0.13962293, -540822.06, -53563.57, 0.0, 10.000243, 9.999117 
2.715983e+3, 2.602732e+2, -885354.25, -989534.2, -45547.34, 0.4143854, -0.065295, -868249.4, -478915.63, 0.0, 9.998322, 9.996993 
2.71567e+3, 2.7026808e+2, -464945.7, -545228.2, -135671.53, 0.24505039, 0.06378763, -363601.66, -72211.93, 0.0, 9.999908, 9.998444 
2.7153575e+3, 2.802636e+2, -339648.53, -527766.6, -145877.8, 0.11882845, 0.20801218, -260135.0, -66694.89, 0.0, 10.000297, 9.997863 
2.7150512e+3, 2.9025924e+2, 113417.484, 18051.49, -85880.65, 0.34130046, 0.24685861, 163964.6, 259448.36, 0.0, 10.0017185, 10.0001135 
2.7147418e+3, 3.0025518e+2, -5149.9766, -228786.33, -99343.11, 0.2874998, 0.31599313, 32605.77, 32605.77, 0.0, 10.001075, 9.998217 
2.7144217e+3, 3.1025112e+2, -178540.53, -99368.42, -79390.79, -0.5726171, 0.40053383, -50241.727, -50241.727, 0.0, 9.998923, 9.999662 
2.7141216e+3, 3.2024178e+2, -446308.28, -141791.03, 224816.98, 0.42159986, -0.032947175, -22525.5, -22525.5, 0.0, 9.996538, 10.0005865 
2.7300236e+3, 1.3065664e+2, -1159382.6, -1747786.5, 22861.898, -0.17198683, -0.029537123, -1158495.6, 501071.6, 0.016854262, 10.005247, 9.997003 
2.7297089e+3, 1.4064942e+2, -1252746.3, -1823496.1, 61163.477, -0.33354795, -0.07101227, -1246265.4, 315382.72, 0.009467284, 10.004014, 9.996656 
2.7294e+3, 1.506464e+2, -1095774.4, -1340827.5, 96495.555, -0.088660255, 0.20355292, -1062338.9, 401347.28, 0.0037924994, 10.003117, 9.999563 
2.729092e+3, 1.6064325e+2, -1264322.4, -1557895.0, 61419.543, 0.13472065, 0.42938775, -1251990.6, 113733.84, 0.0009170214, 10.001877, 9.998107 
2.7287793e+3, 1.7063752e+2, -1054199.5, -1261836.8, 105132.83, 0.004113541, 0.42951235, -1010264.25, 257518.98, 0.0001065257, 10.002228, 9.999154 
2.728467e+3, 1.8063165e+2, -946472.3, -1187313.6, 119398.555, -0.16617607, 0.3975828, -897313.6, 272527.13, 0.0000025959862, 10.002146, 9.999197 
2.7281564e+3, 1.9062564e+2, -751721.06, -785074.4, 68359.1, -0.1495477, 0.18287447, -698033.8, 373856.88, 0.0, 10.001864, 10.001324 
2.727846e+3, 2.006201e+2, -872372.1, -1033749.9, 6753.1777, -0.13723533, 0.016106296, -872090.0, 101846.36, 0.0, 10.001238, 9.999336 
2.7275357e+3, 2.1061549e+2, -565629.6, -763041.1, -4421.435, -0.15291278, 0.052785456, -565530.6, 310450.2, 0.0, 10.002619, 9.999715 
2.7272245e+3, 2.2061084e+2, -380110.88, -817823.6, -77231.53, -0.1760571, 0.118134, -366883.6, 411142.4, 0.0, 10.003801, 9.99824 
2.7269125e+3, 2.306048e+2, -360734.8, -655051.2, -57894.793, -0.07338939, 0.09475265, -349755.9, 330327.4, 0.0, 10.00302, 9.998928 
2.7266005e+3, 2.4059884e+2, -490485.53, -839198.94, 25051.035, 0.052820485, 0.10968976, -488695.1, 93445.516, 0.0, 10.001996, 9.997608 
2.72629e+3, 2.5059223e+2, -293613.4, -564125.4, 12981.937, 0.22306208, 0.08502663, -292991.84, 191214.77, 0.0, 10.0022955, 9.998574 
2.725979e+3, 2.6058555e+2, -281435.8, -721712.94, 3886.3867, 0.3658036, 0.07062965, -281401.5, 104873.15, 0.0, 10.002437, 9.996866 
2.725666e+3, 2.705788e+2, -207284.75, -545247.44, 13098.075, 0.20975998, 0.13457677, -206777.88, 81572.164, 0.0, 10.002122, 9.997424 
2.7253538e+3, 2.8057262e+2, -173960.56, -415821.1, 61503.848, 0.0971999, 0.2178059, -159218.97, 31199.94, 0.0, 10.001143, 9.998253 
2.7250454e+3, 2.9056934e+2, -283650.03, -114541.766, 84565.11, 0.22833401, 0.33467802, -79510.54, 12940.6045, 0.0, 9.998592, 10.000759 
2.724735e+3, 3.0056635e+2, -539980.4, -329383.1, 52565.305, 0.1706149, 0.45323172, -316991.84, -316991.84, 0.0, 9.996608, 9.999689 
2.7244172e+3, 3.1056046e+2, -29685.25, 94970.01, -33637.266, -0.43123946, 0.24521829, 103467.51, 103467.51, 0.0, 9.9992485, 10.000935 
2.7241173e+3, 3.2055196e+2, -70572.54, -279416.06, 254646.67, 0.57824737, -0.084006555, 100230.766, 100230.766, 0.0, 10.00022, 9.997963 
2.7400228e+3, 1.3097237e+2, -1562136.5, -2071896.5, -91014.164, -0.29693997, 0.17288597, -1546373.9, 110104.445, 0.012358515, 10.002949, 9.995866 
2.7397063e+3, 1.4096367e+2, -1253306.9, -1911847.3, -48879.887, -0.54362947, 0.09130028, -1249698.6, 308874.56, 0.0067449147, 10.004415, 9.995808 
2.7393982e+3, 1.5095869e+2, -1096382.4, -1408846.3, -16405.021, -0.11590288, 0.2097823, -1095523.4, 365104.63, 0.0025850076, 10.003381, 9.998941 
2.739091e+3, 1.6095425e+2, -1272515.1, -1533535.3, -8165.663, 0.30825946, 0.33500397, -1272259.9, 90416.54, 0.0005889778, 10.001706, 9.998343 
2.7387768e+3, 1.709502e+2, -939367.56, -1114042.0, 54498.844, -0.0022360194, 0.4061674, -923758.56, 340957.56, 0.00006228534, 10.002593, 10.000003 
2.7384633e+3, 1.8094562e+2, -988563.6, -1302484.9, 55029.543, -0.28051332, 0.4691517, -979196.6, 187563.03, 0.0000011486238, 10.002337, 9.998297 
2.7381536e+3, 1.9093752e+2, -836336.8, -992388.2, 16053.278, -0.14286736, 0.16068165, -834702.5, 234129.75, 0.0, 10.002112, 9.999709 
2.737844e+3, 2.0093001e+2, -1035139.9, -1259539.3, 36065.402, 0.012007318, -0.05473568, -1029485.94, -58585.81, 0.0, 10.000864, 9.997945 
2.737535e+3, 2.1092564e+2, -711031.3, -912882.56, 58687.04, 0.001575302, 0.070033684, -695208.75, 177736.7, 0.0, 10.001971, 9.998989 
2.7372256e+3, 2.2092128e+2, -661842.1, -897304.06, -68821.8, 0.026064457, 0.20264156, -643202.2, 131786.95, 0.0, 10.001711, 9.998686 
2.736913e+3, 2.3091474e+2, -380625.06, -413167.47, -117992.2, 0.19414675, -0.0781931, -277787.44, 399256.7, 0.0, 10.00191, 10.00107 
2.7366003e+3, 2.4090865e+2, -720746.94, -995471.56, -7521.3193, 0.3204916, -0.2203943, -720541.2, -141443.86, 0.0, 10.000696, 9.997153 
2.7362865e+3, 2.509041e+2, -451725.72, -753718.94, 12686.971, 0.15168682, 0.020611871, -451193.66, 29955.379, 0.0, 10.0017805, 9.99747 
2.735973e+3, 2.6089934e+2, -543127.1, -955431.2, -647.3714, -0.011145069, 0.29570866, -543126.06, -159921.86, 0.0, 10.001244, 9.995797 
2.7356616e+3, 2.7089155e+2, -304905.63, -585408.75, -442.66812, 0.032093853, 0.24421884, -304904.9, -19616.459, 0.0, 10.001484, 9.997409 
2.7353504e+3, 2.808846e+2, -377463.53, -538377.25, -2081.4517, 0.08588759, 0.24767204, -377436.63, -190073.58, 0.0, 10.000009, 9.997916 
2.735038e+3, 2.908825e+2, -332439.22, -86735.586, -16602.254, 0.09627298, 0.43065223, -85618.84, 3762.8013, 0.0, 9.998178, 10.00109 
2.7347258e+3, 3.0087948e+2, -748661.2, -512641.16, 77706.34, 0.036909983, 0.5477956, -489354.88, -489354.88, 0.0, 9.99568, 9.998855 
2.734418e+3, 3.1086874e+2, -143411.02, -28252.906, 91863.164, 0.15432066, -0.10924896, 22584.771, 22584.771, 0.0, 9.998915, 10.000164 
2.7341086e+3, 3.2086685e+2, -91240.1, -135342.97, 183524.05, 0.04003942, 0.2254839, 71552.555, 71552.555, 0.0, 9.999619, 9.999172 
2.750022e+3, 1.3128333e+2, -1682833.1, -1730346.1, -100417.85, -0.12684159, 0.49899843, -1603399.9, 50051.43, 0.008685325, 10.0003805, 9.999476 
2.749709e+3, 1.4127524e+2, -1123801.3, -1713416.5, -58825.863, -0.36934552, 0.18129356, -1117989.5, 437536.78, 0.004592608, 10.004692, 9.997041 
2.749397e+3, 1.5126958e+2, -1090470.8, -1469962.6, -101820.84, -0.17386834, 0.24236228, -1064877.5, 392704.53, 0.0016782222, 10.003649, 9.9984255 
2.7490863e+3, 1.6126402e+2, -1207124.6, -1482742.6, -38288.027, 0.032374267, 0.29530466, -1201904.6, 157732.08, 0.0003582281, 10.002058, 9.998518 
2.7487752e+3, 1.712584e+2, -814703.44, -1019962.94, 43678.457, -0.049953908, 0.17988873, -805795.44, 455893.75, 0.000033741435, 10.003298, 10.000311 
2.748464e+3, 1.8125343e+2, -721953.0, -1125127.1, -20492.064, -0.17543611, 0.1739543, -720914.1, 442822.0, 0.00000040337267, 10.003921, 9.998741 
2.748153e+3, 1.9124918e+2, -609587.3, -898376.0, -35546.348, -0.08511971, 0.24754359, -605276.3, 460503.38, 0.0, 10.003686, 9.999608 
2.747842e+3, 2.0124456e+2, -702660.6, -1066166.0, 11286.921, 0.0048532183, 0.33095837, -702310.5, 265515.66, 0.0, 10.002888, 9.9983225 
2.7475324e+3, 2.1123835e+2, -774646.0, -932191.06, 81676.33, 0.04231362, 0.26048502, -739945.5, 129941.96, 0.0, 10.00134, 9.999236 
2.7472225e+3, 2.2123256e+2, -844999.44, -905227.56, -9959.201, 0.059164513, 0.22316259, -843395.3, -71451.81, 0.0, 9.999976, 9.999497 
2.7469087e+3, 2.3122744e+2, -493455.0, -460839.44, -106860.15, 0.081194535, 0.0774396, -369049.88, 304937.22, 0.0, 10.000952, 10.0012865 
2.7465954e+3, 2.4122243e+2, -471178.2, -764758.56, -61501.418, 0.10632772, 0.012802754, -458815.03, 117216.25, 0.0, 10.001827, 9.998201 
2.7462837e+3, 2.5121722e+2, -361747.1, -667212.9, 3768.8008, 0.118592665, 0.15092653, -361700.6, 116386.46, 0.0, 10.002166, 9.997906 
2.745971e+3, 2.612119e+2, -347169.13, -733135.6, 17366.676, 0.07586201, 0.3336721, -346389.28, 33755.73, 0.0, 10.001913, 9.9970255 
2.7456576e+3, 2.7120474e+2, -462233.28, -594302.1, 21666.703, -0.007879341, 0.2858777, -458769.56, -176549.02, 0.0, 9.999996, 9.998119 
2.7453443e+3, 2.8119817e+2, -557740.5, -590869.4, 58084.023, -0.024452014, 0.2911739, -513905.16, -329616.3, 0.0, 9.998517, 9.998296 
2.7450326e+3, 2.9119474e+2, -51800.566, -48317.254, -35016.637, 0.08015026, 0.4330462, -14998.985, 71322.99, 0.0, 10.000474, 10.000296 
2.744721e+3, 3.011903e+2, 63916.777, -152103.7, 6449.2095, 0.13606398, 0.4843932, 64109.145, 64109.145, 0.0, 10.001272, 9.998672 
2.744415e+3, 3.1117892e+2, -146797.25, -95187.664, 33785.934, 0.4112063, -0.17241423, -78479.2, -78479.2, 0.0, 9.999051, 9.999704 
2.7440998e+3, 3.2118186e+2, -416339.6, -37344.383, 29775.037, -0.21625145, 0.6274216, -35019.426, -35019.426, 0.0, 9.996119, 10.001556 
2.7600214e+3, 1.3159375e+2, -1241349.0, -1131473.8, 232941.36, 0.1695853, 0.7246083, -947079.4, 703346.44, 0.005822727, 10.001783, 10.002907 
2.7597123e+3, 1.4158686e+2, -1105962.5, -1607065.1, -81853.086, -0.040244367, 0.28343603, -1092931.0, 459546.72, 0.002969682, 10.004428, 9.997896 
2.759396e+3, 1.5158036e+2, -999641.06, -1451725.9, -172607.88, -0.1711351, 0.2590229, -941274.2, 513261.88, 0.0010279784, 10.004456, 9.998134 
2.7590817e+3, 1.6157368e+2, -1060315.1, -1453842.8, -12469.892, -0.17228675, 0.23952217, -1059920.4, 296676.7, 0.0002033788, 10.00325, 9.998163 
2.758774e+3, 1.7156602e+2, -862221.44, -1052805.9, 67176.46, -0.03350786, -0.08011981, -840923.44, 417744.13, 0.000016580547, 10.003013, 10.000226 
2.7584657e+3, 1.8156047e+2, -987296.75, -1251793.1, -39587.594, 0.07393598, -0.14302209, -981498.7, 179222.19, 0.00000009587778, 10.002175, 9.998703 
2.7581528e+3, 1.9156109e+2, -812331.2, -962427.94, -89751.766, 0.0439371, 0.38262552, -770385.4, 292340.9, 0.0, 10.002209, 9.999871 
2.7578405e+3, 2.0156015e+2, -942718.9, -1162889.4, -31330.105, 0.038478512, 0.8196717, -938347.44, 26396.63, 0.0, 10.001239, 9.998446 
2.7575296e+3, 2.1155176e+2, -801508.7, -852913.4, 15497.955, 0.10033627, 0.44524327, -797197.75, 69624.91, 0.0, 10.000868, 9.999955 
2.757218e+3, 2.2154449e+2, -998776.3, -1036695.1, 6808.963, 0.10113795, 0.2277375, -997590.7, -228699.75, 0.0, 9.999349, 9.998852 
2.756902e+3, 2.3154196e+2, -598432.5, -596925.25, -57543.203, -0.20068444, 0.39091393, -540130.75, 130786.61, 0.0, 10.000726, 10.000408 
2.756588e+3, 2.4153875e+2, -673298.7, -877903.9, -40159.164, -0.3276474, 0.58067834, -665698.7, -92749.37, 0.0, 10.000679, 9.997931 
2.7562812e+3, 2.51531e+2, -389415.78, -557185.1, 12544.105, 0.15845583, 0.3463522, -388483.03, 86540.11, 0.0, 10.001526, 9.99892 
2.755972e+3, 2.6152363e+2, -502437.13, -753742.4, -32882.473, 0.4507391, 0.23357463, -498205.8, -121111.94, 0.0, 10.000738, 9.9974375 
2.755653e+3, 2.7151847e+2, -499104.28, -499013.53, -75255.75, 0.018085076, 0.28450182, -423803.16, -144657.86, 0.0, 9.999425, 9.999 
2.755336e+3, 2.8151298e+2, -828190.1, -886041.06, 60399.0, -0.24240984, 0.38628492, -790147.56, -608946.5, 0.0, 9.997501, 9.996741 
2.755029e+3, 2.9150558e+2, -289876.9, -418540.4, 35640.18, 0.12476762, 0.31848982, -280664.13, -197387.33, 0.0, 9.999994, 9.997962 
2.75472e+3, 3.0149868e+2, -164380.88, -410594.03, -53954.797, 0.32302803, 0.327955, -153076.33, -153076.33, 0.0, 10.000466, 9.997263 
2.7544075e+3, 3.1149194e+2, -275283.97, -188255.58, -87367.03, 0.23013058, 0.15942778, -134166.06, -134166.06, 0.0, 9.998399, 9.999348 
2.754093e+3, 3.214925e+2, -415677.84, 339579.13, 8794.904, -0.08394677, 0.61575687, 339681.53, 339681.53, 0.0, 9.994737, 10.004742 
2.7700183e+3, 1.3190214e+2, -1474545.8, -1692382.9, 324428.4, -0.0806927, 0.34564292, -1241240.6, 406147.56, 0.0036892197, 10.002221, 9.998768 
2.7697098e+3, 1.4189562e+2, -1250357.8, -1725927.6, -68138.98, -0.31424615, 0.22098957, -1240787.5, 308662.2, 0.0018042208, 10.003679, 9.997416 
2.7693966e+3, 1.5188983e+2, -775328.56, -1210761.8, -125628.01, -0.15411745, 0.1675265, -741683.06, 709817.4, 0.00058557204, 10.005424, 9.999315 
2.7690843e+3, 1.6188404e+2, -725756.2, -1321556.9, -38678.586, -0.029985419, 0.17021242, -723255.75, 630297.25, 0.00010501939, 10.005621, 9.997937 
2.7687716e+3, 1.7187774e+2, -947411.4, -1223391.3, -16204.072, -0.10583147, 0.0912312, -946463.25, 309151.78, 0.0000068884756, 10.002905, 9.999152 
2.76846e+3, 1.8187252e+2, -1253558.6, -1339982.4, -118236.82, -0.15397157, 0.1271554, -1170884.9, -13216.876, 0.00000000965895, 10.000135, 9.999088 
2.7681476e+3, 1.9186999e+2, -1134514.3, -1057989.8, -101870.516, -0.067177415, 0.2922454, -987432.9, 72265.69, 0.0, 9.999673, 10.000481 
2.767836e+3, 2.0186736e+2, -1056104.8, -1010574.94, -12749.373, -0.009473755, 0.46317434, -1007247.94, -45519.984, 0.0, 9.999519, 10.000321 
2.767526e+3, 2.1186197e+2, -627887.5, -591627.8, 86470.555, 0.077051304, 0.24097878, -521406.94, 342367.66, 0.0, 10.001243, 10.001605 
2.7672145e+3, 2.2185686e+2, -517216.66, -788551.8, 61652.137, 0.0822929, 0.14295232, -503865.2, 261956.73, 0.0, 10.002484, 9.999077 
2.7668998e+3, 2.3185335e+2, -440764.66, -663148.9, -4001.7202, -0.13628584, 0.33970886, -440692.7, 227172.28, 0.0, 10.002335, 9.999248 
2.7665862e+3, 2.418496e+2, -405820.88, -663236.25, -5910.81, -0.2524873, 0.54002345, -405685.22, 164222.77, 0.0, 10.002008, 9.998804 
2.766278e+3, 2.5184318e+2, -259054.44, -410838.44, 34083.05, 0.10400254, 0.38218933, -251752.39, 220215.63, 0.0, 10.001926, 9.999806 
2.765968e+3, 2.6183686e+2, -281128.06, -519887.53, -76579.64, 0.34878865, 0.29011428, -258677.06, 115349.88, 0.0, 10.00162, 9.998626 
2.7656487e+3, 2.718316e+2, -178681.69, -305100.4, -153024.92, 0.03831939, 0.2988286, -76325.195, 199751.48, 0.0, 10.001357, 9.999459 
2.765332e+3, 2.818259e+2, -277678.94, -554297.6, 64477.918, -0.14987686, 0.34053925, -263387.9, -85256.14, 0.0, 10.000864, 9.997408 
2.765025e+3, 2.9181787e+2, -211475.63, -421488.38, 191688.0, 0.15469287, 0.21880218, -97917.08, -17704.465, 0.0, 10.0005, 9.997772 
2.7647156e+3, 3.018105e+2, -184882.9, -398090.34, 171975.9, 0.29923174, 0.21172522, -89150.12, -89150.12, 0.0, 10.000082, 9.997545 
2.7644005e+3, 3.1180575e+2, 12376.045, -67477.37, 108811.19, 0.06534903, 0.27309507, 88354.55, 88354.55, 0.0, 10.000358, 9.999243 
2.764087e+3, 3.218037e+2, 191217.81, 689131.9, -5763.739, 0.09111493, 0.4832534, 689198.56, 689198.56, 0.0, 9.998526, 10.005311 
2.7800155e+3, 1.3221109e+2, -1572100.6, -2177823.8, 332924.44, -0.21845886, 0.005614937, -1424891.4, 219454.38, 0.0021709697, 10.003418, 9.99486 
2.7797067e+3, 1.4220418e+2, -1287527.9, -1789171.1, 33833.77, -0.50939953, 0.11587679, -1285256.3, 261165.81, 0.0010072378, 10.003523, 9.997109 
2.779398e+3, 1.5219955e+2, -905611.0, -1143163.1, -62596.3, -0.06536801, 0.06595973, -890125.94, 558336.0, 0.00030058212, 10.003866, 10.000592 
2.7790877e+3, 1.6219512e+2, -1098599.3, -1550611.1, -73804.734, 0.25778508, 0.14879219, -1086853.6, 263648.97, 0.000046417692, 10.0033, 9.997489 
2.7787697e+3, 1.7219085e+2, -1084802.3, -1412312.9, -78100.44, -0.120262004, 0.35667992, -1067131.3, 185419.61, 0.0000020738605, 10.002528, 9.998031 
2.7784532e+3, 1.8218586e+2, -1184152.6, -1317447.8, -71208.74, -0.37963018, 0.5097275, -1153267.8, 1336.1886, 0.00000000000031198744, 10.000718, 9.998941 
2.7781415e+3, 1.9217817e+2, -1041016.56, -932108.0, -88923.54, -0.17562215, 0.08179717, -882290.2, 174385.47, 0.0, 10.000048, 10.001113 
2.777831e+3, 2.0217253e+2, -1061191.8, -896197.94, 46126.918, 0.02226306, -0.12350213, -884178.06, 74548.08, 0.0, 9.999096, 10.001284 
2.7775222e+3, 2.1217145e+2, -639223.06, -408242.75, 104023.234, 0.06667768, -0.09110219, -368301.88, 492426.63, 0.0, 10.000451, 10.003212 
2.7772123e+3, 2.2216932e+2, -873376.44, -1067623.5, 26282.074, 0.12723035, 0.04653874, -869883.25, -107136.25, 0.0, 10.00059, 9.998044 
2.7769e+3, 2.3216297e+2, -705822.7, -937343.6, -32895.2, 0.15693165, 0.056643765, -701239.56, -36415.875, 0.0, 10.001231, 9.997844 
2.776587e+3, 2.4215777e+2, -648750.6, -804006.56, 1692.3365, 0.12963618, 0.20998564, -648732.1, -81846.45, 0.0, 10.0005865, 9.998496 
2.7762738e+3, 2.5215495e+2, -366336.94, -378070.56, 28596.0, -0.022670345, 0.33891898, -343012.13, 125900.84, 0.0, 10.000965, 10.00046 
2.7759606e+3, 2.6215112e+2, -529631.75, -648834.8, -90896.48, -0.07046009, 0.47159013, -480538.72, -109589.74, 0.0, 10.000123, 9.9984045 
2.7756453e+3, 2.7214393e+2, -288532.84, -343405.13, -158725.75, 0.06582013, 0.25425148, -154889.48, 118127.03, 0.0, 10.000646, 9.999486 
2.775331e+3, 2.821373e+2, -369342.94, -466908.1, 52953.934, 0.14500706, 0.16421653, -346126.5, -171048.67, 0.0, 9.999826, 9.998471 
2.7750203e+3, 2.9213163e+2, -190496.97, -180144.34, 185385.92, 0.09915959, 0.07261673, 137.50996, 77265.266, 0.0, 9.999818, 9.999684 
2.7747074e+3, 3.0212617e+2, -321910.94, -425840.16, 183109.13, -0.0840383, 0.13040267, -183535.66, -183535.66, 0.0, 9.999158, 9.99776 
2.7743933e+3, 3.1211996e+2, -90934.74, -100714.734, 142061.77, -0.23124903, 0.011359789, 46321.17, 46321.17, 0.0, 9.999717, 9.999286 
2.7740818e+3, 3.221175e+2, -325241.34, -113329.0, -208530.55, 0.12007477, 0.37397236, 14620.149, 14620.149, 0.0, 9.997559, 10.000246 
2.7900162e+3, 1.325242e+2, -1219552.4, -1562940.1, 264387.0, -0.17360361, 0.26804015, -1076001.5, 565285.06, 0.0011674977, 10.003932, 9.998842 
2.7897078e+3, 1.4251786e+2, -1256922.5, -1699765.3, 76768.21, -0.38374463, 0.1884693, -1243992.0, 299350.34, 0.00050489604, 10.003425, 9.997765 
2.7893943e+3, 1.5251274e+2, -1264465.8, -1363338.9, -38518.59, -0.21473521, 0.12237057, -1251231.4, 194158.95, 0.00013439951, 10.001611, 10.000167 
2.789082e+3, 1.6250785e+2, -1432645.5, -1586232.1, -14975.602, -0.015529791, 0.15774715, -1431199.0, -83762.48, 0.000016423304, 10.00044, 9.998628 
2.7887684e+3, 1.7250323e+2, -1008364.9, -1213920.4, 98697.37, -0.064939745, 0.2041448, -968649.0, 280832.97, 0.0000003300107, 10.002319, 9.999509 
2.788454e+3, 1.8249838e+2, -842442.5, -1159734.5, 63402.9, -0.14364778, 0.2908907, -830242.1, 321288.4, 0.0, 10.003015, 9.998952 
2.78814e+3, 1.9249141e+2, -861934.8, -974559.1, 655.88904, -0.018832298, 0.06584323, -861931.0, 191668.84, 0.0, 10.00172, 10.0000925 
2.7878273e+3, 2.024858e+2, -955706.25, -913714.0, 72569.48, 0.057554636, -0.028853238, -859164.4, 96490.3, 0.0, 10.00011, 10.000649 
2.7875167e+3, 2.124836e+2, -892141.44, -664319.6, 50340.434, -0.011105241, 0.023879744, -653691.94, 203982.11, 0.0, 9.999291, 10.002013 
2.7872062e+3, 2.2248098e+2, -996059.25, -996042.1, -68201.53, -0.030663202, 0.14411288, -927849.2, -168149.23, 0.0, 9.9990635, 9.999289 
2.786895e+3, 2.3247585e+2, -726986.0, -801693.5, 5847.1396, 0.05507918, 0.14156859, -726531.1, -64772.37, 0.0, 10.000279, 9.999303 
2.786583e+3, 2.4247117e+2, -547718.56, -643199.25, 75411.62, 0.09980719, 0.2304114, -506206.16, 57604.574, 0.0, 10.000721, 9.99954 
2.78627e+3, 2.5246763e+2, -532800.3, -439140.47, 63831.492, 0.02265127, 0.28772074, -406802.84, 59041.863, 0.0, 9.999671, 10.000695 
2.7859563e+3, 2.6246357e+2, -612883.8, -610211.56, -41501.78, -0.017030295, 0.3629233, -570024.44, -202140.92, 0.0, 9.999063, 9.999216 
2.7856413e+3, 2.724571e+2, -327897.06, -351971.66, -80671.93, 0.10443758, 0.21437337, -258369.31, 11576.762, 0.0, 10.000154, 9.999741 
2.7853277e+3, 2.8245112e+2, -169088.58, -296120.53, 98180.984, 0.20926183, 0.15597464, -115669.59, 56333.004, 0.0, 10.000767, 9.999206 
2.785016e+3, 2.9244623e+2, -3185.1113, -53008.676, 85468.48, 0.10817716, 0.12712638, 60928.145, 134972.38, 0.0, 10.000847, 10.000089 
2.7847025e+3, 3.024411e+2, -115383.32, -299501.34, -6960.002, -0.115446486, 0.16795123, -115120.59, -115120.59, 0.0, 10.000309, 9.998107 
2.784388e+3, 3.1243458e+2, -193818.0, -202075.72, -87100.87, -0.23318449, 0.046932086, -110748.195, -110748.195, 0.0, 9.99904, 9.999008 
2.7840772e+3, 3.2243076e+2, -45508.594, -182135.95, -343533.7, 0.24077113, 0.3669956, 236437.84, 236437.84, 0.0, 10.000155, 9.998586 
2.8000182e+3, 1.3283813e+2, -1049875.6, -1026584.25, 332054.44, 0.048672542, 0.554667, -705971.3, 932247.1, 0.0005665631, 10.003065, 10.002947 
2.799709e+3, 1.4283232e+2, -1367115.9, -1734841.0, -34395.645, -0.092137024, 0.2516521, -1363926.3, 176328.38, 0.00022570654, 10.002633, 9.997861 
2.7993903e+3, 1.5282638e+2, -1295417.4, -1483690.3, -148096.28, -0.3019176, 0.17068203, -1214071.1, 228243.02, 0.00005282333, 10.001889, 9.9991665 
2.7990755e+3, 1.6282067e+2, -1284297.0, -1381239.6, -1310.5195, -0.23985319, 0.13877913, -1284279.3, 60089.723, 0.000004777361, 10.000981, 9.999702 
2.7987674e+3, 1.7281531e+2, -922326.56, -964848.25, 67617.12, 0.099944375, -0.08863705, -872706.56, 373706.66, 0.00000002399446, 10.002063, 10.001291 
2.7984563e+3, 1.8281071e+2, -1022931.0, -1351214.5, -53179.652, 0.30874807, -0.05167352, -1014531.2, 133924.27, 0.0, 10.002322, 9.997937 
2.7981395e+3, 1.9280657e+2, -971742.75, -1183902.8, -114867.1, 0.2641054, 0.121781595, -921466.0, 129039.02, 0.0, 10.00173, 9.998615 
2.7978235e+3, 2.0280209e+2, -1114572.1, -1257610.9, 45252.445, 0.17024809, 0.32628852, -1101458.1, -148900.7, 0.0, 10.000208, 9.99824 
2.7975106e+3, 2.127965e+2, -1051868.1, -1008914.7, 35718.117, -0.05682199, 0.2529422, -988713.6, -134094.23, 0.0, 9.999356, 9.999606 
2.7971986e+3, 2.2279249e+2, -1034219.4, -853635.1, 6928.775, -0.20351131, 0.33653906, -853369.7, -96707.234, 0.0, 9.998279, 10.000592 
2.796888e+3, 2.3279065e+2, -667559.2, -443588.56, 44870.758, -0.19634598, 0.37593314, -434933.53, 223744.33, 0.0, 9.99941, 10.002138 
2.7965772e+3, 2.4278748e+2, -753850.75, -736469.0, 37691.383, -0.07912366, 0.44919193, -706479.5, -145773.13, 0.0, 9.9994, 9.999504 
2.796267e+3, 2.527805e+2, -656045.7, -523910.66, 9586.302, 0.22823791, 0.16232832, -523218.8, -60447.445, 0.0, 9.999036, 10.000372 
2.795954e+3, 2.6277494e+2, -770405.7, -693329.8, -28796.387, 0.34111443, 0.11548856, -683759.5, -318934.7, 0.0, 9.9981365, 9.999066 
2.7956364e+3, 2.7277124e+2, -402637.4, -337258.22, -42696.594, 0.08980871, 0.17953028, -316174.13, -49309.266, 0.0, 9.999531, 10.000101 
2.7953216e+3, 2.8276718e+2, -406986.72, -562537.4, 99652.47, -0.010558981, 0.3537226, -358351.53, -189443.8, 0.0, 9.999916, 9.997755 
2.795013e+3, 2.9276115e+2, -194575.14, -290612.4, 77677.484, 0.14770943, 0.32383713, -151272.47, -80304.82, 0.0, 10.000265, 9.998713 
2.7947006e+3, 3.027554e+2, -345436.53, -515888.53, -89603.63, 0.11029536, 0.43046054, -307000.56, -307000.56, 0.0, 9.999367, 9.997001 
2.7943847e+3, 3.127497e+2, -408799.84, -369566.5, -155769.25, 0.012426791, 0.44187173, -232183.58, -232183.58, 0.0, 9.998005, 9.998271 
2.7940705e+3, 3.2274237e+2, 93429.83, 289139.28, 14006.954, -0.06503512, 0.3005152, 290136.7, 290136.7, 0.0, 9.999685, 10.001914 
2.8100157e+3, 1.3314885e+2, -1341674.0, -1328411.1, 284429.66, -0.10428563, 0.39516273, -1050535.6, 584627.5, 0.00024944692, 10.001747, 10.001528 
2.809708e+3, 1.4314173e+2, -1529057.4, -1750189.0, -134513.4, 0.030508649, 0.028632682, -1465500.6, 71716.6, 0.00009135431, 10.001291, 9.998394 
2.809391e+3, 1.5313762e+2, -1269836.3, -1419222.0, -146298.17, 0.019353587, 0.07616652, -1180266.6, 258992.53, 0.000018191195, 10.001831, 9.999662 
2.8090763e+3, 1.631324e+2, -1165697.6, -1372467.8, -22640.922, 0.037807934, 0.09376087, -1163247.5, 178062.48, 0.000001253609, 10.0019865, 9.999281 
2.8087643e+3, 1.7312571e+2, -1008408.94, -1115068.8, -17472.105, 0.020728381, -0.16579707, -1005619.75, 237750.67, 0.0000000065346386, 10.001907, 10.000355 
2.808451e+3, 1.8312086e+2, -1021127.44, -1230351.0, -221038.97, 0.0023247073, -0.14256907, -881195.0, 264221.94, 0.0, 10.001823, 9.998982 
2.8081346e+3, 1.9311844e+2, -746230.3, -965873.06, -169534.42, -0.008694141, 0.102924265, -654055.0, 393394.3, 0.0, 10.002782, 9.999615 
2.8078195e+3, 2.0311551e+2, -653322.75, -940877.1, 14602.13, -0.010652549, 0.36552957, -652583.1, 296903.06, 0.0, 10.002883, 9.999141 
2.8075072e+3, 2.1311077e+2, -704916.0, -827126.1, 117316.26, -0.03947414, 0.36500752, -633745.06, 217794.64, 0.0, 10.001531, 9.999872 
2.8071952e+3, 2.231064e+2, -732022.2, -692224.56, 137703.5, -0.08594033, 0.40577933, -572989.56, 180596.03, 0.0, 10.0002165, 10.000782 
2.806884e+3, 2.3310246e+2, -661745.9, -475504.63, 70932.37, -0.09090648, 0.29735687, -451566.06, 204052.48, 0.0, 9.999522, 10.001891 
2.8065726e+3, 2.430982e+2, -674565.3, -643074.1, -19972.734, -0.033710234, 0.24884872, -633386.75, -75731.26, 0.0, 9.999573, 10.000079 
2.8062618e+3, 2.5309214e+2, -317192.88, -354454.94, -23447.354, 0.16259807, 0.045218512, -305875.72, 153836.13, 0.0, 10.001175, 10.0005665 
2.805949e+3, 2.630875e+2, -183016.02, -380192.06, -81473.61, 0.24229965, 0.06558008, -153707.42, 208050.33, 0.0, 10.001908, 9.999451 
2.8056315e+3, 2.730851e+2, -211265.25, -273863.2, -136570.6, 0.04505744, 0.28615016, -102453.0, 161336.56, 0.0, 10.0008, 10.000014 
2.8053173e+3, 2.8308117e+2, -338644.28, -529591.56, 37650.88, -0.022004694, 0.47128427, -331488.47, -165654.36, 0.0, 10.000227, 9.99788 
2.8050092e+3, 2.930735e+2, -70076.734, -306285.78, 66449.48, 0.1710462, 0.34011763, -52666.637, 15245.529, 0.0, 10.001266, 9.998206 
2.8046972e+3, 3.0306742e+2, 2809.5557, -296894.03, -87280.13, 0.20183733, 0.4323094, 26374.549, 26374.549, 0.0, 10.001464, 9.997494 
2.804381e+3, 3.1306398e+2, 10472.337, -155365.97, -119562.56, 0.14642149, 0.6709206, 73055.05, 73055.05, 0.0, 10.000717, 9.99848 
2.8040648e+3, 3.2305452e+2, 71441.07, 310565.72, 125084.484, -0.16267188, 0.3072182, 364038.88, 364038.88, 0.0, 9.999184, 10.002384 
2.8200132e+3, 1.334587e+2, -1342129.4, -1522737.3, 271829.88, -0.1187855, 0.10655659, -1145996.1, 486119.44, 0.00010705436, 10.002654, 9.999723 
2.8197065e+3, 1.4345123e+2, -1604057.0, -1732553.3, -73365.0, 0.23918086, -0.18115012, -1570784.6, -36604.473, 0.000035101017, 10.000603, 9.998834 
2.8193927e+3, 1.5344891e+2, -1090700.0, -1228017.9, -91717.18, 0.46920446, -0.038945865, -1044789.75, 391413.84, 0.0000055355054, 10.002695, 10.000539 
2.8190783e+3, 1.6344464e+2, -1103814.8, -1476151.6, 35736.063, 0.4847398, 0.082716905, -1100415.9, 237830.61, 0.0000002527922, 10.003045, 9.998066 
2.818761e+3, 1.7343658e+2, -1173815.3, -1370852.4, 18443.787, -0.04143624, -0.15945382, -1172103.8, 68222.49, 0.0, 10.001609, 9.998757 
2.818444e+3, 1.8343127e+2, -1114571.9, -1160247.8, -114998.77, -0.38233495, -0.12193783, -1020165.25, 122215.375, 0.0, 10.000717, 9.999998 
2.8181288e+3, 1.934296e+2, -799789.75, -826952.06, -110259.2, -0.34310696, 0.037040025, -702278.44, 342123.97, 0.0, 10.001702, 10.001105 
2.8178155e+3, 2.0342803e+2, -795764.25, -884499.3, -12239.087, -0.18630718, 0.31581804, -794107.1, 152315.55, 0.0, 10.001512, 10.000125 
2.817505e+3, 2.134256e+2, -764142.0, -712226.2, 18818.637, 0.08600705, 0.39677894, -706122.4, 142327.14, 0.0, 10.000652, 10.001013 
2.8171936e+3, 2.234212e+2, -949282.8, -971963.9, 76661.516, 0.2276924, 0.44047198, -883127.56, -132634.61, 0.0, 9.99959, 9.999129 
2.8168818e+3, 2.334125e+2, -850877.8, -760936.8, 22170.383, 0.22437318, 0.006070237, -755768.75, -103195.58, 0.0, 9.999189, 10.000039 
2.8165692e+3, 2.434064e+2, -799724.0, -711289.8, 22469.035, 0.12015863, -0.1052994, -705908.44, -151279.13, 0.0, 9.998888, 9.999907 
2.8162554e+3, 2.5340337e+2, -434608.34, -351261.16, 28732.174, -0.109390885, -0.08058219, -342316.3, 114341.58, 0.0, 10.0002165, 10.001015 
2.8159416e+3, 2.63401e+2, -444709.75, -582769.0, -114797.43, -0.18067157, 0.18286791, -379785.88, -21101.178, 0.0, 10.000621, 9.998612 
2.815627e+3, 2.7339855e+2, -366385.75, -402351.2, -167835.05, -0.015526126, 0.4312012, -215572.8, 45147.58, 0.0, 10.000115, 9.999394 
2.815314e+3, 2.833937e+2, -481374.8, -602913.7, 68397.695, 0.052788977, 0.5815915, -450650.16, -287874.7, 0.0, 9.999454, 9.997682 
2.815005e+3, 2.9338363e+2, -157606.7, -286552.4, 113063.47, 0.063462466, 0.14150189, -91925.43, -27050.75, 0.0, 10.000564, 9.998607 
2.8146923e+3, 3.0337736e+2, -57228.79, -255913.94, -120643.71, -0.014927184, 0.17267497, -290.04095, -290.04095, 0.0, 10.000845, 9.998059 
2.8143755e+3, 3.133767e+2, -57094.957, -77082.18, -137001.97, 0.0058376556, 0.57376915, 70277.4, 70277.4, 0.0, 9.999847, 9.999417 
2.8140602e+3, 3.2336783e+2, -431541.3, -389788.78, 94783.516, -0.1439538, 0.3618606, -313609.75, -313609.75, 0.0, 9.997931, 9.998094 
2.830013e+3, 1.337717e+2, -1308214.0, -1450987.8, -3927.55, -0.08500871, 0.016711563, -1308106.1, 320940.84, 0.00005058897, 10.002652, 10.00021 
2.829701e+3, 1.4376675e+2, -1668189.4, -1667256.9, 62433.945, 0.06916506, -0.060228053, -1605287.5, -74197.34, 0.000015386415, 9.999766, 9.999666 
2.8293893e+3, 1.537636e+2, -927783.6, -1108304.1, 128578.68, 0.21648166, -0.041447718, -860947.1, 572172.8, 0.0000020566958, 10.003622, 10.000918 
2.829076e+3, 1.6375974e+2, -844059.06, -1318252.8, 30304.836, 0.26176944, 0.09637624, -842130.2, 493029.53, 0.00000005936716, 10.0046625, 9.99837 
2.8287584e+3, 1.7375375e+2, -1206228.9, -1412456.0, 65856.15, -0.00033352614, 0.08159225, -1186992.8, 50231.574, 0.0, 10.001431, 9.998582 
2.8284413e+3, 1.8374828e+2, -1289101.0, -1257695.0, 23842.883, -0.2168943, 0.12903783, -1244848.6, -105567.75, 0.0, 9.999523, 9.9999275 
2.8281257e+3, 1.937432e+2, -1064914.5, -1016021.44, 8929.592, -0.2801483, 0.01205915, -1014441.6, 26887.604, 0.0, 10.000078, 10.000626 
2.8278118e+3, 2.0373937e+2, -961252.3, -997197.6, -11590.787, -0.2123875, 0.10607931, -957838.94, -14471.718, 0.0, 10.000452, 9.999888 
2.8275007e+3, 2.1373639e+2, -777351.25, -802455.25, -34122.875, 0.016361246, 0.22280018, -753545.0, 91854.56, 0.0, 10.000856, 10.00032 
2.8271896e+3, 2.2373211e+2, -674501.4, -834318.4, -17749.887, 0.18713376, 0.30291417, -672553.75, 74889.37, 0.0, 10.001363, 9.999243 
2.826878e+3, 2.3372464e+2, -503559.88, -667100.0, -6171.1763, 0.24853809, 0.047059514, -503327.34, 146188.48, 0.0, 10.001741, 9.999523 
2.8265655e+3, 2.4371915e+2, -405765.34, -423435.53, -8118.7783, 0.17483379, -0.018023122, -402601.56, 148966.75, 0.0, 10.001094, 10.000855 
2.8262508e+3, 2.5371623e+2, -565747.44, -383990.78, 4796.5977, -0.081494294, -0.0016643701, -383864.28, 69730.58, 0.0, 9.999049, 10.001426 
2.8259364e+3, 2.6371363e+2, -680279.94, -582053.3, -72290.29, -0.18052623, 0.17112756, -543770.94, -188149.3, 0.0, 9.998431, 9.999677 
2.825622e+3, 2.7371085e+2, -293710.72, -315923.5, -66522.8, -0.046209134, 0.35034364, -237373.55, 20282.865, 0.0, 10.000352, 9.999873 
2.8253096e+3, 2.8370592e+2, -174092.7, -388141.72, 210355.58, 0.029374857, 0.44072315, -45100.867, 114610.05, 0.0, 10.001162, 9.998378 
2.8249997e+3, 2.9369646e+2, -200782.53, -324599.7, 217180.05, -0.0404027, 0.0844572, -36859.656, 24947.246, 0.0, 10.000185, 9.998597 
2.8246862e+3, 3.0369058e+2, -115790.67, -207067.52, -35884.76, -0.17336652, 0.1300092, -103372.38, -103372.38, 0.0, 9.999969, 9.998859 
2.8243703e+3, 3.136905e+2, 139686.58, 13539.982, -123471.305, -0.11877306, 0.5777611, 215261.78, 215261.78, 0.0, 10.001042, 9.999524 
2.8240556e+3, 3.2368094e+2, -352970.8, -582562.75, 27996.07, 0.007340541, 0.37908137, -349606.34, -349606.34, 0.0, 9.999248, 9.996226 
2.8400126e+3, 1.340865e+2, -1289468.1, -1438751.0, -154838.14, 0.07974737, 0.009522552, -1192219.5, 433742.97, 0.00002671971, 10.002616, 10.000392 
2.8396952e+3, 1.440835e+2, -1347492.4, -1472789.5, 154684.17, -0.033391852, 0.12354478, -1243251.6, 284738.5, 0.000008259606, 10.001763, 10.000042 
2.8393853e+3, 1.5407896e+2, -1084115.3, -1173232.9, 180789.61, -0.06316712, -0.021035377, -942474.2, 487557.56, 0.0000013335809, 10.002462, 10.001038 
2.839073e+3, 1.6407555e+2, -1156703.9, -1421139.1, -105925.04, 0.027988227, 0.13294649, -1119506.0, 212561.89, 0.000000073245815, 10.002382, 9.99873 
2.8387567e+3, 1.7407236e+2, -1230334.6, -1399351.3, -103164.016, 0.17115209, 0.3533537, -1181484.5, 52624.637, 0.0, 10.001211, 9.998758 
2.83844e+3, 1.8406689e+2, -1253621.4, -1340883.9, 22639.182, 0.16729628, 0.433814, -1248097.6, -111932.69, 0.0, 10.000279, 9.998943 
2.838123e+3, 1.9405742e+2, -1063004.3, -1157109.5, 1444.8468, -0.03181482, -0.037140034, -1062982.0, -24733.094, 0.0, 10.000772, 9.999272 
2.8378084e+3, 2.0405032e+2, -992123.44, -1155889.5, 17709.172, -0.12985733, -0.13466331, -990230.3, -49915.26, 0.0, 10.000933, 9.998544 
2.8374958e+3, 2.1404566e+2, -920886.0, -1034274.5, -16774.11, -0.06753061, -0.07962696, -918456.56, -76091.46, 0.0, 10.000663, 9.998788 
2.8371844e+3, 2.2404197e+2, -820947.6, -903982.2, 31024.637, 0.02995825, 0.15346465, -810636.25, -66229.89, 0.0, 10.000462, 9.999172 
2.836874e+3, 2.3403838e+2, -666288.25, -741653.75, 29763.037, 0.15715435, 0.24345958, -655951.94, -9504.6875, 0.0, 10.000702, 9.99949 
2.8365618e+3, 2.4403463e+2, -532453.94, -458730.28, -47201.86, 0.19530094, 0.35878035, -435702.13, 112783.43, 0.0, 10.000214, 10.001023 
2.8362474e+3, 2.5402993e+2, -657389.8, -408342.3, -71996.94, 0.16529815, 0.136831, -389026.8, 61501.008, 0.0, 9.998456, 10.00152 
2.8359327e+3, 2.64026e+2, -700759.94, -454818.75, -25337.457, 0.06826063, 0.13169241, -452235.56, -99673.25, 0.0, 9.997851, 10.000769 
2.8356174e+3, 2.740221e+2, -316706.5, -191760.2, -606.98596, -0.08566053, 0.024921387, -191757.25, 62840.113, 0.0, 9.999736, 10.000971 
2.835304e+3, 2.8401795e+2, -295784.0, -448796.75, 183917.58, -0.16758412, 0.14660291, -173094.73, -16454.414, 0.0, 10.000463, 9.998256 
2.834994e+3, 2.9401213e+2, -334094.28, -417689.3, 188793.61, -0.19967736, 0.13961422, -182526.72, -123819.12, 0.0, 9.999503, 9.998263 
2.8346798e+3, 3.040078e+2, -263206.88, -305801.22, -7533.6714, -0.374098, 0.3799553, -261913.66, -261913.66, 0.0, 9.99926, 9.998457 
2.834364e+3, 3.140051e+2, -68322.18, -158619.08, -62729.746, -0.3704203, 0.57889915, -36182.832, -36182.832, 0.0, 10.000101, 9.998733 
2.8340495e+3, 3.239938e+2, -360734.1, -304267.72, -82851.54, -0.12331313, 0.09675623, -244970.97, -244970.97, 0.0, 9.998245, 9.99849 
2.8500095e+3, 1.3440496e+2, -1479102.6, -1779018.5, -57655.617, -0.12053022, 0.20794861, -1468400.9, 154442.63, 0.0000133144695, 10.002349, 9.998225 
2.849695e+3, 1.4439908e+2, -1136402.0, -1501011.3, 68666.164, -0.006853003, 0.22941491, -1123899.0, 401010.38, 0.0000038169696, 10.003766, 9.998886 
2.8493822e+3, 1.5439327e+2, -1447799.4, -1535767.5, 73950.38, -0.088104405, 0.09659722, -1405741.3, 21220.256, 0.0000005153316, 10.000728, 9.999408 
2.8490686e+3, 1.643892e+2, -1432292.9, -1406584.6, -173475.36, -0.038789444, 0.2067445, -1245487.8, 83513.28, 0.00000002542409, 9.999833, 10.000052 
2.848752e+3, 1.7438674e+2, -1085905.4, -1188928.8, -97921.14, 0.045796502, 0.37023762, -1026773.5, 204256.94, 0.0, 10.001565, 10.000042 
2.8484365e+3, 1.8438219e+2, -841200.3, -1116641.8, 30989.572, 0.04922247, 0.4586987, -837756.75, 295318.75, 0.0, 10.002937, 9.999215 
2.8481215e+3, 1.9437407e+2, -648128.0, -972102.8, 73437.19, -0.034794915, 0.14709902, -632258.9, 402889.66, 0.0, 10.003586, 9.999212 
2.8478074e+3, 2.0436677e+2, -621642.8, -982984.75, 44526.75, -0.05839648, 0.03143594, -616236.9, 320979.94, 0.0, 10.003436, 9.998546 
2.847494e+3, 2.1435994e+2, -708332.44, -970584.6, 63576.996, 0.0056196805, -0.07409195, -693732.44, 145552.83, 0.0, 10.002166, 9.998554 
2.847181e+3, 2.2435556e+2, -640713.7, -717159.75, 155902.81, 0.015668912, 0.068609186, -518416.7, 222914.86, 0.0, 10.001232, 10.000085 
2.846868e+3, 2.3435338e+2, -596459.3, -633176.6, 195659.72, -0.08197488, 0.27565646, -418298.84, 225059.86, 0.0, 10.000766, 10.00023 
2.8465557e+3, 2.4435014e+2, -494895.7, -499195.06, 68707.83, -0.017895555, 0.4242599, -428303.94, 117089.984, 0.0, 10.00061, 10.00059 
2.8462428e+3, 2.5434488e+2, -374595.03, -364840.2, -6905.0596, 0.21125016, 0.2759478, -361263.66, 86181.13, 0.0, 10.000659, 10.000806 
2.845929e+3, 2.6433998e+2, -292632.84, -283923.9, 14983.2, 0.19860604, 0.215601, -272675.25, 76814.7, 0.0, 10.000655, 10.000649 
2.845613e+3, 2.74335e+2, -122904.27, -126535.83, -66410.484, -0.111124136, 0.075031735, -58284.75, 193248.47, 0.0, 10.001054, 10.000858 
2.8452995e+3, 2.843306e+2, -204076.11, -349124.25, -11660.414, -0.25953922, 0.13112526, -203144.72, -49567.27, 0.0, 10.000746, 9.998841 
2.8449884e+3, 2.9432613e+2, -314964.8, -355778.72, -11115.386, -0.26714656, 0.2376206, -312133.97, -256502.75, 0.0, 9.999336, 9.998791 
2.844674e+3, 3.0432245e+2, -217143.63, -160301.56, -58208.973, -0.38578498, 0.43590128, -123945.75, -123945.75, 0.0, 9.998899, 9.999685 
2.8443596e+3, 3.1431913e+2, -59679.7, -67747.51, -14620.794, -0.32947233, 0.5125505, -48546.53, -48546.53, 0.0, 9.999645, 9.999649 
2.8440437e+3, 3.243091e+2, -135803.7, -209680.27, -294782.3, -0.108982734, 0.12631133, 124345.63, 124345.63, 0.0, 9.99957, 9.99863 
2.8600067e+3, 1.3472213e+2, -1879787.8, -2223659.5, 84957.83, -0.1130093, 0.31257778, -1859943.1, -240205.64, 0.0000059672334, 10.000707, 9.99596 
2.8596953e+3, 1.447144e+2, -1169051.5, -1647215.4, -32101.576, 0.1360314, 0.33573833, -1166906.0, 354924.13, 0.0000015122073, 10.004149, 9.997677 
2.8593794e+3, 1.5470731e+2, -1374115.0, -1673840.5, -20117.209, 0.013600108, 0.20509899, -1372770.9, 51122.426, 0.0000000966577, 10.002008, 9.997828 
2.8590643e+3, 1.6470228e+2, -1183669.5, -1146992.4, -78782.37, -0.0045811622, 0.24853149, -1084442.3, 241496.4, 0.00000000026919006, 10.000958, 10.001299 
2.8587478e+3, 1.7469968e+2, -1039121.4, -1029984.56, -65439.805, -0.06266838, 0.25292647, -968953.9, 259009.73, 0.0, 10.001319, 10.001249 
2.8584328e+3, 1.8469657e+2, -973916.2, -1126896.9, 37763.25, -0.102269754, 0.40513286, -965102.1, 164891.2, 0.0, 10.001918, 9.999612 
2.8581205e+3, 1.9469184e+2, -830626.6, -1035163.2, 44824.84, -0.0122483885, 0.3884901, -821234.44, 210803.97, 0.0, 10.002353, 9.999345 
2.8578073e+3, 2.0468554e+2, -772783.0, -1053326.8, -7758.6187, 0.1093326, 0.37139773, -772568.6, 161529.63, 0.0, 10.002431, 9.998538 
2.8574932e+3, 2.146765e+2, -834509.8, -1062782.8, -1295.7073, 0.24581072, 0.025902025, -834502.44, 1681.9126, 0.0, 10.00146, 9.998277 
2.857178e+3, 2.24671e+2, -692510.44, -670499.9, 135645.84, 0.09898602, 0.041854292, -545413.6, 192824.61, 0.0, 10.000659, 10.000622 
2.8568614e+3, 2.3466885e+2, -707196.06, -643553.4, 130234.28, -0.34174225, 0.15774907, -541309.2, 98952.54, 0.0, 9.999961, 10.000479 
2.8565478e+3, 2.4466589e+2, -736275.44, -763430.7, 38658.273, -0.34117597, 0.39093763, -708879.7, -166584.61, 0.0, 9.999786, 9.999052 
2.856238e+3, 2.5466082e+2, -641039.4, -703158.5, -23660.346, 0.14935651, 0.37305966, -633054.0, -188703.11, 0.0, 9.999884, 9.998768 
2.8559253e+3, 2.6465553e+2, -503980.5, -596682.75, 23497.496, 0.24254939, 0.47625148, -498364.72, -151959.2, 0.0, 10.000208, 9.998672 
2.8556094e+3, 2.7464917e+2, -382553.94, -497339.06, -48841.875, -0.107075594, 0.35801092, -364584.47, -116118.08, 0.0, 10.000381, 9.998624 
2.8552952e+3, 2.846436e+2, -296888.8, -315236.4, -63097.48, -0.2846599, 0.39279354, -242301.72, -91779.125, 0.0, 9.999956, 9.999376 
2.8549823e+3, 2.946378e+2, -427693.56, -357982.16, -55810.867, -0.30818242, 0.2650407, -327036.84, -274452.5, 0.0, 9.998474, 9.99914 
2.854669e+3, 3.0463386e+2, -174462.13, 130869.65, -50151.207, -0.32740378, 0.3120819, 138896.06, 138896.06, 0.0, 9.998209, 10.001933 
2.8543568e+3, 3.1463203e+2, -146490.73, 100000.91, 24450.723, -0.1217766, 0.26757443, 102402.89, 102402.89, 0.0, 9.998326, 10.001361 
2.8540388e+3, 3.2462627e+2, -437677.47, -585032.2, -244279.2, -0.12309598, 0.30234006, -256206.48, -256206.48, 0.0, 9.998717, 9.996376 
2.8700057e+3, 1.3503101e+2, -2048429.9, -2158842.0, 345467.3, 0.17477663, -0.033526205, -1753785.5, -137078.8, 0.0000021514043, 9.998878, 9.99732 
2.8696957e+3, 1.4502963e+2, -1015554.94, -1404144.4, -87099.445, 0.16251488, 0.48298937, -996925.3, 521810.47, 0.00000043033984, 10.004448, 9.999205 
2.869376e+3, 1.5502182e+2, -1077396.0, -1419330.9, 19977.28, -0.22951248, 0.16974765, -1076232.8, 344573.34, 0.000000019645139, 10.003521, 9.998867 
2.86906e+3, 1.6501561e+2, -1002232.06, -1160814.6, -62940.395, -0.2066902, 0.088069245, -980288.0, 342574.78, 0.0, 10.002638, 10.000395 
2.8687453e+3, 1.7501107e+2, -1140161.6, -1212795.0, -91897.76, -0.022077521, 0.036526773, -1077664.9, 147240.27, 0.0, 10.001163, 10.000085 
2.8684315e+3, 1.8500729e+2, -1088724.1, -1126512.8, -14139.0625, 0.06972874, 0.1445286, -1084019.5, 42922.684, 0.0, 10.000786, 10.000202 
2.8681192e+3, 1.9500329e+2, -992322.7, -1078628.4, 40592.723, 0.13961524, 0.17128561, -976230.8, 52752.906, 0.0, 10.000939, 9.9998 
2.8678057e+3, 2.0499891e+2, -781447.1, -899769.5, -24990.865, 0.1792772, 0.24667585, -776385.4, 154641.05, 0.0, 10.001659, 9.999961 
2.86749e+3, 2.1499322e+2, -567946.2, -798519.5, 44481.1, 0.14306302, 0.13658227, -559662.7, 273417.22, 0.0, 10.002616, 9.999556 
2.8671744e+3, 2.2498782e+2, -501660.16, -716235.06, 89472.94, -0.012700469, 0.15120085, -469247.94, 265885.8, 0.0, 10.0024395, 9.999498 
2.866858e+3, 2.3498291e+2, -633734.06, -748406.94, 5088.3286, -0.3125275, 0.14737524, -633508.75, 3677.3044, 0.0, 10.000913, 9.999364 
2.8665444e+3, 2.4497838e+2, -584034.8, -702578.44, -45564.59, -0.2885399, 0.2649393, -568545.1, -29310.932, 0.0, 10.000769, 9.999037 
2.8662342e+3, 2.549733e+2, -294254.6, -553799.8, -42970.484, 0.07437126, 0.2928853, -287325.38, 153962.63, 0.0, 10.002212, 9.9987135 
2.8659213e+3, 2.64968e+2, -172056.17, -476125.0, 29356.178, 0.16013882, 0.4052964, -169247.94, 174094.67, 0.0, 10.002539, 9.998417 
2.8656062e+3, 2.749619e+2, -230818.63, -484270.7, 27742.807, -0.070452616, 0.39308205, -227817.44, 17586.648, 0.0, 10.001535, 9.9982 
2.8652918e+3, 2.849563e+2, -186083.94, -164353.83, 26524.816, -0.18620561, 0.40970546, -146555.05, 905.64984, 0.0, 10.000233, 10.0003 
2.8649774e+3, 2.9495066e+2, -301403.13, -209183.56, 24517.396, -0.22227384, 0.25879714, -203070.61, -153551.92, 0.0, 9.998851, 10.00002 
2.8646642e+3, 3.0494684e+2, -29320.574, 269823.5, 37408.125, -0.21173772, 0.24776721, 274430.47, 274430.47, 0.0, 9.998796, 10.002657 
2.8643528e+3, 3.149452e+2, 172943.02, 338838.1, -68663.62, 0.027099717, 0.2054178, 363570.56, 363570.56, 0.0, 9.999991, 10.002269 
2.8640348e+3, 3.2494086e+2, 165965.38, -441233.53, -325746.88, -0.13892923, 0.40907994, 307656.44, 307656.44, 0.0, 10.003319, 9.995203 
2.8800052e+3, 1.3534074e+2, -1275360.8, -1592962.5, 633644.3, 0.52004504, -0.29789189, -780921.44, 832746.75, 0.00000033823923, 10.003315, 9.999065 
2.8796953e+3, 1.4534463e+2, -1299407.0, -1359325.9, -99545.38, 0.2251177, 0.59355086, -1225410.4, 290231.25, 0.000000039050374, 10.001735, 10.000809 
2.879373e+3, 1.5533662e+2, -1152312.6, -1320770.3, -47724.875, -0.36823368, 0.11714534, -1139731.5, 277982.84, 0.0000000006124831, 10.002433, 10.000077 
2.8790566e+3, 1.6532935e+2, -1132538.9, -1391665.1, -105346.96, -0.3140878, -0.05499451, -1095115.3, 224666.05, 0.0, 10.002511, 9.998824 
2.8787437e+3, 1.7532246e+2, -1192542.1, -1436265.5, -111564.77, 0.17260483, -0.19904703, -1149185.9, 72660.0, 0.0, 10.001677, 9.998283 
2.8784305e+3, 1.8531747e+2, -991539.5, -1011226.2, 60413.3, 0.36366898, -0.14979425, -940172.9, 183723.0, 0.0, 10.001292, 10.000697 
2.8781176e+3, 1.9531341e+2, -984487.06, -1037492.1, 64209.535, 0.39125428, -0.19680423, -941525.56, 84414.94, 0.0, 10.000946, 10.000052 
2.8778028e+3, 2.0531146e+2, -762038.94, -730154.9, 33353.75, 0.24852487, 0.04237701, -709129.06, 218832.39, 0.0, 10.001228, 10.001302 
2.877486e+3, 2.1531054e+2, -661854.2, -734816.4, 45388.004, -0.027843496, 0.2607652, -640103.5, 189865.94, 0.0, 10.001639, 10.000428 
2.8771704e+3, 2.2530535e+2, -801815.6, -1075115.5, 23141.77, -0.12443452, 0.3556154, -799869.94, -67845.836, 0.0, 10.001448, 9.997469 
2.8768563e+3, 2.3529634e+2, -984915.7, -1194783.4, -34416.883, -0.049690563, 0.13184458, -979415.7, -345295.4, 0.0, 9.999849, 9.996779 
2.876543e+3, 2.4528953e+2, -635317.2, -673942.4, 46787.02, -0.017340189, 0.13768035, -604013.56, -67824.664, 0.0, 10.000269, 9.99947 
2.8762308e+3, 2.5528392e+2, -428882.25, -620492.1, 26990.08, -0.0021911839, 0.05461781, -425153.0, 13088.005, 0.0, 10.001398, 9.998647 
2.8759176e+3, 2.65279e+2, -269314.03, -460568.22, 2764.1685, -0.004248422, 0.18195623, -269274.1, 71015.12, 0.0, 10.001741, 9.998857 
2.8756034e+3, 2.7527377e+2, -425748.1, -571704.0, 0.38156933, -0.017845234, 0.19457912, -425748.1, -183405.72, 0.0, 10.000304, 9.998158 
2.8752887e+3, 2.852692e+2, -251820.2, -125156.91, -24966.994, -0.02956721, 0.280782, -120413.24, 23975.516, 0.0, 9.999552, 10.000866 
2.8749734e+3, 2.9526448e+2, -444204.38, -278983.97, -9942.834, -0.06263043, 0.14760281, -278387.78, -231951.4, 0.0, 9.997955, 9.999965 
2.8746596e+3, 3.052609e+2, -269786.6, -51428.246, 62552.695, -0.07944467, 0.25104296, -34778.44, -34778.44, 0.0, 9.998193, 10.0007 
2.8743494e+3, 3.1525773e+2, -282226.8, -233021.25, -27818.75, 0.10234826, 0.25205764, -220486.73, -220486.73, 0.0, 9.998525, 9.99903 
2.8740314e+3, 3.252506e+2, 41046.45, -398618.84, -25936.52, -0.4137359, 0.21107158, 42571.195, 42571.195, 0.0, 10.002357, 9.995804 
2.8900057e+3, 1.356588e+2, -911878.7, -1461196.4, -29497.303, 0.3088075, 0.16231282, -910299.25, 700256.56, 0.0000000028010363, 10.005986, 9.998694 
2.889688e+3, 1.4565523e+2, -1755645.8, -1526125.0, -35789.105, -0.014755726, 0.29571882, -1520673.9, -8077.2114, 0.0, 9.998366, 10.001281 
2.889374e+3, 1.5565114e+2, -1346599.4, -1367909.1, 13714.657, -0.022731943, 0.17101996, -1339887.1, 74747.59, 0.0, 10.000835, 10.0005455 
2.8890586e+3, 1.6564612e+2, -1000980.8, -1174694.9, -93914.96, 0.052487537, 0.11627316, -959915.3, 356765.9, 0.0, 10.0026865, 10.000257 
2.8887415e+3, 1.7564023e+2, -829405.6, -1126735.1, 13607.591, 0.090036035, -0.042841833, -828784.2, 389951.84, 0.0, 10.003503, 9.999564 
2.8884262e+3, 1.8563566e+2, -665488.94, -888285.8, 143344.1, 0.11558853, 0.003727588, -595346.4, 525435.75, 0.0, 10.003564, 10.00049 
2.8881127e+3, 1.9563192e+2, -770709.4, -959506.9, 145046.5, 0.11588792, 0.05271704, -692048.56, 330774.56, 0.0, 10.002393, 9.999943 
2.8877982e+3, 2.056286e+2, -734227.56, -815790.0, 62014.434, 0.06546673, 0.20147565, -700786.8, 224072.34, 0.0, 10.001758, 10.0004835 
2.8874826e+3, 2.1562524e+2, -710599.44, -824874.9, 16826.629, -0.08412104, 0.27412915, -708173.3, 118720.87, 0.0, 10.001455, 9.999938 
2.8871676e+3, 2.2562031e+2, -683903.8, -871871.1, -10797.36, -0.100806095, 0.3352618, -683285.56, 45658.645, 0.0, 10.001503, 9.998883 
2.886853e+3, 2.356135e+2, -617058.94, -860589.94, 111529.33, -0.02719126, 0.23282112, -573701.4, 57311.703, 0.0, 10.001516, 9.99833 
2.8865397e+3, 2.4560656e+2, -391847.75, -653956.8, 292892.94, -0.02411889, 0.19779849, -202026.03, 331055.1, 0.0, 10.002259, 9.998702 
2.8862277e+3, 2.5559914e+2, -145727.72, -543198.06, 206067.14, -0.12087573, 0.062318522, -58177.48, 376974.2, 0.0, 10.003429, 9.998273 
2.8859144e+3, 2.6559374e+2, -92090.984, -283846.63, 50849.855, -0.083029196, 0.11926259, -79441.086, 257762.77, 0.0, 10.002517, 9.999701 
2.8855997e+3, 2.7558935e+2, -361028.28, -441962.75, 65729.61, 0.033214808, 0.1854595, -324307.6, -85060.016, 0.0, 10.000214, 9.999115 
2.8852847e+3, 2.8558493e+2, -264836.5, -189484.16, 69411.08, 0.070010714, 0.26414502, -148183.17, -6891.117, 0.0, 9.999544, 10.000475 
2.8849688e+3, 2.955803e+2, -144466.1, -148524.05, 21857.732, 0.040252604, 0.20313612, -124543.37, -81204.266, 0.0, 9.999918, 9.999956 
2.8846553e+3, 3.055755e+2, 28801.982, 5627.476, 178202.47, 0.017681153, 0.22227038, 195793.53, 195793.53, 0.0, 10.000534, 10.000034 
2.8843454e+3, 3.155704e+2, 64890.188, -113987.48, 170143.6, 0.17298709, 0.17181545, 167670.36, 167670.36, 0.0, 10.000986, 9.998763 
2.8840292e+3, 3.2556593e+2, -271806.84, -265142.94, 237791.36, -0.28805757, 0.37427342, -30660.18, -30660.18, 0.0, 9.998693, 9.998707 
2.9000047e+3, 1.3597614e+2, -1239310.3, -1692568.6, -495773.06, 0.16293497, 0.43616128, -920823.25, 686626.94, 0.00000000011876347, 10.004014, 9.9981 
2.8996807e+3, 1.459661e+2, -1287300.4, -1294971.5, 146618.4, -0.18177623, -0.044784397, -1144467.4, 365082.38, 0.0, 10.00158, 10.001331 
2.8993753e+3, 1.5596586e+2, -1356499.8, -1357697.8, 129808.414, 0.5071269, 0.21204346, -1227289.0, 184265.78, 0.0, 10.000738, 10.000659 
2.899061e+3, 1.6596368e+2, -1092868.3, -1015379.4, -31407.918, 0.53532255, 0.3458808, -1004248.06, 309327.6, 0.0, 10.001284, 10.00198 
2.8987393e+3, 1.7595966e+2, -1002741.06, -1058757.4, 17028.203, 0.031415917, 0.19039126, -997970.94, 217642.05, 0.0, 10.001721, 10.000879 
2.8984216e+3, 1.8595622e+2, -921293.5, -1067911.0, 93742.28, -0.20673618, 0.31677577, -875598.94, 242048.63, 0.0, 10.002082, 9.999939 
2.8981072e+3, 1.959531e+2, -972306.94, -1142980.1, 87375.0, -0.18531336, 0.45320937, -935509.5, 84172.41, 0.0, 10.00144, 9.999092 
2.8977934e+3, 2.0594719e+2, -913448.56, -1082559.8, 69071.55, -0.11501867, 0.46421918, -888823.0, 32922.23, 0.0, 10.001375, 9.998782 
2.8974798e+3, 2.1593885e+2, -936447.6, -1111727.5, 29561.084, 0.0159305, 0.18896605, -931596.4, -107763.14, 0.0, 10.00077, 9.998259 
2.897165e+3, 2.2593479e+2, -559876.0, -486945.53, 10276.663, -0.00084072584, 0.25703394, -485525.1, 240345.67, 0.0, 10.0011, 10.001646 
2.8968486e+3, 2.359331e+2, -617774.06, -642047.0, 73273.66, -0.09327658, 0.36879742, -555638.56, 72240.8, 0.0, 10.00068, 10.0001955 
2.8965357e+3, 2.45927e+2, -621407.25, -921347.3, 302860.4, -0.16917312, 0.40891004, -433419.53, 96518.195, 0.0, 10.00152, 9.997119 
2.896225e+3, 2.5591734e+2, -529128.7, -921589.75, 226469.42, -0.23255174, 0.17408255, -425701.4, 6334.0454, 0.0, 10.001792, 9.9963875 
2.8959113e+3, 2.6591128e+2, -184243.55, -240666.45, -18119.826, -0.13938504, 0.21037613, -178925.7, 155169.02, 0.0, 10.001608, 10.000383 
2.8955954e+3, 2.759074e+2, -484023.78, -493287.34, -947.6772, 0.05635818, 0.22744207, -483927.8, -247796.7, 0.0, 9.999429, 9.999125 
2.8952792e+3, 2.859029e+2, -424304.72, -378556.03, 68634.24, 0.057051014, 0.3563476, -329084.72, -190908.63, 0.0, 9.999094, 9.999345 
2.894963e+3, 2.958975e+2, -396256.75, -441694.63, 52254.375, -0.054144535, 0.330898, -361996.13, -321764.63, 0.0, 9.999078, 9.998302 
2.8946483e+3, 3.058926e+2, 151440.48, 197155.08, 210181.64, -0.26595342, 0.3303898, 385718.63, 385718.63, 0.0, 10.001025, 10.00092 
2.8943354e+3, 3.1588846e+2, 12727.514, -234428.52, 241074.48, -0.51418114, 0.29530844, 160052.5, 160052.5, 0.0, 10.001265, 9.99767 
2.8940284e+3, 3.2588288e+2, -607918.1, 24872.941, 21203.611, 0.21732876, 0.1124149, 25582.637, 25582.637, 0.0, 9.994914, 10.002161 
2.9100055e+3, 1.3629185e+2, -1341596.0, -1512792.1, -203404.67, 0.3454823, 0.16095074, -1206512.1, 397841.94, 0.0000000000007792345, 10.002292, 10.000192 
2.9096788e+3, 1.4628413e+2, -922607.56, -1261099.5, 138504.08, -0.32578295, -0.095029585, -873158.4, 633269.94, 0.0, 10.004656, 10.000107 
2.90937e+3, 1.5628219e+2, -1451279.4, -1535795.1, 122465.06, 0.32137364, 0.13036983, -1363986.4, 44468.21, 0.0, 10.000607, 9.999528 
2.9090548e+3, 1.6627993e+2, -1399890.1, -1213108.9, -1767.2944, 0.3682174, 0.326882, -1213092.1, 97387.664, 0.0, 9.999377, 10.001535 
2.9087338e+3, 1.7627704e+2, -1368179.5, -1271810.8, -295.02753, -0.13054731, 0.33874187, -1271809.9, -59301.227, 0.0, 9.999296, 10.000606 
2.9084176e+3, 1.8627265e+2, -1152786.1, -1141036.3, 51278.04, -0.23597793, 0.34841573, -1095297.6, 19253.492, 0.0, 10.000248, 10.000352 
2.908105e+3, 1.9626755e+2, -983480.25, -1099757.9, 94803.6, -0.10069932, 0.2636753, -930408.25, 86192.04, 0.0, 10.001052, 9.999609 
2.9077914e+3, 2.0626253e+2, -797981.94, -1024372.2, 96292.195, -0.017762512, 0.3325953, -762565.75, 156089.44, 0.0, 10.002032, 9.99891 
2.9074773e+3, 2.1625689e+2, -651594.0, -951023.2, 134599.11, -0.01756446, 0.33959532, -599984.5, 220735.27, 0.0, 10.002504, 9.998558 
2.907162e+3, 2.2625214e+2, -421319.84, -597463.2, 8457.33, -0.04804671, 0.4181722, -420914.72, 301852.75, 0.0, 10.002733, 10.000146 
2.9068458e+3, 2.3624796e+2, -369539.38, -608752.4, -100525.14, -0.14766468, 0.44609848, -332905.63, 291898.44, 0.0, 10.002598, 9.9995575 
2.9065326e+3, 2.4624234e+2, -439118.66, -595677.6, 116215.805, -0.1816542, 0.41879708, -377277.5, 149577.67, 0.0, 10.001613, 9.999349 
2.906222e+3, 2.562352e+2, -604689.8, -701292.25, 224159.88, -0.19640246, 0.23536687, -423686.3, 5236.0522, 0.0, 9.999993, 9.998801 
2.9059073e+3, 2.6623023e+2, -400703.25, -381725.22, 61568.77, -0.11159297, 0.28349656, -328918.53, 2052.047, 0.0, 10.0000725, 10.000249 
2.9055908e+3, 2.762267e+2, -210366.97, -323729.25, 19287.59, 0.021620292, 0.37241143, -207175.22, 25830.578, 0.0, 10.0009775, 9.9995985 
2.905274e+3, 2.8622067e+2, -214914.44, -224013.67, 134180.02, 0.014040823, 0.2977311, -85206.93, 49855.8, 0.0, 10.00024, 9.999874 
2.904957e+3, 2.9621452e+2, -513761.4, -331566.1, 221340.75, -0.052421447, 0.18118373, -183309.38, -146189.4, 0.0, 9.99735, 9.999926 
2.9200053e+3, 1.3660909e+2, -1522466.4, -1385925.9, 88116.52, 0.6369791, -0.03590203, -1342727.1, 258515.92, 0.0, 10.000172, 10.002038 
2.9196775e+3, 1.4660384e+2, -1413434.5, -1641726.6, 21563.027, -0.38130206, -0.06373315, -1411415.6, 91875.48, 0.0, 10.001931, 9.998771 
2.919364e+3, 1.5659952e+2, -1559135.0, -1738714.4, 42583.0, 0.12864546, 0.06297368, -1549549.1, -144205.13, 0.0, 10.000531, 9.998164 
2.9190475e+3, 1.665963e+2, -1325682.9, -1303901.5, 63266.043, 0.14916442, 0.28009662, -1250595.6, 56785.723, 0.0, 10.000398, 10.000451 
2.9187277e+3, 1.7659348e+2, -1317813.9, -1354274.4, 62867.85, -0.1736926, 0.4088221, -1270586.4, -61174.08, 0.0, 10.000139, 9.999646 
2.9184142e+3, 1.8658775e+2, -1037829.44, -1003072.4, 142126.61, -0.11713897, 0.28058723, -877265.75, 234200.08, 0.0, 10.000813, 10.0009575 
2.9181045e+3, 1.9658001e+2, -1000097.6, -1097228.9, 141134.33, 0.23476823, -0.13467382, -899406.75, 114129.47, 0.0, 10.000936, 9.999682 
2.917791e+3, 2.0657726e+2, -801319.56, -949410.0, 134897.94, 0.20161359, 0.12191369, -721481.25, 194087.11, 0.0, 10.001783, 9.999513 
2.9174745e+3, 2.165768e+2, -838092.25, -1079539.1, 135322.73, -0.041971464, 0.57853466, -777469.6, 40114.29, 0.0, 10.001485, 9.998163 
2.917159e+3, 2.2657014e+2, -806337.06, -1156971.5, 34333.01, -0.13527894, 0.66847014, -803006.9, -83349.62, 0.0, 10.001789, 9.996715 
2.9168433e+3, 2.3656008e+2, -809791.44, -1117788.9, -39750.813, -0.13961644, 0.42404732, -804743.9, -182981.92, 0.0, 10.000988, 9.9967985 
2.9165304e+3, 2.4655524e+2, -309588.03, -57611.797, 115284.27, -0.105124466, 0.34784454, -12826.76, 510974.97, 0.0, 10.000579, 10.003485 
2.9162186e+3, 2.5655285e+2, -589513.25, -347288.25, 181460.7, -0.04907799, 0.2048805, -250235.16, 175575.44, 0.0, 9.998726, 10.001817 
2.9159033e+3, 2.6655033e+2, -554441.75, -494825.84, 97381.45, -0.055998404, 0.38466728, -422792.47, -94957.914, 0.0, 9.999391, 9.999685 
2.9155853e+3, 2.765474e+2, -437405.2, -497401.84, 69367.016, -0.124182045, 0.5595813, -391827.84, -161958.42, 0.0, 9.99984, 9.998909 
2.915268e+3, 2.8653848e+2, -185611.81, -20426.414, 69611.11, -0.14759345, 0.120546006, 4995.9814, 136944.98, 0.0, 9.999756, 10.001437 
2.9149505e+3, 2.965334e+2, -500450.25, 36860.094, 92589.43, 0.041798793, -0.14265057, 52367.56, 86350.22, 0.0, 9.996047, 10.003049 
2.929998e+3, 1.3693093e+2, -1966846.5, -1560444.8, 22199.38, 0.47565293, 0.341439, -1559235.8, 38861.65, 0.0, 9.996947, 10.002408 
2.9296726e+3, 1.4692283e+2, -1811602.1, -1733370.3, 37262.688, -0.38429928, -0.04160149, -1718462.4, -218292.22, 0.0, 9.998701, 9.999732 
2.92936e+3, 1.5692122e+2, -1503136.8, -1636745.4, 133583.61, 0.04333305, 0.27995318, -1420584.5, -18392.064, 0.0, 10.000524, 9.998896 
2.929044e+3, 1.6691646e+2, -1118466.9, -1244876.5, 161096.97, 0.10047836, 0.33255902, -1008619.4, 295621.78, 0.0, 10.001954, 10.000126 
2.9287252e+3, 1.7691018e+2, -1002117.8, -1227271.6, 203430.58, -0.21279606, 0.16874331, -882191.94, 324110.88, 0.0, 10.002332, 9.999494 
2.9284117e+3, 1.8690482e+2, -809229.06, -975413.94, 226246.69, -0.14172453, 0.13435058, -651298.9, 457056.4, 0.0, 10.002696, 10.000264 
2.9281014e+3, 1.9689938e+2, -804627.25, -1028836.25, 196553.22, 0.1426413, 0.04298179, -690456.3, 319951.8, 0.0, 10.002312, 9.999505 
2.9277876e+3, 2.068961e+2, -697184.9, -889066.6, 144471.66, 0.1087644, 0.2477341, -619699.4, 292746.16, 0.0, 10.002416, 9.999644 
2.927471e+3, 2.1689394e+2, -699698.5, -955647.9, 133948.86, -0.16492446, 0.5411047, -642417.1, 172058.05, 0.0, 10.002031, 9.998807 
2.9271552e+3, 2.268876e+2, -723053.94, -952768.5, 148289.95, -0.18031467, 0.551103, -650342.3, 66199.03, 0.0, 10.001459, 9.998385 
2.92684e+3, 2.3687884e+2, -743235.06, -897926.25, 316643.2, -0.12042464, 0.32917303, -494627.8, 124001.37, 0.0, 10.00043, 9.998663 
2.9265267e+3, 2.4687429e+2, -459173.1, -221274.7, 376941.1, -0.032986466, 0.27114972, 55039.93, 575709.0, 0.0, 9.999802, 10.002818 
2.9262143e+3, 2.568718e+2, -480104.66, -280980.0, 193762.44, 0.05314843, 0.22328454, -162697.13, 259987.1, 0.0, 9.999232, 10.002104 
2.9258978e+3, 2.6687e+2, -516939.28, -329753.34, 141375.39, -0.06601951, 0.37850687, -253797.95, 70901.73, 0.0, 9.998882, 10.001117 
2.9255787e+3, 2.7686793e+2, -439859.53, -339663.84, 209902.48, -0.30959088, 0.52483237, -173963.53, 52758.734, 0.0, 9.998923, 10.000502 
2.9252642e+3, 2.8685814e+2, -164385.61, -99970.63, 146820.8, 0.002585406, -0.014802601, 18133.777, 146944.27, 0.0, 10.000063, 10.00087 
2.9249498e+3, 2.9685554e+2, 405517.47, 524262.72, -23183.686, 0.5182797, 0.04799865, 528628.56, 559449.0, 0.0, 10.001738, 10.003755 
2.93999e+3, 1.3725097e+2, -1732737.3, -1455358.0, -5052.57, 0.3901795, 0.62311786, -1455266.0, 139703.5, 0.0, 9.998527, 10.002397 
2.9396674e+3, 1.472413e+2, -1520923.5, -1464488.6, 30705.8, -0.28912544, 0.006636346, -1451004.0, 46051.15, 0.0, 10.000185, 10.000852 
2.9393566e+3, 1.5724272e+2, -1437595.0, -1512094.5, 44857.863, 0.12560996, 0.5075521, -1416537.3, -17493.99, 0.0, 10.000635, 9.999687 
2.9390416e+3, 1.6723655e+2, -1196307.1, -1292334.9, 47222.76, 0.15281205, 0.38652977, -1176976.3, 124124.88, 0.0, 10.001553, 9.999951 
2.9387233e+3, 1.7722684e+2, -1139395.5, -1357667.8, 85256.34, -0.12327589, -0.12070258, -1110042.1, 93150.08, 0.0, 10.001738, 9.998839 
2.9384094e+3, 1.8722276e+2, -984842.06, -1190367.1, 121820.055, -0.15932122, 0.052334275, -928230.0, 177005.88, 0.0, 10.002098, 9.999055 
2.938098e+3, 1.9722082e+2, -1034193.94, -1262413.1, 102035.46, 0.03663835, 0.412485, -995227.6, 12034.271, 0.0, 10.001366, 9.998334 
2.9377836e+3, 2.0721583e+2, -851755.1, -962085.94, 78141.45, -0.026313093, 0.46852526, -811268.5, 98046.87, 0.0, 10.001447, 9.999554 
2.9374674e+3, 2.172095e+2, -975001.2, -1078073.5, 71488.88, -0.1961629, 0.34527817, -938408.8, -127027.39, 0.0, 10.000187, 9.998846 
2.9371518e+3, 2.2720516e+2, -600302.56, -450372.97, 81015.484, -0.15344177, 0.30591005, -414960.13, 298458.47, 0.0, 10.000549, 10.0021715 
2.9368362e+3, 2.3720123e+2, -755418.1, -688525.6, 223822.89, -0.016746424, 0.17278333, -495663.8, 119784.35, 0.0, 9.99958, 10.000444 
2.9365224e+3, 2.471964e+2, -797939.1, -768480.9, 308157.1, 0.050696164, 0.21373668, -474701.1, 42795.855, 0.0, 9.999321, 9.999193 
2.936209e+3, 2.571916e+2, -876163.9, -762404.1, 166620.8, 0.11842861, 0.25291675, -643222.06, -223672.58, 0.0, 9.99796, 9.999364 
2.9358912e+3, 2.6718947e+2, -406700.7, 26096.42, 132284.58, -0.13758779, 0.3172852, 63326.617, 384890.78, 0.0, 9.998409, 10.003786 
2.9355705e+3, 2.7718806e+2, -537371.25, -245608.56, 215287.06, -0.5262651, 0.2603169, -131432.45, 92136.01, 0.0, 9.997797, 10.001666 
2.9352635e+3, 2.8717938e+2, -418814.97, -491291.3, 194245.19, 0.3983966, -0.07695567, -257456.58, -131804.61, 0.0, 9.999668, 9.99829 
2.9349482e+3, 2.9717577e+2, 90130.35, 147699.27, 258323.67, 0.5893379, 0.14704897, 378837.22, 406522.9, 0.0, 10.000866, 10.001481 
2.9499838e+3, 1.3756277e+2, -1510890.8, -1291303.9, 31400.77, 0.15502894, 0.38223886, -1286901.9, 305012.03, 0.0, 9.999768, 10.002959 
2.9496646e+3, 1.4755607e+2, -1389019.1, -1534201.3, -130490.08, -0.28896764, 0.10036038, -1312288.0, 181684.45, 0.0, 10.001665, 9.999673 
2.9493532e+3, 1.575527e+2, -1522979.5, -1651066.6, -156101.67, 0.14581318, 0.23916346, -1418294.5, -22286.223, 0.0, 10.000407, 9.99888 
2.949038e+3, 1.6754822e+2, -1289869.0, -1356099.0, -160222.19, 0.145302, 0.30163234, -1159375.5, 138678.31, 0.0, 10.000911, 9.999859 
2.94872e+3, 1.7754292e+2, -1175273.4, -1364221.6, -131545.95, -0.24680738, 0.24149789, -1107791.6, 92314.73, 0.0, 10.001354, 9.999004 
2.9484057e+3, 1.8753849e+2, -1037749.1, -1228525.4, -106429.08, -0.2461305, 0.35193694, -990217.56, 111935.33, 0.0, 10.001682, 9.999029 
2.9480943e+3, 1.9753456e+2, -1007542.2, -1196572.0, -92548.73, -0.07174767, 0.5109306, -969775.8, 34419.758, 0.0, 10.001192, 9.998905 
2.9477802e+3, 2.0752957e+2, -881843.75, -820982.5, -104868.83, 0.010428124, 0.44262293, -742218.4, 164026.31, 0.0, 10.000425, 10.001087 
2.9474646e+3, 2.1752381e+2, -998794.56, -904825.06, -45097.55, -0.018575171, 0.24076055, -886684.1, -78384.375, 0.0, 9.999064, 10.000621 
2.9471496e+3, 2.2752084e+2, -609710.7, -409947.0, -58897.207, 0.04514087, 0.23240489, -393875.13, 316447.16, 0.0, 10.000226, 10.002637 
2.9468343e+3, 2.3751889e+2, -307443.47, -376954.03, -106395.17, 0.11490136, 0.23877645, -230270.81, 382061.94, 0.0, 10.00211, 10.001392 
2.9465178e+3, 2.475146e+2, -511271.0, -641086.44, -12147.827, 0.029150296, 0.27050295, -510144.0, 4231.806, 0.0, 10.001153, 9.999283 
2.9462016e+3, 2.5750914e+2, -622111.4, -596432.5, 38022.48, -0.080940895, 0.2556218, -569140.1, -152706.0, 0.0, 9.999309, 9.999928 
2.9458857e+3, 2.675059e+2, -275253.1, 66525.875, -12997.177, -0.069732144, 0.18038787, 67019.42, 385479.63, 0.0, 9.999277, 10.003713 
2.9455692e+3, 2.7750364e+2, -218666.13, -80234.445, -101056.914, -0.12039234, 0.04822084, -26962.195, 193510.3, 0.0, 9.999776, 10.001896 
2.9452595e+3, 2.8749728e+2, -231236.69, -467026.78, -24058.807, 0.4510544, -0.06290514, -228806.89, -106271.88, 0.0, 10.001036, 9.997902 
2.9449388e+3, 2.9749423e+2, 297773.72, 251495.22, 185008.63, -0.07808706, 0.28595406, 461084.5, 485650.63, 0.0, 10.001931, 10.001779 
2.959979e+3, 1.3787417e+2, -1527078.9, -1299153.6, 248147.64, 0.11510634, 0.1415442, -1140050.8, 448809.66, 0.00000000001490612, 9.999707, 10.002932 
2.959662e+3, 1.4786988e+2, -1540871.4, -1742840.9, -106713.15, -0.2004911, 0.1918842, -1494935.8, -4036.8994, 0.0, 10.001267, 9.998425 
2.9593498e+3, 1.5786079e+2, -1516580.8, -1768925.1, -80912.93, 0.2652495, -0.10349171, -1492865.3, -99873.27, 0.0, 10.000987, 9.997793 
2.959034e+3, 1.678585e+2, -1226898.9, -1343708.9, -33009.9, 0.15713903, 0.227798, -1218215.9, 76805.23, 0.0, 10.001415, 9.999704 
2.9587162e+3, 1.7785826e+2, -1206991.5, -1387648.6, -9260.793, -0.27559894, 0.6901244, -1206518.1, -9487.267, 0.0, 10.001212, 9.998913 
2.958402e+3, 1.8785289e+2, -1024013.1, -1160708.6, -11001.464, -0.29618025, 0.6704344, -1023133.4, 75951.54, 0.0, 10.001628, 9.999463 
2.958091e+3, 1.9784558e+2, -1070993.6, -1194089.0, -8971.537, -0.032628275, 0.46002108, -1070343.3, -69187.44, 0.0, 10.000715, 9.999134 
2.9577774e+3, 2.0784137e+2, -777151.4, -556000.0, -82761.55, 0.1703157, 0.341897, -528458.1, 374734.38, 0.0, 10.00037, 10.002861 
2.957462e+3, 2.1783789e+2, -1035399.44, -838324.0, -48515.54, 0.33138147, 0.18665197, -827028.0, -21807.385, 0.0, 9.998626, 10.001229 
2.9571477e+3, 2.2783536e+2, -741261.5, -599520.94, 21351.19, 0.3307821, 0.26095107, -596374.56, 110867.18, 0.0, 9.999951, 10.001422 
2.956833e+3, 2.3783368e+2, -599344.44, -597377.7, -62558.82, 0.29601884, 0.3904554, -535794.5, 73460.72, 0.0, 10.000561, 10.000617 
2.9565132e+3, 2.4783029e+2, -453166.03, -346779.8, -84278.26, -0.05481731, 0.38082156, -300311.84, 210973.34, 0.0, 10.000503, 10.001569 
2.9561925e+3, 2.578256e+2, -761817.44, -595553.1, -4050.0618, -0.42225975, 0.2212233, -595454.56, -182126.36, 0.0, 9.998201, 10.0004225 
2.955882e+3, 2.6782027e+2, -530684.8, -309034.88, 6167.3745, 0.09644088, 0.046755094, -308863.38, 6515.233, 0.0, 9.998732, 10.001316 
2.9555723e+3, 2.778153e+2, -546305.4, -461390.63, -74487.63, 0.71242875, -0.12767567, -418109.8, -200684.05, 0.0, 9.998654, 9.999768 
2.955251e+3, 2.8781277e+2, -184761.53, -241044.45, 32452.768, -0.03398345, 0.081156224, -169948.1, -50499.12, 0.0, 10.000651, 9.999542 
2.9549336e+3, 2.9780775e+2, 183513.28, 351246.4, -65124.434, -0.3764865, 0.029036475, 373562.7, 395055.66, 0.0, 10.00067, 10.003026 
2.9699728e+3, 1.3819145e+2, -1803225.6, -1787905.8, 209574.08, -0.11716111, 0.32197383, -1585851.6, -101.52334, 0.00000010737005, 9.999335, 9.999755 
2.9696608e+3, 1.4818883e+2, -1556742.5, -1637636.3, 5747.355, 0.046483956, 0.5801578, -1556336.1, -68558.28, 0.0, 10.000637, 9.999457 
2.9693452e+3, 1.5817964e+2, -1271655.9, -1560202.6, 75792.04, 0.0107419845, 0.20015389, -1252959.1, 136905.69, 0.0, 10.002231, 9.998642 
2.96903e+3, 1.6817501e+2, -1042307.56, -1254952.9, 124387.38, -0.043179452, 0.26708108, -984994.25, 306918.38, 0.0, 10.002634, 9.999757 
2.968714e+3, 1.781717e+2, -1008405.44, -1241567.8, 144637.83, -0.299539, 0.4420691, -939214.5, 254734.69, 0.0, 10.002287, 9.9994135 
2.9684e+3, 1.8816684e+2, -803548.75, -915275.6, 156368.8, -0.26261744, 0.39138058, -693364.25, 402632.4, 0.0, 10.002453, 10.0007925 
2.9680878e+3, 1.9816105e+2, -822599.6, -988631.6, 178607.1, -0.106641985, 0.23425418, -708658.4, 289393.6, 0.0, 10.001918, 10.000005 
2.9677725e+3, 2.0815705e+2, -706978.0, -743688.5, 17057.02, 0.019386737, 0.25816157, -700276.2, 199815.75, 0.0, 10.001754, 10.000937 
2.967456e+3, 2.1815382e+2, -672705.6, -755066.4, -69498.29, 0.08390036, 0.3174567, -633103.4, 169020.77, 0.0, 10.001376, 10.000519 
2.9671413e+3, 2.2815008e+2, -536133.06, -512308.53, 29172.709, 0.0640236, 0.30031517, -492709.72, 211447.72, 0.0, 10.001235, 10.001492 
2.9668266e+3, 2.3814642e+2, -487300.2, -476650.34, -22341.38, -0.025041012, 0.2438015, -459008.06, 147181.14, 0.0, 10.000868, 10.001341 
2.966508e+3, 2.481437e+2, -422042.34, -253357.3, -124186.11, -0.1369377, 0.23899247, -187580.36, 320632.16, 0.0, 10.0002575, 10.002374 
2.966189e+3, 2.58141e+2, -478088.8, -368108.44, -120560.19, -0.24113214, 0.21589641, -290589.47, 119646.26, 0.0, 9.999588, 10.001341 
2.9658785e+3, 2.681368e+2, -416097.63, -345145.7, -7698.802, 0.29363072, 0.16809268, -344319.94, -32041.223, 0.0, 9.999727, 10.00068 
2.965569e+3, 2.78132e+2, -328615.06, -364631.72, 22284.625, 0.86474144, 0.10164738, -317971.97, -103643.04, 0.0, 9.999965, 9.999878 
2.9652455e+3, 2.8812942e+2, -182702.14, -177243.48, 101401.11, -0.15410846, 0.2822811, -78534.98, 37816.43, 0.0, 10.000268, 10.000266 
2.9649347e+3, 2.981221e+2, 221087.36, 398738.6, -238899.05, 0.11064213, -0.0102669075, 564790.9, 583205.2, 0.0, 10.000649, 10.003432 
2.979969e+3, 1.385083e+2, -1961162.8, -2154928.8, -1685.6508, -0.012544136, 0.52818763, -1961148.1, -378501.56, 0.00000019973128, 9.999493, 9.997183 
2.9796594e+3, 1.4850724e+2, -1347498.1, -1358821.6, 11438.953, 0.29271907, 0.9247739, -1340396.5, 144265.38, 0.000000000008976791, 10.001337, 10.001041 
2.9793414e+3, 1.5849946e+2, -1076546.9, -1351453.6, 55816.934, -0.17305332, 0.51487017, -1065646.1, 321081.3, 0.0, 10.003117, 9.999677 
2.9790267e+3, 1.6849245e+2, -1011617.3, -1218215.5, 59417.957, -0.18768355, 0.29164675, -995747.6, 293044.5, 0.0, 10.002835, 9.99991 
2.9787126e+3, 1.784852e+2, -1178584.6, -1332155.3, 115319.74, -0.16824958, 0.06645363, -1116825.3, 74035.77, 0.0, 10.0012045, 9.999342 
2.9783988e+3, 1.8848136e+2, -889166.1, -824337.2, 80640.75, -0.13477342, 0.042494033, -769840.06, 323056.9, 0.0, 10.001352, 10.001956 
2.978085e+3, 1.9847861e+2, -1032195.7, -1102782.1, 49902.723, -0.07179748, 0.064364724, -1006366.94, -11444.252, 0.0, 10.000612, 9.999849 
2.977767e+3, 2.08474e+2, -1043906.3, -1276784.3, -48873.145, -0.18334097, 0.22088712, -1034065.3, -137088.8, 0.0, 10.000997, 9.99767 
2.9774487e+3, 2.1846999e+2, -1054717.5, -1176379.5, -45434.695, -0.24926364, 0.49060455, -1039622.75, -240596.88, 0.0, 9.999864, 9.998362 
2.9771334e+3, 2.284651e+2, -646273.06, -464751.1, 51400.266, -0.36073565, 0.35768375, -451207.03, 249862.33, 0.0, 10.000208, 10.002259 
2.9768175e+3, 2.3845886e+2, -771849.6, -625923.75, -18070.725, -0.4786307, -0.0011657731, -623719.25, -20597.035, 0.0, 9.999121, 10.001139 
2.976503e+3, 2.4845637e+2, -612582.2, -347564.5, -140444.52, -0.16003713, 0.018608717, -286984.63, 218160.73, 0.0, 9.999143, 10.002212 
2.976189e+3, 2.5845575e+2, -781047.06, -600147.0, -110236.766, 0.30016035, 0.24517436, -548001.94, -140849.48, 0.0, 9.998033, 10.000485 
2.975875e+3, 2.684547e+2, -452819.13, -275228.38, -4301.798, 0.4568186, 0.48198542, -275124.22, 34042.94, 0.0, 9.999261, 10.001333 
2.97556e+3, 2.7845258e+2, -538998.75, -505833.66, 27002.576, 0.43586135, 0.6189908, -490728.34, -279535.4, 0.0, 9.998883, 9.999408 
2.9752445e+3, 2.8844607e+2, -358284.22, -325742.06, 85437.62, 0.16723278, 0.4526698, -255039.97, -141786.6, 0.0, 9.999522, 9.9995575 
2.9749322e+3, 2.9844147e+2, -52708.242, 138887.77, 37999.04, 0.20854163, 0.48519704, 146148.89, 161440.02, 0.0, 9.999648, 10.002048 
2.989972e+3, 1.3880949e+2, -1967625.3, -1916509.4, -120014.27, 0.6607629, -0.33278966, -1819361.9, -239660.55, 0.000000019519112, 9.998453, 9.999367 
2.9896533e+3, 1.4880928e+2, -1211593.8, -1063602.6, 19206.705, -0.056787074, -0.07588353, -1061150.5, 420554.3, 0.0, 10.001335, 10.003103 
2.9893407e+3, 1.5880331e+2, -899769.9, -1129310.5, 12896.534, -0.22231816, -0.4821283, -899047.6, 484703.9, 0.0, 10.003715, 10.000932 
2.989026e+3, 1.6880135e+2, -1024193.8, -1155751.6, -119872.445, -0.08276571, -0.27658245, -953238.4, 332526.7, 0.0, 10.002443, 10.00054 
2.98871e+3, 1.7880008e+2, -1353793.3, -1382297.8, -20920.318, -0.10184904, 0.03841725, -1342731.8, -154957.66, 0.0, 9.999834, 9.9996605 
2.9883954e+3, 1.8879682e+2, -1224654.9, -1177665.5, -52967.184, -0.07878313, 0.18235473, -1143216.1, -53408.54, 0.0, 9.9998665, 10.000271 
2.9880822e+3, 1.9879356e+2, -1252410.9, -1219771.6, -211843.33, 0.048380774, 0.30899233, -1023620.25, -31778.205, 0.0, 9.999088, 9.999789 
2.987766e+3, 2.08789e+2, -1029265.56, -966192.94, -153329.7, 0.11689394, 0.28291142, -841190.0, 52701.77, 0.0, 9.999736, 10.000443 
2.987448e+3, 2.1878299e+2, -819898.44, -843194.06, 47388.33, 0.044912178, 0.1259481, -782747.4, 13208.797, 0.0, 10.000381, 10.000436 
2.9871336e+3, 2.2877932e+2, -648957.6, -475202.7, 143715.67, 0.121228755, 0.07454254, -394145.97, 303845.75, 0.0, 10.000097, 10.002318 
2.98682e+3, 2.3877746e+2, -678710.2, -532089.56, 27283.084, 0.2380381, 0.1544614, -527177.3, 72829.516, 0.0, 9.999415, 10.00169 
2.9865006e+3, 2.4877317e+2, -725522.0, -473558.7, -99234.58, 0.18321976, 0.045867186, -439169.28, 62876.188, 0.0, 9.998605, 10.001668 
2.986181e+3, 2.587675e+2, -779134.7, -636779.9, -19836.404, 0.13104762, -0.1512921, -634067.44, -229968.53, 0.0, 9.998032, 10.000319 
2.9858688e+3, 2.6876575e+2, -340144.7, -349801.03, 55260.047, 0.32031634, 0.13898543, -289502.28, 16619.006, 0.0, 10.000523, 10.000321 
2.985556e+3, 2.7876514e+2, 115111.53, -148873.31, -56751.83, 0.38558757, 0.53079915, 126795.03, 334928.63, 0.0, 10.003041, 9.999968 
2.9852408e+3, 2.8875163e+2, 111634.2, 15612.792, 32773.82, 0.2293576, -0.42543334, 121753.96, 232014.53, 0.0, 10.00211, 10.000849 
2.984926e+3, 2.98752e+2, -86149.44, -74752.516, 248219.13, 0.041347463, 0.094147645, 167833.56, 180084.38, 0.0, 9.999901, 10.000727 
2.9999664e+3, 1.391337e+2, -1803513.9, -1737803.4, 102643.87, 0.64353824, 0.8324744, -1662884.6, -86354.88, 0.0, 9.998907, 10.000448 
2.9996452e+3, 1.4912869e+2, -1703462.8, -1455266.9, 118906.625, -0.43282086, 0.67198884, -1407495.5, 71085.01, 0.0, 9.9986105, 10.001665 
2.9993427e+3, 1.5912545e+2, -1502888.0, -1437613.3, -385368.84, 0.12136012, 0.6037308, -1083502.3, 297101.16, 0.0, 9.999515, 10.000804 
2.9990244e+3, 1.6912149e+2, -1314999.6, -1087904.8, -408736.06, 0.099524446, 0.4011841, -777237.44, 505397.03, 0.0, 9.999475, 10.002328 
2.9987058e+3, 1.7911908e+2, -1419150.5, -1473262.3, 32390.658, -0.041245505, 0.42809376, -1404002.4, -219349.7, 0.0, 9.999515, 9.999184 
2.99839e+3, 1.8911129e+2, -923173.7, -1331082.1, 82709.95, -0.21964362, 0.257909, -907040.94, 179693.8, 0.0, 10.003148, 9.997554 
2.9980746e+3, 1.9910029e+2, -257234.55, -924019.9, -71775.55, -0.3328799, -0.10172979, -249595.83, 739254.06, 0.0, 10.00663, 9.998159 
2.99776e+3, 2.0910363e+2, -257626.58, -114044.4, -129085.875, -0.04141843, 0.37987936, -38129.28, 852685.75, 0.0, 10.003016, 10.004579 
2.9974434e+3, 2.1910538e+2, -968964.56, -791770.9, -100597.266, 0.027856125, 0.6501046, -746318.44, 46476.52, 0.0, 9.99883, 10.00148 
2.9971263e+3, 2.2909786e+2, -859925.75, -679835.7, -134151.48, -0.12947486, 0.18262622, -608311.1, 86563.75, 0.0, 9.999155, 10.001204 
2.9968143e+3, 2.3909876e+2, -770379.25, -681300.0, -204225.23, 0.18885155, 0.5600307, -516813.97, 80058.31, 0.0, 9.999287, 10.000637 
2.9964945e+3, 2.4909933e+2, 103181.6, -136648.17, 85837.83, 0.18762536, 0.9344016, 130737.77, 629595.56, 0.0, 10.004632, 10.000908 
2.9961705e+3, 2.5908846e+2, -1097.9464, -525713.2, 89823.48, -0.2927823, 0.29965287, 13855.22, 414809.66, 0.0, 10.0046, 9.997807 
2.9958653e+3, 2.6907945e+2, 163876.92, -396659.7, 60525.277, 0.39201015, 0.05716306, 170337.81, 473386.03, 0.0, 10.005438, 9.997397 
2.9955575e+3, 2.7907813e+2, -649831.94, -645845.06, -41515.668, 0.65504557, 0.5999847, -606275.0, -401207.38, 0.0, 9.998435, 9.998671 
2.995235e+3, 2.8907287e+2, 95839.08, 284948.22, 97828.87, -0.036583748, 0.28014648, 326448.97, 433559.5, 0.0, 10.00106, 10.002984 
2.994924e+3, 2.99069e+2, -258999.0, -423303.94, -273059.2, 0.31259522, 0.22407019, -56001.758, -46858.434, 0.0, 10.000183, 9.997973 
