coord_x,coord_y,stress_xx,stress_yy,tau_xy,velocity_x,velocity_y,stress_1,eps,damage,lx,ly
4.9998245e+0, 1.2569134e+2, -1549077.0, -1517717.9, 87594.664, -0.048067935, -0.09367556, -1444410.5, 263809.8, 0.0027102246, 10.000422, 10.001147 
5.000112e+0, 1.3569483e+2, -1542344.1, -1547088.4, 20596.908, -0.0053100297, 0.09481116, -1523983.3, 86198.516, 0.0016001622, 10.000231, 10.000347 
5.0003797e+0, 1.4569172e+2, -1503256.4, -1603125.1, 36607.035, 0.012783731, -0.17683038, -1491275.4, 20935.732, 0.00071385584, 10.000391, 9.999196 
5.000581e+0, 1.5569252e+2, -1334722.8, -1467470.3, 41736.746, 0.010024532, -0.102039695, -1322691.0, 91513.87, 0.00020880907, 10.000864, 9.9992285 
5.000738e+0, 1.6569303e+2, -1207540.6, -1329782.8, 43981.973, 0.021238048, 0.018188488, -1193361.0, 122839.914, 0.00003056022, 10.000961, 9.9994545 
5.000819e+0, 1.7569202e+2, -1152907.9, -1270176.3, 10956.888, 0.040432174, -0.09368515, -1151892.9, 66318.36, 0.0000010193884, 10.000738, 9.999301 
5.000531e+0, 1.8569155e+2, -1052145.0, -1184196.9, 36592.547, 0.006881931, -0.057804998, -1042682.94, 77534.484, 0.0, 10.000828, 9.99917 
4.9999508e+0, 1.9569136e+2, -910884.7, -1076693.9, 38996.508, -0.06793639, -0.05783454, -902171.0, 120050.43, 0.0, 10.001171, 9.999077 
5.0001264e+0, 2.0569173e+2, -755253.1, -884508.7, 19853.123, -0.056144558, 0.04819244, -752272.5, 171945.7, 0.0, 10.001286, 9.99966 
5.0008357e+0, 2.1569191e+2, -676785.9, -818804.7, -55928.605, 0.016560515, 0.033505134, -657405.3, 168810.0, 0.0, 10.001248, 9.999458 
5.000989e+0, 2.2569102e+2, -651346.06, -891458.25, -41282.516, 0.027797827, 0.07186692, -644446.6, 83777.15, 0.0, 10.00134, 9.998243 
5.00075e+0, 2.35689e+2, -530063.0, -785569.25, -20057.945, -0.005263026, -0.025250396, -528498.0, 101745.85, 0.0, 10.001511, 9.998217 
5.000684e+0, 2.4568753e+2, -367034.2, -588920.7, -8765.028, -0.018810913, -0.019848568, -366688.47, 165566.98, 0.0, 10.001663, 9.998819 
5.00075e+0, 2.5568593e+2, -272330.16, -528646.75, -49099.504, -0.019427123, -0.12761998, -263246.66, 171019.73, 0.000000000017365094, 10.001792, 9.998503 
5.000845e+0, 2.656835e+2, -249717.3, -665220.9, -13620.124, -0.026411291, -0.114450924, -249271.3, 87019.26, 0.000000288742, 10.002131, 9.996721 
5.000973e+0, 2.7568045e+2, -79626.44, -527496.94, 13001.575, -0.03786674, -0.15844345, -79249.32, 159075.66, 0.0000033591298, 10.002604, 9.996766 
5.0010055e+0, 2.8567863e+2, 66083.33, -281280.5, 17053.627, -0.023715787, -0.075882986, 66918.56, 207261.78, 0.000018802597, 10.002395, 9.997877 
5.0008744e+0, 2.9567596e+2, 79931.94, -209654.23, 776.127, -0.005475313, -0.20282876, 79934.016, 122300.02, 0.000081046455, 10.001729, 9.998023 
5.0010103e+0, 3.0567625e+2, 133861.05, -257831.08, 26451.441, -0.01323042, 0.053440906, 135639.27, 135639.27, 0.0003038914, 10.002186, 9.997138 
5.0014406e+0, 3.156718e+2, 395371.6, 38161.08, -6955.858, -0.024702009, -0.15339336, 395507.0, 395507.0, 0.00078894256, 10.00315, 9.9987335 
1.4999457e+1, 1.2569231e+2, -1689521.6, -1705653.1, 31778.89, -0.14179462, -0.233057, -1664800.9, 43401.4, 0.0026043395, 10.000046, 10.000057 
1.5000433e+1, 1.3569441e+2, -1638611.1, -1687925.1, 31222.889, -0.0013613189, -0.012028567, -1623483.3, -13300.703, 0.0015429672, 10.000034, 9.999501 
1.500112e+1, 1.456917e+2, -1489664.8, -1507505.9, 39396.973, 0.03817243, -0.24696182, -1458191.1, 54017.957, 0.0006869522, 10.0001335, 9.999991 
1.5001723e+1, 1.5569289e+2, -1320999.3, -1383237.4, 75710.875, 0.029666767, -0.16869807, -1270261.5, 143934.95, 0.0001968844, 10.000658, 9.999919 
1.5002222e+1, 1.6569301e+2, -1270148.0, -1397336.1, 20462.578, 0.06744336, -0.099776715, -1266937.0, 49259.668, 0.000026649353, 10.00073, 9.999116 
1.5002494e+1, 1.7569157e+2, -1199907.9, -1314795.5, 19091.791, 0.12621127, -0.18240796, -1196818.3, 21395.566, 0.00000066228677, 10.000535, 9.999109 
1.500156e+1, 1.856914e+2, -1050621.9, -1110705.6, 34197.99, 0.020848291, -0.14529897, -1035144.3, 85072.05, 0.0, 10.000569, 9.999808 
1.4999841e+1, 1.9569212e+2, -915274.2, -1020067.06, 67566.09, -0.20093502, -0.0803824, -882168.8, 140039.31, 0.0, 10.000926, 9.999595 
1.5000357e+1, 2.0569131e+2, -897928.6, -1116239.9, 5348.416, -0.16917832, -0.038721733, -897797.7, 26420.313, 0.0, 10.001045, 9.998195 
1.5002482e+1, 2.1568912e+2, -803079.7, -1016689.06, -39838.0, 0.048268456, -0.10913479, -795891.8, 30352.084, 0.0, 10.001005, 9.998227 
1.5002957e+1, 2.2568803e+2, -609719.75, -740311.56, -52071.535, 0.086785495, -0.10054954, -591499.2, 136755.39, 0.0, 10.001101, 9.999408 
1.5002218e+1, 2.3568763e+2, -498208.78, -651671.94, 2325.7434, -0.01549609, -0.10766954, -498173.53, 132081.36, 0.0, 10.001258, 9.999267 
1.5002066e+1, 2.4568668e+2, -443414.38, -692994.06, -19526.914, -0.053726293, -0.06844176, -441895.84, 90366.875, 0.0, 10.00146, 9.998217 
1.5002242e+1, 2.5568503e+2, -338548.6, -596528.9, -29509.121, -0.055881854, -0.08463607, -335216.22, 99062.586, 0.0, 10.001526, 9.998177 
1.5002544e+1, 2.656836e+2, -191725.27, -488162.13, -9924.145, -0.07652989, -0.03426641, -191393.39, 144900.25, 0.00000013049092, 10.001927, 9.998047 
1.5002944e+1, 2.7568227e+2, -38718.01, -375576.1, 39873.793, -0.110210516, 0.003940863, -34062.504, 204245.23, 0.0000024373799, 10.002348, 9.997945 
1.5002978e+1, 2.856802e+2, 31285.986, -299019.75, -21912.21, -0.072378226, 0.010540694, 32733.281, 173060.23, 0.000015368285, 10.002197, 9.997865 
1.500261e+1, 2.9567653e+2, 32505.959, -232511.67, 4800.2085, -0.018068668, -0.18036008, 32592.877, 74952.625, 0.000069496324, 10.001427, 9.998029 
1.500312e+1, 3.0567563e+2, 87551.68, -273295.53, 52292.168, -0.022508625, -0.035937026, 94976.81, 94976.81, 0.00026841622, 10.001932, 9.997177 
1.5004303e+1, 3.1567165e+2, 329689.75, 41586.34, 64867.41, -0.06591426, -0.1408083, 343621.2, 343621.2, 0.0007052667, 10.002641, 9.999029 
2.5000322e+1, 1.2569357e+2, -1637620.1, -1711379.5, -30650.979, -0.067380674, -0.17527369, -1626545.8, 81644.47, 0.0024837567, 10.000577, 9.999727 
2.500085e+1, 1.3569437e+2, -1580047.5, -1694849.6, -13482.882, 0.02262698, -0.07044043, -1578485.3, 31697.855, 0.0014731403, 10.000634, 9.999142 
2.5001615e+1, 1.4569223e+2, -1403147.9, -1462778.8, 57767.688, 0.05664179, -0.23262297, -1367955.1, 144249.23, 0.00065158884, 10.000748, 9.999984 
2.500283e+1, 1.556935e+2, -1278227.0, -1368369.5, 13501.498, 0.068766885, -0.15541601, -1276248.1, 137943.52, 0.0001815959, 10.000998, 9.9998455 
2.5003198e+1, 1.656937e+2, -1236719.8, -1389697.4, -18474.693, 0.08841476, -0.06764193, -1234520.3, 81671.19, 0.000022322774, 10.001003, 9.999024 
2.500293e+1, 1.7569247e+2, -1161685.9, -1299625.3, -15315.317, 0.111732356, -0.13547438, -1160005.9, 58200.81, 0.00000035252413, 10.000834, 9.99905 
2.5002304e+1, 1.8569216e+2, -990116.44, -1088949.1, 44297.336, 0.026071647, -0.10645396, -973168.44, 147041.36, 0.0, 10.001012, 9.999733 
2.500154e+1, 1.9569245e+2, -860947.44, -1000631.3, 9864.221, -0.1331727, -0.091287054, -860254.25, 161950.1, 0.0, 10.001333, 9.999513 
2.5002155e+1, 2.0569128e+2, -863346.8, -1138965.5, 8247.386, -0.10565537, -0.06281056, -863100.25, 61117.156, 0.0, 10.001461, 9.99783 
2.5003752e+1, 2.1568872e+2, -772210.2, -1044994.4, 30806.271, 0.06375321, -0.14092726, -768774.44, 57472.902, 0.0, 10.00141, 9.997831 
2.500414e+1, 2.2568755e+2, -561969.6, -730127.8, 53729.2, 0.08382077, -0.11424275, -546268.4, 181991.0, 0.0, 10.001483, 9.999274 
2.5003657e+1, 2.3568721e+2, -457011.56, -651853.94, -1289.1458, -0.0072286157, -0.11565701, -457003.03, 173256.58, 0.0, 10.0016165, 9.999081 
2.500373e+1, 2.4568622e+2, -432277.4, -688669.0, -583.5944, -0.030322248, -0.067914, -432276.1, 99991.89, 0.0, 10.001571, 9.99817 
2.5004166e+1, 2.5568444e+2, -356886.3, -607015.1, 12784.05, -0.00013685052, -0.10338349, -356234.63, 78050.76, 0.0, 10.001422, 9.998136 
2.500465e+1, 2.6568326e+2, -243200.3, -465014.63, 64229.67, -0.02197679, -0.04803239, -225944.1, 110352.7, 0.00000003137998, 10.001391, 9.998449 
2.5005156e+1, 2.7568242e+2, -141982.08, -386358.7, 28259.08, -0.070172794, -0.0074137324, -138756.83, 99547.53, 0.0000016497497, 10.00149, 9.998274 
2.500509e+1, 2.8568038e+2, -24956.95, -357795.72, -32606.365, -0.058333974, 0.0011783235, -21792.766, 118530.9, 0.000012071121, 10.001959, 9.997564 
2.5004622e+1, 2.9567674e+2, 177048.72, -199737.97, -46680.59, -0.0048302445, -0.16990459, 182745.89, 225103.88, 0.00005739791, 10.002612, 9.997667 
2.5005305e+1, 3.0567533e+2, 180102.95, -172130.84, 67952.65, 0.00021221375, -0.07745625, 192757.67, 192757.67, 0.00023072664, 10.002347, 9.997669 
2.5007132e+1, 3.1567144e+2, 157215.33, 6981.096, 66855.72, 0.048774496, -0.25586814, 182657.98, 182657.98, 0.000617959, 10.001291, 9.999407 
3.5001996e+1, 1.2569496e+2, -1624436.5, -1634189.6, -83152.56, -0.03327885, -0.0008384629, -1546017.6, 162168.31, 0.0023583595, 10.0003805, 10.000351 
3.50009e+1, 1.356947e+2, -1548882.9, -1606118.9, -86.444016, -0.07477672, -0.04965311, -1548882.8, 61300.527, 0.0013953737, 10.000552, 9.9997835 
3.5001418e+1, 1.4569312e+2, -1461918.5, -1547314.1, 48365.723, -0.082954735, -0.15684222, -1440100.0, 72098.516, 0.0006105934, 10.000596, 9.999472 
3.500346e+1, 1.5569429e+2, -1318853.1, -1425809.4, 38302.207, -0.0075239968, -0.035722166, -1306551.5, 107639.39, 0.00016453842, 10.000901, 9.999489 
3.5003364e+1, 1.6569497e+2, -1215219.5, -1319394.4, -43469.324, -0.033513106, 0.083309405, -1199463.9, 116722.52, 0.000017966355, 10.000887, 9.999571 
3.5001752e+1, 1.7569451e+2, -1143307.8, -1243815.0, -3305.0994, -0.12721394, 0.049091287, -1143199.1, 74992.445, 0.00000014192928, 10.000755, 9.999476 
3.5002404e+1, 1.8569359e+2, -1043412.3, -1159817.9, 41335.137, -0.09935405, 0.023288237, -1030227.75, 89972.02, 0.0, 10.000851, 9.999319 
3.500468e+1, 1.9569229e+2, -903466.4, -1052525.4, 36442.656, 0.012460204, -0.07199323, -895033.75, 127176.67, 0.0, 10.001185, 9.999225 
3.5005185e+1, 2.0569152e+2, -815525.1, -999106.94, -11582.7295, 0.020955624, -0.04794755, -814797.25, 109420.195, 0.0, 10.001294, 9.998871 
3.5004312e+1, 2.1569075e+2, -734733.8, -923593.5, 44979.848, -0.05309046, -0.04260706, -724568.3, 101657.18, 0.0, 10.001229, 9.99875 
3.5004196e+1, 2.2568956e+2, -668768.5, -900536.56, 47715.51, -0.09035048, -0.002192141, -659329.44, 68909.09, 0.0, 10.001276, 9.998199 
3.500467e+1, 2.3568791e+2, -553085.9, -797340.8, 19136.04, -0.10161382, -0.020049283, -551595.75, 78660.57, 0.0, 10.001401, 9.998179 
3.5005367e+1, 2.4568622e+2, -405311.7, -597625.7, -19963.127, -0.054479077, -0.038869895, -403261.28, 129009.52, 0.0, 10.001418, 9.998872 
3.500618e+1, 2.556842e+2, -340060.06, -526953.4, 24675.912, 0.0255766, -0.16063857, -336856.94, 97428.48, 0.0, 10.001234, 9.9987755 
3.50068e+1, 2.6568255e+2, -276461.16, -510757.53, 54167.17, 0.02295297, -0.16690923, -264544.3, 71754.76, 0.0000000045955626, 10.001289, 9.998182 
3.5007167e+1, 2.7568102e+2, -179463.31, -429364.2, 52330.676, -0.054102596, -0.16917114, -168947.47, 69365.96, 0.0000011896407, 10.001339, 9.99805 
3.500704e+1, 2.8567913e+2, -58633.645, -405259.72, -21611.63, -0.09501161, -0.11765642, -57291.39, 83041.555, 0.000009641755, 10.001871, 9.997281 
3.5006508e+1, 2.956765e+2, 129324.03, -263558.72, -11748.666, -0.120426536, -0.14833324, 129675.05, 172036.06, 0.0000464018, 10.002467, 9.997302 
3.5007003e+1, 3.0567512e+2, 266090.47, 17994.287, 16625.541, -0.09566482, -0.10208877, 267199.63, 267199.63, 0.00019513248, 10.002278, 9.9990015 
3.5009083e+1, 3.1567174e+2, 185918.66, 85727.805, 73257.03, 0.03771007, -0.37682313, 224570.88, 224570.88, 0.00053834624, 10.001186, 9.999996 
4.5003363e+1, 1.2569594e+2, -1759227.3, -1630488.1, 57447.977, 0.15832834, 0.04949282, -1608580.8, 99597.23, 0.0022337737, 9.999182, 10.0009365 
4.5001298e+1, 1.3569528e+2, -1591691.8, -1575966.3, 54523.496, -0.041465268, -0.09100085, -1528741.5, 81435.3, 0.0013153872, 10.000049, 10.000226 
4.5001742e+1, 1.4569432e+2, -1530678.0, -1620163.4, 137683.36, -0.07460883, -0.13898101, -1430649.9, 81535.68, 0.00056916923, 10.000274, 9.999144 
4.5004284e+1, 1.5569477e+2, -1452726.5, -1530133.4, 101522.99, 0.039752766, -0.051226832, -1382779.8, 31406.186, 0.00014812649, 10.000134, 9.999162 
4.5004475e+1, 1.656952e+2, -1266398.3, -1343371.8, 44438.313, 0.020309076, 0.059675995, -1246097.4, 70086.68, 0.000013959289, 10.00055, 9.999564 
4.5002982e+1, 1.7569488e+2, -1053017.3, -1203442.3, 10767.789, -0.09908028, 0.042496543, -1052250.4, 165937.39, 0.000000037538413, 10.001397, 9.999445 
4.5003825e+1, 1.8569386e+2, -962004.94, -1165899.9, 59879.277, -0.066714846, 0.030225402, -945720.4, 174477.63, 0.0, 10.001599, 9.998931 
4.500632e+1, 1.956923e+2, -925729.56, -1102914.6, 29500.416, 0.070644066, -0.050733596, -920946.94, 101266.125, 0.0, 10.001193, 9.998888 
4.5006755e+1, 2.0569168e+2, -796509.94, -937038.5, -4153.539, 0.06673058, -0.020650778, -796387.25, 127830.914, 0.0, 10.001185, 9.999355 
4.5005617e+1, 2.1569145e+2, -677500.0, -846752.7, -20161.398, -0.040355217, -0.012250409, -675131.5, 151087.17, 0.0, 10.001404, 9.999196 
4.500553e+1, 2.2569036e+2, -665195.56, -928658.3, 30800.096, -0.07858636, 0.033121876, -661642.75, 66587.305, 0.0, 10.001426, 9.997943 
4.5006287e+1, 2.3568848e+2, -590415.7, -844704.56, 35336.887, -0.060293697, 0.019461958, -585596.5, 44654.984, 0.0, 10.001273, 9.997927 
4.5007205e+1, 2.4568659e+2, -410196.5, -603576.5, 25239.281, 0.0013777856, -0.004639305, -406956.66, 125311.57, 0.0, 10.001401, 9.998837 
4.500819e+1, 2.5568432e+2, -268737.47, -502160.28, -15577.449, 0.08840335, -0.1469649, -267702.5, 166582.48, 0.0, 10.001752, 9.998699 
4.500871e+1, 2.656825e+2, -201795.78, -474771.7, 28224.521, 0.070230484, -0.16924462, -198908.03, 137391.83, 0.000000013083459, 10.001805, 9.998177 
4.5008975e+1, 2.7568084e+2, -122722.086, -405821.1, 19687.977, -0.014101358, -0.18221894, -121359.45, 116954.875, 0.0000010541644, 10.001741, 9.998022 
4.500931e+1, 2.8567874e+2, -64928.66, -426369.66, 6427.7524, -0.045323513, -0.13971113, -64814.387, 75521.49, 0.000008106713, 10.001917, 9.997116 
4.500951e+1, 2.95676e+2, 88232.65, -301490.44, -11700.463, -0.04322444, -0.16457334, 88583.61, 130949.6, 0.000037622078, 10.002275, 9.997132 
4.5009622e+1, 3.0567515e+2, 288807.16, 61177.098, -16000.287, -0.047675557, -0.07044707, 289926.3, 289926.3, 0.00016443121, 10.002284, 9.999291 
4.5011002e+1, 3.15672e+2, 236866.19, 27399.475, -91498.0, 0.09243939, -0.35703823, 271204.6, 271204.6, 0.00047154687, 10.001883, 9.999256 
5.500283e+1, 1.256968e+2, -1732809.4, -1590219.4, 35090.54, 0.08763673, -0.024995197, -1582051.6, 126112.34, 0.0021078985, 9.999218, 10.001203 
5.5001444e+1, 1.3569613e+2, -1566332.3, -1542669.9, 100645.84, -0.086561345, -0.19241822, -1453162.3, 157001.47, 0.0012334009, 10.000117, 10.000424 
5.500215e+1, 1.456958e+2, -1539679.8, -1640016.4, 108069.22, -0.11956466, -0.1803555, -1470701.9, 41463.453, 0.00052778376, 10.000272, 9.99901 
5.500478e+1, 1.5569505e+2, -1467877.8, -1563396.4, 114581.555, 0.029572332, -0.19478811, -1391500.5, 22674.813, 0.00013278752, 10.000134, 9.998937 
5.500583e+1, 1.6569452e+2, -1324641.0, -1443763.4, 60395.605, 0.059298787, -0.13441736, -1299377.9, 16805.557, 0.0000106646075, 10.000466, 9.998909 
5.500599e+1, 1.756936e+2, -1100317.8, -1289096.3, 54816.758, 0.018937629, -0.15243413, -1085554.9, 132640.42, 0.000000007551507, 10.001349, 9.998871 
5.5006075e+1, 1.85693e+2, -1000882.25, -1222295.6, 27334.219, -0.03959596, -0.08260603, -997557.7, 122646.66, 0.0, 10.001493, 9.998595 
5.500597e+1, 1.9569248e+2, -960993.6, -1154249.4, 29191.246, -0.12280876, -0.023957238, -956680.56, 65531.99, 0.0, 10.0011015, 9.998579 
5.500635e+1, 2.0569183e+2, -821983.4, -950160.5, -8940.966, -0.124670334, 0.018951502, -821362.7, 102856.2, 0.0, 10.001024, 9.999338 
5.500712e+1, 2.1569082e+2, -697721.1, -853728.44, 2183.766, -0.06644954, -0.044648245, -697690.56, 128535.95, 0.0, 10.001259, 9.999216 
5.5007637e+1, 2.2568999e+2, -645426.6, -854864.4, 11822.055, -0.04499909, -0.008890039, -644761.4, 83472.72, 0.0, 10.001287, 9.998516 
5.500805e+1, 2.3568904e+2, -578411.6, -787249.4, 46817.938, -0.04613899, 0.01592367, -568396.1, 61847.707, 0.0, 10.001134, 9.998388 
5.5008674e+1, 2.4568734e+2, -480835.2, -726269.8, 26792.4, -0.027728649, 0.032510966, -477944.47, 54315.793, 0.0, 10.001302, 9.998041 
5.500956e+1, 2.5568482e+2, -344546.0, -613496.44, 11832.707, 0.010554127, -0.058121867, -344026.4, 90257.63, 0.0, 10.00157, 9.998013 
5.500998e+1, 2.6568314e+2, -191145.98, -443861.53, 11157.309, -0.02218936, -0.047781996, -190654.36, 145644.05, 0.000000016276152, 10.001755, 9.998421 
5.5010164e+1, 2.7568182e+2, -121540.67, -383360.4, 35067.46, -0.10899736, -0.050348695, -116925.195, 121382.48, 0.00000094951764, 10.001642, 9.998233 
5.501129e+1, 2.8567913e+2, -74659.13, -434396.97, 5854.247, -0.07681573, -0.07575038, -74563.89, 65769.29, 0.0000068871877, 10.001869, 9.997078 
5.501305e+1, 2.956751e+2, 71233.9, -314942.63, 16483.775, 0.03549012, -0.22195977, 71936.23, 114309.85, 0.00003070153, 10.002173, 9.99709 
5.501268e+1, 3.056753e+2, 238033.75, -23432.238, -39682.367, -0.00528266, 0.004867371, 243923.61, 243923.61, 0.00013855331, 10.002211, 9.998746 
5.5011964e+1, 3.1567198e+2, 74921.03, -273765.03, -61663.043, -0.07686072, -0.2269304, 85504.53, 85504.53, 0.0004144919, 10.001746, 9.99725 
6.50029e+1, 1.2569678e+2, -1765890.8, -1680012.1, 27842.463, 0.19391091, -0.1043428, -1671775.4, 36384.066, 0.0019834668, 9.999268, 10.000585 
6.500156e+1, 1.3569602e+2, -1609167.8, -1638917.9, -28876.135, -0.06991087, -0.20097223, -1591560.6, 18604.787, 0.001149572, 10.000116, 9.9997835 
6.5002793e+1, 1.4569642e+2, -1460104.4, -1555848.0, -10836.532, -0.087418556, -0.11066939, -1458893.1, 53267.508, 0.00048384682, 10.000648, 9.999395 
6.500623e+1, 1.5569523e+2, -1293872.6, -1438026.6, -5736.868, 0.12309579, -0.20471394, -1293644.8, 120527.02, 0.00011744106, 10.001181, 9.999272 
6.5007514e+1, 1.656944e+2, -1207551.4, -1422163.6, 14189.735, 0.14704315, -0.17418285, -1206617.3, 109565.234, 0.000008467286, 10.0014105, 9.998607 
6.5007347e+1, 1.7569332e+2, -1133144.0, -1339524.5, -1107.1969, 0.03511047, -0.17656648, -1133138.0, 85059.88, 0.000000004638606, 10.001267, 9.998572 
6.5007263e+1, 1.85693e+2, -1013317.0, -1182720.0, 20925.113, -0.044451587, -0.08225781, -1010770.5, 109433.75, 0.0, 10.001222, 9.998991 
6.500713e+1, 1.9569309e+2, -922271.8, -1097915.8, 45099.3, -0.11023852, -0.0031684765, -911368.7, 110836.61, 0.0, 10.00121, 9.998911 
6.5007746e+1, 2.0569226e+2, -813144.7, -996689.3, 52721.285, -0.09038266, 0.030954363, -799078.94, 125134.766, 0.0, 10.001294, 9.998888 
6.50089e+1, 2.1569055e+2, -717480.7, -905752.9, 6643.702, -0.0055868463, -0.06048086, -717246.56, 108983.14, 0.0, 10.001309, 9.998829 
6.500952e+1, 2.2568935e+2, -597483.4, -811698.5, 12585.492, 0.014175845, -0.053096667, -596746.5, 131493.48, 0.0, 10.001514, 9.998708 
6.500978e+1, 2.3568834e+2, -462403.16, -711981.1, -8763.194, -0.010250638, -0.057599608, -462095.84, 168152.02, 0.0, 10.001831, 9.99857 
6.5010446e+1, 2.4568677e+2, -396672.9, -729177.0, 11639.662, -0.0068917987, -0.016807752, -396265.94, 135997.78, 0.0, 10.00205, 9.997682 
6.501149e+1, 2.556846e+2, -277505.84, -621750.8, -2860.9163, 0.02796002, -0.034801368, -277482.06, 156805.48, 0.0, 10.002186, 9.997684 
6.5012056e+1, 2.6568294e+2, -165699.52, -452342.4, 6145.466, 0.006434969, 0.005926429, -165567.81, 170735.84, 0.00000000394634, 10.002027, 9.998238 
6.5012306e+1, 2.756815e+2, -114283.64, -388855.66, -30051.816, -0.05292593, 0.008007128, -111032.97, 127282.25, 0.0000007712445, 10.001755, 9.99813 
6.5013444e+1, 2.8567868e+2, -63774.617, -391038.3, -7705.242, -0.03094733, -0.043746393, -63593.3, 76747.52, 0.000006042053, 10.001773, 9.997427 
6.5015334e+1, 2.956746e+2, 60724.64, -274414.53, 196.0914, 0.07342318, -0.23305997, 60724.754, 103104.17, 0.000026519589, 10.001919, 9.997485 
6.5015376e+1, 3.0567533e+2, 214058.55, -84107.41, -11009.315, 0.056498937, 0.048349373, 214464.5, 214464.5, 0.00012024143, 10.002245, 9.998321 
6.5014726e+1, 3.1567216e+2, 108054.49, -374412.38, -82689.29, 0.010238752, -0.1074729, 121833.0, 121833.0, 0.00036921015, 10.002445, 9.996251 
7.5002676e+1, 1.2569568e+2, -1847675.0, -1855021.4, -1776.3336, 0.15364458, -0.18689251, -1847268.0, -139101.31, 0.0018629195, 9.999302, 9.99936 
7.5000983e+1, 1.3569492e+2, -1702929.0, -1842192.1, 9367.7705, -0.1854288, -0.13092437, -1702301.8, -92119.09, 0.0010666472, 10.000156, 9.998368 
7.500284e+1, 1.4569615e+2, -1408375.5, -1435499.5, -8717.277, -0.19721705, 0.064860836, -1405815.5, 106356.02, 0.0004391749, 10.000593, 10.000249 
7.5008124e+1, 1.5569519e+2, -1235834.9, -1326560.4, 30433.91, 0.14755572, -0.093654655, -1226571.6, 187604.61, 0.00010226521, 10.001206, 10.000032 
7.5009024e+1, 1.6569471e+2, -1216353.3, -1424761.0, -8891.777, 0.11618575, -0.062656194, -1215974.5, 100207.85, 0.000007138289, 10.001347, 9.998617 
7.5006616e+1, 1.7569403e+2, -1134489.6, -1333907.9, 6999.9604, -0.20560095, -0.028906215, -1134244.3, 83951.484, 0.00000003688298, 10.001227, 9.9986315 
7.5006896e+1, 1.8569385e+2, -951402.56, -1036220.06, 6132.6763, -0.23925862, 0.021346962, -950961.44, 169236.75, 0.0, 10.001137, 10.000044 
7.500932e+1, 1.9569397e+2, -862848.6, -963562.6, 59087.824, -0.050930113, -0.002478217, -835570.56, 186622.7, 0.0, 10.001159, 9.999862 
7.501047e+1, 2.0569287e+2, -889492.6, -1127613.3, 40315.594, 0.019066114, 0.0049309256, -882852.06, 41351.59, 0.0, 10.001179, 9.998043 
7.5010526e+1, 2.1569057e+2, -791332.06, -1032213.0, 22122.697, -0.010693073, -0.06607427, -789317.1, 36911.56, 0.0, 10.001187, 9.998022 
7.5010705e+1, 2.2568844e+2, -627502.8, -843146.75, 11922.862, -0.051518723, -0.103048176, -626845.6, 101402.13, 0.0, 10.001383, 9.998555 
7.5011057e+1, 2.3568632e+2, -495376.2, -746335.2, 19393.035, -0.101496845, -0.2065528, -493886.4, 136377.66, 0.0, 10.0016775, 9.998412 
7.5012016e+1, 2.4568489e+2, -407470.16, -728025.06, 3505.1477, -0.08604241, -0.14739059, -407431.8, 124846.73, 0.0, 10.001949, 9.997735 
7.5013524e+1, 2.5568375e+2, -299697.63, -636260.3, 16299.013, -0.021766353, -0.06976105, -298910.13, 135384.36, 0.0, 10.002043, 9.997654 
7.501435e+1, 2.6568204e+2, -226340.69, -550754.8, -17621.531, 0.00067407254, 0.0056631933, -225386.33, 110927.53, 0.00000000015133415, 10.001919, 9.997608 
7.501482e+1, 2.7567983e+2, -174255.22, -479563.9, -20288.314, -0.01611185, -0.0080855265, -172912.92, 65423.86, 0.00000065427645, 10.001615, 9.997572 
7.501538e+1, 2.856774e+2, -10138.001, -272587.75, -15083.663, -0.051867716, -0.041183315, -9273.948, 131084.75, 0.0000058927376, 10.001735, 9.998262 
7.5015867e+1, 2.9567438e+2, 102630.336, -164214.8, 25549.475, -0.10933766, -0.20701028, 105054.586, 147438.33, 0.000025865007, 10.001801, 9.998308 
7.5017136e+1, 3.0567512e+2, 175470.66, -141886.4, -5251.2725, -0.027431788, 0.053610165, 175557.52, 175557.52, 0.00011203884, 10.002163, 9.997951 
7.5018275e+1, 3.1567234e+2, 89568.38, -370194.3, -41825.63, 0.04743914, -0.02800942, 93342.375, 93342.375, 0.00034091447, 10.00227, 9.996354 
8.500206e+1, 1.2569453e+2, -1817968.9, -1816427.8, -23272.99, 0.17292747, -0.15759665, -1793912.6, -85733.15, 0.0017451695, 9.999424, 9.999555 
8.5002226e+1, 1.3569348e+2, -1688652.0, -1840064.3, 36860.57, -0.06589704, -0.12115211, -1680155.3, -69957.29, 0.0009891815, 10.0002985, 9.9983015 
8.500412e+1, 1.4569469e+2, -1441264.4, -1464306.1, 39917.15, -0.10350281, 0.07931039, -1411238.8, 100948.67, 0.000399723, 10.000392, 10.000164 
8.5008276e+1, 1.556935e+2, -1420006.0, -1420019.6, -23172.4, 0.116312556, -0.09103219, -1396840.4, 17354.895, 0.00008899464, 9.999953, 10.000001 
8.500925e+1, 1.656935e+2, -1373025.5, -1406839.9, -28711.004, 0.08798818, -0.05365584, -1356613.4, -40417.863, 0.000006071428, 9.999884, 9.999438 
8.500786e+1, 1.756938e+2, -1261702.1, -1303647.8, 15483.682, -0.12933119, -0.0025647024, -1256605.8, -38409.336, 0.000000076650345, 9.999981, 9.999428 
8.5008323e+1, 1.856937e+2, -1054386.8, -1087291.0, 37948.56, -0.1637651, 0.017419277, -1029477.44, 90719.69, 0.0, 10.000425, 10.000041 
8.501029e+1, 1.9569324e+2, -883209.2, -975285.6, -17060.78, -0.0526126, -0.061346244, -880149.7, 142048.27, 0.0, 10.001018, 9.999852 
8.5011756e+1, 2.0569225e+2, -842497.56, -1099718.1, -13678.465, 0.02276073, -0.04692082, -841772.25, 82435.61, 0.0, 10.001484, 9.998088 
8.50127e+1, 2.1569055e+2, -697218.7, -985377.94, 1595.2219, 0.06467389, -0.05555443, -697209.9, 129017.375, 0.0, 10.001831, 9.998037 
8.5013014e+1, 2.2568843e+2, -546031.5, -820393.75, 44249.01, 0.017904446, -0.085284464, -539071.6, 189175.22, 0.0, 10.002029, 9.998391 
8.5012954e+1, 2.3568586e+2, -450872.6, -738161.44, 20176.146, -0.088905945, -0.21417898, -449462.56, 180805.16, 0.0, 10.002064, 9.998271 
8.5013753e+1, 2.4568431e+2, -412992.34, -730348.44, 21244.18, -0.09555917, -0.1608382, -411576.53, 120707.06, 0.0, 10.001907, 9.997727 
8.501527e+1, 2.5568336e+2, -360441.97, -662809.9, 757.03076, -0.019962369, -0.06326879, -360440.1, 73857.54, 0.0, 10.001632, 9.997652 
8.5016215e+1, 2.6568168e+2, -258450.19, -579451.75, 22498.68, 0.016235853, 0.014669051, -256880.94, 79436.68, 0.0000000019213902, 10.001709, 9.997529 
8.5016966e+1, 2.756792e+2, -141671.94, -473647.6, 31508.195, 0.03718034, -0.020130953, -138707.92, 99636.35, 0.0000006294421, 10.001838, 9.997522 
8.5017467e+1, 2.856772e+2, -9411.881, -260477.2, 57492.26, -0.003773921, -0.013251685, 3127.213, 143490.34, 0.0000062489003, 10.001688, 9.998366 
8.5017663e+1, 2.9567522e+2, 83480.266, -158375.67, 14904.529, -0.08592031, -0.082437314, 84395.305, 126774.24, 0.000027811611, 10.001609, 9.998436 
8.50195e+1, 3.0567485e+2, 150356.66, -165597.69, 11540.65, 0.014291729, 0.065719634, 150777.64, 150777.64, 0.00011222166, 10.002017, 9.997873 
8.5021263e+1, 3.15672e+2, 158108.52, -217735.45, -46336.76, 0.14156723, -0.025229603, 163736.95, 163736.95, 0.00032900518, 10.002224, 9.997415 
9.5000005e+1, 1.2569353e+2, -1716445.4, -1594731.4, -43485.418, -0.05648289, -0.000744302, -1580791.6, 127404.19, 0.0016362383, 9.999377, 10.001097 
9.5004654e+1, 1.3569167e+2, -1592125.4, -1664942.0, 80468.22, 0.101213604, -0.18258555, -1540212.1, 69999.67, 0.0009229167, 10.000395, 9.999458 
9.5006186e+1, 1.4569202e+2, -1512936.9, -1608161.3, 7723.1133, 0.017666334, -0.07042002, -1512314.6, -106.02949, 0.00036888671, 10.000374, 9.999184 
9.5006216e+1, 1.5569031e+2, -1478507.1, -1544333.9, -20990.451, -0.12842473, -0.19206603, -1472383.5, -58155.973, 0.00007923838, 9.999963, 9.999144 
9.500781e+1, 1.6569091e+2, -1269613.3, -1179340.8, -38148.9, -0.080791645, -0.13920522, -1165378.5, 150841.98, 0.0000051224774, 9.999824, 10.001032 
9.5010567e+1, 1.756927e+2, -1162350.4, -1097131.6, 37349.43, 0.102275975, -0.099014536, -1080159.3, 138040.31, 0.00000007826353, 9.999973, 10.000852 
9.501102e+1, 1.8569256e+2, -1142913.6, -1253115.1, 45966.92, 0.028851261, -0.08900661, -1126257.5, -6056.7476, 0.0, 10.000345, 9.99894 
9.5009613e+1, 1.9569091e+2, -962736.94, -1122303.8, 20101.385, -0.25977132, -0.18329279, -960243.6, 61975.605, 0.0, 10.000936, 9.998881 
9.5011157e+1, 2.0569041e+2, -802318.75, -988942.2, -15027.931, -0.21853909, -0.11900622, -801116.4, 123109.37, 0.0, 10.001359, 9.998912 
9.5014906e+1, 2.1569042e+2, -663410.5, -886180.6, 30449.412, 0.068608336, -0.041644663, -659323.5, 166902.86, 0.0, 10.001699, 9.998785 
9.5015943e+1, 2.2568914e+2, -580856.6, -862100.5, 33380.344, 0.073249176, -0.009046658, -576949.06, 151289.42, 0.0, 10.001897, 9.998165 
9.5014954e+1, 2.356867e+2, -483796.4, -781779.06, 33679.402, -0.13094373, -0.10386792, -480037.22, 150224.19, 0.0, 10.0019455, 9.998032 
9.501518e+1, 2.4568486e+2, -432017.4, -744117.75, -3518.8657, -0.17795432, -0.06779871, -431977.72, 100302.79, 0.0, 10.001794, 9.997688 
9.5016307e+1, 2.5568327e+2, -373869.53, -672749.06, 10374.458, -0.11763327, -0.03297385, -373509.88, 60788.918, 0.0, 10.001538, 9.997636 
9.5017266e+1, 2.6568148e+2, -235447.39, -506084.56, 13274.452, -0.081998736, 0.0084102005, -234797.86, 101519.98, 0.0000000017799018, 10.001616, 9.998069 
9.501822e+1, 2.7567935e+2, -131763.97, -417660.56, 48492.59, -0.05798204, -0.045769326, -123762.79, 114576.7, 0.0000005677249, 10.001693, 9.997972 
9.501918e+1, 2.8567803e+2, -64486.418, -361578.2, 37749.617, -0.037594527, 0.046110984, -59764.848, 80589.195, 0.0000064583187, 10.00163, 9.997698 
9.5020187e+1, 2.9567713e+2, 15730.292, -268646.1, 38876.707, -0.037847556, 0.1411347, 20949.293, 63314.953, 0.000029725905, 10.0014715, 9.9977455 
9.502199e+1, 3.0567455e+2, 165234.45, -119258.36, 14691.843, 0.028622879, 0.08653549, 165991.16, 165991.16, 0.0001135958, 10.001954, 9.998213 
9.5022684e+1, 3.156713e+2, 271830.72, 51481.004, 29284.625, -0.015069356, -0.088732496, 275656.25, 275656.25, 0.00032168903, 10.00208, 9.999331 
1.0500007e+2, 1.2569168e+2, -1631174.5, -1525739.8, 54142.25, 0.011209751, 0.0116858585, -1502889.3, 205325.11, 0.0015480418, 9.999812, 10.001374 
1.0500578e+2, 1.3569008e+2, -1593138.8, -1630967.3, 44262.58, 0.19689631, -0.17097059, -1563918.5, 46307.49, 0.00087241904, 10.000235, 9.999773 
1.0500732e+2, 1.4569032e+2, -1526559.5, -1603311.5, -14710.061, 0.111513264, -0.09112421, -1523836.9, -11613.212, 0.0003471946, 10.000254, 9.999263 
1.050063e+2, 1.5568879e+2, -1469897.6, -1544622.8, 958.0405, -0.10683995, -0.19342506, -1469885.4, -55643.33, 0.000073446034, 10.000042, 9.999106 
1.0500776e+2, 1.6568929e+2, -1221987.0, -1153200.4, 4708.639, -0.07407726, -0.15160076, -1152879.5, 163356.33, 0.000004420773, 10.00014, 10.001055 
1.0501125e+2, 1.7569083e+2, -1092145.3, -1066835.6, -68402.42, 0.15726596, -0.13827674, -1009927.3, 208288.94, 0.000000050630582, 10.000473, 10.000818 
1.0501206e+2, 1.856907e+2, -1090031.1, -1243876.4, -38337.734, 0.08419436, -0.117841594, -1081006.9, 39211.176, 0.0, 10.000793, 9.998778 
1.0501076e+2, 1.9568928e+2, -973632.25, -1137815.6, -30529.434, -0.22743566, -0.17547408, -968139.2, 54097.375, 0.0, 10.000925, 9.998767 
1.0501248e+2, 2.0568894e+2, -820250.9, -943586.2, -28582.746, -0.19472161, -0.11387113, -813948.9, 110292.234, 0.0, 10.001006, 9.999394 
1.0501652e+2, 2.1568914e+2, -744356.2, -873400.0, -39156.043, 0.10963531, -0.0651059, -733404.44, 92833.27, 0.0, 10.000922, 9.999246 
1.0501784e+2, 2.2568826e+2, -692075.1, -927619.4, -8795.312, 0.11763392, -0.008444913, -691747.2, 36499.57, 0.0, 10.001177, 9.998079 
1.050171e+2, 2.3568645e+2, -526844.5, -809348.94, -27237.668, -0.08818344, -0.027151586, -524242.34, 106024.21, 0.0, 10.001684, 9.997976 
1.0501714e+2, 2.4568443e+2, -407819.78, -721122.44, -39719.332, -0.15834264, -0.011075212, -402862.72, 129424.65, 0.0, 10.001911, 9.997795 
1.0501791e+2, 2.5568202e+2, -318448.84, -630572.7, -42613.51, -0.119821616, -0.069521606, -312735.5, 121575.83, 0.0, 10.001868, 9.997764 
1.0501889e+2, 2.6568022e+2, -195329.1, -468983.34, -17860.549, -0.08271636, -0.042234868, -194168.31, 142161.03, 0.00000000014537505, 10.001841, 9.998205 
1.05020225e+2, 2.7567875e+2, -96015.48, -386816.03, -44172.67, -0.026633922, -0.043336075, -89453.7, 148891.05, 0.00000042821608, 10.001904, 9.998073 
1.0502128e+2, 2.8567746e+2, -41638.395, -355731.56, -24143.375, 0.011279507, 0.049482726, -39793.406, 100565.984, 0.0000059800022, 10.001789, 9.997672 
1.0502218e+2, 2.9567614e+2, 2984.9143, -284484.56, -9269.818, 0.02983412, 0.106266595, 3283.521, 45659.074, 0.000029321069, 10.001413, 9.997674 
1.05023935e+2, 3.0567342e+2, 94545.76, -155859.55, 28254.46, 0.06372925, 0.04361393, 97694.26, 97694.26, 0.000109980174, 10.00149, 9.998182 
1.0502506e+2, 3.1567132e+2, 298053.88, 142843.4, -18159.615, 0.038553283, -0.017865257, 300150.25, 300150.25, 0.0003078243, 10.001922, 10.000038 
1.15001276e+2, 1.256888e+2, -1694229.9, -1673444.8, 13520.143, 0.063415624, -0.12827379, -1666784.5, 41452.34, 0.0014882531, 9.999873, 10.000333 
1.1500512e+2, 1.3568865e+2, -1626223.8, -1709793.5, 68794.23, 0.065904394, -0.094080135, -1587518.8, 22722.832, 0.000840427, 10.000273, 9.999213 
1.1500714e+2, 1.4568947e+2, -1463054.9, -1452934.9, -40776.434, 0.024653636, 0.010254727, -1416905.6, 95328.66, 0.00033535642, 10.000172, 10.000336 
1.1500782e+2, 1.5568888e+2, -1408006.6, -1414123.8, 13409.733, -0.0014827071, -0.104336634, -1397311.0, 16928.262, 0.0000716502, 10.000045, 9.999994 
1.15008585e+2, 1.6568863e+2, -1338277.4, -1388733.6, 3385.6438, -0.04536202, -0.0927265, -1338051.1, -21809.506, 0.0000041980056, 10.000108, 9.999459 
1.1500955e+2, 1.7568813e+2, -1192270.4, -1270081.6, -41480.926, -0.09881136, -0.12781404, -1174305.0, 43941.902, 0.000000024917117, 10.000454, 9.999432 
1.1501116e+2, 1.8568808e+2, -1059797.9, -1150584.0, -47829.723, -0.11712767, -0.07195481, -1039249.94, 80999.15, 0.0, 10.000666, 9.999483 
1.1501319e+2, 1.9568822e+2, -938270.4, -1045472.44, -11400.262, -0.117248714, -0.042039413, -937071.44, 85179.22, 0.0, 10.000845, 9.999441 
1.15015194e+2, 2.0568776e+2, -831782.0, -937440.5, -47845.31, -0.0554899, -0.028269667, -813336.44, 110917.83, 0.0, 10.0008745, 9.999501 
1.150171e+2, 2.1568656e+2, -757336.06, -868418.7, -28536.035, 0.04259001, -0.13318336, -750434.25, 75828.305, 0.0, 10.00078, 9.9993515 
1.15018286e+2, 2.2568575e+2, -710277.8, -930027.25, -4365.126, 0.017172834, -0.07754419, -710191.1, 18080.676, 0.0, 10.00103, 9.99813 
1.15018934e+2, 2.3568502e+2, -543309.06, -809953.44, 6601.608, -0.10670732, 0.0052410588, -543145.7, 87138.04, 0.0, 10.001532, 9.998048 
1.15019284e+2, 2.4568294e+2, -410382.94, -694848.06, -55130.46, -0.16812661, -0.0013394216, -400072.16, 132232.67, 0.0, 10.001785, 9.998033 
1.150195e+2, 2.5567955e+2, -325931.13, -611482.7, -31746.207, -0.1810602, -0.17933089, -322444.3, 111891.13, 0.0, 10.001721, 9.997964 
1.15020655e+2, 2.656779e+2, -225331.45, -515136.63, -27969.357, -0.122602075, -0.13535722, -222656.78, 113695.43, 0.0, 10.001767, 9.99793 
1.1502257e+2, 2.7567732e+2, -129784.15, -429468.78, -23048.166, -0.018998316, -0.014160558, -128021.92, 110338.38, 0.0000002594802, 10.001775, 9.99785 
1.1502331e+2, 2.8567538e+2, -14077.229, -274895.4, -50247.664, -0.00027142768, -0.008874812, -4731.682, 135648.05, 0.000005001763, 10.001699, 9.998269 
1.1502316e+2, 2.9567224e+2, 8516.564, -234763.53, -6819.1577, -0.054899987, -0.18912135, 8707.556, 51116.992, 0.000026475647, 10.001255, 9.998093 
1.1502488e+2, 3.0567142e+2, 57899.188, -211386.34, 40397.2, -0.023297898, -0.056808773, 63828.85, 63828.85, 0.000100772006, 10.001422, 9.997828 
1.1502745e+2, 3.1567207e+2, 245312.97, 67726.3, 66404.42, 0.008707026, 0.18001631, 267397.06, 267397.06, 0.00028477798, 10.001782, 9.999587 
1.2500165e+2, 1.2568587e+2, -1700360.5, -1698892.0, -17348.709, 0.1238697, -0.20341572, -1682262.0, 26000.322, 0.0014562852, 9.999951, 10.000109 
1.250049e+2, 1.3568632e+2, -1757315.6, -1764058.5, 48763.797, 0.08054329, -0.11062075, -1711806.9, -101543.71, 0.0008261713, 9.999332, 9.999298 
1.2500718e+2, 1.4568749e+2, -1526348.8, -1438935.9, -1717.5359, 0.05928685, 0.00062247453, -1438902.1, 73351.266, 0.00033346904, 9.999544, 10.000731 
1.250087e+2, 1.556877e+2, -1291055.0, -1320626.9, -38017.582, 0.059589576, -0.07302434, -1265049.3, 149200.77, 0.00007407354, 10.000688, 10.0003195 
1.250096e+2, 1.6568731e+2, -1219545.3, -1394014.9, -9580.567, -0.0005324044, -0.063893296, -1219020.8, 97233.85, 0.000004716059, 10.001175, 9.9989195 
1.2501012e+2, 1.7568599e+2, -1145624.0, -1306670.0, -5373.196, -0.10444205, -0.122869976, -1145444.9, 72824.586, 0.000000012759114, 10.001004, 9.99893 
1.2501189e+2, 1.8568587e+2, -1023870.1, -1110809.8, 27644.447, -0.10666954, -0.061510902, -1015824.5, 104448.305, 0.0, 10.000813, 9.99968 
1.2501463e+2, 1.956866e+2, -967972.1, -1041611.1, -4678.1284, -0.03411816, 0.009580254, -967676.1, 54591.582, 0.0, 10.000557, 9.999606 
1.2501658e+2, 2.0568612e+2, -854988.8, -938400.94, -25745.17, 0.016457463, 0.00904354, -847682.56, 76588.35, 0.0, 10.000677, 9.999582 
1.2501797e+2, 2.156845e+2, -719712.0, -837564.56, -38239.523, 0.04978598, -0.14463845, -708391.8, 117891.01, 0.0, 10.000991, 9.999454 
1.2501931e+2, 2.2568372e+2, -667005.3, -865169.4, 32928.688, 0.021963632, -0.11390167, -661676.9, 66614.81, 0.0, 10.001134, 9.998517 
1.2502074e+2, 2.3568341e+2, -574701.3, -775998.6, 39305.19, -0.047129538, -0.03000337, -567298.8, 63000.598, 0.0, 10.001125, 9.998459 
1.2502152e+2, 2.45682e+2, -418309.44, -659565.0, 25574.344, -0.10269298, -0.007488474, -415628.22, 116685.55, 0.0, 10.001566, 9.99838 
1.2502193e+2, 2.556795e+2, -211512.64, -526475.7, 25581.83, -0.13161694, -0.12936153, -209448.38, 224887.39, 0.0, 10.002371, 9.998241 
1.250228e+2, 2.6567784e+2, -183084.92, -535538.44, 29385.523, -0.09769529, -0.07845553, -180651.73, 155701.0, 0.0, 10.002233, 9.997561 
1.2502412e+2, 2.7567658e+2, -213488.0, -504191.8, -1994.8738, -0.008588539, 0.0076516536, -213474.31, 24893.834, 0.00000012209664, 10.001367, 9.997523 
1.25025e+2, 2.8567398e+2, -15807.323, -274778.88, 6125.8926, 0.011880876, -0.036159873, -15662.498, 124730.67, 0.000003888246, 10.001699, 9.998263 
1.2502573e+2, 2.9567036e+2, 256482.3, -112520.61, -27588.953, 0.0045747138, -0.2649506, 258533.61, 300959.5, 0.00002250982, 10.002963, 9.998101 
1.2502731e+2, 3.0567056e+2, 302385.2, -134962.86, 29120.584, 0.0022509869, -0.014090857, 304315.66, 304315.66, 0.000088219014, 10.003228, 9.997514 
1.2502979e+2, 3.1567037e+2, 300745.1, 22253.584, 16298.691, 0.04812089, 0.1678884, 301695.72, 301695.72, 0.00025421134, 10.002468, 9.998952 
1.3500026e+2, 1.256827e+2, -1670890.4, -1629502.9, -100249.445, -0.08959507, -0.22878422, -1547833.6, 160458.98, 0.0014504807, 9.999914, 10.000604 
1.3500455e+2, 1.3568318e+2, -1693300.8, -1638729.0, 41439.58, 0.071289845, -0.22356845, -1616398.8, -6108.3086, 0.0008289551, 9.999373, 10.000132 
1.35007e+2, 1.4568454e+2, -1549363.0, -1495937.1, 21835.805, 0.037662387, -0.11130101, -1488148.1, 24131.215, 0.0003411424, 9.99957, 10.000334 
1.3500853e+2, 1.5568525e+2, -1317676.3, -1370008.8, 16829.014, -0.06425784, -0.097669095, -1312731.5, 101542.555, 0.00008049032, 10.000654, 10.000002 
1.3501029e+2, 1.6568527e+2, -1201074.1, -1321800.1, -32383.25, -0.08081275, -0.059575837, -1192936.3, 123338.67, 0.0000062176173, 10.001043, 9.999472 
1.3501228e+2, 1.7568442e+2, -1121565.8, -1241440.9, 5266.2173, -0.02499081, -0.12684292, -1121334.9, 96949.21, 0.000000017143847, 10.000956, 9.999394 
1.3501363e+2, 1.8568422e+2, -1056606.5, -1166769.9, 4759.128, -0.05301156, -0.07576471, -1056401.3, 63886.258, 0.0, 10.000746, 9.999332 
1.3501444e+2, 1.9568442e+2, -999507.5, -1091703.8, 4329.8013, -0.14708051, -0.02702726, -999304.6, 22983.27, 0.0, 10.0004835, 9.999299 
1.350162e+2, 2.0568404e+2, -870198.0, -943568.4, -30004.475, -0.1221625, -0.005503596, -859490.44, 64800.656, 0.0, 10.000558, 9.999608 
1.3501857e+2, 2.1568295e+2, -736650.9, -836172.8, -10526.892, -0.023319375, -0.11008288, -735549.6, 90749.39, 0.0, 10.000832, 9.999541 
1.3502048e+2, 2.2568221e+2, -636740.2, -774572.0, 17029.729, -0.008538105, -0.11402564, -634667.25, 93638.7, 0.0, 10.001003, 9.999205 
1.3502197e+2, 2.3568156e+2, -547773.6, -687884.44, 56098.28, -0.071096264, -0.13813202, -528080.56, 102233.62, 0.0, 10.000978, 9.999135 
1.3502337e+2, 2.4568154e+2, -401065.72, -601489.7, 41809.633, -0.10511074, -0.033748966, -392693.7, 139621.61, 0.0, 10.001466, 9.998825 
1.3502474e+2, 2.5568178e+2, -205825.98, -481262.97, 68633.72, -0.12202348, 0.07458202, -189671.25, 244641.61, 0.0, 10.002224, 9.99862 
1.3502495e+2, 2.6568e+2, -233191.64, -617552.94, -18657.328, -0.13935398, 0.12549376, -232288.11, 104043.5, 0.0, 10.002143, 9.997038 
1.3502432e+2, 2.7567634e+2, -269162.34, -586054.1, -14692.593, -0.16113447, 0.01878257, -268482.6, -30112.828, 0.000000046518082, 10.001226, 9.997025 
1.3502596e+2, 2.8567308e+2, -56804.574, -353797.7, 39795.06, -0.098401725, -0.038999148, -51564.754, 88836.46, 0.0000029362805, 10.001666, 9.997737 
1.350294e+2, 2.9567027e+2, 211015.45, -186681.38, 33450.85, 0.031829674, -0.1416501, 213809.42, 256236.78, 0.000019015239, 10.002861, 9.997646 
1.350307e+2, 3.056707e+2, 276098.16, -164830.86, -9369.216, -0.010336959, 0.16539033, 276297.16, 276297.16, 0.000075927965, 10.0031395, 9.997341 
1.3503118e+2, 3.1566608e+2, 214317.42, -121254.45, 51511.74, -0.13492537, -0.06602064, 222046.67, 222046.67, 0.0002226974, 10.002318, 9.998037 
1.4499992e+2, 1.2568063e+2, -1848146.3, -1715945.6, -9353.087, -0.034588795, -0.20517528, -1715287.1, -6973.584, 0.0014659849, 9.998718, 10.000583 
1.4500405e+2, 1.3568081e+2, -1599589.1, -1558286.8, 31442.732, 0.07136949, -0.26394716, -1541319.9, 68992.86, 0.0008466132, 9.999873, 10.000433 
1.4500698e+2, 1.456822e+2, -1482181.9, -1498191.8, 41809.32, 0.059248682, -0.14741722, -1447618.1, 64683.3, 0.00035647568, 10.000174, 10.000033 
1.4500912e+2, 1.556828e+2, -1443500.6, -1457401.1, 12933.355, -0.021996439, -0.114160396, -1435768.4, -21469.66, 0.00008921642, 9.9999, 9.999771 
1.4501117e+2, 1.6568306e+2, -1313377.0, -1335196.9, -11931.097, -0.037180495, -0.063228235, -1308119.8, 8177.8325, 0.000008328298, 10.000101, 9.99983 
1.4501335e+2, 1.7568277e+2, -1143092.4, -1215203.9, -22853.385, 0.009907214, -0.11023465, -1136459.8, 81840.53, 0.0000000715251, 10.000646, 9.9997225 
1.4501469e+2, 1.8568256e+2, -1032153.9, -1159908.5, -2180.7964, -0.021019531, -0.072383255, -1032116.7, 88186.17, 0.0, 10.000934, 9.999302 
1.4501533e+2, 1.9568226e+2, -931881.5, -1067049.9, -11345.469, -0.12064235, -0.066459104, -930935.8, 91371.35, 0.0, 10.000971, 9.999252 
1.4501697e+2, 2.0568186e+2, -841613.2, -935775.1, -7451.1865, -0.10434812, -0.04194841, -841027.2, 83284.18, 0.0, 10.000775, 9.999557 
1.4501928e+2, 2.1568118e+2, -813175.8, -877662.1, -26960.127, 0.00026827006, -0.101346426, -803389.56, 22927.912, 0.0, 10.000324, 9.999501 
1.4502132e+2, 2.2568078e+2, -698216.56, -746756.0, 28409.865, 0.015753165, -0.09572966, -685121.3, 43199.09, 0.0, 10.000354, 9.999705 
1.4502315e+2, 2.3568037e+2, -544064.75, -640875.7, 16961.396, -0.034577213, -0.14061348, -541179.06, 89144.22, 0.0, 10.00081, 9.999547 
1.450249e+2, 2.4568027e+2, -482325.1, -661778.1, 4748.5327, -0.06700208, -0.05110419, -482199.5, 50125.242, 0.0, 10.000989, 9.998649 
1.4502664e+2, 2.5568026e+2, -396027.94, -587651.75, -45788.168, -0.0822763, 0.046866745, -385649.06, 48677.777, 0.0, 10.000979, 9.99849 
1.4502718e+2, 2.656784e+2, -277110.44, -608065.5, -95292.234, -0.10085368, 0.081679456, -251633.98, 84711.766, 0.0, 10.001703, 9.99732 
1.4502677e+2, 2.7567488e+2, 7808.8926, -432398.5, -63505.03, -0.11700306, -0.03562362, 16787.117, 255167.31, 0.00000002138944, 10.003023, 9.99723 
1.4502877e+2, 2.8567165e+2, 112489.914, -335495.44, 44309.34, -0.048272386, -0.07111531, 116830.414, 257242.42, 0.0000023054517, 10.003089, 9.997182 
1.450326e+2, 2.9566884e+2, 91001.086, -287020.9, -1533.9402, 0.107225984, -0.11547503, 91007.305, 133447.5, 0.000016570593, 10.002224, 9.997252 
1.4503326e+2, 3.0566916e+2, 173312.63, -179891.64, 2204.5227, -0.012722293, 0.17336738, 173326.38, 173326.38, 0.0000664134, 10.002311, 9.9976225 
1.4503375e+2, 3.1566328e+2, 275824.3, -116152.71, 47276.145, -0.11839152, -0.20067918, 281445.66, 281445.66, 0.0001967113, 10.002866, 9.997801 
1.5499987e+2, 1.2568009e+2, -1878730.9, -1805369.5, -22403.445, 0.0025472168, -0.093711324, -1799069.0, -90747.984, 0.0014879738, 9.99881, 9.999939 
1.5500294e+2, 1.3567927e+2, -1620135.9, -1604280.3, 78529.23, -0.06645569, -0.21701415, -1533279.8, 77049.77, 0.0008684092, 9.99988, 10.000125 
1.5500659e+2, 1.4568049e+2, -1495463.5, -1510119.9, 11799.345, -0.038752675, -0.101245485, -1488901.9, 23417.709, 0.00037251608, 10.000114, 9.999975 
1.5500984e+2, 1.556805e+2, -1454153.3, -1465251.1, 21201.572, 0.020091616, -0.11869975, -1437786.5, -23464.014, 0.00009664872, 9.999852, 9.999731 
1.5501185e+2, 1.6568083e+2, -1313711.1, -1322954.5, -5880.9746, -0.018252134, -0.06489072, -1310853.1, 5467.4224, 0.000009881803, 10.000038, 9.99995 
1.5501292e+2, 1.756812e+2, -1144688.0, -1201300.5, 13600.816, -0.13172951, -0.058768727, -1141590.0, 76726.85, 0.00000020107916, 10.00057, 9.999858 
1.5501466e+2, 1.8568097e+2, -1030266.5, -1134270.6, -16370.849, -0.15033196, -0.0403679, -1027750.5, 92567.695, 0.0, 10.000838, 9.999524 
1.550168e+2, 1.9568008e+2, -933008.56, -1044723.75, 5820.605, -0.10441684, -0.11486252, -932706.1, 89619.6, 0.0, 10.000874, 9.999449 
1.5501845e+2, 2.056796e+2, -870563.4, -967408.2, -37478.68, -0.065992795, -0.09890566, -857753.6, 66577.914, 0.0, 10.000647, 9.999406 
1.5501957e+2, 2.1567926e+2, -843741.25, -903478.7, -26633.416, -0.037727207, -0.10841442, -833591.5, -7254.0044, 0.0, 10.000166, 9.999399 
1.550214e+2, 2.2567946e+2, -703885.06, -733108.75, 30651.168, -0.042844363, -0.048435673, -684541.06, 43793.4, 0.0, 10.000236, 9.99986 
1.5502384e+2, 2.356798e+2, -558293.8, -638680.44, 49390.367, -0.0776509, -0.03360262, -534808.94, 95518.14, 0.0, 10.000664, 9.999636 
1.5502565e+2, 2.456782e+2, -550001.25, -779597.56, -11460.553, -0.12289762, -0.058618844, -549430.6, -17088.234, 0.0, 10.00089, 9.997887 
1.550271e+2, 2.5567484e+2, -464358.44, -696891.2, -25591.87, -0.1685985, -0.21744847, -461575.2, -27197.281, 0.0, 10.000832, 9.997817 
1.5502894e+2, 2.6567307e+2, -214640.08, -458617.53, -59449.24, -0.12744059, -0.20355181, -200925.22, 135469.42, 0.0, 10.00162, 9.9983835 
1.5503104e+2, 2.7567214e+2, 50342.633, -313850.88, -315.4501, -0.026265156, -0.16430306, 50342.906, 288742.88, 0.000000019825112, 10.002889, 9.99811 
1.550329e+2, 2.8566962e+2, 61283.48, -428511.7, -637.6222, 0.02297592, -0.13902523, 61284.313, 201710.34, 0.0000019865888, 10.00303, 9.996572 
1.5503481e+2, 2.95666e+2, 44530.676, -358802.9, -10995.115, 0.058513824, -0.20301759, 44830.188, 87296.5, 0.000014949104, 10.002109, 9.99682 
1.5503453e+2, 3.0566585e+2, 211867.22, -74327.63, 12862.554, -0.14609416, 0.015424822, 212444.14, 212444.14, 0.000059797247, 10.002228, 9.99837 
1.5503648e+2, 3.1566185e+2, 277805.72, -65566.76, 99935.54, -0.20169516, -0.24163349, 304773.13, 304773.13, 0.00017773658, 10.002688, 9.998219 
1.6500023e+2, 1.2567827e+2, -1802627.4, -1754068.5, -30223.936, 0.14972463, -0.017361104, -1739579.6, -31235.475, 0.0014964563, 9.999269, 10.000064 
1.6500255e+2, 1.3567717e+2, -1612194.8, -1594420.3, 55941.95, -0.080548726, -0.18049526, -1546664.0, 63689.3, 0.0008776996, 9.9998865, 10.000198 
1.6500641e+2, 1.4567871e+2, -1512055.5, -1491043.5, 12220.443, -0.04728613, -0.045378197, -1485433.8, 26905.14, 0.00037921302, 9.999908, 10.000195 
1.6501002e+2, 1.5567864e+2, -1448556.3, -1441576.5, 7660.688, 0.06643344, -0.09339267, -1436648.3, -22306.178, 0.00009882513, 9.999802, 9.999918 
1.6501231e+2, 1.6567886e+2, -1312577.5, -1318515.5, 43282.664, 0.03690573, -0.06088481, -1272162.1, 44178.41, 0.000009884257, 10.00002, 9.999989 
1.650136e+2, 1.7567925e+2, -1164728.9, -1205366.8, 22400.855, -0.10336947, -0.059377816, -1154804.5, 63531.348, 0.0000002904704, 10.000398, 9.999912 
1.6501555e+2, 1.8567891e+2, -1093601.4, -1151161.5, -1616.2086, -0.11171151, -0.061716784, -1093556.0, 26781.514, 0.0, 10.000361, 9.999617 
1.65018e+2, 1.9567777e+2, -1049180.3, -1091071.4, -16769.96, -0.020796074, -0.17440364, -1043293.94, -20947.21, 0.0, 10.000038, 9.999515 
1.6501953e+2, 2.056774e+2, -922958.9, -1015508.75, -24193.621, -0.00048136534, -0.13767137, -917016.0, 7336.1006, 0.0, 10.000413, 9.99918 
1.6502029e+2, 2.1567753e+2, -688506.9, -854474.1, -52078.344, -0.029574977, -0.07568569, -673518.9, 152836.66, 0.0, 10.001354, 9.999162 
1.6502224e+2, 2.2567755e+2, -519623.53, -683204.06, 6279.3184, -0.046480153, -0.0034553972, -519382.84, 208972.08, 0.0, 10.001659, 9.999519 
1.65025e+2, 2.3567733e+2, -466707.28, -624563.75, -41219.84, -0.057599165, -0.012395014, -456592.03, 173760.56, 0.0, 10.001429, 9.999362 
1.6502719e+2, 2.4567527e+2, -460760.2, -731386.7, -51013.14, -0.07912932, -0.07226746, -451463.56, 80908.33, 0.0, 10.001493, 9.997924 
1.6502905e+2, 2.556716e+2, -314506.97, -610593.0, -37463.047, -0.095937714, -0.2663693, -309840.44, 124569.07, 0.0, 10.001821, 9.997921 
1.6503109e+2, 2.6567006e+2, -135573.36, -401080.6, -27161.637, -0.0863147, -0.24173902, -132823.19, 203600.33, 0.0, 10.00206, 9.998572 
1.6503331e+2, 2.756698e+2, -23252.502, -318151.03, -67145.84, -0.044728152, -0.16235727, -8683.711, 229739.25, 0.000000024295247, 10.0022545, 9.998372 
1.6503535e+2, 2.8566763e+2, -13618.762, -443902.3, -59047.535, 0.0069901273, -0.1224303, -5662.812, 134783.05, 0.0000019697127, 10.002432, 9.996756 
1.6503766e+2, 2.9566422e+2, 149184.39, -280859.3, -40744.47, 0.11623983, -0.18483697, 153010.67, 195495.34, 0.000013995548, 10.002706, 9.997076 
1.6503692e+2, 3.0566394e+2, 282881.3, -37830.87, 29189.412, -0.13705924, 0.0036742196, 285516.3, 285516.3, 0.000055183133, 10.002662, 9.998433 
1.6503967e+2, 3.1566057e+2, 204062.78, -96904.67, -17404.836, -0.103405654, -0.1934477, 205065.95, 205065.95, 0.00016346599, 10.002118, 9.998294 
1.7499992e+2, 1.2567513e+2, -1741653.6, -1624470.9, -58107.98, 0.113272876, 0.019250253, -1600542.6, 107840.74, 0.0014785845, 9.999251, 10.0009575 
1.7500228e+2, 1.3567467e+2, -1583397.9, -1518735.6, 85275.734, -0.13267356, -0.143567, -1459867.8, 150514.95, 0.00086354057, 9.999836, 10.000728 
1.7500602e+2, 1.4567707e+2, -1490990.4, -1439211.8, -9431.513, -0.12112452, 0.03532271, -1437547.3, 74810.516, 0.00037008742, 9.999858, 10.000583 
1.7500918e+2, 1.5567721e+2, -1421645.4, -1379785.8, 22634.365, -0.037940852, -0.037837315, -1369887.5, 44470.22, 0.000094032526, 9.999775, 10.000355 
1.7501213e+2, 1.656772e+2, -1317754.3, -1321746.3, 41772.36, -0.0194071, -0.04786329, -1277930.3, 38426.742, 0.000008393363, 9.999976, 9.999994 
1.7501487e+2, 1.75677e+2, -1172179.6, -1207157.5, 50359.81, -0.05328881, -0.10350701, -1136358.4, 81998.12, 0.00000020811186, 10.00034, 9.999927 
1.7501691e+2, 1.8567649e+2, -1105132.5, -1158735.8, -27345.973, -0.046556745, -0.12415136, -1093644.1, 26715.535, 0.0, 10.000281, 9.999608 
1.7501841e+2, 1.9567543e+2, -1067466.3, -1100759.4, -10341.038, -0.018171333, -0.22702016, -1064515.8, -42147.05, 0.0, 9.999919, 9.999506 
1.7501979e+2, 2.0567535e+2, -965487.0, -1079215.9, -6318.5293, -0.046890326, -0.14186423, -965137.0, -40764.92, 0.0, 10.000297, 9.998803 
1.7502105e+2, 2.1567585e+2, -739224.44, -926908.7, -4090.2786, -0.119487196, -0.008954874, -739135.3, 87237.7, 0.0, 10.001211, 9.9987335 
1.7502327e+2, 2.25675e+2, -592878.1, -802870.4, -17123.219, -0.1375155, 0.037778396, -591491.0, 136891.31, 0.0, 10.001518, 9.998765 
1.7502609e+2, 2.356729e+2, -534607.0, -731585.4, -33664.883, -0.12199407, -0.08208467, -529012.3, 101387.92, 0.0, 10.001278, 9.9987 
1.7502902e+2, 2.456715e+2, -419619.22, -624775.3, -53014.633, -0.07493435, -0.0893788, -406729.5, 125683.25, 0.0, 10.001401, 9.998697 
1.7503205e+2, 2.5567043e+2, -290631.22, -525875.4, -11153.184, -0.011710916, -0.10000516, -290103.63, 144318.67, 0.0, 10.001669, 9.998575 
1.7503338e+2, 2.6566935e+2, -180862.28, -487629.63, -36492.58, -0.09912639, -0.032087315, -176580.92, 159852.48, 0.0, 10.002019, 9.997999 
1.750332e+2, 2.756678e+2, -70126.195, -392331.94, -45635.96, -0.31808412, -0.024621157, -63787.21, 174662.4, 0.000000035492793, 10.002147, 9.997918 
1.7503564e+2, 2.8566578e+2, 54342.37, -293319.88, -65057.656, -0.24350025, -0.005350854, 66117.7, 206588.69, 0.0000021240596, 10.0023985, 9.997799 
1.7504047e+2, 2.9566354e+2, 195182.23, -153815.19, -13578.96, 0.08561995, -0.053760346, 195709.77, 238204.55, 0.000013429294, 10.002585, 9.997996 
1.7503998e+2, 3.0566338e+2, 245058.97, -115126.6, 1809.1409, -0.12905581, 0.13203375, 245068.05, 245068.05, 0.000050919698, 10.002649, 9.997911 
1.7504239e+2, 3.1565985e+2, 173169.58, -125390.25, -28694.188, -0.11944078, -0.02735103, 175902.33, 175902.33, 0.00014908816, 10.001989, 9.998149 
1.8499969e+2, 1.2567341e+2, -1630761.0, -1533008.8, 117365.53, 0.14829198, 0.010751613, -1454749.0, 253652.1, 0.0014297328, 9.999854, 10.001288 
1.8500277e+2, 1.3567296e+2, -1623021.5, -1544833.9, 155430.63, -0.041998204, -0.14660908, -1423656.0, 186743.63, 0.00082590414, 9.999602, 10.000653 
1.8500662e+2, 1.4567527e+2, -1528563.8, -1478533.6, 62039.383, -0.025090499, 0.038478542, -1436656.0, 75719.24, 0.00034715154, 9.999679, 10.000396 
1.8500884e+2, 1.556752e+2, -1375996.0, -1374606.0, 17706.434, -0.059252053, -0.04254508, -1357581.0, 56796.816, 0.0000844504, 10.000146, 10.000216 
1.8501201e+2, 1.6567513e+2, -1275815.3, -1296705.4, 46382.758, -0.035873108, -0.05376738, -1238716.0, 77661.75, 0.000006352812, 10.000282, 10.0 
1.85016e+2, 1.7567493e+2, -1183737.1, -1214028.5, 24595.855, 0.037895832, -0.110568695, -1169997.8, 48379.496, 0.000000056960435, 10.000284, 9.999898 
1.8501832e+2, 1.8567458e+2, -1082216.1, -1156031.9, -36610.082, 0.062682346, -0.109082654, -1067138.5, 53240.76, 0.0, 10.00049, 9.999521 
1.8501921e+2, 1.9567393e+2, -950912.5, -1054971.5, -55572.277, 0.035509568, -0.16218813, -926814.8, 95570.37, 0.0, 10.0007715, 9.999412 
1.8502066e+2, 2.0567362e+2, -853464.7, -1047969.0, 8477.345, -0.023582509, -0.086451516, -853095.94, 71294.74, 0.0, 10.001148, 9.9986105 
1.8502244e+2, 2.1567337e+2, -698400.9, -930738.56, -5546.582, -0.111774564, -0.008062035, -698268.56, 128129.086, 0.0, 10.001572, 9.998539 
1.850249e+2, 2.2567204e+2, -598234.06, -840205.7, 4219.5044, -0.124969676, 0.01600878, -598160.5, 130251.2, 0.0, 10.001634, 9.998456 
1.850278e+2, 2.356697e+2, -534592.56, -764707.06, -6973.1353, -0.07884253, -0.09690441, -534381.44, 96051.88, 0.0, 10.001415, 9.998409 
1.850309e+2, 2.4566852e+2, -377751.34, -585783.4, 14580.756, -0.028455812, -0.07511868, -376734.38, 155709.44, 0.0, 10.0016, 9.99887 
1.8503429e+2, 2.5566804e+2, -217587.23, -472861.8, -16900.004, 0.035052393, -0.04755, -216473.27, 217974.14, 0.0, 10.002079, 9.998745 
1.850357e+2, 2.6566705e+2, -189932.64, -490226.84, -29372.402, -0.057744987, 0.025433727, -187086.64, 149371.14, 0.0, 10.001976, 9.997993 
1.8503544e+2, 2.7566537e+2, -155272.56, -432170.56, -27044.771, -0.27084488, 0.022968143, -152655.81, 85820.61, 0.000000044067633, 10.001568, 9.997925 
1.8503788e+2, 2.8566334e+2, -35423.055, -317559.97, -21518.389, -0.21467386, 0.025920274, -33791.297, 106707.07, 0.000002141611, 10.001673, 9.997993 
1.8504271e+2, 2.9566106e+2, 129090.9, -175537.64, -69950.484, 0.08758381, -0.0401956, 144385.42, 186907.0, 0.000012353572, 10.002062, 9.998112 
1.8504266e+2, 3.056611e+2, 216747.25, -195393.4, -52643.023, -0.11736034, 0.18749954, 223365.13, 223365.13, 0.00004451732, 10.002731, 9.997321 
1.8504634e+2, 3.156564e+2, 426640.53, 10128.199, -185725.28, 0.010902869, -0.02499596, 497426.5, 497426.5, 0.00012893318, 10.003608, 9.998334 
1.9499865e+2, 1.2567332e+2, -1665510.9, -1582357.6, 54688.418, -0.02104488, -0.017840989, -1555236.0, 153159.28, 0.0013506947, 9.999774, 10.000984 
1.9500363e+2, 1.3567202e+2, -1683566.0, -1654779.5, 156203.08, 0.048826545, -0.18822676, -1512308.0, 98096.04, 0.00077082973, 9.999557, 9.999914 
1.9500774e+2, 1.4567333e+2, -1585419.0, -1581295.5, 60332.11, 0.07496993, -0.03155169, -1522989.9, -10598.521, 0.0003170448, 9.99961, 9.999725 
1.950085e+2, 1.556728e+2, -1426106.9, -1467514.1, 47090.95, -0.14481035, -0.09227295, -1395369.4, 19031.15, 0.000073711046, 10.000103, 9.999597 
1.9501151e+2, 1.6567285e+2, -1284452.0, -1306078.3, 33531.348, -0.1482264, -0.06102047, -1260033.4, 56367.645, 0.0000047225935, 10.00023, 9.999971 
1.9501661e+2, 1.7567308e+2, -1193568.4, -1221719.4, 44066.094, 0.032355525, -0.07289086, -1161384.4, 57013.137, 0.0000000036456946, 10.000224, 9.99988 
1.950193e+2, 1.8567322e+2, -1109616.8, -1191347.9, -40768.72, 0.079150245, -0.011132997, -1092758.1, 27637.871, 0.0, 10.000393, 9.999332 
1.9501999e+2, 1.9567314e+2, -979440.56, -1090516.8, -29503.521, 0.0039086984, 0.014321006, -972090.4, 50306.836, 0.0, 10.000666, 9.999224 
1.9502164e+2, 2.0567217e+2, -875207.9, -1052989.4, 12614.542, -0.069984816, 0.031534053, -874317.25, 50090.496, 0.0, 10.000982, 9.998651 
1.9502401e+2, 2.1567021e+2, -718474.1, -934611.25, 23807.422, -0.14325707, -0.065143615, -715882.8, 110545.54, 0.0, 10.0014105, 9.9985895 
1.950267e+2, 2.2566883e+2, -616813.7, -839737.0, -19470.508, -0.13472778, -0.053196803, -615125.9, 113316.04, 0.0, 10.001474, 9.998533 
1.9502957e+2, 2.3566777e+2, -555855.8, -766235.94, 856.8828, -0.07084033, -0.0477033, -555852.3, 74599.33, 0.0, 10.001241, 9.998479 
1.9503246e+2, 2.4566638e+2, -422934.1, -649851.8, 18832.756, -0.06305891, -0.02940483, -421381.72, 111083.4, 0.0, 10.001474, 9.998491 
1.9503532e+2, 2.5566456e+2, -265393.0, -531499.94, 13880.584, -0.103522, -0.10008284, -264670.9, 169812.66, 0.0, 10.001907, 9.998424 
1.9503763e+2, 2.6566347e+2, -162672.55, -421649.9, -59299.457, -0.09409499, -0.048919518, -149740.22, 186754.2, 0.0, 10.001917, 9.9985 
1.9503954e+2, 2.756626e+2, -140581.0, -384537.6, -21184.668, -0.052181534, -0.01824232, -138755.03, 99748.2, 0.000000036761158, 10.001483, 9.998302 
1.9504166e+2, 2.8566012e+2, -93131.164, -422442.38, -18411.023, -0.038373288, -0.03186106, -92105.05, 48424.14, 0.0000018181237, 10.001614, 9.997299 
1.9504398e+2, 2.956569e+2, 56734.62, -286780.78, -35626.945, -0.032811772, -0.1316547, 60390.68, 102954.98, 0.000010151812, 10.001906, 9.997417 
1.9504456e+2, 3.056571e+2, 165974.28, -285447.3, -29710.7, -0.23689526, 0.1803232, 167921.33, 167921.33, 0.00003534469, 10.002679, 9.996719 
1.9505073e+2, 3.1565067e+2, 460596.75, 124571.36, -159919.16, 0.01819589, -0.15916564, 524537.5, 524537.5, 0.000103030594, 10.003455, 9.999173 
2.0499906e+2, 1.2567194e+2, -1687145.3, -1625069.1, 6406.4414, 0.058319043, -0.060396012, -1624414.9, 83990.61, 0.0012481128, 9.999772, 10.000699 
2.0500366e+2, 1.3567059e+2, -1608945.0, -1681704.0, 66479.42, 0.07287679, -0.1778009, -1569542.1, 40874.79, 0.0007037624, 10.000319, 9.999386 
2.0500822e+2, 1.4567107e+2, -1509251.9, -1554659.8, 38506.063, 0.14344677, -0.07261501, -1487254.8, 25158.643, 0.00028324383, 10.00019, 9.999627 
2.0500888e+2, 1.5567072e+2, -1478176.6, -1503844.0, 25183.25, -0.09130402, -0.10297403, -1462745.5, -48325.426, 0.000063005726, 9.999804, 9.99949 
2.0501192e+2, 1.6567075e+2, -1333113.6, -1352331.5, 60467.133, -0.10939078, -0.058740813, -1281496.8, 34924.395, 0.0000035155435, 9.999992, 9.999771 
2.0501715e+2, 1.756707e+2, -1166505.4, -1234713.5, 23812.66, 0.060827844, -0.07234906, -1159014.6, 59406.676, 0.0000000004928599, 10.000515, 9.999658 
2.0502007e+2, 1.8567066e+2, -1039629.2, -1170288.8, -30409.055, 0.09814825, -0.013033808, -1032898.7, 87523.0, 0.0, 10.000922, 9.999219 
2.0502101e+2, 1.956705e+2, -900731.5, -1065273.1, -44737.793, 0.018977406, 0.013915481, -889354.25, 133069.19, 0.0, 10.001253, 9.99911 
2.0502299e+2, 2.0566942e+2, -826939.3, -1032893.25, 23274.736, -0.04126215, 0.026740694, -824341.75, 100092.91, 0.0, 10.001323, 9.998628 
2.050259e+2, 2.1566738e+2, -763185.25, -956976.6, 3630.5205, -0.07230586, -0.0740758, -763117.25, 63338.49, 0.0, 10.001112, 9.998579 
2.0502861e+2, 2.2566614e+2, -638478.6, -840508.56, -11650.482, -0.07333515, -0.05459397, -637809.0, 90659.22, 0.0, 10.001279, 9.998618 
2.0503117e+2, 2.3566525e+2, -483770.47, -727155.75, -21029.46, -0.049611762, -0.038529947, -481966.8, 148509.34, 0.0, 10.001707, 9.998525 
2.0503388e+2, 2.4566387e+2, -420435.97, -666730.56, 26530.914, -0.0638951, -0.014283275, -417610.47, 114880.13, 0.0, 10.001573, 9.998324 
2.0503671e+2, 2.556619e+2, -401869.8, -613238.06, 7630.4844, -0.10209479, -0.07991045, -401594.72, 32917.06, 0.0, 10.00105, 9.998271 
2.0503958e+2, 2.6566088e+2, -245009.4, -453878.22, -38453.49, -0.052316554, -0.018942054, -238154.92, 98367.59, 0.0, 10.001314, 9.9985695 
2.050425e+2, 2.756602e+2, -36514.406, -322266.8, -65335.242, 0.07148078, 0.021356856, -22284.584, 216244.7, 0.00000002096579, 10.0021515, 9.998402 
2.050445e+2, 2.856576e+2, 24253.344, -345635.03, -8761.063, 0.05827673, -0.019262986, 24460.74, 165016.27, 0.0000012828043, 10.002345, 9.997474 
2.0504574e+2, 2.9565406e+2, 97065.664, -251285.28, 10215.385, -0.045366403, -0.16979809, 97364.97, 139957.03, 0.000007381431, 10.002112, 9.997565 
2.0504713e+2, 3.056546e+2, 89505.445, -342008.3, 114578.37, -0.20947474, 0.18048634, 118041.9, 118041.9, 0.00002618385, 10.002243, 9.996553 
2.0505433e+2, 3.156483e+2, 354405.94, 137499.81, -86503.09, 0.096252725, -0.13221239, 384678.7, 384678.7, 0.000078949044, 10.002481, 9.999726 
2.1499972e+2, 1.2566921e+2, -1715272.8, -1669604.0, -22572.664, 0.07342367, -0.114491895, -1660330.3, 48101.305, 0.0011286415, 9.999705, 10.000428 
2.1500246e+2, 1.3566877e+2, -1618927.0, -1714427.3, 99186.766, -0.11612567, -0.11480708, -1556594.9, 53842.484, 0.00062779407, 10.000362, 9.999141 
2.150076e+2, 1.4566866e+2, -1491558.4, -1510247.0, 5218.1597, 0.017336601, -0.07254447, -1490200.1, 22238.988, 0.00024660726, 10.000152, 9.999949 
2.1500954e+2, 1.5566903e+2, -1454572.6, -1459661.5, 29462.787, -0.04575323, -0.06785591, -1427544.6, -13109.187, 0.000052325075, 9.999815, 9.999788 
2.1501273e+2, 1.6566879e+2, -1376424.8, -1424327.3, 65315.89, -0.06066717, -0.040473368, -1330807.1, -14369.052, 0.000002586899, 9.999916, 9.9993105 
2.150172e+2, 1.756677e+2, -1207097.8, -1299012.1, 59863.09, -0.019192362, -0.11759894, -1177585.4, 40863.684, 0.000000000052014764, 10.000436, 9.999248 
2.150201e+2, 1.8566683e+2, -1060907.4, -1189319.1, -30780.137, -0.021789776, -0.11849747, -1053910.8, 66546.26, 0.0, 10.000807, 9.9991455 
2.1502182e+2, 1.9566591e+2, -912538.7, -1075789.0, -16940.129, -0.06259631, -0.16581401, -910799.4, 111665.23, 0.0, 10.0011835, 9.999073 
2.1502434e+2, 2.0566532e+2, -848004.6, -1047930.06, 527.2514, -0.0686812, -0.0996469, -848003.2, 76468.62, 0.0, 10.001201, 9.998582 
2.150276e+2, 2.1566477e+2, -786392.7, -970210.2, 9852.433, -0.045664992, -0.04666361, -785866.1, 40614.78, 0.0, 10.00096, 9.998559 
2.1503016e+2, 2.2566378e+2, -659508.44, -840575.1, -9818.796, -0.074011944, -0.004735599, -658977.5, 69514.375, 0.0, 10.001098, 9.998701 
2.1503215e+2, 2.3566225e+2, -506732.6, -726982.25, 9363.097, -0.15306942, -0.067222156, -506335.25, 124171.12, 0.0, 10.001507, 9.998616 
2.1503483e+2, 2.4566111e+2, -436972.84, -677265.75, -8250.939, -0.15835552, -0.020818008, -436689.88, 95829.29, 0.0, 10.001469, 9.998304 
2.1503806e+2, 2.5566015e+2, -424278.53, -626514.44, 7147.9805, -0.10668557, 0.017707441, -424026.22, 10505.691, 0.0, 10.000907, 9.99825 
2.1504107e+2, 2.656593e+2, -282831.0, -512481.3, -21757.504, -0.06570556, 0.116755344, -280787.84, 55754.53, 0.0, 10.001228, 9.998204 
2.1504383e+2, 2.756581e+2, -78322.44, -375218.16, -19742.31, -0.0448059, 0.14232415, -77015.41, 161540.1, 0.00000000626477, 10.002005, 9.998107 
2.1504596e+2, 2.8565565e+2, 98180.664, -179743.69, -33211.26, -0.06395054, 0.06303526, 102094.22, 242672.66, 0.00000075455597, 10.002296, 9.998634 
2.1504769e+2, 2.956526e+2, 153740.44, -113435.29, 18323.066, -0.10284582, -0.14861435, 154991.19, 197595.75, 0.0000049684672, 10.002029, 9.998552 
2.1505015e+2, 3.0565357e+2, 97441.61, -327810.34, 112656.4, -0.1641832, 0.19993223, 125442.46, 125442.46, 0.000019575336, 10.002246, 9.9966545 
2.1505633e+2, 3.1564912e+2, 338380.6, 128217.85, -51579.844, -0.021766704, 0.05930522, 350357.22, 350357.22, 0.00006230811, 10.0023775, 9.999719 
2.2499998e+2, 1.256663e+2, -1712079.3, -1712655.5, 16297.061, 0.13658157, -0.14264213, -1696067.8, 12390.967, 0.0009987325, 9.999901, 10.000037 
2.250024e+2, 1.3566647e+2, -1641842.8, -1736929.8, 63298.28, -0.13998537, -0.070288785, -1610221.5, 239.82733, 0.0005469882, 10.000272, 9.999014 
2.2500801e+2, 1.45666e+2, -1479149.8, -1492325.8, -20602.53, 0.051054507, -0.06643396, -1464107.5, 48359.375, 0.00020906689, 10.000187, 10.000065 
2.2500986e+2, 1.5566653e+2, -1432082.9, -1440345.0, -43120.516, 0.0074849683, -0.053260837, -1392896.0, 21563.867, 0.000042237294, 9.999938, 9.999867 
2.2501318e+2, 1.656662e+2, -1372193.3, -1435139.5, 55024.21, -0.0029177335, -0.030562801, -1340276.9, -23814.436, 0.0000020119714, 10.00001, 9.999177 
2.2501798e+2, 1.7566477e+2, -1237807.4, -1328332.8, 36877.074, 0.02961326, -0.1310316, -1224686.6, -6209.6455, 0.0, 10.0002985, 9.999098 
2.2502108e+2, 1.8566361e+2, -1081272.1, -1202308.6, -16227.836, 0.008611087, -0.15172796, -1079134.3, 41353.266, 0.0, 10.000677, 9.999125 
2.2502285e+2, 1.9566257e+2, -945158.75, -1093928.9, -33139.418, -0.05889087, -0.20591192, -938110.7, 84385.51, 0.0, 10.000985, 9.999049 
2.250256e+2, 2.0566213e+2, -856252.7, -1057657.0, -3365.7842, -0.055070087, -0.12151482, -856196.44, 68305.984, 0.0, 10.001161, 9.998548 
2.250291e+2, 2.1566184e+2, -765218.94, -967276.75, -18501.154, 0.00871194, -0.0363898, -763538.9, 62970.813, 0.0, 10.001127, 9.998511 
2.2503173e+2, 2.2566098e+2, -656634.3, -836888.9, -2348.3623, -0.018284626, 0.018425679, -656603.7, 71916.195, 0.0, 10.001093, 9.998736 
2.250337e+2, 2.3565942e+2, -577768.4, -756358.56, -19282.654, -0.11262956, -0.046282105, -575710.1, 54824.438, 0.0, 10.000997, 9.998663 
2.2503665e+2, 2.4565825e+2, -463378.16, -686350.56, -12235.97, -0.104745865, -0.0076147434, -462708.7, 69838.74, 0.0, 10.00127, 9.998336 
2.2504029e+2, 2.5565714e+2, -281471.84, -558229.3, -23916.432, -0.013986087, 0.011469735, -279420.28, 155140.92, 0.0, 10.001875, 9.99826 
2.2504298e+2, 2.6565626e+2, -172465.38, -450160.1, 6748.397, -0.026770493, 0.100328945, -172301.47, 164270.56, 0.0, 10.001949, 9.998282 
2.2504494e+2, 2.756552e+2, -113701.24, -382317.38, 11351.365, -0.10971337, 0.12996164, -113222.4, 125361.58, 0.00000000006385136, 10.001714, 9.998197 
2.2504765e+2, 2.8565294e+2, 52257.297, -194543.73, -5480.9307, -0.09624746, 0.06336789, 52378.957, 192983.78, 0.00000032397858, 10.001943, 9.998703 
2.2505085e+2, 2.9565012e+2, 220198.86, -75822.46, -68186.984, 0.00027213123, -0.1306342, 235150.23, 277778.7, 0.000003287384, 10.002472, 9.998588 
2.2505423e+2, 3.0565098e+2, 187068.16, -239943.47, 40264.516, 0.012960953, 0.1827591, 190831.67, 190831.67, 0.00001601569, 10.002667, 9.997048 
2.2505848e+2, 3.1564727e+2, 325668.94, 78345.42, -153324.31, -0.03065305, 0.065881744, 398985.78, 398985.78, 0.000054019332, 10.002463, 9.999331 
2.3499915e+2, 1.2566316e+2, -1756647.3, -1799058.9, 2266.216, -0.018127365, -0.1628189, -1756526.5, -48038.965, 0.0008678289, 9.999886, 9.9994545 
2.3500298e+2, 1.3566358e+2, -1643839.6, -1751366.5, 78982.68, -0.14614753, -0.03998287, -1602058.4, 8431.434, 0.00046623294, 10.000301, 9.998913 
2.3500885e+2, 1.4566284e+2, -1495794.4, -1497746.8, -48056.066, 0.080737285, -0.062091507, -1448704.5, 63794.332, 0.00017258529, 10.000072, 10.000084 
2.3500936e+2, 1.5566312e+2, -1438866.4, -1446224.4, -32764.887, -0.073052235, -0.06974913, -1409574.6, 4919.6494, 0.000033446406, 9.999906, 9.999846 
2.3501286e+2, 1.6566284e+2, -1380609.8, -1430345.0, 49512.082, -0.0727732, -0.043687876, -1350071.1, -33575.38, 0.0000017722703, 9.999917, 9.999257 
2.350191e+2, 1.7566167e+2, -1235310.5, -1313187.0, 62469.426, 0.07645748, -0.12614375, -1200637.5, 17869.309, 0.0000000001389195, 10.00025, 9.999231 
2.3502252e+2, 1.8566091e+2, -1102803.1, -1217035.4, -19376.34, 0.05464198, -0.11127128, -1099606.0, 20907.863, 0.0, 10.000555, 9.999083 
2.350236e+2, 1.9566035e+2, -960374.06, -1107571.4, -9066.023, -0.11378521, -0.11016998, -959817.8, 62701.46, 0.0, 10.000903, 9.998997 
2.3502617e+2, 2.0565967e+2, -881589.8, -1067267.8, -18905.674, -0.13788407, -0.049600556, -879684.4, 44843.496, 0.0, 10.000983, 9.998563 
2.3502994e+2, 2.1565855e+2, -789611.94, -977497.0, -2152.3298, -0.049383055, -0.053679556, -789587.3, 36955.03, 0.0, 10.000952, 9.998525 
2.3503296e+2, 2.2565769e+2, -687499.3, -859124.44, -17296.826, -0.033078343, 0.0064985626, -685773.44, 42778.688, 0.0, 10.000918, 9.998668 
2.3503542e+2, 2.3565686e+2, -602880.1, -776116.56, -4460.6567, -0.0755224, 0.0242518, -602765.3, 27795.035, 0.0, 10.000854, 9.998601 
2.3503877e+2, 2.4565524e+2, -472942.66, -681973.6, -4027.9412, -0.05232269, 0.018482147, -472865.06, 59711.3, 0.0, 10.001164, 9.998417 
2.3504284e+2, 2.5565284e+2, -296865.53, -551991.25, 11467.481, 0.02034986, -0.10017132, -296351.13, 138249.13, 0.0, 10.001709, 9.998381 
2.3504487e+2, 2.656518e+2, -149849.08, -380404.13, -17755.133, -0.06520196, -0.06119849, -148489.77, 188121.11, 0.0, 10.001856, 9.998808 
2.3504542e+2, 2.7565143e+2, -101315.195, -328244.16, 22157.426, -0.26652622, -0.013687454, -99171.98, 139442.92, 0.0, 10.001588, 9.998633 
2.3504904e+2, 2.8564957e+2, -24036.33, -339282.53, 1286.3307, -0.18680866, -0.008047522, -24031.08, 116602.94, 0.00000009734078, 10.001884, 9.997736 
2.3505472e+2, 2.956467e+2, 138569.55, -220664.69, -32818.605, 0.093539976, -0.11016059, 141543.14, 184206.9, 0.0000024854203, 10.002355, 9.997657 
2.3505886e+2, 3.056468e+2, 245074.48, -110706.08, 23889.303, 0.17449644, 0.13206713, 246671.39, 246671.39, 0.000014818684, 10.002636, 9.9979515 
2.3505998e+2, 3.1564322e+2, 268006.1, -24249.531, -102704.96, -0.20251745, -0.062938, 300488.6, 300488.6, 0.00005156838, 10.00238, 9.998674 
2.449999e+2, 1.2565918e+2, -1774590.6, -1803166.0, -19666.373, 0.089717865, -0.14148478, -1764569.8, -56041.883, 0.00074233726, 9.999774, 9.999473 
2.4500254e+2, 1.3565983e+2, -1738687.5, -1764241.3, 7669.513, -0.16803962, -0.028737562, -1736562.4, -126035.96, 0.00038816038, 9.999527, 9.999196 
2.4500853e+2, 1.4565904e+2, -1598603.6, -1568610.1, -72703.29, 0.08485445, -0.058754012, -1509373.0, 3162.8535, 0.00013769997, 9.999445, 9.999894 
2.4500966e+2, 1.5565902e+2, -1470401.0, -1479846.9, -104093.49, -0.01611313, -0.078454465, -1370923.4, 43611.953, 0.000025817635, 9.999782, 9.999662 
2.4501336e+2, 1.6565883e+2, -1319249.9, -1383440.3, 21521.912, -0.02272487, -0.04492064, -1312702.0, 3834.4177, 0.0000016011192, 10.000247, 9.999439 
2.4501964e+2, 1.7565806e+2, -1164987.3, -1260090.9, 10144.102, 0.09560525, -0.10248897, -1163917.3, 54625.227, 0.0000000006420841, 10.000646, 9.999418 
2.450232e+2, 1.8565758e+2, -1079625.3, -1202808.5, -48164.652, 0.0691984, -0.07104534, -1063028.9, 57518.43, 0.0, 10.000712, 9.999095 
2.4502452e+2, 1.9565713e+2, -1025146.44, -1135853.5, -60385.42, -0.08249103, -0.06158345, -998582.9, 23969.938, 0.0, 10.0004635, 9.9990015 
2.4502715e+2, 2.0565633e+2, -889776.44, -1055229.1, -24597.145, -0.1220136, -0.017672174, -886197.1, 38364.86, 0.0, 10.000863, 9.998696 
2.4503109e+2, 2.1565503e+2, -685084.06, -910725.9, -33882.895, -0.05459435, -0.05354869, -680105.94, 146470.5, 0.0, 10.001616, 9.998652 
2.4503444e+2, 2.2565399e+2, -565324.9, -816676.25, -39774.98, -0.01351871, -0.010587938, -559180.9, 169406.88, 0.0, 10.001835, 9.998514 
2.4503744e+2, 2.3565297e+2, -500895.66, -737927.25, -57283.023, 0.011145815, 0.0008213631, -487778.13, 142820.47, 0.0, 10.001617, 9.998488 
2.4504073e+2, 2.4565145e+2, -414064.06, -627351.7, -7880.837, 0.020454254, -0.0025814418, -413773.25, 118840.04, 0.0, 10.001442, 9.998674 
2.4504429e+2, 2.5564942e+2, -345580.9, -546772.0, -8295.125, 0.027294751, -0.11103865, -345239.47, 89393.1, 0.0, 10.001253, 9.998644 
2.4504653e+2, 2.6564842e+2, -243280.92, -440701.63, -38878.836, -0.046588615, -0.07090705, -235900.28, 100742.39, 0.0, 10.0012665, 9.998684 
2.4504788e+2, 2.7564803e+2, -128562.89, -350233.5, -76607.14, -0.16316007, -0.01558883, -104664.69, 133983.27, 0.0, 10.001447, 9.9985485 
2.450514e+2, 2.8564626e+2, -67498.52, -370910.4, -32537.291, -0.118214056, 0.009992894, -64048.516, 76618.27, 0.00000009803459, 10.001623, 9.997654 
2.4505615e+2, 2.9564336e+2, 56683.355, -262613.16, -32335.146, 0.03923946, -0.09009316, 59925.023, 102622.53, 0.0000023443192, 10.001799, 9.99764 
2.4506135e+2, 3.0564347e+2, 205963.83, -78528.445, 66971.65, 0.19970234, 0.12650383, 220940.98, 220940.98, 0.000014153015, 10.002153, 9.9984045 
2.4506353e+2, 3.1564024e+2, 259053.66, -34742.305, -133075.31, -0.06967348, -0.07178315, 310367.84, 310367.84, 0.00004937861, 10.002388, 9.998582 
2.5500113e+2, 1.2565449e+2, -1737922.9, -1719007.9, -42063.77, 0.1607547, -0.072851114, -1685351.5, 23227.139, 0.00062344765, 9.999736, 10.000072 
2.550007e+2, 1.3565505e+2, -1680333.6, -1642024.8, 8589.382, -0.33519518, -0.05342595, -1640187.0, -29614.74, 0.0003143659, 9.999526, 10.000034 
2.5500682e+2, 1.4565451e+2, -1642029.1, -1641397.5, -80960.97, -0.074866116, -0.073542215, -1560751.8, -48173.17, 0.00010539114, 9.999376, 9.999423 
2.5501013e+2, 1.5565419e+2, -1504694.6, -1539247.0, -76674.94, 0.014956344, -0.0809566, -1443373.6, -28789.465, 0.000019009012, 9.999735, 9.999272 
2.5501415e+2, 1.6565414e+2, -1307842.3, -1338717.0, 20763.121, 0.0013522163, -0.032003623, -1297406.4, 19177.953, 0.0000013062046, 10.000157, 9.999788 
2.550191e+2, 1.7565404e+2, -1150746.5, -1217753.1, 41456.543, -0.05686937, -0.0571737, -1130947.6, 87635.484, 0.000000000635992, 10.000593, 9.999731 
2.550227e+2, 1.8565364e+2, -1089599.0, -1201766.6, -70179.625, -0.085662775, -0.03251403, -1055846.5, 64740.746, 0.0, 10.000612, 9.999152 
2.5502512e+2, 1.9565277e+2, -1029926.3, -1127838.3, -51087.96, -0.1063495, -0.07622475, -1008124.5, 14473.397, 0.0, 10.000377, 9.999099 
2.5502822e+2, 2.0565204e+2, -905571.5, -1046383.3, -8635.13, -0.12969638, -0.039555725, -905043.94, 19561.709, 0.0, 10.000689, 9.998839 
2.5503206e+2, 2.1565118e+2, -696897.3, -901337.6, 6184.555, -0.15028818, -0.04502798, -696710.4, 129903.02, 0.0, 10.00147, 9.998787 
2.5503573e+2, 2.2564974e+2, -601339.4, -855194.4, -63446.703, -0.09784785, -0.037172202, -586365.25, 142262.86, 0.0, 10.001679, 9.998324 
2.550393e+2, 2.356476e+2, -534463.5, -770492.06, -49936.04, 0.005111532, -0.1215984, -524333.44, 106317.234, 0.0, 10.001453, 9.998343 
2.550421e+2, 2.4564676e+2, -400317.78, -568875.06, -30526.443, -0.014354816, -0.07795531, -394959.63, 137699.75, 0.0, 10.001322, 9.99913 
2.5504425e+2, 2.5564668e+2, -343797.03, -506224.6, -1888.0471, -0.1347479, -0.033938333, -343775.1, 90884.7, 0.0, 10.001095, 9.998999 
2.550475e+2, 2.6564607e+2, -312079.1, -555503.94, -47726.957, -0.10767667, 0.06636001, -303056.0, 33612.26, 0.0, 10.001157, 9.997944 
2.550518e+2, 2.756448e+2, -192144.6, -452000.56, -53994.824, 0.047375683, 0.1114785, -181371.77, 57313.316, 0.0, 10.001314, 9.997915 
2.5505424e+2, 2.856429e+2, -22794.695, -257719.25, -41421.477, -0.029263763, 0.10508761, -15705.275, 124999.57, 0.00000013920514, 10.001546, 9.998463 
2.5505468e+2, 2.9564002e+2, 86966.195, -158623.47, -10218.69, -0.32647043, -0.069118455, 87390.65, 130121.29, 0.0000022917138, 10.001632, 9.998429 
2.5506133e+2, 3.0564073e+2, 198599.48, -81198.66, 66806.24, -0.048431072, 0.16355345, 213732.11, 213732.11, 0.0000129202135, 10.002102, 9.998405 
2.550681e+2, 3.156377e+2, 259725.48, -12952.311, -50398.93, 0.07372333, -0.0059249685, 268742.53, 268742.53, 0.000045825393, 10.002299, 9.9987755 
2.6500106e+2, 1.2565014e+2, -1619613.4, -1634900.9, 19207.443, 0.16569851, 0.0060628485, -1606584.6, 102041.16, 0.00051409315, 10.000376, 10.000356 
2.6500097e+2, 1.3565001e+2, -1706845.6, -1631515.1, -62101.152, -0.22936091, -0.07670561, -1596549.6, 14073.419, 0.0002486299, 9.999193, 10.000285 
2.6500696e+2, 1.4564969e+2, -1686679.4, -1666354.4, -58616.914, 0.025969405, -0.08444017, -1617025.5, -104399.555, 0.00007773356, 9.999091, 9.999389 
2.650101e+2, 1.5564932e+2, -1409623.8, -1501195.0, -59348.664, 0.01610311, -0.09237106, -1380452.1, 34180.22, 0.000013419433, 10.0004015, 9.999224 
2.6501408e+2, 1.6564934e+2, -1276561.5, -1314012.1, 31421.828, -0.021082645, -0.040244553, -1258708.5, 57923.883, 0.0000010267595, 10.000341, 9.999859 
2.6501894e+2, 1.7564948e+2, -1356894.0, -1308349.6, 934.1819, -0.049502004, -0.050521396, -1308331.8, -89702.59, 0.0000000012219834, 9.999145, 9.999797 
2.6502293e+2, 1.8564923e+2, -1265513.3, -1275872.9, -58405.8, -0.05474357, -0.01845107, -1212058.0, -91425.9, 0.0, 9.999365, 9.9992485 
2.650261e+2, 1.9564848e+2, -996458.25, -1100890.9, -72939.81, -0.045290492, -0.055234145, -958970.9, 63671.395, 0.0, 10.000564, 9.9992 
2.650296e+2, 2.0564777e+2, -839324.1, -994492.44, -4458.9165, -0.07033803, -0.031556845, -839196.1, 85453.055, 0.0, 10.001045, 9.999032 
2.6503348e+2, 2.156469e+2, -775399.44, -920523.3, -15759.775, -0.116161644, -0.056366563, -773707.7, 52947.83, 0.0, 10.000847, 9.998961 
2.6503712e+2, 2.2564557e+2, -687024.75, -877454.56, -46134.24, -0.08438945, -0.05381823, -676436.8, 52231.78, 0.0, 10.00099, 9.998512 
2.6504064e+2, 2.3564374e+2, -537966.5, -756145.75, -39615.625, 0.009613201, -0.12595908, -530996.06, 99692.48, 0.0, 10.001346, 9.998503 
2.6504344e+2, 2.4564314e+2, -375843.06, -560596.94, -5151.7446, -0.016378613, -0.060581382, -375699.53, 156995.67, 0.0, 10.001524, 9.999081 
2.650455e+2, 2.5564328e+2, -272508.56, -473570.3, -39823.72, -0.1335801, 0.011931448, -264908.13, 169785.56, 0.0, 10.001609, 9.998965 
2.6504904e+2, 2.6564243e+2, -227842.6, -515207.47, -31462.982, -0.089646, 0.090523936, -224438.11, 112265.73, 0.0, 10.001727, 9.997951 
2.650539e+2, 2.7564076e+2, -105614.39, -402062.8, -15873.392, 0.10736087, 0.09021067, -104766.87, 133956.67, 0.0, 10.001884, 9.997978 
2.650563e+2, 2.8563893e+2, 46368.7, -206313.55, 21785.924, 0.01327487, 0.078939214, 48233.293, 188974.81, 0.00000017298198, 10.001939, 9.998625 
2.650562e+2, 2.9563636e+2, 146497.5, -107037.83, -22778.336, -0.34313217, -0.08388545, 148527.7, 191291.63, 0.000002277503, 10.001934, 9.998641 
2.6506343e+2, 3.056365e+2, 206211.83, -125593.38, 62428.96, -0.045478832, 0.10522324, 217569.05, 217569.05, 0.000011809922, 10.002334, 9.998012 
2.6507118e+2, 3.15634e+2, 304360.72, 44280.305, -101781.28, 0.1637182, 0.033022705, 339456.47, 339456.47, 0.000042458643, 10.002409, 9.999132 
2.749991e+2, 1.25646e+2, -1620834.5, -1635767.6, -42625.19, -0.14894786, 0.08255597, -1585026.9, 123643.27, 0.00042131313, 10.00036, 10.000363 
2.7500254e+2, 1.3564482e+2, -1720365.6, -1661796.0, -96791.086, -0.031108426, -0.08055321, -1589956.6, 20720.852, 0.0001952308, 9.999206, 10.000071 
2.750083e+2, 1.456447e+2, -1665136.4, -1613364.0, -32235.158, 0.20602219, -0.0774151, -1597907.8, -85230.83, 0.000056360343, 9.999056, 9.999771 
2.750092e+2, 1.556446e+2, -1390713.1, -1449376.6, 2643.2373, -0.14882706, -0.09869522, -1390594.3, 24084.014, 0.000009372096, 10.000356, 9.999601 
2.750128e+2, 1.6564451e+2, -1298040.4, -1345492.0, -27685.5, -0.21888593, -0.06270145, -1285305.3, 31373.8, 0.0000008660051, 10.000282, 9.999671 
2.7501863e+2, 1.7564432e+2, -1378780.5, -1341810.5, -23036.836, -0.03506865, -0.0861933, -1330759.3, -112078.33, 0.000000004874734, 9.999095, 9.999593 
2.7502334e+2, 1.8564425e+2, -1279058.5, -1276077.1, -28464.465, 0.020290634, -0.028351432, -1249064.4, -128381.23, 0.0, 9.999247, 9.999303 
2.75027e+2, 1.9564416e+2, -1006478.06, -1096705.6, -13946.827, -0.043552477, -0.00638162, -1004371.44, 18315.627, 0.0, 10.000461, 9.999276 
2.7503082e+2, 2.0564352e+2, -842715.25, -969504.75, -26515.307, -0.079791404, 0.010135622, -837393.56, 87299.17, 0.0, 10.00091, 9.999268 
2.7503482e+2, 2.1564212e+2, -782262.06, -892980.56, -5688.7974, -0.09569896, -0.09321656, -781970.56, 44732.594, 0.0, 10.0006695, 9.999234 
2.750382e+2, 2.2564146e+2, -681072.4, -819532.1, -46589.33, -0.10377429, -0.064542755, -666855.6, 61853.61, 0.0, 10.000795, 9.999005 
2.7504104e+2, 2.356412e+2, -534338.8, -708362.3, -12871.105, -0.11516412, -0.027509918, -533391.94, 97321.92, 0.0, 10.001168, 9.99892 
2.750442e+2, 2.4564049e+2, -432597.63, -647188.0, -15590.745, -0.11811279, 0.03612086, -431470.8, 101251.13, 0.0, 10.001392, 9.9985485 
2.7504757e+2, 2.5563914e+2, -325224.2, -552135.1, -20430.129, -0.1219281, 0.011460666, -323399.4, 111336.23, 0.0, 10.001467, 9.998499 
2.7505073e+2, 2.6563752e+2, -192114.73, -414823.22, -44110.69, -0.12724741, -0.0044059902, -183696.19, 153054.06, 0.0, 10.001625, 9.998684 
2.7505377e+2, 2.7563566e+2, -84054.17, -323491.66, 3294.3992, -0.124872744, -0.09441686, -84008.85, 154757.05, 0.00000000009324417, 10.001742, 9.998586 
2.7505723e+2, 2.856341e+2, 8160.612, -271724.03, 4100.9277, -0.12560964, -0.08195496, 8220.687, 149000.8, 0.00000023612336, 10.001881, 9.998199 
2.7506012e+2, 2.9563215e+2, 105959.42, -171098.34, -1148.6694, -0.1901435, -0.14342204, 105964.19, 148763.44, 0.0000024951785, 10.001835, 9.998251 
2.7506706e+2, 3.0563098e+2, 152032.1, -210943.94, 59334.344, 0.05303349, -0.041559644, 161485.08, 161485.08, 0.0000116764495, 10.002252, 9.997446 
2.7507186e+2, 3.156294e+2, 305578.06, 105318.71, -28626.604, -0.08234833, 0.04152713, 309589.8, 309589.8, 0.000040637482, 10.002186, 9.999649 
2.849989e+2, 1.2564185e+2, -1796722.6, -1718049.6, 114779.91, -0.13053234, 0.029242545, -1636052.8, 72655.695, 0.00034670465, 9.999187, 10.00034 
2.850032e+2, 1.3564098e+2, -1582934.0, -1618341.9, -28984.143, 0.075273186, -0.078469746, -1566674.6, 44040.383, 0.00015383656, 10.000282, 9.999829 
2.8500858e+2, 1.45641e+2, -1462636.9, -1502082.5, 85332.84, 0.27487436, -0.0551876, -1394777.3, 117936.055, 0.00004093297, 10.000387, 9.999893 
2.850096e+2, 1.5564103e+2, -1432828.9, -1453293.4, 65625.75, -0.1163858, -0.07684081, -1376642.5, 38069.79, 0.0000066741927, 9.99999, 9.999751 
2.850131e+2, 1.6564074e+2, -1352869.4, -1395185.9, 28801.246, -0.19184309, -0.059600618, -1338289.9, -21574.68, 0.00000074756446, 10.000011, 9.999469 
2.8501874e+2, 1.7564002e+2, -1204838.8, -1284857.1, 4510.569, 0.009806984, -0.11097876, -1204585.4, 14137.735, 0.000000006090155, 10.000394, 9.999371 
2.8502378e+2, 1.856399e+2, -1065558.4, -1185020.0, 67887.19, 0.072953515, -0.042340804, -1034865.56, 85860.7, 0.0, 10.000766, 9.999191 
2.8502825e+2, 1.9564009e+2, -922950.3, -1069983.3, 38272.223, 0.014880867, 0.019831914, -913584.75, 109142.74, 0.0, 10.001085, 9.999157 
2.8503233e+2, 2.0563945e+2, -818792.6, -966298.4, -3814.4758, -0.025459297, 0.045184422, -818694.06, 106039.9, 0.0, 10.001131, 9.999171 
2.85036e+2, 2.1563789e+2, -760596.06, -890512.56, -40882.727, -0.044330914, -0.06352901, -748801.6, 77945.56, 0.0, 10.000866, 9.999151 
2.8503904e+2, 2.256374e+2, -677033.5, -796679.5, -60406.324, -0.08807856, -0.022252558, -651840.5, 76911.24, 0.0, 10.000749, 9.999178 
2.8504154e+2, 2.3563762e+2, -584561.8, -711079.0, -80175.22, -0.15369588, 0.045935404, -545694.44, 85056.43, 0.0, 10.00075, 9.999094 
2.8504515e+2, 2.4563661e+2, -508796.72, -698554.1, -43175.82, -0.13011089, 0.07744223, -499434.75, 33326.156, 0.0, 10.000906, 9.998434 
2.850497e+2, 2.5563452e+2, -376126.94, -583274.2, -46176.367, -0.029304804, -0.015905675, -366299.72, 68481.375, 0.0, 10.00115, 9.998432 
2.8505287e+2, 2.656327e+2, -212981.45, -406846.06, -45333.28, -0.054121614, -0.056204073, -202904.52, 133891.66, 0.0, 10.001395, 9.998856 
2.8505522e+2, 2.7563095e+2, -89972.06, -309868.88, -68533.9, -0.13901438, -0.15261553, -70361.42, 168447.77, 0.0000000018932573, 10.001608, 9.998752 
2.85059e+2, 2.8562936e+2, -35921.293, -320427.66, -43045.742, -0.11743837, -0.13627249, -29551.113, 111272.13, 0.00000028816427, 10.001701, 9.997953 
2.8506315e+2, 2.9562765e+2, 96829.24, -194352.86, -65897.88, -0.059856452, -0.15172897, 111048.34, 153889.5, 0.0000027347362, 10.001877, 9.998061 
2.8506985e+2, 3.0562574e+2, 154226.55, -250740.36, 40338.676, 0.118505314, -0.09851619, 158205.58, 158205.58, 0.000012525966, 10.002411, 9.997103 
2.850735e+2, 3.1562462e+2, 336479.34, 126100.42, -70983.02, -0.12639838, 0.062027898, 358189.1, 358189.1, 0.00004059471, 10.002359, 9.999705 
2.949992e+2, 1.2563798e+2, -1799688.6, -1738540.3, 124118.875, -0.10765956, -0.12906425, -1641285.4, 67452.7, 0.00028489743, 9.999234, 10.00018 
2.9500252e+2, 1.3563843e+2, -1608758.6, -1676340.6, 16953.295, -0.060170967, -0.07314505, -1604744.3, 5991.7534, 0.000121053716, 10.0003, 9.999421 
2.9500747e+2, 1.4563851e+2, -1468096.9, -1515359.5, 47390.766, 0.076879516, -0.019818315, -1438772.4, 73963.805, 0.000029834508, 10.000381, 9.99981 
2.950107e+2, 1.5563856e+2, -1443450.4, -1469948.1, 65631.484, -0.04728377, -0.033402428, -1389743.9, 24991.31, 0.000004731658, 9.999966, 9.999651 
2.9501444e+2, 1.6563797e+2, -1381033.0, -1432308.4, 29896.664, -0.0920984, -0.026964169, -1367286.6, -50545.434, 0.00000054097734, 9.999934, 9.999242 
2.9501876e+2, 1.7563675e+2, -1229073.3, -1316175.0, 38134.473, -0.064478286, -0.11092901, -1214737.1, 4017.0195, 0.0000000012704189, 10.000329, 9.999176 
2.950238e+2, 1.8563636e+2, -1097477.1, -1232297.1, 63978.17, -0.03537111, -0.048712358, -1071950.0, 48809.996, 0.0, 10.000677, 9.998915 
2.9502937e+2, 1.9563629e+2, -958368.5, -1120081.8, 63551.68, -0.020523101, 0.017737705, -936382.44, 86381.24, 0.0, 10.000984, 9.998862 
2.9503354e+2, 2.0563553e+2, -874187.44, -1044946.25, -27739.23, -0.043685324, 0.07011856, -869794.3, 54978.94, 0.0, 10.000972, 9.99871 
2.950365e+2, 2.1563406e+2, -818890.6, -970146.7, -33096.96, -0.11017135, 0.018935101, -811965.56, 14823.556, 0.0, 10.000685, 9.9986925 
2.950392e+2, 2.2563332e+2, -715310.2, -831110.0, -75961.82, -0.17549834, 0.06376953, -677697.8, 51099.082, 0.0, 10.00056, 9.999028 
2.9504168e+2, 2.3563296e+2, -619096.44, -740575.4, -63171.23, -0.24206728, 0.08902879, -592200.94, 38599.12, 0.0, 10.000574, 9.998973 
2.9504597e+2, 2.4563159e+2, -499147.7, -654150.56, -50629.004, -0.17304768, 0.071807705, -484076.1, 48735.387, 0.0, 10.000798, 9.998795 
2.9505143e+2, 2.5562927e+2, -374725.9, -550198.1, -24027.676, -0.007151902, -0.0761507, -371495.25, 63336.043, 0.0, 10.001015, 9.998731 
2.9505506e+2, 2.6562777e+2, -244911.64, -452176.16, -50520.99, -0.0066111707, -0.08331667, -233252.89, 103590.805, 0.0, 10.001309, 9.998582 
2.9505754e+2, 2.7562666e+2, -128315.734, -355502.53, -46054.01, -0.10371633, -0.09060829, -119334.94, 119518.375, 0.0000000016821552, 10.001467, 9.998506 
2.9506108e+2, 2.8562498e+2, -45778.195, -332484.6, -52140.332, -0.11067784, -0.070761636, -36590.406, 104278.51, 0.00000022409213, 10.001659, 9.997895 
2.9506487e+2, 2.956228e+2, 73604.2, -230446.72, -30728.744, -0.121267736, -0.1191706, 76678.7, 119568.8, 0.0000026534976, 10.001804, 9.997862 
2.9507148e+2, 3.0562064e+2, 144601.52, -251249.45, 38621.14, 0.0049216943, -0.07771392, 148334.38, 148334.38, 0.00001292508, 10.002341, 9.997123 
2.9507494e+2, 3.156195e+2, 292509.16, 62284.05, -19897.81, -0.29995587, 0.068657994, 294216.22, 294216.22, 0.000040888393, 10.002243, 9.999318 
3.049991e+2, 1.256333e+2, -1805779.6, -1728737.8, 68440.88, -0.019761479, -0.20006178, -1688722.0, 20059.313, 0.00023189843, 9.999143, 10.000301 
3.0500257e+2, 1.3563465e+2, -1675809.8, -1696746.9, -67232.2, -0.045722608, -0.06365401, -1618236.0, -7464.494, 0.000094942065, 9.999779, 9.999539 
3.0500716e+2, 1.4563453e+2, -1526223.5, -1550288.0, -14769.613, 0.036542866, -0.030486174, -1519205.4, -6430.87, 0.000021738364, 10.000041, 9.99972 
3.050116e+2, 1.5563457e+2, -1400768.6, -1460034.1, -40060.83, 0.04262121, -0.036195002, -1380571.9, 34203.207, 0.0000030875526, 10.000307, 9.999549 
3.050154e+2, 1.6563413e+2, -1303652.9, -1388914.4, -19284.346, -0.003715431, -0.015104927, -1299494.0, 17285.896, 0.0000002653173, 10.000406, 9.99932 
3.0501872e+2, 1.7563313e+2, -1227878.0, -1307054.6, -19570.518, -0.08638624, -0.08265739, -1223304.8, -4515.097, 0.0, 10.00028, 9.9992695 
3.0502385e+2, 1.8563259e+2, -1137998.4, -1255600.9, 62885.938, -0.08003987, -0.0392067, -1110705.3, 10091.102, 0.0, 10.000416, 9.998882 
3.0503017e+2, 1.9563204e+2, -1006009.44, -1157659.5, 46033.61, -0.013837603, -0.014756777, -993129.75, 29674.28, 0.0, 10.000699, 9.998756 
3.0503452e+2, 2.0563121e+2, -917308.1, -1084712.9, -10302.609, -0.022670107, 0.04422987, -916676.5, 8138.359, 0.0, 10.0007515, 9.998547 
3.0503726e+2, 2.1563002e+2, -839783.9, -1003057.1, -23645.363, -0.08884496, 0.03787655, -836428.44, -9599.067, 0.0, 10.000624, 9.998501 
3.0504027e+2, 2.2562902e+2, -663837.25, -826182.06, -4533.7954, -0.13492286, 0.07304591, -663710.75, 65129.1, 0.0, 10.000987, 9.998865 
3.0504358e+2, 2.3562795e+2, -463637.7, -684568.8, -23283.402, -0.15783486, 0.04397039, -461210.56, 169638.42, 0.0, 10.001709, 9.998821 
3.0504763e+2, 2.4562657e+2, -385305.03, -582516.6, -11022.868, -0.112394646, 0.027160695, -384690.84, 148169.17, 0.0, 10.001551, 9.998908 
3.050522e+2, 2.556247e+2, -385019.2, -539417.06, -30870.584, -0.017213207, -0.082980044, -379075.66, 55799.195, 0.0, 10.00091, 9.99884 
3.0505633e+2, 2.6562342e+2, -286923.72, -523262.94, -11989.295, 0.00064792635, -0.056375176, -286317.1, 50569.79, 0.0, 10.001241, 9.998127 
3.0506036e+2, 2.7562222e+2, -23863.574, -351261.06, -52916.97, -0.004681196, -0.023808088, -15523.123, 223376.2, 0.00000000014964384, 10.002391, 9.998084 
3.050639e+2, 2.856204e+2, 109533.17, -253534.19, -56014.703, -0.038870793, -0.0027279314, 117978.766, 258896.05, 0.00000013461268, 10.002728, 9.997914 
3.0506656e+2, 2.956181e+2, 147972.47, -189393.6, -57245.05, -0.1497298, -0.06882977, 157421.3, 200360.4, 0.0000024184974, 10.002328, 9.997871 
3.050735e+2, 3.0561626e+2, 119502.55, -273453.03, 50937.207, -0.006373469, 0.016174404, 125997.96, 125997.96, 0.00001259153, 10.002188, 9.997069 
3.050777e+2, 3.1561384e+2, 208753.73, -1383.2632, -61782.777, -0.20755315, 0.03551122, 225572.48, 225572.48, 0.000039642433, 10.001739, 9.999154 
3.149979e+2, 1.2562801e+2, -1772592.8, -1657719.5, 26916.61, -0.1307063, -0.15692928, -1651725.3, 57110.957, 0.0001887222, 9.999144, 10.000783 
3.1500277e+2, 1.3562982e+2, -1642425.8, -1607165.3, -34370.426, -0.03835817, -0.039297264, -1586167.1, 24652.281, 0.00007509751, 9.999718, 10.000176 
3.150071e+2, 1.4562921e+2, -1548920.5, -1590173.4, -24177.78, -0.02347212, -0.074187025, -1537766.1, -24938.701, 0.00001598166, 9.999999, 9.999466 
3.1501186e+2, 1.5562896e+2, -1420079.9, -1493946.0, -15657.791, -0.0010551858, -0.08403006, -1416897.9, -2065.1023, 0.00000170519, 10.000282, 9.999325 
3.1501564e+2, 1.6562909e+2, -1283088.8, -1331731.9, -46602.652, -0.053767517, -0.017851714, -1254842.8, 61989.33, 0.000000057148895, 10.000339, 9.99975 
3.150183e+2, 1.7562917e+2, -1206335.4, -1247528.6, -12247.546, -0.19221081, -0.02381081, -1202969.1, 15861.089, 0.0, 10.000217, 9.999709 
3.1502327e+2, 1.8562867e+2, -1142653.4, -1239151.6, 57656.223, -0.20500551, -0.0049792044, -1115721.3, 5113.769, 0.0, 10.000301, 9.999051 
3.1503022e+2, 1.956274e+2, -1008288.94, -1134515.0, 70985.22, -0.11576191, -0.06953375, -976416.94, 46430.93, 0.0, 10.000584, 9.998968 
3.150349e+2, 2.0562662e+2, -937092.0, -1083367.6, -31007.07, -0.09134453, -0.021816887, -930790.7, -5933.341, 0.0, 10.000575, 9.998642 
3.1503785e+2, 2.1562591e+2, -861238.7, -1001874.75, -9818.291, -0.12451434, 0.0115622515, -860556.56, -33690.02, 0.0, 10.000433, 9.9986 
3.150418e+2, 2.2562465e+2, -692749.44, -850613.3, 8459.514, -0.108289376, 0.02176212, -692297.4, 36581.688, 0.0, 10.000831, 9.998778 
3.150466e+2, 2.3562273e+2, -495497.5, -710468.94, 16575.39, -0.054732285, -0.08034588, -494226.97, 136669.48, 0.0, 10.001534, 9.9987335 
3.150497e+2, 2.4562155e+2, -411023.72, -617539.25, -50305.81, -0.094623886, -0.06335941, -399421.38, 133485.27, 0.0, 10.001464, 9.998712 
3.150515e+2, 2.556208e+2, -422368.13, -582172.9, -38260.38, -0.20876886, -0.043302976, -413680.2, 21232.578, 0.0, 10.000753, 9.998626 
3.1505623e+2, 2.6561964e+2, -338266.84, -611475.9, 16187.646, -0.16479379, 0.035703365, -337311.06, -385.5173, 0.0, 10.001161, 9.9975605 
3.150633e+2, 2.756177e+2, -78063.01, -439415.9, 3341.67, 0.0146930115, 0.04854517, -78032.11, 160915.42, 0.00000000001473293, 10.002276, 9.9975395 
3.150669e+2, 2.856155e+2, 104319.164, -247557.61, -86310.7, -0.04598485, 0.059273794, 124349.79, 265319.16, 0.000000108201135, 10.002659, 9.997984 
3.1506747e+2, 2.9561317e+2, 129208.01, -199263.58, -51470.734, -0.334736, -0.016757125, 137084.48, 180075.75, 0.0000023186144, 10.002193, 9.997872 
3.1507537e+2, 3.0561242e+2, 114958.66, -272503.56, 27242.283, -0.06731118, 0.17620991, 116864.67, 116864.67, 0.000012381474, 10.002142, 9.997095 
3.150811e+2, 3.1560743e+2, 212914.6, 19648.865, -19174.266, -0.118486404, -0.07111691, 214798.55, 214798.55, 0.000038038284, 10.0016775, 9.999329 
3.2499835e+2, 1.2562321e+2, -1737747.4, -1665215.1, 99486.13, -0.0011479491, -0.124803305, -1595591.1, 113293.54, 0.0001575099, 9.999462, 10.000585 
3.2500306e+2, 1.3562469e+2, -1619817.0, -1594020.4, -44308.93, 0.029616458, -0.04668098, -1560770.6, 50100.227, 0.00006189271, 9.999824, 10.00023 
3.2500675e+2, 1.4562404e+2, -1566787.1, -1599853.8, -7898.688, -0.039652947, -0.08865649, -1564997.3, -52117.86, 0.000012633238, 9.999865, 9.999478 
3.250121e+2, 1.55624e+2, -1459459.6, -1509877.5, -9448.777, 0.016635537, -0.077947475, -1457747.0, -42864.133, 0.0000008198343, 9.999984, 9.999368 
3.250162e+2, 1.6562425e+2, -1312913.3, -1337323.0, -17205.719, -0.0128130065, -0.0047369907, -1304023.3, 12857.981, 0.000000004124255, 10.000133, 9.999795 
3.250189e+2, 1.7562442e+2, -1189181.1, -1239285.3, -50685.21, -0.14957596, -0.0008891331, -1157694.8, 61183.836, 0.0, 10.000344, 9.999703 
3.250239e+2, 1.8562394e+2, -1115868.3, -1204979.4, 33762.973, -0.17068732, 0.012331402, -1104520.9, 16361.629, 0.0, 10.000395, 9.999233 
3.2503077e+2, 1.9562282e+2, -1044521.1, -1125081.0, 13300.581, -0.090284795, -0.061690997, -1042382.0, -19488.816, 0.0, 10.000239, 9.9991865 
3.2503548e+2, 2.0562208e+2, -931932.8, -1043098.8, -47257.273, -0.07008176, -0.040382102, -914558.9, 10341.83, 0.0, 10.000426, 9.998995 
3.2503858e+2, 2.1562138e+2, -792487.4, -931306.9, -34119.316, -0.101594545, -0.042175535, -784554.75, 42353.33, 0.0, 10.000736, 9.998941 
3.2504287e+2, 2.2562034e+2, -686963.0, -851973.94, 36086.777, -0.07964668, -0.023655733, -679416.2, 49501.926, 0.0, 10.000895, 9.998731 
3.250482e+2, 2.3561876e+2, -581966.25, -758788.6, 17572.57, -0.00991772, -0.08910012, -580236.8, 50695.824, 0.0, 10.000976, 9.99866 
3.2505155e+2, 2.4561745e+2, -455203.06, -705052.44, -43666.496, -0.047016863, -0.053448766, -447791.28, 85154.414, 0.0, 10.001419, 9.998146 
3.250533e+2, 2.5561616e+2, -241322.16, -552404.7, -80368.74, -0.16555955, -0.03322185, -221785.67, 213173.44, 0.0, 10.002215, 9.998134 
3.2505798e+2, 2.6561475e+2, -175310.42, -509063.47, 32491.604, -0.14676087, 0.036448546, -172176.72, 164797.06, 0.0, 10.00218, 9.997777 
3.2506502e+2, 2.7561286e+2, -172256.84, -460720.22, 45825.13, 0.0034719284, 0.032698777, -165152.08, 73841.17, 0.00000000010851988, 10.001533, 9.997747 
3.2506874e+2, 2.8561044e+2, -77347.13, -373229.9, -8335.153, -0.059654735, 0.025936866, -77112.516, 63905.08, 0.00000014604628, 10.001556, 9.9976635 
3.2506984e+2, 2.9560766e+2, 94776.02, -244124.88, -32219.105, -0.29768097, -0.06396377, 97811.875, 140856.88, 0.0000023415487, 10.002076, 9.997623 
3.250785e+2, 3.056075e+2, 128968.664, -227598.16, 62348.277, 0.044334147, 0.17876045, 139556.33, 139556.33, 0.000012312151, 10.002118, 9.99739 
3.2508364e+2, 3.156021e+2, 218543.6, 73034.25, 1645.8939, -0.0075765466, -0.14294861, 218562.2, 218562.2, 0.000036624067, 10.001552, 9.999724 
3.3499935e+2, 1.2561893e+2, -1811900.4, -1800141.5, 23199.764, 0.073673, -0.090550974, -1782087.8, -73161.14, 0.00013854062, 9.999397, 9.99968 
3.3500296e+2, 1.3561942e+2, -1663109.5, -1666107.4, -26939.209, 0.00013516677, -0.056761693, -1637627.5, -26703.244, 0.000055370125, 9.999778, 9.999739 
3.3500573e+2, 1.4561912e+2, -1547778.8, -1546790.6, -26278.455, -0.16902801, -0.059419665, -1521001.6, -8072.485, 0.000011804474, 9.999806, 9.99987 
3.3501175e+2, 1.5561995e+2, -1435980.1, -1451487.0, 10706.144, -0.052385744, -0.0056121596, -1430514.8, -15591.976, 0.00000057438905, 9.999946, 9.999785 
3.3501655e+2, 1.6561987e+2, -1354843.6, -1412554.5, -24583.254, -0.028102715, 0.035956964, -1345791.6, -28866.754, 0.00000000201948, 10.000075, 9.9993105 
3.3502012e+2, 1.7561887e+2, -1225900.5, -1309652.9, -26100.293, -0.10421196, -0.026758518, -1218432.5, 502.9776, 0.0, 10.000313, 9.999238 
3.350251e+2, 1.8561837e+2, -1124917.3, -1192951.0, 9759.973, -0.122757494, 0.00043544054, -1123544.8, -2604.8638, 0.0, 10.000263, 9.99938 
3.350314e+2, 1.9561805e+2, -1047304.0, -1105165.9, 22583.31, -0.083178416, -0.009308002, -1039533.4, -16591.639, 0.0, 10.000131, 9.999374 
3.3503592e+2, 2.0561743e+2, -910936.7, -959490.56, -51499.168, -0.09628148, -0.016824761, -878279.2, 46666.934, 0.0, 10.00026, 9.999647 
3.3503896e+2, 2.1561633e+2, -777170.8, -853122.4, -7904.674, -0.16288742, -0.12734796, -776356.9, 50598.074, 0.0, 10.00054, 9.999573 
3.3504304e+2, 2.2561596e+2, -715360.94, -869292.25, 22532.213, -0.1817846, -0.06835568, -712130.5, 16827.553, 0.0, 10.00072, 9.998693 
3.35048e+2, 2.35616e+2, -616232.8, -781294.5, 34041.9, -0.15612893, 0.028164385, -609487.75, 21470.709, 0.0, 10.000773, 9.998599 
3.3505273e+2, 2.4561425e+2, -521167.94, -822846.3, -28655.11, -0.09939098, 0.064198405, -518470.25, 14507.088, 0.0, 10.001329, 9.997381 
3.3505723e+2, 2.556109e+2, -311594.4, -661582.06, -39286.95, -0.028626138, -0.048084624, -307238.56, 127774.414, 0.0, 10.00206, 9.9974575 
3.3506125e+2, 2.6560897e+2, -122535.445, -381825.9, -7776.1616, -0.068190925, -0.045331687, -122302.445, 214727.86, 0.0, 10.002109, 9.998681 
3.3506495e+2, 2.756078e+2, -136690.9, -351577.7, 39367.47, -0.19135022, -0.06846132, -129705.805, 109331.19, 0.000000000044508567, 10.001384, 9.998567 
3.350691e+2, 2.8560522e+2, -120592.99, -455918.94, -4540.022, -0.21656518, -0.09964109, -120531.53, 20529.998, 0.00000018851506, 10.001513, 9.997123 
3.3507323e+2, 2.9560176e+2, 48793.504, -326909.88, 4332.568, -0.20935695, -0.20372015, 48843.457, 91942.14, 0.0000023038672, 10.002001, 9.997103 
3.3508226e+2, 3.056013e+2, 146377.33, -179399.7, 30376.543, 0.1799154, 0.01776253, 149185.53, 149185.53, 0.000011796056, 10.002075, 9.997739 
3.3508435e+2, 3.1559733e+2, 225117.75, 123054.65, 76547.72, -0.16622941, -0.19309978, 266084.97, 266084.97, 0.000034748333, 10.001388, 10.000156 
3.4499946e+2, 1.2561442e+2, -1731890.0, -1764508.5, -26943.51, 0.13621737, -0.012722049, -1716704.1, -7730.0444, 0.00012841672, 9.99996, 9.999654 
3.4500322e+2, 1.3561428e+2, -1604518.5, -1632768.1, -42152.36, 0.044052616, -0.050483406, -1574187.4, 36789.21, 0.00005393956, 10.000127, 9.999823 
3.4500593e+2, 1.4561422e+2, -1511388.4, -1494926.3, 7971.454, -0.124439076, -0.047902558, -1491698.9, 21278.998, 0.00001321429, 9.999925, 10.000158 
3.4501174e+2, 1.5561531e+2, -1467126.9, -1443923.9, -11616.036, -0.019206356, 0.0076193335, -1439108.0, -24139.963, 0.00000089811203, 9.999643, 9.999978 
3.45017e+2, 1.6561514e+2, -1381472.8, -1452648.9, 8565.581, 0.024965804, 0.0452085, -1380456.5, -63485.473, 0.0000000015154811, 9.9999895, 9.999084 
3.4502146e+2, 1.7561385e+2, -1173538.4, -1304800.5, -2437.4988, -0.014608203, -0.027425658, -1173493.1, 45492.137, 0.0, 10.000761, 9.999056 
3.4502643e+2, 1.8561324e+2, -1039108.75, -1148201.5, 39336.406, -0.038678277, -0.0043618, -1026404.44, 94586.49, 0.0, 10.000832, 9.999421 
3.45032e+2, 1.9561286e+2, -1023414.75, -1094265.0, 16906.89, -0.033383656, -0.020983474, -1019587.06, 3406.0393, 0.0, 10.000284, 9.999385 
3.4503648e+2, 2.0561238e+2, -911193.94, -968119.0, -40034.395, -0.05833223, -0.010942861, -890535.5, 34461.13, 0.0, 10.0002985, 9.999564 
3.4503996e+2, 2.1561159e+2, -761408.75, -854677.5, -85835.41, -0.114103, -0.082282506, -710357.5, 116645.98, 0.0, 10.0006895, 9.999485 
3.450442e+2, 2.2561115e+2, -671815.94, -837517.06, -54257.867, -0.14330064, -0.032643653, -655630.5, 73376.375, 0.0, 10.000968, 9.998799 
3.4504902e+2, 2.3561075e+2, -555886.56, -740344.75, -59470.43, -0.13923112, 0.011808, -538375.3, 92634.52, 0.0, 10.001124, 9.99872 
3.4505412e+2, 2.4560905e+2, -504007.94, -790157.06, -35558.582, -0.087628484, 0.033978578, -499655.44, 33372.242, 0.0, 10.001357, 9.997587 
3.4505934e+2, 2.5560597e+2, -351991.6, -666061.9, -9459.313, 0.0013385115, -0.064834684, -351706.97, 83353.33, 0.0, 10.001707, 9.997605 
3.450635e+2, 2.6560414e+2, -184164.63, -421252.5, 6365.801, -0.02578398, -0.056297474, -183993.83, 153083.4, 0.0, 10.001734, 9.998591 
3.4506693e+2, 2.7560288e+2, -121908.914, -349154.6, -48157.67, -0.12745704, -0.07499689, -112124.664, 126960.39, 0.0, 10.001521, 9.998518 
3.4507126e+2, 2.8560045e+2, -68845.66, -400109.28, -24542.896, -0.15466447, -0.100663014, -67037.18, 74070.234, 0.00000016974016, 10.001764, 9.997369 
3.4507605e+2, 2.955973e+2, 130976.17, -259170.03, 6035.1763, -0.14294435, -0.1941569, 131069.51, 174209.34, 0.0000020169734, 10.002462, 9.997337 
3.450847e+2, 3.055965e+2, 177211.86, -167058.34, 34435.23, 0.21858485, -0.021212332, 180622.42, 180622.42, 0.0000103175025, 10.002266, 9.997748 
3.4508628e+2, 3.1559274e+2, 146312.78, 50105.094, 65505.914, -0.07293552, -0.21829097, 179480.11, 179480.11, 0.000031962787, 10.00098, 9.999849 
3.5499778e+2, 1.2560956e+2, -1684123.9, -1651978.1, -122925.4, -0.11756143, 0.09957019, -1544079.3, 164948.98, 0.00012227354, 9.999908, 10.000446 
3.5500324e+2, 1.3560922e+2, -1545871.5, -1508622.0, -21954.793, -0.0011601883, -0.0358703, -1498456.1, 112571.664, 0.00005490219, 10.000135, 10.00066 
3.5500678e+2, 1.4560947e+2, -1514306.6, -1501673.6, -21257.941, -0.080870494, -0.04724138, -1485813.6, 27210.668, 0.000015641235, 9.999919, 10.000123 
3.5501167e+2, 1.5561001e+2, -1471662.3, -1460973.4, -4912.296, -0.035601407, -0.033666912, -1459058.9, -44039.23, 0.0000017221555, 9.999667, 9.999857 
3.5501704e+2, 1.6561003e+2, -1382785.5, -1436560.8, 18701.127, -0.0057876045, 0.02258092, -1376921.4, -59901.12, 0.000000007086625, 9.99991, 9.999229 
3.550224e+2, 1.7560941e+2, -1170373.5, -1285777.3, 39618.934, -0.030373225, -0.00090390677, -1158081.3, 60946.36, 0.0, 10.000705, 9.999214 
3.550273e+2, 1.856086e+2, -1065834.4, -1172085.8, 6024.877, -0.06560436, -0.002375, -1065493.8, 55541.61, 0.0, 10.000698, 9.99932 
3.5503218e+2, 1.9560747e+2, -1050504.9, -1122964.8, 15140.762, -0.08106704, -0.08351749, -1047468.4, -24422.926, 0.0, 10.000165, 9.999245 
3.5503682e+2, 2.0560713e+2, -996383.7, -1107380.9, -40303.934, -0.08272007, -0.005476043, -983292.94, -58242.707, 0.0, 10.0001335, 9.998692 
3.5504127e+2, 2.1560721e+2, -840637.0, -982772.3, -55438.098, -0.08597939, 0.096915886, -821571.44, 5481.7056, 0.0, 10.000528, 9.998686 
3.550459e+2, 2.256059e+2, -676382.2, -810271.25, -60411.234, -0.09286957, 0.085843496, -653154.2, 75910.09, 0.0, 10.0008135, 9.999059 
3.5505077e+2, 2.3560326e+2, -562346.75, -710841.7, -37832.164, -0.103482544, -0.120508015, -553263.8, 77820.83, 0.0, 10.000943, 9.999009 
3.5505515e+2, 2.4560192e+2, -451228.47, -647459.8, -35332.035, -0.14999859, -0.12868182, -445060.7, 88034.81, 0.0, 10.001221, 9.998629 
3.5505915e+2, 2.5560138e+2, -311719.78, -545331.8, 17279.729, -0.22057098, -0.08267171, -310448.56, 124652.98, 0.0, 10.001554, 9.998505 
3.550643e+2, 2.6560017e+2, -265481.3, -573019.5, -16050.899, -0.14842008, 0.005986593, -264645.84, 72468.53, 0.0, 10.001657, 9.997588 
3.5507044e+2, 2.7559823e+2, -203570.88, -493011.4, -35076.496, 0.037020758, 0.014196169, -199380.72, 39755.3, 0.0, 10.001407, 9.997585 
3.5507476e+2, 2.8559613e+2, -12097.74, -269870.63, -11162.565, -0.016452609, 0.015802072, -11615.261, 129540.125, 0.00000011654808, 10.001714, 9.998289 
3.5507768e+2, 2.9559416e+2, 174339.89, -143586.33, 48462.02, -0.26935017, -0.05520656, 181562.94, 224733.67, 0.0000016052002, 10.002356, 9.998183 
3.5508525e+2, 3.0559298e+2, 174383.17, -174769.03, -25070.102, 0.018155633, 0.045965098, 176174.1, 176174.1, 0.000008325357, 10.002261, 9.9977045 
3.5508814e+2, 3.1558937e+2, 58347.863, -110922.125, 117333.79, -0.06757737, -0.13002598, 118385.945, 118385.945, 0.000028551576, 10.0008745, 9.998802 
3.6499786e+2, 1.2560439e+2, -1732393.1, -1665897.1, -52004.133, -0.059879664, 0.08153862, -1637421.0, 71659.27, 0.000118926524, 9.9995165, 10.000557 
3.650031e+2, 1.3560419e+2, -1636648.1, -1558725.9, -34846.035, 0.01979544, -0.035066474, -1545416.4, 65661.53, 0.000056465244, 9.9995365, 10.000608 
3.650075e+2, 1.4560449e+2, -1530670.3, -1540868.9, -28587.479, 0.00928855, -0.023439895, -1506730.9, 6342.8423, 0.00001794202, 9.999931, 9.999854 
3.650118e+2, 1.5560456e+2, -1332359.3, -1417085.9, -57920.51, -0.030808875, -0.032073654, -1302963.0, 112111.18, 0.000002788093, 10.000723, 9.999653 
3.650172e+2, 1.6560456e+2, -1243346.3, -1346228.9, -2998.3337, -0.013028739, 0.024107087, -1243259.0, 73815.86, 0.00000008230677, 10.000779, 9.999428 
3.6502302e+2, 1.7560436e+2, -1234562.4, -1292742.0, -18206.777, -0.001183354, 0.023592338, -1229334.5, -10257.274, 0.0, 10.000174, 9.999415 
3.6502805e+2, 1.8560366e+2, -1149796.8, -1220047.9, -26330.479, -0.022459842, 0.02669581, -1141023.6, -19939.65, 0.0, 10.000157, 9.999252 
3.6503276e+2, 1.9560233e+2, -1003150.25, -1106963.8, -41693.465, -0.04423371, -0.066148885, -988478.8, 34617.906, 0.0, 10.000525, 9.999182 
3.6503762e+2, 2.0560198e+2, -868519.7, -1050978.3, -8802.021, -0.049844913, 0.015145475, -868096.06, 57006.008, 0.0, 10.001031, 9.998651 
3.650426e+2, 2.1560213e+2, -689573.5, -914721.06, 3612.8945, -0.048395034, 0.12800224, -689515.56, 137588.75, 0.0, 10.001586, 9.998647 
3.6504754e+2, 2.256006e+2, -546883.3, -765271.75, 22007.184, -0.050440952, 0.103363946, -544687.7, 184429.86, 0.0, 10.00178, 9.998902 
3.650526e+2, 2.3559752e+2, -464703.25, -678013.6, -15626.96, -0.043508805, -0.12919247, -463564.5, 167577.4, 0.0, 10.001678, 9.9988785 
3.6505684e+2, 2.4559623e+2, -386783.94, -597043.3, -28877.414, -0.106000386, -0.13622086, -382889.97, 150261.97, 0.0, 10.0015545, 9.998831 
3.650605e+2, 2.5559622e+2, -322442.47, -520884.94, -64793.695, -0.21754256, -0.058247816, -303160.22, 131992.11, 0.0, 10.001355, 9.998771 
3.650658e+2, 2.6559532e+2, -284526.56, -565057.5, -49484.02, -0.14426556, 0.03408476, -276053.75, 61108.555, 0.0, 10.001467, 9.997721 
3.6507246e+2, 2.7559322e+2, -129010.71, -441186.03, -15870.461, 0.08807708, 0.022513991, -128205.95, 110978.305, 0.0, 10.00186, 9.997716 
3.650774e+2, 2.8559107e+2, 32031.75, -252747.4, 53332.766, 0.07198786, 0.010124076, 41692.086, 182895.8, 0.000000055764154, 10.002008, 9.998279 
3.6508095e+2, 2.9558906e+2, 106650.88, -177636.05, 12709.035, -0.14253245, -0.067977004, 107217.914, 150436.69, 0.0000011855267, 10.001895, 9.998173 
3.6508754e+2, 3.055876e+2, 138331.28, -199470.53, -89629.32, 0.041875947, 0.0098040365, 160639.52, 160639.52, 0.0000067298934, 10.002074, 9.99761 
3.6509052e+2, 3.1558463e+2, 213350.14, -95765.3, 24228.377, 0.032687347, -0.08806505, 215237.63, 215237.63, 0.00002565761, 10.002225, 9.998249 
3.749985e+2, 1.2559913e+2, -1766534.3, -1735486.5, -120390.0, -0.02493194, -0.015811466, -1629623.6, 79504.73, 0.0001191897, 9.99951, 10.000073 
3.7500232e+2, 1.3559914e+2, -1693370.1, -1677319.3, -22763.373, -0.054995652, -0.036977854, -1661208.0, -50081.195, 0.00005856906, 9.999539, 9.999786 
3.7500757e+2, 1.455993e+2, -1570661.9, -1604110.4, -19351.574, -0.021521904, 0.022057759, -1561809.1, -48683.266, 0.000020069963, 9.999851, 9.999458 
3.7501168e+2, 1.5559892e+2, -1354141.5, -1464399.3, -13265.565, -0.15393043, 0.0074936706, -1352567.9, 62564.242, 0.0000038584762, 10.000729, 9.999329 
3.7501705e+2, 1.6559877e+2, -1240101.3, -1324165.1, -39872.93, -0.14128718, 0.051042337, -1224197.6, 92936.6, 0.00000020238203, 10.000715, 9.999607 
3.750229e+2, 1.7559879e+2, -1232766.5, -1280271.6, -22252.174, -0.06891627, 0.056032777, -1223971.5, -4838.2266, 0.0, 10.000128, 9.999526 
3.7502822e+2, 1.855984e+2, -1166430.6, -1224547.3, -26744.494, -0.054309536, 0.08367988, -1155996.5, -34859.38, 0.0, 10.0000305, 9.99928 
3.750334e+2, 1.9559738e+2, -1016597.25, -1104897.8, -10340.68, -0.06599424, 0.01883973, -1015402.44, 7745.2773, 0.0, 10.000399, 9.999253 
3.750385e+2, 2.0559683e+2, -840002.0, -955414.56, -1962.4517, -0.09485476, 0.037718162, -839968.6, 85184.43, 0.0, 10.000873, 9.999384 
3.7504342e+2, 2.1559638e+2, -671895.7, -831740.5, 36726.543, -0.15199193, 0.019256817, -663861.1, 163295.61, 0.0, 10.0013895, 9.9993105 
3.750486e+2, 2.2559524e+2, -610582.8, -860819.44, 384.5893, -0.14823827, 0.03190537, -610582.25, 118584.42, 0.0, 10.001612, 9.998331 
3.75054e+2, 2.3559327e+2, -526686.5, -773106.0, -5763.243, -0.09970125, -0.03183973, -526551.75, 104632.164, 0.0, 10.001522, 9.998305 
3.7505883e+2, 2.4559188e+2, -440742.7, -681047.06, -50221.902, -0.09328203, 0.0030254202, -430668.97, 102528.82, 0.0, 10.001436, 9.998312 
3.7506297e+2, 2.5559062e+2, -375098.72, -597836.0, -53673.395, -0.14255947, 0.010656623, -362839.66, 72372.086, 0.0, 10.001209, 9.998315 
3.7506756e+2, 2.6558936e+2, -209488.69, -391680.75, -47880.574, -0.14966398, 0.025833603, -197671.97, 139549.73, 0.0, 10.001389, 9.99895 
3.750726e+2, 2.7558777e+2, -63781.387, -283325.72, 15048.551, -0.119636804, -0.060647104, -62754.69, 176476.84, 0.0, 10.001758, 9.998854 
3.7507865e+2, 2.855853e+2, -28458.914, -367998.66, 35573.707, -0.039238665, -0.11412321, -24771.88, 116480.6, 0.00000003400916, 10.001961, 9.997513 
3.7508523e+2, 2.9558218e+2, 33171.953, -306149.13, 28028.344, 0.053181592, -0.2213335, 35471.543, 78753.86, 0.000000899484, 10.0017805, 9.997352 
3.750908e+2, 3.0558038e+2, 111581.37, -237912.03, -89249.17, 0.13346817, -0.12143238, 133053.48, 133053.48, 0.000005766145, 10.002009, 9.997375 
3.750925e+2, 3.1557813e+2, 173895.8, -152364.48, 85197.234, -0.06705285, -0.13299665, 194803.72, 194803.72, 0.000023929499, 10.002115, 9.997914 
3.849993e+2, 1.25594e+2, -1778560.3, -1731837.1, -99942.18, 0.123147845, -0.02691505, -1652562.4, 56615.387, 0.00012316402, 9.999401, 10.000147 
3.850021e+2, 1.355939e+2, -1570780.9, -1638223.1, -23379.564, -0.06136986, -0.045617938, -1563468.9, 47707.89, 0.000061385945, 10.000454, 9.999621 
3.8500863e+2, 1.4559372e+2, -1465839.8, -1564648.5, 40982.19, 0.074327216, -0.007329126, -1451054.4, 62124.766, 0.000022093489, 10.0006275, 9.999346 
3.8501272e+2, 1.5559347e+2, -1434996.5, -1512076.4, 20615.531, -0.08606896, 0.00030030438, -1429829.1, -14644.838, 0.000004863891, 10.000228, 9.999232 
3.8501793e+2, 1.6559307e+2, -1282787.8, -1361660.6, 14390.169, -0.10375395, 0.030242324, -1280244.3, 36944.418, 0.00000029520132, 10.000467, 9.999489 
3.8502353e+2, 1.7559259e+2, -1087858.4, -1219189.3, -13607.541, -0.059037033, -0.0035146005, -1086463.3, 132729.02, 0.0, 10.001149, 9.999459 
3.8502884e+2, 1.8559237e+2, -995820.7, -1137904.4, 3008.802, -0.044037927, 0.04003881, -995757.0, 125437.73, 0.0, 10.001168, 9.99933 
3.850342e+2, 1.955919e+2, -983484.44, -1087625.6, -11164.735, -0.025120849, 0.023509976, -982300.94, 40899.367, 0.0, 10.0006, 9.999282 
3.8503957e+2, 2.0559126e+2, -854124.06, -959037.25, 26737.262, -0.061676648, 0.031065864, -847703.0, 77503.12, 0.0, 10.000761, 9.999415 
3.8504478e+2, 2.1559027e+2, -659644.2, -826327.7, -14936.759, -0.15093784, -0.04360883, -658316.3, 168897.95, 0.0, 10.001461, 9.999324 
3.8505015e+2, 2.2558945e+2, -592394.2, -840963.7, -37895.555, -0.15147653, -0.004010001, -586745.2, 142476.22, 0.0, 10.001691, 9.998423 
3.850557e+2, 2.3558858e+2, -512132.5, -754802.94, -26923.402, -0.07845469, 0.027021123, -509181.34, 122048.47, 0.0, 10.001584, 9.998393 
3.8506073e+2, 2.455871e+2, -460953.53, -709707.44, -11848.32, -0.0352053, 0.05786812, -460390.47, 72854.08, 0.0, 10.001398, 9.998112 
3.8506523e+2, 2.5558478e+2, -393275.5, -632508.5, -22668.086, -0.024762556, -0.019807242, -391146.56, 44121.15, 0.0, 10.001193, 9.998079 
3.850695e+2, 2.6558304e+2, -231362.97, -389783.47, -2594.3936, -0.0764277, -0.046786793, -231320.5, 105960.836, 0.0, 10.001175, 9.999077 
3.8507366e+2, 2.755816e+2, -117988.69, -293533.16, -51332.203, -0.15683134, -0.13539423, -104080.24, 135208.69, 0.0, 10.001318, 9.998995 
3.850801e+2, 2.855795e+2, -81378.58, -413932.28, -14618.3955, -0.066245146, -0.15159364, -80737.22, 60570.348, 0.000000026095549, 10.001695, 9.997319 
3.8508806e+2, 2.9557672e+2, 84300.17, -296463.13, -9030.473, 0.1443036, -0.20520972, 84514.23, 127850.81, 0.00000066980994, 10.002206, 9.997207 
3.8509282e+2, 3.0557457e+2, 179491.98, -183206.47, -55549.133, 0.130048, -0.14519963, 187808.9, 187808.9, 0.000005131084, 10.002373, 9.997578 
3.8509497e+2, 3.1557336e+2, 142397.72, -166806.47, 72751.484, -0.0012736897, -0.07155412, 158659.86, 158659.86, 0.000023471404, 10.001902, 9.997916 
3.949995e+2, 1.255893e+2, -1758536.1, -1661041.8, -72815.08, 0.1225593, 0.058598362, -1622162.9, 87063.11, 0.0001272644, 9.999314, 10.000668 
3.9500207e+2, 1.3558856e+2, -1548973.6, -1574078.3, 27447.53, -0.14555109, -0.06944682, -1531344.4, 79882.65, 0.00006380605, 10.000402, 10.00008 
3.9501023e+2, 1.455878e+2, -1476833.9, -1573380.5, 6462.5347, 0.12333925, -0.10673524, -1476403.3, 36829.39, 0.000023677207, 10.000553, 9.999327 
3.950143e+2, 1.5558809e+2, -1435269.0, -1513273.5, 22809.46, 0.0063070282, -0.04977664, -1429088.9, -13857.051, 0.000005569423, 10.000224, 9.999227 
3.9501938e+2, 1.655873e+2, -1311604.3, -1401387.9, 20700.547, -0.04129532, -0.044727743, -1307061.4, 10178.544, 0.00000035120044, 10.000389, 9.999252 
3.9502457e+2, 1.7558572e+2, -1115672.1, -1253982.8, 26585.725, -0.10387315, -0.16355215, -1110737.9, 108517.21, 0.0, 10.001058, 9.999266 
3.9502957e+2, 1.8558547e+2, -1011134.0, -1140626.9, -33155.645, -0.1191741, -0.11515161, -1003138.44, 118119.33, 0.0, 10.001038, 9.999378 
3.9503473e+2, 1.9558598e+2, -1000290.8, -1090337.1, -15602.032, -0.06712933, -0.036829274, -997664.1, 25589.56, 0.0, 10.000465, 9.999327 
3.9504036e+2, 2.0558542e+2, -920851.25, -1056417.4, 37515.523, -0.08385151, 0.0073093106, -911162.0, 14098.053, 0.0, 10.0005865, 9.998831 
3.9504617e+2, 2.1558382e+2, -727221.6, -913170.0, 28557.521, -0.18443398, -0.070957884, -722934.6, 104342.18, 0.0, 10.001238, 9.99883 
3.9505178e+2, 2.255833e+2, -564299.3, -742256.3, -53935.313, -0.1873044, -0.017614685, -549228.8, 180052.73, 0.0, 10.001514, 9.999189 
3.950572e+2, 2.3558338e+2, -486561.13, -661362.9, -13704.757, -0.1179022, 0.03645279, -485493.16, 145786.52, 0.0, 10.0014105, 9.999119 
3.9506224e+2, 2.4558182e+2, -470115.9, -703237.7, -34183.863, -0.059650403, 0.022772288, -465206.72, 68086.19, 0.0, 10.001285, 9.998219 
3.9506686e+2, 2.555787e+2, -406353.8, -630514.4, -14595.634, -0.014672508, -0.14701398, -405407.47, 29913.506, 0.0, 10.0010605, 9.998162 
3.9507115e+2, 2.6557648e+2, -307515.7, -530550.25, -11547.75, -0.05673182, -0.17845914, -306919.4, 30421.35, 0.0, 10.001096, 9.998152 
3.9507514e+2, 2.755747e+2, -195266.48, -430185.7, -28531.436, -0.175218, -0.20090084, -191850.94, 47505.367, 0.0, 10.0012045, 9.998117 
3.950813e+2, 2.8557348e+2, -66906.08, -358355.2, -9120.169, -0.1465678, -0.10922857, -66620.96, 74748.44, 0.000000010243951, 10.0016, 9.997741 
3.9508894e+2, 2.9557255e+2, 93786.58, -235292.23, 29990.236, -0.0275139, -0.019250397, 96497.375, 139879.4, 0.0000005130985, 10.002039, 9.997705 
3.950932e+2, 3.0557e+2, 224919.81, -83730.32, -79642.59, -0.10224207, -0.0608991, 244258.7, 244258.7, 0.0000059963604, 10.002344, 9.998277 
3.9509705e+2, 3.1556973e+2, 149586.42, -124394.25, 55208.793, -0.05296529, 0.048045512, 160292.95, 160292.95, 0.000027747768, 10.001787, 9.998262 
4.0500036e+2, 1.2558359e+2, -1519542.0, -1579764.4, 28355.383, 0.21386811, 0.043431725, -1508292.5, 200989.2, 0.0001282802, 10.001066, 10.000395 
4.050019e+2, 1.3558313e+2, -1642399.9, -1638807.1, -50323.633, -0.15679015, -0.042276036, -1590247.8, 21032.707, 0.00006493345, 9.999833, 9.999915 
4.050109e+2, 1.4558202e+2, -1566206.9, -1611870.6, -20561.582, 0.18251404, -0.10896722, -1558313.0, -45023.625, 0.00002457309, 9.999916, 9.9993725 
4.0501523e+2, 1.5558194e+2, -1290315.4, -1439495.3, -38178.758, 0.040311065, -0.09249565, -1281112.3, 134179.02, 0.000005781208, 10.001189, 9.999275 
4.0502056e+2, 1.6558142e+2, -1182139.8, -1324210.5, -9150.081, 0.007626088, -0.07010691, -1181552.9, 135744.0, 0.0000003430959, 10.001216, 9.999376 
4.0502587e+2, 1.7558053e+2, -1225775.4, -1297104.5, -11689.73, -0.027366187, -0.13336352, -1223908.5, -4603.006, 0.0, 10.000248, 9.999356 
4.0503082e+2, 1.8558016e+2, -1091053.3, -1190042.6, -18417.354, -0.063017994, -0.09541505, -1087737.6, 33571.42, 0.0, 10.000556, 9.999265 
4.050358e+2, 1.9557989e+2, -809877.2, -1012568.5, -39345.16, -0.06604929, -0.08211698, -802507.7, 220804.27, 0.0, 10.001843, 9.999199 
4.050416e+2, 2.0557919e+2, -740631.56, -972740.3, 36633.23, -0.07270886, -0.04149559, -734987.06, 190332.28, 0.0, 10.00184, 9.998792 
4.0504795e+2, 2.15578e+2, -793391.8, -950297.6, 35212.082, -0.09940479, -0.07735255, -785852.0, 41480.47, 0.0, 10.000809, 9.998775 
4.0505362e+2, 2.2557744e+2, -694060.5, -800733.2, -16946.822, -0.10128369, -0.02928211, -691432.94, 37905.17, 0.0, 10.000607, 9.999228 
4.050587e+2, 2.3557709e+2, -538861.9, -687912.5, -56994.477, -0.08074502, -0.0189798, -519566.16, 111774.32, 0.0, 10.001043, 9.999123 
4.050638e+2, 2.455756e+2, -406399.75, -655847.9, -63886.336, -0.035914738, -0.03365249, -390989.75, 142362.94, 0.0, 10.001646, 9.99837 
4.0506896e+2, 2.555731e+2, -199462.38, -508566.34, -68164.445, 0.028709527, -0.16016233, -185098.08, 250275.9, 0.0, 10.002413, 9.998338 
4.0507346e+2, 2.65571e+2, -123752.07, -496082.75, -28789.398, -0.0024118305, -0.16299222, -121539.17, 215854.47, 0.0, 10.002577, 9.99767 
4.0507746e+2, 2.7556887e+2, -80451.39, -427585.53, -40093.8, -0.10430856, -0.17722882, -75880.766, 163534.94, 0.0, 10.0022, 9.997656 
4.0508318e+2, 2.8556776e+2, -23072.885, -295555.88, 33072.066, -0.108997874, -0.07563618, -19116.283, 122312.33, 0.0000000008315615, 10.001706, 9.998124 
4.0509042e+2, 2.9556724e+2, 2070.1113, -226726.67, 39573.266, -0.025577588, 0.017008653, 8721.442, 52157.086, 0.0000007104038, 10.001171, 9.998178 
4.0509468e+2, 3.0556488e+2, 175441.61, -69340.195, -31090.002, -0.14719866, -0.051309567, 179328.66, 179328.66, 0.000009515816, 10.001836, 9.998623 
4.0509996e+2, 3.155645e+2, 329254.2, -56217.89, -22109.854, 0.0121828355, 0.018550927, 330518.22, 330518.22, 0.000039448827, 10.003058, 9.99813 
4.1500095e+2, 1.2557662e+2, -1576588.8, -1710895.3, 22341.424, 0.07766629, -0.08428388, -1572969.8, 136377.72, 0.00012596608, 10.001105, 9.999475 
4.1500103e+2, 1.3557763e+2, -1678782.8, -1736894.1, -83259.484, -0.26936126, 0.04821938, -1619654.6, -8317.874, 0.00006410072, 9.999903, 9.999213 
4.1501024e+2, 1.4557634e+2, -1560004.6, -1586831.5, 11156.801, 0.08102957, -0.015584434, -1555971.3, -42621.742, 0.00002430965, 9.999881, 9.9995575 
4.1501522e+2, 1.5557516e+2, -1286286.6, -1411815.1, 24480.854, -0.118377484, -0.12775017, -1281681.3, 133680.38, 0.0000053776803, 10.001121, 9.999494 
4.150211e+2, 1.6557549e+2, -1170302.9, -1276483.9, -60832.543, -0.09820253, -0.048490528, -1142651.9, 174706.77, 0.0000002359893, 10.001115, 9.999751 
4.1502693e+2, 1.7557713e+2, -1212053.3, -1250589.3, -27251.617, 0.015338973, 0.10225431, -1197946.0, 21396.594, 0.0, 10.000173, 9.99971 
4.1503203e+2, 1.8557647e+2, -1122273.4, -1232634.0, 14312.739, -0.029753393, 0.10515676, -1120447.4, 901.0938, 0.0, 10.000462, 9.999015 
4.150369e+2, 1.9557358e+2, -843402.8, -1050512.8, 18564.178, -0.17324679, -0.1186016, -841752.0, 181623.3, 0.0, 10.001716, 9.998992 
4.1504285e+2, 2.0557256e+2, -731334.06, -922452.3, -17115.098, -0.16217585, -0.123796895, -729813.44, 195570.89, 0.0, 10.001694, 9.999216 
4.150496e+2, 2.1557283e+2, -795181.94, -904897.9, 12356.128, -0.04387541, -0.05460215, -793807.6, 33573.582, 0.0, 10.000598, 9.999188 
4.150552e+2, 2.255719e+2, -770326.75, -914955.94, -15034.952, -0.032094575, -0.026640585, -768780.3, -39389.918, 0.0, 10.000418, 9.998535 
4.1505972e+2, 2.3556969e+2, -606818.7, -790369.0, -24161.941, -0.11341483, -0.13635656, -603691.4, 27721.094, 0.0, 10.000879, 9.998498 
4.15065e+2, 2.4556845e+2, -404292.38, -624604.2, -47088.63, -0.1159254, -0.111937545, -394649.88, 138773.8, 0.0, 10.001529, 9.99864 
4.150709e+2, 2.555678e+2, -202399.88, -482293.38, -24643.945, -0.053390324, -0.07947892, -200246.6, 235181.78, 0.0, 10.002268, 9.998589 
4.150759e+2, 2.6556638e+2, -137861.97, -499581.4, -55187.152, -0.04824926, -0.026439808, -129629.49, 207812.89, 0.0, 10.002476, 9.99769 
4.1508007e+2, 2.755641e+2, -97795.734, -430077.44, -38957.32, -0.10279342, -0.05796422, -93289.414, 146177.25, 0.0, 10.00207, 9.997694 
4.1508538e+2, 2.8556234e+2, 4169.606, -244285.58, -4576.4644, -0.10007706, -0.04066742, 4253.8745, 145738.0, 0.00000000001177225, 10.00171, 9.998486 
4.1509178e+2, 2.9556087e+2, 14016.264, -180953.81, 40278.72, -0.050994515, -0.08192267, 22009.697, 65506.684, 0.0000013022876, 10.001068, 9.998549 
4.1509667e+2, 3.055592e+2, 180669.81, -46115.684, 9810.155, -0.16781822, -0.10894787, 181093.39, 181093.39, 0.000014575742, 10.001794, 9.998794 
4.1510293e+2, 3.1555846e+2, 275977.0, -126496.37, 12830.256, -0.07218883, -0.090981424, 276385.6, 276385.6, 0.000055427667, 10.002906, 9.997709 
4.2500207e+2, 1.255709e+2, -1687053.5, -1798210.0, 113894.71, 0.12844034, -0.065894455, -1615900.0, 93502.945, 0.00012015749, 10.000472, 9.999186 
4.2500195e+2, 1.3557127e+2, -1557487.9, -1696290.6, -87473.61, -0.20190538, 0.014397518, -1515228.1, 96171.44, 0.00006079175, 10.000805, 9.999052 
4.2501083e+2, 1.4557023e+2, -1446063.4, -1522200.6, 86552.78, 0.12262581, -0.02066647, -1389577.3, 123833.52, 0.00002257458, 10.00062, 9.999641 
4.250162e+2, 1.5556984e+2, -1457453.1, -1481866.9, 47673.492, -0.05684806, -0.06345011, -1420448.6, -5032.549, 0.0000044461326, 9.999898, 9.999596 
4.250221e+2, 1.6557021e+2, -1303761.6, -1332431.1, -26466.637, -0.0495535, 0.012728097, -1287997.1, 29415.164, 0.00000009724189, 10.000178, 9.999815 
4.250277e+2, 1.755711e+2, -1051874.8, -1165257.6, -45536.457, 0.031337995, 0.08305384, -1035851.06, 183551.27, 0.0, 10.001248, 9.999778 
4.2503318e+2, 1.8557039e+2, -968158.75, -1167154.6, 36351.11, -0.009814273, 0.0818101, -961726.3, 159682.05, 0.0, 10.001539, 9.998955 
4.2503875e+2, 1.9556805e+2, -929370.44, -1101574.1, 23906.879, -0.11989327, -0.08236684, -926113.06, 97317.625, 0.0, 10.001143, 9.998925 
4.2504475e+2, 2.0556717e+2, -834544.75, -975216.3, -29759.826, -0.09910643, -0.07147287, -828508.0, 96930.93, 0.0, 10.001007, 9.999181 
4.2505088e+2, 2.1556719e+2, -734303.56, -884635.06, -63920.457, 0.010375088, -0.01986019, -710799.6, 116638.81, 0.0, 10.00105, 9.999116 
4.2505634e+2, 2.2556604e+2, -643734.44, -845102.1, -15480.987, 0.010415194, -0.012753162, -642551.2, 86897.74, 0.0, 10.001256, 9.998603 
4.2506114e+2, 2.3556378e+2, -500631.1, -729248.8, -3173.735, -0.085934795, -0.13395871, -500587.03, 130883.04, 0.0, 10.001577, 9.998574 
4.2506662e+2, 2.4556257e+2, -413505.97, -647359.2, 3120.326, -0.09857488, -0.102830894, -413464.34, 120017.38, 0.0, 10.00154, 9.998483 
4.2507276e+2, 2.555619e+2, -360781.03, -576835.2, -36862.438, -0.033685323, -0.055189677, -354664.84, 80823.89, 0.0, 10.001246, 9.998439 
4.2507806e+2, 2.655607e+2, -282403.28, -539666.9, -49319.367, -0.011605194, 0.015506007, -273272.47, 64228.418, 0.0, 10.001356, 9.997966 
4.250827e+2, 2.7555886e+2, -125051.45, -413605.13, -43520.543, -0.019605702, 0.004421423, -118630.44, 120889.44, 0.0, 10.001762, 9.997962 
4.2508775e+2, 2.8555688e+2, 4138.8867, -257036.8, -5104.7373, -0.033187456, -0.0056598024, 4238.622, 145777.66, 0.0000000012455732, 10.001802, 9.998332 
4.250933e+2, 2.9555458e+2, 75033.984, -171697.02, -32686.643, -0.024772927, -0.11191508, 79290.836, 122850.84, 0.0000019825331, 10.001585, 9.99836 
4.2509896e+2, 3.055535e+2, 165147.56, -68786.12, -14798.538, -0.09957749, -0.06319355, 166079.98, 166079.98, 0.000019679212, 10.001765, 9.99865 
4.2510584e+2, 3.155525e+2, 178178.94, -148053.6, -135791.42, -0.016551565, -0.0633776, 227303.64, 227303.64, 0.00007104561, 10.002116, 9.997947 
4.350031e+2, 1.2556647e+2, -1668070.3, -1738059.1, 164078.81, 0.10691419, 0.0950846, -1535295.6, 174151.98, 0.00011272219, 10.000416, 9.999619 
4.3500426e+2, 1.3556407e+2, -1530079.8, -1633841.5, -60555.47, -0.09269247, -0.14423378, -1502219.9, 109248.42, 0.00005585788, 10.000799, 9.999481 
4.3501204e+2, 1.4556357e+2, -1459065.5, -1539877.9, 46333.215, 0.13694398, -0.13888338, -1437994.6, 75479.64, 0.000019900395, 10.00057, 9.999548 
4.3501765e+2, 1.55566e+2, -1460080.1, -1492766.3, 39943.258, 0.05254804, 0.10687408, -1433265.8, -17811.258, 0.0000034951138, 9.999908, 9.999521 
4.350231e+2, 1.6556554e+2, -1331485.6, -1367615.6, -2791.5461, -0.0038324026, 0.11115853, -1331271.1, -13812.512, 0.000000032016867, 10.000092, 9.99961 
4.3502775e+2, 1.7556249e+2, -1077300.8, -1196896.5, 7453.452, -0.12738632, -0.19108357, -1076838.0, 142646.23, 0.0, 10.0011635, 9.999598 
4.3503365e+2, 1.8556203e+2, -979347.7, -1159683.4, 7045.436, -0.14539766, -0.16507395, -979072.8, 142415.47, 0.0, 10.001408, 9.999071 
4.3504092e+2, 1.9556342e+2, -942990.3, -1096800.1, 25824.64, -0.04975888, 0.03230828, -938770.1, 84706.96, 0.0, 10.001006, 9.999024 
4.350468e+2, 2.0556307e+2, -897060.75, -1066849.4, -44172.215, -0.02687505, 0.121160135, -886256.44, 39226.055, 0.0, 10.000841, 9.998631 
4.350513e+2, 2.1556102e+2, -793350.6, -969202.94, -47054.22, -0.08249771, 0.018552246, -781551.6, 45952.55, 0.0, 10.000884, 9.998614 
4.350566e+2, 2.2555995e+2, -615172.06, -745204.2, -17533.68, -0.115894295, 0.017222568, -612849.3, 116663.41, 0.0, 10.001083, 9.999372 
4.350625e+2, 2.3555939e+2, -478492.75, -639440.44, 22709.205, -0.13679938, -0.012827815, -475349.94, 156163.52, 0.0, 10.001389, 9.999281 
4.350683e+2, 2.4555792e+2, -479505.34, -751643.9, -23178.432, -0.11374572, -0.003943324, -477545.3, 55981.78, 0.0, 10.001406, 9.997826 
4.3507403e+2, 2.555555e+2, -424043.1, -673251.9, -31128.13, -0.062466998, -0.067808785, -420213.78, 15339.838, 0.0, 10.001102, 9.997841 
4.3507954e+2, 2.6555413e+2, -251939.17, -463867.94, -46423.344, -0.030250927, -0.01744655, -242216.14, 95351.234, 0.0, 10.001296, 9.998518 
4.3508482e+2, 2.755533e+2, -104185.0, -347437.2, -12123.6, -0.020858679, 0.010160675, -103582.26, 135992.03, 0.0, 10.001657, 9.998469 
4.350896e+2, 2.855514e+2, -56780.176, -366115.7, -25993.271, -0.061587665, 0.023978794, -54611.184, 86982.06, 0.000000012355592, 10.0017395, 9.997607 
4.3509448e+2, 2.955486e+2, 4091.3638, -294442.72, -21029.303, -0.10724545, -0.061258927, 5565.4287, 49188.387, 0.0000027662056, 10.001489, 9.99756 
4.351012e+2, 3.055479e+2, 126594.12, -150373.6, -11407.381, -0.08717755, 0.09484394, 127063.16, 127063.16, 0.000024180765, 10.001762, 9.998095 
4.3510765e+2, 3.1554618e+2, 205651.5, -58287.793, -99036.766, -0.12534416, 0.076034136, 238679.64, 238679.64, 0.00008333817, 10.001981, 9.998629 
4.4500336e+2, 1.2555936e+2, -1641746.1, -1691193.0, 182724.6, 0.10502087, 0.08936895, -1482079.9, 227437.63, 0.00010688196, 10.000496, 9.999885 
4.4500637e+2, 1.355579e+2, -1605649.9, -1632251.1, -169035.66, 0.087288976, -0.08589536, -1449392.4, 162138.22, 0.000051033883, 10.000148, 9.999805 
4.4501248e+2, 1.4555769e+2, -1508280.1, -1563918.6, -25084.09, 0.15204896, -0.067566015, -1498641.0, 14893.013, 0.000017295639, 10.000224, 9.999553 
4.45018e+2, 1.5555955e+2, -1378880.5, -1452710.5, -64955.62, 0.084149234, 0.11808929, -1341083.0, 74436.05, 0.0000027656245, 10.000455, 9.999535 
4.4502378e+2, 1.65559e+2, -1237714.6, -1320441.4, -25044.89, 0.034846507, 0.10976708, -1230723.4, 86800.73, 0.000000035556127, 10.000697, 9.999659 
4.4502878e+2, 1.7555626e+2, -1106007.1, -1208307.8, -26715.338, -0.11604616, -0.16622846, -1099450.8, 120096.414, 0.0, 10.000935, 9.999641 
4.4503492e+2, 1.855559e+2, -1031891.3, -1178256.0, -21989.871, -0.1329862, -0.13233073, -1028658.94, 92891.32, 0.0, 10.001047, 9.999101 
4.4504234e+2, 1.9555713e+2, -942552.44, -1093835.3, -44099.31, -0.00032593438, 0.04738552, -930636.0, 92904.48, 0.0, 10.001017, 9.999028 
4.450483e+2, 2.0555668e+2, -855069.3, -1052300.6, -54770.58, 0.03437612, 0.12984285, -840880.44, 84666.43, 0.0, 10.001178, 9.998558 
4.4505298e+2, 2.155546e+2, -714280.56, -935171.25, -54753.164, -0.022802537, 0.03309612, -701453.5, 126115.25, 0.0, 10.001461, 9.99856 
4.450582e+2, 2.2555356e+2, -600614.4, -745391.56, -27929.445, -0.06293578, 0.03889214, -595413.25, 134163.77, 0.0, 10.001211, 9.999308 
4.450639e+2, 2.3555303e+2, -611825.4, -712196.0, -78107.63, -0.08210506, 0.020909073, -569170.1, 62407.35, 0.0, 10.0005045, 9.9992075 
4.4506985e+2, 2.4555163e+2, -563189.25, -762493.0, -68472.63, -0.056890868, 0.024298778, -541932.06, -8342.187, 0.0, 10.000703, 9.998092 
4.4507596e+2, 2.5554934e+2, -333103.0, -598807.7, -38531.848, 0.0039522415, -0.053595647, -327628.03, 107985.95, 0.0, 10.0016, 9.99811 
4.4508153e+2, 2.655478e+2, -175306.16, -419730.4, -24465.533, 0.023907553, -0.036167666, -172881.34, 164747.08, 0.0, 10.001799, 9.998571 
4.4508654e+2, 2.7554655e+2, -124217.58, -353816.3, -60366.277, 0.005343411, -0.051484197, -109313.51, 130325.14, 0.0, 10.001506, 9.998497 
4.4509128e+2, 2.8554487e+2, -54936.145, -374789.6, -30342.652, -0.058427826, -0.012265678, -52083.16, 89572.484, 0.00000003062236, 10.001775, 9.997542 
4.4509646e+2, 2.9554275e+2, 121944.43, -239797.72, -14409.463, -0.08906219, -0.021995211, 122517.5, 166196.78, 0.0000032986038, 10.002316, 9.997534 
4.451039e+2, 3.0554152e+2, 164994.84, -171550.95, 59437.91, 0.0013183831, 0.096734695, 175183.81, 175183.81, 0.000027227657, 10.0021925, 9.997732 
4.4510922e+2, 3.1553915e+2, 188742.11, -20225.771, -59610.363, -0.13194953, 0.044099186, 204550.69, 204550.69, 0.000091368296, 10.001673, 9.999024 
4.5500186e+2, 1.255495e+2, -1644866.6, -1696876.9, 146690.2, -0.17812784, -0.104617596, -1521894.3, 187719.39, 0.000102696926, 10.00049, 9.999847 
4.5500764e+2, 1.3555276e+2, -1589530.4, -1616138.0, -163397.06, 0.15737022, 0.18267974, -1438896.4, 172690.4, 0.000047349753, 10.000206, 9.999893 
4.550116e+2, 1.4555249e+2, -1505789.8, -1546498.3, -26147.889, -0.0055809426, 0.18326025, -1493007.9, 20583.428, 0.000015080613, 10.00018, 9.999689 
4.5501697e+2, 1.5555046e+2, -1375772.4, -1436218.4, -37814.16, -0.10628861, -0.030906785, -1357587.4, 58022.785, 0.0000021144335, 10.00042, 9.9996605 
4.5502368e+2, 1.6555062e+2, -1223115.0, -1273622.9, -33862.605, -0.07864498, 0.008535387, -1206126.4, 111481.94, 0.00000004449902, 10.00062, 10.000017 
4.5503047e+2, 1.7555243e+2, -1088658.4, -1166422.6, -1183.247, -0.079588905, 0.1498544, -1088640.4, 130950.6, 0.0, 10.000903, 9.999945 
4.5503646e+2, 1.85552e+2, -1056485.4, -1205524.9, -38524.164, -0.11485926, 0.16958284, -1047116.44, 74478.3, 0.0, 10.000947, 9.998959 
4.5504245e+2, 1.9554934e+2, -974526.8, -1122241.9, -31001.691, -0.12332576, -0.027507784, -968284.2, 55335.645, 0.0, 10.000859, 9.998903 
4.5504883e+2, 2.0554814e+2, -853207.2, -1011582.6, -60008.293, -0.05953252, -0.03015643, -833038.5, 92592.1, 0.0, 10.001013, 9.9989195 
4.550554e+2, 2.1554796e+2, -722288.44, -901477.8, -31182.615, 0.04066505, 0.023457121, -717017.06, 110614.7, 0.0, 10.001246, 9.998892 
4.5506063e+2, 2.255469e+2, -688407.3, -889060.9, -68577.06, 0.03314524, 0.057844408, -667209.25, 62432.324, 0.0, 10.001038, 9.998411 
4.5506483e+2, 2.3554477e+2, -686075.6, -834064.0, -84836.87, -0.07176588, -0.031179966, -647497.9, -15836.2705, 0.0, 10.000358, 9.998445 
4.5507073e+2, 2.4554376e+2, -500571.2, -597654.56, -47766.855, -0.06647328, -0.014616279, -481010.25, 52659.113, 0.0, 10.000563, 9.999293 
4.550781e+2, 2.5554332e+2, -276645.94, -443820.53, 9521.519, 0.026001884, -0.021165293, -276105.4, 159564.72, 0.0, 10.001438, 9.999257 
4.5508364e+2, 2.655416e+2, -230113.77, -506135.75, -47791.047, 0.022641866, -0.05042814, -222073.33, 115611.84, 0.0, 10.001687, 9.998024 
4.5508754e+2, 2.7553862e+2, -179815.56, -439941.8, -49602.24, -0.08367539, -0.18774901, -170678.11, 69035.695, 0.0, 10.001382, 9.997958 
4.550924e+2, 2.8553742e+2, -18887.066, -290635.3, -22947.047, -0.16017716, -0.10903842, -16962.988, 124762.805, 0.000000022691747, 10.001724, 9.998149 
4.5509866e+2, 2.9553708e+2, 159134.77, -152075.02, 20795.77, -0.14473826, 0.0024536867, 160518.25, 204247.44, 0.0000033720132, 10.002249, 9.998179 
4.5510653e+2, 3.0553427e+2, 148903.44, -191052.42, 31048.709, 0.0076443464, -0.06343456, 151715.89, 151715.89, 0.000028360193, 10.002147, 9.997609 
4.551098e+2, 3.1553102e+2, 179537.27, -13019.749, -2852.2258, -0.31830418, -0.1980275, 179579.5, 179579.5, 0.00009465621, 10.001561, 9.999123 
4.6500152e+2, 1.2554145e+2, -1721853.8, -1777046.8, 206771.03, -0.22430949, -0.18831, -1540845.8, 168843.72, 0.00009773488, 10.000101, 9.999491 
4.6500924e+2, 1.3554548e+2, -1447572.9, -1579433.3, -139395.73, 0.25977126, 0.197261, -1359302.0, 252357.06, 0.000043477085, 10.001272, 9.999645 
4.6501166e+2, 1.4554527e+2, -1305346.3, -1427734.0, 6363.2817, -0.07173731, 0.20641713, -1305016.3, 208647.16, 0.000012657647, 10.001466, 9.999885 
4.6501788e+2, 1.5554285e+2, -1326710.5, -1391505.8, -40900.508, -0.057176992, -0.06802031, -1306931.0, 108753.375, 0.0000014631825, 10.000677, 9.999843 
4.6502498e+2, 1.6554329e+2, -1271096.1, -1313349.4, -2163.3547, 0.009725072, -0.0012785856, -1270985.6, 46694.94, 0.000000030371112, 10.000377, 9.999852 
4.650317e+2, 1.7554583e+2, -1157768.9, -1212614.8, -42148.375, -0.015763316, 0.22900343, -1134907.6, 84751.53, 0.0, 10.000495, 9.999818 
4.6503773e+2, 1.8554552e+2, -1074715.6, -1179450.4, -52703.008, -0.06112351, 0.2479834, -1052786.6, 68875.125, 0.0, 10.000642, 9.999303 
4.6504363e+2, 1.9554254e+2, -965806.56, -1084615.6, -35641.98, -0.073369265, -0.013830431, -955934.5, 67752.945, 0.0, 10.00074, 9.999241 
4.6505025e+2, 2.0554124e+2, -857223.1, -1013278.94, -18573.889, -0.007756536, -0.044407025, -855042.9, 70655.02, 0.0, 10.000975, 9.99893 
4.6505722e+2, 2.1554106e+2, -709100.56, -900979.25, -52545.773, 0.10376728, 0.01053486, -695653.4, 132045.39, 0.0, 10.001352, 9.998851 
4.6506253e+2, 2.2553976e+2, -623217.8, -880334.5, -65467.67, 0.09983547, 0.036775187, -607508.1, 122202.79, 0.0, 10.001604, 9.998181 
4.6506655e+2, 2.3553732e+2, -494955.34, -765711.75, -65870.77, 0.0030586, -0.06116407, -479780.5, 151954.22, 0.0, 10.001793, 9.998212 
4.6507227e+2, 2.4553637e+2, -358813.88, -524241.88, -12465.672, -0.0063955914, -0.030748053, -357879.8, 175862.48, 0.0, 10.001505, 9.999338 
4.650795e+2, 2.5553635e+2, -363263.13, -480345.22, -70875.07, 0.063534014, -0.004506554, -329878.5, 105861.04, 0.0, 10.000815, 9.999299 
4.6508515e+2, 2.6553476e+2, -327123.38, -529430.2, -105643.92, 0.051505238, -0.03336983, -282014.53, 55738.234, 0.0, 10.000898, 9.998258 
4.650893e+2, 2.7553174e+2, -143862.78, -395630.9, -75551.55, -0.04291768, -0.19697762, -122931.195, 116849.45, 0.0, 10.001506, 9.998211 
4.6509418e+2, 2.8553057e+2, -11605.817, -258786.31, 342.9405, -0.140676, -0.13764124, -11605.342, 130185.44, 0.00000001636591, 10.001658, 9.998394 
4.6510035e+2, 2.9553038e+2, 76821.27, -149703.23, -30336.09, -0.15379426, -0.044037145, 80813.516, 124605.164, 0.0000038591365, 10.001518, 9.998534 
4.6510857e+2, 3.0552745e+2, 80872.08, -209419.17, -2512.9, 0.03806612, -0.15020785, 80893.83, 80893.83, 0.000029778155, 10.0015745, 9.997796 
4.6511224e+2, 3.155248e+2, 177835.92, -27610.207, -32564.877, -0.21317248, -0.22700702, 182874.16, 182874.16, 0.00009717631, 10.001588, 9.999034 
4.750014e+2, 1.2553512e+2, -1780763.1, -1857895.4, 116201.96, -0.32885772, -0.15723607, -1696894.6, 12851.362, 0.00009217974, 9.999963, 9.998984 
4.7501072e+2, 1.3553603e+2, -1479607.4, -1634270.9, -76983.97, 0.24042276, -0.03694247, -1447821.1, 163926.48, 0.00003847725, 10.00125, 9.999263 
4.750121e+2, 1.455361e+2, -1290082.0, -1394141.4, -40150.957, -0.22527552, 0.004292188, -1276391.1, 237359.19, 0.000009911169, 10.001438, 10.000139 
4.7502026e+2, 1.5553664e+2, -1304351.9, -1355574.3, -53740.37, 0.07064035, -0.00018149937, -1270431.9, 145310.39, 0.0000009593812, 10.000706, 10.000084 
4.750272e+2, 1.6553688e+2, -1329170.4, -1416972.4, -12943.923, 0.15932404, 0.07046809, -1327302.0, -9560.005, 0.000000014696447, 10.000307, 9.999178 
4.750321e+2, 1.7553645e+2, -1210539.6, -1305534.4, -19887.191, -0.05988879, 0.07620678, -1206544.3, 13207.695, 0.0, 10.000426, 9.999218 
4.7503808e+2, 1.8553652e+2, -1026378.6, -1055706.4, -62364.54, -0.121027656, 0.11590056, -976977.2, 144773.67, 0.0, 10.000536, 10.000207 
4.7504547e+2, 1.9553676e+2, -922275.7, -971425.06, -14675.124, 0.0025810683, 0.087489076, -918227.4, 105515.836, 0.0, 10.000636, 10.000073 
4.7505212e+2, 2.0553596e+2, -906047.6, -1077988.4, -18600.326, 0.052646417, 0.086138345, -904058.5, 21690.432, 0.0, 10.000822, 9.998554 
4.7505805e+2, 2.15534e+2, -760275.0, -960148.2, -21692.41, 0.020131782, -0.0017260417, -757947.8, 69820.875, 0.0, 10.001157, 9.998533 
4.7506344e+2, 2.2553225e+2, -620153.56, -842109.7, -72725.05, -0.0017765237, -0.024214325, -598447.56, 131336.77, 0.0, 10.001453, 9.998525 
4.7506857e+2, 2.355305e+2, -500955.84, -738385.06, -44847.98, -0.005869479, -0.08628206, -492766.94, 139031.53, 0.0, 10.001616, 9.998489 
4.7507396e+2, 2.4552928e+2, -454903.84, -695655.44, -51270.707, -0.018986901, -0.037605546, -444439.97, 89370.52, 0.0, 10.001375, 9.998227 
4.750797e+2, 2.555282e+2, -454641.28, -643783.2, -76680.13, -0.03636554, -0.0088372575, -427460.4, 8363.35, 0.0, 10.000687, 9.998245 
4.7508553e+2, 2.655272e+2, -268420.9, -380098.44, -97061.05, -0.02790689, 0.0133569725, -212282.83, 125549.055, 0.0, 10.00079, 9.9993305 
4.750913e+2, 2.7552584e+2, -87169.98, -249711.58, -36670.277, -0.027341217, -0.086807445, -79279.95, 160559.28, 0.0, 10.001394, 9.999263 
4.750962e+2, 2.8552425e+2, -31485.309, -294905.53, -21947.447, -0.14221661, -0.107935466, -29669.227, 112182.12, 0.0000000367379, 10.001627, 9.998165 
4.75101e+2, 2.9552224e+2, 47475.027, -189973.64, -19621.248, -0.2864745, -0.17589971, 49085.48, 92954.82, 0.000004901276, 10.001408, 9.998322 
4.7510958e+2, 3.0552068e+2, 106178.6, -128902.69, -17903.174, -0.043017298, -0.16729677, 107534.24, 107534.24, 0.000032907166, 10.001474, 9.998387 
4.7511542e+2, 3.1552058e+2, 148827.03, -63348.35, 39385.59, -0.13345273, -0.039190374, 155902.16, 155902.16, 0.00010232853, 10.001501, 9.998818 
4.8500237e+2, 1.2552865e+2, -1891784.4, -1871442.1, 54992.434, -0.16081627, -0.09275257, -1825688.1, -115876.9, 0.00008688649, 9.999028, 9.999353 
4.850117e+2, 1.3552853e+2, -1501310.8, -1605366.3, -15880.246, 0.24640848, -0.11151331, -1498941.1, 112878.164, 0.000032757685, 10.000917, 9.99964 
4.850123e+2, 1.4552887e+2, -1297503.0, -1416659.1, -4990.363, -0.33852836, -0.051950093, -1297294.4, 216524.63, 0.000007215262, 10.001481, 9.999955 
4.8502174e+2, 1.5553026e+2, -1272599.4, -1363542.5, -95427.78, 0.14030755, 0.046767227, -1212363.3, 203441.89, 0.00000059770906, 10.001023, 9.999875 
4.8502865e+2, 1.655303e+2, -1261345.8, -1362797.5, 20888.43, 0.26364613, 0.09666587, -1257213.3, 60592.613, 0.0000000048834687, 10.0006895, 9.999359 
4.8503268e+2, 1.7552888e+2, -1190921.9, -1273572.1, 52171.535, -0.03749937, -0.015954977, -1165691.5, 54130.555, 0.0, 10.000486, 9.999393 
4.8503873e+2, 1.8552883e+2, -1040737.3, -1085490.8, 32140.922, -0.10171315, 0.012841436, -1023950.9, 97871.12, 0.0, 10.000559, 9.999972 
4.8504686e+2, 1.9552964e+2, -908630.4, -981789.6, -31912.96, 0.07998422, 0.058147985, -896666.2, 127144.88, 0.0, 10.000833, 9.999883 
4.8505366e+2, 2.0552906e+2, -856223.1, -1054388.9, -23904.863, 0.11526086, 0.0897058, -853380.25, 72435.53, 0.0, 10.001151, 9.998573 
4.8505926e+2, 2.155271e+2, -728561.06, -937789.3, -22934.488, 0.029105352, -0.000035124147, -726076.6, 101759.7, 0.0, 10.001338, 9.998609 
4.8506463e+2, 2.2552568e+2, -604396.4, -796058.8, -41141.598, -0.016425343, -0.01187878, -595938.3, 133910.13, 0.0, 10.001389, 9.998879 
4.8506975e+2, 2.3552445e+2, -523346.47, -717936.94, -44648.99, -0.024556166, -0.054436702, -513590.78, 118265.67, 0.0, 10.0013075, 9.998787 
4.8507532e+2, 2.4552296e+2, -492219.22, -752722.75, -3152.753, -0.009311465, -0.02807943, -492181.1, 41690.063, 0.0, 10.001287, 9.997878 
4.8508123e+2, 2.555211e+2, -395441.06, -650423.8, -6003.136, 0.030918851, -0.039902642, -395299.8, 40593.215, 0.0, 10.001259, 9.997922 
4.8508725e+2, 2.6552007e+2, -212331.02, -357503.66, 7974.7114, 0.052589968, 0.00063879107, -211894.27, 126007.44, 0.0, 10.001188, 9.999292 
4.850932e+2, 2.755193e+2, -134437.03, -280613.25, -46461.516, 0.048064034, -0.039624106, -120919.46, 118984.7, 0.0, 10.001092, 9.999202 
4.8509827e+2, 2.8551745e+2, -69811.99, -342181.72, -35104.824, -0.08077335, -0.07219643, -65360.207, 76559.21, 0.00000008825205, 10.001481, 9.9979105 
4.8510313e+2, 2.9551476e+2, 148654.08, -171694.95, -75816.79, -0.2421622, -0.17939094, 165691.47, 209635.8, 0.0000056092463, 10.002232, 9.998049 
4.8511165e+2, 3.0551368e+2, 188193.89, -101434.03, -89737.07, 0.00041474085, -0.10460689, 213743.72, 213743.72, 0.000035389916, 10.002088, 9.998273 
4.8511767e+2, 3.1551337e+2, 92468.85, -103811.7, -105777.66, -0.023798846, 0.014799936, 138621.42, 138621.42, 0.00010599746, 10.001165, 9.998699 
4.950031e+2, 1.2552194e+2, -1801926.1, -1690280.8, -82974.86, -0.07902373, 0.0030927893, -1646098.5, 63787.957, 0.00007926606, 9.999055, 10.00058 
4.9501163e+2, 1.3552299e+2, -1413453.1, -1426143.5, 66806.234, 0.112712204, -0.03418076, -1352691.4, 259182.8, 0.000026309035, 10.000929, 10.000862 
4.9501184e+2, 1.4552362e+2, -1360587.6, -1529743.6, -39062.094, -0.5791727, 0.035864256, -1352002.9, 161866.27, 0.0000047383246, 10.001406, 9.999214 
4.950217e+2, 1.5552378e+2, -1323750.9, -1460755.1, -95520.93, -0.0023004254, 0.08443612, -1274708.3, 141163.52, 0.0000002991547, 10.00099, 9.999222 
4.9502876e+2, 1.6552363e+2, -1192060.1, -1206189.0, -3269.9075, 0.17218252, 0.0917996, -1191340.0, 126531.17, 0.0000000005507737, 10.000631, 10.000464 
4.950331e+2, 1.7552307e+2, -1131270.1, -1135206.9, 58239.863, -0.08172262, -0.04659815, -1074965.4, 144904.78, 0.0, 10.0004225, 10.000375 
4.950393e+2, 1.8552232e+2, -1149344.0, -1284333.5, 28284.564, -0.13224757, -0.064766355, -1143657.1, -21780.826, 0.0, 10.000448, 9.998658 
4.950474e+2, 1.9552106e+2, -1010871.44, -1167968.8, -7893.3384, 0.012495561, -0.09495243, -1010475.8, 13415.924, 0.0, 10.000718, 9.998661 
4.950544e+2, 2.0552057e+2, -844614.75, -993702.9, -32937.55, 0.047658294, -0.026346529, -837662.2, 88236.41, 0.0, 10.000986, 9.999073 
4.9506047e+2, 2.1552041e+2, -718415.5, -883509.1, -120.06698, -0.014511516, 0.018314663, -718415.44, 109485.62, 0.0, 10.001181, 9.9990635 
4.950655e+2, 2.2551997e+2, -611859.44, -766991.94, -57200.73, -0.09433669, 0.06756726, -593049.1, 136854.92, 0.0, 10.001206, 9.999161 
4.950697e+2, 2.3551902e+2, -529801.4, -687141.1, -28891.729, -0.19385919, 0.020880342, -524663.8, 107246.01, 0.0, 10.001119, 9.999087 
4.9507582e+2, 2.455174e+2, -489285.47, -709534.44, -18683.479, -0.118155584, -0.00083122496, -487711.8, 46212.402, 0.0, 10.001137, 9.998245 
4.9508363e+2, 2.555149e+2, -392437.94, -617140.4, 10073.053, 0.10637825, -0.110751435, -391987.3, 43961.64, 0.0, 10.001141, 9.998208 
4.9508974e+2, 2.6551327e+2, -305933.28, -526870.5, -12254.804, 0.15066284, -0.08491568, -305255.63, 32708.895, 0.0, 10.001092, 9.998171 
4.9509445e+2, 2.755121e+2, -236195.73, -451845.53, -30692.857, 0.031359665, -0.056211796, -231912.39, 8063.25, 0.0, 10.000931, 9.998098 
4.9509984e+2, 2.855103e+2, -100555.14, -384099.06, -17732.596, -0.10571731, -0.014116841, -99450.46, 42542.348, 0.00000018947561, 10.001393, 9.997662 
4.9510625e+2, 2.9550794e+2, 114725.15, -222523.75, -29153.121, -0.19743782, -0.060675226, 117226.7, 161242.86, 0.000005650319, 10.002153, 9.997732 
4.9511442e+2, 3.0550644e+2, 132980.11, -218138.05, -132578.48, 0.032274503, 0.031961177, 177416.6, 177416.6, 0.00003451672, 10.002083, 9.997477 
4.9511805e+2, 3.1550324e+2, 75823.125, -118614.41, -62311.02, -0.18379396, -0.07538555, 94077.96, 94077.96, 0.00010176044, 10.00107, 9.998643 
5.05003e+2, 1.2551668e+2, -1664209.0, -1595063.4, -16186.677, -0.024282314, 0.084471926, -1591461.8, 118479.01, 0.000066640154, 9.999897, 10.000814 
5.050123e+2, 1.3551731e+2, -1442887.3, -1428082.5, 120694.26, 0.11582243, -0.0079361955, -1314563.9, 297365.03, 0.0000195532, 10.000669, 10.000977 
5.050138e+2, 1.4551762e+2, -1430076.8, -1586425.1, -13718.574, -0.48919427, 0.037719086, -1428882.3, 85043.375, 0.0000028130235, 10.001042, 9.998996 
5.0502247e+2, 1.5551706e+2, -1294126.3, -1465168.5, -70963.36, -0.029093465, 0.036247548, -1268518.4, 147417.13, 0.00000011765629, 10.001293, 9.999037 
5.0502944e+2, 1.6551681e+2, -1094195.6, -1171647.0, 20780.836, 0.14535643, 0.04507438, -1088972.3, 228963.6, 0.000000000026416515, 10.00134, 10.000367 
5.0503474e+2, 1.7551656e+2, -1027181.5, -1098903.1, -36435.625, 0.014887911, -0.050559472, -1011919.4, 208011.64, 0.0, 10.001174, 10.000272 
5.0504094e+2, 1.8551563e+2, -1083686.3, -1280266.9, -22938.686, -0.03299923, -0.069717795, -1081045.0, 40894.387, 0.0, 10.001007, 9.998426 
5.050481e+2, 1.9551383e+2, -1011107.0, -1190101.3, -5901.924, 0.014749645, -0.12596561, -1010912.6, 13048.687, 0.0, 10.00081, 9.998469 
5.0505507e+2, 2.0551336e+2, -861055.06, -958434.94, 25311.68, 0.03739304, -0.06553084, -854868.9, 71098.93, 0.0, 10.000708, 9.999433 
5.050618e+2, 2.1551368e+2, -784895.7, -876009.94, 12023.814, 0.041779343, -0.010035416, -783335.7, 44628.676, 0.0, 10.00058, 9.99939 
5.0506705e+2, 2.2551341e+2, -681576.44, -809855.75, -28426.902, -0.030717583, 0.04765149, -675559.25, 54406.816, 0.0, 10.000757, 9.99909 
5.0507104e+2, 2.3551248e+2, -544892.6, -694538.2, -60890.43, -0.15847923, 0.008605415, -523247.3, 108726.47, 0.0, 10.001036, 9.999069 
5.050771e+2, 2.4551098e+2, -467320.88, -679675.4, -39028.56, -0.09673472, -0.008710039, -460375.03, 73611.86, 0.0, 10.001199, 9.998421 
5.0508505e+2, 2.555087e+2, -357530.25, -581440.75, -51854.46, 0.13602558, -0.11681589, -346104.53, 89903.305, 0.0, 10.001303, 9.998372 
5.050913e+2, 2.6550686e+2, -248909.88, -564025.75, -15624.876, 0.17431204, -0.092410654, -248137.02, 89889.15, 0.0, 10.001746, 9.997616 
5.0509614e+2, 2.755051e+2, -64406.047, -428591.8, -31349.58, 0.045934882, -0.06477774, -61727.14, 178318.03, 0.00000000061010413, 10.002352, 9.9975815 
5.0510186e+2, 2.8550324e+2, 4511.7344, -331473.75, 35215.797, -0.06658272, -0.011044445, 8163.1406, 150227.8, 0.00000027597625, 10.002104, 9.997689 
5.0510865e+2, 2.955011e+2, -32100.967, -294352.44, 6886.0103, -0.113207184, -0.031284403, -31920.283, 12165.36, 0.0000049916057, 10.001151, 9.99773 
5.051163e+2, 3.0549946e+2, -34295.63, -290468.28, -27379.59, 0.08081349, 0.044268325, -31401.998, -31401.998, 0.000030276777, 10.000904, 9.997544 
5.051189e+2, 3.154962e+2, 92895.09, -52885.965, 77641.07, -0.18288346, -0.078151256, 126499.48, 126499.48, 0.000090633286, 10.000946, 9.999151 
5.150005e+2, 1.2551293e+2, -1718704.9, -1715931.8, -157824.23, -0.34016207, 0.16061875, -1559488.0, 150485.56, 0.000052165007, 9.999923, 9.999971 
5.150132e+2, 1.3551159e+2, -1508472.3, -1573221.8, 165815.02, 0.1026563, -0.0295474, -1371901.0, 240081.42, 0.000013925394, 10.000702, 9.999964 
5.150178e+2, 1.4551094e+2, -1415150.1, -1550633.0, -26013.229, -0.24489091, -0.044229668, -1410327.1, 103660.35, 0.000001645238, 10.001016, 9.999259 
5.150236e+2, 1.5551007e+2, -1286236.4, -1439818.8, -45786.98, -0.087026194, -0.10206077, -1273622.1, 142374.67, 0.00000003629146, 10.001253, 9.999233 
5.150301e+2, 1.6550972e+2, -1198808.0, -1365114.1, 832.5137, 0.04176254, -0.045936592, -1198803.8, 119196.96, 0.0, 10.001243, 9.999082 
5.150371e+2, 1.7550942e+2, -1122580.6, -1277178.5, -26025.36, 0.09716166, -0.021338176, -1118317.1, 101686.77, 0.0, 10.001099, 9.999078 
5.150431e+2, 1.8550892e+2, -1037657.4, -1163313.5, -45165.848, 0.046808243, 0.015093888, -1023107.7, 98901.64, 0.0, 10.000909, 9.999274 
5.1504844e+2, 1.9550794e+2, -964367.56, -1078598.5, 3346.511, -0.06665791, -0.047339875, -964269.6, 59749.984, 0.0, 10.000734, 9.999273 
5.150551e+2, 2.0550731e+2, -882074.5, -960694.9, 5615.0454, -0.05335073, -0.044650182, -881675.5, 44349.164, 0.0, 10.00053, 9.999501 
5.1506287e+2, 2.1550669e+2, -802785.7, -876090.8, 23336.033, 0.057956472, -0.09751346, -795987.4, 32040.76, 0.0, 10.000412, 9.999471 
5.150688e+2, 2.2550587e+2, -731102.25, -879226.5, -34568.875, 0.046136636, -0.07830604, -723431.8, 6604.0127, 0.0, 10.000607, 9.9986925 
5.150732e+2, 2.355047e+2, -592533.75, -762680.1, -34714.773, -0.07669183, -0.09981633, -585723.5, 46325.824, 0.0, 10.000895, 9.998675 
5.150786e+2, 2.4550365e+2, -477459.88, -674884.0, -49457.668, -0.09912913, -0.057392024, -465763.0, 68296.77, 0.0, 10.001092, 9.998501 
5.15085e+2, 2.5550243e+2, -375253.34, -583019.7, -29223.443, -0.037313074, -0.067827195, -371221.16, 64849.156, 0.0, 10.001143, 9.998439 
5.150914e+2, 2.6550075e+2, -267220.0, -574869.5, -7615.2695, -0.019058393, -0.028153103, -267031.63, 71055.484, 0.0, 10.001636, 9.997595 
5.150979e+2, 2.7549827e+2, -80480.28, -438524.22, 11272.602, -0.04980859, -0.070248865, -80125.73, 159987.9, 0.0000000018853024, 10.002243, 9.997572 
5.151039e+2, 2.854961e+2, 17038.404, -293811.9, -16224.095, -0.112208724, -0.05768984, 17882.889, 160018.33, 0.00000034894228, 10.002057, 9.997965 
5.1510966e+2, 2.9549417e+2, -30061.309, -267675.75, -4067.3132, -0.17099145, -0.09315282, -29991.707, 14162.295, 0.000004315403, 10.001047, 9.997964 
5.151166e+2, 3.0549255e+2, 19705.117, -157597.27, -32926.785, -0.013540636, -0.07062093, 25622.455, 25622.455, 0.000026122347, 10.000838, 9.998485 
5.151193e+2, 3.1549162e+2, 142957.27, 88843.45, 168401.95, -0.31172323, -0.052093945, 286462.06, 286462.06, 0.000081293096, 10.000805, 10.000191 
5.25001e+2, 1.255066e+2, -1733306.3, -1748502.9, -234911.53, -0.27305323, 0.07754579, -1505870.1, 204160.81, 0.000041919076, 9.999921, 9.999749 
5.250135e+2, 1.35505e+2, -1585826.3, -1657505.1, 128609.195, 0.08872987, -0.094365284, -1488156.1, 123887.63, 0.000010470756, 10.000371, 9.999543 
5.2502096e+2, 1.4550425e+2, -1456392.0, -1545287.3, -7197.228, -0.0013322093, -0.10850177, -1455813.0, 58236.426, 0.0000009776196, 10.000621, 9.999486 
5.250247e+2, 1.5550365e+2, -1288855.3, -1417982.8, -66673.71, -0.07533961, -0.16647616, -1260608.1, 155446.78, 0.000000005050013, 10.001126, 9.999444 
5.250307e+2, 1.6550331e+2, -1248473.5, -1426806.0, 26095.002, 0.0036581364, -0.10020143, -1244733.5, 73325.805, 0.0, 10.001065, 9.998748 
5.250388e+2, 1.7550287e+2, -1225974.4, -1364605.3, 34664.93, 0.18877414, -0.05487783, -1217789.6, 2276.8735, 0.0, 10.000537, 9.998757 
5.2504486e+2, 1.8550248e+2, -1079981.5, -1170434.0, 61797.816, 0.15972944, 0.0053031207, -1048628.5, 73443.1, 0.0, 10.000574, 9.999392 
5.2504957e+2, 1.9550191e+2, -925630.9, -1045408.0, 19684.324, -0.032541435, -0.024580238, -922478.9, 101598.74, 0.0, 10.000967, 9.999387 
5.250558e+2, 2.0550118e+2, -822507.4, -935830.6, 12228.663, -0.04668256, -0.033382334, -821202.8, 104880.28, 0.0, 10.000944, 9.9994755 
5.2506346e+2, 2.1550007e+2, -788054.75, -874878.06, -5452.44, 0.081549086, -0.13029692, -787713.7, 40377.12, 0.0, 10.00053, 9.999424 
5.250699e+2, 2.2549917e+2, -725786.6, -880195.75, 304.8255, 0.09307858, -0.11701934, -725786.0, 4313.7646, 0.0, 10.000684, 9.9986315 
5.250751e+2, 2.3549809e+2, -535004.3, -744035.6, -8859.028, 0.009754831, -0.120235994, -534629.56, 97483.42, 0.0, 10.001337, 9.998586 
5.250806e+2, 2.4549715e+2, -390349.84, -650631.0, -7339.9355, -0.033132367, -0.055645894, -390143.0, 143980.34, 0.0, 10.001755, 9.998361 
5.2508646e+2, 2.554961e+2, -269500.6, -545762.4, -34259.535, -0.031598315, -0.032154746, -265315.44, 170817.77, 0.0, 10.001928, 9.998323 
5.2509284e+2, 2.654945e+2, -246926.08, -549677.5, 18372.906, -0.033262376, 0.011511995, -245815.16, 92334.74, 0.0, 10.001714, 9.99772 
5.2509975e+2, 2.7549204e+2, -226874.45, -482413.2, 13990.5625, -0.024815034, -0.042179897, -226110.77, 14064.924, 0.00000000009174081, 10.00116, 9.997767 
5.251058e+2, 2.8549016e+2, -105271.71, -309922.9, 17624.754, -0.06721525, -0.036356166, -103764.94, 38429.652, 0.00000033351301, 10.001038, 9.998341 
5.2511114e+2, 2.954885e+2, 25960.574, -195838.08, 566.12305, -0.1294153, -0.08060834, 25962.018, 70171.44, 0.0000041082662, 10.001243, 9.998356 
5.251175e+2, 3.05487e+2, 116216.86, -61164.918, 4981.8315, -0.008536446, -0.08948533, 116356.67, 116356.67, 0.000024723933, 10.001268, 9.998957 
5.251212e+2, 3.1548652e+2, 149370.03, 129565.836, 134393.08, -0.17506237, -0.067443766, 274225.3, 274225.3, 0.00007789345, 10.000674, 10.000547 
5.3500295e+2, 1.254976e+2, -1688999.9, -1665946.1, -274650.5, -0.16715601, -0.17328212, -1402580.8, 307533.72, 0.000035694404, 9.999973, 10.000286 
5.3501266e+2, 1.3549761e+2, -1581017.3, -1639738.5, 151528.58, -0.068571575, -0.19659172, -1456031.0, 156081.14, 0.000008273398, 10.00034, 9.999685 
5.350227e+2, 1.4549772e+2, -1453650.8, -1523079.6, -5940.901, 0.06688, -0.14138737, -1453146.0, 60964.273, 0.00000061502607, 10.000547, 9.999668 
5.350256e+2, 1.5549786e+2, -1281542.8, -1394628.3, -32648.264, -0.14491764, -0.1472895, -1272793.9, 143314.97, 0.00000000036285042, 10.001089, 9.9996195 
5.35031e+2, 1.6549762e+2, -1218804.0, -1351841.4, -12301.822, -0.11061342, -0.110603936, -1217676.0, 100435.54, 0.0, 10.001006, 9.999292 
5.350393e+2, 1.7549683e+2, -1197975.8, -1299101.5, 32650.338, 0.1524799, -0.1531142, -1188350.3, 31769.38, 0.0, 10.000501, 9.999229 
5.350458e+2, 1.8549627e+2, -1139722.3, -1275125.9, 62473.18, 0.16422337, -0.09623144, -1115302.3, 6824.41, 0.0, 10.000489, 9.998712 
5.350509e+2, 1.954956e+2, -989631.06, -1155347.0, 49235.816, -0.026445419, -0.06846379, -976106.44, 48029.887, 0.0, 10.000859, 9.998689 
5.350567e+2, 2.0549497e+2, -856378.94, -958551.3, -17597.535, -0.08597648, -0.03326547, -853433.0, 72710.23, 0.0, 10.000751, 9.999407 
5.350632e+2, 2.1549408e+2, -819748.75, -897698.4, -5459.252, -0.028337233, -0.099679366, -819368.25, 8782.14, 0.0, 10.000347, 9.999352 
5.3506976e+2, 2.2549339e+2, -737210.06, -869587.25, 9921.52, -0.015501447, -0.06766594, -736470.56, -6313.726, 0.0, 10.000527, 9.998784 
5.3507626e+2, 2.3549263e+2, -551418.44, -734027.2, 31547.477, -0.044506416, -0.06030691, -546121.94, 86043.29, 0.0, 10.0011425, 9.998747 
5.350827e+2, 2.454914e+2, -438553.44, -715858.56, -14636.053, -0.030336073, -0.012093502, -437783.1, 96395.48, 0.0, 10.001614, 9.997978 
5.3508914e+2, 2.5548953e+2, -313945.72, -608731.4, -10893.903, 0.004424766, -0.033989802, -313543.7, 122654.96, 0.0, 10.001802, 9.997951 
5.3509516e+2, 2.6548797e+2, -235495.7, -505258.72, -19245.203, -0.004547908, 0.018833641, -234129.66, 104085.65, 0.0, 10.001626, 9.998068 
5.3510106e+2, 2.7548635e+2, -220731.16, -443847.88, 12307.489, -0.04735624, 0.013497538, -220054.31, 20178.38, 0.0, 10.001037, 9.998102 
5.35107e+2, 2.854851e+2, -76795.91, -235791.64, 12879.504, -0.08648744, 0.036994595, -75759.35, 66485.56, 0.00000019037492, 10.000979, 9.998874 
5.351127e+2, 2.954839e+2, 43833.12, -134021.56, 31907.166, -0.14664723, -0.010618629, 49384.027, 93638.26, 0.0000040138116, 10.001133, 9.998836 
5.3511864e+2, 3.0548257e+2, 108154.984, -75336.195, -25407.408, -0.054637793, -0.020554049, 111608.08, 111608.08, 0.000024880646, 10.001251, 9.998866 
5.3512335e+2, 3.1548092e+2, 125628.24, 72110.805, 198928.38, -0.11449257, -0.107422896, 299589.56, 299589.56, 0.00007745561, 10.000688, 10.000153 
5.450055e+2, 1.254913e+2, -1494033.8, -1609985.6, -109346.35, 0.033377796, -0.25922024, -1428244.5, 281928.4, 0.00003031358, 10.001465, 9.999989 
5.450119e+2, 1.3549185e+2, -1573175.8, -1671937.4, 146163.75, -0.16872585, -0.18953407, -1468276.6, 143890.86, 0.000006366235, 10.000558, 9.999366 
5.450239e+2, 1.4549176e+2, -1563540.1, -1571852.1, 35384.13, 0.1819449, -0.13647781, -1532068.8, -17900.924, 0.00000037085837, 9.999775, 9.999715 
5.450264e+2, 1.5549181e+2, -1453727.3, -1468362.0, -36236.527, -0.09179916, -0.15559185, -1424076.6, -7910.3413, 0.00000000007720086, 9.999866, 9.999706 
5.450317e+2, 1.654915e+2, -1279551.6, -1379080.4, -1854.6793, -0.107721485, -0.13084203, -1279517.0, 38652.438, 0.0, 10.000611, 9.999278 
5.4504025e+2, 1.7549068e+2, -1012137.06, -1206996.8, -37557.24, 0.14240721, -0.17321332, -1005148.9, 215029.28, 0.0, 10.001802, 9.999219 
5.450469e+2, 1.8549004e+2, -979668.3, -1205255.3, 350.12143, 0.1812871, -0.12443657, -979667.75, 142518.27, 0.0, 10.0016, 9.998669 
5.4505205e+2, 1.9548926e+2, -1077585.4, -1200260.3, 7444.044, 0.043379012, -0.10489888, -1077135.4, -52939.703, 0.0, 10.000255, 9.998673 
5.4505765e+2, 2.0548856e+2, -971878.25, -1068440.8, 6265.2183, -0.023494162, -0.049645096, -971473.44, -45269.28, 0.0, 10.000183, 9.998939 
5.45064e+2, 2.154876e+2, -754281.1, -910947.94, -38208.902, -0.013131403, -0.07538256, -745459.25, 82755.58, 0.0, 10.0009985, 9.998949 
5.4507047e+2, 2.2548683e+2, -629929.56, -806962.7, -12404.284, -0.015791936, -0.03857372, -629064.7, 101157.75, 0.0, 10.001208, 9.998886 
5.4507726e+2, 2.3548591e+2, -579564.06, -740643.75, -29434.719, -0.030794995, -0.0536566, -574353.9, 57876.527, 0.0, 10.000915, 9.9988165 
5.450842e+2, 2.454846e+2, -523938.38, -745608.4, -23789.975, -0.0050336383, -0.021615304, -521413.94, 12829.882, 0.0, 10.000974, 9.998084 
5.450911e+2, 2.5548273e+2, -378049.25, -627754.8, -19736.928, 0.051589783, -0.05500892, -376498.88, 59765.336, 0.0, 10.001312, 9.998058 
5.45097e+2, 2.6548126e+2, -258885.45, -500996.72, -6388.026, 0.034462657, -0.0058547626, -258717.03, 79563.02, 0.0, 10.001405, 9.9981985 
5.4510236e+2, 2.7547976e+2, -166399.92, -399960.4, -24021.13, -0.024749747, -0.015535959, -163955.0, 76341.055, 0.0, 10.001336, 9.998256 
5.451083e+2, 2.8547868e+2, -70402.54, -226227.56, -11906.979, -0.041774392, 0.01919496, -69497.95, 72808.164, 0.00000011177434, 10.001, 9.998936 
5.451146e+2, 2.954779e+2, -55097.855, -170337.58, -56866.563, -0.021490311, 0.0050856965, -31761.838, 12549.702, 0.0000045059896, 10.000432, 9.998915 
5.4511994e+2, 3.0547622e+2, 15307.173, -178138.44, -92114.26, -0.022947226, -0.01446363, 52152.094, 52152.094, 0.000026381855, 10.000867, 9.998331 
5.451255e+2, 3.1547406e+2, 227601.08, 88862.96, 59262.625, 0.0015125994, -0.10884548, 249468.67, 249468.67, 0.00007890932, 10.001554, 9.999824 
5.550077e+2, 1.254881e+2, -1564118.9, -1748162.1, -83177.65, 0.036626127, -0.1324026, -1532098.3, 178104.56, 0.000026661766, 10.001444, 9.999045 
5.5501086e+2, 1.3548772e+2, -1637806.3, -1803012.9, 115526.79, -0.35739133, -0.06299911, -1578389.4, 33820.09, 0.0000052899522, 10.00054, 9.998483 
5.5502415e+2, 1.454863e+2, -1574045.8, -1573731.3, 14714.276, 0.19207919, -0.1007404, -1559173.4, -44950.645, 0.00000021782215, 9.999703, 9.999731 
5.5502707e+2, 1.5548554e+2, -1461708.1, -1475836.6, -10456.062, -0.0598138, -0.19800542, -1456153.6, -39926.71, 0.00000000000011946363, 9.999829, 9.999676 
5.5503243e+2, 1.6548505e+2, -1328880.1, -1472752.3, 27061.44, -0.13510019, -0.15467381, -1323958.4, -5726.246, 0.0, 10.000573, 9.998655 
5.5504113e+2, 1.7548439e+2, -1064136.1, -1298383.6, 17105.338, 0.020042293, -0.11912486, -1062893.6, 157348.98, 0.0, 10.001728, 9.9986315 
5.550478e+2, 1.8548371e+2, -949183.7, -1113437.1, -66181.67, 0.08035981, -0.08139031, -925836.2, 196413.66, 0.0, 10.001476, 9.99936 
5.550526e+2, 1.9548279e+2, -1049687.0, -1121874.4, -22886.55, 0.037680358, -0.14115684, -1043042.56, -18786.193, 0.0, 10.000158, 9.999266 
5.550584e+2, 2.0548187e+2, -1048847.6, -1191431.9, 22417.146, -0.0001197488, -0.09413205, -1045406.25, -119139.23, 0.0, 10.000031, 9.998164 
5.550652e+2, 2.1548063e+2, -834146.44, -1034483.75, 7151.4204, -0.021814125, -0.0718913, -833891.5, -5607.1826, 0.0, 10.000812, 9.998193 
5.550717e+2, 2.2547936e+2, -660516.75, -825394.4, -37548.555, -0.047622383, -0.044060886, -652368.25, 77928.96, 0.0, 10.001016, 9.998853 
5.550779e+2, 2.3547792e+2, -609949.3, -754275.0, -22496.201, -0.090519644, -0.10989465, -606524.1, 25784.693, 0.0, 10.000703, 9.998824 
5.550846e+2, 2.4547683e+2, -505022.9, -673845.75, -23626.865, -0.08552646, -0.086294435, -501778.66, 32540.021, 0.0, 10.000826, 9.998655 
5.5509174e+2, 2.5547573e+2, -359942.84, -556668.25, 11654.77, -0.04452533, -0.09762287, -359254.78, 77075.36, 0.0, 10.001161, 9.998625 
5.550979e+2, 2.6547426e+2, -278893.97, -517442.5, -23529.307, -0.051515106, -0.07245305, -276595.3, 61749.66, 0.0, 10.001304, 9.99813 
5.5510324e+2, 2.7547213e+2, -194211.31, -431234.66, -10050.858, -0.10454426, -0.13317463, -193785.88, 46580.93, 0.0, 10.001222, 9.998098 
5.551095e+2, 2.8547087e+2, -103168.75, -282146.34, -50077.297, -0.056880686, -0.086699225, -90110.086, 52268.926, 0.00000024371042, 10.000945, 9.998581 
5.551163e+2, 2.9547033e+2, -89914.2, -231750.8, -55057.53, 0.05695958, -0.043253012, -71050.9, -26667.727, 0.0000058589785, 10.000372, 9.9985285 
5.551206e+2, 3.0546793e+2, -55115.62, -308357.97, -73010.68, -0.07249496, -0.07335299, -35574.28, -35574.28, 0.000029984647, 10.00081, 9.997458 
5.551267e+2, 3.1546572e+2, 181844.55, 22882.303, 127424.74, -0.10744046, -0.08541535, 252544.36, 252544.36, 0.00008416486, 10.001418, 9.999443 
5.650103e+2, 1.2548295e+2, -1547988.6, -1774291.4, -88138.836, 0.15638144, -0.018146574, -1517711.6, 192543.36, 0.000022362967, 10.001689, 9.9987335 
5.650112e+2, 1.354816e+2, -1711520.9, -1846563.8, -34721.094, -0.33550948, -0.036408953, -1703116.6, -90845.8, 0.000004259607, 10.00008, 9.998381 
5.650248e+2, 1.4547975e+2, -1544372.0, -1563712.9, 11935.286, 0.28239235, -0.11316651, -1538681.3, -24393.422, 0.00000013010742, 9.999893, 9.999724 
5.6502837e+2, 1.5547928e+2, -1231818.1, -1361756.3, -42084.055, 0.029603139, -0.18300965, -1219378.9, 196909.16, 0.0, 10.001381, 9.99972 
5.6503385e+2, 1.6547878e+2, -1231971.3, -1452095.0, 20101.086, -0.07870452, -0.13401552, -1230150.8, 88142.89, 0.0, 10.001329, 9.998443 
5.65042e+2, 1.7547771e+2, -1318970.6, -1439416.5, 13213.195, 0.029254925, -0.1203083, -1317538.1, -97229.43, 0.0, 10.000043, 9.998473 
5.650487e+2, 1.8547699e+2, -1115967.8, -1176912.9, -41772.355, 0.08964844, -0.08627313, -1094734.3, 27581.598, 0.0, 10.000271, 9.99949 
5.650538e+2, 1.954764e+2, -830903.6, -998602.44, -66350.75, 0.08395433, -0.13174452, -807827.2, 216491.25, 0.0, 10.001599, 9.999399 
5.650596e+2, 2.0547538e+2, -803125.6, -1097589.0, 16058.587, 0.041533742, -0.09071506, -802252.44, 124077.58, 0.0, 10.001836, 9.997931 
5.650662e+2, 2.1547376e+2, -803750.9, -1038369.44, 11108.884, -0.0051024663, -0.08079775, -803226.06, 25125.34, 0.0, 10.001117, 9.998009 
5.6507283e+2, 2.2547244e+2, -679425.7, -815152.2, 19436.25, -0.018414672, -0.061107177, -676697.25, 53667.246, 0.0, 10.000807, 9.999024 
5.650794e+2, 2.3547108e+2, -586910.8, -723262.06, 21240.46, -0.00093112694, -0.13452087, -583678.6, 48694.984, 0.0, 10.00078, 9.998998 
5.650861e+2, 2.4547003e+2, -495043.97, -671435.56, 50883.734, -0.011079398, -0.11275776, -481418.1, 52964.883, 0.0, 10.000936, 9.998596 
5.650929e+2, 2.554689e+2, -341934.88, -553240.06, 1071.8365, -0.037922163, -0.120664746, -341929.44, 94466.2, 0.0, 10.001328, 9.998552 
5.650992e+2, 2.654675e+2, -252444.72, -482664.63, -31066.793, -0.047897413, -0.097300455, -248326.13, 90083.77, 0.0, 10.001381, 9.998334 
5.6510496e+2, 2.7546564e+2, -195342.23, -406383.97, -24208.768, -0.037123814, -0.1564418, -192600.84, 47827.2, 0.0, 10.00111, 9.998316 
5.6511134e+2, 2.8546423e+2, -58391.613, -311548.38, -5682.745, 0.01384066, -0.11241376, -58264.113, 84176.97, 0.00000046127252, 10.001443, 9.998149 
5.651179e+2, 2.9546323e+2, 155984.06, -165748.6, -45424.99, 0.09652684, -0.072567634, 162274.56, 206724.44, 0.000007820285, 10.002268, 9.998078 
5.6512135e+2, 3.0546e+2, 147372.7, -239005.53, -9766.745, -0.1405725, -0.15039255, 147619.42, 147619.42, 0.00003595913, 10.002311, 9.997217 
5.651288e+2, 3.154584e+2, 128597.59, -53506.035, 146064.73, -0.019641249, -0.08466041, 209665.9, 209665.9, 0.000094486146, 10.001273, 9.998984 
5.750128e+2, 1.2547548e+2, -1522734.0, -1709087.8, -48074.285, 0.15710133, 0.05165879, -1511063.0, 199269.83, 0.000015098279, 10.001642, 9.999193 
5.750123e+2, 1.3547336e+2, -1672707.9, -1761101.6, -89122.23, -0.27491817, -0.112909615, -1617425.5, -5071.999, 0.0000026568694, 10.000055, 9.998976 
5.750252e+2, 1.4547203e+2, -1542350.1, -1547435.4, 42048.465, 0.29456684, -0.17454876, -1502767.5, 11596.727, 0.000000050157187, 9.999847, 9.999857 
5.750302e+2, 1.5547301e+2, -1232010.0, -1350027.8, 25587.299, 0.03585474, -0.10756416, -1226701.3, 189649.08, 0.0, 10.001331, 9.999828 
5.750355e+2, 1.654726e+2, -1220006.3, -1407827.5, -47529.29, -0.0795879, -0.07167878, -1208663.8, 109690.48, 0.0, 10.001245, 9.998784 
5.7504237e+2, 1.7547065e+2, -1307017.3, -1402640.4, -15230.75, 0.020438679, -0.17886214, -1304649.9, -84273.85, 0.0, 9.999988, 9.998754 
5.7504904e+2, 1.8547001e+2, -1153930.0, -1233377.9, -5307.2744, 0.06815091, -0.13366, -1153577.0, -31193.764, 0.0, 10.000178, 9.999146 
5.750553e+2, 1.954701e+2, -873152.56, -1052546.0, -4573.003, 0.035835605, -0.074801065, -873036.06, 151345.67, 0.0, 10.001456, 9.999097 
5.750611e+2, 2.0546912e+2, -809380.3, -1064837.9, -27565.797, -0.025018085, -0.030581588, -806439.6, 119952.875, 0.0, 10.001636, 9.998252 
5.750666e+2, 2.1546708e+2, -812677.6, -1008831.1, 1212.2963, -0.10772255, -0.093189895, -812670.1, 15745.237, 0.0, 10.00091, 9.998312 
5.750734e+2, 2.2546603e+2, -671435.2, -760744.2, 3035.1829, -0.06553435, -0.08622103, -671332.2, 59092.09, 0.0, 10.000637, 9.999482 
5.750813e+2, 2.3546544e+2, -583239.7, -676288.8, 37707.652, 0.07522299, -0.12791392, -569877.7, 62547.023, 0.0, 10.000606, 9.999405 
5.750882e+2, 2.454642e+2, -564181.1, -795054.4, 48989.867, 0.06726581, -0.102142334, -554215.9, -19778.936, 0.0, 10.000834, 9.997805 
5.7509416e+2, 2.5546214e+2, -414474.66, -670530.0, 33725.758, -0.07742018, -0.12733527, -410107.03, 26355.012, 0.0, 10.001173, 9.997828 
5.7510054e+2, 2.6546088e+2, -224297.23, -408462.9, -57103.52, -0.08573023, -0.084810756, -208028.5, 130446.83, 0.0, 10.001303, 9.998888 
5.75107e+2, 2.7546e+2, -167954.73, -335144.8, -18658.234, 0.014641402, -0.09670069, -165897.8, 74583.875, 0.0, 10.001027, 9.998857 
5.751132e+2, 2.854586e+2, -96971.59, -370175.1, 8586.869, 0.018807748, -0.06207922, -96701.97, 45791.563, 0.0000006054728, 10.001358, 9.997786 
5.751189e+2, 2.954565e+2, 110349.02, -230263.75, 5086.0376, -0.07324857, -0.09305393, 110424.95, 154937.34, 0.000009307056, 10.002143, 9.997695 
5.7512176e+2, 3.0545247e+2, 161783.69, -190126.31, -54534.773, -0.36146855, -0.24832043, 170041.08, 170041.08, 0.000040671366, 10.002235, 9.997593 
5.7513094e+2, 3.1545138e+2, 67556.695, -154818.84, 106839.53, -0.016334936, -0.1618287, 110568.17, 110568.17, 0.000103750725, 10.001162, 9.998349 
5.850144e+2, 1.2546693e+2, -1603230.8, -1736811.5, 110926.98, 0.20311874, -0.04138824, -1540538.5, 169878.56, 0.000008007214, 10.001004, 9.9993305 
5.850142e+2, 1.3546582e+2, -1469207.4, -1630422.3, -125906.0, -0.13666461, -0.13110168, -1400316.0, 212110.86, 0.0000012151539, 10.0013, 9.999281 
5.850255e+2, 1.4546505e+2, -1419129.1, -1491282.6, 70520.086, 0.30608603, -0.14735657, -1375993.5, 138439.02, 0.000000012980553, 10.000748, 9.99978 
5.8503115e+2, 1.5546578e+2, -1422461.6, -1442520.6, 74.66203, 0.06917975, -0.103787795, -1422461.4, -6038.632, 0.0, 10.000055, 9.999778 
5.8503664e+2, 1.6546538e+2, -1333918.3, -1424701.1, -62332.12, -0.0388911, -0.081646025, -1302201.5, 16224.232, 0.0, 10.00029, 9.999133 
5.8504313e+2, 1.7546384e+2, -1097436.6, -1262826.1, -56546.77, 0.050055746, -0.18313886, -1079951.8, 140489.81, 0.0, 10.00125, 9.999109 
5.8505e+2, 1.8546328e+2, -1003187.94, -1178619.1, 7478.43, 0.09411567, -0.13918944, -1002869.7, 119578.37, 0.0, 10.001283, 9.998999 
5.850566e+2, 1.9546312e+2, -1022550.9, -1140982.5, -10894.904, 0.074979246, -0.084927745, -1021557.0, 2893.4697, 0.0, 10.000487, 9.998971 
5.850622e+2, 2.0546232e+2, -968974.0, -1057597.9, 1567.4263, 0.0055288966, -0.059759993, -968946.3, -42488.3, 0.0, 10.000169, 9.999007 
5.850672e+2, 2.1546072e+2, -860791.7, -958968.4, 35317.92, -0.09737654, -0.15608683, -849406.75, -20934.547, 0.0, 10.000246, 9.9989805 
5.850743e+2, 2.2545977e+2, -676690.7, -815320.94, 75160.49, -0.045535244, -0.14673081, -643762.56, 86717.39, 0.0, 10.000834, 9.999016 
5.8508295e+2, 2.35459e+2, -436535.88, -660145.4, 5350.807, 0.13207336, -0.15602565, -436407.9, 196077.58, 0.0, 10.001845, 9.998927 
5.850901e+2, 2.4545762e+2, -420965.8, -731703.44, 22013.982, 0.1311727, -0.1168648, -419414.0, 115086.38, 0.0, 10.001846, 9.997744 
5.850958e+2, 2.5545552e+2, -425998.94, -680700.6, 27120.9, -0.02252833, -0.14190038, -423143.1, 13382.467, 0.0, 10.001121, 9.997772 
5.8510184e+2, 2.654543e+2, -279119.38, -439797.34, -17896.719, -0.056990866, -0.08965223, -277150.13, 61388.504, 0.0, 10.000965, 9.998829 
5.8510816e+2, 2.754536e+2, -128711.8, -319725.5, -56105.56, 0.023399837, -0.080937244, -113451.36, 127092.75, 0.0, 10.001341, 9.9988 
5.851147e+2, 2.8545207e+2, -92552.84, -385180.72, -252.07202, 0.044610903, -0.04489565, -92552.63, 50004.8, 0.00000055145284, 10.001469, 9.997619 
5.8512145e+2, 2.9544958e+2, -26726.514, -309367.75, -26456.773, 0.024555337, -0.09773736, -24271.342, 20309.166, 0.000008783807, 10.001261, 9.997567 
5.8512396e+2, 3.0544606e+2, 32118.604, -192098.45, -63737.67, -0.2924564, -0.22643435, 48970.586, 48970.586, 0.000039667964, 10.001082, 9.99813 
5.851328e+2, 3.1544456e+2, -13394.93, -190376.33, -5658.549, 0.10028641, -0.23888375, -13214.195, -13214.195, 0.00010388018, 10.000595, 9.998367 
5.950148e+2, 1.2545721e+2, -1596784.4, -1719879.1, 147361.48, 0.06202983, -0.2943218, -1498633.6, 211874.73, 0.0000033727015, 10.001011, 9.999434 
5.9501666e+2, 1.3545902e+2, -1470640.1, -1628767.3, -111220.76, -0.06363389, -0.092751265, -1413244.5, 199246.08, 0.00000044999516, 10.001293, 9.999294 
5.950252e+2, 1.4545886e+2, -1443466.6, -1533003.4, 21013.541, 0.15691175, -0.036268868, -1438780.3, 75712.02, 0.000000014541682, 10.00071, 9.999509 
5.9503067e+2, 1.5545754e+2, -1447454.1, -1487720.3, -6942.842, -0.025963815, -0.17011268, -1446290.6, -29785.283, 0.0, 10.000023, 9.999486 
5.950366e+2, 1.654572e+2, -1316159.8, -1368184.9, -42111.44, -0.09989938, -0.15017644, -1292674.5, 25833.229, 0.0, 10.000218, 9.999549 
5.950441e+2, 1.7545728e+2, -1078086.9, -1204370.9, -7596.9355, -0.020618837, -0.12959741, -1077631.5, 142873.36, 0.0, 10.001182, 9.999539 
5.9505093e+2, 1.8545677e+2, -1019055.1, -1185694.4, -40867.383, 0.02887483, -0.1013915, -1009572.25, 112937.96, 0.0, 10.001172, 9.999004 
5.950571e+2, 1.9545546e+2, -1040129.1, -1141706.5, -24514.426, 0.040877976, -0.16668046, -1034522.4, -9997.402, 0.0, 10.000339, 9.999036 
5.950625e+2, 2.0545495e+2, -907854.2, -890951.1, -10355.13, -0.013569017, -0.1799869, -886036.44, 40490.395, 0.0, 9.999997, 10.000235 
5.9506756e+2, 2.1545473e+2, -809439.9, -808624.7, 55272.16, -0.116047695, -0.2595273, -753758.6, 74762.54, 0.0, 10.000062, 10.0001 
5.9507495e+2, 2.2545373e+2, -796933.8, -1032124.1, 95613.94, -0.091945566, -0.23322587, -762968.25, -32437.727, 0.0, 10.000683, 9.997607 
5.950841e+2, 2.3545177e+2, -559491.6, -869662.4, 57167.105, 0.02620589, -0.22156934, -549290.7, 83264.91, 0.0, 10.001642, 9.997592 
5.9509134e+2, 2.4545032e+2, -395871.16, -648141.9, -19382.754, 0.03926859, -0.16082722, -394390.63, 140182.38, 0.0, 10.001704, 9.99839 
5.950971e+2, 2.5544906e+2, -402925.66, -601057.3, 15950.485, -0.037542924, -0.16268007, -401649.78, 34936.383, 0.0, 10.000979, 9.998389 
5.9510267e+2, 2.6544788e+2, -335251.0, -536588.44, -20560.197, -0.103142805, -0.10681538, -333172.9, 5426.19, 0.0, 10.000883, 9.998206 
5.95108e+2, 2.7544641e+2, -190179.97, -420844.75, -23542.717, -0.16522196, -0.10758233, -187801.63, 52813.043, 0.0, 10.001226, 9.998164 
5.9511566e+2, 2.8544468e+2, -104379.92, -387772.8, -20096.02, -0.048810747, -0.06376553, -102961.97, 39670.48, 0.0000003359344, 10.00138, 9.997641 
5.9512496e+2, 2.954424e+2, -39631.37, -300596.0, -14150.514, 0.20169146, -0.09777415, -38866.316, 5788.6875, 0.000006914508, 10.001117, 9.997692 
5.9512746e+2, 3.0544063e+2, 73296.12, -98664.56, -89372.07, -0.08848686, -0.09641064, 111331.84, 111331.84, 0.000035638073, 10.001034, 9.998799 
5.951334e+2, 3.1543806e+2, 28983.361, -84171.97, -33349.61, 0.021852931, -0.27808896, 38080.87, 38080.87, 0.00009897654, 10.000514, 9.999134 
6.050158e+2, 1.254509e+2, -1561022.3, -1678961.8, 220418.19, 0.070212096, -0.22832024, -1391821.9, 318749.72, 0.0000011596172, 10.001153, 9.999659 
6.050191e+2, 1.3545221e+2, -1499095.0, -1613713.9, -107671.1, 0.084439315, -0.0958422, -1434431.4, 178125.2, 0.00000014603442, 10.001001, 9.999524 
6.050253e+2, 1.4545187e+2, -1436810.1, -1571695.8, 60662.227, 0.09019252, -0.04910182, -1413542.3, 101017.89, 0.0000000031309833, 10.000904, 9.999176 
6.0503143e+2, 1.5545042e+2, -1296511.0, -1450338.9, -9140.3, 0.0052567907, -0.15750732, -1295969.8, 120606.984, 0.0, 10.001194, 9.999197 
6.050378e+2, 1.6545008e+2, -1169261.8, -1286881.0, -1792.5496, -0.04374126, -0.12752716, -1169234.5, 149345.02, 0.0, 10.001157, 9.999676 
6.050449e+2, 1.7545035e+2, -1128633.0, -1214670.8, -21055.496, -0.024413668, -0.104415804, -1123756.6, 96817.46, 0.0, 10.00076, 9.999684 
6.050515e+2, 1.8544993e+2, -1117583.4, -1196601.3, -54375.703, 0.025506137, -0.09079746, -1089878.6, 32698.805, 0.0, 10.000357, 9.999313 
6.050576e+2, 1.9544864e+2, -1073284.9, -1122308.8, -47013.07, 0.09691767, -0.18365669, -1044777.3, -20186.355, 0.0, 9.999972, 9.999341 
6.050634e+2, 2.0544827e+2, -850603.4, -862318.56, 1607.7, 0.0637137, -0.19646782, -850386.75, 76204.02, 0.0, 10.000387, 10.000253 
6.0506886e+2, 2.1544828e+2, -616688.0, -716577.75, -55674.234, -0.05140128, -0.2540937, -591839.06, 236744.08, 0.0, 10.001387, 10.000103 
6.0507625e+2, 2.2544718e+2, -703189.0, -990362.94, 12415.26, -0.053649303, -0.23311132, -702653.25, 27940.596, 0.0, 10.001364, 9.997549 
6.050851e+2, 2.354449e+2, -726218.94, -946099.06, 41215.418, 0.0328428, -0.24906662, -718747.25, -86124.484, 0.0, 10.000507, 9.997594 
6.0509235e+2, 2.4544372e+2, -547733.94, -666865.8, 34279.5, 0.03727771, -0.18812694, -538574.44, -3937.521, 0.0, 10.00044, 9.998871 
6.050982e+2, 2.554432e+2, -363682.47, -534035.1, 27949.652, -0.023094747, -0.16342898, -359214.0, 77427.23, 0.0, 10.001053, 9.998817 
6.051039e+2, 2.6544192e+2, -302710.72, -575579.3, 27142.72, -0.08563407, -0.1057076, -300036.97, 38618.125, 0.0, 10.001343, 9.997715 
6.0510945e+2, 2.7543977e+2, -205782.86, -478506.66, -2120.8252, -0.13976943, -0.12777682, -205766.36, 34913.81, 0.0, 10.001325, 9.997722 
6.051171e+2, 2.8543797e+2, -139883.56, -348483.97, 36728.598, -0.0063311155, -0.097237416, -133605.64, 9093.854, 0.00000016006682, 10.000889, 9.998157 
6.0512626e+2, 2.954363e+2, -146739.14, -295426.3, 48109.992, 0.28253168, -0.12515818, -132530.27, -87814.48, 0.0000052467194, 10.00013, 9.998213 
6.051291e+2, 3.0543557e+2, -11033.191, -142700.92, 22343.225, 0.020185404, -0.039759945, -7344.992, -7344.992, 0.000031333126, 10.000489, 9.998756 
6.0513484e+2, 3.1543326e+2, 176537.48, 26554.188, -82383.74, 0.085206784, -0.18066934, 212949.73, 212949.73, 0.00009226463, 10.001348, 9.999513 
6.1501676e+2, 1.2544797e+2, -1522395.0, -1592758.8, 132194.75, -0.025291502, 0.16619875, -1420780.6, 289826.3, 0.000000319301, 10.001138, 10.000248 
6.1502117e+2, 1.3544533e+2, -1475083.0, -1562939.4, -100398.52, 0.15196654, -0.13801023, -1409423.1, 203201.8, 0.000000018009526, 10.001001, 9.999872 
6.150251e+2, 1.4544407e+2, -1468703.8, -1638010.6, 44884.883, -0.06440768, -0.17762002, -1457540.4, 57095.785, 0.0, 10.0009, 9.998721 
6.1503315e+2, 1.5544434e+2, -1324710.0, -1513808.3, 13323.116, 0.01750343, -0.069747545, -1323775.9, 92861.82, 0.0, 10.0012, 9.998764 
6.150396e+2, 1.6544408e+2, -1184017.4, -1302464.0, -33845.12, -0.0119969, -0.010459234, -1175028.6, 143612.47, 0.0, 10.001093, 9.999599 
6.150453e+2, 1.7544301e+2, -1143217.1, -1234033.4, -19278.557, -0.10265805, -0.1116805, -1139294.1, 81355.1, 0.0, 10.000705, 9.999581 
6.150514e+2, 1.854427e+2, -1095271.5, -1120408.0, -82413.97, -0.05829161, -0.10962012, -1024472.94, 98177.0, 0.0, 10.000229, 9.999894 
6.15058e+2, 1.9544277e+2, -1052546.6, -1059632.8, -40958.813, 0.10309522, -0.12666394, -1014977.94, 9669.457, 0.0, 9.999883, 9.999817 
6.150643e+2, 2.0544244e+2, -954071.75, -1041319.5, 24857.852, 0.09554761, -0.09690267, -947486.5, -20837.748, 0.0, 10.000236, 9.999094 
6.150706e+2, 2.1544142e+2, -721596.06, -886914.06, -5444.06, -0.047872696, -0.14125451, -721416.94, 107240.13, 0.0, 10.001181, 9.999034 
6.150777e+2, 2.2544017e+2, -644240.5, -824158.94, -30822.006, -0.073323846, -0.15032004, -639106.9, 91562.15, 0.0, 10.001177, 9.998778 
6.1508554e+2, 2.3543844e+2, -669542.5, -784564.06, 28787.818, -0.0012594443, -0.23584475, -662739.75, -30053.166, 0.0, 10.0003195, 9.998793 
6.1509246e+2, 2.454378e+2, -542398.25, -627777.44, 39582.2, -0.021577436, -0.19482577, -526871.44, 7820.951, 0.0, 10.000317, 9.999199 
6.1509854e+2, 2.554378e+2, -366593.13, -507540.38, 65604.664, -0.13142319, -0.15045407, -340783.3, 95907.79, 0.0, 10.000907, 9.999074 
6.151049e+2, 2.6543647e+2, -345988.6, -641519.1, 11449.911, -0.14528255, -0.09493519, -345545.66, -6838.4795, 0.0, 10.001239, 9.997312 
6.1511177e+2, 2.754336e+2, -249504.55, -537916.6, 14280.589, -0.073006056, -0.14738783, -248799.17, -8057.9727, 0.0, 10.001189, 9.997377 
6.1511856e+2, 2.8543195e+2, -78430.79, -207658.14, -9523.404, 0.019234234, -0.13881399, -77732.734, 65025.89, 0.00000012615395, 10.000828, 9.999152 
6.1512494e+2, 2.954313e+2, -95026.76, -163399.19, 42863.87, 0.091644555, -0.16833055, -74385.89, -29624.027, 0.000004351736, 10.000029, 9.999163 
6.151287e+2, 3.0543086e+2, -74167.85, -270551.16, 46074.86, -0.10643366, -0.05753069, -63895.254, -63895.254, 0.000027327982, 10.000465, 9.997904 
6.1513597e+2, 3.1543e+2, 157400.16, 16544.383, -29817.594, -0.011766796, 0.039846465, 163452.19, 163452.19, 0.00008384043, 10.00122, 9.999513 
6.2501734e+2, 1.2544131e+2, -1751123.5, -1681447.0, 123164.4, 0.017374918, 0.17921562, -1588288.5, 122385.195, 0.00000004128188, 9.99946, 10.000463 
6.2502337e+2, 1.3543889e+2, -1447991.8, -1530045.3, -117551.45, 0.28383377, -0.11843691, -1364513.3, 248176.53, 0.000000000001578113, 10.001077, 10.00008 
6.250259e+2, 1.4543751e+2, -1415857.5, -1601641.6, 55740.438, -0.074361525, -0.1815462, -1400417.1, 114284.15, 0.0, 10.001214, 9.998824 
6.250348e+2, 1.5543805e+2, -1422856.8, -1542211.8, 38503.7, 0.11249014, -0.061570726, -1411513.5, 5185.288, 0.0, 10.00047, 9.998906 
6.250412e+2, 1.6543771e+2, -1329865.6, -1381311.5, 43139.625, 0.097514294, -0.009612288, -1305362.1, 13340.548, 0.0, 10.000168, 9.999479 
6.25046e+2, 1.7543635e+2, -1226084.9, -1278091.8, 12450.167, -0.059742056, -0.13084032, -1223258.0, -2542.9219, 0.0, 10.000201, 9.999497 
6.2505186e+2, 1.8543604e+2, -1034221.75, -1087424.6, -27305.404, -0.040083405, -0.12914011, -1022702.06, 100013.51, 0.0, 10.000593, 9.999966 
6.250587e+2, 1.9543628e+2, -859515.06, -958249.2, -48166.094, 0.1293434, -0.13689604, -839910.56, 184798.9, 0.0, 10.001149, 9.999909 
6.2506545e+2, 2.0543584e+2, -850815.7, -1047862.1, 64249.766, 0.14196533, -0.09840514, -831717.25, 94995.83, 0.0, 10.001169, 9.99861 
6.2507224e+2, 2.1543445e+2, -815718.06, -974397.56, 53983.473, 0.03449243, -0.1321439, -799094.25, 29634.1, 0.0, 10.000714, 9.998657 
6.2507904e+2, 2.254334e+2, -671095.6, -772355.94, 37591.223, -0.023957787, -0.13534619, -658666.2, 72072.04, 0.0, 10.000704, 9.999369 
6.2508583e+2, 2.354323e+2, -524675.9, -657337.56, 22182.492, -0.0310022, -0.21206109, -521064.97, 111681.76, 0.0, 10.001051, 9.999328 
6.2509274e+2, 2.4543183e+2, -462679.94, -593879.1, 36012.875, -0.043963514, -0.17767696, -453444.8, 81305.31, 0.0, 10.000868, 9.999173 
6.2509966e+2, 2.5543162e+2, -455072.06, -548270.6, 2748.2793, -0.0660239, -0.15067129, -454991.1, -18239.436, 0.0, 10.000285, 9.999092 
6.251066e+2, 2.654304e+2, -426437.94, -641795.5, 12838.429, -0.05964915, -0.10311942, -425675.28, -86908.63, 0.0, 10.000501, 9.997671 
6.2511355e+2, 2.7542788e+2, -207757.02, -482678.28, 35948.734, -0.014605715, -0.15710662, -203134.1, 37662.883, 0.0, 10.001307, 9.997706 
6.2511975e+2, 2.8542665e+2, -5649.9795, -172910.22, -4325.7134, 0.03569103, -0.12016966, -5538.182, 137272.47, 0.000000116905284, 10.001338, 9.999145 
6.2512505e+2, 2.9542646e+2, -1093.3447, -128266.58, -61997.47, 0.077359766, -0.09883179, 24128.506, 68938.984, 0.000004287332, 10.000698, 9.999096 
6.251295e+2, 3.0542535e+2, -66046.96, -253121.19, 17955.19, -0.05863796, -0.053414576, -64339.23, -64339.23, 0.000025852014, 10.000484, 9.997998 
6.251375e+2, 3.154248e+2, 40250.313, -27581.564, -66379.266, 0.07729155, 0.056710124, 80876.3, 80876.3, 0.00007870898, 10.000381, 9.999597 
6.3501656e+2, 1.2543096e+2, -1755137.8, -1702565.3, 12600.354, -0.088220984, -0.17247924, -1699701.3, 11069.79, 0.000000010756334, 9.999514, 10.000296 
6.350253e+2, 1.3543269e+2, -1449864.6, -1539828.6, -56178.094, 0.33317897, -0.041907176, -1422878.9, 189874.06, 0.0, 10.001091, 10.000015 
6.3502735e+2, 1.4543225e+2, -1363629.5, -1475413.6, 3999.0405, -0.09472224, -0.05796163, -1363486.6, 151268.75, 0.0, 10.001144, 9.999721 
6.3503605e+2, 1.5543163e+2, -1368774.5, -1429817.6, 31766.73, 0.15206261, -0.13841332, -1355242.8, 61516.28, 0.0, 10.000464, 9.999684 
6.3504225e+2, 1.6543104e+2, -1356589.9, -1429729.8, 27424.371, 0.14784591, -0.13488774, -1347449.3, -28684.914, 0.0, 10.000129, 9.99917 
6.350469e+2, 1.7543021e+2, -1250331.1, -1326532.4, 30999.803, -0.033325292, -0.16968226, -1239313.0, -18539.645, 0.0, 10.000177, 9.9991865 
6.3505256e+2, 1.8542969e+2, -1071342.1, -1137988.8, -22252.031, -0.06360191, -0.15872489, -1064595.5, 58181.15, 0.0, 10.000485, 9.999666 
6.350591e+2, 1.9542903e+2, -899323.5, -1011782.6, -14948.113, 0.02709336, -0.22645934, -897370.5, 127408.35, 0.0, 10.001021, 9.999604 
6.350661e+2, 2.0542835e+2, -865750.3, -1034177.4, 31314.502, 0.06482834, -0.20616905, -860116.7, 66668.3, 0.0, 10.000978, 9.998792 
6.350734e+2, 2.154273e+2, -831826.0, -960502.2, 55202.082, 0.05130098, -0.22714601, -811389.94, 17407.488, 0.0, 10.00051, 9.998849 
6.3507986e+2, 2.2542682e+2, -701769.5, -789981.1, 36024.105, -0.03994425, -0.18063785, -688927.44, 41874.496, 0.0, 10.00051, 9.999338 
6.3508546e+2, 2.3542644e+2, -559672.5, -681333.8, 51898.723, -0.2012301, -0.18587331, -540541.6, 92262.01, 0.0, 10.000843, 9.999262 
6.3509274e+2, 2.4542578e+2, -514654.66, -667577.75, 501.1296, -0.17032462, -0.1434568, -514653.0, 20157.004, 0.0, 10.000724, 9.998734 
6.3510114e+2, 2.5542465e+2, -503556.78, -613408.75, -878.2709, 0.019519774, -0.16620524, -503549.78, -66726.99, 0.0, 10.000133, 9.99872 
6.351083e+2, 2.654238e+2, -365933.53, -486585.97, 26771.48, 0.03325968, -0.121997885, -360260.0, -21426.62, 0.0, 10.000383, 9.998788 
6.3511425e+2, 2.7542272e+2, -158822.17, -344024.63, 82412.695, -0.110443905, -0.14597757, -127460.336, 113386.29, 0.0, 10.001153, 9.99873 
6.351201e+2, 2.854221e+2, -86240.07, -317677.72, -45258.24, -0.09430852, -0.04726246, -77704.5, 65150.95, 0.0000001448745, 10.001246, 9.998195 
6.3512594e+2, 2.9542187e+2, -91817.3, -277218.63, -60713.17, 0.049048223, 0.07137968, -73705.05, -28844.873, 0.000005079309, 10.00055, 9.998137 
6.351309e+2, 3.0541942e+2, -7133.7944, -138737.97, 9133.649, -0.015123247, -0.011689983, -6502.9214, -6502.9214, 0.000027855136, 10.000486, 9.998798 
6.3513815e+2, 3.1541777e+2, 16778.791, -51610.85, -17099.676, 0.025569063, -0.10373473, 20815.957, 20815.957, 0.00008149468, 10.000259, 9.999498 
6.4501727e+2, 1.2542453e+2, -1658688.3, -1687687.9, 45185.914, 0.01250417, -0.21602128, -1625732.8, 85099.92, 0.0000000047013002, 10.000315, 10.000008 
6.450265e+2, 1.3542698e+2, -1529558.9, -1582935.5, 22287.12, 0.3842715, -0.0028895275, -1521476.8, 91333.664, 0.0, 10.0006, 9.999936 
6.4502853e+2, 1.454267e+2, -1403053.6, -1459166.8, 55612.785, -0.06390403, -0.013839262, -1368820.9, 145990.98, 0.0, 10.000728, 10.000027 
6.4503694e+2, 1.5542594e+2, -1286817.4, -1356174.8, 44.04624, 0.18583362, -0.14242877, -1286817.4, 129998.51, 0.0, 10.000876, 9.999989 
6.450432e+2, 1.654255e+2, -1251855.0, -1367631.9, 36118.867, 0.20898657, -0.14194107, -1241511.1, 77307.86, 0.0, 10.000794, 9.999282 
6.450482e+2, 1.7542514e+2, -1192394.6, -1285989.4, 44226.03, 0.074658364, -0.14041002, -1174803.1, 46020.16, 0.0, 10.000522, 9.9993 
6.450537e+2, 1.8542446e+2, -1098144.0, -1188449.5, 49604.367, 0.013971324, -0.13174392, -1076219.5, 46608.94, 0.0, 10.000468, 9.999327 
6.450597e+2, 1.9542319e+2, -997305.0, -1091462.1, 18595.762, 0.012956791, -0.2287361, -993765.44, 31072.309, 0.0, 10.000509, 9.999295 
6.450665e+2, 2.0542243e+2, -894060.44, -1032219.8, 81309.92, 0.033707254, -0.20881549, -856447.56, 70396.98, 0.0, 10.000725, 9.9989195 
6.4507437e+2, 2.1542175e+2, -753263.75, -915253.3, 65340.625, 0.07690877, -0.20505749, -730193.4, 98659.25, 0.0, 10.001017, 9.998913 
6.4508104e+2, 2.2542126e+2, -651754.8, -804085.4, 66574.445, 0.01611136, -0.14549427, -626760.25, 104097.35, 0.0, 10.000986, 9.999021 
6.450868e+2, 2.3542061e+2, -600992.2, -730562.3, 27737.152, -0.12534648, -0.15219915, -595304.2, 37559.13, 0.0, 10.0006695, 9.999005 
6.4509386e+2, 2.4541959e+2, -556469.56, -681788.9, 8113.668, -0.10275402, -0.13454701, -555946.44, -21073.426, 0.0, 10.000431, 9.998779 
6.451017e+2, 2.5541803e+2, -477624.53, -589844.3, 14004.127, 0.069223985, -0.20253827, -475903.34, -39014.566, 0.0, 10.000277, 9.99881 
6.451087e+2, 2.6541758e+2, -364263.78, -413531.4, 97600.516, 0.05860224, -0.15625727, -288236.34, 50657.98, 0.0, 10.000082, 9.999438 
6.4511484e+2, 2.7541763e+2, -299120.66, -341103.66, 80664.76, -0.08568609, -0.12795958, -236760.83, 4134.3276, 0.000000000000000000046744374, 9.9998865, 9.999365 
6.45121e+2, 2.854172e+2, -229404.03, -377142.0, 1830.5758, -0.073049136, -0.046664644, -229381.34, -86479.945, 0.00000034821963, 10.000211, 9.998287 
6.4512664e+2, 2.9541618e+2, -42309.516, -251178.3, 25576.973, 0.06247949, -0.01781422, -39223.1, 5690.6416, 0.0000068469953, 10.000864, 9.998168 
6.45132e+2, 3.0541414e+2, 53805.36, -65195.35, 138104.31, 0.05345133, -0.07358724, 144681.52, 144681.52, 0.00003364889, 10.000746, 9.999155 
6.451393e+2, 3.1541333e+2, -32501.99, -62901.023, 4375.6704, 0.14749411, -0.1241946, -31884.688, -31884.688, 0.000093661416, 9.999877, 9.99959 
6.5501815e+2, 1.254218e+2, -1677952.8, -1722245.4, -96581.5, -0.010744485, 0.026842484, -1601011.0, 109849.24, 0.000000001405694, 10.0002985, 9.999773 
6.5502644e+2, 1.3542183e+2, -1525160.3, -1577227.4, 43292.61, 0.27736697, -0.0057532666, -1500676.5, 112185.09, 0.0, 10.000617, 9.99996 
6.5502894e+2, 1.45421e+2, -1438220.9, -1521373.9, 40722.586, -0.1345045, -0.053430337, -1421600.0, 93269.84, 0.0, 10.000678, 9.99963 
6.5503705e+2, 1.5542096e+2, -1316868.9, -1411829.1, 21097.303, 0.06445434, -0.06768646, -1312392.6, 104476.75, 0.0, 10.00084, 9.999633 
6.550436e+2, 1.6542104e+2, -1217785.9, -1279979.6, 6460.713, 0.12760338, -0.030097695, -1217121.8, 101745.59, 0.0, 10.000721, 9.999914 
6.5504944e+2, 1.7542104e+2, -1159305.9, -1205568.6, 50284.242, 0.1082846, -0.054684438, -1127087.8, 93777.914, 0.0, 10.000473, 9.999871 
6.5505487e+2, 1.854204e+2, -1140898.3, -1253005.9, 34123.387, 0.05142572, -0.052246675, -1131328.6, -8457.637, 0.0, 10.000364, 9.998933 
6.550598e+2, 1.9541878e+2, -1037210.9, -1148204.5, 38608.016, -0.05578509, -0.14540419, -1025102.4, -216.60657, 0.0, 10.000399, 9.99896 
6.5506643e+2, 2.0541802e+2, -915980.4, -1042982.75, 76692.14, -0.08218256, -0.10920983, -879912.06, 46980.37, 0.0, 10.000573, 9.998923 
6.5507454e+2, 2.1541761e+2, -783490.9, -930354.06, 91561.59, -0.036937464, -0.07685306, -739552.44, 89343.375, 0.0, 10.000815, 9.998908 
6.550823e+2, 2.2541665e+2, -722829.75, -900105.5, 40439.508, 0.0091398135, -0.03638069, -714040.6, 16865.182, 0.0, 10.0007715, 9.998459 
6.5508956e+2, 2.3541486e+2, -666371.1, -818696.75, 32596.105, 0.039288603, -0.09893205, -659689.0, -26764.129, 0.0, 10.000471, 9.998491 
6.550957e+2, 2.4541333e+2, -539805.4, -615207.9, -14333.326, 0.012631772, -0.13625544, -537172.6, -2234.1924, 0.0, 10.000295, 9.999299 
6.5510094e+2, 2.5541168e+2, -464529.3, -524622.4, 26209.21, -0.07147984, -0.26760882, -454704.6, -17754.068, 0.0, 10.000117, 9.9993305 
6.551074e+2, 2.6541167e+2, -364256.84, -395329.16, 74261.73, -0.11562831, -0.21031888, -303923.53, 35026.223, 0.0, 9.999998, 9.999606 
6.551149e+2, 2.7541274e+2, -300898.47, -322735.9, 96037.44, -0.11457619, -0.09848472, -215161.06, 25780.236, 0.0000000002377775, 9.999781, 9.999547 
6.551214e+2, 2.8541207e+2, -168212.45, -220989.55, 10568.677, -0.08153788, -0.10545955, -166174.75, -23227.453, 0.0000008000927, 10.000101, 9.999403 
6.551268e+2, 2.9540956e+2, 6706.5254, -106910.734, 65983.66, -0.054200392, -0.34381187, 36967.195, 81936.74, 0.000010270006, 10.000694, 9.999232 
6.551326e+2, 3.0540976e+2, 37914.39, -95319.38, 94990.0, -0.00558252, -0.21781078, 87318.664, 87318.664, 0.00004390313, 10.000722, 9.998968 
6.5514004e+2, 3.154111e+2, -26063.398, -30833.904, 20118.885, 0.14792842, -0.03159113, -8188.865, -8188.865, 0.00011355634, 9.999796, 9.999854 
6.6501933e+2, 1.25417e+2, -1738103.5, -1749095.8, -88135.44, 0.119614065, 0.037720304, -1655293.0, 55613.92, 0.00000000035571668, 9.999881, 9.99978 
6.650266e+2, 1.3541642e+2, -1554506.6, -1596176.1, 57094.367, 0.25960058, -0.061242737, -1514564.3, 98349.54, 0.0, 10.000411, 9.999943 
6.6503024e+2, 1.4541586e+2, -1457066.4, -1530194.1, 100920.6, -0.05510213, -0.079807036, -1386290.3, 128629.8, 0.0, 10.000554, 9.999625 
6.6503745e+2, 1.5541634e+2, -1320281.4, -1414045.6, 72997.664, 0.041689415, -0.04463258, -1280407.6, 136508.52, 0.0, 10.000833, 9.999612 
6.650439e+2, 1.6541655e+2, -1209308.5, -1303066.4, 61788.418, 0.08733644, 0.019924048, -1178628.1, 140285.89, 0.0, 10.000895, 9.999674 
6.6505015e+2, 1.754163e+2, -1151250.8, -1230315.4, 5267.4424, 0.13993478, -0.005906437, -1150901.4, 70014.59, 0.0, 10.000636, 9.999626 
6.6505593e+2, 1.8541564e+2, -1090778.3, -1228029.8, 26338.873, 0.11014478, 0.0070214225, -1085897.4, 37024.5, 0.0, 10.000728, 9.998921 
6.65061e+2, 1.9541422e+2, -931807.25, -1102349.9, 21900.477, -0.008223966, -0.06465199, -929039.75, 95895.12, 0.0, 10.0011425, 9.998916 
6.650675e+2, 2.054132e+2, -809608.8, -981827.0, 97673.53, -0.058459193, -0.05502396, -765506.94, 161435.89, 0.0, 10.001257, 9.9990225 
6.650753e+2, 2.1541226e+2, -745618.25, -902032.7, 85499.27, -0.039775923, -0.0859783, -707952.7, 120996.77, 0.0, 10.001035, 9.9990015 
6.650831e+2, 2.2541122e+2, -694519.2, -894639.56, 83546.695, 0.015257182, -0.052311823, -664225.7, 66734.3, 0.0, 10.001017, 9.998383 
6.6509074e+2, 2.3540984e+2, -573655.9, -784596.44, 79968.555, 0.09358741, -0.06223777, -546767.0, 86209.56, 0.0, 10.001166, 9.998397 
6.650968e+2, 2.4540845e+2, -420831.06, -554866.8, 54619.57, 0.0622005, -0.0834826, -401392.63, 133596.4, 0.0, 10.001066, 9.999353 
6.651014e+2, 2.554067e+2, -381407.34, -483822.75, 22425.127, -0.056363273, -0.22898602, -376712.3, 60288.914, 0.0, 10.000651, 9.999368 
6.651074e+2, 2.654065e+2, -340519.72, -377938.0, 76728.26, -0.10565156, -0.19660088, -280252.53, 58748.844, 0.0, 10.000126, 9.999667 
6.6511476e+2, 2.7540737e+2, -331487.84, -323777.8, 58278.535, -0.08116245, -0.11054217, -269226.94, -28233.564, 0.0000000023427176, 9.999526, 9.999652 
6.6512144e+2, 2.8540686e+2, -219673.16, -206375.73, 17596.877, -0.049923602, -0.12721409, -194213.39, -51216.547, 0.0000014418595, 9.999564, 9.99977 
6.651274e+2, 2.9540464e+2, -64259.047, -94579.32, -19204.027, -0.019483749, -0.37435254, -54952.38, -9937.253, 0.000014823799, 10.00001, 9.999645 
6.6513366e+2, 3.0540487e+2, 6733.9, -148566.83, -7565.665, 0.0505903, -0.2485172, 7101.5996, 7101.5996, 0.000057815294, 10.000669, 9.998627 
6.651405e+2, 3.15406e+2, 176904.06, 74787.625, -164851.11, 0.16616327, -0.048950195, 298422.88, 298422.88, 0.00014076945, 10.001145, 9.99993 
6.7501986e+2, 1.2541018e+2, -1737683.5, -1742812.1, -153871.67, 0.10096039, -0.19231099, -1586354.8, 124616.69, 0.0000000023126079, 9.999872, 9.999824 
6.750266e+2, 1.3541071e+2, -1560282.3, -1604030.6, 85979.984, 0.18128704, -0.17628326, -1493437.6, 119529.5, 0.0, 10.000404, 9.99989 
6.750318e+2, 1.4541131e+2, -1437493.8, -1474982.6, 89156.766, 0.00043780633, -0.09425055, -1365132.3, 149829.73, 0.0, 10.000492, 10.000032 
6.750378e+2, 1.5541223e+2, -1292145.8, -1354002.5, 101176.375, -0.053555395, -0.053474676, -1217276.1, 199678.11, 0.0, 10.00083, 10.000023 
6.750437e+2, 1.6541223e+2, -1292360.1, -1466356.9, 35268.617, -0.0551031, 0.023630224, -1285483.1, 33473.816, 0.0, 10.000849, 9.998579 
6.7505014e+2, 1.7541112e+2, -1231556.9, -1382708.3, 12963.292, 0.031450707, 0.017674625, -1230453.1, -9481.326, 0.0, 10.000576, 9.998608 
6.750564e+2, 1.8541032e+2, -1082715.0, -1189883.8, 22303.4, 0.051595185, 0.05227166, -1078258.6, 44721.082, 0.0, 10.00063, 9.999235 
6.750625e+2, 1.9540958e+2, -934096.9, -1067570.3, 52138.797, 0.000080327605, 0.021309324, -916144.5, 108839.625, 0.0, 10.000978, 9.999235 
6.750692e+2, 2.0540813e+2, -825760.44, -977836.44, 73636.484, -0.04012076, -0.034577817, -795948.94, 131045.48, 0.0, 10.001083, 9.999141 
6.750763e+2, 2.1540576e+2, -762687.5, -892950.0, 92303.99, -0.07615294, -0.22218308, -714849.25, 114163.67, 0.0, 10.00084, 9.999158 
6.7508334e+2, 2.2540508e+2, -696387.1, -853990.9, 72990.48, -0.092514284, -0.18057431, -667776.94, 63242.44, 0.0, 10.000824, 9.998755 
6.7509025e+2, 2.3540549e+2, -581601.4, -748754.25, 102839.08, -0.10110603, -0.049096975, -532660.3, 100358.625, 0.0, 10.000943, 9.99875 
6.7509675e+2, 2.4540493e+2, -480077.03, -633954.5, 26338.21, -0.0810676, 0.019442756, -475693.75, 59331.063, 0.0, 10.000883, 9.998898 
6.7510253e+2, 2.5540316e+2, -438607.75, -565275.9, 24248.309, -0.04469051, -0.08252498, -434124.53, 2915.6301, 0.0, 10.000487, 9.998888 
6.751083e+2, 2.6540214e+2, -360960.8, -390475.5, 36857.176, -0.060893897, -0.10566875, -336016.38, 3031.6064, 0.0, 10.000004, 9.999639 
6.7511415e+2, 2.7540153e+2, -348886.0, -336317.66, 55954.18, -0.12983543, -0.16773444, -286295.88, -45243.973, 0.0000000015372758, 9.999423, 9.9996195 
6.7512083e+2, 2.854015e+2, -244860.16, -246335.8, 19281.945, -0.104896404, -0.12195456, -226301.9, -83251.36, 0.0000017821444, 9.999516, 9.999516 
6.751278e+2, 2.954015e+2, -101093.82, -138658.78, 21277.8, -0.027214361, -0.11336877, -91494.5, -46445.617, 0.000019076204, 9.999873, 9.999407 
6.751346e+2, 3.0539948e+2, -48221.66, -242013.36, 1452.5709, 0.04018467, -0.17600617, -48210.773, -48210.773, 0.000073988194, 10.000585, 9.998024 
6.751398e+2, 3.153978e+2, 152321.83, 60375.066, -97875.07, -0.103010304, -0.19241466, 214483.0, 214483.0, 0.00017626988, 10.000997, 9.999898 
6.850209e+2, 1.2540616e+2, -1576598.1, -1675208.6, -65816.03, 0.1820522, -0.19386105, -1543667.4, 167344.27, 0.0000000036242784, 10.00098, 9.999778 
6.850265e+2, 1.3540654e+2, -1481743.6, -1586102.4, 93763.89, 0.11923437, -0.16859764, -1426618.0, 186389.4, 0.0, 10.001049, 9.999693 
6.85033e+2, 1.4540721e+2, -1442630.6, -1500415.5, 99745.41, 0.087202765, -0.061336584, -1367677.4, 147324.31, 0.0, 10.000551, 9.999832 
6.8503845e+2, 1.5540768e+2, -1439300.5, -1449702.6, 32108.99, -0.016794624, -0.043166548, -1411974.1, 5024.963, 0.0, 9.99991, 9.999823 
6.8504417e+2, 1.654074e+2, -1375235.0, -1491647.0, 44013.27, -0.045821525, 0.008659545, -1360467.6, -41463.66, 0.0, 10.000211, 9.998718 
6.850509e+2, 1.754062e+2, -1125584.0, -1323686.6, 77497.66, 0.026944084, -0.018008202, -1098869.5, 122148.9, 0.0, 10.001263, 9.998693 
6.8505764e+2, 1.8540533e+2, -964040.06, -1164284.9, 125172.46, 0.07259071, 0.020134807, -903873.25, 219153.89, 0.0, 10.001571, 9.998959 
6.850642e+2, 1.954044e+2, -929258.1, -1095607.3, 81784.03, 0.07394696, -0.006304213, -895785.2, 129249.26, 0.0, 10.001129, 9.998967 
6.8507093e+2, 2.0540302e+2, -848339.44, -1016038.8, 100821.44, 0.036487233, -0.029873798, -801056.6, 125989.34, 0.0, 10.001085, 9.998849 
6.850778e+2, 2.154009e+2, -693526.9, -892105.25, 53264.434, -0.03563495, -0.1596433, -680142.0, 148922.39, 0.0, 10.001465, 9.998851 
6.8508434e+2, 2.2540016e+2, -629337.56, -792085.4, 27379.223, -0.0774828, -0.12308825, -624855.0, 106216.73, 0.0, 10.001142, 9.99903 
6.8509084e+2, 2.354003e+2, -675527.0, -765219.56, 18166.639, -0.0927287, -0.04461235, -671987.2, -38915.19, 0.0, 10.000158, 9.999018 
6.850974e+2, 2.4539992e+2, -587618.94, -676035.56, 15946.779, -0.051286228, 0.02315891, -584830.7, -49755.016, 0.0, 10.000116, 9.998965 
6.8510395e+2, 2.5539878e+2, -366490.03, -520821.9, 21329.896, 0.034456674, -0.023681203, -363596.34, 73488.88, 0.0, 10.00097, 9.998944 
6.851097e+2, 2.6539746e+2, -217153.56, -385247.88, 41691.324, 0.020695945, -0.049623616, -207381.25, 131715.03, 0.0, 10.001254, 9.999073 
6.85115e+2, 2.753957e+2, -173248.97, -314698.25, -12872.743, -0.055124532, -0.17133106, -172087.02, 69024.79, 0.00000000039754933, 10.000883, 9.999068 
6.8512136e+2, 2.8539538e+2, -125828.34, -229870.31, -18906.29, -0.047746874, -0.10792513, -122499.25, 20614.61, 0.000001935021, 10.000505, 9.99915 
6.851282e+2, 2.953959e+2, -59561.08, -154126.66, -61267.742, 0.020350622, -0.012020792, -29452.662, 15656.002, 0.000022833043, 10.000293, 9.999102 
6.8513536e+2, 3.053933e+2, -34273.574, -165849.83, 7229.773, 0.09012479, -0.14755373, -33877.508, -33877.508, 0.00009092674, 10.000398, 9.998631 
6.851401e+2, 3.1539148e+2, 47438.344, 30344.166, -45412.797, -0.11557944, -0.23080288, 85101.375, 85101.375, 0.00021663251, 10.00017, 10.000103 
6.950216e+2, 1.2540498e+2, -1574126.3, -1665710.4, -67353.375, 0.0680611, 0.03796815, -1538472.6, 172554.2, 0.00000000017840025, 10.000987, 9.999823 
6.95026e+2, 1.3540408e+2, -1503801.1, -1632569.3, 105900.85, -0.07405523, -0.033145525, -1444248.5, 168784.61, 0.0, 10.001062, 9.999361 
6.9503367e+2, 1.4540349e+2, -1501968.6, -1620901.5, 56175.86, 0.04952514, 0.0036961667, -1479630.5, 35408.992, 0.0, 10.000533, 9.999018 
6.95039e+2, 1.5540259e+2, -1493368.9, -1566039.3, 28646.137, 0.009301525, -0.034391873, -1483434.8, -66383.164, 0.0, 9.999915, 9.999029 
6.950449e+2, 1.6540204e+2, -1294297.8, -1306706.5, 68430.75, -0.036683448, -0.03674823, -1231790.6, 87265.25, 0.0, 10.000147, 10.000012 
6.950521e+2, 1.7540172e+2, -1051770.3, -1153765.1, 135343.94, -0.01663381, -0.103213124, -958134.6, 262919.88, 0.0, 10.00119, 9.999895 
6.95059e+2, 1.8540074e+2, -1038935.94, -1289651.0, 94096.25, 0.027543603, -0.09144221, -1007549.7, 115513.35, 0.0, 10.001446, 9.998151 
6.950656e+2, 1.953988e+2, -1007939.25, -1225887.6, 80920.83, 0.068850905, -0.1400452, -981180.06, 43904.414, 0.0, 10.0009985, 9.998127 
6.950723e+2, 2.0539787e+2, -923049.25, -1140118.6, 97252.01, 0.032092188, -0.03609529, -885852.25, 41244.9, 0.0, 10.000941, 9.998069 
6.9507915e+2, 2.1539755e+2, -777624.4, -1016117.8, 80674.555, -0.06635748, 0.091297366, -752898.25, 76206.734, 0.0, 10.0012455, 9.998104 
6.9508576e+2, 2.2539647e+2, -647038.1, -780901.5, -24822.986, -0.078002244, 0.119159594, -642583.3, 88533.43, 0.0, 10.000933, 9.999205 
6.9509184e+2, 2.3539434e+2, -688833.25, -749972.5, -1017.70166, -0.029285867, -0.04960905, -688816.3, -55681.008, 0.0, 9.999977, 9.999205 
6.950984e+2, 2.4539354e+2, -561506.3, -595231.75, 34433.32, 0.0071501583, -0.062434874, -540028.4, -4888.1763, 0.0, 9.999995, 9.999579 
6.951052e+2, 2.5539353e+2, -343800.2, -447130.84, 70043.87, 0.029587938, -0.061158676, -308428.44, 128708.445, 0.0, 10.000843, 9.999515 
6.9511116e+2, 2.653924e+2, -312118.13, -551884.06, 14896.794, 0.01164877, -0.041767787, -311196.13, 27951.057, 0.0, 10.001131, 9.997984 
6.9511646e+2, 2.753899e+2, -270120.9, -483255.8, -7717.0845, -0.031392954, -0.12097108, -269841.88, -28669.252, 0.0000000054780975, 10.000749, 9.9979725 
6.9512224e+2, 2.8538862e+2, -170808.42, -307787.0, -43270.96, -0.038976174, -0.079339035, -158284.39, -15098.223, 0.000002364329, 10.00044, 9.998644 
6.951282e+2, 2.9538795e+2, -105310.64, -220595.06, -42951.492, -0.05869191, -0.056263924, -91067.836, -45875.18, 0.000027093956, 10.0001745, 9.998698 
6.9513583e+2, 3.0538642e+2, 82183.18, 83675.99, -5568.7285, 0.055795543, -0.15961847, 88548.11, 88548.11, 0.00010798756, 10.000357, 10.000363 
6.951406e+2, 3.1538734e+2, 56871.965, 76331.66, 23970.102, -0.15800995, -0.14030129, 92471.4, 92471.4, 0.00025661878, 10.0000515, 10.000474 
7.050224e+2, 1.2540077e+2, -1703176.0, -1748869.9, -43794.156, 0.10957444, 0.061795358, -1676627.5, 34440.01, 0.0, 10.000163, 9.999669 
7.0502687e+2, 1.3539942e+2, -1552481.1, -1696866.8, 16453.736, -0.072984725, -0.016536431, -1550629.9, 62448.69, 0.0, 10.00088, 9.999014 
7.05035e+2, 1.453982e+2, -1484769.8, -1640771.0, 1715.7306, 0.12684736, -0.012547191, -1484750.9, 30340.477, 0.0, 10.000774, 9.998757 
7.050394e+2, 1.5539707e+2, -1411449.4, -1546970.9, -15436.357, 0.033251606, -0.046698924, -1409713.4, 7392.276, 0.0, 10.0005865, 9.998817 
7.0504534e+2, 1.6539653e+2, -1255097.4, -1291914.5, 59876.902, -0.009897614, -0.038102843, -1210863.1, 108247.19, 0.0, 10.000449, 9.999954 
7.050535e+2, 1.7539619e+2, -1201491.8, -1224967.8, -10325.076, 0.07440096, -0.101370245, -1197596.8, 23512.367, 0.0, 10.000177, 9.999874 
7.050607e+2, 1.8539526e+2, -1169804.6, -1348448.4, -37783.754, 0.108591735, -0.089832045, -1162141.9, -39023.895, 0.0, 10.000523, 9.998198 
7.050669e+2, 1.9539332e+2, -945404.8, -1191097.3, -19108.479, 0.08373269, -0.13780461, -943927.56, 81212.27, 0.0, 10.001395, 9.998186 
7.050735e+2, 2.0539264e+2, -856543.94, -1090203.0, 79740.375, 0.04646115, -0.021316502, -831925.0, 95225.516, 0.0, 10.001292, 9.998259 
7.0508057e+2, 2.1539281e+2, -907129.7, -1057161.3, 106020.414, 0.0036695334, 0.13290063, -852269.8, -23115.88, 0.0, 10.000242, 9.998317 
7.0508707e+2, 2.2539176e+2, -766259.75, -828113.25, 68130.85, 0.008694108, 0.1510516, -722364.9, 8799.739, 0.0, 10.000085, 9.999279 
7.0509285e+2, 2.3538932e+2, -570537.06, -685713.25, 51243.94, 0.037395578, -0.056201052, -551038.6, 82146.48, 0.0, 10.000763, 9.999262 
7.0509917e+2, 2.4538845e+2, -437336.6, -551602.7, 95980.5, 0.04601287, -0.07369525, -382771.66, 152419.4, 0.0, 10.000911, 9.999444 
7.05106e+2, 2.5538856e+2, -392107.7, -483861.72, 45642.258, 0.04902652, -0.04404248, -373270.6, 63917.01, 0.0, 10.000568, 9.9994 
7.051123e+2, 2.6538754e+2, -369170.0, -588260.0, 31992.36, 0.041357573, -0.004370551, -364593.94, -25396.479, 0.0, 10.000778, 9.997909 
7.051182e+2, 2.753852e+2, -170334.19, -439613.06, 46386.098, 0.036930565, -0.06682474, -162567.7, 78654.31, 0.000000016182126, 10.001462, 9.997924 
7.051236e+2, 2.8538352e+2, -38206.57, -258891.17, 71881.54, 0.010097938, -0.05225601, -16858.404, 126380.23, 0.0000030357212, 10.001398, 9.99853 
7.051285e+2, 2.9538217e+2, -63986.35, -213676.84, 67541.83, -0.05198236, -0.08436458, -38016.375, 7234.5005, 0.000031540207, 10.0005, 9.9986 
7.051363e+2, 3.0538142e+2, 44522.527, 52131.74, 99533.195, 0.095864676, -0.097323015, 147933.02, 147933.02, 0.00012311795, 10.000152, 10.000242 
7.051415e+2, 3.153823e+2, 27233.428, 20214.885, -44301.344, -0.062244665, -0.07296837, 68164.27, 68164.27, 0.0002906225, 10.000043, 10.000078 
7.1502256e+2, 1.2539354e+2, -1710944.5, -1762149.4, -9999.781, 0.03355797, -0.0977164, -1709060.9, 2071.9612, 0.0, 10.000159, 9.999571 
7.150286e+2, 1.353924e+2, -1566838.5, -1736331.3, 48856.508, -0.032843657, -0.13280115, -1553764.0, 59380.98, 0.0, 10.000914, 9.998731 
7.1503645e+2, 1.4539132e+2, -1464459.8, -1594045.3, -27425.38, 0.14899096, -0.11799986, -1458894.5, 56263.0, 0.0, 10.000762, 9.999077 
7.1503913e+2, 1.5539132e+2, -1396767.1, -1512091.4, -3983.8777, -0.09155554, -0.07291636, -1396629.8, 20530.2, 0.0, 10.000565, 9.999066 
7.150452e+2, 1.6539088e+2, -1364633.0, -1496323.0, 32746.541, -0.10243165, 0.004916677, -1356939.5, -37772.363, 0.0, 10.000363, 9.998588 
7.150549e+2, 1.753896e+2, -1303936.4, -1420114.1, -3926.9148, 0.1576473, -0.015289939, -1303803.8, -82621.09, 0.0, 10.000114, 9.998562 
7.1506226e+2, 1.8538876e+2, -1119234.6, -1221923.1, -21482.188, 0.17426336, 0.022545466, -1114921.8, 8270.786, 0.0, 10.00043, 9.999114 
7.1506745e+2, 1.95388e+2, -906356.7, -1067919.9, 28851.834, -0.027957227, 0.0005206145, -901358.94, 123841.2, 0.0, 10.00122, 9.999118 
7.1507394e+2, 2.0538746e+2, -803488.7, -930913.25, 25268.309, -0.06417073, 0.023873152, -798660.9, 128543.83, 0.0, 10.00109, 9.999446 
7.150814e+2, 2.1538676e+2, -864132.7, -909358.3, 83004.48, 0.0380098, -0.026514977, -800715.94, 28494.033, 0.0, 10.000007, 9.99944 
7.150878e+2, 2.2538616e+2, -794594.06, -848427.06, 75493.56, 0.04719369, -0.013880291, -741362.06, -10147.781, 0.0, 9.999913, 9.999227 
7.1509314e+2, 2.3538528e+2, -606704.4, -712805.2, 90527.59, -0.035284203, -0.058576293, -554828.2, 78393.03, 0.0, 10.000555, 9.999179 
7.150992e+2, 2.4538463e+2, -525782.7, -692651.8, 66333.71, -0.06690395, -0.003102139, -502626.94, 32600.982, 0.0, 10.000729, 9.998566 
7.1510583e+2, 2.5538388e+2, -475350.44, -614305.1, 51063.234, -0.05959232, 0.02907685, -458603.94, -21366.645, 0.0, 10.000395, 9.998587 
7.151127e+2, 2.6538295e+2, -314584.6, -461649.9, 40810.824, -0.0336936, 0.06890018, -304018.66, 35228.195, 0.0, 10.000713, 9.998815 
7.151196e+2, 2.7538136e+2, -128730.26, -321864.1, 89453.53, 0.001663384, -0.006914089, -93664.71, 147595.95, 0.000000020828322, 10.001321, 9.998806 
7.1512496e+2, 2.8537992e+2, -32070.027, -220036.48, 23121.412, -0.02980365, -0.029041396, -29267.684, 114005.15, 0.0000037854625, 10.001298, 9.998839 
7.1512854e+2, 2.9537836e+2, -69404.11, -194822.05, 59399.33, -0.14678112, -0.10825031, -45737.76, -452.5859, 0.000035842306, 10.000387, 9.998776 
7.151363e+2, 3.0537835e+2, -90530.26, -235102.47, 83894.805, 0.04064536, 0.046997175, -52075.14, -52075.14, 0.000135526, 10.000167, 9.99827 
7.151417e+2, 3.1537616e+2, -84429.055, -188594.2, 31779.863, -0.123386845, -0.045241434, -75498.89, -75498.89, 0.00031586387, 9.999926, 9.9987135 
7.2502327e+2, 1.2538679e+2, -1594064.5, -1696751.8, 41469.836, 0.06815019, -0.17842491, -1579408.9, 131789.17, 0.0, 10.000874, 9.99971 
7.250293e+2, 1.3538648e+2, -1732144.9, -1777419.5, 23184.924, 0.03069516, -0.15346953, -1722378.6, -109175.57, 0.0, 9.999628, 9.999066 
7.2503704e+2, 1.453856e+2, -1630592.5, -1645426.1, 30398.902, 0.20762512, -0.14893019, -1606718.8, -91504.96, 0.0, 9.999487, 9.999359 
7.2504e+2, 1.5538606e+2, -1382721.8, -1471478.1, 17923.31, -0.04357223, -0.08443557, -1379239.0, 37971.938, 0.0, 10.000511, 9.999381 
7.25046e+2, 1.6538575e+2, -1319590.5, -1515486.8, 105302.82, -0.07412947, 0.011023848, -1273724.4, 45493.043, 0.0, 10.000799, 9.998279 
7.25055e+2, 1.7538437e+2, -1278043.5, -1436419.3, 119349.79, 0.14602278, 0.009147574, -1214000.5, 7235.7456, 0.0, 10.000392, 9.998333 
7.2506243e+2, 1.8538383e+2, -1149223.4, -1189190.6, 171568.67, 0.17824611, 0.06304686, -996478.44, 126765.35, 0.0, 10.000018, 9.999534 
7.250683e+2, 1.9538361e+2, -1108223.1, -1118683.4, 150531.02, 0.02595459, 0.054795884, -962831.4, 62413.813, 0.0, 9.999627, 9.9995365 
7.250748e+2, 2.0538306e+2, -968311.25, -980353.94, 111206.62, -0.011271558, 0.04244673, -862963.1, 64285.316, 0.0, 9.999853, 9.999703 
7.250818e+2, 2.1538177e+2, -762984.4, -836925.9, 70144.77, 0.058652055, -0.08803222, -720663.75, 108593.45, 0.0, 10.000605, 9.999653 
7.250883e+2, 2.2538117e+2, -666709.1, -821522.0, 70808.53, 0.06361775, -0.06900026, -639208.0, 92053.57, 0.0, 10.000938, 9.998926 
7.250944e+2, 2.3538084e+2, -576413.44, -732222.9, 33538.33, 0.020381808, -0.026359279, -569500.9, 63764.133, 0.0, 10.000904, 9.998887 
7.251003e+2, 2.4538006e+2, -549542.5, -721704.3, 40578.59, -0.019847762, 0.03879479, -540457.56, -5183.463, 0.0, 10.00066, 9.998388 
7.2510594e+2, 2.5537857e+2, -495258.47, -644285.6, 43827.715, -0.07136774, 0.013831885, -483324.72, -46033.57, 0.0, 10.000344, 9.998404 
7.2511286e+2, 2.653776e+2, -369327.16, -426598.78, 93915.81, -0.05017897, 0.036241576, -299778.5, 39521.05, 0.0, 10.000087, 9.9993515 
7.2512066e+2, 2.7537677e+2, -295296.47, -346431.5, 78369.875, 0.054217387, -0.019503988, -238428.94, 2875.3489, 0.000000011844985, 9.999929, 9.9993105 
7.251263e+2, 2.8537557e+2, -150979.55, -296976.3, 22220.082, 0.026599698, -0.029442761, -147672.66, -4358.9014, 0.000004675658, 10.000591, 9.99864 
7.251298e+2, 2.9537386e+2, 146393.77, -112063.97, -22439.787, -0.12692891, -0.10675177, 148327.55, 193656.8, 0.000040333267, 10.00198, 9.998569 
7.2513735e+2, 3.0537367e+2, 133708.53, -185112.25, 44232.563, 0.05276718, 0.06652033, 139731.48, 139731.48, 0.00014552829, 10.001966, 9.997755 
7.2514284e+2, 3.153711e+2, 3672.8643, -131271.66, 70871.37, -0.014371373, -0.007955829, 34053.844, 34053.844, 0.00033116215, 10.000472, 9.998848 
7.350239e+2, 1.253806e+2, -1563619.5, -1622850.4, -13495.198, -0.026789464, -0.15807286, -1560689.8, 150571.84, 0.0, 10.000844, 10.000218 
7.350287e+2, 1.3538164e+2, -1683758.4, -1676905.9, -14924.369, -0.02908571, -0.074747026, -1665019.5, -51766.742, 0.0, 9.999618, 9.999764 
7.350362e+2, 1.453808e+2, -1625334.5, -1609338.0, 47029.965, 0.1309545, -0.116060734, -1569631.0, -54368.832, 0.0, 9.9993925, 9.99964 
7.350416e+2, 1.5538102e+2, -1371071.6, -1442986.0, 73708.01, 0.021116622, -0.10289994, -1325017.9, 92243.03, 0.0, 10.000493, 9.999584 
7.350471e+2, 1.6538109e+2, -1262490.0, -1389622.8, 70821.68, -0.07175518, -0.025285972, -1230891.3, 88370.695, 0.0, 10.000771, 9.999153 
7.3505336e+2, 1.7538065e+2, -1233382.3, -1321771.0, 122056.56, -0.09036792, -0.02159338, -1147765.4, 73503.0, 0.0, 10.000295, 9.999169 
7.350608e+2, 1.853805e+2, -1179665.1, -1214520.5, 140766.02, -0.019719554, 0.04084925, -1055252.0, 68019.05, 0.0, 9.999864, 9.999429 
7.3506904e+2, 1.9538029e+2, -1140397.5, -1148304.3, 150366.11, 0.10152488, 0.040355656, -993932.75, 31341.191, 0.0, 9.99948, 9.999396 
7.350758e+2, 2.0537953e+2, -1035941.1, -1088150.3, 121782.03, 0.07345571, 0.05173481, -937497.25, -10216.611, 0.0, 9.999706, 9.999036 
7.3508126e+2, 2.1537797e+2, -839464.3, -944019.06, 113800.64, -0.085735455, -0.04346053, -766507.9, 62786.207, 0.0, 10.000381, 9.9990225 
7.3508805e+2, 2.2537695e+2, -740257.75, -918410.5, 53505.695, -0.079765975, -0.0062400666, -725423.25, 5881.285, 0.0, 10.000702, 9.998372 
7.3509586e+2, 2.353761e+2, -646191.8, -822003.25, 50397.68, 0.05981191, 0.037325263, -632769.7, 545.96826, 0.0, 10.000676, 9.998375 
7.351019e+2, 2.453748e+2, -532681.0, -659615.7, 14178.812, 0.039279312, 0.050131377, -531116.5, 4212.487, 0.0, 10.000536, 9.998875 
7.3510605e+2, 2.5537273e+2, -489843.34, -589629.94, 48738.95, -0.1269843, -0.081556596, -469988.3, -32640.23, 0.0, 10.000157, 9.998869 
7.351124e+2, 2.653719e+2, -377888.3, -415585.66, 75310.65, -0.12858407, -0.07943636, -319103.44, 20249.941, 0.0, 9.999964, 9.999483 
7.3512065e+2, 2.7537164e+2, -304361.7, -340742.84, 98314.12, 0.023255924, -0.087391295, -222569.45, 18781.623, 0.000000051096855, 9.999828, 9.999397 
7.3512715e+2, 2.8537068e+2, -195067.75, -394365.13, 58496.016, 0.0109826345, -0.043689344, -179167.11, -35807.05, 0.0000058850314, 10.000602, 9.99797 
7.351318e+2, 2.953688e+2, 84148.45, -218396.83, 49734.77, -0.1717862, -0.072819546, 92114.5, 137496.23, 0.000044056193, 10.001872, 9.997894 
7.3513895e+2, 3.0536744e+2, 181002.66, -76880.836, -20194.002, -0.01791129, -0.022154951, 182574.39, 182574.39, 0.00015023243, 10.001921, 9.998521 
7.3514336e+2, 3.153661e+2, 87535.04, 73806.28, 116986.625, -0.09298338, -0.052652568, 197858.5, 197858.5, 0.0003329124, 10.000338, 10.00032 
7.4502444e+2, 1.2537546e+2, -1773261.4, -1713473.1, 96626.39, 0.02696189, -0.11258058, -1642222.1, 69092.125, 0.0, 9.999387, 10.000277 
7.450284e+2, 1.3537726e+2, -1655265.4, -1612285.0, -16339.203, -0.0059056403, 0.005535258, -1606778.9, 6519.2593, 0.0, 9.999626, 10.000184 
7.450352e+2, 1.4537668e+2, -1573261.1, -1574202.0, 110772.57, 0.08935374, -0.03713483, -1462958.0, 52347.074, 0.0, 9.999704, 9.9997225 
7.450422e+2, 1.553766e+2, -1450913.1, -1464519.1, 81974.99, 0.07029809, -0.06701307, -1375459.4, 41847.09, 0.0, 9.999886, 9.999712 
7.450481e+2, 1.6537665e+2, -1370812.1, -1402562.5, 57836.414, 0.0047435462, -0.015096929, -1326711.8, -7405.429, 0.0, 9.999865, 9.999498 
7.4505365e+2, 1.7537637e+2, -1297320.1, -1315057.5, 35354.438, -0.04764863, -0.029033601, -1269739.0, -48429.793, 0.0, 9.999687, 9.999509 
7.4506086e+2, 1.8537611e+2, -1196460.8, -1257463.5, 78100.875, 0.010340013, 0.019408368, -1143116.5, -19803.924, 0.0, 9.999889, 9.999129 
7.4506927e+2, 1.9537546e+2, -1028255.44, -1130366.0, 44233.83, 0.14413738, 0.0072405464, -1011758.75, 13561.751, 0.0, 10.000394, 9.999085 
7.4507624e+2, 2.0537475e+2, -935250.2, -1041931.56, 69221.66, 0.121088356, 0.037203047, -901201.75, 26125.729, 0.0, 10.0004, 9.999003 
7.4508184e+2, 2.1537365e+2, -899787.75, -979213.4, 70981.72, -0.03732938, -0.0075722453, -858164.75, -28827.98, 0.0, 9.999987, 9.998964 
7.450887e+2, 2.2537261e+2, -840813.4, -961608.75, 88735.56, -0.042867444, 0.025639893, -793871.0, -62523.363, 0.0, 9.999989, 9.998414 
7.4509645e+2, 2.3537126e+2, -696970.7, -845070.75, 93357.17, 0.077174, 0.01329066, -651861.3, -18497.945, 0.0, 10.0003, 9.998404 
7.4510264e+2, 2.4536997e+2, -525435.3, -636527.9, 90568.75, 0.073147565, 0.015720306, -474736.16, 60639.78, 0.0, 10.000498, 9.99906 
7.4510735e+2, 2.5536835e+2, -389830.06, -520160.16, 69572.27, -0.033465967, -0.085958615, -359670.47, 77718.65, 0.0, 10.000748, 9.999064 
7.451136e+2, 2.6536748e+2, -241377.3, -394365.47, 106440.016, -0.05527319, -0.07432635, -186795.73, 152598.81, 0.0, 10.0011, 9.999079 
7.451212e+2, 2.7536684e+2, -86832.195, -273487.5, 55280.86, 0.011990165, -0.08297524, -71688.54, 169708.44, 0.00000017449423, 10.001512, 9.999034 
7.451281e+2, 2.853655e+2, -117628.055, -405624.28, 46495.316, 0.016053446, -0.039561637, -110307.73, 33103.453, 0.0000070145306, 10.001344, 9.997538 
7.4513435e+2, 2.9536316e+2, -110055.68, -351647.7, 16411.057, -0.037104703, -0.071283504, -108945.99, -63507.426, 0.00004543542, 10.0007, 9.997547 
7.451407e+2, 3.0536127e+2, 30929.996, -84739.18, -43264.88, 0.04015754, -0.08563133, 45322.06, 45322.06, 0.00014809403, 10.000608, 9.999096 
7.451442e+2, 3.1536058e+2, 156531.8, 161151.33, 49300.758, -0.046198968, -0.10825902, 208196.39, 208196.39, 0.00032280377, 10.000591, 10.000785 
7.550239e+2, 1.2537113e+2, -1805273.5, -1762932.8, 62144.656, -0.03459793, -0.08042013, -1718451.4, -7092.973, 0.0, 9.999324, 9.999965 
7.5502795e+2, 1.3537328e+2, -1651921.6, -1607210.8, 6443.38, -0.046615276, 0.06784378, -1606300.6, 7039.4243, 0.0, 9.999628, 10.000223 
7.550338e+2, 1.4537318e+2, -1584321.3, -1586615.0, 95576.17, -0.06710303, 0.07786575, -1489885.1, 25457.64, 0.0, 9.999666, 9.999655 
7.5504124e+2, 1.5537296e+2, -1464637.1, -1478085.4, 103059.1, -0.05136573, 0.04362294, -1368083.0, 49262.426, 0.0, 9.9998255, 9.999651 
7.5504833e+2, 1.653725e+2, -1386569.5, -1421309.4, 31219.361, 0.004459636, 0.052172333, -1368213.3, -48863.348, 0.0, 9.999802, 9.999401 
7.5505537e+2, 1.7537162e+2, -1316043.5, -1341110.1, 45781.742, 0.120547876, -0.0098484615, -1281110.5, -59752.246, 0.0, 9.999634, 9.999355 
7.550622e+2, 1.8537065e+2, -1238525.6, -1325430.3, 78113.375, 0.121978804, 0.00008487431, -1192592.3, -69224.086, 0.0, 9.999803, 9.998709 
7.5506866e+2, 1.9536923e+2, -1074686.0, -1191314.3, 79014.44, 0.013007397, -0.04621581, -1034797.2, -9413.454, 0.0, 10.000243, 9.99874 
7.550757e+2, 2.0536877e+2, -927924.56, -982087.94, 37526.734, -0.0014513428, -0.00083285454, -908728.0, 18659.895, 0.0, 10.000205, 9.999514 
7.550831e+2, 2.1536885e+2, -896778.3, -915850.25, 72252.13, 0.06044332, 0.019969758, -833435.56, -4050.4697, 0.0, 9.999754, 9.999509 
7.5508976e+2, 2.2536816e+2, -823937.94, -884426.9, 84783.0, 0.039161082, 0.031338677, -764166.4, -32775.863, 0.0, 9.999802, 9.999038 
7.5509566e+2, 2.3536645e+2, -686661.5, -774632.3, 120785.72, -0.06202241, -0.0761281, -602101.56, 31305.295, 0.0, 10.00009, 9.998991 
7.5510216e+2, 2.4536572e+2, -555463.25, -665677.1, 83362.28, -0.05448459, -0.039439186, -510639.97, 24773.236, 0.0, 10.000352, 9.998929 
7.5510925e+2, 2.553654e+2, -421475.6, -554382.06, 94658.36, 0.046200156, -0.0031865367, -372273.16, 65142.043, 0.0, 10.000611, 9.998895 
7.5511575e+2, 2.6536438e+2, -314836.88, -526699.56, 105503.77, 0.01655796, 0.04796867, -271260.7, 68163.305, 0.0, 10.001015, 9.998211 
7.5512165e+2, 2.7536243e+2, -168811.6, -411163.78, 87899.84, -0.12604584, -0.0030632957, -140287.89, 101154.125, 0.0000002213921, 10.0013685, 9.998159 
7.5512874e+2, 2.8536007e+2, -144531.81, -444483.63, 8370.214, -0.08632471, -0.0058000376, -144298.42, -831.9694, 0.000006961638, 10.001263, 9.997314 
7.551367e+2, 2.9535693e+2, -132095.39, -381193.53, 18916.809, 0.08771158, -0.09355545, -130667.02, -85166.94, 0.00004401986, 10.000617, 9.997393 
7.5514174e+2, 3.0535498e+2, 48493.0, -25704.096, -51585.395, 0.05372739, -0.13168994, 74934.64, 74934.64, 0.0001416952, 10.000532, 9.999523 
7.551437e+2, 3.1535563e+2, 104790.92, 88541.516, 112398.03, -0.23605867, -0.066041015, 209357.52, 209357.52, 0.0003069929, 10.000457, 10.0003395 
7.65024e+2, 1.2536645e+2, -1732977.4, -1756436.3, 32630.797, 0.02553908, -0.015374332, -1710032.0, 1375.1205, 0.00000000032551553, 9.999869, 9.999768 
7.650282e+2, 1.3536781e+2, -1650002.8, -1607813.8, -78797.92, 0.02854338, 0.052972652, -1547335.6, 66060.516, 0.0, 9.9996195, 10.000229 
7.6503336e+2, 1.4536802e+2, -1615728.4, -1593157.1, 76521.0, -0.04743057, 0.086016975, -1527094.0, -11699.063, 0.0, 9.999382, 9.999766 
7.650414e+2, 1.5536794e+2, -1479238.8, -1474302.5, 65375.793, -0.004464299, 0.053634096, -1411348.3, 6046.809, 0.0, 9.999648, 9.999782 
7.6504856e+2, 1.6536756e+2, -1384533.1, -1426260.0, 35239.69, 0.058867395, 0.06300608, -1364443.9, -45045.105, 0.0, 9.999852, 9.999332 
7.650555e+2, 1.7536658e+2, -1270115.5, -1324568.0, 20804.998, 0.16122195, -0.0010978938, -1263076.4, -41667.773, 0.0, 9.999984, 9.999292 
7.6506245e+2, 1.8536565e+2, -1162561.3, -1264910.9, 129190.27, 0.15346943, 0.0029905436, -1074779.3, 48638.527, 0.0, 10.000233, 9.998907 
7.6506925e+2, 1.9536434e+2, -1013116.4, -1145065.1, 138444.28, 0.03871093, -0.051670343, -925730.3, 99700.42, 0.0, 10.000587, 9.998894 
7.6507634e+2, 2.0536388e+2, -900410.06, -982358.56, 92576.875, 0.04343232, -0.006070923, -840145.1, 87289.43, 0.0, 10.00046, 9.999392 
7.650837e+2, 2.1536379e+2, -881891.94, -930333.7, 51927.766, 0.14256385, 0.009646488, -848814.1, -19379.447, 0.0, 9.999926, 9.999341 
7.650904e+2, 2.25363e+2, -762479.25, -864315.2, 86545.77, 0.10651452, 0.024727957, -712984.0, 18457.629, 0.0, 10.000285, 9.9989395 
7.650964e+2, 2.3536138e+2, -494562.44, -688030.2, 33395.434, -0.05067173, -0.064500794, -488960.13, 144497.11, 0.0, 10.001458, 9.998913 
7.651032e+2, 2.4536057e+2, -396316.47, -605857.75, -36029.793, -0.036791217, -0.024506027, -390294.38, 145169.97, 0.0, 10.001515, 9.99878 
7.6511055e+2, 2.5536013e+2, -444827.78, -582883.4, -54203.625, 0.12693217, 0.016031232, -426089.56, 11377.6875, 0.0, 10.000525, 9.998741 
7.6511705e+2, 2.6535887e+2, -421771.16, -590817.3, 45275.6, 0.09337894, 0.056034222, -410408.72, -70930.04, 0.0, 10.000339, 9.998097 
7.651229e+2, 2.7535656e+2, -253511.66, -463306.34, 45976.758, -0.10139671, -0.017074184, -243878.16, -2377.6738, 0.00000016204108, 10.000838, 9.998062 
7.6513004e+2, 2.8535432e+2, -123946.78, -382886.88, 32568.426, -0.068712, -0.024752185, -119913.29, 23609.385, 0.000006290961, 10.001186, 9.997764 
7.6513827e+2, 2.9535186e+2, -3051.5742, -262610.3, 55208.22, 0.15427764, -0.09531951, 8203.208, 53750.977, 0.000041719115, 10.001296, 9.997854 
7.6514256e+2, 3.053501e+2, 156040.66, -52994.36, 9780.738, 0.046962388, -0.10362857, 156497.3, 156497.3, 0.00013461517, 10.001593, 9.998839 
7.6514536e+2, 3.1534925e+2, 192670.56, 43082.574, 32409.451, -0.14062256, -0.11168663, 199390.47, 199390.47, 0.00029005748, 10.001422, 9.999579 
7.750235e+2, 1.253613e+2, -1740099.1, -1749498.1, -72243.34, -0.09650359, 0.070199385, -1672402.6, 39059.11, 0.0000000023621072, 9.999792, 9.999851 
7.750285e+2, 1.3536087e+2, -1657696.6, -1615580.0, -81926.02, 0.055925176, -0.028212387, -1552049.1, 61417.09, 0.0, 9.999594, 10.000189 
7.750335e+2, 1.4536116e+2, -1579893.8, -1517578.1, 62086.113, -0.029042397, -0.014057174, -1479270.3, 36191.832, 0.0, 9.999371, 10.000293 
7.75042e+2, 1.5536168e+2, -1449014.1, -1409919.4, 94873.82, 0.05331488, -0.03320729, -1332600.1, 84853.91, 0.0, 9.999638, 10.00023 
7.750485e+2, 1.6536187e+2, -1394621.1, -1430880.5, 21150.045, 0.027888153, 0.015249329, -1384893.9, -65441.793, 0.0, 9.999787, 9.999332 
7.7505356e+2, 1.7536137e+2, -1274248.6, -1317036.3, 44632.125, -0.06382105, -0.003571693, -1246147.8, -24688.447, 0.0, 9.99992, 9.999373 
7.750611e+2, 1.8536118e+2, -1124620.6, -1162732.3, 127341.984, -0.038457915, 0.029999865, -1014916.56, 108544.06, 0.0, 10.00012, 9.999672 
7.7507055e+2, 1.953609e+2, -985047.06, -1052319.0, 167407.92, 0.07348135, 0.0043433374, -847929.44, 177530.8, 0.0, 10.000433, 9.99961 
7.7507776e+2, 2.0536019e+2, -983381.4, -1106049.0, 55533.4, 0.10571613, 0.027229885, -961975.9, -34509.035, 0.0, 10.000257, 9.998638 
7.750832e+2, 2.1535869e+2, -966613.9, -1053670.0, 48365.688, 0.07246973, -0.019349327, -945073.3, -115590.01, 0.0, 9.99971, 9.998593 
7.750901e+2, 2.253574e+2, -851892.4, -1003012.8, 113368.93, 0.025404012, 0.024047652, -791210.6, -59712.34, 0.0, 10.00008, 9.998092 
7.7509826e+2, 2.3535591e+2, -581956.44, -821287.1, 92057.35, -0.04070238, 0.03328106, -550643.75, 82871.83, 0.0, 10.001247, 9.998104 
7.751052e+2, 2.4535443e+2, -432891.88, -635562.44, -88454.75, -0.01864367, 0.05308121, -399716.63, 135813.16, 0.0, 10.001326, 9.998667 
7.751109e+2, 2.5535274e+2, -475461.97, -606195.0, -70821.32, 0.07450639, -0.020980926, -444451.94, -6908.228, 0.0, 10.0003605, 9.998658 
7.7511734e+2, 2.6535112e+2, -395430.3, -517024.72, 50232.098, 0.0525969, -0.039403137, -377363.3, -37806.63, 0.0, 10.0002575, 9.998646 
7.751243e+2, 2.753491e+2, -229756.58, -387263.56, 83655.234, -0.07826531, -0.13574399, -193617.47, 47956.188, 0.00000014054619, 10.00072, 9.998646 
7.7513134e+2, 2.8534806e+2, -64928.62, -230334.33, 22288.941, -0.091032, -0.11030809, -61977.76, 81604.1, 0.0000059856334, 10.001065, 9.998864 
7.751385e+2, 2.9534766e+2, 52299.754, -129183.84, 81473.1, -0.0012680499, -0.0891242, 83508.516, 129093.08, 0.0000396548, 10.001212, 9.99881 
7.751429e+2, 3.0534637e+2, 30519.678, -294782.13, -4927.766, -0.110711895, -0.004843273, 30594.309, 30594.309, 0.00012692052, 10.001526, 9.9972105 
7.7514845e+2, 3.1534198e+2, 84985.99, -147980.64, 60309.02, -0.0650718, -0.20124525, 99672.56, 99672.56, 0.00027215088, 10.001279, 9.998343 
7.850238e+2, 1.253566e+2, -1880114.3, -1815462.6, 46323.93, 0.023180606, 0.09396527, -1791300.8, -79793.38, 0.0000000040597263, 9.998875, 9.999817 
7.8502864e+2, 1.353552e+2, -1604038.8, -1612340.5, -13038.5, 0.100175306, -0.077329256, -1594506.4, 19014.254, 0.0, 10.0000925, 9.99995 
7.850333e+2, 1.4535537e+2, -1457376.8, -1448801.6, 122119.4, -0.014496285, -0.067705214, -1330894.6, 184622.27, 0.0, 10.000182, 10.000365 
7.85042e+2, 1.5535603e+2, -1464803.9, -1410157.8, 84825.05, 0.11070932, -0.07773899, -1348363.8, 69143.05, 0.0, 9.999514, 10.000279 
7.8504866e+2, 1.6535631e+2, -1423101.3, -1449181.6, 57233.027, 0.08522491, -0.022006676, -1377441.6, -57937.61, 0.0, 9.99961, 9.999288 
7.8505373e+2, 1.7535587e+2, -1228820.4, -1299503.8, 35287.71, -0.05297575, -0.028710876, -1214219.5, 7291.429, 0.0, 10.0002575, 9.999327 
7.850612e+2, 1.8535577e+2, -1109345.5, -1136432.0, 99279.61, -0.034714725, 0.00821749, -1022689.6, 100821.69, 0.0, 10.000149, 9.999835 
7.8507054e+2, 1.9535562e+2, -1148500.1, -1111652.3, 63533.785, 0.105573185, -0.023701891, -1063925.0, -38415.348, 0.0, 9.999246, 9.9997635 
7.85078e+2, 2.0535484e+2, -1062321.4, -1178524.5, 18910.43, 0.1401156, 0.0022508472, -1059321.4, -131804.1, 0.0, 9.999849, 9.998346 
7.8508395e+2, 2.1535318e+2, -707062.75, -958365.9, 13013.412, 0.090829685, -0.030898979, -706390.7, 123145.9, 0.0, 10.001621, 9.99833 
7.8509104e+2, 2.253518e+2, -634557.4, -893820.8, 128744.56, 0.052144926, 0.013981682, -581488.4, 150064.38, 0.0, 10.001551, 9.998127 
7.850993e+2, 2.353503e+2, -786553.94, -919540.06, 139945.17, 0.015280707, 0.019969584, -698108.4, -64538.582, 0.0, 9.999839, 9.99811 
7.851064e+2, 2.4534886e+2, -581053.06, -709642.8, 62289.016, 0.03915249, 0.044644456, -555828.4, -20244.537, 0.0, 10.000325, 9.998632 
7.8511274e+2, 2.5534716e+2, -134555.0, -447773.97, 49876.5, 0.11626994, -0.024207598, -126804.52, 310793.6, 0.0, 10.00272, 9.99861 
7.85119e+2, 2.6534545e+2, -26535.46, -336910.22, 130651.92, 0.082855694, -0.051623177, 21139.3, 360751.4, 0.0, 10.002789, 9.998661 
7.851253e+2, 2.753433e+2, -215128.27, -377732.66, 91063.23, -0.041669335, -0.16598333, -174354.42, 67275.875, 0.0000001311964, 10.0008135, 9.998661 
7.8513247e+2, 2.8534243e+2, -132526.16, -244954.05, 62184.727, -0.050150424, -0.13133092, -104913.21, 38723.344, 0.0000058891046, 10.000518, 9.999037 
7.8514045e+2, 2.9534268e+2, 112214.76, -89585.08, 14797.531, 0.06289447, -0.055964462, 113294.055, 158926.95, 0.000037489564, 10.001567, 9.998924 
7.851451e+2, 3.0534127e+2, 127422.48, -298668.75, -30731.709, -0.07286144, 0.035032947, 129627.586, 129627.586, 0.00011865352, 10.002391, 9.996767 
7.8515136e+2, 3.1533706e+2, 281962.84, -47588.81, 19498.424, 0.055289973, -0.1115398, 283112.5, 283112.5, 0.00025448482, 10.0026, 9.998389 
7.9502374e+2, 1.2535292e+2, -1883528.3, -1848298.6, 7175.186, 0.041832335, 0.087324984, -1846893.4, -135354.55, 0.0000000034592607, 9.998973, 9.99955 
7.950281e+2, 1.3535088e+2, -1628982.0, -1678551.9, 40897.98, -0.008147984, -0.102368176, -1605945.0, 7613.8564, 0.0, 10.000146, 9.999473 
7.950324e+2, 1.4535072e+2, -1493932.5, -1511647.3, 72473.71, -0.16729777, -0.07881742, -1429776.9, 85782.125, 0.0, 10.000136, 9.999949 
7.95041e+2, 1.5535106e+2, -1491924.3, -1461556.8, 80599.26, 0.015651714, -0.08617407, -1394723.5, 22829.604, 0.0, 9.999499, 9.9999275 
7.950486e+2, 1.6535094e+2, -1434304.8, -1470050.0, 63790.816, 0.07623832, -0.046731412, -1385930.1, -66376.15, 0.0, 9.999587, 9.999163 
7.9505527e+2, 1.7535014e+2, -1239173.0, -1322527.5, 73729.52, 0.04055091, -0.07706493, -1196156.5, 25406.535, 0.0, 10.000249, 9.999177 
7.950621e+2, 1.8534948e+2, -1164083.0, -1217138.3, 48473.586, 0.014489016, -0.064580664, -1135353.0, -11783.137, 0.0, 10.000015, 9.99934 
7.95069e+2, 1.9534852e+2, -1194640.8, -1180525.6, 48306.43, -0.018192753, -0.1328282, -1138763.9, -113185.11, 0.0, 9.999136, 9.999337 
7.950768e+2, 2.053479e+2, -1071686.9, -1159097.6, 67864.805, 0.0011517511, -0.08086838, -1034671.8, -107086.14, 0.0, 9.9996805, 9.99856 
7.9508543e+2, 2.1534719e+2, -721979.5, -940895.75, 91785.16, 0.053670697, -0.04270508, -688589.44, 141005.52, 0.0, 10.00141, 9.998551 
7.950928e+2, 2.253462e+2, -610690.5, -788368.4, 50495.926, 0.045677446, -0.0116078425, -597342.4, 134262.73, 0.0, 10.001311, 9.998966 
7.950991e+2, 2.3534466e+2, -753865.1, -812949.8, 98939.125, -0.023770291, -0.09398063, -680151.94, -46532.89, 0.0, 9.999667, 9.998925 
7.9510665e+2, 2.4534388e+2, -603631.8, -716875.9, 135963.1, -0.006359392, -0.04586971, -512971.72, 22654.672, 0.0, 10.000159, 9.998663 
7.951155e+2, 2.5534335e+2, -165294.05, -462525.44, 151204.56, 0.08579639, 0.0016483299, -101896.914, 335734.8, 0.0, 10.002512, 9.998608 
7.9512167e+2, 2.653418e+2, -75558.93, -413860.72, 40863.09, 0.03253199, 0.014551626, -70693.11, 268952.84, 0.0, 10.002671, 9.998191 
7.951255e+2, 2.7533904e+2, -262826.8, -460500.3, 43574.04, -0.14504291, -0.11259795, -253647.81, -11976.617, 0.000000103459534, 10.000736, 9.998132 
7.9513294e+2, 2.8533754e+2, -189278.9, -353143.63, 88261.71, -0.089224294, -0.0787096, -150782.7, -7097.0024, 0.0000054454867, 10.000477, 9.998313 
7.951433e+2, 2.9533693e+2, 45757.297, -198225.98, 80145.25, 0.14462386, -0.012337614, 69728.734, 115420.98, 0.00003447301, 10.001436, 9.998243 
7.9514843e+2, 3.0533493e+2, 157445.95, -211065.9, -26061.715, -0.014643529, 0.011217652, 159279.95, 159279.95, 0.0001104858, 10.00228, 9.99742 
7.951535e+2, 3.1533226e+2, 331467.84, 89702.0, 39788.1, -0.0794656, -0.04182143, 337847.53, 337847.53, 0.000240168, 10.002446, 9.999406 
8.050229e+2, 1.2534694e+2, -2011988.3, -1820068.1, -82967.27, 0.13802962, 0.04695425, -1789174.3, -77576.56, 0.0000000057252847, 9.997713, 10.000367 
8.050282e+2, 1.3534595e+2, -1771789.4, -1693085.3, -6859.1436, 0.062899604, -0.0904125, -1692492.0, -78887.48, 0.0, 9.998918, 9.9999895 
8.05033e+2, 1.4534575e+2, -1603385.3, -1638234.3, 54424.742, -0.0845744, -0.060359143, -1563663.8, -48058.258, 0.0, 9.999714, 9.999284 
8.050411e+2, 1.5534535e+2, -1400281.3, -1496539.9, -5222.158, 0.0352449, -0.070635, -1399998.8, 17611.305, 0.0, 10.000465, 9.9992285 
8.050487e+2, 1.653448e+2, -1305372.0, -1395247.6, 8832.5205, 0.09823178, -0.043706484, -1304512.3, 15103.374, 0.0, 10.00044, 9.999265 
8.050561e+2, 1.753439e+2, -1299713.0, -1345704.8, -1484.5806, 0.12531963, -0.08833439, -1299665.1, -78041.29, 0.0, 9.999821, 9.99923 
8.050629e+2, 1.8534322e+2, -1194085.6, -1246733.9, 18278.51, 0.10696757, -0.07146468, -1188361.9, -64730.707, 0.0, 9.999892, 9.999191 
8.0506915e+2, 1.9534233e+2, -1016080.7, -1115818.1, 5046.4478, 0.03525271, -0.11094966, -1015826.0, 9815.662, 0.0, 10.000462, 9.999151 
8.05077e+2, 2.053419e+2, -907971.44, -1018904.25, 104567.98, 0.02540172, -0.059323702, -845069.8, 82576.766, 0.0, 10.000545, 9.999105 
8.0508626e+2, 2.1534148e+2, -878708.4, -956289.25, 113481.77, 0.067150034, -0.045058675, -797570.44, 32080.168, 0.0, 10.000084, 9.99908 
8.0509394e+2, 2.2534065e+2, -740581.94, -833218.75, 50287.742, 0.08148685, -0.03222128, -718531.9, 13125.708, 0.0, 10.000339, 9.999123 
8.051002e+2, 2.353392e+2, -532044.56, -687899.06, 19145.094, 0.06241307, -0.1237725, -529727.25, 103942.74, 0.0, 10.001122, 9.999075 
8.0510795e+2, 2.4533843e+2, -456360.06, -660322.5, 107351.195, 0.06674052, -0.07396218, -410272.22, 125405.14, 0.0, 10.001208, 9.998556 
8.0511713e+2, 2.5533786e+2, -446675.47, -611120.4, 77683.336, 0.10348729, -0.021090312, -415781.9, 21902.6, 0.0, 10.000618, 9.998511 
8.051237e+2, 2.6533645e+2, -316201.13, -553659.56, -33383.41, 0.057598587, 0.022574008, -311597.13, 28101.113, 0.0, 10.001113, 9.997988 
8.05128e+2, 2.7533397e+2, -5942.6606, -356298.78, -42845.79, -0.049975928, -0.05736296, -779.06036, 240942.31, 0.00000004701224, 10.002571, 9.997969 
8.051353e+2, 2.8533214e+2, 104399.69, -247280.25, 71488.25, 0.003885974, -0.034570664, 118376.11, 262115.31, 0.000004093495, 10.002643, 9.997999 
8.051451e+2, 2.9533055e+2, 44712.277, -227054.89, 54967.246, 0.18840823, -0.03817125, 55408.863, 101163.734, 0.000029631305, 10.001559, 9.997984 
8.051506e+2, 3.0532807e+2, 92797.65, -199049.05, 12822.782, 0.026739232, -0.06984156, 93359.95, 93359.95, 0.00010221737, 10.001642, 9.997827 
8.051569e+2, 3.153269e+2, 311219.22, 92580.2, -30895.318, 0.03685222, -0.013748866, 315501.1, 315501.1, 0.00023173698, 10.002255, 9.99953 
8.1501997e+2, 1.25339e+2, -1875940.0, -1554959.5, -107585.41, -0.013880912, -0.001402095, -1522235.6, 189445.58, 0.000000004999778, 9.997784, 10.002152 
8.1502825e+2, 1.353406e+2, -1658298.6, -1465352.5, 49142.03, 0.1407869, -0.04135207, -1453557.4, 160098.31, 0.0, 9.99896, 10.001526 
8.150346e+2, 1.4534068e+2, -1674588.3, -1794130.6, 60142.938, 0.052482866, -0.0023434386, -1649566.9, -133913.06, 0.0, 9.999742, 9.998207 
8.1504166e+2, 1.55339e+2, -1469539.9, -1640103.6, 37502.047, 0.010364791, -0.03227431, -1461658.5, -43981.957, 0.0, 10.000463, 9.998246 
8.150485e+2, 1.6533798e+2, -1300368.6, -1370136.6, -32419.693, 0.0023609435, -0.01563808, -1287629.9, 32058.012, 0.0, 10.000378, 9.999464 
8.150555e+2, 1.7533723e+2, -1289644.3, -1312397.9, -5153.777, 0.048110664, -0.072871394, -1288531.3, -66838.83, 0.0, 9.999774, 9.9994755 
8.15063e+2, 1.8533708e+2, -1202644.0, -1245363.0, 25009.135, 0.091382004, -0.016589077, -1191114.5, -67420.125, 0.0, 9.999799, 9.999251 
8.150707e+2, 1.9533713e+2, -1026598.0, -1113803.5, 43831.508, 0.10732144, 0.031134635, -1008375.2, 17322.36, 0.0, 10.000349, 9.999219 
8.150783e+2, 2.053369e+2, -886205.5, -927638.3, 70528.28, 0.07441489, 0.06266687, -833414.0, 94285.305, 0.0, 10.000346, 9.999829 
8.150859e+2, 2.1533605e+2, -857960.75, -865380.9, 115160.31, -0.0064563374, -0.038826108, -746450.75, 83252.484, 0.0, 9.999877, 9.999804 
8.150939e+2, 2.2533517e+2, -808821.94, -916860.06, 61124.414, 0.016514096, -0.045349695, -781267.4, -49557.348, 0.0, 10.000097, 9.998663 
8.1510216e+2, 2.3533382e+2, -598704.2, -770104.1, 63465.824, 0.11563415, -0.07907273, -577762.75, 55960.355, 0.0, 10.000885, 9.998621 
8.151099e+2, 2.453325e+2, -502460.72, -710478.75, 68082.24, 0.114700995, -0.050744824, -482159.38, 53577.625, 0.0, 10.001014, 9.998306 
8.151173e+2, 2.5533083e+2, -488802.66, -661386.25, 75176.89, 0.028269343, -0.080758624, -460648.7, -22893.645, 0.0, 10.000458, 9.998244 
8.1512475e+2, 2.6532957e+2, -323493.38, -541666.75, 5968.318, 0.020630412, -0.019305142, -323330.22, 16437.695, 0.0, 10.001004, 9.998118 
8.1513214e+2, 2.753282e+2, -29700.92, -353850.4, 29910.02, 0.07556079, -0.00068113813, -26964.16, 214816.28, 0.000000004527389, 10.002359, 9.998084 
8.1513906e+2, 2.8532624e+2, 94964.03, -244963.36, 14323.806, 0.07385853, 0.0020889505, 95566.54, 239364.06, 0.0000024308686, 10.002541, 9.998067 
8.1514543e+2, 2.9532364e+2, 23938.75, -240252.53, 41350.04, 0.01834175, -0.109572865, 30259.453, 76079.695, 0.00002455122, 10.001431, 9.997956 
8.151514e+2, 3.0532062e+2, 101776.99, -173346.58, 25245.498, -0.09755798, -0.19471845, 104074.35, 104074.35, 0.00009685274, 10.001622, 9.998006 
8.1516004e+2, 3.1532025e+2, 238152.92, -2174.1416, 19475.676, 0.052893024, -0.07844088, 239720.97, 239720.97, 0.00023260372, 10.002032, 9.998981 
8.2501894e+2, 1.2533173e+2, -1770579.6, -1510296.0, 33090.813, 0.08883437, -0.07225308, -1506155.0, 205595.9, 0.0000000017683296, 9.998516, 10.002109 
8.250276e+2, 1.3533406e+2, -1567206.4, -1443925.3, 5812.1763, 0.15815918, -0.026404485, -1443651.8, 170068.2, 0.0, 9.999662, 10.001344 
8.2503504e+2, 1.4533414e+2, -1589635.5, -1721514.4, 32233.125, 0.11438374, 0.008396814, -1582178.9, -66460.28, 0.0, 10.000196, 9.998481 
8.2504255e+2, 1.5533271e+2, -1446971.3, -1600704.9, 64193.86, 0.05835122, -0.02274225, -1423691.4, -5953.118, 0.0, 10.000509, 9.998485 
8.2504904e+2, 1.6533177e+2, -1268725.4, -1346661.1, 33185.797, 0.023661943, -0.016298281, -1256509.4, 63239.195, 0.0, 10.000533, 9.999556 
8.250552e+2, 1.7533092e+2, -1228122.1, -1281621.5, 16085.849, 0.032075595, -0.09106335, -1223658.0, -1904.3291, 0.0, 10.000156, 9.999516 
8.250628e+2, 1.8533094e+2, -1137321.6, -1215575.3, 109417.2, 0.08203805, -0.019096643, -1060245.9, 63508.176, 0.0, 10.000242, 9.999244 
8.250715e+2, 1.953314e+2, -973495.06, -1091499.3, 86832.96, 0.14499344, 0.06822553, -927515.2, 98238.82, 0.0, 10.00072, 9.999193 
8.2507926e+2, 2.0533104e+2, -837223.44, -933134.9, 74834.8, 0.12153034, 0.101973295, -796297.2, 131460.48, 0.0, 10.000813, 9.999557 
8.2508636e+2, 2.1532968e+2, -783476.5, -862987.8, 7346.79, 0.02943013, -0.021755584, -782803.4, 46964.266, 0.0, 10.000531, 9.999506 
8.250944e+2, 2.2532871e+2, -723659.8, -872012.06, 8793.8125, 0.042552218, -0.022710599, -723140.4, 8635.142, 0.0, 10.000641, 9.998728 
8.2510334e+2, 2.3532766e+2, -569312.1, -752188.6, 14660.791, 0.14623404, -0.031459726, -568144.25, 65641.305, 0.0, 10.001047, 9.998683 
8.251114e+2, 2.4532628e+2, -445057.03, -680491.44, 56712.594, 0.1485335, -0.013620325, -432108.03, 103691.516, 0.0, 10.001408, 9.998318 
8.2511866e+2, 2.5532424e+2, -290631.72, -559094.8, 48442.285, 0.06194221, -0.08312871, -282158.1, 155662.11, 0.0, 10.001808, 9.998288 
8.2512665e+2, 2.653229e+2, -159499.03, -449811.44, 50886.637, 0.06834642, -0.037708372, -150837.9, 188995.27, 0.0, 10.002074, 9.998233 
8.251352e+2, 2.753217e+2, -49344.496, -349020.56, 36931.715, 0.16464184, -0.017476762, -44860.18, 196983.7, 0.0, 10.002167, 9.998205 
8.2514197e+2, 2.853198e+2, 25412.273, -299635.0, 2833.3877, 0.1427148, -0.00519053, 25436.969, 169297.48, 0.000001518397, 10.00216, 9.997875 
8.2514715e+2, 2.95317e+2, 99806.85, -224278.95, -24733.984, 0.031568944, -0.11790656, 101683.664, 147569.14, 0.000022026383, 10.002022, 9.9977865 
8.251539e+2, 3.0531397e+2, 217919.42, -119462.28, 39355.223, -0.03876476, -0.19568384, 222449.34, 222449.34, 0.00009707927, 10.002441, 9.997971 
8.251633e+2, 3.1531188e+2, 388822.1, 42647.145, -60677.277, 0.13768622, -0.2543158, 399149.47, 399149.47, 0.00024343749, 10.003167, 9.998735 
8.350186e+2, 1.2532572e+2, -1909990.9, -1785113.0, 25936.727, 0.11947924, -0.11213114, -1779940.4, -68138.9, 0.000000000051048894, 9.998466, 10.000245 
8.350257e+2, 1.3532647e+2, -1677837.8, -1676238.9, 63359.527, -0.032524724, -0.04265136, -1613673.8, 121.96731, 0.0, 9.999686, 9.999732 
8.3503395e+2, 1.4532623e+2, -1493408.4, -1519414.3, 20870.105, -0.067823835, -0.03499829, -1481822.0, 33976.695, 0.0, 10.000183, 9.999873 
8.35043e+2, 1.5532649e+2, -1351285.4, -1397877.3, 91351.81, 0.00926519, -0.04492742, -1280305.9, 137489.64, 0.0, 10.000488, 9.999883 
8.350498e+2, 1.6532613e+2, -1283557.3, -1354099.4, 123.07674, 0.0052707554, -0.04700917, -1283557.1, 36240.867, 0.0, 10.000434, 9.999555 
8.350549e+2, 1.7532511e+2, -1236081.4, -1283222.9, 20820.793, -0.056997236, -0.137113, -1228202.4, -6395.6997, 0.0, 10.000101, 9.999527 
8.350621e+2, 1.8532495e+2, -1161133.0, -1242766.8, 108993.36, -0.05096591, -0.075144, -1085564.5, 38244.82, 0.0, 10.000147, 9.999107 
8.350711e+2, 1.9532512e+2, -1003728.6, -1116554.1, 119775.08, 0.0013427455, -0.004373675, -927746.25, 98064.79, 0.0, 10.000566, 9.999093 
8.3507943e+2, 2.0532434e+2, -957431.44, -1140457.4, 46023.438, 0.023551311, 0.059252594, -946510.1, -18688.508, 0.0, 10.000621, 9.99823 
8.3508706e+2, 2.1532239e+2, -900345.75, -1058503.8, 15573.073, 0.014872763, 0.0052908165, -898826.94, -68983.73, 0.0, 10.000328, 9.99826 
8.3509505e+2, 2.253214e+2, -713373.9, -803455.94, 6941.0737, 0.015053931, 0.031873077, -712842.2, 19010.898, 0.0, 10.000432, 9.999302 
8.351033e+2, 2.3532088e+2, -560377.1, -687460.06, 47641.957, 0.009824797, 0.018098587, -544500.25, 89355.84, 0.0, 10.00084, 9.99923 
8.351118e+2, 2.4531993e+2, -451622.16, -656192.2, 55675.945, 0.022212526, 0.040458474, -437451.0, 98412.62, 0.0, 10.001237, 9.998569 
8.351207e+2, 2.5531816e+2, -299041.3, -540467.56, 82137.555, 0.04922893, -0.027299287, -273746.78, 164132.52, 0.0, 10.001644, 9.998498 
8.3512896e+2, 2.6531652e+2, -170595.64, -441538.4, 38821.383, 0.062180415, -0.025220295, -165142.95, 174750.64, 0.0, 10.001937, 9.998358 
8.3513665e+2, 2.753146e+2, -66973.14, -348124.94, 61171.543, 0.056344554, -0.0882888, -54240.395, 187670.16, 0.0, 10.002002, 9.998293 
8.351436e+2, 2.8531286e+2, -14601.749, -357469.16, -18167.1, 0.056070425, -0.047175895, -13641.838, 130285.61, 0.0000012583888, 10.002056, 9.997528 
8.351498e+2, 2.953108e+2, 48826.523, -290610.97, -5815.3047, 0.051223945, -0.048321478, 48926.125, 94874.88, 0.000022671806, 10.001855, 9.997416 
8.351574e+2, 3.0530807e+2, 196589.5, -146028.42, 62745.7, 0.038588498, -0.071104705, 207718.97, 207718.97, 0.0001036696, 10.002369, 9.99782 
8.351658e+2, 3.1530446e+2, 357387.94, 29365.002, 20885.264, -0.019295119, -0.26751018, 358712.38, 358712.38, 0.00026239955, 10.00296, 9.998739 
8.450183e+2, 1.2531869e+2, -1739151.3, -1802852.3, -17299.512, 0.1900093, -0.09488133, -1734756.4, -22888.758, 0.0, 10.0000515, 9.99936 
8.4502524e+2, 1.3531864e+2, -1689901.6, -1763893.1, 19938.727, -0.047008466, -0.035095323, -1684870.8, -70996.305, 0.0, 9.999948, 9.999007 
8.4503376e+2, 1.4531825e+2, -1541278.1, -1472025.9, 7252.9893, -0.057241004, -0.03834515, -1471274.5, 44605.117, 0.0, 9.999554, 10.000499 
8.450428e+2, 1.5531914e+2, -1482174.1, -1398640.5, -21373.338, 0.012568577, -0.044056952, -1393489.4, 24378.54, 0.0, 9.999316, 10.000447 
8.450499e+2, 1.6531932e+2, -1414948.8, -1402477.0, -97330.91, 0.0308136, -0.026508847, -1311182.4, 8682.323, 0.0, 9.999492, 9.999668 
8.450554e+2, 1.7531866e+2, -1259206.4, -1282783.1, -107071.55, 0.012181063, -0.087302655, -1163276.3, 58594.59, 0.0, 9.999918, 9.999611 
8.450627e+2, 1.8531822e+2, -1131614.9, -1242774.0, 28225.479, -0.0023440623, -0.052790504, -1124858.6, -982.4536, 0.0, 10.00041, 9.998975 
8.450715e+2, 1.9531749e+2, -967044.4, -1120839.4, 4296.7466, -0.026335657, -0.057123486, -966924.4, 58961.24, 0.0, 10.000899, 9.998907 
8.4508e+2, 2.0531671e+2, -873934.4, -1085788.0, -5962.1006, 0.0069433115, 0.008722116, -873766.75, 54128.984, 0.0, 10.00114, 9.998354 
8.450884e+2, 2.1531554e+2, -790200.4, -998233.6, 31866.627, 0.092197314, 0.023968905, -785428.5, 44481.29, 0.0, 10.001057, 9.998324 
8.4509647e+2, 2.253145e+2, -640567.8, -800982.3, 87637.984, 0.09146412, 0.06132414, -601974.3, 129946.305, 0.0, 10.001092, 9.998987 
8.4510416e+2, 2.3531337e+2, -532997.94, -702620.94, 23282.705, 0.01079369, 0.016836356, -529860.2, 104070.695, 0.0, 10.001182, 9.998945 
8.451129e+2, 2.453124e+2, -437531.03, -630701.7, 29340.883, 0.018440006, 0.041410923, -433172.75, 102766.21, 0.0, 10.001249, 9.998742 
8.4512264e+2, 2.553111e+2, -345137.8, -537545.56, 15970.808, 0.11028453, 0.0043290164, -343821.16, 94128.13, 0.0, 10.00123, 9.998713 
8.451309e+2, 2.6530957e+2, -292455.66, -470298.44, -1201.6108, 0.12119378, -0.00998413, -292447.56, 47514.21, 0.0, 10.00096, 9.998631 
8.4513795e+2, 2.7530745e+2, -266252.2, -415091.2, -1663.706, 0.06931638, -0.120411634, -266233.6, -24253.902, 0.0000000050987805, 10.00049, 9.9985695 
8.451453e+2, 2.8530586e+2, -119535.945, -388775.47, 20161.543, 0.07034756, -0.083882496, -118034.555, 25960.139, 0.0000017149706, 10.001241, 9.997702 
8.451529e+2, 2.9530433e+2, 230408.11, -171758.58, 30797.305, 0.123687424, -0.055544548, 232752.84, 278764.38, 0.0000255943, 10.002978, 9.997675 
8.451612e+2, 3.053022e+2, 334615.9, -114283.52, 121501.0, 0.14398155, -0.01851671, 365391.9, 365391.9, 0.000114914044, 10.00345, 9.997529 
8.4516895e+2, 3.1529897e+2, 277451.34, -6894.297, 29925.2, 0.048542637, -0.14161819, 280566.6, 280566.6, 0.00028702893, 10.0023575, 9.9987955 
8.550172e+2, 1.2531054e+2, -1751817.8, -1814901.8, -56392.617, -0.005805532, -0.052755177, -1718745.3, -6794.9673, 0.0, 10.000009, 9.999292 
8.550255e+2, 1.3531066e+2, -1681674.1, -1729355.9, 25729.688, -0.057905555, 0.0029014738, -1670437.9, -56483.3, 0.0, 9.999902, 9.999249 
8.550341e+2, 1.4531042e+2, -1553901.5, -1497459.4, -22476.406, -0.023417855, 0.0069494275, -1489602.5, 26356.723, 0.0, 9.9995365, 10.000344 
8.550416e+2, 1.5531085e+2, -1490093.3, -1414879.4, -6964.6665, -0.08143586, -0.026435088, -1414239.9, 3714.0962, 0.0, 9.999315, 10.000338 
8.550491e+2, 1.653114e+2, -1417810.9, -1398508.8, -100600.24, -0.041505408, 0.03458675, -1307097.8, 12850.351, 0.0, 9.999447, 9.999719 
8.5505646e+2, 1.7531161e+2, -1258685.8, -1270603.9, -74913.52, 0.087609425, 0.049298722, -1189494.6, 32451.215, 0.0, 9.999872, 9.999715 
8.5506415e+2, 1.8531081e+2, -1156307.6, -1273264.9, 30553.354, 0.06715359, 0.049313523, -1148807.1, -24852.889, 0.0, 10.000307, 9.998823 
8.55072e+2, 1.9530874e+2, -985466.7, -1138160.6, 38604.95, -0.09517723, -0.073744774, -976261.3, 49713.926, 0.0, 10.000799, 9.998837 
8.5508066e+2, 2.0530838e+2, -802862.56, -896343.56, -27062.08, -0.06601112, -0.034068044, -795593.5, 132384.14, 0.0, 10.000959, 9.999746 
8.5509e+2, 2.1530907e+2, -728981.2, -814669.2, 46083.063, 0.12067264, 0.02639995, -708902.56, 121065.2, 0.0, 10.000819, 9.999697 
8.5509825e+2, 2.2530802e+2, -759711.7, -997697.0, 73355.85, 0.13485944, 0.057795133, -738917.6, -6939.1123, 0.0, 10.000867, 9.997749 
8.551055e+2, 2.3530513e+2, -644113.44, -889861.25, 46138.973, -0.0036349352, -0.039985415, -635736.44, -1726.1729, 0.0, 10.000988, 9.997756 
8.551142e+2, 2.453037e+2, -459922.34, -630368.56, 12824.763, -0.008700446, -0.006262494, -458962.78, 77062.375, 0.0, 10.001055, 9.9988365 
8.5512406e+2, 2.5530308e+2, -368722.13, -537067.0, 32479.72, 0.10393922, 0.010736911, -362672.97, 75356.94, 0.0, 10.001019, 9.998817 
8.551322e+2, 2.653019e+2, -282607.97, -416429.63, -36445.848, 0.12625077, 0.006140417, -273325.9, 66712.336, 0.0, 10.0008135, 9.999076 
8.551386e+2, 2.753e+2, -253146.05, -360368.2, 5018.6147, 0.052969445, -0.12730391, -252911.66, -10859.17, 0.0000001292932, 10.000374, 9.999004 
8.551465e+2, 2.852988e+2, -77548.586, -285021.78, 72110.26, 0.03399792, -0.11236398, -54947.66, 89114.336, 0.0000031613251, 10.001166, 9.99845 
8.551557e+2, 2.9529753e+2, 259536.6, -83653.72, 113228.46, 0.057610583, -0.12920341, 293527.38, 339601.63, 0.000030116835, 10.002846, 9.998351 
8.5516465e+2, 3.0529618e+2, 286369.94, -168827.98, 68850.64, 0.11953177, -0.034773793, 296555.97, 296555.97, 0.00012742863, 10.003287, 9.99722 
8.551722e+2, 3.1529525e+2, 225808.45, -59061.82, 72838.91, 0.056199018, 0.11346963, 243352.3, 243352.3, 0.00031382052, 10.002146, 9.998534 
8.650173e+2, 1.2530267e+2, -1756978.4, -1757364.8, 5593.4785, 0.035423364, -0.022882037, -1751574.8, -39545.1, 0.00000000000000000000885557, 9.9997, 9.999842 
8.6502504e+2, 1.3530284e+2, -1776772.4, -1716568.6, 48613.98, -0.029768517, -0.023914007, -1689491.5, -75462.11, 0.0, 9.99896, 9.999809 
8.650337e+2, 1.4530276e+2, -1690175.5, -1579492.6, 79356.46, 0.035749447, -0.023248043, -1538086.4, -22054.91, 0.0, 9.998669, 10.000199 
8.650412e+2, 1.5530328e+2, -1530377.0, -1463914.3, 51607.85, -0.037974715, -0.028803509, -1435764.1, -17736.846, 0.0, 9.999141, 10.000103 
8.65049e+2, 1.6530374e+2, -1387551.3, -1399241.8, 3057.4248, 0.0048707416, 0.04050995, -1386800.0, -66776.48, 0.0, 9.99972, 9.999577 
8.650572e+2, 1.7530376e+2, -1186948.0, -1258173.5, -26067.906, 0.15362339, 0.051498335, -1178426.9, 43596.855, 0.0, 10.000443, 9.999526 
8.6506516e+2, 1.853029e+2, -1105856.9, -1238965.3, 93059.58, 0.13199928, 0.05150192, -1058001.5, 66030.71, 0.0, 10.00064, 9.998883 
8.6507297e+2, 1.95301e+2, -1049161.3, -1164617.8, 82438.08, -0.053188473, -0.05923136, -1006248.56, 19802.244, 0.0, 10.000368, 9.998856 
8.650815e+2, 2.0530054e+2, -882679.44, -927251.8, -1672.5103, -0.04434024, -0.03205049, -882616.75, 45436.89, 0.0, 10.0003805, 9.999809 
8.650906e+2, 2.1530093e+2, -767483.56, -833294.94, -65677.44, 0.124079384, -0.0071986434, -726929.6, 103116.984, 0.0, 10.000542, 9.999707 
8.6509925e+2, 2.252999e+2, -750161.0, -965525.4, 12977.599, 0.1572444, 0.013215185, -749381.8, -17325.059, 0.0, 10.0008335, 9.997981 
8.6510736e+2, 2.3529732e+2, -589084.9, -838282.6, 54394.133, 0.07313305, -0.07439797, -577729.3, 56355.035, 0.0, 10.00127, 9.997969 
8.65116e+2, 2.4529602e+2, -455972.88, -634642.25, 74529.18, 0.073278844, -0.036486764, -428966.3, 107132.11, 0.0, 10.0011215, 9.998767 
8.651252e+2, 2.5529537e+2, -450567.22, -586244.1, 47403.35, 0.14509687, -0.010083613, -435646.2, 2458.697, 0.0, 10.000508, 9.998725 
8.651332e+2, 2.6529428e+2, -287158.72, -429501.8, 15141.661, 0.15819588, 0.00083686813, -285565.88, 54547.8, 0.0000000005766255, 10.000841, 9.998964 
8.6514044e+2, 2.752924e+2, -17188.652, -259170.27, -27511.887, 0.123307556, -0.117031366, -14100.134, 228027.7, 0.000000514823, 10.002057, 9.998881 
8.651486e+2, 2.8529102e+2, 57804.36, -236524.23, 20951.049, 0.08700037, -0.10431834, 59288.227, 203427.4, 0.0000054394536, 10.002177, 9.998304 
8.651578e+2, 2.952896e+2, 22213.51, -206810.22, -37814.453, 0.069402575, -0.11844676, 28295.592, 74448.586, 0.000035908153, 10.001268, 9.998268 
8.6516714e+2, 3.0528796e+2, 83759.79, -229309.64, -49487.98, 0.13117856, -0.06588626, 91396.25, 91396.25, 0.00014009468, 10.001714, 9.997565 
8.65176e+2, 3.1528786e+2, 341135.5, 34731.555, -36172.406, 0.20791154, 0.12699261, 345347.9, 345347.9, 0.00033844914, 10.002806, 9.99884 
8.7501746e+2, 1.2529539e+2, -1680037.3, -1593992.0, -57595.504, -0.00030668097, 0.028725293, -1565124.5, 146978.16, 0.0000000055054987, 9.999684, 10.000965 
8.7502354e+2, 1.3529524e+2, -1702738.9, -1549537.8, 35278.938, -0.10696801, -0.124283716, -1541804.1, 72294.21, 0.0, 9.99892, 10.000961 
8.750321e+2, 1.4529546e+2, -1719071.9, -1636393.4, 74786.805, -0.040516075, -0.1291951, -1592280.9, -76185.766, 0.0, 9.99865, 9.99982 
8.750409e+2, 1.5529662e+2, -1556686.9, -1508156.6, 86091.625, -0.01863915, -0.0405426, -1442975.9, -24889.592, 0.0, 9.999108, 9.999807 
8.750491e+2, 1.652966e+2, -1416974.4, -1454743.4, 11296.259, 0.01162447, 0.011755695, -1413853.6, -93765.18, 0.0, 9.99968, 9.999223 
8.750571e+2, 1.7529535e+2, -1216124.8, -1311884.1, 15790.716, 0.06917379, -0.066714846, -1213588.0, 8513.688, 0.0, 10.000407, 9.999177 
8.750654e+2, 1.8529473e+2, -1107898.4, -1220982.3, 66558.15, 0.051971763, -0.0322646, -1077107.8, 47000.227, 0.0, 10.000546, 9.999052 
8.7507373e+2, 1.9529419e+2, -1058679.9, -1148351.4, 91645.89, -0.045676615, -0.027385885, -1001490.06, 24622.734, 0.0, 10.000219, 9.999035 
8.750819e+2, 2.0529318e+2, -999836.1, -1129772.1, -10980.734, -0.070953175, 0.0006719162, -998914.7, -70790.97, 0.0, 10.000197, 9.99851 
8.750898e+2, 2.1529143e+2, -881679.75, -1024337.1, -43821.46, -0.039541427, -0.057534605, -869294.06, -39150.742, 0.0, 10.0003395, 9.998495 
8.75099e+2, 2.2529049e+2, -672488.6, -755782.2, 12036.992, 0.02402263, -0.04587586, -670784.06, 61367.574, 0.0, 10.000619, 9.999526 
8.7510914e+2, 2.3528992e+2, -520323.13, -637238.44, 87960.164, 0.10322362, -0.08955295, -473166.9, 160986.39, 0.0, 10.001017, 9.999473 
8.751179e+2, 2.452892e+2, -497965.13, -682877.3, 33715.887, 0.12485635, -0.05426595, -492009.38, 44150.56, 0.0, 10.000941, 9.998527 
8.751253e+2, 2.5528803e+2, -492080.53, -634834.25, 44960.344, 0.08374888, -0.056601357, -479100.5, -40926.453, 0.0, 10.000344, 9.998468 
8.7513363e+2, 2.6528668e+2, -348014.84, -544573.8, 44069.16, 0.08009535, -0.020014727, -338586.63, 1600.9695, 0.0000000691861, 10.000778, 9.99821 
8.7514275e+2, 2.7528465e+2, -89488.15, -378170.9, 35266.03, 0.11419131, -0.082008064, -85242.42, 156963.02, 0.000001269736, 10.001916, 9.998134 
8.7515116e+2, 2.852827e+2, -20603.172, -382009.7, -29173.295, 0.08932443, -0.03836096, -18263.406, 125960.69, 0.000008255043, 10.002097, 9.99735 
8.751587e+2, 2.9528043e+2, -50760.21, -342758.44, -43982.65, -0.0010351455, -0.04578683, -44279.113, 1969.5217, 0.000042714033, 10.001193, 9.9973755 
8.7516826e+2, 3.0527768e+2, 141582.2, -89396.09, -14347.019, 0.04222249, -0.11314828, 142469.95, 142469.95, 0.00015288098, 10.001633, 9.99856 
8.7517947e+2, 3.1527507e+2, 363190.47, 102937.96, 66907.484, 0.1796163, -0.2643513, 379383.94, 379383.94, 0.00035815634, 10.002693, 9.999372 
8.850175e+2, 1.2528771e+2, -1869343.0, -1695322.0, 16663.863, 0.12126721, 0.010267385, -1693740.6, 18433.938, 0.00000006865043, 9.998436, 10.000876 
8.8502294e+2, 1.3528718e+2, -1664715.8, -1550809.5, -68463.625, -0.0617533, -0.16218871, -1518706.9, 95468.15, 0.0, 9.999266, 10.000792 
8.8503134e+2, 1.452873e+2, -1611534.4, -1578983.1, -9662.924, -0.004374252, -0.16796507, -1576330.8, -60158.2, 0.0, 9.999397, 9.999838 
8.850406e+2, 1.5528841e+2, -1518405.0, -1488577.4, -13478.049, 0.039491937, -0.08490073, -1483389.5, -65226.27, 0.0, 9.999387, 9.999792 
8.850491e+2, 1.6528824e+2, -1431133.8, -1468104.6, -15739.916, 0.057451237, -0.04392323, -1425340.5, -105174.14, 0.0, 9.999617, 9.99916 
8.8505715e+2, 1.7528681e+2, -1277514.3, -1348489.5, -25972.361, 0.055382814, -0.130128, -1269025.4, -46844.0, 0.0, 10.00002, 9.999114 
8.850657e+2, 1.8528639e+2, -1136500.4, -1220013.1, 40805.473, 0.0538608, -0.081195146, -1119872.9, 4313.236, 0.0, 10.000281, 9.9991865 
8.850748e+2, 1.9528629e+2, -1024658.8, -1120950.8, 26755.07, 0.037627425, -0.044368703, -1017724.25, 8462.74, 0.0, 10.000401, 9.999137 
8.85083e+2, 2.0528522e+2, -957843.06, -1136979.5, 7620.6235, 0.0079429, -0.015176845, -957519.44, -29320.172, 0.0, 10.000606, 9.998266 
8.850905e+2, 2.15283e+2, -818248.4, -1020515.8, 22781.506, -0.029250544, -0.09322415, -815714.25, 14510.196, 0.0, 10.000892, 9.9982605 
8.8509953e+2, 2.2528228e+2, -620930.1, -688884.7, 93650.945, 0.021757253, -0.06879972, -555283.3, 176947.6, 0.0, 10.000786, 9.999897 
8.851101e+2, 2.3528248e+2, -596433.9, -639097.25, 43284.813, 0.14375181, -0.07189349, -569509.8, 64714.668, 0.0, 10.00033, 9.999789 
8.851191e+2, 2.4528188e+2, -572082.0, -746711.7, -7796.0327, 0.17514417, -0.027210413, -571734.6, -35504.445, 0.0, 10.000555, 9.998267 
8.851265e+2, 2.5528014e+2, -340995.84, -592639.56, -33431.707, 0.11581517, -0.06636979, -336630.1, 101620.71, 0.00000000006372724, 10.00149, 9.998207 
8.8513505e+2, 2.6527852e+2, -207420.03, -524108.34, 29125.738, 0.09462695, -0.020367445, -204763.63, 135504.55, 0.00000025387644, 10.001956, 9.997779 
8.851447e+2, 2.7527657e+2, -90894.41, -423304.84, 3432.2673, 0.11890848, -0.026325233, -90858.98, 151427.78, 0.0000021793016, 10.002101, 9.997731 
8.8515335e+2, 2.8527448e+2, 364.96915, -376521.78, -11038.624, 0.10620305, 0.020187097, 688.0022, 144995.55, 0.000011106664, 10.002277, 9.99728 
8.851612e+2, 2.952718e+2, 139894.25, -258777.02, -1042.4885, 0.062532306, -0.01637587, 139896.97, 186231.63, 0.000049522223, 10.002544, 9.9972925 
8.8517046e+2, 3.052689e+2, 306477.22, -17907.22, 85870.44, 0.05713358, -0.09104785, 327806.25, 327806.25, 0.00016467013, 10.002788, 9.998507 
8.8518244e+2, 3.152658e+2, 328925.94, 72297.62, 27680.67, 0.23050034, -0.28565887, 331877.7, 331877.7, 0.00037312726, 10.002516, 9.999258 
8.9501643e+2, 1.2527959e+2, -1975427.1, -1894779.6, 6280.8623, 0.08689271, -0.07800847, -1894293.4, -182047.19, 0.00000033567557, 9.998372, 9.999526 
8.9502275e+2, 1.3527903e+2, -1764704.6, -1753441.1, -30474.71, -0.045560908, -0.10984371, -1728082.1, -113825.68, 0.00000000007521531, 9.999256, 9.999399 
8.9503086e+2, 1.4527872e+2, -1592115.6, -1531183.5, -32509.38, -0.03663973, -0.110544, -1517095.9, -835.65155, 0.0, 9.999367, 10.000181 
8.950399e+2, 1.5527889e+2, -1502414.8, -1446440.6, 7595.2285, -0.011246481, -0.15055148, -1445428.3, -27172.613, 0.0, 9.9993515, 10.000098 
8.9504844e+2, 1.6527878e+2, -1428795.9, -1450802.1, -19761.07, -0.01418819, -0.12224948, -1417181.1, -96925.15, 0.0, 9.999565, 9.999299 
8.950567e+2, 1.7527819e+2, -1278471.9, -1328312.5, 7145.1855, -0.025270233, -0.14580125, -1277467.8, -55205.105, 0.0, 9.999933, 9.9992895 
8.950657e+2, 1.8527792e+2, -1149015.0, -1219908.4, 27416.43, -0.0022990785, -0.09392288, -1139649.6, -15383.268, 0.0, 10.00016, 9.999249 
8.9507556e+2, 1.9527751e+2, -1045500.5, -1120725.0, 45812.547, 0.042176627, -0.09194609, -1023838.2, 2432.9976, 0.0, 10.000217, 9.999224 
8.950842e+2, 2.0527686e+2, -926623.7, -1032323.3, 560.9474, 0.043973446, -0.065840416, -926620.7, 1657.5366, 0.0, 10.000428, 9.999073 
8.9509195e+2, 2.1527563e+2, -796853.44, -920306.6, 51869.48, 0.004307509, -0.12894548, -777953.7, 52336.945, 0.0, 10.000659, 9.999056 
8.951006e+2, 2.2527523e+2, -712116.7, -831139.3, 60076.223, 0.01377099, -0.0651966, -687065.9, 45229.16, 0.0, 10.000571, 9.999031 
8.951099e+2, 2.3527524e+2, -683630.3, -770802.56, 43392.785, 0.049595166, -0.006113105, -665712.9, -31416.898, 0.0, 10.000116, 9.998989 
8.95119e+2, 2.4527422e+2, -612757.44, -794469.8, 8342.604, 0.0815949, 0.048032667, -612375.25, -76067.58, 0.0, 10.000395, 9.998021 
8.9512813e+2, 2.5527182e+2, -391620.53, -646074.94, 18111.445, 0.09889537, -0.027391108, -390337.84, 47995.496, 0.0000000002378373, 10.001269, 9.9979515 
8.951371e+2, 2.6527005e+2, -233521.0, -548081.6, 19032.53, 0.0660445, 0.019068172, -232373.63, 107979.1, 0.00000030747992, 10.001827, 9.997675 
8.951459e+2, 2.7526832e+2, -124966.04, -455792.94, 32662.201, -0.013038683, 0.04949506, -121772.17, 120598.74, 0.0000026197797, 10.001945, 9.997582 
8.951549e+2, 2.852662e+2, 39375.633, -283936.7, -18568.623, -0.012649501, 0.06754232, 40438.582, 184829.23, 0.000013171274, 10.002212, 9.997953 
8.951642e+2, 2.9526353e+2, 168293.16, -172495.66, 27437.254, 0.06232902, -0.03995139, 170488.03, 216901.8, 0.000055655084, 10.002412, 9.997953 
8.9517325e+2, 3.0526155e+2, 211599.64, -168883.42, 63018.97, 0.027154826, -0.006052983, 221765.77, 221765.77, 0.00017580122, 10.00262, 9.997539 
8.951838e+2, 3.1525844e+2, 246097.16, -28227.117, 46084.594, 0.041645847, -0.10502639, 253632.1, 253632.1, 0.00038747952, 10.002246, 9.998677 
9.050152e+2, 1.252698e+2, -1892701.1, -1873250.4, -30427.996, 0.12096299, -0.19600181, -1851031.4, -138693.55, 0.0000010657902, 9.998968, 9.999399 
9.050226e+2, 1.3527045e+2, -1775936.9, -1786338.4, -38888.71, 0.03485122, -0.08598361, -1741902.8, -127563.55, 0.000000007369457, 9.999278, 9.999164 
9.05031e+2, 1.4527036e+2, -1607291.1, -1564878.0, 4436.1484, 0.050166756, -0.043778446, -1564419.0, -48076.836, 0.0, 9.999339, 9.999974 
9.0503955e+2, 1.552696e+2, -1509366.1, -1473156.3, -34644.22, 0.030093487, -0.16072737, -1452171.4, -33824.555, 0.0, 9.999372, 9.999919 
9.050481e+2, 1.6526929e+2, -1415509.9, -1419287.5, -23044.695, 0.0077104876, -0.15442742, -1394276.8, -73928.28, 0.0, 9.999546, 9.999536 
9.050567e+2, 1.7526898e+2, -1271430.3, -1298648.4, -31922.777, 0.0009591304, -0.1716286, -1250336.8, -27985.498, 0.0, 9.999865, 9.99953 
9.0506595e+2, 1.8526883e+2, -1164231.3, -1228844.4, 12479.761, 0.02107785, -0.120887555, -1161904.5, -37550.938, 0.0, 10.000047, 9.999247 
9.0507567e+2, 1.9526841e+2, -1057904.6, -1133744.5, -4533.4556, 0.04915229, -0.11938432, -1057634.6, -31274.975, 0.0, 10.000121, 9.999198 
9.050847e+2, 2.0526801e+2, -929131.7, -989156.94, -31520.152, 0.06673798, -0.08463992, -915621.0, 12742.817, 0.0, 10.000233, 9.99945 
9.050931e+2, 2.1526721e+2, -806205.0, -888510.6, -55362.61, 0.07005931, -0.14004184, -778375.44, 51995.098, 0.0, 10.000435, 9.999379 
9.0510166e+2, 2.2526671e+2, -722242.3, -884543.44, -21686.395, 0.06829481, -0.0812718, -719394.56, 12982.01, 0.0, 10.000731, 9.998585 
9.051104e+2, 2.3526612e+2, -555860.1, -760160.56, -41780.664, 0.05048209, -0.031361934, -547646.0, 86739.305, 0.0, 10.001224, 9.99853 
9.0511984e+2, 2.4526486e+2, -443113.16, -696953.75, 1686.92, 0.073244326, 0.01728441, -443101.94, 93297.336, 0.0, 10.001501, 9.998151 
9.051298e+2, 2.552627e+2, -333898.44, -601902.2, 1591.4404, 0.13250831, -0.049553793, -333889.0, 104532.195, 0.0, 10.001606, 9.998084 
9.051391e+2, 2.6526096e+2, -268946.0, -569919.5, 36657.902, 0.10871912, -0.0028993255, -264545.5, 75894.32, 0.0000002007212, 10.00162, 9.9976225 
9.0514785e+2, 2.752591e+2, -180186.03, -482798.25, 18991.97, 0.018413583, 0.01740055, -178998.75, 63461.24, 0.0000025589381, 10.00158, 9.997565 
9.0515697e+2, 2.8525683e+2, -29053.37, -314232.47, -1444.6664, 0.009526065, 0.021812093, -29046.05, 115435.07, 0.000014749117, 10.001725, 9.9979925 
9.051665e+2, 2.952541e+2, 106489.516, -192183.72, -40331.715, 0.08987148, -0.08955917, 111839.91, 158343.95, 0.00006245814, 10.00196, 9.998037 
9.05176e+2, 3.0525246e+2, 160702.81, -229438.39, 31244.965, 0.06230768, -0.0132678645, 163189.27, 163189.27, 0.00018874744, 10.002408, 9.997241 
9.0518653e+2, 3.1524995e+2, 294972.94, -16653.94, -25169.402, 0.09859156, -0.015030552, 296992.72, 296992.72, 0.0004049675, 10.002585, 9.99863 
9.150128e+2, 1.2525865e+2, -1815876.4, -1703444.1, -72961.96, -0.10096733, -0.3239385, -1667553.3, 44892.99, 0.000002613721, 9.998953, 10.000561 
9.150222e+2, 1.3526139e+2, -1710890.0, -1644284.3, -14900.047, 0.023360157, -0.1069276, -1641102.9, -26679.023, 0.00000007607973, 9.999258, 10.000143 
9.1503114e+2, 1.4526196e+2, -1666009.5, -1671770.8, -17296.535, 0.07866802, -0.0068588024, -1651355.4, -134934.23, 0.0, 9.999279, 9.999268 
9.1503906e+2, 1.5526067e+2, -1560074.8, -1570029.4, -15626.79, 0.002869861, -0.109198585, -1548651.8, -130216.31, 0.0, 9.999344, 9.999264 
9.150476e+2, 1.6525999e+2, -1398438.5, -1379855.9, -31503.684, -0.035283796, -0.1225868, -1356301.9, -35860.438, 0.0, 9.999525, 9.999817 
9.1505677e+2, 1.7525949e+2, -1259092.6, -1264061.1, -2739.4927, -0.020667156, -0.18834329, -1257878.8, -35434.56, 0.0, 9.999823, 9.999788 
9.150659e+2, 1.852593e+2, -1181273.6, -1242251.0, -949.17, -0.03305876, -0.1520042, -1181258.9, -56812.547, 0.0, 9.99995, 9.999203 
9.1507477e+2, 1.9525905e+2, -1088315.3, -1155390.4, 17263.256, -0.082505204, -0.1264601, -1084132.9, -57681.883, 0.0, 9.9999485, 9.999132 
9.1508394e+2, 2.0525879e+2, -968430.0, -1027115.1, -39508.324, -0.06505635, -0.06632115, -948559.8, -20105.385, 0.0, 10.000045, 9.999278 
9.1509324e+2, 2.1525806e+2, -853134.25, -930489.9, -32311.12, 0.020321535, -0.10123562, -841413.8, -10952.666, 0.0, 10.000203, 9.999198 
9.1510236e+2, 2.252569e+2, -752747.3, -910258.4, -21810.625, 0.037942994, -0.09175319, -749783.0, -17310.05, 0.0, 10.000554, 9.998501 
9.151113e+2, 2.3525517e+2, -592065.2, -786242.3, -4116.793, -0.005910383, -0.14871281, -591977.94, 42513.82, 0.0, 10.001009, 9.998455 
9.151209e+2, 2.4525402e+2, -436019.22, -641807.5, -10116.461, 0.0032126422, -0.11158071, -435523.1, 100980.07, 0.0, 10.001321, 9.998618 
9.1513103e+2, 2.5525293e+2, -328834.4, -552415.06, 23266.56, 0.06047376, -0.11846854, -326438.9, 112073.83, 0.0, 10.0014305, 9.998513 
9.151407e+2, 2.6525134e+2, -284418.13, -573176.5, 17826.322, 0.07498408, -0.07621076, -283321.78, 57206.77, 0.00000011562638, 10.001502, 9.997655 
9.151501e+2, 2.7524894e+2, -197783.88, -486382.2, 37759.348, 0.051024728, -0.113431975, -192925.36, 49628.4, 0.0000025826089, 10.001439, 9.99761 
9.1515917e+2, 2.8524652e+2, -81083.21, -395773.4, -10438.948, 0.019581534, -0.104401104, -80737.31, 63840.547, 0.000017159802, 10.00162, 9.997478 
9.151678e+2, 2.952438e+2, 48410.918, -286168.2, -7143.307, -0.024138544, -0.16367608, 48563.36, 95166.78, 0.00007135739, 10.001849, 9.997444 
9.151781e+2, 3.0524173e+2, 160060.06, -202712.02, 29494.518, 0.0045473333, -0.1093067, 162442.4, 162442.4, 0.00020564985, 10.002296, 9.997467 
9.1518974e+2, 3.1524023e+2, 307377.47, 73425.27, 23527.445, 0.08232365, -0.043838043, 309720.06, 309720.06, 0.00042848263, 10.002336, 9.99935 
9.25011e+2, 1.2524882e+2, -1938778.1, -1703623.4, -31919.291, -0.10268539, -0.28598213, -1699367.8, 13177.584, 0.0000053718704, 9.997841, 10.001111 
9.25022e+2, 1.3525155e+2, -1723035.9, -1588135.4, -68734.63, 0.11463358, -0.1258483, -1559284.0, 55234.93, 0.00000033393198, 9.998897, 10.000726 
9.2503136e+2, 1.4525217e+2, -1655608.6, -1660506.6, -30891.184, 0.18727885, -0.052382793, -1627069.5, -110554.65, 0.0, 9.999338, 9.999314 
9.250389e+2, 1.5525128e+2, -1516939.0, -1546926.0, -16925.555, 0.0481653, -0.11515173, -1509321.0, -90794.48, 0.0, 9.99964, 9.999273 
9.250474e+2, 1.6525081e+2, -1365189.1, -1362884.4, 18647.387, -0.00011210571, -0.11104684, -1345353.8, -24822.193, 0.0, 9.999748, 9.999819 
9.2505693e+2, 1.752504e+2, -1277461.4, -1275603.0, -11546.321, 0.03491778, -0.1653739, -1264948.6, -42414.63, 0.0, 9.999705, 9.999767 
9.2506623e+2, 1.8525025e+2, -1178675.5, -1220606.0, 23099.77, 0.019959122, -0.12949207, -1168445.5, -43910.57, 0.0, 9.999894, 9.999374 
9.250751e+2, 1.9524997e+2, -1034808.2, -1107806.8, 17975.643, -0.046302434, -0.12842834, -1030621.9, -4083.2095, 0.0, 10.000234, 9.999313 
9.2508423e+2, 2.0524946e+2, -942412.56, -1051383.8, -5041.787, -0.04415107, -0.08493487, -942179.8, -13635.449, 0.0, 10.000381, 9.998959 
9.250936e+2, 2.1524839e+2, -840278.0, -956704.5, -35187.07, 0.027583076, -0.118460074, -830469.8, 85.84018, 0.0, 10.000426, 9.998918 
9.2510295e+2, 2.2524722e+2, -720972.2, -880031.2, 26344.023, 0.04244069, -0.106288545, -716722.5, 15845.429, 0.0, 10.000704, 9.9986315 
9.251124e+2, 2.3524569e+2, -559783.0, -761538.1, 19106.795, 0.0012655836, -0.15407996, -557989.5, 76594.37, 0.0, 10.001173, 9.9985485 
9.2512226e+2, 2.4524447e+2, -446148.63, -667329.1, 14327.833, 0.010128953, -0.11826561, -445224.38, 91371.53, 0.0, 10.00134, 9.998443 
9.2513233e+2, 2.5524315e+2, -356903.28, -581434.7, -35924.87, 0.06350687, -0.12870558, -351295.38, 87312.95, 0.0, 10.001314, 9.998373 
9.2514235e+2, 2.6524156e+2, -265574.63, -553963.7, -17945.105, 0.096209146, -0.08221981, -264462.28, 76161.58, 0.00000007319143, 10.001555, 9.997773 
9.251525e+2, 2.7523938e+2, -106366.36, -430396.03, -23896.205, 0.12884006, -0.114383645, -104613.56, 138032.86, 0.0000027897247, 10.001987, 9.997739 
9.251618e+2, 2.8523695e+2, 6872.785, -383609.8, -17534.318, 0.09583219, -0.09735387, 7658.569, 152329.53, 0.000020180585, 10.002351, 9.997206 
9.2517036e+2, 2.9523408e+2, 151689.86, -268549.72, -38611.81, 0.013098349, -0.14632098, 155208.08, 201907.9, 0.00008285034, 10.00268, 9.997163 
9.251808e+2, 3.052316e+2, 203050.11, -179675.78, 16812.715, 0.04567386, -0.12122233, 203787.25, 203787.25, 0.0002292469, 10.002542, 9.997516 
9.251918e+2, 3.1523097e+2, 198819.64, 15016.398, -61723.03, 0.11583431, 0.022505851, 217623.22, 217623.22, 0.0004645645, 10.001575, 9.999324 
9.350087e+2, 1.252401e+2, -1945814.6, -1688460.8, -42551.33, -0.19380847, -0.106994204, -1681607.8, 31029.148, 0.000009857008, 9.997746, 10.001248 
9.350216e+2, 1.3524121e+2, -1701219.0, -1544027.3, -17008.87, 0.1474108, -0.14009827, -1542207.9, 72414.16, 0.0000009955157, 9.998924, 10.001003 
9.3503135e+2, 1.4524119e+2, -1608274.8, -1567802.1, -39706.59, 0.2061593, -0.17210215, -1543472.5, -26851.438, 0.00000000002439963, 9.999359, 9.999943 
9.350386e+2, 1.5524146e+2, -1476430.8, -1452925.1, 11858.009, 0.017054992, -0.1841741, -1447982.4, -29362.523, 0.0, 9.999599, 9.999938 
9.3504727e+2, 1.6524172e+2, -1391464.8, -1404316.5, -4369.142, -0.03384777, -0.12791799, -1390120.1, -69501.24, 0.0, 9.999685, 9.99957 
9.350569e+2, 1.7524177e+2, -1297894.5, -1313340.9, 4994.9653, 0.0267523, -0.10950253, -1296420.0, -73799.98, 0.0, 9.999679, 9.999525 
9.350666e+2, 1.8524179e+2, -1171249.5, -1184931.9, 21646.893, 0.03329473, -0.059272956, -1155388.5, -30769.33, 0.0, 9.999809, 9.999663 
9.350762e+2, 1.9524123e+2, -1037398.6, -1080046.6, 46186.855, -0.0029699137, -0.11415191, -1007850.9, 18770.98, 0.0, 10.000093, 9.999574 
9.350851e+2, 2.0524013e+2, -989971.4, -1113554.3, -21124.76, -0.025000133, -0.12541844, -986460.2, -57827.492, 0.0, 10.000218, 9.998611 
9.350935e+2, 2.1523827e+2, -894933.3, -1025884.94, -14180.342, -0.043490976, -0.2010318, -893415.4, -62761.727, 0.0, 10.000226, 9.998544 
9.3510294e+2, 2.2523761e+2, -735063.44, -859937.5, 28328.531, -0.056238547, -0.1319106, -728937.44, 3724.302, 0.0, 10.00049, 9.998874 
9.3511313e+2, 2.3523763e+2, -574952.6, -743737.44, 52179.855, -0.06876847, -0.052041728, -560124.0, 74538.016, 0.0, 10.000959, 9.998777 
9.351232e+2, 2.4523623e+2, -529002.0, -797665.9, -5062.768, -0.05454966, -0.0030879355, -528906.6, 7770.522, 0.0, 10.001162, 9.997633 
9.3513316e+2, 2.5523323e+2, -439191.4, -713269.75, -16905.996, -0.011655051, -0.09751727, -438152.53, 556.57, 0.0, 10.001137, 9.99756 
9.351436e+2, 2.6523155e+2, -269897.84, -520777.47, -14807.685, 0.040557798, -0.041739173, -269026.88, 71700.05, 0.00000003612581, 10.001386, 9.998076 
9.3515456e+2, 2.752305e+2, -116521.04, -407389.3, 14990.869, 0.09907664, 0.015464677, -115750.47, 126986.39, 0.0000027030533, 10.001812, 9.997975 
9.351645e+2, 2.852283e+2, -10906.827, -400905.63, -20337.05, 0.08987178, 0.048299402, -9849.19, 134909.72, 0.000022488803, 10.0022545, 9.997136 
9.3517345e+2, 2.9522493e+2, 129011.055, -289876.84, -1718.7676, 0.01189422, -0.04778989, 129018.11, 175811.14, 0.00009525127, 10.00256, 9.997078 
9.3518347e+2, 3.0522206e+2, 177945.0, -201564.5, -28770.162, 0.027184434, -0.05070962, 180113.64, 180113.64, 0.00025879213, 10.00243, 9.997414 
9.3519217e+2, 3.152226e+2, 127641.66, -81073.766, -25302.111, -0.09017945, 0.22096378, 130665.18, 130665.18, 0.0005142612, 10.001372, 9.9987545 
9.450083e+2, 1.252309e+2, -1821731.1, -1633943.4, 72414.86, -0.031821206, -0.047784343, -1609262.5, 103465.75, 0.000016753027, 9.998591, 10.0012245 
9.4502044e+2, 1.3523139e+2, -1718763.4, -1559782.8, 16096.835, 0.15531611, -0.13701366, -1558169.3, 56549.22, 0.000002343361, 9.998822, 10.000944 
9.4503033e+2, 1.4523114e+2, -1643185.6, -1555188.8, 157.71803, 0.19702874, -0.20463017, -1555188.5, -38469.418, 0.0000000053592455, 9.998974, 10.000222 
9.4503856e+2, 1.5523167e+2, -1491104.3, -1441767.9, -18135.291, 0.07243571, -0.21560214, -1435818.9, -17104.035, 0.0, 9.999389, 10.000136 
9.4504756e+2, 1.6523226e+2, -1358331.9, -1395747.0, -2680.2744, 0.022173438, -0.130865, -1358140.9, -37429.676, 0.0, 9.99995, 9.999494 
9.45057e+2, 1.7523266e+2, -1159878.9, -1255764.8, -19289.336, 0.019755369, -0.069215894, -1156144.0, 66566.21, 0.0, 10.000673, 9.999434 
9.4506663e+2, 1.8523254e+2, -1054482.9, -1137865.4, 1485.4758, 0.027460895, -0.027509816, -1054456.4, 70254.97, 0.0, 10.000672, 9.999555 
9.450767e+2, 1.9523135e+2, -1047191.4, -1094257.9, -35531.563, 0.05402306, -0.130968, -1028106.5, -1387.0167, 0.0, 10.00009, 9.999464 
9.4508594e+2, 2.0523022e+2, -990654.25, -1101047.1, -49606.22, 0.045769736, -0.14689705, -971638.6, -42908.426, 0.0, 10.000147, 9.998731 
9.4509435e+2, 2.152289e+2, -825128.06, -977285.5, -41411.637, 0.0071420823, -0.18498385, -814587.56, 16158.148, 0.0, 10.000641, 9.998671 
9.4510406e+2, 2.252283e+2, -674592.06, -859168.6, 41908.633, -0.018058605, -0.0993758, -665522.25, 67231.05, 0.0, 10.00105, 9.998601 
9.451147e+2, 2.3522803e+2, -520455.3, -745721.9, -7800.6577, -0.027981445, -0.019472167, -520185.53, 114572.15, 0.0, 10.001472, 9.99851 
9.451249e+2, 2.4522647e+2, -465803.4, -760260.44, -37604.816, -0.012078965, 0.023328155, -461076.8, 75697.64, 0.0, 10.001561, 9.997694 
9.451348e+2, 2.5522345e+2, -405873.66, -684051.25, -17904.8, 0.044066533, -0.0818865, -404725.97, 34079.49, 0.0, 10.001312, 9.997663 
9.4514537e+2, 2.652217e+2, -242656.73, -515614.13, 60732.008, 0.07584633, -0.039351314, -229754.02, 111069.914, 0.000000027783642, 10.001592, 9.998022 
9.4515646e+2, 2.7522048e+2, -54679.95, -385399.4, 25382.768, 0.09579256, 0.011679296, -52743.16, 190092.7, 0.000002329391, 10.002254, 9.997926 
9.4516665e+2, 2.852185e+2, -1830.821, -383298.2, -681.44165, 0.09369238, 0.06530623, -1829.6038, 143026.58, 0.000023981273, 10.002274, 9.997251 
9.451761e+2, 2.9521564e+2, 1531.8982, -339128.47, -10964.439, 0.08003752, 0.011995495, 1884.433, 48770.24, 0.00010679835, 10.0016365, 9.997191 
9.451858e+2, 3.0521265e+2, 68542.58, -213202.9, 19593.209, 0.0796646, -0.024669874, 69898.6, 69898.6, 0.00028981623, 10.001526, 9.997769 
9.451934e+2, 3.152125e+2, 160919.48, -67600.38, 6447.4917, -0.091751315, 0.14431255, 161101.25, 161101.25, 0.00057081727, 10.001631, 9.998726 
9.5500857e+2, 1.2522131e+2, -1856959.5, -1685562.3, 27587.531, 0.059117272, -0.10318094, -1681231.4, 31586.744, 0.00002677623, 9.998535, 10.000874 
9.550179e+2, 1.3522218e+2, -1754493.3, -1612896.5, 37813.258, -0.0075649903, -0.121884994, -1603431.3, 11376.147, 0.0000047533053, 9.998756, 10.000592 
9.550278e+2, 1.4522196e+2, -1662732.5, -1580761.3, -8520.29, -0.0011803303, -0.16317572, -1579885.0, -63075.703, 0.000000046136613, 9.9989, 10.000087 
9.5503813e+2, 1.5522209e+2, -1496217.8, -1458086.9, 14579.406, 0.051119193, -0.20301138, -1453151.3, -34341.344, 0.0, 9.9994135, 10.000011 
9.550477e+2, 1.6522266e+2, -1357852.3, -1394697.0, 7065.312, 0.0081389835, -0.11386862, -1356543.9, -35737.445, 0.0, 9.999945, 9.999506 
9.550566e+2, 1.7522322e+2, -1165918.1, -1257590.4, 23394.207, -0.12353104, -0.04071773, -1160293.1, 62510.07, 0.0, 10.000622, 9.999447 
9.550661e+2, 1.8522254e+2, -1100981.4, -1217578.5, -36930.16, -0.132799, -0.027306316, -1090268.6, 34542.086, 0.0, 10.0005865, 9.999055 
9.550763e+2, 1.952203e+2, -1095561.3, -1170719.5, -39100.324, -0.030395675, -0.1877651, -1078909.1, -52077.234, 0.0, 9.999976, 9.998998 
9.550862e+2, 2.0521972e+2, -973108.2, -1024516.94, -48662.543, 0.029714758, -0.15859102, -943778.4, -14941.127, 0.0, 9.999976, 9.99934 
9.5509565e+2, 2.1522026e+2, -819673.5, -911781.1, -6941.393, 0.04057187, -0.06974745, -819153.3, 11678.411, 0.0, 10.000407, 9.999235 
9.551058e+2, 2.252194e+2, -762303.9, -988757.4, 40964.84, 0.022923226, 0.001457203, -755121.3, -22279.188, 0.0, 10.000822, 9.997821 
9.551165e+2, 2.352169e+2, -609278.94, -875669.0, 28830.11, -0.024534693, -0.060427785, -606194.5, 28676.172, 0.0, 10.001235, 9.997734 
9.551268e+2, 2.4521518e+2, -432792.03, -636578.56, -60192.97, -0.0073645, -0.04585857, -416340.75, 120546.93, 0.0, 10.001336, 9.998642 
9.551368e+2, 2.5521377e+2, -369890.84, -568469.9, -6115.423, 0.069903664, -0.085232764, -369702.72, 69195.08, 0.0, 10.001142, 9.998531 
9.551471e+2, 2.6521197e+2, -294173.44, -587559.5, 67998.22, 0.061281938, -0.061991293, -279179.72, 61735.2, 0.000000030362223, 10.001447, 9.997594 
9.551576e+2, 2.7520934e+2, -108442.04, -455062.97, 71097.92, -0.0443667, -0.116293944, -94425.44, 148517.58, 0.000002140531, 10.002079, 9.997526 
9.5516783e+2, 2.8520754e+2, -4058.181, -354122.6, -41038.7, -0.044286907, -0.042911556, 688.4994, 145651.64, 0.000025889522, 10.00213, 9.997519 
9.551779e+2, 2.9520625e+2, -46.88724, -310910.0, -7351.3374, 0.048893508, 0.033085108, 126.86117, 47104.81, 0.00011778403, 10.001502, 9.997447 
9.5518744e+2, 3.0520356e+2, 102976.125, -113140.25, 19352.598, 0.060063455, -0.025604561, 104695.414, 104695.414, 0.00031950467, 10.001408, 9.998513 
9.551945e+2, 3.152008e+2, 162319.58, -19769.564, 84718.43, -0.22911705, -0.18741637, 195638.69, 195638.69, 0.00062882464, 10.001442, 9.999143 
9.650085e+2, 1.2521134e+2, -1889706.0, -1752056.1, 36862.64, 0.21676604, -0.15597628, -1742805.9, -29892.248, 0.000040530904, 9.998479, 10.000475 
9.650163e+2, 1.3521211e+2, -1717834.9, -1632349.3, -1369.896, -0.049229715, -0.14914478, -1632327.3, -17421.123, 0.000008656152, 9.999141, 10.000298 
9.650263e+2, 1.4521214e+2, -1600711.5, -1532577.3, 9315.686, -0.051151812, -0.15705459, -1531326.5, -14419.483, 0.00000019058375, 9.9992895, 10.000202 
9.650376e+2, 1.5521283e+2, -1494706.5, -1443404.9, 4357.9717, 0.06471416, -0.14931084, -1443037.3, -24134.69, 0.0, 9.999408, 10.000091 
9.650477e+2, 1.652134e+2, -1416384.1, -1395653.9, 48703.914, 0.04697758, -0.07474204, -1356224.4, -35325.855, 0.0, 9.99945, 9.999731 
9.6505684e+2, 1.7521349e+2, -1325649.9, -1313794.0, 40808.02, -0.08938658, -0.07101892, -1278485.6, -55587.047, 0.0, 9.999447, 9.999624 
9.650663e+2, 1.8521276e+2, -1241019.4, -1284153.5, 21546.504, -0.11018005, -0.07058514, -1232100.5, -107194.62, 0.0, 9.999591, 9.999097 
9.650761e+2, 1.9521095e+2, -1113651.5, -1179741.1, 28939.975, -0.0326313, -0.19283772, -1102770.4, -75846.84, 0.0, 9.999827, 9.999025 
9.650863e+2, 2.0521054e+2, -917675.9, -1002098.7, 77609.86, 0.030204039, -0.14365613, -871540.9, 57386.586, 0.0, 10.000408, 9.99927 
9.650969e+2, 2.1521105e+2, -686171.8, -855199.8, 27931.947, 0.086168915, -0.05047837, -681675.7, 149246.63, 0.0, 10.001376, 9.999146 
9.651073e+2, 2.2520994e+2, -689569.94, -967954.9, 78347.25, 0.07543885, 0.005304106, -669035.06, 63899.92, 0.0, 10.0013685, 9.997707 
9.651176e+2, 2.3520698e+2, -728057.44, -938947.25, 81467.49, 0.010971981, -0.094640024, -700252.3, -65284.645, 0.0, 10.000438, 9.997681 
9.6512806e+2, 2.4520513e+2, -531276.94, -684680.9, 43723.83, 0.028237337, -0.09056627, -519689.78, 17295.53, 0.0, 10.000638, 9.998668 
9.651388e+2, 2.5520408e+2, -266868.88, -521724.88, -3807.4692, 0.13266644, -0.092788585, -266812.0, 172179.95, 0.0, 10.001845, 9.998534 
9.651493e+2, 2.6520234e+2, -227823.89, -576535.2, 63094.22, 0.120129354, -0.055091307, -216759.02, 124250.69, 0.000000012060779, 10.002003, 9.997396 
9.651595e+2, 2.751994e+2, -258574.11, -549778.44, 39930.61, -0.006612766, -0.11700071, -253197.98, -10155.504, 0.0000023356135, 10.001152, 9.997317 
9.6516955e+2, 2.851977e+2, -132912.84, -342475.4, -12841.412, -0.014763462, -0.055344626, -132128.89, 12932.428, 0.000028869204, 10.000932, 9.998158 
9.651796e+2, 2.9519698e+2, 6580.695, -235423.13, -1448.2079, 0.09828243, 0.013454138, 6589.361, 53657.86, 0.00012892728, 10.001257, 9.998064 
9.6518934e+2, 3.0519512e+2, 147461.56, -82590.336, 64462.47, 0.118210755, 0.0013165023, 164293.03, 164293.03, 0.00034703137, 10.001635, 9.998624 
9.651973e+2, 3.15192e+2, 175631.5, -2851.0015, 32789.758, -0.06802315, -0.2107637, 181464.8, 181464.8, 0.0006841425, 10.001456, 9.999256 
9.750069e+2, 1.2520064e+2, -1908853.0, -1773812.8, -517.39105, 0.1320484, -0.22367238, -1773810.8, -60792.645, 0.000058506626, 9.998412, 10.000353 
9.7501504e+2, 1.352013e+2, -1714270.1, -1627510.3, 34210.27, -0.12805566, -0.22386841, -1615643.9, -630.6562, 0.00001444443, 9.99916, 10.000318 
9.7502524e+2, 1.4520195e+2, -1590561.5, -1510197.6, -3664.1829, -0.13805568, -0.18188581, -1510030.9, 6978.267, 0.0000005546723, 9.999283, 10.000362 
9.750365e+2, 1.5520401e+2, -1487693.3, -1419445.4, 29491.79, -0.026364008, -0.054271925, -1408467.1, 10524.684, 0.0, 9.999371, 10.000271 
9.750471e+2, 1.6520457e+2, -1396426.5, -1345732.3, 27480.242, 0.0032544748, -0.010117518, -1333694.4, -12707.398, 0.0, 9.999404, 10.000101 
9.750573e+2, 1.7520344e+2, -1302103.3, -1261463.6, 55626.68, -0.019741599, -0.16228582, -1222561.6, 434.74332, 0.0, 9.999424, 10.0 
9.7506684e+2, 1.852032e+2, -1215479.6, -1207204.6, 15870.849, -0.04934456, -0.16247633, -1194940.9, -69943.7, 0.0, 9.99949, 9.999672 
9.750756e+2, 1.9520335e+2, -1095102.6, -1106490.4, 56043.67, -0.095837176, -0.14700459, -1044464.4, -17470.576, 0.0, 9.999682, 9.999593 
9.750859e+2, 2.0520283e+2, -1002267.8, -1138541.4, 95254.51, -0.08003705, -0.09206183, -953289.06, -24289.703, 0.0, 10.000228, 9.998428 
9.7509766e+2, 2.152013e+2, -772964.75, -989142.9, 79666.89, -0.005246657, -0.11833984, -746777.75, 84239.29, 0.0, 10.00117, 9.998331 
9.751081e+2, 2.2519986e+2, -681793.56, -898526.3, 23289.426, -0.0068120295, -0.08578473, -679319.2, 53713.316, 0.0, 10.001142, 9.99829 
9.7511744e+2, 2.3519813e+2, -726912.1, -876585.94, 62422.066, -0.07613512, -0.12235971, -704296.1, -69246.5, 0.0, 10.000189, 9.998224 
9.751283e+2, 2.4519642e+2, -615665.5, -822083.0, 71454.96, -0.043050446, -0.08773827, -593343.94, -56277.082, 0.0, 10.000468, 9.997811 
9.7514045e+2, 2.5519437e+2, -348920.78, -651809.9, 60414.414, 0.079975575, -0.104626134, -337315.2, 101772.75, 0.0, 10.00167, 9.997727 
9.7515154e+2, 2.6519254e+2, -249799.8, -590406.7, 15545.554, 0.10820571, -0.033681117, -249091.75, 92017.56, 0.0000000034767167, 10.001862, 9.997369 
9.751615e+2, 2.751905e+2, -275165.13, -558873.5, 34133.75, 0.04420938, -0.006796996, -271116.2, -27981.084, 0.0000028342504, 10.001038, 9.997312 
9.751713e+2, 2.8518903e+2, -80385.016, -212777.81, -13899.795, 0.022794845, 0.028354462, -78941.43, 66208.94, 0.000032313746, 10.000848, 9.999089 
9.7518075e+2, 2.9518777e+2, 50717.418, -115563.06, 39643.793, 0.027046766, -0.047409452, 59685.43, 106843.984, 0.0001399921, 10.001139, 9.998944 
9.7519094e+2, 3.0518702e+2, 92082.055, -165674.92, 45304.055, 0.07710116, 0.036489587, 99812.945, 99812.945, 0.00037284024, 10.001504, 9.998113 
9.752006e+2, 3.1518528e+2, 128925.9, -51711.473, 92489.28, 0.038040254, 0.0076937214, 167881.08, 167881.08, 0.00073526404, 10.00126, 9.999007 
9.850056e+2, 1.2519129e+2, -1913796.9, -1737779.5, 51696.8, 0.18928514, -0.16427079, -1723719.1, -10605.801, 0.00008108169, 9.998209, 10.000695 
9.8501414e+2, 1.3519213e+2, -1828372.8, -1653640.0, 53082.438, -0.066510476, -0.17889677, -1638778.1, -23672.14, 0.000022462764, 9.998232, 10.000591 
9.8502463e+2, 1.4519273e+2, -1717101.4, -1579668.1, 60768.566, -0.067568585, -0.15044019, -1556652.5, -39551.004, 0.0000013019285, 9.9984255, 10.000308 
9.850357e+2, 1.551945e+2, -1524437.1, -1446435.4, 35191.773, -0.018954149, -0.049291372, -1432905.0, -13818.404, 0.0, 9.999135, 10.000206 
9.850467e+2, 1.6519493e+2, -1380384.4, -1342895.3, 43387.266, 0.023797207, -0.011143453, -1314376.6, 6706.4033, 0.0, 9.9995365, 10.000053 
9.8505765e+2, 1.751939e+2, -1260259.8, -1242319.9, 5420.2515, 0.06834652, -0.14754736, -1240809.4, -17717.396, 0.0, 9.999732, 9.999973 
9.8506737e+2, 1.8519387e+2, -1108595.1, -1139489.9, -26443.434, 0.0338998, -0.13341367, -1093417.8, 31672.775, 0.0, 10.00017, 9.9998 
9.8507583e+2, 1.9519432e+2, -939710.44, -1021195.8, -59566.297, -0.08775007, -0.09954234, -908285.9, 118797.4, 0.0, 10.000718, 9.999677 
9.850864e+2, 2.0519356e+2, -926833.2, -1144015.1, 16126.189, -0.08222852, -0.05332225, -925642.3, 3449.1152, 0.0, 10.000901, 9.998076 
9.850989e+2, 2.1519133e+2, -872169.44, -1073633.5, 3888.3318, 0.03776258, -0.11576109, -872094.44, -40977.035, 0.0, 10.000642, 9.998009 
9.851096e+2, 2.2518982e+2, -685002.0, -859342.7, -22055.701, 0.051909074, -0.09359204, -682255.06, 50878.004, 0.0, 10.000927, 9.998669 
9.8511875e+2, 2.3518865e+2, -482972.63, -719317.2, -27074.666, -0.025621621, -0.11011425, -479910.75, 155231.64, 0.0, 10.001681, 9.998592 
9.851296e+2, 2.4518727e+2, -434022.47, -721222.56, 58179.445, -0.012621413, -0.06546341, -422684.38, 114471.625, 0.0, 10.001686, 9.997901 
9.851416e+2, 2.551852e+2, -436541.25, -684727.7, 73808.945, 0.07328667, -0.09342149, -416249.97, 22928.553, 0.0, 10.001037, 9.997798 
9.851528e+2, 2.6518354e+2, -324889.25, -582159.75, 100123.24, 0.09535131, -0.029846678, -290516.25, 50682.06, 0.00000001775074, 10.001161, 9.997767 
9.851633e+2, 2.7518195e+2, -106838.445, -435768.47, 108475.06, 0.07540505, 0.0061257845, -74286.76, 168931.73, 0.000003544514, 10.002011, 9.997695 
9.851732e+2, 2.851805e+2, 117187.83, -153722.69, 63329.516, 0.064064175, 0.04274877, 131261.02, 276494.28, 0.00003520851, 10.002339, 9.998803 
9.851826e+2, 2.951788e+2, 166495.47, -95000.61, -7011.2007, 0.06650172, -0.045816388, 166683.31, 213930.0, 0.00014922032, 10.002062, 9.998662 
9.851928e+2, 3.0517796e+2, 152253.06, -167040.95, 10787.34, 0.09884336, 0.057740364, 152617.11, 152617.11, 0.00039592202, 10.002073, 9.997814 
9.852033e+2, 3.151764e+2, 232228.69, -2757.887, 7106.03, 0.15920015, 0.076634735, 232443.38, 232443.38, 0.0007798097, 10.001993, 9.998982 
9.9500334e+2, 1.2518324e+2, -1873423.1, -1644825.8, -6442.217, 0.05692329, 0.019366343, -1644644.3, 68555.2, 0.000108580556, 9.998186, 10.001331 
9.950134e+2, 1.3518457e+2, -1793530.9, -1569442.3, 65709.86, -0.0019183853, -0.01092972, -1551595.4, 63588.535, 0.000033028722, 9.998195, 10.001176 
9.950243e+2, 1.4518447e+2, -1737792.0, -1621612.1, 61478.33, 0.0061045387, -0.06663829, -1595120.6, -77936.39, 0.0000026281716, 9.998414, 10.000032 
9.950348e+2, 1.5518431e+2, -1536571.6, -1475894.0, 77180.05, -0.0652249, -0.13076732, -1423303.9, -4117.112, 0.00000000019976186, 9.99915, 10.000001 
9.9504584e+2, 1.6518462e+2, -1419682.1, -1412225.6, 32320.535, -0.051947035, -0.07397227, -1383419.0, -62233.42, 0.0, 9.999493, 9.999595 
9.950576e+2, 1.7518494e+2, -1296606.1, -1309936.0, 30845.166, 0.04187847, -0.030250598, -1271714.0, -48529.168, 0.0, 9.9997, 9.999525 
9.9506754e+2, 1.8518472e+2, -1153741.4, -1208768.4, -24944.607, 0.0020142456, 0.010967051, -1144116.9, -18930.479, 0.0, 10.000069, 9.999373 
9.950762e+2, 1.9518368e+2, -986573.06, -1085941.8, -22247.035, -0.15693781, -0.06217665, -981819.7, 45373.492, 0.0, 10.00058, 9.999297 
9.950871e+2, 2.0518258e+2, -949364.75, -1137002.1, -12755.71, -0.12540177, -0.04053623, -948501.56, -19296.977, 0.0, 10.000681, 9.998225 
9.9510014e+2, 2.1518102e+2, -894875.3, -1063585.1, 11321.706, 0.07676195, -0.05014279, -894118.94, -62894.92, 0.0, 10.000405, 9.998184 
9.951115e+2, 2.2517987e+2, -704188.7, -840054.3, -10178.142, 0.121817775, -0.015286906, -703430.44, 29805.357, 0.0, 10.000677, 9.99892 
9.951212e+2, 2.351787e+2, -501100.78, -697660.56, 19240.852, 0.015070186, -0.057064436, -499235.06, 136009.13, 0.0, 10.001433, 9.9988575 
9.951314e+2, 2.4517773e+2, -399593.13, -606032.7, 17073.91, -0.032424927, -0.028981129, -398190.53, 139061.63, 0.0, 10.001493, 9.998784 
9.95142e+2, 2.551765e+2, -401674.38, -566936.8, 68589.69, -0.029620169, -0.061423745, -376916.28, 62347.867, 0.0, 10.000835, 9.998704 
9.9515283e+2, 2.651753e+2, -303809.47, -494382.75, 114926.96, -0.046852008, -0.031473, -249805.28, 91471.13, 0.000000028595345, 10.000981, 9.998452 
9.9516404e+2, 2.751737e+2, -87344.2, -356384.97, 159637.86, -0.07956486, -0.06645464, -13106.402, 230186.86, 0.000003781716, 10.001854, 9.998314 
9.9517477e+2, 2.8517202e+2, 4074.9736, -361432.72, 35418.496, -0.048042312, -0.010110153, 7475.467, 152786.97, 0.000036350866, 10.002219, 9.997434 
9.951849e+2, 2.9517016e+2, 59668.926, -290669.9, 7923.6846, 0.041649953, 0.015277988, 59848.047, 107180.66, 0.00015456251, 10.001946, 9.997373 
9.9519455e+2, 3.0516818e+2, 119137.38, -209251.3, -537.08374, 0.03830612, 0.07822994, 119138.266, 119138.266, 0.00041193186, 10.00197, 9.99757 
9.95204e+2, 3.1516495e+2, 209711.53, 6204.9023, 56520.223, -0.0496524, -0.04201007, 224355.27, 224355.27, 0.0008105773, 10.001771, 9.999145 
1.0050011e+3, 1.2517263e+2, -1920026.8, -1652380.9, -20210.934, 0.051738594, 0.025532953, -1650863.3, 62443.953, 0.00014134821, 9.997805, 10.001468 
1.0050125e+3, 1.3517481e+2, -1712308.5, -1516134.5, -36483.66, 0.0753665, 0.06821382, -1509569.1, 105714.53, 0.000046426092, 9.998697, 10.001296 
1.0050243e+3, 1.451749e+2, -1630336.3, -1537901.1, 14085.706, 0.13967435, 0.015551521, -1535802.4, -18520.873, 0.00000474816, 9.999052, 10.000279 
1.0050347e+3, 1.5517433e+2, -1495398.4, -1432522.3, 15986.96, 0.009057211, -0.11032188, -1428690.9, -9403.875, 0.000000004412824, 9.99935, 10.000197 
1.0050456e+3, 1.6517456e+2, -1397905.4, -1431335.3, 24193.934, -0.031047668, -0.05808056, -1385214.0, -63927.57, 0.0, 9.999746, 9.999354 
1.0050571e+3, 1.7517513e+2, -1241592.9, -1310489.4, 5104.8745, 0.0129129235, 0.03275812, -1241216.6, -17932.799, 0.0, 10.000175, 9.999301 
1.0050677e+3, 1.8517469e+2, -1120224.1, -1213505.8, 2063.949, -0.00087987114, 0.07297359, -1120178.5, 5109.688, 0.0, 10.000399, 9.999175 
1.0050775e+3, 1.9517298e+2, -1014243.94, -1120580.5, -16427.432, -0.065935194, -0.04757574, -1011764.0, 15538.047, 0.0, 10.00049, 9.999096 
1.00508854e+3, 2.0517196e+2, -934611.8, -1076828.3, 31411.697, -0.028081868, -0.034106858, -927982.8, 1329.025, 0.0, 10.000539, 9.998713 
1.0051007e+3, 2.1517116e+2, -851482.8, -997100.94, 43426.023, 0.097608685, -0.015076555, -839515.8, -8194.012, 0.0, 10.000477, 9.998624 
1.00511216e+3, 2.2517014e+2, -713131.56, -843847.0, 85509.6, 0.13507932, 0.013339519, -670862.5, 62469.2, 0.0, 10.000634, 9.998912 
1.00512296e+3, 2.3516849e+2, -557617.9, -727489.4, 52138.18, 0.08655918, -0.07259105, -542891.9, 92453.69, 0.0, 10.001062, 9.998833 
1.0051333e+3, 2.4516757e+2, -425263.7, -590632.0, 13393.309, 0.038172144, -0.04871507, -424186.0, 113167.44, 0.0, 10.001197, 9.999036 
1.0051431e+3, 2.551671e+2, -353944.34, -508127.3, -17467.828, -0.0014497968, -0.034372013, -351990.13, 87368.195, 0.0, 10.001037, 9.998999 
1.0051538e+3, 2.651662e+2, -262598.34, -468951.06, 59196.59, -0.044365436, 0.008735793, -246822.63, 94544.31, 0.000000017098808, 10.001222, 9.998516 
1.0051655e+3, 2.751644e+2, -121828.51, -361731.13, 24805.912, -0.090019844, -0.054135934, -119290.43, 124093.7, 0.000003428396, 10.001557, 9.998417 
1.0051766e+3, 2.851625e+2, -78905.164, -433066.5, -62277.973, -0.053640466, -0.012660515, -68273.0, 77131.51, 0.00003625069, 10.001799, 9.997131 
1.0051871e+3, 2.9516026e+2, 31229.42, -338519.97, -58358.54, 0.07973881, 0.008834976, 40221.617, 87651.57, 0.00015744341, 10.001895, 9.997066 
1.0051969e+3, 3.0515775e+2, 172319.03, -203254.34, 20584.139, 0.06466881, 0.037514232, 173443.81, 173443.81, 0.00042211023, 10.00238, 9.997445 
1.0052068e+3, 3.1515455e+2, 376100.22, 88283.45, 20277.115, 0.015292336, -0.06159972, 377521.78, 377521.78, 0.0008305699, 10.002845, 9.999235 
1.0149979e+3, 1.251596e+2, -1947828.6, -1694505.1, -55895.832, -0.13331664, -0.14542763, -1682720.0, 30715.223, 0.0001798155, 9.99776, 10.001189 
1.0150108e+3, 1.3516292e+2, -1732657.4, -1560999.4, 11797.855, 0.0016567127, 0.043806396, -1560192.4, 55211.76, 0.000062927356, 9.998711, 10.0009775 
1.0150238e+3, 1.4516409e+2, -1595896.0, -1456462.3, 863.76556, 0.13502803, 0.08233586, -1456456.9, 60935.76, 0.000007860604, 9.999015, 10.000851 
1.01503484e+3, 1.5516464e+2, -1461189.9, -1355573.9, 45372.39, 0.05146686, 0.011595352, -1338759.1, 80627.38, 0.000000028517778, 9.9993305, 10.000729 
1.0150455e+3, 1.6516486e+2, -1402537.6, -1434608.6, 21331.479, -0.05714589, 0.039972566, -1391886.6, -70502.33, 0.0, 9.999716, 9.999348 
1.01505585e+3, 1.7516452e+2, -1242864.9, -1311814.0, 37384.06, -0.16367973, 0.037869096, -1226486.0, -3097.5234, 0.0, 10.000163, 9.9993 
1.0150672e+3, 1.851638e+2, -1137698.1, -1224711.3, -13457.616, -0.12648526, 0.051364828, -1135664.3, -10268.93, 0.0, 10.000292, 9.999149 
1.0150794e+3, 1.9516231e+2, -1035968.0, -1130732.6, 2847.0845, 0.039383475, -0.046684284, -1035882.5, -8473.722, 0.0, 10.000341, 9.999096 
1.01509035e+3, 2.0516178e+2, -905779.94, -975941.2, 10768.815, 0.064207666, -0.022244532, -904164.25, 25247.965, 0.0, 10.000363, 9.999489 
1.0151e+3, 2.151618e+2, -826502.8, -895516.75, 56056.465, -0.04428681, -0.0016411105, -795183.8, 36225.977, 0.0, 10.000271, 9.999414 
1.0151113e+3, 2.251607e+2, -775749.75, -918684.7, 80966.695, -0.048513006, 0.001850722, -739220.9, -5801.253, 0.0, 10.000398, 9.99851 
1.0151239e+3, 2.3515815e+2, -618543.06, -797988.0, 82983.836, 0.04053766, -0.14016065, -586050.8, 49394.547, 0.0, 10.000825, 9.99846 
1.015135e+3, 2.45157e+2, -481173.72, -657849.0, -13128.788, 0.059559163, -0.1036727, -480203.44, 57254.49, 0.0, 10.000988, 9.998678 
1.01514444e+3, 2.5515684e+2, -401686.22, -572692.3, -5574.0337, 0.00451918, -0.019657562, -401504.72, 37956.87, 0.0, 10.000882, 9.998636 
1.01515524e+3, 2.6515603e+2, -312266.6, -536836.25, 57903.97, -0.04851451, 0.07040381, -298215.53, 43255.32, 0.000000011022683, 10.001075, 9.998117 
1.0151672e+3, 2.7515417e+2, -170472.63, -423226.5, 61988.207, -0.11091861, 0.0409964, -156088.53, 87400.87, 0.0000031084232, 10.00139, 9.998074 
1.01517834e+3, 2.8515202e+2, -54682.08, -352551.75, -74521.53, -0.09296115, 0.038290106, -37078.5, 108432.5, 0.000035475467, 10.001672, 9.997743 
1.01518854e+3, 2.951492e+2, 48193.363, -266680.94, -30449.578, -0.004061954, -0.058324076, 51110.926, 98649.38, 0.00015874387, 10.001744, 9.997628 
1.015199e+3, 3.051466e+2, 157163.39, -208563.28, 28910.598, 0.010281942, -0.060505956, 159434.66, 159434.66, 0.00042931808, 10.002276, 9.997453 
1.0152104e+3, 3.151449e+2, 335873.78, 82608.37, 84153.17, 0.020446898, -0.01698321, 361285.8, 361285.8, 0.00084597926, 10.002536, 9.999331 
1.0249962e+3, 1.2514864e+2, -2029722.6, -1734679.9, 20029.555, -0.017643133, -0.13206287, -1733326.3, -19782.727, 0.00022439056, 9.997179, 10.001203 
1.02500916e+3, 1.3515136e+2, -1786277.6, -1588707.4, 60749.586, 0.0030895155, 0.0015257187, -1571522.6, 43995.668, 0.0000828242, 9.998356, 10.000963 
1.0250226e+3, 1.4515272e+2, -1642752.6, -1517640.5, 43595.297, 0.1257899, 0.07489598, -1503948.3, 13557.843, 0.000012107546, 9.998823, 10.000551 
1.0250344e+3, 1.5515384e+2, -1541119.5, -1426568.9, -12486.186, 0.112421356, 0.09073581, -1425223.8, -5727.417, 0.00000009714164, 9.998899, 10.000463 
1.02504544e+3, 1.6515401e+2, -1466472.1, -1423630.8, -3318.21, 0.0132757705, 0.10905582, -1423375.3, -101881.04, 0.0, 9.999131, 9.999681 
1.0250558e+3, 1.7515305e+2, -1294275.3, -1293937.0, -3318.093, -0.15324129, 0.013114276, -1290783.8, -67282.27, 0.0, 9.999665, 9.999641 
1.0250673e+3, 1.8515238e+2, -1185153.6, -1229324.6, -21218.627, -0.112139024, 0.004621333, -1176612.4, -51105.42, 0.0, 9.999868, 9.999329 
1.0250799e+3, 1.9515158e+2, -1120222.6, -1152663.3, -19697.773, 0.1029572, -0.040876213, -1110926.3, -83411.484, 0.0, 9.999671, 9.999278 
1.025091e+3, 2.0515132e+2, -948713.2, -961739.2, 21013.355, 0.12582098, -0.013046457, -933226.6, -3711.4258, 0.0, 9.999938, 9.99979 
1.0251006e+3, 2.1515118e+2, -755523.75, -831028.75, -9373.296, -0.029423874, -0.035346203, -754377.56, 77135.22, 0.0, 10.000646, 9.999677 
1.0251117e+3, 2.2515024e+2, -705400.2, -891115.75, 38614.277, -0.054371882, -0.02411563, -697691.44, 35829.5, 0.0, 10.0009, 9.998458 
1.0251244e+3, 2.3514824e+2, -650718.0, -821473.1, 34360.2, 0.032817025, -0.10217849, -644063.2, -8520.537, 0.0, 10.000638, 9.998389 
1.0251359e+3, 2.4514706e+2, -516564.9, -700382.06, -7214.9805, 0.06193964, -0.053615138, -516282.13, 21274.57, 0.0, 10.000877, 9.998418 
1.0251459e+3, 2.5514627e+2, -323593.44, -567433.5, -33854.516, 0.032639705, -0.0057830857, -318980.4, 120586.94, 0.0, 10.001563, 9.998338 
1.0251571e+3, 2.651452e+2, -205203.08, -468183.1, 76559.15, 0.004935961, 0.06678791, -184538.8, 157040.22, 0.00000001218603, 10.001749, 9.99826 
1.0251696e+3, 2.751435e+2, -153836.52, -394990.06, 79847.06, -0.0095346635, 0.036253344, -129795.47, 113799.76, 0.0000027111198, 10.001438, 9.998237 
1.0251808e+3, 2.8514153e+2, -25479.867, -324431.78, 1434.0435, -0.015503172, 0.040508833, -25472.988, 120140.54, 0.00003356842, 10.001807, 9.997877 
1.02519065e+3, 2.9513898e+2, 195246.5, -180612.03, -30302.465, -0.009445636, -0.044007506, 197673.88, 245311.14, 0.00015737157, 10.002689, 9.997769 
1.0252015e+3, 3.0513602e+2, 267047.78, -188125.23, 30304.855, 0.004127929, -0.07330561, 269056.56, 269056.56, 0.00043278775, 10.003191, 9.997137 
1.02521434e+3, 3.1513408e+2, 370445.6, 54149.887, -12145.433, 0.1652991, -0.025917942, 370911.28, 370911.28, 0.00085735595, 10.002961, 9.9989195 
1.03499524e+3, 1.2513947e+2, -2003456.3, -1686890.0, -4969.7007, 0.07184908, 0.042367853, -1686812.0, 26822.9, 0.00027553758, 9.997208, 10.001514 
1.0350071e+3, 1.3514014e+2, -1773805.0, -1562579.8, 111889.72, -0.07547578, -0.053743385, -1514330.9, 101295.18, 0.000106410545, 9.998351, 10.001147 
1.03502005e+3, 1.4514078e+2, -1716101.5, -1669386.9, 20982.566, -0.06016796, -0.0053529115, -1661346.3, -143724.39, 0.000017580353, 9.998828, 9.999506 
1.0350331e+3, 1.5514195e+2, -1608308.9, -1568845.3, 7199.881, 0.04063981, 0.117575854, -1567572.8, -147956.22, 0.00000023822265, 9.998907, 9.999486 
1.035045e+3, 1.65142e+2, -1434448.0, -1342898.8, -5446.163, 0.015541776, 0.14061458, -1342575.9, -20959.85, 0.0, 9.999079, 10.000257 
1.0350564e+3, 1.7514071e+2, -1264608.3, -1215959.5, 33182.535, -0.09432216, -0.046993706, -1199140.8, 24481.932, 0.0, 9.9996, 10.000206 
1.03506766e+3, 1.8514049e+2, -1171469.5, -1177218.5, -49494.27, -0.101496145, -0.05719818, -1124766.4, 855.9093, 0.0, 9.999767, 9.999735 
1.0350788e+3, 1.9514087e+2, -1110313.4, -1104692.9, -14344.352, -0.014688297, -0.028197763, -1092886.0, -65266.777, 0.0, 9.99955, 9.999667 
1.0350901e+3, 2.0514058e+2, -998197.2, -1018070.44, 28137.12, 0.018442862, -0.0074712955, -978293.7, -48672.797, 0.0, 9.999735, 9.999503 
1.0351018e+3, 2.151392e+2, -797774.5, -880566.0, 35151.477, 0.0087970095, -0.12509358, -784863.4, 46767.727, 0.0, 10.000471, 9.999424 
1.0351132e+3, 2.251387e+2, -715829.5, -859671.4, 11931.973, -0.026154654, -0.07754012, -714846.44, 18789.396, 0.0, 10.00068, 9.998776 
1.03512414e+3, 2.3513871e+2, -658862.1, -788802.1, 42129.777, -0.08608341, 0.014858888, -646398.2, -10760.118, 0.0, 10.000428, 9.998712 
1.0351354e+3, 2.4513774e+2, -571714.5, -762554.7, 5397.1465, -0.099617, 0.08405737, -571561.94, -33911.816, 0.0, 10.000657, 9.998096 
1.0351467e+3, 2.5513548e+2, -372683.9, -621239.5, 12762.269, -0.06560913, 0.011159669, -372030.34, 67644.47, 0.0, 10.001362, 9.998061 
1.0351589e+3, 2.6513386e+2, -183319.95, -387226.38, 48642.52, -0.014960988, 0.010025031, -172310.55, 169379.63, 0.00000000560088, 10.001596, 9.998888 
1.035172e+3, 2.751324e+2, -135881.14, -317750.72, 88860.06, 0.052234672, -0.059046548, -99673.305, 144028.19, 0.0000022721786, 10.001275, 9.998842 
1.0351832e+3, 2.8513107e+2, -63484.836, -375071.13, 17175.818, 0.026264848, -0.0057057985, -62540.9, 83171.734, 0.000031172072, 10.001686, 9.997588 
1.03519276e+3, 2.9512966e+2, 149399.48, -236837.4, 29408.996, -0.1060261, 0.05719568, 151625.92, 199351.2, 0.00015322318, 10.002523, 9.997464 
1.035204e+3, 3.05126e+2, 199942.69, -295557.34, 12684.311, -0.10004195, 0.0047764615, 200267.19, 200267.19, 0.00043103905, 10.003063, 9.996454 
1.03521764e+3, 3.1512225e+2, 267637.1, -84726.65, 31786.701, 0.11986203, -0.057596464, 270481.6, 270481.6, 0.00086192216, 10.002671, 9.998093 
1.0449943e+3, 1.2512916e+2, -1895557.8, -1680305.9, 26212.9, 0.22681652, 0.1235586, -1677159.8, 36577.297, 0.0003338259, 9.998117, 10.001133 
1.045006e+3, 1.3512884e+2, -1828674.9, -1633280.6, 52165.36, -0.0034415778, -0.032196432, -1620226.0, -4488.051, 0.00013404706, 9.998136, 10.000772 
1.0450184e+3, 1.4512904e+2, -1773228.6, -1684669.1, 31589.781, -0.062077988, -0.016072769, -1674555.8, -156818.5, 0.000024406929, 9.998401, 9.999591 
1.0450322e+3, 1.5512991e+2, -1546203.8, -1520475.0, 54777.316, 0.06608038, 0.068299636, -1477071.8, -57338.33, 0.0000004785213, 9.999287, 9.999617 
1.04504496e+3, 1.6513015e+2, -1359273.8, -1294930.5, 88127.125, 0.08199806, 0.09820962, -1233286.3, 88444.44, 0.0, 9.999525, 10.000388 
1.0450567e+3, 1.7512947e+2, -1309552.3, -1224587.1, 60910.406, 0.015106358, -0.043034557, -1192807.6, 30924.834, 0.0, 9.999217, 10.000344 
1.045068e+3, 1.8512958e+2, -1246297.4, -1205093.6, -15381.534, -0.00029185636, -0.030303178, -1199985.0, -74255.336, 0.0, 9.999237, 9.999794 
1.0450786e+3, 1.9513004e+2, -1095176.5, -1090151.1, -46717.195, 0.029769925, 0.003306095, -1045879.1, -18152.428, 0.0, 9.999633, 9.999723 
1.0450902e+3, 2.0512971e+2, -964527.3, -1004320.1, 42650.723, 0.057065442, 0.020630658, -937360.44, -7631.569, 0.0, 9.999984, 9.999467 
1.0451028e+3, 2.1512829e+2, -838481.5, -897605.75, 31562.19, 0.08333875, -0.10118356, -824799.1, 6940.695, 0.0, 10.000206, 9.999419 
1.0451144e+3, 2.2512777e+2, -712100.56, -854601.06, 27397.877, 0.0350714, -0.056330375, -707014.44, 26730.072, 0.0, 10.000677, 9.998823 
1.045125e+3, 2.3512773e+2, -518775.8, -718113.1, 879.70447, -0.085984804, 0.026708942, -518771.9, 116975.195, 0.0, 10.001355, 9.998763 
1.0451364e+3, 2.4512675e+2, -438830.2, -678861.44, 4717.7114, -0.09926113, 0.084588334, -438737.5, 99020.58, 0.0, 10.001465, 9.9983 
1.0451486e+3, 2.551246e+2, -405757.9, -612668.25, 14350.978, -0.0014879346, 0.003595776, -404767.28, 35012.56, 0.0, 10.001025, 9.998289 
1.0451609e+3, 2.65123e+2, -266741.28, -450621.34, 68592.78, 0.051364787, 0.0017131343, -243973.25, 97821.484, 0.0000000009945924, 10.001099, 9.998713 
1.0451735e+3, 2.7512136e+2, -106684.25, -330365.13, 16803.064, 0.0663418, -0.06384861, -105429.04, 138379.67, 0.0000020282196, 10.001542, 9.9986515 
1.0451853e+3, 2.8511974e+2, 20678.563, -340660.47, -3529.309, 0.040912446, -0.025970064, 20713.031, 166535.66, 0.00002862313, 10.002293, 9.997529 
1.0451964e+3, 2.9511803e+2, 260208.94, -181056.02, -18303.033, -0.018732691, 0.007271544, 260966.81, 308804.38, 0.00014660136, 10.003289, 9.997468 
1.0452079e+3, 3.0511448e+2, 279734.34, -273525.6, -14387.659, -0.023503628, -0.030180331, 280108.25, 280108.25, 0.00042212423, 10.003669, 9.996315 
1.0452206e+3, 3.151116e+2, 303080.84, -101347.39, -32027.813, 0.1468226, 0.013683266, 305601.5, 305601.5, 0.00085377786, 10.003021, 9.997821 
1.0549923e+3, 1.2511756e+2, -1959119.8, -1809473.0, -26311.596, 0.13805279, 0.0817067, -1804981.6, -91130.51, 0.00039971265, 9.998121, 10.0002365 
1.0550051e+3, 1.351176e+2, -1896002.4, -1763085.9, 69273.78, 0.06665074, 0.05653407, -1733546.4, -117694.055, 0.00016604259, 9.998101, 9.999897 
1.0550175e+3, 1.451177e+2, -1699795.4, -1523532.8, 40649.297, -0.049639676, 0.04921637, -1514610.0, 3240.4988, 0.000032768716, 9.998364, 10.000714 
1.0550317e+3, 1.5511784e+2, -1476004.3, -1368743.9, 103282.87, 0.040976126, -0.054063097, -1305997.3, 113848.695, 0.0000008393984, 9.999255, 10.000676 
1.0550445e+3, 1.6511859e+2, -1381951.0, -1331539.0, 56802.613, 0.055353977, -0.01214882, -1294600.9, 27236.436, 0.0, 9.999481, 10.000155 
1.0550565e+3, 1.7511949e+2, -1330957.6, -1262809.1, 66277.49, 0.027778314, 0.028195405, -1222359.9, 1469.3047, 0.0, 9.999187, 10.000096 
1.055068e+3, 1.8511978e+2, -1287440.0, -1264257.9, -21612.914, 0.040555608, 0.088658795, -1251324.0, -125496.266, 0.0, 9.999124, 9.999443 
1.05507925e+3, 1.9511913e+2, -1135316.1, -1147118.3, -14711.629, 0.090244755, 0.043680366, -1125366.3, -97530.055, 0.0, 9.999513, 9.9993925 
1.05509095e+3, 2.0511883e+2, -979530.3, -992296.75, 32143.943, 0.099470675, 0.07048637, -953141.94, -23303.654, 0.0, 9.9998, 9.99964 
1.0551032e+3, 2.1511844e+2, -856333.06, -890328.56, 56112.45, 0.0688555, 0.034533713, -814700.4, 17138.387, 0.0, 10.000007, 9.999571 
1.0551149e+3, 2.2511742e+2, -767737.0, -911578.4, 37002.742, -0.0009793631, 0.03586805, -758776.4, -24928.65, 0.0, 10.000432, 9.998543 
1.05512634e+3, 2.3511538e+2, -570969.5, -769397.6, 43506.98, -0.10748281, -0.057015333, -561849.4, 74019.41, 0.0, 10.001115, 9.99852 
1.0551382e+3, 2.4511428e+2, -422888.1, -596258.56, -29859.982, -0.08210573, -0.033620052, -417889.38, 119989.6, 0.0, 10.001253, 9.998967 
1.0551505e+3, 2.5511375e+2, -387156.34, -532271.0, 12668.802, 0.07193429, -0.021556074, -386058.66, 53823.496, 0.0, 10.000846, 9.998926 
1.0551623e+3, 2.6511258e+2, -355413.9, -599250.4, 68271.516, 0.06416955, 0.039013933, -337600.06, 4293.2954, 0.000000000012280949, 10.000951, 9.997757 
1.0551736e+3, 2.751105e+2, -194269.98, -475379.5, 57474.41, -0.11032567, 0.018710952, -182973.02, 60942.57, 0.0000016155456, 10.001385, 9.997726 
1.0551864e+3, 2.8510788e+2, 10054.49, -328800.56, 20494.172, -0.1098043, -0.005073293, 11289.49, 157229.75, 0.000025306648, 10.002151, 9.997681 
1.0552011e+3, 2.951043e+2, 243061.08, -176629.9, 48165.29, 0.06707484, -0.17466545, 248517.75, 296489.44, 0.00013793015, 10.003118, 9.997587 
1.0552128e+3, 3.0510142e+2, 284401.94, -231049.52, -44547.12, 0.059930008, -0.16557261, 288223.5, 288223.5, 0.00040720604, 10.003526, 9.996675 
1.05522215e+3, 3.15102e+2, 269571.34, -104997.16, -2914.9937, -0.07379929, 0.1871025, 269594.0, 269594.0, 0.0008331317, 10.002739, 9.997933 
1.06499106e+3, 1.251058e+2, -1811984.6, -1766083.8, -35860.617, 0.15456292, 0.109922454, -1746458.4, -32490.895, 0.00047318285, 9.999277, 9.99997 
1.0650048e+3, 1.351054e+2, -1772332.0, -1720807.3, 27291.336, 0.18895507, 0.065492116, -1709039.5, -93066.086, 0.00020250746, 9.999055, 9.999717 
1.0650165e+3, 1.4510557e+2, -1623649.5, -1429697.0, 64564.59, 0.01805907, 0.047079664, -1410170.1, 107799.516, 0.000042863663, 9.99863, 10.001243 
1.0650306e+3, 1.55106e+2, -1561137.4, -1349004.1, 39469.133, 0.06699676, -0.08181959, -1341898.6, 78060.875, 0.0000013547858, 9.998406, 10.001225 
1.0650436e+3, 1.6510701e+2, -1532006.1, -1407047.6, 12618.53, 0.07187099, -0.038322493, -1405786.1, -83838.34, 0.0, 9.998452, 10.000142 
1.06505565e+3, 1.7510824e+2, -1394938.4, -1293674.0, -259.2002, 0.06495764, 0.039993197, -1293673.4, -69734.97, 0.0, 9.998745, 10.000106 
1.06506765e+3, 1.8510853e+2, -1258225.6, -1238836.4, -396.88785, 0.08889858, 0.09289737, -1238828.3, -112890.79, 0.0, 9.999258, 9.999557 
1.06507935e+3, 1.9510755e+2, -1052342.1, -1094209.6, 4864.2637, 0.1346675, 0.004542876, -1051784.4, -23836.68, 0.0, 10.000016, 9.999515 
1.06509134e+3, 2.0510727e+2, -894316.56, -970029.5, 73311.734, 0.13222145, 0.03432905, -849664.1, 80285.91, 0.0, 10.0004635, 9.999472 
1.0651036e+3, 2.1510729e+2, -774204.25, -867786.3, 34005.367, 0.09041413, 0.05655134, -763152.7, 68795.57, 0.0, 10.000645, 9.999416 
1.0651157e+3, 2.2510627e+2, -733518.5, -879914.56, 54193.58, 0.032976717, 0.057133358, -715640.25, 18317.166, 0.0, 10.000592, 9.998687 
1.0651277e+3, 2.3510386e+2, -682755.06, -803891.9, 60086.297, -0.033256296, -0.086546496, -658007.0, -22026.566, 0.0, 10.000268, 9.998687 
1.0651399e+3, 2.4510263e+2, -505703.63, -633453.4, 14811.273, 0.0024115539, -0.08636221, -504008.9, 33981.99, 0.0, 10.000669, 9.998993 
1.06515236e+3, 2.551021e+2, -254976.66, -473413.66, -24422.973, 0.13322166, -0.07152171, -252279.3, 187714.27, 0.0, 10.001754, 9.998905 
1.0651642e+3, 2.651009e+2, -164399.97, -522381.16, 67784.82, 0.09753215, -0.007108992, -151994.6, 190010.88, 0.0, 10.002336, 9.997607 
1.0651754e+3, 2.7509886e+2, -66215.71, -421513.88, 65936.914, -0.0926397, -0.011500447, -54373.707, 189654.53, 0.00000091217555, 10.002327, 9.997628 
1.0651887e+3, 2.850964e+2, 28246.57, -323504.9, 97206.07, -0.092663005, -0.012481841, 53321.81, 199374.08, 0.000020761427, 10.002278, 9.997662 
1.06520385e+3, 2.9509306e+2, 108756.46, -243192.06, 74260.336, 0.103696905, -0.15507399, 123783.61, 171866.58, 0.00012637535, 10.002179, 9.997586 
1.06521584e+3, 3.050904e+2, 151441.14, -224784.92, 3975.9731, 0.09386833, -0.15570804, 151483.16, 151483.16, 0.00038601994, 10.002313, 9.9972925 
1.06522486e+3, 3.1509113e+2, 249980.56, -52815.047, -2077.4707, -0.04284644, 0.14122637, 249994.81, 249994.81, 0.0008001297, 10.002346, 9.998465 
1.0749897e+3, 1.250936e+2, -1794475.5, -1719307.9, -48959.363, 0.017685557, 0.1768263, -1695170.0, 18918.678, 0.00055371417, 9.999255, 10.00029 
1.0750041e+3, 1.3509233e+2, -1750428.3, -1665688.9, 25289.459, 0.19178304, 0.0025615392, -1658715.4, -42614.754, 0.00024334127, 9.999026, 10.000101 
1.075015e+3, 1.4509268e+2, -1620656.3, -1430907.6, 27323.348, -0.041100275, -0.015836358, -1427051.5, 91043.17, 0.00005483326, 9.998643, 10.001236 
1.0750287e+3, 1.5509433e+2, -1557410.0, -1347772.5, 47489.44, -0.013565794, -0.020870615, -1337516.4, 82557.59, 0.000002073113, 9.99842, 10.001234 
1.0750415e+3, 1.6509546e+2, -1525712.5, -1379371.8, 1962.1372, -0.01183076, 0.022676038, -1379345.4, -57283.984, 0.0000000000166348, 9.9984, 10.000352 
1.0750541e+3, 1.7509575e+2, -1386925.8, -1261994.3, 28638.809, -0.0043600895, -0.0188237, -1255742.1, -31682.291, 0.0, 9.998684, 10.000349 
1.0750664e+3, 1.8509588e+2, -1238079.9, -1168662.5, 10013.158, 0.0054944474, -0.020077547, -1167247.0, -41188.89, 0.0, 9.999141, 10.0000925 
1.0750785e+3, 1.9509533e+2, -1036740.25, -1024883.2, 48056.152, 0.01835781, -0.119852744, -982391.25, 45669.902, 0.0, 9.999863, 10.000061 
1.0750909e+3, 2.050951e+2, -960197.0, -1065476.8, 58395.15, 0.020931944, -0.08425271, -934217.9, -4154.1675, 0.0, 10.00028, 9.99891 
1.0751037e+3, 2.1509479e+2, -840338.0, -957797.2, 56839.35, 0.010858514, -0.04101342, -817337.06, 14731.861, 0.0, 10.000434, 9.998904 
1.07511625e+3, 2.250943e+2, -727760.8, -807501.2, 27196.703, 0.0035154496, 0.007092154, -719368.25, 14705.43, 0.0, 10.000339, 9.999305 
1.07512854e+3, 2.3509324e+2, -674994.06, -732942.75, 69146.695, -0.0024779714, -0.06682468, -628996.56, 7085.094, 0.0, 10.000036, 9.999286 
1.075141e+3, 2.4509181e+2, -587645.06, -749012.75, 41294.273, 0.0151267275, -0.07869566, -577691.7, -39597.95, 0.0, 10.000442, 9.998302 
1.0751536e+3, 2.550897e+2, -325706.72, -575768.2, 36276.496, 0.049619973, -0.15824917, -320550.38, 119563.195, 0.0, 10.001566, 9.998286 
1.0751662e+3, 2.6508802e+2, -158846.84, -463397.72, 50875.22, 0.03032599, -0.1373295, -150572.92, 191556.97, 0.000000000031670343, 10.002137, 9.998111 
1.0751786e+3, 2.7508637e+2, -57673.363, -368545.34, 89361.12, -0.042400103, -0.15290937, -33816.977, 210329.92, 0.00000057346807, 10.002173, 9.998072 
1.0751915e+3, 2.850852e+2, 4417.6553, -347488.22, 74409.87, -0.0726481, -0.03840419, 19504.674, 165664.52, 0.000016841232, 10.002168, 9.997546 
1.0752048e+3, 2.9508424e+2, 78405.7, -264841.66, 96143.62, -0.06332844, 0.06413653, 103500.81, 151672.64, 0.000114238224, 10.002, 9.997524 
1.0752169e+3, 3.050813e+2, 188828.19, -118590.76, 421.55746, -0.06427882, -0.00096280576, 188828.77, 188828.77, 0.0003625103, 10.002192, 9.998079 
1.0752276e+3, 3.1507874e+2, 262638.84, 17870.63, 61052.81, -0.08349924, -0.114926815, 277022.1, 277022.1, 0.00076317973, 10.0021515, 9.99905 
1.08498886e+3, 1.2508026e+2, -1769564.3, -1688495.1, 60804.76, 0.026992243, 0.08641947, -1655952.5, 58265.16, 0.00064071716, 9.999292, 10.000512 
1.0850034e+3, 1.3508008e+2, -1830351.8, -1676460.5, 8982.244, 0.2622732, -0.005382621, -1675938.0, -59719.785, 0.00028839763, 9.998328, 10.000382 
1.0850139e+3, 1.4508066e+2, -1762971.5, -1529207.0, 71948.086, 0.03579089, -0.00019430429, -1508837.8, 9373.359, 0.00006873226, 9.99784, 10.00092 
1.08502746e+3, 1.5508206e+2, -1594682.0, -1400153.8, 20195.05, 0.037590466, 0.0020771974, -1398079.4, 22116.332, 0.0000030594845, 9.998338, 10.000898 
1.0850404e+3, 1.6508293e+2, -1477705.8, -1338285.6, -614.84985, 0.02623209, 0.025782807, -1338282.9, -16096.797, 0.000000000186287, 9.998647, 10.000514 
1.0850529e+3, 1.7508298e+2, -1356020.1, -1231585.9, -17271.201, 0.015963929, -0.05740673, -1229233.1, -5047.8003, 0.0, 9.99882, 10.000491 
1.0850657e+3, 1.8508327e+2, -1230793.0, -1148032.8, -3421.0625, 0.030446675, -0.05592639, -1147891.6, -21710.297, 0.0, 9.999115, 10.000257 
1.08507864e+3, 1.9508341e+2, -1079492.0, -1025948.44, -29377.166, 0.06580294, -0.10097713, -1012974.2, 15203.773, 0.0, 9.9995, 10.00023 
1.0850913e+3, 2.0508336e+2, -1012331.4, -1062238.0, 19098.951, 0.064739294, -0.06583945, -1005861.1, -75682.72, 0.0, 9.999817, 9.999145 
1.085104e+3, 2.1508272e+2, -880971.0, -951690.4, 34289.58, 0.023225548, -0.07929514, -867075.4, -34888.785, 0.0, 10.000063, 9.999116 
1.0851167e+3, 2.2508244e+2, -690411.94, -771431.7, 45698.023, 0.020555208, -0.026530543, -669853.3, 64335.934, 0.0, 10.000518, 9.999473 
1.0851296e+3, 2.3508215e+2, -503105.7, -634124.7, 12644.449, 0.057928436, -0.034439173, -501896.53, 134293.6, 0.0, 10.001143, 9.999441 
1.0851426e+3, 2.4508093e+2, -436399.56, -690054.6, 40612.402, 0.084416345, -0.029848717, -430055.8, 108145.03, 0.0, 10.001517, 9.99821 
1.0851555e+3, 2.5507846e+2, -342233.16, -592618.75, 44506.137, 0.10193085, -0.13336182, -334557.47, 105666.98, 0.0, 10.001492, 9.998217 
1.0851684e+3, 2.6507655e+2, -209732.77, -494836.84, 87397.945, 0.07274956, -0.13017955, -185073.9, 157169.67, 0.000000020287489, 10.001816, 9.998042 
1.0851813e+3, 2.750747e+2, -16833.94, -357912.5, 43186.457, 0.0003616085, -0.15868874, -11450.748, 232812.25, 0.0000009682407, 10.002484, 9.9979925 
1.0851941e+3, 2.8507382e+2, 76368.05, -258300.03, 37625.36, -0.03950282, -0.032892156, 80545.95, 226818.84, 0.000016002106, 10.002439, 9.998025 
1.08520694e+3, 2.9507372e+2, 48536.195, -216463.39, 54397.824, -0.027074639, 0.10860491, 59268.098, 107543.875, 0.00010691048, 10.001542, 9.998069 
1.085219e+3, 3.0507103e+2, 150064.64, -101832.59, 48729.926, -0.04009963, 0.02352126, 159162.9, 159162.9, 0.00034615427, 10.001783, 9.998408 
1.0852301e+3, 3.150682e+2, 377796.84, 98726.195, 8254.524, -0.071745574, -0.14347228, 378040.78, 378040.78, 0.00073994894, 10.002859, 9.999272 
1.0949884e+3, 1.2506583e+2, -1747020.8, -1636065.8, 41921.957, -0.0307384, -0.16376105, -1622007.6, 92346.52, 0.000734217, 9.999264, 10.000891 
1.0950019e+3, 1.3506894e+2, -1804937.6, -1634245.9, -17232.316, 0.24918261, 0.04156059, -1632523.6, -16200.154, 0.00033773432, 9.998357, 10.000665 
1.0950127e+3, 1.4506964e+2, -1820244.3, -1641622.1, 66647.93, 0.07787963, 0.08573135, -1619495.3, -101177.79, 0.0000845864, 9.997818, 10.000156 
1.0950265e+3, 1.5506917e+2, -1657628.6, -1514060.0, 57024.73, 0.070800684, -0.022571644, -1494166.6, -73842.266, 0.0000043925156, 9.998278, 10.000142 
1.0950394e+3, 1.6506943e+2, -1472123.5, -1324304.0, -14800.229, 0.034368936, -0.026619177, -1322836.8, -515.02405, 0.0000000006358386, 9.998626, 10.000625 
1.0950519e+3, 1.7506988e+2, -1348436.1, -1217783.5, 7354.922, -0.011460781, -0.0805415, -1217370.8, 6944.3594, 0.0, 9.998815, 10.000594 
1.09506495e+3, 1.850708e+2, -1256182.5, -1184026.5, -9566.311, 0.020020785, -0.00912253, -1182779.9, -56474.094, 0.0, 9.999047, 10.000038 
1.0950791e+3, 1.9507188e+2, -1112580.1, -1061044.8, 4063.1033, 0.13439466, 0.05652044, -1060726.4, -32429.686, 0.0, 9.999359, 10.000053 
1.0950921e+3, 2.0507203e+2, -974339.25, -944437.44, 9995.984, 0.122145794, 0.07652311, -941403.6, -11109.263, 0.0, 9.999641, 10.000041 
1.09510385e+3, 2.1507096e+2, -846500.44, -835484.2, 60491.113, -0.015471981, -0.069326386, -780250.94, 52051.137, 0.0, 9.999864, 10.000012 
1.0951167e+3, 2.2507058e+2, -755089.9, -849306.7, 49526.84, -0.05447378, -0.050843216, -733845.44, 459.73447, 0.0, 10.000278, 9.999051 
1.0951305e+3, 2.3507047e+2, -566821.9, -709106.2, 53608.563, 0.001952435, -0.0050964165, -548884.94, 87422.81, 0.0, 10.0008955, 9.999044 
1.09514415e+3, 2.4506983e+2, -435739.38, -629388.56, 22461.027, 0.065723844, 0.05104113, -433168.28, 105145.48, 0.0, 10.001271, 9.99874 
1.0951577e+3, 2.5506833e+2, -337003.94, -531686.1, 63851.51, 0.14193197, -0.009179358, -317930.7, 122395.78, 0.0, 10.001282, 9.998733 
1.0951707e+3, 2.650665e+2, -286625.5, -605751.5, 99448.69, 0.084186144, 0.011793664, -258171.5, 84174.14, 0.00000010014453, 10.00161, 9.997377 
1.0951831e+3, 2.750638e+2, -86904.6, -463566.97, 95339.71, -0.11010182, -0.034588438, -64147.426, 180228.9, 0.0000018117424, 10.002309, 9.997354 
1.0951958e+3, 2.8506216e+2, 119900.1, -129131.96, -11258.022, -0.13831863, -0.0061928746, 120408.01, 266800.84, 0.000017402066, 10.002275, 9.998985 
1.09520935e+3, 2.9506135e+2, 93929.305, -91880.68, 43715.1, 0.018245151, -0.038813755, 103700.25, 152097.67, 0.00010435712, 10.001408, 9.998989 
1.09522134e+3, 3.050595e+2, 115726.96, -136605.08, 72784.0, -0.0051138243, -0.07532507, 135215.92, 135215.92, 0.00033796718, 10.00164, 9.998231 
1.0952315e+3, 3.1505892e+2, 312178.8, 28763.309, 102564.34, -0.30216676, 0.008263374, 345401.13, 345401.13, 0.00073108607, 10.002571, 9.998934 
1.1049878e+3, 1.2505338e+2, -1977591.6, -1717061.3, 116961.61, 0.084024034, -0.16842681, -1672257.8, 42217.688, 0.00083503575, 9.997589, 10.001098 
1.105e+3, 1.3505676e+2, -1657168.0, -1541571.6, -69997.65, 0.1887348, 0.040992502, -1508593.8, 107848.66, 0.0003918232, 9.999295, 10.000827 
1.10501185e+3, 1.4505756e+2, -1562593.0, -1536517.9, 60439.65, 0.13065729, 0.08869127, -1487725.6, 30710.777, 0.000102570426, 9.999628, 10.00003 
1.1050254e+3, 1.5505704e+2, -1573681.9, -1489841.9, 65015.414, 0.118928626, -0.008362621, -1454403.6, -33959.195, 0.0000061708192, 9.998888, 10.000031 
1.1050386e+3, 1.650574e+2, -1436322.8, -1288875.9, 85476.14, 0.084596075, -0.0060496093, -1249721.9, 72718.9, 0.0000000015512864, 9.998811, 10.000765 
1.1050516e+3, 1.7505816e+2, -1222043.5, -1133933.5, 68897.586, 0.052019138, -0.04702465, -1096210.0, 128220.03, 0.0, 9.999613, 10.000767 
1.105065e+3, 1.8505907e+2, -1139065.3, -1138527.8, 76141.51, 0.07918424, 0.019371437, -1062654.5, 63765.91, 0.0, 9.999906, 9.999932 
1.10507876e+3, 1.9505973e+2, -1072816.3, -1053551.5, 58988.094, 0.15952636, 0.055822548, -1003414.5, 25001.523, 0.0, 9.999683, 9.999947 
1.1050918e+3, 2.0505989e+2, -945588.25, -922066.5, 88931.445, 0.13247384, 0.0742404, -844121.6, 86292.62, 0.0, 9.999786, 10.000135 
1.105104e+3, 2.1505916e+2, -778835.4, -793979.2, 43650.016, -0.0025014372, -0.04516711, -742105.4, 90313.27, 0.0, 10.000269, 10.000111 
1.1051173e+3, 2.2505876e+2, -719113.06, -824695.7, 56387.527, -0.027013918, -0.036664747, -694661.4, 39760.34, 0.0, 10.000502, 9.999101 
1.1051316e+3, 2.3505831e+2, -620723.75, -725999.8, 58870.668, 0.05596835, -0.030163093, -594390.2, 42037.098, 0.0, 10.000502, 9.9991045 
1.1051455e+3, 2.4505785e+2, -460606.1, -619903.4, 74178.914, 0.102085106, 0.03148813, -431413.5, 107018.555, 0.0, 10.001022, 9.998911 
1.1051591e+3, 2.5505704e+2, -211137.48, -451415.66, 43202.965, 0.11994431, 0.023001915, -203605.52, 236833.97, 0.0, 10.002063, 9.998896 
1.10517226e+3, 2.650557e+2, -175866.52, -514311.94, 114951.09, 0.059868954, 0.06523312, -140516.31, 201937.88, 0.00000018749917, 10.002197, 9.997735 
1.10518515e+3, 2.7505338e+2, -201500.63, -475394.72, 143833.86, -0.07142205, 0.02385152, -139845.88, 104634.09, 0.0000025365616, 10.001345, 9.99774 
1.105198e+3, 2.8505164e+2, -24307.084, -221504.3, 77919.79, -0.09073717, 0.032288197, 2765.2227, 149262.69, 0.000019295574, 10.001372, 9.998802 
1.1052111e+3, 2.950502e+2, 187091.4, -71870.805, 7756.7383, 0.029351884, -0.0350761, 187323.55, 235832.53, 0.00010487227, 10.002151, 9.998782 
1.1052234e+3, 3.0504835e+2, 218241.38, -58659.24, 55646.88, 0.022639314, -0.07448192, 229005.89, 229005.89, 0.00033641586, 10.002167, 9.99852 
1.10523425e+3, 3.1504834e+2, 89939.96, -36625.855, 59888.844, -0.16303906, 0.022283886, 113785.695, 113785.695, 0.0007307893, 10.0008545, 9.999294 
1.1149857e+3, 1.2504348e+2, -1982414.6, -1729670.8, 129392.51, 0.019674502, 0.08438231, -1675177.3, 39398.613, 0.000944546, 9.997606, 10.001007 
1.1149972e+3, 1.3504362e+2, -1671872.0, -1573174.6, 9089.346, -0.06375759, -0.0043488047, -1572344.6, 44229.79, 0.00045159098, 9.999292, 10.000618 
1.1150108e+3, 1.4504434e+2, -1512653.0, -1431014.5, 5981.058, 0.024838246, 0.0095576225, -1430578.6, 87989.305, 0.00012308804, 9.999626, 10.000752 
1.1150238e+3, 1.5504588e+2, -1529019.0, -1393687.6, 52456.22, 0.034964465, 0.047715962, -1375736.1, 44817.96, 0.000008505592, 9.998877, 10.000698 
1.1150372e+3, 1.6504705e+2, -1431416.6, -1272033.8, 92594.89, 0.024975447, 0.09415352, -1229559.3, 92982.03, 0.0000000033697685, 9.998774, 10.000907 
1.11505166e+3, 1.7504779e+2, -1215028.6, -1112801.0, 115888.0, 0.059874944, 0.04092826, -1037255.25, 187274.58, 0.0, 9.99957, 10.000945 
1.1150649e+3, 1.8504797e+2, -1151877.9, -1146162.6, 48288.426, 0.056368604, 0.024395753, -1100647.4, 25878.861, 0.0, 9.999823, 9.99992 
1.1150771e+3, 1.9504713e+2, -1097844.4, -1070504.9, 65907.65, -0.0033595678, -0.08922206, -1016864.3, 11670.706, 0.0, 9.999537, 9.999898 
1.1150901e+3, 2.0504706e+2, -1017186.06, -1031905.56, 83636.92, -0.047618754, -0.05462359, -940585.7, -10048.936, 0.0, 9.9996195, 9.999457 
1.1151037e+3, 2.1504731e+2, -861587.4, -909610.9, 79746.09, -0.07916821, -0.012903949, -802316.44, 30219.479, 0.0, 10.000029, 9.999431 
1.1151179e+3, 2.25047e+2, -714744.06, -763814.4, 39453.42, -0.0400521, 0.01419499, -692819.06, 41719.277, 0.0, 10.000283, 9.999624 
1.1151327e+3, 2.3504584e+2, -618739.75, -666580.94, 76824.58, 0.08007869, -0.10176843, -562197.9, 74349.305, 0.0, 10.000267, 9.999628 
1.11514635e+3, 2.4504514e+2, -511848.47, -674848.8, 97304.5, 0.053558983, -0.07910426, -466421.72, 72132.91, 0.0, 10.000797, 9.998643 
1.1151592e+3, 2.550445e+2, -262651.53, -508975.7, 102953.85, -0.1125048, -0.04669511, -225288.23, 215276.22, 0.0, 10.001843, 9.998609 
1.1151726e+3, 2.6504397e+2, -115221.055, -341532.53, 65065.508, -0.14954227, 0.031960208, -97848.09, 244722.2, 0.00000020790911, 10.001995, 9.999016 
1.115187e+3, 2.7504322e+2, -130955.375, -296764.34, 133758.06, -0.05305742, 0.01162203, -56492.86, 188083.3, 0.0000030041283, 10.001197, 9.999039 
1.1152001e+3, 2.8504217e+2, -141928.5, -419022.34, 89465.56, -0.050799046, 0.08871093, -115553.2, 31034.6, 0.000021785861, 10.001186, 9.99753 
1.1152118e+3, 2.9504034e+2, 67072.586, -271644.84, 69053.375, -0.15598592, 0.11021377, 80609.32, 129219.38, 0.00010887074, 10.001941, 9.99751 
1.1152246e+3, 3.0503768e+2, 243199.39, 34699.402, -523.5024, -0.102005795, 0.016804002, 243200.7, 243200.7, 0.00034133886, 10.001998, 9.999239 
1.1152377e+3, 3.1503624e+2, 110205.21, 46979.492, 80807.08, 0.008849361, -0.10373078, 165363.06, 165363.06, 0.0007375019, 10.000672, 9.99996 
1.12498485e+3, 1.2503129e+2, -1972273.6, -1694489.6, 142626.53, 0.20055875, 0.12852971, -1634300.5, 80395.984, 0.0010643419, 9.997536, 10.001302 
1.12499475e+3, 1.3503112e+2, -1884006.6, -1637690.1, 46862.08, -0.13845709, -0.02373394, -1629075.8, -12378.613, 0.00051804923, 9.997679, 10.000958 
1.1250099e+3, 1.4503212e+2, -1722973.4, -1516053.0, 69574.7, 0.05559658, -0.0054917396, -1494835.0, 23852.104, 0.00014661087, 9.99811, 10.000896 
1.1250227e+3, 1.5503384e+2, -1482916.8, -1351642.5, 29346.229, 0.034821875, 0.032209605, -1345380.9, 75289.72, 0.00001150662, 9.999116, 10.000859 
1.1250364e+3, 1.65035e+2, -1356894.1, -1264101.6, 85428.35, 0.040071063, 0.080062665, -1213283.5, 109374.65, 0.0000000061074554, 9.999408, 10.000653 
1.1250514e+3, 1.7503542e+2, -1296998.0, -1177446.5, 40757.664, 0.11577519, 0.018806476, -1164873.6, 59777.695, 0.0, 9.999125, 10.000711 
1.1250648e+3, 1.8503557e+2, -1235381.3, -1163679.6, -6171.025, 0.10327253, -0.0003811998, -1163152.4, -36504.273, 0.0, 9.999153, 10.000126 
1.1250764e+3, 1.9503486e+2, -1084075.0, -1049184.9, -6565.31, -0.016715277, -0.11667372, -1047990.4, -19336.28, 0.0, 9.999536, 10.000064 
1.12508945e+3, 2.05035e+2, -996997.6, -1018591.6, 92287.25, -0.06585259, -0.06858536, -914877.94, 15775.728, 0.0, 9.999768, 9.999466 
1.125104e+3, 2.1503559e+2, -865268.5, -904760.3, 95121.91, -0.04253799, 0.0043380726, -787864.6, 44786.137, 0.0, 9.999999, 9.999467 
1.1251188e+3, 2.2503527e+2, -707998.8, -781979.5, 88300.42, 0.014075804, 0.034896936, -649253.9, 85400.266, 0.0, 10.000401, 9.999458 
1.12513356e+3, 2.3503381e+2, -510385.7, -633024.3, 39532.055, 0.10978956, -0.09026922, -498747.2, 137918.86, 0.0, 10.00107, 9.99948 
1.12514734e+3, 2.4503304e+2, -469307.53, -639770.44, 79187.23, 0.066850394, -0.0732579, -438198.88, 100475.62, 0.0, 10.0010395, 9.998766 
1.12516016e+3, 2.5503257e+2, -475163.94, -595215.2, 77424.89, -0.11144358, -0.029889205, -437221.75, 3460.9277, 0.0, 10.0003395, 9.998739 
1.1251737e+3, 2.6503232e+2, -302659.72, -390375.22, 56959.93, -0.15264276, 0.048999064, -274629.1, 68056.74, 0.00000016860811, 10.000539, 9.999378 
1.12518825e+3, 2.750318e+2, -45523.85, -214541.95, 15699.324, -0.05389616, 0.01883342, -44077.98, 200610.42, 0.0000038179373, 10.001621, 9.99939 
1.12520166e+3, 2.850309e+2, -46874.42, -369691.75, 16321.7705, -0.03057436, 0.092853956, -46051.285, 100646.734, 0.000026510976, 10.001808, 9.997565 
1.1252139e+3, 2.9502928e+2, -77933.73, -329105.56, 44446.0, -0.07944524, 0.12327256, -70300.766, -21582.31, 0.00011807009, 10.0009, 9.997601 
1.1252271e+3, 3.0502647e+2, 152916.23, -14798.647, 51673.895, -0.018623117, 0.014041926, 167558.84, 167558.84, 0.0003550206, 10.001427, 9.999176 
1.1252403e+3, 3.150246e+2, 443522.5, 195141.97, 11108.966, 0.10163374, -0.12719625, 444018.38, 444018.38, 0.0007557848, 10.003014, 9.999867 
1.1349822e+3, 1.2501633e+2, -1924853.9, -1593144.4, -1309.5493, 0.094248734, -0.087385654, -1593139.3, 121702.7, 0.0011953667, 9.997541, 10.001986 
1.1349921e+3, 1.3501929e+2, -1817384.3, -1492370.6, 65081.65, -0.2110968, -0.02351989, -1479822.9, 136987.28, 0.00059164723, 9.997659, 10.001963 
1.1350084e+3, 1.450212e+2, -1747931.4, -1565889.3, 86993.67, 0.038292594, 0.050530907, -1531002.6, -12211.928, 0.00017336896, 9.998102, 10.000561 
1.1350216e+3, 1.5502127e+2, -1508053.0, -1401156.4, 88219.08, -0.028364006, -0.040217187, -1351457.6, 69333.23, 0.000015247707, 9.999101, 10.00053 
1.1350354e+3, 1.6502143e+2, -1407824.8, -1364582.0, 53060.777, -0.034450274, -0.041810095, -1328906.5, -6116.6216, 0.000000009421829, 9.999385, 9.999974 
1.1350504e+3, 1.750212e+2, -1349265.6, -1282787.0, 44723.832, 0.07030869, -0.100659095, -1260303.1, -35510.55, 0.0, 9.999109, 9.999994 
1.1350641e+3, 1.8502185e+2, -1212543.1, -1100647.1, -12923.154, 0.075367026, -0.054829925, -1099174.0, 27611.455, 0.0, 9.999081, 10.000598 
1.13507606e+3, 1.9502303e+2, -1074160.1, -988034.7, 25852.393, -0.029554786, -0.032114714, -980870.5, 47901.965, 0.0, 9.999359, 10.000572 
1.1350895e+3, 2.0502385e+2, -985323.7, -953767.44, 80365.83, -0.06858982, 0.031215195, -887645.5, 43118.24, 0.0, 9.999592, 9.999999 
1.1351045e+3, 2.1502396e+2, -862632.44, -844975.75, 117296.24, -0.025920287, 0.008000847, -736176.06, 96586.9, 0.0, 9.999767, 9.999992 
1.1351193e+3, 2.2502352e+2, -795706.3, -913900.0, 91735.44, -0.0021082947, 0.041325323, -745680.2, -10911.682, 0.0, 10.000178, 9.99866 
1.1351338e+3, 2.3502214e+2, -605350.06, -772003.4, 83135.98, 0.0014198162, -0.0025067367, -570969.75, 65814.52, 0.0, 10.000813, 9.998652 
1.1351478e+3, 2.4502148e+2, -470207.2, -588656.8, 35801.17, -0.015164027, 0.047754217, -460227.22, 78564.81, 0.0, 10.000813, 9.999224 
1.1351615e+3, 2.550213e+2, -466728.38, -537545.6, 70215.81, -0.030907106, 0.06847399, -423498.38, 17296.16, 0.0, 10.000161, 9.999223 
1.13517515e+3, 2.6502073e+2, -361490.6, -478067.97, 82432.914, -0.09752064, 0.11510611, -318820.13, 23980.496, 0.00000020663475, 10.000387, 9.998854 
1.1351886e+3, 2.7501917e+2, -109781.945, -312152.1, 82042.52, -0.21974339, 0.037770115, -80700.38, 164115.52, 0.0000055002247, 10.001457, 9.998805 
1.1352023e+3, 2.8501785e+2, 12705.17, -199811.83, -36254.79, -0.17799543, 0.03870269, 18719.9, 165547.7, 0.000033703815, 10.001623, 9.998815 
1.1352166e+3, 2.9501674e+2, -13572.377, -157176.16, 32938.83, 0.05555138, -0.0064678444, -6377.5713, 42459.727, 0.00013271971, 10.000732, 9.998864 
1.13522984e+3, 3.0501446e+2, 71045.78, -139088.14, 96908.586, 0.096580125, -0.08659239, 108913.56, 108913.56, 0.00037893685, 10.001241, 9.99841 
1.13524094e+3, 3.1501344e+2, 353877.66, 73602.734, 122318.766, -0.2068116, -0.07253464, 399752.0, 399752.0, 0.00079122034, 10.002738, 9.999165 
1.1449805e+3, 1.2500423e+2, -1997130.5, -1647065.0, -32627.98, 0.20745462, -0.024289703, -1644049.9, 70913.02, 0.0013373722, 9.997106, 10.001838 
1.14499025e+3, 1.3500695e+2, -1819065.5, -1490770.5, -3569.736, -0.14366575, 0.008218998, -1490731.6, 126200.74, 0.000672049, 9.997606, 10.002012 
1.1450066e+3, 1.4500862e+2, -1764178.6, -1564378.5, 57863.51, 0.06932068, 0.052593734, -1548830.8, -29916.424, 0.0002032588, 9.9979725, 10.000624 
1.1450209e+3, 1.550087e+2, -1604274.8, -1441071.4, 36104.055, 0.038136322, -0.039629355, -1433441.1, -12526.965, 0.000019742625, 9.998431, 10.000576 
1.145035e+3, 1.650089e+2, -1496249.1, -1408458.5, 55746.93, 0.023991566, -0.035928097, -1381399.5, -58486.45, 0.000000013934886, 9.998783, 9.999969 
1.1450494e+3, 1.7500882e+2, -1344312.6, -1276217.3, 67407.7, 0.062938854, -0.079885714, -1234746.4, -9831.495, 0.0, 9.999134, 10.000025 
1.1450633e+3, 1.8500952e+2, -1158961.4, -1081037.0, 65623.55, 0.07302138, -0.029249795, -1043680.75, 83226.98, 0.0, 9.999484, 10.000527 
1.14507616e+3, 1.9501063e+2, -1010289.9, -953917.0, 20729.994, 0.033967197, -0.009185438, -947114.75, 81780.01, 0.0, 9.999818, 10.000561 
1.14508994e+3, 2.050112e+2, -912315.5, -943037.44, 66290.06, 0.0018590402, 0.03686554, -859629.9, 71258.5, 0.0, 10.000169, 9.999808 
1.1451046e+3, 2.1501082e+2, -756155.5, -812752.2, 21680.307, -0.009519293, -0.019562058, -748805.1, 84087.26, 0.0, 10.000553, 9.999845 
1.1451196e+3, 2.250105e+2, -703491.6, -845660.75, 46687.883, -0.0017502429, 0.024091298, -689530.5, 45366.32, 0.0, 10.000737, 9.998845 
1.14513464e+3, 2.3500985e+2, -596166.3, -738597.06, 67971.42, 0.01866365, 0.03496901, -568935.0, 67970.65, 0.0, 10.000776, 9.998887 
1.145149e+3, 2.4500927e+2, -441982.13, -568636.94, 61043.414, 0.02966865, 0.07792362, -417351.25, 121560.4, 0.0, 10.000958, 9.999299 
1.14516295e+3, 2.5500858e+2, -287997.63, -434150.2, 33631.58, 0.04658284, 0.038481038, -280630.0, 160287.03, 0.0, 10.001321, 9.999368 
1.1451767e+3, 2.6500782e+2, -241694.58, -448358.84, 97962.55, -0.02376554, 0.06951559, -202639.25, 140285.7, 0.00000038376965, 10.001314, 9.998615 
1.1451901e+3, 2.7500644e+2, -205732.98, -379334.0, 82224.77, -0.17826882, 0.029664006, -172970.78, 71969.664, 0.0000075917305, 10.000884, 9.998618 
1.145204e+3, 2.850052e+2, -52788.664, -193327.84, -25151.488, -0.12736993, 0.030710444, -48423.055, 98528.49, 0.000041535674, 10.001004, 9.999166 
1.14521876e+3, 2.950041e+2, 129491.836, -45963.3, -62264.79, 0.1723675, -0.044987954, 149342.28, 198301.36, 0.00014998692, 10.001543, 9.999237 
1.1452324e+3, 3.0500203e+2, 211615.55, -114040.32, 76315.52, 0.19342446, -0.1043813, 228612.52, 228612.52, 0.00040888134, 10.002351, 9.998056 
1.1452438e+3, 3.1500164e+2, 359638.16, 52146.39, 59552.53, -0.19208425, 0.00247955, 370768.88, 370768.88, 0.0008408799, 10.002893, 9.998927 
1.1549768e+3, 1.24994524e+2, -2050569.9, -1749210.6, -119946.62, 0.057742383, 0.2555424, -1707298.5, 7765.7036, 0.001489488, 9.997075, 10.001145 
1.1549886e+3, 1.3499434e+2, -1876225.0, -1606584.5, 31585.205, -0.093922265, 0.0786672, -1602934.0, 14127.12, 0.00075867696, 9.997602, 10.001208 
1.1550041e+3, 1.4499438e+2, -1744925.1, -1532293.0, 52637.164, -0.02841692, -0.010412439, -1519976.1, -918.02594, 0.0002361324, 9.997986, 10.000851 
1.15502015e+3, 1.54996e+2, -1579037.9, -1397919.6, 69028.13, 0.075741805, 0.022462498, -1374611.1, 46430.97, 0.000024990082, 9.998454, 10.000871 
1.15503445e+3, 1.6499737e+2, -1442102.0, -1289024.6, 48177.996, 0.0503785, 0.08810012, -1275123.9, 47904.027, 0.000000023716384, 9.998762, 10.000792 
1.1550477e+3, 1.7499837e+2, -1298791.3, -1163775.8, 98483.1, -0.047505848, 0.06929017, -1111884.1, 113133.8, 0.0, 9.999066, 10.000823 
1.1550618e+3, 1.8499865e+2, -1223423.5, -1195308.9, 57400.66, -0.052641705, 0.076272234, -1150269.4, -23255.523, 0.0, 9.999399, 9.999783 
1.1550762e+3, 1.9499773e+2, -1080784.4, -1070564.1, 45989.61, 0.017999459, -0.036253486, -1029401.56, -380.96603, 0.0, 9.999686, 9.999824 
1.1550903e+3, 2.0499705e+2, -983799.75, -1051863.3, 55293.42, -0.012460994, -0.043162838, -952904.44, -21877.303, 0.0, 9.999996, 9.999144 
1.1551043e+3, 2.1499625e+2, -839726.44, -931100.8, 53570.363, -0.1340169, -0.07615838, -815006.94, 18030.555, 0.0, 10.000307, 9.999153 
1.1551194e+3, 2.2499628e+2, -667014.44, -711181.5, 29987.256, -0.12274975, -0.015964633, -651856.6, 83181.2, 0.0, 10.000485, 9.999888 
1.1551357e+3, 2.3499683e+2, -559142.1, -607182.75, 86468.63, 0.020121843, 0.012946385, -493419.44, 143611.81, 0.0, 10.000543, 9.999904 
1.1551506e+3, 2.4499635e+2, -488204.1, -610173.7, 51282.88, 0.05875199, 0.023288611, -469507.78, 69526.41, 0.0, 10.000722, 9.999127 
1.15516394e+3, 2.5499448e+2, -332660.03, -481370.06, 63342.84, -0.015569246, -0.11596469, -309337.1, 131712.92, 0.0, 10.001113, 9.999148 
1.1551777e+3, 2.6499358e+2, -265630.25, -450499.97, 65812.1, -0.06997394, -0.088343374, -244595.13, 98464.07, 0.0000005356376, 10.001116, 9.998691 
1.155192e+3, 2.7499336e+2, -220867.13, -371235.6, 87952.164, -0.10484369, -0.026889792, -180343.75, 64721.23, 0.000008957139, 10.000711, 9.998757 
1.1552062e+3, 2.8499287e+2, -105170.31, -261345.44, -22193.71, -0.04604922, 0.05672978, -102077.66, 44992.91, 0.000047577858, 10.000833, 9.998778 
1.15522e+3, 2.9499155e+2, 82860.05, -125592.93, -12944.277, 0.09565322, 0.0003657651, 83660.77, 132742.94, 0.00016516355, 10.001451, 9.998742 
1.1552343e+3, 3.0498925e+2, 172528.55, -144385.03, 84749.945, 0.11024672, -0.04840677, 193769.02, 193769.02, 0.00043860512, 10.002157, 9.997926 
1.1552473e+3, 3.149888e+2, 314932.03, 24589.09, 137248.53, -0.2110589, 0.06406694, 369540.22, 369540.22, 0.0008954558, 10.002613, 9.998869 
1.164973e+3, 1.2498176e+2, -1934929.5, -1738566.5, -49560.004, -0.06643274, 0.23404756, -1726767.1, -11579.551, 0.0016512593, 9.99806, 10.000735 
1.16498865e+3, 1.3498099e+2, -1767685.1, -1635051.0, 33391.73, 0.09585323, 0.07469951, -1627118.8, -9926.777, 0.0008513687, 9.998711, 10.000476 
1.165003e+3, 1.4498049e+2, -1675123.6, -1502163.0, 65998.35, 0.046416197, -0.029187301, -1479856.3, 39338.617, 0.00027198074, 9.998499, 10.000795 
1.1650183e+3, 1.5498227e+2, -1695030.5, -1460685.8, 16033.5205, 0.100358084, 0.024914917, -1459593.9, -38417.227, 0.00003101119, 9.997695, 10.000795 
1.1650328e+3, 1.6498381e+2, -1568011.8, -1347237.9, 21583.383, 0.06697892, 0.10714139, -1345147.6, -21986.379, 0.00000004774233, 9.997878, 10.000824 
1.16504714e+3, 1.7498487e+2, -1293359.4, -1163702.0, -25905.018, -0.0049080076, 0.09745971, -1158717.9, 66433.23, 0.0, 9.999086, 10.000831 
1.1650617e+3, 1.849851e+2, -1170283.0, -1174502.8, -46823.72, -0.010541886, 0.101412214, -1125521.6, 1626.2854, 0.0, 9.999777, 9.999744 
1.16507605e+3, 1.9498414e+2, -1027235.8, -1047403.2, -39389.332, 0.02022448, -0.013135222, -996659.94, 32495.322, 0.0, 10.000064, 9.999804 
1.16509035e+3, 2.0498349e+2, -965803.4, -1034038.6, 49833.848, -0.0037957784, -0.018256053, -939527.06, -8365.739, 0.0, 10.000106, 9.999201 
1.1651049e+3, 2.1498282e+2, -895626.94, -945060.75, 53407.527, -0.07477597, -0.045035854, -861494.1, -28324.234, 0.0, 9.999899, 9.99924 
1.1651201e+3, 2.2498277e+2, -748593.56, -742053.94, 64226.27, -0.056998838, -0.0021482052, -681014.3, 54156.035, 0.0, 9.999865, 9.999989 
1.16513625e+3, 2.3498295e+2, -633032.44, -631585.4, 23017.086, 0.055315733, -0.021141032, -609280.44, 27886.004, 0.0, 9.999969, 10.000024 
1.16515115e+3, 2.4498254e+2, -541176.06, -627647.0, 17149.195, 0.07434394, -0.014249274, -537899.1, 1269.0292, 0.0, 10.000319, 9.9992 
1.1651649e+3, 2.5498122e+2, -352256.28, -482509.22, 8806.978, -0.005680803, -0.108303554, -351663.5, 89515.4, 0.0, 10.000933, 9.999227 
1.1651791e+3, 2.6498026e+2, -262421.03, -448596.75, 20731.264, -0.03702448, -0.09054357, -260140.47, 83048.09, 0.00000056359414, 10.001146, 9.998685 
1.1651937e+3, 2.749794e+2, -199189.11, -361041.75, -6208.7397, -0.008180602, -0.0814427, -198951.28, 46248.38, 0.00000928475, 10.000885, 9.99874 
1.1652078e+3, 2.849788e+2, -38975.066, -274555.66, -35547.367, 0.0202352, 0.011425849, -33728.098, 113479.164, 0.000050789153, 10.001455, 9.998393 
1.16522156e+3, 2.94978e+2, 239338.28, -88515.805, -71229.13, 0.053700425, 0.041077644, 254144.73, 303360.88, 0.00017624088, 10.002699, 9.998388 
1.16523646e+3, 3.049756e+2, 302778.9, -122528.79, 33568.82, 0.07967664, 0.015393703, 305412.13, 305412.13, 0.00046429865, 10.00321, 9.997583 
1.165251e+3, 3.1497425e+2, 274591.63, -8997.8125, 9989.231, -0.07475429, 0.08065792, 274943.06, 274943.06, 0.00094360544, 10.002393, 9.998759 
1.1749701e+3, 1.2496617e+2, -1959327.4, -1759123.9, 30475.113, -0.23724137, -0.080190994, -1754587.6, -39257.21, 0.0018234614, 9.997964, 10.000633 
1.17498964e+3, 1.3496694e+2, -1814672.0, -1733819.8, 71252.69, 0.29795027, -0.013001936, -1692323.8, -74999.51, 0.0009506097, 9.998727, 9.99979 
1.1750027e+3, 1.4496705e+2, -1702316.4, -1552105.1, 16622.639, 0.11900505, -0.0055677127, -1550287.6, -30964.21, 0.00031097958, 9.998474, 10.000461 
1.17501505e+3, 1.5496768e+2, -1722941.5, -1518749.5, 5628.461, -0.038316183, -0.02919914, -1518594.5, -97277.76, 0.00003785508, 9.997691, 10.000399 
1.1750296e+3, 1.6496821e+2, -1630970.5, -1473870.4, 46521.887, -0.08363798, 0.014042659, -1461127.5, -137814.36, 0.00000010132158, 9.997859, 9.999961 
1.1750471e+3, 1.7496838e+2, -1358227.9, -1284697.0, 38211.77, 0.04656809, -0.007480316, -1268435.6, -43120.957, 0.0, 9.999025, 10.000029 
1.17506236e+3, 1.849691e+2, -1134027.9, -1075883.9, -55982.074, 0.045966633, 0.048598148, -1041875.2, 85433.05, 0.0, 9.99968, 10.000469 
1.1750752e+3, 1.9496994e+2, -996256.5, -954664.2, -7610.7485, -0.10190243, 0.04729873, -953315.3, 75982.34, 0.0, 9.999936, 10.000506 
1.1750896e+3, 2.0497052e+2, -947265.94, -955362.5, 21371.72, -0.11979722, 0.097542666, -929562.44, 1728.1195, 0.0, 9.999935, 9.999821 
1.1751059e+3, 2.1497047e+2, -881694.3, -871062.7, 61549.992, 0.013343447, 0.07002977, -814599.4, 18691.043, 0.0, 9.999695, 9.99985 
1.1751212e+3, 2.2496983e+2, -831513.94, -853368.9, 46497.516, 0.04460562, 0.05609086, -794677.1, -59381.08, 0.0, 9.999611, 9.999344 
1.1751355e+3, 2.349683e+2, -714658.56, -737712.2, 45120.78, -0.031922273, -0.071131825, -679615.5, -42305.246, 0.0, 9.999707, 9.999414 
1.1751503e+3, 2.4496798e+2, -559918.7, -611764.56, 22115.992, -0.0717827, -0.03630037, -551766.5, -12454.166, 0.0, 10.000076, 9.999431 
1.17516555e+3, 2.5496858e+2, -358747.22, -450928.13, 49043.652, -0.073122196, 0.035908762, -337535.3, 103769.805, 0.0, 10.000736, 9.999538 
1.17518045e+3, 2.6496762e+2, -301077.94, -487729.28, -9254.318, -0.05181249, 0.046261046, -300620.22, 42694.094, 0.0000005132723, 10.000964, 9.998509 
1.1751946e+3, 2.749646e+2, -230066.2, -398379.78, 5522.4487, -0.039784744, -0.14684603, -229885.2, 15459.749, 0.000009286575, 10.000762, 9.998548 
1.17520876e+3, 2.849632e+2, -97596.336, -355133.9, -4498.2397, -0.07064203, -0.10020259, -97517.79, 49843.047, 0.000051726838, 10.001286, 9.997918 
1.1752229e+3, 2.9496315e+2, 196747.08, -147651.33, 68.57166, -0.12960945, 0.05082845, 196747.1, 246111.22, 0.00018255804, 10.002562, 9.998052 
1.17523864e+3, 3.0496076e+2, 240847.14, -195370.55, -7362.398, -0.046937317, 0.057388816, 240971.36, 240971.36, 0.0004800074, 10.002995, 9.997177 
1.1752539e+3, 3.149582e+2, 230261.97, -27793.854, 25597.037, -0.08469909, 0.04421005, 232776.48, 232776.48, 0.0009690312, 10.002096, 9.998763 
1.1849685e+3, 1.2495088e+2, -1933013.0, -1729730.5, 6354.919, -0.17421547, -0.13651505, -1729532.0, -14054.111, 0.0020081834, 9.998029, 10.000824 
1.18498825e+3, 1.3495229e+2, -1904043.9, -1762458.0, -38827.297, 0.33435428, -0.026996516, -1752509.4, -135043.17, 0.0010574218, 9.998027, 9.999944 
1.1850012e+3, 1.4495297e+2, -1724982.3, -1595783.4, -19687.746, 0.14294092, 0.04362622, -1592850.0, -73389.04, 0.00035351914, 9.998436, 10.000192 
1.1850134e+3, 1.5495278e+2, -1468701.6, -1418987.5, -64451.082, -0.05105019, -0.037295062, -1374766.3, 46697.324, 0.00004562391, 9.999538, 10.000198 
1.1850281e+3, 1.6495296e+2, -1393572.9, -1362104.5, 51811.438, -0.09094525, -0.013781223, -1323690.9, -227.5652, 0.00000019883093, 9.999513, 9.999931 
1.1850459e+3, 1.749532e+2, -1442956.0, -1321590.4, 63420.863, 0.059209485, -0.030190835, -1294497.4, -69034.24, 0.0, 9.998443, 10.000046 
1.18506156e+3, 1.8495403e+2, -1323106.6, -1157097.4, 29637.973, 0.07596547, 0.03057295, -1151964.8, -24509.215, 0.0, 9.998331, 10.000567 
1.18507504e+3, 1.9495505e+2, -1099247.8, -990332.94, -9008.932, -0.05848706, 0.036571197, -989592.8, 39851.44, 0.0, 9.999165, 10.000636 
1.18508995e+3, 2.049558e+2, -956952.9, -952435.5, 2143.3184, -0.059054617, 0.09494923, -951580.44, -20144.654, 0.0, 9.999821, 9.999911 
1.18510656e+3, 2.1495593e+2, -783710.3, -806518.7, -26373.646, 0.09437545, 0.077024296, -766380.8, 67052.8, 0.0, 10.000299, 10.000002 
1.185122e+3, 2.249554e+2, -706179.25, -797260.3, -7216.8535, 0.122186735, 0.06802497, -705611.0, 29827.072, 0.0, 10.000492, 9.9993 
1.185136e+3, 2.3495379e+2, -625579.94, -701332.6, -7926.1245, 0.014629712, -0.06219705, -624759.5, 12693.613, 0.0, 10.000344, 9.999356 
1.18515074e+3, 2.4495342e+2, -514489.6, -584937.56, 36406.844, -0.039443225, -0.031226957, -499056.03, 40399.785, 0.0, 10.000375, 9.999473 
1.1851664e+3, 2.5495398e+2, -379106.56, -466691.9, 12328.74, -0.038874086, 0.038315177, -377404.25, 64045.484, 0.0, 10.000615, 9.999501 
1.18518166e+3, 2.6495314e+2, -286013.47, -476917.3, -22323.693, -0.01644473, 0.062591396, -283437.78, 60020.367, 0.0000005059796, 10.001076, 9.998516 
1.1851962e+3, 2.7495044e+2, -85591.81, -333839.03, -42388.863, 0.000878623, -0.095180705, -78553.36, 166932.19, 0.000009353779, 10.001786, 9.998493 
1.1852104e+3, 2.84949e+2, 26215.71, -310672.4, 22073.72, -0.054251067, -0.04157245, 27655.877, 175158.14, 0.000051580555, 10.002228, 9.997757 
1.1852251e+3, 2.9494867e+2, 153676.19, -189904.73, 4996.8965, -0.14419824, 0.101454444, 153748.84, 203258.34, 0.00018437536, 10.002378, 9.997843 
1.1852416e+3, 3.0494612e+2, 190860.69, -232953.0, 9481.444, -0.032503325, 0.108502686, 191072.7, 191072.7, 0.00048100852, 10.002675, 9.997087 
1.1852574e+3, 3.1494322e+2, 317701.4, 12658.09, -12276.556, 0.044827554, 0.06989671, 318194.7, 318194.7, 0.00096257555, 10.002661, 9.998784 
1.19496875e+3, 1.24935076e+2, -1900800.9, -1660162.3, -1717.2473, -0.04709703, -0.022821449, -1660150.0, 55488.01, 0.0022081332, 9.998023, 10.001294 
1.19498365e+3, 1.3493688e+2, -1820488.6, -1593998.5, -26894.453, 0.03341421, 0.011477137, -1590848.8, 26770.484, 0.0011730703, 9.998035, 10.001095 
1.194998e+3, 1.449381e+2, -1741766.8, -1623255.0, -1298.0737, -0.06918847, 0.08484161, -1623240.9, -103632.36, 0.00040013902, 9.998411, 10.000012 
1.1950131e+3, 1.5493764e+2, -1480477.6, -1447111.6, -5171.058, -0.076241046, -0.004296369, -1446328.6, -24712.574, 0.00005450229, 9.999547, 10.000003 
1.1950278e+3, 1.6493817e+2, -1338119.6, -1245484.6, -10908.765, -0.101189494, 0.022269363, -1244217.4, 79393.56, 0.00000035173326, 9.999499, 10.000742 
1.1950431e+3, 1.7493941e+2, -1394546.4, -1214026.6, 39123.918, -0.105428584, 0.028229032, -1205912.0, 19683.852, 0.0, 9.998404, 10.00081 
1.19505875e+3, 1.8493992e+2, -1373125.6, -1242357.5, 40701.836, -0.072325945, 0.049719606, -1230724.0, -103134.45, 0.0, 9.998254, 10.000017 
1.1950751e+3, 1.9493943e+2, -1156756.5, -1081062.6, 39653.598, -0.002882955, -0.043368325, -1064093.6, -34498.52, 0.0, 9.999036, 10.000076 
1.1950909e+3, 2.0493937e+2, -1006295.2, -1008909.94, -301.51978, 0.028409742, -0.02516604, -1006260.9, -74664.234, 0.0, 9.999631, 9.99961 
1.1951064e+3, 2.1493939e+2, -841276.56, -869751.25, 10319.699, 0.028093932, -0.024219431, -837929.9, -4332.3594, 0.0, 10.000059, 9.999683 
1.19512185e+3, 2.2493954e+2, -714256.1, -752374.5, -32783.348, 0.03447368, 0.030889364, -695394.4, 40201.266, 0.0, 10.000228, 9.999734 
1.1951368e+3, 2.349395e+2, -626753.7, -648217.8, 990.234, 0.049159713, 0.00974478, -626708.1, 10885.982, 0.0, 10.000109, 9.999829 
1.19515195e+3, 2.4493901e+2, -561321.6, -628627.5, 25899.016, 0.019794837, 0.013584873, -552509.5, -12911.899, 0.0, 10.000146, 9.999287 
1.1951671e+3, 2.549377e+2, -421489.94, -500491.16, 40981.137, -0.06211834, -0.08547991, -404071.72, 37538.137, 0.0, 10.000391, 9.999373 
1.19518235e+3, 2.6493707e+2, -319041.56, -497669.5, -13278.906, -0.07872359, -0.030858634, -318059.84, 25557.217, 0.0000006389743, 10.000864, 9.998482 
1.19519785e+3, 2.7493683e+2, -109238.3, -338856.47, 5356.652, -0.031678595, 0.056649588, -109113.41, 136508.94, 0.000009301616, 10.001601, 9.998548 
1.1952129e+3, 2.8493616e+2, 5788.9746, -316012.38, 13007.496, -0.06689409, 0.18068439, 6313.8926, 153946.27, 0.00005191434, 10.002062, 9.997806 
1.1952275e+3, 2.949345e+2, 131359.89, -201875.47, 38381.77, -0.17860238, 0.1837103, 135723.53, 185375.94, 0.00018470343, 10.002215, 9.997845 
1.1952443e+3, 3.0493167e+2, 154779.97, -246917.6, 1614.6387, -0.045670222, 0.16614601, 154786.45, 154786.45, 0.00047307427, 10.002437, 9.997092 
1.1952605e+3, 3.149291e+2, 273597.06, -3483.1897, 38989.566, 0.009754904, 0.1499717, 278979.0, 278979.0, 0.0009340092, 10.002357, 9.998807 
1.2049688e+3, 1.2492013e+2, -1996876.4, -1720399.9, 80372.016, 0.2028944, 0.10620986, -1698733.6, 17054.512, 0.0024257244, 9.99744, 10.001167 
1.2049803e+3, 1.3492109e+2, -1822144.3, -1547448.5, -47611.445, -0.0750077, 0.023941536, -1539430.4, 78346.94, 0.0012988481, 9.997854, 10.001488 
1.2049961e+3, 1.4492235e+2, -1805006.0, -1634409.4, 22615.518, -0.07380861, 0.073279925, -1631462.1, -111696.37, 0.00045139206, 9.997876, 10.000201 
1.2050122e+3, 1.5492287e+2, -1710562.5, -1533905.0, -594.67737, -0.02071622, 0.060745664, -1533903.0, -112138.945, 0.00006471426, 9.997854, 10.000226 
1.2050271e+3, 1.6492376e+2, -1534492.3, -1307456.8, 1389.9558, -0.0379356, 0.09723932, -1307448.3, 16306.373, 0.00000057087306, 9.99802, 10.0010195 
1.2050414e+3, 1.7492466e+2, -1351031.4, -1156908.8, -24636.402, -0.104999356, 0.04261778, -1153830.9, 71909.664, 0.0, 9.998564, 10.001114 
1.2050571e+3, 1.8492505e+2, -1294107.8, -1210689.3, 40688.426, -0.080817096, 0.03836736, -1194130.1, -66395.71, 0.0, 9.99884, 9.99994 
1.2050742e+3, 1.9492452e+2, -1180903.4, -1095114.9, 39731.633, 0.029530581, -0.0522, -1079541.0, -49800.895, 0.0, 9.9989, 10.00003 
1.2050907e+3, 2.0492436e+2, -1081706.5, -1051823.0, 65041.34, 0.07265031, -0.039543927, -1000029.2, -68286.5, 0.0, 9.999113, 9.999573 
1.2051063e+3, 2.149242e+2, -931962.7, -922654.0, 55429.766, 0.04868307, -0.055139348, -871683.5, -37937.46, 0.0, 9.999438, 9.999633 
1.20512195e+3, 2.2492437e+2, -753361.56, -783189.6, 42932.977, 0.042400528, 0.0118554365, -722825.94, 12918.422, 0.0, 10.000007, 9.999635 
1.2051373e+3, 2.3492464e+2, -522978.63, -613230.4, 1842.4275, 0.059597697, 0.034904357, -522941.03, 114799.76, 0.0, 10.00088, 9.999707 
1.20515294e+3, 2.4492408e+2, -421186.22, -599773.2, 17925.205, 0.06016888, 0.056579687, -419404.8, 120341.35, 0.0, 10.00129, 9.998916 
1.2051686e+3, 2.549223e+2, -333569.56, -503510.78, -25075.057, 0.021409888, -0.05334222, -329946.94, 111818.01, 0.00000000020898414, 10.001197, 9.998953 
1.20518394e+3, 2.6492158e+2, -253980.81, -432600.78, -30710.604, -0.014207509, -0.004787125, -248848.14, 94924.96, 0.00000074892756, 10.001143, 9.998799 
1.205199e+3, 2.7492163e+2, -160706.75, -329678.06, -25454.232, -0.042965207, 0.083125874, -156955.55, 88817.586, 0.000009032264, 10.001073, 9.998868 
1.2052146e+3, 2.8492096e+2, -70408.445, -338466.88, 37783.1, -0.06976325, 0.18075383, -65184.68, 82597.27, 0.000052136886, 10.001479, 9.997936 
1.2052305e+3, 2.94919e+2, 143977.94, -178405.86, 20730.125, -0.09517717, 0.14569038, 145305.47, 195109.63, 0.0001849306, 10.002254, 9.997981 
1.2052478e+3, 3.049164e+2, 275977.4, -177058.25, 33297.4, 0.03767191, 0.14178075, 278411.66, 278411.66, 0.0004665325, 10.003215, 9.9972 
1.2052636e+3, 3.1491393e+2, 488625.28, 117962.33, 1604.284, 0.025266713, 0.12475914, 488632.25, 488632.25, 0.00090609276, 10.003791, 9.998941 
1.2149656e+3, 1.2490518e+2, -2031378.3, -1776425.9, -64484.176, 0.05957741, 0.15943815, -1761044.1, -45107.668, 0.0026624324, 9.997403, 10.000789 
1.214978e+3, 1.3490494e+2, -1857539.6, -1620871.8, -24059.771, -0.12351266, 0.009994871, -1618450.5, -511.1792, 0.0014356553, 9.997858, 10.000983 
1.21499486e+3, 1.4490578e+2, -1756516.9, -1533259.1, -2476.0554, -0.025038425, 0.0063954694, -1533231.6, -13299.365, 0.0005075534, 9.997881, 10.00089 
1.21501036e+3, 1.5490845e+2, -1669045.8, -1445895.8, 19940.707, -0.029137205, 0.14370441, -1444127.9, -22220.252, 0.000076397075, 9.997843, 10.000838 
1.21502526e+3, 1.6490963e+2, -1553851.3, -1341839.3, 2608.3308, -0.06541249, 0.19219016, -1341807.1, -17912.428, 0.0000008702971, 9.998003, 10.000785 
1.2150405e+3, 1.7490898e+2, -1378367.8, -1198504.1, 13630.038, -0.083793625, 0.0062916595, -1197477.1, 28419.654, 0.0, 9.998499, 10.00086 
1.2150562e+3, 1.8490933e+2, -1274230.5, -1147445.4, 23535.785, -0.09856499, -0.014666052, -1143217.3, -15326.774, 0.0, 9.998749, 10.000419 
1.2150721e+3, 1.949103e+2, -1168473.8, -1039432.75, 60418.742, -0.108239666, -0.00018277393, -1015560.25, 14319.178, 0.0, 9.998772, 10.000477 
1.2150886e+3, 2.0491076e+2, -1096284.8, -1037580.75, 55401.953, -0.07196483, 0.042353798, -1004235.75, -72361.05, 0.0, 9.998924, 9.999758 
1.2151056e+3, 2.1491039e+2, -953708.75, -905655.3, 82149.836, 0.006071859, -0.015533973, -844090.7, -10211.702, 0.0, 9.999172, 9.999873 
1.2151217e+3, 2.2491005e+2, -834916.0, -894363.56, 54540.973, 0.002663356, 0.016177893, -802525.2, -66641.91, 0.0, 9.99975, 9.998999 
1.2151371e+3, 2.349094e+2, -599420.5, -718073.8, 53256.29, -0.08265091, 0.011110652, -579023.4, 58867.94, 0.0, 10.000646, 9.999099 
1.2151533e+3, 2.4490875e+2, -511099.97, -721944.0, -1300.7126, -0.06398675, 0.08779725, -511091.94, 28808.729, 0.0, 10.001015, 9.998207 
1.21517055e+3, 2.5490773e+2, -415576.22, -622407.44, -9841.66, 0.065840356, 0.12307291, -415109.0, 26806.215, 0.00000000018849695, 10.000974, 9.9982395 
1.2151858e+3, 2.6490662e+2, -242662.22, -356130.56, -49448.547, 0.031546332, 0.14045274, -224137.34, 119788.49, 0.00000061447383, 10.000913, 9.999439 
1.2151991e+3, 2.74905e+2, -138268.06, -244149.83, -5637.111, -0.17993777, -0.0074548367, -137968.78, 107967.99, 0.000008322687, 10.0008955, 9.999547 
1.2152147e+3, 2.849036e+2, -104848.37, -344607.88, 50163.88, -0.22049789, -0.0178111, -94775.94, 53173.098, 0.000050710027, 10.00122, 9.99801 
1.2152334e+3, 2.9490224e+2, 124955.32, -174251.39, 76627.96, -0.06609099, -0.0070514977, 143438.28, 193403.06, 0.00018357177, 10.002074, 9.99809 
1.2152517e+3, 3.049003e+2, 255591.69, -175817.58, 41711.664, 0.07094953, 0.044021048, 259587.66, 259587.66, 0.00046227945, 10.00303, 9.997302 
1.2152658e+3, 3.1489757e+2, 454554.72, 126254.19, 63959.016, -0.20014848, -0.0105401855, 466575.0, 466575.0, 0.0008888424, 10.003453, 9.999164 
1.2249624e+3, 1.2488938e+2, -2200796.8, -1832701.4, -14992.04, 0.09677568, 0.10486708, -1832091.8, -116000.49, 0.0029179724, 9.9961, 10.001037 
1.2249763e+3, 1.348902e+2, -1904661.6, -1650079.5, 45987.414, -0.046350133, 0.0632967, -1642027.0, -23942.299, 0.0015834377, 9.997548, 10.000937 
1.2249933e+3, 1.4489098e+2, -1703241.8, -1497988.5, 74193.76, 0.019800417, 0.052687116, -1473978.1, 46100.066, 0.00056846405, 9.998224, 10.000958 
1.2250089e+3, 1.5489332e+2, -1570943.0, -1376487.9, 4062.3025, 0.028850561, 0.14504878, -1376403.1, 45652.8, 0.00008951281, 9.998462, 10.000994 
1.2250242e+3, 1.6489431e+2, -1487890.9, -1355917.5, 17761.252, 0.005624483, 0.18304044, -1353568.9, -29523.793, 0.0000012652538, 9.998604, 10.000432 
1.22503966e+3, 1.7489356e+2, -1370906.0, -1230720.8, -12328.667, -0.017854128, 0.02092328, -1229644.8, -3595.228, 0.0, 9.998678, 10.00057 
1.22505546e+3, 1.848939e+2, -1247896.4, -1145364.8, 11447.634, -0.038998418, 0.017876115, -1144102.1, -16058.193, 0.0, 9.998945, 10.000354 
1.22507155e+3, 1.9489495e+2, -1073893.8, -1003938.06, -29665.275, -0.06430691, 0.04901811, -993052.2, 36980.047, 0.0, 9.999444, 10.000412 
1.225088e+3, 2.0489542e+2, -1005370.06, -988677.3, -29655.344, -0.043548696, 0.095057435, -966216.2, -34189.168, 0.0, 9.99955, 9.999781 
1.22510485e+3, 2.1489495e+2, -942029.3, -895954.06, -54857.03, 0.017070211, 0.026478685, -859493.56, -25462.129, 0.0, 9.999265, 9.999881 
1.2251215e+3, 2.2489445e+2, -852479.0, -916670.25, 1923.8182, 0.01846657, 0.047528304, -852421.44, -116383.98, 0.0, 9.999675, 9.998884 
1.2251379e+3, 2.3489353e+2, -592217.2, -732411.1, -4893.968, -0.05074875, 0.028400829, -592046.56, 46002.664, 0.0, 10.000754, 9.998957 
1.22515455e+3, 2.4489298e+2, -490451.72, -680224.8, -16958.455, -0.030245025, 0.10933133, -488948.2, 51109.344, 0.0, 10.000999, 9.998514 
1.22517124e+3, 2.5489253e+2, -474782.06, -613436.8, 13892.259, 0.08272187, 0.17091003, -473403.88, -31338.578, 0.0, 10.0004015, 9.998585 
1.22518666e+3, 2.6489154e+2, -316214.53, -406994.44, 46905.203, 0.061481986, 0.18963684, -296333.16, 47741.016, 0.0000003685213, 10.000504, 9.9992695 
1.2252007e+3, 2.748896e+2, -97739.46, -241328.6, -15454.918, -0.116345175, 0.026819674, -96094.84, 149993.55, 0.0000073761885, 10.001297, 9.99935 
1.22521676e+3, 2.848878e+2, 5192.59, -298713.34, 49471.742, -0.1596501, -0.012937215, 13043.119, 161146.92, 0.000049087277, 10.001957, 9.99798 
1.2252358e+3, 2.9488596e+2, 152839.38, -172444.2, 34397.844, -0.03274875, -0.042042296, 156437.06, 206559.48, 0.00018153466, 10.002276, 9.998021 
1.22525476e+3, 3.048843e+2, 235635.64, -167033.55, 38903.64, 0.09919256, 0.029990248, 239359.84, 239359.84, 0.00045750884, 10.002824, 9.997441 
1.2252699e+3, 3.1488168e+2, 410765.44, 92367.98, -23678.912, -0.09578784, -0.026438488, 412516.78, 412516.78, 0.0008772591, 10.003167, 9.999064 
1.2349584e+3, 1.24873206e+2, -2125946.3, -1699298.5, 2034.9794, 0.0010434364, -0.024217894, -1699288.8, 16959.38, 0.0031899144, 9.996174, 10.001922 
1.2349745e+3, 1.348768e+2, -1869474.1, -1589922.5, 108588.164, -0.02617986, 0.16772425, -1552699.3, 65514.41, 0.0017411282, 9.9975815, 10.00134 
1.2349905e+3, 1.4487782e+2, -1738431.5, -1584074.9, 58257.01, -0.13868064, 0.18932249, -1564555.9, -44351.242, 0.0006337289, 9.998269, 10.000354 
1.2350076e+3, 1.5487735e+2, -1606717.1, -1462378.8, 24889.68, 0.009378813, 0.06256882, -1458207.4, -35997.004, 0.00010392506, 9.998489, 10.000405 
1.23502344e+3, 1.6487762e+2, -1502434.8, -1387502.9, -6207.961, 0.027893975, 0.06875563, -1387168.5, -62960.92, 0.0000017603737, 9.998611, 10.000208 
1.23503834e+3, 1.7487831e+2, -1390557.6, -1271103.5, 5364.297, -0.058113396, 0.07419666, -1270863.1, -44663.734, 0.0, 9.998665, 10.0003 
1.2350546e+3, 1.8487872e+2, -1301024.0, -1241568.8, 11533.306, -0.06284264, 0.12317511, -1239409.9, -111214.73, 0.0, 9.998883, 9.999723 
1.235072e+3, 1.9487855e+2, -1133465.5, -1099379.4, 7298.418, 0.008371929, 0.09215976, -1097882.4, -67684.79, 0.0, 9.999317, 9.999817 
1.2350884e+3, 2.0487843e+2, -1044458.9, -1025404.94, -61307.008, 0.0123921, 0.11647843, -972889.06, -40690.207, 0.0, 9.999359, 9.999622 
1.2351036e+3, 2.1487796e+2, -984831.44, -937243.5, -47474.39, -0.051594675, 0.065441206, -907934.06, -73731.7, 0.0, 9.999056, 9.999701 
1.23512074e+3, 2.2487764e+2, -862647.06, -888176.9, 25371.297, -0.05331236, 0.09926942, -847010.44, -110804.35, 0.0, 9.999455, 9.999191 
1.2351397e+3, 2.3487714e+2, -607366.56, -706804.56, 57228.83, 0.006784966, 0.08942956, -581275.8, 56937.65, 0.0, 10.000502, 9.999259 
1.2351561e+3, 2.4487695e+2, -439396.78, -509854.6, -55362.64, -0.0014172579, 0.12748681, -409004.8, 131210.66, 0.0, 10.000724, 9.999817 
1.23517044e+3, 2.5487676e+2, -410825.0, -433262.8, 10537.528, -0.06792036, 0.08353855, -406652.25, 35562.805, 0.0, 10.00019, 9.999929 
1.23518616e+3, 2.6487628e+2, -426802.2, -578642.44, 58148.53, -0.07245767, 0.1353604, -407092.22, -62873.313, 0.00000016286783, 10.00026, 9.998208 
1.2352034e+3, 2.748751e+2, -201881.45, -416578.25, 35987.152, -0.013535586, 0.1585351, -196009.9, 50221.234, 0.000006622681, 10.0011215, 9.998231 
1.2352202e+3, 2.8487316e+2, -28574.256, -318549.38, 48396.008, -0.05187082, 0.16664416, -20710.365, 127539.22, 0.000048750662, 10.00175, 9.997942 
1.23523705e+3, 2.9487014e+2, 125487.586, -186270.83, 72593.56, -0.17498367, 0.019648887, 141562.31, 191840.06, 0.00018217463, 10.002086, 9.99802 
1.23525634e+3, 3.0486837e+2, 207431.13, -176588.64, 43235.457, -0.05048636, 0.0790943, 212238.66, 212238.66, 0.00045752534, 10.002616, 9.9974785 
1.23527505e+3, 3.1486621e+2, 334093.75, 9504.573, 28744.168, 0.014018585, 0.060852878, 336619.53, 336619.53, 0.00087459444, 10.002849, 9.998645 
1.244955e+3, 1.24857284e+2, -1819950.8, -1556310.0, 24928.979, -0.060628615, -0.02779517, -1553973.5, 162428.64, 0.003475539, 9.998326, 10.001853 
1.2449724e+3, 1.3486047e+2, -1988385.1, -1667614.3, -29264.41, 0.06811457, 0.13893577, -1664966.4, -46593.555, 0.0019075654, 9.996856, 10.001161 
1.2449885e+3, 1.448615e+2, -1956505.3, -1679214.4, 7822.891, -0.06958839, 0.17033535, -1678993.9, -158630.31, 0.0007030745, 9.996733, 10.000437 
1.24500625e+3, 1.5486108e+2, -1606850.6, -1458994.0, -14960.791, 0.030131048, 0.038801808, -1457495.4, -35127.2, 0.00011956255, 9.998458, 10.000446 
1.24502234e+3, 1.6486132e+2, -1432005.4, -1370160.8, -19971.943, 0.03872652, 0.048572276, -1364271.8, -39905.797, 0.0000023468863, 9.999189, 10.000032 
1.2450375e+3, 1.74862e+2, -1352326.4, -1270907.3, -46772.48, -0.020714073, 0.07198509, -1249609.3, -23249.828, 0.0, 9.999029, 10.000114 
1.2450539e+3, 1.848623e+2, -1279550.8, -1241239.6, 29911.252, -0.011751274, 0.123536624, -1224876.0, -96519.17, 0.0, 9.999086, 9.999619 
1.2450718e+3, 1.9486181e+2, -1129474.9, -1110958.5, 29618.623, 0.05200007, 0.07045659, -1089184.8, -58822.79, 0.0, 9.999405, 9.99969 
1.24508835e+3, 2.0486146e+2, -959302.3, -1013409.6, 11844.511, 0.050775863, 0.09176588, -956823.06, -24457.723, 0.0, 10.000064, 9.999366 
1.245104e+3, 2.1486092e+2, -719148.7, -835285.44, -19158.01, -0.010633676, 0.056356985, -716070.0, 118300.18, 0.0, 10.000991, 9.999468 
1.2451212e+3, 2.2486064e+2, -656071.44, -773539.5, 61014.4, -0.011757542, 0.10069244, -630115.2, 106258.31, 0.0, 10.000847, 9.999287 
1.2451399e+3, 2.348603e+2, -735297.75, -749833.25, 36808.95, 0.04356791, 0.0958634, -705045.94, -66666.99, 0.0, 9.999585, 9.999382 
1.2451565e+3, 2.4486008e+2, -601541.75, -589684.6, -71113.22, 0.032871425, 0.124242, -524253.25, 16127.618, 0.0, 9.999619, 9.999795 
1.2451711e+3, 2.548597e+2, -299842.88, -377263.1, -139451.34, -0.045166813, 0.062681645, -193828.6, 248553.13, 0.0, 10.000959, 9.9999275 
1.2451875e+3, 2.64859e+2, -204150.88, -504776.44, -69714.33, -0.034074973, 0.103684686, -188771.11, 155616.55, 0.000000050542315, 10.001895, 9.997942 
1.2452057e+3, 2.748575e+2, -46835.01, -376053.66, -66990.31, 0.069262475, 0.12551409, -33725.65, 212677.23, 0.0000061370592, 10.002295, 9.997965 
1.245223e+3, 2.8485548e+2, 64876.867, -286107.06, -4968.181, 0.02721577, 0.1486196, 64947.18, 213369.16, 0.000049451548, 10.002465, 9.997815 
1.2452394e+3, 2.9485264e+2, 159417.2, -176389.28, -33900.664, -0.15709022, 0.0323612, 162805.39, 213254.08, 0.00018750013, 10.00238, 9.997932 
1.24525905e+3, 3.0485094e+2, 239897.61, -137423.53, 301.37317, -0.036226906, 0.08739496, 239897.86, 239897.86, 0.000470274, 10.00271, 9.99772 
1.2452794e+3, 3.1484887e+2, 381561.2, 8131.115, -75702.805, 0.16428798, 0.06627564, 396324.22, 396324.22, 0.0008945071, 10.003276, 9.998445 
1.2549534e+3, 1.2484129e+2, -1882880.9, -1708458.0, 6461.36, -0.11996234, 0.049920805, -1708219.0, 8337.645, 0.0037739007, 9.998408, 10.000771 
1.2549701e+3, 1.3484143e+2, -2031647.4, -1768032.0, -73088.195, 0.111220814, -0.016775258, -1749124.3, -130564.68, 0.0020822603, 9.996898, 10.000456 
1.2549871e+3, 1.448423e+2, -1898400.0, -1565832.1, 49757.48, 0.07326994, -0.0050176363, -1558547.1, -37994.527, 0.0007764397, 9.996761, 10.0012 
1.255004e+3, 1.5484469e+2, -1550826.9, -1344397.1, 67619.16, -0.069550715, 0.06526232, -1324219.6, 98308.1, 0.00013646827, 9.998464, 10.001229 
1.2550204e+3, 1.6484557e+2, -1450062.5, -1412348.6, -47660.39, -0.11106594, 0.114662714, -1379950.4, -55431.44, 0.0000030208696, 9.999201, 9.999743 
1.2550367e+3, 1.7484479e+2, -1371966.1, -1310170.4, -37202.82, -0.03422694, 0.019218326, -1292707.9, -66179.766, 0.0, 9.999014, 9.999855 
1.2550533e+3, 1.8484464e+2, -1256943.3, -1180395.5, 20880.213, -0.01967609, 0.017170617, -1175070.4, -46541.395, 0.0, 9.999024, 10.00007 
1.2550703e+3, 1.9484471e+2, -1110733.4, -1051311.6, 58049.754, -0.07135705, -0.025499685, -1015811.2, 14714.556, 0.0, 9.99931, 10.000147 
1.2550876e+3, 2.0484455e+2, -1012831.9, -1079262.4, 26206.793, -0.069049224, 0.008169556, -1003738.2, -71211.57, 0.0, 9.99987, 9.99901 
1.2551053e+3, 2.1484385e+2, -781628.44, -907497.75, 33495.71, -0.011812657, -0.0014612552, -773269.8, 61264.41, 0.0, 10.00074, 9.999099 
1.2551221e+3, 2.2484341e+2, -706833.5, -813095.0, -4000.0564, -0.015672687, 0.05188162, -706683.1, 29856.916, 0.0, 10.00057, 9.999145 
1.2551385e+3, 2.3484287e+2, -773799.6, -784144.2, 8488.644, -0.0767541, 0.039285824, -769031.56, -130484.38, 0.0, 9.999386, 9.999242 
1.2551554e+3, 2.4484228e+2, -719835.06, -783997.1, -39689.86, -0.07474173, 0.096969955, -700882.0, -160327.5, 0.0, 9.999397, 9.998568 
1.2551728e+3, 2.5484127e+2, -423218.78, -585062.25, -69431.55, -0.0039788364, 0.09833071, -397514.7, 45050.758, 0.0, 10.00074, 9.99861 
1.2551902e+3, 2.648396e+2, -204350.17, -447181.3, -71412.11, 0.016205221, 0.08952952, -184906.13, 159674.17, 0.00000007625481, 10.001651, 9.998452 
1.2552074e+3, 2.7483696e+2, -36346.617, -307965.34, -28790.203, -0.017870808, -0.061835494, -33328.54, 213273.69, 0.0000061507535, 10.002094, 9.99853 
1.2552248e+3, 2.8483504e+2, 16615.422, -341525.4, -23306.66, -0.07836589, -0.044555996, 18125.775, 166744.72, 0.000051588533, 10.002276, 9.9975195 
1.2552422e+3, 2.9483354e+2, 115701.08, -233445.2, -13636.916, -0.14833736, -0.0028391562, 116232.9, 166867.53, 0.00020006, 10.002234, 9.997606 
1.2552622e+3, 3.0483186e+2, 248862.38, -91842.12, 8642.155, -0.021652926, 0.05444721, 249081.44, 249081.44, 0.0005036429, 10.00259, 9.998088 
1.2552819e+3, 3.1482986e+2, 330834.6, -30621.203, -10310.315, 0.01936962, -0.0053210626, 331128.44, 331128.44, 0.0009532297, 10.002982, 9.998322 
1.2649521e+3, 1.2482427e+2, -2214841.8, -1888886.3, 73928.18, 0.030048694, -0.0017298933, -1872902.8, -156180.8, 0.004085261, 9.996225, 10.000607 
1.2649675e+3, 1.3482453e+2, -1799397.5, -1633878.6, -2703.0386, 0.107658446, -0.058598172, -1633834.5, -15110.673, 0.0022650692, 9.998433, 10.000626 
1.264986e+3, 1.4482552e+2, -1562491.5, -1411779.5, 171046.53, 0.16504233, -0.041554503, -1300225.3, 220490.48, 0.00085386867, 9.999101, 10.001134 
1.265002e+3, 1.5482803e+2, -1551268.0, -1350924.3, 82045.086, -0.10262201, 0.053203125, -1321613.4, 101076.305, 0.00015477135, 9.998507, 10.001163 
1.2650187e+3, 1.6482908e+2, -1576753.4, -1471683.1, -27327.186, -0.14051457, 0.121819094, -1465000.6, -140321.11, 0.0000038088367, 9.998344, 9.999736 
1.2650362e+3, 1.7482837e+2, -1393933.5, -1324089.6, -36170.29, 0.030737458, 0.035432413, -1308734.0, -82045.84, 0.0, 9.998888, 9.999818 
1.2650532e+3, 1.8482813e+2, -1220889.6, -1187345.6, 48493.906, 0.064867154, 0.036023963, -1152805.3, -24114.94, 0.0, 9.999372, 9.999858 
1.26507e+3, 1.9482797e+2, -1061033.1, -1050860.9, -3308.9946, -0.053005785, -0.0043944027, -1049879.3, -19189.455, 0.0, 9.999766, 9.999929 
1.2650874e+3, 2.0482764e+2, -984344.44, -1058394.8, -1746.6674, -0.0707613, 0.021340366, -984303.25, -51610.945, 0.0, 10.00003, 9.999073 
1.2651059e+3, 2.1482678e+2, -868331.8, -941828.6, -2601.6448, 0.008471967, -0.0147556905, -868239.8, -33538.57, 0.0, 10.000107, 9.999162 
1.265123e+3, 2.2482629e+2, -714380.75, -832185.5, -9517.382, 0.019686665, 0.036425907, -713616.75, 23090.43, 0.0, 10.0005665, 9.999026 
1.2651393e+3, 2.3482591e+2, -487936.97, -659224.0, -30898.264, -0.035300482, 0.05414593, -482533.72, 156179.0, 0.0, 10.001394, 9.999141 
1.2651563e+3, 2.4482508e+2, -407464.5, -673008.9, 11826.651, -0.033365503, 0.10886606, -406938.8, 133783.48, 0.0, 10.001696, 9.998237 
1.2651742e+3, 2.548234e+2, -344906.53, -586923.4, 16048.704, 0.032127615, 0.07807103, -343846.94, 98892.9, 0.0, 10.0014305, 9.99828 
1.2651922e+3, 2.6482132e+2, -214329.88, -483942.47, 63006.336, 0.051859368, 0.061029077, -200332.5, 144426.47, 0.00000015326442, 10.001735, 9.998154 
1.2652099e+3, 2.7481854e+2, 17587.326, -308910.8, -1242.7751, 0.01593257, -0.071784005, 17592.057, 264374.9, 0.0000068361555, 10.002604, 9.998262 
1.2652276e+3, 2.848166e+2, 109104.18, -303918.4, -9144.779, -0.033782333, -0.047880616, 109306.56, 258106.98, 0.000055437977, 10.002916, 9.997484 
1.2652454e+3, 2.9481503e+2, 193405.1, -203022.83, -18473.07, -0.07341696, -0.0013251905, 194264.05, 245079.66, 0.00021969865, 10.002774, 9.997572 
1.2652652e+3, 3.048127e+2, 334719.72, -54341.41, 61244.168, 0.0032203132, -0.0029168462, 344132.75, 344132.75, 0.00055763865, 10.0032215, 9.998033 
1.265285e+3, 3.1481114e+2, 446566.53, 5537.5674, -70839.6, 0.01029523, -0.009766164, 457665.7, 457665.7, 0.001054668, 10.003895, 9.998121 
1.2749483e+3, 1.24807246e+2, -2134578.3, -1737056.4, -28327.354, -0.061542287, -0.085456945, -1735047.9, -18159.371, 0.0044096503, 9.996293, 10.001606 
1.274964e+3, 1.3480984e+2, -1738890.9, -1510343.3, 90862.055, -0.108110756, 0.004196341, -1478622.5, 140242.17, 0.0024558255, 9.998431, 10.001477 
1.274984e+3, 1.4481123e+2, -1617555.8, -1540472.0, 128872.14, 0.005629097, 0.06066766, -1444501.8, 76350.445, 0.00093550276, 9.999155, 10.000225 
1.2749998e+3, 1.5481132e+2, -1611052.5, -1486834.8, 77979.24, -0.20654419, 0.0047327643, -1449252.8, -26400.514, 0.00017466526, 9.998548, 10.000212 
1.275017e+3, 1.6481185e+2, -1551719.5, -1435264.3, -28377.756, -0.19815025, 0.05801729, -1428717.3, -103869.39, 0.0000047674703, 9.998401, 9.999963 
1.2750356e+3, 1.7481264e+2, -1375884.0, -1291259.8, 1630.1062, 0.035548378, 0.09716043, -1291228.4, -64387.734, 0.0, 9.998894, 10.000045 
1.2750532e+3, 1.848127e+2, -1299358.3, -1328755.8, 46327.555, 0.08690714, 0.16253307, -1265453.6, -136612.23, 0.0, 9.999286, 9.998924 
1.27507e+3, 1.9481161e+2, -1141509.4, -1194565.3, 31113.68, -0.04472607, 0.12072393, -1127149.8, -96295.9, 0.0, 9.999663, 9.998992 
1.2750874e+3, 2.0481072e+2, -979869.7, -1007340.06, -17470.273, -0.10668083, 0.11653164, -971381.8, -38519.09, 0.0, 9.999852, 9.99951 
1.2751052e+3, 2.148097e+2, -871675.1, -893666.2, 16583.389, -0.088319235, 0.01956446, -862773.2, -27902.195, 0.0, 9.999868, 9.99961 
1.2751232e+3, 2.2480936e+2, -756251.3, -857194.6, 2583.4634, -0.047835913, 0.0628648, -756185.25, -19310.803, 0.0, 10.000303, 9.99898 
1.2751414e+3, 2.3480935e+2, -532221.7, -690498.94, 19072.76, 0.0150044365, 0.12482306, -529955.8, 108920.32, 0.0, 10.001132, 9.999053 
1.2751585e+3, 2.4480836e+2, -413377.0, -621165.56, -14014.224, 0.002239668, 0.14801346, -412436.06, 128449.36, 0.0, 10.001429, 9.998716 
1.2751746e+3, 2.5480607e+2, -336743.9, -520115.88, 25030.725, -0.08544184, -0.00088917406, -333388.53, 109516.65, 0.0, 10.00122, 9.998837 
1.2751928e+3, 2.6480412e+2, -324777.6, -664500.2, 76834.4, -0.07905904, 0.021014266, -308208.25, 36715.61, 0.00000020123079, 10.001528, 9.997013 
1.2752129e+3, 2.7480212e+2, -97097.61, -499745.75, 53350.62, 0.018786624, 0.07751963, -90148.62, 156797.89, 0.0000077157165, 10.002399, 9.997051 
1.2752314e+3, 2.8479987e+2, 93982.055, -292226.8, -31323.818, 0.0074871886, 0.12860505, 96506.1, 245474.4, 0.000060411407, 10.002729, 9.997652 
1.2752482e+3, 2.9479715e+2, 172933.45, -188082.67, 4281.5303, -0.11107932, 0.035298914, 172984.22, 223975.5, 0.00024271311, 10.00253, 9.997789 
1.2752676e+3, 3.0479348e+2, 253965.72, -174007.58, 77249.45, -0.1168999, -0.073920704, 267482.4, 267482.4, 0.0006225909, 10.003017, 9.997308 
1.275288e+3, 3.1479305e+2, 353645.56, -89226.16, 6250.7827, -0.13785043, 0.09828044, 353733.78, 353733.78, 0.0011840118, 10.003495, 9.997652 
1.2849464e+3, 1.24790885e+2, -2053033.3, -1700098.6, -57493.406, 0.1167022, -0.02009214, -1690969.1, 26081.408, 0.0047468157, 9.996815, 10.001613 
1.2849618e+3, 1.3479334e+2, -1900657.4, -1592075.8, -4699.881, -0.11622785, 0.053051163, -1592004.1, 27022.96, 0.0026545508, 9.9973, 10.00146 
1.2849814e+3, 1.4479451e+2, -1861800.6, -1671729.6, 23686.717, -0.07962098, 0.092565306, -1668822.3, -147805.95, 0.0010215283, 9.997564, 10.000087 
1.284999e+3, 1.5479411e+2, -1638704.4, -1509257.6, -8000.1523, -0.14927527, 0.0030745666, -1508765.0, -85744.29, 0.00019628371, 9.998412, 10.000118 
1.2850167e+3, 1.6479422e+2, -1446767.3, -1394676.1, -39098.23, -0.09206569, 0.024398549, -1373742.5, -48722.734, 0.0000059623408, 9.999145, 9.999898 
1.285035e+3, 1.747948e+2, -1250770.9, -1233345.9, -69612.94, 0.063211806, 0.04930852, -1171902.4, 55111.387, 0.0, 9.999764, 10.000025 
1.2850527e+3, 1.8479475e+2, -1209787.1, -1305881.6, 13876.916, 0.0968928, 0.117905825, -1207823.4, -78808.03, 0.0, 10.0000105, 9.998721 
1.2850702e+3, 1.9479369e+2, -1100876.6, -1195332.3, 15043.772, -0.00094451325, 0.09776731, -1098538.5, -67509.68, 0.0, 10.000056, 9.998788 
1.2850878e+3, 2.047929e+2, -941495.44, -1003429.75, 3530.3223, -0.052734654, 0.12291907, -941294.9, -8257.109, 0.0, 10.000177, 9.999385 
1.2851056e+3, 2.1479212e+2, -808392.1, -870269.2, -37570.688, -0.055237927, 0.060079433, -790660.9, 44384.105, 0.0, 10.000349, 9.999536 
1.2851237e+3, 2.2479174e+2, -721757.56, -819186.25, -18405.063, -0.024991782, 0.094107136, -718396.6, 18651.9, 0.0, 10.000443, 9.999172 
1.2851423e+3, 2.3479143e+2, -619948.0, -708308.7, -20920.848, 0.038875774, 0.10643013, -615245.0, 23806.441, 0.0, 10.000429, 9.999265 
1.28516e+3, 2.4479042e+2, -460480.2, -667573.56, -17688.139, 0.026337847, 0.12698673, -458980.28, 82080.38, 0.0, 10.00121, 9.998499 
1.2851769e+3, 2.547884e+2, -125685.984, -443680.25, -72464.15, -0.06315247, 0.03060853, -109951.49, 333127.8, 0.0, 10.002787, 9.998603 
1.2851954e+3, 2.6478654e+2, -64281.965, -526500.44, 5974.682, -0.06011966, 0.06674518, -64204.746, 280893.0, 0.00000014147287, 10.003253, 9.997134 
1.2852156e+3, 2.7478445e+2, -55225.836, -465288.28, 35368.742, 0.041007, 0.1074288, -52197.574, 194922.72, 0.000007879153, 10.00262, 9.997186 
1.2852342e+3, 2.847823e+2, 57843.156, -316530.8, 29225.375, 0.04676302, 0.16362926, 60110.887, 209251.94, 0.00006527563, 10.002524, 9.997581 
1.2852514e+3, 2.947796e+2, 222485.06, -170644.75, -3718.8464, -0.04408191, 0.08227279, 222520.23, 273684.03, 0.000269289, 10.002905, 9.997723 
1.2852706e+3, 3.047752e+2, 245172.31, -213874.3, 122207.766, -0.09579242, -0.08152551, 275679.2, 275679.2, 0.0006978728, 10.003075, 9.997025 
1.2852915e+3, 3.1477466e+2, 275989.78, -111354.07, 9615.341, -0.1025096, 0.1078176, 276228.34, 276228.34, 0.0013327203, 10.002827, 9.997842 
1.2949434e+3, 1.2477489e+2, -2128252.3, -1846977.8, -66524.56, 0.050994564, 0.1389916, -1832037.6, -114826.375, 0.0050962004, 9.996797, 10.000611 
1.2949604e+3, 1.3477525e+2, -1970995.3, -1725758.5, 22112.555, -0.031670436, 0.093017995, -1723780.6, -104571.266, 0.0028611089, 9.997259, 10.000565 
1.2949777e+3, 1.4477539e+2, -1823776.5, -1591140.6, 28082.992, -0.24736492, 0.05353471, -1587798.5, -66590.914, 0.00111182, 9.997562, 10.000638 
1.2949982e+3, 1.5477642e+2, -1600982.0, -1426940.4, 44396.41, -0.079104215, 0.04839152, -1416269.5, 6925.403, 0.000219555, 9.998395, 10.000693 
1.2950173e+3, 1.6477633e+2, -1465197.3, -1434652.0, -37709.85, 0.0100787785, 0.031433407, -1409239.5, -84045.39, 0.0000074533, 9.9991455, 9.999621 
1.2950341e+3, 1.7477494e+2, -1276454.8, -1284466.9, -30399.56, -0.02946464, -0.10896281, -1249798.4, -22592.121, 0.0, 9.999746, 9.999683 
1.2950516e+3, 1.8477441e+2, -1183905.9, -1248118.5, -4228.3003, -0.06162552, -0.095230326, -1183628.6, -54417.008, 0.0, 9.999986, 9.999131 
1.29507e+3, 1.9477426e+2, -1083447.9, -1142009.9, 31979.535, -0.058570754, -0.06564452, -1069369.1, -38154.945, 0.0, 9.999968, 9.999201 
1.2950882e+3, 2.0477419e+2, -1013049.6, -1107066.1, -10421.842, -0.054102715, 0.03944741, -1011908.25, -78690.695, 0.0, 9.999991, 9.998757 
1.2951063e+3, 2.1477391e+2, -888129.6, -979682.3, -15181.95, -0.046055634, 0.09008513, -885677.7, -50453.363, 0.0, 10.000109, 9.998897 
1.295124e+3, 2.2477333e+2, -734825.4, -780872.2, -36292.098, -0.06497411, 0.118764885, -714869.8, 22360.635, 0.0, 10.000164, 9.99957 
1.2951414e+3, 2.3477216e+2, -623263.5, -660361.9, -1192.0948, -0.10863204, -0.0012579348, -623225.2, 16013.17, 0.0, 10.00019, 9.999708 
1.2951602e+3, 2.447713e+2, -569660.75, -820669.56, 21930.594, -0.10905956, 0.05597869, -567759.06, -26511.646, 0.0, 10.000911, 9.997584 
1.2951799e+3, 2.5477037e+2, -238310.14, -602852.06, 8009.548, -0.055636317, 0.16308388, -238134.23, 205127.94, 0.0, 10.002483, 9.997646 
1.2951991e+3, 2.6476857e+2, -11095.562, -368726.03, -34259.777, -0.041197974, 0.19929971, -7843.1704, 337436.84, 0.000000052302592, 10.003032, 9.998332 
1.2952174e+3, 2.7476582e+2, 3084.3013, -294858.56, 31792.582, -0.068951726, 0.04034474, 6439.0186, 253741.39, 0.000007172051, 10.002396, 9.998468 
1.2952359e+3, 2.847639e+2, -1931.9049, -387174.56, 24609.738, -0.07260289, 0.07531244, -366.17035, 148952.11, 0.00006969282, 10.002293, 9.997206 
1.2952547e+3, 2.9476237e+2, 155324.13, -253813.47, 37125.746, -0.046714578, 0.14619793, 158665.67, 209998.97, 0.0003009035, 10.002667, 9.997264 
1.2952739e+3, 3.047578e+2, 230389.98, -213656.34, 97627.86, -0.09868434, -0.011183795, 250906.47, 250906.47, 0.0007869782, 10.002938, 9.997094 
1.2952942e+3, 3.1475633e+2, 282975.66, -11531.465, 54755.074, -0.18540269, 0.06802337, 292826.3, 292826.3, 0.0015032826, 10.002464, 9.998701 
1.304939e+3, 1.2475574e+2, -2118577.0, -1837609.8, -92089.05, -0.04293079, 0.18823037, -1810117.1, -92715.79, 0.0054552136, 9.996863, 10.000635 
1.3049583e+3, 1.347558e+2, -1984209.3, -1742392.1, -92289.42, 0.05622684, 0.12808643, -1711194.8, -91792.27, 0.003073975, 9.997246, 10.0004425 
1.3049759e+3, 1.4475574e+2, -1853561.9, -1561272.4, -3513.8235, -0.14094916, 0.053684473, -1561230.1, -39827.742, 0.0012055306, 9.997143, 10.00105 
1.304997e+3, 1.5475723e+2, -1723189.9, -1434748.4, -33930.707, 0.025084656, 0.04739985, -1430810.8, -7426.3623, 0.000244213, 9.997326, 10.001154 
1.3050164e+3, 1.6475761e+2, -1633128.5, -1495861.3, -47742.07, 0.087002255, 0.047809936, -1480889.4, -155510.58, 0.000009295233, 9.997951, 9.999766 
1.3050334e+3, 1.747566e+2, -1327297.9, -1288615.9, -48308.89, -0.04520081, -0.06720851, -1255920.1, -28531.955, 0.0, 9.999348, 9.999836 
1.3050511e+3, 1.8475614e+2, -1157740.6, -1218273.0, -14538.906, -0.09931467, -0.05891014, -1154429.8, -25037.584, 0.0, 10.00007, 9.99931 
1.30507e+3, 1.9475596e+2, -1066394.5, -1109036.3, -32087.346, -0.04569314, -0.053833507, -1049190.3, -17796.482, 0.0, 9.999979, 9.999425 
1.3050885e+3, 2.047558e+2, -1011923.4, -1110391.9, -17581.637, -0.0045333644, 0.034053624, -1008878.3, -75481.29, 0.0, 10.000005, 9.998733 
1.3051069e+3, 2.1475542e+2, -885658.56, -981130.5, -16825.14, 0.017727783, 0.078860074, -882780.25, -47375.76, 0.0, 10.00014, 9.998875 
1.3051248e+3, 2.2475468e+2, -676303.9, -794985.75, 6018.166, -0.019058602, 0.10961654, -675999.44, 61413.133, 0.0, 10.0007305, 9.999202 
1.3051423e+3, 2.3475318e+2, -426753.3, -607838.4, -55000.367, -0.1157673, -0.005750079, -411357.22, 228067.36, 0.0, 10.001707, 9.999339 
1.3051616e+3, 2.4475224e+2, -390992.78, -715560.5, 15072.76, -0.11035219, 0.051205274, -390294.3, 151140.31, 0.0, 10.00203, 9.997777 
1.3051824e+3, 2.547515e+2, -341989.2, -633567.25, 48954.973, 0.008019793, 0.16022956, -333989.28, 109457.16, 0.0, 10.001662, 9.997846 
1.3052021e+3, 2.6474988e+2, -157574.67, -412087.38, 36094.758, 0.035246085, 0.18650757, -152554.77, 192907.56, 0.000000026393016, 10.001907, 9.998579 
1.3052201e+3, 2.7474695e+2, 83987.56, -233697.9, -13754.309, -0.047598004, -0.009171982, 84581.945, 332067.44, 0.0000066700077, 10.002835, 9.998688 
1.3052386e+3, 2.8474516e+2, 157782.13, -304263.22, 2761.4233, -0.061844055, 0.022253327, 157798.63, 307299.2, 0.00007506801, 10.0033655, 9.997249 
1.3052581e+3, 2.9474407e+2, 293837.84, -184281.13, 2868.8562, 0.0056583225, 0.13862239, 293855.03, 345366.72, 0.00033561388, 10.0036, 9.997287 
1.3052773e+3, 3.0473983e+2, 296779.75, -188804.02, 88975.52, -0.064544916, 0.014271009, 312569.66, 312569.66, 0.0008838956, 10.003438, 9.997024 
1.3052975e+3, 3.1473738e+2, 363807.72, 79112.87, -32169.217, -0.099457815, 0.0076925955, 367397.44, 367397.44, 0.0016899819, 10.002794, 9.999183 
1.3149342e+3, 1.2473257e+2, -2028779.5, -1670377.1, -17857.506, -0.29460514, 0.028334951, -1669489.5, 48139.773, 0.005819013, 9.99693, 10.001757 
1.314955e+3, 1.3473493e+2, -1941171.8, -1662994.6, -68868.0, -0.018382302, 0.14258626, -1646878.6, -27271.467, 0.0032902497, 9.997272, 10.000981 
1.3149756e+3, 1.4473554e+2, -1821713.5, -1496140.4, -28194.291, 0.053188052, 0.08762509, -1493716.8, 27883.879, 0.0013013786, 9.997161, 10.001485 
1.3149948e+3, 1.5473673e+2, -1699593.9, -1380918.6, -14574.576, 0.030560521, 0.012278768, -1380253.5, 43333.68, 0.00026992275, 9.997306, 10.001536 
1.3150139e+3, 1.647381e+2, -1596147.0, -1429325.9, -18687.717, -0.0033107956, 0.07164459, -1427258.1, -101684.52, 0.00001153221, 9.997979, 10.000215 
1.3150324e+3, 1.7473955e+2, -1293743.4, -1219874.9, 20355.979, -0.118833914, 0.15312724, -1214636.8, 12924.368, 0.0, 9.999338, 10.000315 
1.3150509e+3, 1.8473989e+2, -1168392.9, -1218127.1, -37757.715, -0.16186659, 0.21234068, -1148049.1, -18491.092, 0.0, 9.999984, 9.999347 
1.3150696e+3, 1.9473861e+2, -1083765.0, -1115928.6, -21250.076, -0.107787825, 0.109381564, -1073197.4, -41628.59, 0.0, 9.999855, 9.999436 
1.3150884e+3, 2.0473768e+2, -1002478.9, -1049993.5, -28769.844, -0.05196979, 0.09241558, -988925.2, -55348.516, 0.0, 9.999832, 9.9992285 
1.3151072e+3, 2.147367e+2, -880012.9, -928285.06, 6765.918, 0.0017759564, 0.027418487, -879082.44, -43497.46, 0.0, 9.999952, 9.999331 
1.3151257e+3, 2.247357e+2, -791536.06, -969093.8, 23749.836, -0.031173944, 0.06413527, -788414.2, -50818.848, 0.0, 10.0004635, 9.998131 
1.315144e+3, 2.3473437e+2, -546387.6, -791906.9, 2951.3394, -0.13891138, 0.07581065, -546352.2, 93258.97, 0.0, 10.001436, 9.998205 
1.3151635e+3, 2.4473323e+2, -347875.44, -557010.9, -16630.676, -0.138728, 0.1114575, -346561.22, 195061.2, 0.0, 10.001737, 9.999007 
1.3151842e+3, 2.5473204e+2, -287236.84, -462536.56, 53331.867, -0.019745292, 0.045483436, -272286.6, 171344.06, 0.0, 10.001411, 9.999144 
1.315204e+3, 2.647304e+2, -240677.56, -527347.2, 51055.492, 0.015187771, 0.038146574, -231856.1, 113788.69, 0.000000066602475, 10.001667, 9.997899 
1.3152231e+3, 2.7472788e+2, -8079.5674, -359090.88, 45934.707, -0.051972564, -0.04705754, -2167.9348, 245501.5, 0.0000067822207, 10.002568, 9.997949 
1.3152424e+3, 2.8472617e+2, 155653.05, -265788.13, -4043.8384, -0.07946749, 0.014575668, 155691.84, 305377.66, 0.000081610815, 10.003166, 9.997617 
1.3152614e+3, 2.9472497e+2, 276488.9, -150032.98, 35792.44, -0.05639669, 0.07341876, 279471.66, 331168.53, 0.00036944333, 10.003293, 9.997675 
1.3152802e+3, 3.0472144e+2, 240825.28, -254028.4, 53277.688, -0.15407036, 0.017323507, 246496.34, 246496.34, 0.000976967, 10.003222, 9.996675 
1.3153005e+3, 3.147176e+2, 310313.8, 68343.4, 14260.24, -0.1520415, -0.09415407, 311151.34, 311151.34, 0.0018699723, 10.002382, 9.999299 
1.3249324e+3, 1.24711275e+2, -2115333.3, -1655690.1, 83657.305, -0.09239726, -0.010837935, -1640937.5, 76900.086, 0.006183249, 9.996046, 10.002307 
1.3249516e+3, 1.3471396e+2, -1968893.4, -1609112.6, -25397.234, -0.049809355, 0.0824958, -1607328.6, 12481.661, 0.0035072896, 9.996802, 10.001571 
1.3249736e+3, 1.4471528e+2, -1838646.1, -1523929.5, 35312.105, 0.15395644, 0.074283, -1520016.1, 1781.2135, 0.0013982238, 9.997119, 10.001315 
1.3249923e+3, 1.5471676e+2, -1649463.5, -1374240.9, -25267.082, 0.044768073, 0.044183783, -1371940.5, 51843.313, 0.00029637254, 9.9977255, 10.001375 
1.3250118e+3, 1.6471845e+2, -1561921.8, -1371160.0, -1134.8732, 0.0009780033, 0.12350378, -1371153.3, -45385.01, 0.000014169166, 9.998038, 10.000576 
1.3250315e+3, 1.7472014e+2, -1446853.3, -1260506.8, -8368.678, -0.067219146, 0.19504751, -1260131.6, -32379.043, 0.0, 9.998127, 10.000625 
1.3250507e+3, 1.8472059e+2, -1352131.6, -1275513.8, -39544.203, -0.099225864, 0.23869227, -1258765.3, -129017.93, 0.0, 9.998591, 9.999623 
1.3250695e+3, 1.9471937e+2, -1101373.1, -1095520.8, -41557.273, -0.07696109, 0.111707926, -1056786.8, -25030.111, 0.0, 9.999603, 9.999697 
1.3250886e+3, 2.047183e+2, -908493.0, -1016753.6, -27400.053, -0.03690377, 0.07615928, -901953.3, 31811.691, 0.0, 10.000557, 9.999097 
1.325108e+3, 2.1471716e+2, -666688.0, -839033.25, -72367.75, 0.01183232, 0.008778131, -640331.44, 195443.67, 0.0, 10.001502, 9.999188 
1.3251269e+3, 2.247161e+2, -613142.5, -897880.8, -21825.424, 0.0006754154, 0.05368985, -611479.25, 126307.3, 0.0, 10.001767, 9.9979925 
1.3251461e+3, 2.3471491e+2, -577904.4, -815141.7, -10769.848, -0.057635915, 0.09410599, -577416.5, 62385.086, 0.0, 10.001279, 9.9981165 
1.3251656e+3, 2.4471366e+2, -399574.94, -562717.0, 4924.3994, -0.059107307, 0.11902856, -399426.44, 142386.88, 0.0, 10.001298, 9.999177 
1.3251857e+3, 2.5471207e+2, -209401.5, -400281.94, -42664.938, -0.00679787, -0.0066781607, -200299.23, 243525.19, 0.0, 10.00185, 9.999351 
1.3252059e+3, 2.647106e+2, -174206.1, -493416.66, -15637.355, 0.008141003, -0.011204713, -173441.89, 172395.27, 0.0000000978673, 10.002127, 9.997902 
1.3252257e+3, 2.7470878e+2, -66348.89, -383318.1, -11315.566, -0.022631215, -0.02101191, -65945.445, 181910.31, 0.000006920427, 10.002163, 9.99797 
1.3252455e+3, 2.8470707e+2, 46922.523, -292170.53, -4239.9805, -0.019895582, 0.028293734, 46975.53, 196848.45, 0.000086783395, 10.0023365, 9.997831 
1.3252653e+3, 2.947051e+2, 222561.2, -151318.58, -28403.152, 0.023429027, -0.008407564, 224706.64, 276598.6, 0.0003950438, 10.002828, 9.997889 
1.3252836e+3, 3.0470237e+2, 220704.44, -239885.58, 23192.285, -0.09552479, -0.0025138312, 221869.31, 221869.31, 0.0010503886, 10.003001, 9.996869 
1.3253035e+3, 3.14699e+2, 379301.06, 134348.3, -33028.805, -0.07507367, -0.085794345, 383676.44, 383676.44, 0.0020140882, 10.002709, 9.999589 
1.3349302e+3, 1.2469217e+2, -2107359.8, -1636457.3, -91763.53, -0.0022178334, 0.0969681, -1619207.5, 98815.77, 0.0065457188, 9.99604, 10.0024395 
1.3349475e+3, 1.3469297e+2, -1930733.1, -1528909.8, 6356.371, -0.1767382, -0.05546504, -1528809.3, 91202.28, 0.0037237175, 9.996796, 10.002126 
1.3349696e+3, 1.446948e+2, -1870001.5, -1604265.4, 33866.055, -0.015222648, -0.012635112, -1600017.3, -78023.484, 0.0014951822, 9.997171, 10.000747 
1.334989e+3, 1.5469745e+2, -1689725.6, -1464548.0, 16012.011, -0.084525466, 0.13684969, -1463415.1, -39441.88, 0.00032323142, 9.997739, 10.000756 
1.3350098e+3, 1.646988e+2, -1554847.3, -1352061.4, -18242.123, -0.059083313, 0.20768777, -1350433.5, -24471.936, 0.000017128494, 9.99802, 10.000715 
1.3350303e+3, 1.7469852e+2, -1441363.4, -1237128.9, 11406.3955, -0.031808093, 0.0633506, -1236493.8, -8532.635, 0.00000000003443261, 9.998076, 10.000808 
1.33505e+3, 1.8469854e+2, -1328475.4, -1214170.8, -21932.625, -0.060292024, 0.029742323, -1210106.8, -80148.97, 0.0, 9.998532, 10.000079 
1.3350694e+3, 1.946984e+2, -1085346.1, -1035841.75, 12068.0625, -0.094089575, -0.033716343, -1033056.56, -1100.8368, 0.0, 9.999479, 10.000172 
1.3350889e+3, 2.0469788e+2, -989305.2, -1139357.9, -12587.861, -0.09848056, -0.004166246, -988256.5, -54295.816, 0.0, 10.000363, 9.998351 
1.3351086e+3, 2.146967e+2, -758785.2, -973871.44, -18646.633, -0.09008262, 0.005807954, -757180.6, 78795.195, 0.0, 10.001255, 9.998388 
1.3351282e+3, 2.2469573e+2, -600003.2, -810041.75, -52677.785, -0.076633915, 0.06613644, -587532.06, 150455.02, 0.0, 10.001503, 9.998718 
1.3351479e+3, 2.3469475e+2, -559802.2, -723420.44, -9451.959, -0.024889832, 0.04666813, -559258.0, 80738.11, 0.0, 10.001038, 9.998862 
1.3351674e+3, 2.4469353e+2, -491072.16, -694908.8, 7057.389, -0.032349758, 0.07235192, -490828.13, 51179.816, 0.0, 10.001058, 9.998379 
1.335187e+3, 2.5469166e+2, -304024.25, -542390.0, -1783.6473, -0.1120954, -0.00067905115, -304010.9, 140016.13, 0.0, 10.001618, 9.998483 
1.3352068e+3, 2.6469043e+2, -167667.25, -429732.16, -31170.074, -0.13869318, 0.043791674, -164010.89, 182027.56, 0.00000008871969, 10.001909, 9.998445 
1.3352273e+3, 2.7468964e+2, -60636.406, -309248.6, 11615.018, -0.10716797, 0.070819944, -60094.938, 187949.5, 0.000006673535, 10.001904, 9.998599 
1.3352479e+3, 2.846878e+2, 16668.035, -307513.34, -6695.1777, -0.04448344, 0.07360987, 16806.25, 166868.72, 0.00008871381, 10.002129, 9.997827 
1.3352688e+3, 2.9468447e+2, 179322.73, -176989.67, 16162.185, 0.061728653, -0.093446955, 180054.34, 232150.53, 0.00040777776, 10.002548, 9.997852 
1.3352872e+3, 3.0468285e+2, 243015.2, -143813.2, 1937.7374, -0.07603626, -0.014500575, 243024.9, 243024.9, 0.0010944809, 10.002793, 9.9976225 
1.3353059e+3, 3.146811e+2, 345002.34, 152725.67, 44557.03, -0.17732336, -0.013011476, 354825.8, 354825.8, 0.002108087, 10.002324, 9.999904 
1.344928e+3, 1.2467235e+2, -1998332.5, -1631086.4, -93991.14, 0.13552055, 0.13197689, -1608428.6, 109787.93, 0.0069055543, 9.997011, 10.001996 
1.3449453e+3, 1.346727e+2, -1883864.0, -1544377.0, -59520.805, -0.08404168, -0.028106306, -1534243.9, 85966.375, 0.0039389143, 9.997311, 10.00176 
1.3449663e+3, 1.4467435e+2, -1864676.9, -1597276.9, -13830.45, -0.04067104, 0.012748189, -1596563.5, -74369.0, 0.0015916337, 9.997203, 10.000778 
1.3449866e+3, 1.5467666e+2, -1716483.4, -1472837.9, -20840.383, -0.09263776, 0.12815477, -1471068.3, -46892.652, 0.0003501717, 9.997548, 10.00079 
1.3450077e+3, 1.646777e+2, -1570641.6, -1360614.8, -1596.9354, -0.047211345, 0.16634463, -1360602.6, -34436.875, 0.000020254476, 9.997898, 10.000727 
1.3450287e+3, 1.7467707e+2, -1422239.9, -1222761.3, -24933.434, -0.0040868865, -0.013554251, -1219692.0, 8476.071, 0.0000000014653116, 9.998192, 10.000851 
1.3450491e+3, 1.84677e+2, -1311975.1, -1211394.5, -23310.326, -0.012000868, -0.056250736, -1206254.9, -76088.94, 0.0, 9.998655, 10.000038 
1.3450693e+3, 1.9467714e+2, -1096373.8, -1045859.94, -61189.88, -0.042612843, -0.08786458, -1004919.4, 27243.275, 0.0, 9.999423, 10.000129 
1.3450894e+3, 2.0467696e+2, -1033892.44, -1154031.0, -46674.848, -0.058120187, -0.024386704, -1017890.3, -83724.81, 0.0, 10.000009, 9.998423 
1.3451093e+3, 2.1467623e+2, -874887.8, -1014899.4, -30228.85, -0.08403722, 0.016735744, -868640.1, -32462.797, 0.0, 10.000385, 9.998517 
1.3451293e+3, 2.2467549e+2, -689550.75, -806733.3, -33882.46, -0.06622204, 0.07368789, -680459.25, 57726.44, 0.0, 10.000691, 9.999136 
1.3451493e+3, 2.3467448e+2, -537830.8, -661153.8, -47982.52, 0.024373133, 0.011864022, -521361.22, 118831.77, 0.0, 10.0009775, 9.999316 
1.3451692e+3, 2.4467333e+2, -467691.16, -709161.56, 31476.438, 0.029481284, 0.031750616, -463655.56, 78548.625, 0.0, 10.001339, 9.998151 
1.3451889e+3, 2.5467166e+2, -298988.6, -564749.9, 27770.098, -0.069980994, 0.008204635, -296117.84, 148105.02, 0.0, 10.00178, 9.998255 
1.345209e+3, 2.6467055e+2, -123082.76, -389984.4, 31944.742, -0.106392965, 0.06931546, -119312.63, 226921.22, 0.000000062099474, 10.00214, 9.998607 
1.3452297e+3, 2.7466962e+2, 36413.098, -245768.69, -35.892193, -0.064608, 0.065184146, 36413.105, 284654.13, 0.0000065347235, 10.0024805, 9.998761 
1.3452505e+3, 2.8466788e+2, 73730.586, -269474.53, 6407.836, -0.002787107, 0.06473396, 73850.18, 224108.52, 0.00008986311, 10.002458, 9.997934 
1.3452712e+3, 2.946653e+2, 121105.414, -179147.8, -10796.492, 0.07765094, -0.040432647, 121493.13, 173778.89, 0.00041373618, 10.002045, 9.998073 
1.3452901e+3, 3.0466422e+2, 258327.48, -126822.29, 33760.23, -0.045229167, 0.07002812, 261264.33, 261264.33, 0.001115336, 10.002813, 9.997744 
1.3453108e+3, 3.146621e+2, 677097.2, 277148.16, -19171.715, -0.02015045, 0.020612665, 678014.06, 678014.06, 0.0021558118, 10.004756, 9.9995775 
1.3549235e+3, 1.2465121e+2, -2062353.4, -1761661.9, -64051.23, -0.08290304, 0.000117651776, -1748586.8, -30162.98, 0.0072628423, 9.997027, 10.001084 
1.3549449e+3, 1.3465334e+2, -1983525.4, -1746069.3, -44141.9, 0.09879441, 0.15957804, -1738129.0, -117723.7, 0.004152666, 9.997301, 10.000378 
1.3549635e+3, 1.4465396e+2, -1837080.1, -1528984.5, -28837.129, -0.09337979, 0.15011533, -1526308.6, -3909.6853, 0.0016872559, 9.997159, 10.001264 
1.3549842e+3, 1.5465441e+2, -1674333.9, -1387263.9, 10188.181, -0.12312847, 0.018104114, -1386902.8, 37488.176, 0.0003769789, 9.997551, 10.001375 
1.3550054e+3, 1.6465507e+2, -1574676.0, -1371864.1, -12564.516, -0.10793406, -0.010300427, -1371088.6, -44706.813, 0.000023370363, 9.997907, 10.000648 
1.355026e+3, 1.7465562e+2, -1439681.4, -1246729.8, 1619.376, -0.10829429, -0.0610268, -1246716.3, -18341.18, 0.0000000068048798, 9.998134, 10.000717 
1.3550471e+3, 1.846559e+2, -1364912.0, -1294882.0, -14422.606, -0.10495877, -0.03415974, -1292028.0, -161655.78, 0.0, 9.99855, 9.999512 
1.3550687e+3, 1.9465561e+2, -1154045.6, -1135688.0, -12364.744, -0.06550758, -0.05706411, -1129467.5, -97090.45, 0.0, 9.999292, 9.999575 
1.3550895e+3, 2.0465557e+2, -1001927.7, -1045328.3, -50742.348, -0.06600096, 0.010847982, -968440.25, -34061.258, 0.0, 9.999828, 9.999252 
1.3551098e+3, 2.1465561e+2, -849347.56, -906783.94, -681.85986, -0.10615756, 0.041379094, -849339.44, -12959.195, 0.0, 10.000143, 9.999377 
1.35513e+3, 2.2465523e+2, -720959.7, -803229.2, -45763.742, -0.10443882, 0.08198072, -700560.8, 37822.887, 0.0, 10.000402, 9.999295 
1.3551497e+3, 2.3465411e+2, -565543.1, -658137.06, -20350.404, -0.04916453, -0.008360434, -561267.9, 79124.3, 0.0, 10.000721, 9.999457 
1.3551703e+3, 2.4465314e+2, -486224.3, -687249.56, 28086.664, -0.02039479, 0.01129258, -482373.88, 60027.12, 0.0, 10.00108, 9.998428 
1.3551913e+3, 2.5465205e+2, -314593.6, -538113.44, 63674.855, -0.03356741, 0.014818154, -297727.06, 146685.8, 0.0, 10.001527, 9.998561 
1.355212e+3, 2.6465076e+2, -174521.38, -443721.2, 26481.994, -0.050669156, 0.05066627, -171941.0, 174485.13, 0.000000036385206, 10.001907, 9.998354 
1.3552326e+3, 2.7464876e+2, -23771.117, -309609.94, 36372.168, -0.055357423, -0.031524833, -19215.47, 229229.97, 0.0000068750182, 10.00222, 9.99845 
1.3552526e+3, 2.846475e+2, 56754.348, -255211.0, -27481.799, -0.069362015, 0.026468042, 59156.785, 209615.47, 0.00009120505, 10.002249, 9.99813 
1.3552718e+3, 2.9464713e+2, 99453.52, -167927.9, -2992.4475, -0.10451827, 0.11850855, 99487.01, 151952.11, 0.00041573873, 10.001801, 9.99827 
1.355292e+3, 3.0464596e+2, 190229.48, -202793.23, 84825.695, -0.15455619, 0.23518887, 207755.77, 207755.77, 0.0011165407, 10.002562, 9.997332 
1.3553171e+3, 3.1464154e+2, 519001.03, 75436.79, 119255.55, 0.050180316, -0.0031222585, 549030.75, 549030.75, 0.0021572434, 10.004243, 9.9984255 
1.3649194e+3, 1.2463043e+2, -2091600.6, -1783010.9, -1977.1279, -0.17264917, -0.0045447415, -1782998.3, -64370.063, 0.0076198755, 9.996821, 10.001045 
1.3649426e+3, 1.3463248e+2, -1935085.9, -1754561.4, -29645.463, 0.1395441, 0.16217598, -1749817.6, -129206.85, 0.004366158, 9.997717, 10.000137 
1.3649613e+3, 1.4463271e+2, -1733336.4, -1478721.6, 50640.453, -0.04353568, 0.12647569, -1469019.4, 53588.004, 0.0017823466, 9.997862, 10.0012665 
1.3649827e+3, 1.5463275e+2, -1606940.3, -1352312.0, 14995.314, -0.038261153, -0.048573546, -1351431.9, 73169.43, 0.0004035849, 9.99801, 10.001388 
1.3650042e+3, 1.6463345e+2, -1549575.3, -1375839.1, 3410.2095, -0.02392719, -0.06484097, -1375772.3, -49180.184, 0.000026350568, 9.998146, 10.000507 
1.3650244e+3, 1.7463467e+2, -1415028.6, -1247305.6, -25604.871, -0.0876777, -0.035624173, -1243483.8, -14902.596, 0.000000016360648, 9.998363, 10.000604 
1.3650456e+3, 1.8463539e+2, -1338423.1, -1260064.4, 37851.637, -0.09988063, 0.033055536, -1244766.5, -114191.09, 0.0, 9.998661, 9.999687 
1.3650681e+3, 1.9463527e+2, -1164614.0, -1110390.5, 55759.25, -0.036660302, 0.006489509, -1075501.1, -42922.844, 0.0, 9.999126, 9.999809 
1.3650897e+3, 2.0463532e+2, -999023.5, -993536.6, 60957.55, -0.018235946, 0.043811433, -935260.8, -682.40106, 0.0, 9.999613, 9.999725 
1.3651103e+3, 2.1463525e+2, -818411.94, -838241.06, 49295.54, -0.05094505, 0.02009358, -778043.8, 58534.2, 0.0, 10.0001135, 9.999874 
1.3651307e+3, 2.246349e+2, -700158.2, -825255.06, 18390.084, -0.056105774, 0.049801823, -697510.75, 41070.29, 0.0, 10.000676, 9.999013 
1.3651508e+3, 2.3463388e+2, -507067.22, -671750.8, -31638.025, -0.036924165, 0.0018855422, -501198.25, 139392.8, 0.0, 10.001284, 9.999104 
1.3651717e+3, 2.4463293e+2, -405860.0, -623810.6, 22749.813, -0.0047056023, 0.032747455, -403510.7, 139089.42, 0.0, 10.001532, 9.99864 
1.3651933e+3, 2.546318e+2, -309211.66, -507701.7, 10840.471, 0.02733613, 0.006050217, -308621.34, 135989.5, 0.0, 10.001448, 9.998801 
1.3652144e+3, 2.6463038e+2, -229980.92, -500522.7, 20561.408, 0.028686445, 0.031224458, -228427.16, 118197.84, 0.000000033203506, 10.001667, 9.9980755 
1.3652353e+3, 2.7462828e+2, -22117.912, -334452.4, -10899.633, -0.003818242, -0.028627818, -21738.006, 226908.55, 0.0000069323874, 10.002356, 9.998205 
1.3652556e+3, 2.846269e+2, 138415.23, -261139.03, -62891.785, -0.037756514, 0.04477754, 148080.89, 298743.1, 0.00008948749, 10.003034, 9.997701 
1.3652748e+3, 2.9462618e+2, 373202.25, -76575.12, -125805.78, -0.06370923, 0.14689004, 405999.47, 458671.38, 0.00040625758, 10.003871, 9.997892 
1.3652961e+3, 3.0462438e+2, 413427.53, -120256.82, 10256.896, -0.07899024, 0.22902462, 413624.6, 413624.6, 0.0010893871, 10.004204, 9.9971285 
1.3653219e+3, 3.1462014e+2, 388685.16, -56221.92, 1887.8846, 0.16257611, 0.051415887, 388693.16, 388693.16, 0.00210587, 10.003593, 9.997881 
1.3749196e+3, 1.2461014e+2, -2048653.5, -1688875.1, 46440.42, 0.07305358, 0.12533276, -1682977.3, 35851.59, 0.0079810945, 9.996818, 10.001681 
1.3749377e+3, 1.3461001e+2, -1861973.6, -1606813.9, 9538.356, -0.15380919, -0.027744373, -1606457.9, 14369.418, 0.0045821774, 9.997729, 10.00114 
1.3749595e+3, 1.4461064e+2, -1762545.1, -1547463.0, 26448.521, -0.05947631, -0.054368567, -1544258.4, -21439.654, 0.0018779465, 9.997892, 10.000785 
1.3749819e+3, 1.5461166e+2, -1646209.3, -1436788.8, 38571.7, 0.025362844, -0.07738096, -1429910.4, -5103.316, 0.00043006244, 9.998013, 10.000812 
1.3750035e+3, 1.6461289e+2, -1564931.8, -1405239.3, -10939.53, 0.04514824, 0.001025868, -1404493.4, -77697.445, 0.000029160963, 9.998131, 10.000316 
1.3750231e+3, 1.7461433e+2, -1428088.0, -1271025.5, 1069.7465, -0.08474591, 0.066740304, -1271018.3, -42232.652, 0.000000027808229, 9.998334, 10.000463 
1.3750441e+3, 1.846155e+2, -1286496.4, -1138350.1, 35332.707, -0.1500538, 0.14537793, -1130354.8, 420.24527, 0.0, 9.9986105, 10.000542 
1.375067e+3, 1.9461589e+2, -1126974.9, -998934.6, 86079.51, -0.09369575, 0.08667613, -955678.2, 77090.6, 0.0, 9.998982, 10.000647 
1.3750891e+3, 2.046159e+2, -1008642.9, -967917.56, 60394.508, -0.070077926, 0.066089965, -924545.3, 10220.78, 0.0, 9.999419, 9.999995 
1.3751104e+3, 2.1461526e+2, -840308.44, -825010.44, 85726.34, -0.07289513, -0.04350059, -746592.5, 90177.26, 0.0, 9.999858, 10.000091 
1.3751315e+3, 2.2461466e+2, -797579.7, -955615.6, 23326.99, -0.07996436, -0.009412221, -794208.44, -55432.273, 0.0, 10.000377, 9.9982605 
1.3751519e+3, 2.3461388e+2, -606710.0, -807732.4, 11213.091, -0.08980923, 0.045762047, -606086.44, 34702.36, 0.0, 10.000991, 9.998305 
1.3751729e+3, 2.4461272e+2, -436767.72, -632377.9, -1856.8074, -0.07242864, 0.094715595, -436750.1, 106051.24, 0.0, 10.001282, 9.998706 
1.3751945e+3, 2.54611e+2, -333795.0, -509351.97, 24667.496, -0.022008993, -0.0031388707, -330394.84, 114420.57, 0.0, 10.001231, 9.9988985 
1.375216e+3, 2.6460958e+2, -275796.94, -555194.56, 26946.107, -0.015408209, 0.0339765, -273221.88, 73606.98, 0.000000022673568, 10.001487, 9.997786 
1.3752373e+3, 2.7460817e+2, -76721.88, -394373.38, 34759.457, -0.058980793, 0.062911265, -72962.766, 175883.44, 0.0000066245593, 10.00213, 9.997901 
1.3752586e+3, 2.8460598e+2, 50427.41, -409621.03, -52339.46, -0.06244036, 0.12065759, 56306.902, 207176.92, 0.00008473701, 10.002872, 9.996762 
1.3752797e+3, 2.9460287e+2, 267756.13, -235776.53, -67220.52, 0.0020614755, 0.07810351, 276575.47, 329477.88, 0.00038290335, 10.003606, 9.996932 
1.3753013e+3, 3.0459976e+2, 371818.5, -152863.9, -18096.83, -0.012525788, 0.08269479, 372441.94, 372441.94, 0.0010283956, 10.003983, 9.996997 
1.3753243e+3, 3.1459767e+2, 312125.1, -91537.26, 53297.24, -0.012010251, 0.124946654, 319043.56, 319043.56, 0.0019973381, 10.0030985, 9.997851 
1.3849173e+3, 1.24589615e+2, -2182381.0, -1731271.9, 105288.87, 0.25079164, 0.19752525, -1707907.5, 11123.876, 0.008351057, 9.99581, 10.001887 
1.3849352e+3, 1.3458927e+2, -1816839.8, -1525308.8, 21085.746, -0.15671508, -0.024363995, -1523791.5, 97238.84, 0.004803759, 9.99779, 10.001684 
1.3849583e+3, 1.4459008e+2, -1736492.3, -1567355.5, 17535.627, 0.036119953, -0.045078415, -1565556.6, -42536.555, 0.0019753822, 9.998209, 10.000501 
1.3849798e+3, 1.5459122e+2, -1685432.9, -1485928.0, 4961.113, 0.047335014, -0.0274122, -1485804.8, -60795.824, 0.00045665295, 9.997884, 10.000536 
1.3850014e+3, 1.6459237e+2, -1592252.4, -1425338.1, 35448.684, 0.04591457, 0.06434896, -1418121.6, -91122.56, 0.00003186285, 9.99801, 10.000219 
1.385022e+3, 1.7459352e+2, -1373980.3, -1251480.6, 10277.829, -0.04557075, 0.1077779, -1250624.4, -21633.256, 0.000000039188958, 9.998758, 10.00038 
1.3850436e+3, 1.8459438e+2, -1246016.1, -1122550.8, 34440.668, -0.0742474, 0.1598406, -1113593.4, 17389.5, 0.0, 9.998872, 10.000546 
1.3850664e+3, 1.9459462e+2, -1191328.9, -1020486.06, -4077.4612, -0.013899689, 0.07998808, -1020388.8, 12588.25, 0.0, 9.998482, 10.00075 
1.3850886e+3, 2.0459463e+2, -1120775.5, -1024102.44, -5826.772, -0.003773522, 0.053618185, -1023752.5, -88778.18, 0.0, 9.998666, 9.999966 
1.3851103e+3, 2.1459407e+2, -869672.94, -837220.3, -37087.367, -0.048741836, -0.042004712, -812964.94, 24012.762, 0.0, 9.999658, 10.000095 
1.3851318e+3, 2.2459361e+2, -763766.44, -930345.2, -41269.176, -0.0747195, -0.0034156635, -754102.75, -15119.424, 0.0, 10.000546, 9.998361 
1.385153e+3, 2.3459293e+2, -526356.06, -756489.6, -21498.563, -0.082974166, 0.053071644, -524364.94, 116629.6, 0.0, 10.00147, 9.998434 
1.3851745e+3, 2.445918e+2, -340586.34, -614548.8, 7392.069, -0.051180493, 0.10915431, -340387.03, 202620.14, 0.0, 10.002065, 9.9984455 
1.3851966e+3, 2.5458992e+2, -188673.53, -472669.56, -38710.64, 0.013954479, 0.025445959, -183491.56, 261532.19, 0.0, 10.002354, 9.9986105 
1.3852184e+3, 2.645883e+2, -123749.305, -511936.1, 259.81583, 0.02482878, 0.06535243, -123749.13, 223291.27, 0.0000000049794013, 10.002658, 9.997524 
1.3852401e+3, 2.7458656e+2, 47012.965, -365463.2, -26809.908, -0.032510627, 0.09394166, 48748.242, 297809.0, 0.0000064670485, 10.003087, 9.99765 
1.3852619e+3, 2.8458413e+2, 124230.52, -397755.2, -46830.535, -0.036830615, 0.1531791, 128398.695, 279485.2, 0.00007994395, 10.00347, 9.996573 
1.3852836e+3, 2.9458073e+2, 318388.66, -221556.28, -51009.14, 0.03423538, 0.0972468, 323165.28, 376286.3, 0.00035496187, 10.00399, 9.996849 
1.3853058e+3, 3.045769e+2, 429524.9, -155613.17, 27190.139, 0.041988123, 0.047217753, 430785.66, 430785.66, 0.00095268304, 10.004498, 9.996731 
1.3853286e+3, 3.1457463e+2, 542824.56, 20963.494, 23853.352, 0.051052984, 0.09847599, 543912.6, 543912.6, 0.001860375, 10.004647, 9.997878 
1.3949105e+3, 1.24567315e+2, -2194947.5, -1746510.5, -103779.88, -0.087192185, 0.07691549, -1723657.8, -4406.6343, 0.008733579, 9.995793, 10.001775 
1.3949348e+3, 1.3457015e+2, -1810948.5, -1508122.8, 96939.63, -0.0091639785, 0.15704139, -1479749.3, 141471.89, 0.005033633, 9.997776, 10.001804 
1.3949575e+3, 1.4457113e+2, -1736788.3, -1574726.0, -22227.39, 0.07402119, 0.14970969, -1571732.8, -48522.527, 0.002076125, 9.998238, 10.000436 
1.3949762e+3, 1.5457146e+2, -1692648.9, -1496766.9, 10536.239, -0.13949035, 0.09523316, -1496201.8, -70995.08, 0.00048381835, 9.997864, 10.000472 
1.3949974e+3, 1.6457182e+2, -1599234.1, -1439658.1, 37935.48, -0.18875928, 0.11190922, -1431098.9, -103896.11, 0.000034571214, 9.998009, 10.000123 
1.3950205e+3, 1.7457198e+2, -1398350.6, -1282306.1, 51241.895, -0.09523899, 0.07283316, -1262918.4, -33717.703, 0.00000005013657, 9.9986725, 10.000213 
1.3950433e+3, 1.8457203e+2, -1291494.4, -1205216.5, -2429.8096, -0.02732853, 0.08054064, -1205148.1, -73949.086, 0.0, 9.998823, 9.999999 
1.3950658e+3, 1.9457166e+2, -1253524.1, -1119506.9, -3500.5718, 0.053331878, -0.0022416227, -1119415.5, -86214.6, 0.0, 9.998347, 10.000139 
1.395088e+3, 2.045716e+2, -1164825.1, -1080194.5, 10009.2, 0.027629104, 0.014772093, -1079026.9, -143825.67, 0.0, 9.998511, 9.999652 
1.3951094e+3, 2.1457171e+2, -930386.5, -903875.06, 15680.619, -0.12174107, 0.014286007, -896597.94, -59396.06, 0.0, 9.999403, 9.999759 
1.3951315e+3, 2.2457168e+2, -727282.7, -801466.7, -23545.725, -0.19491817, 0.06462465, -720440.44, 18762.451, 0.0, 10.000303, 9.999365 
1.395154e+3, 2.3457123e+2, -488975.88, -622386.94, 33840.734, -0.15817912, 0.03494298, -480882.84, 160323.56, 0.0, 10.001215, 9.99948 
1.3951764e+3, 2.4457036e+2, -424547.53, -722745.5, 775.57166, -0.09843579, 0.090352796, -424545.5, 118670.21, 0.0, 10.001783, 9.997838 
1.395199e+3, 2.5456858e+2, -283898.63, -597956.44, -8812.287, -0.0013316942, 0.085888036, -283651.56, 161584.53, 0.0, 10.002051, 9.997892 
1.3952212e+3, 2.6456645e+2, -178269.3, -571934.25, -1094.7141, 0.011949772, 0.12968001, -178266.25, 168993.17, 0.0000000011462398, 10.002423, 9.997228 
1.3952431e+3, 2.745638e+2, -10566.971, -425357.78, 12501.804, -0.06653664, 0.08982707, -10190.508, 239097.14, 0.0000063015364, 10.002824, 9.99737 
1.3952647e+3, 2.8456163e+2, 115593.71, -353753.66, -44673.906, -0.11879012, 0.1721099, 119808.07, 271117.34, 0.000075522126, 10.003211, 9.996996 
1.3952863e+3, 2.9455957e+2, 300012.0, -185916.84, -3984.241, -0.12850355, 0.20676339, 300044.7, 353373.66, 0.00033164787, 10.00368, 9.997241 
1.3953096e+3, 3.045556e+2, 365903.88, -225465.77, 15765.242, -0.06567325, 0.14138879, 366323.84, 366323.84, 0.0008920203, 10.004231, 9.996379 
1.3953337e+3, 3.1455177e+2, 467661.72, 5964.739, 84166.914, 0.04724771, 0.06434702, 482526.7, 482526.7, 0.0017485601, 10.004067, 9.998048 
1.4049079e+3, 1.2454591e+2, -1778673.3, -1624942.8, -50783.688, -0.08418101, 0.021348331, -1609681.8, 109776.01, 0.009133226, 9.998954, 10.001091 
1.4049338e+3, 1.3454881e+2, -1917428.4, -1658087.3, 22165.879, 0.14141537, 0.19129822, -1656206.4, -34775.387, 0.005275387, 9.997447, 10.000934 
1.4049551e+3, 1.445497e+2, -1921044.1, -1654152.0, -66755.08, 0.08482343, 0.21278493, -1638386.5, -114963.47, 0.0021822979, 9.996945, 10.000512 
1.4049748e+3, 1.5454994e+2, -1616318.0, -1450976.0, -67312.95, -0.082642585, 0.14318891, -1427037.8, -1617.6288, 0.00051218417, 9.998357, 10.000547 
1.4049964e+3, 1.6454986e+2, -1479473.0, -1405101.8, -3250.9458, -0.12982334, 0.12263603, -1404959.9, -77540.34, 0.000037386584, 9.998914, 9.999926 
1.4050195e+3, 1.7454927e+2, -1385273.8, -1287923.8, -30635.79, -0.060021944, 0.020515257, -1279085.3, -49662.64, 0.00000006103049, 9.998813, 10.0001 
1.4050424e+3, 1.8454905e+2, -1285181.4, -1234611.8, -38802.098, 0.007748765, 0.019225221, -1213583.3, -82159.836, 0.0, 9.999009, 9.999707 
1.405065e+3, 1.9454893e+2, -1073316.4, -1062121.6, -57898.75, 0.09006962, -0.0105175655, -1009550.3, 23874.203, 0.0, 9.999708, 9.999878 
1.4050876e+3, 2.0454906e+2, -987296.8, -1011781.7, 14286.866, 0.0802786, 0.042329207, -980724.56, -45300.117, 0.0, 9.999801, 9.999508 
1.4051095e+3, 2.1454918e+2, -934651.3, -912380.75, -1387.4602, -0.05407482, 0.056704026, -912294.6, -74869.07, 0.0, 9.999407, 9.999699 
1.4051318e+3, 2.2454922e+2, -819791.75, -796966.75, 6485.7046, -0.13443615, 0.09944819, -795252.6, -55827.777, 0.0, 9.999478, 9.999784 
1.4051546e+3, 2.3454887e+2, -607608.8, -619715.2, -19232.875, -0.14416721, 0.03432308, -593499.06, 47925.445, 0.0, 10.000162, 9.999994 
1.4051779e+3, 2.4454807e+2, -560743.25, -814961.75, -30919.82, -0.08254412, 0.07871031, -557036.6, -13603.645, 0.0, 10.000956, 9.99761 
1.4052013e+3, 2.545463e+2, -317683.2, -634597.0, -41952.797, 0.05449198, 0.10645414, -312223.56, 133231.53, 0.0, 10.001918, 9.997701 
1.405224e+3, 2.645442e+2, -150513.53, -542642.75, 27264.71, 0.07075418, 0.15298715, -148626.89, 198852.17, 0.0000000047036606, 10.00255, 9.997365 
1.405246e+3, 2.7454153e+2, 3171.7944, -393979.84, 21645.18, -0.051308405, 0.0998946, 4347.996, 253853.52, 0.000006310061, 10.002839, 9.997566 
1.405268e+3, 2.845394e+2, 135749.48, -334991.5, 17398.715, -0.11779323, 0.16380905, 136391.67, 287917.94, 0.00007178299, 10.0033, 9.99708 
1.4052902e+3, 2.9453704e+2, 323619.63, -170095.66, -2589.9558, -0.11019515, 0.16714732, 323633.22, 377181.0, 0.0003183702, 10.003817, 9.997288 
1.405314e+3, 3.0453357e+2, 308145.9, -272206.34, 32221.115, 0.0011429838, 0.15360568, 309929.34, 309929.34, 0.0008620041, 10.003908, 9.996212 
1.4053383e+3, 3.1452987e+2, 406290.53, -690.7464, 30712.744, 0.15076856, 0.10899777, 408595.2, 408595.2, 0.0016920328, 10.003519, 9.998273 
1.4149061e+3, 1.2452581e+2, -1844336.1, -1775456.5, 31522.18, -0.23152445, 0.045720156, -1763208.5, -43561.07, 0.009556688, 9.99901, 10.000034 
1.4149317e+3, 1.3452537e+2, -2054070.5, -1933041.3, -29130.467, 0.14153913, 0.073909104, -1926394.8, -304735.8, 0.0055341963, 9.997416, 9.9990635 
1.4149505e+3, 1.4452572e+2, -1904128.5, -1627860.4, -45946.203, -0.11979115, 0.12754585, -1620419.4, -96760.3, 0.0022969088, 9.996981, 10.000675 
1.4149751e+3, 1.5452656e+2, -1610193.0, -1435736.0, 644.392, 0.07940595, 0.10467857, -1435733.6, -10083.297, 0.0005425403, 9.998343, 10.00066 
1.4149977e+3, 1.6452661e+2, -1480119.1, -1413649.0, -30707.809, 0.07058908, 0.097545505, -1401634.3, -73986.34, 0.000040406845, 9.998942, 9.999859 
1.4150184e+3, 1.7452563e+2, -1404659.4, -1308118.1, -18262.988, -0.084044375, -0.031983618, -1304778.8, -75124.195, 0.00000007226826, 9.998725, 10.000011 
1.4150403e+3, 1.8452561e+2, -1295680.5, -1239815.8, -33892.984, -0.1239097, -0.009350087, -1223828.3, -92174.16, 0.0, 9.998942, 9.999701 
1.4150637e+3, 1.9452634e+2, -1097534.3, -1082808.9, -16850.715, -0.038455267, 0.05089947, -1071782.5, -38133.836, 0.0, 9.999579, 9.9998 
1.415087e+3, 2.0452678e+2, -1000033.3, -1003740.25, -23096.957, 0.0067641493, 0.13280661, -978715.56, -43069.95, 0.0, 9.999647, 9.999639 
1.41511e+3, 2.1452652e+2, -964500.06, -919276.94, 317.8958, 0.02242171, 0.096696064, -919274.75, -81626.42, 0.0, 9.99916, 9.999776 
1.4151326e+3, 2.2452624e+2, -864431.4, -828196.94, 9489.632, -0.036883652, 0.10693426, -825862.06, -86212.8, 0.0, 9.999218, 9.999692 
1.4151546e+3, 2.3452574e+2, -660699.06, -664958.44, 22614.408, -0.1769734, 0.04067627, -640114.3, 1535.8113, 0.0, 9.999888, 9.999814 
1.4151782e+3, 2.4452493e+2, -576748.9, -796883.4, -11089.039, -0.16809255, 0.08443473, -576191.7, -32533.238, 0.0, 10.000727, 9.997843 
1.4152032e+3, 2.5452337e+2, -331577.25, -615711.75, 13690.249, 0.027568646, 0.09868548, -330919.16, 114760.39, 0.0, 10.001703, 9.997934 
1.4152268e+3, 2.6452163e+2, -154083.17, -494595.8, 18804.098, 0.052686997, 0.15137182, -153047.9, 194650.95, 0.000000079284355, 10.002314, 9.997808 
1.4152484e+3, 2.7451953e+2, -9414.934, -356503.53, 55168.418, -0.13427027, 0.11289172, -857.12427, 248860.47, 0.000007370644, 10.0025625, 9.997961 
1.4152706e+3, 2.8451702e+2, 96702.08, -359741.0, 18585.908, -0.20539424, 0.12310216, 97457.625, 249198.64, 0.00007207351, 10.0030575, 9.997025 
1.4152946e+3, 2.9451326e+2, 269085.84, -215324.19, 43178.594, -0.09309213, -0.013379439, 272904.53, 326681.63, 0.00031938194, 10.003514, 9.997127 
1.4153188e+3, 3.0451062e+2, 251601.14, -317535.34, 8038.3965, 0.057762556, 0.0799339, 251714.66, 251714.66, 0.00086451345, 10.003624, 9.996019 
1.4153418e+3, 3.1450886e+2, 331398.8, -35724.656, 65081.36, 0.080693185, 0.23538661, 342594.6, 342594.6, 0.0016914787, 10.00304, 9.998241 
1.4249031e+3, 1.2450195e+2, -2116774.5, -1865174.5, -130833.41, -0.3076854, 0.054360528, -1809472.4, -89590.16, 0.010011913, 9.997003, 10.000384 
1.4249286e+3, 1.345013e+2, -2016642.4, -1844162.8, -163216.4, 0.11819074, 0.012845707, -1745803.3, -123909.42, 0.0058154534, 9.997416, 9.999663 
1.4249489e+3, 1.4450207e+2, -1772589.9, -1568001.4, 10564.555, -0.013012802, 0.07748585, -1567457.4, -43568.125, 0.002423067, 9.997898, 10.00064 
1.424974e+3, 1.5450324e+2, -1659015.6, -1465736.9, -3314.0447, 0.16167112, 0.09418112, -1465680.0, -39801.7, 0.00057589856, 9.998042, 10.000587 
1.4249967e+3, 1.6450363e+2, -1567198.6, -1433143.8, -9414.761, 0.12494812, 0.11270124, -1432485.8, -104612.4, 0.00004378684, 9.998242, 10.000056 
1.4250177e+3, 1.7450292e+2, -1359217.0, -1260223.0, -13601.418, -0.023147857, -0.014525862, -1258388.3, -28511.27, 0.00000008454083, 9.998912, 10.000244 
1.42504e+3, 1.8450299e+2, -1233577.6, -1217027.6, 32032.51, -0.06446647, 0.006618568, -1192218.5, -60342.81, 0.0, 9.999392, 9.999642 
1.4250635e+3, 1.945038e+2, -1065996.9, -1067507.9, 13697.681, -0.026709238, 0.07699644, -1053033.9, -19163.65, 0.0, 9.999803, 9.999791 
1.4250867e+3, 2.0450413e+2, -943096.75, -978405.4, 17337.025, 0.014417106, 0.15072316, -936007.44, -139.85759, 0.0, 10.000045, 9.9996195 
1.42511e+3, 2.1450347e+2, -810611.6, -847680.8, -8966.0625, 0.07806885, 0.07519281, -808556.9, 29315.678, 0.0, 10.000208, 9.999767 
1.4251329e+3, 2.2450274e+2, -724607.6, -800974.75, 44433.63, 0.04066193, 0.05781137, -704205.06, 35672.004, 0.0, 10.0003395, 9.999352 
1.4251553e+3, 2.3450181e+2, -584508.94, -665474.06, 8021.9077, -0.1284417, -0.014338349, -583721.75, 58160.727, 0.0, 10.000558, 9.999502 
1.4251791e+3, 2.4450085e+2, -554750.75, -771006.4, 9781.996, -0.14412795, 0.023596913, -554309.2, -10416.592, 0.0, 10.000818, 9.997976 
1.4252046e+3, 2.5449944e+2, -376464.16, -620342.56, -11572.253, 0.02488686, 0.040174514, -375916.28, 69995.58, 0.00000000006254562, 10.001316, 9.998094 
1.4252287e+3, 2.6449797e+2, -215689.23, -497931.63, 5959.8843, 0.064237185, 0.097352035, -215563.44, 132365.05, 0.00000036239143, 10.001769, 9.998046 
1.4252512e+3, 2.7449632e+2, -44330.008, -340341.84, -6747.8228, -0.059651576, 0.07495229, -44176.266, 205766.2, 0.000010087366, 10.002173, 9.998257 
1.4252743e+3, 2.8449398e+2, 50945.836, -364682.53, 12025.635, -0.109865904, 0.0835583, 51293.492, 203257.31, 0.00007872079, 10.002665, 9.997189 
1.4252985e+3, 2.944903e+2, 278304.8, -188492.67, -3727.7441, -0.03272608, -0.058947913, 278334.56, 332334.53, 0.00033516844, 10.003483, 9.997323 
1.4253232e+3, 3.044881e+2, 353807.25, -281698.0, 4545.005, 0.11321232, 0.07083381, 353839.75, 353839.75, 0.0008965645, 10.004341, 9.995948 
1.425346e+3, 3.1448552e+2, 589502.3, 58502.152, -345.93027, 0.1180872, 0.15267844, 589502.5, 589502.5, 0.0017444047, 10.004911, 9.998013 
1.4349018e+3, 1.24474876e+2, -1989012.4, -1619154.3, -172705.61, -0.23711362, 0.09881251, -1551049.8, 169107.5, 0.010506618, 9.997054, 10.002062 
1.4349243e+3, 1.3447678e+2, -1810410.0, -1415272.1, -116542.836, -0.07774515, 0.019526906, -1383459.9, 238673.56, 0.006123269, 9.997402, 10.002616 
1.4349496e+3, 1.4447886e+2, -1764243.6, -1566752.0, -2836.1475, 0.23135956, 0.056204446, -1566711.4, -42599.37, 0.002563054, 9.99796, 10.000626 
1.434971e+3, 1.5448025e+2, -1682747.0, -1506289.0, 18634.031, 0.01488826, 0.11919758, -1504342.8, -78241.01, 0.0006133788, 9.997998, 10.000339 
1.4349928e+3, 1.6448103e+2, -1537278.9, -1368031.8, -10011.629, -0.13432449, 0.17024149, -1367441.5, -39347.19, 0.000047750204, 9.998232, 10.000508 
1.435017e+3, 1.744809e+2, -1332501.6, -1198174.3, 25416.465, -0.021547083, 0.054264434, -1193526.0, 36566.22, 0.00000010052836, 9.998877, 10.000693 
1.4350408e+3, 1.8448111e+2, -1240920.6, -1214474.4, 24696.71, 0.032478075, 0.06528339, -1199683.6, -67594.57, 0.0, 9.999321, 9.999691 
1.4350636e+3, 1.944814e+2, -1089276.8, -1080633.8, 45341.996, -0.023423284, 0.08217629, -1039407.75, -5319.7627, 0.0, 9.999651, 9.999776 
1.4350863e+3, 2.0448117e+2, -976131.3, -1008499.8, 2174.2312, -0.06021804, 0.1057247, -975985.94, -39896.14, 0.0, 9.999874, 9.999494 
1.4351094e+3, 2.1448e+2, -860116.5, -895747.44, 13738.2705, -0.031678263, -0.006446366, -855434.6, -17336.338, 0.0, 9.999964, 9.999557 
1.4351326e+3, 2.2447877e+2, -803251.06, -897159.4, 33959.527, -0.053851895, -0.036999047, -792257.5, -52149.754, 0.0, 10.000063, 9.998818 
1.435156e+3, 2.3447725e+2, -666811.25, -766164.8, 35719.23, -0.13679163, -0.11574618, -655302.7, -13182.431, 0.0, 10.00027, 9.998945 
1.43518e+3, 2.4447584e+2, -591331.56, -787584.94, 7565.0015, -0.15816636, -0.09049536, -591040.4, -46905.61, 0.0, 10.000558, 9.997991 
1.4352049e+3, 2.5447443e+2, -418605.4, -640335.5, 26978.494, -0.090808004, -0.07855938, -415370.06, 30783.42, 0.000000006122379, 10.001027, 9.998096 
1.4352298e+3, 2.644732e+2, -233971.13, -486992.47, 5296.687, -0.03724316, -0.0031686313, -233860.3, 114307.25, 0.0000008787704, 10.001552, 9.998231 
1.4352544e+3, 2.7447194e+2, -66077.16, -333969.25, 30253.455, 0.009555696, -0.004292377, -62703.086, 187475.75, 0.000014147242, 10.001946, 9.998418 
1.4352784e+3, 2.8447035e+2, 36419.7, -342360.06, 22408.748, -0.0066863205, 0.053071767, 37740.8, 189935.11, 0.000090681104, 10.002438, 9.997449 
1.4353018e+3, 2.944679e+2, 241229.34, -195560.36, 51658.098, -0.09297017, 0.009873688, 247255.69, 301474.9, 0.0003647409, 10.003171, 9.997432 
1.4353266e+3, 3.0446586e+2, 328061.2, -258186.31, 8154.462, 0.0011448228, 0.13986866, 328174.6, 328174.6, 0.0009617202, 10.004038, 9.996243 
1.43535e+3, 3.1446034e+2, 491672.1, -14215.077, 69091.55, -0.027682133, -0.104698434, 500938.53, 500938.53, 0.001861219, 10.004361, 9.997779 
1.4448999e+3, 1.2445031e+2, -2101301.8, -1645433.5, 57475.61, -0.063246146, 0.085570075, -1638298.6, 82099.38, 0.011047917, 9.996124, 10.002333 
1.444922e+3, 1.3445307e+2, -1705527.9, -1312505.9, -16662.334, -0.07601823, 0.034057997, -1311800.8, 310562.94, 0.00646129, 9.997859, 10.00311 
1.4449483e+3, 1.444549e+2, -1673041.9, -1531568.5, -20466.74, 0.28155893, 0.025518255, -1528667.1, -4323.0356, 0.0027186894, 9.998647, 10.000517 
1.4449689e+3, 1.5445615e+2, -1648773.0, -1498621.9, -46744.305, 0.015497367, 0.08225434, -1485258.9, -58922.996, 0.0006559602, 9.998276, 10.000253 
1.4449908e+3, 1.6445704e+2, -1564311.3, -1375473.3, -17478.963, -0.13528773, 0.14645095, -1373869.0, -45540.6, 0.000052490832, 9.998029, 10.000558 
1.4450157e+3, 1.7445734e+2, -1395337.3, -1213021.5, -44486.336, -0.006977168, 0.066226296, -1202745.6, 27577.113, 0.00000012546444, 9.9984, 10.000814 
1.4450401e+3, 1.8445766e+2, -1324651.9, -1244931.8, -25981.85, 0.07312485, 0.07665292, -1237211.5, -104892.82, 0.0, 9.998691, 9.999793 
1.4450635e+3, 1.9445765e+2, -1180658.8, -1107018.1, -34865.457, 0.046226945, 0.051777042, -1093130.1, -58810.645, 0.0, 9.998947, 9.999929 
1.4450866e+3, 2.0445733e+2, -1039258.75, -1050302.3, -28453.262, 0.009767584, 0.06242505, -1015796.4, -79474.03, 0.0, 9.999505, 9.999384 
1.4451097e+3, 2.1445635e+2, -782017.25, -860850.25, -52724.26, -0.010764464, -0.01874983, -755604.4, 82725.914, 0.0, 10.000541, 9.999509 
1.4451332e+3, 2.2445531e+2, -671855.0, -848414.94, 3861.676, -0.031758644, -0.020398792, -671770.56, 68568.26, 0.0, 10.001016, 9.9987 
1.4451571e+3, 2.3445389e+2, -592699.75, -741081.3, 1988.4072, -0.06030751, -0.07858108, -592673.1, 49678.168, 0.0, 10.000812, 9.9988575 
1.4451815e+3, 2.4445255e+2, -529468.0, -736915.0, 53404.906, -0.06824851, -0.05427847, -516526.8, 27837.95, 0.0, 10.0008955, 9.998173 
1.4452066e+3, 2.54451e+2, -333236.6, -577812.0, 49815.03, -0.048551355, -0.07166448, -323479.53, 122902.52, 0.000000012932129, 10.001504, 9.998302 
1.4452316e+3, 2.6444963e+2, -204380.4, -506255.56, 49760.16, -0.01612723, -0.008138914, -196389.63, 152007.4, 0.0000016431604, 10.0019045, 9.997927 
1.4452565e+3, 2.7444816e+2, -47404.402, -356964.47, -6562.341, 0.029363398, 0.0032009603, -47265.348, 203146.69, 0.000019343763, 10.002221, 9.998119 
1.445281e+3, 2.8444636e+2, 52517.17, -349421.72, 5223.5576, 0.02024271, 0.062140655, 52585.043, 205015.64, 0.00010742439, 10.002621, 9.997303 
1.4453053e+3, 2.9444402e+2, 217759.05, -212574.81, -25109.27, -0.033020817, 0.041630678, 219219.19, 273673.8, 0.0004102239, 10.003051, 9.997355 
1.4453308e+3, 3.044422e+2, 306696.22, -192577.77, -14819.263, 0.048776787, 0.16643606, 307135.7, 307135.7, 0.001066146, 10.003555, 9.996936 
1.445354e+3, 3.1443727e+2, 464780.78, 8954.101, -24154.684, -0.031453833, -0.09296472, 466057.2, 466057.2, 0.0020519088, 10.004035, 9.998082 
1.454896e+3, 1.2442821e+2, -2167638.8, -1801399.8, -134186.08, -0.1610752, -0.042821568, -1757498.0, -36893.55, 0.011640448, 9.996214, 10.001212 
1.4549208e+3, 1.3443047e+2, -1862545.1, -1619561.1, 76418.59, -0.0018013325, 0.04883328, -1597525.8, 25056.252, 0.0068325973, 9.997789, 10.001026 
1.4549442e+3, 1.4443038e+2, -1693306.1, -1579814.4, -49148.0, -0.070780866, -0.012721268, -1561489.4, -36905.754, 0.0028915813, 9.998671, 10.000174 
1.4549674e+3, 1.5443087e+2, -1656120.4, -1510243.9, -46360.203, 0.0006584983, -0.026734553, -1496757.3, -70175.62, 0.00070428615, 9.99826, 10.000179 
1.4549902e+3, 1.6443166e+2, -1574405.6, -1404588.3, -32357.287, -0.03187086, 0.04187527, -1398631.8, -70056.63, 0.000058062662, 9.998063, 10.000343 
1.4550133e+3, 1.7443238e+2, -1423011.5, -1255423.4, -13319.2705, -0.11591748, 0.02870604, -1254371.4, -23804.012, 0.00000016567238, 9.998337, 10.000556 
1.4550374e+3, 1.8443274e+2, -1316521.4, -1216950.6, -35749.39, -0.094747804, 0.04672687, -1205444.9, -72881.42, 0.0, 9.998638, 10.000015 
1.4550626e+3, 1.9443254e+2, -1184257.1, -1087667.8, -8537.49, 0.04121738, -0.017861433, -1086918.9, -52353.945, 0.0, 9.998821, 10.0001335 
1.455087e+3, 2.0443252e+2, -1075644.6, -1076631.8, -11077.914, 0.07122976, 0.017501233, -1065049.3, -128483.375, 0.0, 9.999306, 9.999292 
1.4551106e+3, 2.1443237e+2, -831878.75, -896954.6, 3962.4072, -0.0052557946, 0.02983609, -831638.4, 6930.9185, 0.0, 10.000258, 9.999395 
1.4551345e+3, 2.2443216e+2, -683941.0, -808791.6, -20849.615, -0.047494292, 0.09619164, -680551.2, 60020.95, 0.0, 10.000737, 9.999106 
1.4551583e+3, 2.3443167e+2, -611518.75, -706623.0, 13175.123, -0.0481604, 0.0907234, -609727.3, 32848.75, 0.0, 10.000502, 9.999242 
1.4551832e+3, 2.4443078e+2, -541588.2, -704435.6, 57427.813, -0.03764786, 0.12696202, -523373.7, 21209.635, 0.0, 10.00064, 9.998523 
1.4552088e+3, 2.5442916e+2, -342391.53, -545118.9, 92079.97, 0.0016956133, 0.06449497, -306812.47, 139785.16, 0.000000017460069, 10.001276, 9.998642 
1.4552337e+3, 2.6442724e+2, -291459.22, -636869.2, 43849.367, -0.03186837, 0.09401442, -285979.53, 62637.074, 0.000002726617, 10.001686, 9.997133 
1.4552572e+3, 2.7442473e+2, -147928.72, -504711.0, 26127.48, -0.15010759, 0.083410025, -146025.53, 104618.69, 0.000025176965, 10.001963, 9.997224 
1.4552821e+3, 2.8442198e+2, -11358.311, -417639.47, 2159.2458, -0.16572852, 0.110875346, -11346.836, 141326.44, 0.00012773139, 10.002352, 9.996963 
1.4553086e+3, 2.9441875e+2, 158925.98, -270041.38, 18042.766, -0.032013025, 0.03258702, 159683.53, 214388.7, 0.00046808438, 10.00277, 9.9971 
1.455335e+3, 3.0441734e+2, 330585.25, -79809.72, -9937.393, 0.08056145, 0.1601489, 330825.75, 330825.75, 0.00120209, 10.0032835, 9.997841 
1.4553572e+3, 3.144157e+2, 416612.94, 14581.031, 35452.203, -0.18429828, 0.1384976, 419715.25, 419715.25, 0.0023053784, 10.003572, 9.99835 
1.4648937e+3, 1.2440537e+2, -2002977.8, -1745113.8, -169818.48, -0.051072307, -0.061313134, -1660828.1, 59997.242, 0.012283002, 9.997461, 10.000998 
1.4649196e+3, 1.3440661e+2, -1999579.3, -1842843.0, -27344.357, 0.123695366, 0.068173036, -1838209.4, -215392.86, 0.00723705, 9.997543, 9.999605 
1.4649397e+3, 1.4440553e+2, -1903864.0, -1664886.4, -65137.96, -0.28272763, -0.020602407, -1648285.0, -123455.85, 0.0030819494, 9.99713, 10.000349 
1.4649661e+3, 1.5440637e+2, -1643607.4, -1453191.5, -64721.25, 0.05624123, -0.04032918, -1433276.1, -6455.0073, 0.0007585455, 9.99811, 10.000651 
1.4649904e+3, 1.644073e+2, -1486515.5, -1393720.5, 14727.723, 0.14737636, 0.027124064, -1391439.1, -62626.563, 0.00006440502, 9.998788, 10.000068 
1.4650123e+3, 1.7440774e+2, -1301844.9, -1234918.8, -10824.363, -0.087367885, 0.0142147355, -1233211.6, -2402.0522, 0.00000022299002, 9.99931, 10.000229 
1.4650358e+3, 1.8440801e+2, -1190721.0, -1139052.9, -12996.064, -0.13722531, 0.037996978, -1135968.1, -3161.1313, 0.0, 9.999464, 10.000131 
1.4650616e+3, 1.9440812e+2, -1071709.5, -1009621.4, -32098.215, 0.032300793, -0.014847865, -996010.9, 38794.2, 0.0, 9.999517, 10.000316 
1.4650866e+3, 2.044084e+2, -1023706.6, -1037519.6, 26335.828, 0.10071295, 0.03656254, -1003386.75, -66583.77, 0.0, 9.999588, 9.999435 
1.4651111e+3, 2.1440865e+2, -884076.3, -900388.06, 31592.99, 0.05323546, 0.0729487, -859603.44, -20800.334, 0.0, 9.9998045, 9.999592 
1.4651354e+3, 2.2440863e+2, -760337.3, -859419.06, 25962.271, 0.02454575, 0.1526504, -753946.7, -13141.781, 0.0, 10.000273, 9.998978 
1.4651597e+3, 2.3440795e+2, -518103.38, -678228.0, -21688.688, 0.014557214, 0.14204045, -515217.7, 127594.05, 0.0, 10.001199, 9.999102 
1.4651847e+3, 2.444069e+2, -387139.6, -636705.6, 27297.857, 0.021609662, 0.17057265, -384188.63, 160632.47, 0.0, 10.001734, 9.998462 
1.4652108e+3, 2.544052e+2, -257047.55, -502199.13, -4891.9517, 0.04212644, 0.10705741, -256949.97, 189885.2, 0.000000044837254, 10.001872, 9.998639 
1.4652358e+3, 2.6440307e+2, -230929.38, -637020.2, -10770.983, 0.01053451, 0.129317, -230643.89, 118211.86, 0.0000038968087, 10.002224, 9.996879 
1.4652601e+3, 2.744002e+2, -30327.55, -480640.38, -18549.191, -0.085725054, 0.11342803, -29564.768, 221322.38, 0.000030518888, 10.002888, 9.996956 
1.4652853e+3, 2.8439707e+2, 109060.91, -350081.53, 21980.852, -0.10417832, 0.11738563, 110110.805, 263029.78, 0.00014669454, 10.003127, 9.99706 
1.4653116e+3, 2.9439375e+2, 182777.86, -240842.48, 5831.235, -0.011187497, 0.016586017, 182858.11, 237808.92, 0.00052534003, 10.002871, 9.997247 
1.465338e+3, 3.043919e+2, 311521.6, -121651.41, 18401.486, 0.08047174, 0.10750092, 312301.88, 312301.88, 0.0013448142, 10.003306, 9.997523 
1.4653619e+3, 3.143914e+2, 486331.28, -589.6836, -95694.23, -0.090510584, 0.24502732, 504462.8, 504462.8, 0.002581009, 10.004266, 9.997898 
1.4748922e+3, 1.2438113e+2, -1932565.3, -1613011.3, 84820.81, -0.04248234, -0.0046196817, -1591892.5, 129175.086, 0.012969953, 9.997532, 10.001859 
1.4749171e+3, 1.3438147e+2, -2061307.1, -1957067.4, -47840.496, 0.10071269, 0.101388216, -1938439.9, -315371.34, 0.0076708426, 9.997499, 9.998831 
1.474935e+3, 1.4438027e+2, -1823739.8, -1523465.9, -66847.9, -0.529602, -0.0025019792, -1509256.5, 15824.889, 0.0032881629, 9.997219, 10.001286 
1.4749642e+3, 1.5438281e+2, -1575513.8, -1306499.4, -11680.55, 0.03381259, 0.047040652, -1305993.1, 121059.766, 0.00081847684, 9.99808, 10.001679 
1.4749904e+3, 1.6438413e+2, -1500723.6, -1431941.6, 14042.161, 0.2286062, 0.11143211, -1429185.3, -100146.1, 0.000071419374, 9.99882, 9.999788 
1.4750122e+3, 1.7438354e+2, -1340624.8, -1298023.3, 24129.432, -0.0718692, 0.03370694, -1287137.9, -56090.387, 0.0000002932695, 9.99924, 9.999825 
1.4750351e+3, 1.843836e+2, -1193844.3, -1145781.9, -32042.441, -0.2091829, 0.06057938, -1129760.4, 3287.544, 0.0, 9.999451, 10.000097 
1.47506e+3, 1.9438428e+2, -1087770.8, -1018524.7, -13914.905, -0.12651016, 0.06375578, -1015833.1, 19207.75, 0.0, 9.999401, 10.000317 
1.475085e+3, 2.043849e+2, -1014224.7, -978486.5, 10477.866, -0.05934496, 0.124578275, -975641.06, -38606.434, 0.0, 9.999417, 9.999918 
1.4751107e+3, 2.1438526e+2, -887555.56, -848634.6, 53432.414, 0.006777456, 0.118511416, -811229.1, 27801.998, 0.0, 9.999554, 10.000065 
1.475136e+3, 2.2438477e+2, -841823.56, -974270.2, 38158.406, 0.029491015, 0.15917526, -831616.56, -90579.78, 0.0, 10.000024, 9.998319 
1.4751607e+3, 2.3438285e+2, -603695.4, -801524.75, 31437.08, -0.012573681, 0.09633489, -598819.9, 44237.58, 0.0, 10.000956, 9.99838 
1.475186e+3, 2.4438103e+2, -454083.75, -716684.0, 13847.975, -0.05126917, 0.104972124, -453355.5, 91720.805, 0.0, 10.001481, 9.998034 
1.4752117e+3, 2.543791e+2, -327351.5, -586986.06, 18310.135, -0.07181303, 0.05871446, -326066.6, 121028.33, 0.000000082863835, 10.001607, 9.998186 
1.4752378e+3, 2.643771e+2, -248663.28, -613561.5, -637.3348, -0.043600615, 0.1026932, -248662.17, 100452.63, 0.0000048986644, 10.001962, 9.997163 
1.4752646e+3, 2.7437463e+2, -42964.184, -446697.38, 35267.266, 0.045512065, 0.09088526, -39906.64, 211233.27, 0.00003489947, 10.002631, 9.997307 
1.4752899e+3, 2.8437188e+2, 86751.96, -340230.94, -4233.4795, 0.0140406815, 0.10221598, 86793.93, 239960.13, 0.00016199093, 10.002882, 9.997245 
1.4753135e+3, 2.9436868e+2, 156690.75, -231621.13, 19314.783, -0.15348832, -0.008800523, 157649.11, 212843.5, 0.0005773318, 10.002595, 9.997442 
1.4753397e+3, 3.0436563e+2, 179652.86, -328909.75, 37619.945, -0.115758434, 0.016192341, 182420.66, 182420.66, 0.0014793195, 10.003016, 9.996238 
1.4753667e+3, 3.1436446e+2, 343998.8, -180821.19, 367.29654, -0.09478122, 0.21301717, 343999.06, 343999.06, 0.0028373718, 10.003766, 9.9969 
1.4848898e+3, 1.243552e+2, -2016185.6, -1604886.5, 154558.13, 0.03777711, 0.02984914, -1553281.4, 168045.16, 0.013700781, 9.996726, 10.002317 
1.4849141e+3, 1.3435659e+2, -2062825.9, -1898153.4, -103904.74, 0.071618095, 0.19242895, -1847917.1, -224601.77, 0.00813248, 9.997192, 9.999399 
1.4849335e+3, 1.4435506e+2, -1852110.4, -1530544.5, -21098.04, -0.3765688, 0.024328707, -1529166.1, -3835.6304, 0.0035089266, 9.99704, 10.001305 
1.4849621e+3, 1.5435755e+2, -1650906.0, -1341593.6, -85975.984, 0.042292435, 0.07130245, -1319302.4, 108000.46, 0.0008836724, 9.9975815, 10.001663 
1.4849883e+3, 1.6435902e+2, -1606276.0, -1440309.1, -49600.383, 0.20003936, 0.13824257, -1426615.6, -97328.41, 0.00007901186, 9.99796, 10.000134 
1.4850114e+3, 1.7435889e+2, -1419367.1, -1290052.4, -25898.695, -0.014272044, 0.06955916, -1285058.3, -53768.52, 0.00000037325287, 9.998533, 10.000217 
1.4850351e+3, 1.8435903e+2, -1279236.0, -1195336.1, -22917.2, -0.11145786, 0.08657833, -1189484.4, -56195.465, 0.0, 9.99889, 10.000033 
1.4850596e+3, 1.943594e+2, -1113875.6, -1036966.94, -48984.586, -0.0748214, 0.06875444, -1013145.9, 22139.24, 0.0, 9.999247, 10.000266 
1.4850846e+3, 2.0435986e+2, -968135.25, -945728.5, 3063.9338, -0.035297398, 0.11261824, -945317.06, -8037.0205, 0.0, 9.999701, 10.000002 
1.4851105e+3, 2.143602e+2, -767845.9, -776767.4, -21571.674, 0.018449722, 0.09754213, -750278.56, 88996.55, 0.0, 10.000316, 10.00019 
1.4851364e+3, 2.2435957e+2, -738908.06, -913948.1, 19659.855, 0.05255098, 0.112030454, -736727.1, 4554.037, 0.0, 10.000698, 9.998398 
1.4851621e+3, 2.3435749e+2, -596729.44, -787432.5, 32861.88, 0.033238064, 0.02768716, -591225.56, 52077.227, 0.0, 10.00097, 9.998463 
1.4851877e+3, 2.4435565e+2, -489681.0, -762966.1, 76889.72, -0.0043961178, 0.04325208, -469533.22, 75789.234, 0.0, 10.001359, 9.997778 
1.4852135e+3, 2.54354e+2, -305009.0, -604268.9, 52432.684, -0.054023217, 0.053032473, -296088.3, 151252.67, 0.00000011463164, 10.001886, 9.9979315 
1.4852402e+3, 2.643522e+2, -163986.75, -549344.7, 80301.516, -0.023302026, 0.1220378, -147923.0, 201437.02, 0.000005857849, 10.002461, 9.997354 
1.4852679e+3, 2.7434993e+2, 43691.92, -380721.84, 56703.074, 0.09265095, 0.10982526, 51137.035, 302519.9, 0.000039275426, 10.003141, 9.997506 
1.4852935e+3, 2.843473e+2, 170350.67, -326083.94, 14052.413, 0.06695307, 0.1345361, 170748.13, 324156.06, 0.00017769585, 10.003567, 9.997014 
1.4853168e+3, 2.9434413e+2, 289227.9, -200383.34, -35563.16, -0.116641015, 0.055637512, 291797.6, 347234.47, 0.0006303682, 10.003628, 9.997174 
1.485343e+3, 3.0434045e+2, 328004.53, -233981.48, 85422.12, -0.10479101, 0.02361953, 340701.84, 340701.84, 0.0016042597, 10.003902, 9.996484 
1.4853711e+3, 3.1433874e+2, 461361.4, -37372.563, 67555.61, -0.024013808, 0.13988088, 470350.1, 470350.1, 0.0030547576, 10.0041895, 9.997685 
1.4948863e+3, 1.2432749e+2, -1978613.6, -1553329.4, 41335.453, -0.08705145, 0.04772801, -1549349.0, 172253.89, 0.014485426, 9.996841, 10.002611 
1.4949094e+3, 1.3433251e+2, -1933244.1, -1612366.6, -81814.62, -0.1390919, 0.37867647, -1592710.4, 30841.564, 0.008627366, 9.997134, 10.001382 
1.4949349e+3, 1.4433025e+2, -1894715.4, -1658741.6, -35135.87, 0.0012426972, 0.07307602, -1653621.1, -128047.67, 0.0037456865, 9.997184, 10.000365 
1.4949588e+3, 1.5433082e+2, -1739121.1, -1528062.8, -50782.746, -0.07577127, 0.049439434, -1516479.6, -88910.664, 0.0009542572, 9.997582, 10.000392 
1.4949836e+3, 1.6433215e+2, -1527650.8, -1293897.6, -52184.7, -0.11758526, 0.12402679, -1282776.6, 46778.652, 0.00008722728, 9.998024, 10.001108 
1.49501e+3, 1.7433374e+2, -1349538.6, -1133448.9, 10086.976, -0.053798076, 0.11805729, -1132979.0, 98557.945, 0.0000004647829, 9.998485, 10.001313 
1.4950354e+3, 1.8433435e+2, -1285181.8, -1206864.9, -31191.244, -0.0069046128, 0.12518582, -1195960.5, -62431.15, 0.0, 9.99888, 9.999963 
1.4950602e+3, 1.943336e+2, -1147804.4, -1075582.9, -21842.535, 0.025024327, 0.010598628, -1069490.8, -33953.773, 0.0, 9.999109, 10.000069 
1.495085e+3, 2.0433341e+2, -1010757.75, -995374.2, 5312.741, 0.0129184, 0.01211538, -993717.75, -56179.582, 0.0, 9.99953, 9.999745 
1.4951105e+3, 2.1433364e+2, -820765.7, -831955.2, 17441.676, -0.036222626, 0.010396311, -808043.44, 31490.6, 0.0, 10.000083, 9.999921 
1.4951365e+3, 2.243332e+2, -725977.25, -830946.75, 9765.265, -0.043731216, 0.026715547, -725076.5, 16459.94, 0.0, 10.000446, 9.999095 
1.495163e+3, 2.3433177e+2, -578579.4, -692158.25, 59509.203, 0.0013214998, -0.07302642, -553110.75, 90438.125, 0.0, 10.000719, 9.999241 
1.4951895e+3, 2.4433073e+2, -536061.6, -796049.56, 79650.01, -0.0014129226, -0.014061997, -513600.47, 31959.932, 0.0, 10.001085, 9.997683 
1.4952156e+3, 2.5432983e+2, -352688.34, -649243.7, 92863.984, -0.053636014, 0.08517362, -326008.9, 121565.6, 0.00000015644366, 10.001645, 9.997744 
1.4952423e+3, 2.6432827e+2, -213183.66, -581998.1, 85092.97, -0.08090255, 0.19343574, -194497.7, 155095.45, 0.000006865855, 10.002171, 9.997264 
1.4952695e+3, 2.743258e+2, -8042.6484, -414558.56, 101422.85, -0.08615852, 0.16617656, 15856.592, 267475.8, 0.00004412461, 10.002837, 9.997417 
1.4952958e+3, 2.8432307e+2, 88345.95, -428964.25, -2317.0562, -0.10175482, 0.21413727, 88356.33, 242003.28, 0.00019465707, 10.003269, 9.996453 
1.495321e+3, 2.9431987e+2, 208089.58, -304641.03, -1385.4227, -0.09830195, 0.1868363, 208093.33, 263772.88, 0.0006807664, 10.003341, 9.996601 
1.4953475e+3, 3.0431616e+2, 369321.5, -62923.95, 80118.12, -0.09010899, 0.12134288, 383693.78, 383693.78, 0.0017053906, 10.003559, 9.997816 
1.4953743e+3, 3.1431383e+2, 515400.06, 202174.2, 127772.164, -0.19835724, 0.026651798, 560909.2, 560909.2, 0.0032076896, 10.003649, 9.999597 
1.5048836e+3, 1.2430027e+2, -2170960.8, -1704172.9, 59807.36, 0.028702747, 0.07546089, -1696631.9, 25241.236, 0.015336173, 9.995779, 10.002086 
1.5049061e+3, 1.3430615e+2, -1863281.4, -1459817.0, -102967.7, -0.16739556, 0.38455915, -1435058.0, 188752.94, 0.0091627855, 9.9970665, 10.00249 
1.504934e+3, 1.4430392e+2, -1833548.5, -1639842.5, -48035.055, 0.18910876, 0.028911011, -1628585.1, -102754.016, 0.0040015904, 9.997675, 10.000255 
1.5049568e+3, 1.5430467e+2, -1726923.1, -1535693.6, -29191.674, -0.03322781, 0.040373936, -1531336.6, -103511.2, 0.001031135, 9.997747, 10.000255 
1.5049814e+3, 1.6430598e+2, -1549589.8, -1308288.6, 30591.084, -0.13070619, 0.12230893, -1304470.8, 25341.38, 0.000096309515, 9.99786, 10.001102 
1.5050088e+3, 1.7430739e+2, -1347950.1, -1125701.6, -25021.637, 0.0050864825, 0.09370804, -1122919.5, 108875.94, 0.000000575819, 9.998444, 10.0013895 
1.5050352e+3, 1.8430814e+2, -1281729.9, -1185668.6, -67313.29, 0.09432663, 0.10185596, -1151006.9, -17220.686, 0.0, 9.998835, 10.000116 
1.5050597e+3, 1.943079e+2, -1108529.5, -1035671.7, -69152.04, 0.08107137, 0.02160575, -993940.0, 41848.242, 0.0, 9.999293, 10.000242 
1.5050851e+3, 2.0430768e+2, -972041.0, -989234.44, 27691.104, 0.05475314, 0.016149152, -951642.9, -13853.41, 0.0, 9.999862, 9.999624 
1.5051113e+3, 2.1430725e+2, -736700.3, -808825.1, 8048.1836, 0.01407515, -0.03286294, -735813.1, 103978.74, 0.0, 10.000742, 9.999763 
1.5051375e+3, 2.2430676e+2, -597455.94, -754410.56, 2369.728, -0.0035812915, -0.016544836, -597420.2, 144374.45, 0.0, 10.001284, 9.999208 
1.5051638e+3, 2.3430605e+2, -473197.16, -626434.56, -36895.58, -0.0073844763, -0.057563253, -464776.4, 179023.02, 0.0, 10.001389, 9.999363 
1.5051906e+3, 2.443052e+2, -447998.38, -749089.4, 9021.095, -0.0043496983, 0.012344534, -447728.34, 98080.38, 0.0, 10.001678, 9.997715 
1.5052179e+3, 2.543039e+2, -259076.2, -599057.06, -5727.9507, -0.0034064867, 0.071750864, -258979.72, 188846.67, 0.00000020302433, 10.002276, 9.997777 
1.505245e+3, 2.6430213e+2, -167849.45, -566757.75, 22530.453, -0.0269964, 0.15728983, -166580.95, 183266.34, 0.0000077496, 10.002499, 9.997216 
1.5052718e+3, 2.7429953e+2, -95665.84, -466972.94, 7171.244, -0.08637536, 0.12995909, -95527.39, 156346.67, 0.000048509926, 10.002246, 9.997357 
1.5052985e+3, 2.8429696e+2, -16234.28, -451857.53, -15866.463, -0.096935086, 0.18363981, -15657.149, 138243.69, 0.00020995413, 10.002448, 9.99668 
1.5053248e+3, 2.9429424e+2, 236084.34, -253024.11, -17527.691, -0.029883172, 0.18363537, 236711.66, 292640.44, 0.0007220719, 10.003418, 9.996884 
1.5053517e+3, 3.0429107e+2, 393407.22, -74549.62, 64753.805, -0.0134306885, 0.16037817, 402202.28, 402202.28, 0.0017709631, 10.0038, 9.997638 
1.5053785e+3, 3.1428766e+2, 399293.38, 142332.08, -63565.6, -0.08909297, -0.014047431, 414158.0, 414158.0, 0.0032780797, 10.002845, 9.999593 
1.51488e+3, 1.24275066e+2, -2225022.0, -1867242.8, -54985.68, 0.0072816424, 0.22547902, -1858982.9, -136860.84, 0.016257107, 9.995991, 10.000869 
1.5149038e+3, 1.3427773e+2, -1878394.0, -1467805.5, -20861.725, -0.15027153, 0.2067686, -1466748.3, 157342.48, 0.009740974, 9.996985, 10.002466 
1.51493e+3, 1.4427651e+2, -1762700.8, -1532681.5, -70315.11, -0.02916502, -0.073121324, -1512889.8, 13209.117, 0.0042781597, 9.997823, 10.000926 
1.5149553e+3, 1.5427913e+2, -1668085.5, -1422876.1, -11530.404, 0.013960894, 0.04680866, -1422335.1, 5736.738, 0.0011151112, 9.997776, 10.001019 
1.5149808e+3, 1.6428055e+2, -1596022.8, -1428094.6, 26457.582, -0.00952111, 0.13724412, -1424024.9, -93967.25, 0.000106548556, 9.99795, 10.0002365 
1.5150078e+3, 1.7427997e+2, -1422485.5, -1276440.4, 11836.604, 0.026135497, 0.0036150217, -1275487.3, -43423.15, 0.0000007145684, 9.998415, 10.000374 
1.5150338e+3, 1.8428051e+2, -1252046.9, -1122599.9, -70240.52, 0.029948715, 0.02607077, -1091809.6, 42248.71, 0.0, 9.998829, 10.000552 
1.5150581e+3, 1.9428232e+2, -1090717.8, -968433.8, -37135.957, -0.046218142, 0.09874774, -958039.6, 77999.13, 0.0, 9.9991665, 10.000764 
1.515084e+3, 2.0428278e+2, -1003128.06, -1012547.7, 38055.023, -0.065147184, 0.13602835, -969492.5, -31459.576, 0.0, 9.99968, 9.999555 
1.5151124e+3, 2.142812e+2, -780409.7, -839770.7, 58159.617, 0.01983803, -0.019420251, -744794.94, 95252.4, 0.0, 10.000479, 9.99968 
1.5151393e+3, 2.242804e+2, -674839.06, -846564.9, -9637.868, 0.0059386175, -0.010008518, -674299.8, 67754.61, 0.0, 10.000986, 9.998722 
1.5151642e+3, 2.3428035e+2, -546731.1, -722875.1, -13264.217, -0.13070802, 0.07139062, -545737.9, 98316.29, 0.0, 10.001145, 9.99882 
1.5151909e+3, 2.4427915e+2, -480390.0, -759718.7, 10704.135, -0.1700827, 0.13228923, -479980.4, 66085.88, 0.0, 10.001424, 9.997769 
1.5152198e+3, 2.5427622e+2, -287306.13, -599774.06, 36013.875, -0.062975764, 0.014619571, -283209.03, 164887.58, 0.00000026346208, 10.002015, 9.997903 
1.5152478e+3, 2.6427364e+2, -208056.72, -575700.3, -63.41112, -0.027993577, 0.0127985, -208056.7, 142066.17, 0.000008336701, 10.002189, 9.997304 
1.5152745e+3, 2.7427146e+2, -131257.47, -474837.25, 24207.22, -0.07642742, 0.014202346, -129560.31, 122585.15, 0.00005112129, 10.001976, 9.997434 
1.5153012e+3, 2.8426936e+2, -5130.7656, -365844.97, -927.32153, -0.10853801, 0.07898411, -5128.382, 149037.94, 0.00022272031, 10.002174, 9.997401 
1.515328e+3, 2.942673e+2, 242635.83, -169268.03, 44916.13, -0.09832036, 0.061901174, 247476.83, 303662.53, 0.0007570033, 10.003112, 9.997605 
1.5153554e+3, 3.0426496e+2, 243436.77, -295924.63, 18205.537, -0.052197196, 0.1459298, 244050.58, 244050.58, 0.001811775, 10.003443, 9.996274 
1.5153824e+3, 3.1426024e+2, 228061.78, -96061.59, -23697.334, -0.029206289, -0.013105534, 229785.17, 229785.17, 0.0032877827, 10.00238, 9.998156 
1.5248758e+3, 1.2424888e+2, -2148328.0, -1844944.4, 48536.965, -0.03213598, 0.20359193, -1837368.3, -114991.94, 0.017244658, 9.996624, 10.000694 
1.5249018e+3, 1.3425043e+2, -1823202.0, -1493484.1, 13441.949, -0.040478915, 0.11500373, -1492937.1, 131420.88, 0.010359608, 9.997624, 10.00196 
1.524928e+3, 1.4425033e+2, -1753614.5, -1511804.1, -56661.92, 0.010851617, -0.025680609, -1499185.4, 27170.51, 0.0045741852, 9.99783, 10.001054 
1.5249538e+3, 1.5425308e+2, -1577010.0, -1341099.6, -82720.08, 0.071360275, 0.07522164, -1314985.3, 113341.75, 0.0012060112, 9.998227, 10.001358 
1.5249796e+3, 1.6425426e+2, -1546159.3, -1419327.9, 13111.795, 0.064307824, 0.13122699, -1417986.6, -87671.71, 0.000118081814, 9.998399, 10.00007 
1.5250064e+3, 1.7425345e+2, -1361162.6, -1261467.1, 19649.813, 0.047498576, -0.0020126977, -1257734.0, -25409.92, 0.0000008766353, 9.998932, 10.000216 
1.5250327e+3, 1.8425387e+2, -1188563.1, -1087823.8, -16961.555, 0.034179226, 0.0148271555, -1085044.6, 49274.94, 0.0, 9.999236, 10.000609 
1.5250576e+3, 1.9425566e+2, -1031213.94, -934220.9, -56262.44, -0.019438718, 0.08077348, -908438.4, 127860.84, 0.0, 9.9995365, 10.000839 
1.5250841e+3, 2.0425615e+2, -979265.94, -1023089.1, 44389.293, -0.020766145, 0.12827937, -951674.75, -13381.709, 0.0, 9.999909, 9.999379 
1.525113e+3, 2.142548e+2, -795230.4, -869460.94, 23246.115, 0.043492816, 0.009996327, -788551.56, 51755.203, 0.0, 10.000448, 9.999496 
1.5251404e+3, 2.2425382e+2, -677424.25, -871286.5, -9272.373, 0.030612316, 0.02216482, -676981.8, 65334.0, 0.0, 10.001057, 9.998526 
1.5251659e+3, 2.3425315e+2, -466993.75, -703406.2, -25842.188, -0.09248107, 0.061865073, -464201.9, 180118.53, 0.0, 10.001771, 9.998652 
1.525193e+3, 2.4425153e+2, -394344.5, -728875.8, 33349.24, -0.12513624, 0.09510707, -391052.34, 155283.72, 0.0, 10.002085, 9.997646 
1.5252219e+3, 2.542485e+2, -307548.16, -618524.06, 2943.9966, -0.03766162, -0.018302146, -307520.28, 140847.38, 0.0000003530132, 10.001936, 9.997796 
1.5252501e+3, 2.6424605e+2, -191384.05, -533135.44, 332.63098, 0.011151735, -0.022648796, -191383.72, 159008.72, 0.000008619123, 10.002121, 9.997639 
1.5252775e+3, 2.7424416e+2, 3923.262, -356577.34, 2478.9216, -0.00037550775, -0.028496066, 3940.3071, 256349.98, 0.000051931653, 10.002684, 9.997891 
1.5253043e+3, 2.8424212e+2, 135499.6, -270941.13, 24446.66, -0.03684977, 0.0036549456, 136964.73, 291393.13, 0.00023518385, 10.003008, 9.997673 
1.525331e+3, 2.9423973e+2, 234444.42, -154700.17, -4138.327, -0.08879716, -0.066707596, 234488.42, 290939.03, 0.000791527, 10.002934, 9.99783 
1.5253587e+3, 3.0423787e+2, 248966.13, -294883.4, 32884.94, -0.031384666, 0.059684094, 250947.36, 250947.36, 0.0018473181, 10.003469, 9.996282 
1.525387e+3, 3.1423372e+2, 521481.66, -5453.8667, 10246.339, 0.109391496, -0.0400396, 521680.84, 521680.84, 0.0032834376, 10.004599, 9.997724 
1.5348715e+3, 1.24222286e+2, -2062434.8, -1703681.6, 94255.61, -0.22102481, 0.043429445, -1680425.4, 42204.793, 0.018294634, 9.996764, 10.001604 
1.5349002e+3, 1.3422455e+2, -1901181.1, -1657620.8, 54849.906, 0.00239097, 0.1284723, -1645838.5, -21229.055, 0.011016667, 9.997644, 10.000814 
1.5349276e+3, 1.4422567e+2, -1750758.6, -1550986.6, -71264.81, 0.11614496, 0.19461551, -1528170.1, -1570.949, 0.0048880493, 9.998013, 10.000704 
1.5349515e+3, 1.5422677e+2, -1594787.5, -1363652.0, -56055.76, -0.012656072, 0.14604162, -1350774.6, 77813.68, 0.0013030368, 9.998174, 10.001231 
1.5349771e+3, 1.6422737e+2, -1499900.6, -1346003.9, 6253.616, -0.06850271, 0.13034648, -1345750.1, -15168.517, 0.00013086536, 9.998481, 10.00054 
1.5350045e+3, 1.7422788e+2, -1330994.9, -1190579.5, 52412.395, -0.070988744, 0.07727947, -1173173.4, 59401.863, 0.0000010420176, 9.998895, 10.000721 
1.5350315e+3, 1.8422823e+2, -1213125.3, -1142408.9, -29638.906, -0.056055214, 0.079588935, -1131629.5, 2940.0747, 0.0, 9.999244, 10.000234 
1.5350579e+3, 1.942279e+2, -1071086.3, -997760.2, -31916.248, 0.017271355, -0.027665634, -985814.3, 50755.254, 0.0, 9.999446, 10.000449 
1.5350848e+3, 2.0422783e+2, -1024361.75, -1072639.6, 44667.91, 0.026882287, -0.006052585, -997727.56, -59158.063, 0.0, 9.9997225, 9.999126 
1.5351127e+3, 2.1422796e+2, -854351.94, -930667.94, 59731.785, -0.0555344, 0.05164809, -821630.3, 18940.281, 0.0, 10.000187, 9.999199 
1.5351406e+3, 2.2422706e+2, -716729.9, -882328.06, -1468.8157, -0.091628686, 0.083803944, -716716.9, 25861.748, 0.0, 10.000751, 9.998596 
1.5351684e+3, 2.3422448e+2, -495069.9, -701897.25, 20653.484, -0.042387675, -0.08158919, -493027.66, 151570.53, 0.0, 10.001506, 9.998794 
1.5351962e+3, 2.4422231e+2, -467479.3, -801300.8, 13728.625, -0.03996173, -0.09539698, -466915.66, 79702.98, 0.0, 10.001758, 9.997299 
1.5352237e+3, 2.542206e+2, -377170.78, -701705.25, 19322.814, -0.07489792, -0.039614473, -376024.34, 72616.88, 0.0000004707298, 10.001685, 9.997341 
1.5352517e+3, 2.6421908e+2, -185398.77, -463593.56, 938.80347, -0.076139174, 0.047906112, -185395.61, 165261.92, 0.0000086272985, 10.001873, 9.998235 
1.5352802e+3, 2.7421752e+2, 17536.988, -274633.97, 40824.2, -0.03000108, 0.003515121, 23134.016, 275802.3, 0.000052741245, 10.00245, 9.998568 
1.5353073e+3, 2.8421503e+2, 83060.29, -313433.53, 5141.1807, -0.058568016, -0.039325695, 83126.94, 237816.53, 0.00024875673, 10.002718, 9.997523 
1.5353334e+3, 2.9421145e+2, 175392.36, -207964.86, 22520.521, -0.17590208, -0.20895225, 176710.81, 233434.25, 0.00082812813, 10.002637, 9.997604 
1.5353614e+3, 3.0420995e+2, 273024.53, -170348.06, 53501.53, -0.12878802, -0.08115243, 279389.16, 279389.16, 0.0018929937, 10.003159, 9.997282 
1.5353912e+3, 3.1420773e+2, 459362.94, 12880.94, 112871.87, -0.00035614506, -0.10600685, 486275.1, 486275.1, 0.003309854, 10.003986, 9.998134 
1.5448694e+3, 1.2419613e+2, -2073644.4, -1648935.6, 95334.78, -0.062236756, 0.009402897, -1628517.4, 94365.875, 0.019406972, 9.996414, 10.002154 
1.5448986e+3, 1.3419794e+2, -2029581.6, -1792324.8, 15019.645, 0.10684533, 0.0977732, -1791377.6, -166509.45, 0.0117135905, 9.997024, 10.000202 
1.5449257e+3, 1.4419873e+2, -1945661.3, -1662728.9, -25138.426, 0.18514119, 0.17209966, -1660512.8, -133650.25, 0.0052204016, 9.996771, 10.000538 
1.5449494e+3, 1.5419956e+2, -1640819.1, -1391371.6, -34806.04, -0.01786995, 0.10387047, -1386606.1, 42248.664, 0.0014059248, 9.997871, 10.001197 
1.5449755e+3, 1.6420034e+2, -1481710.3, -1315292.0, 54107.59, -0.070873655, 0.09920472, -1299247.0, 31599.43, 0.00014487762, 9.998525, 10.000718 
1.5450038e+3, 1.7420156e+2, -1327544.6, -1168936.8, 36249.184, -0.020686675, 0.09771143, -1161044.9, 71787.41, 0.000001197513, 9.998825, 10.000902 
1.5450314e+3, 1.8420191e+2, -1255017.4, -1206133.3, -13339.927, 0.027389828, 0.1077907, -1202729.9, -67902.84, 0.0, 9.999172, 9.999815 
1.545058e+3, 1.9420077e+2, -1025875.25, -1021776.1, -53848.117, 0.08861117, -0.035547294, -969938.56, 66897.71, 0.0, 9.999983, 10.0000105 
1.5450856e+3, 2.0420027e+2, -914553.8, -1034557.2, 51866.89, 0.09512161, -0.025618408, -895243.6, 43597.35, 0.0, 10.000557, 9.998983 
1.5451138e+3, 2.1420056e+2, -757229.5, -896439.3, 38406.527, 0.0089239925, 0.06252306, -747336.56, 93503.72, 0.0, 10.000921, 9.99908 
1.5451418e+3, 2.2419967e+2, -638990.06, -822763.1, 27151.648, -0.03173744, 0.09547951, -635062.5, 107785.17, 0.0, 10.00121, 9.99877 
1.5451701e+3, 2.3419702e+2, -475643.5, -664592.75, 10233.673, -0.017824192, -0.097921744, -475090.84, 169776.48, 0.0, 10.001551, 9.999012 
1.5451983e+3, 2.4419494e+2, -428832.16, -767556.1, 43078.527, -0.007315953, -0.121192664, -423439.3, 123446.82, 0.000000000009610117, 10.001934, 9.997463 
1.5452264e+3, 2.541935e+2, -263337.44, -628128.56, 56879.195, 0.008769202, -0.048545018, -254674.4, 194230.33, 0.0000005675007, 10.002367, 9.997536 
1.5452547e+3, 2.6419228e+2, -89432.875, -409190.97, 81683.97, 0.020191744, 0.05250569, -69774.79, 281143.3, 0.000008574752, 10.002526, 9.998291 
1.5452828e+3, 2.7419078e+2, 6255.3203, -285718.28, 36207.074, 0.003580234, 0.020384332, 10678.287, 263607.03, 0.00005426492, 10.002391, 9.998531 
1.5453102e+3, 2.841883e+2, 27718.117, -364291.94, 5273.4883, -0.02768171, -0.010977593, 27789.047, 182740.17, 0.00026286932, 10.002475, 9.997259 
1.5453368e+3, 2.9418463e+2, 191857.55, -231602.58, -35252.563, -0.09454028, -0.15825549, 194772.22, 251759.7, 0.0008685198, 10.002916, 9.997281 
1.5453653e+3, 3.0418283e+2, 350532.3, -74041.26, 38850.84, -0.05351566, -0.072637044, 354058.1, 354058.1, 0.0019600103, 10.003421, 9.997827 
1.545395e+3, 3.141813e+2, 420073.88, -9081.8545, -19814.678, 0.018896941, -0.07441858, 420986.8, 420986.8, 0.0033957069, 10.003705, 9.998124 
1.5548669e+3, 1.2416976e+2, -2028523.6, -1591713.5, -4967.129, -0.044225078, 0.06110702, -1591657.0, 131485.05, 0.020587768, 9.996586, 10.002466 
1.5548956e+3, 1.3417092e+2, -2032099.8, -1774554.0, 8503.8, 0.087013714, 0.073984146, -1774273.5, -149142.28, 0.012455585, 9.996944, 10.000365 
1.5549214e+3, 1.441694e+2, -1921642.5, -1636459.8, -21647.76, 0.033277925, -0.098935805, -1634825.9, -107679.34, 0.0055746003, 9.996857, 10.000682 
1.5549468e+3, 1.5417157e+2, -1637333.4, -1383308.6, 26078.428, -0.10182052, -0.042629685, -1380659.0, 48466.17, 0.001515748, 9.997873, 10.001251 
1.5549742e+3, 1.6417345e+2, -1468935.6, -1314743.1, 48013.46, -0.11306682, 0.06259988, -1301014.6, 30091.79, 0.00016035176, 9.998627, 10.000678 
1.5550038e+3, 1.7417465e+2, -1339028.0, -1182532.9, 59624.242, 0.062329903, 0.068058535, -1162404.9, 70689.125, 0.0000013687348, 9.998779, 10.000834 
1.555032e+3, 1.8417506e+2, -1293321.4, -1272754.4, -6298.854, 0.12905312, 0.10826541, -1270978.6, -135888.47, 0.0, 9.999124, 9.999378 
1.5550579e+3, 1.941743e+2, -1089395.4, -1111273.9, -7107.8667, 0.048266504, 0.053585786, -1087289.0, -50190.2, 0.0, 9.999814, 9.999474 
1.5550856e+3, 2.0417352e+2, -940092.75, -1059044.9, 46235.1, 0.02346274, 0.06998308, -924235.6, 14871.425, 0.0, 10.000416, 9.998894 
1.5551157e+3, 2.1417263e+2, -789815.25, -916373.9, 69665.06, 0.094944775, 0.046022013, -758980.3, 82135.1, 0.0, 10.000699, 9.999061 
1.5551442e+3, 2.2417176e+2, -669191.44, -817282.0, 21642.697, 0.042186987, 0.07107174, -666093.3, 77028.81, 0.0, 10.0009165, 9.998948 
1.5551704e+3, 2.3417056e+2, -501304.75, -665980.25, 39389.027, -0.16038126, 0.0047131106, -492368.2, 152761.42, 0.0, 10.001318, 9.99912 
1.5551986e+3, 2.4416915e+2, -419293.88, -684110.1, 42604.156, -0.19048387, 0.009513463, -412608.4, 134532.47, 0.0, 10.001657, 9.998171 
1.5552294e+3, 2.5416726e+2, -242917.2, -530529.2, 89355.0, 0.05311449, -0.04284548, -217417.33, 231741.4, 0.0000005355393, 10.002124, 9.998325 
1.5552585e+3, 2.6416555e+2, -167373.2, -507679.56, 61080.656, 0.12553115, -0.00563029, -156742.11, 194433.17, 0.000008556659, 10.002256, 9.99774 
1.5552849e+3, 2.7416393e+2, -80749.94, -404280.34, 54392.23, -0.037392266, 0.00883801, -71850.28, 181341.14, 0.000056489618, 10.002129, 9.997837 
1.5553121e+3, 2.8416184e+2, -53026.477, -466888.66, 2483.9822, -0.1052421, 0.08096096, -53011.57, 102202.07, 0.00027893353, 10.002198, 9.996685 
1.5553406e+3, 2.941589e+2, 118051.5, -318941.5, 5607.0015, -0.036957465, 0.058524903, 118123.43, 175368.73, 0.0009153457, 10.002641, 9.996809 
1.5553695e+3, 3.0415618e+2, 303771.88, -98891.34, 32713.746, -0.0009491255, 0.077119514, 306412.3, 306412.3, 0.0020539227, 10.003131, 9.997785 
1.5553977e+3, 3.1415406e+2, 299445.22, -107012.82, 35757.15, -0.14051466, 0.010096653, 302566.88, 302566.88, 0.003550542, 10.00309, 9.997729 
1.5648644e+3, 1.2414252e+2, -2032378.6, -1581413.4, 41578.734, 0.077991, 0.040500622, -1577611.9, 145797.38, 0.021849003, 9.996502, 10.002598 
1.5648922e+3, 1.3414429e+2, -2000862.0, -1758185.1, -40730.223, 0.05812736, 0.13055596, -1751531.5, -126139.04, 0.013250772, 9.997149, 10.00039 
1.5649182e+3, 1.4414243e+2, -1784142.9, -1571666.3, -6148.277, -0.014719895, -0.085934065, -1571488.5, -44077.46, 0.0059556314, 9.997817, 10.000656 
1.5649453e+3, 1.5414453e+2, -1538494.8, -1356365.1, -17767.361, -0.05148424, -0.021374032, -1354648.0, 74741.96, 0.0016345053, 9.998643, 10.001057 
1.5649734e+3, 1.641461e+2, -1458812.4, -1361285.6, -9021.442, -0.04628493, 0.08279146, -1360458.1, -29083.658, 0.00017771397, 9.998906, 10.0002365 
1.565003e+3, 1.7414661e+2, -1326531.0, -1227057.9, -56517.96, 0.10576664, 0.06568129, -1201508.3, 31861.918, 0.0000016137079, 9.999062, 10.000402 
1.5650316e+3, 1.8414682e+2, -1246262.3, -1264870.8, -65038.16, 0.16785188, 0.11460634, -1189866.1, -54496.883, 0.0, 9.999495, 9.999261 
1.5650581e+3, 1.9414659e+2, -986763.2, -1075384.8, -66052.3, 0.058243904, 0.11980834, -951535.56, 85838.125, 0.0, 10.000548, 9.999378 
1.5650862e+3, 2.0414598e+2, -876762.94, -995871.7, 16195.93, 0.039668713, 0.1499687, -874599.94, 64779.77, 0.0, 10.000765, 9.999132 
1.5651166e+3, 2.1414487e+2, -831420.3, -895586.7, 17939.875, 0.14904732, 0.073253684, -826745.25, 14643.1045, 0.0, 10.000294, 9.999371 
1.5651454e+3, 2.2414379e+2, -759032.7, -889727.4, 29668.346, 0.12094866, 0.073952615, -752613.1, -9216.676, 0.0, 10.000397, 9.998718 
1.5651722e+3, 2.3414263e+2, -521965.88, -696342.0, -7603.86, -0.09745843, 0.03472459, -521634.9, 123770.375, 0.0, 10.001257, 9.998939 
1.5652007e+3, 2.4414134e+2, -367197.78, -623465.06, -8530.932, -0.14065006, 0.047078192, -366914.1, 180501.28, 0.0, 10.001844, 9.998503 
1.5652314e+3, 2.5413966e+2, -229118.78, -478829.63, -25290.84, 0.056882363, -0.020971194, -226583.06, 222846.27, 0.00000039469393, 10.002023, 9.998724 
1.5652607e+3, 2.6413777e+2, -180301.89, -535157.06, -36076.79, 0.13142666, -0.012470323, -176671.25, 174775.6, 0.000008163994, 10.002253, 9.997557 
1.5652877e+3, 2.741355e+2, -46663.91, -414090.03, -57298.496, 0.024903921, -0.037540734, -37935.797, 215534.89, 0.000058543963, 10.002471, 9.997606 
1.5653154e+3, 2.8413343e+2, 54111.027, -413338.28, -11413.021, -0.024962524, 0.05093568, 54389.516, 209882.95, 0.00029613846, 10.002916, 9.996732 
1.5653442e+3, 2.9413143e+2, 293419.44, -226873.44, -12334.983, 0.006986077, 0.1223716, 293711.72, 351228.06, 0.00096601876, 10.003798, 9.996905 
1.5653734e+3, 3.0412823e+2, 442949.34, -66352.41, 45947.887, 0.033938643, 0.10072768, 447061.44, 447061.44, 0.0021664347, 10.004219, 9.997486 
1.565402e+3, 3.1412646e+2, 370246.75, -120457.35, -58612.965, -0.03145824, 0.11142326, 377150.72, 377150.72, 0.0037572663, 10.00372, 9.997355 
1.5748607e+3, 1.24114305e+2, -2000698.0, -1550957.1, 78807.8, -0.025831327, -0.04347109, -1537547.5, 186138.25, 0.023204513, 9.99663, 10.002762 
1.5748875e+3, 1.3411824e+2, -2000731.4, -1760313.6, 345.57986, -0.16808604, 0.2861411, -1760313.1, -134662.47, 0.014108494, 9.997165, 10.000362 
1.5749153e+3, 1.4411832e+2, -1766724.6, -1578090.3, 1908.8601, -0.12602404, 0.25365937, -1578070.9, -50419.234, 0.0063687824, 9.997992, 10.000532 
1.574945e+3, 1.5411845e+2, -1581554.0, -1437048.5, 22032.043, 0.006137243, 0.17743865, -1433764.1, -4115.035, 0.00176415, 9.998611, 10.000519 
1.5749727e+3, 1.6411825e+2, -1500707.6, -1463636.6, -26669.098, -0.03408994, 0.1668527, -1449694.4, -118043.41, 0.00019721544, 9.998965, 9.999505 
1.575001e+3, 1.7411748e+2, -1383539.6, -1338974.1, -34280.824, -0.03825327, 0.093313225, -1320370.5, -86710.43, 0.0000019795527, 9.999033, 9.999647 
1.5750295e+3, 1.8411735e+2, -1222904.6, -1220756.4, -47872.508, -0.018463502, 0.13302507, -1173945.9, -38283.137, 0.0, 9.999502, 9.999563 
1.5750581e+3, 1.941179e+2, -984562.56, -1033920.44, -12956.974, -0.02586949, 0.18369433, -981368.0, 56290.133, 0.0, 10.000389, 9.999741 
1.5750869e+3, 2.0411792e+2, -871164.4, -944968.0, -18806.77, -0.024852041, 0.23320135, -866648.3, 73008.42, 0.0, 10.000584, 9.999572 
1.5751159e+3, 2.14117e+2, -838571.1, -857183.0, 12643.79, 0.029300693, 0.13593039, -832177.8, 9483.649, 0.0, 10.00006, 9.999752 
1.5751453e+3, 2.2411557e+2, -823250.1, -966001.44, 41558.504, 0.044157095, 0.099193044, -812032.9, -68360.37, 0.0, 10.000151, 9.99831 
1.575175e+3, 2.3411328e+2, -597226.25, -791848.44, 39617.664, 0.017393973, -0.0037216342, -589470.6, 56223.223, 0.0, 10.000994, 9.998411 
1.5752038e+3, 2.4411164e+2, -417648.72, -652795.9, -17584.14, -0.02984329, 0.0044063115, -416341.06, 131367.52, 0.0, 10.00152, 9.998454 
1.5752321e+3, 2.5411078e+2, -271926.5, -505409.22, -1903.9119, -0.10018606, 0.013534819, -271910.97, 177804.69, 0.00000029448665, 10.001752, 9.998669 
1.575261e+3, 2.6410905e+2, -220215.67, -552663.25, -46300.273, -0.08903236, 0.038001787, -213887.84, 137844.06, 0.000007127328, 10.001969, 9.997576 
1.5752906e+3, 2.7410567e+2, -73757.016, -416690.28, -28012.746, 0.029406162, -0.102799006, -71483.84, 182281.1, 0.000059012113, 10.002243, 9.9977 
1.575319e+3, 2.841033e+2, 53739.324, -362284.84, -353.13638, 0.029541995, -0.07199978, 53739.625, 209528.56, 0.00030982727, 10.002687, 9.997191 
1.5753469e+3, 2.9410246e+2, 270751.22, -185627.84, 49268.195, -0.119797565, 0.05952367, 276009.34, 333807.9, 0.0010139579, 10.003419, 9.99737 
1.5753764e+3, 3.040991e+2, 345762.72, -175032.38, 17306.709, -0.120869935, 0.02968368, 346337.2, 346337.2, 0.002282275, 10.0038395, 9.996905 
1.5754068e+3, 3.140984e+2, 270781.78, -193531.16, -18401.742, 0.0031419992, 0.19601421, 271509.94, 271509.94, 0.003978954, 10.0031805, 9.9970875 
1.5848565e+3, 1.2408586e+2, -2134506.5, -1605264.4, 49726.684, -0.049986657, -0.018373385, -1600632.6, 123330.49, 0.024665277, 9.995682, 10.002815 
1.5848842e+3, 1.3408913e+2, -2075140.1, -1769423.4, -32278.697, -0.164372, 0.22174995, -1766052.4, -140119.22, 0.0150364665, 9.9965315, 10.000597 
1.5849139e+3, 1.4408967e+2, -1829752.9, -1639669.6, -8222.439, -0.030287476, 0.23173884, -1639314.6, -111385.26, 0.0068181083, 9.997683, 10.000265 
1.5849441e+3, 1.5408947e+2, -1614179.5, -1499923.3, -26815.373, 0.07947818, 0.16291274, -1493942.9, -64010.883, 0.0019058621, 9.998569, 10.000114 
1.584972e+3, 1.6408892e+2, -1510289.9, -1503904.0, -35242.695, 0.0022214367, 0.1561081, -1471709.9, -139771.44, 0.0002187055, 9.999068, 9.999173 
1.585e+3, 1.7408782e+2, -1323988.8, -1340690.3, -53698.008, -0.051955637, 0.08091822, -1277996.0, -44044.598, 0.000002466339, 9.999594, 9.99936 
1.5850289e+3, 1.8408753e+2, -1181934.9, -1191180.8, -17901.506, -0.02094673, 0.11822416, -1168069.0, -32113.553, 0.0, 9.999753, 9.99964 
1.5850584e+3, 1.9408813e+2, -1056184.3, -1052734.6, -35639.41, 0.01313734, 0.16250515, -1018778.25, 19170.87, 0.0, 9.999831, 9.999874 
1.5850875e+3, 2.0408814e+2, -963782.7, -1015771.6, -50188.69, 0.03401231, 0.2111766, -933256.25, 6691.636, 0.0, 10.000023, 9.999373 
1.5851164e+3, 2.1408711e+2, -775336.25, -852525.6, -94862.945, 0.07094592, 0.12296526, -711517.44, 130437.65, 0.0, 10.000555, 9.999561 
1.5851462e+3, 2.240857e+2, -701781.44, -870942.6, -14197.191, 0.09760112, 0.08553995, -700598.2, 43368.063, 0.0, 10.000867, 9.998614 
1.5851766e+3, 2.3408367e+2, -542966.5, -732588.06, 8894.011, 0.09045123, -0.01696463, -542550.25, 103433.79, 0.0, 10.001225, 9.998722 
1.5852061e+3, 2.4408217e+2, -444911.63, -668660.44, -3446.9155, 0.051710654, -0.008299782, -444858.53, 103139.016, 0.0, 10.001362, 9.998413 
1.5852341e+3, 2.5408146e+2, -350537.34, -556158.3, -35726.68, -0.04715737, 0.02936016, -344506.7, 105498.19, 0.00000023115544, 10.001272, 9.998556 
1.585263e+3, 2.6407993e+2, -263264.78, -545357.44, -18318.467, -0.06106514, 0.0733541, -262080.19, 89939.58, 0.0000061293663, 10.001567, 9.997808 
1.5852928e+3, 2.7407697e+2, 4438.2637, -344488.75, -26392.096, 0.029036716, -0.05238117, 6423.214, 260471.4, 0.000060026516, 10.002655, 9.99798 
1.585322e+3, 2.840747e+2, 121946.984, -312890.0, 10021.387, 0.043340977, -0.033045784, 122177.82, 278248.0, 0.0003212461, 10.003089, 9.997325 
1.5853505e+3, 2.940733e+2, 149730.97, -230880.97, -16908.654, -0.046191677, 0.032644548, 150480.66, 208564.7, 0.0010570007, 10.002515, 9.997486 
1.5853803e+3, 3.0406946e+2, 238025.61, -263246.7, 25068.494, -0.06559512, -0.044152983, 239276.16, 239276.16, 0.0023875379, 10.003216, 9.996625 
1.5854113e+3, 3.1406903e+2, 619800.25, 7417.4814, -71860.36, 0.043940313, 0.19606853, 628119.75, 628119.75, 0.0041731168, 10.005427, 9.997406 
1.5948524e+3, 1.2405715e+2, -2119656.8, -1637051.5, -84985.805, -0.114192545, 0.059797056, -1622523.0, 101718.67, 0.026239868, 9.995914, 10.002498 
1.5948825e+3, 1.3405718e+2, -2058564.0, -1737586.8, 43459.816, -0.017707597, -0.062455807, -1731806.5, -105568.8, 0.016040104, 9.996545, 10.000806 
1.5949132e+3, 1.440562e+2, -1835245.6, -1696945.8, 5270.0547, 0.06997598, -0.1855786, -1696745.3, -168498.03, 0.0073062, 9.997862, 9.999792 
1.5949422e+3, 1.5405776e+2, -1626095.0, -1537932.4, 18963.535, 0.011078342, -0.05215267, -1534026.4, -103789.805, 0.002060233, 9.998614, 9.999837 
1.5949705e+3, 1.6405852e+2, -1492934.3, -1491755.0, -39860.645, -0.1019987, 0.08533042, -1452479.6, -120246.74, 0.00024185247, 9.999166, 9.999212 
1.5949997e+3, 1.7405781e+2, -1329419.6, -1344062.0, -19823.723, -0.062157866, 0.04673232, -1315608.4, -81366.02, 0.0000030340082, 9.9995575, 9.999355 
1.5950292e+3, 1.840574e+2, -1189410.3, -1207202.8, -33021.27, -0.00596795, 0.07559108, -1164107.9, -27860.568, 0.0, 9.999751, 9.999531 
1.5950587e+3, 1.9405732e+2, -1088598.4, -1083764.5, -16213.793, 0.02934422, 0.062710695, -1069788.5, -31541.94, 0.0, 9.999684, 9.999728 
1.5950881e+3, 2.0405684e+2, -1035445.9, -1127112.0, -48452.95, 0.058460347, 0.104675464, -1014582.94, -74331.875, 0.0, 9.999861, 9.998685 
1.5951177e+3, 2.1405555e+2, -868800.3, -980584.2, -58555.848, 0.12724595, 0.0630243, -843743.5, -1478.0787, 0.0, 10.0002775, 9.998814 
1.5951474e+3, 2.2405456e+2, -677794.56, -764648.75, -17697.879, 0.11624734, 0.06691343, -674326.8, 69947.21, 0.0, 10.000608, 9.999471 
1.595177e+3, 2.3405385e+2, -513676.84, -609746.5, 43602.383, -0.009637591, -0.007882314, -496838.63, 149436.73, 0.0, 10.00095, 9.999701 
1.5952067e+3, 2.4405302e+2, -500571.94, -712857.25, -18868.67, -0.05191636, 0.020214764, -498907.88, 49373.49, 0.0, 10.00106, 9.998249 
1.5952365e+3, 2.5405174e+2, -409270.47, -609004.4, -22152.764, 0.053721305, 0.026902316, -406843.0, 43453.637, 0.00000009760233, 10.000994, 9.998316 
1.5952659e+3, 2.640505e+2, -277609.4, -523018.44, 1333.8536, 0.049200144, 0.09888497, -277602.16, 74708.12, 0.0000054247644, 10.001331, 9.998077 
1.5952943e+3, 2.740493e+2, -16116.094, -322949.5, 35979.574, -0.1151192, 0.108519316, -11953.564, 242368.08, 0.0000627863, 10.002367, 9.99827 
1.5953235e+3, 2.8404737e+2, 53534.773, -367729.34, -26823.453, -0.14167032, 0.15377192, 55235.855, 211576.16, 0.0003316825, 10.002725, 9.99712 
1.5953541e+3, 2.9404363e+2, 92309.625, -281813.16, -11230.4795, 0.026417779, 0.013627239, 92646.44, 151022.39, 0.0010854213, 10.002231, 9.997273 
1.5953843e+3, 3.0403906e+2, 175450.38, -313844.5, 79166.77, -0.0045706755, -0.11272049, 187940.53, 187940.53, 0.002452568, 10.002899, 9.996422 
1.5954147e+3, 3.1403878e+2, 560653.8, 54984.67, 66894.375, -0.1966546, 0.15228847, 569353.5, 569353.5, 0.0042845714, 10.004728, 9.998062 
1.6048495e+3, 1.24026895e+2, -2055075.4, -1655592.6, -51797.9, -0.01117029, 0.032606672, -1648985.8, 75550.37, 0.027939666, 9.996606, 10.002044 
1.6048807e+3, 1.3402599e+2, -1861382.6, -1649912.5, -11251.835, 0.10648097, -0.1679934, -1649315.5, -22774.895, 0.01712635, 9.99796, 10.000725 
1.6049115e+3, 1.440252e+2, -1816021.5, -1690507.3, -18974.58, 0.11941804, -0.25650597, -1687701.4, -159153.34, 0.007836914, 9.998042, 9.99973 
1.6049407e+3, 1.5402712e+2, -1653525.1, -1537001.4, -28993.607, 0.015116824, -0.09634622, -1530185.8, -99650.914, 0.0022287087, 9.998393, 9.999933 
1.6049698e+3, 1.6402827e+2, -1549002.1, -1491583.9, -26721.826, -0.06012946, 0.06291378, -1481072.1, -148544.44, 0.00026665046, 9.998677, 9.999437 
1.6049995e+3, 1.7402804e+2, -1320353.4, -1307054.0, -25156.162, -0.027356572, 0.04842389, -1287683.5, -53151.625, 0.0000036433328, 9.999492, 9.999631 
1.6050293e+3, 1.8402766e+2, -1186817.8, -1230711.4, -18532.578, 0.029412763, 0.07604199, -1180039.6, -43503.69, 0.0, 9.999865, 9.999317 
1.6050589e+3, 1.940268e+2, -1056711.8, -1094207.0, -46783.773, 0.074239075, 0.0038966879, -1025059.0, 13483.71, 0.0, 9.999989, 9.999515 
1.6050886e+3, 2.0402591e+2, -991402.1, -1122294.5, -12678.201, 0.1131018, 0.025224146, -990185.44, -49633.676, 0.0, 10.000256, 9.998524 
1.6051185e+3, 2.1402498e+2, -771959.94, -943907.94, -16878.027, 0.14332868, 0.035368294, -770318.9, 72245.56, 0.0, 10.001015, 9.998697 
1.6051483e+3, 2.2402428e+2, -593720.5, -735425.25, 28442.277, 0.121750295, 0.07949083, -588224.8, 156346.9, 0.0, 10.001223, 9.9993725 
1.6051778e+3, 2.3402388e+2, -543292.2, -619238.75, -24804.787, 0.013336476, 0.038985275, -535908.56, 110662.6, 0.0, 10.000737, 9.999715 
1.6052078e+3, 2.4402304e+2, -527815.06, -725635.06, -68011.92, -0.015406892, 0.066458516, -506688.34, 41889.117, 0.0, 10.000879, 9.998254 
1.6052383e+3, 2.540213e+2, -251107.7, -532275.9, -83352.21, 0.08709547, 0.029500825, -228255.33, 222341.48, 0.000000007673713, 10.002071, 9.998329 
1.605268e+3, 2.6401982e+2, -90791.3, -419012.4, -31790.607, 0.07925476, 0.07151545, -87740.5, 264871.7, 0.0000049768487, 10.0025425, 9.998219 
1.6052966e+3, 2.7401894e+2, -71916.05, -339632.53, -62599.082, -0.09513722, 0.11043257, -58001.914, 196618.36, 0.00006482946, 10.001921, 9.998392 
1.6053262e+3, 2.840173e+2, -3290.1467, -388902.63, -59930.555, -0.10857334, 0.17776132, 5809.328, 162445.72, 0.00033743004, 10.002259, 9.997222 
1.6053577e+3, 2.9401404e+2, 369234.44, -133020.5, -66436.72, 0.09264515, 0.074698396, 377873.88, 436542.25, 0.0010902435, 10.004053, 9.997429 
1.6053884e+3, 3.0401e+2, 417042.75, -200713.8, 76422.49, 0.043335132, -0.007175679, 426356.53, 426356.53, 0.0024558206, 10.0045805, 9.996387 
1.6054189e+3, 3.1400782e+2, 359538.4, -12340.147, -16320.847, -0.14473265, 0.08078034, 360253.3, 360253.3, 0.0042839507, 10.003174, 9.998359 
1.6148464e+3, 1.23995446e+2, -2061335.0, -1750067.1, 94752.086, -0.06393227, -0.058141686, -1723492.8, 1349.802, 0.02978273, 9.996941, 10.001232 
1.6148785e+3, 1.339959e+2, -1877434.4, -1700753.6, 14939.728, 0.050644692, -0.07029662, -1699499.3, -72660.59, 0.018308382, 9.998027, 10.00035 
1.6149081e+3, 1.4399734e+2, -1771152.1, -1628305.5, -29513.377, -0.08838552, 0.06769523, -1622448.0, -93621.88, 0.008418617, 9.998164, 10.000102 
1.6149387e+3, 1.5399764e+2, -1625080.8, -1485379.0, 1546.9598, -0.05591237, 0.03181699, -1485361.9, -54535.6, 0.0024150687, 9.998422, 10.0002775 
1.6149691e+3, 1.6399805e+2, -1493884.8, -1418001.9, -22227.488, -0.04541661, 0.07864169, -1411970.5, -79146.23, 0.0002938315, 9.998837, 9.999868 
1.6149987e+3, 1.7399856e+2, -1288791.5, -1244847.4, 17637.799, -0.07932943, 0.090311356, -1238643.9, -3824.2478, 0.000004294035, 9.999487, 10.000068 
1.6150284e+3, 1.8399829e+2, -1205908.6, -1268392.0, -31277.742, -0.0775532, 0.1170143, -1192942.4, -56120.344, 0.0, 9.999858, 9.999059 
1.6150585e+3, 1.939966e+2, -1096556.4, -1154957.8, -27269.262, 0.009976833, -0.005586866, -1085803.4, -46965.957, 0.0, 9.999891, 9.999147 
1.6150884e+3, 2.0399547e+2, -997540.3, -1091384.1, -8398.069, 0.0347548, -0.0025857617, -996794.7, -55945.863, 0.0, 10.00007, 9.998823 
1.6151182e+3, 2.139952e+2, -785166.56, -914422.25, 26163.734, -0.008349577, 0.039006587, -780071.4, 62782.52, 0.0, 10.000772, 9.999016 
1.6151483e+3, 2.2399473e+2, -707335.7, -892915.75, -3912.494, -0.026113085, 0.13035333, -707253.25, 37607.367, 0.0, 10.000897, 9.998443 
1.6151787e+3, 2.339937e+2, -659104.2, -793691.4, -23796.588, 0.0026829925, 0.13127522, -655020.6, -8148.9414, 0.0, 10.000464, 9.998646 
1.615209e+3, 2.4399222e+2, -555175.5, -729270.75, -46942.145, -0.01393806, 0.14817454, -543324.94, 5561.057, 0.0, 10.000635, 9.99835 
1.615239e+3, 2.5399002e+2, -280054.78, -523426.34, -14941.421, -0.08191672, 0.036086034, -279140.9, 171764.58, 0.00000000987263, 10.001767, 9.998537 
1.6152687e+3, 2.6398802e+2, -154790.25, -465287.6, -66114.61, -0.12103424, 0.015364223, -141298.61, 211625.44, 0.000004852571, 10.002179, 9.998068 
1.6152985e+3, 2.7398595e+2, -117695.36, -379301.22, -60941.03, -0.09227202, -0.048361965, -104195.77, 150747.98, 0.00006465758, 10.001697, 9.998217 
1.6153294e+3, 2.8398475e+2, -21499.748, -367834.94, -20977.686, -0.053400226, 0.06163296, -20233.746, 136722.83, 0.0003366383, 10.002006, 9.99749 
1.615361e+3, 2.9398468e+2, 335935.78, -111159.67, 28130.762, -0.016329614, 0.23354997, 337698.78, 396658.16, 0.0010768002, 10.0036545, 9.997775 
1.6153917e+3, 3.0398187e+2, 344794.1, -233257.98, 12262.442, -0.100782, 0.25572136, 345054.1, 345054.1, 0.0024103804, 10.004101, 9.996373 
1.6154225e+3, 3.1397632e+2, 264301.3, -48703.56, 7632.7104, -0.17248571, 0.0053325207, 264487.3, 264487.3, 0.004189338, 10.002535, 9.998383 
1.6248444e+3, 1.23963945e+2, -2040317.9, -1802673.0, 63430.164, 0.031010155, 0.011230429, -1786802.6, -61649.754, 0.03179242, 9.997364, 10.000631 
1.6248761e+3, 1.3396442e+2, -1882396.0, -1689495.1, -68710.17, 0.028693028, -0.020622134, -1667523.5, -40372.438, 0.019603958, 9.997914, 10.000469 
1.6249062e+3, 1.4396703e+2, -1811157.8, -1602515.1, -56353.066, -0.0391143, 0.20948091, -1588267.5, -59140.05, 0.009062119, 9.997723, 10.00048 
1.6249372e+3, 1.5396684e+2, -1635268.1, -1435671.4, -48626.414, -0.01794828, 0.0804606, -1424455.1, 6674.656, 0.002624408, 9.998132, 10.000748 
1.624968e+3, 1.6396691e+2, -1544477.8, -1440909.6, -36643.438, -0.0027210724, 0.068829425, -1429256.1, -96126.36, 0.00032476612, 9.9984865, 9.999885 
1.6249983e+3, 1.7396748e+2, -1360391.1, -1274398.9, -69261.04, -0.04015625, 0.08640611, -1235873.5, -748.7521, 0.000005034694, 9.998987, 10.000099 
1.6250284e+3, 1.839673e+2, -1262864.5, -1284725.1, -93139.77, -0.03298566, 0.11791187, -1180015.9, -42889.332, 0.0, 9.999421, 9.999165 
1.6250587e+3, 1.9396587e+2, -1050186.1, -1105932.3, -88080.7, 0.039974302, 0.008611153, -985673.56, 53465.996, 0.0, 10.000125, 9.999363 
1.6250886e+3, 2.039651e+2, -915779.94, -1020481.44, -17202.152, 0.04867766, 0.02148365, -913026.06, 28120.88, 0.0, 10.000475, 9.999125 
1.6251184e+3, 2.1396516e+2, -817172.7, -897423.25, -15863.88, -0.036484975, 0.06459748, -814150.5, 28997.43, 0.0, 10.000388, 9.999331 
1.6251487e+3, 2.2396466e+2, -763007.5, -957343.06, 1968.6743, -0.04757056, 0.15215218, -762987.56, -17832.477, 0.0, 10.000669, 9.998112 
1.62518e+3, 2.3396309e+2, -535451.5, -782610.94, -11057.815, 0.034419347, 0.14225456, -534957.75, 112215.44, 0.0, 10.001512, 9.99822 
1.6252106e+3, 2.439614e+2, -403433.72, -646049.8, 17329.83, 0.054028776, 0.15670167, -402202.1, 146988.13, 0.0, 10.001631, 9.998441 
1.6252403e+3, 2.5395948e+2, -417989.03, -574362.06, 588.27026, -0.04258462, 0.059707697, -417986.84, 33219.035, 0.000000011745934, 10.000742, 9.998683 
1.6252705e+3, 2.6395732e+2, -348934.25, -584507.25, 3744.773, -0.09027271, 0.032595437, -348874.75, 4350.0024, 0.0000048598445, 10.0009575, 9.997844 
1.6253012e+3, 2.739546e+2, 32136.525, -338710.22, -37234.875, -0.047183752, -0.06899822, 35838.145, 291089.66, 0.00006306325, 10.002856, 9.997937 
1.6253324e+3, 2.83953e+2, 182184.67, -263343.0, 9505.948, -0.0030924631, 0.015840266, 182387.4, 339655.7, 0.00033149842, 10.0034, 9.997521 
1.6253638e+3, 2.9395306e+2, 96067.945, -223587.16, -26201.58, 0.0025864337, 0.19832985, 98201.41, 157472.0, 0.0010554205, 10.002001, 9.997787 
1.6253945e+3, 3.03951e+2, 72001.69, -288134.94, 23131.03, -0.08604737, 0.26334327, 73481.28, 73481.28, 0.0023410076, 10.0018635, 9.997087 
1.6254266e+3, 3.139462e+2, 445703.94, 79107.984, 1742.0704, -0.052874334, 0.016713124, 445712.22, 445712.22, 0.0040358813, 10.003552, 9.998802 
1.6348417e+3, 1.2393198e+2, -2017287.3, -1791036.6, -107546.69, -0.069644466, 0.18727815, -1748073.5, -22602.084, 0.03398967, 9.997525, 10.000627 
1.6348727e+3, 1.3393138e+2, -1837820.6, -1603046.5, -46787.18, -0.14064866, -0.023894016, -1594066.0, 33413.45, 0.02102759, 9.997941, 10.001052 
1.6349061e+3, 1.4393403e+2, -1747793.3, -1523107.4, -80025.39, 0.11087757, 0.16321206, -1497519.1, 31934.678, 0.009775217, 9.997921, 10.000944 
1.6349357e+3, 1.5393473e+2, -1590654.1, -1354109.3, -21866.693, -0.029555619, 0.06810172, -1352104.9, 79340.22, 0.002860367, 9.998167, 10.001301 
1.634966e+3, 1.639349e+2, -1554308.5, -1480360.3, -40989.016, -0.10991729, 0.047622465, -1462133.0, -128689.72, 0.00036087315, 9.99856, 9.999581 
1.6349974e+3, 1.739347e+2, -1398490.9, -1351246.4, -40181.03, -0.046576813, 0.03566113, -1328258.3, -92809.945, 0.000005927034, 9.998974, 9.99958 
1.6350286e+3, 1.8393458e+2, -1218972.1, -1199698.9, -89369.24, 0.002423926, 0.07714388, -1119448.3, 18002.201, 0.0, 9.999444, 9.999739 
1.635059e+3, 1.9393447e+2, -1018275.0, -1014625.75, -46976.637, 0.026033549, 0.030357813, -969438.3, 70011.9, 0.0, 10.000012, 10.000049 
1.6350889e+3, 2.0393454e+2, -919616.94, -982215.0, -34759.004, -0.000102635386, 0.07457255, -904141.9, 37306.875, 0.0, 10.000277, 9.999485 
1.6351186e+3, 2.1393472e+2, -826328.1, -868169.25, -232.52911, -0.084555775, 0.09724287, -826326.9, 17120.697, 0.0, 10.000174, 9.99964 
1.635149e+3, 2.2393405e+2, -804273.7, -966432.1, 13812.209, -0.11605199, 0.14836402, -803105.6, -57650.57, 0.0, 10.000345, 9.9982 
1.635181e+3, 2.3393203e+2, -573275.0, -790621.6, 37849.633, -0.029493365, 0.08089684, -566872.3, 80603.79, 0.0, 10.001213, 9.998304 
1.6352123e+3, 2.4393047e+2, -455633.13, -672119.3, -28607.488, 0.03226373, 0.10454291, -451916.63, 97574.72, 0.0, 10.001283, 9.9984255 
1.6352423e+3, 2.539295e+2, -446156.88, -583247.2, -14023.126, 0.044737637, 0.10402187, -444737.13, 6761.9297, 0.000000006263202, 10.000543, 9.998713 
1.6352727e+3, 2.6392785e+2, -401432.66, -654945.8, 45797.242, -0.0019801864, 0.13871434, -393413.06, -39898.723, 0.000005059976, 10.000773, 9.997456 
1.6353036e+3, 2.7392486e+2, -36314.37, -418122.34, 63015.9, -0.10663447, 0.0449551, -26182.701, 229360.89, 0.000060994436, 10.002569, 9.997535 
1.6353348e+3, 2.8392202e+2, 99479.39, -342243.78, -47883.13, -0.13438089, 0.04021777, 104610.36, 262182.78, 0.0003219481, 10.003019, 9.997154 
1.6353658e+3, 2.9391932e+2, 24347.074, -300725.28, -47312.03, -0.047050577, -0.013219316, 31093.02, 90693.78, 0.0010251604, 10.001714, 9.997389 
1.6353965e+3, 3.0391762e+2, 109001.81, -132459.47, 53497.605, -0.11335083, 0.056369126, 120323.74, 120323.74, 0.002256446, 10.001538, 9.998308 
1.6354305e+3, 3.13917e+2, 411227.38, 162662.63, 142499.84, -0.070676036, 0.08227065, 476027.84, 476027.84, 0.0038537232, 10.002899, 9.999688 
1.644839e+3, 1.2389927e+2, -2120522.3, -1801787.8, -13932.672, -0.015482727, 0.1540591, -1801179.9, -75387.57, 0.036383986, 9.99668, 10.000965 
1.6448706e+3, 1.3389878e+2, -1895195.8, -1605554.4, 20524.861, -0.09916374, -0.06792867, -1604107.1, 23691.11, 0.022584815, 9.997446, 10.001281 
1.6449039e+3, 1.4390136e+2, -1770147.6, -1536215.8, -10080.746, 0.12769112, 0.09959541, -1535782.1, -6008.973, 0.010560797, 9.99777, 10.00093 
1.644934e+3, 1.5390263e+2, -1599477.1, -1363891.1, -32297.332, -0.0038851788, 0.063996576, -1359543.6, 72216.375, 0.0031241647, 9.998121, 10.001255 
1.6449647e+3, 1.6390312e+2, -1558429.1, -1466015.6, -15290.825, -0.06603684, 0.06822192, -1463551.3, -129795.445, 0.0004029895, 9.998478, 9.999717 
1.644997e+3, 1.739027e+2, -1343009.0, -1311538.0, -858.12726, -0.003217502, 0.0261421, -1311514.5, -75752.055, 0.0000070009137, 9.999304, 9.9997 
1.6450283e+3, 1.8390284e+2, -1201243.4, -1148710.4, -21543.434, 0.048098937, 0.069312416, -1141005.5, -3243.218, 0.0, 9.999393, 10.000098 
1.6450584e+3, 1.9390364e+2, -1182627.1, -1050151.8, -43629.348, 0.045894235, 0.073353805, -1037073.94, 2679.7166, 0.0, 9.998707, 10.00042 
1.6450885e+3, 2.0390396e+2, -1129810.5, -1101839.8, 2503.3977, 0.023217492, 0.12862138, -1101617.5, -159867.27, 0.0, 9.998918, 9.999309 
1.6451192e+3, 2.1390344e+2, -774020.8, -861910.2, -36612.082, -0.047563523, 0.10217642, -760767.8, 82988.13, 0.0, 10.000634, 9.999442 
1.6451502e+3, 2.2390251e+2, -626205.1, -840357.3, -25284.104, -0.06803295, 0.120212905, -623260.44, 122504.47, 0.0, 10.001379, 9.998585 
1.645182e+3, 2.3390079e+2, -625583.6, -768541.5, -12075.344, -0.007869412, 0.042350683, -624570.8, 23209.207, 0.0, 10.000637, 9.998753 
1.6452134e+3, 2.4389948e+2, -540961.5, -727636.6, -17627.654, 0.054283157, 0.07054152, -539311.5, 10480.48, 0.0, 10.000759, 9.998295 
1.6452439e+3, 2.538985e+2, -208996.08, -500339.3, -57303.266, 0.076773636, 0.09501649, -198130.53, 253671.1, 0.000000005166704, 10.002297, 9.998443 
1.6452748e+3, 2.6389694e+2, -126840.305, -534981.75, 27732.322, 0.05137175, 0.16522275, -124964.57, 228852.83, 0.000005473011, 10.002739, 9.997313 
1.6453063e+3, 2.7389443e+2, -170408.27, -489117.56, 8831.713, -0.055413753, 0.13121161, -170163.72, 85680.07, 0.000058881178, 10.001722, 9.997429 
1.6453375e+3, 2.8389144e+2, -84033.92, -433884.88, -44559.09, -0.08454759, 0.12183943, -78447.805, 79426.0, 0.0003079229, 10.00176, 9.997154 
1.6453685e+3, 2.9388776e+2, 234382.55, -198790.11, -66358.2, 0.003840911, -0.027690683, 244320.06, 304229.78, 0.0009851817, 10.003152, 9.997408 
1.6453995e+3, 3.0388555e+2, 442942.75, 36913.06, 76124.55, -0.05562696, -0.0112044355, 456745.72, 456745.72, 0.0021654482, 10.003759, 9.998422 
1.6454339e+3, 3.1388614e+2, 373489.72, 116305.81, -15685.759, 0.01812669, 0.12244436, 374442.88, 374442.88, 0.0036797344, 10.002771, 9.99942 
1.6548356e+3, 1.238662e+2, -2050236.6, -1712704.8, -52013.805, -0.10747202, -0.061638266, -1704871.3, 21240.627, 0.03897044, 9.996899, 10.00149 
1.6548696e+3, 1.3386711e+2, -1900239.9, -1617331.6, 63300.004, 0.02984909, -0.115568176, -1603814.3, 24288.18, 0.024272982, 9.997445, 10.001207 
1.6548991e+3, 1.438692e+2, -1788178.0, -1593133.3, -20359.459, -0.18856917, 0.01746276, -1591030.8, -60947.42, 0.0114189135, 9.997858, 10.000495 
1.6549315e+3, 1.538707e+2, -1644638.5, -1465087.5, -4667.539, -0.09242744, 0.073493734, -1464966.3, -32893.203, 0.0034161112, 9.998158, 10.000542 
1.654964e+3, 1.6387168e+2, -1499914.8, -1374286.9, -9453.574, -0.03879369, 0.14414448, -1373579.4, -39513.39, 0.00045137366, 9.998595, 10.000293 
1.6549961e+3, 1.7387162e+2, -1289549.6, -1191157.9, 43627.695, -0.043131214, 0.056043897, -1174599.5, 61466.98, 0.000008273259, 9.999267, 10.00054 
1.6550273e+3, 1.8387212e+2, -1193270.9, -1139495.1, -57669.04, -0.049374815, 0.08361862, -1102753.8, 35308.176, 0.0, 9.999413, 10.000159 
1.6550565e+3, 1.9387335e+2, -1199051.8, -1065117.9, -58056.176, -0.039863937, 0.1375733, -1043455.8, -3405.665, 0.0, 9.998612, 10.000369 
1.655087e+3, 2.0387337e+2, -1205149.9, -1215795.5, 40233.92, -0.0501589, 0.19700687, -1169888.3, -227837.19, 0.0, 9.998738, 9.9986105 
1.6551198e+3, 2.1387129e+2, -863478.56, -989136.7, 44257.31, -0.061325967, 0.0872459, -849455.8, -5382.518, 0.0, 10.000384, 9.998689 
1.6551518e+3, 2.2386985e+2, -624355.2, -765387.4, -63219.73, -0.06417203, 0.06581466, -600165.1, 145921.28, 0.0, 10.001073, 9.99925 
1.6551824e+3, 2.3386925e+2, -602926.7, -661833.25, -21283.146, -0.04810115, 0.01737227, -596041.75, 52044.32, 0.0, 10.00038, 9.999614 
1.6552132e+3, 2.4386832e+2, -611330.8, -800755.56, 16747.885, -0.0584849, 0.05264985, -609861.5, -59768.984, 0.0, 10.000449, 9.99794 
1.6552448e+3, 2.5386655e+2, -290429.28, -594762.0, 18629.998, -0.07514174, 0.042148996, -289293.06, 162819.31, 0.00000000856411, 10.001992, 9.997931 
1.6552764e+3, 2.638648e+2, -180895.16, -583546.4, -20767.912, -0.0722357, 0.1261373, -179826.83, 174306.27, 0.0000057188686, 10.002453, 9.997123 
1.6553083e+3, 2.7386308e+2, -204692.98, -515001.13, -5832.6963, -0.0473452, 0.1829749, -204583.39, 51570.86, 0.00005720022, 10.001513, 9.997358 
1.6553399e+3, 2.8386098e+2, -106619.97, -408285.3, -23479.576, -0.038262445, 0.25041443, -104803.42, 53372.26, 0.0002952708, 10.001448, 9.997479 
1.6553716e+3, 2.9385784e+2, 217999.08, -167730.23, 18084.287, -0.030334093, 0.11841042, 218845.08, 279047.53, 0.00095047243, 10.002857, 9.997768 
1.6554028e+3, 3.038544e+2, 304339.94, -140487.33, 29686.102, -0.1258403, 0.032882314, 306312.3, 306312.3, 0.002097789, 10.003314, 9.997404 
1.6554362e+3, 3.1385297e+2, 183798.77, -143635.84, 21049.834, -0.0978915, 0.082525976, 185146.45, 185146.45, 0.0035638933, 10.002187, 9.997916 
1.6648324e+3, 1.2383417e+2, -2118568.5, -1707647.9, -62492.64, -0.08050149, -0.064313225, -1698354.3, 28071.77, 0.041736465, 9.996253, 10.00184 
1.6648671e+3, 1.3383578e+2, -1828273.8, -1580384.1, 22248.025, 0.025182046, -0.05571747, -1578403.3, 50005.58, 0.026087236, 9.997914, 10.00124 
1.6648968e+3, 1.4383708e+2, -1805691.0, -1628659.0, -50154.734, -0.18808118, 0.012068692, -1615437.3, -85039.914, 0.012349877, 9.997885, 10.000219 
1.6649297e+3, 1.5383808e+2, -1683921.0, -1506164.3, -36632.223, -0.06299161, 0.04205689, -1498911.0, -66518.69, 0.003737191, 9.998007, 10.000319 
1.6649626e+3, 1.6383925e+2, -1561888.5, -1363410.9, 15180.127, 0.02421462, 0.12953581, -1362256.6, -27872.906, 0.00050616945, 9.998007, 10.000646 
1.6649948e+3, 1.7384005e+2, -1440640.0, -1218227.5, 4152.865, -0.033610526, 0.08139542, -1218150.0, 18225.486, 0.000009797576, 9.998017, 10.00096 
1.665026e+3, 1.8384068e+2, -1375674.0, -1259474.6, -91502.67, -0.051349536, 0.11646204, -1209184.8, -70815.09, 0.0, 9.9983225, 9.99985 
1.6650556e+3, 1.938412e+2, -1066227.8, -1041511.6, -154103.7, -0.019142117, 0.13645591, -899271.25, 141095.17, 0.0, 9.999718, 9.999985 
1.6650869e+3, 2.0384093e+2, -953708.44, -1090138.0, -1066.5771, -0.0032445784, 0.18528166, -953700.1, -11329.488, 0.0, 10.00045, 9.9986515 
1.6651204e+3, 2.1383935e+2, -870921.0, -981940.06, 34582.785, -0.016079916, 0.11993405, -861029.6, -16642.582, 0.0, 10.000286, 9.998787 
1.6651529e+3, 2.23838e+2, -749075.25, -830870.25, -58580.953, -0.0004984873, 0.10757858, -718528.1, 27870.264, 0.0, 10.000253, 9.999175 
1.6651836e+3, 2.3383698e+2, -585176.06, -658530.25, -130067.58, 0.042853583, 0.020440904, -486713.28, 161688.98, 0.0, 10.000538, 9.999536 
1.6652147e+3, 2.4383561e+2, -542586.2, -775418.06, -49118.152, 0.0265781, 0.019939428, -532648.44, 17763.965, 0.0, 10.000926, 9.997912 
1.6652463e+3, 2.5383356e+2, -368305.34, -634306.44, -38404.88, -0.08416981, -0.011667962, -362871.5, 89562.81, 0.0000000057748837, 10.001448, 9.997942 
1.6652784e+3, 2.638318e+2, -232103.19, -568504.0, -42016.953, -0.09924042, 0.056419797, -226934.61, 127519.805, 0.0000055479773, 10.0019245, 9.997481 
1.6653107e+3, 2.7383047e+2, -52416.48, -413368.4, -44176.66, 0.006089289, 0.122610435, -47088.38, 209382.88, 0.000055377644, 10.002404, 9.997644 
1.665343e+3, 2.8382888e+2, 94365.26, -302896.63, 19425.805, 0.06761227, 0.22229792, 95312.91, 253800.98, 0.00028510438, 10.002788, 9.997539 
1.6653751e+3, 2.9382664e+2, 233296.97, -151797.67, -19750.39, 0.04049983, 0.17478724, 234307.27, 294814.6, 0.000926934, 10.00297, 9.997792 
1.6654064e+3, 3.0382267e+2, 274459.88, -189502.5, 7412.8823, -0.07756415, 0.046717696, 274578.28, 274578.28, 0.00206355, 10.003233, 9.99711 
1.6654392e+3, 3.1382057e+2, 293127.16, -105844.22, -30932.305, -0.025555387, 0.061246853, 295511.1, 295511.1, 0.0035217253, 10.003002, 9.997775 
1.6748291e+3, 1.2380324e+2, -2067769.9, -1642982.1, -65475.77, -0.12531449, 0.1222922, -1633118.9, 93615.625, 0.044670317, 9.996408, 10.002231 
1.6748624e+3, 1.3380489e+2, -1817705.8, -1577541.3, 62219.125, -0.26695126, 0.10746268, -1562379.4, 66337.234, 0.028026333, 9.997986, 10.001232 
1.6748966e+3, 1.438051e+2, -1795856.1, -1634296.1, -76581.75, -0.05330252, 0.083122596, -1603765.0, -73050.9, 0.013357116, 9.997991, 10.000132 
1.674928e+3, 1.5380488e+2, -1667246.0, -1478521.9, -14157.451, -0.06042198, -0.026162641, -1477465.8, -44748.375, 0.004090086, 9.998026, 10.000505 
1.6749604e+3, 1.6380577e+2, -1535989.9, -1335440.1, -4427.932, -0.05142526, 0.01301835, -1335342.5, -632.6031, 0.0005678562, 9.99811, 10.0007925 
1.6749921e+3, 1.7380805e+2, -1440369.3, -1208907.5, 15462.306, -0.10970184, 0.108716026, -1207879.1, 28809.363, 0.000011659807, 9.997978, 10.001045 
1.6750237e+3, 1.8380885e+2, -1424176.8, -1363710.0, -65605.67, -0.12844107, 0.18630308, -1321706.6, -183023.81, 0.0, 9.998327, 9.999141 
1.6750556e+3, 1.9380723e+2, -1141540.0, -1169370.5, -87100.01, -0.030827228, 0.073910065, -1067250.8, -26548.723, 0.0, 9.999589, 9.999177 
1.6750878e+3, 2.0380662e+2, -921952.5, -990349.5, -18393.875, 0.00641365, 0.1010143, -917319.7, 25389.469, 0.0, 10.000296, 9.999414 
1.6751206e+3, 2.1380752e+2, -838220.8, -864323.56, 46347.977, -0.056250256, 0.18907993, -803121.7, 41576.41, 0.0, 10.000058, 9.999712 
1.675153e+3, 2.2380696e+2, -855777.6, -974049.9, -65147.2, -0.0469646, 0.2394158, -826929.44, -80228.26, 0.0, 9.999919, 9.998349 
1.6751851e+3, 2.3380399e+2, -699663.2, -837747.75, -102944.72, 0.1178589, 0.06469583, -644752.06, 3975.9849, 0.0, 10.000286, 9.998424 
1.6752169e+3, 2.4380147e+2, -568093.75, -755503.7, -48893.598, 0.13219878, -0.0023648203, -556104.8, -5354.369, 0.0, 10.000617, 9.998192 
1.6752478e+3, 2.5379962e+2, -374504.16, -580684.0, 4590.847, -0.10115405, -0.061791092, -374402.0, 78364.195, 0.0000000017385277, 10.001163, 9.998444 
1.6752796e+3, 2.6379806e+2, -230838.69, -489002.3, -41468.773, -0.20022102, -0.036199134, -224341.11, 130439.61, 0.0000048816705, 10.001588, 9.998194 
1.6753128e+3, 2.7379662e+2, -41457.16, -332957.7, -2043.889, -0.050241705, -0.053833105, -41442.832, 215353.31, 0.000051551386, 10.00214, 9.998333 
1.6753459e+3, 2.8379524e+2, 4935.325, -389536.88, 10607.059, 0.036880724, 0.046372, 5220.335, 164031.69, 0.0002714196, 10.002372, 9.997142 
1.6753782e+3, 2.9379383e+2, 151829.75, -241082.92, 20209.348, 0.027483169, 0.12943742, 152866.47, 213693.22, 0.0008994481, 10.002606, 9.997362 
1.6754094e+3, 3.037899e+2, 218523.38, -177785.31, -15111.453, -0.113512225, 0.014101774, 219098.75, 219098.75, 0.002033432, 10.002713, 9.99743 
1.6754419e+3, 3.1378815e+2, 294851.25, 5996.587, 27664.043, -0.11915452, 0.018552156, 297476.8, 297476.8, 0.0035096803, 10.002557, 9.99875 
1.6848272e+3, 1.2377082e+2, -2161417.5, -1686901.6, -21324.75, 0.10721867, 0.13205379, -1685945.1, 41107.082, 0.04776628, 9.995801, 10.002182 
1.6848601e+3, 1.3377273e+2, -1929241.1, -1654852.0, 76176.44, -0.23962525, 0.15467589, -1635122.4, -6089.213, 0.030093629, 9.99735, 10.000981 
1.684895e+3, 1.437725e+2, -1767066.1, -1599137.0, -56769.34, 0.004978851, 0.09094872, -1581746.8, -50711.59, 0.0144471, 9.998078, 10.00034 
1.6849266e+3, 1.5377243e+2, -1594522.5, -1406206.5, -18256.191, -0.017953599, -0.035244104, -1404453.0, 28582.049, 0.004479329, 9.9983635, 10.000847 
1.6849588e+3, 1.637732e+2, -1524853.8, -1374424.9, 14754.407, -0.02168161, -0.0063931216, -1372991.4, -37963.227, 0.0006375465, 9.998374, 10.000399 
1.6849907e+3, 1.737752e+2, -1393752.9, -1234520.3, -40234.63, -0.06933098, 0.10209789, -1224931.3, 12080.406, 0.00001399049, 9.998511, 10.000603 
1.6850229e+3, 1.8377584e+2, -1350373.5, -1321952.5, -54696.52, -0.06908823, 0.18524851, -1279650.6, -140642.73, 0.0, 9.998801, 9.999196 
1.6850553e+3, 1.9377431e+2, -1127693.4, -1151670.9, -33231.734, -0.002517202, 0.069206856, -1104354.0, -63329.13, 0.0, 9.999624, 9.999283 
1.6850881e+3, 2.0377359e+2, -945231.1, -999757.1, 40956.957, 0.035382405, 0.07955107, -923293.06, 19738.828, 0.0, 10.000125, 9.9994335 
1.6851212e+3, 2.137743e+2, -821882.8, -849572.25, -6993.073, 0.013411748, 0.14493476, -820216.94, 24805.553, 0.0, 10.000153, 9.999761 
1.685154e+3, 2.237737e+2, -790171.2, -971956.75, -78276.586, 0.044067767, 0.1994605, -761110.94, -14084.493, 0.0, 10.000467, 9.998127 
1.6851862e+3, 2.3377088e+2, -586474.94, -814826.8, -82148.36, 0.15085489, 0.07034594, -559993.5, 89059.89, 0.0, 10.001177, 9.998181 
1.685218e+3, 2.4376854e+2, -419145.72, -668374.7, 27092.045, 0.14795852, 0.030985912, -416234.72, 134839.81, 0.0, 10.001573, 9.998314 
1.6852494e+3, 2.5376686e+2, -306762.03, -537221.4, 10556.426, -0.06004671, -0.030340338, -306279.5, 146808.17, 0.0000000018399801, 10.001563, 9.998547 
1.6852814e+3, 2.637652e+2, -233831.64, -474098.72, -29233.422, -0.14686379, -0.024770511, -230325.94, 124776.22, 0.0000039092515, 10.001488, 9.998349 
1.6853146e+3, 2.737635e+2, -126625.164, -340630.7, -71375.195, -0.02884214, -0.08725881, -105004.41, 152115.2, 0.000046409757, 10.001454, 9.998588 
1.6853477e+3, 2.8376228e+2, -59697.547, -364937.13, -2773.0002, 0.052345287, -0.008001917, -59672.36, 99460.11, 0.00025645504, 10.001657, 9.997684 
1.6853808e+3, 2.9376173e+2, 114946.34, -191485.8, 33246.645, 0.057528466, 0.102818064, 118511.98, 179650.44, 0.0008664291, 10.002043, 9.997995 
1.6854125e+3, 3.037582e+2, 219604.6, -224693.9, 79986.38, -0.06420484, 0.009703006, 233565.73, 233565.73, 0.0019907402, 10.002873, 9.997065 
1.6854464e+3, 3.1375575e+2, 511226.4, 92603.69, -17710.37, 0.010987535, 0.01668588, 511974.3, 511974.3, 0.0034830482, 10.004064, 9.9986725 
1.694823e+3, 1.2373611e+2, -2192019.0, -1781811.6, -157740.95, 0.020005459, -0.114494674, -1728168.9, -782.23364, 0.051028147, 9.995948, 10.001444 
1.6948596e+3, 1.3373904e+2, -1961944.6, -1721154.3, 140576.5, -0.07408502, 0.071094714, -1656463.6, -27102.836, 0.032295942, 9.997339, 10.000534 
1.6948918e+3, 1.4373907e+2, -1703048.1, -1503709.0, -65196.848, -0.19025354, 0.020940041, -1484279.3, 47082.78, 0.015627254, 9.998225, 10.000934 
1.6949247e+3, 1.5374084e+2, -1555903.8, -1342500.6, 4099.582, -0.080878526, 0.035120543, -1342421.9, 90922.09, 0.004910431, 9.998427, 10.001257 
1.6949572e+3, 1.6374172e+2, -1563778.8, -1480365.4, -1887.5345, -0.06428012, 0.08549181, -1480322.8, -144985.78, 0.0007170378, 9.998479, 9.99962 
1.6949898e+3, 1.7374153e+2, -1464285.8, -1376809.0, -19701.754, -0.049955755, 0.06837074, -1372576.5, -135232.25, 0.000016975888, 9.998491, 9.999635 
1.6950223e+3, 1.8374169e+2, -1290300.1, -1207100.4, -47590.97, -0.0445096, 0.121493086, -1185490.6, -46145.695, 0.0, 9.998836, 9.99997 
1.6950545e+3, 1.9374228e+2, -1071758.9, -1011012.7, 7718.7534, -0.08726907, 0.11858335, -1010047.25, 31289.162, 0.0, 9.999515, 10.0003 
1.6950874e+3, 2.0374183e+2, -1026897.5, -1119025.4, 23981.012, -0.07861469, 0.1293447, -1021029.0, -77690.05, 0.0, 9.999905, 9.998726 
1.695122e+3, 2.1373965e+2, -920016.1, -1008805.75, 10365.202, 0.043867275, 0.0034318985, -918822.2, -73461.86, 0.0, 9.999944, 9.998778 
1.695155e+3, 2.2373813e+2, -807527.2, -925952.6, -71280.664, 0.087337464, -0.0013936658, -774073.4, -26698.625, 0.0, 10.00013, 9.998597 
1.695186e+3, 2.3373751e+2, -588141.44, -740139.06, -32732.494, 0.0065199533, 0.023854723, -581392.2, 67987.23, 0.0, 10.000852, 9.998844 
1.6952176e+3, 2.4373657e+2, -485660.94, -715173.75, 15435.749, -0.07376541, 0.09099783, -484627.47, 66759.89, 0.0, 10.001184, 9.998182 
1.6952507e+3, 2.5373498e+2, -364040.8, -593627.94, 31463.77, -0.10636898, 0.06585989, -359806.94, 93594.625, 0.0000000033657745, 10.001294, 9.998293 
1.6952835e+3, 2.6373306e+2, -309881.63, -552156.2, -44863.473, -0.12758328, 0.0779196, -301840.84, 53579.215, 0.0000030031388, 10.001155, 9.997966 
1.6953158e+3, 2.737308e+2, -192533.97, -414312.1, -47438.305, -0.08537476, -0.008177492, -182813.02, 74631.234, 0.000041455987, 10.001188, 9.998205 
1.6953486e+3, 2.8372958e+2, -15018.615, -191454.08, -11694.1455, -0.054786764, 0.032991037, -14246.902, 145208.1, 0.00024337543, 10.001313, 9.999042 
1.695382e+3, 2.937297e+2, 189432.9, 18289.244, 68711.016, -0.048570666, 0.057839535, 213605.06, 275053.13, 0.0008331997, 10.001784, 9.999574 
1.695415e+3, 3.03727e+2, 67810.71, -412916.0, 97699.07, -0.13699119, 0.0037799866, 86907.664, 86907.664, 0.0019314516, 10.002369, 9.995994 
1.695451e+3, 3.1372392e+2, 350444.72, -58062.867, 90264.7, 0.012131828, 0.07164608, 369500.88, 369500.88, 0.0034111752, 10.003305, 9.997978 
1.7048208e+3, 1.2370311e+2, -1717848.8, -1639963.1, -140830.11, 0.03760149, -0.107783295, -1532790.8, 194920.0, 0.054460447, 9.999586, 10.000725 
1.704857e+3, 1.3370515e+2, -1961506.6, -1724935.4, 75215.66, -0.03481048, 0.012987273, -1703046.5, -73352.8, 0.034638863, 9.997361, 10.000508 
1.7048892e+3, 1.4370534e+2, -1940235.3, -1591891.9, -52403.3, -0.15040632, -0.03455581, -1584179.4, -52485.426, 0.016903277, 9.996524, 10.001138 
1.7049229e+3, 1.5370843e+2, -1603557.9, -1349824.1, -42556.473, -0.05856282, 0.10012864, -1342876.8, 90787.305, 0.00538814, 9.998056, 10.001373 
1.7049558e+3, 1.6370969e+2, -1520266.5, -1469793.9, -35019.758, -0.053284157, 0.18604451, -1451864.8, -116211.05, 0.0008082668, 9.998823, 9.999522 
1.7049885e+3, 1.7370848e+2, -1433080.5, -1370438.6, -27237.5, -0.021565039, 0.07937675, -1360252.0, -122582.39, 0.000020835996, 9.998743, 9.999561 
1.7050216e+3, 1.837083e+2, -1277967.6, -1174420.1, 25690.47, 0.00887398, 0.09286323, -1168396.6, -28724.39, 0.0, 9.99881, 10.000218 
1.7050542e+3, 1.9370954e+2, -1053929.5, -973555.6, -926.0219, -0.04282304, 0.12922128, -973544.94, 68110.91, 0.0, 9.999508, 10.000578 
1.7050876e+3, 2.0370927e+2, -1026453.44, -1136211.6, 19001.914, -0.028590446, 0.15125991, -1023256.8, -79600.62, 0.0, 9.999994, 9.998548 
1.7051223e+3, 2.137067e+2, -883299.7, -1018652.56, 16082.017, 0.078763716, 0.00775427, -881415.1, -35732.1, 0.0, 10.0003395, 9.998505 
1.7051555e+3, 2.2370502e+2, -714567.4, -869023.3, -5063.8667, 0.10313136, -0.00205912, -714401.56, 33298.395, 0.0, 10.000707, 9.998707 
1.7051865e+3, 2.3370475e+2, -548901.5, -696703.8, -39559.832, -0.013868982, 0.037219428, -538979.3, 110721.99, 0.0, 10.00102, 9.999048 
1.7052186e+3, 2.4370402e+2, -478882.72, -710020.25, 15741.959, -0.071659714, 0.11368489, -477815.53, 73891.51, 0.0, 10.001225, 9.998205 
1.7052524e+3, 2.5370237e+2, -361859.5, -582523.0, 11963.373, -0.04508833, 0.08207649, -361212.78, 92508.97, 0.0000000026261497, 10.001291, 9.998361 
1.7052855e+3, 2.6370046e+2, -267236.06, -544165.25, -4770.3833, -0.04147336, 0.094361685, -267153.9, 88586.2, 0.0000021613648, 10.001487, 9.997874 
1.7053172e+3, 2.7369824e+2, -110955.5, -391799.75, -28083.533, -0.0705561, 0.029929457, -108174.77, 149588.53, 0.000036656253, 10.001802, 9.99808 
1.7053503e+3, 2.836968e+2, 99683.14, -145521.77, 28067.908, -0.0537746, 0.06045118, 102854.96, 262631.13, 0.00022921336, 10.002148, 9.998945 
1.7053844e+3, 2.9369622e+2, 289253.5, 54990.223, -54283.33, -0.0076480545, 0.030324569, 301220.7, 362996.8, 0.00079328316, 10.002551, 9.999439 
1.7054178e+3, 3.036939e+2, 161509.13, -333148.38, -4443.4814, -0.09207035, 0.010303527, 161549.03, 161549.03, 0.0018438259, 10.002846, 9.9963 
1.705454e+3, 3.1369102e+2, 274478.78, -37660.316, 4868.625, 0.05632973, 0.059747934, 274554.72, 274554.72, 0.003271741, 10.002553, 9.998443 
1.7148225e+3, 1.2367205e+2, -1715032.6, -1699668.4, -40612.316, 0.14441885, 0.16937967, -1666018.0, 62004.824, 0.058051143, 9.9998255, 10.000184 
1.7148525e+3, 1.3367158e+2, -1942850.0, -1685601.5, 14803.828, -0.25999275, 0.02380158, -1684752.4, -54725.582, 0.037118543, 9.997366, 10.000774 
1.7148872e+3, 1.4367151e+2, -1924687.9, -1603182.9, -27310.975, -0.07310682, -0.058597878, -1600879.4, -68850.99, 0.018276531, 9.996693, 10.000984 
1.714921e+3, 1.5367508e+2, -1617974.9, -1387786.8, 33071.89, -0.10652361, 0.14526623, -1383129.4, 50867.2, 0.005915651, 9.998081, 10.001103 
1.7149541e+3, 1.6367708e+2, -1466554.9, -1375553.0, -54344.832, -0.15528168, 0.29697844, -1350175.9, -14197.395, 0.0009130136, 9.998899, 10.000129 
1.7149866e+3, 1.7367624e+2, -1386075.3, -1262032.0, -18411.893, -0.123143725, 0.14821373, -1259356.8, -21370.662, 0.000025810483, 9.998703, 10.000321 
1.71502e+3, 1.8367584e+2, -1297126.9, -1214632.8, 29912.695, -0.07958, 0.11160487, -1204927.9, -64939.582, 0.0, 9.998806, 9.999947 
1.7150544e+3, 1.9367614e+2, -1096651.8, -1040662.9, 41132.566, -0.012040262, 0.09399192, -1018902.1, 23080.26, 0.0, 9.999412, 10.000164 
1.7150883e+3, 2.0367599e+2, -1037131.1, -1114423.9, 15720.066, 0.00906107, 0.13760747, -1034056.25, -90073.38, 0.0, 9.999806, 9.998789 
1.7151219e+3, 2.136751e+2, -900121.56, -986706.5, 43480.97, -0.02369209, 0.13120301, -882055.8, -36062.12, 0.0, 10.000054, 9.998861 
1.715155e+3, 2.23674e+2, -778184.9, -923769.0, -9647.406, -0.054444227, 0.16625473, -777548.3, -29542.754, 0.0, 10.000364, 9.998503 
1.7151874e+3, 2.3367248e+2, -606671.5, -762141.4, -10618.564, -0.05794194, 0.11318838, -605949.6, 44070.14, 0.0, 10.000772, 9.998728 
1.7152204e+3, 2.4367088e+2, -517391.28, -703211.5, 277.23114, -0.051747747, 0.110173546, -517390.88, 34642.785, 0.0, 10.000866, 9.998417 
1.7152542e+3, 2.536689e+2, -388320.5, -569848.4, 31901.973, -0.021633629, 0.01813989, -382877.25, 71172.46, 0.0000000000058928205, 10.000999, 9.998589 
1.715287e+3, 2.6366705e+2, -302721.4, -544706.44, -13412.74, -0.05239845, 0.018782783, -301980.22, 54085.35, 0.0000014626683, 10.001173, 9.998022 
1.7153184e+3, 2.736656e+2, -140525.02, -389149.5, 2077.6165, -0.14773116, 0.015787214, -140507.66, 117572.164, 0.000032258973, 10.00152, 9.998236 
1.7153516e+3, 2.836638e+2, -60712.723, -391747.38, 21977.48, -0.1457961, 0.0662094, -59260.008, 100837.34, 0.00021422842, 10.001772, 9.9974375 
1.7153873e+3, 2.9366127e+2, 128248.5, -212624.42, -4724.5283, -0.018761167, 0.0015738227, 128313.97, 190436.05, 0.00074612966, 10.002251, 9.997748 
1.7154205e+3, 3.0365884e+2, 172093.72, -188691.77, -28275.555, -0.12628736, 0.01316135, 174296.3, 174296.3, 0.001733619, 10.002361, 9.997511 
1.715455e+3, 3.136565e+2, 262203.7, 127739.74, 50328.406, -0.16060993, -0.047876358, 278954.38, 278954.38, 0.0030848961, 10.0017805, 9.999937 
1.724822e+3, 1.2363942e+2, -1994097.6, -1788379.4, 14514.149, 0.23625714, 0.28466424, -1787360.4, -59011.52, 0.06177432, 9.997702, 10.000573 
1.7248502e+3, 1.3363956e+2, -1850401.0, -1631858.1, -33082.92, -0.21745378, 0.16344841, -1626959.9, 3385.6995, 0.039721623, 9.9979515, 10.000843 
1.7248856e+3, 1.4363873e+2, -1813004.1, -1570018.8, 14570.616, 0.07404174, 0.016042523, -1569148.1, -36795.133, 0.019743169, 9.997527, 10.000824 
1.7249192e+3, 1.5364142e+2, -1670924.4, -1407315.5, 60227.234, -0.05155285, 0.13398848, -1394207.1, 40120.508, 0.006494274, 9.997663, 10.001197 
1.7249528e+3, 1.6364336e+2, -1604032.1, -1422145.5, 1680.4147, -0.110839866, 0.2653702, -1422129.9, -85821.484, 0.001032908, 9.997861, 10.00032 
1.7249854e+3, 1.736429e+2, -1349766.6, -1220715.3, -39761.07, -0.09856032, 0.13438894, -1209448.4, 28861.906, 0.00003215152, 9.998837, 10.000544 
1.7250192e+3, 1.8364231e+2, -1246633.8, -1243655.4, 14283.5625, -0.03786614, 0.0873533, -1230783.6, -90469.39, 0.0, 9.999381, 9.999467 
1.7250545e+3, 1.9364187e+2, -1091153.9, -1098195.8, -22339.96, 0.072121985, 0.053416297, -1072059.1, -29740.967, 0.0, 9.999722, 9.999613 
1.725089e+3, 2.0364165e+2, -1008373.94, -1060191.1, -31445.813, 0.10355116, 0.10660995, -993538.25, -49218.01, 0.0, 9.9998255, 9.999164 
1.7251219e+3, 2.1364158e+2, -893797.8, -929237.06, -21264.92, -0.005566603, 0.13625309, -883837.44, -37515.98, 0.0, 9.999847, 9.99937 
1.725155e+3, 2.2364095e+2, -828083.6, -941469.0, -14331.352, -0.05544903, 0.1897985, -826300.25, -77971.836, 0.0, 10.0000305, 9.998522 
1.7251882e+3, 2.3363939e+2, -631551.0, -781826.4, -40452.293, -0.027049033, 0.13958102, -621353.7, 28990.912, 0.0, 10.000665, 9.998627 
1.7252219e+3, 2.4363762e+2, -478501.84, -697745.75, -7499.726, 0.013393592, 0.12973268, -478245.63, 74115.74, 0.0, 10.001161, 9.998316 
1.7252558e+3, 2.5363553e+2, -345415.44, -554040.8, -29678.525, 0.05167423, 0.030895384, -341275.6, 113103.09, 0.0000000000049057277, 10.001302, 9.998547 
1.725289e+3, 2.636336e+2, -251342.17, -495281.38, -43585.9, 0.028185828, 0.018912617, -243788.36, 112605.75, 0.0000011502509, 10.001442, 9.9982195 
1.7253205e+3, 2.7363196e+2, -118262.74, -359437.47, -66572.85, -0.07862086, -0.01924539, -101106.66, 157301.03, 0.000029351942, 10.001599, 9.998401 
1.7253542e+3, 2.8362998e+2, -60954.14, -436069.06, 41045.29, -0.075385675, 0.020711984, -56515.46, 103911.08, 0.00020332959, 10.001987, 9.997008 
1.7253903e+3, 2.9362723e+2, 182354.36, -245680.98, 33566.445, 0.050413147, -0.0050393585, 184970.64, 247426.3, 0.00070578046, 10.002911, 9.997179 
1.7254236e+3, 3.0362502e+2, 311217.66, -108006.41, 21900.16, -0.07365563, 0.05140887, 312358.6, 312358.6, 0.0016366786, 10.003203, 9.997695 
1.7254575e+3, 3.1362227e+2, 292898.1, 103493.52, -78892.664, -0.0989583, -0.063203424, 321453.97, 321453.97, 0.0029191189, 10.00206, 9.999699 
1.7348169e+3, 1.2360427e+2, -1911256.3, -1638728.3, -180098.44, -0.12871018, 0.11552498, -1549153.1, 179544.8, 0.06561491, 9.9978, 10.001605 
1.7348506e+3, 1.33609e+2, -1868984.9, -1676059.9, -37837.527, -0.025118297, 0.42711413, -1668904.4, -38253.688, 0.042436883, 9.997972, 10.00053 
1.7348836e+3, 1.4360672e+2, -1804055.4, -1581293.6, -14738.124, 0.07675976, 0.18160695, -1580322.9, -47652.375, 0.021297567, 9.997655, 10.000681 
1.7349172e+3, 1.536075e+2, -1637719.0, -1346654.4, 76615.62, -0.05378617, 0.068543434, -1327719.0, 106938.09, 0.0071235094, 9.997695, 10.001599 
1.7349511e+3, 1.6360855e+2, -1593852.6, -1436383.9, 13312.622, -0.09744452, 0.09476196, -1435266.3, -98623.65, 0.0011691477, 9.997998, 10.00016 
1.7349848e+3, 1.7360844e+2, -1373206.8, -1274875.5, 9559.389, -0.07854231, 0.031612787, -1273954.8, -35312.285, 0.00004011834, 9.99885, 10.00017 
1.735019e+3, 1.836078e+2, -1296986.6, -1350783.1, 6928.9863, -0.04403835, 0.031379372, -1296108.5, -155459.27, 0.0, 9.999391, 9.998727 
1.7350544e+3, 1.9360669e+2, -1168963.3, -1226131.8, 2207.7202, 0.06137031, 0.006782414, -1168878.1, -126214.6, 0.0, 9.99957, 9.99881 
1.735089e+3, 2.036062e+2, -1000872.1, -999121.6, -46924.25, 0.08396768, 0.05644005, -953064.44, -8395.23, 0.0, 9.999624, 9.999679 
1.7351218e+3, 2.1360643e+2, -874010.06, -843314.25, -4204.83, -0.019256428, 0.04112136, -842748.7, 3915.3591, 0.0, 9.999648, 10.000054 
1.7351548e+3, 2.2360618e+2, -865218.3, -948719.9, -10130.606, -0.09149463, 0.09168739, -864006.8, -115341.08, 0.0, 9.999731, 9.998613 
1.7351887e+3, 2.3360522e+2, -668555.94, -798529.0, 2713.4536, -0.07275418, 0.097082265, -668499.3, -17820.717, 0.0, 10.000395, 9.998644 
1.7352228e+3, 2.4360397e+2, -551758.1, -760014.1, -12902.996, -0.040723294, 0.1489765, -550961.7, 1730.8456, 0.0, 10.000789, 9.998063 
1.735257e+3, 2.5360224e+2, -406470.34, -612310.0, -593.67285, 0.020680977, 0.11481675, -406468.63, 48239.594, 0.000000000000012544113, 10.001016, 9.998282 
1.7352906e+3, 2.6360014e+2, -296168.28, -504564.6, -52876.145, 0.024385773, 0.090521865, -283519.78, 73205.82, 0.0000010511417, 10.001089, 9.998322 
1.7353229e+3, 2.7359745e+2, -146529.45, -351707.72, -35289.207, -0.034137797, -0.07117212, -140629.61, 118115.914, 0.000029114979, 10.001329, 9.998572 
1.7353567e+3, 2.835952e+2, -94431.625, -434410.88, 47878.03, -0.036930744, -0.07221898, -87817.8, 72946.62, 0.00019954766, 10.001678, 9.997171 
1.7353931e+3, 2.935935e+2, 131996.3, -252374.0, 94583.16, 0.009338065, -0.017587172, 154009.89, 216793.42, 0.0006844002, 10.002492, 9.9973345 
1.7354263e+3, 3.0359182e+2, 175696.05, -256726.61, -35492.375, -0.1586926, 0.116347715, 178589.83, 178589.83, 0.0015865881, 10.002662, 9.996915 
1.7354594e+3, 3.1358722e+2, 76910.91, -151793.64, -53040.668, -0.15154415, -0.11063554, 88613.2, 88613.2, 0.002841759, 10.001288, 9.99828 
1.7448154e+3, 1.2356979e+2, -1925786.3, -1673902.5, -50417.316, -0.032281313, 0.04546334, -1664185.8, 64849.625, 0.06957688, 9.997856, 10.001297 
1.7448501e+3, 1.3357615e+2, -1914882.8, -1724441.4, -141986.38, 0.16339518, 0.5547957, -1648702.8, -17729.303, 0.045260757, 9.997785, 10.00029 
1.7448807e+3, 1.4357203e+2, -1774405.6, -1583725.4, -21348.436, 0.015154064, 0.14089033, -1581364.5, -48353.324, 0.022935338, 9.997946, 10.000504 
1.7449158e+3, 1.5357266e+2, -1546070.4, -1320440.9, -23114.533, 0.020368446, 0.027396368, -1318097.3, 116900.08, 0.0078018596, 9.998416, 10.001406 
1.7449506e+3, 1.6357347e+2, -1535476.3, -1434678.4, -68645.56, 0.026932042, 0.049961295, -1399917.1, -62932.203, 0.0013223152, 9.998516, 9.999929 
1.744984e+3, 1.7357354e+2, -1381483.9, -1299408.5, -95791.92, -0.03844234, 0.027518151, -1236234.0, 2751.1414, 0.000049909977, 9.998887, 9.99999 
1.7450182e+3, 1.8357322e+2, -1325859.3, -1343742.8, -37413.43, -0.026865056, 0.0634543, -1296333.9, -155344.05, 0.0000000000000006446772, 9.999123, 9.998887 
1.7450541e+3, 1.9357239e+2, -1166504.4, -1199308.9, -5453.3955, 0.103968106, 0.04526915, -1165621.6, -122621.04, 0.0, 9.999491, 9.999011 
1.745089e+3, 2.0357187e+2, -975160.4, -977341.5, 3855.3625, 0.14107387, 0.075851426, -972244.25, -27238.541, 0.0, 9.999746, 9.999775 
1.7451218e+3, 2.135717e+2, -811010.2, -796952.0, -36110.906, 0.0058060703, 0.012529806, -767192.44, 79810.836, 0.0, 10.000017, 10.000194 
1.7451549e+3, 2.2357139e+2, -770917.9, -879257.5, -20648.84, -0.06651559, 0.037565786, -767115.8, -18110.758, 0.0, 10.000244, 9.998863 
1.7451893e+3, 2.3357096e+2, -646945.5, -753868.7, -16241.56, -0.03298907, 0.07075037, -644532.9, 6480.0366, 0.0, 10.000392, 9.998958 
1.745224e+3, 2.4357024e+2, -553332.7, -739822.25, 21184.043, 0.021888616, 0.14900191, -550956.6, 2065.5632, 0.0, 10.000726, 9.99822 
1.7452587e+3, 2.535687e+2, -349591.6, -571205.0, 17573.8, 0.08575186, 0.12901823, -348206.66, 106829.8, 0.0, 10.001386, 9.998376 
1.7452927e+3, 2.6356658e+2, -177377.05, -485334.9, 539.5588, 0.098007016, 0.11336917, -177376.1, 179678.56, 0.0000010008785, 10.00204, 9.998003 
1.7453252e+3, 2.7356356e+2, 35961.72, -309693.0, -60470.844, 0.014730495, -0.041432086, 46235.477, 305314.38, 0.000030147008, 10.002749, 9.998184 
1.7453595e+3, 2.8356117e+2, 116022.086, -327040.63, 30350.5, 0.010118225, -0.0428313, 118091.484, 279191.6, 0.00019899277, 10.00306, 9.997263 
1.745396e+3, 2.935593e+2, 141244.88, -246421.92, 19901.102, 0.07173448, -0.013341648, 142263.83, 205384.3, 0.00068156485, 10.002487, 9.997409 
1.7454289e+3, 3.0355743e+2, 131978.7, -230347.33, -36606.39, -0.098885596, 0.08099459, 135640.11, 135640.11, 0.0015937911, 10.002135, 9.997366 
1.7454621e+3, 3.135542e+2, 296598.84, -34602.875, -57725.33, -0.06540552, -0.05235024, 306371.47, 306371.47, 0.0028815179, 10.002712, 9.998408 
1.7548147e+3, 1.2353477e+2, -2007696.0, -1868819.9, 299754.5, 0.011351033, -0.016836712, -1630565.9, 98806.945, 0.07366958, 9.997973, 9.999912 
1.7548476e+3, 1.3354073e+2, -1915393.9, -1726284.3, -141577.44, 0.10681301, 0.51604027, -1650589.9, -19273.76, 0.048192136, 9.997792, 10.000269 
1.7548762e+3, 1.4353508e+2, -1761467.9, -1592779.3, -17199.756, -0.28852153, -0.075967655, -1591043.4, -57672.66, 0.024652572, 9.998091, 10.00038 
1.7549147e+3, 1.535369e+2, -1600651.3, -1448220.5, 4147.8994, 0.0342361, 0.01547953, -1448107.6, -12759.094, 0.008527423, 9.998467, 10.00051 
1.7549501e+3, 1.6353785e+2, -1541341.8, -1462503.9, -87409.734, 0.076003656, 0.11623143, -1406035.8, -68697.85, 0.0014925194, 9.998592, 9.9997 
1.7549822e+3, 1.7353809e+2, -1388922.6, -1302598.4, -67278.53, -0.12196036, 0.11588283, -1265827.0, -26487.771, 0.00006156021, 9.998844, 9.999986 
1.7550164e+3, 1.8353859e+2, -1252309.1, -1189705.1, -43058.13, -0.15219483, 0.18726262, -1167773.5, -26437.957, 0.0000000010737394, 9.999116, 9.999947 
1.7550536e+3, 1.93539e+2, -1099805.6, -1039487.06, 20973.3, 0.055623125, 0.17400083, -1032911.3, 10417.917, 0.0, 9.999396, 10.000155 
1.7550887e+3, 2.0353863e+2, -1024518.4, -1039024.75, -4101.9604, 0.10442947, 0.16994965, -1023438.8, -78108.72, 0.0, 9.999571, 9.999434 
1.7551212e+3, 2.1353711e+2, -884793.75, -894579.2, -11965.9375, -0.06523461, 0.024287615, -876758.9, -29416.797, 0.0, 9.999771, 9.999643 
1.7551547e+3, 2.2353631e+2, -789350.9, -842199.75, -31558.213, -0.14454162, 0.01533756, -774615.0, -25266.336, 0.0, 9.999922, 9.999273 
1.7551897e+3, 2.3353668e+2, -645759.2, -693069.2, 5932.8613, -0.058416992, 0.06902492, -645026.5, 6320.3994, 0.0, 10.000133, 9.999504 
1.7552249e+3, 2.4353637e+2, -578648.25, -711507.44, 28000.873, 0.009020144, 0.14108902, -572988.06, -19637.316, 0.0, 10.0003805, 9.99858 
1.7552604e+3, 2.535347e+2, -365806.44, -542313.4, 59744.406, 0.08180795, 0.07316195, -347485.66, 107880.2, 0.0, 10.001118, 9.998702 
1.7552948e+3, 2.635326e+2, -277741.13, -625083.4, 4029.1794, 0.06874446, 0.07867237, -277694.4, 79691.08, 0.00000094846536, 10.0017395, 9.997192 
1.7553273e+3, 2.7353013e+2, -76705.12, -466515.38, -11414.328, -0.08195517, 0.06615667, -76371.17, 183038.61, 0.000030605133, 10.002423, 9.997262 
1.7553616e+3, 2.835277e+2, 58287.094, -358622.75, 844.8576, -0.119338095, 0.11413487, 58288.805, 219722.86, 0.00020047408, 10.002682, 9.997227 
1.7553984e+3, 2.9352474e+2, 86557.28, -265912.16, 24603.242, 0.028509015, 0.021092758, 88266.37, 151730.97, 0.00069770816, 10.002096, 9.997457 
1.7554311e+3, 3.0352223e+2, 143766.39, -97198.695, -51399.7, -0.13383362, 0.0011875619, 154272.28, 154272.28, 0.001653074, 10.001679, 9.998491 
1.7554644e+3, 3.1352326e+2, 241076.94, 59079.11, 41856.906, -0.17428164, 0.13838834, 250241.89, 250241.89, 0.0030124853, 10.001864, 9.999436 
1.764811e+3, 1.2349745e+2, -2217539.0, -1991323.3, 379376.25, -0.05890329, -0.10389855, -1708552.8, 21184.73, 0.07790593, 9.996579, 9.999731 
1.764845e+3, 1.3350414e+2, -1871891.5, -1629355.0, -187854.45, 0.08209118, 0.44490293, -1527027.0, 104645.65, 0.05123237, 9.997733, 10.000997 
1.7648748e+3, 1.434988e+2, -1709197.8, -1569066.3, -37216.49, -0.24313045, -0.16370396, -1559795.5, -26071.293, 0.026445003, 9.998461, 10.000371 
1.7649129e+3, 1.5350147e+2, -1760608.4, -1549132.4, -27738.135, 0.06323161, 0.039841376, -1545554.6, -109857.72, 0.009296644, 9.997509, 10.000273 
1.764948e+3, 1.6350298e+2, -1746823.4, -1544728.6, -7925.491, 0.10313627, 0.20481184, -1544418.3, -206735.89, 0.0016790463, 9.997128, 9.999829 
1.7649813e+3, 1.7350282e+2, -1473601.6, -1326125.4, -3632.2893, -0.041426368, 0.14538519, -1326036.0, -86349.87, 0.000074904594, 9.998188, 10.000133 
1.7650163e+3, 1.8350308e+2, -1276680.0, -1173142.6, 24322.379, -0.046914432, 0.16975811, -1167713.6, -26029.865, 0.000000009428086, 9.9988165, 10.0002165 
1.765053e+3, 1.9350363e+2, -1103022.8, -1005134.75, -12789.211, 0.08213991, 0.14583464, -1003491.4, 40183.07, 0.0, 9.999218, 10.00049 
1.7650883e+3, 2.0350347e+2, -1041815.9, -1045278.4, -39289.53, 0.11597057, 0.14546287, -1004219.44, -58546.594, 0.0, 9.999457, 9.999442 
1.7651214e+3, 2.1350226e+2, -926868.9, -919485.06, -44823.72, 0.0073604593, 0.03690149, -878201.44, -30518.232, 0.0, 9.999518, 9.999588 
1.7651553e+3, 2.235015e+2, -836113.9, -854729.6, -20272.184, -0.035194416, 0.031469695, -823114.8, -73425.055, 0.0, 9.9995775, 9.999342 
1.7651902e+3, 2.3350146e+2, -682621.2, -697074.1, -58250.332, 0.010161703, 0.038610283, -631150.8, 20540.14, 0.0, 9.999846, 9.999602 
1.7652255e+3, 2.4350096e+2, -554612.7, -688150.75, -10153.221, 0.05959702, 0.0830197, -553845.1, -149.1974, 0.0, 10.00045, 9.998729 
1.7652619e+3, 2.5349966e+2, -291267.56, -491904.72, -14267.88, 0.11329819, 0.03638842, -290258.0, 165449.98, 0.0, 10.001531, 9.998869 
1.7652969e+3, 2.6349792e+2, -197761.58, -563311.06, -24679.307, 0.09693513, 0.059094127, -196102.94, 161621.89, 0.0000007067664, 10.002211, 9.997378 
1.7653295e+3, 2.734956e+2, -93725.48, -452497.13, -13278.905, -0.06456993, 0.048506472, -93234.664, 166514.03, 0.000029110019, 10.00223, 9.99744 
1.7653641e+3, 2.8349358e+2, 10369.62, -360177.7, 68001.85, -0.09300132, 0.11848191, 22454.977, 184225.28, 0.0002034409, 10.002285, 9.997401 
1.765401e+3, 2.934914e+2, 165962.89, -215486.42, 33871.41, 0.091888376, 0.098359734, 168947.22, 232741.34, 0.0007263894, 10.002613, 9.997549 
1.7654338e+3, 3.0348843e+2, 321920.88, 10857.339, -10784.465, -0.058336202, 0.02137327, 322294.3, 322294.3, 0.0017327985, 10.002778, 9.998714 
1.7654671e+3, 3.1348893e+2, 325904.13, 130463.55, -68572.98, -0.08784468, 0.090245664, 347563.5, 347563.5, 0.0031529404, 10.002255, 9.999767 
1.774808e+3, 1.23461656e+2, -2131004.3, -1871980.0, 192591.89, -0.099241026, 0.1290324, -1769403.8, -39311.152, 0.08231803, 9.996796, 10.000458 
1.7748423e+3, 1.3346696e+2, -1767735.8, -1433851.5, -99312.375, 0.0048257043, 0.38194618, -1406544.8, 225492.02, 0.054393712, 9.997773, 10.002375 
1.7748755e+3, 1.4346272e+2, -1687097.9, -1553778.5, -81082.266, -0.06510589, -0.1760355, -1515472.3, 18603.781, 0.02831169, 9.998586, 10.000422 
1.7749095e+3, 1.5346636e+2, -1727388.4, -1490514.5, -52410.414, -0.0571575, 0.08956168, -1479436.4, -43394.004, 0.010105246, 9.9975395, 10.000667 
1.7749439e+3, 1.6346896e+2, -1706323.6, -1474006.9, 745.86176, -0.059682976, 0.3171558, -1474004.5, -135987.25, 0.0018804772, 9.997184, 10.000287 
1.7749809e+3, 1.7346779e+2, -1454093.9, -1280340.1, 51501.38, 0.059215207, 0.1202103, -1266222.0, -26196.049, 0.00008970714, 9.998167, 10.000456 
1.7750171e+3, 1.8346666e+2, -1310907.5, -1247144.8, 24320.998, 0.10867313, 0.01210516, -1238927.1, -96892.484, 0.000000028818846, 9.998829, 9.999702 
1.775052e+3, 1.9346626e+2, -1159749.5, -1100725.1, 18135.215, 0.037922204, -0.047391165, -1095598.4, -51561.21, 0.0, 9.999119, 9.999885 
1.775087e+3, 2.0346637e+2, -1050501.3, -1018029.1, -54278.055, 0.006857566, -0.0002509788, -977610.8, -31575.885, 0.0, 9.9992695, 9.999713 
1.7751218e+3, 2.1346708e+2, -937365.0, -883160.2, -29317.56, 0.08087185, 0.042209763, -870336.9, -22309.47, 0.0, 9.999274, 9.999949 
1.7751564e+3, 2.234669e+2, -903817.94, -934938.94, -27993.168, 0.09460827, 0.09260199, -887351.1, -137322.25, 0.0, 9.999308, 9.998924 
1.7751904e+3, 2.3346515e+2, -742664.5, -785675.2, -28999.434, 0.028277343, -0.026032932, -728066.56, -76020.01, 0.0, 9.999671, 9.999085 
1.7752257e+3, 2.4346387e+2, -599624.6, -705755.25, 8681.239, 0.0020037133, -0.031352956, -598919.2, -44859.906, 0.0, 10.000134, 9.998754 
1.775263e+3, 2.534636e+2, -328310.72, -498438.3, 46453.953, 0.048012063, 0.012802646, -316452.78, 139609.27, 0.0, 10.001234, 9.998964 
1.7752986e+3, 2.6346257e+2, -188425.34, -452467.53, -32222.26, 0.022657229, 0.05724694, -184550.0, 173521.81, 0.00000032366296, 10.001826, 9.998321 
1.7753316e+3, 2.734602e+2, -71168.42, -319261.06, 9327.517, -0.10535999, -0.0617412, -70818.234, 189275.78, 0.00002512301, 10.001879, 9.998515 
1.7753665e+3, 2.8345886e+2, -35459.727, -374931.1, 51526.09, -0.11999533, 0.014688831, -27811.25, 134297.19, 0.00020101898, 10.001933, 9.997471 
1.7754038e+3, 2.93459e+2, 109222.32, -244943.55, 71396.4, 0.06488248, 0.21740909, 123073.44, 187185.5, 0.0007432089, 10.002236, 9.997524 
1.7754367e+3, 3.0345583e+2, 201196.11, -122564.32, -44181.625, -0.08683197, 0.15090078, 207117.03, 207117.03, 0.0017748435, 10.00229, 9.998026 
1.7754695e+3, 3.1345347e+2, 185567.45, 52597.402, -1958.6072, -0.1321457, 0.007561367, 185596.3, 185596.3, 0.0031989287, 10.001414, 9.999602 
1.7848058e+3, 1.2342599e+2, -2198906.0, -1844813.3, 237462.61, 0.0623638, 0.270163, -1725660.5, 4780.586, 0.08696164, 9.996128, 10.000934 
1.7848396e+3, 1.3343032e+2, -1870669.1, -1430191.6, -93548.53, 0.022830471, 0.37927854, -1411147.3, 221248.25, 0.057701517, 9.996898, 10.002801 
1.7848738e+3, 1.4342716e+2, -1991780.0, -1677428.5, -87397.36, 0.023785124, -0.09681365, -1654764.0, -120339.516, 0.030258754, 9.996404, 10.000621 
1.7849076e+3, 1.5343046e+2, -1708951.1, -1456110.4, -104237.26, 0.017896902, 0.10840194, -1418678.6, 17716.428, 0.0109521225, 9.99755, 10.000896 
1.7849424e+3, 1.634331e+2, -1514185.6, -1360555.5, -10297.055, 0.023869498, 0.31502575, -1359868.5, -21498.785, 0.0020959692, 9.998417, 10.000463 
1.7849801e+3, 1.7343207e+2, -1325025.5, -1196590.4, -12392.761, 0.14643177, 0.11639126, -1195405.5, 44970.074, 0.000105867584, 9.99898, 10.000628 
1.7850168e+3, 1.8343093e+2, -1286491.0, -1250009.3, -23964.73, 0.20195845, 0.0042196666, -1238133.0, -95748.734, 0.0000000562377, 9.999059, 9.999578 
1.7850514e+3, 1.9343044e+2, -1224509.3, -1146990.3, -28450.846, 0.09662516, -0.049297, -1137669.1, -93279.64, 0.0, 9.998733, 9.999752 
1.7850862e+3, 2.0343062e+2, -1093557.6, -1025627.25, -31941.396, 0.059473526, 0.00857667, -1012967.5, -66579.98, 0.0, 9.998919, 9.99983 
1.785122e+3, 2.1343163e+2, -771327.4, -783735.7, -55611.215, 0.13928162, 0.06470042, -721575.3, 126801.58, 0.0, 10.000327, 10.000127 
1.7851572e+3, 2.2343153e+2, -636238.2, -824686.25, -37097.8, 0.14871271, 0.121137485, -629198.2, 121179.43, 0.0, 10.001236, 9.9987545 
1.7851909e+3, 2.3342957e+2, -527017.3, -709413.75, -60740.793, 0.02796247, 0.0108541865, -508641.1, 143756.5, 0.0, 10.001287, 9.998834 
1.785226e+3, 2.4342827e+2, -449276.4, -608437.6, 21223.254, -0.006454291, 0.01123639, -446495.03, 107915.78, 0.0, 10.001077, 9.998959 
1.785264e+3, 2.5342825e+2, -415926.75, -508351.4, 34161.87, 0.08666877, 0.054138847, -404670.72, 51740.184, 0.0, 10.000512, 9.99923 
1.7853004e+3, 2.6342762e+2, -339688.9, -483356.7, -10738.502, 0.097697385, 0.10385404, -338890.7, 19526.213, 0.00000018370703, 10.000574, 9.99873 
1.7853338e+3, 2.7342555e+2, -51352.285, -273989.6, -46827.844, -0.0677236, -0.024542468, -41903.85, 218532.16, 0.000020759246, 10.001808, 9.998891 
1.7853686e+3, 2.834243e+2, 80410.4, -255474.89, 9215.969, -0.09595731, 0.018815054, 80663.08, 243111.6, 0.00019262578, 10.002468, 9.998024 
1.7854063e+3, 2.9342446e+2, 142574.2, -167870.77, 10879.595, 0.110778935, 0.1745569, 142955.02, 207404.83, 0.00073903677, 10.0022, 9.998067 
1.7854396e+3, 3.034217e+2, 204993.16, -154147.19, -15529.497, -0.0033865212, 0.12737396, 205663.4, 205663.4, 0.0017591724, 10.002466, 9.997717 
1.785473e+3, 3.1341958e+2, 453742.75, 128993.77, -48015.74, -0.003970789, 0.07704928, 460693.38, 460693.38, 0.0031190142, 10.003439, 9.999179 
1.7948014e+3, 1.2338696e+2, -2153200.5, -1800881.4, 203531.17, -0.08933109, -0.05984394, -1707862.3, 22954.742, 0.09190124, 9.996344, 10.001143 
1.7948359e+3, 1.3339399e+2, -1885134.5, -1496076.0, -110781.9, -0.07611127, 0.40530923, -1466743.1, 166007.31, 0.06119029, 9.997026, 10.002286 
1.7948687e+3, 1.4339238e+2, -1971261.6, -1637619.3, -89892.78, -0.15585151, 0.084058024, -1614941.0, -80173.56, 0.03230053, 9.9964285, 10.000877 
1.7949069e+3, 1.5339388e+2, -1712293.9, -1458281.5, -42946.29, 0.15401344, 0.108055696, -1451217.0, -14463.077, 0.011841973, 9.997541, 10.00088 
1.794943e+3, 1.6339523e+2, -1506099.4, -1373186.9, -8028.9775, 0.18959269, 0.19919287, -1372703.5, -33962.66, 0.0023264778, 9.998529, 10.00033 
1.7949788e+3, 1.7339545e+2, -1323533.4, -1201163.5, 17641.32, 0.09121508, 0.13217804, -1198671.0, 42066.277, 0.00012352158, 9.998998, 10.000598 
1.7950149e+3, 1.8339568e+2, -1260584.3, -1200189.6, -52925.5, 0.06231846, 0.14285885, -1169452.6, -26718.086, 0.000000085167756, 9.999083, 9.999904 
1.7950505e+3, 1.9339609e+2, -1217516.9, -1109551.3, -30739.127, 0.1084804, 0.14342016, -1101413.0, -56681.027, 0.0, 9.998635, 10.000054 
1.795086e+3, 2.0339628e+2, -1118370.9, -1037124.9, -8257.511, 0.09583136, 0.18410294, -1036294.06, -89564.0, 0.0, 9.998738, 9.999843 
1.7951217e+3, 2.1339603e+2, -806510.25, -804991.44, 14276.162, 0.044971403, 0.11733873, -791454.5, 57275.902, 0.0, 10.000093, 10.000101 
1.7951567e+3, 2.2339544e+2, -694650.94, -863380.5, -44897.26, -0.02761761, 0.12918699, -683448.06, 67287.375, 0.0, 10.000884, 9.998658 
1.7951907e+3, 2.3339446e+2, -578229.06, -746928.7, -40914.53, -0.12264595, 0.12784523, -568829.8, 83916.89, 0.0, 10.000992, 9.998716 
1.7952262e+3, 2.4339376e+2, -481149.66, -595127.0, -10177.838, -0.12574442, 0.18406549, -480247.94, 74506.26, 0.0, 10.000733, 9.999216 
1.7952646e+3, 2.5339353e+2, -431004.63, -475437.72, 30104.873, 0.077233374, 0.16901176, -415806.22, 40949.34, 0.0, 10.000243, 9.999582 
1.7953016e+3, 2.633928e+2, -395947.6, -524736.9, 7637.064, 0.1356786, 0.19776551, -395496.3, -36734.184, 0.00000013255313, 10.000246, 9.998606 
1.7953353e+3, 2.7339134e+2, -108633.24, -314020.66, 18641.004, -0.10837892, 0.14001727, -106955.09, 153821.25, 0.0000188634, 10.001484, 9.998764 
1.7953704e+3, 2.833899e+2, 78424.984, -170569.83, -14326.713, -0.20390047, 0.13588446, 79246.61, 242036.23, 0.00018772876, 10.002081, 9.9987955 
1.795408e+3, 2.9338825e+2, 147773.77, -46258.746, 29369.232, 0.030481098, 0.014699142, 152121.73, 216924.95, 0.00073121197, 10.001744, 9.999112 
1.7954421e+3, 3.0338624e+2, 107943.805, -248088.14, -11962.043, -0.04110233, 0.0013074104, 108345.25, 108345.25, 0.0017175064, 10.001981, 9.997315 
1.7954761e+3, 3.1338733e+2, 350690.44, 64654.31, 68006.9, -0.09482577, 0.30826217, 366036.2, 366036.2, 0.0029745947, 10.002833, 9.999004 
1.8047974e+3, 1.2334972e+2, -2150825.8, -1741172.3, 157767.38, -0.097187564, -0.21072777, -1687455.9, 43723.023, 0.097200245, 9.996146, 10.001652 
1.804832e+3, 1.3335782e+2, -1916280.6, -1547323.1, -89084.945, -0.15174495, 0.40713018, -1526939.6, 106163.17, 0.06490086, 9.997001, 10.001919 
1.804867e+3, 1.4335573e+2, -1751659.1, -1529346.3, -34785.77, -0.042279888, 0.04903886, -1524030.4, 11094.676, 0.034457777, 9.997897, 10.000921 
1.8049054e+3, 1.533572e+2, -1609715.0, -1402226.6, -11611.728, 0.23965667, 0.06147575, -1401578.8, 35531.566, 0.0127833225, 9.998202, 10.000954 
1.8049416e+3, 1.6335848e+2, -1568617.0, -1401533.1, 57238.7, 0.23133436, 0.13834536, -1383805.5, -44707.36, 0.0025744103, 9.998093, 10.00035 
1.8049774e+3, 1.7335922e+2, -1496223.0, -1275666.1, 51333.25, 0.11912866, 0.12000615, -1264303.9, -23212.178, 0.00014305822, 9.997785, 10.000661 
1.8050137e+3, 1.8335998e+2, -1405028.8, -1256786.1, 23718.502, 0.10316084, 0.17209667, -1253083.6, -109998.12, 0.00000010953618, 9.998026, 10.000029 
1.8050496e+3, 1.9336064e+2, -1077236.5, -1023643.3, -362.47302, 0.12253536, 0.18580061, -1023640.8, 21439.521, 0.0, 9.999527, 10.000215 
1.8050852e+3, 2.0336087e+2, -912177.94, -949693.5, 38141.184, 0.10090656, 0.22471495, -888431.56, 58646.625, 0.0, 10.000197, 9.999757 
1.8051212e+3, 2.133603e+2, -902931.75, -864107.3, 18759.625, 0.045681123, 0.14080581, -856524.0, -7442.844, 0.0, 9.999489, 9.999992 
1.8051569e+3, 2.2335958e+2, -910455.8, -954905.56, 964.34186, -0.0037768255, 0.1424825, -910434.9, -159347.97, 0.0, 9.999357, 9.998753 
1.805192e+3, 2.3335879e+2, -632744.56, -758847.5, -10716.707, -0.07271385, 0.14642937, -631840.3, 21256.262, 0.0, 10.000569, 9.998825 
1.8052275e+3, 2.4335803e+2, -426266.78, -604197.75, 6753.0767, -0.06515794, 0.20240487, -426010.84, 129093.9, 0.0, 10.001241, 9.998933 
1.805265e+3, 2.5335714e+2, -380157.72, -498901.2, -44132.742, 0.08989538, 0.16576067, -365551.75, 91561.15, 0.0, 10.000768, 9.999198 
1.805302e+3, 2.633562e+2, -313377.47, -460502.7, -3112.5952, 0.14815027, 0.19022365, -313311.63, 45810.195, 0.00000007008213, 10.000725, 9.998806 
1.8053374e+3, 2.733553e+2, -70334.195, -271677.28, -328.24146, -0.03909099, 0.17019282, -70333.66, 190797.3, 0.000018211349, 10.0016365, 9.998985 
1.805373e+3, 2.833542e+2, 92416.375, -120633.516, -36479.902, -0.12619896, 0.16828799, 98489.59, 261630.67, 0.00018396454, 10.00198, 9.999191 
1.805409e+3, 2.933524e+2, 151699.7, -3820.4993, -89018.52, -0.004382021, 0.0002689564, 192138.3, 257292.89, 0.0007180549, 10.001575, 9.9994955 
1.805444e+3, 3.0335072e+2, 168987.8, -241688.17, -23348.727, -0.042822666, 0.0053634774, 170311.02, 170311.02, 0.0016647228, 10.002528, 9.997082 
1.8054818e+3, 3.1335145e+2, 693476.4, 162065.95, -23385.588, 0.07267933, 0.33872232, 694503.5, 694503.5, 0.0028336896, 10.0054, 9.998484 
1.8147947e+3, 1.2331496e+2, -2082516.3, -1665429.1, -130451.9, -0.054233182, -0.098463245, -1627988.8, 103531.47, 0.10291468, 9.996371, 10.002126 
1.8148273e+3, 1.3332164e+2, -1933665.6, -1584344.9, -17036.629, -0.3544132, 0.386356, -1583515.9, 49938.74, 0.06887483, 9.997014, 10.001637 
1.8148677e+3, 1.4331676e+2, -1726708.6, -1505413.6, -45701.406, 0.19022775, -0.23442066, -1496346.9, 39154.65, 0.036753505, 9.998008, 10.001041 
1.8149027e+3, 1.5332016e+2, -1580289.4, -1358455.6, 11244.482, 0.11918604, -0.05237482, -1357887.1, 79579.57, 0.01378539, 9.9982605, 10.001236 
1.8149373e+3, 1.6332278e+2, -1538516.3, -1360701.6, 26856.35, -0.047790937, 0.12652136, -1356733.9, -17292.586, 0.002842686, 9.998184, 10.000586 
1.8149753e+3, 1.7332341e+2, -1490214.6, -1267281.0, 53384.043, 0.0941399, 0.084954835, -1255157.0, -13718.629, 0.00016504708, 9.997788, 10.000721 
1.8150127e+3, 1.8332389e+2, -1408382.5, -1262345.8, 49729.527, 0.16556635, 0.10793336, -1247019.9, -103583.64, 0.00000012908751, 9.998016, 9.999997 
1.8150482e+3, 1.933242e+2, -1087437.5, -1030735.4, 69700.73, 0.0063305255, 0.088620625, -983840.4, 61593.77, 0.0, 9.999457, 10.000204 
1.8150839e+3, 2.0332439e+2, -955160.44, -994004.9, 8180.889, -0.08919, 0.13402472, -953507.8, -6075.7417, 0.0, 10.00001, 9.999539 
1.8151204e+3, 2.1332431e+2, -955912.0, -921087.75, 7762.1455, 0.0058982, 0.12451358, -919435.94, -70005.125, 0.0, 9.999257, 9.999713 
1.8151571e+3, 2.2332382e+2, -943533.2, -948589.3, 18683.783, 0.053616866, 0.15490623, -927207.2, -175772.84, 0.0, 9.999035, 9.998951 
1.8151936e+3, 2.3332264e+2, -652393.0, -739913.25, 51892.49, 0.023145463, 0.09355646, -628272.5, 25174.023, 0.0, 10.000306, 9.9990835 
1.8152295e+3, 2.4332108e+2, -536005.94, -757323.3, -14918.565, -0.014361187, 0.093645446, -535004.8, 20457.68, 0.0, 10.000921, 9.99803 
1.8152648e+3, 2.5331903e+2, -485601.6, -662832.56, -42481.305, -0.018080322, 0.039699987, -475945.2, -18461.553, 0.0, 10.000534, 9.998178 
1.8153013e+3, 2.6331782e+2, -344348.22, -450332.8, 7723.18, -0.021142162, 0.08134824, -343788.4, 15708.301, 0.0000000874347, 10.000401, 9.999034 
1.8153393e+3, 2.7331778e+2, -88994.16, -223152.98, 57259.57, -0.027032224, 0.094087414, -67878.86, 193618.67, 0.00001648955, 10.001275, 9.999484 
1.8153757e+3, 2.833175e+2, 26316.27, -172765.77, -67435.63, -0.082710326, 0.16109122, 47008.27, 210508.02, 0.00017264318, 10.001598, 9.999022 
1.8154092e+3, 2.933169e+2, 100932.54, -49059.906, -78541.734, -0.18773234, 0.120347396, 134532.98, 200036.5, 0.000683164, 10.001307, 9.999316 
1.8154451e+3, 3.0331516e+2, 73453.836, -344148.7, 42135.4, -0.23477603, 0.15038706, 77662.805, 77662.805, 0.0015936061, 10.002133, 9.996564 
1.815487e+3, 3.133104e+2, 523679.3, 52194.457, 133319.75, 0.005279249, -0.02009998, 558766.44, 558766.44, 0.002724428, 10.004433, 9.998153 
1.8247926e+3, 1.232801e+2, -2215021.8, -1768326.6, -170032.22, 0.15145992, 0.023352945, -1710969.5, 20894.135, 0.10907774, 9.995641, 10.001712 
1.8248248e+3, 1.3328552e+2, -1916557.6, -1584565.1, -3423.0535, -0.29331088, 0.3834503, -1584529.8, 49278.02, 0.07313931, 9.997115, 10.001603 
1.8248661e+3, 1.432797e+2, -1855391.6, -1561711.9, -3769.3345, 0.29576755, -0.3336876, -1561663.6, -25801.52, 0.039204508, 9.997139, 10.001054 
1.8249007e+3, 1.5328355e+2, -1653063.6, -1397264.5, -10029.38, 0.11600532, -0.1012602, -1396871.9, 40951.176, 0.014855209, 9.997811, 10.00117 
1.824935e+3, 1.6328627e+2, -1535539.3, -1369717.1, -7652.2886, -0.07559427, 0.099276744, -1369364.6, -29567.723, 0.0031336718, 9.998249, 10.000486 
1.8249734e+3, 1.7328712e+2, -1401729.6, -1231450.9, -34433.727, 0.113859005, 0.08750333, -1224751.4, 17041.271, 0.00019006866, 9.998442, 10.000648 
1.8250115e+3, 1.8328765e+2, -1354225.1, -1252022.6, 11233.264, 0.2294199, 0.12814076, -1250802.5, -107012.17, 0.00000015151502, 9.998459, 9.999851 
1.8250474e+3, 1.9328752e+2, -1243700.1, -1117787.9, -7971.9136, 0.051872548, 0.08142796, -1117285.1, -71492.945, 0.0, 9.998473, 10.000065 
1.8250835e+3, 2.0328733e+2, -1127059.5, -1084455.0, -58592.25, -0.046897918, 0.099646986, -1043412.75, -95619.086, 0.0, 9.998868, 9.999448 
1.8251203e+3, 2.1328685e+2, -842470.44, -869140.1, -77786.04, 0.025347643, 0.05244255, -776884.5, 72911.414, 0.0, 10.000064, 9.999657 
1.8251571e+3, 2.2328627e+2, -674511.4, -824632.56, -15489.826, 0.07943159, 0.07834293, -672929.75, 78870.47, 0.0, 10.000874, 9.998935 
1.8251945e+3, 2.3328553e+2, -560366.1, -690594.7, -30309.889, 0.07042188, 0.061008032, -553657.25, 100151.35, 0.0, 10.000905, 9.999143 
1.825231e+3, 2.4328424e+2, -498916.97, -727988.44, -60753.62, 0.057355374, 0.0782507, -483801.5, 72020.75, 0.0, 10.00112, 9.998132 
1.8252665e+3, 2.5328204e+2, -312659.8, -565198.56, -45247.457, 0.04297164, -0.0007984913, -304797.6, 153046.38, 0.0, 10.0016575, 9.998297 
1.8253028e+3, 2.6328057e+2, -171271.98, -400070.0, 65779.34, 0.03505984, 0.022746062, -153708.66, 206150.38, 0.00000011582431, 10.00175, 9.998724 
1.8253404e+3, 2.7328005e+2, -146571.78, -304103.56, 5700.297, -0.010154619, 0.035082128, -146365.78, 115500.24, 0.000015405387, 10.001106, 9.999016 
1.8253772e+3, 2.832796e+2, -42992.04, -229433.98, -91840.664, -0.05520693, 0.12025072, -5351.034, 158520.1, 0.00016033741, 10.001238, 9.998799 
1.8254119e+3, 2.9327962e+2, 315856.56, 21898.512, -150243.34, -0.09794876, 0.17271237, 379058.16, 444927.34, 0.00064014964, 10.002916, 9.999035 
1.8254495e+3, 3.0327782e+2, 383555.03, -180696.1, 55870.984, -0.080633536, 0.21067648, 389034.06, 389034.06, 0.0015227208, 10.004189, 9.996707 
1.8254912e+3, 3.1327173e+2, 521851.97, 40524.38, 51102.223, 0.031518202, -0.10039254, 527217.6, 527217.6, 0.002662684, 10.004399, 9.9981365 
1.8347879e+3, 1.23245016e+2, -2302574.3, -1975949.1, -72110.28, 0.017104741, 0.14640231, -1960737.5, -228527.11, 0.11569034, 9.995757, 10.000212 
1.8348245e+3, 1.3324954e+2, -1870630.1, -1519918.5, 19482.07, -0.07979276, 0.40608308, -1518839.6, 115321.984, 0.07769921, 9.997203, 10.002049 
1.834861e+3, 1.4324479e+2, -1849397.8, -1578550.6, -14140.636, 0.03387113, -0.23474726, -1577814.4, -41609.906, 0.04181763, 9.997259, 10.000878 
1.8348983e+3, 1.5324734e+2, -1683954.3, -1475920.0, 30661.814, 0.07408202, -0.082673945, -1471494.9, -33315.29, 0.015997248, 9.99786, 10.0006075 
1.8349345e+3, 1.6324885e+2, -1549087.6, -1422061.8, -18836.004, -0.008295529, 0.0518696, -1419327.5, -79161.41, 0.0034491862, 9.99835, 10.00008 
1.8349715e+3, 1.7325011e+2, -1411836.0, -1267046.1, -17241.887, 0.044118907, 0.10730079, -1265021.3, -22864.072, 0.00021871291, 9.998487, 10.000386 
1.835009e+3, 1.8325093e+2, -1376202.0, -1295152.4, -6731.9756, 0.10524075, 0.20339467, -1294597.0, -150445.69, 0.00000018976193, 9.998454, 9.999556 
1.8350467e+3, 1.932504e+2, -1281709.4, -1179188.1, 4386.5386, 0.11131064, 0.15006325, -1179000.8, -132843.7, 0.0, 9.998391, 9.999686 
1.8350838e+3, 2.0324945e+2, -1144423.1, -1080384.9, -37907.523, 0.05924627, 0.10968887, -1062783.4, -114618.08, 0.0, 9.998693, 9.999561 
1.8351199e+3, 2.132479e+2, -860503.6, -853294.3, -20414.215, -0.03986412, -0.062703684, -836168.94, 14007.542, 0.0, 9.999832, 9.999878 
1.8351565e+3, 2.23247e+2, -735648.4, -873271.2, -22066.578, -0.09481411, -0.07338631, -732196.75, 19986.97, 0.0, 10.000535, 9.998769 
1.8351944e+3, 2.3324731e+2, -614349.75, -742134.5, -11727.463, -0.05707095, 0.035168268, -613282.4, 40901.91, 0.0, 10.000641, 9.998923 
1.8352318e+3, 2.4324723e+2, -479183.97, -604565.3, -59490.367, -0.0034363586, 0.14215665, -455449.97, 100736.66, 0.0, 10.000761, 9.999156 
1.835269e+3, 2.532462e+2, -275166.0, -411281.72, -6475.6274, 0.11695155, 0.05709247, -274858.63, 183335.03, 0.0, 10.001333, 9.999512 
1.8353057e+3, 2.632447e+2, -288462.66, -575497.4, 31295.809, 0.11137897, 0.05168053, -285090.06, 75117.67, 0.000000090536304, 10.001445, 9.997672 
1.8353406e+3, 2.7324212e+2, -267297.3, -518249.25, 5061.031, -0.14260624, -0.003350844, -267195.28, -4958.394, 0.00001528185, 10.000943, 9.997625 
1.835377e+3, 2.8324038e+2, -111822.6, -316536.44, -67394.54, -0.22877213, 0.05083002, -91627.64, 72628.22, 0.00015301355, 10.000993, 9.99832 
1.8354166e+3, 2.9324055e+2, 244061.63, -38688.82, -58046.074, 0.045706004, 0.14312282, 255514.08, 321765.75, 0.0006077412, 10.002543, 9.99879 
1.8354563e+3, 3.0323908e+2, 318359.4, -186007.06, 49026.887, 0.15069433, 0.21893752, 323080.84, 323080.84, 0.0014712461, 10.003634, 9.996934 
1.8354926e+3, 3.1323528e+2, 408070.78, -26820.436, 89468.83, -0.3302232, 0.08516062, 425757.6, 425757.6, 0.0026389607, 10.003696, 9.997995 
1.8447846e+3, 1.2320692e+2, -2150367.8, -1946386.5, 11386.208, 0.07120092, 0.05943319, -1945752.9, -213169.22, 0.12272786, 9.997023, 9.9998045 
1.8448222e+3, 1.3321245e+2, -2053663.8, -1564864.8, -57714.8, 0.05528019, 0.39529917, -1558142.6, 76382.85, 0.08254445, 9.995838, 10.002361 
1.8448576e+3, 1.4320844e+2, -2040193.1, -1694704.3, -42274.684, 0.042798582, -0.17259446, -1689606.6, -153045.39, 0.04459436, 9.9960375, 10.000679 
1.8448964e+3, 1.5321094e+2, -1740897.8, -1521463.0, 131.79836, 0.12039642, -0.010405193, -1521463.0, -82924.33, 0.017215712, 9.997551, 10.000442 
1.8449335e+3, 1.6321221e+2, -1553798.9, -1436539.1, -12739.313, 0.07706515, 0.113961786, -1435171.1, -94643.33, 0.0037916328, 9.998387, 9.999968 
1.8449698e+3, 1.7321256e+2, -1395255.6, -1266704.1, -38264.383, 0.039855506, 0.09284914, -1256176.6, -13651.669, 0.00025177147, 9.998655, 10.000307 
1.8450074e+3, 1.832128e+2, -1310817.8, -1282190.5, 18834.268, 0.08186642, 0.14148654, -1272848.1, -128325.04, 0.00000025167606, 9.998981, 9.999389 
1.8450463e+3, 1.9321233e+2, -1080990.1, -1104359.9, 13329.385, 0.1725248, 0.11244101, -1074949.0, -28420.967, 0.0, 9.999854, 9.999494 
1.8450841e+3, 2.0321149e+2, -956034.1, -1015646.3, -7421.368, 0.16713497, 0.10355811, -955124.1, -6587.827, 0.0, 10.000107, 9.9993305 
1.8451196e+3, 2.1321017e+2, -920155.4, -910698.94, -58983.113, -0.009760707, -0.017745214, -856254.9, -5706.55, 0.0, 9.999563, 9.99962 
1.8451564e+3, 2.2320944e+2, -871560.94, -895138.06, -26483.363, -0.09300561, -0.01116034, -854360.9, -101805.88, 0.0, 9.999423, 9.999143 
1.8451947e+3, 2.3320968e+2, -642852.6, -699488.44, 5702.303, -0.040402416, 0.04090126, -642284.25, 12269.622, 0.0, 10.000196, 9.999417 
1.8452328e+3, 2.4320975e+2, -465164.7, -579803.9, -5712.609, 0.0345209, 0.124381095, -464880.72, 91672.56, 0.0, 10.000807, 9.999284 
1.8452702e+3, 2.5320935e+2, -300874.94, -424886.5, -78978.164, 0.13409515, 0.10274106, -262470.22, 196085.06, 0.0, 10.001163, 9.9994955 
1.8453074e+3, 2.6320794e+2, -247197.1, -595222.6, -31603.447, 0.13590486, 0.12213257, -244350.53, 116218.41, 0.00000009817215, 10.0019, 9.997317 
1.8453431e+3, 2.7320465e+2, 63211.703, -409824.88, -26879.355, -0.09008431, 0.042404912, 64734.168, 327338.75, 0.000013983738, 10.003436, 9.997167 
1.84538e+3, 2.8320196e+2, 294561.5, -203275.17, -40102.758, -0.1657014, 0.061205, 297771.25, 462403.63, 0.00014297613, 10.004139, 9.997589 
1.8454193e+3, 2.932008e+2, 299720.03, -95540.13, -126829.47, 0.042449597, 0.107134506, 336916.2, 403557.25, 0.0005747027, 10.003287, 9.998047 
1.8454596e+3, 3.031982e+2, 246892.28, -239521.39, 19257.695, 0.16655318, 0.11437444, 247653.53, 247653.53, 0.0014161514, 10.00321, 9.996779 
1.8454975e+3, 3.131951e+2, 520406.28, 14938.655, -103156.07, -0.2225965, 0.07640322, 540647.9, 540647.9, 0.0025925783, 10.0045, 9.997896 
1.8547815e+3, 1.2316781e+2, -2061620.9, -1846370.5, -38964.902, -0.020131966, -0.056224827, -1839534.3, -106570.43, 0.13014582, 9.997324, 10.000373 
1.8548168e+3, 1.3317406e+2, -2056159.6, -1577387.9, -62579.855, -0.09728184, 0.3212158, -1569343.3, 65557.47, 0.08765755, 9.9958515, 10.002273 
1.8548556e+3, 1.431706e+2, -2030729.1, -1706407.5, -11782.305, 0.18043128, -0.16655901, -1705980.0, -169046.63, 0.04753598, 9.99617, 10.00054 
1.8548942e+3, 1.5317428e+2, -1715709.0, -1490397.1, 69462.414, 0.10931858, 0.10549391, -1470703.6, -31803.158, 0.01851746, 9.997633, 10.000622 
1.8549313e+3, 1.6317625e+2, -1531608.1, -1409366.1, -21123.18, -0.025888918, 0.28007907, -1405819.0, -64936.79, 0.0041650403, 9.998471, 10.000111 
1.854968e+3, 1.7317444e+2, -1394585.6, -1263810.5, -14725.362, -0.037806377, 0.035279956, -1262173.0, -19276.688, 0.00029041685, 9.998639, 10.000338 
1.8550059e+3, 1.8317315e+2, -1312371.8, -1284514.9, 26693.957, -0.004642938, -0.06864969, -1268334.0, -123427.53, 0.0000003514084, 9.998979, 9.999376 
1.8550457e+3, 1.931733e+2, -1096552.1, -1112097.1, 56867.82, 0.09858041, -0.03241563, -1046928.1, -22.68527, 0.0, 9.999743, 9.999497 
1.8550839e+3, 2.0317343e+2, -1032078.94, -1126689.5, -37297.195, 0.10840331, 0.08331435, -1019144.1, -70237.43, 0.0, 9.999907, 9.998664 
1.8551193e+3, 2.1317345e+2, -1011110.75, -1046137.75, -65038.418, -0.015770314, 0.17345424, -961269.1, -110356.38, 0.0, 9.999334, 9.9988 
1.8551561e+3, 2.2317328e+2, -848631.5, -779500.3, -21181.703, -0.083402775, 0.2438031, -773526.5, -20609.842, 0.0, 9.999122, 10.000086 
1.8551952e+3, 2.3317263e+2, -588445.94, -531153.7, 51389.37, -0.028508795, 0.079521805, -500965.56, 153952.05, 0.0, 9.999949, 10.000699 
1.8552335e+3, 2.4317203e+2, -571863.9, -724584.25, -6733.0483, -0.006890602, 0.057896115, -571567.6, -14646.937, 0.0, 10.000476, 9.998446 
1.8552701e+3, 2.5317153e+2, -423536.75, -620031.94, -49730.004, -0.024742553, 0.14496931, -411667.75, 47260.688, 0.0, 10.000913, 9.998269 
1.8553077e+3, 2.631703e+2, -281022.94, -589546.25, -2726.8267, -0.034757912, 0.24351762, -280998.84, 79943.97, 0.00000008466028, 10.001579, 9.997509 
1.8553475e+3, 2.7316746e+2, 41378.367, -368511.88, 52838.723, -0.019831711, 0.15991086, 48080.2, 311051.1, 0.000011476472, 10.003072, 9.997622 
1.8553853e+3, 2.8316426e+2, 140361.78, -415938.78, -81521.46, -0.076619394, 0.15441571, 152062.03, 317063.75, 0.00012753624, 10.003671, 9.99636 
1.8554199e+3, 2.9316056e+2, 154595.52, -313495.53, -133513.95, -0.25249773, 0.08414137, 189999.95, 257036.08, 0.0005324824, 10.0029335, 9.996719 
1.8554592e+3, 3.031555e+2, 132389.13, -378303.2, 34234.387, -0.22250545, -0.044848848, 134673.81, 134673.81, 0.0013398622, 10.002783, 9.99603 
1.8555054e+3, 3.1315333e+2, 389925.4, -49009.22, -21525.238, 0.055793907, 0.06711003, 390978.47, 390978.47, 0.0024846054, 10.003641, 9.997853 
1.8647783e+3, 1.2312943e+2, -2427884.3, -1932653.0, 46414.637, 0.07169135, -0.06049818, -1928340.4, -195003.42, 0.1378835, 9.994482, 10.001116 
1.8648128e+3, 1.3313514e+2, -1861990.3, -1515212.6, -100042.77, -0.11601829, 0.2615968, -1488420.9, 146859.88, 0.09301642, 9.997323, 10.002025 
1.8648534e+3, 1.4313252e+2, -1774928.1, -1594441.6, -11028.048, 0.27543148, -0.12185129, -1593770.3, -56463.547, 0.050644647, 9.997986, 10.000425 
1.8648921e+3, 1.531359e+2, -1695859.6, -1481806.0, 13441.173, 0.15201667, 0.119227685, -1480965.3, -41688.484, 0.01991141, 9.997785, 10.000606 
1.8649296e+3, 1.6313764e+2, -1635018.9, -1475408.0, -60114.48, 0.026260544, 0.28296247, -1455300.1, -114039.664, 0.0045744055, 9.997815, 9.99997 
1.8649672e+3, 1.7313573e+2, -1384446.9, -1268852.6, -99283.83, 0.031200068, 0.034783494, -1211768.1, 31507.799, 0.0003360051, 9.998758, 10.000232 
1.8650055e+3, 1.8313438e+2, -1265790.1, -1256141.1, -32050.604, 0.066539995, -0.071078435, -1228553.9, -83266.984, 0.00000050835786, 9.9992695, 9.999432 
1.865045e+3, 1.931346e+2, -1144380.1, -1124373.6, -28744.459, 0.09518399, -0.03837741, -1103941.5, -56656.21, 0.0, 9.999365, 9.999599 
1.8650833e+3, 2.0313492e+2, -1098822.0, -1152889.4, -81133.61, 0.10108708, 0.08596051, -1040336.8, -91051.98, 0.0, 9.999407, 9.998731 
1.8651192e+3, 2.1313514e+2, -965008.06, -1019152.1, -79682.2, 0.039991464, 0.19129992, -907924.56, -56635.547, 0.0, 9.999604, 9.998863 
1.8651563e+3, 2.2313498e+2, -758147.2, -757314.9, 25012.188, 0.0077406433, 0.26573938, -732715.4, 20577.865, 0.0, 9.999849, 9.999891 
1.8651955e+3, 2.331341e+2, -549416.0, -541571.25, -46767.316, 0.0010944938, 0.113122344, -498562.13, 156734.84, 0.0, 10.000365, 10.000429 
1.8652341e+3, 2.4313316e+2, -511634.22, -733224.06, -127360.57, -0.0038097003, 0.08946619, -453620.88, 103683.03, 0.0, 10.001039, 9.998127 
1.8652713e+3, 2.53132e+2, -289588.84, -592531.44, -135564.92, -0.028888749, 0.14100231, -237783.48, 221534.88, 0.0, 10.001992, 9.997943 
1.8653096e+3, 2.6313028e+2, -147469.86, -512105.72, -25981.143, -0.020597164, 0.21012895, -145627.95, 215708.7, 0.000000065173005, 10.0024395, 9.997629 
1.8653502e+3, 2.7312782e+2, -109853.14, -423395.72, -37071.56, 0.029397056, 0.15418196, -105529.625, 157830.81, 0.000009433609, 10.001953, 9.997789 
1.8653889e+3, 2.831252e+2, -85543.39, -524716.1, -108683.24, 0.012447498, 0.19106868, -60119.11, 105266.64, 0.00011541344, 10.00213, 9.996338 
1.8654238e+3, 2.9312155e+2, 262618.47, -273734.3, -121182.32, -0.18790609, 0.14420485, 288727.2, 356146.16, 0.0004967766, 10.00373, 9.9966 
1.8654625e+3, 3.0311567e+2, 377467.78, -254627.66, 151075.36, -0.22596954, -0.066215344, 411719.84, 411719.84, 0.0012631787, 10.004432, 9.996079 
1.8655093e+3, 3.131138e+2, 381967.47, -27324.072, 12039.599, 0.12159532, 0.06965774, 382321.3, 382321.3, 0.0023412898, 10.003431, 9.998105 
1.8747732e+3, 1.2309151e+2, -2339397.3, -1754087.8, 156584.33, 0.04422367, -0.057262648, -1714830.6, 18875.074, 0.14588223, 9.994518, 10.002337 
1.8748108e+3, 1.330958e+2, -1901731.4, -1606815.0, -36081.074, -0.09843182, 0.19425243, -1602464.9, 33200.3, 0.0986057, 9.997398, 10.001293 
1.8748501e+3, 1.4309432e+2, -1761162.4, -1603952.6, -30146.666, 0.09041052, -0.031908546, -1598370.0, -60689.613, 0.053927336, 9.998138, 10.00029 
1.8748896e+3, 1.5309554e+2, -1702830.1, -1508722.4, 20488.693, 0.09472541, 0.016720321, -1506583.4, -66913.93, 0.021407956, 9.997825, 10.000408 
1.8749285e+3, 1.630963e+2, -1638901.5, -1503515.3, -48241.855, 0.07001537, 0.09847351, -1488084.3, -146420.72, 0.0050250688, 9.997905, 9.999737 
1.874967e+3, 1.7309639e+2, -1406316.3, -1314302.5, -49417.414, 0.10365285, 0.086319745, -1292791.1, -49126.914, 0.00038988978, 9.998747, 9.999937 
1.8750055e+3, 1.8309633e+2, -1258427.9, -1235355.8, -44963.164, 0.09542114, 0.11997035, -1200472.4, -54806.402, 0.000000733184, 9.999249, 9.999584 
1.875044e+3, 1.9309613e+2, -1149126.5, -1105116.6, -13049.955, 0.023308707, 0.09311035, -1101538.0, -53869.684, 0.0, 9.999244, 9.999791 
1.8750818e+3, 2.0309584e+2, -1061503.4, -1041682.2, -94441.664, -0.023414776, 0.11198976, -956632.5, -6960.9316, 0.0, 9.999253, 9.999573 
1.8751188e+3, 2.1309535e+2, -930340.56, -895431.44, -59935.04, 0.0130794365, 0.051536128, -850461.06, 1215.2351, 0.0, 9.99938, 9.999822 
1.8751563e+3, 2.2309478e+2, -902983.2, -987987.6, 23160.977, -0.00059935916, 0.084912784, -897082.25, -143399.25, 0.0, 9.9995365, 9.998463 
1.8751952e+3, 2.330941e+2, -722513.5, -840820.25, -9999.691, -0.08855206, 0.13664043, -721674.25, -65981.766, 0.0, 10.000105, 9.998497 
1.8752342e+3, 2.4309298e+2, -553529.56, -741407.44, -109197.25, -0.1228137, 0.20549868, -503424.88, 54279.777, 0.0, 10.000694, 9.998242 
1.8752734e+3, 2.5309065e+2, -291128.84, -525285.3, -78808.31, -0.040737577, 0.08844912, -267075.72, 192649.14, 0.0, 10.001694, 9.9985485 
1.8753125e+3, 2.6308817e+2, -199510.63, -550173.7, -51007.36, -0.013159829, 0.04477607, -192241.78, 169506.3, 0.00000004605578, 10.002123, 9.997529 
1.8753514e+3, 2.7308613e+2, -164485.81, -474594.8, -31239.623, -0.083326705, 0.050884023, -161370.11, 102399.914, 0.000008319171, 10.001677, 9.997578 
1.8753904e+3, 2.830848e+2, -79126.164, -427860.66, -77747.21, -0.100877024, 0.20014636, -62578.34, 103204.8, 0.00010877433, 10.001768, 9.997181 
1.8754297e+3, 2.9308334e+2, 263852.5, -164658.38, -28715.146, 0.009261148, 0.2675062, 265768.2, 333562.5, 0.00047285456, 10.003282, 9.997565 
1.8754682e+3, 3.030778e+2, 338598.75, -201292.27, 100614.72, -0.13558896, 0.010222902, 356739.88, 356739.88, 0.0011966277, 10.003873, 9.996709 
1.8755108e+3, 3.1307524e+2, 273492.6, -26324.97, 30813.74, -0.12793435, 0.017750742, 276626.7, 276626.7, 0.002193649, 10.00251, 9.998538 
1.8847689e+3, 1.2305199e+2, -2260121.8, -1707700.3, 62652.703, 0.17491876, 0.016308654, -1700683.6, 33409.723, 0.15411249, 9.994923, 10.002515 
1.8848073e+3, 1.3305439e+2, -2107361.5, -1687809.5, -89462.65, -0.08462096, 0.06587734, -1669529.5, -33458.332, 0.10442951, 9.995878, 10.001461 
1.884848e+3, 1.4305553e+2, -1794139.0, -1589242.4, -50253.42, 0.104150854, 0.07217988, -1577580.9, -39520.195, 0.057399224, 9.997819, 10.00052 
1.884888e+3, 1.5305562e+2, -1658262.4, -1460871.6, -31170.615, 0.15187739, -0.011100241, -1456066.4, -16006.247, 0.023018045, 9.998075, 10.000581 
1.884927e+3, 1.6305591e+2, -1618175.1, -1498139.5, -20490.78, 0.15123567, 0.016065517, -1494738.0, -152679.39, 0.005521801, 9.998063, 9.999696 
1.8849657e+3, 1.730569e+2, -1445149.8, -1340914.3, -30094.158, 0.1235452, 0.09961912, -1332849.6, -88797.3, 0.0004532519, 9.99851, 9.999868 
1.8850043e+3, 1.830575e+2, -1356587.6, -1269437.1, -5872.938, 0.10420224, 0.19679628, -1269043.1, -122994.28, 0.0000010252129, 9.998514, 9.999698 
1.8850428e+3, 1.9305724e+2, -1297036.4, -1152672.6, -5633.5967, 0.06464353, 0.14199506, -1152453.1, -104401.34, 0.0, 9.998122, 9.999994 
1.8850811e+3, 2.0305693e+2, -1178267.3, -1075087.8, -38868.883, 0.040473353, 0.13665995, -1062084.1, -112029.766, 0.0, 9.998356, 9.999777 
1.8851185e+3, 2.1305633e+2, -796072.1, -810064.9, -87171.8, 0.027319416, 0.046948574, -715616.4, 136442.16, 0.0, 10.000205, 10.000015 
1.8851566e+3, 2.2305548e+2, -692491.7, -942936.4, -9687.643, 0.01157388, 0.065555215, -692117.5, 61949.46, 0.0, 10.001253, 9.997924 
1.885196e+3, 2.3305428e+2, -663321.6, -895816.06, 3453.8562, -0.047453497, 0.13914886, -663270.3, -7186.797, 0.0, 10.000887, 9.997734 
1.8852355e+3, 2.430528e+2, -530836.7, -747133.94, 7864.537, -0.054746214, 0.22226472, -530551.06, 27549.316, 0.0, 10.000935, 9.998077 
1.8852754e+3, 2.5305045e+2, -262425.6, -523406.3, -45417.117, -0.0012285894, 0.11236591, -254747.75, 205372.94, 0.0, 10.001943, 9.99844 
1.8853149e+3, 2.6304787e+2, -140067.8, -511674.1, -51214.117, 0.020257019, 0.065980025, -133138.75, 229005.61, 0.000000017635879, 10.002518, 9.997583 
1.8853533e+3, 2.7304572e+2, -59129.063, -399446.72, -57682.36, -0.06684954, 0.04501147, -49617.97, 214549.25, 0.000007223604, 10.002339, 9.997743 
1.8853927e+3, 2.830445e+2, 24122.035, -351753.1, -16114.464, -0.048438832, 0.18484923, 24811.627, 190990.92, 0.00010058898, 10.002381, 9.997404 
1.8854344e+3, 2.9304355e+2, 257538.92, -149947.06, -60221.465, 0.16451663, 0.28262737, 266252.6, 334439.03, 0.00044370364, 10.00315, 9.997734 
1.8854722e+3, 3.03039e+2, 321642.22, -131277.14, 15270.035, -0.0651703, 0.08403656, 322156.47, 322156.47, 0.0011208182, 10.003363, 9.997473 
1.8855135e+3, 3.1303647e+2, 188771.92, -48791.324, -142331.73, -0.042589862, 0.017115055, 255374.75, 255374.75, 0.0020397787, 10.001799, 9.998756 
1.8947649e+3, 1.23010494e+2, -2306940.8, -1892971.6, -64397.28, 0.17897971, 0.14148937, -1883185.4, -148681.44, 0.16258536, 9.995274, 10.001066 
1.8948016e+3, 1.3301116e+2, -2006083.4, -1499595.9, 20947.56, -0.2947167, -0.08381967, -1498731.0, 137766.1, 0.110513955, 9.995879, 10.002886 
1.8948467e+3, 1.4301601e+2, -1728416.6, -1470794.1, -34689.227, 0.13316277, 0.17085029, -1466204.9, 72243.984, 0.06108175, 9.997886, 10.0013275 
1.8948868e+3, 1.53016e+2, -1627599.3, -1402433.5, -11325.681, 0.18666969, 0.035153203, -1401865.3, 38584.434, 0.024752133, 9.998091, 10.000983 
1.894925e+3, 1.630164e+2, -1576055.4, -1448348.8, -27862.494, 0.07521705, 0.037878755, -1442534.5, -100087.51, 0.0060684755, 9.998217, 9.999965 
1.8949628e+3, 1.7301713e+2, -1427255.5, -1309242.1, -3001.5083, -0.05120352, 0.07128609, -1309165.9, -64724.19, 0.0005270964, 9.998528, 10.000081 
1.8950015e+3, 1.8301769e+2, -1333011.3, -1226783.1, -34066.207, -0.076087475, 0.14013568, -1216797.3, -70359.73, 0.0000013718216, 9.998551, 9.999966 
1.8950413e+3, 1.9301812e+2, -1294345.4, -1122848.1, -12204.808, 0.06585168, 0.12676203, -1121983.9, -73550.31, 0.0, 9.998025, 10.000241 
1.8950804e+3, 2.0301832e+2, -1233305.9, -1155685.9, -1206.7385, 0.10265324, 0.17824985, -1155667.1, -205235.25, 0.0, 9.9981985, 9.999309 
1.8951182e+3, 2.1301802e+2, -870687.25, -914972.4, 468.45135, -0.046379473, 0.17734711, -870682.25, -18246.752, 0.0, 9.999982, 9.999408 
1.8951568e+3, 2.2301699e+2, -728041.1, -937269.9, -27741.81, -0.120615736, 0.20439392, -724425.25, 30020.998, 0.0, 10.000912, 9.998126 
1.895197e+3, 2.3301472e+2, -673234.1, -856718.5, 6696.3853, -0.034739796, 0.13063835, -672990.06, -16520.521, 0.0, 10.000631, 9.998122 
1.8952373e+3, 2.4301271e+2, -618273.7, -861141.56, 17593.102, 0.0042136563, 0.16397354, -617005.9, -58515.47, 0.0, 10.000628, 9.99745 
1.895277e+3, 2.530112e+2, -365445.06, -667912.56, 9803.045, -0.04343937, 0.21643801, -365127.66, 95379.664, 0.0, 10.00164, 9.997595 
1.8953168e+3, 2.6300907e+2, -184252.0, -517715.13, -67211.97, -0.080305286, 0.2604039, -171214.66, 191314.52, 0.0000000071100716, 10.002146, 9.997722 
1.8953556e+3, 2.7300617e+2, -79505.56, -360041.94, -45341.83, -0.09028194, 0.1261424, -72359.21, 192197.06, 0.0000064443307, 10.001995, 9.998176 
1.8953954e+3, 2.83004e+2, -54227.58, -427924.47, -18538.75, -0.049178742, 0.15484926, -53310.14, 113266.625, 0.0000894982, 10.001999, 9.997067 
1.8954371e+3, 2.930021e+2, 143937.2, -282217.56, 3905.0183, 0.1057622, 0.20561442, 143972.98, 212568.66, 0.00040238924, 10.002696, 9.997048 
1.895474e+3, 3.0299935e+2, 296756.97, -51924.703, -38513.563, -0.2613138, 0.19445667, 300960.28, 300960.28, 0.0010279405, 10.002831, 9.998255 
1.8955164e+3, 3.1299752e+2, 36674.527, -154383.61, -79009.56, -0.00022388884, 0.08744239, 65114.465, 65114.465, 0.0018812018, 10.000975, 9.998394 
1.9047615e+3, 1.2296912e+2, -2076100.5, -1863392.9, -1224.2168, 0.23080978, 0.1755393, -1863385.9, -128473.13, 0.1713416, 9.997306, 10.000237 
1.9047968e+3, 1.3297018e+2, -1829818.0, -1305502.3, 111625.45, -0.3498172, -0.13265613, -1282726.9, 354172.66, 0.11689223, 9.996589, 10.004027 
1.9048445e+3, 1.429759e+2, -2003178.3, -1614846.9, 53503.867, 0.23443337, 0.15736146, -1607610.0, -68768.734, 0.06499328, 9.996021, 10.001237 
1.9048846e+3, 1.5297626e+2, -1694205.6, -1445348.8, 720.1811, 0.20733891, 0.06491771, -1445346.6, -4505.959, 0.026617203, 9.997628, 10.000937 
1.904923e+3, 1.6297716e+2, -1527771.3, -1403542.6, -23716.018, 0.07246685, 0.11436037, -1399169.0, -56335.023, 0.0066676727, 9.998468, 10.0001545 
1.9049612e+3, 1.7297755e+2, -1418403.8, -1270240.9, -33740.27, -0.040584255, 0.089409314, -1262919.3, -18089.174, 0.0006122247, 9.99846, 10.000372 
1.905e+3, 1.8297768e+2, -1349123.1, -1234079.5, -46394.547, -0.03925508, 0.09885179, -1217701.3, -70872.875, 0.0000017786746, 9.998453, 9.9999695 
1.90504e+3, 1.9297785e+2, -1140747.0, -1058053.8, -83435.82, 0.10353734, 0.07216146, -1006281.75, 42544.137, 0.0, 9.999128, 10.000167 
1.9050796e+3, 2.0297787e+2, -1058627.9, -1117496.5, -23978.918, 0.15251008, 0.12911603, -1050096.8, -99270.43, 0.0, 9.999638, 9.998848 
1.9051182e+3, 2.129774e+2, -875985.6, -980368.44, -50328.24, -0.023858419, 0.17077407, -855672.7, -2838.3008, 0.0, 10.00025, 9.998808 
1.9051577e+3, 2.2297634e+2, -730709.6, -934091.44, -81588.06, -0.10168616, 0.22916028, -702025.5, 52821.605, 0.0, 10.000845, 9.998195 
1.9051984e+3, 2.3297423e+2, -527012.06, -766199.25, -96162.234, 0.0028261452, 0.15046263, -493146.22, 163721.02, 0.0, 10.001513, 9.998336 
1.905239e+3, 2.4297227e+2, -471822.34, -788603.6, -40846.527, 0.06430467, 0.17576425, -466640.25, 92246.53, 0.0, 10.001656, 9.997438 
1.9052787e+3, 2.529704e+2, -462534.88, -718435.4, -32501.51, -0.0068336804, 0.1999197, -458471.44, 2436.7385, 0.0, 10.001009, 9.99754 
1.9053183e+3, 2.6296836e+2, -356226.1, -572789.3, -28211.453, -0.051060807, 0.24559593, -352611.34, 10317.948, 0.000000016068412, 10.000822, 9.997989 
1.9053575e+3, 2.7296647e+2, -90122.55, -339707.63, -51845.03, -0.06006581, 0.18271282, -79781.51, 185164.5, 0.000006020835, 10.001753, 9.998458 
1.9053979e+3, 2.8296438e+2, 16394.482, -364468.3, 25058.406, 0.010659147, 0.1924442, 18036.094, 185001.34, 0.00007835106, 10.002339, 9.997349 
1.9054402e+3, 2.9296136e+2, 112802.18, -259809.89, 46957.1, 0.18811409, 0.104224406, 118628.67, 187624.28, 0.00035568743, 10.002327, 9.997374 
1.9054772e+3, 3.029599e+2, 287524.25, -29353.75, 55019.934, -0.19019596, 0.1901081, 296805.6, 296805.6, 0.0009266064, 10.002663, 9.998496 
1.9055201e+3, 3.1295857e+2, 403732.7, -28138.137, -115244.43, 0.18301393, 0.12673259, 432561.22, 432561.22, 0.0017278214, 10.003641, 9.99802 
1.9147587e+3, 1.22928105e+2, -2125432.8, -1996451.8, -138428.55, 0.12083452, 0.10643075, -1908228.5, -172910.84, 0.18042894, 9.997456, 9.999242 
1.914794e+3, 1.3293098e+2, -1780275.9, -1224607.1, 78589.02, -0.32477453, -0.120393135, -1213706.0, 423576.7, 0.12358676, 9.996626, 10.004653 
1.9148406e+3, 1.4293493e+2, -2037929.0, -1730658.1, 66548.15, 0.17492673, 0.028406695, -1716864.4, -177624.36, 0.069141634, 9.996202, 10.000358 
1.9148809e+3, 1.5293635e+2, -1719909.6, -1502829.6, 73467.836, 0.042061776, 0.08536432, -1480303.0, -39069.758, 0.028615344, 9.997645, 10.000534 
1.914921e+3, 1.629383e+2, -1500161.6, -1376804.6, -34025.563, -0.040468767, 0.2548342, -1368041.8, -24823.21, 0.0073205116, 9.998596, 10.000274 
1.9149604e+3, 1.7293829e+2, -1404662.1, -1238202.3, -25713.508, 0.008941906, 0.16659333, -1234320.8, 10895.587, 0.00070924795, 9.998445, 10.000595 
1.9149998e+3, 1.8293759e+2, -1367164.8, -1281275.4, -49351.07, 0.036173478, 0.09493032, -1258800.1, -111579.66, 0.0000023137907, 9.998486, 9.999636 
1.9150388e+3, 1.9293651e+2, -1186235.3, -1128094.6, -45835.805, 0.04694673, -0.013542242, -1102887.9, -53659.895, 0.0, 9.999019, 9.9997425 
1.9150783e+3, 2.0293547e+2, -1126109.8, -1221755.1, -18749.645, 0.017983008, -0.010578433, -1122565.6, -171327.3, 0.0, 9.999474, 9.998214 
1.9151185e+3, 2.1293446e+2, -954359.06, -1093103.3, -14576.931, -0.05354642, 0.039593283, -952844.06, -99588.7, 0.0, 10.000025, 9.998143 
1.9151588e+3, 2.2293356e+2, -782883.8, -961088.1, -70097.375, -0.10167308, 0.1523688, -758615.6, -3346.3635, 0.0, 10.000492, 9.998181 
1.9151993e+3, 2.3293297e+2, -562011.25, -763850.6, -53593.176, -0.063845195, 0.21537334, -548663.7, 108611.195, 0.0, 10.001203, 9.998498 
1.9152397e+3, 2.4293146e+2, -490022.34, -745484.6, -70941.24, -0.04344368, 0.25939354, -471644.28, 87645.234, 0.0, 10.001303, 9.997907 
1.9152795e+3, 2.529281e+2, -459534.3, -649247.5, -37516.805, -0.053339645, 0.07810788, -452384.6, 8937.917, 0.0, 10.00074, 9.998142 
1.9153191e+3, 2.6292604e+2, -383037.97, -555125.3, -23155.32, -0.086203046, 0.072728135, -379976.75, -16634.36, 0.000000038925435, 10.0005, 9.998272 
1.9153588e+3, 2.7292666e+2, -121758.34, -332556.84, 4489.6465, -0.13825612, 0.23572049, -121662.766, 143673.16, 0.0000054500297, 10.001448, 9.998652 
1.9153997e+3, 2.8292555e+2, 9500.725, -292465.63, 10115.4795, -0.07072263, 0.30409625, 9839.201, 177185.36, 0.00006657065, 10.001969, 9.998023 
1.9154431e+3, 2.929211e+2, 99815.8, -176665.2, 70244.33, 0.20556174, -0.008373969, 116638.836, 186027.83, 0.00030471265, 10.0018635, 9.998168 
1.915481e+3, 3.029206e+2, 184533.11, -127649.82, 52299.414, -0.108274825, 0.14950171, 193061.73, 193061.73, 0.00081498816, 10.002168, 9.99805 
1.9155219e+3, 3.1292108e+2, 253739.31, -117050.695, 28725.092, -0.066159144, 0.31140685, 255951.44, 255951.44, 0.0015623597, 10.00275, 9.997802 
1.9247577e+3, 1.2289204e+2, -2199635.8, -1965044.5, 27034.924, 0.3399311, 0.31458476, -1961969.3, -226297.7, 0.18987963, 9.996629, 9.999876 
1.9247931e+3, 1.3289264e+2, -1688490.4, -1324370.8, 71553.08, -0.12915538, -0.05455037, -1310814.6, 326844.5, 0.13060497, 9.997896, 10.003294 
1.9248372e+3, 1.4289467e+2, -1854653.1, -1721753.8, 58701.785, 0.17934614, 0.027746024, -1699538.6, -159902.97, 0.07352615, 9.99784, 9.999606 
1.9248782e+3, 1.5289587e+2, -1689653.5, -1508595.1, 51145.4, 0.010767335, 0.08886232, -1495146.5, -53515.95, 0.030745408, 9.997977, 10.000314 
1.9249189e+3, 1.6289724e+2, -1598137.1, -1449710.4, -48706.406, -0.044559233, 0.22587729, -1435154.8, -91533.32, 0.008026891, 9.998042, 10.000033 
1.9249593e+3, 1.7289735e+2, -1399167.8, -1260178.9, -111779.766, 0.058482364, 0.17010173, -1198052.0, 47566.727, 0.0008187495, 9.998588, 10.000379 
1.9249992e+3, 1.8289681e+2, -1299283.9, -1272793.1, -96004.17, 0.13094908, 0.13332729, -1189125.0, -41503.047, 0.0000031359323, 9.999023, 9.999439 
1.9250384e+3, 1.9289546e+2, -1060117.1, -1082968.8, -96585.92, 0.07751858, 0.011140926, -974283.56, 75348.09, 0.0, 9.999917, 9.999617 
1.9250782e+3, 2.028943e+2, -1005548.44, -1166224.0, -27315.998, 0.03468679, 0.0041484917, -1001031.5, -49388.563, 0.0, 10.000306, 9.9981985 
1.9251189e+3, 2.1289334e+2, -949271.06, -1088616.0, -7899.1943, -0.001238016, 0.060781218, -948824.7, -95165.625, 0.0, 10.000054, 9.998161 
1.9251597e+3, 2.2289251e+2, -841655.94, -964959.94, 21233.768, -0.020485595, 0.17052472, -838101.8, -82430.01, 0.0, 10.000011, 9.998377 
1.9252004e+3, 2.3289175e+2, -622887.8, -765019.4, 11346.313, -0.04064351, 0.19662833, -621987.75, 35690.543, 0.0, 10.000676, 9.99874 
1.9252409e+3, 2.4289034e+2, -485088.97, -703191.44, -1076.8529, -0.02701601, 0.21899703, -485083.66, 74607.6, 0.0, 10.001141, 9.998279 
1.9252808e+3, 2.528878e+2, -348689.22, -562001.0, -22023.514, 0.008901271, 0.081115544, -346439.13, 115276.77, 0.0, 10.001319, 9.99848 
1.9253209e+3, 2.628861e+2, -236340.55, -469986.78, 37966.24, 0.01890293, 0.08771912, -230326.06, 133405.48, 0.000000047147957, 10.001461, 9.998388 
1.9253609e+3, 2.72886e+2, -86693.336, -311896.88, 17805.838, -0.06496697, 0.17945908, -85294.195, 180437.39, 0.0000044268, 10.001679, 9.998684 
1.925402e+3, 2.828848e+2, -19907.357, -301832.44, 18601.799, -0.025406409, 0.23284999, -18685.283, 149058.05, 0.000054025306, 10.001766, 9.998042 
1.9254448e+3, 2.9288155e+2, 110759.72, -182361.3, -29355.688, 0.20465763, 0.050543696, 113670.74, 183446.78, 0.00025237876, 10.001966, 9.998079 
1.925484e+3, 3.0288026e+2, 230735.56, -130641.58, 19351.926, -0.019939387, 0.14050455, 231768.92, 231768.92, 0.00069601834, 10.002578, 9.997838 
1.9255264e+3, 3.1288126e+2, 457858.53, 19100.275, -38348.707, 0.084555484, 0.3859339, 461185.1, 461185.1, 0.0013738653, 10.003894, 9.998231 
1.9347538e+3, 1.2285552e+2, -1994522.8, -1611191.4, -85075.45, 0.1980784, 0.23656473, -1593158.3, 142868.89, 0.1997211, 9.996787, 10.002469 
1.9347921e+3, 1.3285545e+2, -1930506.6, -1777779.6, 107809.125, -0.039973818, 0.07999, -1722028.9, -84002.9, 0.13795441, 9.997885, 9.99986 
1.9348346e+3, 1.428554e+2, -1868962.4, -1807246.1, 41121.723, 0.055485297, 0.18174334, -1786692.0, -246666.63, 0.07814733, 9.998066, 9.998918 
1.9348763e+3, 1.5285484e+2, -1688063.8, -1528071.3, 65143.09, -0.016154071, 0.08586785, -1504902.5, -62870.066, 0.033007, 9.998055, 10.000152 
1.9349167e+3, 1.6285388e+2, -1618472.4, -1518598.1, -51261.1, -0.13886262, 0.023012731, -1496971.3, -152927.52, 0.008786739, 9.99815, 9.999514 
1.9349572e+3, 1.7285462e+2, -1439129.1, -1348170.8, -80372.695, -0.031751677, 0.09004672, -1301302.0, -55263.39, 0.00094156526, 9.998602, 9.999773 
1.9349979e+3, 1.828552e+2, -1288101.4, -1259335.3, -84002.56, 0.05725215, 0.2008169, -1188493.3, -40459.453, 0.0000044945964, 9.999062, 9.999515 
1.9350383e+3, 1.9285487e+2, -1063122.0, -1066914.0, -49484.12, 0.052615955, 0.15941982, -1015497.56, 34537.95, 0.0, 9.999811, 9.999785 
1.9350787e+3, 2.0285441e+2, -988765.5, -1092068.1, -46984.176, 0.018766632, 0.19049168, -970592.94, -18553.4, 0.0, 10.000133, 9.998794 
1.935119e+3, 2.1285397e+2, -938416.75, -1009398.7, -4618.2734, -0.00815441, 0.23264505, -938117.56, -84071.55, 0.0, 9.999812, 9.998821 
1.9351597e+3, 2.2285289e+2, -871782.44, -943306.2, 22362.898, -0.04170531, 0.26662716, -865366.0, -109308.586, 0.0, 9.999654, 9.998695 
1.9352008e+3, 2.3285048e+2, -645589.8, -746768.8, 52599.742, -0.07972393, 0.09898135, -623199.6, 34879.074, 0.0, 10.000398, 9.998997 
1.9352418e+3, 2.428489e+2, -520884.22, -696515.8, -10479.784, -0.08013245, 0.080008216, -520261.1, 39831.688, 0.0, 10.000787, 9.998501 
1.9352826e+3, 2.5284913e+2, -372535.44, -550240.3, -2165.3745, 0.034147277, 0.19999339, -372509.06, 89582.305, 0.0, 10.001058, 9.998689 
1.9353232e+3, 2.628481e+2, -301261.5, -517764.75, 22774.79, 0.08498733, 0.26786247, -298891.7, 65209.375, 0.00000001782158, 10.001101, 9.998228 
1.9353633e+3, 2.7284458e+2, -153647.58, -362347.38, 40525.98, -0.0053666723, 0.032868695, -146054.38, 120079.164, 0.0000033385966, 10.001327, 9.998492 
1.9354036e+3, 2.828425e+2, -118407.66, -429974.22, -6524.767, -0.06096324, 0.040200982, -118271.08, 49882.94, 0.00004416703, 10.001426, 9.997334 
1.9354448e+3, 2.9284275e+2, 13741.119, -307504.53, -2502.1182, -0.009902185, 0.2811364, 13760.606, 83917.945, 0.00021030588, 10.00165, 9.997369 
1.9354858e+3, 3.0283913e+2, 148666.08, -203710.84, 31598.797, -0.14566348, 0.19828914, 151477.22, 151477.22, 0.00059174973, 10.002162, 9.997536 
1.935531e+3, 3.1283763e+2, 373576.78, 84388.336, 90252.08, 0.106421374, 0.19386972, 399431.75, 399431.75, 0.0011892852, 10.002932, 9.999109 
1.9447479e+3, 1.2281311e+2, -2064576.4, -1596526.4, -197946.42, -0.013467663, -0.001407531, -1524037.9, 212403.13, 0.20999403, 9.996073, 10.003026 
1.9447917e+3, 1.3281544e+2, -1955464.6, -1920241.6, -72136.414, 0.13693793, 0.19748025, -1863598.0, -225178.23, 0.14565058, 9.998245, 9.998729 
1.9448327e+3, 1.428139e+2, -1642470.5, -1691560.0, -1742.647, 0.0073926016, 0.20399731, -1642408.8, -101973.16, 0.083007626, 9.9995575, 9.999017 
1.9448748e+3, 1.5281355e+2, -1559005.3, -1452172.1, -14200.542, 0.03031247, 0.115748994, -1450316.9, -7879.4155, 0.03539992, 9.998865, 10.000295 
1.9449154e+3, 1.6281222e+2, -1626979.5, -1529253.8, -35761.86, -0.04679819, 0.00927623, -1517565.1, -173115.16, 0.009600047, 9.9981165, 9.999463 
1.9449563e+3, 1.7281252e+2, -1406322.8, -1342481.8, -49148.5, 0.0106114, 0.04206617, -1315797.8, -69348.4, 0.0010784023, 9.998873, 9.999682 
1.9449973e+3, 1.8281314e+2, -1252803.9, -1247228.4, -11233.781, 0.08616822, 0.16187243, -1238441.6, -89996.766, 0.0000066792873, 9.999352, 9.999453 
1.9450377e+3, 1.9281335e+2, -1095242.3, -1084788.9, -30065.752, 0.033362586, 0.18408816, -1059498.9, -9056.271, 0.0, 9.999647, 9.999729 
1.9450784e+3, 2.0281313e+2, -1004982.8, -1085328.0, -30933.69, 0.010674107, 0.23920284, -994453.06, -42008.633, 0.0, 9.9999695, 9.998921 
1.94512e+3, 2.1281208e+2, -782081.0, -912749.0, -58340.793, 0.074536644, 0.20736426, -759824.0, 94630.09, 0.0, 10.000799, 9.999012 
1.945161e+3, 2.2281067e+2, -645101.94, -823987.1, -32518.848, 0.08827327, 0.19310929, -639373.9, 117093.26, 0.0, 10.001144, 9.998798 
1.9452012e+3, 2.3280856e+2, -610078.4, -725703.6, -45269.73, -0.064498544, 0.049932964, -594463.1, 64023.418, 0.0, 10.000598, 9.999059 
1.945242e+3, 2.4280733e+2, -564044.0, -696309.44, -64761.97, -0.10239707, 0.05500674, -537615.1, 22882.898, 0.0, 10.000422, 9.998678 
1.9452843e+3, 2.5280774e+2, -306570.1, -500410.22, -92462.59, 0.09136336, 0.1783618, -269539.3, 192955.36, 0.0, 10.001446, 9.998841 
1.9453259e+3, 2.628065e+2, -156756.97, -469945.03, -56088.688, 0.19925885, 0.22797239, -147015.1, 217491.13, 0.000000002142629, 10.002159, 9.998057 
1.9453654e+3, 2.728026e+2, -58334.32, -354323.88, -82077.72, 0.04624707, -0.015869595, -37097.875, 229445.58, 0.0000030022966, 10.002102, 9.998198 
1.9454055e+3, 2.8280047e+2, -19639.64, -421095.34, -64267.09, -0.03586638, 0.022762515, -9602.387, 158962.53, 0.00003904193, 10.00226, 9.997 
1.9454473e+3, 2.928013e+2, 211809.47, -248216.84, -77912.47, 0.024727672, 0.35901573, 224646.9, 295209.84, 0.00018459432, 10.003141, 9.997071 
1.9454896e+3, 3.0279619e+2, 341032.44, -134237.88, 11984.035, -0.01808648, 0.15116355, 341334.44, 341334.44, 0.0005147773, 10.003608, 9.997294 
1.9455342e+3, 3.127937e+2, 422357.5, 106829.164, -42714.316, 0.1481677, 0.09076033, 428037.66, 428037.66, 0.0010277403, 10.003219, 9.999139 
1.9547437e+3, 1.22767985e+2, -2125359.8, -1781993.0, 180113.33, -0.13274683, -0.056109924, -1704847.1, 32034.67, 0.22070916, 9.996391, 10.001343 
1.954792e+3, 1.3277261e+2, -1832137.0, -1707797.0, 10723.273, 0.298088, 0.30619913, -1706879.0, -68038.516, 0.15369554, 9.998408, 10.000118 
1.9548309e+3, 1.4277005e+2, -1544438.9, -1536992.4, -13542.876, -0.17959799, 0.0728935, -1526670.4, 14197.236, 0.08810495, 9.999773, 9.999976 
1.9548737e+3, 1.5277192e+2, -1522880.6, -1394612.6, -34073.684, -0.010080387, 0.1626996, -1386123.0, 56723.13, 0.037922986, 9.998926, 10.000679 
1.954915e+3, 1.6277234e+2, -1573302.5, -1455997.8, -44978.367, 0.034719855, 0.18674438, -1440737.0, -95897.42, 0.010466628, 9.998275, 9.999893 
1.9549558e+3, 1.727712e+2, -1373802.5, -1290566.4, -6941.943, 0.05518649, 0.03905945, -1289991.5, -43142.07, 0.0012294218, 9.998925, 10.000019 
1.9549966e+3, 1.8277058e+2, -1260052.3, -1274955.3, -12423.618, 0.03617418, 0.024100035, -1253016.8, -104161.94, 0.000009908067, 9.999412, 9.999229 
1.955036e+3, 1.9277087e+2, -1138415.0, -1151446.1, -9307.178, -0.121587865, 0.093199395, -1133569.4, -82715.96, 0.0, 9.999548, 9.999318 
1.9550768e+3, 2.0277023e+2, -1059813.9, -1153047.6, -23903.89, -0.16886605, 0.14628398, -1054042.5, -101182.34, 0.0, 9.999768, 9.998552 
1.9551212e+3, 2.1276768e+2, -843087.75, -976313.6, -13019.8125, 0.09647586, -0.0072552166, -841827.3, 13056.478, 0.0, 10.000536, 9.998696 
1.9551636e+3, 2.2276585e+2, -701930.2, -864065.56, -57487.363, 0.1823096, -0.039832253, -683615.94, 73285.05, 0.0, 10.000798, 9.998694 
1.9552013e+3, 2.3276597e+2, -653431.44, -750562.94, -52529.066, -0.13782983, 0.044336773, -630457.44, 28444.545, 0.0, 10.000327, 9.999014 
1.9552408e+3, 2.4276562e+2, -618954.75, -726010.0, -53357.535, -0.2865178, 0.14267285, -596903.06, -35996.383, 0.0, 10.00006, 9.998646 
1.9552852e+3, 2.5276372e+2, -347933.4, -516134.4, -34146.62, 0.03183257, 0.033087704, -341265.6, 121658.42, 0.0, 10.00115, 9.998867 
1.9553281e+3, 2.627618e+2, -227056.3, -531473.2, -68506.586, 0.18094714, 0.013632365, -212349.89, 152592.47, 0.00000003752054, 10.001788, 9.997817 
1.9553666e+3, 2.7276018e+2, -121069.06, -420507.34, -66481.016, -0.05933508, 0.03217594, -106972.62, 159987.06, 0.0000033251551, 10.00183, 9.997872 
1.9554068e+3, 2.8275892e+2, -95186.75, -480101.84, -59478.27, -0.15987289, 0.18247601, -86205.54, 82768.555, 0.000036409245, 10.001847, 9.99679 
1.9554515e+3, 2.9275784e+2, 144854.52, -274878.47, -14139.697, 0.09901758, 0.33435187, 145330.31, 216317.45, 0.00016708692, 10.002678, 9.997101 
1.9554946e+3, 3.02752e+2, 236453.89, -233201.36, -21473.13, 0.09096943, 0.06455196, 237433.63, 237433.63, 0.00045041234, 10.0030775, 9.996885 
1.9555368e+3, 3.1274918e+2, 283722.03, -7843.9688, -23769.004, 0.01608046, 0.014794635, 285647.0, 285647.0, 0.00087258307, 10.0025215, 9.998664 
1.964742e+3, 1.2272368e+2, -1844444.0, -1799263.0, 242525.34, -0.053490907, -0.053891003, -1578278.3, 159035.42, 0.23177752, 9.999172, 9.999952 
1.9647902e+3, 1.3272905e+2, -1800964.8, -1560504.9, 68638.23, 0.3334359, 0.30258262, -1542291.9, 96973.56, 0.1620495, 9.998087, 10.001352 
1.9648297e+3, 1.427267e+2, -1758841.4, -1608223.4, 12569.572, -0.18735257, 0.0018096387, -1607181.6, -65891.43, 0.093428105, 9.99819, 10.000217 
1.9648726e+3, 1.5272914e+2, -1519397.3, -1401445.6, -100473.305, 0.0090536345, 0.15002683, -1343918.1, 99346.49, 0.04057487, 9.999013, 10.0005665 
1.9649145e+3, 1.6272981e+2, -1413654.9, -1378442.9, -104815.82, 0.13937968, 0.20268676, -1289764.8, 55491.293, 0.011385711, 9.999377, 9.999891 
1.9649555e+3, 1.7272863e+2, -1322499.5, -1261098.5, -121134.12, 0.11604057, 0.05057794, -1166835.0, 80430.46, 0.0013940044, 9.99927, 10.000048 
1.964996e+3, 1.8272789e+2, -1292013.9, -1302988.3, -103493.08, 0.07027776, 0.025916794, -1193862.6, -44590.94, 0.000014255441, 9.999235, 9.999127 
1.965036e+3, 1.9272766e+2, -1081817.8, -1142068.5, -109812.15, -0.08225341, 0.056590855, -998073.7, 53201.676, 0.0, 10.000004, 9.9991665 
1.9650772e+3, 2.0272674e+2, -943141.7, -1080229.5, -70448.8, -0.121362574, 0.083902605, -913393.7, 39891.176, 0.0, 10.0004835, 9.998705 
1.9651213e+3, 2.127244e+2, -841228.3, -954382.2, -50238.957, 0.08540919, -0.06812583, -822142.2, 33163.617, 0.0, 10.000421, 9.998911 
1.965164e+3, 2.2272295e+2, -771129.25, -899555.0, -50485.684, 0.17913043, -0.07641455, -753659.25, 3660.5068, 0.0, 10.000343, 9.998671 
1.9652022e+3, 2.3272349e+2, -606913.06, -744599.0, -93631.48, -0.068316124, 0.065679476, -559539.9, 99778.58, 0.0, 10.00071, 9.998875 
1.9652423e+3, 2.4272314e+2, -477727.0, -659792.4, -49287.44, -0.16847543, 0.1731891, -465240.6, 96083.61, 0.0, 10.000998, 9.998672 
1.9652864e+3, 2.5272086e+2, -367341.2, -522427.2, -55742.434, 0.04889911, 0.024767812, -349384.78, 113959.58, 0.0, 10.000981, 9.998928 
1.9653292e+3, 2.6271895e+2, -315260.0, -574566.0, -47195.5, 0.15516931, 0.001990682, -306937.25, 58425.082, 0.00000006167767, 10.001207, 9.997792 
1.9653685e+3, 2.7271765e+2, -85273.86, -414534.63, -78648.91, -0.044108063, 0.06437259, -67452.016, 199924.33, 0.000003603985, 10.002141, 9.99775 
1.9654095e+3, 2.8271586e+2, 37840.78, -401331.6, -17921.238, -0.09223618, 0.16667812, 38570.875, 207965.92, 0.00003430298, 10.002699, 9.9969225 
1.9654545e+3, 2.927134e+2, 137441.77, -267884.88, -4596.8223, 0.16787432, 0.17764254, 137493.89, 208913.45, 0.00015136057, 10.002575, 9.997212 
1.9654979e+3, 3.0270875e+2, 163546.19, -307867.6, 26462.705, 0.15343474, 0.032903936, 165027.02, 165027.02, 0.00039140973, 10.002727, 9.996561 
1.9655392e+3, 3.127058e+2, 328369.78, -27144.521, -134659.72, 0.015285275, 0.032025978, 373616.78, 373616.78, 0.00072701665, 10.002957, 9.998358 
1.974741e+3, 1.2268062e+2, -1838666.5, -1907056.0, -225643.95, -0.16884679, 0.011946389, -1644641.0, 93091.76, 0.24301729, 9.999688, 9.9988785 
1.974786e+3, 1.3268456e+2, -1711500.8, -1440235.4, 75434.79, 0.06701485, 0.16236174, -1420669.4, 219026.63, 0.17062773, 9.998244, 10.002284 
1.974828e+3, 1.4268386e+2, -1761672.1, -1649756.3, 14623.491, -0.2316061, -0.021002302, -1647877.0, -106173.55, 0.09895461, 9.998333, 9.999869 
1.9748713e+3, 1.5268518e+2, -1556616.6, -1490080.0, -59413.15, -0.0552555, 0.0812873, -1455255.0, -11562.408, 0.04335473, 9.999064, 9.999916 
1.9749139e+3, 1.6268452e+2, -1414475.3, -1415393.8, -121754.06, 0.088511035, 0.055132177, -1293179.6, 52521.105, 0.012356995, 9.999537, 9.999558 
1.9749543e+3, 1.7268473e+2, -1338127.0, -1297876.0, -116134.836, 0.05364447, 0.07316822, -1200135.8, 47563.09, 0.0015709848, 9.999294, 9.999783 
1.9749951e+3, 1.8268493e+2, -1282399.0, -1298296.5, -101919.164, 0.0077647446, 0.15982696, -1188119.1, -38422.16, 0.000019593592, 9.999291, 9.999141 
1.975037e+3, 1.9268362e+2, -1085088.8, -1128868.3, -66717.14, -0.0069788843, 0.07383369, -1036762.1, 14947.3125, 0.0, 9.999916, 9.999302 
1.9750789e+3, 2.026825e+2, -929809.4, -1003744.25, -78876.38, -0.036670476, 0.047673438, -879667.25, 74052.56, 0.0, 10.000276, 9.99933 
1.9751203e+3, 2.1268234e+2, -822797.5, -858623.9, -39749.285, -0.08787753, 0.036334135, -797111.5, 58607.824, 0.0, 10.000172, 9.999688 
1.9751616e+3, 2.226821e+2, -829521.2, -941214.5, -58804.97, -0.105685115, 0.103202604, -804269.94, -46548.19, 0.0, 9.999995, 9.998554 
1.9752039e+3, 2.3268114e+2, -665956.7, -813551.56, -59288.07, 0.0008993528, 0.12392369, -645090.9, 14644.822, 0.0, 10.000472, 9.998516 
1.9752459e+3, 2.4268003e+2, -529791.5, -691736.5, -64997.355, 0.056430187, 0.17775105, -506931.4, 54817.766, 0.0, 10.000663, 9.998615 
1.975287e+3, 2.5267905e+2, -389847.97, -523981.16, -42192.27, -0.004044589, 0.15047134, -377680.0, 86076.625, 0.0, 10.00078, 9.999014 
1.9753283e+3, 2.626776e+2, -366368.4, -605776.44, -39689.85, -0.06861618, 0.1763231, -359960.03, 5808.442, 0.000000055759365, 10.000884, 9.99773 
1.9753706e+3, 2.7267492e+2, -134742.44, -438547.25, -22393.963, -0.07169317, 0.09382031, -133100.63, 134692.75, 0.0000036492006, 10.001806, 9.997739 
1.9754131e+3, 2.8267163e+2, -8496.872, -404128.06, -37832.594, -0.041477058, 0.035372812, -4911.586, 164913.03, 0.00003270768, 10.002284, 9.997111 
1.9754565e+3, 2.9266804e+2, 115121.03, -253472.5, 20663.342, 0.054088783, -0.101754606, 116275.8, 188136.53, 0.00013942833, 10.002306, 9.997444 
1.9754986e+3, 3.0266625e+2, 22698.816, -467197.78, 10696.59, -0.075657584, 0.07145428, 22932.258, 22932.258, 0.00034788318, 10.002192, 9.995708 
1.9755429e+3, 3.1266358e+2, 198446.39, -71448.01, -79174.52, 0.048256487, 0.16604349, 219957.97, 219957.97, 0.0006200004, 10.002049, 9.998457 
1.9847412e+3, 1.2263584e+2, -2127061.3, -1987824.4, -167266.08, 0.007548711, -0.16779564, -1876267.1, -138094.02, 0.25424254, 9.997341, 9.999394 
1.9847822e+3, 1.3264135e+2, -1555999.1, -1386292.4, 43298.832, -0.17774267, 0.1552913, -1375883.6, 264234.88, 0.17932345, 9.999461, 10.002176 
1.9848281e+3, 1.4264038e+2, -1783961.4, -1646541.9, -11464.426, -0.017290121, -0.055854157, -1645592.0, -103465.35, 0.104643695, 9.998127, 10.0 
1.9848704e+3, 1.5264164e+2, -1647606.6, -1512133.0, -35077.89, -0.0032448834, 0.024053415, -1503589.1, -59472.734, 0.046255346, 9.998345, 10.000126 
1.9849123e+3, 1.6264115e+2, -1532256.9, -1474995.4, -20203.95, 0.03993575, 0.0032999134, -1468584.5, -122461.47, 0.013380272, 9.998747, 9.999522 
1.9849539e+3, 1.726416e+2, -1280497.1, -1281089.4, -29486.418, 0.071187735, 0.052072838, -1251305.4, -3185.5654, 0.0017591557, 9.999743, 9.999679 
1.9849955e+3, 1.8264192e+2, -1154025.5, -1236821.3, 18204.754, 0.0954524, 0.15594012, -1150199.5, -82.47568, 0.0000256483, 10.000168, 9.999136 
1.9850373e+3, 1.9264042e+2, -1098001.4, -1133739.9, 13064.106, 0.06192736, 0.04272134, -1093735.1, -41604.28, 0.0, 9.999795, 9.999331 
1.9850792e+3, 2.026392e+2, -1032577.0, -1080654.5, 12672.531, 0.01707102, 0.015427854, -1029441.25, -75299.11, 0.0, 9.999684, 9.999094 
1.9851203e+3, 2.1263945e+2, -756873.3, -861941.8, -58444.504, -0.09803443, 0.07833423, -730822.56, 125317.766, 0.0, 10.000788, 9.999367 
1.9851619e+3, 2.226393e+2, -620370.94, -837174.75, -112057.1, -0.1268163, 0.17548533, -572863.4, 185279.77, 0.0, 10.00141, 9.998587 
1.9852045e+3, 2.3263797e+2, -611316.94, -773359.75, -117714.414, 0.03771757, 0.14727242, -549435.75, 110723.7, 0.0, 10.000784, 9.998639 
1.9852471e+3, 2.426367e+2, -559695.56, -718725.4, -51202.145, 0.14128537, 0.1815862, -544636.25, 17537.727, 0.0, 10.000558, 9.998455 
1.9852883e+3, 2.526356e+2, -279133.53, -504779.97, -82303.67, 0.015929032, 0.17509201, -252303.7, 211879.55, 0.0, 10.001709, 9.998688 
1.9853298e+3, 2.62634e+2, -144594.66, -463360.03, -75585.85, -0.061584122, 0.19210665, -127579.9, 238617.1, 0.00000004684117, 10.0022545, 9.998047 
1.9853726e+3, 2.7263126e+2, -163456.02, -399824.56, -73630.44, -0.018935379, 0.06698786, -142396.03, 125824.64, 0.000003631824, 10.001393, 9.998197 
1.9854157e+3, 2.8262848e+2, -135342.56, -431247.7, -5796.8105, 0.05878277, 0.020808458, -135229.05, 35017.418, 0.000030883682, 10.001288, 9.997391 
1.9854595e+3, 2.926258e+2, 197984.2, -199712.52, -5560.7896, 0.1216998, -0.031936772, 198061.94, 270337.28, 0.00012822116, 10.002857, 9.997527 
1.9855015e+3, 3.0262434e+2, 263598.3, -283109.6, 19752.58, -0.04738414, 0.14250228, 264311.06, 264311.06, 0.0003141248, 10.003508, 9.996345 
1.985546e+3, 3.1262195e+2, 227189.3, -2760.667, -70350.28, 0.18019429, 0.1950587, 247004.56, 247004.56, 0.00054966006, 10.001931, 9.999005 
1.9947405e+3, 1.22595154e+2, -1971323.9, -1723264.3, 193958.2, 0.11165358, 0.0032515742, -1617069.9, 121508.26, 0.26535824, 9.997529, 10.001353 
1.994778e+3, 1.3259925e+2, -1608813.3, -1519128.1, 19620.637, -0.5647954, 0.27382186, -1515023.6, 125510.914, 0.18805622, 9.999567, 10.00103 
1.9948298e+3, 1.4259616e+2, -1708866.3, -1537602.0, -54851.25, 0.2698591, -0.10745414, -1521540.9, 21020.174, 0.11045076, 9.998322, 10.000672 
1.9948694e+3, 1.5259837e+2, -1566351.8, -1350508.3, -12946.244, 0.028578514, -0.032854926, -1349734.5, 94803.016, 0.04926506, 9.998366, 10.001256 
1.9949095e+3, 1.6259958e+2, -1491991.8, -1416050.4, -2333.379, -0.18045971, 0.033658825, -1415978.8, -69454.37, 0.014456319, 9.998852, 9.999875 
1.9949535e+3, 1.7259924e+2, -1271283.5, -1260927.8, 17516.377, 0.035628427, -0.010556042, -1247840.0, 688.4092, 0.0019582892, 9.999746, 9.999811 
1.9949967e+3, 1.825988e+2, -1150322.6, -1240939.1, -1995.977, 0.16301543, 0.009975918, -1150278.8, 254.43439, 0.000032105352, 10.000218, 9.999084 
1.9950369e+3, 1.9259793e+2, -1116967.1, -1149365.3, 6710.593, -0.0016742763, -0.03187361, -1115632.1, -63091.5, 0.0, 9.9997, 9.999267 
1.9950777e+3, 2.0259695e+2, -1135293.1, -1257012.5, 20400.324, -0.13017267, 0.009405079, -1131965.0, -177413.75, 0.0, 9.999518, 9.997965 
1.9951214e+3, 2.1259566e+2, -888983.0, -1089218.5, -871.893, -0.09278021, 0.05874324, -888979.2, -32409.748, 0.0, 10.000581, 9.997907 
1.995164e+3, 2.2259459e+2, -664773.0, -847735.8, -132639.34, -0.0768266, 0.14660189, -595127.0, 163457.23, 0.0, 10.001056, 9.998685 
1.9952044e+3, 2.3259409e+2, -605306.75, -704025.56, -123976.71, -0.0889866, 0.14603934, -521224.88, 139364.45, 0.0, 10.000531, 9.999238 
1.9952457e+3, 2.4259306e+2, -645028.75, -808940.94, -40101.69, -0.08905284, 0.18336858, -635743.7, -73144.13, 0.0, 10.000182, 9.998018 
1.9952896e+3, 2.5259066e+2, -371611.4, -629904.25, -15594.885, -0.024108827, 0.10988135, -370673.25, 93950.34, 0.0, 10.001419, 9.997968 
1.9953328e+3, 2.6258823e+2, -176137.13, -433813.9, -103891.17, -0.008352337, 0.07481981, -139468.1, 227178.33, 0.000000042002604, 10.001853, 9.99844 
1.995374e+3, 2.725866e+2, -148473.73, -304257.66, -87274.04, -0.044219393, -0.014565649, -109387.43, 159271.39, 0.0000035134383, 10.001129, 9.998974 
1.9954166e+3, 2.825859e+2, -188787.4, -463165.7, 11100.028, -0.011694444, 0.09809554, -188339.08, -17673.674, 0.00002820436, 10.000945, 9.997337 
1.9954629e+3, 2.9258594e+2, 118227.805, -265059.63, 78897.57, 0.15420465, 0.32760224, 133833.08, 206504.31, 0.00011358975, 10.002416, 9.997292 
1.9955055e+3, 3.0258262e+2, 275529.47, -78189.36, -38558.39, -0.028112203, 0.2512206, 279683.88, 279683.88, 0.00027761882, 10.002771, 9.99809 
1.9955465e+3, 3.1258094e+2, 148539.05, 10536.392, -25375.111, -0.028442906, 0.15109576, 153056.95, 153056.95, 0.0004902181, 10.001225, 9.999408 
2.0047383e+3, 1.2255249e+2, -2021267.5, -1630870.6, 234779.36, 0.1991909, 0.1615987, -1520743.4, 218254.38, 0.27641812, 9.996588, 10.002653 
2.0047773e+3, 1.325555e+2, -1862139.8, -1601737.3, -10169.133, -0.48485118, 0.273595, -1601340.8, 39623.46, 0.1968332, 9.997682, 10.001227 
2.0048283e+3, 1.4255327e+2, -1654116.1, -1488054.0, -29922.533, 0.31495008, -0.047689438, -1482826.9, 60155.45, 0.11636926, 9.998575, 10.00092 
2.0048682e+3, 1.5255521e+2, -1485084.1, -1292037.3, -63043.977, 0.08448557, -0.0293055, -1273272.8, 171687.67, 0.05238356, 9.998804, 10.001479 
2.0049085e+3, 1.6255656e+2, -1483814.5, -1404625.0, -52257.723, -0.13534683, 0.035061736, -1378655.9, -31710.887, 0.015589432, 9.998834, 9.999979 
2.004953e+3, 1.7255615e+2, -1318199.5, -1279663.9, -62806.086, 0.050399866, -0.029331587, -1233236.5, 15712.612, 0.0021699998, 9.999353, 9.999893 
2.0049968e+3, 1.825555e+2, -1221553.3, -1281021.9, -64657.96, 0.18796095, -0.031755105, -1180120.3, -29164.613, 0.00003871999, 9.999785, 9.999006 
2.0050369e+3, 1.9255482e+2, -941964.56, -1084380.1, -98746.195, -0.0010211354, -0.035139203, -891429.3, 161532.9, 0.0, 10.001015, 9.999074 
2.0050782e+3, 2.0255384e+2, -854293.6, -1139821.3, -44986.973, -0.12476974, 0.027190227, -847373.3, 107599.92, 0.0, 10.001553, 9.997781 
2.0051222e+3, 2.1255198e+2, -868659.5, -1100896.6, -8680.0, -0.06510665, 0.042808764, -868335.56, -11339.296, 0.0, 10.000824, 9.99771 
2.0051652e+3, 2.225504e+2, -789637.25, -914634.25, -73259.12, -0.017443985, 0.0978623, -755839.56, 3175.7354, 0.0, 10.000251, 9.998606 
2.0052049e+3, 2.3254971e+2, -618110.25, -710827.1, -151151.3, -0.0724109, 0.08670142, -506368.03, 154654.1, 0.0, 10.00049, 9.999198 
2.0052461e+3, 2.4254878e+2, -533079.6, -718450.7, -22796.912, -0.071282804, 0.124288164, -530317.2, 32713.906, 0.0, 10.000757, 9.998376 
2.0052911e+3, 2.5254703e+2, -414712.13, -593949.7, 56708.438, 0.022782166, 0.0694649, -398277.28, 66770.805, 0.0, 10.000868, 9.998477 
2.005335e+3, 2.6254505e+2, -287520.44, -509186.6, 22358.947, 0.0668845, 0.05043512, -285287.66, 81778.95, 0.000000029896977, 10.001159, 9.998266 
2.0053758e+3, 2.7254283e+2, -45609.496, -309353.22, -74441.67, -0.0015267157, -0.05596664, -26049.033, 243037.63, 0.0000031274246, 10.002028, 9.9985285 
2.0054184e+3, 2.8254202e+2, 43381.43, -315348.66, 27706.148, 0.0362322, 0.06253096, 45508.67, 216603.38, 0.000025154262, 10.002376, 9.99767 
2.0054649e+3, 2.9254296e+2, 11954.204, -263725.13, 81606.02, 0.18506207, 0.33793938, 34299.797, 107390.0, 0.00009776422, 10.001454, 9.997766 
2.005508e+3, 3.0253953e+2, 149715.73, -43122.535, 17424.246, 0.03530012, 0.18298967, 151277.48, 151277.48, 0.00024035286, 10.001468, 9.998983 
2.0055495e+3, 3.125384e+2, 415456.38, 64835.84, -107115.56, 0.07774251, 0.079472184, 445590.6, 445590.6, 0.000433908, 10.003333, 9.998808 
2.0147324e+3, 1.2250486e+2, -1976449.8, -1592800.5, 19959.61, -0.121684805, -0.05273308, -1591764.9, 147695.81, 0.28771394, 9.996751, 10.002765 
2.0147797e+3, 1.3251007e+2, -1764661.0, -1453428.3, 53480.9, -0.030308628, 0.13515231, -1444494.8, 196912.83, 0.20582092, 9.997738, 10.002502 
2.0148236e+3, 1.4251144e+2, -1638687.1, -1501398.1, -34704.195, -0.089027, 0.108797655, -1493124.1, 50268.625, 0.12247417, 9.99877, 10.0007305 
2.0148668e+3, 1.5251204e+2, -1519815.0, -1365890.4, -52690.31, 0.01278015, 0.04499176, -1349581.8, 95804.41, 0.055639356, 9.998827, 10.000936 
2.0149091e+3, 1.6251223e+2, -1469028.6, -1399182.0, -56525.504, -0.009474285, 0.024922686, -1367661.6, -20277.896, 0.016791714, 9.998943, 9.999968 
2.0149522e+3, 1.7251238e+2, -1313237.8, -1262020.4, -32498.166, -0.0027845898, 0.009931921, -1246253.5, 3127.975, 0.0023981123, 9.99933, 10.000027 
2.014995e+3, 1.8251216e+2, -1223575.5, -1304437.5, -49010.867, -0.006484378, 0.04701106, -1200471.3, -49087.965, 0.000045425786, 9.999855, 9.998818 
2.0150375e+3, 1.9251105e+2, -979650.06, -1143581.9, -43075.086, -0.08245442, 0.03643366, -969020.75, 84374.766, 0.0, 10.000928, 9.998712 
2.0150797e+3, 2.025099e+2, -834446.2, -1056119.8, -73002.52, -0.15165807, 0.077059895, -812564.6, 142842.94, 0.0, 10.001364, 9.998449 
2.0151223e+3, 2.1250841e+2, -838580.2, -980823.4, -24140.86, -0.14483513, 0.035638798, -834594.8, 22826.197, 0.0, 10.000574, 9.998657 
2.0151645e+3, 2.2250667e+2, -867625.5, -999386.56, -88583.445, -0.12903482, 0.032632757, -823110.06, -63672.406, 0.0, 9.999907, 9.998195 
2.0152056e+3, 2.3250462e+2, -703912.3, -845439.44, -123203.67, -0.051857486, -0.03798735, -632596.25, 28863.916, 0.0, 10.000282, 9.998382 
2.0152478e+3, 2.4250348e+2, -518484.72, -601873.1, -29152.992, -0.0016094605, -0.00824118, -509303.53, 54168.707, 0.0, 10.000398, 9.999346 
2.015292e+3, 2.5250438e+2, -344264.47, -383342.13, 73504.75, 0.0072936383, 0.053202737, -287745.97, 177714.38, 0.0, 10.0006, 10.0000515 
2.0153354e+3, 2.6250377e+2, -389275.5, -635586.25, 27224.135, -0.02535389, 0.10156511, -386302.38, -18838.068, 0.0000000091701935, 10.000798, 9.997572 
2.0153776e+3, 2.7249986e+2, -188547.23, -531180.5, -21087.068, -0.047487427, -0.05041864, -187254.33, 82250.805, 0.0000023642951, 10.001717, 9.997151 
2.0154205e+3, 2.8249732e+2, 3973.4023, -295830.66, -15472.111, -0.02693984, -0.032821003, 4769.7627, 176300.69, 0.000021595964, 10.00195, 9.998004 
2.0154652e+3, 2.9249707e+2, 31481.844, -159074.75, 65987.49, 0.037912842, 0.03732883, 52101.36, 125632.88, 0.000083873885, 10.001157, 9.998636 
2.0155083e+3, 3.0249488e+2, 48503.03, -115331.36, 36387.11, -0.115662076, -0.039061274, 56220.92, 56220.92, 0.00020823602, 10.000913, 9.998732 
2.0155525e+3, 3.1249645e+2, 178125.63, -164002.75, 75499.29, -0.02201527, 0.16747884, 194045.67, 194045.67, 0.00038362973, 10.002282, 9.997701 
2.0247288e+3, 1.2246144e+2, -1814876.0, -1644798.6, -28440.732, -0.230624, 0.0542772, -1640168.8, 99714.59, 0.29983783, 9.99852, 10.001415 
2.0247799e+3, 1.3246426e+2, -1797564.0, -1401691.3, 96306.22, 0.2614695, -0.07414166, -1379505.6, 262349.28, 0.21537028, 9.997175, 10.0032425 
2.0248201e+3, 1.4246888e+2, -1759828.0, -1592363.9, 12967.856, -0.2350084, 0.19006713, -1591365.6, -47556.707, 0.12892798, 9.998098, 10.000384 
2.0248654e+3, 1.5246873e+2, -1586418.0, -1468685.3, -69535.44, 0.026302472, 0.11285699, -1436445.0, 9367.214, 0.05909158, 9.998711, 10.000245 
2.0249093e+3, 1.6246793e+2, -1494814.5, -1417955.3, -46979.36, 0.15068972, 0.04252851, -1395689.9, -47869.18, 0.018083457, 9.998838, 9.999865 
2.0249517e+3, 1.7246799e+2, -1279639.9, -1236075.3, -53367.625, 0.020756269, 0.01708179, -1200215.8, 49602.54, 0.0026487417, 9.999573, 10.000061 
2.0249943e+3, 1.8246798e+2, -1202193.3, -1290746.9, -37396.605, -0.046765484, 0.0698646, -1188513.6, -36696.05, 0.000052423693, 9.999975, 9.998851 
2.0250382e+3, 1.924671e+2, -1090363.8, -1201484.9, -32780.62, -0.034035545, 0.07861571, -1081414.3, -27586.24, 0.0, 10.000164, 9.998685 
2.0250815e+3, 2.0246604e+2, -983652.56, -1091112.4, -53394.14, -0.027107302, 0.11555426, -961633.94, -5795.243, 0.0, 10.000185, 9.998768 
2.0251231e+3, 2.1246436e+2, -857631.1, -946428.75, -87194.19, -0.096528165, 0.017170671, -804182.7, 53669.066, 0.0, 10.000252, 9.999041 
2.0251647e+3, 2.2246255e+2, -799575.2, -943276.44, -109081.85, -0.11145965, -0.026176756, -740806.6, 19060.87, 0.0, 10.000272, 9.998396 
2.0252062e+3, 2.3246089e+2, -666609.06, -809823.25, -99914.14, -0.02015838, -0.07300421, -615291.75, 46593.785, 0.0, 10.000466, 9.998525 
2.0252487e+3, 2.4246006e+2, -497673.2, -600135.3, 31597.572, 0.061574187, -0.021368856, -488712.63, 75182.13, 0.0, 10.000588, 9.999255 
2.0252928e+3, 2.5246078e+2, -344545.8, -409261.2, -14331.519, 0.0524264, 0.045695715, -341514.06, 124372.125, 0.0, 10.000716, 9.999815 
2.0253369e+3, 2.624602e+2, -356167.1, -623094.6, -68927.03, 0.043774776, 0.112046786, -339419.3, 28472.143, 0.000000001074916, 10.001048, 9.997535 
2.0253797e+3, 2.7245677e+2, -166229.98, -516230.97, -64111.316, 0.013350777, 0.016279692, -154856.03, 115071.8, 0.0000018159459, 10.00188, 9.997163 
2.0254229e+3, 2.8245404e+2, 55382.383, -278771.5, -23895.203, 0.0094017, 0.017622715, 57082.47, 229037.38, 0.000018189116, 10.002302, 9.997962 
2.0254658e+3, 2.9245228e+2, 80877.13, -125584.45, -60224.13, -0.0010095302, -0.059894096, 97160.12, 171127.6, 0.000072171526, 10.001462, 9.998708 
2.0255104e+3, 3.024496e+2, 107585.195, -173911.81, -12590.151, 0.0066609518, -0.15877146, 108147.18, 108147.18, 0.00017993047, 10.001618, 9.998029 
2.0255554e+3, 3.1245136e+2, 331595.75, -87531.52, -95670.48, 0.014398264, 0.16441989, 352400.88, 352400.88, 0.00033599298, 10.003243, 9.997794 
2.034728e+3, 1.22420534e+2, -1999728.9, -2075759.3, -211744.36, -0.2815286, 0.27838352, -1822614.3, -82331.81, 0.3135409, 9.9988575, 9.998034 
2.034777e+3, 1.32418e+2, -1749750.1, -1357939.4, 111005.195, 0.2079099, -0.35710284, -1328675.8, 313631.0, 0.22593072, 9.997347, 10.003587 
2.034818e+3, 1.4242539e+2, -1758761.6, -1646769.6, 34758.05, -0.33780596, 0.18111058, -1636859.0, -92626.15, 0.13594478, 9.998335, 9.999897 
2.0348641e+3, 1.5242517e+2, -1631532.1, -1581058.6, -43898.95, -0.011638078, 0.1712681, -1555659.4, -109420.67, 0.06282382, 9.99879, 9.999427 
2.0349087e+3, 1.6242354e+2, -1495310.3, -1449791.9, -50387.684, 0.14982386, 0.07642803, -1417261.9, -69004.96, 0.019494196, 9.998971, 9.999579 
2.034951e+3, 1.7242293e+2, -1275260.1, -1238664.0, -14122.839, -0.021143427, -0.008605761, -1233847.6, 16412.89, 0.0029308582, 9.999615, 10.000021 
2.0349942e+3, 1.8242288e+2, -1178759.8, -1251103.8, -41648.26, -0.11901448, 0.029079536, -1159768.5, -7509.0083, 0.00006041413, 10.000013, 9.999107 
2.035039e+3, 1.9242294e+2, -1080753.8, -1156893.0, -15629.483, 0.0070431726, 0.101565205, -1077670.3, -23410.742, 0.0, 10.00006, 9.999042 
2.0350829e+3, 2.0242226e+2, -1014367.0, -1108806.3, -68421.54, 0.052708495, 0.15467933, -978453.0, -22186.475, 0.0, 9.999993, 9.998738 
2.0351239e+3, 2.1241976e+2, -902167.7, -981725.0, -70655.91, -0.05875404, -0.012615703, -860862.44, -2573.0254, 0.0, 10.000009, 9.998917 
2.0351648e+3, 2.2241803e+2, -800963.9, -854643.56, -115610.13, -0.15102921, -0.07182266, -709118.94, 51186.008, 0.0, 9.999894, 9.999178 
2.035206e+3, 2.3241839e+2, -635088.6, -678593.0, -74352.33, -0.11273143, -0.020666799, -579371.94, 82927.86, 0.0, 10.000194, 9.999552 
2.0352483e+3, 2.4241821e+2, -622949.75, -786130.75, 18486.684, -0.07133091, 0.07551546, -620881.6, -56580.08, 0.0, 10.000271, 9.998133 
2.0352934e+3, 2.5241634e+2, -503693.53, -692625.25, 5524.5215, 0.016283248, 0.054321207, -503532.13, -37208.004, 0.0, 10.000506, 9.997974 
2.0353384e+3, 2.624145e+2, -393515.44, -606884.94, -57086.66, 0.06135481, 0.09891103, -379202.16, -10856.765, 0.000000023664393, 10.000663, 9.997822 
2.0353818e+3, 2.7241316e+2, -133725.39, -384803.6, -11473.816, 0.018632457, 0.11092888, -133202.14, 137156.44, 0.0000019634658, 10.001598, 9.998199 
2.0354247e+3, 2.8241155e+2, -37436.367, -359342.03, -62236.734, -0.06436432, 0.16803026, -25822.617, 146550.39, 0.000016146072, 10.001845, 9.997618 
2.0354664e+3, 2.924084e+2, -15719.46, -251388.92, -65981.984, -0.11942602, 0.025681078, 1496.3412, 75895.28, 0.00006227005, 10.001134, 9.998005 
2.0355129e+3, 3.0240363e+2, -87110.14, -420409.38, 13058.606, 0.06720312, -0.17545514, -86599.29, -86599.29, 0.00015437642, 10.000977, 9.996623 
2.0355584e+3, 3.1240165e+2, 279672.7, 43576.066, 8481.873, -0.056490622, -0.119077966, 279977.0, 279977.0, 0.00029131802, 10.0022745, 9.999131 
2.044729e+3, 1.2237727e+2, -1927883.0, -2205408.8, -131318.64, -0.10010602, 0.22957551, -1875596.9, -134891.23, 0.3294151, 10.000073, 9.996585 
2.0447753e+3, 1.3237353e+2, -1587761.6, -1397357.6, 24257.715, 0.23858108, -0.36816254, -1394315.8, 248428.03, 0.23787552, 9.999156, 10.002381 
2.0448172e+3, 1.4238022e+2, -1738781.9, -1636892.4, -41432.14, -0.22926795, 0.17742392, -1622171.4, -77494.766, 0.14372098, 9.998469, 9.999903 
2.0448631e+3, 1.5237993e+2, -1525855.5, -1496494.8, -90940.73, 0.010169769, 0.13353845, -1419057.1, 27624.564, 0.06692591, 9.99937, 9.999737 
2.0449081e+3, 1.6237839e+2, -1380485.6, -1402509.1, -19693.467, 0.16699336, 0.030146519, -1368934.4, -20236.412, 0.021061258, 9.999767, 9.999536 
2.044951e+3, 1.7237817e+2, -1247321.6, -1248399.8, -22374.172, 0.022331463, -0.00042299976, -1225480.0, 25219.273, 0.003256253, 9.999889, 9.999835 
2.0449945e+3, 1.8237832e+2, -1194947.6, -1223077.1, -39542.39, -0.039998204, 0.061267998, -1167043.1, -14346.475, 0.00007088071, 9.999759, 9.999422 
2.0450392e+3, 1.9237809e+2, -1086966.5, -1099616.4, -37078.453, 0.04949883, 0.053530242, -1055677.4, -979.9795, 0.0, 9.99978, 9.999562 
2.0450829e+3, 2.0237729e+2, -1055874.6, -1125016.3, -51424.074, 0.10067385, 0.064609975, -1028481.1, -71776.69, 0.0, 9.999673, 9.998793 
2.0451243e+3, 2.1237558e+2, -947115.5, -1005296.06, -80804.84, 0.026313847, -0.020932082, -890324.06, -31601.418, 0.0, 9.999716, 9.998892 
2.0451656e+3, 2.223745e+2, -780743.94, -843946.0, -98063.33, -0.038084194, -0.014459741, -709315.6, 51418.008, 0.0, 10.000011, 9.99921 
2.0452067e+3, 2.3237464e+2, -497722.5, -603613.4, -146184.3, -0.086202174, 0.011229045, -395191.03, 267538.53, 0.0, 10.00109, 9.999642 
2.0452489e+3, 2.4237414e+2, -429523.06, -716334.1, -66948.23, -0.07915419, 0.0767645, -414665.47, 150068.3, 0.0, 10.001689, 9.997937 
2.0452942e+3, 2.523719e+2, -447277.22, -694680.06, -20847.959, 0.03562986, 0.052430637, -445532.72, 21227.225, 0.0, 10.0010195, 9.997712 
2.0453393e+3, 2.623699e+2, -381818.34, -586442.0, 45067.29, 0.12416073, 0.09016965, -372332.25, -3549.6309, 0.00000011200642, 10.000646, 9.997975 
2.0453836e+3, 2.723687e+2, -153247.58, -367046.5, 15579.394, 0.07559285, 0.09357787, -152118.28, 118674.93, 0.000002326167, 10.00133, 9.99845 
2.0454268e+3, 2.8236705e+2, -25667.027, -373405.66, -59486.33, -0.01754143, 0.13861261, -15772.467, 157035.3, 0.000014696717, 10.001988, 9.997458 
2.0454681e+3, 2.9236397e+2, 139521.33, -206237.27, -96859.164, -0.106024526, 0.03977021, 164805.97, 239642.05, 0.00005375532, 10.002342, 9.99773 
2.0455155e+3, 3.0236065e+2, 160766.55, -261641.64, 118667.13, 0.18220511, -0.016129525, 191820.7, 191820.7, 0.00013254509, 10.002489, 9.996983 
2.0455606e+3, 3.1235793e+2, 213453.36, 66233.94, 14310.198, 0.0062537175, -0.06658175, 214831.45, 214831.45, 0.00025431596, 10.001515, 9.999664 
2.0547299e+3, 1.2233245e+2, -1801635.4, -2037739.1, -68813.51, -0.11110934, 0.03337296, -1783043.4, -41898.145, 0.3476065, 10.000463, 9.997551 
2.0547739e+3, 1.3233124e+2, -1725859.8, -1676762.8, 1355.7642, 0.13928331, -0.04319088, -1676725.3, -33563.56, 0.2513395, 9.9992895, 9.999878 
2.0548171e+3, 1.4233316e+2, -1671825.4, -1550556.0, -43693.035, -0.13673459, 0.15082344, -1536453.5, 8689.49, 0.15236652, 9.9986925, 10.000395 
2.0548621e+3, 1.5233302e+2, -1413560.9, -1289511.5, -41027.145, -0.067986265, -0.003216825, -1277170.3, 169970.39, 0.071473114, 9.999448, 10.001197 
2.0549068e+3, 1.6233253e+2, -1349695.5, -1383957.6, -31040.053, 0.00009316223, -0.09360055, -1331373.0, 17770.504, 0.022826005, 9.999951, 9.999581 
2.0549512e+3, 1.723337e+2, -1269144.5, -1301517.5, -10751.673, 0.009167008, 0.047103103, -1265899.0, -14764.386, 0.0036400491, 9.999915, 9.999461 
2.0549951e+3, 1.8233421e+2, -1163376.9, -1178845.6, -56863.05, -0.006518737, 0.16097808, -1113724.6, 39405.727, 0.00008593674, 9.999836, 9.999697 
2.0550384e+3, 1.9233228e+2, -1048691.1, -1011073.9, -27049.453, -0.048764434, -0.07533838, -996936.5, 58207.566, 0.0, 9.999725, 10.000203 
2.0550813e+3, 2.0233093e+2, -1077030.3, -1121456.0, -66512.29, -0.07122005, -0.16597791, -1029119.7, -71965.14, 0.0, 9.999471, 9.998913 
2.055124e+3, 2.123316e+2, -986848.2, -1033316.4, -65371.133, 0.008310044, -0.013826248, -940705.0, -81551.4, 0.0, 9.999477, 9.998815 
2.0551665e+3, 2.2233161e+2, -882508.44, -966322.44, -83681.71, 0.02700076, 0.13360898, -830826.8, -69669.836, 0.0, 9.999638, 9.998548 
2.055208e+3, 2.3232965e+2, -598068.3, -742728.5, -87080.67, -0.08761881, 0.028594939, -557196.44, 105978.15, 0.0, 10.000796, 9.998829 
2.0552503e+3, 2.423279e+2, -451285.6, -662176.06, -89638.8, -0.15251948, -0.0010784935, -418333.53, 146856.73, 0.0, 10.001272, 9.998504 
2.0552947e+3, 2.5232717e+2, -415961.16, -560310.7, -29825.82, -0.025686324, 0.02061953, -410041.25, 57156.09, 0.0, 10.000732, 9.998769 
2.0553397e+3, 2.6232606e+2, -438174.38, -615118.25, 40431.684, 0.05580834, 0.07806087, -429373.47, -60165.605, 0.00000017468948, 10.000277, 9.997951 
2.0553848e+3, 2.7232337e+2, -228342.16, -459902.2, 63058.605, 0.025403572, -0.025178378, -212283.64, 58949.066, 0.0000023499456, 10.00105, 9.997953 
2.0554285e+3, 2.8232068e+2, -131390.19, -456021.34, -56447.99, -0.083095156, -0.039814748, -121854.89, 51404.21, 0.000012296112, 10.001427, 9.997149 
2.0554702e+3, 2.9231867e+2, 63339.574, -260151.06, -54950.055, -0.16194713, -0.032061305, 72418.89, 147700.78, 0.000044415407, 10.001899, 9.997567 
2.0555176e+3, 3.0231905e+2, 165196.52, -77664.99, 72726.39, 0.089527264, 0.22262076, 185309.23, 185309.23, 0.00011238728, 10.001783, 9.998564 
2.0555612e+3, 3.1231868e+2, 28098.39, -100181.97, -85211.88, -0.15661603, 0.20914613, 70611.984, 70611.984, 0.00022372513, 10.000631, 9.998925 
2.0647307e+3, 1.2228674e+2, -2004152.0, -1906104.9, -20373.977, 0.069403484, -0.051527515, -1902039.8, -160444.44, 0.36771804, 9.998075, 9.999574 
2.064773e+3, 1.3228883e+2, -1580308.3, -1641531.6, -611.81744, 0.095729046, 0.20315568, -1580302.1, 63276.492, 0.26616043, 10.000609, 9.999473 
2.064817e+3, 1.4228716e+2, -1629181.0, -1557092.1, 74276.92, -0.02842246, 0.06838298, -1510575.9, 35019.277, 0.1618756, 9.999078, 10.000197 
2.0648615e+3, 1.5228766e+2, -1490724.9, -1314640.0, -19850.348, -0.018647732, -0.032871835, -1312430.0, 135156.28, 0.07651462, 9.998833, 10.001318 
2.064906e+3, 1.622882e+2, -1507472.9, -1430045.5, -28386.848, 0.010466525, -0.03683933, -1420753.4, -71175.09, 0.024829434, 9.9987755, 9.999809 
2.0649505e+3, 1.7228922e+2, -1367149.8, -1318134.1, -2280.115, 0.018032145, 0.062293436, -1318028.3, -66457.62, 0.0041003036, 9.999145, 9.999698 
2.0649949e+3, 1.8228942e+2, -1256150.5, -1226773.3, 3142.9175, 0.030734966, 0.13382421, -1226440.9, -72871.58, 0.000108260756, 9.999232, 9.9996395 
2.0650381e+3, 1.9228777e+2, -1070651.3, -1033356.7, -52304.816, -0.0098715145, -0.06269701, -996474.56, 59107.434, 0.0, 9.999638, 10.000079 
2.0650813e+3, 2.0228676e+2, -1012017.5, -1087233.6, -104612.914, -0.008770362, -0.11254123, -938458.0, 19132.62, 0.0, 9.999897, 9.998942 
2.0651242e+3, 2.1228768e+2, -879888.5, -974214.3, -126385.72, 0.045811065, 0.06312518, -792152.6, 67434.31, 0.0, 10.000187, 9.998882 
2.0651667e+3, 2.2228773e+2, -784906.3, -911715.1, -78535.25, 0.06966415, 0.20825417, -747375.56, 14214.051, 0.0, 10.000264, 9.998627 
2.0652087e+3, 2.3228526e+2, -723928.44, -795550.8, -51494.887, -0.020906834, 0.046011157, -697016.75, -33406.004, 0.0, 9.999897, 9.998897 
2.0652515e+3, 2.422833e+2, -639489.1, -742721.8, 100.233604, -0.06342961, -0.014385362, -639489.06, -73861.73, 0.0, 9.999934, 9.998594 
2.0652957e+3, 2.522827e+2, -347256.44, -514555.03, -39831.168, -0.018634286, 0.013481307, -338257.34, 129374.87, 0.0, 10.001151, 9.998875 
2.0653403e+3, 2.6228154e+2, -202927.14, -487247.75, 12489.658, 0.028930094, 0.05303142, -202379.55, 167263.0, 0.00000012472299, 10.001812, 9.998105 
2.0653857e+3, 2.722788e+2, -220940.2, -425304.4, 35843.09, 0.04358994, -0.07296117, -214836.06, 56831.047, 0.0000018192295, 10.000978, 9.998225 
2.0654301e+3, 2.8227654e+2, -256973.27, -477039.56, 12344.652, 0.026039856, -0.07473847, -256282.95, -82594.77, 0.000008845643, 10.000371, 9.997532 
2.0654722e+3, 2.922753e+2, -136024.83, -321171.28, -4131.286, -0.06118868, -0.01937898, -135932.69, -60228.96, 0.000033872344, 10.000376, 9.997889 
2.0655178e+3, 3.02275e+2, 96447.69, -75314.57, 165303.06, 0.027184982, 0.12100011, 196847.72, 196847.72, 0.00009226976, 10.001074, 9.998968 
2.065564e+3, 3.1227535e+2, 308532.84, -10058.478, -263465.34, -0.019263266, 0.16393079, 457115.56, 457115.56, 0.0001939828, 10.002706, 9.998575 
2.074729e+3, 1.2224198e+2, -1792224.4, -1610496.5, 27880.629, -0.030632002, 0.093034014, -1606315.3, 135722.78, 0.38886976, 9.998348, 10.00205 
2.0747723e+3, 1.3224597e+2, -1495220.8, -1486508.6, -10816.179, -0.088250026, 0.31739882, -1479204.3, 164793.08, 0.28190908, 10.000744, 10.000897 
2.0748156e+3, 1.4224246e+2, -1655237.9, -1654575.1, 12818.266, -0.12280119, -0.043548353, -1642084.0, -96053.125, 0.17213808, 9.999268, 9.999406 
2.0748611e+3, 1.5224385e+2, -1560361.0, -1462135.8, -14419.094, 0.0022233443, 0.055568565, -1460062.8, -12044.754, 0.08207624, 9.998897, 10.000196 
2.0749053e+3, 1.6224535e+2, -1455718.3, -1360358.1, -35464.47, 0.004852647, 0.19930497, -1348615.0, 1388.3231, 0.027111659, 9.998934, 10.000212 
2.074949e+3, 1.7224467e+2, -1302311.6, -1188117.6, 20121.523, -0.08544728, 0.050852552, -1184675.9, 67331.22, 0.0046569863, 9.999169, 10.000575 
2.0749931e+3, 1.8224403e+2, -1273822.8, -1286628.5, -1456.358, -0.11150252, -0.005170721, -1273659.3, -119646.83, 0.00014131474, 9.999329, 9.999184 
2.0750384e+3, 1.9224441e+2, -1149065.0, -1183235.0, -29008.084, 0.029801546, 0.09294491, -1132484.5, -76471.945, 0.0000000002137382, 9.999575, 9.9990835 
2.0750825e+3, 2.0224455e+2, -1043634.75, -1115165.9, -112418.95, 0.09648908, 0.2225147, -961429.2, -3414.535, 0.0, 9.999727, 9.998835 
2.0751241e+3, 2.1224374e+2, -892945.0, -953563.94, -99820.086, -0.0032025592, 0.20397414, -818934.2, 41089.82, 0.0, 9.999972, 9.999128 
2.0751658e+3, 2.222427e+2, -794905.94, -841462.6, -96924.12, -0.08108206, 0.19838579, -718504.0, 43529.14, 0.0, 9.999885, 9.999285 
2.0752087e+3, 2.3224132e+2, -707250.56, -694500.7, -50953.934, -0.026488045, 0.06300234, -649524.44, 14515.593, 0.0, 9.999628, 9.999713 
2.0752522e+3, 2.4223998e+2, -721078.4, -824861.3, 14472.902, -0.011603729, 0.02634227, -719097.9, -153049.22, 0.0, 9.999565, 9.998205 
2.0752962e+3, 2.5223833e+2, -445962.72, -657958.6, 23514.32, -0.09173069, 0.026611118, -443385.84, 24680.922, 0.0, 10.000892, 9.9980135 
2.0753406e+3, 2.6223636e+2, -253504.2, -481034.72, -19670.686, -0.14869593, 0.032537427, -251816.14, 118270.49, 0.000000021824269, 10.00135, 9.9983635 
2.0753862e+3, 2.7223447e+2, -214829.45, -334243.6, 18282.027, -0.027934011, -0.077048354, -212093.22, 60007.63, 0.00000084431264, 10.000655, 9.999002 
2.0754313e+3, 2.822338e+2, -269681.9, -390591.63, -22608.89, 0.069600515, -0.009386392, -265592.6, -91488.336, 0.000005133315, 9.999909, 9.998335 
2.0754734e+3, 2.922334e+2, -138943.23, -266391.03, 17013.73, 0.007981731, 0.057336535, -136711.06, -60603.508, 0.000023723636, 10.000098, 9.998401 
2.0755166e+3, 3.022287e+2, -71579.58, -240025.69, 184448.47, -0.2575072, -0.23524325, 46965.125, 46965.125, 0.00007270888, 10.000351, 9.998151 
2.075567e+3, 3.1222963e+2, 100991.06, -135086.34, -117569.73, -0.065290734, -0.048160955, 149553.02, 149553.02, 0.00016093491, 10.00149, 9.998254 
2.0847277e+3, 1.22197956e+2, -1650790.3, -1551393.6, 46099.79, -0.02808637, 0.13380624, -1533304.6, 209165.14, 0.40993002, 9.999727, 10.002109 
2.0847723e+3, 1.3220032e+2, -1731337.6, -1598044.5, -45389.984, -0.03333693, 0.18143629, -1584056.0, 60389.152, 0.29801235, 9.998785, 10.000808 
2.0848148e+3, 1.421992e+2, -1632449.0, -1654377.6, -46246.145, -0.13856667, 0.06609553, -1595885.3, -49428.918, 0.18298064, 9.999506, 9.999277 
2.0848604e+3, 1.5219954e+2, -1477584.3, -1469646.0, -44873.7, 0.023049828, 0.09584745, -1428566.3, 19887.867, 0.088167645, 9.999677, 9.999779 
2.0849052e+3, 1.6220045e+2, -1381774.8, -1326595.0, -4433.5674, 0.12663999, 0.20979854, -1326241.0, 24203.947, 0.029713616, 9.999417, 10.000238 
2.0849487e+3, 1.7219977e+2, -1260101.6, -1146898.0, -29329.143, -0.004576511, 0.040257737, -1139750.6, 112697.484, 0.005333032, 9.999334, 10.000806 
2.0849927e+3, 1.8219922e+2, -1292483.5, -1289820.4, -28843.656, -0.055539493, -0.022867145, -1262277.5, -107825.5, 0.00018960002, 9.999179, 9.999245 
2.0850381e+3, 1.9220003e+2, -1106630.5, -1166114.6, -11121.605, 0.047941957, 0.12378123, -1104619.1, -48170.5, 0.000000020895914, 9.999897, 9.999043 
2.0850825e+3, 2.0220034e+2, -966102.8, -1060527.3, -31906.473, 0.11407079, 0.2699851, -956332.44, 2116.6184, 0.0, 10.000235, 9.998941 
2.0851243e+3, 2.1219891e+2, -863992.1, -920992.5, -66810.22, 0.02428936, 0.17763247, -819857.2, 40605.164, 0.0, 10.000123, 9.999258 
2.0851663e+3, 2.2219743e+2, -759381.4, -846850.44, -59236.875, -0.015658068, 0.12629081, -729483.6, 32991.1, 0.0, 10.000204, 9.999105 
2.0852098e+3, 2.321961e+2, -522539.28, -636986.5, -116052.836, 0.0469056, 0.02211404, -450368.9, 214113.64, 0.0, 10.001008, 9.999454 
2.0852534e+3, 2.4219483e+2, -452501.88, -698665.06, -57263.76, 0.08675803, 0.00987518, -439832.9, 126658.71, 0.0, 10.001419, 9.998178 
2.0852976e+3, 2.5219336e+2, -450403.84, -658064.1, -22308.684, -0.01431528, 0.032150835, -448034.28, 20474.172, 0.0, 10.000852, 9.998031 
2.0853418e+3, 2.621918e+2, -371471.38, -512177.9, -13208.966, -0.08389425, 0.06840417, -370242.13, 282.66498, 0.0, 10.000425, 9.998598 
2.0853865e+3, 2.7219033e+2, -224378.33, -308743.97, -45680.203, -0.02500405, -0.024849184, -204383.4, 68151.29, 0.000000115745564, 10.000458, 9.99927 
2.0854317e+3, 2.8218937e+2, -128211.96, -317678.4, -67815.37, 0.10274266, -0.0035394365, -106440.65, 68100.07, 0.0000020138657, 10.00083, 9.998401 
2.0854756e+3, 2.9218823e+2, 111030.46, -131313.44, -117404.03, 0.13391042, -0.0052223797, 158578.25, 235129.17, 0.000014504671, 10.001773, 9.998515 
2.0855173e+3, 3.0218518e+2, 223791.36, 4277.8193, 94357.984, -0.24008957, -0.18586163, 258775.66, 258775.66, 0.000053405533, 10.001869, 9.999129 
2.0855683e+3, 3.1218594e+2, -154069.81, -208599.9, -129991.37, 0.07140318, -0.10536997, -48514.91, -48514.91, 0.000125829, 9.999389, 9.998815 
2.0947282e+3, 1.22153245e+2, -1764612.5, -1764178.8, -209330.02, -0.07088281, -0.083133, -1555065.5, 187837.86, 0.42994058, 9.999956, 10.000121 
2.0947735e+3, 1.3215153e+2, -1828415.3, -1806663.5, -8237.075, 0.16516486, -0.22316983, -1803896.4, -158971.0, 0.31401625, 9.998901, 9.999165 
2.094813e+3, 1.4215727e+2, -1571833.5, -1577639.5, -51623.484, -0.32939425, 0.41256583, -1523031.5, 23841.607, 0.19429262, 9.999719, 9.999726 
2.0948586e+3, 1.5215456e+2, -1441348.5, -1416327.1, -33485.996, -0.13184418, 0.097620815, -1393091.1, 55804.74, 0.094824284, 9.999763, 10.000124 
2.0949058e+3, 1.621534e+2, -1372619.1, -1353672.0, -31334.525, 0.16840656, -0.0072979773, -1330410.3, 20494.053, 0.032688897, 9.999614, 9.999959 
2.0949496e+3, 1.721545e+2, -1282743.0, -1204699.4, -25508.428, 0.12293407, 0.04188328, -1197101.6, 55791.76, 0.0061590113, 9.999377, 10.00039 
2.0949928e+3, 1.8215507e+2, -1238513.5, -1202868.3, -29484.885, 0.0023858554, 0.09925261, -1186237.9, -31350.71, 0.00026052183, 9.999282, 9.999792 
2.0950368e+3, 1.9215477e+2, -1053523.0, -1042209.44, 26097.018, -0.09965704, 0.048859, -1021163.1, 35725.848, 0.00000016154512, 9.999834, 9.999926 
2.0950806e+3, 2.0215425e+2, -984459.9, -1053740.6, -44904.83, -0.14136532, 0.04848788, -962386.94, -3494.0867, 0.0, 10.00004, 9.999082 
2.095124e+3, 2.121532e+2, -911999.3, -961604.5, -61080.41, -0.009459604, 0.002585561, -870877.8, -9975.039, 0.0, 9.999874, 9.999096 
2.0951675e+3, 2.2215183e+2, -876146.9, -1009153.6, -52799.617, 0.07298873, 0.0047605154, -857735.56, -94819.664, 0.0, 9.999858, 9.998157 
2.0952107e+3, 2.3214963e+2, -651380.1, -839637.8, -67475.69, 0.046035774, -0.06493699, -629693.56, 35244.348, 0.0, 10.000729, 9.998198 
2.0952547e+3, 2.4214794e+2, -500945.1, -699734.5, -78995.32, 0.029194057, -0.04715571, -473376.94, 93578.13, 0.0, 10.000993, 9.998376 
2.0952994e+3, 2.521478e+2, -429902.56, -561261.2, -28112.29, 0.060522296, 0.034558676, -424139.06, 44818.484, 0.0, 10.000611, 9.998814 
2.0953435e+3, 2.6214764e+2, -414811.25, -513870.06, -34489.645, 0.0024726656, 0.15126006, -403985.9, -33026.766, 0.0, 10.000061, 9.998755 
2.0953865e+3, 2.721462e+2, -280168.8, -359473.7, -23960.809, -0.11091327, 0.071498804, -273491.63, -521.47705, 0.0, 10.000183, 9.999052 
2.0954311e+3, 2.8214347e+2, -260248.73, -459034.88, -59334.11, -0.0685096, -0.035668876, -243885.52, -68890.25, 0.00000039293647, 10.000274, 9.997695 
2.0954776e+3, 2.921401e+2, 8880.714, -228340.92, -45780.04, 0.1264035, -0.19863348, 17408.945, 94439.0, 0.000007667558, 10.001274, 9.998093 
2.0955193e+3, 3.0214262e+2, 227245.14, 253895.13, 13516.536, -0.2728635, 0.11050284, 259550.45, 259550.45, 0.000037309022, 10.000895, 10.001286 
2.0955686e+3, 3.121431e+2, -169198.95, -9913.671, -2462.0981, 0.095946714, -0.11248039, -9875.623, -9875.623, 0.0000961441, 9.998483, 10.000584 
2.1047288e+3, 1.2211283e+2, -1831081.8, -1725629.4, -241014.5, 0.054955374, 0.2513786, -1531641.1, 211659.45, 0.44859928, 9.999027, 10.001052 
2.1047728e+3, 1.3210694e+2, -1831841.6, -1935254.4, 51781.902, 0.18512182, -0.2594266, -1810370.8, -165007.47, 0.3298663, 9.999412, 9.998046 
2.1048142e+3, 1.4211252e+2, -1527187.6, -1590983.1, -5437.8687, -0.16648832, 0.4528512, -1526727.5, 20585.717, 0.20615475, 10.000218, 9.999366 
2.1048592e+3, 1.5210979e+2, -1471875.3, -1397839.1, -66063.29, -0.028439462, 0.112175904, -1359129.4, 90205.1, 0.10215144, 9.999436, 10.000412 
2.1049051e+3, 1.6210796e+2, -1556526.3, -1474866.0, -13735.265, 0.21893732, -0.06499588, -1472617.6, -121268.81, 0.036114734, 9.998511, 9.999633 
2.1049495e+3, 1.7210937e+2, -1317146.4, -1276712.6, -32900.94, 0.17321673, 0.060066745, -1258313.5, -4975.8354, 0.007176738, 9.999384, 9.999875 
2.1049929e+3, 1.8211035e+2, -1143720.9, -1133808.1, -32308.686, 0.07788712, 0.18143038, -1106077.9, 49251.074, 0.0003661867, 9.999829, 10.000004 
2.1050367e+3, 1.921096e+2, -1056081.6, -985923.1, -39021.33, -0.07271549, 0.04249813, -968531.25, 88800.45, 0.00000091193453, 9.999572, 10.000435 
2.1050803e+3, 2.0210877e+2, -1053562.9, -1087101.6, -94360.49, -0.118156426, -0.023346607, -974493.25, -15156.943, 0.0, 9.999511, 9.999137 
2.1051247e+3, 2.1210778e+2, -830032.4, -949042.06, -133328.61, 0.054108422, -0.047002, -743532.6, 117813.98, 0.0, 10.000487, 9.998926 
2.105169e+3, 2.2210671e+2, -720345.9, -942166.1, -79306.9, 0.17905061, -0.00044781674, -694908.5, 68449.984, 0.0, 10.000989, 9.998057 
2.1052116e+3, 2.3210508e+2, -660238.94, -855006.5, -54922.71, 0.088551655, 0.0031527092, -645818.8, 19558.309, 0.0, 10.00074, 9.99807 
2.1052554e+3, 2.4210359e+2, -533709.94, -696968.5, -1143.8573, 0.044301197, 0.044282567, -533701.94, 33691.54, 0.0, 10.000657, 9.998572 
2.1052998e+3, 2.5210285e+2, -363393.0, -493260.47, -11267.992, 0.045210883, 0.036613088, -362422.6, 106976.74, 0.0, 10.000902, 9.99915 
2.1053438e+3, 2.6210243e+2, -268652.28, -451977.84, -9630.069, 0.013963164, 0.10869735, -268147.8, 103254.25, 0.0, 10.00108, 9.9987 
2.1053874e+3, 2.7210152e+2, -173431.98, -337668.6, -40838.527, -0.049746547, 0.110475376, -163837.69, 109572.445, 0.0, 10.001032, 9.998799 
2.1054323e+3, 2.8209937e+2, -164221.81, -348093.8, -10619.186, 0.028945168, 0.05553019, -163610.55, 11820.907, 0.00000006547354, 10.000694, 9.998226 
2.105478e+3, 2.9209626e+2, -213788.98, -258482.42, 28921.666, 0.17353141, -0.14804895, -199586.58, -122122.95, 0.000004738257, 9.999456, 9.998739 
2.1055205e+3, 3.0209938e+2, -66916.68, 48230.215, 111190.15, -0.11032315, 0.20871186, 115868.39, 115868.39, 0.00002905632, 9.999122, 10.000728 
2.1055686e+3, 3.1209853e+2, 350478.75, 348891.34, -176466.16, 0.11380678, -0.064945534, 526153.0, 526153.0, 0.00007991688, 10.001571, 10.001557 
2.1147247e+3, 1.2207007e+2, -1663391.5, -1518139.5, -96694.484, -0.3839027, 0.47576177, -1469834.3, 273893.0, 0.46656317, 9.999229, 10.003017 
2.1147679e+3, 1.3206665e+2, -1829721.8, -1959656.5, 98322.78, -0.27150178, 0.0914801, -1776841.3, -131083.39, 0.34608045, 9.999536, 9.997813 
2.1148185e+3, 1.420648e+2, -1561620.6, -1749802.4, -7985.2764, 0.16033968, 0.15732594, -1561282.4, -13504.897, 0.21890919, 10.000536, 9.998127 
2.1148613e+3, 1.5206522e+2, -1439530.8, -1368103.1, -93717.22, 0.19511783, 0.14022654, -1303525.4, 146244.42, 0.110347085, 9.999599, 10.000568 
2.1149029e+3, 1.6206406e+2, -1554137.0, -1511922.1, -25145.414, 0.073575914, 0.027738126, -1500199.4, -148419.81, 0.040102176, 9.998685, 9.999297 
2.1149473e+3, 1.7206433e+2, -1355830.9, -1368839.1, 12911.534, 0.0020812163, 0.10125513, -1347877.8, -94096.266, 0.008443992, 9.99942, 9.99923 
2.1149921e+3, 1.8206488e+2, -1146287.1, -1151319.3, -51819.72, -0.026841752, 0.22321373, -1096922.4, 58856.1, 0.00052604213, 9.999881, 9.999857 
2.1150371e+3, 1.9206437e+2, -1066340.8, -982879.8, -42735.75, -0.015586645, 0.106834486, -964879.4, 92898.62, 0.0000034897541, 9.999473, 10.000499 
2.1150813e+3, 2.020637e+2, -1092681.1, -1112146.8, -87564.35, -0.010205157, 0.049796477, -1014310.3, -54529.152, 0.0, 9.999273, 9.999078 
2.1151255e+3, 2.1206272e+2, -880878.06, -984969.44, -82875.89, 0.07034479, 0.039329175, -835060.75, 26732.264, 0.0, 10.000211, 9.998805 
2.1151695e+3, 2.2206208e+2, -742152.94, -897126.56, -91658.52, 0.10339599, 0.11967086, -699616.9, 64184.793, 0.0, 10.000594, 9.998557 
2.1152122e+3, 2.320621e+2, -641446.25, -762700.4, -50475.113, 0.03790428, 0.21443549, -623184.94, 42618.605, 0.0, 10.000503, 9.998818 
2.1152551e+3, 2.4206135e+2, -579396.5, -701430.44, -11681.427, -0.069538094, 0.27192253, -578288.4, -10477.128, 0.0, 10.000275, 9.998718 
2.1152985e+3, 2.5205827e+2, -405492.7, -524988.3, 12124.004, -0.19044328, 0.030282447, -404274.97, 65561.62, 0.0, 10.000668, 9.999037 
2.1153428e+3, 2.6205605e+2, -361659.53, -536338.0, -22125.994, -0.23300526, -0.05313746, -358900.47, 12954.528, 0.0, 10.000627, 9.99833 
2.115389e+3, 2.720563e+2, -233430.55, -398285.72, -19801.053, -0.017076109, 0.091349296, -231085.56, 42769.61, 0.0, 10.000754, 9.998513 
2.1154343e+3, 2.820563e+2, -148939.67, -205007.89, -62270.152, 0.10439265, 0.21858479, -108684.086, 67173.06, 0.00000005479561, 10.0002165, 9.999439 
2.1154769e+3, 2.9205558e+2, -152243.63, -80488.07, 8283.646, 0.06440256, 0.083054766, -79544.2, -1681.0322, 0.0000044706885, 9.999217, 10.000085 
2.1155205e+3, 3.0205485e+2, -417546.88, -460030.72, 125226.93, -0.081140734, 0.12181223, -311773.03, -311773.03, 0.000027145721, 9.998257, 9.997616 
2.1155679e+3, 3.1205258e+2, 132299.73, 190887.14, 49084.875, -0.18928725, 0.050850935, 218755.02, 218755.02, 0.00007500438, 10.000376, 10.001017 
2.1247278e+3, 1.22019894e+2, -1699208.6, -955309.94, -216653.28, 0.26149088, 0.04112037, -896811.9, 847409.4, 0.48543465, 9.993864, 10.013258 
2.1247658e+3, 1.3202201e+2, -1901091.1, -1953140.8, 25624.693, -0.36461374, 0.10306015, -1890593.1, -244399.75, 0.3637423, 9.99891, 9.9981365 
2.1248196e+3, 1.4201924e+2, -1813557.4, -1886665.0, 22057.838, 0.32153994, 0.0689116, -1807417.8, -259196.3, 0.23315269, 9.998857, 9.998002 
2.1248616e+3, 1.5202028e+2, -1387589.4, -1364710.1, -108840.055, 0.2750582, 0.13294409, -1266710.1, 183499.14, 0.1197026, 10.00005, 10.00041 
2.1249022e+3, 1.6201939e+2, -1287220.6, -1403034.9, -31627.414, 0.0819574, 0.06476644, -1279146.5, 73070.93, 0.044803485, 10.000607, 9.999141 
2.1249467e+3, 1.7201908e+2, -1299988.8, -1364713.4, 9810.886, 0.0030279823, 0.100517645, -1298534.3, -44309.21, 0.01004214, 9.999899, 9.999037 
2.124992e+3, 1.8201928e+2, -1253579.3, -1212732.4, -876.7223, 0.013898455, 0.20330553, -1212713.5, -56488.11, 0.0007722133, 9.999183, 9.999767 
2.1250372e+3, 1.9201899e+2, -1013009.25, -971037.5, -26449.637, 0.04733751, 0.11492997, -958259.6, 99964.16, 0.000010944595, 9.999878, 10.000397 
2.1250817e+3, 2.0201853e+2, -945459.2, -1039305.06, -46313.19, 0.0844425, 0.09046734, -926452.8, 33772.508, 0.0, 10.000299, 9.999067 
2.1251257e+3, 2.1201771e+2, -868093.8, -969112.9, -64037.48, 0.09506979, 0.09140961, -837043.5, 25192.719, 0.0, 10.000292, 9.998845 
2.1251696e+3, 2.220171e+2, -766227.25, -898345.94, -51381.582, 0.11968232, 0.16308248, -748597.25, 15648.027, 0.0, 10.00037, 9.998662 
2.1252128e+3, 2.3201695e+2, -580458.44, -717331.44, -80570.19, 0.06638104, 0.23052944, -543182.56, 123065.58, 0.0, 10.000848, 9.998968 
2.125256e+3, 2.4201626e+2, -451404.7, -625696.3, -49918.625, -0.012957739, 0.28019968, -438120.13, 130134.625, 0.0, 10.001121, 9.998822 
2.1252993e+3, 2.520135e+2, -380523.25, -510197.75, -59150.28, -0.16248658, 0.079631425, -357595.9, 112680.8, 0.0, 10.000851, 9.999049 
2.1253437e+3, 2.6201132e+2, -360347.03, -519754.63, -52180.45, -0.17636597, -0.0058503496, -344785.44, 27509.557, 0.0, 10.000582, 9.998456 
2.1253899e+3, 2.7201086e+2, -296562.75, -410375.3, -64015.9, 0.037465353, 0.05732284, -267816.47, 6485.789, 0.0, 10.000274, 9.998649 
2.1254346e+3, 2.820111e+2, -117432.07, -162753.02, -80163.58, 0.14791737, 0.18775107, -56787.71, 119513.82, 0.000000117451826, 10.00027, 9.999736 
2.1254767e+3, 2.9201177e+2, 113874.72, 84005.4, -147868.28, 0.082399905, 0.1750097, 247560.63, 325853.06, 0.0000050467984, 10.000873, 10.00043 
2.1255219e+3, 3.020095e+2, -3614.254, -355501.22, 71143.57, 0.12944458, 0.0693347, 10225.077, 10225.077, 0.00002697455, 10.001389, 9.996898 
2.1255688e+3, 3.120086e+2, 83993.83, 108850.27, 45833.215, -0.09496671, 0.25680143, 143910.4, 143910.4, 0.00007158717, 10.000156, 10.000645 
2.1347673e+3, 1.3197376e+2, -1844450.4, -1838471.8, 6356.432, -0.14402957, -0.0909282, -1834436.8, -187774.94, 0.38411817, 9.998942, 9.998874 
2.1348163e+3, 1.4197536e+2, -1731157.5, -1756937.8, 9840.692, 0.04137029, 0.17013821, -1727830.5, -179180.75, 0.24951555, 9.999026, 9.998804 
2.1348599e+3, 1.519748e+2, -1390398.4, -1403545.8, -57422.254, 0.042016454, 0.09143158, -1339174.8, 111479.92, 0.13052814, 10.000192, 10.000028 
2.134903e+3, 1.6197397e+2, -1248564.1, -1376508.1, -57434.418, 0.03696169, 0.044852808, -1226564.4, 126098.2, 0.050404422, 10.000855, 9.999207 
2.1349473e+3, 1.7197354e+2, -1278514.4, -1329940.3, -13642.759, 0.03538296, 0.052286457, -1275119.3, -20450.59, 0.012084308, 9.999939, 9.999255 
2.1349917e+3, 1.819734e+2, -1249046.4, -1223431.4, -6500.1123, 0.004536369, 0.10774853, -1221876.3, -65205.227, 0.001155736, 9.999266, 9.999654 
2.1350366e+3, 1.9197339e+2, -1042641.56, -1020507.0, 13683.961, -0.024884578, 0.07394225, -1013974.94, 44694.273, 0.000030850606, 9.999819, 10.000089 
2.1350813e+3, 2.0197321e+2, -978404.94, -1054228.1, -54838.055, -0.046228345, 0.09829828, -949649.44, 11020.437, 0.0, 10.000073, 9.999072 
2.1351255e+3, 2.1197255e+2, -894832.6, -964198.6, -52413.004, 0.0054824855, 0.1021358, -866666.3, -3987.3804, 0.0, 10.000035, 9.9990015 
2.1351697e+3, 2.2197166e+2, -843437.75, -958516.5, -49825.785, 0.036601543, 0.14400586, -824862.8, -60172.914, 0.0, 9.999957, 9.998441 
2.1352136e+3, 2.3196983e+2, -649758.5, -802347.6, -45627.75, 0.031174257, 0.0813544, -637155.6, 29553.244, 0.0, 10.0006, 9.998504 
2.1352576e+3, 2.4196848e+2, -518445.28, -677451.0, -64275.383, -0.009118996, 0.10219653, -495712.97, 73009.586, 0.0, 10.00075, 9.998642 
2.1353015e+3, 2.519684e+2, -412576.94, -526727.75, -51602.73, -0.033659037, 0.1669574, -392707.94, 78013.74, 0.0, 10.000631, 9.99904 
2.135346e+3, 2.6196766e+2, -399936.3, -504279.13, -76120.38, -0.043079533, 0.21147841, -359824.63, 12903.018, 0.0, 10.000181, 9.998747 
2.1353896e+3, 2.719648e+2, -308969.0, -382680.72, -55614.0, -0.030324789, -0.0037102902, -279107.03, -4351.7905, 0.00000000014169585, 10.00004, 9.998954 
2.1354331e+3, 2.819633e+2, -244319.7, -294843.94, -83525.8, -0.077533595, -0.03481838, -182319.39, -5550.611, 0.000000256191, 9.999744, 9.99906 
2.1354775e+3, 2.9196483e+2, 11122.551, -51949.363, -86519.914, 0.039475974, 0.11535775, 71674.664, 150426.06, 0.0000052967753, 10.000533, 9.999656 
2.1355239e+3, 3.0196238e+2, -58415.28, -231574.53, 33014.355, 0.13706106, -0.023312839, -52334.348, -52334.348, 0.000025200057, 10.000461, 9.998153 
2.1355684e+3, 3.1196254e+2, -133245.67, -9793.168, 29173.453, -0.22202186, 0.10689456, -3246.2886, -3246.2886, 0.00006359548, 9.998853, 10.0004 
2.1447682e+3, 1.3192776e+2, -1723487.5, -1699940.4, 108711.89, 0.09314266, -0.110337496, -1602366.4, 44743.28, 0.40760165, 9.999449, 9.999667 
2.1448149e+3, 1.4193025e+2, -1814455.3, -1773063.9, 7945.8687, 0.04679818, 0.1738934, -1771591.0, -222501.77, 0.26811564, 9.998358, 9.999012 
2.1448591e+3, 1.5192914e+2, -1515028.3, -1489463.9, -54124.246, 0.0030719065, 0.05550236, -1446633.0, 4468.879, 0.14296411, 9.999421, 9.999752 
2.1449038e+3, 1.619285e+2, -1355411.3, -1416766.8, -62830.83, 0.09420246, 0.044987515, -1316168.8, 36940.695, 0.057087187, 10.000069, 9.9993 
2.144948e+3, 1.7192833e+2, -1217428.9, -1266465.6, -64750.43, 0.11237875, 0.049998403, -1172710.3, 82401.4, 0.014719365, 10.000257, 9.999526 
2.1449919e+3, 1.8192819e+2, -1137817.1, -1175760.1, -12983.826, 0.0876037, 0.092789434, -1133799.5, 23313.574, 0.0017550356, 10.000058, 9.9995985 
2.1450363e+3, 1.9192815e+2, -1026530.8, -1025062.1, 875.4295, -0.0076846383, 0.06617927, -1024653.8, 34458.656, 0.00008036648, 9.999995, 9.999962 
2.145081e+3, 2.0192799e+2, -1002555.3, -1062708.1, -29390.861, -0.044326257, 0.098650426, -990579.25, -29465.684, 0.000000018813253, 9.999889, 9.99911 
2.1451254e+3, 2.1192731e+2, -844319.2, -932249.0, -56914.29, 0.026424078, 0.09280768, -816366.44, 46755.434, 0.0, 10.000327, 9.999095 
2.1451701e+3, 2.2192636e+2, -726024.56, -879210.75, -16568.604, 0.08887543, 0.115580395, -724253.0, 40879.508, 0.0, 10.000672, 9.998644 
2.1452141e+3, 2.3192452e+2, -574245.2, -734603.6, 3987.044, 0.024953112, 0.031346798, -574146.1, 93004.32, 0.0, 10.001007, 9.99877 
2.1452583e+3, 2.419232e+2, -464774.16, -664048.56, 25318.932, -0.0041745063, 0.043459058, -461607.56, 107555.76, 0.0, 10.001163, 9.998542 
2.145303e+3, 2.519233e+2, -401392.9, -549749.75, -14156.181, 0.057529174, 0.14892809, -400054.22, 71109.19, 0.0, 10.000826, 9.998788 
2.1453474e+3, 2.6192266e+2, -328681.0, -470114.78, -20620.78, 0.10149945, 0.22183794, -325735.84, 47433.977, 0.0, 10.000632, 9.998783 
2.1453899e+3, 2.7192026e+2, -181171.78, -298367.5, -48033.1, -0.023573313, 0.040278435, -164000.98, 111191.52, 0.00000000016893417, 10.000812, 9.999167 
2.1454328e+3, 2.819189e+2, -121742.92, -319739.7, -36715.19, -0.102771126, 0.030621167, -115153.97, 62050.773, 0.0000002738674, 10.000898, 9.998346 
2.145478e+3, 2.9191872e+2, -15594.292, -165968.14, -94076.086, 0.057590123, 0.115669645, 29648.777, 108854.54, 0.0000047479944, 10.000792, 9.99874 
2.1455249e+3, 3.019159e+2, 116356.22, -30343.072, 35059.816, 0.18754998, -0.06329071, 124304.55, 124304.55, 0.000021563434, 10.001039, 9.999305 
2.1455698e+3, 3.1191784e+2, 148595.47, 107197.34, -140700.81, -0.020822078, 0.11755665, 270111.63, 270111.63, 0.000054127682, 10.000783, 10.000284 
2.1547683e+3, 1.3188368e+2, -1637703.8, -1604129.3, 34263.168, 0.007619568, 0.0348593, -1582761.9, 64778.797, 0.43279883, 9.999747, 10.000295 
2.154814e+3, 1.4188375e+2, -1773727.1, -1789041.3, -31990.727, 0.0132932635, 0.043747503, -1748489.9, -198948.19, 0.28823382, 9.998768, 9.998711 
2.1548589e+3, 1.5188335e+2, -1519832.3, -1532040.3, -5481.3955, 0.0070962915, 0.026025077, -1517732.4, -66181.94, 0.15688464, 9.999548, 9.999396 
2.1549039e+3, 1.6188297e+2, -1325608.9, -1402688.3, -63574.297, 0.03139752, 0.058217514, -1289804.8, 63753.45, 0.06501248, 10.000295, 9.999286 
2.1549483e+3, 1.7188331e+2, -1201562.6, -1235979.3, -56612.387, 0.07770486, 0.100222506, -1159600.9, 95954.375, 0.018139776, 10.000277, 9.99972 
2.1549922e+3, 1.8188351e+2, -1119267.8, -1161359.3, -34065.65, 0.06153868, 0.16443732, -1100271.1, 57281.883, 0.0026903055, 10.0001545, 9.999656 
2.1550362e+3, 1.9188322e+2, -1028367.44, -1013476.94, 6697.3843, -0.053834267, 0.10528125, -1010907.9, 48646.12, 0.00019736934, 9.999933, 10.00007 
2.1550806e+3, 2.0188282e+2, -1024080.94, -1067034.9, -36677.586, -0.1195728, 0.1019946, -1003054.9, -41498.313, 0.0000007869328, 9.999712, 9.999168 
2.155126e+3, 2.1188188e+2, -874119.5, -946771.4, -29469.7, 0.00659689, 0.067016274, -863669.0, -102.755775, 0.0, 10.000115, 9.999101 
2.1551709e+3, 2.2188105e+2, -745388.06, -832950.5, -18450.412, 0.059295982, 0.08287297, -741659.1, 23915.27, 0.0, 10.000297, 9.999142 
2.1552141e+3, 2.3188062e+2, -558542.25, -640528.06, 31060.742, -0.09707096, 0.064718306, -548103.75, 119472.82, 0.0, 10.000735, 9.999547 
2.155258e+3, 2.4187995e+2, -538118.4, -710076.56, 2948.5923, -0.18857205, 0.09308674, -538067.8, 31514.088, 0.0, 10.000719, 9.998432 
2.1553035e+3, 2.5187793e+2, -473419.6, -645851.5, -14883.764, -0.010493099, 0.033616997, -472144.3, -540.1331, 0.0, 10.000592, 9.998241 
2.1553479e+3, 2.6187629e+2, -402527.75, -528606.94, -29436.74, 0.05371955, 0.043624334, -395993.56, -22370.748, 0.0, 10.000235, 9.998568 
2.1553901e+3, 2.7187663e+2, -220463.64, -320801.72, -22350.918, -0.1078319, 0.14377907, -215710.05, 59910.188, 0.0, 10.000547, 9.999145 
2.1554333e+3, 2.8187665e+2, -267058.38, -481280.06, -54963.195, -0.18306042, 0.2993987, -253779.48, -76158.01, 0.000000100631844, 10.000342, 9.997483 
2.1554783e+3, 2.9187298e+2, -163979.11, -385477.4, -58094.887, -0.04065923, 0.15265347, -149666.72, -70007.94, 0.0000031808167, 10.000418, 9.997409 
2.1555234e+3, 3.0186886e+2, 25643.084, 8761.796, 14037.767, -0.1174303, -0.107526585, 33582.41, 33582.41, 0.000016664693, 10.000131, 9.999975 
2.1555713e+3, 3.1187534e+2, -55560.62, -83713.0, 28043.441, -0.040541206, 0.38560006, -38258.89, -38258.89, 0.000045618737, 9.999811, 9.999427 
2.1647674e+3, 1.3183728e+2, -1634066.1, -1544049.0, -21402.338, 0.001922128, 0.055776734, -1539219.5, 108780.49, 0.45757636, 9.999341, 10.00132 
2.164813e+3, 1.418373e+2, -1726380.8, -1667066.6, -66709.98, 0.06470181, 0.004133108, -1623718.5, -73720.52, 0.3088363, 9.998685, 9.999595 
2.1648584e+3, 1.5183829e+2, -1526594.8, -1489756.3, 15759.702, 0.050429326, 0.058517024, -1483934.4, -31940.83, 0.17204043, 9.999311, 9.999789 
2.164904e+3, 1.618386e+2, -1473396.0, -1467916.8, -14216.401, 0.088392735, 0.13963981, -1456178.4, -102183.95, 0.07433442, 9.999189, 9.999379 
2.1649483e+3, 1.718383e+2, -1289767.9, -1266430.0, -27835.238, 0.1012795, 0.10091682, -1247916.8, 8079.9956, 0.022589553, 9.999568, 9.999876 
2.1649922e+3, 1.8183811e+2, -1176279.3, -1184507.0, 21316.666, 0.093646325, 0.116426885, -1158683.1, -685.5612, 0.00413868, 9.999782, 9.99967 
2.1650366e+3, 1.918383e+2, -961872.44, -999532.3, 10906.271, -0.017030874, 0.11910911, -958942.0, 101052.89, 0.00045452762, 10.000491, 9.999903 
2.165081e+3, 2.0183803e+2, -881122.25, -1015606.7, -35405.816, -0.053316943, 0.14759333, -872370.5, 89626.19, 0.000007502901, 10.000751, 9.99902 
2.1651262e+3, 2.1183644e+2, -853790.94, -949688.4, -71052.69, 0.045133956, 0.06351878, -816021.7, 47990.133, 0.0, 10.000318, 9.998976 
2.1651712e+3, 2.2183532e+2, -795940.25, -845723.44, -41301.484, 0.09814294, 0.055969663, -772609.4, -6586.9663, 0.0, 9.9999075, 9.999234 
2.1652149e+3, 2.3183547e+2, -640193.1, -664756.75, -56669.09, -0.061493754, 0.08046605, -594490.2, 73528.92, 0.0, 10.000098, 9.99969 
2.1652588e+3, 2.4183513e+2, -582775.0, -711646.1, -87331.13, -0.12802604, 0.12804244, -538681.0, 31340.703, 0.0, 10.000306, 9.99863 
2.165304e+3, 2.5183296e+2, -471856.56, -605052.9, -89422.29, 0.0110539235, 0.03151838, -426957.38, 45087.918, 0.0, 10.000459, 9.998572 
2.1653484e+3, 2.6183155e+2, -346852.4, -494962.16, -30482.691, 0.07849792, 0.03924554, -340824.06, 33237.277, 0.0, 10.000576, 9.998639 
2.1653911e+3, 2.71832e+2, -210239.42, -319002.56, -51620.902, -0.052848414, 0.15525845, -189640.5, 86417.06, 0.0, 10.000643, 9.999107 
2.1654348e+3, 2.8183147e+2, -180009.67, -445332.22, -23631.941, -0.07200645, 0.2609943, -177921.23, 142.38998, 0.0000000029805467, 10.000934, 9.99746 
2.1654795e+3, 2.9182786e+2, 42888.055, -286493.75, 7886.508, -0.007114397, 0.1360186, 43076.773, 123179.16, 0.000001345268, 10.001851, 9.997395 
2.1655244e+3, 3.0182648e+2, 351225.75, 168410.97, 121186.516, -0.084186845, 0.13326918, 411612.6, 411612.6, 0.000010778314, 10.002339, 10.0000105 
2.1655717e+3, 3.1182805e+2, 84336.67, -116401.93, -47622.43, -0.007286933, 0.16810654, 95061.44, 95061.44, 0.00003608632, 10.001219, 9.998521 
2.1747671e+3, 1.3179046e+2, -1604716.4, -1462138.4, -162890.42, -0.043220986, 0.1773761, -1355620.1, 292849.56, 0.48078975, 9.999732, 10.002232 
2.1748115e+3, 1.4179161e+2, -1578174.8, -1480149.0, -21436.162, -0.03702002, 0.052874114, -1475666.4, 74785.39, 0.32934, 9.999082, 10.000922 
2.1748577e+3, 1.517941e+2, -1462706.9, -1388339.5, 32230.627, -0.010137722, 0.172445, -1376315.1, 76114.46, 0.18832743, 9.999389, 10.000551 
2.1749033e+3, 1.6179529e+2, -1430654.4, -1426296.9, -19719.717, 0.031952582, 0.29282054, -1408635.9, -54216.566, 0.0852701, 9.999383, 9.999569 
2.1749473e+3, 1.7179342e+2, -1259507.8, -1221726.6, 308.3269, 0.026085788, 0.06345617, -1221724.1, 34710.824, 0.028395085, 9.9996395, 10.000146 
2.1749915e+3, 1.8179204e+2, -1185630.1, -1226888.9, 26421.781, -0.017329963, -0.048342258, -1172738.1, -14291.864, 0.006367479, 9.999881, 9.999328 
2.1750371e+3, 1.9179307e+2, -1011416.25, -1088996.0, 46086.633, -0.043328248, 0.09458766, -989968.0, 70469.555, 0.0009868387, 10.000436, 9.999308 
2.1750823e+3, 2.0179333e+2, -934728.4, -1089131.5, -54383.953, -0.060621236, 0.22861692, -917496.4, 44939.895, 0.000047582707, 10.000575, 9.998607 
2.1751265e+3, 2.1179086e+2, -903704.2, -1000525.06, -79168.664, 0.001201876, 0.08037482, -859317.8, 5142.1885, 0.00000000032497088, 10.000083, 9.998743 
2.1751705e+3, 2.2178899e+2, -885364.94, -932123.75, -53785.035, 0.020515187, 0.026709048, -850097.7, -83619.55, 0.0, 9.999491, 9.998839 
2.1752153e+3, 2.3178884e+2, -713814.2, -750097.25, -32185.695, -0.022639805, 0.06632887, -695009.4, -26529.258, 0.0, 9.999819, 9.99923 
2.17526e+3, 2.4178852e+2, -624990.94, -682873.8, -95107.234, -0.058746815, 0.12931226, -554519.1, 15964.917, 0.0, 9.999821, 9.999051 
2.1753041e+3, 2.5178802e+2, -452655.28, -495279.34, -68673.125, -0.022054901, 0.11187354, -402063.2, 70426.52, 0.0, 10.00016, 9.999466 
2.1753481e+3, 2.6178792e+2, -405627.03, -494013.2, -43461.027, -0.02320917, 0.18595167, -387837.13, -13346.754, 0.0, 10.000074, 9.998875 
2.1753924e+3, 2.717864e+2, -261729.97, -356704.84, -29639.63, -0.02182187, 0.101678655, -253239.16, 23264.465, 0.0, 10.000366, 9.998971 
2.1754365e+3, 2.8178358e+2, -217891.78, -400342.94, -16899.633, -0.039329655, -0.031556528, -216339.66, -37808.99, 0.0, 10.000428, 9.998001 
2.175481e+3, 2.9178268e+2, 33275.97, -205979.28, 61809.63, -0.08106719, 0.021005994, 48300.484, 128844.336, 0.00000028754212, 10.001421, 9.99815 
2.1755277e+3, 3.0178663e+2, 135447.38, -50806.414, 66781.16, -0.071062066, 0.5595166, 156916.9, 156916.9, 0.0000061263827, 10.001427, 9.998906 
2.1755722e+3, 3.1177914e+2, -125400.484, -310795.63, 46797.785, -0.15227155, -0.19422066, -114257.445, -114257.445, 0.000027574106, 10.000231, 9.997636 
2.1848108e+3, 1.4174786e+2, -1715702.8, -1603448.3, 94356.71, 0.044805396, 0.10217535, -1549787.3, 1094.9764, 0.34983045, 9.998429, 10.000142 
2.1848585e+3, 1.517485e+2, -1425815.6, -1401606.3, -2880.348, 0.13530232, 0.11413256, -1401268.3, 51609.34, 0.2059314, 9.999807, 10.000265 
2.1849014e+3, 1.6175024e+2, -1601814.6, -1490422.3, -40797.793, 0.0065148934, 0.29612136, -1477078.4, -122217.39, 0.09816949, 9.998155, 9.999711 
2.1849468e+3, 1.7174882e+2, -1320565.6, -1229934.3, -37761.504, 0.04771645, 0.099686936, -1216263.1, 40609.113, 0.036017943, 9.999192, 10.000282 
2.1849914e+3, 1.817474e+2, -1189573.9, -1271480.5, -3907.9802, 0.019096985, -0.0129178455, -1189387.8, -30503.607, 0.009796201, 9.999987, 9.998986 
2.1850373e+3, 1.9174755e+2, -1096061.4, -1189770.6, -6221.9673, -0.006722321, 0.086541004, -1095650.0, -34765.266, 0.0020521113, 10.000066, 9.998799 
2.185083e+3, 2.0174733e+2, -1029587.56, -1134366.8, -65059.285, 0.012097735, 0.20527346, -998446.44, -35557.883, 0.00020967671, 9.999941, 9.9986 
2.1851264e+3, 2.1174549e+2, -851927.94, -955494.06, -98575.92, 0.010018549, 0.10638537, -792361.56, 72544.72, 0.00000086887735, 10.000357, 9.998925 
2.1851702e+3, 2.2174394e+2, -744397.6, -878310.75, -19901.848, 0.018397614, 0.08049674, -741502.44, 25418.998, 0.0, 10.000491, 9.998739 
2.1852155e+3, 2.3174344e+2, -693252.06, -756931.25, -5949.234, 0.026797429, 0.10238383, -692701.0, -23772.945, 0.0, 10.00004, 9.999077 
2.1852608e+3, 2.4174292e+2, -631163.56, -661014.56, -24406.273, 0.0464904, 0.14645249, -617480.7, -46546.414, 0.0, 9.99966, 9.999283 
2.1853045e+3, 2.5174275e+2, -485043.0, -470841.8, -61490.86, 0.026089331, 0.12941466, -416042.94, 56892.117, 0.0, 9.999743, 9.999842 
2.1853486e+3, 2.6174304e+2, -415739.34, -492162.44, -32312.95, 0.033888455, 0.21053559, -403908.44, -28977.469, 0.0, 9.999947, 9.998965 
2.1853933e+3, 2.7174148e+2, -207541.44, -339454.75, -47342.746, 0.053549558, 0.13961816, -192309.33, 84635.625, 0.0, 10.000763, 9.99891 
2.185438e+3, 2.8173873e+2, -58831.88, -265474.8, -20048.215, 0.043712366, -0.006196433, -56904.8, 122066.695, 0.0, 10.00123, 9.998561 
2.1854815e+3, 2.9173777e+2, -87655.484, -201720.16, -7485.266, -0.08051701, -0.019691743, -87166.375, -6181.312, 0.000000027227998, 10.00029, 9.998739 
2.1855289e+3, 3.0174235e+2, -68354.47, -230916.72, 78419.33, 0.016195105, 0.5814279, -36692.19, -36692.19, 0.0000044959556, 10.000289, 9.998262 
2.1855749e+3, 3.1173486e+2, 365570.7, 88313.26, -41491.563, -0.0016051979, -0.06921026, 371646.75, 371646.75, 0.000025056477, 10.0027685, 9.999228 
2.1948086e+3, 1.4170416e+2, -1773031.5, -1754709.9, 115180.586, -0.13228557, 0.15514323, -1648326.4, -97018.984, 0.371045, 9.998607, 9.998998 
2.1948606e+3, 1.5170057e+2, -1469838.6, -1526609.5, -59597.438, 0.33027163, -0.1354045, -1432212.0, 21133.77, 0.22535217, 9.999981, 9.999248 
2.194898e+3, 1.6170324e+2, -1565766.3, -1451106.3, -73892.22, -0.22020875, 0.15593004, -1414912.0, -59590.59, 0.113554515, 9.998319, 9.999899 
2.1949461e+3, 1.7170413e+2, -1333333.8, -1253624.5, 15269.249, 0.02872023, 0.20728543, -1250799.6, 6512.7944, 0.046104282, 9.999188, 10.000115 
2.194992e+3, 1.8170373e+2, -1189171.3, -1286690.3, -235.62401, 0.0066597844, 0.20909955, -1189170.6, -29854.76, 0.015073848, 10.000056, 9.998851 
2.1950373e+3, 1.9170175e+2, -1121083.3, -1225486.0, -472.0434, -0.048834454, 0.11716652, -1121081.1, -59745.17, 0.004138987, 10.000005, 9.998585 
2.1950825e+3, 2.0170015e+2, -1040095.4, -1111128.4, -75385.734, -0.060922846, 0.10364886, -992278.6, -28926.635, 0.00072646124, 9.999753, 9.998846 
2.1951263e+3, 2.1170005e+2, -858881.75, -904735.56, -73662.95, -0.083642274, 0.13588968, -804660.25, 60692.754, 0.000022642807, 10.000085, 9.999396 
2.1951696e+3, 2.2169994e+2, -793090.25, -881447.6, -41582.984, -0.11164305, 0.21298745, -776598.5, -9243.92, 0.000000000011542125, 10.000068, 9.9989195 
2.1952151e+3, 2.31699e+2, -720890.75, -760815.1, -11016.92, -0.057789356, 0.17777854, -718052.44, -48687.375, 0.0, 9.999807, 9.999159 
2.1952598e+3, 2.4169812e+2, -703846.44, -703395.6, -43555.676, -0.031698164, 0.18240379, -660064.8, -88690.484, 0.0, 9.999208, 9.999201 
2.1953042e+3, 2.5169715e+2, -527924.6, -510931.6, -43943.598, -0.0022476187, 0.09627639, -474670.66, -1289.0175, 0.0, 9.999532, 9.999667 
2.1953486e+3, 2.616967e+2, -502193.22, -558556.6, -27047.322, 0.0096266335, 0.12136929, -491313.84, -115928.99, 0.0, 9.999485, 9.998714 
2.1953937e+3, 2.716967e+2, -274276.38, -389522.53, 4201.6265, 0.009907957, 0.22140656, -274123.4, 3263.4045, 0.0, 10.000404, 9.99872 
2.1954384e+3, 2.8169593e+2, -117981.3, -248700.64, -52873.242, -0.061478462, 0.2642742, -99272.74, 80123.69, 0.0, 10.000661, 9.998937 
2.1954812e+3, 2.9169336e+2, -108213.79, -168002.6, -20428.762, -0.1768073, 0.0421915, -101900.33, -20477.254, 0.000000020729713, 9.999975, 9.999116 
2.1955276e+3, 3.0169365e+2, -214180.47, -355878.6, 126763.35, -0.18849222, 0.23590414, -139810.6, -139810.6, 0.0000055230016, 9.999578, 9.997712 
2.1955788e+3, 3.116924e+2, 288225.0, 261853.03, 85436.02, 0.037277903, 0.21100809, 361486.6, 361486.6, 0.000029811183, 10.001431, 10.001012 
2.2048064e+3, 1.4165814e+2, -1673486.1, -1669521.1, 142672.22, -0.19891012, 0.1590628, -1528817.6, 22942.361, 0.39437363, 9.999206, 9.99933 
2.2048596e+3, 1.516533e+2, -1666987.5, -1581937.6, -169044.73, 0.3376566, -0.21541017, -1450151.0, 3659.6802, 0.24751917, 9.998464, 9.999584 
2.2048973e+3, 1.6165757e+2, -1407715.9, -1384081.3, -96887.41, -0.16125678, 0.20084105, -1298293.1, 57478.375, 0.13222682, 9.999426, 9.999885 
2.2049455e+3, 1.7165796e+2, -1175763.3, -1257993.0, -34970.668, 0.024615038, 0.25937852, -1162902.4, 94866.18, 0.059555795, 10.000582, 9.999461 
2.2049925e+3, 1.8165714e+2, -1052929.3, -1195541.4, -75875.83, 0.05157804, 0.25577396, -1020111.9, 139664.86, 0.023171267, 10.00089, 9.999095 
2.2050376e+3, 1.9165528e+2, -1049034.9, -1125359.4, -70886.82, -0.009765836, 0.1254637, -1006690.6, 55102.93, 0.008108057, 10.000215, 9.999197 
2.2050825e+3, 2.0165405e+2, -1038752.3, -1051061.9, -53718.324, -0.016795322, 0.092218965, -990837.3, -27033.096, 0.0021629941, 9.999501, 9.999388 
2.2051263e+3, 2.1165454e+2, -860914.44, -850924.06, -60532.336, -0.05927774, 0.13302535, -795181.2, 70617.11, 0.00023583506, 9.999812, 9.999907 
2.20517e+3, 2.216547e+2, -788369.9, -868820.25, -17025.986, -0.07200659, 0.19943015, -784915.0, -17118.363, 0.0000019906881, 10.000053, 9.999021 
2.2052151e+3, 2.3165374e+2, -677904.7, -762258.56, -45307.11, -0.02662199, 0.17546365, -658181.5, 11626.828, 0.0, 10.000187, 9.998982 
2.20526e+3, 2.4165274e+2, -548587.75, -632238.1, -51577.91, 0.039414346, 0.18834238, -524007.9, 47811.28, 0.0, 10.000277, 9.999185 
2.2053045e+3, 2.5165194e+2, -386237.16, -418155.44, -65978.96, 0.051530153, 0.11104081, -334314.66, 139509.67, 0.0, 10.000459, 9.999838 
2.2053489e+3, 2.6165134e+2, -360585.66, -496930.0, -8188.8325, 0.060615968, 0.11167366, -360095.6, 15733.165, 0.0, 10.000466, 9.998676 
2.2053938e+3, 2.7165073e+2, -325520.47, -442791.2, 3042.5083, 0.0022378084, 0.16947655, -325441.6, -47604.434, 0.0, 10.000126, 9.99851 
2.2054388e+3, 2.8165042e+2, -196631.64, -268680.4, -24448.72, -0.028938916, 0.25979295, -189118.73, -9275.98, 0.0, 10.000043, 9.999097 
2.2054829e+3, 2.916487e+2, 123738.97, -22225.855, -70411.82, -0.06268593, 0.114345126, 152167.89, 234028.36, 0.00000007580395, 10.00143, 9.99942 
2.2055288e+3, 3.0164757e+2, 133666.06, -215582.64, 139977.95, -0.102358535, 0.14496174, 182844.06, 182844.06, 0.0000083740215, 10.002032, 9.99753 
2.2055808e+3, 3.1164762e+2, 115901.59, 195334.45, -37141.12, 0.19335388, 0.31785354, 209995.02, 209995.02, 0.000042885644, 10.0001135, 10.001197 
2.2148089e+3, 1.4161453e+2, -1583719.4, -1478467.8, 164857.95, 0.015471245, 0.6253499, -1358039.8, 194154.83, 0.4221777, 9.999201, 10.001234 
2.214855e+3, 1.5160637e+2, -1569875.9, -1398550.6, -93590.73, -0.012383001, -0.12236007, -1357338.0, 96937.695, 0.27423543, 9.99847, 10.001057 
2.2148986e+3, 1.6161291e+2, -1381778.3, -1382978.5, -76481.86, -0.028115507, 0.43648213, -1305894.3, 50320.203, 0.15564767, 9.999664, 9.999765 
2.2149451e+3, 1.7161025e+2, -1236023.3, -1393182.6, 7048.8784, -0.121217884, 0.26304755, -1235707.8, 22533.463, 0.07778218, 10.00061, 9.998502 
2.214993e+3, 1.8160763e+2, -1015772.94, -1126352.9, -101296.18, -0.06374173, 0.13095637, -955659.7, 204606.81, 0.035576556, 10.000939, 9.999558 
2.2150378e+3, 1.9160806e+2, -974769.25, -940385.75, -89940.31, -0.031125836, 0.112403214, -866008.9, 196249.7, 0.0154146915, 10.000092, 10.000532 
2.2150818e+3, 2.0160879e+2, -1009877.3, -947311.94, -65936.67, -0.06222516, 0.15706682, -905613.44, 58634.016, 0.005714695, 9.999307, 10.000195 
2.215126e+3, 2.1160886e+2, -852284.5, -781984.5, -34796.664, -0.077926375, 0.09214806, -767674.06, 98569.14, 0.0013616167, 9.999592, 10.0004835 
2.21517e+3, 2.216085e+2, -866023.94, -928674.2, -27529.727, -0.09605387, 0.07912503, -855645.94, -87401.19, 0.00013056793, 9.999621, 9.9988165 
2.2152153e+3, 2.3160744e+2, -754448.0, -858180.5, -27237.547, -0.028908873, 0.09062441, -747731.06, -77471.57, 0.0000045921656, 9.999913, 9.998455 
2.2152606e+3, 2.4160667e+2, -630196.25, -674468.8, -67390.05, 0.03110818, 0.16513482, -581399.94, -9129.9, 0.000000030624218, 9.999756, 9.999134 
2.215305e+3, 2.5160685e+2, -414826.72, -398663.16, -47205.26, 0.043880206, 0.15781568, -358852.84, 115413.234, 0.0, 10.000136, 10.000117 
2.215349e+3, 2.6160637e+2, -432748.13, -526524.8, -37539.52, -0.016442968, 0.1545072, -419572.06, -43303.254, 0.0, 9.999973, 9.998701 
2.215393e+3, 2.7160373e+2, -374429.75, -472010.03, 1252.8926, -0.12172178, 0.008636623, -374413.7, -96118.37, 0.0, 9.999837, 9.998437 
2.2154382e+3, 2.816025e+2, -307180.4, -367293.72, -11904.731, -0.13629985, 0.034752008, -304908.7, -124600.23, 0.0, 9.999508, 9.998662 
2.2154856e+3, 2.916033e+2, 44666.547, -83371.98, 8939.06, 0.050916564, 0.16585034, 45287.617, 127590.016, 0.00000027397763, 10.001008, 9.999189 
2.2155318e+3, 3.016033e+2, 36843.68, -230050.72, 75649.164, -0.0822303, 0.28901666, 56794.496, 56794.496, 0.000015050563, 10.001283, 9.99776 
2.2155784e+3, 3.115997e+2, -184175.38, -172579.38, 58839.445, -0.12487406, 0.09362231, -119252.95, -119252.95, 0.00007034586, 9.999088, 9.999134 
2.2248107e+3, 1.4155544e+2, -1628613.4, -1141117.8, 14806.583, 0.43574375, -0.17867668, -1140668.5, 412110.97, 0.45833316, 9.995766, 10.006892 
2.224853e+3, 1.515625e+2, -1484813.1, -1380548.1, 20977.656, -0.048461143, 0.13617638, -1376485.8, 78224.35, 0.30885017, 9.999093, 10.000875 
2.2248997e+3, 1.6156599e+2, -1278684.5, -1376134.0, -24672.42, 0.08902722, 0.44655827, -1272793.9, 83885.14, 0.18666483, 10.000659, 9.999314 
2.2249459e+3, 1.7156331e+2, -1213423.0, -1328113.6, 70016.18, -0.09853428, 0.2435279, -1180265.5, 78438.59, 0.103338934, 10.000602, 9.998952 
2.2249934e+3, 1.8156132e+2, -1171272.0, -1190348.5, 27028.943, -0.0025004032, 0.13922766, -1152147.6, 8573.966, 0.054786276, 9.999764, 9.999682 
2.2250377e+3, 1.9156201e+2, -1054301.4, -977901.1, -77506.13, -0.0043741944, 0.13980873, -929692.6, 133019.4, 0.028543482, 9.999509, 10.000558 
2.2250813e+3, 2.0156279e+2, -991402.44, -932066.7, -77637.195, -0.040607724, 0.18060184, -878621.9, 86079.33, 0.013685946, 9.999398, 10.000265 
2.225126e+3, 2.1156292e+2, -764086.06, -732481.4, -103793.375, -0.035699233, 0.11966224, -643294.3, 223401.47, 0.005262215, 10.000177, 10.000553 
2.2251709e+3, 2.2156256e+2, -698027.5, -846588.5, -101707.85, 0.0007188294, 0.10194194, -646363.25, 122333.47, 0.001420654, 10.000737, 9.998854 
2.2252159e+3, 2.3156108e+2, -680390.25, -814190.44, -95571.43, 0.022718905, 0.06731331, -630630.5, 40083.746, 0.0002619265, 10.000356, 9.998554 
2.2252604e+3, 2.4156004e+2, -610615.25, -671522.06, -71921.51, 0.06408641, 0.11212569, -562965.44, 9761.281, 0.000035642544, 9.999909, 9.999086 
2.2253051e+3, 2.515607e+2, -436869.4, -425130.6, -92978.195, 0.06947079, 0.16183002, -337836.72, 136882.72, 0.0000011567587, 10.000006, 10.000023 
2.2253494e+3, 2.6156065e+2, -379827.75, -464517.03, -65989.164, 0.046013467, 0.1993656, -343765.53, 32953.08, 0.0, 10.000171, 9.99904 
2.2253938e+3, 2.7155843e+2, -154443.27, -290188.3, -31754.807, -0.06322854, 0.049213193, -147382.17, 131356.84, 0.0, 10.001068, 9.999086 
2.2254393e+3, 2.8155732e+2, -58358.527, -293006.53, 12709.035, -0.056044336, 0.05331214, -57672.188, 123077.92, 0.0, 10.001385, 9.998292 
2.2254866e+3, 2.9155678e+2, -56355.984, -229649.77, -32066.96, 0.09424718, 0.1457462, -50612.54, 32146.969, 0.00000073017384, 10.000736, 9.998319 
2.2255334e+3, 3.0155686e+2, -24958.096, -243277.84, 14035.362, 0.03642244, 0.31071755, -24059.488, -24059.488, 0.00002755439, 10.00076, 9.997947 
2.2255781e+3, 3.1155145e+2, 345037.25, 101667.4, -100624.74, -0.20679203, -0.049101863, 381252.8, 381252.8, 0.000118261974, 10.002571, 9.999393 
2.234854e+3, 1.5152256e+2, -1680589.1, -1655272.1, 37860.74, 0.083964996, 0.67009807, -1628009.8, -172904.1, 0.35698506, 9.998767, 9.998851 
2.2348998e+3, 1.6151607e+2, -1338219.9, -1529649.6, -20652.969, -0.05757208, 0.1705809, -1336017.1, 21155.66, 0.23053116, 10.000678, 9.998243 
2.2349471e+3, 1.7151682e+2, -1115746.0, -1096126.4, 52656.496, -0.055702817, 0.17719118, -1052373.8, 206786.56, 0.14104874, 10.000515, 10.0007515 
2.2349939e+3, 1.8151812e+2, -1188906.4, -1223064.8, -4445.0215, 0.0029644582, 0.27022588, -1188337.5, -27194.256, 0.08532412, 9.999749, 9.999462 
2.235037e+3, 1.9151707e+2, -1158781.1, -1167897.1, -81056.25, -0.07270024, 0.21185096, -1082154.9, -19000.354, 0.05187056, 9.999395, 9.999293 
2.2350796e+3, 2.015162e+2, -1080180.3, -1056927.8, -78263.32, -0.17074144, 0.19716984, -989431.9, -24268.158, 0.030293982, 9.999146, 9.999522 
2.235126e+3, 2.1151656e+2, -829301.3, -809890.3, -61604.223, -0.07363823, 0.20576578, -757231.75, 109925.72, 0.015773455, 9.999926, 10.000144 
2.2351721e+3, 2.2151656e+2, -754582.3, -842724.94, -112318.15, 0.008740898, 0.24635631, -677998.5, 91156.22, 0.0069356123, 10.000233, 9.999113 
2.2352158e+3, 2.315146e+2, -668266.7, -727058.25, -95757.7, -0.03082321, 0.091972515, -597494.3, 73678.52, 0.002541045, 10.000092, 9.999271 
2.2352593e+3, 2.4151298e+2, -699453.7, -733273.8, -92886.29, -0.08953997, 0.039731763, -621950.75, -48762.68, 0.00075579167, 9.9994, 9.998897 
2.2353044e+3, 2.515136e+2, -514829.7, -510716.13, -74091.87, -0.02543951, 0.1227226, -438652.5, 36530.305, 0.00014769337, 9.999685, 9.999581 
2.2353494e+3, 2.6151422e+2, -450610.16, -467095.03, -68517.76, 0.0009464013, 0.2514767, -389840.84, -12663.709, 0.000007045108, 9.999579, 9.9992895 
2.2353958e+3, 2.715144e+2, -148196.34, -187277.31, 13831.611, -0.002751778, 0.25190455, -143796.4, 135376.02, 0.00000000065814787, 10.000687, 9.999964 
2.2354409e+3, 2.8151378e+2, -200271.84, -415016.97, -34003.402, -0.050482474, 0.2568207, -195016.27, -13839.4, 0.0, 10.000692, 9.997762 
2.2354856e+3, 2.915091e+2, -250526.58, -502438.63, -37147.992, -0.1189163, 0.05197747, -245162.8, -161932.63, 0.0000012574419, 10.000223, 9.996665 
2.2355334e+3, 3.0150783e+2, -211850.52, -418937.63, 34366.348, -0.08579986, 0.2403475, -206296.34, -206296.34, 0.000044073433, 9.999904, 9.9971285 
2.2355805e+3, 3.1150547e+2, 230196.28, 236987.36, 82759.03, -0.29620034, 0.15983953, 316420.47, 316420.47, 0.00018419352, 10.001065, 10.001016 
2.2448552e+3, 1.514754e+2, -1328819.9, -1611381.8, -66095.56, 0.12099181, 0.5627095, -1314123.5, 141448.14, 0.42759266, 10.002572, 9.997216 
2.244901e+3, 1.6146934e+2, -1386777.3, -1494698.3, 77221.34, 0.08196332, 0.112824745, -1346531.3, 11101.231, 0.29616648, 10.00005, 9.998809 
2.2449477e+3, 1.7147118e+2, -1182780.6, -1137210.1, 18817.652, 0.01365084, 0.21299277, -1130444.1, 129165.69, 0.19952731, 10.000028, 10.00074 
2.2449936e+3, 1.8147272e+2, -1198407.5, -1214771.3, -105107.82, 0.04044886, 0.3320773, -1101163.6, 60427.367, 0.13536815, 9.999664, 9.999578 
2.2450368e+3, 1.9147177e+2, -1081268.5, -1110475.4, -116495.76, -0.006381447, 0.26219812, -978464.44, 85136.92, 0.09319166, 9.999859, 9.9995 
2.2450803e+3, 2.0147096e+2, -960451.7, -1019105.8, 19066.016, -0.037144646, 0.24443631, -954798.9, 10810.946, 0.06306426, 10.0000105, 9.999393 
2.245127e+3, 2.114708e+2, -796843.4, -831988.25, 23291.268, 0.024066465, 0.23569086, -785239.2, 82370.05, 0.0400799, 10.000306, 9.999829 
2.2451729e+3, 2.2147048e+2, -700984.56, -799006.8, -17823.611, 0.068542205, 0.26215005, -697844.25, 71765.49, 0.023131557, 10.000496, 9.99931 
2.245216e+3, 2.3146965e+2, -665892.1, -676913.4, -75699.61, 0.0078072795, 0.1801737, -595502.9, 76112.54, 0.011994159, 9.999886, 9.999734 
2.245259e+3, 2.414684e+2, -688102.6, -777558.5, -43456.73, -0.016861523, 0.15567563, -670468.1, -96842.03, 0.0054928027, 9.999616, 9.998525 
2.2453041e+3, 2.5146702e+2, -458374.38, -553069.94, -52339.87, -0.010828544, 0.09892564, -435144.0, 40497.57, 0.002050329, 10.000344, 9.998992 
2.2453491e+3, 2.614662e+2, -343652.94, -451313.75, -49897.344, 0.02016958, 0.14518218, -324084.03, 53566.344, 0.0004876709, 10.000443, 9.998996 
2.245396e+3, 2.7146727e+2, -241550.56, -230582.55, -44173.43, 0.03456407, 0.24141477, -191554.02, 88082.71, 0.000047167257, 10.000018, 10.000005 
2.2454417e+3, 2.8146753e+2, -317745.0, -414733.94, -84642.54, 0.028197443, 0.3036031, -268689.1, -87056.97, 0.00000034188096, 9.999624, 9.998288 
2.2454865e+3, 2.9146296e+2, 32338.549, -317600.0, -3021.9146, -0.08907009, 0.07867198, 32364.643, 116047.414, 0.0000013302117, 10.001909, 9.997149 
2.2455354e+3, 3.0146143e+2, 173646.83, -240093.89, 180831.55, 0.008546892, 0.1961331, 241540.72, 241540.72, 0.0000584347, 10.002514, 9.997111 
2.2455817e+3, 3.1146047e+2, -95835.1, 212914.97, 55887.06, -0.08922926, 0.30317107, 222719.75, 222719.75, 0.00025945, 9.998153, 10.00225 
2.2549029e+3, 1.6142689e+2, -1363461.1, -1358300.3, 17438.578, 0.110571094, 0.3787943, -1343252.1, 14795.505, 0.39765337, 9.99966, 9.999937 
2.2549477e+3, 1.7142619e+2, -1297622.8, -1375796.4, 11650.285, -0.043574095, 0.35000765, -1295923.4, -35868.633, 0.29298013, 9.999979, 9.9988985 
2.2549927e+3, 1.8142489e+2, -1246360.1, -1235556.0, -150331.11, -0.12980436, 0.30960825, -1090529.9, 71537.61, 0.21888196, 9.999352, 9.999607 
2.2550374e+3, 1.9142558e+2, -1022922.06, -927692.25, -94823.625, 0.02775408, 0.26224664, -869200.1, 194857.6, 0.16615056, 9.999557, 10.001043 
2.2550826e+3, 2.014267e+2, -989361.6, -993011.5, 16475.783, 0.11247983, 0.30159763, -974610.0, -8566.274, 0.12546477, 9.999646, 9.999723 
2.2551279e+3, 2.1142536e+2, -860589.4, -895103.44, 45667.3, 0.07731366, 0.1856808, -829027.25, 39026.414, 0.0914258, 10.000021, 9.999508 
2.2551724e+3, 2.2142425e+2, -799612.94, -874736.75, -42792.47, -0.05185666, 0.15842994, -780235.5, -10173.363, 0.062582165, 9.999929, 9.99906 
2.2552161e+3, 2.3142588e+2, -707781.8, -694527.5, -89295.945, 0.006400013, 0.31953114, -611613.1, 60431.875, 0.039919913, 9.9995775, 9.999767 
2.2552595e+3, 2.4142592e+2, -852750.1, -934834.25, -56866.57, 0.03152565, 0.45352745, -823661.9, -249617.47, 0.023601582, 9.998857, 9.997793 
2.2553042e+3, 2.514208e+2, -567667.06, -681796.7, -14141.886, -0.060448904, 0.081636354, -565940.8, -89844.29, 0.012405956, 9.9999485, 9.99828 
2.2553484e+3, 2.614166e+2, -511422.75, -643400.94, -91051.96, -0.13273214, -0.11507659, -464961.78, -86823.08, 0.005154125, 9.999811, 9.997966 
2.2553945e+3, 2.7141735e+2, -361909.1, -362214.16, -51095.246, -0.12807894, 0.010908131, -310966.16, -30836.982, 0.0013586987, 9.999543, 9.9993105 
2.2554402e+3, 2.8141868e+2, -381201.16, -352758.16, -77964.89, -0.108826816, 0.20159654, -287728.3, -105614.234, 0.00015517221, 9.99884, 9.999068 
2.2554895e+3, 2.9141825e+2, 82402.95, -51099.703, 110356.65, -0.02916114, 0.2195458, 144625.77, 228744.17, 0.0000026982873, 10.001284, 9.999243 
2.2555377e+3, 3.0141726e+2, 55586.44, -257023.73, 39068.977, -0.081146166, 0.21512222, 60395.18, 60395.18, 0.000065484004, 10.001605, 9.997403 
2.2555794e+3, 3.114131e+2, -197345.03, 193668.63, 80364.69, -0.23356381, 0.07899424, 209541.56, 209541.56, 0.00034262822, 9.997415, 10.002456 
2.2649474e+3, 1.7137995e+2, -1003580.2, -1215573.1, -59073.953, -0.19559748, 0.30546784, -988230.06, 272277.9, 0.44342524, 10.002817, 9.999064 
2.2649932e+3, 1.8138236e+2, -1366128.3, -1433794.8, 106362.07, -0.0020846988, 0.38386452, -1288348.0, -125863.625, 0.3585124, 9.998861, 9.998467 
2.2650373e+3, 1.9138145e+2, -1216822.9, -1108666.6, -30232.951, 0.116885655, 0.3338281, -1100789.3, -36297.957, 0.29413474, 9.998619, 9.999999 
2.2650816e+3, 2.013804e+2, -1045385.1, -1051728.3, -24902.39, 0.09591413, 0.21482687, -1023453.1, -56953.42, 0.24160613, 9.999239, 9.99959 
2.2651245e+3, 2.1137908e+2, -1111326.8, -1041338.44, -41936.582, -0.15412323, 0.12812847, -1021713.3, -153202.89, 0.1940874, 9.998303, 9.999376 
2.2651695e+3, 2.2137815e+2, -1012306.8, -993164.3, -55577.332, -0.254393, 0.13335036, -946340.06, -175823.05, 0.14888066, 9.998478, 9.998973 
2.2652146e+3, 2.3137878e+2, -644596.44, -682859.56, -140764.94, -0.1230028, 0.2301216, -521668.9, 150838.9, 0.108788945, 10.000157, 9.9996195 
2.265259e+3, 2.4137832e+2, -507713.03, -766821.8, -81609.52, -0.007269799, 0.324591, -484151.6, 90358.82, 0.07581198, 10.001183, 9.997856 
2.2653061e+3, 2.5137606e+2, -428263.9, -651678.3, -38610.67, 0.09516966, 0.2558525, -421779.4, 54755.586, 0.048806984, 10.000961, 9.998072 
2.2653511e+3, 2.6137325e+2, -397409.22, -666727.7, -67054.125, 0.11743361, 0.24707331, -381637.84, -3073.5151, 0.026684597, 10.000825, 9.997363 
2.2653958e+3, 2.7137074e+2, -49213.688, -283893.72, -55563.164, -0.051980205, 0.11114888, -36723.258, 243864.3, 0.010897145, 10.001921, 9.998757 
2.2654402e+3, 2.8136972e+2, -87373.51, -201948.64, -84153.24, -0.06914176, 0.11163854, -42859.145, 139736.16, 0.002788968, 10.000764, 9.999214 
2.2654912e+3, 2.9137135e+2, 28992.03, -973.42865, 47641.07, 0.08447755, 0.29687092, 63950.805, 148528.23, 0.0003034348, 10.000608, 9.999924 
2.2655393e+3, 3.0137014e+2, -77867.24, -400668.66, -101300.88, -0.007407068, 0.2048146, -48710.727, -48710.727, 0.000074942734, 10.00107, 9.996696 
2.2655821e+3, 3.1136334e+2, 728800.5, 276863.47, -201789.39, -0.097635314, 0.12623827, 805785.3, 805785.3, 0.00045627946, 10.005184, 9.999412 
2.2750805e+3, 2.0133533e+2, -848348.7, -1212264.6, 87610.625, -0.0045983205, 0.36580762, -828355.4, 138590.56, 0.4526298, 10.002682, 9.9967985 
2.2751255e+3, 2.1133627e+2, -609925.7, -783569.75, -56538.914, 0.073066086, 0.5118096, -593139.25, 275797.25, 0.38963944, 10.002982, 9.999152 
2.275176e+3, 2.2133617e+2, -772185.1, -963453.56, -172635.58, 0.49433547, 0.60366625, -670464.5, 100470.74, 0.32267725, 10.0008135, 9.998071 
2.2752158e+3, 2.3132852e+2, -775804.4, -784814.8, -101417.5, -0.014445765, -0.10683821, -678792.06, -5790.119, 0.25840095, 9.999417, 9.99914 
2.2752573e+3, 2.4132456e+2, -769097.7, -950660.94, -72091.57, -0.39616638, -0.31923693, -743954.8, -168920.28, 0.20062341, 9.999611, 9.997312 
2.2753096e+3, 2.5133222e+2, -547028.06, -685491.8, -32889.492, 0.30021024, 0.5324118, -539612.9, -62650.34, 0.14660953, 10.000073, 9.998209 
2.2753565e+3, 2.6133582e+2, -765568.06, -1004213.2, -85073.38, 0.51012033, 1.2185117, -738345.9, -359415.44, 0.09444842, 9.999038, 9.995861 
2.2753997e+3, 2.7132782e+2, -191517.28, -404985.13, -14862.037, 0.09182525, 0.56073034, -190487.52, 90520.12, 0.04983968, 10.001232, 9.998205 
2.275441e+3, 2.813214e+2, -367723.8, -459089.1, -212403.81, -0.128155, 0.09641004, -196145.6, -13076.348, 0.019500945, 9.999434, 9.998049 
2.2754909e+3, 2.9132265e+2, -140849.08, -166105.03, 46555.547, -0.012666479, 0.27303544, -105239.266, -20183.594, 0.004786881, 9.999864, 9.999108 
2.275539e+3, 3.0132043e+2, -433771.38, -828394.0, -92884.914, -0.20294464, 0.17290455, -413001.6, -413001.6, 0.0007184054, 9.999853, 9.994288 
2.2755867e+3, 3.1131268e+2, -81447.484, -815725.4, 122279.5, -0.21455877, 0.2991839, -61619.656, -61619.656, 0.0007782504, 10.002867, 9.992915 
2.2852632e+3, 2.4127927e+2, -912906.5, -1287953.6, 39881.742, 0.1159839, 0.19595352, -908712.5, -333232.38, 0.45869297, 9.9987, 9.996065 
2.2853011e+3, 2.5128055e+2, -342571.66, -346238.88, -389568.56, -0.6106081, 0.50312227, 45167.613, 522638.1, 0.36361384, 10.001056, 10.001244 
2.2853479e+3, 2.6126435e+2, -403521.28, -573113.6, -127334.93, -0.36371425, -1.1231827, -335331.9, 44296.914, 0.26167566, 10.000216, 9.998379 
2.2853994e+3, 2.7127108e+2, -96822.516, -406075.94, -16611.559, -0.062699385, -0.28937462, -95932.78, 185630.72, 0.1640845, 10.002202, 9.997861 
2.2854404e+3, 2.812738e+2, -439810.28, -600092.9, -279121.1, -0.06153513, 0.257574, -229553.2, -46015.402, 0.0825175, 9.999237, 9.99725 
2.2854915e+3, 2.91271e+2, 337966.22, -33504.344, 135048.28, -0.117639296, 0.12755123, 381873.34, 467439.13, 0.030766662, 10.003447, 9.998426 
2.2855444e+3, 3.0126995e+2, 741326.0, 234139.33, -25120.271, 0.09258554, 0.04126757, 742567.1, 742567.1, 0.009050815, 10.005592, 9.998943 
2.2855864e+3, 3.1127068e+2, -582582.06, -195499.31, 332296.16, -0.13693978, 0.43515125, -4490.298, -4490.298, 0.003969087, 9.995659, 10.000633 
2.295409e+3, 2.712337e+2, 423127.88, -57565.824, 46344.098, 0.6189091, 0.85902345, 427555.2, 709485.0, 0.43463832, 10.009296, 9.9978 
2.2954394e+3, 2.812263e+2, -1660872.3, -1784245.8, -500248.56, -0.20595634, 0.50218225, -1218521.4, -1034515.2, 0.25422186, 9.993557, 9.991754 
2.2954921e+3, 2.9122043e+2, 68541.555, -245465.7, 420796.2, -0.48281062, -0.111100025, 360669.94, 446737.5, 0.12193372, 10.002277, 9.997498 
2.2955544e+3, 3.012232e+2, -81380.79, 190977.98, -233053.0, 0.3823845, 0.21003757, 324721.78, 324721.78, 0.05439976, 9.998571, 10.001947 
2.2955845e+3, 3.112355e+2, 138865.13, 1993729.8, -339542.2, -0.10412146, 0.06414861, 2053930.8, 2053930.8, 0.032234315, 9.992844, 10.01725 
2.3055048e+3, 2.9117924e+2, -55552.023, 242126.25, -500850.0, 0.20434451, 0.023648808, 615784.8, 702257.5, 0.3640979, 9.998316, 10.005015 
2.3055507e+3, 3.011962e+2, -754053.4, -512285.06, 368688.63, -0.37322852, 0.74936664, -245168.83, -245168.83, 0.21948875, 9.994994, 9.998948 
2.3055889e+3, 3.111836e+2, 401614.28, -1370276.6, 30161.342, -0.05533561, 0.27579847, 402127.53, 402127.53, 0.17331895, 10.009292, 9.986897 
2.344048e+3, 2.8666538e+2, -3215300.3, -461656.75, -626067.8, 0.17090176, -0.050458148, -325997.4, -195299.08, 0.47805744, 9.973586, 10.009525 
2.3581518e+3, 1.7711152e+2, -1232711.1, -1153603.5, -191817.81, 0.10618421, -0.76762295, -997303.9, 206993.97, 0.4366117, 9.998652, 10.000934 
2.357783e+3, 1.8710849e+2, -1500031.4, -1475833.1, -536469.0, 0.19465274, -0.3742145, -951326.8, 155013.27, 0.37773886, 9.997843, 9.998003 
2.3574087e+3, 1.971091e+2, -1114537.8, -1385623.1, 278864.56, 0.31871146, 0.36337557, -940020.3, 68324.6, 0.33363798, 10.000086, 9.996741 
2.3570275e+3, 2.0709567e+2, -645185.25, -570076.75, 21641.143, -0.5411934, -0.23226634, -564287.44, 346192.25, 0.30109847, 10.000842, 10.002056 
2.3566602e+3, 2.1709783e+2, -1200258.3, -947643.8, -248542.14, 0.22082557, 0.2933566, -795155.94, 17300.652, 0.27833992, 9.996001, 10.000545 
2.3562868e+3, 2.2709762e+2, -375168.06, -738218.94, -246064.78, 0.08525645, 0.98220074, -250916.86, 463539.6, 0.2613125, 10.003249, 9.99793 
2.3559158e+3, 2.3707977e+2, -979673.56, -978050.5, -214526.2, -0.0699191, -0.15397416, -764334.3, -147705.06, 0.24582523, 9.997078, 9.998534 
2.3555563e+3, 2.4707636e+2, -428426.34, -370070.75, 46056.25, 0.8375323, 0.14171751, -344727.7, 173936.98, 0.23021871, 9.999457, 10.000957 
2.3551841e+3, 2.5707743e+2, -702424.25, -699095.3, -164669.9, 0.30921274, 0.77661335, -536081.44, -115422.66, 0.2101854, 9.997491, 9.998893 
2.3548022e+3, 2.6707226e+2, 569679.25, 219236.95, -183429.83, 0.05911448, 0.86793613, 648129.06, 970840.25, 0.17676106, 10.005825, 10.001304 
2.354435e+3, 2.7705732e+2, 99710.91, -812237.8, 435992.94, 0.5240647, 0.19856064, 274610.9, 499468.47, 0.13596343, 10.005184, 9.9931 
2.354053e+3, 2.870486e+2, 1321388.0, 905133.06, 31991.063, 0.28581658, 0.18903172, 1323832.4, 1450770.6, 0.12719576, 10.009055, 10.003298 
2.3536746e+3, 2.9705188e+2, -3273.4395, 423067.88, 599401.5, -0.5864387, 0.25517002, 846076.3, 874976.8, 0.18621881, 9.9979, 10.005028 
2.353333e+3, 3.070437e+2, 84822.414, 72412.586, -351671.8, 0.9853646, 0.068512544, 430344.06, 430344.06, 0.3105452, 10.001647, 10.000591 
2.3688804e+3, 1.5750638e+2, -904024.1, -633979.6, -104247.055, -0.353583, -0.18146211, -598419.2, 798019.06, 0.40918007, 10.0008545, 10.007893 
2.3685141e+3, 1.6750087e+2, -1135990.4, -1954869.3, -208686.02, 0.017793855, 0.06742536, -1085875.1, 212614.63, 0.31914407, 10.004594, 9.992629 
2.3681568e+3, 1.7749579e+2, -1409880.0, -1998027.3, 153204.47, 1.2105579, 0.86550015, -1372365.1, -171815.66, 0.25440222, 10.000788, 9.993647 
2.3677802e+3, 1.8748747e+2, -783071.0, -458378.84, 54433.48, 0.792545, 0.72253126, -449496.28, 653140.4, 0.20803185, 9.999642, 10.005107 
2.3673958e+3, 1.9748226e+2, -845290.6, -678363.7, -120888.45, -0.23169951, 0.3465864, -614925.25, 389765.53, 0.17323136, 9.99927, 10.002559 
2.3670213e+3, 2.074729e+2, -908596.8, -1036091.44, -103427.9, -0.39235598, 0.09790258, -850849.06, 55934.348, 0.14628568, 10.00004, 9.998482 
2.3666547e+3, 2.1746206e+2, -622127.1, -901783.44, -69594.96, 0.39045727, -0.20170511, -605765.1, 203124.83, 0.12553912, 10.001519, 9.998132 
2.3662855e+3, 2.2745691e+2, -338453.2, -459444.16, 86767.28, 0.61728966, 0.017776256, -293174.06, 417764.63, 0.108313076, 10.001858, 10.000435 
2.3659112e+3, 2.3745143e+2, -427009.8, -556749.56, 66449.5, 0.2981676, 0.112912826, -399016.16, 213973.33, 0.092006706, 10.000758, 9.999548 
2.3655403e+3, 2.4744259e+2, -341232.53, -73130.35, 126718.7, 0.1864801, -0.25864097, -22716.473, 492357.8, 0.07587349, 9.999045, 10.003167 
2.3651765e+3, 2.574305e+2, -806145.4, -680253.25, 166692.3, 0.49445888, -0.95891786, -565018.2, -147826.78, 0.059167173, 9.997003, 9.999075 
2.3648003e+3, 2.674305e+2, -64006.832, 342914.34, -133545.92, 0.28628257, -0.5045856, 382827.38, 702020.4, 0.040480368, 9.998894, 10.004605 
2.3644254e+3, 2.774349e+2, -337614.13, -390937.06, 80826.6, -0.12096274, 0.23414621, -279165.25, -58011.62, 0.02279284, 9.999357, 9.998442 
2.3640527e+3, 2.8742594e+2, 217346.17, -148004.16, -272123.16, 0.35740674, 0.20565169, 362422.78, 485661.78, 0.018051151, 10.003051, 9.997538 
2.3636858e+3, 2.974153e+2, 132144.56, -98393.4, 163288.31, 1.1308401, -0.4089221, 216750.58, 242089.8, 0.03863324, 10.00172, 9.998312 
2.363311e+3, 3.0741492e+2, -414264.44, -400173.44, 98307.7, -0.43028867, 0.44311327, -308659.1, -308659.1, 0.08556355, 9.998428, 9.997644 
2.3792472e+3, 1.4787167e+2, -2176169.5, -2273890.5, 496515.28, 0.69179285, -0.4501453, -1726116.4, -235262.39, 0.38968349, 9.996866, 9.995379 
2.3788854e+3, 1.5787162e+2, -1684773.1, -1906582.9, -61618.133, 0.5300188, 0.4456603, -1668805.3, -275929.03, 0.27836236, 9.99909, 9.996372 
2.3785129e+3, 1.6786566e+2, -927473.75, -585452.4, -151239.25, 0.14394076, 0.29014662, -528169.44, 766762.6, 0.19862524, 9.999976, 10.005363 
2.3781365e+3, 1.7786059e+2, -1196854.3, -1012520.75, -2977.9563, -0.36513656, -0.16560721, -1012472.6, 184499.95, 0.1461588, 9.998558, 10.001626 
2.3777632e+3, 1.8785721e+2, -1274805.4, -1223912.5, -34566.902, -0.30028224, 0.18958198, -1206435.9, -107426.48, 0.11113541, 9.9986515, 9.999105 
2.3773926e+3, 1.9785257e+2, -1374983.4, -1331984.5, -169939.44, 0.070106685, 0.39840263, -1182189.9, -181127.48, 0.08556882, 9.997504, 9.998421 
2.3770219e+3, 2.0784561e+2, -986361.7, -850741.1, -69891.57, 0.2534898, 0.3780696, -821170.4, 81959.61, 0.065839775, 9.998625, 10.000393 
2.3766479e+3, 2.1783662e+2, -977543.6, -1014648.56, -28609.4, 0.10038527, 0.06900263, -961997.8, -156783.2, 0.050802168, 9.998762, 9.998633 
2.3762754e+3, 2.2782968e+2, -700154.3, -613606.2, 29387.354, 0.007398429, 0.05668928, -604570.94, 102709.87, 0.03888462, 9.999223, 10.000386 
2.3759063e+3, 2.3782337e+2, -937863.94, -881268.06, -119.64305, 0.18571424, 0.06992725, -881267.8, -271926.63, 0.028499532, 9.9976635, 9.998743 
2.3755342e+3, 2.478186e+2, -529218.8, -176055.14, 11490.333, 0.1790065, 0.12114866, -175681.69, 335704.97, 0.019239584, 9.997979, 10.002681 
2.3751648e+3, 2.5781235e+2, -1012767.4, -752372.1, 82217.12, 0.13300996, -0.015473285, -728585.75, -315138.8, 0.01143259, 9.995667, 9.999176 
2.3747927e+3, 2.6780874e+2, -335599.03, -18752.432, -174971.9, 0.24309525, 0.16819179, 58860.51, 374344.63, 0.005417436, 9.998264, 10.002169 
2.3744217e+3, 2.778051e+2, -553885.75, -556061.7, -57342.703, 0.16843668, 0.23926604, -497620.7, -280097.53, 0.0017240121, 9.998183, 9.997898 
2.3740466e+3, 2.877947e+2, 161835.58, -336359.28, -258022.03, 0.015839614, 0.21372838, 271381.28, 391010.3, 0.0009965353, 10.003301, 9.996169 
2.373679e+3, 2.977884e+2, 309778.78, -288196.5, 20318.768, 0.27233157, 0.28763974, 310468.4, 332162.94, 0.0037784507, 10.004, 9.995987 
2.3733161e+3, 3.077779e+2, 279220.2, -8645.932, 110913.94, -0.04555944, 0.388479, 316997.4, 316997.4, 0.011109938, 10.002851, 9.998344 
2.3895983e+3, 1.3824397e+2, -1327874.5, -1367986.4, -171694.3, -0.33055177, 0.0064200666, -1175068.8, 410129.25, 0.42782918, 10.001957, 10.000807 
2.3892361e+3, 1.4823927e+2, -1203440.0, -1222491.5, -66287.38, 0.07092801, -0.0041751745, -1145997.4, 341257.38, 0.29985446, 10.001551, 10.001241 
2.3888762e+3, 1.5823792e+2, -1658326.8, -1450629.4, 141013.89, 0.3609544, 0.36953706, -1379351.1, 9931.529, 0.19614406, 9.997112, 10.000581 
2.3885052e+3, 1.6823323e+2, -1203299.6, -691723.1, -73244.78, 0.14688112, 0.19709975, -681442.94, 609883.06, 0.12585048, 9.997391, 10.005414 
2.3881301e+3, 1.7822774e+2, -1126522.3, -888946.75, -234756.52, -0.22685184, -0.25096288, -744635.4, 448736.47, 0.083471425, 9.998612, 10.002501 
2.3877583e+3, 1.8822314e+2, -1110429.6, -1141249.5, -281845.66, -0.052975815, -0.09401428, -843572.94, 251847.25, 0.057587944, 9.999707, 9.999267 
2.3873879e+3, 1.9821821e+2, -938535.9, -1090865.4, -204281.61, 0.30770367, 0.12312656, -796682.2, 200793.02, 0.03970386, 10.000216, 9.9988365 
2.3870145e+3, 2.0821314e+2, -746346.0, -667702.0, -143136.47, 0.21668448, 0.22451009, -558584.56, 340941.34, 0.026570952, 9.999835, 10.001145 
2.3866397e+3, 2.1820743e+2, -823072.06, -794587.2, -138013.73, -0.026306998, 0.19950394, -670082.94, 131497.17, 0.017417854, 9.999118, 9.999998 
2.3862678e+3, 2.2820133e+2, -756212.3, -568922.2, -98395.88, 0.017816026, 0.17614901, -526732.25, 176905.13, 0.011141793, 9.998543, 10.001024 
2.3858984e+3, 2.3819429e+2, -815723.06, -747070.1, -23775.67, 0.21847942, 0.0896956, -739640.25, -133936.38, 0.0065593217, 9.998183, 9.999377 
2.3855266e+3, 2.4818939e+2, -312611.97, -210192.75, -22171.893, 0.15590465, 0.1828613, -205598.98, 302152.03, 0.0032030866, 10.000017, 10.001439 
2.3851568e+3, 2.5818494e+2, -217551.61, -396324.6, -11072.304, 0.056877136, 0.3233793, -216868.47, 192925.61, 0.0011282732, 10.001204, 9.998921 
2.3847866e+3, 2.6817924e+2, 101306.59, -12617.313, -209395.66, 0.2686936, 0.41171148, 261349.72, 573200.8, 0.00023273825, 10.0021, 10.000368 
2.384418e+3, 2.7817154e+2, -92075.3, -324323.44, -102913.83, 0.46560013, 0.23038541, -53034.758, 160893.53, 0.000018977813, 10.001202, 9.998032 
2.3840424e+3, 2.8816107e+2, 218618.64, -335382.53, -107508.766, -0.09616342, 0.16939774, 238750.11, 354787.94, 0.000039610317, 10.0037565, 9.995929 
2.383673e+3, 2.9815638e+2, 224916.03, -535877.9, 55929.484, -0.077659026, 0.6077889, 229005.69, 247097.5, 0.00031053094, 10.0042305, 9.994138 
2.3833178e+3, 3.081411e+2, -244221.31, -29359.195, -272291.56, 0.74619204, 0.21727058, 155928.25, 155928.25, 0.0010092406, 9.998429, 10.000108 
2.3999776e+3, 1.2860654e+2, -1912770.4, -2068632.3, 21564.025, 0.617239, -0.20299195, -1909842.0, -230193.25, 0.4904386, 9.999711, 9.996357 
2.3995996e+3, 1.3860208e+2, -1673611.4, -1727510.3, -176568.03, 0.07963967, 0.044515662, -1521948.0, 59757.813, 0.36336115, 9.999597, 9.998654 
2.3992307e+3, 1.486025e+2, -1123570.3, -500416.84, 16902.246, 0.07206006, 0.1279782, -499958.72, 983743.94, 0.24041095, 9.998545, 10.008812 
2.3988633e+3, 1.5860377e+2, -1703139.6, -1055152.6, 22465.705, 0.040307853, 0.014474017, -1054374.6, 331313.2, 0.14389461, 9.995066, 10.004506 
2.3984961e+3, 1.6860083e+2, -1563712.9, -1123673.1, -22931.947, 0.19627385, 0.065878816, -1122481.4, 165233.7, 0.08188297, 9.996457, 10.002328 
2.3981284e+3, 1.785954e+2, -1476723.6, -1284753.8, -182033.48, 0.41555452, -0.069510795, -1174949.3, 14817.733, 0.047678713, 9.997326, 10.000213 
2.3977561e+3, 1.8858942e+2, -1123261.3, -943816.56, -218379.16, 0.45365536, -0.10350235, -797446.6, 294381.38, 0.028905774, 9.9988365, 10.000978 
2.3973823e+3, 1.9858387e+2, -1151486.4, -1130557.4, -199732.05, 0.40591663, -0.11788846, -941015.9, 52870.313, 0.017015342, 9.998662, 9.999257 
2.3970069e+3, 2.0857993e+2, -906940.75, -721933.8, -168265.4, 0.17089939, 0.071113594, -622421.3, 273507.4, 0.00915297, 9.998839, 10.001155 
2.3966323e+3, 2.1857585e+2, -1117421.6, -959422.8, -178022.69, 0.02008954, 0.20439795, -843658.3, -45686.82, 0.0045936005, 9.997389, 9.999677 
2.3962598e+3, 2.2857122e+2, -793940.1, -476154.4, -137144.17, 0.0554818, 0.25048816, -425153.34, 274859.84, 0.0022051786, 9.997929, 10.001908 
2.3958884e+3, 2.3856486e+2, -1027112.4, -877919.25, -45178.105, 0.0685725, 0.13270794, -865305.1, -263234.53, 0.0009056362, 9.996973, 9.999063 
2.3955195e+3, 2.4855766e+2, -505690.1, -432669.22, 14588.547, 0.11860651, 0.07132419, -429862.53, 74277.805, 0.00023937336, 9.99948, 10.0000515 
2.395153e+3, 2.5855e+2, -517341.03, -733021.25, -18013.12, 0.1734537, -0.009119658, -515846.97, -109631.06, 0.000025130046, 10.000059, 9.997172 
2.3947829e+3, 2.6854384e+2, 47935.188, -137166.9, -200703.19, 0.29886287, 0.16737087, 176398.77, 484673.6, 0.00000030344088, 10.002254, 9.99941 
2.3944129e+3, 2.7853796e+2, -141365.5, -344031.88, -105284.484, 0.32520178, 0.1880645, -96571.22, 113760.85, 0.0000000068303647, 10.000901, 9.998067 
2.3940398e+3, 2.885272e+2, 299602.72, -136199.88, 29058.363, -0.15568711, -0.01369678, 301531.72, 413973.28, 0.0000039429096, 10.003741, 9.997267 
2.3936696e+3, 2.9851893e+2, 98127.44, -614787.4, 59635.17, -0.587829, 0.0693564, 103081.484, 117608.52, 0.00006190627, 10.0034895, 9.9939375 
2.3933117e+3, 3.0850866e+2, -70137.89, 281789.03, -205014.36, 0.58582145, 0.01393972, 375999.63, 375999.63, 0.0002690841, 9.998424, 10.00227 
2.4099666e+3, 1.2898152e+2, -1414767.8, -1341457.8, -133518.47, -0.08505984, 0.11862829, -1239654.1, 436324.22, 0.44510007, 10.001167, 10.002958 
2.4095935e+3, 1.3897493e+2, -1767572.5, -1544762.9, 161715.22, 0.21183632, -0.2162016, -1459793.5, 118247.016, 0.31930807, 9.997436, 10.00137 
2.4092232e+3, 1.4897354e+2, -1620775.1, -1111749.0, 174775.69, 0.18768544, -0.02012524, -1057517.1, 422542.28, 0.20041417, 9.996542, 10.004201 
2.408853e+3, 1.5897216e+2, -1733690.0, -1265588.0, -32512.932, 0.01516664, 0.05814999, -1263340.5, 118738.14, 0.110025235, 9.995754, 10.002482 
2.4084859e+3, 1.6896884e+2, -1470357.5, -1059457.5, -38142.492, 0.13029586, 0.11530538, -1055946.9, 228165.22, 0.054970514, 9.996928, 10.002588 
2.4081188e+3, 1.7896442e+2, -1339916.6, -1127178.1, -82056.68, 0.2891727, 0.08635153, -1099205.5, 86949.7, 0.027314784, 9.99772, 10.001147 
2.407747e+3, 1.889592e+2, -1016286.06, -830217.56, -127686.95, 0.31098616, 0.058111683, -765266.56, 322940.8, 0.013986388, 9.9991665, 10.001648 
2.4073741e+3, 1.9895354e+2, -861367.3, -888852.1, -138497.52, 0.23551998, 0.003717002, -735932.06, 254332.27, 0.006556314, 10.000106, 10.000248 
2.4069993e+3, 2.0894861e+2, -720668.44, -657674.75, -184326.86, 0.118419036, 0.08737563, -502173.1, 390142.25, 0.002469395, 10.000202, 10.00096 
2.4066247e+3, 2.1894369e+2, -693721.8, -755150.1, -159424.61, 0.004019342, 0.18979323, -562079.6, 232286.69, 0.00078321603, 10.00012, 9.999806 
2.4062537e+3, 2.2893828e+2, -378854.66, -391572.2, -187988.22, 0.10751175, 0.20934628, -197117.7, 499298.1, 0.00023610769, 10.001036, 10.001087 
2.4058835e+3, 2.3893183e+2, -321664.88, -549906.6, -163466.77, 0.22249292, 0.15281348, -236424.38, 362049.63, 0.000047296035, 10.001658, 9.999108 
2.4055137e+3, 2.4892333e+2, -393740.84, -428215.5, -113040.125, 0.16860548, -0.018138036, -296631.34, 203923.69, 0.0000020598873, 10.000422, 9.999662 
2.405146e+3, 2.5891426e+2, -683868.75, -728391.25, -62047.65, 0.14017789, -0.21242443, -640209.8, -237567.67, 0.0, 9.998483, 9.997967 
2.4047779e+3, 2.6890853e+2, -158653.23, -251346.13, -136862.5, 0.28316766, -0.017516509, -60502.844, 244193.89, 0.0, 10.000877, 9.999303 
2.4044092e+3, 2.789036e+2, 159888.97, -126783.54, -81958.234, 0.4070023, 0.1435913, 181666.11, 388409.66, 0.0, 10.002541, 9.998784 
2.4040371e+3, 2.8889334e+2, -2916.1716, -128190.75, -55.606174, -0.01685179, -0.139876, -2916.147, 105928.94, 0.00000028208012, 10.00088, 9.998746 
2.4036673e+3, 2.98885e+2, -698987.94, -810587.6, 85849.07, -0.30891168, -0.17438686, -652397.9, -641469.94, 0.000017512673, 9.997089, 9.995707 
2.4033071e+3, 3.0887562e+2, 392353.03, 552573.7, -422573.25, 0.7816418, -0.22961672, 902563.1, 902563.1, 0.0001005609, 10.001356, 10.002785 
2.4199599e+3, 1.2935214e+2, -1412757.5, -869650.44, -95764.29, -0.108061634, 0.079316616, -853259.3, 819088.44, 0.41411307, 9.997694, 10.009783 
2.4195862e+3, 1.3935003e+2, -1523208.9, -1408543.8, -47485.75, 0.37290967, -0.44744283, -1391432.3, 182917.61, 0.28877336, 9.999084, 10.001626 
2.4192151e+3, 1.4934607e+2, -1657658.8, -1733259.6, 140913.98, 0.35134268, -0.114039265, -1549563.3, -73162.41, 0.17287979, 9.999235, 9.997977 
2.4188446e+3, 1.5934132e+2, -1715784.8, -1718372.0, 22429.33, 0.17202735, 0.20873816, -1694611.8, -316147.28, 0.08747846, 9.997914, 9.998288 
2.4184759e+3, 1.6933742e+2, -1288908.4, -860491.94, 43400.574, 0.07273552, 0.24822482, -856139.44, 424366.63, 0.038149297, 9.997784, 10.003483 
2.4181072e+3, 1.7933394e+2, -1521911.0, -1185451.4, -46144.59, 0.027536465, 0.21656433, -1179237.5, 3302.8835, 0.01570925, 9.996498, 10.001254 
2.4177365e+3, 1.8932982e+2, -1116330.9, -832355.6, -87660.35, 0.0155158015, 0.24493842, -807475.56, 277104.88, 0.0064830934, 9.998374, 10.001926 
2.4173652e+3, 1.9932473e+2, -1135815.3, -1105740.3, -149856.86, 0.050055597, 0.22161658, -970168.25, 16461.598, 0.0021827125, 9.998688, 9.999412 
2.4169911e+3, 2.093178e+2, -838478.25, -788542.1, -205895.53, -0.008890395, 0.15364306, -606106.3, 282591.7, 0.00044835047, 9.999761, 10.000231 
2.4166174e+3, 2.193106e+2, -1015125.75, -1088270.9, -171371.0, -0.061731257, 0.085304976, -876468.25, -85699.37, 0.000068581576, 9.998838, 9.998103 
2.4162488e+3, 2.2930424e+2, -585988.9, -642500.25, -163789.94, 0.20420328, 0.15385804, -448035.28, 244793.44, 0.0000096515805, 10.000521, 9.99949 
2.4158813e+3, 2.3929727e+2, -664665.3, -864661.6, -194288.92, 0.5038811, 0.17119765, -546150.75, 48742.887, 0.00000040342232, 10.000142, 9.997636 
2.4155073e+3, 2.4928832e+2, -444878.9, -415935.4, -186336.17, 0.15737697, -0.041937042, -243509.86, 253465.86, 0.0, 10.000022, 9.999881 
2.4151345e+3, 2.592792e+2, -857654.1, -801648.4, -102479.055, -0.25129777, -0.29716465, -723415.1, -324355.53, 0.0, 9.997351, 9.998019 
2.4147703e+3, 2.69274e+2, -208799.2, -207471.58, -33296.566, 0.10077555, -0.12350588, -174832.2, 126277.055, 0.0, 10.000373, 9.999776 
2.4144067e+3, 2.7926904e+2, -59279.47, -292527.53, -86713.484, 0.453954, 0.026363524, -30574.93, 172581.97, 0.0, 10.001386, 9.998201 
2.4140342e+3, 2.8926066e+2, -20604.178, 60831.387, -122147.82, 0.22505234, -0.16216898, 148869.3, 254106.64, 0.0000000009564638, 10.000072, 10.00036 
2.4136643e+3, 2.9925367e+2, -946380.56, -830285.9, 125345.016, 0.064424485, -0.24575986, -750199.7, -742895.3, 0.0000015325257, 9.995094, 9.996525 
2.4132994e+3, 3.092473e+2, 285755.8, 161348.25, -160999.22, 0.16242173, -0.010657473, 396150.0, 396150.0, 0.000021924814, 10.002014, 9.999835 
2.4299556e+3, 1.2972535e+2, -1709801.9, -1387723.1, 116653.87, 0.29329312, -0.3780895, -1349911.3, 318772.66, 0.3927152, 9.997305, 10.003882 
2.4295796e+3, 1.397246e+2, -1123243.0, -1367852.5, -32007.045, 0.03761149, -0.16128151, -1119124.3, 451561.25, 0.26710206, 10.003635, 9.999793 
2.4292088e+3, 1.4971836e+2, -921609.44, -1313089.0, 57008.484, 0.011044512, -0.038000956, -913476.6, 559278.2, 0.15331793, 10.004642, 9.998564 
2.4288386e+3, 1.597114e+2, -933175.9, -1301349.5, 104043.86, -0.011191877, 0.067247935, -905808.06, 469025.7, 0.07196278, 10.003274, 9.998646 
2.4284695e+3, 1.6970645e+2, -1023756.44, -925439.94, 34217.105, 0.10650201, 0.13756971, -914703.75, 362182.28, 0.027363949, 10.000468, 10.001719 
2.4280998e+3, 1.797016e+2, -1439094.0, -1221786.8, -51562.316, 0.1559822, 0.14904909, -1210172.8, -31237.236, 0.009079448, 9.997278, 10.000625 
2.4277285e+3, 1.8969703e+2, -1143874.8, -878774.8, -68643.54, 0.020957282, 0.18157478, -862055.1, 218926.58, 0.002868925, 9.998228, 10.001715 
2.427357e+3, 1.9969213e+2, -980069.9, -990954.25, -145195.9, -0.11375812, 0.21009175, -840214.2, 142816.17, 0.00059867656, 9.999438, 9.999877 
2.4269843e+3, 2.096852e+2, -689164.5, -749649.9, -204410.03, -0.08137844, 0.15023337, -512772.06, 372324.5, 0.000045539302, 10.000747, 10.000117 
2.4266121e+3, 2.1967784e+2, -577946.56, -825118.9, -132550.1, -0.01990898, 0.08963874, -520306.2, 266860.56, 0.0000022398012, 10.00149, 9.998644 
2.4262437e+3, 2.2967044e+2, -425171.06, -588927.94, -78417.49, 0.2253709, 0.06728685, -393676.75, 295559.1, 0.000000052409952, 10.001682, 9.9993305 
2.425876e+3, 2.3966292e+2, -401169.0, -654254.1, -56959.035, 0.47469997, 0.061039, -388940.72, 202365.28, 0.0, 10.001522, 9.998408 
2.4255016e+3, 2.49655e+2, -198100.77, -324418.22, -92274.9, 0.15185398, -0.030134683, -149439.63, 343940.1, 0.0, 10.001706, 9.999764 
2.4251282e+3, 2.5964698e+2, -200364.2, -392539.97, -16885.574, -0.20395818, -0.14683673, -198891.83, 196562.7, 0.0, 10.001297, 9.998944 
2.4247642e+3, 2.6964042e+2, -174813.7, -176935.08, 31359.139, 0.0712729, -0.1420382, -144497.31, 153019.17, 0.0, 10.000393, 10.000024 
2.4244013e+3, 2.7963442e+2, -290843.72, -302005.47, -51804.15, 0.4830804, -0.09800335, -244320.7, -44747.344, 0.0, 9.999217, 9.9992075 
2.4240296e+3, 2.8962794e+2, 239651.14, 261219.47, -184321.33, 0.36928204, -0.16214935, 435071.84, 536706.25, 0.0, 10.001346, 10.0012245 
2.4236597e+3, 2.9962218e+2, 66359.21, -173197.86, 59882.727, 0.3447097, -0.21276721, 80494.22, 84183.02, 0.000000086511356, 10.00115, 9.998169 
2.4232946e+3, 3.096182e+2, -232981.28, -189534.63, -331150.47, 0.2533933, 0.2568726, 120604.28, 120604.28, 0.0000026170453, 9.998642, 9.999157 
2.4403144e+3, 1.2011521e+2, -2353796.8, -1719797.1, -707724.44, -0.536101, 0.21314608, -1261321.1, 501533.1, 0.4945819, 9.993973, 10.00493 
2.4399504e+3, 1.3009925e+2, -1980196.6, -2101577.3, 247453.23, 0.6071226, -0.66225934, -1786099.9, -121084.25, 0.3775347, 9.998955, 9.996877 
2.439574e+3, 1.4009845e+2, -1538828.1, -1878882.0, 82140.52, -0.19812568, 0.16752593, -1520026.5, 47005.19, 0.25111946, 10.001297, 9.996857 
2.4392028e+3, 1.500907e+2, -1107778.0, -1243267.1, 53694.465, -0.30364782, 0.06780628, -1089079.4, 380030.1, 0.13882844, 10.002401, 10.000092 
2.4388336e+3, 1.6008195e+2, -1300330.0, -1554636.5, 2047.3331, -0.13830067, -0.109185554, -1300313.5, 70883.19, 0.060861234, 10.000992, 9.997916 
2.4384642e+3, 1.7007531e+2, -1229791.4, -1283138.0, -89454.734, 0.22229962, -0.050713632, -1163117.9, 110147.3, 0.02025213, 10.000253, 9.9992485 
2.438094e+3, 1.8006888e+2, -1504310.9, -1477738.1, -75143.836, 0.49409223, 0.028949631, -1414715.1, -239383.06, 0.0052852775, 9.997904, 9.998576 
2.4377212e+3, 1.9006355e+2, -1147182.0, -938113.75, -9359.184, 0.12859261, 0.058773424, -937695.6, 139692.1, 0.0012089658, 9.998564, 10.00112 
2.4373488e+3, 2.0005848e+2, -1214941.8, -1166716.9, -102325.25, -0.18858321, 0.12623563, -1085701.5, -106261.33, 0.00012403581, 9.99829, 9.999178 
2.436978e+3, 2.1005277e+2, -781046.3, -741362.75, -153429.84, -0.08254912, 0.14839408, -606497.0, 274995.56, 0.000001917801, 10.000086, 10.000368 
2.436608e+3, 2.2004624e+2, -840050.44, -1000709.2, -105166.42, 0.08940066, 0.15037462, -788043.94, -4491.4604, 0.000000018702426, 10.000052, 9.9980755 
2.4362378e+3, 2.300373e+2, -474811.34, -571598.9, -73166.1, 0.12713404, -0.060875162, -435482.63, 250151.31, 0.0, 10.001209, 9.999623 
2.4358676e+3, 2.4002853e+2, -659478.56, -841769.4, -72646.43, 0.15263407, -0.22951366, -634069.3, -46354.316, 0.0, 10.000125, 9.997785 
2.4354969e+3, 2.500237e+2, -320013.25, -424367.56, -95681.01, 0.15965012, 0.012220036, -263207.34, 226557.33, 0.0, 10.001206, 9.99926 
2.4351265e+3, 2.6001835e+2, -471358.56, -662558.2, -49408.88, 0.101290695, 0.22751038, -459345.34, -67526.195, 0.0, 10.00018, 9.997611 
2.4347581e+3, 2.700088e+2, -272581.66, -266990.16, -17709.803, 0.053068947, -0.02491777, -251856.78, 42052.33, 0.0, 10.000002, 9.999559 
2.434391e+3, 2.7999955e+2, -517014.6, -478169.1, -64571.883, 0.10340857, -0.2783385, -430162.1, -234166.38, 0.0, 9.998054, 9.99857 
2.4340224e+3, 2.899949e+2, 109423.88, 130608.25, -85846.27, 0.13363533, -0.14450555, 206513.33, 304555.53, 0.0, 10.000848, 10.00054 
2.4336536e+3, 2.999905e+2, -104058.46, -217154.25, -8867.681, -0.022591835, 0.010717933, -103367.375, -103281.76, 0.0, 9.999929, 9.998454 
2.4332885e+3, 3.0998147e+2, -290238.6, 124283.805, -94423.39, 0.20457788, -0.34624335, 144779.02, 144779.02, 0.00000012758136, 9.996998, 10.00199 
2.4503091e+3, 1.2048194e+2, -2104050.0, -1548500.0, -445620.56, -0.0035057534, -0.080460876, -1301168.6, 458107.0, 0.48542747, 9.994877, 10.005739 
2.4499393e+3, 1.3047424e+2, -1602002.4, -1755280.6, 115662.92, 0.044567365, -0.24795906, -1539891.9, 121456.86, 0.3659335, 10.001033, 9.998487 
2.4495688e+3, 1.4047004e+2, -1478910.4, -1711827.1, 138599.13, -0.25507468, 0.11325098, -1414337.6, 149055.28, 0.23856215, 10.0011635, 9.998159 
2.4491978e+3, 1.5046348e+2, -1290216.0, -1327097.8, 68944.375, -0.31116173, 0.111708865, -1237288.9, 228169.13, 0.1275105, 10.000778, 10.000255 
2.4488272e+3, 1.6045569e+2, -1435654.8, -1616434.4, 21581.193, -0.22417744, 0.03787827, -1433114.1, -65579.414, 0.052560914, 9.999886, 9.998045 
2.4484567e+3, 1.7044686e+2, -1086851.6, -1332817.1, -22618.05, 0.025994161, -0.03687817, -1084789.0, 184834.89, 0.01541553, 10.0015955, 9.998335 
2.448086e+3, 1.8043847e+2, -845348.9, -1178459.5, 8324.825, 0.19984215, -0.048681125, -845140.94, 326567.78, 0.0031067657, 10.002387, 9.998508 
2.4477139e+3, 1.9043308e+2, -830877.1, -874332.6, 45737.867, 0.03855553, 0.049187984, -801968.44, 271795.6, 0.00048131414, 10.00099, 10.000477 
2.4473426e+3, 2.0042762e+2, -1013987.6, -1010145.06, 12606.797, -0.119948186, 0.14381418, -999314.0, -23495.365, 0.000015932997, 9.99929, 9.999775 
2.4469729e+3, 2.1042126e+2, -708719.94, -647812.8, -17486.383, 0.021910299, 0.064909086, -643149.5, 234725.06, 0.0000000054715246, 10.000266, 10.0009575 
2.4466038e+3, 2.2041442e+2, -596796.94, -796053.94, 28320.14, 0.17845081, 0.008719179, -592850.0, 187085.1, 0.0, 10.00119, 9.998962 
2.4462332e+3, 2.3040585e+2, -458137.06, -610690.2, -1423.104, 0.18981497, -0.13851523, -458123.78, 223892.03, 0.0, 10.001391, 9.999338 
2.4458627e+3, 2.4039735e+2, -465374.0, -742055.8, -39650.277, 0.18170196, -0.22966637, -459804.0, 124293.25, 0.0, 10.001219, 9.997997 
2.4454927e+3, 2.5039148e+2, -326217.6, -505313.94, -64948.22, 0.26834095, -0.033328205, -305144.13, 181015.42, 0.0, 10.001307, 9.998765 
2.445123e+3, 2.6038596e+2, -278526.72, -480623.1, -10284.027, 0.30839783, 0.2008108, -278004.75, 110213.08, 0.0, 10.000966, 9.998529 
2.4447525e+3, 2.7037713e+2, -85420.664, -130945.47, 54856.89, 0.10734724, -0.020565191, -48791.1, 241508.23, 0.0, 10.000978, 10.00008 
2.4443834e+3, 2.8036833e+2, -97345.66, -238694.42, 91553.74, 0.0037501338, -0.24661845, -52361.246, 140020.02, 0.0, 10.000592, 9.9990225 
2.4440159e+3, 2.9036325e+2, -60139.832, -41700.277, 42325.84, 0.07289033, -0.09059632, -7601.689, 86833.3, 0.0, 9.9998665, 9.999902 
2.4436484e+3, 3.0035853e+2, -292992.88, -237271.6, 49354.055, 0.081907235, 0.09298351, -208457.39, -208457.39, 0.0, 9.99811, 9.999243 
2.4432817e+3, 3.1034875e+2, 243807.52, 626230.25, -163199.84, 0.27623212, -0.3739085, 686407.0, 686407.0, 0.000000000000427524, 9.999402, 10.00434 
2.4603008e+3, 1.2084971e+2, -1698176.1, -1380470.0, 54000.94, 0.19407332, -0.083011754, -1371542.3, 384143.4, 0.47724342, 9.99739, 10.005774 
2.459929e+3, 1.3084868e+2, -1558384.6, -1499871.9, 91504.17, -0.41416278, 0.19829398, -1433060.8, 224626.9, 0.3557266, 10.000115, 10.001139 
2.4595647e+3, 1.40841e+2, -1614790.1, -1678936.1, 34162.36, -0.13626294, 0.006827532, -1600004.4, -40245.125, 0.22774403, 9.999621, 9.999051 
2.4591932e+3, 1.5083604e+2, -1440433.0, -1393795.1, -29622.666, -0.16663891, 0.11874422, -1379414.3, 82394.02, 0.11809006, 9.999749, 10.000144 
2.4588211e+3, 1.6082999e+2, -1664690.8, -1821863.3, -9226.569, -0.1553802, 0.2521932, -1664150.9, -300282.28, 0.04605504, 9.998854, 9.997099 
2.4584492e+3, 1.7081946e+2, -1221113.4, -1451239.3, 12753.924, -0.20186861, 0.03845445, -1220408.6, 45564.484, 0.012013259, 10.000998, 9.99776 
2.4580777e+3, 1.8080966e+2, -1088563.9, -1406278.0, -31371.121, -0.18937479, -0.059166647, -1085495.9, 82574.51, 0.0018483637, 10.001323, 9.997428 
2.4577071e+3, 1.9080399e+2, -948095.06, -1015698.75, -40127.754, -0.06239843, 0.06050322, -929429.75, 140696.73, 0.00018026956, 10.000619, 9.999635 
2.4573372e+3, 2.0079815e+2, -1211795.0, -1173781.4, -13196.989, 0.074861616, 0.18446924, -1169649.0, -197466.97, 0.0000007906511, 9.998374, 9.999083 
2.4569678e+3, 2.107901e+2, -744816.9, -623506.0, 7947.576, 0.15922545, -0.10203842, -622987.56, 251263.05, 0.0, 9.999949, 10.001266 
2.4565989e+3, 2.2078207e+2, -871153.3, -1011026.5, 3503.2395, 0.25756472, -0.2779328, -871065.6, -94745.14, 0.0, 9.999887, 9.998087 
2.4562295e+3, 2.3077588e+2, -614993.9, -741930.4, -28750.283, 0.36522335, -0.14352757, -608785.75, 69598.305, 0.0, 10.000829, 9.998592 
2.45586e+3, 2.4076904e+2, -782564.3, -1035799.5, -63721.293, 0.4470758, 0.015682707, -767434.2, -186979.31, 0.0, 9.99984, 9.996603 
2.4554883e+3, 2.5075865e+2, -466576.38, -654184.8, -78893.59, 0.3777994, -0.18235788, -437810.5, 44750.27, 0.0, 10.000753, 9.9979725 
2.4551173e+3, 2.6074958e+2, -487546.63, -574587.9, -38980.152, 0.27433914, -0.26284203, -472642.1, -87989.81, 0.0, 9.999614, 9.998514 
2.454748e+3, 2.7074608e+2, -52472.266, 60555.547, 59576.277, 0.18524545, -0.10715109, 86158.35, 372839.8, 0.0, 10.00055, 10.001552 
2.4543792e+3, 2.8074232e+2, -310253.47, -395639.03, 81513.875, 0.09929292, 0.08728857, -260928.94, -72214.164, 0.0, 9.999525, 9.998431 
2.4540098e+3, 2.9073384e+2, -278448.1, -272633.44, 16858.475, 0.107445054, -0.027798805, -258433.42, -167630.28, 0.0, 9.999027, 9.998671 
2.4536435e+3, 3.0072463e+2, -857259.6, -815193.6, 44926.055, 0.3258648, -0.0932222, -786620.8, -786620.8, 0.0, 9.9957285, 9.996395 
2.4532747e+3, 3.107212e+2, -95128.914, 353008.44, 50330.113, 0.021574438, 0.21064897, 358591.44, 358591.44, 0.0, 9.997842, 10.003097 
2.4702935e+3, 1.212235e+2, -1662036.1, -1775823.1, 134493.2, -0.07233323, 0.09502768, -1572897.9, 179117.28, 0.46785304, 10.001105, 9.999258 
2.4699226e+3, 1.3121897e+2, -1609684.0, -1653152.8, 85314.71, -0.46229595, 0.3246576, -1543378.8, 110684.21, 0.34520847, 10.000348, 9.9995575 
2.4695589e+3, 1.4120893e+2, -1656151.0, -1651271.4, -89500.68, -0.08656162, 0.00070247456, -1564177.3, -8016.805, 0.21743059, 9.999013, 9.999555 
2.4691871e+3, 1.5120418e+2, -1392539.0, -1238337.3, -107690.74, -0.077397875, 0.014430275, -1182992.5, 275208.84, 0.109704144, 9.999437, 10.001494 
2.4688157e+3, 1.6119903e+2, -1437535.6, -1557044.0, 9511.657, -0.067420974, 0.11194725, -1436783.4, -76535.92, 0.040704507, 9.999676, 9.99852 
2.4684456e+3, 1.7118993e+2, -1107212.0, -1354929.0, 63737.44, -0.08426985, -0.0032782136, -1091774.4, 170563.34, 0.00953522, 10.001523, 9.998239 
2.4680744e+3, 1.8118101e+2, -897369.6, -1242150.0, -18282.385, -0.11524548, -0.03785779, -896402.9, 268023.47, 0.0011160366, 10.00224, 9.998128 
2.4677022e+3, 1.9117437e+2, -861387.2, -1004977.5, -71343.83, 0.00086588046, 0.013097172, -831967.25, 234523.69, 0.00006263998, 10.0013, 9.99941 
2.4673308e+3, 2.0116764e+2, -925185.0, -1027720.6, 30688.438, 0.097960524, 0.08157372, -916701.9, 51853.07, 0.0000000031066179, 10.000205, 9.999222 
2.4669619e+3, 2.111588e+2, -557029.9, -631363.6, 36011.82, 0.1189849, -0.19845961, -542445.2, 328188.53, 0.0, 10.001541, 10.000509 
2.4665931e+3, 2.2115043e+2, -465799.88, -793066.8, -32989.01, 0.1457995, -0.3484882, -462507.66, 310202.3, 0.0, 10.002414, 9.998423 
2.4662244e+3, 2.3114511e+2, -374558.2, -645917.3, -64135.81, 0.3294605, -0.1117851, -360163.28, 314604.66, 0.0, 10.002395, 9.998604 
2.4658552e+3, 2.4113919e+2, -358490.25, -715352.8, -54556.727, 0.4735935, 0.13047197, -350336.0, 226495.78, 0.0, 10.002109, 9.997739 
2.4654827e+3, 2.5112894e+2, -316847.53, -514770.53, -14103.251, 0.36789426, -0.10899887, -315847.63, 163085.78, 0.0, 10.001377, 9.998677 
2.465111e+3, 2.611193e+2, -304356.75, -420785.47, 105923.305, 0.26685995, -0.2809888, -241704.83, 139323.23, 0.0, 10.00042, 9.99921 
2.4647437e+3, 2.7111563e+2, -72078.44, -6671.8896, 44921.26, 0.32937783, -0.10182261, 16189.427, 299250.03, 0.0, 10.000529, 10.001156 
2.4643752e+3, 2.8111243e+2, -111565.24, -247919.22, -49231.535, 0.30609113, 0.17313667, -95647.96, 89441.805, 0.0, 10.0005665, 9.99895 
2.4640037e+3, 2.9110318e+2, 170176.28, -68315.18, -67991.0, 0.10112319, -0.017322872, 188197.88, 275383.16, 0.0, 10.002048, 9.998693 
2.4636379e+3, 3.0109268e+2, 52268.746, -400324.13, 108672.586, 0.45966697, -0.16982342, 77009.77, 77009.77, 0.0, 10.0019245, 9.996291 
2.4632671e+3, 3.1108958e+2, 7216.452, 252042.67, 53906.105, -0.023863858, 0.33136538, 263386.22, 263386.22, 0.0, 9.99886, 10.002044 
2.4802887e+3, 1.2159646e+2, -2074159.9, -2609419.5, -9918.801, -0.057343066, 0.23775502, -2073976.1, -325621.97, 0.45571712, 10.00031, 9.99358 
2.4799174e+3, 1.31588e+2, -1770928.9, -1971491.9, 62033.72, -0.36251158, 0.30422816, -1753292.8, -102843.95, 0.33319858, 10.000109, 9.997298 
2.4795532e+3, 1.4157662e+2, -1748198.4, -1703612.4, -31719.69, 0.09711725, 0.005339176, -1687135.4, -134572.63, 0.20679392, 9.998572, 9.999374 
2.4791811e+3, 1.5157181e+2, -1252146.9, -1043944.75, -97564.69, 0.035972558, -0.10669551, -1005371.7, 449226.56, 0.10179194, 9.999941, 10.002726 
2.4788105e+3, 1.6156697e+2, -1415745.9, -1477992.9, -9582.25, 0.110215165, -0.08202791, -1414304.3, -57668.195, 0.036105353, 9.9996805, 9.999036 
2.478443e+3, 1.7155996e+2, -1167195.1, -1289030.8, 64622.785, 0.17356771, -0.08550291, -1139303.6, 119401.984, 0.0076701324, 10.000868, 9.998938 
2.478073e+3, 1.8155253e+2, -1156349.3, -1408659.8, -77533.06, 0.19880363, -0.0040033218, -1134428.4, 26351.219, 0.000687035, 10.000794, 9.997636 
2.477698e+3, 1.9154483e+2, -949572.2, -1067693.5, -158706.22, 0.13162977, -0.064091265, -839293.5, 223560.4, 0.000019881356, 10.000924, 9.999083 
2.4773242e+3, 2.0153683e+2, -1120091.9, -1268938.9, 10292.021, 0.10148139, -0.06243875, -1119383.6, -154452.8, 0.0, 9.999647, 9.997769 
2.4769554e+3, 2.1152799e+2, -779874.56, -882136.3, 69488.91, -0.006484117, -0.2402384, -744732.2, 122283.37, 0.0, 10.000779, 9.999037 
2.4765867e+3, 2.2151987e+2, -806814.8, -1056803.6, -38158.06, -0.042057183, -0.245245, -801120.1, -32025.129, 0.0, 10.000625, 9.99742 
2.476218e+3, 2.3151407e+2, -493807.66, -675993.0, -74089.44, 0.1260921, -0.088996954, -467481.75, 203677.6, 0.0, 10.001508, 9.998786 
2.4758486e+3, 2.4150847e+2, -573376.56, -736085.8, -96871.08, 0.26952237, 0.145021, -528229.9, 44989.813, 0.0, 10.000447, 9.998359 
2.4754758e+3, 2.5150245e+2, -311138.03, -304109.63, -50969.355, 0.21941777, 0.140693, -256533.47, 218742.03, 0.0, 10.000679, 10.000367 
2.4751048e+3, 2.6149517e+2, -650279.75, -788125.0, 81833.08, 0.21481362, 0.1404965, -612211.8, -234867.39, 0.0, 9.999086, 9.997307 
2.4747385e+3, 2.7148503e+2, -400069.0, -492404.84, 42383.66, 0.41353828, -0.06769039, -383564.34, -104119.46, 0.0, 9.999845, 9.99811 
2.4743706e+3, 2.814765e+2, -347386.5, -450850.4, -46355.13, 0.36797634, -0.084350586, -329656.28, -148127.19, 0.0, 9.999429, 9.998104 
2.4739973e+3, 2.9147047e+2, 227720.88, 161317.1, -1116.7255, -0.15441856, -0.10648813, 227739.66, 311328.22, 0.0, 10.001721, 10.000366 
2.4736321e+3, 3.014643e+2, -128004.44, -471732.94, 16779.91, 0.15881209, 0.04494227, -127187.234, -127187.234, 0.0, 10.000751, 9.996356 
2.4732617e+3, 3.1145692e+2, -329369.38, 25573.334, -77901.19, 0.03951778, 0.07971245, 41918.07, 41918.07, 0.0, 9.996911, 10.001427 
2.4902837e+3, 1.21959664e+2, -1691076.5, -1820301.0, -101507.52, -0.14477775, -0.07197789, -1635362.0, 109438.54, 0.43991777, 10.0007925, 9.9989195 
2.4899143e+3, 1.319565e+2, -1547859.1, -1572425.8, 23570.055, -0.12913994, 0.19893098, -1533563.8, 113267.27, 0.31901658, 10.00061, 10.000078 
2.4895476e+3, 1.4194672e+2, -1635504.5, -1669055.9, 82337.27, 0.19508241, -0.093074426, -1568251.3, -19327.533, 0.19536594, 9.999326, 9.999281 
2.489175e+3, 1.5194066e+2, -1206238.9, -1233150.5, -23887.123, -0.015690532, -0.123594776, -1192278.4, 258700.31, 0.094030365, 10.0011835, 10.000719 
2.4888042e+3, 1.6193467e+2, -1079340.1, -1272185.6, -62593.24, -0.06669793, -0.08337691, -1060805.3, 292227.78, 0.032013185, 10.001785, 9.999464 
2.4884367e+3, 1.719286e+2, -1084936.8, -1146339.4, -12027.018, 0.11881115, -0.069952935, -1082665.1, 172427.11, 0.0062260167, 10.000914, 9.99993 
2.4880676e+3, 1.8192194e+2, -1171034.8, -1327824.8, -119215.66, 0.20274991, 0.0025818832, -1106747.8, 50409.395, 0.00043419475, 10.000184, 9.998502 
2.4876928e+3, 1.9191359e+2, -829231.44, -1023107.94, -189867.42, 0.14235377, -0.12558214, -712987.5, 346250.56, 0.0000058323185, 10.001668, 9.999081 
2.4873194e+3, 2.0190555e+2, -726165.0, -1050139.8, -26982.957, 0.0675037, -0.12694865, -723933.06, 237383.81, 0.000000000090419006, 10.002109, 9.998103 
2.48695e+3, 2.1189843e+2, -745041.44, -910186.1, 54943.31, -0.010580019, -0.09672803, -728432.3, 134956.84, 0.0, 10.001048, 9.998794 
2.4865808e+3, 2.2189122e+2, -817110.1, -952012.0, 5139.513, -0.06992829, -0.012483787, -816914.56, -51452.043, 0.0, 9.999969, 9.998456 
2.4862117e+3, 2.3188403e+2, -635690.2, -693283.1, 1791.5972, 0.057355154, -0.031759135, -635634.5, 31901.416, 0.0, 10.000234, 9.999334 
2.4858421e+3, 2.4187736e+2, -481112.38, -604444.75, -27308.26, 0.17997833, 0.061289888, -475336.28, 94267.19, 0.0, 10.000598, 9.99918 
2.4854702e+3, 2.5187197e+2, -191173.92, -272424.0, -124357.55, 0.19142553, 0.12164845, -100973.914, 370680.56, 0.0, 10.001476, 10.000254 
2.4850994e+3, 2.6186544e+2, -194811.58, -533886.4, -45984.867, 0.23808871, 0.20039271, -188685.84, 185030.98, 0.0, 10.001877, 9.997745 
2.4847321e+3, 2.7185473e+2, -156240.84, -431385.97, 97731.45, 0.3696433, -0.041730564, -125060.2, 150763.31, 0.0, 10.00154, 9.997816 
2.4843642e+3, 2.8184497e+2, -133120.13, -269539.2, 169929.58, 0.35468432, -0.15444398, -18221.486, 159698.92, 0.0, 10.000385, 9.998934 
2.483992e+3, 2.9183975e+2, -156895.92, 37838.12, 102076.95, -0.087730095, -0.12804556, 81538.6, 161508.39, 0.0, 9.99865, 10.001061 
2.483626e+3, 3.0183497e+2, -429954.63, -468268.13, 66994.016, 0.19732247, 0.082360655, -379432.25, -379432.25, 0.0, 9.997989, 9.997697 
2.4832556e+3, 3.1182596e+2, 155766.05, 248814.89, -126791.47, 0.22611332, -0.03304041, 337348.22, 337348.22, 0.0, 10.000053, 10.001554 
2.5002775e+3, 1.2232482e+2, -1647015.8, -1497122.8, 30182.404, -0.2032646, -0.20358814, -1491273.5, 249951.8, 0.42027465, 9.999251, 10.00296 
2.4999116e+3, 1.3232595e+2, -1394947.3, -1240200.6, -29439.51, 0.22514708, 0.15555272, -1234789.1, 408413.0, 0.30251706, 10.000651, 10.003278 
2.499542e+3, 1.423174e+2, -1635817.9, -1798709.1, 45790.71, 0.3210151, -0.15846735, -1623828.0, -78550.61, 0.18302314, 9.999898, 9.9981165 
2.4991693e+3, 1.5230975e+2, -1402103.5, -1604959.0, 21722.191, -0.05663957, -0.15245083, -1399803.5, 47553.18, 0.08629053, 10.000937, 9.998131 
2.498798e+3, 1.6230278e+2, -1298893.3, -1433528.5, -55107.44, -0.18667212, -0.019575242, -1279213.8, 70213.68, 0.028287582, 10.000525, 9.998915 
2.4984302e+3, 1.7229706e+2, -1146183.6, -1112631.6, -61740.066, 0.030958572, -0.06488038, -1065429.0, 186052.5, 0.0050760456, 10.000177, 10.000507 
2.4980608e+3, 1.8229054e+2, -1354807.0, -1433041.8, -111280.58, 0.1843954, -0.0046379734, -1275968.8, -122425.02, 0.00028139996, 9.999177, 9.998219 
2.4976875e+3, 1.9228193e+2, -940330.2, -1048893.3, -150369.95, 0.119783714, -0.19210157, -834744.25, 220883.67, 0.0000014559199, 10.000978, 9.999171 
2.497315e+3, 2.0227434e+2, -904895.5, -1160109.1, -44668.0, 0.09247604, -0.13958718, -897303.44, 60400.766, 0.0, 10.001146, 9.99779 
2.4969451e+3, 2.1226983e+2, -818584.75, -884673.9, 10117.174, 0.053187836, 0.094112694, -817070.6, 42684.957, 0.0, 10.000495, 9.999164 
2.4965753e+3, 2.222642e+2, -994232.6, -1030635.94, -22062.879, 0.032137174, 0.32077286, -983832.4, -222018.25, 0.0, 9.998882, 9.998434 
2.4962051e+3, 2.3225495e+2, -695217.94, -641234.06, 3194.573, 0.06080599, 0.01747896, -641045.7, 22853.727, 0.0, 9.9996, 9.999952 
2.4958353e+3, 2.4224609e+2, -821818.1, -937319.2, -24935.201, 0.11110153, -0.10177819, -816664.9, -250681.52, 0.0, 9.999081, 9.997619 
2.4954645e+3, 2.5223798e+2, -460854.78, -590282.5, -90837.98, 0.17295675, -0.16673224, -414036.47, 54029.91, 0.0, 10.000554, 9.998474 
2.495094e+3, 2.622312e+2, -319161.72, -467917.9, -52013.02, 0.17103557, -0.033738792, -302779.4, 67355.33, 0.0, 10.000621, 9.998775 
2.4947248e+3, 2.722262e+2, -33068.45, -57746.426, 107574.086, 0.10758138, 0.021002693, 62871.996, 335053.72, 0.0, 10.001087, 10.000588 
2.4943562e+3, 2.8222018e+2, -333843.7, -399517.38, 93091.35, 0.10134244, 0.12006305, -267967.53, -93727.84, 0.0, 9.999288, 9.998539 
2.4939866e+3, 2.9221198e+2, -428275.28, -225596.42, 48645.465, 0.1754413, -0.07633348, -214525.63, -138206.34, 0.0, 9.997452, 9.9997835 
2.4936192e+3, 3.022049e+2, -660107.75, -480072.47, 117603.305, 0.32836524, -0.03602116, -421989.75, -421989.75, 0.0, 9.996146, 9.998471 
2.4932486e+3, 3.121987e+2, 58460.008, 294300.78, 172955.1, -0.06296529, -0.06693609, 385709.5, 385709.5, 0.0, 9.999296, 10.00213 
2.5102714e+3, 1.2269829e+2, -1849742.8, -1865693.3, 180728.83, -0.2768855, 0.12267968, -1676813.3, 60743.543, 0.39734322, 9.99912, 9.999441 
2.509908e+3, 1.3269442e+2, -1265696.1, -1188266.5, 10896.529, 0.35921818, 0.04815373, -1186762.3, 452824.84, 0.28406283, 10.001787, 10.003161 
2.509534e+3, 1.4268503e+2, -1314211.9, -1538297.3, 14721.874, -0.04116558, -0.3563773, -1313248.8, 228423.67, 0.16993596, 10.002, 9.998896 
2.5091645e+3, 1.5267974e+2, -1279394.6, -1458614.6, 68664.59, -0.03305759, -0.18348898, -1256111.9, 187615.86, 0.078587286, 10.001389, 9.998969 
2.5087944e+3, 1.626738e+2, -1346952.3, -1474845.5, 38332.367, -0.013759168, 0.018972127, -1336343.3, 9445.038, 0.024857625, 10.000163, 9.998819 
2.508424e+3, 1.72666e+2, -1248438.5, -1259782.8, -5993.154, 0.060066424, -0.11715083, -1245859.0, 2003.7046, 0.0041356636, 9.999811, 9.999714 
2.5080532e+3, 1.8265826e+2, -1231991.5, -1278841.3, -55744.324, 0.0857152, -0.15154968, -1194950.3, -45013.664, 0.00018434241, 9.999507, 9.999145 
2.5076815e+3, 1.9265069e+2, -846520.5, -944748.8, -26474.572, 0.089241825, -0.26626956, -839839.44, 212169.78, 0.00000026313862, 10.001258, 9.999822 
2.5073102e+3, 2.0264398e+2, -670163.2, -975935.5, 13503.647, 0.06082911, -0.16825226, -669568.0, 284509.03, 0.0, 10.002354, 9.998504 
2.5069398e+3, 2.1263942e+2, -567297.4, -788781.5, 13459.213, 0.032664802, 0.09736811, -566482.5, 289649.1, 0.0, 10.002225, 9.999068 
2.5065696e+3, 2.2263348e+2, -499067.88, -775155.2, -30490.744, 0.016968809, 0.30437192, -495740.6, 262454.38, 0.0, 10.001965, 9.998778 
2.506199e+3, 2.326235e+2, -451519.72, -569545.56, -74281.88, 0.033039335, -0.03854708, -415662.63, 244624.0, 0.0, 10.001241, 9.999746 
2.5058284e+3, 2.4261457e+2, -552226.7, -690956.0, -75184.01, 0.07183715, -0.19246559, -519297.22, 43072.676, 0.0, 10.000328, 9.998732 
2.5054583e+3, 2.5260714e+2, -542514.5, -568837.3, -3568.6924, 0.17202006, -0.23364712, -542039.25, -77595.12, 0.0, 9.999605, 9.999155 
2.5050882e+3, 2.626008e+2, -486469.03, -461954.56, 112670.46, 0.21112351, -0.10146643, -360876.56, 5631.9014, 0.0, 9.999011, 9.999606 
2.5047186e+3, 2.72597e+2, -315461.78, -170609.33, 28933.268, 0.108236484, 0.07366956, -165043.94, 103503.29, 0.0, 9.999003, 10.0008545 
2.504349e+3, 2.8259167e+2, -306077.38, -379613.97, -89752.46, 0.10256956, 0.22865537, -245853.86, -75254.97, 0.0, 9.999311, 9.998688 
2.5039804e+3, 2.9258177e+2, 51302.5, -102939.63, -121744.48, 0.31554538, -0.08978373, 118297.27, 190990.53, 0.0, 10.000967, 9.999041 
2.5036132e+3, 3.0257398e+2, 130343.87, -51249.62, 73995.62, 0.52833116, -0.090290554, 156676.97, 156676.97, 0.0, 10.001194, 9.999013 
2.5032446e+3, 3.1256923e+2, 108100.195, 320607.2, -3492.2417, 0.22065783, -0.048022598, 320664.56, 320664.56, 0.0, 9.999357, 10.002329 
2.5202712e+3, 1.2306866e+2, -2059195.0, -2378155.5, 34095.06, 0.37791345, 0.12634894, -2055591.1, -321668.56, 0.3720952, 9.999489, 9.9955435 
2.5199026e+3, 1.3306266e+2, -1476335.0, -1343298.5, -21389.414, 0.31053305, -0.093070656, -1339944.1, 296033.6, 0.26429757, 10.000164, 10.002319 
2.519528e+3, 1.4305352e+2, -1585517.5, -1603228.5, -50406.285, -0.20492029, -0.44858342, -1543194.8, -5132.1514, 0.15642525, 9.999652, 9.999469 
2.5191602e+3, 1.5305054e+2, -1338789.8, -1345364.1, -51193.375, 0.08580769, -0.20172845, -1290778.1, 149314.44, 0.071005836, 10.0005245, 10.000078 
2.518791e+3, 1.6304545e+2, -1454608.9, -1635019.9, -65229.47, 0.30074522, 0.06673728, -1433495.4, -91352.85, 0.021693112, 10.000087, 9.997719 
2.518418e+3, 1.7303512e+2, -1295728.0, -1384673.1, -89627.06, 0.15897374, -0.23070228, -1240146.5, 4095.4468, 0.00335279, 10.000189, 9.998607 
2.5180462e+3, 1.8302639e+2, -1241756.0, -1295446.3, -48123.3, 0.08941959, -0.28760135, -1213496.5, -67171.71, 0.00011963712, 9.999574, 9.998964 
2.5176764e+3, 1.9302025e+2, -919913.2, -912864.56, -4281.9937, 0.09545056, -0.35723388, -910843.06, 137538.3, 0.00000002568285, 10.000498, 10.000355 
2.517306e+3, 2.0301439e+2, -986188.1, -1227426.6, -3199.032, 0.08250288, -0.18039174, -986145.7, -35705.656, 0.0, 10.000677, 9.9975605 
2.5169346e+3, 2.1300803e+2, -779829.06, -968258.9, -18468.195, -0.02777142, -0.06141696, -778036.06, 74477.28, 0.0, 10.001112, 9.998341 
2.5165638e+3, 2.2300085e+2, -855750.06, -1070688.3, -55015.676, -0.06822945, 0.11200849, -842486.7, -87896.07, 0.0, 10.000244, 9.997505 
2.5161925e+3, 2.3299119e+2, -670990.5, -758371.2, -98624.66, -0.044178892, -0.15267226, -606812.06, 49870.984, 0.0, 10.000241, 9.998868 
2.5158215e+3, 2.4298362e+2, -683953.5, -609503.4, -121303.6, 0.025103055, -0.15395556, -519841.6, 38911.82, 0.0, 9.998956, 9.999926 
2.515451e+3, 2.529795e+2, -492667.8, -261515.53, -32873.76, 0.15775366, -0.13499998, -256931.25, 203856.58, 0.0, 9.99885, 10.001591 
2.515081e+3, 2.629742e+2, -836473.2, -876700.8, 83108.08, 0.22651696, 0.053276293, -771079.56, -408240.38, 0.0, 9.997834, 9.997276 
2.5147122e+3, 2.7296606e+2, -646101.6, -650377.75, 24846.268, 0.22074187, 0.04509785, -623301.6, -358371.56, 0.0, 9.998274, 9.997825 
2.5143433e+3, 2.8295752e+2, -486036.22, -510820.66, -67236.11, 0.17632872, 0.07661557, -430059.88, -263041.84, 0.0, 9.99845, 9.998153 
2.5139743e+3, 2.9294825e+2, 78400.7, -13441.312, -24452.855, 0.15837917, -0.23958732, 84505.47, 153605.5, 0.0, 10.000986, 9.999585 
2.5136074e+3, 3.0294162e+2, 44318.32, -231194.83, -9625.724, 0.3185726, -0.10242416, 44654.21, 44654.21, 0.0, 10.001331, 9.997677 
2.5132367e+3, 3.1293204e+2, -186959.8, -14012.979, 1462.2733, -0.08218413, -0.40609816, -14000.615, -14000.615, 0.0, 9.998339, 10.000461 
2.5302666e+3, 1.2343188e+2, -1825481.3, -2080745.9, -302324.2, 0.3295231, -0.15451019, -1624952.1, 105426.28, 0.34545994, 10.000456, 9.997271 
2.529893e+3, 1.3343212e+2, -1570439.9, -1290639.5, -90732.94, 0.079147495, 0.12730035, -1263792.8, 368576.72, 0.24384509, 9.998607, 10.003538 
2.5295237e+3, 1.4342517e+2, -1910913.9, -1770357.8, -34635.26, 0.123273216, -0.056623545, -1762286.5, -227855.3, 0.14280653, 9.997418, 9.999408 
2.5291532e+3, 1.5341899e+2, -1371113.1, -1409948.6, -56442.477, -0.043116696, -0.062763944, -1330841.8, 105649.1, 0.06363834, 10.000458, 9.999658 
2.5287834e+3, 1.6341235e+2, -1081100.8, -1379046.1, -167724.05, -0.03386782, 0.036720466, -1005742.8, 332811.13, 0.0187796, 10.002224, 9.998498 
2.5284126e+3, 1.7340337e+2, -869360.6, -1139424.1, -144028.4, 0.06687984, -0.16792057, -806964.5, 433673.97, 0.0026956536, 10.002749, 9.9991455 
2.5280416e+3, 1.8339561e+2, -818829.94, -1012964.0, -118936.84, 0.088792525, -0.19140819, -762378.3, 380332.3, 0.00007576087, 10.002074, 9.999692 
2.5276703e+3, 1.9338965e+2, -928549.3, -917565.0, -116676.63, 0.105409, -0.23559582, -806251.3, 238513.31, 0.00000000011876218, 10.000327, 10.000448 
2.5273e+3, 2.0338349e+2, -1083314.3, -1162393.1, -64578.734, 0.091511175, -0.13629389, -1047131.94, -100307.54, 0.0, 9.999413, 9.99863 
2.526929e+3, 2.1337622e+2, -789263.5, -918824.94, -12820.606, 0.00033818034, -0.15284458, -788007.06, 60895.18, 0.0, 10.000653, 9.998958 
2.526558e+3, 2.2336899e+2, -668839.25, -856530.9, -43795.297, -0.0762138, -0.063903965, -659123.2, 91854.29, 0.0, 10.000914, 9.998649 
2.5261858e+3, 2.3336123e+2, -650473.94, -723422.56, -38614.074, -0.07656233, -0.14207563, -633831.2, 19221.957, 0.0, 10.00014, 9.999226 
2.5258145e+3, 2.4335426e+2, -512658.84, -499243.6, -31977.31, -0.011517054, -0.097365685, -473277.97, 81841.195, 0.0, 9.999859, 10.000265 
2.525444e+3, 2.5334913e+2, -231207.52, -176472.44, -138742.77, 0.14339142, -0.120123535, -62423.793, 394739.84, 0.0, 10.000715, 10.001305 
2.5250742e+3, 2.6334313e+2, -318094.9, -634250.9, -73531.7, 0.23978305, 0.0009633572, -301829.7, 57392.047, 0.0, 10.001233, 9.997358 
2.5247058e+3, 2.733339e+2, -273487.47, -554529.25, 8413.69, 0.2886035, -0.05392241, -273235.8, -11912.299, 0.0, 10.000977, 9.997272 
2.5243378e+3, 2.8332505e+2, -143041.67, -232772.42, 95426.91, 0.31790927, -0.048641697, -82459.45, 80954.85, 0.0, 10.000271, 9.999167 
2.5239688e+3, 2.9331708e+2, -78456.68, -16395.746, 91242.28, 0.22492659, -0.28455892, 48948.285, 114430.125, 0.0, 9.999534, 10.00029 
2.523602e+3, 3.0331033e+2, -284804.28, -467701.94, 107097.516, 0.34250847, -0.14166643, -235424.27, -235424.27, 0.0, 9.999378, 9.997001 
2.5232318e+3, 3.1330207e+2, -104999.89, -111926.14, 53109.348, 0.17693155, -0.14083494, -55240.875, -55240.875, 0.0, 9.999408, 9.9993515 
2.54026e+3, 1.2380174e+2, -1818634.4, -1895254.4, -239789.69, 0.26252162, 0.22614616, -1614113.6, 112653.5, 0.31815657, 9.999852, 9.998787 
2.539886e+3, 1.3380249e+2, -1347829.0, -1065923.8, -92796.305, 0.16484013, 0.39740032, -1038119.8, 590631.6, 0.22319712, 10.000062, 10.004674 
2.539519e+3, 1.4379674e+2, -1657859.5, -1740513.5, 88200.98, 0.5165562, 0.3201187, -1601783.5, -70982.66, 0.12934339, 9.999611, 9.998549 
2.539146e+3, 1.5378693e+2, -1422616.6, -1553852.3, 64850.08, -0.17277537, 0.033580467, -1395978.1, 36916.85, 0.05657354, 10.000611, 9.998614 
2.5387755e+3, 1.637789e+2, -1286724.9, -1411959.9, -102099.445, -0.36318734, 0.049680624, -1229570.8, 105399.86, 0.016116831, 10.000625, 9.99898 
2.5384077e+3, 1.7377232e+2, -1082238.0, -1138640.6, -117090.586, -0.016834179, -0.04611604, -990000.5, 247029.69, 0.0021455006, 10.000894, 10.0 
2.5380373e+3, 1.8376598e+2, -1119248.5, -1204349.1, -149511.83, 0.1728508, 0.047854606, -1006350.1, 132737.6, 0.000046550977, 10.000299, 9.999222 
2.5376645e+3, 1.9375934e+2, -1027259.25, -1004811.9, -165663.14, 0.15883301, -0.054714277, -849992.6, 191155.9, 0.0, 9.999893, 10.000051 
2.5372934e+3, 2.037525e+2, -1112593.1, -1098483.3, -17699.623, 0.15954909, -0.0077421805, -1086484.4, -143271.52, 0.0, 9.999059, 9.999162 
2.536924e+3, 2.1374446e+2, -856387.7, -805852.56, 23432.215, 0.06462056, -0.25439343, -796659.75, 48631.938, 0.0, 9.999738, 10.000098 
2.5365528e+3, 2.2373782e+2, -840288.4, -862088.7, -93089.95, -0.014371409, -0.1884537, -757462.56, -10105.771, 0.0, 9.999544, 9.999243 
2.5361785e+3, 2.3373264e+2, -731704.06, -641915.56, -79164.984, -0.1338554, -0.13722634, -595801.06, 53606.55, 0.0, 9.999216, 10.000173 
2.5358063e+3, 2.4372603e+2, -895771.1, -969403.2, -34269.07, -0.12202934, 0.008868708, -882290.2, -330817.34, 0.0, 9.998647, 9.9975605 
2.5354367e+3, 2.537161e+2, -565743.25, -655044.1, -101614.57, 0.017905613, -0.24253717, -499401.9, -45831.02, 0.0, 9.9999, 9.998354 
2.535068e+3, 2.637079e+2, -415676.53, -557243.0, -87390.375, 0.131654, -0.20898195, -373999.34, -18347.16, 0.0, 10.000179, 9.998347 
2.5347003e+3, 2.7370158e+2, -224900.94, -281098.47, 20482.965, 0.23643693, -0.22102927, -218227.69, 39488.543, 0.0, 10.000345, 9.999415 
2.534332e+3, 2.8369582e+2, -232352.9, -231631.58, 49804.84, 0.32126692, -0.032809164, -182186.1, -22414.703, 0.0, 9.999566, 9.9995 
2.533963e+3, 2.9368916e+2, -165891.05, -6888.243, 95727.45, 0.32748923, -0.2075081, 38045.953, 99875.914, 0.0, 9.998799, 10.000683 
2.5335956e+3, 3.036817e+2, -459659.16, -517034.47, 147738.42, 0.377265, -0.15464087, -337848.9, -337848.9, 0.0, 9.998173, 9.997205 
2.533227e+3, 3.1367823e+2, -79765.82, 111996.7, 231324.19, 0.20318489, 0.2657799, 266523.3, 266523.3, 0.0, 9.998779, 10.001168 
2.5502527e+3, 1.24176025e+2, -1698940.8, -1832676.0, 381649.72, -0.025439791, 0.10563745, -1378345.0, 344742.56, 0.29081753, 10.000893, 9.999002 
2.5498834e+3, 1.3417353e+2, -1130296.6, -1224942.0, 91719.46, 0.30747786, 0.2678616, -1074411.3, 550698.7, 0.2027681, 10.003261, 10.001682 
2.549513e+3, 1.4416598e+2, -1148625.1, -1518893.3, 114220.234, 0.20605092, 0.22027679, -1116225.5, 410955.44, 0.11625642, 10.003547, 9.998227 
2.5491416e+3, 1.541565e+2, -1305031.6, -1529376.0, 130941.04, -0.106336534, 0.0046135676, -1244785.3, 184486.61, 0.04988728, 10.001469, 9.998427 
2.548771e+3, 1.6414846e+2, -1413534.4, -1426892.8, -28796.957, -0.20365202, 0.02271325, -1390652.3, -59304.34, 0.013707004, 9.9994955, 9.99944 
2.5484014e+3, 1.7414175e+2, -1378012.6, -1284409.4, -43396.1, 0.034597043, -0.04642384, -1267386.1, -33976.8, 0.0016894786, 9.998818, 10.000037 
2.548031e+3, 1.8413529e+2, -1196413.0, -1144288.1, -30364.535, 0.17001596, -0.0002579195, -1130334.9, 5133.1045, 0.000027889511, 9.999251, 10.000165 
2.5476593e+3, 1.9412845e+2, -759306.06, -837337.3, -1458.0421, 0.1929542, -0.13933778, -759278.9, 278250.5, 0.0, 10.00146, 10.000504 
2.5472882e+3, 2.0412178e+2, -638561.56, -814906.44, 85108.164, 0.16191767, -0.11325437, -604186.94, 335404.97, 0.0, 10.001974, 9.999727 
2.5469178e+3, 2.141144e+2, -723889.5, -764552.7, 64683.504, 0.046743408, -0.25597, -676417.5, 165247.69, 0.0, 10.000584, 10.000035 
2.5465462e+3, 2.2410813e+2, -745020.25, -766047.9, -91493.05, -0.027352238, -0.16925643, -663438.9, 80289.16, 0.0, 9.999928, 9.999733 
2.5461727e+3, 2.3410305e+2, -523727.84, -566314.9, -144235.75, -0.07322539, -0.067237474, -399222.28, 246557.67, 0.0, 10.000662, 10.000045 
2.5458008e+3, 2.4409617e+2, -524567.06, -781122.3, -63550.953, -0.041550852, 0.040419087, -509687.9, 38160.906, 0.0, 10.000961, 9.997828 
2.5454313e+3, 2.5408548e+2, -510505.84, -710872.7, -9455.59, 0.08613507, -0.21575545, -510060.63, -60106.813, 0.0, 10.000384, 9.997875 
2.5450623e+3, 2.6407677e+2, -355915.8, -372005.63, 88318.21, 0.17295638, -0.2485747, -275276.84, 76761.266, 0.0, 9.999878, 9.999779 
2.5446936e+3, 2.740711e+2, -208725.77, -181602.47, 48102.14, 0.22278702, -0.24397267, -145186.78, 108903.6, 0.0, 9.9999895, 10.000328 
2.5443253e+3, 2.8406575e+2, -91638.58, -165113.28, 25256.969, 0.31317982, -0.06880573, -83794.01, 72346.32, 0.0, 10.000387, 9.999624 
2.543957e+3, 2.9405925e+2, 153732.05, 81544.69, -72517.39, 0.3850476, -0.16389032, 198641.61, 256844.08, 0.0, 10.001159, 10.00023 
2.5435898e+3, 3.0405232e+2, 129658.02, -19739.316, 14343.328, 0.53400594, -0.14000669, 131022.63, 131022.63, 0.0, 10.001117, 9.9992895 
2.5432172e+3, 3.1404787e+2, -126189.67, -34376.633, 10528.161, 0.0010835085, 0.03829721, -33184.844, -33184.844, 0.0, 9.998735, 10.000301 
2.5602472e+3, 1.245533e+2, -1801102.3, -1965721.4, -164205.86, -0.042647194, 0.15379992, -1699731.5, 19645.336, 0.26403108, 10.000245, 9.998 
2.5598803e+3, 1.3454464e+2, -1495950.1, -1795140.0, 79519.5, 0.32616827, 0.044547748, -1476128.5, 145336.7, 0.18292536, 10.002184, 9.997575 
2.5595075e+3, 1.4453587e+2, -1396867.6, -1688455.9, 58923.074, -0.015050931, 0.13098931, -1385410.8, 138141.31, 0.1037245, 10.001857, 9.997807 
2.5591382e+3, 1.54527e+2, -1415499.6, -1619280.9, 19174.346, 0.0741673, -0.05875359, -1413711.1, 11926.54, 0.043632858, 10.000851, 9.998069 
2.5587672e+3, 1.6451904e+2, -1429817.8, -1444182.5, -60475.26, 0.14212957, -0.0021857251, -1376099.9, -48386.9, 0.011545959, 9.999592, 9.999204 
2.5583947e+3, 1.7451154e+2, -1393125.9, -1343795.4, -73027.06, 0.1609775, -0.14759605, -1291380.6, -61597.395, 0.0013158798, 9.99907, 9.999452 
2.558024e+3, 1.8450466e+2, -1193683.3, -1063847.3, 42789.715, 0.19820374, -0.13167807, -1051013.8, 80831.52, 0.000016496271, 9.999122, 10.000725 
2.5576547e+3, 1.9449756e+2, -888273.6, -854541.5, 38370.406, 0.23245853, -0.3864519, -829493.94, 204413.23, 0.0, 10.000512, 10.000816 
2.5572836e+3, 2.0449148e+2, -915151.0, -1005426.5, 7074.4336, 0.18956675, -0.27243674, -914600.0, 21364.574, 0.0, 10.000495, 9.999091 
2.5569108e+3, 2.1448582e+2, -1017245.06, -981545.6, -2662.2063, -0.01643429, -0.21425882, -981348.2, -143323.42, 0.0, 9.999066, 9.999235 
2.556539e+3, 2.2447994e+2, -1016525.4, -1026478.4, -81884.66, -0.050718438, 0.025053201, -939466.1, -199378.11, 0.0, 9.998745, 9.998467 
2.5561678e+3, 2.344728e+2, -772754.44, -817505.56, -115943.06, 0.047484398, -0.015290466, -677047.56, -34882.938, 0.0, 9.99961, 9.998783 
2.555797e+3, 2.444657e+2, -640325.2, -695659.25, -88578.125, 0.17108533, 0.08993449, -575193.8, -30958.91, 0.0, 9.999697, 9.998968 
2.5554267e+3, 2.544574e+2, -581450.6, -594021.4, -25219.78, 0.2690982, -0.1074932, -561744.75, -115434.54, 0.0, 9.999377, 9.999118 
2.5550565e+3, 2.644498e+2, -566044.2, -536130.1, 66819.586, 0.25137508, -0.058625087, -482614.0, -134234.19, 0.0, 9.998887, 9.999044 
2.554686e+3, 2.7444208e+2, -361979.9, -355622.7, 72988.91, 0.09963853, -0.2142136, -285743.22, -35292.38, 0.0, 9.999487, 9.999326 
2.5543177e+3, 2.844342e+2, -305697.28, -487235.97, 25088.006, 0.09117022, -0.14239222, -302294.0, -149765.63, 0.0, 9.999963, 9.997576 
2.5539508e+3, 2.9442602e+2, -27593.793, -270880.56, -43134.12, 0.23058881, -0.21487638, -20172.6, 34441.98, 0.0, 10.001103, 9.997805 
2.553585e+3, 3.0441886e+2, 214386.5, 189386.64, -135043.84, 0.49672225, -0.14875637, 337507.7, 337507.7, 0.0, 10.00117, 10.000597 
2.553212e+3, 3.1441763e+2, -262202.28, -205216.5, -35967.016, 0.07854156, 0.1447697, -187823.97, -187823.97, 0.0, 9.998487, 9.99914 
2.5702438e+3, 1.24917716e+2, -1670466.1, -1863468.4, 92473.484, 0.075458065, -0.33672202, -1633311.6, 82488.79, 0.23823552, 10.000974, 9.998403 
2.5698727e+3, 1.349137e+2, -1553734.6, -1730539.8, 3492.2263, 0.038625635, -0.061304554, -1553665.8, 64175.813, 0.16394834, 10.0011215, 9.998549 
2.5695017e+3, 1.4490588e+2, -1569463.4, -1739266.3, 61942.805, -0.08269048, 0.04922007, -1549268.9, -29348.64, 0.09188186, 10.000326, 9.998235 
2.569134e+3, 1.5489759e+2, -1372121.8, -1595650.0, 45315.918, 0.12936054, -0.059084386, -1363284.3, 58719.406, 0.03784501, 10.00103, 9.99822 
2.5687626e+3, 1.6489024e+2, -1133790.6, -1215290.3, -63606.23, 0.22427739, 0.003394852, -1099000.4, 225073.83, 0.009625426, 10.001216, 10.000014 
2.5683886e+3, 1.7488305e+2, -1064640.4, -1156060.6, -23390.809, 0.14847007, -0.11621383, -1059003.3, 167136.78, 0.0010124295, 10.001116, 9.999799 
2.568017e+3, 1.8487623e+2, -979215.3, -1016372.4, 68104.836, 0.087945774, -0.084249355, -927200.44, 201002.72, 0.000009793076, 10.000737, 10.000307 
2.567647e+3, 1.948692e+2, -962376.25, -977176.56, 25008.754, 0.10218765, -0.22132164, -943695.75, 86573.63, 0.0, 10.000239, 10.000159 
2.5672764e+3, 2.0486316e+2, -951814.7, -915398.7, -66601.93, 0.09426814, -0.13613331, -864560.75, 67766.1, 0.0, 9.999651, 10.00016 
2.5669044e+3, 2.148578e+2, -935975.9, -884747.3, -16873.336, 0.061267983, -0.081485055, -879689.1, -45309.547, 0.0, 9.999216, 9.999903 
2.5665328e+3, 2.2485112e+2, -877615.0, -972942.5, 18773.432, 0.04066573, 0.04344605, -874051.06, -137602.48, 0.0, 9.999574, 9.99848 
2.5661618e+3, 2.3484229e+2, -661314.8, -843018.25, 6037.744, 0.07577622, -0.08446415, -661114.4, -22572.576, 0.0, 10.000486, 9.998265 
2.5657916e+3, 2.4483472e+2, -390418.56, -502199.44, -13742.529, 0.19686805, -0.025529634, -388753.8, 151862.23, 0.0, 10.0010195, 9.999654 
2.5654218e+3, 2.5482792e+2, -260862.22, -407638.78, -57358.652, 0.36942673, -0.07614276, -241106.23, 201569.38, 0.0, 10.001334, 9.999478 
2.565051e+3, 2.6482046e+2, -197309.5, -423659.4, 31529.262, 0.31480917, -0.0143885175, -192999.7, 151745.17, 0.0, 10.001588, 9.998518 
2.56468e+3, 2.7481136e+2, -61437.633, -317405.6, -17152.494, 0.072096996, -0.20393972, -60293.355, 186540.16, 0.0, 10.001886, 9.998427 
2.5643116e+3, 2.8480276e+2, -94713.93, -418451.2, 8606.876, 0.0546542, -0.15864244, -94485.27, 54434.02, 0.0, 10.001504, 9.997281 
2.563946e+3, 2.9479438e+2, -177166.02, -443795.06, 35333.633, 0.2883193, -0.16220477, -172563.08, -121556.625, 0.0, 10.000413, 9.996959 
2.563578e+3, 3.0478543e+2, 84874.61, 93767.47, -39779.496, 0.36521465, -0.2065611, 129348.266, 129348.266, 0.0, 10.0002775, 10.000408 
2.5632071e+3, 3.1478205e+2, 197267.67, 302151.8, -17047.125, 0.2793715, -0.051986516, 304852.97, 304852.97, 0.0, 10.000143, 10.001907 
2.5802395e+3, 1.2528637e+2, -1605235.9, -1633710.6, -37499.613, 0.101452984, -0.148446, -1579361.9, 132822.69, 0.21373183, 10.000612, 10.000196 
2.5798652e+3, 1.3528281e+2, -1548314.4, -1555860.4, -89996.53, -0.14681146, -0.10004684, -1462011.8, 152207.0, 0.14603193, 10.000395, 10.000154 
2.5794962e+3, 1.4527592e+2, -1655225.4, -1722794.5, 48907.723, -0.010986099, -0.0048212972, -1629567.9, -113279.234, 0.080827504, 9.999629, 9.998629 
2.579129e+3, 1.5526846e+2, -1531036.9, -1670424.0, 30434.307, 0.2484191, -0.07363798, -1524681.5, -106314.664, 0.032553293, 10.000042, 9.998135 
2.5787577e+3, 1.6526188e+2, -1219857.1, -1221767.8, -82027.49, 0.3057819, 0.05875091, -1138779.4, 181651.39, 0.007938516, 10.000554, 10.000216 
2.5783828e+3, 1.7525506e+2, -1148741.9, -1201098.3, -100062.47, 0.13538855, -0.09085118, -1071489.9, 151002.1, 0.00076767127, 10.000632, 9.999667 
2.5780103e+3, 1.8524858e+2, -1124562.5, -1222266.5, -6069.8643, 0.020512171, 0.043829218, -1124186.9, 368.29248, 0.000005913737, 10.000485, 9.9989395 
2.5776395e+3, 1.9524194e+2, -1189711.3, -1247045.5, -43747.0, -0.03662488, 0.040760122, -1166075.4, -139450.81, 0.0, 9.999554, 9.998558 
2.5772688e+3, 2.0523602e+2, -977556.0, -827220.0, -110257.34, 0.046315525, 0.17788437, -768945.44, 159735.02, 0.0, 9.99914, 10.000963 
2.5768983e+3, 2.1522975e+2, -1002804.8, -842357.2, -76955.91, 0.21314016, 0.0021454857, -811414.1, 19320.201, 0.0, 9.9985075, 10.0005045 
2.576527e+3, 2.2522198e+2, -1042512.0, -1052231.5, 9822.203, 0.19088237, -0.0024307056, -1036413.06, -303604.22, 0.0, 9.998695, 9.998278 
2.5761545e+3, 2.3521186e+2, -866787.0, -973064.25, 18928.938, -0.0023539301, -0.27216464, -863516.25, -228604.8, 0.0, 9.999429, 9.997816 
2.5757843e+3, 2.4520406e+2, -604824.7, -688942.3, -25958.057, 0.052520055, -0.16893707, -597459.2, -60472.043, 0.0, 10.000078, 9.998759 
2.5754157e+3, 2.551973e+2, -503515.72, -647073.1, -37368.34, 0.29952577, -0.16684398, -494371.16, -55323.043, 0.0, 10.000328, 9.998277 
2.5750458e+3, 2.651894e+2, -429192.03, -673907.2, 32478.785, 0.28131318, -0.019292854, -424954.8, -83826.83, 0.0, 10.000699, 9.997208 
2.5746754e+3, 2.7517998e+2, -287850.94, -594911.4, 7731.5493, 0.026165059, -0.14420608, -287656.4, -44426.668, 0.0, 10.001164, 9.996843 
2.574307e+3, 2.8517208e+2, -62030.207, -196253.7, -35985.316, 0.07357671, -0.033399403, -52991.25, 92315.24, 0.0, 10.000956, 9.999032 
2.5739408e+3, 2.951643e+2, -175138.27, -276831.72, 62126.164, 0.31854752, -0.17437856, -145703.92, -98329.484, 0.0, 9.999809, 9.998379 
2.5735673e+3, 3.051552e+2, -174509.08, -320512.6, 16258.523, -0.07166847, -0.16394684, -172720.48, -172720.48, 0.0, 9.999837, 9.997746 
2.5731984e+3, 3.151492e+2, 53493.918, 83700.0, -69853.484, -0.14177197, -0.014864661, 140064.52, 140064.52, 0.0, 9.999941, 10.000477 
2.590235e+3, 1.2565733e+2, -1500850.1, -1514951.5, -75371.78, 0.038111974, -0.036560807, -1432200.0, 276353.44, 0.19077115, 10.001058, 10.000997 
2.589859e+3, 1.356526e+2, -1564612.5, -1590497.1, -107617.14, -0.18119372, -0.0102175595, -1469162.3, 141436.31, 0.12932457, 10.00033, 9.999976 
2.5894895e+3, 1.4564513e+2, -1542383.3, -1495884.8, 25161.965, -0.04158394, -0.052477572, -1484875.4, 27793.84, 0.07062259, 9.999569, 10.000268 
2.5891238e+3, 1.5563849e+2, -1457506.0, -1483637.6, 80416.54, 0.3206539, -0.15303446, -1389100.8, 25630.547, 0.027766839, 9.99979, 9.999579 
2.5887525e+3, 1.6563118e+2, -1328175.4, -1488210.4, -64205.4, 0.31228018, -0.07038939, -1305600.8, 11203.085, 0.0064744665, 10.000591, 9.99843 
2.5883773e+3, 1.7562282e+2, -1108220.1, -1382065.9, -145494.77, 0.08396054, -0.15611736, -1045351.56, 173537.34, 0.0005723583, 10.001582, 9.998043 
2.5880054e+3, 1.8561603e+2, -895418.75, -1045243.7, -138518.78, 0.03145264, -0.025464496, -812853.2, 308103.5, 0.0000035552432, 10.001675, 9.999624 
2.5876346e+3, 1.9560981e+2, -932979.56, -1080350.5, -93175.73, 0.0895572, -0.0004756919, -887874.2, 135144.22, 0.0, 10.000947, 9.999107 
2.587263e+3, 2.0560314e+2, -737837.2, -749893.7, -158817.88, 0.06793965, 0.03611075, -584933.2, 340147.84, 0.0, 10.000853, 10.000712 
2.5868905e+3, 2.155958e+2, -611134.94, -715255.4, -198110.83, 0.04713954, -0.15892538, -458358.25, 368788.38, 0.0, 10.0013, 10.000105 
2.5865194e+3, 2.2558859e+2, -524414.4, -718767.3, -114064.7, 0.046202723, -0.1493251, -471744.16, 257471.11, 0.0, 10.001794, 9.999095 
2.5861496e+3, 2.355807e+2, -378235.16, -686413.8, -86249.68, 0.029123135, -0.22864726, -355738.75, 275555.44, 0.0, 10.002439, 9.998382 
2.5857797e+3, 2.4557294e+2, -298893.8, -565004.6, -163689.02, 0.11569344, -0.15790984, -221004.11, 312364.94, 0.0, 10.00218, 9.998647 
2.5854102e+3, 2.5556493e+2, -418563.03, -650079.4, -180573.88, 0.32296395, -0.21638255, -319829.06, 115614.664, 0.0, 10.000996, 9.997979 
2.5850397e+3, 2.6555705e+2, -459989.5, -687837.56, -26250.838, 0.2620838, -0.07625791, -457004.22, -119476.91, 0.0, 10.000361, 9.997318 
2.5846696e+3, 2.7554864e+2, -439500.4, -687504.7, -6639.0586, 0.043206085, -0.040753484, -439322.8, -199699.4, 0.0, 10.000062, 9.996817 
2.5843018e+3, 2.8554153e+2, 21742.354, 75655.12, -20006.197, 0.10291374, 0.028203364, 82267.984, 223958.03, 0.0, 10.000417, 10.001208 
2.583934e+3, 2.9553443e+2, 68915.69, -509.55554, 10282.572, 0.29072765, -0.20917183, 70406.62, 114149.42, 0.0, 10.000646, 9.999941 
2.5835595e+3, 3.05526e+2, -77752.64, -398443.28, 60695.32, -0.25617623, -0.14413306, -66649.59, -66649.59, 0.0, 10.001031, 9.996655 
2.5832006e+3, 3.15517e+2, -200825.38, -379672.88, 70598.49, 0.7218802, -0.10743682, -176316.02, -176316.02, 0.0, 9.999528, 9.997568 
2.6002312e+3, 1.2602995e+2, -1911709.0, -1909568.9, -129003.48, 0.22768626, 0.14816247, -1781631.0, -76725.25, 0.16949552, 9.998977, 9.998962 
2.5998536e+3, 1.3602203e+2, -1672140.1, -1800604.3, -141409.16, -0.09768298, -0.04334974, -1581058.6, 25922.662, 0.11391175, 10.000279, 9.9985 
2.5994834e+3, 1.4601469e+2, -1362834.6, -1251634.5, 50747.594, 0.020262903, -0.07515428, -1231957.3, 277088.4, 0.061296463, 10.000307, 10.001587 
2.599118e+3, 1.5600841e+2, -1396415.0, -1409841.1, 15466.803, 0.4177341, -0.29439977, -1386267.3, 24828.68, 0.023481611, 10.000144, 9.999858 
2.598747e+3, 1.6600011e+2, -1474557.9, -1799894.5, -54967.082, 0.3964064, -0.19905032, -1465521.9, -152341.36, 0.005220199, 10.000714, 9.996223 
2.5983727e+3, 1.7599003e+2, -1386504.9, -1778060.1, -94284.07, 0.12194589, -0.24083431, -1364984.6, -149692.47, 0.00041937284, 10.000887, 9.995666 
2.598001e+3, 1.859825e+2, -980192.44, -991094.8, -111561.58, 0.13860331, -0.119069226, -873948.94, 243418.39, 0.0000020172258, 10.000773, 10.00038 
2.5976312e+3, 1.9597591e+2, -1152729.9, -1162397.8, -115213.21, 0.3339951, -0.22986136, -1042249.25, -22823.654, 0.0, 9.999437, 9.999233 
2.5972575e+3, 2.0596814e+2, -1001375.06, -1002271.8, -130220.48, 0.15680894, -0.23849274, -871602.2, 49896.492, 0.0, 9.999754, 9.999444 
2.5968817e+3, 2.1595909e+2, -941833.2, -1033844.8, -152160.48, -0.2546576, -0.5044512, -828875.6, -5289.6157, 0.0, 9.999891, 9.998539 
2.5965118e+3, 2.259536e+2, -629904.44, -684364.3, -69445.16, -0.23076105, -0.27793124, -582541.5, 143098.47, 0.0, 10.000819, 9.999759 
2.596146e+3, 2.3594953e+2, -594629.44, -765427.5, -63784.17, 0.08565869, -0.07433015, -573438.56, 54242.473, 0.0, 10.000956, 9.998515 
2.5957766e+3, 2.4594182e+2, -513978.44, -707077.6, -210925.05, 0.26731595, 0.023863645, -378555.63, 151200.38, 0.0, 10.000986, 9.998208 
2.5954047e+3, 2.559311e+2, -658597.06, -841931.5, -202570.7, 0.3330634, -0.29851547, -527918.25, -96059.17, 0.0, 9.999759, 9.997244 
2.595033e+3, 2.659233e+2, -555964.06, -660963.06, -54002.27, 0.19399625, -0.14326395, -533147.94, -199205.16, 0.0, 9.999522, 9.997867 
2.5946626e+3, 2.7591646e+2, -527868.1, -680121.94, -5075.377, -0.05146169, -0.037630122, -527699.1, -291676.38, 0.0, 9.999312, 9.997225 
2.5942945e+3, 2.859105e+2, 1062.458, 196295.4, -32210.664, -0.028402055, 0.06823684, 201472.42, 339548.56, 0.0, 9.999815, 10.002307 
2.593926e+3, 2.9590484e+2, 8466.098, 47202.03, 10554.164, 0.016336735, -0.14766522, 49891.004, 90004.914, 0.0, 10.000017, 10.000551 
2.5935546e+3, 3.0589393e+2, -104792.08, -359352.25, 10538.721, -0.23344654, -0.38608706, -104356.52, -104356.52, 0.0, 10.000767, 9.996986 
2.593188e+3, 3.158861e+2, -73574.99, 70646.055, 77641.09, 0.019115152, -0.30003652, 104498.11, 104498.11, 0.0, 9.99888, 10.000925 
2.6102215e+3, 1.263993e+2, -1879431.9, -1628336.0, -116757.84, -0.04713357, 0.11001295, -1582435.1, 118847.414, 0.14988421, 9.997871, 10.001601 
2.6098514e+3, 1.3639131e+2, -1469854.0, -1560782.5, 11992.073, 0.20221719, -0.23408976, -1468299.0, 135051.45, 0.09979623, 10.001015, 9.999883 
2.6094806e+3, 1.4638422e+2, -1283912.3, -1411715.0, 82500.414, 0.21532509, -0.1926016, -1243459.9, 261956.58, 0.05285716, 10.001713, 9.999765 
2.609111e+3, 1.563771e+2, -1265582.0, -1523135.1, -26576.729, 0.1735459, -0.26793653, -1262868.1, 144617.67, 0.019694533, 10.001695, 9.998386 
2.6087403e+3, 1.6637002e+2, -1145731.9, -1418484.0, -80643.695, 0.17449501, -0.11233857, -1123672.4, 185886.81, 0.004163879, 10.001927, 9.998268 
2.6083687e+3, 1.7636241e+2, -1121527.9, -1465130.9, 24536.139, 0.15997128, -0.07218273, -1119784.6, 91856.54, 0.00030229846, 10.001811, 9.997385 
2.6079962e+3, 1.8635443e+2, -1007976.1, -1089833.8, -29170.598, 0.20733897, -0.02284288, -998644.7, 115075.375, 0.0000010444409, 10.000823, 9.999741 
2.6076236e+3, 1.9634593e+2, -1227411.8, -1263970.3, -59321.94, 0.29655308, -0.20506732, -1183616.6, -167816.97, 0.0, 9.999027, 9.998796 
2.607251e+3, 2.0633814e+2, -990861.94, -995071.0, 16441.432, 0.18670532, -0.2052384, -976390.9, -58517.207, 0.0, 9.999686, 9.999565 
2.6068783e+3, 2.1633016e+2, -679714.44, -912068.75, 41636.82, -0.06816039, -0.32174245, -672478.6, 147472.06, 0.0, 10.001541, 9.998621 
2.6065078e+3, 2.2632368e+2, -472747.56, -621118.44, 63958.43, -0.13210332, -0.18895204, -448983.22, 273030.44, 0.0, 10.001793, 9.999789 
2.6061398e+3, 2.3631811e+2, -598177.25, -769294.94, 24458.818, -0.015382228, -0.08067326, -594749.9, 29318.379, 0.0, 10.000741, 9.998657 
2.60577e+3, 2.4631013e+2, -463065.78, -621497.8, -78612.195, 0.15894307, -0.04695321, -430679.6, 95466.82, 0.0, 10.0009985, 9.998793 
2.605399e+3, 2.562999e+2, -261678.4, -614859.06, -42226.46, 0.33270437, -0.30646825, -256699.97, 171546.14, 0.0, 10.00217, 9.997686 
2.605028e+3, 2.662924e+2, -112133.055, -365329.03, 126253.77, 0.22712831, -0.17715172, -59937.68, 270387.75, 0.0, 10.002076, 9.998734 
2.6046568e+3, 2.7628615e+2, -252665.47, -464155.9, 138751.84, 0.016106036, -0.030938178, -183956.89, 48438.797, 0.0, 10.000705, 9.998088 
2.6042882e+3, 2.8628018e+2, -95938.17, 112038.28, 75568.81, 0.02530128, 0.05631127, 136596.53, 271047.0, 0.0, 9.999285, 10.001968 
2.6039192e+3, 2.9627442e+2, -369537.75, -184675.72, -13601.704, 0.06410212, -0.08756793, -183680.3, -147185.86, 0.0, 9.997546, 10.000164 
2.6035497e+3, 3.0626217e+2, -290498.1, -343237.72, 37685.3, -0.0656764, -0.50780904, -270872.8, -270872.8, 0.0, 9.998857, 9.998057 
2.6031867e+3, 3.1625718e+2, 463892.56, 805622.8, -102615.39, 0.55359197, -0.24073026, 834068.5, 834068.5, 0.0, 10.000427, 10.005213 
2.6202118e+3, 1.2676637e+2, -1785050.1, -1363749.9, -46761.457, -0.17354454, -0.08066462, -1358622.1, 339057.9, 0.13183987, 9.997673, 10.00362 
2.619849e+3, 1.3676083e+2, -1502568.5, -1471226.6, -72868.36, 0.56973594, -0.40968052, -1412363.1, 187353.67, 0.08692974, 10.000444, 10.000744 
2.6194784e+3, 1.4675383e+2, -1518485.0, -1805290.4, -23808.111, 0.46515524, -0.2680091, -1516522.1, -14734.161, 0.045284748, 10.001212, 9.997285 
2.619104e+3, 1.567458e+2, -1579735.5, -1885499.6, -77003.91, -0.024635563, -0.21568084, -1561437.8, -157558.75, 0.01638905, 10.000466, 9.996509 
2.6187333e+3, 1.6674066e+2, -1124115.3, -1100984.1, -91179.01, -0.010655347, 0.052780565, -1020640.1, 285292.0, 0.0032885466, 10.000868, 10.000918 
2.6183644e+3, 1.7673631e+2, -1195042.0, -1304073.8, -63971.047, 0.26370236, 0.13971739, -1165508.6, 42464.32, 0.00021471751, 10.000541, 9.999096 
2.6179913e+3, 1.8672806e+2, -1146023.3, -1295849.5, -157441.67, 0.30658594, 0.14790964, -1046580.8, 63474.305, 0.00000047553752, 10.0005455, 9.998427 
2.6176155e+3, 1.9671772e+2, -1340520.8, -1481224.4, -156283.16, 0.21762559, -0.11632866, -1239484.6, -227325.86, 0.0, 9.999071, 9.997263 
2.617245e+3, 2.0671082e+2, -976533.56, -949921.56, 40426.156, 0.254467, 0.018685436, -920667.9, -6442.943, 0.0, 9.999733, 9.999805 
2.6168773e+3, 2.1670516e+2, -939815.94, -1062985.6, 43022.098, 0.34582818, 0.08000175, -926276.9, -109999.92, 0.0, 9.999995, 9.998307 
2.616505e+3, 2.2669661e+2, -687415.2, -760446.94, -5082.482, 0.11096842, 0.04367383, -687063.2, 31295.459, 0.0, 10.000649, 9.999314 
2.616131e+3, 2.3668653e+2, -886242.1, -976799.9, -17716.3, -0.28457028, -0.28005368, -882899.56, -262443.38, 0.0, 9.999234, 9.997912 
2.615761e+3, 2.4667871e+2, -547049.6, -579058.3, -38472.156, -0.17208204, -0.23750077, -521385.72, 1147.0122, 0.0, 10.000219, 9.999391 
2.615393e+3, 2.5667143e+2, -445411.16, -680901.25, -3143.1226, 0.18699789, -0.28548655, -445369.22, -20764.69, 0.0, 10.000952, 9.997774 
2.6150233e+3, 2.6666504e+2, -174905.3, -307640.53, 73192.67, 0.23072083, -0.08912047, -142470.95, 184197.0, 0.0, 10.001363, 9.999411 
2.6146522e+3, 2.7665868e+2, -372099.25, -526951.75, 114499.27, 0.079401284, -0.05164076, -311305.0, -82573.55, 0.0, 9.999999, 9.997957 
2.6142824e+3, 2.866511e+2, -336877.53, -243310.6, 5874.9814, 0.1465573, -0.0004564656, -242943.16, -112135.64, 0.0, 9.9987955, 9.999709 
2.6139128e+3, 2.9664254e+2, -662331.56, -565453.0, -23292.86, 0.2974737, -0.21990795, -560143.56, -527252.3, 0.0, 9.996664, 9.99796 
2.6135433e+3, 3.066344e+2, -329013.47, -213801.4, 119535.28, 0.08415318, -0.2088884, -138715.55, -138715.55, 0.0, 9.998017, 9.999342 
2.6131722e+3, 3.1663233e+2, 217617.28, 371005.28, 7680.274, -0.4403175, 0.2302922, 371388.9, 371388.9, 0.0, 10.000209, 10.002331 
2.630207e+3, 1.2713149e+2, -1850116.3, -1587098.9, -52088.31, 0.013410255, -0.28481224, -1577158.9, 116938.99, 0.11528824, 9.998098, 10.001679 
2.6298407e+3, 1.371273e+2, -1520333.9, -1607866.5, -123848.805, 0.21268497, -0.30053204, -1432745.6, 163385.2, 0.07524984, 10.000744, 9.999671 
2.6294708e+3, 1.4712116e+2, -1426458.9, -1589035.6, -156259.89, 0.22054644, -0.13557902, -1331608.3, 166584.6, 0.038529176, 10.001066, 9.9989 
2.6291e+3, 1.5711366e+2, -1480062.0, -1666171.1, -82932.68, 0.13262655, -0.16665666, -1448469.1, -48195.598, 0.013527696, 10.000299, 9.998145 
2.6287287e+3, 1.6710746e+2, -1182579.8, -1122550.3, -119422.44, 0.11296669, -0.08437103, -1029428.44, 272905.13, 0.0025719018, 10.000319, 10.001103 
2.6283577e+3, 1.7710185e+2, -1202197.9, -1290793.6, -158572.6, 0.148358, -0.12014236, -1081852.0, 122532.336, 0.00015054179, 10.000271, 9.999371 
2.627985e+3, 1.8709436e+2, -998016.8, -1303223.6, -273584.53, 0.19969429, -0.027878845, -837353.06, 269108.78, 0.0000001940375, 10.001782, 9.997808 
2.6276106e+3, 1.9708551e+2, -726071.9, -1207111.1, -248957.66, 0.19672087, -0.079851836, -620427.4, 388128.88, 0.0, 10.0032015, 9.997205 
2.6272398e+3, 2.0707828e+2, -553809.6, -712531.1, -104747.49, 0.23229761, -0.01669344, -501754.34, 408870.63, 0.0, 10.002377, 10.00023 
2.626871e+3, 2.1707179e+2, -796268.56, -923021.06, -77035.15, 0.29680297, -0.05389802, -759890.3, 52792.2, 0.0, 10.000497, 9.999094 
2.6264995e+3, 2.2706431e+2, -655901.9, -693856.25, -80242.92, 0.14080122, -0.06920714, -592422.7, 122331.84, 0.0, 10.000517, 9.99989 
2.6261264e+3, 2.3705593e+2, -526016.56, -741063.6, -55377.883, -0.14533514, -0.24720477, -512593.72, 104243.57, 0.0, 10.0012455, 9.998631 
2.625756e+3, 2.4704874e+2, -328627.47, -503504.06, -77643.66, -0.10137562, -0.17442176, -299129.9, 219779.2, 0.0, 10.001697, 9.999264 
2.6253876e+3, 2.5704217e+2, -294156.7, -565154.4, -105291.1, 0.13155076, -0.124181345, -258056.72, 162918.45, 0.0, 10.001653, 9.998285 
2.6250175e+3, 2.670354e+2, -142941.03, -208788.72, -90887.375, 0.19400442, -0.05193328, -79197.945, 243840.38, 0.0, 10.001152, 10.0002165 
2.6246467e+3, 2.770284e+2, -286968.7, -406966.2, -76104.734, 0.1629528, -0.13539748, -250056.23, -24954.305, 0.0, 10.000114, 9.998764 
2.6242766e+3, 2.8702053e+2, -113945.664, -238227.63, -79904.5, 0.26470175, -0.115847796, -74862.98, 52319.656, 0.0, 10.000649, 9.9988985 
2.6239067e+3, 2.97012e+2, -13529.294, -287251.47, -17061.4, 0.44955385, -0.23064736, -12469.938, 16803.545, 0.0, 10.001172, 9.997739 
2.6235366e+3, 3.0700693e+2, 91957.336, 2808.7678, 162353.28, 0.16167323, 0.073024295, 215744.14, 215744.14, 0.0, 10.000767, 9.99954 
2.623169e+3, 3.169919e+2, -108559.18, 115963.57, 38249.75, -0.051588755, -0.75127524, 122300.93, 122300.93, 0.0, 9.998229, 10.001584 
2.640203e+3, 1.2749785e+2, -1565038.8, -1668188.8, 39215.66, 0.29675135, -0.33796924, -1551823.0, 138683.73, 0.10017185, 10.001231, 9.999526 
2.639832e+3, 1.374941e+2, -1594199.5, -1797379.4, -64027.484, -0.109867536, -0.11803497, -1575706.0, 16838.742, 0.06469282, 10.000949, 9.998223 
2.6394635e+3, 1.4748858e+2, -1336951.4, -1325842.9, -132245.69, 0.054914963, 0.03482828, -1199034.9, 295563.38, 0.032530583, 10.000823, 10.000781 
2.6390967e+3, 1.5748128e+2, -1470804.3, -1554114.5, -131488.31, 0.43322322, -0.1747407, -1374530.8, 22138.104, 0.011066901, 9.999993, 9.999021 
2.6387244e+3, 1.6747336e+2, -1208669.1, -1191489.8, -129551.36, 0.3210264, -0.28040197, -1070243.6, 228498.86, 0.0019930317, 10.000456, 10.000506 
2.63835e+3, 1.7746525e+2, -1335138.1, -1490446.8, -165066.5, 0.020641, -0.51213694, -1230372.1, -29554.947, 0.00010503105, 10.000009, 9.99812 
2.6379785e+3, 1.874588e+2, -1151643.5, -1378236.9, -195763.39, 0.07205135, -0.26291606, -1038755.7, 64131.93, 0.00000008640195, 10.000968, 9.997559 
2.6376075e+3, 1.974525e+2, -1068407.0, -1429927.1, -197069.8, 0.25303152, -0.0490756, -981752.25, 23208.629, 0.0, 10.001285, 9.996539 
2.6372346e+3, 2.0744395e+2, -666842.94, -721470.2, -141428.27, 0.18249823, -0.12142889, -550114.94, 356926.5, 0.0, 10.001464, 10.000582 
2.636862e+3, 2.1743464e+2, -998146.9, -1022015.4, -119196.25, 0.039458968, -0.49612337, -890288.9, -81165.1, 0.0, 9.999201, 9.999039 
2.6364928e+3, 2.274299e+2, -709016.3, -617044.6, -55272.57, 0.10990284, -0.2943588, -591129.44, 120041.695, 0.0, 9.999811, 10.000699 
2.6361248e+3, 2.3742653e+2, -791844.6, -881720.9, -44702.53, 0.24046242, -0.07758735, -773397.0, -160188.28, 0.0, 9.999578, 9.99845 
2.635754e+3, 2.4742007e+2, -521661.06, -675346.75, -90202.96, 0.17413881, 0.12041746, -480007.5, 35268.574, 0.0, 10.000815, 9.998471 
2.6353815e+3, 2.5741214e+2, -559614.6, -780410.1, -107580.47, 0.029783966, 0.085444935, -515865.6, -98508.32, 0.0, 10.000307, 9.997451 
2.6350108e+3, 2.6740342e+2, -209400.52, -155354.34, -138797.56, 0.06522747, -0.057508774, -40973.715, 278463.72, 0.0, 10.0004635, 10.000864 
2.63464e+3, 2.7739444e+2, -448184.84, -470078.06, -90019.52, 0.1410085, -0.41894835, -368448.78, -146932.02, 0.0, 9.999064, 9.998827 
2.6342702e+3, 2.873884e+2, -142477.25, -181741.78, -54285.996, 0.21986692, -0.24735281, -104382.61, 19194.814, 0.0, 10.000242, 9.999452 
2.6339e+3, 2.973834e+2, -53897.16, -304227.03, 16758.715, 0.1974925, -0.081219494, -52780.207, -27147.525, 0.0, 10.00096, 9.997719 
2.6335293e+3, 3.0737796e+2, 29708.309, -137459.69, 83348.67, -0.06001062, 0.22420968, 64163.65, 64163.65, 0.0, 10.000909, 9.998457 
2.6331627e+3, 3.1736335e+2, -252239.98, -24168.035, -24406.736, 0.023800967, -0.4809242, -21585.434, -21585.434, 0.0, 9.99764, 10.000873 
2.6501992e+3, 1.27869e+2, -1104144.5, -1405671.3, -51882.254, 0.06199343, -0.030219173, -1095467.1, 591413.7, 0.08643013, 10.004382, 10.000015 
2.6498303e+3, 1.3786349e+2, -1398298.8, -1661015.9, -3590.0671, 0.16848876, 0.015678648, -1398249.8, 190684.14, 0.055199515, 10.002047, 9.998701 
2.6494598e+3, 1.478565e+2, -1293318.3, -1331450.0, -64920.84, 0.16681892, 0.0147364, -1244721.6, 246276.77, 0.027235242, 10.001157, 10.0006075 
2.6490888e+3, 1.5784809e+2, -1356171.6, -1501613.3, -91323.46, 0.18534715, -0.26383284, -1312152.1, 80924.086, 0.0089680515, 10.000672, 9.999079 
2.6487172e+3, 1.6784132e+2, -1120642.1, -1192626.9, -117199.62, 0.116458535, -0.23284827, -1034032.7, 261108.1, 0.0015322798, 10.001271, 10.000092 
2.6483443e+3, 1.7783472e+2, -1078888.0, -1319075.3, -157228.8, -0.04859297, -0.2535123, -1001134.8, 196069.75, 0.00007382683, 10.001462, 9.998616 
2.6479727e+3, 1.8782827e+2, -1042688.7, -1132920.1, -155303.97, 0.056269635, -0.1287524, -926080.06, 173190.73, 0.000000036839044, 10.000809, 9.99938 
2.6476014e+3, 1.9782187e+2, -1168828.0, -1300868.1, -48599.42, 0.21992376, -0.055631947, -1152869.1, -151530.38, 0.0, 9.999684, 9.998241 
2.6472288e+3, 2.0781378e+2, -831050.44, -869016.7, -10406.074, 0.15270568, -0.10563273, -828385.4, 75029.914, 0.0, 10.000517, 10.000059 
2.6468557e+3, 2.1780503e+2, -666920.8, -891088.0, -22435.768, -0.02411133, -0.33906913, -664697.44, 140798.13, 0.0, 10.001463, 9.998875 
2.6464865e+3, 2.2779918e+2, -521349.34, -643243.3, -38882.637, 0.05106441, -0.17852956, -510002.5, 197553.5, 0.0, 10.001479, 9.999772 
2.646119e+3, 2.377946e+2, -542404.4, -746546.7, -118431.38, 0.23011263, 0.023491235, -488128.16, 121479.14, 0.0, 10.001052, 9.998719 
2.6457483e+3, 2.4778818e+2, -489596.06, -502660.28, -102894.99, 0.22651495, 0.109663114, -393026.03, 118644.05, 0.0, 10.000233, 9.999999 
2.6453763e+3, 2.5778067e+2, -626545.6, -703791.56, -1837.2854, 0.13968469, 0.023838742, -626501.94, -212759.52, 0.0, 9.999184, 9.998573 
2.645005e+3, 2.6777187e+2, -330494.47, -349835.44, -65805.78, 0.09069012, -0.09363562, -273652.4, 42174.83, 0.0, 10.000085, 9.999745 
2.644634e+3, 2.7776262e+2, -137640.55, -345053.97, -163409.27, 0.15782464, -0.3563634, -47807.426, 170107.66, 0.0, 10.001132, 9.998724 
2.644264e+3, 2.8775686e+2, 29651.543, -28617.22, -130705.65, 0.2037893, -0.22335811, 134430.48, 254401.8, 0.0, 10.001007, 10.000165 
2.643893e+3, 2.9775265e+2, -141949.61, -259086.7, -69671.16, 0.113785975, -0.022345675, -109499.77, -87486.05, 0.0, 9.999832, 9.99859 
2.6435223e+3, 3.0774722e+2, -162995.44, -188930.02, 22402.525, -0.09528446, 0.21391541, -150077.9, -150077.9, 0.0, 9.999299, 9.99892 
2.6431584e+3, 3.177373e+2, -52994.594, 192641.63, -57715.383, 0.42894185, -0.04610611, 205526.7, 205526.7, 0.0, 9.998295, 10.002101 
2.6601964e+3, 1.2824105e+2, -1476923.4, -1532857.8, 43571.94, 0.024776207, 0.24531667, -1453115.3, 230128.6, 0.073999934, 10.001413, 10.000375 
2.6598302e+3, 1.3823417e+2, -1430949.8, -1734878.1, 363.33194, 0.5812855, 0.089122616, -1430949.3, 154358.63, 0.04671151, 10.002107, 9.998132 
2.659456e+3, 1.4822562e+2, -1236676.3, -1349362.6, -2203.4338, 0.33412457, -0.0023681056, -1236633.1, 250752.5, 0.022592498, 10.001919, 10.00007 
2.659081e+3, 1.5821625e+2, -1446624.3, -1639993.6, -52546.977, -0.050841395, -0.31387088, -1433267.5, -43796.35, 0.0071954923, 10.0005865, 9.998168 
2.6587096e+3, 1.6821082e+2, -1214684.1, -1299488.1, -14206.893, -0.06605866, -0.078058116, -1212367.4, 79158.66, 0.001170623, 10.000964, 9.999476 
2.6583397e+3, 1.7820643e+2, -1285799.1, -1423306.5, -82376.08, 0.030056823, 0.16560279, -1247254.6, -53681.82, 0.00005271245, 10.000213, 9.99847 
2.6579672e+3, 1.8819948e+2, -917539.06, -827116.94, -153004.75, 0.12265514, 0.096683696, -712783.4, 382854.94, 0.000000014947995, 10.0006895, 10.001502 
2.6575944e+3, 1.9819205e+2, -1198100.9, -1240712.0, -81079.59, 0.2372309, -0.13560526, -1135574.3, -137867.38, 0.0, 9.999297, 9.998828 
2.6572227e+3, 2.0818579e+2, -922288.56, -997358.5, 3602.419, 0.15933757, 0.017911207, -922116.06, -22348.777, 0.0, 10.000473, 9.999073 
2.6568508e+3, 2.1817937e+2, -1027624.25, -1283898.0, -22050.156, 0.020117732, 0.10399733, -1025740.9, -223910.5, 0.0, 10.000142, 9.9967375 
2.65648e+3, 2.2817042e+2, -771079.6, -968756.06, -45011.516, -0.06172949, 0.14288779, -761312.94, -57388.965, 0.0, 10.000813, 9.997752 
2.6561102e+3, 2.3816098e+2, -862887.44, -1004611.1, -126437.805, -0.09523195, 0.012932916, -788808.2, -182785.13, 0.0, 9.999461, 9.997668 
2.6557407e+3, 2.4815442e+2, -395116.63, -120641.73, -147455.31, 0.118962824, -0.083759524, -56441.375, 451636.9, 0.0, 9.999541, 10.002906 
2.6553705e+3, 2.581484e+2, -822301.8, -736953.94, -13213.216, 0.32230914, -0.29888356, -734955.1, -324830.06, 0.0, 9.997737, 9.999003 
2.654999e+3, 2.6814142e+2, -656159.6, -820059.6, -13575.614, 0.17233859, -0.06802207, -655042.8, -342840.25, 0.0, 9.9993925, 9.996754 
2.6546276e+3, 2.7813375e+2, -425408.78, -719308.56, -115825.58, -0.016023513, 0.08795506, -385249.53, -170958.77, 0.0, 10.000342, 9.996483 
2.6542577e+3, 2.8812584e+2, 36732.7, 91959.27, -176080.05, 0.077259585, 0.008391356, 242578.08, 358943.0, 0.0, 10.0007105, 10.001053 
2.6538864e+3, 2.981186e+2, -241908.05, -230255.5, -96131.914, 0.04096294, -0.19423996, -139773.47, -121345.266, 0.0, 9.998966, 9.999169 
2.6535153e+3, 3.0811402e+2, -130325.88, 42278.5, -19573.393, -0.090171196, -0.022917604, 44470.293, 44470.293, 0.0, 9.9986925, 10.00074 
2.65315e+3, 3.181074e+2, -430877.25, -404485.84, 9394.7, 0.3004052, -0.085879214, -401483.2, -401483.2, 0.0, 9.997605, 9.998297 
2.6701927e+3, 1.286134e+2, -1787660.4, -1753393.4, 207002.94, 0.120336995, -0.025125261, -1562816.0, 116767.8, 0.062782116, 9.999433, 9.999825 
2.6698235e+3, 1.3860719e+2, -1346879.8, -1736790.1, 175111.14, 0.22806677, 0.00903463, -1279782.6, 301863.44, 0.039146993, 10.002809, 9.997841 
2.669451e+3, 1.48599e+2, -1128635.9, -1373759.9, 80211.99, 0.17761399, 0.015181772, -1104721.3, 379003.1, 0.018543638, 10.003002, 9.999387 
2.6690775e+3, 1.5859017e+2, -1237180.9, -1522934.1, 73811.02, 0.06813156, -0.14466353, -1219241.5, 166566.5, 0.005710664, 10.001869, 9.99838 
2.6687056e+3, 1.6858357e+2, -1061117.1, -1141116.1, 138823.53, 0.012558663, -0.082885526, -956645.4, 331224.56, 0.0008890518, 10.001525, 10.000328 
2.6683336e+3, 1.7857762e+2, -1161986.3, -1347462.3, 136759.03, -0.03142558, -0.030663079, -1089486.9, 100439.73, 0.000037964888, 10.000839, 9.998703 
2.6679614e+3, 1.8856958e+2, -889727.0, -1039336.25, -21374.05, 0.053137947, -0.0661933, -886733.25, 205271.27, 0.0000000057994387, 10.001733, 9.999591 
2.667589e+3, 1.9856101e+2, -780855.25, -1126485.6, -92732.19, 0.15700175, -0.21736164, -757547.1, 236539.92, 0.0, 10.00238, 9.9981575 
2.6672176e+3, 2.0855397e+2, -567950.56, -844821.4, -29028.87, 0.10685013, -0.11367933, -564939.75, 331215.88, 0.0, 10.00295, 9.998969 
2.6668465e+3, 2.1854708e+2, -521804.88, -978655.2, -46293.387, -0.003563688, -0.038884852, -517161.1, 281062.56, 0.0, 10.003166, 9.997436 
2.6664752e+3, 2.2853863e+2, -590658.6, -827719.8, 907.81384, -0.051256478, -0.0059000403, -590655.1, 109655.78, 0.0, 10.00168, 9.998379 
2.666104e+3, 2.3852965e+2, -733259.8, -872330.94, 54377.824, -0.060371682, -0.09451475, -714522.25, -112118.28, 0.0, 9.999885, 9.998416 
2.6657346e+3, 2.4852291e+2, -286758.63, -130360.54, -69467.58, 0.1769885, -0.18592718, -103961.14, 400501.44, 0.0, 10.00047, 10.00242 
2.6653653e+3, 2.5851688e+2, -264465.97, -444558.6, -137559.42, 0.43673477, -0.34312347, -190101.42, 216409.83, 0.0, 10.001338, 9.999297 
2.6649928e+3, 2.6851055e+2, -400284.72, -701020.4, -5062.133, 0.2007042, -0.06756012, -400199.53, -91616.06, 0.0, 10.001028, 9.996856 
2.664621e+3, 2.785038e+2, -420016.72, -655855.0, 57591.773, -0.060047206, 0.20287557, -406704.25, -196038.67, 0.0, 9.999978, 9.997141 
2.6642513e+3, 2.884953e+2, -121014.33, 17695.275, -30488.51, 0.11561795, 0.049227122, 24100.871, 136846.5, 0.0, 9.999489, 10.001225 
2.663881e+3, 2.9848668e+2, -245387.03, -148505.98, -24000.396, 0.25772068, -0.26919317, -142886.31, -128065.39, 0.0, 9.998429, 10.000053 
2.6635075e+3, 3.0848253e+2, 101403.625, 270508.2, 16685.047, -0.10407736, -0.14960992, 272138.75, 272138.75, 0.0, 9.999751, 10.0018215 
2.6631418e+3, 3.1847873e+2, -177296.7, -527462.8, 29298.725, 0.21079065, 0.05836941, -174862.17, -174862.17, 0.0, 10.0002575, 9.996217 
2.680188e+3, 1.2898622e+2, -1742962.5, -1795255.4, 292490.28, 0.3463451, -0.22919863, -1475452.4, 200465.16, 0.05267765, 10.000123, 9.999183 
2.6798168e+3, 1.3898058e+2, -1420652.9, -1868272.1, 160579.02, -0.06367411, -0.11773165, -1369005.8, 208973.19, 0.03242507, 10.002797, 9.996877 
2.6794457e+3, 1.4897329e+2, -1230744.3, -1504088.4, 33296.836, 0.06106234, 0.031646293, -1226746.8, 253306.22, 0.015032841, 10.002669, 9.998562 
2.6790753e+3, 1.5896526e+2, -1435940.4, -1673776.6, 34816.297, 0.34616986, 0.0021663662, -1430948.5, -48816.402, 0.0044764117, 10.000839, 9.9978 
2.678702e+3, 1.689571e+2, -1046029.9, -1015135.2, 82552.1, 0.18359162, -0.14858064, -946597.6, 337605.94, 0.00066900725, 10.001279, 10.001256 
2.678328e+3, 1.78949e+2, -1296359.5, -1518649.4, 45469.668, -0.050031498, -0.38183442, -1287418.3, -101144.65, 0.000027210404, 10.000511, 9.997673 
2.6779556e+3, 1.8893988e+2, -1126138.4, -1492537.1, -11469.883, -0.024828577, -0.2972261, -1125779.6, -37413.98, 0.000000001728097, 10.001687, 9.996457 
2.6775837e+3, 1.9893055e+2, -1137045.5, -1574008.9, -35924.55, 0.08482327, -0.23455767, -1134111.6, -143649.52, 0.0, 10.001273, 9.99559 
2.6772133e+3, 2.0892096e+2, -683477.4, -901231.56, 21427.64, 0.048645902, -0.31655452, -681388.8, 211165.97, 0.0, 10.002227, 9.998887 
2.6768425e+3, 2.189118e+2, -818198.06, -1095618.9, -43271.727, -0.015800983, -0.47523472, -811605.25, -16963.158, 0.0, 10.001132, 9.997606 
2.676471e+3, 2.2890586e+2, -563845.2, -590611.06, -70402.38, 0.059620086, -0.3625439, -505565.03, 191136.17, 0.0, 10.000956, 10.000319 
2.6760992e+3, 2.389004e+2, -1010454.6, -1082925.8, 13437.134, 0.17784591, -0.26709798, -1008043.44, -409286.8, 0.0, 9.9984455, 9.997646 
2.6757294e+3, 2.488932e+2, -612665.2, -643442.06, -28766.666, 0.29217118, -0.17256424, -595429.6, -94600.836, 0.0, 9.999925, 9.999053 
2.6753592e+3, 2.5888586e+2, -600698.9, -791831.3, -112288.31, 0.35145524, -0.1883514, -548814.9, -145912.95, 0.0, 9.999968, 9.997536 
2.6749864e+3, 2.6887935e+2, -291001.97, -322284.72, -44900.33, 0.09519663, -0.08480859, -259096.61, 45871.5, 0.0, 10.000463, 9.999683 
2.674614e+3, 2.788728e+2, -510852.06, -592455.0, 26798.834, -0.15214291, -0.06381389, -502838.2, -295801.97, 0.0, 9.998972, 9.99806 
2.6742455e+3, 2.8886533e+2, -277579.16, -165037.78, -71418.664, 0.2566937, -0.09079915, -130385.34, -21274.879, 0.0, 9.998937, 10.000198 
2.6738766e+3, 2.988581e+2, -449767.7, -364401.97, -12764.463, 0.5833156, -0.1932043, -362534.22, -351353.0, 0.0, 9.99762, 9.998955 
2.6735002e+3, 3.0885363e+2, 57291.01, 193857.14, 74907.984, -0.19228172, -0.05062059, 226933.75, 226933.75, 0.0, 9.999758, 10.001266 
2.6731354e+3, 3.1884748e+2, -95723.18, -279897.84, 139095.19, -0.0023711536, -0.062317166, -20994.6, -20994.6, 0.0, 10.000075, 9.997975 
2.690182e+3, 1.2935878e+2, -1544543.8, -1697212.6, 253051.47, 0.0996977, -0.21763416, -1356564.0, 315695.7, 0.043619167, 10.00145, 9.999192 
2.6898146e+3, 1.3935073e+2, -1317572.3, -1757492.6, 127290.68, -0.049696133, -0.3567746, -1283395.9, 290948.16, 0.02648621, 10.003145, 9.997493 
2.689442e+3, 1.4934465e+2, -1215053.3, -1460023.3, -43198.004, 0.07666377, -0.1348055, -1207658.9, 268747.56, 0.012009438, 10.002504, 9.999006 
2.6890704e+3, 1.593383e+2, -1386114.5, -1666032.4, 26516.35, 0.30799007, -0.011600204, -1383624.8, -5154.3037, 0.003455713, 10.001087, 9.997774 
2.688698e+3, 1.6932921e+2, -1036760.44, -1217089.1, 47834.754, 0.23695686, -0.14180616, -1024857.25, 255697.88, 0.00049606664, 10.00206, 9.999573 
2.688325e+3, 1.7931996e+2, -952451.7, -1375612.3, -59814.832, 0.039869715, -0.34723225, -944159.2, 238481.05, 0.00001910138, 10.002797, 9.997604 
2.6879522e+3, 1.8931146e+2, -772805.94, -1171278.5, -29829.143, 0.032057457, -0.30877215, -770585.3, 314137.9, 0.0000000002885943, 10.003289, 9.997967 
2.6875797e+3, 1.9930327e+2, -795899.1, -1286515.3, 103047.71, 0.048298866, -0.24334148, -775134.1, 211670.94, 0.0, 10.002927, 9.9967985 
2.687208e+3, 2.0929384e+2, -741419.1, -974611.56, 167097.33, -0.01820111, -0.30260798, -654260.1, 234638.5, 0.0, 10.001915, 9.99858 
2.6868367e+3, 2.1928447e+2, -837855.9, -1063845.8, 101096.34, -0.08427359, -0.42933282, -799231.8, -8240.753, 0.0, 10.000683, 9.99806 
2.6864654e+3, 2.2927807e+2, -507650.0, -558790.2, -4004.8884, 0.05982415, -0.3596038, -507338.28, 185714.22, 0.0, 10.001197, 10.0005045 
2.6860943e+3, 2.3927245e+2, -490105.84, -814901.6, 14590.641, 0.24344693, -0.26455328, -489451.72, 105655.37, 0.0, 10.001786, 9.997923 
2.6857236e+3, 2.4926409e+2, -340720.22, -718893.94, 67402.35, 0.25552762, -0.17523141, -329066.16, 168128.03, 0.0, 10.002531, 9.997368 
2.6853532e+3, 2.592553e+2, -157610.05, -592004.1, 21935.938, 0.22479965, -0.14759755, -156505.14, 242780.9, 0.0, 10.002898, 9.997541 
2.6849806e+3, 2.6924852e+2, -66945.055, -81812.83, -48095.438, 0.08785101, -0.14422232, -25712.383, 275637.97, 0.0, 10.001335, 10.000969 
2.684608e+3, 2.792421e+2, -406492.7, -434842.06, -64418.605, 0.005447242, -0.20122942, -354707.72, -151297.3, 0.0, 9.999129, 9.99907 
2.6842394e+3, 2.8923497e+2, -110232.586, -152786.63, -99121.86, 0.36667863, -0.19315322, -30129.854, 75354.43, 0.0, 10.000308, 9.999634 
2.6838705e+3, 2.992284e+2, 31961.434, -172751.69, -27107.809, 0.69252586, -0.15614258, 35490.184, 43043.78, 0.0, 10.001001, 9.99864 
2.6834935e+3, 3.0922505e+2, 20414.469, 110954.2, 47818.914, -0.1811868, 0.13764504, 131532.72, 131532.72, 0.0, 9.99971, 10.000735 
2.683129e+3, 3.1921658e+2, -412021.88, -100392.195, 17349.766, 0.09978044, -0.10585689, -99429.234, -99429.234, 0.0, 9.996392, 10.000976 
2.7001768e+3, 1.2973125e+2, -1620862.4, -1741979.4, 301256.6, -0.0040730876, -0.17027183, -1374137.9, 294466.5, 0.03555016, 10.001066, 9.999009 
2.6998127e+3, 1.3972098e+2, -1495344.8, -1860727.3, 65923.36, 0.15047458, -0.5386625, -1483814.5, 86894.77, 0.021269776, 10.002007, 9.997334 
2.699439e+3, 1.4971586e+2, -1175888.3, -1359907.5, -137010.55, 0.2024201, -0.2917164, -1102859.5, 369902.16, 0.009415533, 10.002482, 9.999692 
2.6990652e+3, 1.5971068e+2, -1452065.8, -1814159.8, -34988.72, 0.34424937, -0.0801609, -1448715.8, -73901.36, 0.0026134893, 10.001237, 9.996675 
2.698694e+3, 1.6970092e+2, -1146110.0, -1500470.0, 64296.074, 0.30531988, -0.10991242, -1134804.6, 142107.81, 0.0003600524, 10.002413, 9.997387 
2.6983228e+3, 1.7969087e+2, -1121698.1, -1490446.8, -17280.031, 0.2129885, -0.22074339, -1120890.1, 58121.94, 0.000012952271, 10.001928, 9.997193 
2.6979497e+3, 1.896839e+2, -700124.44, -797155.9, -29256.52, 0.16230386, -0.24785472, -691985.75, 389089.3, 0.000000000007316074, 10.002505, 10.00083 
2.6975763e+3, 1.9967756e+2, -1005307.44, -1288172.3, 47915.258, 0.100602955, -0.24491632, -997411.4, -14278.854, 0.0, 10.001179, 9.997625 
2.6972026e+3, 2.0966971e+2, -861987.5, -1080249.8, 91934.63, -0.060231347, -0.16126013, -828424.6, 56790.395, 0.0, 10.001388, 9.998067 
2.6968297e+3, 2.1966146e+2, -1101435.1, -1331102.6, 84879.055, -0.18899213, -0.117855676, -1073470.9, -286169.0, 0.0, 9.999649, 9.996685 
2.6964587e+3, 2.2965351e+2, -648145.0, -717851.6, 25577.512, -0.01631812, -0.12488333, -639766.8, 49611.45, 0.0, 10.000832, 9.999468 
2.6960883e+3, 2.3964569e+2, -831409.94, -1155579.5, 51913.293, 0.1604967, -0.14696883, -823299.4, -231846.6, 0.0, 10.000348, 9.9962435 
2.6957178e+3, 2.496356e+2, -478575.75, -845668.8, 89860.914, 0.07697411, -0.15953457, -457759.1, 35797.17, 0.0, 10.001952, 9.996714 
2.695347e+3, 2.5962564e+2, -486290.34, -863166.25, -6915.5933, -0.020151768, -0.2015726, -486163.5, -90504.664, 0.0, 10.001293, 9.99641 
2.6949757e+3, 2.6961854e+2, -217027.11, -198404.83, -132309.44, 0.13641138, -0.18553326, -75079.31, 222646.34, 0.0, 10.000634, 10.000426 
2.6946038e+3, 2.7961203e+2, -604627.0, -596676.94, -69252.59, 0.26789266, -0.21520168, -531285.4, -331499.22, 0.0, 9.998208, 9.998376 
2.6942328e+3, 2.8960454e+2, -145290.78, -147408.23, -33043.71, 0.30458832, -0.23519222, -113288.84, -11424.439, 0.0, 10.0001335, 9.999696 
2.693861e+3, 2.995979e+2, -93328.586, -323045.16, -14845.474, 0.20888907, -0.18920244, -92373.17, -88437.79, 0.0, 10.000656, 9.99776 
2.6934862e+3, 3.0959788e+2, -120587.43, -68799.1, -46877.375, -0.24460223, 0.51191324, -41139.59, -41139.59, 0.0, 9.999302, 9.999683 
2.6931202e+3, 3.1958458e+2, -492047.9, 129002.96, -163016.86, 0.22752824, -0.19372211, 169191.86, 169191.86, 0.0, 9.99483, 10.003303 
2.7101737e+3, 1.3010147e+2, -1596155.6, -1776770.0, 228702.1, 0.045262493, -0.23716286, -1440576.6, 224400.94, 0.028415078, 10.001324, 9.998694 
2.709809e+3, 1.4009382e+2, -1435523.8, -1789266.4, 47011.426, 0.101791516, -0.2982948, -1429382.8, 137675.44, 0.016713178, 10.002169, 9.997765 
2.7094364e+3, 1.5008721e+2, -1022944.4, -1223378.4, -154270.9, 0.30529535, -0.26762295, -939196.8, 529924.4, 0.0071980846, 10.0031595, 10.000364 
2.7090636e+3, 1.600803e+2, -1074456.5, -1545794.1, -34779.625, 0.48550165, -0.27748, -1071904.0, 299283.44, 0.0019202423, 10.003354, 9.997525 
2.708691e+3, 1.7007174e+2, -920443.25, -1356684.9, 121272.01, 0.31337783, -0.22859196, -888997.25, 384278.9, 0.00025324232, 10.00378, 9.997749 
2.7083182e+3, 1.8006313e+2, -887837.3, -1312309.9, 57344.695, 0.08881823, -0.20207603, -880226.75, 295138.25, 0.000008369746, 10.003153, 9.99784 
2.7079445e+3, 1.9005579e+2, -838200.4, -887208.94, -64824.414, 0.120026186, -0.25880396, -793403.4, 284029.47, 0.0, 10.001627, 10.000653 
2.707571e+3, 2.0004916e+2, -1061854.8, -1198575.8, -32653.88, 0.14312659, -0.28201413, -1054456.3, -74962.734, 0.0, 10.000145, 9.998775 
2.707199e+3, 2.1004297e+2, -624704.6, -833861.0, 93057.04, 0.04928868, -0.15188587, -589296.4, 292262.0, 0.0, 10.002267, 9.9994335 
2.7068266e+3, 2.2003655e+2, -377052.88, -886207.94, 115186.15, -0.071192086, -0.028732678, -352206.78, 431419.7, 0.0, 10.004044, 9.997668 
2.7064544e+3, 2.3002777e+2, -320870.34, -695787.94, 42826.21, -0.028201424, -0.04283805, -316040.6, 369671.72, 0.0, 10.003544, 9.998393 
2.7060825e+3, 2.4001859e+2, -464728.1, -936640.5, 74197.72, 0.04244406, -0.09374826, -453337.1, 134464.27, 0.0, 10.002536, 9.996716 
2.7057126e+3, 2.5000837e+2, -500987.75, -767496.06, 180433.48, 0.045522977, -0.17644756, -409936.47, 79965.76, 0.0, 10.0013275, 9.997603 
2.7053422e+3, 2.599985e+2, -603057.56, -831212.5, 159694.13, 0.055701196, -0.24212117, -520880.4, -128880.16, 0.0, 10.000012, 9.997251 
2.7049693e+3, 2.699913e+2, -207841.55, -292810.78, 27967.74, 0.12596042, -0.18881549, -199462.25, 94608.55, 0.0, 10.001004, 9.999653 
2.704597e+3, 2.799842e+2, -110734.26, -340897.56, 60099.23, 0.27435243, -0.18197018, -95986.39, 100153.484, 0.0, 10.001375, 9.998633 
2.7042267e+3, 2.899762e+2, -80237.29, -76782.164, 125437.766, 0.31179455, -0.27074108, 46939.934, 145161.11, 0.0, 10.000351, 10.000122 
2.703854e+3, 2.9996938e+2, -358674.2, -428023.06, 123471.39, 0.18097843, -0.24097387, -265100.8, -264808.47, 0.0, 9.99862, 9.998052 
2.7034786e+3, 3.099702e+2, -265422.56, -211757.19, 72286.92, -0.20655563, 0.61638284, -161483.5, -161483.5, 0.0, 9.998555, 9.999094 
2.7031124e+3, 3.1995293e+2, 249321.58, 632461.94, -63193.92, 0.44416732, -0.4340577, 642615.8, 642615.8, 0.0, 9.999214, 10.004664 
2.7201715e+3, 1.304718e+2, -1552421.3, -1739132.8, 300810.6, 0.28905702, -0.283018, -1330813.0, 330538.34, 0.02219124, 10.001741, 9.998691 
2.7198052e+3, 1.4046705e+2, -1651428.0, -1917937.4, 88165.61, 0.17903176, -0.053633682, -1624901.6, -61497.45, 0.01278431, 10.000828, 9.99753 
2.7194342e+3, 1.5045878e+2, -1136500.4, -1210710.1, -97423.125, 0.45092365, -0.23395075, -1069355.4, 396123.94, 0.00532732, 10.002207, 10.00086 
2.7190626e+3, 1.6045012e+2, -1272788.5, -1599811.6, -5067.681, 0.7286039, -0.46087444, -1272710.0, 94849.34, 0.0013580795, 10.001972, 9.997795 
2.7186882e+3, 1.7044318e+2, -1025253.7, -1305017.3, 110319.516, 0.36195508, -0.3428187, -986985.8, 282648.06, 0.00016970174, 10.002741, 9.99856 
2.7183136e+3, 1.804363e+2, -1169963.0, -1526805.5, -6762.603, -0.013433348, -0.18931742, -1169834.9, 1872.9014, 0.0000049540654, 10.0016575, 9.997084 
2.717939e+3, 1.904276e+2, -938669.1, -1081067.1, -140730.47, 0.0690749, -0.29526362, -852152.0, 221640.1, 0.0, 10.001606, 9.999289 
2.7175653e+3, 2.0041959e+2, -1162261.5, -1261742.8, -2144.6914, 0.23225541, -0.35749713, -1162215.3, -186346.38, 0.0, 9.999688, 9.998508 
2.7171966e+3, 2.1041554e+2, -604996.3, -567032.6, 156398.52, 0.25493836, -0.19242097, -428468.28, 449440.63, 0.0, 10.001516, 10.001515 
2.7168268e+3, 2.2041114e+2, -769995.25, -1114139.1, 91010.38, 0.2149113, -0.018976733, -747409.44, 32543.87, 0.0, 10.001667, 9.997228 
2.7164513e+3, 2.3040146e+2, -542795.3, -932556.94, -5826.8403, 0.012059238, -0.044941477, -542708.25, 139342.4, 0.0, 10.002695, 9.997121 
2.7160764e+3, 2.4039152e+2, -738718.2, -1079663.1, 38403.008, -0.1445996, -0.08075295, -734446.1, -150297.14, 0.0, 10.000898, 9.9964695 
2.7157074e+3, 2.5038257e+2, -483884.75, -532865.44, 131560.73, 0.09635371, -0.21167679, -374554.3, 111676.65, 0.0, 10.000611, 9.999479 
2.7153382e+3, 2.6037404e+2, -829451.4, -981815.3, 148831.73, 0.2704526, -0.28502625, -738437.1, -350127.1, 0.0, 9.998739, 9.996843 
2.7149624e+3, 2.7036694e+2, -376415.44, -502112.38, 73707.14, -0.03335885, -0.13600613, -342399.72, -52014.805, 0.0, 10.0005245, 9.99841 
2.7145875e+3, 2.8035963e+2, -303309.16, -523929.53, 51028.348, -0.22436124, -0.038880333, -292078.28, -99617.305, 0.0, 10.000551, 9.997767 
2.71422e+3, 2.9035068e+2, -121426.555, -48349.24, 60622.383, 0.29496706, -0.2612743, -14105.506, 80439.94, 0.0, 9.999907, 10.0005 
2.7138495e+3, 3.003429e+2, -523501.3, -523052.56, 96643.5, 0.49440452, -0.35806507, -426633.2, -426633.2, 0.0, 9.997648, 9.997845 
2.713471e+3, 3.103402e+2, -336004.78, -229476.47, 86668.81, -0.14049143, 0.1192601, -181012.78, -181012.78, 0.0, 9.998063, 9.999158 
2.7131027e+3, 3.2032618e+2, 93230.92, 88028.234, 440990.94, -0.029159354, -0.5150413, 531628.2, 531628.2, 0.0, 10.000288, 10.000353 
2.73017e+3, 1.3084371e+2, -1248852.1, -1414787.1, 141568.86, 0.3324306, -0.24388447, -1167730.1, 489981.25, 0.016854309, 10.003004, 10.000323 
2.7298003e+3, 1.4083867e+2, -1610843.5, -1814143.4, 88249.336, 0.18187292, -0.16255616, -1577880.5, -18118.902, 0.009467287, 10.000663, 9.998338 
2.7294272e+3, 1.508308e+2, -1280303.4, -1314351.8, -27410.22, 0.26846847, -0.28452092, -1265060.8, 196774.31, 0.0037924994, 10.001361, 10.00054 
2.729055e+3, 1.6082288e+2, -1288850.9, -1577350.3, 29316.125, 0.38720864, -0.408598, -1285902.0, 78008.85, 0.0009170214, 10.001658, 9.99809 
2.7286828e+3, 1.7081709e+2, -1121637.0, -1336428.6, 111207.74, 0.20698944, -0.17934407, -1074433.3, 191542.1, 0.0001065257, 10.001902, 9.998791 
2.7283096e+3, 1.808112e+2, -1085856.4, -1405516.3, -19504.406, -0.009734722, 0.045420807, -1084670.6, 83369.19, 0.0000025959862, 10.001769, 9.997879 
2.7279347e+3, 1.9080195e+2, -722943.0, -970604.6, -94988.164, 0.07685878, -0.123711, -690707.06, 379420.0, 0.0, 10.002936, 9.999488 
2.7275607e+3, 2.0079316e+2, -628871.06, -973563.8, 47839.74, 0.19007431, -0.25995535, -622354.56, 349855.03, 0.0, 10.003097, 9.99886 
2.7271917e+3, 2.107876e+2, -645392.56, -688932.7, 87482.04, 0.25321308, -0.17284992, -577012.5, 297252.25, 0.0, 10.001576, 10.000714 
2.726822e+3, 2.2078212e+2, -897607.9, -1108596.3, -44614.19, 0.25445423, -0.046699967, -888561.9, -112242.52, 0.0, 10.000354, 9.997909 
2.726447e+3, 2.3077299e+2, -601897.9, -884651.94, -56615.42, 0.030287666, -0.09732938, -590983.2, 87426.586, 0.0, 10.001841, 9.99789 
2.7260724e+3, 2.4076381e+2, -337761.03, -766295.8, 8491.104, -0.12643687, -0.13002872, -337592.84, 242906.72, 0.0, 10.002975, 9.997641 
2.7257025e+3, 2.5075537e+2, -188066.67, -364534.84, -643.19434, 0.10608347, -0.2448618, -188064.33, 294511.72, 0.0, 10.0024, 9.9998455 
2.7253324e+3, 2.6074734e+2, -366990.34, -698363.25, -28987.93, 0.31801942, -0.29907632, -364473.66, 20175.994, 0.0, 10.00152, 9.997459 
2.7249572e+3, 2.707401e+2, -248351.08, -502402.78, -35272.566, 0.014843112, -0.14587325, -243544.77, 43182.805, 0.0, 10.001572, 9.997949 
2.7245826e+3, 2.807327e+2, -180605.3, -441621.03, -46561.387, -0.16507123, -0.018478395, -172548.14, 16257.766, 0.0, 10.001155, 9.99807 
2.7242136e+3, 2.9072416e+2, 5299.369, -1584.6079, -111942.984, 0.29774457, -0.20549779, 113853.27, 204737.78, 0.0, 10.000711, 10.00048 
2.7238426e+3, 3.0071622e+2, -160167.63, -317369.16, -54810.984, 0.55269444, -0.32187322, -142943.94, -142943.94, 0.0, 9.999908, 9.998181 
2.723465e+3, 3.1070966e+2, 239846.31, 9122.452, -57766.72, -0.07757469, -0.23781697, 253501.31, 253501.31, 0.0, 10.002031, 9.998978 
2.7230954e+3, 3.2070172e+2, 3071.4097, -296545.47, 442189.06, -0.2420368, -0.15221155, 320139.53, 320139.53, 0.0, 10.000901, 9.997507 
2.7401686e+3, 1.3121665e+2, -1366957.5, -1317564.0, 185201.55, 0.51289994, -0.1613845, -1155419.8, 498639.75, 0.012358647, 10.001647, 10.001562 
2.7397957e+3, 1.4121051e+2, -1671131.5, -1852193.9, 35558.23, 0.2937298, -0.26927915, -1664398.8, -108281.88, 0.0067449408, 10.000385, 9.998153 
2.7394202e+3, 1.5120341e+2, -1200359.0, -1333643.9, -22936.107, 0.07538129, -0.30971226, -1196522.5, 261663.78, 0.0025850076, 10.002163, 9.999986 
2.7390468e+3, 1.6119665e+2, -1274934.5, -1622472.0, 23149.967, 0.03884866, -0.2655662, -1273399.3, 86854.8, 0.0005889778, 10.002046, 9.997572 
2.7386764e+3, 1.7119172e+2, -1109648.3, -1322922.9, 103572.695, 0.084731, 0.022473535, -1067628.8, 194682.28, 0.00006228534, 10.00199, 9.99882 
2.7383056e+3, 1.811863e+2, -1271634.0, -1502117.1, 5009.7134, 0.10836053, 0.30526668, -1271525.1, -107154.98, 0.0000011486238, 10.000655, 9.997723 
2.737931e+3, 1.9117735e+2, -826594.94, -938197.9, -50677.23, 0.13335799, 0.085329086, -807017.44, 259433.22, 0.0, 10.002014, 10.000066 
2.737557e+3, 2.011683e+2, -971162.06, -1306238.8, 38514.08, 0.167001, -0.076425135, -966792.25, 1740.9274, 0.0, 10.001617, 9.997252 
2.7371857e+3, 2.1115938e+2, -867144.2, -1054986.6, 35411.133, 0.17594524, -0.14303719, -860690.44, 9933.039, 0.0, 10.001204, 9.998345 
2.7368143e+3, 2.2115107e+2, -1133575.6, -1279171.8, -11065.804, 0.15271603, -0.11639188, -1132739.4, -360032.38, 0.0, 9.999102, 9.997315 
2.7364424e+3, 2.3114328e+2, -604862.4, -675328.7, 530.7205, 0.05475745, -0.19759922, -604858.4, 69922.055, 0.0, 10.001038, 9.99965 
2.7360696e+3, 2.4113548e+2, -668251.44, -983160.0, 1285.6914, -0.035596427, -0.20358835, -668246.2, -91392.17, 0.0, 10.00108, 9.997042 
2.7356973e+3, 2.5112695e+2, -378507.72, -552060.0, -42111.97, 0.021345517, -0.28321427, -368829.13, 110106.61, 0.0, 10.001608, 9.998873 
2.735325e+3, 2.6111877e+2, -643509.7, -923140.2, -50364.465, 0.0890516, -0.2704011, -634715.1, -253700.08, 0.0, 10.000165, 9.996526 
2.734954e+3, 2.711107e+2, -313240.3, -500234.44, -35173.004, 0.22459853, -0.2334483, -306843.22, -23744.521, 0.0, 10.001057, 9.998162 
2.734582e+3, 2.8110293e+2, -377773.78, -624732.75, -70273.97, 0.28869316, -0.13910295, -359177.2, -173997.95, 0.0, 10.000338, 9.997169 
2.7342066e+3, 2.910963e+2, -89313.76, -116843.86, -140530.63, 0.1868179, -0.09282776, 38124.36, 125368.1, 0.0, 10.000493, 9.999744 
2.733831e+3, 3.0108926e+2, -298078.34, -516683.28, -30748.219, -0.039874066, -0.027149087, -293835.75, -293835.75, 0.0, 9.999661, 9.99691 
2.733459e+3, 3.1107908e+2, 247524.67, -52745.77, 12068.594, -0.27748892, -0.26657528, 248008.95, 248008.95, 0.0, 10.002511, 9.998238 
2.7330938e+3, 3.2107508e+2, -214534.66, -489900.34, 44140.69, 0.03831796, 0.28364792, -207632.02, -207632.02, 0.0, 9.999952, 9.996563 
2.7501616e+3, 1.315922e+2, -1558445.3, -1724748.5, 206578.6, 0.18378747, -0.18337232, -1418911.1, 231460.38, 0.00868548, 10.001496, 9.998923 
2.749791e+3, 1.4158522e+2, -1508520.1, -1858414.0, 95282.12, 0.26270327, -0.14819133, -1484255.8, 68191.86, 0.0045926278, 10.001767, 9.997468 
2.7494174e+3, 1.5157832e+2, -999743.2, -1285189.5, 73745.08, 0.12761162, -0.121007636, -981816.94, 472700.44, 0.0016782226, 10.003634, 9.999689 
2.7490446e+3, 1.6157115e+2, -898847.25, -1359840.6, 46771.52, 0.047172166, -0.09496087, -894149.75, 462438.94, 0.0003582281, 10.004207, 9.998344 
2.7486718e+3, 1.7156373e+2, -950179.25, -1159314.8, 98342.62, 0.00060943415, -0.11992749, -911200.2, 347461.13, 0.000033741435, 10.002694, 9.999615 
2.748299e+3, 1.8155663e+2, -1149348.9, -1340212.9, 52146.25, -0.035570458, -0.07006105, -1136031.1, 24698.455, 0.00000040337267, 10.000962, 9.998686 
2.747926e+3, 1.915487e+2, -884866.44, -959308.0, 23686.402, 0.10799595, -0.20338775, -877968.9, 184830.84, 0.0, 10.001452, 10.000239 
2.7475527e+3, 2.0154068e+2, -944798.94, -1329131.6, 83924.74, 0.19528367, -0.24316454, -927272.0, 37601.707, 0.0, 10.001823, 9.997012 
2.7471802e+3, 2.1153152e+2, -760984.4, -1140133.5, 108337.17, 0.11442735, -0.21571648, -732211.8, 134759.55, 0.0, 10.002382, 9.997244 
2.7468085e+3, 2.2152273e+2, -622572.6, -1002510.94, 84404.52, 0.07029141, -0.15737532, -604665.8, 164397.83, 0.0, 10.0023155, 9.997717 
2.746438e+3, 2.3151508e+2, -552579.2, -639166.3, 39892.566, 0.16837524, -0.2030526, -537002.1, 134134.44, 0.0, 10.001201, 9.999925 
2.7460665e+3, 2.4150759e+2, -708533.6, -915213.3, -9951.762, 0.19930565, -0.20098199, -708055.5, -134847.3, 0.0, 10.000283, 9.9979315 
2.7456918e+3, 2.514992e+2, -476213.53, -633674.7, -33496.445, 0.024122765, -0.23699437, -469384.1, 5908.722, 0.0, 10.0009775, 9.998704 
2.7453184e+3, 2.614914e+2, -350593.0, -619862.56, 8550.357, -0.037354, -0.18929876, -350321.78, 27049.578, 0.0, 10.001337, 9.998088 
2.744949e+3, 2.7148426e+2, -208851.38, -307234.78, 73773.96, 0.24363671, -0.17630246, -169372.78, 110067.8, 0.0, 10.001024, 9.999569 
2.7445775e+3, 2.8147677e+2, -368560.47, -600504.56, 69723.83, 0.45812973, -0.12263228, -349214.63, -167699.86, 0.0, 10.000199, 9.997412 
2.7442e+3, 2.9146874e+2, -249940.77, -335082.06, -62871.96, 0.17250706, -0.08648011, -216582.88, -132985.61, 0.0, 9.999944, 9.998538 
2.7438226e+3, 3.0146083e+2, -339616.66, -537744.2, 102543.984, -0.18050814, 0.0050121252, -296100.97, -296100.97, 0.0, 9.999282, 9.996981 
2.743454e+3, 3.114511e+2, -9772.282, -155723.69, 223499.03, -0.2930812, -0.18647492, 152363.2, 152363.2, 0.0, 10.000547, 9.998531 
2.7430907e+3, 3.214491e+2, -248511.7, -432747.56, -79488.0, 0.43911707, 0.55849457, -218957.72, -218957.72, 0.0, 9.99929, 9.997266 
2.7601564e+3, 1.3196793e+2, -1405853.9, -1918355.8, 158791.31, 0.07665253, -0.20279302, -1360643.0, 286037.88, 0.0058229626, 10.003906, 9.99631 
2.7597868e+3, 1.419608e+2, -1584542.9, -2040255.6, 96627.34, 0.27324054, 0.018187908, -1564901.0, -16131.739, 0.0029696852, 10.002019, 9.996056 
2.7594158e+3, 1.5195374e+2, -1180267.8, -1372113.5, 147445.55, 0.27368987, 0.045239378, -1100289.0, 350553.28, 0.0010279784, 10.002562, 9.999525 
2.7590436e+3, 1.6194586e+2, -1263292.9, -1532000.3, 68318.43, 0.24276589, 0.01812601, -1246920.5, 105998.4, 0.0002033788, 10.00176, 9.998335 
2.7586672e+3, 1.7193556e+2, -1016127.25, -1119035.3, 53121.55, -0.02696376, -0.36474478, -993625.75, 261383.73, 0.000016580547, 10.00195, 10.00024 
2.7582923e+3, 1.819263e+2, -1208089.6, -1379411.1, 41046.082, -0.16473186, -0.57158786, -1198763.4, -41672.547, 0.00000009587778, 10.000744, 9.998497 
2.757921e+3, 1.919191e+2, -899330.1, -971381.5, -3696.7275, 0.12880485, -0.64206225, -899140.94, 160013.44, 0.0, 10.001493, 10.000098 
2.757549e+3, 2.0191209e+2, -1140890.1, -1545467.3, 75217.25, 0.3089842, -0.5242845, -1127358.6, -166137.47, 0.0, 10.001112, 9.995862 
2.757176e+3, 2.1190402e+2, -876599.7, -1251004.0, 108189.92, 0.10172421, -0.35030913, -847585.06, 15728.092, 0.0, 10.001936, 9.996655 
2.7568036e+3, 2.2189608e+2, -933206.5, -1253284.0, 60202.008, 0.035992716, -0.13914159, -922257.9, -156856.13, 0.0, 10.000844, 9.996643 
2.7564338e+3, 2.3188798e+2, -713099.9, -796627.44, 13771.172, 0.3316676, -0.17900942, -710888.0, -43405.76, 0.0, 10.000605, 9.999059 
2.7560624e+3, 2.4188028e+2, -981874.2, -1127991.9, 3553.4443, 0.44503617, -0.104260534, -981787.8, -412228.2, 0.0, 9.998954, 9.997051 
2.7556863e+3, 2.5187218e+2, -583116.0, -671839.56, 5139.9746, 0.053037774, -0.14722976, -582819.25, -111173.055, 0.0, 10.000273, 9.998724 
2.755311e+3, 2.618651e+2, -486474.06, -565627.1, 9908.286, -0.22797105, -0.06872414, -485252.63, -111534.02, 0.0, 10.000024, 9.999077 
2.75494e+3, 2.7186096e+2, -163551.0, -24939.646, 53743.797, -0.03043654, 0.016947908, -6543.1436, 269207.28, 0.0, 10.000377, 10.001774 
2.7545685e+3, 2.8185445e+2, -619580.6, -859866.9, 28737.408, 0.16775264, 0.07547884, -616191.56, -438382.63, 0.0, 9.999201, 9.996097 
2.7541932e+3, 2.9184082e+2, -499267.47, -713852.06, -83682.32, 0.20203398, -0.26014537, -470492.25, -390542.34, 0.0, 9.999393, 9.996191 
2.7538186e+3, 3.0183035e+2, -431376.4, -538563.9, 106122.97, 0.077612534, -0.28069514, -366082.1, -366082.1, 0.0, 9.998565, 9.997307 
2.7534506e+3, 3.1182852e+2, -1995.5492, 67421.57, 270925.0, -0.028458726, 0.13091987, 305852.25, 305852.25, 0.0, 9.999712, 10.000459 
2.7530816e+3, 3.21819e+2, -172418.66, -68148.234, -5283.632, 0.15226738, -0.10497093, -67881.18, -67881.18, 0.0, 9.998579, 10.000061 
2.7701598e+3, 1.3233815e+2, -1014191.56, -1768699.5, -85103.45, 0.33771306, -0.60112536, -1004711.6, 638330.25, 0.0036893375, 10.006707, 9.9959955 
2.7697787e+3, 1.4233278e+2, -1299160.0, -1778054.3, 39956.656, -0.27138346, -0.20168646, -1295849.1, 249265.64, 0.001804221, 10.0034275, 9.997158 
2.7694094e+3, 1.5232676e+2, -1276807.1, -1316400.5, 143244.7, 0.09422052, -0.16904831, -1151997.6, 295179.25, 0.00058557204, 10.001424, 10.000459 
2.7690393e+3, 1.6232003e+2, -1469718.6, -1586450.9, 132931.42, 0.34862384, -0.14260392, -1382904.3, -33661.69, 0.00010501939, 10.000041, 9.998802 
2.7686644e+3, 1.7231178e+2, -1043352.7, -1166815.4, 137595.78, 0.13577037, -0.29532877, -954275.0, 297041.28, 0.0000068884756, 10.001765, 10.00008 
2.7682897e+3, 1.8230323e+2, -970328.06, -1366439.6, 52836.047, -0.004854606, -0.3691108, -963401.56, 189992.47, 0.00000000965895, 10.002718, 9.997663 
2.7679172e+3, 1.922937e+2, -799574.44, -1116824.4, -29424.71, 0.19477007, -0.4972137, -796868.4, 258617.8, 0.0, 10.002926, 9.99847 
2.767545e+3, 2.0228507e+2, -816718.25, -1261869.6, 10481.679, 0.29387918, -0.4735182, -816471.56, 141099.9, 0.0, 10.002688, 9.997075 
2.7671716e+3, 2.1227755e+2, -663438.06, -1004801.5, 118477.75, 0.112040795, -0.35656708, -626347.75, 233304.44, 0.0, 10.002679, 9.998064 
2.766799e+3, 2.222703e+2, -592976.2, -948319.1, 107823.055, 0.034765445, -0.1907035, -562818.5, 198911.08, 0.0, 10.00245, 9.997982 
2.7664283e+3, 2.322627e+2, -448393.22, -664492.06, 115949.33, 0.27559835, -0.18857957, -397953.13, 265852.97, 0.0, 10.002235, 9.999268 
2.766056e+3, 2.4225514e+2, -520540.16, -823650.75, 170300.47, 0.40741527, -0.11056513, -444123.38, 121760.2, 0.0, 10.001619, 9.997894 
2.765681e+3, 2.522473e+2, -530265.75, -636166.0, 177395.95, 0.16118701, -0.10170285, -398086.06, 69882.33, 0.0, 10.000495, 9.998909 
2.7653065e+3, 2.6224032e+2, -495557.25, -505968.47, 147694.83, -0.049840756, -0.015469691, -352976.3, 17064.2, 0.0, 9.999593, 9.999688 
2.764933e+3, 2.722357e+2, -175501.03, -51793.918, 21223.174, -0.09011338, 0.05513999, -48254.16, 223823.63, 0.0, 10.000291, 10.001682 
2.7645603e+3, 2.8222886e+2, -343363.34, -684532.0, -49322.465, 0.0103929015, 0.07926734, -336375.94, -162236.64, 0.0, 10.00078, 9.996557 
2.7641875e+3, 2.9221427e+2, -100844.65, -561495.1, -7401.3716, 0.2511897, -0.34671962, -100725.76, -24437.54, 0.0, 10.002062, 9.996047 
2.7638146e+3, 3.0220383e+2, 62930.8, -171031.33, 277513.97, 0.3360674, -0.37213844, 247111.77, 247111.77, 0.0, 10.001309, 9.998498 
2.7634457e+3, 3.122061e+2, -171078.55, 123355.18, 319113.16, 0.24427292, 0.34192368, 327572.53, 327572.53, 0.0, 9.997922, 10.001683 
2.7630708e+3, 3.2218945e+2, -389774.28, 99426.516, -80304.05, -0.016453357, -0.7580829, 112271.44, 112271.44, 0.0, 9.995835, 10.002504 
2.7801615e+3, 1.327093e+2, -1589648.1, -1977115.8, -145691.05, 0.5476955, -0.8680702, -1540980.1, 98417.37, 0.0021714207, 10.002548, 9.996524 
2.7797714e+3, 1.4270476e+2, -1455206.8, -1810521.6, 2628.6804, -0.6298341, -0.4672351, -1455187.3, 86272.18, 0.0010072395, 10.002146, 9.997596 
2.7794027e+3, 1.5269972e+2, -1069517.1, -1132169.6, 49151.695, -0.028953437, -0.43141466, -1042557.75, 400952.38, 0.00030058212, 10.00243, 10.00129 
2.7790347e+3, 1.6269444e+2, -1315705.5, -1537078.1, 114343.36, 0.49485016, -0.29690373, -1267250.9, 78311.2, 0.000046417692, 10.00131, 9.998517 
2.7786618e+3, 1.7268899e+2, -1027859.56, -1194171.6, 129781.93, 0.40509436, -0.16344531, -956878.44, 290735.75, 0.0000020738605, 10.002137, 9.999673 
2.7782887e+3, 1.8268187e+2, -1248387.1, -1730921.3, 44183.504, 0.28773597, 0.023147618, -1244374.8, -94689.98, 0.00000000000031198744, 10.001926, 9.995502 
2.7779144e+3, 1.9266976e+2, -1003363.25, -1433134.9, -31069.492, 0.28344205, -0.19897145, -1001128.75, 50681.03, 0.0, 10.00258, 9.996404 
2.7775407e+3, 2.0265919e+2, -917543.06, -1248577.4, 37744.94, 0.2808731, -0.2569038, -913293.9, 40622.83, 0.0, 10.001885, 9.997508 
2.777168e+3, 2.1265167e+2, -651992.75, -774927.3, 101311.234, 0.15243633, -0.34401187, -594960.25, 261027.17, 0.0, 10.001928, 9.999947 
2.776795e+3, 2.2264494e+2, -819537.5, -1000021.3, 75033.414, 0.067989275, -0.2564638, -792418.4, -34366.383, 0.0, 10.000749, 9.998415 
2.7764213e+3, 2.3263842e+2, -547224.75, -620592.7, 81940.664, 0.08937223, -0.25741613, -494131.28, 165986.55, 0.0, 10.001258, 9.99998 
2.7760485e+3, 2.4263187e+2, -763841.75, -953072.6, 110307.445, 0.17148417, -0.120407924, -713130.6, -150945.94, 0.0, 10.000169, 9.997664 
2.7756768e+3, 2.5262427e+2, -654764.2, -683881.8, 119740.25, 0.3553612, -0.11265135, -548700.9, -84436.97, 0.0, 9.999717, 9.998924 
2.7753034e+3, 2.6261643e+2, -866159.5, -930045.5, 145323.5, 0.34663916, -0.023472171, -749309.8, -382964.97, 0.0, 9.998275, 9.997352 
2.7749273e+3, 2.7260765e+2, -458815.78, -474658.47, 51523.44, -0.03791591, -0.14253907, -414608.3, -146177.44, 0.0, 9.99968, 9.999015 
2.774553e+3, 2.8259936e+2, -382476.16, -551415.1, -23843.31, -0.19439241, -0.14195073, -379175.5, -208664.06, 0.0, 10.000015, 9.997799 
2.7741826e+3, 2.9259023e+2, 58755.79, -118308.78, 63955.88, 0.19910364, -0.33188173, 79440.35, 152039.36, 0.0, 10.001754, 9.99916 
2.77381e+3, 3.0258355e+2, -437.73923, -156147.03, 193060.72, 0.32589003, -0.18687226, 129875.3, 129875.3, 0.0, 10.000841, 9.998794 
2.7734366e+3, 3.1258237e+2, -377533.16, -22053.967, 184045.56, 0.2458671, 0.20571162, 56066.03, 56066.03, 0.0, 9.996813, 10.0012045 
2.7730617e+3, 3.2256857e+2, -716593.3, -186822.1, -4025.4915, 0.11751203, -0.51387656, -186791.5, -186791.5, 0.0, 9.994303, 10.001276 
2.7901495e+3, 1.3308899e+2, -1774449.6, -1722431.6, -92405.07, -0.119206965, -0.38784826, -1652445.0, -16753.703, 0.0011689387, 9.999642, 9.999773 
2.7897745e+3, 1.4308104e+2, -1400606.4, -1774032.5, 107288.69, 0.030796736, -0.4686395, -1371976.4, 165792.7, 0.0005049565, 10.002418, 9.997737 
2.7894005e+3, 1.53075e+2, -883603.94, -1162987.5, 105696.47, 0.0016297692, -0.43032706, -848122.8, 591704.6, 0.00013439951, 10.004187, 10.000261 
2.7890286e+3, 1.6306818e+2, -867237.9, -1388659.6, 53561.188, 0.12268517, -0.35507938, -861792.8, 480100.22, 0.000016423304, 10.004602, 9.997968 
2.788657e+3, 1.7305958e+2, -873236.56, -1209120.0, 50016.47, 0.22449486, -0.44832385, -865946.8, 378027.63, 0.0000003300107, 10.00349, 9.998951 
2.7882844e+3, 1.830517e+2, -1071510.8, -1533627.3, -10169.092, 0.24155675, -0.3430559, -1071287.0, 74765.74, 0.0, 10.002536, 9.996608 
2.7879104e+3, 1.9304313e+2, -826026.8, -1269257.6, 52496.305, 0.25728807, -0.26582712, -819894.0, 228251.98, 0.0, 10.003299, 9.997292 
2.787537e+3, 2.0303455e+2, -686536.44, -1035967.44, 111872.63, 0.24061577, -0.18777828, -653788.7, 296446.28, 0.0, 10.002979, 9.998428 
2.787163e+3, 2.1302629e+2, -712811.7, -809120.2, 98416.08, 0.13883391, -0.3249998, -651400.6, 200911.77, 0.0, 10.001484, 9.999945 
2.7867892e+3, 2.2301894e+2, -784383.25, -929118.2, 44677.863, 0.072676726, -0.3139924, -771702.75, -17320.164, 0.0, 10.0006075, 9.998996 
2.786416e+3, 2.3301266e+2, -532154.4, -626785.7, 13665.638, 0.06713211, -0.27701345, -530220.44, 126226.01, 0.0, 10.001262, 9.999998 
2.786043e+3, 2.4300627e+2, -512905.9, -757436.0, -29274.42, 0.14684218, -0.15552098, -509450.1, 49061.363, 0.0, 10.001466, 9.998399 
2.7856708e+3, 2.529984e+2, -408313.56, -543990.2, -43019.79, 0.40668118, -0.18998456, -395822.9, 64768.098, 0.0, 10.001212, 9.999209 
2.785298e+3, 2.629903e+2, -506634.56, -754153.0, 54685.113, 0.47472402, -0.15352306, -495091.13, -132417.23, 0.0, 10.0006075, 9.997462 
2.7849215e+3, 2.7298087e+2, -470037.25, -588123.0, 84618.625, 0.06122147, -0.2519284, -425898.88, -161127.1, 0.0, 9.999904, 9.9981985 
2.784547e+3, 2.8297272e+2, -452751.94, -399273.16, 81853.36, -0.09725623, -0.23109184, -339902.34, -173049.42, 0.0, 9.998668, 9.999487 
2.7841765e+3, 2.929669e+2, -386131.88, -119114.336, 43668.113, 0.2478459, -0.24656649, -112154.26, -43250.844, 0.0, 9.997732, 10.001098 
2.7838033e+3, 3.0296132e+2, -485384.22, -341665.8, 50736.902, 0.39376366, -0.13270076, -325559.22, -325559.22, 0.0, 9.997157, 9.999325 
2.7834278e+3, 3.1295618e+2, -237096.08, -30713.797, -13506.433, 0.3293633, -0.09228843, -29833.64, -29833.64, 0.0, 9.997926, 10.000695 
2.783054e+3, 3.2294753e+2, -111415.76, 83650.44, -1777.5115, 0.41734934, -0.23778641, 83666.63, 83666.63, 0.0, 9.998397, 10.001208 
2.80014e+3, 1.3346867e+2, -1392328.4, -1242409.6, -42448.902, -0.3816079, 0.13538347, -1231224.9, 400759.72, 0.0005685035, 10.00107, 10.002308 
2.7997777e+3, 1.4345759e+2, -1492220.1, -1925730.0, 39944.65, 0.7589161, -0.4223697, -1488570.3, 45507.71, 0.00022583413, 10.002367, 9.996653 
2.7993986e+3, 1.5345034e+2, -1080070.1, -1425112.5, 46910.313, 0.07015475, -0.39368948, -1073806.3, 362340.9, 0.00005282333, 10.003634, 9.998669 
2.799023e+3, 1.634412e+2, -1163668.5, -1646360.5, -21442.932, -0.20806079, -0.40933308, -1162717.8, 175515.44, 0.000004777361, 10.003217, 9.996773 
2.7986518e+3, 1.734286e+2, -1060070.0, -1374452.6, -18002.574, 0.030030265, -0.8669057, -1059042.5, 181308.13, 0.00000002399446, 10.002626, 9.998157 
2.7982798e+3, 1.8341973e+2, -1138614.9, -1459950.4, 12582.284, 0.20408265, -0.84074676, -1138123.0, 4313.626, 0.0, 10.001773, 9.997423 
2.7979067e+3, 1.9341618e+2, -815973.75, -1055805.8, 52222.94, 0.25737002, -0.456063, -805095.7, 239384.6, 0.0, 10.002603, 9.999028 
2.797533e+3, 2.0341069e+2, -925510.5, -1243862.8, 48593.867, 0.2615035, -0.13462345, -918258.25, 28281.666, 0.0, 10.001833, 9.997527 
2.7971575e+3, 2.134009e+2, -892598.44, -1001688.7, 24300.781, 0.14488953, -0.36700937, -887430.06, -38794.535, 0.0, 10.000758, 9.9989395 
2.7967834e+3, 2.2339262e+2, -1073282.8, -1155742.1, 62679.688, 0.09616839, -0.34848627, -1039488.25, -288770.72, 0.0, 9.999228, 9.998036 
2.7964112e+3, 2.333861e+2, -740809.4, -769672.3, 47335.504, 0.17126907, -0.31105736, -705754.3, -52969.55, 0.0, 10.000188, 9.999484 
2.7960384e+3, 2.4337916e+2, -778285.4, -928398.25, -22839.031, 0.23536055, -0.1737787, -774887.44, -220032.44, 0.0, 9.99998, 9.997899 
2.795664e+3, 2.533703e+2, -548582.75, -586494.94, -38689.48, 0.28908944, -0.35303438, -524455.06, -67512.49, 0.0, 10.000247, 9.999337 
2.7952898e+3, 2.6336268e+2, -682421.9, -771578.44, 27658.186, 0.275821, -0.29446563, -674538.8, -315518.38, 0.0, 9.99926, 9.997955 
2.7949154e+3, 2.7335575e+2, -530885.7, -499065.38, 69208.83, 0.16034196, -0.26802352, -443961.47, -182866.6, 0.0, 9.999098, 9.999158 
2.794541e+3, 2.833494e+2, -604085.06, -492414.63, 18976.506, 0.12242642, -0.10866689, -489277.97, -326119.47, 0.0, 9.997842, 9.999211 
2.794167e+3, 2.933432e+2, -530032.94, -202546.84, -9020.424, 0.2548846, -0.16912815, -202298.58, -137086.89, 0.0, 9.99689, 10.000911 
2.7937925e+3, 3.0333567e+2, -712574.25, -497579.53, 27300.785, 0.25508216, -0.21737134, -494166.97, -494166.97, 0.0, 9.995957, 9.998763 
2.7934194e+3, 3.1332552e+2, -349812.28, -113572.99, 27044.8, 0.33236873, -0.6569033, -110516.44, -110516.44, 0.0, 9.997406, 10.000299 
2.7930453e+3, 3.2332358e+2, 3744.4648, 267214.4, 194993.64, 0.15701261, -0.17282, 370801.84, 370801.84, 0.0, 9.998902, 10.0021105 
2.8101426e+3, 1.338385e+2, -1252949.9, -1434367.4, -165272.56, 0.12495686, 0.016366506, -1155129.9, 473231.3, 0.00025074946, 10.002972, 10.000172 
2.8097677e+3, 1.4382744e+2, -1298649.8, -1742374.4, -150348.95, 0.024838462, -0.43660784, -1252505.1, 277955.6, 0.00009142473, 10.003246, 9.99752 
2.809396e+3, 1.5382175e+2, -1138639.5, -1381682.8, -50535.25, 0.12255159, -0.32887033, -1128550.6, 303965.63, 0.000018191195, 10.002839, 9.999409 
2.8090236e+3, 1.638143e+2, -1149034.0, -1427466.0, -92919.32, 0.17007805, -0.29907006, -1120872.9, 213712.81, 0.000001253609, 10.002324, 9.998728 
2.8086486e+3, 1.7380431e+2, -1011438.3, -1187499.6, 5347.8267, 0.14217384, -0.6309473, -1011276.0, 225398.73, 0.0000000065346386, 10.002158, 9.999721 
2.808275e+3, 1.8379603e+2, -1045640.25, -1321598.6, 65686.58, 0.13804772, -0.65312445, -1030802.6, 107949.72, 0.0, 10.001946, 9.998283 
2.807902e+3, 1.9379006e+2, -802450.5, -1039099.06, 74371.055, 0.17702113, -0.50294465, -781018.94, 259796.7, 0.0, 10.002565, 9.999192 
2.8075284e+3, 2.037835e+2, -791550.6, -1117022.1, -33426.47, 0.19648169, -0.32480043, -788153.1, 154730.38, 0.0, 10.002408, 9.9981165 
2.807152e+3, 2.1377455e+2, -783209.75, -964395.1, -25422.354, 0.14048548, -0.4493855, -779710.3, 65261.016, 0.0, 10.001468, 9.998904 
2.806777e+3, 2.2376673e+2, -769750.1, -875927.25, 90803.4, 0.108237766, -0.43254948, -717654.75, 29392.578, 0.0, 10.000633, 9.999304 
2.8064048e+3, 2.3375998e+2, -656090.6, -655283.1, 154658.27, 0.15923877, -0.46191457, -501028.1, 148083.4, 0.0, 10.000327, 10.000251 
2.8060317e+3, 2.4375299e+2, -694895.9, -822124.1, 135472.42, 0.21952526, -0.39234623, -608845.25, -57664.703, 0.0, 10.000126, 9.998584 
2.8056574e+3, 2.5374484e+2, -520161.34, -580084.8, 108822.87, 0.2587378, -0.46994826, -437250.94, 16012.709, 0.0, 10.000308, 9.999423 
2.805283e+3, 2.6373774e+2, -496735.9, -626131.25, 144577.4, 0.2617769, -0.36716267, -403040.34, -47701.84, 0.0, 10.000155, 9.998578 
2.804909e+3, 2.7373132e+2, -410530.0, -424006.28, 96901.49, 0.25128096, -0.2720565, -320132.66, -62722.67, 0.0, 9.9997015, 9.999458 
2.8045347e+3, 2.837253e+2, -336077.28, -277199.84, 42988.715, 0.28021276, -0.13624138, -254536.08, -95065.0, 0.0, 9.999146, 10.000128 
2.804159e+3, 2.937188e+2, -188114.98, -31851.094, 27251.879, 0.29703903, -0.22580524, -27234.832, 34290.855, 0.0, 9.9990225, 10.00116 
2.8037828e+3, 3.0371067e+2, -292746.13, -281144.2, 164556.73, 0.23788764, -0.33117718, -122286.2, -122286.2, 0.0, 9.998735, 9.99889 
2.803411e+3, 3.1369933e+2, -65053.543, -16894.916, 125333.94, 0.3291473, -0.8442657, 86651.83, 86651.83, 0.0, 9.999449, 10.0000105 
2.803037e+3, 3.237008e+2, -183576.9, 166810.31, 152043.88, 0.09188721, 0.008145329, 223586.83, 223586.83, 0.0, 9.997519, 10.002148 
2.8201437e+3, 1.3420711e+2, -1454175.6, -1756093.4, 37558.234, 0.5942234, -0.22187282, -1449573.5, 175174.22, 0.000107460386, 10.00282, 9.997927 
2.8197575e+3, 1.4419775e+2, -1370541.1, -1687602.5, -13190.334, -0.6555894, -0.3772695, -1369993.3, 156845.6, 0.00003510944, 10.002525, 9.998171 
2.819394e+3, 1.5419322e+2, -1189987.8, -1269709.0, 34344.223, 0.304174, -0.28502592, -1177232.9, 251652.63, 0.0000055355054, 10.002038, 10.000508 
2.8190246e+3, 1.6418828e+2, -1199985.6, -1254409.6, 3393.7732, 0.74936664, -0.12225076, -1199774.9, 131156.1, 0.0000002527922, 10.001255, 10.000413 
2.818646e+3, 1.7418237e+2, -960073.0, -939733.44, 25132.355, 0.36946604, -0.24727716, -922791.25, 310187.63, 0.0, 10.001692, 10.001634 
2.8182697e+3, 1.8417494e+2, -1164841.3, -1416583.8, 109805.875, 0.12852575, -0.2593778, -1123676.9, 11369.2, 0.0, 10.001399, 9.99787 
2.8178972e+3, 1.9416437e+2, -978564.9, -1180935.5, 114029.414, 0.12408823, -0.5491586, -927299.6, 109850.69, 0.0, 10.001663, 9.99864 
2.8175232e+3, 2.0415558e+2, -1018345.5, -1241218.4, -45201.574, 0.14954388, -0.5380504, -1009526.94, -70290.016, 0.0, 10.001093, 9.997828 
2.8171468e+3, 2.1414801e+2, -898707.25, -996447.1, -56783.45, 0.17501004, -0.5745384, -872659.7, -31348.992, 0.0, 10.000728, 9.998969 
2.8167713e+3, 2.241412e+2, -846388.06, -792257.4, 79788.664, 0.12376337, -0.49618012, -735068.56, 8304.307, 0.0, 9.999746, 10.000251 
2.8163972e+3, 2.341341e+2, -709822.6, -500064.0, 123250.21, 0.06207326, -0.74254346, -443109.2, 202322.52, 0.0, 9.999353, 10.001707 
2.8160238e+3, 2.4412791e+2, -909486.7, -944568.56, 107586.68, 0.08796366, -0.6514767, -818020.4, -270530.66, 0.0, 9.9988985, 9.998281 
2.8156507e+3, 2.5412142e+2, -660724.9, -654008.56, 103937.45, 0.24359615, -0.5912889, -553375.06, -103813.81, 0.0, 9.99948, 9.9992695 
2.8152767e+3, 2.6411492e+2, -736229.1, -852621.25, 113433.34, 0.28706253, -0.35946816, -666934.4, -315300.1, 0.0, 9.9991665, 9.997432 
2.8149015e+3, 2.7410737e+2, -570422.3, -574661.25, 93085.48, 0.20594946, -0.33866304, -479432.16, -225712.0, 0.0, 9.999063, 9.998665 
2.8145263e+3, 2.8410062e+2, -403351.22, -233745.81, 17788.44, 0.1717954, -0.244805, -231900.22, -76111.83, 0.0, 9.998534, 10.00066 
2.8141508e+3, 2.940938e+2, -187312.97, 94043.35, 42453.66, 0.24281034, -0.49784085, 100309.59, 158154.38, 0.0, 9.998624, 10.002161 
2.8137746e+3, 3.040876e+2, -370928.97, -400099.03, 183198.47, 0.11571098, -0.41829935, -201735.88, -201735.88, 0.0, 9.998631, 9.998114 
2.8134012e+3, 3.140814e+2, -193865.4, -159425.1, 169098.1, 0.04354366, -0.36589372, -6672.6143, -6672.6143, 0.0, 9.9989605, 9.999259 
2.8130278e+3, 3.2407558e+2, -627260.44, -372197.94, 7863.6133, 0.03430414, -0.06869269, -371955.75, -371955.75, 0.0, 9.996088, 9.999056 
2.8301388e+3, 1.3458152e+2, -1374243.5, -1681556.5, 120124.82, 0.3135582, -0.44581276, -1332860.8, 288212.1, 0.000050640916, 10.003031, 9.99842 
2.8297567e+3, 1.4457674e+2, -1225385.0, -1474846.6, 124835.05, -0.39459452, -0.1707344, -1173646.0, 349475.16, 0.00001538915, 10.002854, 9.999486 
2.829388e+3, 1.5456973e+2, -1259549.9, -1272721.0, 185358.16, 0.1896398, -0.34237662, -1080660.4, 344530.03, 0.0000020566958, 10.001335, 10.000875 
2.8290167e+3, 1.645642e+2, -1243142.3, -1255521.9, 167941.27, 0.50224197, -0.24944511, -1081276.8, 245966.64, 0.00000005936716, 10.000783, 10.00066 
2.8286412e+3, 1.7455956e+2, -943290.6, -987217.4, 156594.55, 0.31027392, -0.18450546, -807126.7, 422158.3, 0.0, 10.001936, 10.00124 
2.8282654e+3, 1.8455267e+2, -1032625.0, -1339726.9, 131494.98, 0.113279775, -0.123033606, -984015.56, 147335.69, 0.0, 10.002154, 9.9980755 
2.8278908e+3, 1.9454204e+2, -1042197.8, -1247475.3, 150092.17, -0.019770661, -0.37550297, -963005.94, 70451.24, 0.0, 10.001283, 9.998416 
2.8275165e+3, 2.0453313e+2, -943769.94, -1126067.1, 19328.232, 0.030034436, -0.39815897, -941743.2, -6199.042, 0.0, 10.0011215, 9.998673 
2.8271425e+3, 2.1452555e+2, -673357.4, -879615.9, 44803.98, 0.24078915, -0.41937715, -664045.4, 173570.73, 0.0, 10.0020895, 9.999189 
2.8267673e+3, 2.2451827e+2, -499478.78, -610443.06, 83446.89, 0.3000742, -0.404839, -454752.88, 284928.38, 0.0, 10.001926, 10.000502 
2.8263918e+3, 2.3451042e+2, -615592.56, -545407.3, 15263.977, 0.18834454, -0.64486206, -542231.4, 99515.91, 0.0, 10.000191, 10.001089 
2.826017e+3, 2.445037e+2, -729231.0, -782801.2, 12250.149, 0.14231363, -0.6138291, -726562.6, -182752.33, 0.0, 9.999742, 9.999 
2.825644e+3, 2.5449732e+2, -402992.3, -532947.25, 3139.4824, 0.20172818, -0.5435461, -402916.5, 42964.12, 0.0, 10.001162, 9.999336 
2.8252697e+3, 2.6449093e+2, -371834.3, -581034.06, -1032.5756, 0.23351794, -0.35716346, -371829.2, -23878.533, 0.0, 10.001166, 9.998342 
2.824894e+3, 2.7448368e+2, -496918.9, -547046.7, 13416.476, 0.15898721, -0.31829178, -493553.94, -243523.73, 0.0, 9.999498, 9.998681 
2.824518e+3, 2.8447676e+2, -404058.16, -218938.67, -11755.776, 0.1663935, -0.25979987, -218195.13, -66094.95, 0.0, 9.99839, 10.000824 
2.8241423e+3, 2.9446942e+2, -258686.34, -19628.633, -126283.83, 0.23360369, -0.5067845, 34723.94, 88889.48, 0.0, 9.998371, 10.001513 
2.8237665e+3, 3.0446407e+2, -341254.63, -309643.75, 52522.56, 0.08264765, -0.3639273, -270600.03, -270600.03, 0.0, 9.998407, 9.998867 
2.823393e+3, 3.144607e+2, -195976.14, -186222.81, 96615.27, -0.03173041, -0.061774943, -94361.21, -94361.21, 0.0, 9.998907, 9.9991455 
2.8230205e+3, 3.244493e+2, -357118.44, -422959.97, -154164.23, 0.2876103, -0.2577619, -232399.14, -232399.14, 0.0, 9.998575, 9.997569 
2.8401336e+3, 1.3495748e+2, -1438243.9, -1629768.0, 28460.611, 0.17128982, -0.5113, -1434104.1, 183280.58, 0.000026719768, 10.00221, 9.999192 
2.8397572e+3, 1.4495607e+2, -1315634.4, -1460690.0, -50008.82, 0.056534585, 0.025256045, -1300064.8, 219334.17, 0.000008259606, 10.002041, 9.999942 
2.8393808e+3, 1.5494679e+2, -1318110.9, -1281886.1, -26895.068, 0.059988424, -0.43186167, -1267573.1, 153915.03, 0.0000013335809, 10.000887, 10.001002 
2.8390077e+3, 1.649405e+2, -1403269.8, -1410592.3, 93865.99, 0.18284854, -0.393104, -1312993.6, 10556.77, 0.000000073245815, 10.000162, 9.999827 
2.8386357e+3, 1.7493618e+2, -1171472.5, -1215351.3, 100456.17, 0.2876039, -0.23882096, -1090587.9, 135007.95, 0.0, 10.000979, 10.000087 
2.838261e+3, 1.8492998e+2, -1246450.9, -1468784.3, 70913.914, 0.17183428, -0.027115038, -1225758.5, -98098.375, 0.0, 10.000932, 9.997708 
2.8378838e+3, 1.9492057e+2, -1207553.3, -1369453.3, 93511.31, -0.14018321, -0.18130445, -1164821.1, -135064.31, 0.0, 10.000427, 9.997934 
2.8375098e+3, 2.0491244e+2, -1011359.3, -1103651.6, 53017.387, -0.08559246, -0.118246935, -987218.1, -55381.637, 0.0, 10.000555, 9.999046 
2.8371388e+3, 2.1490474e+2, -787055.6, -907386.56, 67530.5, 0.3530303, -0.22598583, -756776.3, 77130.945, 0.0, 10.001328, 9.99931 
2.8367648e+3, 2.2489701e+2, -790644.7, -935923.44, 19268.246, 0.5309107, -0.17223904, -788132.56, -52154.406, 0.0, 10.000872, 9.998728 
2.8363872e+3, 2.348882e+2, -886531.6, -895449.7, -38248.766, 0.42922044, -0.37051088, -852482.8, -214423.66, 0.0, 9.999392, 9.999036 
2.8360114e+3, 2.4488044e+2, -863308.5, -861560.5, 78732.35, 0.2545698, -0.31418335, -783697.3, -243562.25, 0.0, 9.999012, 9.998791 
2.8356373e+3, 2.5487253e+2, -566456.3, -629916.56, 64689.363, 0.08035047, -0.42907527, -526134.3, -83916.234, 0.0, 10.0002365, 9.999099 
2.8352618e+3, 2.648661e+2, -458301.75, -477615.4, -79911.61, 0.013845791, -0.2804266, -387465.6, -43182.703, 0.0, 10.000111, 9.999497 
2.8348854e+3, 2.748601e+2, -554934.56, -449391.88, -41513.918, 0.048727553, -0.27707055, -435019.94, -188678.78, 0.0, 9.998683, 9.999698 
2.834509e+3, 2.8485367e+2, -669197.75, -602388.44, -32811.29, 0.087092765, -0.103547685, -588969.44, -440562.06, 0.0, 9.997794, 9.998441 
2.834133e+3, 2.9484567e+2, -554016.94, -465607.5, -133199.14, 0.11155769, -0.19201572, -369469.53, -318977.3, 0.0, 9.997752, 9.9987335 
2.8337577e+3, 3.0483928e+2, -290359.28, -35424.83, 38689.71, -0.01002944, -0.10615816, -29682.494, -29682.494, 0.0, 9.997846, 10.000965 
2.8333864e+3, 3.1483412e+2, -211130.2, 31673.605, 117121.734, 0.07425309, -0.22211544, 78960.54, 78960.54, 0.0, 9.997971, 10.001058 
2.8330144e+3, 3.2482535e+2, -270694.88, -185814.23, -17674.24, 0.33820388, -0.38099778, -182281.1, -182281.1, 0.0, 9.998528, 9.999123 
2.8501278e+3, 1.3533166e+2, -1334315.8, -1416220.0, -155043.39, -0.083490245, -0.23103637, -1214907.3, 398818.75, 0.000013315561, 10.002055, 10.0008335 
2.8497535e+3, 1.4532596e+2, -1288188.1, -1401337.0, -252009.6, 0.0947293, -0.19443792, -1086480.8, 429295.56, 0.0000038169696, 10.001943, 10.000429 
2.8493744e+3, 1.5531972e+2, -1317520.0, -1311731.1, -200095.78, -0.07695554, -0.34648055, -1114508.9, 303328.5, 0.0000005153316, 10.000909, 10.00083 
2.8490007e+3, 1.6531451e+2, -1261325.9, -1229353.6, -54897.94, 0.054678973, -0.2627742, -1188161.6, 131727.11, 0.00000002542409, 10.000563, 10.000896 
2.8486305e+3, 1.753099e+2, -1178901.4, -1146351.4, 18321.08, 0.3345126, -0.20850554, -1138120.5, 83814.51, 0.0, 10.000519, 10.000815 
2.8482568e+3, 1.8530416e+2, -1133117.0, -1166743.4, 17670.947, 0.3148866, -0.1059692, -1125538.8, -1547.332, 0.0, 10.000541, 9.999996 
2.84788e+3, 1.9529642e+2, -1024766.06, -1071703.1, 136399.97, 0.05261312, -0.26268682, -909830.4, 116237.11, 0.0, 10.000634, 9.999919 
2.8475055e+3, 2.0528919e+2, -879014.4, -1029457.0, 136920.61, 0.032449413, -0.21775208, -798013.06, 130125.97, 0.0, 10.001304, 9.999233 
2.847133e+3, 2.1528165e+2, -637667.5, -857040.5, 125630.28, 0.26134968, -0.26155487, -580578.4, 249635.11, 0.0, 10.0022745, 9.999267 
2.8467587e+3, 2.2527415e+2, -512492.75, -776412.9, 42672.043, 0.41707885, -0.20039898, -505764.8, 226520.4, 0.0, 10.00262, 9.998988 
2.846382e+3, 2.3526578e+2, -430598.78, -694848.94, 64300.79, 0.4240865, -0.29128152, -415782.94, 218580.56, 0.0, 10.002478, 9.998971 
2.8460056e+3, 2.4525803e+2, -412113.13, -622757.44, 244900.48, 0.28702733, -0.24036297, -250847.58, 285592.84, 0.0, 10.001858, 9.999125 
2.8456303e+3, 2.5525007e+2, -485917.0, -594263.2, 223417.77, 0.024264622, -0.30375135, -310198.3, 128325.05, 0.0, 10.000633, 9.999224 
2.8452545e+3, 2.6524308e+2, -401707.25, -359696.9, 52226.996, -0.04232107, -0.25837624, -324409.3, 16181.939, 0.0, 10.000037, 10.000378 
2.8448784e+3, 2.752365e+2, -219773.13, -214460.8, 12946.639, 0.06521866, -0.31634057, -203900.66, 38748.875, 0.0, 10.000581, 10.000443 
2.8445023e+3, 2.8522977e+2, -259460.02, -484561.5, 81990.16, 0.13132957, -0.17450482, -232762.58, -88044.62, 0.0, 10.000872, 9.997806 
2.8441256e+3, 2.952218e+2, -170131.61, -387886.28, 61239.777, 0.12356754, -0.1168277, -154090.63, -107283.664, 0.0, 10.000793, 9.997826 
2.84375e+3, 3.0521443e+2, 75864.984, 233774.39, 222677.13, 0.04423026, -0.117116235, 391080.03, 391080.03, 0.0, 9.999838, 10.001908 
2.8433797e+3, 3.1520784e+2, -124546.33, 137018.39, 113736.78, 0.22048953, -0.41548732, 179556.78, 179556.78, 0.0, 9.99821, 10.001716 
2.843006e+3, 3.2520264e+2, -478061.53, -157573.19, -141440.66, 0.3933124, -0.33488742, -104080.01, -104080.01, 0.0, 9.996337, 10.000462 
2.860122e+3, 1.3570559e+2, -1265999.8, -1257478.6, 129633.05, -0.19928372, -0.05169431, -1132036.1, 478030.22, 0.0000059672575, 10.002174, 10.001791 
2.8597492e+3, 1.4569584e+2, -1357793.3, -1444911.5, -97053.97, 0.1912655, -0.42472023, -1294971.6, 217181.16, 0.0000015122073, 10.001619, 10.0002365 
2.859368e+3, 1.5569268e+2, -1316615.3, -1350705.5, -96077.63, -0.10923431, -0.24879017, -1236082.5, 178104.13, 0.0000000966577, 10.001161, 10.000408 
2.8589946e+3, 1.6568823e+2, -1181405.6, -1072819.6, 60660.645, 0.064433105, -0.109476164, -1045703.56, 270526.53, 0.00000000026919006, 10.000697, 10.001891 
2.8586254e+3, 1.7568272e+2, -1194352.6, -1064354.1, 62503.37, 0.46116683, -0.25597787, -1039178.06, 179103.33, 0.0, 10.000104, 10.001563 
2.8582528e+3, 1.8567778e+2, -1071973.4, -853901.25, 46342.453, 0.5249277, -0.22207594, -844461.7, 275863.47, 0.0, 9.999901, 10.002411 
2.8578773e+3, 1.9567199e+2, -1043381.44, -847341.6, 91911.8, 0.41047847, -0.45017177, -810990.1, 211385.2, 0.0, 9.999659, 10.001894 
2.857502e+3, 2.0566566e+2, -1072507.4, -1176297.8, 137906.97, 0.2761639, -0.37411058, -977054.5, -52615.258, 0.0, 10.000299, 9.99868 
2.857127e+3, 2.156578e+2, -893943.7, -1075643.0, 116057.15, 0.124395564, -0.43145165, -837406.4, -10882.008, 0.0, 10.000983, 9.99839 
2.8567514e+3, 2.2565062e+2, -690908.1, -810097.06, 19336.664, 0.1486589, -0.31217912, -687849.56, 40745.902, 0.0, 10.001307, 9.999309 
2.856376e+3, 2.3564315e+2, -627031.1, -770181.0, 42800.64, 0.30130234, -0.39963844, -615210.2, 15453.737, 0.0, 10.001219, 9.99898 
2.8559998e+3, 2.4563663e+2, -604042.3, -702720.2, 181269.13, 0.21597093, -0.21992168, -465517.4, 67211.12, 0.0, 10.0007105, 9.998991 
2.8556237e+3, 2.556297e+2, -700057.5, -737247.56, 174594.67, -0.038921818, -0.2235175, -543070.44, -108268.88, 0.0, 9.999494, 9.998695 
2.8552482e+3, 2.6562184e+2, -535687.8, -475886.72, 61321.277, -0.041516084, -0.20661981, -437564.53, -100688.54, 0.0, 9.999418, 9.99984 
2.854873e+3, 2.7561253e+2, -382543.72, -381600.06, 44680.363, 0.14152324, -0.5284908, -337389.03, -98430.62, 0.0, 9.999884, 9.999624 
2.8544974e+3, 2.8560483e+2, -303238.72, -417358.63, 75542.95, 0.20936728, -0.46802995, -265627.8, -124596.38, 0.0, 10.000375, 9.99843 
2.8541204e+3, 2.955972e+2, -211527.02, -355383.0, 97203.92, 0.15728755, -0.46761784, -162532.56, -119423.336, 0.0, 10.000411, 9.998185 
2.8537437e+3, 3.0558917e+2, -129719.1, -76434.6, 144009.67, 0.022859495, -0.44818926, 43376.535, 43376.535, 0.0, 9.999489, 9.999879 
2.853369e+3, 3.1558132e+2, -487942.2, -291520.38, 48882.17, 0.01734667, -0.6914897, -280027.84, -280027.84, 0.0, 9.996955, 9.999325 
2.852994e+3, 3.2557786e+2, -549394.6, 39968.18, -144539.52, 0.22792293, -0.42051658, 73507.44, 73507.44, 0.0, 9.995033, 10.002401 
2.8701144e+3, 1.3608512e+2, -1314146.3, -1532072.9, 211098.02, -0.6749538, -0.2785761, -1185548.3, 420777.56, 0.0000021514043, 10.002718, 9.999743 
2.8697488e+3, 1.460742e+2, -1306169.0, -1475063.3, 114088.72, 0.5722078, -0.60355496, -1248674.0, 259756.14, 0.00000043033984, 10.002096, 9.9998455 
2.8693646e+3, 1.5607059e+2, -1220931.8, -1397073.1, 142494.4, -0.03593759, -0.36459288, -1141488.0, 268982.1, 0.000000019645139, 10.002099, 9.999689 
2.868989e+3, 1.6606434e+2, -1077830.5, -1107886.3, 198545.78, 0.017152606, -0.3119354, -893744.7, 418786.9, 0.0, 10.001738, 10.001167 
2.8686184e+3, 1.760563e+2, -1163337.9, -1137150.6, 170100.06, 0.30258903, -0.5724926, -979641.0, 234967.06, 0.0, 10.000618, 10.000851 
2.8682452e+3, 1.8605144e+2, -1026708.3, -889359.6, 68892.58, 0.40460095, -0.47855967, -860759.3, 255895.86, 0.0, 10.000266, 10.002075 
2.8678712e+3, 1.9604756e+2, -1044366.75, -924438.94, 45498.406, 0.43282223, -0.42756248, -909131.5, 109562.13, 0.0, 9.999752, 10.001426 
2.8674966e+3, 2.0604208e+2, -1048422.0, -1093477.4, 65998.87, 0.32536203, -0.28954342, -1001212.0, -80459.28, 0.0, 10.000144, 9.999322 
2.867121e+3, 2.1603486e+2, -841933.1, -988439.25, 68335.53, 0.07234118, -0.2918364, -815007.56, 7825.2456, 0.0, 10.000998, 9.999003 
2.8667456e+3, 2.2602771e+2, -592791.1, -661499.4, -40561.543, 0.08885643, -0.26785108, -573990.3, 150912.05, 0.0, 10.001339, 10.000392 
2.8663707e+3, 2.3602037e+2, -565650.5, -643803.06, 9879.987, 0.30294386, -0.39716092, -564420.8, 62546.47, 0.0, 10.00102, 10.000017 
2.8659943e+3, 2.4601409e+2, -474124.34, -560788.75, 163372.3, 0.21233784, -0.29816744, -348435.25, 180592.1, 0.0, 10.001103, 9.999822 
2.8656173e+3, 2.560077e+2, -330326.84, -492865.16, 162334.52, -0.08478565, -0.2687099, -230054.9, 201037.55, 0.0, 10.0015955, 9.999411 
2.8652418e+3, 2.6600006e+2, -263201.53, -372883.63, 83028.94, -0.041813545, -0.26229927, -218537.08, 114628.336, 0.0, 10.001275, 9.999707 
2.8648672e+3, 2.759906e+2, -340872.5, -412140.9, 43874.434, 0.22571279, -0.5254813, -319984.47, -84732.25, 0.0, 10.000206, 9.99932 
2.8644916e+3, 2.8598222e+2, -277618.88, -328914.13, 109429.055, 0.29327488, -0.56642705, -190872.02, -53541.816, 0.0, 10.000148, 9.999162 
2.8641146e+3, 2.9597408e+2, -96457.5, -247661.36, 86232.27, 0.20161448, -0.64256734, -57378.758, -17972.453, 0.0, 10.00086, 9.998752 
2.863737e+3, 3.059665e+2, -46131.203, -80179.71, 134314.19, 0.046732534, -0.59233487, 72233.336, 72233.336, 0.0, 10.000191, 9.999542 
2.8633597e+3, 3.159592e+2, -294808.13, -274164.16, 111817.83, -0.030923352, -0.6764422, -172192.89, -172192.89, 0.0, 9.99848, 9.998758 
2.8629848e+3, 3.2595345e+2, 172371.88, 340526.84, -89740.52, 0.27163595, -0.58042914, 379422.47, 379422.47, 0.0, 10.0000725, 10.002056 
2.8801093e+3, 1.3646477e+2, -1601626.3, -1816627.8, 24155.85, -0.76954305, -0.524027, -1598945.6, 3638.1519, 0.00000033823923, 10.001514, 9.998292 
2.879748e+3, 1.4645432e+2, -1369293.6, -1548937.3, 60561.953, 0.9898816, -0.7133699, -1350784.0, 153904.7, 0.000000039050374, 10.001966, 9.999341 
2.8793612e+3, 1.5644969e+2, -1397486.6, -1604580.3, 94755.13, 0.13943388, -0.51936036, -1360675.0, 46064.168, 0.0000000006124831, 10.001485, 9.99855 
2.8789842e+3, 1.6644147e+2, -1257417.8, -1352591.5, 173229.52, 0.018071296, -0.53357184, -1125357.9, 183462.67, 0.0, 10.001289, 9.999623 
2.8786105e+3, 1.7643051e+2, -1324934.0, -1426140.8, 144483.78, 0.15623006, -0.967083, -1222448.4, -11522.365, 0.0, 10.000494, 9.99888 
2.8782368e+3, 1.8642564e+2, -1147856.6, -1091128.9, 91727.555, 0.242335, -0.7090795, -1023480.0, 89500.31, 0.0, 10.000261, 10.000601 
2.8778636e+3, 1.964235e+2, -1202557.9, -1187814.8, 51678.402, 0.39181867, -0.36612338, -1142984.8, -127972.266, 0.0, 9.999636, 9.999627 
2.8774896e+3, 2.0641908e+2, -1095552.1, -1060219.3, 142627.9, 0.32691205, -0.05298654, -934167.9, -17102.883, 0.0, 9.999736, 9.999699 
2.8771156e+3, 2.1641248e+2, -1021030.4, -1055277.0, 127064.07, 0.106133215, -0.05798659, -909941.06, -90803.35, 0.0, 9.999845, 9.999058 
2.8767404e+3, 2.2640534e+2, -689195.4, -554278.4, -30853.219, 0.14988, -0.10121111, -547557.56, 173647.31, 0.0, 10.000208, 10.001603 
2.8763652e+3, 2.3639755e+2, -759711.4, -670825.8, 7252.6704, 0.38125324, -0.41756353, -670237.94, -46966.33, 0.0, 9.999587, 10.000476 
2.8759888e+3, 2.4639118e+2, -562597.7, -499461.7, 178293.2, 0.22967987, -0.3836252, -349963.38, 175365.8, 0.0, 10.000157, 10.000687 
2.8756112e+3, 2.5638482e+2, -509431.78, -556010.3, 176474.45, -0.15943146, -0.45400417, -354716.5, 72673.12, 0.0, 10.000381, 9.99956 
2.8752354e+3, 2.6637852e+2, -439978.88, -496951.03, 37599.016, -0.11282596, -0.2931735, -421293.53, -91840.586, 0.0, 10.00037, 9.999238 
2.8748605e+3, 2.7637118e+2, -594060.7, -634304.8, 31775.252, 0.19750038, -0.3203984, -576572.06, -345044.53, 0.0, 9.999027, 9.998329 
2.8744847e+3, 2.863626e+2, -334278.3, -315417.5, 134275.5, 0.23827587, -0.3550865, -190241.67, -56632.445, 0.0, 9.999639, 9.999475 
2.8741083e+3, 2.963528e+2, -204999.19, -317422.63, 126837.55, 0.09015939, -0.64838964, -122475.47, -86776.164, 0.0, 10.000252, 9.998567 
2.8737307e+3, 3.0634737e+2, -34477.277, 87448.11, 45307.2, 0.048959807, -0.452068, 102440.61, 102440.61, 0.0, 9.999725, 10.000886 
2.8733543e+3, 3.163437e+2, -515016.3, -407310.97, 122844.94, 0.19111909, -0.30455655, -327033.16, -327033.16, 0.0, 9.997213, 9.998445 
2.8729793e+3, 3.2632968e+2, -215497.69, -371601.5, 225442.95, 0.16808835, -0.8244376, -54977.547, -54977.547, 0.0, 10.000012, 9.997043 
2.8901118e+3, 1.3683966e+2, -1488751.0, -1504285.4, -47321.8, -0.08932974, -0.76418716, -1448563.3, 150339.88, 0.0000000032251708, 10.001015, 10.00075 
2.8897405e+3, 1.468324e+2, -1285122.5, -1428224.9, -41367.746, 0.64534754, -0.7785392, -1274024.8, 226951.2, 0.0, 10.002124, 10.000122 
2.8893566e+3, 1.5682809e+2, -1397435.5, -1545225.8, 72578.85, 0.15535153, -0.59667283, -1367753.6, 35272.152, 0.0, 10.001096, 9.999202 
2.8889802e+3, 1.6682106e+2, -1191001.1, -1300390.8, 192841.05, 0.106442764, -0.5451437, -1045248.44, 259849.19, 0.0, 10.001542, 9.999909 
2.8886062e+3, 1.7681216e+2, -1051685.4, -1292717.9, 229180.17, 0.15300632, -0.75230527, -913265.94, 293919.16, 0.0, 10.002206, 9.999033 
2.888231e+3, 1.8680578e+2, -883754.7, -1094857.4, 162994.81, 0.13629408, -0.5884387, -795119.5, 314135.66, 0.0, 10.002495, 9.999556 
2.8878558e+3, 1.9680087e+2, -865326.06, -1082356.9, 151692.2, 0.12183711, -0.36248308, -787331.06, 223983.78, 0.0, 10.002042, 9.999248 
2.887482e+3, 2.0679568e+2, -741742.94, -715851.06, 261127.22, 0.13463992, -0.20865025, -467349.06, 446019.84, 0.0, 10.001232, 10.001401 
2.8871092e+3, 2.1678966e+2, -867179.3, -830844.06, 326291.6, 0.092659265, -0.2679866, -522214.75, 293212.84, 0.0, 10.00005, 10.000564 
2.886734e+3, 2.2678266e+2, -739212.94, -691609.3, 133849.33, 0.13973346, -0.29299864, -579462.0, 138033.44, 0.0, 10.000258, 10.000679 
2.8863576e+3, 2.367749e+2, -571782.3, -625793.44, 72100.92, 0.24628119, -0.46535784, -521795.38, 97774.42, 0.0, 10.000897, 10.000217 
2.885982e+3, 2.467688e+2, -436677.72, -391836.97, 179530.94, 0.18598957, -0.43535936, -233331.86, 288295.03, 0.0, 10.0007715, 10.001166 
2.8856066e+3, 2.5676277e+2, -481354.66, -489115.44, 121985.98, -0.014023176, -0.47197306, -363187.38, 60495.676, 0.0, 10.000197, 10.000172 
2.8852302e+3, 2.667569e+2, -508715.13, -487187.22, -11705.465, 0.060097408, -0.32833216, -482048.97, -156304.56, 0.0, 9.999665, 9.999653 
2.8848538e+3, 2.767507e+2, -520153.75, -552273.25, 26763.945, 0.27803943, -0.2332862, -505000.94, -277189.03, 0.0, 9.999245, 9.9988165 
2.8844777e+3, 2.8674278e+2, -283254.53, -306857.56, 205121.44, 0.25633052, -0.2259245, -89595.4, 40294.527, 0.0, 9.99988, 9.999487 
2.8841022e+3, 2.9673335e+2, -111818.95, -255592.48, 140671.13, 0.11413041, -0.4594571, -25730.803, 6247.2827, 0.0, 10.000645, 9.998865 
2.8837252e+3, 3.0672675e+2, 64876.883, 102214.76, -64764.035, 0.19035731, -0.38745996, 150946.94, 150946.94, 0.0, 10.000507, 10.000672 
2.8833494e+3, 3.167219e+2, -186200.56, -265149.78, -96948.14, 0.54379356, -0.28783622, -120998.586, -120998.586, 0.0, 9.999396, 9.998509 
2.8829738e+3, 3.2671016e+2, -219666.25, -474610.8, 269541.66, 0.24333608, -0.45743936, -48974.324, -48974.324, 0.0, 10.000196, 9.996555 
2.9001117e+3, 1.3721472e+2, -1574846.1, -1323796.1, 82725.81, 0.48358715, -0.94185114, -1298987.9, 296236.16, 0.000000008553674, 9.999535, 10.002705 
2.8997317e+3, 1.4720991e+2, -1449327.8, -1420162.1, -78305.375, 0.29699233, -0.8445359, -1355093.3, 142179.0, 0.0, 10.000714, 10.000834 
2.8993517e+3, 1.572063e+2, -1443064.5, -1517610.3, 18149.537, 0.25502262, -0.6834762, -1438880.5, -39563.098, 0.0, 10.000677, 9.999561 
2.8989768e+3, 1.6720146e+2, -1163506.0, -1233000.9, 180024.44, 0.2852312, -0.4524906, -1014906.25, 286463.8, 0.0, 10.00165, 10.000254 
2.8986028e+3, 1.7719541e+2, -1126010.8, -1364776.1, 181706.81, 0.2706924, -0.43202272, -1027977.7, 175454.69, 0.0, 10.001959, 9.998636 
2.8982258e+3, 1.8718758e+2, -1029782.4, -1272550.8, 120351.57, 0.0716788, -0.34097925, -980232.0, 125283.914, 0.0, 10.00205, 9.998489 
2.8978482e+3, 1.971788e+2, -1069666.1, -1242975.0, 127364.63, -0.143581, -0.4423733, -1002272.75, 5337.3438, 0.0, 10.001022, 9.9985695 
2.8974745e+3, 2.0717259e+2, -727661.8, -486850.56, 204707.86, -0.078642815, -0.49357313, -369763.4, 539901.06, 0.0, 10.000496, 10.003248 
2.8971022e+3, 2.1716681e+2, -1015683.94, -839599.56, 242306.86, 0.10955471, -0.7360783, -669835.56, 141873.14, 0.0, 9.998895, 10.001001 
2.8967264e+3, 2.2716035e+2, -1008970.75, -1045172.94, 140063.42, 0.0814288, -0.60371363, -885843.6, -172067.6, 0.0, 9.999558, 9.998494 
2.8963485e+3, 2.3715304e+2, -907708.0, -1046409.0, 96334.016, -0.0221034, -0.5406251, -858358.3, -242500.23, 0.0, 9.999833, 9.997803 
2.8959748e+3, 2.471472e+2, -579253.7, -457719.47, 154698.83, 0.09158694, -0.38042712, -352280.8, 165636.98, 0.0, 9.999962, 10.000993 
2.8956026e+3, 2.5714135e+2, -770728.25, -675750.75, 96131.39, 0.28374943, -0.41814956, -616018.1, -196044.06, 0.0, 9.998584, 9.999592 
2.895226e+3, 2.6713502e+2, -587313.5, -439632.8, -19748.916, 0.35204384, -0.33572316, -437037.44, -114996.836, 0.0, 9.998879, 10.000306 
2.894847e+3, 2.7712828e+2, -652860.56, -615216.44, 53256.492, 0.3601703, -0.38458812, -577553.8, -353440.22, 0.0, 9.998427, 9.998767 
2.894471e+3, 2.8712225e+2, -358741.34, -345493.4, 218523.08, 0.22650704, -0.17819671, -133493.94, -7316.426, 0.0, 9.99952, 9.999351 
2.894096e+3, 2.9711556e+2, -308337.75, -476695.88, 167605.36, 0.05056641, -0.120397486, -204959.7, -176713.77, 0.0, 9.999976, 9.99763 
2.8937176e+3, 3.0710506e+2, -35985.246, -198475.88, -99709.14, 0.041198313, -0.28552443, 11387.923, 11387.923, 0.0, 10.001118, 9.998093 
2.8933385e+3, 3.1709448e+2, -366860.72, -761970.06, -70114.69, 0.09715723, -0.5141704, -354787.34, -354787.34, 0.0, 10.000128, 9.994617 
2.8929672e+3, 3.2709137e+2, -345027.6, 123184.2, 321662.53, 0.15207085, -0.11085689, 286912.88, 286912.88, 0.0, 9.997029, 10.001796 
2.910101e+3, 1.375948e+2, -1781298.9, -1495928.9, -18824.293, 0.095119834, -0.66308594, -1494692.5, 96812.83, 0.000000011355019, 9.998229, 10.002253 
2.9097238e+3, 1.4758688e+2, -1596774.3, -1465688.5, -51832.39, 0.18123709, -0.869184, -1447670.1, 45914.02, 0.0, 9.999462, 10.001197 
2.909346e+3, 1.5758541e+2, -1323504.0, -1440405.1, 45020.363, 0.16073163, -0.50927126, -1308175.8, 87428.234, 0.0, 10.001283, 9.999853 
2.9089716e+3, 1.6757949e+2, -1071774.0, -1267056.0, 129700.016, 0.1972238, -0.37300143, -1007070.1, 290597.5, 0.0, 10.002535, 9.999619 
2.908598e+3, 1.7757168e+2, -955110.1, -1285906.4, 88442.53, 0.1193733, -0.45818222, -932948.56, 266800.7, 0.0, 10.002993, 9.998726 
2.9082212e+3, 1.8756464e+2, -842630.56, -1058379.1, 6174.0674, 0.023036215, -0.38515627, -842454.0, 259367.8, 0.0, 10.00267, 9.999725 
2.907844e+3, 1.9755763e+2, -936245.25, -1069910.1, 103713.1, -0.089993246, -0.39712858, -879696.25, 124197.28, 0.0, 10.001324, 9.999666 
2.907469e+3, 2.0755109e+2, -721532.3, -591088.2, 98604.95, -0.022251273, -0.4779613, -538086.5, 367866.3, 0.0, 10.0008745, 10.002391 
2.9070956e+3, 2.1754456e+2, -790715.6, -750443.5, 29726.006, 0.081956886, -0.6989927, -734675.56, 73333.02, 0.0, 10.000362, 10.00095 
2.9067203e+3, 2.2753862e+2, -698516.7, -819316.3, 37603.71, 0.06457621, -0.5836543, -687767.56, 22301.977, 0.0, 10.001211, 9.999311 
2.9063436e+3, 2.3753242e+2, -468995.56, -745800.8, 114394.52, -0.032999855, -0.4645022, -427839.28, 184298.9, 0.0, 10.002269, 9.9987545 
2.9059696e+3, 2.4752587e+2, -427734.22, -473511.88, 124208.68, 0.15147777, -0.37520128, -324323.03, 189882.67, 0.0, 10.001169, 10.000393 
2.9055968e+3, 2.5751913e+2, -657314.0, -599752.3, 48618.68, 0.44861272, -0.42225224, -572034.4, -155761.6, 0.0, 9.999053, 9.999941 
2.9052183e+3, 2.6751322e+2, -479031.53, -322951.0, 11458.749, 0.37989032, -0.36893, -322114.22, -3778.704, 0.0, 9.999119, 10.001073 
2.9048377e+3, 2.775073e+2, -374808.38, -371718.4, 82777.12, 0.18714827, -0.39549252, -290471.88, -70071.96, 0.0, 9.999675, 9.9998865 
2.9044655e+3, 2.8750247e+2, -273010.75, -251745.06, 305588.38, 0.39735165, -0.1447142, 43395.39, 165848.06, 0.0, 9.999845, 9.9998455 
2.9040912e+3, 2.9749694e+2, -377225.4, -426414.84, 274169.5, 0.26378125, 0.016211348, -126549.69, -102037.41, 0.0, 9.998928, 9.998499 
2.9200903e+3, 1.3797422e+2, -1971847.3, -1663509.0, -97499.88, -0.10479249, -0.3886177, -1635265.6, -47470.473, 0.00000000463828, 9.997388, 10.00142 
2.9197165e+3, 1.4796445e+2, -1538590.0, -1400922.5, -11018.7295, 0.17685193, -0.8002821, -1400046.1, 89845.2, 0.0, 9.9998, 10.001402 
2.91934e+3, 1.5796427e+2, -1398374.8, -1524835.4, 59624.473, 0.14075074, -0.33532393, -1374696.1, 17197.057, 0.0, 10.001056, 9.999352 
2.9189664e+3, 1.6795644e+2, -1257212.9, -1467417.8, 135752.44, 0.104570284, -0.31644148, -1190631.8, 103343.92, 0.0, 10.001757, 9.998618 
2.9185927e+3, 1.7794576e+2, -1284626.9, -1500204.1, 81621.05, 0.004968211, -0.6127964, -1257210.5, -61123.496, 0.0, 10.001063, 9.998177 
2.918217e+3, 1.879406e+2, -935654.5, -879857.7, -26550.68, 0.038961038, -0.47100693, -869242.94, 228894.45, 0.0, 10.0012245, 10.001554 
2.9178405e+3, 1.9793656e+2, -1125214.6, -1153213.4, 54432.348, 0.1743517, -0.36952528, -1083010.3, -82835.76, 0.0, 10.000063, 9.999693 
2.9174647e+3, 2.0792998e+2, -975811.3, -942885.3, 91698.586, 0.14502442, -0.3223789, -866183.6, 36058.035, 0.0, 10.000269, 10.000214 
2.917089e+3, 2.1792233e+2, -1076926.0, -1054032.6, 44216.74, 0.059218407, -0.47260162, -1019804.94, -215485.03, 0.0, 9.999249, 9.999386 
2.9167143e+3, 2.2791696e+2, -669464.7, -546128.1, 82743.65, 0.06686467, -0.39064655, -504600.06, 201771.19, 0.0, 10.000421, 10.001506 
2.9163402e+3, 2.3791188e+2, -682647.0, -749429.4, 104215.79, 0.10568242, -0.3918915, -606603.7, 1815.317, 0.0, 10.000536, 9.999518 
2.9159647e+3, 2.4790427e+2, -645785.75, -663449.6, 28650.998, 0.25888932, -0.39452365, -624636.3, -114140.52, 0.0, 10.000176, 9.999491 
2.9155883e+3, 2.578959e+2, -936956.5, -830614.3, 7697.2236, 0.415341, -0.55600786, -830060.06, -417478.56, 0.0, 9.997672, 9.998993 
2.9152074e+3, 2.678917e+2, -517237.25, -201920.88, 32830.0, 0.07982027, -0.37374994, -198538.97, 116088.41, 0.0, 9.998469, 10.002095 
2.914825e+3, 2.778883e+2, -501920.84, -364483.13, 125589.195, -0.39291662, -0.27496865, -290041.5, -73376.13, 0.0, 9.9986515, 10.000384 
2.9144618e+3, 2.878837e+2, -285561.47, -155821.73, 299430.66, 0.7114423, -0.085417755, 85685.33, 204396.31, 0.0, 9.999451, 10.000622 
2.9140854e+3, 2.9787612e+2, -389927.38, -169175.05, 291835.16, 0.40964386, -0.29711995, 32459.459, 53244.887, 0.0, 9.997865, 10.000737 
2.9300842e+3, 1.3834722e+2, -2058651.0, -1752532.1, -54481.746, 0.11396277, -0.5017389, -1743124.8, -158979.83, 0.0, 9.996857, 10.001126 
2.92971e+3, 1.483408e+2, -1400187.6, -1277631.5, -36477.465, 0.11898923, -0.611826, -1267596.1, 218608.52, 0.0, 10.000365, 10.00205 
2.9293355e+3, 1.5833628e+2, -1278438.5, -1392278.3, 29717.623, 0.11442362, -0.6235366, -1271147.6, 117096.17, 0.0, 10.001399, 10.00016 
2.9289618e+3, 1.683303e+2, -1300399.6, -1404869.5, 69356.52, 0.14126505, -0.50825465, -1265808.3, 24500.465, 0.0, 10.000981, 9.999486 
2.9285866e+3, 1.7832318e+2, -1417003.8, -1427828.6, 100436.27, -0.0019976073, -0.5078514, -1321834.3, -129447.53, 0.0, 9.999425, 9.999515 
2.9282102e+3, 1.8831721e+2, -1096897.5, -893610.8, -15290.147, 0.018791659, -0.5363392, -892467.2, 201975.39, 0.0, 9.999744, 10.002216 
2.927834e+3, 1.9831163e+2, -1061301.9, -1035148.3, 32187.615, 0.1301554, -0.6261702, -1013482.5, -16990.105, 0.0, 9.99998, 10.000583 
2.9274586e+3, 2.0830627e+2, -895803.7, -960615.6, 106849.38, 0.11747128, -0.469472, -816554.25, 81996.83, 0.0, 10.00091, 9.999866 
2.9270825e+3, 2.1830057e+2, -732930.75, -871219.06, 134436.69, 0.0084607825, -0.3609808, -650899.06, 149716.64, 0.0, 10.001298, 9.99974 
2.9267085e+3, 2.2829495e+2, -503017.13, -446649.25, 129762.66, 0.063270986, -0.33078107, -342045.1, 360624.63, 0.0, 10.001239, 10.00194 
2.9263347e+3, 2.3828931e+2, -549716.2, -575319.5, 59099.79, 0.14885096, -0.39981285, -502047.44, 102673.76, 0.0, 10.00071, 10.00074 
2.9259583e+3, 2.4828239e+2, -491321.0, -523365.25, -2110.1716, 0.24458288, -0.43492934, -491182.63, 15607.331, 0.0, 10.000801, 10.000218 
2.9255804e+3, 2.582748e+2, -399122.03, -519795.84, 33845.69, 0.33389574, -0.5428792, -390277.47, 18590.072, 0.0, 10.000922, 9.99964 
2.9252e+3, 2.6827022e+2, -279351.72, -225317.06, 12801.566, 0.059171427, -0.34356916, -222437.63, 88480.35, 0.0, 10.00055, 10.001003 
2.9248187e+3, 2.782666e+2, -244669.27, -221040.86, -65184.21, -0.32016823, -0.17439112, -166608.88, 46350.703, 0.0, 10.000122, 10.000727 
2.9244542e+3, 2.8826118e+2, -191791.81, -812.06915, 79874.87, 0.6474554, -0.17688999, 28190.268, 143199.73, 0.0, 9.999405, 10.001836 
2.924076e+3, 2.9825377e+2, -324772.2, -16434.516, -3459.3687, 0.3363002, -0.4671196, -16395.709, 682.3349, 0.0, 9.997491, 10.002073 
2.9400784e+3, 1.3872072e+2, -1760135.4, -1629550.6, 195423.81, 0.42382944, -0.5156955, -1488800.4, 91687.8, 0.0, 9.999075, 10.000883 
2.9397035e+3, 1.4871651e+2, -1349343.1, -1175886.9, 69019.98, 0.14018533, -0.44806427, -1151775.0, 330748.3, 0.0, 10.000554, 10.002587 
2.939331e+3, 1.5870754e+2, -1379241.0, -1388020.1, 36471.246, 0.21519531, -0.96085054, -1346896.1, 37705.645, 0.0, 10.00063, 10.000524 
2.938957e+3, 1.6870433e+2, -1299505.9, -1247488.5, 15231.011, 0.24406834, -0.6654937, -1243357.0, 43282.54, 0.0, 10.000461, 10.000736 
2.9385802e+3, 1.7870165e+2, -1484313.5, -1393445.1, 42197.67, 0.1174524, -0.36438116, -1376872.0, -188197.28, 0.0, 9.998812, 9.999979 
2.9382032e+3, 1.886941e+2, -1142840.5, -909386.8, -12898.335, 0.03637589, -0.5806772, -908676.3, 182068.23, 0.0, 9.999509, 10.002177 
2.9378265e+3, 1.9868554e+2, -1213429.6, -1140508.3, 39956.855, 0.07638296, -0.97829443, -1122877.1, -130055.164, 0.0, 9.999231, 10.000186 
2.9374516e+3, 2.086819e+2, -955946.75, -936422.44, 117552.164, 0.053209152, -0.6842551, -828227.75, 66637.57, 0.0, 10.000417, 10.000189 
2.9370767e+3, 2.1867888e+2, -1008449.56, -1085600.8, 130417.164, 0.005928729, -0.33616135, -911022.5, -114116.85, 0.0, 9.9998865, 9.998929 
2.9367027e+3, 2.2867265e+2, -695715.3, -579390.25, 116026.76, 0.06383575, -0.32073864, -507764.16, 191203.66, 0.0, 10.000278, 10.001363 
2.9363284e+3, 2.3866571e+2, -858557.0, -771067.75, 55460.676, 0.13264148, -0.5048176, -744176.1, -143141.66, 0.0, 9.998995, 10.00014 
2.935951e+3, 2.4866061e+2, -529334.0, -359560.72, 102.12107, 0.12473607, -0.44373852, -359560.66, 143522.95, 0.0, 9.999972, 10.001641 
2.9355726e+3, 2.5865555e+2, -678267.0, -715032.7, 35005.016, 0.13515067, -0.43031475, -657111.5, -251977.94, 0.0, 9.999482, 9.998944 
2.935196e+3, 2.686486e+2, -585646.25, -716195.1, -12278.408, 0.26793456, -0.25305253, -584501.44, -277290.84, 0.0, 10.0000105, 9.99788 
2.934818e+3, 2.7864116e+2, -561735.6, -566878.4, -71197.88, 0.27577803, -0.19224837, -493062.7, -283770.22, 0.0, 9.998927, 9.998904 
2.9344383e+3, 2.886334e+2, -151818.84, 215309.16, 24460.809, -0.2091587, -0.4951207, 216931.73, 328295.6, 0.0, 9.9990225, 10.003427 
2.9340652e+3, 2.9863217e+2, -518547.75, -102380.3, -93744.72, 0.11769614, -0.28753275, -82238.45, -68869.305, 0.0, 9.996433, 10.001892 
2.950073e+3, 1.3909538e+2, -1398735.0, -1446756.0, 151692.45, 0.29254168, -0.6896694, -1269164.5, 307647.4, 0.0, 10.001376, 10.001094 
2.9496962e+3, 1.4909287e+2, -1353696.3, -1319520.1, 74206.695, -0.039154593, -0.37270394, -1260459.4, 218376.94, 0.0, 10.001082, 10.00139 
2.9493245e+3, 1.5908447e+2, -1419287.5, -1431730.0, 2868.217, 0.094546735, -0.69845587, -1418658.1, -37742.64, 0.0, 10.000331, 10.000429 
2.9489502e+3, 1.6908029e+2, -1275664.1, -1166791.6, -60354.313, 0.2112396, -0.55672055, -1139950.9, 143010.13, 0.0, 10.000152, 10.001529 
2.9485735e+3, 1.7907691e+2, -1288161.1, -1196768.5, -27399.387, 0.096336074, -0.38255826, -1189183.8, -4183.9297, 0.0, 9.999527, 10.001053 
2.9481965e+3, 1.8907116e+2, -993117.4, -816589.44, -47354.293, 0.03841928, -0.48319215, -804688.75, 282364.8, 0.0, 10.00031, 10.00249 
2.9478204e+3, 1.990648e+2, -908632.44, -897609.06, 19665.756, 0.038422603, -0.6795205, -882697.25, 106414.83, 0.0, 10.000745, 10.001175 
2.947446e+3, 2.0906088e+2, -721327.3, -709833.5, 107356.72, 0.048425224, -0.5178225, -608070.0, 283083.8, 0.0, 10.001372, 10.001369 
2.9470715e+3, 2.1905704e+2, -696497.06, -825792.06, 120238.77, 0.019471228, -0.33218226, -624628.4, 168568.56, 0.0, 10.001365, 10.000052 
2.946697e+3, 2.290498e+2, -745957.9, -699384.3, 73933.09, 0.148238, -0.4028716, -645157.4, 50113.44, 0.0, 10.00022, 10.000628 
2.9463223e+3, 2.3904221e+2, -817262.6, -719868.2, 17338.752, 0.271829, -0.5665674, -716873.56, -119526.55, 0.0, 9.998949, 10.000568 
2.9459447e+3, 2.4903844e+2, -352955.84, -255828.19, 4840.1733, 0.13882086, -0.4158695, -255587.6, 243796.02, 0.0, 10.000883, 10.002052 
2.9455665e+3, 2.5903466e+2, -62853.313, -376171.3, -51371.97, 0.036088422, -0.2844492, -54645.332, 346774.97, 0.0, 10.003297, 9.999528 
2.9451907e+3, 2.690262e+2, -225326.45, -601189.06, -22826.014, 0.3261671, -0.25376916, -223945.31, 79565.28, 0.0, 10.002602, 9.997478 
2.9448137e+3, 2.7901685e+2, -251032.81, -412448.44, 63782.266, 0.5101915, -0.31288943, -228872.13, -23262.088, 0.0, 10.000859, 9.999088 
2.9444277e+3, 2.890084e+2, -81160.945, 198009.34, 84035.85, -0.49391127, -0.6600639, 221353.75, 329040.22, 0.0, 9.999515, 10.003196 
2.944059e+3, 2.990111e+2, -162945.56, 36344.313, -191815.69, 0.4189236, 0.016757729, 152852.95, 162505.72, 0.0, 9.998664, 10.001883 
2.960068e+3, 1.3947038e+2, -1585104.8, -1579319.1, 159588.27, 0.35739768, -0.8434927, -1422597.5, 150534.2, 0.00000000001490612, 10.00041, 10.000628 
2.959689e+3, 1.4946869e+2, -1406720.9, -1485233.4, 76065.53, -0.2051634, -0.34517092, -1360379.1, 114775.914, 0.0, 10.001406, 10.0000725 
2.9593173e+3, 1.5946177e+2, -1610582.6, -1604837.6, 35495.426, 0.07013043, -0.39882687, -1572098.6, -194871.56, 0.0, 9.999447, 9.999644 
2.9589432e+3, 1.6945606e+2, -1330431.3, -1116797.5, -14199.085, 0.2057943, -0.43475217, -1115857.9, 163426.97, 0.0, 9.999548, 10.002111 
2.9585665e+3, 1.7945094e+2, -1406143.8, -1223725.5, 33090.586, 0.1509658, -0.49546206, -1217908.4, -36571.363, 0.0, 9.998718, 10.001226 
2.95819e+3, 1.8944824e+2, -1069648.9, -809621.6, 1220.4078, 0.069207616, -0.33345118, -809615.94, 273749.0, 0.0, 9.999754, 10.002725 
2.957815e+3, 1.9944532e+2, -1129337.1, -1000298.7, 40773.29, 0.114750825, -0.21020038, -988494.94, -3101.0347, 0.0, 9.999361, 10.0011015 
2.9574412e+3, 2.094406e+2, -811587.6, -577727.25, 108995.15, 0.11120582, -0.2373353, -534805.56, 352631.53, 0.0, 10.000199, 10.002738 
2.9570666e+3, 2.1943493e+2, -1008890.8, -985434.4, 85193.74, 0.09218861, -0.3657438, -911165.4, -121675.19, 0.0, 9.999481, 9.999786 
2.9566917e+3, 2.2942644e+2, -913791.3, -884501.8, 10347.1455, 0.2813732, -0.5001605, -881215.25, -189636.78, 0.0, 9.999626, 9.999584 
2.9563165e+3, 2.3941842e+2, -1086944.5, -980871.9, 33059.7, 0.4806079, -0.628922, -971411.9, -377748.9, 0.0, 9.997802, 9.999314 
2.9559392e+3, 2.4941558e+2, -445437.34, -302694.56, 105055.12, 0.20082098, -0.35708433, -247060.22, 248631.81, 0.0, 10.000387, 10.001895 
2.9555616e+3, 2.594127e+2, -317744.47, -502464.84, -2391.1272, -0.09190885, -0.14241605, -317713.53, 80007.03, 0.0, 10.001735, 9.999352 
2.955184e+3, 2.6940393e+2, -229517.23, -399724.75, -74876.336, 0.10226951, -0.27223513, -201267.06, 98541.55, 0.0, 10.001839, 9.999135 
2.954805e+3, 2.7939436e+2, -464109.06, -555804.2, 1576.2014, 0.19374892, -0.4967164, -464081.97, -262177.9, 0.0, 9.999726, 9.998606 
2.954425e+3, 2.8938845e+2, -301012.7, -138863.92, 29682.314, -0.06541466, -0.46621838, -133601.2, -29645.742, 0.0, 9.999146, 10.0009775 
2.9540512e+3, 2.993814e+2, -325276.72, -148650.81, -67209.98, 0.32811323, -0.59075177, -125984.67, -119966.3, 0.0, 9.998175, 10.000811 
2.9700646e+3, 1.3984974e+2, -1705918.1, -1890952.0, 394692.28, 0.47193575, -0.58007675, -1393044.6, 176366.78, 0.00000010737005, 10.000546, 9.998469 
2.9696813e+3, 1.4984311e+2, -1311259.5, -1378788.8, 24495.678, -0.48610616, -0.56518745, -1303309.8, 168174.83, 0.0, 10.001688, 10.000711 
2.969311e+3, 1.5983823e+2, -1532437.8, -1479894.4, 67399.76, 0.04524673, -0.45302516, -1433827.1, -60291.625, 0.0, 9.999463, 10.000536 
2.9689366e+3, 1.6983326e+2, -1259386.8, -1026375.75, 92086.63, 0.22457641, -0.48315865, -994377.06, 281205.72, 0.0, 9.999681, 10.002733 
2.9685602e+3, 1.7982802e+2, -1233881.1, -1166746.9, 111265.15, 0.12864955, -0.5598235, -1084095.8, 93537.19, 0.0, 9.999856, 10.00111 
2.9681835e+3, 1.8982354e+2, -1123872.0, -1016543.44, 12333.865, 0.09299621, -0.4489463, -1015144.3, 64536.363, 0.0, 9.999993, 10.001257 
2.9678082e+3, 1.9981909e+2, -1106925.0, -990857.2, -14241.291, 0.12845044, -0.3524835, -989135.3, -7407.4297, 0.0, 9.999303, 10.00125 
2.967435e+3, 2.0981428e+2, -957733.7, -616212.94, 14882.711, 0.23515755, -0.42048815, -615565.6, 268206.97, 0.0, 9.998934, 10.003143 
2.967061e+3, 2.1980949e+2, -1006171.9, -848160.3, -18570.287, 0.26755312, -0.5043031, -846007.2, -60190.484, 0.0, 9.99872, 10.001169 
2.9666847e+3, 2.2980392e+2, -646929.56, -660351.2, 8890.098, 0.2416335, -0.45304, -642501.75, 45374.414, 0.0, 10.000874, 10.000635 
2.966308e+3, 2.3979796e+2, -309213.8, -510660.6, 96585.64, 0.2141588, -0.4364519, -270387.97, 319552.56, 0.0, 10.002565, 10.000288 
2.9659325e+3, 2.4979308e+2, -369492.3, -318880.53, 150349.4, 0.12513399, -0.3523986, -191722.22, 300269.28, 0.0, 10.001015, 10.001525 
2.9655567e+3, 2.597885e+2, -579878.7, -511468.2, -3013.8196, 0.022520442, -0.26833853, -511335.7, -117297.586, 0.0, 9.999233, 10.000528 
2.965178e+3, 2.69782e+2, -274420.56, -245667.73, -42698.914, 0.055079706, -0.3212828, -214989.97, 81110.06, 0.0, 10.000581, 10.000911 
2.964798e+3, 2.7977476e+2, -57448.742, -284127.88, 38209.816, 0.056424353, -0.4196214, -51181.254, 146987.19, 0.0, 10.00201, 9.999438 
2.964422e+3, 2.8976953e+2, 96005.25, -98855.4, 75487.836, 0.2977858, -0.24319535, 121827.02, 222043.06, 0.0, 10.002457, 9.999705 
2.9640427e+3, 2.997557e+2, 31684.207, -30935.191, -41806.27, 0.16699679, -0.879787, 52605.355, 54953.645, 0.0, 10.000751, 10.000415 
2.9800597e+3, 1.4022756e+2, -1779443.9, -2035479.0, 430090.4, 0.4590258, -0.3509145, -1458723.0, 106986.766, 0.00000019973128, 10.000615, 9.997455 
2.9796752e+3, 1.5021764e+2, -1338303.9, -1271330.5, -130893.266, -0.5601556, -0.7251803, -1169708.3, 298104.4, 0.000000000008976791, 10.001111, 10.001714 
2.9793042e+3, 1.6021508e+2, -1428409.4, -1370732.9, -53382.49, 0.10488706, -0.49884805, -1338897.1, 30940.707, 0.0, 10.000035, 10.00103 
2.97893e+3, 1.7021088e+2, -1242086.9, -952540.44, 2328.8616, 0.2856764, -0.52013326, -952521.7, 319352.56, 0.0, 9.999656, 10.003224 
2.978554e+3, 1.8020563e+2, -1580547.1, -1496746.1, 42731.715, 0.22346503, -0.6097108, -1478799.6, -304878.03, 0.0, 9.998319, 9.99959 
2.9781777e+3, 1.9019818e+2, -1286118.5, -1292600.3, -3123.4346, 0.16961211, -0.6218045, -1284858.4, -208858.89, 0.0, 9.999867, 9.999399 
2.977802e+3, 2.0019111e+2, -1180903.0, -1147513.5, 10601.36, 0.21682136, -0.6435783, -1144431.9, -166357.7, 0.0, 9.999467, 10.00008 
2.977429e+3, 2.101858e+2, -945517.44, -642804.44, 21408.143, 0.40409932, -0.73527175, -641297.94, 238828.6, 0.0, 9.999175, 10.002845 
2.9770556e+3, 2.2018242e+2, -1199786.6, -889590.56, 31029.088, 0.56397086, -0.6895531, -886517.2, -104357.71, 0.0, 9.997298, 10.001564 
2.9766774e+3, 2.301823e+2, -663457.8, -410310.44, 91034.53, 0.12289445, -0.28716165, -380973.3, 303190.4, 0.0, 9.999847, 10.002772 
2.9762983e+3, 2.4018012e+2, -620005.06, -658691.56, 86894.06, -0.3050703, -0.05535133, -550327.3, 35861.938, 0.0, 10.000612, 10.000183 
2.9759252e+3, 2.50171e+2, -584951.2, -482703.06, 51229.12, -0.011090256, -0.35212523, -461452.47, 26830.453, 0.0, 10.000002, 10.000827 
2.9755518e+3, 2.6016235e+2, -871582.94, -679956.9, -6349.481, 0.28623456, -0.6017444, -679746.7, -289376.06, 0.0, 9.997521, 10.000181 
2.975172e+3, 2.7016032e+2, -233455.45, 15394.429, 16714.49, 0.114356786, -0.37144768, 16512.07, 308898.28, 0.0, 10.000003, 10.002923 
2.974792e+3, 2.8015774e+2, -253924.2, -390866.3, 79003.0, -0.09212821, -0.1683081, -217849.77, -23442.89, 0.0, 10.000915, 9.99921 
2.9744196e+3, 2.901499e+2, -70529.766, -278507.03, 66761.15, 0.4629778, -0.17571236, -50943.78, 45542.188, 0.0, 10.001921, 9.998699 
2.9740387e+3, 3.001409e+2, -189779.81, -228554.75, -158268.81, 0.26390928, -0.24456121, -49715.438, -49715.438, 0.0, 9.999916, 9.999399 
2.9900503e+3, 1.4059527e+2, -1598994.6, -1484073.4, -24133.4, -0.048530415, -0.6949065, -1479211.0, 82909.97, 0.000000019519112, 9.99981, 10.001724 
2.9896763e+3, 1.505895e+2, -1381258.0, -1187216.8, -191263.69, 0.08878061, -0.8143139, -1069773.4, 394396.94, 0.0, 10.000364, 10.002753 
2.989294e+3, 1.6058958e+2, -1235157.3, -1265261.1, -188394.38, -0.46521556, -0.38763034, -1061214.5, 304951.8, 0.0, 10.0012455, 10.001211 
2.988921e+3, 1.7058219e+2, -1368412.4, -1104585.0, -260849.94, 0.09877013, -0.6654593, -944190.75, 324047.78, 0.0, 9.999163, 10.002445 
2.988548e+3, 1.8057543e+2, -1542946.8, -1220869.9, -125388.01, 0.4037269, -0.91307575, -1177811.4, -7507.2827, 0.0, 9.9973955, 10.001949 
2.9881713e+3, 1.9057217e+2, -854721.0, -717449.56, 97377.21, 0.123341985, -0.8198675, -666950.1, 405383.8, 0.0, 10.001174, 10.002808 
2.9877955e+3, 2.0056918e+2, -567035.0, -712637.8, 131851.92, -0.040853914, -0.6586675, -489221.1, 485141.1, 0.0, 10.002981, 10.001422 
2.9874206e+3, 2.1056594e+2, -680205.3, -601381.2, 69569.41, 0.1394498, -0.4793176, -560835.7, 315559.0, 0.0, 10.00132, 10.002159 
2.987045e+3, 2.2056092e+2, -853736.0, -713533.06, 101771.91, 0.22870979, -0.49788922, -660055.7, 118390.03, 0.0, 9.999449, 10.001789 
2.9866704e+3, 2.3055393e+2, -649773.8, -421440.22, 125520.75, 0.09932203, -0.76021844, -365932.28, 314588.88, 0.0, 9.9998665, 10.00278 
2.9862958e+3, 2.4054918e+2, -479547.3, -487584.13, -7773.5454, -0.023265345, -0.790303, -474814.97, 107758.73, 0.0, 10.000932, 10.001296 
2.9859203e+3, 2.505461e+2, -305545.2, -302876.6, -39971.242, 0.09698682, -0.54302007, -264217.38, 220388.45, 0.0, 10.001628, 10.001367 
2.9855448e+3, 2.6054177e+2, -214722.94, -270980.56, 3402.579, 0.2540325, -0.40167615, -214517.89, 172131.13, 0.0, 10.001438, 10.001195 
2.9851666e+3, 2.7053759e+2, 79162.61, 154355.6, -22026.732, 0.16295484, -0.36680925, 160332.88, 449018.6, 0.0, 10.002119, 10.002989 
2.984788e+3, 2.805329e+2, 36655.996, -180310.03, -153207.17, 0.009869993, -0.37090293, 115898.84, 306626.94, 0.0, 10.0024, 10.00011 
2.9844135e+3, 2.9051796e+2, -379680.72, -378211.13, -119872.11, 0.53194904, -1.1553519, -259071.56, -166193.61, 0.0, 9.999468, 9.999447 
2.984031e+3, 3.005163e+2, -30047.537, -1007.817, 41113.004, 0.21002488, -0.51270545, 28073.992, 28073.992, 0.0, 10.000076, 10.00119 
3.000042e+3, 1.4097583e+2, -1012132.75, -677330.56, -8687.598, -0.29344413, -0.11153642, -677105.3, 881296.1, 0.000000013810121, 10.001414, 10.006523 
2.9996789e+3, 1.5096802e+2, -1660724.6, -1281428.1, 422985.94, 1.1113418, -0.553874, -1007521.06, 452936.25, 0.0, 9.998322, 10.002967 
2.9992905e+3, 1.6096187e+2, -1902465.4, -1759782.9, 242342.7, -0.1874022, -0.70727205, -1578498.8, -215987.78, 0.0, 9.997325, 9.99964 
2.9989105e+3, 1.7095856e+2, -1271443.8, -1244367.0, 94185.805, -0.16428863, -0.42322963, -1162751.5, 101800.78, 0.0, 10.000629, 10.000603 
2.998537e+3, 1.8095255e+2, -850594.8, -900085.4, 205328.69, 0.12032972, -0.48263967, -668525.7, 498091.7, 0.0, 10.002106, 10.001856 
2.9981676e+3, 1.9095212e+2, -915820.75, -435650.03, -46541.71, 0.3163666, -0.38759854, -431180.47, 637433.2, 0.0, 9.999383, 10.005476 
2.9977942e+3, 2.0094788e+2, -1249612.6, -1128643.3, -377488.0, 0.21130414, -0.5590978, -806824.94, 163821.95, 0.0, 9.998636, 10.000602 
2.9974172e+3, 2.1094008e+2, -774681.94, -691997.56, -227163.2, 0.38798892, -0.86351144, -502445.2, 370278.1, 0.0, 10.000961, 10.001517 
2.9970366e+3, 2.2093606e+2, -848809.2, -1012946.94, -65208.94, 0.055958997, -0.67258245, -826056.75, -51290.88, 0.0, 10.000805, 9.99901 
2.9966605e+3, 2.309328e+2, -984111.25, -762301.56, -72558.67, -0.18036838, -0.43241933, -740674.7, -63863.816, 0.0, 9.998467, 10.000903 
2.9962957e+3, 2.4093053e+2, -963841.7, -836244.2, -161550.44, 0.53161603, -0.12510268, -726351.2, -147507.78, 0.0, 9.998176, 10.00012 
2.995916e+3, 2.5092253e+2, -54212.72, -54824.69, -166769.08, 0.19810772, -0.52396536, 112250.65, 593169.1, 0.0, 10.002884, 10.00226 
2.9955345e+3, 2.6091912e+2, -969147.8, -750899.6, 477.34607, -0.24600805, -0.42224738, -750898.6, -367950.44, 0.0, 9.996901, 9.999938 
2.995162e+3, 2.7091193e+2, 205219.16, -5752.8633, 183672.3, 0.17327346, -0.5540587, 311541.6, 596559.9, 0.0, 10.004185, 10.000615 
2.994787e+3, 2.809074e+2, -600112.7, -592473.4, -224462.14, 0.32029364, -0.36340788, -371798.4, -184735.95, 0.0, 9.998577, 9.999009 
2.9944053e+3, 2.9089978e+2, -488875.66, -212671.88, -82017.68, 0.5290424, -0.5994155, -190153.0, -101017.12, 0.0, 9.99809, 10.000985 
2.994023e+3, 3.0089524e+2, 429490.2, 723921.2, 379812.75, 0.0118104005, -0.5096352, 984050.94, 984050.94, 0.0, 10.001384, 10.005325 
