coord_x,coord_y,stress_xx,stress_yy,tau_xy,velocity_x,velocity_y,stress_1,eps,damage,lx,ly
5.0e+0, 1.2500638e+2, -1722682.3, -1730935.3, 0.0009478112, 0.000000005587169, 0.111541644, -1722682.3, -7734.7993, 0.0, 10.0, 9.99989 
5.0e+0, 1.3500609e+2, -1624731.9, -1633039.4, 0.00068681967, 0.000000004935519, 0.09412256, -1624731.9, -7782.7363, 0.0, 10.0, 9.999889 
5.0e+0, 1.4500567e+2, -1539573.0, -1561680.5, 0.0006385437, 0.0000000046525837, 0.07258546, -1539573.0, -20621.262, 0.0, 10.0, 9.999707 
5.0e+0, 1.5500513e+2, -1441605.4, -1463750.8, 0.00048420517, 0.000000004737837, 0.04667545, -1441605.4, -20650.191, 0.0, 10.0, 9.999706 
5.0e+0, 1.6500458e+2, -1363620.5, -1407283.3, 0.00045848617, 0.0000000048153646, 0.035796903, -1363620.5, -40661.152, 0.0, 10.0, 9.999421 
5.0e+0, 1.7500405e+2, -1265639.8, -1309329.4, 0.00037043926, 0.0000000048851763, 0.039725292, -1265639.8, -40675.37, 0.0, 10.0, 9.999421 
5.0e+0, 1.8500337e+2, -1191559.5, -1260973.5, 0.00028243798, 0.0000000049580824, 0.04802029, -1191559.5, -64588.117, 0.0, 10.0, 9.99908 
5.0e+0, 1.9500259e+2, -1093577.6, -1163020.9, 0.0002122655, 0.0000000050340794, 0.060496993, -1093577.6, -64597.348, 0.0, 10.0, 9.99908 
5.0e+0, 2.0500167e+2, -997030.2, -1068045.3, 0.00011344807, 0.000000005085279, 0.062200733, -997030.2, -66040.734, 0.0, 10.0, 9.999059 
5.0e+0, 2.1500063e+2, -899041.94, -970079.56, 0.000050679, 0.00000000511169, 0.052977044, -899041.94, -66043.08, 0.0, 10.0, 9.999059 
5.0e+0, 2.2499959e+2, -796428.9, -862513.8, -0.000053552805, 0.000000005110747, 0.039750565, -796428.9, -61421.23, 0.0, 10.0, 9.999125 
5.0e+0, 2.3499854e+2, -698420.5, -764505.6, -0.000116224124, 0.0000000050824442, 0.022341175, -698420.5, -61404.613, 0.0, 10.0, 9.999125 
5.0e+0, 2.4499744e+2, -600662.06, -667016.3, -0.00021467022, 0.000000005029467, -0.0004547241, -600662.06, -61637.426, 0.0, 10.0, 9.999121 
5.0e+0, 2.5499627e+2, -502636.03, -568971.6, -0.00028452647, 0.0000000049518007, -0.028816838, -502636.03, -61602.195, 0.0, 10.0, 9.999121 
5.0e+0, 2.6499522e+2, -391585.8, -443883.44, -0.0003718928, 0.0000000048773003, -0.056387145, -391585.8, -48543.848, 0.0, 10.0, 9.999307 
5.0e+0, 2.7499425e+2, -293545.38, -345806.8, -0.00045943388, 0.0000000048059703, -0.08334905, -293545.38, -48496.42, 0.0, 10.0, 9.999308 
5.0e+0, 2.8499338e+2, -188585.33, -233360.16, -0.00048448503, 0.000000004727302, -0.10632884, -188585.33, -41530.176, 0.0, 10.0, 9.999407 
5.0e+0, 2.949926e+2, -90537.53, -135267.17, -0.0006380487, 0.0000000046412842, -0.12550458, -90537.53, -41477.035, 0.0, 10.0, 9.999407 
5.0e+0, 3.0499196e+2, -22266.9, -46246.684, -0.0006853738, 0.000000004922475, -0.14099593, -22266.9, -22266.9, 0.0, 10.0, 9.999682 
5.0e+0, 3.1499153e+2, -22233.574, -46177.473, -0.0009452125, 0.000000005571612, -0.15298402, -22233.574, -22233.574, 0.0, 10.0, 9.999682 
1.5e+1, 1.2500638e+2, -1722682.3, -1730935.3, 0.0005606524, 0.000000016761508, 0.11154165, -1722682.3, -7734.8, 0.0, 10.0, 9.99989 
1.5e+1, 1.3500609e+2, -1624731.9, -1633039.4, 0.00029977708, 0.000000014806558, 0.09412256, -1624731.9, -7782.737, 0.0, 10.0, 9.999889 
1.5e+1, 1.4500567e+2, -1539573.0, -1561680.5, 0.0005702335, 0.0000000139577505, 0.07258546, -1539573.0, -20621.262, 0.0, 10.0, 9.999707 
1.5e+1, 1.5500513e+2, -1441605.4, -1463750.8, 0.0004159611, 0.000000014213511, 0.04667545, -1441605.4, -20650.191, 0.0, 10.0, 9.999706 
1.5e+1, 1.6500458e+2, -1363620.5, -1407283.3, 0.0005811007, 0.000000014446093, 0.035796903, -1363620.5, -40661.152, 0.0, 10.0, 9.999421 
1.5e+1, 1.7500405e+2, -1265639.8, -1309329.4, 0.0004930511, 0.000000014655528, 0.039725292, -1265639.8, -40675.37, 0.0, 10.0, 9.999421 
1.5e+1, 1.8500337e+2, -1191559.5, -1260973.5, 0.00038721843, 0.000000014874248, 0.04802029, -1191559.5, -64588.117, 0.0, 10.0, 9.99908 
1.5e+1, 1.9500259e+2, -1093577.6, -1163020.9, 0.00031703938, 0.000000015102238, 0.060496993, -1093577.6, -64597.348, 0.0, 10.0, 9.99908 
1.5e+1, 2.0500167e+2, -997030.2, -1068045.3, 0.00015352531, 0.000000015255837, 0.062200733, -997030.2, -66040.734, 0.0, 10.0, 9.999059 
1.5e+1, 2.1500063e+2, -899041.94, -970079.56, 0.000090755384, 0.00000001533507, 0.052977044, -899041.94, -66043.08, 0.0, 10.0, 9.999059 
1.5e+1, 2.2499959e+2, -796428.9, -862513.8, -0.000096502765, 0.00000001533224, 0.039750565, -796428.9, -61421.234, 0.0, 10.0, 9.999125 
1.5e+1, 2.3499854e+2, -698420.5, -764505.6, -0.00015917946, 0.000000015247332, 0.022341175, -698420.5, -61404.613, 0.0, 10.0, 9.999125 
1.5e+1, 2.4499744e+2, -600662.06, -667016.3, -0.00032200472, 0.000000015088402, -0.0004547243, -600662.06, -61637.426, 0.0, 10.0, 9.999121 
1.5e+1, 2.5499627e+2, -502636.03, -568971.6, -0.00039187225, 0.000000014855402, -0.028816838, -502636.03, -61602.195, 0.0, 10.0, 9.999121 
1.5e+1, 2.6499522e+2, -391585.8, -443883.44, -0.0004965908, 0.000000014631901, -0.056387145, -391585.8, -48543.848, 0.0, 10.0, 9.999307 
1.5e+1, 2.7499425e+2, -293545.38, -345806.8, -0.0005841362, 0.00000001441791, -0.08334905, -293545.38, -48496.42, 0.0, 10.0, 9.999308 
1.5e+1, 2.8499338e+2, -188585.33, -233360.16, -0.00041815866, 0.000000014181906, -0.10632884, -188585.33, -41530.176, 0.0, 10.0, 9.999407 
1.5e+1, 2.949926e+2, -90537.53, -135267.17, -0.00057165045, 0.000000013923853, -0.12550458, -90537.53, -41477.035, 0.0, 10.0, 9.999407 
1.5e+1, 3.0499196e+2, -22266.9, -46246.684, -0.0003003395, 0.000000014767425, -0.14099593, -22266.9, -22266.9, 0.0, 10.0, 9.999682 
1.5e+1, 3.1499153e+2, -22233.574, -46177.473, -0.0005600182, 0.000000016714836, -0.15298402, -22233.574, -22233.574, 0.0, 10.0, 9.999682 
2.5e+1, 1.2500638e+2, -1722682.3, -1730935.3, 0.0028764326, 0.000000030404195, 0.11154165, -1722682.3, -7734.7866, 0.0, 10.0, 9.99989 
2.5e+1, 1.3500609e+2, -1624731.9, -1633039.4, 0.0019787583, 0.000000026851726, 0.09412256, -1624731.9, -7782.724, 0.0, 10.0, 9.999889 
2.5e+1, 1.4500567e+2, -1539573.0, -1561680.5, 0.0021348172, 0.000000025304592, 0.07258547, -1539573.0, -20621.25, 0.0, 10.0, 9.999707 
2.5e+1, 1.5500513e+2, -1441605.4, -1463750.8, 0.0016024059, 0.000000025759945, 0.04667545, -1441605.4, -20650.178, 0.0, 10.0, 9.999706 
2.5e+1, 1.6500458e+2, -1363620.5, -1407283.3, 0.0017066961, 0.000000026172653, 0.035796907, -1363620.5, -40661.14, 0.0, 10.0, 9.999421 
2.5e+1, 1.7500405e+2, -1265639.8, -1309329.4, 0.0014014075, 0.000000026542777, 0.039725292, -1265639.8, -40675.36, 0.0, 10.0, 9.999421 
2.5e+1, 1.8500337e+2, -1191559.5, -1260973.5, 0.0010807486, 0.0000000269322, 0.04802029, -1191559.5, -64588.105, 0.0, 10.0, 9.99908 
2.5e+1, 1.9500259e+2, -1093577.6, -1163020.9, 0.00083755166, 0.000000027340901, 0.060496993, -1093577.6, -64597.336, 0.0, 10.0, 9.99908 
2.5e+1, 2.0500167e+2, -997030.2, -1068045.3, 0.00043234602, 0.000000027616215, 0.062200733, -997030.2, -66040.72, 0.0, 10.0, 9.999059 
2.5e+1, 2.1500063e+2, -899041.94, -970079.56, 0.00021490897, 0.00000002775819, 0.052977044, -899041.94, -66043.06, 0.0, 10.0, 9.999059 
2.5e+1, 2.2499959e+2, -796428.9, -862513.8, -0.00022758463, 0.000000027753147, 0.039750565, -796428.9, -61421.22, 0.0, 10.0, 9.999125 
2.5e+1, 2.3499854e+2, -698420.5, -764505.6, -0.0004446896, 0.000000027601068, 0.022341173, -698420.5, -61404.6, 0.0, 10.0, 9.999125 
2.5e+1, 2.4499744e+2, -600662.0, -667016.3, -0.0008483015, 0.00000002731625, -0.00045472477, -600662.0, -61637.414, 0.0, 10.0, 9.999121 
2.5e+1, 2.5499627e+2, -502636.03, -568971.6, -0.0010904084, 0.000000026898618, -0.02881684, -502636.03, -61602.184, 0.0, 10.0, 9.999121 
2.5e+1, 2.6499522e+2, -391585.8, -443883.44, -0.0014084277, 0.00000002650071, -0.05638715, -391585.8, -48543.836, 0.0, 10.0, 9.999307 
2.5e+1, 2.7499425e+2, -293545.38, -345806.8, -0.0017119668, 0.000000026122555, -0.08334905, -293545.38, -48496.41, 0.0, 10.0, 9.999308 
2.5e+1, 2.8499338e+2, -188585.31, -233360.16, -0.0016052934, 0.000000025703564, -0.10632884, -188585.31, -41530.164, 0.0, 10.0, 9.999407 
2.5e+1, 2.949926e+2, -90537.516, -135267.17, -0.0021350414, 0.000000025243676, -0.12550458, -90537.516, -41477.023, 0.0, 10.0, 9.999407 
2.5e+1, 3.0499196e+2, -22266.887, -46246.68, -0.001975794, 0.000000026781228, -0.14099593, -22266.887, -22266.887, 0.0, 10.0, 9.999682 
2.5e+1, 3.1499153e+2, -22233.563, -46177.47, -0.0028695073, 0.00000003032023, -0.15298402, -22233.563, -22233.563, 0.0, 10.0, 9.999682 
3.5e+1, 1.2500638e+2, -1722682.3, -1730935.3, 0.0022961188, 0.000000046515233, 0.11154166, -1722682.3, -7734.788, 0.0, 10.0, 9.99989 
3.5e+1, 1.3500609e+2, -1624731.9, -1633039.4, 0.0013986125, 0.000000041071026, 0.09412257, -1624731.9, -7782.726, 0.0, 10.0, 9.999889 
3.5e+1, 1.4500567e+2, -1539573.0, -1561680.5, 0.002021974, 0.00000003869311, 0.07258547, -1539573.0, -20621.25, 0.0, 10.0, 9.999707 
3.5e+1, 1.5500513e+2, -1441605.4, -1463750.8, 0.0014896598, 0.00000003937714, 0.046675455, -1441605.4, -20650.18, 0.0, 10.0, 9.999706 
3.5e+1, 1.6500458e+2, -1363620.5, -1407283.3, 0.0018765556, 0.000000039995047, 0.035796907, -1363620.5, -40661.14, 0.0, 10.0, 9.999421 
3.5e+1, 1.7500405e+2, -1265639.8, -1309329.4, 0.0015712645, 0.00000004054692, 0.039725296, -1265639.8, -40675.36, 0.0, 10.0, 9.999421 
3.5e+1, 1.8500337e+2, -1191559.5, -1260973.5, 0.0012289237, 0.00000004113194, 0.04802029, -1191559.5, -64588.105, 0.0, 10.0, 9.99908 
3.5e+1, 1.9500259e+2, -1093577.6, -1163020.9, 0.0009857176, 0.00000004175007, 0.060496993, -1093577.6, -64597.336, 0.0, 10.0, 9.99908 
3.5e+1, 2.0500167e+2, -997030.2, -1068045.3, 0.00048950216, 0.000000042166413, 0.062200733, -997030.2, -66040.72, 0.0, 10.0, 9.999059 
3.5e+1, 2.1500063e+2, -899041.94, -970079.56, 0.00027206377, 0.000000042381046, 0.052977044, -899041.94, -66043.06, 0.0, 10.0, 9.999059 
3.5e+1, 2.2499959e+2, -796428.9, -862513.8, -0.00028878663, 0.000000042373472, 0.039750565, -796428.9, -61421.22, 0.0, 10.0, 9.999125 
3.5e+1, 2.3499854e+2, -698420.5, -764505.6, -0.00050589925, 0.00000004214365, 0.022341173, -698420.5, -61404.6, 0.0, 10.0, 9.999125 
3.5e+1, 2.4499744e+2, -600662.0, -667016.3, -0.0010000726, 0.000000041713015, -0.0004547255, -600662.0, -61637.414, 0.0, 10.0, 9.999121 
3.5e+1, 2.5499627e+2, -502636.03, -568971.6, -0.0012421951, 0.00000004108145, -0.02881684, -502636.03, -61602.184, 0.0, 10.0, 9.999121 
3.5e+1, 2.6499522e+2, -391585.8, -443883.44, -0.0015812707, 0.000000040483727, -0.05638715, -391585.8, -48543.836, 0.0, 10.0, 9.999307 
3.5e+1, 2.7499425e+2, -293545.38, -345806.8, -0.0018848148, 0.000000039919904, -0.08334906, -293545.38, -48496.41, 0.0, 10.0, 9.999308 
3.5e+1, 2.8499338e+2, -188585.31, -233360.16, -0.0014954597, 0.000000039292278, -0.10632884, -188585.31, -41530.164, 0.0, 10.0, 9.999407 
3.5e+1, 2.949926e+2, -90537.52, -135267.17, -0.0020251025, 0.00000003860075, -0.12550458, -90537.52, -41477.023, 0.0, 10.0, 9.999407 
3.5e+1, 3.0499196e+2, -22266.889, -46246.684, -0.001398609, 0.000000040963883, -0.14099595, -22266.889, -22266.889, 0.0, 10.0, 9.999682 
3.5e+1, 3.1499153e+2, -22233.563, -46177.473, -0.002292089, 0.000000046387797, -0.15298404, -22233.563, -22233.563, 0.0, 10.0, 9.999682 
4.5e+1, 1.2500638e+2, -1722682.3, -1730935.3, 0.0060272496, 0.00000006847566, 0.111541666, -1722682.3, -7734.756, 0.0, 10.0, 9.99989 
4.5e+1, 1.3500609e+2, -1624731.9, -1633039.4, 0.0041065323, 0.00000006043989, 0.094122574, -1624731.9, -7782.6953, 0.0, 10.0, 9.999889 
4.5e+1, 1.4500567e+2, -1539573.0, -1561680.5, 0.004557282, 0.000000056914494, 0.07258547, -1539573.0, -20621.22, 0.0, 10.0, 9.999707 
4.5e+1, 1.5500513e+2, -1441605.3, -1463750.8, 0.0034122786, 0.000000057893136, 0.04667546, -1441605.3, -20650.15, 0.0, 10.0, 9.999706 
4.5e+1, 1.6500458e+2, -1363620.5, -1407283.3, 0.0037074857, 0.000000058771466, 0.03579691, -1363620.5, -40661.11, 0.0, 10.0, 9.999421 
4.5e+1, 1.7500405e+2, -1265639.8, -1309329.4, 0.0030452816, 0.000000059549624, 0.039725296, -1265639.8, -40675.33, 0.0, 10.0, 9.999421 
4.5e+1, 1.8500337e+2, -1191559.5, -1260973.5, 0.00235752, 0.00000006038524, 0.048020292, -1191559.5, -64588.074, 0.0, 10.0, 9.99908 
4.5e+1, 1.9500259e+2, -1093577.6, -1163020.9, 0.0018304255, 0.00000006127825, 0.060496993, -1093577.6, -64597.305, 0.0, 10.0, 9.99908 
4.5e+1, 2.0500167e+2, -997030.1, -1068045.3, 0.00094410084, 0.00000006187958, 0.062200733, -997030.1, -66040.69, 0.0, 10.0, 9.999059 
4.5e+1, 2.1500063e+2, -899041.9, -970079.56, 0.00047316746, 0.00000006218935, 0.052977048, -899041.9, -66043.03, 0.0, 10.0, 9.999059 
4.5e+1, 2.2499959e+2, -796428.9, -862513.8, -0.00050068257, 0.0000000621784, 0.039750565, -796428.9, -61421.188, 0.0, 10.0, 9.999125 
4.5e+1, 2.3499854e+2, -698420.44, -764505.56, -0.00097091275, 0.000000061846684, 0.022341173, -698420.44, -61404.57, 0.0, 10.0, 9.999125 
4.5e+1, 2.4499744e+2, -600662.0, -667016.3, -0.0018537714, 0.00000006122469, -0.0004547266, -600662.0, -61637.383, 0.0, 10.0, 9.999121 
4.5e+1, 2.5499627e+2, -502636.0, -568971.56, -0.0023785522, 0.00000006031225, -0.028816842, -502636.0, -61602.152, 0.0, 10.0, 9.999121 
4.5e+1, 2.6499522e+2, -391585.78, -443883.4, -0.0030606708, 0.000000059458245, -0.056387153, -391585.78, -48543.805, 0.0, 10.0, 9.999307 
4.5e+1, 2.7499425e+2, -293545.34, -345806.78, -0.0037191436, 0.00000005866275, -0.08334906, -293545.34, -48496.38, 0.0, 10.0, 9.999308 
4.5e+1, 2.8499338e+2, -188585.28, -233360.14, -0.00341912, 0.000000057770198, -0.106328845, -188585.28, -41530.137, 0.0, 10.0, 9.999407 
4.5e+1, 2.949926e+2, -90537.49, -135267.16, -0.0045585134, 0.000000056780436, -0.12550458, -90537.49, -41476.992, 0.0, 10.0, 9.999407 
4.5e+1, 3.0499196e+2, -22266.86, -46246.67, -0.004100982, 0.00000006028417, -0.14099595, -22266.86, -22266.86, 0.0, 10.0, 9.999682 
4.5e+1, 3.1499153e+2, -22233.531, -46177.46, -0.00601337, 0.00000006829039, -0.15298404, -22233.531, -22233.531, 0.0, 10.0, 9.999682 
5.5e+1, 1.2500638e+2, -1722682.3, -1730935.3, 0.004977747, 0.00000009628546, 0.11154168, -1722682.3, -7734.7593, 0.0, 10.0, 9.99989 
5.5e+1, 1.3500609e+2, -1624731.9, -1633039.4, 0.0030573215, 0.0000000849583, 0.09412258, -1624731.9, -7782.699, 0.0, 10.0, 9.999889 
5.5e+1, 1.4500567e+2, -1539573.0, -1561680.5, 0.004331286, 0.00000007996875, 0.07258548, -1539573.0, -20621.223, 0.0, 10.0, 9.999707 
5.5e+1, 1.5500513e+2, -1441605.3, -1463750.8, 0.0031864538, 0.00000008130793, 0.046675462, -1441605.3, -20650.152, 0.0, 10.0, 9.999706 
5.5e+1, 1.6500458e+2, -1363620.5, -1407283.3, 0.003984943, 0.00000008250191, 0.035796914, -1363620.5, -40661.113, 0.0, 10.0, 9.999421 
5.5e+1, 1.7500405e+2, -1265639.8, -1309329.4, 0.0033227373, 0.000000083550894, 0.0397253, -1265639.8, -40675.332, 0.0, 10.0, 9.999421 
5.5e+1, 1.8500337e+2, -1191559.5, -1260973.5, 0.0026064294, 0.000000084692104, 0.048020292, -1191559.5, -64588.074, 0.0, 10.0, 9.99908 
5.5e+1, 1.9500259e+2, -1093577.6, -1163020.9, 0.0020793197, 0.00000008592544, 0.060496997, -1093577.6, -64597.305, 0.0, 10.0, 9.99908 
5.5e+1, 2.0500167e+2, -997030.1, -1068045.3, 0.001041157, 0.000000086755726, 0.062200736, -997030.1, -66040.69, 0.0, 10.0, 9.999059 
5.5e+1, 2.1500063e+2, -899041.9, -970079.56, 0.0005702212, 0.000000087183096, 0.052977048, -899041.9, -66043.03, 0.0, 10.0, 9.999059 
5.5e+1, 2.2499959e+2, -796428.9, -862513.8, -0.00060467096, 0.00000008716793, 0.039750565, -796428.9, -61421.188, 0.0, 10.0, 9.999125 
5.5e+1, 2.3499854e+2, -698420.44, -764505.6, -0.0010749142, 0.00000008671017, 0.022341171, -698420.44, -61404.57, 0.0, 10.0, 9.999125 
5.5e+1, 2.4499744e+2, -600662.0, -667016.3, -0.0021088612, 0.000000085851276, -0.0004547281, -600662.0, -61637.383, 0.0, 10.0, 9.999121 
5.5e+1, 2.5499627e+2, -502636.0, -568971.56, -0.0026336676, 0.00000008459103, -0.028816843, -502636.0, -61602.152, 0.0, 10.0, 9.999121 
5.5e+1, 2.6499522e+2, -391585.78, -443883.4, -0.0033432895, 0.00000008342426, -0.056387153, -391585.78, -48543.805, 0.0, 10.0, 9.999307 
5.5e+1, 2.7499425e+2, -293545.34, -345806.78, -0.0040017683, 0.00000008235109, -0.083349064, -293545.34, -48496.38, 0.0, 10.0, 9.999308 
5.5e+1, 2.8499338e+2, -188585.28, -233360.14, -0.0031982851, 0.00000008113732, -0.106328845, -188585.28, -41530.137, 0.0, 10.0, 9.999407 
5.5e+1, 2.949926e+2, -90537.49, -135267.16, -0.004337493, 0.00000007978273, -0.1255046, -90537.49, -41476.996, 0.0, 10.0, 9.999407 
5.5e+1, 3.0499196e+2, -22266.863, -46246.68, -0.0030569213, 0.0000000847421, -0.14099596, -22266.863, -22266.863, 0.0, 10.0, 9.999682 
5.5e+1, 3.1499153e+2, -22233.535, -46177.47, -0.004968901, 0.00000009602802, -0.15298405, -22233.535, -22233.535, 0.0, 10.0, 9.999682 
6.5e+1, 1.2500638e+2, -1722682.1, -1730935.1, 0.011627995, 0.00000013541258, 0.1115417, -1722682.1, -7734.6953, 0.0, 10.0, 9.99989 
6.5e+1, 1.3500609e+2, -1624731.8, -1633039.4, 0.0078888405, 0.00000011943432, 0.09412259, -1624731.8, -7782.6387, 0.0, 10.0, 9.999889 
6.5e+1, 1.4500567e+2, -1539572.9, -1561680.5, 0.008876698, 0.00000011235908, 0.072585486, -1539572.9, -20621.162, 0.0, 10.0, 9.999707 
6.5e+1, 1.5500513e+2, -1441605.3, -1463750.8, 0.0066332407, 0.00000011417449, 0.04667547, -1441605.3, -20650.092, 0.0, 10.0, 9.999706 
6.5e+1, 1.6500458e+2, -1363620.5, -1407283.3, 0.007279958, 0.00000011577806, 0.035796918, -1363620.5, -40661.05, 0.0, 10.0, 9.999421 
6.5e+1, 1.7500405e+2, -1265639.8, -1309329.3, 0.0059687467, 0.000000117170075, 0.039725304, -1265639.8, -40675.27, 0.0, 10.0, 9.999421 
6.5e+1, 1.8500337e+2, -1191559.4, -1260973.5, 0.0046384665, 0.00000011871274, 0.048020296, -1191559.4, -64588.01, 0.0, 10.0, 9.99908 
6.5e+1, 1.9500259e+2, -1093577.5, -1163020.8, 0.0035957168, 0.00000012040589, 0.060496997, -1093577.5, -64597.242, 0.0, 10.0, 9.99908 
6.5e+1, 2.0500167e+2, -997030.06, -1068045.3, 0.0018613301, 0.00000012154527, 0.062200736, -997030.06, -66040.625, 0.0, 10.0, 9.999059 
6.5e+1, 2.1500063e+2, -899041.8, -970079.56, 0.0009304733, 0.00000012213108, 0.052977048, -899041.8, -66042.97, 0.0, 10.0, 9.999059 
6.5e+1, 2.2499959e+2, -796428.8, -862513.75, -0.0009834489, 0.00000012211018, 0.03975056, -796428.8, -61421.125, 0.0, 10.0, 9.999125 
6.5e+1, 2.3499854e+2, -698420.4, -764505.56, -0.0019129589, 0.00000012148247, 0.022341171, -698420.4, -61404.508, 0.0, 10.0, 9.999125 
6.5e+1, 2.4499744e+2, -600661.94, -667016.25, -0.0036406675, 0.00000012030365, -0.00045473035, -600661.94, -61637.32, 0.0, 10.0, 9.999121 
6.5e+1, 2.5499627e+2, -502635.94, -568971.56, -0.0046789763, 0.000000118573375, -0.028816847, -502635.94, -61602.09, 0.0, 10.0, 9.999121 
6.5e+1, 2.6499522e+2, -391585.72, -443883.38, -0.005998481, 0.00000011699534, -0.056387156, -391585.72, -48543.746, 0.0, 10.0, 9.999307 
6.5e+1, 2.7499425e+2, -293545.28, -345806.75, -0.007302543, 0.000000115569726, -0.083349064, -293545.28, -48496.32, 0.0, 10.0, 9.999308 
6.5e+1, 2.8499338e+2, -188585.22, -233360.13, -0.0066467673, 0.00000011393869, -0.10632885, -188585.22, -41530.08, 0.0, 10.0, 9.999407 
6.5e+1, 2.949926e+2, -90537.43, -135267.14, -0.008879535, 0.000000112101915, -0.1255046, -90537.43, -41476.934, 0.0, 10.0, 9.999407 
6.5e+1, 3.0499196e+2, -22266.803, -46246.66, -0.007878849, 0.00000011913516, -0.14099596, -22266.803, -22266.803, 0.0, 10.0, 9.999682 
6.5e+1, 3.1499153e+2, -22233.47, -46177.445, -0.011602143, 0.00000013505606, -0.15298407, -22233.47, -22233.47, 0.0, 10.0, 9.999682 
7.5e+1, 1.2500638e+2, -1722682.1, -1730935.3, 0.009638153, 0.000000185857, 0.111541726, -1722682.1, -7734.7026, 0.0, 10.0, 9.99989 
7.5e+1, 1.3500609e+2, -1624731.8, -1633039.4, 0.0058995294, 0.00000016386791, 0.0941226, -1624731.8, -7782.6455, 0.0, 10.0, 9.999889 
7.5e+1, 1.4500567e+2, -1539572.9, -1561680.5, 0.008409048, 0.00000015408548, 0.07258549, -1539572.9, -20621.166, 0.0, 10.0, 9.999707 
7.5e+1, 1.5500513e+2, -1441605.3, -1463750.8, 0.0061659077, 0.00000015649282, 0.04667548, -1441605.3, -20650.096, 0.0, 10.0, 9.999706 
7.5e+1, 1.6500458e+2, -1363620.5, -1407283.3, 0.0077528446, 0.0000001585999, 0.03579693, -1363620.5, -40661.055, 0.0, 10.0, 9.999421 
7.5e+1, 1.7500405e+2, -1265639.8, -1309329.3, 0.0064416355, 0.00000016040717, 0.03972531, -1265639.8, -40675.273, 0.0, 10.0, 9.999421 
7.5e+1, 1.8500337e+2, -1191559.4, -1260973.5, 0.005076271, 0.00000016244714, 0.0480203, -1191559.4, -64588.016, 0.0, 10.0, 9.99908 
7.5e+1, 1.9500259e+2, -1093577.5, -1163020.8, 0.004033495, 0.00000016471958, 0.060497, -1093577.5, -64597.242, 0.0, 10.0, 9.99908 
7.5e+1, 2.0500167e+2, -997030.06, -1068045.3, 0.0020340362, 0.00000016624821, 0.062200736, -997030.06, -66040.625, 0.0, 10.0, 9.999059 
7.5e+1, 2.1500063e+2, -899041.8, -970079.56, 0.0011031745, 0.0000001670333, 0.052977048, -899041.8, -66042.97, 0.0, 10.0, 9.999059 
7.5e+1, 2.2499959e+2, -796428.8, -862513.75, -0.0011686, 0.00000016700514, 0.03975056, -796428.8, -61421.125, 0.0, 10.0, 9.999125 
7.5e+1, 2.3499854e+2, -698420.4, -764505.56, -0.0020981333, 0.0000001661636, 0.02234117, -698420.4, -61404.508, 0.0, 10.0, 9.999125 
7.5e+1, 2.4499744e+2, -600661.94, -667016.25, -0.004089603, 0.00000016458179, -0.00045473326, -600661.94, -61637.32, 0.0, 10.0, 9.999121 
7.5e+1, 2.5499627e+2, -502635.94, -568971.56, -0.0051279557, 0.00000016225928, -0.02881685, -502635.94, -61602.09, 0.0, 10.0, 9.999121 
7.5e+1, 2.6499522e+2, -391585.72, -443883.4, -0.0064807343, 0.00000016017147, -0.056387164, -391585.72, -48543.746, 0.0, 10.0, 9.999307 
7.5e+1, 2.7499425e+2, -293545.28, -345806.78, -0.0077848015, 0.00000015831864, -0.08334907, -293545.28, -48496.324, 0.0, 10.0, 9.999308 
7.5e+1, 2.8499338e+2, -188585.23, -233360.13, -0.0061885067, 0.0000001561743, -0.10632887, -188585.23, -41530.082, 0.0, 10.0, 9.999407 
7.5e+1, 2.949926e+2, -90537.44, -135267.14, -0.008420932, 0.00000015373799, -0.12550461, -90537.44, -41476.938, 0.0, 10.0, 9.999407 
7.5e+1, 3.0499196e+2, -22266.809, -46246.676, -0.005898971, 0.00000016346335, -0.14099598, -22266.809, -22266.809, 0.0, 10.0, 9.999682 
7.5e+1, 3.1499153e+2, -22233.479, -46177.46, -0.009621516, 0.00000018537452, -0.1529841, -22233.479, -22233.479, 0.0, 10.0, 9.999682 
8.5e+1, 1.2500638e+2, -1722682.0, -1730935.1, 0.021712044, 0.00000025691838, 0.11154176, -1722682.0, -7734.5825, 0.0, 10.0, 9.99989 
8.5e+1, 1.3500609e+2, -1624731.6, -1633039.3, 0.014680143, 0.00000022643049, 0.094122626, -1624731.6, -7782.5327, 0.0, 10.0, 9.999889 
8.5e+1, 1.4500567e+2, -1539572.8, -1561680.5, 0.016708056, 0.00000021279077, 0.07258551, -1539572.8, -20621.053, 0.0, 10.0, 9.999707 
8.5e+1, 1.5500513e+2, -1441605.1, -1463750.8, 0.01245811, 0.00000021597606, 0.046675492, -1441605.1, -20649.986, 0.0, 10.0, 9.999706 
8.5e+1, 1.6500458e+2, -1363620.4, -1407283.3, 0.013790283, 0.0000002187301, 0.03579694, -1363620.4, -40660.94, 0.0, 10.0, 9.999421 
8.5e+1, 1.7500405e+2, -1265639.6, -1309329.3, 0.011277519, 0.00000022105348, 0.03972532, -1265639.6, -40675.156, 0.0, 10.0, 9.999421 
8.5e+1, 1.8500337e+2, -1191559.3, -1260973.4, 0.00880139, 0.0000002237422, 0.048020307, -1191559.3, -64587.9, 0.0, 10.0, 9.99908 
8.5e+1, 1.9500259e+2, -1093577.4, -1163020.8, 0.00680489, 0.0000002267959, 0.060497005, -1093577.4, -64597.125, 0.0, 10.0, 9.99908 
8.5e+1, 2.0500167e+2, -997029.94, -1068045.1, 0.003540649, 0.00000022884903, 0.06220074, -997029.94, -66040.51, 0.0, 10.0, 9.999059 
8.5e+1, 2.1500063e+2, -899041.7, -970079.5, 0.0017599994, 0.00000022990191, 0.052977048, -899041.7, -66042.85, 0.0, 10.0, 9.999059 
8.5e+1, 2.2499959e+2, -796428.7, -862513.7, -0.001857853, 0.00000022986384, 0.03975056, -796428.7, -61421.008, 0.0, 10.0, 9.999125 
8.5e+1, 2.3499854e+2, -698420.25, -764505.5, -0.0036360158, 0.00000022873466, 0.022341166, -698420.25, -61404.39, 0.0, 10.0, 9.999125 
8.5e+1, 2.4499744e+2, -600661.8, -667016.2, -0.0068879165, 0.00000022660961, -0.00045473746, -600661.8, -61637.203, 0.0, 10.0, 9.999121 
8.5e+1, 2.5499627e+2, -502635.8, -568971.5, -0.008876198, 0.00000022348814, -0.028816856, -502635.8, -61601.977, 0.0, 10.0, 9.999121 
8.5e+1, 2.6499522e+2, -391585.6, -443883.34, -0.011332563, 0.00000022073445, -0.05638717, -391585.6, -48543.633, 0.0, 10.0, 9.999307 
8.5e+1, 2.7499425e+2, -293545.2, -345806.72, -0.01383212, 0.00000021834897, -0.08334909, -293545.2, -48496.21, 0.0, 10.0, 9.999308 
8.5e+1, 2.8499338e+2, -188585.11, -233360.1, -0.012483504, 0.00000021554416, -0.106328875, -188585.11, -41529.973, 0.0, 10.0, 9.999407 
8.5e+1, 2.949926e+2, -90537.32, -135267.11, -0.01671382, 0.00000021231938, -0.12550463, -90537.32, -41476.83, 0.0, 10.0, 9.999407 
8.5e+1, 3.0499196e+2, -22266.697, -46246.637, -0.014662595, 0.0000002258812, -0.14099601, -22266.697, -22266.697, 0.0, 10.0, 9.999682 
8.5e+1, 3.1499153e+2, -22233.357, -46177.418, -0.021665398, 0.00000025626275, -0.15298414, -22233.357, -22233.357, 0.0, 10.0, 9.999682 
9.5e+1, 1.2500638e+2, -1722682.0, -1730935.1, 0.01793774, 0.00000034859676, 0.11154181, -1722682.0, -7734.5957, 0.0, 10.0, 9.99989 
9.5e+1, 1.3500609e+2, -1624731.8, -1633039.4, 0.010906806, 0.00000030712204, 0.094122656, -1624731.8, -7782.5454, 0.0, 10.0, 9.999889 
9.5e+1, 1.4500567e+2, -1539572.8, -1561680.5, 0.015749484, 0.00000028847492, 0.07258553, -1539572.8, -20621.063, 0.0, 10.0, 9.999707 
9.5e+1, 1.5500513e+2, -1441605.1, -1463750.8, 0.011500127, 0.0000002926242, 0.04667551, -1441605.1, -20649.994, 0.0, 10.0, 9.999706 
9.5e+1, 1.6500458e+2, -1363620.4, -1407283.3, 0.014589878, 0.00000029616865, 0.03579695, -1363620.4, -40660.945, 0.0, 10.0, 9.999421 
9.5e+1, 1.7500405e+2, -1265639.6, -1309329.3, 0.012077127, 0.00000029910902, 0.03972533, -1265639.6, -40675.164, 0.0, 10.0, 9.999421 
9.5e+1, 1.8500337e+2, -1191559.3, -1260973.4, 0.009569238, 0.00000030259795, 0.048020314, -1191559.3, -64587.902, 0.0, 10.0, 9.99908 
9.5e+1, 1.9500259e+2, -1093577.4, -1163020.8, 0.007572693, 0.0000003066349, 0.060497012, -1093577.4, -64597.13, 0.0, 10.0, 9.99908 
9.5e+1, 2.0500167e+2, -997029.94, -1068045.1, 0.0038474323, 0.0000003093477, 0.062200744, -997029.94, -66040.51, 0.0, 10.0, 9.999059 
9.5e+1, 2.1500063e+2, -899041.7, -970079.5, 0.0020667734, 0.00000031073694, 0.052977048, -899041.7, -66042.85, 0.0, 10.0, 9.999059 
9.5e+1, 2.2499959e+2, -796428.7, -862513.75, -0.0021870048, 0.0000003106863, 0.03975056, -796428.7, -61421.008, 0.0, 10.0, 9.999125 
9.5e+1, 2.3499854e+2, -698420.3, -764505.5, -0.0039652092, 0.00000030919563, 0.022341164, -698420.3, -61404.39, 0.0, 10.0, 9.999125 
9.5e+1, 2.4499744e+2, -600661.8, -667016.2, -0.0076758172, 0.00000030638708, -0.0004547429, -600661.8, -61637.207, 0.0, 10.0, 9.999121 
9.5e+1, 2.5499627e+2, -502635.8, -568971.5, -0.009664174, 0.00000030225996, -0.028816864, -502635.8, -61601.98, 0.0, 10.0, 9.999121 
9.5e+1, 2.6499522e+2, -391585.6, -443883.34, -0.0121491775, 0.00000029868428, -0.056387182, -391585.6, -48543.637, 0.0, 10.0, 9.999307 
9.5e+1, 2.7499425e+2, -293545.2, -345806.72, -0.0146487355, 0.0000002956607, -0.0833491, -293545.2, -48496.215, 0.0, 10.0, 9.999308 
9.5e+1, 2.8499338e+2, -188585.13, -233360.11, -0.011542112, 0.00000029204827, -0.1063289, -188585.13, -41529.98, 0.0, 10.0, 9.999407 
9.5e+1, 2.949926e+2, -90537.33, -135267.13, -0.015771797, 0.0000002878461, -0.12550464, -90537.33, -41476.836, 0.0, 10.0, 9.999407 
9.5e+1, 3.0499196e+2, -22266.709, -46246.664, -0.010906568, 0.00000030638867, -0.14099604, -22266.709, -22266.709, 0.0, 10.0, 9.999682 
9.5e+1, 3.1499153e+2, -22233.371, -46177.445, -0.017907996, 0.00000034772077, -0.15298419, -22233.371, -22233.371, 0.0, 10.0, 9.999682 
1.05e+2, 1.2500638e+2, -1722681.8, -1730935.1, 0.039687745, 0.0000004767431, 0.111541875, -1722681.8, -7734.376, 0.0, 10.0, 9.99989 
1.05e+2, 1.3500609e+2, -1624731.5, -1633039.3, 0.026739854, 0.00000041986345, 0.09412269, -1624731.5, -7782.339, 0.0, 10.0, 9.999889 
1.05e+2, 1.4500567e+2, -1539572.6, -1561680.4, 0.030783214, 0.0000003941418, 0.07258555, -1539572.6, -20620.855, 0.0, 10.0, 9.999707 
1.05e+2, 1.5500513e+2, -1441605.0, -1463750.6, 0.022895647, 0.00000039953594, 0.046675533, -1441605.0, -20649.791, 0.0, 10.0, 9.999706 
1.05e+2, 1.6500458e+2, -1363620.1, -1407283.1, 0.025564427, 0.00000040407036, 0.035796974, -1363620.1, -40660.74, 0.0, 10.0, 9.999421 
1.05e+2, 1.7500405e+2, -1265639.4, -1309329.1, 0.020844027, 0.00000040774623, 0.039725345, -1265639.4, -40674.953, 0.0, 10.0, 9.999421 
1.05e+2, 1.8500337e+2, -1191559.1, -1260973.4, 0.016344175, 0.0000004122578, 0.048020326, -1191559.1, -64587.69, 0.0, 10.0, 9.99908 
1.05e+2, 1.9500259e+2, -1093577.3, -1163020.6, 0.01259673, 0.00000041760427, 0.06049702, -1093577.3, -64596.918, 0.0, 10.0, 9.99908 
1.05e+2, 2.0500167e+2, -997029.75, -1068045.1, 0.0065934076, 0.00000042119476, 0.062200747, -997029.75, -66040.3, 0.0, 10.0, 9.999059 
1.05e+2, 2.1500063e+2, -899041.5, -970079.4, 0.0032541968, 0.00000042302983, 0.05297705, -899041.5, -66042.63, 0.0, 10.0, 9.999059 
1.05e+2, 2.2499959e+2, -796428.44, -862513.6, -0.0034306652, 0.0000004229622, 0.039750557, -796428.44, -61420.793, 0.0, 10.0, 9.999125 
1.05e+2, 2.3499854e+2, -698420.06, -764505.44, -0.006765389, 0.00000042099163, 0.022341158, -698420.06, -61404.176, 0.0, 10.0, 9.999125 
1.05e+2, 2.4499744e+2, -600661.6, -667016.1, -0.012746433, 0.00000041727327, -0.00045475055, -600661.6, -61636.996, 0.0, 10.0, 9.999121 
1.05e+2, 2.5499627e+2, -502635.63, -568971.44, -0.016479004, 0.0000004118062, -0.028816875, -502635.63, -61601.77, 0.0, 10.0, 9.999121 
1.05e+2, 2.6499522e+2, -391585.4, -443883.25, -0.020943493, 0.00000040717822, -0.056387197, -391585.4, -48543.43, 0.0, 10.0, 9.999307 
1.05e+2, 2.7499425e+2, -293544.97, -345806.63, -0.02564002, 0.00000040339032, -0.08334912, -293544.97, -48496.008, 0.0, 10.0, 9.999308 
1.05e+2, 2.8499338e+2, -188584.92, -233360.03, -0.022942152, 0.00000039876429, -0.10632892, -188584.92, -41529.777, 0.0, 10.0, 9.999407 
1.05e+2, 2.949926e+2, -90537.125, -135267.03, -0.030794501, 0.00000039329888, -0.12550467, -90537.125, -41476.63, 0.0, 10.0, 9.999407 
1.05e+2, 3.0499196e+2, -22266.504, -46246.594, -0.02670973, 0.00000041887938, -0.14099607, -22266.504, -22266.504, 0.0, 10.0, 9.999682 
1.05e+2, 3.1499153e+2, -22233.152, -46177.367, -0.039605457, 0.0000004755667, -0.15298425, -22233.152, -22233.152, 0.0, 10.0, 9.999682 
1.15e+2, 1.2500638e+2, -1722681.9, -1730935.1, 0.03261559, 0.0000006413575, 0.11154196, -1722681.9, -7734.4004, 0.0, 10.0, 9.99989 
1.15e+2, 1.3500609e+2, -1624731.5, -1633039.4, 0.019669436, 0.0000005646547, 0.094122745, -1624731.5, -7782.3633, 0.0, 10.0, 9.999889 
1.15e+2, 1.4500567e+2, -1539572.6, -1561680.5, 0.028853837, 0.00000052979146, 0.07258559, -1539572.6, -20620.871, 0.0, 10.0, 9.999707 
1.15e+2, 1.5500513e+2, -1441605.0, -1463750.8, 0.020967344, 0.00000053671124, 0.046675563, -1441605.0, -20649.807, 0.0, 10.0, 9.999706 
1.15e+2, 1.6500458e+2, -1363620.1, -1407283.1, 0.02688065, 0.0000005424353, 0.035797, -1363620.1, -40660.75, 0.0, 10.0, 9.999421 
1.15e+2, 1.7500405e+2, -1265639.4, -1309329.3, 0.022160292, 0.0000005469651, 0.039725363, -1265639.4, -40674.965, 0.0, 10.0, 9.999421 
1.15e+2, 1.8500337e+2, -1191559.1, -1260973.4, 0.017665759, 0.0000005527218, 0.048020337, -1191559.1, -64587.7, 0.0, 10.0, 9.99908 
1.15e+2, 1.9500259e+2, -1093577.3, -1163020.6, 0.013918239, 0.0000005597041, 0.06049703, -1093577.3, -64596.92, 0.0, 10.0, 9.99908 
1.15e+2, 2.0500167e+2, -997029.75, -1068045.1, 0.0071291896, 0.0000005643901, 0.062200755, -997029.75, -66040.305, 0.0, 10.0, 9.999059 
1.15e+2, 2.1500063e+2, -899041.5, -970079.44, 0.0037899606, 0.0000005667806, 0.05297705, -899041.5, -66042.64, 0.0, 10.0, 9.999059 
1.15e+2, 2.2499959e+2, -796428.5, -862513.6, -0.004006143, 0.00000056669154, 0.039750557, -796428.5, -61420.8, 0.0, 10.0, 9.999125 
1.15e+2, 2.3499854e+2, -698420.06, -764505.44, -0.00734094, 0.0000005641226, 0.022341153, -698420.06, -61404.184, 0.0, 10.0, 9.999125 
1.15e+2, 2.4499744e+2, -600661.6, -667016.1, -0.014103701, 0.0000005592682, -0.00045476042, -600661.6, -61637.0, 0.0, 10.0, 9.999121 
1.15e+2, 2.5499627e+2, -502635.63, -568971.44, -0.017836396, 0.00000055212695, -0.028816888, -502635.63, -61601.773, 0.0, 10.0, 9.999121 
1.15e+2, 2.6499522e+2, -391585.4, -443883.28, -0.022290288, 0.0000005462163, -0.056387216, -391585.4, -48543.438, 0.0, 10.0, 9.999307 
1.15e+2, 2.7499425e+2, -293545.0, -345806.66, -0.026986798, 0.0000005415378, -0.083349146, -293545.0, -48496.02, 0.0, 10.0, 9.999308 
1.15e+2, 2.8499338e+2, -188584.94, -233360.06, -0.02104383, 0.0000005356922, -0.10632895, -188584.94, -41529.793, 0.0, 10.0, 9.999407 
1.15e+2, 2.949926e+2, -90537.14, -135267.06, -0.028895026, 0.00000052867773, -0.1255047, -90537.14, -41476.645, 0.0, 10.0, 9.999407 
1.15e+2, 3.0499196e+2, -22266.527, -46246.64, -0.01967071, 0.0000005633533, -0.14099613, -22266.527, -22266.527, 0.0, 10.0, 9.999682 
1.15e+2, 3.1499153e+2, -22233.176, -46177.418, -0.03256394, 0.00000063980053, -0.15298434, -22233.176, -22233.176, 0.0, 10.0, 9.999682 
1.25e+2, 1.2500638e+2, -1722681.5, -1730935.0, 0.07119654, 0.0000008690821, 0.111542076, -1722681.5, -7734.0073, 0.0, 10.0, 9.99989 
1.25e+2, 1.3500609e+2, -1624731.1, -1633039.3, 0.0477828, 0.00000076488743, 0.09412282, -1624731.1, -7781.993, 0.0, 10.0, 9.999889 
1.25e+2, 1.4500567e+2, -1539572.3, -1561680.3, 0.055673495, 0.000000717249, 0.072585635, -1539572.3, -20620.502, 0.0, 10.0, 9.999707 
1.25e+2, 1.5500513e+2, -1441604.6, -1463750.5, 0.041289195, 0.0000007260914, 0.046675608, -1441604.6, -20649.445, 0.0, 10.0, 9.999706 
1.25e+2, 1.6500458e+2, -1363619.8, -1407283.0, 0.046525586, 0.00000073325026, 0.035797033, -1363619.8, -40660.383, 0.0, 10.0, 9.999421 
1.25e+2, 1.7500405e+2, -1265639.0, -1309329.0, 0.037808448, 0.00000073872775, 0.03972539, -1265639.0, -40674.594, 0.0, 10.0, 9.999421 
1.25e+2, 1.8500337e+2, -1191558.8, -1260973.1, 0.029800415, 0.00000074602974, 0.048020355, -1191558.8, -64587.324, 0.0, 10.0, 9.99908 
1.25e+2, 1.9500259e+2, -1093576.9, -1163020.5, 0.022884998, 0.0000007551545, 0.06049704, -1093576.9, -64596.543, 0.0, 10.0, 9.99908 
1.25e+2, 2.0500167e+2, -997029.4, -1068044.9, 0.012058873, 0.00000076127304, 0.062200762, -997029.4, -66039.92, 0.0, 10.0, 9.999059 
1.25e+2, 2.1500063e+2, -899041.1, -970079.25, 0.0059024105, 0.0000007643865, 0.052977055, -899041.1, -66042.26, 0.0, 10.0, 9.999059 
1.25e+2, 2.2499959e+2, -796428.06, -862513.44, -0.0062143714, 0.00000076426886, 0.039750554, -796428.06, -61420.414, 0.0, 10.0, 9.999125 
1.25e+2, 2.3499854e+2, -698419.7, -764505.25, -0.012362882, 0.00000076091953, 0.022341143, -698419.7, -61403.8, 0.0, 10.0, 9.999125 
1.25e+2, 2.4499744e+2, -600661.25, -667016.0, -0.023149572, 0.00000075457814, -0.00045477416, -600661.25, -61636.62, 0.0, 10.0, 9.999121 
1.25e+2, 2.5499627e+2, -502635.25, -568971.25, -0.030038582, 0.0000007452432, -0.028816907, -502635.25, -61601.4, 0.0, 10.0, 9.999121 
1.25e+2, 2.6499522e+2, -391585.03, -443883.13, -0.037984677, 0.0000007377367, -0.056387242, -391585.03, -48543.07, 0.0, 10.0, 9.999307 
1.25e+2, 2.7499425e+2, -293544.63, -345806.5, -0.046659503, 0.0000007320608, -0.08334918, -293544.63, -48495.652, 0.0, 10.0, 9.999308 
1.25e+2, 2.8499338e+2, -188584.58, -233359.92, -0.041372772, 0.0000007247398, -0.106328994, -188584.58, -41529.434, 0.0, 10.0, 9.999407 
1.25e+2, 2.949926e+2, -90536.77, -135266.92, -0.055695098, 0.0000007157711, -0.12550475, -90536.77, -41476.277, 0.0, 10.0, 9.999407 
1.25e+2, 3.0499196e+2, -22266.158, -46246.52, -0.04773231, 0.0000007631586, -0.1409962, -22266.158, -22266.158, 0.0, 10.0, 9.999682 
1.25e+2, 3.1499153e+2, -22232.785, -46177.285, -0.07105432, 0.00000086701215, -0.15298444, -22232.785, -22232.785, 0.0, 10.0, 9.999682 
1.35e+2, 1.2500638e+2, -1722681.5, -1730935.1, 0.058150597, 0.0000011599171, 0.111542225, -1722681.5, -7734.051, 0.0, 10.0, 9.99989 
1.35e+2, 1.3500609e+2, -1624731.1, -1633039.3, 0.034739923, 0.0000010205615, 0.09412291, -1624731.1, -7782.0366, 0.0, 10.0, 9.999889 
1.35e+2, 1.4500567e+2, -1539572.3, -1561680.4, 0.051866386, 0.0000009565146, 0.072585694, -1539572.3, -20620.53, 0.0, 10.0, 9.999707 
1.35e+2, 1.5500513e+2, -1441604.6, -1463750.6, 0.037484024, 0.0000009676763, 0.046675663, -1441604.6, -20649.473, 0.0, 10.0, 9.999706 
1.35e+2, 1.6500458e+2, -1363619.8, -1407283.0, 0.048613537, 0.0000009765153, 0.035797082, -1363619.8, -40660.4, 0.0, 10.0, 9.999421 
1.35e+2, 1.7500405e+2, -1265639.0, -1309329.1, 0.039896503, 0.0000009830342, 0.039725423, -1265639.0, -40674.61, 0.0, 10.0, 9.999421 
1.35e+2, 1.8500337e+2, -1191558.8, -1260973.3, 0.032018982, 0.0000009921818, 0.04802038, -1191558.8, -64587.336, 0.0, 10.0, 9.99908 
1.35e+2, 1.9500259e+2, -1093576.9, -1163020.5, 0.025103444, 0.0000010039553, 0.06049706, -1093576.9, -64596.56, 0.0, 10.0, 9.99908 
1.35e+2, 2.0500167e+2, -997029.4, -1068045.0, 0.012973894, 0.0000010118436, 0.062200774, -997029.4, -66039.93, 0.0, 10.0, 9.999059 
1.35e+2, 2.1500063e+2, -899041.1, -970079.25, 0.0068173986, 0.0000010158477, 0.05297706, -899041.1, -66042.27, 0.0, 10.0, 9.999059 
1.35e+2, 2.2499959e+2, -796428.1, -862513.5, -0.007198675, 0.0000010156941, 0.03975055, -796428.1, -61420.426, 0.0, 10.0, 9.999125 
1.35e+2, 2.3499854e+2, -698419.7, -764505.3, -0.013347311, 0.0000010113823, 0.022341134, -698419.7, -61403.813, 0.0, 10.0, 9.999125 
1.35e+2, 2.4499744e+2, -600661.25, -667016.0, -0.025430601, 0.0000010032032, -0.0004547918, -600661.25, -61636.637, 0.0, 10.0, 9.999121 
1.35e+2, 2.5499627e+2, -502635.25, -568971.3, -0.03231981, 0.0000009911549, -0.028816931, -502635.25, -61601.414, 0.0, 10.0, 9.999121 
1.35e+2, 2.6499522e+2, -391585.06, -443883.16, -0.040126674, 0.0000009817394, -0.056387275, -391585.06, -48543.086, 0.0, 10.0, 9.999307 
1.35e+2, 2.7499425e+2, -293544.63, -345806.53, -0.048801433, 0.0000009749594, -0.08334923, -293544.63, -48495.668, 0.0, 10.0, 9.999308 
1.35e+2, 2.8499338e+2, -188584.61, -233359.97, -0.037620924, 0.0000009659071, -0.106329046, -188584.61, -41529.46, 0.0, 10.0, 9.999407 
1.35e+2, 2.949926e+2, -90536.805, -135266.98, -0.051941182, 0.000000954579, -0.1255048, -90536.805, -41476.305, 0.0, 10.0, 9.999407 
1.35e+2, 3.0499196e+2, -22266.201, -46246.61, -0.034745462, 0.0000010182953, -0.14099629, -22266.201, -22266.201, 0.0, 10.0, 9.999682 
1.35e+2, 3.1499153e+2, -22232.828, -46177.375, -0.05806302, 0.0000011572016, -0.15298459, -22232.828, -22232.828, 0.0, 10.0, 9.999682 
1.45e+2, 1.2500638e+2, -1722680.8, -1730934.9, 0.12537822, 0.0000015577816, 0.111542426, -1722680.8, -7733.359, 0.0, 10.0, 9.99989 
1.45e+2, 1.3500609e+2, -1624730.5, -1633039.1, 0.08377832, 0.0000013702357, 0.094123036, -1624730.5, -7781.3857, 0.0, 10.0, 9.999889 
1.45e+2, 1.4500567e+2, -1539571.6, -1561680.1, 0.09887456, 0.0000012835263, 0.07258578, -1539571.6, -20619.883, 0.0, 10.0, 9.999707 
1.45e+2, 1.5500513e+2, -1441604.0, -1463750.4, 0.07308598, 0.0000012975208, 0.046675738, -1441604.0, -20648.84, 0.0, 10.0, 9.999706 
1.45e+2, 1.6500458e+2, -1363619.1, -1407282.8, 0.08316332, 0.0000013082755, 0.035797145, -1363619.1, -40659.754, 0.0, 10.0, 9.999421 
1.45e+2, 1.7500405e+2, -1265638.4, -1309328.8, 0.06733157, 0.0000013157945, 0.03972547, -1265638.4, -40673.965, 0.0, 10.0, 9.999421 
1.45e+2, 1.8500337e+2, -1191558.1, -1260972.9, 0.053374603, 0.0000013271438, 0.048020415, -1191558.1, -64586.68, 0.0, 10.0, 9.99908 
1.45e+2, 1.9500259e+2, -1093576.3, -1163020.3, 0.040822275, 0.0000013423194, 0.060497083, -1093576.3, -64595.895, 0.0, 10.0, 9.99908 
1.45e+2, 2.0500167e+2, -997028.7, -1068044.6, 0.02167134, 0.0000013524758, 0.06220079, -997028.7, -66039.266, 0.0, 10.0, 9.999059 
1.45e+2, 2.1500063e+2, -899040.44, -970079.0, 0.010506493, 0.0000013576145, 0.052977063, -899040.44, -66041.6, 0.0, 10.0, 9.999059 
1.45e+2, 2.2499959e+2, -796427.44, -862513.2, -0.011047442, 0.0000013574135, 0.039750546, -796427.44, -61419.758, 0.0, 10.0, 9.999125 
1.45e+2, 2.3499854e+2, -698419.06, -764505.0, -0.02219846, 0.0000013518722, 0.02234112, -698419.06, -61403.145, 0.0, 10.0, 9.999125 
1.45e+2, 2.4499744e+2, -600660.56, -667015.7, -0.041280925, 0.0000013413352, -0.00045481604, -600660.56, -61635.977, 0.0, 10.0, 9.999121 
1.45e+2, 2.5499627e+2, -502634.6, -568971.0, -0.05378724, 0.0000013257996, -0.028816964, -502634.6, -61600.758, 0.0, 10.0, 9.999121 
1.45e+2, 2.6499522e+2, -391584.4, -443882.88, -0.06763796, 0.0000013140979, -0.056387324, -391584.4, -48542.44, 0.0, 10.0, 9.999307 
1.45e+2, 2.7499425e+2, -293544.0, -345806.25, -0.0833961, 0.000001306234, -0.083349295, -293544.0, -48495.027, 0.0, 10.0, 9.999308 
1.45e+2, 2.8499338e+2, -188583.97, -233359.73, -0.073233515, 0.0000012951972, -0.10632912, -188583.97, -41528.83, 0.0, 10.0, 9.999407 
1.45e+2, 2.949926e+2, -90536.16, -135266.73, -0.09891511, 0.0000012809828, -0.1255049, -90536.16, -41475.66, 0.0, 10.0, 9.999407 
1.45e+2, 3.0499196e+2, -22265.553, -46246.39, -0.08369575, 0.0000013672544, -0.14099641, -22265.553, -22265.553, 0.0, 10.0, 9.999682 
1.45e+2, 3.1499153e+2, -22232.139, -46177.137, -0.12513733, 0.0000015542064, -0.1529848, -22232.139, -22232.139, 0.0, 10.0, 9.999682 
1.55e+2, 1.2500638e+2, -1722680.9, -1730935.0, 0.10171293, 0.0000020626758, 0.11154268, -1722680.9, -7733.4365, 0.0, 10.0, 9.99989 
1.55e+2, 1.3500609e+2, -1624730.6, -1633039.3, 0.060118325, 0.0000018139101, 0.09412319, -1624730.6, -7781.4634, 0.0, 10.0, 9.999889 
1.55e+2, 1.4500567e+2, -1539571.6, -1561680.3, 0.09151199, 0.0000016982843, 0.07258589, -1539571.6, -20619.932, 0.0, 10.0, 9.999707 
1.55e+2, 1.5500513e+2, -1441604.0, -1463750.5, 0.06572682, 0.0000017156249, 0.046675835, -1441604.0, -20648.889, 0.0, 10.0, 9.999706 
1.55e+2, 1.6500458e+2, -1363619.1, -1407282.8, 0.08632238, 0.0000017285313, 0.035797227, -1363619.1, -40659.785, 0.0, 10.0, 9.999421 
1.55e+2, 1.7500405e+2, -1265638.4, -1309328.9, 0.07049088, 0.0000017370089, 0.03972553, -1265638.4, -40673.992, 0.0, 10.0, 9.999421 
1.55e+2, 1.8500337e+2, -1191558.1, -1260973.0, 0.056992844, 0.0000017509158, 0.048020456, -1191558.1, -64586.703, 0.0, 10.0, 9.99908 
1.55e+2, 1.9500259e+2, -1093576.3, -1163020.3, 0.044440325, 0.0000017702467, 0.060497116, -1093576.3, -64595.918, 0.0, 10.0, 9.99908 
1.55e+2, 2.0500167e+2, -997028.75, -1068044.8, 0.023194954, 0.0000017831696, 0.062200807, -997028.75, -66039.28, 0.0, 10.0, 9.999059 
1.55e+2, 2.1500063e+2, -899040.5, -970079.0, 0.012030046, 0.0000017896867, 0.05297707, -899040.5, -66041.62, 0.0, 10.0, 9.999059 
1.55e+2, 2.2499959e+2, -796427.44, -862513.25, -0.012689802, 0.000001789427, 0.03975054, -796427.44, -61419.777, 0.0, 10.0, 9.999125 
1.55e+2, 2.3499854e+2, -698419.06, -764505.06, -0.023841029, 0.0000017823894, 0.0223411, -698419.06, -61403.168, 0.0, 10.0, 9.999125 
1.55e+2, 2.4499744e+2, -600660.6, -667015.75, -0.04500656, 0.0000017689739, -0.00045484692, -600660.6, -61636.0, 0.0, 10.0, 9.999121 
1.55e+2, 2.5499627e+2, -502634.63, -568971.06, -0.05751318, 0.0000017491773, -0.028817007, -502634.63, -61600.78, 0.0, 10.0, 9.999121 
1.55e+2, 2.6499522e+2, -391584.44, -443882.94, -0.070890926, 0.0000017348121, -0.056387383, -391584.44, -48542.47, 0.0, 10.0, 9.999307 
1.55e+2, 2.7499425e+2, -293544.03, -345806.3, -0.08664889, 0.0000017258847, -0.08334938, -293544.03, -48495.055, 0.0, 10.0, 9.999308 
1.55e+2, 2.8499338e+2, -188584.02, -233359.83, -0.065967605, 0.0000017126101, -0.10632922, -188584.02, -41528.875, 0.0, 10.0, 9.999407 
1.55e+2, 2.949926e+2, -90536.2, -135266.83, -0.09164556, 0.0000016949824, -0.125505, -90536.2, -41475.707, 0.0, 10.0, 9.999407 
1.55e+2, 3.0499196e+2, -22265.629, -46246.55, -0.060134027, 0.000001810036, -0.14099658, -22265.629, -22265.629, 0.0, 10.0, 9.999682 
1.55e+2, 3.1499153e+2, -22232.215, -46177.297, -0.10156782, 0.0000020580264, -0.15298505, -22232.215, -22232.215, 0.0, 10.0, 9.999682 
1.65e+2, 1.2500638e+2, -1722679.6, -1730934.6, 0.21667062, 0.0000027454478, 0.11154302, -1722679.6, -7732.241, 0.0, 10.0, 9.99989 
1.65e+2, 1.3500609e+2, -1624729.5, -1633038.9, 0.1440631, 0.000002413801, 0.09412341, -1624729.5, -7780.3394, 0.0, 10.0, 9.999889 
1.65e+2, 1.4500567e+2, -1539570.5, -1561679.8, 0.1723834, 0.0000022587217, 0.07258603, -1539570.5, -20618.816, 0.0, 10.0, 9.999707 
1.65e+2, 1.5500513e+2, -1441603.0, -1463750.0, 0.12693763, 0.0000022799823, 0.046675965, -1441603.0, -20647.799, 0.0, 10.0, 9.999706 
1.65e+2, 1.6500458e+2, -1363618.1, -1407282.4, 0.1459627, 0.0000022951167, 0.03579734, -1363618.1, -40658.68, 0.0, 10.0, 9.999421 
1.65e+2, 1.7500405e+2, -1265637.3, -1309328.4, 0.11768925, 0.0000023041323, 0.03972561, -1265637.3, -40672.883, 0.0, 10.0, 9.999421 
1.65e+2, 1.8500337e+2, -1191557.0, -1260972.5, 0.0938851, 0.0000023209186, 0.048020516, -1191557.0, -64585.58, 0.0, 10.0, 9.99908 
1.65e+2, 1.9500259e+2, -1093575.1, -1163019.8, 0.07147707, 0.0000023454677, 0.060497157, -1093575.1, -64594.785, 0.0, 10.0, 9.99908 
1.65e+2, 2.0500167e+2, -997027.56, -1068044.3, 0.038261246, 0.0000023618552, 0.062200833, -997027.56, -66038.14, 0.0, 10.0, 9.999059 
1.65e+2, 2.1500063e+2, -899039.3, -970078.5, 0.018346876, 0.000002370084, 0.052977078, -899039.3, -66040.48, 0.0, 10.0, 9.999059 
1.65e+2, 2.2499959e+2, -796426.3, -862512.75, -0.019266764, 0.0000023697473, 0.03975053, -796426.3, -61418.633, 0.0, 10.0, 9.999125 
1.65e+2, 2.3499854e+2, -698417.94, -764504.56, -0.03915754, 0.0000023608447, 0.022341074, -698417.94, -61402.023, 0.0, 10.0, 9.999125 
1.65e+2, 2.4499744e+2, -600659.5, -667015.25, -0.072256766, 0.0000023438188, -0.0004548889, -600659.5, -61634.867, 0.0, 10.0, 9.999121 
1.65e+2, 2.5499627e+2, -502633.5, -568970.56, -0.0945861, 0.0000023186656, -0.028817067, -502633.5, -61599.656, 0.0, 10.0, 9.999121 
1.65e+2, 2.6499522e+2, -391583.3, -443882.47, -0.11821181, 0.0000023012824, -0.056387465, -391583.3, -48541.36, 0.0, 10.0, 9.999307 
1.65e+2, 2.7499425e+2, -293542.9, -345805.84, -0.14635965, 0.000002291678, -0.08334948, -293542.9, -48493.953, 0.0, 10.0, 9.999308 
1.65e+2, 2.8499338e+2, -188582.94, -233359.4, -0.12719345, 0.0000022760617, -0.10632935, -188582.94, -41527.79, 0.0, 10.0, 9.999407 
1.65e+2, 2.949926e+2, -90535.09, -135266.39, -0.17245802, 0.0000022544248, -0.12550513, -90535.09, -41474.594, 0.0, 10.0, 9.999407 
1.65e+2, 3.0499196e+2, -22264.51, -46246.18, -0.14393154, 0.0000024087537, -0.14099678, -22264.51, -22264.51, 0.0, 10.0, 9.999682 
1.65e+2, 3.1499153e+2, -22231.023, -46176.89, -0.21627095, 0.0000027393862, -0.1529854, -22231.023, -22231.023, 0.0, 10.0, 9.999682 
1.75e+2, 1.2500638e+2, -1722679.8, -1730934.9, 0.17448168, 0.0000036060978, 0.111543454, -1722679.8, -7732.3765, 0.0, 10.0, 9.99989 
1.75e+2, 1.3500609e+2, -1624729.6, -1633039.1, 0.101883136, 0.0000031699083, 0.09412368, -1624729.6, -7780.4746, 0.0, 10.0, 9.999889 
1.75e+2, 1.4500567e+2, -1539570.6, -1561680.0, 0.15843016, 0.0000029648386, 0.07258621, -1539570.6, -20618.9, 0.0, 10.0, 9.999707 
1.75e+2, 1.5500513e+2, -1441603.0, -1463750.3, 0.112990305, 0.000002990593, 0.046676133, -1441603.0, -20647.883, 0.0, 10.0, 9.999706 
1.75e+2, 1.6500458e+2, -1363618.1, -1407282.5, 0.15045007, 0.0000030080316, 0.035797477, -1363618.1, -40658.73, 0.0, 10.0, 9.999421 
1.75e+2, 1.7500405e+2, -1265637.4, -1309328.5, 0.12217716, 0.000003017165, 0.039725713, -1265637.4, -40672.934, 0.0, 10.0, 9.999421 
1.75e+2, 1.8500337e+2, -1191557.0, -1260972.5, 0.09959396, 0.0000030371518, 0.04802059, -1191557.0, -64585.62, 0.0, 10.0, 9.99908 
1.75e+2, 1.9500259e+2, -1093575.1, -1163019.9, 0.077185646, 0.0000030679823, 0.06049721, -1093575.1, -64594.83, 0.0, 10.0, 9.99908 
1.75e+2, 2.0500167e+2, -997027.6, -1068044.3, 0.040727947, 0.0000030885326, 0.062200863, -997027.6, -66038.18, 0.0, 10.0, 9.999059 
1.75e+2, 2.1500063e+2, -899039.4, -970078.56, 0.020813465, 0.000003098806, 0.05297709, -899039.4, -66040.516, 0.0, 10.0, 9.999059 
1.75e+2, 2.2499959e+2, -796426.3, -862512.8, -0.021933196, 0.000003098375, 0.03975052, -796426.3, -61418.668, 0.0, 10.0, 9.999125 
1.75e+2, 2.3499854e+2, -698417.94, -764504.6, -0.041824315, 0.0000030872382, 0.022341043, -698417.94, -61402.063, 0.0, 10.0, 9.999125 
1.75e+2, 2.4499744e+2, -600659.5, -667015.4, -0.078146875, 0.0000030658696, -0.00045494206, -600659.5, -61634.906, 0.0, 10.0, 9.999121 
1.75e+2, 2.5499627e+2, -502633.56, -568970.7, -0.10047667, 0.0000030342644, -0.02881714, -502633.56, -61599.7, 0.0, 10.0, 9.999121 
1.75e+2, 2.6499522e+2, -391583.38, -443882.6, -0.12285945, 0.0000030135086, -0.056387566, -391583.38, -48541.414, 0.0, 10.0, 9.999307 
1.75e+2, 2.7499425e+2, -293542.97, -345805.97, -0.15100688, 0.000003003614, -0.08334962, -293542.97, -48494.004, 0.0, 10.0, 9.999308 
1.75e+2, 2.8499338e+2, -188583.02, -233359.58, -0.11340633, 0.0000029855519, -0.106329516, -188583.02, -41527.87, 0.0, 10.0, 9.999407 
1.75e+2, 2.949926e+2, -90535.17, -135266.58, -0.15866461, 0.0000029593102, -0.12550533, -90535.17, -41474.676, 0.0, 10.0, 9.999407 
1.75e+2, 3.0499196e+2, -22264.643, -46246.46, -0.10192088, 0.0000031634079, -0.14099705, -22264.643, -22264.643, 0.0, 10.0, 9.999682 
1.75e+2, 3.1499153e+2, -22231.158, -46177.17, -0.17424692, 0.0000035982853, -0.15298583, -22231.158, -22231.158, 0.0, 10.0, 9.999682 
1.85e+2, 1.2500638e+2, -1722677.8, -1730934.3, 0.36725357, 0.0000047563112, 0.111544035, -1722677.8, -7730.3477, 0.0, 10.0, 9.99989 
1.85e+2, 1.3500609e+2, -1624727.8, -1633038.5, 0.24280848, 0.000004180369, 0.09412404, -1624727.8, -7778.569, 0.0, 10.0, 9.999889 
1.85e+2, 1.4500567e+2, -1539568.8, -1561679.3, 0.29489675, 0.000003907943, 0.072586454, -1539568.8, -20617.01, 0.0, 10.0, 9.999707 
1.85e+2, 1.5500513e+2, -1441601.3, -1463749.5, 0.21620186, 0.0000039386487, 0.046676356, -1441601.3, -20646.04, 0.0, 10.0, 9.999706 
1.85e+2, 1.6500458e+2, -1363616.3, -1407281.6, 0.25143114, 0.000003957976, 0.035797667, -1363616.3, -40656.867, 0.0, 10.0, 9.999421 
1.85e+2, 1.7500405e+2, -1265635.5, -1309327.8, 0.20179562, 0.0000039659376, 0.03972585, -1265635.5, -40671.063, 0.0, 10.0, 9.999421 
1.85e+2, 1.8500337e+2, -1191555.1, -1260971.8, 0.16211244, 0.0000039891825, 0.048020687, -1191555.1, -64583.727, 0.0, 10.0, 9.99908 
1.85e+2, 1.9500259e+2, -1093573.3, -1163019.0, 0.12278081, 0.0000040276955, 0.06049728, -1093573.3, -64592.92, 0.0, 10.0, 9.99908 
1.85e+2, 2.0500167e+2, -997025.7, -1068043.4, 0.06633691, 0.000004053317, 0.062200908, -997025.7, -66036.26, 0.0, 10.0, 9.999059 
1.85e+2, 2.1500063e+2, -899037.44, -970077.75, 0.03140946, 0.0000040660507, 0.052977104, -899037.44, -66038.586, 0.0, 10.0, 9.999059 
1.85e+2, 2.2499959e+2, -796424.44, -862511.94, -0.03294269, 0.000004065498, 0.039750505, -796424.44, -61416.746, 0.0, 10.0, 9.999125 
1.85e+2, 2.3499854e+2, -698416.06, -764503.75, -0.067830645, 0.0000040516575, 0.022341, -698416.06, -61400.14, 0.0, 10.0, 9.999125 
1.85e+2, 2.4499744e+2, -600657.6, -667014.5, -0.1240799, 0.0000040249865, -0.0004550135, -600657.6, -61633.004, 0.0, 10.0, 9.999121 
1.85e+2, 2.5499627e+2, -502631.66, -568969.8, -0.16327953, 0.0000039854785, -0.028817238, -502631.66, -61597.81, 0.0, 10.0, 9.999121 
1.85e+2, 2.6499522e+2, -391581.5, -443881.8, -0.20266959, 0.000003961242, -0.056387704, -391581.5, -48539.547, 0.0, 10.0, 9.999307 
1.85e+2, 2.7499425e+2, -293541.13, -345805.2, -0.25209492, 0.0000039522934, -0.08334982, -293541.13, -48492.145, 0.0, 10.0, 9.999308 
1.85e+2, 2.8499338e+2, -188581.17, -233358.88, -0.21663739, 0.000003932158, -0.10632974, -188581.17, -41526.035, 0.0, 10.0, 9.999407 
1.85e+2, 2.949926e+2, -90533.29, -135265.84, -0.2950314, 0.00000390082, -0.12550557, -90533.29, -41472.793, 0.0, 10.0, 9.999407 
1.85e+2, 3.0499196e+2, -22262.742, -46245.836, -0.2426047, 0.000004171984, -0.14099742, -22262.742, -22262.742, 0.0, 10.0, 9.999682 
1.85e+2, 3.1499153e+2, -22229.135, -46176.49, -0.36660442, 0.0000047462254, -0.15298639, -22229.135, -22229.135, 0.0, 10.0, 9.999682 
1.95e+2, 1.2500638e+2, -1722678.0, -1730934.8, 0.2933746, 0.000006196088, 0.11154475, -1722678.0, -7730.5796, 0.0, 10.0, 9.99989 
1.95e+2, 1.3500609e+2, -1624728.0, -1633039.0, 0.16894443, 0.000005445184, 0.094124496, -1624728.0, -7778.801, 0.0, 10.0, 9.999889 
1.95e+2, 1.4500567e+2, -1539568.9, -1561679.5, 0.26898628, 0.000005088036, 0.07258677, -1539568.9, -20617.158, 0.0, 10.0, 9.999707 
1.95e+2, 1.5500513e+2, -1441601.4, -1463749.9, 0.19030146, 0.00000512415, 0.04667664, -1441601.4, -20646.186, 0.0, 10.0, 9.999706 
1.95e+2, 1.6500458e+2, -1363616.4, -1407281.9, 0.25723875, 0.0000051449483, 0.0357979, -1363616.4, -40656.957, 0.0, 10.0, 9.999421 
1.95e+2, 1.7500405e+2, -1265635.6, -1309327.9, 0.20760438, 0.0000051504503, 0.039726026, -1265635.6, -40671.156, 0.0, 10.0, 9.999421 
1.95e+2, 1.8500337e+2, -1191555.1, -1260971.9, 0.17077738, 0.00000517701, 0.048020814, -1191555.1, -64583.797, 0.0, 10.0, 9.99908 
1.95e+2, 1.9500259e+2, -1093573.3, -1163019.3, 0.13144535, 0.000005224608, 0.06049737, -1093573.3, -64592.996, 0.0, 10.0, 9.99908 
1.95e+2, 2.0500167e+2, -997025.75, -1068043.6, 0.070206605, 0.0000052562086, 0.06220096, -997025.75, -66036.32, 0.0, 10.0, 9.999059 
1.95e+2, 2.1500063e+2, -899037.5, -970077.9, 0.03527896, 0.0000052718183, 0.052977122, -899037.5, -66038.65, 0.0, 10.0, 9.999059 
1.95e+2, 2.2499959e+2, -796424.5, -862512.1, -0.03714193, 0.000005271117, 0.039750487, -796424.5, -61416.81, 0.0, 10.0, 9.999125 
1.95e+2, 2.3499854e+2, -698416.1, -764503.9, -0.072030425, 0.000005254103, 0.022340944, -698416.1, -61400.207, 0.0, 10.0, 9.999125 
1.95e+2, 2.4499744e+2, -600657.7, -667014.7, -0.13304496, 0.000005221169, -0.00045510326, -600657.7, -61633.08, 0.0, 10.0, 9.999121 
1.95e+2, 2.5499627e+2, -502631.72, -568970.0, -0.17224525, 0.0000051723077, -0.028817363, -502631.72, -61597.88, 0.0, 10.0, 9.999121 
1.95e+2, 2.6499522e+2, -391581.6, -443882.0, -0.20874584, 0.0000051444827, -0.05638788, -391581.6, -48539.637, 0.0, 10.0, 9.999307 
1.95e+2, 2.7499425e+2, -293541.22, -345805.38, -0.25817025, 0.0000051377156, -0.08335005, -293541.22, -48492.234, 0.0, 10.0, 9.999308 
1.95e+2, 2.8499338e+2, -188581.33, -233359.19, -0.19100729, 0.00000511588, -0.10633002, -188581.33, -41526.18, 0.0, 10.0, 9.999407 
1.95e+2, 2.949926e+2, -90533.44, -135266.16, -0.26939067, 0.0000050789545, -0.12550588, -90533.44, -41472.938, 0.0, 10.0, 9.999407 
1.95e+2, 3.0499196e+2, -22262.973, -46246.313, -0.16902696, 0.000005434482, -0.14099787, -22262.973, -22262.973, 0.0, 10.0, 9.999682 
1.95e+2, 3.1499153e+2, -22229.365, -46176.97, -0.29300416, 0.0000061832075, -0.15298712, -22229.365, -22229.365, 0.0, 10.0, 9.999682 
2.05e+2, 1.2500638e+2, -1722674.6, -1730933.6, 0.6101785, 0.000008097268, 0.111545704, -1722674.6, -7727.202, 0.0, 10.0, 9.99989 
2.05e+2, 1.3500609e+2, -1624724.8, -1633038.0, 0.40081924, 0.0000071155046, 0.0941251, -1624724.8, -7775.6284, 0.0, 10.0, 9.999889 
2.05e+2, 1.4500567e+2, -1539565.8, -1561678.4, 0.49472192, 0.000006645668, 0.07258718, -1539565.8, -20614.016, 0.0, 10.0, 9.999707 
2.05e+2, 1.5500513e+2, -1441598.3, -1463748.6, 0.36087057, 0.0000066871225, 0.046677016, -1441598.3, -20643.127, 0.0, 10.0, 9.999706 
2.05e+2, 1.6500458e+2, -1363613.3, -1407280.6, 0.42483822, 0.000006707825, 0.035798218, -1363613.3, -40653.867, 0.0, 10.0, 9.999421 
2.05e+2, 1.7500405e+2, -1265632.5, -1309326.6, 0.33920985, 0.0000067077995, 0.039726257, -1265632.5, -40668.063, 0.0, 10.0, 9.999421 
2.05e+2, 1.8500337e+2, -1191552.0, -1260970.5, 0.27464184, 0.0000067369774, 0.048020978, -1191552.0, -64580.67, 0.0, 10.0, 9.99908 
2.05e+2, 1.9500259e+2, -1093570.1, -1163017.9, 0.20678292, 0.0000067953315, 0.06049749, -1093570.1, -64589.85, 0.0, 10.0, 9.99908 
2.05e+2, 2.0500167e+2, -997022.6, -1068042.1, 0.1128943, 0.0000068339705, 0.06220103, -997022.6, -66033.16, 0.0, 10.0, 9.999059 
2.05e+2, 2.1500063e+2, -899034.3, -970076.5, 0.052675605, 0.0000068529002, 0.052977145, -899034.3, -66035.48, 0.0, 10.0, 9.999059 
2.05e+2, 2.2499959e+2, -796421.3, -862510.7, -0.055178862, 0.0000068520103, 0.039750464, -796421.3, -61413.637, 0.0, 10.0, 9.999125 
2.05e+2, 2.3499854e+2, -698412.94, -764502.5, -0.115332745, 0.000006831299, 0.022340873, -698412.94, -61397.043, 0.0, 10.0, 9.999125 
2.05e+2, 2.4499744e+2, -600654.56, -667013.3, -0.20890298, 0.0000067909673, -0.00045522256, -600654.56, -61629.938, 0.0, 10.0, 9.999121 
2.05e+2, 2.5499627e+2, -502628.6, -568968.6, -0.27654484, 0.000006731008, -0.028817529, -502628.6, -61594.754, 0.0, 10.0, 9.999121 
2.05e+2, 2.6499522e+2, -391578.5, -443880.7, -0.34064233, 0.000006700214, -0.05638811, -391578.5, -48536.547, 0.0, 10.0, 9.999307 
2.05e+2, 2.7499425e+2, -293538.13, -345804.1, -0.42592606, 0.000006698616, -0.08335036, -293538.13, -48489.15, 0.0, 10.0, 9.999308 
2.05e+2, 2.8499338e+2, -188578.27, -233358.03, -0.36159825, 0.000006676582, -0.106330395, -188578.27, -41523.125, 0.0, 10.0, 9.999407 
2.05e+2, 2.949926e+2, -90530.305, -135264.95, -0.49496007, 0.0000066340835, -0.12550628, -90530.305, -41469.805, 0.0, 10.0, 9.999407 
2.05e+2, 3.0499196e+2, -22259.809, -46245.285, -0.40051305, 0.0000071018376, -0.14099847, -22259.809, -22259.809, 0.0, 10.0, 9.999682 
2.05e+2, 3.1499153e+2, -22225.996, -46175.84, -0.6091469, 0.000008080807, -0.15298806, -22225.996, -22225.996, 0.0, 10.0, 9.999682 
2.15e+2, 1.2500638e+2, -1722675.0, -1730934.4, 0.48316056, 0.000010459851, 0.111546874, -1722675.0, -7727.5923, 0.0, 10.0, 9.99989 
2.15e+2, 1.3500609e+2, -1624725.1, -1633038.8, 0.27382556, 0.000009191331, 0.09412585, -1624725.1, -7776.018, 0.0, 10.0, 9.999889 
2.15e+2, 1.4500567e+2, -1539566.0, -1561678.9, 0.44758677, 0.000008580839, 0.07258769, -1539566.0, -20614.266, 0.0, 10.0, 9.999707 
2.15e+2, 1.5500513e+2, -1441598.5, -1463749.1, 0.31375217, 0.000008627567, 0.04667748, -1441598.5, -20643.375, 0.0, 10.0, 9.999706 
2.15e+2, 1.6500458e+2, -1363613.4, -1407280.9, 0.4312111, 0.000008646604, 0.03579861, -1363613.4, -40654.027, 0.0, 10.0, 9.999421 
2.15e+2, 1.7500405e+2, -1265632.6, -1309326.9, 0.345585, 0.000008637985, 0.039726544, -1265632.6, -40668.223, 0.0, 10.0, 9.999421 
2.15e+2, 1.8500337e+2, -1191552.1, -1260970.8, 0.2871854, 0.000008669084, 0.048021186, -1191552.1, -64580.797, 0.0, 10.0, 9.99908 
2.15e+2, 1.9500259e+2, -1093570.3, -1163018.1, 0.21932594, 0.000008739867, 0.060497638, -1093570.3, -64589.98, 0.0, 10.0, 9.99908 
2.15e+2, 2.0500167e+2, -997022.75, -1068042.4, 0.11874934, 0.000008786602, 0.06220112, -997022.75, -66033.27, 0.0, 10.0, 9.999059 
2.15e+2, 2.1500063e+2, -899034.44, -970076.75, 0.058530323, 0.000008809297, 0.052977175, -899034.44, -66035.59, 0.0, 10.0, 9.999059 
2.15e+2, 2.2499959e+2, -796421.44, -862510.94, -0.06156705, 0.000008808178, 0.039750434, -796421.44, -61413.75, 0.0, 10.0, 9.999125 
2.15e+2, 2.3499854e+2, -698413.06, -764502.75, -0.12172175, 0.000008783245, 0.022340782, -698413.06, -61397.156, 0.0, 10.0, 9.999125 
2.15e+2, 2.4499744e+2, -600654.7, -667013.56, -0.22193396, 0.0000087343815, -0.00045537134, -600654.7, -61630.063, 0.0, 10.0, 9.999121 
2.15e+2, 2.5499627e+2, -502628.72, -568968.94, -0.28957665, 0.000008661579, -0.028817736, -502628.72, -61594.88, 0.0, 10.0, 9.999121 
2.15e+2, 2.6499522e+2, -391578.7, -443881.03, -0.34745708, 0.000008628436, -0.056388397, -391578.7, -48536.707, 0.0, 10.0, 9.999307 
2.15e+2, 2.7499425e+2, -293538.28, -345804.4, -0.43273896, 0.000008634994, -0.083350755, -293538.28, -48489.31, 0.0, 10.0, 9.999308 
2.15e+2, 2.8499338e+2, -188578.52, -233358.55, -0.31492758, 0.000008614264, -0.106330864, -188578.52, -41523.375, 0.0, 10.0, 9.999407 
2.15e+2, 2.949926e+2, -90530.55, -135265.47, -0.44827172, 0.000008566208, -0.1255068, -90530.55, -41470.05, 0.0, 10.0, 9.999407 
2.15e+2, 3.0499196e+2, -22260.195, -46246.09, -0.27399448, 0.00000917405, -0.14099921, -22260.195, -22260.195, 0.0, 10.0, 9.999682 
2.15e+2, 3.1499153e+2, -22226.385, -46176.645, -0.48259112, 0.000010439024, -0.15298924, -22226.385, -22226.385, 0.0, 10.0, 9.999682 
2.25e+2, 1.2500638e+2, -1722669.5, -1730932.5, 0.99307513, 0.000013541558, 0.1115484, -1722669.5, -7722.075, 0.0, 10.0, 9.99989 
2.25e+2, 1.3500609e+2, -1624720.0, -1633037.1, 0.64751655, 0.00001189972, 0.09412683, -1624720.0, -7770.8384, 0.0, 10.0, 9.999889 
2.25e+2, 1.4500567e+2, -1539560.9, -1561676.9, 0.81338525, 0.000011104615, 0.07258836, -1539560.9, -20609.14, 0.0, 10.0, 9.999707 
2.25e+2, 1.5500513e+2, -1441593.5, -1463747.3, 0.5898497, 0.0000111552135, 0.046678096, -1441593.5, -20638.395, 0.0, 10.0, 9.999706 
2.25e+2, 1.6500458e+2, -1363608.4, -1407278.9, 0.7037046, 0.000011168663, 0.035799123, -1363608.4, -40649.0, 0.0, 10.0, 9.999421 
2.25e+2, 1.7500405e+2, -1265627.6, -1309324.9, 0.55859625, 0.000011145009, 0.039726924, -1265627.6, -40663.207, 0.0, 10.0, 9.999421 
2.25e+2, 1.8500337e+2, -1191547.1, -1260968.6, 0.45624444, 0.000011175646, 0.048021458, -1191547.1, -64575.73, 0.0, 10.0, 9.99908 
2.25e+2, 1.9500259e+2, -1093565.3, -1163015.9, 0.34120154, 0.000011260525, 0.06049783, -1093565.3, -64584.895, 0.0, 10.0, 9.99908 
2.25e+2, 2.0500167e+2, -997017.6, -1068040.3, 0.1884905, 0.000011316353, 0.06220124, -997017.6, -66028.16, 0.0, 10.0, 9.999059 
2.25e+2, 2.1500063e+2, -899029.3, -970074.5, 0.086459115, 0.00001134314, 0.05297721, -899029.3, -66030.46, 0.0, 10.0, 9.999059 
2.25e+2, 2.2499959e+2, -796416.3, -862508.7, -0.090459704, 0.000011341735, 0.039750393, -796416.3, -61408.62, 0.0, 10.0, 9.999125 
2.25e+2, 2.3499854e+2, -698407.94, -764500.5, -0.19238684, 0.00001131214, 0.022340665, -698407.94, -61392.043, 0.0, 10.0, 9.999125 
2.25e+2, 2.4499744e+2, -600649.6, -667011.4, -0.34458792, 0.000011253637, -0.00045556674, -600649.6, -61624.98, 0.0, 10.0, 9.999121 
2.25e+2, 2.5499627e+2, -502623.66, -568966.75, -0.4592811, 0.000011166218, -0.028818008, -502623.66, -61589.82, 0.0, 10.0, 9.999121 
2.25e+2, 2.6499522e+2, -391573.66, -443878.97, -0.5608957, 0.000011132998, -0.056388773, -391573.66, -48531.695, 0.0, 10.0, 9.999307 
2.25e+2, 2.7499425e+2, -293533.25, -345802.34, -0.7054506, 0.000011154032, -0.08335127, -293533.25, -48484.293, 0.0, 10.0, 9.999308 
2.25e+2, 2.8499338e+2, -188573.55, -233356.67, -0.5910423, 0.000011138431, -0.106331475, -188573.55, -41518.402, 0.0, 10.0, 9.999407 
2.25e+2, 2.949926e+2, -90525.44, -135263.53, -0.8137978, 0.000011086141, -0.12550747, -90525.44, -41464.938, 0.0, 10.0, 9.999407 
2.25e+2, 3.0499196e+2, -22255.027, -46244.418, -0.6470717, 0.000011877875, -0.1410002, -22255.027, -22255.027, 0.0, 10.0, 9.999682 
2.25e+2, 3.1499153e+2, -22220.88, -46174.813, -0.9914725, 0.00001351521, -0.15299076, -22220.88, -22220.88, 0.0, 10.0, 9.999682 
2.35e+2, 1.2500638e+2, -1722670.1, -1730933.9, 0.7787828, 0.000017342385, 0.11155028, -1722670.1, -7722.719, 0.0, 10.0, 9.99989 
2.35e+2, 1.3500609e+2, -1624720.6, -1633038.4, 0.43326253, 0.000015240673, 0.094128035, -1624720.6, -7771.482, 0.0, 10.0, 9.999889 
2.35e+2, 1.4500567e+2, -1539561.3, -1561677.8, 0.72940606, 0.000014216996, 0.0725892, -1539561.3, -20609.557, 0.0, 10.0, 9.999707 
2.35e+2, 1.5500513e+2, -1441594.0, -1463748.1, 0.5058978, 0.000014270061, 0.046678856, -1441594.0, -20638.81, 0.0, 10.0, 9.999706 
2.35e+2, 1.6500458e+2, -1363608.6, -1407279.4, 0.7082031, 0.000014274001, 0.035799764, -1363608.6, -40649.273, 0.0, 10.0, 9.999421 
2.35e+2, 1.7500405e+2, -1265627.9, -1309325.4, 0.563099, 0.000014228872, 0.03972739, -1265627.9, -40663.477, 0.0, 10.0, 9.999421 
2.35e+2, 1.8500337e+2, -1191547.4, -1260969.1, 0.4733176, 0.000014256661, 0.048021793, -1191547.4, -64575.945, 0.0, 10.0, 9.99908 
2.35e+2, 1.9500259e+2, -1093565.4, -1163016.4, 0.35827407, 0.000014357306, 0.060498074, -1093565.4, -64585.11, 0.0, 10.0, 9.99908 
2.35e+2, 2.0500167e+2, -997017.8, -1068040.6, 0.1969764, 0.0000144232245, 0.062201384, -997017.8, -66028.34, 0.0, 10.0, 9.999059 
2.35e+2, 2.1500063e+2, -899029.5, -970074.9, 0.09494447, 0.000014454429, 0.05297726, -899029.5, -66030.66, 0.0, 10.0, 9.999059 
2.35e+2, 2.2499959e+2, -796416.5, -862509.1, -0.09979098, 0.000014452681, 0.039750345, -796416.5, -61408.813, 0.0, 10.0, 9.999125 
2.35e+2, 2.3499854e+2, -698408.1, -764500.94, -0.20171931, 0.000014417982, 0.02234052, -698408.1, -61392.23, 0.0, 10.0, 9.999125 
2.35e+2, 2.4499744e+2, -600649.8, -667011.9, -0.3624372, 0.000014348734, -0.00045580874, -600649.8, -61625.195, 0.0, 10.0, 9.999121 
2.35e+2, 2.5499627e+2, -502623.88, -568967.2, -0.47713122, 0.000014244924, -0.028818345, -502623.88, -61590.03, 0.0, 10.0, 9.999121 
2.35e+2, 2.6499522e+2, -391573.94, -443879.5, -0.5661074, 0.0000142139, -0.056389242, -391573.94, -48531.965, 0.0, 10.0, 9.999307 
2.35e+2, 2.7499425e+2, -293533.53, -345802.9, -0.7106586, 0.000014255731, -0.0833519, -293533.53, -48484.56, 0.0, 10.0, 9.999308 
2.35e+2, 2.8499338e+2, -188573.95, -233357.53, -0.5078182, 0.000014249082, -0.106332235, -188573.95, -41518.816, 0.0, 10.0, 9.999407 
2.35e+2, 2.949926e+2, -90525.85, -135264.39, -0.730545, 0.000014193884, -0.12550831, -90525.85, -41465.35, 0.0, 10.0, 9.999407 
2.35e+2, 3.0499196e+2, -22255.668, -46245.75, -0.43359107, 0.000015213313, -0.1410014, -22255.668, -22255.668, 0.0, 10.0, 9.999682 
2.35e+2, 3.1499153e+2, -22221.521, -46176.14, -0.77793175, 0.000017309369, -0.15299264, -22221.521, -22221.521, 0.0, 10.0, 9.999682 
2.45e+2, 1.2500638e+2, -1722661.4, -1730931.0, 1.5820644, 0.000022238552, 0.111552685, -1722661.4, -7713.883, 0.0, 10.0, 9.99989 
2.45e+2, 1.3500609e+2, -1624712.4, -1633035.8, 1.0227543, 0.000019546405, 0.09412959, -1624712.4, -7763.188, 0.0, 10.0, 9.999889 
2.45e+2, 1.4500567e+2, -1539553.1, -1561674.8, 1.3097175, 0.000018226814, 0.072590284, -1539553.1, -20601.361, 0.0, 10.0, 9.999707 
2.45e+2, 1.5500513e+2, -1441586.0, -1463745.3, 0.94333535, 0.00001827815, 0.04667984, -1441586.0, -20630.855, 0.0, 10.0, 9.999706 
2.45e+2, 1.6500458e+2, -1363600.6, -1407276.1, 1.1419036, 0.000018264247, 0.035800587, -1363600.6, -40641.266, 0.0, 10.0, 9.999421 
2.45e+2, 1.7500405e+2, -1265619.9, -1309322.1, 0.900442, 0.000018185185, 0.039728, -1265619.9, -40655.496, 0.0, 10.0, 9.999421 
2.45e+2, 1.8500337e+2, -1191539.3, -1260965.6, 0.74273986, 0.000018204406, 0.04802223, -1191539.3, -64567.9, 0.0, 10.0, 9.99908 
2.45e+2, 1.9500259e+2, -1093557.4, -1163013.0, 0.55115587, 0.000018321825, 0.06049839, -1093557.4, -64577.047, 0.0, 10.0, 9.99908 
2.45e+2, 2.0500167e+2, -997009.7, -1068037.1, 0.30858284, 0.000018398288, 0.062201574, -997009.7, -66020.234, 0.0, 10.0, 9.999059 
2.45e+2, 2.1500063e+2, -899021.4, -970071.4, 0.13873973, 0.000018433806, 0.052977324, -899021.4, -66022.53, 0.0, 10.0, 9.999059 
2.45e+2, 2.2499959e+2, -796408.4, -862505.6, -0.14499332, 0.000018431636, 0.03975028, -796408.4, -61400.695, 0.0, 10.0, 9.999125 
2.45e+2, 2.3499854e+2, -698400.0, -764497.44, -0.31467223, 0.000018391778, 0.02234033, -698400.0, -61384.13, 0.0, 10.0, 9.999125 
2.45e+2, 2.4499744e+2, -600641.75, -667008.44, -0.5564459, 0.000018311177, -0.00045612265, -600641.75, -61617.14, 0.0, 10.0, 9.999121 
2.45e+2, 2.5499627e+2, -502615.84, -568963.75, -0.747478, 0.00001818982, -0.028818782, -502615.84, -61581.996, 0.0, 10.0, 9.999121 
2.45e+2, 2.6499522e+2, -391565.97, -443876.25, -0.9040545, 0.00001816655, -0.05638985, -391565.97, -48523.996, 0.0, 10.0, 9.999307 
2.45e+2, 2.7499425e+2, -293525.53, -345799.63, -1.1446462, 0.000018241466, -0.08335273, -293525.53, -48476.566, 0.0, 10.0, 9.999308 
2.45e+2, 2.8499338e+2, -188566.02, -233354.58, -0.9452515, 0.000018251958, -0.10633322, -188566.02, -41510.875, 0.0, 10.0, 9.999407 
2.45e+2, 2.949926e+2, -90517.67, -135261.33, -1.310417, 0.000018197934, -0.1255094, -90517.67, -41457.17, 0.0, 10.0, 9.999407 
2.45e+2, 3.0499196e+2, -22247.393, -46243.1, -1.0221319, 0.000019512177, -0.14100295, -22247.393, -22247.393, 0.0, 10.0, 9.999682 
2.45e+2, 3.1499153e+2, -22212.707, -46173.234, -1.5796318, 0.000022197219, -0.15299504, -22212.707, -22212.707, 0.0, 10.0, 9.999682 
2.55e+2, 1.2500638e+2, -1722662.4, -1730933.1, 1.2274909, 0.000028230052, 0.11155563, -1722662.4, -7714.9253, 0.0, 10.0, 9.99989 
2.55e+2, 1.3500609e+2, -1624713.4, -1633037.9, 0.66824, 0.000024816918, 0.09413151, -1624713.4, -7764.23, 0.0, 10.0, 9.999889 
2.55e+2, 1.4500567e+2, -1539553.8, -1561676.1, 1.1632252, 0.00002313407, 0.07259162, -1539553.8, -20602.045, 0.0, 10.0, 9.999707 
2.55e+2, 1.5500513e+2, -1441586.8, -1463746.6, 0.7968867, 0.000023179477, 0.04668105, -1441586.8, -20631.54, 0.0, 10.0, 9.999706 
2.55e+2, 1.6500458e+2, -1363601.1, -1407277.0, 1.1387123, 0.000023139402, 0.035801604, -1363601.1, -40641.715, 0.0, 10.0, 9.999421 
2.55e+2, 1.7500405e+2, -1265620.4, -1309323.1, 0.8972585, 0.000023013945, 0.039728746, -1265620.4, -40655.95, 0.0, 10.0, 9.999421 
2.55e+2, 1.8500337e+2, -1191539.6, -1260966.4, 0.7640082, 0.000023018876, 0.04802277, -1191539.6, -64568.254, 0.0, 10.0, 9.99908 
2.55e+2, 1.9500259e+2, -1093557.8, -1163013.6, 0.57242364, 0.000023154085, 0.060498774, -1093557.8, -64577.402, 0.0, 10.0, 9.99908 
2.55e+2, 2.0500167e+2, -997010.0, -1068037.8, 0.32023606, 0.000023241544, 0.062201805, -997010.0, -66020.555, 0.0, 10.0, 9.999059 
2.55e+2, 2.1500063e+2, -899021.7, -970072.0, 0.15039204, 0.000023281273, 0.0529774, -899021.7, -66022.85, 0.0, 10.0, 9.999059 
2.55e+2, 2.2499959e+2, -796408.7, -862506.25, -0.15795992, 0.000023278599, 0.039750203, -796408.7, -61401.01, 0.0, 10.0, 9.999125 
2.55e+2, 2.3499854e+2, -698400.3, -764498.06, -0.32764047, 0.000023233526, 0.022340097, -698400.3, -61384.44, 0.0, 10.0, 9.999125 
2.55e+2, 2.4499744e+2, -600642.1, -667009.1, -0.5789254, 0.000023140965, -0.00045650848, -600642.1, -61617.496, 0.0, 10.0, 9.999121 
2.55e+2, 2.5499627e+2, -502616.2, -568964.5, -0.7699581, 0.000023000901, -0.028819319, -502616.2, -61582.35, 0.0, 10.0, 9.999121 
2.55e+2, 2.6499522e+2, -391566.4, -443877.2, -0.9019923, 0.00002299095, -0.0563906, -391566.4, -48524.445, 0.0, 10.0, 9.999307 
2.55e+2, 2.7499425e+2, -293525.97, -345800.56, -1.1425772, 0.000023111237, -0.08335374, -293525.97, -48477.01, 0.0, 10.0, 9.999308 
2.55e+2, 2.8499338e+2, -188566.7, -233355.98, -0.7999634, 0.000023147057, -0.106334426, -188566.7, -41511.555, 0.0, 10.0, 9.999407 
2.55e+2, 2.949926e+2, -90518.35, -135262.73, -1.1650834, 0.00002309829, -0.12551072, -90518.35, -41457.85, 0.0, 10.0, 9.999407 
2.55e+2, 3.0499196e+2, -22248.43, -46245.254, -0.66885185, 0.000024774465, -0.14100486, -22248.43, -22248.43, 0.0, 10.0, 9.999682 
2.55e+2, 3.1499153e+2, -22213.742, -46175.387, -1.2262567, 0.000028178762, -0.15299797, -22213.742, -22213.742, 0.0, 10.0, 9.999682 
2.65e+2, 1.2500638e+2, -1722648.5, -1730928.6, 2.465107, 0.000035850535, 0.11155935, -1722648.5, -7701.056, 0.0, 10.0, 9.99989 
2.65e+2, 1.3500609e+2, -1624700.4, -1633033.8, 1.5778263, 0.00003152496, 0.094133936, -1624700.4, -7751.213, 0.0, 10.0, 9.999889 
2.65e+2, 1.4500567e+2, -1539540.9, -1561671.4, 2.0638587, 0.000029378458, 0.07259333, -1539540.9, -20589.195, 0.0, 10.0, 9.999707 
2.65e+2, 1.5500513e+2, -1441574.3, -1463742.0, 1.4747509, 0.000029408511, 0.046682604, -1441574.3, -20619.092, 0.0, 10.0, 9.999706 
2.65e+2, 1.6500458e+2, -1363588.6, -1407272.0, 1.8139423, 0.000029326227, 0.035802905, -1363588.6, -40629.207, 0.0, 10.0, 9.999421 
2.65e+2, 1.7500405e+2, -1265607.9, -1309318.0, 1.4195659, 0.000029131734, 0.039729707, -1265607.9, -40643.516, 0.0, 10.0, 9.999421 
2.65e+2, 1.8500337e+2, -1191527.1, -1260961.1, 1.1840991, 0.000029110592, 0.04802346, -1191527.1, -64555.74, 0.0, 10.0, 9.99908 
2.65e+2, 1.9500259e+2, -1093545.1, -1163008.4, 0.8707973, 0.000029262652, 0.06049927, -1093545.1, -64564.883, 0.0, 10.0, 9.99908 
2.65e+2, 2.0500167e+2, -996997.44, -1068032.4, 0.49507084, 0.000029360082, 0.062202103, -996997.44, -66007.97, 0.0, 10.0, 9.999059 
2.65e+2, 2.1500063e+2, -899009.1, -970066.6, 0.21738718, 0.0000294029, 0.052977502, -899009.1, -66010.26, 0.0, 10.0, 9.999059 
2.65e+2, 2.2499959e+2, -796396.06, -862500.9, -0.22694054, 0.000029399615, 0.039750103, -796396.06, -61388.418, 0.0, 10.0, 9.999125 
2.65e+2, 2.3499854e+2, -698387.75, -764492.7, -0.50437087, 0.000029350233, 0.022339799, -698387.75, -61371.867, 0.0, 10.0, 9.999125 
2.65e+2, 2.4499744e+2, -600629.6, -667003.9, -0.878872, 0.000029246528, -0.0004570029, -600629.6, -61604.98, 0.0, 10.0, 9.999121 
2.65e+2, 2.5499627e+2, -502603.7, -568959.25, -1.1913215, 0.000029088491, -0.028820008, -502603.7, -61569.848, 0.0, 10.0, 9.999121 
2.65e+2, 2.6499522e+2, -391554.0, -443872.13, -1.4251161, 0.00002910342, -0.056391556, -391554.0, -48512.03, 0.0, 10.0, 9.999307 
2.65e+2, 2.7499425e+2, -293513.5, -345795.47, -1.8181549, 0.000029291477, -0.08335505, -293513.5, -48464.523, 0.0, 10.0, 9.999308 
2.65e+2, 2.8499338e+2, -188554.28, -233351.42, -1.4777675, 0.00002936846, -0.106335975, -188554.28, -41499.13, 0.0, 10.0, 9.999407 
2.65e+2, 2.949926e+2, -90505.53, -135257.97, -2.0650194, 0.000029334216, -0.12551244, -90505.53, -41445.03, 0.0, 10.0, 9.999407 
2.65e+2, 3.0499196e+2, -22235.441, -46241.137, -1.5769925, 0.000031472402, -0.14100729, -22235.441, -22235.441, 0.0, 10.0, 9.999682 
2.65e+2, 3.1499153e+2, -22199.908, -46170.863, -2.4615018, 0.000035787, -0.15300167, -22199.906, -22199.906, 0.0, 10.0, 9.999682 
2.75e+2, 1.2500638e+2, -1722650.1, -1730932.0, 1.8900551, 0.000045099994, 0.11156384, -1722650.1, -7702.7104, 0.0, 10.0, 9.99989 
2.75e+2, 1.3500609e+2, -1624702.0, -1633037.3, 1.0028635, 0.00003967053, 0.094136894, -1624702.0, -7752.866, 0.0, 10.0, 9.999889 
2.75e+2, 1.4500567e+2, -1539542.0, -1561673.6, 1.8137628, 0.00003695998, 0.07259542, -1539542.0, -20590.295, 0.0, 10.0, 9.999707 
2.75e+2, 1.5500513e+2, -1441575.4, -1463744.4, 1.2247231, 0.00003696525, 0.046684492, -1441575.4, -20620.19, 0.0, 10.0, 9.999706 
2.75e+2, 1.6500458e+2, -1363589.4, -1407273.5, 1.7910084, 0.00003682472, 0.035804488, -1363589.4, -40629.94, 0.0, 10.0, 9.999421 
2.75e+2, 1.7500405e+2, -1265608.6, -1309319.5, 1.396646, 0.000036538546, 0.039730873, -1265608.6, -40644.25, 0.0, 10.0, 9.999421 
2.75e+2, 1.8500337e+2, -1191527.8, -1260962.3, 1.2068831, 0.000036479545, 0.0480243, -1191527.8, -64556.32, 0.0, 10.0, 9.99908 
2.75e+2, 1.9500259e+2, -1093545.8, -1163009.6, 0.8935811, 0.00003664753, 0.060499873, -1093545.8, -64565.465, 0.0, 10.0, 9.99908 
2.75e+2, 2.0500167e+2, -996997.94, -1068033.4, 0.5099453, 0.000036753903, 0.062202465, -996997.94, -66008.484, 0.0, 10.0, 9.999059 
2.75e+2, 2.1500063e+2, -899009.6, -970067.7, 0.23226021, 0.000036798687, 0.05297762, -899009.6, -66010.77, 0.0, 10.0, 9.999059 
2.75e+2, 2.2499959e+2, -796396.6, -862501.94, -0.24381372, 0.000036794685, 0.039749984, -796396.6, -61388.934, 0.0, 10.0, 9.999125 
2.75e+2, 2.3499854e+2, -698388.25, -764493.75, -0.52124614, 0.000036741894, 0.022339435, -698388.25, -61372.383, 0.0, 10.0, 9.999125 
2.75e+2, 2.4499744e+2, -600630.2, -667005.06, -0.90350765, 0.00003662787, -0.00045760584, -600630.2, -61605.563, 0.0, 10.0, 9.999121 
2.75e+2, 2.5499627e+2, -502604.28, -568960.44, -1.2159568, 0.00003645259, -0.02882085, -502604.28, -61570.43, 0.0, 10.0, 9.999121 
2.75e+2, 2.6499522e+2, -391554.72, -443873.66, -1.403935, 0.00003650396, -0.05639272, -391554.72, -48512.76, 0.0, 10.0, 9.999307 
2.75e+2, 2.7499425e+2, -293514.22, -345797.0, -1.7969617, 0.000036782192, -0.08335663, -293514.22, -48465.254, 0.0, 10.0, 9.999308 
2.75e+2, 2.8499338e+2, -188555.36, -233353.69, -1.2295544, 0.00003691617, -0.10633786, -188555.36, -41500.22, 0.0, 10.0, 9.999407 
2.75e+2, 2.949926e+2, -90506.62, -135260.23, -1.8167356, 0.000036905712, -0.1255145, -90506.62, -41446.12, 0.0, 10.0, 9.999407 
2.75e+2, 3.0499196e+2, -22237.084, -46244.55, -1.00396, 0.000039605988, -0.14101024, -22237.084, -22237.084, 0.0, 10.0, 9.999682 
2.75e+2, 3.1499153e+2, -22201.55, -46174.277, -1.8883227, 0.000045021938, -0.15300615, -22201.55, -22201.55, 0.0, 10.0, 9.999682 
2.85e+2, 1.2500638e+2, -1722628.9, -1730925.1, 3.7534978, 0.0000567125, 0.11156945, -1722628.9, -7681.389, 0.0, 10.0, 9.99989 
2.85e+2, 1.3500609e+2, -1624682.0, -1633030.9, 2.3746593, 0.000049906754, 0.09414061, -1624682.0, -7732.8535, 0.0, 10.0, 9.999889 
2.85e+2, 1.4500567e+2, -1539522.3, -1561666.4, 3.1801453, 0.000046486806, 0.07259806, -1539522.3, -20570.563, 0.0, 10.0, 9.999707 
2.85e+2, 1.5500513e+2, -1441556.3, -1463737.4, 2.2513275, 0.00004644885, 0.046686884, -1441556.3, -20601.105, 0.0, 10.0, 9.999706 
2.85e+2, 1.6500458e+2, -1363570.3, -1407265.8, 2.818538, 0.00004622132, 0.035806492, -1363570.3, -40610.805, 0.0, 10.0, 9.999421 
2.85e+2, 1.7500405e+2, -1265589.8, -1309311.9, 2.1865602, 0.000045804427, 0.039732352, -1265589.8, -40625.28, 0.0, 10.0, 9.999421 
2.85e+2, 1.8500337e+2, -1191508.6, -1260954.4, 1.8472626, 0.000045685487, 0.048025366, -1191508.6, -64537.25, 0.0, 10.0, 9.99908 
2.85e+2, 1.9500259e+2, -1093526.8, -1163001.6, 1.344307, 0.000045864253, 0.060500637, -1093526.8, -64546.418, 0.0, 10.0, 9.99908 
2.85e+2, 2.0500167e+2, -996978.8, -1068025.3, 0.7778711, 0.000045975434, 0.062202923, -996978.8, -65989.36, 0.0, 10.0, 9.999059 
2.85e+2, 2.1500063e+2, -898990.5, -970059.56, 0.33209005, 0.000046019053, 0.052977774, -898990.5, -65991.64, 0.0, 10.0, 9.999059 
2.85e+2, 2.2499959e+2, -796377.5, -862493.75, -0.3463395, 0.00004601419, 0.03974983, -796377.5, -61369.805, 0.0, 10.0, 9.999125 
2.85e+2, 2.3499854e+2, -698369.1, -764485.6, -0.79173815, 0.000045960845, 0.022338977, -698369.1, -61353.266, 0.0, 10.0, 9.999125 
2.85e+2, 2.4499744e+2, -600611.1, -666997.1, -1.3563381, 0.000045840356, -0.0004583689, -600611.1, -61586.527, 0.0, 10.0, 9.999121 
2.85e+2, 2.5499627e+2, -502585.22, -568952.44, -1.858006, 0.00004565271, -0.028821914, -502585.22, -61551.375, 0.0, 10.0, 9.999121 
2.85e+2, 2.6499522e+2, -391535.78, -443866.03, -2.1948917, 0.0000457623, -0.056394197, -391535.78, -48493.813, 0.0, 10.0, 9.999307 
2.85e+2, 2.7499425e+2, -293495.13, -345789.3, -2.82486, 0.00004616941, -0.08335862, -293495.13, -48446.15, 0.0, 10.0, 9.999308 
2.85e+2, 2.8499338e+2, -188536.31, -233346.75, -2.2559774, 0.00004638887, -0.10634025, -188536.31, -41481.168, 0.0, 10.0, 9.999407 
2.85e+2, 2.949926e+2, -90486.93, -135253.0, -3.182028, 0.000046420413, -0.12551714, -90486.93, -41426.426, 0.0, 10.0, 9.999407 
2.85e+2, 3.0499196e+2, -22217.115, -46238.28, -2.3735988, 0.000049827697, -0.14101395, -22217.115, -22217.115, 0.0, 10.0, 9.999682 
2.85e+2, 3.1499153e+2, -22180.28, -46167.383, -3.7482853, 0.000056616842, -0.15301175, -22180.28, -22180.28, 0.0, 10.0, 9.999682 
2.95e+2, 1.2500638e+2, -1722631.4, -1730930.4, 2.8399475, 0.000070688046, 0.11157618, -1722631.4, -7683.9595, 0.0, 10.0, 9.99989 
2.95e+2, 1.3500609e+2, -1624684.6, -1633036.3, 1.4612391, 0.00006223364, 0.09414508, -1624684.6, -7735.423, 0.0, 10.0, 9.999889 
2.95e+2, 1.4500567e+2, -1539524.0, -1561669.9, 2.7624567, 0.000057958936, 0.07260126, -1539524.0, -20572.293, 0.0, 10.0, 9.999706 
2.95e+2, 1.5500513e+2, -1441558.0, -1463741.0, 1.8337427, 0.000057859306, 0.04668977, -1441558.0, -20602.836, 0.0, 10.0, 9.999706 
2.95e+2, 1.6500458e+2, -1363571.4, -1407268.3, 2.753002, 0.000057516027, 0.035808913, -1363571.4, -40611.984, 0.0, 10.0, 9.999421 
2.95e+2, 1.7500405e+2, -1265590.9, -1309314.4, 2.1210485, 0.000056929373, 0.039734144, -1265590.9, -40626.457, 0.0, 10.0, 9.999421 
2.95e+2, 1.8500337e+2, -1191509.6, -1260956.3, 1.8641726, 0.000056728408, 0.04802666, -1191509.6, -64538.188, 0.0, 10.0, 9.99908 
2.95e+2, 1.9500259e+2, -1093527.6, -1163003.6, 1.361218, 0.00005691282, 0.06050156, -1093527.6, -64547.35, 0.0, 10.0, 9.99908 
2.95e+2, 2.0500167e+2, -996979.6, -1068027.0, 0.7948362, 0.000057024678, 0.06220348, -996979.6, -65990.19, 0.0, 10.0, 9.999059 
2.95e+2, 2.1500063e+2, -898991.3, -970061.25, 0.34905306, 0.000057064, 0.05297796, -898991.3, -65992.47, 0.0, 10.0, 9.999059 
2.95e+2, 2.2499959e+2, -796378.3, -862495.5, -0.3662832, 0.00005705813, 0.039749645, -796378.3, -61370.633, 0.0, 10.0, 9.999125 
2.95e+2, 2.3499854e+2, -698370.0, -764487.3, -0.81168425, 0.00005700708, 0.022338422, -698370.0, -61354.094, 0.0, 10.0, 9.999125 
2.95e+2, 2.4499744e+2, -600612.06, -666999.06, -1.3760211, 0.000056883986, -0.00045929197, -600612.06, -61587.46, 0.0, 10.0, 9.999121 
2.95e+2, 2.5499627e+2, -502586.16, -568954.4, -1.8776864, 0.00005668884, -0.028823202, -502586.16, -61552.31, 0.0, 10.0, 9.999121 
2.95e+2, 2.6499522e+2, -391536.94, -443868.47, -2.1320233, 0.00005687844, -0.056395985, -391536.94, -48494.984, 0.0, 10.0, 9.999307 
2.95e+2, 2.7499425e+2, -293496.28, -345791.72, -2.76197, 0.000057453144, -0.08336104, -293496.28, -48447.316, 0.0, 10.0, 9.999308 
2.95e+2, 2.8499338e+2, -188538.03, -233350.33, -1.8411746, 0.00005778654, -0.106343135, -188538.03, -41482.887, 0.0, 10.0, 9.999407 
2.95e+2, 2.949926e+2, -90488.65, -135256.58, -2.767118, 0.000057878315, -0.12552033, -90488.65, -41428.15, 0.0, 10.0, 9.999407 
2.95e+2, 3.0499196e+2, -22219.67, -46243.586, -1.4631361, 0.00006213753, -0.1410184, -22219.668, -22219.668, 0.0, 10.0, 9.999682 
2.95e+2, 3.1499153e+2, -22182.834, -46172.688, -2.8376012, 0.00007057171, -0.15301846, -22182.834, -22182.834, 0.0, 10.0, 9.999682 
3.05e+2, 1.2500638e+2, -1722599.3, -1730920.1, 5.57965, 0.00008800353, 0.111584455, -1722599.3, -7651.8706, 0.0, 10.000001, 9.99989 
3.05e+2, 1.3500609e+2, -1624654.4, -1633026.9, 3.4818287, 0.000077525474, 0.09415063, -1624654.4, -7705.2944, 0.0, 10.000001, 9.999889 
3.05e+2, 1.4500567e+2, -1539494.4, -1561659.1, 4.7872577, 0.000072192095, 0.072605245, -1539494.4, -20542.62, 0.0, 10.000001, 9.999706 
3.05e+2, 1.5500513e+2, -1441529.4, -1463730.6, 3.3519711, 0.0000719978, 0.046693377, -1441529.4, -20574.184, 0.0, 10.000001, 9.999706 
3.05e+2, 1.6500458e+2, -1363542.8, -1407256.8, 4.2800236, 0.00007149017, 0.03581193, -1363542.8, -40583.316, 0.0, 10.000001, 9.999421 
3.05e+2, 1.7500405e+2, -1265562.5, -1309303.1, 3.2868185, 0.000070669565, 0.03973638, -1265562.5, -40598.113, 0.0, 10.000001, 9.999421 
3.05e+2, 1.8500337e+2, -1191481.1, -1260944.5, 2.8177662, 0.000070348004, 0.04802827, -1191481.1, -64509.734, 0.0, 10.000001, 9.99908 
3.05e+2, 1.9500259e+2, -1093499.3, -1162991.9, 2.0254102, 0.0000705251, 0.060502715, -1093499.3, -64518.99, 0.0, 10.000001, 9.99908 
3.05e+2, 2.0500167e+2, -996951.2, -1068015.0, 1.1962073, 0.000070627786, 0.062204175, -996951.2, -65961.734, 0.0, 10.000001, 9.999059 
3.05e+2, 2.1500063e+2, -898962.9, -970049.25, 0.49370185, 0.00007065608, 0.05297819, -898962.9, -65964.02, 0.0, 10.000001, 9.999059 
3.05e+2, 2.2499959e+2, -796349.9, -862483.5, -0.51443183, 0.000070649025, 0.039749414, -796349.9, -61342.188, 0.0, 10.000001, 9.999125 
3.05e+2, 2.3499854e+2, -698341.56, -764475.3, -1.2163727, 0.000070606635, 0.022337727, -698341.56, -61325.65, 0.0, 10.000001, 9.999125 
3.05e+2, 2.4499744e+2, -600583.75, -666987.3, -2.0428886, 0.00007049043, -0.00046044547, -600583.75, -61559.113, 0.0, 10.000001, 9.999121 
3.05e+2, 2.5499627e+2, -502557.75, -568942.6, -2.833343, 0.00007030042, -0.028824814, -502557.75, -61523.883, 0.0, 10.000001, 9.999121 
3.05e+2, 2.6499522e+2, -391508.63, -443857.25, -3.2990274, 0.00007060821, -0.056398217, -391508.63, -48466.67, 0.0, 10.000001, 9.999307 
3.05e+2, 2.7499425e+2, -293467.66, -345780.34, -4.2892833, 0.00007141425, -0.083364055, -293467.66, -48418.69, 0.0, 10.000001, 9.999308 
3.05e+2, 2.8499338e+2, -188509.44, -233340.05, -3.3589845, 0.00007190982, -0.106346734, -188509.44, -41454.285, 0.0, 10.000001, 9.999407 
3.05e+2, 2.949926e+2, -90459.03, -135245.81, -4.7902412, 0.00007209451, -0.12552433, -90459.03, -41398.527, 0.0, 10.000001, 9.999407 
3.05e+2, 3.0499196e+2, -22189.604, -46234.25, -3.4805648, 0.000077409, -0.14102395, -22189.604, -22189.604, 0.0, 10.000001, 9.999682 
3.05e+2, 3.1499153e+2, -22150.818, -46162.41, -5.5723, 0.00008786251, -0.15302671, -22150.818, -22150.818, 0.0, 10.000001, 9.999682 
3.15e+2, 1.2500638e+2, -1722603.3, -1730928.3, 4.1590033, 0.000108658955, 0.11159428, -1722603.3, -7655.782, 0.0, 10.000001, 9.99989 
3.15e+2, 1.3500609e+2, -1624658.4, -1633035.0, 2.061367, 0.00009578225, 0.094157256, -1624658.4, -7709.204, 0.0, 10.000001, 9.999889 
3.15e+2, 1.4500567e+2, -1539497.0, -1561664.6, 4.105184, 0.00008918628, 0.072610036, -1539497.0, -20545.295, 0.0, 10.000001, 9.999706 
3.15e+2, 1.5500513e+2, -1441532.0, -1463736.3, 2.670052, 0.00008886432, 0.046697695, -1441532.0, -20576.857, 0.0, 10.000001, 9.999706 
3.15e+2, 1.6500458e+2, -1363544.5, -1407260.6, 4.131328, 0.00008814375, 0.03581555, -1363544.5, -40585.164, 0.0, 10.000001, 9.999421 
3.15e+2, 1.7500405e+2, -1265564.4, -1309307.0, 3.1381645, 0.00008702499, 0.03973906, -1265564.4, -40599.96, 0.0, 10.000001, 9.999421 
3.15e+2, 1.8500337e+2, -1191482.6, -1260947.5, 2.812885, 0.00008654427, 0.04803021, -1191482.6, -64511.21, 0.0, 10.000001, 9.99908 
3.15e+2, 1.9500259e+2, -1093500.8, -1162994.9, 2.0205324, 0.000086701075, 0.0605041, -1093500.8, -64520.465, 0.0, 10.000001, 9.99908 
3.15e+2, 2.0500167e+2, -996952.5, -1068017.6, 1.2117512, 0.00008678475, 0.062205005, -996952.5, -65963.04, 0.0, 10.000001, 9.999059 
3.15e+2, 2.1500063e+2, -898964.2, -970052.0, 0.50924265, 0.0000867953, 0.05297847, -898964.2, -65965.33, 0.0, 10.000001, 9.999059 
3.15e+2, 2.2499959e+2, -796351.2, -862486.2, -0.5343217, 0.00008678687, 0.039749138, -796351.2, -61343.492, 0.0, 10.000001, 9.999125 
3.15e+2, 2.3499854e+2, -698342.9, -764478.06, -1.2362647, 0.0000867595, 0.022336897, -698342.9, -61326.953, 0.0, 10.000001, 9.999125 
3.15e+2, 2.4499744e+2, -600585.2, -666990.4, -2.0420742, 0.00008665968, -0.00046182936, -600585.2, -61560.582, 0.0, 10.000001, 9.999121 
3.15e+2, 2.5499627e+2, -502559.22, -568945.7, -2.832521, 0.00008648743, -0.028826747, -502559.22, -61525.35, 0.0, 10.000001, 9.999121 
3.15e+2, 2.6499522e+2, -391510.47, -443861.06, -3.1543102, 0.00008695159, -0.05640089, -391510.47, -48468.51, 0.0, 10.000001, 9.999307 
3.15e+2, 2.7499425e+2, -293469.5, -345784.16, -4.1445303, 0.00008805273, -0.08336767, -293469.5, -48420.527, 0.0, 10.000001, 9.999308 
3.15e+2, 2.8499338e+2, -188512.1, -233345.58, -2.6812449, 0.0000887587, -0.10635104, -188512.1, -41456.94, 0.0, 10.000001, 9.999407 
3.15e+2, 2.949926e+2, -90461.695, -135251.33, -4.1123433, 0.00008906899, -0.1255291, -90461.695, -41401.188, 0.0, 10.000001, 9.999407 
3.15e+2, 3.0499196e+2, -22193.49, -46242.32, -2.06454, 0.00009564211, -0.14103055, -22193.49, -22193.49, 0.0, 10.000001, 9.999681 
3.15e+2, 3.1499153e+2, -22154.707, -46170.484, -4.15595, 0.000108489214, -0.15303653, -22154.705, -22154.705, 0.0, 10.000001, 9.999682 
3.25e+2, 1.2500638e+2, -1722556.0, -1730913.1, 8.088851, 0.00013390841, 0.11160621, -1722556.0, -7608.528, 0.0, 10.000001, 9.99989 
3.25e+2, 1.3500609e+2, -1624614.0, -1633021.4, 4.9658017, 0.00011813516, 0.094165355, -1624614.0, -7664.8135, 0.0, 10.000001, 9.999889 
3.25e+2, 1.4500567e+2, -1539453.4, -1561649.0, 7.0334253, 0.000110000234, 0.07261593, -1539453.4, -20501.617, 0.0, 10.000001, 9.999706 
3.25e+2, 1.5500513e+2, -1441489.9, -1463721.3, 4.860663, 0.00010949558, 0.04670301, -1441489.9, -20534.754, 0.0, 10.000001, 9.999706 
3.25e+2, 1.6500458e+2, -1363502.5, -1407244.1, 6.345468, 0.00010848408, 0.03582, -1363502.5, -40543.125, 0.0, 10.000001, 9.999421 
3.25e+2, 1.7500405e+2, -1265522.9, -1309290.8, 4.8153048, 0.00010696627, 0.039742365, -1265522.9, -40558.51, 0.0, 10.000001, 9.999421 
3.25e+2, 1.8500337e+2, -1191441.0, -1260930.5, 4.198832, 0.00010626285, 0.048032604, -1191441.0, -64469.68, 0.0, 10.000001, 9.99908 
3.25e+2, 1.9500259e+2, -1093459.4, -1162978.0, 2.9742117, 0.00010637318, 0.06050581, -1093459.4, -64479.137, 0.0, 10.000001, 9.99908 
3.25e+2, 2.0500167e+2, -996911.06, -1068000.4, 1.7991165, 0.000106418425, 0.062206034, -996911.06, -65921.625, 0.0, 10.000001, 9.999059 
3.25e+2, 2.1500063e+2, -898922.8, -970034.7, 0.7126094, 0.0001063986, 0.052978814, -898922.8, -65923.945, 0.0, 10.000001, 9.999059 
3.25e+2, 2.2499959e+2, -796309.8, -862468.94, -0.7419882, 0.00010638859, 0.039748795, -796309.8, -61302.117, 0.0, 10.000001, 9.999125 
3.25e+2, 2.3499854e+2, -698301.44, -764460.75, -1.8276802, 0.00010638842, 0.022335872, -698301.44, -61285.555, 0.0, 10.000001, 9.999125 
3.25e+2, 2.4499744e+2, -600543.9, -666973.44, -2.998937, 0.00010632396, -0.0004635368, -600543.9, -61519.28, 0.0, 10.000001, 9.999121 
3.25e+2, 2.5499627e+2, -502517.72, -568928.7, -4.2208133, 0.00010619524, -0.028829135, -502517.72, -61483.86, 0.0, 10.000001, 9.999121 
3.25e+2, 2.6499522e+2, -391469.06, -443844.84, -4.832749, 0.00010687881, -0.056404192, -391469.06, -48427.105, 0.0, 10.000001, 9.999307 
3.25e+2, 2.7499425e+2, -293427.53, -345767.7, -6.3586903, 0.00010837538, -0.08337211, -293427.53, -48378.547, 0.0, 10.000001, 9.999308 
3.25e+2, 2.8499338e+2, -188470.06, -233330.66, -4.871005, 0.000109369255, -0.106356345, -188470.06, -41414.902, 0.0, 10.000001, 9.999406 
3.25e+2, 2.949926e+2, -90418.1, -135235.67, -7.038041, 0.00010985979, -0.12553498, -90418.09, -41357.59, 0.0, 10.000001, 9.999407 
3.25e+2, 3.0499196e+2, -22149.19, -46228.707, -4.9644237, 0.000117967174, -0.14103864, -22149.188, -22149.188, 0.0, 10.000001, 9.999681 
3.25e+2, 3.1499153e+2, -22107.559, -46155.5, -8.078749, 0.00013370489, -0.15304843, -22107.555, -22107.555, 0.0, 10.000001, 9.999682 
3.35e+2, 1.2500638e+2, -1722561.8, -1730925.3, 5.9278874, 0.0001637519, 0.11162024, -1722561.8, -7614.3525, 0.0, 10.000001, 9.99989 
3.35e+2, 1.3500609e+2, -1624619.8, -1633033.4, 2.8050916, 0.00014458422, 0.09417494, -1624619.8, -7670.635, 0.0, 10.000001, 9.999889 
3.35e+2, 1.4500567e+2, -1539457.4, -1561657.4, 5.9450145, 0.00013463396, 0.07262294, -1539457.4, -20505.668, 0.0, 10.000001, 9.999706 
3.35e+2, 1.5500513e+2, -1441494.0, -1463729.6, 3.772476, 0.00013389156, 0.046709325, -1441494.0, -20538.8, 0.0, 10.000001, 9.999706 
3.35e+2, 1.6500458e+2, -1363505.4, -1407250.0, 6.045567, 0.00013251115, 0.03582529, -1363505.4, -40545.977, 0.0, 10.000001, 9.999421 
3.35e+2, 1.7500405e+2, -1265525.8, -1309296.6, 4.5154705, 0.00013049338, 0.0397463, -1265525.8, -40561.36, 0.0, 10.000001, 9.999421 
3.35e+2, 1.8500337e+2, -1191443.4, -1260935.3, 4.141959, 0.00012950374, 0.04803545, -1191443.4, -64471.96, 0.0, 10.000001, 9.99908 
3.35e+2, 1.9500259e+2, -1093461.8, -1162982.6, 2.9173472, 0.00012954141, 0.060507845, -1093461.8, -64481.414, 0.0, 10.000001, 9.99908 
3.35e+2, 2.0500167e+2, -996913.06, -1068004.6, 1.805461, 0.00012952882, 0.062207256, -996913.06, -65923.64, 0.0, 10.000001, 9.999059 
3.35e+2, 2.1500063e+2, -898924.8, -970038.9, 0.7189497, 0.00012946599, 0.05297922, -898924.8, -65925.97, 0.0, 10.000001, 9.999059 
3.35e+2, 2.2499959e+2, -796311.8, -862473.1, -0.7545407, 0.00012945416, 0.039748393, -796311.8, -61304.137, 0.0, 10.000001, 9.999125 
3.35e+2, 2.3499854e+2, -698303.44, -764464.94, -1.8402334, 0.00012949339, 0.022334652, -698303.44, -61287.57, 0.0, 10.000001, 9.999125 
3.35e+2, 2.4499744e+2, -600546.2, -666978.2, -2.9479039, 0.00012948326, -0.00046556772, -600546.2, -61521.55, 0.0, 10.000001, 9.999121 
3.35e+2, 2.5499627e+2, -502519.97, -568933.4, -4.169764, 0.00012942385, -0.028831976, -502519.97, -61486.13, 0.0, 10.000001, 9.999121 
3.35e+2, 2.6499522e+2, -391471.9, -443850.72, -4.5386596, 0.00013038986, -0.056408115, -391471.9, -48429.938, 0.0, 10.000001, 9.999307 
3.35e+2, 2.7499425e+2, -293430.34, -345773.56, -6.0645423, 0.00013238219, -0.08337738, -293430.34, -48381.383, 0.0, 10.000001, 9.999308 
3.35e+2, 2.8499338e+2, -188474.08, -233339.03, -3.7889698, 0.00013374149, -0.10636265, -188474.08, -41418.93, 0.0, 10.000001, 9.999406 
3.35e+2, 2.949926e+2, -90422.125, -135244.03, -5.9557776, 0.00013446691, -0.12554199, -90422.125, -41361.613, 0.0, 10.000001, 9.999407 
3.35e+2, 3.0499196e+2, -22154.977, -46240.723, -2.8102295, 0.00014438419, -0.1410482, -22154.975, -22154.975, 0.0, 10.000001, 9.999681 
3.35e+2, 3.1499153e+2, -22113.346, -46167.52, -5.9240894, 0.00016350953, -0.15306243, -22113.344, -22113.344, 0.0, 10.000001, 9.999682 
3.45e+2, 1.2500638e+2, -1722493.8, -1730903.8, 11.422635, 0.00019973685, 0.11163701, -1722493.8, -7546.3022, 0.0, 10.000002, 9.99989 
3.45e+2, 1.3500609e+2, -1624555.8, -1633013.9, 6.87596, 0.00017653994, 0.09418649, -1624555.8, -7606.6543, 0.0, 10.000002, 9.999889 
3.45e+2, 1.4500567e+2, -1539394.5, -1561635.0, 10.074131, 0.0001644138, 0.07263146, -1539394.5, -20442.775, 0.0, 10.000001, 9.999706 
3.45e+2, 1.5500513e+2, -1441433.4, -1463708.5, 6.853481, 0.0001633472, 0.04671699, -1441433.4, -20478.26, 0.0, 10.000001, 9.999706 
3.45e+2, 1.6500458e+2, -1363445.0, -1407226.6, 9.174883, 0.00016147878, 0.03583171, -1363445.0, -40485.664, 0.0, 10.000001, 9.999421 
3.45e+2, 1.7500405e+2, -1265466.5, -1309273.8, 6.8648667, 0.00015880933, 0.039751086, -1265466.5, -40502.05, 0.0, 10.000001, 9.999421 
3.45e+2, 1.8500337e+2, -1191384.0, -1260911.3, 6.1061897, 0.0001574342, 0.048038926, -1191384.0, -64412.65, 0.0, 10.000001, 9.99908 
3.45e+2, 1.9500259e+2, -1093402.8, -1162958.9, 4.2498965, 0.0001573524, 0.060510326, -1093402.8, -64422.51, 0.0, 10.000001, 9.99908 
3.45e+2, 2.0500167e+2, -996854.1, -1067980.3, 2.6444962, 0.00015724773, 0.062208746, -996854.1, -65864.67, 0.0, 10.000001, 9.999059 
3.45e+2, 2.1500063e+2, -898865.94, -970014.56, 0.995645, 0.0001571202, 0.05297972, -898865.94, -65867.09, 0.0, 10.000001, 9.999059 
3.45e+2, 2.2499959e+2, -796252.94, -862448.8, -1.0361462, 0.00015710629, 0.039747898, -796252.94, -61245.266, 0.0, 10.000001, 9.999125 
3.45e+2, 2.3499854e+2, -698244.5, -764440.56, -2.6838477, 0.00015720607, 0.02233317, -698244.5, -61228.62, 0.0, 10.000001, 9.999125 
3.45e+2, 2.4499744e+2, -600487.3, -666954.4, -4.2838984, 0.00015728403, -0.0004680414, -600487.3, -61462.684, 0.0, 10.000001, 9.999121 
3.45e+2, 2.5499627e+2, -502460.72, -568909.4, -6.1363277, 0.00015734023, -0.028835438, -502460.72, -61426.87, 0.0, 10.000001, 9.999121 
3.45e+2, 2.6499522e+2, -391412.66, -443827.88, -6.889136, 0.00015868734, -0.056412887, -391412.66, -48370.695, 0.0, 10.000001, 9.999307 
3.45e+2, 2.7499425e+2, -293370.13, -345750.22, -9.19326, 0.00016132646, -0.08338379, -293370.13, -48321.15, 0.0, 10.000001, 9.999307 
3.45e+2, 2.8499338e+2, -188413.64, -233317.89, -6.86838, 0.00016316967, -0.1063703, -188413.64, -41358.477, 0.0, 10.000001, 9.999406 
3.45e+2, 2.949926e+2, -90359.34, -135221.78, -10.081095, 0.00016421595, -0.12555048, -90359.34, -41298.83, 0.0, 10.000001, 9.999407 
3.45e+2, 3.0499196e+2, -22091.121, -46221.313, -6.874654, 0.00017630275, -0.14105973, -22091.12, -22091.12, 0.0, 10.000002, 9.999681 
3.45e+2, 3.1499153e+2, -22045.445, -46146.164, -11.409105, 0.00019944941, -0.15307917, -22045.44, -22045.44, 0.0, 10.000002, 9.999682 
3.55e+2, 1.2500638e+2, -1722502.3, -1730921.4, 8.209917, 0.00024186324, 0.11165653, -1722502.1, -7554.784, 0.0, 10.000002, 9.99989 
3.55e+2, 1.3500609e+2, -1624564.3, -1633031.5, 3.6635773, 0.0002140023, 0.09420003, -1624564.3, -7615.13, 0.0, 10.000002, 9.999889 
3.55e+2, 1.4500567e+2, -1539400.5, -1561647.5, 8.378, 0.00019933975, 0.07264149, -1539400.5, -20448.777, 0.0, 10.000001, 9.999706 
3.55e+2, 1.5500513e+2, -1441439.4, -1463720.9, 5.1576657, 0.0001978625, 0.046726007, -1441439.4, -20484.26, 0.0, 10.000001, 9.999706 
3.55e+2, 1.6500458e+2, -1363449.4, -1407235.5, 8.615212, 0.00019538694, 0.035839267, -1363449.4, -40489.965, 0.0, 10.000001, 9.999421 
3.55e+2, 1.7500405e+2, -1265470.8, -1309282.6, 6.3053017, 0.0001919141, 0.039756726, -1265470.8, -40506.355, 0.0, 10.000001, 9.99942 
3.55e+2, 1.8500337e+2, -1191387.5, -1260918.4, 5.9447417, 0.00019005424, 0.048043024, -1191387.5, -64416.105, 0.0, 10.000001, 9.99908 
3.55e+2, 1.9500259e+2, -1093406.3, -1162966.0, 4.088465, 0.00018980617, 0.060513254, -1093406.3, -64425.965, 0.0, 10.000001, 9.99908 
3.55e+2, 2.0500167e+2, -996857.2, -1067986.6, 2.6268399, 0.00018957518, 0.0622105, -996857.2, -65867.734, 0.0, 10.000001, 9.999059 
3.55e+2, 2.1500063e+2, -898869.0, -970020.94, 0.9779834, 0.00018936124, 0.052980307, -898869.0, -65870.16, 0.0, 10.000001, 9.999059 
3.55e+2, 2.2499959e+2, -796256.0, -862455.1, -1.0271713, 0.00018934498, 0.03974732, -796256.0, -61248.33, 0.0, 10.000001, 9.999124 
3.55e+2, 2.3499854e+2, -698247.56, -764446.94, -2.6748698, 0.0001895265, 0.02233142, -698247.56, -61231.684, 0.0, 10.000001, 9.999124 
3.55e+2, 2.4499744e+2, -600490.75, -666961.5, -4.1306605, 0.00018972626, -0.0004709579, -600490.75, -61466.125, 0.0, 10.000001, 9.999121 
3.55e+2, 2.5499627e+2, -502464.16, -568916.56, -5.983058, 0.00018994437, -0.028839523, -502464.16, -61430.313, 0.0, 10.000001, 9.999121 
3.55e+2, 2.6499522e+2, -391416.94, -443836.78, -6.337783, 0.00019177124, -0.056418512, -391416.94, -48374.973, 0.0, 10.000001, 9.999307 
3.55e+2, 2.7499425e+2, -293374.4, -345759.13, -8.641814, 0.00019520815, -0.08339133, -293374.4, -48325.426, 0.0, 10.000001, 9.999307 
3.55e+2, 2.8499338e+2, -188419.61, -233330.28, -5.1814327, 0.00019765379, -0.1063793, -188419.61, -41364.445, 0.0, 10.000001, 9.999406 
3.55e+2, 2.949926e+2, -90365.31, -135234.17, -8.393828, 0.00019910689, -0.12556049, -90365.31, -41304.797, 0.0, 10.000001, 9.999407 
3.55e+2, 3.0499196e+2, -22099.545, -46238.813, -3.6716352, 0.00021372284, -0.14107323, -22099.545, -22099.545, 0.0, 10.000002, 9.999681 
3.55e+2, 3.1499153e+2, -22053.871, -46163.668, -8.205439, 0.00024152455, -0.15309864, -22053.87, -22053.87, 0.0, 10.000002, 9.999682 
3.65e+2, 1.2500638e+2, -1722406.4, -1730891.5, 15.692128, 0.0002919577, 0.11167953, -1722406.4, -7458.9966, 0.0, 10.000002, 9.999889 
3.65e+2, 1.3500609e+2, -1624474.1, -1633004.4, 9.222708, 0.00025866015, 0.094216116, -1624474.1, -7524.964, 0.0, 10.000002, 9.999889 
3.65e+2, 1.4500567e+2, -1539311.9, -1561616.5, 14.049951, 0.00024101076, 0.07265352, -1539311.9, -20360.217, 0.0, 10.000002, 9.999706 
3.65e+2, 1.5500513e+2, -1441354.3, -1463691.5, 9.377697, 0.00023899435, 0.046736807, -1441354.3, -20399.117, 0.0, 10.000002, 9.999705 
3.65e+2, 1.6500458e+2, -1363364.8, -1407203.3, 12.921779, 0.00023573842, 0.035848316, -1363364.8, -40405.33, 0.0, 10.000002, 9.999421 
3.65e+2, 1.7500405e+2, -1265387.8, -1309251.1, 9.505991, 0.00023124418, 0.039763503, -1265387.8, -40423.363, 0.0, 10.000002, 9.99942 
3.65e+2, 1.8500337e+2, -1191304.6, -1260885.3, 8.656748, 0.00022875224, 0.048047952, -1191304.6, -64333.27, 0.0, 10.000002, 9.99908 
3.65e+2, 1.9500259e+2, -1093324.1, -1162933.3, 5.8978148, 0.00022826115, 0.06051677, -1093324.1, -64343.867, 0.0, 10.000002, 9.99908 
3.65e+2, 2.0500167e+2, -996775.06, -1067953.1, 3.795913, 0.00022784807, 0.062212612, -996775.06, -65785.63, 0.0, 10.000002, 9.999059 
3.65e+2, 2.1500063e+2, -898787.1, -969987.56, 1.3410625, 0.00022751298, 0.052981015, -898787.1, -65788.25, 0.0, 10.000002, 9.999059 
3.65e+2, 2.2499959e+2, -796174.1, -862421.75, -1.3952743, 0.00022749408, 0.039746623, -796174.1, -61166.426, 0.0, 10.000002, 9.999124 
3.65e+2, 2.3499854e+2, -698165.5, -764413.5, -3.848541, 0.00022779148, 0.02232932, -698165.5, -61149.61, 0.0, 10.000002, 9.999124 
3.65e+2, 2.4499744e+2, -600408.7, -666928.8, -5.9431734, 0.0002281682, -0.0004744646, -600408.7, -61384.074, 0.0, 10.000002, 9.999121 
3.65e+2, 2.5499627e+2, -502381.4, -568883.5, -8.696801, 0.00022862441, -0.028844437, -502381.4, -61347.543, 0.0, 10.000002, 9.999121 
3.65e+2, 2.6499522e+2, -391334.06, -443805.3, -9.538814, 0.00023107768, -0.056425266, -391334.03, -48292.066, 0.0, 10.000002, 9.999307 
3.65e+2, 2.7499425e+2, -293289.88, -345726.88, -12.946597, 0.00023552957, -0.08340036, -293289.88, -48240.895, 0.0, 10.000002, 9.999307 
3.65e+2, 2.8499338e+2, -188334.6, -233301.02, -9.3986435, 0.00023875017, -0.10639008, -188334.6, -41279.42, 0.0, 10.000002, 9.999406 
3.65e+2, 2.949926e+2, -90276.91, -135203.27, -14.060186, 0.00024073797, -0.12557249, -90276.91, -41216.38, 0.0, 10.000002, 9.999407 
3.65e+2, 3.0499196e+2, -22009.55, -46211.766, -9.221786, 0.0002583324, -0.14108929, -22009.547, -22009.547, 0.0, 10.000002, 9.999681 
3.65e+2, 3.1499153e+2, -21958.291, -46133.934, -15.674472, 0.0002915605, -0.15312159, -21958.281, -21958.281, 0.0, 10.000002, 9.999681 
3.7500003e+2, 1.2500638e+2, -1722418.5, -1730916.5, 11.0277815, 0.00035002021, 0.11170601, -1722418.5, -7471.07, 0.0, 10.000002, 9.999889 
3.75e+2, 1.3500609e+2, -1624486.1, -1633029.4, 4.5587854, 0.00031051345, 0.094234765, -1624486.1, -7537.026, 0.0, 10.000002, 9.999888 
3.75e+2, 1.4500567e+2, -1539320.6, -1561634.5, 11.470529, 0.0002894268, 0.07266754, -1539320.6, -20368.926, 0.0, 10.000002, 9.999706 
3.75e+2, 1.5500513e+2, -1441363.0, -1463709.6, 6.798707, 0.0002867428, 0.04674939, -1441363.0, -20407.822, 0.0, 10.000002, 9.999705 
3.75e+2, 1.6500458e+2, -1363371.0, -1407216.4, 11.937245, 0.00028253323, 0.035858862, -1363371.0, -40411.69, 0.0, 10.000002, 9.999421 
3.75e+2, 1.7500405e+2, -1265394.1, -1309264.4, 8.52162, 0.00027679958, 0.03977141, -1265394.1, -40429.723, 0.0, 10.000002, 9.99942 
3.75e+2, 1.8500337e+2, -1191309.8, -1260896.0, 8.305181, 0.0002735282, 0.04805372, -1191309.8, -64338.402, 0.0, 10.000002, 9.99908 
3.75e+2, 1.9500259e+2, -1093329.3, -1162944.0, 5.5462785, 0.00027271733, 0.060520884, -1093329.3, -64349.0, 0.0, 10.000002, 9.99908 
3.75e+2, 2.0500167e+2, -996779.6, -1067962.5, 3.7286928, 0.00027206642, 0.06221508, -996779.6, -65790.195, 0.0, 10.000002, 9.999059 
3.75e+2, 2.1500063e+2, -898791.7, -969997.0, 1.2738363, 0.00027157544, 0.052981842, -898791.7, -65792.81, 0.0, 10.000002, 9.999059 
3.75e+2, 2.2499959e+2, -796178.7, -862431.25, -1.3399379, 0.00027155358, 0.03974581, -796178.7, -61170.99, 0.0, 10.000002, 9.999124 
3.75e+2, 2.3499854e+2, -698170.06, -764422.94, -3.7931938, 0.000272001, 0.022326866, -698170.06, -61154.168, 0.0, 10.000002, 9.999124 
3.75e+2, 2.4499744e+2, -600413.8, -666939.44, -5.6029067, 0.00027260985, -0.00047856162, -600413.8, -61389.19, 0.0, 10.000002, 9.999121 
3.75e+2, 2.5499627e+2, -502386.53, -568894.1, -8.356477, 0.00027338034, -0.02885018, -502386.53, -61352.656, 0.0, 10.000002, 9.999121 
3.75e+2, 2.6499522e+2, -391340.38, -443818.44, -8.565936, 0.00027660668, -0.056433152, -391340.38, -48298.4, 0.0, 10.000002, 9.999307 
3.75e+2, 2.7499425e+2, -293296.22, -345740.03, -11.9735775, 0.0002822907, -0.08341088, -293296.22, -48247.223, 0.0, 10.000002, 9.999307 
3.75e+2, 2.8499338e+2, -188343.25, -233319.0, -6.8321714, 0.00028645882, -0.106402636, -188343.25, -41288.08, 0.0, 10.000002, 9.999406 
3.75e+2, 2.949926e+2, -90285.57, -135221.27, -11.493279, 0.00028910916, -0.12558648, -90285.57, -41225.04, 0.0, 10.000002, 9.999407 
3.75e+2, 3.0499196e+2, -22021.541, -46236.668, -4.5710278, 0.00031013147, -0.14110789, -22021.54, -22021.54, 0.0, 10.000002, 9.999681 
3.7500003e+2, 3.1499153e+2, -21970.283, -46158.84, -11.022835, 0.00034955726, -0.15314801, -21970.277, -21970.277, 0.0, 10.000002, 9.999681 
3.8500002e+2, 1.250064e+2, -1722286.8, -1730876.0, 20.941635, 0.00041810083, 0.11173674, -1722286.8, -7339.3457, 0.0, 10.000003, 9.999889 
3.8500002e+2, 1.350061e+2, -1624362.0, -1632992.4, 11.949679, 0.0003714949, 0.094256625, -1624361.9, -7412.831, 0.0, 10.000003, 9.999888 
3.8500002e+2, 1.4500567e+2, -1539198.8, -1561592.5, 19.053343, 0.0003464358, 0.0726841, -1539198.8, -20247.023, 0.0, 10.000003, 9.999706 
3.8500002e+2, 1.5500513e+2, -1441245.9, -1463669.9, 12.422598, 0.00034290348, 0.046764247, -1441245.9, -20290.74, 0.0, 10.000003, 9.999705 
3.8500002e+2, 1.6500458e+2, -1363254.9, -1407172.9, 17.702087, 0.0003375006, 0.03587132, -1363254.9, -40295.555, 0.0, 10.000003, 9.999421 
3.8500002e+2, 1.7500405e+2, -1265280.6, -1309222.0, 12.756783, 0.0003302289, 0.039780784, -1265280.5, -40316.16, 0.0, 10.000003, 9.99942 
3.8500002e+2, 1.8500337e+2, -1191196.6, -1260851.5, 11.949556, 0.00032597018, 0.048060566, -1191196.6, -64225.27, 0.0, 10.000003, 9.99908 
3.8500002e+2, 1.9500259e+2, -1093217.4, -1162900.1, 7.929925, 0.0003247223, 0.060525768, -1093217.4, -64237.113, 0.0, 10.000003, 9.99908 
3.8500002e+2, 2.0500167e+2, -996667.9, -1067917.6, 5.316454, 0.00032374883, 0.062218007, -996667.9, -65678.42, 0.0, 10.000003, 9.999059 
3.8500002e+2, 2.1500063e+2, -898680.25, -969952.25, 1.7312526, 0.00032304972, 0.052982826, -898680.25, -65681.4, 0.0, 10.000003, 9.999058 
3.8500002e+2, 2.2499959e+2, -796067.25, -862386.5, -1.8015242, 0.00032302458, 0.039744847, -796067.25, -61059.582, 0.0, 10.000003, 9.999124 
3.8500002e+2, 2.3499854e+2, -698058.3, -764378.06, -5.3845987, 0.00032367356, 0.022323955, -698058.3, -61042.438, 0.0, 10.000003, 9.999124 
3.8500002e+2, 2.4499744e+2, -600302.0, -666895.56, -7.988451, 0.00032459866, -0.00048342446, -600302.0, -61277.363, 0.0, 10.000003, 9.99912 
3.8500002e+2, 2.5499627e+2, -502273.47, -568849.7, -12.000989, 0.00032580007, -0.028856998, -502273.47, -61239.613, 0.0, 10.000003, 9.999121 
3.8500002e+2, 2.6499522e+2, -391226.94, -443776.16, -12.799838, 0.00033000656, -0.05644249, -391226.94, -48184.94, 0.0, 10.000003, 9.999307 
3.8500002e+2, 2.7499425e+2, -293180.22, -345696.53, -17.734575, 0.00033722044, -0.08342332, -293180.22, -48131.223, 0.0, 10.000003, 9.999307 
3.8500002e+2, 2.8499338e+2, -188226.33, -233279.42, -12.451305, 0.0003425749, -0.10641746, -188226.33, -41171.152, 0.0, 10.000003, 9.999406 
3.8500002e+2, 2.949926e+2, -90163.875, -135179.38, -19.067984, 0.00034606774, -0.125603, -90163.87, -41103.33, 0.0, 10.000003, 9.999406 
3.8500002e+2, 3.0499196e+2, -21897.572, -46199.836, -11.949597, 0.00037105186, -0.1411297, -21897.566, -21897.566, 0.0, 10.000003, 9.999681 
3.8500002e+2, 3.1499153e+2, -21838.842, -46118.414, -20.919176, 0.00041756392, -0.15317868, -21838.824, -21838.824, 0.0, 10.000003, 9.999681 
3.9500004e+2, 1.250064e+2, -1722303.5, -1730910.6, 14.334628, 0.00049619953, 0.11177172, -1722303.5, -7356.1333, 0.0, 10.000003, 9.999889 
3.9500004e+2, 1.350061e+2, -1624378.8, -1633027.1, 5.3431816, 0.00044160447, 0.09428169, -1624378.6, -7429.599, 0.0, 10.000003, 9.999888 
3.9500004e+2, 1.4500567e+2, -1539211.1, -1561618.1, 15.228244, 0.00041203765, 0.07270322, -1539211.0, -20259.385, 0.0, 10.000003, 9.999706 
3.9500004e+2, 1.5500513e+2, -1441258.3, -1463695.5, 8.598076, 0.00040747641, 0.046781376, -1441258.3, -20303.096, 0.0, 10.000003, 9.999705 
3.9500004e+2, 1.6500458e+2, -1363264.1, -1407192.0, 16.053318, 0.00040064054, 0.035885695, -1363264.1, -40304.766, 0.0, 10.000003, 9.99942 
3.9500004e+2, 1.7500405e+2, -1265289.8, -1309241.1, 11.108253, 0.00039153217, 0.03979162, -1265289.8, -40325.367, 0.0, 10.000003, 9.99942 
3.9500004e+2, 1.8500337e+2, -1191204.1, -1260867.0, 11.276756, 0.00038607817, 0.048068497, -1191204.1, -64232.75, 0.0, 10.000003, 9.99908 
3.9500004e+2, 1.9500259e+2, -1093224.9, -1162915.6, 7.2571774, 0.00038427603, 0.060531422, -1093224.9, -64244.594, 0.0, 10.000003, 9.999079 
3.9500004e+2, 2.0500167e+2, -996674.56, -1067931.5, 5.1586924, 0.0003828953, 0.062221397, -996674.56, -65685.09, 0.0, 10.000003, 9.999059 
3.9500004e+2, 2.1500063e+2, -898686.94, -969966.1, 1.5734849, 0.00038193577, 0.052983966, -898686.94, -65688.06, 0.0, 10.000003, 9.999058 
3.9500004e+2, 2.2499959e+2, -796073.94, -862400.3, -1.6596843, 0.000381907, 0.039743733, -796073.94, -61066.246, 0.0, 10.000003, 9.999124 
3.9500004e+2, 2.3499854e+2, -698065.0, -764391.9, -5.2427335, 0.00038280923, 0.022320587, -698065.0, -61049.094, 0.0, 10.000003, 9.999124 
3.9500004e+2, 2.4499744e+2, -600309.44, -666911.06, -7.3308725, 0.00038413462, -0.00048905314, -600309.44, -61284.82, 0.0, 10.000003, 9.99912 
3.9500004e+2, 2.5499627e+2, -502280.94, -568865.2, -11.343314, 0.00038588358, -0.028864896, -502280.94, -61247.066, 0.0, 10.000003, 9.999121 
3.9500004e+2, 2.6499522e+2, -391236.1, -443795.22, -11.167061, 0.00039127737, -0.05645329, -391236.1, -48194.11, 0.0, 10.000003, 9.999306 
3.9500004e+2, 2.7499422e+2, -293189.4, -345715.56, -16.10159, 0.00040031874, -0.08343765, -293189.38, -48140.387, 0.0, 10.000003, 9.999307 
3.9500004e+2, 2.8499338e+2, -188238.63, -233304.95, -8.644082, 0.0004070984, -0.106434554, -188238.63, -41183.445, 0.0, 10.000003, 9.999406 
3.9500004e+2, 2.949926e+2, -90176.164, -135204.9, -15.260188, 0.0004116137, -0.12562208, -90176.164, -41115.613, 0.0, 10.000003, 9.999406 
3.9500004e+2, 3.0499196e+2, -21914.24, -46234.453, -5.3612013, 0.00044109364, -0.1411547, -21914.238, -21914.238, 0.0, 10.000003, 9.9996805 
3.9500004e+2, 3.1499153e+2, -21855.512, -46153.035, -14.329626, 0.0004955805, -0.15321358, -21855.504, -21855.504, 0.0, 10.000003, 9.999681 
4.0500003e+2, 1.250064e+2, -1722126.6, -1730856.9, 27.106054, 0.0005864849, 0.11181169, -1722126.6, -7179.2363, 0.0, 10.000005, 9.999888 
4.0500003e+2, 1.350061e+2, -1624211.5, -1632978.0, 14.903749, 0.0005229433, 0.09431063, -1624211.5, -7262.4585, 0.0, 10.000005, 9.999888 
4.0500003e+2, 1.4500567e+2, -1539047.1, -1561562.6, 25.085682, 0.00048827007, 0.07272548, -1539047.0, -20095.402, 0.0, 10.000004, 9.999705 
4.0500003e+2, 1.5500513e+2, -1441100.9, -1463643.1, 15.884011, 0.0004824399, 0.04680132, -1441100.8, -20145.7, 0.0, 10.000004, 9.999705 
4.0500003e+2, 1.6500458e+2, -1363108.4, -1407134.6, 23.551476, 0.0004738569, 0.03590244, -1363108.3, -40148.96, 0.0, 10.000004, 9.99942 
4.0500003e+2, 1.7500405e+2, -1265137.8, -1309185.6, 16.54396, 0.00046252355, 0.039804295, -1265137.8, -40173.414, 0.0, 10.000004, 9.99942 
4.0500003e+2, 1.8500337e+2, -1191053.0, -1260808.6, 16.038649, 0.00045559622, 0.0480778, -1191053.0, -64081.664, 0.0, 10.000004, 9.99908 
4.0500003e+2, 1.9500259e+2, -1093075.8, -1162858.3, 10.298762, 0.00045307202, 0.060538054, -1093075.8, -64095.49, 0.0, 10.000004, 9.999079 
4.0500003e+2, 2.0500167e+2, -996525.75, -1067872.8, 7.2592483, 0.000451163, 0.06222537, -996525.75, -65536.31, 0.0, 10.000004, 9.999059 
4.0500003e+2, 2.1500063e+2, -898538.75, -969907.6, 2.1232653, 0.000449869, 0.0529853, -898538.75, -65539.875, 0.0, 10.000004, 9.999058 
4.0500003e+2, 2.2499959e+2, -795925.75, -862341.9, -2.211131, 0.00044983628, 0.03974243, -795925.75, -60918.07, 0.0, 10.000004, 9.999124 
4.0500003e+2, 2.3499854e+2, -697916.25, -764333.1, -7.3443336, 0.0004510651, 0.022316642, -697916.25, -60900.363, 0.0, 10.000004, 9.999124 
4.0500003e+2, 2.4499744e+2, -600160.44, -666853.7, -10.371477, 0.00045291113, -0.0004956483, -600160.44, -61135.79, 0.0, 10.000004, 9.99912 
4.0500003e+2, 2.5499627e+2, -502129.97, -568806.9, -16.10215, 0.00045537483, -0.02887415, -502129.97, -61096.09, 0.0, 10.000004, 9.99912 
4.0500003e+2, 2.6499522e+2, -391084.28, -443739.78, -16.59857, 0.00046223318, -0.056465916, -391084.28, -48042.29, 0.0, 10.000004, 9.999306 
4.0500003e+2, 2.7499422e+2, -293033.78, -345658.28, -23.592554, 0.0004734893, -0.083454356, -293033.75, -47984.758, 0.0, 10.000004, 9.999307 
4.0500003e+2, 2.8499338e+2, -188081.45, -233252.69, -15.922319, 0.0004820074, -0.106454454, -188081.44, -41026.25, 0.0, 10.000004, 9.999405 
4.0500003e+2, 2.949926e+2, -90012.45, -135149.48, -25.106052, 0.0004877843, -0.1256443, -90012.44, -40951.883, 0.0, 10.000004, 9.999406 
4.0500003e+2, 3.0499196e+2, -21747.395, -46185.457, -14.9051075, 0.0005223574, -0.14118358, -21747.387, -21747.387, 0.0, 10.000005, 9.9996805 
4.0500003e+2, 3.1499153e+2, -21678.992, -46099.383, -27.07819, 0.00058577507, -0.15325347, -21678.96, -21678.96, 0.0, 10.000005, 9.999681 
4.1500002e+2, 1.250064e+2, -1722149.4, -1730904.0, 17.984056, 0.000688957, 0.111856654, -1722149.4, -7202.0283, 0.0, 10.000005, 9.999888 
4.1500002e+2, 1.350061e+2, -1624234.3, -1633025.1, 5.7823315, 0.00061551126, 0.09434345, -1624234.3, -7285.2173, 0.0, 10.000005, 9.999887 
4.1500002e+2, 1.4500567e+2, -1539064.3, -1561598.1, 19.559212, 0.0005751331, 0.0727509, -1539064.3, -20112.56, 0.0, 10.000004, 9.999705 
4.1500002e+2, 1.5500513e+2, -1441118.0, -1463678.8, 10.358284, 0.00056779396, 0.04682408, -1441118.0, -20162.848, 0.0, 10.000004, 9.999705 
4.1500002e+2, 1.6500458e+2, -1363121.4, -1407161.6, 20.908072, 0.00055714964, 0.035921562, -1363121.4, -40162.01, 0.0, 10.000004, 9.99942 
4.1500002e+2, 1.7500405e+2, -1265150.9, -1309212.6, 13.900902, 0.000543203, 0.0398188, -1265150.9, -40186.465, 0.0, 10.000004, 9.99942 
4.1500002e+2, 1.8500337e+2, -1191063.8, -1260830.8, 14.854631, 0.0005345243, 0.04808847, -1191063.8, -64092.348, 0.0, 10.000004, 9.99908 
4.1500002e+2, 1.9500259e+2, -1093086.5, -1162880.4, 9.114832, 0.00053111016, 0.060545653, -1093086.5, -64106.168, 0.0, 10.000004, 9.999079 
4.1500002e+2, 2.0500167e+2, -996535.3, -1067892.5, 6.9493656, 0.00052855193, 0.062229928, -996535.3, -65545.87, 0.0, 10.000004, 9.999058 
4.1500002e+2, 2.1500063e+2, -898548.25, -969927.44, 1.8133794, 0.00052684936, 0.052986834, -898548.25, -65549.42, 0.0, 10.000004, 9.999058 
4.1500002e+2, 2.2499959e+2, -795935.3, -862361.7, -1.9221168, 0.00052681234, 0.03974094, -795935.3, -60927.613, 0.0, 10.000004, 9.999124 
4.1500002e+2, 2.3499854e+2, -697925.8, -764352.94, -7.05527, 0.00052844116, 0.022312121, -697925.8, -60909.902, 0.0, 10.000004, 9.999124 
4.1500002e+2, 2.4499744e+2, -600171.06, -666875.8, -9.207527, 0.00053092814, -0.00050320994, -600171.06, -61146.438, 0.0, 10.000004, 9.99912 
4.1500002e+2, 2.5499627e+2, -502140.63, -568829.0, -14.938045, 0.00053427386, -0.028884765, -502140.63, -61106.734, 0.0, 10.000004, 9.99912 
4.1500002e+2, 2.6499522e+2, -391097.28, -443766.75, -13.976648, 0.0005428739, -0.056480367, -391097.28, -48055.28, 0.0, 10.000004, 9.999306 
4.1500002e+2, 2.7499422e+2, -293046.78, -345685.28, -20.970335, 0.00055673206, -0.08347342, -293046.75, -47997.746, 0.0, 10.000004, 9.999307 
4.1500002e+2, 2.8499338e+2, -188098.52, -233288.13, -10.42, 0.0005673019, -0.106477164, -188098.52, -41043.313, 0.0, 10.000004, 9.999405 
4.1500002e+2, 2.949926e+2, -90029.516, -135184.92, -19.603003, 0.0005745796, -0.12566966, -90029.51, -40968.938, 0.0, 10.000004, 9.999406 
4.1500002e+2, 3.0499196e+2, -21770.016, -46232.438, -5.8080287, 0.00061484316, -0.14121634, -21770.014, -21770.014, 0.0, 10.000005, 9.9996805 
4.1500002e+2, 3.1499153e+2, -21701.613, -46146.367, -17.979643, 0.00068814756, -0.15329833, -21701.602, -21701.602, 0.0, 10.000005, 9.9996805 
4.2500004e+2, 1.250064e+2, -1721917.5, -1730834.3, 33.97032, 0.00080575066, 0.11190725, -1721917.4, -6970.107, 0.0, 10.000007, 9.999888 
4.2500004e+2, 1.350061e+2, -1624014.6, -1632961.3, 17.810146, 0.0007214607, 0.094380796, -1624014.5, -7065.4946, 0.0, 10.000006, 9.999887 
4.2500004e+2, 1.4500569e+2, -1538848.8, -1561526.4, 32.00983, 0.0006747575, 0.07278009, -1538848.6, -19897.03, 0.0, 10.000006, 9.999705 
4.2500004e+2, 1.5500513e+2, -1440911.1, -1463611.1, 19.527962, 0.0006656099, 0.046850197, -1440911.1, -19956.014, 0.0, 10.000006, 9.999704 
4.2500004e+2, 1.6500458e+2, -1362917.0, -1407087.9, 30.37463, 0.0006525165, 0.035943534, -1362917.0, -39957.645, 0.0, 10.000006, 9.99942 
4.2500004e+2, 1.7500405e+2, -1264952.0, -1309141.6, 20.65908, 0.0006354807, 0.03983554, -1264952.0, -39987.625, 0.0, 10.000006, 9.999419 
4.2500004e+2, 1.8500337e+2, -1190866.4, -1260756.1, 20.899437, 0.0006247, 0.048100818, -1190866.4, -63895.004, 0.0, 10.000006, 9.999079 
4.2500004e+2, 1.9500259e+2, -1092892.1, -1162807.1, 12.867138, 0.00062017044, 0.060554456, -1092892.1, -63911.816, 0.0, 10.000005, 9.999079 
4.2500004e+2, 2.0500167e+2, -996341.56, -1067817.5, 9.6550045, 0.0006168008, 0.062235203, -996341.56, -65352.152, 0.0, 10.000005, 9.999058 
4.2500004e+2, 2.1500063e+2, -898355.5, -969852.9, 2.437921, 0.0006145908, 0.05298861, -898355.5, -65356.65, 0.0, 10.000005, 9.999058 
4.2500004e+2, 2.2499959e+2, -795742.56, -862287.06, -2.543208, 0.00061454915, 0.039739214, -795742.56, -60734.855, 0.0, 10.000005, 9.999124 
4.2500004e+2, 2.3499854e+2, -697732.2, -764277.94, -9.756779, 0.0006166762, 0.022306893, -697732.2, -60716.254, 0.0, 10.000005, 9.999124 
4.2500004e+2, 2.4499744e+2, -599976.8, -666802.6, -12.953517, 0.0006199656, -0.0005119569, -599976.8, -60952.18, 0.0, 10.000005, 9.99912 
4.2500004e+2, 2.5499627e+2, -501943.4, -568754.4, -20.97424, 0.00062441814, -0.028897045, -501943.4, -60909.527, 0.0, 10.000006, 9.99912 
4.2500004e+2, 2.6499522e+2, -390898.63, -443695.8, -20.725752, 0.0006351098, -0.05649703, -390898.63, -47856.61, 0.0, 10.000006, 9.999306 
4.2500004e+2, 2.7499422e+2, -292842.63, -345611.7, -30.424572, 0.0006520448, -0.083495334, -292842.63, -47793.598, 0.0, 10.000006, 9.999306 
4.2500004e+2, 2.8499338e+2, -187891.95, -233220.73, -19.577679, 0.00066505314, -0.106503226, -187891.94, -40836.727, 0.0, 10.000006, 9.999405 
4.2500004e+2, 2.949926e+2, -89814.33, -135113.39, -32.037384, 0.00067413034, -0.12569878, -89814.305, -40753.72, 0.0, 10.000006, 9.999406 
4.2500004e+2, 3.0499196e+2, -21550.668, -46168.766, -17.813643, 0.00072070287, -0.14125359, -21550.654, -21550.654, 0.0, 10.000006, 9.99968 
4.2500004e+2, 3.149915e+2, -21470.182, -46076.883, -33.93656, 0.0008048328, -0.15334883, -21470.135, -21470.135, 0.0, 10.000007, 9.9996805 
4.3500006e+2, 1.250064e+2, -1721947.6, -1730896.8, 21.707321, 0.000936866, 0.11196348, -1721947.6, -7000.306, 0.0, 10.000007, 9.999887 
4.3500003e+2, 1.350061e+2, -1624044.6, -1633023.8, 5.5477557, 0.0008407914, 0.09442266, -1624044.6, -7095.639, 0.0, 10.000006, 9.999887 
4.3500003e+2, 1.4500569e+2, -1538872.0, -1561574.6, 24.237825, 0.0007871434, 0.07281304, -1538871.9, -19920.31, 0.0, 10.000006, 9.999704 
4.3500003e+2, 1.5500513e+2, -1440934.4, -1463659.4, 11.756878, 0.0007758877, 0.04687967, -1440934.4, -19979.28, 0.0, 10.000006, 9.999704 
4.3500003e+2, 1.650046e+2, -1362935.1, -1407125.4, 26.303993, 0.0007599574, 0.035968356, -1362935.0, -39975.746, 0.0, 10.000006, 9.99942 
4.3500003e+2, 1.7500405e+2, -1264970.1, -1309179.1, 16.588923, 0.0007393565, 0.039854508, -1264970.1, -40005.72, 0.0, 10.000006, 9.999419 
4.3500003e+2, 1.8500337e+2, -1190881.3, -1260787.1, 18.943977, 0.0007261231, 0.048114844, -1190881.3, -63909.957, 0.0, 10.000006, 9.999079 
4.3500003e+2, 1.9500259e+2, -1092907.0, -1162838.1, 10.911813, 0.00072025275, 0.06056445, -1092907.0, -63926.766, 0.0, 10.000005, 9.999079 
4.3500003e+2, 2.0500167e+2, -996355.0, -1067845.4, 9.105927, 0.0007159096, 0.062241197, -996355.0, -65365.58, 0.0, 10.000005, 9.999058 
4.3500003e+2, 2.1500063e+2, -898368.94, -969880.75, 1.8888481, 0.00071309326, 0.052990634, -898368.94, -65370.07, 0.0, 10.000005, 9.999058 
4.3500003e+2, 2.2499959e+2, -795755.94, -862314.94, -2.0208619, 0.00071304664, 0.039737258, -795755.94, -60748.27, 0.0, 10.000005, 9.999124 
4.3500003e+2, 2.3499854e+2, -697745.56, -764305.8, -9.2343445, 0.00071577006, 0.022300957, -697745.56, -60729.664, 0.0, 10.000005, 9.999124 
4.3500003e+2, 2.4499744e+2, -599991.75, -666833.56, -11.023935, 0.00072002347, -0.0005218893, -599991.75, -60967.082, 0.0, 10.000005, 9.99912 
4.3500003e+2, 2.5499627e+2, -501958.3, -568785.3, -19.044422, 0.0007258077, -0.02891099, -501958.3, -60924.43, 0.0, 10.000006, 9.99912 
4.3500003e+2, 2.6499522e+2, -390916.66, -443733.25, -16.683374, 0.0007389407, -0.056515913, -390916.66, -47874.63, 0.0, 10.000006, 9.999306 
4.3500003e+2, 2.7499422e+2, -292860.66, -345649.13, -26.381784, 0.00075942744, -0.08352008, -292860.66, -47811.61, 0.0, 10.000006, 9.999306 
4.3500003e+2, 2.8499338e+2, -187915.11, -233268.83, -11.837632, 0.0007752611, -0.10653263, -187915.11, -40859.875, 0.0, 10.000006, 9.999405 
4.3500003e+2, 2.949926e+2, -89837.48, -135161.47, -24.296438, 0.0007864365, -0.12573165, -89837.47, -40776.863, 0.0, 10.000006, 9.999405 
4.3500003e+2, 3.0499196e+2, -21580.627, -46230.992, -5.583269, 0.0008399365, -0.14129536, -21580.627, -21580.627, 0.0, 10.000006, 9.99968 
4.3500006e+2, 3.149915e+2, -21500.146, -46139.113, -21.704382, 0.00093583064, -0.15340494, -21500.127, -21500.127, 0.0, 10.000007, 9.99968 
4.4500005e+2, 1.2500641e+2, -1721650.9, -1730808.6, 41.14407, 0.0010842192, 0.112025775, -1721650.8, -6703.507, 0.0, 10.000009, 9.999887 
4.4500005e+2, 1.350061e+2, -1623762.5, -1632942.6, 20.26348, 0.0009755559, 0.09446959, -1623762.5, -6813.506, 0.0, 10.000009, 9.9998865 
4.4500005e+2, 1.4500569e+2, -1538595.1, -1561484.3, 39.508595, 0.000914387, 0.07285032, -1538595.1, -19643.521, 0.0, 10.000008, 9.999704 
4.4500005e+2, 1.5500514e+2, -1440668.6, -1463574.4, 22.96306, 0.000900675, 0.046913024, -1440668.6, -19713.557, 0.0, 10.000008, 9.999703 
4.4500005e+2, 1.650046e+2, -1362673.0, -1407033.0, 37.895184, 0.000881462, 0.035996478, -1362672.9, -39713.605, 0.0, 10.000008, 9.999419 
4.4500005e+2, 1.7500405e+2, -1264715.5, -1309090.4, 24.71874, 0.00085675257, 0.039876103, -1264715.5, -39751.176, 0.0, 10.000008, 9.999419 
4.4500005e+2, 1.8500337e+2, -1190629.1, -1260693.8, 26.393559, 0.00084065326, 0.048130874, -1190629.1, -63657.754, 0.0, 10.000007, 9.999079 
4.4500005e+2, 1.9500259e+2, -1092659.1, -1162746.9, 15.378726, 0.0008331589, 0.060575873, -1092659.1, -63678.85, 0.0, 10.000007, 9.999078 
4.4500005e+2, 2.0500167e+2, -996108.2, -1067751.9, 12.498017, 0.0008276389, 0.062248047, -996108.2, -65118.75, 0.0, 10.000007, 9.999058 
4.4500005e+2, 2.1500063e+2, -898123.5, -969787.9, 2.5492547, 0.0008240927, 0.052992944, -898123.5, -65124.63, 0.0, 10.000007, 9.999057 
4.4500005e+2, 2.2499959e+2, -795510.5, -862222.1, -2.6688187, 0.0008240408, 0.039735027, -795510.5, -60502.848, 0.0, 10.000007, 9.999123 
4.4500005e+2, 2.3499854e+2, -697498.8, -764212.4, -12.613319, 0.0008274836, 0.022294177, -697498.8, -60482.91, 0.0, 10.000007, 9.999123 
4.4500005e+2, 2.4499744e+2, -599743.94, -666742.4, -15.475618, 0.00083290366, -0.000533234, -599743.94, -60719.28, 0.0, 10.000007, 9.999119 
4.4500005e+2, 2.5499627e+2, -501706.3, -568692.1, -26.476454, 0.0008403021, -0.028926918, -501706.28, -60672.39, 0.0, 10.000007, 9.99912 
4.4500005e+2, 2.6499522e+2, -390662.3, -443644.63, -24.796547, 0.00085628894, -0.05653741, -390662.3, -47620.285, 0.0, 10.000008, 9.999305 
4.4500005e+2, 2.7499422e+2, -292598.8, -345556.88, -37.953156, 0.0008808698, -0.08354812, -292598.78, -47549.73, 0.0, 10.000008, 9.999306 
4.4500005e+2, 2.8499338e+2, -187649.72, -233183.97, -23.025782, 0.0008999737, -0.10656591, -187649.7, -40594.457, 0.0, 10.000008, 9.999404 
4.4500005e+2, 2.949926e+2, -89561.12, -135071.33, -39.54483, 0.0009135945, -0.12576884, -89561.08, -40500.457, 0.0, 10.000008, 9.999405 
4.4500005e+2, 3.0499196e+2, -21298.957, -46150.15, -20.26982, 0.0009745966, -0.14134218, -21298.941, -21298.941, 0.0, 10.000009, 9.999679 
4.4500005e+2, 3.149915e+2, -21203.965, -46051.293, -41.10405, 0.0010830576, -0.1534671, -21203.896, -21203.896, 0.0, 10.000009, 9.99968 
4.5500007e+2, 1.2500641e+2, -1721689.9, -1730889.3, 25.109558, 0.0012478102, 0.11209414, -1721689.8, -6742.5444, 0.0, 10.000009, 9.9998865 
4.5500007e+2, 1.3500611e+2, -1623801.4, -1633023.3, 4.2295446, 0.0011257541, 0.09452158, -1623801.4, -6852.458, 0.0, 10.000009, 9.999886 
4.5500007e+2, 1.4500569e+2, -1538626.0, -1561548.1, 28.880354, 0.0010564881, 0.07289193, -1538626.0, -19674.387, 0.0, 10.000008, 9.999704 
4.5500007e+2, 1.5500514e+2, -1440699.5, -1463638.3, 12.335928, 0.0010399717, 0.046950247, -1440699.4, -19744.398, 0.0, 10.000008, 9.999703 
4.5500007e+2, 1.650046e+2, -1362697.5, -1407083.9, 31.863295, 0.0010170303, 0.03602791, -1362697.5, -39738.152, 0.0, 10.000008, 9.999419 
4.5500007e+2, 1.7500405e+2, -1264740.1, -1309141.3, 18.687492, 0.0009876688, 0.03990032, -1264740.0, -39775.715, 0.0, 10.000008, 9.999418 
4.5500007e+2, 1.8500337e+2, -1190649.6, -1260736.3, 23.330761, 0.00096829026, 0.0481489, -1190649.6, -63678.258, 0.0, 10.000007, 9.999079 
4.5500007e+2, 1.9500259e+2, -1092679.6, -1162789.4, 12.31613, 0.00095888885, 0.060588725, -1092679.6, -63699.348, 0.0, 10.000007, 9.999078 
4.5500007e+2, 2.0500167e+2, -996126.7, -1067790.3, 11.593943, 0.0009519887, 0.062255755, -996126.7, -65137.258, 0.0, 10.000007, 9.999058 
4.5500007e+2, 2.1500063e+2, -898142.0, -969826.3, 1.6451998, 0.000947589, 0.052995548, -898142.0, -65143.13, 0.0, 10.000007, 9.999057 
4.5500007e+2, 2.2499959e+2, -795529.0, -862260.5, -1.7981864, 0.00094753155, 0.03973252, -795529.0, -60521.336, 0.0, 10.000007, 9.999123 
4.5500007e+2, 2.3499854e+2, -697517.3, -764250.75, -11.742542, 0.0009518167, 0.022286555, -697517.3, -60501.395, 0.0, 10.000007, 9.999123 
4.5500007e+2, 2.4499744e+2, -599764.4, -666784.9, -12.44545, 0.0009586062, -0.0005459908, -599764.4, -60739.723, 0.0, 10.000007, 9.999119 
4.5500007e+2, 2.5499627e+2, -501726.75, -568734.56, -23.445944, 0.00096790126, -0.028944828, -501726.75, -60692.83, 0.0, 10.000007, 9.999119 
4.5500007e+2, 2.6499522e+2, -390686.78, -443695.4, -18.801096, 0.0009871544, -0.056561507, -390686.78, -47644.73, 0.0, 10.000008, 9.999305 
4.5500007e+2, 2.7499422e+2, -292623.25, -345607.66, -31.957163, 0.0010163719, -0.08357945, -292623.25, -47574.17, 0.0, 10.000008, 9.999305 
4.5500007e+2, 2.8499338e+2, -187680.42, -233247.73, -12.439031, 0.0010391907, -0.106603034, -187680.4, -40625.15, 0.0, 10.000008, 9.999404 
4.5500007e+2, 2.949926e+2, -89591.81, -135135.08, -28.957006, 0.0010556042, -0.12581034, -89591.79, -40531.145, 0.0, 10.000008, 9.999404 
4.5500007e+2, 3.0499196e+2, -21337.672, -46230.56, -4.2771187, 0.0011246832, -0.14139405, -21337.672, -21337.672, 0.0, 10.000009, 9.999679 
4.5500007e+2, 3.149915e+2, -21242.686, -46131.71, -25.109215, 0.0012465136, -0.15353532, -21242.66, -21242.66, 0.0, 10.000009, 9.999679 
4.650001e+2, 1.2500641e+2, -1721319.1, -1730780.5, 48.068604, 0.0014291495, 0.11216874, -1721318.9, -6371.7563, 0.0, 10.000011, 9.9998865 
4.6500006e+2, 1.3500611e+2, -1623447.5, -1632922.6, 21.74784, 0.0012931756, 0.09457901, -1623447.5, -6498.5527, 0.0, 10.000011, 9.999886 
4.6500006e+2, 1.4500569e+2, -1538278.6, -1561437.0, 47.06436, 0.0012153648, 0.07293833, -1538278.5, -19327.002, 0.0, 10.0000105, 9.999703 
4.6500006e+2, 1.5500514e+2, -1440365.6, -1463533.6, 25.635075, 0.001195674, 0.046991765, -1440365.5, -19410.54, 0.0, 10.0000105, 9.999703 
4.6500006e+2, 1.650046e+2, -1362368.5, -1406970.8, 45.6206, 0.0011685357, 0.036063038, -1362368.5, -39409.18, 0.0, 10.00001, 9.999418 
4.6500006e+2, 1.7500405e+2, -1264421.1, -1309033.0, 28.142393, 0.0011339557, 0.039927535, -1264421.0, -39456.72, 0.0, 10.00001, 9.999418 
4.6500006e+2, 1.8500338e+2, -1190334.0, -1260622.5, 32.240704, 0.0011108501, 0.04816924, -1190334.0, -63362.65, 0.0, 10.00001, 9.999078 
4.6500006e+2, 1.9500259e+2, -1092369.9, -1162678.4, 17.438122, 0.0010992127, 0.060603227, -1092369.9, -63389.6, 0.0, 10.00001, 9.999078 
4.6500006e+2, 2.0500167e+2, -995818.56, -1067676.5, 15.733567, 0.0010906961, 0.062264457, -995818.56, -64829.164, 0.0, 10.00001, 9.999057 
4.6500006e+2, 2.1500063e+2, -897835.8, -969713.44, 2.2772524, 0.0010852995, 0.05299849, -897835.8, -64836.98, 0.0, 10.00001, 9.999057 
4.6500006e+2, 2.2499959e+2, -795222.9, -862147.7, -2.4033837, 0.0010852361, 0.039729696, -795222.9, -60215.21, 0.0, 10.00001, 9.999123 
4.6500006e+2, 2.3499854e+2, -697209.3, -764137.0, -15.854669, 0.0010905063, 0.022277955, -697209.3, -60193.387, 0.0, 10.00001, 9.999123 
4.6500006e+2, 2.4499744e+2, -599454.75, -666673.94, -17.538212, 0.0010989008, -0.0005603806, -599454.75, -60430.1, 0.0, 10.00001, 9.999119 
4.6500006e+2, 2.5499627e+2, -501411.34, -568620.9, -32.324673, 0.0011104211, -0.028965022, -501411.3, -60377.41, 0.0, 10.00001, 9.999119 
4.6500006e+2, 2.6499522e+2, -390368.03, -443587.25, -28.228167, 0.0011333877, -0.056588575, -390368.03, -47325.97, 0.0, 10.00001, 9.999304 
4.6500006e+2, 2.7499422e+2, -292294.63, -345494.75, -45.684135, 0.0011678073, -0.08361446, -292294.6, -47245.504, 0.0, 10.00001, 9.999305 
4.6500006e+2, 2.8499335e+2, -187346.95, -233143.34, -25.711964, 0.0011948086, -0.10664445, -187346.94, -40291.65, 0.0, 10.0000105, 9.999403 
4.6500006e+2, 2.949926e+2, -89244.945, -135024.25, -47.110653, 0.0012143839, -0.12585662, -89244.9, -40184.22, 0.0, 10.0000105, 9.999404 
4.6500006e+2, 3.0499193e+2, -20984.32, -46130.234, -21.757416, 0.0012919861, -0.14145133, -20984.303, -20984.303, 0.0, 10.000011, 9.999678 
4.650001e+2, 3.149915e+2, -20872.654, -46023.367, -48.02189, 0.0014277091, -0.15360975, -20872.563, -20872.563, 0.0, 10.000011, 9.999679 
4.7500008e+2, 1.2500641e+2, -1721368.1, -1730882.3, 27.698732, 0.0016282372, 0.11224957, -1721368.1, -6420.9814, 0.0, 10.000011, 9.999886 
4.7500008e+2, 1.3500611e+2, -1623496.5, -1633024.3, 1.3784252, 0.0014778201, 0.094641864, -1623496.5, -6547.6494, 0.0, 10.000011, 9.999885 
4.7500008e+2, 1.450057e+2, -1538318.5, -1561519.9, 32.946667, 0.0013910169, 0.07298951, -1538318.5, -19366.988, 0.0, 10.0000105, 9.999702 
4.7500008e+2, 1.5500514e+2, -1440405.5, -1463616.4, 11.518661, 0.0013677814, 0.04703758, -1440405.5, -19450.488, 0.0, 10.0000105, 9.999702 
4.7500008e+2, 1.650046e+2, -1362401.0, -1407038.3, 37.01231, 0.001335978, 0.036101863, -1362401.0, -39441.746, 0.0, 10.00001, 9.999418 
4.7500008e+2, 1.7500407e+2, -1264453.6, -1309100.5, 19.534925, 0.001295613, 0.03995774, -1264453.6, -39489.273, 0.0, 10.00001, 9.999418 
4.7500005e+2, 1.8500338e+2, -1190361.5, -1260679.6, 27.664806, 0.0012683328, 0.04819189, -1190361.5, -63390.203, 0.0, 10.00001, 9.999078 
4.7500005e+2, 1.9500259e+2, -1092397.4, -1162735.5, 12.862514, 0.00125413, 0.060619384, -1092397.4, -63417.15, 0.0, 10.00001, 9.999077 
4.7500005e+2, 2.0500167e+2, -995843.6, -1067728.4, 14.33035, 0.0012437609, 0.062274158, -995843.6, -64854.195, 0.0, 10.00001, 9.999057 
4.7500005e+2, 2.1500063e+2, -897860.9, -969765.4, 0.8740837, 0.0012372242, 0.053001776, -897860.9, -64862.004, 0.0, 10.00001, 9.999057 
4.7500005e+2, 2.2499959e+2, -795247.9, -862199.56, -1.0410134, 0.0012371546, 0.03972655, -795247.9, -60240.22, 0.0, 10.00001, 9.999122 
4.7500005e+2, 2.3499854e+2, -697234.3, -764188.94, -14.492071, 0.0012435524, 0.022268377, -697234.3, -60218.39, 0.0, 10.00001, 9.999122 
4.7500005e+2, 2.4499744e+2, -599482.25, -666731.0, -13.0025, 0.0012537875, -0.00057640334, -599482.25, -60457.582, 0.0, 10.00001, 9.999118 
4.7500005e+2, 2.5499627e+2, -501438.8, -568677.94, -27.788485, 0.0012678616, -0.028987503, -501438.8, -60404.883, 0.0, 10.00001, 9.999119 
4.7500008e+2, 2.6499522e+2, -390400.47, -443654.63, -19.666023, 0.0012949886, -0.05661861, -390400.47, -47358.402, 0.0, 10.00001, 9.999304 
4.7500008e+2, 2.7499422e+2, -292327.06, -345562.1, -37.121304, 0.0013351759, -0.08365315, -292327.03, -47277.934, 0.0, 10.00001, 9.999305 
4.7500008e+2, 2.8499335e+2, -187386.72, -233225.94, -11.647241, 0.0013668272, -0.106690146, -187386.72, -40331.402, 0.0, 10.0000105, 9.999403 
4.7500008e+2, 2.9499257e+2, -89284.7, -135106.83, -33.044704, 0.0013899334, -0.12590767, -89284.68, -40223.973, 0.0, 10.0000105, 9.999403 
4.7500008e+2, 3.0499193e+2, -21033.127, -46231.605, -1.4400878, 0.001476505, -0.14151402, -21033.127, -21033.127, 0.0, 10.000011, 9.999677 
4.7500008e+2, 3.149915e+2, -20921.467, -46124.75, -27.702118, 0.0016266443, -0.1536904, -20921.436, -20921.436, 0.0, 10.000011, 9.999678 
4.8500013e+2, 1.2500642e+2, -1720916.0, -1730751.3, 54.073475, 0.0018460326, 0.112336464, -1720915.6, -5968.5894, 0.0, 10.000015, 9.999885 
4.850001e+2, 1.3500613e+2, -1623062.6, -1632902.1, 21.697617, 0.0016810705, 0.09471028, -1623062.6, -6113.767, 0.0, 10.000014, 9.999884 
4.850001e+2, 1.450057e+2, -1537892.3, -1561386.4, 53.978344, 0.0015850501, 0.07304576, -1537892.1, -18940.678, 0.0, 10.000013, 9.999702 
4.850001e+2, 1.5500514e+2, -1439995.0, -1463490.5, 26.859327, 0.0015579228, 0.047087967, -1439995.0, -19039.992, 0.0, 10.000013, 9.9997015 
4.850001e+2, 1.650046e+2, -1361996.8, -1406903.0, 52.8417, 0.0015210221, 0.036144674, -1361996.8, -39037.51, 0.0, 10.000013, 9.999417 
4.850001e+2, 1.7500407e+2, -1264061.9, -1308971.1, 30.165068, 0.0014743549, 0.039991237, -1264061.9, -39097.54, 0.0, 10.000012, 9.999417 
4.850001e+2, 1.8500338e+2, -1189974.4, -1260543.9, 38.008915, 0.0014424677, 0.048217125, -1189974.4, -63003.03, 0.0, 10.000012, 9.999077 
4.850001e+2, 1.9500259e+2, -1092017.9, -1162603.4, 18.51127, 0.0014253529, 0.060637396, -1092017.9, -63037.594, 0.0, 10.000012, 9.999077 
4.850001e+2, 2.0500167e+2, -995466.4, -1067593.0, 19.250866, 0.001412882, 0.06228498, -995466.4, -64476.96, 0.0, 10.000012, 9.999056 
4.850001e+2, 2.1500063e+2, -897486.2, -969631.3, 1.3881259, 0.001405054, 0.053005442, -897486.2, -64487.355, 0.0, 10.000012, 9.999056 
4.850001e+2, 2.2499959e+2, -794873.3, -862065.5, -1.5063616, 0.0014049776, 0.039723054, -794873.3, -59865.605, 0.0, 10.000012, 9.999122 
4.850001e+2, 2.3499854e+2, -696857.2, -764053.6, -19.363388, 0.0014126531, 0.0222577, -696857.2, -59841.254, 0.0, 10.000012, 9.999122 
4.850001e+2, 2.4499743e+2, -599102.9, -666599.0, -18.601452, 0.0014249773, -0.0005942567, -599102.9, -60078.168, 0.0, 10.000012, 9.999118 
4.850001e+2, 2.5499627e+2, -501051.9, -568542.3, -38.081787, 0.0014419522, -0.029012533, -501051.88, -60017.926, 0.0, 10.000012, 9.999118 
4.850001e+2, 2.6499522e+2, -390009.03, -443525.53, -30.252388, 0.0014736713, -0.05665191, -390009.03, -46966.934, 0.0, 10.000012, 9.999303 
4.850001e+2, 2.7499422e+2, -291923.25, -345427.03, -52.905384, 0.0015201425, -0.08369581, -291923.2, -46874.063, 0.0, 10.000012, 9.999304 
4.850001e+2, 2.8499335e+2, -186976.69, -233100.34, -26.950184, 0.0015568751, -0.1067404, -186976.67, -39921.33, 0.0, 10.000013, 9.999402 
4.850001e+2, 2.9499257e+2, -88859.01, -134973.69, -54.035458, 0.001583859, -0.12596376, -88858.945, -39798.203, 0.0, 10.000013, 9.999403 
4.850001e+2, 3.0499193e+2, -20599.887, -46109.83, -21.709845, 0.0016796237, -0.14158227, -20599.867, -20599.867, 0.0, 10.000014, 9.999677 
4.8500013e+2, 3.149915e+2, -20469.977, -45994.19, -54.01829, 0.0018442797, -0.1537771, -20469.861, -20469.861, 0.0, 10.000015, 9.999677 
4.9500012e+2, 1.2500642e+2, -1720976.3, -1730876.3, 28.958555, 0.0020825358, 0.11242944, -1720976.1, -6029.1504, 0.0, 10.000015, 9.999884 
4.9500012e+2, 1.3500613e+2, -1623123.0, -1633027.3, -3.4170668, 0.0019029267, 0.09478427, -1623123.0, -6174.144, 0.0, 10.000014, 9.999883 
4.9500012e+2, 1.450057e+2, -1537942.8, -1561491.1, 35.78376, 0.0017974643, 0.07310707, -1537942.8, -18991.29, 0.0, 10.000013, 9.9997015 
4.9500012e+2, 1.5500516e+2, -1440045.5, -1463595.3, 8.666172, 0.001766098, 0.04714293, -1440045.5, -19090.549, 0.0, 10.000013, 9.999701 
4.9500012e+2, 1.650046e+2, -1362039.0, -1406990.5, 41.007977, 0.0017236676, 0.03619147, -1362039.0, -39079.77, 0.0, 10.000013, 9.999417 
4.950001e+2, 1.7500407e+2, -1264104.0, -1309058.8, 18.332365, 0.0016701809, 0.04002803, -1264104.0, -39139.777, 0.0, 10.000012, 9.999416 
4.950001e+2, 1.8500338e+2, -1190010.6, -1260619.1, 31.466766, 0.0016332548, 0.048244942, -1190010.6, -63039.33, 0.0, 10.000012, 9.999077 
4.950001e+2, 1.950026e+2, -1092054.1, -1162678.8, 11.969523, 0.0016128807, 0.060657263, -1092054.1, -63073.875, 0.0, 10.000012, 9.999076 
4.950001e+2, 2.0500167e+2, -995499.6, -1067662.0, 17.182274, 0.0015980593, 0.062296927, -995499.56, -64510.188, 0.0, 10.000012, 9.999056 
4.950001e+2, 2.1500063e+2, -897519.44, -969700.25, -0.6803699, 0.001588789, 0.053009495, -897519.44, -64520.574, 0.0, 10.000012, 9.999056 
4.950001e+2, 2.2499959e+2, -794906.5, -862134.4, 0.51362836, 0.0015887052, 0.0397192, -794906.5, -59898.805, 0.0, 10.000012, 9.999121 
4.950001e+2, 2.3499854e+2, -696890.4, -764122.56, -17.343063, 0.0015978082, 0.022245925, -696890.4, -59874.445, 0.0, 10.000012, 9.999121 
4.950001e+2, 2.4499743e+2, -599139.06, -666674.2, -12.107931, 0.0016124701, -0.00061394065, -599139.06, -60114.37, 0.0, 10.000012, 9.999117 
4.950001e+2, 2.5499627e+2, -501088.1, -568617.5, -31.587637, 0.0016326929, -0.029040117, -501088.1, -60054.125, 0.0, 10.000012, 9.999118 
4.950001e+2, 2.6499522e+2, -390051.16, -443612.94, -18.47599, 0.0016694356, -0.05668847, -390051.16, -47009.027, 0.0, 10.000012, 9.999303 
4.950001e+2, 2.7499422e+2, -291965.34, -345514.47, -41.128147, 0.001722707, -0.083742425, -291965.3, -46916.145, 0.0, 10.000012, 9.999303 
4.9500012e+2, 2.8499335e+2, -187027.03, -233204.89, -8.822216, 0.0017649522, -0.106795214, -187027.03, -39971.645, 0.0, 10.000013, 9.999401 
4.9500012e+2, 2.9499257e+2, -88909.336, -135078.22, -35.906128, 0.0017961605, -0.1260249, -88909.305, -39848.523, 0.0, 10.000013, 9.999402 
4.9500012e+2, 3.0499193e+2, -20659.924, -46234.527, 3.3398237, 0.001901342, -0.14165604, -20659.924, -20659.924, 0.0, 10.000014, 9.999676 
4.9500012e+2, 3.1499147e+2, -20530.021, -46118.902, -28.96593, 0.0020806154, -0.15386985, -20529.988, -20529.988, 0.0, 10.000015, 9.999676 
5.050002e+2, 1.2500644e+2, -1720436.9, -1730721.9, 58.489395, 0.0023381056, 0.11252803, -1720436.6, -5489.629, 0.0, 10.000019, 9.999883 
5.050002e+2, 1.3500613e+2, -1622602.6, -1632882.0, 19.602703, 0.00214428, 0.09486369, -1622602.5, -5653.8125, 0.0, 10.000018, 9.999882 
5.050001e+2, 1.450057e+2, -1537430.8, -1561334.3, 59.445694, 0.0020294595, 0.07317351, -1537430.6, -18479.275, 0.0, 10.000018, 9.999701 
5.050001e+2, 1.5500516e+2, -1439551.0, -1463446.9, 25.902859, 0.0019935914, 0.047202565, -1439551.0, -18596.115, 0.0, 10.000017, 9.999701 
5.050001e+2, 1.6500461e+2, -1361552.1, -1406832.1, 58.687073, 0.0019453157, 0.0362424, -1361552.0, -38592.875, 0.0, 10.000016, 9.999416 
5.050001e+2, 1.7500407e+2, -1263632.0, -1308907.5, 29.903412, 0.0018846409, 0.040068317, -1263632.0, -38667.723, 0.0, 10.000016, 9.999416 
5.050001e+2, 1.8500338e+2, -1189544.3, -1260460.6, 43.137096, 0.0018423317, 0.048275553, -1189544.3, -62573.016, 0.0, 10.000016, 9.999076 
5.050001e+2, 1.950026e+2, -1091597.1, -1162524.8, 17.957962, 0.001818379, 0.060679153, -1091597.1, -62616.945, 0.0, 10.000015, 9.999076 
5.050001e+2, 2.0500167e+2, -995045.7, -1067504.3, 22.885647, 0.0018009784, 0.0623101, -995045.7, -64056.285, 0.0, 10.000015, 9.999055 
5.050001e+2, 2.1500064e+2, -897068.75, -969544.06, -0.39373213, 0.0017901284, 0.05301397, -897068.75, -64069.938, 0.0, 10.000015, 9.999055 
5.050001e+2, 2.2499959e+2, -794455.9, -861978.25, 0.30736142, 0.0017900368, 0.03971496, -794455.9, -59448.2, 0.0, 10.000015, 9.999121 
5.050001e+2, 2.3499854e+2, -696436.6, -763964.9, -22.966581, 0.0018007037, 0.022232952, -696436.6, -59420.65, 0.0, 10.000015, 9.999121 
5.050001e+2, 2.4499743e+2, -598682.3, -666520.3, -18.018345, 0.0018179311, -0.00063561165, -598682.3, -59657.605, 0.0, 10.000015, 9.999117 
5.050001e+2, 2.5499627e+2, -500622.06, -568459.1, -43.18023, 0.0018417208, -0.029070452, -500622.03, -59588.055, 0.0, 10.000016, 9.999117 
5.050001e+2, 2.649952e+2, -389579.44, -443461.94, -29.980232, 0.001883831, -0.056728486, -389579.4, -46537.277, 0.0, 10.000016, 9.999302 
5.050001e+2, 2.7499422e+2, -291478.9, -345356.38, -58.739513, 0.0019442703, -0.08379315, -291478.84, -46429.66, 0.0, 10.000016, 9.999303 
5.050001e+2, 2.8499335e+2, -186533.13, -233056.86, -26.003914, 0.001992344, -0.10685468, -186533.11, -39477.684, 0.0, 10.000017, 9.9994 
5.050001e+2, 2.9499257e+2, -88398.04, -134921.81, -59.512505, 0.0020280397, -0.12609112, -88397.96, -39337.13, 0.0, 10.000018, 9.999401 
5.050002e+2, 3.0499193e+2, -20140.31, -46089.754, -19.61598, 0.0021425537, -0.14173524, -20140.295, -20140.295, 0.0, 10.000018, 9.999675 
5.050002e+2, 3.1499147e+2, -19991.537, -45965.055, -58.42263, 0.0023360124, -0.1539682, -19991.404, -19991.404, 0.0, 10.000019, 9.999675 
5.1500016e+2, 1.2500644e+2, -1720509.4, -1730872.1, 28.465364, 0.0026127426, 0.11263224, -1720509.3, -5562.3677, 0.0, 10.000019, 9.999882 
5.1500016e+2, 1.3500614e+2, -1622675.0, -1633032.3, -10.421397, 0.0024051298, 0.094948545, -1622675.0, -5726.3022, 0.0, 10.000018, 9.999881 
5.150001e+2, 1.4500572e+2, -1537493.3, -1561463.9, 36.722157, 0.0022810348, 0.073245056, -1537493.3, -18541.88, 0.0, 10.000018, 9.9997 
5.150001e+2, 1.5500516e+2, -1439613.5, -1463576.5, 3.1808543, 0.0022404029, 0.04726687, -1439613.5, -18658.643, 0.0, 10.000017, 9.9997 
5.150001e+2, 1.6500461e+2, -1361605.6, -1406943.3, 43.023647, 0.0021859666, 0.036297455, -1361605.6, -38646.52, 0.0, 10.000016, 9.999415 
5.150001e+2, 1.7500407e+2, -1263685.5, -1309018.6, 14.241194, 0.0021177349, 0.040112104, -1263685.5, -38721.34, 0.0, 10.000016, 9.999415 
5.150001e+2, 1.8500338e+2, -1189591.1, -1260557.8, 34.172447, 0.0020696984, 0.048308957, -1189591.1, -62619.887, 0.0, 10.000016, 9.999075 
5.150001e+2, 1.950026e+2, -1091644.0, -1162621.9, 8.993847, 0.0020418474, 0.06070306, -1091644.0, -62663.8, 0.0, 10.000015, 9.999075 
5.150001e+2, 2.0500168e+2, -995089.0, -1067594.1, 19.977196, 0.0020216391, 0.062324505, -995089.0, -64099.586, 0.0, 10.000015, 9.999055 
5.150001e+2, 2.1500064e+2, -897112.06, -969633.9, -3.3020148, 0.0020090719, 0.053018864, -897112.06, -64113.227, 0.0, 10.000015, 9.999054 
5.150001e+2, 2.2499959e+2, -794499.2, -862068.06, 3.1593282, 0.002008972, 0.039710324, -794499.2, -59491.47, 0.0, 10.000015, 9.99912 
5.150001e+2, 2.3499854e+2, -696479.9, -764054.7, -20.11414, 0.0020213395, 0.022218777, -696479.9, -59463.91, 0.0, 10.000015, 9.99912 
5.150001e+2, 2.4499743e+2, -598729.06, -666617.4, -9.111732, 0.00204136, -0.00065926963, -598729.06, -59704.367, 0.0, 10.000015, 9.999116 
5.150001e+2, 2.5499627e+2, -500668.84, -568556.25, -34.27281, 0.0020690358, -0.029103538, -500668.8, -59634.81, 0.0, 10.000016, 9.999116 
5.150001e+2, 2.649952e+2, -389632.88, -443572.94, -14.386194, 0.0021168569, -0.056771964, -389632.88, -46590.715, 0.0, 10.000016, 9.999301 
5.150001e+2, 2.7499422e+2, -291532.34, -345467.34, -43.1445, 0.0021848325, -0.08384798, -291532.3, -46483.094, 0.0, 10.000016, 9.999302 
5.150001e+2, 2.8499335e+2, -186595.39, -233186.19, -3.3628042, 0.00223905, -0.10691879, -186595.39, -39539.93, 0.0, 10.000017, 9.999399 
5.150001e+2, 2.9499257e+2, -88460.3, -135051.11, -36.869926, 0.0022794963, -0.12616245, -88460.266, -39399.383, 0.0, 10.000018, 9.9994 
5.1500016e+2, 3.049919e+2, -20212.424, -46239.53, 10.327326, 0.0024032586, -0.14181983, -20212.42, -20212.42, 0.0, 10.000018, 9.999674 
5.1500016e+2, 3.1499147e+2, -20063.656, -46114.85, -28.476461, 0.002610471, -0.15407214, -20063.627, -20063.627, 0.0, 10.000019, 9.999674 
5.2500015e+2, 1.2500645e+2, -1719879.6, -1730693.9, 60.815063, 0.0029062978, 0.112741396, -1719879.3, -4932.527, 0.0, 10.000024, 9.999881 
5.2500015e+2, 1.3500614e+2, -1622063.8, -1632862.9, 15.153877, 0.0026858898, 0.095038444, -1622063.8, -5115.079, 0.0, 10.000023, 9.99988 
5.2500015e+2, 1.4500572e+2, -1536890.6, -1561283.3, 62.695, 0.002552963, 0.07332152, -1536890.5, -17939.219, 0.0, 10.000022, 9.999699 
5.2500015e+2, 1.5500517e+2, -1439029.3, -1463404.8, 22.116373, 0.00250746, 0.047335744, -1439029.3, -18074.412, 0.0, 10.000022, 9.999699 
5.2500015e+2, 1.6500461e+2, -1361029.9, -1406761.5, 62.241657, 0.002446758, 0.036356635, -1361029.9, -38070.75, 0.0, 10.000021, 9.999414 
5.2500015e+2, 1.7500408e+2, -1263126.4, -1308844.9, 26.48327, 0.0023708662, 0.04015946, -1263126.4, -38162.176, 0.0, 10.00002, 9.999414 
5.2500015e+2, 1.8500338e+2, -1189038.6, -1260376.1, 47.001842, 0.0023169362, 0.048345268, -1189038.6, -62067.45, 0.0, 10.00002, 9.999075 
5.2500015e+2, 1.950026e+2, -1091102.4, -1162445.5, 15.108252, 0.0022849578, 0.060729098, -1091102.4, -62122.258, 0.0, 10.00002, 9.999074 
5.2500015e+2, 2.0500168e+2, -994551.06, -1067413.5, 26.4379, 0.0022617797, 0.062340215, -994551.06, -63561.703, 0.0, 10.000019, 9.999054 
5.2500015e+2, 2.1500064e+2, -896578.06, -969455.25, -3.3584943, 0.002247399, 0.053024206, -896578.06, -63579.227, 0.0, 10.000019, 9.999054 
5.2500015e+2, 2.2499959e+2, -793965.2, -861889.44, 3.3393784, 0.0022472907, 0.039705288, -793965.2, -58957.51, 0.0, 10.000019, 9.999119 
5.2500015e+2, 2.3499854e+2, -695942.1, -763874.25, -26.453632, 0.002261454, 0.022203337, -695942.1, -58926.15, 0.0, 10.000019, 9.999119 
5.2500015e+2, 2.4499743e+2, -598187.75, -666441.1, -15.109856, 0.002284429, -0.00068501045, -598187.75, -59163.004, 0.0, 10.00002, 9.999115 
5.2500015e+2, 2.5499624e+2, -500116.7, -568374.8, -46.987286, 0.0023162176, -0.029139481, -500116.66, -59082.64, 0.0, 10.00002, 9.999115 
5.2500015e+2, 2.649952e+2, -389074.1, -443399.38, -26.529627, 0.002369916, -0.056818962, -389074.1, -46031.887, 0.0, 10.00002, 9.9993 
5.2500015e+2, 2.749942e+2, -290957.13, -345285.88, -62.264908, 0.0024455339, -0.08390688, -290957.06, -45907.777, 0.0, 10.000021, 9.999301 
5.2500015e+2, 2.8499335e+2, -186011.75, -233014.89, -22.219057, 0.0025060026, -0.10698743, -186011.73, -38956.223, 0.0, 10.000022, 9.999398 
5.2500015e+2, 2.9499257e+2, -87858.43, -134871.05, -62.764534, 0.0025513084, -0.12623866, -87858.35, -38797.406, 0.0, 10.000022, 9.999399 
5.2500015e+2, 3.049919e+2, -19601.969, -46070.68, -15.162749, 0.0026838754, -0.14190945, -19601.959, -19601.959, 0.0, 10.000023, 9.999672 
5.2500015e+2, 3.1499144e+2, -19434.951, -45937.223, -60.732864, 0.0029038454, -0.15418099, -19434.813, -19434.813, 0.0, 10.000024, 9.999673 
5.3500026e+2, 1.2500647e+2, -1719964.6, -1730870.3, 26.041626, 0.0032187712, 0.112855494, -1719964.6, -5017.9185, 0.0, 10.000024, 9.99988 
5.350002e+2, 1.3500616e+2, -1622148.8, -1633039.3, -19.619986, 0.0029865599, 0.09513339, -1622148.6, -5200.1514, 0.0, 10.000023, 9.999879 
5.350002e+2, 1.4500573e+2, -1536966.3, -1561440.0, 35.22705, 0.0028452436, 0.073402904, -1536966.1, -18014.957, 0.0, 10.000022, 9.999698 
5.350002e+2, 1.5500517e+2, -1439104.8, -1463561.6, -5.349982, 0.0027947626, 0.047409177, -1439104.8, -18150.043, 0.0, 10.000022, 9.999698 
5.350002e+2, 1.6500463e+2, -1361096.5, -1406899.5, 42.294876, 0.00272769, 0.036419928, -1361096.4, -38137.395, 0.0, 10.000021, 9.9994135 
5.350002e+2, 1.7500408e+2, -1263192.9, -1308983.0, 6.5378547, 0.0026440348, 0.04021039, -1263192.9, -38228.78, 0.0, 10.00002, 9.9994135 
5.350002e+2, 1.850034e+2, -1189098.0, -1260499.3, 35.224056, 0.002584045, 0.048384488, -1189098.0, -62126.824, 0.0, 10.00002, 9.999074 
5.350002e+2, 1.950026e+2, -1091161.8, -1162568.6, 3.3311477, 0.0025477104, 0.060757253, -1091161.8, -62181.605, 0.0, 10.00002, 9.999073 
5.350002e+2, 2.0500168e+2, -994606.5, -1067528.5, 22.530394, 0.0025213994, 0.062357225, -994606.5, -63617.13, 0.0, 10.000019, 9.999053 
5.350002e+2, 2.1500064e+2, -896633.44, -969570.25, -7.2657285, 0.0025051096, 0.053030003, -896633.44, -63634.633, 0.0, 10.000019, 9.999053 
5.350002e+2, 2.2499959e+2, -794020.6, -862004.44, 7.182499, 0.0025049925, 0.03969984, -794020.6, -59012.9, 0.0, 10.000019, 9.999119 
5.350002e+2, 2.3499854e+2, -695997.5, -763989.25, -22.60987, 0.0025210471, 0.022186631, -695997.5, -58981.527, 0.0, 10.000019, 9.999119 
5.350002e+2, 2.4499743e+2, -598247.0, -666564.2, -3.3993852, 0.0025471377, -0.00071283407, -598247.0, -59222.242, 0.0, 10.00002, 9.999114 
5.350002e+2, 2.5499624e+2, -500175.94, -568497.8, -35.27585, 0.002583266, -0.029178286, -500175.94, -59141.875, 0.0, 10.00002, 9.999115 
5.350002e+2, 2.649952e+2, -389140.53, -443537.3, -6.665906, 0.0026430085, -0.056869484, -389140.53, -46098.28, 0.0, 10.00002, 9.999299 
5.350002e+2, 2.749942e+2, -291023.53, -345423.78, -42.40011, 0.0027263742, -0.08396987, -291023.5, -45974.17, 0.0, 10.000021, 9.9993 
5.350002e+2, 2.8499332e+2, -186087.11, -233171.39, 5.1497707, 0.0027932015, -0.10706061, -186087.11, -39031.53, 0.0, 10.000022, 9.999397 
5.350002e+2, 2.9499254e+2, -87933.76, -135027.5, -35.394154, 0.0028434754, -0.12631975, -87933.734, -38872.727, 0.0, 10.000022, 9.999398 
5.350002e+2, 3.049919e+2, -19686.65, -46246.566, 19.513702, 0.0029844036, -0.14200407, -19686.635, -19686.635, 0.0, 10.000023, 9.999671 
5.3500026e+2, 3.1499144e+2, -19519.64, -46113.13, -26.053453, 0.0032161353, -0.15429476, -19519.615, -19519.615, 0.0, 10.000024, 9.999672 
5.4500026e+2, 1.2500647e+2, -1719243.5, -1730668.1, 60.917416, 0.0035497518, 0.11297379, -1719243.3, -4296.601, 0.0, 10.00003, 9.999878 
5.4500026e+2, 1.3500617e+2, -1621444.0, -1632845.0, 8.398235, 0.0033072124, 0.095232785, -1621444.0, -4495.492, 0.0, 10.000029, 9.999877 
5.4500026e+2, 1.4500573e+2, -1536269.8, -1561235.8, 63.17722, 0.003158301, 0.07348876, -1536269.6, -17318.432, 0.0, 10.000028, 9.999697 
5.4500026e+2, 1.5500517e+2, -1438426.3, -1463366.0, 15.106873, 0.0031029556, 0.04748686, -1438426.3, -17471.53, 0.0, 10.000027, 9.999696 
5.4500026e+2, 1.6500463e+2, -1360426.8, -1406694.3, 62.73203, 0.0030297034, 0.03648715, -1360426.6, -37467.633, 0.0, 10.000026, 9.999413 
5.450002e+2, 1.7500408e+2, -1262540.5, -1308786.0, 19.222473, 0.0029385542, 0.04026482, -1262540.4, -37576.33, 0.0, 10.000026, 9.999413 
5.450002e+2, 1.850034e+2, -1188452.9, -1260294.4, 49.02985, 0.0028726098, 0.048426613, -1188452.8, -61481.645, 0.0, 10.000025, 9.999073 
5.450002e+2, 1.950026e+2, -1090528.4, -1162369.4, 9.385036, 0.0028318595, 0.06078755, -1090528.4, -61548.25, 0.0, 10.000025, 9.999072 
5.450002e+2, 2.0500168e+2, -993977.2, -1067325.0, 29.709822, 0.0028023755, 0.062375564, -993977.2, -62987.848, 0.0, 10.000024, 9.999052 
5.450002e+2, 2.1500064e+2, -896008.5, -969368.8, -7.7636147, 0.0027841544, 0.053036254, -896008.5, -63009.668, 0.0, 10.000024, 9.999052 
5.450002e+2, 2.2499959e+2, -793395.7, -861803.06, 7.8612113, 0.0027840277, 0.039693985, -793395.7, -58387.98, 0.0, 10.000024, 9.999118 
5.450002e+2, 2.3499854e+2, -695368.4, -763785.8, -29.61212, 0.0028019939, 0.022168642, -695368.4, -58352.38, 0.0, 10.000024, 9.999118 
5.450002e+2, 2.4499743e+2, -597613.9, -666365.1, -9.284871, 0.00283124, -0.00074275455, -597613.9, -58589.074, 0.0, 10.000025, 9.999113 
5.450002e+2, 2.5499624e+2, -499531.1, -568293.2, -48.917145, 0.0028717676, -0.029219935, -499531.06, -58496.977, 0.0, 10.000025, 9.999114 
5.450002e+2, 2.649952e+2, -388488.47, -443340.7, -19.212675, 0.002937452, -0.05692345, -388488.47, -45446.184, 0.0, 10.000026, 9.999298 
5.4500026e+2, 2.749942e+2, -290354.34, -345218.88, -62.705025, 0.0030283015, -0.08403674, -290354.28, -45304.902, 0.0, 10.000026, 9.999299 
5.4500026e+2, 2.8499332e+2, -185409.22, -232976.23, -15.195558, 0.0031012986, -0.107138, -185409.2, -38353.58, 0.0, 10.000027, 9.999396 
5.4500026e+2, 2.9499254e+2, -87238.09, -134823.8, -63.232746, 0.0031564273, -0.1264053, -87238.01, -38176.926, 0.0, 10.000028, 9.999397 
5.4500026e+2, 3.049919e+2, -18982.762, -46052.91, -8.387187, 0.0033049227, -0.14210312, -18982.76, -18982.76, 0.0, 10.000029, 9.99967 
5.4500026e+2, 3.1499144e+2, -18799.494, -45911.656, -60.808323, 0.003546941, -0.15441269, -18799.357, -18799.357, 0.0, 10.00003, 9.99967 
5.550003e+2, 1.2500648e+2, -1719341.3, -1730871.0, 21.912838, 0.003899239, 0.113096274, -1719341.3, -4394.7793, 0.0, 10.00003, 9.999877 
5.5500025e+2, 1.3500617e+2, -1621541.8, -1633047.9, -30.607098, 0.0036478469, 0.09533664, -1621541.6, -4593.2827, 0.0, 10.000029, 9.999876 
5.5500025e+2, 1.4500575e+2, -1536359.3, -1561421.5, 31.079702, 0.0034921358, 0.07357909, -1536359.3, -17408.145, 0.0, 10.000028, 9.999696 
5.5500025e+2, 1.5500519e+2, -1438515.8, -1463551.6, -16.98901, 0.003432039, 0.047568798, -1438515.8, -17561.102, 0.0, 10.000027, 9.999695 
5.5500025e+2, 1.6500464e+2, -1360507.6, -1406862.3, 38.322807, 0.0033527985, 0.0365583, -1360507.6, -37548.715, 0.0, 10.000026, 9.999412 
5.5500025e+2, 1.7500408e+2, -1262621.4, -1308954.1, -5.1852703, 0.003254424, 0.040322747, -1262621.4, -37657.36, 0.0, 10.000026, 9.999412 
5.5500025e+2, 1.850034e+2, -1188526.6, -1260447.4, 34.20091, 0.0031826298, 0.048471645, -1188526.5, -61555.45, 0.0, 10.000025, 9.999072 
5.5500025e+2, 1.950026e+2, -1090602.1, -1162522.5, -5.443064, 0.003137405, 0.060819995, -1090602.1, -61622.02, 0.0, 10.000025, 9.999071 
5.5500025e+2, 2.0500168e+2, -994046.9, -1067469.6, 24.693136, 0.0031047072, 0.06239523, -994046.9, -63057.555, 0.0, 10.000024, 9.999051 
5.5500025e+2, 2.1500064e+2, -896078.2, -969513.44, -12.779886, 0.0030845334, 0.05304297, -896078.2, -63079.35, 0.0, 10.000024, 9.999051 
5.5500025e+2, 2.2499959e+2, -793465.4, -861947.7, 12.807214, 0.0030843962, 0.03968772, -793465.4, -58457.65, 0.0, 10.000024, 9.999117 
5.5500025e+2, 2.3499854e+2, -695438.06, -763930.5, -24.665297, 0.003104294, 0.022149365, -695438.06, -58422.03, 0.0, 10.000024, 9.999117 
5.5500025e+2, 2.4499741e+2, -597687.5, -666518.06, 5.4683776, 0.0031367354, -0.00077477196, -597687.5, -58662.723, 0.0, 10.000025, 9.999112 
5.5500025e+2, 2.5499624e+2, -499604.75, -568446.1, -34.162792, 0.0031817222, -0.02926443, -499604.75, -58570.62, 0.0, 10.000025, 9.999112 
5.5500025e+2, 2.649952e+2, -388569.3, -443508.53, 5.0965204, 0.003253246, -0.05698085, -388569.3, -45526.98, 0.0, 10.000026, 9.999297 
5.5500025e+2, 2.749942e+2, -290435.16, -345386.72, -38.39469, 0.0033513154, -0.08410748, -290435.13, -45385.707, 0.0, 10.000026, 9.999298 
5.5500025e+2, 2.8499332e+2, -185498.48, -233161.66, 16.788507, 0.0034302934, -0.10721961, -185498.48, -38442.78, 0.0, 10.000027, 9.999395 
5.5500025e+2, 2.9499254e+2, -87327.34, -135009.16, -31.247034, 0.0034901635, -0.12649527, -87327.32, -38266.156, 0.0, 10.000028, 9.999395 
5.5500025e+2, 3.0499187e+2, -19080.174, -46255.24, 30.506762, 0.0036454324, -0.14220661, -19080.139, -19080.139, 0.0, 10.000029, 9.999668 
5.550003e+2, 3.149914e+2, -18896.916, -46114.008, -21.911354, 0.0038962627, -0.15453479, -18896.898, -18896.898, 0.0, 10.00003, 9.999669 
5.650003e+2, 1.250065e+2, -1718528.6, -1730645.0, 59.186577, 0.004266959, 0.11322234, -1718528.3, -3581.9229, 0.0, 10.000036, 9.999875 
5.650003e+2, 1.3500619e+2, -1620742.1, -1632828.3, -0.15813623, 0.00400845, 0.09544427, -1620742.1, -3793.89, 0.0, 10.000034, 9.999874 
5.650003e+2, 1.4500576e+2, -1535566.9, -1561193.6, 60.766743, 0.0038469986, 0.073673256, -1535566.8, -16615.744, 0.0, 10.000033, 9.999694 
5.650003e+2, 1.550052e+2, -1437739.4, -1463331.5, 4.9165974, 0.0037825324, 0.047654502, -1437739.4, -16784.8, 0.0, 10.000032, 9.999694 
5.650003e+2, 1.6500464e+2, -1359739.5, -1406633.4, 59.767834, 0.003697849, 0.036633026, -1359739.4, -36780.566, 0.0, 10.000031, 9.999411 
5.6500024e+2, 1.750041e+2, -1261869.6, -1308733.3, 7.8579445, 0.0035929584, 0.040383946, -1261869.6, -36905.676, 0.0, 10.000031, 9.99941 
5.6500024e+2, 1.850034e+2, -1187782.0, -1260219.0, 48.848385, 0.0035157618, 0.04851944, -1187782.0, -60810.9, 0.0, 10.0000305, 9.99907 
5.6500024e+2, 1.9500262e+2, -1089869.4, -1162299.9, 0.4573433, 0.0034662485, 0.0608545, -1089869.4, -60889.258, 0.0, 10.0000305, 9.99907 
5.6500024e+2, 2.0500168e+2, -993318.25, -1067242.8, 32.5577, 0.0034304745, 0.062416192, -993318.25, -62328.926, 0.0, 10.00003, 9.99905 
5.6500024e+2, 2.1500064e+2, -895353.94, -969288.6, -13.769809, 0.003408436, 0.05305014, -895353.94, -62355.133, 0.0, 10.00003, 9.99905 
5.6500024e+2, 2.2499959e+2, -792741.2, -861722.94, 14.053591, 0.0034082877, 0.039681062, -792741.2, -57733.484, 0.0, 10.00003, 9.999115 
5.6500024e+2, 2.3499852e+2, -694709.56, -763703.7, -32.277855, 0.0034300275, 0.022128846, -694709.56, -57693.535, 0.0, 10.00003, 9.999115 
5.6500024e+2, 2.4499741e+2, -596955.0, -666295.6, -0.1943514, 0.003465529, -0.0008087972, -596955.0, -57930.15, 0.0, 10.0000305, 9.999111 
5.6500024e+2, 2.5499624e+2, -498860.53, -568218.06, -48.580677, 0.0035147937, -0.029311609, -498860.5, -57826.35, 0.0, 10.0000305, 9.999111 
5.6500024e+2, 2.649952e+2, -387818.03, -443288.1, -7.7585945, 0.0035917135, -0.05704144, -387818.03, -44775.65, 0.0, 10.000031, 9.999296 
5.650003e+2, 2.749942e+2, -289667.6, -345158.4, -59.663918, 0.003696297, -0.08418174, -289667.53, -44618.055, 0.0, 10.000031, 9.999296 
5.650003e+2, 2.8499332e+2, -184722.8, -232942.05, -4.964026, 0.0037807124, -0.10730493, -184722.8, -37667.02, 0.0, 10.000032, 9.999393 
5.650003e+2, 2.949925e+2, -86535.79, -134781.92, -60.78453, 0.0038449417, -0.12658906, -86535.72, -37474.46, 0.0, 10.000033, 9.999394 
5.650003e+2, 3.0499187e+2, -18281.504, -46036.215, 0.20846775, 0.0040059285, -0.14231382, -18281.504, -18281.504, 0.0, 10.000034, 9.999667 
5.650003e+2, 3.149914e+2, -18085.219, -45888.73, -59.03529, 0.004263842, -0.15466042, -18085.092, -18085.092, 0.0, 10.000036, 9.999667 
5.7500035e+2, 1.2500651e+2, -1718639.1, -1730874.3, 16.7883, 0.004652912, 0.11335197, -1718639.0, -3692.807, 0.0, 10.000036, 9.999874 
5.7500035e+2, 1.350062e+2, -1620852.6, -1633057.4, -42.55734, 0.004389022, 0.09555568, -1620852.5, -3904.3247, 0.0, 10.000034, 9.999873 
5.750003e+2, 1.4500576e+2, -1535670.9, -1561409.4, 24.540247, 0.0042228894, 0.073771276, -1535670.9, -16719.959, 0.0, 10.000033, 9.999693 
5.750003e+2, 1.550052e+2, -1437843.3, -1463547.4, -31.308216, 0.004154436, 0.047743972, -1437843.3, -16888.836, 0.0, 10.000032, 9.999692 
5.750003e+2, 1.6500464e+2, -1359836.1, -1406833.9, 31.117956, 0.004064855, 0.036711328, -1359836.1, -36877.297, 0.0, 10.000031, 9.999409 
5.750003e+2, 1.750041e+2, -1261966.3, -1308933.8, -20.790407, 0.003954157, 0.04044841, -1261966.3, -37002.336, 0.0, 10.000031, 9.999409 
5.750003e+2, 1.8500341e+2, -1187872.0, -1260405.9, 30.978216, 0.0038720053, 0.04857, -1187872.0, -60900.984, 0.0, 10.0000305, 9.999069 
5.750003e+2, 1.9500262e+2, -1089959.4, -1162486.6, -17.411825, 0.0038183897, 0.06089107, -1089959.4, -60979.297, 0.0, 10.0000305, 9.999069 
5.750003e+2, 2.0500168e+2, -993404.44, -1067421.5, 26.407982, 0.0037796765, 0.062438447, -993404.4, -62415.1, 0.0, 10.00003, 9.999049 
5.750003e+2, 2.1500064e+2, -895440.06, -969467.44, -19.918938, 0.0037558617, 0.053057764, -895440.06, -62441.277, 0.0, 10.00003, 9.999048 
5.750003e+2, 2.2499959e+2, -792827.3, -861901.8, 20.129778, 0.003755702, 0.039674014, -792827.3, -57819.617, 0.0, 10.00003, 9.999114 
5.750003e+2, 2.3499852e+2, -694795.7, -763882.5, -26.200665, 0.003779194, 0.022107083, -694795.7, -57779.656, 0.0, 10.00003, 9.999114 
5.750003e+2, 2.4499741e+2, -597044.94, -666482.4, 17.593578, 0.0038176202, -0.00084483024, -597044.94, -58020.06, 0.0, 10.0000305, 9.99911 
5.750003e+2, 2.5499624e+2, -498950.47, -568404.8, -30.791557, 0.0038709813, -0.029361475, -498950.47, -57916.258, 0.0, 10.0000305, 9.99911 
5.750003e+2, 2.6499516e+2, -387914.5, -443488.4, 20.775078, 0.003952854, -0.057105217, -387914.5, -44872.063, 0.0, 10.000031, 9.999294 
5.750003e+2, 2.7499416e+2, -289764.06, -345358.72, -31.129103, 0.004063247, -0.08425952, -289764.03, -44714.48, 0.0, 10.000031, 9.999295 
5.750003e+2, 2.849933e+2, -184826.53, -233157.5, 31.137207, 0.004152555, -0.10739399, -184826.52, -37770.656, 0.0, 10.000032, 9.9993925 
5.750003e+2, 2.949925e+2, -86639.5, -134997.31, -24.68149, 0.0042207614, -0.12668665, -86639.484, -37578.133, 0.0, 10.000033, 9.9993925 
5.7500035e+2, 3.0499184e+2, -18391.592, -46264.88, 42.48249, 0.0043864106, -0.14242479, -18391.527, -18391.527, 0.0, 10.000034, 9.999665 
5.7500035e+2, 3.1499138e+2, -18195.318, -46117.42, -16.758158, 0.0046496782, -0.15478958, -18195.309, -18195.309, 0.0, 10.000036, 9.999666 
5.8500046e+2, 1.2500653e+2, -1717734.4, -1730624.0, 56.60758, 0.0050574453, 0.11348484, -1717734.1, -2788.036, 0.0, 10.000043, 9.999872 
5.850004e+2, 1.3500622e+2, -1619957.0, -1632811.6, -9.521684, 0.0047898022, 0.09567022, -1619957.0, -3009.0386, 0.0, 10.000042, 9.999871 
5.850004e+2, 1.4500578e+2, -1534780.8, -1561157.8, 55.94084, 0.004620134, 0.073872395, -1534780.6, -15829.878, 0.0, 10.000041, 9.999691 
5.850004e+2, 1.5500522e+2, -1436965.9, -1463301.8, -7.8480687, 0.0045483545, 0.04783661, -1436965.9, -16011.471, 0.0, 10.000039, 9.99969 
5.850004e+2, 1.6500466e+2, -1358965.3, -1406581.3, 53.586224, 0.004454784, 0.036792718, -1358965.1, -36006.46, 0.0, 10.000038, 9.999408 
5.850004e+2, 1.7500411e+2, -1261109.1, -1308687.8, -7.2329926, 0.0043394323, 0.04051574, -1261109.1, -36145.234, 0.0, 10.000038, 9.999407 
5.850004e+2, 1.8500341e+2, -1187021.0, -1260153.5, 46.447147, 0.0042531425, 0.04862301, -1187021.0, -60049.98, 0.0, 10.000037, 9.999068 
5.850003e+2, 1.9500262e+2, -1089118.8, -1162239.4, -11.599517, 0.0041959044, 0.0609295, -1089118.8, -60138.758, 0.0, 10.000036, 9.999067 
5.850003e+2, 2.0500168e+2, -992567.56, -1067170.4, 34.945038, 0.004154605, 0.062461883, -992567.56, -61578.254, 0.0, 10.000036, 9.999047 
5.850003e+2, 2.1500064e+2, -894607.25, -969218.3, -21.37443, 0.0041292394, 0.05306581, -894607.25, -61608.47, 0.0, 10.000036, 9.999047 
5.850003e+2, 2.2499959e+2, -791994.6, -861652.7, 21.938911, 0.0041290694, 0.03966662, -791994.6, -56986.87, 0.0, 10.000036, 9.999113 
5.850003e+2, 2.3499852e+2, -693959.0, -763631.56, -34.39022, 0.0041540912, 0.022084197, -693959.0, -56942.938, 0.0, 10.000036, 9.999113 
5.850003e+2, 2.4499741e+2, -596204.6, -666235.3, 12.108379, 0.0041950922, -0.00088265905, -596204.6, -57179.703, 0.0, 10.000036, 9.999108 
5.850004e+2, 2.5499624e+2, -498099.78, -568152.75, -45.94614, 0.004252073, -0.029413702, -498099.75, -57065.51, 0.0, 10.000037, 9.999108 
5.850004e+2, 2.6499516e+2, -387057.78, -443242.88, 7.475523, 0.0043380866, -0.057171766, -387057.78, -44015.277, 0.0, 10.000038, 9.999293 
5.850004e+2, 2.7499416e+2, -288893.75, -345106.63, -53.35985, 0.0044531412, -0.084340304, -288893.72, -43844.082, 0.0, 10.000038, 9.999293 
5.850004e+2, 2.849933e+2, -183949.69, -232912.5, 7.8841996, 0.00454644, -0.10748615, -183949.67, -36893.727, 0.0, 10.000039, 9.999391 
5.850004e+2, 2.949925e+2, -85750.19, -134746.31, -55.884335, 0.004617966, -0.1267873, -85750.125, -36688.67, 0.0, 10.000041, 9.999392 
5.850004e+2, 3.0499184e+2, -17496.924, -46019.813, 9.636163, 0.0047871307, -0.14253885, -17496.92, -17496.92, 0.0, 10.000042, 9.999663 
5.8500046e+2, 3.1499138e+2, -17291.652, -45868.04, -56.396053, 0.0050541204, -0.15492193, -17291.541, -17291.541, 0.0, 10.000043, 9.999664 
5.9500045e+2, 1.2500654e+2, -1717857.5, -1730879.5, 11.856196, 0.00548056, 0.11362093, -1717857.5, -2911.5388, 0.0, 10.000043, 9.99987 
5.9500045e+2, 1.3500623e+2, -1620080.1, -1633067.0, -54.273853, 0.005210791, 0.0957879, -1620079.9, -3132.0432, 0.0, 10.000042, 9.999869 
5.9500045e+2, 1.4500579e+2, -1534899.5, -1561404.1, 16.46724, 0.0050387327, 0.07397663, -1534899.5, -15948.879, 0.0, 10.000041, 9.999689 
5.9500045e+2, 1.5500523e+2, -1437084.6, -1463548.3, -47.31986, 0.0049642883, 0.047932412, -1437084.5, -16130.26, 0.0, 10.000039, 9.999689 
5.950004e+2, 1.6500467e+2, -1359078.4, -1406816.1, 21.406145, 0.004867636, 0.036877193, -1359078.4, -36119.777, 0.0, 10.000038, 9.999406 
5.950004e+2, 1.7500411e+2, -1261222.4, -1308922.6, -39.411568, 0.0047487845, 0.04058593, -1261222.3, -36258.46, 0.0, 10.000038, 9.999406 
5.950004e+2, 1.8500341e+2, -1187129.0, -1260377.6, 25.880325, 0.0046591735, 0.048678484, -1187129.0, -60158.04, 0.0, 10.000037, 9.999066 
5.950004e+2, 1.9500262e+2, -1089226.8, -1162463.4, -32.165188, 0.004598792, 0.060969792, -1089226.8, -60246.754, 0.0, 10.000036, 9.999066 
5.950004e+2, 2.050017e+2, -992672.3, -1067387.8, 27.759907, 0.0045552584, 0.062486503, -992672.25, -61683.02, 0.0, 10.000036, 9.999046 
5.950004e+2, 2.1500064e+2, -894712.0, -969435.7, -28.558754, 0.0045285677, 0.053074274, -894712.0, -61713.19, 0.0, 10.000036, 9.999045 
5.950004e+2, 2.2499959e+2, -792099.3, -861870.1, 29.051798, 0.0045283893, 0.039658874, -792099.3, -57091.586, 0.0, 10.000036, 9.999111 
5.950004e+2, 2.3499852e+2, -694063.75, -763849.0, -27.276176, 0.0045547183, 0.022060186, -694063.7, -57047.64, 0.0, 10.000036, 9.999111 
5.950004e+2, 2.4499741e+2, -596312.5, -666459.4, 32.592396, 0.0045979447, -0.00092228357, -596312.5, -57287.566, 0.0, 10.000036, 9.999107 
5.950004e+2, 2.549962e+2, -498207.7, -568376.8, -25.460928, 0.004658068, -0.029468292, -498207.7, -57173.375, 0.0, 10.000037, 9.999107 
5.950004e+2, 2.6499516e+2, -387170.84, -443477.7, 39.531677, 0.004747411, -0.05724108, -387170.8, -44128.254, 0.0, 10.000038, 9.999291 
5.950004e+2, 2.7499416e+2, -289006.8, -345341.38, -21.302595, 0.0048659802, -0.0844241, -289006.78, -43957.074, 0.0, 10.000038, 9.999292 
5.9500045e+2, 2.849933e+2, -184068.19, -233158.64, 47.219604, 0.0049623675, -0.10758143, -184068.14, -37012.094, 0.0, 10.000039, 9.999389 
5.9500045e+2, 2.9499248e+2, -85868.664, -134992.38, -16.546827, 0.0050365543, -0.12689105, -85868.66, -36807.082, 0.0, 10.000041, 9.99939 
5.9500045e+2, 3.0499184e+2, -17619.625, -46274.676, 54.24599, 0.0052080895, -0.142656, -17619.521, -17619.521, 0.0, 10.000042, 9.999662 
5.9500045e+2, 3.1499135e+2, -17414.367, -46122.934, -11.782888, 0.005477167, -0.15505747, -17414.361, -17414.361, 0.0, 10.000043, 9.999662 
6.050005e+2, 1.2500656e+2, -1716858.5, -1730604.1, 54.679604, 0.005923624, 0.1137603, -1716858.3, -1912.5077, 0.0, 10.000051, 9.999868 
6.050005e+2, 1.3500625e+2, -1619086.3, -1632794.1, -18.327795, 0.005652842, 0.09590821, -1619086.3, -2138.4597, 0.0, 10.00005, 9.999867 
6.050005e+2, 1.450058e+2, -1533908.9, -1561127.8, 49.848564, 0.0054793977, 0.07408325, -1533908.8, -14958.293, 0.0, 10.000049, 9.999687 
6.0500044e+2, 1.5500523e+2, -1436102.0, -1463275.8, -21.99157, 0.005403181, 0.048030734, -1436102.0, -15147.811, 0.0, 10.000047, 9.999687 
6.0500044e+2, 1.6500467e+2, -1358099.9, -1406538.5, 45.216476, 0.005304642, 0.03696416, -1358099.8, -35141.258, 0.0, 10.000046, 9.999404 
6.0500044e+2, 1.7500412e+2, -1260252.8, -1308649.5, -24.8993, 0.005183788, 0.040658418, -1260252.8, -35289.04, 0.0, 10.000045, 9.999404 
6.0500044e+2, 1.8500343e+2, -1186163.6, -1260099.9, 42.313347, 0.0050919997, 0.048735928, -1186163.6, -59192.723, 0.0, 10.000045, 9.999064 
6.0500044e+2, 1.9500263e+2, -1088269.0, -1162189.4, -26.170753, 0.005029264, 0.061011616, -1088269.0, -59289.11, 0.0, 10.000044, 9.999064 
6.0500044e+2, 2.050017e+2, -991717.3, -1067110.9, 36.99461, 0.004984075, 0.062512115, -991717.25, -60728.043, 0.0, 10.000044, 9.999044 
6.0500044e+2, 2.1500064e+2, -893760.1, -969160.25, -30.348577, 0.0049564275, 0.053083107, -893760.06, -60761.3, 0.0, 10.000043, 9.999044 
6.0500044e+2, 2.2499959e+2, -791147.5, -861594.9, 31.320036, 0.004956244, 0.039650857, -791147.5, -56139.758, 0.0, 10.000043, 9.999109 
6.0500044e+2, 2.3499852e+2, -693108.9, -763572.3, -36.042, 0.0049835183, 0.02203526, -693108.9, -56092.773, 0.0, 10.000044, 9.999109 
6.0500044e+2, 2.449974e+2, -595355.06, -666185.7, 27.039974, 0.005028397, -0.0009633523, -595355.06, -56330.074, 0.0, 10.000044, 9.999105 
6.0500044e+2, 2.549962e+2, -497242.66, -568099.5, -41.470867, 0.005090878, -0.029524744, -497242.63, -56208.26, 0.0, 10.000045, 9.999105 
6.0500044e+2, 2.6499516e+2, -386201.72, -443205.06, 25.372845, 0.005182412, -0.05731257, -386201.72, -43159.07, 0.0, 10.000045, 9.9992895 
6.0500044e+2, 2.7499413e+2, -288028.72, -345064.44, -44.78694, 0.005303006, -0.084510304, -288028.7, -42978.887, 0.0, 10.000046, 9.99929 
6.0500044e+2, 2.8499326e+2, -183086.08, -232886.69, 22.171993, 0.0054012933, -0.10767915, -183086.06, -36029.91, 0.0, 10.000047, 9.999387 
6.050005e+2, 2.9499248e+2, -84878.695, -134716.64, -49.660835, 0.005477255, -0.12699711, -84878.64, -35816.945, 0.0, 10.000049, 9.999388 
6.050005e+2, 3.049918e+2, -16626.475, -46002.465, 18.546202, 0.0056501534, -0.14277576, -16626.463, -16626.463, 0.0, 10.00005, 9.9996605 
6.050005e+2, 3.1499135e+2, -16416.309, -45848.387, -54.375454, 0.0059201927, -0.15519622, -16416.207, -16416.207, 0.0, 10.000051, 9.9996605 
6.1500055e+2, 1.2500659e+2, -1716994.4, -1730886.0, 8.631657, 0.006386638, 0.11390295, -1716994.4, -2048.8076, 0.0, 10.000051, 9.9998665 
6.1500055e+2, 1.3500628e+2, -1619222.1, -1633076.0, -64.37593, 0.006115956, 0.09603117, -1619221.8, -2274.2249, 0.0, 10.00005, 9.999866 
6.150005e+2, 1.4500582e+2, -1534042.6, -1561405.4, 8.319441, 0.0059421295, 0.074192256, -1534042.6, -15092.283, 0.0, 10.000049, 9.999685 
6.150005e+2, 1.5500525e+2, -1436235.8, -1463553.3, -63.518597, 0.005865033, 0.048131578, -1436235.6, -15281.56, 0.0, 10.000047, 9.999685 
6.150005e+2, 1.6500469e+2, -1358230.4, -1406809.3, 10.711512, 0.0057658013, 0.037053615, -1358230.4, -35271.87, 0.0, 10.000046, 9.999402 
6.150005e+2, 1.7500412e+2, -1260383.3, -1308920.4, -59.40282, 0.0056444434, 0.0407332, -1260383.3, -35419.55, 0.0, 10.000045, 9.999402 
6.150005e+2, 1.8500343e+2, -1186291.0, -1260364.3, 19.7754, 0.00555162, 0.048795346, -1186291.0, -59320.203, 0.0, 10.000045, 9.999063 
6.150005e+2, 1.9500263e+2, -1088396.4, -1162453.9, -48.707417, 0.005487319, 0.061054964, -1088396.4, -59416.516, 0.0, 10.000044, 9.999063 
6.150005e+2, 2.050017e+2, -991842.5, -1067370.8, 29.022758, 0.0054410533, 0.06253871, -991842.5, -60853.31, 0.0, 10.000044, 9.9990425 
6.150005e+2, 2.1500064e+2, -893885.3, -969420.2, -38.319397, 0.0054128175, 0.0530923, -893885.3, -60886.516, 0.0, 10.000043, 9.9990425 
6.150005e+2, 2.2499959e+2, -791272.75, -861854.9, 39.22928, 0.005412632, 0.039642572, -791272.75, -56264.98, 0.0, 10.000043, 9.999108 
6.150005e+2, 2.3499852e+2, -693234.1, -763832.25, -28.131508, 0.00544049, 0.02200942, -693234.1, -56217.98, 0.0, 10.000044, 9.999108 
6.150005e+2, 2.449974e+2, -595482.4, -666450.1, 49.503197, 0.0054864474, -0.0010058652, -595482.4, -56457.35, 0.0, 10.000044, 9.999104 
6.150005e+2, 2.549962e+2, -497369.97, -568363.9, -19.00654, 0.0055505023, -0.029583056, -497369.97, -56335.543, 0.0, 10.000045, 9.999104 
6.150005e+2, 2.6499513e+2, -386332.13, -443475.84, 59.756386, 0.0056430902, -0.05738624, -386332.06, -43289.34, 0.0, 10.000045, 9.999288 
6.150005e+2, 2.7499413e+2, -288159.1, -345335.16, -10.402347, 0.005764219, -0.08459889, -288159.1, -43109.176, 0.0, 10.000046, 9.999289 
6.150005e+2, 2.8499326e+2, -183219.58, -233163.95, 63.55212, 0.0058632176, -0.107779324, -183219.5, -36163.22, 0.0, 10.000047, 9.999385 
6.150005e+2, 2.9499242e+2, -85012.14, -134993.83, -8.278107, 0.005940068, -0.12710552, -85012.14, -35950.31, 0.0, 10.000049, 9.999386 
6.1500055e+2, 3.0499178e+2, -16761.975, -46283.926, 64.43203, 0.006113322, -0.14289808, -16761.834, -16761.834, 0.0, 10.00005, 9.999659 
6.1500055e+2, 3.1499133e+2, -16551.824, -46129.88, -8.485798, 0.0063831974, -0.1553382, -16551.822, -16551.822, 0.0, 10.000051, 9.999659 
6.250006e+2, 1.250066e+2, -1715895.3, -1730583.3, 55.10347, 0.006872235, 0.114049286, -1715895.0, -949.61273, 0.0, 10.000059, 9.999865 
6.250006e+2, 1.350063e+2, -1618124.8, -1632774.3, -25.148108, 0.006601895, 0.096156485, -1618124.8, -1177.2798, 0.0, 10.000058, 9.999864 
6.2500054e+2, 1.4500584e+2, -1532946.4, -1561102.1, 44.207924, 0.0064283167, 0.074303016, -1532946.4, -13996.088, 0.0, 10.000057, 9.999683 
6.2500054e+2, 1.5500526e+2, -1435142.3, -1463251.5, -35.851547, 0.0063513545, 0.04823429, -1435142.3, -14188.334, 0.0, 10.000055, 9.999683 
6.2500054e+2, 1.650047e+2, -1357137.6, -1406504.8, 36.484, 0.006252755, 0.03714489, -1357137.6, -34179.28, 0.0, 10.000054, 9.9994 
6.2500054e+2, 1.7500414e+2, -1259293.5, -1308617.3, -43.236073, 0.006132525, 0.04080956, -1259293.5, -34329.87, 0.0, 10.000053, 9.9994 
6.2500054e+2, 1.8500344e+2, -1185202.6, -1260059.1, 37.49497, 0.0060400106, 0.048856087, -1185202.5, -58231.813, 0.0, 10.000052, 9.999061 
6.250005e+2, 1.9500263e+2, -1087311.5, -1162150.4, -42.047737, 0.0059751994, 0.06109936, -1087311.4, -58331.586, 0.0, 10.000052, 9.999061 
6.250005e+2, 2.050017e+2, -990758.6, -1067065.8, 39.02716, 0.005928627, 0.06256601, -990758.6, -59769.457, 0.0, 10.0000515, 9.999041 
6.250005e+2, 2.1500064e+2, -892803.0, -969115.9, -40.191345, 0.0059002885, 0.053101763, -892802.94, -59804.184, 0.0, 10.0000515, 9.999041 
6.250005e+2, 2.2499959e+2, -790190.5, -861550.7, 41.744232, 0.0059001055, 0.039634123, -790190.5, -55182.715, 0.0, 10.0000515, 9.999106 
6.250005e+2, 2.3499851e+2, -692150.4, -763527.44, -37.50746, 0.00592807, 0.021982975, -692150.4, -55134.195, 0.0, 10.0000515, 9.999106 
6.250005e+2, 2.449974e+2, -594397.56, -666147.0, 43.436787, 0.005974345, -0.0010493245, -594397.56, -55372.5, 0.0, 10.000052, 9.999102 
6.2500054e+2, 2.549962e+2, -496281.75, -568059.2, -36.158108, 0.0060389284, -0.029642561, -496281.72, -55247.246, 0.0, 10.000052, 9.999102 
6.2500054e+2, 2.6499513e+2, -385242.6, -443173.34, 44.072803, 0.0061312346, -0.057461355, -385242.56, -42199.77, 0.0, 10.000053, 9.999286 
6.2500054e+2, 2.7499413e+2, -287066.8, -345031.34, -35.729195, 0.0062512704, -0.084689185, -287066.78, -42016.766, 0.0, 10.000054, 9.999287 
6.2500054e+2, 2.8499323e+2, -182126.47, -232862.72, 36.26129, 0.006349662, -0.107881285, -182126.44, -35070.035, 0.0, 10.000055, 9.999383 
6.2500054e+2, 2.9499242e+2, -83916.336, -134691.28, -43.813957, 0.00642639, -0.12721561, -83916.3, -34854.32, 0.0, 10.000056, 9.999384 
6.250006e+2, 3.0499178e+2, -15665.199, -45982.8, 25.51319, 0.0065993667, -0.14302272, -15665.178, -15665.178, 0.0, 10.000058, 9.999656 
6.250006e+2, 3.1499133e+2, -15453.385, -45827.99, -54.672832, 0.0068688253, -0.15548377, -15453.286, -15453.286, 0.0, 10.000059, 9.999657 
6.3500065e+2, 1.2500662e+2, -1716044.6, -1730893.3, 8.5993185, 0.007380414, 0.11419932, -1716044.6, -1099.4089, 0.0, 10.000059, 9.999863 
6.3500065e+2, 1.3500631e+2, -1618274.1, -1633084.1, -71.6513, 0.0071106595, 0.09628417, -1618273.8, -1326.5138, 0.0, 10.000058, 9.999862 
6.350006e+2, 1.4500585e+2, -1533095.5, -1561411.4, 1.9688842, 0.0069379588, 0.074415535, -1533095.5, -14145.381, 0.0, 10.000057, 9.999681 
6.350006e+2, 1.5500528e+2, -1435291.4, -1463560.9, -78.08799, 0.0068621463, 0.048338883, -1435291.1, -14337.363, 0.0, 10.000055, 9.9996805 
6.350006e+2, 1.6500472e+2, -1357286.0, -1406812.6, 1.2616444, 0.006765501, 0.03723798, -1357286.0, -34327.76, 0.0, 10.000054, 9.999398 
6.350006e+2, 1.7500415e+2, -1259441.9, -1308925.1, -78.45703, 0.006648031, 0.0408875, -1259441.8, -34478.242, 0.0, 10.000053, 9.999398 
6.350006e+2, 1.8500344e+2, -1185350.5, -1260366.3, 14.0785675, 0.0065571703, 0.048918154, -1185350.5, -58379.867, 0.0, 10.000052, 9.999059 
6.350005e+2, 1.9500265e+2, -1087459.4, -1162457.4, -65.46275, 0.006492904, 0.061144806, -1087459.4, -58479.55, 0.0, 10.000052, 9.999059 
6.350005e+2, 2.050017e+2, -990906.0, -1067371.5, 30.675144, 0.0064467955, 0.06259401, -990905.94, -59916.81, 0.0, 10.0000515, 9.999039 
6.350005e+2, 2.1500064e+2, -892950.25, -969421.6, -48.542103, 0.0064188396, 0.0531115, -892950.25, -59951.477, 0.0, 10.0000515, 9.999039 
6.350005e+2, 2.2499958e+2, -790337.8, -861856.6, 50.057545, 0.006418663, 0.03962551, -790337.8, -55330.035, 0.0, 10.0000515, 9.999104 
6.350005e+2, 2.3499851e+2, -692297.7, -763833.3, -29.192898, 0.0064462554, 0.02195593, -692297.7, -55281.496, 0.0, 10.0000515, 9.999104 
6.350005e+2, 2.4499738e+2, -594545.56, -666454.25, 66.798294, 0.0064920876, -0.0010937302, -594545.5, -55520.36, 0.0, 10.000052, 9.9991 
6.350006e+2, 2.5499618e+2, -496429.66, -568366.4, -12.795682, 0.006556156, -0.029703258, -496429.66, -55395.11, 0.0, 10.000052, 9.9991 
6.350006e+2, 2.6499513e+2, -385390.9, -443481.34, 79.18511, 0.0066468436, -0.057537913, -385390.8, -42347.918, 0.0, 10.000053, 9.999284 
6.350006e+2, 2.749941e+2, -287215.06, -345339.25, -0.6158313, 0.00676416, -0.084781185, -287215.06, -42164.94, 0.0, 10.000054, 9.999285 
6.350006e+2, 2.8499323e+2, -182275.28, -233171.81, 78.34796, 0.006860625, -0.10798503, -182275.16, -35218.617, 0.0, 10.000055, 9.999381 
6.350006e+2, 2.949924e+2, -84065.09, -135000.28, -1.7239215, 0.0069362205, -0.1273274, -84065.09, -35002.965, 0.0, 10.000056, 9.999382 
6.3500065e+2, 3.0499175e+2, -15814.193, -46292.3, 71.83458, 0.007108287, -0.14314966, -15814.024, -15814.024, 0.0, 10.000058, 9.999654 
6.3500065e+2, 3.149913e+2, -15602.399, -46137.527, -8.3467455, 0.007377076, -0.15563296, -15602.396, -15602.396, 0.0, 10.000059, 9.999655 
6.4500076e+2, 1.2500665e+2, -1714834.8, -1730559.8, 59.36902, 0.00791506, 0.114353664, -1714834.5, 110.46254, 0.0, 10.000069, 9.99986 
6.4500076e+2, 1.3500634e+2, -1617064.5, -1632750.8, -28.866055, 0.0076450626, 0.096414156, -1617064.5, -117.40448, 0.0, 10.000068, 9.99986 
6.4500076e+2, 1.4500588e+2, -1531885.1, -1561078.1, 41.05454, 0.007473322, 0.074529335, -1531885.1, -12935.216, 0.0, 10.000066, 9.99968 
6.450007e+2, 1.5500529e+2, -1434079.0, -1463226.6, -47.572205, 0.007399648, 0.04844475, -1434078.9, -13125.269, 0.0, 10.000065, 9.999679 
6.450007e+2, 1.6500473e+2, -1356071.0, -1406477.9, 29.819666, 0.0073061893, 0.037332173, -1356070.9, -33112.82, 0.0, 10.000064, 9.999396 
6.450007e+2, 1.7500415e+2, -1258222.8, -1308588.6, -59.80044, 0.0071929544, 0.040966205, -1258222.6, -33259.242, 0.0, 10.000063, 9.999395 
6.450007e+2, 1.8500346e+2, -1184129.5, -1260030.5, 33.539223, 0.0071050837, 0.04898077, -1184129.4, -57158.832, 0.0, 10.000062, 9.999057 
6.4500064e+2, 1.9500265e+2, -1086236.5, -1162120.9, -57.497078, 0.0070425603, 0.061190706, -1086236.5, -57256.707, 0.0, 10.000062, 9.999056 
6.4500064e+2, 2.0500171e+2, -989682.2, -1067035.0, 41.553604, 0.0069977874, 0.06262233, -989682.1, -58693.035, 0.0, 10.000061, 9.999036 
6.4500064e+2, 2.1500064e+2, -891725.94, -969085.0, -50.134834, 0.0069707585, 0.05312139, -891725.9, -58727.152, 0.0, 10.000061, 9.999036 
6.4500064e+2, 2.2499958e+2, -789113.56, -861520.2, 52.510166, 0.0069705932, 0.03961688, -789113.56, -54105.777, 0.0, 10.000061, 9.999102 
6.4500064e+2, 2.3499851e+2, -691073.94, -763497.2, -39.231922, 0.0069972803, 0.021928681, -691073.94, -54057.723, 0.0, 10.000061, 9.999102 
6.4500064e+2, 2.4499738e+2, -593322.7, -666118.1, 59.62475, 0.0070418087, -0.0011384581, -593322.7, -54297.496, 0.0, 10.000062, 9.999097 
6.450007e+2, 2.5499618e+2, -495208.66, -568031.2, -31.498562, 0.007104174, -0.02976434, -495208.63, -54174.0, 0.0, 10.000062, 9.999097 
6.450007e+2, 2.649951e+2, -384171.9, -443145.53, 61.179867, 0.0071919155, -0.057615068, -384171.84, -41128.844, 0.0, 10.000063, 9.999282 
6.450007e+2, 2.749941e+2, -286000.22, -345005.44, -28.572025, 0.007305044, -0.084874146, -286000.22, -40949.957, 0.0, 10.000064, 9.999282 
6.450007e+2, 2.849932e+2, -181063.0, -232838.17, 48.33543, 0.0073983558, -0.10808994, -181062.95, -34006.273, 0.0, 10.000065, 9.999379 
6.4500076e+2, 2.949924e+2, -82855.03, -134667.7, -40.34224, 0.00747183, -0.12744038, -82855.0, -33792.703, 0.0, 10.000066, 9.999379 
6.4500076e+2, 3.0499175e+2, -14604.941, -45959.668, 29.442936, 0.0076428945, -0.14327879, -14604.914, -14604.914, 0.0, 10.000068, 9.999652 
6.4500076e+2, 3.1499127e+2, -14393.036, -45804.88, -58.752335, 0.007911821, -0.15578634, -14392.926, -14392.926, 0.0, 10.000069, 9.999652 
6.550008e+2, 1.2500666e+2, -1714999.0, -1730900.5, 12.807774, 0.008476171, 0.114512324, -1714999.0, -54.232376, 0.0, 10.000069, 9.999858 
6.550008e+2, 1.3500635e+2, -1617228.8, -1633091.4, -75.42462, 0.008205104, 0.09654645, -1617228.4, -281.51297, 0.0, 10.000068, 9.999857 
6.550008e+2, 1.450059e+2, -1532050.3, -1561420.6, -0.61612123, 0.008034405, 0.07464443, -1532050.3, -13100.469, 0.0, 10.000066, 9.999677 
6.5500075e+2, 1.550053e+2, -1434244.0, -1463569.0, -89.2395, 0.007963859, 0.048551895, -1434243.8, -13290.242, 0.0, 10.000065, 9.999677 
6.5500075e+2, 1.6500473e+2, -1356237.8, -1406824.0, -4.3081865, 0.007874818, 0.037427466, -1356237.8, -33279.723, 0.0, 10.000064, 9.999393 
6.5500075e+2, 1.7500417e+2, -1258389.5, -1308934.8, -93.926834, 0.007767293, 0.041045673, -1258389.3, -33426.023, 0.0, 10.000063, 9.999393 
6.5500075e+2, 1.8500347e+2, -1184298.8, -1260382.0, 10.611371, 0.0076837493, 0.049043927, -1184298.8, -57328.27, 0.0, 10.000062, 9.999054 
6.5500075e+2, 1.9500266e+2, -1086405.8, -1162472.4, -80.42345, 0.0076241675, 0.06123705, -1086405.8, -57426.047, 0.0, 10.000062, 9.999054 
6.550007e+2, 2.0500171e+2, -989852.7, -1067389.0, 33.358517, 0.007581601, 0.062650956, -989852.6, -58863.58, 0.0, 10.000061, 9.999034 
6.550007e+2, 2.1500064e+2, -891896.44, -969438.9, -58.328484, 0.007556043, 0.05313143, -891896.4, -58897.63, 0.0, 10.000061, 9.999034 
6.550007e+2, 2.2499958e+2, -789284.1, -861874.25, 60.709507, 0.007555894, 0.03960823, -789284.1, -54276.31, 0.0, 10.000061, 9.999099 
6.550007e+2, 2.3499851e+2, -691244.5, -763851.25, -31.031452, 0.0075811422, 0.021901233, -691244.5, -54228.23, 0.0, 10.000061, 9.999099 
6.5500075e+2, 2.4499737e+2, -593492.06, -666469.8, 82.53473, 0.007623506, -0.0011835084, -593492.0, -54466.758, 0.0, 10.000062, 9.999095 
6.5500075e+2, 2.5499618e+2, -495378.0, -568382.8, -8.58792, 0.007682981, -0.029825807, -495377.97, -54343.266, 0.0, 10.000062, 9.999095 
6.5500075e+2, 2.649951e+2, -384338.7, -443491.94, 95.2205, 0.007766449, -0.057692826, -384338.53, -41295.445, 0.0, 10.000063, 9.999279 
6.5500075e+2, 2.7499408e+2, -286166.97, -345351.75, 5.469779, 0.007873923, -0.08496807, -286166.97, -41116.586, 0.0, 10.000064, 9.99928 
6.5500075e+2, 2.849932e+2, -181227.8, -233180.47, 89.85682, 0.007962853, -0.10819601, -181227.64, -34170.805, 0.0, 10.000065, 9.999376 
6.550008e+2, 2.9499236e+2, -83019.77, -135009.9, 1.1835468, 0.008033218, -0.12755457, -83019.77, -33957.3, 0.0, 10.000066, 9.999377 
6.550008e+2, 3.0499172e+2, -14768.814, -46300.082, 75.7977, 0.008203187, -0.14341015, -14768.632, -14768.632, 0.0, 10.000068, 9.999649 
6.550008e+2, 3.1499124e+2, -14556.934, -46145.344, -12.391566, 0.008473058, -0.1559439, -14556.929, -14556.929, 0.0, 10.000069, 9.99965 
6.650009e+2, 1.250067e+2, -1713663.4, -1730531.6, 68.23757, 0.009068514, 0.11467589, -1713663.1, 1281.4763, 0.0, 10.000079, 9.999855 
6.6500086e+2, 1.3500638e+2, -1615894.0, -1632723.0, -29.107788, 0.008794578, 0.09668114, -1615894.0, 1052.6897, 0.0, 10.000077, 9.999855 
6.6500086e+2, 1.4500593e+2, -1530713.9, -1561052.9, 42.32413, 0.008624422, 0.07476054, -1530713.9, -11764.274, 0.0, 10.000076, 9.999674 
6.6500086e+2, 1.5500532e+2, -1432901.8, -1463198.6, -55.49975, 0.008557798, 0.0486598, -1432901.6, -11948.368, 0.0, 10.000075, 9.999674 
6.650008e+2, 1.6500475e+2, -1354889.8, -1406455.1, 27.875011, 0.008474065, 0.037523165, -1354889.8, -31931.963, 0.0, 10.000074, 9.999391 
6.650008e+2, 1.7500418e+2, -1257030.9, -1308560.9, -72.000565, 0.008373233, 0.041125063, -1257030.8, -32067.596, 0.0, 10.000073, 9.999391 
6.650008e+2, 1.8500347e+2, -1182934.9, -1260011.9, 32.306667, 0.008295084, 0.0491068, -1182934.9, -55964.5, 0.0, 10.000073, 9.999052 
6.650008e+2, 1.9500266e+2, -1085034.5, -1162098.8, -70.46513, 0.008239599, 0.06128316, -1085034.5, -56054.85, 0.0, 10.0000725, 9.999051 
6.650008e+2, 2.0500171e+2, -988478.4, -1067017.4, 45.214703, 0.008200073, 0.062679455, -988478.3, -57489.305, 0.0, 10.0000725, 9.999031 
6.650008e+2, 2.1500064e+2, -890519.25, -969065.94, -59.213673, 0.008176498, 0.05314149, -890519.2, -57520.477, 0.0, 10.000072, 9.999031 
6.650008e+2, 2.2499958e+2, -787907.06, -861501.6, 62.733597, 0.008176372, 0.039599724, -787907.0, -52899.22, 0.0, 10.000072, 9.999097 
6.650008e+2, 2.349985e+2, -689870.2, -763480.0, -41.7723, 0.0081996815, 0.021874044, -689870.2, -52853.87, 0.0, 10.0000725, 9.999097 
6.650008e+2, 2.4499737e+2, -592120.75, -666096.75, 73.62837, 0.008239057, -0.0012281868, -592120.7, -53095.406, 0.0, 10.0000725, 9.999092 
6.650008e+2, 2.5499618e+2, -494014.03, -568013.3, -29.27931, 0.008294494, -0.029886795, -494014.03, -52979.223, 0.0, 10.000073, 9.999092 
6.650008e+2, 2.649951e+2, -382980.0, -443118.88, 74.161446, 0.008372625, -0.057770308, -382979.94, -39936.71, 0.0, 10.000073, 9.999277 
6.650008e+2, 2.7499408e+2, -284819.03, -344983.84, -25.907549, 0.008473468, -0.085062236, -284819.03, -39768.516, 0.0, 10.000074, 9.999277 
6.6500086e+2, 2.8499317e+2, -179885.39, -232810.63, 56.78955, 0.008557128, -0.10830272, -179885.33, -32828.336, 0.0, 10.000075, 9.999374 
6.6500086e+2, 2.9499233e+2, -81683.37, -134642.94, -41.12904, 0.008623583, -0.12766965, -81683.336, -32620.68, 0.0, 10.000076, 9.999374 
6.6500086e+2, 3.049917e+2, -13434.162, -45932.5, 29.9948, 0.008792935, -0.14354376, -13434.134, -13434.134, 0.0, 10.000077, 9.999647 
6.650009e+2, 3.149912e+2, -13221.537, -45777.45, -67.341194, 0.009065509, -0.1561062, -13221.398, -13221.398, 0.0, 10.000079, 9.999647 
6.7500097e+2, 1.2500672e+2, -1713844.6, -1730907.6, 21.441795, 0.009692087, 0.11484435, -1713844.5, 1099.7571, 0.0, 10.000079, 9.999853 
6.7500097e+2, 1.350064e+2, -1616075.1, -1633099.0, -75.89874, 0.009413484, 0.09681823, -1616074.9, 871.5861, 0.0, 10.000077, 9.999852 
6.750009e+2, 1.4500594e+2, -1530896.0, -1561430.9, 2.2038784, 0.009243369, 0.07487766, -1530896.0, -11946.672, 0.0, 10.000076, 9.999672 
6.750009e+2, 1.5500535e+2, -1433083.9, -1463576.6, -95.61565, 0.009181467, 0.04876847, -1433083.6, -12130.4795, 0.0, 10.000075, 9.999671 
6.750009e+2, 1.6500476e+2, -1355075.6, -1406840.9, -3.4382453, 0.00910393, 0.03761926, -1355075.6, -32117.947, 0.0, 10.000074, 9.999389 
6.7500085e+2, 1.750042e+2, -1257216.8, -1308946.6, -103.312096, 0.009010771, 0.041204374, -1257216.5, -32253.467, 0.0, 10.000073, 9.999388 
6.7500085e+2, 1.8500349e+2, -1183126.1, -1260408.8, 11.326901, 0.008939088, 0.04916938, -1183126.1, -56155.77, 0.0, 10.000073, 9.999049 
6.7500085e+2, 1.9500266e+2, -1085225.6, -1162495.6, -91.44333, 0.008888854, 0.06132904, -1085225.5, -56246.016, 0.0, 10.0000725, 9.999048 
6.7500085e+2, 2.0500171e+2, -988672.56, -1067420.5, 37.782257, 0.008853201, 0.06270783, -988672.56, -57683.535, 0.0, 10.0000725, 9.999028 
6.7500085e+2, 2.1500066e+2, -890713.4, -969469.06, -66.644585, 0.008832121, 0.053151563, -890713.3, -57714.633, 0.0, 10.000072, 9.999028 
6.7500085e+2, 2.2499958e+2, -788101.4, -861905.0, 70.23845, 0.008832024, 0.039591365, -788101.3, -53093.47, 0.0, 10.000072, 9.999094 
6.7500085e+2, 2.349985e+2, -690064.44, -763883.4, -34.26658, 0.008852895, 0.021847118, -690064.44, -53048.09, 0.0, 10.0000725, 9.999094 
6.7500085e+2, 2.4499735e+2, -592312.0, -666493.94, 94.647835, 0.00888846, -0.0012724934, -592311.94, -53286.55, 0.0, 10.0000725, 9.999089 
6.7500085e+2, 2.5499615e+2, -494205.25, -568410.44, -8.259453, 0.008938711, -0.029947305, -494205.25, -53170.363, 0.0, 10.000073, 9.999089 
6.7500085e+2, 2.6499507e+2, -383165.97, -443505.1, 105.423195, 0.009010443, -0.057847515, -383165.78, -40122.46, 0.0, 10.000073, 9.999274 
6.750009e+2, 2.7499405e+2, -285004.94, -345369.97, 5.3557115, 0.009103678, -0.085156634, -285004.94, -39954.285, 0.0, 10.000074, 9.999274 
6.750009e+2, 2.8499317e+2, -180067.36, -233188.61, 96.76631, 0.00918118, -0.10841005, -180067.19, -33010.02, 0.0, 10.000075, 9.999372 
6.750009e+2, 2.9499233e+2, -81865.27, -135020.81, -1.1466529, 0.009242925, -0.12778564, -81865.27, -32802.42, 0.0, 10.000076, 9.9993725 
6.7500097e+2, 3.0499166e+2, -13615.016, -46308.207, 76.54766, 0.009412136, -0.14367963, -13614.836, -13614.836, 0.0, 10.000077, 9.999644 
6.7500097e+2, 3.149912e+2, -13402.42, -46153.22, -20.780622, 0.009689168, -0.15627325, -13402.407, -13402.407, 0.0, 10.000079, 9.999645 
6.850011e+2, 1.2500675e+2, -1712364.5, -1730498.4, 81.36074, 0.010351861, 0.115018, -1712364.1, 2579.9429, 0.0, 10.000091, 9.99985 
6.85001e+2, 1.3500643e+2, -1614598.8, -1632691.5, -26.527985, 0.010066261, 0.09695783, -1614598.8, 2347.4155, 0.0, 10.000089, 9.999849 
6.85001e+2, 1.4500597e+2, -1529418.3, -1561023.8, 49.398598, 0.009895253, 0.07499569, -1529418.1, -10468.982, 0.0, 10.000088, 9.999669 
6.8500096e+2, 1.5500537e+2, -1431598.3, -1463165.8, -58.577827, 0.009838528, 0.048877515, -1431598.1, -10645.199, 0.0, 10.000087, 9.999668 
6.8500096e+2, 1.6500479e+2, -1353582.4, -1406433.1, 32.973995, 0.009767515, 0.03771516, -1353582.4, -30624.813, 0.0, 10.000086, 9.999386 
6.8500096e+2, 1.7500421e+2, -1255707.8, -1308531.5, -77.6339, 0.0096822325, 0.04128286, -1255707.8, -30744.773, 0.0, 10.000086, 9.999385 
6.8500096e+2, 1.850035e+2, -1181609.4, -1259999.9, 35.65456, 0.009617554, 0.049230903, -1181609.3, -54639.086, 0.0, 10.000085, 9.999046 
6.850009e+2, 1.9500268e+2, -1083696.5, -1162080.8, -78.90631, 0.009573449, 0.06137403, -1083696.4, -54716.895, 0.0, 10.000084, 9.999045 
6.850009e+2, 2.0500173e+2, -987138.44, -1067009.5, 50.690853, 0.009542287, 0.06273561, -987138.4, -56149.426, 0.0, 10.000084, 9.999025 
6.850009e+2, 2.1500066e+2, -889174.1, -969055.6, -66.38474, 0.009524061, 0.053161506, -889174.1, -56175.41, 0.0, 10.000084, 9.999025 
6.850009e+2, 2.2499958e+2, -786562.2, -861491.94, 71.47607, 0.009523996, 0.039583314, -786562.1, -51554.297, 0.0, 10.000084, 9.999091 
6.850009e+2, 2.349985e+2, -688530.2, -763472.7, -45.703857, 0.0095420815, 0.021820916, -688530.1, -51513.766, 0.0, 10.000084, 9.999091 
6.850009e+2, 2.4499735e+2, -590782.6, -666079.75, 83.490654, 0.00957322, -0.001315751, -590782.56, -51757.117, 0.0, 10.000084, 9.999086 
6.8500096e+2, 2.5499615e+2, -492688.2, -568002.2, -31.275597, 0.009617409, -0.030006541, -492688.2, -51653.184, 0.0, 10.000085, 9.999086 
6.8500096e+2, 2.6499507e+2, -381656.78, -443090.8, 80.87881, 0.009682203, -0.057923656, -381656.66, -38613.203, 0.0, 10.000086, 9.999271 
6.8500096e+2, 2.7499405e+2, -283511.4, -344963.22, -29.989319, 0.009767627, -0.08525062, -283511.4, -38460.58, 0.0, 10.000086, 9.999271 
6.8500096e+2, 2.8499314e+2, -178581.25, -232778.39, 60.625763, 0.00983864, -0.10851759, -178581.19, -31523.84, 0.0, 10.000087, 9.999369 
6.85001e+2, 2.949923e+2, -80387.14, -134614.42, -47.489223, 0.00989521, -0.12790239, -80387.1, -31324.037, 0.0, 10.000088, 9.99937 
6.85001e+2, 3.0499166e+2, -12138.535, -45901.574, 27.865938, 0.010065176, -0.14381786, -12138.512, -12138.512, 0.0, 10.000089, 9.999641 
6.850011e+2, 3.1499118e+2, -11922.496, -45744.984, -80.043434, 0.010348919, -0.15644519, -11922.307, -11922.307, 0.0, 10.000091, 9.999642 
6.950012e+2, 1.2500678e+2, -1712565.4, -1730915.1, 33.607998, 0.011047832, 0.11519684, -1712565.3, 2378.5076, 0.0, 10.000091, 9.999847 
6.950012e+2, 1.3500646e+2, -1614799.6, -1633108.1, -74.273674, 0.010752907, 0.09709995, -1614799.3, 2146.6367, 0.0, 10.000089, 9.999846 
6.950011e+2, 1.4500599e+2, -1529619.3, -1561440.9, 11.335867, 0.0105800675, 0.07511463, -1529619.3, -10670.315, 0.0, 10.000088, 9.999666 
6.950011e+2, 1.5500538e+2, -1431799.3, -1463582.9, -96.63509, 0.010528978, 0.048986945, -1431799.0, -10846.242, 0.0, 10.000087, 9.999665 
6.950011e+2, 1.650048e+2, -1353788.1, -1406860.1, 5.7522354, 0.010464818, 0.037810866, -1353788.1, -30830.771, 0.0, 10.000086, 9.999383 
6.9500107e+2, 1.7500423e+2, -1255913.6, -1308958.8, -104.85338, 0.0103876125, 0.041360516, -1255913.4, -30950.63, 0.0, 10.000086, 9.999382 
6.9500107e+2, 1.850035e+2, -1181822.4, -1260442.1, 17.92534, 0.01033048, 0.04929137, -1181822.4, -54852.285, 0.0, 10.000085, 9.9990425 
6.9500107e+2, 1.9500269e+2, -1083909.5, -1162523.0, -96.63384, 0.010293382, 0.061418127, -1083909.4, -54929.99, 0.0, 10.000084, 9.9990425 
6.9500107e+2, 2.0500173e+2, -987356.1, -1067461.4, 44.603394, 0.010267329, 0.06276282, -987356.06, -56367.17, 0.0, 10.000084, 9.9990225 
6.9500107e+2, 2.1500066e+2, -889391.8, -969507.56, -72.47069, 0.010252314, 0.053171325, -889391.75, -56393.08, 0.0, 10.000084, 9.9990225 
6.9500107e+2, 2.2499958e+2, -786780.0, -861944.25, 77.73761, 0.010252287, 0.03957557, -786779.94, -51772.098, 0.0, 10.000084, 9.999087 
6.9500107e+2, 2.349985e+2, -688747.94, -763924.94, -39.44184, 0.010267235, 0.021795442, -688747.94, -51731.527, 0.0, 10.000084, 9.999087 
6.9500107e+2, 2.4499732e+2, -590995.94, -666522.7, 101.33687, 0.010293337, -0.0013579602, -590995.8, -51970.28, 0.0, 10.000084, 9.9990835 
6.9500107e+2, 2.5499615e+2, -492901.44, -568445.06, -13.429193, 0.010330586, -0.030064503, -492901.44, -51866.33, 0.0, 10.000085, 9.9990835 
6.9500107e+2, 2.6499504e+2, -381862.78, -443518.72, 108.08994, 0.0103879, -0.05799874, -381862.6, -38819.008, 0.0, 10.000086, 9.999269 
6.950011e+2, 2.7499402e+2, -283717.38, -345391.0, -2.7760563, 0.010465313, -0.0853442, -283717.38, -38666.387, 0.0, 10.000086, 9.999269 
6.950011e+2, 2.849931e+2, -178782.17, -233195.73, 98.54734, 0.010529502, -0.10862532, -178781.98, -31724.451, 0.0, 10.000087, 9.999366 
6.950011e+2, 2.9499227e+2, -80587.984, -135031.67, -9.560772, 0.010580437, -0.1280199, -80587.984, -31524.705, 0.0, 10.000088, 9.999367 
6.950012e+2, 3.0499163e+2, -12339.031, -46318.105, 75.31826, 0.01075205, -0.14395842, -12338.864, -12338.864, 0.0, 10.000089, 9.999639 
6.950012e+2, 3.1499115e+2, -12123.026, -46161.59, -32.581448, 0.011044757, -0.15662207, -12122.995, -12122.995, 0.0, 10.000091, 9.9996395 
7.050013e+2, 1.2500681e+2, -1710921.0, -1730460.3, 97.19495, 0.011784263, 0.11538056, -1710920.5, 4022.9788, 0.0, 10.000103, 9.999845 
7.0500124e+2, 1.3500647e+2, -1613163.0, -1632657.0, -22.798878, 0.011477903, 0.09724461, -1613163.0, 3782.6462, 0.0, 10.000102, 9.999844 
7.0500124e+2, 1.4500602e+2, -1527982.4, -1560989.0, 62.73652, 0.011302187, 0.07523453, -1527982.3, -9033.541, 0.0, 10.000101, 9.999663 
7.0500124e+2, 1.5500541e+2, -1430154.8, -1463127.5, -56.644806, 0.011256751, 0.04909656, -1430154.6, -9202.117, 0.0, 10.0001, 9.999662 
7.050012e+2, 1.6500482e+2, -1352135.5, -1406408.3, 46.5018, 0.011199078, 0.03790597, -1352135.5, -29178.322, 0.0, 10.000099, 9.999379 
7.050012e+2, 1.7500424e+2, -1254243.4, -1308498.5, -75.441925, 0.011129197, 0.041436788, -1254243.4, -29280.686, 0.0, 10.000098, 9.999379 
7.050012e+2, 1.8500352e+2, -1180143.0, -1259989.6, 45.068405, 0.01107941, 0.049350183, -1180143.0, -53172.97, 0.0, 10.000098, 9.99904 
7.050012e+2, 1.9500269e+2, -1082214.3, -1162063.0, -81.18461, 0.011049678, 0.061460827, -1082214.3, -53234.902, 0.0, 10.000097, 9.99904 
7.050011e+2, 2.0500173e+2, -985654.75, -1067006.8, 58.571865, 0.011028957, 0.06278909, -985654.7, -54665.848, 0.0, 10.000097, 9.99902 
7.050011e+2, 2.1500066e+2, -887683.7, -969049.56, -70.71003, 0.01101724, 0.053180896, -887683.6, -54684.957, 0.0, 10.000097, 9.999019 
7.050011e+2, 2.2499958e+2, -785071.94, -861486.75, 77.908554, 0.011017248, 0.039568257, -785071.9, -50064.01, 0.0, 10.000097, 9.999084 
7.050011e+2, 2.3499848e+2, -687046.4, -763470.6, -51.503746, 0.0110289715, 0.02177106, -687046.3, -50029.85, 0.0, 10.000097, 9.999084 
7.050012e+2, 2.4499732e+2, -589300.44, -666063.5, 87.6622, 0.011049806, -0.0013986026, -589300.4, -50274.766, 0.0, 10.000097, 9.999081 
7.050012e+2, 2.5499612e+2, -491221.56, -567993.44, -38.882545, 0.011079748, -0.030120613, -491221.56, -50186.344, 0.0, 10.000098, 9.999081 
7.050012e+2, 2.6499504e+2, -380192.16, -443059.6, 80.131004, 0.011129765, -0.058072202, -380192.03, -37148.313, 0.0, 10.000098, 9.999265 
7.050012e+2, 2.7499402e+2, -282064.4, -344940.4, -42.14712, 0.011199895, -0.08543691, -282064.38, -37013.234, 0.0, 10.000099, 9.999266 
7.0500124e+2, 2.849931e+2, -177137.08, -232741.03, 59.732952, 0.011257619, -0.108732976, -177137.0, -30079.268, 0.0, 10.0001, 9.999363 
7.0500124e+2, 2.9499224e+2, -78950.734, -134580.73, -59.806366, 0.011302899, -0.12813815, -78950.67, -29887.162, 0.0, 10.000101, 9.999363 
7.0500124e+2, 3.049916e+2, -10702.421, -45868.04, 24.787716, 0.011477154, -0.14410126, -10702.403, -10702.403, 0.0, 10.000102, 9.999636 
7.050013e+2, 3.1499112e+2, -10479.056, -45708.04, -95.2427, 0.011780831, -0.15680347, -10478.798, -10478.798, 0.0, 10.000103, 9.999637 
7.150014e+2, 1.2500684e+2, -1711144.4, -1730923.8, 47.436825, 0.012561149, 0.11556917, -1711144.3, 3798.9043, 0.0, 10.000103, 9.999841 
7.1500134e+2, 1.350065e+2, -1613386.4, -1633120.5, -72.548065, 0.012241245, 0.0973918, -1613386.1, 3559.2844, 0.0, 10.000102, 9.99984 
7.1500134e+2, 1.4500605e+2, -1528204.6, -1561450.3, 26.68226, 0.012061605, 0.0753554, -1528204.6, -9256.15, 0.0, 10.000101, 9.99966 
7.150013e+2, 1.5500543e+2, -1430377.0, -1463588.8, -92.6926, 0.0120218415, 0.04920635, -1430376.8, -9424.434, 0.0, 10.0001, 9.99966 
7.150013e+2, 1.6500483e+2, -1352362.4, -1406879.1, 23.885101, 0.011970287, 0.038000472, -1352362.4, -29405.383, 0.0, 10.000099, 9.999376 
7.150013e+2, 1.7500426e+2, -1254470.4, -1308969.5, -98.055435, 0.01190698, 0.04151168, -1254470.1, -29507.66, 0.0, 10.000098, 9.999376 
7.150012e+2, 1.8500353e+2, -1180377.9, -1260477.1, 31.45867, 0.011864344, 0.04940735, -1180377.8, -53407.91, 0.0, 10.000098, 9.999037 
7.150012e+2, 1.950027e+2, -1082449.1, -1162550.4, -94.79247, 0.011842333, 0.061502136, -1082449.0, -53469.746, 0.0, 10.000097, 9.999036 
7.150012e+2, 2.0500174e+2, -985895.1, -1067505.8, 54.267494, 0.011827166, 0.062814444, -985895.06, -54906.28, 0.0, 10.000097, 9.999016 
7.150012e+2, 2.1500066e+2, -887924.0, -969548.6, -75.01306, 0.011818835, 0.053190224, -887923.94, -54925.31, 0.0, 10.000097, 9.999016 
7.150012e+2, 2.2499958e+2, -785312.5, -861986.2, 82.52316, 0.011818878, 0.03956137, -785312.44, -50304.535, 0.0, 10.000097, 9.999081 
7.150012e+2, 2.3499848e+2, -687286.9, -763970.06, -46.88915, 0.011827287, 0.02174777, -687286.8, -50270.324, 0.0, 10.000097, 9.999081 
7.150012e+2, 2.4499731e+2, -589535.6, -666551.8, 101.48198, 0.011842625, -0.0014376789, -589535.44, -50509.8, 0.0, 10.000097, 9.999077 
7.150012e+2, 2.5499612e+2, -491456.7, -568481.75, -25.062607, 0.011864891, -0.030174874, -491456.7, -50421.348, 0.0, 10.000098, 9.999077 
7.150013e+2, 2.64995e+2, -380419.34, -443531.53, 102.76936, 0.011907791, -0.058144048, -380419.2, -37375.31, 0.0, 10.000098, 9.999262 
7.150013e+2, 2.74994e+2, -282291.56, -345412.22, -19.505753, 0.011971371, -0.085528746, -282291.53, -37240.215, 0.0, 10.000099, 9.999263 
7.150013e+2, 2.8499308e+2, -177359.2, -233202.5, 95.63408, 0.012022984, -0.10884054, -177359.05, -30301.096, 0.0, 10.0001, 9.99936 
7.1500134e+2, 2.9499224e+2, -79172.805, -135042.08, -23.897337, 0.012062589, -0.12825717, -79172.8, -30109.041, 0.0, 10.000101, 9.99936 
7.1500134e+2, 3.0499157e+2, -10925.436, -46331.383, 74.15644, 0.012240479, -0.1442464, -10925.28, -10925.28, 0.0, 10.000102, 9.999633 
7.150014e+2, 3.149911e+2, -10702.108, -46171.47, -45.86242, 0.012557133, -0.1569894, -10702.05, -10702.05, 0.0, 10.000103, 9.999633 
7.250015e+2, 1.2500688e+2, -1709318.3, -1730419.4, 113.214874, 0.01338111, 0.11576159, -1709317.6, 5625.238, 0.0, 10.000117, 9.999838 
7.2500145e+2, 1.3500653e+2, -1611571.9, -1632621.6, -20.314135, 0.0130466465, 0.097541295, -1611571.9, 5373.2144, 0.0, 10.000115, 9.999837 
7.2500145e+2, 1.4500606e+2, -1526391.5, -1560949.4, 81.68319, 0.01286232, 0.07547729, -1526391.3, -7443.08, 0.0, 10.000114, 9.999657 
7.250014e+2, 1.5500547e+2, -1428558.4, -1463085.3, -50.467503, 0.012827727, 0.049316145, -1428558.3, -7606.194, 0.0, 10.0001135, 9.999656 
7.250014e+2, 1.6500486e+2, -1350536.9, -1406378.5, 68.49229, 0.012781196, 0.038094092, -1350536.8, -27579.912, 0.0, 10.0001135, 9.999373 
7.250014e+2, 1.7500427e+2, -1252628.8, -1308461.4, -65.491, 0.0127227735, 0.041584916, -1252628.8, -27666.385, 0.0, 10.000113, 9.9993725 
7.2500134e+2, 1.8500355e+2, -1178527.4, -1259976.6, 61.2829, 0.012686266, 0.04946262, -1178527.4, -51557.613, 0.0, 10.000113, 9.999033 
7.2500134e+2, 1.950027e+2, -1080582.3, -1162042.1, -76.5215, 0.012671619, 0.06154182, -1080582.1, -51603.05, 0.0, 10.000112, 9.999033 
7.2500134e+2, 2.0500174e+2, -984021.94, -1067003.4, 69.142944, 0.012661683, 0.062838696, -984021.9, -53033.15, 0.0, 10.000112, 9.999012 
7.2500134e+2, 2.1500066e+2, -886043.5, -969042.7, -71.614876, 0.012656451, 0.053199235, -886043.5, -53044.848, 0.0, 10.000112, 9.999012 
7.2500134e+2, 2.2499958e+2, -783432.1, -861480.8, 81.49413, 0.012656517, 0.039554954, -783432.06, -48424.156, 0.0, 10.000112, 9.999078 
7.2500134e+2, 2.3499846e+2, -685413.5, -763468.1, -59.41675, 0.012661873, 0.021725748, -685413.44, -48396.89, 0.0, 10.000112, 9.999078 
7.2500134e+2, 2.4499731e+2, -587668.6, -666044.7, 85.4045, 0.012672016, -0.0014749623, -587668.56, -48642.805, 0.0, 10.000112, 9.999073 
7.2500134e+2, 2.549961e+2, -489606.0, -567982.5, -52.740746, 0.012686946, -0.03022709, -489605.97, -48570.52, 0.0, 10.000113, 9.999074 
7.250014e+2, 2.64995e+2, -378577.56, -443024.84, 72.07669, 0.012723716, -0.058214083, -378577.47, -35533.434, 0.0, 10.000113, 9.999259 
7.250014e+2, 2.7499396e+2, -280465.78, -344913.25, -62.312054, 0.012782379, -0.085619494, -280465.72, -35414.203, 0.0, 10.0001135, 9.999259 
7.250014e+2, 2.8499305e+2, -175540.11, -232699.89, 54.956367, 0.012828938, -0.10894787, -175540.05, -28481.879, 0.0, 10.0001135, 9.999356 
7.2500145e+2, 2.949922e+2, -77359.51, -134542.27, -77.36137, 0.0128633445, -0.12837693, -77359.41, -28295.398, 0.0, 10.000114, 9.999357 
7.2500145e+2, 3.0499154e+2, -9111.281, -45833.867, 23.174902, 0.01304556, -0.14439347, -9111.267, -9111.267, 0.0, 10.000116, 9.999629 
7.250015e+2, 3.1499103e+2, -8876.936, -45668.723, -110.37513, 0.013376088, -0.15717869, -8876.6045, -8876.6045, 0.0, 10.000117, 9.99963 
7.350016e+2, 1.2500691e+2, -1709566.8, -1730935.3, 60.441757, 0.014244139, 0.11595784, -1709566.6, 5375.86, 0.0, 10.000117, 9.999834 
7.3500156e+2, 1.3500658e+2, -1611820.4, -1633137.4, -73.077385, 0.013894101, 0.09769308, -1611820.1, 5124.619, 0.0, 10.000115, 9.999833 
7.3500156e+2, 1.4500609e+2, -1526637.5, -1561460.0, 47.085754, 0.013704324, 0.07560019, -1526637.5, -7689.5107, 0.0, 10.000114, 9.999653 
7.350015e+2, 1.5500548e+2, -1428804.4, -1463595.9, -85.05782, 0.013674399, 0.04942595, -1428804.3, -7852.323, 0.0, 10.0001135, 9.999653 
7.350015e+2, 1.6500488e+2, -1350786.0, -1406895.9, 50.055145, 0.013631797, 0.03818683, -1350786.0, -27829.379, 0.0, 10.0001135, 9.99937 
7.350015e+2, 1.7500429e+2, -1252878.1, -1308978.9, -83.923744, 0.013576573, 0.041656498, -1252878.0, -27915.783, 0.0, 10.000113, 9.999369 
7.3500144e+2, 1.8500356e+2, -1178783.8, -1260508.6, 51.961845, 0.013545171, 0.049515992, -1178783.6, -51814.03, 0.0, 10.000113, 9.999029 
7.3500144e+2, 1.9500272e+2, -1080838.5, -1162574.1, -85.8404, 0.013537532, 0.061579887, -1080838.4, -51859.375, 0.0, 10.000112, 9.999029 
7.3500144e+2, 2.0500176e+2, -984283.6, -1067546.6, 66.76355, 0.013532506, 0.06286186, -984283.6, -53294.902, 0.0, 10.000112, 9.999008 
7.3500144e+2, 2.1500066e+2, -886305.2, -969586.0, -73.993256, 0.013530085, 0.05320793, -886305.1, -53306.523, 0.0, 10.000112, 9.999008 
7.3500144e+2, 2.2499956e+2, -783694.0, -862024.7, 84.32296, 0.01353016, 0.039549008, -783693.94, -48686.03, 0.0, 10.000112, 9.999074 
7.3500144e+2, 2.3499846e+2, -685675.4, -764011.94, -56.58845, 0.013532727, 0.021704992, -685675.3, -48658.703, 0.0, 10.000112, 9.999074 
7.3500144e+2, 2.449973e+2, -587925.3, -666577.8, 95.02992, 0.013537976, -0.0015104536, -587925.25, -48899.383, 0.0, 10.000112, 9.99907 
7.3500144e+2, 2.549961e+2, -489862.66, -568515.5, -43.114952, 0.01354591, -0.030277262, -489862.63, -48827.043, 0.0, 10.000113, 9.99907 
7.350015e+2, 2.6499498e+2, -378827.25, -443543.53, 90.57334, 0.013577534, -0.05828231, -378827.13, -35782.926, 0.0, 10.000113, 9.999255 
7.350015e+2, 2.7499396e+2, -280715.4, -345431.8, -43.811264, 0.013632912, -0.085709155, -280715.38, -35663.656, 0.0, 10.0001135, 9.999255 
7.350015e+2, 2.8499302e+2, -175785.98, -233210.7, 89.367386, 0.013675473, -0.10905498, -175785.84, -28727.44, 0.0, 10.0001135, 9.999352 
7.3500156e+2, 2.9499218e+2, -77605.31, -135052.95, -42.94194, 0.01370516, -0.12849744, -77605.27, -28541.008, 0.0, 10.000114, 9.999353 
7.3500156e+2, 3.049915e+2, -9359.413, -46349.43, 75.41085, 0.013892389, -0.14454252, -9359.26, -9359.26, 0.0, 10.000116, 9.999626 
7.350016e+2, 3.14991e+2, -9125.11, -46184.38, -58.126213, 0.014237687, -0.15737131, -9125.019, -9125.019, 0.0, 10.000117, 9.999626 
7.450018e+2, 1.2500696e+2, -1707547.5, -1730379.3, 126.407, 0.015150257, 0.11615587, -1707546.8, 7395.398, 0.0, 10.000133, 9.99983 
7.4500173e+2, 1.350066e+2, -1609814.9, -1632588.0, -21.647034, 0.014785446, 0.09784637, -1609814.8, 7129.6943, 0.0, 10.000132, 9.999829 
7.4500173e+2, 1.4500612e+2, -1524634.8, -1560907.4, 104.44898, 0.014590092, 0.07572398, -1524634.5, -5686.79, 0.0, 10.000131, 9.999649 
7.450017e+2, 1.5500551e+2, -1426799.6, -1463042.5, -41.71731, 0.014563786, 0.049535703, -1426799.6, -5847.9404, 0.0, 10.00013, 9.999649 
7.450017e+2, 1.650049e+2, -1348777.0, -1406343.6, 97.2365, 0.014523406, 0.03827873, -1348776.8, -25820.357, 0.0, 10.000129, 9.999366 
7.450017e+2, 1.750043e+2, -1250858.5, -1308421.8, -49.55626, 0.014469012, 0.04172658, -1250858.4, -25896.414, 0.0, 10.000128, 9.999366 
7.450016e+2, 1.8500358e+2, -1176757.5, -1259957.5, 83.75151, 0.014440921, 0.04956764, -1176757.4, -49787.91, 0.0, 10.000128, 9.999025 
7.450016e+2, 1.9500273e+2, -1078798.8, -1162016.4, -65.397354, 0.014439067, 0.06161645, -1078798.6, -49819.695, 0.0, 10.000128, 9.999025 
7.450016e+2, 2.0500176e+2, -982238.6, -1066994.1, 82.2243, 0.014437985, 0.06288398, -982238.56, -51249.938, 0.0, 10.000128, 9.999004 
7.450016e+2, 2.1500066e+2, -884253.94, -969030.5, -69.11984, 0.014437662, 0.053216286, -884253.9, -51255.28, 0.0, 10.000128, 9.999004 
7.450016e+2, 2.2499956e+2, -781643.0, -861469.9, 82.19256, 0.014437725, 0.03954347, -781642.94, -46635.016, 0.0, 10.000128, 9.99907 
7.450016e+2, 2.3499846e+2, -683630.5, -763460.1, -69.33573, 0.014438169, 0.021685421, -683630.44, -46613.76, 0.0, 10.000128, 9.99907 
7.450016e+2, 2.4499728e+2, -585885.94, -666021.6, 77.11584, 0.014439438, -0.0015443087, -585885.9, -46859.91, 0.0, 10.000128, 9.999066 
7.450016e+2, 2.5499606e+2, -487836.8, -567965.9, -72.40186, 0.014441535, -0.03032567, -487836.75, -46801.035, 0.0, 10.000128, 9.999066 
7.450017e+2, 2.6499492e+2, -376808.03, -442988.34, 58.447346, 0.01446974, -0.058348972, -376808.0, -33763.63, 0.0, 10.000129, 9.999251 
7.450017e+2, 2.7499393e+2, -278706.75, -344881.7, -88.7544, 0.014524123, -0.08579777, -278706.63, -33654.72, 0.0, 10.000129, 9.999251 
7.450017e+2, 2.84993e+2, -173781.36, -232658.5, 47.954903, 0.014564326, -0.109161764, -173781.33, -26722.68, 0.0, 10.00013, 9.999349 
7.4500173e+2, 2.9499215e+2, -75603.19, -134501.95, -98.37289, 0.014590286, -0.12861857, -75603.02, -26538.48, 0.0, 10.000131, 9.99935 
7.4500173e+2, 3.0499148e+2, -7355.075, -45801.855, 25.518099, 0.014782547, -0.14469266, -7355.0586, -7355.0586, 0.0, 10.000132, 9.999622 
7.450018e+2, 3.1499097e+2, -7108.105, -45630.78, -122.48741, 0.01514165, -0.15756513, -7107.716, -7107.716, 0.0, 10.000133, 9.999622 
7.550019e+2, 1.25007e+2, -1707823.1, -1730951.4, 70.094055, 0.016099459, 0.116355695, -1707822.9, 7118.893, 0.0, 10.000133, 9.999826 
7.550019e+2, 1.3500664e+2, -1610090.4, -1633160.0, -77.95056, 0.015720673, 0.09800117, -1610090.1, 6854.0313, 0.0, 10.000132, 9.9998255 
7.5500184e+2, 1.4500615e+2, -1524906.9, -1561472.1, 70.41237, 0.015519614, 0.075848654, -1524906.8, -5959.363, 0.0, 10.000131, 9.999645 
7.5500184e+2, 1.5500554e+2, -1427071.8, -1463607.3, -75.74679, 0.0154958805, 0.049645413, -1427071.6, -6120.1973, 0.0, 10.00013, 9.999645 
7.550018e+2, 1.6500492e+2, -1349050.0, -1406910.4, 81.57609, 0.015456013, 0.038369786, -1349049.9, -26093.662, 0.0, 10.000129, 9.999362 
7.550018e+2, 1.7500432e+2, -1251131.5, -1308988.8, -65.2109, 0.015400084, 0.041795164, -1251131.5, -26169.662, 0.0, 10.000128, 9.999361 
7.550018e+2, 1.8500361e+2, -1177034.9, -1260533.3, 77.9915, 0.01537351, 0.04961757, -1177034.8, -50065.414, 0.0, 10.000128, 9.999022 
7.550017e+2, 1.9500273e+2, -1079076.0, -1162592.3, -71.15481, 0.015376221, 0.06165151, -1079076.0, -50097.113, 0.0, 10.000128, 9.999022 
7.550017e+2, 2.0500176e+2, -982520.0, -1067578.3, 81.500175, 0.015378117, 0.06290506, -982519.94, -51531.355, 0.0, 10.000128, 9.999001 
7.550017e+2, 2.1500067e+2, -884535.25, -969614.6, -69.843414, 0.015379183, 0.053224307, -884535.2, -51536.62, 0.0, 10.000128, 9.999001 
7.550017e+2, 2.2499956e+2, -781924.6, -862054.6, 83.46093, 0.01537921, 0.039538335, -781924.56, -46916.598, 0.0, 10.000128, 9.999066 
7.550017e+2, 2.3499845e+2, -683912.06, -764044.9, -68.068344, 0.015378198, 0.021667033, -683912.0, -46895.273, 0.0, 10.000128, 9.999065 
7.550017e+2, 2.4499728e+2, -586163.75, -666598.6, 83.24468, 0.0153763965, -0.0015765283, -586163.6, -47137.6, 0.0, 10.000128, 9.999062 
7.550018e+2, 2.5499606e+2, -488114.53, -568542.8, -66.27214, 0.015373819, -0.030372318, -488114.5, -47078.65, 0.0, 10.000128, 9.999063 
7.550018e+2, 2.6499492e+2, -377081.53, -443556.5, 74.223305, 0.015400329, -0.058414068, -377081.47, -34036.918, 0.0, 10.000129, 9.999248 
7.550018e+2, 2.749939e+2, -278980.16, -345449.7, -72.97309, 0.015456004, -0.08588534, -278980.1, -33927.953, 0.0, 10.000129, 9.999248 
7.5500184e+2, 2.84993e+2, -174053.27, -233223.4, 81.73751, 0.01549549, -0.109268226, -174053.16, -26994.256, 0.0, 10.00013, 9.999345 
7.5500184e+2, 2.9499212e+2, -75875.01, -135066.73, -64.58212, 0.015518714, -0.12874031, -75874.94, -26810.102, 0.0, 10.000131, 9.999346 
7.550019e+2, 3.0499142e+2, -7630.061, -46373.25, 81.05136, 0.015716024, -0.14484394, -7629.8916, -7629.8916, 0.0, 10.000132, 9.999618 
7.550019e+2, 3.1499094e+2, -7383.137, -46202.28, -66.94069, 0.01608797, -0.15776016, -7383.0215, -7383.0215, 0.0, 10.000133, 9.999619 
7.650021e+2, 1.2500703e+2, -1705609.6, -1730345.4, 133.93916, 0.017088188, 0.11655406, -1705608.9, 9332.483, 0.0, 10.00015, 9.999823 
7.65002e+2, 1.3500667e+2, -1607889.1, -1632559.9, -28.899836, 0.0166985, 0.098155916, -1607889.1, 9054.673, 0.0, 10.000149, 9.999822 
7.65002e+2, 1.4500618e+2, -1522709.5, -1560868.8, 128.1778, 0.016492486, 0.07597375, -1522709.0, -3761.998, 0.0, 10.000147, 9.999641 
7.6500195e+2, 1.5500557e+2, -1424876.5, -1463005.0, -32.91958, 0.016469764, 0.049755048, -1424876.5, -3925.3633, 0.0, 10.000146, 9.99964 
7.6500195e+2, 1.6500494e+2, -1346854.4, -1406307.1, 129.10658, 0.016428305, 0.03846033, -1346854.1, -23898.121, 0.0, 10.000146, 9.999358 
7.650019e+2, 1.7500435e+2, -1248934.5, -1308384.9, -31.032177, 0.016368186, 0.041862838, -1248934.4, -23972.793, 0.0, 10.000145, 9.999357 
7.650019e+2, 1.8500362e+2, -1174835.4, -1259931.9, 110.54857, 0.016340762, 0.049666394, -1174835.3, -47866.04, 0.0, 10.000145, 9.999018 
7.650019e+2, 1.9500275e+2, -1076869.4, -1161987.4, -49.731014, 0.016345961, 0.06168548, -1076869.4, -47890.582, 0.0, 10.000145, 9.999017 
7.650019e+2, 2.0500177e+2, -980310.7, -1066976.6, 97.051384, 0.016349243, 0.06292532, -980310.56, -49322.06, 0.0, 10.000145, 9.998997 
7.650019e+2, 2.1500067e+2, -882322.3, -969011.4, -64.018234, 0.0163506, 0.05323204, -882322.3, -49323.75, 0.0, 10.000145, 9.998996 
7.650019e+2, 2.2499956e+2, -779712.2, -861452.25, 80.58897, 0.016350549, 0.039533455, -779712.1, -44704.145, 0.0, 10.000145, 9.999062 
7.650019e+2, 2.3499845e+2, -681703.3, -763444.3, -80.70219, 0.016349094, 0.021649458, -681703.25, -44686.47, 0.0, 10.000145, 9.999062 
7.650019e+2, 2.4499726e+2, -583958.1, -665995.75, 64.54178, 0.016345717, -0.0016076557, -583958.06, -44931.94, 0.0, 10.000145, 9.999058 
7.650019e+2, 2.5499606e+2, -485916.34, -567943.5, -96.115776, 0.016340429, -0.03041787, -485916.22, -44880.242, 0.0, 10.000145, 9.999058 
7.650019e+2, 2.649949e+2, -374885.94, -442955.16, 42.48467, 0.016367499, -0.058478132, -374885.9, -31841.186, 0.0, 10.000145, 9.999244 
7.6500195e+2, 2.7499387e+2, -276786.4, -344849.25, -118.068054, 0.016427007, -0.085972, -276786.22, -31733.865, 0.0, 10.000146, 9.999244 
7.6500195e+2, 2.8499296e+2, -171859.8, -232622.97, 40.962803, 0.016467778, -0.10937414, -171859.77, -24800.613, 0.0, 10.000147, 9.999341 
7.65002e+2, 2.949921e+2, -73680.31, -134465.69, -120.15138, 0.016489737, -0.12886211, -73680.07, -24614.94, 0.0, 10.000147, 9.999342 
7.65002e+2, 3.049914e+2, -5432.4937, -45775.742, 33.755806, 0.016691208, -0.1449947, -5432.4653, -5432.4653, 0.0, 10.000149, 9.999614 
7.650021e+2, 3.1499088e+2, -5174.826, -45599.688, -128.84303, 0.017072741, -0.15795298, -5174.4155, -5174.4155, 0.0, 10.00015, 9.999615 
7.750022e+2, 1.2500708e+2, -1705912.8, -1730974.6, 74.47502, 0.01811644, 0.11675096, -1705912.6, 9028.408, 0.0, 10.00015, 9.999818 
7.750022e+2, 1.3500671e+2, -1608192.3, -1633189.0, -88.3567, 0.017718919, 0.09831063, -1608192.0, 8751.501, 0.0, 10.000149, 9.999817 
7.750021e+2, 1.4500621e+2, -1523009.4, -1561491.1, 93.62664, 0.017508699, 0.07609925, -1523009.1, -4062.3972, 0.0, 10.000147, 9.999638 
7.750021e+2, 1.550056e+2, -1425176.4, -1463627.5, -67.46434, 0.01748543, 0.049864605, -1425176.3, -4225.441, 0.0, 10.000146, 9.999637 
7.7500206e+2, 1.6500497e+2, -1347152.3, -1406925.5, 113.89603, 0.017440272, 0.03855036, -1347152.0, -24196.268, 0.0, 10.000146, 9.999353 
7.7500206e+2, 1.7500436e+2, -1249232.4, -1309003.5, -46.235626, 0.017373314, 0.041929603, -1249232.4, -24270.887, 0.0, 10.000145, 9.999353 
7.7500206e+2, 1.8500364e+2, -1175133.4, -1260550.6, 106.69593, 0.017342677, 0.049714122, -1175133.3, -48164.227, 0.0, 10.000145, 9.999013 
7.75002e+2, 1.9500276e+2, -1077167.4, -1162606.3, -53.580574, 0.017348282, 0.06171836, -1077167.4, -48188.69, 0.0, 10.000145, 9.999013 
7.75002e+2, 2.0500177e+2, -980610.06, -1067598.4, 97.28592, 0.017351368, 0.062944755, -980610.0, -49621.53, 0.0, 10.000145, 9.998992 
7.75002e+2, 2.1500067e+2, -882621.7, -969633.0, -63.7837, 0.017351916, 0.053239483, -882621.7, -49623.145, 0.0, 10.000145, 9.998992 
7.75002e+2, 2.2499956e+2, -780011.94, -862074.7, 80.92648, 0.017351745, 0.039528836, -780011.8, -45003.848, 0.0, 10.000145, 9.999058 
7.75002e+2, 2.3499845e+2, -682003.0, -764066.7, -80.36596, 0.017350862, 0.021632696, -682002.94, -44986.082, 0.0, 10.000145, 9.999058 
7.75002e+2, 2.4499725e+2, -584256.6, -666615.7, 68.783485, 0.017347395, -0.001637691, -584256.56, -45230.31, 0.0, 10.000145, 9.999054 
7.7500206e+2, 2.5499603e+2, -486214.75, -568563.4, -91.87239, 0.017341366, -0.03046233, -486214.63, -45178.516, 0.0, 10.000145, 9.999054 
7.7500206e+2, 2.649949e+2, -375184.22, -443574.8, 57.796246, 0.017371248, -0.05854117, -375184.2, -32139.268, 0.0, 10.000145, 9.999239 
7.7500206e+2, 2.7499387e+2, -277084.63, -345468.75, -102.75, 0.017437123, -0.08605776, -277084.47, -32031.879, 0.0, 10.000146, 9.99924 
7.750021e+2, 2.8499293e+2, -172159.16, -233244.97, 75.08746, 0.017481184, -0.10947953, -172159.06, -25099.637, 0.0, 10.000147, 9.999337 
7.750021e+2, 2.9499206e+2, -73979.58, -135087.55, -86.01968, 0.017503344, -0.12898396, -73979.45, -24914.01, 0.0, 10.000147, 9.999337 
7.750022e+2, 3.0499136e+2, -5734.5874, -46403.508, 92.09087, 0.017708091, -0.14514498, -5734.379, -5734.379, 0.0, 10.000149, 9.99961 
7.750022e+2, 3.1499085e+2, -5476.969, -46227.563, -70.4953, 0.018095959, -0.1581436, -5476.847, -5476.847, 0.0, 10.00015, 9.99961 
7.8500235e+2, 1.2500712e+2, -1703519.9, -1730324.6, 133.59087, 0.019176422, 0.1169415, -1703519.1, 11421.4, 0.0, 10.000169, 9.999813 
7.850023e+2, 1.3500674e+2, -1605805.5, -1632542.0, -43.140175, 0.018776428, 0.09846241, -1605805.4, 11137.659, 0.0, 10.000167, 9.999813 
7.850023e+2, 1.4500625e+2, -1520626.5, -1560842.6, 149.32062, 0.018563645, 0.076223604, -1520626.0, -1679.5659, 0.0, 10.000166, 9.999633 
7.8500223e+2, 1.5500563e+2, -1422799.8, -1462982.1, -26.763344, 0.01853777, 0.04997316, -1422799.6, -1849.1125, 0.0, 10.000165, 9.999632 
7.8500223e+2, 1.65005e+2, -1344780.0, -1406276.9, 159.1588, 0.018486684, 0.03863962, -1344779.6, -21824.096, 0.0, 10.000164, 9.999349 
7.8500223e+2, 1.7500438e+2, -1246870.0, -1308360.0, -14.555914, 0.018410487, 0.04199593, -1246870.0, -21908.79, 0.0, 10.000164, 9.999349 
7.850022e+2, 1.8500365e+2, -1172774.8, -1259905.3, 138.40749, 0.018374082, 0.049761478, -1172774.5, -45805.598, 0.0, 10.000163, 9.999009 
7.850022e+2, 1.9500278e+2, -1074811.0, -1161962.0, -32.844124, 0.018377388, 0.06175067, -1074811.0, -45832.49, 0.0, 10.000163, 9.999008 
7.850022e+2, 2.0500179e+2, -978254.94, -1066954.4, 112.292885, 0.018378226, 0.06296368, -978254.75, -47266.39, 0.0, 10.000163, 9.998988 
7.850022e+2, 2.1500067e+2, -880267.1, -968989.4, -57.870815, 0.018376585, 0.05324671, -880267.1, -47268.62, 0.0, 10.000163, 9.998987 
7.850022e+2, 2.2499956e+2, -777658.0, -861432.0, 77.94663, 0.01837621, 0.039524253, -777657.94, -42649.95, 0.0, 10.000163, 9.999053 
7.850022e+2, 2.3499843e+2, -679649.0, -763424.06, -92.434074, 0.018377112, 0.021616198, -679648.94, -42631.996, 0.0, 10.000163, 9.999053 
7.850022e+2, 2.4499725e+2, -581902.25, -665973.9, 50.822987, 0.018375466, -0.0016673749, -581902.2, -42875.855, 0.0, 10.000163, 9.999049 
7.850022e+2, 2.54996e+2, -483858.56, -567920.7, -120.76995, 0.01837129, -0.030506488, -483858.4, -42822.117, 0.0, 10.000163, 9.999049 
7.8500223e+2, 2.6499486e+2, -372825.2, -442934.53, 28.65469, 0.018406408, -0.05860368, -372825.16, -29780.072, 0.0, 10.000164, 9.999234 
7.8500223e+2, 2.7499384e+2, -274716.84, -344824.25, -145.35532, 0.018480903, -0.08614252, -274716.53, -29663.729, 0.0, 10.000164, 9.999235 
7.8500223e+2, 2.849929e+2, -169787.22, -232602.36, 36.64062, 0.018530304, -0.10958365, -169787.2, -22727.502, 0.0, 10.000165, 9.999332 
7.850023e+2, 2.94992e+2, -71603.11, -134442.75, -139.19931, 0.018554522, -0.12910455, -71602.805, -22537.035, 0.0, 10.000166, 9.999333 
7.850023e+2, 3.0499133e+2, -3355.607, -45760.484, 48.912086, 0.0187607, -0.14529201, -3355.5505, -3355.5505, 0.0, 10.000167, 9.999605 
7.8500235e+2, 3.1499082e+2, -3093.6755, -45582.55, -127.28487, 0.01914934, -0.158327, -3093.2944, -3093.2944, 0.0, 10.000169, 9.999605 
7.950026e+2, 1.2500717e+2, -1703848.9, -1731007.5, 72.54544, 0.020268133, 0.11712566, -1703848.6, 11091.475, 0.0, 10.000169, 9.999808 
7.950025e+2, 1.3500679e+2, -1606134.5, -1633224.8, -104.18205, 0.019871024, 0.09861128, -1606134.0, 10808.666, 0.0, 10.000167, 9.999808 
7.950025e+2, 1.4500628e+2, -1520954.3, -1561523.0, 113.23057, 0.019657323, 0.07634682, -1520954.0, -2007.9043, 0.0, 10.000166, 9.999628 
7.9500246e+2, 1.5500566e+2, -1423127.5, -1463662.5, -62.84851, 0.019626776, 0.050080713, -1423127.4, -2177.1033, 0.0, 10.000165, 9.999627 
7.9500246e+2, 1.6500501e+2, -1345103.1, -1406947.8, 141.44855, 0.01956754, 0.038728118, -1345102.8, -22147.527, 0.0, 10.000164, 9.999345 
7.950024e+2, 1.7500441e+2, -1247193.3, -1309030.9, -32.25796, 0.019479707, 0.042061828, -1247193.3, -22232.154, 0.0, 10.000164, 9.999344 
7.950024e+2, 1.8500367e+2, -1173093.1, -1260566.4, 133.98296, 0.01943498, 0.04980847, -1173093.0, -46124.188, 0.0, 10.000163, 9.999004 
7.950024e+2, 1.9500278e+2, -1075129.4, -1162623.1, -37.26488, 0.019433277, 0.06178242, -1075129.4, -46150.992, 0.0, 10.000163, 9.999003 
7.950024e+2, 2.0500179e+2, -978571.2, -1067611.1, 112.40141, 0.019429827, 0.06298208, -978571.06, -47582.75, 0.0, 10.000163, 9.998983 
7.950024e+2, 2.1500067e+2, -880583.4, -969646.1, -57.762825, 0.019424612, 0.053253718, -880583.4, -47584.895, 0.0, 10.000163, 9.998983 
7.950024e+2, 2.2499956e+2, -777974.6, -862089.5, 78.34832, 0.01942395, 0.039519712, -777974.56, -42966.51, 0.0, 10.000163, 9.999048 
7.950024e+2, 2.3499843e+2, -679965.56, -764081.5, -92.03375, 0.019427855, 0.021599963, -679965.44, -42948.47, 0.0, 10.000163, 9.999048 
7.950024e+2, 2.4499723e+2, -582221.0, -666636.0, 55.561176, 0.01942993, -0.001696707, -582220.94, -43194.52, 0.0, 10.000163, 9.999044 
7.950024e+2, 2.54996e+2, -484177.28, -568582.75, -116.02901, 0.019430202, -0.03055034, -484177.1, -43140.68, 0.0, 10.000163, 9.999045 
7.950024e+2, 2.6499483e+2, -373148.47, -443606.16, 46.250473, 0.019472977, -0.058665674, -373148.44, -30103.145, 0.0, 10.000164, 9.99923 
7.9500246e+2, 2.749938e+2, -275040.03, -345495.72, -127.752235, 0.019558342, -0.086226255, -275039.78, -29986.734, 0.0, 10.000164, 9.99923 
7.9500246e+2, 2.8499287e+2, -170113.92, -233281.2, 71.96894, 0.019615136, -0.109686516, -170113.84, -23053.854, 0.0, 10.000165, 9.999328 
7.950025e+2, 2.9499197e+2, -71929.71, -135121.45, -103.86578, 0.019643266, -0.12922387, -71929.54, -22863.44, 0.0, 10.000166, 9.999329 
7.950025e+2, 3.0499128e+2, -3682.9583, -46440.777, 108.38528, 0.019849028, -0.14543581, -3682.6836, -3682.6836, 0.0, 10.000167, 9.9996 
7.950026e+2, 3.1499076e+2, -3421.0796, -46262.953, -67.80127, 0.020232886, -0.1585032, -3420.9722, -3420.9722, 0.0, 10.000169, 9.999601 
8.0500275e+2, 1.2500721e+2, -1701309.9, -1730324.9, 123.64599, 0.021379065, 0.117296524, -1701309.4, 13630.332, 0.0, 10.000189, 9.999804 
8.050027e+2, 1.3500683e+2, -1603591.3, -1632540.1, -64.67089, 0.020992218, 0.09875311, -1603591.1, 13351.175, 0.0, 10.000187, 9.999804 
8.050027e+2, 1.4500633e+2, -1518414.5, -1560841.8, 163.23672, 0.020780139, 0.07646643, -1518413.9, 531.8157, 0.0, 10.000186, 9.999623 
8.050026e+2, 1.550057e+2, -1420596.8, -1462985.8, -26.752916, 0.020742634, 0.05018527, -1420596.8, 353.20007, 0.0, 10.000184, 9.999622 
8.050026e+2, 1.6500506e+2, -1342582.1, -1406267.1, 180.78207, 0.020673268, 0.038814656, -1342581.6, -19626.625, 0.0, 10.000184, 9.99934 
8.0500257e+2, 1.7500442e+2, -1244693.8, -1308361.0, -6.091526, 0.02057213, 0.04212722, -1244693.8, -19732.848, 0.0, 10.000183, 9.999339 
8.0500257e+2, 1.8500368e+2, -1170604.1, -1259890.3, 162.44113, 0.020516766, 0.04985558, -1170603.9, -43635.22, 0.0, 10.000183, 9.999 
8.0500257e+2, 1.950028e+2, -1072654.5, -1161953.9, -19.483685, 0.020507101, 0.061814073, -1072654.5, -43676.15, 0.0, 10.000182, 9.999 
8.0500257e+2, 2.050018e+2, -976102.44, -1066938.9, 126.02174, 0.020497188, 0.06300029, -976102.25, -45113.996, 0.0, 10.000182, 9.998979 
8.0500257e+2, 2.1500067e+2, -878120.56, -968976.75, -52.93411, 0.020487012, 0.05326052, -878120.56, -45122.113, 0.0, 10.000182, 9.998979 
8.0500257e+2, 2.2499956e+2, -775512.7, -861421.2, 76.13069, 0.020485941, 0.039514944, -775512.6, -40504.56, 0.0, 10.000182, 9.999043 
8.0500257e+2, 2.3499842e+2, -677498.75, -763410.9, -102.953896, 0.02049399, 0.021583455, -677498.6, -40481.563, 0.0, 10.000182, 9.999043 
8.0500257e+2, 2.4499722e+2, -579749.5, -665969.7, 40.32415, 0.02050177, -0.0017263105, -579749.5, -40722.93, 0.0, 10.000182, 9.99904 
8.0500257e+2, 2.5499597e+2, -481693.1, -567910.3, -141.88579, 0.020509316, -0.03059441, -481692.84, -40656.273, 0.0, 10.000183, 9.999041 
8.0500257e+2, 2.6499483e+2, -370655.2, -442940.28, 22.334686, 0.020561853, -0.058727182, -370655.2, -27609.697, 0.0, 10.000183, 9.999226 
8.050026e+2, 2.7499378e+2, -272527.5, -344820.53, -164.56384, 0.020659462, -0.08630816, -272527.13, -27473.805, 0.0, 10.000184, 9.999226 
8.050026e+2, 2.849928e+2, -167592.63, -232608.42, 38.064636, 0.020725347, -0.10978644, -167592.6, -20532.309, 0.0, 10.000184, 9.999323 
8.050027e+2, 2.9499194e+2, -69401.8, -134445.47, -151.21268, 0.020759413, -0.1293394, -69401.445, -20335.002, 0.0, 10.000185, 9.999324 
8.050027e+2, 3.0499125e+2, -1153.8945, -45762.203, 71.14149, 0.020962011, -0.14557211, -1153.781, -1153.781, 0.0, 10.000187, 9.999596 
8.0500275e+2, 3.1499073e+2, -898.80927, -45587.742, -116.19996, 0.02133355, -0.15866536, -898.5071, -898.5071, 0.0, 10.000188, 9.999596 
8.15003e+2, 1.2500726e+2, -1701660.5, -1731052.5, 63.708992, 0.022509228, 0.11745412, -1701660.4, 13278.911, 0.0, 10.000189, 9.999799 
8.150029e+2, 1.3500687e+2, -1603941.8, -1633267.8, -124.6091, 0.022140019, 0.09888791, -1603941.3, 13000.663, 0.0, 10.000187, 9.999798 
8.1500286e+2, 1.4500636e+2, -1518768.1, -1561575.9, 124.845215, 0.021932099, 0.07658244, -1518767.8, 177.56032, 0.0, 10.000186, 9.999619 
8.150028e+2, 1.5500572e+2, -1420950.5, -1463720.0, -65.14144, 0.021885347, 0.050286837, -1420950.4, -0.6800357, 0.0, 10.000184, 9.999618 
8.150028e+2, 1.6500509e+2, -1342929.8, -1406988.8, 157.58437, 0.021803873, 0.03889924, -1342929.4, -19974.588, 0.0, 10.000184, 9.999334 
8.150028e+2, 1.7500445e+2, -1245041.4, -1309082.8, -29.280428, 0.021687761, 0.042192116, -1245041.4, -20080.715, 0.0, 10.000183, 9.999334 
8.1500274e+2, 1.850037e+2, -1170942.4, -1260592.5, 154.412, 0.02161945, 0.049902808, -1170942.1, -43973.668, 0.0, 10.000183, 9.998995 
8.1500274e+2, 1.9500281e+2, -1072992.8, -1162656.3, -27.508219, 0.021598868, 0.061845638, -1072992.6, -44014.5, 0.0, 10.000182, 9.998994 
8.1500274e+2, 2.050018e+2, -976435.06, -1067629.6, 124.618004, 0.021580325, 0.0630183, -976434.9, -45446.688, 0.0, 10.000182, 9.998974 
8.1500274e+2, 2.1500069e+2, -878453.2, -969667.44, -54.338715, 0.0215638, 0.053267114, -878453.1, -45454.71, 0.0, 10.000182, 9.998974 
8.1500274e+2, 2.2499955e+2, -775845.4, -862112.25, 77.832146, 0.021562196, 0.03950994, -775845.3, -40837.273, 0.0, 10.000182, 9.99904 
8.1500274e+2, 2.3499842e+2, -677831.44, -764101.9, -101.25358, 0.021575531, 0.021566672, -677831.3, -40814.184, 0.0, 10.000182, 9.99904 
8.1500274e+2, 2.449972e+2, -580088.0, -666672.8, 48.378864, 0.021591002, -0.0017561844, -580088.0, -41061.31, 0.0, 10.000182, 9.999035 
8.1500274e+2, 2.5499594e+2, -482031.5, -568613.4, -133.8271, 0.021608643, -0.0306387, -482031.28, -40994.55, 0.0, 10.000183, 9.999036 
8.150028e+2, 2.649948e+2, -371002.44, -443661.72, 44.94976, 0.021673044, -0.058788206, -371002.4, -27956.707, 0.0, 10.000183, 9.99922 
8.150028e+2, 2.7499375e+2, -272874.6, -345541.78, -141.94109, 0.02178427, -0.08638823, -272874.34, -27820.764, 0.0, 10.000184, 9.999221 
8.150028e+2, 2.8499278e+2, -167944.27, -233339.13, 75.135185, 0.021860944, -0.109883435, -167944.19, -20883.588, 0.0, 10.000184, 9.999318 
8.1500286e+2, 2.949919e+2, -69753.336, -135176.02, -114.13908, 0.02190297, -0.12945114, -69753.14, -20686.338, 0.0, 10.000185, 9.999318 
8.150029e+2, 3.0499122e+2, -1501.9462, -46485.535, 128.877, 0.022099653, -0.14570092, -1501.5769, -1501.5769, 0.0, 10.000187, 9.999591 
8.15003e+2, 3.1499067e+2, -1246.9164, -46311.188, -58.45766, 0.022451343, -0.15881348, -1246.8406, -1246.8406, 0.0, 10.000188, 9.999591 
8.2500315e+2, 1.2500732e+2, -1699028.6, -1730354.1, 102.41717, 0.023641905, 0.117590085, -1699028.3, 15910.454, 0.0, 10.000209, 9.999794 
8.250031e+2, 1.3500693e+2, -1601292.3, -1632560.8, -93.819435, 0.023299044, 0.09901033, -1601292.0, 15649.528, 0.0, 10.000208, 9.999793 
8.25003e+2, 1.450064e+2, -1516121.1, -1560880.0, 164.02264, 0.023098705, 0.0766913, -1516120.5, 2824.4521, 0.0, 10.000206, 9.999613 
8.25003e+2, 1.5500575e+2, -1418314.0, -1463029.4, -37.07104, 0.023040837, 0.05038249, -1418313.9, 2635.4146, 0.0, 10.000205, 9.999613 
8.2500297e+2, 1.6500512e+2, -1340308.0, -1406296.6, 186.84747, 0.022946127, 0.038979754, -1340307.5, -17353.008, 0.0, 10.000204, 9.99933 
8.2500297e+2, 1.7500447e+2, -1242449.9, -1308405.5, -11.812049, 0.022814654, 0.042255387, -1242449.9, -17489.467, 0.0, 10.000203, 9.99933 
8.2500297e+2, 1.8500371e+2, -1168367.9, -1259906.3, 176.59116, 0.022731852, 0.049949776, -1168367.5, -41399.23, 0.0, 10.000203, 9.99899 
8.250029e+2, 1.9500282e+2, -1070444.0, -1161982.4, -15.538527, 0.022697661, 0.061877217, -1070444.0, -41465.883, 0.0, 10.000202, 9.998989 
8.250029e+2, 2.0500182e+2, -973898.06, -1066950.3, 135.56538, 0.022668649, 0.06303631, -973897.9, -42909.785, 0.0, 10.000202, 9.998969 
8.250029e+2, 2.1500069e+2, -875928.06, -968994.0, -52.066597, 0.02264479, 0.053273417, -875928.06, -42929.664, 0.0, 10.000202, 9.998969 
8.250029e+2, 2.2499955e+2, -773321.56, -861439.56, 77.38888, 0.022642514, 0.039504457, -773321.5, -38313.41, 0.0, 10.000202, 9.999034 
8.250029e+2, 2.349984e+2, -675297.94, -763424.7, -110.24441, 0.022661833, 0.021549309, -675297.8, -38280.605, 0.0, 10.000202, 9.999034 
8.250029e+2, 2.449972e+2, -577545.4, -666002.8, 38.21454, 0.02268654, -0.0017865105, -577545.3, -38518.54, 0.0, 10.000202, 9.99903 
8.2500297e+2, 2.5499594e+2, -479465.66, -567932.2, -153.99715, 0.022716666, -0.030683095, -479465.38, -38428.473, 0.0, 10.000203, 9.99903 
8.2500297e+2, 2.6499477e+2, -368421.63, -442989.6, 29.18497, 0.022794079, -0.05884791, -368421.6, -25375.676, 0.0, 10.000203, 9.999215 
8.2500297e+2, 2.7499372e+2, -270266.5, -344856.5, -169.03746, 0.022918833, -0.08646448, -270266.13, -25212.291, 0.0, 10.000204, 9.999216 
8.25003e+2, 2.8499275e+2, -165323.36, -232654.02, 48.79865, 0.023007113, -0.10997446, -165323.33, -18262.412, 0.0, 10.000205, 9.999312 
8.25003e+2, 2.9499188e+2, -67126.08, -134487.83, -151.08209, 0.023058832, -0.12955512, -67125.74, -18058.574, 0.0, 10.000206, 9.999313 
8.250031e+2, 3.0499116e+2, 1124.1176, -45787.18, 100.092354, 0.023245981, -0.14581646, 1124.331, 1124.331, 0.0, 10.000207, 9.999585 
8.2500315e+2, 3.149906e+2, 1357.0039, -45623.58, -94.25462, 0.023568831, -0.1589391, 1357.193, 1357.193, 0.0, 10.000209, 9.999586 
8.3500344e+2, 1.2500736e+2, -1699393.9, -1731112.3, 47.089993, 0.024777127, 0.11770444, -1699393.9, 15544.407, 0.0, 10.000209, 9.999788 
8.350034e+2, 1.3500698e+2, -1601657.4, -1633318.8, -149.15237, 0.02446932, 0.09912039, -1601656.8, 15284.312, 0.0, 10.000208, 9.999788 
8.350033e+2, 1.4500643e+2, -1516495.5, -1561656.9, 122.94999, 0.024279978, 0.07679303, -1516495.1, 2449.5117, 0.0, 10.000206, 9.999608 
8.3500326e+2, 1.5500578e+2, -1418688.3, -1463806.4, -78.142456, 0.024209127, 0.05047224, -1418688.1, 2260.8716, 0.0, 10.000205, 9.999607 
8.3500326e+2, 1.6500515e+2, -1340677.5, -1407063.8, 155.88739, 0.024100052, 0.039056208, -1340677.1, -17722.96, 0.0, 10.000204, 9.999325 
8.3500326e+2, 1.750045e+2, -1242819.5, -1309173.0, -42.763367, 0.023952827, 0.04231704, -1242819.5, -17859.281, 0.0, 10.000203, 9.999324 
8.350032e+2, 1.8500373e+2, -1168725.1, -1260648.0, 161.91913, 0.023853993, 0.049996484, -1168724.8, -41756.71, 0.0, 10.000203, 9.998984 
8.350032e+2, 1.9500284e+2, -1070801.1, -1162724.1, -30.205044, 0.0238035, 0.061908808, -1070801.1, -41823.223, 0.0, 10.000202, 9.998984 
8.350032e+2, 2.0500182e+2, -974246.8, -1067674.5, 131.12187, 0.02376218, 0.063054316, -974246.6, -43258.61, 0.0, 10.000202, 9.998964 
8.350032e+2, 2.1500069e+2, -876276.75, -969718.1, -56.510883, 0.023730008, 0.05327943, -876276.75, -43278.38, 0.0, 10.000202, 9.998963 
8.350032e+2, 2.2499955e+2, -773670.2, -862163.6, 81.627815, 0.023726918, 0.039498486, -773670.1, -38662.0, 0.0, 10.000202, 9.999029 
8.350032e+2, 2.349984e+2, -675646.5, -764148.6, -106.00598, 0.023752924, 0.021531368, -675646.4, -38629.105, 0.0, 10.000202, 9.999029 
8.350032e+2, 2.4499719e+2, -577902.44, -666744.56, 52.310337, 0.02378841, -0.0018172874, -577902.44, -38875.5, 0.0, 10.000202, 9.999025 
8.350032e+2, 2.549959e+2, -479822.66, -568673.8, -139.89613, 0.023833407, -0.030727591, -479822.44, -38785.355, 0.0, 10.000203, 9.999025 
8.3500326e+2, 2.6499474e+2, -368789.9, -443754.75, 58.894913, 0.023924982, -0.058906298, -368789.88, -25743.72, 0.0, 10.000203, 9.999209 
8.3500326e+2, 2.749937e+2, -270634.7, -345621.47, -139.31987, 0.024063172, -0.086536914, -270634.4, -25580.313, 0.0, 10.000204, 9.99921 
8.3500326e+2, 2.849927e+2, -165694.7, -233425.66, 87.54751, 0.02416388, -0.11005952, -165694.6, -18633.357, 0.0, 10.000205, 9.999308 
8.350033e+2, 2.9499182e+2, -67497.305, -135259.28, -112.33206, 0.024227023, -0.12965134, -67497.12, -18429.576, 0.0, 10.000206, 9.999308 
8.350034e+2, 3.0499113e+2, 763.0484, -46537.566, 152.11427, 0.02440102, -0.14591873, 763.53754, 763.53754, 0.0, 10.000207, 9.99958 
8.3500344e+2, 3.1499058e+2, 995.87555, -46374.08, -42.230457, 0.024686048, -0.15904222, 995.9132, 995.9132, 0.0, 10.000209, 9.999581 
8.450036e+2, 1.2500742e+2, -1696742.4, -1730419.6, 68.75165, 0.025895225, 0.11778803, -1696742.3, 18195.537, 0.0, 10.00023, 9.9997835 
8.450036e+2, 1.3500702e+2, -1598970.6, -1632609.1, -129.88298, 0.025631992, 0.09921075, -1598970.1, 17970.453, 0.0, 10.000229, 9.999783 
8.4500355e+2, 1.4500648e+2, -1513808.5, -1560968.6, 146.17667, 0.025458105, 0.07688183, -1513808.0, 5136.165, 0.0, 10.000227, 9.999602 
8.450035e+2, 1.5500583e+2, -1416009.6, -1463122.3, -61.88989, 0.025373654, 0.050551597, -1416009.5, 4939.1235, 0.0, 10.000226, 9.999601 
8.450035e+2, 1.6500518e+2, -1338017.3, -1406384.5, 170.75586, 0.025250727, 0.039125267, -1338016.9, -15062.937, 0.0, 10.000225, 9.999319 
8.450034e+2, 1.7500451e+2, -1240193.4, -1308510.4, -37.224224, 0.025089374, 0.042374767, -1240193.4, -15233.375, 0.0, 10.000224, 9.999318 
8.450034e+2, 1.8500376e+2, -1166120.9, -1259976.3, 174.29726, 0.024974426, 0.050041515, -1166120.5, -39152.59, 0.0, 10.000223, 9.99898 
8.450034e+2, 1.9500284e+2, -1068231.6, -1162069.3, -27.161434, 0.024905846, 0.061939757, -1068231.6, -39253.84, 0.0, 10.000222, 9.998979 
8.4500337e+2, 2.0500183e+2, -971694.0, -1067013.0, 137.75252, 0.02485121, 0.063072085, -971693.75, -40705.824, 0.0, 10.000222, 9.998959 
8.4500337e+2, 2.1500069e+2, -873741.0, -969064.94, -58.395515, 0.024810495, 0.053284965, -873740.94, -40742.605, 0.0, 10.000222, 9.998959 
8.4500337e+2, 2.2499955e+2, -771136.4, -861511.3, 83.84066, 0.024806445, 0.039491948, -771136.3, -36128.188, 0.0, 10.000222, 9.999024 
8.4500337e+2, 2.3499838e+2, -673099.9, -763490.2, -112.19305, 0.024839077, 0.02151292, -673099.75, -36082.41, 0.0, 10.000222, 9.999024 
8.450034e+2, 2.4499717e+2, -575343.2, -666094.44, 49.650887, 0.024885857, -0.0018480872, -575343.2, -36316.133, 0.0, 10.000222, 9.99902 
8.450034e+2, 2.549959e+2, -477232.94, -568009.06, -151.37198, 0.02494683, -0.030771203, -477232.7, -36195.445, 0.0, 10.000223, 9.999021 
8.450034e+2, 2.6499474e+2, -366181.28, -443098.66, 54.26637, 0.025052035, -0.058961462, -366181.25, -23134.877, 0.0, 10.000224, 9.999205 
8.450035e+2, 2.7499366e+2, -267996.25, -344950.97, -152.46014, 0.025201498, -0.08660235, -267995.94, -22941.559, 0.0, 10.000225, 9.999205 
8.450035e+2, 2.8499267e+2, -163041.38, -232749.64, 72.548225, 0.025313891, -0.11013432, -163041.3, -15979.736, 0.0, 10.000226, 9.999302 
8.4500355e+2, 2.949918e+2, -64841.86, -134582.23, -133.40738, 0.025389146, -0.12973452, -64841.605, -15773.68, 0.0, 10.000227, 9.999303 
8.4500355e+2, 3.0499107e+2, 3413.6072, -45839.53, 135.08708, 0.025545444, -0.14600097, 3413.9778, 3413.9778, 0.0, 10.000228, 9.999576 
8.450036e+2, 3.1499052e+2, 3605.3762, -45695.9, -60.434135, 0.025782868, -0.1591141, 3605.4502, 3605.4502, 0.0, 10.000229, 9.999576 
8.5500383e+2, 1.2500747e+2, -1697112.1, -1731187.0, 22.56682, 0.026996257, 0.11784086, -1697112.1, 17825.154, 0.0, 10.00023, 9.999778 
8.550038e+2, 1.3500707e+2, -1599340.3, -1633376.4, -176.07616, 0.02678711, 0.099281415, -1599339.4, 17600.771, 0.0, 10.000229, 9.999778 
8.550038e+2, 1.4500654e+2, -1514195.8, -1561772.5, 103.0084, 0.026633127, 0.07695775, -1514195.6, 4748.2534, 0.0, 10.000227, 9.999597 
8.550037e+2, 1.5500586e+2, -1416397.0, -1463926.4, -105.057755, 0.026534466, 0.05062057, -1416396.8, 4551.6157, 0.0, 10.000226, 9.999597 
8.550037e+2, 1.650052e+2, -1338404.1, -1407187.6, 131.02977, 0.02639819, 0.039186932, -1338403.9, -15450.289, 0.0, 10.000225, 9.999313 
8.5500365e+2, 1.7500454e+2, -1240580.4, -1309313.8, -76.942116, 0.026224334, 0.042428568, -1240580.3, -15620.527, 0.0, 10.000224, 9.999313 
8.5500365e+2, 1.8500377e+2, -1166495.5, -1260754.1, 150.65923, 0.026093189, 0.050084878, -1166495.3, -39527.484, 0.0, 10.000223, 9.998974 
8.550036e+2, 1.9500285e+2, -1068606.3, -1162847.1, -50.792984, 0.026004732, 0.061970066, -1068606.3, -39628.55, 0.0, 10.000222, 9.998974 
8.550036e+2, 2.0500183e+2, -972058.56, -1067770.1, 128.92686, 0.025935775, 0.06308961, -972058.4, -41070.504, 0.0, 10.000222, 9.998954 
8.550036e+2, 2.1500069e+2, -874105.5, -969821.94, -67.221214, 0.025886288, 0.053290017, -874105.44, -41107.152, 0.0, 10.000222, 9.998954 
8.550036e+2, 2.2499955e+2, -771500.6, -862267.75, 91.43921, 0.025881136, 0.03948484, -771500.56, -36492.39, 0.0, 10.000222, 9.999019 
8.550036e+2, 2.3499838e+2, -673464.06, -764246.56, -104.59394, 0.025920326, 0.021493968, -673463.94, -36446.53, 0.0, 10.000222, 9.999019 
8.550036e+2, 2.4499716e+2, -575716.7, -666870.25, 71.6722, 0.025978925, -0.0018789091, -575716.6, -36689.477, 0.0, 10.000222, 9.999015 
8.5500365e+2, 2.5499588e+2, -477606.34, -568784.75, -129.34431, 0.02605697, -0.030813929, -477606.16, -36568.734, 0.0, 10.000223, 9.999015 
8.5500365e+2, 2.649947e+2, -366565.44, -443896.7, 91.72934, 0.026175275, -0.059013404, -366565.3, -23518.715, 0.0, 10.000224, 9.999199 
8.5500365e+2, 2.7499366e+2, -268380.25, -345748.8, -114.989876, 0.026333852, -0.08666081, -268380.06, -23325.408, 0.0, 10.000225, 9.9992 
8.550037e+2, 2.8499264e+2, -163424.02, -233544.72, 111.87909, 0.02645719, -0.110198855, -163423.84, -16361.941, 0.0, 10.000226, 9.999296 
8.550038e+2, 2.9499176e+2, -65224.383, -135377.11, -94.07629, 0.026545245, -0.12980467, -65224.258, -16155.938, 0.0, 10.000227, 9.999297 
8.550038e+2, 3.0499104e+2, 3050.3398, -46594.445, 176.49467, 0.026679305, -0.1460632, 3050.9673, 3050.9673, 0.0, 10.000228, 9.99957 
8.5500383e+2, 3.1499046e+2, 3242.045, -46450.92, -19.02902, 0.026859349, -0.15915473, 3242.0522, 3242.0522, 0.0, 10.000229, 9.999571 
8.6500406e+2, 1.2500753e+2, -1694526.0, -1730522.6, 21.81313, 0.028061284, 0.11785628, -1694526.0, 20410.797, 0.0, 10.00025, 9.999773 
8.6500406e+2, 1.3500711e+2, -1596696.8, -1632684.3, -172.30482, 0.027915716, 0.09932587, -1596695.9, 20243.82, 0.0, 10.000249, 9.999772 
8.65004e+2, 1.4500657e+2, -1511545.9, -1561114.1, 104.17261, 0.027786924, 0.07701482, -1511545.8, 7397.712, 0.0, 10.000248, 9.999591 
8.6500394e+2, 1.5500589e+2, -1413746.0, -1463267.6, -105.12633, 0.027675122, 0.05067435, -1413745.8, 7202.2324, 0.0, 10.000247, 9.999591 
8.6500394e+2, 1.6500524e+2, -1335771.4, -1406543.4, 126.93677, 0.027528292, 0.039237406, -1335771.1, -12817.796, 0.0, 10.000246, 9.999308 
8.650039e+2, 1.7500457e+2, -1237978.5, -1308684.6, -86.43115, 0.027346447, 0.042475525, -1237978.4, -13018.868, 0.0, 10.000244, 9.999308 
8.650039e+2, 1.8500379e+2, -1163917.5, -1260120.4, 149.80553, 0.02720156, 0.0501244, -1163917.3, -36949.664, 0.0, 10.000243, 9.998969 
8.650038e+2, 1.9500287e+2, -1066065.8, -1162231.5, -59.373943, 0.027093621, 0.06199821, -1066065.8, -37088.2, 0.0, 10.000242, 9.998968 
8.650038e+2, 2.0500185e+2, -969536.94, -1067148.3, 129.5839, 0.027010785, 0.06310598, -969536.75, -38548.953, 0.0, 10.000242, 9.998948 
8.650038e+2, 2.1500069e+2, -871603.4, -969209.56, -74.631256, 0.026953027, 0.053294275, -871603.3, -38605.063, 0.0, 10.000241, 9.998948 
8.650038e+2, 2.2499955e+2, -769001.56, -861656.25, 96.64344, 0.026946418, 0.03947731, -769001.5, -33993.316, 0.0, 10.000241, 9.999014 
8.650038e+2, 2.3499836e+2, -670952.4, -763629.06, -107.26617, 0.026990961, 0.021474978, -670952.25, -33934.797, 0.0, 10.000242, 9.999014 
8.650038e+2, 2.4499714e+2, -573191.75, -666259.8, 78.43718, 0.027060274, -0.0019087143, -573191.6, -34164.37, 0.0, 10.000242, 9.999009 
8.650039e+2, 2.5499585e+2, -475050.47, -568159.44, -129.40063, 0.027154388, -0.030853927, -475050.28, -34012.684, 0.0, 10.000243, 9.999009 
8.650039e+2, 2.6499468e+2, -363990.94, -443276.1, 100.56691, 0.027282933, -0.05905935, -363990.8, -20943.98, 0.0, 10.000244, 9.999193 
8.6500394e+2, 2.7499363e+2, -265782.25, -345116.8, -110.47181, 0.027445894, -0.08670845, -265782.1, -20727.127, 0.0, 10.000245, 9.999194 
8.6500394e+2, 2.849926e+2, -160813.23, -232898.2, 111.95224, 0.02757714, -0.11024836, -160813.06, -13750.812, 0.0, 10.000246, 9.999291 
8.65004e+2, 2.949917e+2, -62621.945, -134734.58, -94.01407, 0.027676636, -0.12985614, -62621.824, -13553.109, 0.0, 10.000247, 9.999291 
8.65004e+2, 3.0499098e+2, 5641.9004, -45917.734, 174.54718, 0.027782943, -0.14609909, 5642.4917, 5642.4917, 0.0, 10.000248, 9.999565 
8.6500406e+2, 3.1499043e+2, 5770.889, -45804.48, -15.040907, 0.02789593, -0.15915743, 5770.8936, 5770.8936, 0.0, 10.000249, 9.999565 
8.750044e+2, 1.2500757e+2, -1694887.4, -1731272.4, -9.482109, 0.02909039, 0.11783437, -1694887.3, 20048.945, 0.0, 10.00025, 9.999767 
8.7500435e+2, 1.3500716e+2, -1597057.9, -1633434.0, -203.61009, 0.029017888, 0.09934414, -1597056.8, 19882.451, 0.0, 10.000249, 9.999767 
8.750043e+2, 1.4500661e+2, -1511935.5, -1561922.9, 61.340622, 0.028919568, 0.077053085, -1511935.5, 7007.543, 0.0, 10.000248, 9.999585 
8.7500423e+2, 1.5500593e+2, -1414135.6, -1464076.5, -147.95755, 0.02879569, 0.050712954, -1414135.1, 6812.443, 0.0, 10.000247, 9.999585 
8.7500423e+2, 1.6500527e+2, -1336168.3, -1407367.4, 79.264565, 0.028641094, 0.039276693, -1336168.3, -13215.192, 0.0, 10.000246, 9.999302 
8.750042e+2, 1.7500459e+2, -1238375.5, -1309509.0, -134.09618, 0.02845577, 0.042515643, -1238375.3, -13416.027, 0.0, 10.000244, 9.999302 
8.750042e+2, 1.850038e+2, -1164306.5, -1260928.0, 116.47582, 0.028299585, 0.05016009, -1164306.4, -37338.98, 0.0, 10.000243, 9.998963 
8.750042e+2, 1.9500288e+2, -1066454.8, -1163039.1, -92.6961, 0.028172554, 0.062024195, -1066454.8, -37477.285, 0.0, 10.000242, 9.998962 
8.750041e+2, 2.0500185e+2, -969916.5, -1067936.4, 115.733894, 0.028076285, 0.0631212, -969916.4, -38928.664, 0.0, 10.000242, 9.998943 
8.750041e+2, 2.150007e+2, -871982.94, -969997.7, -88.47978, 0.028010754, 0.053297736, -871982.9, -38984.613, 0.0, 10.000241, 9.998942 
8.750041e+2, 2.2499953e+2, -769380.5, -862443.1, 107.54241, 0.028002337, 0.039469358, -769380.4, -34372.17, 0.0, 10.000241, 9.999008 
8.750041e+2, 2.3499836e+2, -671331.2, -764415.8, -96.365105, 0.02805103, 0.021455957, -671331.1, -34313.566, 0.0, 10.000242, 9.999008 
8.750042e+2, 2.4499713e+2, -573577.94, -667061.94, 108.49975, 0.028129952, -0.0019375038, -573577.8, -34550.395, 0.0, 10.000242, 9.999003 
8.750042e+2, 2.5499585e+2, -475436.6, -568961.44, -99.330826, 0.028239137, -0.030891202, -475436.47, -34398.68, 0.0, 10.000243, 9.999003 
8.750042e+2, 2.6499465e+2, -364383.16, -444090.8, 144.15508, 0.02837506, -0.05909932, -364382.88, -21335.816, 0.0, 10.000244, 9.999187 
8.7500423e+2, 2.749936e+2, -266174.3, -345931.34, -66.87682, 0.028537689, -0.08674531, -266174.25, -21119.002, 0.0, 10.000245, 9.999188 
8.7500423e+2, 2.8499258e+2, -161195.94, -233693.33, 149.14944, 0.028673802, -0.11028283, -161195.63, -14133.036, 0.0, 10.000246, 9.999286 
8.750043e+2, 2.9499167e+2, -63004.527, -135529.5, -56.81612, 0.02878339, -0.1298889, -63004.484, -13935.368, 0.0, 10.000247, 9.999287 
8.7500435e+2, 3.0499095e+2, 5289.6187, -46649.727, 199.72702, 0.028856434, -0.14610869, 5290.3867, 5290.3867, 0.0, 10.000248, 9.99956 
8.750044e+2, 3.1499034e+2, 5418.5366, -46536.582, 10.132434, 0.028892701, -0.15912226, 5418.5386, 5418.5386, 0.0, 10.000249, 9.99956 
8.8500464e+2, 1.2500761e+2, -1692445.6, -1730653.8, -33.901726, 0.030068414, 0.11777252, -1692445.6, 22490.102, 0.0, 10.000269, 9.999763 
8.850046e+2, 1.350072e+2, -1594535.6, -1632776.4, -216.49556, 0.030078197, 0.099332765, -1594534.4, 22404.398, 0.0, 10.000269, 9.999763 
8.850045e+2, 1.4500666e+2, -1509396.8, -1561311.9, 37.588604, 0.030016776, 0.07706844, -1509396.8, 9545.818, 0.0, 10.000268, 9.99958 
8.850045e+2, 1.5500596e+2, -1411576.5, -1463456.0, -166.32076, 0.029884446, 0.05073184, -1411576.0, 9371.238, 0.0, 10.000267, 9.999579 
8.8500446e+2, 1.650053e+2, -1333620.0, -1406772.9, 53.658516, 0.029727358, 0.039300513, -1333620.0, -10667.224, 0.0, 10.000266, 9.999296 
8.8500446e+2, 1.7500462e+2, -1235843.4, -1308922.5, -160.4331, 0.029545475, 0.04254559, -1235843.0, -10884.027, 0.0, 10.000265, 9.999296 
8.850044e+2, 1.8500383e+2, -1161794.0, -1260344.6, 99.58084, 0.029383173, 0.050189435, -1161794.0, -34826.793, 0.0, 10.000263, 9.998958 
8.850044e+2, 1.950029e+2, -1063974.3, -1162471.3, -114.51885, 0.029240483, 0.062046163, -1063974.1, -34996.84, 0.0, 10.000262, 9.998957 
8.850044e+2, 2.0500186e+2, -967453.44, -1067365.1, 109.203865, 0.029133359, 0.06313406, -967453.3, -36465.71, 0.0, 10.000261, 9.998938 
8.850044e+2, 2.150007e+2, -869537.8, -969435.2, -102.04134, 0.029061778, 0.053299803, -869537.7, -36539.496, 0.0, 10.000261, 9.998938 
8.850044e+2, 2.2499953e+2, -766939.5, -861881.2, 115.2168, 0.029051099, 0.03946103, -766939.3, -31931.113, 0.0, 10.000261, 9.999002 
8.850044e+2, 2.3499835e+2, -668882.25, -763850.06, -95.38562, 0.029101314, 0.02143764, -668882.1, -31864.502, 0.0, 10.000261, 9.999002 
8.850044e+2, 2.4499711e+2, -571119.4, -666499.5, 125.01548, 0.029186606, -0.001963813, -571119.2, -32091.646, 0.0, 10.000262, 9.998998 
8.850044e+2, 2.5499582e+2, -472956.97, -568388.75, -86.73375, 0.029307, -0.030923527, -472956.9, -31918.91, 0.0, 10.000263, 9.998999 
8.8500446e+2, 2.6499462e+2, -361892.1, -443515.16, 166.7882, 0.029444642, -0.05913044, -361891.75, -18844.434, 0.0, 10.000264, 9.999183 
8.8500446e+2, 2.7499357e+2, -263678.13, -345353.13, -43.13736, 0.029599475, -0.08676799, -263678.1, -18622.549, 0.0, 10.000265, 9.999183 
8.850045e+2, 2.8499255e+2, -158696.14, -233089.81, 166.34914, 0.029734617, -0.110298336, -158695.77, -11632.819, 0.0, 10.000266, 9.99928 
8.850045e+2, 2.9499164e+2, -60532.04, -134939.08, -32.58223, 0.029850082, -0.12989844, -60532.023, -11462.503, 0.0, 10.000267, 9.999281 
8.850046e+2, 3.049909e+2, 7741.683, -46011.617, 214.55415, 0.029883733, -0.14608827, 7742.5396, 7742.5396, 0.0, 10.000267, 9.999555 
8.8500464e+2, 3.149903e+2, 7785.0425, -45939.742, 38.25686, 0.029835235, -0.15904784, 7785.0693, 7785.0693, 0.0, 10.000267, 9.999556 
8.950049e+2, 1.2500767e+2, -1692785.6, -1731359.0, -44.29221, 0.030995468, 0.11767076, -1692785.5, 22149.695, 0.0, 10.000269, 9.999758 
8.9500487e+2, 1.3500725e+2, -1594875.4, -1633481.5, -226.89395, 0.03109674, 0.09929177, -1594874.0, 22064.246, 0.0, 10.000269, 9.999757 
8.950048e+2, 1.450067e+2, -1509776.5, -1562099.8, 0.06799714, 0.031078639, 0.077060916, -1509776.5, 9165.725, 0.0, 10.000268, 9.999575 
8.9500475e+2, 1.55006e+2, -1411956.3, -1464244.0, -203.83876, 0.030941479, 0.050731037, -1411955.5, 8991.456, 0.0, 10.000267, 9.999574 
8.9500475e+2, 1.6500533e+2, -1334018.4, -1407599.8, 1.8617178, 0.03078716, 0.039308883, -1334018.4, -11065.939, 0.0, 10.000266, 9.99929 
8.950047e+2, 1.7500466e+2, -1236241.9, -1309749.8, -212.2233, 0.030615626, 0.042565383, -1236241.3, -11282.487, 0.0, 10.000265, 9.99929 
8.950047e+2, 1.8500385e+2, -1162192.3, -1261171.4, 58.022892, 0.030452374, 0.05021243, -1162192.3, -35225.293, 0.0, 10.000263, 9.998952 
8.9500463e+2, 1.9500291e+2, -1064372.5, -1163298.0, -156.06833, 0.030297454, 0.062064122, -1064372.3, -35395.066, 0.0, 10.000262, 9.998952 
8.9500463e+2, 2.0500186e+2, -967846.1, -1068180.5, 90.73916, 0.030182047, 0.06314456, -967846.06, -36858.523, 0.0, 10.000261, 9.998932 
8.9500463e+2, 2.150007e+2, -869930.44, -970250.44, -120.502205, 0.030106133, 0.05330047, -869930.3, -36932.125, 0.0, 10.000261, 9.998932 
8.9500463e+2, 2.2499953e+2, -767330.8, -862693.9, 128.21185, 0.030092744, 0.03945233, -767330.7, -32322.422, 0.0, 10.000261, 9.998998 
8.9500463e+2, 2.3499835e+2, -669273.5, -764662.7, -82.3866, 0.030141858, 0.021420026, -669273.44, -32255.736, 0.0, 10.000261, 9.998998 
8.9500463e+2, 2.449971e+2, -571512.94, -667316.8, 160.55511, 0.030230286, -0.001987645, -571512.6, -32484.957, 0.0, 10.000262, 9.998992 
8.950047e+2, 2.5499582e+2, -473350.4, -569205.94, -51.18638, 0.030358039, -0.030950904, -473350.38, -32312.205, 0.0, 10.000263, 9.998993 
8.950047e+2, 2.6499462e+2, -362282.28, -444325.66, 211.72943, 0.030491743, -0.059152722, -362281.75, -19234.19, 0.0, 10.000264, 9.999177 
8.9500475e+2, 2.7499354e+2, -264068.2, -346163.38, 1.8102355, 0.030631328, -0.086776525, -264068.2, -19012.35, 0.0, 10.000265, 9.999177 
8.9500475e+2, 2.849925e+2, -159065.84, -233857.81, 196.49547, 0.030759672, -0.1102949, -159065.33, -12002.027, 0.0, 10.000266, 9.999275 
8.950048e+2, 2.9499158e+2, -60901.63, -135706.88, -2.4330213, 0.030876813, -0.12988476, -60901.63, -11831.704, 0.0, 10.000267, 9.999275 
8.9500487e+2, 3.0499086e+2, 7414.0327, -46692.277, 217.58281, 0.030864947, -0.1460379, 7414.9077, 7414.9077, 0.0, 10.000267, 9.999551 
8.9500487e+2, 3.1499025e+2, 7457.3135, -46620.508, 41.276646, 0.030723646, -0.15893422, 7457.3447, 7457.3447, 0.0, 10.000267, 9.999551 
9.050052e+2, 1.2500772e+2, -1690543.0, -1730793.3, -91.92398, 0.03186683, 0.11753566, -1690542.8, 24391.963, 0.0, 10.000287, 9.999753 
9.050052e+2, 1.3500729e+2, -1592531.1, -1632866.8, -257.06885, 0.03206471, 0.09922011, -1592529.5, 24408.32, 0.0, 10.000287, 9.999753 
9.050051e+2, 1.4500673e+2, -1507402.9, -1561542.5, -49.568626, 0.032095894, 0.07702665, -1507402.9, 11538.876, 0.0, 10.000287, 9.99957 
9.0500504e+2, 1.5500604e+2, -1409536.1, -1463664.5, -241.39917, 0.03196069, 0.05070865, -1409535.0, 11411.529, 0.0, 10.000286, 9.999569 
9.05005e+2, 1.6500536e+2, -1331593.0, -1407057.3, -45.528362, 0.03181718, 0.039300468, -1331593.0, -8640.89, 0.0, 10.000285, 9.999286 
9.05005e+2, 1.7500468e+2, -1233803.8, -1309201.4, -254.00879, 0.03166529, 0.04257282, -1233802.9, -8844.407, 0.0, 10.000284, 9.999285 
9.050049e+2, 1.8500386e+2, -1159760.5, -1260636.1, 25.192995, 0.03150882, 0.050226685, -1159760.5, -32793.773, 0.0, 10.000283, 9.998946 
9.050049e+2, 1.9500293e+2, -1061954.0, -1162769.3, -190.2407, 0.03134783, 0.062076114, -1061953.6, -32976.65, 0.0, 10.000281, 9.998946 
9.050049e+2, 2.0500188e+2, -965438.44, -1067654.0, 76.55652, 0.03122863, 0.06315134, -965438.4, -34450.906, 0.0, 10.00028, 9.998926 
9.050049e+2, 2.150007e+2, -867534.6, -969729.75, -139.87337, 0.0311512, 0.053299136, -867534.44, -34536.285, 0.0, 10.00028, 9.998926 
9.050049e+2, 2.2499953e+2, -764940.6, -862173.4, 136.54353, 0.031134624, 0.03944339, -764940.44, -29932.139, 0.0, 10.00028, 9.998992 
9.050049e+2, 2.3499833e+2, -666885.75, -764143.4, -78.80099, 0.031178877, 0.021403985, -666885.7, -29867.885, 0.0, 10.00028, 9.998992 
9.050049e+2, 2.449971e+2, -569125.06, -666794.4, 184.37587, 0.031265117, -0.002007525, -569124.75, -30096.91, 0.0, 10.000281, 9.998987 
9.050049e+2, 2.549958e+2, -470963.9, -568684.1, -27.493034, 0.03139335, -0.030971382, -470963.9, -29925.537, 0.0, 10.000282, 9.998987 
9.05005e+2, 2.649946e+2, -359900.03, -443790.1, 245.02414, 0.031514797, -0.05916416, -359899.3, -16851.52, 0.0, 10.000283, 9.999171 
9.05005e+2, 2.749935e+2, -261712.73, -345640.66, 42.280865, 0.03162936, -0.08676927, -261712.72, -16656.578, 0.0, 10.000284, 9.999172 
9.0500504e+2, 2.8499246e+2, -156724.94, -233299.52, 229.05801, 0.031742442, -0.11027098, -156724.25, -9660.603, 0.0, 10.000284, 9.9992695 
9.050051e+2, 2.9499155e+2, -58616.24, -135175.23, 44.19845, 0.031854104, -0.12984614, -58616.215, -9545.887, 0.0, 10.000285, 9.99927 
9.050051e+2, 3.049908e+2, 9665.163, -46102.45, 247.19112, 0.031791225, -0.1459585, 9666.258, 9666.258, 0.0, 10.000285, 9.999546 
9.050052e+2, 3.149902e+2, 9601.933, -46082.03, 90.24432, 0.03155331, -0.15878785, 9602.079, 9602.079, 0.0, 10.000284, 9.999546 
9.150055e+2, 1.2500778e+2, -1690850.5, -1731431.0, -75.990036, 0.03268262, 0.11736725, -1690850.4, 24083.895, 0.0, 10.000287, 9.999749 
9.1500545e+2, 1.3500734e+2, -1592838.5, -1633504.4, -241.13661, 0.032982226, 0.09911784, -1592837.1, 24100.29, 0.0, 10.000287, 9.999748 
9.1500545e+2, 1.4500678e+2, -1507760.3, -1562283.8, -74.96173, 0.033068646, 0.076965675, -1507760.1, 11181.26, 0.0, 10.000287, 9.999564 
9.150054e+2, 1.5500607e+2, -1409893.4, -1464406.0, -266.78687, 0.03294217, 0.050664715, -1409892.1, 11054.101, 0.0, 10.000286, 9.999564 
9.150053e+2, 1.6500539e+2, -1331981.0, -1407862.4, -93.95263, 0.032817498, 0.039275292, -1331980.9, -9029.105, 0.0, 10.000285, 9.99928 
9.150053e+2, 1.750047e+2, -1234191.9, -1310006.9, -302.42767, 0.03269453, 0.04256792, -1234190.6, -9232.4, 0.0, 10.000284, 9.999279 
9.1500527e+2, 1.8500389e+2, -1160161.4, -1261468.1, -19.780724, 0.03255255, 0.050232198, -1160161.4, -33194.75, 0.0, 10.000283, 9.99894 
9.1500527e+2, 1.9500294e+2, -1062354.8, -1163601.1, -235.20547, 0.032391652, 0.062082145, -1062354.1, -33377.33, 0.0, 10.000281, 9.99894 
9.1500527e+2, 2.0500189e+2, -965840.75, -1068489.4, 55.03643, 0.032273136, 0.0631544, -965840.75, -34853.375, 0.0, 10.00028, 9.99892 
9.150052e+2, 2.150007e+2, -867936.94, -970565.06, -161.38655, 0.032197, 0.053295802, -867936.7, -34938.55, 0.0, 10.00028, 9.99892 
9.150052e+2, 2.2499953e+2, -765340.8, -863004.4, 148.92902, 0.032176763, 0.039434206, -765340.56, -30332.277, 0.0, 10.00028, 9.998986 
9.150052e+2, 2.3499833e+2, -667285.9, -764974.3, -66.40945, 0.032212395, 0.02138951, -667285.8, -30267.95, 0.0, 10.00028, 9.998986 
9.1500527e+2, 2.4499708e+2, -569518.9, -667612.25, 219.59216, 0.03229114, -0.002023459, -569518.4, -30490.445, 0.0, 10.000281, 9.998981 
9.1500527e+2, 2.5499576e+2, -471357.63, -569501.8, 7.730824, 0.03241299, -0.030984966, -471357.63, -30319.064, 0.0, 10.000282, 9.998981 
9.150053e+2, 2.6499456e+2, -360276.97, -444572.9, 283.03738, 0.032513868, -0.05916476, -360276.03, -17227.967, 0.0, 10.000283, 9.999166 
9.150053e+2, 2.7499348e+2, -262089.56, -346423.25, 80.29996, 0.03259366, -0.08674624, -262089.48, -17033.04, 0.0, 10.000284, 9.9991665 
9.150054e+2, 2.8499243e+2, -157068.6, -234013.23, 244.83572, 0.03268303, -0.110226594, -157067.81, -10003.814, 0.0, 10.000284, 9.999265 
9.150054e+2, 2.9499152e+2, -58959.8, -135888.77, 59.98253, 0.032782067, -0.12978262, -58959.754, -9889.028, 0.0, 10.000285, 9.999266 
9.1500545e+2, 3.0499074e+2, 9373.382, -46708.383, 222.63107, 0.03266269, -0.14585009, 9374.266, 9374.266, 0.0, 10.000285, 9.999542 
9.150055e+2, 3.1499016e+2, 9310.066, -46688.074, 65.675476, 0.032324348, -0.15860875, 9310.144, 9310.144, 0.0, 10.000284, 9.999542 
9.250058e+2, 1.2500782e+2, -1688826.0, -1730914.5, -134.84306, 0.033450607, 0.117177896, -1688825.5, 26108.234, 0.0, 10.000302, 9.999744 
9.2500573e+2, 1.3500738e+2, -1590698.8, -1632932.3, -279.73453, 0.033848777, 0.09899118, -1590697.0, 26239.996, 0.0, 10.000304, 9.999744 
9.2500573e+2, 1.4500682e+2, -1505576.9, -1561775.0, -141.07042, 0.033993393, 0.07688046, -1505576.5, 13364.391, 0.0, 10.000304, 9.999559 
9.250057e+2, 1.5500613e+2, -1407632.5, -1463860.0, -315.81464, 0.0338847, 0.050600164, -1407630.8, 13315.054, 0.0, 10.000304, 9.999559 
9.250056e+2, 1.6500542e+2, -1329690.9, -1407360.6, -155.1605, 0.033788577, 0.039232954, -1329690.6, -6739.0845, 0.0, 10.000303, 9.999274 
9.250056e+2, 1.7500474e+2, -1231848.0, -1309479.6, -352.80328, 0.033704896, 0.04254915, -1231846.5, -6888.476, 0.0, 10.000302, 9.999274 
9.2500556e+2, 1.850039e+2, -1157802.1, -1260965.9, -64.690765, 0.033586655, 0.05022699, -1157802.1, -30835.717, 0.0, 10.000301, 9.998935 
9.2500556e+2, 1.9500296e+2, -1059978.0, -1163090.6, -277.48535, 0.033433963, 0.062080458, -1059977.3, -31000.535, 0.0, 10.0003, 9.998935 
9.250055e+2, 2.0500189e+2, -963462.5, -1067988.5, 33.77097, 0.033321857, 0.06315246, -963462.5, -32475.21, 0.0, 10.000299, 9.998915 
9.250055e+2, 2.1500072e+2, -865560.1, -970065.0, -185.18661, 0.033250343, 0.05328989, -865559.8, -32561.715, 0.0, 10.000299, 9.998915 
9.250055e+2, 2.2499953e+2, -762971.44, -862503.9, 154.55865, 0.033225916, 0.03942491, -762971.2, -27962.883, 0.0, 10.000299, 9.9989805 
9.250055e+2, 2.3499832e+2, -664935.0, -764482.7, -62.73682, 0.03324853, 0.021377416, -664935.0, -27917.021, 0.0, 10.000299, 9.9989805 
9.2500556e+2, 2.4499707e+2, -567183.25, -667109.0, 244.92769, 0.03331302, -0.0020341466, -567182.7, -28154.572, 0.0, 10.000299, 9.998976 
9.2500556e+2, 2.5499576e+2, -469057.8, -569015.75, 37.22542, 0.033419374, -0.030990072, -469057.8, -28019.049, 0.0, 10.0003, 9.998976 
9.2500556e+2, 2.6499453e+2, -358005.34, -444060.7, 319.42505, 0.033489928, -0.05915362, -358004.16, -14955.869, 0.0, 10.000301, 9.999161 
9.250056e+2, 2.7499345e+2, -259888.19, -345944.78, 129.69533, 0.033524565, -0.08670819, -259888.0, -14831.262, 0.0, 10.000301, 9.999161 
9.250057e+2, 2.849924e+2, -154907.95, -233491.61, 285.82916, 0.0335805, -0.11016354, -154906.92, -7842.5796, 0.0, 10.000301, 9.99926 
9.250057e+2, 2.9499146e+2, -56888.914, -135410.28, 120.71386, 0.033657853, -0.1296964, -56888.73, -7817.614, 0.0, 10.000301, 9.999261 
9.2500573e+2, 3.049907e+2, 11393.597, -46167.758, 260.17032, 0.03347926, -0.14571898, 11394.772, 11394.772, 0.0, 10.0003, 9.999538 
9.250058e+2, 3.149901e+2, 11210.359, -46205.266, 125.621544, 0.033044156, -0.15841095, 11210.634, 11210.634, 0.0, 10.000299, 9.999538 
9.350061e+2, 1.2500787e+2, -1689095.9, -1731474.1, -89.07716, 0.034170896, 0.11696753, -1689095.8, 25837.57, 0.0, 10.000302, 9.999741 
9.35006e+2, 1.3500743e+2, -1590968.5, -1633491.6, -233.96234, 0.034664474, 0.09884016, -1590967.3, 25969.242, 0.0, 10.000304, 9.999741 
9.35006e+2, 1.4500685e+2, -1505902.5, -1562450.3, -146.31932, 0.03487024, 0.076771036, -1505902.1, 13038.443, 0.0, 10.000304, 9.999555 
9.3500596e+2, 1.5500616e+2, -1407958.1, -1464535.5, -321.05402, 0.034788378, 0.050515026, -1407956.4, 12989.148, 0.0, 10.000304, 9.999555 
9.350059e+2, 1.6500545e+2, -1330058.8, -1408124.1, -189.6157, 0.03473049, 0.03917348, -1330058.4, -7107.1323, 0.0, 10.000303, 9.9992695 
9.350059e+2, 1.7500475e+2, -1232216.0, -1310243.4, -387.2546, 0.03469644, 0.042516526, -1232214.1, -7256.3857, 0.0, 10.000302, 9.999269 
9.3500584e+2, 1.8500392e+2, -1158198.0, -1261787.6, -105.089195, 0.03461117, 0.05021107, -1158197.9, -31231.76, 0.0, 10.000301, 9.998929 
9.3500584e+2, 1.9500297e+2, -1060373.9, -1163912.4, -317.87518, 0.03447479, 0.062071055, -1060372.9, -31396.293, 0.0, 10.0003, 9.998929 
9.3500584e+2, 2.050019e+2, -963869.56, -1068833.8, 11.897791, 0.034374814, 0.06314552, -963869.56, -32882.383, 0.0, 10.000299, 9.998909 
9.350058e+2, 2.1500072e+2, -865967.1, -970910.1, -207.04938, 0.034311242, 0.0532814, -865966.75, -32968.676, 0.0, 10.000299, 9.998909 
9.350058e+2, 2.2499952e+2, -763375.25, -863342.44, 162.17563, 0.034282085, 0.039415497, -763375.0, -28366.668, 0.0, 10.000299, 9.998975 
9.350058e+2, 2.349983e+2, -665338.8, -765321.2, -55.111603, 0.03428729, 0.0213677, -665338.75, -28320.72, 0.0, 10.000299, 9.998975 
9.3500584e+2, 2.4499705e+2, -567569.4, -667910.75, 270.8796, 0.03433079, -0.002039596, -567568.6, -28540.406, 0.0, 10.000299, 9.99897 
9.3500584e+2, 2.5499573e+2, -469443.84, -569817.4, 63.18394, 0.034412548, -0.03098671, -469443.78, -28404.852, 0.0, 10.0003, 9.99897 
9.350059e+2, 2.649945e+2, -358358.16, -444793.3, 339.2412, 0.034443047, -0.059130754, -358356.84, -15308.291, 0.0, 10.000301, 9.999156 
9.350059e+2, 2.7499342e+2, -260240.92, -346677.16, 149.51674, 0.034422163, -0.08665512, -260240.66, -15183.631, 0.0, 10.000301, 9.999156 
9.3500596e+2, 2.8499237e+2, -155215.05, -234129.19, 278.356, 0.03443496, -0.11008182, -155214.06, -8149.3843, 0.0, 10.000301, 9.999256 
9.3500596e+2, 2.9499143e+2, -57195.938, -136047.67, 113.25132, 0.034481574, -0.12958753, -57195.773, -8124.273, 0.0, 10.000301, 9.999256 
9.35006e+2, 3.0499065e+2, 11143.335, -46687.203, 204.53464, 0.034241058, -0.1455652, 11144.059, 11144.059, 0.0, 10.0003, 9.999535 
9.350061e+2, 3.1499007e+2, 10960.009, -46724.824, 69.98029, 0.03371284, -0.15819447, 10960.094, 10960.094, 0.0, 10.000299, 9.999535 
9.4500643e+2, 1.2500791e+2, -1687272.6, -1730996.3, -146.59186, 0.034859516, 0.11675196, -1687272.1, 27660.715, 0.0, 10.000317, 9.999738 
9.4500643e+2, 1.3500747e+2, -1589030.4, -1632958.1, -272.31125, 0.035436064, 0.098673366, -1589028.8, 27907.361, 0.0, 10.000319, 9.999737 
9.450064e+2, 1.450069e+2, -1503907.6, -1561977.6, -216.935, 0.03570105, 0.07664172, -1503906.8, 15033.362, 0.0, 10.00032, 9.999551 
9.450063e+2, 1.5500619e+2, -1405854.3, -1464010.5, -371.86578, 0.035654552, 0.050412375, -1405851.9, 15093.249, 0.0, 10.00032, 9.99955 
9.450063e+2, 1.6500548e+2, -1327897.8, -1407646.3, -253.61652, 0.03564311, 0.03909819, -1327896.9, -4945.9985, 0.0, 10.000321, 9.999264 
9.4500625e+2, 1.7500478e+2, -1229956.3, -1309718.4, -436.3287, 0.035666578, 0.04246909, -1229953.9, -4996.414, 0.0, 10.00032, 9.999264 
9.450062e+2, 1.8500395e+2, -1155897.8, -1261300.5, -155.28636, 0.035622574, 0.05018248, -1155897.6, -28931.607, 0.0, 10.00032, 9.998923 
9.450062e+2, 1.9500299e+2, -1058019.9, -1163399.4, -361.63998, 0.035511218, 0.062052246, -1058018.6, -29042.217, 0.0, 10.0003195, 9.998923 
9.450062e+2, 2.050019e+2, -961499.3, -1068339.0, -15.106938, 0.035429385, 0.06313239, -961499.3, -30512.203, 0.0, 10.000319, 9.998903 
9.450062e+2, 2.1500072e+2, -863585.25, -970409.9, -233.05708, 0.035377085, 0.053269908, -863584.75, -30586.69, 0.0, 10.000319, 9.998903 
9.450062e+2, 2.2499952e+2, -761002.75, -862840.8, 160.5394, 0.03534276, 0.039406214, -761002.5, -25994.11, 0.0, 10.000319, 9.998969 
9.450062e+2, 2.349983e+2, -663004.06, -764837.8, -55.094875, 0.035326347, 0.021361206, -663004.0, -25985.896, 0.0, 10.000319, 9.998969 
9.450062e+2, 2.4499704e+2, -565268.5, -667405.6, 289.05334, 0.035341926, -0.0020385676, -565267.7, -26239.299, 0.0, 10.000319, 9.998964 
9.450062e+2, 2.549957e+2, -467220.66, -569349.56, 89.756294, 0.03538944, -0.030973453, -467220.6, -26181.447, 0.0, 10.000319, 9.998965 
9.4500625e+2, 2.6499447e+2, -356191.34, -444286.16, 367.40106, 0.035370957, -0.05909588, -356189.8, -13141.026, 0.0, 10.000319, 9.999151 
9.4500625e+2, 2.749934e+2, -258192.33, -346226.88, 195.27496, 0.035286367, -0.08658923, -258191.89, -13134.58, 0.0, 10.000318, 9.999151 
9.450063e+2, 2.8499234e+2, -153236.06, -233631.98, 316.56744, 0.035247725, -0.109985664, -153234.81, -6169.7964, 0.0, 10.000318, 9.999252 
9.450064e+2, 2.949914e+2, -55338.55, -135608.97, 174.24335, 0.03525519, -0.12946177, -55338.17, -6266.301, 0.0, 10.000317, 9.999252 
9.450064e+2, 3.0499062e+2, 12936.298, -46191.28, 239.85611, 0.034955494, -0.14539889, 12937.2705, 12937.2705, 0.0, 10.000315, 9.999531 
9.4500643e+2, 3.1499e+2, 12635.315, -46285.637, 126.52009, 0.03434811, -0.15797664, 12635.588, 12635.588, 0.0, 10.000312, 9.999532 
9.550068e+2, 1.2500796e+2, -1687507.0, -1731481.9, -71.0886, 0.035516523, 0.11653116, -1687506.9, 27425.523, 0.0, 10.000317, 9.999734 
9.550067e+2, 1.350075e+2, -1589264.6, -1633443.5, -196.79094, 0.03616365, 0.09849079, -1589263.8, 27671.938, 0.0, 10.000319, 9.999733 
9.5500666e+2, 1.4500692e+2, -1504196.5, -1562576.4, -193.88815, 0.03648593, 0.07649255, -1504195.8, 14743.995, 0.0, 10.00032, 9.999546 
9.5500666e+2, 1.5500621e+2, -1406143.1, -1464609.5, -348.80515, 0.036483314, 0.050292235, -1406141.0, 14803.775, 0.0, 10.00032, 9.999546 
9.550066e+2, 1.650055e+2, -1328237.9, -1408352.0, -262.43393, 0.03652651, 0.039007094, -1328237.0, -5286.418, 0.0, 10.000321, 9.999259 
9.5500654e+2, 1.750048e+2, -1230296.5, -1310424.4, -445.14395, 0.03661537, 0.042406876, -1230294.0, -5336.8203, 0.0, 10.00032, 9.999259 
9.5500654e+2, 1.8500397e+2, -1156281.8, -1262097.4, -181.73167, 0.03662092, 0.050141245, -1156281.5, -29315.707, 0.0, 10.00032, 9.998919 
9.550065e+2, 1.95003e+2, -1058403.8, -1164196.3, -388.07764, 0.036543276, 0.06202405, -1058402.4, -29426.076, 0.0, 10.0003195, 9.998918 
9.550065e+2, 2.0500192e+2, -961904.56, -1069180.4, -33.932446, 0.036485594, 0.06311309, -961904.56, -30917.525, 0.0, 10.000319, 9.998898 
9.550065e+2, 2.1500072e+2, -863990.44, -971251.1, -251.86853, 0.03644789, 0.053255416, -863989.8, -30991.807, 0.0, 10.000319, 9.998898 
9.550065e+2, 2.2499952e+2, -761403.5, -863673.0, 158.38448, 0.036407955, 0.039397065, -761403.25, -26394.865, 0.0, 10.000319, 9.998963 
9.550065e+2, 2.3499829e+2, -663404.75, -765669.9, -57.23924, 0.036365725, 0.02135793, -663404.75, -26386.535, 0.0, 10.000319, 9.998963 
9.550065e+2, 2.4499702e+2, -565639.0, -668175.0, 294.87857, 0.036346465, -0.0020310725, -565638.2, -26609.65, 0.0, 10.000319, 9.99896 
9.5500654e+2, 2.549957e+2, -467591.13, -570118.75, 95.58656, 0.0363501, -0.030950317, -467591.03, -26551.709, 0.0, 10.000319, 9.99896 
9.5500654e+2, 2.6499447e+2, -356511.5, -444950.88, 356.5749, 0.036273737, -0.059049007, -356510.06, -13461.055, 0.0, 10.000319, 9.999146 
9.550066e+2, 2.7499336e+2, -258512.45, -346891.34, 184.45322, 0.036117263, -0.08651055, -258512.06, -13454.463, 0.0, 10.000318, 9.999146 
9.550066e+2, 2.849923e+2, -153500.94, -234181.67, 277.57367, 0.0360189, -0.109875076, -153499.98, -6434.6436, 0.0, 10.000318, 9.9992485 
9.5500666e+2, 2.9499137e+2, -55603.387, -136158.5, 135.26471, 0.035978816, -0.12931913, -55603.16, -6530.928, 0.0, 10.000317, 9.9992485 
9.550067e+2, 3.049906e+2, 12725.345, -46628.84, 153.72128, 0.035622675, -0.14522003, 12725.742, 12725.742, 0.0, 10.000315, 9.999528 
9.550067e+2, 3.1498998e+2, 12424.28, -46723.32, 40.386726, 0.03495002, -0.15775746, 12424.308, 12424.308, 0.0, 10.000312, 9.999529 
9.6500707e+2, 1.25008e+2, -1685838.0, -1731029.5, -115.82183, 0.036162153, 0.11631745, -1685837.6, 29094.277, 0.0, 10.00033, 9.999731 
9.65007e+2, 1.3500756e+2, -1587502.0, -1632946.0, -227.77524, 0.03685722, 0.0983009, -1587500.9, 29434.389, 0.0, 10.000333, 9.99973 
9.65007e+2, 1.4500695e+2, -1502372.8, -1562127.9, -256.34863, 0.0372276, 0.076329, -1502371.6, 16567.828, 0.0, 10.000335, 9.999542 
9.6500695e+2, 1.5500624e+2, -1404192.3, -1464100.0, -391.7678, 0.037273116, 0.050158024, -1404189.6, 16754.83, 0.0, 10.000336, 9.999542 
9.650069e+2, 1.6500553e+2, -1326209.1, -1407890.4, -317.9047, 0.03737445, 0.038901288, -1326207.9, -3257.5874, 0.0, 10.000337, 9.999254 
9.650069e+2, 1.7500482e+2, -1228132.6, -1309898.0, -483.47247, 0.037531484, 0.042328373, -1228129.8, -3172.7478, 0.0, 10.000338, 9.999254 
9.650068e+2, 1.8500398e+2, -1154056.4, -1261621.8, -230.19969, 0.03759142, 0.050084736, -1154055.9, -27090.31, 0.0, 10.000339, 9.998913 
9.650068e+2, 1.9500302e+2, -1056090.3, -1163678.3, -426.45865, 0.037554376, 0.061984185, -1056088.5, -27112.37, 0.0, 10.000338, 9.998913 
9.650068e+2, 2.0500192e+2, -959560.75, -1068688.8, -65.29133, 0.03752521, 0.06308606, -959560.75, -28573.787, 0.0, 10.000338, 9.998892 
9.650068e+2, 2.1500072e+2, -861622.94, -970748.2, -277.74042, 0.037503954, 0.05323747, -861622.2, -28624.217, 0.0, 10.000338, 9.998892 
9.650068e+2, 2.2499952e+2, -759047.75, -863167.8, 144.5083, 0.03745802, 0.039388597, -759047.56, -24039.1, 0.0, 10.000337, 9.998958 
9.650068e+2, 2.3499829e+2, -661106.1, -765192.25, -64.90641, 0.03738735, 0.021359328, -661106.06, -24087.777, 0.0, 10.000337, 9.998958 
9.650068e+2, 2.4499701e+2, -563391.94, -667664.94, 296.57108, 0.037328143, -0.0020151692, -563391.06, -24362.418, 0.0, 10.000336, 9.998955 
9.650068e+2, 2.5499567e+2, -465461.8, -569665.4, 109.6263, 0.037280314, -0.030915309, -465461.7, -24422.172, 0.0, 10.000336, 9.998955 
9.650069e+2, 2.6499444e+2, -354462.75, -444444.8, 364.91022, 0.037140902, -0.058989316, -354461.28, -11412.014, 0.0, 10.000335, 9.999142 
9.650069e+2, 2.7499333e+2, -256621.58, -346461.28, 212.77388, 0.036909796, -0.08642061, -256621.08, -11563.2, 0.0, 10.000333, 9.999143 
9.6500695e+2, 2.8499228e+2, -151701.11, -233703.67, 301.38757, 0.036748134, -0.109754115, -151700.02, -4634.3594, 0.0, 10.000331, 9.999245 
9.6500695e+2, 2.9499134e+2, -53942.63, -135747.4, 181.54076, 0.036656078, -0.12916629, -53942.227, -4869.646, 0.0, 10.000329, 9.999246 
9.65007e+2, 3.0499053e+2, 14318.0205, -46174.168, 178.07904, 0.036253527, -0.14503838, 14318.545, 14318.545, 0.0, 10.000327, 9.999525 
9.65007e+2, 3.1498995e+2, 13924.321, -46313.35, 80.738846, 0.035540145, -0.15755008, 13924.43, 13924.43, 0.0, 10.000324, 9.999526 
9.750075e+2, 1.2500803e+2, -1686046.9, -1731462.3, -16.085222, 0.036796413, 0.11611074, -1686046.9, 28884.695, 0.0, 10.00033, 9.999728 
9.750074e+2, 1.3500759e+2, -1587710.8, -1633378.3, -128.00922, 0.037516847, 0.098103665, -1587710.4, 29224.5, 0.0, 10.000333, 9.999727 
9.750073e+2, 1.45007e+2, -1502625.4, -1562651.5, -200.30505, 0.03792617, 0.07615109, -1502624.8, 16314.394, 0.0, 10.000335, 9.999539 
9.750073e+2, 1.5500627e+2, -1404444.9, -1464623.8, -335.7068, 0.03802405, 0.050009754, -1404443.0, 16501.154, 0.0, 10.000336, 9.999538 
9.7500724e+2, 1.6500555e+2, -1326517.5, -1408529.8, -291.61627, 0.038187034, 0.038780786, -1326516.5, -3566.4158, 0.0, 10.000337, 9.99925 
9.7500724e+2, 1.7500485e+2, -1228441.0, -1310537.8, -457.18347, 0.03841501, 0.0422336, -1228438.5, -3481.7256, 0.0, 10.000338, 9.999249 
9.750072e+2, 1.85004e+2, -1154421.8, -1262379.8, -233.76521, 0.03853416, 0.05001298, -1154421.3, -27455.795, 0.0, 10.000339, 9.998908 
9.750072e+2, 1.9500303e+2, -1056455.4, -1164436.1, -430.0174, 0.038544584, 0.06193267, -1056453.8, -27477.695, 0.0, 10.000338, 9.998907 
9.750071e+2, 2.0500194e+2, -959955.9, -1069509.0, -77.94399, 0.038548302, 0.06305132, -959955.8, -28968.984, 0.0, 10.000338, 9.998886 
9.750071e+2, 2.1500073e+2, -862017.94, -971568.4, -290.37546, 0.038545344, 0.053216077, -862017.2, -29019.232, 0.0, 10.000338, 9.998886 
9.750071e+2, 2.2499952e+2, -759437.06, -863976.06, 127.572044, 0.038493022, 0.039380807, -759436.9, -24428.424, 0.0, 10.000337, 9.998952 
9.750071e+2, 2.3499827e+2, -661495.4, -766000.4, -81.829414, 0.03839128, 0.021365397, -661495.3, -24476.938, 0.0, 10.000337, 9.998952 
9.750072e+2, 2.44997e+2, -563739.56, -668386.7, 271.88065, 0.03828703, -0.0019908738, -563738.9, -24710.068, 0.0, 10.000336, 9.998949 
9.750072e+2, 2.5499564e+2, -465809.4, -570386.94, 84.93964, 0.03818017, -0.030868448, -465809.34, -24769.648, 0.0, 10.000336, 9.99895 
9.750072e+2, 2.649944e+2, -354745.88, -445032.38, 313.15393, 0.037972543, -0.058916826, -354744.78, -11695.314, 0.0, 10.000335, 9.999138 
9.7500724e+2, 2.749933e+2, -256904.69, -347048.63, 161.0213, 0.037664067, -0.08631944, -256904.39, -11846.251, 0.0, 10.000333, 9.999139 
9.7500724e+2, 2.8499225e+2, -151924.4, -234166.73, 226.34216, 0.037435524, -0.10962278, -151923.78, -4857.8286, 0.0, 10.000331, 9.999242 
9.750073e+2, 2.949913e+2, -54165.887, -136210.33, 106.514694, 0.03728708, -0.12900326, -54165.75, -5092.835, 0.0, 10.000329, 9.999242 
9.750073e+2, 3.049905e+2, 14136.666, -46550.03, 67.924904, 0.036848128, -0.14485388, 14136.741, 14136.741, 0.0, 10.000327, 9.999523 
9.750074e+2, 3.1498992e+2, 13742.905, -46689.355, -29.402483, 0.036118478, -0.15735443, 13742.919, 13742.919, 0.0, 10.000324, 9.999523 
9.8500776e+2, 1.2500808e+2, -1684476.6, -1731027.0, -46.648094, 0.037432756, 0.11590994, -1684476.5, 30454.64, 0.0, 10.000342, 9.999725 
9.8500776e+2, 1.3500762e+2, -1586092.5, -1632919.8, -151.69899, 0.038150344, 0.09790197, -1586092.0, 30842.574, 0.0, 10.000345, 9.999724 
9.850077e+2, 1.4500703e+2, -1500959.0, -1562226.5, -247.12177, 0.03858346, 0.075962014, -1500958.0, 17980.756, 0.0, 10.000347, 9.999536 
9.8500764e+2, 1.550063e+2, -1402659.4, -1464141.5, -366.69528, 0.038731616, 0.049847316, -1402657.1, 18286.7, 0.0, 10.00035, 9.999535 
9.8500764e+2, 1.6500558e+2, -1324652.1, -1408096.0, -332.01605, 0.038952585, 0.03864344, -1324650.9, -1701.0853, 0.0, 10.000352, 9.999246 
9.850076e+2, 1.7500487e+2, -1226426.8, -1310032.6, -480.4379, 0.039246265, 0.042119656, -1226424.0, -1467.4723, 0.0, 10.000354, 9.999246 
9.850076e+2, 1.8500401e+2, -1152337.9, -1261936.4, -276.39322, 0.039423317, 0.049922623, -1152337.1, -25371.912, 0.0, 10.000355, 9.998902 
9.850076e+2, 1.9500303e+2, -1054262.0, -1163940.1, -458.5638, 0.039483823, 0.06186604, -1054260.1, -25284.191, 0.0, 10.000356, 9.998902 
9.850075e+2, 2.0500194e+2, -957725.0, -1069047.1, -113.19166, 0.039521467, 0.063006215, -957724.9, -26738.092, 0.0, 10.000356, 9.99888 
9.850075e+2, 2.1500073e+2, -859756.1, -971091.7, -314.48526, 0.03953629, 0.053190347, -859755.25, -26757.299, 0.0, 10.000356, 9.99888 
9.850075e+2, 2.249995e+2, -757189.0, -863495.75, 97.427216, 0.03947724, 0.03937452, -757188.9, -22180.393, 0.0, 10.000355, 9.998946 
9.850075e+2, 2.3499827e+2, -659318.7, -765554.44, -99.98066, 0.039344266, 0.021378618, -659318.56, -22300.13, 0.0, 10.000354, 9.998946 
9.850075e+2, 2.4499698e+2, -561625.44, -667898.4, 250.50688, 0.039193466, -0.001954836, -561624.9, -22595.934, 0.0, 10.000353, 9.998944 
9.850076e+2, 2.5499564e+2, -463840.03, -569968.3, 79.73552, 0.03902473, -0.03080632, -463839.97, -22800.096, 0.0, 10.000351, 9.998945 
9.850076e+2, 2.6499438e+2, -352868.2, -444549.53, 295.0755, 0.03875025, -0.058828745, -352867.22, -9817.527, 0.0, 10.000349, 9.999134 
9.850076e+2, 2.7499324e+2, -255201.33, -346649.7, 162.86069, 0.03836996, -0.086205564, -255201.05, -10142.644, 0.0, 10.000346, 9.999135 
9.8500764e+2, 2.8499222e+2, -150314.58, -233718.88, 230.03061, 0.03807831, -0.109481886, -150313.94, -3247.699, 0.0, 10.000344, 9.999239 
9.8500764e+2, 2.9499128e+2, -52686.332, -135825.19, 129.1298, 0.03787546, -0.12883404, -52686.133, -3612.8992, 0.0, 10.00034, 9.999239 
9.850077e+2, 3.0499047e+2, 15561.701, -46139.508, 80.49042, 0.037416264, -0.14467074, 15561.807, 15561.807, 0.0, 10.000338, 9.99952 
9.850077e+2, 3.1498986e+2, 15124.653, -46299.793, -8.144392, 0.036700696, -0.1571718, 15124.654, 15124.654, 0.0, 10.000335, 9.99952 
9.950081e+2, 1.250081e+2, -1684672.8, -1731433.3, 65.50328, 0.03807115, 0.115715, -1684672.6, 30258.107, 0.0, 10.000342, 9.9997225 
9.9500805e+2, 1.3500766e+2, -1586288.5, -1633325.6, -39.505814, 0.03875776, 0.0976958, -1586288.5, 30645.7, 0.0, 10.000345, 9.999722 
9.9500805e+2, 1.4500706e+2, -1501182.4, -1562689.0, -160.1592, 0.03919957, 0.07576179, -1501181.9, 17756.531, 0.0, 10.000347, 9.999533 
9.95008e+2, 1.5500633e+2, -1402882.8, -1464604.3, -279.7121, 0.039395925, 0.049670715, -1402881.5, 18062.121, 0.0, 10.00035, 9.999532 
9.95008e+2, 1.6500561e+2, -1324928.8, -1408669.3, -267.06036, 0.039671227, 0.038489267, -1324927.9, -1978.3998, 0.0, 10.000352, 9.999242 
9.9500793e+2, 1.7500488e+2, -1226703.4, -1310606.1, -415.4819, 0.040025394, 0.041986566, -1226701.4, -1745.0526, 0.0, 10.000354, 9.999242 
9.9500793e+2, 1.8500403e+2, -1152677.1, -1262640.1, -251.53986, 0.040259045, 0.049813703, -1152676.6, -25711.514, 0.0, 10.000355, 9.998898 
9.9500793e+2, 1.9500305e+2, -1054601.1, -1164643.8, -433.7037, 0.040372245, 0.06178432, -1054599.5, -25623.725, 0.0, 10.000356, 9.998898 
9.950079e+2, 2.0500195e+2, -958099.6, -1069824.4, -117.80362, 0.040444866, 0.06295077, -958099.5, -27112.781, 0.0, 10.000356, 9.998876 
9.950079e+2, 2.1500073e+2, -860130.7, -971868.94, -319.07584, 0.040476963, 0.05316028, -860129.75, -27131.848, 0.0, 10.000356, 9.998875 
9.950079e+2, 2.249995e+2, -757556.2, -864257.8, 62.010826, 0.040410843, 0.03936972, -757556.1, -22547.625, 0.0, 10.000355, 9.998941 
9.950079e+2, 2.3499826e+2, -659685.9, -766316.4, -135.3801, 0.04024646, 0.021398975, -659685.7, -22667.145, 0.0, 10.000354, 9.998941 
9.950079e+2, 2.4499696e+2, -561943.2, -668557.7, 188.30975, 0.040047605, -0.0019070804, -561942.9, -22913.838, 0.0, 10.000353, 9.99894 
9.950079e+2, 2.549956e+2, -464157.78, -570627.5, 17.54247, 0.039814156, -0.030728953, -464157.78, -23117.729, 0.0, 10.000351, 9.99894 
9.9500793e+2, 2.6499438e+2, -353114.47, -445060.22, 198.1207, 0.039474163, -0.058725104, -353114.06, -10064.133, 0.0, 10.000349, 9.99913 
9.9500793e+2, 2.749932e+2, -255447.6, -347160.22, 65.91007, 0.039027598, -0.086079, -255447.55, -10388.905, 0.0, 10.000346, 9.999131 
9.95008e+2, 2.849922e+2, -150502.88, -234108.98, 121.21274, 0.0386766, -0.10933143, -150502.7, -3436.183, 0.0, 10.000344, 9.999236 
9.95008e+2, 2.9499125e+2, -52874.598, -136215.17, 20.334843, 0.03842131, -0.12865865, -52874.594, -3801.0571, 0.0, 10.00034, 9.999236 
9.9500805e+2, 3.0499044e+2, 15396.359, -46481.926, -40.88355, 0.037957974, -0.14448892, 15396.387, 15396.387, 0.0, 10.000338, 9.999518 
9.9500805e+2, 3.1498984e+2, 14959.285, -46642.35, -129.49033, 0.037286755, -0.1570021, 14959.558, 14959.558, 0.0, 10.000335, 9.999518 
1.0050085e+3, 1.2500815e+2, -1683166.1, -1731017.4, 34.934906, 0.038710214, 0.11551106, -1683166.1, 31764.322, 0.0, 10.000354, 9.99972 
1.00500844e+3, 1.350077e+2, -1584795.8, -1632916.4, -69.29486, 0.039342307, 0.097480185, -1584795.6, 32138.238, 0.0, 10.000357, 9.999719 
1.00500844e+3, 1.4500709e+2, -1499673.5, -1562300.0, -196.9181, 0.039777018, 0.07554886, -1499672.9, 19265.287, 0.0, 10.00036, 9.999529 
1.0050084e+3, 1.5500636e+2, -1401292.9, -1464176.4, -305.3621, 0.040013578, 0.049475357, -1401291.4, 19651.914, 0.0, 10.000362, 9.999529 
1.0050084e+3, 1.6500562e+2, -1323282.5, -1408292.5, -295.07684, 0.040332362, 0.03831235, -1323281.5, -332.18066, 0.0, 10.000365, 9.999238 
1.0050083e+3, 1.7500491e+2, -1224927.5, -1310167.3, -427.90594, 0.040733326, 0.041828796, -1224925.4, 30.721596, 0.0, 10.000367, 9.999238 
1.0050083e+3, 1.8500404e+2, -1150842.4, -1262268.8, -289.91156, 0.04101507, 0.04968127, -1150841.6, -23876.756, 0.0, 10.00037, 9.998893 
1.0050083e+3, 1.9500306e+2, -1052658.4, -1164220.4, -453.73553, 0.041177623, 0.06168335, -1052656.5, -23680.871, 0.0, 10.000371, 9.998893 
1.0050082e+3, 2.0500195e+2, -956123.25, -1069441.1, -159.04237, 0.041282035, 0.062882155, -956123.06, -25136.412, 0.0, 10.000372, 9.99887 
1.0050082e+3, 2.1500073e+2, -858124.94, -971471.5, -341.67734, 0.04132837, 0.05312496, -858123.9, -25125.99, 0.0, 10.000372, 9.99887 
1.0050082e+3, 2.249995e+2, -755565.7, -863854.94, 13.921412, 0.041255023, 0.039367456, -755565.7, -20557.137, 0.0, 10.000371, 9.998937 
1.0050082e+3, 2.3499826e+2, -657771.3, -765950.1, -164.03336, 0.041061968, 0.021429524, -657771.06, -20752.428, 0.0, 10.00037, 9.998937 
1.0050082e+3, 2.4499696e+2, -560090.56, -668141.25, 143.31396, 0.04081812, -0.0018433933, -560090.4, -21061.229, 0.0, 10.000367, 9.998936 
1.0050082e+3, 2.549956e+2, -462453.38, -570282.44, -7.1845427, 0.04052337, -0.030631844, -462453.38, -21413.15, 0.0, 10.000365, 9.998936 
1.0050083e+3, 2.6499435e+2, -351493.0, -444644.25, 156.7862, 0.04012667, -0.05860106, -351492.75, -8442.62, 0.0, 10.000361, 9.999127 
1.0050083e+3, 2.749932e+2, -253982.64, -346819.53, 42.770332, 0.039628044, -0.085934535, -253982.63, -8923.734, 0.0, 10.000359, 9.999128 
1.0050083e+3, 2.8499216e+2, -149108.42, -233716.9, 110.47224, 0.039229088, -0.10916742, -149108.28, -2041.5011, 0.0, 10.000355, 9.999233 
1.0050084e+3, 2.9499123e+2, -51571.54, -135867.11, 23.02742, 0.038929917, -0.12847595, -51571.535, -2497.7107, 0.0, 10.000351, 9.999234 
1.0050084e+3, 3.049904e+2, 16676.918, -46124.496, -28.226326, 0.038479842, -0.14430426, 16676.93, 16676.93, 0.0, 10.000348, 9.999516 
1.00500844e+3, 3.149898e+2, 16261.068, -46274.844, -114.358574, 0.0378792, -0.15683231, 16261.277, 16261.277, 0.0, 10.000344, 9.9995165 
1.0150088e+3, 1.2500818e+2, -1683361.0, -1731420.9, 143.45448, 0.039349914, 0.115298115, -1683360.6, 31569.486, 0.0, 10.000354, 9.999717 
1.01500876e+3, 1.3500772e+2, -1584990.5, -1633319.5, 39.277637, 0.03990402, 0.09725512, -1584990.5, 31943.063, 0.0, 10.000357, 9.999716 
1.01500876e+3, 1.450071e+2, -1499876.3, -1562719.6, -88.93359, 0.0403159, 0.075323224, -1499876.1, 19061.715, 0.0, 10.00036, 9.999526 
1.01500876e+3, 1.5500638e+2, -1401495.8, -1464596.3, -197.35545, 0.040584687, 0.049261272, -1401495.1, 19447.898, 0.0, 10.000362, 9.999526 
1.01500876e+3, 1.6500564e+2, -1323530.3, -1408805.5, -196.48419, 0.040936146, 0.03811273, -1323529.9, -580.7592, 0.0, 10.000365, 9.999235 
1.0150087e+3, 1.7500493e+2, -1225175.4, -1310680.5, -329.3103, 0.04137027, 0.0416464, -1225174.1, -218.2316, 0.0, 10.000367, 9.999234 
1.0150087e+3, 1.8500406e+2, -1151147.9, -1262901.8, -237.0305, 0.041691627, 0.049525373, -1151147.4, -24182.625, 0.0, 10.00037, 9.998889 
1.0150087e+3, 1.9500306e+2, -1052963.8, -1164853.3, -400.84567, 0.04190021, 0.061563175, -1052962.3, -23986.773, 0.0, 10.000371, 9.998888 
1.0150087e+3, 2.0500197e+2, -956463.56, -1070146.6, -156.01147, 0.042033244, 0.062800415, -956463.4, -25476.787, 0.0, 10.000372, 9.998865 
1.0150086e+3, 2.1500073e+2, -858465.2, -972176.9, -338.6209, 0.042090792, 0.053084396, -858464.1, -25466.27, 0.0, 10.000372, 9.998865 
1.0150086e+3, 2.249995e+2, -755897.1, -864542.06, -41.162163, 0.04201006, 0.03936771, -755897.06, -20888.508, 0.0, 10.000371, 9.998932 
1.0150086e+3, 2.3499824e+2, -658102.7, -766637.2, -219.09456, 0.041791055, 0.021470241, -658102.25, -21083.533, 0.0, 10.00037, 9.998932 
1.0150086e+3, 2.4499695e+2, -560371.0, -668722.44, 42.706573, 0.04150527, -0.0017638126, -560371.0, -21341.684, 0.0, 10.000367, 9.998932 
1.0150087e+3, 2.5499558e+2, -462733.72, -570863.44, -107.78448, 0.041152596, -0.030515036, -462733.63, -21693.248, 0.0, 10.000365, 9.998932 
1.0150087e+3, 2.6499435e+2, -351705.75, -445084.78, 19.263803, 0.04070797, -0.05845665, -351705.75, -8655.425, 0.0, 10.000361, 9.999125 
1.0150087e+3, 2.7499318e+2, -254195.33, -347259.94, -94.74482, 0.04017145, -0.08577217, -254195.23, -9136.122, 0.0, 10.000359, 9.999125 
1.0150087e+3, 2.8499213e+2, -149271.98, -234055.3, -22.02534, 0.039735883, -0.108989865, -149271.98, -2204.953, 0.0, 10.000355, 9.999231 
1.01500876e+3, 2.949912e+2, -51735.04, -136205.4, -109.444984, 0.03940136, -0.12828593, -51734.895, -2660.8018, 0.0, 10.000351, 9.999231 
1.01500876e+3, 3.0499038e+2, 16516.0, -46457.543, -144.07298, 0.03898189, -0.14411677, 16516.33, 16516.33, 0.0, 10.000348, 9.999514 
1.01500876e+3, 3.1498978e+2, 16100.165, -46608.03, -230.1604, 0.03847798, -0.15666236, 16101.01, 16101.01, 0.0, 10.000344, 9.999514 
1.02500916e+3, 1.2500821e+2, -1681923.5, -1731037.6, 85.27931, 0.03997453, 0.11505202, -1681923.4, 33006.438, 0.0, 10.000365, 9.999714 
1.02500916e+3, 1.3500774e+2, -1583620.0, -1632968.4, -19.100916, 0.040444214, 0.09700687, -1583620.0, 33313.28, 0.0, 10.000367, 9.999713 
1.02500916e+3, 1.4500715e+2, -1498529.3, -1562383.4, -133.17732, 0.040824413, 0.07507619, -1498529.0, 20408.55, 0.0, 10.00037, 9.999524 
1.02500916e+3, 1.5500641e+2, -1400124.6, -1464248.6, -235.61046, 0.041114222, 0.049019475, -1400123.9, 20818.986, 0.0, 10.000373, 9.999523 
1.02500916e+3, 1.6500567e+2, -1322146.1, -1408511.0, -227.34274, 0.041483436, 0.037882674, -1322145.6, 803.27045, 0.0, 10.000376, 9.999231 
1.025009e+3, 1.7500494e+2, -1223715.3, -1310349.6, -346.0125, 0.04193208, 0.041434456, -1223713.9, 1241.8617, 0.0, 10.00038, 9.999231 
1.025009e+3, 1.8500407e+2, -1149658.4, -1262634.5, -280.09366, 0.04227936, 0.049342692, -1149657.6, -22693.016, 0.0, 10.000381, 9.998885 
1.025009e+3, 1.9500308e+2, -1051394.0, -1164547.5, -420.3907, 0.042525224, 0.06142087, -1051392.4, -22416.977, 0.0, 10.000383, 9.998884 
1.025009e+3, 2.0500197e+2, -954876.0, -1069881.5, -207.88405, 0.042679943, 0.06270353, -954875.6, -23889.133, 0.0, 10.000385, 9.998861 
1.025009e+3, 2.1500073e+2, -856860.6, -971903.6, -362.51053, 0.04274358, 0.053038, -856859.44, -23861.594, 0.0, 10.000385, 9.99886 
1.025009e+3, 2.249995e+2, -754309.0, -864261.6, -105.986275, 0.042655665, 0.039371308, -754308.9, -19300.268, 0.0, 10.000384, 9.998927 
1.025009e+3, 2.3499824e+2, -656583.3, -766389.8, -255.17177, 0.042416226, 0.021523321, -656582.7, -19563.945, 0.0, 10.000382, 9.998927 
1.025009e+3, 2.4499694e+2, -558900.2, -668422.6, -19.107965, 0.04209592, -0.0016653324, -558900.2, -19870.8, 0.0, 10.00038, 9.998928 
1.025009e+3, 2.5499558e+2, -461386.4, -570623.06, -144.49625, 0.041694652, -0.030375272, -461386.2, -20345.676, 0.0, 10.000376, 9.998928 
1.025009e+3, 2.6499432e+2, -350412.66, -444775.84, -31.108768, 0.041216586, -0.058287576, -350412.63, -7362.1436, 0.0, 10.000372, 9.999122 
1.025009e+3, 2.7499315e+2, -253005.81, -347000.84, -128.85535, 0.040661823, -0.08558577, -253005.64, -7946.325, 0.0, 10.000368, 9.999122 
1.025009e+3, 2.8499213e+2, -148109.19, -233743.22, -29.7825, 0.040205497, -0.108792245, -148109.17, -1041.9083, 0.0, 10.000363, 9.9992285 
1.025009e+3, 2.9499114e+2, -50604.535, -135908.88, -109.30366, 0.039847657, -0.12808315, -50604.395, -1530.0476, 0.0, 10.00036, 9.999229 
1.025009e+3, 3.0499035e+2, 17665.342, -46159.375, -108.76971, 0.039469536, -0.14391626, 17665.527, 17665.527, 0.0, 10.000357, 9.999511 
1.02500916e+3, 3.1498975e+2, 17328.854, -46271.81, -194.59698, 0.03907177, -0.1564715, 17329.45, 17329.45, 0.0, 10.000354, 9.999512 
1.03500955e+3, 1.2500823e+2, -1682118.9, -1731442.1, 176.36781, 0.040584087, 0.11477286, -1682118.3, 32811.195, 0.0, 10.000365, 9.999711 
1.03500955e+3, 1.3500777e+2, -1583815.4, -1633372.5, 72.04402, 0.040962927, 0.09673547, -1583815.3, 33117.727, 0.0, 10.000367, 9.99971 
1.03500955e+3, 1.4500716e+2, -1498721.1, -1562780.1, -18.92831, 0.04130262, 0.07480779, -1498721.1, 20216.209, 0.0, 10.00037, 9.999521 
1.03500955e+3, 1.5500642e+2, -1400316.6, -1464645.5, -121.33937, 0.04160229, 0.048750013, -1400316.4, 20626.18, 0.0, 10.000373, 9.99952 
1.03500955e+3, 1.650057e+2, -1322367.9, -1408969.4, -109.007126, 0.041974384, 0.037622254, -1322367.8, 580.958, 0.0, 10.000376, 9.9992285 
1.0350094e+3, 1.7500496e+2, -1223937.1, -1310808.4, -227.66757, 0.042418975, 0.04119303, -1223936.5, 1019.1061, 0.0, 10.00038, 9.999228 
1.0350094e+3, 1.8500409e+2, -1149920.4, -1263176.8, -206.42273, 0.042778537, 0.049133293, -1149920.0, -22955.496, 0.0, 10.000381, 9.998881 
1.0350094e+3, 1.9500308e+2, -1051656.0, -1165089.8, -346.70602, 0.04305297, 0.061256483, -1051654.9, -22679.56, 0.0, 10.000383, 9.99888 
1.0350094e+3, 2.0500197e+2, -955164.7, -1070479.0, -200.43684, 0.04322246, 0.06259153, -955164.3, -24177.871, 0.0, 10.000385, 9.998857 
1.0350094e+3, 2.1500073e+2, -857149.25, -972501.2, -355.03333, 0.04328708, 0.052985795, -857148.1, -24150.281, 0.0, 10.000385, 9.998857 
1.0350094e+3, 2.2499949e+2, -754587.4, -864837.94, -178.88364, 0.043192178, 0.039378237, -754587.06, -19578.436, 0.0, 10.000384, 9.998923 
1.0350094e+3, 2.3499823e+2, -656861.6, -766966.06, -328.0398, 0.042937804, 0.02158873, -656860.7, -19841.824, 0.0, 10.000382, 9.998923 
1.0350094e+3, 2.4499694e+2, -559134.3, -668907.0, -151.70648, 0.04259037, -0.0015480007, -559134.1, -20104.588, 0.0, 10.00038, 9.998925 
1.0350094e+3, 2.5499555e+2, -461620.4, -571107.25, -277.08014, 0.04214979, -0.030212613, -461619.72, -20579.057, 0.0, 10.000376, 9.998925 
1.0350094e+3, 2.6499432e+2, -350595.44, -445153.72, -195.46822, 0.04165272, -0.05809389, -350595.03, -7544.3813, 0.0, 10.000372, 9.999119 
1.0350094e+3, 2.7499315e+2, -253188.52, -347378.6, -293.20126, 0.041099306, -0.085375376, -253187.61, -8128.1, 0.0, 10.000368, 9.99912 
1.0350094e+3, 2.849921e+2, -148258.28, -234051.25, -170.61877, 0.04063801, -0.108574584, -148257.94, -1190.4598, 0.0, 10.000363, 9.999227 
1.0350094e+3, 2.949911e+2, -50753.535, -136216.86, -250.11513, 0.040268846, -0.12786765, -50752.805, -1678.2214, 0.0, 10.00036, 9.999228 
1.0350094e+3, 3.0499035e+2, 17504.709, -46491.676, -203.98848, 0.039942786, -0.14370278, 17505.36, 17505.36, 0.0, 10.000357, 9.999509 
1.03500955e+3, 3.1498972e+2, 17168.256, -46604.242, -289.75757, 0.03966055, -0.15625979, 17169.572, 17169.572, 0.0, 10.000354, 9.999509 
1.0450099e+3, 1.2500826e+2, -1680780.8, -1731102.4, 61.60288, 0.041157845, 0.11444564, -1680780.6, 34148.563, 0.0, 10.000376, 9.999708 
1.0450099e+3, 1.3500778e+2, -1582561.0, -1633073.0, -39.4607, 0.04146467, 0.09643249, -1582561.0, 34371.758, 0.0, 10.000377, 9.999708 
1.0450099e+3, 1.450072e+2, -1497518.8, -1562498.9, -96.54722, 0.0417686, 0.07451354, -1497518.5, 21418.578, 0.0, 10.00038, 9.999518 
1.0450099e+3, 1.5500644e+2, -1399142.5, -1464378.0, -195.04852, 0.042068858, 0.048449706, -1399141.9, 21800.502, 0.0, 10.000382, 9.999517 
1.0450099e+3, 1.6500571e+2, -1321226.4, -1408749.6, -165.53543, 0.04243074, 0.03733026, -1321226.1, 1722.443, 0.0, 10.000385, 9.999226 
1.0450099e+3, 1.7500496e+2, -1222792.9, -1310587.5, -269.9313, 0.042854358, 0.04092358, -1222792.0, 2163.4443, 0.0, 10.000388, 9.999225 
1.0450099e+3, 1.8500409e+2, -1148785.0, -1263001.5, -267.7634, 0.04321184, 0.048899733, -1148784.4, -21819.936, 0.0, 10.000391, 9.998878 
1.0450098e+3, 1.9500309e+2, -1050489.5, -1164899.5, -378.39877, 0.04350306, 0.061072145, -1050488.3, -21512.988, 0.0, 10.000393, 9.998878 
1.0450098e+3, 2.0500197e+2, -954003.25, -1070320.6, -268.88278, 0.043678556, 0.062465906, -954002.6, -23016.203, 0.0, 10.000395, 9.998854 
1.0450098e+3, 2.1500073e+2, -855992.0, -972344.8, -384.98337, 0.043738402, 0.052928373, -855990.7, -22992.846, 0.0, 10.000395, 9.998853 
1.0450098e+3, 2.2499949e+2, -753446.94, -864672.75, -256.54865, 0.043637212, 0.03938835, -753446.4, -18437.688, 0.0, 10.000394, 9.9989195 
1.0450098e+3, 2.3499823e+2, -655771.9, -766825.25, -366.75424, 0.04337506, 0.021665705, -655770.7, -18751.78, 0.0, 10.000391, 9.9989195 
1.0450098e+3, 2.4499692e+2, -558071.2, -668721.1, -218.62157, 0.043010633, -0.0014133324, -558070.75, -19041.156, 0.0, 10.000388, 9.998922 
1.0450098e+3, 2.5499555e+2, -460632.44, -570957.5, -313.49298, 0.04254388, -0.03002945, -460631.53, -19590.76, 0.0, 10.000384, 9.998922 
1.0450098e+3, 2.649943e+2, -349622.5, -444951.88, -234.68661, 0.04204375, -0.05787721, -349621.9, -6571.1016, 0.0, 10.00038, 9.999117 
1.0450098e+3, 2.7499312e+2, -252244.67, -347190.75, -316.93073, 0.041510418, -0.08514015, -252243.63, -7183.94, 0.0, 10.000376, 9.999117 
1.0450098e+3, 2.8499207e+2, -147293.97, -233816.84, -154.08328, 0.041058622, -0.10833405, -147293.69, -226.01178, 0.0, 10.000371, 9.999225 
1.0450098e+3, 2.949911e+2, -49765.2, -135970.92, -229.36198, 0.040688317, -0.12763505, -49764.586, -689.78864, 0.0, 10.000368, 9.999226 
1.0450098e+3, 3.0499032e+2, 18543.922, -46242.195, -123.814644, 0.04041125, -0.14346847, 18544.158, 18544.158, 0.0, 10.000365, 9.999507 
1.0450099e+3, 3.1498972e+2, 18311.396, -46304.86, -206.79993, 0.04022814, -0.15601408, 18312.059, 18312.059, 0.0, 10.000363, 9.999507 
1.0550104e+3, 1.2500829e+2, -1680970.3, -1731494.4, 130.89108, 0.041695904, 0.114070475, -1680970.0, 33959.008, 0.0, 10.000376, 9.999706 
1.05501026e+3, 1.3500781e+2, -1582750.5, -1633464.9, 29.875675, 0.041949466, 0.096098, -1582750.5, 34182.02, 0.0, 10.000377, 9.999705 
1.05501026e+3, 1.4500721e+2, -1497703.4, -1562880.6, 10.351319, 0.042222343, 0.074193485, -1497703.4, 21233.547, 0.0, 10.00038, 9.999516 
1.05501026e+3, 1.5500645e+2, -1399327.3, -1464759.8, -88.13338, 0.042513955, 0.048118617, -1399327.1, 21615.09, 0.0, 10.000382, 9.999516 
1.05501026e+3, 1.6500571e+2, -1321421.6, -1409153.1, -46.47076, 0.042852577, 0.03700676, -1321421.6, 1526.7446, 0.0, 10.000385, 9.999223 
1.05501026e+3, 1.7500497e+2, -1222988.3, -1310991.3, -150.84784, 0.043238357, 0.040626157, -1222988.0, 1967.2981, 0.0, 10.000388, 9.999222 
1.05501026e+3, 1.850041e+2, -1148992.0, -1263429.3, -186.05946, 0.043579463, 0.048642065, -1148991.8, -22027.455, 0.0, 10.000391, 9.998875 
1.05501026e+3, 1.9500309e+2, -1050696.6, -1165327.3, -296.6747, 0.043875724, 0.0608679, -1050695.9, -21720.652, 0.0, 10.000393, 9.998875 
1.05501026e+3, 2.0500198e+2, -954220.6, -1070769.6, -262.51685, 0.044048496, 0.062326673, -954220.06, -23233.643, 0.0, 10.000395, 9.99885 
1.05501026e+3, 2.1500073e+2, -856209.4, -972793.8, -378.58405, 0.044097833, 0.052865755, -856208.1, -23210.268, 0.0, 10.000395, 9.99885 
1.0550101e+3, 2.2499949e+2, -753653.25, -865098.75, -342.57608, 0.043991048, 0.039401647, -753652.2, -18643.5, 0.0, 10.000394, 9.998917 
1.0550101e+3, 2.3499821e+2, -655978.1, -767251.2, -452.74554, 0.043728244, 0.021754216, -655976.3, -18957.324, 0.0, 10.000391, 9.998917 
1.0550101e+3, 2.4499692e+2, -558248.9, -669087.8, -370.689, 0.04335693, -0.0012613703, -558247.6, -19217.938, 0.0, 10.000388, 9.9989195 
1.0550101e+3, 2.5499555e+2, -460810.0, -571324.0, -465.53613, 0.04287709, -0.029825833, -460808.03, -19767.139, 0.0, 10.000384, 9.9989195 
1.0550101e+3, 2.649943e+2, -349776.7, -445270.03, -406.5654, 0.042389777, -0.05763758, -349774.97, -6724.0137, 0.0, 10.00038, 9.999114 
1.0550101e+3, 2.7499312e+2, -252398.73, -347508.78, -488.78766, 0.041895196, -0.084880136, -252396.22, -7336.3906, 0.0, 10.000376, 9.999115 
1.0550101e+3, 2.8499207e+2, -147435.33, -234108.7, -288.63324, 0.041467305, -0.10807069, -147434.38, -366.51932, 0.0, 10.000371, 9.999223 
1.0550101e+3, 2.9499108e+2, -49906.47, -136262.73, -363.8925, 0.041106015, -0.12738536, -49904.934, -829.9397, 0.0, 10.000368, 9.999224 
1.0550101e+3, 3.049903e+2, 18388.283, -46564.027, -192.008, 0.040874884, -0.14321342, 18388.852, 18388.852, 0.0, 10.000365, 9.999504 
1.05501026e+3, 3.149897e+2, 18155.777, -46626.816, -274.9327, 0.040774576, -0.15573448, 18156.943, 18156.943, 0.0, 10.000363, 9.999505 
1.0650107e+3, 1.250083e+2, -1679750.0, -1731192.1, -48.17934, 0.04218622, 0.11365592, -1679749.9, 35178.848, 0.0, 10.000385, 9.999703 
1.0650107e+3, 1.3500783e+2, -1581578.8, -1633185.9, -139.34464, 0.04242869, 0.09573553, -1581578.4, 35353.953, 0.0, 10.000386, 9.999702 
1.06501065e+3, 1.4500722e+2, -1496581.3, -1562625.9, -114.40067, 0.04269036, 0.073851116, -1496581.1, 22355.67, 0.0, 10.000388, 9.999513 
1.06501065e+3, 1.5500647e+2, -1398255.3, -1464529.3, -208.52136, 0.042970933, 0.04776512, -1398254.5, 22687.543, 0.0, 10.000391, 9.999513 
1.06501065e+3, 1.6500573e+2, -1320405.9, -1408948.1, -146.11072, 0.043280873, 0.036663204, -1320405.6, 2542.6057, 0.0, 10.000394, 9.99922 
1.06501065e+3, 1.7500497e+2, -1222037.3, -1310817.6, -233.84055, 0.04362037, 0.040313493, -1222036.6, 2918.6873, 0.0, 10.000397, 9.99922 
1.06501065e+3, 1.850041e+2, -1148080.8, -1263265.9, -275.6299, 0.043935087, 0.048372395, -1148080.0, -21115.814, 0.0, 10.000399, 9.998873 
1.06501065e+3, 1.9500309e+2, -1049811.6, -1165176.5, -351.176, 0.044224836, 0.060653336, -1049810.5, -20835.36, 0.0, 10.000401, 9.998872 
1.06501065e+3, 2.0500198e+2, -953361.44, -1070629.1, -351.30225, 0.044386834, 0.06218031, -953360.4, -22374.008, 0.0, 10.0004015, 9.998848 
1.06501065e+3, 2.1500073e+2, -855378.5, -972666.94, -419.721, 0.044421136, 0.052800678, -855377.0, -22379.162, 0.0, 10.0004015, 9.998847 
1.06501065e+3, 2.2499949e+2, -752838.3, -864961.9, -428.11282, 0.044310085, 0.039416835, -752836.7, -17827.92, 0.0, 10.000401, 9.998915 
1.06501065e+3, 2.3499821e+2, -655188.6, -767126.44, -490.57645, 0.04405381, 0.021848634, -655186.44, -18167.45, 0.0, 10.000398, 9.998915 
1.06501065e+3, 2.449969e+2, -557463.44, -668938.44, -432.00568, 0.0436861, -0.0011012149, -557461.75, -18431.988, 0.0, 10.000395, 9.998918 
1.0650105e+3, 2.5499555e+2, -460040.53, -571182.25, -491.78897, 0.04320697, -0.029613458, -460038.34, -18997.367, 0.0, 10.00039, 9.998918 
1.0650105e+3, 2.6499426e+2, -348988.16, -445109.78, -419.33804, 0.04274487, -0.057387505, -348986.3, -5935.266, 0.0, 10.000386, 9.999112 
1.0650105e+3, 2.749931e+2, -251567.63, -347328.03, -485.19073, 0.04230002, -0.08460685, -251565.16, -6505.1997, 0.0, 10.000382, 9.999113 
1.0650105e+3, 2.8499207e+2, -146556.98, -233904.7, -236.8198, 0.041903462, -0.10779331, -146556.34, 511.6556, 0.0, 10.000379, 9.999221 
1.0650105e+3, 2.9499108e+2, -48977.02, -136034.19, -308.85068, 0.04155507, -0.127123, -48975.92, 99.242256, 0.0, 10.000375, 9.999222 
1.0650105e+3, 3.049903e+2, 19370.625, -46326.758, -62.11861, 0.04135181, -0.14294265, 19370.684, 19370.684, 0.0, 10.000373, 9.999502 
1.06501065e+3, 3.1498966e+2, 19213.607, -46353.316, -137.47787, 0.04129419, -0.1554317, 19213.895, 19213.895, 0.0, 10.000371, 9.999502 
1.0750111e+3, 1.2500831e+2, -1679921.4, -1731546.3, 8.459799, 0.042628944, 0.113202035, -1679921.4, 35007.223, 0.0, 10.000385, 9.999701 
1.0750111e+3, 1.3500784e+2, -1581750.0, -1633539.8, -82.68337, 0.042902317, 0.09534515, -1581749.9, 35182.285, 0.0, 10.000386, 9.999701 
1.0750111e+3, 1.4500722e+2, -1496757.9, -1562990.9, -20.489151, 0.043172542, 0.07348647, -1496757.9, 22178.775, 0.0, 10.000388, 9.999511 
1.0750111e+3, 1.5500647e+2, -1398431.9, -1464894.3, -114.60499, 0.043439683, 0.047389254, -1398431.6, 22510.355, 0.0, 10.000391, 9.99951 
1.075011e+3, 1.6500573e+2, -1320570.1, -1409287.4, -43.798973, 0.043715537, 0.036299616, -1320570.1, 2378.0134, 0.0, 10.000394, 9.999218 
1.075011e+3, 1.7500497e+2, -1222201.6, -1311157.0, -131.50107, 0.04400033, 0.0399856, -1222201.5, 2753.735, 0.0, 10.000397, 9.999217 
1.075011e+3, 1.850041e+2, -1148222.5, -1263558.1, -200.75589, 0.04427868, 0.04809073, -1148222.3, -21258.02, 0.0, 10.000399, 9.99887 
1.075011e+3, 1.9500309e+2, -1049953.5, -1165468.9, -276.27615, 0.04455041, 0.060428463, -1049952.9, -20977.717, 0.0, 10.000401, 9.99887 
1.075011e+3, 2.0500197e+2, -953490.25, -1070894.0, -352.28635, 0.044693623, 0.06202682, -953489.2, -22502.822, 0.0, 10.0004015, 9.998846 
1.075011e+3, 2.1500073e+2, -855507.4, -972931.9, -420.67264, 0.04470838, 0.052733146, -855505.9, -22507.992, 0.0, 10.0004015, 9.998846 
1.075011e+3, 2.2499949e+2, -752956.0, -865203.7, -520.7369, 0.044594385, 0.039433904, -752953.56, -17944.795, 0.0, 10.000401, 9.998913 
1.075011e+3, 2.3499821e+2, -655306.2, -767368.2, -583.1617, 0.044351783, 0.02194895, -655303.2, -18284.117, 0.0, 10.000398, 9.998913 
1.075011e+3, 2.449969e+2, -557575.94, -669169.75, -588.2123, 0.043998122, -0.00093287334, -557572.9, -18543.031, 0.0, 10.000395, 9.998916 
1.075011e+3, 2.5499552e+2, -460152.9, -571413.4, -647.9629, 0.04353346, -0.02939233, -460149.13, -19108.059, 0.0, 10.00039, 9.998916 
1.075011e+3, 2.6499426e+2, -349111.88, -445364.72, -580.1457, 0.04310892, -0.057126984, -349108.38, -6057.241, 0.0, 10.000386, 9.999111 
1.075011e+3, 2.749931e+2, -251691.2, -347582.9, -645.9701, 0.042724732, -0.08432029, -251686.84, -6626.772, 0.0, 10.000382, 9.999111 
1.075011e+3, 2.8499204e+2, -146692.27, -234184.08, -358.0559, 0.042366914, -0.10750192, -146690.81, 377.32083, 0.0, 10.000379, 9.999219 
1.075011e+3, 2.9499105e+2, -49112.242, -136313.58, -430.08035, 0.04203529, -0.12684798, -49110.12, -34.80541, 0.0, 10.000375, 9.999219 
1.075011e+3, 3.0499026e+2, 19228.967, -46619.605, -110.6657, 0.04184192, -0.14265619, 19229.154, 19229.154, 0.0, 10.000373, 9.9995 
1.075011e+3, 3.1498966e+2, 19071.908, -46646.28, -185.98053, 0.041787054, -0.15510581, 19072.434, 19072.434, 0.0, 10.000371, 9.9995 
1.08501144e+3, 1.2500833e+2, -1678798.6, -1731255.0, -207.93872, 0.04303273, 0.11274742, -1678797.9, 36130.574, 0.0, 10.000394, 9.999699 
1.08501144e+3, 1.3500784e+2, -1580591.6, -1633231.3, -284.6757, 0.04338661, 0.0949494, -1580590.0, 36341.977, 0.0, 10.000396, 9.999698 
1.08501144e+3, 1.4500724e+2, -1495607.3, -1562704.6, -182.45476, 0.043692447, 0.0731175, -1495606.8, 23329.764, 0.0, 10.000398, 9.999508 
1.08501144e+3, 1.5500648e+2, -1397309.0, -1464621.4, -268.95044, 0.043950733, 0.047015704, -1397307.9, 23634.021, 0.0, 10.0004, 9.999508 
1.08501144e+3, 1.6500573e+2, -1319488.4, -1408995.9, -185.5686, 0.044196416, 0.035942998, -1319488.0, 3460.1006, 0.0, 10.0004015, 9.999216 
1.08501144e+3, 1.7500499e+2, -1221222.6, -1310915.1, -253.04166, 0.04442974, 0.039667368, -1221221.9, 3733.303, 0.0, 10.000404, 9.999215 
1.08501144e+3, 1.850041e+2, -1147293.3, -1263277.9, -317.2033, 0.0446691, 0.047819, -1147292.4, -20328.191, 0.0, 10.000405, 9.998869 
1.08501144e+3, 1.9500309e+2, -1049099.5, -1165224.9, -354.8777, 0.04491432, 0.060211398, -1049098.4, -20123.262, 0.0, 10.000407, 9.998868 
1.08501144e+3, 2.0500197e+2, -952672.3, -1070626.3, -458.6638, 0.045033615, 0.061878465, -952670.5, -21684.117, 0.0, 10.000408, 9.998845 
1.0850114e+3, 2.1500073e+2, -854738.1, -972687.56, -475.54825, 0.045027025, 0.052667536, -854736.2, -21738.287, 0.0, 10.000407, 9.998844 
1.0850114e+3, 2.2499947e+2, -752199.6, -864948.5, -609.52515, 0.04491208, 0.03944954, -752196.3, -17187.545, 0.0, 10.000406, 9.998912 
1.0850114e+3, 2.3499821e+2, -654548.4, -767112.25, -620.92053, 0.04468893, 0.02204432, -654544.94, -17525.84, 0.0, 10.000403, 9.998912 
1.0850114e+3, 2.449969e+2, -556806.6, -668922.0, -641.026, 0.04435828, -0.0007730315, -556802.94, -17773.08, 0.0, 10.000401, 9.998915 
1.0850114e+3, 2.5499552e+2, -459344.75, -571146.9, -664.30927, 0.043920215, -0.029183293, -459340.78, -18299.67, 0.0, 10.000397, 9.998915 
1.0850114e+3, 2.6499426e+2, -348269.44, -445127.66, -567.6275, 0.043539166, -0.056880046, -348266.13, -5214.9014, 0.0, 10.000393, 9.999109 
1.0850114e+3, 2.749931e+2, -250761.36, -347303.78, -615.51886, 0.043215327, -0.08404669, -250757.44, -5697.2783, 0.0, 10.000389, 9.999109 
1.0850114e+3, 2.8499204e+2, -145725.05, -233926.31, -283.62256, 0.042894907, -0.10722087, -145724.14, 1344.0977, 0.0, 10.000385, 9.999217 
1.0850114e+3, 2.9499105e+2, -48108.52, -136038.33, -351.48932, 0.04257769, -0.12657869, -48107.113, 968.3221, 0.0, 10.000382, 9.999218 
1.0850114e+3, 3.0499026e+2, 20249.25, -46338.598, 42.63791, 0.042369578, -0.14237761, 20249.277, 20249.277, 0.0, 10.0003805, 9.999498 
1.0850114e+3, 3.1498963e+2, 20091.307, -46365.785, -22.973343, 0.042270496, -0.15479676, 20091.314, 20091.314, 0.0, 10.00038, 9.999498 
1.0950118e+3, 1.2500833e+2, -1678943.3, -1731553.5, -142.04384, 0.0433977, 0.112292, -1678942.9, 35985.426, 0.0, 10.000394, 9.999697 
1.0950118e+3, 1.3500784e+2, -1580736.0, -1633529.4, -218.80394, 0.043881472, 0.09454826, -1580735.0, 36196.89, 0.0, 10.000396, 9.999696 
1.0950118e+3, 1.4500724e+2, -1495769.5, -1563040.0, -95.72023, 0.04424987, 0.07274417, -1495769.4, 23167.115, 0.0, 10.000398, 9.999506 
1.0950118e+3, 1.5500648e+2, -1397471.1, -1464956.8, -182.23003, 0.04450385, 0.046644393, -1397470.6, 23471.182, 0.0, 10.0004, 9.999505 
1.0950118e+3, 1.6500573e+2, -1319614.9, -1409256.9, -109.8523, 0.044723246, 0.035593253, -1319614.8, 3333.3936, 0.0, 10.0004015, 9.999214 
1.0950118e+3, 1.7500497e+2, -1221349.1, -1311176.3, -177.29419, 0.044908315, 0.039358705, -1221348.9, 3606.3367, 0.0, 10.000404, 9.999213 
1.0950118e+3, 1.850041e+2, -1147364.4, -1263423.8, -261.8326, 0.045106053, 0.047557123, -1147363.9, -20399.639, 0.0, 10.000405, 9.998868 
1.0950118e+3, 1.9500309e+2, -1049170.8, -1165370.9, -299.48038, 0.045316324, 0.06000207, -1049170.0, -20194.848, 0.0, 10.000407, 9.998867 
1.0950118e+3, 2.0500197e+2, -952705.06, -1070692.0, -472.25522, 0.04540658, 0.0617352, -952703.2, -21716.764, 0.0, 10.000408, 9.998844 
1.0950118e+3, 2.1500072e+2, -854770.94, -972753.44, -489.11533, 0.045376852, 0.052603826, -854768.94, -21770.986, 0.0, 10.000407, 9.998844 
1.0950118e+3, 2.2499947e+2, -752222.2, -864993.1, -701.7545, 0.045262937, 0.03946374, -752217.9, -17209.021, 0.0, 10.000406, 9.998912 
1.0950118e+3, 2.3499821e+2, -654570.8, -767156.75, -713.11707, 0.045064986, 0.022134783, -654566.3, -17547.191, 0.0, 10.000403, 9.998912 
1.09501176e+3, 2.4499689e+2, -556851.1, -669012.4, -787.1754, 0.04476627, -0.0006216258, -556845.56, -17815.676, 0.0, 10.000401, 9.998914 
1.09501176e+3, 2.5499552e+2, -459389.03, -571237.06, -810.42413, 0.0443669, -0.02898626, -459383.16, -18341.996, 0.0, 10.000397, 9.998915 
1.09501176e+3, 2.6499426e+2, -348359.56, -445313.25, -705.7567, 0.04403525, -0.05664659, -348354.44, -5303.161, 0.0, 10.000393, 9.999108 
1.09501176e+3, 2.749931e+2, -250851.33, -347489.34, -753.6205, 0.043771457, -0.08378595, -250845.45, -5785.23, 0.0, 10.000389, 9.999108 
1.09501176e+3, 2.8499204e+2, -145852.3, -234189.47, -395.35556, 0.0434871, -0.106950074, -145850.53, 1217.7759, 0.0, 10.000385, 9.999215 
1.09501176e+3, 2.9499105e+2, -48235.773, -136301.56, -463.23712, 0.043181952, -0.12631504, -48233.34, 842.19464, 0.0, 10.000382, 9.999216 
1.09501176e+3, 3.0499023e+2, 20125.725, -46594.05, -6.112507, 0.042934578, -0.14210683, 20125.727, 20125.727, 0.0, 10.0003805, 9.999496 
1.09501176e+3, 3.1498963e+2, 19967.664, -46621.35, -71.717224, 0.04274451, -0.15450439, 19967.74, 19967.74, 0.0, 10.00038, 9.999497 
1.1050123e+3, 1.2500833e+2, -1677851.5, -1731237.5, -332.99963, 0.043755315, 0.111890025, -1677849.4, 37078.867, 0.0, 10.000402, 9.999695 
1.1050123e+3, 1.3500786e+2, -1579512.5, -1633149.9, -397.53583, 0.04439775, 0.0941777, -1579509.5, 37422.367, 0.0, 10.000404, 9.999694 
1.1050123e+3, 1.4500724e+2, -1494487.5, -1562661.4, -255.73497, 0.044845644, 0.072395734, -1494486.5, 24449.928, 0.0, 10.000407, 9.999504 
1.1050123e+3, 1.5500647e+2, -1396166.9, -1464567.5, -330.40488, 0.045100424, 0.04630944, -1396165.4, 24776.523, 0.0, 10.00041, 9.999503 
1.1050122e+3, 1.6500573e+2, -1318304.4, -1408791.6, -267.83072, 0.04530249, 0.035284754, -1318303.5, 4644.5605, 0.0, 10.000412, 9.999212 
1.1050122e+3, 1.7500497e+2, -1220140.1, -1310760.0, -312.5879, 0.0454521, 0.03908966, -1220139.0, 4816.152, 0.0, 10.000413, 9.999212 
1.1050122e+3, 1.850041e+2, -1146190.8, -1262917.4, -388.9102, 0.04561205, 0.04733093, -1146189.4, -19225.21, 0.0, 10.000414, 9.998867 
1.1050122e+3, 1.9500309e+2, -1048101.0, -1164914.5, -391.34467, 0.045782268, 0.0598222, -1048099.7, -19124.48, 0.0, 10.000415, 9.998867 
1.1050122e+3, 2.0500197e+2, -951668.2, -1070173.0, -586.53766, 0.045841616, 0.06161204, -951665.25, -20678.818, 0.0, 10.000415, 9.998844 
1.1050122e+3, 2.1500072e+2, -853794.7, -972263.6, -556.67285, 0.045790106, 0.05254773, -853792.06, -20794.115, 0.0, 10.000414, 9.998844 
1.1050122e+3, 2.2499947e+2, -751254.2, -864492.75, -790.6163, 0.045679953, 0.03947288, -751248.7, -16239.83, 0.0, 10.000413, 9.998912 
1.1050122e+3, 2.349982e+2, -653576.9, -766643.9, -756.45154, 0.045511287, 0.022207323, -653571.8, -16552.648, 0.0, 10.00041, 9.998912 
1.1050122e+3, 2.4499689e+2, -555838.94, -668545.9, -838.6447, 0.04525153, -0.0004986514, -555832.7, -16802.744, 0.0, 10.000407, 9.998914 
1.1050122e+3, 2.5499552e+2, -458297.1, -570732.1, -829.7078, 0.04490082, -0.028825812, -458290.97, -17249.787, 0.0, 10.000404, 9.998914 
1.1050121e+3, 2.6499426e+2, -347238.78, -444888.94, -689.81915, 0.04461917, -0.056455806, -347233.9, -4182.6055, 0.0, 10.000401, 9.999107 
1.1050121e+3, 2.749931e+2, -249634.05, -347018.6, -719.7209, 0.044406656, -0.083571896, -249628.72, -4568.463, 0.0, 10.000398, 9.999107 
1.1050121e+3, 2.8499204e+2, -144637.83, -233798.66, -336.52292, 0.044152796, -0.10672344, -144636.56, 2431.8057, 0.0, 10.000395, 9.999213 
1.1050121e+3, 2.9499105e+2, -47025.184, -135912.73, -399.17532, 0.043857362, -0.12608649, -47023.395, 2052.2139, 0.0, 10.000392, 9.999214 
1.1050121e+3, 3.0499023e+2, 21293.754, -46220.52, 114.98457, 0.043556307, -0.14188012, 21293.95, 21293.95, 0.0, 10.000389, 9.999495 
1.1050121e+3, 3.1498963e+2, 21047.594, -46290.29, 54.147533, 0.04324875, -0.15428317, 21047.637, 21047.637, 0.0, 10.000387, 9.9994955 
1.1150127e+3, 1.2500833e+2, -1677973.1, -1731488.5, -232.90143, 0.044105552, 0.11154116, -1677972.1, 36956.074, 0.0, 10.000402, 9.999693 
1.1150127e+3, 1.3500786e+2, -1579633.9, -1633400.8, -297.51578, 0.044935293, 0.0938375, -1579632.3, 37299.598, 0.0, 10.000404, 9.999692 
1.1150127e+3, 1.4500724e+2, -1494627.4, -1562950.8, -163.17369, 0.04547956, 0.07207203, -1494627.0, 24309.408, 0.0, 10.000407, 9.999502 
1.1150127e+3, 1.5500647e+2, -1396306.8, -1464856.9, -237.88042, 0.045740217, 0.04601061, -1396306.0, 24635.88, 0.0, 10.00041, 9.999501 
1.1150127e+3, 1.6500573e+2, -1318388.4, -1408964.9, -218.34004, 0.045933865, 0.03501725, -1318387.8, 4560.3345, 0.0, 10.000412, 9.999211 
1.1150127e+3, 1.7500497e+2, -1220224.3, -1310933.4, -263.07193, 0.046060726, 0.03886, -1220223.5, 4731.77, 0.0, 10.000413, 9.999211 
1.1150127e+3, 1.8500409e+2, -1146196.0, -1262927.1, -360.42075, 0.0461867, 0.047140222, -1146195.0, -19230.686, 0.0, 10.000414, 9.998867 
1.1150127e+3, 1.9500308e+2, -1048106.44, -1164924.3, -362.83493, 0.04631179, 0.059671625, -1048105.3, -19130.088, 0.0, 10.000415, 9.998867 
1.1150127e+3, 2.0500195e+2, -951613.7, -1070058.1, -615.81067, 0.046338357, 0.061508864, -951610.5, -20623.994, 0.0, 10.000415, 9.998845 
1.1150127e+3, 2.1500072e+2, -853740.25, -972148.8, -585.93866, 0.046266414, 0.0524992, -853737.4, -20739.387, 0.0, 10.000414, 9.998845 
1.1150127e+3, 2.2499947e+2, -751191.8, -864361.4, -876.1046, 0.04616273, 0.039476983, -751185.0, -16176.124, 0.0, 10.000412, 9.998913 
1.11501254e+3, 2.349982e+2, -653514.3, -766512.4, -841.9238, 0.046027426, 0.022262042, -653508.06, -16488.887, 0.0, 10.00041, 9.998913 
1.11501254e+3, 2.4499689e+2, -555823.25, -668511.9, -964.13824, 0.045813628, -0.00040395404, -555815.0, -16785.041, 0.0, 10.000407, 9.998914 
1.11501254e+3, 2.5499552e+2, -458281.2, -570697.94, -955.17535, 0.045521505, -0.028701752, -458273.06, -17231.879, 0.0, 10.000404, 9.998915 
1.11501254e+3, 2.6499426e+2, -347295.16, -445005.06, -802.9363, 0.04529047, -0.05630746, -347288.56, -4237.2417, 0.0, 10.000401, 9.999106 
1.11501254e+3, 2.749931e+2, -249690.28, -347134.7, -832.82245, 0.045120515, -0.08340429, -249683.17, -4622.884, 0.0, 10.000398, 9.999106 
1.1150125e+3, 2.8499204e+2, -144754.98, -234041.36, -449.26935, 0.04489161, -0.10654073, -144752.72, 2315.6797, 0.0, 10.000395, 9.999211 
1.1150125e+3, 2.9499102e+2, -47142.367, -136155.55, -511.96234, 0.044603553, -0.12589282, -47139.42, 1936.2329, 0.0, 10.000392, 9.999212 
1.1150125e+3, 3.0499023e+2, 21179.365, -46457.434, 43.341972, 0.044234466, -0.14169721, 21179.393, 21179.393, 0.0, 10.000389, 9.999494 
1.1150125e+3, 3.149896e+2, 20933.059, -46527.31, -17.542282, 0.04378303, -0.15413271, 20933.063, 20933.063, 0.0, 10.000387, 9.999494 
1.1250131e+3, 1.2500833e+2, -1676836.1, -1731127.5, -328.6482, 0.04448521, 0.11128277, -1676834.1, 38094.09, 0.0, 10.000411, 9.999691 
1.1250131e+3, 1.3500784e+2, -1578318.4, -1632953.5, -389.8887, 0.04548433, 0.09355926, -1578315.6, 38616.305, 0.0, 10.000415, 9.999691 
1.1250131e+3, 1.4500724e+2, -1493202.4, -1562463.6, -269.6871, 0.04611383, 0.071801804, -1493201.4, 25735.068, 0.0, 10.000418, 9.9995 
1.1250131e+3, 1.5500647e+2, -1394825.4, -1464342.5, -329.59842, 0.046375938, 0.04577674, -1394823.8, 26118.15, 0.0, 10.000421, 9.999499 
1.1250131e+3, 1.6500571e+2, -1316853.0, -1408324.6, -351.57556, 0.046565875, 0.034817733, -1316851.8, 6096.4727, 0.0, 10.0004225, 9.99921 
1.1250131e+3, 1.7500496e+2, -1218763.6, -1310329.1, -374.01886, 0.046683807, 0.038692947, -1218762.1, 6193.1895, 0.0, 10.000423, 9.99921 
1.1250131e+3, 1.8500409e+2, -1144746.8, -1262196.4, -473.07602, 0.046781242, 0.04700461, -1144744.9, -17780.504, 0.0, 10.000423, 9.998868 
1.1250131e+3, 1.9500308e+2, -1046770.75, -1164248.3, -448.96155, 0.046858262, 0.059566513, -1046769.06, -17793.746, 0.0, 10.000423, 9.998867 
1.1250131e+3, 2.0500195e+2, -950300.7, -1069289.3, -723.7787, 0.046852533, 0.061436806, -950296.3, -19309.752, 0.0, 10.000423, 9.998846 
1.1250131e+3, 2.1500072e+2, -852489.44, -971410.0, -661.9107, 0.04676404, 0.052462723, -852485.75, -19487.742, 0.0, 10.000422, 9.998846 
1.1250131e+3, 2.2499947e+2, -749942.2, -863612.8, -962.96155, 0.04667022, 0.039473794, -749934.06, -14925.126, 0.0, 10.000421, 9.998914 
1.1250131e+3, 2.349982e+2, -652218.0, -765741.25, -898.40234, 0.046571173, 0.022289842, -652210.9, -15191.673, 0.0, 10.000419, 9.998914 
1.1250131e+3, 2.4499689e+2, -554504.7, -667818.25, -1026.724, 0.046409354, -0.00035162174, -554495.4, -15465.415, 0.0, 10.000416, 9.998915 
1.1250129e+3, 2.5499552e+2, -456854.34, -569952.1, -996.27203, 0.046184942, -0.028631307, -456845.56, -15804.377, 0.0, 10.000414, 9.998915 
1.1250129e+3, 2.6499426e+2, -345850.8, -444376.94, -816.78516, 0.04600485, -0.05622257, -345844.03, -2792.72, 0.0, 10.000411, 9.999105 
1.1250129e+3, 2.749931e+2, -248161.16, -346465.78, -832.2396, 0.04586897, -0.08330854, -248154.11, -3093.8188, 0.0, 10.000409, 9.999106 
1.1250129e+3, 2.8499204e+2, -143266.2, -233503.44, -453.06143, 0.04566447, -0.10642953, -143263.92, 3804.4858, 0.0, 10.000406, 9.99921 
1.1250129e+3, 2.9499102e+2, -45679.434, -135630.2, -510.93155, 0.04539119, -0.12576151, -45676.53, 3399.1602, 0.0, 10.000402, 9.99921 
1.1250129e+3, 3.0499023e+2, 22557.393, -45986.57, 71.107155, 0.04496702, -0.14158843, 22557.467, 22557.467, 0.0, 10.0004, 9.999492 
1.1250129e+3, 3.149896e+2, 22183.854, -46117.742, 2.8888302, 0.044390272, -0.15408911, 22183.854, 22183.854, 0.0, 10.000397, 9.999492 
1.13501355e+3, 1.2500833e+2, -1676951.3, -1731365.0, -182.15279, 0.044894088, 0.11111434, -1676950.6, 37977.555, 0.0, 10.000411, 9.99969 
1.13501355e+3, 1.3500784e+2, -1578433.4, -1633190.9, -243.51721, 0.046044756, 0.09334261, -1578432.3, 38499.66, 0.0, 10.000415, 9.999689 
1.13501355e+3, 1.4500722e+2, -1493314.8, -1562695.6, -162.36266, 0.046748426, 0.07158475, -1493314.4, 25622.125, 0.0, 10.000418, 9.999498 
1.13501355e+3, 1.5500645e+2, -1394937.6, -1464574.5, -222.32773, 0.047007576, 0.04560746, -1394936.9, 26005.053, 0.0, 10.000421, 9.999497 
1.13501355e+3, 1.6500571e+2, -1316895.6, -1408411.8, -321.3302, 0.047198486, 0.034685824, -1316894.5, 6053.7456, 0.0, 10.0004225, 9.999209 
1.13501355e+3, 1.7500496e+2, -1218806.3, -1310416.4, -343.7634, 0.047321226, 0.03858815, -1218805.0, 6150.348, 0.0, 10.000423, 9.999209 
1.13501355e+3, 1.8500407e+2, -1144702.8, -1262103.6, -473.9588, 0.047395524, 0.046923786, -1144700.9, -17736.428, 0.0, 10.000423, 9.998868 
1.13501355e+3, 1.9500306e+2, -1046726.94, -1164155.6, -449.83618, 0.047421552, 0.05950661, -1046725.2, -17749.824, 0.0, 10.000423, 9.998868 
1.13501355e+3, 2.0500195e+2, -950186.7, -1069050.8, -769.1058, 0.04738399, 0.06139569, -950181.75, -19195.113, 0.0, 10.000423, 9.998848 
1.13501355e+3, 2.150007e+2, -852375.5, -971171.56, -707.2529, 0.047282808, 0.052438233, -852371.3, -19373.236, 0.0, 10.000422, 9.998848 
1.1350134e+3, 2.2499946e+2, -749823.25, -863364.06, -1036.3053, 0.047202237, 0.039463352, -749813.8, -14804.878, 0.0, 10.000421, 9.998916 
1.1350134e+3, 2.349982e+2, -652098.94, -765492.44, -971.7557, 0.047142334, 0.022290861, -652090.56, -15071.393, 0.0, 10.000419, 9.998916 
1.1350134e+3, 2.4499689e+2, -554449.0, -667701.3, -1124.1681, 0.047038484, -0.00034143188, -554437.9, -15407.904, 0.0, 10.000416, 9.998916 
1.1350134e+3, 2.5499552e+2, -456798.44, -569834.94, -1093.708, 0.046890873, -0.028614197, -456787.88, -15746.671, 0.0, 10.000414, 9.998916 
1.1350134e+3, 2.6499426e+2, -345880.28, -444437.34, -907.95013, 0.046762057, -0.05620079, -345871.9, -2820.6062, 0.0, 10.000411, 9.999105 
1.1350133e+3, 2.749931e+2, -248190.48, -346526.13, -923.41144, 0.04665182, -0.08328428, -248181.81, -3121.5251, 0.0, 10.000409, 9.999105 
1.1350133e+3, 2.8499204e+2, -143374.19, -233727.31, -572.5601, 0.046471182, -0.106389455, -143370.56, 3697.859, 0.0, 10.000406, 9.999208 
1.1350133e+3, 2.9499102e+2, -45787.383, -135854.14, -630.49207, 0.04622005, -0.12569223, -45782.97, 3292.7385, 0.0, 10.000402, 9.999209 
1.1350133e+3, 3.0499023e+2, 22429.705, -46251.516, -33.6355, 0.045753688, -0.1415534, 22429.723, 22429.723, 0.0, 10.0004, 9.99949 
1.1350133e+3, 3.149896e+2, 22056.098, -46382.746, -101.95364, 0.04507008, -0.15415183, 22056.25, 22056.25, 0.0, 10.000397, 9.99949 
1.14501394e+3, 1.2500833e+2, -1675756.0, -1730980.5, -150.43948, 0.045341812, 0.11102305, -1675755.5, 39172.69, 0.0, 10.00042, 9.999688 
1.14501394e+3, 1.3500784e+2, -1577113.5, -1632746.3, -218.43666, 0.046574954, 0.09319189, -1577112.6, 39819.285, 0.0, 10.000424, 9.999687 
1.14501394e+3, 1.4500722e+2, -1491896.8, -1562165.6, -184.45064, 0.04730839, 0.07143096, -1491896.3, 27040.256, 0.0, 10.000428, 9.999497 
1.14501394e+3, 1.5500645e+2, -1393495.6, -1464033.0, -228.16478, 0.047544714, 0.045507263, -1393494.9, 27447.193, 0.0, 10.000431, 9.999496 
1.14501394e+3, 1.650057e+2, -1315396.8, -1407728.3, -396.89813, 0.047728516, 0.034622747, -1315395.0, 7553.294, 0.0, 10.000433, 9.999209 
1.14501394e+3, 1.7500494e+2, -1217361.9, -1309759.1, -400.64853, 0.047859766, 0.038545858, -1217360.1, 7595.3237, 0.0, 10.000434, 9.999209 
1.14501394e+3, 1.8500406e+2, -1143261.1, -1261316.6, -553.7036, 0.0479117, 0.04689799, -1143258.6, -16294.083, 0.0, 10.000433, 9.998869 
1.14501394e+3, 1.9500306e+2, -1045401.3, -1163424.6, -515.69275, 0.047884576, 0.05949308, -1045399.06, -16423.566, 0.0, 10.000432, 9.998869 
1.14501394e+3, 2.0500194e+2, -948878.44, -1068220.4, -858.9072, 0.047817037, 0.061387014, -948872.3, -17885.607, 0.0, 10.000431, 9.99885 
1.14501394e+3, 2.150007e+2, -851121.56, -970367.4, -785.9634, 0.04770902, 0.052426968, -851116.4, -18118.264, 0.0, 10.00043, 9.99885 
1.14501394e+3, 2.2499946e+2, -748560.9, -862551.6, -1117.5339, 0.04764573, 0.03944662, -748549.94, -13540.966, 0.0, 10.000428, 9.998918 
1.14501394e+3, 2.349982e+2, -650770.75, -764648.3, -1044.3466, 0.047627166, 0.022265771, -650761.2, -13741.9795, 0.0, 10.000426, 9.998918 
1.14501394e+3, 2.4499689e+2, -553086.25, -666944.7, -1204.267, 0.04758721, -0.00037248954, -553073.5, -14043.556, 0.0, 10.000425, 9.998917 
1.1450138e+3, 2.5499552e+2, -455301.5, -569013.7, -1167.0824, 0.04752603, -0.02864879, -455289.5, -14248.324, 0.0, 10.000423, 9.998917 
1.1450138e+3, 2.6499426e+2, -344358.44, -443739.63, -974.34467, 0.047454275, -0.05624054, -344348.9, -1297.6057, 0.0, 10.000422, 9.9991045 
1.1450138e+3, 2.749931e+2, -246583.19, -345787.28, -982.4509, 0.047371626, -0.08333074, -246573.47, -1513.1842, 0.0, 10.00042, 9.999105 
1.1450138e+3, 2.8499204e+2, -141796.55, -233135.19, -663.1748, 0.047227457, -0.106422715, -141791.73, 5276.6875, 0.0, 10.000418, 9.9992075 
1.14501365e+3, 2.9499102e+2, -44188.563, -135251.9, -718.2968, 0.047021776, -0.12569232, -44182.9, 4892.8237, 0.0, 10.000415, 9.9992075 
1.14501365e+3, 3.0499023e+2, 23963.574, -45746.484, -126.98147, 0.046558924, -0.14159305, 23963.807, 23963.807, 0.0, 10.000411, 9.999488 
1.14501365e+3, 3.149896e+2, 23521.342, -45910.797, -215.60938, 0.04583666, -0.15430383, 23522.01, 23522.01, 0.0, 10.000408, 9.999488 
1.1550144e+3, 1.2500833e+2, -1675883.4, -1731243.3, 28.423588, 0.045828126, 0.111008465, -1675883.4, 39044.945, 0.0, 10.00042, 9.999686 
1.1550144e+3, 1.3500783e+2, -1577240.9, -1633008.9, -39.709145, 0.04707504, 0.09310671, -1577240.9, 39691.13, 0.0, 10.000424, 9.999685 
1.1550144e+3, 1.4500721e+2, -1491979.3, -1562334.6, -70.77439, 0.047794085, 0.07134004, -1491979.1, 26957.518, 0.0, 10.000428, 9.9994955 
1.1550144e+3, 1.5500644e+2, -1393578.1, -1464202.1, -114.54019, 0.047987815, 0.04547576, -1393578.0, 27364.16, 0.0, 10.000431, 9.9994955 
1.1550144e+3, 1.6500567e+2, -1315405.3, -1407743.6, -380.64838, 0.048156478, 0.034628116, -1315403.8, 7544.71, 0.0, 10.000433, 9.999209 
1.1550144e+3, 1.7500493e+2, -1217370.5, -1309774.6, -384.4058, 0.0482999, 0.03856573, -1217369.0, 7586.6055, 0.0, 10.000434, 9.999209 
1.1550144e+3, 1.8500406e+2, -1143192.1, -1261170.8, -584.55225, 0.048330236, 0.04692691, -1143189.3, -16224.675, 0.0, 10.000433, 9.99887 
1.1550144e+3, 1.9500305e+2, -1045332.44, -1163278.8, -546.5444, 0.04824781, 0.05952567, -1045329.9, -16354.336, 0.0, 10.000432, 9.99887 
1.1550144e+3, 2.0500194e+2, -948744.6, -1067939.5, -918.23773, 0.048152126, 0.061410602, -948737.56, -17750.787, 0.0, 10.000431, 9.998852 
1.1550144e+3, 2.150007e+2, -850987.75, -970086.5, -845.32825, 0.048043106, 0.05242885, -850981.75, -17983.586, 0.0, 10.00043, 9.998852 
1.1550144e+3, 2.2499946e+2, -748426.7, -862269.94, -1173.7968, 0.048001096, 0.03942362, -748414.56, -13405.551, 0.0, 10.000428, 9.9989195 
1.15501426e+3, 2.349982e+2, -650636.4, -764366.5, -1100.6449, 0.048026063, 0.02221471, -650625.75, -13606.501, 0.0, 10.000426, 9.9989195 
1.15501426e+3, 2.4499689e+2, -553018.8, -666802.2, -1266.9288, 0.04805589, -0.0004445776, -553004.7, -13974.738, 0.0, 10.000425, 9.998918 
1.15501426e+3, 2.5499552e+2, -455233.75, -568871.0, -1229.7571, 0.04809075, -0.028734816, -455220.44, -14179.253, 0.0, 10.000423, 9.998918 
1.15501426e+3, 2.6499426e+2, -344374.8, -443771.94, -1043.378, 0.04808181, -0.056341488, -344363.88, -1312.5864, 0.0, 10.000422, 9.9991045 
1.1550142e+3, 2.749931e+2, -246599.34, -345819.47, -1051.5157, 0.04802869, -0.08344756, -246588.19, -1527.9229, 0.0, 10.00042, 9.999105 
1.1550142e+3, 2.8499204e+2, -141899.61, -233348.23, -777.2405, 0.047933538, -0.106528915, -141893.0, 5175.417, 0.0, 10.000418, 9.999206 
1.1550142e+3, 2.9499102e+2, -44291.375, -135464.89, -832.4293, 0.0477965, -0.12576139, -44283.777, 4791.9536, 0.0, 10.000415, 9.999207 
1.1550142e+3, 3.0499023e+2, 23798.295, -46089.547, -249.6173, 0.047382616, -0.14170696, 23799.186, 23799.186, 0.0, 10.000411, 9.999485 
1.1550142e+3, 3.149896e+2, 23356.207, -46253.83, -338.3729, 0.046689544, -0.15454468, 23357.852, 23357.852, 0.0, 10.000408, 9.999486 
1.1650148e+3, 1.2500831e+2, -1674747.4, -1730907.6, 142.07692, 0.04631102, 0.11099667, -1674747.0, 40181.355, 0.0, 10.000428, 9.999684 
1.1650148e+3, 1.3500781e+2, -1576140.1, -1632690.1, 66.62652, 0.047475982, 0.09305005, -1576140.0, 40792.063, 0.0, 10.000433, 9.999683 
1.1650148e+3, 1.450072e+2, -1490876.0, -1561904.8, -32.022038, 0.048117466, 0.07128925, -1490876.0, 28060.729, 0.0, 10.000437, 9.999495 
1.1650149e+3, 1.5500642e+2, -1392573.4, -1463819.6, -57.357338, 0.048237845, 0.045481816, -1392573.3, 28368.967, 0.0, 10.000439, 9.999495 
1.1650149e+3, 1.6500567e+2, -1314414.5, -1407255.5, -400.72186, 0.0483705, 0.034669153, -1314412.8, 8535.829, 0.0, 10.00044, 9.999209 
1.1650149e+3, 1.7500493e+2, -1216450.8, -1309320.9, -389.80347, 0.04851511, 0.038620014, -1216449.1, 8506.495, 0.0, 10.00044, 9.999209 
1.1650149e+3, 1.8500404e+2, -1142300.5, -1260624.1, -634.4767, 0.048518084, 0.046987902, -1142297.1, -15332.455, 0.0, 10.000439, 9.998871 
1.1650149e+3, 1.9500303e+2, -1044559.5, -1162789.4, -593.6199, 0.048379805, 0.059586894, -1044556.56, -15580.908, 0.0, 10.000438, 9.998871 
1.1650148e+3, 2.0500192e+2, -947996.5, -1067375.8, -986.4326, 0.04825938, 0.061455444, -947988.4, -17001.535, 0.0, 10.000436, 9.998854 
1.1650148e+3, 2.1500069e+2, -850279.0, -969541.75, -922.33417, 0.048156716, 0.052440662, -850271.9, -17273.613, 0.0, 10.000434, 9.998854 
1.1650148e+3, 2.2499946e+2, -747698.44, -861720.56, -1242.2289, 0.048140526, 0.03939904, -747684.9, -12675.835, 0.0, 10.000432, 9.998921 
1.1650148e+3, 2.349982e+2, -649824.0, -763776.6, -1181.4944, 0.048210736, 0.022150366, -649811.75, -12792.495, 0.0, 10.000431, 9.998921 
1.1650148e+3, 2.4499689e+2, -552142.75, -666280.5, -1352.9812, 0.048315465, -0.00053837965, -552126.75, -13096.76, 0.0, 10.000431, 9.998919 
1.16501465e+3, 2.5499552e+2, -454190.53, -568268.7, -1322.7148, 0.04845488, -0.028847724, -454175.22, -13134.029, 0.0, 10.00043, 9.998919 
1.16501465e+3, 2.6499426e+2, -343262.7, -443261.3, -1151.5067, 0.048521556, -0.05647374, -343249.44, -198.14354, 0.0, 10.000429, 9.9991045 
1.16501465e+3, 2.749931e+2, -245359.9, -345247.5, -1160.0323, 0.048515048, -0.08359936, -245346.42, -286.15842, 0.0, 10.000428, 9.9991045 
1.16501465e+3, 2.84992e+2, -140603.98, -232885.83, -926.5053, 0.04849461, -0.106674366, -140594.67, 6473.7485, 0.0, 10.000427, 9.999205 
1.1650145e+3, 2.9499102e+2, -42839.227, -134927.16, -980.45435, 0.048460525, -0.12587458, -42828.79, 6246.958, 0.0, 10.000425, 9.999205 
1.1650145e+3, 3.049902e+2, 25288.814, -45670.08, -425.61404, 0.04815811, -0.14185424, 25291.367, 25291.367, 0.0, 10.0004225, 9.999482 
1.1650145e+3, 3.1498957e+2, 24938.342, -45790.293, -537.8357, 0.047585055, -0.15479249, 24942.43, 24942.43, 0.0, 10.000421, 9.999483 
1.1750153e+3, 1.2500831e+2, -1674888.8, -1731198.6, 311.78888, 0.04679047, 0.11098759, -1674887.0, 40041.445, 0.0, 10.000428, 9.999682 
1.1750153e+3, 1.3500781e+2, -1576281.8, -1632981.0, 236.24176, 0.04777828, 0.09302172, -1576280.8, 40651.47, 0.0, 10.000433, 9.999681 
1.1750153e+3, 1.450072e+2, -1490925.0, -1562002.9, 56.20134, 0.04827939, 0.07127833, -1490925.0, 28011.824, 0.0, 10.000437, 9.999495 
1.1750153e+3, 1.5500642e+2, -1392622.8, -1463918.0, 30.84346, 0.04829582, 0.04552522, -1392622.8, 28319.58, 0.0, 10.000439, 9.999494 
1.1750153e+3, 1.6500565e+2, -1314397.1, -1407214.8, -402.83975, 0.048371702, 0.03474566, -1314395.4, 8553.248, 0.0, 10.00044, 9.999209 
1.1750153e+3, 1.7500491e+2, -1216433.8, -1309280.4, -391.9375, 0.048506584, 0.03870852, -1216432.1, 8523.682, 0.0, 10.00044, 9.999209 
1.1750153e+3, 1.8500404e+2, -1142227.9, -1260468.1, -696.0598, 0.048476465, 0.0470808, -1142223.8, -15259.016, 0.0, 10.000439, 9.998872 
1.1750153e+3, 1.9500303e+2, -1044487.06, -1162633.4, -655.2087, 0.04828177, 0.0596766, -1044483.44, -15507.68, 0.0, 10.000437, 9.998872 
1.1750153e+3, 2.0500192e+2, -947880.7, -1067129.8, -1055.909, 0.048139986, 0.061521422, -947871.4, -16884.457, 0.0, 10.000436, 9.998856 
1.1750153e+3, 2.1500069e+2, -850163.2, -969295.75, -991.8509, 0.048050992, 0.05246235, -850154.94, -17156.635, 0.0, 10.000434, 9.998855 
1.1750153e+3, 2.2499944e+2, -747588.9, -861487.7, -1276.6404, 0.04806513, 0.039372887, -747574.56, -12565.47, 0.0, 10.000432, 9.998923 
1.1750151e+3, 2.349982e+2, -649714.25, -763543.6, -1215.9551, 0.04818229, 0.022072803, -649701.25, -12682.0, 0.0, 10.000431, 9.998923 
1.1750151e+3, 2.4499689e+2, -552089.7, -666165.5, -1372.2776, 0.04836702, -0.00065378705, -552073.2, -13043.191, 0.0, 10.000431, 9.9989195 
1.1750151e+3, 2.5499552e+2, -454137.1, -568153.44, -1342.0376, 0.04861947, -0.02898738, -454121.28, -13080.11, 0.0, 10.00043, 9.9989195 
1.1750151e+3, 2.6499426e+2, -343281.1, -443295.75, -1187.5197, 0.04877449, -0.056637134, -343267.0, -215.7028, 0.0, 10.000429, 9.9991045 
1.17501505e+3, 2.749931e+2, -245377.92, -345281.7, -1196.0902, 0.048831604, -0.08378597, -245363.61, -303.3263, 0.0, 10.000428, 9.9991045 
1.17501505e+3, 2.84992e+2, -140705.67, -233094.48, -999.98175, 0.048911445, -0.10685887, -140694.84, 6373.5957, 0.0, 10.000427, 9.999203 
1.17501505e+3, 2.9499102e+2, -42940.367, -135135.52, -1053.9762, 0.049014438, -0.12603164, -42928.32, 6147.454, 0.0, 10.000425, 9.999204 
1.17501505e+3, 3.049902e+2, 25079.65, -46103.605, -524.48145, 0.04888566, -0.14203472, 25083.514, 25083.514, 0.0, 10.0004225, 9.999479 
1.17501505e+3, 3.1498957e+2, 24729.602, -46223.67, -636.814, 0.048522957, -0.15504722, 24735.316, 24735.316, 0.0, 10.000421, 9.99948 
1.1850156e+3, 1.250083e+2, -1674074.9, -1731015.3, 391.98444, 0.04716892, 0.11087472, -1674072.1, 40856.34, 0.0, 10.000435, 9.9996805 
1.1850156e+3, 1.350078e+2, -1575708.0, -1632913.3, 325.5663, 0.04790692, 0.09295852, -1575706.1, 41226.15, 0.0, 10.000438, 9.99968 
1.18501574e+3, 1.4500718e+2, -1490499.9, -1561837.4, 76.67581, 0.04821926, 0.07126101, -1490499.8, 28437.18, 0.0, 10.00044, 9.999494 
1.18501574e+3, 1.5500641e+2, -1392467.3, -1463882.5, 74.83104, 0.048107505, 0.04555037, -1392467.3, 28475.258, 0.0, 10.00044, 9.999494 
1.18501574e+3, 1.6500564e+2, -1314381.6, -1407154.6, -411.93265, 0.048104756, 0.034802195, -1314379.8, 8568.942, 0.0, 10.00044, 9.99921 
1.18501574e+3, 1.750049e+2, -1216544.8, -1309281.3, -387.29727, 0.048210423, 0.03878542, -1216543.1, 8412.768, 0.0, 10.000439, 9.999209 
1.18501574e+3, 1.8500403e+2, -1142420.4, -1260442.0, -743.82904, 0.048140295, 0.047167964, -1142415.6, -15450.789, 0.0, 10.000437, 9.998873 
1.18501574e+3, 1.9500302e+2, -1044799.1, -1162665.0, -704.39105, 0.0478948, 0.05976396, -1044794.94, -15819.137, 0.0, 10.000435, 9.998873 
1.18501574e+3, 2.050019e+2, -948234.4, -1067139.1, -1110.0156, 0.047738843, 0.061588053, -948224.0, -17237.031, 0.0, 10.000432, 9.998857 
1.1850156e+3, 2.1500067e+2, -850533.2, -969313.06, -1065.5288, 0.047672298, 0.052487303, -850523.6, -17525.27, 0.0, 10.00043, 9.998857 
1.1850156e+3, 2.2499944e+2, -747927.56, -861506.44, -1321.8365, 0.047721457, 0.039352305, -747912.2, -12903.072, 0.0, 10.000429, 9.998924 
1.1850156e+3, 2.3499818e+2, -649953.5, -763514.4, -1285.0458, 0.047886185, 0.022002837, -649938.94, -12919.62, 0.0, 10.000429, 9.998924 
1.1850156e+3, 2.4499689e+2, -552224.6, -666161.5, -1431.3993, 0.04815254, -0.000759428, -552206.6, -13176.648, 0.0, 10.000429, 9.9989195 
1.1850155e+3, 2.5499552e+2, -454068.4, -568051.25, -1414.8156, 0.048520647, -0.02911497, -454050.84, -13009.632, 0.0, 10.00043, 9.99892 
1.1850155e+3, 2.6499426e+2, -343069.38, -443225.88, -1285.2074, 0.048777934, -0.056783702, -343052.9, -1.5944427, 0.0, 10.000431, 9.999104 
1.1850155e+3, 2.749931e+2, -244956.83, -345110.88, -1298.1055, 0.048923947, -0.083948545, -244940.0, 120.300476, 0.0, 10.000431, 9.9991045 
1.1850155e+3, 2.84992e+2, -140088.28, -232951.16, -1123.1134, 0.049130358, -0.10702223, -140074.7, 6993.7676, 0.0, 10.000432, 9.999202 
1.1850154e+3, 2.9499102e+2, -41986.47, -134830.1, -1173.2722, 0.049397714, -0.12618062, -41971.645, 7104.1694, 0.0, 10.000432, 9.999202 
1.1850154e+3, 3.049902e+2, 26227.168, -45895.023, -677.1005, 0.049487144, -0.14217731, 26233.525, 26233.525, 0.0, 10.000432, 9.999476 
1.1850154e+3, 3.1498957e+2, 26166.266, -45875.918, -797.0247, 0.049396746, -0.15519127, 26175.082, 26175.082, 0.0, 10.000432, 9.999477 
1.1950161e+3, 1.2500829e+2, -1674200.1, -1731271.1, 499.23352, 0.047446925, 0.11065868, -1674195.8, 40732.8, 0.0, 10.000435, 9.999679 
1.1950161e+3, 1.3500778e+2, -1575833.8, -1633169.0, 432.8062, 0.047862854, 0.092860624, -1575830.5, 41101.918, 0.0, 10.000438, 9.999678 
1.1950161e+3, 1.4500716e+2, -1490506.6, -1561845.3, 94.89204, 0.047938284, 0.07123731, -1490506.5, 28430.602, 0.0, 10.00044, 9.999494 
1.1950161e+3, 1.550064e+2, -1392474.6, -1463890.8, 93.07956, 0.04767425, 0.04555737, -1392474.5, 28468.031, 0.0, 10.00044, 9.999494 
1.1950161e+3, 1.6500564e+2, -1314340.6, -1407061.8, -446.8786, 0.047571115, 0.034838885, -1314338.5, 8610.366, 0.0, 10.00044, 9.999211 
1.1950161e+3, 1.750049e+2, -1216504.0, -1309188.8, -422.2513, 0.0476282, 0.038850788, -1216502.1, 8453.836, 0.0, 10.000439, 9.99921 
1.1950161e+3, 1.8500401e+2, -1142352.4, -1260292.5, -836.4661, 0.047511175, 0.047249448, -1142346.5, -15381.504, 0.0, 10.000437, 9.998875 
1.1950161e+3, 1.9500302e+2, -1044731.3, -1162515.6, -797.024, 0.047220446, 0.059849005, -1044725.94, -15750.058, 0.0, 10.000435, 9.998874 
1.1950161e+3, 2.050019e+2, -948157.0, -1066969.9, -1183.7234, 0.04705746, 0.061655343, -948145.2, -17158.156, 0.0, 10.000432, 9.998858 
1.1950161e+3, 2.1500067e+2, -850455.75, -969143.75, -1139.263, 0.047022082, 0.052515496, -850444.8, -17446.4, 0.0, 10.00043, 9.9988575 
1.1950161e+3, 2.2499944e+2, -747864.4, -861366.9, -1330.4082, 0.04711093, 0.039337263, -747848.8, -12839.619, 0.0, 10.000429, 9.998925 
1.195016e+3, 2.3499818e+2, -649890.06, -763374.75, -1293.6598, 0.04732385, 0.02194041, -649875.3, -12855.983, 0.0, 10.000429, 9.998925 
1.195016e+3, 2.4499688e+2, -552198.8, -666100.25, -1397.8213, 0.047673445, -0.00085537956, -552181.6, -13151.612, 0.0, 10.000429, 9.99892 
1.195016e+3, 2.5499552e+2, -454042.16, -567989.7, -1381.2617, 0.048159827, -0.029230587, -454025.4, -12984.169, 0.0, 10.00043, 9.99892 
1.195016e+3, 2.6499426e+2, -343097.5, -443277.88, -1266.8364, 0.048533242, -0.056913566, -343081.5, -30.159016, 0.0, 10.000431, 9.999104 
1.1950158e+3, 2.7499306e+2, -244984.4, -345162.47, -1279.7721, 0.048793286, -0.084087245, -244968.05, 92.27937, 0.0, 10.000431, 9.999104 
1.1950158e+3, 2.84992e+2, -140184.2, -233145.66, -1109.2097, 0.04915242, -0.107164614, -140170.98, 6897.533, 0.0, 10.000432, 9.9992 
1.1950158e+3, 2.9499102e+2, -42081.613, -135024.13, -1159.3661, 0.049611293, -0.1263216, -42067.152, 7008.713, 0.0, 10.000432, 9.999201 
1.1950158e+3, 3.049902e+2, 26003.07, -46358.004, -700.8007, 0.049963273, -0.14228225, 26009.857, 26009.857, 0.0, 10.000432, 9.999474 
1.1950158e+3, 3.1498954e+2, 25942.781, -46338.652, -820.77026, 0.050206807, -0.1552253, 25952.1, 25952.1, 0.0, 10.000432, 9.999474 
1.20501645e+3, 1.2500827e+2, -1674053.3, -1731330.9, 405.7989, 0.04749809, 0.110261805, -1674050.4, 40878.227, 0.0, 10.000437, 9.999678 
1.2050166e+3, 1.3500778e+2, -1576064.8, -1633410.8, 382.8756, 0.047594815, 0.092669964, -1576062.3, 40870.258, 0.0, 10.000437, 9.999677 
1.2050166e+3, 1.4500715e+2, -1491010.4, -1562043.0, -6.968546, 0.04743762, 0.07115806, -1491010.4, 27926.773, 0.0, 10.000436, 9.999495 
1.2050166e+3, 1.5500638e+2, -1393366.6, -1464275.8, 24.645887, 0.04702701, 0.045495268, -1393366.6, 27576.055, 0.0, 10.000434, 9.999494 
1.2050166e+3, 1.6500562e+2, -1315482.0, -1407510.3, -515.45447, 0.04681962, 0.03480778, -1315479.1, 7469.7993, 0.0, 10.000431, 9.999212 
1.2050166e+3, 1.7500488e+2, -1217827.6, -1309725.1, -471.60318, 0.04681472, 0.038864467, -1217825.3, 7130.827, 0.0, 10.000429, 9.999211 
1.2050166e+3, 1.8500401e+2, -1143804.3, -1260869.8, -921.3552, 0.04665299, 0.04729157, -1143797.0, -16831.936, 0.0, 10.000426, 9.998876 
1.2050166e+3, 1.95003e+2, -1046283.6, -1163141.3, -878.0711, 0.046334784, 0.05990323, -1046277.0, -17301.053, 0.0, 10.000423, 9.998875 
1.20501645e+3, 2.0500189e+2, -949758.94, -1067633.9, -1236.4113, 0.04617908, 0.061703667, -949746.0, -18758.893, 0.0, 10.000421, 9.998859 
1.20501645e+3, 2.1500067e+2, -852038.6, -969798.5, -1208.0406, 0.046185743, 0.052539885, -852026.25, -19027.771, 0.0, 10.000419, 9.998858 
1.20501645e+3, 2.2499941e+2, -749403.7, -862031.0, -1341.2817, 0.046318922, 0.03933358, -749387.75, -14378.498, 0.0, 10.000419, 9.998926 
1.20501645e+3, 2.3499818e+2, -651323.3, -763987.6, -1325.6544, 0.046578467, 0.021904506, -651307.7, -14288.316, 0.0, 10.000419, 9.998926 
1.20501645e+3, 2.4499688e+2, -553496.3, -666691.7, -1388.3364, 0.04700564, -0.00091330026, -553479.25, -14449.1875, 0.0, 10.000421, 9.99892 
1.2050164e+3, 2.5499552e+2, -455119.06, -568474.75, -1381.9224, 0.047600504, -0.029300341, -455102.22, -14060.943, 0.0, 10.0004225, 9.99892 
1.2050164e+3, 2.6499423e+2, -343965.34, -443735.8, -1279.1609, 0.04809363, -0.056985073, -343948.94, -897.56445, 0.0, 10.000425, 9.999104 
1.2050164e+3, 2.7499306e+2, -245562.02, -345480.47, -1293.0636, 0.048484683, -0.08415043, -245545.3, -484.91644, 0.0, 10.000427, 9.999104 
1.2050164e+3, 2.84992e+2, -140444.1, -233399.95, -1099.1675, 0.049003102, -0.10722987, -140431.1, 6637.459, 0.0, 10.000431, 9.999199 
1.2050164e+3, 2.94991e+2, -41883.793, -135057.89, -1136.3914, 0.049649596, -0.12639943, -41869.934, 7205.99, 0.0, 10.000434, 9.9992 
1.2050162e+3, 3.0499017e+2, 26517.225, -46423.426, -701.6085, 0.05025311, -0.14228275, 26523.973, 26523.973, 0.0, 10.000437, 9.999471 
1.2050162e+3, 3.1498954e+2, 26862.832, -46208.652, -793.3678, 0.050812457, -0.15505828, 26871.445, 26871.445, 0.0, 10.00044, 9.999471 
1.215017e+3, 1.2500826e+2, -1674099.3, -1731419.1, 414.7384, 0.047323752, 0.109685175, -1674096.3, 40832.59, 0.0, 10.000437, 9.999677 
1.215017e+3, 1.3500777e+2, -1576111.1, -1633498.9, 391.9144, 0.047104076, 0.09238711, -1576108.5, 40824.168, 0.0, 10.000437, 9.999676 
1.215017e+3, 1.4500712e+2, -1490956.5, -1561922.5, -89.57733, 0.046718467, 0.07102359, -1490956.4, 27980.857, 0.0, 10.000436, 9.9994955 
1.215017e+3, 1.5500638e+2, -1393313.4, -1464155.6, -57.868168, 0.046166927, 0.045364495, -1393313.4, 27629.441, 0.0, 10.000434, 9.999495 
1.215017e+3, 1.6500561e+2, -1315406.9, -1407343.9, -597.7692, 0.045851417, 0.0347093, -1315402.9, 7546.1387, 0.0, 10.000431, 9.999213 
1.215017e+3, 1.7500487e+2, -1217752.8, -1309559.0, -553.9021, 0.04577121, 0.038826793, -1217749.4, 7206.7476, 0.0, 10.000429, 9.999212 
1.215017e+3, 1.85004e+2, -1143730.6, -1260706.3, -1040.1322, 0.04556694, 0.047294587, -1143721.4, -16756.309, 0.0, 10.000426, 9.998877 
1.215017e+3, 1.95003e+2, -1046210.1, -1162977.9, -996.8261, 0.04523889, 0.05992684, -1046201.56, -17225.553, 0.0, 10.000423, 9.998876 
1.215017e+3, 2.0500189e+2, -949712.94, -1067527.5, -1305.2047, 0.04510467, 0.06173315, -949698.44, -18711.291, 0.0, 10.000421, 9.998859 
1.215017e+3, 2.1500066e+2, -851992.44, -969692.1, -1276.8308, 0.045164183, 0.0525605, -851978.56, -18980.05, 0.0, 10.000419, 9.998859 
1.21501684e+3, 2.2499941e+2, -749381.06, -861973.75, -1322.3151, 0.04534632, 0.039341185, -749365.5, -14356.223, 0.0, 10.000419, 9.998926 
1.21501684e+3, 2.3499817e+2, -651300.44, -763930.3, -1306.7048, 0.04565094, 0.021894947, -651285.3, -14265.852, 0.0, 10.000419, 9.998926 
1.21501684e+3, 2.4499688e+2, -553490.56, -666670.3, -1297.463, 0.046150055, -0.0009334441, -553475.7, -14445.573, 0.0, 10.000421, 9.99892 
1.21501684e+3, 2.5499552e+2, -455112.94, -568453.06, -1291.0575, 0.046843708, -0.029324537, -455098.25, -14056.937, 0.0, 10.0004225, 9.99892 
1.21501684e+3, 2.6499423e+2, -343996.5, -443792.2, -1185.3904, 0.047460113, -0.056998607, -343982.44, -931.0139, 0.0, 10.000425, 9.999103 
1.2150167e+3, 2.7499306e+2, -245592.61, -345536.4, -1199.3013, 0.047999065, -0.084138595, -245578.22, -517.79626, 0.0, 10.000427, 9.999104 
1.2150167e+3, 2.84992e+2, -140517.28, -233545.23, -966.35175, 0.048683316, -0.10721851, -140507.25, 6561.3735, 0.0, 10.000431, 9.999198 
1.2150167e+3, 2.94991e+2, -41956.246, -135202.69, -1003.5136, 0.049513586, -0.12641451, -41945.45, 7130.5474, 0.0, 10.000434, 9.999199 
1.2150167e+3, 3.0499017e+2, 26344.275, -46777.89, -619.7266, 0.05035773, -0.14217947, 26349.527, 26349.527, 0.0, 10.000437, 9.999468 
1.2150167e+3, 3.1498954e+2, 26690.408, -46562.87, -711.4359, 0.05121494, -0.15469144, 26697.318, 26697.318, 0.0, 10.00044, 9.999469 
1.22501746e+3, 1.2500823e+2, -1674916.1, -1731754.8, 72.50531, 0.046825666, 0.108944096, -1674916.0, 40012.94, 0.0, 10.00043, 9.999678 
1.22501746e+3, 1.3500774e+2, -1577269.5, -1633999.1, 133.07224, 0.04638633, 0.09200415, -1577269.3, 39663.555, 0.0, 10.000428, 9.999677 
1.22501746e+3, 1.450071e+2, -1492391.3, -1562450.1, -375.52988, 0.04584551, 0.07081722, -1492389.3, 26548.168, 0.0, 10.000425, 9.999496 
1.22501746e+3, 1.5500636e+2, -1395092.3, -1464849.3, -297.14102, 0.045202807, 0.04515384, -1395091.0, 25851.89, 0.0, 10.000421, 9.999496 
1.22501746e+3, 1.650056e+2, -1317438.0, -1408148.1, -776.50995, 0.044808317, 0.034535043, -1317431.4, 5517.842, 0.0, 10.000417, 9.999214 
1.22501746e+3, 1.7500487e+2, -1219958.1, -1310447.3, -702.6521, 0.044661395, 0.038729485, -1219952.8, 5003.5317, 0.0, 10.000413, 9.999214 
1.2250173e+3, 1.85004e+2, -1146054.5, -1261674.4, -1184.1046, 0.044435106, 0.047249883, -1146042.4, -19077.133, 0.0, 10.00041, 9.998878 
1.2250173e+3, 1.9500299e+2, -1048567.75, -1163962.3, -1124.7302, 0.04412966, 0.059910413, -1048556.8, -19580.697, 0.0, 10.000406, 9.998878 
1.2250173e+3, 2.0500189e+2, -952095.6, -1068593.1, -1361.9878, 0.04403937, 0.0617361, -952079.75, -21092.5, 0.0, 10.000404, 9.99886 
1.2250173e+3, 2.1500066e+2, -854304.5, -970723.6, -1334.5557, 0.04416416, 0.052573904, -854289.2, -21290.61, 0.0, 10.000402, 9.99886 
1.2250173e+3, 2.2499941e+2, -751638.0, -863024.56, -1292.5275, 0.04439951, 0.03936098, -751623.0, -16613.69, 0.0, 10.000402, 9.998927 
1.2250172e+3, 2.3499817e+2, -653460.44, -764934.25, -1283.3298, 0.0447453, 0.021917077, -653445.6, -16426.154, 0.0, 10.000403, 9.998927 
1.2250172e+3, 2.4499688e+2, -555518.06, -667626.75, -1192.8777, 0.045301434, -0.0009080148, -555505.4, -16475.217, 0.0, 10.000406, 9.99892 
1.2250172e+3, 2.549955e+2, -456952.03, -569318.5, -1185.277, 0.0460679, -0.029294906, -456939.53, -15898.169, 0.0, 10.00041, 9.998921 
1.2250172e+3, 2.6499423e+2, -345621.22, -444601.9, -1056.7848, 0.04679054, -0.05694453, -345609.94, -2558.4917, 0.0, 10.000414, 9.999103 
1.2250172e+3, 2.7499306e+2, -246917.19, -346201.34, -1061.119, 0.047469266, -0.084039845, -246905.84, -1845.3722, 0.0, 10.000419, 9.999103 
1.2250172e+3, 2.84992e+2, -141515.53, -234095.52, -756.9359, 0.048290547, -0.107113324, -141509.34, 5559.322, 0.0, 10.000424, 9.999197 
1.2250172e+3, 2.94991e+2, -42548.348, -135557.19, -766.8136, 0.049255047, -0.12634125, -42542.023, 6534.035, 0.0, 10.00043, 9.999198 
1.2250172e+3, 3.0499017e+2, 26063.105, -47076.664, -393.68323, 0.05025652, -0.14195254, 26065.225, 26065.225, 0.0, 10.000436, 9.999467 
1.2250172e+3, 3.1498954e+2, 26743.143, -46700.83, -412.9878, 0.05129448, -0.15412469, 26745.465, 26745.465, 0.0, 10.000441, 9.999467 
1.23501785e+3, 1.250082e+2, -1674808.8, -1731521.5, -7.397371, 0.04600582, 0.108039565, -1674808.8, 40120.453, 0.0, 10.00043, 9.999679 
1.23501785e+3, 1.3500772e+2, -1577162.3, -1633765.8, 53.35246, 0.045442883, 0.09152171, -1577162.3, 39770.74, 0.0, 10.000428, 9.999679 
1.23501785e+3, 1.4500709e+2, -1492251.9, -1562149.9, -547.5599, 0.04481951, 0.07053937, -1492247.6, 26690.0, 0.0, 10.000425, 9.999498 
1.23501785e+3, 1.5500633e+2, -1394953.1, -1464549.3, -469.03683, 0.044135056, 0.044863813, -1394950.0, 25993.113, 0.0, 10.000421, 9.999498 
1.23501785e+3, 1.6500558e+2, -1317307.5, -1407866.1, -904.15204, 0.043690525, 0.03428549, -1317298.5, 5650.851, 0.0, 10.000417, 9.999216 
1.23501785e+3, 1.7500485e+2, -1219827.8, -1310165.4, -830.25244, 0.043485403, 0.038572926, -1219820.1, 5136.188, 0.0, 10.000413, 9.999216 
1.23501785e+3, 1.8500398e+2, -1145951.3, -1261448.9, -1311.7698, 0.043257475, 0.04715777, -1145936.4, -18971.025, 0.0, 10.00041, 9.998879 
1.23501785e+3, 1.9500299e+2, -1048464.3, -1163736.8, -1252.3622, 0.043006856, 0.059854213, -1048450.75, -19474.547, 0.0, 10.000406, 9.998879 
1.2350177e+3, 2.0500188e+2, -952051.25, -1068490.6, -1412.4991, 0.04298278, 0.061712693, -952034.06, -21046.8, 0.0, 10.000404, 9.998861 
1.2350177e+3, 2.1500066e+2, -854259.8, -970620.94, -1385.0348, 0.043185215, 0.052580144, -854243.3, -21244.666, 0.0, 10.000402, 9.998861 
1.2350177e+3, 2.249994e+2, -751627.0, -862992.0, -1248.3777, 0.043478023, 0.039392896, -751613.0, -16603.598, 0.0, 10.000402, 9.998927 
1.2350177e+3, 2.3499817e+2, -653449.25, -764901.7, -1239.1672, 0.043861102, 0.021970684, -653435.44, -16415.916, 0.0, 10.000403, 9.998927 
1.23501755e+3, 2.4499686e+2, -555509.94, -667600.7, -1053.0488, 0.04445943, -0.00083731685, -555500.06, -16469.824, 0.0, 10.000406, 9.998921 
1.23501755e+3, 2.549955e+2, -456943.66, -569292.25, -1045.4404, 0.045272935, -0.029211808, -456933.94, -15892.534, 0.0, 10.00041, 9.998921 
1.23501755e+3, 2.6499423e+2, -345634.72, -444621.38, -885.0349, 0.046084892, -0.0568233, -345626.8, -2575.307, 0.0, 10.000414, 9.999103 
1.23501755e+3, 2.7499306e+2, -246930.27, -346220.4, -889.3397, 0.046895336, -0.083854735, -246922.3, -1861.7853, 0.0, 10.000419, 9.999103 
1.23501755e+3, 2.8499198e+2, -141538.69, -234135.89, -518.5708, 0.04782506, -0.10691493, -141535.78, 5532.9316, 0.0, 10.000424, 9.999197 
1.23501755e+3, 2.94991e+2, -42571.24, -135597.28, -528.3392, 0.0488746, -0.12618026, -42568.24, 6507.8833, 0.0, 10.00043, 9.999198 
1.23501755e+3, 3.0499017e+2, 26023.271, -47152.11, -224.91109, 0.04995069, -0.14160272, 26023.963, 26023.963, 0.0, 10.000436, 9.999466 
1.23501755e+3, 3.1498954e+2, 26703.385, -46776.16, -244.07889, 0.051053096, -0.15335928, 26704.195, 26704.195, 0.0, 10.000441, 9.999467 
1.2450182e+3, 1.2500817e+2, -1676699.5, -1732089.9, -535.86865, 0.04485293, 0.10709938, -1676694.4, 38235.133, 0.0, 10.000416, 9.999682 
1.2450182e+3, 1.350077e+2, -1579155.8, -1634383.6, -366.5479, 0.044321112, 0.09099959, -1579153.4, 37779.844, 0.0, 10.000413, 9.999681 
1.2450182e+3, 1.4500706e+2, -1494358.3, -1562847.4, -975.71063, 0.04373462, 0.07022222, -1494344.4, 24593.418, 0.0, 10.000409, 9.999501 
1.2450182e+3, 1.5500632e+2, -1397151.0, -1465291.0, -840.1069, 0.04309273, 0.04453912, -1397140.6, 23802.586, 0.0, 10.000404, 9.999501 
1.2450182e+3, 1.6500556e+2, -1319603.5, -1408693.8, -1177.8091, 0.042658452, 0.03400579, -1319588.0, 3361.5144, 0.0, 10.0004, 9.999219 
1.2450182e+3, 1.7500484e+2, -1222179.9, -1311020.1, -1063.6685, 0.042431463, 0.038390666, -1222167.1, 2789.3372, 0.0, 10.000396, 9.999219 
1.2450182e+3, 1.8500397e+2, -1148325.0, -1262376.8, -1492.3285, 0.04224071, 0.047042612, -1148305.5, -21340.06, 0.0, 10.000393, 9.998881 
1.2450182e+3, 1.9500297e+2, -1050746.6, -1164620.4, -1405.6295, 0.04208623, 0.059775844, -1050729.3, -21753.041, 0.0, 10.00039, 9.998881 
1.2450181e+3, 2.0500188e+2, -954289.4, -1069463.6, -1461.0433, 0.042154416, 0.061673068, -954270.8, -23283.467, 0.0, 10.000388, 9.998862 
1.2450181e+3, 2.1500064e+2, -856361.94, -971528.44, -1417.2228, 0.0424453, 0.052581202, -856344.5, -23345.791, 0.0, 10.000388, 9.998862 
1.2450181e+3, 2.249994e+2, -753664.2, -863930.06, -1180.6693, 0.042798698, 0.039431076, -753651.56, -18642.102, 0.0, 10.000388, 9.998927 
1.2450181e+3, 2.3499815e+2, -655414.9, -765805.2, -1160.4602, 0.04321456, 0.022042425, -655402.7, -18383.076, 0.0, 10.00039, 9.998927 
1.2450181e+3, 2.4499686e+2, -557395.9, -668468.1, -864.3113, 0.04383447, -0.0007413205, -557389.2, -18358.914, 0.0, 10.000393, 9.998921 
1.2450181e+3, 2.549955e+2, -458738.9, -570115.8, -843.9053, 0.044658285, -0.029100945, -458732.53, -17691.072, 0.0, 10.000398, 9.998921 
1.2450181e+3, 2.6499423e+2, -347304.13, -445405.8, -621.54755, 0.045521073, -0.056667667, -347300.2, -4248.6387, 0.0, 10.000402, 9.999103 
1.2450181e+3, 2.7499306e+2, -248411.45, -346913.97, -603.8956, 0.04642298, -0.08362443, -248407.75, -3347.2095, 0.0, 10.000408, 9.999104 
1.2450181e+3, 2.8499198e+2, -142851.55, -234734.7, -141.92876, 0.047397982, -0.10666157, -142851.33, 4217.419, 0.0, 10.000415, 9.999197 
1.2450181e+3, 2.94991e+2, -43752.586, -136132.58, -109.52794, 0.048446447, -0.12595558, -43752.457, 5323.7036, 0.0, 10.0004225, 9.999198 
1.2450181e+3, 3.0499017e+2, 24971.152, -47559.184, 186.13461, 0.049465016, -0.14117949, 24971.629, 24971.629, 0.0, 10.000428, 9.999467 
1.2450181e+3, 3.1498954e+2, 25695.918, -47161.617, 271.65018, 0.050453622, -0.15250981, 25696.93, 25696.93, 0.0, 10.000433, 9.999468 
1.2550187e+3, 1.2500812e+2, -1676391.9, -1731437.8, -642.4525, 0.043369066, 0.106123626, -1676384.4, 38545.48, 0.0, 10.000416, 9.999686 
1.2550187e+3, 1.3500766e+2, -1578847.6, -1633731.4, -472.9325, 0.04302198, 0.09043798, -1578843.6, 38089.848, 0.0, 10.000413, 9.999686 
1.2550187e+3, 1.4500704e+2, -1494113.3, -1562327.0, -1171.4968, 0.042590946, 0.06986598, -1494093.1, 24844.8, 0.0, 10.000409, 9.999505 
1.2550187e+3, 1.5500629e+2, -1396905.6, -1464770.5, -1035.7709, 0.042075343, 0.04417995, -1396889.8, 24053.656, 0.0, 10.000404, 9.999505 
1.2550186e+3, 1.6500555e+2, -1319397.5, -1408255.9, -1320.0234, 0.041711174, 0.033696115, -1319377.9, 3571.7156, 0.0, 10.0004, 9.999222 
1.2550186e+3, 1.7500482e+2, -1221973.6, -1310582.3, -1205.8339, 0.04149839, 0.038182862, -1221957.3, 2999.4175, 0.0, 10.000396, 9.999222 
1.2550186e+3, 1.8500395e+2, -1148169.6, -1262045.1, -1596.2985, 0.041383352, 0.04690456, -1148147.3, -21181.771, 0.0, 10.000393, 9.998883 
1.2550186e+3, 1.9500297e+2, -1050590.9, -1164288.8, -1509.5784, 0.041366052, 0.059675448, -1050570.8, -21594.45, 0.0, 10.00039, 9.998883 
1.2550186e+3, 2.0500186e+2, -954212.75, -1069297.1, -1476.2893, 0.041552383, 0.061617333, -954193.8, -23206.4, 0.0, 10.000388, 9.998863 
1.2550184e+3, 2.1500064e+2, -856284.94, -971361.7, -1432.4293, 0.041942444, 0.05257712, -856267.1, -23268.363, 0.0, 10.000388, 9.998863 
1.2550184e+3, 2.249994e+2, -753630.75, -863854.2, -1117.941, 0.042359564, 0.03947549, -753619.44, -18609.953, 0.0, 10.000388, 9.998928 
1.2550184e+3, 2.3499815e+2, -655381.4, -765729.3, -1097.7051, 0.04280374, 0.02213218, -655370.44, -18350.832, 0.0, 10.00039, 9.998928 
1.2550184e+3, 2.4499686e+2, -557362.25, -668391.8, -700.9242, 0.043424767, -0.0006201912, -557357.8, -18327.508, 0.0, 10.000393, 9.998922 
1.2550184e+3, 2.549955e+2, -458705.28, -570039.4, -680.5109, 0.044222426, -0.028962502, -458701.13, -17659.652, 0.0, 10.000398, 9.998922 
1.2550184e+3, 2.6499423e+2, -347275.66, -445339.94, -400.94424, 0.04509784, -0.056477856, -347274.03, -4222.451, 0.0, 10.000402, 9.999103 
1.2550184e+3, 2.7499306e+2, -248383.0, -346847.94, -383.24023, 0.046051245, -0.0833492, -248381.52, -3320.9497, 0.0, 10.000408, 9.999104 
1.2550184e+3, 2.8499198e+2, -142796.22, -234612.27, 130.61385, 0.047008812, -0.1063536, -142796.03, 4272.7383, 0.0, 10.000415, 9.999198 
1.2550184e+3, 2.94991e+2, -43697.773, -136010.27, 163.13292, 0.047970686, -0.12566762, -43697.49, 5378.6904, 0.0, 10.0004225, 9.999199 
1.2550184e+3, 3.0499017e+2, 25124.596, -47230.953, 366.54224, 0.048800517, -0.14068328, 25126.453, 25126.453, 0.0, 10.000428, 9.99947 
1.2550184e+3, 3.1498954e+2, 25848.748, -46833.52, 452.23328, 0.049498316, -0.15157674, 25851.56, 25851.56, 0.0, 10.000433, 9.99947 
1.265019e+3, 1.2500808e+2, -1679194.5, -1732134.9, -1154.7708, 0.041663464, 0.10530982, -1679169.4, 35760.83, 0.0, 10.000394, 9.999692 
1.265019e+3, 1.3500762e+2, -1581404.0, -1634309.8, -884.2986, 0.041631807, 0.08994776, -1581389.1, 35544.6, 0.0, 10.000393, 9.999692 
1.265019e+3, 1.4500701e+2, -1496502.1, -1562991.1, -1586.7937, 0.041463193, 0.06954358, -1496464.4, 22473.928, 0.0, 10.000391, 9.99951 
1.265019e+3, 1.5500627e+2, -1398997.3, -1465291.5, -1393.8663, 0.041157227, 0.043869823, -1398967.9, 21975.729, 0.0, 10.000387, 9.999509 
1.265019e+3, 1.6500552e+2, -1321314.9, -1408778.8, -1592.9863, 0.04093142, 0.03343576, -1321285.9, 1663.8898, 0.0, 10.000384, 9.999226 
1.2650189e+3, 1.7500481e+2, -1223731.4, -1311028.3, -1436.6786, 0.040785976, 0.038009822, -1223707.8, 1249.0085, 0.0, 10.000382, 9.999226 
1.2650189e+3, 1.8500395e+2, -1149784.8, -1262524.4, -1741.3259, 0.040790882, 0.046789266, -1149757.9, -22792.285, 0.0, 10.0003805, 9.998886 
1.2650189e+3, 1.9500296e+2, -1051952.3, -1164645.6, -1625.9626, 0.040946078, 0.059588347, -1051928.8, -22952.35, 0.0, 10.00038, 9.998886 
1.2650189e+3, 2.0500186e+2, -955431.4, -1069719.0, -1484.6544, 0.041270487, 0.061567463, -955412.1, -24424.617, 0.0, 10.00038, 9.998865 
1.2650187e+3, 2.1500063e+2, -857303.6, -971687.25, -1416.7813, 0.04176427, 0.052573483, -857286.06, -24287.262, 0.0, 10.0003805, 9.998864 
1.2650187e+3, 2.249994e+2, -754577.75, -864222.0, -1023.56146, 0.042246748, 0.039515734, -754568.2, -19558.64, 0.0, 10.000381, 9.998929 
1.2650187e+3, 2.3499815e+2, -656288.44, -766077.9, -983.9884, 0.042717945, 0.022213938, -656279.6, -19259.969, 0.0, 10.000383, 9.998929 
1.2650187e+3, 2.4499686e+2, -558279.3, -668749.06, -481.06836, 0.04332219, -0.00051181664, -558277.25, -19246.926, 0.0, 10.000386, 9.998922 
1.2650187e+3, 2.549955e+2, -459677.53, -570423.06, -444.17505, 0.044059183, -0.028842479, -459675.75, -18634.246, 0.0, 10.00039, 9.998923 
1.2650187e+3, 2.6499423e+2, -348288.4, -445733.0, -82.69354, 0.0448992, -0.05631235, -348288.34, -5236.767, 0.0, 10.000395, 9.999104 
1.2650187e+3, 2.7499306e+2, -249434.22, -347259.34, -36.3359, 0.045842536, -0.08310438, -249434.2, -4373.6343, 0.0, 10.000401, 9.9991045 
1.2650187e+3, 2.84992e+2, -143966.5, -235005.73, 535.358, 0.04670799, -0.10606808, -143963.36, 3105.4067, 0.0, 10.000406, 9.9992 
1.2650187e+3, 2.94991e+2, -45162.168, -136545.2, 617.85785, 0.047495477, -0.12538002, -45157.992, 3918.1748, 0.0, 10.000411, 9.9992 
1.2650189e+3, 3.0499017e+2, 23481.236, -47610.35, 797.32764, 0.048015982, -0.14021382, 23490.178, 23490.178, 0.0, 10.000415, 9.999473 
1.2650189e+3, 3.1498957e+2, 23838.973, -47389.168, 988.9079, 0.04826952, -0.1507455, 23852.7, 23852.7, 0.0, 10.000418, 9.999474 
1.2750193e+3, 1.2500803e+2, -1678700.0, -1731093.1, -1197.0931, 0.039737385, 0.10465663, -1678672.6, 36258.04, 0.0, 10.000394, 9.9997 
1.2750193e+3, 1.3500759e+2, -1580908.5, -1633267.8, -926.4972, 0.040150918, 0.08952832, -1580892.1, 36041.99, 0.0, 10.000393, 9.999699 
1.2750193e+3, 1.4500698e+2, -1496150.8, -1562249.8, -1705.2783, 0.040350914, 0.06925472, -1496106.8, 22831.732, 0.0, 10.000391, 9.999515 
1.2750193e+3, 1.5500624e+2, -1398644.6, -1464549.6, -1512.3015, 0.040337354, 0.04360833, -1398610.0, 22333.926, 0.0, 10.000387, 9.999514 
1.2750193e+3, 1.650055e+2, -1321029.4, -1408177.5, -1693.6549, 0.040317666, 0.033224322, -1320996.5, 1953.5679, 0.0, 10.000384, 9.999229 
1.2750193e+3, 1.750048e+2, -1223445.1, -1310426.6, -1537.3251, 0.040292323, 0.037871268, -1223417.9, 1539.0165, 0.0, 10.000382, 9.999229 
1.2750193e+3, 1.8500394e+2, -1149574.1, -1262081.1, -1779.365, 0.04046108, 0.04669655, -1149546.0, -22580.297, 0.0, 10.0003805, 9.998889 
1.2750193e+3, 1.9500294e+2, -1051740.9, -1164202.1, -1664.022, 0.040823862, 0.059514437, -1051716.3, -22739.72, 0.0, 10.00038, 9.998889 
1.2750193e+3, 2.0500185e+2, -955307.75, -1069458.6, -1447.9642, 0.041306157, 0.061523404, -955289.4, -24301.834, 0.0, 10.00038, 9.998866 
1.2750193e+3, 2.1500063e+2, -857179.5, -971426.6, -1380.0768, 0.041908193, 0.05257029, -857162.9, -24163.998, 0.0, 10.0003805, 9.998866 
1.2750192e+3, 2.2499938e+2, -754505.9, -864070.25, -950.47473, 0.042457655, 0.03955184, -754497.6, -19488.086, 0.0, 10.000381, 9.99893 
1.2750192e+3, 2.3499815e+2, -656216.56, -765926.1, -910.8898, 0.04295461, 0.022287766, -656209.0, -19189.336, 0.0, 10.000383, 9.99893 
1.2750192e+3, 2.4499686e+2, -558212.7, -668607.94, -332.03314, 0.043524306, -0.00041608777, -558211.7, -19181.377, 0.0, 10.000386, 9.998923 
1.2750192e+3, 2.549955e+2, -459611.22, -570282.0, -295.15936, 0.044166364, -0.028740726, -459610.44, -18568.922, 0.0, 10.00039, 9.998924 
1.2750192e+3, 2.6499423e+2, -348205.03, -445555.66, 127.82781, 0.04492331, -0.056170944, -348204.88, -5153.2827, 0.0, 10.000395, 9.999105 
1.2750192e+3, 2.7499306e+2, -249351.36, -347082.13, 174.22789, 0.045795456, -0.082889706, -249351.05, -4290.4946, 0.0, 10.000401, 9.999105 
1.2750193e+3, 2.84992e+2, -143817.7, -234690.02, 731.4375, 0.04649466, -0.10580479, -143811.81, 3256.9128, 0.0, 10.000406, 9.999202 
1.2750193e+3, 2.94991e+2, -45014.68, -136230.05, 814.01495, 0.04702058, -0.12509274, -45007.418, 4068.7058, 0.0, 10.000411, 9.999203 
1.2750193e+3, 3.049902e+2, 23830.629, -46873.656, 882.37714, 0.047112003, -0.13977084, 23841.64, 23841.64, 0.0, 10.000415, 9.999478 
1.2750193e+3, 3.1498957e+2, 24187.143, -46652.848, 1074.1019, 0.046768885, -0.15001518, 24203.426, 24203.426, 0.0, 10.000417, 9.999478 
1.2850198e+3, 1.2500799e+2, -1681973.6, -1731789.0, -1433.1154, 0.03781025, 0.1043353, -1681932.5, 32998.652, 0.0, 10.000367, 9.999707 
1.2850198e+3, 1.3500753e+2, -1583666.9, -1633715.4, -1109.385, 0.038686216, 0.08928567, -1583642.3, 33292.258, 0.0, 10.00037, 9.999707 
1.2850198e+3, 1.4500694e+2, -1498486.6, -1562741.4, -1900.7614, 0.039281856, 0.06907336, -1498430.5, 20508.404, 0.0, 10.000372, 9.99952 
1.2850198e+3, 1.5500621e+2, -1400340.0, -1464732.5, -1665.9249, 0.039597522, 0.043470554, -1400297.0, 20647.213, 0.0, 10.000373, 9.999519 
1.2850198e+3, 1.6500548e+2, -1322287.4, -1408275.6, -1825.7628, 0.039825555, 0.03312895, -1322248.6, 701.6266, 0.0, 10.000374, 9.999234 
1.2850198e+3, 1.7500477e+2, -1224310.3, -1310335.4, -1639.3679, 0.039966647, 0.037817344, -1224279.0, 678.10297, 0.0, 10.000374, 9.999234 
1.2850197e+3, 1.8500392e+2, -1150134.9, -1261985.5, -1795.3015, 0.040328782, 0.046664637, -1150106.0, -23140.172, 0.0, 10.000375, 9.998893 
1.2850197e+3, 1.9500294e+2, -1051906.6, -1163916.0, -1663.6737, 0.0409119, 0.05948509, -1051881.9, -22905.238, 0.0, 10.000377, 9.998892 
1.2850197e+3, 2.0500185e+2, -955245.06, -1069204.1, -1377.0469, 0.041555278, 0.06150557, -955228.44, -24240.791, 0.0, 10.000379, 9.998869 
1.2850197e+3, 2.1500063e+2, -856877.1, -971056.75, -1293.4124, 0.0422592, 0.052572895, -856862.5, -23863.563, 0.0, 10.000381, 9.998868 
1.2850197e+3, 2.2499938e+2, -754130.0, -863753.9, -842.20593, 0.042875007, 0.039574545, -754123.56, -19113.955, 0.0, 10.000383, 9.998931 
1.2850197e+3, 2.3499815e+2, -655821.9, -765600.7, -790.36865, 0.043402787, 0.022330245, -655816.2, -18796.463, 0.0, 10.000385, 9.998931 
1.2850195e+3, 2.4499686e+2, -557914.75, -668343.0, -153.14243, 0.04393216, -0.00036575657, -557914.5, -18884.16, 0.0, 10.000388, 9.998924 
1.2850195e+3, 2.549955e+2, -459508.2, -570110.9, -107.94537, 0.044462662, -0.02869449, -459508.1, -18466.574, 0.0, 10.000391, 9.998925 
1.2850197e+3, 2.6499423e+2, -348318.56, -445436.38, 378.8839, 0.04509863, -0.056100924, -348317.06, -5265.5063, 0.0, 10.000394, 9.999106 
1.2850197e+3, 2.7499306e+2, -249768.83, -347109.1, 450.04037, 0.045840334, -0.08276805, -249766.75, -4706.228, 0.0, 10.000397, 9.999107 
1.2850197e+3, 2.84992e+2, -144645.23, -234778.16, 977.45734, 0.046321902, -0.10563252, -144634.64, 2434.0488, 0.0, 10.000399, 9.999205 
1.2850197e+3, 2.9499102e+2, -46529.395, -136649.03, 1104.5834, 0.046542786, -0.12487077, -46515.86, 2560.196, 0.0, 10.0004, 9.999206 
1.2850197e+3, 3.049902e+2, 21846.508, -47159.215, 1116.1444, 0.046165705, -0.13945073, 21864.557, 21864.557, 0.0, 10.000399, 9.999484 
1.2850197e+3, 3.149896e+2, 21501.15, -47276.17, 1376.0559, 0.04519057, -0.14954881, 21528.67, 21528.67, 0.0, 10.000396, 9.999484 
1.2950201e+3, 1.2500793e+2, -1681379.9, -1730541.9, -1341.088, 0.035881646, 0.104343206, -1681343.4, 33588.29, 0.0, 10.000367, 9.999716 
1.2950201e+3, 1.3500749e+2, -1583072.3, -1632468.1, -1017.3785, 0.037237216, 0.0892184, -1583051.4, 33883.6, 0.0, 10.00037, 9.999716 
1.2950201e+3, 1.4500691e+2, -1498056.9, -1561837.8, -1852.686, 0.038255375, 0.068998635, -1498003.1, 20936.12, 0.0, 10.000372, 9.999527 
1.2950201e+3, 1.5500619e+2, -1399908.9, -1463828.4, -1617.9167, 0.03893684, 0.043455523, -1399867.9, 21076.52, 0.0, 10.000373, 9.999526 
1.2950201e+3, 1.6500546e+2, -1321945.0, -1407557.8, -1824.2256, 0.039453905, 0.033148732, -1321906.1, 1044.3395, 0.0, 10.000374, 9.999239 
1.2950201e+3, 1.7500475e+2, -1223966.8, -1309616.9, -1637.867, 0.039807428, 0.03784739, -1223935.5, 1021.79663, 0.0, 10.000374, 9.999239 
1.29502e+3, 1.850039e+2, -1149892.6, -1261478.6, -1730.6453, 0.04039228, 0.046693057, -1149865.8, -22899.76, 0.0, 10.000375, 9.998896 
1.29502e+3, 1.9500293e+2, -1051663.5, -1163408.8, -1599.0975, 0.041208416, 0.059499964, -1051640.6, -22663.842, 0.0, 10.000377, 9.998896 
1.29502e+3, 2.0500183e+2, -955090.75, -1068882.3, -1278.0345, 0.042016074, 0.061513767, -955076.4, -24088.652, 0.0, 10.000379, 9.998871 
1.29502e+3, 2.1500061e+2, -856722.3, -970734.6, -1194.4364, 0.042815585, 0.05258125, -856709.8, -23710.855, 0.0, 10.000381, 9.998871 
1.29502e+3, 2.2499938e+2, -754034.0, -863554.2, -764.20374, 0.043497104, 0.03958396, -754028.7, -19019.047, 0.0, 10.000383, 9.998932 
1.29502e+3, 2.3499815e+2, -655725.8, -765401.0, -712.39197, 0.044060748, 0.022341624, -655721.2, -18701.441, 0.0, 10.000385, 9.998932 
1.29502e+3, 2.4499686e+2, -557831.2, -668169.0, -54.79451, 0.044544056, -0.00036046628, -557831.2, -18800.822, 0.0, 10.000388, 9.998926 
1.29502e+3, 2.549955e+2, -459425.16, -569937.0, -9.661553, 0.044946503, -0.028703341, -459425.16, -18383.637, 0.0, 10.000391, 9.998926 
1.29502e+3, 2.6499423e+2, -348188.13, -445162.9, 510.33005, 0.045423858, -0.056101732, -348185.44, -5133.8916, 0.0, 10.000394, 9.999108 
1.29502e+3, 2.7499306e+2, -249639.33, -346835.97, 581.4859, 0.04597631, -0.08273869, -249635.86, -4575.3735, 0.0, 10.000397, 9.999109 
1.29502e+3, 2.84992e+2, -144413.27, -234290.13, 994.8903, 0.04618922, -0.10555053, -144402.25, 2666.363, 0.0, 10.000399, 9.999208 
1.29502e+3, 2.9499102e+2, -46299.086, -136161.77, 1122.017, 0.04606188, -0.12471358, -46285.08, 2790.8813, 0.0, 10.0004, 9.999208 
1.29502e+3, 3.0499023e+2, 22322.346, -46159.477, 1018.5085, 0.04517709, -0.1392525, 22337.49, 22337.49, 0.0, 10.000399, 9.999491 
1.29502e+3, 3.1498963e+2, 21975.625, -46276.902, 1278.4753, 0.04353475, -0.14934431, 21999.564, 21999.564, 0.0, 10.000396, 9.999492 
1.3050205e+3, 1.2500788e+2, -1684473.9, -1731108.4, -1118.0966, 0.034225382, 0.10473811, -1684447.1, 30485.037, 0.0, 10.000342, 9.999724 
1.3050205e+3, 1.3500744e+2, -1585654.3, -1632787.9, -818.21716, 0.035920177, 0.08936961, -1585640.0, 31295.342, 0.0, 10.000348, 9.999723 
1.3050205e+3, 1.4500688e+2, -1500149.6, -1562135.3, -1675.2766, 0.037271682, 0.069061294, -1500104.4, 18835.129, 0.0, 10.000355, 9.999533 
1.3050205e+3, 1.5500616e+2, -1401267.4, -1463771.9, -1430.4066, 0.038280845, 0.04358394, -1401234.6, 19710.063, 0.0, 10.0003605, 9.999533 
1.3050205e+3, 1.6500545e+2, -1322764.4, -1407390.8, -1701.2736, 0.039076008, 0.033296157, -1322730.1, 220.4969, 0.0, 10.000366, 9.999245 
1.3050205e+3, 1.7500474e+2, -1224254.1, -1309193.5, -1508.8009, 0.039658077, 0.03796741, -1224227.4, 730.1096, 0.0, 10.000369, 9.999244 
1.3050205e+3, 1.8500389e+2, -1149803.6, -1261054.6, -1549.2439, 0.04046385, 0.0467852, -1149782.0, -22815.89, 0.0, 10.000374, 9.998899 
1.3050205e+3, 1.9500291e+2, -1051126.6, -1162769.0, -1423.717, 0.041493334, 0.05956369, -1051108.5, -22131.701, 0.0, 10.000379, 9.998899 
1.3050205e+3, 2.0500183e+2, -954301.06, -1068261.4, -1101.309, 0.04244686, 0.06155175, -954290.44, -23302.633, 0.0, 10.000383, 9.998873 
1.3050205e+3, 2.1500061e+2, -855698.0, -970000.7, -1022.49756, 0.04332479, 0.05259612, -855688.9, -22689.84, 0.0, 10.000387, 9.998873 
1.3050205e+3, 2.2499938e+2, -752940.56, -862883.1, -646.0821, 0.044068184, 0.039578255, -752936.75, -17927.094, 0.0, 10.00039, 9.998934 
1.3050205e+3, 2.3499815e+2, -654608.1, -764718.3, -600.4041, 0.044677168, 0.022317894, -654604.8, -17585.082, 0.0, 10.000393, 9.998934 
1.3050205e+3, 2.4499686e+2, -556848.9, -667572.8, 32.79112, 0.0451245, -0.00040380404, -556848.9, -17818.492, 0.0, 10.000394, 9.998927 
1.3050205e+3, 2.549955e+2, -458711.1, -569470.0, 70.64811, 0.045409627, -0.02876784, -458711.03, -17669.535, 0.0, 10.000395, 9.998927 
1.3050205e+3, 2.6499423e+2, -347790.1, -444744.0, 596.30133, 0.04571748, -0.056174543, -347786.4, -4734.888, 0.0, 10.000396, 9.99911 
1.3050205e+3, 2.7499306e+2, -249735.7, -346655.13, 678.5763, 0.04604815, -0.08280704, -249730.95, -4670.5176, 0.0, 10.000396, 9.999111 
1.3050205e+3, 2.84992e+2, -145060.5, -234188.61, 950.83185, 0.045990855, -0.10557119, -145050.36, 2018.1868, 0.0, 10.000393, 9.999211 
1.3050205e+3, 2.9499102e+2, -47786.88, -136465.0, 1102.735, 0.045544825, -0.12464318, -47773.168, 1302.6807, 0.0, 10.000387, 9.999212 
1.3050205e+3, 3.0499026e+2, 20257.27, -46381.887, 907.0935, 0.044232346, -0.13921082, 20269.613, 20269.613, 0.0, 10.0003805, 9.999497 
1.3050205e+3, 3.1498966e+2, 19147.02, -46866.84, 1168.1353, 0.042053416, -0.14945193, 19167.684, 19167.684, 0.0, 10.000373, 9.999498 
1.3150208e+3, 1.2500784e+2, -1683922.6, -1729952.8, -892.4834, 0.032838892, 0.10551691, -1683905.4, 31027.244, 0.0, 10.000342, 9.999732 
1.3150209e+3, 1.3500741e+2, -1585102.8, -1631632.3, -592.7879, 0.034733698, 0.089737564, -1585095.3, 31840.502, 0.0, 10.000348, 9.999732 
1.3150209e+3, 1.4500685e+2, -1499700.1, -1561192.0, -1436.2422, 0.036330134, 0.06926022, -1499666.6, 19273.229, 0.0, 10.000355, 9.999539 
1.3150209e+3, 1.5500614e+2, -1400817.0, -1462828.3, -1191.5598, 0.037629243, 0.04385468, -1400794.1, 20150.88, 0.0, 10.0003605, 9.999538 
1.3150209e+3, 1.6500542e+2, -1322410.6, -1406649.3, -1561.3696, 0.03869168, 0.03357022, -1322381.8, 569.16864, 0.0, 10.000365, 9.999249 
1.3150209e+3, 1.7500472e+2, -1223899.4, -1308451.4, -1369.003, 0.039518297, 0.0381767, -1223877.3, 1080.3746, 0.0, 10.000369, 9.9992485 
1.3150209e+3, 1.8500388e+2, -1149572.8, -1260571.0, -1368.1603, 0.04054325, 0.046940565, -1149555.9, -22589.627, 0.0, 10.000374, 9.998903 
1.3150208e+3, 1.9500291e+2, -1050895.1, -1162285.1, -1242.7638, 0.0417666, 0.059675887, -1050881.3, -21904.313, 0.0, 10.000379, 9.998902 
1.3150208e+3, 2.0500182e+2, -954156.1, -1067958.3, -941.2501, 0.042847753, 0.061619293, -954148.4, -23160.512, 0.0, 10.000383, 9.998875 
1.3150208e+3, 2.1500061e+2, -855552.75, -969697.44, -862.5238, 0.04378708, 0.05261746, -855546.25, -22547.182, 0.0, 10.000387, 9.998875 
1.3150208e+3, 2.2499938e+2, -752856.6, -862707.56, -561.7454, 0.04458855, 0.039557565, -752853.75, -17844.078, 0.0, 10.00039, 9.998935 
1.3150208e+3, 2.3499814e+2, -654524.06, -764542.7, -516.12854, 0.045252286, 0.02225934, -654521.6, -17501.875, 0.0, 10.000393, 9.998935 
1.3150208e+3, 2.4499685e+2, -556779.3, -667427.06, 61.43943, 0.045673653, -0.00049538293, -556779.3, -17748.947, 0.0, 10.000394, 9.998928 
1.3150208e+3, 2.549955e+2, -458641.97, -569324.4, 99.19533, 0.045852087, -0.028887548, -458641.9, -17600.398, 0.0, 10.000395, 9.998928 
1.3150208e+3, 2.6499423e+2, -347639.38, -444427.72, 599.25385, 0.045979623, -0.05631879, -347635.66, -4584.16, 0.0, 10.000396, 9.999113 
1.3150208e+3, 2.7499306e+2, -249586.03, -346339.28, 681.4717, 0.046056204, -0.08297234, -249581.22, -4520.8286, 0.0, 10.000396, 9.999113 
1.3150209e+3, 2.8499204e+2, -144782.7, -233604.84, 749.78253, 0.045727134, -0.105693676, -144776.38, 2292.0906, 0.0, 10.000393, 9.999216 
1.3150209e+3, 2.9499105e+2, -47510.38, -135881.9, 901.606, 0.04499166, -0.12465885, -47501.18, 1574.55, 0.0, 10.000387, 9.999216 
1.3150208e+3, 3.0499026e+2, 20735.488, -45378.11, 610.73145, 0.04333081, -0.13932443, 20741.13, 20741.13, 0.0, 10.0003805, 9.999505 
1.3150208e+3, 3.1498966e+2, 19624.42, -45863.383, 871.72046, 0.040744767, -0.14986917, 19636.021, 19636.021, 0.0, 10.000373, 9.999505 
1.3250211e+3, 1.2500781e+2, -1686093.3, -1730267.6, -215.6563, 0.03196741, 0.10659006, -1686092.1, 28840.857, 0.0, 10.000324, 9.999739 
1.3250211e+3, 1.3500738e+2, -1587115.3, -1631870.8, -21.877853, 0.03379987, 0.090279244, -1587115.3, 29820.879, 0.0, 10.000331, 9.999738 
1.3250212e+3, 1.4500682e+2, -1501429.8, -1561346.9, -879.216, 0.035458166, 0.06956572, -1501416.9, 17523.268, 0.0, 10.0003395, 9.999545 
1.3250212e+3, 1.5500611e+2, -1402072.8, -1462754.6, -666.4919, 0.036943175, 0.04421828, -1402065.4, 18879.826, 0.0, 10.000349, 9.999545 
1.3250212e+3, 1.650054e+2, -1323269.4, -1406525.3, -1159.0627, 0.038208924, 0.0339161, -1323253.3, -302.1926, 0.0, 10.000358, 9.999254 
1.3250212e+3, 1.7500472e+2, -1224261.0, -1308087.8, -988.859, 0.039256096, 0.038429398, -1224249.4, 708.3923, 0.0, 10.000364, 9.999253 
1.3250212e+3, 1.8500388e+2, -1149626.6, -1260265.0, -986.8212, 0.040464155, 0.047122408, -1149617.9, -22651.504, 0.0, 10.000372, 9.998906 
1.3250212e+3, 1.9500291e+2, -1050572.0, -1161797.4, -888.44226, 0.04183321, 0.0598091, -1050565.0, -21587.967, 0.0, 10.00038, 9.998905 
1.3250212e+3, 2.0500182e+2, -953641.25, -1067514.0, -659.7138, 0.043006726, 0.06169994, -953637.44, -22649.549, 0.0, 10.000385, 9.998877 
1.3250212e+3, 2.1500061e+2, -854860.7, -969167.9, -605.90704, 0.04398505, 0.052641556, -854857.44, -21858.387, 0.0, 10.000391, 9.998877 
1.3250212e+3, 2.2499937e+2, -752107.94, -862246.1, -420.4955, 0.04483707, 0.039530713, -752106.3, -17096.633, 0.0, 10.000395, 9.998936 
1.3250211e+3, 2.3499814e+2, -653719.6, -764054.4, -397.9127, 0.045562908, 0.022187158, -653718.2, -16698.432, 0.0, 10.000398, 9.998936 
1.3250211e+3, 2.4499685e+2, -556078.2, -667006.44, 64.222015, 0.045978025, -0.00060213555, -556078.2, -17047.818, 0.0, 10.000399, 9.998929 
1.3250212e+3, 2.549955e+2, -458180.7, -569019.25, 82.26827, 0.046081897, -0.029018048, -458180.63, -17139.148, 0.0, 10.000398, 9.998929 
1.3250212e+3, 2.6499423e+2, -347466.13, -444108.53, 506.76755, 0.04604867, -0.05647983, -347463.47, -4411.972, 0.0, 10.000396, 9.999115 
1.3250212e+3, 2.749931e+2, -249940.61, -346274.28, 583.65436, 0.04587817, -0.08317084, -249937.06, -4876.71, 0.0, 10.000392, 9.999115 
1.3250212e+3, 2.8499204e+2, -145593.78, -233552.86, 427.7862, 0.045327887, -0.10585959, -145591.7, 1476.6936, 0.0, 10.000385, 9.99922 
1.3250212e+3, 2.9499105e+2, -48965.77, -136140.22, 574.6698, 0.044397198, -0.124722034, -48961.98, 113.62914, 0.0, 10.000376, 9.99922 
1.3250211e+3, 3.049903e+2, 18865.111, -45613.19, 173.42445, 0.0425657, -0.13954255, 18865.578, 18865.578, 0.0, 10.000365, 9.999511 
1.3250211e+3, 3.149897e+2, 17288.848, -46322.48, 362.16397, 0.03983391, -0.15050095, 17290.91, 17290.91, 0.0, 10.000354, 9.999511 
1.3350214e+3, 1.2500778e+2, -1685735.8, -1729520.3, 51.53635, 0.031606372, 0.107955225, -1685735.8, 29197.607, 0.0, 10.000324, 9.999744 
1.3350216e+3, 1.3500735e+2, -1586758.8, -1631123.6, 245.00693, 0.033116303, 0.09099328, -1586757.4, 30179.041, 0.0, 10.000331, 9.999743 
1.3350216e+3, 1.4500679e+2, -1501038.4, -1560526.4, -516.87177, 0.034654897, 0.069976956, -1501033.9, 17906.574, 0.0, 10.0003395, 9.999551 
1.3350216e+3, 1.5500608e+2, -1401681.5, -1461934.1, -304.4141, 0.03622265, 0.04467402, -1401679.9, 19265.506, 0.0, 10.000349, 9.999551 
1.3350216e+3, 1.650054e+2, -1322957.5, -1405869.6, -889.945, 0.037628308, 0.034333255, -1322947.9, 3.3183892, 0.0, 10.000358, 9.999259 
1.3350216e+3, 1.750047e+2, -1223948.5, -1307431.8, -719.9033, 0.03887226, 0.038725175, -1223942.3, 1015.57196, 0.0, 10.000364, 9.999258 
1.3350216e+3, 1.8500388e+2, -1149447.5, -1259886.5, -707.7543, 0.040227674, 0.047330543, -1149442.9, -22476.482, 0.0, 10.000372, 9.998908 
1.3350216e+3, 1.950029e+2, -1050392.5, -1161418.8, -609.51917, 0.0416947, 0.05996318, -1050389.1, -21412.082, 0.0, 10.00038, 9.998908 
1.3350216e+3, 2.0500182e+2, -953544.75, -1067308.3, -453.5494, 0.04292561, 0.061793614, -953543.0, -22555.049, 0.0, 10.000385, 9.9988785 
1.3350216e+3, 2.1500061e+2, -854764.06, -968962.06, -399.8433, 0.04392072, 0.052668393, -854762.6, -21763.555, 0.0, 10.000391, 9.998878 
1.3350216e+3, 2.2499937e+2, -752069.25, -862160.8, -321.6196, 0.044815842, 0.039497763, -752068.3, -17058.57, 0.0, 10.000395, 9.998937 
1.3350216e+3, 2.3499814e+2, -653680.7, -763968.94, -299.10345, 0.045611084, 0.022101467, -653679.9, -16660.113, 0.0, 10.000398, 9.998937 
1.3350216e+3, 2.4499685e+2, -556047.4, -666937.7, 30.64306, 0.046039507, -0.0007239395, -556047.4, -17016.99, 0.0, 10.000399, 9.998929 
1.3350216e+3, 2.549955e+2, -458150.03, -568950.56, 48.586514, 0.04610067, -0.02915926, -458150.0, -17108.516, 0.0, 10.000398, 9.99893 
1.3350216e+3, 2.6499423e+2, -347326.78, -443813.44, 372.6927, 0.045926068, -0.05665754, -347325.34, -4273.875, 0.0, 10.000396, 9.999117 
1.3350216e+3, 2.749931e+2, -249802.05, -345979.56, 449.48138, 0.045515385, -0.08340227, -249799.94, -4739.6133, 0.0, 10.000392, 9.999118 
1.3350216e+3, 2.8499204e+2, -145325.7, -232988.34, 59.357964, 0.044794008, -0.10606858, -145325.67, 1742.6663, 0.0, 10.000385, 9.999224 
1.3350216e+3, 2.9499105e+2, -48697.996, -135575.94, 206.1159, 0.04376152, -0.12483232, -48697.508, 377.98993, 0.0, 10.000376, 9.999225 
1.3350216e+3, 3.049903e+2, 19210.223, -44888.355, -243.96297, 0.041935593, -0.13986434, 19211.15, 19211.15, 0.0, 10.000365, 9.999516 
1.3350216e+3, 3.149897e+2, 17634.223, -45597.613, -55.355972, 0.03931722, -0.15134554, 17634.271, 17634.271, 0.0, 10.000354, 9.9995165 
1.3450217e+3, 1.2500778e+2, -1686291.9, -1729463.3, 978.86725, 0.03189098, 0.10942607, -1686269.6, 28663.902, 0.0, 10.000319, 9.999747 
1.3450219e+3, 1.3500734e+2, -1587762.0, -1631281.9, 1004.9293, 0.03280167, 0.09177951, -1587738.8, 29197.877, 0.0, 10.000323, 9.999746 
1.3450219e+3, 1.4500678e+2, -1502176.0, -1560553.9, 267.63864, 0.034019556, 0.07042707, -1502174.8, 16765.865, 0.0, 10.000329, 9.999556 
1.3450219e+3, 1.5500608e+2, -1402886.3, -1461993.8, 405.84067, 0.035544537, 0.0451356, -1402883.4, 18062.17, 0.0, 10.000339, 9.999556 
1.3450219e+3, 1.6500539e+2, -1324105.5, -1405985.9, -286.41953, 0.03699861, 0.03473397, -1324104.5, -1153.2134, 0.0, 10.000348, 9.999263 
1.345022e+3, 1.750047e+2, -1224811.1, -1307410.4, -162.01654, 0.03838184, 0.03899287, -1224810.8, 147.16855, 0.0, 10.000357, 9.999262 
1.345022e+3, 1.8500386e+2, -1150192.5, -1260006.9, -191.63176, 0.03982629, 0.04750889, -1150192.3, -23225.725, 0.0, 10.000365, 9.998911 
1.345022e+3, 1.950029e+2, -1050938.9, -1161443.4, -129.19409, 0.04133214, 0.060095713, -1050938.8, -21961.662, 0.0, 10.000375, 9.99891 
1.345022e+3, 2.0500182e+2, -954027.5, -1067427.3, -93.80459, 0.042581066, 0.061874975, -954027.44, -23039.477, 0.0, 10.000381, 9.998879 
1.345022e+3, 2.1500061e+2, -855161.2, -969039.8, -70.67897, 0.04357333, 0.05269317, -855161.1, -22162.043, 0.0, 10.000388, 9.9988785 
1.345022e+3, 2.2499937e+2, -752431.7, -862306.06, -126.820206, 0.044499375, 0.03947488, -752431.56, -17421.828, 0.0, 10.000393, 9.998937 
1.345022e+3, 2.3499814e+2, -653953.7, -764071.0, -129.26701, 0.045359287, 0.022039846, -653953.56, -16933.773, 0.0, 10.000396, 9.998937 
1.345022e+3, 2.4499685e+2, -556342.1, -667053.9, 17.921776, 0.04581708, -0.00080558646, -556342.1, -17311.76, 0.0, 10.000397, 9.998929 
1.345022e+3, 2.549955e+2, -458573.1, -569128.44, 17.081167, 0.04587242, -0.029242158, -458573.06, -17531.6, 0.0, 10.000395, 9.99893 
1.345022e+3, 2.6499423e+2, -347899.9, -443886.0, 188.5845, 0.04559538, -0.056768183, -347899.53, -4848.07, 0.0, 10.000391, 9.999119 
1.345022e+3, 2.749931e+2, -250769.69, -346242.16, 248.91739, 0.04498555, -0.0835673, -250769.03, -5708.735, 0.0, 10.000384, 9.999119 
1.345022e+3, 2.8499204e+2, -146462.77, -233154.34, -371.97272, 0.04417098, -0.10622413, -146461.17, 607.10614, 0.0, 10.000376, 9.999227 
1.345022e+3, 2.9499108e+2, -50002.402, -135822.61, -261.26337, 0.043151528, -0.12491447, -50001.605, -926.21625, 0.0, 10.000365, 9.999228 
1.3450219e+3, 3.049903e+2, 17862.916, -45166.5, -806.7724, 0.04153023, -0.14018223, 17873.24, 17873.24, 0.0, 10.000354, 9.999519 
1.3450219e+3, 3.1498972e+2, 16381.902, -45830.215, -744.11707, 0.039308656, -0.15220925, 16390.8, 16390.8, 0.0, 10.000344, 9.999519 
1.355022e+3, 1.2500776e+2, -1686241.6, -1729361.6, 1130.2495, 0.032815546, 0.111001745, -1686212.0, 28721.672, 0.0, 10.0003195, 9.999747 
1.355022e+3, 1.3500734e+2, -1587713.8, -1631180.8, 1155.9592, 0.03285257, 0.092637405, -1587683.1, 29253.771, 0.0, 10.000323, 9.999747 
1.3550222e+3, 1.4500678e+2, -1501920.4, -1560019.3, 612.7287, 0.03355042, 0.07091579, -1501914.0, 17026.895, 0.0, 10.000329, 9.999559 
1.3550222e+3, 1.5500607e+2, -1402632.0, -1461459.8, 750.65234, 0.03490818, 0.04560304, -1402622.5, 18323.258, 0.0, 10.000339, 9.999558 
1.3550222e+3, 1.6500539e+2, -1323878.4, -1405506.6, 56.850456, 0.036319986, 0.035118446, -1323878.4, -926.937, 0.0, 10.000348, 9.999266 
1.3550222e+3, 1.7500469e+2, -1224584.0, -1306931.1, 181.0667, 0.037785497, 0.03923278, -1224583.6, 374.37082, 0.0, 10.000357, 9.999266 
1.3550223e+3, 1.8500386e+2, -1150081.0, -1259767.1, 139.0347, 0.03926117, 0.047657754, -1150080.9, -23114.32, 0.0, 10.000365, 9.998912 
1.3550223e+3, 1.950029e+2, -1050827.5, -1161203.8, 201.36015, 0.040747203, 0.06020691, -1050827.1, -21850.012, 0.0, 10.000375, 9.998912 
1.3550223e+3, 2.0500182e+2, -953989.8, -1067340.6, 134.63997, 0.041975107, 0.061944164, -953989.7, -23001.732, 0.0, 10.000381, 9.998879 
1.3550223e+3, 2.1500061e+2, -855123.56, -968953.25, 157.6978, 0.042945072, 0.052715927, -855123.4, -22124.273, 0.0, 10.000388, 9.998879 
1.3550223e+3, 2.2499937e+2, -752441.6, -862318.4, -4.600333, 0.043889973, 0.039461985, -752441.6, -17431.947, 0.0, 10.000393, 9.998937 
1.3550223e+3, 2.3499814e+2, -653963.44, -764083.2, -7.076425, 0.044809874, 0.0220021, -653963.44, -16943.664, 0.0, 10.000396, 9.998937 
1.3550223e+3, 2.4499685e+2, -556348.2, -667058.6, -48.792587, 0.045312963, -0.0008474121, -556348.1, -17317.799, 0.0, 10.000397, 9.998929 
1.3550223e+3, 2.549955e+2, -458579.03, -569133.06, -49.690403, 0.045399066, -0.02926723, -458579.0, -17537.525, 0.0, 10.000395, 9.99893 
1.3550223e+3, 2.6499423e+2, -347792.38, -443654.9, -47.68931, 0.045058187, -0.056812327, -347792.34, -4740.9077, 0.0, 10.000391, 9.999121 
1.3550223e+3, 2.749931e+2, -250662.45, -346011.28, 12.538562, 0.044289857, -0.08366649, -250662.45, -5602.1797, 0.0, 10.000384, 9.999121 
1.3550223e+3, 2.8499204e+2, -146261.69, -232729.14, -783.6689, 0.043459315, -0.106326684, -146254.58, 813.6404, 0.0, 10.000376, 9.99923 
1.3550223e+3, 2.9499108e+2, -49800.46, -135397.13, -673.07684, 0.042566735, -0.1249687, -49795.168, -719.8772, 0.0, 10.000365, 9.99923 
1.3550222e+3, 3.049903e+2, 17975.922, -44927.78, -1199.3058, 0.04134744, -0.14049627, 17998.78, 17998.78, 0.0, 10.000354, 9.99952 
1.3550222e+3, 3.1498972e+2, 16496.314, -45591.094, -1136.8003, 0.039803658, -0.15309201, 16517.121, 16517.121, 0.0, 10.000344, 9.999521 
1.3650225e+3, 1.2500778e+2, -1684710.8, -1728829.0, 2002.5646, 0.034354653, 0.11250107, -1684620.0, 30313.703, 0.0, 10.00033, 9.999745 
1.3650225e+3, 1.3500734e+2, -1587242.4, -1631158.5, 1838.7122, 0.03335535, 0.09347649, -1587165.5, 29771.383, 0.0, 10.000327, 9.999745 
1.3650225e+3, 1.4500676e+2, -1502027.1, -1559819.8, 1392.3689, 0.03340634, 0.071392745, -1501993.6, 16947.287, 0.0, 10.000328, 9.999561 
1.3650225e+3, 1.5500607e+2, -1403407.9, -1461582.6, 1422.8975, 0.034505844, 0.04601565, -1403373.1, 17572.652, 0.0, 10.000332, 9.999561 
1.3650225e+3, 1.6500539e+2, -1324984.0, -1405757.3, 728.05475, 0.0357918, 0.035427317, -1324977.4, -2025.9581, 0.0, 10.000339, 9.999269 
1.3650225e+3, 1.7500469e+2, -1225719.5, -1307196.1, 793.6697, 0.037263483, 0.039398473, -1225711.8, -753.7973, 0.0, 10.000348, 9.999268 
1.3650227e+3, 1.8500386e+2, -1151332.1, -1260227.3, 696.1434, 0.038706966, 0.047741383, -1151327.6, -24361.166, 0.0, 10.000357, 9.998914 
1.3650227e+3, 1.950029e+2, -1052104.9, -1161676.4, 729.71857, 0.04012243, 0.06026945, -1052100.0, -23122.973, 0.0, 10.000365, 9.998913 
1.3650227e+3, 2.0500182e+2, -955347.5, -1067950.1, 540.6255, 0.041298833, 0.06198635, -955344.94, -24357.018, 0.0, 10.000372, 9.99888 
1.3650227e+3, 2.1500061e+2, -856492.44, -969568.1, 547.8109, 0.04223629, 0.05273843, -856489.75, -23490.709, 0.0, 10.000379, 9.998879 
1.3650227e+3, 2.2499938e+2, -753808.8, -862994.44, 281.6856, 0.043182917, 0.039477553, -753808.1, -18798.428, 0.0, 10.000383, 9.998937 
1.3650227e+3, 2.3499814e+2, -655238.3, -764714.75, 272.66852, 0.044138744, 0.022023467, -655237.7, -18217.918, 0.0, 10.000387, 9.998937 
1.3650227e+3, 2.4499686e+2, -557566.94, -667650.6, 26.399963, 0.044686023, -0.00080194854, -557566.94, -18536.617, 0.0, 10.000388, 9.998929 
1.3650227e+3, 2.549955e+2, -459793.16, -569722.75, 23.49793, 0.044824757, -0.029179348, -459793.16, -18751.707, 0.0, 10.000386, 9.99893 
1.3650227e+3, 2.6499426e+2, -348986.2, -444079.2, -175.83092, 0.044461742, -0.056725305, -348985.88, -5934.4673, 0.0, 10.000381, 9.999122 
1.3650227e+3, 2.749931e+2, -252015.34, -346512.25, -134.76036, 0.04359651, -0.08362372, -252015.16, -6954.9297, 0.0, 10.000375, 9.999123 
1.3650227e+3, 2.8499207e+2, -147453.06, -233064.25, -1076.5006, 0.04282068, -0.10630105, -147439.53, -371.3686, 0.0, 10.000366, 9.999232 
1.3650225e+3, 2.9499108e+2, -50619.727, -135553.2, -1025.9879, 0.042134717, -0.124933094, -50607.336, -1532.1427, 0.0, 10.000359, 9.999232 
1.3650225e+3, 3.0499032e+2, 17509.625, -45179.62, -1595.2395, 0.04144263, -0.14070387, 17550.193, 17550.193, 0.0, 10.000351, 9.99952 
1.3650225e+3, 3.1498972e+2, 16696.568, -45522.316, -1674.4639, 0.04074724, -0.15379655, 16741.6, 16741.6, 0.0, 10.000345, 9.999521 
1.3750227e+3, 1.250078e+2, -1685008.8, -1729458.5, 1878.9601, 0.036502853, 0.11392483, -1684929.4, 30004.24, 0.0, 10.00033, 9.999742 
1.3750228e+3, 1.3500734e+2, -1587543.0, -1631788.6, 1714.8025, 0.034305874, 0.09429703, -1587476.6, 29460.283, 0.0, 10.000327, 9.999741 
1.3750228e+3, 1.4500678e+2, -1501967.9, -1559698.9, 1563.8619, 0.033584222, 0.071858115, -1501925.6, 17015.375, 0.0, 10.000328, 9.999562 
1.3750228e+3, 1.5500607e+2, -1403351.0, -1461462.8, 1594.1621, 0.03433522, 0.046373982, -1403307.3, 17638.5, 0.0, 10.000332, 9.999562 
1.375023e+3, 1.6500539e+2, -1324863.9, -1405503.6, 1063.5464, 0.035412457, 0.035661306, -1324849.8, -1898.3677, 0.0, 10.000339, 9.99927 
1.375023e+3, 1.750047e+2, -1225600.1, -1306942.9, 1128.9738, 0.03681488, 0.03949066, -1225584.5, -626.5575, 0.0, 10.000348, 9.9992695 
1.375023e+3, 1.8500388e+2, -1151273.3, -1260098.4, 1019.95984, 0.038163308, 0.047760393, -1151263.8, -24297.242, 0.0, 10.000357, 9.998915 
1.3750231e+3, 1.9500291e+2, -1052046.6, -1161547.8, 1053.4825, 0.0394579, 0.060283802, -1052036.5, -23059.467, 0.0, 10.000365, 9.998914 
1.3750231e+3, 2.0500183e+2, -955339.3, -1067924.9, 766.23987, 0.040552586, 0.06200181, -955334.1, -24346.256, 0.0, 10.000372, 9.99888 
1.3750231e+3, 2.1500061e+2, -856484.5, -969543.0, 773.4251, 0.041447416, 0.052760724, -856479.2, -23480.172, 0.0, 10.000379, 9.99888 
1.3750231e+3, 2.2499938e+2, -753831.25, -863032.2, 428.0466, 0.04237879, 0.03952135, -753829.56, -18819.916, 0.0, 10.000383, 9.998936 
1.3750231e+3, 2.3499815e+2, -655260.6, -764752.44, 419.0658, 0.043346703, 0.022103459, -655259.0, -18239.328, 0.0, 10.000387, 9.998936 
1.3750231e+3, 2.4499686e+2, -557577.0, -667663.2, -38.800827, 0.04393709, -0.0006699329, -557577.0, -18546.691, 0.0, 10.000388, 9.998929 
1.3750231e+3, 2.549955e+2, -459802.9, -569735.2, -41.681915, 0.044150148, -0.02897947, -459802.88, -18761.48, 0.0, 10.000386, 9.99893 
1.3750231e+3, 2.6499426e+2, -348913.94, -443921.84, -452.98468, 0.04380633, -0.056508232, -348911.78, -5860.432, 0.0, 10.000381, 9.999123 
1.3750231e+3, 2.749931e+2, -251942.86, -346354.9, -411.99396, 0.04290523, -0.08344022, -251941.06, -6880.896, 0.0, 10.000375, 9.999124 
1.3750231e+3, 2.8499207e+2, -147362.34, -232870.75, -1391.1233, 0.042254183, -0.10614831, -147339.72, -271.6417, 0.0, 10.000366, 9.999233 
1.375023e+3, 2.949911e+2, -50527.4, -135359.17, -1340.6749, 0.0418539, -0.1248084, -50506.22, -1431.1249, 0.0, 10.000359, 9.999234 
1.375023e+3, 3.0499032e+2, 17361.713, -45487.81, -1814.082, 0.041813165, -0.14080599, 17414.031, 17414.031, 0.0, 10.000351, 9.999518 
1.375023e+3, 3.1498972e+2, 16550.67, -45829.93, -1893.4026, 0.042135354, -0.15432453, 16608.088, 16608.088, 0.0, 10.000345, 9.999518 
1.385023e+3, 1.2500782e+2, -1681302.9, -1728410.0, 2447.8777, 0.039074134, 0.11517583, -1681176.0, 33757.46, 0.0, 10.00036, 9.999735 
1.3850231e+3, 1.3500735e+2, -1585246.0, -1631418.8, 2114.737, 0.03571601, 0.09507073, -1585149.4, 31787.494, 0.0, 10.000346, 9.999734 
1.3850231e+3, 1.4500678e+2, -1500514.0, -1559092.1, 2154.8638, 0.03422813, 0.07231876, -1500434.9, 18506.05, 0.0, 10.000338, 9.999561 
1.3850231e+3, 1.5500608e+2, -1402982.1, -1461378.9, 2060.4836, 0.03460708, 0.046686277, -1402909.5, 18036.219, 0.0, 10.000335, 9.999561 
1.3850233e+3, 1.6500539e+2, -1325093.8, -1405514.8, 1694.7838, 0.03542319, 0.035831008, -1325058.0, -2106.6157, 0.0, 10.000337, 9.999271 
1.3850233e+3, 1.750047e+2, -1226186.0, -1307125.5, 1695.9175, 0.036675204, 0.03952329, -1226150.5, -1192.6346, 0.0, 10.000343, 9.99927 
1.3850233e+3, 1.8500388e+2, -1152164.3, -1260445.1, 1553.4491, 0.037872046, 0.04772945, -1152142.0, -25175.547, 0.0, 10.00035, 9.998915 
1.3850234e+3, 1.9500291e+2, -1053170.3, -1162006.8, 1574.9958, 0.039013818, 0.06026272, -1053147.5, -24170.541, 0.0, 10.000357, 9.998915 
1.3850234e+3, 2.0500183e+2, -956651.75, -1068517.9, 1208.2057, 0.04000956, 0.06200328, -956638.7, -25650.898, 0.0, 10.000363, 9.99888 
1.3850234e+3, 2.1500063e+2, -857887.7, -970179.75, 1227.5519, 0.040859222, 0.052797448, -857874.3, -24875.354, 0.0, 10.000368, 9.99888 
1.3850234e+3, 2.249994e+2, -755278.44, -863719.4, 838.4199, 0.04175381, 0.039609257, -755271.94, -20262.383, 0.0, 10.000373, 9.998937 
1.3850236e+3, 2.3499817e+2, -656668.2, -765420.5, 854.2743, 0.042693257, 0.022258501, -656661.44, -19641.846, 0.0, 10.000378, 9.998937 
1.3850236e+3, 2.4499688e+2, -558905.1, -668276.75, 216.37044, 0.043304894, -0.0004368516, -558904.7, -19874.508, 0.0, 10.000379, 9.99893 
1.3850236e+3, 2.5499552e+2, -461031.9, -570300.94, 236.29935, 0.0435891, -0.028657453, -461031.4, -19990.1, 0.0, 10.000378, 9.99893 
1.3850234e+3, 2.6499426e+2, -350004.88, -444350.34, -385.46915, 0.043297257, -0.056152534, -350003.28, -6952.035, 0.0, 10.000374, 9.999124 
1.3850234e+3, 2.7499312e+2, -252945.22, -346740.9, -361.64175, 0.0424291, -0.08310614, -252943.83, -7883.7646, 0.0, 10.000367, 9.999125 
1.3850234e+3, 2.8499207e+2, -147992.39, -233131.31, -1339.5564, 0.041942906, -0.10585893, -147971.31, -903.3504, 0.0, 10.000362, 9.999234 
1.3850233e+3, 2.949911e+2, -50433.723, -135271.5, -1360.6682, 0.041839533, -0.12458691, -50411.906, -1336.9375, 0.0, 10.000359, 9.999234 
1.3850233e+3, 3.0499032e+2, 18019.814, -45578.832, -1799.1, 0.04243763, -0.14075892, 18070.668, 18070.668, 0.0, 10.000358, 9.999515 
1.3850233e+3, 3.1498972e+2, 18177.95, -45454.688, -1992.8696, 0.04374093, -0.15455838, 18240.3, 18240.3, 0.0, 10.000359, 9.999516 
1.3950236e+3, 1.2500787e+2, -1681911.5, -1729691.5, 1958.55, 0.042064734, 0.11625572, -1681831.4, 33101.836, 0.0, 10.00036, 9.999726 
1.3950236e+3, 1.3500738e+2, -1585857.1, -1632700.9, 1625.2208, 0.037581533, 0.09579813, -1585800.8, 31135.877, 0.0, 10.000346, 9.999725 
1.3950236e+3, 1.4500679e+2, -1500682.8, -1559452.0, 2044.8752, 0.035333693, 0.072774805, -1500611.6, 18329.172, 0.0, 10.000339, 9.999559 
1.3950236e+3, 1.5500611e+2, -1403153.3, -1461739.8, 1950.3463, 0.035317224, 0.04695302, -1403088.4, 17857.201, 0.0, 10.000335, 9.999558 
1.3950236e+3, 1.650054e+2, -1325089.3, -1405508.0, 1937.9806, 0.03582025, 0.035937063, -1325042.6, -2091.2703, 0.0, 10.000337, 9.999271 
1.3950236e+3, 1.7500472e+2, -1226183.0, -1307119.3, 1938.9354, 0.036841422, 0.03949695, -1226136.6, -1178.7657, 0.0, 10.000343, 9.99927 
1.3950236e+3, 1.8500389e+2, -1152124.6, -1260361.3, 1816.9496, 0.03783064, 0.047649052, -1152094.1, -25127.824, 0.0, 10.00035, 9.998916 
1.3950238e+3, 1.9500293e+2, -1053131.6, -1161923.3, 1838.4973, 0.038787927, 0.06020657, -1053100.5, -24123.695, 0.0, 10.000357, 9.998916 
1.3950238e+3, 2.0500185e+2, -956618.4, -1068444.4, 1410.3984, 0.039667618, 0.06199094, -956600.56, -25612.918, 0.0, 10.000363, 9.998881 
1.3950238e+3, 2.1500064e+2, -857854.75, -970106.44, 1429.8091, 0.0404696, 0.052848518, -857836.5, -24837.707, 0.0, 10.000368, 9.998881 
1.3950238e+3, 2.249994e+2, -755252.4, -863660.0, 995.3528, 0.041306052, 0.039740928, -755243.2, -20233.781, 0.0, 10.000373, 9.998937 
1.3950239e+3, 2.3499817e+2, -656642.25, -765361.2, 1011.29944, 0.042176858, 0.022487974, -656632.9, -19613.385, 0.0, 10.000378, 9.998937 
1.3950239e+3, 2.4499689e+2, -558870.8, -668200.1, 177.2978, 0.0427881, -0.000103552666, -558870.56, -19840.477, 0.0, 10.000379, 9.99893 
1.3950239e+3, 2.5499552e+2, -460997.25, -570224.2, 197.32256, 0.04314033, -0.028214332, -460996.9, -19955.725, 0.0, 10.000378, 9.99893 
1.3950238e+3, 2.649943e+2, -349962.34, -444258.16, -639.1172, 0.04293296, -0.05565938, -349958.0, -6906.8877, 0.0, 10.000374, 9.999125 
1.3950238e+3, 2.7499312e+2, -252902.03, -346648.66, -615.32996, 0.042165924, -0.08262276, -252898.0, -7838.077, 0.0, 10.000367, 9.999125 
1.3950238e+3, 2.849921e+2, -148032.19, -233213.52, -1465.6428, 0.041884318, -0.10543407, -148006.97, -939.1503, 0.0, 10.000362, 9.999233 
1.3950236e+3, 2.9499114e+2, -50471.906, -135353.27, -1486.7549, 0.042089023, -0.12426944, -50445.875, -1371.0535, 0.0, 10.000359, 9.999234 
1.3950236e+3, 3.0499035e+2, 17661.438, -46328.668, -1765.417, 0.043313634, -0.140564, 17710.105, 17710.105, 0.0, 10.000358, 9.99951 
1.3950236e+3, 3.1498972e+2, 17821.252, -46204.117, -1959.1781, 0.045561984, -0.15450075, 17881.146, 17881.146, 0.0, 10.000359, 9.99951 
1.405024e+3, 1.2500791e+2, -1676425.9, -1728204.8, 2151.2527, 0.045182314, 0.11718067, -1676336.6, 38596.117, 0.0, 10.0004015, 9.999716 
1.405024e+3, 1.3500741e+2, -1581711.6, -1631860.1, 1704.1078, 0.03980904, 0.096524894, -1581653.8, 35282.566, 0.0, 10.00038, 9.999715 
1.405024e+3, 1.4500682e+2, -1497359.4, -1558314.1, 2405.9805, 0.03693802, 0.073292874, -1497264.6, 21675.984, 0.0, 10.000363, 9.999555 
1.405024e+3, 1.5500613e+2, -1401004.6, -1461168.0, 2187.3203, 0.03656509, 0.047253132, -1400925.1, 20020.314, 0.0, 10.000352, 9.999555 
1.405024e+3, 1.6500542e+2, -1323613.8, -1404893.8, 2502.9453, 0.036735203, 0.036062725, -1323536.8, -585.64954, 0.0, 10.000347, 9.99927 
1.4050241e+3, 1.7500474e+2, -1225340.5, -1306810.1, 2435.8997, 0.037447102, 0.03949131, -1225267.8, -310.0522, 0.0, 10.000349, 9.9992695 
1.4050241e+3, 1.8500389e+2, -1151691.0, -1260084.1, 2333.0012, 0.038181186, 0.047590308, -1151640.8, -24674.61, 0.0, 10.000353, 9.998917 
1.4050241e+3, 1.9500294e+2, -1053089.9, -1161835.1, 2356.7566, 0.038937375, 0.060172934, -1053038.9, -24062.172, 0.0, 10.000357, 9.998916 
1.4050242e+3, 2.0500186e+2, -956819.3, -1068428.3, 1918.6312, 0.039690714, 0.062008, -956786.3, -25798.818, 0.0, 10.000361, 9.998882 
1.4050242e+3, 2.1500066e+2, -858205.4, -970162.5, 1975.2626, 0.040441018, 0.052941956, -858170.5, -25171.854, 0.0, 10.000365, 9.998882 
1.4050242e+3, 2.2499944e+2, -755702.1, -863752.0, 1551.349, 0.041195173, 0.039928485, -755679.9, -20670.598, 0.0, 10.000369, 9.998938 
1.4050242e+3, 2.349982e+2, -657155.56, -765483.9, 1619.4788, 0.04195302, 0.02278741, -657131.4, -20112.076, 0.0, 10.000373, 9.998938 
1.4050242e+3, 2.449969e+2, -559352.5, -668310.2, 661.4716, 0.04253085, 0.00030851577, -559348.5, -20318.6, 0.0, 10.000375, 9.998931 
1.4050242e+3, 2.5499555e+2, -461348.53, -570271.4, 723.06647, 0.04292937, -0.02768891, -461343.72, -20302.762, 0.0, 10.000375, 9.998932 
1.4050242e+3, 2.6499432e+2, -350149.7, -444302.4, -294.6192, 0.042828284, -0.05507902, -350148.78, -7097.872, 0.0, 10.000372, 9.999125 
1.4050242e+3, 2.7499315e+2, -252796.45, -346552.13, -288.02563, 0.042227782, -0.08204584, -252795.56, -7735.864, 0.0, 10.000367, 9.9991255 
1.4050242e+3, 2.8499213e+2, -147541.9, -233142.84, -995.08276, 0.04215743, -0.10492746, -147530.34, -462.73904, 0.0, 10.000366, 9.999231 
1.4050241e+3, 2.9499114e+2, -49240.996, -134926.36, -1084.6908, 0.042618006, -0.12390013, -49227.266, -152.64589, 0.0, 10.000368, 9.999232 
1.4050241e+3, 3.0499035e+2, 19369.598, -46160.973, -1252.6553, 0.044317294, -0.14024338, 19393.533, 19393.533, 0.0, 10.000372, 9.999504 
1.4050241e+3, 3.1498975e+2, 20355.326, -45639.08, -1498.2708, 0.047258906, -0.1541396, 20389.324, 20389.324, 0.0, 10.000379, 9.999504 
1.4150244e+3, 1.2500797e+2, -1677244.4, -1729925.8, 1314.1929, 0.048425835, 0.11795225, -1677211.6, 37720.688, 0.0, 10.0004015, 9.999703 
1.4150243e+3, 1.3500746e+2, -1582531.6, -1633581.5, 867.00256, 0.04239519, 0.09725116, -1582516.9, 34419.06, 0.0, 10.00038, 9.999703 
1.4150243e+3, 1.4500687e+2, -1497755.5, -1559153.0, 1991.501, 0.039036423, 0.073872514, -1497691.0, 21249.354, 0.0, 10.000363, 9.999549 
1.4150243e+3, 1.5500616e+2, -1401402.6, -1462007.5, 1772.7605, 0.038345583, 0.047586393, -1401350.8, 19594.475, 0.0, 10.000352, 9.999549 
1.4150243e+3, 1.6500545e+2, -1323731.1, -1405147.9, 2582.2417, 0.0381631, 0.036207873, -1323649.4, -698.40155, 0.0, 10.000347, 9.999269 
1.4150244e+3, 1.7500475e+2, -1225459.8, -1307065.0, 2515.03, 0.038487982, 0.03950624, -1225382.4, -424.82938, 0.0, 10.000349, 9.999268 
1.4150244e+3, 1.8500392e+2, -1151643.3, -1259989.9, 2495.1018, 0.03891983, 0.047553074, -1151585.8, -24619.768, 0.0, 10.000353, 9.998917 
1.4150244e+3, 1.9500296e+2, -1053043.4, -1161741.4, 2518.8748, 0.03945845, 0.060161665, -1052985.0, -24008.502, 0.0, 10.000357, 9.998917 
1.4150245e+3, 2.0500188e+2, -956713.0, -1068209.0, 2082.3293, 0.04007521, 0.062054258, -956674.1, -25686.766, 0.0, 10.000361, 9.998884 
1.4150245e+3, 2.1500067e+2, -858099.56, -969943.5, 2139.0483, 0.04076986, 0.05307745, -858058.6, -25060.184, 0.0, 10.000365, 9.998883 
1.4150245e+3, 2.2499946e+2, -755575.5, -863489.06, 1692.1919, 0.041417778, 0.040171493, -755549.0, -20539.94, 0.0, 10.000369, 9.9989395 
1.4150247e+3, 2.3499823e+2, -657029.44, -765221.25, 1760.4214, 0.042018764, 0.023156263, -657000.8, -19981.768, 0.0, 10.000373, 9.9989395 
1.4150247e+3, 2.4499694e+2, -559237.94, -668071.5, 656.67706, 0.04253049, 0.00079873286, -559234.0, -20204.367, 0.0, 10.000375, 9.998933 
1.4150247e+3, 2.5499558e+2, -461233.66, -570032.56, 718.4031, 0.042953778, -0.027081821, -461228.94, -20188.246, 0.0, 10.000375, 9.998933 
1.4150247e+3, 2.6499435e+2, -350136.22, -444275.3, -471.6917, 0.042980608, -0.054412134, -350133.84, -7083.237, 0.0, 10.000372, 9.999125 
1.4150245e+3, 2.7499318e+2, -252782.03, -346524.94, -465.10132, 0.04261146, -0.08137613, -252779.72, -7720.319, 0.0, 10.000367, 9.9991255 
1.4150245e+3, 2.8499216e+2, -147706.34, -233488.9, -928.1979, 0.042759016, -0.10433974, -147696.3, -628.9744, 0.0, 10.000366, 9.999229 
1.4150244e+3, 2.949912e+2, -49404.594, -135272.45, -1017.771, 0.04342378, -0.12347935, -49392.53, -318.1609, 0.0, 10.000368, 9.99923 
1.4150244e+3, 3.0499038e+2, 18915.818, -47111.12, -1003.6221, 0.04544739, -0.13979818, 18931.07, 18931.07, 0.0, 10.000372, 9.999497 
1.4150244e+3, 3.1498975e+2, 19901.918, -46589.324, -1249.115, 0.04883288, -0.15347762, 19925.377, 19925.377, 0.0, 10.000379, 9.999497 
1.4250247e+3, 1.2500805e+2, -1670819.3, -1728212.3, 1255.3848, 0.05148958, 0.11865804, -1670791.9, 44139.84, 0.0, 10.000452, 9.999691 
1.4250247e+3, 1.3500752e+2, -1576985.8, -1632292.0, 769.4712, 0.045150943, 0.09805236, -1576975.0, 39960.5, 0.0, 10.000423, 9.999691 
1.4250247e+3, 1.4500691e+2, -1492769.4, -1557557.1, 2232.6204, 0.041512463, 0.0745946, -1492692.5, 26247.383, 0.0, 10.000401, 9.999542 
1.4250247e+3, 1.5500619e+2, -1397380.4, -1460876.3, 1907.019, 0.040570855, 0.04805641, -1397323.1, 23621.803, 0.0, 10.000383, 9.999541 
1.4250247e+3, 1.6500548e+2, -1320299.3, -1403798.5, 3136.249, 0.040036704, 0.036487352, -1320181.6, 2769.0747, 0.0, 10.000372, 9.999266 
1.4250247e+3, 1.7500478e+2, -1222875.5, -1306124.3, 2997.1775, 0.03990943, 0.03965632, -1222767.8, 2189.5603, 0.0, 10.000368, 9.999266 
1.4250247e+3, 1.8500394e+2, -1149500.3, -1258881.4, 3069.5393, 0.04000032, 0.047642283, -1149414.1, -22448.348, 0.0, 10.000367, 9.998918 
1.4250247e+3, 1.9500299e+2, -1051413.3, -1160880.0, 3096.3171, 0.04030904, 0.060258634, -1051325.8, -22349.436, 0.0, 10.000368, 9.998918 
1.4250249e+3, 2.050019e+2, -955342.2, -1067314.8, 2725.1138, 0.040774558, 0.062193606, -955275.9, -24288.822, 0.0, 10.00037, 9.998886 
1.4250249e+3, 2.150007e+2, -856932.94, -969147.7, 2825.9075, 0.041396555, 0.053293988, -856861.9, -23863.664, 0.0, 10.000373, 9.998885 
1.425025e+3, 2.249995e+2, -754565.5, -862712.44, 2410.7744, 0.041914944, 0.040483948, -754511.8, -19503.064, 0.0, 10.000375, 9.998942 
1.425025e+3, 2.3499826e+2, -656199.2, -764531.3, 2538.0325, 0.042329486, 0.02358339, -656139.75, -19121.016, 0.0, 10.000378, 9.998942 
1.425025e+3, 2.4499698e+2, -558463.5, -667452.0, 1378.5497, 0.04274787, 0.0013305743, -558446.06, -19416.803, 0.0, 10.00038, 9.998935 
1.425025e+3, 2.5499564e+2, -460336.47, -569354.0, 1482.4845, 0.04317098, -0.026455227, -460316.3, -19276.002, 0.0, 10.00038, 9.998936 
1.425025e+3, 2.6499438e+2, -349120.6, -443799.5, 171.10498, 0.04333776, -0.053735465, -349120.28, -6070.053, 0.0, 10.00038, 9.999125 
1.4250249e+3, 2.7499324e+2, -251326.55, -345837.75, 154.9576, 0.043248992, -0.0806939, -251326.3, -6267.284, 0.0, 10.000378, 9.9991255 
1.4250249e+3, 2.849922e+2, -146017.78, -233020.44, -101.49985, 0.043598212, -0.10374282, -146017.66, 1049.2972, 0.0, 10.00038, 9.999227 
1.4250249e+3, 2.9499125e+2, -47275.98, -134592.61, -243.16203, 0.044385556, -0.12305868, -47275.305, 1798.7354, 0.0, 10.000384, 9.999227 
1.4250247e+3, 3.049904e+2, 21172.584, -46712.54, -83.93831, 0.046497736, -0.13927718, 21172.688, 21172.688, 0.0, 10.00039, 9.999491 
1.4250247e+3, 3.1498978e+2, 22403.65, -46072.94, -300.19022, 0.049936816, -0.15257858, 22404.967, 22404.967, 0.0, 10.000399, 9.999492 
1.4350253e+3, 1.2500812e+2, -1671710.3, -1730083.3, 190.58513, 0.05437544, 0.11929868, -1671709.6, 43221.28, 0.0, 10.000452, 9.999679 
1.4350252e+3, 1.350076e+2, -1577876.9, -1634163.3, -295.25604, 0.048074782, 0.09892792, -1577875.4, 39059.58, 0.0, 10.000423, 9.999678 
1.4350252e+3, 1.4500697e+2, -1493362.5, -1558809.0, 1568.6342, 0.04436258, 0.075457916, -1493324.9, 25614.506, 0.0, 10.000401, 9.999534 
1.435025e+3, 1.5500623e+2, -1397974.5, -1462128.5, 1242.9899, 0.043236673, 0.048662, -1397950.4, 22994.092, 0.0, 10.000383, 9.999533 
1.435025e+3, 1.650055e+2, -1320546.9, -1404329.1, 2996.272, 0.042351734, 0.036899976, -1320439.9, 2510.4736, 0.0, 10.000372, 9.999262 
1.4350252e+3, 1.7500481e+2, -1223125.4, -1306655.8, 2857.063, 0.04170773, 0.03994035, -1223027.8, 1929.2023, 0.0, 10.000369, 9.999262 
1.4350252e+3, 1.8500397e+2, -1149443.8, -1258774.1, 3099.2175, 0.04141927, 0.04785681, -1149356.0, -22390.469, 0.0, 10.000367, 9.998919 
1.4350253e+3, 1.9500302e+2, -1051358.3, -1160773.4, 3125.9834, 0.041485853, 0.0604629, -1051269.0, -22293.008, 0.0, 10.000368, 9.998918 
1.4350253e+3, 2.0500194e+2, -955151.0, -1066923.8, 2836.4343, 0.04178559, 0.062425245, -955079.06, -24092.305, 0.0, 10.00037, 9.998889 
1.4350253e+3, 2.1500075e+2, -856742.5, -968757.0, 2937.277, 0.042318095, 0.053590912, -856665.5, -23667.678, 0.0, 10.000373, 9.998888 
1.4350253e+3, 2.2499953e+2, -754326.5, -862219.9, 2505.5173, 0.042683866, 0.0408653, -754268.3, -19259.975, 0.0, 10.000375, 9.998945 
1.4350253e+3, 2.349983e+2, -655960.9, -764039.25, 2632.8164, 0.04288266, 0.02406838, -655896.8, -18878.473, 0.0, 10.000378, 9.998945 
1.4350253e+3, 2.4499702e+2, -558268.3, -667049.2, 1406.0953, 0.043180723, 0.0019038031, -558250.2, -19221.361, 0.0, 10.00038, 9.998938 
1.4350253e+3, 2.549957e+2, -460141.1, -568951.25, 1510.1351, 0.043578964, -0.02580913, -460120.13, -19080.314, 0.0, 10.00038, 9.998938 
1.4350253e+3, 2.6499444e+2, -349147.44, -443859.47, 108.7376, 0.043897644, -0.05304892, -349147.3, -6097.5728, 0.0, 10.00038, 9.999125 
1.4350253e+3, 2.7499333e+2, -251352.34, -345897.75, 92.61822, 0.044137858, -0.0799991, -251352.27, -6293.7324, 0.0, 10.000378, 9.999125 
1.4350253e+3, 2.8499225e+2, -146277.6, -233567.45, 80.287865, 0.044672698, -0.10313661, -146277.52, 788.9794, 0.0, 10.00038, 9.999223 
1.4350253e+3, 2.9499128e+2, -47536.176, -135140.28, -61.355976, 0.04550183, -0.122637965, -47536.133, 1537.496, 0.0, 10.000384, 9.999223 
1.4350253e+3, 3.0499047e+2, 20772.064, -47550.39, 229.46376, 0.0474691, -0.13868095, 20772.836, 20772.836, 0.0, 10.000391, 9.999485 
1.4350253e+3, 3.1498984e+2, 22001.58, -46911.55, 13.40251, 0.05057522, -0.15144452, 22001.582, 22001.582, 0.0, 10.000399, 9.999486 
1.4450258e+3, 1.2500821e+2, -1665431.4, -1728439.9, 133.84428, 0.05685419, 0.119973294, -1665431.0, 49499.027, 0.0, 10.000501, 9.999666 
1.4450257e+3, 1.3500768e+2, -1571805.0, -1632620.4, -313.48322, 0.05093316, 0.0999335, -1571803.4, 45130.71, 0.0, 10.000471, 9.999665 
1.4450255e+3, 1.4500703e+2, -1487494.8, -1557055.3, 1883.9076, 0.047347277, 0.076510996, -1487443.8, 31494.973, 0.0, 10.000445, 9.999524 
1.4450255e+3, 1.550063e+2, -1392696.1, -1460659.0, 1485.482, 0.04609587, 0.049480777, -1392663.6, 28280.285, 0.0, 10.000424, 9.999523 
1.4450255e+3, 1.6500556e+2, -1315710.5, -1402515.9, 3638.146, 0.044873353, 0.037542727, -1315558.3, 7391.5894, 0.0, 10.000408, 9.999257 
1.4450255e+3, 1.7500485e+2, -1219282.0, -1305321.1, 3427.5232, 0.043680307, 0.040464953, -1219145.8, 5810.838, 0.0, 10.000398, 9.999257 
1.4450255e+3, 1.8500401e+2, -1146042.0, -1257074.5, 3846.3713, 0.04298884, 0.048299965, -1145908.9, -18943.832, 0.0, 10.00039, 9.998919 
1.4450257e+3, 1.9500306e+2, -1048572.56, -1159370.9, 3859.824, 0.042798303, 0.060861435, -1048438.25, -19462.7, 0.0, 10.000386, 9.998919 
1.4450257e+3, 2.0500198e+2, -952635.0, -1065373.0, 3703.3113, 0.042906996, 0.06281749, -952513.44, -21527.135, 0.0, 10.000385, 9.998892 
1.4450258e+3, 2.150008e+2, -854498.8, -967337.7, 3830.5461, 0.043314476, 0.05401551, -854368.94, -21371.531, 0.0, 10.000386, 9.998891 
1.4450258e+3, 2.2499959e+2, -752285.6, -860802.25, 3416.802, 0.04350952, 0.041340027, -752178.1, -17170.264, 0.0, 10.000387, 9.998949 
1.4450258e+3, 2.3499836e+2, -654174.0, -762744.1, 3582.2573, 0.043491915, 0.02461109, -654055.94, -17038.125, 0.0, 10.000388, 9.998949 
1.4450258e+3, 2.449971e+2, -556609.25, -665911.7, 2365.8765, 0.04366194, 0.00249461, -556558.06, -17529.844, 0.0, 10.000389, 9.99894 
1.4450258e+3, 2.5499576e+2, -458363.4, -567756.9, 2489.7183, 0.04402048, -0.025190054, -458306.78, -17267.563, 0.0, 10.000391, 9.998941 
1.4450258e+3, 2.649945e+2, -347318.8, -443070.16, 1046.0044, 0.04448858, -0.052408814, -347307.38, -4258.2583, 0.0, 10.000392, 9.999124 
1.4450258e+3, 2.749934e+2, -249001.95, -344857.75, 1000.2118, 0.045067567, -0.07934492, -248991.52, -3933.5952, 0.0, 10.000394, 9.999124 
1.4450257e+3, 2.849923e+2, -143916.31, -232889.14, 1131.2732, 0.045755748, -0.102558345, -143901.94, 3163.9844, 0.0, 10.000398, 9.999218 
1.4450257e+3, 2.9499134e+2, -45216.703, -134482.67, 964.8383, 0.046552286, -0.122225665, -45206.273, 3866.838, 0.0, 10.0004015, 9.999219 
1.4450257e+3, 3.0499053e+2, 22755.965, -47080.75, 1355.4281, 0.04813715, -0.13803522, 22782.262, 22782.262, 0.0, 10.000406, 9.999481 
1.4450257e+3, 3.149899e+2, 23387.84, -46729.547, 1246.0743, 0.050509416, -0.15016466, 23409.977, 23409.977, 0.0, 10.00041, 9.999481 
1.4550264e+3, 1.2500833e+2, -1666253.6, -1730163.0, -983.9251, 0.05892996, 0.12068168, -1666238.5, 48690.63, 0.0, 10.000502, 9.999654 
1.4550261e+3, 1.3500778e+2, -1572626.1, -1634343.8, -1431.1254, 0.053726856, 0.10106799, -1572593.0, 44340.266, 0.0, 10.000471, 9.999654 
1.455026e+3, 1.4500712e+2, -1488224.3, -1558589.5, 1067.861, 0.050465357, 0.07775219, -1488208.0, 30729.979, 0.0, 10.000445, 9.999514 
1.455026e+3, 1.5500638e+2, -1393425.8, -1462193.4, 669.41394, 0.049146645, 0.050510827, -1393419.1, 27524.105, 0.0, 10.000424, 9.999513 
1.4550258e+3, 1.6500562e+2, -1316090.4, -1403322.5, 3241.4458, 0.0475996, 0.038413517, -1315970.1, 6979.2017, 0.0, 10.000408, 9.999252 
1.455026e+3, 1.7500491e+2, -1219664.3, -1306129.0, 3030.7551, 0.045825437, 0.041227926, -1219558.1, 5397.842, 0.0, 10.000398, 9.999251 
1.455026e+3, 1.8500407e+2, -1146009.6, -1257018.6, 3717.1833, 0.0447075, 0.04896964, -1145885.3, -18920.697, 0.0, 10.00039, 9.9989195 
1.455026e+3, 1.9500312e+2, -1048541.8, -1159315.6, 3730.5706, 0.04424498, 0.061452482, -1048416.3, -19441.275, 0.0, 10.000386, 9.998919 
1.455026e+3, 2.0500204e+2, -952394.2, -1064879.8, 3744.8674, 0.044137612, 0.06336891, -952269.6, -21283.83, 0.0, 10.000385, 9.998895 
1.4550261e+3, 2.1500085e+2, -854258.9, -966844.75, 3872.0554, 0.044384874, 0.05456669, -854125.9, -21129.072, 0.0, 10.000386, 9.998895 
1.4550261e+3, 2.2499965e+2, -751975.25, -860161.8, 3446.3503, 0.044391256, 0.041907378, -751865.56, -16858.33, 0.0, 10.000387, 9.998954 
1.4550261e+3, 2.3499845e+2, -653864.44, -762104.3, 3611.7322, 0.044156585, 0.025211146, -653744.06, -16726.895, 0.0, 10.000388, 9.998954 
1.4550261e+3, 2.4499717e+2, -556377.2, -665432.5, 2424.7847, 0.044190936, 0.0031030315, -556323.3, -17295.748, 0.0, 10.000389, 9.998944 
1.4550261e+3, 2.5499582e+2, -458131.2, -567277.8, 2548.643, 0.044495095, -0.024597507, -458071.7, -17033.193, 0.0, 10.000391, 9.998944 
1.4550261e+3, 2.649946e+2, -347400.94, -443245.16, 1119.6731, 0.045110196, -0.051814456, -347387.84, -4339.463, 0.0, 10.000392, 9.999123 
1.4550261e+3, 2.7499348e+2, -249083.16, -345032.94, 1073.935, 0.04603772, -0.07873073, -249071.14, -4013.9375, 0.0, 10.000394, 9.999123 
1.4550261e+3, 2.849924e+2, -144222.89, -233532.3, 1302.8611, 0.046847302, -0.102007546, -144203.89, 2861.3455, 0.0, 10.000398, 9.999214 
1.455026e+3, 2.949914e+2, -45524.93, -135127.08, 1136.3854, 0.047537617, -0.12182153, -45510.52, 3561.9697, 0.0, 10.0004015, 9.999214 
1.455026e+3, 3.049906e+2, 22550.57, -47507.547, 1514.2454, 0.048504867, -0.13734028, 22583.283, 22583.283, 0.0, 10.000406, 9.999478 
1.455026e+3, 3.1498995e+2, 23178.941, -47157.71, 1405.0516, 0.049746204, -0.14874013, 23206.998, 23206.998, 0.0, 10.00041, 9.999478 
1.4650269e+3, 1.2500845e+2, -1661162.0, -1728879.5, -777.7926, 0.060505524, 0.121488705, -1661153.1, 53774.832, 0.0, 10.000541, 9.999643 
1.4650266e+3, 1.350079e+2, -1567100.5, -1632852.1, -1121.161, 0.056241423, 0.10233358, -1567081.4, 49850.836, 0.0, 10.000514, 9.999643 
1.4650264e+3, 1.4500725e+2, -1482606.3, -1557093.1, 1638.5529, 0.05343202, 0.07916976, -1482570.1, 36366.82, 0.0, 10.000489, 9.999502 
1.4650264e+3, 1.5500647e+2, -1388007.6, -1460793.8, 1220.466, 0.052080404, 0.05177514, -1387987.1, 32955.258, 0.0, 10.000466, 9.999502 
1.4650264e+3, 1.6500573e+2, -1310968.8, -1401562.0, 4066.202, 0.050238706, 0.03956204, -1310786.6, 12161.935, 0.0, 10.000446, 9.999246 
1.4650264e+3, 1.75005e+2, -1215567.6, -1304862.8, 3799.0076, 0.047908712, 0.04229764, -1215406.3, 9548.998, 0.0, 10.000428, 9.999245 
1.4650264e+3, 1.8500414e+2, -1142338.1, -1255266.6, 4748.8394, 0.046369176, 0.04994101, -1142138.8, -15174.811, 0.0, 10.000416, 9.9989195 
1.4650264e+3, 1.9500321e+2, -1045563.0, -1157897.5, 4723.572, 0.04561916, 0.06230608, -1045364.7, -16390.309, 0.0, 10.000407, 9.998919 
1.4650264e+3, 2.0500211e+2, -949700.75, -1063222.4, 4928.0, 0.045264434, 0.06414164, -949487.25, -18502.107, 0.0, 10.000402, 9.9988985 
1.4650264e+3, 2.1500094e+2, -851916.8, -965356.75, 5043.3096, 0.04530442, 0.055295885, -851693.06, -18696.951, 0.0, 10.0004015, 9.998898 
1.4650264e+3, 2.2499974e+2, -749853.4, -858657.44, 4610.998, 0.045112733, 0.042605802, -749658.3, -14651.826, 0.0, 10.0004, 9.998958 
1.4650266e+3, 2.3499854e+2, -651985.44, -760717.2, 4770.468, 0.044689287, 0.025891695, -651776.5, -14760.18, 0.0, 10.000399, 9.998958 
1.4650266e+3, 2.4499726e+2, -554643.8, -664261.6, 3648.7964, 0.04460105, 0.0037392145, -554522.5, -15495.761, 0.0, 10.0004, 9.998947 
1.4650266e+3, 2.549959e+2, -456263.38, -566042.56, 3751.5647, 0.044848654, -0.024032032, -456135.34, -15097.688, 0.0, 10.000402, 9.998947 
1.4650266e+3, 2.6499468e+2, -345539.78, -442530.28, 2359.184, 0.04558189, -0.051269, -345482.44, -2434.9167, 0.0, 10.000406, 9.999121 
1.4650264e+3, 2.7499357e+2, -246721.81, -344077.84, 2282.6455, 0.04680224, -0.07815424, -246668.33, -1611.9781, 0.0, 10.000411, 9.999121 
1.4650264e+3, 2.849925e+2, -142067.94, -232973.95, 2463.2996, 0.04768135, -0.10146234, -142001.25, 5063.17, 0.0, 10.000414, 9.999209 
1.4650264e+3, 2.949915e+2, -43912.164, -134830.33, 2307.407, 0.048217505, -0.121369936, -43853.64, 5218.0894, 0.0, 10.000415, 9.99921 
1.4650264e+3, 3.0499068e+2, 23414.621, -47184.51, 2638.7676, 0.048403267, -0.13657247, 23513.111, 23513.111, 0.0, 10.000413, 9.999477 
1.4650264e+3, 3.1499004e+2, 22601.545, -47528.297, 2686.695, 0.04823384, -0.14724514, 22704.322, 22704.322, 0.0, 10.000407, 9.999477 
1.4750275e+3, 1.250086e+2, -1661795.9, -1730202.5, -1781.8091, 0.061585955, 0.12239352, -1661749.5, 53177.113, 0.0, 10.000541, 9.999635 
1.4750272e+3, 1.3500804e+2, -1567732.3, -1634175.5, -2125.065, 0.058479797, 0.10372919, -1567664.4, 49266.547, 0.0, 10.000515, 9.999634 
1.475027e+3, 1.4500737e+2, -1483375.9, -1558705.1, 771.6699, 0.05624894, 0.08076221, -1483368.0, 35567.88, 0.0, 10.000489, 9.999492 
1.4750269e+3, 1.5500659e+2, -1388776.8, -1462405.9, 353.59647, 0.05489847, 0.053271614, -1388775.1, 32166.328, 0.0, 10.000466, 9.999491 
1.4750269e+3, 1.6500583e+2, -1311456.4, -1402588.8, 3404.689, 0.052791666, 0.040985744, -1311329.4, 11618.265, 0.0, 10.000446, 9.999238 
1.4750269e+3, 1.750051e+2, -1216057.4, -1305890.8, 3137.55, 0.049930792, 0.043671243, -1215947.9, 9006.512, 0.0, 10.000428, 9.999238 
1.4750269e+3, 1.8500426e+2, -1142379.5, -1255361.4, 4441.1655, 0.047974423, 0.051211264, -1142205.3, -15242.116, 0.0, 10.000416, 9.998919 
1.4750269e+3, 1.950033e+2, -1045606.06, -1157993.0, 4415.7886, 0.046921533, 0.0634198, -1045432.8, -16459.271, 0.0, 10.000407, 9.998918 
1.4750269e+3, 2.0500223e+2, -949483.8, -1062775.9, 4879.534, 0.04628846, 0.06513367, -949274.06, -18289.781, 0.0, 10.000402, 9.998901 
1.4750269e+3, 2.1500103e+2, -851701.0, -964910.8, 4994.669, 0.04607458, 0.05620153, -851481.06, -18485.844, 0.0, 10.0004015, 9.998901 
1.4750269e+3, 2.2499985e+2, -749555.94, -858040.75, 4578.4536, 0.045675512, 0.043434206, -749363.06, -14357.4375, 0.0, 10.0004, 9.998962 
1.4750269e+3, 2.3499864e+2, -651688.5, -760101.0, 4737.7095, 0.04509128, 0.02665217, -651481.9, -14466.484, 0.0, 10.000399, 9.998962 
1.4750269e+3, 2.4499738e+2, -554452.7, -663864.94, 3743.3694, 0.044893395, 0.004403136, -554324.75, -15299.02, 0.0, 10.0004, 9.99895 
1.4750269e+3, 2.5499606e+2, -456072.16, -565646.25, 3846.022, 0.04508231, -0.02349309, -455937.34, -14900.703, 0.0, 10.000402, 9.99895 
1.4750269e+3, 2.649948e+2, -345681.25, -442825.7, 2563.4646, 0.04590514, -0.050771687, -345613.66, -2567.1416, 0.0, 10.000406, 9.999119 
1.4750269e+3, 2.7499366e+2, -246862.89, -344373.72, 2486.993, 0.047363248, -0.07761482, -246799.5, -1744.1571, 0.0, 10.000411, 9.999119 
1.4750269e+3, 2.8499258e+2, -142357.61, -233577.1, 2494.8367, 0.048260562, -0.10092243, -142289.44, 4774.0215, 0.0, 10.000414, 9.999206 
1.4750269e+3, 2.9499158e+2, -44204.5, -135435.14, 2338.836, 0.048595097, -0.12087114, -44144.58, 4926.254, 0.0, 10.000415, 9.999207 
1.4750269e+3, 3.049908e+2, 23496.7, -47005.523, 2423.7957, 0.047837034, -0.13573225, 23579.928, 23579.928, 0.0, 10.000413, 9.999478 
1.4750269e+3, 3.1499016e+2, 22678.781, -47351.004, 2471.7268, 0.045979574, -0.14568003, 22765.914, 22765.914, 0.0, 10.000407, 9.999478 
1.485028e+3, 1.2500876e+2, -1658656.0, -1729482.9, -1125.045, 0.06220939, 0.123421125, -1658638.1, 56287.02, 0.0, 10.0005665, 9.999628 
1.4850277e+3, 1.3500822e+2, -1563748.3, -1633050.3, -1319.165, 0.060291123, 0.10521897, -1563723.1, 53206.316, 0.0, 10.0005455, 9.999627 
1.4850275e+3, 1.4500754e+2, -1479143.9, -1557828.6, 1719.442, 0.058660485, 0.08247922, -1479106.4, 39828.094, 0.0, 10.000524, 9.999481 
1.4850275e+3, 1.5500675e+2, -1384431.8, -1461475.5, 1352.9633, 0.057324216, 0.0549817, -1384408.0, 36532.152, 0.0, 10.000502, 9.99948 
1.4850274e+3, 1.6500598e+2, -1307275.4, -1401394.8, 4496.859, 0.055007983, 0.042688657, -1307061.0, 15885.4, 0.0, 10.000479, 9.999231 
1.4850274e+3, 1.7500523e+2, -1212748.0, -1305117.4, 4210.0503, 0.05171432, 0.0453661, -1212556.5, 12396.85, 0.0, 10.000455, 9.99923 
1.4850272e+3, 1.8500438e+2, -1139440.3, -1254112.0, 5850.2344, 0.049387127, 0.052810468, -1139142.6, -12180.564, 0.0, 10.000437, 9.998917 
1.4850272e+3, 1.9500342e+2, -1043357.8, -1157076.6, 5763.085, 0.048025336, 0.06483573, -1043066.5, -14093.962, 0.0, 10.000423, 9.998917 
1.4850274e+3, 2.0500235e+2, -947524.8, -1061578.9, 6461.658, 0.04708851, 0.06639356, -947159.9, -16176.648, 0.0, 10.000415, 9.998903 
1.4850274e+3, 2.1500117e+2, -850156.8, -963913.6, 6517.3193, 0.046575986, 0.057333164, -849784.6, -16790.504, 0.0, 10.00041, 9.998903 
1.4850274e+3, 2.2499996e+2, -748209.44, -857010.44, 6092.6216, 0.045968976, 0.04444086, -747869.3, -12864.832, 0.0, 10.000407, 9.998966 
1.4850274e+3, 2.3499876e+2, -650483.8, -759139.3, 6190.4063, 0.04526763, 0.027537325, -650132.3, -13118.045, 0.0, 10.000405, 9.998966 
1.4850274e+3, 2.449975e+2, -553356.3, -663136.06, 5296.416, 0.04498236, 0.005141779, -553101.4, -14076.776, 0.0, 10.000406, 9.998952 
1.4850274e+3, 2.5499618e+2, -454824.72, -564845.0, 5329.6265, 0.045113374, -0.0229257, -454567.16, -13531.703, 0.0, 10.00041, 9.998952 
1.4850274e+3, 2.6499492e+2, -344490.13, -442512.5, 4132.324, 0.04596049, -0.050263375, -344316.25, -1270.914, 0.0, 10.000415, 9.999116 
1.4850274e+3, 2.7499378e+2, -245358.53, -343910.34, 4033.625, 0.047524747, -0.07705307, -245193.72, -139.52936, 0.0, 10.0004225, 9.999117 
1.4850274e+3, 2.849927e+2, -141243.89, -233430.17, 3719.2495, 0.048365388, -0.100314744, -141094.08, 5968.251, 0.0, 10.000423, 9.999202 
1.4850274e+3, 2.949917e+2, -44026.086, -135739.02, 3612.6025, 0.04848034, -0.120225035, -43884.004, 5185.751, 0.0, 10.000418, 9.999203 
1.4850272e+3, 3.0499092e+2, 22678.707, -47016.96, 3414.3862, 0.046737194, -0.13475622, 22845.576, 22845.576, 0.0, 10.000405, 9.999482 
1.4850272e+3, 3.1499028e+2, 19834.28, -48337.523, 3624.6553, 0.04312739, -0.14408201, 20026.457, 20026.457, 0.0, 10.000385, 9.999482 
1.4950286e+3, 1.2500896e+2, -1659018.1, -1730230.9, -1908.7628, 0.06238042, 0.12457036, -1658967.0, 55956.355, 0.0, 10.0005665, 9.999622 
1.4950283e+3, 1.350084e+2, -1564108.3, -1633798.6, -2102.8025, 0.061679877, 0.10680227, -1564044.9, 52882.926, 0.0, 10.0005455, 9.999621 
1.4950281e+3, 1.4500771e+2, -1479823.5, -1559243.4, 883.04425, 0.06067098, 0.084319904, -1479813.8, 39119.094, 0.0, 10.000524, 9.999471 
1.495028e+3, 1.5500692e+2, -1385110.5, -1462890.5, 516.6632, 0.05936184, 0.056903556, -1385107.0, 35831.586, 0.0, 10.000502, 9.999471 
1.4950278e+3, 1.6500613e+2, -1307805.0, -1402500.5, 3610.478, 0.056891236, 0.044668235, -1307667.5, 15277.446, 0.0, 10.000479, 9.999224 
1.4950277e+3, 1.7500539e+2, -1213278.9, -1306224.4, 3323.8867, 0.05326179, 0.047379244, -1213160.1, 11791.771, 0.0, 10.000455, 9.999223 
1.4950277e+3, 1.8500453e+2, -1139600.5, -1254447.8, 5364.6543, 0.050609253, 0.054735556, -1139350.5, -12389.747, 0.0, 10.000437, 9.998915 
1.4950277e+3, 1.9500357e+2, -1043519.4, -1157413.0, 5277.3926, 0.048932582, 0.06655105, -1043275.3, -14304.1045, 0.0, 10.000423, 9.998914 
1.4950277e+3, 2.0500249e+2, -947421.75, -1061364.0, 6306.854, 0.047666833, 0.06791886, -947073.7, -16091.767, 0.0, 10.000415, 9.998905 
1.4950277e+3, 2.150013e+2, -850054.9, -963699.25, 6362.2197, 0.04681134, 0.058688764, -849699.8, -16706.967, 0.0, 10.00041, 9.998904 
1.4950277e+3, 2.2500011e+2, -748029.3, -856632.8, 6024.4624, 0.04599584, 0.045624226, -747696.1, -12692.958, 0.0, 10.000407, 9.998968 
1.4950278e+3, 2.349989e+2, -650303.8, -758761.9, 6121.9004, 0.04522059, 0.028546175, -649959.4, -12946.474, 0.0, 10.000405, 9.998968 
1.4950278e+3, 2.4499765e+2, -553297.1, -663009.75, 5431.236, 0.044869952, 0.0059546786, -553028.94, -14005.715, 0.0, 10.000406, 9.998953 
1.4950278e+3, 2.549963e+2, -454765.53, -564718.9, 5464.1885, 0.04494387, -0.022329852, -454494.66, -13460.548, 0.0, 10.00041, 9.998953 
1.4950278e+3, 2.649951e+2, -344676.16, -442895.66, 4418.941, 0.045750678, -0.049743887, -344477.75, -1433.7715, 0.0, 10.000415, 9.999114 
1.4950278e+3, 2.7499393e+2, -245545.22, -344294.47, 4320.2876, 0.047290917, -0.07646892, -245356.56, -303.70566, 0.0, 10.0004225, 9.999114 
1.4950277e+3, 2.8499287e+2, -141445.98, -233843.64, 3508.7837, 0.048000798, -0.09963971, -141312.92, 5748.1025, 0.0, 10.000423, 9.999199 
1.4950277e+3, 2.9499185e+2, -44231.36, -136154.33, 3401.994, 0.047878366, -0.11943286, -44105.625, 4962.872, 0.0, 10.000418, 9.9992 
1.4950275e+3, 3.0499107e+2, 23057.861, -46211.496, 2673.7034, 0.04510911, -0.13364546, 23160.91, 23160.91, 0.0, 10.000405, 9.999487 
1.4950275e+3, 3.1499046e+2, 20208.387, -47533.645, 2883.7175, 0.03968295, -0.14245093, 20330.922, 20330.922, 0.0, 10.000385, 9.999488 
1.505029e+3, 1.2500916e+2, -1658240.4, -1730166.8, -727.31934, 0.062226478, 0.1258303, -1658233.0, 56688.426, 0.0, 10.000573, 9.9996195 
1.5050289e+3, 1.350086e+2, -1562414.0, -1633294.1, -746.14905, 0.06257294, 0.10843431, -1562406.1, 54519.69, 0.0, 10.000558, 9.999619 
1.5050288e+3, 1.4500794e+2, -1477867.0, -1559185.9, 2264.7634, 0.062101275, 0.086228326, -1477804.0, 41126.906, 0.0, 10.000541, 9.999463 
1.5050285e+3, 1.5500712e+2, -1382827.5, -1462676.8, 2032.8452, 0.060820248, 0.0589927, -1382775.8, 38161.016, 0.0, 10.000521, 9.999463 
1.5050283e+3, 1.6500635e+2, -1305545.6, -1402208.8, 5055.355, 0.05827479, 0.046886213, -1305282.0, 17661.213, 0.0, 10.000498, 9.999216 
1.5050282e+3, 1.7500558e+2, -1211506.6, -1306168.3, 4804.5073, 0.05446736, 0.049673326, -1211263.5, 13686.827, 0.0, 10.00047, 9.999216 
1.5050282e+3, 1.8500471e+2, -1138078.8, -1254079.0, 7218.7583, 0.0515757, 0.056964267, -1137631.3, -10672.135, 0.0, 10.000448, 9.998911 
1.505028e+3, 1.9500375e+2, -1042556.06, -1157313.4, 7060.608, 0.04959889, 0.068572685, -1042123.25, -13153.613, 0.0, 10.000432, 9.998911 
1.505028e+3, 2.0500267e+2, -946711.44, -1061009.3, 8352.545, 0.047998384, 0.06973522, -946104.25, -15123.887, 0.0, 10.00042, 9.998905 
1.5050282e+3, 2.1500148e+2, -849765.4, -963547.06, 8305.776, 0.04677353, 0.06030234, -849162.25, -16170.975, 0.0, 10.000413, 9.998905 
1.5050282e+3, 2.2500029e+2, -747877.3, -856440.94, 8003.2056, 0.045754172, 0.0470282, -747290.5, -12288.936, 0.0, 10.000408, 9.998969 
1.5050282e+3, 2.3499909e+2, -650139.2, -758564.1, 7985.319, 0.044940647, 0.029734025, -649554.25, -12542.947, 0.0, 10.000406, 9.998969 
1.5050282e+3, 2.4499781e+2, -553178.7, -663018.9, 7400.5483, 0.044538017, 0.006916355, -552682.3, -13660.711, 0.0, 10.000407, 9.998952 
1.5050282e+3, 2.5499648e+2, -454521.38, -564667.9, 7323.674, 0.044545952, -0.021603977, -454036.56, -13004.056, 0.0, 10.000412, 9.998952 
1.5050282e+3, 2.6499525e+2, -344545.6, -443137.63, 6348.247, 0.04521518, -0.049101654, -344138.53, -1096.1144, 0.0, 10.000418, 9.999111 
1.5050282e+3, 2.7499408e+2, -245470.13, -344563.88, 6241.925, 0.046545595, -0.07575794, -245078.48, -27.171618, 0.0, 10.000424, 9.999111 
1.5050282e+3, 2.8499302e+2, -141893.05, -234249.53, 4830.4756, 0.04703656, -0.098794326, -141641.1, 5418.4253, 0.0, 10.000422, 9.999198 
1.505028e+3, 2.94992e+2, -45812.426, -137106.58, 4807.295, 0.04668642, -0.118387416, -45559.984, 3507.0188, 0.0, 10.000408, 9.999198 
1.505028e+3, 3.0499122e+2, 20451.281, -46665.734, 3515.9219, 0.042989593, -0.13232273, 20634.96, 20634.96, 0.0, 10.000384, 9.999495 
1.5050279e+3, 3.1499064e+2, 15441.037, -49027.47, 3844.5737, 0.035934906, -0.14077385, 15669.498, 15669.498, 0.0, 10.000349, 9.999495 
1.5150297e+3, 1.250094e+2, -1658282.8, -1730238.9, -1272.005, 0.06175062, 0.12719978, -1658260.4, 56658.938, 0.0, 10.000573, 9.9996195 
1.5150294e+3, 1.3500886e+2, -1562454.8, -1633366.6, -1290.7152, 0.062975496, 0.11011498, -1562431.3, 54492.3, 0.0, 10.000558, 9.999619 
1.5150292e+3, 1.4500818e+2, -1478304.0, -1560083.4, 1514.2345, 0.062957585, 0.08820423, -1478276.0, 40652.777, 0.0, 10.000541, 9.999457 
1.515029e+3, 1.5500735e+2, -1383263.4, -1463574.5, 1282.5657, 0.06170565, 0.06124783, -1383242.9, 37691.78, 0.0, 10.000521, 9.999456 
1.5150288e+3, 1.6500658e+2, -1306016.1, -1403180.0, 4043.926, 0.059163984, 0.04934054, -1305848.1, 17093.045, 0.0, 10.000498, 9.999209 
1.5150286e+3, 1.7500581e+2, -1211977.1, -1307140.8, 3793.4617, 0.055334624, 0.05224586, -1211826.1, 13122.107, 0.0, 10.00047, 9.999209 
1.5150286e+3, 1.8500495e+2, -1138375.9, -1254691.9, 6589.6216, 0.052289106, 0.059493855, -1138003.8, -11046.596, 0.0, 10.000448, 9.998907 
1.5150286e+3, 1.9500397e+2, -1042853.75, -1157926.4, 6431.417, 0.05002673, 0.07089784, -1042495.4, -13527.653, 0.0, 10.000432, 9.998907 
1.5150286e+3, 2.0500289e+2, -946802.06, -1061191.4, 8089.8975, 0.048085656, 0.07183999, -946232.75, -15254.277, 0.0, 10.00042, 9.998904 
1.5150286e+3, 2.1500169e+2, -849856.9, -963729.4, 8042.763, 0.04646532, 0.062171567, -849291.6, -16302.18, 0.0, 10.000412, 9.998903 
1.5150286e+3, 2.2500049e+2, -747915.0, -856511.0, 7939.6987, 0.045246687, 0.048650827, -747337.56, -12337.836, 0.0, 10.000408, 9.998969 
1.5150286e+3, 2.3499928e+2, -650176.56, -758634.1, 7921.3833, 0.044430137, 0.031099359, -649601.06, -12591.612, 0.0, 10.000406, 9.998969 
1.5150286e+3, 2.4499802e+2, -553326.7, -663318.75, 7569.287, 0.04398876, 0.008025599, -552808.2, -13788.415, 0.0, 10.000407, 9.99895 
1.5150286e+3, 2.549967e+2, -454669.7, -564968.25, 7492.058, 0.04392195, -0.020749109, -454163.1, -13132.394, 0.0, 10.000412, 9.99895 
1.5150286e+3, 2.6499543e+2, -344749.44, -443552.06, 6621.7534, 0.044357385, -0.048337646, -344307.63, -1266.9873, 0.0, 10.000418, 9.999108 
1.5150286e+3, 2.7499425e+2, -245676.06, -344980.03, 6515.4116, 0.045294207, -0.07492113, -245250.39, -200.8329, 0.0, 10.000424, 9.999108 
1.5150286e+3, 2.849932e+2, -141944.34, -234340.81, 4326.5747, 0.04547904, -0.097780064, -141742.19, 5315.5947, 0.0, 10.000422, 9.999197 
1.5150286e+3, 2.949922e+2, -45866.73, -137199.58, 4303.27, 0.044910733, -0.11709104, -45664.42, 3400.8528, 0.0, 10.000408, 9.999198 
1.5150283e+3, 3.0499142e+2, 21047.521, -45401.695, 2214.7642, 0.040383577, -0.13078989, 21121.258, 21121.258, 0.0, 10.000383, 9.999503 
1.5150282e+3, 3.1499085e+2, 16033.447, -47764.363, 2542.8757, 0.03188576, -0.13905069, 16134.642, 16134.642, 0.0, 10.000349, 9.999504 
1.5250303e+3, 1.2500967e+2, -1659964.6, -1730822.1, 390.81522, 0.06111157, 0.12865828, -1659962.4, 54954.35, 0.0, 10.00056, 9.999621 
1.52503e+3, 1.3500912e+2, -1563488.3, -1633638.1, 558.68384, 0.062891886, 0.111826815, -1563483.8, 53437.344, 0.0, 10.00055, 9.99962 
1.5250298e+3, 1.4500846e+2, -1479162.5, -1560863.3, 3331.2935, 0.06316542, 0.09021744, -1479026.9, 39899.37, 0.0, 10.000537, 9.999454 
1.5250295e+3, 1.5500763e+2, -1383678.5, -1464141.8, 3313.861, 0.061939918, 0.06361022, -1383542.3, 37389.914, 0.0, 10.00052, 9.999454 
1.5250292e+3, 1.6500685e+2, -1306302.1, -1403914.8, 5925.6865, 0.05949014, 0.051954087, -1305943.8, 16994.963, 0.0, 10.000498, 9.999205 
1.5250292e+3, 1.7500609e+2, -1212161.8, -1307828.0, 5774.09, 0.05581745, 0.055011414, -1211814.6, 13131.3125, 0.0, 10.000472, 9.999204 
1.5250291e+3, 1.850052e+2, -1138618.6, -1255364.9, 8923.712, 0.052728433, 0.062250957, -1137940.5, -10985.722, 0.0, 10.000449, 9.998902 
1.5250291e+3, 1.9500422e+2, -1043367.75, -1158730.1, 8707.728, 0.0502227, 0.07348554, -1042714.2, -13748.734, 0.0, 10.00043, 9.998901 
1.525029e+3, 2.0500313e+2, -947475.9, -1061844.9, 10632.1455, 0.047966614, 0.0742188, -946495.9, -15519.601, 0.0, 10.000417, 9.9989 
1.525029e+3, 2.1500194e+2, -850863.7, -964543.0, 10457.529, 0.045959745, 0.06430299, -849909.7, -16922.48, 0.0, 10.000407, 9.9989 
1.525029e+3, 2.2500074e+2, -748977.4, -857303.75, 10478.747, 0.044548567, 0.050519686, -747973.0, -12975.475, 0.0, 10.0004015, 9.998966 
1.525029e+3, 2.3499952e+2, -651076.7, -759348.75, 10307.183, 0.043733437, 0.03269094, -650104.25, -13096.917, 0.0, 10.0004015, 9.998966 
1.525029e+3, 2.4499825e+2, -554217.06, -664165.8, 10030.634, 0.04324049, 0.00936336, -553309.5, -14291.806, 0.0, 10.000403, 9.998946 
1.5250291e+3, 2.549969e+2, -455532.06, -565802.25, 9826.484, 0.04306889, -0.019641086, -454663.25, -13634.624, 0.0, 10.000407, 9.998946 
1.5250291e+3, 2.6499563e+2, -345792.22, -444359.4, 8928.436, 0.043162555, -0.047310013, -344989.97, -1951.3961, 0.0, 10.000412, 9.999105 
1.5250291e+3, 2.749945e+2, -247251.8, -346044.8, 8829.34, 0.043519873, -0.07382451, -246468.9, -1421.3678, 0.0, 10.000415, 9.999105 
1.525029e+3, 2.849934e+2, -144075.42, -235280.94, 5847.6226, 0.043321807, -0.09648192, -143702.03, 3353.728, 0.0, 10.000406, 9.999198 
1.525029e+3, 2.9499242e+2, -49067.363, -138655.0, 5926.0747, 0.04256784, -0.1154589, -48677.066, 386.1804, 0.0, 10.000385, 9.999198 
1.5250286e+3, 3.0499163e+2, 17029.63, -46299.99, 3021.1865, 0.037427753, -0.12897888, 17173.434, 17173.434, 0.0, 10.000352, 9.999513 
1.5250285e+3, 3.149911e+2, 10259.041, -49507.563, 3388.4814, 0.027889643, -0.1372167, 10450.538, 10450.538, 0.0, 10.000305, 9.999513 
1.5350308e+3, 1.2500997e+2, -1659666.0, -1730174.8, 15.338261, 0.060310427, 0.13020512, -1659666.0, 55248.023, 0.0, 10.00056, 9.999626 
1.5350305e+3, 1.3500942e+2, -1563189.1, -1632991.1, 183.51456, 0.062327128, 0.11356993, -1563188.6, 53729.656, 0.0, 10.00055, 9.999625 
1.5350303e+3, 1.4500876e+2, -1479208.8, -1560934.8, 2696.833, 0.062731735, 0.092268094, -1479119.9, 39803.484, 0.0, 10.000537, 9.999454 
1.53503e+3, 1.5500794e+2, -1383723.8, -1464213.8, 2679.8652, 0.061530057, 0.06607929, -1383634.6, 37294.75, 0.0, 10.00052, 9.999453 
1.5350299e+3, 1.6500716e+2, -1306597.0, -1404508.3, 4941.805, 0.059259303, 0.054725755, -1306348.1, 16587.717, 0.0, 10.000498, 9.999201 
1.5350297e+3, 1.7500639e+2, -1212454.9, -1308422.1, 4790.7275, 0.055919904, 0.05796853, -1212216.3, 12726.82, 0.0, 10.000472, 9.9992 
1.5350296e+3, 1.8500553e+2, -1139028.8, -1256204.4, 8225.316, 0.052896515, 0.06523373, -1138454.1, -11502.0625, 0.0, 10.000449, 9.998897 
1.5350294e+3, 1.9500454e+2, -1043777.06, -1159569.1, 8009.398, 0.050189156, 0.07633353, -1043225.7, -14262.916, 0.0, 10.00043, 9.998896 
1.5350294e+3, 2.0500344e+2, -947807.06, -1062521.9, 10284.222, 0.047643308, 0.07686924, -946892.4, -15918.723, 0.0, 10.000417, 9.998897 
1.5350294e+3, 2.1500222e+2, -851195.0, -965219.56, 10109.267, 0.045258723, 0.066694275, -850305.7, -17321.025, 0.0, 10.000407, 9.998896 
1.5350293e+3, 2.25001e+2, -749302.7, -857968.1, 10458.719, 0.043661673, 0.0526326, -748305.25, -13310.188, 0.0, 10.0004015, 9.998961 
1.5350294e+3, 2.3499979e+2, -651401.44, -760012.75, 10286.746, 0.042852376, 0.03450677, -650435.75, -13430.945, 0.0, 10.0004015, 9.998961 
1.5350294e+3, 2.449985e+2, -554603.4, -664957.5, 10208.1, 0.042295214, 0.010927598, -553667.0, -14651.764, 0.0, 10.000403, 9.99894 
1.5350294e+3, 2.5499716e+2, -455919.34, -566595.06, 10003.606, 0.041989133, -0.018282264, -455022.4, -13996.141, 0.0, 10.000407, 9.998941 
1.5350294e+3, 2.649959e+2, -345985.6, -444746.75, 9065.048, 0.041634243, -0.04602124, -345160.44, -2124.1716, 0.0, 10.000412, 9.999103 
1.5350294e+3, 2.7499476e+2, -247448.75, -346434.75, 8965.857, 0.04122819, -0.0724705, -246643.2, -1597.9607, 0.0, 10.000415, 9.999104 
1.5350293e+3, 2.8499368e+2, -143941.38, -234979.42, 5067.194, 0.0405713, -0.09490257, -143660.2, 3393.2534, 0.0, 10.000406, 9.9992 
1.5350293e+3, 2.949927e+2, -48935.42, -138354.86, 5145.5825, 0.039663766, -0.11349421, -48640.297, 420.61658, 0.0, 10.000385, 9.999201 
1.5350291e+3, 3.049919e+2, 17697.781, -44883.227, 1264.6945, 0.03412555, -0.1268922, 17723.328, 17723.328, 0.0, 10.000352, 9.999522 
1.5350287e+3, 3.1499135e+2, 10925.937, -48090.527, 1631.2262, 0.023945132, -0.13527246, 10970.989, 10970.989, 0.0, 10.000305, 9.999523 
1.5450314e+3, 1.250103e+2, -1663679.6, -1731322.0, 2021.4291, 0.05949728, 0.13183035, -1663619.4, 51291.652, 0.0, 10.000529, 9.999633 
1.545031e+3, 1.3500977e+2, -1567054.9, -1634067.5, 2379.6975, 0.061365552, 0.11535005, -1566970.5, 49944.67, 0.0, 10.00052, 9.999632 
1.5450308e+3, 1.4500912e+2, -1483028.0, -1562424.6, 4907.0054, 0.061711647, 0.09434025, -1482725.9, 36194.35, 0.0, 10.000508, 9.999456 
1.5450305e+3, 1.550083e+2, -1387053.5, -1465468.9, 5157.699, 0.06053842, 0.06857994, -1386715.6, 34210.42, 0.0, 10.000495, 9.999455 
1.5450303e+3, 1.6500752e+2, -1309642.6, -1406199.3, 7319.4155, 0.05852612, 0.057544976, -1309090.9, 13841.767, 0.0, 10.000478, 9.999198 
1.5450302e+3, 1.7500676e+2, -1214705.4, -1309731.4, 7321.1973, 0.05567412, 0.06099478, -1214144.6, 10795.194, 0.0, 10.000457, 9.999198 
1.5450299e+3, 1.8500587e+2, -1141077.9, -1257864.1, 11024.898, 0.052832015, 0.06832632, -1140046.3, -13097.325, 0.0, 10.000438, 9.998891 
1.5450299e+3, 1.9500487e+2, -1045656.56, -1161147.1, 10788.555, 0.050000302, 0.07935094, -1044657.4, -15697.726, 0.0, 10.000421, 9.99889 
1.5450297e+3, 2.0500377e+2, -949685.75, -1064134.8, 13301.688, 0.047232337, 0.07972707, -948160.06, -17189.51, 0.0, 10.000406, 9.99889 
1.5450297e+3, 2.1500255e+2, -853196.8, -966891.25, 12999.4, 0.044528104, 0.06930948, -851729.44, -18747.824, 0.0, 10.000396, 9.99889 
1.5450297e+3, 2.2500132e+2, -751266.1, -859660.3, 13582.584, 0.042755447, 0.054985236, -749590.0, -14597.912, 0.0, 10.000392, 9.998955 
1.5450297e+3, 2.350001e+2, -653115.5, -761584.25, 13250.879, 0.04191438, 0.036577515, -651520.2, -14518.199, 0.0, 10.000393, 9.998955 
1.5450297e+3, 2.4499881e+2, -556274.44, -666529.3, 13186.286, 0.041245986, 0.012786865, -554719.3, -15706.84, 0.0, 10.000395, 9.998934 
1.5450297e+3, 2.5499746e+2, -457728.03, -568233.44, 12873.972, 0.04074908, -0.016563257, -456248.03, -15224.485, 0.0, 10.000399, 9.998934 
1.5450297e+3, 2.6499617e+2, -348032.75, -445997.56, 11742.049, 0.039854992, -0.04434099, -346645.0, -3611.4124, 0.0, 10.000399, 9.999101 
1.5450297e+3, 2.7499503e+2, -250466.9, -348154.25, 11662.053, 0.038560815, -0.0707277, -249093.97, -4051.3655, 0.0, 10.000396, 9.999101 
1.5450297e+3, 2.8499395e+2, -147402.94, -236271.33, 6935.0195, 0.037402265, -0.09294005, -146865.0, 185.79192, 0.0, 10.0003805, 9.999203 
1.5450296e+3, 2.9499298e+2, -53116.69, -139993.72, 7105.427, 0.036380213, -0.111155026, -52539.395, -3481.1921, 0.0, 10.000355, 9.999204 
1.5450293e+3, 3.0499223e+2, 13127.116, -46068.887, 2248.9539, 0.030717451, -0.1244961, 13212.435, 13212.435, 0.0, 10.000316, 9.999532 
1.545029e+3, 3.1499168e+2, 5493.6274, -49690.242, 2561.4258, 0.02040323, -0.13314047, 5612.264, 5612.264, 0.0, 10.000263, 9.999532 
1.5550318e+3, 1.2501067e+2, -1663033.1, -1729941.9, 1684.968, 0.058671247, 0.13353284, -1662990.6, 51916.906, 0.0, 10.000529, 9.999642 
1.5550317e+3, 1.3501015e+2, -1566409.1, -1632687.9, 2043.8333, 0.060011003, 0.11716725, -1566346.1, 50565.516, 0.0, 10.00052, 9.999641 
1.5550312e+3, 1.4500949e+2, -1482583.8, -1561463.9, 4400.361, 0.060111333, 0.09643426, -1482339.0, 36577.625, 0.0, 10.000508, 9.999463 
1.555031e+3, 1.550087e+2, -1386608.1, -1464508.9, 4651.737, 0.05897114, 0.07111251, -1386331.4, 34591.086, 0.0, 10.000495, 9.999462 
1.5550308e+3, 1.6500792e+2, -1309660.5, -1406205.5, 6542.742, 0.057295904, 0.06041199, -1309219.1, 13709.9, 0.0, 10.000478, 9.999198 
1.5550305e+3, 1.7500715e+2, -1214719.6, -1309737.6, 6545.09, 0.055083726, 0.06409019, -1214270.9, 10665.27, 0.0, 10.000457, 9.999198 
1.5550303e+3, 1.8500628e+2, -1141530.3, -1258785.3, 10371.173, 0.052537277, 0.07152828, -1140620.0, -13674.767, 0.0, 10.000438, 9.998884 
1.5550303e+3, 1.9500527e+2, -1046106.56, -1162066.9, 10135.044, 0.049657613, 0.082536645, -1045227.44, -16271.35, 0.0, 10.000421, 9.998884 
1.5550302e+3, 2.0500416e+2, -950255.5, -1065305.4, 12922.504, 0.046734393, 0.082790665, -948821.94, -17854.848, 0.0, 10.000406, 9.998882 
1.5550302e+3, 2.1500292e+2, -853765.6, -968060.75, 12620.03, 0.04376789, 0.07214676, -852388.75, -19410.545, 0.0, 10.000396, 9.998881 
1.5550302e+3, 2.250017e+2, -751888.94, -860943.0, 13628.297, 0.041829787, 0.057575554, -750211.6, -15222.873, 0.0, 10.000392, 9.998946 
1.5550302e+3, 2.3500046e+2, -653737.44, -762865.8, 13296.337, 0.040919814, 0.0389009, -652140.75, -15142.028, 0.0, 10.000393, 9.998946 
1.5550302e+3, 2.4499916e+2, -556861.94, -667738.8, 13329.314, 0.040093742, 0.0149384085, -555282.06, -16272.756, 0.0, 10.000395, 9.998925 
1.5550302e+3, 2.549978e+2, -458317.0, -569443.75, 13016.819, 0.039350327, -0.0144876, -456812.63, -15792.163, 0.0, 10.000399, 9.998926 
1.5550302e+3, 2.6499653e+2, -348191.38, -446310.13, 11628.039, 0.037827402, -0.04227318, -346832.16, -3801.5786, 0.0, 10.000399, 9.999098 
1.5550302e+3, 2.7499536e+2, -250630.14, -348470.28, 11547.911, 0.035521694, -0.06859998, -249285.63, -4246.0273, 0.0, 10.000395, 9.999099 
1.55503e+3, 2.849943e+2, -147098.9, -235613.56, 5969.018, 0.03381911, -0.09059812, -146698.2, 349.58463, 0.0, 10.0003805, 9.9992075 
1.5550299e+3, 2.949933e+2, -52813.35, -139336.94, 6139.409, 0.032721117, -0.10844495, -52379.89, -3324.7698, 0.0, 10.000355, 9.999208 
1.5550296e+3, 3.0499256e+2, 13697.689, -44858.348, 269.60852, 0.027204154, -0.12179341, 13698.931, 13698.931, 0.0, 10.000316, 9.999539 
1.5550292e+3, 3.14992e+2, 6066.3564, -48477.83, 581.205, 0.017258601, -0.13082212, 6072.549, 6072.549, 0.0, 10.000263, 9.99954 
1.5650323e+3, 1.2501106e+2, -1669106.5, -1731528.0, 3843.809, 0.05793806, 0.13533549, -1668870.6, 46033.203, 0.0, 10.000482, 9.999655 
1.565032e+3, 1.3501056e+2, -1572863.8, -1634457.3, 4386.1973, 0.05841561, 0.11905634, -1572552.9, 44354.914, 0.0, 10.00047, 9.999654 
1.5650317e+3, 1.4500992e+2, -1489075.0, -1563437.8, 6919.9214, 0.058118496, 0.09855691, -1488436.5, 30476.174, 0.0, 10.000459, 9.999474 
1.5650316e+3, 1.5500914e+2, -1392560.9, -1466224.6, 7444.6265, 0.057040915, 0.07361553, -1391816.1, 29102.324, 0.0, 10.000449, 9.999473 
1.5650313e+3, 1.6500838e+2, -1315149.1, -1408573.9, 9416.529, 0.055766325, 0.06322237, -1314209.5, 8715.38, 0.0, 10.000439, 9.999201 
1.565031e+3, 1.7500761e+2, -1218723.0, -1311391.8, 9602.6875, 0.054291584, 0.06713263, -1217738.5, 7193.593, 0.0, 10.000428, 9.9992 
1.5650308e+3, 1.8500672e+2, -1144996.6, -1261110.0, 13563.572, 0.05214931, 0.07471095, -1143433.3, -16492.121, 0.0, 10.000417, 9.9988785 
1.5650307e+3, 1.9500571e+2, -1048817.1, -1164027.4, 13359.873, 0.04934109, 0.085766636, -1047288.2, -18336.184, 0.0, 10.000404, 9.998878 
1.5650307e+3, 2.0500459e+2, -952711.8, -1067527.3, 16322.237, 0.04637863, 0.08595425, -950436.5, -19473.44, 0.0, 10.000394, 9.998873 
1.5650305e+3, 2.1500336e+2, -855986.2, -970168.25, 15924.527, 0.04326254, 0.07513218, -853806.9, -20832.555, 0.0, 10.000385, 9.998873 
1.5650305e+3, 2.2500212e+2, -753950.94, -863106.3, 17249.35, 0.04118004, 0.060363945, -751289.94, -16304.985, 0.0, 10.000382, 9.998936 
1.5650305e+3, 2.3500086e+2, -655551.4, -764908.6, 16792.008, 0.040130567, 0.041474216, -653031.0, -16035.955, 0.0, 10.000385, 9.998936 
1.5650305e+3, 2.4499954e+2, -558618.25, -669589.0, 16757.33, 0.03907354, 0.017409166, -556143.0, -17137.31, 0.0, 10.000387, 9.998917 
1.5650305e+3, 2.5499818e+2, -460412.6, -571457.25, 16392.64, 0.03800777, -0.012005964, -458043.22, -17026.252, 0.0, 10.000388, 9.998917 
1.5650305e+3, 2.649969e+2, -350552.0, -447637.6, 14622.176, 0.03580756, -0.039756045, -348397.53, -5370.413, 0.0, 10.000383, 9.999097 
1.5650305e+3, 2.749957e+2, -254203.03, -350382.97, 14572.058, 0.032469586, -0.06602306, -252043.72, -7007.5557, 0.0, 10.000372, 9.999097 
1.5650304e+3, 2.8499466e+2, -150874.08, -236850.56, 8316.895, 0.03021871, -0.087844014, -150076.95, -3032.6233, 0.0, 10.000352, 9.999213 
1.5650302e+3, 2.949937e+2, -56750.586, -140652.75, 8533.515, 0.029056773, -0.10539673, -55891.457, -6839.8657, 0.0, 10.000325, 9.999213 
1.5650299e+3, 3.0499294e+2, 9929.49, -45950.633, 1664.9834, 0.023923496, -0.11882622, 9979.056, 9979.056, 0.0, 10.000287, 9.999546 
1.5650295e+3, 3.149924e+2, 2620.812, -49413.91, 1833.0677, 0.014810507, -0.12831268, 2685.3071, 2685.3071, 0.0, 10.0002365, 9.999547 
1.5750328e+3, 1.250115e+2, -1668123.9, -1729441.6, 3408.598, 0.057295408, 0.13723801, -1667935.0, 46964.863, 0.0, 10.000482, 9.999669 
1.5750325e+3, 1.35011e+2, -1571882.8, -1632371.6, 3951.9412, 0.056581195, 0.121016964, -1571625.6, 45277.996, 0.0, 10.000469, 9.999668 
1.5750322e+3, 1.4501038e+2, -1488127.9, -1561422.5, 6553.446, 0.055736873, 0.10070851, -1487546.5, 31361.846, 0.0, 10.000459, 9.999488 
1.5750319e+3, 1.5500961e+2, -1391612.6, -1464210.8, 7079.0435, 0.054751165, 0.07609008, -1390928.8, 29985.135, 0.0, 10.000449, 9.999487 
1.5750316e+3, 1.6500887e+2, -1314829.5, -1407871.3, 9025.733, 0.0539402, 0.065977626, -1313962.0, 8958.323, 0.0, 10.000439, 9.999206 
1.5750314e+3, 1.7500812e+2, -1218398.3, -1310688.9, 9212.364, 0.053299546, 0.0701236, -1217487.6, 7439.776, 0.0, 10.000428, 9.999206 
1.5750313e+3, 1.8500723e+2, -1145390.3, -1261906.8, 13105.903, 0.05166878, 0.07787546, -1143934.3, -16997.828, 0.0, 10.000417, 9.998873 
1.5750311e+3, 1.950062e+2, -1049206.4, -1164821.9, 12902.534, 0.049050048, 0.08904128, -1047784.0, -18836.557, 0.0, 10.000404, 9.998873 
1.575031e+3, 2.0500508e+2, -953457.25, -1069066.1, 16004.174, 0.046163034, 0.08921753, -951282.6, -20324.05, 0.0, 10.000394, 9.998862 
1.5750308e+3, 2.1500383e+2, -856729.06, -971705.0, 15606.539, 0.043008707, 0.078264825, -854648.4, -21678.414, 0.0, 10.000385, 9.998862 
1.5750308e+3, 2.2500257e+2, -754803.5, -864872.7, 17359.752, 0.040802613, 0.06334889, -752130.5, -17149.771, 0.0, 10.000382, 9.998924 
1.5750308e+3, 2.3500131e+2, -656403.5, -766674.5, 16902.438, 0.039543908, 0.04429529, -653870.9, -16879.96, 0.0, 10.000385, 9.998924 
1.5750308e+3, 2.4499999e+2, -559299.5, -670998.56, 16812.965, 0.03818354, 0.020196132, -556823.6, -17821.979, 0.0, 10.000387, 9.998907 
1.5750308e+3, 2.549986e+2, -461095.75, -572867.75, 16448.36, 0.036720455, -0.009122395, -458725.47, -17712.432, 0.0, 10.000388, 9.998907 
1.5750308e+3, 2.649973e+2, -350651.47, -447831.3, 14194.472, 0.033795036, -0.036794163, -348620.6, -5597.3564, 0.0, 10.000383, 9.999095 
1.5750308e+3, 2.7499616e+2, -254307.4, -350580.72, 14144.251, 0.029404193, -0.06300152, -252272.39, -7240.08, 0.0, 10.000372, 9.999096 
1.5750308e+3, 2.849951e+2, -150480.1, -236011.52, 7309.96, 0.026600776, -0.08468183, -149859.84, -2819.4092, 0.0, 10.000352, 9.999219 
1.5750305e+3, 2.9499415e+2, -56355.914, -139814.56, 7526.524, 0.025386758, -0.10201352, -55682.582, -6634.966, 0.0, 10.000325, 9.999219 
1.5750301e+3, 3.0499342e+2, 10241.159, -45290.414, -229.91266, 0.020872284, -0.1155968, 10242.111, 10242.111, 0.0, 10.000287, 9.999551 
1.5750296e+3, 3.1499285e+2, 2938.0354, -48750.15, -62.72448, 0.013050258, -0.12561353, 2938.1113, 2938.1113, 0.0, 10.0002365, 9.999551 
1.5850334e+3, 1.2501197e+2, -1675954.9, -1731364.1, 5524.27, 0.056759074, 0.13927884, -1675409.5, 39485.93, 0.0, 10.00042, 9.999685 
1.585033e+3, 1.350115e+2, -1580409.9, -1634629.0, 6229.392, 0.054677997, 0.123088874, -1579703.4, 37195.78, 0.0, 10.000403, 9.999684 
1.5850326e+3, 1.4501087e+2, -1496625.1, -1563629.1, 9272.639, 0.053233106, 0.1029042, -1495365.5, 23538.123, 0.0, 10.000392, 9.999504 
1.5850323e+3, 1.5501015e+2, -1399404.3, -1466078.9, 10020.062, 0.052407436, 0.078501955, -1397930.9, 22978.133, 0.0, 10.000387, 9.999504 
1.585032e+3, 1.650094e+2, -1321886.6, -1410453.4, 12324.302, 0.0521047, 0.068608254, -1320203.6, 2711.688, 0.0, 10.000387, 9.999213 
1.5850319e+3, 1.7500865e+2, -1223356.5, -1312261.5, 12691.885, 0.05231939, 0.07297234, -1221580.1, 3342.211, 0.0, 10.000391, 9.999212 
1.5850316e+3, 1.8500778e+2, -1149381.0, -1264309.9, 16567.605, 0.05128699, 0.08091222, -1147040.4, -20109.016, 0.0, 10.000392, 9.998869 
1.5850314e+3, 1.9500676e+2, -1051733.5, -1166519.5, 16448.984, 0.049010072, 0.09223458, -1049422.9, -20480.521, 0.0, 10.000389, 9.998868 
1.5850313e+3, 2.0500562e+2, -955348.4, -1071208.0, 19621.967, 0.0463533, 0.09245818, -952115.4, -21161.795, 0.0, 10.000386, 9.998851 
1.5850313e+3, 2.1500437e+2, -857868.06, -973483.6, 19190.01, 0.04331803, 0.081446104, -854766.1, -21801.068, 0.0, 10.000382, 9.998851 
1.5850313e+3, 2.250031e+2, -755597.7, -866688.7, 21255.291, 0.041029483, 0.06645981, -751669.75, -16693.783, 0.0, 10.000383, 9.998911 
1.5850313e+3, 2.3500182e+2, -657004.2, -768396.94, 20745.71, 0.03948667, 0.047325835, -653266.0, -16279.707, 0.0, 10.000387, 9.998911 
1.5850313e+3, 2.4500047e+2, -559818.7, -672296.25, 20493.95, 0.03774797, 0.023264924, -556200.94, -17203.781, 0.0, 10.000388, 9.998898 
1.5850313e+3, 2.5499907e+2, -462128.4, -574412.7, 20151.223, 0.035812564, -0.005895808, -458621.47, -17612.854, 0.0, 10.000385, 9.998898 
1.5850313e+3, 2.649978e+2, -351921.25, -448534.34, 17358.53, 0.032176293, -0.033461563, -348897.1, -5878.2417, 0.0, 10.000375, 9.999094 
1.5850312e+3, 2.7499664e+2, -256737.86, -351844.7, 17344.158, 0.026836611, -0.059615023, -253673.63, -8645.679, 0.0, 10.000355, 9.999095 
1.585031e+3, 2.849956e+2, -152838.58, -236547.03, 10140.551, 0.023510944, -0.08121768, -151627.66, -4591.62, 0.0, 10.000334, 9.999224 
1.5850307e+3, 2.9499462e+2, -58281.977, -140143.9, 10323.423, 0.022201069, -0.09844864, -57000.184, -7957.0337, 0.0, 10.00031, 9.999225 
1.5850304e+3, 3.049939e+2, 9018.954, -45702.813, 1690.216, 0.018425863, -0.112273686, 9071.111, 9071.111, 0.0, 10.0002775, 9.999553 
1.58503e+3, 3.1499335e+2, 3220.1748, -48437.27, 1633.427, 0.012179336, -0.12287644, 3271.7727, 3271.7727, 0.0, 10.000237, 9.999553 
1.5950337e+3, 1.2501247e+2, -1674677.1, -1728657.8, 4907.9707, 0.056326404, 0.14145654, -1674234.5, 40656.188, 0.0, 10.00042, 9.999704 
1.5950333e+3, 1.3501202e+2, -1579133.3, -1631922.6, 5614.451, 0.052705552, 0.1252712, -1578542.8, 38351.457, 0.0, 10.000402, 9.999703 
1.595033e+3, 1.4501143e+2, -1495269.1, -1560759.5, 9089.154, 0.050607454, 0.105144076, -1494031.0, 24867.506, 0.0, 10.000392, 9.999524 
1.5950327e+3, 1.5501072e+2, -1398046.1, -1463210.1, 9837.62, 0.050009243, 0.080852635, -1396593.4, 24310.422, 0.0, 10.000387, 9.999523 
1.5950325e+3, 1.6500998e+2, -1321230.8, -1409050.8, 12477.99, 0.050258983, 0.07111659, -1319492.3, 3417.612, 0.0, 10.000386, 9.999223 
1.5950322e+3, 1.7500925e+2, -1222694.5, -1310858.8, 12845.826, 0.051350284, 0.07568145, -1220861.0, 4055.788, 0.0, 10.000391, 9.999222 
1.5950319e+3, 1.8500838e+2, -1149615.4, -1264778.1, 16488.83, 0.051002257, 0.083823666, -1147301.0, -20375.2, 0.0, 10.000391, 9.998865 
1.5950319e+3, 1.9500735e+2, -1051961.3, -1166984.5, 16370.548, 0.04921774, 0.09534844, -1049676.8, -20739.914, 0.0, 10.000389, 9.998865 
1.5950318e+3, 2.0500621e+2, -956152.6, -1072877.8, 19498.08, 0.046944216, 0.095677376, -952981.75, -22033.629, 0.0, 10.000386, 9.998839 
1.5950318e+3, 2.1500495e+2, -858667.8, -975150.3, 19066.486, 0.044183433, 0.084676325, -855626.4, -22666.646, 0.0, 10.000382, 9.998839 
1.5950316e+3, 2.2500366e+2, -756539.7, -868653.9, 21415.256, 0.041853063, 0.069696054, -752588.3, -17617.629, 0.0, 10.000383, 9.998898 
1.5950316e+3, 2.3500237e+2, -657945.75, -770361.2, 20905.936, 0.03995218, 0.050564185, -654183.75, -17202.584, 0.0, 10.000387, 9.998898 
1.5950318e+3, 2.4500102e+2, -560451.0, -673616.56, 20415.969, 0.03776107, 0.026612984, -556880.44, -17888.266, 0.0, 10.000388, 9.998888 
1.5950318e+3, 2.549996e+2, -462762.56, -575733.25, 20073.48, 0.035279233, -0.0023294946, -459301.78, -18298.076, 0.0, 10.000385, 9.998889 
1.5950316e+3, 2.6499835e+2, -351945.66, -448584.56, 16629.586, 0.030946244, -0.02976188, -349164.1, -6150.1025, 0.0, 10.000375, 9.999094 
1.5950315e+3, 2.7499717e+2, -256767.2, -351900.78, 16615.0, 0.024760379, -0.055867136, -253948.9, -8925.826, 0.0, 10.000355, 9.999095 
1.5950313e+3, 2.8499612e+2, -152495.72, -235830.53, 9246.522, 0.020942343, -0.07745433, -151482.1, -4450.95, 0.0, 10.000334, 9.999229 
1.595031e+3, 2.949952e+2, -57938.727, -139430.92, 9429.005, 0.019493412, -0.09470338, -56861.977, -7823.782, 0.0, 10.00031, 9.999229 
1.5950306e+3, 3.049944e+2, 8927.154, -45902.336, 185.73979, 0.016576635, -0.1088571, 8927.784, 8927.784, 0.0, 10.0002775, 9.999551 
1.5950301e+3, 3.1499386e+2, 3136.5369, -48631.855, 128.05699, 0.012186803, -0.12010101, 3136.8535, 3136.8535, 0.0, 10.000237, 9.999552 
1.605034e+3, 1.2501301e+2, -1684143.4, -1730946.3, 6794.533, 0.05589128, 0.14375861, -1683176.9, 31708.744, 0.0, 10.000344, 9.999724 
1.6050337e+3, 1.3501257e+2, -1589179.4, -1634490.0, 7626.2104, 0.050782785, 0.12756155, -1587930.3, 28958.623, 0.0, 10.000324, 9.999723 
1.6050333e+3, 1.45012e+2, -1504988.0, -1563043.8, 11871.853, 0.048101723, 0.107425004, -1502654.1, 16238.889, 0.0, 10.000315, 9.999546 
1.605033e+3, 1.5501131e+2, -1406692.1, -1464978.8, 12744.955, 0.047819827, 0.08312753, -1404027.1, 16870.916, 0.0, 10.000318, 9.999545 
1.6050327e+3, 1.650106e+2, -1328753.4, -1411379.1, 16046.863, 0.048629206, 0.073469326, -1325746.4, -2842.369, 0.0, 10.000329, 9.999234 
1.6050325e+3, 1.7500989e+2, -1227666.0, -1311959.9, 16555.62, 0.050523046, 0.0781918, -1224531.0, 379.78497, 0.0, 10.000351, 9.999234 
1.6050324e+3, 1.8500902e+2, -1153131.8, -1266649.3, 20050.533, 0.050895516, 0.08652514, -1149694.4, -22774.576, 0.0, 10.000368, 9.998864 
1.6050322e+3, 1.95008e+2, -1053273.1, -1167793.1, 20051.42, 0.049749468, 0.09827295, -1049863.9, -20933.006, 0.0, 10.0003805, 9.998863 
1.6050321e+3, 2.0500685e+2, -956321.3, -1074177.5, 23107.754, 0.048014082, 0.09875728, -951952.6, -21010.422, 0.0, 10.00039, 9.998829 
1.6050321e+3, 2.1500558e+2, -857445.1, -975778.75, 22718.447, 0.045691468, 0.08784695, -853233.44, -20279.557, 0.0, 10.000397, 9.998829 
1.6050321e+3, 2.2500427e+2, -754687.1, -869215.2, 25230.5, 0.043379936, 0.07295441, -749375.25, -14410.254, 0.0, 10.000402, 9.998884 
1.6050321e+3, 2.3500298e+2, -655926.7, -770841.5, 24759.117, 0.041078955, 0.05390841, -650819.2, -13843.577, 0.0, 10.000407, 9.998884 
1.6050321e+3, 2.4500161e+2, -558273.56, -673454.0, 23998.11, 0.038395982, 0.030114537, -553473.5, -14486.841, 0.0, 10.000407, 9.99888 
1.6050321e+3, 2.550002e+2, -461143.13, -575837.75, 23741.607, 0.035330936, 0.0014017775, -456422.9, -15424.635, 0.0, 10.000401, 9.99888 
1.605032e+3, 2.6499894e+2, -350436.7, -447866.25, 19673.457, 0.030397505, -0.025913954, -346614.1, -3605.4832, 0.0, 10.000385, 9.999094 
1.6050318e+3, 2.7499777e+2, -256019.56, -351552.47, 19678.4, 0.02359491, -0.05201582, -252124.88, -7107.1733, 0.0, 10.0003605, 9.999094 
1.6050316e+3, 2.8499672e+2, -151444.27, -234973.56, 12306.713, 0.01935688, -0.07367399, -149668.8, -2643.06, 0.0, 10.0003395, 9.999232 
1.6050313e+3, 2.9499575e+2, -55978.15, -138140.36, 12354.033, 0.017683933, -0.09106921, -54160.777, -5128.0244, 0.0, 10.000321, 9.999232 
1.6050309e+3, 3.04995e+2, 11964.91, -45038.24, 2483.323, 0.015611637, -0.1056466, 12072.891, 12072.891, 0.0, 10.000301, 9.999546 
1.6050304e+3, 3.1499445e+2, 8603.022, -46597.227, 2128.576, 0.0131351575, -0.11759367, 8684.98, 8684.98, 0.0, 10.0002775, 9.999546 
1.6150345e+3, 1.2501359e+2, -1682640.1, -1727763.8, 6026.217, 0.055452336, 0.14618377, -1681849.1, 33031.047, 0.0, 10.000344, 9.999746 
1.6150339e+3, 1.3501316e+2, -1587675.5, -1631306.9, 6859.7173, 0.04890762, 0.12995906, -1586622.4, 30260.906, 0.0, 10.000324, 9.999745 
1.6150336e+3, 1.4501262e+2, -1503402.9, -1559696.6, 11965.717, 0.045712985, 0.10974704, -1500965.1, 17922.139, 0.0, 10.000315, 9.999569 
1.6150333e+3, 1.5501195e+2, -1405103.4, -1461631.8, 12839.99, 0.045835286, 0.085328214, -1402323.5, 18568.465, 0.0, 10.000318, 9.999568 
1.6150331e+3, 1.6501126e+2, -1327833.3, -1409430.0, 16861.492, 0.04721161, 0.07566912, -1324486.1, -1588.4613, 0.0, 10.000329, 9.999248 
1.615033e+3, 1.7501056e+2, -1226739.6, -1310010.8, 17370.197, 0.049835164, 0.08050661, -1223261.5, 1642.9376, 0.0, 10.000351, 9.999248 
1.6150327e+3, 1.850097e+2, -1153141.1, -1266654.5, 20541.902, 0.05096409, 0.08902003, -1149538.1, -22624.813, 0.0, 10.000368, 9.998864 
1.6150326e+3, 1.9500868e+2, -1053274.3, -1167794.5, 20542.986, 0.050600935, 0.10101126, -1049700.8, -20776.387, 0.0, 10.0003805, 9.998863 
1.6150326e+3, 2.0500754e+2, -957041.2, -1075681.5, 23342.744, 0.049556777, 0.10170046, -952613.7, -21677.934, 0.0, 10.00039, 9.998818 
1.6150324e+3, 2.1500625e+2, -858158.56, -977278.56, 22953.967, 0.047834076, 0.090959586, -853888.5, -20940.93, 0.0, 10.000397, 9.998818 
1.6150324e+3, 2.2500494e+2, -755549.8, -871029.4, 25431.514, 0.045601286, 0.07623546, -750197.25, -15238.425, 0.0, 10.000402, 9.998872 
1.6150324e+3, 2.3500364e+2, -656788.25, -772653.75, 24960.5, 0.04285867, 0.057358067, -651639.9, -14670.33, 0.0, 10.000407, 9.998872 
1.6150324e+3, 2.4500225e+2, -558736.44, -674437.06, 23773.088, 0.039644863, 0.033768557, -554042.25, -15061.519, 0.0, 10.000407, 9.998874 
1.6150324e+3, 2.5500086e+2, -461605.6, -576817.06, 23516.678, 0.03596025, 0.0052968664, -456990.3, -15997.947, 0.0, 10.000401, 9.998874 
1.6150324e+3, 2.6499957e+2, -350413.72, -447835.7, 18745.543, 0.03052143, -0.021918716, -346931.25, -3928.5256, 0.0, 10.000385, 9.999094 
1.6150323e+3, 2.7499843e+2, -255998.13, -351524.38, 18749.973, 0.02332862, -0.048061453, -252449.67, -7437.8633, 0.0, 10.0003605, 9.999095 
1.615032e+3, 2.8499734e+2, -151337.9, -234772.36, 11648.016, 0.01874202, -0.06987598, -149742.27, -2722.435, 0.0, 10.0003395, 9.999233 
1.6150317e+3, 2.949964e+2, -55870.508, -137942.34, 11694.441, 0.016761234, -0.08754385, -54236.688, -5209.8594, 0.0, 10.000321, 9.999234 
1.6150312e+3, 3.0499563e+2, 11337.025, -46378.977, 1607.6466, 0.01551985, -0.1026388, 11381.7705, 11381.7705, 0.0, 10.000301, 9.9995365 
1.6150306e+3, 3.1499505e+2, 7984.8384, -47932.09, 1251.9741, 0.015012831, -0.11535035, 8012.856, 8012.856, 0.0, 10.0002775, 9.9995365 
1.6250347e+3, 1.2501419e+2, -1693962.4, -1730636.9, 7471.1006, 0.05479494, 0.14858665, -1692498.9, 22375.666, 0.0, 10.000256, 9.999769 
1.6250342e+3, 1.3501379e+2, -1598924.3, -1634144.0, 8392.195, 0.04710948, 0.13235593, -1597026.8, 19850.574, 0.0, 10.000236, 9.999769 
1.6250338e+3, 1.4501327e+2, -1513811.6, -1562116.9, 14604.113, 0.043576725, 0.11203179, -1509739.6, 9141.444, 0.0, 10.000232, 9.999592 
1.6250336e+3, 1.5501262e+2, -1413923.4, -1463287.6, 15489.546, 0.044159986, 0.08739744, -1409465.6, 11420.001, 0.0, 10.000245, 9.999591 
1.6250333e+3, 1.6501194e+2, -1335124.3, -1411337.1, 20415.725, 0.046040446, 0.077658266, -1329999.9, -7108.7485, 0.0, 10.000272, 9.999262 
1.6250332e+3, 1.7501126e+2, -1231324.5, -1310616.3, 20992.049, 0.049211994, 0.08254634, -1226109.9, -1212.1858, 0.0, 10.000313, 9.999262 
1.625033e+3, 1.8501042e+2, -1155866.5, -1267778.0, 23948.443, 0.0510424, 0.09120902, -1150957.0, -24050.475, 0.0, 10.000348, 9.998865 
1.625033e+3, 1.950094e+2, -1053213.4, -1167575.3, 24076.465, 0.051533487, 0.103446305, -1048351.3, -19433.777, 0.0, 10.0003805, 9.998865 
1.625033e+3, 2.0500825e+2, -955318.06, -1075833.3, 26640.035, 0.0512677, 0.10437578, -949691.9, -18762.904, 0.0, 10.000406, 9.99881 
1.625033e+3, 2.1500696e+2, -854424.4, -976460.1, 26367.85, 0.050247785, 0.09387266, -848970.9, -16029.993, 0.0, 10.000426, 9.99881 
1.625033e+3, 2.2500564e+2, -750835.44, -869978.44, 28698.383, 0.048154965, 0.079381116, -744283.1, -9330.89, 0.0, 10.00044, 9.998861 
1.625033e+3, 2.3500432e+2, -651820.25, -771479.06, 28345.777, 0.0449907, 0.060732435, -645445.1, -8482.093, 0.0, 10.000446, 9.998861 
1.625033e+3, 2.4500294e+2, -553428.3, -672476.75, 26766.563, 0.041274764, 0.037358273, -547687.06, -8712.778, 0.0, 10.000446, 9.998868 
1.625033e+3, 2.5500154e+2, -456645.44, -575020.2, 26618.53, 0.037008017, 0.009089598, -450935.28, -9949.272, 0.0, 10.000438, 9.998869 
1.6250329e+3, 2.6500025e+2, -345260.16, -445384.3, 21232.512, 0.03125249, -0.018097056, -340943.63, 2052.7515, 0.0, 10.000421, 9.999094 
1.6250326e+3, 2.7499908e+2, -250809.52, -349055.66, 21202.814, 0.024009211, -0.04438493, -246428.98, -1423.5085, 0.0, 10.000396, 9.999094 
1.6250323e+3, 2.8499803e+2, -145600.61, -232218.8, 14398.138, 0.019216653, -0.066457696, -143269.98, 3743.5205, 0.0, 10.00038, 9.999231 
1.625032e+3, 2.9499707e+2, -48848.94, -134772.84, 14204.395, 0.01687355, -0.08449777, -46561.65, 2458.865, 0.0, 10.000371, 9.999232 
1.6250317e+3, 3.049963e+2, 19655.922, -43941.652, 3830.3633, 0.016376233, -0.100184895, 19885.787, 19885.787, 0.0, 10.000365, 9.999522 
1.625031e+3, 3.149957e+2, 19314.54, -44043.754, 3119.5652, 0.017719014, -0.11371059, 19467.766, 19467.766, 0.0, 10.000362, 9.999523 
1.635035e+3, 1.2501483e+2, -1692306.1, -1727126.8, 6718.8013, 0.0539205, 0.15096787, -1691054.8, 23813.781, 0.0, 10.000256, 9.999794 
1.6350344e+3, 1.3501446e+2, -1597263.9, -1630632.3, 7642.174, 0.045385886, 0.13475259, -1595597.0, 21274.184, 0.0, 10.000236, 9.999793 
1.6350341e+3, 1.4501396e+2, -1512208.8, -1558732.9, 15107.631, 0.041688222, 0.11428019, -1507733.4, 11141.188, 0.0, 10.000232, 9.999616 
1.6350338e+3, 1.5501332e+2, -1412315.4, -1459903.0, 15994.312, 0.04278868, 0.08933737, -1407439.3, 13439.657, 0.0, 10.000245, 9.999615 
1.6350336e+3, 1.6501266e+2, -1334076.0, -1409125.0, 21930.035, 0.045111515, 0.07943997, -1328137.8, -5253.456, 0.0, 10.000272, 9.999277 
1.6350336e+3, 1.7501199e+2, -1230271.3, -1308404.5, 22506.033, 0.04865198, 0.08431503, -1224252.1, 638.5755, 0.0, 10.000312, 9.999277 
1.6350335e+3, 1.8501115e+2, -1155638.4, -1267290.8, 25159.484, 0.051129896, 0.093096554, -1150230.9, -23331.516, 0.0, 10.000348, 9.998869 
1.6350335e+3, 1.9501014e+2, -1052976.9, -1167083.9, 25287.432, 0.052545883, 0.105582535, -1047624.0, -18713.611, 0.0, 10.0003805, 9.998869 
1.6350335e+3, 2.05009e+2, -955819.56, -1076885.4, 27393.178, 0.053144682, 0.10678731, -949909.9, -18988.016, 0.0, 10.000406, 9.998802 
1.6350335e+3, 2.1500771e+2, -854918.25, -977507.44, 27121.42, 0.052929264, 0.09658941, -849186.0, -16252.194, 0.0, 10.000426, 9.998802 
1.6350335e+3, 2.2500639e+2, -751474.25, -871332.2, 28961.047, 0.051036876, 0.08239385, -744843.3, -9898.072, 0.0, 10.00044, 9.998852 
1.6350335e+3, 2.3500505e+2, -652456.94, -772829.7, 28608.744, 0.047470666, 0.06403324, -646003.56, -9047.395, 0.0, 10.000447, 9.998852 
1.6350335e+3, 2.4500367e+2, -553684.25, -673037.0, 26446.555, 0.043280885, 0.040885303, -548086.6, -9119.167, 0.0, 10.000446, 9.998864 
1.6350333e+3, 2.5500226e+2, -456898.53, -575574.44, 26298.334, 0.038468912, 0.012782115, -451331.97, -10352.772, 0.0, 10.000438, 9.998865 
1.6350332e+3, 2.6500097e+2, -345291.53, -445480.75, 20309.592, 0.03258297, -0.014445928, -341331.1, 1658.5096, 0.0, 10.000421, 9.999093 
1.6350329e+3, 2.7499983e+2, -250836.31, -349147.75, 20279.287, 0.025624594, -0.04098189, -246817.47, -1818.7793, 0.0, 10.000397, 9.999094 
1.6350327e+3, 2.8499874e+2, -145927.94, -232942.39, 14069.259, 0.020766815, -0.06341352, -143709.64, 3297.1108, 0.0, 10.00038, 9.999227 
1.6350323e+3, 2.9499778e+2, -49171.95, -135495.25, 13874.321, 0.01800769, -0.081924096, -46996.805, 2017.0034, 0.0, 10.000371, 9.999227 
1.635032e+3, 3.0499697e+2, 18383.902, -46648.043, 3732.4817, 0.018168898, -0.09827719, 18597.426, 18597.426, 0.0, 10.000365, 9.999503 
1.6350314e+3, 3.1499633e+2, 18053.072, -46743.66, 3020.6895, 0.021243474, -0.11266629, 18193.586, 18193.586, 0.0, 10.000362, 9.999504 
1.6450351e+3, 1.2501547e+2, -1705945.0, -1730898.0, 7422.996, 0.052591812, 0.15302444, -1703903.8, 10958.563, 0.0, 10.00015, 9.999819 
1.6450346e+3, 1.3501513e+2, -1609674.0, -1633811.3, 8410.897, 0.043717172, 0.13689156, -1607032.3, 9832.438, 0.0, 10.000138, 9.999818 
1.6450343e+3, 1.4501464e+2, -1523166.4, -1561540.8, 17227.662, 0.04009561, 0.116273165, -1516567.1, 2300.7783, 0.0, 10.000146, 9.999638 
1.645034e+3, 1.5501404e+2, -1421184.6, -1461705.5, 18024.752, 0.04168837, 0.090959996, -1414327.3, 6544.798, 0.0, 10.000174, 9.999637 
1.6450338e+3, 1.650134e+2, -1341192.5, -1410880.6, 24957.297, 0.044306677, 0.08084406, -1333176.6, -10299.307, 0.0, 10.0002165, 9.999292 
1.6450338e+3, 1.7501274e+2, -1234969.6, -1308997.3, 25511.568, 0.04794781, 0.08564729, -1227029.4, -2145.8657, 0.0, 10.000273, 9.999291 
1.6450338e+3, 1.8501192e+2, -1158362.4, -1268053.8, 27976.68, 0.05090538, 0.09451244, -1151639.0, -24746.879, 0.0, 10.000327, 9.998874 
1.6450338e+3, 1.9501092e+2, -1052764.5, -1166431.8, 28219.23, 0.053178348, 0.10723543, -1046144.3, -17241.252, 0.0, 10.00038, 9.998874 
1.6450338e+3, 2.0500976e+2, -953644.06, -1076386.3, 29937.893, 0.05459211, 0.10873489, -946731.25, -15816.718, 0.0, 10.000423, 9.998797 
1.6450338e+3, 2.1500847e+2, -850371.7, -975864.56, 29840.219, 0.05514979, 0.09889268, -843637.5, -10710.975, 0.0, 10.00046, 9.998797 
1.645034e+3, 2.2500716e+2, -745650.7, -869316.06, 31115.578, 0.053486656, 0.085032806, -738263.0, -3325.0017, 0.0, 10.0004835, 9.998845 
1.645034e+3, 2.3500581e+2, -646141.5, -770574.5, 30933.877, 0.04960781, 0.0669893, -638875.6, -1926.6478, 0.0, 10.000494, 9.998845 
1.645034e+3, 2.4500445e+2, -546729.06, -670001.5, 28276.336, 0.04505315, 0.044048417, -540552.5, -1592.1299, 0.0, 10.000495, 9.998861 
1.6450338e+3, 2.5500304e+2, -449742.28, -572437.56, 28208.803, 0.039824538, 0.016043529, -443567.56, -2595.4573, 0.0, 10.000488, 9.998862 
1.6450337e+3, 2.6500174e+2, -337396.0, -441942.84, 21730.742, 0.03406903, -0.011319849, -333059.03, 9923.495, 0.0, 10.000476, 9.999091 
1.6450335e+3, 2.7500054e+2, -241713.64, -345015.13, 21577.191, 0.027788172, -0.038224455, -237387.84, 7603.8125, 0.0, 10.00046, 9.999091 
1.6450332e+3, 2.849995e+2, -135815.94, -229121.47, 15806.864, 0.023092506, -0.061104186, -133210.83, 13788.943, 0.0, 10.000454, 9.999217 
1.6450328e+3, 2.949985e+2, -37319.758, -130836.664, 15289.389, 0.01997981, -0.08014322, -34883.516, 14123.396, 0.0, 10.000457, 9.999218 
1.6450323e+3, 3.0499768e+2, 31784.262, -42845.938, 5245.476, 0.020738125, -0.097182885, 32151.143, 32151.143, 0.0, 10.000469, 9.99948 
1.6450319e+3, 3.1499702e+2, 34817.824, -41320.98, 4159.9233, 0.0253589, -0.11241837, 35044.43, 35044.43, 0.0, 10.000489, 9.99948 
1.6550353e+3, 1.2501614e+2, -1704180.0, -1727151.1, 6984.512, 0.050813366, 0.1547609, -1702223.0, 12632.978, 0.0, 10.000149, 9.999845 
1.6550347e+3, 1.3501583e+2, -1607900.6, -1630061.8, 7974.9463, 0.042101126, 0.13877654, -1605329.1, 11528.971, 0.0, 10.000137, 9.999844 
1.6550343e+3, 1.4501536e+2, -1521733.5, -1558510.8, 18268.33, 0.038793553, 0.11801432, -1514201.6, 4659.531, 0.0, 10.000146, 9.999659 
1.6550341e+3, 1.5501477e+2, -1419745.5, -1458674.1, 19066.559, 0.0408543, 0.092269704, -1411963.0, 8902.092, 0.0, 10.000174, 9.999658 
1.6550341e+3, 1.6501415e+2, -1340183.8, -1408752.0, 27094.29, 0.043623306, 0.08187569, -1330770.0, -7899.9688, 0.0, 10.000216, 9.999307 
1.6550341e+3, 1.750135e+2, -1233958.4, -1306869.9, 27648.11, 0.04710065, 0.08654902, -1224660.0, 216.22879, 0.0, 10.000273, 9.999307 
1.6550341e+3, 1.8501268e+2, -1157923.5, -1267122.6, 29944.34, 0.050372478, 0.09546306, -1150251.4, -23366.607, 0.0, 10.000327, 9.99888 
1.6550341e+3, 1.9501169e+2, -1052319.0, -1165497.4, 30186.48, 0.053435624, 0.10841155, -1044771.1, -15875.563, 0.0, 10.00038, 9.998879 
1.6550343e+3, 2.0501055e+2, -953827.25, -1076766.5, 31300.592, 0.05561559, 0.11022491, -946316.9, -15409.882, 0.0, 10.000423, 9.998795 
1.6550343e+3, 2.1500924e+2, -850547.75, -976239.9, 31202.916, 0.056915563, 0.10078826, -843227.94, -10308.934, 0.0, 10.000461, 9.998795 
1.6550344e+3, 2.2500794e+2, -745978.44, -870011.5, 31499.408, 0.05551022, 0.087303355, -738437.4, -3506.808, 0.0, 10.0004835, 9.99884 
1.6550344e+3, 2.3500659e+2, -646466.0, -771266.25, 31317.799, 0.051406853, 0.06960565, -639047.94, -2106.3574, 0.0, 10.000494, 9.99884 
1.6550344e+3, 2.4500522e+2, -546838.3, -670249.5, 28001.44, 0.04659483, 0.04685293, -540782.1, -1829.1642, 0.0, 10.000495, 9.99886 
1.6550343e+3, 2.550038e+2, -449846.2, -572678.6, 27933.5, 0.04107642, 0.018880099, -443792.2, -2827.4507, 0.0, 10.000488, 9.99886 
1.6550341e+3, 2.650025e+2, -337655.38, -442515.38, 21119.406, 0.035708837, -0.008711344, -333561.63, 9413.552, 0.0, 10.000477, 9.999086 
1.655034e+3, 2.7500132e+2, -241962.55, -345578.63, 20965.545, 0.030492965, -0.036103625, -237881.17, 7103.1616, 0.0, 10.000461, 9.999087 
1.6550337e+3, 2.850002e+2, -136735.3, -231090.28, 15923.032, 0.026183719, -0.059519555, -134120.63, 12871.922, 0.0, 10.000454, 9.999204 
1.6550334e+3, 2.9499924e+2, -38232.59, -132803.14, 15404.575, 0.022779133, -0.079144314, -35786.605, 13213.216, 0.0, 10.000457, 9.999204 
1.655033e+3, 3.0499837e+2, 29831.256, -46988.195, 6015.1367, 0.024074094, -0.09689102, 30299.402, 30299.402, 0.0, 10.000469, 9.999452 
1.6550325e+3, 3.1499767e+2, 32874.844, -45458.87, 4928.6694, 0.030058017, -0.11295634, 33183.73, 33183.73, 0.0, 10.00049, 9.999452 
1.6650353e+3, 1.250168e+2, -1720382.8, -1731991.0, 6557.1333, 0.04845868, 0.15581384, -1717429.9, -2580.167, 0.0, 10.000025, 9.999871 
1.6650347e+3, 1.3501652e+2, -1621362.6, -1633581.8, 7600.7637, 0.040559705, 0.1400365, -1617720.3, -868.7491, 0.0, 10.000032, 9.99987 
1.6650344e+3, 1.4501607e+2, -1533159.5, -1561924.8, 19274.238, 0.03783747, 0.11914616, -1523493.1, -4638.7515, 0.0, 10.000058, 9.999677 
1.6650343e+3, 1.5501548e+2, -1428738.8, -1460916.5, 19910.51, 0.040260866, 0.09294322, -1419229.3, 1628.9033, 0.0, 10.000103, 9.999677 
1.6650343e+3, 1.6501488e+2, -1347504.4, -1410789.5, 28802.38, 0.0429899, 0.08224173, -1336358.8, -13495.756, 0.0, 10.000159, 9.99932 
1.6650343e+3, 1.7501424e+2, -1239609.1, -1308104.4, 29255.45, 0.04602791, 0.08675333, -1228814.8, -3945.7292, 0.0, 10.000228, 9.99932 
1.6650344e+3, 1.8501343e+2, -1161905.0, -1268182.0, 31482.156, 0.04936456, 0.09568509, -1153279.3, -26401.875, 0.0, 10.000297, 9.998888 
1.6650346e+3, 1.9501245e+2, -1053844.8, -1165373.1, 31817.248, 0.05299436, 0.108828604, -1045406.3, -16518.16, 0.0, 10.000365, 9.998888 
1.6650347e+3, 2.0501132e+2, -953532.4, -1076601.0, 32450.367, 0.055732515, 0.11095617, -945500.2, -14600.605, 0.0, 10.000425, 9.9987955 
1.6650347e+3, 2.1501003e+2, -848016.0, -974995.0, 32562.648, 0.0575822, 0.10195595, -840152.56, -7241.0176, 0.0, 10.000478, 9.998795 
1.6650349e+3, 2.2500871e+2, -742084.25, -868385.8, 31898.828, 0.0564097, 0.08886398, -734485.06, 438.0362, 0.0, 10.000511, 9.998837 
1.6650349e+3, 2.3500738e+2, -641731.8, -769233.94, 31908.715, 0.05222435, 0.07151714, -634192.2, 2741.9307, 0.0, 10.000527, 9.998837 
1.6650349e+3, 2.45006e+2, -541106.0, -667641.7, 28069.666, 0.047326732, 0.048928052, -535158.8, 3786.736, 0.0, 10.000535, 9.998858 
1.6650349e+3, 2.5500458e+2, -443071.5, -569565.0, 28029.256, 0.041719448, 0.02093336, -437138.84, 3818.4563, 0.0, 10.000535, 9.998859 
1.6650347e+3, 2.6500326e+2, -329418.47, -439310.88, 20998.87, 0.03700782, -0.006943644, -325542.6, 17425.219, 0.0, 10.000536, 9.99908 
1.6650344e+3, 2.7500206e+2, -231070.52, -341092.2, 20634.635, 0.0331914, -0.03488453, -227327.8, 17649.246, 0.0, 10.000539, 9.999081 
1.6650341e+3, 2.8500095e+2, -124101.71, -227055.95, 16012.7705, 0.029536916, -0.058867645, -121668.695, 25316.688, 0.0, 10.000549, 9.999186 
1.6650338e+3, 2.9499993e+2, -23152.375, -127592.34, 15144.035, 0.02604322, -0.07907927, -21000.781, 27992.05, 0.0, 10.000569, 9.999186 
1.6650334e+3, 3.0499905e+2, 46941.43, -42438.035, 6230.7056, 0.027894456, -0.09747709, 47373.688, 47373.688, 0.0, 10.000603, 9.999418 
1.6650331e+3, 3.1499833e+2, 53650.0, -39145.063, 4817.4736, 0.03507796, -0.11425816, 53899.43, 53899.43, 0.0, 10.0006485, 9.999419 
1.6750352e+3, 1.2501742e+2, -1718527.8, -1728050.0, 6823.008, 0.04553374, 0.1561924, -1714968.9, -125.37305, 0.0, 10.000025, 9.999899 
1.6750348e+3, 1.3501717e+2, -1619494.9, -1629637.4, 7868.8643, 0.039090432, 0.14067976, -1615204.6, 1640.3843, 0.0, 10.000032, 9.999898 
1.6750346e+3, 1.4501676e+2, -1532029.0, -1559527.5, 20938.979, 0.037221376, 0.119676724, -1520728.6, -1881.0406, 0.0, 10.000058, 9.999694 
1.6750345e+3, 1.5501618e+2, -1427601.6, -1458517.4, 21575.885, 0.039903715, 0.092988856, -1416517.8, 4333.5054, 0.0, 10.000103, 9.999693 
1.6750345e+3, 1.650156e+2, -1346682.1, -1409051.0, 31365.145, 0.04240482, 0.08195083, -1333637.1, -10781.166, 0.0, 10.000159, 9.999332 
1.6750346e+3, 1.7501497e+2, -1238787.3, -1306367.6, 31817.84, 0.044731814, 0.08626926, -1226164.6, -1302.733, 0.0, 10.000227, 9.999331 
1.6750346e+3, 1.8501416e+2, -1161296.6, -1266890.6, 34079.22, 0.04788737, 0.09518796, -1151253.3, -24383.12, 0.0, 10.000296, 9.998897 
1.6750349e+3, 1.950132e+2, -1053233.4, -1164079.9, 34413.56, 0.0518635, 0.10849649, -1043418.44, -14537.581, 0.0, 10.000365, 9.998897 
1.6750352e+3, 2.0501207e+2, -953334.6, -1076170.5, 34385.273, 0.05495482, 0.11093866, -944364.3, -13472.121, 0.0, 10.000425, 9.998798 
1.6750352e+3, 2.1501079e+2, -847813.8, -974560.8, 34496.88, 0.05716442, 0.10240544, -839033.06, -6128.915, 0.0, 10.000478, 9.998797 
1.6750354e+3, 2.2500947e+2, -742070.0, -868345.75, 32491.705, 0.056200348, 0.08972423, -734200.1, 715.4983, 0.0, 10.000511, 9.998838 
1.6750355e+3, 2.3500815e+2, -641713.94, -769190.94, 32501.443, 0.05207367, 0.072733365, -633905.6, 3021.0352, 0.0, 10.000527, 9.998838 
1.6750355e+3, 2.4500675e+2, -541175.6, -667786.94, 28056.01, 0.04725994, 0.050283752, -535237.2, 3700.9202, 0.0, 10.000535, 9.9988575 
1.6750354e+3, 2.5500533e+2, -443133.5, -569703.8, 28015.242, 0.041761976, 0.022214066, -437209.8, 3740.0408, 0.0, 10.000535, 9.998858 
1.6750352e+3, 2.6500404e+2, -330076.4, -440702.2, 21067.861, 0.037970793, -0.006005231, -326200.03, 16760.387, 0.0, 10.000536, 9.99907 
1.675035e+3, 2.750028e+2, -231714.42, -342474.06, 20703.688, 0.035883836, -0.0345549, -227970.92, 16998.828, 0.0, 10.000539, 9.999071 
1.6750348e+3, 2.8500167e+2, -125671.53, -230379.44, 16755.744, 0.033148825, -0.059135802, -123055.57, 23922.691, 0.0, 10.00055, 9.999163 
1.6750345e+3, 2.9500064e+2, -24713.262, -130913.125, 15886.89, 0.029766092, -0.079935454, -22387.604, 26598.336, 0.0, 10.00057, 9.999163 
1.6750342e+3, 3.0499974e+2, 44387.723, -47839.35, 7944.3423, 0.032193117, -0.09892935, 45067.035, 45067.035, 0.0, 10.000603, 9.999381 
1.6750337e+3, 3.1499892e+2, 51106.105, -44543.684, 6530.8696, 0.040414434, -0.11630546, 51549.97, 51549.97, 0.0, 10.0006485, 9.999381 
1.6850352e+3, 1.2501802e+2, -1736775.1, -1733769.0, 4895.301, 0.04212293, 0.15562849, -1730151.1, -15313.57, 0.0, 9.9998865, 9.999926 
1.6850348e+3, 1.350178e+2, -1633362.5, -1633247.8, 5964.0986, 0.037804026, 0.14034517, -1627340.8, -10501.896, 0.0, 9.999924, 9.999926 
1.6850345e+3, 1.450174e+2, -1543364.4, -1563451.8, 20107.393, 0.03705342, 0.119220085, -1530931.8, -12090.528, 0.0, 9.999973, 9.999707 
1.6850345e+3, 1.5501682e+2, -1436318.8, -1461180.4, 20537.031, 0.039859332, 0.09206349, -1424743.5, -3898.7253, 0.0, 10.000036, 9.999706 
1.6850345e+3, 1.6501625e+2, -1354010.6, -1411464.8, 30794.557, 0.041981887, 0.08069454, -1340624.1, -17774.74, 0.0, 10.000104, 9.999343 
1.6850348e+3, 1.7501563e+2, -1245422.1, -1308447.8, 31098.783, 0.043432, 0.084815234, -1232660.9, -7805.6953, 0.0, 10.000177, 9.999342 
1.6850351e+3, 1.8501484e+2, -1166904.8, -1268502.1, 33443.305, 0.046164777, 0.09368788, -1156884.4, -30020.99, 0.0, 10.000253, 9.998907 
1.6850352e+3, 1.9501388e+2, -1057450.9, -1165020.3, 33839.906, 0.0501701, 0.10710028, -1047690.9, -18816.916, 0.0, 10.000332, 9.998906 
1.6850355e+3, 2.0501277e+2, -956353.5, -1076956.8, 33312.87, 0.053305004, 0.10982554, -947763.7, -16878.486, 0.0, 10.000402, 9.998804 
1.6850358e+3, 2.1501149e+2, -849293.94, -974604.0, 33646.57, 0.05557244, 0.101756915, -840831.1, -7934.0435, 0.0, 10.000464, 9.998804 
1.6850358e+3, 2.2501019e+2, -742395.3, -868180.0, 30465.975, 0.05475314, 0.089484096, -735404.7, -496.14825, 0.0, 10.000507, 9.998841 
1.685036e+3, 2.3500887e+2, -640828.5, -768441.3, 30669.215, 0.05085911, 0.072846755, -633840.44, 3079.1467, 0.0, 10.000532, 9.998841 
1.685036e+3, 2.4500749e+2, -538981.25, -666862.7, 25808.111, 0.046330776, 0.05052564, -533969.25, 4961.7036, 0.0, 10.000551, 9.998857 
1.6850358e+3, 2.5500607e+2, -438958.72, -567823.9, 25753.768, 0.041171007, 0.022361677, -434002.44, 6940.304, 0.0, 10.000565, 9.998857 
1.6850358e+3, 2.6500472e+2, -323762.2, -439088.5, 19019.324, 0.03848699, -0.006175499, -320706.53, 22246.857, 0.0, 10.000586, 9.999058 
1.6850357e+3, 2.7500352e+2, -221475.36, -338968.56, 18420.428, 0.038273547, -0.03526582, -218655.13, 26307.723, 0.0, 10.000615, 9.999058 
1.6850354e+3, 2.8500235e+2, -112803.875, -227195.3, 14801.451, 0.036664005, -0.060372543, -110919.7, 36051.855, 0.0, 10.000651, 9.999135 
1.6850352e+3, 2.9500127e+2, -8522.869, -126131.33, 13635.547, 0.0336605, -0.08168448, -6962.659, 42016.848, 0.0, 10.000694, 9.999136 
1.6850348e+3, 3.0500033e+2, 63306.734, -43206.977, 6497.035, 0.03672989, -0.101146676, 63701.57, 63701.57, 0.0, 10.000752, 9.999341 
1.6850345e+3, 3.149995e+2, 73992.516, -38002.19, 4877.8916, 0.045853708, -0.11892996, 74204.57, 74204.57, 0.0, 10.000826, 9.999341 
1.6950351e+3, 1.2501857e+2, -1734879.4, -1729745.3, 6289.999, 0.03823076, 0.15413426, -1725518.6, -10686.523, 0.0, 9.999886, 9.999954 
1.6950347e+3, 1.3501838e+2, -1631450.8, -1629220.4, 7359.798, 0.036696523, 0.13904534, -1622891.8, -6058.663, 0.0, 9.999924, 9.999953 
1.6950344e+3, 1.45018e+2, -1542615.5, -1561857.9, 22442.453, 0.037326317, 0.117788926, -1527818.9, -8983.627, 0.0, 9.999973, 9.999719 
1.6950345e+3, 1.5501744e+2, -1435563.0, -1459584.3, 22871.676, 0.04012243, 0.09017948, -1421740.1, -901.4964, 0.0, 10.000036, 9.999718 
1.6950347e+3, 1.6501686e+2, -1353460.5, -1410300.3, 33527.39, 0.041718002, 0.07848512, -1337928.4, -15085.223, 0.0, 10.000104, 9.999351 
1.695035e+3, 1.7501625e+2, -1244874.5, -1307284.8, 33831.383, 0.042127706, 0.08240352, -1230054.4, -5205.5117, 0.0, 10.000176, 9.99935 
1.6950351e+3, 1.8501547e+2, -1166179.6, -1266967.0, 36391.066, 0.04419936, 0.09119754, -1154413.5, -27556.535, 0.0, 10.000253, 9.998918 
1.6950355e+3, 1.9501452e+2, -1056727.3, -1163485.0, 36786.594, 0.0479212, 0.10465358, -1045279.0, -16411.479, 0.0, 10.000332, 9.998917 
1.6950358e+3, 2.0501341e+2, -955748.94, -1075665.5, 35636.457, 0.05079448, 0.107630946, -945958.0, -15079.322, 0.0, 10.0004015, 9.998813 
1.6950361e+3, 2.1501215e+2, -848689.0, -973311.3, 35968.785, 0.052821994, 0.100024745, -839052.7, -6162.2456, 0.0, 10.000464, 9.998813 
1.6950364e+3, 2.2501086e+2, -742034.75, -867395.9, 31362.182, 0.052084923, 0.08815813, -734626.56, 275.30038, 0.0, 10.000507, 9.998846 
1.6950364e+3, 2.3500955e+2, -640464.44, -767656.3, 31565.082, 0.048595253, 0.07187206, -633061.8, 3850.982, 0.0, 10.000532, 9.998846 
1.6950364e+3, 2.4500819e+2, -539088.3, -667065.44, 26297.547, 0.04455112, 0.049668707, -533895.25, 5028.9155, 0.0, 10.000551, 9.998855 
1.6950364e+3, 2.5500673e+2, -439057.06, -568022.2, 26243.244, 0.039955318, 0.021391498, -433921.34, 7014.628, 0.0, 10.000565, 9.998856 
1.6950364e+3, 2.650054e+2, -324866.72, -441395.5, 20096.994, 0.038562693, -0.0074394583, -321498.1, 21448.574, 0.0, 10.000586, 9.999042 
1.6950363e+3, 2.7500415e+2, -222564.56, -341267.1, 19498.697, 0.040364943, -0.037003282, -219443.66, 25512.672, 0.0, 10.000615, 9.9990425 
1.6950361e+3, 2.8500295e+2, -114931.18, -231672.05, 16397.756, 0.040084064, -0.06256489, -112671.64, 34293.637, 0.0, 10.000651, 9.9991045 
1.6950358e+3, 2.9500186e+2, -10639.128, -130604.72, 15232.761, 0.037724365, -0.0843144, -8735.15, 40238.38, 0.0, 10.000694, 9.9991045 
1.6950357e+3, 3.0500084e+2, 60371.563, -49401.887, 9232.471, 0.041501958, -0.104118966, 61142.64, 61142.64, 0.0, 10.000752, 9.999298 
1.6950354e+3, 3.15e+2, 71068.164, -44192.73, 7613.3022, 0.051395, -0.122124985, 71568.87, 71568.87, 0.0, 10.000826, 9.999299 
1.705035e+3, 1.2501903e+2, -1753663.3, -1735788.3, 2700.164, 0.03416, 0.15164314, -1735389.3, -20561.902, 0.0, 9.999744, 9.999981 
1.7050345e+3, 1.3501886e+2, -1644439.6, -1632473.6, 3705.6287, 0.035903458, 0.13657707, -1631419.0, -14591.024, 0.0, 9.999822, 9.99998 
1.7050344e+3, 1.4501849e+2, -1552684.1, -1565822.9, 19178.936, 0.038100515, 0.115141295, -1538980.6, -20150.594, 0.0, 9.999901, 9.999726 
1.7050345e+3, 1.5501794e+2, -1442915.1, -1462240.3, 19378.578, 0.040769327, 0.08715315, -1430923.8, -10090.385, 0.0, 9.999982, 9.999725 
1.7050347e+3, 1.6501737e+2, -1359670.1, -1412644.6, 29864.648, 0.041792843, 0.07516929, -1346239.0, -23401.135, 0.0, 10.000058, 9.999356 
1.705035e+3, 1.7501676e+2, -1251204.5, -1309686.6, 30002.605, 0.041188803, 0.07888391, -1238550.5, -13707.001, 0.0, 10.000131, 9.999355 
1.7050354e+3, 1.8501599e+2, -1172189.1, -1268659.9, 32725.285, 0.042462796, 0.08755211, -1162135.6, -35284.055, 0.0, 10.000206, 9.998928 
1.7050359e+3, 1.9501504e+2, -1062671.0, -1165144.6, 33133.234, 0.045602355, 0.100959405, -1052891.3, -24029.27, 0.0, 10.000285, 9.998928 
1.7050363e+3, 2.0501396e+2, -961351.06, -1077064.6, 31524.195, 0.0479225, 0.10411643, -953320.2, -22447.207, 0.0, 10.000358, 9.998825 
1.7050366e+3, 2.1501271e+2, -853794.2, -974469.6, 32057.07, 0.049425844, 0.09691946, -845806.94, -12922.286, 0.0, 10.000423, 9.998824 
1.7050369e+3, 2.2501144e+2, -746382.56, -868613.75, 26353.326, 0.048722114, 0.0854253, -740942.8, -6046.874, 0.0, 10.000474, 9.998854 
1.705037e+3, 2.3501013e+2, -643262.6, -768128.5, 26735.422, 0.045822084, 0.06947595, -637779.0, -872.2301, 0.0, 10.000509, 9.998855 
1.705037e+3, 2.4500875e+2, -540391.4, -667868.75, 21301.834, 0.042465672, 0.047390614, -536926.0, 1992.1226, 0.0, 10.000543, 9.998854 
1.705037e+3, 2.5500733e+2, -437603.1, -567497.6, 21233.57, 0.038655475, 0.019015322, -434220.2, 6709.762, 0.0, 10.000575, 9.998854 
1.705037e+3, 2.6500598e+2, -320904.56, -441497.6, 15825.588, 0.038604625, -0.0100077465, -318862.34, 24078.441, 0.0, 10.000622, 9.999023 
1.705037e+3, 2.7500468e+2, -214044.83, -339174.38, 15072.162, 0.04230182, -0.039857134, -212254.95, 32695.652, 0.0, 10.000683, 9.999024 
1.7050369e+3, 2.850035e+2, -103189.49, -229700.13, 12259.062, 0.043391388, -0.06570019, -102012.52, 44947.29, 0.0, 10.000748, 9.999071 
1.7050366e+3, 2.9500234e+2, 5086.3677, -126717.03, 10941.107, 0.041879676, -0.08772827, 5988.4243, 54956.82, 0.0, 10.000818, 9.999072 
1.7050365e+3, 3.0500132e+2, 79420.84, -45058.426, 6000.572, 0.046389345, -0.107704334, 79709.43, 79709.43, 0.0, 10.000904, 9.999255 
1.7050363e+3, 3.1500039e+2, 94216.836, -37875.582, 4347.628, 0.05689581, -0.12575248, 94359.78, 94359.78, 0.0, 10.001006, 9.999255 
1.7150345e+3, 1.250194e+2, -1751879.1, -1732010.4, 5591.594, 0.029910736, 0.14816743, -1730544.8, -15721.454, 0.0, 9.999743, 10.000007 
1.7150342e+3, 1.3501926e+2, -1642638.1, -1628692.4, 6595.897, 0.035419084, 0.13295497, -1626067.0, -9243.191, 0.0, 9.999821, 10.000006 
1.7150342e+3, 1.450189e+2, -1552352.4, -1565112.4, 22209.516, 0.039368164, 0.1112924, -1535624.6, -16798.984, 0.0, 9.999901, 9.999731 
1.7150345e+3, 1.5501836e+2, -1442576.5, -1461527.0, 22407.217, 0.04179389, 0.08299866, -1427723.5, -6894.5776, 0.0, 9.999982, 9.99973 
1.7150348e+3, 1.6501778e+2, -1359421.4, -1412121.1, 32555.482, 0.04220104, 0.07076067, -1343888.4, -21055.006, 0.0, 10.000058, 9.99936 
1.7150351e+3, 1.7501718e+2, -1250958.8, -1309163.5, 32693.148, 0.04060958, 0.074270025, -1236291.4, -11452.366, 0.0, 10.000131, 9.999359 
1.7150356e+3, 1.8501642e+2, -1171433.6, -1267071.3, 35678.9, 0.04095117, 0.08276585, -1159589.9, -32742.922, 0.0, 10.000206, 9.998939 
1.7150362e+3, 1.9501549e+2, -1061920.5, -1163556.9, 36085.47, 0.04321376, 0.0960334, -1050411.8, -21554.541, 0.0, 10.000285, 9.998939 
1.7150366e+3, 2.0501441e+2, -960371.2, -1074991.4, 33964.902, 0.04469332, 0.0992988, -951062.5, -20194.38, 0.0, 10.000358, 9.998839 
1.715037e+3, 2.1501318e+2, -852818.0, -972397.3, 34495.945, 0.045392264, 0.09245887, -843580.3, -10700.633, 0.0, 10.000423, 9.998838 
1.7150372e+3, 2.2501191e+2, -745693.94, -867137.44, 27640.086, 0.044673856, 0.081304096, -739699.1, -4808.289, 0.0, 10.000474, 9.998864 
1.7150375e+3, 2.3501062e+2, -642569.44, -766650.8, 28021.717, 0.042546295, 0.065677285, -636534.7, 366.8579, 0.0, 10.000508, 9.998864 
1.7150375e+3, 2.4500926e+2, -540531.25, -668132.56, 22495.38, 0.040078398, 0.04371038, -536681.56, 2231.2847, 0.0, 10.000543, 9.998852 
1.7150375e+3, 2.5500783e+2, -437732.4, -567755.8, 22427.75, 0.03727241, 0.015252031, -433972.56, 6952.133, 0.0, 10.000575, 9.998852 
1.7150375e+3, 2.6500648e+2, -322303.16, -444411.34, 18075.725, 0.038613148, -0.01386287, -319683.6, 23252.05, 0.0, 10.000622, 9.999003 
1.7150375e+3, 2.750052e+2, -215430.03, -342082.1, 17323.496, 0.04408645, -0.043812558, -213103.27, 31842.412, 0.0, 10.000683, 9.999004 
1.7150375e+3, 2.8500393e+2, -105607.64, -234774.63, 14880.235, 0.04658779, -0.06976609, -103915.58, 43039.582, 0.0, 10.000749, 9.999037 
1.7150375e+3, 2.9500276e+2, 2679.4268, -131787.94, 13564.224, 0.046125375, -0.09191595, 4034.054, 52998.152, 0.0, 10.000819, 9.999037 
1.7150375e+3, 3.0500168e+2, 76420.19, -51382.23, 9791.854, 0.05139092, -0.1118951, 77166.06, 77166.06, 0.0, 10.000905, 9.999211 
1.7150375e+3, 3.150007e+2, 91226.29, -44194.29, 8138.928, 0.062357314, -0.12980278, 91713.69, 91713.69, 0.0, 10.001006, 9.999212 
1.7250341e+3, 1.2501964e+2, -1769003.3, -1737657.8, 478.43686, 0.025923029, 0.14379367, -1737650.4, -22829.887, 0.0, 9.999615, 10.0000305 
1.7250341e+3, 1.3501951e+2, -1653277.8, -1631217.9, 1274.3118, 0.035286654, 0.12819499, -1631144.5, -14323.781, 0.0, 9.999737, 10.00003 
1.7250341e+3, 1.4501917e+2, -1559926.3, -1568550.8, 16313.383, 0.04097952, 0.10625339, -1547364.9, -28542.414, 0.0, 9.999847, 9.999733 
1.7250344e+3, 1.5501863e+2, -1447491.3, -1463683.6, 16283.995, 0.043055035, 0.077787474, -1437401.8, -16576.096, 0.0, 9.999948, 9.999732 
1.7250349e+3, 1.6501805e+2, -1363293.9, -1413833.6, 25488.047, 0.042893548, 0.06535546, -1352672.1, -29842.002, 0.0, 10.000031, 9.999361 
1.7250353e+3, 1.7501746e+2, -1255321.3, -1311110.6, 25460.371, 0.04051588, 0.06864769, -1245449.0, -20613.2, 0.0, 10.0001, 9.99936 
1.7250358e+3, 1.8501669e+2, -1175960.0, -1268123.0, 28521.51, 0.039934944, 0.076921314, -1167847.6, -41003.918, 0.0, 10.000171, 9.998949 
1.7250364e+3, 1.9501576e+2, -1067503.6, -1165115.6, 28865.793, 0.0411403, 0.0899619, -1059606.4, -30752.473, 0.0, 10.000242, 9.998949 
1.7250368e+3, 2.050147e+2, -966296.4, -1076051.1, 26346.916, 0.04162635, 0.09323478, -960299.4, -29434.764, 0.0, 10.000309, 9.998855 
1.7250374e+3, 2.1501349e+2, -859204.94, -973678.7, 27008.396, 0.04139519, 0.08663666, -853152.7, -20276.676, 0.0, 10.000372, 9.998855 
1.7250377e+3, 2.2501226e+2, -751646.3, -868652.0, 19444.035, 0.040687375, 0.075738594, -748499.7, -13612.707, 0.0, 10.000427, 9.998877 
1.725038e+3, 2.3501097e+2, -646640.6, -767259.3, 19967.314, 0.039507415, 0.060383774, -643421.1, -6523.5195, 0.0, 10.000475, 9.998877 
1.7250381e+3, 2.4500962e+2, -543011.5, -669504.7, 14601.253, 0.03811434, 0.03852624, -541347.94, -2439.074, 0.0, 10.000526, 9.99885 
1.7250381e+3, 2.550082e+2, -436995.44, -567578.25, 14549.76, 0.03650996, 0.010017003, -435393.9, 5526.8125, 0.0, 10.000581, 9.998851 
1.7250383e+3, 2.650068e+2, -319106.25, -445100.88, 11403.345, 0.03917227, -0.019068101, -318082.5, 24849.283, 0.0, 10.000653, 9.998983 
1.7250383e+3, 2.750055e+2, -207959.39, -340714.66, 10660.846, 0.046085093, -0.048907407, -207108.72, 37833.285, 0.0, 10.000744, 9.998984 
1.7250384e+3, 2.8500423e+2, -94993.555, -233483.53, 8586.119, 0.04985751, -0.07476129, -94463.26, 52488.5, 0.0, 10.000837, 9.999002 
1.7250384e+3, 2.9500303e+2, 17301.46, -128568.914, 7331.165, 0.05049898, -0.096823186, 17668.984, 66630.02, 0.0, 10.000936, 9.999002 
1.7250384e+3, 3.0500188e+2, 94416.45, -47364.35, 4802.6323, 0.05644154, -0.11663809, 94578.945, 94578.945, 0.0, 10.001048, 9.999169 
1.7250386e+3, 3.150009e+2, 113002.18, -38355.51, 3301.1072, 0.06765662, -0.1342849, 113074.14, 113074.14, 0.0, 10.001176, 9.99917 
1.7350338e+3, 1.2501977e+2, -1767588.1, -1734672.6, 5047.5137, 0.022190956, 0.13853233, -1733916.0, -19097.186, 0.0, 9.999615, 10.000051 
1.735034e+3, 1.3501966e+2, -1651847.8, -1628230.0, 5839.629, 0.03549999, 0.12231071, -1626865.0, -10046.208, 0.0, 9.999737, 10.00005 
1.735034e+3, 1.4501934e+2, -1560003.1, -1568707.5, 20026.275, 0.04292906, 0.100038506, -1543861.6, -25041.156, 0.0, 9.999847, 9.999732 
1.7350344e+3, 1.5501876e+2, -1447562.5, -1463837.6, 19993.371, 0.04454878, 0.07153203, -1434114.1, -13290.385, 0.0, 9.999948, 9.999731 
1.7350349e+3, 1.6501819e+2, -1363345.6, -1413948.6, 28042.434, 0.04386589, 0.05896524, -1350877.5, -28049.309, 0.0, 10.000031, 9.99936 
1.7350353e+3, 1.7501758e+2, -1255374.8, -1311224.3, 28014.049, 0.04090049, 0.06202863, -1243744.8, -18910.938, 0.0, 10.0001, 9.99936 
1.7350361e+3, 1.8501683e+2, -1175311.3, -1266770.4, 31190.81, 0.03940662, 0.07003093, -1165686.9, -38845.215, 0.0, 10.00017, 9.998959 
1.7350367e+3, 1.9501592e+2, -1066861.5, -1163763.8, 31533.525, 0.0393768, 0.082758605, -1057503.6, -28651.883, 0.0, 10.000242, 9.998958 
1.7350371e+3, 2.0501485e+2, -965066.0, -1073465.9, 28657.07, 0.038718395, 0.085939646, -957956.4, -27093.955, 0.0, 10.000309, 9.998873 
1.7350377e+3, 2.1501367e+2, -857980.4, -971095.94, 29316.664, 0.037433065, 0.07947002, -850833.75, -17960.125, 0.0, 10.000372, 9.998873 
1.735038e+3, 2.2501244e+2, -750690.44, -866625.9, 21208.6, 0.036760736, 0.068747394, -746932.5, -12048.046, 0.0, 10.000426, 9.998891 
1.7350383e+3, 2.3501119e+2, -645679.2, -765231.75, 21731.305, 0.036701147, 0.053614985, -641851.6, -4956.679, 0.0, 10.000475, 9.998891 
1.7350386e+3, 2.4500982e+2, -543118.5, -669708.9, 16619.34, 0.036566652, 0.03185807, -540973.0, -2066.9287, 0.0, 10.000526, 9.998849 
1.7350388e+3, 2.550084e+2, -437092.34, -567778.56, 16568.934, 0.03635856, 0.0033297564, -435024.38, 5893.6143, 0.0, 10.000581, 9.998849 
1.7350389e+3, 2.6500702e+2, -320485.06, -447980.28, 14753.06, 0.040273625, -0.025605612, -318800.2, 24128.959, 0.0, 10.000653, 9.998964 
1.7350392e+3, 2.7500567e+2, -209329.83, -343591.9, 14012.163, 0.04829455, -0.05512688, -207883.05, 37056.523, 0.0, 10.000744, 9.998964 
1.7350394e+3, 2.850044e+2, -97303.6, -238328.2, 12239.182, 0.053199537, -0.08067399, -96249.28, 50700.3, 0.0, 10.000837, 9.998969 
1.7350395e+3, 2.9500315e+2, 14999.931, -133410.86, 10986.889, 0.054998755, -0.1024412, 15808.883, 64768.07, 0.0, 10.000936, 9.998969 
1.7350395e+3, 3.05002e+2, 91691.42, -53100.55, 9567.049, 0.06154099, -0.12192697, 92320.83, 92320.83, 0.0, 10.001049, 9.99913 
1.7350398e+3, 3.1500098e+2, 110284.12, -44086.9, 8065.6304, 0.07279671, -0.13918896, 110704.39, 110704.39, 0.0, 10.001176, 9.999131 
1.7450333e+3, 1.2501973e+2, -1780753.0, -1739248.6, -1222.5214, 0.019175086, 0.13249604, -1739212.6, -24394.068, 0.0, 9.9995165, 10.000067 
1.7450336e+3, 1.3501963e+2, -1659117.1, -1629967.1, -790.2246, 0.035970904, 0.11549248, -1629945.8, -13127.223, 0.0, 9.99968, 10.000066 
1.745034e+3, 1.450193e+2, -1564608.5, -1571322.6, 11786.682, 0.044836573, 0.09289037, -1555710.1, -36890.047, 0.0, 9.999818, 9.999728 
1.7450345e+3, 1.5501873e+2, -1450011.4, -1465412.9, 11566.529, 0.04585717, 0.064502314, -1443816.6, -22993.168, 0.0, 9.999932, 9.999727 
1.7450349e+3, 1.6501816e+2, -1364892.5, -1415012.1, 17953.738, 0.044715416, 0.051882528, -1359124.9, -36297.004, 0.0, 10.000022, 9.999357 
1.7450355e+3, 1.7501755e+2, -1257362.3, -1312497.5, 17773.826, 0.04142899, 0.054723203, -1252129.3, -27295.7, 0.0, 10.000088, 9.999357 
1.7450361e+3, 1.8501678e+2, -1177624.6, -1267055.4, 20764.045, 0.03914612, 0.062448233, -1173038.8, -46197.34, 0.0, 10.000151, 9.998966 
1.7450367e+3, 1.9501586e+2, -1070816.5, -1164837.4, 20967.44, 0.037863057, 0.07484548, -1066352.5, -37501.082, 0.0, 10.000212, 9.998965 
1.7450373e+3, 2.0501482e+2, -969567.9, -1073630.1, 17763.467, 0.036099993, 0.07784583, -966619.25, -35757.266, 0.0, 10.00027, 9.998891 
1.745038e+3, 2.1501365e+2, -863408.56, -971706.25, 18433.193, 0.033857863, 0.07134414, -860357.06, -27484.098, 0.0, 10.000325, 9.998891 
1.7450385e+3, 2.2501245e+2, -755679.0, -867373.44, 10232.391, 0.033331823, 0.06066623, -754749.4, -19865.76, 0.0, 10.000385, 9.998905 
1.7450388e+3, 2.350112e+2, -648433.94, -764904.56, 10818.336, 0.03451641, 0.045654908, -647437.6, -10543.697, 0.0, 10.000448, 9.998905 
1.7450392e+3, 2.4500985e+2, -544166.1, -670302.8, 6162.1357, 0.035778653, 0.023961497, -543865.8, -4960.747, 0.0, 10.00052, 9.998848 
1.7450394e+3, 2.5500843e+2, -434776.5, -566753.9, 6157.8413, 0.03711928, -0.00455947, -434489.8, 6427.148, 0.0, 10.000597, 9.998849 
1.7450397e+3, 2.6500705e+2, -316049.7, -447792.0, 5763.0815, 0.042160716, -0.03327361, -315798.06, 27130.125, 0.0, 10.000692, 9.998946 
1.74504e+3, 2.750057e+2, -201690.44, -341862.84, 5202.858, 0.05088577, -0.06236064, -201497.58, 43441.203, 0.0, 10.000805, 9.998947 
1.7450403e+3, 2.850044e+2, -87286.59, -236816.78, 3967.4246, 0.056684, -0.087456316, -87181.41, 59767.62, 0.0, 10.000921, 9.9989395 
1.7450406e+3, 2.9500312e+2, 28278.217, -130329.98, 2996.3845, 0.05956556, -0.10875553, 28334.805, 77293.734, 0.0, 10.001041, 9.9989395 
1.7450407e+3, 3.0500194e+2, 107626.18, -49377.574, 2928.2446, 0.066549316, -0.12778936, 107680.78, 107680.78, 0.0, 10.001175, 9.999095 
1.7450412e+3, 3.1500086e+2, 129076.36, -38985.793, 1739.1456, 0.077606075, -0.14460002, 129094.36, 129094.36, 0.0, 10.001323, 9.999095 
1.7550328e+3, 1.2501952e+2, -1779980.5, -1737632.8, 4873.8955, 0.016863748, 0.1256932, -1737079.1, -22259.174, 0.0, 9.9995165, 10.000077 
1.7550333e+3, 1.3501942e+2, -1658335.9, -1628349.6, 5300.2866, 0.036694657, 0.10775067, -1627440.3, -10620.54, 0.0, 9.99968, 10.000076 
1.7550339e+3, 1.4501908e+2, -1565019.8, -1572188.4, 16054.5, 0.046701837, 0.08481926, -1552154.3, -33332.965, 0.0, 9.999818, 9.9997225 
1.7550343e+3, 1.5501852e+2, -1450420.6, -1466277.0, 15829.891, 0.04698204, 0.05670649, -1440644.5, -19819.842, 0.0, 9.999932, 9.999722 
1.7550349e+3, 1.6501795e+2, -1365223.9, -1415713.6, 20387.977, 0.045443296, 0.04411436, -1358019.3, -35190.0, 0.0, 10.000022, 9.999352 
1.7550355e+3, 1.7501731e+2, -1257694.1, -1313196.4, 20206.771, 0.042099018, 0.046738263, -1251116.8, -26281.88, 0.0, 10.000088, 9.999352 
1.7550363e+3, 1.8501656e+2, -1177231.3, -1266241.0, 23000.73, 0.039149288, 0.05418012, -1171639.0, -44796.242, 0.0, 10.000151, 9.998971 
1.755037e+3, 1.9501565e+2, -1070429.3, -1164023.3, 23202.67, 0.03659493, 0.0662296, -1064992.9, -36140.152, 0.0, 10.000212, 9.998971 
1.7550376e+3, 2.0501462e+2, -968312.75, -1071002.9, 19826.457, 0.033766128, 0.0689617, -964617.8, -33754.625, 0.0, 10.00027, 9.998909 
1.7550384e+3, 2.1501346e+2, -862158.8, -969081.8, 20494.656, 0.03066284, 0.062269874, -858365.06, -25491.094, 0.0, 10.000325, 9.998909 
1.7550388e+3, 2.2501227e+2, -754599.1, -865101.75, 12570.588, 0.030392101, 0.05150806, -753187.1, -18302.65, 0.0, 10.000385, 9.998921 
1.7550392e+3, 2.3501104e+2, -647347.9, -762631.9, 13155.668, 0.032942988, 0.03651822, -645865.6, -8971.004, 0.0, 10.000448, 9.998921 
1.7550397e+3, 2.450097e+2, -544181.75, -670331.56, 9046.677, 0.03573822, 0.0148519, -543536.25, -4630.574, 0.0, 10.00052, 9.998848 
1.75504e+3, 2.5500828e+2, -434783.13, -566780.5, 9043.316, 0.038777877, -0.013635567, -434166.44, 6751.166, 0.0, 10.000597, 9.998848 
1.7550404e+3, 2.6500687e+2, -317088.56, -449974.6, 9937.521, 0.044821393, -0.042057958, -316349.5, 26579.41, 0.0, 10.000692, 9.998932 
1.7550407e+3, 2.7500552e+2, -202727.08, -344047.16, 9378.827, 0.05385285, -0.070596166, -202107.36, 42832.28, 0.0, 10.000805, 9.998932 
1.7550412e+3, 2.850042e+2, -89080.17, -240580.7, 8460.5625, 0.060308665, -0.095097795, -88609.16, 58340.93, 0.0, 10.000921, 9.998914 
1.7550415e+3, 2.950029e+2, 26488.576, -134092.34, 7492.2227, 0.06419842, -0.115758225, 26837.383, 75797.62, 0.0, 10.001041, 9.998914 
1.755042e+3, 3.050017e+2, 105471.14, -53904.86, 8427.571, 0.07146836, -0.13421908, 105915.54, 105915.54, 0.0, 10.001176, 9.9990635 
1.7550425e+3, 3.1500062e+2, 126922.56, -43509.87, 7238.8267, 0.08209024, -0.15050885, 127229.47, 127229.47, 0.0, 10.001323, 9.999064 
1.7650324e+3, 1.2501913e+2, -1787289.4, -1740564.9, -2159.7422, 0.015620275, 0.11821738, -1740465.3, -25642.223, 0.0, 9.999464, 10.000083 
1.765033e+3, 1.3501903e+2, -1661891.4, -1629473.1, -2175.9504, 0.037534274, 0.09937164, -1629327.8, -12504.883, 0.0, 9.999653, 10.000082 
1.7650336e+3, 1.450187e+2, -1567113.8, -1574014.1, 6120.2207, 0.048122507, 0.07619407, -1563538.3, -44713.73, 0.0, 9.999807, 9.999715 
1.7650343e+3, 1.5501812e+2, -1451574.4, -1467648.5, 5791.303, 0.04748878, 0.048486844, -1449705.1, -28877.281, 0.0, 9.9999275, 9.999715 
1.765035e+3, 1.6501753e+2, -1365956.3, -1416758.6, 8263.791, 0.045575723, 0.036029413, -1364645.8, -41813.332, 0.0, 10.00002, 9.999347 
1.7650357e+3, 1.7501691e+2, -1258676.8, -1314359.0, 7981.296, 0.04239119, 0.0385215, -1257555.4, -32717.1, 0.0, 10.000084, 9.999346 
1.7650364e+3, 1.8501614e+2, -1178486.0, -1266477.1, 10265.073, 0.0389449, 0.045765072, -1177304.4, -50458.27, 0.0, 10.00014, 9.998975 
1.7650372e+3, 1.9501522e+2, -1073298.6, -1165035.1, 10296.585, 0.035242204, 0.05755194, -1072157.3, -43301.11, 0.0, 10.00019, 9.998975 
1.7650378e+3, 2.050142e+2, -971455.75, -1070701.0, 6708.898, 0.03154609, 0.059984718, -971004.3, -40137.918, 0.0, 10.00024, 9.998925 
1.7650385e+3, 2.1501306e+2, -866051.9, -969141.6, 7241.756, 0.027855266, 0.052955274, -865545.6, -32668.594, 0.0, 10.000291, 9.998925 
1.7650391e+3, 2.2501189e+2, -757706.25, -864937.4, -75.478905, 0.027974917, 0.041963466, -757706.2, -22818.838, 0.0, 10.000357, 9.998936 
1.7650397e+3, 2.3501067e+2, -647951.1, -761263.3, 452.28165, 0.031889234, 0.026850035, -647949.4, -11051.951, 0.0, 10.000438, 9.998936 
1.7650402e+3, 2.4500933e+2, -542923.9, -669678.25, -3018.4512, 0.036240634, 0.0051439423, -542852.06, -3943.677, 0.0, 10.000527, 9.998848 
1.7650406e+3, 2.550079e+2, -430289.3, -564570.9, -2972.9531, 0.0410285, -0.023299655, -430223.5, 10696.775, 0.0, 10.0006275, 9.998849 
1.7650412e+3, 2.650065e+2, -310906.25, -448275.94, -819.4832, 0.047940113, -0.05143934, -310901.38, 32030.28, 0.0, 10.00074, 9.99892 
1.7650416e+3, 2.7500516e+2, -194741.44, -341482.94, -1107.8236, 0.05696176, -0.07945728, -194733.08, 50209.4, 0.0, 10.000865, 9.99892 
1.7650422e+3, 2.850038e+2, -79803.68, -238374.94, -1336.4845, 0.06385721, -0.10336163, -79792.42, 67160.64, 0.0, 10.000995, 9.998894 
1.7650427e+3, 2.950025e+2, 37774.758, -130918.42, -1878.7689, 0.068635, -0.12334802, 37795.68, 86759.086, 0.0, 10.001129, 9.998894 
1.7650431e+3, 3.0500132e+2, 118102.78, -50664.223, 408.503, 0.07603203, -0.14118725, 118103.77, 118103.77, 0.0, 10.001274, 9.999039 
1.7650439e+3, 3.1500018e+2, 140974.38, -39582.25, -353.11014, 0.08602232, -0.1569023, 140975.06, 140975.06, 0.0, 10.001431, 9.999039 
1.7750317e+3, 1.2501855e+2, -1787309.9, -1740633.0, 4910.691, 0.015429122, 0.11007535, -1740121.9, -25294.035, 0.0, 9.999464, 10.000082 
1.7750326e+3, 1.3501844e+2, -1661911.3, -1629540.8, 4887.7397, 0.038487144, 0.0903616, -1628818.9, -11991.031, 0.0, 9.999653, 10.000081 
1.7750335e+3, 1.450181e+2, -1567707.0, -1575267.4, 10631.108, 0.04910368, 0.067019776, -1560204.0, -41374.54, 0.0, 9.999807, 9.999706 
1.7750342e+3, 1.5501752e+2, -1452170.9, -1468902.1, 10298.022, 0.04738504, 0.039846603, -1447268.8, -26435.887, 0.0, 9.9999275, 9.999706 
1.775035e+3, 1.6501692e+2, -1366478.6, -1417852.9, 10631.88, 0.0451203, 0.027629409, -1364365.4, -41527.76, 0.0, 10.00002, 9.999339 
1.7750357e+3, 1.750163e+2, -1259199.0, -1315450.1, 10347.775, 0.042310424, 0.030073246, -1257355.9, -32512.41, 0.0, 10.000084, 9.999338 
1.7750365e+3, 1.8501551e+2, -1178413.1, -1266326.5, 12081.392, 0.0385356, 0.037202027, -1176783.1, -49931.754, 0.0, 10.00014, 9.998976 
1.7750373e+3, 1.9501461e+2, -1073230.4, -1164884.6, 12111.998, 0.033805605, 0.048809983, -1071656.8, -42795.457, 0.0, 10.00019, 9.998976 
1.7750381e+3, 2.050136e+2, -970452.6, -1068602.0, 8576.491, 0.029437436, 0.050912645, -969708.8, -38837.28, 0.0, 10.00024, 9.9989395 
1.7750388e+3, 2.1501245e+2, -865051.94, -967044.8, 9108.421, 0.025428303, 0.043400194, -864244.9, -31362.82, 0.0, 10.000291, 9.9989395 
1.7750396e+3, 2.2501129e+2, -756729.2, -862889.8, 2912.8884, 0.026071252, 0.03203446, -756649.3, -21757.043, 0.0, 10.000357, 9.99895 
1.7750402e+3, 2.3501009e+2, -646968.4, -759215.5, 3439.3442, 0.031346362, 0.016654631, -646863.1, -9960.955, 0.0, 10.000437, 9.99895 
1.7750408e+3, 2.4500875e+2, -542846.6, -669522.75, 705.6982, 0.037276935, -0.005157045, -542842.7, -3929.6646, 0.0, 10.000527, 9.998849 
1.7750412e+3, 2.5500733e+2, -430205.6, -564415.56, 751.3241, 0.043861628, -0.033546515, -430201.4, 10723.563, 0.0, 10.000628, 9.99885 
1.7750418e+3, 2.6500592e+2, -311443.25, -449416.66, 3821.1714, 0.051509675, -0.061412327, -311337.5, 31598.854, 0.0, 10.00074, 9.998912 
1.7750426e+3, 2.7500457e+2, -195281.8, -342628.28, 3533.6733, 0.060210235, -0.08893795, -195197.1, 49750.152, 0.0, 10.000865, 9.998913 
1.7750432e+3, 2.8500324e+2, -80816.15, -240499.67, 3675.6692, 0.06733074, -0.11224167, -80731.586, 66226.34, 0.0, 10.000995, 9.9988785 
1.7750438e+3, 2.9500192e+2, 36761.37, -133042.17, 3135.243, 0.072878435, -0.1315191, 36819.242, 85787.65, 0.0, 10.001129, 9.9988785 
1.7750445e+3, 3.050007e+2, 116724.21, -53542.13, 6272.237, 0.080246344, -0.14868864, 116954.95, 116954.95, 0.0, 10.001275, 9.999019 
1.7750454e+3, 3.1499958e+2, 139589.33, -42460.04, 5511.625, 0.08941127, -0.1637736, 139756.05, 139756.05, 0.0, 10.001431, 9.999019 
1.7850313e+3, 1.2501776e+2, -1787608.8, -1741432.8, -2567.9255, 0.016409967, 0.1014502, -1741290.4, -26455.66, 0.0, 9.999465, 10.000076 
1.7850322e+3, 1.3501763e+2, -1661806.8, -1630144.0, -2999.0527, 0.0394673, 0.081087805, -1629862.5, -13027.765, 0.0, 9.999656, 10.000075 
1.7850332e+3, 1.4501728e+2, -1567996.5, -1576348.8, -163.60216, 0.04949677, 0.057723884, -1567993.4, -49156.887, 0.0, 9.999809, 9.999699 
1.7850341e+3, 1.5501672e+2, -1453291.8, -1470382.5, -485.56888, 0.046602286, 0.031150535, -1453278.0, -32438.014, 0.0, 9.999924, 9.999698 
1.785035e+3, 1.6501611e+2, -1368017.1, -1419429.0, -2192.411, 0.044000994, 0.019296383, -1367923.9, -45079.164, 0.0, 10.000013, 9.999331 
1.7850357e+3, 1.7501548e+2, -1260879.5, -1317091.6, -2474.0884, 0.04168694, 0.021872237, -1260770.9, -35920.22, 0.0, 10.000076, 9.999331 
1.7850366e+3, 1.850147e+2, -1180250.4, -1267282.1, -1479.7537, 0.03775137, 0.029050047, -1180225.3, -53366.62, 0.0, 10.000128, 9.998975 
1.7850375e+3, 1.9501379e+2, -1076190.4, -1166380.1, -1573.3252, 0.032207713, 0.040626816, -1076162.9, -47294.355, 0.0, 10.00017, 9.998975 
1.7850383e+3, 2.0501277e+2, -973226.3, -1068710.8, -5118.234, 0.02743823, 0.04243825, -972952.75, -42073.977, 0.0, 10.000216, 9.998951 
1.785039e+3, 2.1501164e+2, -867962.2, -967220.3, -4843.116, 0.02343865, 0.034372535, -867726.44, -34837.27, 0.0, 10.000265, 9.99895 
1.7850398e+3, 2.2501048e+2, -758461.5, -862437.5, -9807.727, 0.02466462, 0.022527639, -757544.44, -22645.184, 0.0, 10.0003395, 9.998961 
1.7850405e+3, 2.3500928e+2, -646294.2, -757606.25, -9473.0205, 0.031093469, 0.0067409836, -645493.75, -8584.697, 0.0, 10.000437, 9.998961 
1.7850412e+3, 2.4500796e+2, -540310.3, -668156.06, -11511.782, 0.03843252, -0.015253155, -539282.0, -362.13226, 0.0, 10.000545, 9.998851 
1.785042e+3, 2.5500655e+2, -424927.6, -561734.06, -11447.475, 0.04667971, -0.04360283, -423976.34, 16955.445, 0.0, 10.000664, 9.998851 
1.7850427e+3, 2.6500514e+2, -304942.72, -446795.75, -7620.426, 0.054918457, -0.0712651, -304534.53, 38408.664, 0.0, 10.000788, 9.998908 
1.7850435e+3, 2.750038e+2, -188262.81, -339762.0, -7661.0903, 0.063140936, -0.09842464, -187876.39, 57077.727, 0.0, 10.000916, 9.998908 
1.7850444e+3, 2.8500244e+2, -73483.516, -237943.31, -6784.9917, 0.07035408, -0.12125649, -73204.06, 73760.79, 0.0, 10.001049, 9.99887 
1.7850451e+3, 2.9500112e+2, 44783.86, -130151.98, -6886.1123, 0.07656379, -0.13995588, 45054.504, 94029.914, 0.0, 10.001188, 9.99887 
1.7850459e+3, 3.0499992e+2, 124642.88, -51207.184, -2561.2173, 0.08380568, -0.15649025, 124680.17, 124680.17, 0.0, 10.001335, 9.999005 
1.7850469e+3, 3.1499875e+2, 147256.63, -40243.055, -2836.6917, 0.09206032, -0.17089167, 147299.53, 147299.53, 0.0, 10.001491, 9.999006 
1.7950308e+3, 1.2501678e+2, -1788359.9, -1743051.9, 4609.6313, 0.018546857, 0.09234614, -1742587.6, -27744.242, 0.0, 9.999465, 10.000066 
1.795032e+3, 1.3501664e+2, -1662565.3, -1631763.6, 4172.662, 0.040473524, 0.071551606, -1631208.4, -14364.818, 0.0, 9.999657, 10.000064 
1.795033e+3, 1.4501628e+2, -1568559.1, -1577545.5, 4134.3345, 0.04930856, 0.048305754, -1566946.5, -48101.06, 0.0, 9.999809, 9.99969 
1.7950341e+3, 1.5501572e+2, -1453862.4, -1471581.4, 3809.7947, 0.0451488, 0.022397049, -1453077.9, -32228.924, 0.0, 9.999924, 9.999689 
1.7950349e+3, 1.650151e+2, -1368537.0, -1420513.0, 142.35449, 0.042226203, 0.011026878, -1368536.6, -45682.848, 0.0, 10.000013, 9.999324 
1.7950359e+3, 1.7501447e+2, -1261398.9, -1318172.5, -140.65126, 0.04052789, 0.013912172, -1261398.6, -36538.79, 0.0, 10.000076, 9.999324 
1.7950368e+3, 1.8501368e+2, -1180413.0, -1267618.5, 49.428898, 0.03659719, 0.021300131, -1180413.0, -53545.168, 0.0, 10.000128, 9.998973 
1.7950377e+3, 1.9501278e+2, -1076355.6, -1166717.1, -44.234486, 0.030450331, 0.03299084, -1076355.6, -47477.844, 0.0, 10.00017, 9.998973 
1.7950384e+3, 2.0501176e+2, -972703.0, -1067614.5, -3280.4583, 0.025546012, 0.034548964, -972589.75, -41701.78, 0.0, 10.000216, 9.998958 
1.7950393e+3, 2.1501061e+2, -867439.8, -966125.94, -3005.7566, 0.021878578, 0.025860379, -867348.4, -34450.035, 0.0, 10.000265, 9.998958 
1.7950402e+3, 2.2500946e+2, -757838.75, -861136.06, -6187.707, 0.023746343, 0.013432391, -757469.44, -22561.076, 0.0, 10.0003395, 9.99897 
1.795041e+3, 2.3500827e+2, -645668.6, -756306.06, -5854.7188, 0.03112531, -0.002899559, -645359.7, -8441.664, 0.0, 10.000437, 9.99897 
1.7950419e+3, 2.4500696e+2, -540200.56, -667933.3, -7068.8896, 0.039705075, -0.025152061, -539810.56, -881.7332, 0.0, 10.000545, 9.998852 
1.7950426e+3, 2.5500554e+2, -424817.8, -561518.2, -7005.682, 0.049482875, -0.053476192, -424459.72, 16480.98, 0.0, 10.000664, 9.998853 
1.7950435e+3, 2.6500416e+2, -305027.25, -446984.16, -2840.3726, 0.0581692, -0.081004195, -304970.44, 37981.664, 0.0, 10.000788, 9.998906 
1.7950444e+3, 2.7500278e+2, -188357.2, -339961.3, -2881.4126, 0.06575907, -0.1079218, -188302.45, 56660.594, 0.0, 10.000916, 9.998907 
1.7950453e+3, 2.8500143e+2, -73695.016, -238377.22, -1591.047, 0.07293452, -0.13040835, -73679.65, 73294.16, 0.0, 10.001049, 9.998867 
1.7950463e+3, 2.9500014e+2, 44566.957, -130585.56, -1691.8273, 0.0797003, -0.14865819, 44583.297, 93567.68, 0.0, 10.001188, 9.998867 
1.7950472e+3, 3.049989e+2, 124141.76, -52216.97, 3237.2185, 0.08672115, -0.16459121, 124201.164, 124201.164, 0.0, 10.001335, 9.998999 
1.7950483e+3, 3.1499776e+2, 146740.89, -41256.688, 2963.6553, 0.09398139, -0.17825842, 146787.6, 146787.6, 0.0, 10.001491, 9.998999 
1.8050303e+3, 1.2501562e+2, -1781664.3, -1741460.0, -2999.8906, 0.021551572, 0.083156556, -1741237.4, -26383.398, 0.0, 9.999518, 10.000051 
1.8050316e+3, 1.3501544e+2, -1659010.0, -1631681.5, -3700.0977, 0.04144361, 0.062236574, -1631189.4, -14334.993, 0.0, 9.999688, 10.00005 
1.8050328e+3, 1.4501509e+2, -1567231.1, -1577635.3, -6589.5664, 0.048703145, 0.039261818, -1564037.8, -45181.426, 0.0, 9.999822, 9.999683 
1.805034e+3, 1.5501451e+2, -1454987.5, -1472851.5, -6789.5127, 0.043416534, 0.014018197, -1452700.0, -31840.088, 0.0, 9.99992, 9.999682 
1.8050349e+3, 1.6501391e+2, -1370853.9, -1422248.4, -11975.614, 0.040262073, 0.003229101, -1368200.4, -45335.68, 0.0, 10.0, 9.999319 
1.8050359e+3, 1.7501326e+2, -1263793.0, -1319942.3, -12119.65, 0.03922146, 0.0066178576, -1261288.8, -36417.918, 0.0, 10.000062, 9.999318 
1.8050368e+3, 1.8501247e+2, -1182844.6, -1269088.5, -12720.87, 0.03544505, 0.014367891, -1181007.5, -54128.62, 0.0, 10.000113, 9.99897 
1.8050379e+3, 1.9501159e+2, -1079183.9, -1168378.8, -12842.838, 0.02895076, 0.026282663, -1077371.5, -48482.656, 0.0, 10.000152, 9.99897 
1.8050388e+3, 2.0501056e+2, -975045.7, -1068370.9, -15822.157, 0.024170019, 0.027662404, -972436.2, -41537.15, 0.0, 10.000198, 9.998961 
1.8050395e+3, 2.1500944e+2, -869262.6, -966633.8, -15861.39, 0.021096244, 0.01838983, -866744.0, -33834.613, 0.0, 10.000252, 9.998961 
1.8050405e+3, 2.2500825e+2, -758455.56, -860869.8, -17415.926, 0.02353161, 0.0053559216, -755574.94, -20655.53, 0.0, 10.000333, 9.998976 
1.8050414e+3, 2.3500706e+2, -644642.75, -755250.94, -17375.15, 0.03145223, -0.011606049, -641977.56, -5048.5317, 0.0, 10.000441, 9.998976 
1.8050423e+3, 2.4500576e+2, -537772.94, -666638.75, -17917.38, 0.04089148, -0.03417999, -535328.06, 3611.7134, 0.0, 10.000561, 9.998854 
1.8050434e+3, 2.5500435e+2, -420688.2, -559410.94, -17885.47, 0.05184607, -0.06252072, -418419.3, 22532.348, 0.0, 10.000691, 9.998854 
1.8050443e+3, 2.6500294e+2, -300299.97, -444617.44, -13604.317, 0.06079555, -0.0899963, -299028.75, 43934.324, 0.0, 10.000819, 9.998907 
1.8050455e+3, 2.750016e+2, -184102.67, -337828.38, -13489.88, 0.06773721, -0.116793394, -182927.88, 62046.125, 0.0, 10.000944, 9.998907 
1.8050463e+3, 2.8500023e+2, -69827.47, -236344.1, -11534.325, 0.07481432, -0.13910605, -69032.305, 77952.43, 0.0, 10.001075, 9.998869 
1.8050475e+3, 2.9499894e+2, 48028.207, -128744.82, -11304.567, 0.082030766, -0.1571272, 48748.195, 97743.5, 0.0, 10.001211, 9.998869 
1.8050487e+3, 3.049977e+2, 126364.11, -51196.477, -5549.441, 0.088807434, -0.17256159, 126537.375, 126537.375, 0.0, 10.00135, 9.998998 
1.8050498e+3, 3.1499657e+2, 147186.44, -41089.63, -5349.8623, 0.09513288, -0.18548627, 147338.33, 147338.33, 0.0, 10.001493, 9.998999 
1.8150298e+3, 1.2501425e+2, -1782885.0, -1744076.1, 3367.4238, 0.025412554, 0.07388089, -1743786.1, -28919.62, 0.0, 9.999518, 10.000032 
1.8150313e+3, 1.3501407e+2, -1660242.6, -1634298.5, 2663.8215, 0.042377215, 0.05313824, -1634027.9, -17160.78, 0.0, 9.999688, 10.000031 
1.8150327e+3, 1.450137e+2, -1567553.9, -1578341.6, -2922.261, 0.047684755, 0.03058544, -1566813.1, -47944.023, 0.0, 9.999822, 9.999679 
1.8150339e+3, 1.5501313e+2, -1455319.4, -1473560.1, -3122.4983, 0.04140816, 0.006007072, -1454799.6, -33926.926, 0.0, 9.99992, 9.999678 
1.8150349e+3, 1.6501252e+2, -1371110.5, -1422789.9, -9653.466, 0.03811035, -0.00410558, -1369366.1, -46488.58, 0.0, 10.0, 9.999315 
1.815036e+3, 1.7501189e+2, -1264048.5, -1320480.8, -9798.099, 0.03776915, -0.000022528922, -1262395.8, -37512.035, 0.0, 10.000062, 9.999314 
1.815037e+3, 1.850111e+2, -1183057.8, -1269537.8, -11285.859, 0.03429437, 0.008238809, -1181609.1, -54717.355, 0.0, 10.000113, 9.998967 
1.815038e+3, 1.950102e+2, -1079397.8, -1168829.9, -11407.305, 0.027704535, 0.020485524, -1077965.6, -49063.773, 0.0, 10.000152, 9.998967 
1.8150389e+3, 2.0500918e+2, -975102.8, -1068496.5, -13839.089, 0.023301573, 0.02176007, -973095.25, -42183.258, 0.0, 10.000198, 9.9989605 
1.8150398e+3, 2.1500804e+2, -869319.44, -966761.8, -13878.597, 0.021078555, 0.011941125, -867381.25, -34458.875, 0.0, 10.000252, 9.9989605 
1.8150407e+3, 2.2500686e+2, -758370.44, -860701.4, -13357.835, 0.024008496, -0.0017217447, -756655.5, -21723.104, 0.0, 10.000333, 9.998977 
1.8150419e+3, 2.3500566e+2, -644560.6, -755086.7, -13318.957, 0.03206892, -0.019397657, -642978.25, -6036.209, 0.0, 10.000441, 9.998977 
1.815043e+3, 2.4500436e+2, -537723.94, -666540.2, -13020.19, 0.041992817, -0.042355616, -536421.1, 2531.6992, 0.0, 10.000561, 9.998854 
1.8150441e+3, 2.5500292e+2, -420646.22, -559323.0, -12990.031, 0.05377656, -0.07075481, -419439.9, 21524.732, 0.0, 10.000691, 9.998854 
1.8150452e+3, 2.6500154e+2, -300108.06, -444211.3, -8936.45, 0.06280804, -0.09825878, -299556.0, 43420.035, 0.0, 10.000819, 9.99891 
1.8150462e+3, 2.7500018e+2, -183923.95, -337434.44, -8823.43, 0.069086045, -0.12505499, -183418.47, 61568.45, 0.0, 10.000944, 9.99891 
1.8150474e+3, 2.8499883e+2, -69441.81, -235505.69, -6437.9795, 0.0760052, -0.14736232, -69192.6, 77805.02, 0.0, 10.001075, 9.998875 
1.8150488e+3, 2.949975e+2, 48404.96, -127906.39, -6209.5894, 0.08356895, -0.16537176, 48623.387, 97631.53, 0.0, 10.001211, 9.998875 
1.8150501e+3, 3.0499634e+2, 126715.66, -50388.984, -207.45813, 0.090078816, -0.18040845, 126715.9, 126715.9, 0.0, 10.00135, 9.999003 
1.8150514e+3, 3.149952e+2, 147515.98, -40291.87, -5.253954, 0.095527016, -0.19258477, 147515.98, 147515.98, 0.0, 10.001493, 9.999004 
1.8250294e+3, 1.2501271e+2, -1770953.0, -1740424.0, -3920.3618, 0.02936254, 0.06506229, -1739928.6, -25047.914, 0.0, 9.999609, 10.000013 
1.825031e+3, 1.350125e+2, -1653890.8, -1633331.3, -4682.175, 0.04309655, 0.044810392, -1632315.3, -15433.789, 0.0, 9.999741, 10.000013 
1.8250325e+3, 1.4501214e+2, -1564375.9, -1577064.3, -12573.602, 0.046499643, 0.022805955, -1556636.6, -37752.965, 0.0, 9.999845, 9.999676 
1.8250337e+3, 1.5501158e+2, -1455229.8, -1473768.9, -12582.013, 0.03963072, -0.0011671284, -1448871.4, -27984.21, 0.0, 9.999922, 9.999676 
1.8250349e+3, 1.6501099e+2, -1372393.9, -1423474.4, -19832.318, 0.03637411, -0.010600587, -1365598.0, -42705.88, 0.0, 9.999991, 9.999314 
1.825036e+3, 1.7501034e+2, -1265232.4, -1321114.8, -19747.633, 0.036706153, -0.00575703, -1258958.4, -34060.145, 0.0, 10.000054, 9.999314 
1.8250372e+3, 1.8500957e+2, -1184146.1, -1270350.1, -21954.955, 0.03365214, 0.0030517732, -1178876.6, -51970.3, 0.0, 10.000107, 9.998964 
1.825038e+3, 1.9500867e+2, -1080116.1, -1169466.4, -22040.18, 0.027230177, 0.0156365, -1074975.3, -46058.945, 0.0, 10.000148, 9.998964 
1.8250391e+3, 2.0500763e+2, -975343.7, -1069158.8, -23987.447, 0.023405459, 0.016862962, -969566.2, -38639.586, 0.0, 10.000198, 9.998956 
1.82504e+3, 2.1500649e+2, -868659.3, -966993.06, -24327.139, 0.022171427, 0.0066045537, -862970.1, -30033.094, 0.0, 10.000258, 9.998956 
1.8250412e+3, 2.2500531e+2, -757044.56, -860418.2, -22136.176, 0.025421841, -0.0076279463, -752503.8, -17556.746, 0.0, 10.000343, 9.998974 
1.8250424e+3, 2.350041e+2, -643051.2, -754718.06, -22421.602, 0.033136334, -0.026006382, -638717.3, -1760.5586, 0.0, 10.000453, 9.998973 
1.8250436e+3, 2.4500278e+2, -535859.75, -665670.2, -21488.508, 0.043054417, -0.049373314, -532395.06, 6572.4663, 0.0, 10.000574, 9.998854 
1.8250448e+3, 2.5500134e+2, -418676.03, -558409.4, -21530.45, 0.055172447, -0.07789261, -415433.78, 25545.598, 0.0, 10.000706, 9.998854 
1.8250461e+3, 2.6499996e+2, -298398.34, -442970.0, -17877.96, 0.06408071, -0.10548341, -296220.34, 46770.406, 0.0, 10.00083, 9.998914 
1.8250473e+3, 2.749986e+2, -183412.0, -336774.63, -17699.916, 0.06977888, -0.13233387, -181395.72, 63605.875, 0.0, 10.000946, 9.998914 
1.8250486e+3, 2.8499728e+2, -69813.39, -234758.23, -14764.696, 0.07651258, -0.15474828, -68502.18, 78510.07, 0.0, 10.001068, 9.998882 
1.82505e+3, 2.9499596e+2, 46826.24, -127735.34, -14360.185, 0.08428519, -0.17291531, 47999.684, 97022.375, 0.0, 10.001196, 9.998883 
1.8250515e+3, 3.049948e+2, 123324.98, -50800.777, -8035.842, 0.0905745, -0.1876978, 123695.04, 123695.04, 0.0, 10.001322, 9.999015 
1.8250528e+3, 3.1499368e+2, 141357.92, -42038.85, -7452.215, 0.09537665, -0.19924138, 141660.23, 141660.23, 0.0, 10.001446, 9.999015 
1.8350291e+3, 1.2501101e+2, -1772276.1, -1743255.5, 1005.18604, 0.0333992, 0.056694217, -1743220.8, -28324.203, 0.0, 9.99961, 9.999994 
1.8350308e+3, 1.3501081e+2, -1655225.5, -1636163.8, 243.20729, 0.043603197, 0.03724239, -1636160.6, -19263.197, 0.0, 9.999741, 9.999993 
1.8350324e+3, 1.4501043e+2, -1564337.4, -1577026.5, -9699.756, 0.04514848, 0.015910767, -1559091.5, -40191.69, 0.0, 9.999845, 9.999677 
1.8350337e+3, 1.5500987e+2, -1455197.1, -1473731.1, -9706.512, 0.038079884, -0.007516752, -1451044.3, -30140.871, 0.0, 9.999922, 9.999676 
1.835035e+3, 1.6500928e+2, -1372213.1, -1423121.1, -17474.852, 0.035046812, -0.016268928, -1366792.0, -43883.75, 0.0, 9.999991, 9.999317 
1.8350361e+3, 1.7500865e+2, -1265049.3, -1320758.0, -17390.074, 0.0360264, -0.010600201, -1260066.4, -35152.1, 0.0, 10.000054, 9.999316 
1.8350372e+3, 1.8500789e+2, -1184282.1, -1270658.0, -20413.174, 0.033510387, -0.0012089257, -1179700.9, -52778.566, 0.0, 10.000107, 9.998962 
1.8350382e+3, 1.9500697e+2, -1080251.1, -1169776.9, -20497.879, 0.027515529, 0.011719073, -1075781.1, -46848.65, 0.0, 10.000148, 9.998962 
1.8350393e+3, 2.0500594e+2, -975948.75, -1070447.5, -21758.604, 0.02446603, 0.012952918, -971179.5, -40236.777, 0.0, 10.000198, 9.998947 
1.8350405e+3, 2.1500479e+2, -869264.0, -968285.4, -22098.803, 0.024356503, 0.0023595109, -864556.0, -31602.752, 0.0, 10.000258, 9.998946 
1.8350415e+3, 2.250036e+2, -757552.5, -861503.44, -18017.75, 0.02775599, -0.012384944, -754518.06, -19554.664, 0.0, 10.000343, 9.998966 
1.8350428e+3, 2.3500237e+2, -643569.1, -755811.25, -18304.979, 0.03464664, -0.03145542, -640659.25, -3686.0754, 0.0, 10.000453, 9.998966 
1.835044e+3, 2.4500103e+2, -535945.6, -665851.44, -16549.844, 0.04407668, -0.055256557, -533870.3, 5113.6724, 0.0, 10.000574, 9.998853 
1.8350455e+3, 2.549996e+2, -418777.25, -558605.9, -16593.436, 0.056042813, -0.083957165, -416835.1, 24160.77, 0.0, 10.000705, 9.998853 
1.8350469e+3, 2.6499823e+2, -298098.2, -442318.2, -13508.369, 0.06462615, -0.11169282, -296843.84, 46163.36, 0.0, 10.00083, 9.998919 
1.8350482e+3, 2.7499685e+2, -183124.17, -336129.28, -13332.177, 0.069826715, -0.1386522, -181971.16, 63046.86, 0.0, 10.000946, 9.998919 
1.8350497e+3, 2.8499556e+2, -69116.95, -233245.73, -9971.254, 0.076348, -0.16128446, -68513.4, 78515.195, 0.0, 10.001068, 9.998893 
1.8350512e+3, 2.9499426e+2, 47513.055, -126219.9, -9569.364, 0.08419375, -0.1797756, 48038.555, 97077.51, 0.0, 10.001196, 9.998894 
1.8350527e+3, 3.0499306e+2, 124365.51, -48526.625, -3403.7004, 0.09030774, -0.19444495, 124432.49, 124432.49, 0.0, 10.001322, 9.99903 
1.8350543e+3, 3.14992e+2, 142371.4, -39782.945, -2818.04, 0.09468939, -0.20546569, 142415.0, 142415.0, 0.0, 10.001445, 9.999031 
1.8450287e+3, 1.2500916e+2, -1758789.9, -1738695.5, -5437.3813, 0.036467444, 0.049203973, -1737318.5, -22404.672, 0.0, 9.999711, 9.999977 
1.8450305e+3, 1.3500898e+2, -1647714.1, -1634480.0, -6039.79, 0.043546386, 0.030836513, -1632138.0, -15223.133, 0.0, 9.999801, 9.999976 
1.8450321e+3, 1.450086e+2, -1559600.1, -1574446.3, -17400.113, 0.04368285, 0.010252672, -1548105.9, -29188.635, 0.0, 9.999876, 9.999679 
1.8450336e+3, 1.5500805e+2, -1452848.6, -1472299.4, -17227.75, 0.0369093, -0.012763957, -1442790.8, -21869.873, 0.0, 9.999936, 9.999679 
1.845035e+3, 1.6500746e+2, -1370704.6, -1421838.8, -24971.305, 0.034292683, -0.020969745, -1360533.1, -37607.54, 0.0, 9.999999, 9.999322 
1.8450361e+3, 1.7500684e+2, -1263157.9, -1319288.6, -24699.938, 0.03581285, -0.014609777, -1253836.8, -28905.049, 0.0, 10.000065, 9.999321 
1.8450373e+3, 1.8500608e+2, -1182194.4, -1269881.8, -28364.914, 0.033898026, -0.0047425344, -1173818.9, -46879.203, 0.0, 10.000122, 9.9989605 
1.8450384e+3, 1.9500518e+2, -1077168.5, -1168524.9, -28446.17, 0.02856297, 0.0084492145, -1069035.1, -40085.332, 0.0, 10.000171, 9.99896 
1.8450396e+3, 2.0500414e+2, -972598.7, -1070177.1, -29144.824, 0.026413403, 0.009700958, -964556.5, -33596.35, 0.0, 10.000228, 9.998935 
1.8450406e+3, 2.1500295e+2, -864985.3, -967571.8, -29720.025, 0.0274457, -0.001128063, -856997.2, -24026.436, 0.0, 10.000294, 9.998935 
1.845042e+3, 2.2500175e+2, -753537.25, -860834.5, -24335.219, 0.030822273, -0.016275372, -748275.94, -13294.871, 0.0, 10.000377, 9.998955 
1.8450433e+3, 2.3500052e+2, -641115.7, -755898.3, -24910.033, 0.03652739, -0.035919506, -635942.9, 1048.1136, 0.0, 10.000475, 9.998955 
1.8450446e+3, 2.4499917e+2, -534496.6, -665418.8, -22538.863, 0.045057055, -0.060124658, -530725.1, 8276.778, 0.0, 10.000585, 9.99885 
1.8450461e+3, 2.5499773e+2, -419038.53, -559002.7, -22671.191, 0.056408696, -0.08906469, -415457.9, 25555.85, 0.0, 10.000705, 9.99885 
1.8450476e+3, 2.6499635e+2, -299523.0, -442451.84, -20175.508, 0.06451902, -0.11697643, -296729.66, 46295.406, 0.0, 10.000817, 9.998923 
1.8450493e+3, 2.74995e+2, -186194.75, -337049.44, -19973.967, 0.06938838, -0.14404887, -183594.9, 61440.92, 0.0, 10.000922, 9.998923 
1.8450506e+3, 2.8499368e+2, -73400.74, -234034.0, -16145.639, 0.07569791, -0.16690983, -71793.98, 75252.36, 0.0, 10.001033, 9.998904 
1.8450522e+3, 2.949924e+2, 41565.38, -127799.98, -15684.335, 0.08345175, -0.18574254, 43005.6, 92062.2, 0.0, 10.001149, 9.998905 
1.8450539e+3, 3.0499125e+2, 116656.625, -50141.535, -9699.345, 0.08952625, -0.20043978, 117218.75, 117218.75, 0.0, 10.00126, 9.999049 
1.8450557e+3, 3.1499016e+2, 131795.97, -42785.7, -8907.321, 0.09392466, -0.21118347, 132249.25, 132249.25, 0.0, 10.001363, 9.99905 
1.8550284e+3, 1.2500721e+2, -1759826.1, -1740912.6, -2056.1497, 0.038576256, 0.042580813, -1740691.6, -25759.154, 0.0, 9.999711, 9.999962 
1.8550304e+3, 1.3500701e+2, -1648757.3, -1636697.5, -2655.8435, 0.042931277, 0.0255782, -1636138.5, -19204.824, 0.0, 9.999801, 9.999961 
1.855032e+3, 1.4500663e+2, -1559230.1, -1573718.8, -15138.366, 0.04210253, 0.0058156815, -1549692.0, -30756.012, 0.0, 9.999876, 9.999684 
1.8550335e+3, 1.5500608e+2, -1452478.5, -1471569.0, -14963.545, 0.036112595, -0.01692376, -1444275.0, -23335.361, 0.0, 9.999936, 9.999683 
1.855035e+3, 1.650055e+2, -1370167.0, -1420757.0, -22505.809, 0.03410315, -0.024716958, -1361604.3, -38659.95, 0.0, 9.999999, 9.999329 
1.8550363e+3, 1.7500491e+2, -1262616.6, -1318202.5, -22234.084, 0.036058463, -0.017798482, -1254817.4, -29867.139, 0.0, 10.000065, 9.999329 
1.8550375e+3, 1.8500414e+2, -1182314.9, -1270173.3, -26555.479, 0.034806814, -0.0075609176, -1174912.1, -47953.813, 0.0, 10.000122, 9.998959 
1.8550386e+3, 1.9500326e+2, -1077286.3, -1168818.5, -26636.78, 0.030360516, 0.0058155623, -1070099.0, -41130.668, 0.0, 10.000171, 9.998958 
1.8550397e+3, 2.050022e+2, -973631.2, -1072373.0, -26665.023, 0.029233312, 0.0070947935, -966890.5, -35911.72, 0.0, 10.000228, 9.9989195 
1.8550411e+3, 2.15001e+2, -866018.25, -969772.4, -27241.057, 0.031423926, -0.0038727242, -859300.9, -26311.281, 0.0, 10.000294, 9.9989195 
1.8550424e+3, 2.2499979e+2, -754572.44, -863030.06, -20612.547, 0.034608256, -0.019316254, -750787.1, -15787.071, 0.0, 10.000377, 9.9989395 
1.8550438e+3, 2.3499852e+2, -642168.3, -758108.5, -21188.611, 0.038772, -0.03941837, -638417.3, -1407.2029, 0.0, 10.000476, 9.9989395 
1.8550453e+3, 2.4499716e+2, -534747.0, -665939.0, -18033.807, 0.04599601, -0.06399852, -532313.2, 6707.9316, 0.0, 10.000585, 9.998846 
1.8550469e+3, 2.5499573e+2, -419308.88, -559537.06, -18167.365, 0.056278765, -0.09323573, -416993.4, 24039.604, 0.0, 10.000705, 9.998846 
1.8550484e+3, 2.6499432e+2, -299189.44, -441711.28, -16223.52, 0.06377036, -0.12135492, -297366.03, 45678.293, 0.0, 10.000817, 9.998928 
1.85505e+3, 2.7499297e+2, -185864.86, -336296.22, -16024.061, 0.068471715, -0.14854504, -184176.89, 60878.13, 0.0, 10.000922, 9.998929 
1.8550518e+3, 2.8499168e+2, -72607.21, -232298.86, -11776.034, 0.07457016, -0.17164591, -71743.49, 75321.97, 0.0, 10.001033, 9.998917 
1.8550535e+3, 2.9499042e+2, 42351.508, -126057.14, -11317.238, 0.082070224, -0.19083795, 43108.633, 92184.26, 0.0, 10.001149, 9.998918 
1.8550552e+3, 3.0498925e+2, 118074.83, -47066.535, -5802.8076, 0.08823786, -0.2057016, 118278.48, 118278.48, 0.0, 10.001259, 9.99907 
1.855057e+3, 3.1498823e+2, 133191.63, -39728.883, -5011.305, 0.09308026, -0.21641666, 133336.73, 133336.73, 0.0, 10.001363, 9.999071 
1.8650281e+3, 1.2500514e+2, -1749473.0, -1737114.9, -7346.5884, 0.03882413, 0.0368529, -1733694.3, -18742.05, 0.0, 9.999787, 9.99995 
1.8650301e+3, 1.3500494e+2, -1642563.4, -1634902.5, -7604.087, 0.04139426, 0.021421498, -1630218.5, -13265.106, 0.0, 9.999848, 9.99995 
1.8650319e+3, 1.4500457e+2, -1554319.5, -1570671.3, -20558.842, 0.040246204, 0.0024756782, -1540370.4, -21414.646, 0.0, 9.999907, 9.99969 
1.8650335e+3, 1.5500402e+2, -1448332.9, -1468887.1, -20303.316, 0.03539491, -0.020203663, -1435853.8, -14894.48, 0.0, 9.999962, 9.999689 
1.8650348e+3, 1.6500346e+2, -1366044.9, -1417941.4, -27437.316, 0.03408625, -0.02782046, -1354229.1, -31265.115, 0.0, 10.000024, 9.999336 
1.8650362e+3, 1.7500289e+2, -1257957.4, -1315125.1, -27168.713, 0.03630926, -0.020597659, -1247105.6, -22135.729, 0.0, 10.000093, 9.999336 
1.8650375e+3, 1.8500213e+2, -1177488.6, -1268229.5, -32099.637, 0.035711817, -0.010169579, -1167281.5, -40303.68, 0.0, 10.000157, 9.998955 
1.8650389e+3, 1.9500121e+2, -1071142.8, -1166243.8, -32286.98, 0.032303788, 0.0032858134, -1061217.3, -32229.27, 0.0, 10.000215, 9.998955 
1.86504e+3, 2.0500016e+2, -967456.4, -1071319.6, -31859.875, 0.03222326, 0.0045765643, -958462.25, -27463.773, 0.0, 10.000278, 9.998902 
1.8650414e+3, 2.1499895e+2, -859175.7, -968403.75, -32590.469, 0.035471395, -0.006456376, -850190.75, -17181.297, 0.0, 10.000349, 9.998902 
1.8650427e+3, 2.2499771e+2, -748903.75, -862278.7, -25369.111, 0.038381632, -0.02207416, -743486.0, -8465.899, 0.0, 10.000424, 9.998921 
1.8650444e+3, 2.3499642e+2, -639459.1, -758792.2, -26139.316, 0.04094003, -0.042463653, -633984.56, 3045.763, 0.0, 10.000503, 9.998921 
1.8650459e+3, 2.4499506e+2, -534162.56, -666158.3, -22362.725, 0.046686288, -0.067331396, -530476.75, 8564.677, 0.0, 10.000591, 9.998842 
1.8650477e+3, 2.5499362e+2, -421886.13, -561280.0, -22569.752, 0.05562008, -0.09686174, -418322.88, 22730.54, 0.0, 10.000689, 9.998842 
1.8650493e+3, 2.649922e+2, -303515.13, -443164.53, -21013.469, 0.062463332, -0.12519039, -300421.7, 42643.008, 0.0, 10.000785, 9.998934 
1.865051e+3, 2.749909e+2, -191930.55, -338568.97, -20785.43, 0.06721833, -0.15250601, -189041.23, 56034.113, 0.0, 10.000877, 9.998935 
1.8650527e+3, 2.8498957e+2, -79906.66, -234431.53, -16081.132, 0.07315596, -0.17579477, -78250.86, 68834.836, 0.0, 10.000977, 9.998929 
1.8650545e+3, 2.949883e+2, 33426.305, -128961.94, -15610.133, 0.08028058, -0.19523409, 34913.266, 84009.016, 0.0, 10.001081, 9.99893 
1.8650565e+3, 3.0498716e+2, 108065.39, -49492.836, -10584.092, 0.08679547, -0.21035916, 108773.2, 108773.2, 0.0, 10.00118, 9.999092 
1.8650584e+3, 3.1498614e+2, 121395.39, -43024.297, -9799.816, 0.09271338, -0.22134763, 121977.42, 121977.42, 0.0, 10.001271, 9.999092 
1.875028e+3, 1.2500298e+2, -1749893.5, -1738019.8, -5040.6694, 0.037228588, 0.032009892, -1736168.5, -21195.422, 0.0, 9.999787, 9.999945 
1.8750301e+3, 1.3500279e+2, -1642983.1, -1635806.0, -5293.9463, 0.038943924, 0.018353326, -1632999.0, -16024.761, 0.0, 9.999848, 9.999944 
1.8750317e+3, 1.4500242e+2, -1553806.5, -1569637.3, -18491.111, 0.03811559, 0.00021925135, -1541607.9, -22631.344, 0.0, 9.999907, 9.999697 
1.8750334e+3, 1.550019e+2, -1447814.1, -1467847.1, -18233.56, 0.034753893, -0.022615032, -1437027.0, -16046.92, 0.0, 9.999962, 9.999697 
1.8750349e+3, 1.6500135e+2, -1365510.4, -1416869.4, -24828.04, 0.03423901, -0.03028904, -1355470.6, -32485.984, 0.0, 10.000025, 9.999344 
1.8750364e+3, 1.7500076e+2, -1257418.9, -1314047.5, -24559.201, 0.03656485, -0.023013057, -1248251.9, -23261.463, 0.0, 10.000093, 9.999343 
1.8750377e+3, 1.85e+2, -1177804.6, -1268929.0, -29943.393, 0.036612708, -0.012572197, -1168846.0, -41847.668, 0.0, 10.000157, 9.99895 
1.875039e+3, 1.9499908e+2, -1071456.9, -1166947.0, -30130.871, 0.03439022, 0.00085741235, -1062744.4, -33735.813, 0.0, 10.000215, 9.998949 
1.8750404e+3, 2.0499802e+2, -968776.06, -1074112.6, -29202.248, 0.035380255, 0.0021434103, -961222.1, -30202.93, 0.0, 10.000278, 9.998883 
1.8750417e+3, 2.149968e+2, -860498.2, -971203.7, -29931.387, 0.039586492, -0.008883496, -852923.9, -19893.537, 0.0, 10.000349, 9.998882 
1.8750432e+3, 2.2499552e+2, -750305.6, -865232.0, -22411.773, 0.04214212, -0.024556074, -746089.75, -11048.592, 0.0, 10.000424, 9.998901 
1.8750449e+3, 2.3499423e+2, -640877.44, -761754.4, -23180.273, 0.043032356, -0.04506575, -636584.7, 466.97733, 0.0, 10.000503, 9.998901 
1.8750465e+3, 2.4499284e+2, -534560.44, -666973.06, -18675.516, 0.047131944, -0.07013567, -531976.9, 7086.0024, 0.0, 10.000591, 9.9988365 
1.8750483e+3, 2.5499138e+2, -422299.44, -562094.3, -18882.734, 0.054441758, -0.09995571, -419793.78, 21281.1, 0.0, 10.000689, 9.9988365 
1.87505e+3, 2.6499e+2, -303141.8, -442321.78, -17511.232, 0.060607232, -0.12849632, -300972.4, 42113.773, 0.0, 10.000784, 9.9989395 
1.8750517e+3, 2.7498865e+2, -191558.67, -337710.88, -17284.428, 0.06563315, -0.15594557, -189542.38, 55554.38, 0.0, 10.000877, 9.99894 
1.8750536e+3, 2.8498736e+2, -79093.64, -232641.72, -12131.896, 0.07145918, -0.17937171, -78141.01, 68966.01, 0.0, 10.000977, 9.998941 
1.8750556e+3, 2.9498613e+2, 34232.695, -127168.11, -11659.814, 0.07808886, -0.19894913, 35070.664, 84187.61, 0.0, 10.001081, 9.998942 
1.8750577e+3, 3.04985e+2, 109471.21, -46447.168, -7148.8594, 0.08519901, -0.21442883, 109798.305, 109798.305, 0.0, 10.001179, 9.999113 
1.8750596e+3, 3.1498396e+2, 122792.47, -39989.016, -6363.6094, 0.092809185, -0.22598638, 123040.87, 123040.87, 0.0, 10.00127, 9.999113 
1.8850277e+3, 1.2500073e+2, -1746294.8, -1736347.6, -9359.874, 0.033493023, 0.027646929, -1730721.9, -15727.235, 0.0, 9.999812, 9.999944 
1.8850298e+3, 1.3500057e+2, -1640199.4, -1634541.1, -9198.744, 0.03549152, 0.01577014, -1627746.3, -10750.529, 0.0, 9.999868, 9.999943 
1.8850316e+3, 1.4500022e+2, -1550453.1, -1567330.3, -22239.91, 0.035596974, -0.0016755296, -1535104.6, -16106.599, 0.0, 9.9999275, 9.999703 
1.8850334e+3, 1.5499967e+2, -1443490.6, -1465078.8, -22060.975, 0.033816516, -0.024921069, -1429724.6, -8723.1045, 0.0, 9.999989, 9.999702 
1.8850349e+3, 1.6499913e+2, -1360648.0, -1414065.6, -28353.9, 0.034070607, -0.032876756, -1348404.3, -25398.135, 0.0, 10.000056, 9.999348 
1.8850365e+3, 1.7499855e+2, -1252175.9, -1311067.8, -28333.19, 0.036356885, -0.02573936, -1240758.3, -15746.42, 0.0, 10.000128, 9.999348 
1.885038e+3, 1.8499778e+2, -1172566.1, -1267222.4, -34284.543, 0.036996085, -0.015431468, -1161453.0, -34433.223, 0.0, 10.000196, 9.998942 
1.8850394e+3, 1.9499688e+2, -1065029.1, -1164681.3, -34666.895, 0.035994295, -0.0021273224, -1054155.8, -25125.71, 0.0, 10.000262, 9.998942 
1.8850407e+3, 2.0499578e+2, -962573.9, -1073392.5, -33513.32, 0.037956186, -0.00085512735, -953227.25, -22186.441, 0.0, 10.000331, 9.998862 
1.8850422e+3, 2.1499453e+2, -854142.56, -970410.2, -34320.58, 0.042887364, -0.011794775, -844767.56, -11715.412, 0.0, 10.000402, 9.998862 
1.8850437e+3, 2.2499326e+2, -745694.6, -865364.25, -27054.727, 0.04509565, -0.027403083, -739862.4, -4799.2056, 0.0, 10.000466, 9.99888 
1.8850453e+3, 2.3499192e+2, -639795.8, -763573.6, -27874.781, 0.04456476, -0.047876105, -633808.06, 3265.7664, 0.0, 10.00052, 9.99888 
1.8850471e+3, 2.4499053e+2, -536120.3, -668403.25, -22726.324, 0.047122166, -0.07301866, -532324.8, 6760.3896, 0.0, 10.000583, 9.99883 
1.8850489e+3, 2.5498906e+2, -427678.13, -565347.7, -22970.814, 0.052769512, -0.10302628, -423946.47, 17150.83, 0.0, 10.000655, 9.998831 
1.8850508e+3, 2.6498768e+2, -310324.0, -445070.63, -21483.66, 0.058334254, -0.13175353, -306981.63, 36126.98, 0.0, 10.000731, 9.998946 
1.8850526e+3, 2.7498633e+2, -200226.73, -341159.47, -21232.51, 0.06382489, -0.15938808, -197097.39, 48021.723, 0.0, 10.000814, 9.998947 
1.8850546e+3, 2.8498504e+2, -88584.49, -235786.19, -15553.721, 0.06962538, -0.1828963, -86959.0, 60170.28, 0.0, 10.000905, 9.998954 
1.8850566e+3, 2.949838e+2, 23721.705, -130795.945, -15068.115, 0.075737454, -0.20244892, 25177.389, 74316.47, 0.0, 10.001002, 9.998955 
1.8850587e+3, 3.049827e+2, 99065.17, -49347.234, -10967.82, 0.083780445, -0.21830931, 99871.33, 99871.33, 0.0, 10.001099, 9.999132 
1.8850608e+3, 3.149817e+2, 112776.63, -42707.914, -10360.212, 0.09378317, -0.23065175, 113463.914, 113463.914, 0.0, 10.001193, 9.999132 
1.8950275e+3, 1.24998406e+2, -1745961.1, -1735652.4, -7265.5103, 0.027633924, 0.023756744, -1731898.6, -16881.377, 0.0, 9.999812, 9.9999485 
1.8950297e+3, 1.3499826e+2, -1639870.8, -1633870.4, -7100.285, 0.031045796, 0.013666525, -1629162.4, -12144.334, 0.0, 9.999868, 9.999948 
1.8950316e+3, 1.4499791e+2, -1550084.9, -1566584.4, -19917.045, 0.032693505, -0.0032125667, -1536776.6, -17756.389, 0.0, 9.9999275, 9.999708 
1.8950333e+3, 1.5499738e+2, -1443122.1, -1464344.4, -19740.725, 0.03258542, -0.027122693, -1431321.4, -10297.642, 0.0, 9.999989, 9.999707 
1.895035e+3, 1.6499683e+2, -1360572.1, -1413941.9, -25645.193, 0.033584803, -0.035581734, -1350246.8, -27218.42, 0.0, 10.000056, 9.999349 
1.8950365e+3, 1.7499624e+2, -1252105.0, -1310955.6, -25626.293, 0.035691645, -0.02877209, -1242510.4, -17476.334, 0.0, 10.000128, 9.999348 
1.895038e+3, 1.8499549e+2, -1173244.1, -1268665.1, -31818.29, 0.036869302, -0.018740905, -1163607.5, -36565.44, 0.0, 10.000196, 9.998933 
1.8950395e+3, 1.9499455e+2, -1065712.3, -1166138.9, -32200.94, 0.037123155, -0.0056604743, -1056274.3, -27221.846, 0.0, 10.000262, 9.998932 
1.895041e+3, 2.0499344e+2, -964053.4, -1076501.9, -30819.107, 0.03996007, -0.004411188, -956160.6, -25097.322, 0.0, 10.000331, 9.998841 
1.8950427e+3, 2.1499218e+2, -855621.6, -973514.44, -31623.223, 0.04538696, -0.01518375, -847674.75, -14599.892, 0.0, 10.000403, 9.998841 
1.8950441e+3, 2.2499087e+2, -747215.6, -868543.7, -25019.645, 0.04725517, -0.030610854, -742258.7, -7172.5957, 0.0, 10.000466, 9.998858 
1.895046e+3, 2.3498954e+2, -641316.3, -766728.3, -25837.1, 0.045546375, -0.050893255, -636202.0, 895.0245, 0.0, 10.00052, 9.998858 
1.8950476e+3, 2.4498813e+2, -536609.5, -669388.9, -20037.611, 0.04666461, -0.0759814, -533651.5, 5457.0107, 0.0, 10.000583, 9.998823 
1.8950495e+3, 2.5498664e+2, -428174.28, -566315.75, -20281.014, 0.050611693, -0.10607662, -425258.28, 15862.371, 0.0, 10.000654, 9.998824 
1.8950514e+3, 2.6498523e+2, -309913.47, -444132.9, -18372.998, 0.05565097, -0.13496591, -307443.88, 35688.09, 0.0, 10.000731, 9.998953 
1.8950535e+3, 2.749839e+2, -199818.1, -340210.38, -18121.174, 0.061796155, -0.16283666, -197516.81, 47625.613, 0.0, 10.000814, 9.998954 
1.8950555e+3, 2.8498262e+2, -87754.17, -233951.4, -11874.621, 0.06765517, -0.18637304, -86795.95, 60356.53, 0.0, 10.000904, 9.998967 
1.8950576e+3, 2.9498142e+2, 24550.668, -128955.17, -11386.587, 0.07322692, -0.20574161, 25390.693, 74552.83, 0.0, 10.001002, 9.998968 
1.8950598e+3, 3.049803e+2, 100146.27, -46992.21, -7432.135, 0.08253203, -0.2220082, 100520.73, 100520.73, 0.0, 10.001098, 9.999148 
1.895062e+3, 3.1497934e+2, 113865.32, -40355.375, -6823.828, 0.09561083, -0.23534654, 114166.67, 114166.67, 0.0, 10.001192, 9.999148 
1.9050272e+3, 1.2499599e+2, -1749633.8, -1736428.8, -11255.368, 0.020190062, 0.019823877, -1729982.3, -14941.726, 0.0, 9.999783, 9.999958 
1.9050294e+3, 1.3499586e+2, -1640731.1, -1633304.4, -10787.223, 0.025929179, 0.01111129, -1625609.3, -8568.024, 0.0, 9.999858, 9.999956 
1.9050315e+3, 1.4499553e+2, -1548875.9, -1565772.1, -23422.533, 0.029523011, -0.005464937, -1532424.5, -13381.139, 0.0, 9.999934, 9.99971 
1.9050333e+3, 1.54995e+2, -1439665.5, -1462458.9, -23484.102, 0.030982744, -0.03016329, -1424958.8, -3911.9585, 0.0, 10.000011, 9.999709 
1.9050351e+3, 1.6499443e+2, -1356417.4, -1412445.9, -29608.996, 0.03267454, -0.039224256, -1343670.3, -20618.86, 0.0, 10.000087, 9.999344 
1.9050367e+3, 1.7499384e+2, -1247902.3, -1309441.4, -29997.014, 0.03459904, -0.03281497, -1235699.9, -10642.71, 0.0, 10.000159, 9.999344 
1.9050384e+3, 1.8499307e+2, -1169279.9, -1268152.5, -36660.4, 0.036268514, -0.023121124, -1157170.0, -30104.775, 0.0, 10.00023, 9.99892 
1.9050398e+3, 1.9499211e+2, -1061168.4, -1165350.6, -37237.258, 0.037688512, -0.010312603, -1049227.5, -20151.754, 0.0, 10.000299, 9.9989195 
1.9050413e+3, 2.04991e+2, -960179.25, -1077030.6, -35891.957, 0.041186746, -0.009082271, -950035.3, -18948.459, 0.0, 10.000368, 9.99882 
1.9050431e+3, 2.1498972e+2, -852417.44, -974356.6, -36697.492, 0.046770148, -0.01963167, -842225.25, -9126.626, 0.0, 10.000435, 9.998819 
1.9050446e+3, 2.2498839e+2, -745927.0, -870204.7, -31050.338, 0.048347052, -0.03477373, -738601.0, -3490.9565, 0.0, 10.000484, 9.998838 
1.9050464e+3, 2.3498704e+2, -643305.4, -769950.56, -31762.87, 0.045897845, -0.05471378, -635785.6, 1335.4996, 0.0, 10.000516, 9.998838 
1.9050482e+3, 2.4498561e+2, -541153.1, -672312.94, -25321.746, 0.045870885, -0.07960601, -536434.25, 2698.5298, 0.0, 10.000555, 9.998817 
1.9050501e+3, 2.549841e+2, -436450.06, -571027.5, -25565.918, 0.048267107, -0.10965763, -431756.9, 9388.091, 0.0, 10.000601, 9.998817 
1.905052e+3, 2.6498273e+2, -319683.25, -448058.44, -22889.885, 0.052891962, -0.13864522, -315723.97, 27432.342, 0.0, 10.000661, 9.99896 
1.9050542e+3, 2.749814e+2, -210713.5, -344667.97, -22618.457, 0.059765317, -0.16675663, -206997.42, 38169.297, 0.0, 10.000736, 9.9989605 
1.9050562e+3, 2.8498012e+2, -98831.2, -237820.03, -15650.482, 0.06575325, -0.19028819, -97090.71, 50085.957, 0.0, 10.000822, 9.9989805 
1.9050585e+3, 2.9497892e+2, 13401.559, -132850.98, -15146.671, 0.07085107, -0.20940147, 14953.753, 64139.914, 0.0, 10.000919, 9.998981 
1.9050609e+3, 3.0497783e+2, 90445.2, -50162.38, -11046.2, 0.08167053, -0.22599964, 91307.7, 91307.7, 0.0, 10.001025, 9.999162 
1.9050632e+3, 3.1497684e+2, 107106.836, -42115.313, -10664.897, 0.09826602, -0.2402564, 107865.195, 107865.195, 0.0, 10.00114, 9.999162 
1.9150269e+3, 1.24993496e+2, -1748755.1, -1734583.3, -8431.049, 0.011174093, 0.015847834, -1730655.9, -15591.204, 0.0, 9.999783, 9.99997 
1.9150293e+3, 1.3499337e+2, -1639842.1, -1631459.9, -7960.6045, 0.020146156, 0.008109863, -1626654.5, -9589.396, 0.0, 9.999858, 9.9999695 
1.9150314e+3, 1.4499305e+2, -1548950.6, -1565940.1, -20520.664, 0.026087187, -0.008423633, -1535236.0, -16168.789, 0.0, 9.999934, 9.999709 
1.9150333e+3, 1.549925e+2, -1439738.4, -1462637.8, -20585.105, 0.029012138, -0.03403181, -1427633.0, -6562.2407, 0.0, 10.000011, 9.999708 
1.9150351e+3, 1.6499193e+2, -1357096.0, -1413886.6, -26894.287, 0.031344812, -0.043791525, -1346381.3, -23305.805, 0.0, 10.000087, 9.999334 
1.9150369e+3, 1.7499134e+2, -1248585.1, -1310891.4, -27283.875, 0.033084694, -0.037853733, -1238326.6, -13245.334, 0.0, 10.000159, 9.999333 
1.9150385e+3, 1.8499054e+2, -1170325.9, -1270353.4, -34050.496, 0.035200503, -0.028556556, -1159835.0, -32745.486, 0.0, 10.00023, 9.998905 
1.9150402e+3, 1.9498956e+2, -1062215.6, -1167553.1, -34627.965, 0.037698872, -0.01606701, -1051851.9, -22751.748, 0.0, 10.000299, 9.998904 
1.9150418e+3, 2.0498843e+2, -961680.6, -1080169.0, -33381.14, 0.041648544, -0.01485149, -952923.56, -21812.15, 0.0, 10.000368, 9.998798 
1.9150434e+3, 2.1498713e+2, -853924.3, -977494.44, -34184.566, 0.047055095, -0.025122283, -845097.9, -11974.508, 0.0, 10.000435, 9.998798 
1.9150452e+3, 2.249858e+2, -747264.7, -872979.44, -29876.96, 0.048388653, -0.039876986, -740525.5, -5390.5024, 0.0, 10.000484, 9.998819 
1.9150469e+3, 2.3498443e+2, -644655.44, -772732.2, -30589.082, 0.045629416, -0.059325363, -637724.75, -578.4948, 0.0, 10.000516, 9.998819 
1.9150487e+3, 2.4498299e+2, -541644.75, -673289.44, -23613.543, 0.044746283, -0.08388256, -537537.25, 1620.7936, 0.0, 10.000555, 9.998811 
1.9150507e+3, 2.549815e+2, -436958.16, -572010.6, -23855.65, 0.045737997, -0.11376183, -432868.16, 8302.156, 0.0, 10.000601, 9.998811 
1.9150527e+3, 2.649801e+2, -319244.25, -447053.75, -20084.113, 0.050056983, -0.1427851, -316162.53, 27019.11, 0.0, 10.000661, 9.998967 
1.9150549e+3, 2.749788e+2, -210275.77, -343652.1, -19810.154, 0.05773035, -0.17114152, -207395.6, 37796.395, 0.0, 10.000735, 9.998968 
1.9150572e+3, 2.8497753e+2, -97977.99, -235935.22, -12000.504, 0.0639156, -0.19463587, -96941.88, 50259.938, 0.0, 10.000821, 9.998993 
1.9150594e+3, 2.9497632e+2, 14259.122, -130955.83, -11494.043, 0.06860362, -0.21342403, 15163.269, 64374.42, 0.0, 10.000918, 9.998995 
1.9150619e+3, 3.0497524e+2, 91108.07, -48692.367, -6751.9424, 0.08118319, -0.23028073, 91433.414, 91433.414, 0.0, 10.001024, 9.999172 
1.9150645e+3, 3.1497428e+2, 107788.86, -40642.41, -6368.9243, 0.1017251, -0.2453802, 108061.64, 108061.64, 0.0, 10.001139, 9.999172 
1.9250266e+3, 1.2499088e+2, -1756562.1, -1736865.4, -12845.216, 0.0017815084, 0.01147185, -1730527.6, -15437.747, 0.0, 9.9997225, 9.999984 
1.925029e+3, 1.3499078e+2, -1642266.1, -1631143.9, -12339.461, 0.014278747, 0.0038818573, -1623170.4, -6080.196, 0.0, 9.999835, 9.999982 
1.9250312e+3, 1.4499046e+2, -1548618.5, -1566447.9, -25324.777, 0.022628829, -0.0129421335, -1530685.1, -11593.079, 0.0, 9.99994, 9.999703 
1.9250333e+3, 1.549899e+2, -1436589.3, -1461797.3, -25757.814, 0.026849138, -0.039298482, -1420517.0, 578.72235, 0.0, 10.000036, 9.999702 
1.9250353e+3, 1.6498931e+2, -1353252.5, -1413682.3, -33015.895, 0.029810254, -0.049705945, -1338712.6, -15612.036, 0.0, 10.00012, 9.999319 
1.925037e+3, 1.7498867e+2, -1244974.0, -1310814.9, -33774.36, 0.0315092, -0.044298675, -1230730.3, -5623.703, 0.0, 10.000191, 9.999318 
1.9250388e+3, 1.8498787e+2, -1167156.6, -1270735.3, -40924.215, 0.034055855, -0.035412822, -1152939.0, -25824.053, 0.0, 10.00026, 9.998888 
1.9250405e+3, 1.9498688e+2, -1059415.8, -1168133.5, -41658.26, 0.03745831, -0.023211552, -1045288.94, -16163.193, 0.0, 10.000327, 9.998887 
1.9250423e+3, 2.0498574e+2, -960138.56, -1081666.1, -40723.63, 0.04160835, -0.022004753, -947754.2, -16616.953, 0.0, 10.000388, 9.998778 
1.9250439e+3, 2.149844e+2, -854161.75, -979859.9, -41428.56, 0.046508495, -0.03201572, -841735.75, -8586.375, 0.0, 10.000443, 9.998777 
1.9250457e+3, 2.2498305e+2, -749382.5, -875794.5, -38405.742, 0.04767142, -0.04630243, -738629.06, -3467.8896, 0.0, 10.000478, 9.998803 
1.9250473e+3, 2.3498167e+2, -649331.94, -776775.6, -38904.887, 0.045079514, -0.065078266, -638394.1, -1221.5298, 0.0, 10.000492, 9.998803 
1.9250493e+3, 2.4498023e+2, -548453.25, -677188.2, -31331.361, 0.043718413, -0.08919407, -541232.9, -2048.4019, 0.0, 10.000511, 9.998805 
1.9250512e+3, 2.5497875e+2, -446935.97, -577428.1, -31496.367, 0.043583225, -0.11886999, -439731.56, 1465.224, 0.0, 10.000535, 9.998805 
1.9250533e+3, 2.6497734e+2, -330443.75, -451661.03, -26314.906, 0.047693092, -0.14782868, -324977.56, 18230.541, 0.0, 10.000581, 9.998974 
1.9250555e+3, 2.7497604e+2, -222484.13, -348731.94, -26048.742, 0.056082323, -0.17626043, -217320.66, 27897.752, 0.0, 10.0006485, 9.998975 
1.9250579e+3, 2.8497478e+2, -109917.34, -240149.31, -17169.467, 0.062469307, -0.19968815, -107691.8, 39536.35, 0.0, 10.000732, 9.999007 
1.9250603e+3, 2.949736e+2, 2960.9146, -134852.89, -16626.488, 0.066840455, -0.21826266, 4938.434, 54175.758, 0.0, 10.000834, 9.999008 
1.9250628e+3, 3.0497253e+2, 82085.4, -52078.46, -10762.862, 0.08111882, -0.23520216, 82943.33, 82943.33, 0.0, 10.000958, 9.999181 
1.9250655e+3, 3.1497157e+2, 103421.21, -41794.15, -10512.017, 0.1053922, -0.2506795, 104178.22, 104178.22, 0.0, 10.001105, 9.999181 
1.9350262e+3, 1.2498816e+2, -1755622.1, -1734899.0, -8630.874, -0.007991504, 0.0066967793, -1731775.3, -16659.246, 0.0, 9.9997225, 9.999997 
1.9350289e+3, 1.3498808e+2, -1641306.3, -1629158.6, -8122.364, 0.008324844, -0.0015589185, -1625090.3, -7974.077, 0.0, 9.999835, 9.999996 
1.9350311e+3, 1.4498775e+2, -1549375.5, -1568037.4, -21697.178, 0.019146677, -0.019002162, -1535088.0, -15969.869, 0.0, 9.99994, 9.999692 
1.9350334e+3, 1.5498717e+2, -1437340.6, -1463388.0, -22134.283, 0.024495043, -0.045946, -1424682.8, -3560.8418, 0.0, 10.000036, 9.999691 
1.9350353e+3, 1.6498655e+2, -1354614.1, -1416545.3, -30367.256, 0.028072659, -0.056949783, -1342208.9, -19081.965, 0.0, 10.00012, 9.9993 
1.9350372e+3, 1.749859e+2, -1246347.5, -1313702.4, -31127.65, 0.029872766, -0.052130345, -1234165.4, -9032.306, 0.0, 10.000192, 9.999299 
1.935039e+3, 1.8498506e+2, -1168483.8, -1273521.3, -38416.78, 0.032835454, -0.04366951, -1155932.8, -28791.172, 0.0, 10.00026, 9.998869 
1.9350408e+3, 1.9498405e+2, -1060760.8, -1170950.1, -39152.285, 0.03697053, -0.03172555, -1048266.06, -19113.475, 0.0, 10.000328, 9.998868 
1.9350426e+3, 2.0498288e+2, -961454.5, -1084410.4, -38682.965, 0.0410741, -0.030520823, -950297.0, -19132.682, 0.0, 10.000388, 9.998759 
1.9350444e+3, 2.1498154e+2, -855494.8, -982621.25, -39388.47, 0.045143813, -0.040289816, -844280.1, -11103.457, 0.0, 10.000443, 9.998759 
1.9350462e+3, 2.2498018e+2, -750327.44, -877738.56, -37906.906, 0.04620725, -0.054028843, -739902.5, -4713.915, 0.0, 10.000478, 9.99879 
1.9350478e+3, 2.349788e+2, -650280.4, -778715.25, -38408.15, 0.04425192, -0.071953975, -639670.9, -2470.785, 0.0, 10.000492, 9.99879 
1.9350497e+3, 2.4497736e+2, -548809.94, -677883.9, -30460.623, 0.04278415, -0.095523395, -541982.56, -2770.522, 0.0, 10.00051, 9.9988 
1.9350518e+3, 2.5497586e+2, -447298.9, -578116.4, -30623.176, 0.0417937, -0.12496522, -440485.22, 739.2361, 0.0, 10.000534, 9.998801 
1.9350539e+3, 2.6497445e+2, -330021.13, -450699.0, -23787.121, 0.04578877, -0.1537608, -325501.63, 17734.123, 0.0, 10.00058, 9.9989805 
1.9350561e+3, 2.7497315e+2, -222063.05, -347758.4, -23517.082, 0.05481082, -0.18210156, -217807.2, 27438.797, 0.0, 10.000648, 9.998982 
1.9350585e+3, 2.8497192e+2, -108999.17, -238136.16, -13366.546, 0.061402917, -0.20543337, -107630.16, 39625.477, 0.0, 10.000732, 9.999022 
1.935061e+3, 2.9497075e+2, 3883.3594, -132829.78, -12820.01, 0.06554692, -0.2239027, 5075.142, 54339.797, 0.0, 10.000834, 9.9990225 
1.9350639e+3, 3.049697e+2, 82496.92, -51134.16, -5267.0923, 0.081463926, -0.24075344, 82704.2, 82704.2, 0.0, 10.000958, 9.999187 
1.9350667e+3, 3.149687e+2, 103848.4, -40851.05, -5011.4116, 0.10925899, -0.2561549, 104021.75, 104021.75, 0.0, 10.001104, 9.999187 
1.9450258e+3, 1.249853e+2, -1761876.1, -1736928.8, -13814.313, -0.016833289, 0.0012034558, -1730789.9, -15646.306, 0.0, 9.999676, 10.000006 
1.9450286e+3, 1.3498521e+2, -1641925.6, -1628456.0, -13661.851, 0.002807741, -0.008402835, -1619959.1, -2815.5986, 0.0, 9.999826, 10.000005 
1.9450311e+3, 1.4498486e+2, -1547715.4, -1569054.6, -28620.256, 0.015746575, -0.026687402, -1527840.6, -8695.033, 0.0, 9.999959, 9.999676 
1.9450334e+3, 1.5498427e+2, -1433218.3, -1463215.4, -29465.688, 0.022009823, -0.053967234, -1415153.5, 5995.9844, 0.0, 10.0000725, 9.999675 
1.9450355e+3, 1.6498363e+2, -1349878.5, -1416771.6, -39349.297, 0.026172493, -0.06544578, -1331681.6, -8526.991, 0.0, 10.000164, 9.999277 
1.9450375e+3, 1.7498295e+2, -1241990.3, -1314122.3, -40320.996, 0.02822357, -0.061222367, -1223958.8, 1202.3683, 0.0, 10.000232, 9.999276 
1.9450393e+3, 1.8498209e+2, -1164872.6, -1274122.8, -48051.47, 0.03159625, -0.053185035, -1146745.8, -19575.883, 0.0, 10.000296, 9.998848 
1.9450411e+3, 1.9498105e+2, -1058506.4, -1172218.0, -48927.492, 0.03630186, -0.04148608, -1040352.25, -11171.155, 0.0, 10.000353, 9.998846 
1.9450429e+3, 2.0497985e+2, -960903.7, -1085926.9, -49074.42, 0.04020434, -0.040272757, -943942.06, -12749.101, 0.0, 10.000401, 9.998743 
1.9450448e+3, 2.1497852e+2, -857724.94, -985474.25, -49567.62, 0.043294944, -0.04979103, -840748.4, -7542.903, 0.0, 10.000436, 9.998743 
1.9450465e+3, 2.2497714e+2, -754341.44, -880760.94, -49241.332, 0.044387445, -0.06295549, -737425.2, -2207.6458, 0.0, 10.000455, 9.99878 
1.9450483e+3, 2.3497576e+2, -655934.5, -782518.9, -49485.766, 0.043477688, -0.07998409, -638885.3, -1656.1842, 0.0, 10.000458, 9.99878 
1.9450504e+3, 2.449743e+2, -555966.6, -681592.0, -41051.484, 0.042310454, -0.10297292, -543741.6, -4500.499, 0.0, 10.000463, 9.998797 
1.9450523e+3, 2.5497282e+2, -456843.25, -582971.3, -41048.22, 0.040869057, -0.13215925, -444660.84, -3407.293, 0.0, 10.00047, 9.998798 
1.9450544e+3, 2.6497144e+2, -340768.44, -455123.25, -32338.783, 0.04486306, -0.16068128, -332256.78, 11008.056, 0.0, 10.000503, 9.998987 
1.9450568e+3, 2.749701e+2, -234083.88, -352786.5, -32079.184, 0.05433934, -0.18873048, -225969.27, 19305.754, 0.0, 10.000562, 9.998989 
1.9450593e+3, 2.849689e+2, -120812.24, -242110.8, -20387.64, 0.06107224, -0.21193042, -117477.22, 29807.322, 0.0, 10.000644, 9.999037 
1.9450618e+3, 2.9496777e+2, -7419.058, -136548.9, -19748.965, 0.065039575, -0.23042507, -4466.1987, 44827.223, 0.0, 10.000749, 9.999038 
1.9450647e+3, 3.0496672e+2, 73068.14, -54747.434, -9914.244, 0.082101405, -0.24697357, 73832.586, 73832.586, 0.0, 10.00089, 9.999196 
1.945068e+3, 3.1496575e+2, 98665.18, -42429.977, -9541.488, 0.11237616, -0.2617378, 99307.49, 99307.49, 0.0, 10.001065, 9.999195 
1.9550253e+3, 1.2498229e+2, -1761592.1, -1736357.3, -8147.458, -0.024761284, -0.005006245, -1733955.3, -18783.018, 0.0, 9.999676, 10.00001 
1.9550283e+3, 1.349822e+2, -1641623.6, -1627858.4, -7989.47, -0.0022799277, -0.016635297, -1624195.8, -7023.4297, 0.0, 9.999826, 10.000009 
1.955031e+3, 1.4498183e+2, -1549221.6, -1572212.1, -24357.521, 0.012426115, -0.035980124, -1533783.0, -14608.557, 0.0, 9.999959, 9.999654 
1.9550334e+3, 1.549812e+2, -1434716.8, -1466362.3, -25209.256, 0.019394055, -0.06334639, -1420776.0, 402.59213, 0.0, 10.0000725, 9.999653 
1.9550356e+3, 1.6498055e+2, -1351634.4, -1420455.0, -36801.45, 0.024110947, -0.07517848, -1335662.0, -12477.969, 0.0, 10.000164, 9.999252 
1.9550376e+3, 1.7497982e+2, -1243746.6, -1317805.3, -37777.215, 0.026561128, -0.071558185, -1227877.1, -2686.4011, 0.0, 10.000233, 9.99925 
1.9550395e+3, 1.8497895e+2, -1166467.5, -1277463.1, -45901.12, 0.03033831, -0.06394206, -1149945.0, -22745.277, 0.0, 10.000296, 9.998825 
1.9550414e+3, 1.9497788e+2, -1060106.5, -1175558.9, -46779.266, 0.035454977, -0.052475248, -1043531.9, -14320.709, 0.0, 10.000354, 9.998823 
1.9550434e+3, 2.0497666e+2, -961834.3, -1087863.8, -47764.03, 0.039004214, -0.05124216, -945777.8, -14554.599, 0.0, 10.000401, 9.99873 
1.9550452e+3, 2.1497531e+2, -858657.3, -987394.2, -48259.67, 0.040969316, -0.060500406, -842575.25, -9339.375, 0.0, 10.000436, 9.99873 
1.955047e+3, 2.2497393e+2, -754813.56, -881715.7, -49178.598, 0.042216685, -0.073063314, -737986.5, -2738.5327, 0.0, 10.000455, 9.998774 
1.9550489e+3, 2.3497255e+2, -656400.94, -783458.5, -49425.484, 0.042754296, -0.08914984, -639438.8, -2179.196, 0.0, 10.000458, 9.998774 
1.9550508e+3, 2.4497111e+2, -556008.44, -681644.1, -40812.066, 0.04228686, -0.11152389, -543915.0, -4643.349, 0.0, 10.000463, 9.998797 
1.9550528e+3, 2.5496963e+2, -456892.22, -583027.3, -40806.33, 0.040789954, -0.14043316, -444842.03, -3557.9639, 0.0, 10.000469, 9.998798 
1.955055e+3, 2.6496822e+2, -340359.03, -454211.7, -30155.686, 0.04489364, -0.16857314, -332865.06, 10430.277, 0.0, 10.000503, 9.998994 
1.9550574e+3, 2.7496696e+2, -233678.73, -351866.97, -29890.172, 0.05464826, -0.19613427, -226549.47, 18755.982, 0.0, 10.000562, 9.998996 
1.9550599e+3, 2.8496572e+2, -119725.86, -239762.39, -16464.008, 0.061457712, -0.21916656, -117508.64, 29806.238, 0.0, 10.000644, 9.999053 
1.9550626e+3, 2.949646e+2, -6332.5054, -134188.48, -15820.223, 0.065296344, -0.2378135, -4404.0806, 44919.527, 0.0, 10.000749, 9.999054 
1.9550657e+3, 3.049636e+2, 73673.195, -53382.37, -3321.2605, 0.08302136, -0.25385156, 73759.96, 73759.96, 0.0, 10.000889, 9.999206 
1.955069e+3, 3.1496266e+2, 99264.33, -41077.645, -2938.3127, 0.114760175, -0.26743093, 99325.82, 99325.82, 0.0, 10.001065, 9.999205 
1.965025e+3, 1.2497912e+2, -1760207.0, -1736484.3, -13844.778, -0.030782126, -0.012107637, -1730114.6, -14912.063, 0.0, 9.999688, 10.000003 
1.9650282e+3, 1.34979e+2, -1637414.6, -1626611.0, -14511.25, -0.006633176, -0.025866786, -1616528.8, 674.0598, 0.0, 9.999859, 10.000002 
1.965031e+3, 1.4497861e+2, -1544475.4, -1572771.8, -33106.39, 0.009085382, -0.04629475, -1522620.8, -3415.5786, 0.0, 10.000004, 9.999629 
1.9650334e+3, 1.5497795e+2, -1429121.9, -1466506.9, -34253.992, 0.016429536, -0.07367232, -1408792.0, 12417.469, 0.0, 10.000124, 9.999628 
1.9650358e+3, 1.6497727e+2, -1346074.8, -1420784.8, -47964.51, 0.021548035, -0.08572588, -1322635.1, 580.0689, 0.0, 10.000216, 9.999225 
1.9650379e+3, 1.7497651e+2, -1238893.8, -1318466.5, -49070.883, 0.02442117, -0.0825186, -1215506.5, 9715.6, 0.0, 10.000278, 9.999224 
1.96504e+3, 1.849756e+2, -1162808.1, -1278367.4, -57867.12, 0.028569244, -0.07526776, -1138813.1, -11581.744, 0.0, 10.000332, 9.9988 
1.9650419e+3, 1.9497451e+2, -1058537.4, -1177458.5, -58818.05, 0.03400591, -0.06411175, -1034361.1, -5118.041, 0.0, 10.000376, 9.998799 
1.9650437e+3, 2.0497328e+2, -961958.2, -1089083.4, -60711.508, 0.03723451, -0.062819265, -937622.6, -6367.3354, 0.0, 10.000404, 9.99872 
1.9650455e+3, 2.1497193e+2, -861940.94, -990117.06, -60999.773, 0.038230088, -0.0716584, -837551.6, -4283.592, 0.0, 10.000418, 9.998719 
1.9650474e+3, 2.2497053e+2, -759475.56, -884241.94, -62588.547, 0.03985188, -0.08365548, -733490.25, 1789.9382, 0.0, 10.000424, 9.998771 
1.9650492e+3, 2.3496917e+2, -661710.8, -786288.56, -62552.3, 0.042122494, -0.09903222, -635723.44, 1568.3937, 0.0, 10.0004225, 9.998772 
1.9650511e+3, 2.4496773e+2, -562031.2, -684299.2, -53632.98, 0.0427423, -0.12084121, -541839.56, -2535.6848, 0.0, 10.00042, 9.998799 
1.9650532e+3, 2.5496626e+2, -464340.9, -586368.5, -53451.33, 0.04167919, -0.14933942, -444239.2, -2922.9065, 0.0, 10.000418, 9.9988 
1.9650555e+3, 2.6496488e+2, -349010.7, -457521.2, -40772.74, 0.046055503, -0.17704082, -335398.06, 7929.4307, 0.0, 10.00044, 9.9990015 
1.9650578e+3, 2.749636e+2, -244069.47, -355999.63, -40414.324, 0.055921484, -0.20413564, -231002.61, 14334.917, 0.0, 10.000486, 9.999003 
1.9650605e+3, 2.8496242e+2, -130662.12, -243015.03, -25024.844, 0.06272287, -0.22698648, -125340.305, 22006.537, 0.0, 10.00056, 9.999071 
1.9650634e+3, 2.949613e+2, -18032.545, -137793.95, -24257.1, 0.06643101, -0.24573612, -13305.93, 36049.492, 0.0, 10.000659, 9.999072 
1.9650665e+3, 3.049603e+2, 62045.773, -57123.13, -8531.288, 0.08398415, -0.26112634, 62653.426, 62653.426, 0.0, 10.000801, 9.999222 
1.9650699e+3, 3.1495938e+2, 88766.664, -44283.547, -7628.0664, 0.11550864, -0.27329382, 89202.57, 89202.57, 0.0, 10.000985, 9.999222 
1.9750246e+3, 1.2497579e+2, -1761446.4, -1739124.8, -7452.267, -0.034922615, -0.020100493, -1736865.4, -21631.031, 0.0, 9.999689, 9.999985 
1.9750279e+3, 1.3497561e+2, -1638658.0, -1629253.3, -8107.653, -0.010261776, -0.036088962, -1624583.0, -7348.013, 0.0, 9.999859, 9.999984 
1.9750309e+3, 1.4497519e+2, -1546508.1, -1577038.8, -28622.342, 0.0057234536, -0.057622045, -1529334.8, -10097.208, 0.0, 10.000004, 9.999599 
1.9750336e+3, 1.5497452e+2, -1431162.0, -1470780.5, -29777.828, 0.013119913, -0.08493568, -1415206.5, 6035.6826, 0.0, 10.000124, 9.9995985 
1.9750358e+3, 1.649738e+2, -1348070.1, -1424958.3, -45599.242, 0.018489832, -0.09707971, -1326871.6, -3623.5464, 0.0, 10.000216, 9.999196 
1.975038e+3, 1.7497303e+2, -1240886.6, -1322628.0, -46712.45, 0.02181022, -0.094097465, -1219689.0, 5566.2046, 0.0, 10.000278, 9.999195 
1.9750401e+3, 1.8497208e+2, -1164551.8, -1282001.0, -56261.0, 0.026296765, -0.08715613, -1141950.6, -14685.748, 0.0, 10.000332, 9.9987755 
1.9750422e+3, 1.9497097e+2, -1060283.4, -1181084.8, -57214.934, 0.031964205, -0.07638786, -1037486.7, -8209.924, 0.0, 10.000376, 9.998775 
1.975044e+3, 2.049697e+2, -962505.6, -1090209.6, -60224.523, 0.034904156, -0.07499686, -938584.75, -7295.609, 0.0, 10.000404, 9.998712 
1.975046e+3, 2.1496834e+2, -862492.4, -991234.8, -60515.81, 0.035083238, -0.08326025, -838513.06, -5211.1187, 0.0, 10.000418, 9.998712 
1.9750479e+3, 2.2496696e+2, -759417.8, -884089.6, -62699.27, 0.037294846, -0.09472598, -733340.1, 1974.0365, 0.0, 10.000424, 9.998772 
1.9750497e+3, 2.349656e+2, -661646.56, -786127.2, -62662.97, 0.041579053, -0.10962054, -635566.4, 1759.3921, 0.0, 10.0004225, 9.998773 
1.9750516e+3, 2.4496417e+2, -561741.9, -683674.4, -53766.18, 0.043665674, -0.13091315, -541420.44, -2082.6775, 0.0, 10.00042, 9.998804 
1.9750535e+3, 2.5496268e+2, -464049.78, -585739.3, -53583.07, 0.043514956, -0.15886869, -443819.06, -2468.9392, 0.0, 10.000418, 9.998805 
1.975056e+3, 2.6496133e+2, -348429.2, -456278.25, -39048.188, 0.048322834, -0.18607578, -335775.84, 7585.4604, 0.0, 10.00044, 9.99901 
1.9750585e+3, 2.7496007e+2, -243488.13, -354738.3, -38682.17, 0.058135428, -0.21272531, -231360.28, 14010.957, 0.0, 10.000486, 9.999012 
1.9750611e+3, 2.849589e+2, -129353.42, -240218.23, -21306.209, 0.064844534, -0.23538105, -125399.75, 21980.674, 0.0, 10.00056, 9.99909 
1.975064e+3, 2.949578e+2, -16733.418, -134984.69, -20531.248, 0.06841915, -0.25418484, -13270.133, 36118.703, 0.0, 10.000659, 9.999092 
1.9750673e+3, 3.0495682e+2, 63573.3, -53797.785, -1646.5453, 0.08498664, -0.26879308, 63596.395, 63596.395, 0.0, 10.0008, 9.999245 
1.975071e+3, 3.1495595e+2, 90254.57, -40984.54, -727.817, 0.11466148, -0.27932668, 90258.61, 90258.61, 0.0, 10.000984, 9.999245 
1.9850244e+3, 1.2497229e+2, -1748370.3, -1736342.0, -13356.832, -0.03659295, -0.028603159, -1727707.8, -12440.05, 0.0, 9.999794, 9.999953 
1.9850278e+3, 1.3497207e+2, -1627825.1, -1627565.4, -15002.157, -0.012955428, -0.0467879, -1612692.5, 4576.2324, 0.0, 9.9999485, 9.999952 
1.985031e+3, 1.4497161e+2, -1537776.0, -1576317.9, -37985.316, 0.0023127228, -0.06933809, -1514452.9, 4818.78, 0.0, 10.000079, 9.999568 
1.9850338e+3, 1.5497088e+2, -1424452.0, -1471039.5, -39294.266, 0.009345093, -0.09643574, -1402066.0, 19210.521, 0.0, 10.000185, 9.999567 
1.9850361e+3, 1.6497014e+2, -1343139.5, -1425980.5, -57320.168, 0.014705503, -0.108514644, -1313840.4, 9442.305, 0.0, 10.000264, 9.999166 
1.9850384e+3, 1.7496933e+2, -1237615.4, -1324452.1, -58578.313, 0.018369582, -0.10559756, -1208118.9, 17171.371, 0.0, 10.000316, 9.999165 
1.9850405e+3, 1.8496835e+2, -1162827.4, -1283827.1, -69004.484, 0.023118304, -0.09878765, -1131556.5, -4256.431, 0.0, 10.000356, 9.998752 
1.9850425e+3, 1.9496723e+2, -1060936.4, -1184065.1, -69891.29, 0.02896821, -0.08821053, -1029361.25, -48.894165, 0.0, 10.000382, 9.998751 
1.9850445e+3, 2.0496596e+2, -964438.94, -1091823.1, -73969.25, 0.031803608, -0.086623654, -930518.9, 806.003, 0.0, 10.000394, 9.998706 
1.9850464e+3, 2.1496458e+2, -867101.56, -994129.5, -74157.4, 0.031584784, -0.09431374, -832976.7, 361.01376, 0.0, 10.000389, 9.998706 
1.9850482e+3, 2.2496323e+2, -764513.2, -886033.4, -76377.35, 0.034627546, -0.10534544, -727675.7, 7674.188, 0.0, 10.000387, 9.998776 
1.98505e+3, 2.3496185e+2, -666496.94, -787942.94, -76093.01, 0.04098941, -0.11995229, -629867.9, 7493.619, 0.0, 10.000386, 9.998777 
1.985052e+3, 2.4496043e+2, -566568.5, -685328.7, -67120.37, 0.044786483, -0.14083834, -536332.0, 3041.4358, 0.0, 10.000384, 9.99881 
1.985054e+3, 2.5495896e+2, -469252.88, -587565.3, -66823.14, 0.04597307, -0.16827506, -439163.44, 2222.2854, 0.0, 10.000379, 9.998811 
1.9850564e+3, 2.649576e+2, -354545.4, -457936.94, -50513.86, 0.051385563, -0.19504826, -333963.22, 9433.562, 0.0, 10.000392, 9.999022 
1.985059e+3, 2.749564e+2, -251807.84, -357437.44, -49933.066, 0.06106151, -0.2213506, -231940.38, 13466.237, 0.0, 10.000423, 9.999023 
1.9850616e+3, 2.8495523e+2, -139629.13, -242791.17, -30514.324, 0.067614794, -0.24386895, -131279.13, 16136.515, 0.0, 10.000479, 9.999111 
1.9850647e+3, 2.9495412e+2, -30042.406, -139003.53, -29604.945, 0.07101187, -0.26274285, -22518.256, 26905.635, 0.0, 10.000557, 9.999113 
1.985068e+3, 3.0495322e+2, 47729.06, -57556.504, -7196.73, 0.08569271, -0.27657068, 48218.707, 48218.707, 0.0, 10.000675, 9.99928 
1.9850717e+3, 3.149524e+2, 70512.195, -46624.184, -5426.719, 0.11174497, -0.28545707, 70763.07, 70763.07, 0.0, 10.000832, 9.999279 
1.9950242e+3, 1.24968626e+2, -1751448.8, -1742852.6, -7546.714, -0.035824265, -0.037618756, -1738465.9, -23163.201, 0.0, 9.999794, 9.999908 
1.9950278e+3, 1.3496834e+2, -1630928.3, -1634104.6, -9172.615, -0.014725265, -0.057962123, -1623207.4, -5903.085, 0.0, 9.999949, 9.9999075 
1.995031e+3, 1.4496782e+2, -1540074.4, -1581155.9, -34017.566, -0.0011471433, -0.08144235, -1520877.0, -1569.3702, 0.0, 10.000079, 9.999535 
1.9950338e+3, 1.5496708e+2, -1426769.9, -1475893.6, -35335.78, 0.005110502, -0.10817335, -1408298.0, 13014.786, 0.0, 10.000185, 9.999534 
1.9950363e+3, 1.649663e+2, -1345393.8, -1430681.9, -55375.652, 0.0102045, -0.12003346, -1318145.1, 5174.055, 0.0, 10.000264, 9.999133 
1.9950387e+3, 1.7496547e+2, -1239888.0, -1329176.4, -56643.16, 0.014111188, -0.11702401, -1212410.4, 12916.721, 0.0, 10.000316, 9.999132 
1.9950408e+3, 1.8496446e+2, -1164443.6, -1287174.8, -68003.84, 0.019047776, -0.11017021, -1134210.9, -6873.652, 0.0, 10.000356, 9.998729 
1.9950429e+3, 1.949633e+2, -1062566.8, -1187430.4, -68894.625, 0.025033308, -0.09959091, -1032024.4, -2674.6738, 0.0, 10.000382, 9.998728 
1.9950448e+3, 2.0496203e+2, -964799.1, -1092543.4, -74168.734, 0.027945014, -0.09771259, -930790.44, 571.9425, 0.0, 10.000394, 9.998701 
1.9950466e+3, 2.1496066e+2, -867462.7, -994842.3, -74360.305, 0.02773932, -0.104832165, -833245.1, 130.0895, 0.0, 10.000389, 9.998701 
1.9950485e+3, 2.2495928e+2, -763999.2, -884927.56, -76418.34, 0.03185044, -0.115525454, -727017.6, 8369.805, 0.0, 10.000386, 9.998784 
1.9950505e+3, 2.3495793e+2, -665969.0, -786817.06, -76132.195, 0.040353168, -0.13003549, -629196.5, 8202.462, 0.0, 10.000386, 9.998785 
1.9950524e+3, 2.4495652e+2, -566070.44, -684274.8, -67343.44, 0.04609919, -0.15062301, -535572.4, 3838.4333, 0.0, 10.000383, 9.998817 
1.9950545e+3, 2.5495508e+2, -468740.25, -586487.6, -67045.76, 0.049038813, -0.17756453, -438388.13, 3034.885, 0.0, 10.000379, 9.998818 
1.9950567e+3, 2.6495373e+2, -353574.88, -455901.22, -49357.484, 0.05522496, -0.20396301, -333647.75, 9786.204, 0.0, 10.000392, 9.999036 
1.9950593e+3, 2.749525e+2, -250835.48, -355375.56, -48769.547, 0.0646816, -0.23001406, -231616.89, 13826.731, 0.0, 10.000423, 9.999038 
1.9950621e+3, 2.849514e+2, -138086.05, -239507.28, -27581.518, 0.07101582, -0.25245163, -131070.53, 16381.968, 0.0, 10.000478, 9.999134 
1.9950652e+3, 2.949503e+2, -28525.021, -135716.81, -26663.098, 0.07419149, -0.2714115, -22259.07, 27201.498, 0.0, 10.000557, 9.999136 
1.9950688e+3, 3.0494943e+2, 50779.902, -51005.93, -1322.292, 0.08610803, -0.28446043, 50797.074, 50797.074, 0.0, 10.000674, 9.999325 
1.9950727e+3, 3.1494868e+2, 73492.836, -40106.313, 464.2676, 0.1068102, -0.2916853, 73494.734, 73494.734, 0.0, 10.00083, 9.999325 
2.0050241e+3, 1.2496482e+2, -1725691.8, -1736421.8, -13402.712, -0.03270717, -0.0467036, -1716620.1, -1281.1813, 0.0, 9.999997, 9.999854 
2.0050278e+3, 1.3496445e+2, -1612560.0, -1631262.1, -15666.47, -0.0152972555, -0.069052055, -1603666.0, 13675.256, 0.0, 10.000101, 9.999853 
2.0050311e+3, 1.4496388e+2, -1526768.9, -1578704.5, -42514.52, -0.0041604727, -0.093246065, -1502918.9, 16426.26, 0.0, 10.000188, 9.999499 
2.005034e+3, 1.5496312e+2, -1418772.8, -1476007.6, -44009.977, 0.000991046, -0.119319715, -1394894.1, 26456.355, 0.0, 10.0002575, 9.999498 
2.0050366e+3, 1.649623e+2, -1341339.1, -1432316.3, -65847.914, 0.0055622216, -0.13084422, -1306795.5, 16561.803, 0.0, 10.000307, 9.999102 
2.005039e+3, 1.7496145e+2, -1238885.1, -1332296.6, -67119.42, 0.009532629, -0.12780155, -1203820.3, 21545.297, 0.0, 10.000339, 9.9991 
2.0050411e+3, 1.8496042e+2, -1165325.1, -1289948.0, -79247.734, 0.014539579, -0.12062308, -1126825.3, 550.6356, 0.0, 10.00036, 9.998708 
2.0050432e+3, 1.9495922e+2, -1065751.8, -1191327.6, -80008.695, 0.020605877, -0.109415516, -1026835.6, 2553.0195, 0.0, 10.000371, 9.998707 
2.0050451e+3, 2.0495796e+2, -968779.94, -1094880.4, -86301.68, 0.023778336, -0.107091926, -924950.25, 6451.128, 0.0, 10.000368, 9.998697 
2.005047e+3, 2.1495658e+2, -873174.25, -998007.7, -86424.74, 0.024013642, -0.11396724, -828983.8, 4430.4653, 0.0, 10.000352, 9.998697 
2.005049e+3, 2.2495523e+2, -769423.5, -886603.06, -87954.2, 0.029274367, -0.12445371, -722331.2, 13095.274, 0.0, 10.000345, 9.998793 
2.0050508e+3, 2.3495387e+2, -670750.9, -788163.56, -87622.414, 0.039648846, -0.13880137, -623986.25, 13451.602, 0.0, 10.00035, 9.998794 
2.0050527e+3, 2.4495248e+2, -570409.0, -685413.7, -79003.29, 0.04728208, -0.15923308, -530197.3, 9252.373, 0.0, 10.00035, 9.998826 
2.0050548e+3, 2.5495103e+2, -472806.3, -587479.06, -78622.16, 0.052123692, -0.18603447, -432834.4, 8627.386, 0.0, 10.000347, 9.998827 
2.0050572e+3, 2.649497e+2, -358392.88, -456437.53, -59854.176, 0.059148293, -0.2122244, -330047.84, 13424.779, 0.0, 10.000351, 9.999051 
2.0050599e+3, 2.749485e+2, -258454.58, -357239.34, -59131.035, 0.06836306, -0.23799782, -230800.97, 14681.122, 0.0, 10.000363, 9.999054 
2.0050626e+3, 2.849474e+2, -149206.8, -241998.25, -36367.516, 0.07442356, -0.2604646, -136652.05, 10838.734, 0.0, 10.000389, 9.99916 
2.0050658e+3, 2.9494634e+2, -45176.08, -140854.77, -35237.906, 0.077289894, -0.27975926, -33598.984, 15899.685, 0.0, 10.00043, 9.999162 
2.0050694e+3, 3.049455e+2, 29025.082, -55286.402, -6940.4233, 0.08583411, -0.2921603, 29592.59, 29592.59, 0.0, 10.000498, 9.99938 
2.0050733e+3, 3.1494483e+2, 42889.76, -48642.727, -4414.5664, 0.10004384, -0.29773247, 43102.184, 43102.184, 0.0, 10.000593, 9.99938 
2.0150241e+3, 1.2496087e+2, -1729967.5, -1745466.6, -9497.33, -0.027268395, -0.055861343, -1725459.3, -10082.568, 0.0, 9.999997, 9.999792 
2.015028e+3, 1.3496041e+2, -1616872.4, -1640350.5, -11740.019, -0.0146853505, -0.080063105, -1612009.1, 5370.5776, 0.0, 10.000102, 9.99979 
2.0150313e+3, 1.4495979e+2, -1529366.0, -1584190.5, -39912.14, -0.0067336885, -0.1047579, -1508359.1, 11024.987, 0.0, 10.000189, 9.999461 
2.0150341e+3, 1.5495901e+2, -1421393.6, -1481507.9, -41416.117, -0.0030155529, -0.12988746, -1400277.3, 21112.51, 0.0, 10.0002575, 9.99946 
2.0150368e+3, 1.6495816e+2, -1343579.9, -1436996.1, -64679.508, 0.00077989715, -0.1409612, -1310506.5, 12890.437, 0.0, 10.000307, 9.999069 
2.0150392e+3, 1.7495726e+2, -1241149.3, -1337004.6, -65958.375, 0.004638147, -0.13794406, -1207544.3, 17861.203, 0.0, 10.000339, 9.999068 
2.0150416e+3, 1.8495622e+2, -1166692.0, -1292775.5, -78826.27, 0.009600083, -0.13016582, -1128799.0, -1382.7518, 0.0, 10.00036, 9.998689 
2.0150436e+3, 1.9495504e+2, -1067134.9, -1194176.9, -79590.09, 0.015693583, -0.11771494, -1028825.1, 603.88885, 0.0, 10.000371, 9.998687 
2.0150456e+3, 2.0495375e+2, -969005.7, -1095321.0, -86932.21, 0.01930757, -0.11479478, -924710.56, 6731.332, 0.0, 10.000368, 9.998694 
2.0150474e+3, 2.1495238e+2, -873394.2, -998433.25, -87058.766, 0.020403653, -0.12174709, -828732.0, 4722.8228, 0.0, 10.000352, 9.998694 
2.0150492e+3, 2.2495101e+2, -768831.6, -885340.7, -87813.77, 0.026894253, -0.13215707, -721706.6, 13760.377, 0.0, 10.000345, 9.998801 
2.0150511e+3, 2.3494968e+2, -670143.3, -786873.4, -87478.01, 0.038876854, -0.14627887, -623347.2, 14131.138, 0.0, 10.000349, 9.998802 
2.015053e+3, 2.4494828e+2, -569759.2, -684042.75, -79137.914, 0.04833654, -0.16669494, -529289.5, 10200.467, 0.0, 10.00035, 9.998836 
2.0150551e+3, 2.5494686e+2, -472147.84, -586093.25, -78756.484, 0.055226002, -0.19370449, -431917.28, 9584.776, 0.0, 10.000346, 9.9988365 
2.0150577e+3, 2.6494557e+2, -357183.44, -453899.0, -59410.063, 0.06315242, -0.2198494, -328938.16, 14574.597, 0.0, 10.000351, 9.999069 
2.0150602e+3, 2.7494437e+2, -257250.06, -354683.0, -58682.438, 0.07210259, -0.24532004, -229697.78, 15824.211, 0.0, 10.000363, 9.999071 
2.0150632e+3, 2.8494328e+2, -147299.63, -237936.84, -34859.78, 0.07783559, -0.2679237, -135443.23, 12087.244, 0.0, 10.000389, 9.999187 
2.0150663e+3, 2.9494226e+2, -43304.785, -136793.47, -33722.21, 0.08030674, -0.2877963, -32410.416, 17127.764, 0.0, 10.000429, 9.99919 
2.0150699e+3, 3.0494148e+2, 33390.113, -45943.918, -3358.6567, 0.08488624, -0.2996776, 33532.047, 33532.047, 0.0, 10.000497, 9.999445 
2.0150737e+3, 3.1494087e+2, 47168.383, -39331.555, -819.893, 0.09148898, -0.30360505, 47176.152, 47176.152, 0.0, 10.000591, 9.999445 
2.0250244e+3, 1.24956824e+2, -1692597.8, -1734935.8, -14450.184, -0.02052268, -0.06504347, -1688136.0, 27279.36, 0.0, 10.000286, 9.999725 
2.0250282e+3, 1.349563e+2, -1590410.6, -1635103.5, -17025.434, -0.012666761, -0.09016426, -1584663.8, 32755.428, 0.0, 10.000316, 9.999723 
2.0250314e+3, 1.449556e+2, -1510337.5, -1579534.0, -46382.453, -0.0079026455, -0.11499553, -1487070.6, 32353.518, 0.0, 10.000339, 9.999421 
2.0250344e+3, 1.5495479e+2, -1410063.0, -1480563.6, -48091.887, -0.0057130344, -0.13940749, -1385686.0, 35744.152, 0.0, 10.000355, 9.99942 
2.0250371e+3, 1.6495392e+2, -1337334.3, -1437189.3, -72286.43, -0.0028357648, -0.14999455, -1299409.1, 24028.523, 0.0, 10.000364, 9.999041 
2.0250395e+3, 1.7495298e+2, -1239004.1, -1339187.6, -73318.63, 0.00072221144, -0.14670081, -1200299.5, 25147.064, 0.0, 10.000367, 9.999039 
2.0250417e+3, 1.8495193e+2, -1167028.9, -1294861.0, -86513.234, 0.00548731, -0.13806266, -1123381.9, 4075.5076, 0.0, 10.000365, 9.998672 
2.0250438e+3, 1.9495074e+2, -1069957.0, -1197468.9, -87126.91, 0.011493534, -0.12414898, -1025750.4, 3720.0432, 0.0, 10.00036, 9.99867 
2.0250458e+3, 2.0494947e+2, -972543.94, -1097261.9, -95229.055, 0.015554404, -0.12057475, -921073.1, 10410.226, 0.0, 10.000345, 9.9986925 
2.0250475e+3, 2.1494807e+2, -877995.2, -1000874.5, -95303.65, 0.017640198, -0.12771466, -826043.4, 7452.977, 0.0, 10.000321, 9.9986925 
2.0250496e+3, 2.2494672e+2, -773417.8, -886843.1, -95217.97, 0.025133107, -0.13811846, -719302.75, 16205.759, 0.0, 10.000311, 9.998808 
2.0250516e+3, 2.3494539e+2, -674782.06, -788387.7, -95068.82, 0.038133644, -0.15204261, -620839.06, 16680.7, 0.0, 10.000315, 9.998809 
2.0250535e+3, 2.4494402e+2, -574313.56, -685134.2, -87120.62, 0.04902475, -0.17255718, -526475.1, 13056.223, 0.0, 10.000314, 9.998845 
2.0250556e+3, 2.549426e+2, -476947.13, -587294.9, -86721.67, 0.05776678, -0.19997904, -429335.78, 12207.565, 0.0, 10.000309, 9.998846 
2.025058e+3, 2.6494128e+2, -363393.53, -455037.44, -67257.57, 0.066434845, -0.22626969, -327832.25, 15721.632, 0.0, 10.0003, 9.999085 
2.0250605e+3, 2.7494013e+2, -266980.47, -357497.2, -66606.78, 0.07499371, -0.25161248, -231710.67, 13852.256, 0.0, 10.000288, 9.999088 
2.0250635e+3, 2.8493905e+2, -161459.48, -241255.0, -42162.24, 0.08033387, -0.27438512, -143309.97, 4261.2354, 0.0, 10.000277, 9.999219 
2.0250666e+3, 2.9493806e+2, -64858.234, -143651.84, -40792.98, 0.08240674, -0.2947237, -47543.707, 2034.9531, 0.0, 10.000266, 9.999222 
2.0250702e+3, 3.049373e+2, 4847.2944, -51938.117, -8682.057, 0.08306168, -0.3063612, 6145.0557, 6145.0557, 0.0, 10.000267, 9.999515 
2.025074e+3, 3.149368e+2, 6718.2236, -51048.47, -5808.9624, 0.08213522, -0.3093121, 7296.5767, 7296.5767, 0.0, 10.00028, 9.999515 
2.0350248e+3, 1.24952674e+2, -1697498.9, -1745317.9, -13348.654, -0.012489911, -0.074261636, -1694025.0, 21430.15, 0.0, 10.000287, 9.999654 
2.0350285e+3, 1.3495207e+2, -1595348.1, -1645530.1, -15909.134, -0.009258923, -0.09937138, -1590729.6, 26730.137, 0.0, 10.000317, 9.999652 
2.0350319e+3, 1.4495134e+2, -1513285.3, -1585786.9, -45767.438, -0.0076860297, -0.123979285, -1491151.3, 28313.918, 0.0, 10.0003395, 9.999378 
2.0350347e+3, 1.5495048e+2, -1413031.8, -1486825.6, -47477.855, -0.0071201846, -0.14789808, -1389799.4, 31672.268, 0.0, 10.000355, 9.999377 
2.0350374e+3, 1.6494957e+2, -1339080.1, -1440879.4, -72165.18, -0.005302642, -0.15796448, -1301670.1, 21809.256, 0.0, 10.000364, 9.999015 
2.03504e+3, 1.7494862e+2, -1240768.4, -1342894.3, -73199.85, -0.0022311518, -0.15409745, -1202580.9, 22907.72, 0.0, 10.000367, 9.999014 
2.035042e+3, 1.8494755e+2, -1168090.4, -1297087.5, -86716.14, 0.0021869002, -0.14434436, -1124516.0, 2983.642, 0.0, 10.000365, 9.998656 
2.0350441e+3, 1.9494636e+2, -1071032.3, -1199709.5, -87329.24, 0.0079927435, -0.12875316, -1026900.4, 2612.3442, 0.0, 10.00036, 9.998654 
2.035046e+3, 2.0494509e+2, -972649.6, -1097481.5, -96113.625, 0.012504761, -0.12446887, -920463.75, 11062.057, 0.0, 10.000345, 9.998691 
2.035048e+3, 2.149437e+2, -878093.94, -1001077.2, -96191.51, 0.015705954, -0.13190591, -825418.94, 8119.925, 0.0, 10.000321, 9.998692 
2.0350498e+3, 2.2494236e+2, -773166.56, -886309.2, -95068.87, 0.023978226, -0.14237358, -719110.56, 16440.383, 0.0, 10.000311, 9.998811 
2.0350517e+3, 2.3494102e+2, -674530.0, -787842.7, -94913.984, 0.03741818, -0.15612875, -620648.56, 16913.594, 0.0, 10.000315, 9.998813 
2.0350538e+3, 2.4493966e+2, -573634.44, -683695.5, -87293.65, 0.04935343, -0.1768543, -525473.2, 14100.519, 0.0, 10.000314, 9.998855 
2.0350559e+3, 2.5493822e+2, -476269.4, -585847.4, -86895.11, 0.05975722, -0.20488912, -428332.56, 13253.042, 0.0, 10.000309, 9.998857 
2.0350583e+3, 2.6493692e+2, -362350.84, -452816.03, -67704.086, 0.069010526, -0.23151305, -326159.7, 17436.365, 0.0, 10.0003, 9.999101 
2.035061e+3, 2.7493578e+2, -265947.34, -355261.38, -67052.59, 0.07705439, -0.25689992, -230041.97, 15562.955, 0.0, 10.000288, 9.999104 
2.0350637e+3, 2.8493473e+2, -159155.95, -236330.88, -42555.676, 0.0819383, -0.2798741, -140297.98, 7314.9644, 0.0, 10.000277, 9.999253 
2.035067e+3, 2.9493377e+2, -62592.39, -138722.45, -41183.594, 0.08361074, -0.30057016, -44576.813, 5043.2896, 0.0, 10.000265, 9.999256 
2.0350705e+3, 3.0493307e+2, 9786.049, -41351.293, -8182.38, 0.080379196, -0.31223267, 11063.389, 11063.389, 0.0, 10.000266, 9.999588 
2.0350742e+3, 3.1493264e+2, 11569.645, -40489.637, -5300.4277, 0.07199459, -0.31485727, 12103.827, 12103.827, 0.0, 10.0002775, 9.999588 
2.0450252e+3, 1.249485e+2, -1651362.3, -1731611.8, -16266.115, -0.004419704, -0.082708634, -1648190.6, 67304.664, 0.0, 10.000641, 9.9995775 
2.045029e+3, 1.3494784e+2, -1560787.1, -1637432.3, -19181.514, -0.004630507, -0.106927246, -1556254.6, 61245.88, 0.0, 10.00059, 9.999575 
2.0450324e+3, 1.4494705e+2, -1486358.1, -1577671.5, -49321.258, -0.00556773, -0.13112889, -1464805.3, 54701.363, 0.0, 10.000545, 9.999334 
2.0450352e+3, 1.5494613e+2, -1394418.9, -1482712.1, -51062.332, -0.0064483862, -0.15510066, -1371065.3, 50448.266, 0.0, 10.000504, 9.999333 
2.0450379e+3, 1.649452e+2, -1325550.6, -1436894.3, -75694.11, -0.005610558, -0.16461737, -1287260.0, 36261.656, 0.0, 10.000468, 9.998992 
2.0450403e+3, 1.7494425e+2, -1231967.6, -1341189.9, -76530.42, -0.003042132, -0.1595594, -1192561.4, 32969.63, 0.0, 10.000439, 9.998991 
2.0450425e+3, 1.8494317e+2, -1162461.4, -1295642.9, -89925.5, 0.0008325062, -0.1486681, -1117155.1, 10387.058, 0.0, 10.00041, 9.998645 
2.0450446e+3, 1.9494198e+2, -1068602.8, -1199819.0, -90247.84, 0.0060579777, -0.1319829, -1022635.3, 6920.076, 0.0, 10.000382, 9.998643 
2.0450465e+3, 2.049407e+2, -971828.2, -1097323.8, -99354.03, 0.010762759, -0.12712435, -917066.4, 14502.122, 0.0, 10.000352, 9.998689 
2.0450482e+3, 2.1493931e+2, -878583.3, -1001547.44, -99496.43, 0.014947305, -0.13453862, -823105.6, 10475.927, 0.0, 10.000319, 9.998689 
2.0450501e+3, 2.2493796e+2, -775151.4, -887203.25, -97584.484, 0.023588713, -0.14500532, -718653.4, 16940.322, 0.0, 10.000297, 9.998812 
2.045052e+3, 2.3493662e+2, -678567.1, -789714.8, -97663.86, 0.0367731, -0.15878767, -621772.44, 15832.455, 0.0, 10.000286, 9.998814 
2.0450541e+3, 2.4493526e+2, -579202.9, -685485.0, -90564.38, 0.049151395, -0.17972256, -527339.75, 12276.642, 0.0, 10.000272, 9.998863 
2.0450562e+3, 2.5493383e+2, -483862.3, -588602.25, -90318.78, 0.06071349, -0.2081673, -431828.75, 9799.494, 0.0, 10.000253, 9.998864 
2.0450586e+3, 2.6493254e+2, -372666.16, -456262.63, -71831.96, 0.07022153, -0.23519745, -331356.47, 12282.096, 0.0, 10.000223, 9.999115 
2.045061e+3, 2.7493143e+2, -280463.03, -360712.53, -71321.945, 0.077594094, -0.26098332, -238753.7, 6893.642, 0.0, 10.000181, 9.999118 
2.045064e+3, 2.8493038e+2, -178444.75, -241714.22, -47360.33, 0.08205735, -0.28401953, -153125.48, -5470.354, 0.0, 10.000127, 9.999288 
2.045067e+3, 2.9492947e+2, -90210.766, -148090.7, -45938.87, 0.08356255, -0.30442622, -64856.156, -15194.239, 0.0, 10.000058, 9.99929 
2.0450704e+3, 3.0492884e+2, -25357.555, -49727.824, -12467.101, 0.07720583, -0.31648004, -20109.787, -20109.787, 0.0, 9.999988, 9.999664 
2.0450743e+3, 3.1492847e+2, -36092.97, -54878.656, -9369.715, 0.0626591, -0.32018492, -32218.67, -32218.67, 0.0, 9.999913, 9.999664 
2.0550261e+3, 1.2494431e+2, -1656921.9, -1743377.9, -18135.371, 0.0036806925, -0.09040531, -1653271.9, 62263.938, 0.0, 10.000642, 9.9994955 
2.0550296e+3, 1.3494357e+2, -1566374.5, -1649239.9, -21045.44, 0.0012019575, -0.11285593, -1561335.9, 56205.84, 0.0, 10.000591, 9.999494 
2.055033e+3, 1.4494273e+2, -1489339.5, -1584039.1, -50853.68, -0.0015734379, -0.13647112, -1467204.8, 52343.613, 0.0, 10.0005455, 9.99929 
2.0550358e+3, 1.5494177e+2, -1397406.4, -1489068.0, -52586.84, -0.0037278014, -0.16103595, -1373481.6, 48074.156, 0.0, 10.0005045, 9.9992895 
2.0550384e+3, 1.649408e+2, -1326889.8, -1439797.9, -76785.1, -0.0037927444, -0.16997683, -1288039.0, 35525.266, 0.0, 10.000469, 9.998972 
2.0550407e+3, 1.7493986e+2, -1233318.0, -1344094.6, -77617.38, -0.0017457441, -0.16312116, -1193352.8, 32221.033, 0.0, 10.000439, 9.998971 
2.055043e+3, 1.8493879e+2, -1162946.1, -1296726.4, -90937.734, 0.0013910596, -0.15106845, -1116947.1, 10637.944, 0.0, 10.00041, 9.998637 
2.0550449e+3, 1.9493757e+2, -1069104.1, -1200919.8, -91255.98, 0.0056614084, -0.13386351, -1022444.25, 7154.058, 0.0, 10.000382, 9.998635 
2.0550469e+3, 2.049363e+2, -972010.8, -1097747.1, -100557.516, 0.010303757, -0.12856571, -916286.3, 15325.148, 0.0, 10.000352, 9.998686 
2.0550486e+3, 2.149349e+2, -878770.1, -1001969.6, -100700.62, 0.015340945, -0.13564387, -822322.7, 11301.901, 0.0, 10.000319, 9.998686 
2.0550506e+3, 2.2493355e+2, -775330.8, -887588.44, -97944.55, 0.023949163, -0.14604606, -718572.2, 17064.57, 0.0, 10.000297, 9.998809 
2.0550522e+3, 2.3493221e+2, -678758.1, -790096.3, -98017.53, 0.036196772, -0.16004844, -621704.2, 15943.779, 0.0, 10.000286, 9.998811 
2.0550545e+3, 2.4493085e+2, -578814.75, -684639.4, -91238.13, 0.04842928, -0.18119222, -526256.2, 13403.312, 0.0, 10.000272, 9.998869 
2.0550564e+3, 2.5492942e+2, -483485.7, -587751.75, -90992.86, 0.060657393, -0.20984896, -430749.5, 10921.752, 0.0, 10.000253, 9.99887 
2.0550588e+3, 2.6492816e+2, -371907.6, -454592.25, -73343.23, 0.070097245, -0.237357, -329057.2, 14624.336, 0.0, 10.000222, 9.999126 
2.0550613e+3, 2.7492702e+2, -279719.94, -359031.94, -72834.9, 0.07664658, -0.26388967, -236445.13, 9245.093, 0.0, 10.000181, 9.999129 
2.055064e+3, 2.8492603e+2, -176075.23, -236607.31, -49892.145, 0.08072458, -0.28685406, -147986.67, -288.9124, 0.0, 10.000126, 9.999324 
2.0550671e+3, 2.9492515e+2, -87872.55, -142970.13, -48474.96, 0.08229111, -0.30634233, -59665.1, -9960.992, 0.0, 10.000057, 9.999327 
2.0550703e+3, 3.0492455e+2, -20039.445, -38326.93, -15201.401, 0.073548056, -0.31914365, -11443.665, -11443.665, 0.0, 9.999986, 9.999743 
2.055074e+3, 3.149242e+2, -30845.344, -43491.86, -12100.091, 0.054093216, -0.3252968, -23515.916, -23515.916, 0.0, 9.999911, 9.999743 
2.0650269e+3, 1.24940164e+2, -1607203.1, -1728511.4, -18600.598, 0.011234238, -0.09564656, -1604415.1, 111160.76, 0.0, 10.001022, 9.999414 
2.0650305e+3, 1.3493936e+2, -1525353.4, -1638593.1, -21543.0, 0.007772554, -0.11694522, -1521393.4, 96189.164, 0.0, 10.000913, 9.999412 
2.0650338e+3, 1.4493845e+2, -1453616.6, -1571674.5, -50834.51, 0.003961423, -0.14014225, -1434744.5, 84845.33, 0.0, 10.000812, 9.999247 
2.0650364e+3, 1.5493746e+2, -1368941.5, -1480179.4, -52518.57, 0.0008448523, -0.16503054, -1348064.3, 73533.46, 0.0, 10.000721, 9.999247 
2.0650391e+3, 1.6493648e+2, -1303173.4, -1430582.3, -76022.266, 0.000056269117, -0.17343676, -1267692.9, 55913.59, 0.0, 10.000641, 9.998952 
2.0650412e+3, 1.749355e+2, -1215090.5, -1337520.5, -76827.38, 0.0016275875, -0.1651393, -1178072.5, 47543.613, 0.0, 10.000574, 9.998951 
2.0650434e+3, 1.8493444e+2, -1148395.6, -1290141.1, -89746.23, 0.0037951146, -0.15231057, -1104912.3, 22715.314, 0.0, 10.000512, 9.998633 
2.0650454e+3, 1.9493322e+2, -1058644.9, -1196313.1, -89787.414, 0.006592918, -0.1350044, -1014342.25, 15298.578, 0.0, 10.000456, 9.9986315 
2.0650472e+3, 2.0493194e+2, -964938.25, -1094805.0, -99002.73, 0.010833168, -0.12937333, -911474.5, 20179.549, 0.0, 10.000402, 9.998681 
2.0650488e+3, 2.1493056e+2, -874325.3, -1000290.75, -99237.36, 0.01656871, -0.13589938, -819771.3, 13895.821, 0.0, 10.000352, 9.998682 
2.0650508e+3, 2.249292e+2, -774472.56, -887665.56, -95998.32, 0.024814665, -0.14612594, -719629.2, 16050.181, 0.0, 10.000305, 9.998805 
2.0650527e+3, 2.3492786e+2, -682428.0, -792347.56, -96199.016, 0.035615616, -0.16034688, -626596.0, 11094.711, 0.0, 10.000263, 9.998806 
2.0650546e+3, 2.4492648e+2, -586247.94, -687856.1, -89842.53, 0.047158763, -0.1815551, -533839.94, 5862.263, 0.0, 10.000219, 9.998872 
2.0650567e+3, 2.5492507e+2, -494961.44, -592907.0, -89798.484, 0.059476253, -0.21013089, -441649.8, 64.10309, 0.0, 10.000172, 9.998874 
2.0650588e+3, 2.649238e+2, -387361.25, -460741.38, -73227.69, 0.06858774, -0.23790024, -342146.16, 1577.9569, 0.0, 10.000111, 9.999138 
2.0650613e+3, 2.7492267e+2, -300233.6, -367599.0, -72736.55, 0.07437691, -0.26504353, -253759.39, -8026.629, 0.0, 10.000034, 9.999141 
2.065064e+3, 2.849217e+2, -201474.95, -244953.97, -51227.516, 0.07824205, -0.28776336, -167564.98, -19824.904, 0.0, 9.999935, 9.999358 
2.0650668e+3, 2.9492086e+2, -121213.86, -155111.95, -49881.94, 0.080156885, -0.30611908, -85480.1, -35734.11, 0.0, 9.999811, 9.999362 
2.0650703e+3, 3.0492032e+2, -59614.176, -48311.4, -17168.477, 0.07006059, -0.31971225, -35888.086, -35888.086, 0.0, 9.999675, 9.999825 
2.0650737e+3, 3.1492007e+2, -81408.766, -58743.76, -13927.396, 0.047493458, -0.32863072, -52120.82, -52120.82, 0.0, 9.999525, 9.9998255 
2.0750281e+3, 1.2493608e+2, -1612813.4, -1740372.6, -22693.887, 0.018242596, -0.09846366, -1608896.1, 106719.47, 0.0, 10.001023, 9.999332 
2.0750315e+3, 1.349352e+2, -1530975.8, -1650483.4, -25639.768, 0.015070392, -0.11921926, -1525707.1, 91916.0, 0.0, 10.000914, 9.99933 
2.0750344e+3, 1.4493424e+2, -1456503.4, -1577873.4, -54239.867, 0.01101506, -0.1421675, -1435796.6, 83834.48, 0.0, 10.000813, 9.999204 
2.0750374e+3, 1.549332e+2, -1371814.5, -1486339.0, -55910.742, 0.0072417604, -0.16711484, -1349045.8, 72593.64, 0.0, 10.000722, 9.999204 
2.0750397e+3, 1.6493219e+2, -1304440.8, -1433385.6, -78523.93, 0.005904333, -0.17502776, -1267312.5, 56335.85, 0.0, 10.000642, 9.998933 
2.075042e+3, 1.7493121e+2, -1216367.6, -1340322.6, -79319.12, 0.007042951, -0.16564006, -1177683.6, 47974.45, 0.0, 10.000574, 9.998931 
2.0750439e+3, 1.8493013e+2, -1148334.3, -1290136.5, -91802.36, 0.0080127325, -0.15241483, -1103241.3, 24428.408, 0.0, 10.000512, 9.998633 
2.0750459e+3, 1.9492893e+2, -1058600.4, -1196319.1, -91837.305, 0.008828628, -0.13541882, -1012674.25, 17008.717, 0.0, 10.000457, 9.9986315 
2.0750476e+3, 2.0492762e+2, -965269.4, -1095565.6, -100871.984, 0.012332014, -0.12955937, -910336.56, 21359.625, 0.0, 10.000402, 9.998676 
2.0750493e+3, 2.1492626e+2, -874667.4, -1001055.1, -101103.8, 0.018613672, -0.13532145, -818632.7, 15076.612, 0.0, 10.000352, 9.998676 
2.075051e+3, 2.2492489e+2, -774885.0, -888546.8, -97512.21, 0.02617469, -0.14526324, -718851.5, 16870.137, 0.0, 10.000305, 9.998798 
2.075053e+3, 2.3492356e+2, -682862.0, -793235.1, -97707.71, 0.035029322, -0.15970148, -625832.94, 11900.119, 0.0, 10.000263, 9.9988 
2.0750546e+3, 2.4492216e+2, -586236.3, -687782.2, -91544.73, 0.04535095, -0.18083346, -532327.2, 7417.3774, 0.0, 10.000218, 9.998873 
2.0750569e+3, 2.5492075e+2, -494970.9, -592836.1, -91498.6, 0.05719386, -0.20904219, -440142.28, 1613.9879, 0.0, 10.000172, 9.998875 
2.0750591e+3, 2.649195e+2, -386643.16, -459124.53, -76027.87, 0.06572231, -0.23686184, -338660.2, 5106.2373, 0.0, 10.00011, 9.999149 
2.0750614e+3, 2.7491838e+2, -299533.03, -365970.4, -75539.0, 0.070813514, -0.2644839, -250231.28, -4456.2725, 0.0, 10.000033, 9.999153 
2.075064e+3, 2.849174e+2, -199232.98, -240086.52, -55793.86, 0.07463452, -0.28679225, -160244.2, -12462.111, 0.0, 9.999934, 9.9993925 
2.0750669e+3, 2.9491666e+2, -118987.46, -150223.63, -54457.836, 0.077178106, -0.30380884, -77952.38, -28164.8, 0.0, 9.99981, 9.999395 
2.0750698e+3, 3.0491614e+2, -54008.023, -36345.723, -22733.914, 0.06673104, -0.31823882, -20787.94, -20787.94, 0.0, 9.999674, 9.9999075 
2.0750733e+3, 3.1491593e+2, -75841.92, -46767.33, -19498.93, 0.042791337, -0.33023277, -36983.004, -36983.004, 0.0, 9.999523, 9.999908 
2.0850293e+3, 1.2493212e+2, -1564595.1, -1725546.3, -20234.99, 0.024631, -0.0986562, -1562090.1, 153564.31, 0.0, 10.00139, 9.999257 
2.0850328e+3, 1.3493116e+2, -1487240.9, -1637835.4, -22715.936, 0.022602504, -0.11960207, -1483889.0, 133773.72, 0.0, 10.00125, 9.999254 
2.0850356e+3, 1.4493014e+2, -1415534.1, -1563116.9, -50575.895, 0.018791165, -0.14247982, -1399865.5, 119805.66, 0.0, 10.001116, 9.999159 
2.0850381e+3, 1.5492906e+2, -1336241.1, -1474151.9, -52371.668, 0.014469755, -0.16711007, -1318607.6, 103072.29, 0.0, 10.000987, 9.999159 
2.0850405e+3, 1.64928e+2, -1272712.1, -1420185.9, -74196.3, 0.012517052, -0.17482214, -1241843.9, 81845.29, 0.0, 10.000869, 9.998914 
2.0850427e+3, 1.7492701e+2, -1190518.4, -1329944.9, -74921.12, 0.012977741, -0.16532356, -1157893.4, 67805.8, 0.0, 10.000761, 9.998913 
2.0850447e+3, 1.8492593e+2, -1126916.0, -1279962.3, -86917.99, 0.012627904, -0.15218599, -1087635.3, 40075.48, 0.0, 10.00066, 9.9986315 
2.0850463e+3, 1.9492473e+2, -1042580.3, -1188743.3, -87031.016, 0.011463787, -0.13547589, -1002016.3, 27707.813, 0.0, 10.000567, 9.99863 
2.0850481e+3, 2.0492344e+2, -954192.4, -1090715.1, -95714.15, 0.014103059, -0.12938148, -904891.75, 26845.586, 0.0, 10.000481, 9.998672 
2.0850497e+3, 2.1492206e+2, -867625.9, -998144.8, -95865.67, 0.020674087, -0.13439015, -816915.44, 16835.092, 0.0, 10.000402, 9.9986725 
2.0850512e+3, 2.249207e+2, -772822.5, -888034.5, -92068.61, 0.027375452, -0.14395694, -721823.3, 13939.503, 0.0, 10.000321, 9.998795 
2.0850532e+3, 2.3491934e+2, -686744.56, -795584.7, -92129.82, 0.034191236, -0.15841907, -634162.5, 3611.8083, 0.0, 10.000238, 9.9987955 
2.085055e+3, 2.4491797e+2, -595467.94, -692082.0, -86015.21, 0.043184467, -0.17922914, -545123.1, -5337.2476, 0.0, 10.0001545, 9.998874 
2.0850569e+3, 2.5491658e+2, -509727.9, -599792.56, -85918.36, 0.054432508, -0.20676936, -457755.72, -15958.174, 0.0, 10.00007, 9.998876 
2.0850591e+3, 2.6491532e+2, -406107.6, -466865.8, -71434.336, 0.062358443, -0.23419362, -358860.97, -15053.321, 0.0, 9.9999695, 9.999164 
2.0850612e+3, 2.749142e+2, -324726.34, -376448.28, -70713.64, 0.06683602, -0.2617015, -275293.16, -29477.057, 0.0, 9.999853, 9.999167 
2.0850638e+3, 2.8491327e+2, -228754.44, -250415.45, -52578.242, 0.07076428, -0.2834816, -185902.81, -38079.87, 0.0, 9.999715, 9.999427 
2.0850664e+3, 2.9491258e+2, -154194.5, -163263.63, -51198.617, 0.07415866, -0.29953247, -107330.03, -57501.99, 0.0, 9.999552, 9.999431 
2.0850693e+3, 3.0491212e+2, -93252.54, -46806.305, -21024.115, 0.06410961, -0.31431344, -38703.29, -38703.29, 0.0, 9.999368, 9.999983 
2.0850725e+3, 3.1491196e+2, -123139.85, -61081.926, -18364.422, 0.04008886, -0.32801312, -56054.703, -56054.703, 0.0, 9.999162, 9.999984 
2.0950307e+3, 1.2492828e+2, -1569321.0, -1735549.3, -25462.707, 0.030405372, -0.096258745, -1565508.1, 150184.14, 0.0, 10.001391, 9.999188 
2.095034e+3, 1.3492724e+2, -1491964.0, -1647847.0, -27953.898, 0.030365035, -0.11811795, -1487102.8, 130598.5, 0.0, 10.001251, 9.999186 
2.0950368e+3, 1.4492616e+2, -1418663.6, -1569817.8, -55368.113, 0.02727883, -0.14110428, -1400552.4, 119157.98, 0.0, 10.001117, 9.999113 
2.0950393e+3, 1.5492503e+2, -1339355.8, -1480819.6, -57150.68, 0.022515597, -0.1650483, -1319152.5, 102566.9, 0.0, 10.000988, 9.999113 
2.0950416e+3, 1.6492397e+2, -1273849.6, -1422732.8, -78209.92, 0.019881729, -0.17284732, -1240317.4, 83411.66, 0.0, 10.00087, 9.998897 
2.0950435e+3, 1.7492294e+2, -1191657.3, -1332475.3, -78924.12, 0.01942247, -0.16420195, -1156300.3, 69438.92, 0.0, 10.000761, 9.998895 
2.0950451e+3, 1.8492183e+2, -1127002.9, -1280277.4, -90362.664, 0.017632537, -0.15162928, -1085155.1, 42595.754, 0.0, 10.000661, 9.99863 
2.095047e+3, 1.9492063e+2, -1042681.94, -1189055.8, -90468.19, 0.014490192, -0.13518114, -999503.8, 30260.46, 0.0, 10.000567, 9.998628 
2.0950486e+3, 2.0491934e+2, -954379.8, -1091174.0, -98619.75, 0.01614063, -0.12884499, -902760.1, 29017.39, 0.0, 10.000482, 9.998669 
2.09505e+3, 2.1491797e+2, -867822.6, -998601.06, -98764.375, 0.022748908, -0.13311045, -814762.94, 19027.78, 0.0, 10.000402, 9.998669 
2.0950517e+3, 2.2491659e+2, -772985.75, -888392.5, -95107.75, 0.028419135, -0.14221397, -719445.44, 16357.656, 0.0, 10.000321, 9.998792 
2.0950532e+3, 2.3491526e+2, -686929.75, -795950.06, -95165.016, 0.03310561, -0.15651038, -631768.9, 6045.736, 0.0, 10.000238, 9.998794 
2.0950551e+3, 2.4491388e+2, -595359.1, -691799.44, -89134.16, 0.04066573, -0.17675826, -542237.9, -2411.6992, 0.0, 10.0001545, 9.998877 
2.0950569e+3, 2.549125e+2, -509644.28, -599519.1, -89031.72, 0.051200986, -0.20333545, -454851.97, -13014.165, 0.0, 10.00007, 9.998878 
2.0950589e+3, 2.6491126e+2, -404944.13, -464317.56, -75700.266, 0.058504783, -0.2299299, -353317.7, -9469.884, 0.0, 9.999969, 9.999182 
2.0950611e+3, 2.7491018e+2, -323572.8, -373880.44, -74981.2, 0.062450666, -0.25674567, -269638.72, -23782.627, 0.0, 9.999852, 9.999186 
2.0950635e+3, 2.8490928e+2, -226381.4, -245296.55, -58595.676, 0.06663363, -0.2778843, -176484.97, -28622.303, 0.0, 9.999714, 9.999462 
2.0950659e+3, 2.949086e+2, -151819.45, -158120.36, -57225.844, 0.07109533, -0.2933352, -97657.414, -47790.004, 0.0, 9.999551, 9.999467 
2.0950685e+3, 3.0490822e+2, -88630.08, -36976.855, -28652.586, 0.06217068, -0.30799872, -24229.063, -24229.063, 0.0, 9.999367, 10.000051 
2.0950718e+3, 3.1490812e+2, -118534.56, -51240.617, -26008.281, 0.039319783, -0.322077, -42360.543, -42360.543, 0.0, 9.999161, 10.000052 
2.1050325e+3, 1.24924615e+2, -1524044.1, -1721162.4, -19051.492, 0.03586481, -0.09256538, -1522219.6, 193508.97, 0.0, 10.001734, 9.999122 
2.1050353e+3, 1.349235e+2, -1449058.3, -1634611.3, -21386.893, 0.037783, -0.11484869, -1446625.1, 171113.03, 0.0, 10.001577, 9.999119 
2.105038e+3, 1.4492236e+2, -1377723.1, -1555433.3, -48573.79, 0.03536452, -0.13803552, -1365313.0, 154434.8, 0.0, 10.00142, 9.999065 
2.1050406e+3, 1.549212e+2, -1302667.3, -1468470.4, -50465.67, 0.030065624, -0.16198997, -1288514.9, 133242.42, 0.0, 10.001263, 9.999065 
2.1050425e+3, 1.6492009e+2, -1240185.9, -1408708.0, -71086.97, 0.02661764, -0.17018889, -1214205.0, 109562.3, 0.0, 10.00111, 9.998877 
2.1050444e+3, 1.7491904e+2, -1163740.8, -1321200.6, -71936.94, 0.025064502, -0.16231737, -1135824.9, 89952.75, 0.0, 10.000962, 9.998876 
2.1050462e+3, 1.8491791e+2, -1104309.8, -1269965.6, -83122.06, 0.021906937, -0.1504, -1069793.1, 57996.387, 0.0, 10.000819, 9.998624 
2.1050476e+3, 1.9491668e+2, -1026644.5, -1181938.9, -83450.234, 0.017111564, -0.13447845, -990304.7, 39498.266, 0.0, 10.00068, 9.998622 
2.105049e+3, 2.049154e+2, -943507.2, -1085884.3, -90765.04, 0.017767664, -0.12806536, -899343.6, 32472.604, 0.0, 10.000556, 9.998669 
2.1050505e+3, 2.1491404e+2, -861409.7, -995453.0, -90622.14, 0.024067454, -0.13164824, -815718.06, 18111.295, 0.0, 10.000446, 9.99867 
2.105052e+3, 2.2491267e+2, -771540.8, -887220.1, -86920.516, 0.028782144, -0.14010264, -724974.5, 10867.204, 0.0, 10.000329, 9.998796 
2.1050535e+3, 2.3491135e+2, -691499.06, -797670.5, -86472.67, 0.03184908, -0.15379186, -643117.44, -5264.2666, 0.0, 10.000205, 9.998797 
2.1050552e+3, 2.4490999e+2, -605575.5, -695696.8, -80003.75, 0.03836541, -0.17321476, -558815.3, -18950.598, 0.0, 10.00008, 9.998885 
2.105057e+3, 2.5490862e+2, -525813.94, -606281.94, -79371.32, 0.0484541, -0.19874997, -477061.53, -35185.266, 0.0, 9.999953, 9.998887 
2.1050589e+3, 2.6490742e+2, -425496.8, -471373.28, -66533.375, 0.05518332, -0.22422655, -378058.53, -34172.457, 0.0, 9.999815, 9.999207 
2.1050608e+3, 2.7490637e+2, -349179.34, -383344.47, -65254.34, 0.058418196, -0.2498456, -298808.63, -52914.53, 0.0, 9.999664, 9.999211 
2.105063e+3, 2.8490552e+2, -255089.0, -254869.56, -49953.273, 0.0629317, -0.27009475, -205025.89, -57125.547, 0.0, 9.999498, 9.9995 
2.1050654e+3, 2.949049e+2, -183328.36, -169023.88, -48423.633, 0.06880227, -0.2849644, -127227.13, -77322.43, 0.0, 9.999315, 9.999505 
2.1050678e+3, 3.0490455e+2, -122813.32, -47424.13, -22146.777, 0.06134211, -0.29925314, -41399.598, -41399.598, 0.0, 9.999106, 10.000105 
2.1050708e+3, 3.149045e+2, -157457.39, -63966.938, -20596.723, 0.04000154, -0.31316644, -59630.453, -59630.453, 0.0, 9.998867, 10.000106 
2.1150342e+3, 1.2492112e+2, -1528445.3, -1730471.5, -24871.379, 0.04101362, -0.0876035, -1525428.4, 190334.97, 0.0, 10.001735, 9.999058 
2.1150371e+3, 1.3491996e+2, -1453461.0, -1643938.5, -27220.88, 0.044861577, -0.109817944, -1449647.3, 168126.19, 0.0, 10.001578, 9.999054 
2.1150395e+3, 1.4491874e+2, -1381063.5, -1562552.3, -54450.344, 0.043053675, -0.13329618, -1365980.8, 153802.95, 0.0, 10.001421, 9.999016 
2.1150418e+3, 1.5491752e+2, -1306004.5, -1475577.8, -56334.074, 0.037127126, -0.1579481, -1288995.8, 132798.02, 0.0, 10.001264, 9.999016 
2.1150437e+3, 1.6491637e+2, -1241601.1, -1411807.8, -76578.92, 0.03273455, -0.16685618, -1212219.0, 111585.06, 0.0, 10.001111, 9.998855 
2.1150453e+3, 1.749153e+2, -1165153.6, -1324273.6, -77423.11, 0.029916791, -0.15968081, -1133699.5, 92115.06, 0.0, 10.000963, 9.998855 
2.1150468e+3, 1.8491414e+2, -1104834.9, -1271165.5, -88284.67, 0.02546272, -0.1485074, -1066712.8, 61113.88, 0.0, 10.000819, 9.998615 
2.1150483e+3, 1.949129e+2, -1027184.9, -1183139.0, -88605.89, 0.019334165, -0.13337223, -987130.44, 42709.746, 0.0, 10.000681, 9.998613 
2.1150495e+3, 2.049116e+2, -943186.0, -1085262.1, -94822.86, 0.018991616, -0.12704398, -895742.94, 36110.582, 0.0, 10.000556, 9.9986725 
2.115051e+3, 2.1491027e+2, -861094.1, -994817.3, -94666.36, 0.024643976, -0.13000366, -812058.4, 21808.191, 0.0, 10.000446, 9.998673 
2.1150522e+3, 2.2490892e+2, -770771.75, -885617.1, -91506.65, 0.02847657, -0.13762733, -720162.8, 15715.996, 0.0, 10.000329, 9.998807 
2.1150537e+3, 2.3490761e+2, -690744.7, -796065.75, -91056.96, 0.030423542, -0.15027693, -638217.25, -327.10074, 0.0, 10.000205, 9.998809 
2.1150552e+3, 2.4490626e+2, -604477.2, -693350.44, -84654.336, 0.036277063, -0.16861741, -553305.4, -13403.847, 0.0, 10.000079, 9.998901 
2.1150568e+3, 2.5490493e+2, -524732.4, -603941.44, -84013.63, 0.046178643, -0.19303396, -471456.28, -29543.318, 0.0, 9.999953, 9.998903 
2.1150586e+3, 2.6490375e+2, -423253.72, -466602.63, -72097.195, 0.05237909, -0.21711229, -369643.47, -25720.914, 0.0, 9.999815, 9.99924 
2.1150602e+3, 2.7490276e+2, -346934.88, -378547.56, -70818.125, 0.054726668, -0.24104282, -290180.6, -44250.387, 0.0, 9.999663, 9.999245 
2.1150625e+3, 2.8490198e+2, -252342.97, -249028.17, -56680.875, 0.05964363, -0.26016128, -193980.47, -46044.43, 0.0, 9.999497, 9.999541 
2.1150647e+3, 2.9490137e+2, -180576.17, -163168.45, -55155.027, 0.06725581, -0.2744694, -116034.74, -66094.75, 0.0, 9.999315, 9.999545 
2.1150671e+3, 3.0490106e+2, -120112.055, -41681.363, -30971.07, 0.0615902, -0.288136, -30926.213, -30926.213, 0.0, 9.999105, 10.000144 
2.1150696e+3, 3.1490108e+2, -154773.52, -58244.434, -29436.107, 0.042087182, -0.30135927, -49976.24, -49976.24, 0.0, 9.998867, 10.000146 
2.1250361e+3, 1.2491786e+2, -1485231.5, -1717401.0, -14717.704, 0.04706079, -0.08165517, -1484302.3, 231493.66, 0.0, 10.002065, 9.998988 
2.1250388e+3, 1.349166e+2, -1412911.6, -1632184.4, -17496.752, 0.051521312, -0.1039269, -1411524.3, 206282.48, 0.0, 10.00189, 9.998984 
2.1250412e+3, 1.4491534e+2, -1342728.9, -1549543.6, -45243.92, 0.04961912, -0.12789531, -1333264.3, 186553.2, 0.0, 10.001708, 9.998967 
2.1250433e+3, 1.5491407e+2, -1272444.6, -1464861.3, -47110.277, 0.042988412, -0.1535191, -1261529.6, 160298.44, 0.0, 10.001517, 9.998967 
2.1250449e+3, 1.6491285e+2, -1212077.9, -1400870.5, -67424.055, 0.037751194, -0.16311523, -1190471.3, 133367.47, 0.0, 10.0013275, 9.998825 
2.1250464e+3, 1.7491175e+2, -1141679.5, -1316244.1, -68857.15, 0.03394964, -0.1563109, -1117788.5, 108061.1, 0.0, 10.001139, 9.998825 
2.1250479e+3, 1.8491058e+2, -1086010.9, -1262956.3, -79700.12, 0.028340675, -0.14573428, -1055405.8, 72456.02, 0.0, 10.000953, 9.998608 
2.1250491e+3, 1.9490933e+2, -1014659.8, -1177956.4, -79958.83, 0.020876005, -0.13142437, -982028.4, 47847.094, 0.0, 10.000771, 9.998606 
2.1250503e+3, 2.0490803e+2, -935019.3, -1080216.6, -84649.32, 0.0195051, -0.12533642, -896100.8, 35788.0, 0.0, 10.0006075, 9.998683 
2.1250515e+3, 2.1490669e+2, -857765.7, -992080.94, -84045.05, 0.024453, -0.12794515, -817342.1, 16559.666, 0.0, 10.000464, 9.998684 
2.1250527e+3, 2.2490539e+2, -771827.9, -883847.3, -80931.18, 0.027672691, -0.13461475, -729415.3, 6498.523, 0.0, 10.000312, 9.998828 
2.125054e+3, 2.349041e+2, -697151.9, -796860.1, -79781.62, 0.029106755, -0.14569017, -652928.7, -15003.741, 0.0, 10.000151, 9.99883 
2.1250552e+3, 2.449028e+2, -615151.8, -695100.25, -72468.73, 0.034639265, -0.16282651, -572363.4, -32427.309, 0.0, 9.999991, 9.998932 
2.1250567e+3, 2.549015e+2, -539939.2, -607867.0, -70772.445, 0.044420436, -0.18643177, -495402.84, -53455.637, 0.0, 9.999834, 9.998934 
2.1250583e+3, 2.649004e+2, -441649.94, -470655.34, -58760.363, 0.05018031, -0.20916027, -395629.03, -51672.598, 0.0, 9.999668, 9.999283 
2.1250601e+3, 2.7489945e+2, -368899.47, -384297.7, -56748.43, 0.051750157, -0.23118012, -319330.25, -73366.66, 0.0, 9.999492, 9.999288 
2.1250618e+3, 2.848987e+2, -276523.66, -255532.06, -42893.188, 0.05713009, -0.24893549, -221869.2, -73900.25, 0.0, 9.99931, 9.999587 
2.125064e+3, 2.9489815e+2, -205931.34, -170231.8, -40972.96, 0.06649388, -0.26244098, -143389.31, -93416.88, 0.0, 9.999119, 9.999591 
2.1250662e+3, 3.048979e+2, -147733.27, -50752.11, -18898.479, 0.0627546, -0.27589208, -47199.547, -47199.547, 0.0, 9.998898, 10.000182 
2.1250683e+3, 3.1489795e+2, -184608.36, -68402.7, -17550.396, 0.045350622, -0.28950673, -65809.94, -65809.94, 0.0, 9.998644, 10.000183 
2.1350384e+3, 1.2491482e+2, -1490378.0, -1728251.0, -21207.79, 0.053996213, -0.07473792, -1488502.0, 227324.45, 0.0, 10.002066, 9.998913 
2.1350408e+3, 1.349135e+2, -1418076.0, -1643078.8, -24002.889, 0.057770155, -0.09718453, -1415544.0, 202293.95, 0.0, 10.001891, 9.998909 
2.135043e+3, 1.4491217e+2, -1346040.4, -1556583.4, -52338.355, 0.05507803, -0.12183919, -1333747.5, 186101.75, 0.0, 10.001709, 9.998919 
2.1350446e+3, 1.5491082e+2, -1275753.9, -1471884.0, -54209.195, 0.047668885, -0.14870463, -1261768.1, 160092.25, 0.0, 10.001518, 9.998919 
2.1350464e+3, 1.6490956e+2, -1214597.4, -1406232.3, -74473.04, 0.041685484, -0.15896897, -1189059.0, 134812.4, 0.0, 10.001328, 9.998789 
2.1350476e+3, 1.7490841e+2, -1144214.1, -1321613.6, -75904.24, 0.03717635, -0.15221685, -1116170.3, 109712.45, 0.0, 10.001139, 9.998788 
2.1350488e+3, 1.8490723e+2, -1086447.1, -1263941.4, -86488.43, 0.030552275, -0.14209259, -1051273.8, 76621.38, 0.0, 10.000953, 9.998601 
2.1350498e+3, 1.9490597e+2, -1015102.1, -1178927.0, -86741.734, 0.021749182, -0.12864636, -977709.2, 52199.703, 0.0, 10.000771, 9.998599 
2.1350507e+3, 2.0490466e+2, -933903.9, -1077917.3, -89962.46, 0.019321205, -0.12295131, -890679.5, 41242.695, 0.0, 10.0006075, 9.998698 
2.135052e+3, 2.1490334e+2, -856655.2, -989757.0, -89339.33, 0.023508837, -0.12547608, -811803.5, 22131.508, 0.0, 10.0004635, 9.9987 
2.135053e+3, 2.2490205e+2, -769766.75, -879526.7, -86899.49, 0.02637897, -0.13107155, -721868.7, 14078.126, 0.0, 10.000312, 9.9988575 
2.135054e+3, 2.3490082e+2, -695090.56, -792521.1, -85749.04, 0.027894637, -0.14004989, -645185.0, -7227.432, 0.0, 10.000151, 9.998859 
2.1350552e+3, 2.4489959e+2, -612088.4, -688667.5, -78290.49, 0.033440612, -0.15586269, -563225.8, -23257.537, 0.0, 9.999991, 9.998977 
2.1350567e+3, 2.5489834e+2, -536875.8, -601421.3, -76584.06, 0.043165646, -0.17895745, -486042.3, -44063.242, 0.0, 9.999834, 9.998979 
2.1350579e+3, 2.648973e+2, -437998.1, -462979.56, -65246.758, 0.0485701, -0.20038423, -384057.22, -40069.44, 0.0, 9.999667, 9.999336 
2.1350594e+3, 2.748964e+2, -365249.2, -376607.3, -63233.793, 0.04946842, -0.22027718, -307439.97, -61445.582, 0.0, 9.999492, 9.999341 
2.135061e+3, 2.8489575e+2, -272987.88, -248080.64, -49920.656, 0.05536898, -0.23644346, -209083.66, -61084.496, 0.0, 9.999309, 9.999639 
2.135063e+3, 2.9489526e+2, -202393.0, -162780.22, -47996.574, 0.066493645, -0.24891208, -130663.93, -80661.87, 0.0, 9.999118, 9.999642 
2.1350649e+3, 3.0489504e+2, -145281.4, -45573.805, -28272.79, 0.06480836, -0.262544, -38114.848, -38114.848, 0.0, 9.998897, 10.000218 
2.1350671e+3, 3.1489512e+2, -182177.0, -63264.563, -26937.879, 0.049755264, -0.27760398, -57446.81, -57446.81, 0.0, 9.998643, 10.000218 
2.1450405e+3, 1.2491204e+2, -1446960.3, -1716004.1, -9124.403, 0.062621504, -0.06661224, -1446651.1, 269203.16, 0.0, 10.002401, 9.998836 
2.145043e+3, 1.3491063e+2, -1379129.0, -1633027.9, -12175.598, 0.06405815, -0.090747975, -1378546.4, 239320.22, 0.0, 10.002196, 9.998832 
2.145045e+3, 1.4490923e+2, -1310430.6, -1545309.4, -41551.36, 0.059700754, -0.116207436, -1303296.8, 216581.92, 0.0, 10.001979, 9.998866 
2.1450464e+3, 1.5490782e+2, -1245988.3, -1463412.6, -43739.418, 0.051437106, -0.14299613, -1237519.1, 184371.06, 0.0, 10.001748, 9.998866 
2.1450478e+3, 1.6490653e+2, -1190040.9, -1398954.0, -64296.51, 0.04477056, -0.15366912, -1171838.5, 152063.22, 0.0, 10.001516, 9.998748 
2.1450488e+3, 1.7490533e+2, -1125907.4, -1317347.6, -66002.23, 0.039760027, -0.14780895, -1105357.9, 120555.5, 0.0, 10.001284, 9.998747 
2.1450499e+3, 1.849041e+2, -1071705.3, -1257573.5, -76378.57, 0.03233193, -0.138129, -1044346.25, 83579.836, 0.0, 10.001057, 9.998594 
2.1450505e+3, 1.9490284e+2, -1006025.0, -1175266.9, -76595.98, 0.022406025, -0.12465928, -976507.25, 53432.656, 0.0, 10.000835, 9.998593 
2.1450515e+3, 2.0490153e+2, -928645.9, -1072903.4, -78134.39, 0.018946389, -0.11913709, -894437.7, 37515.414, 0.0, 10.000632, 9.998721 
2.1450523e+3, 2.1490024e+2, -857356.3, -987585.8, -77010.05, 0.022202764, -0.12204872, -821622.25, 12343.474, 0.0, 10.000448, 9.998723 
2.1450531e+3, 2.2489901e+2, -774167.0, -877214.9, -74352.58, 0.024634393, -0.12689056, -735230.9, 746.3596, 0.0, 10.000262, 9.998897 
2.1450542e+3, 2.3489782e+2, -703265.75, -792008.9, -72462.51, 0.026226457, -0.13393359, -662668.8, -24681.262, 0.0, 10.000075, 9.998899 
2.1450552e+3, 2.4489665e+2, -622278.0, -686930.7, -63827.203, 0.031822205, -0.1484968, -583057.8, -43060.05, 0.0, 9.999892, 9.999036 
2.1450564e+3, 2.5489545e+2, -550026.9, -601091.9, -60986.832, 0.04157042, -0.17106521, -509443.56, -67435.56, 0.0, 9.999715, 9.999038 
2.1450576e+3, 2.6489446e+2, -454006.66, -463659.53, -49423.816, 0.047032483, -0.19142884, -409174.2, -65158.08, 0.0, 9.999527, 9.999399 
2.1450588e+3, 2.7489367e+2, -384447.28, -378814.97, -46681.723, 0.048020896, -0.20969637, -334864.53, -88842.51, 0.0, 9.99933, 9.999404 
2.1450603e+3, 2.848931e+2, -294147.44, -251384.73, -32821.656, 0.054425035, -0.2246141, -233594.36, -85568.195, 0.0, 9.999134, 9.9997 
2.145062e+3, 2.9489267e+2, -224014.52, -166307.16, -30152.363, 0.066482775, -0.2362208, -153427.16, -103398.73, 0.0, 9.99894, 9.999704 
2.1450637e+3, 3.048925e+2, -168627.08, -51558.66, -12073.407, 0.066898294, -0.2498297, -50326.484, -50326.484, 0.0, 9.998714, 10.000265 
2.1450657e+3, 3.1489265e+2, -206458.61, -69730.91, -9951.113, 0.05516044, -0.26574147, -69010.46, -69010.46, 0.0, 9.998454, 10.000265 
2.155043e+3, 1.24909535e+2, -1452504.6, -1727702.1, -16748.922, 0.07291319, -0.057289366, -1451489.0, 264390.5, 0.0, 10.002402, 9.9987545 
2.1550451e+3, 1.3490802e+2, -1384709.0, -1644786.5, -19822.19, 0.070386164, -0.08460408, -1383206.9, 234686.0, 0.0, 10.002197, 9.998751 
2.1550469e+3, 1.4490654e+2, -1314311.6, -1553519.6, -50148.168, 0.06350091, -0.110986754, -1304223.9, 215681.73, 0.0, 10.001979, 9.998809 
2.1550484e+3, 1.549051e+2, -1249871.3, -1471607.3, -52349.023, 0.054308526, -0.13640365, -1238133.6, 183783.88, 0.0, 10.001748, 9.99881 
2.1550493e+3, 1.6490373e+2, -1193078.3, -1405371.9, -72958.69, 0.047020756, -0.14722942, -1170422.4, 153507.23, 0.0, 10.001516, 9.998704 
2.1550503e+3, 1.7490248e+2, -1128953.8, -1323767.1, -74660.86, 0.041711356, -0.1430861, -1103631.8, 122310.05, 0.0, 10.001285, 9.998703 
2.1550508e+3, 1.8490121e+2, -1072091.3, -1258443.8, -84631.625, 0.03368662, -0.13384457, -1039393.2, 88561.625, 0.0, 10.001058, 9.998588 
2.1550515e+3, 1.9489995e+2, -1006411.25, -1176106.1, -84845.05, 0.022849675, -0.119481824, -971268.0, 58700.594, 0.0, 10.000835, 9.998588 
2.155052e+3, 2.0489869e+2, -926638.2, -1068732.3, -84994.71, 0.01838374, -0.11391625, -886907.1, 45074.555, 0.0, 10.000632, 9.99875 
2.1550527e+3, 2.1489738e+2, -855350.8, -983378.5, -83852.68, 0.020541094, -0.11767673, -813870.4, 20123.703, 0.0, 10.000448, 9.998752 
2.1550535e+3, 2.248962e+2, -770736.56, -870024.9, -81306.31, 0.022446992, -0.12207941, -725116.56, 10888.655, 0.0, 10.000262, 9.998946 
2.1550542e+3, 2.348951e+2, -699827.56, -784792.4, -79410.586, 0.024110593, -0.1273459, -652250.0, -14235.034, 0.0, 10.000074, 9.998949 
2.155055e+3, 2.4489398e+2, -617113.94, -676121.75, -70422.59, 0.0297914, -0.14073247, -570264.56, -30239.982, 0.0, 9.999892, 9.99911 
2.1550559e+3, 2.548929e+2, -544854.0, -590252.7, -67573.86, 0.03964002, -0.16275927, -496268.78, -54234.746, 0.0, 9.999714, 9.999112 
2.1550572e+3, 2.6489198e+2, -448969.38, -453097.53, -56745.266, 0.045562487, -0.1822927, -394250.66, -50209.24, 0.0, 9.999527, 9.999472 
2.1550581e+3, 2.7489126e+2, -379416.75, -368256.0, -54004.652, 0.04738445, -0.19942515, -319544.16, -73497.52, 0.0, 9.999329, 9.999476 
2.1550593e+3, 2.8489074e+2, -289203.53, -241010.38, -39983.848, 0.05427613, -0.21342729, -218423.4, -70373.336, 0.0, 9.999133, 9.999771 
2.155061e+3, 2.948904e+2, -219066.23, -155932.45, -37305.688, 0.06645885, -0.22434263, -138630.3, -88578.69, 0.0, 9.9989395, 9.999776 
2.1550626e+3, 3.0489036e+2, -164626.78, -43180.66, -21699.055, 0.06901982, -0.23772937, -39420.086, -39420.086, 0.0, 9.9987135, 10.000322 
2.1550642e+3, 3.148905e+2, -202466.66, -61385.883, -19597.844, 0.061535515, -0.25391325, -58714.1, -58714.1, 0.0, 9.998454, 10.000322 
2.1650456e+3, 1.24907315e+2, -1404864.3, -1713664.5, -4164.1035, 0.08447033, -0.048059586, -1404808.1, 311093.94, 0.0, 10.002768, 9.998675 
2.1650477e+3, 1.3490568e+2, -1345037.4, -1634637.6, -7230.5625, 0.07731722, -0.078368, -1344856.9, 273059.5, 0.0, 10.002508, 9.99867 
2.165049e+3, 1.4490412e+2, -1280970.3, -1544697.8, -38656.76, 0.067635514, -0.10545496, -1275420.8, 244509.08, 0.0, 10.002239, 9.998744 
2.16505e+3, 1.5490264e+2, -1223429.1, -1466104.1, -41491.406, 0.057647564, -0.1292668, -1216531.3, 205411.1, 0.0, 10.001961, 9.998745 
2.165051e+3, 1.6490123e+2, -1170883.8, -1398902.3, -62031.047, 0.049669947, -0.14011621, -1155101.0, 168853.86, 0.0, 10.001687, 9.998666 
2.1650515e+3, 1.7489992e+2, -1112116.0, -1319859.8, -63241.633, 0.043782674, -0.13767427, -1094378.4, 131589.19, 0.0, 10.001418, 9.998665 
2.165052e+3, 1.8489861e+2, -1059196.1, -1253491.9, -72862.85, 0.03523493, -0.12879845, -1034908.0, 93072.78, 0.0, 10.001151, 9.998577 
2.1650523e+3, 1.9489735e+2, -999745.9, -1174135.9, -73462.31, 0.023928255, -0.11340648, -972924.7, 57069.895, 0.0, 10.000887, 9.998576 
2.1650527e+3, 2.0489609e+2, -923436.25, -1063624.1, -72362.74, 0.018358767, -0.107721314, -892785.3, 39222.26, 0.0, 10.000639, 9.998781 
2.1650532e+3, 2.1489483e+2, -858849.94, -981451.4, -70952.47, 0.0187582, -0.11231985, -826384.8, 7634.864, 0.0, 10.000408, 9.998784 
2.1650538e+3, 2.2489367e+2, -777411.8, -866794.0, -67617.664, 0.019860456, -0.11672408, -741050.8, -5020.4263, 0.0, 10.000189, 9.999004 
2.1650542e+3, 2.3489264e+2, -709584.3, -783017.56, -65101.375, 0.021713432, -0.121121325, -671559.4, -33519.81, 0.0, 9.99998, 9.999007 
2.165055e+3, 2.4489161e+2, -628310.0, -672423.9, -55194.02, 0.02748385, -0.1336777, -590928.8, -50880.36, 0.0, 9.999776, 9.999191 
2.1650557e+3, 2.548906e+2, -559089.7, -587993.5, -51825.566, 0.037320036, -0.1549249, -519738.75, -77681.69, 0.0, 9.9995775, 9.999194 
2.1650565e+3, 2.6488978e+2, -466033.5, -452238.34, -41099.55, 0.043815386, -0.17402221, -417461.6, -73397.95, 0.0, 9.999371, 9.999553 
2.1650574e+3, 2.7488917e+2, -399011.3, -368614.28, -37740.617, 0.046820242, -0.1910741, -343126.8, -97058.72, 0.0, 9.999155, 9.9995575 
2.1650586e+3, 2.8488874e+2, -310221.2, -242379.56, -22654.143, 0.05396551, -0.20481078, -235510.28, -87439.516, 0.0, 9.998951, 9.999849 
2.1650597e+3, 2.948885e+2, -239914.4, -157222.92, -19476.918, 0.0654283, -0.2152631, -152865.05, -102793.49, 0.0, 9.998758, 9.999854 
2.1650612e+3, 3.048885e+2, -186248.48, -47185.566, -5985.752, 0.06975698, -0.22722712, -46928.395, -46928.395, 0.0, 9.998538, 10.00038 
2.1650624e+3, 3.1488875e+2, -222824.5, -64820.21, -3968.6284, 0.06664491, -0.24099314, -64720.594, -64720.594, 0.0, 9.998286, 10.00038 
2.1750486e+3, 1.2490538e+2, -1410286.8, -1725148.1, -13821.098, 0.09726929, -0.038927976, -1409681.3, 306240.6, 0.0, 10.0027685, 9.998596 
2.1750502e+3, 1.3490364e+2, -1350513.8, -1646195.8, -16927.63, 0.08484048, -0.072031364, -1349547.9, 268389.28, 0.0, 10.002509, 9.99859 
2.1750513e+3, 1.4490199e+2, -1285989.9, -1555271.3, -49038.008, 0.07209711, -0.099607274, -1277337.8, 242613.61, 0.0, 10.00224, 9.998672 
2.175052e+3, 1.5490045e+2, -1228464.4, -1476685.3, -51880.918, 0.06144406, -0.12158722, -1218057.1, 203907.33, 0.0, 10.001962, 9.9986725 
2.1750528e+3, 1.6489899e+2, -1173018.6, -1403444.4, -72078.61, 0.052709278, -0.13233471, -1152329.6, 171647.9, 0.0, 10.001688, 9.998634 
2.1750529e+3, 1.7489763e+2, -1114231.0, -1324353.3, -73285.09, 0.045970473, -0.13157903, -1091196.4, 134794.23, 0.0, 10.001419, 9.998634 
2.1750532e+3, 1.8489632e+2, -1060283.4, -1255829.5, -82728.14, 0.036971472, -0.12299838, -1029980.2, 98023.836, 0.0, 10.001152, 9.998561 
2.1750532e+3, 1.9489504e+2, -1000847.75, -1176471.4, -83325.67, 0.025627585, -0.106444806, -967605.5, 62412.434, 0.0, 10.000887, 9.99856 
2.1750535e+3, 2.048938e+2, -920960.06, -1058489.8, -80966.51, 0.018859848, -0.1005661, -883497.9, 48532.93, 0.0, 10.000639, 9.9988165 
2.1750535e+3, 2.1489257e+2, -856363.44, -976252.9, -79543.12, 0.016855577, -0.10599264, -816706.56, 17336.031, 0.0, 10.000408, 9.998819 
2.175054e+3, 2.2489145e+2, -772839.1, -857230.75, -75387.83, 0.016881542, -0.11082971, -728641.56, 7411.2476, 0.0, 10.000188, 9.99907 
2.1750543e+3, 2.3489049e+2, -705004.44, -773416.44, -72859.3, 0.019039428, -0.115246154, -658721.1, -20659.744, 0.0, 9.999979, 9.999073 
2.1750547e+3, 2.4488954e+2, -622190.56, -659611.1, -62592.465, 0.024903864, -0.12731247, -575571.75, -35502.25, 0.0, 9.999776, 9.99928 
2.1750551e+3, 2.5488862e+2, -552961.75, -575152.3, -59220.492, 0.034616664, -0.14754796, -503806.1, -61728.99, 0.0, 9.999577, 9.999283 
2.1750559e+3, 2.6488787e+2, -459828.8, -439241.9, -49097.957, 0.04179412, -0.1665943, -399370.0, -55287.184, 0.0, 9.99937, 9.999642 
2.1750566e+3, 2.7488735e+2, -392802.16, -355614.78, -45742.938, 0.046322905, -0.18459645, -324830.94, -78744.445, 0.0, 9.999155, 9.999647 
2.1750574e+3, 2.84887e+2, -304336.66, -230062.13, -29804.684, 0.053493418, -0.19870299, -219581.16, -71492.8, 0.0, 9.998951, 9.999934 
2.1750586e+3, 2.9488683e+2, -234033.98, -144913.88, -26616.19, 0.063411325, -0.2089146, -137569.97, -87481.625, 0.0, 9.998758, 9.999939 
2.1750598e+3, 3.0488694e+2, -182323.88, -38976.867, -15316.528, 0.069139555, -0.21828437, -37358.574, -37358.574, 0.0, 9.998537, 10.000437 
2.1750611e+3, 3.1488726e+2, -218898.2, -56655.656, -13321.544, 0.07051425, -0.22700636, -55569.117, -55569.117, 0.0, 9.998286, 10.000436 
2.1850517e+3, 1.24903746e+2, -1357990.4, -1709678.1, -1047.9568, 0.110918134, -0.031294487, -1357987.3, 357951.34, 0.0, 10.00317, 9.998508 
2.185053e+3, 1.3490191e+2, -1309461.5, -1636203.4, -4814.4473, 0.09314084, -0.06444337, -1309390.6, 308564.06, 0.0, 10.002833, 9.998503 
2.1850537e+3, 1.4490019e+2, -1253133.6, -1547316.8, -37357.418, 0.077311434, -0.09227872, -1248463.9, 271505.88, 0.0, 10.0025, 9.998601 
2.1850543e+3, 1.5489857e+2, -1203141.1, -1472353.3, -40032.656, 0.06601234, -0.114830256, -1197314.3, 224669.28, 0.0, 10.00217, 9.998602 
2.1850544e+3, 1.6489707e+2, -1150902.0, -1396296.5, -59384.41, 0.056352157, -0.12544285, -1137286.6, 186710.45, 0.0, 10.001855, 9.998603 
2.1850544e+3, 1.7489569e+2, -1096396.5, -1319232.1, -60590.47, 0.048397906, -0.1238082, -1080987.1, 145023.3, 0.0, 10.001556, 9.998603 
2.1850544e+3, 1.8489435e+2, -1046943.06, -1251553.6, -70242.87, 0.038855318, -0.115104206, -1025149.9, 102874.22, 0.0, 10.001252, 9.998542 
2.1850543e+3, 1.9489305e+2, -993902.1, -1175274.0, -71068.55, 0.027666671, -0.099207245, -969372.3, 60666.004, 0.0, 10.000944, 9.998541 
2.185054e+3, 2.048918e+2, -917322.44, -1053430.0, -67861.41, 0.019714091, -0.09365232, -889269.56, 42781.58, 0.0, 10.000649, 9.998846 
2.185054e+3, 2.148906e+2, -859776.56, -974535.75, -66844.56, 0.015130508, -0.09906666, -829061.8, 5000.7393, 0.0, 10.00037, 9.99885 
2.185054e+3, 2.2488953e+2, -779702.06, -853183.56, -61779.953, 0.014077348, -0.104404934, -744563.44, -8491.124, 0.0, 10.00011, 9.999136 
2.185054e+3, 2.3488861e+2, -716618.0, -771616.2, -59232.543, 0.016718319, -0.109857135, -678812.5, -40732.223, 0.0, 9.999867, 9.999139 
2.1850543e+3, 2.4488774e+2, -636536.3, -657120.9, -48546.13, 0.022494733, -0.12213131, -597203.44, -57115.83, 0.0, 9.999637, 9.999364 
2.1850547e+3, 2.5488693e+2, -570457.06, -574159.0, -45477.5, 0.031524934, -0.14171845, -526792.9, -84698.516, 0.0, 9.999415, 9.999367 
2.1850552e+3, 2.6488626e+2, -478828.06, -438218.63, -35747.406, 0.039120514, -0.16116326, -417411.8, -73312.625, 0.0, 9.999195, 9.999733 
2.1850556e+3, 2.748858e+2, -412521.1, -354930.2, -32285.305, 0.045218512, -0.1806577, -340464.6, -94362.56, 0.0, 9.998976, 9.999739 
2.1850564e+3, 2.8488553e+2, -325432.63, -231202.23, -15579.148, 0.05240479, -0.1953445, -228693.33, -80590.22, 0.0, 9.998767, 10.000015 
2.1850571e+3, 2.9488546e+2, -255687.89, -146336.48, -12705.912, 0.060711335, -0.20517826, -144879.55, -94777.22, 0.0, 9.99857, 10.000019 
2.1850581e+3, 3.0488566e+2, -203847.27, -44031.043, -3307.6606, 0.066905126, -0.21216148, -43962.617, -43962.617, 0.0, 9.998366, 10.0004835 
2.185059e+3, 3.1488606e+2, -234831.4, -59070.37, -2024.7065, 0.070928045, -0.21640252, -59047.05, -59047.05, 0.0, 9.998155, 10.000483 
2.1950552e+3, 1.2490241e+2, -1364514.8, -1723464.1, -13580.884, 0.12539794, -0.025131732, -1364001.6, 351950.72, 0.0, 10.003171, 9.998414 
2.195056e+3, 1.3490051e+2, -1316043.9, -1650077.0, -17410.422, 0.10220205, -0.055617977, -1315138.9, 302830.25, 0.0, 10.002834, 9.998407 
2.1950564e+3, 1.4489871e+2, -1257813.4, -1557211.8, -49693.813, 0.0832614, -0.083486065, -1249780.8, 270204.2, 0.0, 10.002501, 9.998532 
2.1950564e+3, 1.5489699e+2, -1207819.0, -1482226.0, -52362.465, 0.07133465, -0.10896423, -1198166.6, 223833.1, 0.0, 10.002171, 9.998534 
2.1950564e+3, 1.6489543e+2, -1153018.5, -1400831.9, -70542.35, 0.060584493, -0.1194132, -1134345.0, 189668.78, 0.0, 10.001855, 9.998571 
2.1950561e+3, 1.7489406e+2, -1098500.4, -1323725.4, -71742.87, 0.051058877, -0.11438888, -1077589.0, 148438.1, 0.0, 10.001556, 9.998572 
2.1950556e+3, 1.848927e+2, -1048432.56, -1254749.6, -81759.84, 0.0408823, -0.1051504, -1019961.44, 108079.586, 0.0, 10.001253, 9.998519 
2.1950552e+3, 1.9489136e+2, -995408.06, -1178478.3, -82587.17, 0.030037185, -0.091691226, -963657.7, 66397.99, 0.0, 10.000944, 9.998519 
2.1950547e+3, 2.0489009e+2, -915603.1, -1049901.9, -78299.63, 0.020912666, -0.08696897, -879602.75, 52465.785, 0.0, 10.000649, 9.998871 
2.1950541e+3, 2.1488892e+2, -858049.5, -970951.56, -77275.41, 0.013577523, -0.09154916, -818802.0, 15277.642, 0.0, 10.00037, 9.998875 
2.195054e+3, 2.248879e+2, -775104.44, -843606.5, -70800.1, 0.0114423325, -0.09745502, -730705.7, 5383.1763, 0.0, 10.000109, 9.999202 
2.195054e+3, 2.3488702e+2, -712004.75, -761983.3, -68239.695, 0.014740725, -0.104938716, -664322.75, -26226.467, 0.0, 9.999867, 9.999206 
2.195054e+3, 2.4488622e+2, -630964.7, -645480.75, -56783.258, 0.02025082, -0.11810486, -580977.5, -40874.574, 0.0, 9.999636, 9.999444 
2.195054e+3, 2.548855e+2, -564884.44, -562503.9, -53710.813, 0.028050616, -0.1373998, -509970.16, -67861.34, 0.0, 9.999415, 9.999447 
2.1950541e+3, 2.6488492e+2, -472402.1, -424791.44, -43961.13, 0.035805516, -0.1576838, -398604.03, -54491.22, 0.0, 9.999195, 9.9998255 
2.1950544e+3, 2.7488452e+2, -406085.5, -341485.22, -40500.348, 0.043517113, -0.17920196, -321982.1, -75867.3, 0.0, 9.998975, 9.999831 
2.1950549e+3, 2.8488433e+2, -320132.0, -220106.23, -22902.328, 0.050709534, -0.19467531, -215111.8, -66996.71, 0.0, 9.998767, 10.000092 
2.1950556e+3, 2.9488432e+2, -250418.16, -135278.34, -20018.176, 0.05733888, -0.20399703, -131897.28, -81783.734, 0.0, 9.99857, 10.000095 
2.1950564e+3, 3.0488458e+2, -201230.44, -38500.016, -11219.095, 0.06308706, -0.20879637, -37730.18, -37730.18, 0.0, 9.998366, 10.000523 
2.1950574e+3, 3.148851e+2, -232226.84, -53601.965, -9928.721, 0.06796263, -0.20910764, -53051.78, -53051.78, 0.0, 9.998155, 10.000521 
2.2050586e+3, 1.24901436e+2, -1312559.8, -1710010.9, -1116.8119, 0.14019394, -0.018848035, -1312556.6, 403405.84, 0.0, 10.003577, 9.99831 
2.2050588e+3, 1.3489947e+2, -1274432.3, -1641675.4, -5681.0596, 0.110954456, -0.04686203, -1274344.4, 343635.94, 0.0, 10.00317, 9.998302 
2.2050591e+3, 1.4489757e+2, -1221291.6, -1545733.9, -37094.867, 0.08869157, -0.07474431, -1217104.5, 302892.5, 0.0, 10.002777, 9.998478 
2.2050588e+3, 1.5489577e+2, -1178032.5, -1473952.3, -38756.934, 0.076350294, -0.10294196, -1173040.6, 248971.77, 0.0, 10.002401, 9.99848 
2.2050583e+3, 1.6489418e+2, -1128814.5, -1394458.9, -55671.027, 0.064760245, -0.11291044, -1117619.4, 206407.63, 0.0, 10.002045, 9.998525 
2.2050579e+3, 1.748928e+2, -1079681.6, -1319949.5, -58071.914, 0.053951476, -0.10406426, -1066382.0, 159658.45, 0.0, 10.001708, 9.998525 
2.2050571e+3, 1.848914e+2, -1033113.75, -1249492.3, -68981.48, 0.04319186, -0.094217464, -1012993.44, 115061.3, 0.0, 10.001368, 9.998501 
2.2050561e+3, 1.9488999e+2, -985683.2, -1175894.6, -69567.87, 0.032494746, -0.08350212, -962955.1, 67114.53, 0.0, 10.00102, 9.9985 
2.2050554e+3, 2.0488873e+2, -910077.25, -1046154.8, -64762.832, 0.022422496, -0.07981294, -884182.5, 47900.137, 0.0, 10.000683, 9.99888 
2.2050548e+3, 2.1488757e+2, -859324.4, -970451.0, -64813.914, 0.012997847, -0.083642535, -829517.2, 4576.3794, 0.0, 10.000357, 9.998884 
2.2050542e+3, 2.2488658e+2, -779307.2, -839717.06, -57712.582, 0.009818866, -0.09026456, -744373.2, -8270.714, 0.0, 10.000054, 9.999254 
2.2050537e+3, 2.3488574e+2, -721200.7, -760447.6, -56091.63, 0.013160749, -0.10000105, -681399.0, -43289.6, 0.0, 9.999779, 9.999259 
2.2050534e+3, 2.4488498e+2, -643738.3, -644398.4, -44737.617, 0.018065201, -0.11466903, -599329.5, -59214.05, 0.0, 9.999517, 9.999509 
2.2050533e+3, 2.548843e+2, -581332.6, -563179.4, -42802.824, 0.02458185, -0.13468285, -528501.4, -86380.625, 0.0, 9.999271, 9.999512 
2.2050533e+3, 2.648838e+2, -490174.2, -424156.94, -33686.17, 0.032584652, -0.15598343, -410002.78, -65878.77, 0.0, 9.999033, 9.999908 
2.2050534e+3, 2.7488348e+2, -425186.8, -341469.97, -30982.623, 0.042146597, -0.17883356, -331251.03, -85125.84, 0.0, 9.998804, 9.999913 
2.2050537e+3, 2.8488332e+2, -342556.06, -223168.52, -13430.299, 0.04944076, -0.19517669, -221676.36, -73551.625, 0.0, 9.998579, 10.000161 
2.2050542e+3, 2.9488343e+2, -276336.16, -140043.34, -11089.429, 0.05434301, -0.20487969, -139146.95, -89024.4, 0.0, 9.998359, 10.000165 
2.2050548e+3, 3.0488372e+2, -227259.48, -44943.234, -1420.4489, 0.058922824, -0.20960239, -44932.168, -44932.168, 0.0, 9.998161, 10.000577 
2.2050554e+3, 3.148843e+2, -252741.48, -57419.645, 1081.0292, 0.063219614, -0.20935963, -57413.664, -57413.664, 0.0, 9.997988, 10.000575 
2.2150622e+3, 1.2490081e+2, -1320334.6, -1726341.0, -16298.904, 0.1552951, -0.012437961, -1319681.4, 396287.8, 0.0, 10.003578, 9.998198 
2.2150622e+3, 1.3489874e+2, -1282243.8, -1658087.8, -20934.94, 0.11940345, -0.038160138, -1281081.3, 336906.9, 0.0, 10.003171, 9.99819 
2.2150618e+3, 1.4489678e+2, -1224111.4, -1551778.6, -51180.527, 0.09361196, -0.06603951, -1216303.1, 303702.47, 0.0, 10.002778, 9.998436 
2.2150613e+3, 1.5489492e+2, -1180817.5, -1479910.8, -52832.383, 0.08106477, -0.09675266, -1171759.4, 250262.16, 0.0, 10.002401, 9.998438 
2.2150606e+3, 1.6489327e+2, -1133143.5, -1403595.0, -68223.445, 0.06887934, -0.10593138, -1116908.1, 207128.36, 0.0, 10.002045, 9.998462 
2.2150595e+3, 1.7489186e+2, -1084054.6, -1329144.5, -70608.14, 0.0570693, -0.09284463, -1065168.4, 160882.16, 0.0, 10.001709, 9.998462 
2.2150584e+3, 1.8489045e+2, -1034170.8, -1251789.1, -81940.18, 0.045776807, -0.08231926, -1006768.25, 121296.86, 0.0, 10.001368, 9.998485 
2.2150572e+3, 1.9488901e+2, -986709.44, -1178129.3, -82533.586, 0.03503625, -0.07464698, -956038.25, 74042.14, 0.0, 10.00102, 9.998485 
2.2150561e+3, 2.0488772e+2, -910331.7, -1046770.0, -76963.29, 0.02423485, -0.07218747, -875705.3, 56388.223, 0.0, 10.000684, 9.998876 
2.215055e+3, 2.1488655e+2, -859590.4, -971063.56, -77011.61, 0.013368201, -0.07534935, -820261.94, 13842.467, 0.0, 10.000357, 9.99888 
2.2150542e+3, 2.2488555e+2, -776462.2, -833844.8, -68038.78, 0.009183433, -0.082833745, -731312.7, 4800.45, 0.0, 10.000054, 9.999295 
2.2150534e+3, 2.3488475e+2, -718334.7, -754512.6, -66406.03, 0.011968045, -0.09504035, -667598.0, -29478.344, 0.0, 9.999779, 9.9993 
2.215053e+3, 2.44884e+2, -640261.8, -637177.5, -53939.95, 0.015934246, -0.11180782, -584757.7, -44632.332, 0.0, 9.999517, 9.999558 
2.2150525e+3, 2.5488335e+2, -577862.25, -555954.7, -51997.94, 0.021115605, -0.13353185, -513769.3, -71639.1, 0.0, 9.999271, 9.999561 
2.2150522e+3, 2.648829e+2, -485137.1, -413670.78, -42262.59, 0.02945275, -0.15602487, -394059.72, -49926.855, 0.0, 9.999033, 9.99998 
2.2150522e+3, 2.748826e+2, -420139.47, -330953.25, -39557.406, 0.041096818, -0.17953143, -315936.5, -69803.3, 0.0, 9.998804, 9.999986 
2.2150522e+3, 2.8488258e+2, -338262.28, -214189.8, -21667.97, 0.04858553, -0.19682737, -210514.58, -62382.492, 0.0, 9.998579, 10.000223 
2.2150525e+3, 2.9488268e+2, -272087.63, -131105.28, -19319.771, 0.051709883, -0.20778842, -128505.69, -78376.3, 0.0, 9.998359, 10.000226 
2.2150527e+3, 3.0488306e+2, -222461.17, -34822.363, -7928.506, 0.054413546, -0.2144953, -34487.945, -34487.945, 0.0, 9.99816, 10.000647 
2.2150533e+3, 3.1488368e+2, -247976.38, -47312.36, -5389.1665, 0.05673057, -0.21699578, -47167.73, -47167.73, 0.0, 9.997986, 10.000645 
2.2250661e+3, 1.24900565e+2, -1274385.9, -1714876.4, -4604.041, 0.1686274, -0.0050620567, -1274337.9, 441634.47, 0.0, 10.003941, 9.998102 
2.2250657e+3, 1.3489841e+2, -1242373.1, -1649605.0, -8093.507, 0.12692365, -0.031143112, -1242212.4, 375780.03, 0.0, 10.003491, 9.998094 
2.2250646e+3, 1.4489636e+2, -1186919.4, -1539074.3, -36771.137, 0.09842105, -0.05827383, -1183120.8, 336889.78, 0.0, 10.003057, 9.998389 
2.2250637e+3, 1.5489447e+2, -1149847.3, -1470161.6, -38808.81, 0.0864499, -0.08725588, -1145212.3, 276814.4, 0.0, 10.002637, 9.998392 
2.2250627e+3, 1.6489278e+2, -1109943.9, -1399443.1, -52979.92, 0.07388987, -0.09563026, -1100552.9, 223489.25, 0.0, 10.002234, 9.998399 
2.2250612e+3, 1.7489131e+2, -1067878.0, -1328412.6, -55349.6, 0.06071527, -0.08270079, -1056606.8, 169450.14, 0.0, 10.00185, 9.998399 
2.2250599e+3, 1.8488985e+2, -1020021.94, -1247454.1, -66780.13, 0.04854412, -0.07229036, -1001863.4, 126208.63, 0.0, 10.001475, 9.998463 
2.2250584e+3, 1.9488838e+2, -975254.0, -1175053.5, -67850.15, 0.037432212, -0.06469374, -954391.2, 75696.22, 0.0, 10.001109, 9.998463 
2.2250569e+3, 2.0488706e+2, -902672.5, -1045223.2, -62635.69, 0.026142316, -0.06258523, -879061.6, 53039.09, 0.0, 10.000745, 9.998857 
2.2250554e+3, 2.1488589e+2, -857249.56, -972082.3, -63786.082, 0.014668584, -0.06638318, -828844.6, 5267.2114, 0.0, 10.000382, 9.998861 
2.2250542e+3, 2.2488488e+2, -776684.2, -832266.3, -54327.273, 0.009914937, -0.07492258, -743452.4, -7331.763, 0.0, 10.000046, 9.99931 
2.2250532e+3, 2.3488407e+2, -723139.9, -755100.56, -54554.855, 0.012162801, -0.088629745, -682273.0, -44146.13, 0.0, 9.999738, 9.999315 
2.2250524e+3, 2.4488333e+2, -648436.7, -637706.7, -42576.33, 0.015232729, -0.107813194, -600158.7, -60026.27, 0.0, 9.999446, 9.999589 
2.2250518e+3, 2.5488266e+2, -590248.94, -558497.25, -42044.457, 0.019143127, -0.13290831, -529431.1, -87294.03, 0.0, 9.999171, 9.999592 
2.2250512e+3, 2.6488224e+2, -499813.22, -415353.22, -33103.984, 0.027419733, -0.15676503, -403924.6, -59785.242, 0.0, 9.998909, 10.000029 
2.2250511e+3, 2.7488205e+2, -437575.53, -333943.03, -32186.57, 0.040269986, -0.17953876, -324760.1, -78621.04, 0.0, 9.998661, 10.000034 
2.2250508e+3, 2.84882e+2, -359835.72, -218019.08, -15548.766, 0.04745966, -0.19794646, -216334.33, -68196.914, 0.0, 9.998403, 10.000281 
2.2250508e+3, 2.9488218e+2, -300685.16, -138308.28, -13440.724, 0.048714086, -0.21194741, -137203.25, -87068.914, 0.0, 9.998134, 10.000285 
2.2250508e+3, 3.048826e+2, -254634.81, -40179.83, 613.37274, 0.049401037, -0.22082122, -40178.074, -40178.074, 0.0, 9.997896, 10.000737 
2.2250511e+3, 3.1488326e+2, -284652.44, -54804.074, 4713.66, 0.04954676, -0.22457853, -54707.45, -54707.45, 0.0, 9.997691, 10.000735 
2.2350703e+3, 1.249007e+2, -1279899.1, -1726443.6, -21327.895, 0.18022493, 0.003261361, -1278882.8, 437088.97, 0.00000000000018996196, 10.003941, 9.998022 
2.2350691e+3, 1.3489842e+2, -1247903.4, -1661214.5, -24896.098, 0.13353494, -0.025753004, -1246409.1, 371583.8, 0.0, 10.003491, 9.9980135 
2.235068e+3, 1.4489634e+2, -1190478.3, -1546595.3, -52466.258, 0.1031208, -0.051407512, -1182909.4, 337102.34, 0.0, 10.003057, 9.998338 
2.2350664e+3, 1.5489446e+2, -1153386.9, -1477649.1, -54498.113, 0.09248834, -0.0745179, -1144472.6, 277555.25, 0.0, 10.002637, 9.998341 
2.235065e+3, 1.6489272e+2, -1114282.6, -1408587.4, -67341.23, 0.07976901, -0.08207354, -1099606.0, 224437.9, 0.0, 10.002235, 9.998336 
2.2350632e+3, 1.7489113e+2, -1072232.5, -1337586.9, -69686.34, 0.06487497, -0.07359578, -1055045.0, 171014.73, 0.0, 10.001851, 9.998335 
2.2350612e+3, 1.8488961e+2, -1021940.2, -1251573.0, -80434.74, 0.051487662, -0.064079136, -996569.06, 131506.3, 0.0, 10.001476, 9.998434 
2.2350593e+3, 1.9488816e+2, -977144.1, -1179121.8, -81504.52, 0.039684203, -0.0536601, -948357.25, 81733.414, 0.0, 10.00111, 9.998435 
2.2350577e+3, 2.0488681e+2, -904949.3, -1050091.3, -76196.67, 0.028140558, -0.05104284, -872294.44, 59809.78, 0.0, 10.000746, 9.998823 
2.2350559e+3, 2.1488558e+2, -859538.1, -976968.7, -77352.125, 0.016876072, -0.056752607, -821140.9, 12974.938, 0.0, 10.000382, 9.998827 
2.2350542e+3, 2.2488454e+2, -777286.94, -833636.4, -65838.11, 0.011981466, -0.06653699, -733848.3, 2276.5505, 0.0, 10.000047, 9.9993 
2.235053e+3, 2.348837e+2, -723737.25, -756441.8, -66054.76, 0.013713158, -0.080796205, -672040.8, -33909.66, 0.0, 9.999739, 9.999306 
2.2350517e+3, 2.4488294e+2, -647572.7, -635994.9, -52864.473, 0.015928272, -0.10270573, -588603.3, -48466.605, 0.0, 9.999447, 9.9996 
2.2350511e+3, 2.5488225e+2, -589383.9, -556765.1, -52322.254, 0.018630974, -0.13280043, -518269.28, -76127.766, 0.0, 9.999171, 9.999604 
2.2350504e+3, 2.6488182e+2, -498072.72, -411785.47, -42390.355, 0.026460553, -0.15819083, -394445.1, -50301.516, 0.0, 9.998909, 10.000052 
2.2350496e+3, 2.7488166e+2, -435842.2, -330365.94, -41467.215, 0.03965862, -0.17887236, -316015.78, -69872.984, 0.0, 9.998661, 10.000058 
2.235049e+3, 2.8488165e+2, -355980.94, -209998.39, -25592.078, 0.046064626, -0.19854972, -205641.88, -57501.113, 0.0, 9.998403, 10.000337 
2.2350489e+3, 2.948818e+2, -296849.53, -130264.21, -23491.973, 0.04535783, -0.21733934, -127014.74, -76877.31, 0.0, 9.998134, 10.00034 
2.2350486e+3, 3.048823e+2, -247002.55, -24167.277, -7082.3823, 0.043887552, -0.22855945, -23942.404, -23942.404, 0.0, 9.997895, 10.000848 
2.2350486e+3, 3.148831e+2, -277064.72, -38748.15, -2953.4011, 0.041665506, -0.2321126, -38711.555, -38711.555, 0.0, 9.997689, 10.000847 
2.2450745e+3, 1.2490121e+2, -1239059.6, -1713509.4, -8408.382, 0.18602353, 0.009472898, -1238910.8, 477056.66, 0.0000000033006284, 10.004251, 9.997962 
2.2450727e+3, 1.3489889e+2, -1213147.3, -1651235.5, -10675.965, 0.1387963, -0.01897292, -1212887.3, 405101.97, 0.0, 10.003759, 9.997953 
2.2450711e+3, 1.4489676e+2, -1161351.5, -1540091.4, -36781.594, 0.108549014, -0.04234651, -1157812.5, 362195.94, 0.0, 10.003289, 9.99827 
2.2450693e+3, 1.5489484e+2, -1128484.1, -1473193.5, -39998.65, 0.09885437, -0.06158067, -1123903.6, 298121.38, 0.0, 10.002841, 9.998273 
2.2450674e+3, 1.6489305e+2, -1091713.5, -1402442.4, -51348.355, 0.08501546, -0.0690655, -1083448.0, 240593.66, 0.0, 10.002411, 9.998293 
2.2450651e+3, 1.7489138e+2, -1053643.6, -1333338.3, -52139.07, 0.0668612, -0.064485274, -1044240.25, 181817.97, 0.0, 10.001999, 9.998293 
2.245063e+3, 1.8488984e+2, -1006550.25, -1249002.5, -61745.68, 0.052286275, -0.055425234, -991731.2, 136343.1, 0.0, 10.001602, 9.99839 
2.2450605e+3, 1.9488835e+2, -963964.25, -1177623.0, -63944.758, 0.041455522, -0.041870065, -946288.8, 83800.984, 0.0, 10.001222, 9.998391 
2.2450584e+3, 2.0488696e+2, -894441.06, -1050079.1, -59634.24, 0.030622808, -0.038483825, -874219.06, 57884.64, 0.0, 10.000839, 9.998778 
2.2450562e+3, 2.1488568e+2, -851947.1, -978372.44, -61647.645, 0.01980005, -0.04590286, -826863.3, 7252.601, 0.0, 10.000457, 9.998782 
2.2450544e+3, 2.2488458e+2, -772638.44, -835501.06, -49670.055, 0.014536021, -0.05678832, -745290.1, -9164.797, 0.0, 10.000096, 9.999264 
2.2450528e+3, 2.3488371e+2, -723296.94, -760328.0, -51898.68, 0.015044321, -0.07151049, -686709.9, -48577.9, 0.0, 9.999759, 9.9992695 
2.2450513e+3, 2.4488291e+2, -649000.5, -637029.8, -39063.992, 0.016319204, -0.09566443, -603495.3, -63357.535, 0.0, 9.999438, 9.999598 
2.24505e+3, 2.5488216e+2, -595008.8, -559783.5, -39601.168, 0.01837728, -0.12987314, -534055.0, -91912.28, 0.0, 9.999134, 9.999601 
2.245049e+3, 2.648817e+2, -508111.03, -416932.97, -30286.166, 0.025821263, -0.15702999, -407789.8, -63645.004, 0.0, 9.998842, 10.00005 
2.2450481e+3, 2.7488157e+2, -450479.53, -337731.22, -31408.56, 0.03890333, -0.17701432, -329572.13, -83428.15, 0.0, 9.998562, 10.000055 
2.2450474e+3, 2.8488156e+2, -374226.5, -214105.03, -18405.355, 0.04458828, -0.19794679, -212016.64, -63874.867, 0.0, 9.998257, 10.000379 
2.245047e+3, 2.9488173e+2, -324033.28, -138621.33, -17323.578, 0.042533312, -0.22004032, -137016.63, -86878.44, 0.0, 9.997927, 10.000382 
2.2450463e+3, 3.048823e+2, -283065.28, -31474.979, -699.4488, 0.03816276, -0.2317417, -31473.033, -31473.033, 0.0, 9.997604, 10.000937 
2.2450459e+3, 3.148832e+2, -328709.5, -53503.37, 1891.4299, 0.031417377, -0.23282625, -53490.37, -53490.37, 0.0, 9.997292, 10.0009365 
2.2550786e+3, 1.24902114e+2, -1242019.3, -1719688.3, -26677.805, 0.18617152, 0.013634638, -1240533.9, 475425.34, 0.000000030647044, 10.004251, 9.997919 
2.2550766e+3, 1.3489978e+2, -1216109.8, -1657423.1, -29041.902, 0.1427405, -0.010821329, -1214206.8, 403774.3, 0.0, 10.003759, 9.9979105 
2.2550745e+3, 1.4489762e+2, -1167151.6, -1552188.5, -53566.49, 0.11468357, -0.031130848, -1159838.4, 360162.4, 0.0, 10.003289, 9.998187 
2.2550723e+3, 1.5489565e+2, -1134284.6, -1485336.6, -56753.613, 0.10553674, -0.04843777, -1125337.5, 296680.84, 0.0, 10.002841, 9.998189 
2.2550698e+3, 1.648938e+2, -1093224.3, -1405710.3, -66719.055, 0.08964266, -0.056582894, -1079575.3, 244460.39, 0.0, 10.002411, 9.998271 
2.2550671e+3, 1.7489207e+2, -1055095.4, -1336505.8, -67500.3, 0.06672582, -0.05535716, -1039742.1, 186310.31, 0.0, 10.002, 9.998271 
2.2550644e+3, 1.8489048e+2, -1010532.94, -1257428.4, -75970.18, 0.05099031, -0.046326842, -989029.6, 139039.28, 0.0, 10.001603, 9.998332 
2.2550617e+3, 1.9488898e+2, -967981.94, -1186112.9, -78157.53, 0.042755768, -0.02933261, -942868.9, 87215.93, 0.0, 10.001222, 9.998333 
2.2550593e+3, 2.0488754e+2, -898320.44, -1058285.4, -73932.1, 0.03357603, -0.02492494, -869384.8, 62714.434, 0.0, 10.00084, 9.998721 
2.2550566e+3, 2.1488619e+2, -855815.6, -986577.25, -75951.44, 0.023421962, -0.033855617, -820980.3, 13131.758, 0.0, 10.000457, 9.998726 
2.2550544e+3, 2.2488503e+2, -776972.94, -844678.4, -62247.883, 0.017564893, -0.045701507, -739968.0, -3845.8389, 0.0, 10.000096, 9.999201 
2.2550525e+3, 2.3488408e+2, -727641.75, -769528.06, -64465.883, 0.016157776, -0.060799565, -680802.4, -42672.992, 0.0, 9.99976, 9.999206 
2.2550508e+3, 2.4488321e+2, -650147.8, -639572.3, -50421.125, 0.016408576, -0.08672678, -594162.44, -54026.785, 0.0, 9.999439, 9.999579 
2.2550493e+3, 2.5488243e+2, -596146.5, -562270.3, -50952.61, 0.018373944, -0.124181196, -525514.2, -83373.45, 0.0, 9.999135, 9.999584 
2.2550479e+3, 2.6488194e+2, -510155.0, -421264.53, -40741.566, 0.025492989, -0.1533325, -405416.7, -61273.56, 0.0, 9.998842, 10.00002 
2.2550467e+3, 2.7488175e+2, -452565.13, -342107.44, -41851.574, 0.038004078, -0.17399019, -328041.4, -81898.77, 0.0, 9.998562, 10.000026 
2.2550456e+3, 2.8488174e+2, -372243.47, -209994.1, -30736.475, 0.04302872, -0.19616514, -204366.58, -56226.08, 0.0, 9.998257, 10.000406 
2.2550447e+3, 2.9488194e+2, -322035.75, -134434.47, -29679.18, 0.04022669, -0.2201052, -129851.1, -79714.45, 0.0, 9.997927, 10.000412 
2.255044e+3, 3.048825e+2, -278285.44, -21436.04, -12412.564, 0.03222231, -0.23045915, -20837.58, -20837.58, 0.0, 9.997604, 10.001007 
2.2550432e+3, 3.148836e+2, -323982.13, -43443.516, -9815.078, 0.01882601, -0.22685856, -43100.54, -43100.54, 0.0, 9.997291, 10.001006 
2.265083e+3, 1.2490347e+2, -1209518.0, -1709203.1, -12196.906, 0.18258357, 0.01809813, -1209220.5, 506726.28, 0.00000011259524, 10.004497, 9.997873 
2.2650805e+3, 1.3490115e+2, -1189469.1, -1649771.1, -14983.308, 0.14473319, 0.00038560692, -1188981.9, 428986.56, 0.000000001572507, 10.003965, 9.997865 
2.2650778e+3, 1.4489897e+2, -1145201.9, -1548798.8, -36785.71, 0.119852416, -0.018064229, -1141876.5, 378112.13, 0.0, 10.003471, 9.998122 
2.2650751e+3, 1.5489689e+2, -1113293.8, -1482433.4, -38576.22, 0.111400746, -0.038726006, -1109305.5, 312701.8, 0.0, 10.003016, 9.998125 
2.2650723e+3, 1.6489497e+2, -1071355.1, -1398750.0, -46952.23, 0.09408837, -0.047721483, -1064754.8, 259270.33, 0.0, 10.002577, 9.998239 
2.2650693e+3, 1.7489325e+2, -1035108.94, -1330424.3, -48471.008, 0.06755869, -0.044745427, -1027356.75, 198685.25, 0.0, 10.002152, 9.9982395 
2.2650662e+3, 1.8489161e+2, -995227.94, -1256482.9, -56432.82, 0.0510936, -0.034314495, -983559.25, 144499.5, 0.0, 10.001736, 9.998275 
2.2650632e+3, 1.9489007e+2, -956610.5, -1187100.0, -58579.043, 0.045132328, -0.016287908, -942577.0, 87498.3, 0.0, 10.001328, 9.998275 
2.2650602e+3, 2.0488858e+2, -889162.6, -1060684.9, -54078.934, 0.03745911, -0.01173807, -873535.9, 58554.484, 0.0, 10.000933, 9.998661 
2.2650574e+3, 2.1488714e+2, -846666.75, -988993.1, -56431.95, 0.02801137, -0.021455895, -827007.25, 7096.5356, 0.0, 10.000549, 9.998665 
2.2650547e+3, 2.2488591e+2, -769440.9, -849200.6, -41734.516, 0.02130781, -0.034173127, -751595.8, -15481.219, 0.0, 10.000183, 9.999127 
2.2650522e+3, 2.3488489e+2, -721735.7, -774859.9, -44663.633, 0.017431775, -0.050223164, -696332.56, -58209.895, 0.0, 9.999836, 9.999133 
2.2650503e+3, 2.4488395e+2, -645744.06, -642079.1, -31208.025, 0.01650277, -0.07633351, -612649.8, -72520.44, 0.0, 9.999489, 9.999538 
2.2650483e+3, 2.5488314e+2, -597664.56, -567593.3, -33514.78, 0.018636191, -0.11317414, -545896.0, -103761.26, 0.0, 9.999144, 9.999543 
2.2650467e+3, 2.648826e+2, -517511.3, -428528.44, -23556.932, 0.025185399, -0.14388135, -422676.88, -78539.375, 0.0, 9.998808, 9.999987 
2.2650452e+3, 2.7488232e+2, -466754.66, -352660.97, -24914.77, 0.036351167, -0.16835725, -347457.6, -101320.01, 0.0, 9.998481, 9.999992 
2.265044e+3, 2.848823e+2, -390944.13, -218478.08, -16788.176, 0.04078549, -0.19178304, -216859.08, -68723.44, 0.0, 9.998126, 10.000411 
2.2650425e+3, 2.948825e+2, -348213.1, -146474.8, -17556.951, 0.038184393, -0.2142923, -144958.25, -94826.68, 0.0, 9.997745, 10.000417 
2.2650413e+3, 3.0488315e+2, -314126.25, -33052.504, -2687.9197, 0.02593392, -0.2236827, -33026.8, -33026.8, 0.0, 9.997334, 10.001057 
2.26504e+3, 3.1488425e+2, -378223.88, -63869.67, -1528.2246, 0.0036541852, -0.21961226, -63862.242, -63862.242, 0.0, 9.996894, 10.001058 
2.2750874e+3, 1.2490527e+2, -1213272.6, -1716729.6, -31991.182, 0.17536378, 0.022867577, -1211248.0, 504681.94, 0.00000027360363, 10.004495, 9.997822 
2.2750844e+3, 1.34903e+2, -1193122.4, -1657258.8, -34861.35, 0.1448261, 0.014569144, -1190518.6, 427432.84, 0.000000014857976, 10.003964, 9.997813 
2.2750816e+3, 1.4490077e+2, -1148483.0, -1555625.4, -53808.594, 0.12407743, -0.003192703, -1141491.6, 378480.38, 0.0, 10.003471, 9.9980755 
2.2750783e+3, 1.5489855e+2, -1116533.3, -1489241.4, -55560.883, 0.116465576, -0.03233434, -1108427.0, 313564.88, 0.0, 10.003016, 9.998078 
2.275075e+3, 1.6489659e+2, -1074236.6, -1404834.1, -62800.457, 0.09835509, -0.042363826, -1062708.9, 261301.25, 0.0, 10.002577, 9.998197 
2.2750713e+3, 1.748949e+2, -1038001.94, -1336516.5, -64319.586, 0.06933285, -0.03267648, -1024733.1, 201293.84, 0.0, 10.002152, 9.998198 
2.2750679e+3, 1.8489324e+2, -999198.5, -1264834.3, -71664.08, 0.052559696, -0.019453555, -981098.1, 146945.88, 0.0, 10.001737, 9.998218 
2.2750644e+3, 1.9489162e+2, -960555.2, -1195457.3, -73803.43, 0.048557132, -0.0027398122, -939291.8, 90769.55, 0.0, 10.001328, 9.998218 
2.2750613e+3, 2.0489006e+2, -893636.75, -1070175.5, -68379.03, 0.04224769, 0.001092518, -870249.6, 61827.42, 0.0, 10.000933, 9.998595 
2.2750579e+3, 2.1488856e+2, -851138.1, -998497.44, -70722.945, 0.033543535, -0.008705909, -822688.3, 11402.722, 0.0, 10.00055, 9.998599 
2.2750549e+3, 2.2488725e+2, -775104.94, -861163.56, -54708.152, 0.025745535, -0.022208136, -748531.75, -12429.121, 0.0, 10.000184, 9.999045 
2.2750522e+3, 2.3488612e+2, -727445.6, -786879.4, -57628.06, 0.018859725, -0.039775856, -692323.56, -54211.836, 0.0, 9.999836, 9.99905 
2.2750498e+3, 2.4488513e+2, -650214.9, -651493.4, -44073.777, 0.016599273, -0.06451104, -606775.7, -66656.62, 0.0, 9.99949, 9.999474 
2.2750476e+3, 2.548843e+2, -602140.94, -576995.7, -46387.45, 0.019156376, -0.096951775, -541507.25, -99382.54, 0.0, 9.999145, 9.999478 
2.2750454e+3, 2.6488367e+2, -520059.84, -433906.06, -35759.754, 0.024895245, -0.12878323, -420997.44, -76869.43, 0.0, 9.998808, 9.999949 
2.2750437e+3, 2.7488333e+2, -469304.9, -358018.25, -37105.547, 0.03395463, -0.16016237, -346781.06, -100652.15, 0.0, 9.998481, 9.999955 
2.275042e+3, 2.8488323e+2, -392269.63, -221263.3, -31037.012, 0.037866928, -0.18484521, -215804.45, -67677.164, 0.0, 9.998126, 10.000392 
2.2750403e+3, 2.9488346e+2, -349555.94, -149255.13, -31826.307, 0.03639937, -0.20270313, -144319.77, -94196.766, 0.0, 9.997745, 10.000398 
2.2750385e+3, 3.0488414e+2, -311978.88, -28528.229, -19120.885, 0.019294549, -0.21150668, -27244.197, -27244.197, 0.0, 9.997334, 10.001088 
2.2750369e+3, 3.1488523e+2, -376104.03, -59303.34, -17979.62, -0.014081057, -0.21110651, -58286.195, -58286.195, 0.0, 9.996893, 10.001089 
2.2850917e+3, 1.2490756e+2, -1203991.3, -1716246.9, -17703.535, 0.16928947, 0.03106526, -1203380.1, 512528.25, 0.00000052586756, 10.004576, 9.9977865 
2.2850886e+3, 1.349053e+2, -1177225.9, -1653588.6, -19556.361, 0.14362349, 0.02650997, -1176424.4, 441505.72, 0.000000051883696, 10.004091, 9.997777 
2.285085e+3, 1.4490303e+2, -1128401.4, -1549287.6, -35275.477, 0.12597331, 0.008762887, -1125465.4, 394485.66, 0.0, 10.003624, 9.998046 
2.2850813e+3, 1.5490074e+2, -1095674.9, -1482540.9, -35811.926, 0.11960278, -0.024340581, -1092387.6, 329583.66, 0.0, 10.003175, 9.998048 
2.2850776e+3, 1.6489872e+2, -1057437.1, -1403002.0, -42654.5, 0.102233134, -0.03471795, -1052250.0, 271740.16, 0.0, 10.002719, 9.99814 
2.2850737e+3, 1.74897e+2, -1026619.5, -1337331.3, -45274.047, 0.07344159, -0.021632954, -1020157.0, 205850.25, 0.0, 10.002257, 9.998141 
2.2850698e+3, 1.848953e+2, -989144.0, -1265819.1, -51368.367, 0.05624257, -0.006974108, -979914.7, 148110.1, 0.0, 10.00183, 9.998165 
2.285066e+3, 1.9489363e+2, -948199.8, -1195329.5, -53111.89, 0.051121753, 0.0091154, -937268.75, 92773.98, 0.0, 10.001439, 9.998165 
2.2850622e+3, 2.0489201e+2, -880600.06, -1070435.4, -46643.15, 0.044757813, 0.012745105, -869758.8, 62300.203, 0.0, 10.001051, 9.998537 
2.2850586e+3, 2.1489045e+2, -838220.56, -998832.4, -48484.945, 0.03710921, 0.0032049962, -824719.06, 9354.47, 0.0, 10.000668, 9.99854 
2.2850552e+3, 2.2488908e+2, -766371.9, -865267.7, -31405.139, 0.02963388, -0.010100324, -757241.8, -21156.03, 0.0, 10.00028, 9.998971 
2.285052e+3, 2.3488788e+2, -724937.1, -794016.2, -33730.676, 0.022312801, -0.027537718, -711198.94, -73103.29, 0.0, 9.999889, 9.998975 
2.2850493e+3, 2.4488683e+2, -653095.9, -661511.0, -19971.016, 0.018957505, -0.05081655, -636894.0, -96790.266, 0.0, 9.999507, 9.999396 
2.2850466e+3, 2.5488594e+2, -609205.25, -589041.5, -23232.492, 0.019728908, -0.080404244, -573797.6, -131687.63, 0.0, 9.999133, 9.999401 
2.2850442e+3, 2.6488528e+2, -527608.1, -440222.5, -11957.288, 0.022891877, -0.11267549, -438615.88, -94502.04, 0.0, 9.998768, 9.999926 
2.285042e+3, 2.7488485e+2, -481080.06, -366315.56, -12321.336, 0.028543446, -0.14794773, -365007.63, -118892.45, 0.0, 9.998411, 9.999932 
2.28504e+3, 2.8488475e+2, -409672.94, -231865.94, -8290.017, 0.031853434, -0.17282218, -231480.27, -83366.54, 0.0, 9.998016, 10.000372 
2.2850378e+3, 2.9488498e+2, -374517.16, -163504.72, -9201.158, 0.0327114, -0.18699606, -163104.25, -112994.84, 0.0, 9.997582, 10.000378 
2.2850357e+3, 3.0488566e+2, -344473.44, -38754.93, 633.3703, 0.012805268, -0.19635971, -38753.617, -38753.617, 0.0, 9.997087, 10.001137 
2.2850335e+3, 3.1488675e+2, -425834.0, -77750.91, 2994.9653, -0.028698724, -0.20096004, -77725.14, -77725.14, 0.0, 9.996528, 10.001138 
2.2950964e+3, 1.2491032e+2, -1205847.1, -1719601.6, -35783.59, 0.16429181, 0.042564318, -1203366.8, 512515.63, 0.00000086995755, 10.004574, 9.997765 
2.2950925e+3, 1.34908e+2, -1178902.8, -1656845.1, -37686.1, 0.14115667, 0.036287587, -1175949.5, 441954.97, 0.00000011863885, 10.00409, 9.997756 
2.2950886e+3, 1.4490572e+2, -1129459.0, -1551444.6, -52067.867, 0.12561046, 0.017909385, -1123129.4, 396796.25, 0.0, 10.003623, 9.998032 
2.2950844e+3, 1.5490343e+2, -1096658.0, -1484672.8, -52611.074, 0.120867565, -0.014777525, -1089651.0, 332294.84, 0.0, 10.003175, 9.998034 
2.2950803e+3, 1.6490136e+2, -1062311.5, -1413265.6, -59916.516, 0.10573133, -0.024839116, -1052364.3, 271600.78, 0.0, 10.00272, 9.99807 
2.295076e+3, 1.7489958e+2, -1031535.3, -1347680.3, -62534.82, 0.079816535, -0.011576478, -1019615.06, 206367.89, 0.0, 10.002258, 9.99807 
2.2950715e+3, 1.8489781e+2, -992399.1, -1272738.5, -66018.08, 0.062077686, 0.0031973668, -977630.3, 150370.83, 0.0, 10.001831, 9.998117 
2.2950673e+3, 1.948961e+2, -951414.0, -1202200.4, -67738.17, 0.05284427, 0.019330256, -934287.4, 95732.24, 0.0, 10.001439, 9.998117 
2.2950633e+3, 2.0489444e+2, -884135.25, -1077994.0, -60968.46, 0.045042846, 0.023256639, -866554.94, 65481.375, 0.0, 10.001052, 9.998485 
2.2950593e+3, 2.1489283e+2, -841756.94, -1006408.3, -62810.832, 0.03875106, 0.014302501, -820532.06, 13519.246, 0.0, 10.000668, 9.998487 
2.2950554e+3, 2.2489141e+2, -770930.25, -874940.5, -45983.383, 0.032983508, 0.0021526106, -753516.4, -17452.277, 0.0, 10.00028, 9.998904 
2.295052e+3, 2.3489016e+2, -729544.8, -803742.75, -48317.117, 0.027748447, -0.013540961, -705726.8, -67652.32, 0.0, 9.99989, 9.998908 
2.2950488e+3, 2.4488905e+2, -659316.1, -674544.6, -33926.05, 0.023529677, -0.03528333, -632160.4, -92076.984, 0.0, 9.999507, 9.999307 
2.2950459e+3, 2.548881e+2, -615468.3, -602138.06, -37176.223, 0.02034902, -0.0635362, -571034.2, -128943.516, 0.0, 9.999133, 9.9993105 
2.295043e+3, 2.6488736e+2, -528392.94, -441911.13, -25249.99, 0.019201752, -0.0955744, -435078.7, -90983.64, 0.0, 9.998768, 9.999914 
2.2950405e+3, 2.7488694e+2, -481841.2, -367910.13, -25610.338, 0.020164086, -0.13177669, -362418.0, -116321.58, 0.0, 9.998411, 9.999921 
2.2950378e+3, 2.848868e+2, -411180.03, -234979.92, -24488.342, 0.022792185, -0.15578951, -231639.84, -83544.79, 0.0, 9.998016, 10.000351 
2.2950354e+3, 2.9488707e+2, -376057.56, -166665.25, -25423.492, 0.027148247, -0.16722827, -163622.64, -113531.78, 0.0, 9.997582, 10.000356 
2.2950327e+3, 3.048877e+2, -339986.06, -29390.568, -20263.309, 0.0064568394, -0.17828116, -28074.166, -28074.166, 0.0, 9.997087, 10.001202 
2.2950298e+3, 3.1488883e+2, -421302.4, -68269.414, -17955.502, -0.040268075, -0.1891917, -67358.53, -67358.53, 0.0, 9.996528, 10.001204 
2.3051009e+3, 1.24913506e+2, -1209822.5, -1721777.5, -18185.928, 0.15612097, 0.05176634, -1209177.3, 506674.63, 0.000001294071, 10.004548, 9.997762 
2.3050967e+3, 1.3491116e+2, -1170887.4, -1653216.6, -18741.264, 0.13853832, 0.042782363, -1170160.3, 447713.97, 0.00000021869398, 10.004147, 9.997753 
2.3050922e+3, 1.4490886e+2, -1115194.1, -1548672.0, -32804.99, 0.1257998, 0.024643011, -1112725.5, 407170.0, 0.000000000018924721, 10.003739, 9.997994 
2.3050879e+3, 1.5490656e+2, -1077210.0, -1479449.4, -35046.887, 0.1209703, -0.004843299, -1074179.3, 347736.72, 0.0, 10.003326, 9.997996 
2.3050833e+3, 1.6490448e+2, -1043050.8, -1409865.5, -44192.68, 0.10687027, -0.0141012585, -1037801.7, 286133.75, 0.0, 10.002877, 9.998017 
2.3050784e+3, 1.749026e+2, -1015889.9, -1346045.6, -45515.227, 0.083168104, -0.0025409302, -1009730.06, 216224.02, 0.0, 10.002391, 9.998017 
2.3050734e+3, 1.8490079e+2, -978130.1, -1271092.4, -45231.69, 0.06585424, 0.010905897, -971305.56, 156667.31, 0.0, 10.001951, 9.998071 
2.3050688e+3, 1.9489902e+2, -937092.5, -1200523.1, -46907.01, 0.055171985, 0.026098106, -928989.4, 101002.46, 0.0, 10.00156, 9.998071 
2.3050645e+3, 2.0489731e+2, -870098.94, -1076546.1, -39749.734, 0.04677278, 0.03074346, -862709.94, 69299.086, 0.0, 10.001171, 9.998437 
2.30506e+3, 2.148957e+2, -828267.5, -1005239.7, -41273.957, 0.040773533, 0.024250679, -819114.9, 14909.511, 0.0, 10.000784, 9.99844 
2.3050559e+3, 2.2489423e+2, -761652.0, -876441.8, -24933.67, 0.03527116, 0.0145164905, -756470.0, -20432.518, 0.0, 10.00037, 9.998851 
2.305052e+3, 2.3489295e+2, -727505.3, -808752.7, -26310.07, 0.030285727, 0.0011920455, -719729.56, -81681.24, 0.0, 9.999929, 9.998855 
2.3050484e+3, 2.4489178e+2, -663264.56, -682548.44, -9171.114, 0.024614124, -0.020060683, -659599.5, -119541.67, 0.0, 9.999507, 9.999252 
2.305045e+3, 2.5489074e+2, -623989.6, -612364.7, -9804.639, 0.018194152, -0.049772326, -606779.1, -164713.16, 0.0, 9.999102, 9.999256 
2.3050417e+3, 2.6489002e+2, -539998.6, -448504.0, 3714.8457, 0.014311727, -0.080754906, -448353.4, -104282.766, 0.0, 9.9986925, 9.999906 
2.3050389e+3, 2.7488962e+2, -501528.56, -378357.25, 3503.6665, 0.013063499, -0.11328216, -378257.66, -132185.86, 0.0, 9.998281, 9.999912 
2.3050356e+3, 2.8488952e+2, -436710.1, -246612.19, 3109.2769, 0.01520381, -0.13540782, -246561.34, -98490.96, 0.0, 9.997838, 10.000357 
2.3050328e+3, 2.9488978e+2, -407133.63, -180969.11, 4172.6724, 0.020861464, -0.14683175, -180892.14, -130825.87, 0.0, 9.997366, 10.000361 
2.3050295e+3, 3.0489045e+2, -373776.66, -38590.4, 5294.101, 0.00031286982, -0.15860099, -38506.805, -38506.805, 0.0, 9.996824, 10.001265 
2.305026e+3, 3.148916e+2, -462953.3, -81200.09, 7388.484, -0.047434933, -0.17098719, -81057.16, -81057.16, 0.0, 9.996211, 10.001267 
2.3151055e+3, 1.2491713e+2, -1208979.4, -1719671.1, -33163.816, 0.14486493, 0.058747593, -1206834.8, 508982.44, 0.0000017832468, 10.004546, 9.997777 
2.3151009e+3, 1.3491477e+2, -1169959.8, -1651042.1, -33758.188, 0.135764, 0.046125144, -1167602.4, 450237.06, 0.00000035474585, 10.004145, 9.997769 
2.315096e+3, 1.4491245e+2, -1119461.1, -1557369.1, -48247.184, 0.12651479, 0.0290627, -1114208.5, 405652.44, 0.0000000005972648, 10.003738, 9.997935 
2.315091e+3, 1.5491016e+2, -1081464.0, -1488224.6, -50497.008, 0.11994404, 0.0054567303, -1075288.9, 346592.72, 0.0, 10.003326, 9.997936 
2.315086e+3, 1.6490804e+2, -1045579.56, -1415154.8, -62387.23, 0.105721064, -0.0025287387, -1035332.2, 288569.28, 0.0, 10.002877, 9.997981 
2.3150808e+3, 1.749061e+2, -1018340.25, -1351275.8, -63742.277, 0.08358366, 0.005514022, -1006553.7, 219367.02, 0.0, 10.002392, 9.997981 
2.3150754e+3, 1.849042e+2, -981325.4, -1277888.5, -59902.47, 0.067630485, 0.016232554, -969682.8, 158257.25, 0.0, 10.001952, 9.998024 
2.3150706e+3, 1.9490236e+2, -940328.94, -1207352.5, -61541.895, 0.05809017, 0.02951848, -926827.8, 103131.79, 0.0, 10.00156, 9.998024 
2.3150657e+3, 2.0490062e+2, -873126.2, -1082917.9, -54231.04, 0.049910605, 0.03529083, -859936.7, 72040.47, 0.0, 10.001171, 9.998393 
2.3150608e+3, 2.14899e+2, -831294.75, -1011620.8, -55759.375, 0.043166105, 0.033085044, -815446.06, 18546.693, 0.0, 10.000784, 9.998396 
2.3150562e+3, 2.2489753e+2, -764470.3, -882397.8, -41394.34, 0.036517352, 0.02699461, -751390.94, -15384.762, 0.0, 10.000371, 9.99881 
2.315052e+3, 2.3489624e+2, -730315.6, -814714.06, -42791.88, 0.029980825, 0.016651288, -712415.6, -74398.34, 0.0, 9.99993, 9.998814 
2.3150478e+3, 2.4489506e+2, -664662.0, -685547.9, -24331.139, 0.022274548, -0.005141923, -648627.44, -108600.266, 0.0, 9.999507, 9.999231 
2.315044e+3, 2.5489396e+2, -625425.2, -615376.7, -24950.875, 0.0133109875, -0.03905528, -594949.2, -152913.34, 0.0, 9.999102, 9.999235 
2.3150402e+3, 2.6489323e+2, -540508.4, -449541.7, -11692.696, 0.008240989, -0.068168886, -448062.75, -104022.086, 0.0, 9.9986925, 9.999898 
2.3150368e+3, 2.748929e+2, -502068.8, -379416.4, -11912.027, 0.0072197984, -0.0924911, -378270.22, -132228.77, 0.0, 9.99828, 9.999906 
2.3150334e+3, 2.8489283e+2, -434517.97, -241998.44, -14560.37, 0.009060768, -0.1117216, -240903.45, -92863.625, 0.0, 9.997838, 10.000389 
2.3150301e+3, 2.948931e+2, -404909.7, -176314.52, -13514.766, 0.013854843, -0.12580483, -175518.28, -125482.56, 0.0, 9.997366, 10.000394 
2.3150264e+3, 3.0489382e+2, -369509.5, -29747.92, -17685.127, -0.0056334143, -0.13732241, -28829.861, -28829.861, 0.0, 9.996824, 10.001326 
2.3150222e+3, 3.1489506e+2, -458651.16, -72322.664, -15644.3125, -0.050265245, -0.14641082, -71690.19, -71690.19, 0.0, 9.996211, 10.001328 
2.3251098e+3, 1.2492119e+2, -1205566.0, -1718078.5, -14453.128, 0.13257876, 0.06459116, -1205158.6, 510619.28, 0.000002328266, 10.00457, 9.997776 
2.3251049e+3, 1.3491881e+2, -1164596.8, -1648488.3, -16283.833, 0.1334586, 0.050376933, -1164049.4, 453750.84, 0.00000052978976, 10.004182, 9.997768 
2.3250999e+3, 1.4491646e+2, -1115702.4, -1561933.3, -31637.338, 0.12884155, 0.033238873, -1113470.4, 406351.53, 0.0000000033513867, 10.003792, 9.997878 
2.3250945e+3, 1.5491413e+2, -1074953.9, -1491519.4, -33767.594, 0.12131589, 0.011104317, -1072234.4, 349608.9, 0.0, 10.003399, 9.997878 
2.3250888e+3, 1.6491196e+2, -1034439.4, -1414349.6, -48352.926, 0.106745936, 0.004146208, -1028381.9, 295481.8, 0.0, 10.002974, 9.99794 
2.3250833e+3, 1.7491e+2, -1003050.5, -1348458.0, -50127.168, 0.08490332, 0.012726672, -995922.94, 229960.28, 0.0, 10.002517, 9.99794 
2.3250777e+3, 1.8490805e+2, -967093.9, -1274654.4, -43975.34, 0.069620155, 0.022332579, -960929.8, 166973.16, 0.0, 10.002066, 9.997992 
2.325072e+3, 1.9490615e+2, -933769.9, -1207811.6, -44570.78, 0.061126936, 0.032809474, -926703.06, 103219.88, 0.0, 10.001621, 9.997992 
2.3250669e+3, 2.0490438e+2, -872137.9, -1087013.9, -35783.633, 0.05328105, 0.03887081, -866335.44, 65605.48, 0.0, 10.001198, 9.998352 
2.3250616e+3, 2.1490274e+2, -832496.2, -1016793.06, -37141.813, 0.046122972, 0.04016514, -825292.5, 8664.329, 0.0, 10.000795, 9.998355 
2.3250566e+3, 2.2490127e+2, -764918.2, -884451.4, -23468.822, 0.037805814, 0.036447376, -760475.5, -24505.072, 0.0, 10.000376, 9.998794 
2.3250517e+3, 2.3489998e+2, -730477.44, -816620.4, -23084.773, 0.028312204, 0.027320655, -724681.1, -86699.47, 0.0, 9.999937, 9.998797 
2.3250471e+3, 2.4489878e+2, -668069.1, -685984.9, -2697.5686, 0.018815765, 0.005970206, -667671.75, -127680.12, 0.0, 9.999478, 9.999242 
2.325043e+3, 2.5489768e+2, -639654.4, -621017.56, -1005.5978, 0.00927371, -0.028298907, -620963.44, -178963.17, 0.0, 9.998999, 9.999247 
2.3250388e+3, 2.64897e+2, -565411.06, -461086.88, 13723.269, 0.003315003, -0.054953247, -459311.84, -115306.9, 0.0, 9.99852, 9.999902 
2.3250349e+3, 2.748967e+2, -536534.56, -395603.94, 14277.068, 0.0010813694, -0.07387761, -394172.13, -148166.58, 0.0, 9.998041, 9.999909 
2.3250313e+3, 2.8489673e+2, -469008.2, -251927.05, 12258.269, 0.0010398106, -0.091050245, -251237.03, -103233.4, 0.0, 9.997573, 10.000448 
2.3250271e+3, 2.94897e+2, -437487.2, -185281.97, 15360.303, 0.0032378973, -0.1065663, -184349.9, -134350.86, 0.0, 9.997113, 10.000454 
2.325023e+3, 3.0489781e+2, -398782.6, -39102.03, 6928.0664, -0.014057726, -0.11708986, -38968.633, -38968.633, 0.0, 9.996603, 10.001368 
2.3250183e+3, 3.1489915e+2, -480535.4, -78152.77, 7466.07, -0.051470723, -0.12266493, -78014.3, -78014.3, 0.0, 9.99604, 10.00137 
2.3351143e+3, 1.2492567e+2, -1206959.4, -1720674.3, -28995.568, 0.11928974, 0.06935122, -1205328.0, 510406.34, 0.0000029489372, 10.004568, 9.99776 
2.3351091e+3, 1.349233e+2, -1165876.3, -1651019.3, -30835.67, 0.13159075, 0.055502232, -1163924.3, 453832.4, 0.0000007450861, 10.004181, 9.997751 
2.3351038e+3, 1.449209e+2, -1119697.4, -1570158.5, -46381.87, 0.13270621, 0.03717339, -1114971.3, 404807.56, 0.000000012821309, 10.003792, 9.997822 
2.335098e+3, 1.5491848e+2, -1078974.0, -1499790.9, -48503.953, 0.12499069, 0.012267057, -1073455.8, 348345.3, 0.0, 10.003398, 9.997822 
2.335092e+3, 1.6491626e+2, -1037740.6, -1421162.9, -65485.27, 0.10986392, 0.0061020907, -1026864.75, 296957.2, 0.0, 10.002974, 9.997893 
2.3350857e+3, 1.7491429e+2, -1006296.5, -1355241.5, -67287.35, 0.087094404, 0.019133367, -993771.0, 232070.6, 0.0, 10.002517, 9.997893 
2.3350796e+3, 1.8491232e+2, -968417.5, -1277500.0, -60634.625, 0.0718156, 0.029188136, -956948.0, 170913.6, 0.0, 10.002066, 9.997972 
2.3350738e+3, 1.9491035e+2, -935055.25, -1210615.9, -61235.04, 0.06427753, 0.03598349, -922060.44, 107821.53, 0.0, 10.001622, 9.9979725 
2.3350681e+3, 2.0490855e+2, -874820.0, -1092701.3, -50869.62, 0.056876898, 0.041517593, -863528.44, 68371.836, 0.0, 10.001198, 9.998313 
2.3350625e+3, 2.149069e+2, -835231.2, -1022534.25, -52209.72, 0.04962965, 0.045541454, -821661.2, 12255.388, 0.0, 10.000795, 9.998316 
2.3350568e+3, 2.2490545e+2, -764447.6, -883492.44, -39877.684, 0.03913261, 0.04294802, -752324.0, -16393.652, 0.0, 10.000376, 9.9988 
2.3350517e+3, 2.3490414e+2, -730003.7, -815629.8, -39507.53, 0.02530548, 0.0333013, -714560.44, -76618.76, 0.0, 9.999937, 9.998804 
2.3350467e+3, 2.4490298e+2, -665232.25, -680063.6, -20664.89, 0.01426116, 0.013355359, -650692.75, -110741.484, 0.0, 9.999478, 9.999283 
2.335042e+3, 2.5490198e+2, -636814.7, -615078.25, -19001.654, 0.0060685077, -0.017495194, -604056.3, -162097.06, 0.0, 9.998998, 9.999288 
2.3350373e+3, 2.6490134e+2, -564456.56, -459072.72, -4200.7734, -0.0004895699, -0.04111428, -458905.56, -114941.98, 0.0, 9.998519, 9.999916 
2.335033e+3, 2.749011e+2, -535601.3, -393661.47, -3648.914, -0.0053552757, -0.057405755, -393567.75, -147603.52, 0.0, 9.998041, 9.999923 
2.3350285e+3, 2.8490114e+2, -462958.53, -239384.98, -4981.0806, -0.008844453, -0.0733453, -239274.06, -91312.22, 0.0, 9.997572, 10.000535 
2.3350242e+3, 2.9490155e+2, -431406.94, -172671.89, -1870.8329, -0.0109563945, -0.089084014, -172658.36, -122702.016, 0.0, 9.997113, 10.000541 
2.3350196e+3, 3.049024e+2, -397168.2, -35811.813, -14188.914, -0.024937244, -0.09787991, -35255.53, -35255.53, 0.0, 9.996603, 10.00139 
2.3350143e+3, 3.1490377e+2, -478951.06, -74954.05, -13670.287, -0.05107717, -0.09972581, -74492.01, -74492.01, 0.0, 9.99604, 10.001392 
2.3451187e+3, 1.24930546e+2, -1203106.8, -1721251.1, -14865.307, 0.11417733, 0.07462009, -1202680.6, 513006.38, 0.0000036965314, 10.004605, 9.997738 
2.3451133e+3, 1.3492812e+2, -1155970.0, -1648659.5, -17105.875, 0.13046718, 0.058243196, -1155376.9, 462332.8, 0.0000010038026, 10.00426, 9.99773 
2.3451075e+3, 1.4492567e+2, -1109545.6, -1569185.6, -33627.008, 0.13315119, 0.038570855, -1107098.6, 412633.6, 0.00000003359309, 10.003879, 9.9977865 
2.3451014e+3, 1.549232e+2, -1072694.1, -1500700.4, -34264.742, 0.12442464, 0.01356956, -1069968.4, 351786.34, 0.0, 10.003458, 9.9977865 
2.345095e+3, 1.6492096e+2, -1033628.44, -1425045.9, -52352.63, 0.10979557, 0.007875196, -1026747.2, 297028.97, 0.0, 10.003027, 9.997841 
2.3450884e+3, 1.7491895e+2, -1000166.94, -1358166.3, -54669.24, 0.08908421, 0.021928867, -992004.6, 233791.73, 0.0, 10.002584, 9.997841 
2.3450817e+3, 1.8491694e+2, -958953.8, -1275121.9, -48063.82, 0.07348389, 0.033298705, -951808.6, 176008.02, 0.0, 10.00214, 9.997952 
2.3450755e+3, 1.94915e+2, -925614.06, -1208221.1, -48719.707, 0.063160084, 0.041708704, -917450.9, 112386.164, 0.0, 10.001696, 9.997952 
2.345069e+3, 2.0491317e+2, -869287.0, -1091819.9, -37076.234, 0.05425256, 0.047389474, -863272.3, 68583.26, 0.0, 10.001244, 9.998297 
2.3450632e+3, 2.149115e+2, -838117.06, -1025716.4, -36737.953, 0.046811953, 0.050054226, -831179.2, 2692.9844, 0.0, 10.000784, 9.9983 
2.3450574e+3, 2.2491002e+2, -771962.8, -884283.8, -24009.754, 0.03617057, 0.047105614, -767045.75, -31159.729, 0.0, 10.000312, 9.998825 
2.3450515e+3, 2.3490877e+2, -744121.94, -819584.56, -22322.52, 0.022259967, 0.038151376, -738013.25, -100116.164, 0.0, 9.999827, 9.99883 
2.3450461e+3, 2.4490765e+2, -684263.44, -684567.6, -4194.587, 0.011134103, 0.020279761, -680218.2, -140311.92, 0.0, 9.999328, 9.999325 
2.3450407e+3, 2.549067e+2, -661330.8, -622230.9, -2542.801, 0.0028687802, -0.0070425007, -622066.25, -180152.66, 0.0, 9.99881, 9.999329 
2.3450357e+3, 2.6490614e+2, -591091.4, -467143.53, 14246.587, -0.005715279, -0.029410213, -465527.13, -121609.586, 0.0, 9.998316, 9.999959 
2.3450308e+3, 2.7490592e+2, -561014.44, -401179.47, 16917.674, -0.014641061, -0.046818256, -399408.44, -153490.4, 0.0, 9.997847, 9.999965 
2.3450258e+3, 2.8490606e+2, -486627.13, -241073.28, 16648.059, -0.02103837, -0.061531514, -239949.72, -92034.67, 0.0, 9.997368, 10.000622 
2.345021e+3, 2.9490656e+2, -459168.13, -176315.73, 19745.352, -0.024872715, -0.07362291, -174944.0, -125035.63, 0.0, 9.996881, 10.0006275 
2.3450159e+3, 3.0490753e+2, -424956.38, -44976.816, 6042.2456, -0.033679195, -0.08087725, -44880.76, -44880.76, 0.0, 9.996394, 10.001428 
2.3450105e+3, 3.1490892e+2, -495435.66, -78730.34, 7642.359, -0.047477398, -0.083372004, -78590.23, -78590.23, 0.0, 9.99591, 10.001429 
2.3551233e+3, 1.2493578e+2, -1205154.8, -1725367.6, -27830.057, 0.11683836, 0.080357, -1203670.1, 511965.8, 0.0000046443406, 10.004604, 9.99771 
2.3551175e+3, 1.3493328e+2, -1157904.9, -1652705.1, -30054.533, 0.1300373, 0.05869244, -1156086.0, 461573.25, 0.0000013255537, 10.00426, 9.997703 
2.3551114e+3, 1.449308e+2, -1110645.0, -1571552.1, -49354.93, 0.13030615, 0.037535693, -1105419.3, 414262.8, 0.00000006805861, 10.003879, 9.99777 
2.3551047e+3, 1.5492834e+2, -1073782.0, -1503056.9, -50025.125, 0.11976803, 0.0150129525, -1068029.5, 353675.0, 0.0, 10.003459, 9.99777 
2.3550978e+3, 1.6492605e+2, -1037771.44, -1433718.8, -68982.49, 0.106650256, 0.009471474, -1026097.4, 297628.9, 0.0, 10.003027, 9.997782 
2.3550908e+3, 1.7492397e+2, -1004358.2, -1366894.9, -71285.43, 0.090878606, 0.021234691, -990845.06, 234902.44, 0.0, 10.0025835, 9.997782 
2.355084e+3, 1.8492195e+2, -960428.6, -1278181.4, -64710.58, 0.074634336, 0.03476436, -947755.7, 180012.45, 0.0, 10.00214, 9.9979315 
2.3550771e+3, 1.9492003e+2, -927074.0, -1211245.3, -65387.72, 0.057892814, 0.04992762, -912750.25, 117037.96, 0.0, 10.001696, 9.997932 
2.3550703e+3, 2.049182e+2, -868933.1, -1091068.0, -54332.016, 0.045574185, 0.05640436, -856356.2, 75450.61, 0.0, 10.001244, 9.998302 
2.355064e+3, 2.1491648e+2, -837755.56, -1024946.7, -53997.656, 0.037824426, 0.053728104, -823296.2, 10527.559, 0.0, 10.000783, 9.998305 
2.3550576e+3, 2.2491503e+2, -769021.75, -878152.2, -42150.99, 0.029021323, 0.048983708, -754637.2, -18799.715, 0.0, 10.000312, 9.998867 
2.3550513e+3, 2.3491381e+2, -741177.25, -813441.5, -40484.082, 0.019181967, 0.041904975, -723046.2, -85198.26, 0.0, 9.999827, 9.998872 
2.3550454e+3, 2.449128e+2, -681383.9, -678563.2, -23612.096, 0.009405039, 0.026760891, -656319.3, -116462.74, 0.0, 9.999327, 9.999366 
2.3550396e+3, 2.5491193e+2, -658452.94, -616251.3, -21983.229, -0.00032966252, 0.0030727058, -606880.7, -165017.36, 0.0, 9.99881, 9.999371 
2.3550339e+3, 2.6491138e+2, -586210.44, -457019.7, -3385.1567, -0.012347562, -0.01980929, -456931.06, -113064.17, 0.0, 9.998316, 10.000029 
2.3550285e+3, 2.749112e+2, -556138.7, -391064.56, -704.11084, -0.026746305, -0.042038947, -391061.56, -145194.45, 0.0, 9.997847, 10.000034 
2.3550232e+3, 2.8491142e+2, -480577.53, -228536.81, -1668.2871, -0.035518277, -0.055530634, -228525.77, -80662.51, 0.0, 9.997368, 10.000708 
2.3550178e+3, 2.949121e+2, -453123.53, -163801.33, 1423.1655, -0.03851964, -0.0601486, -163794.33, -113939.13, 0.0, 9.996881, 10.000713 
2.3550121e+3, 3.0491313e+2, -421339.53, -37568.773, -12199.383, -0.040305175, -0.06606307, -37181.367, -37181.367, 0.0, 9.996394, 10.001478 
2.3550063e+3, 3.1491455e+2, -491827.16, -71353.28, -10571.972, -0.040693812, -0.07357093, -71087.63, -71087.63, 0.0, 9.99591, 10.00148 
2.3651281e+3, 1.2494138e+2, -1194244.0, -1723484.3, -11360.581, 0.12306333, 0.08196417, -1194000.3, 521581.1, 0.0000058842456, 10.004694, 9.99768 
2.3651218e+3, 1.3493878e+2, -1141770.6, -1648290.4, -13812.502, 0.13228025, 0.056131486, -1141394.3, 476211.03, 0.0000017460032, 10.004385, 9.997672 
2.3651153e+3, 1.4493628e+2, -1092391.1, -1565380.9, -37271.867, 0.12852494, 0.035538897, -1089472.1, 430156.22, 0.00000011890188, 10.004015, 9.997746 
2.3651081e+3, 1.5493387e+2, -1057537.6, -1497847.5, -38557.566, 0.11383075, 0.018460296, -1054186.8, 367463.88, 0.0, 10.003582, 9.997746 
2.3651011e+3, 1.6493157e+2, -1025742.9, -1430824.1, -58038.57, 0.10170389, 0.013989523, -1017591.3, 306081.28, 0.0, 10.003122, 9.997755 
2.3650935e+3, 1.749294e+2, -998470.1, -1366960.5, -57920.313, 0.0921996, 0.022304425, -989580.5, 236113.92, 0.0, 10.002637, 9.997755 
2.3650862e+3, 1.8492737e+2, -960232.06, -1281913.4, -50394.25, 0.07745245, 0.037017126, -952522.2, 175193.23, 0.0, 10.002158, 9.997897 
2.3650786e+3, 1.9492547e+2, -930941.2, -1216941.5, -52144.02, 0.05729861, 0.058115218, -921730.8, 108004.77, 0.0, 10.001686, 9.997898 
2.3650715e+3, 2.0492367e+2, -872202.4, -1089160.0, -41279.51, 0.04143166, 0.06560771, -864613.7, 67140.375, 0.0, 10.001206, 9.998333 
2.3650645e+3, 2.1492194e+2, -844936.06, -1024887.4, -39090.73, 0.029997485, 0.058908705, -836811.2, -3040.2698, 0.0, 10.000719, 9.998337 
2.3650576e+3, 2.249205e+2, -780580.6, -880147.6, -27721.764, 0.020620475, 0.053397804, -773382.6, -37598.168, 0.0, 10.0002165, 9.998899 
2.365051e+3, 2.3491935e+2, -757651.06, -817828.75, -26913.936, 0.013412515, 0.048908558, -747370.4, -109575.89, 0.0, 9.9997, 9.998903 
2.3650447e+3, 2.4491838e+2, -699936.8, -682403.0, -11105.358, 0.0049720765, 0.035304744, -677021.1, -137218.45, 0.0, 9.999178, 9.999412 
2.3650384e+3, 2.5491756e+2, -678154.7, -620656.6, -9226.367, -0.00476235, 0.0121072475, -619212.44, -177403.38, 0.0, 9.998652, 9.999415 
2.3650323e+3, 2.6491708e+2, -606308.9, -456854.13, 11379.888, -0.016799955, -0.012110414, -455992.6, -112180.6, 0.0, 9.998136, 10.000116 
2.3650263e+3, 2.7491692e+2, -581950.6, -393650.6, 15397.55, -0.031242732, -0.037576057, -392399.8, -146588.36, 0.0, 9.997627, 10.000122 
2.3650202e+3, 2.8491724e+2, -512146.44, -236815.97, 13956.205, -0.041004255, -0.05092856, -236110.36, -88303.48, 0.0, 9.997122, 10.00077 
2.3650144e+3, 2.94918e+2, -486793.34, -173150.95, 15149.954, -0.04596214, -0.0519317, -172420.86, -122622.76, 0.0, 9.99662, 10.000775 
2.3650086e+3, 3.0491912e+2, -447378.88, -42538.266, 3665.2112, -0.046187337, -0.056958422, -42505.086, -42505.086, 0.0, 9.996183, 10.001546 
2.3650022e+3, 3.1492057e+2, -501052.97, -68220.336, 6545.633, -0.041409075, -0.06638896, -68121.375, -68121.375, 0.0, 9.995814, 10.001547 
2.3751327e+3, 1.24947295e+2, -1196315.5, -1728339.0, -22913.838, 0.13266264, 0.07963225, -1195330.5, 520192.75, 0.0000075165017, 10.004697, 9.997645 
2.3751262e+3, 1.3494465e+2, -1144059.5, -1653240.9, -25349.68, 0.1370607, 0.050701223, -1142800.6, 474747.22, 0.0000023110401, 10.004386, 9.997638 
2.3751193e+3, 1.4494213e+2, -1094678.4, -1570077.0, -53485.676, 0.12774971, 0.03262679, -1088735.3, 430835.84, 0.00000019411024, 10.004015, 9.997715 
2.3751119e+3, 1.5493976e+2, -1059881.0, -1502567.4, -54798.246, 0.10665695, 0.02383145, -1053198.6, 368394.47, 0.0, 10.003581, 9.997715 
2.375104e+3, 1.6493747e+2, -1025498.75, -1430178.1, -76225.34, 0.095024325, 0.021316627, -1011617.1, 311998.06, 0.0, 10.003121, 9.997761 
2.3750962e+3, 1.7493527e+2, -998139.9, -1366239.4, -76110.56, 0.093061574, 0.02508191, -983023.5, 242613.67, 0.0, 10.002637, 9.997761 
2.3750883e+3, 1.8493323e+2, -963685.4, -1289040.5, -68070.15, 0.08188318, 0.04003872, -950018.0, 177640.52, 0.0, 10.002158, 9.9978485 
2.3750803e+3, 1.9493133e+2, -934470.2, -1224146.8, -69819.08, 0.0612388, 0.066276796, -918520.3, 111158.805, 0.0, 10.001685, 9.9978485 
2.3750727e+3, 2.0492953e+2, -868467.94, -1081249.5, -59511.97, 0.04169397, 0.07500408, -852954.4, 78743.18, 0.0, 10.001205, 9.998388 
2.3750652e+3, 2.1492784e+2, -841160.44, -1016900.4, -57352.813, 0.023296015, 0.06557146, -824099.56, 9614.318, 0.0, 10.000718, 9.998392 
2.375058e+3, 2.2492644e+2, -779235.06, -877246.6, -47129.117, 0.010994119, 0.06030305, -760250.25, -24523.303, 0.0, 10.0002165, 9.9989195 
2.3750508e+3, 2.3492534e+2, -756293.25, -814976.3, -46341.074, 0.0050042258, 0.05910853, -730785.7, -93049.04, 0.0, 9.999699, 9.998923 
2.3750436e+3, 2.4492441e+2, -696551.5, -675390.44, -30820.43, -0.0021148177, 0.04588007, -653385.0, -113640.41, 0.0, 9.999178, 9.99946 
2.3750369e+3, 2.549236e+2, -674750.1, -613636.4, -28959.773, -0.010410559, 0.020082882, -602093.44, -160342.8, 0.0, 9.998652, 9.999464 
2.3750302e+3, 2.649232e+2, -598924.56, -441586.56, -7726.5376, -0.019096797, -0.0062782587, -441208.03, -97455.16, 0.0, 9.998136, 10.000221 
2.375024e+3, 2.7492312e+2, -574562.06, -378372.5, -3722.5713, -0.02821267, -0.033420093, -378301.88, -132550.72, 0.0, 9.997627, 10.000227 
2.3750176e+3, 2.849235e+2, -509561.63, -231534.28, -4919.151, -0.037591264, -0.04771571, -231447.27, -83701.33, 0.0, 9.997122, 10.000806 
2.375011e+3, 2.9492432e+2, -484258.78, -167989.13, -3716.2732, -0.047257904, -0.04893849, -167945.47, -118208.33, 0.0, 9.99662, 10.000811 
2.3750046e+3, 3.0492547e+2, -441512.72, -30513.727, -10257.949, -0.051350154, -0.053529587, -30257.861, -30257.861, 0.0, 9.996183, 10.001629 
2.374998e+3, 3.1492704e+2, -495170.25, -56144.047, -7317.184, -0.049628228, -0.061817463, -56022.125, -56022.125, 0.0, 9.995814, 10.00163 
2.3851377e+3, 1.2495369e+2, -1155135.9, -1714030.5, -4500.9785, 0.13908261, 0.08003934, -1155099.6, 560361.1, 0.000009631687, 10.005004, 9.997595 
2.3851308e+3, 1.34951e+2, -1122024.1, -1648158.8, -8100.045, 0.14131394, 0.051476654, -1121899.5, 495586.38, 0.0000030696576, 10.004561, 9.997588 
2.3851232e+3, 1.4494845e+2, -1084963.6, -1568315.8, -39924.176, 0.12937924, 0.03475628, -1081688.1, 437821.38, 0.00000030864408, 10.004094, 9.997688 
2.3851152e+3, 1.5494607e+2, -1058846.8, -1504971.4, -40873.156, 0.10511153, 0.028359344, -1055133.0, 366398.84, 0.0, 10.0036, 9.997688 
2.3851071e+3, 1.6494381e+2, -1023850.75, -1426626.1, -61827.332, 0.09295062, 0.028146144, -1014573.75, 308980.06, 0.0, 10.003121, 9.997785 
2.385099e+3, 1.7494164e+2, -993508.25, -1361212.9, -60318.82, 0.093155354, 0.0340725, -983866.25, 241709.03, 0.0, 10.002657, 9.997786 
2.3850903e+3, 1.8493961e+2, -965634.7, -1292424.0, -51790.35, 0.08278254, 0.049152218, -957623.25, 169973.4, 0.0, 10.002155, 9.997827 
2.3850821e+3, 1.9493768e+2, -946167.94, -1232259.4, -51627.07, 0.06156696, 0.073428705, -937136.56, 92481.27, 0.0, 10.001616, 9.997827 
2.3850739e+3, 2.049359e+2, -882814.2, -1083532.8, -40723.332, 0.04006213, 0.082652874, -874866.6, 56769.684, 0.0, 10.001087, 9.998429 
2.3850659e+3, 2.1493426e+2, -859902.44, -1021283.7, -39648.42, 0.018267082, 0.07625253, -850687.7, -17035.836, 0.0, 10.000569, 9.998433 
2.3850578e+3, 2.2493291e+2, -800346.9, -885471.44, -30246.514, 0.00475095, 0.072271846, -790694.2, -55029.66, 0.0, 10.000063, 9.998937 
2.3850504e+3, 2.3493183e+2, -774261.1, -821726.6, -29732.924, -0.00022609357, 0.07058672, -759950.6, -122276.36, 0.0, 9.999568, 9.99894 
2.3850428e+3, 2.449309e+2, -710431.06, -676948.6, -15047.533, -0.0063548847, 0.05569822, -671179.94, -131497.9, 0.0, 9.999061, 9.999506 
2.3850355e+3, 2.549301e+2, -687692.56, -614748.44, -13447.085, -0.013675483, 0.02706564, -612348.5, -170660.66, 0.0, 9.998542, 9.99951 
2.3850283e+3, 2.6492974e+2, -612785.25, -440337.6, 6047.571, -0.02078732, 0.000861884, -440125.78, -96436.43, 0.0, 9.998007, 10.000292 
2.3850214e+3, 2.7492982e+2, -594841.94, -380234.72, 7407.428, -0.02770657, -0.023053113, -379979.34, -134292.86, 0.0, 9.997454, 10.000298 
2.3850146e+3, 2.849302e+2, -533560.0, -238565.55, 6519.1587, -0.036795173, -0.039413903, -238421.55, -90740.72, 0.0, 9.996938, 10.000846 
2.3850076e+3, 2.9493096e+2, -504928.5, -173476.95, 8009.861, -0.04812817, -0.04815081, -173283.5, -123611.234, 0.0, 9.99646, 10.00085 
2.3850007e+3, 3.0493218e+2, -455790.78, -30999.152, 6021.9414, -0.055651505, -0.054018185, -30913.8, -30913.8, 0.0, 9.996058, 10.001685 
2.3849936e+3, 3.1493384e+2, -502403.1, -53222.21, 7002.4478, -0.059218545, -0.057186898, -53113.074, -53113.074, 0.0, 9.995738, 10.001687 
2.3951428e+3, 1.24960534e+2, -1159352.4, -1723485.9, -21028.117, 0.14250603, 0.08305326, -1158569.6, 556824.4, 0.000012296239, 10.005007, 9.997529 
2.3951355e+3, 1.349578e+2, -1126507.1, -1657740.1, -24596.838, 0.14506254, 0.058164682, -1125370.6, 492048.8, 0.000004064787, 10.004562, 9.997522 
2.3951274e+3, 1.4495523e+2, -1086551.1, -1571578.3, -58346.8, 0.13329147, 0.041686736, -1079631.0, 439812.63, 0.0000004774958, 10.004094, 9.997666 
2.3951189e+3, 1.5495281e+2, -1060513.4, -1508243.0, -59270.836, 0.10894095, 0.0320759, -1052799.9, 368666.84, 0.00000000015791897, 10.003599, 9.997667 
2.3951103e+3, 1.6495058e+2, -1021017.25, -1420577.4, -79151.24, 0.09527714, 0.034513738, -1005908.94, 317579.5, 0.0, 10.00312, 9.997828 
2.3951013e+3, 1.7494854e+2, -990546.5, -1355063.9, -77662.68, 0.09249395, 0.04905738, -974689.8, 250819.03, 0.0, 10.002656, 9.997828 
2.3950925e+3, 1.8494652e+2, -965429.5, -1292070.1, -71933.625, 0.08026611, 0.06414116, -950289.8, 177240.14, 0.0, 10.002155, 9.997829 
2.3950838e+3, 1.949445e+2, -945953.25, -1231914.6, -71787.19, 0.05839071, 0.07960009, -928943.75, 100608.22, 0.0, 10.001616, 9.997829 
2.395075e+3, 2.0494273e+2, -880915.7, -1079655.1, -60066.617, 0.036591318, 0.088623725, -864171.94, 67398.32, 0.0, 10.001087, 9.998456 
2.3950665e+3, 2.149412e+2, -858064.06, -1017455.5, -59028.273, 0.014870872, 0.09087015, -838584.44, -4999.5215, 0.0, 10.000569, 9.99846 
2.3950578e+3, 2.249399e+2, -799471.75, -883629.56, -48815.84, 0.0018119721, 0.08919463, -777102.06, -41504.78, 0.0, 10.000063, 9.99895 
2.3950498e+3, 2.349388e+2, -773390.06, -819920.44, -48306.258, -0.0023439028, 0.08332167, -743038.44, -105431.164, 0.0, 9.999567, 9.998953 
2.3950417e+3, 2.4493785e+2, -707487.8, -670885.5, -34495.105, -0.0078000887, 0.06478093, -650137.4, -110522.33, 0.0, 9.999061, 9.999547 
2.395034e+3, 2.5493708e+2, -684718.94, -608679.44, -32923.973, -0.01459638, 0.033076108, -596405.2, -154784.63, 0.0, 9.998542, 9.999551 
2.3950264e+3, 2.6493677e+2, -610223.94, -435157.8, -14704.15, -0.021889396, 0.009310639, -433931.38, -90309.98, 0.0, 9.998007, 10.000327 
2.3950188e+3, 2.7493694e+2, -592300.9, -375117.06, -13375.973, -0.029709842, -0.006517959, -374296.34, -128678.836, 0.0, 9.997455, 10.000333 
2.3950115e+3, 2.8493738e+2, -530464.4, -232304.06, -11497.888, -0.038597684, -0.026071621, -231861.33, -84249.74, 0.0, 9.996939, 10.000889 
2.3950042e+3, 2.9493803e+2, -501865.06, -167257.44, -9983.867, -0.04857945, -0.04957863, -166959.81, -117356.24, 0.0, 9.99646, 10.000893 
2.3949966e+3, 3.0493924e+2, -453626.7, -26679.396, -6074.6216, -0.05910991, -0.05841633, -26592.984, -26592.984, 0.0, 9.996059, 10.001715 
2.3949893e+3, 3.1494102e+2, -500246.16, -48914.316, -5053.811, -0.07019974, -0.052492116, -48857.73, -48857.73, 0.0, 9.995738, 10.001717 
2.4051481e+3, 1.2496792e+2, -1113887.9, -1708072.0, -5121.9854, 0.15075119, 0.091627866, -1113843.8, 601478.9, 0.00001552445, 10.005347, 9.997471 
2.4051401e+3, 1.3496518e+2, -1102344.1, -1652594.8, -8159.3896, 0.14664127, 0.07174718, -1102223.1, 515125.16, 0.000005321567, 10.004757, 9.997463 
2.4051316e+3, 1.4496256e+2, -1073205.5, -1562746.5, -40731.46, 0.1322217, 0.05405607, -1069839.8, 449533.06, 0.0000007072422, 10.004175, 9.997687 
2.4051225e+3, 1.5496008e+2, -1058578.4, -1504879.6, -38530.13, 0.10917898, 0.03696872, -1055276.5, 366119.72, 0.0000000012924075, 10.003602, 9.997688 
2.4051133e+3, 1.6495788e+2, -1021818.4, -1418428.8, -54180.055, 0.09515414, 0.040258043, -1014550.1, 308867.56, 0.0, 10.003104, 9.997849 
2.405104e+3, 1.7495598e+2, -985366.3, -1350021.5, -54171.402, 0.09028372, 0.064067535, -977489.0, 247948.25, 0.0, 10.002681, 9.99785 
2.4050947e+3, 1.8495399e+2, -956289.0, -1283285.6, -51529.28, 0.07600957, 0.08067927, -948361.06, 179096.98, 0.0, 10.002199, 9.997868 
2.4050853e+3, 1.9495195e+2, -937208.4, -1223302.3, -48745.38, 0.052165408, 0.089781135, -929131.06, 100348.984, 0.0, 10.0016575, 9.997869 
2.4050759e+3, 2.049502e+2, -880248.56, -1079662.8, -37225.11, 0.030154595, 0.09919277, -873526.25, 57972.0, 0.0, 10.001094, 9.998453 
2.405067e+3, 2.1494874e+2, -867352.94, -1022315.7, -38472.01, 0.010004367, 0.10873334, -858327.4, -24814.8, 0.0, 10.000507, 9.998456 
2.4050578e+3, 2.2494745e+2, -812309.25, -886529.2, -26916.617, -0.0020724924, 0.10775306, -803575.4, -68050.63, 0.0, 9.999961, 9.998979 
2.4050494e+3, 2.3494633e+2, -787927.8, -823645.7, -25224.67, -0.0058779614, 0.095854566, -774880.0, -137345.16, 0.0, 9.999454, 9.998982 
2.4050407e+3, 2.4494538e+2, -720199.94, -673941.8, -11286.981, -0.009933494, 0.07457885, -671334.7, -131792.2, 0.0, 9.9989605, 9.999575 
2.4050325e+3, 2.5494465e+2, -691723.0, -609015.25, -10876.482, -0.014255109, 0.043520533, -607608.9, -166061.25, 0.0, 9.998481, 9.999578 
2.4050242e+3, 2.6494437e+2, -614875.5, -439346.9, 3426.8274, -0.021896785, 0.02142577, -439280.03, -95731.72, 0.0, 9.997984, 10.00031 
2.4050164e+3, 2.7494454e+2, -591743.94, -376868.5, 675.93176, -0.032934178, 0.008322132, -376866.38, -131321.89, 0.0, 9.997467, 10.000315 
2.4050082e+3, 2.8494495e+2, -527113.3, -225730.75, 1503.5803, -0.041564055, -0.013249251, -225723.25, -78184.79, 0.0, 9.996941, 10.000933 
2.4050005e+3, 2.949456e+2, -507095.63, -164810.42, 3079.1597, -0.047728434, -0.043636054, -164782.72, -115252.55, 0.0, 9.996403, 10.000937 
2.4049927e+3, 3.0494678e+2, -475898.7, -34590.277, 10854.582, -0.059354655, -0.05581022, -34323.453, -34323.453, 0.0, 9.995894, 10.0017395 
2.4049848e+3, 3.149486e+2, -545497.4, -67892.13, 11490.906, -0.07658081, -0.049629986, -67615.83, -67615.83, 0.0, 9.995416, 10.001741 
2.4151535e+3, 1.24975815e+2, -1117680.4, -1715845.9, -27097.877, 0.1635485, 0.10544698, -1116455.4, 598791.2, 0.000019264911, 10.005346, 9.997418 
2.4151447e+3, 1.3497308e+2, -1106116.6, -1660344.3, -30087.361, 0.14614634, 0.09187916, -1104488.0, 512784.34, 0.000006828982, 10.004756, 9.997411 
2.4151358e+3, 1.4497046e+2, -1068972.4, -1553897.5, -62019.746, 0.12640733, 0.07159768, -1061166.0, 458131.03, 0.0000009893836, 10.004175, 9.997749 
2.4151263e+3, 1.5496792e+2, -1054291.5, -1495964.5, -59816.953, 0.10598162, 0.042992525, -1046333.75, 374986.63, 0.000000003873304, 10.003602, 9.99775 
2.4151164e+3, 1.6496575e+2, -1021714.8, -1418156.8, -69865.71, 0.09267681, 0.04542746, -1009762.6, 313579.03, 0.0, 10.003103, 9.997852 
2.4151067e+3, 1.7496392e+2, -985360.0, -1349815.5, -69859.57, 0.08658214, 0.079113044, -972428.0, 252932.73, 0.0, 10.00268, 9.997852 
2.4150969e+3, 1.8496202e+2, -951348.2, -1272787.3, -71713.83, 0.070071205, 0.0987182, -936074.44, 191306.56, 0.0, 10.002198, 9.997941 
2.4150869e+3, 1.9496001e+2, -932197.8, -1212720.9, -68984.19, 0.042986404, 0.10385163, -916151.6, 113250.734, 0.0, 10.001656, 9.997942 
2.415077e+3, 2.049583e+2, -882689.2, -1084629.0, -59125.848, 0.020839972, 0.11423252, -866651.44, 64768.848, 0.0, 10.001093, 9.99842 
2.4150671e+3, 2.1495686e+2, -869780.4, -1027363.4, -60402.625, 0.0037047395, 0.12976277, -849291.56, -15856.743, 0.0, 10.000507, 9.998422 
2.4150579e+3, 2.2495557e+2, -809202.3, -880175.75, -45891.09, -0.0068861395, 0.12791115, -786677.8, -51230.72, 0.0, 9.999961, 9.9990225 
2.4150486e+3, 2.3495439e+2, -784779.75, -817260.1, -44214.742, -0.01080417, 0.108191475, -753917.0, -116459.88, 0.0, 9.999454, 9.999026 
2.4150398e+3, 2.4495345e+2, -719324.75, -672286.6, -29249.766, -0.012742824, 0.085094474, -658273.06, -118808.66, 0.0, 9.9989605, 9.999586 
2.415031e+3, 2.549528e+2, -690890.0, -607428.25, -28866.717, -0.012669421, 0.058354035, -598417.1, -156948.08, 0.0, 9.998482, 9.999589 
2.4150223e+3, 2.6495248e+2, -619860.3, -449829.3, -15967.908, -0.020833757, 0.037164662, -448342.75, -104872.664, 0.0, 9.997984, 10.000237 
2.4150136e+3, 2.7495253e+2, -596783.06, -387470.7, -18739.459, -0.037386402, 0.021473475, -385806.2, -140338.73, 0.0, 9.997467, 10.000241 
2.4150054e+3, 2.8495294e+2, -523962.2, -219342.53, -18719.049, -0.045695093, -0.00092673313, -218196.55, -70735.03, 0.0, 9.996941, 10.000977 
2.4149968e+3, 2.949536e+2, -503933.2, -158394.66, -17151.588, -0.045582682, -0.03032084, -157545.39, -108093.25, 0.0, 9.996403, 10.000981 
2.4149886e+3, 3.0495483e+2, -474539.7, -31926.115, -7183.3184, -0.056385092, -0.046215978, -31809.566, -31809.566, 0.0, 9.995894, 10.001759 
2.4149802e+3, 3.1495658e+2, -544164.7, -65241.367, -6543.6895, -0.078344844, -0.04863728, -65151.973, -65151.973, 0.0, 9.995416, 10.00176 
2.4251592e+3, 1.2498435e+2, -1103374.8, -1712753.3, -4121.087, 0.17810363, 0.12033607, -1103346.9, 611817.5, 0.00002342205, 10.005462, 9.997383 
2.4251497e+3, 1.349816e+2, -1096151.8, -1659337.1, -5776.206, 0.1457993, 0.10866949, -1096092.5, 521098.16, 0.000008536078, 10.004841, 9.997376 
2.4251398e+3, 1.4497899e+2, -1054744.1, -1539381.9, -35829.246, 0.119994275, 0.0882021, -1052109.5, 467105.53, 0.0000013038652, 10.00424, 9.997817 
2.4251297e+3, 1.5497649e+2, -1041539.3, -1482143.0, -33162.074, 0.10225125, 0.057373364, -1039057.3, 382180.28, 0.000000007967187, 10.003657, 9.997818 
2.4251196e+3, 1.6497433e+2, -1020068.06, -1417504.9, -38789.33, 0.09060693, 0.058467843, -1016317.6, 306941.0, 0.0, 10.003116, 9.99785 
2.4251094e+3, 1.7497252e+2, -994735.7, -1354481.4, -39075.293, 0.08511626, 0.09163476, -990540.3, 234737.88, 0.0, 10.002617, 9.99785 
2.4250989e+3, 1.8497066e+2, -962613.9, -1272011.0, -44841.938, 0.06878195, 0.113352835, -956245.9, 171052.19, 0.0, 10.002094, 9.997996 
2.4250884e+3, 1.9496875e+2, -944068.94, -1212201.4, -43472.145, 0.041472815, 0.12326531, -937196.94, 92121.4, 0.0, 10.001548, 9.997997 
2.4250779e+3, 2.0496705e+2, -897278.5, -1093515.4, -34542.707, 0.01880391, 0.13474129, -891375.7, 39960.406, 0.0, 10.001, 9.998403 
2.4250676e+3, 2.1496558e+2, -879003.75, -1033722.2, -34617.76, 0.00085337076, 0.14765993, -871611.4, -38260.094, 0.0, 10.000452, 9.9984045 
2.4250576e+3, 2.2496426e+2, -809937.1, -875953.1, -16923.781, -0.011002471, 0.1433468, -805851.44, -70487.83, 0.0, 9.999936, 9.9990635 
2.425048e+3, 2.349631e+2, -782128.8, -811416.9, -15536.71, -0.016690154, 0.12133941, -775422.5, -138049.39, 0.0, 9.999453, 9.999066 
2.4250385e+3, 2.449622e+2, -722799.2, -677548.94, -2471.9033, -0.016523069, 0.10025797, -677414.3, -138034.16, 0.0, 9.998953, 9.999554 
2.4250293e+3, 2.5496155e+2, -699875.7, -615395.8, -5418.629, -0.0104173655, 0.079931006, -615049.6, -173664.94, 0.0, 9.998436, 9.999557 
2.4250203e+3, 2.649612e+2, -631984.56, -459287.8, 6472.2427, -0.017528681, 0.057168152, -459045.56, -115659.32, 0.0, 9.997916, 10.000205 
2.4250112e+3, 2.7496114e+2, -609692.94, -397354.66, 6613.9287, -0.038053222, 0.031800535, -397148.84, -151764.1, 0.0, 9.997395, 10.000209 
2.4250022e+3, 2.849615e+2, -534105.5, -223747.33, 6006.322, -0.046789743, 0.007720204, -223631.14, -76252.19, 0.0, 9.996869, 10.00098 
2.4249934e+3, 2.9496226e+2, -512980.03, -162297.86, 4466.572, -0.043513868, -0.015242084, -162240.98, -112872.164, 0.0, 9.99634, 10.000985 
2.4249844e+3, 3.0496347e+2, -492949.03, -36518.55, 12424.614, -0.055877652, -0.031639814, -36180.586, -36180.586, 0.0, 9.99575, 10.001796 
2.4249753e+3, 3.149652e+2, -587392.2, -81757.85, 14470.105, -0.084173165, -0.041636616, -81344.086, -81344.086, 0.0, 9.995101, 10.001798 
2.4351647e+3, 1.2499349e+2, -1104908.9, -1715659.0, -27133.752, 0.19430077, 0.13621469, -1103705.9, 611370.5, 0.000027876615, 10.00546, 9.997365 
2.4351545e+3, 1.349907e+2, -1097698.1, -1662209.5, -28696.1, 0.14557283, 0.12232715, -1096243.3, 520860.13, 0.000010381729, 10.004839, 9.997358 
2.435144e+3, 1.4498813e+2, -1049826.0, -1528866.6, -57410.77, 0.11300664, 0.103969, -1043041.7, 476085.53, 0.0000016351773, 10.004238, 9.99789 
2.4351333e+3, 1.5498579e+2, -1036545.6, -1471594.6, -54809.668, 0.09801197, 0.07975001, -1029746.7, 391401.44, 0.0000000135945495, 10.003655, 9.997891 
2.4351226e+3, 1.6498365e+2, -1020628.9, -1418561.6, -57326.234, 0.08892751, 0.07901992, -1012535.06, 310633.84, 0.0, 10.003115, 9.997844 
2.435112e+3, 1.749817e+2, -995274.75, -1355519.0, -57596.688, 0.08578688, 0.10172803, -986290.1, 238899.45, 0.0, 10.002616, 9.997845 
2.4351011e+3, 1.8497987e+2, -960107.2, -1266735.0, -65150.805, 0.071959436, 0.12474413, -946838.44, 180370.86, 0.0, 10.002093, 9.998033 
2.4350901e+3, 1.9497813e+2, -941541.8, -1206905.0, -63831.016, 0.047360446, 0.14786889, -926986.2, 102241.92, 0.0, 10.001547, 9.998034 
2.435079e+3, 2.0497647e+2, -897449.94, -1093864.3, -55005.977, 0.023808822, 0.1605368, -883094.6, 48151.01, 0.0, 10.001, 9.998401 
2.435068e+3, 2.1497488e+2, -879150.4, -1034089.3, -55100.086, 0.0013427185, 0.16249037, -861553.9, -28291.98, 0.0, 10.000452, 9.998403 
2.4350576e+3, 2.2497356e+2, -807357.7, -870710.0, -34978.89, -0.014449134, 0.15418386, -791843.75, -56569.43, 0.0, 9.999936, 9.9991 
2.4350473e+3, 2.3497246e+2, -779557.75, -806211.3, -33640.305, -0.023529695, 0.13529897, -756700.6, -119417.74, 0.0, 9.999453, 9.999103 
2.4350376e+3, 2.4497159e+2, -728134.56, -688784.25, -21853.332, -0.02126093, 0.12000976, -679053.94, -139764.28, 0.0, 9.998953, 9.999476 
2.4350278e+3, 2.5497094e+2, -705230.06, -626701.5, -24828.295, -0.0075093745, 0.10818419, -619510.1, -178215.47, 0.0, 9.998436, 9.999478 
2.4350183e+3, 2.649705e+2, -631551.8, -458581.38, -13120.415, -0.01200373, 0.08138256, -457591.8, -114294.92, 0.0, 9.997917, 10.00021 
2.4350086e+3, 2.749703e+2, -609281.25, -396676.47, -13003.061, -0.03495396, 0.0392934, -395884.16, -150587.78, 0.0, 9.9973955, 10.000214 
2.434999e+3, 2.849706e+2, -536678.6, -229261.92, -13947.204, -0.044865448, 0.012708831, -228630.44, -81339.6, 0.0, 9.99687, 10.000943 
2.4349898e+3, 2.9497144e+2, -515605.9, -167908.1, -15490.766, -0.041536987, 0.0016153507, -167219.31, -117939.055, 0.0, 9.99634, 10.000946 
2.4349803e+3, 3.049727e+2, -488983.0, -28427.322, -12039.882, -0.057857327, -0.012062138, -28112.79, -28112.79, 0.0, 9.99575, 10.001852 
2.4349704e+3, 3.149744e+2, -583455.06, -73642.234, -10005.34, -0.09412229, -0.028589938, -73445.945, -73445.945, 0.0, 9.995101, 10.001854 
2.4451701e+3, 1.2500337e+2, -1094438.5, -1709408.9, 1974.9302, 0.19872858, 0.15382315, -1094432.1, 620549.0, 0.000032495525, 10.0055275, 9.997375 
2.4451594e+3, 1.3500057e+2, -1095778.0, -1660018.1, 2590.7158, 0.14457639, 0.13642885, -1095766.1, 521242.25, 0.00001232113, 10.004848, 9.997369 
2.4451482e+3, 1.4499803e+2, -1051599.4, -1528434.1, -24674.41, 0.11069874, 0.12045623, -1050325.9, 468706.06, 0.0000019856832, 10.004221, 9.997901 
2.4451369e+3, 1.5499577e+2, -1037140.5, -1470599.5, -26610.834, 0.09831298, 0.104630165, -1035512.9, 385539.28, 0.000000020961531, 10.003647, 9.997903 
2.4451257e+3, 1.6499364e+2, -1019991.8, -1414444.1, -27240.52, 0.08805338, 0.102626346, -1018119.5, 304953.3, 0.0, 10.003103, 9.997877 
2.4451146e+3, 1.7499162e+2, -996526.1, -1352285.1, -24604.652, 0.079943754, 0.114287294, -994832.5, 230261.42, 0.0, 10.002591, 9.997878 
2.4451031e+3, 1.8498981e+2, -965656.5, -1268919.3, -33770.99, 0.06573729, 0.13708, -961941.3, 165172.2, 0.0, 10.002053, 9.998036 
2.4450916e+3, 1.9498818e+2, -949591.4, -1210291.5, -34903.473, 0.045384876, 0.1708599, -944999.25, 84132.35, 0.0, 10.001491, 9.998038 
2.4450801e+3, 2.0498654e+2, -903974.25, -1093750.0, -25668.305, 0.0242004, 0.18400879, -900563.75, 30585.275, 0.0, 10.000942, 9.998429 
2.4450687e+3, 2.1498488e+2, -883600.06, -1032993.06, -23529.41, 0.0022043027, 0.17623712, -879981.8, -46816.168, 0.0, 10.000408, 9.998431 
2.4450576e+3, 2.2498356e+2, -813534.06, -874171.5, -1754.159, -0.013395762, 0.16703093, -813483.4, -78305.375, 0.0, 9.999896, 9.999095 
2.4450469e+3, 2.3498254e+2, -786684.75, -810178.4, -3519.7583, -0.022593576, 0.15616624, -786168.75, -148982.86, 0.0, 9.999407, 9.999097 
2.4450363e+3, 2.4498165e+2, -737266.94, -700536.9, 6694.7188, -0.021071581, 0.14305657, -699354.7, -160161.72, 0.0, 9.998922, 9.999411 
2.4450263e+3, 2.549809e+2, -708857.3, -635831.75, 4503.9946, -0.008708373, 0.12756331, -635555.0, -194355.88, 0.0, 9.998444, 9.999413 
2.445016e+3, 2.649804e+2, -628126.94, -455153.97, 15705.621, -0.014321268, 0.097919255, -453739.5, -110537.7, 0.0, 9.997933, 10.000225 
2.4450059e+3, 2.749802e+2, -608811.75, -394707.47, 16552.238, -0.03808044, 0.053799585, -393435.38, -148234.4, 0.0, 9.997392, 10.000228 
2.4449958e+3, 2.849805e+2, -543494.1, -237290.19, 15359.225, -0.04650976, 0.027926672, -236521.7, -89326.21, 0.0, 9.996843, 10.0009 
2.4449861e+3, 2.9498133e+2, -525929.9, -177692.19, 13371.118, -0.039440867, 0.020302454, -177179.53, -127994.21, 0.0, 9.99629, 10.000903 
2.4449758e+3, 3.0498257e+2, -501038.63, -32334.82, 9908.121, -0.05759378, 0.009061434, -32125.46, -32125.46, 0.0, 9.99566, 10.001868 
2.4449654e+3, 3.149843e+2, -603814.5, -81536.75, 8866.615, -0.10122814, -0.0060783452, -81386.266, -81386.266, 0.0, 9.994954, 10.00187 
2.4551758e+3, 1.2501398e+2, -1092120.5, -1704330.0, -23310.768, 0.19215304, 0.17306411, -1091234.1, 623644.9, 0.000037155667, 10.005526, 9.997411 
2.455164e+3, 1.3501115e+2, -1093433.4, -1654818.0, -22631.842, 0.14287588, 0.15100119, -1092522.5, 524383.44, 0.00001432478, 10.004846, 9.997406 
2.4551523e+3, 1.4500865e+2, -1055321.5, -1535843.6, -45976.293, 0.112796746, 0.13768104, -1050962.0, 467967.56, 0.0000023649923, 10.004219, 9.997851 
2.4551407e+3, 1.5500644e+2, -1040804.75, -1477975.4, -47897.25, 0.10290676, 0.1319156, -1035618.56, 385331.3, 0.00000003008015, 10.003645, 9.997853 
2.4551289e+3, 1.650043e+2, -1015158.7, -1404273.9, -46210.316, 0.08791465, 0.12915082, -1009746.2, 313224.34, 0.0, 10.003102, 9.997948 
2.455117e+3, 1.7500226e+2, -991603.0, -1342034.9, -43610.89, 0.0678419, 0.12922089, -986257.2, 238734.16, 0.0, 10.00259, 9.997949 
2.455105e+3, 1.8500045e+2, -967692.06, -1273232.8, -54731.66, 0.050485123, 0.15033829, -958183.8, 168827.03, 0.0, 10.002053, 9.998008 
2.4550928e+3, 1.9499886e+2, -951537.0, -1214560.0, -55869.543, 0.035820853, 0.19229944, -940161.56, 88867.4, 0.0, 10.001491, 9.998009 
2.4550807e+3, 2.0499724e+2, -899812.3, -1085399.1, -45543.758, 0.020127151, 0.20523454, -889238.2, 41808.043, 0.0, 10.000942, 9.9984865 
2.4550691e+3, 2.1499555e+2, -879448.06, -1024658.0, -43464.813, 0.003433008, 0.1889328, -867432.25, -34369.652, 0.0, 10.000409, 9.998487 
2.4550574e+3, 2.2499424e+2, -816654.44, -880907.7, -20049.377, -0.007943573, 0.18186006, -810911.56, -75836.91, 0.0, 9.999897, 9.999048 
2.4550463e+3, 2.3499331e+2, -789867.0, -817006.2, -21868.754, -0.01402416, 0.18382981, -777699.9, -140617.64, 0.0, 9.999407, 9.99905 
2.4550354e+3, 2.4499236e+2, -741142.06, -708808.1, -11253.144, -0.016060064, 0.16931412, -705277.25, -166187.14, 0.0, 9.998922, 9.999353 
2.4550247e+3, 2.5499138e+2, -712730.1, -644110.56, -13462.106, -0.014004985, 0.13812445, -641564.0, -200465.84, 0.0, 9.998445, 9.999355 
2.455014e+3, 2.6499087e+2, -626313.8, -451598.3, -4651.2285, -0.02443226, 0.10687106, -451474.56, -108373.58, 0.0, 9.997933, 10.00025 
2.4550031e+3, 2.7499083e+2, -607050.1, -391234.16, -3838.4575, -0.04741588, 0.07534106, -391165.9, -146067.33, 0.0, 9.997392, 10.000252 
2.4549927e+3, 2.8499115e+2, -546908.9, -244564.78, -5510.045, -0.051720176, 0.053356793, -244464.39, -97371.46, 0.0, 9.996844, 10.00085 
2.4549823e+3, 2.9499185e+2, -529386.4, -185042.83, -7492.536, -0.037219204, 0.04080256, -184879.88, -135795.83, 0.0, 9.99629, 10.000853 
2.4549714e+3, 3.049931e+2, -502724.88, -36007.88, -16733.32, -0.055074077, 0.031766426, -35408.703, -35408.703, 0.0, 9.995661, 10.001843 
2.4549602e+3, 3.149949e+2, -605542.7, -85245.12, -17780.709, -0.10547124, 0.026035137, -84638.18, -84638.18, 0.0, 9.994954, 10.001845 
2.4651812e+3, 1.2502529e+2, -1082542.8, -1697002.0, 2741.3342, 0.1848123, 0.19111317, -1082530.5, 632239.56, 0.00004175775, 10.00558, 9.997435 
2.465169e+3, 1.3502254e+2, -1091866.0, -1651318.6, 2539.1238, 0.140758, 0.17320263, -1091854.5, 524941.7, 0.000016357038, 10.004846, 9.99743 
2.4651568e+3, 1.4502004e+2, -1061931.3, -1542582.3, -15720.622, 0.11452493, 0.16034968, -1061417.6, 457402.28, 0.0000027743267, 10.0041895, 9.997819 
2.4651442e+3, 1.5501775e+2, -1047924.25, -1485033.4, -16443.246, 0.10689373, 0.15149973, -1047306.56, 373534.6, 0.000000040276323, 10.0036125, 9.99782 
2.4651319e+3, 1.6501562e+2, -1015243.75, -1397719.0, -12059.645, 0.08908499, 0.14752693, -1014863.94, 307997.8, 0.0, 10.003074, 9.998006 
2.4651194e+3, 1.7501363e+2, -990062.9, -1334771.3, -10453.533, 0.061156966, 0.14818183, -989746.2, 235135.47, 0.0, 10.002574, 9.998007 
2.465107e+3, 1.8501182e+2, -966357.75, -1273119.0, -22469.438, 0.041282166, 0.16886723, -964720.7, 162180.17, 0.0, 10.002066, 9.998002 
2.4650942e+3, 1.9501024e+2, -943451.4, -1211217.6, -21893.852, 0.029421642, 0.20934728, -941673.06, 87246.35, 0.0, 10.00155, 9.998003 
2.4650818e+3, 2.0500861e+2, -887028.06, -1076596.3, -11972.18, 0.017329266, 0.22237755, -886274.94, 44661.637, 0.0, 10.0010195, 9.998509 
2.4650693e+3, 2.1500698e+2, -868086.25, -1016583.5, -12478.592, 0.0050318213, 0.20781952, -867044.94, -34092.555, 0.0, 10.000476, 9.99851 
2.4650574e+3, 2.2500566e+2, -814794.9, -887251.06, 10089.867, -0.004234479, 0.20295654, -813416.0, -78451.56, 0.0, 9.999942, 9.998983 
2.4650459e+3, 2.3500468e+2, -793350.7, -825968.7, 6814.0093, -0.010503275, 0.20762628, -791984.44, -155011.63, 0.0, 9.999415, 9.998984 
2.4650344e+3, 2.4500367e+2, -739335.6, -706427.06, 21048.945, -0.014651924, 0.18975407, -696164.3, -157183.1, 0.0, 9.998929, 9.999367 
2.4650232e+3, 2.5500262e+2, -706072.3, -639418.9, 24008.303, -0.016684297, 0.14916182, -631671.6, -190682.0, 0.0, 9.998484, 9.999368 
2.4650119e+3, 2.650021e+2, -624987.7, -455936.97, 28798.135, -0.027079843, 0.11896319, -451165.78, -108173.29, 0.0, 9.997965, 10.000205 
2.4650007e+3, 2.750021e+2, -613167.0, -399218.06, 24320.482, -0.04584776, 0.09896769, -396488.28, -151498.47, 0.0, 9.997372, 10.000207 
2.4649896e+3, 2.8500244e+2, -555692.06, -251829.81, 21249.775, -0.048943937, 0.08041273, -250350.95, -103366.56, 0.0, 9.996798, 10.000822 
2.4649785e+3, 2.950031e+2, -538607.8, -192559.39, 20882.924, -0.036271345, 0.06315042, -191303.72, -142327.47, 0.0, 9.996241, 10.000824 
2.464967e+3, 3.0500427e+2, -506692.63, -40933.906, 7963.279, -0.05662842, 0.05257827, -40797.797, -40797.797, 0.0, 9.995646, 10.001816 
2.4649552e+3, 3.1500605e+2, -598583.5, -84919.016, 6661.024, -0.110097736, 0.048544385, -84832.66, -84832.66, 0.0, 9.995015, 10.001818 
2.4751867e+3, 1.250373e+2, -1082399.9, -1695885.3, -24608.65, 0.17672239, 0.20806313, -1081414.4, 633240.1, 0.00004620054, 10.005576, 9.997444 
2.4751738e+3, 1.3503467e+2, -1091357.6, -1649997.9, -24789.107, 0.1382387, 0.20261426, -1090259.9, 526419.5, 0.000018354825, 10.004844, 9.997439 
2.475161e+3, 1.4503214e+2, -1063262.8, -1545343.4, -37134.445, 0.1158918, 0.18812889, -1060419.1, 458284.03, 0.0000031992035, 10.004189, 9.997801 
2.475148e+3, 1.550297e+2, -1049249.8, -1487801.8, -37813.32, 0.11029801, 0.16379738, -1046013.25, 374712.8, 0.000000050261473, 10.003612, 9.997802 
2.475135e+3, 1.6502756e+2, -1012248.2, -1391417.3, -30573.389, 0.09150299, 0.15823631, -1009798.8, 312947.78, 0.0, 10.003073, 9.99805 
2.475122e+3, 1.7502573e+2, -987237.9, -1328642.6, -29042.945, 0.05964754, 0.17104591, -984784.8, 239980.03, 0.0, 10.002572, 9.99805 
2.475109e+3, 1.8502398e+2, -965402.8, -1270922.3, -41674.977, 0.037864774, 0.19243409, -959820.06, 166963.64, 0.0, 10.002064, 9.998018 
2.4750957e+3, 1.9502228e+2, -942350.75, -1208944.3, -41091.62, 0.026054058, 0.22214629, -936160.75, 92642.34, 0.0, 10.001549, 9.998019 
2.4750827e+3, 2.0502067e+2, -887808.06, -1078408.6, -32258.686, 0.015756037, 0.23561119, -882496.4, 48323.84, 0.0, 10.0010195, 9.998497 
2.4750698e+3, 2.1501912e+2, -868767.75, -1018346.1, -32754.363, 0.006980726, 0.23276736, -861909.75, -29074.697, 0.0, 10.000477, 9.998498 
2.4750574e+3, 2.2501779e+2, -820572.3, -899639.9, -9618.555, -0.0022484346, 0.23015176, -819419.06, -84571.54, 0.0, 9.999943, 9.998898 
2.4750452e+3, 2.3501666e+2, -799133.5, -838352.06, -12876.377, -0.011956384, 0.22760129, -795283.75, -158426.11, 0.0, 9.999416, 9.998899 
2.4750333e+3, 2.4501559e+2, -733528.7, -694700.4, 4359.5254, -0.016785877, 0.20447463, -694216.94, -155350.56, 0.0, 9.99893, 9.999447 
2.4750215e+3, 2.550146e+2, -700304.4, -627686.4, 7278.3076, -0.016760787, 0.1606828, -626964.06, -186090.5, 0.0, 9.998485, 9.999449 
2.4750097e+3, 2.650141e+2, -633091.94, -472954.13, 6485.4463, -0.022296771, 0.1341784, -472691.9, -129815.55, 0.0, 9.997965, 10.000088 
2.4749981e+3, 2.7501407e+2, -621243.75, -416168.84, 1978.8073, -0.03338011, 0.124680385, -416149.75, -171275.05, 0.0, 9.997373, 10.000091 
2.4749863e+3, 2.8501436e+2, -556124.8, -252927.25, 270.23846, -0.038189072, 0.109102055, -252927.02, -106057.11, 0.0, 9.996798, 10.000815 
2.4749748e+3, 2.9501495e+2, -539047.3, -193674.17, -128.51251, -0.036639135, 0.087359145, -193674.13, -144812.19, 0.0, 9.996242, 10.000816 
2.4749626e+3, 3.0501607e+2, -508824.75, -45624.133, -15813.21, -0.06229877, 0.07144959, -45084.914, -45084.914, 0.0, 9.995647, 10.001783 
2.4749503e+3, 3.1501776e+2, -600624.9, -89512.57, -17101.443, -0.11512892, 0.06174892, -88941.01, -88941.01, 0.0, 9.995016, 10.001786 
2.4851921e+3, 1.2505001e+2, -1095968.5, -1703800.1, 1984.789, 0.17432359, 0.22616357, -1095962.0, 618569.6, 0.000050369552, 10.005489, 9.997432 
2.4851784e+3, 1.3504739e+2, -1091552.1, -1651369.3, 174.02875, 0.13639976, 0.22330056, -1091552.0, 525004.44, 0.000020235993, 10.0048485, 9.997428 
2.485165e+3, 1.4504486e+2, -1055719.4, -1539537.4, -7879.964, 0.11528519, 0.20746797, -1055591.0, 462989.34, 0.0000036171837, 10.004232, 9.99782 
2.4851516e+3, 1.5504238e+2, -1043854.5, -1483048.0, -5922.395, 0.111410275, 0.17806076, -1043774.7, 376828.7, 0.000000059187286, 10.00364, 9.99782 
2.4851382e+3, 1.6504025e+2, -1015122.3, -1392006.1, 2655.4949, 0.09318267, 0.173238, -1015103.56, 307520.16, 0.0, 10.003051, 9.998056 
2.4851245e+3, 1.750385e+2, -1002817.44, -1335403.9, 1416.6615, 0.0608063, 0.1924584, -1002811.4, 221830.13, 0.0, 10.002462, 9.998055 
2.485111e+3, 1.8503676e+2, -980837.6, -1274528.6, -9677.296, 0.039190345, 0.21370588, -980519.1, 146141.05, 0.0, 10.001942, 9.998052 
2.4850973e+3, 1.9503504e+2, -948839.25, -1208284.1, -7850.544, 0.028196625, 0.23673524, -948601.9, 80077.81, 0.0, 10.001489, 9.998053 
2.485084e+3, 2.0503342e+2, -888881.06, -1082706.0, -23.00759, 0.01910795, 0.25044358, -888881.06, 41815.75, 0.0, 10.001029, 9.998463 
2.4850705e+3, 2.1503192e+2, -858527.25, -1017222.7, -2181.695, 0.011930861, 0.25480798, -858497.3, -25785.885, 0.0, 10.000565, 9.998464 
2.4850574e+3, 2.2503051e+2, -804365.44, -896266.8, 21034.363, 0.0016970453, 0.25074837, -799779.9, -65055.465, 0.0, 10.000073, 9.9988575 
2.4850447e+3, 2.3502925e+2, -781530.5, -834300.3, 21108.625, -0.011589653, 0.23818521, -774125.8, -137389.95, 0.0, 9.999557, 9.998859 
2.4850322e+3, 2.4502817e+2, -719719.1, -686510.0, 38129.582, -0.016864348, 0.21510823, -661526.4, -122781.766, 0.0, 9.999019, 9.99946 
2.48502e+3, 2.550273e+2, -702938.9, -627388.75, 36002.89, -0.014203541, 0.18137835, -612979.9, -172229.14, 0.0, 9.99846, 9.999462 
2.4850078e+3, 2.650268e+2, -646750.8, -487558.66, 31726.031, -0.017691577, 0.15828918, -481468.8, -138715.19, 0.0, 9.997907, 10.000016 
2.4849956e+3, 2.7502668e+2, -628452.7, -427612.6, 30522.57, -0.02726746, 0.14562695, -423076.38, -178323.02, 0.0, 9.997357, 10.000019 
2.4849832e+3, 2.850269e+2, -554767.5, -251981.05, 31355.16, -0.034988094, 0.12895742, -248768.14, -102019.02, 0.0, 9.996806, 10.000817 
2.484971e+3, 2.9502752e+2, -537326.44, -192555.63, 31519.738, -0.040786415, 0.108160675, -189697.72, -140956.83, 0.0, 9.996252, 10.000819 
2.4849583e+3, 3.0502862e+2, -507625.94, -43217.605, 14649.0205, -0.06511361, 0.088868625, -42755.984, -42755.984, 0.0, 9.995648, 10.001799 
2.4849454e+3, 3.1503025e+2, -602609.1, -88577.17, 16961.3, -0.10792242, 0.072590984, -88018.12, -88018.12, 0.0, 9.994995, 10.001802 
2.4951978e+3, 1.2506343e+2, -1099088.4, -1709498.0, -21944.666, 0.1771801, 0.24536338, -1098300.5, 616101.3, 0.000054194537, 10.005486, 9.997395 
2.4951833e+3, 1.3506071e+2, -1094361.9, -1656766.3, -23621.07, 0.13517271, 0.23584089, -1093371.5, 523056.28, 0.000021952845, 10.004846, 9.997393 
2.4951692e+3, 1.4505817e+2, -1052278.3, -1532200.1, -29818.977, 0.112829424, 0.2189529, -1050432.6, 468019.03, 0.000004013604, 10.0042305, 9.997871 
2.4951553e+3, 1.5505579e+2, -1040314.5, -1475724.9, -27937.604, 0.1103577, 0.19424787, -1038529.2, 381944.16, 0.00000006894133, 10.00364, 9.99787 
2.4951412e+3, 1.6505371e+2, -1017246.3, -1396605.4, -19272.549, 0.09416662, 0.19232322, -1016269.7, 306223.7, 0.0, 10.003051, 9.998025 
2.495127e+3, 1.7505193e+2, -1004843.4, -1339961.9, -20501.201, 0.06450592, 0.21249445, -1003593.9, 220917.83, 0.0, 10.002463, 9.998025 
2.495113e+3, 1.8505019e+2, -977233.4, -1267456.4, -26548.055, 0.04504811, 0.23281181, -974824.9, 151705.47, 0.0, 10.001944, 9.9981 
2.4950989e+3, 1.9504848e+2, -945301.7, -1201283.8, -24773.457, 0.03563711, 0.25307855, -942926.2, 85623.13, 0.0, 10.00149, 9.9981 
2.495085e+3, 2.0504686e+2, -892822.06, -1091193.9, -17394.424, 0.027210673, 0.26682836, -891308.4, 39258.035, 0.0, 10.00103, 9.9984045 
2.495071e+3, 2.1504533e+2, -862433.5, -1025634.7, -19540.354, 0.019785069, 0.2740241, -860126.5, -27544.93, 0.0, 10.000566, 9.998405 
2.4950576e+3, 2.2504385e+2, -804109.94, -896022.5, 1677.1644, 0.007547934, 0.26488698, -804079.4, -69484.07, 0.0, 10.000074, 9.998859 
2.4950442e+3, 2.3504247e+2, -781252.1, -834015.44, 1737.5023, -0.009445998, 0.23952398, -781194.94, -144587.44, 0.0, 9.9995575, 9.998861 
2.4950312e+3, 2.4504142e+2, -723426.7, -694491.06, 17133.248, -0.014916193, 0.22176015, -686534.2, -147918.1, 0.0, 9.99902, 9.999405 
2.4950185e+3, 2.550407e+2, -706642.0, -635345.5, 14978.573, -0.009035146, 0.21123119, -632326.5, -191705.42, 0.0, 9.998461, 9.999408 
2.4950059e+3, 2.650402e+2, -648722.0, -491898.28, 11060.802, -0.013292685, 0.19121236, -491122.03, -148497.67, 0.0, 9.997907, 9.999986 
2.4949929e+3, 2.7503988e+2, -630386.44, -431846.4, 9840.624, -0.027544694, 0.1617426, -431359.84, -186734.0, 0.0, 9.997358, 9.9999895 
2.49498e+3, 2.8504005e+2, -554017.25, -250663.88, 10472.422, -0.039379973, 0.13994488, -250302.78, -103680.695, 0.0, 9.996807, 10.000826 
2.494967e+3, 2.9504073e+2, -536562.8, -191236.84, 10622.757, -0.04874672, 0.12554385, -190910.38, -142297.3, 0.0, 9.996253, 10.000828 
2.4949539e+3, 3.0504188e+2, -503073.8, -34088.59, -9966.716, -0.06499885, 0.10480322, -33876.88, -33876.88, 0.0, 9.995649, 10.001862 
2.4949405e+3, 3.1504348e+2, -598054.9, -79458.086, -7515.1875, -0.0881326, 0.08093859, -79349.2, -79349.2, 0.0, 9.994996, 10.001864 
2.5052032e+3, 1.2507753e+2, -1111869.0, -1713073.1, 1771.198, 0.17769033, 0.268605, -1111863.9, 602401.6, 0.00005767649, 10.005387, 9.997417 
2.5051883e+3, 1.3507472e+2, -1101139.5, -1657379.9, 4312.5737, 0.13832955, 0.24724683, -1101106.1, 515186.03, 0.000023515835, 10.004788, 9.997416 
2.5051737e+3, 1.4507216e+2, -1054783.1, -1533055.5, 121.010735, 0.11706801, 0.22850686, -1054783.1, 463532.84, 0.000004388267, 10.004212, 9.997873 
2.505159e+3, 1.5506986e+2, -1037425.9, -1474042.0, -1607.0193, 0.114004895, 0.21174248, -1037419.94, 382917.03, 0.000000081159435, 10.003659, 9.997872 
2.5051442e+3, 1.6506779e+2, -1009477.9, -1393662.5, 6239.1616, 0.0958323, 0.21170467, -1009376.56, 312980.3, 0.0, 10.003108, 9.998017 
2.5051296e+3, 1.7506596e+2, -991409.06, -1334327.6, 6629.771, 0.06291488, 0.22778292, -991280.94, 233094.8, 0.0, 10.00256, 9.998016 
2.505115e+3, 1.8506421e+2, -962133.9, -1258756.6, 3608.5164, 0.043448597, 0.24655262, -962090.0, 164304.42, 0.0, 10.002042, 9.998112 
2.5051004e+3, 1.9506252e+2, -935364.5, -1195088.5, 2682.857, 0.0371226, 0.2677218, -935336.8, 93076.16, 0.0, 10.001553, 9.998112 
2.505086e+3, 2.0506088e+2, -888946.9, -1092250.6, 9863.816, 0.031359944, 0.28077194, -888469.44, 41960.734, 0.0, 10.00107, 9.998378 
2.5050718e+3, 2.150593e+2, -860157.94, -1027469.5, 9968.465, 0.02618038, 0.28576872, -859566.1, -27120.168, 0.0, 10.000594, 9.998379 
2.5050578e+3, 2.250578e+2, -800335.75, -894505.44, 30478.36, 0.014687336, 0.27509034, -791332.1, -56872.24, 0.0, 10.000102, 9.998856 
2.505044e+3, 2.3505639e+2, -776253.75, -831953.0, 30072.213, -0.0029949164, 0.24886341, -763116.3, -126644.23, 0.0, 9.999594, 9.9988575 
2.5050303e+3, 2.4505533e+2, -720517.25, -701796.2, 43215.703, -0.011589757, 0.23432039, -666938.9, -128457.945, 0.0, 9.999078, 9.999327 
2.5050172e+3, 2.5505462e+2, -698651.25, -640127.94, 39201.633, -0.011238689, 0.2310756, -620471.2, -179984.67, 0.0, 9.998553, 9.99933 
2.5050038e+3, 2.6505408e+2, -630396.3, -481655.88, 36070.65, -0.01695775, 0.21119073, -473370.06, -130879.88, 0.0, 9.998027, 9.999998 
2.50499e+3, 2.7505368e+2, -609060.0, -420145.16, 37923.0, -0.028697914, 0.17482346, -412816.72, -168324.78, 0.0, 9.9974985, 10.000002 
2.5049767e+3, 2.8505385e+2, -540959.3, -245105.97, 36671.324, -0.040230714, 0.15251334, -240628.3, -94140.1, 0.0, 9.996901, 10.000819 
2.5049633e+3, 2.9505458e+2, -540049.94, -193685.92, 35445.867, -0.05144685, 0.14382169, -190095.7, -141616.7, 0.0, 9.996233, 10.00082 
2.5049496e+3, 3.0505577e+2, -511159.3, -33045.855, 11787.677, -0.064411476, 0.1247354, -32755.412, -32755.412, 0.0, 9.995573, 10.001905 
2.5049356e+3, 3.150574e+2, -606039.44, -78376.62, 12824.731, -0.07910917, 0.10041394, -78065.1, -78065.1, 0.0, 9.994921, 10.001908 
2.5152084e+3, 1.2509228e+2, -1106890.6, -1702333.6, -20661.121, 0.1760065, 0.29556832, -1106174.5, 607948.3, 0.000060794788, 10.005384, 9.997492 
2.5151932e+3, 1.3508938e+2, -1096179.0, -1646724.8, -18102.637, 0.1455761, 0.2576213, -1095584.4, 520565.34, 0.00002493206, 10.0047865, 9.99749 
2.5151777e+3, 1.4508682e+2, -1058213.1, -1539943.6, -20586.36, 0.12754966, 0.23631595, -1057335.0, 460838.5, 0.0000047402677, 10.004211, 9.997828 
2.5151625e+3, 1.5508458e+2, -1040709.8, -1480882.1, -22282.174, 0.12205462, 0.23050247, -1039584.75, 380609.63, 0.00000009528132, 10.003658, 9.997827 
2.5151473e+3, 1.650825e+2, -1008576.2, -1391990.9, -14248.457, 0.098112024, 0.23136222, -1008047.44, 314166.94, 0.0, 10.003109, 9.998029 
2.515132e+3, 1.750806e+2, -990464.0, -1332727.8, -13856.506, 0.056268405, 0.23856743, -989903.94, 234329.67, 0.0, 10.002561, 9.998027 
2.515117e+3, 1.8507881e+2, -963651.94, -1262340.5, -14678.906, 0.03472418, 0.25521103, -962932.3, 163320.14, 0.0, 10.002043, 9.998087 
2.515102e+3, 1.9507714e+2, -936891.0, -1198681.0, -15605.273, 0.032883007, 0.28077012, -935964.06, 92306.69, 0.0, 10.001554, 9.998087 
2.515087e+3, 2.0507547e+2, -888629.1, -1092033.9, -7965.184, 0.031692553, 0.29235402, -888317.7, 41970.47, 0.0, 10.001071, 9.998379 
2.5150725e+3, 2.1507382e+2, -859818.5, -1027239.44, -7859.3203, 0.03116545, 0.29023993, -859450.4, -27145.883, 0.0, 10.000596, 9.998381 
2.515058e+3, 2.2507234e+2, -800864.9, -896039.5, 11382.345, 0.023095839, 0.28150672, -799522.56, -65204.25, 0.0, 10.000103, 9.998845 
2.5150433e+3, 2.3507102e+2, -776860.1, -833594.3, 10970.309, 0.007698567, 0.2661295, -774812.75, -138483.2, 0.0, 9.999595, 9.998846 
2.5150296e+3, 2.4506992e+2, -727653.7, -716930.9, 23485.94, -0.006943836, 0.25266147, -698202.2, -159863.05, 0.0, 9.999079, 9.999223 
2.5150156e+3, 2.55069e+2, -705729.56, -655092.1, 19466.281, -0.020805966, 0.24091381, -648473.8, -208126.81, 0.0, 9.998554, 9.999227 
2.5150016e+3, 2.650684e+2, -626633.4, -474102.1, 16178.664, -0.02864915, 0.2182857, -472404.94, -130053.805, 0.0, 9.998028, 10.000051 
2.514988e+3, 2.750681e+2, -605291.44, -412600.94, 17969.7, -0.030709162, 0.18490241, -410939.47, -166587.86, 0.0, 9.997499, 10.000053 
2.5149736e+3, 2.8506836e+2, -542689.2, -248969.03, 11499.192, -0.03750974, 0.16667253, -248519.53, -102172.09, 0.0, 9.996901, 10.0007925 
2.5149596e+3, 2.950691e+2, -541776.2, -197506.28, 10245.34, -0.048812736, 0.1630039, -197201.66, -148863.0, 0.0, 9.996233, 10.000794 
2.514945e+3, 3.050703e+2, -509577.06, -30035.473, -12820.214, -0.063390724, 0.14877523, -29692.979, -29692.979, 0.0, 9.995573, 10.001926 
2.5149304e+3, 3.1507206e+2, -604419.75, -75291.0, -11554.267, -0.08118611, 0.13209443, -75038.82, -75038.82, 0.0, 9.994921, 10.001929 
2.525214e+3, 1.251075e+2, -1108351.4, -1695961.9, -3343.1924, 0.1774988, 0.31464, -1108332.4, 605643.2, 0.00006342485, 10.005345, 9.997555 
2.525198e+3, 1.3510466e+2, -1099909.4, -1641526.3, -1744.7678, 0.15128401, 0.27685666, -1099903.8, 516097.7, 0.000026144935, 10.004731, 9.997552 
2.525182e+3, 1.451021e+2, -1065154.0, -1544798.8, -802.59424, 0.13560376, 0.2534852, -1065152.8, 452872.4, 0.000005049759, 10.00417, 9.997813 
2.5251663e+3, 1.550998e+2, -1041458.4, -1482773.4, -289.0082, 0.13054326, 0.24351849, -1041458.2, 378588.3, 0.00000010963224, 10.003661, 9.997812 
2.5251508e+3, 1.650977e+2, -1001450.4, -1386818.5, 8981.968, 0.10478348, 0.24212632, -1001241.2, 320825.53, 0.0, 10.003151, 9.998044 
2.5251344e+3, 1.750958e+2, -977962.06, -1325073.3, 9522.099, 0.05903178, 0.24879922, -977701.06, 246384.58, 0.0, 10.002641, 9.998041 
2.525119e+3, 1.85094e+2, -951647.1, -1259479.3, 10038.2705, 0.03550383, 0.26429814, -951320.1, 174784.4, 0.0, 10.002138, 9.99806 
2.5251034e+3, 1.9509228e+2, -925521.75, -1196117.1, 8902.762, 0.033461638, 0.28813252, -925229.2, 102894.08, 0.0, 10.001645, 9.99806 
2.5250882e+3, 2.0509058e+2, -875131.56, -1087397.5, 16719.273, 0.03168462, 0.2982325, -873822.75, 56318.246, 0.0, 10.001173, 9.998362 
2.525073e+3, 2.150889e+2, -842778.6, -1020864.1, 15407.267, 0.03019614, 0.29488885, -841455.5, -9297.846, 0.0, 10.000721, 9.9983635 
2.525058e+3, 2.2508742e+2, -784973.3, -892833.8, 30709.395, 0.023088964, 0.28997573, -776842.8, -42671.35, 0.0, 10.000233, 9.998805 
2.5250432e+3, 2.3508614e+2, -763389.9, -831521.0, 28050.818, 0.010548761, 0.2833739, -753327.06, -117144.56, 0.0, 9.999707, 9.998806 
2.5250286e+3, 2.4508499e+2, -717013.25, -714874.8, 41333.773, -0.00483838, 0.26964897, -674596.44, -136403.84, 0.0, 9.999166, 9.999195 
2.5250143e+3, 2.5508398e+2, -699914.8, -655248.9, 42924.42, -0.02297713, 0.24888755, -629195.2, -188993.53, 0.0, 9.998608, 9.9992 
2.5249994e+3, 2.6508337e+2, -624278.8, -469065.16, 40828.223, -0.029970303, 0.22503912, -458980.7, -116774.836, 0.0, 9.998028, 10.000085 
2.5249854e+3, 2.7508315e+2, -613461.0, -412636.0, 41185.35, -0.026210226, 0.19804332, -404517.84, -160312.55, 0.0, 9.997427, 10.000088 
2.5249708e+3, 2.8508344e+2, -555164.8, -257888.14, 31392.016, -0.031629447, 0.18224931, -254609.34, -108408.38, 0.0, 9.996828, 10.000766 
2.524956e+3, 2.9508415e+2, -544128.56, -201520.53, 29981.877, -0.04581838, 0.17714861, -198916.58, -150723.67, 0.0, 9.99623, 10.000768 
2.5249407e+3, 3.0508533e+2, -497987.4, -26686.56, 6649.6543, -0.063139245, 0.1656604, -26592.76, -26592.76, 0.0, 9.995664, 10.001905 
2.5249252e+3, 3.1508717e+2, -575918.06, -63724.1, 4891.517, -0.08359583, 0.15893671, -63677.39, -63677.39, 0.0, 9.995127, 10.001909 
2.5352192e+3, 1.2512317e+2, -1105262.6, -1689238.5, -26182.982, 0.18188609, 0.3264893, -1104091.1, 609732.6, 0.000065397406, 10.005343, 9.997602 
2.5352025e+3, 1.3512053e+2, -1096508.4, -1634699.6, -24622.646, 0.15553737, 0.3043722, -1095384.3, 520463.34, 0.000027060294, 10.004731, 9.997599 
2.5351864e+3, 1.4511798e+2, -1064019.0, -1542903.5, -19854.281, 0.14139755, 0.27932066, -1063197.3, 454673.63, 0.000005284671, 10.004172, 9.997826 
2.53517e+3, 1.5511551e+2, -1040295.8, -1480845.1, -19333.334, 0.13944775, 0.25111085, -1039449.0, 380444.6, 0.00000012215878, 10.003662, 9.997825 
2.535154e+3, 1.6511337e+2, -1000222.44, -1384634.0, -10124.453, 0.11560948, 0.24456903, -999955.94, 321957.97, 0.0, 10.003152, 9.998058 
2.5351375e+3, 1.7511158e+2, -976894.8, -1323058.3, -9631.936, 0.070738465, 0.25856566, -976627.0, 247304.83, 0.0, 10.002641, 9.998055 
2.535121e+3, 1.8510973e+2, -953788.1, -1264115.3, -8508.696, 0.045333326, 0.27378994, -953555.0, 172395.78, 0.0, 10.002139, 9.998029 
2.5351053e+3, 1.9510792e+2, -927598.56, -1200736.5, -9610.658, 0.038644142, 0.29003236, -927260.8, 100709.73, 0.0, 10.001646, 9.998029 
2.5350893e+3, 2.0510617e+2, -877581.25, -1092862.5, -241.0825, 0.031319883, 0.29864898, -877581.0, 52407.734, 0.0, 10.001174, 9.998323 
2.5350738e+3, 2.151045e+2, -845242.5, -1026384.6, -1551.8777, 0.023412814, 0.29975876, -845229.2, -13223.844, 0.0, 10.000723, 9.998325 
2.535058e+3, 2.2510302e+2, -789823.6, -903253.94, 10957.938, 0.014856042, 0.3004638, -788774.7, -54755.285, 0.0, 10.000234, 9.9987335 
2.535043e+3, 2.3510174e+2, -768200.06, -841810.25, 8316.487, 0.005689786, 0.30060193, -767272.1, -131241.16, 0.0, 9.999708, 9.998735 
2.535028e+3, 2.4510057e+2, -713757.94, -708371.6, 20335.225, -0.0052029435, 0.28530428, -690552.0, -152510.63, 0.0, 9.999166, 9.99924 
2.5350127e+3, 2.550995e+2, -696634.7, -648671.3, 21894.346, -0.017756663, 0.25501487, -640180.2, -200129.66, 0.0, 9.998608, 9.999246 
2.5349978e+3, 2.6509893e+2, -623190.4, -467040.3, 18190.379, -0.02094324, 0.2314747, -464949.28, -122894.93, 0.0, 9.998028, 10.000098 
2.5349826e+3, 2.7509886e+2, -612364.0, -410572.34, 18529.121, -0.015190306, 0.21426879, -408885.06, -164832.08, 0.0, 9.997428, 10.000102 
2.5349677e+3, 2.850991e+2, -557152.75, -262242.0, 8824.581, -0.022581525, 0.19922037, -261978.17, -115929.4, 0.0, 9.996829, 10.000736 
2.5349522e+3, 2.950997e+2, -546070.9, -205854.58, 7425.3574, -0.042477243, 0.18613796, -205692.6, -157650.83, 0.0, 9.996231, 10.000738 
2.5349364e+3, 3.0510086e+2, -502308.63, -36201.363, -13564.08, -0.06367962, 0.17522763, -35806.973, -35806.973, 0.0, 9.995665, 10.00184 
2.5349203e+3, 3.1510276e+2, -580016.7, -73044.13, -15092.04, -0.086322784, 0.18118541, -72595.25, -72595.25, 0.0, 9.99513, 10.001844 
2.5452247e+3, 1.251394e+2, -1110939.6, -1694224.5, -498.3144, 0.18901287, 0.3311241, -1110939.1, 602726.5, 0.00006659951, 10.005315, 9.9975815 
2.5452074e+3, 1.3513686e+2, -1089366.8, -1633376.5, -3812.801, 0.16148119, 0.3199047, -1089340.0, 526349.0, 0.000027616177, 10.00479, 9.997579 
2.5451908e+3, 1.4513431e+2, -1047453.8, -1532000.5, 1102.6757, 0.14809886, 0.29546118, -1047451.3, 470260.88, 0.000005427109, 10.004273, 9.997851 
2.5451738e+3, 1.5513177e+2, -1023813.94, -1470071.1, 2393.399, 0.14870165, 0.25817406, -1023801.1, 395934.03, 0.00000013037686, 10.003764, 9.997849 
2.545157e+3, 1.6512962e+2, -991300.5, -1382728.4, 9434.155, 0.12652065, 0.24989714, -991073.25, 330682.28, 0.0, 10.003224, 9.998036 
2.54514e+3, 1.7512783e+2, -976374.44, -1325264.9, 7174.1772, 0.082557485, 0.26902747, -976227.0, 247546.31, 0.0, 10.002655, 9.998033 
2.5451234e+3, 1.85126e+2, -954440.0, -1266130.5, 9837.343, 0.055357687, 0.28467733, -954129.8, 171662.55, 0.0, 10.002142, 9.998013 
2.545107e+3, 1.9512413e+2, -923502.9, -1200505.1, 9770.959, 0.044194583, 0.2968497, -923158.6, 104653.97, 0.0, 10.001682, 9.998013 
2.5450906e+3, 2.0512235e+2, -870727.8, -1092878.1, 21149.863, 0.033740636, 0.30437347, -868732.2, 61098.977, 0.0, 10.001236, 9.998294 
2.5450745e+3, 2.1512066e+2, -835626.7, -1025035.3, 20253.738, 0.023963101, 0.30729717, -833485.1, -1637.1556, 0.0, 10.000803, 9.998295 
2.5450584e+3, 2.2511916e+2, -781324.44, -902757.7, 30703.361, 0.015143168, 0.31027994, -774002.8, -40140.457, 0.0, 10.000308, 9.9987 
2.5450426e+3, 2.3511787e+2, -764010.06, -843281.44, 30857.596, 0.007292802, 0.31314975, -753414.5, -117540.26, 0.0, 9.999752, 9.998703 
2.5450268e+3, 2.451167e+2, -711250.7, -703491.7, 42020.973, -0.0015536897, 0.2975887, -665171.5, -127286.82, 0.0, 9.999167, 9.999271 
2.5450113e+3, 2.5511563e+2, -702002.9, -647552.9, 42560.3, -0.01134737, 0.26420954, -624254.8, -184361.16, 0.0, 9.998555, 9.999278 
2.5449958e+3, 2.6511508e+2, -625917.3, -469520.8, 39143.21, -0.015740136, 0.2426413, -460271.06, -118373.77, 0.0, 9.998015, 10.000088 
2.5449803e+3, 2.7511504e+2, -596377.6, -403966.75, 37442.03, -0.015036481, 0.2322453, -396937.53, -153041.8, 0.0, 9.997542, 10.000092 
2.5449643e+3, 2.8511533e+2, -531901.06, -247710.75, 25845.219, -0.023709102, 0.21820962, -245379.42, -99488.0, 0.0, 9.996992, 10.000757 
2.5449485e+3, 2.951159e+2, -524851.8, -193397.88, 28095.428, -0.041261274, 0.20059769, -191033.25, -143148.89, 0.0, 9.996367, 10.000757 
2.544932e+3, 3.05117e+2, -495262.7, -38750.496, 10310.276, -0.059213467, 0.18647693, -38517.758, -38517.758, 0.0, 9.99574, 10.001785 
2.5449157e+3, 3.1511888e+2, -586795.56, -82180.7, 9855.408, -0.07786364, 0.19432978, -81988.29, -81988.29, 0.0, 9.995109, 10.001791 
2.55523e+3, 1.251562e+2, -1116729.8, -1706752.6, -19991.588, 0.19860576, 0.32921052, -1116053.3, 597448.3, 0.00006699774, 10.005316, 9.997496 
2.5552124e+3, 1.3515362e+2, -1095002.4, -1645624.8, -23273.291, 0.16897956, 0.32438254, -1094020.4, 521505.38, 0.000027802193, 10.004792, 9.997495 
2.5551948e+3, 1.451511e+2, -1044760.44, -1526959.1, -17856.445, 0.15564522, 0.30264953, -1044100.06, 473448.9, 0.0000054808283, 10.004275, 9.997886 
2.5551778e+3, 1.5514858e+2, -1021200.44, -1465270.5, -16699.805, 0.15827715, 0.2648072, -1020573.3, 398997.94, 0.00000013330308, 10.003766, 9.997882 
2.5551605e+3, 1.6514643e+2, -995145.25, -1391352.8, -11880.829, 0.13750581, 0.25795922, -994789.3, 326802.28, 0.0, 10.003226, 9.997977 
2.555143e+3, 1.7514461e+2, -980158.75, -1333821.4, -14086.311, 0.094474226, 0.2801595, -979598.6, 244011.4, 0.0, 10.002658, 9.9979725 
2.5551257e+3, 1.8514274e+2, -954367.0, -1266660.4, -7422.5977, 0.0655595, 0.29692876, -954190.7, 171438.69, 0.0, 10.002145, 9.998009 
2.5551087e+3, 1.9514087e+2, -923515.44, -1201118.0, -7477.8027, 0.05009508, 0.30842033, -923314.1, 104335.42, 0.0, 10.001684, 9.998008 
2.5550917e+3, 2.0513906e+2, -872331.8, -1096626.0, 4920.0176, 0.038869597, 0.31523174, -872223.94, 57444.313, 0.0, 10.001237, 9.998267 
2.5550753e+3, 2.1513733e+2, -837316.56, -1028775.7, 3988.7473, 0.031657185, 0.3174377, -837233.5, -5547.976, 0.0, 10.000804, 9.998269 
2.555059e+3, 2.2513582e+2, -781089.2, -902444.56, 9830.996, 0.023749743, 0.31943846, -780297.94, -46597.707, 0.0, 10.000308, 9.998703 
2.5550425e+3, 2.3513454e+2, -763692.2, -842867.94, 9965.391, 0.015237833, 0.32108706, -762457.2, -126744.81, 0.0, 9.999753, 9.998706 
2.555026e+3, 2.4513336e+2, -709957.0, -701075.75, 18982.785, 0.0060491487, 0.30657622, -686021.1, -148298.44, 0.0, 9.999168, 9.999289 
2.55501e+3, 2.5513235e+2, -700703.6, -645120.5, 19559.324, -0.0037722825, 0.27648622, -638927.7, -199196.58, 0.0, 9.998556, 9.999294 
2.554994e+3, 2.6513183e+2, -628546.75, -475263.7, 21341.846, -0.014410301, 0.2585303, -472347.7, -130613.03, 0.0, 9.998015, 10.000048 
2.5549778e+3, 2.751318e+2, -598842.0, -409422.4, 19538.555, -0.025869071, 0.2519736, -407428.03, -163694.42, 0.0, 9.997543, 10.000054 
2.5549614e+3, 2.8513208e+2, -526926.3, -237783.31, 2262.3472, -0.035114575, 0.23925568, -237765.61, -92036.695, 0.0, 9.996993, 10.000825 
2.5549448e+3, 2.9513273e+2, -519964.4, -183721.22, 4531.3257, -0.042178713, 0.22064401, -183660.16, -135939.48, 0.0, 9.996369, 10.000824 
2.554928e+3, 3.051338e+2, -498137.22, -45241.285, -13506.764, -0.04958362, 0.19938959, -44838.83, -44838.83, 0.0, 9.995741, 10.00174 
2.5549108e+3, 3.151355e+2, -589668.7, -88566.19, -13576.716, -0.05781875, 0.19868974, -88198.61, -88198.61, 0.0, 9.99511, 10.001747 
2.5652355e+3, 1.251737e+2, -1106340.1, -1708420.0, 3874.48, 0.2017349, 0.33994702, -1106315.3, 607015.6, 0.00006661462, 10.005417, 9.997435 
2.5652173e+3, 1.3517103e+2, -1084978.6, -1647356.4, 2335.9988, 0.17946425, 0.32972762, -1084969.0, 530387.44, 0.000027629632, 10.00489, 9.997436 
2.565199e+3, 1.4516844e+2, -1030801.0, -1522017.1, 7535.076, 0.1680272, 0.30814967, -1030685.44, 486694.63, 0.000005453984, 10.00438, 9.997869 
2.5651816e+3, 1.5516597e+2, -1005094.9, -1459396.3, 4949.007, 0.16750243, 0.27573135, -1005041.0, 414360.84, 0.00000013246245, 10.003885, 9.997864 
2.5651637e+3, 1.6516379e+2, -978549.44, -1388754.9, 6246.8965, 0.14461534, 0.2703893, -978454.3, 342968.06, 0.0, 10.003364, 9.997928 
2.5651458e+3, 1.751619e+2, -960413.44, -1329703.3, 4775.306, 0.10053519, 0.2902642, -960351.7, 263090.03, 0.0, 10.002817, 9.997924 
2.565128e+3, 1.8516003e+2, -931977.9, -1256981.8, 14645.018, 0.070403196, 0.30707926, -931319.25, 194142.19, 0.0, 10.002304, 9.997998 
2.5651103e+3, 1.9515812e+2, -904205.2, -1192878.0, 14042.603, 0.053472914, 0.32083422, -903523.7, 123957.836, 0.0, 10.0018215, 9.997997 
2.5650933e+3, 2.0515634e+2, -860358.3, -1089568.6, 27048.918, 0.042216174, 0.32910302, -857209.5, 72290.64, 0.0, 10.001315, 9.998279 
2.565076e+3, 2.1515463e+2, -839507.9, -1028498.0, 28722.982, 0.036301106, 0.33205637, -835238.94, -3721.5803, 0.0, 10.000784, 9.998281 
2.565059e+3, 2.2515313e+2, -785430.56, -901328.5, 34922.2, 0.027729006, 0.3337458, -775721.25, -42189.234, 0.0, 10.000265, 9.998731 
2.5650424e+3, 2.3515186e+2, -760968.25, -838362.94, 36837.66, 0.016706938, 0.33409074, -746238.06, -110693.99, 0.0, 9.999759, 9.9987335 
2.5650254e+3, 2.4515073e+2, -698727.3, -694922.4, 44844.816, 0.006158974, 0.32152307, -651939.7, -114385.586, 0.0, 9.999243, 9.999294 
2.5650084e+3, 2.5514975e+2, -676624.3, -632788.56, 44528.527, -0.0039372426, 0.2965423, -605076.0, -165513.97, 0.0, 9.998719, 9.9993 
2.564992e+3, 2.6514924e+2, -606251.25, -468449.28, 48204.992, -0.014825863, 0.27806816, -453260.63, -111694.734, 0.0, 9.998186, 10.000012 
2.5649753e+3, 2.7514908e+2, -586465.2, -407189.16, 46460.254, -0.026548028, 0.26563865, -395864.16, -152298.28, 0.0, 9.997645, 10.00002 
2.5649583e+3, 2.8514943e+2, -514009.25, -227318.38, 23709.969, -0.035318967, 0.2538472, -225370.75, -79809.68, 0.0, 9.997065, 10.000862 
2.564941e+3, 2.9515016e+2, -506214.53, -172917.81, 23509.041, -0.041122112, 0.2425557, -171267.78, -123716.164, 0.0, 9.996446, 10.00086 
2.5649238e+3, 3.0515116e+2, -483704.72, -38254.305, 6290.617, -0.04628026, 0.2166242, -38165.49, -38165.49, 0.0, 9.995841, 10.00174 
2.564906e+3, 3.1515276e+2, -569630.1, -78767.79, 9871.28, -0.051562026, 0.20468394, -78569.35, -78569.35, 0.0, 9.995248, 10.001748 
2.5752407e+3, 1.251919e+2, -1108988.5, -1714266.1, -16095.795, 0.19901049, 0.36218226, -1108560.9, 604592.94, 0.000065513996, 10.005418, 9.997395 
2.5752223e+3, 1.3518901e+2, -1087514.4, -1653157.8, -17492.521, 0.19273603, 0.33586705, -1086974.0, 528207.06, 0.000027118658, 10.004891, 9.9973955 
2.5752038e+3, 1.4518635e+2, -1035150.6, -1531661.9, -11026.116, 0.18485242, 0.3121659, -1034905.9, 482299.56, 0.00000534876, 10.004382, 9.997802 
2.5751856e+3, 1.5518393e+2, -1009397.1, -1469026.6, -13601.085, 0.17636588, 0.29071167, -1008995.0, 410232.06, 0.00000013049134, 10.003888, 9.997797 
2.575167e+3, 1.6518171e+2, -981150.9, -1394782.4, -14204.571, 0.1480694, 0.28691044, -980663.6, 340584.44, 0.0, 10.0033655, 9.997886 
2.5751483e+3, 1.751797e+2, -963073.7, -1335757.4, -15581.376, 0.10104989, 0.299393, -962423.4, 260845.1, 0.0, 10.002819, 9.997882 
2.5751302e+3, 1.8517777e+2, -933171.5, -1259854.9, -3329.2632, 0.070162795, 0.315262, -933137.56, 192151.06, 0.0, 10.002305, 9.997978 
2.5751123e+3, 1.9517593e+2, -905406.06, -1195618.0, -3943.7783, 0.054448403, 0.33408037, -905352.5, 121956.08, 0.0, 10.001822, 9.997979 
2.5750944e+3, 2.0517418e+2, -857242.75, -1083323.1, 7195.0923, 0.04383779, 0.34589624, -857014.0, 72312.84, 0.0, 10.001315, 9.998322 
2.5750768e+3, 2.1517254e+2, -836294.3, -1022148.56, 8861.858, 0.037975468, 0.35103568, -835872.7, -4529.153, 0.0, 10.000785, 9.998324 
2.5750592e+3, 2.251711e+2, -781789.25, -894127.94, 15901.263, 0.027174413, 0.3530921, -779581.8, -46224.082, 0.0, 10.000266, 9.998779 
2.575042e+3, 2.3516986e+2, -757347.25, -831192.25, 17813.707, 0.011798344, 0.3520883, -753274.6, -117905.195, 0.0, 9.99976, 9.998783 
2.5750244e+3, 2.4516878e+2, -699196.06, -696202.8, 25111.186, -0.0011537885, 0.34238824, -672543.7, -135164.67, 0.0, 9.999244, 9.999286 
2.5750074e+3, 2.5516787e+2, -677076.8, -634001.2, 24793.057, -0.0118247485, 0.32436958, -622697.4, -183310.9, 0.0, 9.998719, 9.999292 
2.57499e+3, 2.6516727e+2, -608628.94, -473683.53, 27800.205, -0.016936129, 0.30122098, -468180.78, -126789.83, 0.0, 9.998187, 9.999976 
2.5749728e+3, 2.7516693e+2, -588709.9, -412172.16, 25966.408, -0.016928358, 0.27313408, -408432.06, -165039.5, 0.0, 9.997646, 9.999986 
2.5749555e+3, 2.8516725e+2, -513651.47, -226927.3, 393.51004, -0.02420654, 0.26192024, -226926.75, -81538.87, 0.0, 9.997066, 10.000865 
2.5749376e+3, 2.9516813e+2, -505797.84, -172481.64, 175.42172, -0.038109504, 0.266414, -172481.55, -125104.37, 0.0, 9.996448, 10.000863 
2.5749195e+3, 3.0516917e+2, -480405.2, -32013.256, -16053.802, -0.049543526, 0.23828712, -31439.217, -31439.217, 0.0, 9.995843, 10.001782 
2.5749013e+3, 3.1517068e+2, -566194.5, -72411.44, -12003.203, -0.059615914, 0.2128403, -72119.83, -72119.83, 0.0, 9.99525, 10.001791 
2.5852463e+3, 1.2521052e+2, -1098849.8, -1707071.0, -6918.5347, 0.20809647, 0.39069378, -1098771.1, 614202.06, 0.0000637428, 10.005478, 9.997415 
2.5852272e+3, 1.3520753e+2, -1074422.8, -1644651.8, -4248.0205, 0.20702574, 0.35227978, -1074391.1, 540609.8, 0.000026283802, 10.004973, 9.997414 
2.5852084e+3, 1.4520484e+2, -1022327.7, -1528223.6, 6757.206, 0.1968502, 0.32494763, -1022237.44, 494788.22, 0.0000051622765, 10.004482, 9.997777 
2.5851893e+3, 1.5520242e+2, -993993.2, -1464328.9, 6955.78, 0.17922162, 0.30769747, -993890.4, 425156.9, 0.00000012842973, 10.004006, 9.997772 
2.5851703e+3, 1.652002e+2, -963889.5, -1385470.8, 6815.1655, 0.14838134, 0.30390579, -963779.4, 357289.0, 0.0, 10.003481, 9.997894 
2.5851515e+3, 1.7519817e+2, -949152.75, -1328109.9, 8989.263, 0.104949616, 0.31237352, -948939.6, 274149.34, 0.0, 10.002912, 9.9978895 
2.5851324e+3, 1.8519622e+2, -924811.9, -1255005.1, 25684.57, 0.07622705, 0.32716873, -922825.9, 202283.28, 0.0, 10.002359, 9.997985 
2.585114e+3, 1.951944e+2, -904545.4, -1194335.4, 26914.338, 0.061303467, 0.34764165, -902066.9, 125062.09, 0.0, 10.001825, 9.997986 
2.5850958e+3, 2.0519269e+2, -854751.8, -1079258.1, 38371.566, 0.047793437, 0.3617281, -848374.7, 80772.375, 0.0, 10.001321, 9.998346 
2.5850776e+3, 2.151911e+2, -825964.2, -1014242.2, 38594.84, 0.03559489, 0.36973244, -818359.8, 12803.591, 0.0, 10.000844, 9.998349 
2.5850597e+3, 2.251897e+2, -766518.75, -882793.94, 44295.63, 0.021809492, 0.37353927, -751566.8, -18389.541, 0.0, 10.000355, 9.998815 
2.5850415e+3, 2.351885e+2, -741105.25, -819438.9, 45004.895, 0.006552261, 0.3732632, -720610.7, -85422.055, 0.0, 9.999855, 9.998817 
2.5850236e+3, 2.4518746e+2, -687219.06, -690552.44, 50554.387, -0.0049396846, 0.36564368, -638303.9, -101105.93, 0.0, 9.999328, 9.999283 
2.5850058e+3, 2.5518656e+2, -669264.5, -630232.1, 50593.246, -0.01292506, 0.3510834, -595521.4, -156316.11, 0.0, 9.998775, 9.999291 
2.5849882e+3, 2.6518595e+2, -604036.6, -467183.25, 55543.75, -0.015535594, 0.32402945, -447477.53, -106267.71, 0.0, 9.998201, 10.000013 
2.5849706e+3, 2.7518556e+2, -591579.4, -409347.7, 59036.375, -0.013188624, 0.2851688, -391893.78, -148682.14, 0.0, 9.997609, 10.000023 
2.5849527e+3, 2.851858e+2, -521931.13, -236100.27, 33094.598, -0.019700455, 0.27277222, -232318.48, -87111.36, 0.0, 9.997032, 10.000817 
2.584934e+3, 2.9518676e+2, -506230.34, -177761.03, 28893.2, -0.03431608, 0.28495985, -175238.86, -128042.31, 0.0, 9.996467, 10.000817 
2.5849155e+3, 3.0518773e+2, -473177.03, -26520.793, 9545.488, -0.046124533, 0.2560985, -26316.89, -26316.89, 0.0, 9.995885, 10.0018 
2.5848964e+3, 3.1518924e+2, -559938.25, -67263.37, 11975.306, -0.056538124, 0.2277254, -66972.46, -66972.46, 0.0, 9.995285, 10.001809 
2.595252e+3, 1.252296e+2, -1093917.0, -1696945.8, -25668.328, 0.22784434, 0.42492574, -1092826.4, 619962.7, 0.0000612403, 10.005478, 9.997484 
2.5952324e+3, 1.3522659e+2, -1069474.5, -1634664.5, -23059.295, 0.22219056, 0.37814468, -1068535.3, 546281.06, 0.000025095806, 10.004973, 9.997482 
2.5952128e+3, 1.4522389e+2, -1021637.8, -1526890.0, -11011.284, 0.2043794, 0.34581697, -1021397.94, 495442.8, 0.0000048861352, 10.004482, 9.9977865 
2.5951937e+3, 1.5522146e+2, -993477.0, -1463016.8, -10867.469, 0.1764858, 0.3265436, -993225.6, 425636.94, 0.0000001223991, 10.0040045, 9.997783 
2.5951737e+3, 1.6521925e+2, -960505.94, -1378145.0, -14439.961, 0.14578654, 0.3213844, -960007.25, 360876.2, 0.0, 10.003479, 9.997946 
2.5951543e+3, 1.7521726e+2, -945682.44, -1320843.3, -12244.624, 0.11207371, 0.32901707, -945283.25, 277620.1, 0.0, 10.002911, 9.99794 
2.595135e+3, 1.8521535e+2, -922830.0, -1250960.0, 5713.0825, 0.0882741, 0.3426117, -922730.56, 202192.66, 0.0, 10.002359, 9.998013 
2.595116e+3, 1.9521353e+2, -902535.3, -1190318.3, 6975.957, 0.07377622, 0.36150038, -902366.3, 124576.68, 0.0, 10.001825, 9.9980135 
2.595097e+3, 2.0521185e+2, -854425.2, -1078767.1, 20532.215, 0.053956516, 0.37664264, -852561.56, 76399.37, 0.0, 10.001321, 9.99835 
2.5950783e+3, 2.152103e+2, -825594.94, -1013654.9, 20730.17, 0.029238468, 0.38816896, -823336.9, 7640.173, 0.0, 10.000844, 9.998354 
2.59506e+3, 2.2520894e+2, -765294.1, -880424.0, 25561.895, 0.01176533, 0.39508232, -759873.94, -26883.277, 0.0, 10.000355, 9.998831 
2.5950414e+3, 2.3520778e+2, -739860.0, -817037.2, 26207.748, 0.0009965518, 0.39757013, -731801.75, -96800.12, 0.0, 9.999855, 9.998834 
2.595023e+3, 2.4520676e+2, -687104.0, -690515.44, 29739.432, -0.00521984, 0.39124846, -659021.44, -122010.47, 0.0, 9.999328, 9.999284 
2.5950047e+3, 2.552059e+2, -668917.2, -629765.2, 29719.594, -0.007246388, 0.37667173, -613753.6, -174735.13, 0.0, 9.998775, 9.999294 
2.5949866e+3, 2.6520526e+2, -596370.25, -451524.34, 33231.03, -0.010667698, 0.34651366, -444264.25, -103241.766, 0.0, 9.998201, 10.000121 
2.5949684e+3, 2.7520493e+2, -584180.0, -394206.06, 36724.477, -0.015453613, 0.30181426, -387353.88, -144330.8, 0.0, 9.997609, 10.000127 
2.5949496e+3, 2.8520516e+2, -528946.06, -250944.28, 11848.103, -0.021889662, 0.28641126, -250440.25, -105421.516, 0.0, 9.997032, 10.000715 
2.5949305e+3, 2.9520598e+2, -513056.84, -192308.38, 7606.8877, -0.029683977, 0.2980079, -192128.06, -145118.39, 0.0, 9.996468, 10.000717 
2.5949115e+3, 3.0520695e+2, -473814.56, -28349.514, -13013.794, -0.03577849, 0.26997545, -27969.654, -27969.654, 0.0, 9.995886, 10.001787 
2.5948918e+3, 3.1520852e+2, -560430.3, -68827.8, -10080.955, -0.041855276, 0.25038105, -68621.16, -68621.16, 0.0, 9.995286, 10.001798 
2.6052576e+3, 1.2524909e+2, -1090305.4, -1691695.3, 295.31616, 0.24418452, 0.44164795, -1090305.1, 622294.9, 0.00005787513, 10.005488, 9.997515 
2.6052377e+3, 1.3524616e+2, -1064184.0, -1628550.9, -29.2605, 0.2344444, 0.39878714, -1064184.0, 550442.5, 0.000023505469, 10.004995, 9.997514 
2.6052174e+3, 1.452435e+2, -1021204.4, -1521353.8, 11019.313, 0.21266685, 0.36679286, -1020961.7, 495688.75, 0.000004508864, 10.004463, 9.997833 
2.6051974e+3, 1.5524109e+2, -1005987.94, -1463740.8, 13623.981, 0.18102764, 0.3445725, -1005582.8, 413089.25, 0.000000105701886, 10.003897, 9.997829 
2.6051775e+3, 1.6523892e+2, -975240.6, -1378983.9, 10488.973, 0.1506358, 0.3389425, -974968.3, 345724.2, 0.0, 10.003352, 9.998 
2.6051572e+3, 1.75237e+2, -953963.44, -1318680.8, 12846.686, 0.12096652, 0.34825504, -953511.5, 269200.2, 0.0, 10.002828, 9.997994 
2.6051375e+3, 1.8523514e+2, -927933.6, -1249940.6, 31726.84, 0.096588485, 0.36238918, -924837.44, 199893.7, 0.0, 10.002311, 9.998043 
2.605118e+3, 1.9523333e+2, -904300.75, -1187678.9, 33058.063, 0.07724155, 0.38072717, -900495.44, 126255.21, 0.0, 10.0018, 9.998044 
2.6050985e+3, 2.0523168e+2, -855333.5, -1075627.0, 49064.246, 0.05313639, 0.3945904, -844899.94, 83868.44, 0.0, 10.0013, 9.998381 
2.605079e+3, 2.1523012e+2, -828087.4, -1011275.1, 51134.254, 0.024614017, 0.40424064, -814780.6, 16003.818, 0.0, 10.000813, 9.998384 
2.60506e+3, 2.252288e+2, -771014.6, -880404.94, 55968.938, 0.006811608, 0.41224855, -747453.25, -14655.551, 0.0, 10.000305, 9.998855 
2.6050413e+3, 2.352277e+2, -749283.25, -818736.44, 57010.453, -0.0011082148, 0.41855854, -717255.6, -82447.27, 0.0, 9.99978, 9.998858 
2.6050222e+3, 2.452267e+2, -696838.2, -691102.8, 60720.977, -0.004935212, 0.41138437, -633181.8, -96364.32, 0.0, 9.999245, 9.999319 
2.6050034e+3, 2.552258e+2, -677236.3, -629570.94, 63259.215, -0.0050157495, 0.39174706, -585803.9, -146978.67, 0.0, 9.9987, 9.999331 
2.6049846e+3, 2.6522526e+2, -595568.3, -447431.03, 65431.816, -0.010402174, 0.36356127, -422669.06, -81840.445, 0.0, 9.998192, 10.000154 
2.604966e+3, 2.75225e+2, -566747.4, -382272.78, 62992.816, -0.02075832, 0.32730946, -362814.9, -119986.875, 0.0, 9.997715, 10.000157 
2.6049465e+3, 2.8522524e+2, -512382.84, -250199.23, 35076.195, -0.0257969, 0.3113034, -245587.69, -100763.766, 0.0, 9.997178, 10.00065 
2.604927e+3, 2.952259e+2, -500491.4, -193437.08, 33388.5, -0.025778122, 0.31392288, -189848.42, -143031.97, 0.0, 9.996586, 10.000652 
2.6049075e+3, 3.0522677e+2, -461037.53, -26935.34, 12052.594, -0.029408686, 0.2848885, -26600.965, -26600.965, 0.0, 9.995995, 10.001744 
2.6048872e+3, 3.1522846e+2, -546292.9, -66494.31, 13030.066, -0.038359832, 0.27833632, -66140.71, -66140.71, 0.0, 9.995403, 10.001757 
2.6152632e+3, 1.2526903e+2, -1090152.1, -1692759.4, -17599.275, 0.25738645, 0.44264242, -1089638.6, 622767.7, 0.00005363884, 10.005493, 9.997506 
2.6152426e+3, 1.3526623e+2, -1064318.9, -1629516.6, -18126.506, 0.24402928, 0.41476429, -1063738.1, 550693.5, 0.000021522728, 10.004997, 9.997506 
2.615222e+3, 1.4526366e+2, -1015810.2, -1510238.0, -9868.966, 0.22168007, 0.38789257, -1015613.25, 500841.47, 0.0000040296054, 10.004462, 9.9979105 
2.6152015e+3, 1.5526128e+2, -1000857.0, -1452833.8, -7339.5728, 0.19232807, 0.361875, -1000737.8, 417738.03, 0.00000007793588, 10.003895, 9.997905 
2.615181e+3, 1.6525918e+2, -971549.94, -1371199.1, -8977.6455, 0.16238645, 0.356622, -971348.3, 349147.3, 0.0, 10.00335, 9.998055 
2.61516e+3, 1.7525735e+2, -950062.06, -1310901.5, -6687.4873, 0.13147463, 0.3699633, -949938.2, 272575.97, 0.0, 10.002829, 9.998048 
2.6151398e+3, 1.8525556e+2, -925751.0, -1245822.6, 12596.187, 0.10131979, 0.3862815, -925256.06, 199276.98, 0.0, 10.002312, 9.998071 
2.6151195e+3, 1.952538e+2, -902108.5, -1183456.0, 13964.759, 0.07206443, 0.40508482, -901417.06, 125135.016, 0.0, 10.0018, 9.998073 
2.6150995e+3, 2.0525214e+2, -851495.3, -1067868.8, 30803.854, 0.045633957, 0.4154251, -847195.44, 81374.17, 0.0, 10.0013, 9.998434 
2.6150802e+3, 2.1525057e+2, -824313.8, -1003546.94, 32837.914, 0.021707367, 0.41798043, -818486.94, 12098.585, 0.0, 10.000812, 9.998438 
2.6150602e+3, 2.2524928e+2, -769107.25, -876561.3, 36258.543, 0.006815307, 0.42513883, -758017.0, -25418.514, 0.0, 10.000304, 9.998881 
2.615041e+3, 2.3524827e+2, -747212.8, -814647.0, 37268.26, 0.00016543147, 0.43628928, -730672.94, -96064.25, 0.0, 9.99978, 9.998887 
2.6150215e+3, 2.4524727e+2, -692030.44, -681386.9, 40252.523, -0.0041259388, 0.4260666, -646105.9, -109488.2, 0.0, 9.999245, 9.999387 
2.615002e+3, 2.5524634e+2, -672520.06, -620056.8, 42845.72, -0.006262056, 0.39629278, -596050.5, -157425.08, 0.0, 9.998701, 9.999396 
2.6149827e+3, 2.6524585e+2, -598767.2, -454378.1, 47462.098, -0.014768265, 0.3752331, -440174.13, -99545.88, 0.0, 9.998193, 10.000106 
2.6149634e+3, 2.7524582e+2, -569858.5, -389108.22, 44886.22, -0.029143529, 0.36185342, -378575.3, -135948.8, 0.0, 9.997716, 10.000111 
2.6149437e+3, 2.8524604e+2, -514407.6, -254890.52, 12756.038, -0.031459633, 0.34761775, -254265.02, -109642.34, 0.0, 9.997179, 10.000618 
2.6149237e+3, 2.9524645e+2, -502545.44, -198229.02, 11085.065, -0.02262803, 0.33273733, -197825.77, -151208.95, 0.0, 9.996588, 10.000619 
2.6149035e+3, 3.0524728e+2, -466257.25, -38415.055, -10180.777, -0.027222414, 0.30090645, -38172.934, -38172.934, 0.0, 9.995996, 10.001665 
2.6148826e+3, 3.1524903e+2, -551237.3, -77486.336, -8597.335, -0.046639245, 0.31266746, -77330.37, -77330.37, 0.0, 9.995405, 10.001681 
2.6252687e+3, 1.2528986e+2, -1066168.4, -1686200.9, 20872.67, 0.2657273, 0.45321947, -1065466.5, 646736.9, 0.000048732873, 10.005681, 9.99746 
2.6252475e+3, 1.3528708e+2, -1057122.1, -1630706.4, 17648.5, 0.24860981, 0.43056765, -1056579.6, 557649.5, 0.000019246096, 10.005068, 9.997463 
2.6252267e+3, 1.452845e+2, -1016741.94, -1505475.1, 21483.771, 0.22445269, 0.40494683, -1015799.4, 500452.8, 0.000003470907, 10.004435, 9.997955 
2.6252052e+3, 1.5528215e+2, -1013696.25, -1453956.9, 21802.322, 0.19516379, 0.37664533, -1012619.25, 405653.66, 0.000000047769262, 10.003786, 9.99795 
2.625184e+3, 1.652801e+2, -985474.1, -1378076.0, 21962.063, 0.1660152, 0.37327757, -984249.4, 336043.03, 0.0, 10.003257, 9.998053 
2.6251632e+3, 1.7527832e+2, -949116.8, -1310508.1, 19978.205, 0.13654006, 0.39205334, -948015.75, 274295.03, 0.0, 10.002836, 9.998046 
2.625142e+3, 1.8527654e+2, -916657.9, -1237116.9, 35618.066, 0.104055025, 0.4091973, -912746.75, 211582.73, 0.0, 10.002357, 9.998109 
2.6251215e+3, 1.9527479e+2, -896003.44, -1175995.0, 37561.273, 0.0690593, 0.4247046, -891052.06, 135296.27, 0.0, 10.001823, 9.998112 
2.625101e+3, 2.0527315e+2, -848142.4, -1056417.4, 55989.43, 0.04089902, 0.43196753, -834045.2, 94320.11, 0.0, 10.001282, 9.998521 
2.625081e+3, 2.1527164e+2, -829834.56, -996483.9, 60370.03, 0.01887844, 0.43166545, -810263.44, 20117.004, 0.0, 10.000733, 9.998524 
2.6250607e+3, 2.2527042e+2, -779010.56, -877501.9, 65691.48, 0.00445493, 0.43885383, -746155.6, -13762.736, 0.0, 10.000221, 9.998915 
2.6250407e+3, 2.3526944e+2, -750373.9, -812241.2, 67039.83, -0.0031043673, 0.45263764, -707475.06, -73072.266, 0.0, 9.999742, 9.99892 
2.6250207e+3, 2.4526851e+2, -686818.25, -673457.0, 68840.695, -0.007332694, 0.44356903, -610973.5, -74562.21, 0.0, 9.999258, 9.9994335 
2.6250008e+3, 2.5526762e+2, -659319.94, -608437.1, 69923.24, -0.008568255, 0.4137128, -559470.7, -121052.24, 0.0, 9.99877, 9.999442 
2.624981e+3, 2.6526716e+2, -589325.1, -455749.6, 74711.914, -0.018044077, 0.39405435, -422325.22, -81903.89, 0.0, 9.998284, 10.000052 
2.624961e+3, 2.752671e+2, -561407.4, -390716.38, 71406.46, -0.035003588, 0.3834667, -364784.16, -122363.92, 0.0, 9.997799, 10.000059 
2.624941e+3, 2.8526723e+2, -495198.97, -244535.86, 38197.563, -0.036262657, 0.36875063, -238844.31, -94427.664, 0.0, 9.997308, 10.000627 
2.6249203e+3, 2.9526767e+2, -470053.13, -181834.42, 39422.75, -0.023135126, 0.3503719, -176539.42, -130128.73, 0.0, 9.996808, 10.000625 
2.6248994e+3, 3.052684e+2, -434363.5, -35184.81, 16832.242, -0.02462722, 0.3176309, -34476.297, -34476.297, 0.0, 9.996269, 10.001555 
2.6248783e+3, 3.1527016e+2, -517037.16, -72683.03, 16564.012, -0.042828552, 0.33847347, -72066.44, -72066.44, 0.0, 9.995691, 10.001575 
2.6352745e+3, 1.2531157e+2, -1072569.8, -1698574.8, -2176.381, 0.26968646, 0.4725018, -1072562.1, 639429.8, 0.000043431428, 10.005676, 9.997378 
2.6352528e+3, 1.3530865e+2, -1062944.0, -1642407.9, -5298.071, 0.24863249, 0.44624412, -1062895.6, 551123.75, 0.000016805823, 10.005065, 9.997385 
2.635231e+3, 1.4530605e+2, -1015807.94, -1503693.5, -2703.1804, 0.2214758, 0.4183561, -1015792.94, 500250.1, 0.0000028723398, 10.004435, 9.997969 
2.635209e+3, 1.553037e+2, -1012506.1, -1452323.1, -2164.3008, 0.19014138, 0.38912064, -1012495.5, 405567.94, 0.000000024743455, 10.003788, 9.99796 
2.6351872e+3, 1.6530164e+2, -989197.3, -1386660.1, 6362.148, 0.16207539, 0.38901126, -989095.5, 330987.5, 0.0, 10.00326, 9.9979925 
2.6351658e+3, 1.7529987e+2, -952991.5, -1318872.3, 4261.3726, 0.13650769, 0.4145276, -952941.9, 269159.78, 0.0, 10.002837, 9.997989 
2.6351446e+3, 1.8529809e+2, -913747.06, -1231052.5, 15762.829, 0.1049226, 0.43117732, -912965.94, 211154.61, 0.0, 10.002356, 9.998151 
2.635123e+3, 1.952963e+2, -892936.7, -1169554.8, 17693.477, 0.0681415, 0.4397858, -891809.56, 134329.9, 0.0, 10.001822, 9.9981575 
2.635102e+3, 2.0529473e+2, -840157.2, -1039778.8, 35475.72, 0.03879964, 0.4444037, -834040.06, 94115.57, 0.0, 10.001281, 9.998636 
2.6350814e+3, 2.1529333e+2, -821919.4, -980073.1, 39874.1, 0.016097117, 0.4453173, -812435.0, 17734.268, 0.0, 10.000732, 9.998637 
2.6350608e+3, 2.2529219e+2, -776487.8, -872419.5, 47700.4, -0.00024056247, 0.4533618, -756807.1, -24626.201, 0.0, 10.000221, 9.99895 
2.6350403e+3, 2.3529126e+2, -747774.06, -807091.75, 49035.074, -0.010865802, 0.46760446, -720125.94, -85935.23, 0.0, 9.9997425, 9.998957 
2.63502e+3, 2.452904e+2, -684959.2, -669894.6, 50458.766, -0.014510647, 0.4639233, -626409.06, -90210.53, 0.0, 9.999259, 9.999458 
2.6349995e+3, 2.5528964e+2, -657588.5, -605150.0, 51561.51, -0.011925119, 0.4440705, -573524.3, -135319.97, 0.0, 9.998771, 9.999465 
2.6349792e+3, 2.6528913e+2, -593651.9, -465082.84, 56431.12, -0.020221729, 0.41995203, -443828.06, -103620.195, 0.0, 9.998284, 9.999988 
2.6349586e+3, 2.752888e+2, -565443.8, -399467.53, 53074.242, -0.038304932, 0.39183006, -383947.25, -141738.02, 0.0, 9.9978, 9.999999 
2.6349384e+3, 2.8528893e+2, -491612.5, -237612.11, 19441.904, -0.040229302, 0.37444487, -236132.6, -91926.75, 0.0, 9.997309, 10.000674 
2.6349172e+3, 2.9528952e+2, -466729.28, -175691.7, 20620.16, -0.027453965, 0.36685914, -174238.02, -128039.96, 0.0, 9.996811, 10.000666 
2.6348957e+3, 3.052902e+2, -443960.03, -56132.734, -4816.312, -0.02153984, 0.33501232, -56072.93, -56072.93, 0.0, 9.996272, 10.0014105 
2.634874e+3, 3.1529182e+2, -526138.94, -92770.71, -4422.493, -0.02627637, 0.3558416, -92725.586, -92725.586, 0.0, 9.995696, 10.001436 
2.6452804e+3, 1.2533386e+2, -1098828.4, -1709407.8, 12383.586, 0.28240535, 0.5019065, -1098577.3, 613198.4, 0.000037935453, 10.005488, 9.997394 
2.6452577e+3, 1.353309e+2, -1080253.6, -1648878.1, 15863.769, 0.2539882, 0.4694551, -1079811.5, 533992.06, 0.000014307703, 10.004939, 9.997401 
2.6452354e+3, 1.4532828e+2, -1018825.56, -1503346.0, 21651.31, 0.22149718, 0.44022116, -1017859.94, 497967.28, 0.0000022717963, 10.004408, 9.997983 
2.645213e+3, 1.5532598e+2, -996461.0, -1443048.1, 22297.436, 0.18670285, 0.41385487, -995350.5, 422496.56, 0.000000011918202, 10.003893, 9.9979725 
2.6451907e+3, 1.653239e+2, -977410.8, -1385629.4, 34823.01, 0.1593176, 0.41245863, -974461.56, 345405.4, 0.0, 10.003362, 9.99795 
2.6451686e+3, 1.7532203e+2, -958792.56, -1325991.9, 33725.76, 0.13804084, 0.4328615, -955720.7, 266165.94, 0.0, 10.002817, 9.997949 
2.6451468e+3, 1.853202e+2, -923696.56, -1229781.3, 43753.68, 0.10738604, 0.44700253, -917565.0, 206340.69, 0.0, 10.002262, 9.998204 
2.645125e+3, 1.9531846e+2, -907102.4, -1170207.1, 46343.668, 0.06860309, 0.45541167, -899178.0, 126745.914, 0.0, 10.001699, 9.998211 
2.6451033e+3, 2.0531698e+2, -854198.6, -1038959.7, 62732.87, 0.0386149, 0.461783, -834911.94, 93027.39, 0.0, 10.001153, 9.998703 
2.6450822e+3, 2.1531568e+2, -833625.56, -978158.9, 63555.406, 0.0164073, 0.46622878, -809654.2, 20297.848, 0.0, 10.000621, 9.998704 
2.645061e+3, 2.2531459e+2, -784920.56, -871567.06, 73001.41, -0.0020513418, 0.47402862, -743355.0, -11391.82, 0.0, 10.000143, 9.998993 
2.6450402e+3, 2.3531367e+2, -749125.1, -802840.3, 74766.86, -0.017119013, 0.48463556, -696538.3, -62565.41, 0.0, 9.999713, 9.999 
2.645019e+3, 2.4531285e+2, -682507.94, -666931.94, 75278.695, -0.020989178, 0.4819187, -599039.44, -63059.14, 0.0, 9.999269, 9.999474 
2.6449984e+3, 2.5531214e+2, -650495.56, -599821.4, 75535.6, -0.014963836, 0.46727863, -545486.7, -107501.16, 0.0, 9.998812, 9.999481 
2.6449776e+3, 2.653116e+2, -585854.1, -457622.78, 82706.625, -0.021494396, 0.43844464, -417090.47, -77101.31, 0.0, 9.998323, 10.00002 
2.6449564e+3, 2.753112e+2, -562563.56, -394479.53, 86456.71, -0.03923075, 0.39678553, -357948.66, -115957.47, 0.0, 9.997806, 10.0000305 
2.6449355e+3, 2.8531134e+2, -487947.56, -238728.22, 54884.164, -0.040715236, 0.38167715, -227176.81, -83189.19, 0.0, 9.997348, 10.000648 
2.644914e+3, 2.9531205e+2, -449772.4, -170515.77, 50070.875, -0.02751026, 0.39030805, -161809.47, -115830.62, 0.0, 9.996941, 10.000638 
2.644892e+3, 3.0531266e+2, -425875.63, -52532.645, 20385.62, -0.017734509, 0.35489017, -51422.83, -51422.83, 0.0, 9.99642, 10.001364 
2.64487e+3, 3.1531408e+2, -514812.88, -91955.195, 28797.021, -0.016594408, 0.3626307, -90003.1, -90003.1, 0.0, 9.995794, 10.001393 
2.655286e+3, 1.2535672e+2, -1091880.3, -1695144.0, -8109.77, 0.30282846, 0.5403083, -1091771.3, 619783.2, 0.00003235194, 10.005488, 9.997492 
2.6552626e+3, 1.3535377e+2, -1073728.1, -1635069.3, -4713.513, 0.26411363, 0.49949312, -1073688.6, 539893.3, 0.00001183084, 10.004937, 9.997498 
2.6552397e+3, 1.4535122e+2, -1018327.4, -1501805.1, 2354.374, 0.22425069, 0.46987924, -1018315.9, 497289.06, 0.0000017048203, 10.004404, 9.997995 
2.6552165e+3, 1.5534899e+2, -996114.5, -1441825.0, 2963.304, 0.18472125, 0.44994345, -996094.8, 421529.28, 0.0000000059072427, 10.00389, 9.997983 
2.6551938e+3, 1.6534683e+2, -979909.5, -1390453.3, 14448.226, 0.15766498, 0.44302815, -979401.7, 340242.8, 0.0, 10.00336, 9.997918 
2.6551715e+3, 1.7534475e+2, -960858.4, -1330224.9, 13437.464, 0.14103082, 0.4472557, -960370.1, 261295.66, 0.0, 10.002816, 9.997921 
2.6551488e+3, 1.8534292e+2, -919585.25, -1221341.3, 22823.123, 0.11133233, 0.45705995, -917868.8, 205816.1, 0.0, 10.002262, 9.998262 
2.6551268e+3, 1.953413e+2, -902976.7, -1161843.6, 25403.713, 0.07035796, 0.47160345, -900507.25, 125194.664, 0.0, 10.0017, 9.998269 
2.6551044e+3, 2.0533991e+2, -852952.1, -1036662.75, 42811.133, 0.040260207, 0.4839329, -843465.44, 84251.03, 0.0, 10.001154, 9.998718 
2.6550826e+3, 2.1533869e+2, -832252.6, -975670.5, 43743.76, 0.01969921, 0.49419048, -819963.44, 9765.289, 0.0, 10.000622, 9.998721 
2.655061e+3, 2.2533761e+2, -781498.2, -864801.5, 56865.383, -0.0010713374, 0.500681, -752662.06, -20922.38, 0.0, 10.000144, 9.99904 
2.6550394e+3, 2.3533668e+2, -745812.2, -796204.94, 58594.973, -0.021910228, 0.5036781, -707225.9, -73476.56, 0.0, 9.999713, 9.999045 
2.6550183e+3, 2.4533585e+2, -682286.06, -666749.75, 58086.027, -0.02679321, 0.4975557, -615914.75, -80157.984, 0.0, 9.9992695, 9.999475 
2.654997e+3, 2.5533515e+2, -649893.0, -598902.0, 58267.223, -0.01770639, 0.48330364, -560796.5, -123034.45, 0.0, 9.998813, 9.999488 
2.654976e+3, 2.653346e+2, -576937.94, -439418.9, 63186.848, -0.021855045, 0.44948435, -414795.1, -75029.984, 0.0, 9.998323, 10.000145 
2.6549545e+3, 2.753342e+2, -554119.4, -377235.2, 67079.664, -0.03773817, 0.39829218, -354674.2, -112908.13, 0.0, 9.997806, 10.000149 
2.6549327e+3, 2.8533444e+2, -495219.53, -254272.58, 39661.47, -0.037645936, 0.3905177, -247911.94, -104150.05, 0.0, 9.997349, 10.000541 
2.654911e+3, 2.9533526e+2, -456599.56, -185322.88, 34545.703, -0.023169976, 0.4209898, -180992.78, -135239.73, 0.0, 9.9969425, 10.000536 
2.6548886e+3, 3.053358e+2, -421890.3, -44962.324, -3080.2048, -0.013242828, 0.3772776, -44937.152, -44937.152, 0.0, 9.996422, 10.001415 
2.6548657e+3, 3.1533697e+2, -510625.66, -83885.07, 6251.7495, -0.014162276, 0.3586707, -83793.51, -83793.51, 0.0, 9.995796, 10.001449 
2.665291e+3, 1.2537996e+2, -1096080.6, -1690134.5, 11615.614, 0.30327094, 0.56020904, -1095853.6, 615475.3, 0.000026772039, 10.00543, 9.997554 
2.6652676e+3, 1.3537712e+2, -1088666.5, -1635349.0, 12342.139, 0.26801097, 0.5228569, -1088388.0, 524967.25, 0.000009455475, 10.0048065, 9.997558 
2.665244e+3, 1.453746e+2, -1042587.8, -1511447.9, 20649.076, 0.23154153, 0.4964491, -1041680.2, 473697.63, 0.0000012117523, 10.0042305, 9.998013 
2.6652205e+3, 1.5537243e+2, -1022662.6, -1452420.9, 21400.834, 0.19546728, 0.47943455, -1021599.56, 395797.22, 0.0000000021024447, 10.0037, 9.998001 
2.6651973e+3, 1.6537029e+2, -999194.75, -1391754.6, 37153.35, 0.16440716, 0.46982938, -995709.3, 323707.6, 0.0, 10.003194, 9.997988 
2.665174e+3, 1.753682e+2, -971243.6, -1327451.6, 43179.656, 0.1373068, 0.46639308, -966084.1, 255353.84, 0.0, 10.002713, 9.997989 
2.665151e+3, 1.853664e+2, -927084.25, -1222947.8, 52888.277, 0.106403805, 0.47487554, -917914.25, 205542.45, 0.0, 10.002203, 9.998279 
2.665128e+3, 1.9536483e+2, -906284.94, -1161432.4, 52375.527, 0.07225516, 0.49358243, -895952.0, 129521.29, 0.0, 10.00167, 9.998285 
2.6651058e+3, 2.0536345e+2, -852675.1, -1037317.94, 68636.25, 0.04218365, 0.5073441, -829956.6, 97531.164, 0.0, 10.001161, 9.998711 
2.665083e+3, 2.1536222e+2, -825395.7, -972797.1, 67742.555, 0.015746793, 0.5167151, -798992.2, 30508.096, 0.0, 10.000672, 9.998715 
2.665061e+3, 2.2536115e+2, -773880.5, -853576.5, 81833.05, -0.0068978746, 0.52164155, -722709.2, 8801.72, 0.0, 10.000165, 9.999105 
2.6650393e+3, 2.3536025e+2, -751904.2, -791652.8, 84998.38, -0.026206108, 0.52245605, -684487.5, -50967.73, 0.0, 9.99964, 9.99911 
2.6650172e+3, 2.4535942e+2, -693788.75, -669095.56, 87701.16, -0.02885785, 0.5117561, -592876.2, -57349.18, 0.0, 9.999178, 9.999502 
2.6649958e+3, 2.553587e+2, -654421.1, -597703.25, 89663.305, -0.017012445, 0.49098542, -532021.0, -94488.39, 0.0, 9.998768, 9.9995165 
2.664974e+3, 2.6535818e+2, -574123.9, -433797.38, 89495.055, -0.022171738, 0.45796204, -390240.6, -50705.41, 0.0, 9.998326, 10.000182 
2.6649523e+3, 2.753579e+2, -544906.44, -368898.1, 86613.85, -0.042221136, 0.41395319, -333424.75, -91889.85, 0.0, 9.997853, 10.000182 
2.6649302e+3, 2.8535813e+2, -494668.47, -262325.44, 59507.152, -0.041577395, 0.40754363, -247971.39, -104440.38, 0.0, 9.997389, 10.000464 
2.664908e+3, 2.9535884e+2, -463486.0, -196539.1, 56467.105, -0.02257444, 0.43424326, -185086.03, -139562.33, 0.0, 9.996931, 10.000464 
2.664885e+3, 3.0535927e+2, -406672.8, -34007.16, 16253.656, -0.013514234, 0.38811663, -33299.605, -33299.605, 0.0, 9.996511, 10.001447 
2.6648617e+3, 3.153606e+2, -460648.47, -55796.617, 24582.762, -0.02132233, 0.37692708, -54309.406, -54309.406, 0.0, 9.996123, 10.001484 
2.6752967e+3, 1.254036e+2, -1094615.5, -1686826.0, -11478.803, 0.2859295, 0.56370157, -1094393.1, 616706.0, 0.000021368394, 10.005428, 9.997578 
2.6752725e+3, 1.354009e+2, -1086937.5, -1631908.0, -10633.075, 0.26633087, 0.5402629, -1086730.1, 526393.75, 0.0000072743505, 10.004806, 9.997582 
2.6752484e+3, 1.4539848e+2, -1041420.1, -1509152.3, 1120.7305, 0.2429648, 0.5201493, -1041417.44, 473728.38, 0.00000082318877, 10.00423, 9.998029 
2.6752242e+3, 1.5539631e+2, -1021269.0, -1449434.5, 1899.1805, 0.2179139, 0.5028121, -1021260.56, 395904.66, 0.00000000029331856, 10.003698, 9.998022 
2.6752007e+3, 1.6539428e+2, -988163.94, -1368702.4, 19351.11, 0.1788013, 0.49318504, -987182.44, 332002.0, 0.0, 10.003193, 9.998148 
2.675177e+3, 1.7539236e+2, -960647.8, -1305386.1, 25135.535, 0.12719585, 0.49003983, -958824.75, 262378.53, 0.0, 10.002711, 9.998141 
2.6751533e+3, 1.8539062e+2, -929092.2, -1227064.8, 32877.64, 0.093160786, 0.5000263, -925507.7, 197713.55, 0.0, 10.002202, 9.998252 
2.6751298e+3, 1.9538905e+2, -908221.3, -1165465.8, 32466.271, 0.07433349, 0.52108127, -904187.06, 121051.04, 0.0, 10.001669, 9.998259 
2.6751068e+3, 2.053876e+2, -855140.0, -1042585.94, 50348.156, 0.04430503, 0.53194386, -842472.5, 84780.74, 0.0, 10.001161, 9.998674 
2.675084e+3, 2.1538627e+2, -827402.9, -977259.9, 49452.926, 0.004724104, 0.5339479, -812554.56, 16712.203, 0.0, 10.000672, 9.998685 
2.675061e+3, 2.2538522e+2, -768025.3, -841687.44, 62149.13, -0.019331288, 0.537096, -732613.44, -1336.4336, 0.0, 10.000165, 9.999187 
2.675039e+3, 2.3538442e+2, -746120.25, -779858.44, 65448.676, -0.029983472, 0.5410191, -695401.7, -62117.34, 0.0, 9.99964, 9.999192 
2.6750165e+3, 2.4538359e+2, -690167.7, -661912.56, 72273.49, -0.027218957, 0.52448046, -602398.8, -67107.68, 0.0, 9.999179, 9.999552 
2.6749948e+3, 2.5538278e+2, -650947.9, -590864.1, 74170.71, -0.012883472, 0.4902588, -540882.2, -103584.89, 0.0, 9.998769, 9.999564 
2.6749724e+3, 2.6538232e+2, -577933.2, -442007.53, 71689.47, -0.022500934, 0.46396956, -411186.13, -71886.74, 0.0, 9.998326, 10.000126 
2.67495e+3, 2.7538222e+2, -548665.94, -377054.78, 68798.79, -0.05285229, 0.44413188, -352879.13, -111581.41, 0.0, 9.997854, 10.000127 
2.674927e+3, 2.8538236e+2, -497810.72, -269241.9, 42177.03, -0.05269362, 0.4327703, -261707.47, -118412.54, 0.0, 9.99739, 10.000418 
2.6749048e+3, 2.953827e+2, -466494.1, -203065.4, 39223.83, -0.025860598, 0.42923075, -197349.13, -152058.23, 0.0, 9.996931, 10.00042 
2.6748812e+3, 3.053832e+2, -405934.78, -33141.03, 1776.964, -0.018829266, 0.38709286, -33132.563, -33132.563, 0.0, 9.996513, 10.001452 
2.6748574e+3, 3.1538495e+2, -459139.75, -54122.082, 10766.21, -0.038674418, 0.4197394, -53836.098, -53836.098, 0.0, 9.996128, 10.001493 
2.685302e+3, 1.2542792e+2, -1114048.6, -1688839.9, 14115.147, 0.28504476, 0.5720238, -1113702.3, 597159.75, 0.000016383963, 10.005264, 9.9976425 
2.6852772e+3, 1.3542533e+2, -1095625.1, -1628811.3, 17681.484, 0.26620394, 0.55163866, -1095039.5, 517846.38, 0.000005356621, 10.004716, 9.997646 
2.6852524e+3, 1.4542297e+2, -1050240.5, -1509669.0, 32507.93, 0.24406508, 0.5322874, -1047951.7, 466955.72, 0.00000053664485, 10.004155, 9.998061 
2.685228e+3, 1.5542081e+2, -1035441.75, -1452451.8, 34360.676, 0.22069241, 0.51374686, -1032629.44, 384297.4, 0.0, 10.003586, 9.998055 
2.6852036e+3, 1.6541883e+2, -1003148.44, -1370054.4, 50639.41, 0.18075402, 0.5086624, -996287.6, 322657.8, 0.0, 10.003066, 9.9981985 
2.6851794e+3, 1.7541707e+2, -975160.9, -1306716.1, 48467.313, 0.12614189, 0.5148129, -968221.1, 252741.9, 0.0, 10.002589, 9.998191 
2.6851553e+3, 1.8541537e+2, -946160.0, -1235129.9, 51757.168, 0.09223622, 0.5269011, -937169.56, 185811.03, 0.0, 10.002086, 9.998252 
2.6851317e+3, 1.9541377e+2, -923903.8, -1172732.6, 53328.6, 0.076217666, 0.54391336, -912956.1, 112041.71, 0.0, 10.001562, 9.99826 
2.685108e+3, 2.0541228e+2, -864312.3, -1045551.06, 76492.57, 0.04609589, 0.55005175, -836344.2, 90669.08, 0.0, 10.001092, 9.998686 
2.6850843e+3, 2.154109e+2, -827056.75, -975548.5, 78813.74, 0.0039642514, 0.5467768, -793024.94, 36002.016, 0.0, 10.0006695, 9.998697 
2.6850614e+3, 2.2540985e+2, -767656.4, -840415.25, 86557.74, -0.021731682, 0.5493095, -710143.8, 20893.281, 0.0, 10.000164, 9.999196 
2.6850384e+3, 2.3540908e+2, -753126.4, -781959.94, 84578.72, -0.03330423, 0.55660516, -681744.5, -48700.58, 0.0, 9.999588, 9.999202 
2.6850155e+3, 2.4540825e+2, -696630.6, -662203.2, 93479.53, -0.030858252, 0.5375444, -584365.7, -49315.055, 0.0, 9.999124, 9.999576 
2.6849934e+3, 2.554074e+2, -652046.94, -588794.3, 93277.13, -0.016423933, 0.49591672, -521927.72, -84870.77, 0.0, 9.998752, 9.999586 
2.6849708e+3, 2.654069e+2, -576916.75, -447998.44, 87856.03, -0.025858777, 0.47054932, -403491.25, -64432.066, 0.0, 9.998363, 10.000067 
2.6849478e+3, 2.7540687e+2, -537844.7, -378050.6, 84575.266, -0.05586791, 0.45875624, -341601.13, -100543.39, 0.0, 9.997956, 10.00007 
2.684925e+3, 2.8540692e+2, -476123.25, -259423.66, 59379.9, -0.05761406, 0.44627458, -244219.2, -101163.84, 0.0, 9.997542, 10.000411 
2.6849017e+3, 2.954072e+2, -439590.75, -191186.89, 59345.324, -0.034689754, 0.4336427, -177737.14, -132685.17, 0.0, 9.997122, 10.000409 
2.6848778e+3, 3.054076e+2, -387915.16, -37322.227, 19205.516, -0.026004871, 0.39283463, -36273.285, -36273.285, 0.0, 9.996694, 10.001336 
2.6848534e+3, 3.1540945e+2, -448078.38, -60671.266, 19481.746, -0.04137011, 0.44564408, -59694.043, -59694.043, 0.0, 9.996256, 10.001386 
2.695307e+3, 1.254529e+2, -1108867.8, -1675617.9, -6510.7876, 0.29860228, 0.5845582, -1108793.0, 601825.1, 0.000012010821, 10.005253, 9.997739 
2.6952818e+3, 1.3545035e+2, -1089582.5, -1615337.1, -3051.4465, 0.26737458, 0.5575414, -1089564.8, 523076.8, 0.0000037270497, 10.004711, 9.997742 
2.6952565e+3, 1.4544801e+2, -1047466.1, -1503767.1, 11055.552, 0.23574361, 0.53397435, -1047198.44, 467464.4, 0.00000032538478, 10.004153, 9.998103 
2.6952314e+3, 1.5544587e+2, -1032662.5, -1447002.3, 13045.085, 0.2053696, 0.5133491, -1032252.2, 384429.8, 0.0, 10.003587, 9.998093 
2.6952064e+3, 1.6544399e+2, -1006814.4, -1377925.0, 32652.004, 0.17132446, 0.51696587, -1003963.44, 314736.72, 0.0, 10.003066, 9.998145 
2.6951823e+3, 1.7544234e+2, -978869.56, -1314278.3, 30438.807, 0.13366565, 0.54070055, -976129.56, 244587.66, 0.0, 10.002587, 9.998139 
2.6951575e+3, 1.8544066e+2, -944691.9, -1232104.6, 32064.36, 0.10280697, 0.5553575, -941158.1, 181576.67, 0.0, 10.002085, 9.998273 
2.695133e+3, 1.9543898e+2, -921927.8, -1169214.1, 33832.88, 0.077819094, 0.56227887, -917382.5, 107370.13, 0.0, 10.001563, 9.998283 
2.695109e+3, 2.0543745e+2, -860354.2, -1037819.06, 60587.18, 0.04763077, 0.5619619, -841642.44, 85125.51, 0.0, 10.001094, 9.998739 
2.695085e+3, 2.154361e+2, -823665.1, -968527.56, 62654.61, 0.013180322, 0.5553854, -800326.4, 28454.633, 0.0, 10.0006695, 9.998747 
2.6950616e+3, 2.2543505e+2, -772387.1, -850299.75, 64812.41, -0.014427284, 0.5583914, -735724.4, -4933.1724, 0.0, 10.000164, 9.999129 
2.6950377e+3, 2.3543425e+2, -757423.06, -791241.2, 63233.996, -0.036250785, 0.56928176, -708876.4, -76077.64, 0.0, 9.999589, 9.999139 
2.6950148e+3, 2.4543339e+2, -696788.4, -662968.1, 79467.74, -0.039769214, 0.5510004, -598631.25, -63825.73, 0.0, 9.999125, 9.99957 
2.6949918e+3, 2.554325e+2, -652361.9, -589816.94, 79235.45, -0.027681218, 0.50802404, -535905.94, -99094.37, 0.0, 9.998753, 9.999578 
2.694969e+3, 2.6543194e+2, -581403.9, -457663.3, 72528.695, -0.032213185, 0.47758815, -424200.78, -85386.2, 0.0, 9.9983635, 10.000001 
2.694946e+3, 2.7543172e+2, -541924.5, -386947.78, 69191.336, -0.051048487, 0.4573811, -360552.13, -119737.17, 0.0, 9.997957, 10.000009 
2.6949224e+3, 2.8543183e+2, -473668.84, -254900.3, 43497.566, -0.05625844, 0.44785014, -246569.0, -103756.7, 0.0, 9.997544, 10.000442 
2.6948985e+3, 2.9543224e+2, -437895.3, -188380.8, 43450.465, -0.049381867, 0.44799325, -181030.84, -136224.02, 0.0, 9.997124, 10.000428 
2.6948744e+3, 3.0543253e+2, -404869.22, -73363.984, 2666.1792, -0.03502484, 0.40547788, -73342.54, -73342.54, 0.0, 9.996696, 10.001087 
2.69485e+3, 3.1543407e+2, -464175.38, -94804.81, 3558.5242, -0.028428823, 0.45358256, -94770.53, -94770.53, 0.0, 9.996259, 10.001151 
2.7053124e+3, 1.2547833e+2, -1173798.5, -1697565.6, 9747.663, 0.2990742, 0.59467465, -1173617.1, 536753.25, 0.0000083421955, 10.004767, 9.997822 
2.7052864e+3, 1.3547589e+2, -1125200.9, -1623293.0, 11844.76, 0.2649402, 0.57210004, -1124919.4, 487473.25, 0.0000024020137, 10.004428, 9.997823 
2.7052605e+3, 1.4547361e+2, -1065729.8, -1508406.4, 22227.662, 0.22967845, 0.5511338, -1064616.5, 449796.75, 0.0000001657813, 10.004011, 9.998138 
2.705235e+3, 1.5547153e+2, -1037940.6, -1445591.9, 23677.613, 0.1951691, 0.5315869, -1036569.94, 379862.03, 0.0, 10.003534, 9.998127 
2.7052096e+3, 1.6546966e+2, -1015750.5, -1382386.0, 44784.402, 0.16425769, 0.53491145, -1010359.3, 308090.75, 0.0, 10.003007, 9.998142 
2.7051845e+3, 1.7546798e+2, -1000744.6, -1324891.4, 46189.004, 0.135825, 0.55717313, -994291.44, 226176.02, 0.0, 10.0024395, 9.998137 
2.7051595e+3, 1.8546627e+2, -957850.6, -1236840.5, 52293.77, 0.10536151, 0.56861967, -948370.8, 174114.4, 0.0, 10.001989, 9.998286 
2.7051345e+3, 1.9546455e+2, -909935.6, -1161674.3, 53175.836, 0.07334945, 0.5708022, -899163.94, 125339.2, 0.0, 10.001639, 9.998298 
2.70511e+3, 2.0546305e+2, -852725.8, -1031943.0, 74720.54, 0.044494547, 0.5715117, -825660.25, 100857.88, 0.0, 10.001138, 9.998757 
2.7050856e+3, 2.1546178e+2, -845799.25, -977184.7, 74287.21, 0.018361729, 0.5708426, -812324.8, 16205.655, 0.0, 10.00051, 9.998763 
2.7050614e+3, 2.2546071e+2, -791605.0, -864006.3, 79160.984, -0.010446725, 0.57342654, -740760.0, -10219.147, 0.0, 10.000052, 9.999088 
2.7050373e+3, 2.354598e+2, -738685.94, -786495.2, 79479.17, -0.0414649, 0.5786159, -679594.4, -47044.957, 0.0, 9.999738, 9.999099 
2.705014e+3, 2.454589e+2, -665191.8, -650860.6, 96800.43, -0.04880564, 0.5592801, -560960.94, -26404.361, 0.0, 9.999356, 9.999541 
2.7049908e+3, 2.55458e+2, -630498.9, -582353.44, 94586.766, -0.036194686, 0.5193061, -508824.13, -72261.71, 0.0, 9.998917, 9.99955 
2.7049673e+3, 2.6545742e+2, -571928.2, -458037.13, 86221.35, -0.03708119, 0.4873218, -411653.5, -73087.55, 0.0, 9.998451, 9.999955 
2.7049437e+3, 2.7545708e+2, -544716.4, -393084.1, 84428.98, -0.049489416, 0.46163687, -355426.28, -114858.91, 0.0, 9.99796, 9.999965 
2.70492e+3, 2.854572e+2, -472840.78, -258839.34, 59353.836, -0.05362528, 0.45476645, -243479.8, -100914.93, 0.0, 9.99757, 10.0004015 
2.7048957e+3, 2.9545763e+2, -420925.78, -184699.55, 53621.68, -0.050357204, 0.4644326, -173097.61, -128538.79, 0.0, 9.997261, 10.000386 
2.7048713e+3, 3.0545783e+2, -384776.1, -70980.06, 14702.02, -0.035493948, 0.4155331, -70292.74, -70292.74, 0.0, 9.996866, 10.001021 
2.7048463e+3, 3.1545916e+2, -447924.84, -93311.305, 30092.326, -0.027090995, 0.4532474, -90775.81, -90775.81, 0.0, 9.996399, 10.001093 
2.715317e+3, 1.2550414e+2, -1169172.3, -1688098.5, -3387.4836, 0.2879251, 0.6027152, -1169150.1, 540968.56, 0.0000054194647, 10.004766, 9.997888 
2.7152905e+3, 1.355019e+2, -1121309.4, -1614342.8, -1579.2787, 0.25927448, 0.5944573, -1121304.3, 490834.94, 0.000001399198, 10.004422, 9.997887 
2.7152643e+3, 1.4549978e+2, -1064811.9, -1505035.3, 4055.798, 0.22564305, 0.58225, -1064774.5, 449384.16, 0.000000060898984, 10.004004, 9.998166 
2.7152383e+3, 1.5549776e+2, -1037017.2, -1442191.5, 5452.7266, 0.18967845, 0.56678545, -1036943.8, 379233.0, 0.0, 10.003528, 9.998155 
2.7152124e+3, 1.6549583e+2, -1013502.25, -1376874.9, 23325.486, 0.15932117, 0.56158316, -1012011.06, 306184.2, 0.0, 10.003002, 9.998182 
2.715187e+3, 1.7549402e+2, -997873.8, -1319236.8, 25124.719, 0.13291083, 0.56477034, -995921.44, 224292.22, 0.0, 10.0024395, 9.998177 
2.7151614e+3, 1.8549225e+2, -957554.4, -1236717.0, 39111.887, 0.10037205, 0.56765753, -952178.2, 170053.56, 0.0, 10.00199, 9.998286 
2.715136e+3, 1.9549052e+2, -909929.75, -1161643.5, 39544.816, 0.06312685, 0.57005155, -903863.4, 120386.14, 0.0, 10.001638, 9.998299 
2.715111e+3, 2.054891e+2, -854134.44, -1034820.0, 51011.39, 0.03688311, 0.5789112, -840727.6, 85536.26, 0.0, 10.001137, 9.998738 
2.715086e+3, 2.1548794e+2, -846864.2, -979826.7, 51160.387, 0.01963455, 0.59301203, -829457.75, -1182.3865, 0.0, 10.000511, 9.998745 
2.7150616e+3, 2.2548683e+2, -792690.56, -866835.25, 67272.94, -0.0097179385, 0.5942157, -752951.44, -22665.328, 0.0, 10.000054, 9.999068 
2.7150372e+3, 2.3548578e+2, -739973.0, -789505.06, 67454.15, -0.048917558, 0.5846071, -692882.06, -60586.08, 0.0, 9.999738, 9.999078 
2.7150133e+3, 2.454848e+2, -669082.9, -659209.2, 80240.92, -0.05796179, 0.56246203, -583753.44, -49449.62, 0.0, 9.999356, 9.999484 
2.7149895e+3, 2.5548393e+2, -634166.7, -590320.3, 77958.29, -0.04196142, 0.5298011, -531261.25, -94951.66, 0.0, 9.998918, 9.9994955 
2.7149656e+3, 2.6548332e+2, -573796.7, -462225.03, 67669.375, -0.040499616, 0.49980345, -430311.34, -91998.086, 0.0, 9.998451, 9.999927 
2.7149415e+3, 2.7548292e+2, -546881.2, -397799.7, 66214.734, -0.051320046, 0.47166824, -372637.3, -132322.33, 0.0, 9.99796, 9.999932 
2.7149174e+3, 2.8548297e+2, -480906.03, -275962.56, 47676.754, -0.04960274, 0.4671549, -265414.25, -123101.12, 0.0, 9.997571, 10.000284 
2.714893e+3, 2.9548338e+2, -428086.72, -200146.39, 41554.566, -0.036949303, 0.48295933, -192807.11, -148499.03, 0.0, 9.997262, 10.00028 
2.7148682e+3, 3.0548343e+2, -375969.6, -53409.473, -3002.92, -0.027136551, 0.4227859, -53381.52, -53381.52, 0.0, 9.996868, 10.001142 
2.7148426e+3, 3.1548476e+2, -438799.78, -75042.83, 13461.698, -0.038268305, 0.44456902, -74545.33, -74545.33, 0.0, 9.9964, 10.001219 
2.7253214e+3, 1.2553035e+2, -1191548.0, -1690415.1, 963.2545, 0.27545574, 0.624628, -1191546.1, 518317.44, 0.000003237492, 10.004578, 9.997962 
2.7252945e+3, 1.3552818e+2, -1161066.5, -1624906.4, 3023.7568, 0.25045255, 0.61483145, -1161046.8, 450836.75, 0.00000071053347, 10.004113, 9.997963 
2.7252683e+3, 1.4552611e+2, -1113568.0, -1518614.5, 8229.311, 0.22023344, 0.60020787, -1113400.9, 400501.44, 0.000000015945707, 10.003627, 9.998254 
2.7252418e+3, 1.5552413e+2, -1089469.4, -1457773.8, 13804.688, 0.18754236, 0.5816088, -1088952.8, 326967.2, 0.0, 10.003126, 9.9982395 
2.7252153e+3, 1.6552225e+2, -1050624.5, -1388808.1, 35760.227, 0.15729187, 0.57351583, -1046884.5, 271053.3, 0.0, 10.002723, 9.998235 
2.7251893e+3, 1.7552045e+2, -999731.44, -1314339.1, 38240.37, 0.12842102, 0.57375044, -995150.06, 224805.7, 0.0, 10.002403, 9.998227 
2.7251634e+3, 1.855187e+2, -957027.9, -1234178.3, 53686.117, 0.09904444, 0.57530993, -946991.9, 174981.72, 0.0, 10.001986, 9.998306 
2.7251378e+3, 1.95517e+2, -930529.94, -1169438.6, 55152.88, 0.06949776, 0.57783514, -918412.3, 105578.766, 0.0, 10.00149, 9.998317 
2.725112e+3, 2.0551558e+2, -871152.1, -1046706.5, 63085.85, 0.03866627, 0.5886521, -850833.7, 75171.79, 0.0, 10.001038, 9.998704 
2.7250868e+3, 2.1551442e+2, -832844.6, -976526.0, 62265.89, 0.0068968157, 0.606226, -809616.25, 18400.988, 0.0, 10.000624, 9.998713 
2.7250615e+3, 2.255133e+2, -775144.6, -859572.8, 82531.7, -0.019183606, 0.6082034, -724657.5, 5370.6226, 0.0, 10.000181, 9.999056 
2.7250367e+3, 2.3551221e+2, -744437.2, -792842.7, 83117.38, -0.040696237, 0.5971005, -682070.44, -50032.21, 0.0, 9.999714, 9.999066 
2.7250123e+3, 2.4551122e+2, -684294.75, -670000.1, 95464.04, -0.047084592, 0.57512873, -581416.2, -47369.97, 0.0, 9.999269, 9.999452 
2.7249882e+3, 2.555103e+2, -647768.8, -600205.1, 95005.61, -0.04082197, 0.54425055, -526050.06, -89997.734, 0.0, 9.99884, 9.999464 
2.724964e+3, 2.6550964e+2, -568413.0, -462571.63, 87333.43, -0.04430953, 0.5121416, -413376.06, -75319.74, 0.0, 9.998503, 9.999899 
2.7249396e+3, 2.7550918e+2, -509088.6, -382699.84, 85756.4, -0.056060273, 0.4786395, -339368.7, -99310.15, 0.0, 9.998235, 9.999904 
2.724915e+3, 2.8550917e+2, -444576.66, -266377.53, 68637.1, -0.0523515, 0.47287023, -243005.83, -100948.5, 0.0, 9.997855, 10.000212 
2.7248904e+3, 2.955095e+2, -415213.75, -201409.19, 65713.85, -0.03536596, 0.49068376, -182826.78, -138773.72, 0.0, 9.997384, 10.000212 
2.724865e+3, 3.055095e+2, -359535.4, -44789.746, 16899.006, -0.026536778, 0.42906502, -43885.023, -43885.023, 0.0, 9.99698, 10.001146 
2.724839e+3, 3.1551093e+2, -405370.44, -57248.195, 25245.336, -0.045681123, 0.45662835, -55426.97, -55426.97, 0.0, 9.996624, 10.001232 
2.7353257e+3, 1.2555695e+2, -1186980.6, -1679478.4, -16319.587, 0.26181233, 0.65860003, -1186440.4, 523164.53, 0.0000017251788, 10.00457, 9.998041 
2.735299e+3, 1.355547e+2, -1156222.5, -1613386.5, -14319.268, 0.23878606, 0.63323855, -1155774.4, 455851.13, 0.0000002953036, 10.0041065, 9.998046 
2.7352718e+3, 1.455526e+2, -1104671.8, -1498919.9, -10371.364, 0.21356599, 0.60620224, -1104399.1, 409245.03, 0.000000004525682, 10.003621, 9.998392 
2.7352446e+3, 1.5555069e+2, -1080477.5, -1438481.1, -4545.784, 0.188418, 0.5778732, -1080419.8, 335241.28, 0.0, 10.003122, 9.998374 
2.735218e+3, 1.6554892e+2, -1046795.6, -1380501.4, 23815.463, 0.15786193, 0.5720476, -1045104.56, 272573.13, 0.0, 10.002721, 9.998293 
2.7351916e+3, 1.755473e+2, -996031.56, -1306242.8, 25879.625, 0.12244529, 0.58413357, -993887.3, 225806.6, 0.0, 10.0024, 9.998284 
2.7351654e+3, 1.8554564e+2, -955031.5, -1229638.0, 34979.25, 0.10125425, 0.5910682, -950645.94, 171064.89, 0.0, 10.001983, 9.998339 
2.7351394e+3, 1.9554396e+2, -928581.4, -1165303.8, 36584.86, 0.09166427, 0.5937238, -923056.25, 100671.72, 0.0, 10.001489, 9.998346 
2.7351132e+3, 2.0554249e+2, -874820.06, -1054487.4, 47488.105, 0.049244426, 0.60055834, -863040.75, 62702.24, 0.0, 10.001038, 9.9986515 
2.735087e+3, 2.1554121e+2, -836196.8, -983763.8, 46688.773, -0.019547721, 0.6107208, -822665.7, 5090.3657, 0.0, 10.000624, 9.998663 
2.7350616e+3, 2.2554009e+2, -775665.25, -860891.4, 64954.605, -0.038403787, 0.6156787, -740593.25, -10826.223, 0.0, 10.000181, 9.999047 
2.735037e+3, 2.3553911e+2, -744890.7, -794014.9, 65632.836, -0.016878383, 0.61611384, -699374.5, -67598.4, 0.0, 9.999714, 9.999059 
2.735012e+3, 2.4553813e+2, -685007.7, -671785.5, 79298.22, -0.016400715, 0.5971952, -598823.25, -65039.336, 0.0, 9.999269, 9.999439 
2.7349874e+3, 2.555372e+2, -648523.5, -602019.75, 79224.19, -0.03283149, 0.56262344, -542705.75, -106915.25, 0.0, 9.99884, 9.999452 
2.7349624e+3, 2.6553643e+2, -570442.2, -467175.9, 77291.8, -0.048535872, 0.52430254, -425857.44, -88062.26, 0.0, 9.998503, 9.999867 
2.7349377e+3, 2.7553585e+2, -510863.28, -387063.94, 75311.28, -0.06380982, 0.48245105, -351478.44, -111680.35, 0.0, 9.998237, 9.999873 
2.734913e+3, 2.8553572e+2, -446264.13, -270604.5, 50800.9, -0.062147394, 0.47164714, -256971.0, -115173.48, 0.0, 9.997858, 10.000182 
2.7348876e+3, 2.9553604e+2, -417380.78, -206322.83, 48153.77, -0.04623668, 0.4871363, -195855.45, -152061.67, 0.0, 9.997385, 10.000178 
2.734862e+3, 3.0553606e+2, -367727.38, -62340.723, 3567.2087, -0.034098893, 0.43449304, -62299.06, -62299.06, 0.0, 9.996981, 10.001026 
2.7348354e+3, 3.1553766e+2, -412409.06, -72777.85, 12594.554, -0.04893877, 0.4915214, -72311.445, -72311.445, 0.0, 9.996627, 10.001125 
2.74533e+3, 1.2558374e+2, -1236001.5, -1688493.8, 310.50305, 0.25963074, 0.66686004, -1236001.3, 473342.6, 0.00000077047844, 10.004171, 9.998171 
2.7453026e+3, 1.3558164e+2, -1206278.5, -1622965.0, 5587.074, 0.23088999, 0.6448464, -1206203.6, 405159.22, 0.00000009309225, 10.003701, 9.998175 
2.7452752e+3, 1.4557971e+2, -1148642.3, -1507932.4, 10590.467, 0.2071825, 0.62091875, -1148330.4, 365049.66, 0.0000000007622774, 10.003267, 9.9985 
2.7452475e+3, 1.5557793e+2, -1110298.9, -1441163.5, 14420.695, 0.18941303, 0.5955024, -1109671.6, 305724.13, 0.0, 10.002869, 9.998478 
2.7452207e+3, 1.6557622e+2, -1076654.8, -1391175.5, 44883.992, 0.16039142, 0.5899059, -1070374.9, 247036.84, 0.0, 10.002501, 9.998325 
2.7451938e+3, 1.7557462e+2, -1028710.9, -1318168.5, 44718.055, 0.12185668, 0.60006475, -1021959.9, 197468.02, 0.0, 10.002161, 9.998318 
2.7451673e+3, 1.8557298e+2, -983096.7, -1239596.8, 48371.78, 0.099665515, 0.60751885, -974277.75, 147166.66, 0.0, 10.001777, 9.998369 
2.7451408e+3, 1.9557136e+2, -945390.9, -1169814.1, 49868.113, 0.0907533, 0.6126042, -934808.9, 88652.18, 0.0, 10.001359, 9.998377 
2.7451143e+3, 2.0556992e+2, -882662.3, -1056210.0, 65961.07, 0.047150508, 0.6184596, -860438.2, 65037.742, 0.0, 10.000976, 9.998669 
2.7450877e+3, 2.1556862e+2, -835611.8, -981630.4, 69990.56, -0.024307435, 0.6248781, -807482.44, 20006.736, 0.0, 10.000621, 9.998678 
2.7450618e+3, 2.2556747e+2, -777221.75, -865447.56, 85790.56, -0.038679257, 0.6300675, -724867.2, 4633.059, 0.0, 10.000189, 9.999012 
2.7450365e+3, 2.3556648e+2, -750289.3, -800186.06, 84710.17, -0.0070144003, 0.6340349, -686930.06, -55420.566, 0.0, 9.999694, 9.999025 
2.7450114e+3, 2.4556549e+2, -677600.25, -670663.7, 101720.484, -0.00901881, 0.6149488, -572352.4, -38834.797, 0.0, 9.999331, 9.999416 
2.744986e+3, 2.5556448e+2, -616254.94, -588728.2, 100629.49, -0.038096845, 0.5773515, -500925.2, -65400.652, 0.0, 9.999073, 9.999431 
2.744961e+3, 2.6556373e+2, -542886.0, -455435.28, 98027.22, -0.05294831, 0.5383814, -391823.6, -54294.277, 0.0, 9.9987, 9.999852 
2.744936e+3, 2.7556312e+2, -512487.66, -389786.6, 97185.875, -0.056592606, 0.49775022, -336206.78, -96674.61, 0.0, 9.998236, 9.999854 
2.7449107e+3, 2.8556296e+2, -444707.88, -280211.44, 71133.52, -0.05744644, 0.4880239, -253718.0, -112185.875, 0.0, 9.997914, 10.000089 
2.744885e+3, 2.9556316e+2, -377544.63, -197387.88, 63157.773, -0.055387195, 0.50434875, -177452.53, -133923.11, 0.0, 9.997704, 10.000086 
2.744859e+3, 3.0556312e+2, -329545.06, -54258.277, 12967.388, -0.043570742, 0.45024967, -53648.8, -53648.8, 0.0, 9.997289, 10.000933 
2.744832e+3, 3.1556463e+2, -406696.9, -78734.734, 24921.498, -0.050911292, 0.5147534, -76851.78, -76851.78, 0.0, 9.996704, 10.001046 
2.7553344e+3, 1.2561077e+2, -1223849.1, -1663781.5, -16581.58, 0.26742804, 0.65264666, -1223225.0, 485855.16, 0.0000002589262, 10.004172, 9.998341 
2.755306e+3, 1.3560906e+2, -1194668.1, -1599040.0, -11618.364, 0.22623913, 0.650597, -1194334.6, 416760.97, 0.00000002152923, 10.0037, 9.99834 
2.7552783e+3, 1.4560741e+2, -1143356.1, -1496886.1, -4215.5044, 0.20101272, 0.6436174, -1143305.9, 369804.34, 0.0000000000034822841, 10.003266, 9.998577 
2.7552506e+3, 1.5560584e+2, -1105438.4, -1430886.5, -370.1321, 0.19050252, 0.63260764, -1105437.9, 309686.2, 0.0, 10.002867, 9.998549 
2.7552232e+3, 1.6560416e+2, -1076422.9, -1390552.0, 32167.113, 0.16472906, 0.62538683, -1073162.8, 243977.38, 0.0, 10.0025, 9.998331 
2.755196e+3, 1.756024e+2, -1028225.6, -1317196.4, 31838.955, 0.12625529, 0.6210525, -1024759.1, 194398.61, 0.0, 10.00216, 9.998325 
2.755169e+3, 1.8560076e+2, -981297.6, -1236036.6, 32796.938, 0.09434393, 0.6246399, -977142.9, 144031.63, 0.0, 10.001777, 9.998394 
2.755142e+3, 1.9559921e+2, -943183.2, -1165585.3, 34475.15, 0.06786074, 0.6343392, -937961.7, 85228.7, 0.0, 10.001359, 9.998405 
2.755115e+3, 2.0559782e+2, -876984.75, -1044594.8, 52717.9, 0.033205166, 0.64214087, -861782.44, 63421.92, 0.0, 10.000976, 9.998749 
2.7550885e+3, 2.155966e+2, -830653.8, -971193.75, 56388.418, -0.007918028, 0.64839995, -810826.5, 16390.092, 0.0, 10.00062, 9.998751 
2.755062e+3, 2.2559544e+2, -781842.9, -875124.44, 67134.41, -0.020758098, 0.65113634, -746737.75, -17509.807, 0.0, 10.000188, 9.998946 
2.755036e+3, 2.3559435e+2, -754468.5, -809311.56, 66680.02, -0.011104537, 0.65081, -709791.7, -78553.28, 0.0, 9.999696, 9.998962 
2.7550104e+3, 2.4559326e+2, -680106.56, -676308.2, 91989.336, -0.024734886, 0.62840474, -586198.44, -52951.266, 0.0, 9.999332, 9.999377 
2.7549848e+3, 2.555922e+2, -618529.8, -593845.5, 90494.98, -0.05665824, 0.5884429, -514854.9, -79600.55, 0.0, 9.999074, 9.999395 
2.7549598e+3, 2.6559147e+2, -542922.2, -455876.34, 80439.31, -0.057459794, 0.55450726, -407940.38, -70681.65, 0.0, 9.998701, 9.999849 
2.7549344e+3, 2.75591e+2, -513296.84, -391605.53, 80203.85, -0.033955324, 0.5248902, -351779.2, -112518.445, 0.0, 9.998235, 9.999842 
2.7549088e+3, 2.855908e+2, -456119.78, -304287.88, 63319.27, -0.037875522, 0.5226297, -281347.56, -140086.4, 0.0, 9.997915, 9.999923 
2.754883e+3, 2.9559088e+2, -388131.28, -220363.86, 54432.9, -0.06277599, 0.5432619, -204250.48, -160990.52, 0.0, 9.997707, 9.999927 
2.7548563e+3, 3.0559057e+2, -333848.5, -64101.73, -9283.902, -0.0549883, 0.47672498, -63782.582, -63782.582, 0.0, 9.997292, 10.000864 
2.7548286e+3, 3.155919e+2, -410468.28, -86591.17, 3847.7773, -0.05167123, 0.5255844, -86545.47, -86545.47, 0.0, 9.996703, 10.000993 
2.7653384e+3, 1.2563875e+2, -1246441.8, -1670603.3, 14993.06, 0.26821315, 0.663751, -1245912.4, 462895.06, 0.000000059952626, 10.004001, 9.998376 
2.7653095e+3, 1.3563713e+2, -1219756.4, -1606881.8, 10858.269, 0.2184318, 0.66810924, -1219452.0, 391370.16, 0.0000000030342129, 10.00351, 9.998377 
2.7652812e+3, 1.4563556e+2, -1170765.8, -1506205.8, 15268.425, 0.1937409, 0.6655042, -1170072.1, 342764.2, 0.0, 10.003062, 9.9986105 
2.7652532e+3, 1.5563405e+2, -1134549.0, -1440835.1, 16324.702, 0.19097972, 0.6573751, -1133681.4, 281168.47, 0.0, 10.00265, 9.998586 
2.7652255e+3, 1.656324e+2, -1100284.5, -1395430.9, 52941.555, 0.1641874, 0.65023285, -1091075.5, 225790.02, 0.0, 10.002308, 9.998389 
2.765198e+3, 1.7563069e+2, -1043931.7, -1318085.1, 56012.6, 0.11796896, 0.6436114, -1032929.25, 185953.5, 0.0, 10.002025, 9.9983835 
2.7651703e+3, 1.8562908e+2, -987633.6, -1231756.8, 57572.07, 0.08285606, 0.6456456, -974737.5, 146161.44, 0.0, 10.001702, 9.998459 
2.765143e+3, 1.956276e+2, -940116.3, -1157007.9, 61917.844, 0.05655914, 0.65441924, -923684.94, 99229.25, 0.0, 10.001351, 9.998468 
2.765116e+3, 2.0562625e+2, -885323.44, -1047617.44, 76721.58, 0.031573564, 0.66358787, -854796.6, 70131.02, 0.0, 10.000916, 9.998755 
2.765089e+3, 2.1562506e+2, -860032.0, -984586.4, 75301.44, 0.007723288, 0.6729411, -824591.44, 2348.2239, 0.0, 10.000417, 9.998756 
2.7650622e+3, 2.2562388e+2, -793843.75, -885728.75, 88760.68, -0.0084521035, 0.6752185, -739840.4, -10889.09, 0.0, 10.000128, 9.998901 
2.765036e+3, 2.3562269e+2, -712335.6, -793548.7, 89672.164, -0.018578578, 0.6716705, -654504.44, -23541.902, 0.0, 10.000006, 9.99892 
2.7650097e+3, 2.4562153e+2, -631829.2, -655784.94, 113534.79, -0.033115376, 0.6448924, -529642.2, 3329.619, 0.0, 9.999678, 9.9993515 
2.764984e+3, 2.556204e+2, -604443.94, -590212.06, 112880.25, -0.051027045, 0.59989184, -484223.7, -49244.33, 0.0, 9.999186, 9.999366 
2.7649584e+3, 2.656196e+2, -535280.56, -464840.63, 98227.125, -0.04958258, 0.5678629, -395710.16, -58725.816, 0.0, 9.99881, 9.999735 
2.7649328e+3, 2.756191e+2, -479598.97, -387559.66, 89634.2, -0.033008687, 0.5455121, -332821.7, -93834.516, 0.0, 9.99852, 9.999732 
2.764907e+3, 2.856188e+2, -423510.13, -295406.3, 75919.15, -0.03894578, 0.5444454, -260128.64, -119140.23, 0.0, 9.99817, 9.999861 
2.7648804e+3, 2.956188e+2, -383697.94, -225087.16, 74281.58, -0.06214761, 0.56149566, -195732.06, -152744.0, 0.0, 9.997768, 9.999864 
2.7648532e+3, 3.056184e+2, -324591.16, -67544.48, 7436.1963, -0.057367675, 0.49159038, -67329.54, -67329.54, 0.0, 9.99739, 10.0007925 
2.7648255e+3, 3.156197e+2, -368269.25, -72398.64, 21167.268, -0.064590946, 0.5476982, -70891.96, -70891.96, 0.0, 9.997021, 10.0009365 
2.7753422e+3, 1.256676e+2, -1253374.6, -1683480.5, -3716.0437, 0.26290625, 0.69713867, -1253342.6, 455183.94, 0.000000010193968, 10.003993, 9.998292 
2.775313e+3, 1.3566583e+2, -1226349.6, -1618923.3, -7248.0825, 0.20782731, 0.6959767, -1226215.8, 384327.25, 0.000000000018223163, 10.003503, 9.998299 
2.775284e+3, 1.4566416e+2, -1171803.0, -1507575.0, 232.13069, 0.18544342, 0.6865601, -1171802.9, 340755.7, 0.0, 10.003058, 9.998604 
2.7752557e+3, 1.5566255e+2, -1134129.4, -1440651.1, 1667.386, 0.1908601, 0.6708916, -1134120.3, 280452.75, 0.0, 10.002652, 9.998586 
2.7752277e+3, 1.6566099e+2, -1092810.6, -1380461.0, 42731.195, 0.15907365, 0.6654413, -1086597.0, 229990.9, 0.0, 10.00231, 9.998491 
2.7751997e+3, 1.7565946e+2, -1037137.94, -1303441.9, 45416.844, 0.097867176, 0.66772014, -1029605.4, 188997.63, 0.0, 10.002022, 9.998486 
2.775172e+3, 1.8565798e+2, -981299.75, -1217827.0, 44527.543, 0.06573934, 0.6702564, -973194.9, 147423.02, 0.0, 10.0016985, 9.998556 
2.7751443e+3, 1.9565651e+2, -934204.2, -1144304.5, 48455.09, 0.056331143, 0.67290986, -923567.56, 99064.94, 0.0, 10.0013485, 9.998557 
2.775117e+3, 2.056552e+2, -889977.2, -1057337.0, 57934.5, 0.041590847, 0.68292886, -871879.25, 52766.73, 0.0, 10.000916, 9.99869 
2.7750894e+3, 2.1565399e+2, -864088.6, -993650.5, 57481.633, 0.02258433, 0.69847363, -842262.94, -15604.512, 0.0, 10.000419, 9.998693 
2.7750626e+3, 2.2565278e+2, -795427.2, -889697.9, 84231.7, -0.0015887953, 0.70223457, -746039.4, -17369.004, 0.0, 10.000131, 9.998874 
2.7750358e+3, 2.3565155e+2, -713994.9, -797299.4, 84331.79, -0.029441189, 0.69657624, -661589.9, -30908.064, 0.0, 10.000007, 9.998895 
2.7750096e+3, 2.4565032e+2, -633000.5, -658369.1, 94981.45, -0.034102563, 0.66438305, -549860.1, -17168.67, 0.0, 9.999678, 9.999334 
2.7749836e+3, 2.556491e+2, -606435.44, -594554.8, 94855.92, -0.020926537, 0.61166894, -505453.38, -70753.86, 0.0, 9.999186, 9.999336 
2.7749574e+3, 2.6564813e+2, -551387.25, -498627.53, 87355.41, -0.029399551, 0.57836294, -433755.72, -97049.61, 0.0, 9.99881, 9.999503 
2.7749312e+3, 2.756474e+2, -494249.6, -418589.22, 78503.97, -0.05458979, 0.55941874, -369275.88, -130564.37, 0.0, 9.998522, 9.999518 
2.7749047e+3, 2.85647e+2, -420377.38, -289528.28, 60643.66, -0.061181743, 0.5529537, -265745.06, -125031.11, 0.0, 9.998172, 9.999901 
2.774878e+3, 2.9564694e+2, -381381.3, -220346.28, 59134.836, -0.05298489, 0.55802727, -200963.86, -158250.03, 0.0, 9.997768, 9.999897 
2.7748507e+3, 3.0564654e+2, -330200.6, -79388.15, -6278.26, -0.05045259, 0.49436402, -79231.09, -79231.09, 0.0, 9.99739, 10.000711 
2.774822e+3, 3.156481e+2, -372214.3, -81626.555, 8449.474, -0.09075142, 0.582645, -81381.07, -81381.07, 0.0, 9.997025, 10.000873 
2.785346e+3, 1.2569675e+2, -1306860.1, -1694755.9, -3696.4597, 0.2593969, 0.7374763, -1306825.0, 401418.53, 0.00000000036145698, 10.003565, 9.998421 
2.785316e+3, 1.3569497e+2, -1285737.3, -1633541.1, 7746.0454, 0.2081103, 0.71951497, -1285564.9, 324695.13, 0.0, 10.003036, 9.998423 
2.7852872e+3, 1.4569332e+2, -1217157.4, -1523186.9, 32472.83, 0.18177886, 0.7052323, -1213749.6, 298525.34, 0.0, 10.002721, 9.998659 
2.7852583e+3, 1.556918e+2, -1141564.4, -1438151.0, 37820.902, 0.17748153, 0.6937231, -1136817.5, 277471.1, 0.0, 10.002576, 9.998639 
2.7852297e+3, 1.6569029e+2, -1101374.9, -1380528.1, 73766.98, 0.14679681, 0.6888096, -1083080.8, 233222.25, 0.0, 10.002234, 9.998527 
2.7852014e+3, 1.7568877e+2, -1074930.4, -1317214.0, 71837.734, 0.094934404, 0.6888712, -1055231.9, 163086.05, 0.0, 10.001744, 9.998525 
2.7851737e+3, 1.8568732e+2, -1023480.2, -1230804.3, 70508.164, 0.06608695, 0.6904579, -1001773.9, 118558.41, 0.0, 10.001378, 9.998621 
2.7851456e+3, 1.9568591e+2, -964630.94, -1152276.0, 71793.87, 0.05535716, 0.6930675, -940313.6, 82032.55, 0.0, 10.001112, 9.998615 
2.7851176e+3, 2.056846e+2, -899790.9, -1066231.0, 79345.55, 0.041124765, 0.70280975, -868027.0, 56332.53, 0.0, 10.000868, 9.9986515 
2.7850902e+3, 2.1568337e+2, -834634.9, -983545.2, 81163.445, 0.02398704, 0.71789664, -798948.9, 27423.62, 0.0, 10.00064, 9.998655 
2.7850628e+3, 2.2568208e+2, -767434.25, -880962.6, 112305.28, 0.0024105178, 0.7201166, -698362.6, 30022.41, 0.0, 10.000344, 9.99883 
2.785036e+3, 2.3568079e+2, -718500.6, -803985.56, 110754.31, -0.022379825, 0.71214956, -642527.3, -12130.197, 0.0, 9.999996, 9.998853 
2.785009e+3, 2.4567953e+2, -637976.94, -665257.7, 113704.99, -0.027226677, 0.6822006, -537097.06, -4690.1357, 0.0, 9.999664, 9.999292 
2.784983e+3, 2.5567833e+2, -586672.25, -589794.2, 112014.85, -0.016612837, 0.63537073, -476207.47, -41792.613, 0.0, 9.999344, 9.999292 
2.7849564e+3, 2.6567724e+2, -522346.56, -495264.2, 113905.23, -0.028418731, 0.59715414, -394098.1, -57675.49, 0.0, 9.999057, 9.999407 
2.7849296e+3, 2.7567628e+2, -461370.75, -412875.13, 114808.125, -0.057791173, 0.5649849, -319782.16, -81352.04, 0.0, 9.998793, 9.999427 
2.7849028e+3, 2.8567585e+2, -384864.6, -277619.06, 92474.61, -0.06632238, 0.5600913, -224344.89, -83911.78, 0.0, 9.998439, 9.999853 
2.784876e+3, 2.956758e+2, -349641.78, -210670.13, 84219.17, -0.05800592, 0.577886, -170971.94, -128539.625, 0.0, 9.998012, 9.9998455 
2.7848482e+3, 3.0567536e+2, -303253.5, -80216.83, 16067.189, -0.055214714, 0.51382613, -79065.32, -79065.32, 0.0, 9.997636, 10.000587 
2.784819e+3, 3.1567678e+2, -340560.47, -77882.0, 28286.852, -0.10034941, 0.6027702, -74870.42, -74870.42, 0.0, 9.9972925, 10.000769 
2.7953494e+3, 1.2572624e+2, -1286343.5, -1650120.5, -23047.523, 0.25741145, 0.78362805, -1284889.1, 423069.13, 0.0, 10.003554, 9.998732 
2.7953193e+3, 1.3572448e+2, -1265652.6, -1590568.1, -11135.273, 0.2180193, 0.73920286, -1265271.5, 344701.63, 0.0, 10.003029, 9.998721 
2.7952898e+3, 1.45723e+2, -1210440.4, -1508141.9, 26917.578, 0.18206686, 0.7219688, -1208026.1, 303959.75, 0.0, 10.002715, 9.998765 
2.7952605e+3, 1.5572175e+2, -1135780.4, -1424667.5, 31221.373, 0.15196548, 0.72514975, -1132444.8, 281552.25, 0.0, 10.002569, 9.998735 
2.7952316e+3, 1.6572025e+2, -1104310.0, -1385248.1, 55023.14, 0.12817605, 0.7196083, -1093917.9, 222093.27, 0.0, 10.002228, 9.998498 
2.7952033e+3, 1.7571859e+2, -1076958.0, -1320874.3, 53787.938, 0.108025834, 0.70722693, -1065623.5, 152404.06, 0.0, 10.001741, 9.998501 
2.795175e+3, 1.8571712e+2, -1021366.44, -1226591.1, 60475.38, 0.08255763, 0.706602, -1004871.44, 115170.69, 0.0, 10.001378, 9.99865 
2.7951467e+3, 1.957158e+2, -962439.8, -1148322.9, 61869.37, 0.053521026, 0.7148478, -943730.3, 78324.81, 0.0, 10.001114, 9.998642 
2.7951184e+3, 2.0571448e+2, -900658.06, -1068556.5, 70778.336, 0.030630227, 0.7231436, -874802.75, 49265.74, 0.0, 10.000869, 9.998634 
2.7950907e+3, 2.1571314e+2, -835850.06, -986273.4, 72410.36, 0.0123468265, 0.7313633, -806658.4, 19423.61, 0.0, 10.00064, 9.998637 
2.795063e+3, 2.257118e+2, -771846.25, -890282.06, 99199.64, 0.00374262, 0.72908497, -715533.5, 12561.82, 0.0, 10.000344, 9.998766 
2.795036e+3, 2.357104e+2, -722700.5, -813003.94, 97758.78, 0.0025084359, 0.7185137, -660170.0, -30061.604, 0.0, 9.999997, 9.998791 
2.795009e+3, 2.4570918e+2, -642711.8, -675379.25, 101616.266, -0.012785606, 0.6984511, -556124.9, -24006.7, 0.0, 9.999664, 9.999223 
2.794982e+3, 2.557081e+2, -590868.56, -598732.4, 100163.14, -0.038527146, 0.6711812, -494560.2, -60434.832, 0.0, 9.999344, 9.99923 
2.794955e+3, 2.657069e+2, -519484.25, -489798.34, 104023.414, -0.046680704, 0.62424093, -399564.25, -63430.543, 0.0, 9.999058, 9.999444 
2.7949286e+3, 2.757057e+2, -459173.44, -408873.06, 104629.35, -0.04185883, 0.5618544, -326413.63, -88270.69, 0.0, 9.998795, 9.999454 
2.7949014e+3, 2.857053e+2, -394623.78, -298404.97, 76512.3, -0.054002915, 0.5660183, -256133.8, -115988.055, 0.0, 9.998441, 9.99971 
2.7948737e+3, 2.957055e+2, -359495.03, -231675.6, 68430.14, -0.07816982, 0.62245876, -201952.33, -159808.95, 0.0, 9.998013, 9.9997015 
2.7948457e+3, 3.057048e+2, -315104.5, -105526.23, 3221.372, -0.07214255, 0.5507795, -105476.73, -105476.73, 0.0, 9.997638, 10.000413 
2.7948165e+3, 3.1570575e+2, -350675.88, -99427.68, 16395.982, -0.09199214, 0.60678923, -98362.23, -98362.23, 0.0, 9.997293, 10.00062 
2.8053525e+3, 1.2575598e+2, -1354289.8, -1668351.9, -603.61346, 0.2484336, 0.79931676, -1354288.6, 353380.47, 0.0, 10.003027, 9.99886 
2.805322e+3, 1.357545e+2, -1318357.0, -1602166.6, -530.68256, 0.20447955, 0.7705105, -1318356.1, 291325.25, 0.0, 10.002609, 9.998844 
2.805292e+3, 1.4575313e+2, -1268428.5, -1532663.0, 39107.89, 0.1715063, 0.7565738, -1262761.9, 248931.3, 0.0, 10.002303, 9.998795 
2.8052628e+3, 1.5575184e+2, -1203689.1, -1453542.0, 37359.984, 0.15005411, 0.7538288, -1198222.4, 215482.1, 0.0, 10.002088, 9.998769 
2.805234e+3, 1.6575037e+2, -1160426.9, -1404251.9, 55108.133, 0.12982126, 0.7437497, -1148550.1, 167168.36, 0.0, 10.001809, 9.998569 
2.805205e+3, 1.7574874e+2, -1108769.3, -1328395.8, 61271.254, 0.109479174, 0.7278948, -1092832.3, 124902.06, 0.0, 10.001491, 9.9985695 
2.8051764e+3, 1.8574728e+2, -1033467.4, -1228827.0, 78242.52, 0.08298142, 0.72556597, -1005994.3, 113754.05, 0.0, 10.001282, 9.998681 
2.8051478e+3, 1.95746e+2, -954371.3, -1140964.3, 79446.75, 0.052232347, 0.73338544, -925127.94, 96633.11, 0.0, 10.001156, 9.998672 
2.8051195e+3, 2.0574465e+2, -891679.9, -1063789.9, 86564.21, 0.03108322, 0.73997617, -855674.1, 68100.195, 0.0, 10.00093, 9.998637 
2.805091e+3, 2.1574332e+2, -837307.75, -986548.8, 89437.01, 0.01705273, 0.7454866, -795449.94, 30338.002, 0.0, 10.000629, 9.998639 
2.8050634e+3, 2.2574194e+2, -772823.44, -892129.06, 117156.766, 0.008615908, 0.7427541, -701007.0, 26794.338, 0.0, 10.000345, 9.998753 
2.805036e+3, 2.3574056e+2, -713036.0, -810164.75, 119483.5, 0.0046215793, 0.7335107, -632624.4, -2809.9539, 0.0, 10.0000725, 9.998774 
2.805009e+3, 2.4573931e+2, -625383.5, -677353.5, 125034.75, -0.013701795, 0.716783, -523662.2, 8162.5723, 0.0, 9.999829, 9.999129 
2.8049815e+3, 2.5573817e+2, -558882.3, -592773.2, 121499.03, -0.042953674, 0.69460034, -453152.72, -19319.873, 0.0, 9.999605, 9.9991455 
2.8049543e+3, 2.6573697e+2, -489893.56, -475991.7, 119919.2, -0.048852783, 0.649505, -362822.13, -26980.594, 0.0, 9.999265, 9.999438 
2.8049275e+3, 2.757357e+2, -454516.1, -407964.53, 117228.4, -0.03712346, 0.586344, -311723.53, -73872.88, 0.0, 9.998834, 9.99944 
2.8048998e+3, 2.8573525e+2, -394203.66, -314566.53, 87797.71, -0.050533533, 0.5942607, -257979.94, -118125.836, 0.0, 9.998515, 9.999562 
2.8048718e+3, 2.9573542e+2, -331064.8, -233259.34, 79069.6, -0.0824918, 0.65782076, -189191.77, -147338.8, 0.0, 9.998275, 9.999563 
2.8048432e+3, 3.0573452e+2, -280341.56, -92058.766, 16863.285, -0.07490739, 0.577758, -90560.36, -90560.36, 0.0, 9.997891, 10.000382 
2.8048137e+3, 3.1573534e+2, -337536.1, -94217.37, 41937.414, -0.09187602, 0.62327063, -87192.05, -87192.05, 0.0, 9.99739, 10.000609 
2.8153554e+3, 1.2578598e+2, -1357906.1, -1674087.5, -16473.281, 0.2332748, 0.7889863, -1357050.1, 350325.94, 0.0, 10.003018, 9.998826 
2.8153244e+3, 1.35785e+2, -1320531.9, -1607326.6, -15768.127, 0.17006488, 0.81247365, -1319667.5, 289717.2, 0.0, 10.002611, 9.998808 
2.8152943e+3, 1.4578366e+2, -1271101.1, -1538673.9, 31115.242, 0.15146385, 0.80698043, -1267530.5, 243866.23, 0.0, 10.002305, 9.998753 
2.815265e+3, 1.557821e+2, -1206259.9, -1457687.4, 29248.688, 0.16968894, 0.7798301, -1202902.3, 210508.73, 0.0, 10.002082, 9.998744 
2.815236e+3, 1.657806e+2, -1149915.4, -1381636.1, 43463.4, 0.14967823, 0.7618563, -1142031.4, 173393.39, 0.0, 10.001805, 9.998726 
2.8152063e+3, 1.7577918e+2, -1097895.3, -1306604.4, 49991.723, 0.099914916, 0.75075287, -1086538.8, 130899.2, 0.0, 10.001493, 9.998718 
2.815177e+3, 1.857778e+2, -1031013.0, -1224469.4, 73608.08, 0.06857758, 0.74709684, -1006190.8, 113260.24, 0.0, 10.001284, 9.99871 
2.8151488e+3, 1.9577649e+2, -952507.56, -1136885.4, 74265.836, 0.051587284, 0.74881, -926314.9, 95149.07, 0.0, 10.001155, 9.998701 
2.8151202e+3, 2.0577516e+2, -890735.2, -1061528.9, 75251.19, 0.04199071, 0.75350374, -862310.4, 61166.656, 0.0, 10.000928, 9.998654 
2.815092e+3, 2.1577384e+2, -835914.56, -983823.1, 78312.375, 0.037531525, 0.76028657, -802156.0, 23334.373, 0.0, 10.000629, 9.998658 
2.8150636e+3, 2.2577251e+2, -770440.6, -887479.2, 106899.22, 0.016722431, 0.76103604, -707091.3, 20411.734, 0.0, 10.000346, 9.998784 
2.815036e+3, 2.3577122e+2, -711420.94, -807004.9, 109449.2, -0.015888985, 0.75702125, -639784.25, -10269.046, 0.0, 10.0000725, 9.9987955 
2.8150082e+3, 2.4576989e+2, -633824.8, -695128.1, 116629.29, -0.029661927, 0.7370698, -543886.6, -12359.971, 0.0, 9.99983, 9.999007 
2.814981e+3, 2.5576854e+2, -566727.8, -609434.3, 112537.76, -0.029574994, 0.7054577, -473535.44, -39998.027, 0.0, 9.999606, 9.99903 
2.8149536e+3, 2.6576737e+2, -493446.16, -483636.06, 103598.09, -0.034887128, 0.6731785, -384826.97, -49280.88, 0.0, 9.999265, 9.999386 
2.814926e+3, 2.757664e+2, -458684.25, -416649.2, 101495.54, -0.044137068, 0.63948715, -334017.88, -96464.67, 0.0, 9.998833, 9.999381 
2.8148982e+3, 2.8576577e+2, -405044.0, -337273.4, 78778.27, -0.05612927, 0.64544696, -285401.88, -145843.7, 0.0, 9.998515, 9.999407 
2.8148705e+3, 2.9576552e+2, -340099.1, -252507.78, 69326.016, -0.06995178, 0.68321514, -214302.48, -172741.25, 0.0, 9.998277, 9.999431 
2.8148413e+3, 3.0576456e+2, -271903.75, -74873.02, -2062.9028, -0.06276109, 0.5942901, -74851.43, -74851.43, 0.0, 9.997891, 10.000501 
2.8148112e+3, 3.1576562e+2, -328618.56, -75422.805, 24430.92, -0.10114747, 0.65377694, -73087.01, -73087.01, 0.0, 9.997388, 10.00074 
2.825358e+3, 1.2581643e+2, -1433768.3, -1711782.1, -7143.3613, 0.21759728, 0.7977217, -1433584.9, 273493.94, 0.0, 10.002503, 9.998815 
2.8253266e+3, 1.3581553e+2, -1353788.9, -1623268.5, -5072.51, 0.16255742, 0.832398, -1353693.4, 255393.88, 0.0, 10.002383, 9.998808 
2.8252962e+3, 1.4581427e+2, -1296052.1, -1538417.3, 46126.39, 0.14845116, 0.8270959, -1287570.3, 223528.58, 0.0, 10.002082, 9.998861 
2.8252667e+3, 1.5581273e+2, -1260771.8, -1472109.0, 55021.297, 0.16841869, 0.79214185, -1247305.1, 165807.42, 0.0, 10.0016575, 9.998849 
2.8252372e+3, 1.658113e+2, -1193532.1, -1396221.5, 75713.805, 0.14815229, 0.7722246, -1168372.6, 146753.05, 0.0, 10.001479, 9.998782 
2.8252077e+3, 1.7580993e+2, -1095600.5, -1299441.6, 74767.77, 0.09674949, 0.76345575, -1071116.9, 146021.22, 0.0, 10.001484, 9.998771 
2.8251788e+3, 1.8580863e+2, -1030444.94, -1224511.9, 90917.29, 0.068997525, 0.7626309, -994506.8, 124643.96, 0.0, 10.00129, 9.998706 
2.82515e+3, 1.9580732e+2, -981800.25, -1150733.5, 89147.63, 0.05935878, 0.7673871, -943458.44, 77705.09, 0.0, 10.000954, 9.998702 
2.825121e+3, 2.0580602e+2, -915677.9, -1067808.1, 91112.57, 0.04916871, 0.7704091, -873052.6, 50123.848, 0.0, 10.000733, 9.998704 
2.8250927e+3, 2.1580468e+2, -836982.7, -978950.0, 96493.54, 0.0383125, 0.7721732, -788176.2, 37013.344, 0.0, 10.000601, 9.998705 
2.825064e+3, 2.2580339e+2, -761406.3, -883383.5, 123023.055, 0.014709662, 0.77299666, -685084.0, 42117.926, 0.0, 10.00041, 9.99878 
2.8250358e+3, 2.3580211e+2, -696836.1, -800107.1, 122844.55, -0.018184902, 0.77280694, -615216.2, 13997.572, 0.0, 10.0001745, 9.998793 
2.825008e+3, 2.4580076e+2, -626797.8, -692635.8, 132773.38, -0.030611912, 0.7520945, -522923.44, 8302.006, 0.0, 9.999884, 9.998999 
2.8249806e+3, 2.5579935e+2, -575801.9, -614828.1, 137009.86, -0.027710387, 0.7164335, -456922.56, -23685.71, 0.0, 9.99955, 9.999021 
2.824953e+3, 2.6579824e+2, -491192.28, -487785.4, 130582.97, -0.03341215, 0.6901509, -358894.75, -23649.2, 0.0, 9.999305, 9.999338 
2.8249252e+3, 2.7579734e+2, -420335.56, -403317.53, 128780.34, -0.045767646, 0.6700554, -282765.4, -45513.11, 0.0, 9.99912, 9.999334 
2.824897e+3, 2.8579667e+2, -358162.38, -320435.88, 111720.03, -0.056716993, 0.6732716, -225997.81, -86739.69, 0.0, 9.998863, 9.999354 
2.8248686e+3, 2.957962e+2, -303982.78, -240872.31, 109360.445, -0.06605013, 0.69581324, -158605.58, -117342.555, 0.0, 9.99855, 9.999378 
2.8248394e+3, 3.0579516e+2, -232232.73, -66558.2, 25931.488, -0.05734807, 0.6077632, -62594.234, -62594.234, 0.0, 9.998212, 10.000403 
2.8248087e+3, 3.1579632e+2, -267900.1, -54368.168, 36835.055, -0.106213085, 0.6887638, -48192.586, -48192.586, 0.0, 9.997841, 10.000666 
2.8353602e+3, 1.258473e+2, -1432999.0, -1710542.4, -11271.849, 0.20137352, 0.8227722, -1432542.0, 274235.47, 0.0, 10.002504, 9.998823 
2.8353292e+3, 1.3584617e+2, -1352911.0, -1619585.8, -10051.602, 0.1790356, 0.83256423, -1352532.6, 256256.11, 0.0, 10.002375, 9.998837 
2.8352985e+3, 1.4584497e+2, -1280332.8, -1504246.4, 30434.947, 0.16040212, 0.8203556, -1276269.6, 234529.84, 0.0, 10.002074, 9.9991 
2.8352684e+3, 1.5584373e+2, -1245258.3, -1440550.0, 40217.754, 0.14790633, 0.7923627, -1237300.3, 175509.34, 0.0, 10.001659, 9.999064 
2.8352386e+3, 1.6584241e+2, -1195663.1, -1401704.4, 75741.39, 0.12726891, 0.7756344, -1170816.6, 144004.86, 0.0, 10.001483, 9.998743 
2.8352094e+3, 1.7584102e+2, -1098289.8, -1305095.6, 73877.46, 0.099683605, 0.7667967, -1074609.9, 142224.84, 0.0, 10.001484, 9.998733 
2.83518e+3, 1.8583973e+2, -1033325.06, -1230303.1, 78246.36, 0.08314685, 0.77264905, -1006026.25, 112821.234, 0.0, 10.001289, 9.998667 
2.835151e+3, 1.958385e+2, -983596.06, -1154819.4, 77161.086, 0.074957624, 0.7890151, -953955.0, 66904.93, 0.0, 10.000955, 9.998673 
2.8351218e+3, 2.058372e+2, -909844.06, -1056250.1, 86199.93, 0.052637223, 0.790465, -869958.2, 52914.457, 0.0, 10.000735, 9.998783 
2.8350928e+3, 2.1583584e+2, -831891.2, -968722.44, 91354.97, 0.020028746, 0.78116393, -786173.44, 38712.008, 0.0, 10.000602, 9.9987755 
2.8350645e+3, 2.2583453e+2, -764283.56, -889512.2, 114175.06, 0.0030685402, 0.7787874, -696680.75, 30217.205, 0.0, 10.00041, 9.998738 
2.8350362e+3, 2.3583324e+2, -698806.2, -804332.25, 113755.04, -0.0024510862, 0.7810518, -626173.25, 2736.9216, 0.0, 10.0001745, 9.998764 
2.8350082e+3, 2.4583194e+2, -619681.0, -678037.75, 120178.54, -0.016886711, 0.7619383, -525189.44, 5731.768, 0.0, 9.999884, 9.999099 
2.83498e+3, 2.5583065e+2, -569492.9, -601787.06, 124932.67, -0.037605748, 0.7275214, -459668.16, -26736.992, 0.0, 9.99955, 9.99911 
2.8349522e+3, 2.6582953e+2, -494443.38, -494763.53, 123742.664, -0.044541582, 0.7001882, -370860.7, -35920.72, 0.0, 9.999305, 9.99929 
2.8349242e+3, 2.7582854e+2, -422672.16, -408711.34, 121603.12, -0.04173101, 0.6772158, -293888.44, -56940.54, 0.0, 9.999122, 9.999296 
2.8348958e+3, 2.8582785e+2, -354296.16, -313017.9, 100108.75, -0.05216225, 0.6767888, -231442.86, -92488.984, 0.0, 9.998865, 9.999405 
2.8348672e+3, 2.958274e+2, -302111.1, -237443.61, 97758.195, -0.071536556, 0.6951424, -166810.69, -125852.57, 0.0, 9.998551, 9.999402 
2.8348377e+3, 3.058263e+2, -255125.83, -114759.91, 12309.561, -0.059227817, 0.618211, -113688.58, -113688.58, 0.0, 9.998214, 10.000072 
2.8348064e+3, 3.1582746e+2, -288258.53, -97608.15, 23931.342, -0.10689371, 0.72868097, -94650.07, -94650.07, 0.0, 9.997845, 10.000367 
2.8453624e+3, 1.2587841e+2, -1477680.1, -1719905.5, 8348.064, 0.1883515, 0.83281547, -1477392.8, 229080.8, 0.0, 10.002146, 9.998932 
2.8453314e+3, 1.3587733e+2, -1429271.0, -1644802.5, 16167.38, 0.19194165, 0.8368757, -1428065.0, 180419.61, 0.0, 10.001801, 9.99894 
2.8453004e+3, 1.4587623e+2, -1346807.1, -1533658.0, 50887.684, 0.1742904, 0.8290346, -1333847.0, 176647.5, 0.0, 10.001608, 9.999123 
2.8452697e+3, 1.5587513e+2, -1262266.8, -1445846.8, 46274.543, 0.14486173, 0.81273806, -1251262.1, 161241.53, 0.0, 10.001532, 9.999089 
2.84524e+3, 1.6587389e+2, -1202191.9, -1399794.1, 84678.64, 0.12122716, 0.8004499, -1170869.5, 143645.44, 0.0, 10.001418, 9.998787 
2.8452104e+3, 1.7587253e+2, -1125068.3, -1313098.4, 87908.32, 0.10089666, 0.79081386, -1090371.6, 126156.125, 0.0, 10.00128, 9.9987755 
2.8451812e+3, 1.8587124e+2, -1056612.1, -1238480.0, 90986.71, 0.08472286, 0.7942495, -1018908.75, 99631.73, 0.0, 10.001118, 9.9986925 
2.8451517e+3, 1.9587001e+2, -983901.2, -1151746.6, 94859.09, 0.071750775, 0.80706626, -941169.75, 79383.19, 0.0, 10.00094, 9.998701 
2.8451225e+3, 2.0586875e+2, -901024.8, -1048431.6, 107738.63, 0.048944287, 0.8082278, -844191.56, 78373.75, 0.0, 10.000782, 9.998814 
2.8450936e+3, 2.1586743e+2, -824752.25, -961742.25, 109049.1, 0.018953465, 0.80087703, -764471.2, 60106.363, 0.0, 10.000636, 9.998806 
2.8450647e+3, 2.258661e+2, -764858.25, -888580.6, 127997.234, 0.0043346947, 0.79520553, -684557.2, 42032.902, 0.0, 10.000402, 9.998748 
2.8450364e+3, 2.3586474e+2, -708486.25, -807596.5, 131579.98, 0.0010674869, 0.7905402, -617439.1, 11163.733, 0.0, 10.000104, 9.9987755 
2.845008e+3, 2.4586345e+2, -612518.1, -673635.94, 137282.58, -0.015673066, 0.7711877, -502434.4, 28179.336, 0.0, 9.999929, 9.999106 
2.8449798e+3, 2.558622e+2, -527034.4, -580506.2, 134740.6, -0.042167127, 0.7414995, -416402.75, 16220.433, 0.0, 9.999839, 9.999117 
2.8449515e+3, 2.6586112e+2, -456695.34, -479067.25, 129072.22, -0.049392115, 0.7167113, -338325.28, -3693.1963, 0.0, 9.999576, 9.999268 
2.8449234e+3, 2.758601e+2, -413824.03, -406070.53, 128895.79, -0.042695295, 0.69448453, -280993.22, -44352.605, 0.0, 9.99919, 9.999281 
2.8448948e+3, 2.8585947e+2, -336108.5, -300436.4, 110166.86, -0.05340495, 0.6980315, -206671.11, -68024.99, 0.0, 9.998975, 9.999437 
2.8448656e+3, 2.958591e+2, -252769.03, -211679.33, 106155.06, -0.07638503, 0.72275424, -124099.305, -83450.12, 0.0, 9.998883, 9.999418 
2.8448358e+3, 3.0585787e+2, -194256.22, -109133.01, 22586.81, -0.061689273, 0.6446842, -103511.07, -103511.07, 0.0, 9.998735, 9.999859 
2.8448045e+3, 3.1585875e+2, -201050.66, -76443.4, 43861.67, -0.117825076, 0.75103927, -62552.613, -62552.613, 0.0, 9.998534, 10.00018 
2.8553644e+3, 1.2590976e+2, -1466023.3, -1692895.0, -5062.041, 0.17830248, 0.8299099, -1465910.3, 240256.88, 0.0, 10.002132, 9.999124 
2.855333e+3, 1.3590898e+2, -1417127.4, -1620958.5, 3404.8967, 0.20143083, 0.84518075, -1417070.5, 191104.53, 0.0, 10.001806, 9.999102 
2.855302e+3, 1.4590801e+2, -1357734.5, -1558215.5, 47603.266, 0.1897826, 0.8516166, -1347005.5, 163178.92, 0.0, 10.001616, 9.998951 
2.8552714e+3, 1.5590692e+2, -1272471.3, -1467249.8, 43250.285, 0.15770698, 0.8512328, -1263299.5, 148895.28, 0.0, 10.001532, 9.998942 
2.8552416e+3, 1.6590571e+2, -1194301.4, -1383003.9, 79599.71, 0.12862375, 0.844672, -1165209.3, 148996.64, 0.0, 10.001416, 9.998903 
2.8552118e+3, 1.7590447e+2, -1117253.8, -1296640.0, 82539.03, 0.10035696, 0.8338607, -1085055.3, 131162.14, 0.0, 10.001279, 9.998889 
2.855182e+3, 1.8590316e+2, -1050806.1, -1226358.3, 84269.22, 0.07449845, 0.82653826, -1016902.5, 101327.29, 0.0, 10.001117, 9.998776 
2.8551525e+3, 1.9590184e+2, -978531.2, -1140671.3, 88307.805, 0.05081919, 0.82165194, -939723.7, 80518.99, 0.0, 10.00094, 9.998777 
2.8551233e+3, 2.0590061e+2, -902350.7, -1051113.0, 102254.44, 0.038634315, 0.82395196, -850286.1, 71968.57, 0.0, 10.000781, 9.9987955 
2.8550944e+3, 2.1589941e+2, -825659.6, -963332.4, 103166.52, 0.034504276, 0.8311055, -770472.7, 53793.242, 0.0, 10.000635, 9.9987955 
2.8550652e+3, 2.2589809e+2, -760889.6, -880341.94, 116693.055, 0.017901205, 0.8219274, -689526.2, 36752.242, 0.0, 10.0004015, 9.998805 
2.8550363e+3, 2.3589662e+2, -705056.75, -800816.44, 121137.76, -0.0075028595, 0.80109775, -622679.8, 5612.01, 0.0, 10.000105, 9.998821 
2.855008e+3, 2.458953e+2, -618565.1, -686536.1, 133900.06, -0.026721232, 0.7798669, -514404.9, 15898.217, 0.0, 9.99993, 9.999018 
2.8549796e+3, 2.5589404e+2, -532462.7, -592186.56, 130326.42, -0.041358054, 0.758517, -428620.8, 3692.0842, 0.0, 9.99984, 9.999036 
2.854951e+3, 2.6589298e+2, -456636.5, -479242.53, 114399.24, -0.0479832, 0.7398895, -352983.25, -18661.348, 0.0, 9.999577, 9.999266 
2.8549224e+3, 2.75892e+2, -413655.6, -405746.66, 115100.84, -0.04895869, 0.7222709, -294532.38, -58202.016, 0.0, 9.99919, 9.999284 
2.8548935e+3, 2.8589147e+2, -335285.44, -298905.75, 106729.19, -0.060783643, 0.73795044, -208827.45, -70492.65, 0.0, 9.998975, 9.999449 
2.8548646e+3, 2.9589128e+2, -251983.61, -210602.2, 102305.19, -0.08033243, 0.7800917, -126916.39, -86580.2, 0.0, 9.998885, 9.999425 
2.8548345e+3, 3.0588993e+2, -199921.39, -122037.16, 15130.778, -0.06460444, 0.68767023, -119200.945, -119200.945, 0.0, 9.998739, 9.999768 
2.8548026e+3, 3.1589028e+2, -205069.53, -86580.76, 37072.84, -0.1410028, 0.7531308, -75937.43, -75937.43, 0.0, 9.998541, 10.000107 
2.8653663e+3, 1.259414e+2, -1561189.4, -1727596.0, -3642.176, 0.18646204, 0.8507229, -1561109.8, 144749.3, 0.0, 10.001431, 9.999223 
2.8653347e+3, 1.3594076e+2, -1434976.6, -1619096.3, -2011.2168, 0.19778775, 0.8703307, -1434954.6, 172910.78, 0.0, 10.001639, 9.999194 
2.8653035e+3, 1.4593984e+2, -1364184.8, -1558980.4, 42720.34, 0.18565911, 0.87613904, -1355227.6, 154646.7, 0.0, 10.001562, 9.998971 
2.8652728e+3, 1.5593871e+2, -1306470.3, -1480745.4, 51838.105, 0.16099599, 0.87185365, -1292216.9, 119668.266, 0.0, 10.0012865, 9.998967 
2.8652427e+3, 1.6593756e+2, -1232808.8, -1393406.8, 94164.47, 0.13189964, 0.8639092, -1189354.4, 124541.48, 0.0, 10.001117, 9.998975 
2.865213e+3, 1.7593637e+2, -1149040.6, -1303643.8, 93792.8, 0.098434106, 0.85345733, -1104799.5, 111107.086, 0.0, 10.001025, 9.998962 
2.865183e+3, 1.8593515e+2, -1073930.3, -1228038.0, 93060.484, 0.06959065, 0.84587646, -1030163.75, 87754.35, 0.0, 10.000918, 9.99886 
2.8651533e+3, 1.959339e+2, -993527.8, -1138952.3, 96902.06, 0.04449964, 0.8401102, -945091.06, 74839.03, 0.0, 10.000799, 9.998857 
2.8651237e+3, 2.0593269e+2, -926838.7, -1059645.0, 110785.875, 0.037321385, 0.84097636, -864079.56, 57862.086, 0.0, 10.0006, 9.998824 
2.8650948e+3, 2.1593152e+2, -865579.8, -979043.6, 115422.65, 0.042641677, 0.84652877, -793700.3, 30252.615, 0.0, 10.000347, 9.998826 
2.8650656e+3, 2.2593023e+2, -773178.75, -882109.06, 132837.78, 0.023923552, 0.83807474, -684073.94, 41891.086, 0.0, 10.000301, 9.998841 
2.8650367e+3, 2.3592883e+2, -659853.06, -774985.75, 135358.16, -0.011662938, 0.81946796, -570328.56, 57649.29, 0.0, 10.000399, 9.998857 
2.8650078e+3, 2.4592751e+2, -578288.6, -668838.4, 145675.61, -0.029880468, 0.798566, -471014.53, 58974.574, 0.0, 10.000216, 9.9990015 
2.8649792e+3, 2.5592622e+2, -535511.6, -595490.6, 147371.95, -0.035690572, 0.77640873, -415108.78, 16890.459, 0.0, 9.999828, 9.999019 
2.8649503e+3, 2.659251e+2, -459488.75, -485224.88, 130421.445, -0.04320541, 0.75674033, -341302.1, -7293.3433, 0.0, 9.9995775, 9.999224 
2.8649217e+3, 2.7592412e+2, -383943.56, -395468.03, 127818.16, -0.05199003, 0.7379806, -261757.83, -25740.0, 0.0, 9.999413, 9.999247 
2.8648925e+3, 2.8592357e+2, -309111.4, -288027.78, 120263.29, -0.06883931, 0.75628555, -177845.17, -39822.777, 0.0, 9.999164, 9.999432 
2.8648633e+3, 2.9592344e+2, -253738.31, -213321.75, 114287.234, -0.09125654, 0.8032653, -117469.93, -77446.34, 0.0, 9.998882, 9.999407 
2.8648332e+3, 3.0592197e+2, -181398.36, -126120.43, 32806.324, -0.06870033, 0.70997334, -110862.22, -110862.22, 0.0, 9.998924, 9.99965 
2.8648016e+3, 3.159222e+2, -116298.98, -52824.668, 52848.742, -0.14827926, 0.77490485, -22915.764, -22915.764, 0.0, 9.999191, 10.000025 
2.8753677e+3, 1.2597328e+2, -1559979.6, -1725201.6, 3852.3633, 0.20971756, 0.89218175, -1559889.9, 145659.1, 0.0, 10.001431, 9.999239 
2.875336e+3, 1.3597263e+2, -1433863.4, -1614909.5, 4184.5347, 0.1825606, 0.9100133, -1433766.8, 173788.72, 0.0, 10.001631, 9.999228 
2.8753048e+3, 1.4597172e+2, -1351951.9, -1531952.8, 32369.1, 0.16439866, 0.90205765, -1346308.0, 163256.25, 0.0, 10.0015545, 9.99916 
2.8752738e+3, 1.5597054e+2, -1293988.8, -1455175.0, 42008.77, 0.1556557, 0.8763115, -1283697.5, 127876.93, 0.0, 10.001288, 9.999143 
2.8752437e+3, 1.659694e+2, -1230319.0, -1388908.5, 90549.25, 0.13131525, 0.8605318, -1189252.5, 124332.21, 0.0, 10.00112, 9.999005 
2.875214e+3, 1.7596827e+2, -1146682.3, -1298691.0, 90118.95, 0.09526048, 0.85153925, -1104796.5, 110798.78, 0.0, 10.001025, 9.998998 
2.8751838e+3, 1.859672e+2, -1068460.3, -1216271.1, 88540.08, 0.06970873, 0.8533285, -1027034.2, 90571.19, 0.0, 10.0009165, 9.998942 
2.875154e+3, 1.9596618e+2, -988221.1, -1127480.8, 91938.914, 0.051912896, 0.86237437, -942520.7, 77094.484, 0.0, 10.000797, 9.998937 
2.8751245e+3, 2.0596501e+2, -922003.3, -1049549.0, 101154.31, 0.044374425, 0.8591157, -866197.0, 55429.355, 0.0, 10.0006, 9.998894 
2.875095e+3, 2.1596375e+2, -860620.7, -969317.6, 107145.57, 0.043610394, 0.8475155, -794827.9, 28810.627, 0.0, 10.000349, 9.998892 
2.8750658e+3, 2.2596252e+2, -771931.7, -880067.75, 136597.55, 0.022734538, 0.84407705, -679090.75, 46559.156, 0.0, 10.000303, 9.998855 
2.875037e+3, 2.3596135e+2, -658273.4, -771804.8, 137584.34, -0.011617344, 0.84580505, -566204.3, 61456.65, 0.0, 10.000399, 9.9988785 
2.875008e+3, 2.4596009e+2, -574646.44, -661261.1, 131002.945, -0.025333447, 0.8272333, -479978.1, 49693.58, 0.0, 10.000216, 9.999054 
2.8749794e+3, 2.5595877e+2, -532654.9, -589591.7, 133674.69, -0.025047315, 0.7950536, -424450.78, 7231.39, 0.0, 9.999828, 9.99906 
2.8749502e+3, 2.6595756e+2, -465512.9, -498008.34, 124288.336, -0.03498987, 0.7670944, -356414.78, -22722.164, 0.0, 9.999578, 9.999136 
2.874921e+3, 2.7595636e+2, -389370.1, -407345.13, 120658.43, -0.05174798, 0.741139, -277364.9, -41661.867, 0.0, 9.999414, 9.999165 
2.8748915e+3, 2.8595573e+2, -312453.63, -295076.88, 109421.25, -0.077656396, 0.7519337, -193999.6, -56290.65, 0.0, 9.999164, 9.999383 
2.874862e+3, 2.9595542e+2, -257498.55, -220448.16, 105169.82, -0.110002846, 0.79060364, -132184.44, -92472.89, 0.0, 9.998879, 9.999359 
2.8748322e+3, 3.0595398e+2, -192177.72, -148191.16, 43076.133, -0.07438202, 0.7111322, -121818.57, -121818.57, 0.0, 9.998923, 9.999499 
2.874801e+3, 3.1595457e+2, -122301.45, -66065.63, 63107.21, -0.13632783, 0.8220623, -25095.654, -25095.654, 0.0, 9.999194, 9.999932 
2.8853688e+3, 1.2600495e+2, -1609699.8, -1730708.6, 6944.271, 0.20714101, 0.91344106, -1609302.6, 95937.79, 0.0, 10.001012, 9.999404 
2.8853375e+3, 1.3600431e+2, -1511651.9, -1634489.6, 16495.639, 0.17832053, 0.9158472, -1509475.3, 97771.14, 0.0, 10.0010195, 9.999388 
2.8853062e+3, 1.460035e+2, -1418389.1, -1552136.6, 38367.99, 0.16060796, 0.9061821, -1408164.3, 101089.68, 0.0, 10.001047, 9.999266 
2.8852752e+3, 1.5600252e+2, -1315522.9, -1454231.8, 42087.805, 0.15386742, 0.8880445, -1303751.4, 107511.055, 0.0, 10.001092, 9.999244 
2.8852445e+3, 1.660015e+2, -1244749.3, -1389010.3, 87905.56, 0.1279965, 0.8760622, -1203168.6, 110103.11, 0.0, 10.000991, 9.999066 
2.8852147e+3, 1.7600043e+2, -1176260.3, -1305629.8, 89699.664, 0.08817648, 0.86827976, -1130355.0, 84926.664, 0.0, 10.000791, 9.999063 
2.8851846e+3, 1.8599944e+2, -1103199.4, -1220279.5, 90894.43, 0.06804142, 0.86829334, -1053625.0, 63666.04, 0.0, 10.000623, 9.999056 
2.8851548e+3, 1.9599849e+2, -1026712.94, -1133531.1, 96573.586, 0.06169054, 0.8736543, -969763.56, 49536.258, 0.0, 10.00048, 9.999047 
2.885125e+3, 2.059974e+2, -940077.9, -1047051.6, 108449.94, 0.05123379, 0.86821145, -872642.3, 48667.79, 0.0, 10.000428, 9.998993 
2.8850952e+3, 2.1599622e+2, -840491.56, -948486.4, 116954.1, 0.037798032, 0.8552928, -765671.4, 57649.918, 0.0, 10.00044, 9.998991 
2.8850663e+3, 2.259951e+2, -762248.2, -863802.75, 152952.67, 0.017466463, 0.85131955, -651864.56, 73467.3, 0.0, 10.00032, 9.998958 
2.885037e+3, 2.3599401e+2, -693286.25, -777117.2, 160095.61, -0.007221517, 0.85328245, -569710.0, 57631.934, 0.0, 10.00011, 9.9989805 
2.8850082e+3, 2.4599293e+2, -596244.56, -663482.75, 152493.94, -0.018950023, 0.8435507, -473707.8, 55643.496, 0.0, 10.000033, 9.9991255 
2.884979e+3, 2.5599182e+2, -495202.4, -563248.8, 156530.83, -0.022041192, 0.8259357, -369039.84, 62320.406, 0.0, 10.0000515, 9.999131 
2.8849497e+3, 2.659906e+2, -433738.75, -480993.75, 147172.55, -0.03280979, 0.79486984, -308309.2, 25061.412, 0.0, 9.999791, 9.999149 
2.8849205e+3, 2.759893e+2, -405060.13, -414018.72, 150768.31, -0.04866549, 0.75362, -258704.58, -23322.547, 0.0, 9.999306, 9.99917 
2.8848907e+3, 2.859885e+2, -320258.9, -330371.3, 146574.75, -0.07947537, 0.76594806, -178653.17, -41264.03, 0.0, 9.999249, 9.999099 
2.8848612e+3, 2.9598805e+2, -175479.53, -212989.81, 125204.12, -0.12063352, 0.8184686, -67633.62, -28240.297, 0.0, 9.999583, 9.999071 
2.8848314e+3, 3.059861e+2, -89805.68, -146023.28, 50034.9, -0.07403563, 0.72202116, -60524.625, -60524.625, 0.0, 9.999829, 9.999078 
2.8848004e+3, 3.1598634e+2, -32585.11, -62964.617, 50130.742, -0.120986804, 0.8408968, 4606.6226, 4606.6226, 0.0, 9.999982, 9.999576 
2.8953695e+3, 1.2603642e+2, -1589043.9, -1688155.6, 7491.4033, 0.18265074, 0.9169185, -1588480.9, 116451.92, 0.0, 10.001013, 9.999696 
2.8953382e+3, 1.3603581e+2, -1492930.9, -1595592.4, 16674.195, 0.18376441, 0.8920325, -1490290.5, 116647.24, 0.0, 10.0010195, 9.999655 
2.8953072e+3, 1.4603522e+2, -1416627.6, -1548062.6, 39713.95, 0.1719941, 0.89135253, -1405559.8, 103383.46, 0.0, 10.001045, 9.999294 
2.8952762e+3, 1.560346e+2, -1313729.1, -1449658.0, 42760.645, 0.15521324, 0.9064589, -1301396.4, 109552.89, 0.0, 10.001088, 9.999277 
2.8952456e+3, 1.660338e+2, -1238982.9, -1376318.9, 80122.91, 0.122264795, 0.90867084, -1202128.5, 110828.5, 0.0, 10.000988, 9.999155 
2.8952155e+3, 1.7603283e+2, -1169797.1, -1292188.6, 82119.81, 0.07744709, 0.9021216, -1128579.0, 86386.87, 0.0, 10.00079, 9.999155 
2.8951854e+3, 1.8603183e+2, -1093115.0, -1199583.4, 85234.55, 0.0646942, 0.89009196, -1045856.3, 71118.63, 0.0, 10.000624, 9.999198 
2.8951553e+3, 1.9603083e+2, -1016846.56, -1113278.6, 91497.805, 0.07374941, 0.8744999, -961638.06, 57346.023, 0.0, 10.00048, 9.9991865 
2.8951254e+3, 2.0602986e+2, -931061.44, -1028485.6, 108722.98, 0.057863273, 0.86886066, -860636.8, 60356.008, 0.0, 10.000428, 9.999121 
2.8950956e+3, 2.1602893e+2, -831462.7, -929613.6, 116567.555, 0.025257388, 0.8697509, -754061.3, 68940.055, 0.0, 10.000439, 9.999121 
2.895066e+3, 2.2602792e+2, -749124.94, -836454.0, 144846.4, 0.00819346, 0.8595972, -641504.75, 83506.07, 0.0, 10.0003195, 9.9991455 
2.8950372e+3, 2.3602684e+2, -680725.4, -751248.75, 152776.36, 0.001641677, 0.8419969, -559194.2, 67826.63, 0.0, 10.000111, 9.999158 
2.8950083e+3, 2.4602602e+2, -589953.3, -650648.4, 153147.64, -0.01076978, 0.84778124, -464175.34, 64852.695, 0.0, 10.000034, 9.999213 
2.894979e+3, 2.560254e+2, -488073.06, -548603.7, 156118.66, -0.026958903, 0.86944157, -359313.13, 71720.27, 0.0, 10.0000515, 9.999232 
2.8949493e+3, 2.6602432e+2, -425826.8, -464906.6, 128744.97, -0.036746368, 0.84040076, -315147.38, 17895.229, 0.0, 9.999792, 9.99926 
2.8949198e+3, 2.7602285e+2, -398870.84, -401272.06, 133228.08, -0.042598527, 0.7756907, -266837.97, -31783.236, 0.0, 9.999305, 9.999258 
2.89489e+3, 2.8602198e+2, -357572.97, -407409.53, 159505.36, -0.073987715, 0.79914945, -221051.22, -83988.36, 0.0, 9.9992485, 9.9985695 
2.8948605e+3, 2.9602137e+2, -212811.06, -290945.63, 138065.55, -0.12242464, 0.8883194, -108391.945, -69323.164, 0.0, 9.999585, 9.998534 
2.8948313e+3, 3.060183e+2, -138376.56, -247375.88, 55755.15, -0.06698934, 0.74140036, -114909.24, -114909.24, 0.0, 9.999832, 9.99838 
2.8948006e+3, 3.1601757e+2, -76843.28, -154096.97, 56804.082, -0.10189104, 0.83541894, -46777.06, -46777.06, 0.0, 9.99998, 9.99895 
2.9053703e+3, 1.2606797e+2, -1634405.0, -1699233.5, 16236.205, 0.18128061, 0.9139023, -1630566.0, 74058.55, 0.0, 10.000654, 9.999792 
2.905339e+3, 1.360676e+2, -1535808.6, -1605630.0, 12310.072, 0.18223102, 0.90339243, -1533701.9, 72925.48, 0.0, 10.000679, 9.99975 
2.905308e+3, 1.4606714e+2, -1463132.8, -1562326.9, 31763.982, 0.17095527, 0.9084033, -1453833.1, 54798.504, 0.0, 10.00069, 9.999368 
2.905277e+3, 1.5606661e+2, -1366902.9, -1467170.9, 37406.39, 0.15516272, 0.9236355, -1354485.6, 56151.484, 0.0, 10.000688, 9.99935 
2.9052463e+3, 1.6606586e+2, -1283136.6, -1388722.6, 70403.57, 0.123874515, 0.92443097, -1247930.9, 64713.426, 0.0, 10.000647, 9.999234 
2.905216e+3, 1.7606494e+2, -1194955.3, -1295263.6, 71648.84, 0.081117705, 0.91547245, -1157650.9, 57001.84, 0.0, 10.000578, 9.999236 
2.9051858e+3, 1.8606405e+2, -1107986.1, -1194900.6, 72705.05, 0.06695337, 0.904618, -1066740.6, 49920.18, 0.0, 10.00047, 9.999304 
2.9051557e+3, 1.9606319e+2, -1030362.9, -1107841.8, 76866.86, 0.07234081, 0.89234746, -983025.25, 35643.19, 0.0, 10.000336, 9.999293 
2.9051256e+3, 2.0606233e+2, -950011.75, -1021281.44, 96987.84, 0.05786547, 0.8842675, -882319.56, 38356.516, 0.0, 10.000227, 9.999267 
2.9050958e+3, 2.1606149e+2, -865215.06, -929061.06, 105807.516, 0.029885236, 0.8790847, -786619.7, 36063.805, 0.0, 10.000134, 9.999271 
2.9050663e+3, 2.2606067e+2, -772724.5, -822795.25, 132565.61, 0.011079261, 0.87055975, -662851.0, 61839.84, 0.0, 10.00005, 9.99937 
2.9050374e+3, 2.3605987e+2, -685995.4, -729724.1, 143354.78, -0.0011912235, 0.8595738, -562847.2, 63850.76, 0.0, 9.99997, 9.999373 
2.9050082e+3, 2.4605924e+2, -605231.56, -634304.3, 151662.45, -0.018418802, 0.8598022, -467410.47, 61293.33, 0.0, 9.999827, 9.999424 
2.9049787e+3, 2.560587e+2, -532882.44, -544373.7, 163168.9, -0.039180916, 0.8680617, -375358.0, 55350.64, 0.0, 9.999634, 9.999462 
2.904949e+3, 2.660581e+2, -443997.88, -422647.2, 145292.19, -0.04077205, 0.8527394, -287638.7, 45074.547, 0.0, 9.99945, 9.999714 
2.904919e+3, 2.760574e+2, -372902.47, -341113.06, 176382.28, -0.029071951, 0.8198847, -179910.77, 54807.152, 0.0, 9.999282, 9.9996805 
2.9048884e+3, 2.8605667e+2, -482238.16, -411116.97, 230740.4, -0.096143946, 0.81761384, -213213.03, -76488.18, 0.0, 9.998156, 9.999067 
2.915371e+3, 1.2609956e+2, -1638677.5, -1709454.3, 16541.602, 0.19953945, 0.90586185, -1635002.3, 69313.3, 0.0, 10.00066, 9.99972 
2.9153395e+3, 1.3609962e+2, -1539077.9, -1613345.4, 12924.538, 0.17443001, 0.9457695, -1536893.0, 69422.234, 0.0, 10.000683, 9.999696 
2.9153085e+3, 1.4609922e+2, -1454976.1, -1545774.6, 31376.98, 0.15903912, 0.95333505, -1445188.4, 63130.777, 0.0, 10.000692, 9.999481 
2.9152775e+3, 1.5609853e+2, -1359444.6, -1451559.8, 36914.98, 0.15386225, 0.93948704, -1346476.6, 63849.195, 0.0, 10.000687, 9.999457 
2.915247e+3, 1.660977e+2, -1278469.3, -1378630.5, 67698.195, 0.13210739, 0.9249461, -1244341.1, 67992.49, 0.0, 10.000644, 9.999305 
2.9152167e+3, 1.760968e+2, -1190484.1, -1285342.6, 68794.37, 0.09806412, 0.9100291, -1154353.9, 59988.07, 0.0, 10.000575, 9.999306 
2.9151863e+3, 1.8609612e+2, -1103115.1, -1184395.1, 67626.305, 0.0743061, 0.9126037, -1064856.9, 51491.234, 0.0, 10.000468, 9.999377 
2.915156e+3, 1.9609559e+2, -1024836.25, -1096467.9, 72120.92, 0.058062658, 0.92637676, -980127.5, 38225.363, 0.0, 10.000336, 9.999372 
2.915126e+3, 2.060948e+2, -938309.9, -997374.6, 93507.09, 0.051701415, 0.9135627, -869782.4, 50577.324, 0.0, 10.000229, 9.999431 
2.9150963e+3, 2.1609387e+2, -853126.06, -904396.5, 102369.69, 0.051264994, 0.88345355, -773230.7, 49137.04, 0.0, 10.000136, 9.99944 
2.9150668e+3, 2.2609337e+2, -754468.6, -785118.94, 129507.55, 0.025642028, 0.88449883, -639382.6, 84989.19, 0.0, 10.000051, 9.999628 
2.915037e+3, 2.3609315e+2, -668379.0, -693097.5, 140002.22, -0.015814032, 0.9057371, -540191.56, 86181.76, 0.0, 9.99997, 9.999625 
2.9150075e+3, 2.4609253e+2, -581910.6, -585922.8, 144243.11, -0.041846383, 0.8790169, -439659.7, 88718.9, 0.0, 9.999827, 9.999757 
2.914978e+3, 2.5609165e+2, -507773.16, -492395.25, 155457.72, -0.05878753, 0.8210541, -344436.44, 85949.61, 0.0, 9.999634, 9.999819 
2.9149485e+3, 2.6609188e+2, -388387.97, -307002.7, 138709.39, -0.044912003, 0.83182085, -203140.19, 129242.305, 0.0, 9.999449, 10.000509 
2.9149184e+3, 2.760929e+2, -320436.75, -231960.53, 170726.73, -0.008013793, 0.8871594, -99833.586, 134537.88, 0.0, 9.999281, 10.000431 
2.914886e+3, 2.860926e+2, -374999.44, -191585.52, 150089.02, -0.14758016, 0.8197928, -107403.66, 28971.56, 0.0, 9.998162, 10.000575 
2.9253718e+3, 1.2613131e+2, -1667040.3, -1725081.9, 325.67395, 0.21240333, 0.9375891, -1667038.4, 36967.965, 0.0, 10.000474, 9.999702 
2.9253402e+3, 1.3613127e+2, -1565256.1, -1626309.5, 387.3054, 0.17366685, 0.96851903, -1565253.6, 40753.566, 0.0, 10.0005045, 9.999693 
2.925309e+3, 1.4613089e+2, -1476606.5, -1543871.5, 18255.172, 0.15402466, 0.97128934, -1471971.6, 36039.27, 0.0, 10.00049, 9.999592 
2.925278e+3, 1.5613027e+2, -1387627.0, -1452593.8, 23553.791, 0.15094098, 0.95526564, -1379986.1, 30030.305, 0.0, 10.000439, 9.99957 
2.9252476e+3, 1.6612957e+2, -1310683.4, -1378421.5, 55089.434, 0.13451384, 0.9411304, -1279884.4, 32138.377, 0.0, 10.000355, 9.999447 
2.9252172e+3, 1.7612885e+2, -1228999.0, -1288928.0, 61296.016, 0.107929796, 0.92828745, -1190735.4, 23294.031, 0.0, 10.000245, 9.99944 
2.9251865e+3, 1.8612824e+2, -1135573.4, -1188849.0, 63873.34, 0.08261844, 0.9290436, -1093005.9, 23028.82, 0.0, 10.000196, 9.999477 
2.925156e+3, 1.9612777e+2, -1039833.56, -1092589.8, 70436.14, 0.058725823, 0.93866426, -990998.25, 27040.553, 0.0, 10.000184, 9.999472 
2.925126e+3, 2.0612709e+2, -941503.5, -985637.44, 90687.02, 0.04962466, 0.9248613, -870237.25, 49807.324, 0.0, 10.000149, 9.99955 
2.9250962e+3, 2.161263e+2, -850933.06, -890445.56, 96033.62, 0.0499196, 0.8957111, -772644.6, 49406.555, 0.0, 10.000094, 9.999557 
2.9250664e+3, 2.2612593e+2, -764814.2, -774590.75, 112898.09, 0.02461394, 0.89706975, -656698.6, 67355.516, 0.0, 9.999911, 9.999767 
2.9250368e+3, 2.3612586e+2, -705795.8, -693955.7, 114924.78, -0.01694971, 0.91823035, -584798.56, 41255.8, 0.0, 9.999638, 9.99978 
2.9250073e+3, 2.4612546e+2, -604564.25, -556746.1, 119026.68, -0.041883834, 0.8885288, -459250.94, 68806.26, 0.0, 9.999497, 10.000117 
2.9249775e+3, 2.561249e+2, -511941.9, -456662.16, 131089.8, -0.05719918, 0.82549417, -350330.0, 79731.21, 0.0, 9.999441, 10.000158 
2.9249474e+3, 2.6612553e+2, -415428.3, -284841.88, 86642.75, -0.054913316, 0.84251314, -241644.67, 90409.69, 0.0, 9.999108, 10.000826 
2.924917e+3, 2.7612698e+2, -395648.97, -227727.27, 85640.055, -0.036861967, 0.91176957, -191756.28, 42283.496, 0.0, 9.998586, 10.000796 
2.9248846e+3, 2.8612727e+2, -162948.66, 4980.177, 29793.56, -0.15014304, 0.8360283, 10109.416, 146147.02, 0.0, 9.999202, 10.00143 
2.9353723e+3, 1.2616317e+2, -1664360.6, -1720389.8, 1825.229, 0.22064593, 1.0029901, -1664301.3, 39395.816, 0.0, 10.000478, 9.999732 
2.9353407e+3, 1.3616256e+2, -1561793.5, -1619969.5, 1975.7584, 0.17906404, 0.9736728, -1561726.5, 43976.418, 0.0, 10.000508, 9.999734 
2.9353097e+3, 1.4616215e+2, -1468816.4, -1527968.3, 16888.941, 0.15498506, 0.9655744, -1464334.0, 43372.477, 0.0, 10.000491, 9.999701 
2.9352784e+3, 1.5616184e+2, -1379693.8, -1435509.8, 22081.842, 0.14648362, 0.9711223, -1372014.4, 37694.3, 0.0, 10.000436, 9.999689 
2.9352477e+3, 1.6616146e+2, -1296359.0, -1348412.6, 51292.047, 0.13162525, 0.97150993, -1264868.3, 46843.527, 0.0, 10.000353, 9.999653 
2.9352173e+3, 1.7616104e+2, -1215025.3, -1260423.3, 57752.406, 0.111196116, 0.96827686, -1175671.1, 38044.344, 0.0, 10.000247, 9.999636 
2.9351866e+3, 1.8616045e+2, -1126345.6, -1170260.3, 63373.87, 0.09181859, 0.9530719, -1081233.0, 34487.492, 0.0, 10.000198, 9.999604 
2.9351562e+3, 1.9615978e+2, -1031356.25, -1075143.0, 69815.26, 0.07352495, 0.9303195, -980082.06, 37644.105, 0.0, 10.000184, 9.999592 
2.935126e+3, 2.0615922e+2, -935892.2, -974186.9, 88563.03, 0.05124364, 0.9192514, -864430.3, 55300.293, 0.0, 10.000149, 9.999629 
2.935096e+3, 2.1615875e+2, -846104.56, -880713.6, 93215.37, 0.026402447, 0.9155732, -768601.1, 53132.836, 0.0, 10.000095, 9.999623 
2.9350662e+3, 2.2615834e+2, -763076.9, -771138.25, 102467.086, 0.008553461, 0.9078699, -664561.25, 59176.434, 0.0, 9.999911, 9.999791 
2.9350367e+3, 2.3615797e+2, -701409.9, -685043.9, 105483.09, -0.0046115676, 0.89752966, -587426.9, 38314.293, 0.0, 9.999639, 9.999841 
2.935007e+3, 2.4615803e+2, -577064.4, -500009.7, 116932.57, -0.018627115, 0.8891247, -415420.88, 112318.64, 0.0, 9.999498, 10.000506 
2.9349774e+3, 2.561584e+2, -489357.2, -409991.06, 127175.89, -0.03433974, 0.88209516, -316450.8, 113283.3, 0.0, 9.999442, 10.000479 
2.9349464e+3, 2.6615894e+2, -426831.78, -308467.75, 66418.88, -0.07137324, 0.88455516, -278689.22, 53039.715, 0.0, 9.999107, 10.000665 
2.9349148e+3, 2.7615964e+2, -396617.56, -229497.69, 69478.32, -0.11758155, 0.8921021, -204386.11, 29337.129, 0.0, 9.998584, 10.000786 
2.934884e+3, 2.8616062e+2, -146450.27, 39832.168, 88476.85, -0.100165576, 0.86865073, 75156.664, 210868.44, 0.0, 9.999203, 10.001667 
2.9453728e+3, 1.2619458e+2, -1677027.4, -1713628.1, 5259.6626, 0.21938573, 1.019786, -1676286.5, 27104.701, 0.0, 10.000335, 9.999848 
2.9453412e+3, 1.3619408e+2, -1570750.1, -1611556.1, 10681.362, 0.18001494, 0.9894362, -1568123.3, 37272.36, 0.0, 10.000391, 9.999848 
2.94531e+3, 1.4619374e+2, -1486216.3, -1524261.0, 22234.047, 0.16003184, 0.9774831, -1475977.6, 31420.572, 0.0, 10.000319, 9.999809 
2.945279e+3, 1.561935e+2, -1413556.9, -1440220.3, 28097.23, 0.15658042, 0.97774744, -1395788.9, 13610.736, 0.0, 10.000153, 9.999794 
2.9452482e+3, 1.661932e+2, -1324086.4, -1353275.6, 54714.746, 0.13857396, 0.97806776, -1282053.3, 29348.668, 0.0, 10.000125, 9.99973 
2.9452175e+3, 1.7619288e+2, -1219227.0, -1254182.5, 52072.78, 0.110026926, 0.97813636, -1181777.1, 31627.387, 0.0, 10.000181, 9.99971 
2.945187e+3, 1.861924e+2, -1128826.8, -1164539.6, 50453.348, 0.08996298, 0.96609235, -1093163.1, 22245.412, 0.0, 10.000151, 9.999668 
2.9451564e+3, 1.9619182e+2, -1044996.8, -1075029.0, 52788.7, 0.07566797, 0.9460592, -1005130.06, 12283.354, 0.0, 10.00006, 9.999653 
2.9451263e+3, 2.0619132e+2, -945536.06, -972173.2, 70439.41, 0.054862905, 0.93509555, -887167.1, 32250.104, 0.0, 10.000052, 9.99969 
2.9450962e+3, 2.161909e+2, -842163.4, -871942.44, 72795.93, 0.0297253, 0.93013686, -782749.8, 38670.336, 0.0, 10.000092, 9.999686 
2.945066e+3, 2.2619055e+2, -749746.44, -754659.0, 76312.16, 0.009681371, 0.92059124, -675851.06, 47572.227, 0.0, 9.999958, 9.999883 
2.945036e+3, 2.3619024e+2, -684535.56, -667751.2, 85233.42, -0.006597668, 0.9078935, -590497.8, 34928.27, 0.0, 9.999713, 9.999925 
2.9450065e+3, 2.4619044e+2, -564381.2, -490460.97, 88956.61, -0.015183463, 0.9074198, -431091.8, 96331.69, 0.0, 9.999568, 10.00054 
2.9449767e+3, 2.5619102e+2, -480485.3, -401640.53, 71498.68, -0.020173974, 0.9152434, -359416.22, 70000.65, 0.0, 9.999481, 10.000519 
2.9449457e+3, 2.6619154e+2, -375881.84, -279650.34, 5297.8843, -0.06904244, 0.9128484, -279359.56, 52052.125, 0.0, 9.999435, 10.000707 
2.9449135e+3, 2.761921e+2, -267628.0, -163729.95, 25013.334, -0.14145151, 0.9026491, -158021.64, 75385.234, 0.0, 9.999449, 10.000823 
2.9448837e+3, 2.8619307e+2, -118831.93, 22467.08, 62627.684, -0.078641765, 0.88948524, 46229.33, 181624.75, 0.0, 9.999523, 10.001394 
2.955373e+3, 1.262256e+2, -1663714.3, -1686149.4, 7879.0884, 0.20991905, 0.99536747, -1661223.6, 41864.96, 0.0, 10.000336, 10.000036 
2.9553416e+3, 1.362258e+2, -1560011.9, -1586645.5, 12392.385, 0.17716654, 1.0150427, -1555137.8, 49948.19, 0.0, 10.0003805, 10.000025 
2.9553103e+3, 1.4622562e+2, -1479659.4, -1508755.9, 15971.684, 0.16880703, 1.0049391, -1472603.4, 34483.35, 0.0, 10.00031, 9.99992 
2.955279e+3, 1.5622519e+2, -1406738.3, -1426685.4, 22911.664, 0.17975427, 0.97614664, -1391723.5, 17366.14, 0.0, 10.0001545, 9.999886 
2.9552484e+3, 1.6622478e+2, -1326030.5, -1358659.8, 56722.996, 0.15426813, 0.9632172, -1283322.6, 27770.38, 0.0, 10.000131, 9.999691 
2.9552177e+3, 1.762244e+2, -1221027.1, -1258798.6, 53474.465, 0.104707874, 0.96043694, -1183201.4, 29895.047, 0.0, 10.000185, 9.999677 
2.955187e+3, 1.862241e+2, -1127992.9, -1163535.8, 46870.516, 0.0778804, 0.9692108, -1095637.8, 19461.082, 0.0, 10.000154, 9.999673 
2.9551566e+3, 1.9622387e+2, -1043891.56, -1073521.5, 50049.145, 0.06584976, 0.98475873, -1006510.75, 10589.749, 0.0, 10.000064, 9.999661 
2.9551262e+3, 2.0622338e+2, -942199.44, -965675.1, 71894.43, 0.06049326, 0.9712404, -881091.0, 38013.535, 0.0, 10.000054, 9.999734 
2.9550964e+3, 2.1622275e+2, -838075.56, -863222.5, 73008.06, 0.059025135, 0.93964434, -776566.2, 44543.543, 0.0, 10.00009, 9.999747 
2.9550663e+3, 2.2622256e+2, -738542.1, -731363.8, 66917.51, 0.027285876, 0.93560916, -667939.25, 55171.617, 0.0, 9.999957, 10.000044 
2.9550356e+3, 2.3622268e+2, -676973.6, -652222.56, 76793.08, -0.023011373, 0.9488354, -586814.2, 38295.004, 0.0, 9.999713, 10.000031 
2.9550058e+3, 2.462227e+2, -586665.1, -536824.8, 85714.484, -0.03147256, 0.94282407, -472481.38, 54627.777, 0.0, 9.999568, 10.000221 
2.9549763e+3, 2.562227e+2, -496462.38, -435137.25, 67493.71, -0.014784108, 0.92469984, -391667.53, 37442.02, 0.0, 9.999483, 10.000288 
2.9549453e+3, 2.6622334e+2, -357508.06, -241567.28, 6099.4253, -0.04719434, 0.92783046, -241247.3, 89855.2, 0.0, 9.999435, 10.000968 
2.9549134e+3, 2.762244e+2, -261002.83, -150471.9, 24464.8, -0.10654659, 0.94414914, -145298.98, 87791.5, 0.0, 9.999452, 10.000913 
2.954883e+3, 2.862246e+2, -176612.08, -96016.23, 70036.37, -0.08880687, 0.8966319, -55511.83, 79577.12, 0.0, 9.999518, 10.000581 
2.965373e+3, 1.2625708e+2, -1675788.1, -1680944.1, 4969.6787, 0.20273273, 1.010563, -1672767.6, 30014.162, 0.0, 10.000204, 10.000135 
2.9653418e+3, 1.3625741e+2, -1621783.6, -1606496.3, 4452.5894, 0.1903977, 1.0349644, -1605294.0, -516.35693, 0.0, 9.999913, 10.000114 
2.9653102e+3, 1.4625728e+2, -1533586.5, -1532128.5, 7125.515, 0.18216911, 1.0250523, -1525694.9, -18917.035, 0.0, 9.9999275, 9.999945 
2.9652792e+3, 1.5625685e+2, -1409906.5, -1426836.8, 8394.867, 0.18093672, 0.99335647, -1406449.8, 2331.0225, 0.0, 10.000126, 9.999899 
2.9652485e+3, 1.662564e+2, -1318438.8, -1362106.5, 38955.457, 0.15499763, 0.97804874, -1295615.6, 15169.04, 0.0, 10.000212, 9.999629 
2.9652178e+3, 1.7625593e+2, -1219461.3, -1264318.0, 33801.914, 0.112230726, 0.9731353, -1201323.6, 11465.353, 0.0, 10.000221, 9.999622 
2.965187e+3, 1.8625559e+2, -1117934.6, -1158841.4, 23581.738, 0.08571987, 0.98000777, -1107172.0, 7619.804, 0.0, 10.000221, 9.999674 
2.9651564e+3, 1.9625536e+2, -1021718.3, -1062407.9, 26350.059, 0.06990991, 0.9941504, -1008772.9, 8020.5317, 0.0, 10.000213, 9.999667 
2.9651263e+3, 2.0625487e+2, -934893.8, -958658.94, 46470.535, 0.06307945, 0.9783307, -898810.7, 19986.676, 0.0, 10.000088, 9.999766 
2.9650965e+3, 2.1625425e+2, -864551.56, -872518.1, 47127.715, 0.06169654, 0.9437803, -821239.1, -436.57227, 0.0, 9.999891, 9.99978 
2.965066e+3, 2.2625412e+2, -743386.75, -733420.7, 35167.895, 0.028688956, 0.9456755, -702884.56, 19918.463, 0.0, 9.999921, 10.000048 
2.9650354e+3, 2.3625436e+2, -622940.5, -626540.7, 32743.184, -0.023803193, 0.9702475, -591947.94, 32852.32, 0.0, 10.000083, 10.0000305 
2.9650053e+3, 2.4625432e+2, -543064.94, -528054.7, 41422.258, -0.03590189, 0.9636485, -493463.13, 33337.844, 0.0, 9.999918, 10.000114 
2.9649755e+3, 2.562541e+2, -491350.13, -443671.97, 39921.492, -0.023733106, 0.93737483, -421013.44, 7789.975, 0.0, 9.999562, 10.000193 
2.9649448e+3, 2.6625466e+2, -339183.4, -250867.73, -20084.373, -0.046712935, 0.94311863, -246514.78, 84282.32, 0.0, 9.999637, 10.000809 
2.964913e+3, 2.7625567e+2, -195846.31, -141799.36, -35528.586, -0.08770352, 0.9689216, -124184.86, 108600.4, 0.0, 9.999994, 10.000713 
2.9648829e+3, 2.8625554e+2, -156821.31, -137771.02, 10158.388, -0.09167608, 0.92039776, -133370.6, 1417.2997, 0.0, 9.999872, 10.000126 
2.975373e+3, 1.262889e+2, -1674025.5, -1677678.6, -5167.4917, 0.19755061, 1.0590942, -1670371.3, 32100.303, 0.0, 10.000206, 10.000156 
2.9753417e+3, 1.3628891e+2, -1620345.8, -1604345.0, -3506.6328, 0.21767391, 1.0491353, -1603610.3, 860.41376, 0.0, 9.999916, 10.000127 
2.9753107e+3, 1.4628874e+2, -1535726.6, -1538822.6, 14866.231, 0.19925776, 1.0384003, -1522328.0, -15856.574, 0.0, 9.999938, 9.999894 
2.975279e+3, 1.5628849e+2, -1411713.4, -1433894.3, 15177.05, 0.16215344, 1.0271069, -1404006.4, 4466.846, 0.0, 10.00014, 9.999844 
2.9752484e+3, 1.6628802e+2, -1322978.9, -1373406.5, 39211.844, 0.14237131, 1.0193504, -1301574.0, 8903.177, 0.0, 10.00022, 9.999547 
2.9752183e+3, 1.7628746e+2, -1224814.6, -1275037.9, 34089.195, 0.1316913, 1.0134217, -1207586.4, 4895.8687, 0.0, 10.00022, 9.99955 
2.9751876e+3, 1.8628687e+2, -1118473.6, -1159574.6, 23295.32, 0.11193616, 0.99746066, -1107959.8, 6527.4443, 0.0, 10.000219, 9.999669 
2.9751566e+3, 1.9628628e+2, -1021257.9, -1061899.9, 25212.93, 0.086946204, 0.97552204, -1009196.25, 7295.7656, 0.0, 10.000215, 9.99967 
2.9751265e+3, 2.0628576e+2, -932700.75, -954770.56, 38860.66, 0.06258812, 0.9577062, -903338.6, 15157.106, 0.0, 10.000091, 9.999792 
2.9750958e+3, 2.1628536e+2, -863533.1, -871067.75, 41365.86, 0.03857624, 0.94265306, -825763.4, -5264.7666, 0.0, 9.999894, 9.999788 
2.975066e+3, 2.2628523e+2, -753409.0, -754662.3, 41406.55, 0.014555644, 0.950668, -712624.4, 9875.213, 0.0, 9.999923, 9.999902 
2.9750356e+3, 2.3628531e+2, -630051.56, -641304.94, 36220.082, -0.009072049, 0.9726198, -599023.7, 25475.465, 0.0, 10.000083, 9.999929 
2.9750055e+3, 2.4628532e+2, -535588.4, -512293.7, 27825.188, -0.028831322, 0.9703853, -493776.44, 32722.416, 0.0, 9.999917, 10.000223 
2.974975e+3, 2.5628534e+2, -488650.78, -437776.13, 29206.75, -0.047325585, 0.9532989, -424482.44, 4015.983, 0.0, 9.999561, 10.000234 
2.974944e+3, 2.662856e+2, -379959.75, -335334.56, -6144.3896, -0.067978784, 0.9583741, -334504.03, -4008.459, 0.0, 9.999637, 10.000228 
2.974913e+3, 2.7628595e+2, -228830.3, -210729.34, -25831.936, -0.08554278, 0.9766218, -192408.3, 40083.1, 0.0, 9.999996, 10.000238 
2.9748824e+3, 2.862859e+2, -160916.33, -146012.14, -4622.975, -0.08659811, 0.962529, -144694.66, -10202.678, 0.0, 9.999871, 10.000069 
2.9853734e+3, 1.2632065e+2, -1679109.8, -1696203.9, 6121.8335, 0.18378803, 1.0662577, -1677143.5, 25017.54, 0.0, 10.00024, 10.000013 
2.9853418e+3, 1.3632052e+2, -1620011.9, -1621417.8, -270.4558, 0.2319064, 1.0569301, -1619961.6, -15799.615, 0.0, 9.999992, 9.999973 
2.9853106e+3, 1.4632022e+2, -1519744.0, -1557202.1, 24922.691, 0.21445155, 1.0537417, -1507297.5, -1133.0599, 0.0, 10.000158, 9.999661 
2.9852796e+3, 1.5631984e+2, -1364391.6, -1434720.6, 10243.466, 0.1626801, 1.0544386, -1362930.0, 45237.92, 0.0, 10.000566, 9.999633 
2.985249e+3, 1.6631933e+2, -1288405.1, -1363123.6, 13501.244, 0.14381255, 1.05241, -1286040.4, 24132.27, 0.0, 10.0004835, 9.999492 
2.9852185e+3, 1.7631872e+2, -1245857.4, -1291655.5, 11601.181, 0.14315763, 1.0483273, -1243086.4, -30908.322, 0.0, 10.000102, 9.999494 
2.9851878e+3, 1.8631808e+2, -1140823.0, -1175556.6, 9520.743, 0.124980785, 1.0320086, -1138384.5, -24200.895, 0.0, 10.000087, 9.999624 
2.9851574e+3, 1.9631742e+2, -1013037.75, -1063504.1, 7404.3096, 0.09659155, 1.0080761, -1011973.9, 4215.2114, 0.0, 10.000293, 9.999621 
2.9851264e+3, 2.063169e+2, -902531.56, -947009.8, 8015.5103, 0.0629593, 0.99429405, -901131.1, 17061.82, 0.0, 10.000325, 9.999733 
2.985096e+3, 2.1631652e+2, -815439.25, -854160.2, 5253.2505, 0.025938328, 0.98701143, -814739.2, 5456.4604, 0.0, 10.00025, 9.999734 
2.9850656e+3, 2.2631626e+2, -727171.4, -747979.0, 11993.897, 0.004985628, 0.9863847, -721697.75, 500.1609, 0.0, 10.000127, 9.999849 
2.9850358e+3, 2.363161e+2, -646905.8, -652556.0, 12874.779, -0.0055182334, 0.98985595, -636549.8, -12350.0205, 0.0, 9.999979, 9.999903 
2.9850054e+3, 2.4631618e+2, -529133.06, -503050.84, -832.5812, -0.02598856, 0.9910466, -503024.28, 23174.188, 0.0, 9.999933, 10.000279 
2.9849747e+3, 2.563164e+2, -429229.56, -406263.0, -2094.5867, -0.05424025, 0.9906032, -406073.53, 22121.701, 0.0, 9.999955, 10.00026 
2.9849437e+3, 2.6631638e+2, -350121.5, -349235.53, -11461.766, -0.08769313, 0.9794651, -338208.2, -8013.0596, 0.0, 9.999963, 9.999976 
2.9849127e+3, 2.7631614e+2, -244876.02, -241220.4, -8744.941, -0.118415326, 0.9619165, -234114.3, -1917.1202, 0.0, 9.999984, 10.000034 
2.9848826e+3, 2.8631634e+2, -155167.16, -134560.33, 8021.213, -0.077369586, 0.97873896, -131806.17, 2388.1382, 0.0, 9.999874, 10.000146 
2.995373e+3, 1.2635235e+2, -1695768.8, -1736436.1, -20778.328, 0.16208309, 1.0447533, -1687030.3, 14819.593, 0.0, 10.000265, 9.999726 
2.9953417e+3, 1.363522e+2, -1634302.0, -1662025.3, -21720.18, 0.23178306, 1.0627027, -1622397.1, -18545.611, 0.0, 10.00004, 9.999673 
2.9953107e+3, 1.4635167e+2, -1541200.0, -1611976.9, 26538.697, 0.22465636, 1.0696821, -1532354.5, -26497.334, 0.0, 10.000202, 9.999265 
2.99528e+3, 1.5635091e+2, -1385468.3, -1484051.4, 9501.888, 0.17777859, 1.0707942, -1384560.8, 23304.463, 0.0, 10.000589, 9.999284 
2.9952493e+3, 1.6635023e+2, -1287404.9, -1366445.5, -12080.202, 0.15564094, 1.0699872, -1285599.8, 24271.99, 0.0, 10.000506, 9.999457 
2.9952186e+3, 1.7634962e+2, -1243881.5, -1295479.3, -9579.925, 0.14543995, 1.0686508, -1242160.3, -30282.959, 0.0, 10.000135, 9.999451 
2.9951876e+3, 1.8634912e+2, -1141289.3, -1184862.0, 9035.232, 0.12458505, 1.0727421, -1139490.0, -25608.074, 0.0, 10.000123, 9.999543 
2.9951575e+3, 1.9634868e+2, -1015174.06, -1075056.5, 6876.0483, 0.098437704, 1.0799803, -1014394.7, 1491.07, 0.0, 10.000323, 9.999528 
2.9951268e+3, 2.0634818e+2, -907710.0, -964845.5, -421.22632, 0.06366748, 1.0779248, -907706.94, 10183.089, 0.0, 10.000355, 9.999597 
2.995096e+3, 2.1634763e+2, -818703.94, -868254.06, -2252.2686, 0.02312387, 1.0698436, -818601.8, 1292.4103, 0.0, 10.00028, 9.999622 
2.9950657e+3, 2.2634715e+2, -719330.7, -739066.75, 3393.991, -0.00033397702, 1.0487723, -718763.4, 3135.0046, 0.0, 10.000158, 9.999896 
2.9950356e+3, 2.3634672e+2, -639704.5, -643472.6, 6210.5254, -0.012990377, 1.0201733, -635098.56, -11196.347, 0.0, 10.000005, 9.999953 
2.9950052e+3, 2.4634688e+2, -527728.3, -501778.66, -305.41617, -0.027183462, 1.0252756, -501775.06, 24124.777, 0.0, 9.999941, 10.000284 
2.9949746e+3, 2.5634736e+2, -427990.44, -403757.88, -1742.0515, -0.044432145, 1.0493803, -403633.28, 24260.607, 0.0, 9.999956, 10.0002775 
2.9949433e+3, 2.6634705e+2, -344559.2, -337743.38, -10738.79, -0.10650206, 1.006232, -329884.72, 11.071325, 0.0, 9.999964, 10.000054 
2.994912e+3, 2.7634624e+2, -240447.25, -231606.47, -7722.4556, -0.18780816, 0.924128, -227128.77, 4773.8003, 0.0, 9.999983, 10.000101 
2.9948825e+3, 2.8634685e+2, -141228.73, -105506.766, -938.99384, -0.06299802, 0.96751815, -105482.1, 28412.865, 0.0, 9.999874, 10.000346 
