coord_x,coord_y,stress_xx,stress_yy,tau_xy,velocity_x,velocity_y,stress_1,eps,damage,lx,ly
4.9993414e+0, 1.2586851e+2, -1850751.9, -1645036.5, -7130.3843, 0.009862851, 0.30698913, -1644789.6, 61730.67, 0.0013143772, 9.998481, 10.001209 
4.9994636e+0, 1.3586889e+2, -1732960.4, -1682406.3, -7466.256, -0.01591948, 0.34560746, -1681326.6, -72811.06, 0.0008064585, 9.999243, 9.999912 
4.9995732e+0, 1.4586844e+2, -1604532.9, -1584705.6, -13142.584, -0.018651113, 0.31852072, -1578156.9, -67637.664, 0.00037918316, 9.9995165, 9.999774 
4.9996608e+0, 1.5586774e+2, -1516166.8, -1488634.4, 2609.6123, -0.005996555, 0.26835272, -1488389.3, -75864.03, 0.00011767186, 9.999439, 9.999798 
4.9997863e+0, 1.6586754e+2, -1379086.5, -1352819.5, 10586.599, -0.0027480498, 0.25885782, -1349083.9, -34558.113, 0.000016018055, 9.999625, 9.999969 
4.9999452e+0, 1.758675e+2, -1225043.3, -1227366.3, -975.1254, -0.0060088304, 0.25347373, -1224688.1, -8163.756, 0.00000013955699, 10.000009, 9.999972 
5.000059e+0, 1.8586719e+2, -1104454.6, -1139675.4, -9493.391, -0.0069158007, 0.23549019, -1102058.8, 16466.865, 0.0, 10.000256, 9.999784 
5.000141e+0, 1.9586676e+2, -987258.6, -1035912.6, -9176.904, -0.006065036, 0.21020664, -985585.3, 34942.668, 0.0, 10.000402, 9.999753 
5.000261e+0, 2.0586635e+2, -892647.3, -986680.75, -6087.269, -0.0030548256, 0.21679763, -892254.94, 30277.105, 0.0, 10.000583, 9.9993305 
5.0004065e+0, 2.1586592e+2, -764570.75, -873554.3, -3203.122, 0.0013511776, 0.23699485, -764476.7, 60060.914, 0.0, 10.000786, 9.999336 
5.000499e+0, 2.2586535e+2, -649283.5, -777500.75, -4416.831, 0.0023574203, 0.25264218, -649131.56, 77412.65, 0.0, 10.000949, 9.999245 
5.000551e+0, 2.3586471e+2, -534119.8, -674502.2, -6707.626, 0.0009812826, 0.2595678, -533800.06, 94751.46, 0.0, 10.001081, 9.999215 
5.000628e+0, 2.4586383e+2, -440219.78, -630587.75, 446.66214, -0.001057289, 0.27540565, -440218.75, 90343.05, 0.0, 10.001277, 9.99875 
5.000727e+0, 2.5586277e+2, -303448.3, -509294.4, 11056.428, -0.0035298802, 0.2908245, -302856.16, 129718.03, 0.0, 10.001524, 9.998791 
5.000848e+0, 2.6586172e+2, -147934.03, -351074.25, 10551.395, -0.0041495357, 0.2920782, -147387.44, 187196.23, 0.0, 10.001779, 9.999082 
5.0009876e+0, 2.7586073e+2, -15563.128, -243049.44, 1011.6804, -0.00343896, 0.27953723, -15558.629, 221032.16, 0.0, 10.002044, 9.9990225 
5.0011384e+0, 2.8585908e+2, 61119.15, -250751.56, 1822.2037, -0.0015557841, 0.25732794, 61129.793, 199735.6, 0.000000004221918, 10.002308, 9.998169 
5.0012964e+0, 2.9585686e+2, 196282.66, -137149.72, 9708.894, 0.0009722346, 0.215144, 196565.11, 237192.38, 0.0000065845143, 10.002573, 9.998149 
5.0014013e+0, 3.0585533e+2, 219831.89, -174740.3, 7722.217, 0.0041765, 0.28292954, 219982.95, 219982.95, 0.00007539241, 10.002718, 9.997489 
5.0014174e+0, 3.158519e+2, 370377.84, 124218.39, 6447.7886, 0.0027625612, 0.1849046, 370546.63, 370546.63, 0.00026927676, 10.002777, 9.999515 
1.4998023e+1, 1.2586801e+2, -1851078.4, -1645064.0, 19032.16, 0.02938682, 0.31044987, -1643320.5, 63205.426, 0.0012897267, 9.998479, 10.00121 
1.4998393e+1, 1.358683e+2, -1730660.0, -1677168.9, 18452.87, -0.0476989, 0.34168857, -1671420.9, -62898.45, 0.0007892631, 9.999241, 9.999949 
1.4998719e+1, 1.4586817e+2, -1576349.9, -1525634.0, -16582.697, -0.05599286, 0.32305336, -1520693.3, -10170.739, 0.00036879338, 9.999515, 10.000181 
1.4998983e+1, 1.558681e+2, -1492331.4, -1438788.5, 905.8144, -0.01796611, 0.29635662, -1438773.1, -26251.75, 0.00011270428, 9.999437, 10.000141 
1.499936e+1, 1.658679e+2, -1399950.5, -1395728.5, 24758.203, -0.008283335, 0.28471756, -1372991.5, -58469.266, 0.000014709239, 9.999624, 9.999675 
1.4999835e+1, 1.7586735e+2, -1244289.8, -1266797.4, 12648.038, -0.018031253, 0.25991893, -1238613.8, -22087.424, 0.00000010097208, 10.000007, 9.999703 
1.5000178e+1, 1.8586698e+2, -1104036.3, -1138241.0, -4124.495, -0.020784864, 0.24786277, -1103546.0, 14982.639, 0.0, 10.000254, 9.999795 
1.5000422e+1, 1.9586681e+2, -986060.94, -1033215.5, -3454.008, -0.018228486, 0.24732003, -985809.3, 34719.637, 0.0, 10.0004015, 9.999772 
1.5000783e+1, 2.0586635e+2, -886967.3, -974563.3, 1439.4418, -0.0091711925, 0.24386433, -886943.7, 35589.3, 0.0, 10.000581, 9.999414 
1.5001221e+1, 2.1586566e+2, -759912.2, -863478.7, 4293.873, 0.004059293, 0.2299119, -759734.44, 64805.594, 0.0, 10.000785, 9.999406 
1.5001495e+1, 2.2586514e+2, -653518.06, -785930.6, 451.09122, 0.007046216, 0.2505994, -653516.5, 73029.83, 0.0, 10.000948, 9.999187 
1.5001653e+1, 2.3586479e+2, -536469.3, -679224.56, -1374.7081, 0.0029583208, 0.29266027, -536456.06, 92095.87, 0.0, 10.0010805, 9.999183 
1.5001886e+1, 2.4586399e+2, -420538.34, -589536.25, 9589.056, -0.003222778, 0.301771, -419996.0, 110564.91, 0.0, 10.001277, 9.999032 
1.500218e+1, 2.5586283e+2, -286631.3, -474137.9, 20375.547, -0.010597817, 0.28026122, -284442.75, 148129.53, 0.0, 10.001523, 9.999033 
1.5002546e+1, 2.658617e+2, -165335.11, -386962.06, 20375.184, -0.01246627, 0.2720059, -163477.5, 171105.52, 0.0, 10.001779, 9.998836 
1.5002963e+1, 2.7586055e+2, -30710.592, -274195.7, 10988.463, -0.01029431, 0.27173764, -30215.69, 206377.3, 0.0, 10.002043, 9.99881 
1.5003416e+1, 2.8585896e+2, 76335.45, -218774.66, 11750.755, -0.0046763094, 0.25215796, 76802.61, 215409.95, 0.0000000059189293, 10.002307, 9.998389 
1.500389e+1, 2.958569e+2, 209782.45, -108776.92, 19192.313, 0.0029472276, 0.20634565, 210934.58, 251560.16, 0.0000065077284, 10.002572, 9.998344 
1.5004204e+1, 3.0585545e+2, 213846.6, -186849.73, 9832.69, 0.012510457, 0.27398264, 214087.73, 214087.73, 0.00007423676, 10.002717, 9.997406 
1.5004252e+1, 3.158519e+2, 364899.16, 113313.13, 12749.018, 0.008190557, 0.17851344, 365543.53, 365543.53, 0.0002657484, 10.002776, 9.999441 
2.4996714e+1, 1.2586744e+2, -1764555.4, -1598635.0, 16224.76, 0.02155474, 0.32115597, -1597063.3, 109468.51, 0.0012539346, 9.999053, 10.001253 
2.4997202e+1, 1.3586766e+2, -1810377.9, -1709586.5, 20904.84, -0.062446684, 0.3400406, -1705422.6, -96893.46, 0.0007642556, 9.99867, 10.000004 
2.49978e+1, 1.4586769e+2, -1648277.5, -1539875.8, -17625.162, -0.07033993, 0.324846, -1537082.0, -26554.355, 0.0003536966, 9.998933, 10.000364 
2.4998434e+1, 1.55868e+2, -1447187.5, -1399419.4, -17478.465, -0.0283649, 0.31757396, -1393707.1, 18815.646, 0.00010549485, 9.999672, 10.000299 
2.4999037e+1, 1.6586775e+2, -1359268.6, -1385976.3, 2761.1304, -0.019204317, 0.30131522, -1358986.3, -44462.57, 0.000012859098, 9.999947, 9.999587 
2.4999641e+1, 1.7586692e+2, -1267557.9, -1287682.8, 6248.914, -0.03220111, 0.25486827, -1265775.4, -49244.89, 0.00000006033416, 9.999889, 9.999617 
2.50002e+1, 1.858665e+2, -1141355.9, -1162606.3, -4852.78, -0.032339007, 0.24479143, -1140300.1, -21766.545, 0.0, 10.000025, 9.999739 
2.5000724e+1, 1.9586645e+2, -1003318.1, -1046268.5, -9267.324, -0.023494715, 0.26361522, -1001403.9, 19129.342, 0.0, 10.000304, 9.999729 
2.5001332e+1, 2.05866e+2, -882779.6, -960719.4, -5379.295, -0.011196478, 0.25582007, -882410.1, 40126.887, 0.0, 10.000559, 9.99952 
2.5002e+1, 2.158652e+2, -752422.0, -849643.5, -1237.7343, 0.0030477114, 0.2205098, -752406.25, 72137.82, 0.0, 10.000792, 9.999498 
2.5002444e+1, 2.2586471e+2, -650433.0, -788666.5, -5572.1504, 0.00511963, 0.2421158, -650208.75, 76341.49, 0.0, 10.000987, 9.99915 
2.5002727e+1, 2.358645e+2, -526228.75, -676212.4, -5730.9272, -0.001491025, 0.3023934, -526010.06, 102545.29, 0.0, 10.00116, 9.9991665 
2.5003165e+1, 2.458638e+2, -397615.6, -555266.4, 4967.2417, -0.005836801, 0.31090212, -397459.22, 133103.75, 0.0, 10.001334, 9.99924 
2.500372e+1, 2.558627e+2, -275669.7, -448992.53, 10288.865, -0.008570884, 0.27473104, -275061.06, 157511.42, 0.0, 10.001513, 9.99921 
2.5004342e+1, 2.6586154e+2, -175532.55, -410515.78, 14653.184, -0.011232087, 0.2672281, -174622.31, 159961.08, 0.0, 10.001789, 9.998669 
2.5005025e+1, 2.7586037e+2, -26488.041, -288313.34, 11176.462, -0.01336859, 0.27937782, -26011.82, 210583.2, 0.0, 10.002141, 9.998665 
2.500572e+1, 2.858587e+2, 95497.54, -196809.77, 6919.715, -0.008685734, 0.2551251, 95661.26, 234271.05, 0.0000000086392555, 10.002384, 9.998504 
2.500641e+1, 2.9585662e+2, 212533.05, -96459.49, 5984.5015, -0.0007468288, 0.19306424, 212648.9, 253276.36, 0.0000063841276, 10.002544, 9.998443 
2.500696e+1, 3.0585515e+2, 208276.44, -198689.8, -9623.354, 0.01609275, 0.2631458, 208503.86, 208503.86, 0.00007243093, 10.002719, 9.997325 
2.500715e+1, 3.1585178e+2, 379777.03, 113146.04, -2832.2896, 0.013498474, 0.18852977, 379807.13, 379807.13, 0.00026027678, 10.002912, 9.999374 
3.4995407e+1, 1.2586686e+2, -1758410.1, -1586097.1, -367.34543, -0.015295356, 0.33859596, -1586096.4, 120441.61, 0.0012062672, 9.999054, 10.001339 
3.4995893e+1, 1.3586698e+2, -1804716.9, -1698498.1, 9908.544, -0.06089988, 0.3408802, -1697581.8, -89045.914, 0.00073077687, 9.9986725, 10.000078 
3.499682e+1, 1.45867e+2, -1651082.4, -1546072.0, 10099.643, -0.06240759, 0.3243075, -1545109.5, -34574.9, 0.00033350204, 9.998935, 10.000321 
3.4998018e+1, 1.5586743e+2, -1449712.9, -1404073.5, 7902.5425, -0.03788232, 0.33236152, -1402743.9, 9785.332, 0.000095918134, 9.999669, 10.000269 
3.4998816e+1, 1.6586715e+2, -1351235.8, -1368622.0, 401.55374, -0.036243875, 0.30866048, -1351226.5, -36696.53, 0.000010539653, 9.999944, 9.999708 
3.4999362e+1, 1.7586622e+2, -1260608.1, -1273219.9, 5225.6045, -0.049102426, 0.23821978, -1258724.3, -42187.2, 0.000000028001644, 9.999889, 9.999716 
3.500013e+1, 1.8586574e+2, -1150185.9, -1180820.0, 5572.9834, -0.042212628, 0.2263115, -1149203.5, -30662.96, 0.0, 10.000025, 9.999614 
3.5001042e+1, 1.9586572e+2, -1010978.06, -1061513.8, 1283.4161, -0.02218603, 0.25930706, -1010945.5, 9595.269, 0.0, 10.000301, 9.999626 
3.5001907e+1, 2.058653e+2, -874125.94, -942316.25, 3496.7415, -0.009671558, 0.25268415, -873947.1, 48596.88, 0.0, 10.000558, 9.999648 
3.5002738e+1, 2.1586454e+2, -744392.56, -832905.06, 7450.367, -0.002174716, 0.20884801, -743769.8, 80779.914, 0.0, 10.000792, 9.999614 
3.500334e+1, 2.2586407e+2, -651706.0, -791162.75, 879.68945, -0.004172465, 0.22722483, -651700.44, 74855.375, 0.0, 10.000986, 9.999133 
3.5003775e+1, 2.3586385e+2, -526545.56, -676810.3, 890.5217, -0.012818839, 0.288652, -526540.3, 102021.46, 0.0, 10.001159, 9.999163 
3.5004467e+1, 2.4586326e+2, -388238.13, -535644.9, 11576.993, -0.009416113, 0.3025148, -387334.44, 143233.64, 0.0, 10.001334, 9.999375 
3.500534e+1, 2.5586239e+2, -267820.44, -432386.78, 17563.313, 0.0022178718, 0.27438584, -265966.88, 166607.9, 0.0, 10.001512, 9.999326 
3.5006234e+1, 2.6586136e+2, -181784.39, -423349.3, 27811.229, -0.0010296566, 0.27790105, -178623.86, 155960.97, 0.0, 10.001788, 9.998581 
3.5007167e+1, 2.758602e+2, -32058.02, -299566.97, 23984.008, -0.013291608, 0.30240571, -29924.703, 206672.23, 0.0, 10.00214, 9.998589 
3.500805e+1, 2.858584e+2, 95778.16, -195742.97, 12856.894, -0.01433183, 0.2660581, 96344.086, 234957.23, 0.000000011844628, 10.002382, 9.998511 
3.5008857e+1, 2.9585606e+2, 212248.63, -96578.36, 12145.294, -0.010570479, 0.1753102, 212725.52, 253358.44, 0.0000061783935, 10.0025425, 9.998442 
3.500966e+1, 3.058546e+2, 202664.58, -210236.7, -2642.4368, 0.014644309, 0.25042877, 202681.5, 202681.5, 0.00006978909, 10.002719, 9.997245 
3.5010102e+1, 3.158515e+2, 375744.5, 104677.625, 7966.41, 0.017405266, 0.21483332, 375978.44, 375978.44, 0.00025241746, 10.0029125, 9.999316 
4.4993922e+1, 1.258659e+2, -1822763.0, -1615401.5, -19896.285, -0.0463348, 0.3425755, -1613509.6, 93037.836, 0.0011480161, 9.998606, 10.001355 
4.4994792e+1, 1.358661e+2, -1766940.0, -1678042.9, -11585.46, -0.05068353, 0.348258, -1676557.8, -68012.99, 0.0006895071, 9.998922, 10.000098 
4.4995973e+1, 1.4586605e+2, -1620497.5, -1531636.9, 4870.1504, -0.051287044, 0.32541645, -1531370.8, -20826.63, 0.00030865482, 9.999146, 10.000319 
4.499732e+1, 1.5586643e+2, -1501912.8, -1428402.8, 4932.778, -0.05610359, 0.32748562, -1428073.1, -15533.732, 0.00008435172, 9.999309, 10.000277 
4.4998363e+1, 1.6586623e+2, -1393731.1, -1374560.0, -10479.075, -0.057897456, 0.3046386, -1369943.8, -55404.42, 0.000007991499, 9.99959, 9.999838 
4.4999227e+1, 1.7586544e+2, -1241709.6, -1251165.9, -4862.2974, -0.055551376, 0.23959906, -1239655.6, -23111.303, 0.000000008983813, 9.999964, 9.999832 
4.5000225e+1, 1.85865e+2, -1125879.8, -1173199.8, 1557.0808, -0.044457838, 0.22585252, -1125828.6, -7281.005, 0.0, 10.00021, 9.999577 
4.5001307e+1, 1.9586489e+2, -1004338.4, -1061961.3, 3599.636, -0.028447878, 0.2519724, -1004114.4, 16434.521, 0.0, 10.000363, 9.999594 
4.5002365e+1, 2.0586444e+2, -884640.6, -945906.3, 2105.6897, -0.01587925, 0.24534252, -884568.3, 37983.82, 0.0, 10.000479, 9.999661 
4.500339e+1, 2.1586375e+2, -775454.4, -845835.56, -2422.341, -0.0051734666, 0.20678607, -775371.06, 49186.03, 0.0, 10.00057, 9.999632 
4.5004228e+1, 2.2586326e+2, -674857.4, -796753.4, -6449.8857, -0.0049483846, 0.21948819, -674517.06, 52046.086, 0.0, 10.000804, 9.999184 
4.5004928e+1, 2.3586296e+2, -526374.94, -671611.7, -1482.6799, -0.012406995, 0.26714984, -526359.8, 102209.805, 0.0, 10.001138, 9.999208 
4.5005858e+1, 2.4586242e+2, -368382.75, -526369.6, 5489.0317, -0.010176967, 0.28482082, -368192.28, 162383.14, 0.0, 10.0014715, 9.9993725 
4.500696e+1, 2.5586173e+2, -224891.89, -411816.6, 565.65454, -0.0015125881, 0.27389252, -224890.19, 207690.64, 0.0, 10.001807, 9.999325 
4.5008084e+1, 2.658607e+2, -156017.23, -407335.84, 9258.563, -0.002789758, 0.280017, -155676.61, 178913.94, 0.0, 10.00195, 9.998613 
4.5009255e+1, 2.7585953e+2, -56890.816, -308441.5, 14494.785, -0.009394456, 0.2959916, -56058.36, 180544.69, 0.0, 10.001956, 9.998616 
4.501032e+1, 2.858577e+2, 61755.41, -216455.95, 8040.879, -0.01461982, 0.25830725, 61987.613, 200607.1, 0.000000014278152, 10.002168, 9.998472 
4.501128e+1, 2.9585534e+2, 207808.1, -103403.48, 3765.2803, -0.022258373, 0.17171589, 207853.64, 248492.95, 0.0000058442592, 10.002533, 9.998401 
4.5012394e+1, 3.058538e+2, 217108.02, -211007.52, -13034.572, 0.009364493, 0.24643871, 217504.5, 217504.5, 0.0000661976, 10.0028515, 9.997177 
4.5013154e+1, 3.158507e+2, 404259.94, 113521.336, 1571.2607, 0.020733662, 0.21497677, 404268.44, 404268.44, 0.00024196846, 10.003129, 9.999274 
5.4992265e+1, 1.2586462e+2, -1826067.6, -1623693.4, -10637.467, -0.0738327, 0.33532873, -1623135.8, 83424.336, 0.0010818627, 9.998612, 10.001295 
5.49939e+1, 1.3586497e+2, -1770161.1, -1684146.9, -273.96307, -0.032576777, 0.3623603, -1684146.0, -75589.766, 0.0006423977, 9.99892, 10.000058 
5.499525e+1, 1.4586483e+2, -1618093.1, -1525751.5, 11069.77, -0.03808662, 0.3277725, -1524443.0, -13886.493, 0.00028050644, 9.999143, 10.0003605 
5.499635e+1, 1.5586495e+2, -1498104.0, -1421039.9, 11930.113, -0.08430474, 0.3028565, -1419235.3, -6681.863, 0.00007169208, 9.9993105, 10.000325 
5.499768e+1, 1.6586496e+2, -1383875.4, -1354378.8, 3611.432, -0.08508134, 0.28941095, -1353943.0, -39391.543, 0.0000055425044, 9.999592, 9.999975 
5.4999226e+1, 1.7586467e+2, -1233212.6, -1232469.8, 8665.416, -0.051873796, 0.25951636, -1224167.9, -7615.7207, 0.00000000116644, 9.999959, 9.999963 
5.500048e+1, 1.8586428e+2, -1122822.4, -1165863.9, 7442.693, -0.03988951, 0.24363676, -1121571.8, -3017.0938, 0.0, 10.000206, 9.999629 
5.500153e+1, 1.9586393e+2, -1001600.56, -1056289.0, 9314.403, -0.043250125, 0.24142405, -1000057.7, 20499.96, 0.0, 10.000363, 9.999633 
5.5002695e+1, 2.0586345e+2, -891562.0, -960240.8, 5499.0464, -0.030722963, 0.23371412, -891124.44, 31437.023, 0.0, 10.000479, 9.999563 
5.5003947e+1, 2.1586284e+2, -781232.7, -857651.06, 1969.5624, -0.006604209, 0.21402232, -781182.0, 43384.266, 0.0, 10.000569, 9.999551 
5.5005103e+1, 2.2586231e+2, -666769.5, -779718.7, 6169.2246, 0.0021495847, 0.21860261, -666433.56, 60138.688, 0.0, 10.000803, 9.999301 
5.500618e+1, 2.3586184e+2, -519573.84, -657415.6, 11223.128, -0.0006635947, 0.23801632, -518666.03, 109912.85, 0.0, 10.001138, 9.999307 
5.5007344e+1, 2.4586129e+2, -378398.22, -547098.3, 18134.1, -0.008978264, 0.2581196, -376470.94, 154114.02, 0.0, 10.0014715, 9.99923 
5.500858e+1, 2.5586072e+2, -233420.55, -429308.25, 12252.137, -0.020801265, 0.27308676, -232657.19, 199933.48, 0.0, 10.001806, 9.999205 
5.500989e+1, 2.658597e+2, -145455.53, -385085.2, 9359.97, -0.017240653, 0.2732493, -145090.48, 189510.14, 0.0, 10.001948, 9.998767 
5.5011284e+1, 2.7585834e+2, -47753.613, -289168.1, 15768.026, -0.00212468, 0.2603439, -46728.08, 189885.28, 0.0, 10.001955, 9.998749 
5.5012536e+1, 2.8585663e+2, 55592.945, -229123.25, 21640.723, -0.010111353, 0.23207624, 57228.418, 195857.19, 0.000000014996283, 10.002168, 9.998385 
5.501367e+1, 2.9585454e+2, 201817.45, -115550.92, 17355.01, -0.036505163, 0.1821385, 202763.67, 243410.36, 0.0000053587105, 10.002532, 9.998318 
5.5015147e+1, 3.0585292e+2, 212850.4, -219585.19, -2741.815, -0.00051333365, 0.2504733, 212867.78, 212867.78, 0.00006167391, 10.002851, 9.997119 
5.50163e+1, 3.1584942e+2, 402450.9, 109726.375, 15352.725, 0.021968273, 0.18765321, 403253.9, 403253.9, 0.00022898198, 10.003129, 9.999248 
6.499084e+1, 1.258631e+2, -1841502.3, -1636754.5, -10233.038, -0.07313539, 0.32153696, -1636244.4, 70329.9, 0.0010116006, 9.99853, 10.001245 
6.49928e+1, 1.358635e+2, -1755271.0, -1680490.0, 2009.773, -0.040269606, 0.35565335, -1680436.1, -71865.58, 0.00059264415, 9.999038, 10.000027 
6.4994395e+1, 1.4586334e+2, -1590869.4, -1504503.8, 5696.058, -0.04545494, 0.3191239, -1504129.8, 6441.0264, 0.0002512883, 9.999295, 10.000433 
6.4995676e+1, 1.5586357e+2, -1482485.6, -1405677.8, 8868.189, -0.08650914, 0.2966153, -1404667.1, 7899.4033, 0.000059186506, 9.999385, 10.000396 
6.4997214e+1, 1.6586368e+2, -1396839.9, -1356113.5, 1036.7689, -0.08553195, 0.28752792, -1356087.1, -41523.414, 0.0000034805446, 9.999484, 10.000015 
6.4998984e+1, 1.7586347e+2, -1283660.0, -1251842.8, -1130.4451, -0.053287126, 0.26349363, -1251802.6, -35238.77, 0.00000000000024211628, 9.999593, 10.000006 
6.5000457e+1, 1.8586317e+2, -1175294.4, -1183307.0, -4458.224, -0.04238958, 0.24868517, -1173306.9, -54741.215, 0.0, 9.999812, 9.999699 
6.500173e+1, 1.9586286e+2, -1034020.06, -1066061.9, -1438.0651, -0.046850313, 0.24424843, -1033955.6, -13387.882, 0.0, 10.000116, 9.999684 
6.500312e+1, 2.0586231e+2, -907928.6, -983217.25, -7079.6577, -0.033741623, 0.235722, -907268.7, 15303.728, 0.0, 10.000432, 9.999428 
6.5004593e+1, 2.1586159e+2, -762155.1, -861283.4, -13020.039, -0.008145727, 0.21643972, -760473.56, 64105.62, 0.0, 10.000756, 9.999435 
6.500602e+1, 2.2586103e+2, -623257.56, -747755.94, -7206.3984, 0.0007001595, 0.21860297, -622841.8, 103743.19, 0.0, 10.001054, 9.999399 
6.50074e+1, 2.358606e+2, -485330.6, -631230.06, -4272.2466, -0.0028849016, 0.23310012, -485205.6, 143384.39, 0.0, 10.001331, 9.9993925 
6.500879e+1, 2.4586004e+2, -387552.44, -558532.5, 689.4613, -0.010408458, 0.25196615, -387549.66, 143046.52, 0.0, 10.001438, 9.999167 
6.50102e+1, 2.5585943e+2, -291668.6, -462535.88, 1044.039, -0.020387417, 0.26845053, -291662.22, 140941.03, 0.0, 10.001429, 9.999159 
6.5011704e+1, 2.658584e+2, -172496.0, -383492.03, 2678.8792, -0.01820347, 0.264498, -172462.0, 162150.97, 0.0, 10.0017, 9.998898 
6.501331e+1, 2.7585712e+2, -6882.595, -256580.7, 7475.3096, -0.006660864, 0.24341027, -6659.004, 229965.3, 0.0, 10.002181, 9.998864 
6.5014833e+1, 2.8585544e+2, 99787.99, -211696.55, 16068.566, -0.012820285, 0.2173585, 100614.73, 239253.78, 0.000000013847158, 10.002488, 9.998352 
6.501629e+1, 2.9585344e+2, 218903.39, -110693.35, 15644.29, -0.034062993, 0.17705432, 219644.28, 260301.13, 0.0000047556837, 10.002664, 9.998287 
6.501802e+1, 3.0585173e+2, 216406.39, -218953.13, -538.5358, 0.0007318012, 0.23967789, 216407.06, 216407.06, 0.00005639522, 10.00288, 9.997108 
6.5019304e+1, 3.1584817e+2, 404503.06, 113002.9, 24326.453, 0.009271671, 0.17171462, 406519.22, 406519.22, 0.00021376522, 10.003134, 9.999268 
7.498964e+1, 1.2586133e+2, -1844040.6, -1642023.4, 7135.225, -0.046860263, 0.29898858, -1641771.6, 64818.62, 0.00094218313, 9.99853, 10.001208 
7.499149e+1, 1.3586164e+2, -1755767.4, -1682976.9, 20206.61, -0.07601327, 0.3277188, -1677743.8, -69155.92, 0.0005443152, 9.999043, 10.000007 
7.49934e+1, 1.4586161e+2, -1583332.0, -1489767.8, 9080.993, -0.075152144, 0.29947725, -1488894.5, 21692.473, 0.00022371147, 9.999299, 10.000532 
7.499529e+1, 1.5586227e+2, -1477114.4, -1393512.4, 12440.364, -0.06338907, 0.30891985, -1391700.4, 20878.277, 0.00004811655, 9.99938, 10.000482 
7.4996954e+1, 1.6586237e+2, -1401251.3, -1364207.1, 5299.4517, -0.060306937, 0.29912108, -1363464.0, -48887.813, 0.0000019773436, 9.999479, 9.999962 
7.4998504e+1, 1.758619e+2, -1286295.8, -1257629.9, 3849.595, -0.061104894, 0.25118202, -1257122.0, -40542.293, 0.0, 9.999595, 9.999966 
7.5000167e+1, 1.8586165e+2, -1168942.0, -1170341.9, 7059.1816, -0.05306172, 0.24074033, -1162548.1, -43967.426, 0.0, 9.999813, 9.999787 
7.5001925e+1, 1.9586167e+2, -1029738.5, -1056612.6, 10290.4375, -0.039468963, 0.26070684, -1026250.8, -5671.4736, 0.0, 10.0001135, 9.99975 
7.500364e+1, 2.0586105e+2, -920316.94, -1008463.0, 5235.455, -0.025259387, 0.2515596, -920007.06, 2577.903, 0.0, 10.00043, 9.999255 
7.500532e+1, 2.1585996e+2, -772728.0, -883091.44, -807.1267, -0.010603637, 0.21410498, -772722.06, 51873.77, 0.0, 10.000755, 9.999287 
7.500697e+1, 2.258594e+2, -617762.1, -736250.9, 3301.8018, -0.010302893, 0.2194551, -617670.2, 108931.28, 0.0, 10.001054, 9.999478 
7.500856e+1, 2.3585926e+2, -480280.75, -620573.3, 5322.108, -0.019834874, 0.25225157, -480079.16, 148523.83, 0.0, 10.00133, 9.999467 
7.501018e+1, 2.458587e+2, -386348.47, -555821.1, 158.91035, -0.015070449, 0.26591426, -386348.3, 144260.81, 0.0, 10.001437, 9.9991865 
7.5011826e+1, 2.5585786e+2, -289810.53, -458540.9, 2170.5737, -0.00071973406, 0.26016635, -289782.6, 142835.94, 0.0, 10.001428, 9.9991865 
7.5013524e+1, 2.6585686e+2, -164912.69, -367600.5, 20638.232, -0.006148942, 0.25393662, -162832.6, 171794.92, 0.0, 10.001699, 9.999006 
7.501532e+1, 2.7585584e+2, -164.6377, -242254.98, 24705.898, -0.023744216, 0.24489, 2330.9329, 238966.84, 0.0, 10.002179, 9.998963 
7.5017214e+1, 2.8585416e+2, 101025.82, -208848.95, 22556.734, -0.023624549, 0.21385093, 102659.19, 241309.56, 0.000000011324871, 10.002486, 9.998372 
7.5019133e+1, 2.9585198e+2, 220700.78, -106924.36, 22395.95, -0.015825622, 0.15648413, 222224.64, 262894.34, 0.000004098041, 10.002664, 9.998314 
7.5021017e+1, 3.0585027e+2, 218933.2, -213257.13, 8560.223, 0.012363373, 0.21457796, 219102.69, 219102.69, 0.000050636227, 10.002879, 9.997148 
7.5022155e+1, 3.1584698e+2, 408793.03, 122882.336, 37138.77, -0.01839893, 0.16785713, 413538.47, 413538.47, 0.00019685416, 10.003131, 9.999335 
8.498832e+1, 1.2585934e+2, -1848629.6, -1641811.4, -10026.928, -0.030212037, 0.2963583, -1641326.5, 65283.387, 0.00087835814, 9.998487, 10.00123 
8.499028e+1, 1.3585974e+2, -1771888.1, -1686233.8, 8167.9663, -0.09433941, 0.3313587, -1685461.8, -76855.375, 0.0005011039, 9.998914, 10.000047 
8.4992415e+1, 1.4585973e+2, -1606914.6, -1495597.3, -16946.744, -0.09350471, 0.2992681, -1493074.4, 17531.166, 0.00020010647, 9.999114, 10.000582 
8.499461e+1, 1.5586044e+2, -1506448.4, -1402585.0, -16519.531, -0.058331914, 0.3115135, -1400020.9, 12575.722, 0.000039437622, 9.999158, 10.000526 
8.499647e+1, 1.6586058e+2, -1410411.5, -1365766.3, -14637.09, -0.052785408, 0.3022009, -1361395.4, -46801.664, 0.0000010481418, 9.999405, 9.999988 
8.499816e+1, 1.758601e+2, -1254298.0, -1239635.5, -10734.707, -0.06542311, 0.2521673, -1233967.5, -17370.387, 0.0, 9.999803, 9.999989 
8.500004e+1, 1.8585986e+2, -1138060.6, -1155302.9, -10909.022, -0.058004215, 0.2397346, -1132777.4, -14179.194, 0.0, 10.000025, 9.999788 
8.500205e+1, 1.9585986e+2, -1028843.5, -1055894.1, -13403.43, -0.037675966, 0.25822827, -1023327.1, -2730.358, 0.0, 10.000119, 9.999752 
8.500405e+1, 2.0585929e+2, -932054.3, -1017376.4, -9678.702, -0.023415592, 0.25268868, -930970.2, -8367.907, 0.0, 10.000364, 9.999226 
8.5006034e+1, 2.1585824e+2, -780207.2, -889706.7, -5759.955, -0.013279892, 0.22232899, -779905.06, 44707.914, 0.0, 10.000717, 9.99926 
8.500788e+1, 2.2585762e+2, -642642.8, -748573.3, -6985.5093, -0.015543372, 0.22359893, -642184.1, 84434.875, 0.0, 10.000885, 9.9994755 
8.500962e+1, 2.3585735e+2, -539837.2, -649182.44, -11259.442, -0.026368633, 0.24495614, -538689.8, 89931.69, 0.0, 10.000921, 9.999467 
8.5011506e+1, 2.4585682e+2, -416468.4, -566473.44, -15574.631, -0.014924869, 0.2596193, -414868.38, 115758.95, 0.0, 10.001214, 9.999222 
8.50135e+1, 2.5585613e+2, -249203.78, -435303.2, -12331.155, 0.01153699, 0.26371792, -248390.25, 184245.31, 0.0, 10.001691, 9.99922 
8.501544e+1, 2.658552e+2, -132410.19, -350521.7, 3479.1162, 0.0045533795, 0.25919446, -132354.7, 202289.38, 0.0, 10.001917, 9.99902 
8.501738e+1, 2.7585408e+2, -31508.148, -256417.31, 394.15192, -0.024090627, 0.24576066, -31507.459, 205145.13, 0.0, 10.001959, 9.998973 
8.5019547e+1, 2.8585237e+2, 62315.848, -230384.83, -4501.9204, -0.026093405, 0.21205136, 62385.074, 201052.5, 0.000000007967864, 10.002232, 9.998347 
8.502181e+1, 2.958502e+2, 221512.06, -108899.7, -8351.277, -0.015211391, 0.1546134, 221723.02, 262410.2, 0.0000034232567, 10.002679, 9.998294 
8.502397e+1, 3.0584842e+2, 238669.33, -201886.45, -27092.799, 0.013392381, 0.20803343, 240329.2, 240329.2, 0.00004462947, 10.003005, 9.997166 
8.5025287e+1, 3.1584528e+2, 426182.4, 136656.02, 3118.9456, -0.023883482, 0.1738249, 426216.0, 426216.0, 0.00017880679, 10.003225, 9.999385 
9.4986844e+1, 1.2585708e+2, -1842823.9, -1630106.3, 4089.3745, -0.02611876, 0.3136705, -1630027.6, 76605.51, 0.00082284986, 9.998489, 10.00131 
9.4989175e+1, 1.3585778e+2, -1765214.9, -1672171.9, 23090.62, -0.09612609, 0.36627498, -1666756.6, -58130.07, 0.00046510532, 9.998913, 10.000144 
9.499146e+1, 1.4585765e+2, -1606708.5, -1494866.8, -15065.57, -0.10177105, 0.3183564, -1492872.9, 17753.746, 0.00018171112, 9.999112, 10.000587 
9.499362e+1, 1.5585811e+2, -1505330.9, -1400847.5, -13442.936, -0.07317293, 0.30394325, -1399145.6, 13474.62, 0.000033543416, 9.99916, 10.000537 
9.499576e+1, 1.6585833e+2, -1403035.4, -1350843.5, 625.66974, -0.06446295, 0.296086, -1350836.0, -36219.676, 0.00000057940093, 9.999406, 10.000089 
9.499795e+1, 1.7585815e+2, -1248610.8, -1227483.5, 3540.903, -0.06677004, 0.26650333, -1226905.9, -10289.615, 0.0, 9.999802, 10.0000725 
9.500006e+1, 1.8585782e+2, -1143968.8, -1167222.1, -7292.1836, -0.058025565, 0.24602868, -1141871.3, -23253.162, 0.0, 10.000023, 9.999707 
9.5002127e+1, 1.9585747e+2, -1033043.9, -1064688.0, -8889.672, -0.042363215, 0.23683245, -1030717.56, -10097.327, 0.0, 10.000119, 9.999692 
9.500436e+1, 2.0585698e+2, -924052.5, -1000817.5, 3688.375, -0.028890442, 0.23902263, -923875.7, -1251.2686, 0.0, 10.000364, 9.99934 
9.500672e+1, 2.1585639e+2, -773537.94, -875768.6, 6703.7334, -0.016702803, 0.24115372, -773100.2, 51530.273, 0.0, 10.000717, 9.999355 
9.5008767e+1, 2.2585565e+2, -648963.06, -761505.44, -5725.0313, -0.015728885, 0.231184, -648672.56, 77965.2, 0.0, 10.000884, 9.999387 
9.5010585e+1, 2.3585486e+2, -545329.0, -660349.2, -8462.858, -0.022677049, 0.21093245, -544709.6, 83936.016, 0.0, 10.00092, 9.999391 
9.5012766e+1, 2.4585442e+2, -412988.16, -559129.56, 2305.6204, -0.01044405, 0.23310867, -412951.78, 117699.12, 0.0, 10.001213, 9.999272 
9.5015234e+1, 2.5585416e+2, -246552.7, -429595.4, 4301.971, 0.015430154, 0.2789984, -246451.66, 186202.66, 0.0, 10.00169, 9.999259 
9.501744e+1, 2.658533e+2, -138339.28, -362665.03, 4962.8027, 0.013067399, 0.28022537, -138229.55, 196433.11, 0.0, 10.001916, 9.998938 
9.50195e+1, 2.758519e+2, -36985.51, -267800.03, 3119.188, -0.008214265, 0.24607824, -36943.367, 199730.94, 0.0, 10.001959, 9.998895 
9.5021826e+1, 2.8585014e+2, 57782.043, -239904.92, 11950.107, -0.020871148, 0.21189447, 58260.99, 196951.14, 0.0000000042394483, 10.002233, 9.9982815 
9.5024323e+1, 2.95848e+2, 216912.19, -118273.02, 7715.9106, -0.032451805, 0.17065905, 217089.7, 257798.94, 0.000002739973, 10.002678, 9.99823 
9.502688e+1, 3.0584615e+2, 238452.14, -201715.53, -18758.709, 0.0032669464, 0.21912423, 239250.14, 239250.14, 0.000038513957, 10.003003, 9.997167 
9.502865e+1, 3.1584308e+2, 428208.47, 141632.66, 14532.043, -0.009788285, 0.18954103, 428943.5, 428943.5, 0.00016003304, 10.003222, 9.99942 
1.0498535e+2, 1.2585452e+2, -1820631.6, -1611345.4, -18021.998, -0.030512411, 0.33646607, -1609804.8, 96855.055, 0.0007762847, 9.998608, 10.001381 
1.0498801e+2, 1.3585524e+2, -1798704.8, -1677793.0, 1727.2549, -0.09032671, 0.38373998, -1677768.4, -69116.26, 0.00043669788, 9.998638, 10.000237 
1.049905e+2, 1.4585507e+2, -1641320.1, -1507484.6, -35981.17, -0.09638401, 0.3244034, -1498424.5, 12228.026, 0.00016867174, 9.998857, 10.000625 
1.0499276e+2, 1.5585555e+2, -1494444.0, -1391412.0, -32102.951, -0.07779361, 0.30811566, -1382228.0, 30418.287, 0.000030278157, 9.999216, 10.000575 
1.0499515e+2, 1.6585581e+2, -1389389.1, -1334238.9, -14813.237, -0.068796545, 0.29919592, -1330511.9, -15870.382, 0.0000004316036, 9.999455, 10.000179 
1.0499768e+2, 1.7585573e+2, -1271376.5, -1229386.4, -12566.291, -0.06370473, 0.26913178, -1225913.0, -9273.092, 0.0, 9.999605, 10.000154 
1.0500006e+2, 1.8585537e+2, -1174819.1, -1186012.6, -24223.584, -0.051763017, 0.24519111, -1155554.1, -36912.39, 0.0, 9.999828, 9.999672 
1.0500231e+2, 1.9585493e+2, -1036374.06, -1068973.6, -22694.125, -0.035725053, 0.23009041, -1024732.75, -4087.709, 0.0, 10.000108, 9.999668 
1.05004705e+2, 2.0585446e+2, -930485.56, -993129.8, -8403.335, -0.026110576, 0.22860925, -929377.94, -6728.9463, 0.0, 10.000273, 9.999436 
1.0500721e+2, 2.1585393e+2, -820516.06, -888721.0, -6550.4116, -0.020979749, 0.22875436, -819892.6, 4761.08, 0.0, 10.000353, 9.999441 
1.0500951e+2, 2.2585323e+2, -689382.6, -787768.1, -17521.78, -0.016698033, 0.22204764, -686355.25, 40305.426, 0.0, 10.000636, 9.999326 
1.05011664e+2, 2.3585247e+2, -528581.4, -659034.0, -17876.385, -0.013093052, 0.20873436, -526176.06, 102492.81, 0.0, 10.001064, 9.9993305 
1.0501412e+2, 2.4585196e+2, -395884.03, -556023.5, -6981.87, -0.0030594554, 0.23146638, -395580.22, 135094.4, 0.0, 10.001352, 9.999227 
1.05016805e+2, 2.5585163e+2, -272303.84, -448090.4, -12789.791, 0.011301091, 0.27293107, -271378.16, 161300.5, 0.0, 10.001538, 9.999206 
1.0501931e+2, 2.6585063e+2, -155143.86, -388990.0, -21206.201, 0.010065877, 0.2771459, -153236.34, 181451.86, 0.0, 10.001878, 9.9987755 
1.05021715e+2, 2.7584922e+2, 6098.858, -263504.44, -28958.13, -0.001077726, 0.25163475, 9174.176, 245875.63, 0.0, 10.002325, 9.998749 
1.0502428e+2, 2.858474e+2, 111024.05, -211746.38, -17456.305, -0.017088763, 0.22037365, 111965.38, 250683.06, 0.0000000012344323, 10.002586, 9.998306 
1.05026916e+2, 2.958453e+2, 221722.94, -114594.07, -14525.36, -0.04176548, 0.17822108, 222349.13, 263085.34, 0.0000020653147, 10.002703, 9.998244 
1.0502977e+2, 3.0584338e+2, 230063.47, -215452.14, -40202.49, -0.006430518, 0.2230153, 233662.2, 233662.2, 0.00003243676, 10.002985, 9.997084 
1.05031915e+2, 3.1584042e+2, 450031.72, 146383.83, -11044.793, -0.014409866, 0.21437202, 450432.94, 450432.94, 0.00014091349, 10.003395, 9.999371 
1.1498382e+2, 1.258516e+2, -1816781.0, -1603510.8, -18809.836, -0.045542438, 0.36394858, -1601864.5, 104825.56, 0.0007384457, 9.998609, 10.001434 
1.14986755e+2, 1.3585213e+2, -1793076.8, -1665512.0, 3898.6833, -0.07916347, 0.38291153, -1665393.0, -56709.617, 0.00041537013, 9.998635, 10.000323 
1.1498952e+2, 1.4585197e+2, -1637049.3, -1498260.8, -22166.936, -0.07958277, 0.31642574, -1494806.3, 15877.3, 0.00016046493, 9.998855, 10.000689 
1.1499202e+2, 1.5585274e+2, -1489672.4, -1382129.8, -18887.959, -0.073643535, 0.3239334, -1378908.9, 33765.695, 0.000029173738, 9.999219, 10.000638 
1.1499462e+2, 1.6585305e+2, -1382854.5, -1321135.0, -9167.851, -0.06692602, 0.31204, -1319802.0, -5132.828, 0.0000005105562, 9.999457, 10.000269 
1.1499735e+2, 1.7585285e+2, -1265374.4, -1217002.4, -6393.119, -0.05723969, 0.2601626, -1216171.6, 496.5431, 0.0, 9.999606, 10.000239 
1.15e+2, 1.8585254e+2, -1174281.6, -1184791.8, -13606.839, -0.040017378, 0.23677255, -1164950.4, -46280.914, 0.0, 9.999827, 9.9996805 
1.1500259e+2, 1.9585226e+2, -1035431.0, -1067073.1, -12651.084, -0.018132975, 0.23770054, -1030994.8, -10323.524, 0.0, 10.000108, 9.999681 
1.1500509e+2, 2.0585169e+2, -924837.44, -981279.94, -5391.85, -0.01564116, 0.22137573, -924327.0, -1651.0834, 0.0, 10.000273, 9.999518 
1.15007505e+2, 2.1585089e+2, -815220.7, -877745.06, -2357.775, -0.02648631, 0.18525858, -815131.94, 9550.753, 0.0, 10.000353, 9.999517 
1.1501013e+2, 2.2585039e+2, -691669.8, -792523.75, -1438.7151, -0.018862551, 0.19612373, -691649.3, 35038.37, 0.0, 10.000635, 9.999293 
1.1501288e+2, 2.3585014e+2, -531695.75, -665392.8, -2436.1863, 0.0017131376, 0.23855118, -531651.4, 97039.83, 0.0, 10.001064, 9.999287 
1.15015574e+2, 2.4584948e+2, -406023.53, -576902.1, -80.47432, 0.006444071, 0.25479847, -406023.5, 124675.02, 0.0, 10.001352, 9.9990835 
1.15018226e+2, 2.558485e+2, -282889.78, -469930.88, -4989.2964, -0.0008778131, 0.2454797, -282756.78, 149951.84, 0.0, 10.001538, 9.999056 
1.1502104e+2, 2.6584733e+2, -171700.19, -423467.7, -4499.2266, -0.0045128125, 0.24970661, -171619.81, 163100.94, 0.0, 10.001878, 9.998539 
1.15024015e+2, 2.75846e+2, -8764.037, -294417.84, -13093.828, -0.0032962523, 0.26206928, -8165.097, 228568.9, 0.0, 10.002325, 9.998537 
1.1502688e+2, 2.8584424e+2, 119074.61, -194623.34, -13043.512, -0.015581012, 0.23722069, 119616.02, 258365.98, 0.00000000006210851, 10.002585, 9.998424 
1.15029596e+2, 2.958421e+2, 228344.42, -100294.18, -9138.745, -0.04390242, 0.17778105, 228598.36, 269366.4, 0.0000014487281, 10.002701, 9.998343 
1.1503265e+2, 3.0584008e+2, 218180.53, -239793.48, -24968.568, -0.016526721, 0.22025882, 219537.78, 219537.78, 0.000026628812, 10.002983, 9.996917 
1.1503507e+2, 3.1583732e+2, 440375.47, 126623.11, 7345.4487, -0.0386322, 0.24742337, 440547.34, 440547.34, 0.00012196141, 10.003394, 9.999236 
1.249822e+2, 1.2584849e+2, -1840803.0, -1606255.0, -20165.139, -0.058241446, 0.37136647, -1604534.0, 102187.18, 0.000709113, 9.998407, 10.0015135 
1.249854e+2, 1.35849e+2, -1806940.0, -1660567.0, 6499.2456, -0.07080405, 0.37835956, -1660279.0, -51565.055, 0.00040043768, 9.998491, 10.000427 
1.2498845e+2, 1.4584883e+2, -1655409.0, -1511062.1, -11734.664, -0.06567035, 0.30860037, -1510114.4, 599.8748, 0.0001562618, 9.998746, 10.000654 
1.24991246e+2, 1.5584974e+2, -1505748.1, -1392895.3, -16738.293, -0.067804754, 0.33421364, -1390465.0, 22239.37, 0.000029665673, 9.999121, 10.000611 
1.24994054e+2, 1.6585012e+2, -1398872.6, -1320348.6, -19860.41, -0.062130395, 0.32416016, -1315611.4, -912.7329, 0.0000007617598, 9.99931, 10.000346 
1.2499692e+2, 1.7584987e+2, -1294823.5, -1222877.5, -17572.107, -0.048308954, 0.262447, -1218815.1, -2117.412, 0.0, 9.999367, 10.000315 
1.249998e+2, 1.8584962e+2, -1199785.3, -1190084.9, -14462.959, -0.03167583, 0.23704536, -1179680.5, -60982.348, 0.0, 9.999621, 9.999744 
1.250027e+2, 1.9584945e+2, -1045401.94, -1066394.4, -9722.366, -0.013932884, 0.2418192, -1041591.0, -20892.354, 0.0, 10.000015, 9.99973 
1.2500544e+2, 2.0584883e+2, -920939.06, -990806.9, -13778.317, -0.011540886, 0.22429349, -918320.06, 4383.779, 0.0, 10.000348, 9.999416 
1.2500808e+2, 2.1584786e+2, -779929.44, -871321.9, -24453.572, -0.019767947, 0.18327957, -773797.8, 50914.758, 0.0, 10.00064, 9.999423 
1.2501097e+2, 2.2584736e+2, -654185.8, -775205.8, -23311.426, -0.012119416, 0.19783524, -649850.75, 76866.91, 0.0, 10.0008955, 9.999288 
1.2501402e+2, 2.358472e+2, -524019.38, -663263.44, -22607.385, 0.0064837253, 0.24990883, -520440.84, 108279.07, 0.0, 10.001123, 9.999273 
1.2501694e+2, 2.4584639e+2, -413078.88, -594505.75, -22186.53, 0.0072611873, 0.25907588, -410405.1, 120323.38, 0.0, 10.001365, 9.998957 
1.2501976e+2, 2.558451e+2, -280092.53, -481682.7, -25347.418, -0.0054092626, 0.23151498, -276954.25, 155787.39, 0.0, 10.001614, 9.998939 
1.2502289e+2, 2.6584384e+2, -166535.42, -421183.44, -8048.4595, -0.00952066, 0.23438947, -166281.3, 168473.23, 0.0, 10.001914, 9.998537 
1.2502629e+2, 2.7584264e+2, -20234.027, -300482.78, 475.7713, -0.005189824, 0.25686494, -20233.219, 216533.72, 0.0, 10.002248, 9.998533 
1.2502946e+2, 2.8584093e+2, 113899.15, -199701.81, -4130.4653, -0.0149425035, 0.24087013, 113953.54, 252735.94, 0.0, 10.00256, 9.998402 
1.250324e+2, 2.9583886e+2, 248575.86, -93193.836, -10982.3955, -0.041652925, 0.19062841, 248928.4, 289728.47, 0.00000094519226, 10.0028515, 9.99832 
1.2503569e+2, 3.058367e+2, 221301.11, -248796.61, -25751.457, -0.015382142, 0.22035639, 222707.53, 222707.53, 0.000021325412, 10.003051, 9.996823 
1.2503831e+2, 3.1583387e+2, 403896.28, 101078.15, 15272.099, -0.0427921, 0.2511628, 404664.56, 404664.56, 0.00010374891, 10.003178, 9.999166 
1.3498048e+2, 1.2584513e+2, -1834776.9, -1592343.6, -17439.848, -0.070204064, 0.35994366, -1591095.5, 115657.66, 0.0006877832, 9.998401, 10.001613 
1.3498393e+2, 1.3584583e+2, -1797740.0, -1642888.9, 10821.469, -0.067098245, 0.3709582, -1642136.3, -33392.277, 0.0003909241, 9.998497, 10.0005455 
1.349873e+2, 1.4584564e+2, -1663911.8, -1529889.3, 2267.0552, -0.056499936, 0.30149522, -1529850.9, -19106.145, 0.00015498626, 9.998751, 10.000523 
1.3499044e+2, 1.5584654e+2, -1514176.9, -1409575.8, -3668.639, -0.061478622, 0.33884117, -1409447.3, 3288.3948, 0.000031126136, 9.999117, 10.000499 
1.3499343e+2, 1.6584696e+2, -1394898.6, -1311446.9, -17724.229, -0.05543278, 0.3350212, -1307838.5, 6891.4375, 0.0000011270397, 9.999307, 10.000408 
1.349964e+2, 1.758468e+2, -1289879.4, -1213162.3, -14240.744, -0.03792564, 0.2753945, -1210604.1, 6124.4385, 0.0, 9.999369, 10.0003805 
1.3499947e+2, 1.858466e+2, -1190824.6, -1171910.0, 431.33176, -0.027584821, 0.24597634, -1171900.3, -53172.223, 0.0, 9.999623, 9.999868 
1.3500261e+2, 1.9584648e+2, -1039142.94, -1053587.0, 4917.2524, -0.023616705, 0.24282849, -1037627.8, -16900.736, 0.0, 10.000016, 9.999819 
1.3500576e+2, 2.0584586e+2, -941170.7, -1032853.6, -2841.703, -0.0144503135, 0.23744622, -941082.7, -18349.87, 0.0, 10.000348, 9.999127 
1.350089e+2, 2.1584488e+2, -798592.2, -909796.56, -13543.279, -0.0013968735, 0.22261621, -796966.56, 27776.96, 0.0, 10.000639, 9.99916 
1.3501202e+2, 2.2584416e+2, -652966.75, -772486.06, -14722.194, 0.0028532099, 0.2271469, -651180.0, 75570.65, 0.0, 10.000895, 9.999307 
1.3501509e+2, 2.3584366e+2, -523166.47, -661501.4, -13893.946, 0.00088127755, 0.24270265, -521784.78, 106970.234, 0.0, 10.001123, 9.999285 
1.3501821e+2, 2.4584271e+2, -420629.9, -610377.1, -12924.176, -0.00090008427, 0.24430488, -419753.66, 111010.86, 0.0, 10.001366, 9.998848 
1.3502139e+2, 2.5584146e+2, -285858.97, -493839.25, -15649.051, -0.0030529837, 0.23103, -284688.1, 148089.64, 0.0, 10.001615, 9.998856 
1.3502485e+2, 2.6584026e+2, -150309.55, -387281.0, 4479.643, -0.0058130915, 0.23107708, -150224.89, 184564.64, 0.0, 10.001913, 9.998771 
1.350285e+2, 2.7583912e+2, -6244.3496, -270996.38, 13037.243, -0.007139557, 0.23632179, -5603.903, 231196.36, 0.0, 10.002246, 9.998736 
1.3503201e+2, 2.8583753e+2, 102555.88, -223093.23, 6760.8115, -0.0156080285, 0.23156416, 102696.19, 241511.19, 0.0, 10.002559, 9.998242 
1.3503529e+2, 2.9583567e+2, 238165.69, -114873.26, -458.72958, -0.036009517, 0.2161087, 238166.28, 278998.72, 0.0000005800232, 10.0028515, 9.998171 
1.3503885e+2, 3.0583316e+2, 219966.34, -251072.73, -21116.473, -0.004089718, 0.22254096, 220911.1, 220911.1, 0.000016654767, 10.00305, 9.996808 
1.3504162e+2, 3.1583002e+2, 403199.03, 100907.305, 23034.01, -0.028886016, 0.22545694, 404944.1, 404944.1, 0.00008670888, 10.003174, 9.999166 
1.4497869e+2, 1.2584151e+2, -1873989.3, -1626082.6, -15076.336, -0.079394616, 0.3299812, -1625169.1, 81617.94, 0.0006728006, 9.998194, 10.00148 
1.4498259e+2, 1.3584244e+2, -1788932.8, -1646593.0, -3628.5862, -0.05553987, 0.37334335, -1646500.5, -37723.785, 0.00038500954, 9.99859, 10.000475 
1.449862e+2, 1.458422e+2, -1657643.0, -1522369.4, -13600.271, -0.04290987, 0.2993574, -1521015.5, -10237.403, 0.00015511648, 9.998774, 10.000564 
1.4498939e+2, 1.5584297e+2, -1559548.6, -1428242.0, -6460.5957, -0.06251852, 0.31892967, -1427925.0, -15155.217, 0.00003278088, 9.998792, 10.000527 
1.4499263e+2, 1.658434e+2, -1425706.1, -1333635.6, -16399.672, -0.05779548, 0.31958672, -1330801.8, -16037.666, 0.0000015078091, 9.999127, 10.000342 
1.4499599e+2, 1.7584339e+2, -1247107.4, -1198541.4, -23064.553, -0.03192679, 0.28036177, -1189333.6, 27428.72, 0.0, 9.999688, 10.000327 
1.4499931e+2, 1.8584323e+2, -1135702.0, -1135041.8, -16772.865, -0.022207784, 0.25242868, -1118595.8, 165.6615, 0.0, 9.999956, 9.999962 
1.450026e+2, 1.9584307e+2, -1034086.56, -1042745.44, -14518.768, -0.025546964, 0.2369649, -1023265.44, -2505.3071, 0.0, 10.000014, 9.999894 
1.4500609e+2, 2.0584247e+2, -966550.0, -1057208.0, -12360.138, -0.010512301, 0.23575035, -964895.06, -42129.24, 0.0, 10.000226, 9.99902 
1.450097e+2, 2.1584153e+2, -818951.44, -931410.56, -9619.887, 0.01798486, 0.23700242, -818134.44, 6642.136, 0.0, 10.00055, 9.999054 
1.4501303e+2, 2.2584069e+2, -665007.8, -787743.06, -10997.352, 0.017756263, 0.23711279, -664030.2, 62754.98, 0.0, 10.000853, 9.999222 
1.450162e+2, 2.3583989e+2, -525890.2, -672004.1, -18109.371, -0.0031349766, 0.23343718, -523679.16, 105112.86, 0.0, 10.001144, 9.999204 
1.4501958e+2, 2.4583893e+2, -413567.4, -611817.9, -17310.12, -0.005870988, 0.23761147, -412067.3, 118734.55, 0.0, 10.001435, 9.998805 
1.4502314e+2, 2.5583783e+2, -272472.38, -491318.3, -15183.019, 0.0037325313, 0.24298944, -271424.06, 161389.83, 0.0, 10.001723, 9.99882 
1.450268e+2, 2.658366e+2, -142837.2, -377035.06, -1308.1531, -0.0012433511, 0.24124423, -142829.89, 191995.67, 0.0, 10.001936, 9.99883 
1.4503059e+2, 2.7583537e+2, -26163.01, -274799.03, -5687.0454, -0.014741802, 0.22938083, -26032.998, 210804.02, 0.0, 10.002086, 9.998787 
1.4503439e+2, 2.8583387e+2, 65869.914, -249780.83, -11121.594, -0.022292884, 0.2360644, 66261.29, 205112.69, 0.0, 10.002346, 9.998161 
1.450381e+2, 2.9583225e+2, 209978.48, -135881.42, -12569.655, -0.032818537, 0.2537305, 210434.7, 251302.3, 0.00000034163278, 10.002689, 9.998105 
1.4504188e+2, 3.0582958e+2, 218463.7, -238149.89, -29817.447, -0.0013400632, 0.24019048, 220402.58, 220402.58, 0.000012640429, 10.002979, 9.99693 
1.4504477e+2, 3.158264e+2, 417144.9, 120522.7, 26594.07, -0.03292257, 0.22479045, 419510.38, 419510.38, 0.000071064576, 10.003214, 9.999281 
1.5497679e+2, 1.2583758e+2, -1899219.3, -1678684.5, -942.7169, -0.08880164, 0.28100163, -1678680.5, 28142.58, 0.0006609735, 9.998196, 10.001118 
1.5498137e+2, 1.3583882e+2, -1807981.0, -1684808.4, 10069.188, -0.037213955, 0.3851566, -1683990.6, -75178.195, 0.00037997565, 9.998585, 10.000216 
1.5498514e+2, 1.458385e+2, -1643060.9, -1491151.1, -13041.607, -0.025837826, 0.3020608, -1490039.6, 20774.893, 0.00015479715, 9.99877, 10.000779 
1.5498807e+2, 1.5583901e+2, -1546835.4, -1402510.0, -4001.406, -0.0723009, 0.27462834, -1402399.1, 10407.526, 0.000033834087, 9.998795, 10.000703 
1.5499163e+2, 1.6583943e+2, -1438970.3, -1361783.0, 4698.8237, -0.07056462, 0.2781375, -1361498.0, -46696.9, 0.0000017896223, 9.999129, 10.000149 
1.5499568e+2, 1.7583962e+2, -1259368.8, -1223729.9, -3457.4358, -0.031027557, 0.27773565, -1223397.5, -6598.4697, 0.0, 9.999686, 10.0001545 
1.5499933e+2, 1.8583947e+2, -1131776.8, -1126445.3, -14678.154, -0.016324654, 0.25647226, -1114192.8, 4605.732, 0.0, 9.999954, 10.000022 
1.5500267e+2, 1.958392e+2, -1029635.1, -1033553.2, -11475.563, -0.020365758, 0.22391243, -1019952.56, 845.29425, 0.0, 10.000014, 9.999958 
1.5500641e+2, 2.0583864e+2, -961477.3, -1046666.5, -240.82803, -0.00015244124, 0.21892902, -961476.6, -38673.85, 0.0, 10.000226, 9.999092 
1.5501043e+2, 2.1583785e+2, -815281.4, -923870.8, 2576.0083, 0.03791431, 0.22665513, -815220.3, 9591.533, 0.0, 10.00055, 9.999106 
1.5501402e+2, 2.2583693e+2, -678075.75, -815005.7, -110.844444, 0.031959284, 0.22796154, -678075.6, 48745.676, 0.0, 10.000854, 9.999035 
1.550173e+2, 2.3583594e+2, -538042.4, -697193.7, -7064.7627, -0.005975981, 0.22220597, -537729.4, 91101.516, 0.0, 10.001144, 9.999031 
1.5502098e+2, 2.4583502e+2, -412153.97, -608891.4, -6458.487, -0.00831508, 0.23901813, -411942.16, 118898.34, 0.0, 10.001435, 9.998825 
1.5502496e+2, 2.5583416e+2, -271686.16, -489720.0, -4596.5576, 0.014344712, 0.26713994, -271589.28, 161260.84, 0.0, 10.001723, 9.998832 
1.5502879e+2, 2.6583287e+2, -150693.39, -393379.3, 4306.695, 0.003783408, 0.26474363, -150616.98, 184245.69, 0.0, 10.001936, 9.998717 
1.5503255e+2, 2.7583137e+2, -33223.047, -289531.1, 503.2999, -0.028681189, 0.23586911, -33222.06, 203655.2, 0.0, 10.002086, 9.998686 
1.550366e+2, 2.8582993e+2, 65934.71, -249926.06, 1754.2842, -0.035666395, 0.2538733, 65944.45, 204836.08, 0.0, 10.002347, 9.998159 
1.550408e+2, 2.9582864e+2, 211125.5, -133499.97, 430.64987, -0.03203853, 0.30337438, 211126.05, 252031.58, 0.00000019535571, 10.002689, 9.998121 
1.550448e+2, 3.0582592e+2, 235970.98, -200971.16, -20850.46, -0.007263319, 0.27315024, 236963.7, 236963.7, 0.000009261703, 10.002976, 9.997187 
1.5504774e+2, 3.158229e+2, 432433.56, 153190.23, 38220.863, -0.05751561, 0.24781397, 437570.47, 437570.47, 0.000056915687, 10.003209, 9.999507 
1.6497514e+2, 1.2583381e+2, -1924239.1, -1705391.8, -14461.577, -0.06829113, 0.28201532, -1704440.3, 2419.1648, 0.000647907, 9.998086, 10.000988 
1.6497985e+2, 1.3583495e+2, -1832351.1, -1703307.5, 13824.25, -0.041190933, 0.38313067, -1701843.1, -92992.72, 0.00037279638, 9.9984455, 10.000155 
1.649839e+2, 1.4583454e+2, -1640766.5, -1487860.5, -17826.453, -0.026860064, 0.29411858, -1485809.6, 25043.648, 0.0001524271, 9.9987755, 10.000798 
1.6498716e+2, 1.5583509e+2, -1505233.9, -1381697.4, -23423.035, -0.056530412, 0.26964495, -1377405.4, 35439.07, 0.000033788867, 9.999076, 10.00071 
1.6499096e+2, 1.658355e+2, -1423904.0, -1364958.6, -10110.002, -0.057468984, 0.2757675, -1363272.9, -48433.65, 0.0000018950186, 9.999278, 10.000055 
1.649952e+2, 1.7583562e+2, -1306635.0, -1256409.1, -11488.342, -0.03476537, 0.27812082, -1253906.0, -37067.613, 0.0, 9.999405, 10.000066 
1.649991e+2, 1.8583547e+2, -1179372.8, -1152603.4, -28748.814, -0.018128851, 0.261503, -1134276.1, -15437.8125, 0.0, 9.999641, 9.999992 
1.650028e+2, 1.9583523e+2, -1039325.8, -1040078.25, -31934.436, -0.006773264, 0.23502295, -1007765.4, 13072.425, 0.0, 9.999955, 9.999942 
1.6500677e+2, 2.0583466e+2, -940336.5, -1022727.6, -15340.565, 0.009790299, 0.22405405, -937572.94, -14730.661, 0.0, 10.000311, 9.999216 
1.6501099e+2, 2.1583384e+2, -785852.1, -897865.0, -9187.643, 0.03023144, 0.21692835, -785103.56, 39746.96, 0.0, 10.000701, 9.999212 
1.650149e+2, 2.2583291e+2, -662365.06, -816283.0, -8790.029, 0.026308546, 0.2178249, -661864.7, 64995.17, 0.0, 10.000999, 9.998956 
1.6501859e+2, 2.3583196e+2, -530212.94, -701755.3, -7429.693, 0.004557402, 0.2224996, -529891.75, 98978.05, 0.0, 10.001234, 9.998956 
1.6502252e+2, 2.4583103e+2, -402685.03, -606739.5, -3756.363, -0.0018817284, 0.24193677, -402615.9, 128263.78, 0.0, 10.001511, 9.998803 
1.650266e+2, 2.558301e+2, -260524.73, -487630.44, -5411.317, 0.0019145228, 0.2668806, -260395.88, 172493.69, 0.0, 10.001815, 9.998801 
1.6503069e+2, 2.658288e+2, -143509.25, -407265.97, -3845.5457, -0.0063457675, 0.2690047, -143453.19, 191449.81, 0.0, 10.002061, 9.998561 
1.6503479e+2, 2.758272e+2, -17378.771, -297459.6, -10793.971, -0.021045694, 0.25023097, -16963.402, 219955.56, 0.0, 10.002262, 9.998546 
1.6503908e+2, 2.8582576e+2, 82704.3, -237688.22, -6853.681, -0.02686971, 0.27072668, 82850.84, 221784.67, 0.0, 10.002445, 9.998196 
1.6504343e+2, 2.9582447e+2, 201998.56, -132953.88, -5784.3223, -0.03394961, 0.3181291, 202098.42, 243045.88, 0.00000010392393, 10.002606, 9.998164 
1.650476e+2, 3.0582172e+2, 208035.05, -202994.45, -35528.58, -0.011413634, 0.27537706, 211083.45, 211083.45, 0.0000064948904, 10.002735, 9.997288 
1.6505077e+2, 3.1581905e+2, 381245.9, 135499.3, 13944.566, -0.0551151, 0.27493238, 382034.66, 382034.66, 0.00004432351, 10.002828, 9.999568 
1.7497373e+2, 1.2583016e+2, -1917104.8, -1689803.8, -410.5435, -0.01842708, 0.33395022, -1689803.0, 17093.35, 0.0006289189, 9.998083, 10.001096 
1.7497802e+2, 1.3583079e+2, -1821874.4, -1681914.4, 27574.783, -0.06909333, 0.36791718, -1676677.6, -67786.83, 0.00036083558, 9.998447, 10.000301 
1.7498247e+2, 1.4583032e+2, -1653374.0, -1514493.4, -6686.336, -0.04784754, 0.27581564, -1514172.3, -3277.9978, 0.00014701553, 9.998777, 10.000615 
1.7498665e+2, 1.5583122e+2, -1517081.0, -1406107.8, -12647.677, -0.01615344, 0.30433348, -1404684.6, 8198.451, 0.00003249045, 9.999075, 10.000543 
1.7499062e+2, 1.658316e+2, -1423475.9, -1363806.8, -5401.651, -0.018992992, 0.31289002, -1363321.6, -48443.22, 0.0000018022155, 9.999276, 10.000064 
1.7499451e+2, 1.7583138e+2, -1306845.8, -1256966.8, -5934.94, -0.043870736, 0.28135663, -1256270.4, -39389.887, 0.0, 9.999405, 10.000062 
1.7499864e+2, 1.8583119e+2, -1187778.8, -1169966.5, -17045.11, -0.028604098, 0.2674364, -1159641.0, -40759.824, 0.0, 9.999641, 9.999874 
1.7500296e+2, 1.9583113e+2, -1046091.7, -1053979.9, -19864.41, 0.014840441, 0.27052444, -1029783.56, -8903.669, 0.0, 9.999954, 9.999846 
1.750072e+2, 2.0583051e+2, -928385.3, -997749.2, -606.9622, 0.018810704, 0.25126308, -928380.0, -5495.831, 0.0, 10.000311, 9.999388 
1.7501132e+2, 2.158295e+2, -774837.0, -874667.44, 5113.9785, -0.005499616, 0.20786576, -774575.7, 50316.95, 0.0, 10.000699, 9.9993725 
1.7501564e+2, 2.2582866e+2, -660511.25, -812206.7, -51.94996, 0.0003121995, 0.2066572, -660511.25, 66389.625, 0.0, 10.0009985, 9.998984 
1.7502007e+2, 2.3582794e+2, -528612.2, -698523.9, 1694.1454, 0.027955126, 0.23409785, -528595.3, 100313.45, 0.0, 10.001234, 9.998979 
1.7502417e+2, 2.4582691e+2, -407030.63, -615880.0, 7683.9106, 0.01292883, 0.24629666, -406748.28, 124171.15, 0.0, 10.001511, 9.99874 
1.7502806e+2, 2.5582564e+2, -265608.5, -498206.9, 5833.8, -0.033911876, 0.2425319, -265462.28, 167469.89, 0.0, 10.001815, 9.998729 
1.750325e+2, 2.658243e+2, -157297.61, -436218.75, 3676.8635, -0.03190804, 0.2541388, -157249.14, 177697.45, 0.0, 10.002062, 9.998363 
1.7503734e+2, 2.7582288e+2, -29813.467, -323431.4, -3049.6667, 0.0075921533, 0.2720516, -29781.795, 207180.44, 0.0, 10.002262, 9.998367 
1.7504182e+2, 2.8582132e+2, 87356.96, -227775.95, -682.449, 0.0033152942, 0.28679794, 87358.44, 226336.48, 0.0, 10.002444, 9.998264 
1.7504598e+2, 2.9581973e+2, 206161.61, -123969.08, 440.07098, -0.039780308, 0.2990955, 206162.19, 247155.56, 0.00000004563321, 10.002605, 9.998226 
1.750503e+2, 3.0581692e+2, 204766.1, -210054.34, -31918.732, -0.015075802, 0.24783412, 207207.73, 207207.73, 0.000004309572, 10.002735, 9.997239 
1.750539e+2, 3.158148e+2, 374612.38, 120952.53, 19476.488, -0.026851207, 0.3056813, 376099.13, 376099.13, 0.000033325945, 10.00283, 9.999467 
1.8497209e+2, 1.2582588e+2, -1853073.9, -1649305.3, -13810.548, -0.010199223, 0.3481622, -1648373.5, 58565.15, 0.0006001509, 9.99848, 10.001182 
1.8497644e+2, 1.3582651e+2, -1832502.6, -1671865.6, 12093.045, -0.064554304, 0.36665243, -1670960.4, -62028.42, 0.00034227368, 9.998308, 10.000437 
1.8498118e+2, 1.4582601e+2, -1701231.1, -1547429.8, -9429.19, -0.03951871, 0.27028832, -1546853.9, -35918.12, 0.00013807035, 9.998491, 10.000526 
1.8498576e+2, 1.5582696e+2, -1544445.0, -1428155.1, -8883.102, -0.0043536467, 0.3097861, -1427480.5, -14555.361, 0.000029920388, 9.998926, 10.000463 
1.8499002e+2, 1.6582727e+2, -1427370.6, -1363367.0, -4744.697, -0.0050463844, 0.317099, -1363017.1, -48096.258, 0.0000015280342, 9.99924, 10.000085 
1.849941e+2, 1.7582698e+2, -1297800.8, -1251456.1, -4063.0356, -0.028704604, 0.27618337, -1251102.6, -34179.504, 0.0, 9.999462, 10.0000725 
1.8499845e+2, 1.8582678e+2, -1172387.9, -1172875.4, -7187.831, -0.019392839, 0.264939, -1165439.6, -46515.336, 0.0, 9.999791, 9.999782 
1.8500303e+2, 1.9582674e+2, -1016420.0, -1048479.94, -8589.585, 0.0125162415, 0.27955064, -1014263.7, 6659.876, 0.0, 10.0001955, 9.999768 
1.8500747e+2, 2.0582613e+2, -912577.3, -983148.8, 1937.7178, 0.012196182, 0.25967032, -912524.2, 10403.673, 0.0, 10.000389, 9.99945 
1.8501183e+2, 2.158251e+2, -810108.4, -885405.06, -348.63385, -0.01105022, 0.20715435, -810106.75, 14829.1, 0.0, 10.00043, 9.999429 
1.8501645e+2, 2.2582422e+2, -699182.9, -830236.6, -4728.654, -0.0037770951, 0.20190416, -699012.44, 27931.441, 0.0, 10.0007305, 9.998989 
1.8502127e+2, 2.358235e+2, -530230.4, -698777.0, -4867.8467, 0.02561903, 0.22890192, -530089.9, 98861.86, 0.0, 10.001221, 9.998983 
1.8502572e+2, 2.4582241e+2, -394322.38, -611663.75, 453.6792, 0.011602963, 0.23660524, -394321.44, 136641.31, 0.0, 10.001607, 9.998722 
1.8502992e+2, 2.5582108e+2, -252712.1, -494583.8, 1514.0134, -0.034823593, 0.22594473, -252702.61, 180273.39, 0.0, 10.001915, 9.998705 
1.8503462e+2, 2.6581967e+2, -150818.61, -442188.53, 1550.5984, -0.02947197, 0.23766032, -150810.36, 184180.78, 0.0, 10.002147, 9.99828 
1.850397e+2, 2.758182e+2, -27191.53, -330408.9, 3262.5876, 0.015584336, 0.2597812, -27156.43, 209851.25, 0.0, 10.002316, 9.998293 
1.8504436e+2, 2.8581664e+2, 92639.39, -226293.17, 5379.064, 0.0105662495, 0.27981853, 92730.086, 231753.45, 0.0, 10.002485, 9.998254 
1.8504861e+2, 2.9581517e+2, 211376.55, -123230.86, 470.22336, -0.03821172, 0.3004123, 211377.2, 252414.8, 0.000000013949684, 10.002649, 9.99821 
1.850531e+2, 3.058121e+2, 205710.95, -218800.73, -38490.418, -0.012460974, 0.23213618, 209172.64, 209172.64, 0.0000026617806, 10.002783, 9.997156 
1.8505688e+2, 3.1580997e+2, 371461.6, 101953.09, 11932.14, -0.013377919, 0.2973316, 371988.84, 371988.84, 0.00002394661, 10.002885, 9.99931 
1.9497022e+2, 1.2582098e+2, -1848561.5, -1640495.8, -19399.873, -0.045875296, 0.3242028, -1638702.4, 68284.05, 0.000559594, 9.998482, 10.001242 
1.9497511e+2, 1.3582212e+2, -1823956.6, -1654175.4, 7480.6167, -0.027727075, 0.37957522, -1653846.4, -44872.355, 0.00031629903, 9.998308, 10.000558 
1.9498006e+2, 1.4582163e+2, -1700721.6, -1546189.3, 7101.0815, -0.0020889826, 0.27792126, -1545863.6, -34886.063, 0.00012542125, 9.99849, 10.000536 
1.9498451e+2, 1.5582225e+2, -1543726.9, -1426689.8, 7163.2534, -0.021922853, 0.28590098, -1426252.9, -13282.406, 0.000026112697, 9.998926, 10.000473 
1.9498914e+2, 1.6582254e+2, -1425437.4, -1359193.8, 3565.8774, -0.016589383, 0.28828523, -1359002.3, -44035.72, 0.0000011234973, 9.999239, 10.0001135 
1.9499394e+2, 1.7582244e+2, -1296228.1, -1248146.5, 5000.6353, 0.010347345, 0.2627192, -1247631.9, -30665.35, 0.0, 9.999462, 10.000096 
1.9499852e+2, 1.8582223e+2, -1177148.1, -1182537.5, 8170.0, 0.008994014, 0.25419647, -1171239.9, -52272.13, 0.0, 9.99979, 9.999716 
1.9500294e+2, 1.9582205e+2, -1020999.4, -1057806.0, 5683.625, -0.014128475, 0.26209876, -1020141.75, 827.11584, 0.0, 10.0001955, 9.999704 
1.9500762e+2, 2.0582145e+2, -915968.06, -989997.44, 3337.389, -0.010592823, 0.24934736, -915817.9, 7155.3374, 0.0, 10.000388, 9.999403 
1.950125e+2, 2.1582055e+2, -813293.8, -891977.94, 2666.1516, 0.012814769, 0.21468443, -813203.56, 11776.617, 0.0, 10.00043, 9.999383 
1.9501737e+2, 2.258196e+2, -700565.5, -833134.2, 13776.281, 0.013354523, 0.20359686, -699149.06, 27839.887, 0.0, 10.0007305, 9.99897 
1.950222e+2, 2.3581864e+2, -531326.2, -700859.0, 13182.66, -0.002603377, 0.20698647, -530307.25, 98691.59, 0.0, 10.00122, 9.998969 
1.9502714e+2, 2.4581754e+2, -392545.53, -607908.1, 12012.054, -0.0062361863, 0.21296524, -391877.63, 139132.03, 0.0, 10.001607, 9.998749 
1.9503216e+2, 2.5581637e+2, -251094.55, -491026.0, 12824.639, -0.0016399911, 0.21690622, -250411.0, 182610.13, 0.0, 10.001914, 9.99873 
1.9503707e+2, 2.6581487e+2, -148738.38, -437821.13, 7892.8384, 0.00023341145, 0.21955241, -148523.05, 186513.64, 0.0, 10.002147, 9.99831 
1.950419e+2, 2.7581316e+2, -25560.43, -327076.56, 9640.985, 0.0024642902, 0.21428765, -25252.475, 211802.89, 0.0, 10.002316, 9.998316 
1.950467e+2, 2.8581178e+2, 86548.88, -238886.64, 11585.734, -0.005704613, 0.2504704, 86960.83, 226030.72, 0.0, 10.002485, 9.998167 
1.9505134e+2, 2.9581067e+2, 204880.73, -136859.3, 6948.049, -0.029364115, 0.32124144, 205021.95, 246102.3, 0.0000000023315327, 10.002649, 9.998116 
1.9505598e+2, 3.058073e+2, 197514.55, -236215.92, -34821.152, -0.0035856434, 0.2276788, 200292.3, 200292.3, 0.0000014940416, 10.002784, 9.997036 
1.9505973e+2, 3.158046e+2, 356324.2, 70351.77, 17886.445, -0.016549725, 0.25110784, 357438.56, 357438.56, 0.000016254342, 10.002886, 9.999092 
2.0496842e+2, 1.2581594e+2, -1887388.8, -1658755.0, -31594.762, -0.060124844, 0.3041626, -1654469.4, 52565.66, 0.0005079089, 9.998215, 10.001245 
2.0497371e+2, 1.3581717e+2, -1808775.8, -1638895.0, -9818.544, -0.0028777204, 0.36259446, -1638329.4, -29308.139, 0.00028337847, 9.99838, 10.000628 
2.049789e+2, 1.4581676e+2, -1690177.0, -1539707.9, -823.07947, 0.028769549, 0.26362497, -1539703.4, -28679.059, 0.00010934245, 9.998557, 10.000548 
2.0498341e+2, 1.5581743e+2, -1568501.9, -1436608.4, -548.76404, -0.01613255, 0.2757276, -1436606.1, -23588.932, 0.000021261263, 9.998747, 10.000491 
2.0498833e+2, 1.6581775e+2, -1443847.6, -1360157.1, -1631.377, -0.014242251, 0.2766944, -1360125.4, -45112.51, 0.00000067965186, 9.999078, 10.000185 
2.0499358e+2, 1.7581767e+2, -1284980.0, -1235444.0, 2574.4194, 0.02455849, 0.24652292, -1235310.6, -18298.484, 0.0, 9.999508, 10.000161 
2.0499845e+2, 1.8581751e+2, -1176370.5, -1184176.3, 8517.018, 0.020471048, 0.24026881, -1170904.8, -51891.824, 0.0, 9.9998045, 9.999699 
2.0500302e+2, 1.9581738e+2, -1050699.4, -1074910.0, 9214.524, -0.01582769, 0.25503674, -1047591.4, -26577.58, 0.0, 10.000003, 9.99968 
2.0500797e+2, 2.0581675e+2, -930971.56, -1008851.75, 3800.0764, -0.012147927, 0.24404901, -930786.6, -7767.614, 0.0, 10.000336, 9.9993 
2.0501319e+2, 2.1581571e+2, -770718.44, -881821.5, -843.3988, 0.020730887, 0.2075519, -770712.0, 54315.406, 0.0, 10.000767, 9.99929 
2.050183e+2, 2.2581473e+2, -650002.1, -807039.7, 14227.651, 0.01754945, 0.19719313, -648723.5, 78312.84, 0.0, 10.00107, 9.998985 
2.0502336e+2, 2.358138e+2, -521783.03, -695043.5, 15940.848, -0.011783336, 0.2029834, -520328.6, 108716.82, 0.0, 10.001281, 9.99898 
2.0502862e+2, 2.4581268e+2, -413613.38, -623472.5, 9319.626, -0.013711668, 0.20924665, -413200.3, 117856.22, 0.0, 10.001486, 9.998699 
2.0503402e+2, 2.5581145e+2, -287123.78, -512651.4, 4433.3413, 0.0036188762, 0.21193428, -287036.7, 146032.39, 0.0, 10.001685, 9.998692 
2.0503917e+2, 2.6580995e+2, -168541.97, -438188.75, -328.96945, 0.004658879, 0.2126876, -168541.58, 166542.86, 0.0, 10.00197, 9.998393 
2.0504415e+2, 2.7580836e+2, -20896.049, -316737.06, 4865.586, -0.0038232957, 0.20550089, -20816.047, 216285.89, 0.0, 10.002314, 9.998388 
2.0504914e+2, 2.8580695e+2, 97108.695, -238018.0, 7769.364, -0.01180811, 0.24260886, 97288.72, 236404.83, 0.0, 10.002576, 9.99813 
2.0505407e+2, 2.9580587e+2, 220407.86, -133506.58, 6424.824, -0.027323315, 0.31718236, 220524.45, 261651.22, 0.000000000097020676, 10.002774, 9.998079 
2.0505886e+2, 3.0580235e+2, 216070.19, -227179.14, -31622.334, 0.0012773044, 0.21243635, 218314.83, 218314.83, 0.00000072960836, 10.002911, 9.997038 
2.0506278e+2, 3.157998e+2, 363072.13, 60036.758, 31377.02, -0.0063679526, 0.25149465, 366286.88, 366286.88, 0.000010315381, 10.002989, 9.998973 
2.149667e+2, 1.2581076e+2, -1891896.5, -1667713.9, -23770.895, -0.053806838, 0.28826696, -1665221.0, 41863.16, 0.0004482875, 9.998213, 10.001184 
2.1497221e+2, 1.3581167e+2, -1807935.3, -1636990.4, -3383.2874, 0.009414386, 0.31541392, -1636923.4, -27849.756, 0.00024549337, 9.998379, 10.000643 
2.149777e+2, 1.4581138e+2, -1689133.0, -1537442.1, 6223.21, 0.052290104, 0.22710715, -1537187.3, -26111.414, 0.00009091261, 9.998557, 10.000565 
2.1498245e+2, 1.5581249e+2, -1566747.1, -1432777.9, 7549.4224, 0.012736857, 0.27942252, -1432353.8, -19288.807, 0.000015871614, 9.998746, 10.000519 
2.1498756e+2, 1.658129e+2, -1435978.3, -1343927.5, 14673.658, 0.0014626151, 0.28252694, -1341645.0, -26585.295, 0.00000031009594, 9.999079, 10.000297 
2.1499297e+2, 1.7581268e+2, -1277441.0, -1219977.5, 18171.309, 0.013322721, 0.22760656, -1214713.5, 2346.42, 0.0, 9.999509, 10.000267 
2.1499819e+2, 1.858126e+2, -1174205.9, -1179684.3, 15961.375, 0.014328909, 0.22304906, -1160750.4, -41690.637, 0.0, 9.9998045, 9.999729 
2.1500325e+2, 1.9581272e+2, -1049515.9, -1072528.4, 17536.205, 0.0069809994, 0.2583774, -1040048.0, -18989.5, 0.0, 10.000004, 9.999696 
2.150085e+2, 2.0581195e+2, -942350.9, -1032417.3, 20148.148, 0.0070024575, 0.24373357, -938049.1, -14984.009, 0.0, 10.000335, 9.999138 
2.1501386e+2, 2.1581055e+2, -780788.06, -902574.06, 14894.944, 0.012409876, 0.18588673, -778992.8, 46084.836, 0.0, 10.000767, 9.999148 
2.1501927e+2, 2.258096e+2, -646453.7, -799450.56, 22089.06, 0.008229704, 0.18257894, -643328.4, 83757.766, 0.0, 10.00107, 9.999038 
2.1502474e+2, 2.35809e+2, -519393.94, -689884.4, 23838.57, -0.0024901396, 0.21679777, -516123.47, 112968.12, 0.0, 10.00128, 9.999016 
2.1503013e+2, 2.4580787e+2, -422302.53, -641620.5, 16736.43, -0.01121438, 0.2254435, -421032.72, 110070.7, 0.0, 10.001486, 9.998575 
2.1503548e+2, 2.5580633e+2, -294208.25, -527489.75, 12425.663, -0.019239584, 0.21101828, -293548.28, 139571.6, 0.0, 10.001685, 9.9985895 
2.1504092e+2, 2.6580498e+2, -159352.45, -419024.5, 12595.228, -0.016585402, 0.21714179, -158742.95, 176391.44, 0.0, 10.00197, 9.998525 
2.1504647e+2, 2.7580366e+2, -12741.973, -299545.9, 17539.6, -0.003730421, 0.2323928, -11673.313, 225474.25, 0.0, 10.002313, 9.9985075 
2.1505176e+2, 2.858022e+2, 97662.914, -236872.8, 14962.144, -0.008213992, 0.2555308, 98330.766, 237492.97, 0.0, 10.002575, 9.998138 
2.1505679e+2, 2.958007e+2, 221645.83, -131179.05, 13587.797, -0.03306141, 0.2892301, 222168.33, 263345.16, 0.0, 10.002774, 9.9980955 
2.1506177e+2, 3.0579728e+2, 224563.45, -208962.14, -28619.861, 0.0009350553, 0.18734147, 226444.67, 226444.67, 0.0000002906552, 10.002909, 9.997164 
2.15066e+2, 3.1579557e+2, 361635.13, 57232.688, 35765.72, 0.015574345, 0.2969115, 365780.94, 365780.94, 0.0000060416633, 10.002989, 9.998954 
2.2496499e+2, 1.258055e+2, -1921898.3, -1691702.4, -19352.13, -0.03811005, 0.27881396, -1690086.9, 17047.568, 0.0003850475, 9.99805, 10.001099 
2.2497071e+2, 1.358063e+2, -1785588.0, -1627411.0, -4225.1836, 0.014528132, 0.29554054, -1627298.1, -18172.52, 0.00020561775, 9.998538, 10.000631 
2.2497645e+2, 1.4580609e+2, -1648791.6, -1512766.9, -406.00958, 0.060784567, 0.21361418, -1512765.6, -1638.3744, 0.00007189719, 9.998812, 10.000611 
2.2498143e+2, 1.558074e+2, -1537007.3, -1413698.6, 3204.496, 0.02630323, 0.28325918, -1413615.5, -501.19894, 0.000010694928, 9.99893, 10.000562 
2.2498679e+2, 1.6580786e+2, -1427253.8, -1340771.0, 13240.516, 0.0121956505, 0.28884864, -1338789.3, -23680.604, 0.000000092361944, 9.999143, 10.000287 
2.2499245e+2, 1.7580755e+2, -1289925.6, -1227038.6, 7320.3984, 0.015169115, 0.22644594, -1226197.6, -9087.885, 0.0, 9.999427, 10.000258 
2.2499795e+2, 1.8580744e+2, -1185369.0, -1187428.4, -4174.6484, 0.014493712, 0.21812676, -1182098.9, -62988.77, 0.0, 9.999738, 9.999708 
2.2500333e+2, 1.9580752e+2, -1041683.2, -1071160.8, -6357.3423, 0.010471781, 0.25204957, -1040370.56, -19261.492, 0.0, 10.000068, 9.999674 
2.2500886e+2, 2.0580675e+2, -931249.5, -1031422.9, 5188.296, 0.0062723225, 0.24094743, -930981.5, -7865.784, 0.0, 10.00043, 9.9991 
2.2501454e+2, 2.1580538e+2, -776162.25, -904575.8, 8353.409, 0.0018182116, 0.19037364, -775621.1, 49507.0, 0.0, 10.000817, 9.99911 
2.2502024e+2, 2.2580437e+2, -651423.8, -805078.9, 7494.6045, -0.00070230063, 0.1833228, -651059.1, 76078.234, 0.0, 10.00105, 9.999008 
2.2502597e+2, 2.3580362e+2, -537521.9, -701578.25, 3527.0906, -0.0013714163, 0.20617884, -537446.1, 91698.04, 0.0, 10.001168, 9.998989 
2.2503161e+2, 2.4580255e+2, -424943.6, -639346.75, 5603.938, -0.009229196, 0.2216185, -424797.22, 106358.2, 0.0, 10.001452, 9.998608 
2.250372e+2, 2.5580126e+2, -267186.0, -510522.22, 12462.293, -0.02320435, 0.22742641, -266549.4, 166620.5, 0.0, 10.001854, 9.998625 
2.2504288e+2, 2.657999e+2, -143238.4, -403925.94, 10891.147, -0.02186153, 0.2308612, -142784.19, 192399.75, 0.0, 10.002049, 9.99859 
2.2504863e+2, 2.7579847e+2, -41131.902, -306206.47, 11055.705, -0.006932457, 0.22607474, -40671.594, 196526.17, 0.0, 10.002088, 9.99857 
2.2505423e+2, 2.85797e+2, 53483.406, -255470.78, 8927.621, -0.0028832455, 0.2445922, 53741.168, 192953.45, 0.0, 10.00226, 9.998163 
2.2505963e+2, 2.9579562e+2, 187949.28, -143843.97, 8384.764, -0.014093625, 0.28649315, 188161.03, 229387.08, 0.0, 10.002527, 9.998129 
2.2506475e+2, 3.057922e+2, 217804.13, -191174.92, -33572.047, 0.01689678, 0.17616332, 220541.66, 220541.66, 0.000000085825576, 10.002771, 9.997353 
2.2506906e+2, 3.1579074e+2, 364171.44, 60128.19, 36014.64, 0.022976026, 0.2906639, 368379.22, 368379.22, 0.0000031779714, 10.002999, 9.998969 
2.3496328e+2, 1.2580019e+2, -1931003.6, -1709389.0, 1702.1138, -0.014298816, 0.27752966, -1709376.0, -2190.4614, 0.00032214387, 9.998045, 10.000979 
2.3496924e+2, 1.3580105e+2, -1788832.9, -1633143.9, 13162.16, 0.011832684, 0.3036889, -1632039.0, -22861.8, 0.00016659255, 9.998534, 10.000593 
2.349752e+2, 1.4580087e+2, -1643904.8, -1502657.4, 4035.8198, 0.05357321, 0.22364229, -1502542.3, 8636.3, 0.00005400246, 9.998811, 10.000682 
2.3498033e+2, 1.5580219e+2, -1532944.5, -1405840.4, 8096.734, 0.023636479, 0.28740463, -1405326.6, 7838.4326, 0.000006396683, 9.998932, 10.000615 
2.3498598e+2, 1.6580263e+2, -1435981.9, -1358972.8, 23860.053, 0.0169917, 0.29578462, -1352179.4, -37019.57, 0.000000013163342, 9.999144, 10.000162 
2.3499204e+2, 1.7580229e+2, -1298372.1, -1244512.3, 18356.049, 0.02978686, 0.24306145, -1238851.3, -21689.42, 0.0, 9.999427, 10.000138 
2.3499776e+2, 1.8580197e+2, -1190847.0, -1198692.8, 8293.94, 0.02039622, 0.2255137, -1185595.0, -66430.98, 0.0, 9.999738, 9.999631 
2.3500323e+2, 1.9580175e+2, -1045958.6, -1080133.3, 6281.84, -0.0057132915, 0.23611584, -1044840.5, -23674.875, 0.0, 10.000069, 9.999613 
2.3500909e+2, 2.0580111e+2, -925268.2, -1018966.6, 19785.598, -0.014837625, 0.2356443, -921261.56, 1909.299, 0.0, 10.00043, 9.999185 
2.3501523e+2, 2.1580018e+2, -771450.2, -894656.56, 22267.324, -0.011489762, 0.22090717, -767549.25, 57629.617, 0.0, 10.000816, 9.999179 
2.3502119e+2, 2.25799e+2, -659550.7, -821562.8, 11942.16, -0.009732876, 0.19963852, -658675.1, 68514.8, 0.0, 10.001048, 9.998897 
2.3502706e+2, 2.3579764e+2, -543686.4, -714288.75, 8932.585, -0.008764463, 0.17132622, -543219.94, 85983.13, 0.0, 10.001168, 9.998902 
2.3503308e+2, 2.4579674e+2, -412026.7, -612583.06, 20755.7, -0.008459947, 0.19766796, -409901.2, 121311.42, 0.0, 10.001452, 9.998791 
2.350392e+2, 2.557962e+2, -255611.67, -486249.3, 26567.242, -0.00902422, 0.2606702, -252590.95, 180628.34, 0.0, 10.001853, 9.998793 
2.3504503e+2, 2.657948e+2, -143092.36, -403550.7, 12063.968, -0.0116363345, 0.25376323, -142534.77, 192698.36, 0.0, 10.0020485, 9.998593 
2.3505065e+2, 2.7579275e+2, -40384.484, -304805.25, 13036.433, -0.014050519, 0.18751848, -39743.32, 197509.16, 0.0, 10.002088, 9.99858 
2.3505655e+2, 2.8579134e+2, 56315.574, -249803.95, 18963.578, 0.0032712268, 0.21046978, 57485.863, 196752.17, 0.0, 10.00226, 9.998202 
2.3506258e+2, 2.9579058e+2, 191390.08, -137078.97, 18395.965, 0.028526062, 0.30788904, 192417.14, 233691.78, 0.0, 10.002528, 9.998175 
2.3506786e+2, 3.0578715e+2, 235492.75, -154479.78, -25473.428, 0.048349265, 0.17786963, 237149.67, 237149.67, 0.000000016806371, 10.002771, 9.997604 
2.3507197e+2, 3.1578532e+2, 367761.0, 67724.76, 44754.582, 0.014065699, 0.23397584, 374294.5, 374294.5, 0.0000014346882, 10.002999, 9.999021 
2.4496162e+2, 1.2579444e+2, -1898434.5, -1695879.1, -15134.329, 0.0033255462, 0.27211544, -1694754.5, 12486.942, 0.00026278105, 9.998276, 10.000961 
2.4496761e+2, 1.3579544e+2, -1813868.5, -1639497.4, 326.0417, 0.0058514383, 0.30903146, -1639496.8, -30264.867, 0.00013053669, 9.998338, 10.000646 
2.4497385e+2, 1.4579535e+2, -1669480.0, -1506909.0, -4947.6963, 0.048351936, 0.22983645, -1506758.6, 4473.743, 0.000038366878, 9.998601, 10.000754 
2.4497937e+2, 1.5579662e+2, -1513745.1, -1389954.4, -688.19806, 0.029139446, 0.28210676, -1389950.5, 23268.375, 0.000003303544, 9.999036, 10.000674 
2.4498531e+2, 1.6579704e+2, -1415694.1, -1362201.8, 14430.095, 0.02544027, 0.2913346, -1358557.4, -43343.375, 0.00000000018007511, 9.999339, 10.000046 
2.4499156e+2, 1.7579669e+2, -1289360.6, -1252376.4, 9538.948, 0.035016425, 0.24947631, -1250061.1, -32844.47, 0.0, 9.999542, 10.000029 
2.4499759e+2, 1.8579628e+2, -1173780.8, -1195091.3, 6305.6084, 0.024170768, 0.22871861, -1172054.8, -52834.92, 0.0, 9.999874, 9.99959 
2.4500345e+2, 1.9579586e+2, -1013847.7, -1068810.6, 6530.2827, -0.0020882946, 0.22527401, -1013082.44, 8140.296, 0.0, 10.000307, 9.999575 
2.4500956e+2, 2.0579521e+2, -913043.4, -1015034.9, 11302.94, -0.01508216, 0.225585, -911805.75, 11422.3955, 0.0, 10.000523, 9.999167 
2.4501586e+2, 2.1579438e+2, -806864.1, -913358.7, 5962.182, -0.01835442, 0.22303316, -806531.4, 18704.176, 0.0, 10.000581, 9.999165 
2.4502206e+2, 2.2579321e+2, -688705.6, -832574.1, -54.500114, -0.016648287, 0.203225, -688705.6, 38540.82, 0.0, 10.000834, 9.998924 
2.4502823e+2, 2.357918e+2, -532140.6, -704812.4, 7509.604, -0.010956664, 0.16774559, -531814.7, 97445.19, 0.0, 10.00123, 9.998938 
2.4503455e+2, 2.4579093e+2, -402316.16, -596894.06, 20483.328, -0.007600019, 0.18840848, -400183.22, 131085.64, 0.0, 10.0014715, 9.99889 
2.4504094e+2, 2.5579044e+2, -286438.06, -491355.88, 19660.105, -0.006444746, 0.24733742, -284568.88, 148705.58, 0.0, 10.001599, 9.998879 
2.45047e+2, 2.6578906e+2, -179393.33, -424301.84, -2485.1934, -0.0075321705, 0.23925327, -179368.11, 155920.03, 0.0, 10.001814, 9.998565 
2.4505278e+2, 2.7578703e+2, -42325.402, -308535.7, -4094.2644, -0.008371638, 0.1736875, -42262.445, 195045.6, 0.0, 10.002087, 9.998555 
2.450589e+2, 2.857856e+2, 63775.914, -243438.44, 2397.5542, 0.010615227, 0.19461238, 63794.625, 203116.48, 0.0, 10.0023, 9.998227 
2.4506518e+2, 2.957848e+2, 185185.61, -137213.56, 972.4007, 0.037521273, 0.28877354, 185188.55, 226518.25, 0.0, 10.002474, 9.998199 
2.4507067e+2, 3.0578136e+2, 241408.27, -141519.17, -47190.57, 0.053631786, 0.15452622, 247138.13, 247138.13, 0.0000000018495133, 10.002769, 9.997694 
2.4507509e+2, 3.1577963e+2, 381851.63, 62716.777, 10709.118, 0.01976488, 0.21150036, 382210.6, 382210.6, 0.00000052479436, 10.003146, 9.998915 
2.5496e+2, 1.2578823e+2, -1892175.1, -1682189.5, -10340.801, 0.01373201, 0.26206154, -1681681.5, 25621.273, 0.00020966213, 9.998272, 10.001058 
2.5496584e+2, 1.357895e+2, -1803490.6, -1618219.9, 2964.144, -0.005298293, 0.3113966, -1618172.4, -8882.481, 0.00009902935, 9.998338, 10.000792 
2.549724e+2, 1.4578952e+2, -1663802.8, -1495189.9, 10956.352, 0.04320082, 0.23235945, -1494481.0, 16807.828, 0.000025643241, 9.998601, 10.000834 
2.5497854e+2, 1.5579072e+2, -1509198.8, -1379961.4, 14931.177, 0.042461168, 0.2674792, -1378258.8, 35017.03, 0.0000014046367, 9.999033, 10.000745 
2.5498477e+2, 1.657911e+2, -1423902.4, -1378879.0, 21849.936, 0.03712492, 0.27561915, -1370018.9, -54747.523, 0.0, 9.999337, 9.999932 
2.5499105e+2, 1.7579076e+2, -1296467.4, -1267507.5, 17720.629, 0.029900394, 0.24595194, -1259103.1, -41828.918, 0.0, 9.999544, 9.999925 
2.5499746e+2, 1.8579032e+2, -1173611.5, -1194927.3, 22526.098, 0.024673421, 0.2279916, -1159349.3, -40071.727, 0.0, 9.999875, 9.999591 
2.55004e+2, 1.9578986e+2, -1014483.25, -1070085.0, 21839.174, 0.020829635, 0.21968712, -1006931.06, 14349.414, 0.0, 10.000307, 9.999566 
2.5501028e+2, 2.0578904e+2, -921801.9, -1033025.2, 13451.822, 0.0050874213, 0.21081936, -920198.06, 3089.6384, 0.0, 10.000522, 9.999044 
2.5501642e+2, 2.1578798e+2, -813837.3, -927780.6, 9249.04, -0.019368533, 0.19676766, -813091.44, 12206.704, 0.0, 10.00058, 9.999065 
2.5502285e+2, 2.2578701e+2, -676843.8, -808013.6, 14884.626, -0.022097556, 0.19364883, -675175.94, 52131.035, 0.0, 10.000834, 9.999093 
2.5502947e+2, 2.3578617e+2, -521256.72, -682070.8, 21659.217, -0.00839628, 0.19519985, -518390.63, 110923.93, 0.0, 10.001229, 9.999094 
2.5503603e+2, 2.4578515e+2, -401214.9, -594549.7, 25058.77, -0.0071060774, 0.19416495, -398019.75, 133304.5, 0.0, 10.0014715, 9.998906 
2.5504246e+2, 2.55784e+2, -285597.22, -489594.66, 24875.9, -0.015892569, 0.18832013, -282607.63, 150727.7, 0.0, 10.001599, 9.998892 
2.5504878e+2, 2.6578268e+2, -183803.47, -433807.3, 7706.1914, -0.010119777, 0.1876623, -183566.16, 151782.75, 0.0, 10.001815, 9.998499 
2.5505504e+2, 2.7578115e+2, -46349.42, -317434.4, 5810.001, 0.009174455, 0.18366502, -46224.957, 191139.56, 0.0, 10.002089, 9.998493 
2.5506127e+2, 2.8577965e+2, 64771.992, -241665.45, 8504.667, 0.0186511, 0.19668664, 65007.844, 204386.8, 0.0, 10.002301, 9.998239 
2.550674e+2, 2.9577824e+2, 185399.02, -136830.3, 7955.126, 0.013083168, 0.23046039, 185595.28, 226986.4, 0.0, 10.002475, 9.998202 
2.5507322e+2, 3.057749e+2, 236763.33, -151692.7, -32923.027, 0.033009022, 0.10646022, 239533.9, 239533.9, 0.000000000039700524, 10.00277, 9.997624 
2.5507843e+2, 3.157737e+2, 363886.38, 24738.25, 24935.457, 0.038516283, 0.22206752, 365709.94, 365709.94, 0.00000015406697, 10.003148, 9.998654 
2.6495826e+2, 1.2578194e+2, -1919931.4, -1684049.5, -20768.63, 0.02259517, 0.27257726, -1682234.9, 25130.375, 0.00016490842, 9.998033, 10.00116 
2.6496422e+2, 1.3578323e+2, -1791723.1, -1596728.4, -10994.455, -0.00010316676, 0.30601746, -1596110.5, 13240.728, 0.000073287774, 9.998351, 10.000933 
2.649711e+2, 1.4578323e+2, -1654340.9, -1494666.9, -402.1622, 0.049513925, 0.22308059, -1494665.9, 16683.746, 0.000016155976, 9.998684, 10.000798 
2.6497757e+2, 1.5578435e+2, -1509382.9, -1382957.0, -5730.2505, 0.043872256, 0.2544686, -1382697.9, 30639.65, 0.00000046134082, 9.999045, 10.000718 
2.649841e+2, 1.6578472e+2, -1414922.5, -1370415.3, -495.07016, 0.03693708, 0.25994715, -1370409.6, -55076.625, 0.0, 9.999382, 9.999969 
2.6499066e+2, 1.7578441e+2, -1270712.6, -1251309.4, 6360.048, 0.030067611, 0.22959161, -1249410.5, -32075.09, 0.0, 9.999705, 9.999958 
2.649974e+2, 1.8578398e+2, -1164460.6, -1191625.0, 16982.494, 0.026638178, 0.21202825, -1156297.0, -36958.645, 0.0, 9.999944, 9.99958 
2.6500425e+2, 1.9578351e+2, -1042711.8, -1085310.3, 15029.443, 0.025427613, 0.20433025, -1037943.0, -16601.824, 0.0, 10.00012, 9.999552 
2.650108e+2, 2.0578267e+2, -938031.8, -1046777.06, 7115.981, 0.010108665, 0.19563594, -937568.1, -14219.167, 0.0, 10.000436, 9.998992 
2.6501718e+2, 2.1578154e+2, -776886.25, -915241.9, 8141.9526, -0.015722195, 0.18155238, -776408.75, 48951.637, 0.0, 10.000856, 9.999019 
2.6502383e+2, 2.2578062e+2, -639077.44, -787288.4, 9952.677, -0.020533733, 0.18328859, -638412.1, 88956.875, 0.0, 10.001083, 9.999115 
2.6503068e+2, 2.3577988e+2, -528896.8, -683457.3, 5635.8677, -0.009593249, 0.19325316, -528691.56, 100683.77, 0.0, 10.001166, 9.999115 
2.650374e+2, 2.4577881e+2, -420930.97, -605027.56, 1549.4937, -0.010430878, 0.18691798, -420917.94, 110467.44, 0.0, 10.00134, 9.998898 
2.6504397e+2, 2.557775e+2, -289539.75, -492713.6, -192.24573, -0.020719567, 0.16563888, -289539.56, 143858.38, 0.0, 10.001577, 9.998881 
2.6505065e+2, 2.6577622e+2, -179836.48, -437307.7, -13172.494, -0.007783324, 0.17256209, -179164.33, 156247.0, 0.0, 10.001865, 9.99845 
2.6505736e+2, 2.7577493e+2, -34104.293, -316240.03, -14146.841, 0.024802102, 0.19343323, -33396.72, 204028.78, 0.0, 10.002193, 9.99845 
2.6506376e+2, 2.857733e+2, 90988.336, -226595.92, -13797.926, 0.027945086, 0.2005862, 91586.68, 231027.0, 0.0, 10.002472, 9.99826 
2.6506987e+2, 2.9577166e+2, 219691.05, -118946.3, -13899.489, 0.0017687677, 0.20566921, 220260.6, 261714.81, 0.0, 10.002706, 9.998214 
2.6507595e+2, 3.0576834e+2, 245665.2, -151292.72, -51693.15, 0.025340682, 0.087914646, 252286.4, 252286.4, 0.0, 10.002851, 9.997588 
2.650817e+2, 3.1576723e+2, 318491.94, -22661.533, 8128.3594, 0.060145818, 0.21719742, 318685.5, 318685.5, 0.000000038019415, 10.002949, 9.998424 
2.7495632e+2, 1.2577556e+2, -1912432.3, -1668179.0, -5175.039, 0.026951892, 0.30407944, -1668069.4, 39359.46, 0.00012966055, 9.998033, 10.001268 
2.749628e+2, 1.3577656e+2, -1782729.5, -1576849.0, 165.96666, 0.02153545, 0.29366773, -1576848.9, 32566.764, 0.00005392466, 9.998345, 10.001072 
2.7496997e+2, 1.457765e+2, -1666029.4, -1517911.1, 12826.36, 0.06726488, 0.2025827, -1516808.6, -5393.927, 0.0000098627, 9.99868, 10.000641 
2.749765e+2, 1.5577754e+2, -1518173.0, -1401238.4, 7507.6167, 0.031336635, 0.24340181, -1400758.4, 12645.605, 0.00000011248763, 9.999045, 10.000592 
2.7498335e+2, 1.6577789e+2, -1401656.4, -1343082.9, 11331.231, 0.02266179, 0.2445415, -1340967.3, -25567.98, 0.0, 9.999383, 10.000156 
2.749904e+2, 1.7577764e+2, -1258715.5, -1226211.6, 18027.004, 0.035049025, 0.2007394, -1218192.3, -792.16486, 0.0, 9.999703, 10.000131 
2.7499738e+2, 1.8577726e+2, -1166507.6, -1195446.3, 23525.107, 0.029737545, 0.18098448, -1153358.3, -33956.043, 0.0, 9.999942, 9.999555 
2.750042e+2, 1.9577682e+2, -1044317.75, -1088639.6, 22390.727, 0.011237291, 0.17932954, -1034975.44, -13570.51, 0.0, 10.00012, 9.999529 
2.7501115e+2, 2.0577608e+2, -936724.94, -1044029.2, 22964.201, -0.0006181692, 0.18002543, -932016.94, -8604.915, 0.0, 10.000436, 9.999011 
2.750181e+2, 2.157751e+2, -776439.1, -914157.2, 23169.158, -0.0078417435, 0.17747642, -772645.7, 52776.645, 0.0, 10.000855, 9.999027 
2.7502498e+2, 2.2577405e+2, -647736.56, -805135.2, 13065.832, -0.012560133, 0.17233282, -646659.3, 80773.11, 0.0, 10.001082, 9.998993 
2.7503178e+2, 2.3577297e+2, -536693.5, -699862.9, 9265.784, -0.014938056, 0.16218062, -536169.0, 93273.195, 0.0, 10.001167, 9.999002 
2.7503866e+2, 2.4577194e+2, -423076.6, -609863.5, 10350.347, -0.018003998, 0.16645789, -422504.8, 108947.414, 0.0, 10.001342, 9.998863 
2.7504557e+2, 2.5577095e+2, -291902.4, -497686.3, 8922.546, -0.021612268, 0.17859079, -291516.28, 141946.03, 0.0, 10.001577, 9.998847 
2.7505258e+2, 2.6576972e+2, -182059.89, -441794.4, -1058.1154, -0.0012143862, 0.19364911, -182055.58, 153419.8, 0.0, 10.001865, 9.99842 
2.7505967e+2, 2.7576825e+2, -35981.195, -319864.88, -1876.8125, 0.038059942, 0.20303419, -35968.79, 201522.13, 0.0, 10.0021925, 9.998426 
2.7506635e+2, 2.8576663e+2, 92648.45, -222879.61, -4944.114, 0.037850905, 0.20575216, 92725.9, 232231.84, 0.0, 10.002471, 9.998285 
2.750726e+2, 2.95765e+2, 220873.11, -116241.8, -5605.4277, 0.0027289307, 0.2135317, 220966.28, 262485.3, 0.0, 10.002704, 9.998233 
2.7507886e+2, 3.0576172e+2, 245170.5, -152585.52, -48253.844, 0.029686937, 0.098432735, 250940.72, 250940.72, 0.0, 10.002851, 9.997579 
2.7508488e+2, 3.1576034e+2, 304482.2, -52661.93, 11943.9795, 0.08273707, 0.19896777, 304881.2, 304881.2, 0.00000000643165, 10.002952, 9.998216 
2.8495446e+2, 1.2576863e+2, -1898187.0, -1661485.4, 850.7974, 0.032493565, 0.29894555, -1661482.3, 46014.355, 0.00010364884, 9.99813, 10.001268 
2.8496143e+2, 1.3576971e+2, -1743999.9, -1554372.9, -8610.127, 0.03725507, 0.29258424, -1553982.8, 55499.586, 0.000040612387, 9.998595, 10.001106 
2.8496885e+2, 1.4576963e+2, -1654910.6, -1525818.8, -3645.1226, 0.07921211, 0.20468213, -1525715.9, -14234.297, 0.0000062724685, 9.998815, 10.000522 
2.8497535e+2, 1.5577048e+2, -1550070.3, -1427797.1, -6423.415, 0.020879474, 0.23791225, -1427460.6, -13987.521, 0.000000028346124, 9.998876, 10.000492 
2.849825e+2, 1.6577084e+2, -1426925.6, -1346129.0, 242.22806, 0.011303022, 0.23964937, -1346128.3, -30659.906, 0.0, 9.999171, 10.000237 
2.8499013e+2, 1.7577074e+2, -1262335.1, -1219509.0, -1836.6876, 0.038582426, 0.20347469, -1219430.4, -1962.9747, 0.0, 9.999643, 10.000206 
2.8499737e+2, 1.8577038e+2, -1158367.4, -1192798.8, -5088.6187, 0.03348585, 0.18108855, -1157631.0, -38161.75, 0.0, 10.000004, 9.999542 
2.8500438e+2, 1.9576982e+2, -1021301.6, -1078564.0, -5506.597, 0.0044090175, 0.16943789, -1020776.94, 696.1275, 0.0, 10.000283, 9.999519 
2.8501153e+2, 2.0576909e+2, -929276.1, -1037695.9, -2628.7173, -0.006530055, 0.17062508, -929212.44, -5732.4736, 0.0, 10.000475, 9.999036 
2.8501886e+2, 2.157682e+2, -811725.8, -928965.06, -1977.5599, -0.0045355633, 0.17592393, -811692.44, 13796.909, 0.0, 10.000604, 9.999046 
2.8502604e+2, 2.2576715e+2, -673632.4, -823407.06, -8554.437, -0.008734113, 0.1716032, -673145.4, 54354.348, 0.0, 10.000929, 9.998941 
2.8503305e+2, 2.3576598e+2, -506692.88, -691275.4, -7504.284, -0.016903715, 0.15759568, -506388.28, 123122.28, 0.0, 10.001399, 9.99895 
2.8504014e+2, 2.4576493e+2, -387935.8, -598193.2, -10077.739, -0.016173013, 0.16572301, -387453.9, 144067.08, 0.0, 10.001606, 9.9988165 
2.8504726e+2, 2.5576398e+2, -287995.4, -499515.7, -11938.991, -0.009025063, 0.18740964, -287323.66, 146207.2, 0.0, 10.00162, 9.998814 
2.8505448e+2, 2.6576275e+2, -181176.1, -427344.34, -8745.154, 0.005514306, 0.1981226, -180865.81, 154677.58, 0.0, 10.001812, 9.998545 
2.8506172e+2, 2.757613e+2, -37297.973, -307959.13, 1244.115, 0.026770663, 0.19277154, -37292.254, 200265.86, 0.0, 10.0021305, 9.998538 
2.8506863e+2, 2.8575966e+2, 58846.793, -248433.83, -8065.4185, 0.030969992, 0.19354641, 59058.344, 198631.63, 0.0, 10.00228, 9.998201 
2.8507525e+2, 2.9575804e+2, 159108.78, -153642.11, -16663.367, 0.016993022, 0.20887099, 159994.1, 201581.4, 0.0, 10.002315, 9.998163 
2.8508174e+2, 3.057549e+2, 234774.11, -135808.23, -46642.414, 0.04368731, 0.104109876, 240554.47, 240554.47, 0.0, 10.0026865, 9.997773 
2.8508803e+2, 3.157534e+2, 356154.63, -26183.625, 27891.148, 0.08806546, 0.17360553, 358178.53, 358178.53, 0.00000000043435586, 10.003302, 9.99823 
2.9495263e+2, 1.2576117e+2, -1905682.0, -1677209.3, 23903.102, 0.03821748, 0.25706097, -1674735.3, 32833.125, 0.000085497144, 9.998131, 10.001161 
2.9496008e+2, 1.3576269e+2, -1748450.6, -1564254.9, 7304.631, 0.044134527, 0.30280572, -1563965.8, 45585.2, 0.000032281903, 9.998598, 10.001038 
2.9496768e+2, 1.4576267e+2, -1661046.8, -1538777.4, -1814.4165, 0.08237832, 0.22974806, -1538750.5, -27200.404, 0.0000046245973, 9.998816, 10.000432 
2.9497415e+2, 1.557632e+2, -1556384.4, -1440194.4, -3215.819, 0.011845428, 0.23913078, -1440105.4, -26560.56, 0.00000001715619, 9.998873, 10.000409 
2.949816e+2, 1.6576357e+2, -1429468.1, -1350424.3, 17874.611, 0.0026573048, 0.24623224, -1346570.1, -31029.762, 0.0, 9.999167, 10.00021 
2.9498976e+2, 1.7576371e+2, -1264459.5, -1223305.4, 15438.866, 0.03939597, 0.23767014, -1218157.5, -620.3415, 0.0, 9.999641, 10.000181 
2.949974e+2, 1.8576328e+2, -1158961.5, -1193586.5, 5425.5664, 0.036567103, 0.2122288, -1158131.3, -38591.69, 0.0, 10.000002, 9.999538 
2.9500464e+2, 1.9576249e+2, -1021428.3, -1078623.4, 4700.6123, 0.004477494, 0.17494021, -1021044.56, 500.9207, 0.0, 10.000282, 9.99952 
2.95012e+2, 2.0576167e+2, -927289.6, -1033436.8, 2164.0684, -0.007920327, 0.16750935, -927245.5, -3692.6394, 0.0, 10.000474, 9.999065 
2.9501945e+2, 2.1576086e+2, -809542.3, -924528.6, 3973.3567, -0.006156713, 0.17684886, -809405.2, 16156.291, 0.0, 10.000604, 9.999077 
2.9502696e+2, 2.2575992e+2, -672378.1, -820682.9, 9132.359, -0.00950653, 0.18099602, -671817.9, 55752.92, 0.0, 10.000929, 9.9989605 
2.9503447e+2, 2.3575889e+2, -506207.6, -689779.7, 8937.209, -0.015993018, 0.17919339, -505773.5, 123807.02, 0.0, 10.001397, 9.998961 
2.9504183e+2, 2.4575779e+2, -392453.25, -607287.25, -9648.789, -0.005698995, 0.18453299, -392020.75, 139570.88, 0.0, 10.001605, 9.9987545 
2.9504913e+2, 2.5575665e+2, -290295.84, -504459.47, -10420.576, 0.016195603, 0.19199993, -289790.0, 143813.56, 0.0, 10.001621, 9.998779 
2.9505637e+2, 2.657554e+2, -161888.2, -387273.8, 3148.862, 0.012102705, 0.18609941, -161844.23, 173771.1, 0.0, 10.001812, 9.998819 
2.9506347e+2, 2.75754e+2, -20792.902, -272892.25, 12214.542, -0.008849583, 0.16335027, -20202.475, 217424.64, 0.0, 10.002127, 9.99878 
2.9507068e+2, 2.857524e+2, 44913.246, -277016.2, -7159.246, 0.006928493, 0.1646643, 45072.38, 184714.78, 0.0, 10.002278, 9.998007 
2.9507783e+2, 2.9575068e+2, 148312.25, -176783.31, -13706.238, 0.043153036, 0.19183958, 148889.1, 190548.2, 0.0, 10.002317, 9.998003 
2.9508469e+2, 3.0574787e+2, 262348.34, -79207.67, -23447.066, 0.06634298, 0.105330534, 263950.4, 263950.4, 0.0, 10.002689, 9.99816 
2.950912e+2, 3.157464e+2, 372210.5, 6905.397, 50302.164, 0.07576211, 0.14126517, 379010.47, 379010.47, 0.0, 10.003302, 9.998457 
3.0495104e+2, 1.2575372e+2, -1870947.4, -1688955.0, 25361.71, 0.04614097, 0.23699403, -1685486.8, 22152.86, 0.000073591786, 9.998494, 10.000904 
3.0495843e+2, 1.3575521e+2, -1781438.1, -1602461.8, -9872.275, 0.025901845, 0.30184174, -1601918.9, 7705.379, 0.000027638554, 9.998468, 10.000837 
3.0496633e+2, 1.4575519e+2, -1670064.1, -1539631.1, -16097.781, 0.07014004, 0.23624869, -1537673.8, -26050.123, 0.000004191702, 9.998739, 10.0004635 
3.0497333e+2, 1.5575565e+2, -1499161.6, -1410365.4, -8237.338, 0.023572566, 0.2359766, -1409607.8, 4010.6143, 0.000000032166714, 9.999257, 10.000428 
3.0498105e+2, 1.6575599e+2, -1381570.4, -1341010.4, 13328.682, 0.012123639, 0.24515247, -1337022.4, -21408.248, 0.0, 9.999557, 10.000086 
3.049893e+2, 1.7575611e+2, -1264431.1, -1236170.8, 2825.1404, 0.026003463, 0.24801977, -1235891.1, -18279.377, 0.0, 9.999698, 10.000066 
3.0499724e+2, 1.8575564e+2, -1171185.9, -1199449.0, -11083.875, 0.023858301, 0.22290286, -1167357.6, -47742.824, 0.0, 9.999919, 9.999538 
3.0500492e+2, 1.9575477e+2, -1032475.0, -1083199.5, -11639.906, 0.0100475475, 0.1771183, -1029931.5, -8309.839, 0.0, 10.000204, 9.999526 
3.0501258e+2, 2.0575397e+2, -915328.1, -1023659.9, -14875.512, -0.00037939992, 0.16942969, -913322.6, 10306.276, 0.0, 10.00054, 9.999101 
3.0502018e+2, 2.1575326e+2, -762077.5, -897655.9, -12991.806, -0.008792609, 0.18543752, -760843.8, 64792.633, 0.0, 10.000913, 9.999113 
3.050279e+2, 2.2575238e+2, -654045.6, -805477.75, -7899.029, -0.012086131, 0.19150962, -653634.7, 74010.31, 0.0, 10.001027, 9.999018 
3.0503568e+2, 2.3575138e+2, -567424.1, -713342.25, -5079.8643, -0.011043029, 0.18760431, -567247.5, 62406.773, 0.0, 10.000951, 9.999014 
3.0504334e+2, 2.4575025e+2, -450920.3, -635685.0, -17469.922, 0.0016606345, 0.18774055, -449283.0, 82382.55, 0.0, 10.0012045, 9.998753 
3.0505088e+2, 2.5574905e+2, -277510.44, -497573.78, -14403.372, 0.021959128, 0.18773408, -276571.75, 157106.4, 0.0, 10.001706, 9.998786 
3.050582e+2, 2.657478e+2, -151135.75, -371767.66, -12601.643, 0.015160752, 0.17648163, -150418.33, 185271.1, 0.0, 10.0018425, 9.998911 
3.050654e+2, 2.7574643e+2, -75762.78, -289814.66, -16579.861, -0.009190102, 0.15047698, -74486.164, 163213.73, 0.0, 10.001709, 9.998865 
3.0507284e+2, 2.857448e+2, 10598.708, -295149.5, -24673.736, 0.00965886, 0.14660975, 12577.065, 152292.38, 0.0, 10.00205, 9.997992 
3.0508044e+2, 2.9574302e+2, 209184.17, -148411.4, -18291.695, 0.053768322, 0.16628507, 210117.39, 251850.72, 0.0, 10.002741, 9.997993 
3.0508757e+2, 3.057405e+2, 316059.2, -39260.023, -35958.96, 0.06982554, 0.10398148, 319661.78, 319661.78, 0.0, 10.002998, 9.998286 
3.0509427e+2, 3.15739e+2, 319977.03, -17272.334, 17453.58, 0.06826193, 0.12275119, 320877.88, 320877.88, 0.0, 10.002939, 9.998466 
3.149496e+2, 1.2574632e+2, -1899811.8, -1749456.0, 31307.563, 0.053210605, 0.23908556, -1743197.5, -35487.56, 0.00006650563, 9.998497, 10.000487 
3.1495646e+2, 1.357473e+2, -1805693.0, -1652424.9, -9896.091, -0.019027816, 0.2904996, -1651788.5, -42086.48, 0.000025576577, 9.998467, 10.000495 
3.1496477e+2, 1.4574721e+2, -1659474.4, -1517094.5, 3322.8076, 0.041351225, 0.22497629, -1517016.9, -5314.6304, 0.000004447986, 9.998736, 10.000619 
3.1497288e+2, 1.5574786e+2, -1490194.4, -1391620.6, 10533.015, 0.054087646, 0.22769299, -1390507.8, 23185.783, 0.00000006594377, 9.999256, 10.000557 
3.1498086e+2, 1.657481e+2, -1398183.3, -1375316.5, 18630.67, 0.037865266, 0.23566517, -1364890.6, -49200.76, 0.0, 9.999556, 9.999851 
3.1498873e+2, 1.7574799e+2, -1279849.0, -1267818.0, 8626.759, -0.002034729, 0.23521864, -1263316.5, -45625.543, 0.0, 9.999696, 9.999849 
3.1499687e+2, 1.8574744e+2, -1171192.6, -1199120.1, -403.1918, -0.0051437253, 0.21375309, -1171186.8, -51491.49, 0.0, 9.999917, 9.999542 
3.150052e+2, 1.9574663e+2, -1032106.8, -1082120.1, -492.20572, 0.02047224, 0.17563955, -1032101.94, -10400.228, 0.0, 10.000202, 9.999535 
3.1501323e+2, 2.0574595e+2, -912798.1, -1018045.1, -689.93585, 0.015362551, 0.17608164, -912793.6, 10914.446, 0.0, 10.000538, 9.99914 
3.1502107e+2, 2.1574537e+2, -759341.9, -891610.56, 18.173376, -0.013056096, 0.2016162, -759341.9, 66372.43, 0.0, 10.000911, 9.999156 
3.1502888e+2, 2.2574452e+2, -647479.0, -791923.25, -10704.402, -0.017069954, 0.20312375, -646690.0, 81032.36, 0.0, 10.001027, 9.999111 
3.150367e+2, 2.3574345e+2, -560715.8, -699811.9, -6327.533, -0.002406145, 0.18309757, -560428.56, 69303.27, 0.0, 10.000953, 9.999106 
3.1504455e+2, 2.4574232e+2, -446878.97, -627475.6, 1307.1128, 0.005649463, 0.175666, -446869.53, 84873.234, 0.0, 10.001205, 9.998809 
3.1505242e+2, 2.5574115e+2, -274622.94, -490941.56, 2642.322, 0.008170944, 0.17485225, -274590.66, 159163.95, 0.0, 10.001703, 9.998833 
3.1506002e+2, 2.6573992e+2, -157657.02, -384989.56, -17882.025, 0.013932991, 0.16915488, -156259.0, 179506.72, 0.0, 10.001841, 9.998821 
3.150674e+2, 2.7573863e+2, -80352.57, -299994.34, -19368.633, 0.024066951, 0.15369591, -78657.664, 159118.8, 0.0, 10.001712, 9.998794 
3.150752e+2, 2.8573692e+2, 21941.49, -272097.66, 1113.9209, 0.038087707, 0.13929704, 21945.71, 161737.72, 0.0, 10.002052, 9.998149 
3.1508312e+2, 2.95735e+2, 218555.36, -128654.375, 5290.535, 0.04915123, 0.13204738, 218635.95, 260446.03, 0.0, 10.002739, 9.998131 
3.150904e+2, 3.057328e+2, 306746.7, -58429.188, -38728.3, 0.054105762, 0.09918701, 310808.78, 310808.78, 0.0, 10.002997, 9.998156 
3.1509712e+2, 3.1573117e+2, 306056.13, -46879.355, 14584.974, 0.06266606, 0.11902232, 306657.84, 306657.84, 0.0, 10.002942, 9.9982605 
3.2494804e+2, 1.2573826e+2, -1920271.6, -1774907.6, -6204.4106, 0.050512936, 0.24337606, -1774643.3, -66855.164, 0.00006287029, 9.9984255, 10.000346 
3.2495496e+2, 1.3573904e+2, -1773725.8, -1648236.0, -34724.355, -0.026672713, 0.28549075, -1639268.3, -29485.438, 0.000025189593, 9.998736, 10.000393 
3.2496357e+2, 1.457389e+2, -1623357.1, -1500539.5, -11381.436, 0.033168975, 0.22049268, -1499493.8, 12289.868, 0.0000050024137, 9.998989, 10.00061 
3.24972e+2, 1.5573955e+2, -1495423.5, -1394813.5, -17602.168, 0.04496099, 0.22306412, -1391822.9, 21951.584, 0.000000115129794, 9.999224, 10.00055 
3.2498032e+2, 1.6573973e+2, -1410639.4, -1381556.6, -11008.898, 0.031988453, 0.2247645, -1377859.4, -62088.125, 0.0, 9.999472, 9.999849 
3.2498842e+2, 1.757395e+2, -1274457.6, -1265238.9, -3165.4019, -0.0023970257, 0.2142597, -1264256.6, -46483.566, 0.0, 9.999734, 9.999847 
3.249968e+2, 1.85739e+2, -1162175.9, -1195900.0, -2917.674, -0.006168816, 0.19652681, -1161925.3, -42148.0, 0.0, 9.999985, 9.999531 
3.2500538e+2, 1.9573832e+2, -1028948.6, -1081200.4, -4624.2017, 0.014228773, 0.1725653, -1028542.56, -6759.577, 0.0, 10.000227, 9.999529 
3.2501367e+2, 2.0573772e+2, -920706.5, -1011279.06, -2445.6396, 0.0092072105, 0.17787626, -920640.5, 3147.9187, 0.0, 10.000439, 9.999234 
3.250218e+2, 2.1573722e+2, -794665.44, -898764.5, 1748.3336, -0.01534422, 0.20131466, -794636.06, 31157.566, 0.0, 10.000627, 9.999243 
3.2502982e+2, 2.2573635e+2, -668455.56, -804160.4, -17314.45, -0.017777229, 0.19834036, -666281.25, 61520.656, 0.0, 10.000893, 9.999092 
3.2503778e+2, 2.357352e+2, -522645.94, -682559.44, -20949.025, -0.003384937, 0.1720267, -519947.13, 109865.36, 0.0, 10.001219, 9.999097 
3.2504585e+2, 2.4573414e+2, -418419.5, -604552.6, -11250.074, 0.0067729214, 0.1679053, -417742.0, 114080.516, 0.0, 10.001361, 9.998891 
3.2505402e+2, 2.5573316e+2, -319056.25, -505474.8, -8391.363, 0.013362832, 0.1779516, -318679.28, 115152.73, 0.0, 10.0013685, 9.998895 
3.250619e+2, 2.6573187e+2, -198494.66, -427199.5, -35080.184, 0.023846157, 0.17331432, -193234.8, 142609.31, 0.0, 10.0016575, 9.99862 
3.2506952e+2, 2.7573028e+2, -27746.795, -294244.25, -44427.305, 0.03869328, 0.15195365, -20535.533, 217322.8, 0.0, 10.002158, 9.998618 
3.2507747e+2, 2.8572854e+2, 75943.984, -232985.94, -23599.324, 0.04652584, 0.13546598, 77736.35, 217610.61, 0.0, 10.002368, 9.998265 
3.2508564e+2, 2.9572678e+2, 170553.64, -140450.05, -23048.299, 0.043566212, 0.1276078, 172252.47, 214143.08, 0.0, 10.002361, 9.998231 
3.2509315e+2, 3.0572483e+2, 254618.64, -93547.695, -69389.4, 0.04644895, 0.12351549, 267938.34, 267938.34, 0.0, 10.002683, 9.998065 
3.251003e+2, 3.1572288e+2, 343167.97, -41308.832, -13578.935, 0.06898431, 0.11831123, 343646.97, 343646.97, 0.0, 10.00325, 9.998151 
3.3494633e+2, 1.2572958e+2, -1910663.9, -1755067.9, 14768.816, 0.03510764, 0.25125286, -1753678.5, -45804.582, 0.000061273975, 9.9984255, 10.000483 
3.34954e+2, 1.3573048e+2, -1763431.5, -1626735.1, -22952.824, 0.0017393731, 0.2864122, -1622984.0, -13117.594, 0.000025556885, 9.998735, 10.000542 
3.3496264e+2, 1.457303e+2, -1637076.8, -1528667.8, -2377.0522, 0.044511214, 0.22206642, -1528615.6, -16748.14, 0.0000055599335, 9.998988, 10.000418 
3.3497074e+2, 1.5573072e+2, -1506678.9, -1417811.5, -8526.906, -0.005216739, 0.22308716, -1417000.8, -3139.5757, 0.00000016881297, 9.999222, 10.000393 
3.3497936e+2, 1.6573085e+2, -1394226.5, -1347278.3, -1030.3961, -0.0069525866, 0.21336903, -1347255.8, -31397.617, 0.0, 9.99947, 10.000086 
3.3498845e+2, 1.7573066e+2, -1259275.4, -1233574.5, 7036.78, 0.02401901, 0.18441716, -1231774.0, -13915.834, 0.0, 9.999733, 10.000066 
3.3499703e+2, 1.8573028e+2, -1164768.8, -1201006.1, 6332.5933, 0.019973898, 0.1705327, -1163693.9, -43832.97, 0.0, 9.999983, 9.999496 
3.3500537e+2, 1.9572978e+2, -1030781.06, -1084797.4, 4562.7393, -0.008850648, 0.16798678, -1030398.3, -8532.788, 0.0, 10.000225, 9.999505 
3.3501384e+2, 2.0572929e+2, -910471.44, -989775.8, 4713.6743, -0.019162457, 0.1751559, -910192.25, 13677.775, 0.0, 10.000437, 9.999383 
3.350224e+2, 2.1572879e+2, -785700.06, -880062.0, 9385.637, -0.016218865, 0.18470639, -784775.56, 41098.965, 0.0, 10.000626, 9.999372 
3.3503073e+2, 2.2572787e+2, -677631.75, -823134.06, -5131.263, -0.014911638, 0.17746395, -677451.0, 50432.67, 0.0, 10.000893, 9.998962 
3.3503887e+2, 2.3572662e+2, -530357.1, -698489.8, -9526.398, -0.014305621, 0.15452386, -529819.06, 100077.21, 0.0, 10.001218, 9.998988 
3.350472e+2, 2.457257e+2, -410964.25, -589165.7, -11061.051, 0.0044736867, 0.1643544, -410280.28, 121624.61, 0.0, 10.001362, 9.998996 
3.350556e+2, 2.5572506e+2, -313742.97, -494567.84, -6847.175, 0.036660526, 0.19658126, -313484.06, 120426.36, 0.0, 10.001369, 9.998969 
3.3506376e+2, 2.6572362e+2, -220214.81, -472379.56, -16375.131, 0.044376876, 0.18876296, -219155.89, 116768.734, 0.0, 10.0016575, 9.998309 
3.3507162e+2, 2.757215e+2, -47403.66, -334873.56, -26936.586, 0.03479126, 0.14493078, -44901.42, 193044.06, 0.0, 10.002157, 9.99834 
3.350797e+2, 2.8571972e+2, 81177.81, -221935.19, -24064.902, 0.03465855, 0.13437979, 83076.49, 223038.58, 0.0, 10.002367, 9.998342 
3.3508793e+2, 2.9571825e+2, 175101.48, -130887.56, -21783.975, 0.03634409, 0.15271683, 176644.55, 218619.34, 0.0, 10.00236, 9.998297 
3.3509582e+2, 3.057166e+2, 251170.48, -101115.625, -47954.887, 0.046254605, 0.17685175, 257581.66, 257581.66, 0.0, 10.002684, 9.998013 
3.351037e+2, 3.157141e+2, 342075.6, -44623.527, 7001.656, 0.08513375, 0.11924624, 342202.34, 342202.34, 0.0, 10.003254, 9.998126 
3.4494472e+2, 1.257203e+2, -1893532.8, -1731609.5, -3459.4224, 0.030953214, 0.24870326, -1731535.6, -23570.371, 0.000060228966, 9.998475, 10.00062 
3.4495264e+2, 1.3572139e+2, -1770118.1, -1612005.4, -50900.582, 0.0024246348, 0.28510678, -1597036.4, 12918.807, 0.000025763518, 9.9986105, 10.000703 
3.4496155e+2, 1.4572132e+2, -1663768.9, -1547449.5, -21806.96, 0.04266404, 0.22510953, -1543495.6, -31540.477, 0.000005876301, 9.99883, 10.000365 
3.4496984e+2, 1.557217e+2, -1521257.0, -1429223.9, -17136.77, -0.012824941, 0.22583435, -1426136.5, -12186.752, 0.0000002059256, 9.999141, 10.000354 
3.4497875e+2, 1.6572179e+2, -1388731.5, -1334612.0, -10272.016, -0.016017672, 0.21022028, -1332727.9, -16781.059, 0.0, 9.999465, 10.000174 
3.449881e+2, 1.757216e+2, -1242570.8, -1215748.8, -13784.183, 0.015356807, 0.17209774, -1209928.0, 8018.403, 0.0, 9.999805, 10.000154 
3.4499702e+2, 1.8572132e+2, -1140577.8, -1181347.8, -16130.323, 0.013162323, 0.1609055, -1134967.9, -15019.795, 0.0, 10.000114, 9.999568 
3.4500563e+2, 1.9572102e+2, -1000643.7, -1062437.4, -10234.999, -0.012111321, 0.16965824, -998992.56, 22958.277, 0.0, 10.0004, 9.999575 
3.4501427e+2, 2.0572047e+2, -898766.0, -982929.56, -18526.809, -0.021730859, 0.17016922, -894868.25, 29087.254, 0.0, 10.000512, 9.999393 
3.4502292e+2, 2.1571979e+2, -803926.44, -887705.7, -23405.09, -0.02066287, 0.15950581, -797831.3, 28130.367, 0.0, 10.000496, 9.999382 
3.4503153e+2, 2.2571893e+2, -701102.56, -832671.4, -26187.963, -0.015905075, 0.15775451, -696081.6, 31888.746, 0.0, 10.000724, 9.998978 
3.4504014e+2, 2.3571795e+2, -540962.7, -701542.4, -20878.703, -0.0076701012, 0.16007099, -538292.44, 91688.48, 0.0, 10.001137, 9.999006 
3.450486e+2, 2.4571703e+2, -403627.75, -580609.7, -30904.125, 0.010384065, 0.16711427, -398386.56, 133602.83, 0.0, 10.00139, 9.999042 
3.4505704e+2, 2.5571617e+2, -288320.44, -477706.3, -30185.908, 0.035291627, 0.174932, -283625.53, 150370.67, 0.0, 10.001524, 9.99901 
3.4506541e+2, 2.6571476e+2, -204987.77, -469065.72, -17286.27, 0.040635806, 0.16974741, -203861.03, 132149.19, 0.0, 10.00178, 9.998274 
3.4507373e+2, 2.7571285e+2, -53967.12, -341894.34, -8864.911, 0.03264943, 0.1493057, -53694.438, 184335.36, 0.0, 10.002128, 9.998306 
3.4508204e+2, 2.8571102e+2, 71514.28, -226950.39, -14848.489, 0.033216555, 0.1361012, 72251.164, 212298.22, 0.0, 10.002301, 9.99834 
3.4509024e+2, 2.9570934e+2, 172898.89, -131920.77, -16724.133, 0.0350468, 0.13072728, 173813.72, 215875.72, 0.0, 10.002344, 9.998299 
3.4509847e+2, 3.0570802e+2, 248554.66, -100923.55, -23638.303, 0.04562536, 0.18451369, 250146.27, 250146.27, 0.0, 10.00266, 9.998025 
3.45107e+2, 3.1570545e+2, 338590.28, -36160.973, 34368.23, 0.09276179, 0.123308234, 341716.1, 341716.1, 0.0, 10.003187, 9.998216 
3.5494325e+2, 1.2571044e+2, -1884341.1, -1710985.1, 11406.35, 0.03668234, 0.2336746, -1710237.9, -2175.1797, 0.00005843651, 9.998468, 10.000765 
3.5495096e+2, 1.357118e+2, -1758116.6, -1586776.1, -45580.21, -0.026844973, 0.28180268, -1575405.4, 34643.6, 0.000025162195, 9.998609, 10.000877 
3.5496017e+2, 1.4571194e+2, -1656881.1, -1533262.1, -10127.932, 0.025328984, 0.23003846, -1532437.9, -20391.254, 0.0000057861466, 9.99883, 10.000463 
3.5496932e+2, 1.5571241e+2, -1515308.8, -1416652.6, -4962.7417, 0.02166443, 0.2304366, -1416403.6, -2363.2517, 0.00000020730299, 9.99914, 10.000441 
3.549784e+2, 1.657125e+2, -1393661.9, -1344736.5, 2688.7805, 0.0045487685, 0.21459801, -1344589.3, -28551.623, 0.0, 9.999464, 10.000105 
3.5498744e+2, 1.7571229e+2, -1246189.8, -1223273.6, -870.14545, -0.029056417, 0.17761359, -1223240.6, -5202.6177, 0.0, 9.9998045, 10.000102 
3.549967e+2, 1.8571208e+2, -1127917.1, -1155012.3, -5308.317, -0.027649306, 0.16796984, -1126914.3, -6875.7856, 0.0, 10.0001135, 9.99975 
3.550062e+2, 1.9571196e+2, -989257.7, -1038810.44, -37.155834, 0.0035384546, 0.1774317, -989257.7, 32781.25, 0.0, 10.000399, 9.999737 
3.55015e+2, 2.0571129e+2, -907775.94, -1001645.9, -19196.408, 0.00084499724, 0.16288926, -904002.0, 20042.818, 0.0, 10.000512, 9.999265 
3.5502332e+2, 2.1571021e+2, -811241.75, -903061.94, -22725.63, -0.028921809, 0.12575462, -805925.0, 20129.99, 0.0, 10.000496, 9.999277 
3.550322e+2, 2.2570953e+2, -690135.56, -810049.8, -10526.535, -0.021229796, 0.13896957, -689218.5, 38843.508, 0.0, 10.000724, 9.999133 
3.5504147e+2, 2.3570918e+2, -531264.2, -681172.6, -6047.175, 0.015742354, 0.18822926, -531020.6, 99045.88, 0.0, 10.001136, 9.999146 
3.5505015e+2, 2.4570814e+2, -404826.53, -582661.5, -26129.527, 0.023912339, 0.17618018, -401066.78, 131009.234, 0.0, 10.001389, 9.999028 
3.5505828e+2, 2.5570658e+2, -287823.5, -476476.03, -24791.877, 0.009263488, 0.11394387, -284619.88, 149469.36, 0.0, 10.001524, 9.99902 
3.5506693e+2, 2.6570535e+2, -188717.89, -435067.28, -4370.532, 0.012596909, 0.11691962, -188640.38, 147460.48, 0.0, 10.001778, 9.9985075 
3.5507587e+2, 2.7570438e+2, -39844.117, -311778.7, 3271.2156, 0.031690452, 0.16530348, -39804.773, 198306.61, 0.0, 10.002124, 9.998515 
3.5508442e+2, 2.857025e+2, 65876.555, -238294.22, -13748.72, 0.041534096, 0.14105481, 66496.74, 206626.0, 0.0, 10.002299, 9.998262 
3.550926e+2, 2.9569998e+2, 169224.73, -140396.44, -14276.201, 0.038597755, 0.062122166, 169881.6, 212033.86, 0.0, 10.002348, 9.998239 
3.551011e+2, 3.0569896e+2, 254055.83, -90270.48, -4315.3345, 0.043309588, 0.1473731, 254109.9, 254109.9, 0.0, 10.002663, 9.998097 
3.5511017e+2, 3.1569692e+2, 351702.56, -8171.7397, 53250.484, 0.08990503, 0.13056716, 359416.66, 359416.66, 0.0, 10.003183, 9.99841 
3.649417e+2, 1.2570089e+2, -1865254.3, -1715824.8, 40802.965, 0.025360027, 0.23019814, -1705409.1, 2746.4612, 0.000055122826, 9.99866, 10.000639 
3.6494955e+2, 1.3570213e+2, -1752229.6, -1592885.6, -46310.535, -0.031178037, 0.2744867, -1580404.0, 29739.443, 0.000023501116, 9.998687, 10.000797 
3.64959e+2, 1.4570227e+2, -1642295.4, -1523875.6, -12942.947, 0.02170216, 0.22458167, -1522477.5, -10336.345, 0.00000526637, 9.9989195, 10.0004835 
3.6496854e+2, 1.5570277e+2, -1486091.9, -1400561.8, -14037.891, 0.021360375, 0.22639191, -1398316.8, 15817.708, 0.00000017249042, 9.9993305, 10.000459 
3.6497793e+2, 1.6570288e+2, -1372119.9, -1338290.8, -10076.468, 0.0035017782, 0.21283308, -1335516.8, -19385.14, 0.0, 9.999628, 10.000071 
3.6498722e+2, 1.7570263e+2, -1242317.6, -1224083.1, -11103.533, -0.03559034, 0.17890105, -1218833.4, -701.009, 0.0, 9.999843, 10.000078 
3.6499667e+2, 1.8570249e+2, -1139316.4, -1150342.1, -20965.223, -0.035346534, 0.16843462, -1123151.4, -3018.7844, 0.0, 9.99999, 9.999841 
3.650064e+2, 1.957024e+2, -1028100.4, -1047939.0, -22628.494, -0.0020466682, 0.17430085, -1013312.56, 8819.631, 0.0, 10.00009, 9.999824 
3.6501548e+2, 2.057018e+2, -920691.7, -1005783.44, -36786.613, 0.0019796253, 0.16023296, -906993.44, 17144.15, 0.0, 10.000414, 9.999284 
3.6502415e+2, 2.1570076e+2, -749727.7, -870857.75, -29881.994, -0.017645245, 0.12640607, -742757.1, 83390.21, 0.0, 10.000908, 9.9993 
3.6503315e+2, 2.2570011e+2, -644952.4, -784667.4, -22260.008, -0.012227713, 0.13840948, -641491.56, 86662.62, 0.0, 10.001019, 9.999166 
3.6504245e+2, 2.3569976e+2, -571790.0, -696911.25, -26477.766, 0.013100106, 0.18322816, -566417.5, 63741.188, 0.0, 10.000841, 9.999181 
3.6505133e+2, 2.4569874e+2, -450303.78, -596717.5, -39724.883, 0.021741983, 0.16870405, -440220.13, 91947.7, 0.0, 10.001042, 9.999099 
3.650599e+2, 2.5569722e+2, -281033.78, -464850.4, -32918.688, 0.016610833, 0.10525755, -275316.38, 158864.0, 0.0, 10.0015335, 9.999094 
3.650687e+2, 2.656961e+2, -187655.86, -420708.97, -19980.488, 0.015632622, 0.10811667, -185955.27, 150235.53, 0.0, 10.001724, 9.998632 
3.6507764e+2, 2.7569526e+2, -94195.625, -324890.88, -19666.113, 0.01972281, 0.15774895, -92531.16, 145668.45, 0.0, 10.001694, 9.998632 
3.6508656e+2, 2.856934e+2, 33528.004, -253521.97, -28702.398, 0.034904238, 0.13204055, 36369.848, 176586.9, 0.0, 10.002074, 9.998267 
3.6509535e+2, 2.956909e+2, 230019.42, -110704.86, -24040.611, 0.05314619, 0.04804932, 231707.31, 273948.13, 0.0, 10.002763, 9.998243 
3.65104e+2, 3.0569e+2, 297139.88, -70513.99, -21540.258, 0.0523357, 0.14614882, 298397.56, 298397.56, 0.0, 10.002962, 9.99809 
3.6511305e+2, 3.1568766e+2, 307331.25, -12044.422, 30147.01, 0.079606056, 0.10053039, 310152.03, 310152.03, 0.0, 10.002801, 9.998569 
3.7494004e+2, 1.256917e+2, -1894128.3, -1774448.1, 52819.43, -0.0053010387, 0.23938802, -1754471.4, -46227.395, 0.00005010573, 9.998654, 10.000239 
3.7494844e+2, 1.3569237e+2, -1776741.1, -1642594.8, -44582.668, -0.010568093, 0.26266065, -1629129.6, -18891.236, 0.000020857056, 9.998682, 10.000458 
3.7495804e+2, 1.4569226e+2, -1646923.8, -1533003.1, 2524.5735, 0.03182029, 0.2082001, -1532947.3, -20708.547, 0.000004428325, 9.998917, 10.0004225 
3.749675e+2, 1.5569276e+2, -1489992.4, -1408894.4, 1048.9109, -0.015139111, 0.21397138, -1408880.8, 5351.1143, 0.00000011962439, 9.999331, 10.0004015 
3.7497732e+2, 1.6569288e+2, -1371421.1, -1337261.6, -2147.431, -0.020798493, 0.20513801, -1337127.1, -20898.13, 0.0, 9.999629, 10.000077 
3.7498736e+2, 1.7569269e+2, -1241657.1, -1222947.6, -3119.594, -0.004653258, 0.17561378, -1222441.3, -4211.6313, 0.0, 9.999843, 10.000086 
3.7499693e+2, 1.856925e+2, -1139463.5, -1150798.0, -17182.44, -0.010386428, 0.1621325, -1127037.8, -6807.5776, 0.0, 9.999991, 9.999838 
3.750062e+2, 1.9569235e+2, -1027451.9, -1046659.06, -17674.895, -0.029028036, 0.16022407, -1016940.06, 5290.705, 0.0, 10.00009, 9.999832 
3.7501568e+2, 2.05692e+2, -909190.25, -981824.9, -18055.314, -0.018768221, 0.16188328, -904949.7, 19284.021, 0.0, 10.000413, 9.999449 
3.7502533e+2, 2.1569145e+2, -739454.3, -849256.4, -12878.664, 0.0122004915, 0.16122566, -737964.0, 88274.68, 0.0, 10.000906, 9.999449 
3.750344e+2, 2.2569066e+2, -651292.56, -797752.8, -29087.736, 0.010420825, 0.15634, -645727.06, 82519.78, 0.0, 10.001019, 9.999076 
3.75043e+2, 2.3568965e+2, -576460.25, -706988.0, -31481.14, -0.015490069, 0.1456383, -569264.25, 60993.133, 0.0, 10.000842, 9.99911 
3.7505218e+2, 2.4568881e+2, -439535.7, -574697.06, -21182.54, 0.0034906273, 0.14459942, -436293.72, 95971.11, 0.0, 10.001043, 9.999249 
3.7506184e+2, 2.5568813e+2, -271150.22, -444295.56, -15871.385, 0.056018006, 0.14765428, -269707.4, 164562.4, 0.0, 10.0015335, 9.999236 
3.7507075e+2, 2.65687e+2, -186331.84, -417970.1, -21680.266, 0.048755076, 0.1423822, -184320.14, 151959.9, 0.0, 10.001724, 9.9986515 
3.750791e+2, 2.7568552e+2, -91978.49, -320611.84, -19273.588, -0.0033788204, 0.12687825, -90365.13, 147929.23, 0.0, 10.001695, 9.998661 
3.750884e+2, 2.8568384e+2, 39579.453, -240874.8, -3083.4795, 0.0128577165, 0.109108694, 39613.35, 179923.72, 0.0, 10.002074, 9.998354 
3.7509832e+2, 2.95682e+2, 234793.28, -100087.25, -828.4778, 0.07767907, 0.08772957, 234795.33, 277122.9, 0.0, 10.002759, 9.998318 
3.7510717e+2, 3.0568102e+2, 291137.25, -82760.87, -28410.463, 0.07188271, 0.18055844, 293283.66, 293283.66, 0.0, 10.002961, 9.998006 
3.7511566e+2, 3.1567758e+2, 316664.2, 6417.3003, 23277.076, 0.060219586, 0.030347928, 318400.9, 318400.9, 0.0, 10.002806, 9.998693 
3.8493854e+2, 1.2568165e+2, -1887113.8, -1775105.9, 17521.482, -0.022386817, 0.23453572, -1772429.0, -64087.137, 0.00004363311, 9.998719, 10.000203 
3.849474e+2, 1.3568236e+2, -1713780.1, -1612161.9, -63702.492, -0.006681643, 0.2619121, -1581487.4, 28848.213, 0.000017489165, 9.999113, 10.00046 
3.849571e+2, 1.4568217e+2, -1600959.3, -1525568.6, -6164.8867, 0.026363483, 0.2050987, -1525067.8, -12731.009, 0.0000034194288, 9.999294, 10.000292 
3.849666e+2, 1.5568238e+2, -1497542.5, -1425741.6, -12861.874, -0.036873188, 0.1965872, -1423507.1, -9174.291, 0.00000006772674, 9.999335, 10.000284 
3.8497674e+2, 1.6568252e+2, -1386579.8, -1338727.1, -15793.081, -0.035715494, 0.19151336, -1333984.9, -17654.783, 0.0, 9.999499, 10.00013 
3.8498724e+2, 1.7568257e+2, -1249068.0, -1220565.5, -13463.529, 0.0029849377, 0.18018204, -1215211.5, 3117.1162, 0.0, 9.999765, 10.00014 
3.84997e+2, 1.8568242e+2, -1131766.9, -1143260.0, -26587.486, -0.0013909633, 0.16648504, -1110312.0, 10016.857, 0.0, 10.000027, 9.999872 
3.850063e+2, 1.9568215e+2, -996499.75, -1027611.9, -24091.97, -0.03418448, 0.14981653, -983378.06, 38952.13, 0.0, 10.000284, 9.999869 
3.8501602e+2, 2.0568186e+2, -907090.8, -975451.0, -25298.264, -0.02604123, 0.1537325, -898747.0, 25585.66, 0.0, 10.000404, 9.999496 
3.85026e+2, 2.1568154e+2, -806779.56, -875950.0, -29392.467, 0.011743883, 0.16924205, -795976.94, 30359.098, 0.0, 10.000419, 9.9995 
3.8503525e+2, 2.256808e+2, -690734.8, -805127.9, -44853.477, 0.011813168, 0.16315025, -675245.2, 53098.176, 0.0, 10.000697, 9.99918 
3.85044e+2, 2.3567975e+2, -520883.34, -669781.44, -32689.625, -0.016100846, 0.13741618, -514022.7, 116330.945, 0.0, 10.001179, 9.999204 
3.8505337e+2, 2.4567895e+2, -392686.38, -560348.1, -21998.98, 0.0014627052, 0.13822058, -389847.9, 142513.06, 0.0, 10.0014, 9.999176 
3.8506326e+2, 2.5567833e+2, -291475.66, -461072.25, -33630.152, 0.05298726, 0.15604132, -285050.4, 149315.63, 0.0, 10.001424, 9.999173 
3.8507244e+2, 2.6567718e+2, -189221.11, -409213.47, -45790.07, 0.052408133, 0.1494132, -180070.78, 156305.39, 0.0, 10.00166, 9.998743 
3.8508114e+2, 2.7567565e+2, -32884.42, -283085.44, -37679.58, 0.013129382, 0.12068876, -27333.15, 211057.03, 0.0, 10.002061, 9.998743 
3.8509068e+2, 2.8567395e+2, 65375.582, -234120.84, -17875.521, 0.024434457, 0.099464595, 66438.71, 206844.89, 0.0, 10.0022745, 9.998304 
3.851008e+2, 2.9567212e+2, 171860.02, -136569.55, -26091.826, 0.07037008, 0.08089626, 174051.7, 216475.47, 0.0, 10.002353, 9.998263 
3.8510993e+2, 3.0567116e+2, 246086.8, -122359.59, -66163.33, 0.06384335, 0.18207613, 257607.75, 257607.75, 0.0, 10.002728, 9.997847 
3.8511887e+2, 3.156674e+2, 398203.3, 53644.492, -20791.064, 0.07519474, 0.020334987, 399453.3, 399453.3, 0.000000000002787424, 10.003331, 9.998765 
3.9493722e+2, 1.256707e+2, -1864111.5, -1726197.5, 42994.074, -0.025685994, 0.21466596, -1713892.3, -5442.4414, 0.0000362571, 9.9987135, 10.000542 
3.9494634e+2, 1.3567212e+2, -1688960.3, -1561051.1, -50259.207, -0.020795958, 0.27284256, -1543665.8, 66769.484, 0.000013744367, 9.999114, 10.000811 
3.9495614e+2, 1.4567198e+2, -1614803.4, -1554639.3, -5150.5127, 0.0038800573, 0.21566762, -1554201.5, -41765.96, 0.0000023661473, 9.999295, 10.000092 
3.949659e+2, 1.5567166e+2, -1510227.4, -1451786.4, -11023.4795, -0.044187315, 0.17374776, -1449776.1, -35338.746, 0.000000028035489, 9.999334, 10.000107 
3.9497617e+2, 1.656718e+2, -1379852.9, -1324402.3, -5862.1797, -0.041470245, 0.17171589, -1323789.3, -7354.359, 0.0, 9.999497, 10.00023 
3.9498684e+2, 1.7567228e+2, -1242224.4, -1206169.4, -3291.1707, -0.013015506, 0.19284452, -1205871.4, 12558.084, 0.0, 9.999764, 10.000239 
3.9499697e+2, 1.8567224e+2, -1126845.9, -1132933.8, -16901.545, -0.008931379, 0.18156672, -1112716.4, 7712.0386, 0.0, 10.000026, 9.999944 
3.9500678e+2, 1.9567181e+2, -991936.5, -1018107.5, -14807.527, -0.018048981, 0.14308715, -985261.1, 37169.445, 0.0, 10.000284, 9.999935 
3.950165e+2, 2.056714e+2, -912144.0, -985761.75, -24737.008, -0.020238714, 0.13631132, -904604.1, 19830.234, 0.0, 10.000404, 9.999427 
3.950261e+2, 2.15671e+2, -809999.3, -882643.1, -27505.902, -0.019146185, 0.15050589, -800759.6, 25679.814, 0.0, 10.000419, 9.9994545 
3.9503574e+2, 2.2567053e+2, -670332.8, -762608.0, -26624.863, -0.008546206, 0.1584269, -663201.6, 65242.17, 0.0, 10.000696, 9.999472 
3.9504543e+2, 2.3567003e+2, -503172.2, -632776.7, -15710.145, 0.010436933, 0.1581363, -501295.03, 129152.54, 0.0, 10.001178, 9.999459 
3.9505494e+2, 2.456691e+2, -413429.13, -603140.2, -21356.309, 0.015273443, 0.14961551, -411054.72, 121401.65, 0.0, 10.001399, 9.998883 
3.9506423e+2, 2.556678e+2, -309872.0, -499051.16, -31807.941, 0.008172389, 0.13115416, -304667.13, 129801.87, 0.0, 10.001423, 9.998914 
3.9507386e+2, 2.6566672e+2, -177835.33, -385364.72, -30795.875, 0.026554545, 0.12973467, -173361.86, 163117.19, 0.0, 10.001659, 9.998907 
3.9508373e+2, 2.7566573e+2, -23071.98, -262881.06, -23716.229, 0.06706044, 0.13885875, -20749.035, 217737.98, 0.0, 10.002062, 9.998881 
3.9509338e+2, 2.8566384e+2, 52993.684, -260299.83, -15378.541, 0.06794469, 0.10320209, 53746.754, 194251.11, 0.0, 10.002276, 9.998124 
3.9510274e+2, 2.9566124e+2, 159785.73, -161980.02, -21869.41, 0.03196405, 0.028969793, 161265.33, 203794.34, 0.0, 10.002354, 9.998089 
3.951123e+2, 3.0566028e+2, 229524.5, -156451.64, -43582.57, 0.02851684, 0.15156654, 234384.44, 234384.44, 0.0, 10.0027275, 9.997612 
3.9512265e+2, 3.1565708e+2, 399219.84, 56144.48, 1428.548, 0.12009982, 0.06357936, 399225.78, 399225.78, 0.000000001718879, 10.00333, 9.998782 
4.049362e+2, 1.2565978e+2, -1813872.3, -1700451.6, 44471.07, -0.017757896, 0.21248716, -1685094.4, 23463.303, 0.000028702449, 9.999052, 10.000556 
4.0494514e+2, 1.3566123e+2, -1726653.5, -1571359.6, -84644.766, -0.040042844, 0.26929742, -1534142.4, 76399.86, 0.000010028613, 9.998821, 10.000881 
4.0495503e+2, 1.4566123e+2, -1652265.5, -1558780.0, -29831.494, -0.023512896, 0.21669126, -1550071.8, -37531.05, 0.0000013962007, 9.998979, 10.0002165 
4.049653e+2, 1.5566105e+2, -1483708.4, -1426291.8, -11743.311, -0.041033804, 0.17500514, -1423982.8, -9441.683, 0.000000006286357, 9.999461, 10.00022 
4.049758e+2, 1.6566116e+2, -1356773.4, -1320292.5, -6647.603, -0.037673555, 0.1687294, -1319118.9, -2580.0317, 0.0, 9.999686, 10.000167 
4.0498635e+2, 1.756615e+2, -1253104.3, -1217103.3, -16311.231, -0.033694405, 0.18279438, -1210812.3, 7722.7515, 0.0, 9.999714, 10.000189 
4.0499672e+2, 1.8566152e+2, -1142897.6, -1125705.9, -29261.355, -0.026311418, 0.1738419, -1103804.0, 16729.117, 0.0, 9.999852, 10.000077 
4.05007e+2, 1.9566135e+2, -1013658.56, -1014441.9, -23067.516, -0.010069361, 0.14471675, -990979.4, 31553.158, 0.0, 10.000074, 10.000061 
4.0501693e+2, 2.0566094e+2, -924963.9, -992663.4, -31969.754, -0.009573146, 0.13342379, -912253.25, 12282.8955, 0.0, 10.0003195, 9.99942 
4.0502656e+2, 2.1566036e+2, -786457.9, -871395.9, -29678.395, -0.023891222, 0.13192093, -777115.44, 49427.527, 0.0, 10.000582, 9.999454 
4.0503645e+2, 2.2565995e+2, -652119.25, -745777.6, -29358.037, -0.012331995, 0.14157613, -643677.56, 84869.19, 0.0, 10.000788, 9.999544 
4.050466e+2, 2.3565969e+2, -531477.6, -638713.06, -35514.0, 0.020204857, 0.15672532, -520782.8, 109765.29, 0.0, 10.000951, 9.999527 
4.0505627e+2, 2.4565874e+2, -442271.16, -617411.56, -41238.87, 0.022168282, 0.14478834, -433046.8, 99510.01, 0.0, 10.001203, 9.998879 
4.0506563e+2, 2.556573e+2, -295578.78, -493024.56, -29859.457, -0.0003043764, 0.10811891, -291162.0, 143409.31, 0.0, 10.001524, 9.998906 
4.0507552e+2, 2.6565617e+2, -161847.13, -388175.22, -24265.1, 0.020699663, 0.11146889, -159274.84, 177306.89, 0.0, 10.001815, 9.998814 
4.0508592e+2, 2.7565533e+2, -25028.64, -273248.8, -36574.215, 0.077347346, 0.14303191, -19751.762, 218837.25, 0.0, 10.002089, 9.998797 
4.050958e+2, 2.8565338e+2, 76501.03, -241787.28, -30396.516, 0.07708643, 0.103521444, 79377.9, 219984.39, 0.0, 10.002407, 9.998188 
4.0510526e+2, 2.956506e+2, 221760.94, -126366.66, -18465.441, 0.026754422, 0.004866063, 222737.64, 265369.6, 0.0, 10.002754, 9.99814 
4.05115e+2, 3.0564955e+2, 250856.92, -176383.31, -27311.129, 0.0135022905, 0.1285752, 252595.7, 252595.7, 0.0, 10.003004, 9.997342 
4.051258e+2, 3.1564638e+2, 375752.28, 41409.508, 14018.876, 0.10928357, 0.07385229, 376339.06, 376339.06, 0.00000001196501, 10.003184, 9.998751 
4.149354e+2, 1.2564884e+2, -1836369.5, -1746630.8, 46739.188, 0.0002176115, 0.2281238, -1726709.6, -18044.232, 0.000021697306, 9.99905, 10.000239 
4.149437e+2, 1.356497e+2, -1742410.6, -1603426.3, -92594.45, -0.064780645, 0.25035003, -1557147.5, 53509.22, 0.000006740833, 9.998818, 10.000663 
4.1495365e+2, 1.4564994e+2, -1620895.8, -1492782.6, -11748.326, -0.056540024, 0.2078018, -1491714.3, 20938.285, 0.0000006540361, 9.998975, 10.000671 
4.149649e+2, 1.5565054e+2, -1454871.4, -1366299.5, 5558.1772, -0.027552458, 0.20120591, -1365952.0, 48691.684, 0.0000000002364484, 9.99946, 10.000632 
4.149756e+2, 1.6565062e+2, -1373226.1, -1354117.1, -5825.47, -0.024514245, 0.18309961, -1352481.3, -35839.61, 0.0, 9.999684, 9.999935 
4.149858e+2, 1.7565024e+2, -1267619.8, -1246820.6, -14681.936, -0.05964832, 0.14972393, -1239228.3, -20583.068, 0.0, 9.999713, 9.999986 
4.1499627e+2, 1.8565032e+2, -1129463.0, -1097418.9, -20818.12, -0.054432712, 0.1430322, -1087171.1, 33471.766, 0.0, 9.99985, 10.000272 
4.1500708e+2, 1.9565073e+2, -1000917.56, -987732.5, -14361.463, -0.0106166145, 0.15463495, -978522.7, 44113.51, 0.0, 10.000073, 10.000245 
4.150174e+2, 2.0565045e+2, -921238.4, -984694.2, -22097.445, 0.00543199, 0.144734, -914301.6, 10336.448, 0.0, 10.000319, 9.9994755 
4.1502732e+2, 2.1564965e+2, -783468.2, -865101.0, -19860.176, -0.0030367128, 0.11364612, -778892.9, 47753.85, 0.0, 10.000581, 9.999497 
4.1503736e+2, 2.2564906e+2, -662636.1, -767346.06, -23249.023, -0.0001684754, 0.112957984, -657706.2, 70946.01, 0.0, 10.000786, 9.999396 
4.1504747e+2, 2.3564869e+2, -539845.8, -656003.94, -28936.064, 0.0129167745, 0.13335544, -533036.7, 97618.41, 0.0, 10.00095, 9.999409 
4.1505745e+2, 2.4564788e+2, -422587.8, -576370.06, -29277.172, 0.021423513, 0.12373857, -417202.6, 115459.78, 0.0, 10.001202, 9.999162 
4.150674e+2, 2.556467e+2, -278877.3, -458081.1, -18147.838, 0.025925234, 0.08700446, -277057.94, 157615.08, 0.0, 10.001522, 9.999146 
4.1507748e+2, 2.6564556e+2, -186148.1, -438325.3, -14275.409, 0.033771947, 0.09481374, -185342.56, 151341.72, 0.0, 10.001813, 9.998469 
4.1508767e+2, 2.7564445e+2, -46311.2, -317079.75, -25921.305, 0.045214966, 0.13354464, -43852.027, 194844.05, 0.0, 10.002087, 9.998497 
4.1509795e+2, 2.8564256e+2, 97211.555, -198116.02, -17514.31, 0.052438192, 0.10044296, 98246.61, 238959.16, 0.0, 10.002404, 9.998489 
4.1510826e+2, 2.9564017e+2, 240287.56, -87200.83, -6352.068, 0.05220346, 0.007764404, 240410.72, 283143.44, 0.0, 10.002752, 9.99841 
4.1511804e+2, 3.0563888e+2, 229434.3, -220975.2, -20928.074, 0.016826041, 0.11319046, 230404.61, 230404.61, 0.0, 10.003004, 9.997036 
4.151283e+2, 3.1563532e+2, 370733.03, 30450.729, 20032.346, 0.0433683, 0.046807915, 371908.28, 371908.28, 0.000000036873733, 10.003186, 9.998674 
4.249343e+2, 1.2563793e+2, -1865452.8, -1757366.0, 52476.613, -0.006610289, 0.25537482, -1736080.3, -27307.104, 0.000015823704, 9.998841, 10.000266 
4.2494258e+2, 1.356385e+2, -1704805.9, -1577427.8, -72862.67, -0.06689836, 0.2427801, -1544342.5, 66423.945, 0.0000041887733, 9.999044, 10.000731 
4.2495254e+2, 1.4563882e+2, -1595052.5, -1482762.8, 9446.568, -0.07386096, 0.20400211, -1481973.5, 30788.006, 0.00000021832761, 9.999164, 10.000649 
4.249641e+2, 1.5563962e+2, -1490190.9, -1385140.9, -9996.652, -0.03992752, 0.2190233, -1384198.0, 30553.38, 0.0, 9.999227, 10.000616 
4.2497513e+2, 1.656397e+2, -1406726.5, -1360852.8, -27895.98, -0.028221874, 0.19816166, -1347674.8, -30925.65, 0.0, 9.999414, 10.000019 
4.2498556e+2, 1.756392e+2, -1262691.4, -1235571.5, -13079.265, -0.055013247, 0.14332485, -1230291.6, -11538.46, 0.0, 9.999709, 10.000065 
4.249962e+2, 1.8563923e+2, -1120211.5, -1094778.3, -16788.902, -0.052780036, 0.13164264, -1086433.6, 34317.38, 0.0, 9.999923, 10.000255 
4.2500705e+2, 1.9563971e+2, -1001957.3, -989667.3, -26287.887, -0.019848522, 0.15120356, -968815.75, 53928.145, 0.0, 10.0000725, 10.000232 
4.2501763e+2, 2.056395e+2, -929076.56, -981812.3, -39567.83, 0.002231308, 0.14433067, -907895.75, 16849.33, 0.0, 10.0002365, 9.999534 
4.25028e+2, 2.1563873e+2, -804773.6, -869351.2, -37207.125, 0.012614658, 0.11230522, -787798.44, 38954.293, 0.0, 10.000409, 9.99955 
4.250382e+2, 2.2563809e+2, -680145.2, -782843.8, -34983.23, 0.0100777345, 0.10423497, -669360.94, 59398.1, 0.0, 10.000697, 9.999332 
4.2504835e+2, 2.3563753e+2, -525905.25, -655198.1, -34787.15, -0.00091706216, 0.11257646, -517139.78, 113624.375, 0.0, 10.001072, 9.999355 
4.2505863e+2, 2.4563679e+2, -403724.97, -557653.3, -42680.797, 0.0129414, 0.1097807, -392682.72, 140087.9, 0.0, 10.001289, 9.999248 
4.2506903e+2, 2.5563592e+2, -292850.16, -455920.8, -45961.78, 0.045341108, 0.09421221, -280787.97, 153990.25, 0.0, 10.001389, 9.999226 
4.2507935e+2, 2.656348e+2, -201853.44, -447049.9, -28128.33, 0.045008972, 0.10052178, -198668.0, 138121.25, 0.0, 10.00171, 9.998459 
4.2508957e+2, 2.7563345e+2, -29546.873, -309975.28, -15761.388, 0.02043086, 0.119883046, -28663.79, 210139.25, 0.0, 10.002206, 9.998488 
4.2510015e+2, 2.8563166e+2, 102244.02, -200356.89, -16762.55, 0.02989705, 0.091636196, 103169.75, 243989.23, 0.0, 10.002459, 9.998447 
4.25111e+2, 2.956294e+2, 204838.83, -108167.984, -30428.451, 0.06160776, 0.022421272, 207769.44, 250607.56, 0.0, 10.002525, 9.998376 
4.2512098e+2, 3.0562797e+2, 207285.63, -235286.97, -38819.758, 0.017826024, 0.11170955, 210664.86, 210664.86, 0.0, 10.002868, 9.997004 
4.2513135e+2, 3.156243e+2, 415776.63, 70284.664, 20611.082, 0.016819635, 0.04225958, 417001.88, 417001.88, 0.00000007454206, 10.003417, 9.998837 
4.3493277e+2, 1.2562712e+2, -1840675.6, -1705187.8, 71585.984, -0.04056321, 0.2957824, -1674373.1, 34507.61, 0.0000113764345, 9.998837, 10.000626 
4.3494186e+2, 1.3562773e+2, -1679435.1, -1525517.8, -65113.61, -0.04637918, 0.24782072, -1501667.6, 109203.39, 0.0000025044064, 9.999046, 10.001087 
4.349517e+2, 1.4562792e+2, -1631268.3, -1557595.1, 11862.822, -0.075257115, 0.20579581, -1555732.1, -42864.496, 0.000000047491298, 9.999162, 10.000136 
4.3496293e+2, 1.5562826e+2, -1522714.9, -1451980.5, -7052.4233, -0.07957308, 0.22739656, -1451284.3, -36420.074, 0.0, 9.999225, 10.000158 
4.349743e+2, 1.656284e+2, -1378831.6, -1302348.4, -16735.762, -0.050544016, 0.21301964, -1298846.6, 18014.46, 0.0, 9.999412, 10.0004225 
4.3498564e+2, 1.7562838e+2, -1237483.9, -1182916.9, -1955.4347, -0.020090759, 0.16406448, -1182846.9, 36012.02, 0.0, 9.999707, 10.000426 
4.3499643e+2, 1.8562834e+2, -1136909.3, -1128819.4, -11111.185, -0.02137677, 0.1403028, -1121039.8, -182.67911, 0.0, 9.99992, 10.000022 
4.3500692e+2, 1.9562833e+2, -1017013.8, -1020578.5, -20321.408, -0.038133424, 0.13442613, -998396.75, 24458.947, 0.0, 10.000072, 10.00002 
4.3501765e+2, 2.0562808e+2, -924965.7, -973046.44, -32965.965, -0.019847585, 0.13198124, -908205.44, 16651.793, 0.0, 10.000236, 9.999595 
4.3502846e+2, 2.1562766e+2, -800659.9, -860828.8, -30049.002, 0.022331148, 0.12743448, -788223.56, 38637.633, 0.0, 10.000409, 9.999608 
4.3503898e+2, 2.25627e+2, -678941.5, -780224.56, -20867.285, 0.017800258, 0.11508566, -674810.7, 54056.652, 0.0, 10.000696, 9.9993515 
4.350492e+2, 2.3562618e+2, -525455.56, -653974.25, -21324.438, -0.021478986, 0.09438093, -522009.7, 108865.54, 0.0, 10.00107, 9.999365 
4.3505976e+2, 2.4562548e+2, -411616.94, -573638.0, -39204.61, -0.0036572076, 0.10263196, -402629.1, 130252.52, 0.0, 10.001287, 9.999139 
4.3507054e+2, 2.5562492e+2, -298369.16, -467548.28, -41409.81, 0.057516858, 0.1290357, -288777.16, 146109.72, 0.0, 10.0013895, 9.9991455 
4.3508115e+2, 2.6562384e+2, -179911.22, -401590.38, -9708.165, 0.053929735, 0.1280432, -179486.88, 157409.83, 0.0, 10.00171, 9.998772 
4.3509158e+2, 2.756224e+2, -11103.312, -270746.75, 1296.106, 0.0017864796, 0.102224655, -11096.841, 227813.25, 0.0, 10.002202, 9.99876 
4.3510237e+2, 2.8562054e+2, 75761.98, -254271.06, -14868.695, 0.008120644, 0.07741485, 76430.49, 217357.89, 0.0, 10.002455, 9.998079 
4.3511343e+2, 2.9561836e+2, 182049.16, -155726.28, -26962.201, 0.05527979, 0.048828345, 184187.81, 227135.83, 0.0, 10.002526, 9.998049 
4.3512383e+2, 3.056167e+2, 223297.22, -201907.55, -18512.5, 0.016284715, 0.124050446, 224101.69, 224101.69, 0.0, 10.002868, 9.997232 
4.3513483e+2, 3.1561327e+2, 442275.8, 126774.94, 39229.45, 0.024896555, 0.052704155, 447080.47, 447080.47, 0.0000001100893, 10.003411, 9.9992285 
4.4493133e+2, 1.2561557e+2, -1827950.6, -1703477.8, 67181.95, -0.07231758, 0.2917893, -1674134.8, 34858.914, 0.000008277144, 9.998942, 10.0005865 
4.44941e+2, 1.3561636e+2, -1681624.8, -1525653.1, -110737.81, -0.03525754, 0.26043665, -1468196.5, 142786.22, 0.0000015575915, 9.999026, 10.001097 
4.4495085e+2, 1.4561658e+2, -1633717.8, -1560779.6, -27007.693, -0.07622163, 0.22143584, -1551868.0, -38888.82, 0.000000013935479, 9.999154, 10.000118 
4.449621e+2, 1.5561666e+2, -1508893.8, -1446879.4, -8523.168, -0.08815797, 0.21734536, -1445729.4, -30751.223, 0.0, 9.999327, 10.000144 
4.4497374e+2, 1.6561683e+2, -1362283.5, -1288934.9, -12331.186, -0.05491434, 0.20345013, -1286917.3, 30057.506, 0.0, 9.999503, 10.00047 
4.449854e+2, 1.7561705e+2, -1237631.4, -1178169.4, -24261.787, -0.013298996, 0.17680061, -1169526.4, 49443.65, 0.0, 9.999686, 10.000469 
4.4499636e+2, 1.8561701e+2, -1145570.8, -1135981.8, -38848.35, -0.014114377, 0.15380955, -1101633.1, 19334.955, 0.0, 9.999874, 9.999995 
4.4500703e+2, 1.9561683e+2, -1019587.44, -1024094.25, -32708.896, -0.038014967, 0.13105425, -989054.44, 33914.227, 0.0, 10.000065, 9.999999 
4.4501787e+2, 2.0561656e+2, -911214.0, -961670.3, -37171.117, -0.022974782, 0.12504558, -891518.3, 33452.0, 0.0, 10.00031, 9.999637 
4.4502893e+2, 2.1561624e+2, -770905.4, -842319.06, -35844.14, 0.018621882, 0.12784213, -756017.94, 70954.92, 0.0, 10.000596, 9.999645 
4.4503966e+2, 2.2561565e+2, -673987.1, -782676.2, -30542.188, 0.018905532, 0.121191576, -665992.6, 62985.96, 0.0, 10.0007515, 9.999308 
4.4505024e+2, 2.356148e+2, -567625.6, -679358.06, -35528.086, -0.011406379, 0.10436166, -557285.5, 73701.35, 0.0, 10.000803, 9.999319 
4.45061e+2, 2.4561404e+2, -437625.1, -593685.56, -49252.965, 0.000961616, 0.11036591, -423380.88, 109613.25, 0.0, 10.001142, 9.999071 
4.4507197e+2, 2.5561336e+2, -255893.39, -453357.22, -48875.688, 0.045255955, 0.12981325, -244458.05, 190542.72, 0.0, 10.001708, 9.999089 
4.450828e+2, 2.6561227e+2, -148841.22, -382551.6, -31811.637, 0.042140637, 0.12956604, -144588.55, 192421.95, 0.0, 10.001906, 9.998808 
4.450936e+2, 2.756109e+2, -65212.81, -293783.72, -41023.54, 0.004374372, 0.11071087, -58072.996, 180949.72, 0.0, 10.001818, 9.998787 
4.451047e+2, 2.8560904e+2, 20939.361, -291051.6, -49475.332, 0.008949985, 0.08884632, 28597.168, 169637.48, 0.0, 10.002122, 9.997987 
4.4511592e+2, 2.956068e+2, 206078.58, -153191.16, -41779.754, 0.041550435, 0.06054475, 210873.19, 253935.5, 0.0, 10.002729, 9.997968 
4.451266e+2, 3.0560488e+2, 247541.42, -187938.06, -34487.14, -0.0013908175, 0.11314578, 250255.66, 250255.66, 0.00000000000009396187, 10.003023, 9.997253 
4.4513804e+2, 3.1560174e+2, 401608.3, 123754.9, 6164.964, 0.024116024, 0.06905095, 401745.03, 401745.03, 0.00000013361628, 10.00306, 9.999376 
4.5492995e+2, 1.2560329e+2, -1859268.8, -1767576.1, 80713.055, -0.10321472, 0.241003, -1720597.5, -11485.081, 0.0000061456926, 9.9989395, 10.000149 
4.5494002e+2, 1.3560438e+2, -1705389.6, -1575245.5, -107332.4, -0.03528737, 0.27891955, -1514800.3, 96301.56, 0.0000010596042, 9.999027, 10.000757 
4.5494995e+2, 1.4560479e+2, -1599967.1, -1490675.5, -20348.3, -0.07867305, 0.24996975, -1487009.9, 26086.316, 0.000000007555667, 9.999154, 10.0006 
4.5496166e+2, 1.5560478e+2, -1478490.9, -1383806.5, -1593.2714, -0.06564762, 0.18979481, -1383779.8, 31313.494, 0.0, 9.999327, 10.000577 
4.5497337e+2, 1.6560493e+2, -1384201.6, -1333964.0, -5341.533, -0.04088948, 0.17031553, -1333402.3, -16312.293, 0.0, 9.999501, 10.000161 
4.5498484e+2, 1.7560522e+2, -1257370.5, -1218739.5, -16938.191, -0.035572946, 0.18080726, -1212364.8, 6721.77, 0.0, 9.999685, 10.000192 
4.5499605e+2, 1.856053e+2, -1133494.5, -1110510.8, -31470.83, -0.032453015, 0.1711192, -1088499.3, 32584.873, 0.0, 9.999872, 10.000171 
4.5500723e+2, 1.9560519e+2, -1008048.75, -999868.2, -25074.057, -0.020193765, 0.14108723, -978553.0, 44529.957, 0.0, 10.000063, 10.000166 
4.5501834e+2, 2.0560491e+2, -909646.7, -958167.2, -26390.756, -0.007477017, 0.12381995, -898059.56, 27024.752, 0.0, 10.000309, 9.999661 
4.5502937e+2, 2.156045e+2, -769797.0, -839930.44, -25456.783, 0.0014366665, 0.11380485, -761531.0, 65556.78, 0.0, 10.000596, 9.999661 
4.5504037e+2, 2.2560398e+2, -681650.7, -798669.1, -28720.26, 0.013013933, 0.12239631, -674981.8, 54110.953, 0.0, 10.0007515, 9.999198 
4.5505142e+2, 2.356034e+2, -574770.3, -694405.5, -32517.07, 0.028199645, 0.14194103, -566503.4, 64595.656, 0.0, 10.000804, 9.999216 
4.550624e+2, 2.4560243e+2, -439541.44, -597673.56, -27995.238, 0.025933685, 0.13280617, -434731.56, 98376.72, 0.0, 10.001142, 9.999044 
4.550733e+2, 2.5560114e+2, -258941.81, -458935.6, -29143.111, 0.00875695, 0.097291954, -254781.63, 180338.23, 0.0, 10.001705, 9.999052 
4.5508438e+2, 2.6560003e+2, -165398.02, -416536.44, -35441.83, 0.009630128, 0.10568102, -160492.13, 176638.45, 0.0, 10.0019045, 9.998575 
4.5509565e+2, 2.7559903e+2, -79272.63, -323985.44, -42826.168, 0.026896287, 0.14463124, -71994.28, 167146.55, 0.0, 10.0018215, 9.998578 
4.5510703e+2, 2.8559718e+2, 33242.62, -266060.72, -26729.814, 0.03101526, 0.12535979, 35611.03, 176769.2, 0.0, 10.002125, 9.9981575 
4.5511845e+2, 2.955947e+2, 216347.53, -131026.61, -20520.137, 0.019760927, 0.057822797, 217555.5, 260736.52, 0.0, 10.002727, 9.998122 
4.5512927e+2, 3.0559248e+2, 234448.6, -213854.13, -33306.535, -0.035514515, 0.07941389, 236909.58, 236909.58, 0.00000000000087855477, 10.003018, 9.997078 
4.5514098e+2, 3.1558964e+2, 395453.5, 111390.51, 5951.5444, 0.013483148, 0.08535266, 395578.16, 395578.16, 0.00000014519496, 10.003059, 9.999292 
4.6492875e+2, 1.2559107e+2, -1900948.6, -1798739.0, 73134.914, -0.10811774, 0.22648858, -1760622.6, -51391.24, 0.000004581255, 9.998702, 10.000049 
4.6493894e+2, 1.3559212e+2, -1724704.3, -1590170.6, -99116.39, -0.040936545, 0.26495498, -1537650.6, 73571.71, 0.0000007444035, 9.998919, 10.000707 
4.6494892e+2, 1.4559272e+2, -1589555.3, -1468897.3, -13080.882, -0.09860956, 0.24970949, -1467495.4, 45719.574, 0.0000000034677494, 9.999153, 10.00075 
4.6496117e+2, 1.5559287e+2, -1459424.4, -1359732.6, -19603.4, -0.049580745, 0.19299386, -1356016.3, 59193.383, 0.0, 9.999393, 10.00071 
4.6497306e+2, 1.6559304e+2, -1376464.0, -1341566.3, -26218.346, -0.025905475, 0.17355351, -1327521.3, -10314.776, 0.0, 9.999603, 10.00006 
4.649844e+2, 1.7559321e+2, -1247848.9, -1224331.4, -22413.768, -0.054165717, 0.18183984, -1210779.1, 8425.682, 0.0, 9.999794, 10.0001 
4.649958e+2, 1.8559329e+2, -1119203.6, -1094834.6, -35693.54, -0.050253443, 0.17274283, -1069303.1, 51899.29, 0.0, 9.999932, 10.00025 
4.650074e+2, 1.955933e+2, -1008090.06, -991582.9, -35860.82, -0.009105666, 0.14527504, -963038.06, 60161.637, 0.0, 10.000027, 10.00024 
4.6501878e+2, 2.0559305e+2, -917924.7, -962407.94, -35580.902, 0.0076119895, 0.12897874, -898205.75, 26994.836, 0.0, 10.000254, 9.999659 
4.6502993e+2, 2.1559264e+2, -772092.56, -841509.4, -37307.582, 0.00030121842, 0.11877692, -755844.8, 71359.39, 0.0, 10.000583, 9.999658 
4.6504116e+2, 2.2559208e+2, -668325.2, -794951.06, -43788.08, 0.01295576, 0.12363472, -654658.1, 74551.54, 0.0, 10.0008545, 9.999173 
4.650525e+2, 2.355914e+2, -535242.8, -677637.56, -40751.184, 0.0428284, 0.13646746, -524405.3, 106811.36, 0.0, 10.001085, 9.999195 
4.6506372e+2, 2.4559039e+2, -420133.22, -590030.8, -24826.525, 0.036968224, 0.12580542, -416579.75, 116646.22, 0.0, 10.001283, 9.999028 
4.650748e+2, 2.5558913e+2, -297579.38, -480784.2, -25937.479, 0.002179426, 0.093398795, -293978.03, 141259.02, 0.0, 10.001453, 9.999023 
4.6508613e+2, 2.6558787e+2, -198900.33, -454415.53, -37164.87, 0.00057773944, 0.09977101, -193604.44, 143644.98, 0.0, 10.001768, 9.998382 
4.6509764e+2, 2.755866e+2, -37321.258, -323757.25, -41612.32, 0.026902791, 0.13208361, -31398.447, 207864.61, 0.0, 10.002196, 9.9984 
4.6510932e+2, 2.855848e+2, 84807.83, -236868.69, -22589.734, 0.034040887, 0.124237806, 86386.445, 227666.5, 0.0, 10.00246, 9.998197 
4.651211e+2, 2.9558262e+2, 198888.23, -135644.55, -26440.69, 0.021433972, 0.08371514, 200965.14, 244264.64, 0.0, 10.002589, 9.998157 
4.651321e+2, 3.0558005e+2, 196392.03, -243727.78, -47579.723, -0.045926176, 0.07396441, 201476.95, 201476.95, 0.00000000000042122027, 10.002806, 9.996976 
4.6514386e+2, 3.1557712e+2, 392861.4, 102891.445, -5451.588, -0.0060077193, 0.08083197, 392963.84, 392963.84, 0.00000014428599, 10.003071, 9.9992285 
4.749276e+2, 1.2557893e+2, -1885417.6, -1764286.1, 89142.945, -0.08971929, 0.24878314, -1717080.5, -7729.436, 0.0000033199578, 9.9986925, 10.00029 
4.7493774e+2, 1.3557954e+2, -1707994.8, -1555148.0, -90382.16, -0.05203992, 0.21963364, -1513209.8, 98134.77, 0.00000048107097, 9.998916, 10.000949 
4.7494766e+2, 1.4558034e+2, -1602602.0, -1495678.3, -3703.1936, -0.13680518, 0.22144349, -1495550.1, 17785.418, 0.000000000765976, 9.999151, 10.0005665 
4.7496063e+2, 1.5558094e+2, -1470907.9, -1383817.9, -10342.574, -0.0419709, 0.22602043, -1382606.5, 32721.178, 0.0, 9.999394, 10.000545 
4.7497278e+2, 1.6558114e+2, -1369021.6, -1326373.1, -19023.37, -0.011754169, 0.21210082, -1319120.9, -1796.4675, 0.0, 9.999604, 10.000164 
4.7498402e+2, 1.7558101e+2, -1241089.0, -1210245.9, -15132.566, -0.0695968, 0.18070155, -1204061.5, 15263.462, 0.0, 9.999794, 10.000197 
4.7499555e+2, 1.8558101e+2, -1120163.3, -1096742.1, -32080.445, -0.06802568, 0.15973091, -1074301.6, 47021.28, 0.0, 9.999932, 10.0002365 
4.7500744e+2, 1.9558111e+2, -1008927.25, -993487.3, -31573.832, -0.0052458905, 0.14345157, -968703.4, 54615.703, 0.0, 10.000028, 10.000227 
4.7501916e+2, 2.0558098e+2, -920266.75, -967241.06, -23161.182, 0.021657709, 0.13988023, -910767.75, 14551.281, 0.0, 10.000253, 9.999626 
4.7503063e+2, 2.1558064e+2, -774238.25, -845648.5, -25041.594, 0.014418276, 0.14258958, -766332.2, 60989.91, 0.0, 10.000581, 9.99963 
4.7504207e+2, 2.2557989e+2, -664250.9, -786329.1, -35284.406, 0.018089017, 0.12524915, -654786.3, 74542.914, 0.0, 10.000854, 9.999233 
4.7505346e+2, 2.3557878e+2, -531156.44, -669041.5, -32288.086, 0.032555748, 0.088686876, -523970.2, 107369.47, 0.0, 10.001084, 9.999254 
4.7506493e+2, 2.4557792e+2, -420656.72, -591349.1, -18750.223, 0.033874165, 0.08993008, -418621.3, 114725.88, 0.0, 10.001284, 9.99902 
4.7507647e+2, 2.5557724e+2, -298874.1, -483795.22, -19234.727, 0.024027998, 0.11770159, -296894.56, 138457.9, 0.0, 10.001454, 9.999002 
4.75088e+2, 2.6557577e+2, -210062.52, -477737.03, -21321.041, 0.013792225, 0.11179257, -208374.88, 128992.25, 0.0, 10.001768, 9.998221 
4.7509962e+2, 2.7557364e+2, -48356.707, -346325.94, -26279.764, 0.0045962287, 0.074406125, -46056.684, 193332.75, 0.0, 10.002194, 9.998245 
4.7511163e+2, 2.8557193e+2, 78854.77, -249081.19, -17987.959, 0.018086612, 0.08634501, 79838.5, 221244.52, 0.0, 10.002459, 9.998114 
4.7512394e+2, 2.9557055e+2, 193442.28, -147100.86, -21276.516, 0.04494474, 0.13689905, 194766.44, 238184.31, 0.0, 10.00259, 9.998077 
4.7513497e+2, 3.0556762e+2, 193999.9, -248265.25, -37669.723, -0.034187578, 0.09576629, 197185.45, 197185.45, 0.0, 10.002805, 9.996945 
4.751466e+2, 3.1556416e+2, 390214.16, 97758.9, 2048.5693, -0.036383376, 0.05087988, 390228.5, 390228.5, 0.00000012581201, 10.00307, 9.999194 
4.8492634e+2, 1.2556678e+2, -1851631.5, -1734152.9, 100160.79, -0.093741156, 0.27053136, -1676778.1, 32692.63, 0.0000022837717, 9.998866, 10.000412 
4.8493677e+2, 1.3556728e+2, -1709012.4, -1541590.1, -95288.16, -0.035757694, 0.21438296, -1498465.3, 112999.336, 0.0000002759338, 9.998849, 10.001075 
4.849466e+2, 1.4556813e+2, -1628050.8, -1520268.6, -3545.1067, -0.15242048, 0.22316755, -1520152.1, -6697.2056, 0.000000000009128432, 9.99903, 10.000457 
4.8495984e+2, 1.5556869e+2, -1485431.8, -1402072.6, -5246.0537, -0.057577927, 0.23513529, -1401743.8, 13704.425, 0.0, 9.999343, 10.000444 
4.8497233e+2, 1.6556887e+2, -1371778.9, -1318078.0, -16659.367, -0.015701797, 0.22027612, -1313329.8, 4115.329, 0.0, 9.999543, 10.000252 
4.8498386e+2, 1.7556879e+2, -1255677.0, -1208544.8, -13683.018, -0.055902917, 0.1824078, -1204860.5, 14584.171, 0.0, 9.999655, 10.000277 
4.8499557e+2, 1.8556874e+2, -1122914.4, -1104375.3, -28857.03, -0.05559187, 0.15616235, -1083335.5, 38107.383, 0.0, 9.999939, 10.000181 
4.8500758e+2, 1.9556874e+2, -964266.94, -977707.3, -32116.432, -0.0081255, 0.13513985, -938175.1, 85265.06, 0.0, 10.000359, 10.000176 
4.8501948e+2, 2.0556858e+2, -886886.3, -949851.0, -28689.281, 0.018436743, 0.13199876, -875775.06, 49665.133, 0.0, 10.000476, 9.999639 
4.850312e+2, 2.1556833e+2, -807030.75, -860332.4, -26397.797, 0.02238999, 0.1393732, -796170.1, 31272.223, 0.0, 10.000351, 9.99964 
4.8504287e+2, 2.2556755e+2, -705309.25, -813057.75, -29644.97, 0.02723722, 0.12347445, -697691.56, 31758.16, 0.0, 10.000602, 9.999171 
4.850546e+2, 2.3556638e+2, -525391.25, -673155.7, -36642.0, 0.03502751, 0.086196534, -516803.94, 114657.234, 0.0, 10.001154, 9.999193 
4.8506632e+2, 2.4556546e+2, -397015.84, -583835.56, -37098.37, 0.032629784, 0.08693947, -389918.53, 143550.77, 0.0, 10.001463, 9.998984 
4.8507795e+2, 2.5556472e+2, -282969.9, -479739.5, -38974.754, 0.020752346, 0.11384607, -275531.28, 159943.63, 0.0, 10.00158, 9.99897 
4.850898e+2, 2.6556322e+2, -200712.8, -475623.6, -26835.15, 0.012249458, 0.109170586, -198117.81, 139371.8, 0.0, 10.001843, 9.998199 
4.8510185e+2, 2.7556112e+2, -47040.215, -349118.66, -22294.95, 0.008298693, 0.07495266, -45403.598, 194108.17, 0.0, 10.002218, 9.998215 
4.8511407e+2, 2.8555936e+2, 68546.0, -271348.88, -21844.756, 0.018413763, 0.09006903, 69944.195, 211473.48, 0.0, 10.002462, 9.997959 
4.851264e+2, 2.9555786e+2, 184647.47, -167342.03, -30028.752, 0.03448449, 0.14420837, 187190.88, 230733.73, 0.0, 10.002598, 9.997935 
4.851377e+2, 3.0555466e+2, 200064.75, -243545.42, -41237.137, -0.045525454, 0.083629034, 203865.5, 203865.5, 0.0, 10.002838, 9.996962 
4.8514974e+2, 3.1555164e+2, 398150.94, 97498.53, -1091.4551, -0.031641256, 0.080058426, 398154.9, 398154.9, 0.00000009052117, 10.003142, 9.999158 
4.949249e+2, 1.2555464e+2, -1852627.6, -1734607.3, 104291.19, -0.12349507, 0.29233754, -1673789.0, 35801.742, 0.0000015131136, 9.998859, 10.000412 
4.9493605e+2, 1.3555525e+2, -1708196.8, -1540431.4, -94892.805, 0.0061040586, 0.24848726, -1497661.3, 113921.5, 0.00000014199817, 9.99885, 10.001083 
4.9494568e+2, 1.4555608e+2, -1630638.3, -1525726.5, 8221.394, -0.14722078, 0.25445652, -1525086.1, -11512.793, 0.0, 9.999029, 10.00042 
4.9495876e+2, 1.5555616e+2, -1487723.5, -1406777.6, 6000.851, -0.0971032, 0.221714, -1406335.1, 9236.268, 0.0, 9.999342, 10.000412 
4.9497163e+2, 1.655563e+2, -1366234.6, -1306754.1, -12585.956, -0.03867756, 0.1992027, -1304200.6, 13367.857, 0.0, 9.999543, 10.000329 
4.949839e+2, 1.7555653e+2, -1250710.6, -1198558.1, -8595.622, -0.014317649, 0.18631227, -1197178.0, 22386.094, 0.0, 9.999657, 10.000344 
4.9499595e+2, 1.8555646e+2, -1129954.8, -1118770.3, -12986.99, -0.013851217, 0.1612449, -1110222.6, 11339.709, 0.0, 9.999938, 10.000083 
4.9500784e+2, 1.9555616e+2, -970625.1, -990684.94, -17268.043, -0.017980764, 0.12070662, -960685.44, 62877.637, 0.0, 10.000358, 10.000088 
4.9501973e+2, 2.0555589e+2, -882589.06, -941045.75, -33634.91, -0.0024481693, 0.10605544, -867257.3, 58306.734, 0.0, 10.000476, 9.999699 
4.9503154e+2, 2.1555565e+2, -803269.94, -853033.44, -29750.654, 0.023664927, 0.10938233, -789367.6, 38197.4, 0.0, 10.000353, 9.99969 
4.950436e+2, 2.2555505e+2, -718129.94, -840020.06, -8936.231, 0.03969292, 0.11806149, -717478.3, 12092.823, 0.0, 10.000603, 9.998985 
4.950559e+2, 2.3555416e+2, -538319.44, -699772.7, -16883.51, 0.049726125, 0.12836124, -536572.75, 95008.47, 0.0, 10.001153, 9.999011 
4.9506775e+2, 2.4555299e+2, -401466.88, -592850.25, -32985.695, 0.032805506, 0.11649241, -395941.2, 137651.11, 0.0, 10.001461, 9.998923 
4.9507925e+2, 2.555516e+2, -286222.16, -486746.6, -34116.156, -0.0074961474, 0.082529925, -280576.75, 155027.45, 0.0, 10.00158, 9.998921 
4.950915e+2, 2.655503e+2, -192665.69, -459332.72, -13008.437, -0.0042632916, 0.09194012, -192032.63, 145584.22, 0.0, 10.001844, 9.998311 
4.9510434e+2, 2.7554902e+2, -40753.727, -335918.44, -8925.34, 0.036378134, 0.13151683, -40484.086, 199146.27, 0.0, 10.002217, 9.998306 
4.951167e+2, 2.8554702e+2, 52491.598, -304239.22, -17042.875, 0.03401604, 0.1341526, 53303.973, 194953.98, 0.0, 10.0024605, 9.997734 
4.9512857e+2, 2.9554456e+2, 170433.75, -197050.83, -24430.459, -0.008457506, 0.1081927, 172050.78, 215724.98, 0.0, 10.002599, 9.99773 
4.9514017e+2, 3.055412e+2, 204293.66, -234489.16, -29641.164, -0.07921989, 0.039014507, 206286.95, 206286.95, 0.0, 10.002837, 9.997024 
4.9515325e+2, 3.1553945e+2, 394920.4, 92370.83, 8389.023, 0.0038450137, 0.1595526, 395152.84, 395152.84, 0.000000050936965, 10.003136, 9.9991255 
5.049235e+2, 1.2554204e+2, -1888944.0, -1759786.0, 91725.35, -0.13391972, 0.295825, -1712186.6, -2472.8218, 0.0000009949754, 9.998644, 10.000343 
5.0493515e+2, 1.3554254e+2, -1708135.8, -1548368.9, -116147.49, 0.029760106, 0.24750477, -1487285.6, 124421.43, 0.000000065122016, 9.998884, 10.001013 
5.049447e+2, 1.4554343e+2, -1621174.5, -1519629.9, -10421.639, -0.14738101, 0.2625601, -1518571.3, -4874.148, 0.0, 9.999087, 10.000434 
5.0495815e+2, 1.5554345e+2, -1505241.8, -1413588.1, -9347.324, -0.08567341, 0.2220552, -1412644.6, 3051.4417, 0.0, 9.999214, 10.000427 
5.049712e+2, 1.6554357e+2, -1377850.4, -1308125.6, -27871.262, -0.025900098, 0.19474044, -1298354.0, 19339.117, 0.0, 9.999444, 10.000368 
5.0498366e+2, 1.7554381e+2, -1234034.0, -1187072.3, -26869.604, -0.010839575, 0.18093707, -1174869.4, 44818.58, 0.0, 9.999755, 10.000377 
5.049958e+2, 1.8554378e+2, -1133031.0, -1129269.0, -29888.678, -0.014904593, 0.16099179, -1101202.3, 20484.041, 0.0, 9.999955, 10.000004 
5.0500804e+2, 1.955435e+2, -1018684.75, -1022121.94, -32866.563, -0.019170206, 0.13007496, -987491.9, 36195.676, 0.0, 10.000062, 10.000014 
5.0502026e+2, 2.0554313e+2, -893259.7, -944187.0, -52596.805, 0.0028349173, 0.109399274, -860286.9, 65402.332, 0.0, 10.000394, 9.999718 
5.050323e+2, 2.1554272e+2, -721594.75, -812151.6, -51991.45, 0.04045604, 0.09391866, -697929.4, 129761.71, 0.0, 10.000906, 9.999704 
5.050445e+2, 2.2554213e+2, -653108.5, -818253.0, -26943.756, 0.049643625, 0.10608295, -648823.7, 80873.38, 0.0, 10.001091, 9.9989 
5.0505686e+2, 2.3554137e+2, -565299.7, -722564.44, -27371.445, 0.037759673, 0.13766974, -560672.0, 71034.48, 0.0, 10.00101, 9.998923 
5.0506896e+2, 2.4554014e+2, -440315.4, -621367.7, -38759.547, 0.019287365, 0.129314, -432366.75, 101351.836, 0.0, 10.001237, 9.998836 
5.050809e+2, 2.5553855e+2, -272544.22, -488907.78, -42035.836, -0.0058593475, 0.08514235, -264664.3, 171068.64, 0.0, 10.001713, 9.998843 
5.050934e+2, 2.6553726e+2, -162926.97, -435122.13, -24205.436, -0.005899747, 0.09385777, -160791.22, 176954.17, 0.0, 10.0020075, 9.998398 
5.051063e+2, 2.7553612e+2, -44355.184, -329000.3, -22156.996, 0.016100124, 0.13946274, -42640.793, 197115.81, 0.0, 10.002156, 9.998383 
5.0511897e+2, 2.8553417e+2, 40898.73, -319515.53, -25768.418, 0.019061439, 0.14586246, 42731.76, 184507.92, 0.0, 10.002423, 9.997647 
5.0513136e+2, 2.9553163e+2, 190694.66, -195723.66, -23601.375, 0.0024010204, 0.12395222, 192130.83, 235932.64, 0.0, 10.002775, 9.997655 
5.051431e+2, 3.055281e+2, 230297.58, -206682.64, -24784.096, -0.07255275, 0.034185812, 231698.77, 231698.77, 0.0, 10.00295, 9.997161 
5.051561e+2, 3.1552672e+2, 370630.3, 80236.29, 15392.401, -0.014866263, 0.17747895, 371443.9, 371443.9, 0.000000020855737, 10.002971, 9.999121 
5.149222e+2, 1.2552899e+2, -1899871.9, -1780769.5, 100857.3, -0.12909636, 0.2814608, -1723194.5, -13354.23, 0.00000067894854, 9.998637, 10.000202 
5.1493406e+2, 1.3552913e+2, -1718884.1, -1570842.3, -107433.445, 0.03445468, 0.21257888, -1514398.5, 97439.31, 0.000000029496794, 9.998883, 10.000859 
5.149437e+2, 1.4553016e+2, -1616401.5, -1509572.8, -5891.9175, -0.15467632, 0.24821843, -1509248.8, 4577.867, 0.0, 9.999086, 10.000504 
5.14958e+2, 1.5553054e+2, -1500393.4, -1403581.4, -4512.8613, -0.024455316, 0.2357675, -1403371.5, 12450.837, 0.0, 9.999214, 10.000496 
5.1497114e+2, 1.6553067e+2, -1377836.1, -1307990.9, -16609.385, 0.022108944, 0.20679434, -1304242.3, 13576.895, 0.0, 9.999444, 10.00037 
5.1498306e+2, 1.7553067e+2, -1234096.9, -1187221.6, -15573.585, -0.04590908, 0.16694948, -1182519.3, 37297.063, 0.0, 9.999755, 10.000376 
5.1499534e+2, 1.855307e+2, -1137124.8, -1137841.9, -25944.22, -0.059830707, 0.15597013, -1111536.6, 10277.939, 0.0, 9.999955, 9.999945 
5.1500815e+2, 1.9553073e+2, -1022700.44, -1030421.3, -28019.844, -0.012591879, 0.16301456, -998276.3, 25537.28, 0.0, 10.000062, 9.999958 
5.150209e+2, 2.0553033e+2, -895060.6, -947564.06, -33363.125, 0.033528917, 0.14149667, -878859.44, 46956.395, 0.0, 10.000392, 9.999695 
5.1503354e+2, 2.1552958e+2, -723176.4, -815119.06, -33918.473, 0.07235678, 0.093143344, -712017.8, 115802.69, 0.0, 10.000905, 9.999684 
5.150457e+2, 2.2552879e+2, -652354.2, -816816.25, -30170.854, 0.056766134, 0.08814351, -646994.0, 82833.625, 0.0, 10.001091, 9.99891 
5.150575e+2, 2.3552798e+2, -564686.3, -721900.8, -29315.828, -0.0008720676, 0.114689104, -559397.7, 72439.1, 0.0, 10.001012, 9.998927 
5.1506996e+2, 2.455269e+2, -448172.84, -638119.75, -21014.092, -0.008343377, 0.12535132, -445875.78, 87972.36, 0.0, 10.001239, 9.99872 
5.150829e+2, 2.555256e+2, -280172.6, -504584.13, -24866.566, 0.024386758, 0.12062646, -277450.22, 158411.06, 0.0, 10.001712, 9.998736 
5.1509553e+2, 2.6552412e+2, -158829.84, -426403.22, -18733.047, 0.0068720602, 0.11463978, -157524.69, 180350.53, 0.0, 10.002007, 9.998459 
5.151078e+2, 2.7552247e+2, -39952.8, -320032.3, -16080.393, -0.05083887, 0.10117203, -39032.59, 200857.67, 0.0, 10.002156, 9.998445 
5.151209e+2, 2.8552076e+2, 43613.953, -313592.06, -12589.182, -0.026161037, 0.1264647, 44057.09, 185964.69, 0.0, 10.002421, 9.997688 
5.151347e+2, 2.9551908e+2, 193022.58, -189622.25, -10991.458, 0.062808245, 0.18799037, 193338.05, 237264.13, 0.0, 10.002769, 9.997699 
5.151465e+2, 3.0551538e+2, 244136.11, -177118.6, -24193.307, -0.028424961, 0.066613406, 245521.02, 245521.02, 0.0, 10.002947, 9.997366 
5.151584e+2, 3.1551346e+2, 372524.28, 83866.484, 13391.846, -0.08482152, 0.13587357, 373144.25, 373144.25, 0.0000000053166334, 10.002973, 9.9991455 
5.249208e+2, 1.2551542e+2, -1918494.9, -1775118.1, 79176.195, -0.11831937, 0.2597146, -1739997.9, -30025.615, 0.0000005002885, 9.998449, 10.000331 
5.249331e+2, 1.355156e+2, -1715053.9, -1559999.9, -108967.03, 0.05455536, 0.18585183, -1503794.9, 108174.37, 0.000000016983103, 9.998871, 10.000939 
5.249427e+2, 1.4551677e+2, -1615883.3, -1516608.9, -13570.4, -0.16579229, 0.23475978, -1514787.3, -830.4176, 0.0, 9.999122, 10.000439 
5.249573e+2, 1.5551709e+2, -1512326.3, -1415982.6, -22768.389, -0.012050043, 0.22415596, -1410872.9, 5080.465, 0.0, 9.999162, 10.000437 
5.249707e+2, 1.6551726e+2, -1390254.8, -1307210.4, -29777.016, 0.03728631, 0.19832872, -1297636.9, 20313.191, 0.0, 9.999329, 10.00043 
5.2498275e+2, 1.7551737e+2, -1252284.5, -1189695.1, -24848.95, -0.04824328, 0.1631108, -1181029.5, 38916.734, 0.0, 9.999602, 10.000432 
5.2499527e+2, 1.8551742e+2, -1146497.3, -1147139.9, -35043.57, -0.063797794, 0.15428284, -1111773.5, 10170.826, 0.0, 9.999911, 9.999903 
5.2500844e+2, 1.955174e+2, -999162.75, -1023954.06, -35889.68, -0.004277166, 0.16113646, -973588.4, 50355.74, 0.0, 10.000244, 9.999914 
5.2502143e+2, 2.0551701e+2, -882483.44, -947058.6, -36725.418, 0.040963404, 0.14594813, -865870.7, 60075.844, 0.0, 10.000502, 9.999646 
5.250343e+2, 2.1551633e+2, -756346.75, -835869.3, -40093.613, 0.06761866, 0.11009576, -739641.56, 88309.31, 0.0, 10.000697, 9.999642 
5.2504665e+2, 2.2551546e+2, -666556.1, -814730.2, -42803.95, 0.049299154, 0.094534434, -655079.94, 74878.52, 0.0, 10.000956, 9.99899 
5.2505857e+2, 2.3551443e+2, -522199.6, -693328.2, -36429.563, -0.0032384996, 0.09102141, -514767.34, 117201.38, 0.0, 10.001269, 9.999 
5.2507126e+2, 2.455134e+2, -417635.44, -634194.44, -17820.98, -0.007329684, 0.10810108, -416178.72, 117801.016, 0.0, 10.001495, 9.998623 
5.250846e+2, 2.555124e+2, -295686.25, -522010.44, -20825.037, 0.027036471, 0.14002949, -293786.0, 142205.25, 0.0, 10.001649, 9.998647 
5.250974e+2, 2.6551083e+2, -175255.16, -426428.34, -17450.627, 0.006054773, 0.12785178, -174048.53, 163957.28, 0.0, 10.001861, 9.9985285 
5.251098e+2, 2.7550882e+2, -41542.2, -313317.4, -14102.456, -0.05904139, 0.0730919, -40812.38, 199210.88, 0.0, 10.002114, 9.99851 
5.2512324e+2, 2.8550717e+2, 32217.723, -324093.66, -10508.368, -0.035062436, 0.10359091, 32527.367, 174567.5, 0.0, 10.002366, 9.9976425 
5.251373e+2, 2.9550588e+2, 167506.95, -205819.16, -15567.509, 0.058188643, 0.20890488, 168154.98, 212210.78, 0.0, 10.002612, 9.9976635 
5.2514935e+2, 3.0550218e+2, 247019.16, -151649.63, -36672.6, -0.032292616, 0.07487331, 250364.52, 250364.52, 0.0, 10.002863, 9.99758 
5.251614e+2, 3.155002e+2, 392697.28, 94648.73, -1480.9498, -0.087414056, 0.12118122, 392704.63, 392704.63, 0.00000000056215, 10.003106, 9.999155 
5.349194e+2, 1.2550129e+2, -1891157.3, -1717720.0, 90422.555, -0.10681478, 0.22983655, -1679153.6, 30956.166, 0.00000041209, 9.998446, 10.000725 
5.349324e+2, 1.3550194e+2, -1692521.0, -1513933.1, -93340.78, 0.089060985, 0.16761687, -1474053.1, 138048.13, 0.000000018082496, 9.998873, 10.001256 
5.349417e+2, 1.4550322e+2, -1630447.1, -1546640.1, -12267.084, -0.18194729, 0.22302748, -1544881.4, -30793.615, 0.0, 9.99912, 10.000234 
5.3495604e+2, 1.555031e+2, -1525738.9, -1443703.4, -21356.209, -0.049970664, 0.18767302, -1438476.8, -22387.42, 0.0, 9.999161, 10.000247 
5.349698e+2, 1.6550331e+2, -1381958.1, -1289784.6, -19918.127, 0.017665869, 0.16924661, -1285664.6, 32421.5, 0.0, 9.999328, 10.00055 
5.349826e+2, 1.755039e+2, -1244421.4, -1173185.9, -14486.91, -0.018682627, 0.16933037, -1170352.5, 49725.297, 0.0, 9.999601, 10.000546 
5.349955e+2, 1.8550393e+2, -1148688.4, -1151249.5, -22657.35, -0.027224232, 0.15604544, -1127275.4, -5199.7197, 0.0, 9.999909, 9.999875 
5.350087e+2, 1.9550352e+2, -1001261.56, -1028172.8, -23663.434, 0.00552071, 0.12481339, -987495.6, 36583.434, 0.0, 10.000243, 9.9998865 
5.350217e+2, 2.0550323e+2, -888149.4, -958518.3, -29493.71, 0.02477915, 0.12325104, -877422.75, 48658.516, 0.0, 10.000501, 9.999568 
5.3503454e+2, 2.15503e+2, -761308.9, -845874.6, -32529.328, 0.026129166, 0.14408103, -750243.9, 77838.46, 0.0, 10.000696, 9.999574 
5.3504735e+2, 2.2550215e+2, -656250.6, -793135.5, -31165.898, 0.026688397, 0.12432705, -649488.8, 80600.86, 0.0, 10.000955, 9.999139 
5.3506017e+2, 2.3550074e+2, -512587.25, -673280.7, -25033.277, 0.029528208, 0.066842385, -508777.8, 123324.47, 0.0, 10.001268, 9.999138 
5.3507304e+2, 2.4549967e+2, -423262.1, -645953.06, -12192.893, 0.021334734, 0.07818472, -422596.5, 111516.8, 0.0, 10.001495, 9.998543 
5.35086e+2, 2.554989e+2, -300673.0, -532863.25, -14852.862, 0.0024471674, 0.14403298, -299726.75, 136396.19, 0.0, 10.00165, 9.998571 
5.3509915e+2, 2.654974e+2, -169732.64, -415242.4, -8073.1094, -0.008846398, 0.13362855, -169467.45, 168669.8, 0.0, 10.001862, 9.998605 
5.3511244e+2, 2.7549517e+2, -37141.51, -303877.2, -4872.332, -0.0120322015, 0.054163236, -37052.543, 203103.25, 0.0, 10.002113, 9.998576 
5.3512585e+2, 2.8549343e+2, 22819.65, -343154.72, -1609.0793, -0.009672972, 0.077252425, 22826.725, 165000.6, 0.0, 10.002363, 9.997513 
5.3513926e+2, 2.9549208e+2, 159493.81, -222242.94, -6103.933, -0.00747649, 0.19037428, 159591.39, 203782.08, 0.0, 10.00261, 9.997552 
5.351517e+2, 3.0548847e+2, 262396.7, -119251.56, -27569.037, -0.08212144, 0.061357416, 264377.9, 264377.9, 0.0, 10.002861, 9.997804 
5.35165e+2, 3.15487e+2, 392037.13, 94464.32, 4924.2686, -0.030613407, 0.1303869, 392118.56, 392118.56, 0.0000000000003731001, 10.0031, 9.999156 
5.449178e+2, 1.2548746e+2, -1858216.8, -1707537.0, 103573.07, -0.114278704, 0.2148865, -1654800.9, 55443.367, 0.00000036785775, 9.998698, 10.000673 
5.449314e+2, 1.3548817e+2, -1726652.6, -1542132.0, -108186.49, 0.11705449, 0.17181544, -1492208.4, 120027.74, 0.000000024396927, 9.998688, 10.001151 
5.449406e+2, 1.4548954e+2, -1647649.5, -1537990.3, -28716.139, -0.18634798, 0.23226579, -1530925.6, -16703.945, 0.0, 9.99893, 10.000384 
5.449552e+2, 1.5548927e+2, -1493860.5, -1412840.1, -12106.021, -0.057407662, 0.16787416, -1411069.9, 5153.3296, 0.0, 9.999313, 10.000384 
5.4496926e+2, 1.6548944e+2, -1359899.8, -1296619.1, -10360.72, 0.017212754, 0.14674598, -1294966.0, 23254.47, 0.0, 9.999556, 10.000394 
5.449824e+2, 1.7549007e+2, -1244081.4, -1189122.4, -26085.664, -0.00521464, 0.166727, -1178712.8, 41500.254, 0.0, 9.999674, 10.0004015 
5.4499555e+2, 1.8549012e+2, -1151691.8, -1141474.8, -35940.06, -0.011592713, 0.15558195, -1110281.9, 11929.063, 0.0, 9.999841, 9.999975 
5.4500896e+2, 1.9548969e+2, -1023616.44, -1028515.5, -27832.201, 0.013848687, 0.11199896, -998126.2, 26087.56, 0.0, 10.000046, 9.999979 
5.450221e+2, 2.0548937e+2, -922175.75, -981601.94, -29573.393, 0.021261232, 0.10936606, -909966.9, 16249.083, 0.0, 10.000297, 9.999508 
5.4503495e+2, 2.1548918e+2, -781103.25, -861631.3, -31366.73, 0.0069516078, 0.13772075, -770327.5, 57890.19, 0.0, 10.0005865, 9.999518 
5.450481e+2, 2.2548838e+2, -667495.94, -793682.4, -32131.803, 0.013337052, 0.12401144, -659785.2, 70439.52, 0.0, 10.000856, 9.999183 
5.4506147e+2, 2.3548706e+2, -533136.56, -678293.0, -34074.773, 0.039664008, 0.072000034, -525535.7, 106700.414, 0.0, 10.001106, 9.999181 
5.450746e+2, 2.4548598e+2, -434115.9, -646465.0, -21041.303, 0.028197646, 0.07734421, -432051.06, 102195.875, 0.0, 10.001402, 9.998584 
5.450875e+2, 2.554851e+2, -286334.56, -522414.28, -14815.569, -0.016114231, 0.12742282, -285408.4, 150848.83, 0.0, 10.001735, 9.998602 
5.4510087e+2, 2.6548353e+2, -164974.16, -431143.84, -14994.639, -0.023341374, 0.12221542, -164132.1, 174140.11, 0.0, 10.001973, 9.998442 
5.4511464e+2, 2.754814e+2, -45413.3, -324399.1, -29477.506, 0.0016762435, 0.06488695, -42332.74, 197958.64, 0.0, 10.002128, 9.998426 
5.451283e+2, 2.8547964e+2, 30348.021, -322211.16, -20930.38, -0.00045300936, 0.08605261, 31586.246, 173895.72, 0.0, 10.002342, 9.997666 
5.4514164e+2, 2.9547828e+2, 167879.38, -201972.44, -5117.334, -0.029197844, 0.17851864, 167950.17, 212275.81, 0.0, 10.0026, 9.997695 
5.4515433e+2, 3.054747e+2, 254724.92, -129254.14, -29487.23, -0.09978196, 0.0525796, 256976.17, 256976.17, 0.0, 10.002836, 9.997746 
5.451683e+2, 3.154734e+2, 364922.06, 50430.324, -20129.168, -0.016098196, 0.14844763, 366205.2, 366205.2, 0.000000000015387011, 10.003048, 9.9988785 
5.5491626e+2, 1.2547395e+2, -1893065.8, -1780279.3, 94434.81, -0.14529808, 0.21679537, -1726681.0, -16305.775, 0.0000003291145, 9.998701, 10.000173 
5.5493027e+2, 1.3547432e+2, -1763756.1, -1620260.3, -107406.37, 0.13720827, 0.19895186, -1562842.1, 49531.598, 0.000000025104656, 9.9986925, 10.000614 
5.549396e+2, 1.4547575e+2, -1611836.9, -1463756.4, -14257.669, -0.18086383, 0.2623999, -1462396.1, 51962.34, 0.0, 9.998929, 10.000895 
5.549547e+2, 1.5547565e+2, -1461172.9, -1344869.0, 1762.2181, -0.034769036, 0.16561694, -1344842.4, 71512.52, 0.0, 9.999312, 10.000852 
5.54969e+2, 1.6547568e+2, -1391068.3, -1360830.6, -6045.1567, 0.036033507, 0.1317609, -1359666.9, -41313.836, 0.0, 9.999554, 9.999954 
5.54982e+2, 1.754759e+2, -1272921.4, -1248771.0, -21474.771, -0.008407598, 0.15520665, -1236209.3, -15857.388, 0.0, 9.999673, 9.999992 
5.549953e+2, 1.8547595e+2, -1136082.3, -1108910.3, -28407.963, -0.017981773, 0.15253888, -1091006.8, 31343.451, 0.0, 9.999839, 10.000199 
5.55009e+2, 1.9547588e+2, -1008855.75, -997723.8, -20000.34, 0.020213174, 0.122318886, -982529.4, 41818.715, 0.0, 10.000044, 10.000191 
5.550225e+2, 2.054755e+2, -925454.94, -988215.1, -18783.338, 0.029944414, 0.10396319, -920262.9, 6087.7295, 0.0, 10.000295, 9.999463 
5.550356e+2, 2.1547486e+2, -784179.4, -868055.06, -20487.355, 0.009305103, 0.09195362, -779442.7, 48914.2, 0.0, 10.0005865, 9.999475 
5.550489e+2, 2.2547415e+2, -671752.5, -802626.3, -22830.82, 0.008602994, 0.09428311, -667884.0, 62479.434, 0.0, 10.000856, 9.999121 
5.550624e+2, 2.3547341e+2, -536653.25, -685820.2, -24591.26, 0.027218012, 0.10552966, -532703.75, 99666.5, 0.0, 10.001107, 9.999129 
5.550758e+2, 2.4547233e+2, -422939.47, -623304.5, -8794.239, 0.013199192, 0.104606524, -422554.22, 111826.51, 0.0, 10.001402, 9.998743 
5.550891e+2, 2.5547096e+2, -277321.88, -503278.66, -2786.8682, -0.029406248, 0.09072619, -277287.5, 159106.72, 0.0, 10.001733, 9.998734 
5.551027e+2, 2.6546934e+2, -193114.08, -489254.1, -9350.425, -0.03776666, 0.09402258, -192819.14, 145591.5, 0.0, 10.001971, 9.998044 
5.551166e+2, 2.754675e+2, -70356.555, -376696.38, -23287.916, -0.016584173, 0.104324095, -68596.32, 171833.63, 0.0, 10.00213, 9.998067 
5.5513054e+2, 2.854658e+2, 59608.78, -261343.86, -11418.726, -0.0074967337, 0.12875733, 60014.52, 202461.5, 0.0, 10.002341, 9.998085 
5.551445e+2, 2.9546437e+2, 193474.8, -146984.86, 4025.918, -0.011285611, 0.1726932, 193522.39, 237983.31, 0.0, 10.002592, 9.998076 
5.5515736e+2, 3.054608e+2, 230783.72, -177127.39, -21828.121, -0.08841398, 0.04806634, 231948.45, 231948.45, 0.0, 10.002828, 9.997422 
5.55171e+2, 3.1545955e+2, 327064.3, -27854.098, -14458.216, -0.041163445, 0.17657599, 327652.3, 327652.3, 0.0000000020600701, 10.003046, 9.998342 
5.649148e+2, 1.2546006e+2, -1958832.1, -1810772.5, 63101.086, -0.13612013, 0.22686921, -1787528.8, -77018.01, 0.00000027083397, 9.998245, 10.000182 
5.649291e+2, 1.3546014e+2, -1743495.4, -1619796.5, -90152.484, 0.14765207, 0.1878726, -1572317.0, 40195.18, 0.000000017878008, 9.998871, 10.000531 
5.6493855e+2, 1.4546154e+2, -1570483.1, -1438230.5, -3681.4788, -0.19426468, 0.25241235, -1438128.1, 76368.75, 0.0, 9.99919, 10.000943 
5.6495416e+2, 1.554616e+2, -1477543.6, -1347414.3, -23466.914, -0.014521233, 0.1636445, -1343311.8, 73179.836, 0.0, 9.999178, 10.000898 
5.6496865e+2, 1.6546163e+2, -1423880.9, -1381205.4, -29777.836, 0.061396334, 0.12947267, -1365909.5, -47419.746, 0.0, 9.999349, 9.999912 
5.649817e+2, 1.7546171e+2, -1276047.1, -1255001.1, -15761.148, -0.0036620202, 0.14571646, -1246572.9, -26082.838, 0.0, 9.999673, 9.999949 
5.649951e+2, 1.8546173e+2, -1129668.8, -1112025.8, -21798.154, -0.02000467, 0.14287391, -1097331.8, 25157.31, 0.0, 9.999911, 10.000143 
5.650092e+2, 1.9546165e+2, -1007431.4, -1002718.6, -34618.37, 0.023466578, 0.11811172, -970376.5, 54110.77, 0.0, 10.000079, 10.000139 
5.650228e+2, 2.0546126e+2, -916425.9, -977962.94, -34616.91, 0.035269797, 0.099639036, -900879.9, 25609.82, 0.0, 10.000332, 9.999516 
5.6503624e+2, 2.1546063e+2, -770599.6, -856195.06, -29314.412, 0.0137983095, 0.08346981, -761522.7, 66972.9, 0.0, 10.000657, 9.999521 
5.650498e+2, 2.2545995e+2, -662817.0, -805641.25, -30273.223, 0.0053013447, 0.088023365, -656665.25, 73837.01, 0.0, 10.00095, 9.999055 
5.650634e+2, 2.354592e+2, -525292.1, -687243.7, -32588.49, 0.010184391, 0.10656647, -518980.56, 113529.055, 0.0, 10.001216, 9.999067 
5.6507707e+2, 2.454581e+2, -421899.4, -619709.8, -23631.426, -0.0009307964, 0.10625619, -419115.47, 115404.7, 0.0, 10.001395, 9.99877 
5.650907e+2, 2.5545672e+2, -309298.25, -515949.7, -27309.918, -0.026663532, 0.08779904, -305750.03, 130783.31, 0.0, 10.001501, 9.998758 
5.651046e+2, 2.654551e+2, -224448.4, -510308.47, -21730.59, -0.035779394, 0.09395915, -222805.92, 115743.96, 0.0, 10.001782, 9.997989 
5.651186e+2, 2.754533e+2, -62375.625, -377956.7, -11077.798, -0.030217893, 0.11270202, -61987.242, 178582.4, 0.0, 10.002209, 9.99802 
5.6513274e+2, 2.8545162e+2, 68262.47, -253611.52, -9849.236, -0.01817538, 0.13809353, 68563.57, 211150.27, 0.0, 10.002386, 9.9981165 
5.65147e+2, 2.9545015e+2, 160174.13, -159641.16, -22413.688, -0.0032055129, 0.17822044, 161737.31, 206337.5, 0.0, 10.002349, 9.998106 
5.651601e+2, 3.0544677e+2, 205368.72, -176328.36, -34355.234, -0.08081949, 0.061256636, 208436.27, 208436.27, 0.0, 10.002597, 9.997539 
5.651739e+2, 3.1544548e+2, 325969.2, -39074.277, 1449.932, -0.0523229, 0.17775695, 325974.94, 325974.94, 0.000000017271022, 10.003084, 9.998246 
5.749135e+2, 1.254458e+2, -1921423.0, -1733605.5, 73136.945, -0.0915872, 0.24340057, -1708485.4, 2165.2097, 0.00000019303324, 9.998248, 10.0007105 
5.7492805e+2, 1.3544565e+2, -1716248.8, -1564331.6, -66512.305, 0.14815098, 0.1388704, -1539326.9, 73324.37, 0.000000007774616, 9.998873, 10.000912 
5.749374e+2, 1.4544699e+2, -1600737.9, -1500647.0, -3718.653, -0.22729324, 0.20242515, -1500509.1, 14127.501, 0.0, 9.999188, 10.000516 
5.749535e+2, 1.554471e+2, -1504977.1, -1404128.6, -23459.64, 0.0023053335, 0.16106035, -1398938.5, 17694.928, 0.0, 9.999177, 10.000509 
5.7496834e+2, 1.6544725e+2, -1399117.8, -1329662.4, -17819.635, 0.09224579, 0.13926828, -1325357.4, -6726.636, 0.0, 9.999348, 10.000267 
5.749815e+2, 1.7544752e+2, -1253428.6, -1207984.6, -3782.9768, 0.0087028155, 0.13864544, -1207671.9, 12955.521, 0.0, 9.999672, 10.000273 
5.7499504e+2, 1.8544744e+2, -1153752.9, -1161869.8, -15506.127, -0.017966004, 0.12691103, -1141782.9, -19155.154, 0.0, 9.99991, 9.999802 
5.750092e+2, 1.9544698e+2, -1029907.1, -1049289.9, -27988.455, 0.023224428, 0.09937488, -1009979.6, 14651.62, 0.0, 10.000078, 9.999821 
5.750232e+2, 2.0544668e+2, -906243.3, -956653.7, -22588.887, 0.03663319, 0.096340135, -897602.4, 29030.842, 0.0, 10.000331, 9.999662 
5.75037e+2, 2.154465e+2, -761078.6, -836274.75, -17234.639, 0.019932857, 0.111462995, -757316.75, 71317.055, 0.0, 10.000656, 9.999659 
5.750507e+2, 2.2544572e+2, -668088.94, -816274.44, -20411.52, 0.0029397707, 0.10476989, -665328.8, 65312.23, 0.0, 10.000949, 9.998982 
5.750644e+2, 2.3544444e+2, -530565.56, -698064.3, -22842.883, -0.011548281, 0.07583112, -527506.2, 105147.83, 0.0, 10.001215, 9.998993 
5.750783e+2, 2.4544331e+2, -429132.63, -634776.94, -19811.78, -0.014640742, 0.082634665, -427241.34, 107423.83, 0.0, 10.001395, 9.998667 
5.7509243e+2, 2.5544235e+2, -315151.78, -528486.6, -22859.566, -0.009045543, 0.11724549, -312729.78, 123944.875, 0.0, 10.001503, 9.998672 
5.751065e+2, 2.6544082e+2, -205350.61, -470494.88, -6029.6606, -0.01863671, 0.12131452, -205213.55, 133476.4, 0.0, 10.001781, 9.998263 
5.7512075e+2, 2.7543882e+2, -46226.37, -342442.44, 3874.8179, -0.040264055, 0.09165084, -46175.69, 194534.84, 0.0, 10.002199, 9.998268 
5.75135e+2, 2.8543708e+2, 43209.88, -303599.3, -11509.694, -0.033254646, 0.11570658, 43591.434, 186320.08, 0.0, 10.002377, 9.997778 
5.751493e+2, 2.9543564e+2, 138939.61, -204239.55, -22849.844, -0.0046844026, 0.194165, 140454.33, 185197.75, 0.0, 10.002351, 9.9978 
5.751627e+2, 3.0543253e+2, 242551.9, -99120.12, -16411.693, -0.07764369, 0.09094016, 243338.4, 243338.4, 0.00000000021282408, 10.002597, 9.998069 
5.751771e+2, 3.1543127e+2, 346428.47, 6909.1016, 16386.803, -0.053553943, 0.1558877, 347217.56, 347217.56, 0.0000000699572, 10.003069, 9.99857 
5.8491206e+2, 1.2543094e+2, -1854946.8, -1674086.3, 51917.56, -0.075787336, 0.22822836, -1660242.5, 50553.46, 0.00000011738098, 9.998587, 10.000955 
5.849271e+2, 1.3543092e+2, -1737897.4, -1560861.0, -94210.734, 0.17466065, 0.12201143, -1520107.6, 92686.41, 0.0000000014227642, 9.998665, 10.001035 
5.849364e+2, 1.4543225e+2, -1641955.8, -1533174.6, -34538.17, -0.23238431, 0.1848239, -1523135.1, -8355.737, 0.0, 9.998961, 10.000401 
5.849527e+2, 1.5543224e+2, -1484279.8, -1405360.4, -31711.953, -0.005092923, 0.1434457, -1394196.8, 22581.678, 0.0, 9.999369, 10.000408 
5.8496773e+2, 1.6543244e+2, -1357946.4, -1297849.5, -25879.902, 0.09018072, 0.12613477, -1288241.0, 30534.506, 0.0, 9.999579, 10.000373 
5.849812e+2, 1.754329e+2, -1253487.1, -1196928.6, -30863.955, 0.017818091, 0.13349274, -1183347.4, 37422.57, 0.0, 9.999625, 10.000371 
5.8499503e+2, 1.8543287e+2, -1164936.1, -1176049.9, -36667.227, -0.008565001, 0.126677, -1133407.1, -10637.232, 0.0, 9.999872, 9.9997225 
5.850094e+2, 1.9543234e+2, -1004703.06, -1045439.9, -29727.838, 0.023749236, 0.10160279, -989035.2, 35739.383, 0.0, 10.000288, 9.999745 
5.850236e+2, 2.0543201e+2, -882796.4, -947019.4, -25610.582, 0.034414705, 0.09868203, -873834.2, 52942.96, 0.0, 10.0005, 9.999647 
5.850375e+2, 2.154318e+2, -779259.0, -846476.44, -32452.506, 0.020081954, 0.11182984, -766148.2, 62629.613, 0.0, 10.000539, 9.999645 
5.850515e+2, 2.2543104e+2, -700811.9, -829719.8, -33902.145, -0.0006362113, 0.10663049, -692439.56, 38345.203, 0.0, 10.000713, 9.999003 
5.8506536e+2, 2.3542982e+2, -559996.56, -710269.7, -29620.648, -0.024156112, 0.08182162, -554368.75, 78428.305, 0.0, 10.001004, 9.99901 
5.850796e+2, 2.4542864e+2, -447299.16, -650603.4, -24308.324, -0.02236704, 0.08425952, -444433.1, 90375.86, 0.0, 10.001302, 9.998603 
5.85094e+2, 2.5542748e+2, -304667.1, -529443.06, -24620.54, -0.00036057743, 0.10711266, -302001.94, 134818.55, 0.0, 10.001601, 9.998618 
5.8510834e+2, 2.6542604e+2, -210801.25, -461123.38, -14442.195, -0.010869923, 0.113407634, -209970.78, 128864.266, 0.0, 10.001693, 9.99837 
5.851225e+2, 2.7542424e+2, -126254.625, -369966.34, -16908.215, -0.04759601, 0.09831284, -125087.16, 115765.375, 0.0, 10.001602, 9.998366 
5.8513695e+2, 2.854224e+2, -34954.4, -350137.56, -23129.25, -0.045234516, 0.112888746, -33266.133, 109605.266, 0.0, 10.001878, 9.997698 
5.851516e+2, 2.9542062e+2, 150643.63, -206483.17, -15975.466, -0.013009414, 0.16070952, 151356.83, 196247.06, 0.0, 10.002465, 9.997728 
5.851653e+2, 3.0541775e+2, 267782.2, -68614.91, -18345.156, -0.07771684, 0.07873973, 268779.66, 268779.66, 0.000000006848287, 10.002691, 9.998233 
5.851799e+2, 3.1541675e+2, 280143.47, -24285.611, -14475.522, -0.043985173, 0.15399025, 280830.22, 280830.22, 0.00000018333391, 10.002611, 9.998575 
5.9491044e+2, 1.2541547e+2, -1857905.3, -1680510.4, 37768.074, -0.093306765, 0.17890422, -1672804.1, 38142.863, 0.000000058921596, 9.998589, 10.000909 
5.949263e+2, 1.3541594e+2, -1747495.8, -1581612.1, -89869.27, 0.22678456, 0.13683292, -1542259.9, 70680.72, 0.000000000010343272, 9.998668, 10.000893 
5.9493554e+2, 1.4541732e+2, -1628044.9, -1504144.3, -18837.143, -0.20986095, 0.199469, -1501343.8, 13581.813, 0.0, 9.99896, 10.000602 
5.9495175e+2, 1.5541704e+2, -1470786.6, -1377708.4, -16836.227, -0.037478622, 0.111162394, -1374756.6, 42169.957, 0.0, 9.99937, 10.000598 
5.9496695e+2, 1.6541721e+2, -1368454.9, -1319907.1, -24405.729, 0.054193225, 0.08992094, -1309759.3, 9164.894, 0.0, 9.999579, 10.000221 
5.949809e+2, 1.7541784e+2, -1262885.9, -1216639.0, -28612.814, 0.023046117, 0.12987441, -1202974.0, 17943.74, 0.0, 9.999625, 10.000236 
5.949951e+2, 1.8541801e+2, -1152145.4, -1149450.5, -21098.13, 0.007609338, 0.14208592, -1129656.9, -6741.2505, 0.0, 9.999871, 9.999906 
5.950096e+2, 1.9541778e+2, -992805.3, -1020977.1, -14692.307, 0.02473018, 0.12474047, -986537.44, 38379.734, 0.0, 10.000289, 9.999913 
5.95024e+2, 2.0541726e+2, -895108.94, -972642.2, -24280.271, 0.02828744, 0.106530994, -888133.0, 38788.348, 0.0, 10.0005, 9.999472 
5.95038e+2, 2.1541654e+2, -790604.7, -870346.5, -30617.473, 0.0138228005, 0.084878504, -780205.1, 48722.52, 0.0, 10.00054, 9.999481 
5.950521e+2, 2.254159e+2, -692908.7, -813519.06, -23119.342, -0.0061710947, 0.09342952, -688628.9, 42304.496, 0.0, 10.000714, 9.999114 
5.9506637e+2, 2.3541532e+2, -552789.0, -695210.94, -18747.371, -0.02837345, 0.12351811, -550362.56, 82576.15, 0.0, 10.001004, 9.999114 
5.950808e+2, 2.4541402e+2, -449111.44, -654157.56, -13215.823, -0.024674285, 0.110655084, -448263.16, 86688.39, 0.0, 10.001301, 9.99858 
5.950956e+2, 2.554121e+2, -306521.75, -533023.1, -14046.788, -0.00058596686, 0.059283696, -305653.94, 131316.67, 0.0, 10.001599, 9.998594 
5.9511e+2, 2.6541066e+2, -214603.53, -469261.7, -17992.9, -0.012538847, 0.07147962, -213338.53, 125646.45, 0.0, 10.001693, 9.998315 
5.95124e+2, 2.7540958e+2, -128982.664, -377031.94, -19385.232, -0.0534502, 0.1301745, -127476.836, 113518.95, 0.0, 10.001607, 9.998316 
5.951387e+2, 2.8540763e+2, -23323.73, -326233.66, -1580.4454, -0.05580246, 0.12818916, -23315.484, 119699.625, 0.0, 10.001879, 9.997862 
5.951539e+2, 2.9540506e+2, 159083.66, -185625.73, 4462.9575, -0.028691132, 0.08216622, 159141.42, 204181.86, 0.0, 10.002451, 9.997879 
5.95168e+2, 3.0540246e+2, 253026.97, -95752.87, -21610.285, -0.08128841, 0.028607834, 254360.83, 254360.83, 0.000000033052434, 10.002676, 9.9980545 
5.951827e+2, 3.1540197e+2, 260022.66, -66583.086, -19202.094, -0.025683228, 0.17285268, 261147.72, 261147.72, 0.00000037488923, 10.002613, 9.998284 
6.04909e+2, 1.2540053e+2, -1882393.9, -1691737.6, 36522.86, -0.087441705, 0.17762697, -1684980.6, 26112.77, 0.000000021349177, 9.99842, 10.000913 
6.049253e+2, 1.3540092e+2, -1700990.8, -1570382.1, -68986.555, 0.24618329, 0.13842511, -1540692.8, 72394.914, 0.0, 9.999035, 10.000792 
6.049347e+2, 1.454022e+2, -1576172.1, -1477674.4, -10650.561, -0.20657486, 0.19687727, -1476535.9, 38537.574, 0.0, 9.9993105, 10.000614 
6.049511e+2, 1.55402e+2, -1489074.1, -1384777.1, -23698.535, -0.029786423, 0.11506289, -1379644.9, 37429.066, 0.0, 9.999237, 10.000613 
6.049665e+2, 1.6540217e+2, -1394727.3, -1335338.1, -31116.732, 0.05972344, 0.09418041, -1322020.9, -2949.3608, 0.0, 9.999413, 10.0001955 
6.049805e+2, 1.7540275e+2, -1240090.4, -1208190.8, -26227.34, 0.021296578, 0.12834786, -1193444.1, 27621.658, 0.0, 9.999793, 10.000213 
6.0499495e+2, 1.8540291e+2, -1134166.3, -1135652.0, -19811.05, 0.0051091705, 0.13919516, -1115084.1, 7979.2456, 0.0, 9.999972, 9.999951 
6.0500985e+2, 1.9540273e+2, -1034383.75, -1036568.0, -23962.547, 0.026758472, 0.12441875, -1011488.44, 13575.543, 0.0, 9.999984, 9.999953 
6.0502434e+2, 2.0540218e+2, -938675.94, -1003636.9, -33309.434, 0.029219849, 0.10458365, -924632.25, 2436.4363, 0.0, 10.000243, 9.999382 
6.050386e+2, 2.154013e+2, -770974.2, -870204.9, -33313.258, 0.0087605715, 0.077643625, -760827.9, 68248.91, 0.0, 10.000714, 9.999398 
6.050529e+2, 2.254006e+2, -654726.25, -788410.06, -28284.041, -0.008081108, 0.080804735, -648988.4, 82094.53, 0.0, 10.000948, 9.999174 
6.050674e+2, 2.3540004e+2, -552778.3, -689032.3, -27569.725, -0.019139746, 0.10537173, -547411.25, 85676.19, 0.0, 10.0009775, 9.999169 
6.050821e+2, 2.453988e+2, -476068.94, -671706.7, -19778.836, -0.019990923, 0.09966295, -474089.34, 61010.27, 0.0, 10.001135, 9.998539 
6.05097e+2, 2.5539702e+2, -338724.56, -553186.75, -22542.912, -0.013706828, 0.06707801, -336380.63, 100737.51, 0.0, 10.001398, 9.998553 
6.051116e+2, 2.6539555e+2, -217767.1, -473410.1, -32076.406, -0.025734924, 0.07686779, -213803.8, 125329.4, 0.0, 10.001682, 9.998291 
6.0512584e+2, 2.7539423e+2, -75754.04, -353474.3, -30897.53, -0.052182615, 0.11401407, -72358.086, 168787.72, 0.0, 10.001982, 9.998298 
6.0514075e+2, 2.8539225e+2, 5734.211, -305020.8, -11654.577, -0.051971547, 0.10862693, 6170.692, 149335.66, 0.0, 10.002047, 9.997927 
6.0515606e+2, 2.953899e+2, 83725.484, -215663.98, -13324.685, -0.031176079, 0.076433375, 84317.34, 129505.63, 0.00000000003092486, 10.001905, 9.997935 
6.051704e+2, 3.0538753e+2, 178226.27, -132991.06, -33595.633, -0.07869985, 0.0437887, 181811.58, 181811.58, 0.00000008707832, 10.002168, 9.998043 
6.0518557e+2, 3.1538653e+2, 280249.63, -65764.984, -21312.408, -0.013025895, 0.13897264, 281557.4, 281557.4, 0.0000006525611, 10.00279, 9.998204 
6.149077e+2, 1.253861e+2, -1879662.3, -1685354.9, 39829.99, -0.061749235, 0.22428298, -1677507.3, 33727.94, 0.0000000039655865, 9.998417, 10.0009575 
6.1492413e+2, 1.3538589e+2, -1705002.6, -1579628.9, -45797.887, 0.23154615, 0.12695245, -1564681.4, 48553.73, 0.0, 9.999038, 10.000728 
6.1493385e+2, 1.4538693e+2, -1588638.4, -1503972.0, -13277.316, -0.22420843, 0.17642139, -1501938.6, 13284.638, 0.0, 9.999311, 10.000433 
6.149508e+2, 1.5538716e+2, -1500744.4, -1409015.0, -25847.895, 0.018023208, 0.15549223, -1402232.9, 14987.473, 0.0, 9.999237, 10.000447 
6.149664e+2, 1.6538736e+2, -1387830.0, -1321024.5, -16896.307, 0.107243784, 0.13965663, -1316994.3, 2223.2542, 0.0, 9.999412, 10.000295 
6.149802e+2, 1.7538758e+2, -1233334.0, -1194692.1, -12445.942, 0.012204313, 0.12900147, -1191030.5, 30183.602, 0.0, 9.999795, 10.000304 
6.149947e+2, 1.853875e+2, -1140689.3, -1149678.3, -19691.576, -0.016975217, 0.11776292, -1124985.8, -1772.371, 0.0, 9.999974, 9.999854 
6.1500984e+2, 1.9538723e+2, -1040737.8, -1050020.5, -22947.432, 0.0291711, 0.10073946, -1021967.06, 3247.9778, 0.0, 9.999985, 9.999861 
6.150247e+2, 2.0538673e+2, -938969.0, -1004198.94, -15834.285, 0.03674055, 0.09297733, -935328.5, -8109.3726, 0.0, 10.000243, 9.999378 
6.150392e+2, 2.1538611e+2, -771301.0, -870639.0, -16318.261, 0.004577837, 0.08984672, -768689.06, 60536.18, 0.0, 10.000713, 9.999395 
6.150539e+2, 2.2538516e+2, -654341.56, -787316.1, -27397.607, -0.0067663705, 0.0690799, -648917.9, 82315.336, 0.0, 10.000946, 9.999183 
6.150686e+2, 2.3538397e+2, -551831.56, -687614.44, -26210.717, 0.0027603332, 0.029107522, -546947.7, 86295.26, 0.0, 10.000979, 9.999178 
6.1508334e+2, 2.45383e+2, -480040.8, -680541.44, -10041.6, -0.008956476, 0.051943503, -479539.16, 55713.832, 0.0, 10.001137, 9.998478 
6.1509806e+2, 2.5538224e+2, -343472.4, -562606.94, -12668.931, -0.040063754, 0.12732756, -342742.38, 94520.9, 0.0, 10.001396, 9.998489 
6.1511296e+2, 2.6538062e+2, -217661.13, -472358.3, -21090.092, -0.051020354, 0.12757578, -215926.6, 123353.21, 0.0, 10.001678, 9.998301 
6.151279e+2, 2.753782e+2, -75528.664, -351933.94, -20365.818, -0.04424807, 0.05403121, -74036.15, 167265.95, 0.0, 10.001977, 9.998311 
6.1514294e+2, 2.853763e+2, 3067.0903, -309727.03, -16939.928, -0.034309834, 0.057056427, 3981.8276, 147302.39, 0.0, 10.002043, 9.997897 
6.15158e+2, 2.9537502e+2, 81458.39, -220673.42, -17458.256, -0.023339154, 0.13668872, 82463.84, 127798.09, 0.0000000010306047, 10.001905, 9.997901 
6.151726e+2, 3.0537286e+2, 187376.42, -113054.984, -10544.197, -0.07303342, 0.11798904, 187746.03, 187746.03, 0.00000016756015, 10.002163, 9.998182 
6.151884e+2, 3.153705e+2, 285000.7, -51491.79, -342.6654, -0.0071964776, 0.061718863, 285001.03, 285001.03, 0.000001002472, 10.002771, 9.998312 
6.249063e+2, 1.2537123e+2, -1842578.6, -1675628.9, 34675.336, -0.049484044, 0.22979589, -1668713.3, 42666.992, 0.00000000008306351, 9.998707, 10.000884 
6.249232e+2, 1.353708e+2, -1709424.4, -1599309.6, -38431.207, 0.23116094, 0.12937225, -1587223.4, 26159.203, 0.0, 9.999083, 10.000571 
6.249331e+2, 1.4537165e+2, -1583889.9, -1513109.3, -22174.295, -0.23111966, 0.17009012, -1506736.3, 8636.971, 0.0, 9.999393, 10.000331 
6.2495035e+2, 1.5537195e+2, -1456882.4, -1399135.0, -29506.527, 0.031955052, 0.16570157, -1386725.3, 30644.586, 0.0, 9.999586, 10.000346 
6.2496614e+2, 1.6537207e+2, -1343976.4, -1304113.6, -16689.258, 0.12605122, 0.15049261, -1298049.0, 21318.379, 0.0, 9.99973, 10.0002575 
6.2498015e+2, 1.753721e+2, -1229795.0, -1197464.5, -23074.336, 0.022914788, 0.12508737, -1185456.4, 35909.055, 0.0, 9.999838, 10.000264 
6.2499475e+2, 1.8537192e+2, -1132728.6, -1153664.5, -36870.383, -0.014224445, 0.10672798, -1104869.0, 18496.87, 0.0, 10.000063, 9.999784 
6.2500995e+2, 1.9537155e+2, -986635.3, -1031501.0, -38356.42, 0.023398506, 0.08958644, -964633.4, 60734.95, 0.0, 10.000389, 9.999793 
6.25025e+2, 2.053711e+2, -902110.44, -986598.06, -29041.049, 0.030756827, 0.08741461, -893091.0, 34281.285, 0.0, 10.000497, 9.999376 
6.250398e+2, 2.1537057e+2, -813906.75, -891349.94, -29430.264, 0.005655878, 0.09457341, -803991.94, 25385.592, 0.0, 10.000422, 9.999393 
6.250547e+2, 2.2536959e+2, -697719.94, -808349.94, -38564.254, -0.0017839333, 0.07033804, -685603.9, 45781.85, 0.0, 10.0006485, 9.999182 
6.250697e+2, 2.3536822e+2, -529458.94, -676777.4, -38529.38, 0.008454531, 0.015477873, -519990.6, 113405.97, 0.0, 10.001133, 9.999179 
6.250846e+2, 2.4536724e+2, -455706.5, -670418.8, -27122.004, -0.004244148, 0.03739896, -452333.47, 83073.266, 0.0, 10.00131, 9.998464 
6.250994e+2, 2.5536656e+2, -369788.1, -576634.9, -25748.902, -0.037832923, 0.12264851, -366631.0, 70785.35, 0.0, 10.001221, 9.998477 
6.251145e+2, 2.6536503e+2, -261668.86, -487894.1, -22344.02, -0.049972586, 0.12774661, -259483.1, 79949.28, 0.0, 10.001351, 9.998352 
6.251297e+2, 2.7536267e+2, -116743.984, -366179.13, -19699.94, -0.042708594, 0.05633148, -115197.7, 126256.51, 0.0, 10.001669, 9.998362 
6.251449e+2, 2.853608e+2, -20884.117, -318288.8, -24754.383, -0.033484045, 0.056979112, -18837.775, 124634.805, 0.0, 10.001865, 9.997923 
6.251599e+2, 2.9535946e+2, 91359.45, -213159.2, -20599.992, -0.025014598, 0.12840521, 92746.68, 138233.38, 0.000000004235602, 10.001962, 9.997926 
6.251748e+2, 3.0535758e+2, 179414.1, -110486.03, -115.46357, -0.06786951, 0.13478668, 179414.14, 179414.14, 0.000000262113, 10.002081, 9.998239 
6.2519103e+2, 3.1535506e+2, 209579.94, -79190.56, 1421.2542, 0.0103891995, 0.056746498, 209586.94, 209586.94, 0.0000013873902, 10.002216, 9.998388 
6.34905e+2, 1.2535584e+2, -1855695.6, -1703189.4, 26956.688, -0.05585565, 0.1891491, -1698564.9, 12964.223, 0.0, 9.998709, 10.000694 
6.3492244e+2, 1.3535574e+2, -1726506.0, -1635126.0, -23889.635, 0.24506553, 0.14644028, -1629257.4, -15727.498, 0.0, 9.9990835, 10.000325 
6.349326e+2, 1.4535636e+2, -1585888.0, -1517472.5, -14851.566, -0.22732113, 0.17896679, -1514387.8, 1135.4436, 0.0, 9.999393, 10.000301 
6.349497e+2, 1.5535633e+2, -1458965.3, -1404124.5, -22706.85, 0.010358864, 0.14488696, -1395943.3, 21578.98, 0.0, 9.999588, 10.000312 
6.349657e+2, 1.6535632e+2, -1356244.5, -1330081.3, -13148.246, 0.114072196, 0.12557995, -1324615.5, -5094.26, 0.0, 9.999732, 10.000078 
6.3498026e+2, 1.7535633e+2, -1241834.5, -1222566.0, -18915.408, 0.052955095, 0.11682346, -1210972.6, 10546.99, 0.0, 9.999838, 10.0000925 
6.3499504e+2, 1.8535613e+2, -1136214.1, -1160803.5, -24882.129, 0.013283835, 0.106684424, -1120754.9, 2765.7463, 0.0, 10.000062, 9.999736 
6.350101e+2, 1.9535571e+2, -989565.25, -1037890.0, -26736.014, 0.009106454, 0.090953715, -977691.06, 47832.773, 0.0, 10.00039, 9.999748 
6.3502526e+2, 2.0535523e+2, -901981.4, -986733.6, -32285.537, 0.01048017, 0.08774309, -891083.75, 36444.426, 0.0, 10.000499, 9.999375 
6.350403e+2, 2.1535467e+2, -813813.94, -891734.25, -31681.781, 0.011270249, 0.091671616, -802558.25, 26975.26, 0.0, 10.000423, 9.999391 
6.350554e+2, 2.2535385e+2, -698472.0, -810015.25, -20450.816, 0.0062411604, 0.08383066, -694840.7, 36699.676, 0.0, 10.0006485, 9.99917 
6.350707e+2, 2.3535281e+2, -530446.6, -678419.2, -21106.389, -0.0019170432, 0.06261627, -527495.0, 106053.46, 0.0, 10.001131, 9.999168 
6.350859e+2, 2.4535155e+2, -453397.6, -665465.06, -30714.678, -0.0063525513, 0.055410925, -449038.66, 86522.125, 0.0, 10.001309, 9.998498 
6.351009e+2, 2.5535008e+2, -366495.6, -570526.06, -28588.89, -0.008444212, 0.056852095, -362565.4, 75011.41, 0.0, 10.001224, 9.998518 
6.351161e+2, 2.653488e+2, -255498.19, -475419.75, -10374.478, -0.023737645, 0.07977331, -255009.88, 84580.72, 0.0, 10.001352, 9.998437 
6.3513136e+2, 2.753476e+2, -111900.836, -354717.66, -8082.387, -0.049010504, 0.11571631, -111632.1, 129970.47, 0.0, 10.001662, 9.998444 
6.351466e+2, 2.8534567e+2, -16371.234, -306971.28, -21477.96, -0.050733875, 0.104469776, -14792.397, 128828.98, 0.0, 10.001857, 9.998005 
6.351618e+2, 2.9534322e+2, 96222.36, -201749.31, -16984.941, -0.034998387, 0.058437154, 97187.41, 142832.39, 0.000000008608103, 10.001956, 9.998007 
6.3517696e+2, 3.0534175e+2, 177158.42, -114133.67, 5083.4106, -0.061980806, 0.100109175, 177247.11, 177247.11, 0.00000035003856, 10.002076, 9.998217 
6.3519347e+2, 3.1534022e+2, 211652.27, -73505.07, 5091.453, 0.035448086, 0.12103858, 211743.16, 211743.16, 0.0000017531552, 10.00221, 9.998431 
6.4490366e+2, 1.2533997e+2, -1838094.3, -1697410.6, -27313.498, -0.06358973, 0.16421299, -1692293.9, 19390.037, 0.0, 9.99884, 10.0006695 
6.4492166e+2, 1.3534015e+2, -1713889.6, -1636467.9, -42400.465, 0.25595567, 0.15551728, -1617765.1, -4082.4238, 0.0, 9.999202, 10.000259 
6.4493215e+2, 1.4534067e+2, -1568206.8, -1507661.3, -31277.006, -0.21391474, 0.18050814, -1494406.0, 21271.004, 0.0, 9.99951, 10.000313 
6.449493e+2, 1.5534063e+2, -1436903.8, -1392858.3, -36965.395, 0.009828203, 0.14304397, -1371852.6, 45823.43, 0.0, 9.999738, 10.000317 
6.4496547e+2, 1.653405e+2, -1336227.1, -1333333.3, -26360.0, 0.10871409, 0.120394, -1308380.5, 11295.275, 0.0, 9.999926, 9.999963 
6.4498025e+2, 1.7534035e+2, -1215900.4, -1223002.8, -27831.145, 0.05330865, 0.106892936, -1191394.8, 30281.248, 0.0, 10.0000725, 9.999976 
6.449952e+2, 1.8534015e+2, -1120529.1, -1158245.4, -28308.195, 0.017646587, 0.10494834, -1105372.8, 18304.527, 0.0, 10.000192, 9.999691 
6.4501053e+2, 1.953399e+2, -1006684.0, -1051053.3, -30503.355, 0.014773041, 0.109654404, -991151.1, 34528.42, 0.0, 10.000295, 9.999704 
6.4502573e+2, 2.0533937e+2, -900121.2, -985718.1, -39408.727, 0.0132785505, 0.104778975, -884741.0, 42943.273, 0.0, 10.000511, 9.999375 
6.450408e+2, 2.1533859e+2, -755075.06, -863470.94, -38533.777, 0.0078496, 0.08710757, -742772.8, 86918.45, 0.0, 10.000828, 9.99939 
6.450561e+2, 2.253378e+2, -655111.75, -791493.6, -23740.633, 0.0013397301, 0.08318625, -651097.3, 80600.54, 0.0, 10.0009575, 9.999148 
6.450716e+2, 2.35337e+2, -561681.44, -695522.2, -25421.48, -0.004365686, 0.08806268, -557015.6, 76688.43, 0.0, 10.000925, 9.999149 
6.4508706e+2, 2.453357e+2, -483407.22, -669357.44, -37559.43, -0.003573493, 0.07153002, -476107.3, 59609.195, 0.0, 10.001058, 9.998592 
6.451023e+2, 2.5533393e+2, -344045.38, -549490.5, -31536.275, 0.00199637, 0.03327563, -339313.47, 98420.92, 0.0, 10.001334, 9.99861 
6.451175e+2, 2.6533264e+2, -250479.52, -476410.13, -15981.127, -0.015933229, 0.057236943, -249354.69, 90393.16, 0.0, 10.001402, 9.998406 
6.451328e+2, 2.753318e+2, -168195.33, -384270.03, -21836.414, -0.05306866, 0.12901908, -166010.64, 75747.05, 0.0, 10.0012865, 9.998422 
6.451482e+2, 2.8532997e+2, -65219.27, -308726.16, -29430.262, -0.051778782, 0.11676435, -61712.816, 82062.87, 0.0, 10.001428, 9.998199 
6.4516383e+2, 2.953274e+2, 84919.41, -186860.25, -17644.018, -0.019095344, 0.037945133, 86060.08, 131859.73, 0.000000011710588, 10.001791, 9.998188 
6.451791e+2, 3.0532613e+2, 157077.69, -134206.92, 34.10407, -0.047397684, 0.101489946, 157077.69, 157077.69, 0.00000040808163, 10.001984, 9.998123 
6.4519554e+2, 3.1532454e+2, 187710.45, -83652.81, -6526.2114, 0.027207682, 0.12763947, 187867.31, 187867.31, 0.0000020409286, 10.002039, 9.998444 
6.5490234e+2, 1.2532364e+2, -1827580.1, -1676180.1, -36474.445, -0.07614383, 0.1545148, -1667851.1, 43993.9, 0.0, 9.998843, 10.000814 
6.549209e+2, 1.3532403e+2, -1705619.8, -1619380.0, -29158.219, 0.26257244, 0.15584458, -1610446.8, 3394.033, 0.0, 9.999201, 10.000377 
6.5493184e+2, 1.4532456e+2, -1564703.3, -1500347.4, -23089.545, -0.19212227, 0.17365047, -1492920.4, 22914.361, 0.0, 9.999509, 10.000363 
6.549493e+2, 1.5532482e+2, -1433247.6, -1385562.6, -28640.674, 0.030353487, 0.1613691, -1372139.1, 45691.766, 0.0, 9.999738, 10.000367 
6.549654e+2, 1.6532467e+2, -1340314.4, -1342009.1, -21141.66, 0.1099947, 0.13639031, -1320003.1, -172.22285, 0.0, 9.999926, 9.999904 
6.5498e+2, 1.7532419e+2, -1219961.1, -1231570.1, -22559.701, 0.022929328, 0.09494849, -1202471.1, 19363.111, 0.0, 10.0000725, 9.999918 
6.549952e+2, 1.85324e+2, -1124029.4, -1165444.5, -24930.496, -0.002738325, 0.10086037, -1112328.1, 11507.644, 0.0, 10.000191, 9.999641 
6.5501106e+2, 1.9532411e+2, -1010146.4, -1058263.4, -26637.844, 0.039855443, 0.14566796, -998310.8, 27524.504, 0.0, 10.000294, 9.999655 
6.5502656e+2, 2.0532353e+2, -900093.5, -985554.0, -27760.59, 0.039037175, 0.13863294, -891867.6, 35972.855, 0.0, 10.00051, 9.999377 
6.550416e+2, 2.1532236e+2, -755113.0, -863473.8, -27174.012, -0.0048202123, 0.08118878, -748680.4, 81170.34, 0.0, 10.000827, 9.99939 
6.5505695e+2, 2.2532147e+2, -657252.06, -796052.8, -25197.21, -0.016960157, 0.068890594, -652819.44, 79038.695, 0.0, 10.0009575, 9.999117 
6.550726e+2, 2.3532084e+2, -563247.2, -699150.9, -26273.988, 0.0005147082, 0.09248471, -558344.56, 75518.625, 0.0, 10.000926, 9.999125 
6.550882e+2, 2.4531966e+2, -473199.53, -648252.0, -27285.158, 0.0036112433, 0.08551641, -469045.22, 66828.625, 0.0, 10.001058, 9.998737 
6.551035e+2, 2.5531808e+2, -335026.44, -529981.94, -21816.41, -0.00671954, 0.049465246, -332614.9, 105274.38, 0.0, 10.00133, 9.998746 
6.5511876e+2, 2.6531667e+2, -260528.16, -496731.5, -20499.447, -0.026861373, 0.05880901, -258762.28, 81141.93, 0.0, 10.001399, 9.998268 
6.5513396e+2, 2.7531534e+2, -176281.14, -401622.88, -25376.021, -0.054729752, 0.100244574, -173458.86, 68460.14, 0.0, 10.001288, 9.998301 
6.5514976e+2, 2.853137e+2, -44470.47, -265910.34, -15754.411, -0.037312806, 0.09709354, -43355.234, 100579.86, 0.0, 10.001429, 9.998493 
6.55166e+2, 2.9531187e+2, 103034.64, -147589.89, -4654.5503, 0.018752294, 0.0620589, 103121.055, 149072.2, 0.000000011654482, 10.001783, 9.998462 
6.551813e+2, 3.0531076e+2, 143982.11, -158714.02, 1669.4863, -0.026950818, 0.13489918, 143991.31, 143991.31, 0.00000041978168, 10.001971, 9.99796 
6.5519714e+2, 3.1530827e+2, 184616.36, -87797.31, -5476.245, -0.011818093, 0.085802354, 184726.4, 184726.4, 0.000002202322, 10.002029, 9.99842 
6.649013e+2, 1.2530755e+2, -1831735.8, -1671745.5, -34361.484, -0.064473145, 0.164398, -1664677.9, 47325.42, 0.0, 9.998788, 10.000871 
6.649202e+2, 1.3530794e+2, -1684203.0, -1603535.5, -11837.688, 0.26679263, 0.1601428, -1601834.3, 12164.138, 0.0, 9.999325, 10.000426 
6.649315e+2, 1.4530826e+2, -1553704.1, -1505167.4, -24322.303, -0.18152714, 0.15919833, -1495076.9, 20917.334, 0.0, 9.999629, 10.000272 
6.6494906e+2, 1.5530854e+2, -1444828.5, -1401067.1, -41470.2, 0.031765245, 0.16040835, -1376059.1, 41931.207, 0.0, 9.9997015, 10.0002775 
6.649653e+2, 1.6530846e+2, -1342107.8, -1336922.4, -32537.305, 0.105046235, 0.1406793, -1306874.6, 13115.46, 0.0, 9.999889, 9.999955 
6.6498005e+2, 1.7530799e+2, -1200818.9, -1216736.4, -26099.992, 0.015966075, 0.09600994, -1181491.1, 40501.855, 0.0, 10.000181, 9.999967 
6.6499543e+2, 1.8530777e+2, -1100748.9, -1159334.8, -28375.389, -0.0061179306, 0.09893981, -1089259.0, 34735.668, 0.0, 10.000375, 9.999595 
6.6501147e+2, 1.953078e+2, -986277.3, -1052119.1, -30131.664, 0.0441732, 0.1413644, -974569.7, 51425.39, 0.0, 10.000482, 9.999606 
6.650271e+2, 2.0530723e+2, -887310.44, -980751.5, -27222.17, 0.0445481, 0.13868314, -879958.3, 48041.996, 0.0, 10.000605, 9.999364 
6.6504234e+2, 2.1530615e+2, -767663.4, -870807.25, -28369.2, -0.003857564, 0.09204422, -760375.5, 69634.25, 0.0, 10.000748, 9.999377 
6.6505784e+2, 2.2530521e+2, -671709.56, -801855.94, -32922.46, -0.01613391, 0.07498783, -663855.3, 68162.24, 0.0, 10.000854, 9.999127 
6.6507363e+2, 2.353044e+2, -562330.6, -697533.56, -30737.895, 0.005056476, 0.07957156, -555670.56, 78353.58, 0.0, 10.000928, 9.999135 
6.6508925e+2, 2.453033e+2, -480238.63, -650841.1, -30085.385, 0.008872797, 0.07718445, -475088.6, 60945.71, 0.0, 10.001007, 9.998744 
6.6510475e+2, 2.5530195e+2, -369828.78, -545998.44, -35146.414, -0.0034797427, 0.06689519, -363075.84, 74971.68, 0.0, 10.001088, 9.998752 
6.651202e+2, 2.653005e+2, -281467.06, -503043.28, -36476.418, -0.019779997, 0.07286203, -275616.7, 64445.805, 0.0, 10.00124, 9.998301 
6.651355e+2, 2.7529895e+2, -150211.52, -385223.9, -29252.738, -0.03867612, 0.08557817, -146625.06, 95454.32, 0.0, 10.0014515, 9.998335 
6.6515136e+2, 2.8529733e+2, -27930.467, -252750.66, -19949.734, -0.022338528, 0.08072475, -26173.922, 117921.266, 0.0, 10.00152, 9.998539 
6.651676e+2, 2.9529575e+2, 59955.715, -163497.22, -27006.967, 0.023330223, 0.06668146, 63173.496, 109282.53, 0.000000008469742, 10.001468, 9.998504 
6.6518307e+2, 3.0529478e+2, 89269.59, -179691.95, -20807.105, -0.024292056, 0.14849204, 90869.734, 90869.734, 0.00000038345433, 10.001573, 9.998007 
6.651991e+2, 3.152919e+2, 167670.16, -71671.76, -14545.499, -0.006936667, 0.055394962, 168550.89, 168550.89, 0.0000022156387, 10.001808, 9.998635 
6.749004e+2, 1.2529173e+2, -1834152.1, -1676868.1, -34405.164, -0.03139474, 0.19122735, -1669671.5, 42487.098, 0.0, 9.998788, 10.000836 
6.7491955e+2, 1.3529193e+2, -1684506.5, -1605265.6, 8400.833, 0.26761568, 0.16946805, -1604384.8, 9769.945, 0.0, 9.999329, 10.000413 
6.749311e+2, 1.452918e+2, -1570714.0, -1541190.1, -21752.424, -0.18362986, 0.13779767, -1529663.6, -13508.646, 0.0, 9.999632, 10.000024 
6.749485e+2, 1.5529187e+2, -1462006.6, -1435972.8, -38730.742, 0.012542174, 0.13948874, -1408130.0, 10024.295, 0.0, 9.999699, 10.00004 
6.74965e+2, 1.6529186e+2, -1331379.1, -1313933.1, -21739.174, 0.09231117, 0.13268723, -1299232.1, 20921.049, 0.0, 9.999886, 10.000115 
6.7498034e+2, 1.7529176e+2, -1190014.0, -1194342.0, -15325.284, 0.032319907, 0.1104796, -1176700.8, 45451.156, 0.0, 10.000181, 10.00012 
6.749959e+2, 1.8529147e+2, -1104255.5, -1166784.3, -24595.646, 0.007549992, 0.0998088, -1095740.4, 28413.506, 0.0, 10.000375, 9.999543 
6.7501175e+2, 1.95291e+2, -989833.4, -1059424.6, -26246.414, 0.027083233, 0.096875355, -981044.5, 45114.277, 0.0, 10.000482, 9.999557 
6.750276e+2, 2.052905e+2, -889721.8, -985760.2, -22230.81, 0.028841848, 0.1049019, -884825.5, 43338.11, 0.0, 10.000605, 9.9993305 
6.750432e+2, 2.1529e+2, -769883.7, -875407.25, -23330.162, 0.010024654, 0.11928529, -764955.8, 65212.574, 0.0, 10.000747, 9.999347 
6.7505884e+2, 2.2528906e+2, -668200.44, -794604.06, -30326.283, 0.003171205, 0.10135211, -661301.25, 70874.9, 0.0, 10.000854, 9.999177 
6.750746e+2, 2.3528774e+2, -558830.06, -690678.0, -27962.959, 0.008899766, 0.04995358, -553144.7, 81042.125, 0.0, 10.00093, 9.999182 
6.7509025e+2, 2.4528657e+2, -489002.72, -669661.7, -27062.41, 0.011581279, 0.04729674, -485035.9, 51161.86, 0.0, 10.001009, 9.998614 
6.751059e+2, 2.552856e+2, -378134.63, -563595.0, -31743.104, 0.010939804, 0.08578927, -372852.0, 65356.848, 0.0, 10.001089, 9.998631 
6.7512167e+2, 2.6528427e+2, -268087.16, -475078.75, -28435.107, 0.0040721465, 0.099367805, -264252.0, 75970.61, 0.0, 10.001239, 9.998493 
6.751373e+2, 2.7528262e+2, -138218.98, -359319.9, -21530.125, -0.007136656, 0.0836277, -136141.97, 106096.98, 0.0, 10.001447, 9.998515 
6.75153e+2, 2.8528088e+2, -42265.297, -281013.8, -21980.389, -0.00810005, 0.06663564, -40258.54, 103997.484, 0.0, 10.001514, 9.998347 
6.751688e+2, 2.9527912e+2, 46667.305, -190009.22, -28216.727, -0.0027650874, 0.053718675, 49984.82, 96257.68, 0.0000000040864183, 10.001464, 9.998323 
6.751844e+2, 3.0527827e+2, 105583.99, -144873.86, -11566.867, -0.03819703, 0.14467591, 106117.05, 106117.05, 0.0000003121116, 10.001569, 9.998249 
6.7520136e+2, 3.1527552e+2, 196854.94, -9546.212, -6598.474, 0.035311554, 0.039424434, 197065.67, 197065.67, 0.0000020914758, 10.0018015, 9.999066 
6.8489957e+2, 1.2527557e+2, -1781052.9, -1669435.5, -33774.492, -0.012459696, 0.18106881, -1660011.4, 52304.715, 0.0, 9.999231, 10.000673 
6.849189e+2, 1.3527587e+2, -1672948.6, -1612782.9, 18926.24, 0.26372677, 0.18096146, -1607324.4, 6987.3213, 0.0, 9.999465, 10.000296 
6.8493086e+2, 1.4527547e+2, -1566158.4, -1552124.3, -18698.014, -0.17645025, 0.13302934, -1539170.0, -22855.035, 0.0, 9.999722, 9.999905 
6.849483e+2, 1.552753e+2, -1427874.6, -1432947.4, -26269.027, 0.011048533, 0.12540664, -1404019.9, 14296.444, 0.0, 9.999992, 9.999919 
6.8496495e+2, 1.6527528e+2, -1294579.8, -1302568.9, -12216.474, 0.09047823, 0.12484395, -1285721.4, 34594.31, 0.0, 10.000168, 10.000055 
6.8498063e+2, 1.7527531e+2, -1182745.9, -1197187.1, -22925.807, 0.0411522, 0.12139589, -1165930.5, 56383.09, 0.0, 10.000259, 10.000062 
6.849964e+2, 1.8527499e+2, -1092250.1, -1158310.8, -37289.83, 0.014602553, 0.11026974, -1075465.5, 48850.285, 0.0, 10.000447, 9.999566 
6.8501234e+2, 1.9527437e+2, -952033.5, -1038432.0, -33555.098, 0.019375341, 0.09020844, -940532.5, 85789.1, 0.0, 10.0007305, 9.999579 
6.8502814e+2, 2.0527384e+2, -862698.2, -975108.0, -33032.758, 0.019528488, 0.094528966, -853709.9, 74616.8, 0.0, 10.000801, 9.999308 
6.8504393e+2, 2.1527338e+2, -780593.56, -882977.56, -33327.05, 0.011201592, 0.116843425, -770701.06, 59630.156, 0.0, 10.000684, 9.999324 
6.8505967e+2, 2.252725e+2, -675524.8, -792194.06, -33700.516, 0.0062128794, 0.1028358, -666489.9, 65848.69, 0.0, 10.000778, 9.99923 
6.850755e+2, 2.3527125e+2, -536130.9, -673894.4, -31693.65, 0.005868401, 0.052447, -529189.25, 105159.266, 0.0, 10.0010605, 9.999233 
6.850913e+2, 2.4527007e+2, -468997.38, -662931.06, -33041.402, 0.0110003585, 0.047762252, -463522.5, 72837.1, 0.0, 10.00116, 9.998588 
6.851071e+2, 2.5526902e+2, -379060.25, -566468.94, -30121.139, 0.020476067, 0.080372654, -374338.06, 64033.68, 0.0, 10.001094, 9.998608 
6.851229e+2, 2.6526776e+2, -279823.9, -471850.66, -21867.865, 0.017664738, 0.09772459, -277365.1, 63019.63, 0.0, 10.001121, 9.998572 
6.8513876e+2, 2.7526632e+2, -164420.16, -363516.06, -23684.492, 0.005158668, 0.095037706, -161641.42, 80757.266, 0.0, 10.001232, 9.9985895 
6.851545e+2, 2.8526455e+2, -75665.83, -302905.56, -28777.828, -0.00035146877, 0.076085165, -72078.02, 72337.914, 0.0, 10.00131, 9.998295 
6.8517023e+2, 2.9526258e+2, 27861.832, -204668.73, -25217.408, -0.0021329005, 0.046858635, 30565.174, 77000.48, 0.0000000009738006, 10.001359, 9.998273 
6.85186e+2, 3.0526173e+2, 85186.984, -153287.88, -6375.395, -0.030952208, 0.14006647, 85357.305, 85357.305, 0.00000022618863, 10.001423, 9.998261 
6.852032e+2, 3.1525907e+2, 168610.11, 496.65967, -19086.232, 0.057144888, 0.04299157, 170749.77, 170749.77, 0.0000018666766, 10.001507, 9.999277 
6.948988e+2, 1.2525913e+2, -1801025.5, -1712958.8, -42576.33, -0.012642392, 0.13316421, -1695741.1, 16733.99, 0.0, 9.999241, 10.000371 
6.949182e+2, 1.3525979e+2, -1689754.9, -1646730.8, 27786.275, 0.2544984, 0.19475354, -1633102.5, -18633.32, 0.0, 9.999461, 10.000064 
6.949307e+2, 1.4525928e+2, -1565910.6, -1550658.9, -8153.489, -0.16000001, 0.14549121, -1547120.9, -30646.975, 0.0, 9.999717, 9.999917 
6.949485e+2, 1.5525892e+2, -1427279.8, -1432540.4, -15627.32, 0.026631359, 0.11827215, -1414062.9, 4413.0825, 0.0, 9.999995, 9.99992 
6.949652e+2, 1.6525874e+2, -1314764.3, -1345323.1, -8840.53, 0.09856734, 0.11701979, -1312391.0, 8086.095, 0.0, 10.000172, 9.999761 
6.949809e+2, 1.7525864e+2, -1202995.1, -1238565.9, -19398.56, 0.04154394, 0.12874392, -1194462.8, 28015.209, 0.0, 10.000257, 9.99978 
6.9499683e+2, 1.8525834e+2, -1086125.8, -1144804.9, -26920.766, 0.013828201, 0.13037549, -1075646.5, 48833.723, 0.0, 10.000443, 9.9996605 
6.9501305e+2, 1.9525793e+2, -945638.56, -1025060.56, -23380.412, 0.020817777, 0.121148996, -939266.94, 87216.43, 0.0, 10.00073, 9.999672 
6.950289e+2, 2.0525727e+2, -863636.8, -977242.6, -37789.973, 0.016604193, 0.10750345, -852214.7, 76274.72, 0.0, 10.000802, 9.999293 
6.950445e+2, 2.1525635e+2, -781378.1, -884889.2, -37504.953, -0.0006056815, 0.085367166, -769217.6, 61280.543, 0.0, 10.000685, 9.999311 
6.950603e+2, 2.2525556e+2, -671751.44, -784644.1, -23113.127, -0.00752278, 0.079728775, -667202.6, 65302.09, 0.0, 10.000778, 9.999282 
6.9507647e+2, 2.3525493e+2, -532648.0, -666477.1, -21447.27, -0.0042271027, 0.08602118, -529294.9, 105214.336, 0.0, 10.00106, 9.999285 
6.9509244e+2, 2.452538e+2, -464082.2, -652438.25, -35704.043, 0.0069157938, 0.07781818, -457541.4, 78978.45, 0.0, 10.001158, 9.99866 
6.951083e+2, 2.552522e+2, -374021.63, -556100.1, -32455.162, 0.024733616, 0.05190266, -368409.53, 70126.52, 0.0, 10.001095, 9.998679 
6.951241e+2, 2.6525098e+2, -282109.78, -476474.28, -17736.719, 0.0210679, 0.069010854, -280504.47, 60044.336, 0.0, 10.001121, 9.998541 
6.951399e+2, 2.7525002e+2, -167257.38, -368404.38, -19423.22, -0.000949818, 0.1188763, -165399.0, 77159.625, 0.0, 10.001228, 9.998558 
6.951558e+2, 2.8524834e+2, -70935.0, -292153.13, -26970.717, 0.0007816875, 0.10786239, -67694.234, 76880.766, 0.0, 10.001307, 9.998371 
6.9517183e+2, 2.9524612e+2, 32464.42, -194897.34, -23413.336, 0.022329465, 0.045664676, 34850.445, 81446.96, 0.000000000021633938, 10.001357, 9.998342 
6.951877e+2, 3.052452e+2, 70487.63, -183069.64, -3505.983, -0.004906997, 0.13452172, 70536.1, 70536.1, 0.00000014519733, 10.001419, 9.998058 
6.9520473e+2, 3.152426e+2, 166929.95, -1030.8127, -16339.326, 0.058105282, 0.06509773, 168504.69, 168504.69, 0.0000015881137, 10.001498, 9.99927 
7.0489806e+2, 1.2524268e+2, -1811608.4, -1745393.5, -69533.81, -0.014972998, 0.1212752, -1701487.6, 11147.578, 0.0, 9.999287, 10.000126 
7.049177e+2, 1.3524327e+2, -1644290.4, -1643226.1, 20689.338, 0.24120155, 0.19224079, -1623062.1, -8430.904, 0.0, 9.999853, 9.999899 
7.049308e+2, 1.4524262e+2, -1498406.3, -1516162.5, -19447.906, -0.14483391, 0.136857, -1485905.9, 30731.602, 0.0, 10.000174, 9.999933 
7.049487e+2, 1.552424e+2, -1382826.3, -1409949.8, -26751.605, 0.039370976, 0.122707225, -1366395.1, 52242.43, 0.0, 10.000298, 9.999928 
7.049656e+2, 1.6524218e+2, -1287971.5, -1349154.4, -17645.72, 0.10287911, 0.12684289, -1283247.1, 37391.918, 0.0, 10.000429, 9.999609 
7.0498127e+2, 1.7524192e+2, -1168106.1, -1238137.9, -17579.277, 0.03447269, 0.13647243, -1163941.1, 58701.113, 0.0, 10.000568, 9.999632 
7.0499724e+2, 1.8524155e+2, -1068580.1, -1141126.8, -25659.41, 0.0073096054, 0.13828291, -1060422.0, 64223.746, 0.0, 10.000586, 9.999617 
7.050137e+2, 1.9524111e+2, -983134.56, -1047851.6, -33101.273, 0.024838038, 0.13162264, -969203.06, 57446.29, 0.0, 10.000493, 9.999629 
7.0502967e+2, 2.0524047e+2, -890796.6, -978140.8, -49382.95, 0.02203284, 0.11858903, -868545.06, 60109.652, 0.0, 10.000563, 9.999402 
7.0504516e+2, 2.1523966e+2, -759866.44, -862797.06, -40073.34, -0.0017004769, 0.09501837, -746104.9, 84557.06, 0.0, 10.000783, 9.999415 
7.050611e+2, 2.2523887e+2, -666755.56, -789484.44, -24112.574, -0.010098663, 0.08806197, -662188.2, 70480.39, 0.0, 10.000845, 9.999217 
7.0507735e+2, 2.3523816e+2, -579915.25, -695965.94, -31340.852, -0.0040204884, 0.09297497, -571992.2, 62682.508, 0.0, 10.000764, 9.999225 
7.0509344e+2, 2.452371e+2, -494143.72, -647702.3, -45572.027, 0.0089249145, 0.08648803, -481637.7, 55046.78, 0.0, 10.00087, 9.998832 
7.0510936e+2, 2.5523573e+2, -355178.22, -528528.44, -35686.86, 0.027699767, 0.06593306, -348119.0, 90578.555, 0.0, 10.001144, 9.998844 
7.051253e+2, 2.652345e+2, -277573.63, -482718.03, -24438.52, 0.025164656, 0.07731113, -274702.5, 66007.63, 0.0, 10.001188, 9.998465 
7.0514107e+2, 2.752333e+2, -202115.5, -393125.25, -29324.195, 0.004331806, 0.11112649, -197714.97, 45007.54, 0.0, 10.001023, 9.9984865 
7.0515704e+2, 2.8523162e+2, -103232.76, -303619.8, -33141.074, 0.009984393, 0.10181931, -97893.945, 46845.09, 0.0, 10.001067, 9.998407 
7.0517325e+2, 2.952296e+2, 26955.756, -193952.61, -32786.688, 0.03787954, 0.056980833, 31719.164, 78477.77, 0.0, 10.001305, 9.998373 
7.051892e+2, 3.052286e+2, 63372.49, -194680.2, -13665.702, 0.00929242, 0.14109917, 64094.164, 64094.164, 0.00000008201181, 10.001406, 9.997985 
7.052061e+2, 3.1522587e+2, 158001.8, 7272.669, -18589.29, 0.059461024, 0.065165035, 160260.55, 160260.55, 0.0000012936833, 10.001382, 9.999384 
7.148973e+2, 1.2522626e+2, -1825338.9, -1773305.0, -61722.367, -0.021664925, 0.14690213, -1732340.4, -19544.47, 0.0, 9.999283, 9.999936 
7.1491736e+2, 1.352263e+2, -1650229.0, -1657051.9, 42117.195, 0.22101454, 0.17233141, -1611385.4, 3412.2878, 0.0, 9.99986, 9.999801 
7.14931e+2, 1.4522548e+2, -1496578.8, -1514113.1, -15257.896, -0.13355438, 0.10560669, -1487748.6, 29056.902, 0.0, 10.000181, 9.999944 
7.149491e+2, 1.5522577e+2, -1382530.0, -1408950.6, -21993.43, 0.048990067, 0.1393852, -1370084.4, 48716.406, 0.0, 10.000296, 9.999936 
7.14966e+2, 1.6522568e+2, -1288737.4, -1350304.1, -12180.382, 0.10309702, 0.15543488, -1286415.1, 34385.74, 0.0, 10.000427, 9.999603 
7.149816e+2, 1.7522517e+2, -1168512.3, -1239610.6, -12233.44, 0.019074783, 0.14436543, -1166466.1, 56339.85, 0.0, 10.00057, 9.99962 
7.149977e+2, 1.8522458e+2, -1081714.1, -1168895.0, -29345.445, -0.0057859197, 0.13355581, -1072756.6, 52055.605, 0.0, 10.000587, 9.999426 
7.150142e+2, 1.952239e+2, -995904.8, -1074393.0, -36396.758, 0.030782362, 0.121817954, -981624.9, 45194.445, 0.0, 10.000493, 9.999447 
7.150303e+2, 2.0522349e+2, -874875.6, -945187.3, -41377.63, 0.034978535, 0.12769523, -855735.6, 73086.95, 0.0, 10.000563, 9.999629 
7.1504605e+2, 2.152233e+2, -744516.6, -831175.56, -32266.07, 0.007342928, 0.14490692, -733822.56, 96999.93, 0.0, 10.000783, 9.999633 
7.15062e+2, 2.2522242e+2, -679162.1, -815623.7, -27464.584, -0.0020930066, 0.12746575, -673841.94, 58988.074, 0.0, 10.000846, 9.999037 
7.150782e+2, 2.3522095e+2, -591587.94, -720632.4, -33967.613, 0.0058070216, 0.07435849, -583192.94, 51651.715, 0.0, 10.000766, 9.999055 
7.1509445e+2, 2.4522e+2, -475786.03, -609618.44, -35242.832, 0.016364055, 0.07434386, -467072.63, 69780.68, 0.0, 10.000869, 9.999093 
7.1511054e+2, 2.5521958e+2, -338221.03, -492363.0, -25812.018, 0.029034745, 0.12020979, -334013.5, 104842.836, 0.0, 10.001141, 9.999095 
7.1512645e+2, 2.652183e+2, -286376.44, -500193.72, -30892.877, 0.029463131, 0.12096142, -282002.44, 58866.344, 0.0, 10.001184, 9.998347 
7.151422e+2, 2.7521616e+2, -210014.39, -409694.0, -35131.85, 0.01971821, 0.073808186, -204013.6, 38876.543, 0.0, 10.001023, 9.998373 
7.151583e+2, 2.8521442e+2, -103559.46, -303998.63, -24265.84, 0.026140153, 0.06010967, -100663.59, 44244.215, 0.0, 10.001066, 9.998405 
7.151746e+2, 2.95213e+2, 25518.896, -195061.92, -23909.906, 0.0448531, 0.079389066, 28080.86, 75002.484, 0.0, 10.001297, 9.998369 
7.151906e+2, 3.0521196e+2, 65945.445, -188091.48, -14359.886, 0.012149993, 0.1585664, 66754.586, 66754.586, 0.00000004119849, 10.0014, 9.9980345 
7.152075e+2, 3.152089e+2, 173373.84, 38369.773, -19791.648, 0.058779616, 0.045818806, 176215.5, 176215.5, 0.0000010048329, 10.001385, 9.999598 
7.2489667e+2, 1.2520917e+2, -1786132.3, -1749248.5, -88055.56, -0.0189166, 0.14837052, -1677724.4, 35240.184, 0.0, 9.999529, 9.999983 
7.249171e+2, 1.3520943e+2, -1630695.0, -1631886.8, 45392.418, 0.20840696, 0.18247947, -1585894.5, 29068.639, 0.0, 9.999927, 9.999941 
7.2493136e+2, 1.4520857e+2, -1499843.1, -1521592.6, -18339.88, -0.12167377, 0.10803748, -1489396.3, 27574.834, 0.0, 10.000185, 9.999889 
7.2494936e+2, 1.5520877e+2, -1379023.0, -1413638.9, -30176.547, 0.045457963, 0.13863759, -1361543.1, 57424.434, 0.0, 10.000347, 9.999879 
7.249663e+2, 1.6520864e+2, -1285122.0, -1345616.4, -23179.213, 0.09201582, 0.15157448, -1277261.9, 43706.195, 0.0, 10.00044, 9.999629 
7.249821e+2, 1.7520815e+2, -1181178.6, -1243024.3, -21038.105, 0.01041227, 0.1383917, -1174700.6, 48272.316, 0.0, 10.000473, 9.999644 
7.249982e+2, 1.8520758e+2, -1087190.9, -1174017.8, -32764.543, -0.011774121, 0.13108973, -1076214.6, 48764.26, 0.0, 10.000561, 9.999403 
7.2501475e+2, 1.9520696e+2, -967140.5, -1063082.6, -26925.496, 0.026355168, 0.12755828, -960100.6, 66884.99, 0.0, 10.000702, 9.999424 
7.25031e+2, 2.0520651e+2, -844656.75, -931624.44, -31569.172, 0.035477318, 0.13157213, -834405.56, 94583.64, 0.0, 10.000774, 9.9996195 
7.250469e+2, 2.1520619e+2, -745137.7, -832508.06, -40395.65, 0.01614322, 0.13760355, -729323.25, 101666.77, 0.0, 10.000783, 9.999623 
7.250629e+2, 2.2520536e+2, -682526.2, -817101.06, -41568.707, 0.0072873672, 0.12429713, -670721.56, 62275.81, 0.0, 10.000822, 9.999038 
7.2507906e+2, 2.3520407e+2, -573122.5, -711513.25, -34870.56, 0.008648145, 0.08940097, -564832.6, 70178.055, 0.0, 10.000892, 9.999057 
7.250953e+2, 2.4520314e+2, -473840.4, -603700.6, -35218.883, 0.017628286, 0.08886597, -464903.8, 72115.36, 0.0, 10.000861, 9.999138 
7.251115e+2, 2.5520256e+2, -393298.2, -513642.22, -41726.555, 0.033258725, 0.116454504, -380246.06, 58777.023, 0.0, 10.00074, 9.999142 
7.251276e+2, 2.652013e+2, -334612.25, -515057.44, -47630.605, 0.036051195, 0.111614436, -322811.34, 18223.78, 0.0, 10.000817, 9.998422 
7.251433e+2, 2.7519932e+2, -196706.5, -395424.16, -38237.95, 0.027703494, 0.07157318, -189602.58, 53452.24, 0.0, 10.001081, 9.998444 
7.251594e+2, 2.8519756e+2, -97449.3, -305837.44, -22822.066, 0.034644295, 0.058497246, -94979.17, 50093.156, 0.0, 10.001128, 9.998363 
7.2517586e+2, 2.951961e+2, -23032.965, -222825.8, -25526.295, 0.05363627, 0.07087548, -19823.193, 27264.295, 0.0, 10.000982, 9.99833 
7.2519195e+2, 3.0519488e+2, 22953.734, -213009.7, -14157.96, 0.019903224, 0.14078897, 23800.186, 23800.186, 0.000000018939705, 10.001123, 9.997995 
7.25209e+2, 3.1519213e+2, 202655.42, 64184.05, -26523.797, 0.058852274, 0.059858482, 207562.11, 207562.11, 0.0000007295325, 10.001537, 9.999701 
7.348963e+2, 1.2519136e+2, -1766051.5, -1707555.5, -83644.78, -0.0109715685, 0.123466425, -1648192.5, 64948.863, 0.0, 9.999528, 10.00027 
7.34917e+2, 1.3519269e+2, -1604046.5, -1575347.1, 59817.72, 0.20381972, 0.2247862, -1528182.0, 86945.52, 0.0, 9.999922, 10.000331 
7.3493165e+2, 1.4519194e+2, -1508794.0, -1539587.3, -12169.293, -0.1088123, 0.14672107, -1504565.4, 12568.395, 0.0, 10.000182, 9.999767 
7.349495e+2, 1.5519142e+2, -1387286.3, -1431456.4, -23723.28, 0.026542988, 0.11950908, -1376959.3, 42178.53, 0.0, 10.00035, 9.999755 
7.349665e+2, 1.6519107e+2, -1281013.4, -1338026.6, -22119.531, 0.0675696, 0.11389433, -1273438.1, 47702.41, 0.0, 10.0004425, 9.99968 
7.349825e+2, 1.751908e+2, -1177462.0, -1235386.9, -19731.035, 0.008388686, 0.118780196, -1171379.6, 51763.17, 0.0, 10.000472, 9.999697 
7.3499876e+2, 1.8519056e+2, -1076991.1, -1152719.6, -27679.803, -0.010790928, 0.13130696, -1067952.6, 57192.79, 0.0, 10.000559, 9.99955 
7.3501533e+2, 1.9519028e+2, -957413.7, -1043075.06, -21788.77, 0.011124452, 0.14875203, -952190.06, 74958.12, 0.0, 10.000702, 9.999561 
7.350316e+2, 2.0518956e+2, -861727.2, -967303.0, -31527.18, 0.023006523, 0.13052125, -853029.06, 76125.4, 0.0, 10.000775, 9.999375 
7.3504776e+2, 2.1518837e+2, -761533.0, -866753.94, -40163.45, 0.024164394, 0.07432833, -747954.6, 83209.664, 0.0, 10.000784, 9.999389 
7.3506385e+2, 2.2518772e+2, -670219.25, -791758.75, -39133.523, 0.017467836, 0.07908369, -658709.06, 74461.305, 0.0, 10.000823, 9.999212 
7.350799e+2, 2.351875e+2, -561478.0, -687324.1, -32456.395, 0.0043389597, 0.13691211, -553600.44, 81572.47, 0.0, 10.000891, 9.999224 
7.350961e+2, 2.4518651e+2, -485247.47, -627468.9, -39902.344, 0.012383442, 0.12949018, -474817.22, 62364.89, 0.0, 10.000861, 9.998975 
7.351123e+2, 2.5518477e+2, -403736.72, -535758.7, -45869.96, 0.03959356, 0.057435, -389364.22, 49833.17, 0.0, 10.000742, 9.998989 
7.351284e+2, 2.6518354e+2, -316634.44, -477734.16, -37637.145, 0.04430032, 0.05149704, -308275.16, 32933.668, 0.0, 10.000817, 9.998678 
7.3514444e+2, 2.7518275e+2, -180339.88, -360054.28, -28538.824, 0.02851504, 0.10220889, -175916.75, 67299.99, 0.0, 10.001075, 9.99869 
7.351606e+2, 2.8518113e+2, -103652.55, -317761.9, -28285.76, 0.035604876, 0.094823, -99978.78, 45253.992, 0.0, 10.001123, 9.998283 
7.351769e+2, 2.951788e+2, -27592.604, -233443.34, -30377.223, 0.06281184, 0.03386207, -23203.447, 24052.512, 0.0, 10.000987, 9.998255 
7.351932e+2, 3.051774e+2, 14013.156, -231367.73, 1476.0083, 0.030574208, 0.09041292, 14022.034, 14022.034, 0.0000000073965225, 10.001122, 9.9978695 
7.352105e+2, 3.1517544e+2, 198698.11, 60647.313, -10852.072, 0.05755367, 0.10312769, 199545.97, 199545.97, 0.0000004773962, 10.001517, 9.999685 
7.4489605e+2, 1.2517428e+2, -1699943.4, -1670566.3, -58227.902, -0.006040226, 0.13844436, -1625202.8, 88107.81, 0.0, 9.99996, 10.000315 
7.449168e+2, 1.3517569e+2, -1578638.5, -1547405.6, 72350.11, 0.18959674, 0.2339964, -1489005.8, 126288.875, 0.0, 10.000029, 10.000471 
7.449319e+2, 1.451749e+2, -1515429.9, -1549566.4, -7332.744, -0.10036555, 0.14930831, -1513921.5, 3379.2324, 0.0, 10.000165, 9.999707 
7.4494976e+2, 1.5517433e+2, -1380705.4, -1435303.9, -13524.627, 0.017355965, 0.1230266, -1377538.9, 41766.51, 0.0, 10.000425, 9.999692 
7.449668e+2, 1.6517393e+2, -1266545.9, -1334360.4, -19541.645, 0.052576493, 0.116482064, -1261317.8, 59991.08, 0.0, 10.000557, 9.99965 
7.449829e+2, 1.7517361e+2, -1166329.5, -1233817.1, -23648.813, 0.0011138535, 0.118401065, -1158867.6, 64444.313, 0.0, 10.000565, 9.999663 
7.449993e+2, 1.8517338e+2, -1063682.0, -1136983.1, -33562.652, -0.012938834, 0.13064083, -1050636.4, 74677.68, 0.0, 10.000609, 9.999634 
7.45016e+2, 1.951732e+2, -953093.44, -1032073.4, -32648.08, 0.010834985, 0.15057865, -941345.2, 85970.125, 0.0, 10.000692, 9.999641 
7.4503237e+2, 2.0517246e+2, -867385.25, -974853.94, -39880.45, 0.023073891, 0.13016452, -854203.0, 75118.555, 0.0, 10.000757, 9.999331 
7.450485e+2, 2.1517119e+2, -761113.8, -871206.56, -33694.414, 0.02307879, 0.06723902, -751620.1, 79712.43, 0.0, 10.000807, 9.999347 
7.450646e+2, 2.251705e+2, -674273.3, -792046.25, -32993.945, 0.019816501, 0.070507064, -665660.06, 67678.85, 0.0, 10.000788, 9.999227 
7.4508077e+2, 2.3517033e+2, -588236.5, -698668.44, -38389.043, 0.0142844105, 0.13199864, -576202.75, 59138.098, 0.0, 10.000701, 9.999237 
7.450969e+2, 2.4516934e+2, -502413.38, -638337.94, -44638.74, 0.02044306, 0.12548143, -489064.6, 48285.484, 0.0, 10.000755, 9.998951 
7.451131e+2, 2.5516757e+2, -376071.47, -525156.25, -40876.81, 0.036785424, 0.0518863, -365599.28, 73766.74, 0.0, 10.000943, 9.998964 
7.451293e+2, 2.6516634e+2, -296730.7, -457206.3, -34977.332, 0.041407578, 0.04475495, -289438.4, 51938.7, 0.0, 10.000906, 9.998776 
7.451453e+2, 2.7516565e+2, -232738.9, -374281.66, -37370.86, 0.035881773, 0.0944838, -223477.98, 19905.822, 0.0, 10.000668, 9.998788 
7.451616e+2, 2.8516415e+2, -150542.83, -338210.88, -32577.822, 0.045111112, 0.09352866, -145048.42, 350.2408, 0.0, 10.0007925, 9.998302 
7.4517804e+2, 2.95162e+2, 12819.68, -212140.44, -28046.703, 0.06664827, 0.045435727, 16263.652, 63684.438, 0.0, 10.001256, 9.998272 
7.451943e+2, 3.0516043e+2, 31549.008, -222831.63, 4258.0884, 0.030844977, 0.085554086, 31620.266, 31620.266, 0.0000000015345106, 10.001243, 9.99787 
7.4521154e+2, 3.151586e+2, 99993.664, 22576.232, 232.68515, 0.051387265, 0.110823564, 99994.37, 99994.37, 0.00000026410652, 10.000799, 9.999769 
7.54896e+2, 1.25158e+2, -1716204.0, -1704560.5, -62287.06, -0.008224172, 0.19945657, -1647823.8, 65647.28, 0.0, 9.999961, 10.000082 
7.5491655e+2, 1.351584e+2, -1588389.4, -1567106.4, 74391.75, 0.16300914, 0.20820682, -1502598.9, 112865.67, 0.0, 10.000027, 10.000337 
7.5493205e+2, 1.4515746e+2, -1514791.0, -1548475.1, 1797.6119, -0.09850372, 0.11348554, -1514695.4, 2776.587, 0.0, 10.000165, 9.999715 
7.5495017e+2, 1.5515754e+2, -1379966.1, -1434239.0, -3635.2065, 0.018035438, 0.15055661, -1379723.8, 39746.492, 0.0, 10.000426, 9.9997 
7.549673e+2, 1.6515724e+2, -1274438.8, -1351275.8, -19370.488, 0.04723294, 0.16114317, -1269831.8, 51641.074, 0.0, 10.000558, 9.999533 
7.5498337e+2, 1.7515653e+2, -1174339.4, -1250802.9, -23292.385, -0.0122700855, 0.13707045, -1167802.8, 55677.3, 0.0, 10.000566, 9.999547 
7.549998e+2, 1.8515603e+2, -1062496.6, -1134657.6, -30652.088, -0.019423971, 0.12875353, -1051234.1, 74250.586, 0.0, 10.000609, 9.99965 
7.550168e+2, 1.9515574e+2, -951789.8, -1029484.3, -29708.852, 0.025001813, 0.13320492, -941731.8, 85755.1, 0.0, 10.000692, 9.99966 
7.5503325e+2, 2.0515527e+2, -856610.0, -952605.4, -38425.773, 0.035408184, 0.13027792, -843123.4, 86366.87, 0.0, 10.000757, 9.999485 
7.5504917e+2, 2.1515462e+2, -750563.06, -849617.6, -32192.898, 0.01274677, 0.115096144, -741019.75, 90475.125, 0.0, 10.000808, 9.999495 
7.550654e+2, 2.2515371e+2, -684014.1, -812644.7, -36470.58, 0.013737161, 0.0981776, -674393.2, 59109.76, 0.0, 10.000789, 9.999085 
7.5508165e+2, 2.3515259e+2, -597852.6, -718840.9, -41566.492, 0.03748074, 0.07639129, -584948.44, 50565.867, 0.0, 10.000702, 9.999098 
7.550979e+2, 2.4515167e+2, -495045.78, -622909.94, -37497.62, 0.04097044, 0.07799405, -484860.5, 52662.426, 0.0, 10.000754, 9.999058 
7.551139e+2, 2.5515094e+2, -369474.97, -510661.06, -33905.0, 0.025034497, 0.09757163, -361755.0, 77774.086, 0.0, 10.000939, 9.999066 
7.5513e+2, 2.651497e+2, -300577.22, -464943.06, -44000.996, 0.027499346, 0.08951027, -289539.3, 52000.777, 0.0, 10.000905, 9.998725 
7.5514615e+2, 2.7514806e+2, -235170.63, -380480.7, -45691.633, 0.048082665, 0.05031271, -221997.45, 21558.248, 0.0, 10.000672, 9.998743 
7.5516254e+2, 2.8514668e+2, -142737.72, -322137.53, -14976.558, 0.061213255, 0.05617558, -141496.05, 4073.6392, 0.0, 10.000793, 9.998412 
7.551793e+2, 2.9514557e+2, 18556.658, -197714.6, -10921.767, 0.06534344, 0.102967754, 19106.813, 66688.914, 0.0, 10.0012455, 9.998376 
7.551955e+2, 3.0514395e+2, 38789.65, -206200.03, -12439.194, 0.02135624, 0.124262094, 39419.62, 39419.62, 0.00000000001992495, 10.001235, 9.997989 
7.552122e+2, 3.151416e+2, 113528.484, 48496.992, -16059.676, 0.03718555, 0.085148394, 117278.25, 117278.25, 0.000000109993245, 10.000808, 9.999944 
7.6489604e+2, 1.251412e+2, -1703748.9, -1728132.6, -61406.844, -0.00663017, 0.2108653, -1653335.4, 60300.203, 0.0, 10.000173, 9.999819 
7.6491654e+2, 1.3514133e+2, -1530710.8, -1558513.1, 76628.086, 0.14301404, 0.21048184, -1466733.1, 148899.19, 0.0, 10.000506, 10.000164 
7.649325e+2, 1.451403e+2, -1448521.3, -1514330.4, 382.17245, -0.09246755, 0.11474886, -1448519.1, 69121.516, 0.0, 10.000611, 9.999735 
7.649507e+2, 1.551404e+2, -1359885.5, -1423466.9, -4490.246, 0.016999485, 0.15231018, -1359570.0, 60068.04, 0.0, 10.000558, 9.999711 
7.649678e+2, 1.6514009e+2, -1284678.3, -1368447.3, -23056.354, 0.043930285, 0.16586211, -1278751.6, 42889.26, 0.0, 10.000539, 9.999426 
7.649839e+2, 1.7513934e+2, -1182658.4, -1266575.6, -26258.7, -0.012070206, 0.14871138, -1175119.0, 48530.246, 0.0, 10.000559, 9.999442 
7.650004e+2, 1.8513879e+2, -1064426.4, -1131885.1, -30832.195, -0.01927666, 0.13861829, -1052457.9, 73196.71, 0.0, 10.000581, 9.999683 
7.650174e+2, 1.9513842e+2, -962612.4, -1031293.4, -28642.58, 0.021219226, 0.13257897, -952235.25, 75421.78, 0.0, 10.000604, 9.99969 
7.650339e+2, 2.0513801e+2, -864613.25, -949632.94, -39131.656, 0.03160993, 0.13141456, -849344.44, 80315.07, 0.0, 10.000673, 9.999546 
7.6505e+2, 2.1513756e+2, -749985.75, -842895.75, -40263.703, 0.012947653, 0.12956943, -734965.25, 96696.93, 0.0, 10.000785, 9.999552 
7.6506615e+2, 2.2513662e+2, -681609.8, -814427.4, -49103.37, 0.014986281, 0.10851466, -665427.6, 68242.836, 0.0, 10.000819, 9.999058 
7.650824e+2, 2.3513527e+2, -587748.75, -717079.0, -46102.547, 0.036522314, 0.06646202, -572997.1, 62686.906, 0.0, 10.000785, 9.99907 
7.650986e+2, 2.4513437e+2, -496924.66, -615227.4, -35718.734, 0.03946978, 0.068185404, -486976.72, 50715.504, 0.0, 10.000705, 9.999134 
7.6511467e+2, 2.551339e+2, -415699.6, -524335.75, -34455.098, 0.024656557, 0.10658107, -405693.44, 34002.043, 0.0, 10.000586, 9.999142 
7.651308e+2, 2.651327e+2, -333482.25, -486398.25, -44423.598, 0.029878201, 0.09771121, -321513.56, 20192.9, 0.0, 10.000704, 9.998673 
7.6514703e+2, 2.751308e+2, -184523.9, -362110.63, -46515.355, 0.054557376, 0.039857343, -173077.86, 70646.89, 0.0, 10.001045, 9.99869 
7.6516354e+2, 2.8512946e+2, -103898.18, -295634.03, -18141.457, 0.06723743, 0.047983326, -102196.79, 43541.723, 0.0, 10.001025, 9.998483 
7.6518023e+2, 2.9512864e+2, -59875.918, -227488.25, -17180.9, 0.06673268, 0.115661316, -58132.934, -10384.885, 0.0, 10.000671, 9.998448 
7.6519644e+2, 3.0512688e+2, -23288.295, -225323.86, -20120.29, 0.023095544, 0.115713425, -21304.045, -21304.045, 0.0, 10.000762, 9.998085 
7.6521325e+2, 3.151246e+2, 189333.5, 97181.24, -25601.07, 0.039270345, 0.07715973, 195968.13, 195968.13, 0.000000028836135, 10.001274, 10.000054 
7.7489626e+2, 1.2512387e+2, -1724616.0, -1770451.5, -52199.715, -0.0058811284, 0.17155327, -1690524.6, 23279.535, 0.00000000003061157, 10.000167, 9.999531 
7.7491695e+2, 1.351245e+2, -1544538.0, -1587582.4, 88385.77, 0.12906066, 0.24270852, -1475091.9, 140705.92, 0.0, 10.000508, 9.999964 
7.7493316e+2, 1.451235e+2, -1445948.1, -1510617.3, -2466.3794, -0.08262423, 0.15548995, -1445854.1, 71952.09, 0.0, 10.000617, 9.999758 
7.7495116e+2, 1.5512294e+2, -1358554.0, -1421124.3, -6625.6177, 0.013472495, 0.12763429, -1357860.0, 61948.71, 0.0, 10.00056, 9.999726 
7.749683e+2, 1.6512248e+2, -1291586.3, -1382802.3, -22634.86, 0.041530192, 0.12970646, -1286278.4, 35534.605, 0.0, 10.000539, 9.999328 
7.7498454e+2, 1.7512205e+2, -1189267.0, -1280360.5, -25573.793, 0.0012341838, 0.15345655, -1182578.5, 41240.855, 0.0, 10.000559, 9.999348 
7.7500105e+2, 1.8512166e+2, -1061047.8, -1124843.1, -30262.947, -0.012713736, 0.16061054, -1048976.1, 76847.305, 0.0, 10.00058, 9.999732 
7.7501774e+2, 1.9512126e+2, -959309.44, -1024589.8, -27875.348, -0.0005676504, 0.14861993, -949026.25, 78799.27, 0.0, 10.000604, 9.999737 
7.7503437e+2, 2.0512073e+2, -867093.2, -954812.9, -35223.813, 0.011152655, 0.13365515, -854700.0, 75129.086, 0.0, 10.000673, 9.99951 
7.750508e+2, 2.1512003e+2, -752650.6, -848254.44, -36376.156, 0.022909623, 0.11128833, -740383.9, 91450.37, 0.0, 10.000783, 9.999516 
7.750671e+2, 2.2511923e+2, -676073.56, -802912.5, -50740.176, 0.023171185, 0.10160444, -658273.6, 75567.64, 0.0, 10.000819, 9.999137 
7.7508295e+2, 2.3511836e+2, -582090.75, -705523.0, -47496.41, 0.012086527, 0.10077977, -565930.1, 69919.95, 0.0, 10.000785, 9.999149 
7.7509904e+2, 2.4511746e+2, -493445.0, -608355.25, -40357.33, 0.016122222, 0.09508051, -480687.56, 57170.406, 0.0, 10.000706, 9.999181 
7.751153e+2, 2.551165e+2, -412091.53, -517328.22, -38719.91, 0.034195267, 0.08011478, -399380.53, 40484.484, 0.0, 10.000587, 9.99919 
7.7513164e+2, 2.651153e+2, -337288.44, -493957.75, -31539.436, 0.047017466, 0.07058871, -331177.53, 10698.516, 0.0, 10.000702, 9.998623 
7.751481e+2, 2.7511382e+2, -189247.89, -370742.16, -33760.703, 0.055575408, 0.062339436, -183171.33, 60719.617, 0.0, 10.0010395, 9.998633 
7.751645e+2, 2.8511247e+2, -101821.25, -291007.34, -31501.975, 0.06326841, 0.06874121, -96713.65, 49191.37, 0.0, 10.001023, 9.998516 
7.7518094e+2, 2.9511115e+2, -56298.617, -221334.33, -29844.64, 0.06861108, 0.085750334, -51067.402, -3149.084, 0.0, 10.000676, 9.998488 
7.751973e+2, 3.0510923e+2, -17853.78, -214231.84, -742.1033, 0.03319064, 0.062307347, -17850.977, -17850.977, 0.0, 10.000763, 9.998161 
7.752147e+2, 3.1510764e+2, 192207.98, 105063.55, -6580.8027, 0.053934187, 0.0851134, 192702.13, 192702.13, 0.0000000029769756, 10.0012665, 10.000113 
7.8489643e+2, 1.2510641e+2, -1675107.6, -1754764.4, -70287.36, -0.016831072, 0.15060394, -1634148.5, 79826.336, 0.0000000009851104, 10.000543, 9.999458 
7.849173e+2, 1.3510726e+2, -1539538.4, -1585505.5, 85914.625, 0.11359289, 0.24279402, -1473586.1, 142380.44, 0.0, 10.000545, 9.999961 
7.8493387e+2, 1.451063e+2, -1457600.5, -1524314.0, -6191.309, -0.072649494, 0.16636592, -1457030.8, 60943.93, 0.0, 10.000571, 9.999686 
7.8495175e+2, 1.5510558e+2, -1344057.0, -1421948.9, -16426.004, 0.0055286507, 0.12623528, -1340734.8, 79244.88, 0.0, 10.000692, 9.999657 
7.849688e+2, 1.6510506e+2, -1263775.9, -1362767.5, -32052.25, 0.029973267, 0.124560416, -1254304.0, 67680.2, 0.0, 10.000702, 9.999386 
7.849852e+2, 1.7510475e+2, -1179806.0, -1270047.9, -23694.893, 0.0016184263, 0.15427634, -1173962.8, 50026.13, 0.0, 10.000598, 9.9994 
7.8500164e+2, 1.8510439e+2, -1058357.9, -1125789.4, -20951.58, -0.011400223, 0.16375865, -1052378.3, 73614.09, 0.0, 10.000608, 9.999712 
7.850183e+2, 1.9510397e+2, -941732.94, -1018245.9, -23950.285, -0.009961384, 0.15014479, -934854.4, 93140.42, 0.0, 10.000734, 9.999717 
7.8503495e+2, 2.0510335e+2, -856333.0, -953336.56, -35578.793, 0.0010908977, 0.12988517, -844682.7, 85316.54, 0.0, 10.000764, 9.999476 
7.850516e+2, 2.1510252e+2, -767178.94, -859149.56, -36717.234, 0.022086522, 0.099456504, -754318.7, 77687.09, 0.0, 10.000701, 9.99948 
7.850678e+2, 2.2510181e+2, -692981.56, -806833.06, -53501.59, 0.026861662, 0.09637219, -671785.8, 62226.363, 0.0, 10.000686, 9.999174 
7.8508365e+2, 2.3510118e+2, -589317.56, -704837.9, -54002.973, 0.015607485, 0.11575958, -568004.6, 68013.99, 0.0, 10.000719, 9.999186 
7.850998e+2, 2.4510022e+2, -486595.03, -603218.75, -51519.246, 0.019736564, 0.10293921, -467096.2, 70930.37, 0.0, 10.000746, 9.999196 
7.85116e+2, 2.5509894e+2, -385153.66, -502977.78, -52546.54, 0.03809017, 0.055104684, -365124.16, 74911.836, 0.0, 10.000767, 9.999202 
7.8513247e+2, 2.650977e+2, -332109.72, -496850.1, -38998.023, 0.050008934, 0.04562422, -323344.3, 18702.947, 0.0, 10.00076, 9.998574 
7.851489e+2, 2.7509654e+2, -237201.88, -399171.28, -41253.035, 0.056571428, 0.06903912, -227300.2, 16760.188, 0.0, 10.000734, 9.998585 
7.851654e+2, 2.8509519e+2, -132508.03, -302732.8, -47991.54, 0.063156515, 0.07852824, -119910.09, 26164.195, 0.0, 10.0008, 9.998543 
7.851817e+2, 2.9509366e+2, -14395.688, -198343.05, -46962.875, 0.068568625, 0.07076469, -3099.4824, 44989.574, 0.0, 10.000952, 9.998514 
7.851983e+2, 3.0509153e+2, 11168.204, -204049.56, -11191.843, 0.036365177, 0.028449684, 11748.641, 11748.641, 0.0, 10.000979, 9.998127 
7.8521574e+2, 3.1509033e+2, 133357.36, 68350.16, -25601.297, 0.057732396, 0.09516721, 142229.0, 142229.0, 0.0, 10.000898, 10.000037 
7.948967e+2, 1.2508889e+2, -1664554.4, -1734460.0, -72097.62, -0.044677857, 0.1527009, -1619383.8, 94763.23, 0.0000000034592607, 10.000548, 9.999596 
7.9491764e+2, 1.3508959e+2, -1526134.3, -1557191.3, 84822.8, 0.096233495, 0.21025115, -1455430.3, 160708.52, 0.0, 10.000542, 10.000156 
7.949345e+2, 1.4508878e+2, -1469063.8, -1547636.8, -2534.2686, -0.06296025, 0.14651291, -1468982.1, 49163.777, 0.0, 10.000569, 9.999527 
7.949523e+2, 1.550883e+2, -1354785.1, -1444133.9, -11734.117, -0.007888863, 0.14850822, -1353269.8, 66880.63, 0.0, 10.000692, 9.999505 
7.9496926e+2, 1.6508788e+2, -1248708.6, -1331899.8, -36067.56, 0.008284354, 0.15132664, -1235249.1, 86905.11, 0.0, 10.000702, 9.999598 
7.949856e+2, 1.7508747e+2, -1165305.4, -1240294.5, -27527.494, -0.01108141, 0.15145397, -1156285.4, 67872.31, 0.0, 10.000599, 9.999604 
7.950022e+2, 1.8508704e+2, -1064940.1, -1139387.9, -16525.646, -0.016039897, 0.14800034, -1061436.8, 64724.473, 0.0, 10.0006075, 9.9996195 
7.9501903e+2, 1.9508655e+2, -948503.75, -1031886.06, -19484.992, -0.007725683, 0.13710594, -944175.2, 83989.53, 0.0, 10.000732, 9.999624 
7.950357e+2, 2.0508589e+2, -858779.4, -958304.6, -38362.363, 0.0009479883, 0.12030534, -845709.0, 84460.86, 0.0, 10.000763, 9.999443 
7.950522e+2, 2.1508509e+2, -769386.4, -863990.44, -39299.22, 0.010354565, 0.093977824, -755191.2, 76985.45, 0.0, 10.000702, 9.999447 
7.950685e+2, 2.2508435e+2, -693361.3, -808153.8, -52523.043, 0.02538735, 0.09279632, -672956.56, 61226.58, 0.0, 10.000688, 9.999165 
7.950847e+2, 2.3508371e+2, -589959.1, -706438.1, -52730.656, 0.04560799, 0.111750975, -569634.25, 66555.19, 0.0, 10.00072, 9.999174 
7.951008e+2, 2.4508269e+2, -487804.34, -605785.5, -50711.21, 0.049147617, 0.092391424, -469003.44, 69194.36, 0.0, 10.000746, 9.999179 
7.951168e+2, 2.5508127e+2, -386434.3, -505738.9, -51607.22, 0.03628956, 0.032356434, -367208.84, 72999.33, 0.0, 10.000766, 9.999184 
7.9513305e+2, 2.6508e+2, -335292.47, -503796.63, -39978.27, 0.03869964, 0.023321707, -326288.6, 15931.296, 0.0, 10.000761, 9.998528 
7.951497e+2, 2.7507892e+2, -240243.72, -405790.75, -41798.535, 0.056227222, 0.059632514, -230288.75, 13944.204, 0.0, 10.000734, 9.99854 
7.951662e+2, 2.8507763e+2, -131308.03, -300134.13, -41959.44, 0.06554565, 0.07730549, -121454.664, 24791.559, 0.0, 10.000799, 9.998561 
7.9518265e+2, 2.9507613e+2, -13254.926, -196238.1, -41023.53, 0.06596034, 0.072023176, -4478.668, 43781.344, 0.0, 10.000953, 9.998528 
7.9519916e+2, 3.050738e+2, 1917.509, -224194.98, -13940.179, 0.032029066, 0.01490488, 2773.7002, 2773.7002, 0.0, 10.000982, 9.997988 
7.9521656e+2, 3.150727e+2, 119671.734, 39658.668, -27604.854, 0.04848381, 0.1033355, 128271.27, 128271.27, 0.0, 10.000899, 9.99984 
8.0489725e+2, 1.2507145e+2, -1657145.3, -1724768.0, -73507.4, -0.041609153, 0.1692905, -1610045.9, 104272.93, 0.0000000057252847, 10.00057, 9.999653 
8.04918e+2, 1.3507196e+2, -1505484.8, -1536216.3, 74716.94, 0.06967886, 0.19918299, -1444569.9, 171741.52, 0.0, 10.000637, 10.000255 
8.0493504e+2, 1.4507127e+2, -1467356.0, -1551087.3, -11676.871, -0.068177685, 0.14499252, -1465758.1, 52559.457, 0.0, 10.0006, 9.999489 
8.0495286e+2, 1.5507102e+2, -1382197.8, -1461899.4, -11814.551, -0.006864512, 0.17274743, -1380483.3, 39837.8, 0.0, 10.000524, 9.999465 
8.049699e+2, 1.6507062e+2, -1255497.8, -1318485.1, -33156.07, 0.008657814, 0.17330049, -1241262.0, 81062.39, 0.0, 10.000584, 9.999747 
8.049862e+2, 1.7507008e+2, -1127222.8, -1205348.6, -29335.246, -0.01814894, 0.14466332, -1117434.3, 106893.375, 0.0, 10.00079, 9.999751 
8.050028e+2, 1.8506958e+2, -1038743.7, -1133142.5, -21411.09, -0.023585474, 0.13066557, -1034114.3, 92216.664, 0.0, 10.000816, 9.999561 
8.0501974e+2, 1.950691e+2, -963127.25, -1045792.25, -21703.078, -0.008774266, 0.12704387, -957775.7, 70559.164, 0.0, 10.000662, 9.999563 
8.050364e+2, 2.0506848e+2, -879309.75, -973712.9, -38097.08, 0.003690176, 0.11754077, -865853.5, 64486.793, 0.0, 10.000647, 9.9993925 
8.0505294e+2, 2.1506768e+2, -762604.1, -866069.1, -40687.72, 0.013684141, 0.09810191, -748520.7, 83826.68, 0.0, 10.000772, 9.999398 
8.0506927e+2, 2.2506694e+2, -669496.44, -788987.4, -53050.406, 0.02676465, 0.09407908, -649342.75, 85011.02, 0.0, 10.000819, 9.999232 
8.050854e+2, 2.3506625e+2, -575216.25, -691966.6, -47757.12, 0.04278814, 0.101370916, -558169.94, 78189.836, 0.0, 10.00079, 9.99924 
8.051016e+2, 2.4506517e+2, -489194.38, -618954.94, -45644.03, 0.046495724, 0.080203176, -474747.3, 63621.15, 0.0, 10.000791, 9.999067 
8.0511755e+2, 2.550637e+2, -385889.4, -517779.53, -53898.05, 0.038060687, 0.027514437, -366665.5, 73714.43, 0.0, 10.000824, 9.999072 
8.051339e+2, 2.6506245e+2, -320924.9, -490640.56, -43541.49, 0.038339067, 0.017496334, -310406.06, 31986.06, 0.0, 10.0008335, 9.998582 
8.0515033e+2, 2.750613e+2, -223604.14, -391921.3, -38136.594, 0.047354776, 0.045208067, -215366.47, 29038.611, 0.0, 10.000823, 9.998591 
8.05167e+2, 2.8506008e+2, -120087.52, -300315.7, -30713.328, 0.059831254, 0.07051882, -114997.32, 31420.29, 0.0, 10.0009, 9.998511 
8.051837e+2, 2.950588e+2, -932.1269, -195682.31, -35141.313, 0.074729934, 0.08798576, 5214.858, 53644.96, 0.0, 10.0010605, 9.998479 
8.052002e+2, 3.0505627e+2, 7883.62, -227296.19, -17967.48, 0.038841188, 0.020375568, 9248.396, 9248.396, 0.0, 10.001049, 9.997933 
8.052172e+2, 3.1505516e+2, 104850.55, 17118.62, -25845.58, 0.03263262, 0.11285812, 111898.4, 111898.4, 0.0, 10.000864, 9.9997015 
8.1489813e+2, 1.2505415e+2, -1658767.0, -1727838.5, -69646.58, -0.011555063, 0.20321703, -1615563.8, 98926.3, 0.000000004999778, 10.000569, 9.999633 
8.149182e+2, 1.3505444e+2, -1505696.8, -1535923.1, 76423.9, 0.03257153, 0.2100224, -1442906.0, 173578.3, 0.0, 10.000634, 10.0002575 
8.1493545e+2, 1.4505386e+2, -1461607.1, -1539758.5, -15112.01, -0.09015338, 0.16240878, -1458786.8, 59702.574, 0.0, 10.000602, 9.999566 
8.1495357e+2, 1.5505376e+2, -1376588.8, -1450894.9, -14420.984, 0.0085942615, 0.19976477, -1373888.3, 46603.215, 0.0, 10.000525, 9.99954 
8.1497073e+2, 1.6505335e+2, -1249555.4, -1306224.5, -25620.215, 0.03091897, 0.19064997, -1239689.9, 82804.51, 0.0, 10.000585, 9.999831 
8.1498694e+2, 1.7505261e+2, -1121585.5, -1193031.3, -21620.908, -0.020202918, 0.13354018, -1115552.0, 108946.125, 0.0, 10.000788, 9.999837 
8.1500345e+2, 1.8505208e+2, -1040613.3, -1136664.9, -27331.514, -0.034873575, 0.11179067, -1033380.75, 93120.87, 0.0, 10.0008135, 9.999538 
8.150203e+2, 1.950517e+2, -964681.8, -1049394.4, -27635.203, -0.013436838, 0.120163806, -956463.8, 72041.15, 0.0, 10.000663, 9.999537 
8.1503713e+2, 2.0505112e+2, -884335.8, -984505.3, -33769.984, 0.008675581, 0.121366926, -874014.5, 56495.86, 0.0, 10.000648, 9.999318 
8.150538e+2, 2.1505035e+2, -767822.0, -876702.0, -36219.133, 0.031321842, 0.11164513, -756874.4, 75643.375, 0.0, 10.000771, 9.999326 
8.150701e+2, 2.2504957e+2, -659387.8, -768046.7, -54503.664, 0.030856263, 0.10051146, -636760.5, 97763.58, 0.0, 10.000818, 9.999376 
8.150859e+2, 2.350488e+2, -565199.4, -671355.7, -48965.023, 0.007884985, 0.08515112, -546063.5, 90465.9, 0.0, 10.00079, 9.999381 
8.15102e+2, 2.4504772e+2, -503820.56, -649571.2, -44458.766, 0.011972701, 0.06636388, -491329.66, 47208.785, 0.0, 10.000791, 9.998857 
8.1511843e+2, 2.550463e+2, -400534.2, -548077.4, -52432.5, 0.04258119, 0.039080206, -383799.34, 56751.938, 0.0, 10.000823, 9.998865 
8.1513476e+2, 2.65045e+2, -310588.9, -468945.47, -43766.492, 0.048205655, 0.027389415, -299297.8, 43266.17, 0.0, 10.000832, 9.998732 
8.151509e+2, 2.750437e+2, -213349.89, -370697.53, -38105.855, 0.029534303, 0.027753007, -204607.31, 39969.33, 0.0, 10.000823, 9.998737 
8.151677e+2, 2.8504258e+2, -128235.64, -317238.28, -24461.05, 0.044835415, 0.0593827, -125121.164, 21467.195, 0.0, 10.000899, 9.998396 
8.1518495e+2, 2.9504153e+2, -9360.944, -212152.25, -28647.088, 0.09235733, 0.11602239, -5391.8306, 43207.73, 0.0, 10.001056, 9.998369 
8.152014e+2, 3.0503893e+2, 8605.168, -224557.89, -24287.197, 0.054965332, 0.042377505, 11108.15, 11108.15, 0.0, 10.001044, 9.997954 
8.152179e+2, 3.1503773e+2, 99792.07, 5993.409, -32039.18, 0.008782867, 0.12361643, 109691.125, 109691.125, 0.0000000016901937, 10.000867, 9.999623 
8.2489884e+2, 1.250368e+2, -1615236.0, -1715017.1, -50049.54, -0.01381092, 0.20805208, -1594458.1, 120201.93, 0.0000000017683296, 10.000903, 9.999558 
8.249186e+2, 1.3503705e+2, -1502226.0, -1541103.3, 87526.234, 0.0127878105, 0.21584737, -1432005.8, 184649.56, 0.0, 10.0006895, 10.000194 
8.24936e+2, 1.4503652e+2, -1458474.9, -1533459.0, -4064.3848, -0.09165862, 0.17478348, -1458255.3, 60404.43, 0.0, 10.000603, 9.999609 
8.249541e+2, 1.5503637e+2, -1346184.5, -1431253.1, -5410.674, 0.00666597, 0.20197314, -1345841.8, 74820.15, 0.0, 10.000713, 9.999583 
8.249713e+2, 1.6503592e+2, -1229237.0, -1298471.9, -19742.965, 0.029347535, 0.18676646, -1224002.9, 98662.25, 0.0, 10.000733, 9.999812 
8.2498765e+2, 1.7503515e+2, -1141670.9, -1205353.1, -23926.473, -0.01945004, 0.12953292, -1133683.3, 90985.734, 0.0, 10.000661, 9.999814 
8.250043e+2, 1.8503457e+2, -1063081.9, -1151137.8, -37017.547, -0.03304011, 0.10814806, -1049588.0, 77084.74, 0.0, 10.000675, 9.999506 
8.25021e+2, 1.9503416e+2, -949264.0, -1045407.9, -38139.02, -0.012832614, 0.11624646, -935972.3, 92704.484, 0.0, 10.000784, 9.999506 
8.2503784e+2, 2.0503365e+2, -859111.44, -964973.7, -38026.62, 0.0087084025, 0.12034644, -846868.0, 83813.75, 0.0, 10.00079, 9.999384 
8.250546e+2, 2.15033e+2, -775328.4, -873080.7, -30011.922, 0.03194144, 0.11726518, -766849.5, 65838.086, 0.0, 10.000689, 9.999391 
8.2507086e+2, 2.250322e+2, -678083.1, -776661.2, -47631.797, 0.031741027, 0.10091825, -658828.75, 75865.11, 0.0, 10.000689, 9.999379 
8.250866e+2, 2.3503126e+2, -565066.0, -670873.4, -53011.695, 0.008318793, 0.06850043, -543076.2, 93624.336, 0.0, 10.00079, 9.999384 
8.2510275e+2, 2.4503021e+2, -501495.6, -651722.5, -48571.61, 0.008086706, 0.05419616, -487159.44, 51550.09, 0.0, 10.000821, 9.998827 
8.251191e+2, 2.5502902e+2, -407107.38, -554344.9, -43591.79, 0.03043473, 0.05243466, -395169.34, 45551.72, 0.0, 10.000792, 9.9988365 
8.2513547e+2, 2.6502773e+2, -309756.3, -462825.38, -30995.613, 0.04010867, 0.042729, -303718.06, 39015.36, 0.0, 10.0008135, 9.998782 
8.2515186e+2, 2.750263e+2, -201204.8, -359163.03, -32845.633, 0.037717607, 0.022122143, -194647.16, 50099.63, 0.0, 10.000883, 9.998788 
8.2516855e+2, 2.8502515e+2, -136674.33, -328709.16, -20769.477, 0.048341367, 0.05206078, -134453.69, 12305.0625, 0.0, 10.0008745, 9.998328 
8.251856e+2, 2.9502422e+2, -52552.78, -239924.36, -21799.447, 0.07046053, 0.12589695, -50049.99, -1280.1974, 0.0, 10.00079, 9.998306 
8.2520217e+2, 3.0502155e+2, -11349.699, -219700.9, -12887.516, 0.037225366, 0.04241699, -10555.572, -10555.572, 0.0, 10.000845, 9.998084 
8.252189e+2, 3.1502044e+2, 123166.64, 19086.703, -13735.294, 0.020204317, 0.12060694, 124948.76, 124948.76, 0.000000023716037, 10.001019, 9.99964 
8.348993e+2, 1.2501945e+2, -1623902.9, -1734212.9, -55636.113, -0.05640721, 0.18284364, -1600716.0, 114112.7, 0.000000000051048894, 10.000906, 9.999426 
8.349193e+2, 1.3501982e+2, -1511211.9, -1560675.3, 79102.26, 0.009590843, 0.21714126, -1453065.1, 163758.83, 0.0, 10.000692, 10.000058 
8.3493674e+2, 1.450193e+2, -1457621.3, -1532497.0, -637.82526, -0.07240543, 0.18250562, -1457615.9, 61212.598, 0.0, 10.000606, 9.999614 
8.349546e+2, 1.5501885e+2, -1345853.6, -1430203.5, -1024.0165, -0.013133493, 0.17850377, -1345841.3, 74991.28, 0.0, 10.000711, 9.999592 
8.349717e+2, 1.650183e+2, -1237984.4, -1316589.9, -22331.746, 0.0028315966, 0.16136526, -1232083.0, 90753.31, 0.0, 10.000732, 9.999688 
8.3498836e+2, 1.750177e+2, -1150404.1, -1224074.0, -26492.29, -0.016654052, 0.13299832, -1141866.6, 82973.01, 0.0, 10.000663, 9.999684 
8.3500504e+2, 1.8501714e+2, -1066153.0, -1157823.0, -33190.594, -0.01904115, 0.11988914, -1055397.8, 71446.45, 0.0, 10.000676, 9.999459 
8.3502185e+2, 1.9501656e+2, -952531.1, -1051955.8, -34239.02, -0.007335054, 0.11545025, -941881.0, 86969.055, 0.0, 10.000782, 9.999462 
8.3503854e+2, 2.0501605e+2, -844754.44, -935205.06, -42170.37, 0.0035653189, 0.114935905, -828143.94, 102710.28, 0.0, 10.000789, 9.999588 
8.3505505e+2, 2.1501565e+2, -760850.94, -843512.75, -34219.145, 0.015467223, 0.11515801, -748523.7, 84333.03, 0.0, 10.00069, 9.999593 
8.3507144e+2, 2.2501485e+2, -687741.44, -797072.94, -44243.055, 0.028660825, 0.09519868, -672080.8, 62782.098, 0.0, 10.0006895, 9.999239 
8.350878e+2, 2.3501366e+2, -574929.0, -691205.8, -49390.883, 0.04254116, 0.051511563, -556781.56, 80091.336, 0.0, 10.000789, 9.999246 
8.3510375e+2, 2.4501269e+2, -491709.88, -631257.8, -49886.43, 0.03364787, 0.04402302, -475710.53, 63171.055, 0.0, 10.00082, 9.998968 
8.3511955e+2, 2.550119e+2, -397147.2, -533898.56, -44655.8, 0.0017353857, 0.0678423, -383856.63, 57032.566, 0.0, 10.000792, 9.998978 
8.35136e+2, 2.6501068e+2, -313038.22, -469721.72, -28411.2, 0.01346578, 0.063176766, -308045.53, 34854.973, 0.0, 10.0008135, 9.998735 
8.351531e+2, 2.7500907e+2, -204947.56, -366348.44, -30221.805, 0.06944315, 0.026796479, -199474.23, 45441.414, 0.0, 10.00088, 9.99874 
8.351697e+2, 2.8500777e+2, -138862.66, -332640.5, -23879.168, 0.06890257, 0.048034757, -135963.4, 10965.446, 0.0, 10.000872, 9.998303 
8.3518577e+2, 2.950068e+2, -54162.344, -243545.7, -24597.426, 0.011129527, 0.12007119, -51019.74, -2079.0464, 0.0, 10.000791, 9.998281 
8.3520246e+2, 3.050041e+2, 4776.1563, -186229.36, -5834.7124, -0.013438069, 0.022742089, 4954.225, 4954.225, 0.0, 10.000844, 9.998314 
8.3522034e+2, 3.1500322e+2, 130032.9, 34773.98, -6658.2617, 0.060770042, 0.101026766, 130496.04, 130496.04, 0.00000010288848, 10.001012, 9.999751 
8.449e+2, 1.2500218e+2, -1620158.5, -1755042.4, -56770.137, -0.07870849, 0.16691592, -1599445.6, 115550.5, 0.0, 10.001029, 9.999223 
8.4492e+2, 1.3500239e+2, -1492738.6, -1575498.6, 67148.89, 0.0008959002, 0.20711283, -1455243.5, 161750.78, 0.0, 10.000923, 9.999844 
8.4493756e+2, 1.4500183e+2, -1421223.4, -1513998.6, -7296.2686, -0.06054682, 0.17833029, -1420653.1, 98346.34, 0.0, 10.000853, 9.999621 
8.449554e+2, 1.5500127e+2, -1321671.8, -1417354.9, -7057.1294, -0.016274087, 0.16193557, -1321154.0, 99849.68, 0.0, 10.000873, 9.999601 
8.449725e+2, 1.650007e+2, -1223558.5, -1322078.5, -31029.574, -0.007337264, 0.14686772, -1214600.0, 108407.91, 0.0, 10.000885, 9.9995775 
8.44989e+2, 1.7500015e+2, -1125013.5, -1223992.5, -34254.02, -0.026373534, 0.13437048, -1114315.4, 110696.44, 0.0, 10.00089, 9.999576 
8.4500575e+2, 1.8499959e+2, -1037680.06, -1137767.8, -34742.297, -0.024512827, 0.12614942, -1026802.56, 100213.875, 0.0, 10.000844, 9.9995165 
8.450226e+2, 1.9499902e+2, -953854.5, -1046024.56, -27807.797, -0.0045668534, 0.11652872, -946114.8, 82907.16, 0.0, 10.000745, 9.999521 
8.450393e+2, 2.0499857e+2, -853075.44, -933220.44, -38782.152, 0.0072176703, 0.113967836, -837381.8, 93643.67, 0.0, 10.000706, 9.999642 
8.450557e+2, 2.1499822e+2, -751520.75, -833044.0, -42260.707, 0.012378346, 0.11485717, -733567.1, 99460.06, 0.0, 10.000729, 9.999646 
8.4507215e+2, 2.2499742e+2, -688544.4, -799916.06, -52027.996, 0.027993303, 0.09342962, -668021.1, 67012.33, 0.0, 10.000695, 9.999217 
8.4508854e+2, 2.3499615e+2, -602597.56, -706947.44, -48771.91, 0.053167764, 0.045789056, -583351.75, 53692.48, 0.0, 10.000608, 9.999224 
8.4510463e+2, 2.4499522e+2, -512290.56, -636863.06, -46135.84, 0.04491125, 0.041650284, -497064.94, 41987.734, 0.0, 10.000661, 9.999006 
8.4512043e+2, 2.5499457e+2, -386229.22, -524556.06, -48952.996, 0.003159555, 0.07671256, -370657.9, 70401.055, 0.0, 10.00085, 9.999014 
8.4513676e+2, 2.6499337e+2, -310633.28, -473647.2, -41872.8, 0.008107854, 0.07302675, -300506.63, 42563.71, 0.0, 10.000853, 9.998689 
8.4515375e+2, 2.749916e+2, -238737.38, -387765.03, -43856.133, 0.060168304, 0.027439034, -226789.25, 18297.78, 0.0, 10.000671, 9.9986925 
8.451704e+2, 2.8499037e+2, -160700.69, -334488.8, -29468.445, 0.060767453, 0.047609057, -155839.83, -8739.637, 0.0, 10.000685, 9.99838 
8.451866e+2, 2.949895e+2, -35395.76, -225780.55, -23179.242, 0.00966716, 0.12622362, -32614.336, 16496.133, 0.0, 10.000882, 9.998358 
8.452033e+2, 3.049868e+2, 23155.209, -163860.48, -6564.031, -0.017111251, 0.020413544, 23385.316, 23385.316, 0.00000000024035085, 10.000913, 9.998434 
8.45221e+2, 3.1498602e+2, 93208.46, 16681.953, -15853.094, 0.040838446, 0.09483107, 96362.56, 96362.56, 0.00000026211356, 10.000762, 9.999747 
8.54901e+2, 1.24985054e+2, -1639405.0, -1796542.9, -56699.152, -0.08677403, 0.16148077, -1621082.9, 94078.99, 0.0, 10.001035, 9.998937 
8.5492074e+2, 1.349848e+2, -1514584.3, -1620703.4, 62476.88, -0.013055105, 0.18538016, -1485676.3, 131489.8, 0.0, 10.000922, 9.999534 
8.5493845e+2, 1.4498413e+2, -1420105.3, -1512040.8, -7094.1226, -0.056539826, 0.16194153, -1419561.1, 99611.48, 0.0, 10.000854, 9.999635 
8.549564e+2, 1.5498367e+2, -1319998.0, -1415102.3, -5988.0923, -0.0041236943, 0.1530481, -1319622.5, 101552.94, 0.0, 10.000877, 9.999616 
8.549734e+2, 1.6498311e+2, -1229909.4, -1336357.5, -30904.293, -0.0023772698, 0.14370862, -1221587.8, 101591.945, 0.0, 10.000889, 9.999477 
8.549897e+2, 1.7498249e+2, -1131677.0, -1237995.1, -34111.965, -0.048688564, 0.1337595, -1121673.5, 103511.76, 0.0, 10.00089, 9.999479 
8.5500634e+2, 1.84982e+2, -1025994.06, -1113630.5, -38660.168, -0.049722537, 0.12733002, -1011377.3, 115812.07, 0.0, 10.000844, 9.999682 
8.550234e+2, 1.949816e+2, -942100.4, -1022094.6, -31837.543, -0.0050849104, 0.11933691, -930976.1, 98216.17, 0.0, 10.000746, 9.999685 
8.550401e+2, 2.0498118e+2, -859674.56, -947155.9, -38440.563, 0.018843396, 0.11695428, -845183.56, 86011.805, 0.0, 10.000707, 9.999546 
8.550566e+2, 2.149807e+2, -758201.56, -846858.44, -41774.76, 0.02196435, 0.11658929, -741619.06, 91579.71, 0.0, 10.000728, 9.999552 
8.5507286e+2, 2.2497994e+2, -682188.94, -786987.2, -55707.816, 0.02927619, 0.09606857, -658109.1, 77095.97, 0.0, 10.000695, 9.999306 
8.55089e+2, 2.349788e+2, -595680.7, -693500.2, -52114.65, 0.0405745, 0.0507722, -573119.44, 64094.96, 0.0, 10.000612, 9.999314 
8.551052e+2, 2.4497786e+2, -516787.5, -646758.7, -39109.133, 0.041619483, 0.04649856, -505926.84, 33295.87, 0.0, 10.000662, 9.998939 
8.551215e+2, 2.5497714e+2, -391478.22, -535092.7, -41757.563, 0.03270309, 0.07938744, -380219.4, 61010.73, 0.0, 10.000848, 9.998942 
8.5513777e+2, 2.6497582e+2, -314372.94, -481091.9, -48647.457, 0.022828674, 0.07303103, -301216.22, 42026.53, 0.0, 10.000851, 9.998639 
8.551539e+2, 2.74974e+2, -241612.84, -394780.66, -50334.79, 0.011946758, 0.024503265, -226552.4, 18708.318, 0.0, 10.000675, 9.998643 
8.5517067e+2, 2.8497285e+2, -148480.34, -310004.3, -21645.344, 0.024462929, 0.05047283, -145630.02, 1642.6664, 0.0, 10.000688, 9.998547 
8.55188e+2, 2.9497233e+2, -24111.87, -201450.73, -15366.878, 0.060307533, 0.14316164, -22790.14, 26489.146, 0.0, 10.000877, 9.998528 
8.552046e+2, 3.0496967e+2, 23316.594, -162175.78, -11929.065, 0.021871801, 0.033697356, 24080.607, 24080.607, 0.0000000059514194, 10.000907, 9.998448 
8.5522103e+2, 3.149688e+2, 85550.805, 168.8301, -20921.475, -0.035643313, 0.09716013, 90401.68, 90401.68, 0.0000005093443, 10.000764, 9.999633 
8.64902e+2, 1.24967374e+2, -1646852.3, -1796698.3, -91618.85, -0.08323892, 0.1552174, -1603422.1, 111912.99, 0.00000000000000000000885557, 10.00097, 9.998966 
8.649217e+2, 1.3496712e+2, -1480533.8, -1604187.9, 45738.46, -0.017748058, 0.17792939, -1465454.5, 151884.66, 0.0, 10.001158, 9.999534 
8.6493945e+2, 1.4496653e+2, -1389071.9, -1499526.8, -19880.412, -0.053430874, 0.16383226, -1385602.6, 133742.3, 0.0, 10.001078, 9.999613 
8.649571e+2, 1.5496606e+2, -1339314.0, -1426619.8, -21475.28, -0.010039631, 0.15687431, -1334317.5, 87030.516, 0.0, 10.000754, 9.999596 
8.649741e+2, 1.6496548e+2, -1257727.1, -1342839.1, -32910.0, -0.008517959, 0.14484167, -1246486.5, 76866.04, 0.0, 10.000668, 9.99954 
8.6499053e+2, 1.7496487e+2, -1135752.8, -1232517.0, -23620.23, -0.047005966, 0.12896869, -1130294.9, 95062.9, 0.0, 10.00083, 9.999546 
8.6500716e+2, 1.8496443e+2, -1024956.3, -1109477.0, -34497.81, -0.048723962, 0.12320833, -1012663.6, 114697.59, 0.0, 10.000835, 9.999715 
8.65024e+2, 1.9496414e+2, -949927.0, -1022304.3, -37893.16, -0.013000549, 0.12210578, -933718.06, 95644.97, 0.0, 10.000677, 9.999718 
8.650407e+2, 2.0496368e+2, -874260.2, -956180.4, -40507.465, 0.014382982, 0.11613713, -857613.1, 73753.22, 0.0, 10.000614, 9.999529 
8.650573e+2, 2.1496308e+2, -770877.75, -854703.75, -38160.438, 0.03305499, 0.101967305, -756108.2, 77263.03, 0.0, 10.0006485, 9.9995365 
8.650736e+2, 2.2496232e+2, -676921.3, -782118.25, -52202.266, 0.03793718, 0.085365295, -655413.94, 79963.33, 0.0, 10.000722, 9.999327 
8.650896e+2, 2.3496142e+2, -561914.3, -674817.3, -54382.777, 0.028926238, 0.061786134, -539980.5, 97404.21, 0.0, 10.000834, 9.999335 
8.651058e+2, 2.449605e+2, -499023.0, -642007.1, -43353.883, 0.029312266, 0.05830422, -486904.8, 52488.305, 0.0, 10.000801, 9.998903 
8.651223e+2, 2.5495952e+2, -426321.88, -555709.9, -43687.43, 0.039249912, 0.0709133, -412952.4, 28450.357, 0.0, 10.000626, 9.998908 
8.6513853e+2, 2.6495823e+2, -339702.88, -492722.47, -45489.746, 0.026759828, 0.063371904, -327201.06, 16214.745, 0.0, 10.000675, 9.998643 
8.6515456e+2, 2.7495655e+2, -201684.5, -375200.06, -43691.543, -0.007977832, 0.032750152, -191303.9, 54128.508, 0.0, 10.000948, 9.998646 
8.6517125e+2, 2.8495547e+2, -110999.58, -289675.72, -22597.459, 0.0043199207, 0.06554769, -108185.945, 39257.84, 0.0, 10.000936, 9.998567 
8.651888e+2, 2.9495493e+2, -58246.285, -215076.34, -27274.244, 0.06304779, 0.15428866, -53638.418, -4187.9043, 0.0, 10.000632, 9.998551 
8.652054e+2, 3.0495232e+2, -11334.5, -174497.53, -22320.988, 0.025032144, 0.045873534, -8336.053, -8336.053, 0.000000027135602, 10.00065, 9.998487 
8.652216e+2, 3.149516e+2, 108711.01, 1215.9572, -29799.555, -0.058062334, 0.12067575, 116419.234, 116419.234, 0.00000083365, 10.000967, 9.999541 
8.749031e+2, 1.2494915e+2, -1622611.1, -1745613.8, -81250.86, -0.07227038, 0.14894632, -1582209.9, 133305.66, 0.0000000055054987, 10.000965, 9.99932 
8.749229e+2, 1.3494936e+2, -1457799.1, -1557732.4, 52194.973, -0.01564658, 0.18541989, -1435509.4, 182003.97, 0.0, 10.001161, 9.999851 
8.749405e+2, 1.4494902e+2, -1392604.4, -1508587.0, -32376.719, -0.05382546, 0.18462083, -1384178.5, 135337.84, 0.0, 10.001083, 9.999548 
8.7495756e+2, 1.5494846e+2, -1343418.3, -1435530.5, -33816.848, -0.033982486, 0.17402597, -1332336.4, 89185.086, 0.0, 10.000755, 9.999535 
8.7497455e+2, 1.6494787e+2, -1241433.3, -1309386.4, -27317.799, -0.025539953, 0.15129484, -1231813.1, 91712.914, 0.0, 10.000669, 9.99977 
8.749916e+2, 1.7494732e+2, -1119184.6, -1198779.8, -17643.734, -0.022386042, 0.12000339, -1115448.9, 110080.37, 0.0, 10.000832, 9.999777 
8.750082e+2, 1.8494694e+2, -1031650.06, -1123818.5, -40702.195, -0.022588443, 0.11348329, -1016249.1, 111282.555, 0.0, 10.000836, 9.999617 
8.750245e+2, 1.9494668e+2, -956658.1, -1036728.56, -44181.418, -0.028660117, 0.1250459, -937071.06, 92462.86, 0.0, 10.000678, 9.999619 
8.750411e+2, 2.0494613e+2, -869920.6, -947611.4, -39776.63, -0.006643864, 0.11214687, -853167.94, 78370.17, 0.0, 10.000616, 9.999588 
8.750581e+2, 2.1494532e+2, -766541.6, -846050.0, -37363.133, 0.04496852, 0.071299985, -751739.44, 81804.84, 0.0, 10.000649, 9.999596 
8.750745e+2, 2.2494464e+2, -680366.25, -789334.5, -48387.246, 0.053402312, 0.06122654, -661981.7, 73568.164, 0.0, 10.000721, 9.999277 
8.7509036e+2, 2.3494409e+2, -565835.8, -682548.44, -50291.758, 0.01799607, 0.07864613, -547155.0, 90399.83, 0.0, 10.000832, 9.999285 
8.751064e+2, 2.4494316e+2, -499420.66, -642676.2, -50044.293, 0.007921654, 0.07721306, -483670.13, 55893.563, 0.0, 10.0008, 9.998899 
8.751228e+2, 2.549418e+2, -425943.16, -555957.7, -50012.758, 0.023305481, 0.05178154, -408930.78, 32645.852, 0.0, 10.000629, 9.998904 
8.751392e+2, 2.6494053e+2, -335650.28, -485233.7, -34897.22, 0.019833662, 0.044178683, -327909.47, 15679.954, 0.0, 10.000678, 9.998693 
8.751555e+2, 2.7493927e+2, -198714.22, -368347.8, -32871.51, -0.0023389154, 0.05145651, -192567.16, 53035.03, 0.0, 10.000944, 9.998695 
8.7517214e+2, 2.8493828e+2, -120170.74, -307774.7, -33524.953, -0.001448722, 0.09218363, -114359.8, 33253.754, 0.0, 10.000932, 9.998445 
8.7518895e+2, 2.9493737e+2, -65768.14, -231885.02, -37842.137, 0.021623293, 0.15966277, -57553.74, -7929.702, 0.0, 10.000637, 9.998434 
8.752057e+2, 3.049348e+2, -6227.8164, -165161.53, -9249.962, -0.00513887, 0.056686215, -5691.2783, -5691.2783, 0.00000006425192, 10.000655, 9.998549 
8.752228e+2, 3.1493437e+2, 103802.516, -8176.622, -16298.532, -0.034187213, 0.15997733, 106126.52, 106126.52, 0.0000011924308, 10.000963, 9.999479 
8.849044e+2, 1.24931574e+2, -1555283.5, -1695070.5, -52037.29, -0.05802244, 0.16698736, -1538039.4, 177649.84, 0.00000006865042, 10.00135, 9.999481 
8.849237e+2, 1.3493168e+2, -1503249.6, -1566037.4, 61532.28, -0.029231073, 0.18287627, -1465565.3, 152121.23, 0.0, 10.000792, 9.999971 
8.849412e+2, 1.4493139e+2, -1458073.5, -1541207.6, -22021.572, -0.06530012, 0.18059094, -1452600.5, 67088.15, 0.0, 10.000639, 9.999538 
8.849584e+2, 1.5493089e+2, -1314298.9, -1422244.4, -18947.703, -0.036220115, 0.17746316, -1311069.6, 110624.06, 0.0, 10.000958, 9.999528 
8.849754e+2, 1.6493036e+2, -1197626.6, -1283090.5, -20533.58, -0.022913562, 0.15758984, -1192949.3, 130748.73, 0.0, 10.000948, 9.999815 
8.849923e+2, 1.7492984e+2, -1153693.5, -1210851.3, -25520.367, -0.018548448, 0.12401732, -1143957.4, 81743.44, 0.0, 10.000575, 9.999819 
8.85009e+2, 1.8492945e+2, -1080132.3, -1146617.8, -46177.74, -0.014673154, 0.11458159, -1056476.3, 71226.914, 0.0, 10.000502, 9.999622 
8.850253e+2, 1.9492915e+2, -947063.25, -1031113.44, -41992.92, -0.015031352, 0.12300778, -929678.6, 100026.89, 0.0, 10.00074, 9.999626 
8.850419e+2, 2.0492859e+2, -845919.8, -935834.5, -39548.57, 0.0022684636, 0.10649464, -831000.2, 100709.7, 0.0, 10.00078, 9.999589 
8.8505864e+2, 2.1492773e+2, -771950.06, -848356.06, -41615.324, 0.03887412, 0.061344203, -753661.44, 80054.914, 0.0, 10.000611, 9.999598 
8.8507503e+2, 2.249271e+2, -709065.5, -803973.25, -48486.39, 0.046251133, 0.055727027, -688675.44, 47046.3, 0.0, 10.000528, 9.9992695 
8.8509107e+2, 2.3492669e+2, -609168.44, -704314.3, -47826.566, 0.0237261, 0.08714126, -589283.5, 48442.56, 0.0, 10.000539, 9.999276 
8.851071e+2, 2.4492578e+2, -519941.2, -649236.06, -46455.277, 0.010578421, 0.08919226, -504980.94, 34753.79, 0.0, 10.000646, 9.998929 
8.851234e+2, 2.549244e+2, -391190.7, -535817.9, -44427.11, 0.006540132, 0.056165587, -378633.66, 63114.336, 0.0, 10.000854, 9.998935 
8.851397e+2, 2.6492313e+2, -305764.34, -464793.53, -27847.3, 0.0029159768, 0.04725685, -301029.06, 42731.336, 0.0, 10.000857, 9.998748 
8.8515633e+2, 2.7492198e+2, -237675.39, -380914.13, -25743.893, -0.0000648811, 0.060019806, -233189.03, 12582.991, 0.0, 10.00065, 9.99875 
8.851729e+2, 2.84921e+2, -158379.48, -327375.72, -23868.244, -0.0023805643, 0.10184368, -155073.13, -7290.0156, 0.0, 10.000675, 9.998433 
8.851895e+2, 2.949201e+2, -24894.133, -213535.34, -20666.053, -0.004464374, 0.16631533, -22656.662, 27137.545, 0.0, 10.000923, 9.998422 
8.852063e+2, 3.0491754e+2, 43082.3, -142015.97, 13420.893, -0.029426776, 0.06532059, 44050.344, 44050.344, 0.00000010587227, 10.000996, 9.998545 
8.852237e+2, 3.1491712e+2, 83106.51, -31892.682, 1044.2601, -0.03426645, 0.16904566, 83115.99, 83115.99, 0.0000015115112, 10.000879, 9.999356 
8.949058e+2, 1.24914706e+2, -1557706.3, -1701534.8, -69111.086, -0.04908245, 0.2122703, -1529880.9, 185974.14, 0.00000033535434, 10.001356, 9.999435 
8.949242e+2, 1.3491417e+2, -1509707.8, -1578983.8, 39650.39, -0.05795382, 0.17099972, -1491696.5, 126161.555, 0.00000000007521531, 10.00079, 9.999884 
8.949416e+2, 1.4491369e+2, -1454799.1, -1534721.3, -11159.289, -0.08677818, 0.15226045, -1453270.3, 66591.45, 0.0, 10.000639, 9.999583 
8.949595e+2, 1.5491343e+2, -1310131.1, -1414335.0, -6924.359, -0.018475376, 0.1669341, -1309673.0, 112191.32, 0.0, 10.000961, 9.999581 
8.949765e+2, 1.64913e+2, -1207499.9, -1304298.6, -34292.246, -0.0025810858, 0.16315433, -1196582.6, 127285.32, 0.0, 10.00095, 9.999669 
8.949927e+2, 1.7491244e+2, -1163717.4, -1232226.9, -39740.184, -0.03578966, 0.14126278, -1145506.3, 80365.98, 0.0, 10.000577, 9.999671 
8.9500934e+2, 1.8491198e+2, -1072571.0, -1131450.5, -37907.156, -0.025739519, 0.12735619, -1054014.4, 73861.06, 0.0, 10.000503, 9.999725 
8.950265e+2, 1.949116e+2, -939391.8, -1015430.2, -33477.953, 0.02701222, 0.11620516, -926753.0, 103124.65, 0.0, 10.00074, 9.999735 
8.95043e+2, 2.0491105e+2, -849544.1, -943460.9, -46419.957, 0.040741693, 0.098936945, -830472.94, 101408.6, 0.0, 10.00078, 9.999537 
8.9505905e+2, 2.1491033e+2, -775542.75, -856176.06, -48475.29, 0.014932612, 0.07150517, -752809.56, 81077.62, 0.0, 10.000612, 9.999544 
8.9507526e+2, 2.249097e+2, -706700.5, -799658.3, -48507.52, 0.016061602, 0.06860789, -685998.56, 49894.15, 0.0, 10.00053, 9.999299 
8.950918e+2, 2.3490919e+2, -606665.06, -700051.06, -47463.918, 0.044646937, 0.08766092, -586776.8, 51121.324, 0.0, 10.000542, 9.999304 
8.9510804e+2, 2.4490839e+2, -515587.78, -640863.25, -38669.164, 0.03591195, 0.09436379, -504613.1, 35292.98, 0.0, 10.000648, 9.998986 
8.95124e+2, 2.5490725e+2, -387637.06, -527901.4, -36332.53, -0.011366721, 0.08284928, -378784.6, 63132.24, 0.0, 10.000851, 9.998991 
8.951403e+2, 2.6490605e+2, -302362.44, -456902.88, -35412.125, -0.024042245, 0.07179471, -294634.38, 49294.348, 0.0, 10.000854, 9.998804 
8.951569e+2, 2.7490473e+2, -233265.3, -372355.97, -33099.58, -0.0010277338, 0.058985848, -225790.27, 20151.582, 0.0, 10.000653, 9.998808 
8.951736e+2, 2.849037e+2, -151683.4, -314312.53, -14044.805, 0.0011653122, 0.09534008, -150479.4, -2526.9133, 0.0, 10.000677, 9.998522 
8.9519024e+2, 2.9490304e+2, -19272.207, -201131.2, -10763.943, -0.018063983, 0.17404546, -18637.322, 31323.908, 0.0, 10.000919, 9.99851 
8.952071e+2, 3.0490047e+2, 36487.36, -153549.34, 9514.557, -0.04996576, 0.072038226, 36962.535, 36962.535, 0.00000013409642, 10.000987, 9.998469 
8.952244e+2, 3.148997e+2, 69386.234, -59120.72, -2011.6742, -0.05692613, 0.14661562, 69417.72, 69417.72, 0.0000016978646, 10.0008745, 9.999171 
9.0490705e+2, 1.2489767e+2, -1598503.4, -1736480.1, -51568.418, -0.04824798, 0.21240592, -1581359.9, 134661.08, 0.0000010631732, 10.001139, 9.999302 
9.049252e+2, 1.3489689e+2, -1463664.8, -1576472.6, 45747.89, -0.05246595, 0.1658227, -1447444.5, 170582.27, 0.000000007369457, 10.00119, 9.999708 
9.049426e+2, 1.4489631e+2, -1401788.8, -1510068.5, -1969.9706, -0.07263907, 0.14558709, -1401752.9, 118278.7, 0.0, 10.001008, 9.999574 
9.049604e+2, 1.5489596e+2, -1366516.3, -1442556.8, -2608.1426, -0.0076363557, 0.1535618, -1366426.9, 55607.938, 0.0, 10.000578, 9.999572 
9.049773e+2, 1.6489556e+2, -1281726.3, -1348943.8, -29927.486, 0.006194091, 0.15596892, -1270332.8, 53705.805, 0.0, 10.000479, 9.999589 
9.049934e+2, 1.7489512e+2, -1145035.1, -1231723.9, -30581.947, -0.030504385, 0.1536113, -1135332.4, 90709.95, 0.0, 10.000743, 9.999594 
9.0501e+2, 1.8489467e+2, -1028891.94, -1108262.9, -26002.0, -0.022887992, 0.14177628, -1021132.3, 106913.55, 0.0, 10.000795, 9.999743 
9.0502715e+2, 1.9489415e+2, -956679.0, -1021897.5, -28310.947, 0.02995984, 0.114997655, -946104.06, 83944.97, 0.0, 10.000614, 9.99975 
9.050437e+2, 2.0489362e+2, -877436.44, -953369.8, -43784.895, 0.041441675, 0.097255416, -857449.8, 74602.78, 0.0, 10.000574, 9.999568 
9.050596e+2, 2.1489307e+2, -763127.75, -846723.25, -40147.04, 0.0102771865, 0.08489595, -746970.06, 87086.58, 0.0, 10.000683, 9.999575 
9.050758e+2, 2.2489244e+2, -677991.75, -790250.0, -38389.016, 0.008674514, 0.08298656, -666119.44, 69942.836, 0.0, 10.000747, 9.999259 
9.0509236e+2, 2.3489176e+2, -576871.7, -690308.3, -42713.402, 0.037135158, 0.08841997, -562587.2, 75482.45, 0.0, 10.000767, 9.999262 
9.0510863e+2, 2.4489097e+2, -503859.28, -628621.56, -36404.504, 0.028407706, 0.096704714, -494013.72, 46063.734, 0.0, 10.0007, 9.999044 
9.0512455e+2, 2.5489008e+2, -428576.88, -541007.25, -34160.836, -0.018718649, 0.10283752, -419011.28, 23074.715, 0.0, 10.000542, 9.999049 
9.051409e+2, 2.648889e+2, -341172.16, -468842.2, -33726.17, -0.033127695, 0.09078925, -332810.47, 11286.802, 0.0, 10.000559, 9.998863 
9.051575e+2, 2.7488744e+2, -214529.4, -356852.6, -31634.295, -0.0135045275, 0.057579204, -207814.81, 38296.57, 0.0, 10.000753, 9.998866 
9.0517426e+2, 2.8488645e+2, -134141.08, -307895.75, -13806.266, -0.009438786, 0.090187944, -133050.89, 15071.187, 0.0, 10.000807, 9.998504 
9.05191e+2, 2.9488587e+2, -50895.42, -218021.02, -18718.188, -0.021906594, 0.18276589, -48824.63, 1305.2568, 0.0, 10.0007105, 9.998494 
9.052079e+2, 3.0488342e+2, 11188.045, -145168.42, 4786.22, -0.052093584, 0.08274935, 11334.418, 11334.418, 0.0000001316986, 10.000725, 9.998652 
9.052251e+2, 3.1488258e+2, 69296.57, -50559.78, 11918.906, -0.06599027, 0.13141972, 70470.33, 70470.33, 0.0000016698094, 10.000836, 9.999249 
9.14908e+2, 1.2488049e+2, -1612383.3, -1766778.9, -46030.75, -0.061239995, 0.16593629, -1599701.5, 116484.95, 0.0000026057617, 10.001143, 9.999092 
9.1492677e+2, 1.3487995e+2, -1481461.5, -1613993.8, 47195.855, -0.014686008, 0.1668052, -1466372.5, 151819.38, 0.00000007607973, 10.001192, 9.99945 
9.149441e+2, 1.4487933e+2, -1406851.8, -1521085.1, -17924.84, -0.024951126, 0.16068701, -1404105.1, 116092.586, 0.0, 10.00101, 9.999498 
9.14961e+2, 1.548786e+2, -1371726.3, -1453628.8, -18968.729, -0.0036354063, 0.13817646, -1367546.5, 54658.01, 0.0, 10.000579, 9.999496 
9.149777e+2, 1.6487812e+2, -1282652.6, -1351714.3, -20924.816, 0.003275796, 0.1372076, -1276807.4, 47401.703, 0.0, 10.000482, 9.99957 
9.1499436e+2, 1.7487793e+2, -1145823.3, -1233701.3, -20920.906, -0.0034398807, 0.1611391, -1141096.9, 85114.07, 0.0, 10.000744, 9.99958 
9.15011e+2, 1.848775e+2, -1033782.44, -1118393.5, -32979.457, -0.0064683724, 0.15755928, -1022446.56, 105767.7, 0.0, 10.000794, 9.999675 
9.150274e+2, 1.948768e+2, -961516.2, -1032239.06, -35539.383, -0.006147613, 0.11898776, -946743.0, 83476.35, 0.0, 10.000615, 9.99968 
9.150439e+2, 2.0487629e+2, -870167.44, -938587.4, -40338.57, 0.0037236896, 0.10128481, -851485.75, 80737.055, 0.0, 10.000575, 9.999669 
9.150604e+2, 2.1487597e+2, -755774.25, -831570.5, -36586.484, 0.023742434, 0.10173141, -740995.6, 93228.88, 0.0, 10.000683, 9.999679 
9.150767e+2, 2.2487533e+2, -685598.25, -805999.4, -38088.527, 0.023559414, 0.09915819, -674560.9, 61669.375, 0.0, 10.000747, 9.999151 
9.1509277e+2, 2.3487438e+2, -584665.06, -706429.8, -42016.54, 0.0023358772, 0.08937337, -571574.06, 66666.27, 0.0, 10.000766, 9.999152 
9.1510886e+2, 2.4487357e+2, -499661.47, -620183.75, -42089.965, -0.011263373, 0.096214324, -486417.72, 53831.004, 0.0, 10.000701, 9.999103 
9.1512513e+2, 2.548729e+2, -423671.6, -532125.2, -39767.664, -0.01673732, 0.116347216, -410652.47, 31602.879, 0.0, 10.000546, 9.999108 
9.151415e+2, 2.6487178e+2, -336216.75, -459851.16, -26145.541, -0.025653949, 0.10441599, -330914.97, 13350.884, 0.0, 10.000564, 9.998923 
9.1515803e+2, 2.7487022e+2, -210513.81, -348521.28, -23887.047, -0.03776247, 0.055509858, -206496.27, 39784.26, 0.0, 10.000753, 9.998923 
9.151747e+2, 2.8486913e+2, -143342.7, -326370.03, -17215.38, -0.03442635, 0.08639, -141737.52, 6554.276, 0.0, 10.000804, 9.998379 
9.1519177e+2, 2.948686e+2, -59190.813, -235769.31, -21725.277, -0.016233804, 0.19316205, -56557.133, -6257.1597, 0.0, 10.000711, 9.998371 
9.1520876e+2, 3.0486634e+2, 41396.652, -82759.375, 9606.103, -0.036716253, 0.09754688, 42135.49, 42135.49, 0.00000009563079, 10.000726, 9.999082 
9.152259e+2, 3.1486562e+2, 92024.56, -2108.4033, 16744.479, -0.066323504, 0.11763737, 94914.375, 94914.375, 0.0000014046396, 10.000831, 9.999585 
9.2490906e+2, 1.2486307e+2, -1614949.1, -1765709.0, -77092.88, -0.0686549, 0.14135629, -1582507.6, 133848.27, 0.000005355975, 10.001118, 9.99911 
9.2492795e+2, 1.3486265e+2, -1517636.4, -1633749.5, 30059.361, 0.000660121, 0.15566063, -1510316.1, 108044.76, 0.00000033393198, 10.000956, 9.999427 
9.249452e+2, 1.4486212e+2, -1430262.6, -1536510.4, -29880.893, -0.0075021475, 0.16227533, -1422435.5, 97930.76, 0.0, 10.000869, 9.999459 
9.249616e+2, 1.5486142e+2, -1329605.0, -1436945.9, -28434.967, -0.015686285, 0.1457688, -1322537.8, 99835.18, 0.0, 10.000886, 9.999462 
9.2497826e+2, 1.648609e+2, -1236399.6, -1328611.4, -19068.186, -0.0073448005, 0.14300501, -1232612.1, 91765.78, 0.0, 10.000798, 9.999575 
9.249953e+2, 1.7486063e+2, -1168408.0, -1244174.8, -17807.85, 0.020642847, 0.15704452, -1164431.3, 61949.19, 0.0, 10.000588, 9.999583 
9.250118e+2, 1.8486015e+2, -1073676.5, -1137282.3, -29090.342, 0.018642057, 0.14927171, -1062378.6, 66005.35, 0.0, 10.00052, 9.999677 
9.250279e+2, 1.9485946e+2, -962293.44, -1031898.3, -26806.016, -0.016708141, 0.11210648, -953166.7, 77222.16, 0.0, 10.000608, 9.999684 
9.2504424e+2, 2.0485899e+2, -860119.2, -935413.7, -29503.947, -0.01701834, 0.09845495, -849935.5, 82456.625, 0.0, 10.000652, 9.999654 
9.2506105e+2, 2.1485873e+2, -762543.2, -836633.06, -34796.49, 0.019918857, 0.10641357, -748763.7, 85629.914, 0.0, 10.000646, 9.999662 
9.250773e+2, 2.248581e+2, -702558.9, -811400.1, -38525.73, 0.023256961, 0.10467295, -690302.4, 46097.0, 0.0, 10.000619, 9.999175 
9.250933e+2, 2.3485711e+2, -611693.6, -716661.56, -33129.754, -0.008386506, 0.08831853, -602111.94, 36297.758, 0.0, 10.000569, 9.999177 
9.2510945e+2, 2.448563e+2, -510462.7, -624345.7, -29394.775, -0.022410609, 0.09165817, -503323.1, 37094.992, 0.0, 10.000623, 9.999111 
9.251258e+2, 2.548556e+2, -387807.97, -514060.28, -31174.717, -0.018287892, 0.111681774, -380529.78, 61894.805, 0.0, 10.00079, 9.999116 
9.251422e+2, 2.648545e+2, -302794.94, -451035.2, -22734.816, -0.023672158, 0.10439944, -299386.56, 45048.508, 0.0, 10.000824, 9.998858 
9.251587e+2, 2.7485296e+2, -220533.83, -360500.8, -29829.605, -0.0387632, 0.064762376, -214441.73, 32008.207, 0.0, 10.000716, 9.998858 
9.251755e+2, 2.8485188e+2, -148368.83, -320643.66, -20717.066, -0.041071113, 0.090558864, -145912.5, 2549.0537, 0.0, 10.000735, 9.998451 
9.2519236e+2, 2.9485118e+2, -29099.02, -212785.23, -11230.04, -0.030989572, 0.17827104, -28414.994, 22055.133, 0.0, 10.000883, 9.998447 
9.2520946e+2, 3.0484906e+2, 56237.992, -81499.734, 7188.606, -0.043879554, 0.09278496, 56612.156, 56612.156, 0.00000004550982, 10.0008545, 9.999028 
9.2522675e+2, 3.1484845e+2, 54691.145, -35766.473, -20545.004, -0.05337383, 0.12988736, 59138.71, 59138.71, 0.0000009683944, 10.000643, 9.999444 
9.349101e+2, 1.2484546e+2, -1598032.9, -1730258.8, -81170.97, -0.07801777, 0.13707769, -1559457.5, 157071.39, 0.000009813605, 10.001116, 9.999354 
9.3492883e+2, 1.3484506e+2, -1502580.1, -1603071.0, 23555.14, -0.006882583, 0.13337816, -1497332.9, 121200.31, 0.0000009955157, 10.000958, 9.999636 
9.349459e+2, 1.4484476e+2, -1429303.5, -1536164.3, -29928.975, -0.020902174, 0.1513113, -1421492.1, 99044.36, 0.00000000002439963, 10.0008745, 9.99946 
9.3496215e+2, 1.5484448e+2, -1329223.9, -1436460.4, -27890.432, -0.045351747, 0.17636926, -1322403.9, 100136.016, 0.0, 10.000886, 9.999466 
9.349789e+2, 1.6484396e+2, -1234946.0, -1325582.0, -26920.146, -0.026983753, 0.17336135, -1227553.4, 96991.27, 0.0, 10.000797, 9.999596 
9.3499607e+2, 1.7484325e+2, -1166915.5, -1241449.5, -25907.05, 0.041118782, 0.14140481, -1158795.3, 67755.4, 0.0, 10.000589, 9.999601 
9.350127e+2, 1.8484265e+2, -1068963.9, -1127937.3, -26432.98, 0.05128442, 0.11714078, -1058850.5, 69704.32, 0.0, 10.000521, 9.999741 
9.350286e+2, 1.9484217e+2, -957237.25, -1021789.8, -23942.646, -0.002288992, 0.09479227, -949326.4, 81230.84, 0.0, 10.000609, 9.999754 
9.350449e+2, 2.0484175e+2, -869259.7, -954452.25, -30313.9, -0.020856503, 0.08924722, -859574.3, 72985.92, 0.0, 10.000652, 9.999523 
9.350614e+2, 2.1484137e+2, -771959.7, -856267.0, -35505.473, -0.00114714, 0.09883942, -758999.2, 75564.53, 0.0, 10.000645, 9.999528 
9.3507785e+2, 2.2484079e+2, -692098.9, -789976.4, -40614.582, 0.0070909634, 0.09921129, -677440.9, 59128.57, 0.0, 10.000619, 9.999322 
9.35094e+2, 2.3483996e+2, -600853.6, -694653.56, -35129.395, 0.0034528605, 0.085374095, -589155.94, 49421.516, 0.0, 10.00057, 9.999328 
9.351102e+2, 2.4483915e+2, -513109.06, -630270.7, -23335.66, -0.0065308153, 0.08349154, -508632.25, 31953.225, 0.0, 10.000624, 9.99907 
9.3512654e+2, 2.5483826e+2, -390673.4, -520374.22, -24564.059, -0.023534393, 0.08956114, -386177.1, 56416.438, 0.0, 10.000791, 9.999072 
9.35143e+2, 2.6483715e+2, -315690.88, -478016.9, -26376.102, -0.027574284, 0.09109963, -311512.6, 33092.195, 0.0, 10.000825, 9.998673 
9.351596e+2, 2.7483577e+2, -233541.14, -387686.84, -33260.84, -0.018152079, 0.08500399, -226670.52, 19948.932, 0.0, 10.000716, 9.9986725 
9.3517625e+2, 2.848346e+2, -130903.555, -283744.4, -14658.014, -0.030934988, 0.102597676, -129510.49, 19120.766, 0.0, 10.000731, 9.998706 
9.3519294e+2, 2.948337e+2, -12064.598, -175350.81, -5215.5835, -0.06640836, 0.13863619, -11898.174, 38742.24, 0.0, 10.000873, 9.99871 
9.3521e+2, 3.0483156e+2, 19261.922, -155853.81, -102.676285, -0.073775716, 0.06858368, 19261.982, 19261.982, 0.000000010385675, 10.000843, 9.998523 
9.3522763e+2, 3.1483105e+2, 12970.076, -121602.266, -26140.2, -0.029247008, 0.16389336, 17869.354, 17869.354, 0.00000050425, 10.000639, 9.998857 
9.449113e+2, 1.24828145e+2, -1613364.3, -1728435.6, -56152.523, -0.05779982, 0.13476025, -1590504.3, 126194.58, 0.000016619406, 10.000972, 9.999436 
9.4492954e+2, 1.3482787e+2, -1500967.3, -1596712.0, 32710.764, -0.024072941, 0.1373732, -1490858.9, 127843.07, 0.0000023427797, 10.000947, 9.999684 
9.449465e+2, 1.4482765e+2, -1430405.6, -1531163.6, -24860.371, -0.04158511, 0.15974219, -1424605.6, 96098.875, 0.0000000053592455, 10.000846, 9.999507 
9.4496304e+2, 1.5482742e+2, -1357849.1, -1444653.6, -19924.402, -0.03758772, 0.18508792, -1353494.4, 69213.06, 0.0, 10.000668, 9.999514 
9.4497967e+2, 1.648269e+2, -1259730.5, -1335721.1, -16369.138, -0.014679651, 0.17844671, -1256354.4, 68357.66, 0.0, 10.000621, 9.99961 
9.449966e+2, 1.7482613e+2, -1146833.5, -1229630.8, -16089.817, 0.03036983, 0.13819942, -1143816.8, 82901.48, 0.0, 10.00072, 9.999618 
9.4501317e+2, 1.8482551e+2, -1041664.9, -1114008.8, -17665.916, 0.039951097, 0.11061849, -1037581.44, 91140.914, 0.0, 10.000707, 9.999745 
9.450294e+2, 1.9482507e+2, -963000.8, -1024045.3, -19983.527, 0.010534805, 0.09127445, -957040.9, 73683.53, 0.0, 10.000568, 9.999757 
9.450456e+2, 2.0482461e+2, -891816.7, -969152.2, -23896.088, -0.0065352013, 0.08467317, -885028.75, 47698.957, 0.0, 10.000514, 9.999489 
9.450619e+2, 2.1482414e+2, -788689.75, -868236.8, -22069.791, -0.009968437, 0.08858195, -782976.94, 51755.418, 0.0, 10.000547, 9.999492 
9.4507825e+2, 2.2482358e+2, -695320.7, -789151.1, -28842.416, -0.0067918976, 0.09142406, -687163.94, 49573.996, 0.0, 10.000587, 9.999343 
9.450945e+2, 2.3482288e+2, -589806.06, -687173.2, -33276.273, 0.0035015373, 0.08918014, -579520.1, 59224.484, 0.0, 10.000638, 9.999347 
9.451109e+2, 2.4482207e+2, -503492.03, -627820.94, -21485.588, -0.0015132492, 0.08703417, -499883.75, 40868.8, 0.0, 10.000699, 9.999051 
9.4512725e+2, 2.5482103e+2, -395373.03, -524716.2, -21285.238, -0.023062225, 0.08003613, -391960.28, 50801.7, 0.0, 10.000769, 9.999053 
9.4514376e+2, 2.6481992e+2, -324490.5, -483327.13, -23752.01, -0.030392531, 0.08129592, -321014.75, 23758.764, 0.0, 10.00077, 9.998663 
9.4516027e+2, 2.7481863e+2, -236718.67, -390377.1, -18314.477, -0.023060374, 0.089013934, -234565.94, 12221.303, 0.0, 10.0007, 9.998662 
9.451769e+2, 2.8481752e+2, -148385.94, -290550.25, 1850.7407, -0.033791043, 0.10874691, -148361.86, 437.02246, 0.0, 10.000606, 9.99872 
9.451936e+2, 2.948165e+2, -68412.09, -200568.39, -6814.347, -0.0626442, 0.13462298, -68061.66, -17253.035, 0.0, 10.000479, 9.998726 
9.452107e+2, 3.0481452e+2, -25485.742, -172461.5, 8793.776, -0.07197033, 0.07240463, -24961.467, -24961.467, 0.00000000032400083, 10.000515, 9.998567 
9.452282e+2, 3.1481403e+2, 24066.262, -118035.28, 22307.463, -0.041709945, 0.16892622, 27485.854, 27485.854, 0.00000016973306, 10.000724, 9.998839 
9.549127e+2, 1.2481126e+2, -1618001.9, -1740804.1, -54638.973, -0.01511769, 0.13657293, -1597211.0, 119653.64, 0.000026449812, 10.000981, 9.999348 
9.5493025e+2, 1.3481116e+2, -1509537.1, -1614237.3, 31632.623, -0.052061528, 0.16785431, -1500722.3, 118144.41, 0.0000047469885, 10.000945, 9.999566 
9.5494705e+2, 1.448109e+2, -1425320.3, -1520081.6, -31116.926, -0.0708348, 0.18763071, -1416015.9, 104853.664, 0.000000046136613, 10.000843, 9.999584 
9.549641e+2, 1.5481034e+2, -1351893.3, -1432731.6, -26477.37, 0.007499577, 0.17218344, -1343993.1, 78881.914, 0.0, 10.000669, 9.999595 
9.5498073e+2, 1.6480978e+2, -1258910.1, -1334749.3, -13115.182, 0.02918295, 0.15842481, -1256706.1, 68173.53, 0.0, 10.000624, 9.999617 
9.549969e+2, 1.7480929e+2, -1146096.5, -1228536.9, -12540.277, -0.011663504, 0.14729212, -1144231.1, 82651.81, 0.0, 10.000721, 9.999625 
9.5501333e+2, 1.8480876e+2, -1045506.75, -1122452.5, -23124.84, -0.015792193, 0.12997319, -1039091.75, 89794.7, 0.0, 10.000709, 9.999687 
9.5503e+2, 1.9480819e+2, -967000.25, -1032890.0, -25617.334, 0.020954998, 0.10103339, -958212.5, 72677.72, 0.0, 10.00057, 9.999696 
9.550464e+2, 2.0480761e+2, -887877.2, -961394.06, -23360.0, 0.02476312, 0.08411341, -881082.56, 51811.883, 0.0, 10.000515, 9.999541 
9.550625e+2, 2.1480706e+2, -784558.56, -859994.25, -21342.857, -0.0071692867, 0.07605072, -778938.75, 55960.504, 0.0, 10.000548, 9.999549 
9.5507866e+2, 2.2480652e+2, -702435.2, -804277.94, -27514.531, -0.018693594, 0.08191636, -695477.06, 41427.63, 0.0, 10.000588, 9.999239 
9.550951e+2, 2.3480593e+2, -596582.0, -702361.3, -31379.8, -0.008162419, 0.09895617, -587973.6, 50937.348, 0.0, 10.000642, 9.999241 
9.551115e+2, 2.4480507e+2, -503342.4, -628335.56, -18723.385, -0.007617866, 0.101167105, -500597.97, 40321.27, 0.0, 10.000703, 9.999046 
9.5512813e+2, 2.5480393e+2, -395802.72, -525168.56, -18356.145, -0.017691864, 0.082805164, -393248.53, 49681.215, 0.0, 10.000766, 9.999051 
9.5514446e+2, 2.6480278e+2, -314409.03, -461693.25, -26100.346, -0.032611303, 0.07527316, -309920.56, 35020.582, 0.0, 10.000766, 9.998814 
9.551606e+2, 2.748016e+2, -225955.86, -368043.44, -20656.33, -0.052828003, 0.07686751, -223013.81, 23939.605, 0.0, 10.000699, 9.9988165 
9.551773e+2, 2.8480056e+2, -163323.39, -321658.2, -2586.4844, -0.05012895, 0.10799076, -163281.14, -14316.595, 0.0, 10.000605, 9.9985075 
9.551945e+2, 2.9479966e+2, -83881.48, -232699.84, -10774.56, -0.02330268, 0.16460133, -83105.44, -32130.7, 0.0, 10.000478, 9.998506 
9.5521146e+2, 3.0479783e+2, 11556.344, -93377.63, 16989.46, -0.04149191, 0.10383658, 14238.487, 14238.487, 0.0, 10.000505, 9.999115 
9.552284e+2, 3.1479734e+2, 56198.74, -45930.715, 31248.695, -0.09071906, 0.14208545, 65001.258, 65001.258, 0.000000027453995, 10.0007, 9.999347 
9.649137e+2, 1.24794744e+2, -1630437.5, -1743851.0, -39836.984, -0.0122782, 0.1566604, -1617843.1, 99183.59, 0.00003990401, 10.000886, 9.999372 
9.6493113e+2, 1.3479446e+2, -1544368.3, -1631210.1, 52666.848, -0.042524565, 0.17102584, -1519531.0, 99499.12, 0.000008636752, 10.000709, 9.999562 
9.6494794e+2, 1.4479408e+2, -1449916.3, -1535834.6, -5591.63, -0.05934291, 0.18096256, -1449553.9, 71480.266, 0.00000019058375, 10.000692, 9.999548 
9.649649e+2, 1.5479346e+2, -1327850.5, -1424630.3, -10254.332, 0.014182348, 0.16091762, -1326775.9, 96264.23, 0.0, 10.000851, 9.999561 
9.6498144e+2, 1.6479293e+2, -1225046.9, -1316397.9, -2039.393, 0.03167652, 0.14939708, -1225001.4, 100043.12, 0.0, 10.000849, 9.999633 
9.6499753e+2, 1.7479256e+2, -1151437.9, -1228951.1, -744.3199, -0.013543391, 0.14804949, -1151430.8, 75615.945, 0.0, 10.000676, 9.999643 
9.65014e+2, 1.8479201e+2, -1061107.8, -1141720.3, -11106.681, -0.017950507, 0.13459094, -1059605.5, 69444.96, 0.0, 10.000652, 9.999581 
9.650307e+2, 1.9479129e+2, -942785.0, -1033085.5, -17554.492, 0.022879783, 0.10278293, -939492.44, 91563.65, 0.0, 10.000789, 9.999589 
9.6504706e+2, 2.0479068e+2, -848004.75, -939386.4, -20558.18, 0.027284753, 0.08631198, -843592.75, 89468.016, 0.0, 10.000777, 9.999566 
9.6506304e+2, 2.1479023e+2, -774466.4, -852103.44, -20880.902, -0.007912037, 0.082670264, -769206.7, 65857.64, 0.0, 10.000605, 9.999576 
9.6507925e+2, 2.247896e+2, -702210.0, -810420.25, -19053.65, -0.022690518, 0.08545371, -698953.06, 38116.94, 0.0, 10.000617, 9.999184 
9.650957e+2, 2.3478885e+2, -573603.4, -697480.44, -19706.813, -0.015421059, 0.09114767, -570543.9, 68534.08, 0.0, 10.000827, 9.999185 
9.651122e+2, 2.4478796e+2, -488830.78, -622668.44, -14527.14, -0.014018634, 0.0929446, -487272.13, 53814.645, 0.0, 10.000809, 9.999034 
9.651287e+2, 2.5478694e+2, -429181.13, -542582.5, -15386.711, -0.01882459, 0.086215965, -427130.5, 15965.995, 0.0, 10.000544, 9.999039 
9.6514505e+2, 2.6478583e+2, -355515.0, -478492.28, -22778.734, -0.03270475, 0.0832879, -351431.38, -6323.9673, 0.0, 10.000472, 9.99884 
9.6516126e+2, 2.7478462e+2, -237856.53, -370534.47, -26885.455, -0.05632571, 0.081353106, -232615.56, 14504.003, 0.0, 10.000605, 9.998844 
9.651779e+2, 2.8478354e+2, -158424.84, -319867.84, -11098.621, -0.054957777, 0.10586697, -157665.42, -8534.311, 0.0, 10.000642, 9.998501 
9.6519494e+2, 2.9478252e+2, -69406.12, -226110.17, -4619.84, -0.027385501, 0.15339406, -69270.04, -18127.89, 0.0, 10.000581, 9.998502 
9.6521187e+2, 3.0478084e+2, 11498.348, -66700.46, 20993.877, -0.043281883, 0.09619443, 16778.063, 16778.063, 0.0, 10.000391, 9.999353 
9.6522874e+2, 3.147805e+2, -23891.148, -62497.0, 13104.948, -0.0910695, 0.12510988, -19862.924, -19862.924, 0.00000000015790982, 10.000055, 9.999543 
9.7491413e+2, 1.2477868e+2, -1621703.8, -1724841.5, -44802.78, -0.057519358, 0.19395924, -1604959.8, 112224.57, 0.000057479218, 10.000881, 9.999505 
9.749323e+2, 1.3477787e+2, -1537087.3, -1616502.8, 46371.773, 0.003667179, 0.1467528, -1515745.5, 103446.43, 0.000014404859, 10.0007105, 9.999662 
9.749492e+2, 1.4477731e+2, -1460124.8, -1557815.3, 331.37085, -0.0075042075, 0.13946515, -1460123.6, 61073.85, 0.0000005546723, 10.000694, 9.999396 
9.7496545e+2, 1.5477683e+2, -1338661.5, -1447259.9, -4169.0513, -0.01802118, 0.15070474, -1338501.6, 84700.555, 0.0, 10.000851, 9.999407 
9.749819e+2, 1.6477636e+2, -1223425.3, -1313499.6, -8457.652, -0.008273907, 0.15126412, -1222638.0, 102568.17, 0.0, 10.000851, 9.999653 
9.749986e+2, 1.7477591e+2, -1149596.6, -1225568.1, -7461.0156, 0.023780579, 0.1405931, -1148870.9, 78337.98, 0.0, 10.000678, 9.999666 
9.750151e+2, 1.8477528e+2, -1071829.9, -1164359.4, -6761.837, 0.032764025, 0.12431711, -1071338.4, 57875.54, 0.0, 10.000653, 9.999427 
9.750314e+2, 1.9477443e+2, -953631.44, -1056170.4, -12907.422, 0.016344773, 0.09668449, -952031.6, 79190.125, 0.0, 10.000791, 9.99943 
9.750475e+2, 2.0477386e+2, -847950.94, -939969.5, -27517.076, 0.0010234253, 0.091712795, -840350.06, 92876.33, 0.0, 10.00078, 9.999561 
9.750636e+2, 2.147736e+2, -773972.75, -851947.9, -27856.963, -0.012786829, 0.10733993, -765043.3, 70184.22, 0.0, 10.000608, 9.999576 
9.750799e+2, 2.2477289e+2, -702926.6, -812448.25, -11904.464, -0.019634768, 0.10099452, -701647.56, 35586.098, 0.0, 10.000619, 9.999168 
9.750965e+2, 2.3477171e+2, -575006.56, -699967.06, -11898.023, -0.01868257, 0.066983655, -573883.75, 65361.566, 0.0, 10.000825, 9.999168 
9.751129e+2, 2.4477075e+2, -490578.78, -626160.1, -24194.473, -0.020989643, 0.06375015, -486390.63, 54864.22, 0.0, 10.000808, 9.999011 
9.751291e+2, 2.5477e+2, -429924.88, -545549.6, -25077.04, -0.026799124, 0.089440376, -424720.34, 18541.797, 0.0, 10.000548, 9.999016 
9.751456e+2, 2.6476905e+2, -361623.53, -492323.94, -17582.248, -0.031714555, 0.10347505, -359299.63, -14027.313, 0.0, 10.000476, 9.998743 
9.75162e+2, 2.7476776e+2, -244990.73, -384978.2, -21166.73, -0.036171686, 0.10175866, -241860.23, 5425.299, 0.0, 10.000603, 9.998746 
9.751786e+2, 2.8476647e+2, -146643.81, -294254.44, -12966.746, -0.0500035, 0.103645466, -145513.42, 3784.9424, 0.0, 10.000636, 9.99868 
9.7519505e+2, 2.9476517e+2, -57042.875, -199093.63, -6607.2554, -0.0729689, 0.10324831, -56736.21, -5425.3345, 0.0, 10.000573, 9.998691 
9.752119e+2, 3.0476362e+2, 7473.2173, -73677.66, 8941.551, -0.07675815, 0.050561555, 8446.757, 8446.757, 0.0, 10.000384, 9.99931 
9.752292e+2, 3.1476355e+2, -30282.283, -75502.61, 1703.0732, -0.05014927, 0.11274496, -30218.232, -30218.232, 0.0, 10.000053, 9.999455 
9.84915e+2, 1.2476222e+2, -1614095.8, -1733883.3, -25527.15, -0.0561624, 0.16761161, -1608882.6, 108461.195, 0.00007951568, 10.000989, 9.999392 
9.849333e+2, 1.3476147e+2, -1509525.4, -1618560.0, 45579.66, 0.021196479, 0.13945733, -1492981.9, 126369.93, 0.000022398126, 10.000967, 9.999524 
9.8495007e+2, 1.4476086e+2, -1424013.8, -1544336.3, 1443.8757, 0.0057939556, 0.1368213, -1423996.4, 97361.63, 0.0000013019285, 10.00096, 9.99936 
9.8496616e+2, 1.5476026e+2, -1322152.9, -1442583.4, 6264.056, -0.029762179, 0.13725995, -1321827.9, 101535.88, 0.0, 10.000978, 9.999377 
9.8498267e+2, 1.6475971e+2, -1213508.1, -1317480.4, -4434.0317, -0.021373801, 0.13706788, -1213319.4, 112048.984, 0.0, 10.000957, 9.999574 
9.849995e+2, 1.7475928e+2, -1125661.4, -1222656.5, -11636.817, 0.035283964, 0.13596699, -1124284.8, 103086.62, 0.0, 10.000879, 9.999589 
9.85016e+2, 1.8475865e+2, -1052436.5, -1160039.1, -4418.456, 0.047876086, 0.12562092, -1052255.4, 77121.484, 0.0, 10.000809, 9.999381 
9.850321e+2, 1.9475779e+2, -962535.44, -1065310.0, -1954.9973, 0.011400232, 0.10036823, -962498.25, 68886.805, 0.0, 10.000751, 9.999386 
9.8504823e+2, 2.0475715e+2, -851282.6, -945799.44, -15649.33, -0.0074620545, 0.09411814, -848758.94, 84631.22, 0.0, 10.000775, 9.999523 
9.850644e+2, 2.1475679e+2, -735580.7, -837419.9, -19175.07, -0.0067462325, 0.103993125, -732089.94, 103301.945, 0.0, 10.00089, 9.999539 
9.8508066e+2, 2.2475602e+2, -675049.3, -803168.75, -5440.027, -0.009339758, 0.09393421, -674818.75, 62579.848, 0.0, 10.00083, 9.99913 
9.850972e+2, 2.3475479e+2, -614092.9, -723206.25, -7722.7217, -0.015242726, 0.05883596, -613549.0, 25861.77, 0.0, 10.000576, 9.999128 
9.8511356e+2, 2.4475385e+2, -531371.2, -648930.7, -21106.469, -0.023294924, 0.05979279, -527696.6, 13723.764, 0.0, 10.000542, 9.998982 
9.851298e+2, 2.5475317e+2, -403145.6, -535504.25, -23032.43, -0.03400794, 0.09517714, -399252.13, 44175.16, 0.0, 10.000746, 9.998989 
9.851461e+2, 2.6475215e+2, -330387.72, -485778.47, -16937.01, -0.034616407, 0.10958005, -328563.06, 16874.912, 0.0, 10.000729, 9.998666 
9.851627e+2, 2.747507e+2, -270041.8, -405661.5, -19735.334, -0.024640195, 0.09801191, -267228.28, -19775.602, 0.0, 10.000469, 9.998668 
9.851791e+2, 2.8474933e+2, -187991.05, -310561.53, -14549.585, -0.042638585, 0.09494503, -186287.63, -36821.63, 0.0, 10.000338, 9.998712 
9.8519534e+2, 2.9474804e+2, -88773.36, -210422.28, -19390.193, -0.08967268, 0.09513131, -85757.44, -34279.56, 0.0, 10.0003395, 9.998725 
9.8521215e+2, 3.047465e+2, 537.28485, -79433.1, -13236.575, -0.0882164, 0.043218914, 2671.2395, 2671.2395, 0.0, 10.000348, 9.999287 
9.852296e+2, 3.1474617e+2, 11617.559, -61113.13, -19165.23, -0.026690431, 0.080529585, 16358.714, 16358.714, 0.0, 10.000367, 9.999403 
9.9491644e+2, 1.2474543e+2, -1639754.0, -1787686.9, -24956.72, -0.015215257, 0.075511456, -1635657.1, 81847.55, 0.00010622788, 10.00099, 9.999022 
9.9493414e+2, 1.3474531e+2, -1536730.4, -1675043.0, 44988.703, 0.010237483, 0.14897709, -1523384.8, 96124.484, 0.00003292342, 10.000966, 9.999137 
9.949508e+2, 1.447448e+2, -1418582.3, -1533260.3, 2015.2101, -0.020108609, 0.17332496, -1418546.9, 102968.48, 0.0000026281716, 10.00096, 9.999436 
9.949672e+2, 1.5474376e+2, -1315591.9, -1429363.5, 7007.1187, -0.022294285, 0.12089586, -1315161.9, 108362.41, 0.00000000019976186, 10.00098, 9.999467 
9.949838e+2, 1.6474302e+2, -1225770.9, -1343574.1, -7457.116, -0.008289502, 0.10671163, -1225300.6, 100230.11, 0.0, 10.0009575, 9.999394 
9.950002e+2, 1.7474271e+2, -1138006.1, -1249063.3, -14920.111, 0.020702384, 0.13405861, -1136036.6, 91497.28, 0.0, 10.000881, 9.999407 
9.950165e+2, 1.8474215e+2, -1047694.75, -1151041.3, -7378.677, 0.0265429, 0.13872913, -1047170.56, 82368.24, 0.0, 10.000812, 9.999442 
9.950328e+2, 1.9474137e+2, -957463.06, -1055324.4, -4776.2456, 0.0075661377, 0.113335975, -957230.5, 74315.17, 0.0, 10.000752, 9.9994545 
9.9504906e+2, 2.0474058e+2, -856272.6, -956406.25, -12264.766, 0.0013984219, 0.093058854, -854792.3, 78759.46, 0.0, 10.000775, 9.999451 
9.9506545e+2, 2.1473987e+2, -740806.06, -848436.5, -15515.454, 0.009456848, 0.07377215, -738614.1, 96942.89, 0.0, 10.00089, 9.999464 
9.9508166e+2, 2.2473903e+2, -679345.4, -812601.1, -15240.737, 0.0073398133, 0.06557766, -677624.5, 59939.867, 0.0, 10.000831, 9.999065 
9.950979e+2, 2.347381e+2, -617887.44, -732243.4, -17405.89, -0.00588547, 0.06543478, -615296.8, 24277.266, 0.0, 10.00058, 9.999064 
9.9511415e+2, 2.4473722e+2, -533583.56, -654305.8, -13687.3545, -0.021731403, 0.07918204, -532051.2, 9532.062, 0.0, 10.000545, 9.998944 
9.9513036e+2, 2.5473642e+2, -405692.63, -540883.44, -14863.028, -0.041039977, 0.103588134, -404077.84, 39513.89, 0.0, 10.000746, 9.998953 
9.9514675e+2, 2.6473516e+2, -334956.03, -495681.47, -25924.215, -0.042028405, 0.103239864, -330878.03, 14726.139, 0.0, 10.00073, 9.998598 
9.9516314e+2, 2.7473345e+2, -274199.4, -415196.56, -28790.518, -0.022252826, 0.07175196, -268547.2, -20926.28, 0.0, 10.000472, 9.998601 
9.9517953e+2, 2.847321e+2, -195443.95, -326328.47, -13580.922, -0.03422752, 0.079296, -194049.63, -44415.547, 0.0, 10.000339, 9.998604 
9.9519575e+2, 2.947312e+2, -96518.06, -226367.6, -17845.06, -0.081222765, 0.12550111, -94110.28, -42466.996, 0.0, 10.000339, 9.998616 
9.952126e+2, 3.0472958e+2, -1039.6896, -81735.1, -11376.235, -0.08113061, 0.071927115, 533.436, 533.436, 0.0, 10.000342, 9.999273 
9.9523e+2, 3.1472844e+2, 7434.887, -66646.43, -16258.02, -0.021822177, 0.02607802, 10845.849, 10845.849, 0.0, 10.000352, 9.9993725 
1.00491755e+3, 1.2472887e+2, -1658918.4, -1798060.4, -55084.06, 0.0051985565, 0.05556689, -1639751.8, 77914.09, 0.00013782152, 10.000862, 9.999013 
1.0049351e+3, 1.3472883e+2, -1510360.0, -1663735.4, 43200.125, 0.0054179714, 0.13827178, -1499029.3, 120640.3, 0.000046236724, 10.001152, 9.9991255 
1.00495175e+3, 1.4472835e+2, -1391094.5, -1523951.6, 1154.0126, -0.029976185, 0.16715656, -1391084.5, 130591.09, 0.00000474816, 10.001165, 9.999402 
1.0049683e+3, 1.5472727e+2, -1337764.8, -1443856.6, -3941.418, -0.0115380995, 0.11406657, -1337618.5, 86066.805, 0.000000004412824, 10.000843, 9.9994335 
1.00498475e+3, 1.6472651e+2, -1250549.0, -1357353.3, -7738.9155, 0.0034158241, 0.101155914, -1249991.3, 75700.88, 0.0, 10.000795, 9.999378 
1.0050011e+3, 1.7472623e+2, -1111292.4, -1237693.9, -2353.6243, 0.009404654, 0.13202396, -1111248.5, 116446.484, 0.0, 10.001072, 9.999393 
1.0050173e+3, 1.8472564e+2, -1005643.3, -1135384.3, -429.263, 0.011525281, 0.13712724, -1005641.9, 124058.19, 0.0, 10.001121, 9.9994 
1.0050336e+3, 1.9472478e+2, -937440.5, -1050363.6, -6501.1587, 0.011303696, 0.10815829, -937067.44, 94640.2, 0.0, 10.00091, 9.999413 
1.00505e+3, 2.0472392e+2, -856995.56, -964268.56, -10534.297, 0.010919699, 0.08555315, -855970.9, 77743.66, 0.0, 10.000804, 9.999382 
1.00506626e+3, 2.1472313e+2, -755613.4, -863307.25, -13496.599, 0.009883449, 0.06632457, -753947.7, 81772.99, 0.0, 10.000822, 9.999393 
1.0050824e+3, 2.247223e+2, -681900.7, -814926.6, -18586.42, 0.0069007156, 0.061643902, -679352.56, 58375.582, 0.0, 10.000819, 9.999055 
1.0050986e+3, 2.3472142e+2, -587629.44, -718266.5, -17440.945, 0.0018560148, 0.06779865, -585341.06, 54396.145, 0.0, 10.000792, 9.999058 
1.00511484e+3, 2.4472049e+2, -512972.56, -652442.25, -6691.1475, -0.013188269, 0.081144415, -512652.28, 29094.537, 0.0, 10.000722, 9.99887 
1.005131e+3, 2.5471956e+2, -431583.8, -561618.6, -10984.507, -0.039843943, 0.09851702, -430662.44, 13094.618, 0.0, 10.000605, 9.998877 
1.0051473e+3, 2.647183e+2, -353800.8, -497659.03, -24287.709, -0.04617148, 0.09756545, -349810.94, -4041.3892, 0.0, 10.00057, 9.99866 
1.00516364e+3, 2.747167e+2, -247597.42, -394770.47, -18076.723, -0.029239701, 0.07204263, -245409.64, 2374.858, 0.0, 10.000623, 9.998669 
1.00517996e+3, 2.847153e+2, -175965.53, -332537.44, 188.85239, -0.033639565, 0.07798623, -175965.31, -26167.15, 0.0, 10.000541, 9.998463 
1.0051962e+3, 2.9471415e+2, -110275.38, -248899.97, -7722.2856, -0.061825328, 0.114974245, -109846.52, -58036.25, 0.0, 10.000314, 9.998472 
1.00521296e+3, 3.047126e+2, -20694.83, -81845.95, 3742.8054, -0.06322395, 0.07055803, -20466.6, -20466.6, 0.0, 10.000168, 9.999356 
1.0052302e+3, 3.1471157e+2, -23926.217, -73304.55, 6251.624, -0.029230915, 0.03182187, -23147.016, -23147.016, 0.0, 10.000102, 9.999446 
1.0149183e+3, 1.2471261e+2, -1634258.6, -1745200.3, -44963.82, -0.0034131925, 0.10891183, -1618323.9, 99503.11, 0.00017450533, 10.000855, 9.999379 
1.0149363e+3, 1.347121e+2, -1484034.8, -1608974.4, 54267.73, 0.0046642097, 0.10745253, -1463755.1, 156077.33, 0.000062540406, 10.001152, 9.999502 
1.01495296e+3, 1.4471155e+2, -1401001.8, -1545141.0, -10179.634, -0.025365274, 0.11753946, -1400286.4, 121552.15, 0.000007860604, 10.001167, 9.999256 
1.0149693e+3, 1.5471081e+2, -1348670.8, -1466872.6, -16364.603, 0.002320321, 0.11668187, -1346446.9, 77399.45, 0.000000028517778, 10.000844, 9.999276 
1.0149856e+3, 1.6471024e+2, -1240318.8, -1336545.0, 1339.8285, 0.013118671, 0.120627105, -1240300.1, 85551.84, 0.0, 10.000796, 9.999521 
1.015002e+3, 1.7470987e+2, -1100372.5, -1215327.5, 7740.5693, 0.0010667618, 0.12971601, -1099853.6, 128000.625, 0.0, 10.001072, 9.999547 
1.0150184e+3, 1.8470916e+2, -1015734.0, -1156601.3, -8483.718, 0.0027138959, 0.12066505, -1015224.94, 114635.375, 0.0, 10.001121, 9.999254 
1.0150347e+3, 1.9470808e+2, -947778.4, -1072396.8, -15037.292, 0.021564255, 0.08544157, -945989.56, 85880.92, 0.0, 10.000912, 9.99926 
1.01505086e+3, 2.0470722e+2, -861556.2, -974539.8, -10983.227, 0.019933112, 0.07236314, -860498.4, 73379.7, 0.0, 10.000807, 9.9993105 
1.0150669e+3, 2.1470661e+2, -760241.25, -873264.2, -13466.874, -0.005323185, 0.08044003, -758658.8, 77223.93, 0.0, 10.000823, 9.999325 
1.0150831e+3, 2.2470582e+2, -679037.4, -809125.1, -20222.62, -0.01035702, 0.08067408, -675966.25, 61923.594, 0.0, 10.000818, 9.999095 
1.0150995e+3, 2.3470478e+2, -584174.8, -711814.56, -18673.361, 0.007647495, 0.06656932, -581499.0, 58400.734, 0.0, 10.000794, 9.999102 
1.0151157e+3, 2.4470371e+2, -520405.44, -668752.75, -11094.315, 0.0014765848, 0.067432195, -519580.3, 22330.473, 0.0, 10.000725, 9.998757 
1.0151317e+3, 2.547026e+2, -439888.16, -578734.2, -14988.958, -0.031593062, 0.08099658, -438288.47, 5634.5303, 0.0, 10.000604, 9.99876 
1.0151479e+3, 2.647015e+2, -341664.56, -471643.4, -21692.26, -0.04785548, 0.092118874, -338139.9, 7794.16, 0.0, 10.0005665, 9.998841 
1.015164e+3, 2.7470037e+2, -234359.69, -366967.8, -15227.23, -0.046102572, 0.09640253, -232633.63, 15310.112, 0.0, 10.000621, 9.99886 
1.0151804e+3, 2.8469887e+2, -188793.84, -359308.75, -7584.083, -0.042101692, 0.09022635, -188457.19, -38498.766, 0.0, 10.00054, 9.99828 
1.0151968e+3, 2.9469696e+2, -124147.195, -277203.3, -15149.54, -0.03364074, 0.067971274, -122662.1, -70683.48, 0.0, 10.000311, 9.99828 
1.01521336e+3, 3.0469555e+2, -9653.055, -57165.316, 2819.7854, -0.036098544, 0.042307884, -9486.289, -9486.289, 0.0, 10.00016, 9.99953 
1.01523004e+3, 3.146956e+2, -13439.918, -49003.41, 6154.858, -0.051329736, 0.08711309, -12404.843, -12404.843, 0.0, 10.000092, 9.999619 
1.02491915e+3, 1.2469629e+2, -1563327.4, -1695114.0, -25108.846, -0.016465046, 0.13116117, -1558705.5, 159281.95, 0.0002164286, 10.001274, 9.99952 
1.02493726e+3, 1.3469552e+2, -1516580.8, -1608748.8, 56874.168, 0.003403408, 0.087972715, -1489463.6, 130530.695, 0.00008198819, 10.00086, 9.999643 
1.02495395e+3, 1.4469494e+2, -1451988.8, -1572603.0, -8213.136, -0.021074673, 0.091902666, -1451432.0, 70567.91, 0.000012107449, 10.00083, 9.99923 
1.02497034e+3, 1.5469448e+2, -1293327.1, -1443563.6, -5112.2847, 0.0074352436, 0.120879255, -1293153.4, 130852.31, 0.00000009714164, 10.001239, 9.999247 
1.0249867e+3, 1.6469392e+2, -1177725.1, -1309705.5, 6509.379, 0.018902896, 0.12942915, -1177404.9, 148606.3, 0.0, 10.001241, 9.999491 
1.02500305e+3, 1.7469329e+2, -1146665.1, -1241277.9, -1268.8801, 0.008929666, 0.1143858, -1146648.1, 81367.77, 0.0, 10.00077, 9.999515 
1.0250193e+3, 1.8469247e+2, -1083715.8, -1197335.4, -15008.772, 0.00907958, 0.09986679, -1081766.6, 48256.383, 0.0, 10.000689, 9.999183 
1.0250357e+3, 1.9469148e+2, -930217.75, -1071800.1, -15711.088, 0.020713922, 0.08051192, -928495.3, 103537.414, 0.0, 10.001067, 9.999189 
1.0250518e+3, 2.0469065e+2, -816751.4, -958392.56, -15603.627, 0.016858894, 0.07580651, -815052.8, 118987.6, 0.0, 10.001139, 9.999261 
1.0250677e+3, 2.1468998e+2, -757671.3, -877377.2, -16798.521, -0.0048194276, 0.08295443, -755358.6, 80687.11, 0.0, 10.000864, 9.999276 
1.0250839e+3, 2.2468913e+2, -689169.4, -814429.3, -18781.633, -0.0083108535, 0.08132647, -686413.8, 51639.508, 0.0, 10.000752, 9.999089 
1.0251002e+3, 2.3468807e+2, -579533.5, -709967.7, -21220.703, 0.008741142, 0.06562574, -576167.9, 63895.54, 0.0, 10.000829, 9.999097 
1.02511644e+3, 2.4468699e+2, -515190.1, -661596.2, -18692.473, 0.0042039757, 0.06387481, -512841.22, 29233.146, 0.0, 10.000742, 9.998797 
1.0251323e+3, 2.5468588e+2, -457168.25, -582174.4, -11813.607, -0.024355618, 0.07301751, -456061.6, -11975.415, 0.0, 10.000464, 9.998803 
1.0251484e+3, 2.6468483e+2, -377391.78, -488545.84, -10449.959, -0.041080866, 0.084517725, -376417.9, -30320.893, 0.0, 10.00032, 9.998842 
1.0251646e+3, 2.7468377e+2, -276652.63, -386795.94, -18045.707, -0.045555666, 0.09441756, -273771.4, -25664.879, 0.0, 10.00033, 9.998863 
1.0251808e+3, 2.846823e+2, -210018.1, -357657.72, -12715.558, -0.042617105, 0.08916756, -208930.97, -58810.242, 0.0, 10.000344, 9.9983835 
1.0251971e+3, 2.9468045e+2, -109091.79, -258018.9, 921.9296, -0.029105514, 0.06247037, -109086.086, -56945.98, 0.0, 10.000363, 9.998386 
1.0252136e+3, 3.0467921e+2, -5819.438, -51616.06, 19680.838, -0.028966872, 0.045837045, 1476.0924, 1476.0924, 0.0, 10.000171, 9.999562 
1.02523e+3, 3.1467932e+2, -63441.242, -71004.85, 11269.043, -0.046082944, 0.097304314, -55336.36, -55336.36, 0.0, 9.999738, 9.999638 
1.03492014e+3, 1.2467999e+2, -1570695.4, -1709897.9, -42001.207, -0.04315822, 0.12212922, -1559004.4, 159142.17, 0.0002637313, 10.001272, 9.999419 
1.0349381e+3, 1.3467912e+2, -1523967.3, -1623237.0, 41025.414, 0.0015972366, 0.07955457, -1509207.3, 110947.36, 0.00010469639, 10.000856, 9.999546 
1.03495486e+3, 1.4467864e+2, -1445668.6, -1559102.1, 5956.369, -0.016961316, 0.09034311, -1445356.8, 76802.695, 0.000017566988, 10.000827, 9.999325 
1.0349714e+3, 1.5467834e+2, -1286065.0, -1428960.5, 10402.692, 0.0030954403, 0.12696783, -1285311.6, 138851.14, 0.00000023822265, 10.00124, 9.999346 
1.03498794e+3, 1.6467765e+2, -1191885.8, -1339779.0, -10521.247, 0.019913435, 0.12759082, -1191141.0, 135028.42, 0.0, 10.001244, 9.999284 
1.035004e+3, 1.7467652e+2, -1161552.6, -1272579.1, -19461.494, 0.031764068, 0.08615272, -1158240.1, 69939.23, 0.0, 10.000771, 9.9993 
1.0350203e+3, 1.8467565e+2, -1084073.0, -1198490.1, -2700.3235, 0.028841887, 0.07491798, -1084009.4, 46178.3, 0.0, 10.0006895, 9.999175 
1.0350366e+3, 1.9467501e+2, -930226.5, -1071841.6, -2075.597, 0.009158675, 0.09298749, -930196.06, 101997.88, 0.0, 10.001066, 9.999189 
1.03505276e+3, 2.0467423e+2, -818742.9, -962373.94, -25987.818, 0.0022727975, 0.095381, -814185.4, 120015.75, 0.0, 10.001138, 9.999234 
1.0350687e+3, 2.1467328e+2, -759300.56, -881203.8, -27708.762, 0.01018131, 0.07457306, -753297.94, 82911.4, 0.0, 10.000866, 9.999249 
1.0350849e+3, 2.246723e+2, -692840.56, -822648.0, -16801.367, 0.011471514, 0.06496916, -690701.2, 47517.066, 0.0, 10.000754, 9.999032 
1.03510104e+3, 2.3467134e+2, -583979.3, -718793.56, -18444.582, 0.0049296925, 0.064745374, -581501.4, 58726.504, 0.0, 10.000827, 9.999038 
1.03511706e+3, 2.4467038e+2, -502627.2, -635029.06, -28604.947, -0.005069765, 0.069231555, -496711.5, 45525.855, 0.0, 10.000739, 9.998981 
1.0351328e+3, 2.5466943e+2, -442881.13, -553797.9, -21910.4, -0.018916547, 0.07368394, -438709.8, 5536.7676, 0.0, 10.000469, 9.998997 
1.0351488e+3, 2.6466826e+2, -388880.88, -513642.38, -10143.62, -0.027325511, 0.07535617, -388061.53, -41803.34, 0.0, 10.000325, 9.998669 
1.03516504e+3, 2.7466688e+2, -290264.94, -414004.38, -16946.28, -0.029314226, 0.06949346, -287986.06, -39713.742, 0.0, 10.000324, 9.998679 
1.0351811e+3, 2.8466564e+2, -185406.61, -304246.16, -10940.617, -0.036074772, 0.07679579, -184407.8, -34123.004, 0.0, 10.000334, 9.998756 
1.0351974e+3, 2.946646e+2, -82643.27, -201392.42, 2822.3416, -0.047972497, 0.094043665, -82576.23, -30280.994, 0.0, 10.000355, 9.998779 
1.0352136e+3, 3.046635e+2, -14079.165, -68050.03, 4617.693, -0.042536434, 0.07749393, -13686.931, -13686.931, 0.0, 10.000166, 9.999452 
1.03523e+3, 3.1466287e+2, -72816.07, -90685.305, -3502.779, -0.017896246, 0.06624756, -72153.98, -72153.98, 0.0, 9.999738, 9.999502 
1.0449213e+3, 1.2466372e+2, -1598362.9, -1744455.0, -39642.617, -0.05942587, 0.108320646, -1588298.9, 130005.875, 0.00031664252, 10.001172, 9.999231 
1.0449392e+3, 1.346628e+2, -1464073.9, -1615037.5, 37843.582, 0.004479406, 0.08073321, -1455118.5, 165195.78, 0.00013079311, 10.001356, 9.999361 
1.0449559e+3, 1.446623e+2, -1366425.8, -1511592.6, 6027.0913, -0.006606807, 0.09477485, -1366175.9, 156143.38, 0.000024312307, 10.001331, 9.999408 
1.0449727e+3, 1.5466192e+2, -1308503.6, -1429511.5, 9482.56, 0.009004354, 0.11330987, -1307765.1, 116557.37, 0.0000004785213, 10.001041, 9.999438 
1.044989e+3, 1.6466115e+2, -1239593.9, -1382380.5, -16547.047, 0.023251394, 0.109773554, -1237701.4, 88628.414, 0.0, 10.001, 9.999108 
1.045005e+3, 1.7465997e+2, -1102485.9, -1264198.9, -23549.29, 0.033022203, 0.08004698, -1099126.4, 129215.05, 0.0, 10.001264, 9.999119 
1.0450211e+3, 1.8465905e+2, -1003959.56, -1156545.6, -134.57027, 0.024030538, 0.0734515, -1003959.5, 126390.91, 0.0, 10.001227, 9.999203 
1.04503736e+3, 1.9465841e+2, -959686.2, -1082231.6, 3278.6128, -0.0056110746, 0.08798901, -959598.56, 72757.8, 0.0, 10.000848, 9.999223 
1.0450536e+3, 2.0465766e+2, -878554.06, -990194.2, -19686.88, -0.008963768, 0.090661824, -875184.2, 59179.03, 0.0, 10.000724, 9.999242 
1.0450697e+3, 2.1465676e+2, -754091.75, -877579.75, -19537.986, 0.017455297, 0.07525314, -751074.25, 85296.72, 0.0, 10.000897, 9.999258 
1.0450857e+3, 2.2465578e+2, -686149.2, -827667.06, -11206.948, 0.022410823, 0.06770216, -685267.2, 53113.035, 0.0, 10.000836, 9.998958 
1.04510166e+3, 2.3465471e+2, -636555.5, -752832.44, -14645.045, 0.0025268306, 0.065114684, -634739.4, 5651.787, 0.0, 10.000504, 9.99896 
1.0451175e+3, 2.4465373e+2, -549231.5, -649585.3, -27164.154, -0.009217502, 0.06859778, -542350.4, 50.32573, 0.0, 10.000385, 9.999051 
1.0451334e+3, 2.5465286e+2, -430536.06, -539299.3, -29604.941, -0.011952183, 0.074220166, -422999.88, 21408.865, 0.0, 10.000518, 9.999071 
1.0451493e+3, 2.6465175e+2, -368321.28, -500866.34, -18722.973, -0.013789544, 0.07569059, -365727.3, -19307.49, 0.0, 10.000455, 9.998693 
1.0451654e+3, 2.7465037e+2, -312075.72, -422087.94, -11028.545, -0.013789302, 0.067666195, -310981.03, -62546.84, 0.0, 10.000163, 9.998701 
1.0451815e+3, 2.8464922e+2, -233611.0, -316060.22, -2934.4746, -0.021177018, 0.077149846, -233506.69, -83060.72, 0.0, 9.999953, 9.9988575 
1.04519755e+3, 2.9464835e+2, -149179.1, -221127.55, -10153.037, -0.03730667, 0.10157779, -147773.8, -95319.16, 0.0, 9.999846, 9.998888 
1.04521364e+3, 3.0464736e+2, -58769.17, -75829.23, -16519.031, -0.03687726, 0.082971744, -48707.81, -48707.81, 0.0, 9.999802, 9.999573 
1.0452297e+3, 3.1464666e+2, -51943.168, -68088.81, -7154.767, -0.018075893, 0.054260287, -49228.91, -49228.91, 0.0, 9.999828, 9.999614 
1.05492234e+3, 1.2464751e+2, -1617707.0, -1784261.0, -33832.453, -0.07185719, 0.08739703, -1611096.9, 107364.99, 0.0003754383, 10.00117, 9.99896 
1.0549405e+3, 1.3464665e+2, -1482578.1, -1654262.5, 44987.7, 0.011141442, 0.09194007, -1471504.0, 148968.6, 0.00016041061, 10.001359, 9.999091 
1.0549574e+3, 1.4464603e+2, -1361603.4, -1502058.4, -4309.64, 0.008562068, 0.10558474, -1361471.3, 161007.64, 0.000032450233, 10.001332, 9.999473 
1.0549739e+3, 1.546453e+2, -1303221.8, -1418077.8, -1893.3219, 0.024463974, 0.07953798, -1303190.6, 121293.625, 0.0000008393984, 10.001039, 9.999517 
1.05499014e+3, 1.6464448e+2, -1249925.9, -1403773.8, -7863.912, 0.027939608, 0.07570904, -1249525.0, 76966.8, 0.0, 10.000999, 9.998962 
1.0550061e+3, 1.7464365e+2, -1112995.0, -1286420.0, -13853.943, 0.012836108, 0.09630779, -1111895.3, 116606.23, 0.0, 10.001266, 9.998966 
1.05502196e+3, 1.8464275e+2, -999308.6, -1147357.8, -14297.172, -0.0051629804, 0.0956767, -997940.56, 132570.14, 0.0, 10.001228, 9.999266 
1.055038e+3, 1.9464174e+2, -954655.75, -1072041.6, -11527.78, -0.024621403, 0.06563148, -953534.4, 78985.03, 0.0, 10.000849, 9.999292 
1.0550542e+3, 2.0464095e+2, -876304.56, -985805.8, -14517.092, -0.018368952, 0.06208356, -874412.7, 60113.445, 0.0, 10.000724, 9.999272 
1.0550705e+3, 2.1464047e+2, -751918.06, -873153.9, -13597.582, 0.016866988, 0.08447021, -750411.75, 86118.75, 0.0, 10.000897, 9.9992895 
1.05508655e+3, 2.246396e+2, -692185.6, -840633.1, -23734.629, 0.024593877, 0.08860012, -688483.1, 50056.027, 0.0, 10.000837, 9.998869 
1.0551022e+3, 2.3463823e+2, -642132.44, -765840.4, -27257.723, 0.0010680306, 0.06681897, -636392.8, 4160.0967, 0.0, 10.000508, 9.998868 
1.0551179e+3, 2.4463712e+2, -551747.8, -656036.5, -22540.52, -0.00904834, 0.06286776, -547084.5, -4520.4272, 0.0, 10.00039, 9.999005 
1.055134e+3, 2.5463626e+2, -433942.66, -545872.75, -24008.957, -0.0040056934, 0.07540104, -429010.13, 15562.12, 0.0, 10.000515, 9.999028 
1.0551499e+3, 2.6463532e+2, -354180.94, -470800.56, -28457.041, -0.0009215053, 0.085091546, -347607.5, -1025.8763, 0.0, 10.00045, 9.998902 
1.0551657e+3, 2.7463424e+2, -296113.66, -389958.25, -21185.254, -0.00022944857, 0.086353436, -291552.78, -42960.543, 0.0, 10.000167, 9.998921 
1.0551816e+3, 2.8463307e+2, -244154.42, -339124.53, -6736.099, -0.00021071809, 0.08873662, -243679.02, -93074.695, 0.0, 9.999958, 9.998697 
1.0551978e+3, 2.9463178e+2, -161469.5, -246224.25, -12962.523, 0.00040967242, 0.088945724, -159531.31, -106913.61, 0.0, 9.999844, 9.998717 
1.0552137e+3, 3.0463082e+2, -35877.297, -26952.271, -14341.598, -0.013254628, 0.0663443, -16394.951, -16394.951, 0.0, 9.999795, 9.999912 
1.0552292e+3, 3.1463075e+2, -27913.98, -16917.816, -4879.994, -0.047028318, 0.061512314, -15064.487, -15064.487, 0.0, 9.999822, 9.999969 
1.0649235e+3, 1.2463096e+2, -1620964.1, -1779215.0, -61978.184, -0.06438659, 0.07870783, -1599580.3, 119043.875, 0.00044023, 10.001121, 9.999018 
1.064942e+3, 1.346302e+2, -1479720.0, -1644635.3, 44997.93, 0.014842388, 0.086599454, -1468241.1, 152392.61, 0.0001936281, 10.001344, 9.999165 
1.0649587e+3, 1.4462966e+2, -1352336.9, -1498317.1, -8267.103, 0.007889095, 0.10458371, -1351870.1, 170768.94, 0.00004209593, 10.001401, 9.999465 
1.064975e+3, 1.5462886e+2, -1271962.0, -1404065.4, -13755.599, 0.019803897, 0.073934205, -1270544.9, 154099.78, 0.0000013547506, 10.00126, 9.999507 
1.06499106e+3, 1.6462806e+2, -1228596.4, -1392214.4, -6295.2056, 0.01931788, 0.07064116, -1228354.5, 98297.734, 0.0, 10.0011425, 9.998972 
1.0650071e+3, 1.746273e+2, -1142649.8, -1299770.0, 183.21957, 0.0009565268, 0.0974615, -1142649.5, 86012.07, 0.0, 10.001058, 9.998974 
1.0650231e+3, 1.846264e+2, -1037581.2, -1166361.9, -8148.776, -0.014122222, 0.09840644, -1037067.6, 93603.18, 0.0, 10.000969, 9.99926 
1.0650388e+3, 1.9462535e+2, -950159.25, -1070130.3, -11762.904, -0.024494173, 0.064738646, -949016.8, 83662.92, 0.0, 10.000882, 9.9992895 
1.0650549e+3, 2.0462458e+2, -865354.0, -983002.5, -8720.08, -0.017007684, 0.06192839, -864711.2, 69975.414, 0.0, 10.000812, 9.999249 
1.0650713e+3, 2.1462412e+2, -773095.1, -886260.9, -11351.166, 0.010536595, 0.08997142, -771967.75, 64723.242, 0.0, 10.000765, 9.999263 
1.06508724e+3, 2.2462325e+2, -704744.1, -842477.2, -27566.193, 0.017132029, 0.09546563, -699431.9, 39267.723, 0.0, 10.000733, 9.998906 
1.0651028e+3, 2.346219e+2, -608312.5, -744898.4, -22510.264, -0.00024835483, 0.07042374, -604698.3, 36014.605, 0.0, 10.000721, 9.998909 
1.0651184e+3, 2.4462077e+2, -528003.2, -650911.3, -10610.259, -0.0065890364, 0.06566727, -527093.94, 15630.371, 0.0, 10.000581, 9.998949 
1.0651344e+3, 2.546199e+2, -471051.94, -570319.0, -13533.525, -0.00019460407, 0.07968542, -469239.94, -24506.578, 0.0, 10.000288, 9.99897 
1.0651503e+3, 2.6461896e+2, -391054.97, -479081.9, -23738.121, 0.004788879, 0.09072647, -385061.63, -38318.895, 0.0, 10.000156, 9.998986 
1.0651659e+3, 2.7461797e+2, -282623.63, -372993.34, -26058.492, 0.007460626, 0.09354534, -275648.0, -26895.73, 0.0, 10.000216, 9.999013 
1.0651818e+3, 2.846169e+2, -212380.1, -310290.8, -9900.207, 0.010829534, 0.09480719, -211389.06, -60626.035, 0.0, 10.000118, 9.998817 
1.0651977e+3, 2.946157e+2, -152821.89, -228641.61, 4452.204, 0.01660824, 0.09098004, -152561.36, -99786.47, 0.0, 9.999845, 9.998837 
1.0652135e+3, 3.046147e+2, -67316.74, -47311.117, 4291.178, 0.0036201784, 0.058190323, -46429.516, -46429.516, 0.0, 9.999601, 9.999866 
1.065229e+3, 3.146145e+2, -92089.28, -52820.74, -16193.522, -0.035179526, 0.049925968, -47004.375, -47004.375, 0.0, 9.999404, 9.999923 
1.07492484e+3, 1.2461413e+2, -1594671.4, -1722932.8, -57036.24, -0.04273581, 0.08491035, -1572977.4, 145813.27, 0.00051082077, 10.001114, 9.999406 
1.07494324e+3, 1.3461351e+2, -1450559.4, -1583287.0, 53201.86, 0.015359773, 0.064415425, -1431866.8, 188930.25, 0.00023041679, 10.00134, 9.999587 
1.0749599e+3, 1.4461324e+2, -1357970.5, -1510132.0, -13000.011, -0.009397239, 0.09136862, -1356867.9, 165931.42, 0.000053336094, 10.0014, 9.999384 
1.07497595e+3, 1.546127e+2, -1278916.3, -1419078.1, -19127.127, -0.0059174527, 0.09704608, -1276353.0, 148450.33, 0.0000020676762, 10.001262, 9.999403 
1.074992e+3, 1.6461192e+2, -1217392.8, -1369313.0, -10037.253, -0.0034026445, 0.095000915, -1216732.4, 110078.21, 0.0000000000166348, 10.001143, 9.999128 
1.0750081e+3, 1.7461094e+2, -1130985.4, -1275573.3, -3282.5266, -0.0033477875, 0.08330177, -1130910.9, 97910.36, 0.0, 10.001058, 9.999141 
1.0750241e+3, 1.8461008e+2, -1043112.4, -1177898.5, -12100.939, -0.0042791762, 0.081432745, -1042034.56, 88795.56, 0.0, 10.000968, 9.999182 
1.07503995e+3, 1.9460931e+2, -955902.4, -1082583.4, -15590.718, -0.005771774, 0.0852664, -954011.8, 78825.12, 0.0, 10.000884, 9.999203 
1.0750559e+3, 2.0460853e+2, -870035.5, -993701.5, -11433.075, -0.00501395, 0.08999896, -868987.44, 65856.875, 0.0, 10.000814, 9.999175 
1.075072e+3, 2.1460775e+2, -778339.4, -897411.5, -13625.497, -0.0017925384, 0.09191394, -776800.06, 60052.04, 0.0, 10.000765, 9.9991865 
1.0750878e+3, 2.2460681e+2, -694315.1, -820589.4, -28474.666, -0.0005830545, 0.08882322, -688191.1, 50669.9, 0.0, 10.000731, 9.999058 
1.07510336e+3, 2.3460576e+2, -597331.4, -721893.8, -23131.014, -0.0018492171, 0.075761944, -593174.7, 47696.367, 0.0, 10.000719, 9.999068 
1.075119e+3, 2.4460472e+2, -532764.7, -660909.6, -21257.857, -0.0022586829, 0.076381676, -529330.25, 13551.127, 0.0, 10.00058, 9.998881 
1.07513465e+3, 2.546037e+2, -476010.28, -581057.94, -24083.666, -0.0010623317, 0.08673536, -470751.97, -25859.98, 0.0, 10.000289, 9.998896 
1.0751504e+3, 2.646027e+2, -393434.38, -484197.38, -21408.133, 0.0029397798, 0.09296016, -388638.3, -41735.41, 0.0, 10.000156, 9.998952 
1.0751662e+3, 2.7460164e+2, -285288.03, -378021.78, -22732.256, 0.009546161, 0.09071265, -280015.38, -31101.559, 0.0, 10.000213, 9.9989805 
1.0751819e+3, 2.8460076e+2, -186132.03, -255139.66, -18972.875, 0.01241557, 0.096150085, -181259.66, -30337.766, 0.0, 10.000115, 9.999199 
1.0751975e+3, 2.9460007e+2, -125214.336, -171291.05, -5043.8633, 0.011792303, 0.10548293, -124668.664, -71742.12, 0.0, 9.999844, 9.999232 
1.07521325e+3, 3.045989e+2, -96052.266, -107466.39, -2469.6555, 0.012783055, 0.056338083, -95540.83, -95540.83, 0.0, 9.999603, 9.999452 
1.0752289e+3, 3.1459808e+2, -121463.34, -115056.055, -22083.863, 0.012900138, 0.0271484, -95944.67, -95944.67, 0.0, 9.999409, 9.999494 
1.0849264e+3, 1.2459782e+2, -1501506.0, -1675903.1, -22950.682, -0.026787167, 0.09198202, -1498536.3, 220415.1, 0.0005868495, 10.001747, 9.999423 
1.0849446e+3, 1.3459723e+2, -1461645.6, -1584321.4, 60787.543, 0.0106153665, 0.07141572, -1436626.9, 184329.77, 0.00027068684, 10.001247, 9.999624 
1.0849611e+3, 1.44597e+2, -1402329.0, -1531085.9, -10314.095, -0.024290271, 0.09973962, -1401508.0, 121450.3, 0.00006622561, 10.001096, 9.999386 
1.0849772e+3, 1.5459631e+2, -1264499.6, -1412526.8, -9418.724, -0.010707187, 0.0920048, -1263902.8, 161061.1, 0.000003027, 10.001364, 9.999398 
1.0849932e+3, 1.6459553e+2, -1188321.3, -1350817.3, -11848.226, -0.0042026914, 0.08629533, -1187461.9, 139509.38, 0.000000000186287, 10.001325, 9.999167 
1.08500905e+3, 1.7459469e+2, -1148134.5, -1279052.6, -15229.553, -0.007247165, 0.08285763, -1146386.1, 82594.19, 0.0, 10.000921, 9.999182 
1.0850249e+3, 1.8459384e+2, -1069108.9, -1192316.4, -15228.757, -0.005906425, 0.08431081, -1067254.5, 63734.28, 0.0, 10.000799, 9.999163 
1.0850409e+3, 1.9459303e+2, -937997.7, -1076577.1, -13480.682, 0.0009136033, 0.085214384, -936698.5, 96297.89, 0.0, 10.001019, 9.99918 
1.0850567e+3, 2.0459221e+2, -847348.5, -984650.8, -14414.243, -0.0019309015, 0.086997606, -845851.56, 89152.766, 0.0, 10.000978, 9.999158 
1.0850725e+3, 2.1459137e+2, -798318.06, -908576.1, -13056.549, -0.016567755, 0.08643258, -796793.0, 40219.453, 0.0, 10.000635, 9.999172 
1.08508825e+3, 2.2459048e+2, -732020.25, -834216.3, -22477.246, -0.01601192, 0.08607442, -727295.0, 11725.994, 0.0, 10.000453, 9.999098 
1.085104e+3, 2.3458955e+2, -631883.9, -733698.1, -25709.951, 0.0020208166, 0.08165437, -625760.0, 15270.046, 0.0, 10.000462, 9.999111 
1.0851196e+3, 2.4458858e+2, -557491.8, -667961.1, -32682.947, 0.008889552, 0.08425364, -548546.7, -5506.8096, 0.0, 10.00039, 9.998923 
1.08513504e+3, 2.5458756e+2, -482697.53, -579253.2, -27855.188, 0.0029615099, 0.088778645, -475237.94, -30187.258, 0.0, 10.000222, 9.99894 
1.08515054e+3, 2.6458657e+2, -394879.7, -475549.16, -8618.284, 0.0052470854, 0.09299273, -393969.25, -46908.09, 0.0, 10.000107, 9.999035 
1.0851664e+3, 2.7458563e+2, -302141.3, -376711.34, -1480.8772, 0.01684179, 0.09387469, -302111.94, -53041.082, 0.0, 10.000056, 9.999064 
1.085182e+3, 2.8458488e+2, -204962.73, -252780.88, -11631.509, 0.021873835, 0.101060994, -202283.55, -51205.805, 0.0, 9.999937, 9.9993 
1.0851974e+3, 2.945843e+2, -132611.02, -163109.9, -19245.256, 0.019960424, 0.10910463, -123305.92, -70224.56, 0.0, 9.999743, 9.999336 
1.085213e+3, 3.045831e+2, -97583.9, -113481.96, -10854.341, 0.02606328, 0.054451685, -92079.164, -92079.164, 0.0, 9.999616, 9.999405 
1.0852286e+3, 3.1458247e+2, -99960.1, -108441.125, -3370.763, 0.03933566, 0.048749227, -98783.6, -98783.6, 0.0, 9.999572, 9.999459 
1.0949282e+3, 1.245821e+2, -1527105.0, -1729382.6, -44445.402, -0.020594805, 0.09757575, -1517770.1, 201335.4, 0.00066827383, 10.001749, 9.999055 
1.0949457e+3, 1.3458146e+2, -1487045.0, -1636689.6, 41906.66, -0.0009549542, 0.10843406, -1476108.6, 145003.3, 0.00031450897, 10.0012455, 9.999266 
1.09496206e+3, 1.44581e+2, -1397584.9, -1520737.8, -1500.4646, -0.03778224, 0.13038315, -1397566.6, 125548.96, 0.000080840386, 10.001094, 9.999458 
1.0949786e+3, 1.5457979e+2, -1258413.1, -1399951.4, 652.69806, 0.0053470484, 0.058647595, -1258410.0, 166715.66, 0.0000043066148, 10.001364, 9.999485 
1.0949946e+3, 1.6457891e+2, -1193680.5, -1362333.1, -26329.563, 0.016358474, 0.044214197, -1189665.5, 137468.05, 0.0000000006358386, 10.001326, 9.999088 
1.0950099e+3, 1.7457852e+2, -1154031.8, -1291900.1, -30769.057, -0.011243787, 0.09625058, -1147476.5, 81661.85, 0.0, 10.000923, 9.999092 
1.0950256e+3, 1.8457776e+2, -1066145.4, -1187013.1, -8729.78, -0.019476948, 0.10726683, -1065518.1, 65628.06, 0.0, 10.000802, 9.999199 
1.09504186e+3, 1.9457655e+2, -935242.75, -1070861.4, -5714.466, -0.0046258387, 0.06478391, -935002.4, 98155.32, 0.0, 10.001018, 9.99922 
1.0950577e+3, 2.0457564e+2, -845280.6, -980076.25, -27117.217, -0.008364101, 0.05325721, -840029.94, 95136.45, 0.0, 10.000977, 9.99919 
1.095073e+3, 2.1457504e+2, -795540.3, -903483.5, -26536.156, -0.034178402, 0.07357285, -789369.56, 47802.125, 0.0, 10.000637, 9.999207 
1.0950885e+3, 2.2457428e+2, -735869.56, -843338.6, -23254.947, -0.029689806, 0.0871984, -731053.3, 8125.947, 0.0, 10.000457, 9.999034 
1.0951046e+3, 2.3457333e+2, -636501.8, -743545.3, -25339.34, 0.0106044905, 0.088195264, -630806.5, 10382.954, 0.0, 10.000462, 9.999043 
1.0951202e+3, 2.4457239e+2, -547580.44, -647199.0, -38429.652, 0.025880104, 0.089481995, -534478.7, 8720.835, 0.0, 10.000388, 9.999067 
1.0951353e+3, 2.5457144e+2, -471798.06, -556999.06, -33589.035, 0.011190907, 0.085978284, -460148.9, -14939.687, 0.0, 10.000223, 9.999093 
1.0951506e+3, 2.6457062e+2, -381466.0, -448006.94, -10234.737, 0.011014403, 0.090892665, -379927.34, -32709.941, 0.0, 10.000108, 9.999224 
1.0951665e+3, 2.7457002e+2, -289028.4, -348956.78, -2634.219, 0.02834234, 0.10249567, -288912.84, -39689.344, 0.0, 10.000053, 9.999257 
1.09518215e+3, 2.8456923e+2, -216719.44, -276463.56, -17993.928, 0.038035624, 0.10940414, -211718.56, -60487.984, 0.0, 9.999933, 9.99914 
1.0951973e+3, 2.9456836e+2, -144655.39, -188289.69, -25348.95, 0.039495002, 0.10322953, -133027.7, -79788.766, 0.0, 9.999743, 9.999164 
1.0952128e+3, 3.0456725e+2, -77169.6, -71466.23, -12083.551, 0.042341936, 0.052443568, -61902.426, -61902.426, 0.0, 9.999616, 9.999693 
1.0952283e+3, 3.1456757e+2, -76655.484, -59819.105, -4075.2356, 0.043856554, 0.11289719, -58884.57, -58884.57, 0.0, 9.99957, 9.999795 
1.10493004e+3, 1.2456656e+2, -1559694.3, -1760212.6, -49946.004, -0.0061154477, 0.12258211, -1547942.1, 171315.83, 0.00075577793, 10.001589, 9.998921 
1.10494725e+3, 1.3456547e+2, -1404684.0, -1609457.0, 57152.5, 0.006451692, 0.09998112, -1389812.8, 231455.7, 0.00036234639, 10.0018635, 9.999156 
1.10496335e+3, 1.445649e+2, -1308822.6, -1488673.8, 16611.252, -0.04182104, 0.11879009, -1307301.3, 215972.1, 0.00009737699, 10.00175, 9.999362 
1.10497996e+3, 1.5456372e+2, -1294801.6, -1428293.5, 4342.289, 0.004009801, 0.061977338, -1294660.5, 130623.09, 0.0000060098255, 10.001162, 9.999387 
1.1049958e+3, 1.6456284e+2, -1237828.1, -1375304.1, -19726.016, 0.017288478, 0.048209585, -1235053.8, 92237.62, 0.0000000015512864, 10.000989, 9.999161 
1.10501096e+3, 1.7456236e+2, -1089355.4, -1251919.1, -11600.083, -0.008633519, 0.08344971, -1088531.8, 140764.1, 0.0, 10.00133, 9.99917 
1.1050266e+3, 1.8456155e+2, -1006707.7, -1173393.9, 6513.701, -0.020156628, 0.09224145, -1006453.56, 124850.61, 0.0, 10.001275, 9.9990635 
1.1050426e+3, 1.9456036e+2, -984204.6, -1110349.8, -4674.354, -0.014827925, 0.065316476, -984031.6, 49285.26, 0.0, 10.0007515, 9.999076 
1.10505834e+3, 2.0455946e+2, -899070.2, -990228.94, -26748.414, -0.01819804, 0.0579828, -891801.1, 43524.313, 0.0, 10.00054, 9.9993305 
1.1050736e+3, 2.1455893e+2, -775038.75, -876507.94, -17282.01, -0.03188702, 0.06871898, -772176.06, 65152.906, 0.0, 10.000705, 9.999359 
1.1050891e+3, 2.2455817e+2, -711903.56, -837071.94, -11768.135, -0.025942618, 0.077931635, -710806.75, 28529.373, 0.0, 10.000646, 9.998986 
1.1051048e+3, 2.3455721e+2, -661356.25, -761990.6, -13992.644, 0.0030815296, 0.080771506, -659446.9, -18099.383, 0.0, 10.0003195, 9.998985 
1.1051203e+3, 2.4455631e+2, -573351.75, -649811.06, -25095.377, 0.02041862, 0.08689399, -565850.9, -22493.477, 0.0, 10.00017, 9.999155 
1.1051356e+3, 2.5455555e+2, -464260.2, -542782.75, -24828.693, 0.023468465, 0.09203811, -457068.16, -11702.916, 0.0, 10.00023, 9.999187 
1.1051509e+3, 2.6455483e+2, -369269.75, -428593.22, -10612.52, 0.025340486, 0.09645877, -367428.4, -20056.236, 0.0, 10.000134, 9.999344 
1.1051664e+3, 2.745542e+2, -309683.66, -345174.13, -8604.114, 0.02603423, 0.09656294, -307707.75, -58330.074, 0.0, 9.999853, 9.999378 
1.1051819e+3, 2.845535e+2, -256031.58, -301617.4, -20639.242, 0.033107627, 0.10399647, -248075.6, -96691.01, 0.0, 9.999691, 9.9990835 
1.10519715e+3, 2.9455268e+2, -159448.75, -202716.73, -20319.27, 0.048810963, 0.11240131, -151402.75, -98009.47, 0.0, 9.999674, 9.999098 
1.1052125e+3, 3.0455157e+2, -70133.01, -50453.9, -8051.48, 0.05922535, 0.05625181, -47579.555, -47579.555, 0.0, 9.99959, 9.999849 
1.1052279e+3, 3.1455216e+2, -80459.78, -37763.22, -10646.835, 0.06143929, 0.126628, -35255.594, -35255.594, 0.0, 9.999443, 10.000007 
1.1149318e+3, 1.2455121e+2, -1552828.1, -1744135.0, -41889.95, 0.013621734, 0.1625285, -1544057.6, 175351.27, 0.00085057894, 10.001581, 9.999036 
1.11494936e+3, 1.3454933e+2, -1394487.4, -1588861.3, 67846.69, 0.032555163, 0.04582177, -1373148.0, 248277.47, 0.00041499882, 10.001865, 9.999296 
1.1149652e+3, 1.4454868e+2, -1326783.4, -1526823.3, -4353.348, -0.036423463, 0.064241596, -1326688.8, 196742.28, 0.00011616446, 10.001754, 9.999099 
1.1149808e+3, 1.5454817e+2, -1314917.5, -1470064.3, -18256.357, -0.015635526, 0.10199001, -1312798.3, 112638.57, 0.000008247579, 10.001162, 9.999101 
1.1149966e+3, 1.6454735e+2, -1222481.8, -1343681.3, -8958.525, -0.0025978093, 0.09876322, -1221823.1, 105620.836, 0.0000000033697685, 10.000989, 9.999378 
1.1150125e+3, 1.7454621e+2, -1072231.4, -1216590.4, 990.444, -0.00009085059, 0.044863705, -1072224.5, 157227.84, 0.0, 10.00133, 9.9994135 
1.115028e+3, 1.8454526e+2, -1028073.5, -1217925.3, -12479.764, -0.008576182, 0.03930347, -1027256.7, 104205.516, 0.0, 10.001275, 9.998758 
1.11504324e+3, 1.9454446e+2, -1006860.06, -1158389.8, -24986.43, -0.029988242, 0.08627747, -1002846.25, 30627.467, 0.0, 10.000754, 9.998745 
1.1150587e+3, 2.0454372e+2, -881221.5, -954495.75, -22337.775, -0.031991355, 0.100689165, -874948.8, 60532.492, 0.0, 10.000545, 9.999575 
1.1150746e+3, 2.1454307e+2, -755981.94, -836979.8, -11551.045, -0.010791942, 0.07170905, -754366.9, 83117.18, 0.0, 10.000704, 9.999632 
1.11508995e+3, 2.2454223e+2, -715105.3, -843332.56, -23722.74, -0.005795696, 0.058487672, -710857.2, 28634.176, 0.0, 10.000644, 9.998944 
1.115105e+3, 2.3454116e+2, -665112.75, -770176.2, -26404.393, -0.020132303, 0.059885573, -658850.1, -17346.063, 0.0, 10.00032, 9.998929 
1.1151202e+3, 2.4454038e+2, -570960.56, -645285.5, -23275.033, -0.007116584, 0.07680374, -564273.56, -20760.178, 0.0, 10.000171, 9.999186 
1.115136e+3, 2.5453988e+2, -462011.97, -537958.25, -21837.018, 0.03897401, 0.10650973, -456180.8, -10662.15, 0.0, 10.000229, 9.999221 
1.1151513e+3, 2.645392e+2, -365785.25, -421030.13, -20047.578, 0.047515314, 0.10913932, -359276.97, -11751.686, 0.0, 10.000133, 9.999397 
1.1151662e+3, 2.745383e+2, -306202.06, -337700.94, -18336.23, 0.010000695, 0.07667938, -297779.97, -48246.83, 0.0, 9.999852, 9.999431 
1.1151813e+3, 2.8453767e+2, -253349.2, -295946.16, -20958.998, 0.0073185805, 0.08575501, -244766.17, -93226.61, 0.0, 9.99969, 9.999124 
1.1151968e+3, 2.945373e+2, -156850.7, -197521.22, -19629.182, 0.048193503, 0.13617948, -148922.42, -95378.016, 0.0, 9.999674, 9.999134 
1.1152123e+3, 3.0453607e+2, -68075.0, -47024.195, -12289.915, 0.07650915, 0.06615662, -41368.555, -41368.555, 0.0, 9.999593, 9.999872 
1.11522764e+3, 3.145363e+2, -73579.3, -24382.166, -15009.675, 0.08899488, 0.10005086, -20164.422, -20164.422, 0.0, 9.999446, 10.000098 
1.1249337e+3, 1.2453545e+2, -1475129.5, -1708401.1, -37098.848, 0.021698806, 0.15012674, -1469371.5, 250191.36, 0.00095378526, 10.002125, 9.999019 
1.1249513e+3, 1.3453357e+2, -1431958.1, -1605433.5, 64457.016, 0.04929587, 0.033776727, -1410630.5, 210948.9, 0.00047316175, 10.001602, 9.999309 
1.1249668e+3, 1.4453304e+2, -1379104.6, -1558546.0, -7726.8384, -0.033986222, 0.06359706, -1378772.5, 144811.63, 0.00013752929, 10.001423, 9.99904 
1.1249822e+3, 1.5453255e+2, -1247002.0, -1444854.4, -5630.7295, -0.026347611, 0.11112671, -1246841.9, 178748.17, 0.00001111389, 10.00166, 9.999033 
1.1249978e+3, 1.6453168e+2, -1141162.8, -1305736.5, 7505.716, -0.013428348, 0.106551774, -1140821.1, 186776.83, 0.0000000061074554, 10.001553, 9.999367 
1.1250137e+3, 1.745304e+2, -1117045.0, -1239048.9, -1529.8462, 0.0053209653, 0.038022567, -1117025.9, 112581.78, 0.0, 10.001027, 9.999405 
1.125029e+3, 1.8452942e+2, -1094675.0, -1247167.6, -16085.111, 0.0011664375, 0.032315142, -1092996.9, 38620.44, 0.0, 10.000807, 9.998783 
1.1250441e+3, 1.9452883e+2, -975164.4, -1140302.9, -2369.954, -0.030980634, 0.096358046, -975130.4, 58496.605, 0.0, 10.00096, 9.998771 
1.12505935e+3, 2.0452814e+2, -833897.75, -934909.56, 7733.9126, -0.035639938, 0.114499584, -833309.06, 102325.15, 0.0, 10.000884, 9.999545 
1.1250752e+3, 2.1452732e+2, -782892.75, -853236.1, -4184.8984, -0.007380777, 0.07348136, -782644.6, 54993.76, 0.0, 10.000534, 9.999601 
1.1250904e+3, 2.2452644e+2, -758178.3, -860305.9, -28152.605, -0.00043836757, 0.053800337, -750931.94, -11285.642, 0.0, 10.000332, 9.998978 
1.12510525e+3, 2.3452541e+2, -664541.8, -765456.06, -24726.223, -0.019115122, 0.05587587, -658809.0, -17150.6, 0.0, 10.000307, 9.998967 
1.1251205e+3, 2.4452469e+2, -558613.94, -630931.8, -12428.931, -0.006926489, 0.07533119, -556537.44, -12870.614, 0.0, 10.000221, 9.999259 
1.1251361e+3, 2.5452432e+2, -481227.63, -538778.7, -8431.964, 0.04252789, 0.10953108, -480017.7, -34346.926, 0.0, 10.000062, 9.999295 
1.1251514e+3, 2.6452363e+2, -402617.38, -442305.7, -14613.315, 0.053980056, 0.10812173, -397817.28, -50139.723, 0.0, 9.999895, 9.999365 
1.12516604e+3, 2.7452254e+2, -327546.06, -352064.16, -20076.496, 0.018995827, 0.062132403, -316281.72, -66594.375, 0.0, 9.999723, 9.999393 
1.12518094e+3, 2.8452197e+2, -256788.23, -285209.75, -16591.984, 0.013392283, 0.0754826, -249153.17, -97460.1, 0.0, 9.999614, 9.999233 
1.12519644e+3, 2.94522e+2, -161866.11, -186764.61, -9724.666, 0.04451587, 0.14993945, -158518.13, -104823.84, 0.0, 9.999584, 9.99925 
1.1252118e+3, 3.045206e+2, -84908.984, -66413.84, -7284.17, 0.076297216, 0.06309528, -63889.555, -63889.555, 0.0, 9.999526, 9.999771 
1.1252273e+3, 3.145205e+2, -76637.45, -29100.367, -20016.73, 0.11101269, 0.07271767, -21794.594, -21794.594, 0.0, 9.999438, 10.00007 
1.1349358e+3, 1.245193e+2, -1486092.3, -1730984.6, -58428.043, 0.017710779, 0.08173535, -1472866.4, 246853.28, 0.0010657869, 10.002124, 9.998864 
1.1349529e+3, 1.345183e+2, -1441229.1, -1623673.3, 44277.48, 0.055607785, 0.06440077, -1431051.3, 190678.14, 0.00053702114, 10.001598, 9.9991865 
1.1349682e+3, 1.4451799e+2, -1369732.6, -1538240.5, -258.77707, -0.036150932, 0.11763668, -1369732.3, 153999.94, 0.00016162105, 10.001419, 9.999182 
1.13498375e+3, 1.5451689e+2, -1236056.3, -1422452.0, 3267.6423, -0.029127764, 0.08979261, -1235999.0, 189743.81, 0.000014669085, 10.001661, 9.9991865 
1.13499925e+3, 1.6451585e+2, -1157764.0, -1340947.4, -11450.094, -0.0155832525, 0.07159238, -1157051.0, 170701.58, 0.000000009421829, 10.001555, 9.999125 
1.1350147e+3, 1.745149e+2, -1134805.6, -1276917.1, -21864.143, 0.007511099, 0.0627059, -1131517.9, 98243.16, 0.0, 10.001031, 9.999144 
1.13503e+3, 1.8451412e+2, -1069827.1, -1196713.0, -12285.456, 0.008365832, 0.07121913, -1068648.5, 63120.37, 0.0, 10.000811, 9.999128 
1.13504514e+3, 1.945135e+2, -948797.06, -1085584.8, 2893.383, -0.018668007, 0.09579223, -948735.9, 85040.445, 0.0, 10.00096, 9.999146 
1.1350603e+3, 2.0451273e+2, -855136.7, -978797.8, -5278.2593, -0.029804079, 0.099811986, -854911.8, 80872.08, 0.0, 10.000882, 9.999245 
1.13507554e+3, 2.1451174e+2, -805857.4, -901606.94, -17913.652, -0.021638846, 0.07412241, -802615.7, 35176.05, 0.0, 10.000536, 9.999269 
1.1350907e+3, 2.2451079e+2, -750466.44, -844980.44, -30201.08, -0.0102874795, 0.06365238, -741640.2, -1839.6365, 0.0, 10.000334, 9.999082 
1.1351059e+3, 2.3450992e+2, -655619.75, -747043.56, -25703.375, 0.004826049, 0.06779382, -648888.94, -7078.4404, 0.0, 10.000307, 9.999094 
1.135121e+3, 2.4450926e+2, -551082.1, -615177.8, -18180.158, 0.019694934, 0.081715055, -546284.6, -2467.005, 0.0, 10.00022, 9.999368 
1.1351361e+3, 2.5450885e+2, -473796.72, -522972.0, -14031.959, 0.034110516, 0.10180028, -470074.5, -24253.168, 0.0, 10.00006, 9.999405 
1.1351511e+3, 2.6450813e+2, -410635.38, -458801.7, -20373.117, 0.044488057, 0.09474427, -403173.94, -55345.195, 0.0, 9.999894, 9.999252 
1.135166e+3, 2.7450696e+2, -335783.28, -369797.44, -25279.664, 0.050667774, 0.053080216, -322322.3, -72482.2, 0.0, 9.999725, 9.999271 
1.1351809e+3, 2.8450647e+2, -244740.34, -260890.23, -17178.443, 0.048792936, 0.0725678, -233833.63, -81988.53, 0.0, 9.999616, 9.9994 
1.1351958e+3, 2.9450673e+2, -149905.39, -161029.75, -10025.699, 0.036892995, 0.15380628, -144002.3, -90159.336, 0.0, 9.999579, 9.99943 
1.1352112e+3, 3.0450517e+2, -99813.05, -96640.03, -9647.052, 0.05844976, 0.048484948, -88449.91, -88449.91, 0.0, 9.999522, 9.999566 
1.1352269e+3, 3.145048e+2, -84250.05, -46785.465, -21670.951, 0.12602332, 0.054643333, -36872.883, -36872.883, 0.0, 9.999446, 9.999945 
1.1449381e+3, 1.24503836e+2, -1456191.5, -1726579.5, -65201.184, 0.020225298, 0.07371144, -1441290.3, 278581.3, 0.001186206, 10.002374, 9.998775 
1.1449547e+3, 1.3450295e+2, -1374170.5, -1598181.0, 42078.773, 0.049727086, 0.07509951, -1366527.1, 255353.31, 0.00060623896, 10.002088, 9.999126 
1.1449696e+3, 1.445027e+2, -1314652.9, -1503137.4, 10105.084, -0.050995957, 0.1333954, -1314112.8, 209769.88, 0.00018835878, 10.0017605, 9.999258 
1.1449853e+3, 1.5450151e+2, -1273481.1, -1431506.6, 8175.4937, -0.018499855, 0.08746032, -1273059.4, 152834.17, 0.000018936791, 10.001366, 9.999267 
1.14500076e+3, 1.6450045e+2, -1215736.5, -1382999.1, -8890.492, -0.004244177, 0.06752706, -1215265.3, 112638.5, 0.000000013934886, 10.001218, 9.998999 
1.1450157e+3, 1.7449953e+2, -1093056.4, -1272179.4, -10107.009, -0.010390889, 0.07576951, -1092487.9, 137425.2, 0.0, 10.001384, 9.999006 
1.1450308e+3, 1.8449876e+2, -988264.4, -1135135.8, 627.5466, -0.010872056, 0.08628905, -988261.7, 143658.67, 0.0, 10.001276, 9.999327 
1.1450461e+3, 1.9449823e+2, -951243.3, -1062411.4, 3466.117, -0.0053078416, 0.095318794, -951135.4, 82789.914, 0.0, 10.000839, 9.999363 
1.14506125e+3, 2.0449741e+2, -912197.25, -1027047.7, -8565.891, -0.011389293, 0.09330223, -911561.94, 24370.887, 0.0, 10.000582, 9.999058 
1.1450759e+3, 2.1449625e+2, -819740.0, -931176.7, -12112.554, -0.032078564, 0.072844766, -818438.6, 19504.848, 0.0, 10.000541, 9.999063 
1.1450909e+3, 2.2449526e+2, -732898.4, -828316.56, -18321.426, -0.023950616, 0.06341374, -729501.44, 10451.857, 0.0, 10.000421, 9.999154 
1.1451062e+3, 2.3449445e+2, -664429.9, -741752.3, -17127.654, 0.01905157, 0.06407439, -660805.75, -18843.973, 0.0, 10.000206, 9.999179 
1.1451212e+3, 2.4449384e+2, -573138.6, -620448.4, -13860.053, 0.039711066, 0.07621402, -569377.2, -25409.188, 0.0, 10.000046, 9.999415 
1.1451361e+3, 2.5449347e+2, -485900.13, -523435.94, -14870.803, 0.033163745, 0.09662192, -480722.78, -34751.508, 0.0, 9.999954, 9.999453 
1.1451509e+3, 2.6449278e+2, -417578.22, -460831.9, -20604.846, 0.038333096, 0.09033954, -409334.0, -61355.523, 0.0, 9.999842, 9.999263 
1.1451658e+3, 2.7449164e+2, -337919.06, -369815.6, -16520.182, 0.057894215, 0.049593706, -330905.13, -80915.13, 0.0, 9.999707, 9.99928 
1.1451807e+3, 2.8449118e+2, -255776.1, -264393.06, -8030.357, 0.06675454, 0.07095774, -250971.42, -98976.734, 0.0, 9.999533, 9.999415 
1.1451956e+3, 2.944915e+2, -187946.31, -177918.6, -12499.824, 0.06296821, 0.15512943, -169464.55, -115472.71, 0.0, 9.999311, 9.999443 
1.1452107e+3, 3.044898e+2, -138944.16, -123788.68, -6842.557, 0.07745047, 0.038631488, -121156.484, -121156.484, 0.0, 9.99929, 9.999491 
1.1452263e+3, 3.144894e+2, -70851.72, -34899.07, -9648.171, 0.12175381, 0.052253637, -32473.545, -32473.545, 0.0, 9.999517, 9.999991 
1.1549404e+3, 1.24489106e+2, -1458872.3, -1729706.5, -76039.36, 0.026429, 0.12523663, -1438983.9, 281034.0, 0.0013141764, 10.002363, 9.998757 
1.1549565e+3, 1.3448761e+2, -1373849.9, -1597503.0, 31340.51, 0.030397065, 0.066386156, -1369541.1, 252490.73, 0.0006802459, 10.002089, 9.99913 
1.15497105e+3, 1.4448725e+2, -1313413.4, -1501914.6, -4938.802, -0.07909099, 0.11110673, -1313284.0, 210750.72, 0.00021757523, 10.001764, 9.999266 
1.1549869e+3, 1.5448645e+2, -1272725.6, -1430782.0, -7188.414, 0.0053126463, 0.10443669, -1272399.4, 153642.2, 0.000023929451, 10.0013685, 9.999271 
1.1550022e+3, 1.6448547e+2, -1216379.9, -1384675.1, -4390.445, 0.019742992, 0.0946163, -1216265.4, 111785.54, 0.000000023716384, 10.001219, 9.998986 
1.1550167e+3, 1.7448428e+2, -1094143.8, -1274077.1, -4272.907, -0.049111124, 0.07716178, -1094042.4, 136020.88, 0.0, 10.001382, 9.998995 
1.1550316e+3, 1.8448345e+2, -984867.25, -1128308.0, -15352.429, -0.057151455, 0.07778673, -983242.5, 148828.63, 0.0, 10.001275, 9.999374 
1.1550471e+3, 1.9448304e+2, -946778.44, -1054395.8, -13658.44, 0.008561889, 0.09525036, -945072.0, 89001.44, 0.0, 10.000844, 9.999416 
1.1550622e+3, 2.0448224e+2, -916892.75, -1038152.8, -11568.761, 0.018731367, 0.095354155, -915798.94, 20281.6, 0.0, 10.0005865, 9.99898 
1.1550764e+3, 2.1448095e+2, -825399.25, -943361.6, -14112.497, -0.038940106, 0.06917881, -823734.44, 14358.9795, 0.0, 10.000543, 9.998979 
1.15509115e+3, 2.2447985e+2, -730275.7, -823228.06, -26583.092, -0.041511748, 0.052902028, -723210.3, 16893.8, 0.0, 10.000422, 9.999188 
1.1551064e+3, 2.3447901e+2, -660935.94, -735483.9, -25367.787, 0.023283033, 0.04570458, -653122.5, -11010.451, 0.0, 10.00021, 9.999221 
1.1551215e+3, 2.4447842e+2, -573591.44, -622188.8, -17499.057, 0.052572045, 0.059806373, -567946.1, -23828.473, 0.0, 10.000049, 9.999403 
1.1551361e+3, 2.544782e+2, -486879.1, -525693.94, -17907.893, 0.038759734, 0.093747556, -479879.3, -33758.902, 0.0, 9.999954, 9.999437 
1.15515076e+3, 2.644776e+2, -409322.66, -443663.8, -25294.781, 0.034812674, 0.09381166, -395921.13, -47794.363, 0.0, 9.999841, 9.999382 
1.1551653e+3, 2.7447656e+2, -329331.03, -351860.28, -21182.316, 0.041687883, 0.051203195, -316604.38, -66467.336, 0.0, 9.999706, 9.999404 
1.1551802e+3, 2.844761e+2, -263486.8, -280590.34, -15417.439, 0.06730277, 0.07137087, -254408.2, -102266.445, 0.0, 9.999533, 9.999305 
1.15519546e+3, 2.9447627e+2, -195852.2, -196154.05, -19189.316, 0.11807577, 0.15471342, -176813.22, -122672.695, 0.0, 9.999319, 9.999314 
1.1552104e+3, 3.0447444e+2, -137056.78, -121703.15, 1797.4604, 0.12879945, 0.033007897, -121495.52, -121495.52, 0.0, 9.999297, 9.999502 
1.15522556e+3, 3.144743e+2, -59389.695, -10636.928, -402.55075, 0.099102296, 0.068808235, -10633.6045, -10633.6045, 0.0, 9.999515, 10.00016 
1.1649426e+3, 1.2447446e+2, -1492282.6, -1741530.1, -51020.51, 0.013506028, 0.15049656, -1482243.3, 237919.36, 0.0014487223, 10.002115, 9.9987955 
1.1649588e+3, 1.3447286e+2, -1365842.0, -1587684.5, 59099.117, 0.045819554, 0.07505836, -1351080.3, 271097.13, 0.0007585872, 10.002117, 9.999185 
1.164973e+3, 1.4447238e+2, -1284304.6, -1499050.1, 14774.43, -0.07280685, 0.11092438, -1283292.9, 240888.05, 0.00024917058, 10.002012, 9.999166 
1.1649884e+3, 1.5447147e+2, -1221458.0, -1418521.8, 2968.1301, -0.0035981308, 0.1037229, -1221413.3, 204775.44, 0.000029664654, 10.001774, 9.99916 
1.1650034e+3, 1.644705e+2, -1171385.9, -1356517.3, 12526.742, 0.0085674, 0.09714768, -1170542.1, 157655.8, 0.00000004774233, 10.001501, 9.999043 
1.1650181e+3, 1.7446946e+2, -1117877.1, -1278207.5, 18453.316, -0.04490752, 0.08688511, -1115780.6, 114428.1, 0.0, 10.001188, 9.99906 
1.1650328e+3, 1.8446852e+2, -1028271.75, -1164910.9, 552.33765, -0.05182771, 0.08152864, -1028269.5, 103947.766, 0.0, 10.001045, 9.999233 
1.16504796e+3, 1.9446774e+2, -916664.6, -1056808.9, -13287.721, -0.004320714, 0.07721898, -915415.9, 118807.13, 0.0, 10.001123, 9.999265 
1.1650627e+3, 2.0446685e+2, -854365.4, -1004380.94, -16480.438, 0.0046582776, 0.07436978, -852576.25, 83654.71, 0.0, 10.001001, 9.999011 
1.165077e+3, 2.1446581e+2, -808981.9, -930772.06, -10245.571, -0.032633252, 0.06811254, -808126.0, 30115.512, 0.0, 10.000635, 9.99902 
1.1650917e+3, 2.2446477e+2, -726464.1, -821070.2, -14869.785, -0.03105719, 0.055830434, -724182.0, 16069.43, 0.0, 10.000447, 9.99919 
1.1651067e+3, 2.3446375e+2, -621824.6, -716231.2, -16855.709, 0.017961355, 0.032657675, -618905.44, 23354.926, 0.0, 10.000478, 9.999223 
1.1651215e+3, 2.4446309e+2, -543188.0, -613789.7, -19139.33, 0.04445153, 0.039485652, -538333.4, 5933.397, 0.0, 10.000286, 9.999346 
1.16513595e+3, 2.5446284e+2, -510523.5, -543982.44, -23675.12, 0.04312375, 0.076846205, -498263.53, -51993.367, 0.0, 9.999823, 9.999375 
1.1651505e+3, 2.644623e+2, -442218.56, -453458.56, -26637.799, 0.043562416, 0.08196523, -420614.38, -72338.05, 0.0, 9.999589, 9.999436 
1.165165e+3, 2.744614e+2, -334687.94, -347768.38, -26933.135, 0.04555383, 0.047230214, -313512.3, -63227.027, 0.0, 9.99964, 9.999464 
1.1651798e+3, 2.84461e+2, -249885.69, -271799.9, -23849.908, 0.068771064, 0.06961734, -234596.34, -82306.93, 0.0, 9.999618, 9.999324 
1.1651948e+3, 2.944611e+2, -168587.31, -180965.42, -18474.984, 0.11972917, 0.14614037, -155292.28, -101003.61, 0.0, 9.999498, 9.999331 
1.16520986e+3, 3.044592e+2, -140050.81, -134513.22, 9486.964, 0.13222167, 0.02516509, -127399.266, -127399.266, 0.0, 9.999327, 9.9994 
1.165225e+3, 3.1445935e+2, -117427.99, -32501.74, -843.8063, 0.1103659, 0.09563387, -32493.357, -32493.357, 0.0, 9.999089, 10.000216 
1.17494434e+3, 1.2445996e+2, -1486047.1, -1728002.8, -50748.574, -0.019495357, 0.14903313, -1475834.0, 244470.86, 0.001589411, 10.002112, 9.998891 
1.1749614e+3, 1.3445874e+2, -1358845.1, -1573196.5, 58957.703, 0.09559181, 0.10119726, -1343699.0, 278616.94, 0.0008411694, 10.002116, 9.999286 
1.1749755e+3, 1.4445817e+2, -1299244.3, -1529799.6, 5680.54, -0.032551236, 0.13302353, -1299104.4, 225216.1, 0.0002831922, 10.002011, 9.998955 
1.1749897e+3, 1.5445663e+2, -1237168.1, -1451050.0, -6403.612, -0.04589684, 0.085430704, -1236976.5, 189357.89, 0.000036181405, 10.001774, 9.998937 
1.17500454e+3, 1.6445556e+2, -1162667.1, -1339378.9, 349.06287, -0.038701635, 0.0752807, -1162666.4, 165677.83, 0.00000010132158, 10.001504, 9.999161 
1.1750197e+3, 1.7445506e+2, -1107464.9, -1257812.0, 6206.662, 0.0011977549, 0.10530203, -1107209.0, 123139.87, 0.0, 10.001192, 9.999198 
1.1750344e+3, 1.8445402e+2, -1050829.1, -1212427.3, 1895.0977, 0.003731722, 0.09809301, -1050806.9, 81551.445, 0.0, 10.001048, 9.998906 
1.1750487e+3, 1.9445238e+2, -941543.5, -1108398.1, -10733.783, -0.04331854, 0.04131947, -940855.8, 93517.72, 0.0, 10.001123, 9.998911 
1.1750631e+3, 2.0445126e+2, -845158.6, -985549.56, -29967.01, -0.053013064, 0.030336626, -839029.56, 97354.055, 0.0, 10.001001, 9.999141 
1.17507786e+3, 2.1445084e+2, -797289.5, -907521.56, -24592.277, -0.014680351, 0.06996198, -792051.94, 46335.496, 0.0, 10.000639, 9.999178 
1.1750925e+3, 2.2445e+2, -727955.6, -825280.7, -15145.421, 0.0056979903, 0.07240466, -725653.2, 14741.585, 0.0, 10.000451, 9.999161 
1.17510706e+3, 2.3444872e+2, -624382.5, -721761.25, -15896.935, 0.003495563, 0.024413263, -621853.06, 20553.332, 0.0, 10.000478, 9.999186 
1.17512144e+3, 2.4444781e+2, -550482.0, -629142.06, -35753.246, 0.015790952, 0.014925602, -536659.94, 7755.2163, 0.0, 10.000286, 9.99924 
1.1751359e+3, 2.544474e+2, -517256.4, -559343.9, -40771.363, 0.045761354, 0.04680958, -492418.3, -45998.008, 0.0, 9.999827, 9.999268 
1.1751503e+3, 2.6444682e+2, -441428.13, -453369.7, -24988.314, 0.06347306, 0.05608514, -421707.16, -73280.35, 0.0, 9.999595, 9.999434 
1.17516495e+3, 2.744461e+2, -334192.34, -347233.6, -23713.111, 0.06605248, 0.03762433, -316119.66, -65685.3, 0.0, 9.999641, 9.999468 
1.1751794e+3, 2.8444582e+2, -241583.5, -254301.78, -27261.678, 0.06868084, 0.065025896, -219949.11, -67511.65, 0.0, 9.999615, 9.999446 
1.17519386e+3, 2.9444596e+2, -159787.4, -162344.08, -22727.97, 0.07194243, 0.13035573, -138301.84, -83865.56, 0.0, 9.9994955, 9.999461 
1.17520876e+3, 3.0444413e+2, -152448.03, -160616.4, 1281.7809, 0.09129225, 0.016361898, -152251.63, -152251.63, 0.0, 9.999328, 9.999221 
1.1752245e+3, 3.1444454e+2, -117256.79, -34944.234, -7830.204, 0.1485247, 0.13558276, -34205.99, -34205.99, 0.0, 9.999101, 10.000194 
1.1849467e+3, 1.2444546e+2, -1430322.4, -1717677.8, -36078.25, -0.025877427, 0.12322022, -1425861.9, 294584.2, 0.0017368259, 10.002568, 9.998741 
1.18496366e+3, 1.3444446e+2, -1369571.1, -1595517.0, 52244.16, 0.10395722, 0.113774136, -1358075.9, 264380.28, 0.00092832, 10.002117, 9.99913 
1.1849773e+3, 1.444439e+2, -1313999.3, -1536598.4, 1432.0693, -0.03543853, 0.15336047, -1313990.0, 210471.02, 0.0003198089, 10.00191, 9.998956 
1.1849917e+3, 1.544421e+2, -1206634.4, -1435079.8, 6668.1934, -0.04740063, 0.0800764, -1206439.9, 220037.08, 0.0000435681, 10.001979, 9.998947 
1.1850061e+3, 1.6444093e+2, -1116388.3, -1328950.6, 6747.897, -0.03790679, 0.06361115, -1116174.3, 212313.33, 0.00000019883093, 10.001873, 9.999054 
1.185021e+3, 1.7444049e+2, -1061006.9, -1247798.3, -6888.773, 0.004744778, 0.11102575, -1060753.1, 169738.55, 0.0, 10.001565, 9.999086 
1.18503556e+3, 1.8443942e+2, -1020003.94, -1201863.1, -3148.1523, 0.0052545015, 0.10770901, -1019949.44, 112552.01, 0.0, 10.001279, 9.998867 
1.1850497e+3, 1.9443761e+2, -959004.44, -1120530.1, 8133.496, -0.04905036, 0.03789881, -958595.94, 75922.125, 0.0, 10.0010195, 9.998878 
1.1850641e+3, 2.0443638e+2, -865217.44, -1000432.1, -7123.0605, -0.05812368, 0.018991105, -864843.2, 71685.94, 0.0, 10.000887, 9.999093 
1.1850788e+3, 2.1443588e+2, -760658.9, -894871.2, -17169.398, -0.010152203, 0.05730504, -758497.25, 80036.09, 0.0, 10.000913, 9.999132 
1.18509315e+3, 2.2443508e+2, -688648.0, -808757.56, -17014.2, 0.010955857, 0.063531585, -686284.4, 54256.242, 0.0, 10.000732, 9.999138 
1.1851073e+3, 2.3443386e+2, -652365.5, -737628.6, -17085.125, -0.001844116, 0.0255763, -649069.4, -6517.813, 0.0, 10.000296, 9.999164 
1.1851216e+3, 2.4443291e+2, -581286.6, -648338.1, -33257.117, 0.008563069, 0.0151077425, -567589.4, -23028.666, 0.0, 10.000093, 9.999201 
1.18513584e+3, 2.5443232e+2, -467709.8, -539823.8, -33822.688, 0.048032198, 0.032148007, -454329.16, -7761.5093, 0.0, 10.000188, 9.999228 
1.18515015e+3, 2.6443172e+2, -376903.22, -422517.2, -16800.656, 0.068468146, 0.039944094, -371383.16, -22808.78, 0.0, 10.00004, 9.999432 
1.18516445e+3, 2.744311e+2, -341773.75, -350772.72, -16614.438, 0.06463008, 0.0362771, -329060.3, -78479.96, 0.0, 9.999591, 9.999467 
1.1851788e+3, 2.844308e+2, -290791.28, -284991.53, -22314.06, 0.06334024, 0.06533084, -265389.72, -112806.086, 0.0, 9.999309, 9.999382 
1.1851931e+3, 2.9443073e+2, -201623.22, -190142.3, -31235.932, 0.066330366, 0.11642704, -164123.72, -109538.9, 0.0, 9.999242, 9.9993925 
1.1852079e+3, 3.0442888e+2, -170100.52, -171114.53, -10092.541, 0.08540064, 0.0011754656, -160502.25, -160502.25, 0.0, 9.999216, 9.999202 
1.1852236e+3, 3.144294e+2, -87467.46, -574.5992, -7701.1943, 0.14714572, 0.13369416, 102.66819, 102.66819, 0.0, 9.999219, 10.000372 
1.1949494e+3, 1.2443102e+2, -1458274.0, -1775120.9, -51120.65, -0.0044877846, 0.07342884, -1450230.3, 270355.13, 0.0018922538, 10.002566, 9.998348 
1.1949653e+3, 1.3443008e+2, -1398852.5, -1656256.8, 34946.254, 0.070039175, 0.11265368, -1394192.4, 228404.72, 0.00102056, 10.002117, 9.998714 
1.1949787e+3, 1.4442961e+2, -1299092.6, -1506289.9, 2777.245, -0.083177805, 0.17209333, -1299055.4, 225546.67, 0.0003592124, 10.001911, 9.999164 
1.194994e+3, 1.5442795e+2, -1189125.9, -1399457.8, 8771.217, -0.009142437, 0.087813, -1188760.8, 237854.81, 0.00005194898, 10.00198, 9.999191 
1.1950085e+3, 1.6442665e+2, -1139692.8, -1377736.3, -4763.4478, 0.010128729, 0.06264745, -1139597.5, 189029.69, 0.00000035173326, 10.001874, 9.998719 
1.19502224e+3, 1.744258e+2, -1086248.5, -1300866.5, -18948.586, -0.033613574, 0.10406866, -1084588.4, 146048.1, 0.0, 10.001567, 9.998721 
1.1950364e+3, 1.8442474e+2, -1002613.5, -1166870.3, -13634.606, -0.047181632, 0.10996534, -1001489.44, 131156.75, 0.0, 10.001283, 9.999105 
1.1950509e+3, 1.9442347e+2, -939040.3, -1079894.9, -2340.0828, -0.023410026, 0.06654548, -939001.44, 95654.85, 0.0, 10.001022, 9.999155 
1.1950653e+3, 2.044222e+2, -880344.1, -1032235.0, -7478.7246, -0.012782141, 0.040464595, -879976.75, 56690.34, 0.0, 10.000888, 9.998876 
1.19507946e+3, 2.1442099e+2, -777743.0, -930803.56, -16748.818, -0.018414937, 0.030422518, -775931.6, 62747.184, 0.0, 10.000914, 9.998886 
1.1950936e+3, 2.2441995e+2, -689745.56, -811696.06, -32942.957, -0.014549902, 0.029434333, -681415.56, 59273.0, 0.0, 10.000735, 9.999117 
1.1951077e+3, 2.3441917e+2, -652183.5, -738366.9, -33667.125, 0.0010036759, 0.03601838, -640590.94, 2104.5713, 0.0, 10.0003, 9.999157 
1.19512185e+3, 2.4441838e+2, -579214.75, -645210.94, -30818.16, 0.021468496, 0.039435294, -567061.6, -22358.383, 0.0, 10.000097, 9.999221 
1.195136e+3, 2.5441757e+2, -465829.38, -536372.8, -29803.113, 0.048637517, 0.03160295, -454924.03, -8211.935, 0.0, 10.000188, 9.999251 
1.19515e+3, 2.6441687e+2, -377870.16, -425075.88, -32106.455, 0.057549752, 0.03242644, -361624.3, -12905.214, 0.0, 10.000042, 9.9994135 
1.1951638e+3, 2.7441645e+2, -341996.84, -353083.06, -33123.88, 0.043031253, 0.043400552, -313955.47, -63232.223, 0.0, 9.999598, 9.999449 
1.19517796e+3, 2.8441602e+2, -304592.94, -315960.34, -24995.197, 0.053373173, 0.07074018, -284643.38, -131915.55, 0.0, 9.999317, 9.999166 
1.1951926e+3, 2.944155e+2, -217473.38, -224580.55, -32106.03, 0.09550271, 0.10242572, -188724.88, -133990.8, 0.0, 9.999248, 9.999154 
1.1952074e+3, 3.0441344e+2, -163216.52, -157357.72, -8869.574, 0.10747819, -0.021152494, -150946.31, -150946.31, 0.0, 9.999217, 9.999296 
1.19522244e+3, 3.1441402e+2, -65530.836, 45032.324, -6403.1016, 0.11081477, 0.10121342, 45401.914, 45401.914, 0.0, 9.999218, 10.000686 
1.2049518e+3, 1.24416724e+2, -1508648.5, -1785687.0, -76493.195, 0.00077131344, 0.07285596, -1488931.3, 231794.88, 0.0020569195, 10.002161, 9.998469 
1.2049674e+3, 1.3441586e+2, -1360447.8, -1626097.8, 45411.188, 0.06258093, 0.10839363, -1352899.5, 269836.8, 0.0011183886, 10.002331, 9.998817 
1.2049806e+3, 1.4441538e+2, -1263799.3, -1507653.4, 19478.484, -0.103982255, 0.16947554, -1262253.1, 262488.16, 0.00040151636, 10.002234, 9.998999 
1.20499596e+3, 1.5441367e+2, -1229042.0, -1438758.0, -7479.8936, 0.0037036112, 0.09845512, -1228775.6, 197980.73, 0.000061428385, 10.001795, 9.99901 
1.20501034e+3, 1.6441229e+2, -1171872.9, -1387913.1, -19901.346, 0.027348164, 0.07290658, -1170054.9, 158713.98, 0.00000057087306, 10.001632, 9.998765 
1.2050238e+3, 1.7441131e+2, -1045268.8, -1274712.8, -2217.8076, -0.046995156, 0.09734457, -1045247.4, 185531.03, 0.0, 10.0018215, 9.998777 
1.2050376e+3, 1.8441024e+2, -944622.56, -1147637.3, -2129.7922, -0.06656543, 0.10294619, -944600.25, 188187.66, 0.0, 10.0017185, 9.999027 
1.20505214e+3, 1.9440909e+2, -912795.4, -1076733.5, -18937.133, -0.019144604, 0.07971291, -910636.3, 124160.92, 0.0, 10.001245, 9.999069 
1.20506644e+3, 2.0440783e+2, -873599.5, -1030089.2, -19204.125, -0.0028464464, 0.056921095, -871277.25, 65531.105, 0.0, 10.000939, 9.998864 
1.2050803e+3, 2.1440642e+2, -787636.4, -936206.8, -10141.931, -0.025373302, 0.029075915, -786947.25, 51874.363, 0.0, 10.000849, 9.998879 
1.2050942e+3, 2.2440532e+2, -692075.25, -813552.94, -26325.172, -0.024698764, 0.021170903, -686615.75, 54216.12, 0.0, 10.000722, 9.99911 
1.2051082e+3, 2.3440461e+2, -616311.5, -721414.25, -27977.793, 0.0051136347, 0.034615852, -609328.0, 33510.03, 0.0, 10.000548, 9.999153 
1.2051221e+3, 2.4440382e+2, -544499.94, -633527.44, -19024.28, 0.027399655, 0.0419414, -540605.06, 4240.593, 0.0, 10.000359, 9.999175 
1.2051361e+3, 2.5440294e+2, -475078.7, -545857.6, -23136.068, 0.04002958, 0.034040898, -468187.06, -21331.914, 0.0, 10.000147, 9.999206 
1.2051499e+3, 2.644022e+2, -386358.88, -430204.66, -35186.094, 0.045026872, 0.032657985, -366824.88, -17962.387, 0.0, 9.9999895, 9.999403 
1.2051636e+3, 2.744017e+2, -297893.6, -332313.47, -35846.67, 0.040673174, 0.038427018, -275339.66, -24472.926, 0.0, 9.999904, 9.999443 
1.20517746e+3, 2.8440118e+2, -253819.58, -305768.06, -21993.3, 0.056567233, 0.06294733, -245759.03, -92886.95, 0.0, 9.999728, 9.999037 
1.205192e+3, 2.9440054e+2, -201139.36, -232022.53, -23165.52, 0.09787335, 0.0951301, -188740.61, -133860.61, 0.0, 9.999428, 9.999015 
1.2052065e+3, 3.0439845e+2, -176733.11, -175200.08, 680.9522, 0.106756754, -0.024050098, -174941.3, -174941.3, 0.0, 9.999174, 9.999193 
1.2052216e+3, 3.143987e+2, -93468.414, 42810.086, -10737.64, 0.11073893, 0.07914433, 43650.938, 43650.938, 0.0, 9.99898, 10.000784 
1.2149539e+3, 1.2440267e+2, -1464914.1, -1693662.6, -68525.38, -0.010439375, 0.12524281, -1445957.3, 274909.88, 0.0022312584, 10.002155, 9.9991045 
1.21497e+3, 1.3440184e+2, -1316555.3, -1535441.4, 51297.24, 0.08068679, 0.10100849, -1305129.8, 317743.25, 0.0012220372, 10.002332, 9.99944 
1.21498294e+3, 1.4440127e+2, -1301098.1, -1586165.1, 3795.1458, -0.09857975, 0.14562765, -1301047.6, 223830.53, 0.0004466493, 10.002237, 9.998459 
1.2149977e+3, 1.5439932e+2, -1271295.6, -1527282.6, -24406.213, -0.008895834, 0.11184466, -1268989.4, 157909.08, 0.00007201624, 10.001797, 9.998402 
1.21501185e+3, 1.643979e+2, -1142661.3, -1327894.6, -14806.636, 0.013236181, 0.094067596, -1141485.3, 187426.86, 0.0000008702971, 10.001634, 9.999176 
1.2150256e+3, 1.7439711e+2, -1012062.4, -1205855.3, 4528.516, -0.036666848, 0.09099888, -1011956.6, 218960.31, 0.0, 10.0018215, 9.999251 
1.2150394e+3, 1.8439603e+2, -972234.2, -1204856.8, -19296.531, -0.05430382, 0.08740922, -970644.4, 162281.67, 0.0, 10.001718, 9.998635 
1.2150532e+3, 1.9439454e+2, -943204.3, -1141319.8, -37253.41, -0.035655826, 0.07746023, -936430.8, 98509.68, 0.0, 10.001249, 9.998624 
1.215067e+3, 2.0439327e+2, -859643.3, -1002944.4, -24091.406, -0.027828593, 0.067764856, -855701.56, 81250.914, 0.0, 10.000946, 9.999048 
1.2150811e+3, 2.1439222e+2, -771500.9, -903211.4, -14094.475, -0.031835638, 0.052787382, -770009.5, 68951.85, 0.0, 10.000851, 9.999106 
1.215095e+3, 2.2439118e+2, -691729.6, -812943.56, -33270.492, -0.020599453, 0.038519528, -683198.06, 57772.203, 0.0, 10.000721, 9.999115 
1.2151088e+3, 2.3439014e+2, -616352.94, -722448.3, -34694.027, 0.009840221, 0.021605302, -606015.06, 36963.95, 0.0, 10.000551, 9.9991455 
1.2151224e+3, 2.4438925e+2, -551784.9, -649742.44, -26878.418, 0.025769407, 0.022958387, -544894.44, 93.24334, 0.0, 10.000362, 9.999063 
1.2151361e+3, 2.543885e+2, -482854.28, -562878.1, -30565.559, 0.022757601, 0.039758585, -472515.34, -25518.809, 0.0, 10.00015, 9.999088 
1.21514976e+3, 2.6438773e+2, -386194.44, -430493.47, -38038.508, 0.03111674, 0.04067574, -364326.6, -15322.144, 0.0, 9.99999, 9.999401 
1.21516354e+3, 2.7438697e+2, -297399.2, -331489.78, -37999.723, 0.053542323, 0.021008259, -272796.9, -21786.264, 0.0, 9.999904, 9.99945 
1.2151774e+3, 2.843864e+2, -258205.06, -315404.63, -31838.291, 0.06894352, 0.041547704, -244007.38, -90990.984, 0.0, 9.99973, 9.99897 
1.2151912e+3, 2.9438588e+2, -204712.7, -241920.08, -33866.023, 0.07639823, 0.09479915, -184676.97, -129654.08, 0.0, 9.999437, 9.998942 
1.2152056e+3, 3.0438375e+2, -193117.47, -212095.14, -5839.442, 0.085886866, -0.0076380176, -191464.63, -191464.63, 0.0, 9.999186, 9.998935 
1.21522084e+3, 3.1438354e+2, -98870.36, 30784.984, -15436.669, 0.1380655, 0.069848135, 32597.523, 32597.523, 0.0, 9.998982, 10.000701 
1.2249559e+3, 1.2438873e+2, -1427436.0, -1665434.6, -27989.75, -0.025980752, 0.14024006, -1424188.5, 296816.28, 0.002414319, 10.002373, 9.999192 
1.2249723e+3, 1.3438785e+2, -1361739.9, -1551320.4, 44206.94, 0.09294717, 0.10634205, -1351938.4, 271072.1, 0.0013311396, 10.001998, 9.999491 
1.224985e+3, 1.443872e+2, -1357099.4, -1620459.1, -9854.909, -0.09751988, 0.14626938, -1356731.1, 168284.63, 0.0004943066, 10.001887, 9.99839 
1.2249995e+3, 1.5438525e+2, -1231667.8, -1516769.4, 1084.3334, -0.020228893, 0.116874665, -1231663.6, 195373.19, 0.000083587045, 10.002108, 9.998323 
1.2250136e+3, 1.6438375e+2, -1098845.6, -1314302.8, 11448.385, 0.003250899, 0.09962122, -1098239.0, 230812.13, 0.0000012652538, 10.001967, 9.999108 
1.2250274e+3, 1.7438288e+2, -1083348.9, -1247177.5, -10304.892, -0.026470533, 0.09283933, -1082703.3, 148353.45, 0.0, 10.001363, 9.999187 
1.225041e+3, 1.843817e+2, -1050030.8, -1240439.4, -35656.37, -0.03853212, 0.08441211, -1043572.6, 89493.68, 0.0, 10.001176, 9.9986515 
1.22505456e+3, 1.943802e+2, -901292.4, -1118513.4, -18705.842, -0.034090776, 0.068277955, -899693.3, 135387.66, 0.0, 10.001527, 9.998647 
1.2250683e+3, 2.043789e+2, -785581.6, -974231.6, -5152.017, -0.03234401, 0.060862962, -785441.06, 151651.95, 0.0, 10.001486, 9.998985 
1.22508205e+3, 2.1437792e+2, -763389.75, -906623.9, -17648.402, -0.03167331, 0.05923746, -761247.3, 77854.234, 0.0, 10.000938, 9.99904 
1.2250957e+3, 2.2437689e+2, -697518.25, -806430.5, -36863.5, -0.018560043, 0.045748375, -686214.3, 54895.97, 0.0, 10.000643, 9.999197 
1.22510925e+3, 2.343758e+2, -593128.94, -700668.0, -30902.92, 0.009729749, 0.0134468805, -584881.1, 58237.867, 0.0, 10.000666, 9.999239 
1.2251228e+3, 2.4437489e+2, -530998.25, -644590.1, -24442.775, 0.024040306, 0.010423599, -525961.94, 19165.64, 0.0, 10.000526, 9.999018 
1.2251362e+3, 2.543742e+2, -481036.4, -567569.94, -24370.105, 0.020101676, 0.03722178, -474645.2, -27509.13, 0.0, 10.000188, 9.999037 
1.2251498e+3, 2.643734e+2, -398372.66, -443689.78, -26023.14, 0.028878856, 0.038835127, -386525.94, -37381.33, 0.0, 9.99994, 9.999334 
1.2251634e+3, 2.7437243e+2, -317251.94, -348427.75, -31754.95, 0.053446345, 0.00752479, -297465.28, -46312.477, 0.0, 9.9998, 9.999382 
1.2251771e+3, 2.8437182e+2, -256254.03, -311837.25, -25861.342, 0.06751594, 0.026389414, -246082.73, -92923.8, 0.0, 9.999733, 9.998992 
1.2251907e+3, 2.9437146e+2, -155809.66, -215450.14, -20752.09, 0.069076546, 0.09241547, -149299.52, -94135.81, 0.0, 9.999762, 9.998967 
1.2252047e+3, 3.0436948e+2, -158431.1, -216025.39, 3330.0398, 0.076158054, 0.0100206, -158239.2, -158239.2, 0.0, 9.999514, 9.99875 
1.22521974e+3, 3.1436875e+2, -113409.664, 19650.824, -2413.004, 0.13799937, 0.056329936, 19694.568, 19694.568, 0.0, 9.9989, 10.000664 
1.2349581e+3, 1.24375e+2, -1460080.9, -1733707.9, -38202.42, -0.04607084, 0.1196362, -1454847.4, 266290.9, 0.0026041293, 10.002374, 9.998723 
1.2349743e+3, 1.3437396e+2, -1398841.6, -1628680.6, 29655.094, 0.09889113, 0.12386647, -1395077.0, 228070.7, 0.0014447866, 10.001998, 9.99896 
1.2349868e+3, 1.4437333e+2, -1329631.1, -1563862.0, -3577.6592, -0.10131539, 0.17155924, -1329576.5, 195576.92, 0.00054404186, 10.001887, 9.998779 
1.23500146e+3, 1.543715e+2, -1200209.1, -1451954.1, 8992.967, -0.031187017, 0.11393593, -1199888.3, 227282.4, 0.00009593835, 10.002109, 9.998768 
1.2350155e+3, 1.6436993e+2, -1136612.8, -1393468.4, -9890.56, -0.0038500736, 0.09008582, -1136232.5, 192953.0, 0.0000017602412, 10.001969, 9.998565 
1.2350288e+3, 1.7436863e+2, -1124852.6, -1334898.1, -33521.156, -0.016964035, 0.102341436, -1119632.6, 111564.48, 0.0, 10.0013685, 9.998583 
1.2350424e+3, 1.8436734e+2, -1020348.0, -1180239.4, -25412.705, -0.020177525, 0.093358144, -1016406.1, 116802.11, 0.0, 10.001182, 9.999063 
1.2350563e+3, 1.9436605e+2, -867593.2, -1048625.0, -6046.81, -0.015376468, 0.05275563, -867391.44, 167826.94, 0.0, 10.001526, 9.999127 
1.23506986e+3, 2.0436479e+2, -807396.6, -1019000.9, -24421.797, -0.017318444, 0.03720162, -804614.6, 132614.84, 0.0, 10.001482, 9.998679 
1.23508304e+3, 2.1436359e+2, -787890.94, -958507.4, -38791.6, -0.025782809, 0.04840264, -779485.3, 59756.434, 0.0, 10.000942, 9.998682 
1.2350963e+3, 2.2436252e+2, -686032.3, -783863.6, -37547.164, -0.019455519, 0.04255884, -673283.3, 67968.15, 0.0, 10.000647, 9.999351 
1.2351099e+3, 2.3436162e+2, -580054.5, -673470.25, -30014.703, 0.004846447, 0.010362472, -571242.0, 72015.73, 0.0, 10.000665, 9.999427 
1.2351233e+3, 2.4436077e+2, -530202.0, -642563.0, -36501.73, 0.0220111, 0.004663509, -519385.3, 25879.738, 0.0, 10.000524, 9.999034 
1.2351365e+3, 2.5436005e+2, -480645.16, -567145.6, -36608.47, 0.029820774, 0.026314486, -467231.8, -19958.127, 0.0, 10.000188, 9.99904 
1.2351498e+3, 2.6435918e+2, -407484.3, -463486.34, -30816.373, 0.036228918, 0.027128134, -393847.53, -44564.477, 0.0, 9.999942, 9.999198 
1.2351631e+3, 2.743581e+2, -326612.63, -369363.2, -35935.65, 0.04142171, -0.0014808265, -306175.56, -54882.375, 0.0, 9.999805, 9.999236 
1.2351766e+3, 2.8435746e+2, -248199.81, -296226.16, -24286.484, 0.05303783, 0.01776513, -238059.42, -84759.6, 0.0, 9.999737, 9.999098 
1.23519056e+3, 2.9435724e+2, -148255.48, -198471.8, -18389.371, 0.071596116, 0.08640308, -142241.48, -86938.75, 0.0, 9.999755, 9.999087 
1.2352042e+3, 3.043555e+2, -168950.66, -236453.77, -16988.996, 0.073768534, 0.027584841, -164916.05, -164916.05, 0.0, 9.999507, 9.998612 
1.2352184e+3, 3.143543e+2, -113867.484, 16467.559, -22594.348, 0.113030024, 0.04606758, 20273.297, 20273.297, 0.0, 9.998909, 10.000638 
1.2449602e+3, 1.2436143e+2, -1475975.3, -1759875.6, -47828.04, -0.06755588, 0.13129796, -1468134.3, 253136.64, 0.0027991196, 10.002346, 9.998556 
1.24497645e+3, 1.3435997e+2, -1360569.3, -1635453.6, 37478.47, 0.10181989, 0.11622077, -1355551.0, 267734.03, 0.0015621701, 10.002371, 9.9987335 
1.24498874e+3, 1.4435922e+2, -1279582.5, -1537758.5, 6599.596, -0.10458197, 0.16471647, -1279413.9, 245878.03, 0.00059554225, 10.002224, 9.9987955 
1.2450034e+3, 1.543577e+2, -1238714.3, -1466478.9, -12494.883, -0.03084059, 0.13240148, -1238030.9, 189275.38, 0.00010892916, 10.001828, 9.998802 
1.24501735e+3, 1.643561e+2, -1183418.5, -1424297.9, -35223.855, -0.0010959813, 0.10806033, -1178373.4, 150947.6, 0.0000023447426, 10.001685, 9.998488 
1.2450305e+3, 1.743544e+2, -1055703.9, -1310746.6, -20379.24, -0.013131662, 0.087626204, -1054085.8, 177250.69, 0.0, 10.001884, 9.9985 
1.24504395e+3, 1.8435301e+2, -933902.94, -1134367.3, -1422.416, -0.016474763, 0.0722464, -933892.8, 199455.47, 0.0, 10.001758, 9.9991 
1.2450576e+3, 1.9435205e+2, -912837.7, -1065243.0, -14488.671, -0.013351739, 0.059545193, -911472.5, 123882.96, 0.0, 10.001194, 9.999172 
1.2450711e+3, 2.0435089e+2, -884110.8, -1047080.2, -40631.96, -0.013621784, 0.047076095, -874542.2, 62823.324, 0.0, 10.000918, 9.998758 
1.24508396e+3, 2.1434948e+2, -771809.25, -941319.2, -23437.367, -0.016792081, 0.029206963, -768628.4, 70750.63, 0.0, 10.001013, 9.998766 
1.24509715e+3, 2.2434834e+2, -657436.9, -778819.75, -12605.414, -0.013886132, 0.018047087, -656141.7, 85247.49, 0.0, 10.000881, 9.999271 
1.2451103e+3, 2.3434761e+2, -615712.6, -700025.44, -25656.396, -0.004120121, 0.010772308, -608519.1, 34875.723, 0.0, 10.000462, 9.999342 
1.2451235e+3, 2.4434684e+2, -568219.0, -646283.9, -38937.652, 0.010853944, 0.0098864855, -552118.2, -6716.5566, 0.0, 10.000201, 9.999163 
1.2451367e+3, 2.5434604e+2, -476805.66, -548964.7, -29596.605, 0.032460988, 0.011030294, -466219.44, -18809.684, 0.0, 10.000145, 9.999185 
1.24514975e+3, 2.643452e+2, -397191.78, -471062.94, -15180.595, 0.0398894, 0.011338719, -394193.84, -44775.016, 0.0, 10.000068, 9.999084 
1.24516286e+3, 2.743442e+2, -312319.8, -376725.8, -19138.281, 0.029559504, 0.0061078775, -307062.1, -55633.06, 0.0, 9.999966, 9.999107 
1.2451763e+3, 2.843435e+2, -246121.4, -289224.63, -11953.77, 0.03879834, 0.023745565, -243028.25, -89591.51, 0.0, 9.999726, 9.99915 
1.24519005e+3, 2.9434308e+2, -210081.28, -220809.89, -11735.463, 0.07164147, 0.062692806, -202542.22, -147100.61, 0.0, 9.999299, 9.999152 
1.2452035e+3, 3.0434164e+2, -226224.25, -262846.72, -8292.789, 0.06910701, 0.03350411, -224433.95, -224433.95, 0.0, 9.999109, 9.998622 
1.2452172e+3, 3.1434068e+2, -61177.473, 53558.242, -613.89844, 0.087156035, 0.068499826, 53561.527, 53561.527, 0.0, 9.999221, 10.000742 
1.2549624e+3, 1.2434814e+2, -1467297.0, -1742185.3, -42552.066, -0.0881298, 0.17937252, -1460860.8, 260540.88, 0.0029989923, 10.002347, 9.998678 
1.2549789e+3, 1.3434596e+2, -1355021.8, -1624749.0, 37887.56, 0.101055585, 0.08412413, -1349800.9, 273620.7, 0.001683169, 10.002374, 9.998807 
1.254991e+3, 1.4434502e+2, -1304222.3, -1589720.3, -7568.5566, -0.108804554, 0.12561838, -1304021.8, 221408.84, 0.0006488858, 10.002226, 9.998439 
1.2550053e+3, 1.5434389e+2, -1264865.5, -1521548.4, -27860.357, -0.019940594, 0.17125152, -1261876.4, 165566.69, 0.00012258759, 10.001831, 9.998424 
1.2550192e+3, 1.6434233e+2, -1156532.6, -1369547.3, -30160.002, 0.01096661, 0.15338531, -1152344.6, 177112.69, 0.0000030126384, 10.001688, 9.998864 
1.2550324e+3, 1.743402e+2, -1025210.0, -1248307.8, -13307.753, -0.0151363015, 0.04963429, -1024419.0, 207054.92, 0.0, 10.001886, 9.998928 
1.2550455e+3, 1.8433878e+2, -957064.94, -1182893.3, -21368.492, -0.027737325, 0.021879409, -955060.75, 178425.19, 0.0, 10.001759, 9.998766 
1.2550586e+3, 1.9433822e+2, -939205.3, -1121071.0, -36323.004, -0.028454429, 0.08715023, -932219.06, 103272.86, 0.0, 10.001198, 9.998788 
1.2550719e+3, 2.043372e+2, -852447.56, -982364.06, -39259.19, -0.022079173, 0.08883289, -841505.5, 95995.26, 0.0, 10.000921, 9.999201 
1.2550852e+3, 2.143356e+2, -736389.6, -868143.9, -20414.266, -0.005103941, 0.0027952192, -733299.06, 106213.88, 0.0, 10.001013, 9.999269 
1.2550981e+3, 2.2433443e+2, -678623.25, -822809.3, -27965.604, -0.0021211072, -0.026262004, -673389.2, 68133.91, 0.0, 10.00088, 9.998971 
1.2551107e+3, 2.343338e+2, -640197.56, -751631.4, -41646.465, -0.017677836, 0.013889372, -626352.94, 17177.31, 0.0, 10.0004635, 9.998987 
1.2551235e+3, 2.4433309e+2, -551452.2, -612443.5, -41672.43, -0.0100251, 0.02480463, -530308.94, 15228.444, 0.0, 10.000204, 9.999394 
1.2551367e+3, 2.5433218e+2, -457333.63, -509193.6, -31222.1, 0.02813133, -0.007860311, -442678.1, 4866.14, 0.0, 10.000147, 9.999458 
1.2551498e+3, 2.6433143e+2, -403569.72, -484748.2, -18437.879, 0.039750114, -0.0078112027, -399578.22, -50026.313, 0.0, 10.000069, 9.99899 
1.2551627e+3, 2.743308e+2, -320648.4, -393870.63, -22005.885, 0.016270801, 0.028695734, -314543.8, -62983.17, 0.0, 9.999964, 9.998991 
1.2551758e+3, 2.8432998e+2, -246694.69, -291022.34, -26229.361, 0.02335765, 0.042856313, -234518.83, -80948.77, 0.0, 9.999727, 9.999138 
1.2551893e+3, 2.9432896e+2, -208719.88, -220940.77, -26791.703, 0.069497585, 0.023326166, -187350.64, -131770.2, 0.0, 9.9993105, 9.999146 
1.2552024e+3, 3.0432793e+2, -213905.48, -239544.92, -4463.839, 0.061986215, 0.029405607, -213150.56, -213150.56, 0.0, 9.999118, 9.998778 
1.255216e+3, 3.1432775e+2, -46968.645, 85110.19, 6301.2974, 0.056604795, 0.12594858, 85410.13, 85410.13, 0.0, 9.999211, 10.000963 
1.2649645e+3, 1.2433412e+2, -1492094.5, -1741571.3, -53075.734, -0.09981974, 0.18181372, -1481272.1, 240267.23, 0.0032043438, 10.002122, 9.998791 
1.264981e+3, 1.3433196e+2, -1378662.9, -1629203.3, 20187.203, 0.10188919, 0.08169619, -1377046.8, 246512.03, 0.0018082228, 10.002181, 9.998868 
1.2649931e+3, 1.44331e+2, -1317796.4, -1598412.3, -24504.684, -0.115462, 0.120175295, -1315672.6, 209895.03, 0.0007044779, 10.002144, 9.998418 
1.2650073e+3, 1.543298e+2, -1244089.6, -1514929.4, -19722.537, -0.014549388, 0.16153303, -1242661.0, 184919.8, 0.00013709594, 10.001988, 9.998393 
1.265021e+3, 1.6432826e+2, -1131721.3, -1346626.3, -8416.188, 0.01920341, 0.1435954, -1131392.3, 198202.53, 0.0000037895563, 10.001813, 9.9989605 
1.2650341e+3, 1.7432632e+2, -1059542.9, -1252731.0, -15332.597, -0.013897999, 0.04570821, -1058333.5, 173275.88, 0.0, 10.0016, 9.999035 
1.2650472e+3, 1.8432494e+2, -1009888.2, -1213938.0, -38283.01, -0.028346868, 0.020713953, -1002942.1, 130678.81, 0.0, 10.001422, 9.998715 
1.26506e+3, 1.943243e+2, -929942.4, -1123406.1, -30463.236, -0.025792677, 0.08454023, -925258.94, 110369.35, 0.0, 10.001292, 9.998726 
1.2650728e+3, 2.0432329e+2, -812820.44, -947331.9, -21345.541, -0.020930596, 0.08438854, -809514.4, 128122.5, 0.0, 10.001126, 9.999342 
1.2650861e+3, 2.1432184e+2, -741448.56, -853040.44, -27794.955, -0.011211141, -0.0037019097, -734908.75, 104738.266, 0.0, 10.000904, 9.999424 
1.2650989e+3, 2.2432074e+2, -708027.8, -840008.2, -48321.926, -0.008311351, -0.03126587, -692227.3, 49428.914, 0.0, 10.000692, 9.998942 
1.2651113e+3, 2.3432015e+2, -638853.75, -755482.25, -40190.58, -0.014705274, 0.014901279, -626345.5, 17318.713, 0.0, 10.000493, 9.998946 
1.2651238e+3, 2.4431942e+2, -532623.56, -595299.3, -27242.986, -0.0067985575, 0.02534414, -522437.44, 23233.984, 0.0, 10.000299, 9.999466 
1.2651369e+3, 2.5431854e+2, -456033.75, -499403.5, -30879.826, 0.01955386, -0.016314011, -439985.4, 7692.301, 0.0, 10.000116, 9.999539 
1.2651497e+3, 2.6431784e+2, -425632.44, -497079.2, -24473.398, 0.027240613, -0.014332511, -418053.3, -68368.56, 0.0, 9.999925, 9.998975 
1.2651625e+3, 2.7431732e+2, -358040.2, -414176.78, -21981.748, 0.010613149, 0.03769914, -350457.03, -98764.055, 0.0, 9.999718, 9.99897 
1.2651753e+3, 2.8431654e+2, -257510.31, -289541.13, -20879.473, 0.018115927, 0.051955324, -247211.36, -93508.89, 0.0, 9.999625, 9.999197 
1.2651886e+3, 2.943154e+2, -151750.31, -186108.63, -16628.605, 0.05575424, 0.015960094, -145020.61, -89307.24, 0.0, 9.99967, 9.999212 
1.2652016e+3, 3.0431467e+2, -167612.31, -212913.27, 1253.0745, 0.03920559, 0.044853576, -167577.67, -167577.67, 0.0, 9.999418, 9.998816 
1.2652147e+3, 3.1431425e+2, -105046.53, 60896.72, 3439.0994, 0.030149402, 0.112692684, 60967.965, 60967.965, 0.0, 9.998796, 10.000996 
1.2749666e+3, 1.2431944e+2, -1485946.6, -1727661.5, -46116.47, -0.101867095, 0.14027974, -1477447.0, 244236.48, 0.0034160875, 10.002117, 9.998888 
1.2749833e+3, 1.34318e+2, -1375014.5, -1621784.9, 21845.133, 0.10394153, 0.10814817, -1373095.6, 250600.33, 0.0019378624, 10.002182, 9.9989195 
1.274995e+3, 1.4431724e+2, -1295455.8, -1553607.3, -30604.174, -0.12510513, 0.1488817, -1291877.3, 233824.94, 0.0007627392, 10.002149, 9.998724 
1.2750092e+3, 1.543155e+2, -1221300.0, -1468957.1, -26030.29, -0.015323716, 0.10455861, -1218593.6, 209125.19, 0.0001526722, 10.001992, 9.998708 
1.2750228e+3, 1.6431397e+2, -1144351.4, -1373614.8, -16829.8, 0.022669531, 0.07907433, -1143122.6, 186610.05, 0.000004722807, 10.001816, 9.998775 
1.2750356e+3, 1.7431274e+2, -1074627.6, -1284470.3, -23917.121, -0.010261515, 0.07439655, -1071936.3, 159806.31, 0.0, 10.001601, 9.998817 
1.2750486e+3, 1.8431152e+2, -994257.3, -1181914.8, -44166.582, -0.019540852, 0.06789058, -984382.0, 149370.92, 0.0, 10.001422, 9.998935 
1.2750614e+3, 1.9431037e+2, -911736.3, -1086357.5, -35796.523, -0.005943823, 0.053323165, -904683.06, 131080.9, 0.0, 10.001294, 9.99898 
1.275074e+3, 2.0430924e+2, -823784.5, -970653.9, -30068.352, -0.010329989, 0.035320822, -817867.06, 119906.484, 0.0, 10.001127, 9.999182 
1.2750867e+3, 2.143082e+2, -754570.4, -880517.8, -36691.344, -0.035270147, 0.007973383, -744661.0, 95119.89, 0.0, 10.000904, 9.999235 
1.2750992e+3, 2.2430731e+2, -691987.75, -806721.9, -56344.633, -0.033013802, 0.00076530274, -668945.25, 72843.305, 0.0, 10.000691, 9.999172 
1.2751119e+3, 2.3430666e+2, -620517.9, -717649.6, -47809.258, 0.0037405945, 0.014593197, -600934.1, 42862.24, 0.0, 10.000493, 9.999207 
1.2751244e+3, 2.4430591e+2, -538656.9, -608315.44, -34110.883, 0.019354884, 0.01278636, -524735.44, 21068.229, 0.0, 10.0003, 9.999377 
1.2751368e+3, 2.5430506e+2, -463474.38, -515297.56, -37163.125, 0.0062750233, -0.015211468, -444081.34, 3728.742, 0.0, 10.000117, 9.999431 
1.2751494e+3, 2.6430434e+2, -421541.22, -489490.06, -31412.605, 0.0023339214, -0.009064578, -409244.56, -59427.2, 0.0, 9.999927, 9.999026 
1.2751621e+3, 2.743038e+2, -352648.9, -404686.56, -28594.46, 0.011844979, 0.034401726, -340007.4, -88181.46, 0.0, 9.999723, 9.999033 
1.275175e+3, 2.8430313e+2, -248187.23, -271347.78, -18734.9, 0.021921754, 0.051769752, -237742.53, -83908.46, 0.0, 9.999629, 9.999321 
1.2751882e+3, 2.9430237e+2, -143543.45, -167708.33, -14135.307, 0.030118512, 0.03781541, -137030.4, -81189.5, 0.0, 9.999663, 9.999343 
1.2752005e+3, 3.043018e+2, -173512.69, -224228.31, -19767.39, 0.00082687475, 0.07848172, -166718.22, -166718.22, 0.0, 9.999413, 9.998741 
1.2752134e+3, 3.1430024e+2, -114209.2, 38734.867, -16263.108, 0.0062034535, 0.04222842, 40445.063, 40445.063, 0.0, 9.998809, 10.000838 
1.284969e+3, 1.2430548e+2, -1399521.4, -1686214.8, -18109.768, -0.105345815, 0.13673355, -1398382.0, 323438.47, 0.0036351434, 10.002716, 9.998884 
1.2849855e+3, 1.3430397e+2, -1369930.6, -1625454.4, 35129.1, 0.111519545, 0.104481675, -1365189.1, 258644.36, 0.002072395, 10.002244, 9.998864 
1.2849972e+3, 1.4430325e+2, -1306398.9, -1544015.5, -22196.03, -0.12866947, 0.1459076, -1304343.3, 221495.77, 0.00082385907, 10.00201, 9.998856 
1.2850112e+3, 1.5430157e+2, -1198996.5, -1442167.1, -31215.098, -0.019254256, 0.092643134, -1195053.4, 232801.02, 0.00016942424, 10.002078, 9.998849 
1.2850247e+3, 1.6430011e+2, -1133775.6, -1372703.6, -34231.586, 0.018813895, 0.06805637, -1128968.0, 200899.67, 0.00000585612, 10.001906, 9.998736 
1.2850372e+3, 1.7429899e+2, -1103401.0, -1304051.9, -29881.803, -0.013184531, 0.0787148, -1099045.4, 132832.17, 0.0, 10.001429, 9.998765 
1.2850499e+3, 1.8429784e+2, -1021299.6, -1175715.1, -35416.438, -0.019096056, 0.07594489, -1013564.06, 120323.17, 0.0, 10.001155, 9.999105 
1.2850627e+3, 1.9429676e+2, -920722.7, -1069520.3, -31729.094, 0.0010024152, 0.050098248, -914239.4, 121657.195, 0.0, 10.0011425, 9.999167 
1.2850752e+3, 2.0429565e+2, -846952.3, -989313.1, -32709.723, -0.0043169376, 0.02639175, -839796.44, 98109.445, 0.0, 10.001002, 9.999114 
1.2850875e+3, 2.1429454e+2, -792097.44, -908053.56, -32547.967, -0.040218093, -0.000044050827, -783586.25, 56328.66, 0.0, 10.000689, 9.99915 
1.2850997e+3, 2.2429375e+2, -710542.25, -795304.75, -45388.816, -0.04118088, -0.0014437756, -690824.25, 51097.69, 0.0, 10.000478, 9.999353 
1.2851124e+3, 2.3429342e+2, -619346.2, -694582.56, -41531.8, 0.0022136655, 0.024580536, -600928.5, 42997.7, 0.0, 10.000404, 9.999407 
1.2851246e+3, 2.4429278e+2, -546623.06, -614528.1, -30930.275, 0.019962942, 0.025469469, -534646.75, 11285.496, 0.0, 10.000256, 9.999355 
1.2851368e+3, 2.542918e+2, -481935.56, -528286.94, -29463.836, 0.0033617318, -0.011487307, -467624.88, -19684.508, 0.0, 10.000009, 9.999393 
1.2851492e+3, 2.6429108e+2, -428722.5, -485333.94, -17600.154, -0.0033317907, -0.0081190085, -423696.84, -73748.99, 0.0, 9.9998455, 9.999094 
1.2851618e+3, 2.7429065e+2, -337424.47, -388836.78, -14091.128, 0.004319598, 0.038760446, -333815.7, -81860.76, 0.0, 9.999791, 9.999109 
1.2851745e+3, 2.8429e+2, -248352.22, -273280.7, -8519.375, 0.013312014, 0.051323723, -245718.86, -91755.93, 0.0, 9.999636, 9.999304 
1.2851875e+3, 2.9428905e+2, -191415.19, -193025.48, -15623.617, 0.021345858, 0.02648302, -176575.98, -120605.01, 0.0, 9.999345, 9.999322 
1.2851997e+3, 3.042887e+2, -208405.33, -240718.88, -30106.006, -0.011657655, 0.08754934, -190394.67, -190394.67, 0.0, 9.999173, 9.998743 
1.2852122e+3, 3.1428674e+2, -70164.21, 46837.133, -18148.87, -0.010654109, 0.014865941, 49587.664, 49587.664, 0.0, 9.999169, 10.00072 
1.2949717e+3, 1.2429232e+2, -1406786.9, -1702788.8, -29615.424, -0.11001772, 0.17229757, -1403852.9, 318096.3, 0.0038618036, 10.002721, 9.998768 
1.294988e+3, 1.3428997e+2, -1381213.6, -1649472.3, 16722.387, 0.12392198, 0.07145359, -1380175.3, 243795.16, 0.0022117733, 10.002245, 9.998699 
1.2949991e+3, 1.4428912e+2, -1309886.1, -1551640.5, -21435.283, -0.12729765, 0.111449115, -1308000.3, 217977.16, 0.000887706, 10.002011, 9.998804 
1.2950133e+3, 1.5428807e+2, -1201276.3, -1447515.8, -28995.52, -0.026535349, 0.12488481, -1197908.0, 230079.25, 0.0001872894, 10.00208, 9.998812 
1.2950264e+3, 1.6428673e+2, -1126015.4, -1357643.0, -51594.54, 0.0071697123, 0.11052354, -1115042.6, 214956.77, 0.0000072252774, 10.00191, 9.998839 
1.2950385e+3, 1.742851e+2, -1094811.1, -1287597.5, -48347.86, -0.023036184, 0.05937665, -1083365.6, 148648.31, 0.0, 10.001433, 9.998877 
1.2950508e+3, 1.8428397e+2, -1012814.94, -1159176.9, -37639.254, -0.027487494, 0.045267414, -1003702.75, 130320.63, 0.0, 10.001159, 9.999218 
1.2950638e+3, 1.9428355e+2, -912566.9, -1052942.5, -32669.176, -0.0053280494, 0.07371797, -905336.3, 130689.43, 0.0, 10.001143, 9.999282 
1.2950763e+3, 2.0428257e+2, -845692.9, -986653.6, -44419.89, -0.0037055444, 0.05649781, -832862.94, 105170.71, 0.0, 10.001, 9.999133 
1.2950882e+3, 2.1428089e+2, -791010.7, -906142.7, -44789.844, -0.026904525, -0.026456593, -775638.56, 64409.99, 0.0, 10.000689, 9.999164 
1.2951003e+3, 2.2428007e+2, -701507.06, -777049.56, -49060.957, -0.033435088, -0.036448184, -677361.9, 64694.125, 0.0, 10.000479, 9.999478 
1.2951124e+3, 2.3428042e+2, -609527.0, -674511.6, -44226.582, -0.019089714, 0.043938447, -587140.0, 56913.605, 0.0, 10.000405, 9.999545 
1.2951246e+3, 2.4428006e+2, -543688.94, -608975.2, -39711.395, -0.004663645, 0.062042493, -524926.2, 21131.037, 0.0, 10.000257, 9.999394 
1.2951368e+3, 2.5427884e+2, -479331.88, -523808.75, -38354.973, 0.01005118, -0.004865232, -457234.63, -9166.195, 0.0, 10.000011, 9.999424 
1.2951492e+3, 2.6427805e+2, -422796.06, -474164.5, -19489.45, 0.009111771, -0.011280242, -416238.72, -66162.46, 0.0, 9.999849, 9.999169 
1.2951615e+3, 2.7427784e+2, -331658.4, -376768.94, -15221.232, -0.012306365, 0.050040845, -327002.9, -74922.78, 0.0, 9.999789, 9.999193 
1.295174e+3, 2.8427702e+2, -258955.9, -295671.22, -17845.617, -0.0080585815, 0.051035866, -251711.42, -97622.24, 0.0, 9.999636, 9.999151 
1.2951869e+3, 2.9427555e+2, -201520.11, -216810.38, -25407.54, 0.0278033, -0.01456207, -182632.4, -126529.09, 0.0, 9.999355, 9.999154 
1.295199e+3, 3.042754e+2, -202199.34, -229735.86, -30013.943, -0.0002105195, 0.073872656, -182946.38, -182946.38, 0.0, 9.999181, 9.998815 
1.2952112e+3, 3.1427383e+2, -78500.086, 32254.33, -14594.736, -0.022250513, 0.03318036, 34145.277, 34145.277, 0.0, 9.999157, 10.000627 
1.3049746e+3, 1.2427913e+2, -1386834.9, -1703863.4, -12088.595, -0.11028059, 0.17911036, -1386374.6, 335703.3, 0.004094851, 10.002908, 9.99867 
1.3049905e+3, 1.3427655e+2, -1325083.4, -1637996.5, 27425.375, 0.12860017, 0.070187606, -1322697.8, 301403.84, 0.0023553874, 10.0027, 9.998558 
1.3050014e+3, 1.4427564e+2, -1260034.3, -1529345.1, -3351.2249, -0.13281696, 0.11174121, -1259992.5, 266116.9, 0.00095388794, 10.002362, 9.998787 
1.3050152e+3, 1.5427457e+2, -1234515.4, -1464095.3, -8685.721, -0.026253032, 0.124597386, -1234187.3, 193931.92, 0.0002061118, 10.001855, 9.998806 
1.3050282e+3, 1.6427328e+2, -1171058.1, -1369630.8, -31729.16, 0.011017876, 0.10974753, -1166111.5, 164019.44, 0.000008878666, 10.00156, 9.998924 
1.30504e+3, 1.7427173e+2, -1071545.1, -1265515.1, -30145.564, -0.017853552, 0.05849172, -1066968.1, 165176.44, 0.0, 10.001548, 9.998972 
1.3050522e+3, 1.8427064e+2, -982810.9, -1147982.6, -23441.709, -0.02580442, 0.042523604, -979548.4, 154605.36, 0.0, 10.00138, 9.999187 
1.3050649e+3, 1.942701e+2, -936144.75, -1068436.0, -29975.29, -0.014417713, 0.066611975, -929669.7, 106487.31, 0.0, 10.001, 9.999244 
1.3050771e+3, 2.0426919e+2, -878092.0, -985807.75, -44998.418, -0.010917051, 0.049361274, -861767.75, 76396.734, 0.0, 10.000709, 9.999279 
1.305089e+3, 2.1426773e+2, -802633.25, -893691.3, -35292.805, -0.015592428, -0.027370414, -790556.06, 49621.098, 0.0, 10.000532, 9.999324 
1.3051008e+3, 2.2426705e+2, -710848.44, -772863.4, -30600.248, -0.018838381, -0.037700202, -698291.75, 43891.613, 0.0, 10.000378, 9.999556 
1.3051128e+3, 2.3426737e+2, -627158.1, -674825.8, -30528.857, -0.021190755, 0.032957237, -612261.3, 31919.576, 0.0, 10.00025, 9.999618 
1.3051248e+3, 2.4426705e+2, -563436.5, -619493.0, -33341.71, -0.01489319, 0.052374367, -547907.3, -1723.0498, 0.0, 10.000127, 9.999384 
1.3051368e+3, 2.5426593e+2, -480765.1, -526686.6, -36277.438, 0.002859883, 0.0015730971, -460792.78, -12597.829, 0.0, 10.000011, 9.999404 
1.3051489e+3, 2.6426527e+2, -418150.75, -465051.88, -18509.826, 0.007783535, 0.0023258089, -411725.88, -61523.69, 0.0, 9.999852, 9.99923 
1.3051613e+3, 2.7426508e+2, -348775.94, -377366.34, -15862.837, -0.0039142035, 0.058163214, -341717.4, -89512.1, 0.0, 9.99964, 9.999261 
1.3051736e+3, 2.8426415e+2, -277274.75, -310681.7, -15236.383, -0.005173257, 0.049528647, -271369.53, -117154.54, 0.0, 9.999537, 9.999095 
1.3051862e+3, 2.9426247e+2, -174535.67, -210560.3, -15824.853, 0.0048991367, -0.028382268, -168571.55, -112340.33, 0.0, 9.999571, 9.999094 
1.305198e+3, 3.0426258e+2, -167004.42, -201253.55, -20176.754, -0.01986626, 0.08143283, -157664.81, -157664.81, 0.0, 9.999373, 9.998917 
1.3052104e+3, 3.1426114e+2, -124239.04, -3130.2625, -1189.6708, -0.000083706494, 0.041219365, -3118.5774, -3118.5774, 0.0, 9.998899, 10.000508 
1.3149774e+3, 1.24266e+2, -1393688.6, -1717834.9, -13630.227, -0.104512796, 0.15856026, -1393116.5, 329088.94, 0.0043321527, 10.002907, 9.998574 
1.3149932e+3, 1.342638e+2, -1333472.5, -1656615.6, 18950.219, 0.12537043, 0.10002808, -1332365.0, 291861.7, 0.0025021203, 10.002705, 9.998429 
1.3150035e+3, 1.4426288e+2, -1257978.4, -1526361.8, -22346.66, -0.14611113, 0.146336, -1256130.5, 270104.2, 0.0010219518, 10.002367, 9.998806 
1.315017e+3, 1.5426116e+2, -1232713.1, -1461002.8, -28293.193, -0.019176887, 0.09228306, -1229258.9, 198990.83, 0.000225761, 10.001857, 9.998827 
1.3150299e+3, 1.6425978e+2, -1166310.0, -1360502.6, -34193.0, 0.029277222, 0.06601767, -1160465.4, 169796.33, 0.000010883995, 10.001562, 9.998986 
1.3150418e+3, 1.7425892e+2, -1066242.4, -1255184.6, -31018.494, 0.001736834, 0.07569956, -1061280.4, 170988.48, 0.0, 10.00155, 9.9990425 
1.3150537e+3, 1.8425786e+2, -994486.7, -1172623.8, -37449.934, -0.014820962, 0.067689136, -986933.75, 147344.34, 0.0, 10.00138, 9.999019 
1.3150656e+3, 1.9425653e+2, -948879.44, -1095646.5, -44698.605, -0.026415747, 0.029665517, -936337.94, 99951.96, 0.0, 10.001002, 9.999057 
1.3150777e+3, 2.0425554e+2, -859424.1, -947926.2, -52680.465, -0.026270697, 0.0055063926, -834875.56, 103422.445, 0.0, 10.000711, 9.999538 
1.3150896e+3, 2.1425506e+2, -781569.6, -850556.44, -42371.36, -0.0070817885, -0.004028525, -761426.7, 78873.98, 0.0, 10.000534, 9.9996195 
1.3151014e+3, 2.2425464e+2, -708477.6, -768642.2, -36178.87, 0.0015207024, -0.006279306, -691508.3, 50795.63, 0.0, 10.00038, 9.999584 
1.3151132e+3, 2.3425426e+2, -626349.06, -673641.06, -35625.984, -0.004882557, -0.0064525316, -607235.94, 37071.875, 0.0, 10.000251, 9.999625 
1.315125e+3, 2.4425377e+2, -567669.75, -628833.25, -37714.227, -0.011374374, -0.0015613942, -549696.3, -3383.1733, 0.0, 10.000128, 9.99932 
1.3151366e+3, 2.5425318e+2, -485299.03, -536374.25, -40090.637, -0.018424967, 0.0075820424, -463303.2, -14983.322, 0.0, 10.000011, 9.999338 
1.3151486e+3, 2.6425272e+2, -415323.7, -459627.63, -25588.873, -0.007758975, 0.03202421, -403630.4, -53304.875, 0.0, 9.999852, 9.999269 
1.3151613e+3, 2.7425236e+2, -344802.63, -370630.28, -22873.092, 0.027504725, 0.0636776, -331449.66, -79119.26, 0.0, 9.999645, 9.999306 
1.3151735e+3, 2.8425136e+2, -274619.97, -306446.16, -13843.076, 0.020420274, 0.046921782, -269441.44, -115101.01, 0.0, 9.999541, 9.999124 
1.3151851e+3, 2.942499e+2, -173526.06, -206491.64, -13667.925, -0.04615271, -0.01726859, -168596.38, -112241.29, 0.0, 9.999561, 9.999127 
1.315197e+3, 3.042502e+2, -159070.63, -182517.58, -35643.78, -0.069964, 0.10762178, -133271.86, -133271.86, 0.0, 9.999363, 9.999051 
1.3152099e+3, 3.142487e+2, -132353.81, -21990.297, -14499.895, 0.050657783, 0.048116818, -20117.053, -20117.053, 0.0, 9.998907, 10.000375 
1.3249804e+3, 1.24252774e+2, -1358882.8, -1707452.6, -13172.705, -0.096568495, 0.12628022, -1358385.8, 363947.78, 0.0045723, 10.003177, 9.998516 
1.3249959e+3, 1.342508e+2, -1336099.8, -1666428.3, 15402.294, 0.13187142, 0.10011824, -1335383.1, 288970.13, 0.0026508812, 10.002725, 9.998351 
1.3250059e+3, 1.4425002e+2, -1256280.1, -1517955.0, -24387.262, -0.14933133, 0.15884508, -1254026.6, 272333.78, 0.0010914269, 10.002348, 9.998872 
1.3250192e+3, 1.5424806e+2, -1195086.0, -1434505.6, -26998.691, -0.016360048, 0.07477718, -1192079.3, 236297.69, 0.00024614425, 10.00208, 9.9989 
1.3250317e+3, 1.6424663e+2, -1137640.6, -1350375.5, -26689.424, 0.034324322, 0.040045887, -1134343.4, 196045.95, 0.000013287297, 10.001776, 9.998953 
1.3250433e+3, 1.7424595e+2, -1088189.1, -1270177.8, -31876.076, 0.005078219, 0.07208313, -1082767.4, 149627.77, 0.0, 10.001418, 9.999002 
1.3250549e+3, 1.8424493e+2, -1031513.2, -1187709.8, -40323.84, -0.012552646, 0.07008468, -1021717.5, 112686.64, 0.0, 10.001115, 9.9990425 
1.3250667e+3, 1.9424348e+2, -964189.75, -1099314.0, -31953.682, -0.025115767, 0.015318062, -957014.44, 79402.76, 0.0, 10.000882, 9.999089 
1.3250783e+3, 2.0424251e+2, -857993.56, -942161.44, -33257.1, -0.02489255, -0.010847422, -846439.0, 91986.164, 0.0, 10.0007, 9.999583 
1.3250901e+3, 2.1424226e+2, -771921.4, -840593.9, -41150.23, -0.0040478297, -0.0025937322, -752663.6, 87762.17, 0.0, 10.000578, 9.999666 
1.3251019e+3, 2.242419e+2, -703448.2, -764558.75, -46638.266, 0.0045386804, -0.0005015421, -678247.3, 64181.07, 0.0, 10.000408, 9.999598 
1.3251135e+3, 2.342414e+2, -636176.9, -677180.0, -46699.207, -0.0044054934, -0.013783232, -605677.1, 38756.29, 0.0, 10.000179, 9.999636 
1.325125e+3, 2.4424088e+2, -585151.8, -633533.8, -43737.555, -0.010909336, -0.014407362, -559361.0, -12921.911, 0.0, 9.999992, 9.999352 
1.3251366e+3, 2.542404e+2, -503819.06, -540754.3, -39140.582, -0.014689365, -0.0009607407, -479008.06, -30563.076, 0.0, 9.9998665, 9.999377 
1.3251485e+3, 2.6424e+2, -432217.3, -470381.63, -24369.963, -0.009583669, 0.029545194, -420347.5, -69897.375, 0.0, 9.99975, 9.999243 
1.3251607e+3, 2.7423966e+2, -347917.75, -375528.47, -27638.6, 0.008307154, 0.06975099, -330828.47, -78373.586, 0.0, 9.99964, 9.999274 
1.3251728e+3, 2.8423873e+2, -281861.75, -301025.34, -19042.373, 0.0048564635, 0.05456307, -270126.34, -115661.586, 0.0, 9.999455, 9.999201 
1.3251847e+3, 2.9423726e+2, -223261.06, -219623.27, -15328.179, -0.029748347, -0.01700532, -206006.44, -149527.3, 0.0, 9.999174, 9.999223 
1.3251965e+3, 3.0423772e+2, -189337.69, -169834.61, -33398.41, -0.050376814, 0.10861068, -144793.25, -144793.25, 0.0, 9.99904, 9.999293 
1.3252085e+3, 3.1423655e+2, -106658.21, -13430.08, -2233.8745, 0.029689431, 0.053116783, -13376.584, -13376.584, 0.0, 9.999102, 10.0003395 
1.3349837e+3, 1.2423953e+2, -1360310.0, -1711069.8, -23717.395, -0.086684935, 0.08108859, -1358713.5, 363747.88, 0.0048153205, 10.00318, 9.99849 
1.3349988e+3, 1.342377e+2, -1338250.0, -1670962.5, -2301.202, 0.14814809, 0.07148215, -1338234.0, 286246.78, 0.0028011485, 10.002725, 9.998321 
1.3350083e+3, 1.4423712e+2, -1248685.5, -1502419.5, -35680.777, -0.14319828, 0.14986046, -1243763.4, 282722.72, 0.001161807, 10.002348, 9.99898 
1.3350213e+3, 1.5423535e+2, -1185904.0, -1416400.0, -37516.867, -0.018550245, 0.07141839, -1179951.3, 248549.19, 0.00026710884, 10.002084, 9.999024 
1.3350333e+3, 1.6423388e+2, -1146707.3, -1370089.0, -40537.707, 0.025701687, 0.03166312, -1139578.4, 190934.92, 0.000016044773, 10.001779, 9.998817 
1.3350445e+3, 1.7423289e+2, -1098804.5, -1293139.5, -45761.973, -0.007951502, 0.048074454, -1088567.8, 143955.02, 0.00000000003443261, 10.001422, 9.998844 
1.335056e+3, 1.842319e+2, -1016137.0, -1156855.6, -50137.137, -0.019723272, 0.049641963, -1000100.94, 134430.47, 0.0, 10.001119, 9.999253 
1.3350676e+3, 1.9423097e+2, -946718.4, -1064075.9, -41225.53, -0.011378163, 0.022815127, -933684.25, 102854.516, 0.0, 10.000886, 9.99933 
1.335079e+3, 2.0423009e+2, -869177.9, -966075.4, -38837.348, -0.007620557, -0.000082007944, -855532.94, 83012.84, 0.0, 10.000702, 9.999419 
1.3350907e+3, 2.1422935e+2, -785597.25, -869453.3, -46179.535, -0.006558167, -0.021890394, -765151.4, 75400.61, 0.0, 10.000579, 9.999469 
1.3351022e+3, 2.2422887e+2, -703769.3, -765795.1, -55296.707, -0.009592875, -0.019593643, -671382.5, 71173.76, 0.0, 10.00041, 9.999589 
1.3351133e+3, 2.3422879e+2, -635382.1, -676126.3, -55223.074, -0.01978442, 0.009145288, -596893.3, 47664.324, 0.0, 10.00018, 9.999643 
1.3351248e+3, 2.4422836e+2, -576435.5, -616370.25, -48552.105, -0.014290559, 0.01203542, -543905.25, 2656.8743, 0.0, 9.999995, 9.99947 
1.3351367e+3, 2.5422752e+2, -494406.28, -522542.7, -43407.293, 0.01230292, -0.022661215, -462844.38, -14274.177, 0.0, 9.999871, 9.9995 
1.3351484e+3, 2.6422703e+2, -437569.7, -482853.3, -27900.322, 0.0015143177, -0.0031468158, -424279.9, -73704.016, 0.0, 9.999755, 9.999156 
1.3351597e+3, 2.74227e+2, -355451.2, -390645.34, -30539.275, -0.05901576, 0.07537031, -337801.94, -85223.04, 0.0, 9.999637, 9.999173 
1.3351716e+3, 2.8422618e+2, -274735.53, -285075.97, -27947.467, -0.050746605, 0.07135637, -251484.06, -96895.875, 0.0, 9.99945, 9.999314 
1.3351846e+3, 2.942246e+2, -213221.42, -199454.72, -24802.867, 0.047876187, -0.024630746, -180597.78, -123994.41, 0.0, 9.999176, 9.99936 
1.3351963e+3, 3.0422515e+2, -165176.81, -120853.13, -31067.455, 0.033203267, 0.087027915, -104853.03, -104853.03, 0.0, 9.999043, 9.999629 
1.335207e+3, 3.1422457e+2, -104070.48, -6682.8735, 3359.5327, -0.058215026, 0.059826557, -6567.1187, -6567.1187, 0.0, 9.999095, 10.000389 
1.344987e+3, 1.2422684e+2, -1320184.8, -1685625.0, -11868.438, -0.08903029, 0.06268511, -1319799.6, 402785.13, 0.0050627007, 10.003432, 9.998543 
1.3450015e+3, 1.3422509e+2, -1333848.4, -1662729.1, 7523.985, 0.15192106, 0.054868646, -1333676.4, 290926.97, 0.002953265, 10.002729, 9.998375 
1.3450105e+3, 1.4422463e+2, -1270405.9, -1518952.0, -15644.906, -0.14577286, 0.14465162, -1269425.0, 257182.77, 0.0012327734, 10.002226, 9.998925 
1.3450232e+3, 1.5422288e+2, -1202275.4, -1431093.4, -30959.639, -0.023281256, 0.07343167, -1198160.4, 230462.11, 0.00028840025, 10.002002, 9.998962 
1.345035e+3, 1.6422133e+2, -1147612.1, -1366682.6, -38133.918, 0.019959697, 0.030159043, -1141163.9, 189472.02, 0.00001901083, 10.001757, 9.998851 
1.3450459e+3, 1.742202e+2, -1086687.8, -1282403.1, -28805.152, -0.013332266, 0.02876126, -1082536.4, 150109.97, 0.0000000014653116, 10.001485, 9.998887 
1.3450572e+3, 1.8421926e+2, -997408.56, -1147555.4, -28717.951, -0.020096652, 0.030028692, -992103.25, 142551.22, 0.0, 10.001246, 9.999255 
1.3450687e+3, 1.9421855e+2, -923302.75, -1052709.6, -38065.324, -0.00053276424, 0.027131544, -912936.2, 123723.53, 0.0, 10.001047, 9.99933 
1.3450801e+3, 2.0421769e+2, -860745.25, -970172.9, -42295.723, 0.0062382803, 0.00861605, -846303.2, 92363.68, 0.0, 10.000796, 9.999345 
1.3450913e+3, 2.1421663e+2, -806066.6, -887864.25, -41381.414, -0.0011750364, -0.03621235, -788783.56, 51892.805, 0.0, 10.000476, 9.999392 
1.3451025e+3, 2.2421609e+2, -725614.7, -775313.4, -43166.086, -0.008364397, -0.03526466, -700656.4, 42024.938, 0.0, 10.000257, 9.999598 
1.3451137e+3, 2.3421633e+2, -635517.2, -673756.7, -42846.98, -0.017019717, 0.022112584, -607717.56, 36962.227, 0.0, 10.000172, 9.999662 
1.3451248e+3, 2.4421595e+2, -562837.44, -608587.3, -37765.652, -0.015891328, 0.028872501, -541559.2, 5124.4756, 0.0, 10.000087, 9.999477 
1.3451365e+3, 2.5421482e+2, -474719.06, -512236.28, -41770.805, -0.0014987901, -0.03591222, -447688.1, 1006.1112, 0.0, 10.000005, 9.999505 
1.345148e+3, 2.6421425e+2, -427185.4, -471916.53, -31289.691, -0.0140134385, -0.028302662, -411089.78, -60389.29, 0.0, 9.999803, 9.999207 
1.3451591e+3, 2.742144e+2, -379842.56, -395657.5, -23799.203, -0.06213146, 0.064020425, -362671.56, -109970.14, 0.0, 9.999443, 9.99923 
1.3451709e+3, 2.842137e+2, -317606.72, -309458.3, -19231.441, -0.051473424, 0.07017884, -293874.25, -139164.61, 0.0, 9.999174, 9.999278 
1.3451836e+3, 2.9421207e+2, -238260.58, -215252.52, -28851.434, 0.036090113, -0.023523785, -195696.16, -138970.78, 0.0, 9.999023, 9.999324 
1.3451952e+3, 3.042125e+2, -169364.28, -109052.44, -40368.992, 0.028516833, 0.06799695, -88819.52, -88819.52, 0.0, 9.998958, 9.999751 
1.345206e+3, 3.1421214e+2, -127723.23, -32988.785, -18680.86, -0.04095175, 0.053293504, -29438.15, -29438.15, 0.0, 9.999, 10.000254 
1.3549903e+3, 1.242148e+2, -1312084.8, -1668413.0, -31850.23, -0.102678746, 0.0709385, -1309260.3, 413442.7, 0.00531726, 10.00343, 9.998663 
1.3550042e+3, 1.3421303e+2, -1324083.6, -1643108.8, -19942.05, 0.1420832, 0.049527884, -1322842.0, 301878.44, 0.003108456, 10.002732, 9.998508 
1.3550125e+3, 1.4421257e+2, -1285378.0, -1551006.5, -26050.053, -0.1584395, 0.14256674, -1282847.4, 243877.33, 0.0013043365, 10.002229, 9.998704 
1.3550252e+3, 1.5421066e+2, -1219701.0, -1467905.5, -39693.4, -0.030798912, 0.08145056, -1213507.8, 215234.78, 0.00030973944, 10.002004, 9.998709 
1.3550368e+3, 1.6420907e+2, -1133383.6, -1337721.9, -49069.95, 0.016446136, 0.03554786, -1122210.9, 208545.98, 0.000021994929, 10.001759, 9.999049 
1.3550475e+3, 1.7420796e+2, -1069394.5, -1247573.6, -39569.92, -0.01173931, 0.013466511, -1061002.1, 171763.2, 0.0000000068048798, 10.001488, 9.9991255 
1.3550584e+3, 1.8420702e+2, -1011192.5, -1177131.8, -37141.945, -0.014304291, 0.011341582, -1003258.44, 131514.69, 0.0, 10.001249, 9.999051 
1.3550699e+3, 1.9420627e+2, -939456.1, -1087338.1, -45994.3, 0.006942257, 0.028612811, -926318.1, 110461.49, 0.0, 10.00105, 9.999091 
1.3550809e+3, 2.0420532e+2, -859535.8, -968880.1, -54529.18, 0.015864154, 0.014897921, -836990.9, 101797.2, 0.0, 10.0008, 9.999352 
1.355092e+3, 2.1420415e+2, -803242.94, -883058.44, -53873.258, 0.011348141, -0.045808922, -776106.25, 64692.47, 0.0, 10.00048, 9.999424 
1.355103e+3, 2.2420362e+2, -723557.56, -771978.25, -47387.75, 0.007195785, -0.047498632, -694553.8, 48249.65, 0.0, 10.000259, 9.9996195 
1.355114e+3, 2.3420404e+2, -633843.4, -670892.44, -46038.707, 0.0027115524, 0.025909193, -602742.1, 42057.69, 0.0, 10.000173, 9.999681 
1.355125e+3, 2.4420366e+2, -569607.2, -623019.25, -40624.453, -0.01614106, 0.036859494, -547696.8, -893.18207, 0.0, 10.000088, 9.999378 
1.355136e+3, 2.5420228e+2, -482464.9, -527880.75, -44226.063, -0.054422535, -0.04153682, -455457.7, -6640.6675, 0.0, 10.000002, 9.9994 
1.3551474e+3, 2.642016e+2, -416065.53, -448362.28, -43413.516, -0.055775654, -0.046799194, -385894.3, -35070.234, 0.0, 9.9998, 9.999371 
1.355159e+3, 2.7420184e+2, -366513.97, -368517.56, -36485.79, -0.0069199153, 0.037927523, -331016.22, -78193.64, 0.0, 9.999444, 9.999416 
1.3551706e+3, 2.8420126e+2, -329268.78, -335131.97, -24597.76, -0.0022672927, 0.053594045, -307428.53, -152599.19, 0.0, 9.999179, 9.9991 
1.3551816e+3, 2.9419968e+2, -252021.9, -244988.48, -33193.734, -0.058812596, -0.01563553, -215125.69, -158279.92, 0.0, 9.999028, 9.999119 
1.3551933e+3, 3.041997e+2, -174807.81, -121132.66, -38066.582, -0.058818005, 0.048962284, -101394.27, -101394.27, 0.0, 9.99896, 9.999668 
1.3552062e+3, 3.1419927e+2, -148879.95, -75757.26, -12950.1875, 0.069257386, 0.03674498, -73531.5, -73531.5, 0.0, 9.998994, 9.999965 
1.3649936e+3, 1.2420318e+2, -1348833.3, -1687184.5, -2865.7317, -0.100036055, 0.07374034, -1348808.9, 374007.16, 0.005582378, 10.003183, 9.998652 
1.3650069e+3, 1.342013e+2, -1294402.3, -1628191.9, -7655.7847, 0.13110176, 0.040607687, -1294226.8, 330607.75, 0.0032685762, 10.002935, 9.998512 
1.3650148e+3, 1.442008e+2, -1243032.9, -1542356.0, -10984.545, -0.17575121, 0.13475442, -1242630.3, 284208.9, 0.0013768864, 10.002573, 9.998597 
1.3650271e+3, 1.5419883e+2, -1215509.6, -1479016.3, -14272.964, -0.032847736, 0.07695447, -1214738.8, 214119.5, 0.00033094976, 10.0020895, 9.998591 
1.3650386e+3, 1.6419719e+2, -1135565.3, -1339870.6, -20421.883, 0.023497144, 0.035223674, -1133543.9, 197329.14, 0.000024852021, 10.001748, 9.99904 
1.365049e+3, 1.7419615e+2, -1054589.0, -1240133.5, -28386.053, -0.00287938, 0.019322308, -1050343.4, 182537.3, 0.000000016360648, 10.001589, 9.999127 
1.3650598e+3, 1.8419515e+2, -995163.6, -1178017.6, -31133.041, -0.0088137025, 0.013912608, -990008.2, 144880.72, 0.0, 10.001397, 9.998974 
1.3650708e+3, 1.9419415e+2, -928371.8, -1091388.8, -28741.686, 0.0008880067, 0.013704988, -923452.8, 113445.13, 0.0, 10.001167, 9.999006 
1.3650817e+3, 2.0419312e+2, -845694.06, -970789.3, -36449.5, 0.0067499075, -0.000013446955, -835848.56, 103058.82, 0.0, 10.000933, 9.999275 
1.3650924e+3, 2.141921e+2, -777906.3, -879325.44, -44315.223, 0.011090445, -0.035846416, -761271.25, 79645.57, 0.0, 10.000691, 9.999346 
1.3651033e+3, 2.2419158e+2, -694631.6, -755874.25, -38548.516, 0.010358267, -0.034463488, -676022.3, 66899.15, 0.0, 10.000451, 9.999637 
1.3651142e+3, 2.3419176e+2, -626641.6, -664727.0, -37406.945, 0.0017179555, 0.012243197, -603709.3, 41209.938, 0.0, 10.000213, 9.999704 
1.365125e+3, 2.441913e+2, -598731.7, -653879.75, -34434.574, -0.019489089, 0.021169571, -582191.5, -35267.67, 0.0, 9.999962, 9.999226 
1.3651358e+3, 2.5419006e+2, -538315.4, -573096.1, -43144.99, -0.057699334, -0.026810864, -509187.84, -60250.617, 0.0, 9.999701, 9.999233 
1.3651468e+3, 2.6418933e+2, -452305.5, -452122.44, -49024.445, -0.057371184, -0.03233901, -403189.44, -52244.63, 0.0, 9.9994955, 9.99949 
1.3651584e+3, 2.7418932e+2, -368512.38, -353054.3, -46348.367, -0.0055426913, 0.013308615, -313794.94, -60850.79, 0.0, 9.999364, 9.999559 
1.3651697e+3, 2.8418878e+2, -322302.66, -343118.47, -28421.24, -0.0053547923, 0.027815267, -302443.56, -147493.27, 0.0, 9.999278, 9.998997 
1.3651806e+3, 2.941875e+2, -227713.06, -246439.28, -30997.639, -0.074483946, 0.0020905007, -204695.28, -147730.63, 0.0, 9.999253, 9.998999 
1.3651921e+3, 3.0418724e+2, -154304.23, -99909.15, -31208.414, -0.06817255, 0.03834425, -85710.18, -85710.18, 0.0, 9.999053, 9.999768 
1.3652049e+3, 3.1418687e+2, -208546.11, -107746.234, 7979.43, 0.07506127, 0.018328287, -107118.484, -107118.484, 0.0, 9.998596, 9.999936 
1.374997e+3, 1.2419207e+2, -1358497.0, -1707288.6, -7486.8486, -0.081889845, 0.0704729, -1358336.4, 364587.4, 0.0058605294, 10.003183, 9.998515 
1.3750097e+3, 1.3419e+2, -1302912.5, -1646042.9, -17916.346, 0.119140305, 0.02924168, -1301979.5, 322965.38, 0.0034352848, 10.002935, 9.99839 
1.3750172e+3, 1.441894e+2, -1243058.9, -1542898.6, -29605.184, -0.1978108, 0.12165405, -1240163.6, 286786.88, 0.0014510443, 10.002574, 9.998593 
1.3750292e+3, 1.5418738e+2, -1214228.4, -1477485.0, -32980.777, -0.030274209, 0.059207365, -1210159.4, 218809.94, 0.0003520353, 10.002093, 9.998601 
1.3750404e+3, 1.6418576e+2, -1149581.3, -1370336.0, -27970.326, 0.04024673, 0.02882078, -1146092.4, 184891.67, 0.000027536262, 10.001753, 9.998829 
1.3750508e+3, 1.7418484e+2, -1069872.4, -1273148.9, -34823.01, 0.012498797, 0.046388175, -1064072.4, 168919.34, 0.000000027808229, 10.001593, 9.998899 
1.3750613e+3, 1.8418367e+2, -992143.44, -1172712.3, -40434.098, -0.004737417, 0.037101623, -983502.7, 151498.88, 0.0, 10.001401, 9.999009 
1.3750717e+3, 1.941822e+2, -923663.7, -1082404.3, -37918.973, -0.01848414, -0.01746712, -915071.0, 121943.28, 0.0, 10.00117, 9.999067 
1.3750824e+3, 2.0418109e+2, -856772.8, -994458.25, -46141.438, -0.020416008, -0.03547975, -842740.0, 96284.39, 0.0, 10.000935, 9.999112 
1.375093e+3, 2.1418053e+2, -790229.9, -905915.75, -53659.832, -0.0020547789, -0.0070635076, -769173.0, 71857.49, 0.0, 10.000695, 9.999163 
1.3751036e+3, 2.2418e+2, -693838.25, -755548.44, -47761.09, 0.00068928505, 0.0029540735, -667832.5, 75202.76, 0.0, 10.000456, 9.999637 
1.3751142e+3, 2.3417951e+2, -624740.3, -661705.9, -46396.617, -0.019451132, -0.017799942, -593280.56, 51757.266, 0.0, 10.000216, 9.999724 
1.3751249e+3, 2.4417889e+2, -613240.4, -684890.3, -44134.594, -0.026520662, -0.017254177, -592220.9, -45176.82, 0.0, 9.999965, 9.999012 
1.375136e+3, 2.5417814e+2, -554842.56, -607572.7, -52276.008, -0.01524946, 0.007854117, -522659.38, -73604.49, 0.0, 9.999701, 9.998997 
1.3751467e+3, 2.6417744e+2, -447389.38, -442341.28, -53360.65, -0.02198097, 0.014253104, -391445.03, -40382.215, 0.0, 9.9994955, 9.999557 
1.3751574e+3, 2.741768e+2, -360763.22, -338775.44, -50049.938, -0.054465972, -0.011364268, -298526.16, -45459.723, 0.0, 9.999371, 9.999655 
1.3751686e+3, 2.8417617e+2, -324559.72, -349051.94, -28803.926, -0.058147844, -0.0079118395, -305506.72, -150433.98, 0.0, 9.999282, 9.998955 
1.3751805e+3, 2.9417554e+2, -233167.78, -254501.11, -30548.242, -0.020430235, 0.032646943, -211477.48, -154395.39, 0.0, 9.999238, 9.998952 
1.3751918e+3, 3.0417505e+2, -138610.22, -64402.36, -45260.55, -0.008550132, 0.038287655, -42980.918, -42980.918, 0.0, 9.999039, 10.000019 
1.3752027e+3, 3.1417468e+2, -191703.1, -75473.86, -6128.023, -0.015387879, -0.0073516327, -75151.66, -75151.66, 0.0, 9.998608, 10.000153 
1.3850002e+3, 1.2418112e+2, -1353627.4, -1722914.6, 5161.597, -0.088252775, 0.061582938, -1353555.3, 369474.34, 0.006152381, 10.003297, 9.998351 
1.3850126e+3, 1.3417889e+2, -1327214.0, -1673025.8, -12614.545, 0.12248842, 0.019181892, -1326754.4, 298298.6, 0.0036092806, 10.002834, 9.998254 
1.3850197e+3, 1.4417827e+2, -1249470.8, -1546296.8, -21795.254, -0.1946401, 0.114628345, -1247878.9, 279180.38, 0.0015272575, 10.002531, 9.998591 
1.3850315e+3, 1.5417625e+2, -1159718.5, -1449568.8, -24713.135, -0.034458112, 0.051137816, -1157626.6, 271450.94, 0.0003731033, 10.002461, 9.998615 
1.3850424e+3, 1.6417454e+2, -1091841.4, -1365206.8, -19336.322, 0.032592956, 0.020783074, -1090480.5, 240612.56, 0.000030085705, 10.002249, 9.998625 
1.3850525e+3, 1.7417341e+2, -1047951.6, -1287756.1, -26043.697, 0.0057579717, 0.03992186, -1045155.8, 187947.7, 0.000000039188958, 10.001853, 9.998673 
1.3850628e+3, 1.8417215e+2, -978188.1, -1165402.8, -32345.338, -0.010619063, 0.033153646, -972757.3, 162357.19, 0.0, 10.001494, 9.999014 
1.3850729e+3, 1.9417074e+2, -920224.5, -1077698.4, -32922.613, -0.023071447, -0.016759342, -913618.56, 123507.49, 0.0, 10.001182, 9.999094 
1.3850832e+3, 2.0416962e+2, -860730.1, -1007490.75, -36977.25, -0.024644725, -0.033337783, -851939.94, 87196.13, 0.0, 10.0009575, 9.999011 
1.3850938e+3, 2.1416892e+2, -774569.94, -910829.5, -39428.137, -0.007497797, -0.009078365, -763983.5, 77160.18, 0.0, 10.000857, 9.99905 
1.385104e+3, 2.2416818e+2, -673336.1, -760724.06, -39495.543, -0.005354385, -0.0063486104, -658131.4, 85018.98, 0.0, 10.000663, 9.999501 
1.3851143e+3, 2.3416746e+2, -615727.25, -672067.4, -50234.145, -0.025704045, -0.0382711, -586303.75, 58851.516, 0.0, 10.000342, 9.999591 
1.3851249e+3, 2.4416679e+2, -606168.4, -681577.5, -47960.844, -0.029235976, -0.034008972, -582865.75, -35703.875, 0.0, 10.000016, 9.999009 
1.3851357e+3, 2.541663e+2, -556525.3, -607300.25, -39325.473, -0.009568387, 0.014855435, -535104.5, -85934.016, 0.0, 9.999686, 9.999004 
1.3851462e+3, 2.6416558e+2, -453887.6, -457913.53, -28498.568, -0.018929178, 0.0249091, -427331.0, -76152.3, 0.0, 9.999507, 9.999444 
1.3851568e+3, 2.7416462e+2, -345659.94, -345107.34, -40722.617, -0.06844313, -0.022902152, -304660.1, -51474.203, 0.0, 9.999534, 9.999532 
1.3851677e+3, 2.84164e+2, -323303.63, -334423.5, -34930.543, -0.0703417, -0.016428433, -293493.28, -138301.27, 0.0, 9.999233, 9.999077 
1.3851795e+3, 2.941638e+2, -330954.38, -284643.75, -24301.023, -0.0054595782, 0.054631177, -274232.6, -217035.84, 0.0, 9.998496, 9.999101 
1.3851906e+3, 3.0416307e+2, -237927.44, -104004.234, -21133.795, 0.011979881, 0.023680165, -100748.37, -100748.37, 0.0, 9.998323, 10.000091 
1.3852012e+3, 3.1416288e+2, -145460.13, -40741.22, 5745.1265, -0.037510876, -0.010211083, -40426.97, -40426.97, 0.0, 9.998875, 10.00026 
1.3950032e+3, 1.241704e+2, -1367201.6, -1750952.5, -8082.25, -0.118153274, 0.045420587, -1367031.4, 356101.63, 0.006457894, 10.003296, 9.99816 
1.3950156e+3, 1.3416809e+2, -1338525.5, -1696845.1, -31008.361, 0.13986993, 0.010258106, -1335861.9, 289296.34, 0.0037909818, 10.002835, 9.998091 
1.3950226e+3, 1.4416745e+2, -1248772.3, -1545643.5, -26589.885, -0.1679055, 0.11344322, -1246409.5, 280755.47, 0.0016060187, 10.002533, 9.998595 
1.3950337e+3, 1.5416548e+2, -1157837.1, -1446334.9, -28019.318, -0.045623254, 0.05324855, -1155141.1, 274040.97, 0.00039434384, 10.002462, 9.998637 
1.3950443e+3, 1.6416357e+2, -1105889.5, -1395224.6, -34169.344, 0.0003372097, 0.011508838, -1101909.0, 229290.4, 0.000032562886, 10.002251, 9.998418 
1.395054e+3, 1.7416193e+2, -1062977.5, -1320350.8, -41443.4, -0.022882324, 0.00010496097, -1056468.8, 176746.77, 0.00000005013657, 10.001858, 9.998448 
1.395064e+3, 1.8416062e+2, -979390.8, -1169268.3, -45038.785, -0.026394384, 0.0021730298, -969249.3, 165978.03, 0.0, 10.001499, 9.998985 
1.3950743e+3, 1.9415982e+2, -920242.6, -1079117.5, -45156.484, -0.014038389, 0.014976563, -908304.94, 128928.05, 0.0, 10.001186, 9.999083 
1.3950844e+3, 2.0415874e+2, -863519.56, -1014363.3, -41926.305, -0.007904541, 0.005269392, -852649.6, 86592.625, 0.0, 10.00096, 9.998962 
1.3950945e+3, 2.1415727e+2, -778025.56, -918438.75, -43467.066, -0.0058808518, -0.040342387, -765658.9, 75597.29, 0.0, 10.000857, 9.998998 
1.3951047e+3, 2.2415616e+2, -692083.25, -799936.8, -51141.926, -0.008201907, -0.060449872, -671689.2, 71577.34, 0.0, 10.000663, 9.999232 
1.3951148e+3, 2.3415557e+2, -635944.9, -714243.06, -62045.992, -0.018199338, -0.049740445, -601729.44, 43541.973, 0.0, 10.000342, 9.999302 
1.395125e+3, 2.44155e+2, -592292.4, -653517.8, -60069.14, -0.028384795, -0.030001987, -555485.2, -8207.977, 0.0, 10.000018, 9.999201 
1.3951351e+3, 2.541545e+2, -538818.7, -572614.6, -51267.742, -0.03896698, -0.004613931, -501735.9, -52451.824, 0.0, 9.999694, 9.99924 
1.3951455e+3, 2.6415375e+2, -473173.3, -499875.28, -27785.59, -0.04727614, 0.0013079474, -455697.56, -104404.945, 0.0, 9.999514, 9.999153 
1.3951564e+3, 2.741527e+2, -370793.72, -394666.16, -38323.055, -0.05223836, -0.019841015, -342591.03, -89288.57, 0.0, 9.999521, 9.999199 
1.3951671e+3, 2.8415218e+2, -306726.94, -297086.4, -59150.723, -0.046938907, 0.0025155887, -242559.88, -87251.586, 0.0, 9.99922, 9.999341 
1.3951777e+3, 2.9415223e+2, -307209.53, -238795.63, -50721.473, -0.026166702, 0.065787636, -211824.28, -154514.81, 0.0, 9.99851, 9.999409 
1.3951889e+3, 3.0415118e+2, -241923.58, -116191.73, -3283.8127, -0.0036878132, -0.006537773, -116106.02, -116106.02, 0.0, 9.998339, 10.000001 
1.3952005e+3, 3.1415135e+2, -147016.98, -38154.348, 28603.27, -0.0013004116, 0.0053366846, -31096.52, -31096.52, 0.0, 9.998848, 10.000293 
1.4050062e+3, 1.2415973e+2, -1386714.9, -1757012.5, -13952.361, -0.14115489, 0.037575282, -1386190.0, 337046.97, 0.0067786416, 10.003147, 9.99819 
1.4050184e+3, 1.341574e+2, -1301425.6, -1670836.4, -24207.357, 0.13382314, -0.0041008447, -1299846.1, 325415.63, 0.0039822184, 10.0030575, 9.998162 
1.4050253e+3, 1.4415675e+2, -1212206.3, -1541982.0, -11763.844, -0.16582894, 0.098715745, -1211787.3, 315481.4, 0.0016886669, 10.002847, 9.998468 
1.4050363e+3, 1.5415473e+2, -1158381.0, -1462400.5, -24679.916, -0.048562776, 0.048029196, -1156390.5, 272895.88, 0.0004161435, 10.002527, 9.998495 
1.4050466e+3, 1.6415277e+2, -1110337.3, -1406477.6, -37013.0, -0.006524872, 0.010186646, -1105781.3, 225523.5, 0.000035020938, 10.00226, 9.998337 
1.405056e+3, 1.74151e+2, -1040166.5, -1317581.8, -34020.125, -0.031123724, -0.004909284, -1036055.44, 197266.77, 0.00000006103049, 10.00205, 9.998375 
1.4050657e+3, 1.8414958e+2, -942637.3, -1163502.9, -34239.41, -0.03011105, -0.0048239795, -937451.2, 197884.05, 0.0, 10.001804, 9.998878 
1.4050756e+3, 1.9414867e+2, -879112.2, -1071707.5, -41985.594, -0.006012703, 0.008196695, -870357.4, 166984.47, 0.0, 10.001523, 9.99897 
1.4050856e+3, 2.0414752e+2, -830706.94, -1001793.5, -40303.246, 0.0018533469, -0.001837312, -821688.06, 117663.53, 0.0, 10.001201, 9.998933 
1.4050953e+3, 2.1414603e+2, -784121.1, -923716.3, -39824.215, -0.008284887, -0.048454255, -773559.06, 67806.23, 0.0, 10.000828, 9.998976 
1.4051053e+3, 2.241448e+2, -727740.7, -832993.7, -44794.16, -0.012042556, -0.07104289, -711258.06, 32118.5, 0.0, 10.000487, 9.999089 
1.4051151e+3, 2.3414403e+2, -668584.4, -747377.56, -46942.58, -0.0086005, -0.064583704, -646697.2, -1313.27, 0.0, 10.000194, 9.9991455 
1.405125e+3, 2.4414335e+2, -590649.0, -652731.06, -40927.0, -0.020039886, -0.046260912, -570323.06, -22932.31, 0.0, 10.00003, 9.999201 
1.4051348e+3, 2.5414288e+2, -486583.88, -546048.9, -48003.504, -0.05182918, -0.019876968, -459850.84, -10454.271, 0.0, 10.000047, 9.999252 
1.4051451e+3, 2.641421e+2, -449731.8, -494379.9, -35276.984, -0.05746244, -0.014657041, -430308.66, -78903.43, 0.0, 9.999701, 9.999101 
1.4051558e+3, 2.74141e+2, -471377.53, -449152.94, -27752.201, -0.02772755, -0.035646517, -430370.97, -176954.66, 0.0, 9.998858, 9.999143 
1.4051662e+3, 2.8414053e+2, -406719.06, -339570.28, -36039.52, -0.02454827, -0.006145679, -323889.38, -168467.63, 0.0, 9.998509, 9.999391 
1.405176e+3, 2.9414076e+2, -255705.69, -207937.6, -44861.543, -0.054721452, 0.066314235, -180998.36, -123577.34, 0.0, 9.998837, 9.999463 
1.405187e+3, 3.041394e+2, -200437.48, -93355.74, -6517.1904, -0.029232174, -0.03795332, -92960.555, -92960.555, 0.0, 9.998611, 10.000026 
1.405199e+3, 3.141398e+2, -307847.38, -86813.09, 34273.855, 0.02725763, -0.007219983, -81620.53, -81620.53, 0.0, 9.997621, 10.000549 
1.4150092e+3, 1.2414916e+2, -1369567.1, -1720376.0, -15641.749, -0.15797922, 0.03767675, -1368871.1, 354469.56, 0.0071187555, 10.003144, 9.998444 
1.4150213e+3, 1.3414696e+2, -1280185.1, -1626650.5, -28830.248, 0.10475961, -0.023665009, -1277802.5, 347560.3, 0.0041865646, 10.0030575, 9.998466 
1.4150278e+3, 1.4414625e+2, -1229734.3, -1579449.6, -24521.273, -0.18837363, 0.07067323, -1228023.3, 299346.4, 0.001777482, 10.00285, 9.998211 
1.4150389e+3, 1.541441e+2, -1179322.1, -1506906.4, -37114.844, -0.044222753, 0.035491917, -1175169.8, 254220.42, 0.00043918352, 10.002531, 9.998189 
1.4150488e+3, 1.6414215e+2, -1107187.6, -1401037.5, -45899.71, 0.01085069, 0.016466424, -1100185.0, 231223.86, 0.000037541082, 10.002263, 9.998373 
1.4150581e+3, 1.7414068e+2, -1034808.94, -1307515.9, -42516.715, -0.019895473, 0.024210233, -1028334.06, 205089.22, 0.00000007226826, 10.002053, 9.998443 
1.4150675e+3, 1.8413909e+2, -955485.2, -1191078.6, -45450.598, -0.023017446, 0.011808994, -947021.0, 188416.84, 0.0, 10.001807, 9.998688 
1.4150773e+3, 1.9413738e+2, -893670.1, -1102899.8, -52861.367, 0.000813359, -0.035844058, -881073.25, 156378.97, 0.0, 10.001526, 9.998755 
1.4150868e+3, 2.04136e+2, -831189.06, -1003928.56, -54534.766, 0.0047930544, -0.05350739, -815412.94, 124050.85, 0.0, 10.0012045, 9.998917 
1.4150962e+3, 2.1413516e+2, -783253.0, -923107.4, -54023.133, -0.015189251, -0.034814544, -764815.56, 76655.49, 0.0, 10.000831, 9.998979 
1.4151058e+3, 2.241341e+2, -729204.94, -837298.6, -56177.875, -0.017775666, -0.040117536, -705296.56, 38184.12, 0.0, 10.000492, 9.999058 
1.4151154e+3, 2.341328e+2, -670318.56, -752289.25, -57766.227, 0.002491164, -0.08214362, -640475.0, 5017.8555, 0.0, 10.000198, 9.99911 
1.4151251e+3, 2.4413185e+2, -603338.8, -679872.25, -40809.652, -0.0051742406, -0.08139603, -585661.2, -38158.9, 0.0, 10.000031, 9.999014 
1.4151348e+3, 2.5413144e+2, -501757.06, -575804.2, -46481.57, -0.050044846, -0.03035195, -479356.06, -29848.24, 0.0, 10.000037, 9.999053 
1.4151448e+3, 2.6413062e+2, -439143.0, -471390.63, -63316.145, -0.05150336, -0.022957418, -389929.9, -38413.438, 0.0, 9.999694, 9.999262 
1.4151551e+3, 2.7412948e+2, -455883.38, -420585.5, -58484.52, 0.0041276063, -0.0705905, -377144.97, -123617.22, 0.0, 9.998872, 9.999333 
1.4151649e+3, 2.8412905e+2, -414058.6, -358467.22, -26356.66, -0.0039503146, -0.041671205, -347957.9, -192425.17, 0.0, 9.998524, 9.999254 
1.4151746e+3, 2.9412937e+2, -269646.16, -233898.3, -30681.818, -0.09352335, 0.05927882, -216263.75, -158732.55, 0.0, 9.998823, 9.999293 
1.4151853e+3, 3.0412775e+2, -195402.52, -79538.69, -38082.8, -0.06698522, -0.06675288, -68142.35, -68142.35, 0.0, 9.998595, 10.00013 
1.4151968e+3, 3.141281e+2, -274728.34, -21659.402, -2386.63, 0.048345093, -0.05537333, -21636.896, -21636.896, 0.0, 9.997635, 10.000991 
1.4250124e+3, 1.24138705e+2, -1360374.1, -1717027.1, 12287.53, -0.16153792, 0.014882764, -1359951.3, 363491.06, 0.007483504, 10.003214, 9.998433 
1.4250241e+3, 1.3413674e+2, -1267663.3, -1617904.1, -24379.738, 0.09162743, -0.024131902, -1265974.4, 359487.44, 0.004407692, 10.003134, 9.998488 
1.4250307e+3, 1.4413604e+2, -1216102.1, -1578435.5, -31761.316, -0.19976163, 0.071588784, -1213339.1, 314129.5, 0.0018747556, 10.002969, 9.99816 
1.4250414e+3, 1.5413363e+2, -1157313.1, -1502208.8, -26330.732, -0.043947846, 0.016548295, -1155314.5, 274177.06, 0.0004643644, 10.002708, 9.998136 
1.4250512e+3, 1.641316e+2, -1091714.3, -1406644.3, -28875.307, 0.017003562, -0.004318372, -1089088.6, 242422.84, 0.000040275583, 10.002428, 9.998254 
1.4250602e+3, 1.7413022e+2, -1031773.94, -1319905.6, -40015.813, -0.016832251, 0.027097171, -1026319.75, 207205.6, 0.00000008454083, 10.002135, 9.998317 
1.4250693e+3, 1.8412863e+2, -950998.9, -1193003.8, -46448.008, -0.02262904, 0.023412628, -942390.4, 193149.73, 0.0, 10.001857, 9.99865 
1.4250788e+3, 1.9412677e+2, -885407.94, -1101579.6, -40581.953, -0.00048748642, -0.036653884, -878040.56, 159515.11, 0.0, 10.0015955, 9.998731 
1.425088e+3, 2.0412527e+2, -818987.5, -1005122.9, -38501.03, 0.004040709, -0.06284919, -811338.1, 128230.2, 0.0, 10.00132, 9.998852 
1.425097e+3, 2.1412434e+2, -758745.2, -918720.75, -43697.14, -0.012521499, -0.047565676, -747587.56, 93988.92, 0.0, 10.001033, 9.998911 
1.4251064e+3, 2.2412327e+2, -697035.1, -826690.06, -48198.49, -0.015021919, -0.048310224, -681080.8, 62505.383, 0.0, 10.000734, 9.999014 
1.4251158e+3, 2.3412208e+2, -640291.6, -742329.1, -50634.758, 0.0005156251, -0.07404896, -619429.94, 26167.455, 0.0, 10.000423, 9.99907 
1.4251252e+3, 2.4412109e+2, -610481.94, -688771.8, -28943.89, -0.0037075842, -0.07345407, -600943.5, -53336.176, 0.0, 10.000007, 9.998965 
1.4251348e+3, 2.5412038e+2, -591751.8, -624274.4, -24245.803, -0.033897575, -0.046475112, -578819.1, -129203.88, 0.0, 9.999442, 9.999006 
1.4251442e+3, 2.6411945e+2, -516395.25, -507510.03, -42250.777, -0.03491499, -0.0499979, -469468.94, -117843.95, 0.0, 9.999159, 9.999271 
1.425154e+3, 2.741184e+2, -396673.94, -390689.6, -50646.125, 0.001169359, -0.089007996, -342947.34, -89311.95, 0.0, 9.99927, 9.999347 
1.4251637e+3, 2.841181e+2, -334498.3, -312379.22, -13907.18, -0.006683887, -0.05214539, -305670.2, -150031.1, 0.0, 9.999036, 9.999324 
1.4251733e+3, 2.9411852e+2, -336544.22, -258754.63, -1369.2739, -0.0675263, 0.052899133, -258730.53, -201094.61, 0.0, 9.998333, 9.999357 
1.4251837e+3, 3.0411676e+2, -315739.1, -154136.03, -20328.102, -0.03912337, -0.08466087, -151618.17, -151618.17, 0.0, 9.997841, 9.999979 
1.4251941e+3, 3.141169e+2, -264189.8, 2566.1995, -8092.363, 0.01855105, -0.08088725, 2811.4653, 2811.4653, 0.0, 9.997623, 10.001162 
1.4350156e+3, 1.24128394e+2, -1380006.0, -1757962.8, 9642.354, -0.15208946, -0.032671895, -1379760.3, 343781.13, 0.007877122, 10.003214, 9.998152 
1.4350273e+3, 1.3412684e+2, -1285866.6, -1655720.6, -28536.203, 0.09310264, -0.0051737204, -1283677.9, 341880.2, 0.00464788, 10.003133, 9.99823 
1.4350335e+3, 1.4412618e+2, -1205409.6, -1556776.0, -42235.984, -0.20118463, 0.10152708, -1200404.0, 327160.88, 0.0019819823, 10.00297, 9.998309 
1.4350441e+3, 1.5412341e+2, -1143333.9, -1474132.9, -36956.598, -0.047992308, -0.008715744, -1139255.4, 290334.88, 0.00049257313, 10.002711, 9.998327 
1.4350536e+3, 1.6412112e+2, -1110246.3, -1446542.0, -40895.668, 0.011624473, -0.051587746, -1105344.5, 226267.8, 0.000043431377, 10.002433, 9.997978 
1.4350623e+3, 1.741197e+2, -1053529.1, -1366576.0, -51508.0, -0.02220996, 0.0041144816, -1045271.94, 188356.17, 0.00000010052836, 10.002141, 9.997995 
1.4350712e+3, 1.8411827e+2, -942556.8, -1176913.9, -56934.11, -0.029257298, 0.029548885, -929457.56, 206184.2, 0.0, 10.001862, 9.998758 
1.4350802e+3, 1.9411689e+2, -874253.94, -1079529.5, -50869.137, -0.010391479, 0.0043388614, -862339.6, 175312.52, 0.0, 10.001599, 9.99888 
1.4350893e+3, 2.0411535e+2, -826559.3, -1021627.25, -49793.457, -0.001313681, -0.03091777, -814584.1, 125081.06, 0.0, 10.001322, 9.998738 
1.4350982e+3, 2.1411358e+2, -768357.44, -939348.4, -54666.61, -0.0012052036, -0.08533972, -752374.25, 89307.1, 0.0, 10.001034, 9.99877 
1.4351071e+3, 2.2411232e+2, -700838.44, -835151.94, -59840.348, -0.004459702, -0.094240926, -678045.75, 65647.32, 0.0, 10.000735, 9.998956 
1.435116e+3, 2.3411186e+2, -643870.7, -750016.7, -62072.266, -0.01439023, -0.04167647, -615275.4, 30422.35, 0.0, 10.000423, 9.999018 
1.435125e+3, 2.4411103e+2, -604427.25, -676958.7, -48962.887, -0.015901197, -0.024727382, -579762.1, -32056.158, 0.0, 10.000008, 9.999046 
1.4351344e+3, 2.541097e+2, -584505.44, -610866.7, -44881.152, -0.005101353, -0.068218246, -550909.5, -101190.48, 0.0, 9.999447, 9.999097 
1.4351438e+3, 2.6410854e+2, -524564.2, -525500.75, -39269.633, -0.008920114, -0.09453576, -485760.06, -134029.17, 0.0, 9.999162, 9.999147 
1.4351529e+3, 2.7410778e+2, -407914.66, -412016.2, -44962.484, -0.03517618, -0.0903459, -364956.2, -111217.016, 0.0, 9.999261, 9.999206 
1.4351624e+3, 2.8410766e+2, -318572.75, -277622.97, -36487.74, -0.032763045, -0.03839998, -256257.98, -100517.055, 0.0, 9.999026, 9.999568 
1.4351726e+3, 2.9410815e+2, -317734.0, -220903.19, -26591.512, 0.017026797, 0.044675473, -214081.28, -156345.39, 0.0, 9.998336, 9.999617 
1.4351825e+3, 3.0410635e+2, -340822.7, -207236.47, -29523.338, 0.04862043, -0.0926246, -201002.55, -201002.55, 0.0, 9.997845, 9.999613 
1.4351909e+3, 3.141061e+2, -270239.38, -8005.229, -16751.38, -0.05939447, -0.08607039, -6939.4907, -6939.4907, 0.0, 9.997615, 10.001094 
1.445019e+3, 1.24118656e+2, -1322735.4, -1737032.4, 8216.432, -0.15664798, -0.027548887, -1322572.5, 401063.6, 0.008301398, 10.003643, 9.998088 
1.4450306e+3, 1.3411683e+2, -1271604.4, -1652346.4, -15192.94, 0.094088405, -0.025261264, -1270999.1, 354655.94, 0.0049079615, 10.003248, 9.998197 
1.4450367e+3, 1.4411601e+2, -1215529.3, -1572254.1, -26357.416, -0.19873808, 0.073268615, -1213592.3, 314070.94, 0.0020998851, 10.002949, 9.998212 
1.4450468e+3, 1.5411344e+2, -1132306.3, -1479641.9, -42422.516, -0.058883186, -0.0069246422, -1127199.9, 302487.4, 0.00052445993, 10.002836, 9.998228 
1.445056e+3, 1.6411117e+2, -1077074.5, -1432689.5, -52586.07, -0.0038176733, -0.042746007, -1069461.5, 262248.06, 0.000047180834, 10.002671, 9.997957 
1.4450644e+3, 1.7410944e+2, -1013300.1, -1348556.8, -41384.53, -0.029969648, -0.01358319, -1008267.1, 225460.31, 0.00000012546444, 10.002425, 9.997981 
1.4450732e+3, 1.8410791e+2, -912269.44, -1171775.3, -43252.9, -0.033128556, 0.0046360325, -905250.1, 230492.0, 0.0, 10.002112, 9.9986725 
1.4450818e+3, 1.9410665e+2, -863148.7, -1084585.1, -55672.24, -0.01650733, 0.0005942205, -849939.8, 187812.23, 0.0, 10.001721, 9.998786 
1.4450906e+3, 2.0410515e+2, -822363.3, -1018086.8, -60144.04, -0.0040173708, -0.024390653, -805358.94, 134405.89, 0.0, 10.001346, 9.998752 
1.4450994e+3, 2.1410336e+2, -773342.94, -939205.8, -53550.16, 0.007933081, -0.08370613, -757556.4, 84224.76, 0.0, 10.00099, 9.998791 
1.4451079e+3, 2.2410206e+2, -716451.4, -843658.2, -51259.875, 0.008218293, -0.09712372, -698366.56, 45426.637, 0.0, 10.000633, 9.998946 
1.4451164e+3, 2.3410155e+2, -666774.3, -762492.5, -51147.594, -0.010141326, -0.049826853, -644586.5, 1212.0281, 0.0, 10.000273, 9.999004 
1.445125e+3, 2.4410076e+2, -612526.75, -675661.06, -41207.332, -0.01290672, -0.030071778, -592185.06, -44378.613, 0.0, 9.99993, 9.999093 
1.445134e+3, 2.5409964e+2, -557015.94, -592127.06, -40956.07, 0.0066155633, -0.05805933, -530011.44, -80193.91, 0.0, 9.999612, 9.999146 
1.445143e+3, 2.6409855e+2, -513309.78, -522651.56, -24474.959, 0.004696477, -0.077955805, -493064.0, -141235.3, 0.0, 9.999249, 9.999125 
1.445152e+3, 2.7409768e+2, -473278.47, -446353.03, -21680.68, -0.029188177, -0.08177665, -434295.22, -180457.17, 0.0, 9.998825, 9.99918 
1.4451613e+3, 2.8409746e+2, -400983.97, -301957.8, -25313.908, -0.026230656, -0.04283533, -295862.1, -140021.67, 0.0, 9.998395, 9.999704 
1.445171e+3, 2.9409796e+2, -361821.94, -226838.39, -25935.754, 0.036393713, 0.023637714, -222026.63, -164191.61, 0.0, 9.997967, 9.999754 
1.4451805e+3, 3.040964e+2, -390211.47, -258085.98, -17165.76, 0.07172818, -0.085652836, -255892.23, -255892.23, 0.0, 9.997624, 9.99937 
1.4451885e+3, 3.140961e+2, -293798.53, -15744.535, 3991.6045, -0.06408298, -0.061603073, -15687.245, -15687.245, 0.0, 9.99744, 10.001123 
1.4550224e+3, 1.2410954e+2, -1312700.4, -1716051.3, -7161.258, -0.1762637, 0.029971939, -1312573.3, 411152.63, 0.008755286, 10.003643, 9.998232 
1.4550339e+3, 1.3410674e+2, -1258362.6, -1625393.9, -31380.787, 0.094331145, -0.08440072, -1255698.9, 370053.13, 0.0051877103, 10.003251, 9.99838 
1.4550395e+3, 1.4410558e+2, -1238776.3, -1622010.5, -33300.254, -0.19282664, -0.013200854, -1235904.3, 291858.84, 0.0022286694, 10.002954, 9.997869 
1.4550494e+3, 1.5410377e+2, -1159060.5, -1536255.3, -47204.938, -0.07719988, 0.021205537, -1153242.8, 276539.63, 0.0005603208, 10.00284, 9.997838 
1.4550585e+3, 1.6410175e+2, -1061068.6, -1400644.0, -62174.996, -0.029867439, 0.021447744, -1050042.6, 281760.03, 0.00005156165, 10.002675, 9.998177 
1.4550668e+3, 1.7409955e+2, -993303.94, -1308003.9, -51267.906, -0.040700294, -0.02570645, -985162.5, 248660.45, 0.00000016567238, 10.002428, 9.998259 
1.4550751e+3, 1.8409759e+2, -931362.7, -1212400.5, -58339.324, -0.035306007, -0.049897086, -919733.5, 216107.38, 0.0, 10.002115, 9.998393 
1.4550835e+3, 1.9409609e+2, -886015.6, -1133365.5, -70533.71, -0.019329926, -0.04684297, -867316.06, 170538.88, 0.0, 10.001726, 9.99845 
1.455092e+3, 2.0409474e+2, -812723.25, -999407.0, -73857.55, -0.004406693, -0.04329805, -787037.25, 152829.81, 0.0, 10.00135, 9.998878 
1.4551003e+3, 2.140937e+2, -760636.6, -913772.9, -66946.78, 0.01418667, -0.044308852, -735496.56, 106379.266, 0.0, 10.000993, 9.998965 
1.4551088e+3, 2.2409251e+2, -713796.94, -838778.3, -64686.137, 0.021769147, -0.058297623, -686346.7, 57539.97, 0.0, 10.000634, 9.99898 
1.4551169e+3, 2.3409118e+2, -665003.6, -759455.44, -64215.543, 0.011903706, -0.09632541, -632518.06, 13381.639, 0.0, 10.000275, 9.999025 
1.455125e+3, 2.440903e+2, -611509.5, -674123.5, -52836.535, 0.0043833484, -0.087053716, -581401.3, -33492.734, 0.0, 9.999931, 9.999104 
1.4551337e+3, 2.5409016e+2, -556393.44, -590930.8, -52122.535, 0.0017183463, -0.01789788, -518753.44, -68842.37, 0.0, 9.999611, 9.999156 
1.4551423e+3, 2.6408944e+2, -508766.44, -513178.25, -39111.855, 0.005513238, -0.0036349618, -471798.34, -119879.48, 0.0, 9.9992485, 9.999191 
1.4551513e+3, 2.740881e+2, -468436.22, -436308.94, -36461.64, 0.0148705775, -0.06367909, -412529.25, -158596.86, 0.0, 9.998823, 9.99925 
1.4551601e+3, 2.8408757e+2, -397439.2, -294969.94, -40518.867, 0.009982263, -0.06427838, -280884.06, -124946.29, 0.0, 9.998395, 9.999754 
1.4551684e+3, 2.9408795e+2, -359496.6, -222164.72, -41026.33, -0.0045947796, -0.00984058, -210842.1, -152908.73, 0.0, 9.997966, 9.999787 
1.4551777e+3, 3.040869e+2, -400100.1, -279056.8, -23572.576, 0.033807382, -0.06354655, -274628.2, -274628.2, 0.0, 9.997624, 9.999227 
1.4551865e+3, 3.1408677e+2, -289534.2, -6161.982, -3930.163, -0.004325898, -0.0071340906, -6107.4844, -6107.4844, 0.0, 9.997436, 10.001192 
1.4650261e+3, 1.2410011e+2, -1325519.6, -1734304.6, 10475.733, -0.16889182, 0.029977104, -1325251.4, 398566.03, 0.009235478, 10.003609, 9.998123 
1.4650372e+3, 1.3409717e+2, -1201575.9, -1607289.6, -34169.434, 0.091404304, -0.0906318, -1198718.1, 427126.63, 0.0054858825, 10.003687, 9.998294 
1.4650427e+3, 1.4409582e+2, -1160766.8, -1591612.6, -42602.277, -0.19509965, -0.030527404, -1156594.6, 371263.16, 0.002367959, 10.003525, 9.9978 
1.4650524e+3, 1.5409404e+2, -1131591.0, -1529987.1, -32728.654, -0.077198245, 0.011220591, -1128920.1, 300956.94, 0.0006001031, 10.00306, 9.997774 
1.4650612e+3, 1.6409202e+2, -1060789.0, -1396887.4, -40421.723, -0.02914863, 0.016141424, -1055996.0, 275901.16, 0.00005646771, 10.002664, 9.998206 
1.465069e+3, 1.7408988e+2, -998480.3, -1305754.8, -47736.06, -0.043009833, -0.029814797, -991235.2, 242681.33, 0.00000022299002, 10.002375, 9.998299 
1.4650773e+3, 1.840879e+2, -940043.0, -1220060.5, -59298.6, -0.037487537, -0.057980638, -928003.2, 207931.55, 0.0, 10.002072, 9.99836 
1.4650853e+3, 1.9408622e+2, -884952.6, -1137196.5, -50337.996, -0.01642215, -0.06696525, -875278.2, 162672.5, 0.0, 10.001754, 9.998409 
1.4650932e+3, 2.0408487e+2, -801141.2, -990095.7, -45364.242, -0.003272471, -0.06378915, -790814.5, 149148.56, 0.0, 10.001415, 9.99891 
1.4651014e+3, 2.1408404e+2, -749359.25, -903899.75, -48642.555, 0.0029612856, -0.048148844, -735323.44, 106646.336, 0.0, 10.001053, 9.999003 
1.4651093e+3, 2.2408295e+2, -707426.8, -833461.25, -53483.137, 0.011700538, -0.0558343, -687790.44, 56189.297, 0.0, 10.0006695, 9.999 
1.4651172e+3, 2.3408152e+2, -666414.4, -757931.3, -53944.36, 0.02218057, -0.10235796, -641435.06, 4558.541, 0.0, 10.000257, 9.999043 
1.4651252e+3, 2.4408063e+2, -622012.2, -681008.56, -42230.156, 0.020417342, -0.09653381, -599997.94, -51994.945, 0.0, 9.999868, 9.999086 
1.4651331e+3, 2.540805e+2, -572758.2, -600795.0, -43938.434, 0.0030927828, -0.023581488, -540656.06, -90650.5, 0.0, 9.999508, 9.999137 
1.4651415e+3, 2.640799e+2, -526510.06, -506756.13, -35238.734, 0.0062979464, -0.0035807558, -480036.34, -128024.0, 0.0, 9.999063, 9.999324 
1.4651501e+3, 2.7407876e+2, -504926.6, -437535.44, -28238.652, 0.034346066, -0.057249848, -427267.22, -173243.67, 0.0, 9.998503, 9.999396 
1.4651585e+3, 2.8407824e+2, -436993.13, -313323.97, -23089.441, 0.027962293, -0.06380114, -309153.72, -153124.8, 0.0, 9.998121, 9.99976 
1.4651662e+3, 2.940785e+2, -356730.88, -222657.45, -27457.654, -0.015640862, -0.024851976, -217252.17, -159225.27, 0.0, 9.997993, 9.99977 
1.4651752e+3, 3.040779e+2, -393880.75, -253156.5, -7998.604, 0.02590881, -0.039908227, -252703.33, -252703.33, 0.0, 9.997568, 9.999431 
1.4651838e+3, 3.1407773e+2, -362831.2, -2381.4575, 34770.805, 0.0246357, -0.011495845, 942.0657, 942.0657, 0.0, 9.996764, 10.00154 
1.47503e+3, 1.2409045e+2, -1350145.0, -1786858.0, 10414.565, -0.1342122, -0.028516931, -1349896.8, 374013.3, 0.009738247, 10.003613, 9.997761 
1.4750408e+3, 1.3408819e+2, -1226139.4, -1658818.1, -32533.523, 0.08469471, -0.04466175, -1223706.8, 402226.03, 0.00580061, 10.003689, 9.997939 
1.4750461e+3, 1.4408681e+2, -1146816.0, -1563251.8, -59643.285, -0.20661083, 0.021001572, -1138442.0, 389504.6, 0.0025169705, 10.003527, 9.997994 
1.4750555e+3, 1.5408428e+2, -1113592.3, -1493616.0, -50985.45, -0.059977386, -0.036104918, -1106870.8, 323100.44, 0.000643619, 10.003063, 9.998022 
1.4750642e+3, 1.6408207e+2, -1071296.5, -1420185.9, -53076.277, -0.0029595632, -0.05741209, -1063400.8, 268591.88, 0.00006177202, 10.002668, 9.998044 
1.4750715e+3, 1.7408048e+2, -1011763.06, -1334945.3, -59080.51, -0.037421644, -0.026698306, -1001301.3, 232706.63, 0.0000002932695, 10.002379, 9.998096 
1.4750792e+3, 1.8407881e+2, -924936.94, -1190172.8, -71678.18, -0.040210433, -0.02140959, -906805.8, 229217.67, 0.0, 10.002077, 9.998563 
1.4750871e+3, 1.9407709e+2, -867483.94, -1101979.0, -62742.066, -0.00856385, -0.060120866, -851752.0, 186287.13, 0.0, 10.001757, 9.998651 
1.4750947e+3, 2.0407556e+2, -805297.56, -999497.75, -59398.684, -0.0014409618, -0.08491503, -788570.44, 151482.31, 0.0, 10.001417, 9.998845 
1.475102e+3, 2.1407439e+2, -755844.1, -918203.9, -62301.664, -0.025404418, -0.09385108, -734692.8, 107370.07, 0.0, 10.001055, 9.998905 
1.4751096e+3, 2.2407337e+2, -706952.75, -833238.25, -68812.64, -0.021380328, -0.08900159, -676702.9, 67369.57, 0.0, 10.000671, 9.999001 
1.4751175e+3, 2.3407261e+2, -665533.56, -756723.56, -69204.22, 0.020721795, -0.06971107, -628254.4, 17826.168, 0.0, 10.0002575, 9.999052 
1.4751253e+3, 2.4407174e+2, -625229.8, -687856.56, -55417.445, 0.03438122, -0.06037916, -592890.8, -44800.758, 0.0, 9.999867, 9.99904 
1.4751329e+3, 2.540707e+2, -577044.0, -608922.4, -56485.117, 0.009550394, -0.07236799, -534292.25, -84191.28, 0.0, 9.999504, 9.9990835 
1.4751406e+3, 2.6406994e+2, -513134.16, -478688.28, -54604.055, 0.0066713747, -0.07363011, -438655.38, -86546.34, 0.0, 9.99906, 9.999518 
1.4751485e+3, 2.7406967e+2, -489505.13, -405847.34, -48136.527, 0.030778015, -0.062095426, -383904.9, -129793.055, 0.0, 9.998503, 9.999615 
1.4751565e+3, 2.840695e+2, -440108.2, -319939.84, -28131.709, 0.028138788, -0.042936794, -313680.22, -157565.84, 0.0, 9.99812, 9.999715 
1.4751644e+3, 2.940695e+2, -363551.47, -235401.7, -31028.934, -0.000696138, -0.022239674, -228284.0, -170167.86, 0.0, 9.997987, 9.999686 
1.475173e+3, 3.040693e+2, -356044.7, -173889.75, -35778.74, 0.04469088, -0.013777096, -167114.16, -167114.16, 0.0, 9.997563, 9.999978 
1.4751807e+3, 3.1406903e+2, -319917.3, 85117.625, 1301.3885, 0.0255537, -0.06028114, 85121.805, 85121.805, 0.0, 9.99677, 10.00214 
1.4850342e+3, 1.2408127e+2, -1255667.9, -1758354.0, 17277.908, -0.12238882, -0.056535818, -1255074.8, 468923.25, 0.010262328, 10.004347, 9.9976015 
1.4850447e+3, 1.3407905e+2, -1222111.8, -1672926.9, -8951.538, 0.09233845, -0.053778186, -1221934.1, 404086.78, 0.0061310357, 10.003788, 9.997794 
1.4850497e+3, 1.4407757e+2, -1167957.0, -1571483.3, -36577.5, -0.19937909, 0.0092631355, -1164668.3, 363367.84, 0.0026753244, 10.003375, 9.998011 
1.4850587e+3, 1.5407504e+2, -1091241.1, -1478333.0, -43908.766, -0.063292466, -0.051326588, -1086322.9, 343737.66, 0.00069087674, 10.003201, 9.99806 
1.4850667e+3, 1.6407284e+2, -1032082.6, -1397791.4, -49424.75, -0.008120816, -0.07404225, -1025520.75, 306560.88, 0.00006744942, 10.002925, 9.998074 
1.4850742e+3, 1.7407128e+2, -991345.3, -1322055.4, -39295.3, -0.0330045, -0.04313053, -986740.3, 247356.1, 0.00000037325287, 10.002508, 9.998121 
1.4850815e+3, 1.840697e+2, -921303.0, -1189565.0, -49965.098, -0.035621546, -0.033710916, -912298.94, 223812.7, 0.0, 10.002109, 9.998551 
1.4850888e+3, 1.9406806e+2, -870773.7, -1105028.0, -60275.523, -0.017595584, -0.061535172, -856174.2, 181952.73, 0.0, 10.001742, 9.998635 
1.4850959e+3, 2.0406654e+2, -807579.7, -993027.25, -64037.945, -0.015315145, -0.08627768, -787615.6, 152524.84, 0.0, 10.00137, 9.998911 
1.485103e+3, 2.1406528e+2, -760337.25, -911958.44, -55118.043, -0.031472087, -0.111803606, -742418.2, 99732.664, 0.0, 10.000989, 9.998979 
1.4851102e+3, 2.2406426e+2, -721410.8, -849244.5, -58286.195, -0.025000637, -0.107060045, -698825.4, 45335.063, 0.0, 10.000613, 9.998918 
1.4851177e+3, 2.3406364e+2, -674804.94, -772310.8, -67064.086, 0.011631123, -0.064050056, -640645.6, 5522.528, 0.0, 10.000244, 9.998951 
1.485125e+3, 2.4406281e+2, -629425.1, -672363.4, -55058.355, 0.030622626, -0.052835036, -591798.2, -43620.59, 0.0, 9.999765, 9.999194 
1.4851321e+3, 2.5406167e+2, -619109.25, -609104.44, -40621.9, 0.026437497, -0.09267186, -573178.06, -122989.4, 0.0, 9.99913, 9.999262 
1.4851396e+3, 2.64061e+2, -565922.8, -497912.66, -30229.297, 0.027991734, -0.09728156, -486418.75, -134223.17, 0.0, 9.9986725, 9.999573 
1.485147e+3, 2.7406105e+2, -491869.13, -402142.4, -36514.96, 0.03318365, -0.058649503, -389160.6, -134964.72, 0.0, 9.998467, 9.999656 
1.4851546e+3, 2.8406098e+2, -442700.2, -312179.94, -20490.121, 0.030026782, -0.036998715, -309038.84, -152840.8, 0.0, 9.998066, 9.999793 
1.4851625e+3, 2.9406083e+2, -446933.72, -267272.72, -13545.649, 0.027103703, -0.037931222, -266257.2, -208055.69, 0.0, 9.99738, 9.999759 
1.4851706e+3, 3.0406108e+2, -435233.3, -188839.34, -23522.908, 0.07429827, 0.003498559, -186613.73, -186613.73, 0.0, 9.996922, 10.000184 
1.4851774e+3, 3.140607e+2, -306247.4, 102020.54, -18624.486, 0.022005254, -0.076456755, 102868.4, 102868.4, 0.0, 9.99682, 10.002231 
1.4950383e+3, 1.2407265e+2, -1253547.4, -1754007.8, -6938.3945, -0.13378495, -0.05448518, -1253451.3, 470629.28, 0.010810157, 10.004349, 9.997631 
1.4950486e+3, 1.3406985e+2, -1218223.8, -1665479.5, -31091.48, 0.11359623, -0.11726244, -1216072.8, 410035.63, 0.0064786617, 10.003792, 9.997844 
1.4950533e+3, 1.440682e+2, -1178273.9, -1594406.3, -45905.96, -0.1740935, -0.06503889, -1173269.9, 354855.47, 0.00284381, 10.00338, 9.997851 
1.4950617e+3, 1.5406638e+2, -1102766.9, -1503428.1, -51085.11, -0.08723727, -0.03533867, -1096356.0, 333788.66, 0.00074233697, 10.003204, 9.997888 
1.4950693e+3, 1.6406444e+2, -1017009.44, -1367678.1, -65132.05, -0.04466542, -0.03507318, -1005302.9, 326861.03, 0.000073667885, 10.002929, 9.998279 
1.4950766e+3, 1.7406237e+2, -974138.06, -1287313.0, -55689.727, -0.030230451, -0.07832578, -964529.9, 269651.84, 0.00000046463128, 10.002511, 9.99836 
1.4950836e+3, 1.8406054e+2, -936342.9, -1221886.9, -64648.055, -0.02456563, -0.09285661, -922388.3, 213810.48, 0.0, 10.002112, 9.998328 
1.4950903e+3, 1.9405916e+2, -888606.9, -1143764.6, -74257.56, -0.043364406, -0.07123255, -868569.5, 169644.3, 0.0, 10.001748, 9.998367 
1.495097e+3, 2.0405784e+2, -793735.4, -965867.94, -78511.14, -0.044835154, -0.06932902, -763305.3, 176920.73, 0.0, 10.001376, 9.999096 
1.4951041e+3, 2.1405673e+2, -743505.2, -878006.9, -69666.94, -0.01657359, -0.10275542, -713925.44, 128308.266, 0.0, 10.000992, 9.999211 
1.4951111e+3, 2.2405563e+2, -732801.9, -873303.1, -72274.086, -0.0009192398, -0.110058755, -702262.2, 41981.563, 0.0, 10.000613, 9.998754 
1.4951177e+3, 2.3405465e+2, -689373.75, -802565.06, -80455.71, -0.0052511794, -0.084305935, -647601.8, -1345.4448, 0.0, 10.000243, 9.998744 
1.4951245e+3, 2.4405386e+2, -605951.9, -623920.56, -77343.586, 0.009427313, -0.07287551, -537072.56, 11193.065, 0.0, 9.999765, 9.999528 
1.4951317e+3, 2.5405338e+2, -591526.5, -552647.2, -63793.418, 0.052792065, -0.085880354, -505397.25, -55128.18, 0.0, 9.999133, 9.999649 
1.4951387e+3, 2.6405302e+2, -571185.75, -509412.38, -38763.78, 0.06853449, -0.07685787, -490734.78, -138462.14, 0.0, 9.998674, 9.999493 
1.4951456e+3, 2.7405286e+2, -501348.13, -421246.4, -43100.3, 0.04038307, -0.04723047, -402460.97, -148184.98, 0.0, 9.998465, 9.999526 
1.4951527e+3, 2.8405258e+2, -429869.78, -285454.75, -43773.02, 0.032651283, -0.044780344, -273222.9, -116942.71, 0.0, 9.998064, 9.999978 
1.4951602e+3, 2.940524e+2, -431582.6, -236453.75, -38882.977, 0.06649139, -0.07061558, -228991.02, -170707.58, 0.0, 9.997383, 9.9999695 
1.4951679e+3, 3.0405316e+2, -441690.22, -203821.2, -28782.025, 0.11338055, 0.011179065, -200388.14, -200388.14, 0.0, 9.996927, 10.000078 
1.495174e+3, 3.140528e+2, -333805.28, 43528.49, -24897.6, 0.012640648, -0.050592624, 45164.215, 45164.215, 0.0, 9.996826, 10.001826 
1.5050429e+3, 1.2406407e+2, -1224836.5, -1733058.1, -2445.797, -0.1168168, -0.07688833, -1224824.8, 499338.78, 0.011385506, 10.004521, 9.997692 
1.5050524e+3, 1.3406143e+2, -1168186.5, -1631748.6, -22210.953, 0.10467792, -0.13327523, -1167124.8, 459064.47, 0.0068460787, 10.0041, 9.997927 
1.5050568e+3, 1.440597e+2, -1147768.6, -1595430.8, -28605.627, -0.18501024, -0.08601642, -1145948.1, 382258.72, 0.0030239064, 10.003661, 9.997708 
1.505065e+3, 1.5405788e+2, -1109134.1, -1524939.0, -32621.531, -0.081833795, -0.04291142, -1106590.4, 323637.1, 0.000798702, 10.003241, 9.997722 
1.5050724e+3, 1.6405591e+2, -1019349.1, -1355509.1, -52371.016, -0.035919353, -0.039423753, -1011379.1, 320867.9, 0.0000807338, 10.002856, 9.998397 
1.505079e+3, 1.7405388e+2, -962526.3, -1264962.9, -50583.105, -0.038631998, -0.09455625, -954290.5, 279973.25, 0.00000057502143, 10.002521, 9.9985075 
1.5050857e+3, 1.840521e+2, -928622.1, -1223830.9, -56075.0, -0.037784927, -0.11136397, -918329.5, 217950.7, 0.0, 10.002192, 9.998276 
1.5050921e+3, 1.9405073e+2, -875084.94, -1145500.1, -51988.0, -0.043296672, -0.07813328, -865434.5, 172860.98, 0.0, 10.001878, 9.998292 
1.5050985e+3, 2.0404942e+2, -781288.9, -966255.7, -60282.13, -0.03896192, -0.069352075, -763377.0, 176931.23, 0.0, 10.00149, 9.999038 
1.505105e+3, 2.1404827e+2, -746915.6, -885602.2, -73161.96, -0.016173765, -0.101806015, -715456.3, 126860.31, 0.0, 10.000996, 9.999156 
1.5051116e+3, 2.2404717e+2, -738998.94, -861925.5, -77312.12, -0.0035916443, -0.11303611, -701695.3, 42631.383, 0.0, 10.000511, 9.998879 
1.5051179e+3, 2.340462e+2, -708953.6, -795797.56, -60508.367, -0.0069641406, -0.09909112, -677899.2, -31560.74, 0.0, 10.00004, 9.998888 
1.5051241e+3, 2.440455e+2, -623074.8, -624788.8, -54835.21, 0.008244521, -0.08730223, -569089.94, -20743.46, 0.0, 9.999618, 9.999592 
1.5051308e+3, 2.5404528e+2, -568866.1, -535243.9, -66381.37, 0.050951496, -0.08145552, -483578.0, -33230.043, 0.0, 9.999263, 9.999704 
1.5051374e+3, 2.6404503e+2, -551078.3, -493604.9, -48197.535, 0.073198974, -0.064748935, -466227.44, -113876.94, 0.0, 9.998788, 9.999546 
1.5051442e+3, 2.7404484e+2, -544638.5, -436351.53, -39767.277, 0.062265888, -0.045820687, -423316.5, -168962.03, 0.0, 9.998144, 9.999576 
1.505151e+3, 2.8404456e+2, -484286.22, -305206.66, -38706.477, 0.056638412, -0.05102537, -297198.7, -140839.81, 0.0, 9.997664, 10.000034 
1.5051576e+3, 2.9404446e+2, -422240.6, -225130.36, -46145.582, 0.07030131, -0.073024236, -214862.11, -156501.05, 0.0, 9.997419, 10.00003 
1.505165e+3, 3.040455e+2, -408569.56, -191562.33, -29386.504, 0.11381186, 0.033551022, -187653.31, -187653.31, 0.0, 9.997172, 10.000045 
1.5051712e+3, 3.1404495e+2, -345011.5, -3612.9487, -21982.559, 0.04437058, -0.04027386, -2203.318, -2203.318, 0.0, 9.996929, 10.001452 
1.515048e+3, 1.2405563e+2, -1218162.0, -1719396.0, -22989.393, -0.07221254, -0.12173622, -1217109.8, 507136.3, 0.011990095, 10.004524, 9.997786 
1.5150562e+3, 1.3405384e+2, -1159996.5, -1614873.1, -39216.99, 0.065667436, -0.10296367, -1156640.1, 469622.63, 0.0072343214, 10.004101, 9.998042 
1.5150599e+3, 1.4405213e+2, -1156827.3, -1615527.0, -45785.035, -0.23214547, -0.054495078, -1152301.9, 375978.34, 0.0032162187, 10.003666, 9.997569 
1.5150684e+3, 1.5404953e+2, -1120394.0, -1549714.0, -48928.406, -0.04842646, -0.07316829, -1114888.4, 315420.1, 0.00086027547, 10.003245, 9.99755 
1.5150757e+3, 1.6404733e+2, -1016068.44, -1350258.1, -65953.23, 0.01627743, -0.08535816, -1003523.3, 328807.13, 0.00008890055, 10.002862, 9.998431 
1.5150812e+3, 1.7404583e+2, -957504.56, -1256351.9, -63667.895, -0.058467507, -0.09272196, -944505.8, 289836.28, 0.00000071310234, 10.002526, 9.998565 
1.5150873e+3, 1.8404432e+2, -920570.8, -1208732.0, -68547.08, -0.07528894, -0.09119257, -905096.06, 231259.8, 0.0, 10.002197, 9.998378 
1.5150942e+3, 1.940428e+2, -867719.1, -1130751.0, -64131.953, -0.018617773, -0.08241186, -852915.75, 185456.14, 0.0, 10.001879, 9.998394 
1.5151004e+3, 2.040413e+2, -801868.4, -1009007.0, -78472.36, 0.0007494768, -0.0852655, -775497.25, 164889.66, 0.0, 10.001489, 9.998745 
1.515106e+3, 2.140399e+2, -770146.2, -934631.06, -91453.45, -0.030293228, -0.10867439, -729394.5, 113004.91, 0.0, 10.000998, 9.998819 
1.5151118e+3, 2.2403884e+2, -710460.06, -803791.25, -94606.664, -0.03260958, -0.116279185, -651635.9, 92773.44, 0.0, 10.000515, 9.999278 
1.515118e+3, 2.3403828e+2, -675426.4, -726842.56, -77842.48, 0.0054657524, -0.1081711, -619156.7, 27258.033, 0.0, 10.000042, 9.999361 
1.515124e+3, 2.4403776e+2, -636769.75, -653367.1, -68273.945, 0.025818406, -0.09605018, -576292.0, -27871.527, 0.0, 9.999617, 9.999397 
1.5151298e+3, 2.5403738e+2, -587739.9, -574118.2, -78944.04, 0.021917576, -0.07979727, -501691.75, -51266.316, 0.0, 9.99926, 9.99944 
1.5151359e+3, 2.640371e+2, -539329.9, -468988.34, -70447.73, 0.043206066, -0.06094752, -425419.9, -72990.625, 0.0, 9.998786, 9.999717 
1.5151428e+3, 2.7403697e+2, -529406.3, -405376.5, -62885.668, 0.09692083, -0.053935327, -379071.22, -124639.69, 0.0, 9.998146, 9.999788 
1.5151489e+3, 2.8403682e+2, -488087.22, -314561.47, -48525.11, 0.09994275, -0.055749573, -301913.66, -145479.23, 0.0, 9.997669, 9.999969 
1.5151548e+3, 2.9403695e+2, -427637.28, -237765.47, -54372.35, 0.040292855, -0.04597677, -223297.63, -164862.92, 0.0, 9.997424, 9.999941 
1.5151617e+3, 3.0403802e+2, -406238.38, -187461.45, -37160.363, 0.07678487, 0.06821945, -181321.88, -181321.88, 0.0, 9.997173, 10.000073 
1.515169e+3, 3.140372e+2, -369536.28, -53281.582, -31966.354, 0.112174086, -0.036093563, -50082.844, -50082.844, 0.0, 9.9969225, 10.001116 
1.5250525e+3, 1.2404817e+2, -1235282.0, -1735276.5, -5501.2876, -0.0717008, -0.107711904, -1235221.5, 489098.5, 0.012623065, 10.004443, 9.997715 
1.5250604e+3, 1.3404638e+2, -1142279.1, -1612266.4, -30838.951, 0.07061238, -0.086915955, -1140264.1, 486072.72, 0.0076423204, 10.004252, 9.997988 
1.5250638e+3, 1.440445e+2, -1109328.4, -1581130.8, -41329.566, -0.22223252, -0.054794997, -1105735.3, 422620.0, 0.0034198775, 10.003944, 9.997671 
1.5250719e+3, 1.5404193e+2, -1079029.9, -1516287.9, -24017.898, -0.04951951, -0.08084314, -1077714.5, 352667.63, 0.0009266569, 10.003473, 9.997669 
1.5250786e+3, 1.6403973e+2, -995285.2, -1354346.9, -30528.57, 0.010251832, -0.09384005, -992708.06, 339695.75, 0.000098221106, 10.003067, 9.998303 
1.525084e+3, 1.7403816e+2, -934293.06, -1262607.8, -43745.305, -0.06244695, -0.093762726, -928564.3, 305852.78, 0.0000008739153, 10.002762, 9.998407 
1.5250897e+3, 1.8403661e+2, -895151.0, -1183287.0, -62700.043, -0.07651636, -0.09195947, -882098.4, 254332.89, 0.0, 10.0023155, 9.998495 
1.525096e+3, 1.9403516e+2, -888505.9, -1124271.6, -56114.145, -0.015751902, -0.09259336, -875831.56, 162614.4, 0.0, 10.001666, 9.99854 
1.5251018e+3, 2.040337e+2, -846621.75, -1033429.44, -55508.8, 0.0035466494, -0.09680991, -831372.44, 109087.82, 0.0, 10.001196, 9.998718 
1.5251069e+3, 2.1403237e+2, -775381.7, -942488.25, -47719.945, -0.033800602, -0.10978765, -762714.7, 79758.17, 0.0, 10.000986, 9.998771 
1.5251122e+3, 2.240313e+2, -697036.4, -794943.0, -59307.63, -0.035366476, -0.11553662, -669088.3, 75394.56, 0.0, 10.000597, 9.999299 
1.525118e+3, 2.3403068e+2, -686995.25, -728921.7, -76027.766, 0.01314943, -0.11785256, -629093.5, 17395.023, 0.0, 9.9999485, 9.999391 
1.5251236e+3, 2.4403013e+2, -669055.25, -667549.25, -71828.266, 0.035230055, -0.10943429, -596470.06, -47975.785, 0.0, 9.999392, 9.999407 
1.525129e+3, 2.5402984e+2, -630057.94, -593796.3, -62548.887, 0.020824308, -0.08664487, -546803.5, -96304.64, 0.0, 9.998968, 9.999445 
1.5251346e+3, 2.640296e+2, -570019.3, -479657.28, -52299.4, 0.03973586, -0.063543096, -455725.7, -103223.43, 0.0, 9.998559, 9.999753 
1.5251409e+3, 2.7402952e+2, -524419.94, -398448.47, -58544.74, 0.10321498, -0.05669916, -375441.8, -120937.61, 0.0, 9.998162, 9.999828 
1.5251467e+3, 2.8402936e+2, -469789.13, -302140.6, -40042.81, 0.1127071, -0.06084774, -293067.44, -136560.53, 0.0, 9.997781, 10.0 
1.5251523e+3, 2.940295e+2, -423728.6, -231320.6, -36535.57, 0.05258633, -0.054370474, -224616.58, -166109.72, 0.0, 9.997434, 9.99998 
1.5251589e+3, 3.040306e+2, -416569.3, -159014.98, -11512.489, 0.085948505, 0.04572568, -158501.4, -158501.4, 0.0, 9.996961, 10.00037 
1.5251657e+3, 3.140303e+2, -465555.0, -100291.48, 10628.197, 0.13446955, -0.036544666, -99982.484, -99982.484, 0.0, 9.996269, 10.001106 
1.5350564e+3, 1.24041766e+2, -1251692.3, -1770540.9, -18608.018, -0.1145695, -0.034693312, -1251025.8, 473358.84, 0.013283028, 10.004448, 9.997472 
1.535065e+3, 1.3403901e+2, -1158028.5, -1645865.8, -38448.965, 0.11741553, -0.084238656, -1155016.8, 471394.03, 0.00806912, 10.004256, 9.997755 
1.5350685e+3, 1.4403684e+2, -1085121.3, -1532024.3, -59193.563, -0.1576267, -0.085782416, -1077413.8, 451017.72, 0.0036339643, 10.003949, 9.998007 
1.535075e+3, 1.5403512e+2, -1050079.1, -1457602.8, -42519.438, -0.08468122, -0.06724689, -1045690.06, 384758.06, 0.000997217, 10.003478, 9.998071 
1.5350811e+3, 1.6403314e+2, -1014855.75, -1396976.9, -43439.08, -0.053020135, -0.06645517, -1009979.9, 322487.2, 0.000108598695, 10.003074, 9.998009 
1.5350868e+3, 1.740309e+2, -959948.25, -1316826.8, -55413.27, -0.051537387, -0.09727703, -951542.1, 282946.25, 0.0000010362653, 10.002765, 9.998035 
1.5350924e+3, 1.8402903e+2, -885629.1, -1164075.3, -86210.305, -0.04317369, -0.11214041, -861098.44, 275407.66, 0.0, 10.002316, 9.998628 
1.5350975e+3, 1.940278e+2, -874552.44, -1097144.6, -80597.51, -0.034731653, -0.10832785, -848433.94, 190083.66, 0.0, 10.001673, 9.998724 
1.5351027e+3, 2.0402664e+2, -830454.7, -1001794.7, -65176.668, -0.030183557, -0.10451236, -808480.1, 132048.19, 0.0, 10.001203, 9.998933 
1.5351081e+3, 2.1402563e+2, -760179.44, -911169.9, -55552.656, -0.027486151, -0.10554126, -741942.94, 100594.27, 0.0, 10.000985, 9.998987 
1.5351132e+3, 2.2402453e+2, -720946.7, -844331.56, -82302.83, -0.013196916, -0.110902585, -679781.4, 64766.402, 0.0, 10.000594, 9.998961 
1.535118e+3, 2.3402336e+2, -714381.0, -787025.0, -99934.44, 0.015991312, -0.12864357, -644372.5, 2187.4866, 0.0, 9.999953, 9.998991 
1.535123e+3, 2.4402261e+2, -653985.5, -637942.8, -87876.92, 0.03646757, -0.12764972, -557721.9, -9154.008, 0.0, 9.999397, 9.999608 
1.5351282e+3, 2.5402263e+2, -611527.5, -556097.8, -77542.05, 0.045194913, -0.100634664, -501466.53, -50898.22, 0.0, 9.99897, 9.999703 
1.5351334e+3, 2.6402256e+2, -576222.0, -493017.84, -66394.55, 0.060283937, -0.071809255, -456268.38, -103698.55, 0.0, 9.998559, 9.999661 
1.5351388e+3, 2.7402243e+2, -533008.0, -417106.2, -72367.66, 0.082593665, -0.05633086, -382345.78, -127772.8, 0.0, 9.998164, 9.9997 
1.5351444e+3, 2.8402218e+2, -462101.84, -285851.3, -52382.523, 0.09615296, -0.067221776, -271458.34, -114881.71, 0.0, 9.997779, 10.000114 
1.5351503e+3, 2.940221e+2, -414746.1, -210883.66, -48503.637, 0.10309209, -0.09460215, -199931.86, -141354.17, 0.0, 9.997425, 10.000126 
1.5351562e+3, 3.040232e+2, -378646.56, -79657.0, -34769.816, 0.13734171, -0.031829678, -75666.836, -75666.836, 0.0, 9.996956, 10.000918 
1.5351617e+3, 3.1402415e+2, -440549.0, -51340.984, -15154.47, 0.11192138, -0.044058323, -50751.813, -50751.813, 0.0, 9.99628, 10.001439 
1.5450613e+3, 1.24035425e+2, -1176014.1, -1739219.9, 10469.889, -0.10692776, -0.017705156, -1175819.5, 548627.75, 0.013971534, 10.005002, 9.99742 
1.5450695e+3, 1.3403253e+2, -1142516.4, -1640475.6, 11146.224, 0.12832484, -0.08026934, -1142267.0, 484207.63, 0.008516501, 10.004377, 9.997733 
1.5450725e+3, 1.4403014e+2, -1092570.3, -1544484.1, -11658.507, -0.14587173, -0.09937304, -1092269.8, 436227.63, 0.0038592732, 10.00394, 9.997924 
1.5450785e+3, 1.5402845e+2, -1011524.44, -1449130.1, -30735.664, -0.09299028, -0.06855178, -1009376.25, 421137.28, 0.0010719126, 10.003788, 9.997979 
1.5450841e+3, 1.6402647e+2, -966295.6, -1371945.0, -48645.14, -0.06638977, -0.0628105, -960543.75, 371988.6, 0.000119982535, 10.003401, 9.998022 
1.5450896e+3, 1.7402416e+2, -971279.7, -1319165.1, -33196.414, -0.050069563, -0.1001962, -968140.3, 266413.84, 0.0000011877057, 10.002675, 9.998062 
1.5450945e+3, 1.8402229e+2, -907704.9, -1172813.6, -48827.105, -0.03925177, -0.11852108, -898998.0, 237573.88, 0.0, 10.002158, 9.998643 
1.5450992e+3, 1.940211e+2, -833377.3, -1075795.0, -55667.67, -0.046315, -0.11263641, -821205.2, 217377.44, 0.0, 10.00195, 9.998736 
1.545104e+3, 2.0401998e+2, -784769.2, -975943.25, -56304.063, -0.041987117, -0.10836723, -769419.2, 171173.75, 0.0, 10.0015, 9.998966 
1.545109e+3, 2.1401899e+2, -799027.8, -925680.44, -60480.266, -0.017889526, -0.111754656, -774786.5, 67815.04, 0.0, 10.000702, 9.999023 
1.5451136e+3, 2.2401784e+2, -784645.7, -883550.25, -81228.6, 0.00089576707, -0.1188448, -739000.06, 5612.4224, 0.0, 10.000196, 9.998883 
1.5451181e+3, 2.3401657e+2, -697590.75, -789779.1, -76465.1, 0.010979205, -0.13705666, -654401.2, -7775.3403, 0.0, 10.000115, 9.998894 
1.5451224e+3, 2.440158e+2, -602297.56, -610754.8, -67322.836, 0.028281566, -0.13609934, -539070.7, 9563.534, 0.0, 9.9997425, 9.999629 
1.5451272e+3, 2.540158e+2, -613322.9, -553274.56, -75258.336, 0.055859298, -0.10920009, -502272.38, -51638.47, 0.0, 9.998942, 9.999736 
1.545132e+3, 2.640157e+2, -611705.0, -511680.34, -62086.395, 0.07371593, -0.08498396, -481968.44, -129332.85, 0.0, 9.998324, 9.999645 
1.5451369e+3, 2.740155e+2, -561592.8, -433637.6, -59962.81, 0.07636105, -0.07796266, -409930.13, -155290.11, 0.0, 9.997982, 9.999674 
1.545142e+3, 2.8401536e+2, -493888.97, -281876.28, -40252.117, 0.090349905, -0.08418047, -274491.38, -117848.89, 0.0, 9.997479, 10.000285 
1.5451476e+3, 2.9401565e+2, -500668.88, -229608.17, -33645.367, 0.12574449, -0.09473183, -225494.38, -166854.98, 0.0, 9.996739, 10.000328 
1.5451533e+3, 3.040165e+2, -454010.56, -93760.33, -19969.281, 0.16073547, -0.073232755, -92656.78, -92656.78, 0.0, 9.9963455, 10.001115 
1.5451582e+3, 3.1401783e+2, -414450.7, -31094.36, -28740.625, 0.11775029, -0.06825927, -28951.621, -28951.621, 0.0, 9.99643, 10.001504 
1.5550667e+3, 1.2402921e+2, -1166236.9, -1718303.6, -20038.45, -0.050443355, -0.054386772, -1165510.4, 558997.06, 0.014696326, 10.005002, 9.997565 
1.5550737e+3, 1.3402691e+2, -1128935.0, -1613314.6, -13354.237, 0.10426561, -0.075871095, -1128567.1, 497961.28, 0.008990198, 10.004383, 9.997917 
1.5550761e+3, 1.4402439e+2, -1125885.1, -1616342.5, -20043.152, -0.18587874, -0.095881954, -1125067.4, 403485.2, 0.0040990366, 10.003949, 9.997427 
1.5550825e+3, 1.5402195e+2, -1051178.6, -1532684.8, -36546.176, -0.076356456, -0.08326075, -1048420.6, 382157.1, 0.001151887, 10.003792, 9.997405 
1.5550879e+3, 1.6401976e+2, -944332.7, -1327317.4, -74365.38, -0.032447238, -0.08118238, -930399.8, 402199.25, 0.00013256267, 10.003404, 9.998328 
1.5550922e+3, 1.7401803e+2, -942139.2, -1260571.1, -61055.098, -0.058470536, -0.10308109, -930834.06, 303780.06, 0.0000013544981, 10.002682, 9.998462 
1.5550965e+3, 1.840164e+2, -913756.9, -1187294.5, -59085.387, -0.064881004, -0.112057485, -901539.8, 235088.81, 0.0, 10.002165, 9.998541 
1.5551011e+3, 1.9401506e+2, -844314.6, -1098824.5, -63611.797, -0.050890587, -0.10601641, -829301.25, 209340.03, 0.0, 10.00195, 9.998579 
1.5551054e+3, 2.040137e+2, -794977.0, -997060.1, -84403.78, -0.03269387, -0.108306736, -764362.2, 176291.7, 0.0, 10.001498, 9.998823 
1.5551098e+3, 2.140124e+2, -808250.56, -946352.6, -90405.625, -0.006080769, -0.12768346, -763542.06, 79123.586, 0.0, 10.000708, 9.998879 
1.555114e+3, 2.2401123e+2, -771954.8, -859363.2, -86282.46, 0.006279722, -0.13871531, -718939.2, 25737.662, 0.0, 10.000204, 9.999046 
1.5551181e+3, 2.340103e+2, -684016.4, -761828.44, -78614.055, -0.0022038787, -0.14276326, -635207.8, 11478.531, 0.0, 10.000114, 9.999086 
1.5551221e+3, 2.4400961e+2, -613654.25, -634152.8, -94225.914, 0.010211127, -0.1349922, -529121.8, 19571.615, 0.0, 9.999741, 9.999471 
1.5551262e+3, 2.540094e+2, -626201.6, -581445.75, -104638.04, 0.053370424, -0.11399793, -496819.53, -46123.566, 0.0, 9.998947, 9.999541 
1.5551303e+3, 2.6400906e+2, -606772.4, -503147.4, -75680.23, 0.08047303, -0.1038403, -463242.78, -110542.88, 0.0, 9.99833, 9.999702 
1.555135e+3, 2.740087e+2, -556736.6, -423609.44, -71296.695, 0.081844665, -0.11944913, -392633.66, -137928.2, 0.0, 9.99798, 9.999744 
1.5551396e+3, 2.8400886e+2, -478112.44, -249261.3, -65370.703, 0.0924734, -0.11049782, -231904.69, -75199.984, 0.0, 9.9974785, 10.00051 
1.5551443e+3, 2.9401e+2, -481646.84, -192671.36, -60412.64, 0.12114093, -0.058312293, -180550.05, -121857.29, 0.0, 9.996748, 10.000578 
1.5551496e+3, 3.040105e+2, -464297.22, -117440.71, -18830.395, 0.1565226, -0.08234869, -116421.43, -116421.43, 0.0, 9.996354, 10.00095 
1.5551549e+3, 3.1401113e+2, -427570.63, -57910.977, -23417.57, 0.1477079, -0.11964354, -56433.402, -56433.402, 0.0, 9.996426, 10.001324 
1.565072e+3, 1.2402343e+2, -1193392.4, -1746186.9, -6156.017, -0.0388498, -0.08374441, -1193323.9, 531239.56, 0.015470609, 10.004882, 9.997429 
1.5650782e+3, 1.340215e+2, -1055596.8, -1589390.9, -14954.023, 0.091265835, -0.058682848, -1055178.1, 571403.56, 0.009498824, 10.004944, 9.997812 
1.5650801e+3, 1.4401893e+2, -1028960.5, -1570626.5, -26268.777, -0.19480632, -0.075511426, -1027689.56, 500917.03, 0.0043580798, 10.004624, 9.997416 
1.5650864e+3, 1.5401623e+2, -1055573.0, -1534166.3, -1942.3922, -0.060729608, -0.09032656, -1055565.1, 375068.6, 0.0012391906, 10.003761, 9.997408 
1.5650915e+3, 1.6401394e+2, -983333.25, -1352226.5, -26794.773, -0.012768326, -0.09593001, -981397.2, 351258.63, 0.00014677673, 10.003165, 9.998271 
1.5650949e+3, 1.7401235e+2, -906918.8, -1251180.1, -47897.582, -0.06715218, -0.09620134, -900378.94, 334290.9, 0.0000015913902, 10.002957, 9.998392 
1.5650988e+3, 1.8401076e+2, -866765.1, -1166699.0, -64068.13, -0.080951564, -0.098262735, -853652.9, 283031.34, 0.0, 10.002498, 9.998522 
1.5651031e+3, 1.9400926e+2, -885902.2, -1120502.5, -59266.344, -0.04307168, -0.10671845, -871780.06, 166917.88, 0.0, 10.001673, 9.998563 
1.565107e+3, 2.0400776e+2, -848600.3, -1026606.0, -68017.945, -0.018559301, -0.11971068, -825585.56, 115125.984, 0.0, 10.001147, 9.998789 
1.5651105e+3, 2.140064e+2, -759897.9, -927871.94, -66864.555, -0.01153684, -0.14418925, -736531.8, 106192.31, 0.0, 10.0010605, 9.9988365 
1.5651143e+3, 2.2400524e+2, -699673.8, -816545.0, -63068.348, -0.0053329193, -0.15277453, -672130.75, 72604.086, 0.0, 10.000667, 9.999117 
1.565118e+3, 2.3400453e+2, -720622.7, -769896.6, -64431.777, -0.001042552, -0.14281163, -676278.25, -29536.453, 0.0, 9.999825, 9.99917 
1.5651216e+3, 2.4400386e+2, -694271.1, -684505.8, -83456.766, 0.014147426, -0.13281624, -605789.0, -57040.242, 0.0, 9.999239, 9.999365 
1.565125e+3, 2.5400335e+2, -622531.5, -594399.2, -89498.664, 0.045845207, -0.12816358, -517868.06, -67113.445, 0.0, 9.999037, 9.999409 
1.5651287e+3, 2.6400295e+2, -560728.44, -466077.16, -59228.082, 0.073221296, -0.124277525, -437589.3, -84830.04, 0.0, 9.998583, 9.999835 
1.5651329e+3, 2.7400285e+2, -579307.56, -416718.4, -50134.797, 0.092599414, -0.12914099, -402502.22, -147740.69, 0.0, 9.99775, 9.999903 
1.5651369e+3, 2.8400314e+2, -529528.7, -281828.72, -45854.54, 0.105018415, -0.11059912, -273612.6, -116853.56, 0.0, 9.99716, 10.00044 
1.565141e+3, 2.9400423e+2, -459807.34, -191889.55, -64934.703, 0.109483905, -0.055938233, -176981.05, -118233.0, 0.0, 9.9969425, 10.000488 
1.5651457e+3, 3.0400428e+2, -443469.44, -114348.52, -28981.678, 0.13992672, -0.11591709, -111815.945, -111815.945, 0.0, 9.996528, 10.000886 
1.5651514e+3, 3.140053e+2, -510346.13, -87437.31, -19924.27, 0.17570774, -0.11410347, -86500.71, -86500.71, 0.0, 9.995813, 10.001415 
1.5750764e+3, 1.2401816e+2, -1222499.4, -1809029.0, -13409.431, -0.072308764, -0.10532398, -1222192.9, 502421.44, 0.016307492, 10.00489, 9.996995 
1.5750831e+3, 1.3401634e+2, -1084037.0, -1648625.0, -13283.655, 0.0874389, -0.02823574, -1083724.6, 542909.44, 0.010050671, 10.004946, 9.997404 
1.575085e+3, 1.4401384e+2, -996599.2, -1503834.1, -56566.64, -0.17483728, -0.037826445, -990367.44, 538291.44, 0.004640956, 10.004626, 9.997874 
1.5750903e+3, 1.540113e+2, -1015391.75, -1453063.3, -35228.125, -0.046169154, -0.0905311, -1012574.4, 418107.0, 0.0013357666, 10.003771, 9.997961 
1.5750946e+3, 1.6400902e+2, -1010484.25, -1411438.8, -37733.254, -0.007401604, -0.10737209, -1006964.2, 325738.4, 0.00016297575, 10.003176, 9.99786 
1.5750977e+3, 1.7400719e+2, -943209.06, -1327514.0, -55772.516, -0.07639414, -0.07969687, -935278.7, 299442.44, 0.0000019381066, 10.00296, 9.997868 
1.575101e+3, 1.8400536e+2, -862805.4, -1159048.6, -92820.305, -0.088360526, -0.07708421, -836125.3, 300613.1, 0.0, 10.002499, 9.998574 
1.5751049e+3, 1.940037e+2, -876986.75, -1103801.4, -90228.46, -0.024646085, -0.11420974, -845472.06, 193280.45, 0.0, 10.001679, 9.998676 
1.5751083e+3, 2.0400217e+2, -843460.1, -1017706.6, -73813.96, -0.0011468177, -0.14187236, -816395.06, 124370.71, 0.0, 10.001154, 9.998848 
1.5751114e+3, 2.1400088e+2, -756373.0, -920861.5, -69700.01, -0.03374808, -0.16139594, -730810.9, 111966.21, 0.0, 10.0010605, 9.998885 
1.5751146e+3, 2.2399983e+2, -701369.2, -820218.44, -91751.086, -0.033541583, -0.16142017, -651479.8, 93306.84, 0.0, 10.000666, 9.999093 
1.5751179e+3, 2.3399924e+2, -722345.0, -774351.8, -95742.79, 0.013461998, -0.13763765, -649137.25, -2344.666, 0.0, 9.999826, 9.99914 
1.5751211e+3, 2.439985e+2, -697830.44, -692794.2, -92509.0, 0.038793672, -0.12968269, -602769.06, -53968.71, 0.0, 9.999241, 9.999308 
1.575124e+3, 2.5399765e+2, -627743.06, -604553.1, -95571.53, 0.03195851, -0.15035194, -519875.78, -69065.84, 0.0, 9.999032, 9.999342 
1.5751271e+3, 2.6399735e+2, -547539.2, -438468.3, -86748.055, 0.050689697, -0.14569123, -390537.47, -37723.426, 0.0, 9.99858, 10.000028 
1.5751307e+3, 2.7399784e+2, -562100.2, -383433.56, -80379.92, 0.1079308, -0.110144064, -352594.6, -97785.47, 0.0, 9.997759, 10.000128 
1.5751342e+3, 2.8399816e+2, -552672.7, -332682.0, -55626.383, 0.12708892, -0.08712435, -319416.38, -162610.06, 0.0, 9.99717, 10.000086 
1.5751377e+3, 2.939983e+2, -489357.78, -253793.7, -71726.77, 0.08870214, -0.086151525, -233672.38, -174866.78, 0.0, 9.9969425, 10.000064 
1.575142e+3, 3.0399787e+2, -441243.47, -109711.28, -52515.45, 0.109285295, -0.17164253, -101591.58, -101591.58, 0.0, 9.996527, 10.000919 
1.5751474e+3, 3.1399992e+2, -482893.63, -32507.605, -41299.707, 0.19791913, -0.0716932, -28751.807, -28751.807, 0.0, 9.99582, 10.00179 
1.5850814e+3, 1.2401336e+2, -1130409.3, -1760746.0, -16614.785, -0.093234725, -0.098644935, -1129971.5, 594690.7, 0.017213836, 10.005526, 9.99702 
1.585088e+3, 1.3401161e+2, -1100569.8, -1646649.9, 26920.473, 0.08577261, -0.023315482, -1099245.9, 527435.1, 0.010650028, 10.004795, 9.997488 
1.5850896e+3, 1.4400913e+2, -1038877.6, -1517403.1, -14611.878, -0.16184601, -0.03825555, -1038431.9, 490273.4, 0.004950042, 10.004312, 9.997931 
1.5850942e+3, 1.5400675e+2, -951451.06, -1417135.3, -31668.86, -0.048678644, -0.07884087, -949307.3, 481418.84, 0.0014425203, 10.00419, 9.998004 
1.585098e+3, 1.640045e+2, -927674.6, -1377496.4, -45057.566, -0.012048253, -0.09254109, -923205.75, 409541.28, 0.00018110553, 10.003772, 9.997806 
1.5851009e+3, 1.7400248e+2, -953827.44, -1339815.4, -30889.328, -0.06457058, -0.07636165, -951371.06, 283396.28, 0.000002389593, 10.002921, 9.997801 
1.5851036e+3, 1.8400055e+2, -893510.8, -1174773.9, -52848.137, -0.07231369, -0.082671545, -883908.7, 252876.98, 0.0, 10.002294, 9.998564 
1.5851067e+3, 1.9399883e+2, -832155.56, -1082793.9, -59464.3, -0.022366501, -0.123864405, -818763.1, 220036.52, 0.0, 10.001991, 9.998669 
1.5851097e+3, 2.0399725e+2, -792016.5, -998850.9, -46084.008, -0.005317347, -0.15148726, -782213.3, 158599.69, 0.0, 10.001534, 9.998793 
1.5851124e+3, 2.1399598e+2, -791912.25, -944380.94, -49903.645, -0.03420474, -0.1653922, -777031.0, 65793.555, 0.0, 10.000846, 9.998825 
1.585115e+3, 2.2399488e+2, -760863.9, -847696.44, -83931.64, -0.031074679, -0.1659463, -709784.2, 35050.313, 0.0, 10.000254, 9.999102 
1.5851177e+3, 2.339942e+2, -723680.75, -773606.56, -86014.11, 0.01819322, -0.15193549, -659080.44, -12239.458, 0.0, 9.999812, 9.999151 
1.5851204e+3, 2.4399349e+2, -691406.44, -685597.0, -72274.56, 0.04369985, -0.14495881, -616168.8, -67320.3, 0.0, 9.999269, 9.999344 
1.5851226e+3, 2.5399283e+2, -692965.6, -631391.4, -68179.59, 0.03296084, -0.1532899, -587370.06, -136513.34, 0.0, 9.998568, 9.99938 
1.5851253e+3, 2.6399255e+2, -623098.44, -472283.38, -63091.535, 0.04658971, -0.14663804, -449370.8, -96510.58, 0.0, 9.998054, 10.000048 
1.5851285e+3, 2.7399296e+2, -552657.2, -376543.5, -72116.164, 0.09815569, -0.12323354, -350781.4, -95925.516, 0.0, 9.997816, 10.000146 
1.5851316e+3, 2.8399318e+2, -513947.44, -316345.7, -40740.242, 0.121404044, -0.10729869, -308275.72, -151422.13, 0.0, 9.997449, 10.000063 
1.5851347e+3, 2.939933e+2, -502513.72, -263454.44, -29019.488, 0.09996385, -0.10810969, -259982.17, -201128.61, 0.0, 9.996869, 10.000032 
1.5851384e+3, 3.0399278e+2, -489021.1, -147269.5, -7984.2163, 0.11532169, -0.19244705, -147083.06, -147083.06, 0.0, 9.996263, 10.000788 
1.5851428e+3, 3.1399503e+2, -491588.6, -16011.438, -9399.167, 0.1738689, -0.06167574, -15825.749, -15825.749, 0.0, 9.995674, 10.001972 
1.5950869e+3, 1.2400911e+2, -1096722.5, -1690418.9, -52172.004, -0.10317521, -0.06069218, -1092172.8, 632533.5, 0.018188912, 10.00553, 9.997505 
1.5950927e+3, 1.3400733e+2, -1060081.9, -1564419.1, -1030.7512, 0.086417735, -0.04410379, -1060079.8, 566642.06, 0.011296655, 10.004805, 9.998053 
1.595094e+3, 1.4400482e+2, -1061664.8, -1567242.3, -22517.16, -0.1556431, -0.076512754, -1060663.9, 468081.6, 0.0052855187, 10.004321, 9.997584 
1.5950982e+3, 1.540026e+2, -983499.7, -1484055.5, -36548.758, -0.06864792, -0.0555801, -980845.1, 449922.4, 0.0015594355, 10.004191, 9.997545 
1.5951017e+3, 1.640004e+2, -908010.9, -1337077.5, -74916.51, -0.027477944, -0.05191757, -895306.4, 437482.44, 0.00020084644, 10.003772, 9.998084 
1.595104e+3, 1.7399828e+2, -927475.4, -1287208.0, -63263.816, -0.03340281, -0.08543444, -916673.94, 318134.5, 0.000002909139, 10.002928, 9.998159 
1.5951063e+3, 1.8399628e+2, -897344.7, -1185181.5, -66704.1, -0.034670405, -0.113572404, -882637.94, 254188.17, 0.0, 10.002303, 9.998488 
1.5951085e+3, 1.9399461e+2, -840266.5, -1101293.5, -70784.86, -0.035491593, -0.13594912, -822306.9, 216532.7, 0.0, 10.001997, 9.998539 
1.5951109e+3, 2.0399304e+2, -802994.44, -1022839.3, -70505.28, -0.0303766, -0.14959182, -782326.2, 158527.19, 0.0, 10.001537, 9.998628 
1.5951134e+3, 2.1399166e+2, -803707.94, -969321.2, -75417.46, -0.0148086175, -0.15625611, -774511.3, 68355.33, 0.0, 10.000847, 9.998655 
1.5951157e+3, 2.239904e+2, -758407.6, -843076.44, -100927.11, -0.00017254951, -0.16589105, -691295.8, 53582.613, 0.0, 10.000254, 9.999134 
1.5951176e+3, 2.3398945e+2, -719835.75, -766262.9, -101482.83, 0.012801021, -0.18466836, -638945.4, 7941.7197, 0.0, 9.999813, 9.999202 
1.5951195e+3, 2.439888e+2, -683123.9, -669656.25, -96757.85, 0.028626967, -0.17772143, -579398.2, -30504.678, 0.0, 9.999271, 9.999453 
1.5951215e+3, 2.539887e+2, -683431.3, -613561.25, -93580.79, 0.047876947, -0.13835962, -548607.25, -97711.62, 0.0, 9.998574, 9.9995 
1.5951236e+3, 2.639885e+2, -632110.1, -492841.97, -72710.664, 0.06012335, -0.12817189, -461799.63, -108900.914, 0.0, 9.998059, 9.999904 
1.5951258e+3, 2.739881e+2, -565743.75, -403444.38, -79481.125, 0.06275226, -0.16609974, -371004.8, -116102.66, 0.0, 9.997813, 9.999964 
1.5951286e+3, 2.8398818e+2, -494284.94, -275325.25, -59509.113, 0.08714564, -0.16900104, -260197.02, -103295.69, 0.0, 9.997446, 10.000347 
1.5951319e+3, 2.9398906e+2, -477856.44, -214819.9, -49892.355, 0.1403247, -0.124334395, -205674.39, -146781.23, 0.0, 9.996878, 10.000363 
1.5951352e+3, 3.039889e+2, -509614.1, -191560.55, -30394.135, 0.15527907, -0.17880991, -188682.05, -188682.05, 0.0, 9.996268, 10.000482 
1.5951379e+3, 3.1399032e+2, -495262.66, -22999.535, -25517.7, 0.10135622, -0.09248767, -21624.744, -21624.744, 0.0, 9.995669, 10.001927 
1.6050923e+3, 1.2400541e+2, -1101545.1, -1693769.4, -13090.027, -0.108577795, -0.049975865, -1101255.9, 623487.06, 0.019229976, 10.005509, 9.997492 
1.6050978e+3, 1.3400355e+2, -992219.06, -1526682.5, 6688.948, 0.0836651, -0.04586959, -992135.4, 634623.25, 0.011989984, 10.0052595, 9.9980955 
1.6050987e+3, 1.4400096e+2, -996972.44, -1541237.8, -25862.477, -0.14795339, -0.086613834, -995746.25, 533036.6, 0.005647839, 10.004794, 9.997535 
1.6051024e+3, 1.5399876e+2, -1012392.1, -1504126.3, -11015.705, -0.067982554, -0.058521025, -1012145.44, 418659.72, 0.0016867778, 10.004023, 9.997487 
1.6051053e+3, 1.6399658e+2, -948445.1, -1347201.6, -43175.08, -0.026027912, -0.054344803, -943823.9, 389002.38, 0.00022208587, 10.003458, 9.998163 
1.6051072e+3, 1.7399445e+2, -882394.7, -1255000.0, -52171.105, -0.021949008, -0.09514787, -875227.7, 359617.47, 0.000003466771, 10.003196, 9.99825 
1.605109e+3, 1.8399249e+2, -827789.6, -1154579.8, -61822.402, -0.02270005, -0.123536624, -816485.06, 320377.22, 0.0, 10.002795, 9.998461 
1.6051106e+3, 1.9399089e+2, -815074.94, -1094051.3, -60051.574, -0.036512833, -0.13678567, -802697.56, 236177.98, 0.0, 10.002193, 9.998493 
1.6051124e+3, 2.0398928e+2, -806614.9, -1028084.6, -61643.09, -0.034371626, -0.14693755, -790613.44, 150276.1, 0.0, 10.00153, 9.998594 
1.6051143e+3, 2.1398784e+2, -815962.44, -979029.3, -58312.773, -0.007042378, -0.15793854, -797255.75, 45647.84, 0.0, 10.00078, 9.998619 
1.605116e+3, 2.2398654e+2, -770419.44, -848047.5, -69535.09, 0.010932468, -0.17055939, -729598.94, 15316.908, 0.0, 10.00017, 9.99914 
1.6051173e+3, 2.3398557e+2, -727666.3, -768774.56, -72748.234, 0.014442214, -0.1905037, -672624.3, -25699.814, 0.0, 9.999757, 9.99921 
1.6051188e+3, 2.4398495e+2, -678385.5, -659479.7, -78488.17, 0.02797252, -0.1853185, -589877.25, -40946.69, 0.0, 9.999274, 9.999519 
1.6051202e+3, 2.5398493e+2, -660687.7, -594466.5, -79934.79, 0.055428863, -0.14779562, -541056.1, -90124.414, 0.0, 9.998697, 9.999571 
1.6051216e+3, 2.639847e+2, -621106.2, -485882.2, -48498.242, 0.06829445, -0.14117414, -470286.88, -117352.445, 0.0, 9.99813, 9.999916 
1.6051236e+3, 2.7398425e+2, -601135.7, -420252.56, -42034.64, 0.060173903, -0.18713282, -410961.53, -156022.75, 0.0, 9.997572, 9.999963 
1.6051258e+3, 2.8398433e+2, -546943.3, -294779.2, -26216.686, 0.07972025, -0.18990737, -292082.38, -135144.3, 0.0, 9.997062, 10.000397 
1.6051286e+3, 2.939855e+2, -515521.66, -226165.81, -38629.195, 0.13715889, -0.12673962, -221097.56, -162169.47, 0.0, 9.996593, 10.000421 
1.6051312e+3, 3.039856e+2, -540312.56, -201991.0, -21038.873, 0.15533811, -0.15395331, -200687.7, -200687.7, 0.0, 9.996041, 10.000518 
1.6051333e+3, 3.139865e+2, -507392.4, -1113.3813, 18202.258, 0.08700618, -0.1280344, -459.79898, -459.79898, 0.0, 9.995469, 10.002173 
1.6150978e+3, 1.24002345e+2, -1136634.8, -1769188.9, -32366.488, -0.110128365, -0.0661368, -1134982.9, 589789.0, 0.020339241, 10.005521, 9.996965 
1.6151029e+3, 1.3400033e+2, -1025592.06, -1596763.1, -3282.457, 0.07625145, -0.027938409, -1025573.2, 601217.7, 0.01273371, 10.005266, 9.997606 
1.6151035e+3, 1.439976e+2, -979246.75, -1505950.3, -53824.855, -0.14027107, -0.06769273, -973802.56, 555014.3, 0.006040247, 10.004801, 9.997775 
1.6151066e+3, 1.5399525e+2, -988388.44, -1456901.0, -40429.195, -0.04818698, -0.086786196, -984925.3, 445913.38, 0.001826302, 10.004033, 9.9978075 
1.6151088e+3, 1.6399302e+2, -955288.44, -1363999.8, -55453.22, -0.0088327285, -0.09835701, -947898.3, 384961.03, 0.0002453298, 10.003468, 9.998044 
1.6151103e+3, 1.7399104e+2, -894310.1, -1280619.1, -62054.883, -0.029742552, -0.105979316, -884586.6, 350290.88, 0.0000040686878, 10.003198, 9.998075 
1.6151117e+3, 1.839892e+2, -827007.1, -1153118.8, -83301.5, -0.0360145, -0.11392859, -806960.94, 329933.25, 0.0, 10.002794, 9.998472 
1.6151129e+3, 1.9398764e+2, -813172.6, -1090287.0, -82513.14, -0.026865723, -0.12619138, -790464.44, 248443.08, 0.0, 10.0021925, 9.998521 
1.615114e+3, 2.0398603e+2, -800563.75, -1016218.75, -89335.22, -0.019080842, -0.14266677, -768364.3, 172557.31, 0.0, 10.001531, 9.998676 
1.6151151e+3, 2.139845e+2, -808885.2, -966191.3, -86038.5, -0.011058919, -0.17033593, -770966.7, 71969.016, 0.0, 10.000787, 9.998705 
1.6151161e+3, 2.2398326e+2, -771152.6, -851704.7, -85866.76, 0.002182478, -0.18014656, -716585.3, 28361.826, 0.0, 10.000176, 9.999112 
1.6151172e+3, 2.3398256e+2, -730193.7, -774609.44, -87449.59, 0.02265955, -0.17005192, -662176.2, -15222.498, 0.0, 9.999758, 9.99917 
1.6151182e+3, 2.4398188e+2, -676950.25, -656835.94, -98800.234, 0.0410138, -0.16824466, -567582.3, -18622.152, 0.0, 9.999273, 9.999538 
1.6151188e+3, 2.5398138e+2, -658897.1, -591496.8, -100236.17, 0.054836426, -0.18070795, -519447.3, -68482.086, 0.0, 9.998699, 9.999592 
1.6151199e+3, 2.6398113e+2, -610426.94, -465169.88, -68107.44, 0.06975111, -0.1842089, -438231.7, -85263.8, 0.0, 9.998135, 10.000057 
1.6151215e+3, 2.7398127e+2, -589046.56, -397482.25, -61783.59, 0.087819494, -0.18685023, -379284.44, -124317.68, 0.0, 9.99758, 10.000116 
1.615123e+3, 2.8398153e+2, -558643.75, -321190.44, -43399.875, 0.09704958, -0.17179453, -313506.75, -156541.7, 0.0, 9.997069, 10.000214 
1.615125e+3, 2.9398236e+2, -530609.9, -258491.72, -56206.01, 0.090912156, -0.117521785, -247339.42, -188379.88, 0.0, 9.996595, 10.000198 
1.615127e+3, 3.0398282e+2, -513886.75, -147085.47, -42195.21, 0.115906104, -0.11756056, -142294.11, -142294.11, 0.0, 9.996039, 10.000896 
1.6151291e+3, 3.1398344e+2, -472395.13, 70881.16, 2804.8352, 0.1236978, -0.1640726, 70895.64, 70895.64, 0.0, 9.99547, 10.002668 
1.6251037e+3, 1.2399991e+2, -1066989.0, -1770443.3, -19387.596, -0.11259905, -0.06395195, -1066455.0, 658339.3, 0.021524366, 10.006171, 9.996643 
1.6251084e+3, 1.3399744e+2, -997654.9, -1613915.8, 33773.996, 0.07498475, -0.044654608, -995809.44, 631009.2, 0.013534755, 10.005601, 9.997325 
1.6251086e+3, 1.4399453e+2, -941322.44, -1479256.9, -22620.654, -0.12563793, -0.087952666, -940372.9, 588473.44, 0.0064676404, 10.005033, 9.997847 
1.625111e+3, 1.5399243e+2, -917279.06, -1410495.6, -26791.957, -0.03428764, -0.091935135, -915828.0, 515037.28, 0.001980832, 10.004473, 9.997913 
1.6251127e+3, 1.639903e+2, -901657.2, -1339700.9, -41988.914, 0.001360633, -0.098840766, -897668.6, 435216.1, 0.00027166196, 10.003844, 9.998029 
1.6251135e+3, 1.739882e+2, -908114.44, -1290608.4, -37953.53, -0.028471436, -0.11843642, -904384.8, 330519.38, 0.0000047643325, 10.003119, 9.998042 
1.6251142e+3, 1.8398626e+2, -878807.5, -1180893.9, -58311.055, -0.03504448, -0.13078535, -867942.6, 268979.13, 0.0, 10.002453, 9.998445 
1.6251151e+3, 1.9398476e+2, -862808.94, -1117220.0, -62743.31, -0.013110873, -0.13535628, -848176.6, 190758.56, 0.0, 10.001867, 9.998491 
1.6251157e+3, 2.0398322e+2, -817057.4, -1014632.56, -70390.45, -0.002880576, -0.14839444, -794544.5, 146404.42, 0.0, 10.001379, 9.998759 
1.625116e+3, 2.1398173e+2, -767762.2, -935942.4, -66874.99, -0.008171191, -0.1789574, -744412.0, 98549.87, 0.0, 10.001026, 9.998796 
1.6251165e+3, 2.2398055e+2, -726632.6, -828708.44, -68410.52, 0.0002438747, -0.18924685, -692319.1, 52653.473, 0.0, 10.000478, 9.999124 
1.6251169e+3, 2.339799e+2, -745788.44, -781956.94, -67960.69, 0.027989555, -0.17657042, -693547.06, -46568.035, 0.0, 9.999651, 9.99917 
1.6251174e+3, 2.4397919e+2, -708812.25, -666870.2, -71051.65, 0.045703992, -0.17858315, -613759.4, -64773.69, 0.0, 9.999033, 9.999584 
1.6251174e+3, 2.539786e+2, -652191.75, -582472.7, -70614.0, 0.047727503, -0.20254944, -538582.5, -87591.18, 0.0, 9.998722, 9.99964 
1.6251181e+3, 2.6397848e+2, -594841.3, -457895.84, -49321.652, 0.06326922, -0.19812669, -441981.72, -88988.53, 0.0, 9.998245, 10.0000515 
1.625119e+3, 2.7397892e+2, -599358.5, -403302.06, -55849.83, 0.09895353, -0.16823152, -388508.6, -133518.86, 0.0, 9.997516, 10.000105 
1.6251202e+3, 2.839792e+2, -571050.4, -318239.34, -27910.318, 0.107685335, -0.15321733, -315194.72, -158206.6, 0.0, 9.996948, 10.00029 
1.6251214e+3, 2.9397976e+2, -526342.06, -246245.34, -19342.639, 0.07692565, -0.13633834, -244915.9, -185930.6, 0.0, 9.996583, 10.000287 
1.6251229e+3, 3.0398062e+2, -520902.56, -132856.08, -12940.484, 0.109571315, -0.10841409, -132425.03, -132425.03, 0.0, 9.995917, 10.001052 
1.6251242e+3, 3.1398124e+2, -553762.06, 36716.82, 13348.74, 0.12709042, -0.16885294, 37018.438, 37018.438, 0.0, 9.99489, 10.002713 
1.6351098e+3, 1.2399821e+2, -1073658.8, -1786189.4, -50213.156, -0.11939285, -0.03952313, -1070137.5, 654672.0, 0.0227932, 10.006183, 9.996531 
1.635114e+3, 1.3399489e+2, -1002080.25, -1624392.8, 12456.709, 0.07879201, -0.09631436, -1001831.0, 625010.44, 0.014398321, 10.0056095, 9.997249 
1.635114e+3, 1.4399183e+2, -948160.75, -1494974.0, -44368.758, -0.10470556, -0.14761999, -944584.06, 584287.0, 0.006933162, 10.005039, 9.997735 
1.6351154e+3, 1.5399039e+2, -925281.25, -1427940.8, -48067.145, -0.026826067, -0.074318826, -920726.06, 510158.66, 0.0021524853, 10.004476, 9.997793 
1.6351166e+3, 1.6398847e+2, -895481.44, -1327897.4, -69072.25, 0.003996749, -0.056752782, -884716.1, 448186.13, 0.0003022481, 10.003847, 9.99811 
1.6351166e+3, 1.739859e+2, -900165.44, -1275856.1, -65265.336, -0.019280933, -0.13207196, -889150.44, 345774.63, 0.000005612588, 10.003125, 9.998142 
1.635117e+3, 1.8398371e+2, -882894.0, -1191235.0, -80949.33, -0.021213746, -0.17239097, -862934.25, 274010.56, 0.0, 10.00246, 9.998371 
1.6351172e+3, 1.9398224e+2, -868253.06, -1130389.5, -84529.3, 0.0039593717, -0.16391113, -843359.5, 195599.19, 0.0, 10.001874, 9.998399 
1.6351172e+3, 2.039808e+2, -810704.9, -1002975.56, -84260.47, 0.013443172, -0.16432808, -779005.06, 161966.63, 0.0, 10.001384, 9.998837 
1.6351171e+3, 2.1397954e+2, -761532.5, -922985.9, -79670.94, 0.001199481, -0.18334782, -728838.5, 114143.836, 0.0, 10.001024, 9.998887 
1.635117e+3, 2.239784e+2, -723935.56, -823150.3, -97364.45, 0.004634345, -0.1969812, -664269.3, 80723.125, 0.0, 10.000476, 9.999164 
1.6351166e+3, 2.3397751e+2, -742912.0, -777436.1, -98357.664, 0.029661072, -0.2093813, -660313.1, -13312.2705, 0.0, 9.999656, 9.999201 
1.6351163e+3, 2.4397682e+2, -703778.44, -658095.56, -83588.91, 0.04112777, -0.21544895, -594283.44, -45275.836, 0.0, 9.999039, 9.999643 
1.635116e+3, 2.5397658e+2, -647595.9, -573851.56, -80922.18, 0.0338342, -0.21310374, -521797.06, -70786.54, 0.0, 9.998724, 9.9997 
1.635116e+3, 2.6397666e+2, -604959.2, -479951.34, -74345.4, 0.048766613, -0.18362464, -445326.6, -92315.54, 0.0, 9.998248, 9.9999 
1.6351166e+3, 2.739771e+2, -611091.1, -429402.56, -82082.16, 0.09413521, -0.132948, -397812.53, -142804.0, 0.0, 9.997521, 9.999925 
1.6351172e+3, 2.839773e+2, -548113.7, -271921.06, -41494.06, 0.11102803, -0.1345814, -265821.84, -108813.68, 0.0, 9.996951, 10.0006075 
1.635118e+3, 2.9397756e+2, -499590.47, -191391.02, -32644.746, 0.09103826, -0.18084067, -187971.2, -128964.9, 0.0, 9.996584, 10.000665 
1.635119e+3, 3.039789e+2, -524846.56, -141436.6, -49580.89, 0.13295051, -0.12541908, -135128.78, -135128.78, 0.0, 9.995917, 10.000994 
1.6351189e+3, 3.1397995e+2, -581989.0, -24661.125, -23098.3, 0.09904801, -0.1289331, -23705.46, -23705.46, 0.0, 9.994901, 10.002288 
1.645116e+3, 1.23996295e+2, -1013196.8, -1745445.6, -56739.375, -0.12586561, -0.06467328, -1008826.4, 716000.44, 0.024150271, 10.006572, 9.996622 
1.6451198e+3, 1.3399318e+2, -954303.8, -1585779.8, 28303.219, 0.07519937, -0.115376405, -953037.8, 673818.5, 0.015325661, 10.005882, 9.997385 
1.6451192e+3, 1.439902e+2, -933795.06, -1500341.1, -20706.06, -0.09151336, -0.15840237, -933039.3, 595845.5, 0.0074370187, 10.005196, 9.9976225 
1.64512e+3, 1.5398858e+2, -931114.56, -1446862.0, -26228.63, -0.022340497, -0.089291394, -929784.1, 501116.78, 0.0023417254, 10.004507, 9.997647 
1.6451204e+3, 1.6398661e+2, -891641.9, -1318492.6, -50400.246, 0.006548101, -0.073687166, -885771.6, 447147.75, 0.00033778345, 10.003843, 9.998175 
1.64512e+3, 1.7398416e+2, -881019.5, -1256864.0, -48368.69, -0.010129177, -0.14582297, -874894.6, 360046.1, 0.000006640829, 10.003217, 9.998227 
1.6451195e+3, 1.8398201e+2, -860271.1, -1185794.8, -59952.26, -0.011956525, -0.18429345, -849580.7, 287379.3, 0.0, 10.002641, 9.998321 
1.6451192e+3, 1.9398047e+2, -835879.8, -1122829.0, -62050.23, 0.0035022455, -0.17644104, -823036.8, 215938.23, 0.0, 10.002132, 9.998325 
1.6451186e+3, 2.03979e+2, -790268.44, -988784.3, -63714.188, 0.012198394, -0.17722352, -771578.75, 169409.8, 0.0, 10.001507, 9.998875 
1.645118e+3, 2.1397778e+2, -804059.06, -938173.3, -63693.945, 0.012305685, -0.19638829, -778630.6, 64368.008, 0.0, 10.000711, 9.998933 
1.6451173e+3, 2.239767e+2, -771800.0, -833626.9, -81123.16, 0.016729482, -0.21020247, -715899.75, 29108.193, 0.0, 10.000095, 9.999275 
1.6451164e+3, 2.3397593e+2, -721952.25, -754352.5, -76606.63, 0.025866928, -0.22241078, -659851.56, -12836.486, 0.0, 9.999745, 9.999314 
1.6451153e+3, 2.4397536e+2, -672747.9, -642015.7, -58206.69, 0.032158297, -0.2252069, -597181.0, -48160.02, 0.0, 9.9992485, 9.999651 
1.6451147e+3, 2.5397518e+2, -676336.7, -588431.56, -60862.973, 0.03511562, -0.21472694, -557309.94, -106286.45, 0.0, 9.998531, 9.999691 
1.6451143e+3, 2.639753e+2, -645307.06, -495899.38, -51986.8, 0.05303952, -0.18187316, -479590.63, -126566.65, 0.0, 9.997957, 9.999929 
1.645114e+3, 2.7397573e+2, -597139.3, -419249.53, -44934.098, 0.089913376, -0.13511151, -408543.7, -153521.9, 0.0, 9.997604, 9.999952 
1.6451141e+3, 2.83976e+2, -539517.94, -261040.69, -10496.334, 0.10576752, -0.1372162, -260645.63, -103624.375, 0.0, 9.996983, 10.000666 
1.6451144e+3, 2.9397637e+2, -588487.6, -225194.3, -25881.58, 0.10038278, -0.17655736, -223359.72, -164341.55, 0.0, 9.995937, 10.000742 
1.6451149e+3, 3.0397794e+2, -592305.44, -157975.02, -38007.57, 0.15585142, -0.108345896, -154674.13, -154674.13, 0.0, 9.995387, 10.001135 
1.6451138e+3, 3.1397906e+2, -501675.1, -10950.301, 5929.2944, 0.06564725, -0.11843396, -10878.669, -10878.669, 0.0, 9.995562, 10.002061 
1.6551225e+3, 1.2399426e+2, -994829.56, -1705863.3, -90342.875, -0.13423556, -0.13678862, -983530.3, 741315.2, 0.025597245, 10.006577, 9.996895 
1.6551255e+3, 1.3399233e+2, -931598.94, -1538724.9, 2725.3523, 0.06366897, -0.10117836, -931586.7, 695276.06, 0.016316345, 10.005887, 9.997713 
1.6551244e+3, 1.4398973e+2, -941625.4, -1517677.3, -47174.75, -0.08664808, -0.12052155, -937787.6, 591099.8, 0.007978566, 10.005201, 9.997501 
1.6551246e+3, 1.539871e+2, -942149.06, -1471942.4, -52100.72, -0.021725971, -0.13620234, -937074.0, 493839.53, 0.0025482352, 10.004515, 9.997473 
1.6551243e+3, 1.6398476e+2, -887241.94, -1311520.0, -74130.266, 0.008069975, -0.14772528, -874662.75, 458272.9, 0.00037844433, 10.003851, 9.99822 
1.6551232e+3, 1.7398298e+2, -875528.06, -1247052.3, -71673.7, -0.0013993168, -0.15980576, -862180.44, 372770.5, 0.0000078669, 10.0032215, 9.998294 
1.6551222e+3, 1.8398115e+2, -862455.6, -1191582.1, -79394.14, -0.0077514704, -0.1677136, -844304.6, 292662.78, 0.0, 10.002644, 9.99828 
1.6551211e+3, 1.9397941e+2, -839421.8, -1131289.0, -80711.25, -0.0139875645, -0.17311211, -818589.3, 220395.03, 0.0, 10.002135, 9.998266 
1.65512e+3, 2.039778e+2, -790519.2, -990525.94, -92208.27, -0.0062689283, -0.18655375, -754496.6, 186502.95, 0.0, 10.001511, 9.998862 
1.6551189e+3, 2.1397644e+2, -803864.06, -939413.06, -93074.24, 0.023941584, -0.21805945, -756503.0, 86508.164, 0.0, 10.000716, 9.998923 
1.6551177e+3, 2.2397546e+2, -758595.6, -807946.94, -95323.18, 0.03487074, -0.22892311, -684806.06, 60213.48, 0.0, 10.0001, 9.99945 
1.655116e+3, 2.3397514e+2, -708227.5, -726720.7, -88683.97, 0.016880898, -0.21623999, -628309.4, 18712.78, 0.0, 9.999747, 9.999505 
1.6551144e+3, 2.4397473e+2, -676015.25, -649663.4, -82983.03, 0.018699106, -0.2085623, -578816.75, -29790.506, 0.0, 9.99925, 9.999599 
1.6551134e+3, 2.539744e+2, -681165.06, -600135.44, -86840.23, 0.05037978, -0.20832828, -544824.0, -93793.09, 0.0, 9.998537, 9.99961 
1.6551124e+3, 2.6397437e+2, -630966.44, -467924.84, -65525.64, 0.07480514, -0.19250135, -444854.75, -91822.19, 0.0, 9.997963, 10.00012 
1.6551116e+3, 2.7397478e+2, -581411.94, -387823.38, -56684.082, 0.08444042, -0.17288539, -372447.16, -117416.92, 0.0, 9.997606, 10.000169 
1.655111e+3, 2.8397518e+2, -553176.9, -290277.9, -46623.18, 0.09032523, -0.15982856, -282254.5, -125226.24, 0.0, 9.9969845, 10.000465 
1.6551104e+3, 2.9397607e+2, -603169.7, -257903.88, -64914.125, 0.10564204, -0.12518083, -246102.61, -187080.56, 0.0, 9.995945, 10.000515 
1.6551104e+3, 3.0397767e+2, -567765.4, -108706.43, -34580.93, 0.17894804, -0.061032243, -106116.06, -106116.06, 0.0, 9.995393, 10.0014715 
1.6551091e+3, 3.1397864e+2, -504367.72, -16701.334, 9273.334, 0.025402734, -0.1178882, -16525.059, -16525.059, 0.0, 9.995561, 10.002023 
1.6651292e+3, 1.2399356e+2, -989442.94, -1712462.9, -55092.875, -0.13501887, -0.16680363, -985269.06, 739581.75, 0.027133709, 10.006666, 9.996805 
1.6651313e+3, 1.3399178e+2, -929080.25, -1544671.9, 17124.607, 0.057834886, -0.11073766, -928604.2, 698263.06, 0.017370533, 10.005944, 9.997643 
1.6651297e+3, 1.439893e+2, -921103.7, -1491408.0, -37795.523, -0.07597278, -0.120993614, -918609.75, 610280.9, 0.008558306, 10.005277, 9.997646 
1.6651292e+3, 1.5398651e+2, -906252.3, -1435758.5, -18420.672, -0.019796014, -0.16631094, -905612.25, 525304.56, 0.002772157, 10.004683, 9.997639 
1.6651282e+3, 1.6398415e+2, -861290.94, -1309190.3, -31383.584, 0.004933234, -0.18621892, -859102.6, 473836.34, 0.0004242272, 10.004074, 9.998128 
1.6651265e+3, 1.7398249e+2, -853140.94, -1250287.8, -43186.93, -0.0055570626, -0.17475325, -848498.94, 386455.25, 0.000009345635, 10.003436, 9.998167 
1.6651249e+3, 1.8398073e+2, -840194.9, -1179040.3, -55189.832, -0.011168198, -0.17007303, -831432.4, 305538.3, 0.0, 10.00279, 9.998295 
1.6651233e+3, 1.9397898e+2, -838050.06, -1127150.5, -50779.527, -0.013498139, -0.17959201, -829390.2, 209597.48, 0.0, 10.002131, 9.998296 
1.6651215e+3, 2.0397735e+2, -793035.8, -989899.56, -62534.69, -0.0070091267, -0.19587685, -774851.1, 166151.95, 0.0, 10.001487, 9.998877 
1.6651197e+3, 2.13976e+2, -782920.94, -928111.8, -62933.418, 0.013882856, -0.22776932, -759439.8, 83574.92, 0.0, 10.000856, 9.998932 
1.6651177e+3, 2.2397506e+2, -737368.5, -794916.2, -61804.836, 0.024783468, -0.23595388, -697967.75, 47055.055, 0.0, 10.000236, 9.999474 
1.6651157e+3, 2.3397484e+2, -723924.0, -731765.3, -67603.266, 0.019957745, -0.21552613, -660127.75, -13103.1455, 0.0, 9.99963, 9.999526 
1.6651137e+3, 2.4397449e+2, -700090.56, -655091.2, -69799.625, 0.024051502, -0.20700824, -604254.5, -55226.168, 0.0, 9.999059, 9.999653 
1.6651118e+3, 2.5397408e+2, -675467.56, -591191.8, -64753.438, 0.043537162, -0.21713862, -556072.94, -105039.73, 0.0, 9.99855, 9.999663 
1.6651103e+3, 2.6397407e+2, -626729.25, -458630.22, -39846.906, 0.0670333, -0.20783551, -449663.1, -96628.22, 0.0, 9.997962, 10.000184 
1.6651091e+3, 2.7397454e+2, -629110.25, -403686.72, -42464.07, 0.08908017, -0.18534982, -395952.9, -140921.23, 0.0, 9.997251, 10.000231 
1.6651076e+3, 2.839751e+2, -601154.9, -314290.3, -38140.85, 0.08621932, -0.1607949, -309305.8, -152277.48, 0.0, 9.996661, 10.000455 
1.6651061e+3, 2.939761e+2, -554657.2, -234605.7, -40781.008, 0.06823093, -0.11200608, -229491.11, -170470.14, 0.0, 9.99628, 10.000512 
1.6651058e+3, 3.039774e+2, -503678.3, -60297.266, 4198.2236, 0.16318615, -0.08744851, -60257.52, -60257.52, 0.0, 9.995758, 10.001626 
1.6651043e+3, 3.139788e+2, -611854.2, -79995.875, 24073.582, 0.043153234, -0.1171331, -78908.45, -78908.45, 0.0, 9.994876, 10.001916 
1.6751358e+3, 1.2399421e+2, -1019352.2, -1775181.6, -88645.44, -0.13252535, -0.15452051, -1009094.8, 715747.75, 0.028756205, 10.006671, 9.996373 
1.6751373e+3, 1.3399151e+2, -959112.44, -1608212.6, -8994.968, 0.05628952, -0.1446245, -958987.8, 667881.8, 0.018488472, 10.005955, 9.997195 
1.6751352e+3, 1.439889e+2, -892520.94, -1434270.5, -60105.117, -0.06078222, -0.15991028, -885932.6, 642961.5, 0.009178009, 10.005287, 9.998038 
1.6751339e+3, 1.5398687e+2, -871585.44, -1365388.4, -40533.23, -0.01667843, -0.17998585, -868280.44, 562630.3, 0.0030147037, 10.004689, 9.998121 
1.6751322e+3, 1.6398478e+2, -876857.6, -1342615.8, -55588.383, -0.0030210754, -0.18989417, -870315.0, 462614.47, 0.00047529428, 10.004077, 9.997898 
1.6751298e+3, 1.7398266e+2, -874285.4, -1295804.9, -66976.24, -0.023060167, -0.1904184, -863899.3, 371051.16, 0.000011162444, 10.003442, 9.997853 
1.6751276e+3, 1.8398073e+2, -834973.7, -1169698.0, -79594.7, -0.022904316, -0.19056965, -817010.7, 319959.03, 0.0, 10.002794, 9.998358 
1.6751255e+3, 1.9397913e+2, -830525.6, -1112458.5, -75008.95, 0.003596841, -0.1956801, -811811.5, 227173.73, 0.0, 10.002133, 9.998397 
1.6751231e+3, 2.0397763e+2, -790130.75, -984592.06, -86116.0, 0.008473313, -0.2051021, -757477.75, 183521.48, 0.0, 10.001489, 9.998914 
1.6751201e+3, 2.1397643e+2, -780708.75, -924641.8, -85901.19, -0.01682696, -0.22593188, -740611.94, 102397.75, 0.0, 10.000859, 9.998956 
1.6751176e+3, 2.2397546e+2, -745776.9, -813882.94, -83897.82, -0.0124098165, -0.2315834, -689284.6, 55733.645, 0.0, 10.00024, 9.999342 
1.6751155e+3, 2.3397501e+2, -733979.4, -753909.44, -89305.17, 0.033536382, -0.22019598, -654085.0, -7062.139, 0.0, 9.999633, 9.999373 
1.675113e+3, 2.4397455e+2, -688742.5, -633009.94, -88468.47, 0.046484474, -0.21972075, -568122.8, -19095.27, 0.0, 9.999063, 9.9998045 
1.6751102e+3, 2.5397423e+2, -662190.25, -565284.9, -82596.33, 0.014933903, -0.24022512, -517978.4, -66947.45, 0.0, 9.998554, 9.999841 
1.675108e+3, 2.639743e+2, -630503.56, -468147.3, -64817.51, 0.030130008, -0.22774674, -445444.75, -92413.234, 0.0, 9.997967, 10.000117 
1.6751064e+3, 2.73975e+2, -634588.25, -417142.88, -68262.44, 0.103583016, -0.17454422, -397489.63, -142462.66, 0.0, 9.997257, 10.000136 
1.6751045e+3, 2.839757e+2, -588925.1, -290198.88, -52964.676, 0.09331848, -0.14088772, -281086.16, -124063.86, 0.0, 9.996664, 10.00062 
1.6751015e+3, 2.939765e+2, -540442.06, -205284.3, -53024.137, -0.012448898, -0.13351907, -197095.61, -138079.98, 0.0, 9.996278, 10.000716 
1.675101e+3, 3.0397704e+2, -506614.44, -66731.1, -24643.623, 0.10746074, -0.18636675, -65354.797, -65354.797, 0.0, 9.995757, 10.001584 
1.6751e+3, 3.1397936e+2, -621007.56, -101429.586, -20052.164, 0.121109076, -0.113739915, -100656.86, -100656.86, 0.0, 9.994885, 10.001765 
1.6851428e+3, 1.23995736e+2, -1015057.56, -1786834.1, -44395.137, -0.10821817, -0.15100257, -1012512.2, 712313.56, 0.03045941, 10.006774, 9.996241 
1.6851433e+3, 1.3399258e+2, -912294.94, -1601516.0, 62916.63, 0.040436417, -0.17148277, -906598.56, 720258.7, 0.019669615, 10.006361, 9.9970455 
1.6851404e+3, 1.4398982e+2, -835018.25, -1423040.4, 41.02796, -0.069989234, -0.1878568, -835018.25, 693865.2, 0.009839628, 10.005762, 9.997887 
1.6851386e+3, 1.5398774e+2, -856033.3, -1375294.9, -27532.725, -0.01631106, -0.19832592, -854577.5, 576323.3, 0.00327784, 10.004873, 9.997964 
1.6851364e+3, 1.639856e+2, -868631.56, -1333619.1, -54260.324, 0.0005961616, -0.20410967, -862383.75, 470536.1, 0.0005322266, 10.004112, 9.997943 
1.6851333e+3, 1.7398351e+2, -855024.9, -1278835.9, -37999.3, -0.026482724, -0.20876783, -851644.8, 383295.47, 0.000013439977, 10.003542, 9.99792 
1.6851303e+3, 1.8398158e+2, -823533.7, -1164810.4, -42570.996, -0.030381981, -0.21142127, -818303.5, 318655.94, 0.0, 10.002877, 9.998351 
1.6851276e+3, 1.9397998e+2, -842151.4, -1120222.6, -47806.957, -0.0040773456, -0.21589608, -834161.8, 204813.69, 0.0, 10.002064, 9.998377 
1.6851245e+3, 2.0397855e+2, -801188.5, -985534.8, -57117.145, 0.0013996033, -0.21893115, -784926.2, 156062.88, 0.0, 10.001395, 9.998952 
1.6851209e+3, 2.1397753e+2, -765999.75, -912364.6, -55735.293, -0.021721514, -0.22572058, -747192.56, 95805.15, 0.0, 10.00094, 9.999001 
1.6851178e+3, 2.2397658e+2, -732459.9, -812963.94, -55845.797, -0.017200224, -0.2304073, -703871.7, 41134.598, 0.0, 10.000358, 9.99929 
1.685115e+3, 2.3397589e+2, -745503.8, -766673.1, -55860.82, 0.02524522, -0.2357094, -699233.7, -52220.41, 0.0, 9.999587, 9.999307 
1.685112e+3, 2.4397539e+2, -705035.9, -642195.2, -49377.094, 0.037969816, -0.23581488, -615089.2, -66070.57, 0.0, 9.998959, 9.99979 
1.6851087e+3, 2.5397527e+2, -665144.06, -567930.94, -57500.246, 0.01139666, -0.23596205, -541245.56, -90225.18, 0.0, 9.998541, 9.999828 
1.6851059e+3, 2.6397535e+2, -618891.44, -456878.5, -51217.76, 0.026700536, -0.22474433, -442044.97, -89024.01, 0.0, 9.998024, 10.000167 
1.6851036e+3, 2.7397582e+2, -614920.4, -401467.56, -44934.78, 0.092000484, -0.19661818, -392393.88, -137376.0, 0.0, 9.997367, 10.00019 
1.685101e+3, 2.8397664e+2, -590312.5, -276509.63, -24010.102, 0.0771191, -0.15831245, -274683.2, -117671.66, 0.0, 9.996594, 10.000747 
1.6850974e+3, 2.9397786e+2, -618488.5, -227217.53, -27322.035, -0.023232117, -0.12259393, -225318.88, -166318.44, 0.0, 9.995677, 10.000854 
1.6850966e+3, 3.039779e+2, -603284.2, -126480.02, 514.715, 0.112045415, -0.23059373, -126479.47, -126479.47, 0.0, 9.9951515, 10.001466 
1.685095e+3, 3.1398043e+2, -602843.94, -90982.06, -15449.319, 0.12034602, -0.121631324, -90516.19, -90516.19, 0.0, 9.995003, 10.00178 
1.69515e+3, 1.23998135e+2, -1004667.7, -1764993.6, -66121.06, -0.06703962, -0.15642954, -998960.4, 725839.8, 0.032240216, 10.006785, 9.996387 
1.6951492e+3, 1.3399498e+2, -902959.6, -1582424.6, 47602.055, 0.010365886, -0.1912165, -899640.94, 727189.5, 0.02091353, 10.00637, 9.997176 
1.695146e+3, 1.43992e+2, -882067.5, -1521340.5, -31758.781, -0.10312664, -0.20460066, -880493.6, 648365.3, 0.010544604, 10.005767, 9.997205 
1.6951436e+3, 1.5398908e+2, -908884.9, -1487519.0, -60624.816, -0.020187581, -0.22136666, -902601.3, 528285.8, 0.0035635638, 10.004882, 9.9971895 
1.6951406e+3, 1.6398665e+2, -845570.2, -1288287.1, -76360.516, 0.01374572, -0.22910652, -832769.5, 500140.4, 0.0005959895, 10.004122, 9.998251 
1.695137e+3, 1.7398503e+2, -824492.8, -1216817.4, -59017.26, -0.01654034, -0.23025453, -815807.2, 419116.6, 0.000016339689, 10.003546, 9.998345 
1.6951331e+3, 1.839833e+2, -828857.06, -1176692.8, -72229.84, -0.03405207, -0.23240851, -814454.5, 322485.6, 0.0, 10.002879, 9.99827 
1.6951293e+3, 1.9398151e+2, -850993.6, -1140466.3, -77986.38, -0.035970155, -0.23978129, -831320.44, 207638.14, 0.0, 10.002069, 9.998236 
1.6951256e+3, 2.0398007e+2, -797955.06, -980746.4, -75079.61, -0.027857749, -0.23727019, -771070.94, 169901.83, 0.0, 10.001401, 9.998982 
1.6951221e+3, 2.1397927e+2, -762457.6, -905394.56, -72127.38, -0.003103001, -0.22681655, -732387.44, 110591.81, 0.0, 10.00094, 9.999049 
1.6951184e+3, 2.2397839e+2, -730581.4, -809589.56, -83250.695, 0.007882937, -0.23154293, -677937.5, 67049.85, 0.0, 10.000358, 9.999315 
1.6951142e+3, 2.3397745e+2, -743516.6, -764571.9, -83939.164, -0.0037555564, -0.26199916, -669447.5, -22451.096, 0.0, 9.999594, 9.999319 
1.6951105e+3, 2.4397694e+2, -716730.25, -668621.94, -65360.574, -0.00008015578, -0.2557037, -623029.8, -74027.62, 0.0, 9.998966, 9.999606 
1.6951074e+3, 2.539771e+2, -679227.56, -598063.2, -71842.53, 0.030935314, -0.20528947, -556133.2, -105130.914, 0.0, 9.998543, 9.999622 
1.6951041e+3, 2.6397708e+2, -607792.56, -434441.28, -73904.234, 0.054495916, -0.19914208, -407211.25, -54207.45, 0.0, 9.998024, 10.000321 
1.6951007e+3, 2.7397698e+2, -600871.44, -373922.53, -68480.84, 0.054060612, -0.25023928, -354859.9, -99854.805, 0.0, 9.997371, 10.000379 
1.6950971e+3, 2.8397793e+2, -583848.4, -264262.2, -56985.5, 0.037695784, -0.21181123, -254405.13, -97408.34, 0.0, 9.996597, 10.000831 
1.6950938e+3, 2.9398015e+2, -613900.94, -218322.63, -59508.285, 0.03386091, -0.080971904, -209564.47, -150587.98, 0.0, 9.995677, 10.0009165 
1.6950925e+3, 3.039798e+2, -617228.7, -156768.75, -5000.8105, 0.17390582, -0.22222504, -156714.44, -156714.44, 0.0, 9.995154, 10.001258 
1.6950892e+3, 3.1398177e+2, -586972.9, -60069.27, -37274.85, 0.045679666, -0.14998648, -57445.39, -57445.39, 0.0, 9.99501, 10.001989 
1.7051573e+3, 1.2400084e+2, -895626.44, -1719761.3, -53728.543, -0.056426674, -0.18897429, -892138.44, 832633.1, 0.034097143, 10.007615, 9.996297 
1.7051558e+3, 1.3399774e+2, -886036.06, -1587504.8, 45461.793, 0.0062365285, -0.2066209, -883102.0, 743699.75, 0.022219243, 10.0065565, 9.99705 
1.7051518e+3, 1.439948e+2, -898057.9, -1543741.6, -25317.555, -0.095031, -0.2030695, -897066.6, 631763.56, 0.01129314, 10.005724, 9.99707 
1.7051484e+3, 1.539916e+2, -872179.75, -1484807.0, -8446.509, -0.031145245, -0.23416854, -872063.3, 558798.0, 0.003873097, 10.005203, 9.997053 
1.7051448e+3, 1.6398896e+2, -794213.2, -1271947.6, -13151.898, -0.0009303978, -0.24921432, -793851.4, 539034.7, 0.00066751044, 10.004512, 9.998175 
1.7051405e+3, 1.7398733e+2, -825741.44, -1225660.0, -32606.42, -0.0131775895, -0.24605793, -823100.4, 411799.84, 0.000020052417, 10.003572, 9.998272 
1.7051362e+3, 1.8398558e+2, -836966.06, -1178012.8, -58715.035, -0.027467445, -0.24574605, -827140.7, 309775.75, 0.0, 10.002812, 9.998293 
1.7051314e+3, 1.9398382e+2, -812934.5, -1118273.1, -52235.617, -0.0478642, -0.25419217, -804245.6, 234688.8, 0.0, 10.002316, 9.998269 
1.7051269e+3, 2.0398238e+2, -761837.06, -964932.9, -45285.54, -0.044140577, -0.25427458, -752197.0, 188751.55, 0.0, 10.001658, 9.998966 
1.7051229e+3, 2.1398152e+2, -791486.6, -922343.44, -48423.18, -0.003561326, -0.24755998, -775516.75, 67439.04, 0.0, 10.000755, 9.999021 
1.7051187e+3, 2.2398058e+2, -772717.44, -835490.5, -60134.39, 0.011604372, -0.2523544, -736271.4, 8693.021, 0.0, 10.000095, 9.999263 
1.705114e+3, 2.3397964e+2, -718724.5, -758951.5, -66904.6, -0.012792449, -0.27737814, -668975.44, -22001.795, 0.0, 9.999793, 9.99926 
1.7051095e+3, 2.4397914e+2, -674498.6, -646602.7, -49652.49, -0.015381816, -0.2662993, -608976.25, -59996.926, 0.0, 9.999251, 9.9996195 
1.7051058e+3, 2.5397936e+2, -705647.44, -608376.06, -40456.246, 0.019172128, -0.21346724, -593749.25, -142770.28, 0.0, 9.998354, 9.99964 
1.7051019e+3, 2.6397935e+2, -662476.75, -447685.0, -32821.883, 0.04621789, -0.21202533, -442781.5, -89801.28, 0.0, 9.997595, 10.000437 
1.7050977e+3, 2.7397928e+2, -641888.9, -379784.06, -33005.574, 0.048498366, -0.2739372, -375691.72, -120710.89, 0.0, 9.997032, 10.000501 
1.7050935e+3, 2.839803e+2, -614904.5, -279747.53, -34892.81, 0.030344678, -0.23111232, -276153.4, -119182.086, 0.0, 9.996388, 10.000824 
1.7050892e+3, 2.9398265e+2, -620070.8, -226054.89, -43822.605, 0.019522578, -0.08561115, -221239.77, -162289.53, 0.0, 9.995658, 10.000872 
1.7050873e+3, 3.0398208e+2, -633520.06, -176472.53, 27582.625, 0.15796629, -0.24318816, -174813.95, -174813.95, 0.0, 9.995094, 10.00115 
1.7050843e+3, 3.1398404e+2, -610783.25, -20461.344, -12309.707, 0.06301739, -0.16339743, -20204.766, -20204.766, 0.0, 9.994631, 10.002442 
1.7151646e+3, 1.240039e+2, -919977.5, -1768317.1, -96097.53, -0.07906694, -0.24629526, -909228.06, 815511.25, 0.03602601, 10.00761, 9.995969 
1.7151625e+3, 1.3400088e+2, -912290.56, -1641942.9, 6805.0767, 0.025979435, -0.21796872, -912227.06, 714543.7, 0.023583703, 10.006562, 9.996669 
1.715158e+3, 1.439982e+2, -870599.3, -1487873.9, -46449.29, -0.048857953, -0.18483761, -867123.6, 661673.5, 0.012083934, 10.005733, 9.997454 
1.7151535e+3, 1.5399525e+2, -839033.1, -1417159.4, -28028.814, -0.0493147, -0.2379783, -837677.4, 593146.4, 0.0042067464, 10.005209, 9.997516 
1.7151488e+3, 1.6399255e+2, -824823.3, -1336934.0, -47204.016, -0.04240672, -0.26452708, -820508.6, 512340.03, 0.00074747484, 10.004517, 9.997727 
1.715144e+3, 1.7399041e+2, -863223.94, -1305735.3, -67758.09, -0.017051354, -0.25607416, -853081.2, 381788.44, 0.000024782255, 10.00358, 9.99772 
1.715139e+3, 1.8398845e+2, -827749.3, -1160979.8, -78613.07, -0.0123869525, -0.25197253, -810134.7, 326753.84, 0.0, 10.002819, 9.998407 
1.7151338e+3, 1.939869e+2, -799362.3, -1090928.8, -70276.08, -0.041254535, -0.25967014, -783307.7, 255595.44, 0.0, 10.002317, 9.998457 
1.7151286e+3, 2.0398542e+2, -766167.56, -974660.8, -77387.65, -0.04848148, -0.2694174, -740582.75, 200334.03, 0.0, 10.001659, 9.998899 
1.7151235e+3, 2.1398422e+2, -797366.9, -936948.75, -81784.555, -0.022285277, -0.28758466, -759642.75, 83284.805, 0.0, 10.000764, 9.998918 
1.7151186e+3, 2.2398314e+2, -781283.4, -855777.2, -72858.03, -0.005268345, -0.29273707, -736703.5, 8234.29, 0.0, 10.000104, 9.99912 
1.7151138e+3, 2.3398243e+2, -728847.3, -780145.3, -76853.81, -0.0038841013, -0.2815118, -673475.44, -26530.018, 0.0, 9.999792, 9.999117 
1.7151088e+3, 2.4398197e+2, -661114.4, -618376.44, -80039.516, -0.010307475, -0.26686507, -556902.44, -7951.875, 0.0, 9.999248, 9.999816 
1.7151037e+3, 2.5398198e+2, -688799.06, -575149.1, -72962.44, -0.02282822, -0.25929078, -539493.9, -88542.55, 0.0, 9.99836, 9.9998665 
1.715099e+3, 2.6398206e+2, -656293.1, -437352.03, -54192.227, 0.0035710807, -0.2624523, -424672.7, -71721.695, 0.0, 9.997603, 10.0005045 
1.715095e+3, 2.739826e+2, -638184.9, -372747.38, -53306.35, 0.0731554, -0.26841608, -362442.22, -107496.17, 0.0, 9.997032, 10.00055 
1.7150901e+3, 2.8398374e+2, -622425.25, -295154.03, -61117.473, 0.052531973, -0.21760298, -284112.94, -127176.71, 0.0, 9.996387, 10.00072 
1.7150842e+3, 2.9398528e+2, -629801.25, -248844.23, -68810.516, -0.064711265, -0.1362516, -236796.33, -177873.61, 0.0, 9.995667, 10.000711 
1.7150815e+3, 3.039846e+2, -633328.7, -179304.19, 10926.39, 0.06541905, -0.2893386, -179041.38, -179041.38, 0.0, 9.995106, 10.001127 
1.71508e+3, 3.1398702e+2, -565161.3, 75397.45, -46772.367, 0.17161357, -0.17117406, 78794.664, 78794.664, 0.0, 9.994624, 10.003105 
1.7251723e+3, 1.2400798e+2, -968235.5, -1780419.6, -86288.3, -0.06831819, -0.2544398, -959169.25, 765529.94, 0.03802146, 10.007232, 9.996067 
1.7251691e+3, 1.3400494e+2, -887662.6, -1623424.4, 49273.637, 0.010007047, -0.234753, -884377.44, 742353.06, 0.025002599, 10.00672, 9.99672 
1.7251639e+3, 1.4400238e+2, -821091.9, -1464631.3, 4777.2964, -0.04839426, -0.19091593, -821056.4, 707698.94, 0.0129141975, 10.006086, 9.997445 
1.7251588e+3, 1.5399952e+2, -829570.6, -1414652.9, -11787.799, -0.042048357, -0.2321686, -829333.25, 601447.9, 0.004563715, 10.005286, 9.997495 
1.7251535e+3, 1.6399679e+2, -835392.8, -1361463.0, -46628.406, -0.03881396, -0.254925, -831291.9, 501514.88, 0.00083628035, 10.004529, 9.997552 
1.7251475e+3, 1.7399436e+2, -840665.6, -1316425.6, -42206.848, -0.033399377, -0.25516933, -836950.25, 397880.63, 0.00003072843, 10.00383, 9.997525 
1.7251419e+3, 1.8399224e+2, -787941.4, -1138453.0, -36639.09, -0.028833587, -0.25846663, -784152.44, 352698.97, 0.0, 10.00308, 9.998435 
1.7251362e+3, 1.9399068e+2, -805538.5, -1088444.6, -38538.008, -0.028297238, -0.27024138, -800382.75, 238482.23, 0.0, 10.002254, 9.998505 
1.7251304e+3, 2.0398918e+2, -784316.9, -996737.3, -52686.832, -0.030420892, -0.27957478, -771966.94, 168911.66, 0.0, 10.001594, 9.998779 
1.7251244e+3, 2.139879e+2, -746586.25, -928353.3, -60987.176, -0.035260092, -0.2916695, -728020.0, 114870.97, 0.0, 10.001183, 9.998774 
1.7251186e+3, 2.2398677e+2, -715503.5, -817238.06, -48091.266, -0.027868794, -0.2974038, -696369.0, 48532.973, 0.0, 10.000528, 9.999179 
1.7251134e+3, 2.3398603e+2, -764171.1, -787697.3, -36419.08, -0.0044855447, -0.29590353, -737662.56, -90753.51, 0.0, 9.999513, 9.999198 
1.7251077e+3, 2.4398558e+2, -730388.7, -643129.25, -34117.63, -0.0049259895, -0.28861403, -631373.4, -82459.805, 0.0, 9.998738, 9.999889 
1.7251018e+3, 2.539856e+2, -690049.0, -568032.6, -39151.47, -0.03573488, -0.284501, -556550.56, -105637.04, 0.0, 9.998321, 9.999933 
1.7250966e+3, 2.6398578e+2, -643314.9, -432353.34, -33131.746, -0.017661793, -0.28497836, -427272.34, -74359.836, 0.0, 9.997701, 10.000491 
1.725092e+3, 2.739864e+2, -676162.5, -393647.63, -38825.832, 0.06011594, -0.28108537, -388408.94, -133501.95, 0.0, 9.996786, 10.000524 
1.7250863e+3, 2.839874e+2, -653561.3, -297879.66, -34638.313, 0.04841087, -0.2419069, -294537.78, -137639.98, 0.0, 9.996122, 10.000828 
1.7250799e+3, 2.9398873e+2, -603281.9, -226437.27, -22905.22, -0.06332997, -0.19806445, -225050.14, -166163.98, 0.0, 9.9958105, 10.000795 
1.7250764e+3, 3.039884e+2, -646935.9, -206848.95, 48675.594, 0.041896064, -0.30795336, -201529.52, -201529.52, 0.0, 9.995105, 10.000938 
1.7250744e+3, 3.139905e+2, -667348.7, 53386.33, -42647.566, 0.18210988, -0.20380561, 55901.11, 55901.11, 0.0, 9.993809, 10.003347 
1.7351799e+3, 1.24013096e+2, -937044.06, -1709893.4, -106774.2, -0.030419314, -0.21536848, -922563.8, 802087.2, 0.04008105, 10.007231, 9.996554 
1.7351751e+3, 1.340099e+2, -856393.9, -1558551.4, 29999.19, -0.04081899, -0.25705957, -855114.5, 771566.4, 0.026471572, 10.006728, 9.997174 
1.7351696e+3, 1.4400734e+2, -847394.94, -1520729.4, -24353.463, -0.09206748, -0.22014394, -846515.25, 682189.7, 0.013779759, 10.006096, 9.997051 
1.7351644e+3, 1.5400445e+2, -862973.2, -1485658.1, -41658.363, -0.01139409, -0.2169425, -860198.56, 570534.6, 0.004941865, 10.005292, 9.997005 
1.7351583e+3, 1.6400166e+2, -828866.56, -1349322.5, -72968.09, 0.0063643563, -0.22176905, -818830.0, 513930.25, 0.00093385985, 10.004534, 9.997635 
1.7351511e+3, 1.7399916e+2, -829394.6, -1295459.5, -68050.445, -0.062154144, -0.24432588, -819661.8, 415122.47, 0.00003807567, 10.003839, 9.997665 
1.7351444e+3, 1.839969e+2, -791046.44, -1147424.8, -66939.35, -0.07555738, -0.26509514, -778887.9, 357917.38, 0.0, 10.003089, 9.99837 
1.7351386e+3, 1.9399516e+2, -810565.25, -1101336.8, -69091.43, -0.009865149, -0.28606477, -794983.1, 243837.02, 0.0, 10.002261, 9.998413 
1.7351323e+3, 2.0399363e+2, -796420.44, -1023470.5, -69230.09, 0.008058506, -0.28559616, -776976.56, 163857.83, 0.0, 10.001599, 9.998594 
1.7351255e+3, 2.1399252e+2, -760700.3, -957404.44, -75329.18, -0.043548215, -0.2606435, -735166.9, 107679.49, 0.0, 10.00118, 9.998577 
1.735119e+3, 2.239914e+2, -698669.06, -781831.6, -83080.01, -0.056783427, -0.26667872, -647345.56, 97511.79, 0.0, 10.0005245, 9.999424 
1.7351128e+3, 2.3399039e+2, -743055.25, -745721.3, -73685.42, -0.014518654, -0.3207928, -670690.8, -23825.623, 0.0, 9.999518, 9.999484 
1.7351066e+3, 2.439899e+2, -732835.25, -650457.5, -51220.17, 0.00057410804, -0.3318092, -625919.44, -77050.27, 0.0, 9.998746, 9.999837 
1.7351003e+3, 2.5399023e+2, -696410.56, -581515.3, -53492.137, -0.02143536, -0.29017547, -560466.8, -109600.266, 0.0, 9.99832, 9.999843 
1.7350942e+3, 2.6399034e+2, -651651.0, -449293.25, -64667.676, -0.019583957, -0.2802123, -430392.66, -77527.086, 0.0, 9.997697, 10.000377 
1.7350881e+3, 2.7399054e+2, -683146.7, -410729.94, -72135.45, 0.008905344, -0.3097962, -392807.72, -137943.31, 0.0, 9.996796, 10.000402 
1.7350821e+3, 2.839913e+2, -629537.5, -251328.69, -47739.33, 0.018068342, -0.30245432, -245395.88, -88538.89, 0.0, 9.996135, 10.0011425 
1.7350765e+3, 2.9399282e+2, -580480.7, -179733.47, -33354.28, 0.021408547, -0.27357972, -176976.34, -118134.41, 0.0, 9.9958105, 10.001118 
1.7350718e+3, 3.0399337e+2, -672707.7, -259236.6, 4055.0452, 0.08332172, -0.29819265, -259196.83, -259196.83, 0.0, 9.995099, 10.000583 
1.7350672e+3, 3.139946e+2, -682954.4, 19334.629, -101112.35, 0.09417701, -0.2428039, 33602.453, 33602.453, 0.0, 9.993815, 10.00311 
1.7451872e+3, 1.2401905e+2, -911028.7, -1693845.1, -41707.54, -0.03979237, -0.20915747, -908812.8, 815779.8, 0.042201713, 10.00742, 9.996577 
1.7451818e+3, 1.340158e+2, -826874.44, -1548936.1, 61595.57, -0.053719837, -0.25224003, -821657.7, 804965.06, 0.027984608, 10.00697, 9.997125 
1.7451759e+3, 1.4401315e+2, -823782.25, -1522835.3, -17014.588, -0.0826734, -0.2158622, -823368.4, 705279.2, 0.014674861, 10.006328, 9.996923 
1.7451696e+3, 1.5400992e+2, -858085.9, -1498517.3, -11393.514, -0.016956195, -0.23148525, -857883.25, 572795.75, 0.0053378087, 10.005396, 9.996866 
1.7451629e+3, 1.6400701e+2, -815649.44, -1345240.0, -22699.982, -0.001233354, -0.24116209, -814678.2, 518029.22, 0.001039451, 10.004637, 9.997611 
1.7451553e+3, 1.7400464e+2, -786519.7, -1276201.3, -28836.613, -0.053010605, -0.24777217, -784827.44, 449902.63, 0.000046942965, 10.004141, 9.997651 
1.7451479e+3, 1.8400241e+2, -740946.7, -1135931.0, -44716.758, -0.063897505, -0.26041874, -735947.5, 400803.34, 0.0000000000000006446772, 10.0034895, 9.998256 
1.745141e+3, 1.940005e+2, -769393.75, -1095954.6, -51177.637, -0.01708342, -0.2855528, -761561.25, 277206.34, 0.0, 10.002609, 9.9982815 
1.7451338e+3, 2.0399886e+2, -779305.75, -1014467.1, -40534.59, -0.0005182205, -0.2874763, -772514.94, 168267.92, 0.0, 10.001716, 9.998598 
1.7451265e+3, 2.1399778e+2, -814365.7, -981057.06, -31299.055, -0.028004427, -0.26143992, -808682.56, 34112.11, 0.0, 10.000804, 9.998594 
1.7451194e+3, 2.239967e+2, -760285.9, -810257.1, -39993.434, -0.03946971, -0.2640189, -738114.8, 6690.3604, 0.0, 10.000098, 9.9994335 
1.7451122e+3, 2.3399578e+2, -718022.06, -733304.7, -51835.777, -0.027882623, -0.31207904, -673267.44, -26455.188, 0.0, 9.999691, 9.999485 
1.7451054e+3, 2.4399523e+2, -684117.25, -618900.0, -37211.563, -0.017870286, -0.32940304, -602031.1, -53215.035, 0.0, 9.999048, 9.999907 
1.7450987e+3, 2.5399542e+2, -729387.5, -588551.4, -28347.191, -0.008832681, -0.30970693, -583059.8, -132245.73, 0.0, 9.998059, 9.999918 
1.7450918e+3, 2.6399556e+2, -708979.75, -476634.75, -27369.576, -0.003733331, -0.30575088, -473454.22, -120641.516, 0.0, 9.997306, 10.000376 
1.7450848e+3, 2.739958e+2, -670454.94, -405777.1, -26589.578, -0.008867872, -0.32514042, -403132.3, -148321.97, 0.0, 9.996891, 10.000389 
1.7450783e+3, 2.8399646e+2, -615795.7, -240922.58, -9408.553, 0.0040384047, -0.3319074, -240686.6, -83882.43, 0.0, 9.996216, 10.001174 
1.7450723e+3, 2.939977e+2, -679586.25, -226016.25, -20300.584, 0.05552649, -0.33231226, -225109.45, -166317.72, 0.0, 9.995128, 10.001127 
1.7450665e+3, 3.03999e+2, -767315.6, -286279.3, 23151.197, 0.073529944, -0.29162, -285167.7, -285167.7, 0.0, 9.994372, 10.000746 
1.745061e+3, 3.1399977e+2, -624759.75, 52383.445, -43510.46, 0.067072086, -0.2970403, 55167.8, 55167.8, 0.0, 9.994194, 10.003154 
1.7551939e+3, 1.2402585e+2, -938630.2, -1754387.6, -60444.85, -0.09805321, -0.23393191, -934175.75, 790348.5, 0.04437479, 10.0074415, 9.996144 
1.7551892e+3, 1.3402261e+2, -863482.56, -1624088.1, 44807.78, -0.031153295, -0.22173584, -860852.0, 765704.2, 0.029533936, 10.006976, 9.9965925 
1.7551827e+3, 1.4401978e+2, -816191.75, -1506249.8, -49885.58, -0.023849133, -0.17981835, -812604.06, 715979.06, 0.015593463, 10.006329, 9.997041 
1.7551747e+3, 1.5401594e+2, -843241.8, -1470692.6, -46427.22, -0.05771135, -0.27442783, -839825.1, 590793.56, 0.005747811, 10.005409, 9.997052 
1.755167e+3, 1.640128e+2, -823100.7, -1364313.5, -42929.586, -0.059383847, -0.3100938, -819716.6, 512931.75, 0.0011516857, 10.004651, 9.997475 
1.7551598e+3, 1.740108e+2, -797959.4, -1301174.5, -47116.223, -0.0086884415, -0.26460803, -793585.9, 441082.47, 0.000057263936, 10.004145, 9.997479 
1.755152e+3, 1.8400872e+2, -752924.0, -1160877.5, -76006.28, 0.0016922394, -0.2452642, -739223.3, 397465.2, 0.0000000010737394, 10.003488, 9.998087 
1.7551433e+3, 1.9400665e+2, -781068.0, -1121290.4, -83451.945, -0.049115602, -0.26910862, -761700.9, 277006.66, 0.0, 10.002611, 9.998108 
1.755135e+3, 2.0400487e+2, -766471.94, -989200.44, -73918.95, -0.05393184, -0.28477886, -744172.4, 196551.9, 0.0, 10.001719, 9.998771 
1.7551278e+3, 2.1400365e+2, -798613.8, -950418.9, -64717.543, 0.00961164, -0.29357484, -774768.9, 67967.39, 0.0, 10.000811, 9.998802 
1.7551202e+3, 2.2400264e+2, -774968.4, -842616.56, -56260.086, 0.020854311, -0.2892441, -743147.44, 1598.5178, 0.0, 10.000105, 9.999209 
1.7551118e+3, 2.340021e+2, -737192.6, -773715.6, -65600.2, -0.044845946, -0.27090856, -687359.56, -40608.777, 0.0, 9.999691, 9.999208 
1.7551039e+3, 2.4400155e+2, -672206.8, -594147.44, -71237.625, -0.059693545, -0.28254148, -551948.3, -3193.2856, 0.0, 9.999046, 10.000078 
1.7550968e+3, 2.5400117e+2, -712967.94, -556409.44, -64510.582, 0.00043923073, -0.3418695, -533252.7, -82495.97, 0.0, 9.998065, 10.000136 
1.7550895e+3, 2.6400122e+2, -700231.3, -460617.28, -44247.887, 0.027483754, -0.36044735, -452707.44, -99952.77, 0.0, 9.9973135, 10.0004835 
1.7550819e+3, 2.7400208e+2, -664070.25, -392975.4, -40743.0, 0.005943598, -0.32958055, -386984.5, -132238.44, 0.0, 9.996891, 10.000478 
1.7550744e+3, 2.840027e+2, -634350.44, -279649.78, -47050.094, 0.006009222, -0.33251497, -273514.8, -116774.24, 0.0, 9.996214, 10.00091 
1.7550673e+3, 2.9400328e+2, -699033.9, -269959.44, -61518.094, 0.037152056, -0.3723416, -261313.58, -202577.17, 0.0, 9.995141, 10.00082 
1.7550603e+3, 3.0400512e+2, -717547.06, -185871.92, 13013.668, 0.0098962495, -0.28713596, -185553.58, -185553.58, 0.0, 9.994383, 10.0014305 
1.7550555e+3, 3.1400642e+2, -605924.25, 92881.44, -45434.492, 0.0954247, -0.3231434, 95823.086, 95823.086, 0.0, 9.994185, 10.003437 
1.7652017e+3, 1.2403336e+2, -825931.4, -1722686.3, -52285.234, -0.11172253, -0.2347489, -822893.2, 901556.4, 0.0465915, 10.008383, 9.995908 
1.765196e+3, 1.3402969e+2, -856138.56, -1656465.3, 65235.42, -0.04577003, -0.23361993, -850856.06, 775630.56, 0.031114224, 10.007196, 9.996264 
1.7651892e+3, 1.4402668e+2, -816015.3, -1502345.3, -18116.148, -0.015366386, -0.19242364, -815537.44, 712978.06, 0.016531447, 10.006322, 9.997069 
1.7651802e+3, 1.54023e+2, -764373.75, -1424453.9, -22780.78, -0.06738929, -0.27899617, -763588.5, 666960.5, 0.006168616, 10.005926, 9.99712 
1.7651717e+3, 1.640199e+2, -743747.75, -1331823.0, -27458.295, -0.07253625, -0.31206295, -742468.5, 590109.5, 0.0012689441, 10.005225, 9.997419 
1.765164e+3, 1.7401777e+2, -812363.25, -1315764.5, -25816.508, -0.0055189617, -0.27118585, -811042.75, 423556.28, 0.000068732064, 10.004081, 9.997408 
1.7651553e+3, 1.840156e+2, -806115.5, -1192263.4, -44279.945, 0.012297167, -0.2558479, -801103.0, 335517.28, 0.000000009428086, 10.00315, 9.998033 
1.7651458e+3, 1.9401345e+2, -796259.6, -1134492.6, -43746.06, -0.043374583, -0.28279942, -790693.25, 247947.17, 0.0, 10.002535, 9.998053 
1.765137e+3, 2.0401163e+2, -747869.44, -981033.56, -39041.746, -0.05091742, -0.2970423, -741505.9, 199151.67, 0.0, 10.001852, 9.998762 
1.7651288e+3, 2.1401048e+2, -762006.5, -933409.9, -46420.83, 0.012462321, -0.2973312, -750241.94, 92426.66, 0.0, 10.001067, 9.998795 
1.7651203e+3, 2.240095e+2, -750989.7, -830045.56, -31433.324, 0.027209336, -0.29022756, -740015.06, 4662.8223, 0.0, 10.000267, 9.999216 
1.7651114e+3, 2.3400891e+2, -772562.94, -789852.44, -20488.047, -0.029063988, -0.27888086, -758970.5, -112287.25, 0.0, 9.999447, 9.999214 
1.7651029e+3, 2.4400829e+2, -723227.25, -621040.1, -27642.213, -0.04488608, -0.2961541, -614042.0, -65353.867, 0.0, 9.998707, 10.000056 
1.7650948e+3, 2.5400785e+2, -712957.94, -559575.25, -39692.535, -0.0027007582, -0.35593045, -549912.3, -99222.17, 0.0, 9.998081, 10.000107 
1.7650867e+3, 2.64008e+2, -688828.8, -439240.28, -24722.506, 0.017088963, -0.37130794, -436815.0, -84128.016, 0.0, 9.997325, 10.000624 
1.7650785e+3, 2.7400902e+2, -727615.44, -405709.7, -16485.752, 0.008763115, -0.33785534, -404867.6, -150191.8, 0.0, 9.99638, 10.000635 
1.7650706e+3, 2.840096e+2, -710799.56, -323102.53, -12423.111, 0.018017974, -0.35028747, -322704.88, -166034.44, 0.0, 9.99572, 10.000848 
1.7650625e+3, 2.9400998e+2, -659247.3, -259513.23, -11759.984, 0.03991398, -0.4039657, -259167.56, -200498.52, 0.0, 9.995454, 10.00074 
1.7650543e+3, 3.0401218e+2, -653360.7, -102406.75, 57152.965, -0.03752515, -0.30415738, -96540.48, -96540.48, 0.0, 9.9946, 10.001897 
1.7650491e+3, 3.140139e+2, -780412.75, 4290.1523, -11032.324, 0.10615463, -0.34331033, 4445.2275, 4445.2275, 0.0, 9.993012, 10.003392 
1.7752104e+3, 1.2404165e+2, -834835.94, -1735243.1, -92904.35, -0.08792999, -0.21197261, -825349.94, 899018.3, 0.04885424, 10.00837, 9.9958315 
1.7752028e+3, 1.3403708e+2, -865565.4, -1677760.5, 21496.705, -0.09680082, -0.2851028, -864996.8, 761416.9, 0.032727126, 10.007212, 9.996111 
1.775195e+3, 1.4403391e+2, -817933.06, -1509763.5, -35637.637, -0.055543672, -0.25003743, -816102.1, 712342.25, 0.017488485, 10.006341, 9.99701 
1.7751864e+3, 1.5403107e+2, -768048.44, -1432132.3, -37176.93, -0.048109163, -0.24750422, -765973.7, 664496.5, 0.006598554, 10.005926, 9.997067 
1.7751773e+3, 1.6402823e+2, -743579.7, -1330726.6, -67593.13, -0.044017825, -0.2514704, -735898.8, 596597.75, 0.0013900076, 10.00522, 9.997431 
1.7751676e+3, 1.7402555e+2, -810085.2, -1313234.1, -68414.805, -0.04168929, -0.2683762, -800948.5, 433573.72, 0.00008093319, 10.004088, 9.997423 
1.7751582e+3, 1.84023e+2, -801510.4, -1185373.6, -68693.836, -0.029237537, -0.2906046, -789587.6, 346958.7, 0.000000028818846, 10.003159, 9.998076 
1.7751488e+3, 1.9402081e+2, -792226.3, -1127552.1, -66141.64, -0.0024633661, -0.32554427, -779651.7, 258915.06, 0.0, 10.002539, 9.998099 
1.7751393e+3, 2.0401911e+2, -760828.3, -1008834.6, -67286.72, 0.0042508603, -0.32392925, -743748.94, 196834.2, 0.0, 10.001854, 9.998571 
1.7751296e+3, 2.1401827e+2, -776685.25, -965425.75, -74828.81, -0.01827865, -0.27352342, -750618.4, 91973.63, 0.0, 10.001071, 9.998574 
1.77512e+3, 2.2401725e+2, -735019.3, -798342.25, -61098.125, -0.017838066, -0.2674509, -697866.3, 46735.08, 0.0, 10.000271, 9.9994335 
1.7751114e+3, 2.3401614e+2, -753213.4, -751174.9, -50345.75, 0.01707156, -0.33424592, -701838.06, -55227.84, 0.0, 9.999451, 9.999479 
1.7751023e+3, 2.4401538e+2, -737625.0, -652170.44, -51072.004, 0.022723874, -0.3684774, -628309.7, -79693.63, 0.0, 9.998711, 9.999842 
1.7750928e+3, 2.5401545e+2, -731625.2, -599677.8, -61996.563, -0.01735999, -0.35395527, -575119.2, -124503.95, 0.0, 9.998084, 9.999831 
1.7750835e+3, 2.6401576e+2, -676767.06, -415659.13, -58135.773, -0.032856375, -0.34073892, -403300.16, -50689.51, 0.0, 9.997329, 10.000785 
1.7750749e+3, 2.7401662e+2, -711242.6, -374284.25, -50867.535, -0.0039052116, -0.3482447, -366772.7, -112172.49, 0.0, 9.996388, 10.000849 
1.7750664e+3, 2.8401715e+2, -700300.6, -303237.47, -24256.004, 0.0355653, -0.38338566, -301761.2, -145166.77, 0.0, 9.995727, 10.000982 
1.7750582e+3, 2.940177e+2, -649143.7, -239350.73, -21948.635, 0.06534185, -0.42857513, -238178.52, -179587.77, 0.0, 9.995455, 10.000878 
1.7750485e+3, 3.0401993e+2, -636133.5, -66785.586, 1363.9259, -0.066590466, -0.34737185, -66782.32, -66782.32, 0.0, 9.994599, 10.002144 
1.775042e+3, 3.1402248e+2, -803071.3, -45791.3, -48816.254, 0.08681608, -0.32249287, -42657.445, -42657.445, 0.0, 9.993021, 10.003046 
1.7852186e+3, 1.2405039e+2, -875871.2, -1748662.3, -69376.42, -0.08311342, -0.20622244, -870391.0, 853891.9, 0.051178265, 10.008065, 9.995883 
1.7852099e+3, 1.3404574e+2, -789160.44, -1640771.6, 51309.83, -0.12689827, -0.28657326, -786080.1, 840248.4, 0.034380417, 10.007775, 9.996092 
1.7852017e+3, 1.4404248e+2, -719857.9, -1469256.4, -5568.5225, -0.064887404, -0.25477782, -719816.5, 808543.25, 0.018467715, 10.007067, 9.996942 
1.7851923e+3, 1.5403965e+2, -795869.0, -1453787.9, -9565.499, -0.035633013, -0.24290797, -795729.94, 634655.7, 0.0070382194, 10.0057745, 9.99699 
1.7851824e+3, 1.640368e+2, -802494.06, -1353387.9, -38551.656, -0.028200671, -0.2482038, -799809.3, 532602.94, 0.0015144872, 10.004794, 9.997479 
1.7851718e+3, 1.7403398e+2, -779068.9, -1291492.4, -36911.055, -0.04890302, -0.28261802, -776423.7, 458014.78, 0.00009353777, 10.004275, 9.997481 
1.7851613e+3, 1.840314e+2, -749490.94, -1170316.8, -39915.906, -0.038993414, -0.30832234, -745738.3, 390724.66, 0.0000000562377, 10.003562, 9.997984 
1.7851515e+3, 1.9402929e+2, -795972.56, -1141345.1, -49217.188, 0.014396228, -0.32551387, -789095.8, 249387.45, 0.0, 10.002567, 9.99799 
1.7851414e+3, 2.0402755e+2, -780481.8, -1019766.9, -47282.38, 0.029623708, -0.32059166, -771477.75, 169022.38, 0.0, 10.001727, 9.998556 
1.7851308e+3, 2.1402651e+2, -770880.06, -963421.94, -39974.0, -0.010926279, -0.28767365, -762910.8, 79599.54, 0.0, 10.001117, 9.998565 
1.7851205e+3, 2.240254e+2, -723141.44, -795497.44, -32759.455, -0.01867064, -0.28787124, -710513.4, 34006.953, 0.0, 10.000366, 9.999406 
1.7851108e+3, 2.3402435e+2, -761583.7, -758208.5, -44330.63, 0.023109667, -0.3446151, -715533.4, -69004.67, 0.0, 9.999408, 9.999451 
1.7851011e+3, 2.4402368e+2, -752131.9, -652757.6, -39067.87, 0.03362035, -0.37328506, -639237.9, -90703.94, 0.0, 9.998585, 9.999898 
1.7850909e+3, 2.5402376e+2, -746682.44, -600333.25, -25532.643, -0.005917435, -0.36029515, -596006.7, -145474.17, 0.0, 9.997953, 9.999889 
1.7850809e+3, 2.640241e+2, -686492.3, -416876.9, -21005.803, -0.0296549, -0.35437712, -415250.16, -62722.063, 0.0, 9.997247, 10.000815 
1.785071e+3, 2.740248e+2, -703794.44, -368061.63, -28069.861, -0.017817426, -0.37605566, -365730.97, -111212.1, 0.0, 9.996429, 10.000872 
1.785062e+3, 2.8402552e+2, -714811.6, -294425.34, -383.23688, 0.032276344, -0.4024568, -294424.97, -137913.55, 0.0, 9.995561, 10.001122 
1.7850536e+3, 2.940266e+2, -761990.5, -272765.4, 3129.549, 0.10300391, -0.4089298, -272745.38, -214243.39, 0.0, 9.994592, 10.001065 
1.7850427e+3, 3.040285e+2, -752424.8, -104460.164, 9993.566, -0.06563159, -0.3788112, -104306.07, -104306.07, 0.0, 9.993725, 10.002305 
1.7850347e+3, 3.1403136e+2, -788908.2, -55268.87, -19387.568, 0.05426013, -0.33582935, -54756.88, -54756.88, 0.0, 9.99319, 10.002899 
1.7952265e+3, 1.2405965e+2, -864405.5, -1724816.9, -78077.04, -0.10197645, -0.21440306, -857377.9, 866815.0, 0.05358327, 10.008088, 9.9960375 
1.7952177e+3, 1.3405561e+2, -784236.1, -1626989.5, 40615.297, -0.13704453, -0.24211267, -782283.25, 843948.2, 0.03608543, 10.007773, 9.996188 
1.795209e+3, 1.4405237e+2, -727948.9, -1482616.6, -50161.613, -0.044974063, -0.21131194, -724629.3, 803632.8, 0.01947513, 10.007057, 9.996855 
1.7951982e+3, 1.540488e+2, -802287.06, -1468928.6, -57564.55, -0.030786907, -0.2635523, -797352.9, 632942.44, 0.0074905045, 10.005782, 9.996884 
1.7951873e+3, 1.640456e+2, -795573.44, -1342584.9, -60113.39, -0.025481375, -0.29799518, -789045.25, 543279.7, 0.00164286, 10.004807, 9.997548 
1.7951763e+3, 1.7404309e+2, -771997.75, -1278684.1, -55683.793, -0.029361852, -0.3127982, -765950.4, 468397.63, 0.00010641075, 10.004281, 9.997568 
1.7951651e+3, 1.8404073e+2, -765078.5, -1203977.8, -75237.74, -0.019976288, -0.30999145, -752539.2, 383831.3, 0.000000085167756, 10.003566, 9.997753 
1.795154e+3, 1.9403878e+2, -813033.5, -1179579.9, -85658.21, 0.0078159105, -0.2849223, -794003.94, 244386.48, 0.0, 10.002577, 9.997724 
1.795143e+3, 2.0403686e+2, -769243.44, -998898.7, -70482.41, 0.026789492, -0.28865996, -749337.44, 191071.56, 0.0, 10.001736, 9.998697 
1.7951322e+3, 2.1403517e+2, -757874.0, -937197.75, -61677.176, 0.032219674, -0.3387158, -738708.8, 103715.22, 0.0, 10.001117, 9.998746 
1.7951213e+3, 2.2403395e+2, -741865.1, -834682.25, -66585.63, 0.021483447, -0.35003364, -707110.9, 37324.324, 0.0, 10.000365, 9.999139 
1.79511e+3, 2.3403352e+2, -783019.06, -804590.5, -79067.11, -0.009660799, -0.31223246, -714005.4, -67566.016, 0.0, 9.9994135, 9.999131 
1.7950992e+3, 2.440331e+2, -729506.44, -607490.2, -62588.36, -0.009837942, -0.31332517, -581095.25, -32652.717, 0.0, 9.9985895, 10.000208 
1.7950892e+3, 2.5403285e+2, -719578.7, -544944.3, -47848.637, 0.028429398, -0.37333554, -532693.5, -82251.04, 0.0, 9.997954, 10.00027 
1.7950787e+3, 2.640329e+2, -693477.1, -432133.88, -50236.805, 0.02267644, -0.41040924, -422809.75, -70369.805, 0.0, 9.997249, 10.000711 
1.7950673e+3, 2.7403355e+2, -714780.44, -393090.0, -57536.727, -0.031087466, -0.42428505, -383108.8, -128675.96, 0.0, 9.996436, 10.000698 
1.7950574e+3, 2.8403458e+2, -703318.06, -272576.1, -35434.85, 0.010350458, -0.40975666, -269680.5, -113258.15, 0.0, 9.995566, 10.001271 
1.7950487e+3, 2.9403663e+2, -745356.56, -239633.78, -33887.188, 0.14595483, -0.3424076, -237373.19, -178969.92, 0.0, 9.994595, 10.001292 
1.7950368e+3, 3.040378e+2, -748932.75, -97791.43, -13650.834, -0.04090959, -0.39923796, -97505.37, -97505.37, 0.0, 9.993726, 10.002351 
1.7950274e+3, 3.1404033e+2, -779695.06, -39462.383, -4755.862, 0.0029816292, -0.38970003, -39431.83, -39431.83, 0.0, 9.9932, 10.003004 
1.8052347e+3, 1.2406979e+2, -726471.1, -1653734.4, -39002.945, -0.12913278, -0.22746027, -724833.44, 999259.1, 0.05608586, 10.009097, 9.996064 
1.8052253e+3, 1.3406585e+2, -808020.7, -1640726.1, 66309.484, -0.13547021, -0.2443833, -802773.44, 823356.5, 0.037855007, 10.007627, 9.996165 
1.805216e+3, 1.4406252e+2, -798861.94, -1513052.5, -23942.93, -0.013799475, -0.22149651, -798060.2, 730101.06, 0.020518806, 10.006553, 9.996883 
1.805204e+3, 1.5405883e+2, -760477.56, -1445061.9, -22174.887, -0.043079466, -0.28860855, -759760.0, 670435.44, 0.007959509, 10.006062, 9.996912 
1.8051921e+3, 1.6405562e+2, -721259.3, -1313236.3, -20608.516, -0.047855623, -0.323426, -720542.75, 611682.6, 0.0017760895, 10.00535, 9.997487 
1.8051806e+3, 1.7405324e+2, -770111.9, -1285359.8, -27666.781, -0.016403653, -0.31693858, -768630.5, 465617.0, 0.000119601376, 10.00433, 9.997497 
1.805169e+3, 1.8405089e+2, -779390.06, -1214950.6, -47388.582, 0.0028887305, -0.30739745, -774293.9, 361976.28, 0.00000010947276, 10.003488, 9.997714 
1.8051568e+3, 1.9404875e+2, -767407.25, -1161609.5, -42241.863, 0.004692408, -0.2967156, -762931.5, 275360.28, 0.0, 10.002911, 9.9976845 
1.8051448e+3, 2.0404677e+2, -721550.9, -981528.06, -28934.674, 0.017321162, -0.30211255, -718369.44, 221941.64, 0.0, 10.0020895, 9.998644 
1.8051334e+3, 2.140452e+2, -791101.0, -958973.7, -38104.76, 0.044322137, -0.33591726, -782856.6, 59468.863, 0.0, 10.0009165, 9.998692 
1.8051216e+3, 2.2404397e+2, -791947.25, -858571.44, -37517.785, 0.038607296, -0.34540686, -775086.8, -30749.947, 0.0, 10.000022, 9.999139 
1.8051094e+3, 2.3404336e+2, -766373.0, -796533.44, -26762.576, -0.011243573, -0.3249773, -750734.4, -104391.98, 0.0, 9.999529, 9.99913 
1.8050979e+3, 2.440429e+2, -699865.7, -588963.44, -12578.657, -0.014723877, -0.32875752, -587554.7, -39209.082, 0.0, 9.998775, 10.000245 
1.8050872e+3, 2.5404286e+2, -762622.0, -560623.4, -23105.096, 0.04221151, -0.3721818, -558014.25, -107670.45, 0.0, 9.997639, 10.000314 
1.8050759e+3, 2.64043e+2, -773846.9, -471197.56, -30732.092, 0.04425478, -0.4033021, -468108.47, -115767.484, 0.0, 9.996699, 10.000708 
1.8050638e+3, 2.7404356e+2, -775201.8, -424308.7, -26935.406, -0.015867898, -0.42362294, -422253.1, -167917.81, 0.0, 9.99603, 10.000679 
1.8050529e+3, 2.8404468e+2, -726891.1, -272970.72, -3094.9438, 0.017522795, -0.40442616, -272949.63, -116625.58, 0.0, 9.9953575, 10.001369 
1.8050432e+3, 2.9404697e+2, -727532.25, -216053.14, -9538.742, 0.1406385, -0.32511646, -215875.31, -157573.66, 0.0, 9.994654, 10.001426 
1.8050304e+3, 3.0404767e+2, -763520.2, -117214.99, -105.69326, -0.045307145, -0.43130276, -117214.98, -117214.98, 0.0, 9.993683, 10.002237 
1.8050203e+3, 3.1405047e+2, -855036.5, -51044.58, 36275.254, -0.0012100128, -0.380815, -49411.2, -49411.2, 0.0, 9.992578, 10.003225 
1.8152435e+3, 1.2408081e+2, -737067.94, -1668634.1, -83423.45, -0.16679035, -0.24522099, -729656.2, 994325.9, 0.058696408, 10.009088, 9.995962 
1.8152331e+3, 1.3407646e+2, -817927.8, -1660622.1, 13510.776, -0.1258048, -0.2895661, -817711.25, 808312.5, 0.039700065, 10.007633, 9.996024 
1.815223e+3, 1.4407296e+2, -789137.94, -1495213.3, -44780.31, 0.024663744, -0.2803059, -786309.25, 741747.3, 0.021606995, 10.006568, 9.997003 
1.8152097e+3, 1.5406972e+2, -750026.7, -1424710.1, -40038.29, -0.07143511, -0.3177188, -747659.0, 682427.4, 0.00844944, 10.006068, 9.99705 
1.815197e+3, 1.6406676e+2, -734240.94, -1341103.8, -57017.547, -0.09356979, -0.32632312, -728930.4, 603183.9, 0.0019154476, 10.005353, 9.997295 
1.8151851e+3, 1.740644e+2, -784430.2, -1317321.4, -65349.87, -0.010225211, -0.29677194, -776533.2, 457604.25, 0.0001332784, 10.004337, 9.997275 
1.8151726e+3, 1.8406183e+2, -769294.2, -1196135.1, -69725.99, 0.028709052, -0.30107513, -758192.9, 377969.3, 0.00000012713075, 10.003494, 9.997841 
1.8151596e+3, 1.9405918e+2, -756072.1, -1138509.4, -62911.72, 0.004446997, -0.35829774, -745988.9, 292198.84, 0.0, 10.00291, 9.997846 
1.8151467e+3, 2.0405723e+2, -738730.7, -1017272.0, -70077.41, 0.00061872276, -0.3582419, -722093.8, 218113.08, 0.0, 10.002088, 9.998402 
1.8151341e+3, 2.1405648e+2, -809765.2, -1000190.8, -81001.81, 0.025902484, -0.28169423, -779970.9, 62244.65, 0.0, 10.000925, 9.998406 
1.8151216e+3, 2.2405533e+2, -773499.1, -822639.75, -57034.605, 0.033332046, -0.2772195, -735967.56, 8258.684, 0.0, 10.00003, 9.999384 
1.8151093e+3, 2.3405379e+2, -745221.0, -753302.25, -43770.004, 0.016576255, -0.3810823, -705305.5, -59067.17, 0.0, 9.999529, 9.999428 
1.8150969e+3, 2.4405308e+2, -716103.9, -623052.3, -52046.652, 0.01675255, -0.41693485, -599767.6, -51523.957, 0.0, 9.998774, 10.000013 
1.8150847e+3, 2.5405377e+2, -782084.9, -603168.94, -64738.137, 0.03574629, -0.358636, -582201.56, -131964.1, 0.0, 9.997645, 10.00002 
1.8150724e+3, 2.6405433e+2, -766438.9, -457359.06, -56363.176, 0.03604995, -0.33586934, -447401.56, -95169.445, 0.0, 9.996704, 10.000801 
1.8150602e+3, 2.7405483e+2, -765552.8, -404810.06, -50463.82, 0.024296694, -0.37324446, -397883.75, -143656.95, 0.0, 9.996031, 10.000814 
1.8150486e+3, 2.8405577e+2, -723063.3, -267027.13, -28230.678, 0.049732998, -0.3858929, -265286.16, -109069.055, 0.0, 9.995362, 10.00141 
1.8150373e+3, 2.940575e+2, -722886.1, -211189.22, -36910.098, 0.08869205, -0.35988906, -208540.5, -150342.2, 0.0, 9.994671, 10.001452 
1.8150239e+3, 3.0405802e+2, -782277.7, -158086.02, -43860.14, -0.074266054, -0.47480977, -155019.16, -155019.16, 0.0, 9.9936905, 10.001952 
1.815013e+3, 3.1406137e+2, -830648.94, -636.81647, 31631.502, 0.026653254, -0.33894157, 566.9044, 566.9044, 0.0, 9.992576, 10.003573 
1.8252526e+3, 1.24092646e+2, -765311.06, -1687478.0, -42762.563, -0.14224708, -0.28768, -763332.3, 960530.7, 0.06141969, 10.008933, 9.995899 
1.8252407e+3, 1.3408828e+2, -764204.44, -1642171.9, 50007.69, -0.14928208, -0.32523236, -761365.25, 864539.94, 0.04162688, 10.008073, 9.995939 
1.8252297e+3, 1.440847e+2, -714172.44, -1467073.4, 1449.9026, 0.0113092, -0.3150672, -714169.7, 813769.56, 0.022745756, 10.00714, 9.996923 
1.8252158e+3, 1.5408157e+2, -746265.0, -1431417.9, -7708.256, -0.06507728, -0.33316007, -746178.25, 683790.1, 0.008964126, 10.006137, 9.996969 
1.8252024e+3, 1.640786e+2, -752765.4, -1353862.5, -32200.707, -0.083092526, -0.33621347, -751045.3, 580951.4, 0.0020626092, 10.005246, 9.997258 
1.8251894e+3, 1.7407605e+2, -762044.5, -1310564.6, -28492.3, -0.016977018, -0.32039306, -760568.5, 473453.25, 0.0001476916, 10.004511, 9.997236 
1.8251762e+3, 1.840735e+2, -745717.9, -1178045.5, -27303.531, 0.018207248, -0.3257406, -744000.3, 392046.28, 0.00000013982877, 10.00363, 9.997898 
1.8251623e+3, 1.9407107e+2, -804912.56, -1154597.4, -27927.633, 0.008529749, -0.36559147, -802696.1, 235373.47, 0.0, 10.002545, 9.99791 
1.8251486e+3, 2.0406915e+2, -803276.94, -1063131.9, -34718.887, 0.007957274, -0.36003983, -798718.2, 141370.56, 0.0, 10.001711, 9.998267 
1.8251352e+3, 2.1406813e+2, -776006.5, -1001136.75, -37122.51, 0.021048242, -0.2945178, -770043.2, 72057.51, 0.0, 10.001233, 9.99825 
1.8251216e+3, 2.2406693e+2, -703700.3, -774751.4, -14044.643, 0.029653491, -0.29235116, -701024.9, 43087.254, 0.0, 10.000449, 9.999509 
1.8251088e+3, 2.3406562e+2, -779107.2, -751979.2, -11763.85, 0.03228543, -0.38676587, -747588.5, -101467.27, 0.0, 9.999224, 9.999583 
1.8250956e+3, 2.4406502e+2, -801471.0, -675469.1, -21950.51, 0.034712233, -0.417197, -671754.6, -123628.86, 0.0, 9.9982395, 9.999909 
1.8250823e+3, 2.5406557e+2, -798232.5, -626269.6, -23611.268, 0.03342131, -0.35806662, -623086.6, -172964.66, 0.0, 9.997601, 9.999883 
1.825069e+3, 2.6406613e+2, -745238.2, -446330.38, -9313.433, 0.032147042, -0.3272516, -446040.47, -93923.1, 0.0, 9.996846, 10.000808 
1.8250562e+3, 2.7406684e+2, -780743.5, -409508.5, -11890.283, 0.040732898, -0.34736747, -409128.03, -155017.61, 0.0, 9.995917, 10.000835 
1.825044e+3, 2.8406775e+2, -747044.5, -268860.63, 13360.856, 0.05910586, -0.36414063, -268487.6, -112386.98, 0.0, 9.995157, 10.001495 
1.8250318e+3, 2.9406926e+2, -730473.94, -204197.0, 7575.261, 0.065818995, -0.37027082, -204087.98, -146004.5, 0.0, 9.994574, 10.001548 
1.8250176e+3, 3.0407e+2, -821503.8, -201937.52, -17802.738, -0.04902344, -0.45638278, -201426.39, -201426.39, 0.0, 9.993531, 10.001727 
1.8250054e+3, 3.1407312e+2, -882205.9, -982.78705, 90181.78, 0.019921629, -0.3205428, 8151.47, 8151.47, 0.0, 9.992118, 10.003792 
1.8352623e+3, 1.24105304e+2, -770410.56, -1693354.4, -65739.31, -0.07084167, -0.35059214, -765751.56, 957983.7, 0.064261034, 10.008936, 9.995856 
1.8352482e+3, 1.3410124e+2, -768381.7, -1648618.3, 18487.795, -0.20230427, -0.35248688, -767993.56, 857781.3, 0.043640915, 10.008076, 9.9958935 
1.8352364e+3, 1.4409767e+2, -732863.2, -1505298.6, -35135.383, -0.047883295, -0.3284058, -731268.3, 796541.44, 0.023940638, 10.007144, 9.996655 
1.8352224e+3, 1.5409434e+2, -765913.25, -1473083.0, -44134.83, -0.027990008, -0.33642936, -763169.44, 666672.3, 0.009507792, 10.00614, 9.996683 
1.8352082e+3, 1.6409113e+2, -745824.56, -1340747.6, -59487.805, -0.022733143, -0.35272908, -739934.56, 591938.2, 0.0022198816, 10.005249, 9.997348 
1.8351938e+3, 1.7408822e+2, -752871.4, -1293018.8, -55098.73, -0.03661676, -0.3849101, -747308.2, 486592.4, 0.00016327499, 10.004515, 9.997356 
1.8351793e+3, 1.8408583e+2, -746302.3, -1180983.3, -66303.65, -0.02680059, -0.378653, -736413.7, 399510.0, 0.00000015219548, 10.003634, 9.997877 
1.835165e+3, 1.9408435e+2, -805304.6, -1158944.5, -67832.42, 0.016130196, -0.32173818, -792739.94, 245198.36, 0.0, 10.002558, 9.997874 
1.8351507e+3, 2.0408244e+2, -804619.4, -1069048.5, -53732.016, 0.037577227, -0.311264, -794118.06, 145839.44, 0.0, 10.001721, 9.998222 
1.8351364e+3, 2.1408011e+2, -779131.5, -1008272.0, -53638.207, 0.028710533, -0.37151077, -767197.2, 74784.33, 0.0, 10.001233, 9.998202 
1.8351223e+3, 2.2407871e+2, -703627.2, -774454.94, -56469.875, 0.026840722, -0.3866965, -672385.3, 71609.664, 0.0, 10.000446, 9.999514 
1.8351081e+3, 2.340788e+2, -777335.75, -750447.0, -56793.117, 0.035429582, -0.34404856, -705528.6, -59536.67, 0.0, 9.999229, 9.999592 
1.835094e+3, 2.4407859e+2, -799568.1, -673490.6, -46936.508, 0.039071735, -0.33316857, -657935.94, -109942.9, 0.0, 9.998245, 9.999922 
1.8350798e+3, 2.540782e+2, -796703.3, -624209.56, -46177.188, 0.03398085, -0.37011576, -612625.7, -162627.53, 0.0, 9.997603, 9.999897 
1.835066e+3, 2.6407838e+2, -751249.3, -460433.94, -42274.188, 0.031347785, -0.37563738, -454413.4, -102415.984, 0.0, 9.99685, 10.000711 
1.835052e+3, 2.7407947e+2, -787067.6, -425722.22, -45538.492, 0.03384064, -0.3458618, -420071.6, -166084.34, 0.0, 9.995927, 10.000721 
1.835039e+3, 2.840806e+2, -736102.5, -248126.78, -8853.858, 0.045905083, -0.34050828, -247966.19, -91990.51, 0.0, 9.995164, 10.001636 
1.8350263e+3, 2.940822e+2, -718644.8, -180316.19, -15705.528, 0.06761785, -0.35813218, -179858.38, -121900.1, 0.0, 9.994575, 10.001712 
1.835012e+3, 3.0408362e+2, -833488.06, -228198.89, -71243.125, 0.028119233, -0.37276846, -219926.56, -219926.56, 0.0, 9.993534, 10.001547 
1.8349971e+3, 3.1408572e+2, -880941.75, -3962.459, 55413.336, -0.019752137, -0.31873193, -474.94815, -474.94815, 0.0, 9.992137, 10.003764 
1.8452714e+3, 1.241192e+2, -734790.75, -1688689.4, -28270.61, -0.07355563, -0.3791677, -733953.6, 989642.7, 0.06722686, 10.009287, 9.995721 
1.8452562e+3, 1.3411516e+2, -767016.7, -1660931.4, 40931.977, -0.2118979, -0.36777982, -765146.4, 860490.2, 0.045750443, 10.008162, 9.995767 
1.8452434e+3, 1.4411148e+2, -738193.94, -1509356.3, -5921.7266, -0.04255153, -0.34509513, -738148.5, 789524.25, 0.025199087, 10.007126, 9.996634 
1.8452285e+3, 1.5410812e+2, -756045.3, -1469859.6, 3299.6628, -0.034862798, -0.35453847, -756030.06, 673675.0, 0.010085438, 10.006222, 9.996664 
1.8452133e+3, 1.6410491e+2, -737918.56, -1339162.3, -1064.677, -0.034351267, -0.36867377, -737916.7, 593819.44, 0.00238985, 10.005317, 9.997325 
1.8451981e+3, 1.7410205e+2, -769454.5, -1303612.4, -6837.435, -0.04610977, -0.3935168, -769367.0, 464396.53, 0.00018073102, 10.004415, 9.997331 
1.8451829e+3, 1.8409958e+2, -756976.94, -1199828.4, -28354.78, -0.03397887, -0.3882512, -755168.9, 380618.75, 0.00000016725622, 10.003623, 9.997751 
1.8451677e+3, 1.9409782e+2, -752077.1, -1148515.3, -38341.145, 0.012378423, -0.34378642, -748403.0, 289402.0, 0.0, 10.002992, 9.997735 
1.8451525e+3, 2.0409586e+2, -736862.7, -1023700.0, -23193.535, 0.036328133, -0.33705214, -734999.4, 204825.38, 0.0, 10.002134, 9.998333 
1.8451375e+3, 2.1409373e+2, -809797.5, -1008092.9, -10341.769, 0.028475398, -0.38884848, -809259.6, 32586.531, 0.0, 10.000961, 9.998333 
1.8451224e+3, 2.240924e+2, -775024.75, -826841.4, -13718.503, 0.026194278, -0.39792478, -771616.9, -27757.572, 0.0, 10.000036, 9.999351 
1.8451072e+3, 2.3409231e+2, -757369.0, -762904.44, -30050.828, 0.031665213, -0.3516869, -729958.7, -84099.56, 0.0, 9.999465, 9.999392 
1.8450923e+3, 2.4409212e+2, -727640.2, -627489.06, -24651.441, 0.034408104, -0.33504978, -621750.2, -73889.18, 0.0, 9.9986925, 10.000021 
1.8450776e+3, 2.5409192e+2, -785069.75, -603678.94, -15780.402, 0.035040677, -0.3639884, -602316.3, -152452.55, 0.0, 9.9976225, 10.000027 
1.8450627e+3, 2.6409218e+2, -779954.1, -479782.63, -5148.5317, 0.040014442, -0.3670921, -479694.34, -127832.11, 0.0, 9.99668, 10.000658 
1.845048e+3, 2.7409312e+2, -791644.7, -436002.0, -5486.0684, 0.04355816, -0.343702, -435917.38, -182063.95, 0.0, 9.995933, 10.000647 
1.8450339e+3, 2.8409415e+2, -752899.9, -254468.23, 28294.71, 0.035998967, -0.34527656, -252867.16, -97023.914, 0.0, 9.995044, 10.001649 
1.8450202e+3, 2.9409572e+2, -811021.8, -222077.83, 8076.584, 0.035297144, -0.36408445, -221967.1, -164140.4, 0.0, 9.993932, 10.001733 
1.8450058e+3, 3.040978e+2, -896071.2, -239509.63, -46991.39, 0.087683834, -0.32070705, -236163.4, -236163.4, 0.0, 9.993027, 10.001713 
1.8449894e+3, 3.1409925e+2, -839986.56, 20504.1, 109610.586, -0.021725144, -0.35045984, 34246.973, 34246.973, 0.0, 9.9924, 10.003804 
1.8552801e+3, 1.2413428e+2, -753230.75, -1718984.9, -57261.125, -0.14534622, -0.37805396, -749847.5, 973599.2, 0.07031522, 10.009278, 9.995503 
1.8552646e+3, 1.3412997e+2, -783687.4, -1691056.1, 898.40894, -0.18487743, -0.3725521, -783686.5, 841803.75, 0.04796085, 10.008152, 9.995565 
1.8552512e+3, 1.4412613e+2, -727285.1, -1484139.1, -38874.3, 0.01740815, -0.3645493, -725293.7, 802234.44, 0.026527923, 10.007121, 9.996815 
1.8552342e+3, 1.5412286e+2, -741280.1, -1439838.9, -29997.842, -0.08267879, -0.38610265, -739994.3, 689564.4, 0.010701843, 10.006227, 9.996869 
1.855218e+3, 1.6411985e+2, -745616.4, -1357980.4, -34850.01, -0.11189999, -0.38347995, -743639.4, 587948.0, 0.0025749484, 10.005326, 9.997192 
1.8552025e+3, 1.7411742e+2, -779159.7, -1326805.0, -40168.895, -0.046380635, -0.35042915, -776229.06, 457382.38, 0.00020094708, 10.004425, 9.997168 
1.8551868e+3, 1.8411462e+2, -772486.4, -1234428.1, -52211.1, -0.006937985, -0.35846123, -766658.75, 368980.3, 0.00000019488694, 10.003631, 9.997512 
1.8551706e+3, 1.9411148e+2, -769219.6, -1185200.1, -60685.086, -0.00281795, -0.42772973, -760547.44, 277122.44, 0.0, 10.002994, 9.997484 
1.8551545e+3, 2.0410937e+2, -718990.9, -987481.44, -64490.023, 0.0054533374, -0.43196744, -704304.06, 235386.56, 0.0, 10.002136, 9.998583 
1.8551384e+3, 2.141089e+2, -787432.4, -964314.1, -53518.16, 0.019982489, -0.34957045, -772500.25, 69195.375, 0.0, 10.00097, 9.998631 
1.8551224e+3, 2.2410783e+2, -797772.8, -876449.06, -36281.01, 0.027086023, -0.3308447, -783596.5, -39890.203, 0.0, 10.000044, 9.999007 
1.8551067e+3, 2.3410612e+2, -785798.7, -822917.1, -49922.977, 0.02100381, -0.40809393, -751096.8, -105373.47, 0.0, 9.999467, 9.9989805 
1.8550909e+3, 2.4410549e+2, -715463.25, -602614.1, -62059.887, 0.020459276, -0.4196031, -575162.8, -27432.877, 0.0, 9.998692, 10.000194 
1.855075e+3, 2.541066e+2, -767851.7, -569781.8, -55193.773, 0.035325382, -0.34001368, -555440.06, -105720.27, 0.0, 9.997627, 10.000258 
1.8550596e+3, 2.6410735e+2, -780643.06, -482682.63, -33813.227, 0.05761895, -0.30329174, -478893.63, -127180.7, 0.0, 9.996685, 10.000637 
1.8550444e+3, 2.7410766e+2, -793964.6, -442160.47, -32511.197, 0.06898878, -0.34161934, -439181.25, -185471.23, 0.0, 9.995936, 10.000604 
1.8550289e+3, 2.8410828e+2, -761101.25, -273094.38, -12006.569, 0.027577842, -0.3780322, -272799.16, -117094.85, 0.0, 9.995048, 10.00152 
1.8550134e+3, 2.941098e+2, -819364.9, -241946.67, -33811.152, -0.033057466, -0.3871491, -239973.58, -182283.8, 0.0, 9.993939, 10.001595 
1.8549992e+3, 3.041125e+2, -857644.8, -162847.05, -71664.086, 0.12998459, -0.30249885, -155532.36, -155532.36, 0.0, 9.993037, 10.002234 
1.8549822e+3, 3.141142e+2, -837323.2, 22632.623, 67609.48, 0.025849061, -0.35497263, 27915.605, 27915.605, 0.0, 9.992413, 10.003814 
1.8652894e+3, 1.2415014e+2, -790849.75, -1732388.3, -29176.133, -0.1302312, -0.3766087, -789946.5, 933343.7, 0.073512286, 10.009007, 9.99554 
1.8652727e+3, 1.3414569e+2, -805164.1, -1692014.6, 34555.61, -0.18282068, -0.3929893, -803819.75, 821514.8, 0.050267715, 10.007975, 9.995644 
1.8652584e+3, 1.4414176e+2, -739549.25, -1492348.6, 7829.8467, 0.022030843, -0.39539063, -739467.8, 787905.1, 0.027928205, 10.007057, 9.996787 
1.8652403e+3, 1.5413861e+2, -734616.56, -1440308.9, 1162.0387, -0.09782943, -0.40114474, -734614.6, 694787.94, 0.01135957, 10.006296, 9.996831 
1.8652232e+3, 1.641356e+2, -726582.4, -1358593.4, -12807.756, -0.13224801, -0.39261794, -726322.94, 605108.56, 0.0027771017, 10.005505, 9.997101 
1.865207e+3, 1.7413297e+2, -749297.8, -1323646.9, -15208.721, -0.05154836, -0.367268, -748895.4, 484561.9, 0.00022476069, 10.004682, 9.997065 
1.8651904e+3, 1.841301e+2, -747556.1, -1221129.6, -15341.665, -0.006603834, -0.37891948, -747059.6, 388426.13, 0.0000002490783, 10.0037985, 9.997521 
1.8651733e+3, 1.9412698e+2, -791959.8, -1194045.4, -4836.315, -0.011227641, -0.44620085, -791901.6, 245614.6, 0.0, 10.0028305, 9.9975 
1.8651564e+3, 2.0412487e+2, -750707.4, -1017032.94, -14651.717, -0.007941732, -0.4467495, -749903.75, 189633.61, 0.0, 10.001983, 9.998452 
1.8651395e+3, 2.141243e+2, -749025.94, -962108.56, -37349.137, 0.007756352, -0.35728943, -742669.06, 98874.56, 0.0, 10.001307, 9.998482 
1.8651226e+3, 2.2412321e+2, -738722.1, -841656.4, -23353.672, 0.021507896, -0.3369706, -733671.5, 9883.385, 0.0, 10.000425, 9.999062 
1.8651061e+3, 2.3412149e+2, -812386.7, -827750.3, -2348.8462, 0.027695175, -0.420644, -812035.6, -166463.88, 0.0, 9.999252, 9.999049 
1.8650894e+3, 2.4412085e+2, -784229.6, -647388.6, -4909.8994, 0.02705878, -0.43164867, -647212.7, -99634.055, 0.0, 9.998274, 10.000085 
1.8650727e+3, 2.5412196e+2, -787056.44, -593615.0, -25345.303, 0.029574636, -0.34134692, -590349.3, -140780.1, 0.0, 9.997562, 10.000124 
1.8650563e+3, 2.6412266e+2, -770845.75, -474611.13, -16608.021, 0.057774566, -0.3035003, -473682.94, -122119.914, 0.0, 9.99674, 10.000665 
1.8650404e+3, 2.741229e+2, -818382.06, -447663.03, -9543.951, 0.09023417, -0.35140592, -447417.5, -193857.17, 0.0, 9.995746, 10.000655 
1.8650238e+3, 2.8412357e+2, -815528.25, -302395.34, 10981.555, 0.032316227, -0.38262942, -302160.44, -146606.36, 0.0, 9.994691, 10.001489 
1.865007e+3, 2.941252e+2, -864163.2, -268780.97, -2427.227, -0.069418766, -0.3759392, -268771.06, -211231.81, 0.0, 9.993659, 10.001543 
1.8649927e+3, 3.041278e+2, -839454.1, -124501.79, -28369.445, 0.1695145, -0.3074629, -123377.85, -123377.85, 0.0, 9.993037, 10.002497 
1.8649748e+3, 3.141296e+2, -829148.0, 11918.926, 54730.21, 0.038114928, -0.38647395, 15465.3955, 15465.3955, 0.0, 9.992537, 10.003677 
1.875299e+3, 1.2416678e+2, -780391.56, -1700567.5, -53303.496, -0.045228332, -0.37377718, -777314.1, 945812.56, 0.076805696, 10.008993, 9.995778 
1.8752806e+3, 1.3416226e+2, -787140.56, -1648648.8, -2997.2751, -0.20359324, -0.42741328, -787130.1, 838039.75, 0.052662365, 10.007975, 9.995942 
1.875265e+3, 1.4415833e+2, -753837.75, -1521875.8, -20720.754, -0.023235133, -0.43627557, -753279.1, 773928.56, 0.029396184, 10.007065, 9.996576 
1.8752468e+3, 1.5415533e+2, -752474.56, -1477690.0, -26633.785, -0.08424945, -0.40140423, -751497.75, 677739.4, 0.012058871, 10.006297, 9.996576 
1.8752289e+3, 1.641521e+2, -731936.6, -1370175.5, -43019.234, -0.10192101, -0.3971743, -729050.06, 602218.5, 0.002997832, 10.005505, 9.997023 
1.8752116e+3, 1.7414875e+2, -753504.75, -1333921.4, -45199.188, -0.06216374, -0.439207, -750006.06, 483294.9, 0.0002529033, 10.004685, 9.996994 
1.875194e+3, 1.84146e+2, -729948.6, -1186405.5, -50483.605, -0.0316382, -0.44463468, -724431.9, 410896.0, 0.00000034740108, 10.003804, 9.997759 
1.8751761e+3, 1.9414423e+2, -771992.7, -1155069.9, -40765.695, -0.0139465695, -0.40361133, -767702.6, 269642.66, 0.0, 10.002838, 9.9977665 
1.8751584e+3, 2.041422e+2, -785427.1, -1091212.3, -40407.918, -0.005550348, -0.38752162, -780177.56, 159188.72, 0.0, 10.001988, 9.997942 
1.8751405e+3, 2.1413994e+2, -790089.25, -1048110.3, -60993.4, -0.00839189, -0.40966794, -776397.6, 64992.766, 0.0, 10.0013075, 9.997893 
1.875123e+3, 2.2413848e+2, -708501.0, -779206.4, -64360.816, 0.009378681, -0.41161838, -670422.56, 72982.64, 0.0, 10.000424, 9.999492 
1.8751055e+3, 2.3413834e+2, -774508.9, -750874.7, -45298.35, 0.049983006, -0.39111942, -715877.44, -70472.05, 0.0, 9.999257, 9.999576 
1.8750879e+3, 2.4413808e+2, -811175.7, -705541.9, -32243.168, 0.052984167, -0.37449268, -696477.9, -149069.7, 0.0, 9.998281, 9.999684 
1.87507e+3, 2.5413784e+2, -820969.25, -666546.8, -50744.664, 0.017258346, -0.36796445, -651364.4, -201951.5, 0.0, 9.99757, 9.999621 
1.8750529e+3, 2.6413795e+2, -765319.4, -465073.3, -52258.664, 0.039817855, -0.36638883, -456237.56, -104824.266, 0.0, 9.996746, 10.000729 
1.8750362e+3, 2.741387e+2, -807891.5, -428327.25, -47101.063, 0.10597315, -0.3735775, -422569.7, -169164.31, 0.0, 9.995753, 10.000786 
1.8750186e+3, 2.8413993e+2, -810890.44, -294362.34, -28672.152, 0.050010916, -0.3592237, -292775.66, -137382.05, 0.0, 9.994696, 10.001543 
1.8750004e+3, 2.9414186e+2, -861823.56, -265137.03, -37613.12, -0.073749706, -0.32827115, -262775.38, -205399.39, 0.0, 9.993661, 10.00157 
1.874986e+3, 3.0414367e+2, -838930.5, -126882.31, -43364.035, 0.2033782, -0.33990732, -124251.14, -124251.14, 0.0, 9.993048, 10.002478 
1.8749672e+3, 3.1414568e+2, -844144.75, -25063.588, -12083.51, 0.032302964, -0.38698575, -24885.363, -24885.363, 0.0, 9.992559, 10.003413 
1.8853082e+3, 1.2418417e+2, -816638.44, -1710493.6, -3119.1824, -0.021629112, -0.39699748, -816627.5, 906327.5, 0.08019992, 10.008723, 9.995833 
1.8852884e+3, 1.341798e+2, -781570.1, -1633689.8, 22472.586, -0.21312475, -0.4446024, -780977.9, 844018.44, 0.055142738, 10.007986, 9.996038 
1.8852718e+3, 1.4417589e+2, -747885.25, -1534048.4, 2200.0806, -0.036731638, -0.4504314, -747879.1, 779154.8, 0.030928718, 10.007187, 9.996431 
1.885253e+3, 1.5417269e+2, -760860.56, -1500619.1, 1178.2324, -0.08392769, -0.4196416, -760858.7, 668207.25, 0.01279897, 10.006327, 9.996403 
1.8852344e+3, 1.6416933e+2, -731565.94, -1363730.6, -8510.511, -0.09671476, -0.42046222, -731451.4, 599647.3, 0.0032380975, 10.005483, 9.997076 
1.8852161e+3, 1.7416598e+2, -753897.3, -1325977.6, -1274.1133, -0.06631672, -0.4689767, -753894.5, 479235.9, 0.0002859623, 10.00465, 9.997064 
1.8851976e+3, 1.8416327e+2, -735374.1, -1200819.4, -14911.743, -0.043504562, -0.46687233, -734896.9, 400259.97, 0.00000050489575, 10.00382, 9.99765 
1.885179e+3, 1.9416167e+2, -756818.9, -1162110.9, -34383.42, -0.030890165, -0.39844355, -753922.6, 283251.3, 0.0, 10.003007, 9.997635 
1.8851602e+3, 2.0415963e+2, -761172.8, -1065877.0, -28098.8, -0.020898458, -0.3790672, -758603.25, 180591.75, 0.0, 10.002099, 9.998061 
1.8851416e+3, 2.141572e+2, -816682.06, -1045436.1, 2716.0493, -0.013022592, -0.43284228, -816649.8, 24569.975, 0.0, 10.0010605, 9.99803 
1.8851231e+3, 2.241557e+2, -758029.9, -815830.9, 6319.7944, 0.010866845, -0.44084144, -757347.0, -14112.108, 0.0, 10.000142, 9.999374 
1.8851049e+3, 2.3415573e+2, -765030.2, -761758.3, -23897.4, 0.05155393, -0.38796312, -739440.94, -94206.61, 0.0, 9.9993925, 9.999434 
1.8850863e+3, 2.4415548e+2, -770353.5, -684628.06, -19420.326, 0.052312195, -0.3620088, -680433.75, -133196.52, 0.0, 9.998558, 9.999692 
1.8850675e+3, 2.54155e+2, -814798.94, -661506.56, -402.82397, 0.012054581, -0.38288838, -661505.5, -212261.75, 0.0, 9.997607, 9.999637 
1.8850495e+3, 2.641549e+2, -778335.1, -475863.4, 11379.864, 0.03958354, -0.39524287, -475435.88, -124190.28, 0.0, 9.99668, 10.000684 
1.885032e+3, 2.741558e+2, -809087.06, -434134.16, 1868.0219, 0.12054743, -0.3879719, -434124.84, -180887.3, 0.0, 9.995771, 10.000735 
1.8850134e+3, 2.8415725e+2, -796782.1, -279649.63, 9908.793, 0.06280653, -0.34910402, -279459.84, -124236.164, 0.0, 9.994762, 10.00161 
1.8849942e+3, 2.941594e+2, -852178.44, -255839.73, 7435.0864, -0.072916426, -0.30015585, -255747.05, -198543.77, 0.0, 9.993711, 10.001607 
1.8849792e+3, 3.0416062e+2, -849864.94, -153505.92, 13050.96, 0.20846647, -0.365548, -153261.4, -153261.4, 0.0, 9.993067, 10.002284 
1.88496e+3, 3.141627e+2, -860474.7, -36655.97, -21877.52, 0.049989607, -0.39207003, -36075.395, -36075.395, 0.0, 9.992469, 10.003374 
1.8953165e+3, 1.2420229e+2, -826290.1, -1725702.9, -17228.959, -0.058417153, -0.44447783, -825960.2, 896815.4, 0.08371279, 10.008731, 9.995719 
1.8952963e+3, 1.3419831e+2, -789738.0, -1646587.4, -3732.2014, -0.21358144, -0.4458849, -789721.75, 835092.06, 0.05771541, 10.007984, 9.995952 
1.8952791e+3, 1.4419441e+2, -756452.5, -1550221.5, -28730.877, -0.023338327, -0.440632, -755413.94, 771437.8, 0.03252605, 10.007185, 9.996324 
1.8952592e+3, 1.5419063e+2, -769015.75, -1518212.6, -30301.625, -0.096833795, -0.4540858, -767792.2, 661097.0, 0.0135788135, 10.00633, 9.996283 
1.8952398e+3, 1.6418724e+2, -719278.0, -1339256.3, -39108.6, -0.11548339, -0.4597815, -716820.75, 614101.3, 0.003497842, 10.0054865, 9.997244 
1.8952209e+3, 1.7418458e+2, -739782.0, -1297908.6, -32250.03, -0.065268315, -0.46040428, -737924.7, 495021.8, 0.0003242351, 10.004653, 9.997256 
1.8952014e+3, 1.8418184e+2, -766236.8, -1266204.0, -45294.848, -0.043968074, -0.45018357, -762166.44, 372807.22, 0.00000071254254, 10.003823, 9.997202 
1.8951817e+3, 1.9417928e+2, -792117.44, -1236448.6, -63441.81, -0.061537795, -0.42758197, -783236.7, 253765.55, 0.0, 10.003009, 9.997126 
1.895162e+3, 2.041772e+2, -711590.25, -963972.9, -64976.594, -0.053186104, -0.41667932, -695844.25, 243179.17, 0.0, 10.002101, 9.998762 
1.8951426e+3, 2.1417598e+2, -759525.9, -928249.6, -35421.24, -0.007875757, -0.42884544, -752391.4, 88641.56, 0.0, 10.001063, 9.998834 
1.8951234e+3, 2.2417471e+2, -802583.75, -910316.94, -22296.81, 0.02437384, -0.42823303, -798151.5, -55106.21, 0.0, 10.000147, 9.998725 
1.895104e+3, 2.3417361e+2, -819556.1, -876827.4, -50733.37, 0.032648552, -0.41001004, -789934.8, -144875.67, 0.0, 9.999397, 9.998643 
1.8950845e+3, 2.4417305e+2, -741868.4, -627002.4, -53335.92, 0.025643041, -0.3915849, -606056.4, -58990.203, 0.0, 9.998562, 10.000088 
1.8950652e+3, 2.541733e+2, -778237.4, -587409.6, -35051.1, 0.013308852, -0.38678616, -581175.2, -132112.42, 0.0, 9.997612, 10.000144 
1.8950464e+3, 2.6417354e+2, -788648.44, -499303.28, -22058.316, 0.056386538, -0.39146256, -497631.34, -146570.28, 0.0, 9.996686, 10.000523 
1.8950279e+3, 2.7417403e+2, -824467.7, -469220.8, -32568.166, 0.13155372, -0.3949892, -466259.75, -213201.88, 0.0, 9.995782, 10.000491 
1.8950082e+3, 2.8417546e+2, -790492.5, -268685.28, -29781.813, 0.0693107, -0.35210466, -266991.0, -111945.78, 0.0, 9.994769, 10.001683 
1.894988e+3, 2.9417783e+2, -848399.75, -250341.94, -27080.9, -0.06547005, -0.29268208, -249118.17, -192095.9, 0.0, 9.993718, 10.001643 
1.8949719e+3, 3.0417857e+2, -876348.1, -211880.02, -4771.1206, 0.18190871, -0.3846243, -211845.77, -211845.77, 0.0, 9.993077, 10.001881 
1.894953e+3, 3.141805e+2, -842496.2, -1925.5405, -94454.19, 0.09907235, -0.38883877, 8557.456, 8557.456, 0.0, 9.992477, 10.003611 
1.9053255e+3, 1.2422154e+2, -785475.5, -1714362.4, 15594.192, -0.04888112, -0.4524193, -785213.75, 937372.7, 0.087350756, 10.009116, 9.995616 
1.9053043e+3, 1.3421763e+2, -782456.2, -1650929.0, 16194.945, -0.2122068, -0.43712404, -782154.3, 842470.4, 0.06038231, 10.008098, 9.995866 
1.9052863e+3, 1.4421378e+2, -759332.06, -1548226.1, -2439.045, -0.023892716, -0.4244561, -759324.5, 767337.9, 0.03418655, 10.007164, 9.9963455 
1.9052655e+3, 1.5420982e+2, -768495.6, -1514247.8, 6039.851, -0.092289194, -0.4585051, -768446.7, 660254.2, 0.014395301, 10.006326, 9.99631 
1.9052452e+3, 1.6420639e+2, -725527.1, -1351137.9, -4524.603, -0.11132139, -0.46624467, -725494.4, 605239.6, 0.003775206, 10.005487, 9.99716 
1.9052254e+3, 1.7420384e+2, -745169.3, -1311469.1, -19301.803, -0.07014556, -0.44417503, -744512.2, 488245.78, 0.0003674547, 10.004666, 9.997156 
1.9052052e+3, 1.8420106e+2, -766266.1, -1258441.5, -28824.656, -0.0517322, -0.43610108, -764583.75, 370201.84, 0.0000009489517, 10.003792, 9.997269 
1.9051844e+3, 1.941982e+2, -811127.4, -1236816.6, -6386.347, -0.063768424, -0.44921717, -811031.6, 225784.53, 0.0, 10.002843, 9.997202 
1.905164e+3, 2.0419614e+2, -728174.1, -966450.3, -8125.191, -0.056299794, -0.4439195, -727897.44, 210939.53, 0.0, 10.001966, 9.998808 
1.9051437e+3, 2.1419531e+2, -737745.7, -912821.8, -34358.145, -0.02052042, -0.42055428, -731244.44, 109598.25, 0.0, 10.001195, 9.998875 
1.9051236e+3, 2.2419411e+2, -781395.06, -905353.6, -30324.629, 0.009138598, -0.41291815, -774374.25, -31519.85, 0.0, 10.000319, 9.998675 
1.9051033e+3, 2.3419262e+2, -837834.4, -892633.56, -6622.8022, 0.02403024, -0.42704746, -837045.3, -192173.25, 0.0, 9.999305, 9.998578 
1.905083e+3, 2.4419194e+2, -767010.0, -629091.7, 7837.6704, 0.025857553, -0.42034528, -628647.75, -81767.6, 0.0, 9.998349, 10.0001745 
1.9050628e+3, 2.541925e+2, -792005.44, -582700.7, -4330.492, 0.025837537, -0.39673632, -582611.1, -133737.5, 0.0, 9.997472, 10.000242 
1.9050431e+3, 2.641929e+2, -800057.44, -496859.78, 145.54997, 0.062923536, -0.3901872, -496859.7, -145989.88, 0.0, 9.996577, 10.00059 
1.9050235e+3, 2.7419347e+2, -838255.9, -468900.78, 10501.517, 0.10994975, -0.3974351, -468602.44, -215735.97, 0.0, 9.995661, 10.00055 
1.9050029e+3, 2.8419477e+2, -793463.4, -259954.34, 21769.777, 0.059200015, -0.37102357, -259067.52, -104212.77, 0.0, 9.994708, 10.001771 
1.904982e+3, 2.94197e+2, -851565.0, -248578.61, 25989.148, -0.019030182, -0.3341235, -247460.53, -190627.58, 0.0, 9.993687, 10.001669 
1.9049647e+3, 3.0419803e+2, -910551.7, -240387.28, 74578.734, 0.16946042, -0.38709992, -232188.16, -232188.16, 0.0, 9.992898, 10.00177 
1.9049454e+3, 3.1419986e+2, -859060.3, 22250.479, -31742.611, 0.11957418, -0.39386988, 23392.29, 23392.29, 0.0, 9.99223, 10.003894 
1.915335e+3, 1.2424185e+2, -795717.3, -1729348.5, -7415.864, -0.0041991784, -0.42860645, -795658.4, 926729.9, 0.091085866, 10.009117, 9.995509 
1.9153124e+3, 1.342378e+2, -791107.0, -1666042.3, -19449.738, -0.21108957, -0.41933885, -790674.8, 833754.06, 0.06312538, 10.0081, 9.995763 
1.9152933e+3, 1.4423397e+2, -750970.5, -1528542.9, -32750.945, -0.038359098, -0.40189087, -749593.5, 776872.5, 0.03589906, 10.007167, 9.996481 
1.915272e+3, 1.5423019e+2, -757215.56, -1491115.3, -24748.012, -0.07248976, -0.43580428, -756382.0, 672119.56, 0.015241232, 10.006331, 9.996468 
1.9152509e+3, 1.6422668e+2, -748042.2, -1399944.1, -34803.35, -0.08694077, -0.44345847, -746189.4, 584345.94, 0.004066341, 10.005493, 9.996824 
1.9152299e+3, 1.7422375e+2, -771991.56, -1367801.8, -48751.02, -0.08133916, -0.420522, -768029.0, 464535.75, 0.00041479338, 10.004665, 9.996772 
1.9152087e+3, 1.8422091e+2, -728888.94, -1181094.4, -62818.19, -0.06725442, -0.42344254, -720324.75, 414267.97, 0.0000012308058, 10.00379, 9.997803 
1.9151875e+3, 1.9421838e+2, -767800.94, -1148259.5, -41477.242, -0.04047257, -0.4642688, -763331.6, 273285.03, 0.0, 10.002847, 9.997809 
1.9151661e+3, 2.0421635e+2, -768344.44, -1051847.3, -36897.89, -0.032894474, -0.46222275, -763620.9, 175015.84, 0.0, 10.001971, 9.99822 
1.9151445e+3, 2.1421514e+2, -785819.8, -1013822.75, -61669.457, -0.05055506, -0.40743142, -770208.56, 70440.83, 0.0, 10.001197, 9.998182 
1.9151235e+3, 2.2421388e+2, -744399.6, -829719.44, -66224.695, -0.033640288, -0.39364588, -708284.06, 34378.36, 0.0, 10.00032, 9.999195 
1.9151026e+3, 2.342127e+2, -793297.1, -801609.06, -43535.96, 0.024690429, -0.439946, -753719.2, -109045.19, 0.0, 9.999308, 9.999204 
1.9150816e+3, 2.4421206e+2, -782502.9, -663026.75, -24557.105, 0.05144985, -0.44945812, -658176.25, -111495.94, 0.0, 9.998354, 9.99994 
1.9150606e+3, 2.5421244e+2, -812980.4, -628578.3, -36264.684, 0.04745065, -0.41222188, -621702.8, -173025.63, 0.0, 9.9974785, 9.999926 
1.9150396e+3, 2.64213e+2, -778442.1, -454444.7, -33599.26, 0.05786943, -0.39019915, -450997.06, -100324.4, 0.0, 9.996584, 10.000879 
1.9150186e+3, 2.7421388e+2, -812572.94, -418234.9, -23204.18, 0.056168504, -0.39643997, -416874.2, -164209.7, 0.0, 9.995668, 10.000896 
1.9149972e+3, 2.8421503e+2, -785780.2, -246249.78, -15831.429, 0.03343401, -0.40799248, -245785.64, -91132.27, 0.0, 9.994715, 10.0018635 
1.9149767e+3, 2.9421675e+2, -849301.75, -248020.2, -10212.445, 0.064378835, -0.42650312, -247846.8, -191210.33, 0.0, 9.993701, 10.001667 
1.9149576e+3, 3.04219e+2, -896618.1, -215119.34, 51832.19, 0.16636142, -0.36695474, -211199.73, -211199.73, 0.0, 9.99291, 10.00194 
1.9149373e+3, 3.142209e+2, -838509.5, 63547.54, -71759.98, 0.09463688, -0.3894353, 69220.48, 69220.48, 0.0, 9.992232, 10.004179 
1.9253442e+3, 1.24262996e+2, -790616.3, -1728064.0, 29726.467, -0.005230582, -0.4132839, -789674.6, 932507.3, 0.09485681, 10.009202, 9.995476 
1.9253206e+3, 1.3425885e+2, -793592.9, -1670956.0, 10000.522, -0.1944706, -0.4074511, -793478.9, 830744.75, 0.06590443, 10.008123, 9.995716 
1.9253007e+3, 1.4425507e+2, -746417.75, -1523744.4, 5748.078, -0.025196085, -0.3848754, -746375.25, 779885.1, 0.037640505, 10.007206, 9.996493 
1.9252785e+3, 1.5425123e+2, -730065.5, -1475984.1, 4180.568, -0.06956745, -0.42356148, -730042.06, 698253.7, 0.016104756, 10.006521, 9.996478 
1.9252564e+3, 1.6424765e+2, -728453.6, -1393334.9, -9539.697, -0.08595677, -0.4377033, -728316.8, 602013.25, 0.0043660533, 10.005645, 9.996795 
1.9252345e+3, 1.742446e+2, -798103.5, -1383995.8, -566.8551, -0.07312011, -0.4242745, -798102.94, 434258.06, 0.00046514938, 10.004505, 9.996736 
1.9252126e+3, 1.842418e+2, -753475.2, -1180331.1, -8989.274, -0.05835452, -0.42534384, -753286.0, 381102.38, 0.0000016219694, 10.003571, 9.997911 
1.9251904e+3, 1.9423954e+2, -749555.44, -1126511.6, -22688.932, -0.038771126, -0.44971153, -748194.7, 288214.16, 0.0, 10.002918, 9.997923 
1.9251682e+3, 2.0423748e+2, -758134.6, -1058220.0, -25350.621, -0.033357363, -0.45255342, -756008.1, 182420.81, 0.0, 10.002093, 9.998116 
1.9251457e+3, 2.1423583e+2, -817777.1, -1043452.3, -11308.223, -0.04756455, -0.42963013, -817211.9, 23234.588, 0.0, 10.001042, 9.998052 
1.9251235e+3, 2.2423449e+2, -764568.25, -819919.8, -5407.2856, -0.031634074, -0.4210058, -764044.94, -21585.107, 0.0, 10.000101, 9.999367 
1.9251019e+3, 2.3423378e+2, -778966.5, -772671.56, -13810.281, 0.02178887, -0.4398731, -761654.6, -117188.664, 0.0, 9.999313, 9.999398 
1.92508e+3, 2.4423328e+2, -772997.06, -660258.94, -6029.9, 0.04762775, -0.4477364, -659937.3, -113466.6, 0.0, 9.99843, 9.999921 
1.9250579e+3, 2.5423333e+2, -825428.4, -639353.25, 1056.5931, 0.044568136, -0.43740314, -639347.25, -190876.17, 0.0, 9.997417, 9.99988 
1.925036e+3, 2.6423386e+2, -797093.06, -451986.53, 7482.914, 0.049509298, -0.41692814, -451824.34, -101357.82, 0.0, 9.99641, 10.000978 
1.9250141e+3, 2.7423507e+2, -841691.1, -419352.13, 738.5508, 0.043130483, -0.40195647, -419350.8, -166896.08, 0.0, 9.995417, 10.001008 
1.924992e+3, 2.8423613e+2, -800603.56, -252363.58, -371.65152, 0.04007182, -0.4294976, -252363.33, -97918.98, 0.0, 9.994613, 10.001869 
1.9249709e+3, 2.9423752e+2, -806530.2, -227594.2, 750.7785, 0.10133599, -0.48329693, -227593.23, -171162.16, 0.0, 9.9939995, 10.001661 
1.92495e+3, 3.0424052e+2, -846909.4, -142308.13, 69292.66, 0.12320964, -0.3641516, -135558.33, -135558.33, 0.0, 9.993044, 10.002373 
1.9249296e+3, 3.1424245e+2, -926813.06, 15851.479, -37252.867, 0.12824473, -0.42948878, 17321.371, 17321.371, 0.0, 9.991651, 10.00413 
1.9353528e+3, 1.2428492e+2, -792514.94, -1724181.0, 3544.7954, -0.050214656, -0.40866503, -792501.44, 929466.56, 0.09859746, 10.009202, 9.995502 
1.9353291e+3, 1.3428079e+2, -795303.56, -1671162.8, -28195.326, -0.16480114, -0.40059087, -794396.8, 829612.3, 0.068673104, 10.008129, 9.995713 
1.9353081e+3, 1.44277e+2, -754945.5, -1541259.8, -19705.273, 0.011112323, -0.37320226, -754452.0, 771593.8, 0.039383523, 10.007212, 9.996372 
1.9352849e+3, 1.5427294e+2, -740297.6, -1496274.9, -20268.807, -0.08327527, -0.42051277, -739754.56, 688329.0, 0.016972916, 10.006517, 9.996343 
1.9352618e+3, 1.6426928e+2, -712090.9, -1358903.4, -50368.414, -0.10726266, -0.44662622, -708192.06, 621926.25, 0.004669581, 10.005642, 9.997035 
1.9352393e+3, 1.7426631e+2, -777537.0, -1344395.5, -42934.0, -0.04764984, -0.45299926, -774303.6, 457843.75, 0.00051758316, 10.004517, 9.997004 
1.9352163e+3, 1.8426365e+2, -772291.8, -1223343.6, -34246.7, -0.027644942, -0.44078058, -769706.4, 364467.0, 0.000002197494, 10.003585, 9.997611 
1.9351931e+3, 1.9426163e+2, -773036.5, -1176791.4, -45674.508, -0.057855397, -0.40710646, -767934.06, 268258.97, 0.0, 10.002922, 9.997578 
1.93517e+3, 2.0425944e+2, -734799.06, -1010661.8, -62511.816, -0.056606125, -0.41648924, -721294.7, 216919.44, 0.0, 10.002094, 9.998445 
1.935147e+3, 2.1425727e+2, -790507.56, -988078.8, -49619.563, -0.0140483845, -0.48552006, -778745.94, 61488.766, 0.0, 10.001044, 9.998432 
1.935124e+3, 2.242559e+2, -775527.25, -844754.6, -34714.188, 0.012064307, -0.49274683, -761118.6, -18871.08, 0.0, 10.000107, 9.999195 
1.935101e+3, 2.3425584e+2, -793411.06, -804420.4, -41915.273, 0.014005371, -0.42636463, -756640.56, -112391.94, 0.0, 9.999318, 9.999179 
1.935078e+3, 2.4425547e+2, -760140.44, -635622.06, -42557.57, 0.0144243995, -0.41536948, -622466.75, -76214.56, 0.0, 9.998436, 10.00009 
1.9350551e+3, 2.5425503e+2, -809927.94, -609749.25, -36301.516, 0.01786593, -0.47394896, -603369.5, -155113.1, 0.0, 9.997425, 10.000081 
1.9350322e+3, 2.6425543e+2, -803074.06, -466203.63, -29575.104, 0.038421176, -0.47110024, -463626.84, -113374.29, 0.0, 9.996415, 10.000879 
1.9350097e+3, 2.7425694e+2, -850430.6, -439433.63, -35468.83, 0.06768357, -0.41231525, -436395.16, -184157.06, 0.0, 9.995421, 10.00087 
1.934987e+3, 2.8425798e+2, -805566.7, -265822.0, -23807.934, 0.0758244, -0.43410563, -264773.88, -110545.24, 0.0, 9.994621, 10.001775 
1.9349647e+3, 2.9425907e+2, -804294.0, -229061.14, -22290.254, 0.09105031, -0.5065636, -228198.69, -171980.52, 0.0, 9.99402, 10.001644 
1.9349425e+3, 3.0426255e+2, -794580.8, -36999.83, 19259.729, 0.041705284, -0.38249865, -36510.51, -36510.51, 0.0, 9.993056, 10.003092 
1.934922e+3, 3.1426492e+2, -952778.44, -39283.613, -61866.746, 0.19182335, -0.46905813, -35112.71, -35112.71, 0.0, 9.9916525, 10.003753 
1.9453622e+3, 1.2430772e+2, -782190.2, -1713266.4, 30152.387, -0.043531902, -0.39105025, -781214.75, 940530.9, 0.1022709, 10.0092945, 9.995539 
1.9453374e+3, 1.3430345e+2, -771762.4, -1659163.3, -12604.53, -0.15406331, -0.39645085, -771583.4, 852204.3, 0.071402416, 10.008329, 9.995697 
1.9453155e+3, 1.4429963e+2, -736735.9, -1529648.4, 5211.7944, 0.011941529, -0.3731744, -736701.6, 789122.9, 0.041109618, 10.007347, 9.996385 
1.9452913e+3, 1.5429553e+2, -768004.1, -1507429.3, 14473.848, -0.076204956, -0.42441785, -767720.94, 660141.5, 0.017837035, 10.006323, 9.996358 
1.9452675e+3, 1.642919e+2, -733711.3, -1362874.8, -16019.897, -0.09871274, -0.45012274, -733303.7, 596593.06, 0.0049740244, 10.005472, 9.997087 
1.945244e+3, 1.7428902e+2, -723951.25, -1312250.0, -24296.885, -0.044064585, -0.45121482, -722949.5, 508975.13, 0.0005714894, 10.004862, 9.997056 
1.9452202e+3, 1.8428636e+2, -708673.4, -1193082.1, -15796.414, -0.024466295, -0.44131672, -708158.8, 425791.66, 0.0000030051335, 10.004026, 9.997604 
1.9451961e+3, 1.9428422e+2, -777988.6, -1180344.9, -4680.1055, -0.049838986, -0.41930106, -777934.2, 258037.06, 0.0, 10.002897, 9.997563 
1.9451721e+3, 2.0428206e+2, -753625.1, -1010564.7, -17669.473, -0.0476563, -0.4279127, -752415.7, 185576.16, 0.0, 10.001929, 9.998522 
1.9451483e+3, 2.142801e+2, -765300.44, -966529.8, -26783.082, -0.008760823, -0.48126534, -761796.7, 78213.31, 0.0, 10.00118, 9.998513 
1.9451243e+3, 2.2427875e+2, -749117.3, -832973.94, -19012.178, 0.013101139, -0.49379003, -745008.2, -2985.4502, 0.0, 10.000296, 9.999183 
1.9451003e+3, 2.3427832e+2, -806953.2, -813268.8, -13000.195, 0.010335998, -0.45866734, -796732.8, -152706.36, 0.0, 9.99924, 9.999154 
1.9450763e+3, 2.4427792e+2, -777345.5, -637048.1, -9395.557, 0.011338672, -0.452065, -636421.7, -90391.53, 0.0, 9.998292, 10.000147 
1.9450524e+3, 2.5427786e+2, -796402.25, -596196.8, -13165.013, 0.020196777, -0.4809906, -595334.8, -147303.48, 0.0, 9.99749, 10.000141 
1.9450288e+3, 2.642783e+2, -769935.3, -453719.4, -11493.229, 0.0357838, -0.4752638, -453302.22, -103275.09, 0.0, 9.996661, 10.000845 
1.945005e+3, 2.7427948e+2, -804568.5, -422724.7, -12229.082, 0.05488638, -0.44714049, -422333.44, -170317.75, 0.0, 9.995765, 10.000816 
1.9449817e+3, 2.8428045e+2, -792819.75, -266813.5, 6461.589, 0.07501493, -0.4646288, -266734.13, -112727.695, 0.0, 9.994743, 10.001707 
1.9449587e+3, 2.94282e+2, -865754.44, -255542.36, 9991.806, 0.11067612, -0.48689598, -255378.78, -199386.69, 0.0, 9.993589, 10.001668 
1.9449349e+3, 3.0428496e+2, -832411.8, -24162.805, 30238.83, 0.022502067, -0.4292218, -23033.066, -23033.066, 0.0, 9.992667, 10.0033655 
1.9449139e+3, 3.1428802e+2, -933606.44, -74818.36, -53497.906, 0.20649864, -0.46763757, -71498.555, -71498.555, 0.0, 9.991981, 10.003349 
1.955372e+3, 1.2433136e+2, -785010.5, -1710352.1, 6586.5034, 0.0013048679, -0.3656303, -784963.6, 936551.8, 0.10588653, 10.009287, 9.995565 
1.9553456e+3, 1.3432682e+2, -776279.25, -1665280.8, -45730.18, -0.16054113, -0.39424422, -773933.06, 849626.4, 0.07409733, 10.008332, 9.995656 
1.9553223e+3, 1.443229e+2, -728895.4, -1512545.9, -30804.148, -0.018320475, -0.38254657, -727686.4, 797910.06, 0.042820267, 10.007355, 9.996504 
1.9552979e+3, 1.5431896e+2, -758632.4, -1488105.1, -22948.121, -0.051463917, -0.43446052, -757911.2, 669721.56, 0.018696932, 10.006328, 9.99649 
1.9552733e+3, 1.6431545e+2, -742321.1, -1382113.3, -39235.41, -0.064529434, -0.4488613, -739924.0, 589741.94, 0.005278761, 10.005475, 9.996955 
1.9552487e+3, 1.7431268e+2, -734525.2, -1335125.9, -46046.023, -0.061032403, -0.42145842, -731015.5, 500677.72, 0.0006264808, 10.004862, 9.996901 
1.955224e+3, 1.8430988e+2, -690850.7, -1156725.3, -55719.773, -0.047075536, -0.4284275, -684279.1, 449440.9, 0.000004035541, 10.004026, 9.997856 
1.9551992e+3, 1.9430727e+2, -757826.2, -1139759.1, -46135.938, -0.017372733, -0.4823935, -752332.2, 283411.63, 0.0, 10.002899, 9.997842 
1.9551744e+3, 2.0430526e+2, -764905.75, -1036129.2, -45860.086, -0.009596503, -0.4830238, -757361.3, 180401.44, 0.0, 10.001935, 9.998345 
1.9551492e+3, 2.1430427e+2, -779181.56, -996935.0, -53412.76, -0.031206572, -0.41939944, -766785.6, 72987.766, 0.0, 10.0011835, 9.998304 
1.9551241e+3, 2.2430289e+2, -739425.4, -814652.3, -56722.96, -0.02690458, -0.42790627, -708978.06, 32808.17, 0.0, 10.000299, 9.999309 
1.9550996e+3, 2.3430118e+2, -795883.06, -791928.1, -51565.652, 0.010713649, -0.53602207, -742302.06, -98501.805, 0.0, 9.999244, 9.999301 
1.9550748e+3, 2.4430059e+2, -780757.94, -646178.3, -39203.53, 0.03718301, -0.5552763, -635591.06, -89785.62, 0.0, 9.998298, 10.000083 
1.9550502e+3, 2.5430167e+2, -801203.0, -608483.6, -42186.742, 0.04844781, -0.45762232, -599653.44, -151856.7, 0.0, 9.997497, 10.000055 
1.9550253e+3, 2.643023e+2, -768332.8, -452566.25, -44242.26, 0.03934702, -0.42972773, -446484.56, -96693.305, 0.0, 9.996667, 10.000853 
1.9550003e+3, 2.7430242e+2, -801832.3, -421164.56, -45735.38, 0.004617775, -0.5098167, -415746.78, -163957.7, 0.0, 9.995778, 10.000823 
1.954976e+3, 2.8430343e+2, -794144.94, -272678.94, -37575.02, 0.037950713, -0.52202076, -269985.34, -116206.25, 0.0, 9.994754, 10.001663 
1.9549528e+3, 2.943062e+2, -861557.1, -247620.75, -33084.234, 0.15759742, -0.41951126, -245843.03, -190089.45, 0.0, 9.993589, 10.001724 
1.954928e+3, 3.0430764e+2, -847376.5, -56293.99, 3029.8281, 0.06638, -0.5092356, -56282.387, -56282.387, 0.0, 9.992669, 10.003146 
1.9549052e+3, 3.1431115e+2, -951754.9, -122271.11, -37454.8, 0.15260285, -0.4667564, -120583.3, -120583.3, 0.0, 9.992018, 10.003007 
1.9653812e+3, 1.24355845e+2, -798725.25, -1708539.8, 48584.66, 0.01107785, -0.35300776, -796138.1, 925138.0, 0.10948685, 10.009181, 9.995629 
1.9653541e+3, 1.3435115e+2, -773582.7, -1662617.1, -8476.647, -0.14217123, -0.39532444, -773501.9, 849819.2, 0.07678895, 10.008376, 9.995651 
1.9653298e+3, 1.443472e+2, -714116.8, -1499716.1, 982.79236, -0.015684776, -0.38838094, -714115.6, 811242.56, 0.044532694, 10.007454, 9.996545 
1.9653042e+3, 1.5434341e+2, -745324.1, -1476769.3, 1475.0251, -0.04540246, -0.4279924, -745321.2, 682071.94, 0.01955871, 10.006409, 9.996526 
1.9652788e+3, 1.6433993e+2, -740812.0, -1381502.4, -1980.9967, -0.056673095, -0.44031072, -740805.9, 588620.2, 0.0055844923, 10.005492, 9.996949 
1.9652534e+3, 1.7433703e+2, -753662.5, -1344684.0, 1438.2574, -0.055493116, -0.425206, -753659.0, 477795.56, 0.00068210036, 10.004737, 9.996893 
1.9652279e+3, 1.8433422e+2, -704503.7, -1154455.5, -21532.377, -0.040019367, -0.4377662, -703475.6, 430005.88, 0.000005227078, 10.003899, 9.99793 
1.9652022e+3, 1.9433169e+2, -744904.6, -1124793.0, -27860.191, -0.0021473237, -0.4880192, -742872.3, 292631.66, 0.0, 10.0029545, 9.997916 
1.9651765e+3, 2.0432976e+2, -752323.4, -1031727.94, -22557.012, 0.005033001, -0.4859771, -750514.0, 187008.14, 0.0, 10.002032, 9.998327 
1.9651502e+3, 2.1432874e+2, -787261.0, -1003525.9, -17747.117, -0.030135406, -0.42149854, -785814.3, 53718.613, 0.0, 10.001143, 9.998276 
1.9651243e+3, 2.2432731e+2, -741917.44, -807259.75, -21599.03, -0.032251857, -0.4353613, -735423.3, 6122.738, 0.0, 10.00025, 9.999381 
1.9650988e+3, 2.3432554e+2, -774483.1, -772614.3, -22332.988, 0.009955143, -0.55592936, -751196.2, -107636.04, 0.0, 9.999354, 9.999378 
1.9650732e+3, 2.4432498e+2, -764870.1, -642612.3, -8621.864, 0.039890856, -0.5736587, -642007.25, -96442.34, 0.0, 9.998427, 10.000043 
1.9650477e+3, 2.5432622e+2, -811439.94, -618475.5, -9929.356, 0.052328903, -0.45894235, -617965.9, -170410.67, 0.0, 9.997455, 10.000004 
1.965022e+3, 2.6432678e+2, -779319.06, -447015.53, -6655.0215, 0.040135406, -0.4394686, -446882.3, -97331.945, 0.0, 9.99655, 10.000944 
1.964996e+3, 2.7432665e+2, -804998.44, -411468.2, -2209.6274, -0.00043649063, -0.55008125, -411455.78, -159905.88, 0.0, 9.995712, 10.000919 
1.9649707e+3, 2.8432792e+2, -801421.4, -289022.13, -1972.1823, 0.03252005, -0.53759235, -289014.53, -135476.69, 0.0, 9.994762, 10.001545 
1.9649462e+3, 2.9433116e+2, -852505.8, -253095.52, -4166.422, 0.1528276, -0.36919302, -253066.56, -197558.33, 0.0, 9.993699, 10.001631 
1.9649209e+3, 3.0433154e+2, -868994.1, -108545.14, 25792.445, 0.08243652, -0.54848766, -107671.336, -107671.336, 0.0, 9.992703, 10.002768 
1.9648969e+3, 3.1433555e+2, -960129.8, -85971.75, 15691.275, 0.12976769, -0.4167318, -85690.18, -85690.18, 0.0, 9.99179, 10.003365 
1.9753902e+3, 1.24381155e+2, -792421.25, -1695212.4, 28190.242, -0.011058403, -0.35176006, -791541.9, 929486.2, 0.11311667, 10.009214, 9.995718 
1.9753629e+3, 1.3437642e+2, -775258.06, -1660247.1, -35848.895, -0.10410448, -0.39931446, -773808.25, 849264.56, 0.07950757, 10.00837, 9.995672 
1.9753376e+3, 1.4437246e+2, -720715.06, -1508835.6, -34597.1, 0.012987719, -0.3912178, -719199.25, 805910.9, 0.046262905, 10.007443, 9.996487 
1.9753106e+3, 1.5436885e+2, -749029.0, -1486481.9, -35567.39, -0.05615624, -0.40625647, -747317.56, 679826.5, 0.020428214, 10.006419, 9.996457 
1.975284e+3, 1.6436532e+2, -732018.06, -1366515.4, -30044.238, -0.0721058, -0.42481387, -730598.6, 598578.94, 0.0058921245, 10.005505, 9.997048 
1.9752584e+3, 1.7436205e+2, -746014.3, -1329291.8, -25754.148, -0.030534163, -0.45959738, -744879.4, 486329.66, 0.0007378473, 10.004737, 9.997001 
1.9752322e+3, 1.8435928e+2, -711932.4, -1170062.9, -55330.504, -0.0072203665, -0.46699807, -705344.56, 427890.75, 0.0000064841056, 10.003896, 9.997826 
1.9752052e+3, 1.9435742e+2, -752342.0, -1142193.0, -61839.168, -0.0034092348, -0.43964747, -742768.0, 292484.47, 0.0, 10.002959, 9.997796 
1.9751783e+3, 2.0435542e+2, -743075.25, -1015086.2, -54615.227, -0.0023196137, -0.44096926, -732519.06, 204751.9, 0.0, 10.00204, 9.99844 
1.9751516e+3, 2.1435346e+2, -778149.6, -985675.1, -49429.227, -0.007280596, -0.48465022, -766977.8, 72311.484, 0.0, 10.001144, 9.9984 
1.9751248e+3, 2.2435197e+2, -740542.56, -806080.3, -53807.11, -0.0054931333, -0.5115986, -710311.4, 30991.172, 0.0, 10.000254, 9.99939 
1.975098e+3, 2.3435134e+2, -773457.06, -772723.4, -54641.99, 0.006200119, -0.5197532, -718447.0, -75139.83, 0.0, 9.999361, 9.999375 
1.9750714e+3, 2.4435103e+2, -766204.8, -647708.2, -44376.06, 0.019143416, -0.5098693, -632932.25, -87622.59, 0.0, 9.998434, 10.000007 
1.9750449e+3, 2.5435132e+2, -812840.44, -624211.6, -45791.43, 0.03180606, -0.4856442, -613683.0, -166375.16, 0.0, 9.997463, 9.999963 
1.9750184e+3, 2.6435158e+2, -765988.56, -422085.66, -38420.707, 0.03803385, -0.5037852, -417845.6, -68540.016, 0.0, 9.996558, 10.001113 
1.974992e+3, 2.7435207e+2, -791566.75, -385895.0, -34201.65, 0.038529564, -0.56766564, -383031.72, -131732.53, 0.0, 9.995718, 10.001094 
1.9749656e+3, 2.8435376e+2, -816177.5, -321124.22, -41925.2, 0.05702523, -0.51070327, -317598.75, -164314.95, 0.0, 9.994766, 10.001325 
1.9749393e+3, 2.9435685e+2, -869101.56, -292690.34, -43175.85, 0.09084052, -0.33849865, -289474.22, -234216.44, 0.0, 9.993717, 10.001352 
1.9749135e+3, 3.043565e+2, -906008.94, -190736.2, -13446.474, 0.07022374, -0.54427993, -190483.52, -190483.52, 0.0, 9.992723, 10.002196 
1.9748887e+3, 3.1435993e+2, -885664.0, 65299.887, 18.901503, 0.1431556, -0.4149589, 65299.887, 65299.887, 0.0, 9.9918, 10.004401 
1.9853994e+3, 1.24407515e+2, -713905.2, -1652654.8, 72364.56, -0.03958463, -0.36871243, -708359.6, 1012408.6, 0.116798095, 10.009845, 9.995744 
1.9853714e+3, 1.344028e+2, -787822.6, -1669801.6, 144.14705, -0.074519105, -0.41012248, -787822.56, 834990.44, 0.08226361, 10.008317, 9.99563 
1.985345e+3, 1.4439873e+2, -758988.2, -1533532.4, 13921.02, 0.037994, -0.40786722, -758738.06, 766113.7, 0.04801436, 10.007211, 9.996423 
1.985317e+3, 1.5439516e+2, -728132.94, -1483314.0, 13619.68, -0.053495675, -0.4115693, -727887.4, 698998.6, 0.021306328, 10.006607, 9.996386 
1.9852896e+3, 1.6439168e+2, -691822.7, -1339509.4, 12411.96, -0.074017085, -0.42245474, -691584.9, 637334.25, 0.006201804, 10.005757, 9.997108 
1.9852632e+3, 1.7438848e+2, -760822.9, -1328369.5, 12843.363, -0.01592187, -0.45482212, -760532.4, 470417.2, 0.00079352234, 10.004604, 9.997068 
1.9852361e+3, 1.8438573e+2, -748596.56, -1192297.6, -10605.326, 0.008884497, -0.4626926, -748343.2, 384632.63, 0.000007720848, 10.003668, 9.997782 
1.9852081e+3, 1.9438377e+2, -749072.7, -1145934.9, -12550.026, -0.005673948, -0.4394301, -748676.2, 286317.88, 0.0, 10.003009, 9.997745 
1.9851804e+3, 2.0438173e+2, -713271.7, -984791.75, -8821.323, -0.008113576, -0.4496879, -712985.4, 224027.39, 0.0, 10.00218, 9.998578 
1.9851528e+3, 2.1437974e+2, -769190.3, -964471.5, -3169.7847, 0.003503486, -0.50906587, -769138.9, 69891.21, 0.0, 10.001137, 9.998548 
1.9851251e+3, 2.2437826e+2, -760711.8, -835919.8, -8826.613, 0.007910514, -0.5330944, -759689.8, -18646.586, 0.0, 10.000205, 9.999206 
1.9850972e+3, 2.343777e+2, -780437.1, -798459.56, -24608.227, 0.0041593793, -0.51305836, -763242.1, -120193.48, 0.0, 9.9994135, 9.999171 
1.9850697e+3, 2.4437737e+2, -740910.6, -618044.4, -20975.035, 0.009962909, -0.5005589, -614562.4, -69510.89, 0.0, 9.998538, 10.000158 
1.9850424e+3, 2.543775e+2, -787176.75, -591889.9, -6658.961, 0.026470454, -0.5084499, -591663.1, -144613.5, 0.0, 9.997557, 10.000137 
1.985015e+3, 2.6437774e+2, -788490.56, -447546.47, -3675.1956, 0.041923802, -0.52969575, -447506.84, -98459.77, 0.0, 9.99647, 10.000978 
1.9849877e+3, 2.743785e+2, -871693.44, -441409.03, -25974.756, 0.059693977, -0.55555576, -439846.7, -188806.77, 0.0, 9.995248, 10.000936 
1.9849603e+3, 2.8438014e+2, -865386.4, -337925.03, -26612.06, 0.06825735, -0.4988501, -336585.78, -183559.9, 0.0, 9.994404, 10.001381 
1.9849329e+3, 2.9438272e+2, -833001.3, -274157.9, -4196.8223, 0.059970956, -0.3793494, -274126.4, -219122.19, 0.0, 9.993964, 10.001358 
1.9849063e+3, 3.043829e+2, -895112.94, -227800.52, 25524.66, 0.0873975, -0.50771725, -226825.63, -226825.63, 0.0, 9.992983, 10.001816 
1.98488e+3, 3.1438532e+2, -889552.44, 129961.09, 53434.063, 0.09667852, -0.4524482, 132753.98, 132753.98, 0.0, 9.991491, 10.0049925 
1.9954088e+3, 1.244349e+2, -724874.56, -1662138.1, 26457.926, -0.07950137, -0.40037, -724128.25, 996369.2, 0.120526865, 10.009819, 9.995687 
1.99538e+3, 1.3443023e+2, -794921.9, -1685937.4, -51471.21, -0.052798674, -0.425483, -791958.44, 830583.75, 0.08505182, 10.008338, 9.995513 
1.9953524e+3, 1.4442594e+2, -761426.06, -1543470.5, -8576.3, 0.059792325, -0.43507108, -761332.0, 763251.44, 0.049783595, 10.007239, 9.996343 
1.9953237e+3, 1.5442227e+2, -734513.9, -1495723.8, -7515.3135, -0.040129084, -0.44110972, -734439.7, 692179.6, 0.022191767, 10.006604, 9.996304 
1.9952956e+3, 1.6441897e+2, -692792.75, -1339734.6, -28076.223, -0.06554975, -0.4318245, -691576.56, 637074.8, 0.006513608, 10.005748, 9.997114 
1.9952679e+3, 1.7441627e+2, -758760.4, -1326671.6, -28997.621, -0.010846806, -0.4138675, -757283.6, 473393.63, 0.00084956735, 10.004612, 9.997079 
1.9952396e+3, 1.8441346e+2, -746477.7, -1191217.3, -35248.547, 0.009634646, -0.42837766, -743701.4, 389002.63, 0.000008936616, 10.003678, 9.997786 
1.9952111e+3, 1.9441071e+2, -748938.0, -1146257.0, -35524.23, -0.00961198, -0.48426077, -745786.75, 288942.56, 0.0, 10.003008, 9.997745 
1.9951825e+3, 2.044086e+2, -703108.94, -964516.06, -45867.766, -0.013320803, -0.50760204, -695294.4, 241453.66, 0.0, 10.002179, 9.998719 
1.9951539e+3, 2.1440747e+2, -757654.8, -942655.25, -40996.93, 0.0017184234, -0.4955795, -748976.75, 89779.57, 0.0, 10.0011425, 9.998696 
1.9951253e+3, 2.2440608e+2, -785356.6, -890097.8, -38207.863, 0.008059471, -0.5025267, -772900.4, -32131.133, 0.0, 10.000215, 9.998832 
1.9950967e+3, 2.3440458e+2, -808574.8, -858957.9, -52913.656, 0.0036661976, -0.5355179, -775162.0, -132376.55, 0.0, 9.999419, 9.998755 
1.9950682e+3, 2.4440397e+2, -717451.5, -571299.9, -56603.832, 0.011507402, -0.543929, -551941.56, -7150.464, 0.0, 9.998543, 10.000479 
1.9950399e+3, 2.544047e+2, -759817.9, -537481.06, -42931.207, 0.034249026, -0.5282077, -529479.44, -82697.89, 0.0, 9.997563, 10.00051 
1.9950114e+3, 2.6440525e+2, -819901.4, -515051.13, -49432.297, 0.051183276, -0.5172047, -507235.9, -158459.88, 0.0, 9.996477, 10.000514 
1.994983e+3, 2.7440575e+2, -906485.75, -517616.28, -71792.62, 0.060678955, -0.5128275, -504785.38, -254012.03, 0.0, 9.995261, 10.000409 
1.9949546e+3, 2.844068e+2, -840092.9, -288423.22, -45348.68, 0.063801214, -0.503287, -284720.28, -131954.78, 0.0, 9.994414, 10.001718 
1.9949268e+3, 2.9440865e+2, -810607.4, -230760.92, -23206.014, 0.061241437, -0.49772, -229833.69, -175084.28, 0.0, 9.993975, 10.001653 
1.9949e+3, 3.044108e+2, -907478.94, -256437.9, -31236.342, 0.1352984, -0.43228653, -254942.66, -254942.66, 0.0, 9.9929905, 10.001617 
1.9948706e+3, 3.1441227e+2, -898230.6, 110017.31, -30257.22, 0.016077721, -0.45713064, 110924.51, 110924.51, 0.0, 9.991497, 10.004853 
2.0054187e+3, 1.2446331e+2, -774806.94, -1693214.4, 59625.332, -0.05931392, -0.4373676, -770952.06, 949264.75, 0.124293745, 10.009506, 9.995594 
2.0053884e+3, 1.3445877e+2, -755058.94, -1675870.4, -18899.908, -0.057679143, -0.43692625, -754671.2, 867589.5, 0.087868765, 10.008716, 9.995397 
2.0053597e+3, 1.4445435e+2, -697671.2, -1512150.6, 32351.275, 0.034150932, -0.45384544, -696388.2, 827915.5, 0.051571533, 10.007723, 9.996326 
2.0053305e+3, 1.5445064e+2, -753037.2, -1506082.8, 38241.91, -0.018674647, -0.45987165, -751100.1, 675239.75, 0.023086548, 10.00649, 9.996286 
2.0053014e+3, 1.6444731e+2, -733121.2, -1363198.0, 20037.262, -0.0333303, -0.44798043, -732484.6, 595887.6, 0.006829038, 10.005491, 9.997074 
2.0052725e+3, 1.7444465e+2, -736459.7, -1320314.4, 14647.3, -0.013243536, -0.42448172, -736092.44, 494305.97, 0.000906863, 10.004789, 9.997034 
2.0052433e+3, 1.8444185e+2, -705636.7, -1162826.5, 9585.988, -0.00225234, -0.43713406, -705435.75, 426989.1, 0.000010190004, 10.003926, 9.997859 
2.0052141e+3, 1.9443914e+2, -765690.8, -1145306.5, 14284.322, 0.00040802293, -0.4960731, -765154.1, 269295.2, 0.0, 10.002858, 9.997822 
2.0051847e+3, 2.0443699e+2, -745136.44, -999086.56, -2345.654, 0.00067036867, -0.5213422, -745114.75, 191353.69, 0.0, 10.001956, 9.998588 
2.0051551e+3, 2.1443571e+2, -750805.25, -955242.7, -19734.82, -0.002406878, -0.508983, -748917.6, 89561.234, 0.0, 10.001262, 9.998551 
2.0051254e+3, 2.2443432e+2, -746714.5, -861944.94, -13442.529, -0.0004953166, -0.51258236, -745167.1, -4675.107, 0.0, 10.0004425, 9.998913 
2.0050962e+3, 2.3443294e+2, -794355.06, -841721.44, 8175.7715, 0.007365905, -0.54044414, -792983.56, -150477.11, 0.0, 9.9994755, 9.998845 
2.0050667e+3, 2.4443229e+2, -742071.1, -603756.56, 1215.6028, 0.017469043, -0.5499696, -603745.9, -59232.992, 0.0, 9.998466, 10.000291 
2.0050374e+3, 2.5443277e+2, -799798.3, -578946.2, -28640.986, 0.03192424, -0.5386634, -575292.4, -128785.74, 0.0, 9.997389, 10.000306 
2.0050079e+3, 2.644333e+2, -819226.0, -520028.44, -39992.0, 0.04825557, -0.5149718, -514775.2, -166273.45, 0.0, 9.996509, 10.000462 
2.0049785e+3, 2.7443403e+2, -819903.7, -480222.53, -25532.73, 0.06440858, -0.48582035, -478314.03, -227816.89, 0.0, 9.995877, 10.000366 
2.0049492e+3, 2.8443483e+2, -781364.2, -260736.05, 3721.8525, 0.06262173, -0.49737212, -260709.45, -108217.85, 0.0, 9.994824, 10.001707 
2.0049201e+3, 2.944361e+2, -926837.3, -291316.47, -7052.95, 0.047590576, -0.5434252, -291238.2, -236757.77, 0.0, 9.993202, 10.001606 
2.0048925e+3, 3.0443928e+2, -1005659.7, -278143.25, -3341.562, 0.144194, -0.38275024, -278127.9, -278127.9, 0.0, 9.992211, 10.0018425 
2.004862e+3, 3.144398e+2, -854778.75, 82542.695, -9570.586, -0.02358946, -0.5293466, 82640.41, 82640.41, 0.0, 9.992012, 10.004413 
2.0154288e+3, 1.24492705e+2, -785518.7, -1709007.0, 32957.707, 0.0071366765, -0.47534862, -784343.94, 935582.6, 0.1281249, 10.009512, 9.995469 
2.0153967e+3, 1.3448834e+2, -766121.25, -1693836.6, -45330.055, -0.08683327, -0.4463547, -763911.56, 858057.6, 0.09073527, 10.008706, 9.995281 
2.0153667e+3, 1.4448382e+2, -699275.25, -1511081.6, -9529.401, -0.033352055, -0.46695736, -699163.44, 824849.8, 0.053393222, 10.007714, 9.996341 
2.0153372e+3, 1.5448017e+2, -751049.7, -1502794.6, -6177.3154, 0.009275128, -0.4685379, -750998.94, 675049.56, 0.023999965, 10.006495, 9.996307 
2.0153074e+3, 1.644767e+2, -738378.6, -1377051.1, -6383.248, 0.018832227, -0.46946496, -738314.9, 589767.6, 0.0071525685, 10.005502, 9.996977 
2.0152771e+3, 1.7447355e+2, -744008.4, -1336858.3, -10349.83, -0.023292143, -0.48187134, -743827.75, 486285.75, 0.00096675736, 10.004789, 9.9969225 
2.0152469e+3, 1.8447086e+2, -696719.2, -1144828.1, -28641.002, -0.026230136, -0.48448297, -694896.0, 437242.9, 0.000011549756, 10.003924, 9.997986 
2.0152171e+3, 1.9446896e+2, -754944.2, -1125445.8, -24953.045, 0.022832546, -0.47598907, -753271.2, 280883.84, 0.0, 10.002866, 9.997956 
2.0151868e+3, 2.0446675e+2, -771681.0, -1057586.0, -28041.336, 0.031821184, -0.4944805, -768956.7, 167218.55, 0.0, 10.001967, 9.998183 
2.0151561e+3, 2.1446438e+2, -780702.25, -1019258.5, -44076.895, -0.009368424, -0.54888314, -772818.9, 65379.348, 0.0, 10.0012665, 9.998112 
2.0151258e+3, 2.2446291e+2, -710297.2, -788139.8, -47842.766, -0.017769393, -0.56092227, -687543.56, 52668.434, 0.0, 10.000446, 9.99942 
2.0150957e+3, 2.3446271e+2, -754059.9, -760014.44, -27245.48, 0.01371786, -0.52753067, -729629.44, -87416.84, 0.0, 9.999479, 9.999406 
2.0150653e+3, 2.4446218e+2, -790214.0, -706291.94, -38402.992, 0.02688016, -0.51912236, -691371.4, -147153.52, 0.0, 9.998472, 9.999586 
2.0150346e+3, 2.5446156e+2, -853804.56, -694395.06, -68780.27, 0.018641, -0.54003364, -668821.25, -222595.27, 0.0, 9.997399, 9.999512 
2.0150043e+3, 2.6446176e+2, -792853.94, -468006.63, -64792.71, 0.032265842, -0.52280885, -455560.22, -107335.04, 0.0, 9.996517, 10.000816 
2.0149744e+3, 2.744631e+2, -787366.25, -416491.47, -48395.008, 0.06984498, -0.47707933, -410280.5, -160067.89, 0.0, 9.995891, 10.000799 
2.014944e+3, 2.84464e+2, -807347.06, -317680.56, -56381.645, 0.06502071, -0.48133665, -311272.47, -159067.22, 0.0, 9.994833, 10.001314 
2.0149131e+3, 2.9446504e+2, -955931.0, -352967.44, -71229.766, 0.016263984, -0.51081777, -344667.13, -290469.0, 0.0, 9.993203, 10.001184 
2.0148842e+3, 3.0446818e+2, -957951.7, -180318.36, -12720.653, 0.10629215, -0.36516204, -180110.33, -180110.33, 0.0, 9.992212, 10.002515 
2.0148546e+3, 3.1446934e+2, -903315.8, -22467.785, -64069.258, 0.034361802, -0.51061225, -17832.049, -17832.049, 0.0, 9.992029, 10.003683 
2.0254381e+3, 1.2452326e+2, -790742.25, -1699219.3, 53207.523, 0.00010687002, -0.47455525, -787636.6, 931989.75, 0.13209838, 10.009456, 9.995571 
2.0254056e+3, 1.3451888e+2, -781807.75, -1683300.9, -7293.025, -0.059491597, -0.4606167, -781748.75, 839919.44, 0.09370472, 10.008536, 9.995432 
2.0253743e+3, 1.445142e+2, -723250.0, -1533390.4, 28123.822, -0.02179333, -0.49962825, -722274.8, 801438.75, 0.055279925, 10.007606, 9.996233 
2.0253438e+3, 1.5451065e+2, -739469.1, -1511354.5, 20916.58, 0.009176645, -0.4782231, -738902.75, 686845.9, 0.024948083, 10.006648, 9.996173 
2.025313e+3, 1.6450717e+2, -711984.5, -1363094.6, 26618.02, 0.02001177, -0.47268128, -710898.1, 616884.75, 0.0074912654, 10.005685, 9.996982 
2.025282e+3, 1.7450391e+2, -754401.1, -1340143.5, 30857.229, -0.0074068983, -0.49808034, -752780.0, 477034.78, 0.0010312769, 10.004715, 9.996934 
2.025251e+3, 1.8450114e+2, -717011.0, -1163182.1, 7236.9624, -0.010231564, -0.5032373, -716893.6, 414947.16, 0.00001312181, 10.003827, 9.997905 
2.02522e+3, 1.9449925e+2, -736094.56, -1125913.3, -6186.8813, 0.021988163, -0.48455867, -735996.4, 297860.66, 0.0, 10.00304, 9.997867 
2.0251888e+3, 2.04497e+2, -737185.4, -1041794.8, -112.616066, 0.026247665, -0.5014522, -737185.3, 198692.61, 0.0, 10.002212, 9.998172 
2.0251575e+3, 2.1449453e+2, -772146.5, -1015804.44, 14065.344, -0.0056251413, -0.56545895, -771337.25, 66564.97, 0.0, 10.001332, 9.998101 
2.025126e+3, 2.2449309e+2, -717636.25, -788135.5, 2473.7183, -0.011380688, -0.57207763, -717549.56, 22366.035, 0.0, 10.000384, 9.999448 
2.0250951e+3, 2.3449315e+2, -771109.0, -764503.0, -16755.068, 0.016090872, -0.51492554, -750728.44, -108814.77, 0.0, 9.999351, 9.999435 
2.0250638e+3, 2.4449262e+2, -808724.06, -727505.6, -26078.348, 0.026606083, -0.50433886, -719853.1, -175933.88, 0.0, 9.998403, 9.999473 
2.025032e+3, 2.5449163e+2, -839016.9, -701303.5, -7804.359, 0.015539849, -0.548054, -700862.6, -254931.33, 0.0, 9.997565, 9.999382 
2.0250008e+3, 2.6449174e+2, -778226.75, -453235.94, 14408.892, 0.025924519, -0.53604275, -452598.34, -104666.68, 0.0, 9.996589, 10.000881 
2.0249699e+3, 2.7449328e+2, -851126.3, -438172.3, 4292.283, 0.06502632, -0.474434, -438127.72, -188210.94, 0.0, 9.995419, 10.000875 
2.0249388e+3, 2.844943e+2, -862807.44, -357978.97, -16160.965, 0.06791527, -0.46301988, -357462.16, -205554.0, 0.0, 9.994515, 10.001188 
2.0249066e+3, 2.9449537e+2, -853233.8, -313278.03, -9185.517, 0.02357049, -0.47655573, -313121.8, -259220.75, 0.0, 9.993955, 10.001093 
2.0248763e+3, 3.044979e+2, -827528.75, -74717.586, 60002.48, 0.054757938, -0.40705043, -69965.12, -69965.12, 0.0, 9.992925, 10.002896 
2.0248464e+3, 3.145004e+2, -1036383.8, -117184.23, -42838.7, 0.0643948, -0.45449495, -115192.07, -115192.07, 0.0, 9.991254, 10.003405 
2.0354469e+3, 1.24554895e+2, -779169.06, -1665599.9, 21980.867, -0.06924286, -0.44236118, -778624.3, 940692.4, 0.13630687, 10.009452, 9.995842 
2.0354147e+3, 1.3455036e+2, -762933.9, -1631769.3, -37289.465, 0.013674392, -0.47761503, -761336.4, 860021.44, 0.096842535, 10.008527, 9.995793 
2.0353827e+3, 1.4454547e+2, -740842.75, -1568761.4, -4590.9683, 0.054078586, -0.54672134, -740817.3, 782587.7, 0.057270598, 10.007602, 9.995994 
2.03535e+3, 1.5454201e+2, -757884.9, -1552178.0, -12790.697, -0.016640559, -0.4895056, -757678.94, 667761.75, 0.025950383, 10.006658, 9.995891 
2.0353182e+3, 1.6453864e+2, -704508.44, -1350359.3, -8047.0815, -0.0234506, -0.46082813, -704408.2, 623066.06, 0.007853111, 10.005696, 9.997066 
2.035287e+3, 1.7453557e+2, -745564.9, -1324554.4, -4542.95, 0.031511392, -0.476955, -745529.2, 483974.2, 0.0011028143, 10.004724, 9.997039 
2.0352553e+3, 1.845326e+2, -735739.94, -1204800.0, -21733.05, 0.04033772, -0.49627203, -734735.1, 396796.34, 0.000015084758, 10.003835, 9.997617 
2.0352228e+3, 1.9452997e+2, -756795.06, -1171318.1, -33947.6, -0.0012058485, -0.5198419, -754033.3, 279522.44, 0.0, 10.003047, 9.997554 
2.0351906e+3, 2.0452769e+2, -711798.75, -991277.25, -31496.055, -0.013305465, -0.53908277, -708293.25, 227283.53, 0.0, 10.002217, 9.998518 
2.0351589e+3, 2.1452603e+2, -744824.9, -960595.7, -17541.752, 0.007472692, -0.5585477, -743408.06, 94183.73, 0.0, 10.001334, 9.998482 
2.0351268e+3, 2.2452478e+2, -748175.56, -853638.56, -35195.066, 0.016433278, -0.5476006, -737509.1, 2094.938, 0.0, 10.000389, 9.998998 
2.0350944e+3, 2.3452422e+2, -804390.94, -836293.2, -54420.574, 0.013989702, -0.5039098, -763631.94, -122021.33, 0.0, 9.999357, 9.998941 
2.0350619e+3, 2.445235e+2, -775493.7, -661133.3, -57319.48, 0.016846469, -0.50544, -637349.94, -93732.07, 0.0, 9.998409, 9.999927 
2.0350295e+3, 2.5452286e+2, -801795.9, -626735.5, -38485.676, 0.021499492, -0.5629002, -618648.3, -173024.66, 0.0, 9.997573, 9.999893 
2.0349973e+3, 2.645231e+2, -793596.44, -488067.44, -29118.027, 0.028198544, -0.5549747, -485317.13, -137694.88, 0.0, 9.996596, 10.000641 
2.0349652e+3, 2.7452454e+2, -870434.44, -481131.16, -40308.402, 0.047591995, -0.4778229, -477001.44, -227390.81, 0.0, 9.995426, 10.000579 
2.0349331e+3, 2.8452572e+2, -852326.5, -338183.53, -38689.48, 0.07076664, -0.44116187, -335288.44, -183687.33, 0.0, 9.99452, 10.001324 
2.034901e+3, 2.9452708e+2, -833767.5, -279074.28, -29373.75, 0.07263756, -0.44135785, -277523.13, -223932.97, 0.0, 9.993977, 10.001319 
2.0348686e+3, 3.0452836e+2, -820597.25, -65480.074, -1727.6085, -0.015298532, -0.51581377, -65476.125, -65476.125, 0.0, 9.992943, 10.002953 
2.0348376e+3, 3.145322e+2, -1005736.94, -52579.805, -103284.8, 0.069937795, -0.42531306, -41516.21, -41516.21, 0.0, 9.991243, 10.003856 
2.0454563e+3, 1.2458721e+2, -789747.75, -1670140.4, 60621.85, -0.06336828, -0.46480435, -785593.1, 933405.7, 0.1407956, 10.009416, 9.995824 
2.0454234e+3, 1.3458301e+2, -781605.5, -1629780.4, -8905.42, 0.037506416, -0.47651425, -781512.0, 839525.0, 0.10018706, 10.008367, 9.995881 
2.0453903e+3, 1.4457805e+2, -757221.6, -1578916.8, 28804.64, 0.06452788, -0.55392903, -756213.1, 766871.56, 0.05939279, 10.007509, 9.995967 
2.0453568e+3, 1.5457444e+2, -736019.75, -1544352.0, 36877.508, -0.0058071315, -0.50779235, -734340.8, 690780.75, 0.027022634, 10.006835, 9.995857 
2.045324e+3, 1.6457097e+2, -672937.9, -1352836.3, 36380.098, -0.013549793, -0.47890994, -670996.75, 656159.3, 0.008244557, 10.005998, 9.9969015 
2.0452918e+3, 1.7456785e+2, -720220.94, -1331220.1, 19946.838, 0.039307274, -0.48165306, -719570.44, 509615.8, 0.0011832855, 10.004983, 9.996866 
2.0452592e+3, 1.845648e+2, -703476.75, -1187954.4, 8655.8125, 0.042877827, -0.49966136, -703322.2, 427893.16, 0.000017640374, 10.004054, 9.997625 
2.0452258e+3, 1.9456206e+2, -730516.8, -1156456.0, 19026.781, -0.008146218, -0.53644747, -729668.6, 303572.06, 0.0, 10.0032215, 9.99757 
2.0451927e+3, 2.0455982e+2, -699839.25, -984168.1, 16327.43, -0.019713774, -0.55266833, -698904.75, 236356.63, 0.0, 10.002297, 9.998526 
2.0451601e+3, 2.1455838e+2, -754081.2, -963717.7, 2441.7163, 0.013664245, -0.549496, -754052.75, 83221.54, 0.0, 10.001269, 9.998489 
2.0451272e+3, 2.245571e+2, -762422.5, -866794.75, -15482.528, 0.022914274, -0.5372322, -760174.25, -20887.291, 0.0, 10.000322, 9.998938 
2.0450936e+3, 2.3455623e+2, -792409.4, -837424.8, -3579.7031, 0.006809708, -0.517272, -792126.5, -150829.56, 0.0, 9.999474, 9.998876 
2.0450602e+3, 2.4455552e+2, -752802.8, -636521.44, -3268.8877, 0.011162274, -0.5209929, -636429.6, -93125.414, 0.0, 9.99851, 10.000045 
2.0450272e+3, 2.5455523e+2, -816698.94, -618982.44, -12536.593, 0.03410206, -0.5565545, -618190.7, -172884.66, 0.0, 9.997409, 10.000023 
2.0449938e+3, 2.6455548e+2, -815200.4, -506714.25, -11548.602, 0.0309564, -0.5494212, -506282.53, -158978.23, 0.0, 9.996488, 10.000564 
2.0449603e+3, 2.7455658e+2, -826352.1, -469803.13, -8539.855, 0.013057583, -0.49514723, -469598.7, -220302.33, 0.0, 9.995776, 10.000486 
2.0449276e+3, 2.8455782e+2, -803915.25, -299606.78, 1150.4059, 0.051758483, -0.45254123, -299604.16, -148317.75, 0.0, 9.994791, 10.001456 
2.0448951e+3, 2.945596e+2, -901537.1, -291921.9, 8078.1807, 0.11602909, -0.42346194, -291814.88, -238543.98, 0.0, 9.993431, 10.0014925 
2.0448607e+3, 3.045606e+2, -940320.3, -134479.69, 11903.544, -0.042195477, -0.53061926, -134303.89, -134303.89, 0.0, 9.992176, 10.002846 
2.0448291e+3, 3.1456482e+2, -972984.44, 10822.01, -70570.734, 0.09296244, -0.3891697, 15858.431, 15858.431, 0.0, 9.991266, 10.004278 
2.0554663e+3, 1.2462025e+2, -812438.1, -1705586.4, 21950.914, -0.0011435453, -0.5268578, -811899.0, 906773.4, 0.14553526, 10.009405, 9.995547 
2.0554316e+3, 1.3461666e+2, -791761.9, -1651472.5, -42521.418, 0.018029796, -0.46201017, -789663.9, 831042.9, 0.1037262, 10.008388, 9.995725 
2.0553972e+3, 1.4461179e+2, -745141.1, -1555141.6, 5398.235, 0.019564034, -0.5297405, -745105.1, 777648.6, 0.06164749, 10.007535, 9.99612 
2.055364e+3, 1.5460785e+2, -724080.5, -1519353.3, 12676.094, 0.036017768, -0.531987, -723878.5, 700913.3, 0.028170265, 10.00684, 9.996028 
2.0553306e+3, 1.646041e+2, -701265.4, -1412152.5, -146.23323, 0.040437758, -0.5221052, -701265.4, 625563.6, 0.008669122, 10.005996, 9.996497 
2.0552966e+3, 1.746007e+2, -749999.0, -1395115.5, -16256.634, 0.017894246, -0.50945646, -749589.6, 479274.13, 0.0012739165, 10.004988, 9.996428 
2.0552626e+3, 1.845977e+2, -683314.8, -1148408.0, -21159.863, 0.0024544578, -0.51256096, -682354.1, 448538.7, 0.0000209855, 10.00406, 9.997896 
2.055229e+3, 1.945954e+2, -708728.1, -1112805.3, -11108.981, -0.00028918512, -0.5356418, -708422.94, 324489.9, 0.0, 10.003224, 9.99787 
2.0551953e+3, 2.0459323e+2, -721926.9, -1031852.4, -21024.523, 0.0035136142, -0.54413456, -720507.1, 214425.73, 0.0, 10.002302, 9.9981985 
2.0551614e+3, 2.1459146e+2, -778289.56, -1016178.94, -34386.98, 0.012495942, -0.53884614, -773418.6, 63531.836, 0.0, 10.001275, 9.998128 
2.0551272e+3, 2.2459e+2, -739765.9, -822286.0, -46166.75, 0.008914092, -0.5401934, -719108.56, 19856.379, 0.0, 10.00033, 9.999242 
2.055093e+3, 2.3458913e+2, -767992.2, -788789.8, -34232.746, -0.0061705876, -0.5535601, -742613.7, -101640.25, 0.0, 9.999478, 9.999209 
2.0550586e+3, 2.4458855e+2, -768097.75, -670489.25, -43840.64, 0.00872155, -0.5499489, -653689.7, -110710.516, 0.0, 9.998515, 9.999811 
2.0550247e+3, 2.5458857e+2, -833606.4, -656855.56, -53769.535, 0.052403104, -0.5297598, -641783.5, -196804.05, 0.0, 9.9974165, 9.999762 
2.0549902e+3, 2.6458874e+2, -808611.6, -495538.25, -39050.703, 0.033802666, -0.5196, -490740.84, -143762.1, 0.0, 9.996494, 10.00064 
2.0549555e+3, 2.7458933e+2, -817504.4, -455094.56, -34845.188, -0.0401918, -0.5268675, -451774.66, -202799.58, 0.0, 9.995787, 10.000585 
2.0549218e+3, 2.8459054e+2, -793939.1, -282429.0, -49824.215, 0.009138422, -0.49921674, -277621.0, -126655.836, 0.0, 9.9948015, 10.001572 
2.0548889e+3, 2.9459286e+2, -893337.25, -277250.13, -45774.02, 0.15220045, -0.42682332, -273867.78, -220923.06, 0.0, 9.993437, 10.001593 
2.054853e+3, 3.045947e+2, -962712.0, -178735.81, -28530.379, -0.021676548, -0.4390831, -177698.9, -177698.9, 0.0, 9.992165, 10.002548 
2.05482e+3, 3.1459707e+2, -955998.2, 42826.938, -45570.453, 0.07027111, -0.45185545, 44901.74, 44901.74, 0.0, 9.991274, 10.004498 
2.0654759e+3, 1.246546e+2, -843086.6, -1749310.4, 50665.047, 0.023068586, -0.55592847, -840262.8, 878070.75, 0.1504479, 10.0093355, 9.995269 
2.0654401e+3, 1.34651e+2, -751669.4, -1643640.3, -5244.0483, 0.016547855, -0.47524938, -751638.56, 868730.9, 0.10740831, 10.008793, 9.995581 
2.0654048e+3, 1.4464614e+2, -681362.0, -1519787.1, 36025.867, 0.0012157704, -0.5353162, -679816.9, 842600.0, 0.0640102, 10.008014, 9.996132 
2.0653711e+3, 1.5464221e+2, -707525.75, -1509243.6, 32505.078, 0.050064813, -0.5366375, -706210.0, 718244.0, 0.029386524, 10.006959, 9.996038 
2.0653367e+3, 1.6463839e+2, -706827.2, -1418388.3, 23718.654, 0.059629828, -0.5329207, -706037.44, 620454.2, 0.009126575, 10.005977, 9.996462 
2.0653015e+3, 1.7463483e+2, -739960.9, -1393921.4, 34786.375, 0.011195365, -0.5326735, -738115.7, 490412.34, 0.0013752523, 10.005075, 9.996391 
2.0652667e+3, 1.846318e+2, -674957.8, -1155206.0, 34347.71, -0.0077342503, -0.5313405, -672513.7, 458044.06, 0.000025318333, 10.0041685, 9.997795 
2.0652324e+3, 1.9462961e+2, -711907.94, -1125393.9, 15014.056, 0.011352161, -0.53087986, -711363.5, 321213.97, 0.0, 10.003254, 9.997767 
2.0651975e+3, 2.0462745e+2, -710445.4, -1015701.56, 897.7064, 0.0139077585, -0.53538394, -710442.7, 224154.69, 0.0, 10.002339, 9.998289 
2.0651627e+3, 2.146256e+2, -751116.6, -992089.8, 18891.299, -0.004120017, -0.5488578, -749644.6, 86970.75, 0.0, 10.001419, 9.998222 
2.0651275e+3, 2.2462413e+2, -722874.1, -812829.75, 14602.113, -0.009378585, -0.55540204, -720563.2, 18066.531, 0.0, 10.000444, 9.999249 
2.0650923e+3, 2.3462336e+2, -777593.6, -792751.25, 1578.9684, 0.0026568742, -0.55805165, -777430.94, -136793.42, 0.0, 9.999414, 9.99921 
2.0650573e+3, 2.446228e+2, -771490.06, -673952.0, -12632.243, 0.01934464, -0.55109155, -672342.5, -129699.3, 0.0, 9.998504, 9.999791 
2.065022e+3, 2.5462273e+2, -791066.3, -638711.94, -5338.353, 0.0368131, -0.5353683, -638525.1, -193880.86, 0.0, 9.997724, 9.999736 
2.0649865e+3, 2.646229e+2, -770986.6, -473188.34, 15987.537, 0.018348038, -0.5260832, -472332.5, -125688.875, 0.0, 9.9967375, 10.000674 
2.0649512e+3, 2.7462354e+2, -853998.0, -468345.34, 16084.021, -0.026469458, -0.53093654, -467675.72, -219036.6, 0.0, 9.995521, 10.000621 
2.0649165e+3, 2.8462467e+2, -829306.94, -305061.47, -9941.306, 0.011662944, -0.50893116, -304873.0, -154243.19, 0.0, 9.994586, 10.001519 
2.064882e+3, 2.946268e+2, -827408.4, -251662.33, -22098.648, 0.10199151, -0.44939503, -250815.36, -198203.9, 0.0, 9.993919, 10.0015335 
2.0648454e+3, 3.046291e+2, -883037.6, -136041.73, -10044.887, -0.022738792, -0.4168655, -135906.69, -135906.69, 0.0, 9.992697, 10.002583 
2.0648116e+3, 3.1463063e+2, -1003073.2, 4424.739, 44555.273, 0.103754826, -0.51623666, 6391.2983, 6391.2983, 0.0, 9.991021, 10.0043545 
2.0754851e+3, 1.2469011e+2, -863549.4, -1789031.1, 25003.232, 0.014096137, -0.55835855, -862874.3, 855109.4, 0.15545967, 10.009342, 9.994993 
2.075449e+3, 1.3468604e+2, -762477.7, -1663264.3, -22878.0, 0.027853113, -0.5109683, -761897.0, 858128.2, 0.11117904, 10.008801, 9.995444 
2.0754129e+3, 1.4468111e+2, -691325.3, -1539964.1, 325.8882, 0.0021453933, -0.5641899, -691325.2, 830748.7, 0.06644942, 10.008021, 9.995991 
2.075378e+3, 1.5467745e+2, -717764.1, -1530966.8, -5003.215, 0.038225044, -0.5251097, -717733.3, 706375.56, 0.030657945, 10.006963, 9.99589 
2.0753425e+3, 1.646737e+2, -686044.8, -1376030.4, -9082.722, 0.04818996, -0.5168921, -685925.3, 640219.6, 0.009613249, 10.0059805, 9.996754 
2.0753066e+3, 1.746701e+2, -717231.7, -1348662.0, 1644.2095, 0.017375704, -0.5523372, -717227.4, 510952.7, 0.0014869289, 10.00508, 9.996702 
2.075271e+3, 1.8466698e+2, -706562.94, -1222329.6, 789.73236, 0.007869886, -0.55507994, -706561.7, 423649.47, 0.000030820138, 10.00417, 9.997335 
2.0752355e+3, 1.9466463e+2, -746380.75, -1197755.6, -17376.932, 0.025295738, -0.52181304, -745712.75, 286522.25, 0.0, 10.003254, 9.997273 
2.0752e+3, 2.0466246e+2, -676847.3, -946906.5, -31794.615, 0.012211536, -0.5263733, -673154.56, 261100.88, 0.0, 10.002339, 9.998763 
2.0751636e+3, 2.146607e+2, -715328.9, -918831.06, -14321.372, -0.036029544, -0.5787599, -714326.0, 121943.92, 0.0, 10.001419, 9.998727 
2.0751277e+3, 2.246594e+2, -743323.1, -857161.7, -23014.238, -0.0322127, -0.58186406, -738846.5, -564.12305, 0.0, 10.000448, 9.998945 
2.075092e+3, 2.3465881e+2, -800242.94, -842125.5, -35934.74, 0.031802922, -0.53180707, -779592.9, -139302.64, 0.0, 9.99942, 9.998871 
2.0750558e+3, 2.4465816e+2, -757482.94, -647400.6, -41717.77, 0.041641697, -0.5255197, -633377.3, -91080.01, 0.0, 9.99851, 9.999972 
2.075019e+3, 2.5465766e+2, -776026.8, -610136.25, -34716.023, -0.014051257, -0.5733042, -603164.2, -158862.77, 0.0, 9.99773, 9.999931 
2.074983e+3, 2.6465786e+2, -772087.06, -477711.63, -29604.012, -0.014957965, -0.5683302, -474764.0, -128464.164, 0.0, 9.996743, 10.000642 
2.0749475e+3, 2.746591e+2, -855459.9, -474100.94, -29526.822, 0.05640901, -0.50764084, -471828.34, -223538.77, 0.0, 9.995528, 10.00058 
2.0749116e+3, 2.8466016e+2, -845493.5, -341494.63, -36498.984, 0.058614165, -0.48131526, -338865.13, -188583.75, 0.0, 9.994594, 10.001267 
2.0748743e+3, 2.946613e+2, -842091.25, -287250.16, -49905.906, -0.044515867, -0.4911552, -282797.06, -230524.69, 0.0, 9.993937, 10.001283 
2.0748378e+3, 3.0466354e+2, -853354.94, -77136.1, -77170.58, -0.042155057, -0.4722997, -69538.28, -69538.28, 0.0, 9.992705, 10.002984 
2.0748033e+3, 3.1466684e+2, -1052719.9, -101593.28, -223.04318, 0.1781441, -0.43447298, -101593.23, -101593.23, 0.0, 9.991029, 10.003626 
2.0854944e+3, 1.2472607e+2, -849769.56, -1778311.9, 27439.35, 0.003997108, -0.55359215, -848959.44, 868672.25, 0.16053386, 10.009499, 9.994989 
2.0854577e+3, 1.3472213e+2, -737408.9, -1633914.6, 1141.0894, 0.028536461, -0.5051456, -737407.44, 882264.2, 0.11500898, 10.008969, 9.995563 
2.085421e+3, 1.4471729e+2, -677707.6, -1534282.3, 17231.342, -0.00486307, -0.5528988, -677361.1, 844358.1, 0.06894234, 10.008152, 9.995965 
2.0853846e+3, 1.547134e+2, -714703.25, -1531984.4, 18913.445, 0.025584457, -0.5310916, -714265.75, 709490.6, 0.03196974, 10.007008, 9.99586 
2.0853484e+3, 1.6470969e+2, -676851.0, -1362439.3, 20878.152, 0.04085541, -0.52428406, -676215.8, 649576.5, 0.010122473, 10.006011, 9.99683 
2.0853117e+3, 1.7470632e+2, -697002.75, -1329552.4, 15149.837, 0.027395712, -0.5419364, -696640.1, 531184.75, 0.0016072941, 10.005183, 9.996782 
2.0852752e+3, 1.8470322e+2, -697077.9, -1213363.5, 16974.37, 0.020750817, -0.5474229, -696520.44, 433335.03, 0.000037582144, 10.004219, 9.997372 
2.0852387e+3, 1.9470066e+2, -765787.25, -1203241.4, 34642.293, 0.025528165, -0.5392274, -763060.94, 268820.4, 0.0, 10.003107, 9.997305 
2.0852019e+3, 2.0469852e+2, -702126.2, -953175.5, 29824.943, 0.00890131, -0.5442525, -698631.56, 235270.06, 0.0, 10.002145, 9.998812 
2.0851648e+3, 2.1469706e+2, -721643.7, -915642.94, 13894.12, -0.0330509, -0.5703836, -720653.6, 115259.88, 0.0, 10.001354, 9.998777 
2.085128e+3, 2.2469583e+2, -735571.4, -845415.06, -4386.641, -0.031473607, -0.5705964, -735396.5, 2528.7158, 0.0, 10.000472, 9.999012 
2.0850913e+3, 2.3469508e+2, -786843.3, -828230.2, 11262.743, 0.021086602, -0.5431825, -783976.9, -144042.61, 0.0, 9.999485, 9.998933 
2.0850542e+3, 2.4469449e+2, -749018.4, -634065.94, 22921.96, 0.0270097, -0.5370212, -629663.8, -87723.086, 0.0, 9.998533, 10.0000515 
2.0850167e+3, 2.546943e+2, -786152.8, -606088.5, 21012.977, -0.021807717, -0.5603988, -603668.9, -159726.94, 0.0, 9.997626, 10.000007 
2.0849797e+3, 2.6469445e+2, -779716.25, -485606.44, 12428.128, -0.016598847, -0.5602086, -485082.22, -139141.52, 0.0, 9.996713, 10.000601 
2.084943e+3, 2.746953e+2, -824418.94, -464155.4, 11148.96, 0.05504605, -0.532834, -463810.7, -215876.66, 0.0, 9.995767, 10.000531 
2.084906e+3, 2.8469646e+2, -827397.0, -318572.7, 22484.42, 0.041591007, -0.5000848, -317581.06, -167656.55, 0.0, 9.994659, 10.001391 
2.0848677e+3, 2.9469815e+2, -910842.06, -306679.66, 38176.863, -0.07777952, -0.46943188, -304276.8, -252367.11, 0.0, 9.993409, 10.001403 
2.0848309e+3, 3.0469966e+2, -877513.56, -89659.09, -322.56958, 0.008588012, -0.52581036, -89658.97, -89658.97, 0.0, 9.992546, 10.0029745 
2.0847942e+3, 3.147034e+2, -962820.6, -122061.53, 30177.45, 0.12712514, -0.44073403, -120979.766, -120979.766, 0.0, 9.991922, 10.003053 
2.0955037e+3, 1.2476252e+2, -838034.9, -1746172.1, 4559.7656, -0.010023824, -0.5438258, -838011.94, 879264.8, 0.16567165, 10.00954, 9.995192 
2.0954666e+3, 1.3475917e+2, -724221.44, -1595019.6, -14916.267, 0.018386187, -0.46453327, -723966.0, 895343.56, 0.1188955, 10.008958, 9.995859 
2.0954287e+3, 1.4475456e+2, -677861.5, -1526004.5, -21229.113, -0.020252889, -0.5083183, -677330.44, 844023.75, 0.0714786, 10.008133, 9.996034 
2.0953913e+3, 1.547501e+2, -710089.9, -1522265.6, -21476.902, 0.011462166, -0.55238247, -709522.4, 713874.5, 0.03330932, 10.007013, 9.995926 
2.0953542e+3, 1.647463e+2, -684997.75, -1381868.9, -8843.195, 0.035782136, -0.5510036, -684885.5, 640548.5, 0.010646386, 10.00602, 9.9966955 
2.095317e+3, 1.7474343e+2, -707564.7, -1351406.9, -13965.769, 0.03931856, -0.50450784, -707261.94, 520200.8, 0.0017338038, 10.005178, 9.996637 
2.0952795e+3, 1.8474047e+2, -663720.06, -1144141.5, -22791.58, 0.03048096, -0.51251704, -662641.2, 466850.13, 0.00004558005, 10.004215, 9.99785 
2.0952417e+3, 1.947376e+2, -730431.8, -1132003.4, -5890.382, 0.012777409, -0.58198965, -730345.4, 301171.94, 0.0, 10.003112, 9.997793 
2.0952041e+3, 2.0473553e+2, -726635.25, -1006580.6, 664.27356, 0.0038149748, -0.5864161, -726633.7, 206903.22, 0.0, 10.0021515, 9.998444 
2.0951664e+3, 2.1473457e+2, -749235.4, -973425.9, -13885.128, 0.0017925875, -0.52447015, -748378.7, 87168.33, 0.0, 10.001352, 9.998384 
2.0951286e+3, 2.2473335e+2, -706526.2, -785952.75, -39864.945, -0.009390779, -0.52353126, -689969.06, 47589.926, 0.0, 10.000472, 9.999422 
2.0950903e+3, 2.3473208e+2, -755869.6, -765976.3, -24681.799, -0.029429898, -0.59230906, -735729.2, -96158.51, 0.0, 9.99949, 9.99936 
2.0950523e+3, 2.4473171e+2, -750907.7, -640537.3, -11128.602, -0.023255793, -0.5840529, -639426.44, -97852.11, 0.0, 9.99854, 10.000006 
2.0950146e+3, 2.5473255e+2, -788874.5, -614570.9, -12936.096, 0.012602008, -0.49619457, -613616.06, -170049.33, 0.0, 9.997635, 9.999948 
2.0949766e+3, 2.647326e+2, -782747.06, -494822.13, -23637.531, 0.011204605, -0.5027051, -492894.47, -147327.19, 0.0, 9.996721, 10.000536 
2.094938e+3, 2.7473205e+2, -827114.4, -473667.97, -25356.26, -0.03480944, -0.6100122, -471858.2, -224284.34, 0.0, 9.995779, 10.000462 
2.0948997e+3, 2.8473353e+2, -791065.5, -245387.08, -25790.232, -0.04011702, -0.5652372, -244170.88, -94610.805, 0.0, 9.994665, 10.001894 
2.0948619e+3, 2.947373e+2, -876715.3, -236221.7, -7986.662, 0.009980242, -0.37756467, -236122.13, -184598.7, 0.0, 9.993406, 10.001891 
2.0948248e+3, 3.0473727e+2, -911141.44, -161810.83, -21436.922, 0.13041645, -0.5857231, -161198.06, -161198.06, 0.0, 9.992552, 10.002479 
2.0947847e+3, 3.1474054e+2, -969860.2, -145994.0, -47887.164, -0.008195062, -0.4994955, -143219.9, -143219.9, 0.0, 9.991959, 10.002873 
2.1055132e+3, 1.2480055e+2, -759557.1, -1709176.5, 45354.95, -0.026773011, -0.516211, -757395.9, 959509.3, 0.17088783, 10.010284, 9.995094 
2.1054754e+3, 1.347968e+2, -750357.5, -1609260.1, 16500.846, 0.022518815, -0.47304013, -750040.6, 868900.94, 0.12284064, 10.008803, 9.99582 
2.1054368e+3, 1.447923e+2, -726679.6, -1537823.3, 8332.411, -0.013402336, -0.5079332, -726594.06, 794390.8, 0.07404866, 10.007738, 9.9961405 
2.1053985e+3, 1.5478806e+2, -693122.4, -1499893.0, 11112.02, 0.006732514, -0.54018295, -692969.4, 730056.1, 0.034663614, 10.007087, 9.996042 
2.1053602e+3, 1.647843e+2, -660952.25, -1362065.1, 26767.188, 0.028691059, -0.54149795, -659931.8, 665130.06, 0.011176396, 10.006159, 9.996763 
2.105322e+3, 1.7478132e+2, -737069.3, -1358037.8, 35594.56, 0.040547717, -0.51207125, -735035.7, 492055.7, 0.0018634329, 10.004947, 9.996701 
2.1052834e+3, 1.8477842e+2, -689124.2, -1142928.4, 26682.059, 0.032890383, -0.52067876, -687560.8, 441558.16, 0.00005465645, 10.003987, 9.997967 
2.1052448e+3, 1.9477585e+2, -695163.75, -1101216.4, 16552.137, 0.0075611076, -0.57456, -694490.1, 336652.1, 0.0, 10.003299, 9.997912 
2.1052061e+3, 2.0477384e+2, -702466.8, -994568.7, 16454.725, -0.0033961153, -0.57854956, -701542.8, 231618.42, 0.0, 10.002319, 9.998444 
2.1051677e+3, 2.1477273e+2, -797369.25, -997234.6, 28515.742, 0.00035594663, -0.53108555, -793380.4, 41792.945, 0.0, 10.001028, 9.998375 
2.1051286e+3, 2.2477156e+2, -749456.9, -782881.9, 19120.732, -0.010992808, -0.5335067, -740774.25, -3589.627, 0.0, 10.000079, 9.999631 
2.1050896e+3, 2.3477055e+2, -739061.3, -733464.9, 18060.57, -0.039011464, -0.59489924, -717987.06, -78794.125, 0.0, 9.999505, 9.999574 
2.1050505e+3, 2.4477029e+2, -736192.06, -631022.5, 15913.134, -0.034567863, -0.5857342, -628667.44, -87472.24, 0.0, 9.998635, 10.000023 
2.105012e+3, 2.5477114e+2, -818112.6, -627467.06, 18795.787, 0.008870049, -0.5018349, -625631.7, -182443.27, 0.0, 9.997433, 9.999953 
2.1049732e+3, 2.6477125e+2, -813187.44, -485798.72, 27148.568, 0.009745297, -0.5117345, -483562.72, -138374.52, 0.0, 9.996413, 10.000744 
2.1049334e+3, 2.7477083e+2, -837971.44, -454394.25, 45645.02, -0.04274116, -0.6251397, -449037.4, -201844.83, 0.0, 9.995604, 10.000677 
2.1048942e+3, 2.847724e+2, -785704.06, -232369.94, 29901.455, -0.046834193, -0.58448863, -230758.78, -81581.4, 0.0, 9.99466, 10.001984 
2.1048555e+3, 2.9477632e+2, -849232.06, -216363.8, 15116.89, 0.020981487, -0.3897511, -216002.92, -164863.5, 0.0, 9.993569, 10.001946 
2.1048169e+3, 3.0477622e+2, -895373.8, -144038.94, 23266.861, 0.113564245, -0.6105129, -143319.11, -143319.11, 0.0, 9.99262, 10.002565 
2.104776e+3, 3.147799e+2, -997676.1, -126254.32, -5526.3765, -0.025562998, -0.48909333, -126219.27, -126219.27, 0.0, 9.9916315, 10.003163 
2.1155232e+3, 1.2483996e+2, -788262.3, -1761141.4, -6558.839, -0.04903768, -0.47646844, -788218.1, 928301.0, 0.17617787, 10.010264, 9.994739 
2.1154843e+3, 1.3483498e+2, -771953.0, -1656350.0, -28793.232, 0.03715585, -0.52305657, -771016.6, 847551.1, 0.1268253, 10.008826, 9.99548 
2.1154445e+3, 1.4483051e+2, -716190.7, -1517393.6, -12052.824, 0.010661782, -0.5441173, -716009.44, 804601.6, 0.07662936, 10.007767, 9.99627 
2.1154052e+3, 1.5482718e+2, -684155.5, -1479747.1, -10843.839, 0.0081752585, -0.49893573, -684007.75, 738635.44, 0.03601471, 10.007088, 9.996182 
2.1153662e+3, 1.6482359e+2, -645652.94, -1328994.5, -16272.19, 0.018490685, -0.50173205, -645265.7, 679411.6, 0.011703126, 10.006154, 9.996994 
2.115327e+3, 1.7481998e+2, -719233.4, -1323858.4, -8103.5537, 0.032081272, -0.5599874, -719124.8, 507586.63, 0.0019930408, 10.004956, 9.996933 
2.1152873e+3, 1.8481712e+2, -703627.56, -1175747.1, 1882.6274, 0.028295493, -0.5660987, -703620.06, 425118.78, 0.00006452605, 10.003994, 9.997741 
2.115248e+3, 1.948153e+2, -712503.1, -1136218.8, -7123.3105, 0.008096331, -0.5196637, -712383.4, 318373.3, 0.0, 10.00329, 9.997679 
2.1152082e+3, 2.0481333e+2, -680186.3, -947650.7, -29667.568, -0.013281336, -0.5253179, -676935.06, 255840.55, 0.0, 10.002313, 9.998772 
2.1151683e+3, 2.1481143e+2, -773298.8, -948750.94, -18118.744, -0.03607975, -0.5889752, -771447.25, 63345.934, 0.0, 10.00103, 9.998709 
2.1151285e+3, 2.2481036e+2, -748873.1, -784330.4, -1697.124, -0.035140388, -0.59682417, -748792.06, -11989.155, 0.0, 10.000086, 9.9996195 
2.1150893e+3, 2.3481043e+2, -739194.06, -735353.56, -2338.0146, -0.00950134, -0.5504418, -734248.3, -95446.41, 0.0, 9.999508, 9.999561 
2.1150494e+3, 2.4481018e+2, -730917.94, -621523.2, -28480.313, -0.009198234, -0.5438827, -614552.6, -73748.195, 0.0, 9.998637, 10.000089 
2.115009e+3, 2.548099e+2, -813004.8, -619480.56, -26636.22, -0.034581877, -0.5796929, -615881.4, -173073.23, 0.0, 9.99744, 10.000007 
2.114969e+3, 2.6481026e+2, -778764.3, -417319.28, -4294.7754, -0.020257996, -0.5862519, -417268.25, -72463.984, 0.0, 9.996422, 10.001212 
2.1149297e+3, 2.748116e+2, -801440.2, -381642.4, 14456.372, 0.033108234, -0.57400566, -381145.16, -134354.48, 0.0, 9.995611, 10.001175 
2.1148895e+3, 2.84813e+2, -810185.1, -285363.28, -11723.055, 0.021392135, -0.5589503, -285101.56, -136324.11, 0.0, 9.994666, 10.001618 
2.1148482e+3, 2.9481494e+2, -876145.56, -276806.0, -25462.291, -0.051292628, -0.52027994, -275726.22, -224966.05, 0.0, 9.993585, 10.001526 
2.1148078e+3, 3.048165e+2, -845103.7, -42918.094, -11806.578, -0.053518374, -0.58420926, -42744.363, -42744.363, 0.0, 9.99263, 10.003258 
2.114769e+3, 3.1482032e+2, -944064.56, -14298.251, -73202.44, 0.104547985, -0.5308015, -8570.16, -8570.16, 0.0, 9.991624, 10.003938 
2.1255335e+3, 1.2488033e+2, -810663.3, -1771274.5, 21761.006, -0.043816905, -0.46110612, -810170.6, 905953.3, 0.1814941, 10.010129, 9.994734 
2.1254931e+3, 1.3487506e+2, -717918.75, -1625686.9, 25694.646, 0.022449413, -0.5340045, -717192.06, 900982.7, 0.13079743, 10.0092945, 9.995462 
2.1254525e+3, 1.4487061e+2, -659254.2, -1499501.4, 53570.76, -0.00086281536, -0.5457774, -655852.5, 864365.4, 0.07917929, 10.008264, 9.996161 
2.1254124e+3, 1.5486717e+2, -699078.0, -1498377.8, 41275.742, 0.011451969, -0.499009, -696952.2, 725299.3, 0.037339326, 10.007044, 9.996074 
2.1253721e+3, 1.6486362e+2, -655524.9, -1316916.0, 23881.781, 0.020505566, -0.5004215, -654663.6, 669621.8, 0.012216909, 10.00602, 9.997139 
2.1253316e+3, 1.7486015e+2, -674120.7, -1284997.8, 25546.063, 0.018334478, -0.5574935, -673054.25, 553263.4, 0.002119561, 10.0051985, 9.997081 
2.1252912e+3, 1.8485732e+2, -682343.1, -1162353.3, 40299.336, 0.011626032, -0.5659224, -678983.3, 449360.97, 0.00007479413, 10.004131, 9.997765 
2.125251e+3, 1.9485547e+2, -780677.8, -1166382.8, 48305.44, 0.0019883257, -0.52516496, -774720.1, 255642.7, 0.0, 10.002814, 9.997699 
2.1252102e+3, 2.0485355e+2, -742438.6, -959649.5, 30283.563, -0.014695451, -0.53338045, -738295.5, 194085.64, 0.0, 10.001812, 9.998928 
2.1251692e+3, 2.1485181e+2, -745955.75, -917645.8, 28198.893, -0.039605793, -0.5971563, -741442.9, 92954.08, 0.0, 10.001144, 9.998865 
2.1251287e+3, 2.2485086e+2, -730412.56, -770041.9, 41992.234, -0.03715342, -0.6025524, -703794.8, 32610.504, 0.0, 10.000194, 9.999663 
2.1250884e+3, 2.34851e+2, -818727.0, -768874.94, 44935.746, -0.0043689515, -0.55066144, -742414.94, -104011.4, 0.0, 9.998945, 9.9996 
2.1250479e+3, 2.4485074e+2, -798241.1, -634988.5, 28325.99, -0.0037933525, -0.55456376, -630213.3, -89807.22, 0.0, 9.998097, 10.000255 
2.1250063e+3, 2.5485033e+2, -767194.9, -577968.9, 37595.055, -0.038531963, -0.6165148, -570773.2, -128362.664, 0.0, 9.997675, 10.000176 
2.1249656e+3, 2.6485097e+2, -721493.7, -377435.06, 39403.51, -0.030627044, -0.6094451, -372980.03, -28576.025, 0.0, 9.996767, 10.001318 
2.1249251e+3, 2.748529e+2, -834739.5, -385787.88, 28884.896, 0.025656603, -0.5469985, -383937.1, -137552.38, 0.0, 9.995337, 10.001277 
2.124884e+3, 2.8485408e+2, -857216.6, -303978.25, 12970.847, 0.031036245, -0.55810004, -303674.3, -155301.03, 0.0, 9.99433, 10.001651 
2.1248421e+3, 2.9485527e+2, -842892.56, -252698.23, 32109.807, -0.024250278, -0.6047824, -250956.42, -200592.69, 0.0, 9.993784, 10.001593 
2.1247998e+3, 3.048581e+2, -778753.5, 19687.76, 41153.8, -0.124175556, -0.56014663, 21803.33, 21803.33, 0.0, 9.992957, 10.003528 
2.124761e+3, 3.1486148e+2, -945208.5, -44030.023, -56186.223, 0.14688912, -0.5657231, -40540.465, -40540.465, 0.0, 9.991744, 10.0036745 
2.1355437e+3, 1.24921545e+2, -800251.1, -1731428.9, -10426.81, -0.01931692, -0.46978766, -800134.4, 915586.2, 0.18674721, 10.010133, 9.995007 
2.135502e+3, 1.3491683e+2, -706469.06, -1595833.1, -1742.0333, -0.018021706, -0.5111589, -706465.6, 911299.0, 0.13468502, 10.009308, 9.995685 
2.1354602e+3, 1.4491236e+2, -680454.7, -1544153.9, 11597.655, -0.042875387, -0.5186057, -680299.0, 839508.5, 0.08165189, 10.008275, 9.99584 
2.1354194e+3, 1.5490797e+2, -721517.5, -1546741.9, -1465.3214, 0.0158969, -0.5348338, -721514.9, 700336.4, 0.038615294, 10.007049, 9.995741 
2.1353781e+3, 1.6490433e+2, -651890.44, -1309719.1, -4617.0967, 0.032178182, -0.5312829, -651858.06, 672028.6, 0.0127097, 10.00602, 9.997191 
2.1353367e+3, 1.7490171e+2, -670864.4, -1277752.8, -3260.3313, -0.0016025187, -0.5095195, -670846.9, 555064.06, 0.0022403758, 10.005193, 9.997136 
2.135295e+3, 1.8489894e+2, -666073.5, -1128812.5, -7324.094, -0.01665257, -0.5265285, -665957.56, 461978.97, 0.00008501845, 10.0041275, 9.997999 
2.1352534e+3, 1.948963e+2, -763354.8, -1132326.9, 616.4998, -0.010400965, -0.58681196, -763353.75, 266607.53, 0.0, 10.002818, 9.997932 
2.135212e+3, 2.0489447e+2, -742694.1, -962842.44, 6335.977, -0.008521418, -0.59636664, -742511.94, 189466.63, 0.0, 10.001819, 9.998905 
2.1351704e+3, 2.1489374e+2, -747428.5, -921687.6, 4951.669, -0.012908091, -0.5563468, -747287.9, 86697.75, 0.0, 10.001144, 9.998839 
2.135129e+3, 2.248929e+2, -724540.2, -759183.75, -3451.59, -0.019016268, -0.55424577, -724199.7, 11793.446, 0.0, 10.0001955, 9.999739 
2.1350871e+3, 2.3489217e+2, -812702.94, -758778.94, -1009.3938, -0.024356259, -0.59619814, -758760.06, -120761.305, 0.0, 9.998951, 9.999669 
2.1350457e+3, 2.4489191e+2, -779203.44, -598629.9, 12173.467, -0.018080775, -0.6158749, -597812.94, -57812.008, 0.0, 9.998107, 10.000502 
2.1350044e+3, 2.5489244e+2, -747023.4, -539528.2, 21767.232, -0.0033842146, -0.6109928, -537269.3, -95272.9, 0.0, 9.997685, 10.000438 
2.1349622e+3, 2.6489332e+2, -739951.8, -418005.5, -14826.674, -0.023153326, -0.5816407, -417324.13, -73335.68, 0.0, 9.996773, 10.001039 
2.1349195e+3, 2.7489465e+2, -855440.0, -431234.53, -26292.87, -0.069953024, -0.5471441, -429611.06, -183634.98, 0.0, 9.995343, 10.000964 
2.1348777e+3, 2.8489566e+2, -826360.3, -242837.66, -9549.086, -0.018862007, -0.5827692, -242681.44, -94715.33, 0.0, 9.994337, 10.0020685 
2.1348372e+3, 2.948971e+2, -800891.44, -170445.72, 12217.404, 0.10859094, -0.64092225, -170209.05, -120258.3, 0.0, 9.993799, 10.002152 
2.134793e+3, 3.049008e+2, -788114.06, -2470.7417, -4949.345, -0.09469525, -0.53972197, -2439.5635, -2439.5635, 0.0, 9.992965, 10.003373 
2.1347515e+3, 3.149037e+2, -1051847.0, -269688.06, -54253.414, 0.031157626, -0.5642327, -265942.78, -265942.78, 0.0, 9.991758, 10.00212 
2.145554e+3, 1.2496365e+2, -782968.9, -1716164.4, 15751.59, -0.012061048, -0.4838398, -782703.06, 932604.7, 0.19182885, 10.010324, 9.995018 
2.1455112e+3, 1.3495906e+2, -679415.8, -1586644.1, 14194.926, -0.035566185, -0.5039332, -679193.75, 938157.0, 0.13841854, 10.009587, 9.995622 
2.1454683e+3, 1.4495474e+2, -644522.3, -1514867.6, 13556.147, -0.059446964, -0.49911252, -644311.25, 875081.06, 0.08400955, 10.008524, 9.995921 
2.1454263e+3, 1.5495019e+2, -703797.7, -1527222.1, 26126.506, 0.0050648833, -0.53989744, -702969.56, 718467.56, 0.039825432, 10.007142, 9.995827 
2.1453841e+3, 1.6494648e+2, -662265.94, -1312319.9, 50231.684, 0.023618374, -0.5443306, -658407.3, 665065.56, 0.013174927, 10.005945, 9.997207 
2.1453415e+3, 1.7494397e+2, -707013.5, -1293923.1, 48217.547, -0.011271624, -0.512524, -703078.56, 522418.1, 0.0023533888, 10.004944, 9.997142 
2.1452989e+3, 1.8494132e+2, -681009.3, -1118846.3, 31223.158, -0.026112154, -0.526138, -678793.94, 448727.28, 0.000094778436, 10.003957, 9.998147 
2.1452564e+3, 1.9493876e+2, -728177.06, -1098483.6, 32147.912, -0.01803331, -0.59107584, -725406.9, 304137.63, 0.0, 10.002992, 9.998079 
2.145214e+3, 2.0493701e+2, -723354.5, -952953.8, 44049.03, -0.0083191935, -0.59961414, -715193.7, 216367.23, 0.0, 10.001953, 9.998906 
2.1451716e+3, 2.1493635e+2, -792337.9, -943292.1, 43402.94, 0.0016182817, -0.5520877, -780748.3, 52819.445, 0.0, 10.00084, 9.998836 
2.1451288e+3, 2.2493547e+2, -756148.94, -763051.6, 33655.805, -0.005802085, -0.5571013, -725767.94, 9807.448, 0.0, 9.999933, 9.999837 
2.1450862e+3, 2.3493461e+2, -764334.7, -724220.6, 37439.22, -0.028633516, -0.621374, -701804.4, -64222.684, 0.0, 9.999238, 9.999765 
2.1450438e+3, 2.4493447e+2, -758225.94, -583737.75, 47822.848, -0.022519711, -0.6350819, -571490.3, -31907.59, 0.0, 9.998234, 10.000541 
2.1450017e+3, 2.5493535e+2, -856204.3, -586593.1, 41151.336, 0.009329067, -0.5963357, -580452.0, -138876.53, 0.0, 9.996917, 10.0004835 
2.1449585e+3, 2.6493627e+2, -833817.25, -451078.44, 9179.774, -0.019519256, -0.56878227, -450858.38, -107291.234, 0.0, 9.996079, 10.001143 
2.1449146e+3, 2.749374e+2, -796760.3, -392184.06, 26987.773, -0.09790559, -0.56741756, -390391.75, -144835.11, 0.0, 9.995704, 10.001057 
2.1448721e+3, 2.8493848e+2, -754355.6, -206357.95, 42919.82, -0.03405105, -0.59873986, -203016.8, -55471.14, 0.0, 9.994828, 10.002081 
2.1448308e+3, 2.949402e+2, -845669.6, -186599.63, 32090.826, 0.13956417, -0.62924856, -185040.78, -135513.25, 0.0, 9.993474, 10.002196 
2.1447858e+3, 3.0494377e+2, -844730.3, -40320.285, -2088.9373, -0.083492234, -0.5414434, -40314.86, -40314.86, 0.0, 9.992627, 10.003274 
2.1447434e+3, 3.149464e+2, -971516.9, -241812.72, 19432.104, 0.012240058, -0.577829, -241295.6, -241295.6, 0.0, 9.992363, 10.002016 
2.1555643e+3, 1.2500657e+2, -798077.06, -1747879.6, -10098.61, -0.020776765, -0.5038015, -797969.7, 916916.44, 0.19664797, 10.01035, 9.994789 
2.1555205e+3, 1.3500181e+2, -706257.9, -1631662.1, -6957.5054, -0.036095373, -0.509933, -706205.56, 910727.1, 0.14194651, 10.009558, 9.995296 
2.1554768e+3, 1.4499773e+2, -624346.25, -1462409.6, -30661.422, -0.056531243, -0.4858707, -623226.0, 895746.1, 0.08622699, 10.00849, 9.996333 
2.1554331e+3, 1.5499367e+2, -675630.7, -1465507.4, -21315.889, -0.019715577, -0.5183397, -675055.9, 745954.7, 0.040957313, 10.007142, 9.996253 
2.1553896e+3, 1.6498998e+2, -663692.0, -1318158.8, 14813.643, -0.0026709365, -0.5428852, -663356.9, 659688.9, 0.013607216, 10.005957, 9.997163 
2.1553461e+3, 1.7498691e+2, -709645.8, -1300930.4, 12535.715, -0.012003006, -0.56048566, -709380.2, 515695.1, 0.002457088, 10.004947, 9.997095 
2.1553028e+3, 1.849844e+2, -676933.56, -1111947.0, -3059.749, -0.019462207, -0.5588524, -676912.0, 450186.66, 0.000103732295, 10.003959, 9.998196 
2.1552591e+3, 1.9498272e+2, -723809.4, -1091060.5, -2069.4587, -0.02242495, -0.54164374, -723797.7, 305315.94, 0.0, 10.002995, 9.998131 
2.1552156e+3, 2.0498101e+2, -722014.9, -952579.06, 3758.8599, -0.014359932, -0.54905176, -721953.6, 209176.03, 0.0, 10.001959, 9.998908 
2.1551724e+3, 2.1497953e+2, -791134.8, -943221.8, 3284.104, 0.003973939, -0.58367026, -791063.94, 42080.23, 0.0, 10.000846, 9.998836 
2.1551289e+3, 2.249785e+2, -747721.2, -748181.6, 8900.951, 0.002335467, -0.60775626, -739047.5, -3894.6511, 0.0, 9.99994, 9.999938 
2.1550855e+3, 2.3497821e+2, -755983.75, -709079.4, 12172.804, -0.017905917, -0.6253476, -706108.44, -68955.266, 0.0, 9.999244, 9.999869 
2.1550417e+3, 2.4497831e+2, -770333.8, -611019.5, -1732.0262, -0.017960783, -0.61300915, -611000.7, -71848.0, 0.0, 9.998239, 10.000353 
2.1549983e+3, 2.5497898e+2, -868324.7, -614569.2, -8431.466, -0.0025917513, -0.5735252, -614289.3, -173140.55, 0.0, 9.996923, 10.00029 
2.1549545e+3, 2.6497984e+2, -797220.2, -378118.38, -5541.9907, -0.019962542, -0.5718725, -378045.1, -34903.96, 0.0, 9.996088, 10.001643 
2.1549107e+3, 2.7498102e+2, -759135.5, -318394.97, 12165.892, -0.055527635, -0.61044073, -318059.4, -72932.06, 0.0, 9.995717, 10.001558 
2.1548669e+3, 2.849825e+2, -784538.5, -271983.75, -9640.919, -0.015208238, -0.6039877, -271802.47, -124689.91, 0.0, 9.994837, 10.001628 
2.1548235e+3, 2.9498452e+2, -883032.4, -265017.28, -20469.092, 0.058189783, -0.560878, -264340.06, -215245.56, 0.0, 9.993473, 10.00166 
2.1547784e+3, 3.0498663e+2, -846904.4, -47113.344, -16982.19, -0.08790628, -0.5825921, -46752.918, -46752.918, 0.0, 9.992631, 10.003228 
2.154736e+3, 3.1498986e+2, -850754.6, -3176.9978, 70122.65, 0.0527746, -0.5691172, 2585.2844, 2585.2844, 0.0, 9.992408, 10.003636 
2.1655743e+3, 1.250509e+2, -733570.94, -1690984.5, 15232.683, -0.053004473, -0.5060261, -733328.6, 981122.6, 0.2011478, 10.010863, 9.994968 
2.16553e+3, 1.3504605e+2, -761494.56, -1652390.8, 45813.727, -0.020120163, -0.52672493, -759144.8, 857353.56, 0.1452313, 10.009106, 9.995372 
2.1654852e+3, 1.4504203e+2, -700651.75, -1484309.0, 38425.742, -0.02739519, -0.50428885, -698772.06, 819764.8, 0.08828177, 10.007869, 9.996466 
2.1654399e+3, 1.5503821e+2, -667441.8, -1445323.9, 31912.703, -0.04134816, -0.52603865, -666134.8, 754438.1, 0.041998804, 10.007144, 9.996388 
2.1653953e+3, 1.650346e+2, -632790.75, -1304772.5, 57712.168, -0.03400008, -0.5464094, -627870.25, 694737.1, 0.014001548, 10.006186, 9.997144 
2.165351e+3, 1.7503147e+2, -702380.2, -1299025.9, 56988.83, -0.010760302, -0.56789225, -696985.6, 527652.06, 0.002550236, 10.005009, 9.997076 
2.1653067e+3, 1.8502891e+2, -681067.0, -1112845.8, 45149.77, -0.0068231216, -0.57014114, -676396.3, 450265.38, 0.00011157709, 10.00393, 9.9982 
2.165262e+3, 1.950272e+2, -730214.2, -1093547.3, 42035.348, -0.020142496, -0.55500835, -725414.4, 303262.47, 0.0, 10.002953, 9.998132 
2.1652175e+3, 2.0502548e+2, -713949.9, -949557.06, 44332.477, -0.018054154, -0.56188166, -705884.25, 224808.63, 0.0, 10.002023, 9.998896 
2.1651731e+3, 2.1502396e+2, -748563.3, -923279.06, 41990.68, -0.00103599, -0.59547836, -738995.4, 93712.305, 0.0, 10.001145, 9.998826 
2.1651289e+3, 2.2502299e+2, -724428.94, -737211.06, 44694.04, 0.004348437, -0.6159163, -685671.3, 49044.984, 0.0, 10.000106, 9.999931 
2.1650845e+3, 2.3502277e+2, -805784.2, -733636.06, 39588.07, -0.000011965656, -0.62510186, -716151.25, -79435.016, 0.0, 9.998908, 9.99986 
2.1650401e+3, 2.4502286e+2, -812836.44, -632008.9, 25786.1, -0.0038465164, -0.6101411, -628403.7, -89687.875, 0.0, 9.997952, 10.000345 
2.1649954e+3, 2.5502348e+2, -824370.75, -593698.6, 32261.398, -0.011482322, -0.57613426, -589271.56, -148558.83, 0.0, 9.997231, 10.000284 
2.1649507e+3, 2.650243e+2, -774593.06, -361302.84, 32087.72, -0.021516768, -0.5776071, -358826.4, -16121.184, 0.0, 9.996222, 10.001692 
2.1649063e+3, 2.7502558e+2, -866433.8, -363891.84, 15870.277, -0.01968957, -0.61233425, -363391.16, -118700.74, 0.0, 9.994958, 10.001611 
2.1648616e+3, 2.8502712e+2, -855736.0, -304143.47, -1732.7432, -0.0028144286, -0.60119355, -304138.03, -157463.08, 0.0, 9.994343, 10.001644 
2.1648167e+3, 2.9502907e+2, -776621.1, -222283.72, 20300.6, -0.010867746, -0.56428313, -221541.28, -172883.52, 0.0, 9.994243, 10.001581 
2.1647716e+3, 3.050308e+2, -794588.25, -66327.625, 17146.719, -0.053118, -0.5993543, -65924.13, -65924.13, 0.0, 9.993186, 10.002827 
2.1647277e+3, 3.1503367e+2, -935465.56, 36876.777, 106818.164, 0.037278526, -0.5909681, 48473.152, 48473.152, 0.0, 9.991487, 10.004353 
2.1755844e+3, 1.2509646e+2, -716109.06, -1637585.9, -37275.426, -0.10665013, -0.49422723, -714603.7, 999400.8, 0.20529708, 10.010823, 9.995451 
2.1755393e+3, 1.3509163e+2, -740857.1, -1599074.0, -8439.177, 0.00894094, -0.55275136, -740774.1, 875275.44, 0.14824326, 10.00911, 9.995754 
2.1754934e+3, 1.4508754e+2, -707298.8, -1499769.1, 14886.087, 0.022532037, -0.5489407, -707019.25, 811069.0, 0.09015238, 10.007888, 9.996343 
2.1754467e+3, 1.5508373e+2, -675963.5, -1463724.4, 7457.835, -0.06163948, -0.55794823, -675892.94, 744232.44, 0.04293881, 10.007147, 9.996263 
2.1754009e+3, 1.650803e+2, -634229.4, -1307632.9, 15769.56, -0.07050577, -0.5531931, -633860.3, 688298.2, 0.014354337, 10.006183, 9.997128 
2.1753561e+3, 1.750775e+2, -702674.3, -1301072.5, 14508.889, -0.008227, -0.53921694, -702322.75, 521862.8, 0.0026321118, 10.005011, 9.997063 
2.1753109e+3, 1.8507469e+2, -683303.4, -1120260.9, 9887.355, 0.010564612, -0.5637773, -683079.75, 443132.03, 0.000118056254, 10.003939, 9.998148 
2.175265e+3, 1.9507216e+2, -732665.3, -1102136.3, 6905.268, -0.012208093, -0.6260818, -732536.3, 295698.3, 0.0, 10.002963, 9.99807 
2.1752195e+3, 2.0507039e+2, -715255.8, -955530.1, 12789.799, -0.020016182, -0.6316299, -714576.94, 215674.17, 0.0, 10.002032, 9.998852 
2.175174e+3, 2.1506962e+2, -750984.1, -929893.4, 10527.811, -0.013934468, -0.5871618, -750366.75, 81892.44, 0.0, 10.001148, 9.998782 
2.1751289e+3, 2.250688e+2, -732446.7, -755817.25, 746.48737, -0.00010176092, -0.5835596, -732422.9, 1844.0587, 0.0, 10.00011, 9.999804 
2.1750835e+3, 2.3506814e+2, -813691.56, -752642.25, -4544.9473, 0.023727112, -0.6215671, -752305.75, -116033.92, 0.0, 9.998915, 9.999729 
2.1750382e+3, 2.4506804e+2, -800575.94, -609366.56, -1210.4175, 0.01896939, -0.6267883, -609358.9, -71085.9, 0.0, 9.997961, 10.0005 
2.1749924e+3, 2.5506872e+2, -812085.25, -571231.06, 4354.496, -0.017793035, -0.6042383, -571152.4, -130884.23, 0.0, 9.997239, 10.000437 
2.1749468e+3, 2.6506957e+2, -803200.6, -423298.34, -16535.135, -0.024735903, -0.58506966, -422580.0, -80319.75, 0.0, 9.996227, 10.0012665 
2.1749014e+3, 2.7507094e+2, -894481.3, -423963.6, -30699.543, 0.006723026, -0.57188916, -421969.0, -177722.03, 0.0, 9.994961, 10.0012 
2.1748559e+3, 2.8507224e+2, -819276.94, -230738.47, -5973.024, 0.0015351782, -0.5928115, -230677.84, -84443.89, 0.0, 9.994349, 10.002148 
2.17481e+3, 2.9507375e+2, -745874.4, -165139.89, 11480.474, -0.066240564, -0.64695764, -164913.03, -116694.516, 0.0, 9.994267, 10.001965 
2.1747653e+3, 3.0507618e+2, -852731.2, -191787.4, -52056.465, 0.023694398, -0.58165324, -187712.53, -187712.53, 0.0, 9.993201, 10.001961 
2.1747187e+3, 3.1507853e+2, -955176.1, -1317.7324, 25003.389, 0.00065527327, -0.5483969, -662.771, -662.771, 0.0, 9.99147, 10.0041 
2.185595e+3, 1.2514332e+2, -766370.7, -1659089.3, 12124.219, -0.10686171, -0.524192, -766206.06, 947337.3, 0.20908391, 10.0104265, 9.995456 
2.1855481e+3, 1.3513859e+2, -726570.3, -1596401.6, 20982.373, -0.020794643, -0.56618136, -726064.44, 889523.44, 0.1509677, 10.00928, 9.995691 
2.1855012e+3, 1.4513442e+2, -672259.0, -1487353.0, 52994.14, 0.007656407, -0.56332684, -668827.94, 848799.7, 0.0918274, 10.008195, 9.996285 
2.1854539e+3, 1.551306e+2, -674111.9, -1468754.3, 50785.992, -0.051984914, -0.56522596, -670879.25, 748785.7, 0.043772347, 10.007196, 9.996202 
2.1854073e+3, 1.6512707e+2, -646730.2, -1319114.0, 50922.25, -0.057274368, -0.5631045, -642895.5, 678803.44, 0.014665119, 10.006125, 9.997072 
2.1853611e+3, 1.751241e+2, -710462.25, -1310465.9, 46616.848, -0.009065625, -0.56137305, -706862.0, 516865.44, 0.002703056, 10.004986, 9.997008 
2.1853144e+3, 1.8512124e+2, -676069.2, -1128230.3, 48994.38, 0.003972604, -0.58349884, -670821.25, 454933.2, 0.00012312186, 10.004042, 9.998041 
2.1852678e+3, 1.9511871e+2, -692554.2, -1093892.9, 41462.918, -0.01724402, -0.63090503, -688315.4, 339462.28, 0.0000000000000090331685, 10.003291, 9.997966 
2.1852215e+3, 2.051169e+2, -683102.2, -943514.06, 37674.293, -0.019002315, -0.63428867, -677761.3, 252033.56, 0.0, 10.002274, 9.9988165 
2.1851753e+3, 2.1511601e+2, -774830.25, -944892.75, 35118.184, -0.0026329276, -0.5975804, -767863.7, 63940.14, 0.0, 10.001004, 9.998746 
2.185129e+3, 2.2511512e+2, -750087.56, -772595.44, 32328.484, 0.008785401, -0.5917144, -727110.2, 6701.9937, 0.0, 10.000029, 9.999725 
2.1850826e+3, 2.351145e+2, -759442.56, -734874.9, 30157.371, 0.018576456, -0.61970013, -714595.56, -78777.88, 0.0, 9.999328, 9.99965 
2.1850361e+3, 2.4511439e+2, -744682.06, -580922.44, 28365.936, 0.011723662, -0.623099, -576148.1, -38328.984, 0.0, 9.9983425, 10.000509 
2.1849895e+3, 2.55115e+2, -835004.8, -581714.75, 22318.08, -0.014540865, -0.60467726, -579763.3, -139949.19, 0.0, 9.997084, 10.000437 
2.1849428e+3, 2.6511577e+2, -819339.2, -451664.63, 8703.472, -0.016057342, -0.5889084, -451458.72, -109651.13, 0.0, 9.99621, 10.001078 
2.1848965e+3, 2.751168e+2, -801140.0, -400210.6, 12868.816, 0.013029073, -0.58299905, -399797.97, -156000.25, 0.0, 9.995696, 10.001006 
2.1848503e+3, 2.8511807e+2, -771998.75, -204712.03, 29060.137, -0.0021094186, -0.5970836, -203227.27, -57442.117, 0.0, 9.994663, 10.002172 
2.1848038e+3, 2.9512e+2, -908616.8, -238545.39, 6823.711, -0.07701925, -0.6153941, -238475.9, -190710.17, 0.0, 9.993134, 10.002005 
2.1847585e+3, 3.05122e+2, -950989.4, -245445.34, -29828.645, 0.07624814, -0.59200835, -244186.5, -244186.5, 0.0, 9.992558, 10.001901 
2.1847099e+3, 3.1512406e+2, -792423.06, 37692.082, 57723.367, -0.068905696, -0.57576025, 41686.746, 41686.746, 0.0, 9.99276, 10.003745 
2.1956058e+3, 1.2519139e+2, -799181.1, -1708570.6, -23939.605, -0.06976013, -0.58280194, -798551.4, 914517.8, 0.21253149, 10.010366, 9.995057 
2.1955565e+3, 1.3518676e+2, -756992.8, -1657872.3, -14599.813, -0.10092729, -0.56843245, -756756.25, 858358.4, 0.15342294, 10.009261, 9.995258 
2.1955085e+3, 1.451825e+2, -674240.1, -1490795.9, 20450.834, -0.060975928, -0.55253, -673728.25, 843427.8, 0.09331939, 10.008199, 9.996261 
2.1954614e+3, 1.551787e+2, -675435.75, -1472341.3, 16188.6045, -0.017020177, -0.55215764, -675107.0, 744086.0, 0.04450736, 10.0072, 9.996178 
2.1954139e+3, 1.6517486e+2, -652371.06, -1333645.0, 9808.304, -0.0028285624, -0.57653683, -652229.9, 668999.75, 0.014938507, 10.006135, 9.99697 
2.1953657e+3, 1.7517123e+2, -715141.7, -1325512.5, 5592.728, -0.014075265, -0.6280288, -715090.5, 508173.25, 0.0027649656, 10.005005, 9.996899 
2.195318e+3, 1.8516847e+2, -685608.4, -1152766.8, 22444.512, -0.024384243, -0.62467587, -684532.5, 440757.63, 0.00012710577, 10.004058, 9.997868 
2.195271e+3, 1.9516677e+2, -703720.4, -1118275.1, 14614.854, -0.034759387, -0.5743571, -703205.8, 324101.3, 0.00000000000007150772, 10.003292, 9.997801 
2.1952236e+3, 2.0516485e+2, -685702.94, -950020.1, -8750.893, -0.015645055, -0.5761862, -685413.56, 243911.89, 0.0, 10.002274, 9.998774 
2.1951765e+3, 2.1516305e+2, -776612.4, -951602.7, -10444.651, 0.031124335, -0.62689894, -775991.2, 55351.207, 0.0, 10.001013, 9.998698 
2.195129e+3, 2.2516195e+2, -751628.6, -779261.1, 7249.841, 0.029584482, -0.6383627, -749842.06, -16489.32, 0.0, 10.000039, 9.999677 
2.1950813e+3, 2.3516174e+2, -762047.7, -742674.25, 4305.8945, -0.016046366, -0.6187773, -741760.4, -106405.77, 0.0, 9.999333, 9.999597 
2.1950339e+3, 2.4516174e+2, -754448.5, -603302.44, -19140.473, -0.025617473, -0.59869283, -600916.25, -63561.098, 0.0, 9.998346, 10.000356 
2.1949866e+3, 2.5516224e+2, -845090.75, -605052.9, -25072.787, -0.002841315, -0.57772315, -602461.9, -163110.28, 0.0, 9.997089, 10.000277 
2.1949393e+3, 2.6516262e+2, -815278.1, -446086.13, -11368.927, 0.0037802393, -0.5899471, -445736.38, -104388.164, 0.0, 9.996218, 10.001115 
2.194892e+3, 2.751631e+2, -798022.56, -398034.06, -7341.2983, -0.0016128751, -0.6466081, -397899.34, -154555.92, 0.0, 9.99571, 10.001017 
2.1948448e+3, 2.8516462e+2, -806446.44, -279241.75, -30483.822, -0.013960074, -0.61360127, -277485.0, -132155.48, 0.0, 9.99467, 10.00166 
2.1947971e+3, 2.9516765e+2, -931774.5, -286655.5, -52087.934, -0.04230355, -0.46768457, -282476.9, -235176.02, 0.0, 9.993129, 10.00168 
2.1947512e+3, 3.0516812e+2, -891562.25, -123768.586, -19065.318, 0.096722566, -0.6309099, -123295.46, -123295.46, 0.0, 9.99256, 10.002737 
2.1947026e+3, 3.1517044e+2, -820035.3, -28229.445, 611.2024, -0.08333443, -0.65326804, -28228.973, -28228.973, 0.0, 9.992794, 10.003278 
2.2056158e+3, 1.2524055e+2, -888419.0, -1756355.9, -14863.979, -0.047212657, -0.58127165, -888164.56, 824421.9, 0.21570389, 10.009603, 9.995089 
2.2055654e+3, 1.3523585e+2, -766590.3, -1660301.8, 18295.213, -0.12224756, -0.57695067, -766216.0, 848416.44, 0.15566067, 10.009195, 9.995273 
2.2055165e+3, 1.4523135e+2, -662310.44, -1501196.8, 52191.27, -0.0770391, -0.5742001, -659075.8, 857600.44, 0.09466351, 10.008384, 9.996091 
2.2054686e+3, 1.5522751e+2, -684826.6, -1495390.5, 39516.01, -0.011688859, -0.55808306, -682904.75, 735809.4, 0.04516302, 10.00722, 9.996009 
2.20542e+3, 1.6522361e+2, -635816.7, -1323674.5, 37410.86, 0.0047073853, -0.5788683, -633788.0, 686963.2, 0.015182417, 10.0062475, 9.996983 
2.2053708e+3, 1.7521991e+2, -649333.06, -1292507.5, 40424.875, -0.02209312, -0.6391314, -646802.2, 575983.1, 0.0028204073, 10.005458, 9.996904 
2.2053222e+3, 1.8521705e+2, -647363.06, -1152865.4, 57964.777, -0.030458592, -0.6364994, -640801.5, 484011.28, 0.00013054864, 10.004405, 9.997698 
2.2052741e+3, 1.9521526e+2, -741509.94, -1154554.8, 49479.03, -0.022996685, -0.57768446, -735665.5, 291166.0, 0.00000000000029186663, 10.003115, 9.997635 
2.2052258e+3, 2.0521328e+2, -710048.2, -965798.8, 27764.885, -0.0036836956, -0.57697415, -707068.7, 221782.22, 0.0, 10.002129, 9.9987335 
2.2051775e+3, 2.1521135e+2, -720644.75, -928679.3, 25109.887, 0.028246526, -0.63268864, -717656.94, 113211.59, 0.0, 10.001419, 9.998657 
2.2051291e+3, 2.2521019e+2, -705051.6, -768071.8, 40218.387, 0.02511737, -0.643236, -685469.56, 47410.027, 0.0, 10.000412, 9.999572 
2.2050805e+3, 2.3520994e+2, -798178.5, -771140.0, 33172.914, -0.010867569, -0.6154027, -748837.3, -113955.1, 0.0, 9.999138, 9.999492 
2.2050323e+3, 2.4520984e+2, -788703.3, -633475.9, 9827.8, -0.020097166, -0.59395814, -632856.1, -95972.0, 0.0, 9.998176, 10.000228 
2.2049837e+3, 2.5521013e+2, -795461.0, -594868.94, 5803.1665, -0.0040217666, -0.57964236, -594701.2, -155818.45, 0.0, 9.997494, 10.00015 
2.2049356e+3, 2.6521048e+2, -762453.1, -419593.16, 24170.57, 0.0018650384, -0.5888423, -417897.6, -77017.68, 0.0, 9.99658, 10.00112 
2.2048874e+3, 2.7521113e+2, -840150.4, -417924.03, 24080.443, 0.0011309063, -0.6298709, -416555.13, -173681.28, 0.0, 9.995424, 10.001016 
2.2048393e+3, 2.852126e+2, -845653.8, -315630.66, 5187.039, -0.0054979683, -0.5856413, -315579.88, -170720.05, 0.0, 9.994481, 10.001499 
2.2047906e+3, 2.952155e+2, -836683.25, -250613.27, 11691.399, -0.026737174, -0.442961, -250380.13, -203546.77, 0.0, 9.993829, 10.001588 
2.2047435e+3, 3.052154e+2, -823746.94, -79224.17, 42696.258, 0.05301055, -0.66116565, -76783.664, -76783.664, 0.0, 9.992979, 10.002839 
2.204695e+3, 3.1521913e+2, -964651.3, -73513.73, -29319.951, -0.050325867, -0.5424928, -72550.086, -72550.086, 0.0, 9.9917, 10.003492 
2.2156252e+3, 1.2529072e+2, -876330.9, -1709780.8, -25721.363, -0.040044732, -0.53020555, -875537.8, 836557.56, 0.21868156, 10.009571, 9.995427 
2.2155747e+3, 1.3528574e+2, -751527.4, -1612552.5, 4166.0957, -0.09791504, -0.5902821, -751507.25, 862634.7, 0.15774313, 10.009168, 9.995616 
2.2155252e+3, 1.4528093e+2, -684468.2, -1545831.4, 12094.583, -0.05336685, -0.6211874, -684298.4, 831890.4, 0.09590219, 10.0083685, 9.995784 
2.2154753e+3, 1.5527703e+2, -705779.2, -1540308.8, -1249.8939, -0.03288909, -0.57921046, -705777.3, 712451.25, 0.0457624, 10.007216, 9.995705 
2.2154258e+3, 1.6527332e+2, -628600.9, -1310160.4, 9318.482, -0.027727075, -0.57049584, -628473.5, 691790.56, 0.015405337, 10.006251, 9.997077 
2.2153762e+3, 1.7527e+2, -642228.4, -1279667.6, 11161.246, -0.032993924, -0.6013069, -642033.06, 580260.6, 0.0028716046, 10.005463, 9.996993 
2.2153267e+3, 1.8526685e+2, -659186.1, -1179728.0, 10305.474, -0.017601015, -0.6237496, -658982.2, 465341.56, 0.00013390505, 10.004411, 9.997513 
2.2152776e+3, 1.9526415e+2, -752792.25, -1181421.0, 2955.838, 0.014545931, -0.6360756, -752771.9, 273579.4, 0.0, 10.003125, 9.997448 
2.2152281e+3, 2.0526208e+2, -712053.75, -973868.25, 2292.7046, 0.015314458, -0.63058615, -712033.7, 216337.81, 0.0, 10.002141, 9.998674 
2.2151785e+3, 2.1526083e+2, -723904.5, -937580.9, -729.9618, -0.010580453, -0.6151039, -723902.0, 106481.06, 0.0, 10.001424, 9.998596 
2.2151291e+3, 2.2525972e+2, -716567.1, -793695.8, -6917.106, -0.0033338817, -0.60819876, -715951.7, 16442.188, 0.0, 10.000415, 9.999396 
2.2150801e+3, 2.35259e+2, -809155.2, -796351.9, -13634.364, 0.033230502, -0.61023897, -787691.06, -153289.67, 0.0, 9.999144, 9.999319 
2.2150305e+3, 2.4525854e+2, -795516.4, -650554.6, -15922.379, 0.026970861, -0.609177, -648826.3, -112419.375, 0.0, 9.998183, 10.00011 
2.214981e+3, 2.5525856e+2, -801959.25, -611772.9, -20024.832, -0.01965488, -0.6107119, -609687.3, -171278.86, 0.0, 9.997504, 10.000031 
2.2149317e+3, 2.6525918e+2, -764458.06, -426525.56, -20344.264, -0.022767542, -0.58472914, -425305.2, -84901.58, 0.0, 9.996588, 10.001071 
2.2148831e+3, 2.7526072e+2, -841418.75, -422580.28, -22272.363, 0.020046536, -0.53027266, -421399.25, -179009.53, 0.0, 9.995428, 10.000984 
2.214834e+3, 2.8526205e+2, -831421.4, -288284.4, -20898.42, 0.022852408, -0.5119834, -287481.47, -143104.5, 0.0, 9.994486, 10.001688 
2.2147842e+3, 2.9526332e+2, -824325.8, -230941.5, -8873.826, -0.031246474, -0.548357, -230808.83, -184444.52, 0.0, 9.993849, 10.001716 
2.2147352e+3, 3.0526373e+2, -869853.0, -179582.17, -5814.98, -0.062231354, -0.6841847, -179533.19, -179533.19, 0.0, 9.992994, 10.002145 
2.2146873e+3, 3.152681e+2, -909286.4, 41450.934, -86960.53, 0.011063937, -0.4425472, 49339.445, 49339.445, 0.0, 9.991693, 10.00429 
2.2256345e+3, 1.2534069e+2, -892036.44, -1702134.0, -4939.667, -0.041579317, -0.5542767, -892006.4, 819598.9, 0.22152525, 10.009384, 9.995583 
2.2255838e+3, 1.3533622e+2, -780370.4, -1604940.1, 15432.935, -0.085915916, -0.58339924, -780081.6, 833564.7, 0.15971836, 10.008845, 9.995831 
2.2255334e+3, 1.4533144e+2, -719511.9, -1561372.5, 12204.871, -0.0377157, -0.6237882, -719335.0, 796357.8, 0.097069226, 10.008103, 9.995802 
2.2254825e+3, 1.5532741e+2, -706546.1, -1538292.3, 18546.775, -0.04650636, -0.59602946, -706132.8, 711601.25, 0.046324197, 10.007209, 9.99572 
2.2254317e+3, 1.653237e+2, -624270.75, -1312916.6, 40761.78, -0.04971116, -0.5850079, -621866.44, 697903.3, 0.015614056, 10.006309, 9.997028 
2.2253813e+3, 1.7532049e+2, -653963.8, -1290182.3, 32307.434, -0.04348887, -0.5990543, -652327.44, 569471.2, 0.0029201051, 10.005406, 9.996946 
2.225331e+3, 1.8531732e+2, -657726.2, -1182542.6, 20542.527, -0.023163894, -0.6182474, -656923.3, 466905.63, 0.00013746414, 10.00444, 9.997478 
2.2252806e+3, 1.9531448e+2, -713096.75, -1166180.9, 22661.684, 0.008054126, -0.64032733, -711966.1, 313891.4, 0.000000000039864764, 10.003419, 9.997409 
2.2252302e+3, 2.0531227e+2, -686301.6, -978047.2, 33436.063, 0.009239206, -0.6386771, -682518.7, 245360.53, 0.0, 10.002395, 9.998521 
2.2251797e+3, 2.1531089e+2, -742356.5, -962674.44, 22542.426, -0.015883887, -0.62038356, -740073.6, 89818.695, 0.0, 10.001372, 9.998446 
2.2251295e+3, 2.2530967e+2, -726062.8, -810623.44, 7213.6514, -0.008708675, -0.60884786, -725451.8, 6452.5522, 0.0, 10.000408, 9.999281 
2.2250791e+3, 2.353089e+2, -766729.8, -788079.44, 4444.0234, 0.02916953, -0.6052455, -765841.7, -131928.89, 0.0, 9.999494, 9.999205 
2.2250289e+3, 2.4530835e+2, -750407.06, -635009.6, 15490.6045, 0.030830203, -0.60377705, -632966.4, -97047.04, 0.0, 9.998526, 10.000049 
2.2249785e+3, 2.5530824e+2, -805793.4, -619160.25, 15570.546, -0.003927764, -0.61062336, -617870.2, -179948.2, 0.0, 9.997508, 9.999975 
2.2249283e+3, 2.6530883e+2, -770149.2, -439113.3, 10382.802, -0.018109826, -0.5794023, -438788.0, -98870.414, 0.0, 9.996597, 10.000977 
2.2248782e+3, 2.7531046e+2, -795749.06, -409249.16, 3435.062, -0.002924547, -0.50503105, -409218.63, -167315.36, 0.0, 9.995786, 10.0009 
2.2248283e+3, 2.8531167e+2, -770184.1, -245643.03, 4644.3687, 0.013601071, -0.49914128, -245601.9, -101710.29, 0.0, 9.994855, 10.0018 
2.2247784e+3, 2.953125e+2, -834745.44, -232967.48, 10608.897, 0.0017717672, -0.591163, -232780.52, -186897.47, 0.0, 9.99377, 10.001737 
2.2247276e+3, 3.0531392e+2, -944609.8, -245735.6, 10456.096, -0.08751812, -0.61024696, -245579.19, -245579.19, 0.0, 9.992618, 10.001868 
2.2246791e+3, 3.1531656e+2, -898329.8, 93098.86, -24071.139, 0.042987436, -0.52102137, 93682.945, 93682.945, 0.0, 9.991577, 10.004695 
2.2356439e+3, 1.2539071e+2, -892769.06, -1699533.3, -17398.4, -0.05665331, -0.6292543, -892394.06, 818719.94, 0.2242668, 10.009392, 9.995603 
2.2355923e+3, 1.3538733e+2, -778894.9, -1593162.8, -1039.0946, -0.08458477, -0.5593255, -778893.56, 834251.9, 0.16162173, 10.008817, 9.995942 
2.2355415e+3, 1.4538282e+2, -706497.56, -1524895.3, -17712.246, -0.028864523, -0.590669, -706114.44, 809074.6, 0.09819262, 10.008079, 9.996067 
2.2354892e+3, 1.5537858e+2, -690510.1, -1502890.0, -13251.136, -0.0557372, -0.6096802, -690294.06, 726937.0, 0.04686383, 10.007205, 9.995967 
2.2354378e+3, 1.6537471e+2, -636640.4, -1339639.1, 7985.237, -0.06527884, -0.61898506, -636549.7, 682718.94, 0.015814584, 10.006308, 9.996847 
2.2353865e+3, 1.7537136e+2, -667078.06, -1316879.6, -493.15384, -0.054666582, -0.6271961, -667077.7, 554222.5, 0.0029677197, 10.005399, 9.996769 
2.235335e+3, 1.8536843e+2, -652281.75, -1172101.5, -16670.08, -0.045294892, -0.61771625, -651747.75, 471580.8, 0.00014155803, 10.004438, 9.997552 
2.2352834e+3, 1.9536611e+2, -706929.3, -1156556.1, -14699.438, -0.03882981, -0.59480673, -706449.25, 318902.16, 0.0000000005492505, 10.003428, 9.997473 
2.2352321e+3, 2.0536369e+2, -702298.56, -1014540.0, -4085.9397, -0.019554704, -0.60566616, -702245.06, 225130.11, 0.0, 10.002403, 9.998269 
2.2351812e+3, 2.1536143e+2, -758848.5, -998896.44, -14142.315, 0.01021461, -0.64791566, -758018.2, 71378.875, 0.0, 10.001376, 9.9981985 
2.2351296e+3, 2.2536e+2, -730646.6, -822688.7, -25953.527, 0.00655291, -0.6432078, -723832.8, 7578.7637, 0.0, 10.000415, 9.999198 
2.235078e+3, 2.3535955e+2, -771046.94, -799998.9, -29368.102, -0.02363894, -0.60013425, -752780.9, -119363.695, 0.0, 9.999501, 9.999121 
2.2350268e+3, 2.4535915e+2, -750695.8, -637842.7, -23027.459, -0.007580878, -0.5775711, -633324.9, -97902.77, 0.0, 9.99853, 10.000029 
2.2349763e+3, 2.5535908e+2, -805656.1, -621311.1, -23277.393, 0.043484952, -0.5785755, -618417.25, -180993.3, 0.0, 9.997514, 9.99996 
2.234925e+3, 2.653593e+2, -780479.2, -463089.75, -21248.402, 0.015163906, -0.57396305, -461673.53, -122250.68, 0.0, 9.996603, 10.000812 
2.2348733e+3, 2.7536017e+2, -804442.8, -431442.4, -27467.693, -0.070773296, -0.56040716, -429430.53, -188014.56, 0.0, 9.995798, 10.000745 
2.2348225e+3, 2.8536138e+2, -767723.3, -243785.48, -38187.785, -0.035030648, -0.54988515, -241016.77, -97611.68, 0.0, 9.994864, 10.00181 
2.2347727e+3, 2.9536298e+2, -842222.8, -250023.61, -34522.582, 0.074289665, -0.5615885, -248017.89, -202628.08, 0.0, 9.993772, 10.001621 
2.2347209e+3, 3.053658e+2, -936812.3, -229723.78, -33787.703, -0.014158148, -0.43556315, -228112.94, -228112.94, 0.0, 9.992613, 10.001985 
2.2346699e+3, 3.153664e+2, -905002.7, 71178.01, -25300.51, -0.028555326, -0.5787402, 71833.305, 71833.305, 0.0, 9.991603, 10.004537 
2.2456531e+3, 1.2544246e+2, -860009.94, -1693433.3, 20051.262, -0.06946179, -0.63930535, -859527.75, 851077.94, 0.22691317, 10.00977, 9.995473 
2.2456011e+3, 1.354391e+2, -812254.6, -1608206.5, 28051.104, -0.07196691, -0.5656289, -811267.3, 801370.7, 0.16347723, 10.00856, 9.99594 
2.2455493e+3, 1.4543463e+2, -749894.5, -1531231.0, 12811.674, -0.0124089345, -0.5992943, -749684.5, 764996.75, 0.09929606, 10.007689, 9.996209 
2.2454964e+3, 1.554305e+2, -693579.1, -1489267.1, 10117.464, -0.068331815, -0.620412, -693450.5, 723271.2, 0.047394935, 10.007126, 9.996097 
2.2454436e+3, 1.6542673e+2, -642508.4, -1343437.6, 23374.13, -0.082565375, -0.62524635, -641729.75, 677028.7, 0.016012162, 10.006276, 9.996834 
2.2453916e+3, 1.7542346e+2, -699328.06, -1333940.9, 25344.543, -0.05574967, -0.6232349, -698317.5, 522472.38, 0.003016493, 10.005188, 9.996751 
2.2453392e+3, 1.854205e+2, -678337.75, -1188622.6, 14284.207, -0.047433913, -0.6121571, -677938.2, 444880.44, 0.00014660205, 10.004282, 9.997512 
2.2452866e+3, 1.9541809e+2, -695008.6, -1155126.3, 7028.353, -0.056979943, -0.5942932, -694901.25, 329941.13, 0.0000000024737916, 10.003532, 9.997431 
2.2452344e+3, 2.0541559e+2, -680230.3, -1010716.8, 13374.233, -0.03745259, -0.6056272, -679689.94, 247176.86, 0.0, 10.002589, 9.998203 
2.2451824e+3, 2.1541329e+2, -747860.7, -1000508.06, 15847.053, 0.007362343, -0.64573056, -746870.56, 82018.77, 0.0, 10.001486, 9.998132 
2.2451301e+3, 2.254118e+2, -717078.3, -820693.25, 18642.977, 0.0074313777, -0.63951343, -713826.06, 17078.26, 0.0, 10.000533, 9.999152 
2.2450773e+3, 2.3541129e+2, -744703.3, -792217.8, 17718.25, -0.029318674, -0.5946281, -738823.7, -105913.59, 0.0, 9.999709, 9.999072 
2.2450253e+3, 2.4541077e+2, -731124.9, -643216.2, 13331.914, -0.01624476, -0.57468396, -641238.75, -106322.46, 0.0, 9.998734, 9.999891 
2.2449736e+3, 2.554105e+2, -799290.25, -631922.1, 4093.606, 0.037043735, -0.58017117, -631822.06, -194901.72, 0.0, 9.9976225, 9.999832 
2.2449213e+3, 2.6541066e+2, -775875.1, -457792.5, 16798.742, 0.013879763, -0.5762717, -456907.78, -117987.984, 0.0, 9.996628, 10.0008335 
2.2448689e+3, 2.754115e+2, -812645.7, -433280.13, 24534.158, -0.06639866, -0.5666924, -431700.03, -190787.13, 0.0, 9.995739, 10.000757 
2.2448173e+3, 2.8541267e+2, -785893.4, -269658.63, 4297.085, -0.03326959, -0.5518826, -269622.84, -126720.15, 0.0, 9.994821, 10.00165 
2.244766e+3, 2.9541436e+2, -846527.7, -270085.63, -7827.282, 0.07122465, -0.5352144, -269979.38, -225092.28, 0.0, 9.993826, 10.001453 
2.2447133e+3, 3.0541703e+2, -914033.44, -184960.97, -2687.556, 0.00075813866, -0.43449166, -184951.06, -184951.06, 0.0, 9.99263, 10.002279 
2.2446612e+3, 3.1541744e+2, -961769.9, 20954.414, 36769.676, -0.03626206, -0.6225514, 22328.27, 22328.27, 0.0, 9.991319, 10.004325 
2.2556625e+3, 1.2549573e+2, -878979.1, -1727980.8, -11117.358, -0.08237804, -0.59953755, -878833.56, 831249.3, 0.22944278, 10.0097475, 9.995215 
2.2556096e+3, 1.3549154e+2, -820202.6, -1625271.1, -8117.6655, -0.054988172, -0.5960122, -820120.8, 792003.2, 0.16528188, 10.008565, 9.995818 
2.2555572e+3, 1.4548692e+2, -747367.0, -1527675.5, -5767.276, 0.005203049, -0.63984203, -747324.4, 766844.7, 0.100387886, 10.007703, 9.99623 
2.2555032e+3, 1.5548314e+2, -691945.9, -1486114.8, -10074.721, -0.08448506, -0.6272766, -691818.06, 724388.06, 0.04792638, 10.007126, 9.99612 
2.2554497e+3, 1.6547966e+2, -635191.7, -1328678.6, -16203.296, -0.10039286, -0.60790235, -634813.3, 683426.5, 0.016210888, 10.006275, 9.996939 
2.2553967e+3, 1.7547666e+2, -691865.25, -1320803.5, -14393.556, -0.049029727, -0.59196764, -691536.0, 528732.6, 0.0030678774, 10.005194, 9.9968405 
2.2553435e+3, 1.8547343e+2, -688686.75, -1211852.4, -12996.694, -0.033585902, -0.60282654, -688364.06, 433936.0, 0.00015289059, 10.004284, 9.9973545 
2.25529e+3, 1.9547036e+2, -705872.44, -1177238.3, -20055.441, -0.05030387, -0.6340852, -705020.6, 319309.88, 0.0000000066937957, 10.003526, 9.997285 
2.2552365e+3, 2.0546795e+2, -674567.7, -999936.44, -26430.512, -0.046076808, -0.63472, -672434.7, 253919.58, 0.0, 10.002588, 9.99828 
2.2551833e+3, 2.1546632e+2, -740957.56, -989202.0, -23623.021, -0.023719996, -0.6152786, -738729.6, 89640.555, 0.0, 10.001493, 9.998208 
2.2551304e+3, 2.2546495e+2, -717552.94, -824369.3, -11253.972, -0.004896001, -0.5997968, -716380.1, 14003.514, 0.0, 10.00054, 9.9991255 
2.2550774e+3, 2.3546407e+2, -746512.75, -798039.75, -13107.779, 0.010905633, -0.58959174, -743370.0, -110977.484, 0.0, 9.999713, 9.999033 
2.2550242e+3, 2.4546312e+2, -749631.3, -683592.1, -28701.809, 0.0027298622, -0.59556025, -672861.44, -138458.47, 0.0, 9.998738, 9.999614 
2.2549705e+3, 2.554624e+2, -816388.56, -670334.56, -38193.895, -0.02627197, -0.61651117, -660949.7, -224537.73, 0.0, 9.99763, 9.999567 
2.2549178e+3, 2.6546285e+2, -761112.2, -429563.1, -17998.652, -0.021792118, -0.5853929, -428588.88, -90179.73, 0.0, 9.996634, 10.001027 
2.2548652e+3, 2.7546445e+2, -800846.56, -410648.97, -9441.206, 0.014572139, -0.51882493, -410420.66, -170026.27, 0.0, 9.995742, 10.000914 
2.2548126e+3, 2.8546548e+2, -810823.75, -323305.25, -34214.35, 0.019442046, -0.50352424, -320915.78, -178530.55, 0.0, 9.994823, 10.001284 
2.254759e+3, 2.9546648e+2, -861384.9, -305215.84, -48855.055, -0.018276503, -0.51991564, -300956.9, -256580.27, 0.0, 9.993839, 10.001209 
2.2547056e+3, 3.0546725e+2, -881225.5, -119470.79, -54196.645, -0.04555266, -0.62079793, -115634.18, -115634.18, 0.0, 9.992637, 10.002729 
2.2546531e+3, 3.154705e+2, -959166.3, 26712.738, -4096.2646, 0.041051764, -0.5611603, 26729.758, 26729.758, 0.0, 9.991311, 10.004372 
2.2656725e+3, 1.2554945e+2, -898873.2, -1754286.5, 15092.926, -0.028187234, -0.6028449, -898606.94, 810949.5, 0.23179908, 10.00966, 9.995076 
2.2656178e+3, 1.3554527e+2, -778531.6, -1604155.6, 21008.477, -0.08515355, -0.5931973, -777997.4, 833600.5, 0.16699211, 10.008936, 9.995791 
2.2655645e+3, 1.4554074e+2, -705878.75, -1512695.8, 30893.146, -0.032627925, -0.62285095, -704697.56, 808944.9, 0.101446986, 10.008065, 9.996156 
2.2655103e+3, 1.5553689e+2, -697933.4, -1496055.9, 21489.941, -0.07512594, -0.6088875, -697355.2, 718325.1, 0.048454475, 10.007122, 9.996052 
2.2654559e+3, 1.6553335e+2, -645950.2, -1327534.3, 2174.3792, -0.08237366, -0.59417963, -645943.25, 671771.25, 0.01641151, 10.006179, 9.996989 
2.265402e+3, 1.755303e+2, -682743.5, -1310057.3, -156.68256, -0.05302031, -0.586641, -682743.44, 537000.25, 0.0031219698, 10.005235, 9.996893 
2.2653477e+3, 1.8552713e+2, -687880.94, -1201826.8, 12593.944, -0.040146332, -0.5990807, -687572.5, 434202.03, 0.00016039627, 10.004253, 9.997435 
2.2652932e+3, 1.9552416e+2, -741219.3, -1185200.8, 20537.123, -0.043813664, -0.62820745, -740271.3, 283532.56, 0.000000012732063, 10.003249, 9.99736 
2.265239e+3, 2.0552176e+2, -702674.5, -1012997.56, 17375.479, -0.044241525, -0.62847894, -701704.6, 224122.61, 0.0, 10.0023985, 9.998279 
2.2651848e+3, 2.1552014e+2, -715037.06, -976121.25, 13365.176, -0.040545907, -0.6073069, -714354.7, 113488.375, 0.0, 10.001675, 9.998208 
2.2651306e+3, 2.255187e+2, -695955.56, -815823.2, 19535.348, -0.019565675, -0.59531975, -692852.2, 37004.8, 0.0, 10.000701, 9.9991045 
2.265077e+3, 2.355177e+2, -776423.0, -814262.06, 18168.406, 0.015928922, -0.59469366, -769112.0, -137245.06, 0.0, 9.99952, 9.999011 
2.2650227e+3, 2.4551672e+2, -767039.75, -691609.7, 18544.53, 0.0063855513, -0.60276884, -687297.06, -153419.4, 0.0, 9.998623, 9.999612 
2.264968e+3, 2.5551605e+2, -770909.2, -649697.2, 28793.756, -0.041387446, -0.61814153, -643205.0, -207318.86, 0.0, 9.997952, 9.99955 
2.264914e+3, 2.655165e+2, -719893.44, -426350.88, 37225.746, -0.033376466, -0.5780302, -421703.63, -83819.84, 0.0, 9.996993, 10.000873 
2.264861e+3, 2.75518e+2, -808021.2, -430233.16, 18557.557, 0.027000507, -0.5007456, -429323.78, -189453.4, 0.0, 9.995769, 10.000763 
2.2648074e+3, 2.8551888e+2, -824564.7, -323759.28, 3858.395, 0.030347457, -0.49408334, -323729.56, -181867.05, 0.0, 9.994709, 10.001331 
2.2647527e+3, 2.9551974e+2, -856417.4, -291442.6, 18790.723, -0.031252235, -0.53086126, -290818.3, -246963.6, 0.0, 9.993831, 10.001304 
2.264698e+3, 3.0552047e+2, -867166.6, -120978.62, -10609.38, -0.041907135, -0.63680404, -120827.805, -120827.805, 0.0, 9.992774, 10.002649 
2.2646445e+3, 3.1552508e+2, -948583.5, 28508.43, 12377.277, 0.06982248, -0.42491347, 28665.193, 28665.193, 0.0, 9.991402, 10.004338 
2.2756831e+3, 1.2560366e+2, -906017.44, -1761704.3, -3692.95, 0.069630064, -0.63862157, -906001.5, 803024.1, 0.23391022, 10.00963, 9.99504 
2.2756259e+3, 1.3560021e+2, -774364.5, -1598105.3, -3798.0276, -0.15513584, -0.5625832, -774347.0, 836713.7, 0.16854455, 10.008963, 9.995831 
2.2755715e+3, 1.4559594e+2, -714864.5, -1537339.8, -2334.8704, -0.11404466, -0.5603802, -714857.9, 798245.25, 0.10243256, 10.008085, 9.995979 
2.2755173e+3, 1.5559164e+2, -712999.7, -1523345.9, -11993.126, -0.04564307, -0.5711201, -712822.25, 702322.9, 0.048962962, 10.007095, 9.99588 
2.2754624e+3, 1.6558775e+2, -650590.94, -1331412.4, -31304.037, -0.037199777, -0.5836496, -649154.6, 668028.25, 0.016610418, 10.006149, 9.99698 
2.2754067e+3, 1.7558442e+2, -682983.0, -1310061.6, -33667.457, -0.067483336, -0.6023136, -681180.56, 538034.1, 0.0031779185, 10.005228, 9.996899 
2.2753513e+3, 1.8558156e+2, -668230.75, -1163622.1, -23612.977, -0.064256065, -0.5993918, -667107.75, 454134.5, 0.00016885181, 10.00426, 9.997697 
2.2752964e+3, 1.955793e+2, -722930.1, -1150203.6, -15740.013, -0.038156807, -0.58198076, -722351.1, 300912.8, 0.00000001851255, 10.003257, 9.9976 
2.2752415e+3, 2.0557691e+2, -707875.9, -1025492.06, -8883.8, -0.033623148, -0.59069705, -707627.6, 217659.52, 0.0, 10.0024, 9.998195 
2.2751863e+3, 2.1557467e+2, -721551.25, -989565.7, -12846.833, -0.04474638, -0.62151444, -720936.9, 106371.9, 0.0, 10.001669, 9.998121 
2.275131e+3, 2.2557303e+2, -698689.5, -822187.75, -23518.63, -0.03751472, -0.6243165, -694362.3, 34962.594, 0.0, 10.0007, 9.9990635 
2.2750759e+3, 2.3557211e+2, -776411.1, -817206.1, -24431.7, -0.014985848, -0.60922015, -764981.5, -133647.36, 0.0, 9.999528, 9.99899 
2.275021e+3, 2.455715e+2, -748069.0, -655196.56, -6872.7446, -0.0046431925, -0.5956994, -654690.75, -121349.664, 0.0, 9.998631, 9.999861 
2.2749661e+3, 2.555713e+2, -754536.0, -619388.56, 2668.4097, -0.007849909, -0.58500147, -619335.94, -183992.39, 0.0, 9.997963, 9.999756 
2.2749111e+3, 2.6557145e+2, -756586.75, -505139.6, -10114.2705, -0.02201538, -0.5551189, -504733.4, -167388.77, 0.0, 9.997, 10.000331 
2.274856e+3, 2.7557206e+2, -840745.3, -500584.53, -29510.172, -0.035478346, -0.51458806, -498043.4, -258701.31, 0.0, 9.995774, 10.000279 
2.2748016e+3, 2.8557283e+2, -791136.8, -256281.36, -30969.375, -0.0024522801, -0.52540797, -254494.13, -113158.555, 0.0, 9.994712, 10.001797 
2.274747e+3, 2.9557404e+2, -825141.8, -228735.56, -13665.023, 0.040251117, -0.57043695, -228422.63, -185100.55, 0.0, 9.9938345, 10.001736 
2.2746915e+3, 3.0557683e+2, -911567.56, -216211.61, -60465.54, 0.014991977, -0.45702168, -210992.92, -210992.92, 0.0, 9.992781, 10.001995 
2.2746353e+3, 3.1557816e+2, -975383.3, -29308.498, -34331.688, 0.011766501, -0.50859267, -28064.287, -28064.287, 0.0, 9.991408, 10.003939 
2.2856927e+3, 1.2565912e+2, -925467.2, -1791493.1, 20724.678, 0.06697151, -0.6004142, -924971.5, 783512.7, 0.23571427, 10.009555, 9.99487 
2.285635e+3, 1.3565533e+2, -727335.4, -1582983.3, 5536.893, -0.15295012, -0.5451411, -727299.56, 883223.4, 0.16988514, 10.009408, 9.995738 
2.2855796e+3, 1.456512e+2, -667786.06, -1491589.3, -15888.236, -0.10780601, -0.5353309, -667479.75, 845084.0, 0.10330215, 10.008362, 9.996172 
2.2855242e+3, 1.5564701e+2, -761527.5, -1526311.5, -2682.087, -0.031381138, -0.55531085, -761518.06, 653085.94, 0.049426634, 10.00666, 9.996065 
2.2854683e+3, 1.6564319e+2, -719820.25, -1351780.6, 15023.615, -0.022015318, -0.5738273, -719463.25, 597177.2, 0.016798161, 10.005615, 9.997094 
2.2854118e+3, 1.7563996e+2, -697845.8, -1305148.3, 19240.73, -0.057968542, -0.59393126, -697236.9, 521434.38, 0.0032334542, 10.005079, 9.997 
2.2853555e+3, 1.856371e+2, -665051.7, -1164039.8, 12129.791, -0.062691495, -0.59167427, -664757.0, 455941.78, 0.00017782477, 10.004296, 9.997673 
2.2852996e+3, 1.9563481e+2, -713936.25, -1145975.5, -91.69289, -0.0456724, -0.57352334, -713936.2, 308784.78, 0.000000023014687, 10.003325, 9.997592 
2.2852434e+3, 2.0563251e+2, -707355.06, -1001441.7, 12071.096, -0.039847996, -0.58218753, -706860.44, 217882.5, 0.0, 10.002308, 9.998402 
2.2851875e+3, 2.1563044e+2, -769396.8, -991289.6, 27506.3, -0.042221103, -0.61471415, -766037.94, 60724.17, 0.0, 10.001254, 9.998306 
2.2851314e+3, 2.2562882e+2, -735009.5, -844039.75, 26932.027, -0.04176964, -0.6221527, -728719.75, 58.300884, 0.0, 10.000474, 9.99902 
2.2850755e+3, 2.356278e+2, -724684.44, -795642.6, 25110.875, -0.036662433, -0.6118852, -716697.2, -85908.45, 0.0, 9.999904, 9.998954 
2.2850195e+3, 2.4562721e+2, -699350.25, -620927.75, 31790.938, -0.019676236, -0.596109, -609659.44, -76864.33, 0.0, 9.998923, 9.999952 
2.2849639e+3, 2.556272e+2, -799275.4, -630303.0, 29945.12, 0.0023441662, -0.5788172, -625153.1, -190357.44, 0.0, 9.997616, 9.9998455 
2.284908e+3, 2.6562732e+2, -811543.25, -538008.06, 33089.797, -0.012126859, -0.5498107, -534062.1, -197265.22, 0.0, 9.996655, 10.000268 
2.2848518e+3, 2.7562782e+2, -819111.1, -496328.53, 48061.953, -0.0427444, -0.5134587, -489324.16, -250528.17, 0.0, 9.995954, 10.00022 
2.2847961e+3, 2.8562844e+2, -754623.56, -235858.1, 39470.508, -0.010461733, -0.5311147, -232872.14, -92081.66, 0.0, 9.994955, 10.001817 
2.2847405e+3, 2.9562953e+2, -847265.6, -239535.45, 21192.303, 0.036843233, -0.59503967, -238797.34, -196018.89, 0.0, 9.99369, 10.001729 
2.2846843e+3, 3.05633e+2, -953034.2, -265492.03, -27151.791, 0.053662796, -0.3966955, -264421.44, -264421.44, 0.0, 9.992628, 10.001728 
2.2846267e+3, 3.1563237e+2, -903278.44, 7180.9893, 37741.824, 0.0005542484, -0.615597, 8742.845, 8742.845, 0.0, 9.991903, 10.003946 
2.2957012e+3, 1.2571563e+2, -935935.06, -1829870.8, 20157.637, -0.016404467, -0.5124402, -935480.75, 772452.75, 0.23715997, 10.009611, 9.994581 
2.295645e+3, 1.3571078e+2, -750262.44, -1613854.9, -475.92792, -0.09300449, -0.5390792, -750262.2, 859721.1, 0.17097627, 10.009326, 9.995529 
2.2955886e+3, 1.4570668e+2, -648949.5, -1435851.9, -71011.86, -0.033812515, -0.5391055, -642592.56, 869430.3, 0.10402175, 10.008282, 9.99664 
2.2955307e+3, 1.55703e+2, -729442.4, -1459855.6, -58782.15, -0.032380443, -0.5562463, -724741.94, 689314.7, 0.04981795, 10.006673, 9.99652 
2.2954737e+3, 1.6569959e+2, -702401.3, -1322733.1, -3274.0266, -0.032201122, -0.56481516, -702384.06, 613704.06, 0.016960783, 10.005644, 9.997282 
2.295417e+3, 1.7569672e+2, -687950.0, -1283857.8, -905.90045, -0.028405905, -0.5660003, -687948.6, 530166.25, 0.0032843086, 10.005072, 9.997152 
2.2953598e+3, 1.8569364e+2, -687752.9, -1208021.8, -23027.8, -0.0401655, -0.5775458, -686735.6, 433409.44, 0.00018665528, 10.004277, 9.997383 
2.2953025e+3, 1.9569068e+2, -731778.9, -1181637.5, -34011.96, -0.065480135, -0.599281, -729221.94, 292953.28, 0.00000002796664, 10.003315, 9.997355 
2.2952454e+3, 2.0568858e+2, -675971.1, -937217.0, -25054.932, -0.061312124, -0.59977704, -673589.9, 250604.9, 0.0, 10.002307, 9.998845 
2.2951888e+3, 2.156874e+2, -739243.56, -931327.7, -9141.408, -0.03475076, -0.58842844, -738809.5, 87394.52, 0.0, 10.00126, 9.998718 
2.2951318e+3, 2.2568597e+2, -738676.7, -853908.4, 6668.261, -0.03389879, -0.5905612, -738292.1, -10074.512, 0.0, 10.000479, 9.998952 
2.2950749e+3, 2.3568466e+2, -728966.9, -806401.7, 2471.5537, -0.05031637, -0.60437304, -728888.06, -98656.28, 0.0, 9.999906, 9.998881 
2.2950181e+3, 2.4568382e+2, -704404.9, -632840.44, -17920.62, -0.039311145, -0.6048813, -628603.75, -96362.914, 0.0, 9.998924, 9.999872 
2.2949612e+3, 2.556836e+2, -800983.94, -635831.25, -18574.574, -0.013166979, -0.59945226, -633767.94, -199524.48, 0.0, 9.99762, 9.999808 
2.2949046e+3, 2.65684e+2, -781532.0, -477885.0, 6128.997, -0.003972003, -0.5619925, -477761.34, -141520.16, 0.0, 9.996659, 10.000682 
2.294848e+3, 2.7568522e+2, -791817.4, -444004.0, 20981.107, 0.007339676, -0.4977271, -442742.94, -204510.56, 0.0, 9.995967, 10.000576 
2.294791e+3, 2.856858e+2, -787369.25, -306582.66, -9399.278, 0.006721519, -0.50949657, -306399.0, -166171.53, 0.0, 9.994962, 10.00133 
2.2947332e+3, 2.9568616e+2, -882872.8, -312789.1, -29524.934, -0.049451638, -0.59733456, -311264.06, -269039.97, 0.0, 9.993681, 10.001232 
2.2946768e+3, 3.056886e+2, -941909.4, -243544.17, -58139.617, 0.06888929, -0.4844939, -238737.08, -238737.08, 0.0, 9.992626, 10.0018835 
2.294619e+3, 3.156906e+2, -869639.06, 67936.98, 14319.683, 0.04311107, -0.4657756, 68155.63, 68155.63, 0.0, 9.991938, 10.00435 
2.3057108e+3, 1.2577266e+2, -828932.2, -1734740.4, 35684.49, -0.05179538, -0.46393073, -827528.56, 879849.1, 0.23817398, 10.010469, 9.9948225 
2.305654e+3, 1.3576765e+2, -868313.0, -1656259.3, 39192.402, -0.05068292, -0.525456, -866368.4, 743059.4, 0.17176934, 10.008243, 9.99576 
2.3055966e+3, 1.4576383e+2, -781595.6, -1475780.0, -9769.032, 0.010437601, -0.5221733, -781458.2, 730006.0, 0.104554065, 10.00716, 9.99687 
2.3055373e+3, 1.5576023e+2, -675297.2, -1407393.9, -9680.628, -0.03291427, -0.55156064, -675169.2, 738327.44, 0.050107904, 10.006965, 9.996737 
2.3054792e+3, 1.6575693e+2, -631928.8, -1281976.4, 31084.066, -0.043293253, -0.56161046, -630445.8, 685081.1, 0.017081851, 10.006115, 9.997335 
2.3054218e+3, 1.7575417e+2, -726344.06, -1294987.9, 24537.764, -0.025025547, -0.55401546, -725287.2, 492265.2, 0.003324398, 10.004782, 9.997212 
2.3053637e+3, 1.8575118e+2, -752422.4, -1218387.4, 19152.574, -0.03172883, -0.5689737, -751636.5, 367945.1, 0.00019435275, 10.00375, 9.997561 
2.3053055e+3, 1.9574824e+2, -774420.2, -1183512.5, 38096.504, -0.05923849, -0.60425705, -770902.7, 250708.48, 0.000000034904282, 10.002947, 9.997517 
2.3052475e+3, 2.057462e+2, -696774.2, -947317.94, 41775.91, -0.062375985, -0.6057552, -689992.0, 233638.28, 0.0, 10.00217, 9.998839 
2.3051897e+3, 2.157451e+2, -717121.2, -919080.06, 25396.227, -0.045638602, -0.58438164, -713976.56, 111662.26, 0.0, 10.001411, 9.998725 
2.3051322e+3, 2.2574377e+2, -739196.25, -837162.8, 36496.164, -0.0410024, -0.5849851, -727094.94, 556.60114, 0.0, 10.000407, 9.999099 
2.3050745e+3, 2.3574254e+2, -820081.4, -834497.56, 47982.664, -0.044042837, -0.6037344, -778768.44, -149103.67, 0.0, 9.999218, 9.999018 
2.3050167e+3, 2.4574174e+2, -772637.4, -660120.56, 39453.223, -0.036218908, -0.60629797, -647665.3, -115992.08, 0.0, 9.998437, 9.999917 
2.3049587e+3, 2.5574157e+2, -750961.4, -605966.4, 46484.09, -0.02384931, -0.599961, -592343.8, -158668.31, 0.0, 9.997943, 9.999855 
2.3049012e+3, 2.6574203e+2, -741831.6, -445641.16, 54782.61, -0.004338937, -0.5657666, -435833.47, -100160.74, 0.0, 9.996881, 10.000794 
2.3048438e+3, 2.7574322e+2, -864555.75, -466135.88, 47987.254, 0.035897814, -0.5101474, -460437.6, -222774.3, 0.0, 9.995418, 10.000686 
2.3047858e+3, 2.85744e+2, -838971.3, -330335.66, 36121.78, 0.017354133, -0.51008207, -327783.22, -188126.5, 0.0, 9.994608, 10.001335 
2.3047265e+3, 2.9574463e+2, -809818.5, -280053.13, 48839.688, -0.09146034, -0.5653529, -275588.16, -233937.6, 0.0, 9.994197, 10.001206 
2.3046699e+3, 3.0574605e+2, -873545.8, -224391.56, 20046.31, 0.100783825, -0.5467183, -223773.11, -223773.11, 0.0, 9.993158, 10.001756 
2.3046103e+3, 3.1574878e+2, -883990.3, 54748.418, 52366.047, 0.010754445, -0.44324324, 57660.543, 57660.543, 0.0, 9.991875, 10.004286 
2.3157209e+3, 1.258302e+2, -799182.75, -1658309.1, -21108.873, -0.053658687, -0.45225242, -798664.4, 908152.4, 0.23863386, 10.01043, 9.995466 
2.3156624e+3, 1.3582589e+2, -835421.56, -1581405.9, -23224.123, -0.02669214, -0.5054463, -834699.25, 774158.8, 0.17217584, 10.008252, 9.996306 
2.3156038e+3, 1.4582242e+2, -778674.94, -1474326.6, -14969.401, 0.02843954, -0.4896426, -778353.0, 732537.1, 0.104841515, 10.007178, 9.996875 
2.3155442e+3, 1.5581858e+2, -678396.6, -1409498.0, -17682.482, -0.033290394, -0.5424201, -677969.25, 734956.06, 0.050263025, 10.006941, 9.996735 
2.3154852e+3, 1.6581516e+2, -641119.25, -1295313.9, -15927.398, -0.05563617, -0.56285536, -640731.7, 674225.75, 0.01714495, 10.006084, 9.99726 
2.3154263e+3, 1.7581233e+2, -729274.44, -1300286.5, -21015.53, -0.044398725, -0.555737, -728502.0, 488481.94, 0.003347825, 10.004773, 9.997183 
2.3153675e+3, 1.8580966e+2, -712958.6, -1138451.1, -8672.53, -0.03577976, -0.5652486, -712781.94, 406227.16, 0.00019992383, 10.003754, 9.998112 
2.3153086e+3, 1.9580737e+2, -740778.56, -1115345.1, 9267.619, -0.031202639, -0.59094113, -740549.4, 280481.34, 0.000000043907978, 10.002949, 9.997986 
2.3152497e+3, 2.0580523e+2, -726709.44, -1010225.06, 14536.317, -0.046150934, -0.6013303, -725966.06, 197084.9, 0.0, 10.002168, 9.99841 
2.3151907e+3, 2.1580347e+2, -743796.0, -974086.56, -2124.4194, -0.07434946, -0.60273075, -743776.44, 81291.04, 0.0, 10.001405, 9.998354 
2.315132e+3, 2.2580214e+2, -716303.6, -790174.7, -6548.9297, -0.06199264, -0.6042794, -715727.5, 11352.895, 0.0, 10.000404, 9.999425 
2.3150738e+3, 2.3580134e+2, -796660.5, -788507.6, 5984.048, -0.019801242, -0.6096014, -785343.44, -156255.03, 0.0, 9.999224, 9.999333 
2.3150152e+3, 2.4580091e+2, -760873.44, -638642.1, 20966.482, -0.011779998, -0.6001632, -635145.75, -104052.61, 0.0, 9.998445, 10.000063 
2.3149563e+3, 2.5580102e+2, -741242.8, -590092.44, 24353.105, -0.031400565, -0.5799749, -586265.56, -153172.94, 0.0, 9.997955, 9.99996 
2.3148978e+3, 2.6580125e+2, -756546.7, -478306.1, -2538.4648, -0.014052411, -0.56147385, -478282.94, -143190.67, 0.0, 9.996884, 10.000571 
2.314839e+3, 2.7580175e+2, -876602.94, -489992.13, -4505.7373, 0.039700657, -0.551703, -489939.63, -252849.8, 0.0, 9.995408, 10.000529 
2.3147802e+3, 2.8580293e+2, -801919.0, -254082.34, 21659.51, 0.020545285, -0.5342251, -253227.34, -114148.42, 0.0, 9.994605, 10.001863 
2.3147207e+3, 2.95805e+2, -772971.9, -211797.1, 29158.273, -0.0837703, -0.49907798, -210286.11, -169228.4, 0.0, 9.994226, 10.001664 
2.3146634e+3, 3.058054e+2, -907004.7, -299903.97, -33961.06, 0.14862227, -0.5743462, -298010.13, -298010.13, 0.0, 9.993178, 10.00123 
2.3146015e+3, 3.158067e+2, -908019.94, 5571.534, -28555.84, -0.028035596, -0.5580933, 6463.2246, 6463.2246, 0.0, 9.991863, 10.003958 
2.3257312e+3, 1.2588982e+2, -837608.3, -1681392.5, 39523.49, -0.047520693, -0.4536867, -835761.06, 870471.5, 0.23836784, 10.010108, 9.99541 
2.3256707e+3, 1.3588524e+2, -798597.56, -1575587.0, 5236.7163, -0.005700398, -0.51626104, -798562.3, 809714.44, 0.17206195, 10.008621, 9.996175 
2.3256111e+3, 1.4588194e+2, -745455.25, -1453255.0, 36101.957, 0.04164659, -0.4782878, -743618.6, 766688.8, 0.10479879, 10.007415, 9.996919 
2.3255508e+3, 1.5587825e+2, -744790.5, -1436468.6, 36337.85, -0.031035649, -0.5219338, -742886.7, 669455.06, 0.050240308, 10.006437, 9.996788 
2.3254907e+3, 1.6587481e+2, -715205.2, -1315171.8, 32104.205, -0.052650828, -0.5520096, -713492.2, 600881.56, 0.017133243, 10.005504, 9.997397 
2.325431e+3, 1.758719e+2, -745139.94, -1292515.9, 41534.67, -0.032932162, -0.56545746, -742006.25, 474394.25, 0.0033501498, 10.004604, 9.997314 
2.325371e+3, 1.8586937e+2, -711048.8, -1129100.8, 50364.99, -0.02839842, -0.5688012, -705066.7, 413357.47, 0.00020279663, 10.003737, 9.99818 
2.3253113e+3, 1.9586737e+2, -743583.2, -1107223.1, 34860.516, -0.035948962, -0.5698843, -740271.44, 280171.56, 0.000000051889515, 10.002896, 9.998064 
2.3252514e+3, 2.0586525e+2, -751118.1, -1006163.56, 45862.277, -0.048099164, -0.5881395, -743121.9, 179340.9, 0.0, 10.001938, 9.998546 
2.325192e+3, 2.1586332e+2, -809264.56, -991846.2, 67734.76, -0.06367312, -0.6191481, -786880.4, 37600.13, 0.0, 10.000901, 9.998471 
2.3251323e+3, 2.25862e+2, -757340.3, -810961.9, 66569.266, -0.053924665, -0.62110615, -712385.6, 14107.681, 0.0, 10.000133, 9.999411 
2.3250727e+3, 2.358614e+2, -750945.6, -765922.06, 54210.85, -0.023139087, -0.60598856, -703708.25, -75208.23, 0.0, 9.999541, 9.999332 
2.3250134e+3, 2.4586108e+2, -740209.44, -614847.25, 56999.38, -0.0151559645, -0.58996403, -592806.1, -62302.492, 0.0, 9.998532, 10.000181 
2.3249538e+3, 2.5586128e+2, -840471.7, -625753.2, 58092.316, -0.025697105, -0.57175267, -611043.9, -178541.7, 0.0, 9.99723, 10.000062 
2.3248942e+3, 2.6586148e+2, -812688.3, -500706.97, 40085.035, -0.0068579144, -0.5613681, -495638.97, -161137.14, 0.0, 9.996485, 10.000606 
2.3248348e+3, 2.7586183e+2, -775904.1, -437436.9, 55818.414, 0.040016063, -0.5690512, -428469.2, -191968.66, 0.0, 9.996086, 10.000561 
2.3247749e+3, 2.85863e+2, -745609.5, -220543.28, 67023.484, 0.018908579, -0.5534024, -212122.92, -73633.33, 0.0, 9.99497, 10.001914 
2.3247147e+3, 2.9586536e+2, -885912.9, -257641.95, 37018.73, -0.068367, -0.49297407, -255468.27, -215002.4, 0.0, 9.9934225, 10.001733 
2.3246562e+3, 3.058661e+2, -936552.8, -291703.8, -902.9253, 0.16582865, -0.55125815, -291702.56, -291702.56, 0.0, 9.992887, 10.001424 
2.3245935e+3, 3.1586754e+2, -784428.6, 50287.1, 27399.512, -0.052104596, -0.5295722, 51185.523, 51185.523, 0.0, 9.992777, 10.003823 
2.3357412e+3, 1.2595108e+2, -875041.7, -1766656.1, -2129.2544, -0.040179998, -0.47263038, -875036.6, 830593.4, 0.2371918, 10.010049, 9.994803 
2.3356794e+3, 1.3594563e+2, -836343.0, -1665634.3, -37092.656, 0.011759322, -0.5500899, -834687.25, 772997.56, 0.17127603, 10.008617, 9.995517 
2.3356184e+3, 1.4594236e+2, -739472.0, -1446678.0, 6319.8057, 0.050263934, -0.4826773, -739415.5, 770300.94, 0.10432813, 10.007432, 9.996964 
2.3355569e+3, 1.5593906e+2, -738707.5, -1425922.9, 4038.5044, -0.027735958, -0.49206078, -738683.8, 673063.25, 0.04999275, 10.006442, 9.996861 
2.3354961e+3, 1.659357e+2, -694323.25, -1273865.6, 861.2106, -0.03771678, -0.531768, -694321.94, 619455.5, 0.01703088, 10.005507, 9.997686 
2.3354356e+3, 1.759327e+2, -727877.06, -1259147.1, 9372.638, 0.0037108285, -0.5821346, -727711.8, 488091.9, 0.0033284342, 10.00461, 9.997543 
2.3353748e+3, 1.8593018e+2, -736037.4, -1182526.6, 20049.436, -0.012327676, -0.57791346, -735138.9, 382689.13, 0.00020274668, 10.003738, 9.997816 
2.3353137e+3, 1.9592817e+2, -763453.4, -1148211.8, 5156.8306, -0.07047318, -0.54295456, -763384.3, 256464.44, 0.000000054038466, 10.00289, 9.997788 
2.3352532e+3, 2.0592621e+2, -707232.6, -915929.3, 8855.734, -0.06597867, -0.5676336, -706857.5, 215008.88, 0.0, 10.001937, 9.999168 
2.3351929e+3, 2.1592453e+2, -770674.9, -914484.94, 31808.092, -0.017732657, -0.63451874, -763953.6, 59925.547, 0.0, 10.000908, 9.999002 
2.3351325e+3, 2.2592328e+2, -781232.3, -863187.6, 44997.086, -0.019923238, -0.63512844, -761350.25, -35458.85, 0.0, 10.000138, 9.999051 
2.335072e+3, 2.3592257e+2, -772474.75, -812855.8, 29881.195, -0.055403974, -0.5933051, -756602.25, -128701.65, 0.0, 9.999545, 9.999011 
2.3350115e+3, 2.4592216e+2, -734539.0, -604696.7, 6995.9126, -0.045955714, -0.57631505, -604320.9, -74415.13, 0.0, 9.998535, 10.000253 
2.3349512e+3, 2.5592226e+2, -834128.25, -613897.7, 11623.627, -0.00766677, -0.5759559, -613285.94, -181380.84, 0.0, 9.99723, 10.000146 
2.3348908e+3, 2.6592264e+2, -792552.5, -460492.13, 25061.887, 0.01712172, -0.56519866, -458611.25, -124709.21, 0.0, 9.996487, 10.000884 
2.3348306e+3, 2.759234e+2, -758406.06, -407497.53, 35660.027, 0.03547415, -0.55948305, -403910.38, -168014.75, 0.0, 9.996109, 10.000758 
2.3347695e+3, 2.8592414e+2, -779752.0, -295612.5, 5041.5674, 0.01071313, -0.5688924, -295560.0, -157670.3, 0.0, 9.994983, 10.001396 
2.334708e+3, 2.959255e+2, -915242.56, -314891.56, -16900.525, -0.049501285, -0.55556244, -314416.16, -274538.53, 0.0, 9.993402, 10.001353 
2.334649e+3, 3.0592814e+2, -865011.5, -142317.7, 175.88159, 0.15238598, -0.46377262, -142317.66, -142317.66, 0.0, 9.992878, 10.002456 
2.3345856e+3, 3.1592956e+2, -800420.0, 5370.407, 3267.9622, -0.08401059, -0.53829736, 5383.6606, 5383.6606, 0.0, 9.99282, 10.003498 
2.3457512e+3, 1.2601322e+2, -912924.44, -1765607.6, 3817.698, 0.0048990864, -0.47175545, -912907.3, 792114.06, 0.23496245, 10.009574, 9.995038 
2.3456877e+3, 1.3600786e+2, -830736.8, -1656257.1, 10598.12, -0.002150588, -0.5486575, -830600.8, 776473.94, 0.16969605, 10.008626, 9.995574 
2.3456255e+3, 1.4600451e+2, -732025.2, -1462584.6, 71377.26, 0.02831191, -0.4778518, -725116.75, 783990.3, 0.10335037, 10.007584, 9.996764 
2.3455635e+3, 1.560009e+2, -742628.9, -1447192.0, 57329.98, -0.0082326885, -0.49532565, -737994.5, 673146.75, 0.049483083, 10.006499, 9.996686 
2.3455018e+3, 1.6599752e+2, -687290.3, -1264938.0, 44690.4, -0.015826404, -0.53276885, -683853.25, 629318.94, 0.016825752, 10.005537, 9.997731 
2.34544e+3, 1.7599465e+2, -717669.25, -1248509.3, 36507.64, 0.00062175567, -0.57345307, -715170.25, 500026.84, 0.003280265, 10.004662, 9.997588 
2.3453781e+3, 1.859921e+2, -740338.3, -1171918.6, 55694.26, -0.017689524, -0.57507414, -733267.0, 383954.0, 0.00019945712, 10.00366, 9.997923 
2.3453164e+3, 1.9599006e+2, -803139.8, -1156674.3, 71779.86, -0.062388513, -0.5560921, -789121.8, 230120.17, 0.00000004796778, 10.002577, 9.997877 
2.3452549e+3, 2.0598811e+2, -736646.6, -936379.25, 65042.836, -0.05687927, -0.57505685, -717333.0, 203926.38, 0.0, 10.001768, 9.999107 
2.3451938e+3, 2.159866e+2, -740351.8, -904090.75, 38828.246, -0.0144770425, -0.62071556, -731610.9, 91660.56, 0.0, 10.001141, 9.998959 
2.3451325e+3, 2.2598538e+2, -766718.0, -843126.8, 49997.117, -0.016465925, -0.62090224, -741999.5, -16716.318, 0.0, 10.000188, 9.999163 
2.345071e+3, 2.3598465e+2, -843958.7, -836408.06, 68852.88, -0.048312046, -0.5921315, -771227.06, -143934.86, 0.0, 9.999014, 9.999102 
2.3450097e+3, 2.4598417e+2, -780744.5, -634747.3, 53277.473, -0.042618033, -0.5822011, -617372.9, -88074.875, 0.0, 9.998257, 10.000177 
2.3449485e+3, 2.5598413e+2, -761131.7, -585088.5, 46739.45, -0.010319491, -0.5855842, -573448.75, -142150.05, 0.0, 9.997764, 10.000084 
2.3448873e+3, 2.6598457e+2, -750530.6, -434851.94, 46304.14, 0.01646574, -0.5661609, -428200.16, -94904.98, 0.0, 9.996758, 10.000926 
2.3448262e+3, 2.7598557e+2, -858142.94, -449114.78, 37322.49, 0.041891024, -0.54080105, -445737.1, -210450.39, 0.0, 9.995404, 10.000809 
2.3447645e+3, 2.8598627e+2, -819049.06, -307747.66, 23573.469, 0.020030193, -0.5596721, -306663.13, -169382.03, 0.0, 9.99469, 10.001451 
2.3447016e+3, 2.9598728e+2, -771961.7, -247319.92, 46763.406, -0.038647015, -0.5848733, -243184.31, -203912.13, 0.0, 9.994396, 10.001335 
2.3446415e+3, 3.059902e+2, -798866.5, -107791.305, 34571.21, 0.13004014, -0.45640162, -106066.18, -106066.18, 0.0, 9.993327, 10.002473 
2.344578e+3, 3.159914e+2, -950403.2, -40902.633, -19142.217, -0.06368282, -0.56765383, -40499.926, -40499.926, 0.0, 9.991688, 10.003721 
2.3557612e+3, 1.2607609e+2, -870435.75, -1658891.0, -22834.824, 0.071510024, -0.46552387, -869775.0, 834632.6, 0.23164563, 10.009507, 9.995896 
2.3556955e+3, 1.3607165e+2, -794539.5, -1576699.0, -19878.783, -0.042570688, -0.51981676, -794034.56, 812414.25, 0.16729052, 10.008618, 9.996165 
2.3556323e+3, 1.4606816e+2, -756309.5, -1520686.0, 34097.348, -0.01732937, -0.46609506, -754791.5, 753690.44, 0.101843864, 10.007594, 9.996328 
2.35557e+3, 1.560637e+2, -768862.5, -1506035.8, 20509.566, 0.024085283, -0.52574706, -768292.3, 642233.0, 0.04870045, 10.006496, 9.9962845 
2.3555073e+3, 1.6606015e+2, -699866.0, -1291587.4, 14665.097, 0.010151491, -0.5501794, -699502.75, 613055.9, 0.016513262, 10.005532, 9.99755 
2.3554441e+3, 1.7605759e+2, -726124.3, -1266539.3, 5802.258, -0.037387762, -0.5432315, -726062.06, 488519.44, 0.0032037466, 10.004658, 9.997469 
2.3553814e+3, 1.860551e+2, -705133.0, -1101174.9, 16894.309, -0.040920425, -0.5630804, -704413.6, 412190.34, 0.00019248688, 10.003665, 9.998409 
2.3553191e+3, 1.960529e+2, -775248.7, -1103391.3, 33658.656, -0.016938383, -0.60590893, -771831.8, 246792.1, 0.000000035210917, 10.002592, 9.9982395 
2.3552568e+3, 2.0605092e+2, -783636.44, -1037904.2, 42547.605, -0.024942119, -0.6062257, -776705.7, 143937.1, 0.0, 10.00178, 9.998406 
2.3551944e+3, 2.160494e+2, -780578.44, -988799.2, 15319.048, -0.05304819, -0.5798356, -779457.4, 43200.68, 0.0, 10.001141, 9.99838 
2.3551323e+3, 2.2604823e+2, -728319.44, -764725.1, 7297.514, -0.04133734, -0.58082646, -726911.1, -2241.7642, 0.0, 10.000189, 9.999703 
2.3550703e+3, 2.3604752e+2, -810519.06, -770003.75, 27593.06, -0.0037545725, -0.60334915, -756030.56, -129354.945, 0.0, 9.999022, 9.999557 
2.3550081e+3, 2.4604696e+2, -796212.5, -669762.6, 34671.945, -0.0067679044, -0.60701114, -660879.75, -132198.5, 0.0, 9.998264, 9.999936 
2.3549458e+3, 2.5604677e+2, -775121.0, -618637.0, 24369.818, -0.03737708, -0.5995472, -614929.7, -184245.84, 0.0, 9.997778, 9.999849 
2.3548836e+3, 2.6604718e+2, -765646.56, -468719.0, -7189.662, -0.0103728995, -0.56485367, -468545.03, -135862.78, 0.0, 9.996764, 10.000693 
2.3548216e+3, 2.7604818e+2, -867837.6, -467972.13, -12294.404, 0.06031211, -0.51436335, -467594.5, -232919.25, 0.0, 9.995394, 10.000687 
2.354759e+3, 2.860493e+2, -772035.5, -210658.53, 12319.495, 0.048311245, -0.5211739, -210388.31, -73724.14, 0.0, 9.994687, 10.002121 
2.3546961e+3, 2.9605076e+2, -742126.4, -194949.56, 32594.504, -0.039552934, -0.56860524, -193014.8, -154366.55, 0.0, 9.9944315, 10.00168 
2.3546343e+3, 3.060519e+2, -878782.56, -279382.97, -30617.363, 0.09534086, -0.56170106, -277823.1, -277823.1, 0.0, 9.993345, 10.001289 
2.3545696e+3, 3.160543e+2, -891399.8, 89605.55, -36099.867, -0.059499517, -0.4602062, 90932.18, 90932.18, 0.0, 9.99165, 10.004639 
2.36577e+3, 1.2613994e+2, -940172.2, -1675685.5, 22866.791, 0.073563255, -0.4690434, -939461.94, 764320.25, 0.22734928, 10.008741, 9.996111 
2.365704e+3, 1.3613583e+2, -786947.1, -1566347.4, -6324.554, -0.034246217, -0.50013244, -786895.8, 818924.5, 0.16414171, 10.008616, 9.996247 
2.36564e+3, 1.4613234e+2, -731757.25, -1501615.4, 28621.416, -0.016935054, -0.4527716, -730694.6, 777158.5, 0.0998553, 10.007745, 9.996386 
2.3655765e+3, 1.5612774e+2, -778229.06, -1504927.6, 44731.82, 0.024935968, -0.53131664, -775486.0, 634411.5, 0.047662623, 10.006403, 9.996334 
2.3655124e+3, 1.6612414e+2, -723151.25, -1300326.0, 70718.1, 0.0123591935, -0.56271994, -714612.9, 597318.2, 0.0160967, 10.005363, 9.997567 
2.3654485e+3, 1.7612156e+2, -745480.6, -1274345.4, 74374.09, -0.035290327, -0.5548641, -735220.5, 478733.44, 0.0030982937, 10.004524, 9.997477 
2.365385e+3, 1.8611908e+2, -700434.7, -1105550.9, 66198.41, -0.03205605, -0.56908923, -689891.9, 426084.56, 0.00018164604, 10.003733, 9.998343 
2.365322e+3, 1.9611688e+2, -724431.7, -1084725.1, 44991.15, 0.0046046525, -0.6030333, -718898.44, 299097.84, 0.000000020158883, 10.002972, 9.998181 
2.3652585e+3, 2.0611486e+2, -750245.6, -1021713.25, 68936.055, -0.006206348, -0.6072699, -733743.3, 186272.6, 0.0, 10.002014, 9.998403 
2.3651953e+3, 2.1611321e+2, -812830.4, -1005607.56, 89152.055, -0.04781294, -0.5912065, -777922.2, 44110.33, 0.0, 10.000931, 9.998363 
2.3651323e+3, 2.2611201e+2, -752309.2, -786989.6, 70628.164, -0.04254134, -0.5863885, -696923.75, 27120.598, 0.0, 10.000075, 9.999602 
2.3650694e+3, 2.3611134e+2, -766674.4, -756943.2, 45517.78, -0.0037277306, -0.59378284, -716031.7, -89981.03, 0.0, 9.999363, 9.999479 
2.3650064e+3, 2.4611071e+2, -768973.06, -651787.3, 51701.355, -0.004091275, -0.60320485, -632238.3, -104181.58, 0.0, 9.998436, 9.999974 
2.3649432e+3, 2.5611037e+2, -835371.4, -644634.7, 61178.28, -0.03332045, -0.6132178, -626698.56, -196638.6, 0.0, 9.997358, 9.99987 
2.3648798e+3, 2.661107e+2, -801370.44, -499733.5, 35256.656, -0.013351394, -0.5774382, -495667.34, -163608.22, 0.0, 9.996585, 10.000564 
2.364817e+3, 2.7611166e+2, -788291.9, -442095.56, 38001.633, 0.051551208, -0.5166244, -437973.25, -203920.02, 0.0, 9.995999, 10.000569 
2.3647536e+3, 2.8611282e+2, -710323.8, -180059.88, 42425.566, 0.043736223, -0.51713663, -176686.92, -40644.69, 0.0, 9.995113, 10.002123 
2.36469e+3, 2.9611436e+2, -808268.2, -226885.33, 8705.922, -0.04650922, -0.55463165, -226754.98, -188729.98, 0.0, 9.993984, 10.001674 
2.3646274e+3, 3.0611527e+2, -893788.56, -269897.72, -17445.383, 0.08340994, -0.5795007, -269410.3, -269410.3, 0.0, 9.9931755, 10.001434 
2.3645613e+3, 3.1611818e+2, -764474.2, 91855.336, 94170.0, -0.07906993, -0.43874007, 102088.85, 102088.85, 0.0, 9.992782, 10.004105 
2.3757781e+3, 1.2620468e+2, -945078.1, -1709190.3, 19672.021, 0.02755093, -0.4864044, -944572.0, 758575.06, 0.22228652, 10.008803, 9.995798 
2.3757128e+3, 1.3620046e+2, -810231.5, -1611683.5, -12279.909, 0.008158237, -0.48676822, -810043.4, 795144.9, 0.16040516, 10.0085535, 9.995916 
2.3756477e+3, 1.4619707e+2, -710085.8, -1450276.4, -14887.749, 0.014923338, -0.43724525, -709786.44, 797433.44, 0.09747347, 10.007687, 9.996807 
2.3755823e+3, 1.5619287e+2, -750848.25, -1448841.0, 48.777744, -0.00073495775, -0.51638377, -750848.25, 658410.44, 0.046406925, 10.006405, 9.99672 
2.3755176e+3, 1.6618928e+2, -709031.56, -1276954.9, 40136.35, -0.0035003356, -0.5723416, -706209.06, 605082.06, 0.015587623, 10.005382, 9.997724 
2.3754531e+3, 1.7618649e+2, -738431.2, -1263450.5, 43262.016, 0.00085669826, -0.6033076, -734890.25, 478425.4, 0.0029664151, 10.004535, 9.997549 
2.3753889e+3, 1.86184e+2, -738715.44, -1187971.6, 38199.348, 0.0027305458, -0.589172, -735490.56, 379848.7, 0.00016742508, 10.00374, 9.997777 
2.3753247e+3, 1.9618195e+2, -754418.44, -1148853.0, 17050.537, 0.00304482, -0.5531803, -753682.75, 263677.28, 0.0000000080542115, 10.0029745, 9.997743 
2.3752604e+3, 2.0617981e+2, -706222.1, -932586.0, 29589.941, 0.0010863096, -0.5824325, -702418.1, 216961.48, 0.0, 10.002019, 9.999015 
2.3751965e+3, 2.161779e+2, -779846.44, -939905.0, 50812.26, -0.0031768323, -0.6530579, -765078.2, 56317.555, 0.0, 10.0009365, 9.998814 
2.3751323e+3, 2.2617663e+2, -801695.94, -892714.0, 44313.31, -0.023049062, -0.63384205, -783685.4, -60276.313, 0.0, 10.000084, 9.998876 
2.375068e+3, 2.3617603e+2, -807713.44, -845305.75, 17605.352, -0.04965828, -0.56317914, -800756.06, -175337.97, 0.0, 9.999372, 9.998872 
2.3750041e+3, 2.4617529e+2, -747215.6, -608413.2, 10467.953, -0.03379334, -0.5718079, -607628.2, -80203.08, 0.0, 9.99844, 10.000273 
2.3749407e+3, 2.561748e+2, -816571.5, -607636.56, 21526.668, 0.0023947177, -0.6268564, -605441.7, -176013.83, 0.0, 9.997361, 10.000125 
2.3748764e+3, 2.6617512e+2, -803595.7, -506442.72, 12556.2295, 0.0072663957, -0.6038926, -505913.1, -174486.69, 0.0, 9.996589, 10.000519 
2.3748122e+3, 2.7617598e+2, -795303.06, -461958.5, 14701.871, 0.008409412, -0.5485385, -461311.34, -227890.2, 0.0, 9.996017, 10.000427 
2.3747483e+3, 2.8617653e+2, -761895.75, -290865.88, -2627.4907, 0.0019637032, -0.55374604, -290851.22, -155434.45, 0.0, 9.995125, 10.001359 
2.3746836e+3, 2.9617777e+2, -836997.44, -284302.34, -38617.426, -0.05538479, -0.54952765, -281617.16, -244212.08, 0.0, 9.99397, 10.001289 
2.3746203e+3, 3.0618045e+2, -777852.3, -28611.37, -35415.926, 0.093476705, -0.47812295, -26941.016, -26941.016, 0.0, 9.993167, 10.0030985 
2.374554e+3, 3.161819e+2, -912868.6, -227655.03, 92152.09, -0.07663999, -0.61975294, -215478.19, -215478.19, 0.0, 9.992828, 10.001889 
2.3857869e+3, 1.2627056e+2, -861992.2, -1669451.5, 42505.29, 0.003166021, -0.48857707, -859760.9, 842739.3, 0.21669601, 10.009481, 9.995805 
2.3857215e+3, 1.3626614e+2, -896972.8, -1671681.9, 33104.5, 0.04578619, -0.49636185, -895560.75, 708983.06, 0.15624546, 10.0078535, 9.995841 
2.385655e+3, 1.4626266e+2, -798423.44, -1477263.5, 34236.902, 0.04586567, -0.45984668, -796701.06, 709875.44, 0.09479277, 10.006927, 9.996963 
2.3855884e+3, 1.5625869e+2, -740530.7, -1428910.1, 33923.797, -0.0052158893, -0.53320324, -738862.94, 669750.2, 0.044978335, 10.006412, 9.996851 
2.3855227e+3, 1.6625525e+2, -676559.7, -1268880.6, 58718.2, -0.0051256227, -0.5736346, -670794.94, 639849.25, 0.015004606, 10.005644, 9.99765 
2.385458e+3, 1.7625256e+2, -715160.8, -1259613.1, 46693.414, 0.024945263, -0.5854189, -711185.3, 501482.78, 0.0028140738, 10.004732, 9.997477 
2.3853926e+3, 1.8624991e+2, -725539.3, -1185892.9, 59109.75, 0.019770944, -0.58237046, -718070.75, 396622.66, 0.00015097982, 10.003856, 9.997732 
2.3853274e+3, 1.962475e+2, -754322.5, -1153029.6, 71064.19, -0.0065266634, -0.57418376, -742034.94, 274682.34, 0.0000000017673162, 10.003, 9.997698 
2.3852623e+3, 2.0624538e+2, -696255.5, -929174.56, 63672.66, -0.007387457, -0.59730834, -679985.9, 238750.88, 0.0, 10.002099, 9.998997 
2.3851976e+3, 2.1624371e+2, -747806.75, -926512.7, 41077.31, 0.0072725113, -0.64216924, -738816.94, 81933.93, 0.0, 10.001171, 9.99879 
2.3851323e+3, 2.2624241e+2, -773838.0, -888614.5, 53799.156, -0.016329164, -0.62154084, -752563.94, -29799.102, 0.0, 10.00032, 9.998787 
2.3850672e+3, 2.3624158e+2, -794326.6, -848561.5, 71941.28, -0.060376223, -0.5615687, -744561.7, -119785.65, 0.0, 9.999511, 9.998779 
2.3850024e+3, 2.4624074e+2, -726559.7, -608420.3, 56602.793, -0.04434339, -0.5703042, -585678.6, -58894.332, 0.0, 9.99863, 10.000178 
2.384938e+3, 2.562402e+2, -773363.1, -594911.56, 39010.336, 0.0056160428, -0.62119275, -586756.4, -157968.58, 0.0, 9.9977, 10.000046 
2.384873e+3, 2.6624042e+2, -769568.7, -485595.78, 31132.889, 0.009501052, -0.601999, -482222.66, -151436.19, 0.0, 9.99681, 10.000551 
2.384808e+3, 2.7624124e+2, -809583.75, -468867.1, 37686.098, -0.0005210309, -0.55248743, -464748.5, -231967.78, 0.0, 9.995926, 10.00042 
2.384743e+3, 2.8624168e+2, -801822.44, -336616.8, 34851.535, -0.010027288, -0.55750656, -334020.38, -199242.25, 0.0, 9.994973, 10.001114 
2.3846772e+3, 2.962426e+2, -847576.25, -304478.75, 35975.223, -0.06284233, -0.558979, -302106.1, -265335.44, 0.0, 9.993972, 10.001145 
2.3846133e+3, 3.0624568e+2, -737165.2, 25253.703, 8132.913, 0.085846454, -0.45366, 25340.45, 25340.45, 0.0, 9.993304, 10.0034 
2.3845467e+3, 3.1624746e+2, -934790.4, -272114.2, 28980.746, -0.07493014, -0.5820239, -270849.2, -270849.2, 0.0, 9.992827, 10.001583 
2.3957962e+3, 1.2633741e+2, -849403.25, -1643839.1, -6470.3076, -0.011378032, -0.4836033, -849350.56, 852493.0, 0.21079943, 10.009413, 9.9960575 
2.3957293e+3, 1.3633281e+2, -884362.94, -1653438.9, -12347.08, 0.079089046, -0.5253829, -884164.75, 719723.75, 0.15180993, 10.007865, 9.995961 
2.395662e+3, 1.4632908e+2, -796937.94, -1487202.3, 17826.635, 0.07607157, -0.51447123, -796477.9, 709446.06, 0.09190074, 10.00696, 9.996874 
2.3955947e+3, 1.563251e+2, -745200.44, -1444483.8, 14369.911, 0.0054941527, -0.5759641, -744905.25, 663055.8, 0.043424957, 10.006419, 9.996743 
2.3955283e+3, 1.6632198e+2, -695537.4, -1309867.8, 26185.58, 0.002756461, -0.56642145, -694423.25, 615567.2, 0.01437062, 10.005642, 9.997369 
2.3954627e+3, 1.7631969e+2, -729376.2, -1290000.4, 15064.082, 0.0374319, -0.510155, -728971.75, 483040.1, 0.0026492304, 10.00473, 9.997272 
2.3953962e+3, 1.863167e+2, -698017.2, -1129572.1, 28647.53, 0.021379426, -0.5537454, -696123.8, 417915.7, 0.00013374498, 10.003854, 9.998122 
2.39533e+3, 1.9631352e+2, -736336.25, -1115940.0, 39409.563, -0.024031572, -0.66013855, -732288.0, 283780.5, 0.000000000116293294, 10.002996, 9.997957 
2.3952639e+3, 2.0631154e+2, -738461.2, -1018493.2, 29578.29, -0.03088711, -0.6461011, -735371.1, 182716.69, 0.0, 10.002102, 9.998384 
2.3951982e+3, 2.1631055e+2, -779361.5, -994966.1, 8784.708, -0.015211555, -0.5631309, -779004.1, 41094.53, 0.0, 10.001179, 9.99832 
2.3951323e+3, 2.263092e+2, -737180.3, -815245.6, 24688.088, -0.0212447, -0.5540488, -730028.06, -7915.697, 0.0, 10.000328, 9.9992895 
2.3950666e+3, 2.363079e+2, -767268.56, -795027.5, 40950.26, -0.038821254, -0.58944714, -737909.6, -113784.484, 0.0, 9.9995165, 9.999146 
2.3950009e+3, 2.4630694e+2, -761368.44, -682948.44, 20779.268, -0.037556913, -0.59758866, -677782.75, -151647.86, 0.0, 9.998634, 9.999667 
2.394935e+3, 2.5630644e+2, -802449.2, -658573.25, 3475.9666, -0.027468009, -0.5952111, -658489.3, -230348.83, 0.0, 9.997708, 9.999608 
2.3948696e+3, 2.6630655e+2, -762342.8, -472880.3, -3803.842, -0.0071327314, -0.5709997, -472830.34, -142690.22, 0.0, 9.996816, 10.000639 
2.3948039e+3, 2.7630746e+2, -800057.25, -450645.94, 2286.084, 0.028547322, -0.52399814, -450630.97, -218498.53, 0.0, 9.995928, 10.000546 
2.3947378e+3, 2.8630817e+2, -782610.7, -297196.66, -4557.4443, 0.010491686, -0.5242099, -297153.88, -163027.36, 0.0, 9.994969, 10.0013895 
2.3946708e+3, 2.9630867e+2, -843104.6, -296010.66, -37.414, -0.07356393, -0.5894383, -296010.66, -259888.16, 0.0, 9.99397, 10.001207 
2.3946062e+3, 3.0631077e+2, -822194.75, -153368.39, -9539.736, 0.054920405, -0.520815, -153232.36, -153232.36, 0.0, 9.993308, 10.002173 
2.3945396e+3, 3.1631374e+2, -794917.5, 15609.086, -48276.28, -0.033547442, -0.42610526, 18474.371, 18474.371, 0.0, 9.992828, 10.003563 
2.4058051e+3, 1.2640499e+2, -912164.2, -1675188.6, 16958.748, 0.009688464, -0.5131236, -911787.44, 789391.9, 0.20478271, 10.008803, 9.996076 
2.405737e+3, 1.3640048e+2, -863419.5, -1646541.8, 7493.403, 0.07641371, -0.54222226, -863347.8, 739876.0, 0.14722668, 10.008016, 9.9959345 
2.405669e+3, 1.4639671e+2, -758896.2, -1477875.3, 49711.0, 0.07211019, -0.5279735, -755475.44, 749784.75, 0.08887868, 10.007272, 9.996791 
2.4056011e+3, 1.5639289e+2, -732852.8, -1446791.9, 46445.203, 0.021329287, -0.5662189, -729844.0, 677452.56, 0.041794326, 10.006539, 9.996668 
2.405534e+3, 1.6638964e+2, -694803.5, -1311038.0, 59984.16, 0.013588726, -0.5623082, -689018.94, 620308.1, 0.013708256, 10.005656, 9.997351 
2.405467e+3, 1.7638709e+2, -736389.2, -1295026.0, 65645.305, 0.028876564, -0.52970964, -728778.9, 482572.03, 0.0024794138, 10.004693, 9.997252 
2.4053998e+3, 1.8638414e+2, -712886.6, -1136369.8, 70245.484, 0.0117196515, -0.56597716, -701538.7, 411839.56, 0.00011698867, 10.003756, 9.99812 
2.4053328e+3, 1.9638121e+2, -761054.9, -1128968.1, 54369.24, -0.024300056, -0.6467906, -753188.56, 262216.7, 0.000000000004061441, 10.002837, 9.997942 
2.4052659e+3, 2.0637915e+2, -749581.44, -1036835.6, 59189.27, -0.032680232, -0.6322349, -737863.44, 179562.17, 0.0, 10.002088, 9.998263 
2.4051993e+3, 2.163779e+2, -750318.9, -992216.9, 70545.42, -0.023798868, -0.5611399, -731248.94, 88190.33, 0.0, 10.001433, 9.998212 
2.4051325e+3, 2.2637644e+2, -703686.4, -796563.7, 72704.35, -0.02509789, -0.5558911, -663855.25, 57598.445, 0.0, 10.000552, 9.999307 
2.4050662e+3, 2.3637517e+2, -765303.0, -793460.4, 54640.67, -0.03000556, -0.5918035, -722956.4, -99490.3, 0.0, 9.999534, 9.999146 
2.4049996e+3, 2.4637426e+2, -758374.75, -694348.7, 42725.28, -0.03495947, -0.587556, -672973.7, -147498.08, 0.0, 9.998715, 9.999547 
2.4049327e+3, 2.5637382e+2, -770135.75, -656489.0, 53159.82, -0.041279256, -0.5656333, -635499.4, -208018.06, 0.0, 9.997993, 9.999482 
2.4048662e+3, 2.6637366e+2, -728830.44, -467448.1, 43149.117, -0.01992739, -0.5563206, -460509.22, -131025.64, 0.0, 9.997097, 10.000538 
2.4047998e+3, 2.763741e+2, -780664.2, -448894.2, 33332.34, 0.026745148, -0.540235, -445578.47, -214098.95, 0.0, 9.996101, 10.000472 
2.4047327e+3, 2.8637502e+2, -756490.56, -280435.6, 7214.7837, 0.0149149, -0.51703167, -280326.28, -146855.0, 0.0, 9.995137, 10.001421 
2.4046648e+3, 2.9637596e+2, -810726.44, -279035.3, -3849.5625, -0.057643667, -0.54618096, -279007.44, -243543.95, 0.0, 9.994189, 10.001216 
2.4045992e+3, 3.063769e+2, -822742.06, -182881.5, 40594.633, 0.03038867, -0.57635915, -180316.34, -180316.34, 0.0, 9.993438, 10.0019045 
2.4045324e+3, 3.163787e+2, -800919.1, 57539.32, 6864.6587, -0.0056466227, -0.56970596, 57594.207, 57594.207, 0.0, 9.992608, 10.003951 
2.415814e+3, 1.2647317e+2, -919057.0, -1696458.9, -10140.647, 0.04909288, -0.577604, -918924.75, 781584.2, 0.19877355, 10.008775, 9.995905 
2.4157444e+3, 1.364691e+2, -867367.44, -1669285.5, -16459.863, 0.04403591, -0.54568434, -867029.75, 735520.6, 0.14260039, 10.008026, 9.995775 
2.4156758e+3, 1.4646547e+2, -759853.44, -1489258.4, 25476.576, 0.041166164, -0.50547034, -758964.7, 745621.3, 0.08580314, 10.007285, 9.996701 
2.4156077e+3, 1.5646185e+2, -735522.75, -1455351.0, 19985.299, 0.04000676, -0.5143491, -734968.3, 671652.5, 0.040132303, 10.006536, 9.9966135 
2.4155393e+3, 1.6645816e+2, -682461.75, -1286288.6, 25123.207, 0.025541289, -0.56374556, -681418.3, 627236.6, 0.013037746, 10.0056505, 9.997527 
2.4154712e+3, 1.7645477e+2, -728950.8, -1280823.3, 30176.17, 0.0019528142, -0.63178945, -727305.7, 483379.84, 0.0023108525, 10.004693, 9.997353 
2.4154031e+3, 1.8645222e+2, -737279.2, -1189485.9, 36061.445, -0.007869424, -0.6110322, -734421.5, 378288.5, 0.00010162733, 10.003761, 9.997755 
2.4153355e+3, 1.9645041e+2, -778303.1, -1168184.4, 22560.973, -0.0102843875, -0.544379, -777001.94, 237726.81, 0.000000000003904099, 10.002847, 9.99767 
2.4152678e+3, 2.0644808e+2, -726863.3, -992615.3, 35948.31, -0.01550372, -0.5638129, -722086.44, 194664.81, 0.0, 10.002095, 9.998565 
2.4152005e+3, 2.1644571e+2, -737091.25, -965644.5, 45381.39, -0.022027994, -0.63258815, -728410.1, 90363.2, 0.0, 10.001431, 9.998398 
2.4151328e+3, 2.2644414e+2, -735417.0, -864360.44, 35024.94, -0.029054109, -0.6214946, -726517.44, -5728.031, 0.0, 10.000556, 9.998842 
2.4150655e+3, 2.3644328e+2, -789323.0, -846875.3, 18266.08, -0.035031646, -0.5680145, -784015.2, -161215.64, 0.0, 9.999543, 9.998777 
2.4149981e+3, 2.464426e+2, -739764.94, -657957.44, 15189.917, -0.03626929, -0.5413114, -655228.06, -130420.945, 0.0, 9.99872, 9.999797 
2.4149305e+3, 2.5644222e+2, -756824.8, -632063.6, 23781.424, -0.0372827, -0.53205884, -627684.25, -200873.55, 0.0, 9.998002, 9.999649 
2.4148628e+3, 2.664416e+2, -750419.4, -515260.16, 4403.69, -0.030087369, -0.5591567, -515177.72, -186360.22, 0.0, 9.997105, 10.000209 
2.4147955e+3, 2.7644113e+2, -801543.75, -495177.25, -5123.636, -0.011381839, -0.6058154, -495091.6, -264268.47, 0.0, 9.996108, 10.000154 
2.4147275e+3, 2.8644222e+2, -772308.7, -315152.88, -30444.592, 0.00076166017, -0.53824717, -313134.3, -180320.86, 0.0, 9.995141, 10.001183 
2.4146594e+3, 2.9644442e+2, -812967.0, -285548.38, -38355.277, -0.011412921, -0.41491994, -282773.66, -247980.48, 0.0, 9.994193, 10.001172 
2.414592e+3, 3.06444e+2, -774184.5, -85220.414, 13194.22, 0.017003372, -0.62122077, -84967.83, -84967.83, 0.0, 9.993444, 10.002576 
2.4145244e+3, 3.164466e+2, -891614.6, -133260.92, -51763.184, -0.038217872, -0.5848436, -129744.016, -129744.016, 0.0, 9.99261, 10.002645 
2.4258228e+3, 1.2654263e+2, -924998.0, -1699944.8, 4209.367, 0.07086019, -0.5716416, -924975.1, 774852.8, 0.19281624, 10.008663, 9.99593 
2.4257521e+3, 1.3653842e+2, -847946.4, -1660128.4, 9944.94, 0.042680416, -0.55385685, -847824.6, 754045.6, 0.13799459, 10.008149, 9.995778 
2.4256825e+3, 1.4653465e+2, -752222.9, -1490032.3, 50420.016, 0.032908775, -0.5242931, -748793.25, 755114.06, 0.08273392, 10.007344, 9.996662 
2.4256137e+3, 1.5653111e+2, -756880.9, -1469788.4, 47513.69, 0.038889624, -0.51953715, -753728.1, 652213.44, 0.038476717, 10.0063925, 9.996581 
2.4255447e+3, 1.6652748e+2, -699611.56, -1293232.4, 46649.41, 0.022365922, -0.56169385, -695968.0, 612007.44, 0.012374953, 10.0055275, 9.997536 
2.4254756e+3, 1.7652409e+2, -726594.06, -1279556.8, 40953.234, -0.009048913, -0.62847495, -723577.5, 486428.56, 0.0021481214, 10.004714, 9.997348 
2.4254067e+3, 1.8652147e+2, -720552.4, -1191957.1, 55174.12, -0.010858142, -0.6096439, -714180.8, 397850.84, 0.00008819411, 10.003928, 9.997655 
2.4253383e+3, 1.9651952e+2, -738327.06, -1156824.3, 58262.848, 0.0046983445, -0.5440221, -730367.1, 283684.78, 0.0000000000084542815, 10.00316, 9.997595 
2.4252698e+3, 2.0651723e+2, -696724.7, -968464.4, 68117.4, -0.006150113, -0.5602066, -680605.75, 235468.2, 0.0, 10.002266, 9.998646 
2.4252014e+3, 2.1651497e+2, -753371.25, -967549.75, 61064.22, -0.03085155, -0.6250229, -737184.56, 80909.92, 0.0, 10.001301, 9.998445 
2.425133e+3, 2.265133e+2, -743308.2, -884164.25, 60305.83, -0.03969499, -0.6185702, -721016.75, -905.0067, 0.0, 10.000576, 9.998693 
2.4250649e+3, 2.365122e+2, -734791.1, -834127.0, 65444.22, -0.03726042, -0.57299954, -702301.56, -80177.1, 0.0, 9.999982, 9.998651 
2.4249966e+3, 2.4651141e+2, -688942.3, -633818.0, 55580.066, -0.037199724, -0.5471766, -599341.3, -75208.41, 0.0, 9.999077, 9.999788 
2.4249282e+3, 2.565111e+2, -758739.5, -632814.75, 45090.508, -0.039514106, -0.53382784, -618334.2, -192197.8, 0.0, 9.997994, 9.999643 
2.4248596e+3, 2.6651052e+2, -740105.25, -510487.38, 35713.535, -0.037760857, -0.55358523, -505060.9, -176918.44, 0.0, 9.997182, 10.000201 
2.4247913e+3, 2.7651e+2, -751229.6, -475700.3, 47528.54, -0.025935445, -0.599841, -467732.13, -237583.88, 0.0, 9.996477, 10.000108 
2.4247226e+3, 2.8651083e+2, -729365.75, -312436.13, 28673.094, -0.009360642, -0.54525846, -310473.47, -178332.28, 0.0, 9.995518, 10.001018 
2.4246533e+3, 2.965129e+2, -778633.5, -276479.06, 27479.805, -0.010117377, -0.41580495, -274979.72, -240857.63, 0.0, 9.994469, 10.001098 
2.4245855e+3, 3.0651253e+2, -767832.5, -77919.22, 50020.234, 0.019984897, -0.6189707, -74311.51, -74311.51, 0.0, 9.993475, 10.002608 
2.4245171e+3, 3.165165e+2, -918414.44, -140350.17, -60349.902, -0.008492433, -0.44378787, -135697.02, -135697.02, 0.0, 9.992404, 10.002692 
2.4358313e+3, 1.2661321e+2, -918303.1, -1687032.5, -13750.328, 0.0762354, -0.51053977, -918057.25, 781079.94, 0.18688421, 10.008606, 9.996063 
2.4357602e+3, 1.3660835e+2, -840726.44, -1646530.5, -8861.442, 0.061147798, -0.5720236, -840629.0, 760555.25, 0.13342388, 10.008121, 9.995886 
2.43569e+3, 1.4660425e+2, -753096.1, -1495637.8, 17460.54, 0.03871691, -0.58029413, -752685.75, 750538.5, 0.07970086, 10.007331, 9.996631 
2.4356198e+3, 1.5660073e+2, -760020.94, -1477207.3, 14206.86, 0.02104365, -0.56994474, -759739.6, 645518.94, 0.036849942, 10.006379, 9.996539 
2.4355498e+3, 1.6659757e+2, -709877.0, -1314623.1, 17311.64, 0.0068980595, -0.5532643, -709381.8, 597906.75, 0.011729732, 10.005518, 9.9973955 
2.4354799e+3, 1.7659491e+2, -734023.0, -1295251.9, 11876.37, -0.008150965, -0.53488094, -733771.75, 475542.03, 0.0019938753, 10.004709, 9.997245 
2.4354106e+3, 1.8659174e+2, -713114.06, -1177416.9, 27629.973, -0.0007637304, -0.5708337, -711475.6, 399868.47, 0.00007684637, 10.003926, 9.997758 
2.4353413e+3, 1.965886e+2, -734188.5, -1148729.9, 29960.217, 0.019057382, -0.63639545, -732034.4, 281340.25, 0.00000000002968512, 10.003157, 9.997655 
2.435272e+3, 2.0658664e+2, -705964.06, -989484.25, 32608.73, -0.004368552, -0.61248595, -702261.94, 213131.61, 0.0, 10.002269, 9.998503 
2.4352024e+3, 2.1658559e+2, -759057.1, -982576.5, 28059.326, -0.051112145, -0.54339504, -755588.56, 61815.285, 0.0, 10.001308, 9.998341 
2.4351333e+3, 2.2658376e+2, -732620.6, -864630.9, 39028.703, -0.05686321, -0.5529741, -721945.1, -2523.3215, 0.0, 10.000583, 9.998827 
2.4350648e+3, 2.365818e+2, -729419.56, -824427.9, 40477.246, -0.039134767, -0.6066228, -714513.4, -93071.83, 0.0, 9.999983, 9.998719 
2.4349953e+3, 2.4658066e+2, -708405.1, -675676.44, 13766.591, -0.038681466, -0.6041646, -670655.94, -147202.22, 0.0, 9.999078, 9.999503 
2.4349257e+3, 2.5658026e+2, -771017.8, -661008.44, 6077.522, -0.050435886, -0.5706465, -660673.7, -235214.7, 0.0, 9.998001, 9.99945 
2.4348567e+3, 2.665803e+2, -717013.3, -465106.6, 8793.463, -0.04272719, -0.5378234, -464800.0, -137341.03, 0.0, 9.997187, 10.000513 
2.4347876e+3, 2.765808e+2, -732833.9, -441610.6, 17706.8, -0.014807704, -0.51331353, -440537.97, -211083.73, 0.0, 9.99649, 10.0003395 
2.4347177e+3, 2.8658083e+2, -736412.2, -331656.3, -11720.002, -0.016656158, -0.5398181, -331317.22, -199862.55, 0.0, 9.995531, 10.000882 
2.4346472e+3, 2.9658115e+2, -787038.25, -298652.5, -9324.244, -0.06538309, -0.574208, -298474.53, -265021.7, 0.0, 9.994483, 10.000941 
2.4345788e+3, 3.065826e+2, -817568.44, -180615.52, 6450.0605, 0.0445406, -0.54961157, -180550.2, -180550.2, 0.0, 9.993468, 10.001908 
2.4345092e+3, 3.1658533e+2, -812557.1, 86765.49, -89108.95, 0.012490276, -0.44007272, 95509.79, 95509.79, 0.0, 9.992369, 10.0042715 
2.4458396e+3, 1.2668379e+2, -967708.56, -1696594.3, 8059.0156, 0.11332317, -0.5057802, -967619.44, 730827.25, 0.18092269, 10.008055, 9.996246 
2.4457678e+3, 1.3667917e+2, -865086.1, -1641435.8, 15850.703, 0.05048399, -0.56206894, -864762.6, 735727.9, 0.12886794, 10.00781, 9.996069 
2.4456967e+3, 1.4667507e+2, -781780.56, -1506723.6, 30007.344, 0.022870239, -0.57801193, -780540.6, 721989.5, 0.07670299, 10.007088, 9.996664 
2.445626e+3, 1.5667151e+2, -790742.44, -1490718.8, 30933.984, 0.02411724, -0.5734359, -789378.06, 615186.6, 0.035255957, 10.006148, 9.996554 
2.4455552e+3, 1.6666836e+2, -738998.94, -1337791.9, 43086.297, 0.013604163, -0.55393106, -735914.56, 570680.8, 0.011104736, 10.005355, 9.997313 
2.4454844e+3, 1.7666566e+2, -747887.3, -1307854.0, 40115.98, -0.005593476, -0.527627, -745028.0, 463593.44, 0.0018487013, 10.004642, 9.99719 
2.445414e+3, 1.8666258e+2, -713577.94, -1162529.0, 56564.42, -0.0032468534, -0.5596101, -706560.9, 404090.03, 0.00006742833, 10.003863, 9.997889 
2.4453442e+3, 1.9665956e+2, -742974.5, -1141181.4, 59744.008, 0.01167397, -0.62489617, -734204.06, 278475.84, 0.00000000008671795, 10.003054, 9.997752 
2.445274e+3, 2.0665751e+2, -705559.5, -1001993.4, 63660.664, -0.009267957, -0.6058752, -692466.4, 222233.38, 0.0, 10.002333, 9.9983835 
2.4452037e+3, 2.1665627e+2, -714432.8, -968754.0, 60179.426, -0.04906705, -0.54189813, -700911.56, 115800.516, 0.0, 10.001654, 9.998266 
2.4451338e+3, 2.2665451e+2, -703414.75, -831094.7, 71497.266, -0.055109244, -0.55079335, -671403.75, 47325.363, 0.0, 10.000706, 9.998995 
2.4450642e+3, 2.3665273e+2, -774260.0, -829890.8, 75476.93, -0.040195808, -0.6025028, -721636.2, -100889.625, 0.0, 9.999612, 9.9988575 
2.4449942e+3, 2.4665155e+2, -740884.6, -694324.8, 63080.96, -0.04224415, -0.6058052, -650365.1, -127606.33, 0.0, 9.998873, 9.999472 
2.4449238e+3, 2.56651e+2, -730490.06, -644809.1, 72523.27, -0.055368964, -0.58220625, -603418.2, -178652.61, 0.0, 9.998298, 9.999416 
2.4448535e+3, 2.666511e+2, -694813.5, -459637.44, 60780.406, -0.045779426, -0.54026926, -444857.78, -118092.36, 0.0, 9.997367, 10.000462 
2.4447837e+3, 2.7665174e+2, -767100.7, -459676.3, 42019.12, -0.012222714, -0.49593738, -454036.56, -225276.95, 0.0, 9.996268, 10.000318 
2.4447128e+3, 2.866516e+2, -729629.7, -318709.25, 16998.38, -0.021681493, -0.54163194, -318007.28, -187245.88, 0.0, 9.995541, 10.000963 
2.4446413e+3, 2.966515e+2, -725025.3, -273136.5, 31797.756, -0.08912241, -0.6198902, -270910.0, -238147.05, 0.0, 9.994929, 10.000901 
2.4445724e+3, 3.0665374e+2, -813378.2, -216080.64, 48276.16, 0.06989421, -0.49399114, -212203.9, -212203.9, 0.0, 9.993662, 10.001571 
2.4445012e+3, 3.1665504e+2, -779139.56, 170715.63, -7163.2095, -0.012040916, -0.50576997, 170769.64, 170769.64, 0.0, 9.992311, 10.004874 
2.4558479e+3, 1.2675445e+2, -943517.5, -1662631.9, 2207.5288, 0.16878311, -0.5458764, -943510.75, 754244.6, 0.17489128, 10.008079, 9.996516 
2.4557751e+3, 1.3675088e+2, -848994.94, -1608695.8, 4530.0234, 0.013667213, -0.5254672, -848967.94, 750820.9, 0.12430021, 10.00779, 9.9963045 
2.4557032e+3, 1.4674704e+2, -777868.56, -1501539.5, -2289.5474, -0.011116109, -0.526741, -777861.3, 723964.1, 0.07372481, 10.007073, 9.996709 
2.4556321e+3, 1.5674335e+2, -787129.6, -1485821.9, -1049.4855, 0.042254318, -0.5406634, -787128.06, 616733.2, 0.033687193, 10.0061455, 9.996592 
2.4555606e+3, 1.6673973e+2, -742695.25, -1347569.3, 17809.506, 0.036300607, -0.5651635, -742171.3, 563725.0, 0.010497286, 10.005355, 9.997249 
2.4554887e+3, 1.7673641e+2, -750193.5, -1313952.6, 14618.593, -0.0031778035, -0.5943933, -749814.7, 458113.78, 0.0017116957, 10.004642, 9.997151 
2.4554177e+3, 1.8673398e+2, -703509.1, -1143419.0, 27282.482, -0.01699876, -0.5692552, -701823.56, 408128.7, 0.000059595233, 10.003865, 9.998021 
2.4553467e+3, 1.9673221e+2, -735176.1, -1126782.9, 30859.902, -0.016211191, -0.5203123, -732759.2, 279210.28, 0.00000000016280782, 10.003057, 9.997853 
2.455276e+3, 2.0672968e+2, -712790.44, -1018290.0, 39266.664, -0.019997256, -0.5486233, -707824.1, 206169.72, 0.0, 10.002334, 9.998274 
2.455205e+3, 2.16727e+2, -719325.6, -978911.56, 34172.01, -0.027601724, -0.616219, -714902.56, 101116.76, 0.0, 10.001648, 9.998202 
2.4551342e+3, 2.2672552e+2, -691056.9, -806694.8, 31455.02, -0.036306687, -0.60645795, -683054.5, 34979.3, 0.0, 10.000706, 9.999165 
2.4550635e+3, 2.3672488e+2, -760339.06, -804470.5, 37710.773, -0.043230657, -0.56007785, -738712.7, -118672.414, 0.0, 9.999621, 9.99903 
2.4549927e+3, 2.46724e+2, -725268.06, -664708.25, 40990.113, -0.04823089, -0.5532833, -644026.75, -121977.76, 0.0, 9.998879, 9.999674 
2.4549219e+3, 2.5672325e+2, -722128.7, -630517.56, 46577.88, -0.055544775, -0.5665095, -610995.9, -186939.47, 0.0, 9.998305, 9.999514 
2.4548508e+3, 2.6672274e+2, -726420.0, -526950.8, 17426.588, -0.04775233, -0.5637483, -525439.8, -199377.14, 0.0, 9.997369, 10.000001 
2.4547796e+3, 2.7672252e+2, -788740.44, -504719.53, 3498.7004, -0.022057474, -0.5575676, -504676.44, -276610.3, 0.0, 9.9962635, 10.000013 
2.4547082e+3, 2.8672308e+2, -706136.94, -272386.84, -5438.899, -0.023673968, -0.54640543, -272318.66, -142257.14, 0.0, 9.995544, 10.001284 
2.4546362e+3, 2.9672435e+2, -713644.44, -256513.28, 1299.3265, -0.07212341, -0.51824397, -256509.6, -224460.66, 0.0, 9.994953, 10.001007 
2.4545659e+3, 3.0672568e+2, -806747.94, -204494.94, -8976.921, 0.087265864, -0.48518786, -204361.16, -204361.16, 0.0, 9.993666, 10.001651 
2.4544933e+3, 3.16726e+2, -892269.3, -61559.742, -52756.887, 0.00015166312, -0.6001874, -58222.652, -58222.652, 0.0, 9.992295, 10.003287 
2.4658558e+3, 1.2682652e+2, -903997.8, -1642885.3, 43556.313, 0.13343726, -0.5420295, -901439.1, 795610.4, 0.16876276, 10.008343, 9.996549 
2.4657828e+3, 1.368231e+2, -863499.7, -1613681.8, 31264.396, 0.030721657, -0.509436, -862198.94, 736882.6, 0.11969112, 10.007625, 9.996349 
2.4657099e+3, 1.4681932e+2, -802913.4, -1508049.4, 11758.473, 0.006194276, -0.5110571, -802717.4, 698400.6, 0.07074081, 10.006842, 9.996774 
2.4656376e+3, 1.568156e+2, -794707.0, -1480725.1, 14764.35, 0.036233585, -0.53370094, -794389.4, 608764.94, 0.03212707, 10.006048, 9.996672 
2.4655655e+3, 1.6681206e+2, -737995.8, -1326897.5, 47999.492, 0.031109834, -0.5620168, -734109.2, 571079.2, 0.009899818, 10.005311, 9.997409 
2.4654932e+3, 1.7680886e+2, -747112.94, -1297999.1, 58704.563, 0.0035914017, -0.59305215, -740926.6, 466292.16, 0.0015804599, 10.004607, 9.997273 
2.4654211e+3, 1.8680649e+2, -711133.8, -1159473.1, 63426.707, -0.01605858, -0.5583395, -702333.56, 406908.84, 0.000052831158, 10.003872, 9.997906 
2.4653494e+3, 1.9680478e+2, -729936.06, -1130743.6, 49751.066, -0.029536013, -0.4919469, -723852.94, 287407.2, 0.00000000021615258, 10.003122, 9.997793 
2.4652778e+3, 2.0680228e+2, -708584.8, -992836.75, 64792.566, -0.028716877, -0.5258359, -694512.6, 218771.42, 0.0, 10.002266, 9.998478 
2.4652065e+3, 2.167996e+2, -749652.1, -973127.25, 78642.97, -0.02088944, -0.61249286, -724751.5, 90557.38, 0.0, 10.00136, 9.998378 
2.4651347e+3, 2.2679822e+2, -705779.1, -812534.6, 73519.445, -0.031338897, -0.5987429, -668303.75, 49018.547, 0.0, 10.000605, 9.999171 
2.465063e+3, 2.3679775e+2, -716048.94, -779325.06, 69214.08, -0.048038885, -0.53550076, -671584.75, -52257.305, 0.0, 9.999915, 9.999059 
2.4649912e+3, 2.4679689e+2, -705697.6, -644565.56, 65211.797, -0.05037399, -0.5311238, -603111.75, -81776.11, 0.0, 9.998974, 9.999764 
2.4649197e+3, 2.5679612e+2, -773990.75, -645071.06, 62155.227, -0.047899906, -0.55811983, -619985.7, -196642.6, 0.0, 9.9979105, 9.9996 
2.4648477e+3, 2.6679552e+2, -747926.75, -531016.06, 54593.945, -0.045724355, -0.56857675, -518050.4, -192700.83, 0.0, 9.997198, 10.000053 
2.4647756e+3, 2.7679524e+2, -733563.06, -475644.63, 78117.68, -0.033141334, -0.5749815, -453829.7, -226476.13, 0.0, 9.996634, 10.000034 
2.4647036e+3, 2.867958e+2, -682367.94, -272940.44, 58375.754, -0.020054424, -0.5482159, -264779.94, -135431.58, 0.0, 9.995764, 10.001172 
2.464631e+3, 2.9679725e+2, -749545.56, -279783.06, 28615.686, -0.036831215, -0.49186492, -278046.34, -246711.6, 0.0, 9.994739, 10.000946 
2.4645591e+3, 3.0679834e+2, -743010.06, -142220.16, 19374.617, 0.03668437, -0.4928371, -141596.0, -141596.0, 0.0, 9.993975, 10.001925 
2.4644859e+3, 3.1679967e+2, -832865.6, -164927.34, -15311.605, 0.00034596075, -0.52799773, -164576.53, -164576.53, 0.0, 9.993277, 10.002103 
2.4758625e+3, 1.2689982e+2, -905279.8, -1662321.5, 21783.738, 0.032268308, -0.5058238, -904653.5, 791677.9, 0.16249259, 10.008367, 9.996374 
2.4757905e+3, 1.3689587e+2, -871399.5, -1635000.1, 8211.03, 0.08571595, -0.5102716, -871311.2, 727057.8, 0.11498995, 10.007594, 9.996218 
2.475717e+3, 1.4689194e+2, -798646.7, -1501703.5, -14487.352, 0.058870327, -0.52346677, -798348.25, 702059.0, 0.06770891, 10.006826, 9.996828 
2.4756433e+3, 1.5688828e+2, -784980.6, -1465504.6, -11594.1045, 0.009373349, -0.54533166, -784783.2, 617660.44, 0.030549692, 10.006058, 9.996775 
2.4755703e+3, 1.6688527e+2, -713236.7, -1278878.9, 23028.11, 0.0034857637, -0.5443251, -712300.7, 592171.3, 0.009300594, 10.005319, 9.997739 
2.4754979e+3, 1.7688283e+2, -731711.7, -1266187.9, 32069.1, 0.013292168, -0.53389066, -729794.4, 476699.9, 0.0014514392, 10.004602, 9.997497 
2.475425e+3, 1.8688e+2, -735994.0, -1210956.8, 36287.613, -0.0035175206, -0.5321003, -733237.56, 375285.13, 0.00004654407, 10.003865, 9.997559 
2.4753523e+3, 1.9687729e+2, -744931.94, -1161796.6, 23176.26, -0.031654503, -0.5330828, -743647.4, 266904.06, 0.00000000023303823, 10.003117, 9.997585 
2.4752797e+3, 2.0687532e+2, -676934.2, -927725.44, 32291.484, -0.036398202, -0.5321213, -672843.1, 239727.11, 0.0, 10.002264, 9.998929 
2.4752074e+3, 2.1687393e+2, -725429.06, -923673.56, 46945.805, -0.030201402, -0.5344372, -714873.94, 99708.06, 0.0, 10.001358, 9.998721 
2.475135e+3, 2.2687249e+2, -715811.7, -834865.75, 48300.59, -0.039675113, -0.5322405, -698680.94, 17915.072, 0.0, 10.000607, 9.99902 
2.4750625e+3, 2.3687124e+2, -724303.1, -798170.7, 40832.664, -0.055306904, -0.52880025, -706178.7, -87569.984, 0.0, 9.999917, 9.998931 
2.47499e+3, 2.4687018e+2, -708045.1, -651298.44, 24065.021, -0.048737854, -0.5393, -642467.3, -121848.02, 0.0, 9.998977, 9.999719 
2.4749175e+3, 2.5686944e+2, -768697.9, -636237.0, 24645.408, -0.034623496, -0.5574764, -631800.1, -209173.78, 0.0, 9.997914, 9.999661 
2.4748448e+3, 2.6686937e+2, -707078.3, -448092.75, 33230.344, -0.04010287, -0.55254596, -443896.97, -119270.61, 0.0, 9.997201, 10.000625 
2.474772e+3, 2.768698e+2, -707840.6, -426567.3, 54394.004, -0.04596714, -0.5384673, -416414.78, -189794.05, 0.0, 9.996646, 10.000368 
2.4746992e+3, 2.868698e+2, -725601.9, -365091.53, 17826.863, -0.010920858, -0.5513325, -364212.16, -235589.63, 0.0, 9.995769, 10.00054 
2.4746262e+3, 2.9686987e+2, -770395.7, -320308.8, -10037.951, 0.015215638, -0.57075036, -320085.06, -289460.8, 0.0, 9.994721, 10.000679 
2.4745515e+3, 3.068721e+2, -705701.5, -67327.47, -2145.8545, -0.09409047, -0.484231, -67320.26, -67320.26, 0.0, 9.99398, 10.00244 
2.474479e+3, 3.1687433e+2, -780844.94, -78221.19, -20465.957, -0.0049029826, -0.46371114, -77625.56, -77625.56, 0.0, 9.993355, 10.002667 
2.4858709e+3, 1.2697347e+2, -861158.25, -1636353.1, 27779.795, 0.018786635, -0.5005268, -860164.0, 835446.3, 0.15600085, 10.008636, 9.996453 
2.4857979e+3, 1.3696942e+2, -887724.6, -1635783.8, 30772.447, 0.083659686, -0.5190281, -886460.9, 711187.6, 0.11011852, 10.007395, 9.996307 
2.4857236e+3, 1.4696567e+2, -819124.6, -1501333.0, 27804.54, 0.056478325, -0.524081, -817993.25, 681692.1, 0.064571105, 10.006613, 9.99693 
2.485649e+3, 1.5696229e+2, -774756.9, -1450447.5, 32656.555, 0.00040552308, -0.52602154, -773182.25, 628537.0, 0.028923297, 10.006083, 9.996863 
2.4855752e+3, 1.6695936e+2, -712457.9, -1277692.5, 49745.363, -0.005970922, -0.52032316, -708113.25, 595633.94, 0.008687019, 10.005321, 9.997744 
2.4855019e+3, 1.7695689e+2, -749716.8, -1268979.4, 38195.875, 0.0070388326, -0.5114104, -746922.25, 458847.6, 0.0013212402, 10.004455, 9.997548 
2.4854285e+3, 1.869541e+2, -748453.0, -1188752.9, 62284.26, -0.0066557885, -0.5242484, -739811.94, 367985.72, 0.000040264178, 10.003663, 9.997806 
2.485355e+3, 1.9695137e+2, -761281.44, -1146321.3, 86184.375, -0.031611767, -0.5476898, -742870.9, 266954.72, 0.00000000017417703, 10.002912, 9.9977865 
2.4852817e+3, 2.0694964e+2, -699870.4, -940582.4, 83683.13, -0.038022194, -0.5300304, -673637.06, 238205.55, 0.0, 10.00212, 9.998907 
2.4852085e+3, 2.1694858e+2, -732792.1, -925278.06, 66576.15, -0.035261445, -0.49561453, -712009.06, 101842.92, 0.0, 10.001304, 9.9987335 
2.4851352e+3, 2.2694708e+2, -738331.94, -831211.5, 70898.63, -0.043132827, -0.50426304, -700017.56, 15848.67, 0.0, 10.000395, 9.999144 
2.485062e+3, 2.3694563e+2, -785397.25, -814619.8, 82078.77, -0.05376795, -0.5344703, -716639.4, -98758.88, 0.0, 9.999448, 9.999042 
2.4849887e+3, 2.4694464e+2, -736799.5, -658965.1, 76673.35, -0.045001272, -0.54278535, -611897.7, -92007.56, 0.0, 9.998757, 9.99977 
2.4849153e+3, 2.5694412e+2, -727197.06, -608827.56, 83760.69, -0.028812587, -0.5428627, -565451.7, -143556.5, 0.0, 9.998173, 9.9997225 
2.4848418e+3, 2.6694405e+2, -681016.3, -424828.84, 71792.98, -0.03758844, -0.54199404, -406081.72, -82187.01, 0.0, 9.997339, 10.000714 
2.4847683e+3, 2.769445e+2, -741734.25, -433003.3, 56004.563, -0.048914913, -0.54034954, -423157.94, -197268.81, 0.0, 9.996377, 10.000449 
2.4846949e+3, 2.869445e+2, -747460.5, -370432.03, 40500.754, -0.005770014, -0.550108, -366130.47, -238240.61, 0.0, 9.995602, 10.00058 
2.4846208e+3, 2.9694462e+2, -733094.94, -293230.4, 63655.31, 0.034234866, -0.5709458, -284203.75, -254312.38, 0.0, 9.994943, 10.000757 
2.484545e+3, 3.0694655e+2, -675323.06, -69027.49, 50404.723, -0.1366929, -0.5120362, -64865.637, -64865.637, 0.0, 9.994265, 10.002288 
2.4844727e+3, 3.1694764e+2, -732246.2, 3661.3804, 339.87695, 0.05608983, -0.58416694, 3661.5374, 3661.5374, 0.0, 9.9934435, 10.003182 
2.4958797e+3, 1.2704751e+2, -843117.8, -1603235.0, -8569.73, 0.064743355, -0.5143445, -843021.2, 851864.3, 0.14919469, 10.00859, 9.9967375 
2.4958044e+3, 1.3704376e+2, -866526.44, -1598704.6, -5099.991, 0.034742888, -0.53067213, -866490.9, 730429.5, 0.104999155, 10.007403, 9.996559 
2.4957295e+3, 1.4704041e+2, -806581.3, -1485491.9, 10681.768, 0.011170499, -0.51379514, -806413.3, 692540.1, 0.061276138, 10.006631, 9.997039 
2.4956548e+3, 1.5703745e+2, -771057.8, -1444675.9, 12381.124, 0.0051869233, -0.48353735, -770830.3, 630152.94, 0.027223742, 10.006076, 9.996909 
2.4955803e+3, 1.6703422e+2, -732874.2, -1319467.3, 19466.15, -0.0020204424, -0.493015, -732228.94, 570786.06, 0.008052049, 10.005309, 9.997464 
2.4955058e+3, 1.7703114e+2, -756914.94, -1283169.6, 9597.461, -0.013924169, -0.51978153, -756740.0, 448304.88, 0.0011885015, 10.004446, 9.9974575 
2.4954316e+3, 1.8702877e+2, -698284.44, -1083974.1, 36000.79, -0.023407122, -0.53041774, -694952.8, 412114.34, 0.0000337743, 10.003655, 9.998531 
2.4953577e+3, 1.9702692e+2, -726887.5, -1073648.0, 57783.16, -0.030440718, -0.53670967, -717512.1, 291571.94, 0.00000000005180779, 10.0029, 9.998293 
2.4952836e+3, 2.0702508e+2, -731981.94, -1007176.0, 53548.18, -0.034452222, -0.52073264, -721929.56, 189172.94, 0.0, 10.002114, 9.998455 
2.4952094e+3, 2.1702349e+2, -752907.6, -968008.75, 36701.258, -0.037751574, -0.4957389, -746817.94, 66301.266, 0.0, 10.001302, 9.998444 
2.4951355e+3, 2.2702202e+2, -713156.4, -780819.25, 36224.027, -0.042370774, -0.51346934, -697422.25, 17710.916, 0.0, 10.000398, 9.999491 
2.4950613e+3, 2.3702084e+2, -763168.0, -771084.9, 48983.555, -0.046130776, -0.55124265, -717983.2, -100839.74, 0.0, 9.999454, 9.99934 
2.4949872e+3, 2.4702023e+2, -726326.44, -639565.3, 54180.6, -0.03999161, -0.5408195, -613538.3, -94389.52, 0.0, 9.998762, 9.999903 
2.494913e+3, 2.5702012e+2, -723443.7, -604359.25, 58751.48, -0.032263853, -0.51160526, -580253.3, -159103.69, 0.0, 9.998182, 9.999752 
2.4948388e+3, 2.6701954e+2, -710830.06, -489167.03, 34020.24, -0.03839513, -0.53836, -484063.22, -160907.84, 0.0, 9.997344, 10.000273 
2.4947645e+3, 2.7701905e+2, -754552.44, -460094.66, 19080.805, -0.0413275, -0.5866718, -458863.38, -233703.13, 0.0, 9.996374, 10.000268 
2.49469e+3, 2.8702006e+2, -693352.94, -258130.34, 15009.95, -0.0063559534, -0.5410728, -257613.28, -130462.875, 0.0, 9.995596, 10.001357 
2.4946152e+3, 2.9702178e+2, -702728.0, -232079.33, 42452.902, 0.012158409, -0.4702623, -228280.7, -199147.56, 0.0, 9.994946, 10.001178 
2.4945396e+3, 3.0702132e+2, -745023.3, -217927.92, 19426.604, -0.06563891, -0.60620815, -217212.9, -217212.9, 0.0, 9.994277, 10.001263 
2.4944651e+3, 3.1702343e+2, -758621.1, -55949.973, -32831.645, -0.0138484, -0.4838414, -54419.277, -54419.277, 0.0, 9.99346, 10.002768 
2.5058877e+3, 1.2712307e+2, -883976.6, -1639193.3, 39626.957, 0.062095996, -0.5179405, -881903.06, 812242.0, 0.14201353, 10.008272, 9.996595 
2.5058112e+3, 1.3711937e+2, -854823.94, -1602928.9, 23881.686, 0.009847886, -0.51572317, -854062.3, 742118.3, 0.099596836, 10.007495, 9.996485 
2.5057355e+3, 1.4711605e+2, -785710.75, -1460594.0, 43448.57, -0.0060538906, -0.4992179, -782925.06, 715288.2, 0.05780777, 10.006697, 9.997185 
2.5056607e+3, 1.5711313e+2, -786270.4, -1437394.5, 46965.07, 0.01038089, -0.478312, -782900.3, 617341.8, 0.025447195, 10.005899, 9.997041 
2.5055853e+3, 1.6710994e+2, -764082.56, -1326685.8, 64571.09, -0.0009124406, -0.4925115, -756766.75, 545506.75, 0.0073973937, 10.005061, 9.99753 
2.50551e+3, 1.7710686e+2, -785682.5, -1287597.6, 76184.7, -0.029069098, -0.5228208, -774373.4, 429930.16, 0.0010542761, 10.004213, 9.997535 
2.5054348e+3, 1.8710464e+2, -729797.1, -1085989.4, 84056.914, -0.036016587, -0.5251705, -710957.25, 395366.9, 0.000027156255, 10.003387, 9.998643 
2.5053602e+3, 1.9710305e+2, -766213.44, -1079443.1, 65667.195, -0.031475384, -0.5170458, -753003.7, 255334.56, 0.0000000000010010511, 10.002578, 9.998406 
2.505285e+3, 2.0710117e+2, -768138.9, -1015493.56, 72890.82, -0.03638819, -0.5152356, -748257.4, 162099.72, 0.0, 10.001832, 9.998531 
2.5052103e+3, 2.1709938e+2, -775124.44, -969366.1, 89177.06, -0.045454245, -0.5166605, -740393.06, 71982.65, 0.0, 10.001116, 9.998521 
2.5051355e+3, 2.2709803e+2, -711257.75, -771174.9, 84163.07, -0.047219865, -0.52705306, -651880.2, 62508.11, 0.0, 10.000379, 9.999563 
2.5050604e+3, 2.3709711e+2, -734107.8, -748495.06, 79499.65, -0.04358315, -0.54354954, -661477.0, -45081.117, 0.0, 9.999622, 9.999411 
2.504986e+3, 2.470965e+2, -714074.6, -630113.25, 77778.71, -0.04080393, -0.53782356, -583708.94, -65307.742, 0.0, 9.998837, 9.999928 
2.5049108e+3, 2.5709626e+2, -744322.06, -610274.56, 72484.13, -0.040136095, -0.52317387, -578575.8, -158172.55, 0.0, 9.998027, 9.9997835 
2.504836e+3, 2.6709574e+2, -723728.4, -492096.2, 63665.848, -0.038341094, -0.5456061, -475750.6, -153342.0, 0.0, 9.997247, 10.000297 
2.5047606e+3, 2.7709535e+2, -735050.44, -445490.34, 82733.14, -0.0264538, -0.584772, -423518.97, -199106.1, 0.0, 9.9964905, 10.000309 
2.5046855e+3, 2.8709644e+2, -654510.44, -231443.13, 57461.1, -0.009434731, -0.5356014, -223777.64, -97375.516, 0.0, 9.995833, 10.001423 
2.5046098e+3, 2.9709834e+2, -668733.0, -218304.47, 31340.336, -0.021370102, -0.45523903, -216134.3, -187751.28, 0.0, 9.995194, 10.001149 
2.5045344e+3, 3.0709743e+2, -718590.75, -229359.5, 28826.484, -0.0035443949, -0.6142785, -227666.84, -227666.84, 0.0, 9.994568, 10.0010395 
2.5044575e+3, 3.170996e+2, -697492.25, -46077.324, 29395.982, -0.11689131, -0.4692288, -44753.48, -44753.48, 0.0, 9.993973, 10.002583 
2.5158954e+3, 1.2719986e+2, -908309.3, -1699796.5, 14087.233, 0.020143453, -0.5148724, -908058.6, 785333.3, 0.13446347, 10.008246, 9.99613 
2.5158185e+3, 1.3719602e+2, -872702.4, -1651691.8, 273.03732, 0.004323319, -0.48113433, -872702.3, 722728.7, 0.09394072, 10.00748, 9.996159 
2.5157422e+3, 1.4719251e+2, -772891.3, -1439590.9, 17924.205, -0.0016810044, -0.4815292, -772409.75, 725055.6, 0.05419548, 10.006691, 9.997342 
2.5156662e+3, 1.5718934e+2, -772572.06, -1410178.5, 19134.164, 0.013799057, -0.50117254, -771998.4, 627497.1, 0.023612617, 10.005892, 9.997233 
2.51559e+3, 1.6718645e+2, -741708.56, -1280757.6, 33779.5, -0.003319843, -0.5123226, -739600.06, 561923.25, 0.0067321653, 10.005056, 9.997851 
2.5155136e+3, 1.771839e+2, -773211.7, -1262532.8, 44621.348, -0.03983799, -0.5209281, -769175.94, 434371.88, 0.0009211826, 10.004211, 9.99771 
2.5154376e+3, 1.8718162e+2, -758946.25, -1148035.6, 54189.96, -0.04553333, -0.51055884, -751540.0, 354029.88, 0.000020743495, 10.003388, 9.9982195 
2.5153622e+3, 1.9717973e+2, -781597.94, -1112809.9, 37887.34, -0.036095347, -0.49183634, -777319.25, 230269.13, 0.0, 10.002579, 9.998179 
2.5152865e+3, 2.0717785e+2, -731449.4, -940931.8, 47307.36, -0.043793518, -0.513906, -721261.44, 188344.97, 0.0, 10.001834, 9.999044 
2.515211e+3, 2.1717617e+2, -749553.56, -916755.7, 62569.734, -0.059453584, -0.5547602, -728731.9, 82890.195, 0.0, 10.001113, 9.998886 
2.5151354e+3, 2.2717506e+2, -724263.4, -799811.5, 56123.39, -0.057682753, -0.5428927, -694386.0, 19246.414, 0.0, 10.0003805, 9.999369 
2.5150597e+3, 2.3717442e+2, -744174.3, -772732.44, 50826.453, -0.047609925, -0.5120638, -705659.25, -90020.875, 0.0, 9.999631, 9.999243 
2.514984e+3, 2.4717338e+2, -720695.8, -646351.75, 46640.19, -0.04781746, -0.5358829, -623882.6, -106234.414, 0.0, 9.998842, 9.999817 
2.5149083e+3, 2.5717247e+2, -742174.8, -607721.2, 40891.223, -0.054048605, -0.5799783, -596261.7, -176604.8, 0.0, 9.998029, 9.999802 
2.5148326e+3, 2.6717263e+2, -688678.25, -420176.66, 34084.797, -0.037601326, -0.5633094, -415917.34, -94262.67, 0.0, 9.997246, 10.000793 
2.5147572e+3, 2.7717346e+2, -717988.0, -411343.9, 55926.727, -0.005363825, -0.52832496, -401462.25, -177816.05, 0.0, 9.996491, 10.0005455 
2.514681e+3, 2.8717363e+2, -706329.56, -342079.06, 32971.555, -0.015917202, -0.5356, -339118.6, -213472.88, 0.0, 9.995841, 10.000663 
2.5146043e+3, 2.9717395e+2, -702459.25, -293350.47, 4693.5806, -0.065855525, -0.5384526, -293296.63, -265652.7, 0.0, 9.995211, 10.000629 
2.514529e+3, 3.0717507e+2, -666980.0, -126770.07, 4109.276, 0.040798716, -0.5133967, -126738.81, -126738.81, 0.0, 9.994582, 10.00174 
2.514451e+3, 3.171756e+2, -676906.3, -7065.353, -14552.136, -0.1090258, -0.60734403, -6749.361, -6749.361, 0.0, 9.993982, 10.00285 
2.525903e+3, 1.2727748e+2, -905775.56, -1694378.0, 31923.21, 0.018302884, -0.49825388, -904485.44, 788145.94, 0.12660685, 10.008174, 9.996203 
2.5258258e+3, 1.3727349e+2, -891483.9, -1657404.3, 47818.8, 0.00014601962, -0.48569942, -888509.94, 706161.8, 0.088097766, 10.007277, 9.996217 
2.5257483e+3, 1.4726993e+2, -802424.0, -1455104.6, 70603.57, -0.010511459, -0.48970816, -794873.8, 701832.7, 0.050490405, 10.006465, 9.997332 
2.5256717e+3, 1.5726678e+2, -798081.2, -1422242.8, 61200.484, -0.0010361179, -0.5058098, -792137.0, 606599.75, 0.021748275, 10.005705, 9.997238 
2.5255945e+3, 1.6726406e+2, -758542.4, -1283075.4, 60100.74, -0.0094487155, -0.5038335, -751744.2, 549019.06, 0.006067683, 10.004917, 9.997899 
2.5255176e+3, 1.7726171e+2, -781387.2, -1259585.4, 54122.555, -0.030719409, -0.4953979, -775338.1, 427447.8, 0.00079227495, 10.004131, 9.9977665 
2.525441e+3, 1.8725932e+2, -764544.5, -1147252.0, 78445.86, -0.041754235, -0.49986735, -749089.1, 355719.84, 0.000014969731, 10.003342, 9.998244 
2.5253645e+3, 1.9725716e+2, -783550.9, -1109651.8, 90031.76, -0.046137888, -0.5091283, -760345.7, 246484.16, 0.0, 10.002554, 9.99821 
2.5252882e+3, 2.072554e+2, -738256.25, -936530.44, 87762.03, -0.049803805, -0.5217742, -704991.2, 203855.42, 0.0, 10.00176, 9.999107 
2.525212e+3, 2.17254e+2, -767997.94, -919711.44, 72315.836, -0.0533073, -0.5385621, -739050.94, 71808.54, 0.0, 10.000966, 9.998933 
2.5251356e+3, 2.2725286e+2, -743881.44, -813813.25, 64940.813, -0.055161197, -0.529317, -705091.5, 7778.869, 0.0, 10.000272, 9.999322 
2.525059e+3, 2.3725204e+2, -747842.6, -774860.75, 68696.14, -0.054068603, -0.5103351, -691339.9, -76461.61, 0.0, 9.999614, 9.999233 
2.5249827e+3, 2.4725103e+2, -717610.4, -634187.56, 74062.57, -0.05286034, -0.53506154, -590898.3, -74010.734, 0.0, 9.998824, 9.999907 
2.5249064e+3, 2.5725022e+2, -744597.94, -600166.9, 83058.85, -0.053195093, -0.57782894, -562319.44, -143424.25, 0.0, 9.997982, 9.999873 
2.5248298e+3, 2.6725042e+2, -675623.2, -414941.53, 57765.07, -0.037802458, -0.5583697, -402714.72, -81822.13, 0.0, 9.997346, 10.000778 
2.5247535e+3, 2.7725127e+2, -679165.7, -395177.03, 41484.22, -0.00866385, -0.5165712, -389241.22, -166357.45, 0.0, 9.996774, 10.000518 
2.5246766e+3, 2.8725132e+2, -667737.2, -330233.5, 43738.82, -0.02065881, -0.5299219, -324657.28, -199772.97, 0.0, 9.996141, 10.000595 
2.5245994e+3, 2.9725134e+2, -667250.9, -283895.78, 66803.7, -0.068447, -0.5541955, -272588.06, -245702.67, 0.0, 9.995494, 10.000553 
2.5245234e+3, 3.0725265e+2, -626501.9, -108103.57, 46286.723, 0.034154337, -0.5084544, -104003.16, -104003.16, 0.0, 9.994871, 10.001725 
2.524445e+3, 3.1725457e+2, -625887.56, 28538.465, -22671.596, -0.10044979, -0.45895383, 29322.947, 29322.947, 0.0, 9.994286, 10.002948 
2.5359115e+3, 1.2735587e+2, -874507.0, -1637406.3, 3770.445, 0.041651897, -0.473548, -874488.4, 817375.3, 0.11852745, 10.0081415, 9.996657 
2.5358325e+3, 1.3735174e+2, -868021.94, -1612193.1, 17916.166, -0.0055276323, -0.5195791, -867590.8, 726312.8, 0.082134426, 10.007263, 9.996533 
2.5357544e+3, 1.4734827e+2, -810613.8, -1478805.0, 43136.54, -0.030610146, -0.5165662, -807840.56, 688097.25, 0.046737768, 10.006464, 9.997164 
2.5356767e+3, 1.5734532e+2, -808907.06, -1447226.5, 33245.555, -0.030657215, -0.49593204, -807180.2, 590787.06, 0.019878771, 10.005698, 9.997071 
2.5355992e+3, 1.6734262e+2, -771406.94, -1310871.8, 32079.201, -0.01827156, -0.4727627, -769506.06, 530488.3, 0.005414028, 10.004913, 9.997712 
2.5355217e+3, 1.7734024e+2, -784885.5, -1267789.9, 26395.818, -0.0060665435, -0.45029244, -783446.94, 418571.13, 0.00067057397, 10.004129, 9.997713 
2.5354442e+3, 1.873377e+2, -737817.6, -1093118.0, 49820.14, -0.027968267, -0.4931445, -730964.06, 373077.66, 0.000010195159, 10.003342, 9.998618 
2.5353667e+3, 1.9733529e+2, -768435.06, -1079327.3, 60472.875, -0.062046155, -0.5621663, -757086.5, 248976.58, 0.0, 10.002554, 9.998421 
2.5352895e+3, 2.0733377e+2, -762106.94, -988367.44, 58004.195, -0.054238286, -0.5357633, -748103.6, 159974.56, 0.0, 10.001764, 9.998753 
2.535213e+3, 2.1733283e+2, -784471.44, -956939.0, 44639.754, -0.030434506, -0.47346348, -773602.3, 36486.316, 0.0, 10.000975, 9.998676 
2.5351354e+3, 2.2733137e+2, -737934.0, -804207.8, 41227.418, -0.041228004, -0.48981887, -718177.1, -6074.372, 0.0, 10.000278, 9.999387 
2.5350583e+3, 2.3732997e+2, -738914.2, -758226.8, 42218.793, -0.064053446, -0.5375839, -705261.5, -91145.64, 0.0, 9.999617, 9.999349 
2.534981e+3, 2.4732947e+2, -697645.44, -594248.56, 41369.094, -0.055768985, -0.53341126, -579734.2, -63614.527, 0.0, 9.998825, 10.000183 
2.5349042e+3, 2.5732952e+2, -737438.25, -587727.5, 53386.95, -0.038650814, -0.51286083, -570640.0, -152521.94, 0.0, 9.997987, 9.999959 
2.534827e+3, 2.6732904e+2, -716081.9, -501591.34, 35557.49, -0.040027883, -0.5308798, -495850.4, -175727.34, 0.0, 9.997352, 10.000183 
2.5347495e+3, 2.7732867e+2, -699555.0, -441479.63, 17134.658, -0.039863557, -0.5549678, -440346.94, -218219.56, 0.0, 9.996786, 10.000196 
2.5346723e+3, 2.873295e+2, -618890.5, -232408.25, 16457.244, -0.023122095, -0.516455, -231708.73, -107590.06, 0.0, 9.996152, 10.001265 
2.5345948e+3, 2.9733068e+2, -640628.56, -230687.61, 42509.03, -0.024513485, -0.49179295, -226326.02, -200219.8, 0.0, 9.995497, 10.000919 
2.5345173e+3, 3.073299e+2, -682016.7, -226759.94, 22259.71, -0.034715164, -0.6200596, -225674.14, -225674.14, 0.0, 9.99488, 10.00091 
2.534439e+3, 3.1733328e+2, -647348.06, -32321.322, 8020.8003, -0.12730154, -0.34145325, -32216.738, -32216.738, 0.0, 9.994342, 10.00251 
2.5459188e+3, 1.274347e+2, -892484.94, -1647929.9, 35720.47, 0.011235791, -0.50088274, -890799.7, 800290.6, 0.11029816, 10.007939, 9.996669 
2.5458393e+3, 1.3743077e+2, -874111.94, -1614829.3, 27565.492, -0.014816686, -0.52525204, -873087.5, 720040.9, 0.07609825, 10.00717, 9.99656 
2.5457603e+3, 1.4742745e+2, -822467.0, -1482013.6, 54099.07, -0.038753107, -0.5103841, -818059.0, 677102.44, 0.042968053, 10.00635, 9.997191 
2.545682e+3, 1.574246e+2, -830237.4, -1455405.1, 55127.094, -0.045424264, -0.48194113, -825413.5, 571776.8, 0.018021686, 10.005535, 9.997091 
2.5456035e+3, 1.6742174e+2, -793584.9, -1323855.9, 65349.17, -0.030731698, -0.47287005, -785650.1, 513568.84, 0.0047791237, 10.004772, 9.997688 
2.5455254e+3, 1.7741913e+2, -799875.7, -1275098.6, 68371.42, -0.011998065, -0.47151372, -790234.5, 411010.56, 0.00055844605, 10.00403, 9.997708 
2.545447e+3, 1.8741675e+2, -744651.06, -1090050.4, 78729.78, -0.028429559, -0.4975013, -727552.0, 375715.03, 0.0000065919644, 10.003273, 9.998669 
2.545369e+3, 1.9741468e+2, -771924.1, -1077475.5, 68395.97, -0.05734132, -0.5365655, -757312.75, 247972.61, 0.0, 10.002521, 9.998446 
2.545291e+3, 2.0741305e+2, -761407.94, -998052.06, 72820.64, -0.050590895, -0.5175629, -740794.94, 166507.0, 0.0, 10.001819, 9.998656 
2.5452137e+3, 2.1741179e+2, -765173.0, -952799.0, 75887.31, -0.02957461, -0.47499555, -738322.2, 70993.25, 0.0, 10.001136, 9.998625 
2.5451356e+3, 2.2741038e+2, -723156.2, -789195.06, 76977.95, -0.036728755, -0.48986107, -672414.75, 38914.41, 0.0, 10.000353, 9.999452 
2.5450575e+3, 2.374091e+2, -749651.9, -758673.9, 77329.82, -0.05381828, -0.5291722, -676701.56, -63360.9, 0.0, 9.999529, 9.999385 
2.5449798e+3, 2.4740861e+2, -697683.56, -601603.56, 58047.902, -0.051716506, -0.51905584, -574295.06, -58950.508, 0.0, 9.998862, 10.000112 
2.544902e+3, 2.5740865e+2, -705047.3, -579306.5, 45701.668, -0.04289753, -0.49209645, -564450.94, -147107.48, 0.0, 9.998246, 9.999889 
2.544824e+3, 2.6740798e+2, -689416.7, -497668.6, 50401.973, -0.038417537, -0.51871586, -485227.4, -165877.48, 0.0, 9.99758, 10.000098 
2.544746e+3, 2.7740738e+2, -688929.4, -442499.4, 67501.305, -0.029106943, -0.55988264, -425221.13, -203864.66, 0.0, 9.996891, 10.000136 
2.5446683e+3, 2.874082e+2, -617702.44, -229374.83, 39857.445, -0.02126991, -0.51957804, -225326.13, -101978.43, 0.0, 9.996154, 10.001283 
2.54459e+3, 2.9740953e+2, -652715.4, -233178.7, 20673.703, -0.03431407, -0.48014936, -232162.42, -206828.84, 0.0, 9.995401, 10.000948 
2.544512e+3, 3.0740866e+2, -641737.3, -210467.11, 37310.99, -0.04153605, -0.6180565, -207262.98, -207262.98, 0.0, 9.995174, 10.000877 
2.5444335e+3, 3.1740952e+2, -613446.94, -71202.75, 67231.664, -0.10480305, -0.58501416, -62991.195, -62991.195, 0.0, 9.994827, 10.002001 
2.5559255e+3, 1.2751405e+2, -909202.7, -1689878.6, 9188.997, -0.058567308, -0.5605042, -909094.56, 781216.3, 0.10198062, 10.007902, 9.996362 
2.555846e+3, 1.3751058e+2, -886933.7, -1644938.6, 2067.238, -0.028136808, -0.5089972, -886928.06, 705418.1, 0.07002723, 10.007128, 9.996373 
2.5557664e+3, 1.4750744e+2, -812096.1, -1463439.4, 25804.268, -0.039116595, -0.48020354, -811075.44, 683302.5, 0.039205976, 10.0063305, 9.997336 
2.555687e+3, 1.5750459e+2, -820119.5, -1436275.5, 26083.813, -0.04990665, -0.46530202, -819017.25, 577389.2, 0.01619218, 10.005529, 9.997229 
2.555608e+3, 1.6750142e+2, -787382.75, -1311964.1, 38128.26, -0.0472968, -0.49798056, -784625.94, 513811.5, 0.0041696895, 10.004769, 9.997774 
2.555529e+3, 1.7749839e+2, -799467.5, -1274888.5, 40753.605, -0.043766636, -0.5460371, -795999.4, 404467.47, 0.0004571379, 10.004028, 9.997713 
2.55545e+3, 1.8749651e+2, -760433.0, -1125093.3, 51011.043, -0.040300436, -0.5088443, -753431.7, 349053.63, 0.0000041140547, 10.003278, 9.998429 
2.5553712e+3, 1.9749525e+2, -780916.3, -1098897.3, 41792.445, -0.035932083, -0.4428681, -775515.25, 228982.39, 0.0, 10.002527, 9.998299 
2.5552928e+3, 2.0749313e+2, -752318.6, -981821.0, 48209.613, -0.040960293, -0.47278497, -742602.94, 163915.39, 0.0, 10.001825, 9.998767 
2.5552142e+3, 2.1749093e+2, -757545.4, -938328.3, 49934.563, -0.049675215, -0.5384339, -744669.8, 63870.043, 0.0, 10.001136, 9.998726 
2.5551358e+3, 2.2748986e+2, -719247.75, -782854.4, 46290.746, -0.040682323, -0.52520627, -694888.06, 15661.68, 0.0, 10.000356, 9.9994955 
2.555057e+3, 2.374894e+2, -753182.9, -769044.9, 48061.574, -0.025696693, -0.48532113, -712402.3, -99849.05, 0.0, 9.999537, 9.999312 
2.5549784e+3, 2.4748844e+2, -727860.6, -666694.6, 34380.05, -0.041641984, -0.49360916, -651263.4, -136700.5, 0.0, 9.998868, 9.999664 
2.5548998e+3, 2.574875e+2, -720233.9, -613652.06, 20768.623, -0.06809407, -0.5185714, -609748.06, -193175.78, 0.0, 9.998253, 9.999653 
2.5548214e+3, 2.6748732e+2, -657502.44, -433793.63, 23336.123, -0.03231998, -0.52114713, -431385.25, -112811.805, 0.0, 9.997584, 10.000537 
2.5547433e+3, 2.7748746e+2, -674991.1, -415917.84, 40813.723, 0.027785126, -0.5245817, -409640.28, -189070.02, 0.0, 9.996896, 10.0003195 
2.554664e+3, 2.874873e+2, -667995.7, -334904.47, 9914.496, -0.016192477, -0.54366237, -334609.63, -212037.31, 0.0, 9.996153, 10.000562 
2.554584e+3, 2.9748765e+2, -677136.56, -283682.75, -3001.531, -0.108927846, -0.5358656, -283659.88, -259089.27, 0.0, 9.995395, 10.0006075 
2.5545076e+3, 3.074892e+2, -586842.0, -101876.73, 34292.285, 0.02988086, -0.46474722, -99463.9, -99463.9, 0.0, 9.995193, 10.001617 
2.5544283e+3, 3.1748843e+2, -595898.44, -35384.293, -47849.91, -0.088869534, -0.6593464, -31328.791, -31328.791, 0.0, 9.994826, 10.002249 
2.565933e+3, 1.2759459e+2, -925373.5, -1686991.0, 7839.035, -0.08526571, -0.5389787, -925292.8, 764229.4, 0.093657374, 10.007655, 9.996505 
2.5658524e+3, 1.3759097e+2, -932448.7, -1657673.5, 25405.36, -0.037344635, -0.51613396, -931559.75, 659998.4, 0.063973606, 10.006706, 9.996488 
2.5657722e+3, 1.475878e+2, -857587.44, -1484578.9, 55372.22, -0.042411238, -0.49396452, -852734.8, 640855.2, 0.035482917, 10.005984, 9.997349 
2.565692e+3, 1.5758498e+2, -841011.9, -1442244.9, 47220.594, -0.053074434, -0.47717604, -837325.75, 558292.7, 0.014407281, 10.00536, 9.997267 
2.5656122e+3, 1.6758195e+2, -798821.25, -1307024.8, 56089.793, -0.054399602, -0.5020485, -792704.3, 504943.7, 0.0035919994, 10.004647, 9.997865 
2.5655323e+3, 1.7757906e+2, -812733.2, -1275063.5, 59194.89, -0.055971064, -0.5418048, -805274.44, 394401.22, 0.0003670184, 10.003915, 9.997765 
2.5654528e+3, 1.8757707e+2, -774176.3, -1141329.3, 77207.0, -0.047313783, -0.51106584, -758601.44, 343093.94, 0.000002561901, 10.00323, 9.998339 
2.5653735e+3, 1.9757564e+2, -779116.44, -1102600.6, 76676.195, -0.033203185, -0.4535811, -761862.0, 241847.92, 0.0, 10.002564, 9.998254 
2.5652945e+3, 2.0757362e+2, -746047.8, -969710.4, 82835.83, -0.036096815, -0.47555503, -718710.1, 187019.55, 0.0, 10.001835, 9.998843 
2.5652152e+3, 2.1757156e+2, -762047.8, -935385.9, 80578.234, -0.04614041, -0.5303898, -730376.8, 77372.55, 0.0, 10.001089, 9.998766 
2.5651357e+3, 2.2757034e+2, -713157.3, -788673.25, 69351.38, -0.038054943, -0.526876, -671951.5, 37808.84, 0.0, 10.000441, 9.999413 
2.5650567e+3, 2.3756966e+2, -718460.8, -761955.06, 63006.195, -0.021831525, -0.5010402, -673554.2, -61788.29, 0.0, 9.999824, 9.99922 
2.5649774e+3, 2.4756858e+2, -701651.0, -669725.9, 63759.004, -0.033751383, -0.50760025, -619961.6, -106184.54, 0.0, 9.999122, 9.999518 
2.5648978e+3, 2.5756758e+2, -708752.5, -618829.2, 70824.08, -0.056618433, -0.5255963, -579900.44, -164112.5, 0.0, 9.998384, 9.999551 
2.564819e+3, 2.6756743e+2, -631077.0, -418730.63, 56858.523, -0.026099922, -0.5184586, -404464.44, -86676.15, 0.0, 9.997762, 10.000552 
2.56474e+3, 2.7756765e+2, -639851.4, -404509.6, 41346.043, 0.028584773, -0.51301, -397457.06, -177673.33, 0.0, 9.997167, 10.000264 
2.56466e+3, 2.8756714e+2, -639818.2, -353427.25, 20963.076, -0.015238849, -0.5507458, -351900.94, -230110.83, 0.0, 9.996491, 10.000268 
2.5645795e+3, 2.97567e+2, -629127.7, -272722.9, 43456.03, -0.10896507, -0.56024235, -267500.88, -243707.19, 0.0, 9.995787, 10.000489 
2.5645024e+3, 3.0756944e+2, -579982.9, -53514.164, 78378.34, 0.030976884, -0.4194359, -42093.3, -42093.3, 0.0, 9.995051, 10.002015 
2.5644222e+3, 3.1757066e+2, -614654.9, 782.9485, -62219.246, -0.1212304, -0.4537299, 7010.1523, 7010.1523, 0.0, 9.994505, 10.002652 
2.5759402e+3, 1.2767608e+2, -902457.44, -1631043.5, -24446.729, -0.08538821, -0.46452224, -901638.06, 787087.6, 0.08545158, 10.007549, 9.996973 
2.5758588e+3, 1.3767193e+2, -913063.2, -1616063.0, -5010.6216, -0.04558464, -0.5391841, -913027.5, 677736.7, 0.058018364, 10.006668, 9.996794 
2.5757778e+3, 1.476686e+2, -863837.1, -1501117.6, 33220.367, -0.0487635, -0.5377993, -862110.06, 630687.2, 0.031845145, 10.00597, 9.997244 
2.575697e+3, 1.5766577e+2, -845326.8, -1451463.3, 23901.809, -0.055638388, -0.5099808, -844385.75, 550440.3, 0.01268887, 10.005346, 9.997212 
2.5756165e+3, 1.6766323e+2, -793948.9, -1297298.1, 29395.59, -0.054399054, -0.4890295, -792237.94, 504613.22, 0.0030528842, 10.004641, 9.997936 
2.5755358e+3, 1.7766099e+2, -807381.25, -1265143.6, 32687.229, -0.053737264, -0.47396225, -805058.94, 393814.2, 0.00028835505, 10.003915, 9.997835 
2.575456e+3, 1.8765837e+2, -771839.44, -1138756.9, 52647.652, -0.05132104, -0.50784695, -764434.6, 336463.44, 0.0000016628666, 10.003235, 9.998357 
2.5753757e+3, 1.9765592e+2, -777067.2, -1100406.6, 51471.94, -0.046724018, -0.555072, -769071.2, 233850.53, 0.0, 10.002568, 9.998269 
2.575296e+3, 2.076545e+2, -743710.8, -967234.75, 54733.176, -0.0350365, -0.51733553, -731028.2, 173907.56, 0.0, 10.001841, 9.998859 
2.575216e+3, 2.1765365e+2, -763786.3, -941132.25, 53871.316, -0.022748325, -0.4558239, -748704.75, 58240.074, 0.0, 10.001093, 9.998727 
2.575136e+3, 2.2765179e+2, -727675.06, -821430.3, 46715.78, -0.030411799, -0.49881902, -708372.06, 589.61694, 0.0, 10.000446, 9.999187 
2.575056e+3, 2.3764986e+2, -726604.75, -781101.1, 38627.715, -0.04249807, -0.5769173, -706581.8, -95602.75, 0.0, 9.999828, 9.999089 
2.574976e+3, 2.4764904e+2, -691916.94, -650800.94, 35190.574, -0.02747727, -0.55972385, -630603.5, -117616.195, 0.0, 9.999124, 9.99965 
2.5748962e+3, 2.5764883e+2, -707682.9, -619093.9, 44113.55, -0.008119522, -0.510518, -600874.3, -185884.0, 0.0, 9.99839, 9.999549 
2.574816e+3, 2.676483e+2, -662175.4, -486083.6, 33796.855, -0.02136769, -0.5118146, -479819.84, -162824.77, 0.0, 9.997767, 10.00009 
2.5747365e+3, 2.7764785e+2, -660769.4, -450583.03, 16279.249, -0.035285316, -0.5318638, -449329.66, -230331.22, 0.0, 9.997172, 9.999948 
2.5746563e+3, 2.876476e+2, -628041.56, -332383.9, -7246.1245, -0.01761497, -0.53565586, -332206.44, -211205.22, 0.0, 9.996501, 10.00041 
2.5745758e+3, 2.9764774e+2, -619217.9, -258408.05, 16736.416, -0.019394092, -0.53467727, -257633.38, -234632.19, 0.0, 9.995808, 10.000581 
2.574496e+3, 3.076489e+2, -575466.44, -42662.047, 47033.89, -0.064515315, -0.52869546, -38541.94, -38541.94, 0.0, 9.99504, 10.002098 
2.5744164e+3, 3.1765094e+2, -668196.6, -108283.664, -17611.037, -0.095975734, -0.48247468, -107730.29, -107730.29, 0.0, 9.994487, 10.001916 
2.585947e+3, 1.2775767e+2, -972068.6, -1635267.4, -1307.4988, -0.082483485, -0.45220813, -972066.06, 715861.2, 0.07749331, 10.006826, 9.997289 
2.585865e+3, 1.3775377e+2, -951243.6, -1608965.9, 11066.04, -0.04690038, -0.53188384, -951057.5, 638904.56, 0.052253794, 10.006241, 9.997047 
2.5857833e+3, 1.4775042e+2, -905046.75, -1516346.4, 57506.645, -0.052946128, -0.5419557, -899684.0, 592310.6, 0.02834724, 10.005641, 9.997295 
2.585702e+3, 1.5774752e+2, -882850.6, -1465308.1, 55464.723, -0.061590914, -0.5264098, -877616.06, 516408.03, 0.0110619925, 10.005064, 9.997252 
2.5856206e+3, 1.6774502e+2, -824332.25, -1311718.3, 57983.33, -0.05898052, -0.5020525, -817529.06, 478519.84, 0.0025595683, 10.004434, 9.997935 
2.5855392e+3, 1.7774284e+2, -825482.0, -1271850.4, 56986.652, -0.05549956, -0.47721744, -818321.5, 379748.66, 0.0002214741, 10.003786, 9.9978485 
2.5854585e+3, 1.8774027e+2, -780980.25, -1140504.4, 75645.484, -0.05294002, -0.511509, -765712.44, 334382.63, 0.0000011356803, 10.003166, 9.998376 
2.585378e+3, 1.9773774e+2, -779786.2, -1103249.1, 71651.91, -0.04968662, -0.5653448, -764624.9, 237494.36, 0.0, 10.002561, 9.998251 
2.5852972e+3, 2.0773625e+2, -746748.5, -981045.5, 65557.125, -0.03640791, -0.52607346, -729652.8, 174481.42, 0.0, 10.001879, 9.998744 
2.5852168e+3, 2.1773534e+2, -757337.1, -944088.8, 56923.316, -0.020085467, -0.45681888, -741354.3, 64789.707, 0.0, 10.00117, 9.998667 
2.5851363e+3, 2.2773348e+2, -715316.25, -810235.1, 63353.57, -0.025978254, -0.5029055, -683617.1, 24543.912, 0.0, 10.000516, 9.999228 
2.5850555e+3, 2.3773147e+2, -718308.25, -775451.0, 72934.78, -0.03792945, -0.5886838, -668548.25, -58369.586, 0.0, 9.999885, 9.999098 
2.584975e+3, 2.477307e+2, -670029.6, -647785.1, 62434.38, -0.023860468, -0.56330067, -595490.06, -83303.42, 0.0, 9.999311, 9.9995775 
2.5848946e+3, 2.5773054e+2, -662549.94, -606917.94, 56716.188, -0.0036340458, -0.5007801, -571563.9, -157374.56, 0.0, 9.998747, 9.999458 
2.5848138e+3, 2.677297e+2, -626272.06, -488231.75, 57294.8, -0.02281219, -0.51771945, -467549.75, -151352.52, 0.0, 9.998104, 9.999909 
2.584733e+3, 2.7772883e+2, -633245.25, -450119.22, 58701.676, -0.04616273, -0.5594125, -432917.94, -214713.22, 0.0, 9.997422, 9.999828 
2.5846526e+3, 2.877289e+2, -598099.25, -310990.9, 32751.309, -0.023473458, -0.5307064, -307302.25, -187098.1, 0.0, 9.99668, 10.000469 
2.5845715e+3, 2.9772943e+2, -610350.25, -258805.48, 49291.906, -0.011509874, -0.49358758, -252024.8, -229825.1, 0.0, 9.995892, 10.000536 
2.584491e+3, 3.0772918e+2, -565588.06, -72617.74, 56197.977, -0.07254329, -0.6052932, -66292.41, -66292.41, 0.0, 9.995264, 10.001781 
2.5844115e+3, 3.1773037e+2, -675510.7, -144788.5, -7857.81, -0.03571451, -0.61609083, -144672.17, -144672.17, 0.0, 9.994591, 10.00161 
2.5959533e+3, 1.2783954e+2, -963091.6, -1612628.6, -21090.758, -0.080026545, -0.47894958, -962407.5, 724717.75, 0.06987248, 10.006757, 9.997484 
2.5958708e+3, 1.3783637e+2, -936115.75, -1582470.8, -10909.099, -0.04484261, -0.50450915, -935931.7, 653220.8, 0.04675431, 10.006229, 9.997238 
2.5957885e+3, 1.4783314e+2, -893014.56, -1496224.3, 34865.117, -0.056372233, -0.5192828, -891006.06, 600177.3, 0.025038421, 10.00564, 9.9974375 
2.5957066e+3, 1.5783012e+2, -877581.3, -1453370.9, 31901.693, -0.072003454, -0.5299957, -875819.2, 517394.28, 0.009550305, 10.005047, 9.997345 
2.5956246e+3, 1.6782732e+2, -828939.0, -1321870.3, 33152.973, -0.067832544, -0.535634, -826719.25, 468522.0, 0.0021183249, 10.004429, 9.99787 
2.5955427e+3, 1.778248e+2, -827352.25, -1279621.8, 33354.746, -0.060104575, -0.5376768, -824905.56, 372360.28, 0.00016634856, 10.0037985, 9.997792 
2.5954613e+3, 1.8782273e+2, -780816.6, -1142960.5, 53078.348, -0.053117137, -0.51847804, -773197.44, 326088.9, 0.00000077863837, 10.003173, 9.998358 
2.5953802e+3, 1.9782093e+2, -784960.1, -1113953.0, 47768.88, -0.04573288, -0.49618724, -778164.56, 223139.31, 0.0, 10.002556, 9.998182 
2.595299e+3, 2.0781878e+2, -763085.94, -1016765.7, 39300.973, -0.04081407, -0.50794876, -757136.8, 146189.02, 0.0, 10.001881, 9.998501 
2.5952175e+3, 2.1781671e+2, -763051.94, -958422.1, 32125.102, -0.036445625, -0.53018343, -757905.1, 47441.61, 0.0, 10.001176, 9.998569 
2.5951365e+3, 2.2781539e+2, -695967.8, -771518.6, 40140.477, -0.024065176, -0.5350694, -678623.0, 28735.305, 0.0, 10.000518, 9.999495 
2.5950554e+3, 2.378145e+2, -709377.94, -758816.9, 49779.95, -0.010410069, -0.53588563, -678517.75, -69152.695, 0.0, 9.999887, 9.999213 
2.5949737e+3, 2.4781348e+2, -689673.9, -691289.25, 40916.625, -0.024441581, -0.5193998, -649556.94, -138181.3, 0.0, 9.999318, 9.999278 
2.5948927e+3, 2.5781262e+2, -674367.6, -634855.56, 33828.625, -0.047267463, -0.49910504, -615436.6, -202050.98, 0.0, 9.998756, 9.999265 
2.5948116e+3, 2.6781157e+2, -618541.6, -474319.5, 30957.152, -0.030099168, -0.53645635, -467955.38, -152560.25, 0.0, 9.998109, 10.000005 
2.594731e+3, 2.7781063e+2, -627275.3, -440865.63, 32075.709, 0.0016522637, -0.5926006, -435500.72, -218098.36, 0.0, 9.997431, 9.99989 
2.5946486e+3, 2.8781098e+2, -599747.25, -316892.7, 2642.4534, -0.0363154, -0.5387638, -316868.0, -197468.73, 0.0, 9.996685, 10.000429 
2.594566e+3, 2.9781196e+2, -626251.0, -291617.72, 21205.36, -0.103640005, -0.44738564, -290279.3, -268888.97, 0.0, 9.995885, 10.000317 
2.5944868e+3, 3.078105e+2, -627210.0, -203358.16, 34422.176, 0.03808678, -0.6198741, -200580.84, -200580.84, 0.0, 9.99527, 10.000883 
2.5944054e+3, 3.1781146e+2, -587583.5, 32942.39, -73400.22, -0.058741882, -0.58473545, 41506.496, 41506.496, 0.0, 9.994603, 10.002829 
2.6059598e+3, 1.2792219e+2, -1020024.0, -1643227.9, 21923.629, -0.05900471, -0.50530165, -1019253.75, 667060.0, 0.06263043, 10.006301, 9.997477 
2.6058763e+3, 1.3791914e+2, -940205.94, -1583927.8, 17537.912, -0.05559376, -0.51835203, -939728.5, 648612.06, 0.0415643, 10.006168, 9.997255 
2.6057938e+3, 1.4791606e+2, -903743.75, -1495869.8, 45417.094, -0.06562825, -0.52235293, -900280.44, 590090.0, 0.021952156, 10.005531, 9.997489 
2.6057112e+3, 1.5791316e+2, -915603.0, -1464284.1, 37459.402, -0.066408694, -0.52514976, -913057.4, 479342.1, 0.008170543, 10.004751, 9.99741 
2.6056287e+3, 1.6791035e+2, -848939.3, -1322216.6, 48045.14, -0.06540607, -0.5369438, -844111.2, 450315.75, 0.0017327017, 10.004255, 9.99795 
2.605546e+3, 1.7790781e+2, -817295.9, -1269653.3, 53267.203, -0.067297645, -0.5498726, -811108.06, 385343.8, 0.0001224377, 10.00385, 9.997833 
2.6054642e+3, 1.8790577e+2, -787963.94, -1151182.9, 68246.41, -0.06051406, -0.5225705, -775564.2, 322907.9, 0.00000050618763, 10.003151, 9.998309 
2.6053822e+3, 1.9790408e+2, -814597.8, -1129062.9, 62531.668, -0.0489699, -0.48509356, -802619.56, 197869.53, 0.0, 10.002363, 9.998168 
2.6053002e+3, 2.0790182e+2, -777150.06, -1019579.25, 69185.73, -0.042549144, -0.5066704, -758795.2, 143716.58, 0.0, 10.001774, 9.99853 
2.6052186e+3, 2.1789959e+2, -751456.1, -950890.06, 77009.15, -0.038156506, -0.54696023, -725181.5, 79352.58, 0.0, 10.001252, 9.998581 
2.6051366e+3, 2.278984e+2, -687465.0, -770076.75, 72123.0, -0.024276547, -0.53728193, -645657.06, 60887.617, 0.0, 10.000592, 9.999466 
2.605055e+3, 2.3789774e+2, -713088.1, -764439.3, 63430.363, -0.0069310768, -0.5115955, -670333.9, -61784.12, 0.0, 9.999885, 9.999173 
2.604973e+3, 2.4789655e+2, -695565.44, -704812.7, 63436.406, -0.025491798, -0.5034978, -636584.4, -126022.23, 0.0, 9.999329, 9.999177 
2.6048908e+3, 2.5789538e+2, -671138.2, -638940.6, 68118.54, -0.05544798, -0.50354725, -585044.4, -172469.23, 0.0, 9.998809, 9.999208 
2.6048094e+3, 2.6789433e+2, -609210.7, -464213.6, 61356.082, -0.031232761, -0.53934765, -441735.25, -127151.016, 0.0, 9.998155, 10.00005 
2.604728e+3, 2.778935e+2, -622768.56, -435521.25, 59585.125, 0.013958165, -0.58676577, -418168.44, -201578.4, 0.0, 9.997454, 9.999913 
2.6046452e+3, 2.878938e+2, -549667.6, -297223.3, 32021.516, -0.035211887, -0.5370995, -293224.84, -174637.52, 0.0, 9.997055, 10.000382 
2.604562e+3, 2.9789463e+2, -515764.97, -252621.69, 45702.31, -0.123366006, -0.45418257, -244910.17, -224330.58, 0.0, 9.996713, 10.000182 
2.6044822e+3, 3.0789274e+2, -620674.94, -248748.67, 71360.945, 0.06450234, -0.63503975, -235526.78, -235526.78, 0.0, 9.995528, 10.000445 
2.604399e+3, 3.178945e+2, -595844.25, 132016.22, -17593.674, -0.09393148, -0.49198365, 132441.23, 132441.23, 0.0, 9.994108, 10.003746 
2.6159662e+3, 1.2800555e+2, -1027046.06, -1661763.5, 15750.739, -0.025901305, -0.5345799, -1026655.44, 658838.8, 0.055785626, 10.006275, 9.99735 
2.6158822e+3, 1.3800225e+2, -947680.0, -1601675.1, 5293.922, -0.08101665, -0.56047344, -947637.2, 639887.6, 0.036704928, 10.006143, 9.997147 
2.6157987e+3, 1.479993e+2, -907191.8, -1505706.8, 15424.4795, -0.08122181, -0.5428963, -906794.56, 582759.7, 0.019104315, 10.00552, 9.99743 
2.615716e+3, 1.5799667e+2, -914147.0, -1463176.5, 12119.323, -0.04847695, -0.51385576, -913879.6, 477701.78, 0.00692974, 10.004749, 9.997421 
2.6156327e+3, 1.6799411e+2, -838814.1, -1300005.4, 33299.934, -0.055029184, -0.51250833, -836422.2, 457184.25, 0.0014028044, 10.004244, 9.99811 
2.6155496e+3, 1.7799175e+2, -813860.9, -1257604.9, 33436.188, -0.078870915, -0.5216328, -811355.56, 384273.53, 0.00008883098, 10.003824, 9.9979315 
2.6154667e+3, 1.879894e+2, -794456.44, -1163770.8, 38224.836, -0.07433064, -0.52579707, -790541.56, 307111.03, 0.0000003029647, 10.003142, 9.998229 
2.6153842e+3, 1.9798724e+2, -812199.6, -1126872.6, 36322.395, -0.05780666, -0.5269482, -808061.4, 191612.92, 0.0, 10.002371, 9.998182 
2.6153016e+3, 2.0798546e+2, -759557.25, -984944.56, 50473.85, -0.04194252, -0.51863104, -748770.25, 152921.81, 0.0, 10.001778, 9.998768 
2.6152194e+3, 2.1798393e+2, -746136.56, -939607.8, 56140.67, -0.028792182, -0.5100731, -731026.06, 72680.87, 0.0, 10.001246, 9.998664 
2.6151368e+3, 2.2798243e+2, -709282.6, -817405.7, 45710.824, -0.02775322, -0.51220566, -692547.75, 13173.345, 0.0, 10.000597, 9.999142 
2.6150542e+3, 2.3798114e+2, -725867.4, -794292.2, 38747.457, -0.028527696, -0.5181582, -708389.8, -100656.58, 0.0, 9.999894, 9.998966 
2.614972e+3, 2.4797988e+2, -689587.3, -693890.0, 43630.77, -0.026334312, -0.51571935, -648054.9, -138308.55, 0.0, 9.999331, 9.999253 
2.6148897e+3, 2.5797883e+2, -665990.3, -630509.06, 46281.715, -0.027588565, -0.51220655, -598684.3, -186926.42, 0.0, 9.998814, 9.999266 
2.6148072e+3, 2.6797798e+2, -610459.7, -468333.94, 33789.426, -0.027206156, -0.52464914, -460709.72, -146945.02, 0.0, 9.998156, 10.000024 
2.614725e+3, 2.779775e+2, -624632.44, -440587.97, 36687.367, -0.015654782, -0.5405669, -433544.28, -217776.36, 0.0, 9.997454, 9.999881 
2.614642e+3, 2.8797737e+2, -553758.25, -309684.13, 20940.652, -0.016632788, -0.5247708, -307900.53, -190131.95, 0.0, 9.997067, 10.000294 
2.614559e+3, 2.9797742e+2, -513711.7, -258192.28, 22031.025, -0.057226945, -0.5121628, -256306.67, -236538.92, 0.0, 9.99675, 10.000129 
2.6144767e+3, 3.0797583e+2, -609327.8, -226964.92, 12804.559, -0.0257561, -0.6679056, -226536.6, -226536.6, 0.0, 9.99553, 10.000596 
2.614393e+3, 3.1797814e+2, -625926.6, 81170.96, -41870.06, -0.07251683, -0.48320857, 83641.62, 83641.62, 0.0, 9.994056, 10.003423 
2.625972e+3, 1.2808932e+2, -1053261.1, -1676445.0, 43185.63, -0.013670012, -0.5539595, -1050282.6, 634389.4, 0.04935484, 10.006053, 9.997351 
2.6258877e+3, 1.3808614e+2, -957777.0, -1606280.6, 29240.615, -0.08704823, -0.56644297, -956461.25, 630241.2, 0.03218496, 10.006043, 9.997161 
2.6258036e+3, 1.4808328e+2, -917217.5, -1503600.3, 27171.15, -0.08870394, -0.54343826, -915961.2, 572770.06, 0.016497834, 10.005414, 9.997491 
2.62572e+3, 1.5808073e+2, -930391.3, -1463240.9, 32786.813, -0.04946266, -0.51213, -928381.44, 462376.22, 0.0058265887, 10.004606, 9.997485 
2.6256365e+3, 1.6807821e+2, -878221.6, -1311537.9, 58214.453, -0.052606486, -0.5110169, -870537.06, 422245.1, 0.0011256369, 10.003948, 9.99817 
2.625553e+3, 1.7807591e+2, -877546.75, -1278976.6, 50864.668, -0.074710205, -0.5209348, -871202.0, 323602.28, 0.00006410776, 10.003355, 9.998007 
2.6254696e+3, 1.8807359e+2, -832437.44, -1172726.0, 57552.195, -0.072225355, -0.52750987, -822967.3, 273860.2, 0.00000016598092, 10.002848, 9.998306 
2.625386e+3, 1.980715e+2, -805830.94, -1112319.9, 63784.125, -0.0587407, -0.5312392, -793086.6, 205762.31, 0.0, 10.00237, 9.998281 
2.6253033e+3, 2.0806986e+2, -749800.5, -963228.5, 76510.5, -0.04332719, -0.5184538, -725206.7, 175658.02, 0.0, 10.001777, 9.998915 
2.62522e+3, 2.1806854e+2, -755529.0, -936555.75, 76394.59, -0.028892826, -0.5026829, -727599.1, 75278.06, 0.0, 10.001157, 9.998724 
2.6251373e+3, 2.2806688e+2, -707197.56, -835135.56, 72762.984, -0.03262634, -0.51109934, -674282.7, 30610.686, 0.0, 10.000697, 9.998968 
2.6250538e+3, 2.3806532e+2, -677458.3, -780522.8, 75149.48, -0.038910896, -0.52638096, -637869.7, -30960.818, 0.0, 10.000273, 9.998876 
2.624971e+3, 2.4806415e+2, -649901.5, -663881.8, 80451.64, -0.027781066, -0.5166889, -576136.94, -67215.77, 0.0, 9.999562, 9.999346 
2.624888e+3, 2.5806326e+2, -668686.5, -623868.56, 85048.43, -0.015512368, -0.50170356, -558326.44, -147395.86, 0.0, 9.998766, 9.999331 
2.6248053e+3, 2.6806247e+2, -594206.8, -462250.5, 74457.86, -0.028418105, -0.5135307, -428744.53, -115807.27, 0.0, 9.998281, 10.000003 
2.6247218e+3, 2.780619e+2, -567637.0, -414105.75, 76577.984, -0.0356071, -0.5318561, -382441.0, -167499.97, 0.0, 9.997856, 9.999866 
2.624639e+3, 2.8806165e+2, -550680.4, -309653.22, 63914.188, -0.019047443, -0.5258237, -293753.66, -176810.88, 0.0, 9.997101, 10.000275 
2.6245555e+3, 2.9806152e+2, -584058.2, -285136.3, 64959.676, -0.036456145, -0.526984, -271629.97, -252686.61, 0.0, 9.996242, 10.000186 
2.6244715e+3, 3.0806026e+2, -572798.3, -175840.61, 51224.97, -0.068605, -0.66946775, -169336.89, -169336.89, 0.0, 9.995644, 10.00089 
2.624387e+3, 3.1806248e+2, -521748.63, 56479.54, 2699.3018, -0.06948241, -0.5125241, 56492.14, 56492.14, 0.0, 9.995103, 10.002744 
2.635978e+3, 1.281736e+2, -1042345.5, -1666795.1, 43920.1, -0.018119963, -0.56449527, -1039271.56, 644574.4, 0.043357775, 10.006075, 9.997408 
2.6358935e+3, 1.3817081e+2, -959183.75, -1600253.1, 19275.027, -0.08246583, -0.5437518, -958604.75, 627268.4, 0.028010854, 10.005978, 9.997235 
2.635809e+3, 1.48168e+2, -911919.44, -1488015.6, -3979.9434, -0.092323996, -0.5280241, -911891.94, 576009.44, 0.014131615, 10.005376, 9.99762 
2.6357242e+3, 1.5816537e+2, -923808.25, -1451242.8, 4377.3403, -0.06620105, -0.5169674, -923771.94, 466156.22, 0.004856326, 10.004604, 9.997572 
2.63564e+3, 1.6816273e+2, -879499.0, -1316814.0, 36064.09, -0.056542005, -0.5287625, -876544.9, 415408.9, 0.0008964518, 10.003954, 9.998133 
2.6355562e+3, 1.7816032e+2, -874517.06, -1274617.3, 30406.86, -0.058260523, -0.5453863, -872219.44, 321757.53, 0.000046516947, 10.003359, 9.998037 
2.635472e+3, 1.881584e+2, -821429.44, -1148901.1, 40741.113, -0.057888664, -0.5266389, -816436.94, 279559.72, 0.00000008213487, 10.002839, 9.998477 
2.6353884e+3, 1.9815676e+2, -799010.3, -1093882.0, 45081.313, -0.054863058, -0.50021285, -792272.06, 205741.56, 0.0, 10.002347, 9.99842 
2.6353046e+3, 2.08155e+2, -746880.8, -956643.6, 53375.32, -0.047158252, -0.5079032, -734080.3, 165949.92, 0.0, 10.00177, 9.998965 
2.635221e+3, 2.1815339e+2, -752893.8, -933441.8, 55932.32, -0.038982276, -0.5265532, -736970.75, 65074.496, 0.0, 10.001162, 9.998745 
2.6351374e+3, 2.2815172e+2, -710093.2, -842239.44, 58113.605, -0.03867834, -0.53309613, -688172.9, 15888.858, 0.0, 10.000698, 9.998921 
2.6350537e+3, 2.3815025e+2, -677513.44, -780945.56, 55361.41, -0.039551165, -0.5346732, -653470.44, -47393.617, 0.0, 10.00027, 9.998877 
2.6349702e+3, 2.4814934e+2, -643372.9, -651463.2, 49558.598, -0.030640705, -0.50557375, -597694.6, -89607.92, 0.0, 9.999563, 9.999433 
2.6348865e+3, 2.5814873e+2, -663675.8, -615980.1, 59174.22, -0.022836873, -0.4716603, -576029.0, -165935.56, 0.0, 9.998773, 9.999386 
2.634803e+3, 2.6814768e+2, -595945.4, -468097.63, 59223.504, -0.035654776, -0.50736094, -444879.75, -132777.56, 0.0, 9.998285, 9.999963 
2.6347193e+3, 2.7814668e+2, -566891.3, -416378.56, 55749.85, -0.046021745, -0.5626024, -397978.28, -183868.66, 0.0, 9.997868, 9.999847 
2.6346353e+3, 2.8814662e+2, -547933.4, -303910.44, 29771.338, -0.04686537, -0.54126346, -300330.78, -184220.67, 0.0, 9.997096, 10.000319 
2.634551e+3, 2.9814702e+2, -575508.2, -261611.05, 35979.656, -0.070699796, -0.49757618, -257539.78, -239433.52, 0.0, 9.996212, 10.000364 
2.634467e+3, 3.081463e+2, -542274.5, -115055.695, 35388.59, -0.04714617, -0.6201317, -112144.13, -112144.13, 0.0, 9.995647, 10.001308 
2.634382e+3, 3.181482e+2, -566350.5, -55878.61, -35139.97, -0.0670492, -0.5162073, -53470.992, -53470.992, 0.0, 9.995176, 10.001943 
2.6459834e+3, 1.2825876e+2, -1003543.4, -1651752.6, 60859.12, -0.034500465, -0.5401787, -997878.94, 685133.4, 0.037811495, 10.006333, 9.99739 
2.645899e+3, 1.3825592e+2, -1047789.75, -1638070.1, 34136.242, -0.06593658, -0.522821, -1045822.2, 539217.9, 0.024190303, 10.005309, 9.997295 
2.6458135e+3, 1.4825313e+2, -975486.4, -1497271.6, 15644.13, -0.08342113, -0.519236, -975017.75, 512049.97, 0.012005205, 10.004838, 9.99781 
2.6457283e+3, 1.5825053e+2, -920473.9, -1430970.1, 24813.055, -0.075552404, -0.5220598, -919270.6, 469822.88, 0.004013364, 10.00455, 9.997733 
2.6456437e+3, 1.68248e+2, -871718.1, -1302908.5, 59217.953, -0.060551282, -0.5339007, -863733.25, 427384.88, 0.0007097602, 10.003969, 9.998218 
2.645559e+3, 1.7824571e+2, -875909.9, -1262056.3, 59880.633, -0.0496606, -0.54568815, -866837.2, 326303.06, 0.00003425103, 10.003298, 9.99815 
2.6454747e+3, 1.8824393e+2, -849670.5, -1143582.4, 70987.74, -0.045262713, -0.526045, -833423.1, 261735.16, 0.000000036221024, 10.002571, 9.998639 
2.64539e+3, 1.9824243e+2, -862197.4, -1108997.0, 75936.805, -0.041464996, -0.500289, -840704.44, 156469.16, 0.0, 10.001855, 9.998549 
2.645306e+3, 2.0824067e+2, -792806.25, -974727.6, 86767.48, -0.04318605, -0.51349235, -758059.1, 141131.11, 0.0, 10.001444, 9.998996 
2.6452217e+3, 2.1823902e+2, -756923.1, -927805.9, 86278.9, -0.0459878, -0.5373954, -720938.44, 80267.19, 0.0, 10.001107, 9.998808 
2.6451373e+3, 2.2823751e+2, -735643.9, -840428.9, 93836.09, -0.044929985, -0.5397417, -680564.56, 22656.303, 0.0, 10.000466, 9.999043 
2.6450536e+3, 2.382362e+2, -747284.44, -804594.4, 103333.38, -0.04056048, -0.53451145, -668706.5, -63472.23, 0.0, 9.999753, 9.99896 
2.6449692e+3, 2.4823527e+2, -660067.44, -660226.2, 96590.71, -0.031531967, -0.5073791, -563556.06, -56311.79, 0.0, 9.999456, 9.999421 
2.6448852e+3, 2.5823462e+2, -595390.25, -579619.7, 97134.016, -0.023840675, -0.47768646, -490051.44, -80799.81, 0.0, 9.999232, 9.999411 
2.644801e+3, 2.6823366e+2, -562968.44, -443961.9, 97233.65, -0.039804682, -0.511094, -389469.47, -78209.734, 0.0, 9.998482, 10.000031 
2.6447165e+3, 2.7823272e+2, -606052.44, -431874.4, 100880.67, -0.054421812, -0.56400335, -385691.5, -172424.95, 0.0, 9.997589, 9.999872 
2.6446322e+3, 2.8823256e+2, -549925.8, -311911.03, 70029.336, -0.055328224, -0.54381615, -292835.6, -177567.6, 0.0, 9.997119, 10.00025 
2.644547e+3, 2.9823294e+2, -495698.13, -216234.06, 65420.645, -0.07304569, -0.49607444, -201677.73, -184412.95, 0.0, 9.9967375, 10.000419 
2.6444623e+3, 3.0823278e+2, -476272.56, -50887.676, 52094.035, -0.06259441, -0.58331007, -44600.977, -44600.977, 0.0, 9.995969, 10.001591 
2.644377e+3, 3.1823444e+2, -586691.9, -102342.38, -488.5272, -0.038839515, -0.51767665, -102341.89, -102341.89, 0.0, 9.995201, 10.001608 
2.655989e+3, 1.283447e+2, -1007261.8, -1660040.0, 22259.986, -0.063066855, -0.49026832, -1006503.56, 675668.1, 0.032723505, 10.006305, 9.997342 
2.655904e+3, 1.383415e+2, -1042382.75, -1630999.9, 4678.6733, -0.041528706, -0.50542855, -1042345.56, 541857.1, 0.020726766, 10.005307, 9.997346 
2.6558182e+3, 1.4833872e+2, -961033.2, -1469290.1, 6420.759, -0.06592196, -0.51686466, -960952.1, 525277.6, 0.01011537, 10.004832, 9.99801 
2.6557323e+3, 1.5833624e+2, -911102.3, -1405759.9, 10750.727, -0.08154555, -0.527853, -910868.75, 477385.0, 0.0032902001, 10.004518, 9.997925 
2.655647e+3, 1.6833402e+2, -865248.3, -1282561.9, 34952.89, -0.06641531, -0.5267969, -862341.06, 427934.3, 0.0005596604, 10.003934, 9.998377 
2.655562e+3, 1.7833203e+2, -869453.25, -1242765.1, 34480.453, -0.048542403, -0.5231829, -866295.25, 325999.44, 0.000025614043, 10.003268, 9.998299 
2.655477e+3, 1.8833016e+2, -841031.94, -1125624.3, 43635.0, -0.034459952, -0.52693456, -834491.94, 259821.13, 0.000000014940245, 10.002566, 9.998767 
2.655392e+3, 1.9832847e+2, -853517.4, -1095069.6, 53671.504, -0.02123293, -0.53270966, -842128.8, 154200.72, 0.0, 10.001867, 9.998641 
2.655307e+3, 2.0832688e+2, -792460.8, -975249.4, 75388.44, -0.03267054, -0.5336038, -765380.06, 132964.97, 0.0, 10.001444, 9.998994 
2.6552224e+3, 2.1832545e+2, -753211.1, -916801.44, 70090.13, -0.05143583, -0.5341428, -727288.7, 73069.94, 0.0, 10.001088, 9.998895 
2.6551378e+3, 2.2832419e+2, -718203.4, -804234.94, 66607.414, -0.05194121, -0.5308737, -681929.2, 20441.898, 0.0, 10.0004635, 9.999294 
2.6550528e+3, 2.383231e+2, -736071.7, -784955.7, 82406.6, -0.045409393, -0.52702427, -674558.7, -70176.86, 0.0, 9.999764, 9.999092 
2.6549685e+3, 2.4832192e+2, -667090.6, -677524.4, 89268.914, -0.03128076, -0.52354074, -582886.25, -76491.9, 0.0, 9.999463, 9.999301 
2.6548842e+3, 2.583209e+2, -594759.9, -581431.2, 80821.32, -0.019478068, -0.5206144, -506999.94, -98594.52, 0.0, 9.999241, 9.999395 
2.654799e+3, 2.6832032e+2, -551244.2, -420490.78, 61993.418, -0.040178254, -0.5246891, -395771.44, -85361.53, 0.0, 9.998482, 10.000195 
2.654714e+3, 2.7831998e+2, -603167.3, -425115.3, 73317.74, -0.061304912, -0.53280395, -398810.84, -186399.45, 0.0, 9.9975815, 9.999925 
2.654629e+3, 2.8831953e+2, -565215.25, -344997.13, 57458.348, -0.04285268, -0.5317188, -330906.88, -216490.61, 0.0, 9.997119, 10.000026 
2.6545438e+3, 2.9831934e+2, -501336.4, -233376.55, 45977.566, -0.044403832, -0.521646, -225707.06, -209288.05, 0.0, 9.996756, 10.000296 
2.6544574e+3, 3.0831954e+2, -468762.44, -38473.777, 15437.9, -0.12017422, -0.5713401, -37920.61, -37920.61, 0.0, 9.995977, 10.001675 
2.6543722e+3, 3.1832108e+2, -578855.44, -89891.414, 36377.758, -0.028076213, -0.5268068, -87199.81, -87199.81, 0.0, 9.995211, 10.001692 
2.6659948e+3, 1.2843087e+2, -1042205.2, -1669064.0, 31320.656, -0.061594192, -0.472081, -1040644.2, 640684.0, 0.028087215, 10.005993, 9.997429 
2.6659092e+3, 1.3842748e+2, -1026769.94, -1607329.6, 23894.166, -0.027405752, -0.5164252, -1025788.2, 557572.4, 0.017610207, 10.005335, 9.997494 
2.6658228e+3, 1.4842491e+2, -969279.75, -1447298.9, 37819.504, -0.0496733, -0.52501893, -966306.1, 519079.06, 0.00844947, 10.004661, 9.99824 
2.6657364e+3, 1.5842274e+2, -971976.44, -1412065.3, 41507.34, -0.06611974, -0.52504665, -968095.8, 419310.1, 0.0026751503, 10.004002, 9.998126 
2.6656502e+3, 1.6842073e+2, -938767.2, -1303118.8, 59687.2, -0.055641323, -0.51768917, -929238.56, 360187.16, 0.00043955518, 10.00337, 9.998504 
2.6655647e+3, 1.7841892e+2, -933064.0, -1258313.8, 57827.98, -0.043198533, -0.51020855, -923088.44, 268355.3, 0.00001925341, 10.002772, 9.998427 
2.665479e+3, 1.8841703e+2, -862364.6, -1122535.0, 69184.58, -0.03475015, -0.5235073, -845111.2, 248350.48, 0.0000000057994387, 10.002368, 9.99888 
2.6653934e+3, 1.9841534e+2, -827456.1, -1071341.0, 77876.09, -0.025438637, -0.54030913, -804710.44, 190767.4, 0.0, 10.002005, 9.998735 
2.665308e+3, 2.0841385e+2, -805618.5, -976702.7, 99052.12, -0.02782381, -0.53638285, -760283.7, 137209.0, 0.0, 10.001338, 9.999032 
2.6652232e+3, 2.1841255e+2, -817557.75, -939746.75, 95196.75, -0.034831297, -0.5280932, -765537.44, 33968.1, 0.0, 10.000617, 9.9989605 
2.6651376e+3, 2.2841139e+2, -733821.6, -799744.0, 86725.67, -0.0425679, -0.5234821, -674004.7, 27512.266, 0.0, 10.000309, 9.999397 
2.665052e+3, 2.384104e+2, -681619.4, -744485.5, 93325.06, -0.046149235, -0.5204058, -614576.0, -11049.423, 0.0, 10.000083, 9.999213 
2.6649675e+3, 2.4840926e+2, -667661.1, -661988.94, 110890.56, -0.034521136, -0.5243658, -553898.2, -48359.9, 0.0, 9.999396, 9.999437 
2.6648825e+3, 2.5840825e+2, -683650.3, -616882.5, 118090.98, -0.022576187, -0.5308656, -527547.4, -119998.555, 0.0, 9.998604, 9.999456 
2.664797e+3, 2.6840764e+2, -588311.1, -450410.53, 84180.54, -0.04059428, -0.52853155, -410546.72, -100992.84, 0.0, 9.998284, 10.000081 
2.6647112e+3, 2.7840734e+2, -535767.1, -392362.47, 76950.64, -0.056377802, -0.52536476, -358885.78, -147329.78, 0.0, 9.998049, 9.999922 
2.6646256e+3, 2.8840706e+2, -507196.94, -295359.16, 81452.38, -0.053495694, -0.52204555, -267661.78, -154102.61, 0.0, 9.997429, 10.000214 
2.6645398e+3, 2.9840693e+2, -513521.22, -241811.42, 95053.016, -0.07487291, -0.51639044, -211860.31, -196299.8, 0.0, 9.996687, 10.000268 
2.6644534e+3, 3.0840677e+2, -478545.3, -98499.56, 31435.244, -0.066890724, -0.5710753, -95916.96, -95916.96, 0.0, 9.996154, 10.001175 
2.6643667e+3, 3.1840798e+2, -483420.34, -14936.454, 42479.72, -0.06857138, -0.5191431, -11115.77, -11115.77, 0.0, 9.995749, 10.001944 
2.6760006e+3, 1.2851734e+2, -1028331.44, -1644069.3, 10920.5625, -0.0410704, -0.47656736, -1028137.8, 652343.25, 0.023880502, 10.005986, 9.997606 
2.6759142e+3, 1.3851391e+2, -1020213.8, -1583172.6, 2933.257, -0.024288215, -0.5437108, -1020198.5, 562314.56, 0.01481523, 10.005273, 9.997691 
2.675827e+3, 1.4851172e+2, -957079.3, -1415843.6, 15281.758, -0.036773793, -0.53787917, -956570.8, 527963.25, 0.006985303, 10.0046215, 9.99848 
2.6757404e+3, 1.5851001e+2, -960439.75, -1386570.5, 18023.793, -0.035333943, -0.5148947, -959678.75, 426871.94, 0.0021529575, 10.003988, 9.99831 
2.6756537e+3, 1.6850808e+2, -933058.8, -1293107.6, 36853.863, -0.03227612, -0.50912434, -929325.25, 359244.6, 0.00034267028, 10.003374, 9.998573 
2.6755673e+3, 1.7850627e+2, -924880.56, -1244591.1, 38118.445, -0.035934873, -0.50866294, -920398.6, 270189.44, 0.000014309305, 10.002782, 9.998519 
2.6754808e+3, 1.8850456e+2, -855797.6, -1108831.3, 56729.984, -0.04508118, -0.51570976, -843660.94, 248943.38, 0.000000001728097, 10.002363, 9.998979 
2.6753947e+3, 1.9850303e+2, -825439.25, -1062548.3, 60513.47, -0.051437825, -0.523966, -810888.4, 183730.3, 0.0, 10.00198, 9.99881 
2.6753092e+3, 2.0850156e+2, -804289.8, -973032.0, 70849.08, -0.028162897, -0.5233999, -778488.0, 118145.55, 0.0, 10.00133, 9.999063 
2.6752236e+3, 2.1850023e+2, -815302.3, -937471.9, 74236.36, -0.0016436398, -0.52181333, -780249.75, 18397.38, 0.0, 10.000624, 9.998976 
2.6751378e+3, 2.2849904e+2, -735563.75, -805048.94, 79729.414, -0.0186665, -0.51823115, -683336.06, 17322.88, 0.0, 10.000312, 9.999362 
2.675052e+3, 2.3849805e+2, -674086.75, -729004.06, 78029.65, -0.043577254, -0.5140747, -618825.4, -16156.694, 0.0, 10.000079, 9.999323 
2.6749665e+3, 2.4849728e+2, -641794.75, -608694.3, 79565.53, -0.041112103, -0.5090283, -543975.94, -39299.9, 0.0, 9.999395, 9.999805 
2.674881e+3, 2.584967e+2, -675987.75, -602316.06, 94873.98, -0.036936883, -0.5051932, -537377.9, -130696.17, 0.0, 9.998606, 9.999558 
2.6747948e+3, 2.6849568e+2, -618017.4, -513349.06, 76257.3, -0.042819988, -0.52221733, -473195.2, -164503.17, 0.0, 9.998284, 9.999652 
2.674709e+3, 2.7849478e+2, -537953.1, -400975.53, 61915.293, -0.04246784, -0.5427436, -377137.63, -166436.42, 0.0, 9.998061, 9.999859 
2.6746222e+3, 2.884951e+2, -460663.16, -201486.73, 52239.37, -0.090400726, -0.51555204, -191353.6, -78656.58, 0.0, 9.997437, 10.000857 
2.6745352e+3, 2.9849583e+2, -510643.34, -236202.89, 69721.086, -0.16555817, -0.4788424, -219506.19, -204817.53, 0.0, 9.996684, 10.000311 
2.674451e+3, 3.0849442e+2, -564550.56, -279195.2, 14076.815, 0.111701526, -0.57843685, -278502.47, -278502.47, 0.0, 9.996156, 9.999936 
2.6743612e+3, 3.1849504e+2, -441645.0, 67756.51, -10422.249, -0.16886818, -0.49234998, 67969.66, 67969.66, 0.0, 9.995761, 10.002508 
2.6860064e+3, 1.2860483e+2, -1024278.25, -1624150.0, 40617.61, -0.026162883, -0.49255678, -1021540.5, 658082.75, 0.02006691, 10.00591, 9.997782 
2.6859188e+3, 1.3860154e+2, -1107991.4, -1612590.6, 40515.855, -0.0027613055, -0.55733746, -1104758.9, 476894.38, 0.012308874, 10.004594, 9.997814 
2.6858312e+3, 1.4859949e+2, -1039029.75, -1454348.9, 57525.285, -0.017540475, -0.542078, -1031209.25, 452464.2, 0.0056975116, 10.00405, 9.998486 
2.685744e+3, 1.5859789e+2, -996955.25, -1400468.9, 45729.715, -0.019712862, -0.50930333, -991837.6, 393852.06, 0.0017080543, 10.003724, 9.99834 
2.6856568e+3, 1.6859594e+2, -943164.0, -1291828.9, 59769.152, -0.021613408, -0.5087588, -933202.75, 354506.34, 0.00026316094, 10.003283, 9.998623 
2.6855698e+3, 1.7859408e+2, -916754.44, -1232322.9, 59413.613, -0.030435124, -0.51566976, -905939.06, 283788.56, 0.000010321066, 10.002807, 9.998589 
2.6854828e+3, 1.8859255e+2, -881673.9, -1111959.0, 74202.016, -0.042407814, -0.51285857, -859835.6, 231906.89, 0.0000000002885943, 10.002151, 9.999057 
2.6853964e+3, 1.9859122e+2, -895954.94, -1089496.3, 75049.414, -0.050474174, -0.5084951, -870263.5, 123491.83, 0.0, 10.001471, 9.998867 
2.68531e+3, 2.0858976e+2, -840823.0, -988380.2, 85459.97, -0.029734889, -0.5077393, -801700.4, 94069.69, 0.0, 10.001076, 9.999077 
2.6852238e+3, 2.1858844e+2, -794616.06, -919870.8, 89993.28, -0.0037452076, -0.5086005, -747603.2, 50180.492, 0.0, 10.000739, 9.999038 
2.6851377e+3, 2.2858727e+2, -754350.1, -800102.0, 104611.89, -0.017150698, -0.51181275, -670142.2, 29652.92, 0.0, 10.000128, 9.999481 
2.6850516e+3, 2.385863e+2, -757324.75, -757273.75, 110592.26, -0.037820004, -0.51483065, -646707.0, -44902.62, 0.0, 9.999462, 9.999424 
2.6849654e+3, 2.4858569e+2, -672086.25, -618101.5, 93172.734, -0.044082787, -0.5008551, -548090.06, -44279.633, 0.0, 9.999169, 9.999847 
2.684879e+3, 2.5858527e+2, -624944.2, -571231.75, 88153.55, -0.04815883, -0.48553896, -505934.25, -100119.586, 0.0, 9.998934, 9.999611 
2.684793e+3, 2.6858422e+2, -607603.3, -500970.75, 95073.91, -0.040353466, -0.5073875, -445283.94, -137459.14, 0.0, 9.99833, 9.999711 
2.6847067e+3, 2.785833e+2, -596377.2, -423106.1, 111895.086, -0.024754474, -0.53844523, -368227.6, -158393.1, 0.0, 9.997641, 9.999907 
2.684619e+3, 2.8858355e+2, -481772.84, -209775.8, 68372.57, -0.106747635, -0.51774836, -193556.03, -81725.17, 0.0, 9.99729, 10.000869 
2.684531e+3, 2.9858425e+2, -466026.94, -220186.25, 44676.434, -0.21241336, -0.48231906, -212319.0, -198496.25, 0.0, 9.99702, 10.000256 
2.6844478e+3, 3.0858317e+2, -491584.13, -260866.56, 46988.16, 0.18416521, -0.539211, -251663.97, -251663.97, 0.0, 9.996735, 9.99978 
2.6843563e+3, 3.185833e+2, -392053.7, 84975.18, 44276.703, -0.22425485, -0.48266348, 89050.03, 89050.03, 0.0, 9.996139, 10.00244 
2.696012e+3, 1.2869313e+2, -1019733.75, -1603371.4, -8551.624, -0.018987188, -0.5149745, -1019608.5, 659148.2, 0.016605977, 10.00584, 9.997959 
2.6959234e+3, 1.3869019e+2, -1099962.4, -1603302.4, 4897.3613, 0.031898912, -0.5620138, -1099914.8, 480868.84, 0.010059908, 10.004613, 9.99787 
2.6958352e+3, 1.4868808e+2, -1047020.2, -1479317.0, 46581.895, 0.0062692384, -0.5414553, -1042057.7, 440747.25, 0.0045635668, 10.004077, 9.998303 
2.6957473e+3, 1.5868631e+2, -1002495.56, -1413953.6, 32663.613, -0.017480962, -0.5077193, -999918.7, 384904.72, 0.0013274575, 10.003727, 9.998248 
2.6956597e+3, 1.6868429e+2, -942712.8, -1288519.6, 43988.22, -0.021673799, -0.5142256, -937205.0, 349638.4, 0.00019687769, 10.003267, 9.998654 
2.6955724e+3, 1.786824e+2, -918553.5, -1230790.0, 40341.297, -0.027190862, -0.52839404, -913425.6, 275436.44, 0.000007082741, 10.002779, 9.998614 
2.6954848e+3, 1.88681e+2, -881015.1, -1110643.0, 48436.414, -0.029631482, -0.51406413, -871216.3, 219659.92, 0.000000000007316074, 10.002146, 9.99907 
2.6953974e+3, 1.9867983e+2, -892149.7, -1085792.1, 53953.48, -0.029195013, -0.49485987, -878131.7, 114756.57, 0.0, 10.001485, 9.998887 
2.6953104e+3, 2.0867845e+2, -838904.9, -986555.75, 74109.43, -0.03326119, -0.48978174, -808124.4, 86778.01, 0.0, 10.0010805, 9.999089 
2.695224e+3, 2.1867715e+2, -789247.0, -906564.44, 74273.69, -0.038880985, -0.48954567, -753262.06, 43653.316, 0.0, 10.000726, 9.999138 
2.6951373e+3, 2.2867605e+2, -738178.06, -766868.44, 79214.71, -0.03674173, -0.5044891, -672020.1, 26905.45, 0.0, 10.000126, 9.999712 
2.6950508e+3, 2.3867518e+2, -752381.4, -750068.2, 91018.98, -0.03351093, -0.52073276, -660198.5, -59264.707, 0.0, 9.999471, 9.999471 
2.694964e+3, 2.4867444e+2, -691754.3, -661206.4, 84890.695, -0.04472878, -0.49949992, -590226.5, -87284.75, 0.0, 9.999175, 9.999551 
2.6948774e+3, 2.5867388e+2, -622811.06, -569353.6, 72983.11, -0.05749846, -0.47110018, -518358.75, -113410.59, 0.0, 9.99894, 9.999622 
2.694791e+3, 2.6867336e+2, -567649.2, -418497.03, 67473.17, -0.03186749, -0.48353964, -392503.63, -85551.29, 0.0, 9.998328, 10.00028 
2.6947042e+3, 2.7867293e+2, -589269.1, -407060.2, 91116.96, -0.002055608, -0.5086881, -369314.66, -160359.48, 0.0, 9.99763, 10.000024 
2.6946163e+3, 2.8867233e+2, -534194.9, -318564.22, 57795.457, -0.10090255, -0.5302337, -304050.25, -193088.77, 0.0, 9.997284, 10.000127 
2.6945275e+3, 2.9867205e+2, -473638.56, -239867.36, 32696.26, -0.21913244, -0.53192735, -235380.44, -222415.39, 0.0, 9.997031, 10.000117 
2.6944435e+3, 3.0867308e+2, -408292.56, -95692.91, 35097.94, 0.13164026, -0.4420136, -91800.66, -91800.66, 0.0, 9.996763, 10.000902 
2.694352e+3, 3.18673e+2, -469595.38, -81898.6, -4879.21, -0.21207482, -0.48816764, -81837.21, -81837.21, 0.0, 9.996153, 10.001293 
2.7060175e+3, 1.287824e+2, -1104885.0, -1650205.9, 16203.802, 0.020223282, -0.52909607, -1104404.0, 573477.25, 0.013469615, 10.005254, 9.997913 
2.7059278e+3, 1.3877976e+2, -1096666.6, -1607713.5, 25407.086, 0.02342541, -0.5414517, -1095406.6, 484499.56, 0.008045153, 10.004655, 9.997818 
2.705839e+3, 1.4877747e+2, -1046972.06, -1490784.1, 79501.17, 0.0058221836, -0.52896595, -1033160.6, 448768.7, 0.003566284, 10.004128, 9.998197 
2.7057508e+3, 1.5877542e+2, -1019433.6, -1424974.1, 66406.86, 0.0014155725, -0.5132698, -1008836.5, 375114.0, 0.0010021173, 10.003626, 9.998219 
2.7056625e+3, 1.6877344e+2, -984153.06, -1298548.9, 75788.984, -0.0063711666, -0.5211575, -966836.94, 319133.03, 0.00014158584, 10.002945, 9.998738 
2.7055743e+3, 1.7877163e+2, -993445.2, -1264560.3, 76697.87, -0.019947415, -0.5319416, -973251.6, 214735.84, 0.000004518096, 10.00226, 9.99863 
2.7054864e+3, 1.8877026e+2, -914713.1, -1139074.0, 83851.664, -0.024488084, -0.5058038, -886838.0, 203163.98, 0.0, 10.001973, 9.998956 
2.7053988e+3, 1.9876912e+2, -854135.4, -1068033.0, 80569.44, -0.024259927, -0.47471926, -827183.1, 164831.5, 0.0, 10.001753, 9.998878 
2.7053112e+3, 2.0876765e+2, -828816.0, -966013.5, 100980.07, -0.032746788, -0.4847895, -775337.94, 118691.07, 0.0, 10.001087, 9.999225 
2.7052242e+3, 2.1876629e+2, -837779.56, -919149.9, 108338.234, -0.043758225, -0.50285536, -762738.94, 33303.094, 0.0, 10.000351, 9.9992285 
2.7051368e+3, 2.2876538e+2, -744098.1, -769397.25, 105430.95, -0.04921679, -0.5010621, -650560.6, 47490.11, 0.0, 10.000089, 9.99971 
2.7050498e+3, 2.387647e+2, -688433.9, -717272.7, 102134.6, -0.04990696, -0.49602833, -599705.8, 351.52377, 0.0, 9.9999075, 9.999483 
2.7049628e+3, 2.4876383e+2, -680812.3, -653643.9, 108520.3, -0.048412945, -0.49011433, -557860.9, -55794.34, 0.0, 9.999246, 9.999566 
2.704876e+3, 2.5876307e+2, -685241.75, -593522.7, 116816.305, -0.04719436, -0.48378676, -513886.63, -109811.97, 0.0, 9.998492, 9.999669 
2.7047887e+3, 2.6876274e+2, -575598.1, -413396.6, 86372.04, -0.037986536, -0.48296976, -376017.56, -69940.51, 0.0, 9.99824, 10.000355 
2.7047014e+3, 2.7876258e+2, -525986.94, -375155.3, 76448.06, -0.024931945, -0.4885075, -343184.66, -135107.14, 0.0, 9.998064, 10.000031 
2.7046132e+3, 2.8876182e+2, -512636.75, -321590.63, 72953.32, -0.09446662, -0.51712215, -296918.7, -186833.14, 0.0, 9.997495, 10.000002 
2.7045247e+3, 2.9876128e+2, -498633.28, -251413.36, 93360.43, -0.18652795, -0.5316328, -220118.22, -208026.42, 0.0, 9.996863, 10.000116 
2.7044395e+3, 3.087626e+2, -393710.56, -63783.13, 57657.945, 0.07169589, -0.4260599, -53997.12, -53997.12, 0.0, 9.996762, 10.00112 
2.7043483e+3, 3.187625e+2, -385431.7, -74071.2, -35107.58, -0.19260123, -0.48637748, -70161.73, -70161.73, 0.0, 9.996876, 10.000996 
2.716023e+3, 1.288725e+2, -1124613.5, -1681649.9, -8070.353, 0.07778152, -0.5374389, -1124496.6, 552501.6, 0.010650411, 10.0051985, 9.997721 
2.7159315e+3, 1.3887015e+2, -1106194.9, -1628405.9, 4957.3423, -0.018136071, -0.50239366, -1106147.9, 472873.88, 0.00625436, 10.004648, 9.997682 
2.7158424e+3, 1.4886758e+2, -1051609.6, -1501538.0, 61667.74, -0.012718561, -0.50786334, -1043310.44, 437736.75, 0.002696811, 10.004125, 9.998127 
2.7157545e+3, 1.5886517e+2, -1021476.3, -1426759.6, 45158.867, 0.032194212, -0.52402943, -1016505.44, 366565.9, 0.0007275295, 10.003611, 9.998216 
2.7156654e+3, 1.6886328e+2, -976796.75, -1284611.6, 48637.81, 0.0199365, -0.52888757, -969294.3, 315795.16, 0.000096515505, 10.002947, 9.998835 
2.7155763e+3, 1.7886168e+2, -991629.6, -1265723.8, 56746.81, -0.010934182, -0.5277344, -980345.6, 206759.27, 0.000002610615, 10.002278, 9.998614 
2.715488e+3, 1.8886028e+2, -929194.8, -1170994.0, 77294.375, -0.025935285, -0.49012583, -906598.3, 182522.11, 0.0, 10.001977, 9.998736 
2.7154e+3, 1.98859e+2, -859793.75, -1076207.1, 65855.29, -0.034186345, -0.4512874, -841329.2, 149805.66, 0.0, 10.001734, 9.998833 
2.715312e+3, 2.0885737e+2, -815016.7, -937214.06, 71754.266, -0.029176008, -0.4919934, -781872.44, 111277.66, 0.0, 10.001083, 9.999426 
2.715224e+3, 2.1885584e+2, -832971.56, -912109.3, 87965.12, -0.025182527, -0.54312843, -776085.5, 19078.38, 0.0, 10.00036, 9.999274 
2.7151364e+3, 2.2885524e+2, -757866.8, -800763.4, 99977.52, -0.056060918, -0.499233, -677062.8, 20107.941, 0.0, 10.000097, 9.999493 
2.715049e+3, 2.3885489e+2, -689439.2, -719977.0, 87646.26, -0.08745831, -0.44145647, -615741.8, -16566.49, 0.0, 9.999906, 9.999467 
2.7149618e+3, 2.4885383e+2, -659186.9, -608973.3, 78652.07, -0.05466816, -0.4747921, -551518.0, -50333.17, 0.0, 9.999244, 9.999875 
2.714874e+3, 2.5885278e+2, -682405.44, -589079.25, 96410.414, -0.019407691, -0.52295417, -528633.0, -125438.99, 0.0, 9.998495, 9.999701 
2.7147862e+3, 2.688523e+2, -608640.7, -483715.1, 80732.8, -0.062114965, -0.50654584, -444102.5, -138903.1, 0.0, 9.998243, 9.999873 
2.7146986e+3, 2.7885208e+2, -530527.75, -388055.0, 62388.89, -0.1022924, -0.47781348, -364597.16, -157394.69, 0.0, 9.998075, 9.99994 
2.7146104e+3, 2.8885198e+2, -472554.2, -239694.77, 46328.918, -0.085785806, -0.47358492, -230815.88, -121613.164, 0.0, 9.997497, 10.000566 
2.714522e+3, 2.9885212e+2, -492991.44, -237923.27, 79048.36, -0.10232225, -0.47202796, -215412.06, -204210.97, 0.0, 9.996851, 10.0002165 
2.714435e+3, 3.0885145e+2, -453905.97, -188579.22, 58454.63, -0.005674588, -0.5148688, -176271.86, -176271.86, 0.0, 9.996756, 10.000268 
2.714345e+3, 3.1885195e+2, -316063.66, 61542.34, 144.94788, -0.17682394, -0.4566005, 61542.395, 61542.395, 0.0, 9.996914, 10.001908 
2.7260277e+3, 1.2896317e+2, -1197285.1, -1704971.0, 1550.7749, 0.091085084, -0.5128661, -1197280.5, 478830.1, 0.008157839, 10.004631, 9.997835 
2.725936e+3, 1.3896066e+2, -1131031.8, -1632645.5, 27054.314, 0.006988293, -0.5017585, -1129576.8, 448558.44, 0.0046916404, 10.004439, 9.99775 
2.7258462e+3, 1.489581e+2, -1089848.1, -1521898.8, 83171.734, -0.00039968392, -0.50801754, -1074390.1, 405770.4, 0.001956114, 10.003872, 9.998106 
2.7257574e+3, 1.589557e+2, -1075634.9, -1455405.6, 68920.164, 0.029372795, -0.51957613, -1063514.3, 318670.28, 0.00050282496, 10.003253, 9.998188 
2.725668e+3, 1.6895382e+2, -995488.94, -1300028.3, 66397.96, 0.021493938, -0.51682407, -981641.94, 302560.66, 0.000061398336, 10.0028515, 9.998773 
2.7255782e+3, 1.7895223e+2, -965208.6, -1257914.5, 66635.76, -0.0011883889, -0.5086283, -950752.6, 235465.55, 0.0000013215272, 10.002485, 9.998567 
2.7254897e+3, 1.889506e+2, -948053.7, -1184871.8, 94809.13, -0.015012944, -0.48746198, -914774.0, 173461.7, 0.0, 10.001873, 9.998688 
2.7254012e+3, 1.989491e+2, -930892.44, -1110035.6, 91740.914, -0.023939744, -0.4671371, -892247.56, 98004.67, 0.0, 10.001249, 9.99883 
2.7253127e+3, 2.0894767e+2, -824470.75, -936800.6, 90411.64, -0.028096143, -0.4893126, -774199.0, 118066.54, 0.0, 10.001002, 9.999465 
2.7252245e+3, 2.1894641e+2, -771512.5, -886078.1, 96908.76, -0.031883355, -0.5165996, -716222.56, 78054.41, 0.0, 10.000802, 9.999238 
2.7251363e+3, 2.289456e+2, -759030.06, -820002.06, 108584.016, -0.05449702, -0.47828555, -676733.6, 19552.527, 0.0, 10.0001745, 9.999321 
2.7250484e+3, 2.3894499e+2, -755061.8, -757408.06, 97805.61, -0.076152004, -0.43181616, -658422.3, -60128.56, 0.0, 9.999486, 9.99941 
2.7249604e+3, 2.4894395e+2, -646768.2, -592502.9, 75778.16, -0.0581491, -0.46884927, -539146.3, -38843.65, 0.0, 9.999289, 9.999964 
2.7248725e+3, 2.5894293e+2, -588513.8, -545025.75, 79497.29, -0.038880207, -0.51914155, -484352.4, -82041.66, 0.0, 9.99915, 9.999684 
2.7247843e+3, 2.689424e+2, -579516.1, -490669.47, 77804.86, -0.08232498, -0.49569663, -445499.13, -141181.9, 0.0, 9.99854, 9.99968 
2.7246958e+3, 2.7894205e+2, -567532.9, -410241.4, 77647.56, -0.11826007, -0.4614124, -378368.84, -172046.81, 0.0, 9.997846, 9.999894 
2.7246076e+3, 2.8894195e+2, -448830.03, -209898.55, 39417.508, -0.07893005, -0.4686342, -203563.64, -95241.66, 0.0, 9.997587, 10.000723 
2.7245188e+3, 2.989421e+2, -415660.6, -202397.72, 48675.6, -0.076752104, -0.4768891, -191813.22, -181493.77, 0.0, 9.997396, 10.000195 
2.724431e+3, 3.0894136e+2, -429881.34, -211587.6, 59075.875, -0.06267082, -0.50129396, -196625.66, -196625.66, 0.0, 9.997077, 9.999951 
2.7243412e+3, 3.1894153e+2, -333604.7, 111901.414, 11598.197, -0.19375053, -0.46342108, 112203.16, 112203.16, 0.0, 9.996549, 10.002425 
2.7360314e+3, 1.2905437e+2, -1178721.3, -1660047.5, -5887.192, 0.07431598, -0.46579382, -1178649.3, 496569.03, 0.006010825, 10.004597, 9.998159 
2.7359408e+3, 1.3905141e+2, -1120534.8, -1606356.4, 12206.801, 0.077805, -0.52963746, -1120228.3, 457017.63, 0.0033699346, 10.004413, 9.997945 
2.7358502e+3, 1.4904903e+2, -1091797.5, -1524327.9, 57080.855, 0.032138046, -0.52389115, -1084391.4, 394878.1, 0.0013498896, 10.003859, 9.998097 
2.73576e+3, 1.5904692e+2, -1081261.0, -1466228.0, 47832.83, -0.00009505803, -0.50371355, -1075406.6, 305884.2, 0.00032777264, 10.003245, 9.998119 
2.7356702e+3, 1.69045e+2, -1009986.0, -1329964.4, 53281.676, 0.0037787487, -0.48945558, -1001346.94, 281962.9, 0.000035830955, 10.002847, 9.998571 
2.7355805e+3, 1.7904325e+2, -971690.7, -1270943.0, 48840.914, 0.008237866, -0.47851166, -963921.1, 221406.25, 0.00000054868656, 10.0024805, 9.998482 
2.735491e+3, 1.8904127e+2, -941848.75, -1174621.5, 69697.41, 0.0055451514, -0.49597162, -922575.56, 164772.1, 0.0, 10.001882, 9.998755 
2.7354023e+3, 1.9903944e+2, -927884.0, -1108542.6, 74243.14, 0.0010686542, -0.5137086, -901288.44, 88078.02, 0.0, 10.001267, 9.998834 
2.7353132e+3, 2.0903856e+2, -829455.94, -951476.6, 84218.336, -0.02982928, -0.47557783, -786471.1, 104904.27, 0.0, 10.001018, 9.999358 
2.7352244e+3, 2.1903789e+2, -779683.75, -903488.7, 82243.586, -0.06267254, -0.43179744, -738649.7, 54732.313, 0.0, 10.0008, 9.999122 
2.7351362e+3, 2.2903645e+2, -769576.0, -842690.44, 80900.82, -0.04455114, -0.4426662, -717356.1, -21958.959, 0.0, 10.0001745, 9.9991665 
2.7350482e+3, 2.3903504e+2, -763302.56, -776888.5, 79545.18, -0.020659406, -0.46310872, -690260.8, -92848.45, 0.0, 9.999493, 9.999274 
2.7349594e+3, 2.4903417e+2, -655497.9, -613377.8, 72058.18, -0.060575087, -0.4688223, -559365.2, -59945.14, 0.0, 9.999296, 9.999819 
2.7348706e+3, 2.5903353e+2, -590689.6, -552926.4, 66112.75, -0.11049796, -0.46833745, -503051.84, -101626.92, 0.0, 9.999161, 9.999627 
2.734782e+3, 2.6903298e+2, -572369.25, -476680.8, 49198.44, -0.09685436, -0.4493374, -455898.8, -152468.16, 0.0, 9.998541, 9.999776 
2.734694e+3, 2.7903247e+2, -571208.94, -417213.53, 58046.55, -0.064742535, -0.43782428, -397784.84, -192348.69, 0.0, 9.99784, 9.999851 
2.7346048e+3, 2.8903154e+2, -471711.94, -259176.16, 31757.803, -0.0769449, -0.50896204, -254532.27, -147087.33, 0.0, 9.997589, 10.000386 
2.7345154e+3, 2.990309e+2, -423133.66, -223304.78, 36551.344, -0.12744434, -0.5582781, -216828.92, -207379.06, 0.0, 9.997416, 10.000045 
2.7344272e+3, 3.0903262e+2, -409530.75, -171494.89, 42815.953, -0.0903132, -0.35554364, -164027.75, -164027.75, 0.0, 9.997083, 10.000226 
2.7343374e+3, 3.190307e+2, -346265.53, 86357.29, -76056.805, -0.17768657, -0.5488993, 99338.84, 99338.84, 0.0, 9.996526, 10.002272 
2.7460358e+3, 1.291452e+2, -1234531.3, -1664452.8, 8457.667, 0.0806431, -0.4753194, -1234364.9, 439964.03, 0.0042263637, 10.004104, 9.998368 
2.7459446e+3, 1.3914269e+2, -1177210.6, -1614532.4, 14117.514, 0.08701854, -0.5160366, -1176755.4, 399596.72, 0.0022989458, 10.003939, 9.998116 
2.7458534e+3, 1.491404e+2, -1138059.0, -1536849.1, 52473.086, 0.042390883, -0.51118577, -1131270.1, 347104.5, 0.0008793225, 10.003503, 9.99818 
2.7457628e+3, 1.591383e+2, -1110288.1, -1475509.5, 50872.305, 0.010405436, -0.49633422, -1103334.4, 277061.38, 0.0001995212, 10.003031, 9.998157 
2.7456725e+3, 1.691363e+2, -1046639.3, -1354684.9, 68431.875, 0.014417102, -0.4875691, -1032121.44, 250294.31, 0.000018874509, 10.00263, 9.998504 
2.7455828e+3, 1.7913443e+2, -1004459.06, -1288964.9, 69766.32, 0.01877394, -0.48202166, -988272.0, 196162.55, 0.0000001651746, 10.00227, 9.998456 
2.745493e+3, 1.891325e+2, -925425.6, -1164678.8, 86000.76, 0.0056911875, -0.49435744, -897720.44, 188733.56, 0.0, 10.001991, 9.998769 
2.7454033e+3, 1.9913074e+2, -869139.75, -1088293.6, 87916.76, -0.008704923, -0.5045893, -838230.2, 150241.77, 0.0, 10.00171, 9.998757 
2.745314e+3, 2.0912968e+2, -811713.44, -967885.25, 92386.03, -0.030754222, -0.46530163, -768834.06, 121649.06, 0.0, 10.001251, 9.999131 
2.7452248e+3, 2.1912879e+2, -793409.5, -925500.1, 79740.2, -0.052170996, -0.42169765, -755915.0, 36577.543, 0.0, 10.000777, 9.998979 
2.7451363e+3, 2.2912724e+2, -733897.56, -831063.94, 78432.24, -0.03990962, -0.43489847, -690220.56, 4288.009, 0.0, 10.000448, 9.999112 
2.7450475e+3, 2.3912573e+2, -678092.7, -745487.2, 86141.38, -0.022282502, -0.4582875, -619292.1, -22767.775, 0.0, 10.000124, 9.999184 
2.7449584e+3, 2.4912481e+2, -626788.1, -617831.94, 81044.95, -0.06407795, -0.45280793, -541141.44, -42608.742, 0.0, 9.9995775, 9.999651 
2.7448693e+3, 2.5912416e+2, -622061.2, -577650.56, 70098.53, -0.11531068, -0.4410051, -526324.4, -125785.88, 0.0, 9.998993, 9.999536 
2.7447805e+3, 2.6912344e+2, -556421.3, -468004.5, 42895.215, -0.09338866, -0.43533275, -450614.34, -148068.89, 0.0, 9.998652, 9.999779 
2.7446917e+3, 2.7912277e+2, -504115.28, -392539.22, 48465.926, -0.04996573, -0.43953204, -374426.97, -169874.8, 0.0, 9.99834, 9.999777 
2.7446023e+3, 2.8912175e+2, -442349.06, -267431.63, 32693.996, -0.072928965, -0.50205946, -261520.52, -154958.67, 0.0, 9.997893, 10.000179 
2.7445123e+3, 2.9912105e+2, -423429.63, -221858.3, 47638.406, -0.13911495, -0.5417485, -211166.75, -202599.14, 0.0, 9.997413, 10.000052 
2.7444237e+3, 3.0912295e+2, -395799.47, -126047.48, 58915.855, -0.113692336, -0.34362683, -113741.23, -113741.23, 0.0, 9.997015, 10.000568 
2.7443343e+3, 3.1912088e+2, -356518.3, 31527.348, -72321.75, -0.09523406, -0.5707044, 44568.02, 44568.02, 0.0, 9.9966755, 10.001821 
2.7560395e+3, 1.2923595e+2, -1221013.1, -1643012.4, 4370.569, 0.0993481, -0.5227728, -1220967.9, 452472.38, 0.002806905, 10.004128, 9.998504 
2.7559477e+3, 1.3923448e+2, -1171287.9, -1596631.4, 3951.9478, 0.05092488, -0.4705698, -1171251.1, 404202.34, 0.0014744077, 10.003908, 9.998255 
2.7558565e+3, 1.4923222e+2, -1130430.5, -1519241.4, 35100.05, 0.03681976, -0.47659647, -1127287.3, 350188.44, 0.0005351907, 10.00349, 9.998309 
2.755766e+3, 1.5922992e+2, -1101830.8, -1460548.3, 34997.64, 0.050058078, -0.49494717, -1098448.1, 281050.34, 0.000111794245, 10.003039, 9.998258 
2.755675e+3, 1.6922776e+2, -1043652.25, -1350703.4, 54722.918, 0.046210222, -0.5069812, -1034191.0, 247328.7, 0.000008820601, 10.002637, 9.998529 
2.7555847e+3, 1.792258e+2, -1004446.8, -1289638.3, 57780.844, 0.028937558, -0.5131558, -993184.94, 190354.33, 0.000000030933013, 10.00227, 9.998453 
2.7554944e+3, 1.8922426e+2, -928426.25, -1172378.4, 76427.56, -0.012381933, -0.48316634, -906460.2, 179094.81, 0.0, 10.001995, 9.998715 
2.7554044e+3, 1.9922285e+2, -880396.3, -1112406.6, 74302.09, -0.049532164, -0.44961432, -858640.8, 128928.76, 0.0, 10.00171, 9.998593 
2.755315e+3, 2.0922099e+2, -835915.9, -1019292.94, 74157.234, -0.030239187, -0.46046856, -809680.4, 79908.516, 0.0, 10.001253, 9.998778 
2.755226e+3, 2.1921921e+2, -805771.6, -952361.5, 64915.1, -0.0071237627, -0.47573692, -781157.9, 10449.662, 0.0, 10.000779, 9.998795 
2.7551362e+3, 2.2921805e+2, -729844.6, -825499.2, 67451.48, -0.04224364, -0.44952026, -694984.8, -1365.1462, 0.0, 10.000458, 9.999147 
2.7550465e+3, 2.3921707e+2, -682095.2, -754912.3, 70104.15, -0.081420384, -0.41862717, -639508.94, -43879.176, 0.0, 10.000125, 9.99912 
2.7549574e+3, 2.492159e+2, -641834.2, -649002.2, 58123.11, -0.067100845, -0.42418852, -587184.7, -89543.59, 0.0, 9.999575, 9.999439 
2.7548683e+3, 2.592148e+2, -632304.94, -600227.5, 51762.895, -0.051222395, -0.43714756, -562075.44, -162423.86, 0.0, 9.998995, 9.999381 
2.754779e+3, 2.692137e+2, -563862.06, -485569.28, 31135.957, -0.072422825, -0.45473865, -474696.78, -173034.67, 0.0, 9.998657, 9.999659 
2.7546892e+3, 2.7921283e+2, -509460.4, -407125.88, 33559.16, -0.0835246, -0.46861073, -397102.4, -193431.53, 0.0, 9.998351, 9.999673 
2.7545998e+3, 2.892126e+2, -447221.25, -278376.13, 12776.817, -0.065413065, -0.43934736, -277414.75, -171742.42, 0.0, 9.997895, 10.000105 
2.7545097e+3, 2.9921263e+2, -413666.38, -199062.95, 30370.572, -0.098577514, -0.40948477, -194847.72, -187176.31, 0.0, 9.997398, 10.000217 
2.75442e+3, 3.0921194e+2, -369620.53, -70717.836, 42805.695, -0.13828008, -0.5027871, -64708.477, -64708.477, 0.0, 9.997005, 10.000957 
2.754331e+3, 3.1921268e+2, -417641.3, -89569.56, -35429.418, -0.051770832, -0.458954, -85787.05, -85787.05, 0.0, 9.996661, 10.00099 
2.766043e+3, 1.2932801e+2, -1217620.6, -1640858.6, 29621.406, 0.084323026, -0.50175226, -1215557.5, 456981.22, 0.001735704, 10.004145, 9.99851 
2.765951e+3, 1.3932636e+2, -1236569.6, -1617797.8, 25094.344, 0.053672526, -0.46928516, -1234924.9, 339628.9, 0.0008758568, 10.003416, 9.998345 
2.7658594e+3, 1.4932425e+2, -1173937.4, -1519783.3, 61562.83, 0.049352262, -0.47639257, -1163305.6, 313268.63, 0.00029924576, 10.003107, 9.998489 
2.7657685e+3, 1.5932211e+2, -1116555.3, -1457008.6, 62126.824, 0.07063298, -0.49279857, -1105572.5, 273022.75, 0.000056233035, 10.002895, 9.998349 
2.7656776e+3, 1.6931999e+2, -1053549.5, -1358749.6, 78299.59, 0.05589718, -0.5016058, -1034633.94, 245982.34, 0.0000035428636, 10.002588, 9.998495 
2.7655864e+3, 1.7931801e+2, -1006675.75, -1292501.3, 79480.15, 0.025482649, -0.50472504, -986061.25, 196574.72, 0.000000001954365, 10.00227, 9.998431 
2.7654958e+3, 1.8931636e+2, -936629.06, -1181593.5, 99092.77, -0.008696039, -0.4808586, -901563.6, 183088.98, 0.0, 10.0019655, 9.998665 
2.7654055e+3, 1.9931482e+2, -892204.44, -1127041.5, 95441.2, -0.035489246, -0.4552235, -858308.25, 128360.125, 0.0, 10.001671, 9.99851 
2.7653158e+3, 2.0931289e+2, -837600.2, -1036475.2, 102748.125, -0.021981053, -0.46082643, -794051.7, 94637.055, 0.0, 10.001317, 9.998628 
2.7652264e+3, 2.1931098e+2, -790698.7, -959417.94, 106759.85, -0.006070577, -0.46958932, -738991.4, 51717.246, 0.0, 10.00095, 9.998662 
2.7651364e+3, 2.2930963e+2, -718107.3, -833680.75, 103375.34, -0.04412129, -0.44905898, -657463.6, 35258.867, 0.0, 10.000603, 9.99902 
2.7650464e+3, 2.3930848e+2, -672206.3, -762165.7, 92731.23, -0.08450497, -0.424878, -614121.7, -19387.389, 0.0, 10.00025, 9.999008 
2.764957e+3, 2.4930722e+2, -612523.2, -647961.25, 79842.39, -0.06279765, -0.4247181, -548457.3, -51710.81, 0.0, 9.999838, 9.999316 
2.7648675e+3, 2.5930604e+2, -581459.0, -589906.25, 81509.836, -0.036848463, -0.43094164, -504063.44, -105305.375, 0.0, 9.999412, 9.9992485 
2.7647772e+3, 2.6930478e+2, -520971.2, -483423.5, 61420.68, -0.0705559, -0.44977245, -437971.5, -137201.11, 0.0, 9.999037, 9.999488 
2.7646872e+3, 2.793037e+2, -476873.2, -405172.4, 57584.11, -0.096084535, -0.46564975, -373190.8, -170409.73, 0.0, 9.998639, 9.999545 
2.7645975e+3, 2.8930363e+2, -413930.78, -272130.38, 30865.074, -0.059823666, -0.41531312, -265703.4, -160921.84, 0.0, 9.998173, 10.0000105 
2.764507e+3, 2.993037e+2, -379971.56, -187014.39, 41635.082, -0.07314977, -0.36863467, -178413.97, -171634.05, 0.0, 9.997654, 10.0001745 
2.7644166e+3, 3.0930215e+2, -385647.44, -82003.97, 22894.596, -0.14409599, -0.5441425, -80287.43, -80287.43, 0.0, 9.996915, 10.000919 
2.7643272e+3, 3.1930384e+2, -425598.94, -132868.8, -13795.509, -0.07700519, -0.39276132, -132220.1, -132220.1, 0.0, 9.996784, 10.000629 
2.7760464e+3, 1.2942113e+2, -1224062.4, -1654321.5, 2264.699, 0.047012646, -0.43505368, -1224050.5, 447576.72, 0.0009791859, 10.004144, 9.998418 
2.775954e+3, 1.3941842e+2, -1231756.9, -1611072.3, 7517.197, 0.08112259, -0.5016133, -1231607.9, 342044.25, 0.00047129387, 10.0034275, 9.998387 
2.7758622e+3, 1.4941652e+2, -1158400.9, -1491057.9, 54521.94, 0.07349641, -0.5029659, -1149692.8, 325977.53, 0.00014939749, 10.003118, 9.998683 
2.775771e+3, 1.5941484e+2, -1110776.8, -1446412.0, 51677.934, 0.07701292, -0.49105257, -1103000.1, 274686.5, 0.000024304103, 10.002898, 9.998423 
2.7756795e+3, 1.6941291e+2, -1058482.1, -1371456.1, 66187.38, 0.047454543, -0.47470155, -1045060.5, 234645.42, 0.0000010959823, 10.002597, 9.9984045 
2.775588e+3, 1.7941101e+2, -1009123.5, -1300759.0, 67771.18, 0.009117343, -0.4620697, -994144.06, 187581.25, 0.00000000000031093438, 10.00228, 9.998371 
2.7754974e+3, 1.8940881e+2, -939722.25, -1189936.5, 88409.35, 0.013690821, -0.4874811, -911636.7, 172110.16, 0.0, 10.00197, 9.998607 
2.7754074e+3, 1.9940673e+2, -894022.75, -1130885.9, 83556.66, 0.023997648, -0.51127446, -867513.8, 118253.67, 0.0, 10.001668, 9.9984865 
2.7753168e+3, 2.0940532e+2, -835788.44, -1034700.06, 88877.91, -0.009137051, -0.46340913, -801862.3, 85920.414, 0.0, 10.001324, 9.998638 
2.7752262e+3, 2.1940404e+2, -797897.0, -976019.44, 92993.2, -0.046755504, -0.41081965, -758196.3, 31600.676, 0.0, 10.000955, 9.998548 
2.7751365e+3, 2.2940196e+2, -738207.3, -876996.75, 90543.95, -0.044039752, -0.43794933, -693523.9, -1706.222, 0.0, 10.000607, 9.998721 
2.7750465e+3, 2.3939994e+2, -683906.94, -787506.5, 78152.19, -0.03570854, -0.47318342, -641946.5, -48108.836, 0.0, 10.000252, 9.998835 
2.7749565e+3, 2.4939881e+2, -615037.25, -654538.4, 63466.75, -0.053303797, -0.45120868, -568318.94, -72470.2, 0.0, 9.999841, 9.999272 
2.774866e+3, 2.5939795e+2, -589322.1, -608299.2, 66630.43, -0.077657394, -0.420449, -531508.0, -133650.4, 0.0, 9.999417, 9.999122 
2.774776e+3, 2.693967e+2, -537375.1, -518848.66, 47310.883, -0.08856311, -0.4194324, -479902.7, -180032.55, 0.0, 9.999041, 9.999245 
2.7746856e+3, 2.793955e+2, -487916.47, -430119.47, 41368.88, -0.08349806, -0.42719582, -408555.06, -206672.77, 0.0, 9.998645, 9.9993725 
2.7745953e+3, 2.8939462e+2, -423324.47, -293803.38, 11963.55, -0.058707308, -0.43756908, -292707.6, -188817.25, 0.0, 9.9981785, 9.999862 
2.7745044e+3, 2.9939407e+2, -399550.3, -230379.0, 17607.729, -0.07472873, -0.43679044, -228565.78, -222670.58, 0.0, 9.997662, 9.999875 
2.7744132e+3, 3.0939382e+2, -426334.2, -160769.5, -9706.118, -0.11882634, -0.43577787, -160415.23, -160415.23, 0.0, 9.996888, 10.000393 
2.7743235e+3, 3.193937e+2, -406120.38, -101443.3, 43756.1, -0.09110304, -0.42755753, -95283.805, -95283.805, 0.0, 9.996803, 10.000846 
2.78605e+3, 1.295142e+2, -1266329.0, -1668238.5, 19099.18, 0.05033918, -0.43163908, -1265423.5, 405291.63, 0.00049029023, 10.003822, 9.998477 
2.7859572e+3, 1.395115e+2, -1238293.8, -1612854.3, 37079.582, 0.09615022, -0.50414455, -1234658.4, 338081.75, 0.00022227596, 10.003378, 9.998399 
2.785865e+3, 1.4950956e+2, -1173445.8, -1505808.1, 80543.33, 0.08258016, -0.5020364, -1154955.8, 319802.84, 0.00006336457, 10.003052, 9.998611 
2.7857736e+3, 1.5950786e+2, -1129914.4, -1457798.8, 63454.613, 0.07953134, -0.4849961, -1118062.5, 258712.84, 0.000008291806, 10.002782, 9.998399 
2.7856818e+3, 1.6950592e+2, -1068425.9, -1376515.9, 78718.7, 0.054732304, -0.47004882, -1049478.1, 229316.9, 0.00000018034233, 10.002532, 9.998401 
2.78559e+3, 1.7950398e+2, -1007243.2, -1299242.9, 84072.0, 0.023102168, -0.45957148, -984767.4, 196047.45, 0.0, 10.00229, 9.998377 
2.7854994e+3, 1.8950185e+2, -936548.8, -1186009.1, 108582.92, 0.02759177, -0.47979668, -895907.06, 186928.7, 0.0, 10.001987, 9.998624 
2.7854088e+3, 1.9949982e+2, -894395.8, -1133557.0, 107857.555, 0.035808522, -0.49745128, -852939.9, 131915.94, 0.0, 10.001685, 9.998456 
2.785318e+3, 2.094983e+2, -827591.44, -1044746.4, 105993.78, -0.0056214505, -0.45094755, -784433.1, 102439.14, 0.0, 10.001445, 9.998508 
2.785227e+3, 2.1949686e+2, -767720.44, -971445.56, 101866.43, -0.050784387, -0.40176186, -725524.9, 63363.188, 0.0, 10.001207, 9.998455 
2.7851367e+3, 2.2949465e+2, -707320.1, -869381.4, 109598.49, -0.047783144, -0.43482664, -652050.4, 38859.43, 0.0, 10.0008545, 9.998652 
2.7850467e+3, 2.3949246e+2, -657305.25, -785008.2, 111014.3, -0.03623939, -0.4757623, -593089.6, -158.63864, 0.0, 10.000484, 9.998737 
2.784956e+3, 2.4949127e+2, -577367.25, -654197.8, 90404.375, -0.056411084, -0.4470148, -517554.8, -22611.78, 0.0, 10.00018, 9.999109 
2.7848652e+3, 2.594903e+2, -534149.44, -594384.7, 85578.31, -0.084869005, -0.40873742, -473543.75, -76590.77, 0.0, 9.999854, 9.999004 
2.7847743e+3, 2.6948896e+2, -489883.4, -503843.53, 73838.055, -0.0965102, -0.40972346, -422696.22, -123730.016, 0.0, 9.999407, 9.999167 
2.7846837e+3, 2.7948758e+2, -456502.7, -424987.47, 76150.625, -0.08811383, -0.4218086, -362981.2, -162001.88, 0.0, 9.998912, 9.999275 
2.784593e+3, 2.8948632e+2, -412938.75, -306235.94, 44455.906, -0.060050927, -0.45577705, -290141.7, -187150.14, 0.0, 9.998329, 9.9997015 
2.7845016e+3, 2.9948547e+2, -402269.97, -260492.89, 52299.03, -0.07375436, -0.46769032, -243288.44, -238288.36, 0.0, 9.997771, 9.999613 
2.78441e+3, 3.0948606e+2, -343153.9, -162861.3, 32143.664, -0.11169929, -0.34838152, -157301.95, -157301.95, 0.0, 9.997647, 10.00001 
2.78432e+3, 3.1948435e+2, -437521.06, -59322.98, 68988.64, -0.052713975, -0.48290795, -47131.484, -47131.484, 0.0, 9.996348, 10.001351 
2.7960536e+3, 1.2960738e+2, -1260202.8, -1644617.8, 303.40274, 0.07916747, -0.46923986, -1260202.5, 409599.16, 0.0002099123, 10.003775, 9.998662 
2.7959603e+3, 1.3960537e+2, -1232401.1, -1611547.3, 21155.54, 0.10061914, -0.4830198, -1231224.4, 340595.13, 0.00008714671, 10.003423, 9.998387 
2.7958676e+3, 1.4960329e+2, -1185982.6, -1542201.1, 69493.01, 0.078892976, -0.47909355, -1172905.6, 300934.72, 0.000020796237, 10.003094, 9.998343 
2.7957758e+3, 1.5960123e+2, -1136036.8, -1473821.5, 54139.6, 0.07569148, -0.47458684, -1127571.4, 248289.66, 0.0000018268473, 10.002793, 9.998284 
2.795684e+3, 1.6959904e+2, -1065082.8, -1370777.1, 70317.66, 0.07413755, -0.4848508, -1049683.6, 228199.61, 0.0000000041088697, 10.002534, 9.998441 
2.7955925e+3, 1.7959698e+2, -1003342.8, -1291065.5, 74032.15, 0.06197207, -0.49129757, -985411.56, 194492.56, 0.0, 10.002287, 9.998436 
2.795501e+3, 1.8959545e+2, -930886.2, -1175598.0, 96716.96, 0.032360785, -0.4583337, -897276.9, 184642.66, 0.0, 10.001991, 9.998693 
2.79541e+3, 1.9959398e+2, -898671.94, -1143290.3, 96798.46, 0.0046169003, -0.42360723, -865002.0, 118932.44, 0.0, 10.001687, 9.99839 
2.795319e+3, 2.0959175e+2, -844875.9, -1081903.0, 97798.21, -0.009081532, -0.4271913, -809734.1, 76223.5, 0.0, 10.001448, 9.998254 
2.795228e+3, 2.1958952e+2, -772795.56, -982263.5, 91666.83, -0.02413064, -0.43551213, -738346.2, 49634.75, 0.0, 10.001205, 9.9983835 
2.7951372e+3, 2.295877e+2, -697667.6, -850420.3, 95835.08, -0.057498947, -0.4359218, -651497.2, 38501.316, 0.0, 10.000856, 9.998783 
2.7950463e+3, 2.3958606e+2, -660792.1, -793299.94, 98120.41, -0.08650454, -0.43352506, -608651.8, -16637.357, 0.0, 10.000485, 9.998681 
2.7949557e+3, 2.4958454e+2, -598139.5, -698145.75, 79071.28, -0.07097121, -0.41465327, -554587.44, -60557.563, 0.0, 10.000181, 9.998808 
2.794865e+3, 2.5958312e+2, -540235.0, -609856.06, 70881.805, -0.0587366, -0.3965403, -496077.16, -100032.836, 0.0, 9.999864, 9.998895 
2.7947736e+3, 2.6958156e+2, -482854.94, -491185.94, 55592.96, -0.09541592, -0.4218284, -431271.63, -133212.95, 0.0, 9.999412, 9.999254 
2.794682e+3, 2.7958006e+2, -457813.25, -429112.88, 56238.965, -0.11714799, -0.4536417, -385422.13, -185349.89, 0.0, 9.998916, 9.999247 
2.794591e+3, 2.8957886e+2, -426524.06, -333427.2, 21693.824, -0.06305051, -0.46823204, -328620.22, -226535.63, 0.0, 9.9983225, 9.999519 
2.794499e+3, 2.995781e+2, -420801.06, -296517.5, 40850.137, -0.061740693, -0.45176962, -284293.06, -280199.94, 0.0, 9.997758, 9.999373 
2.7944073e+3, 3.0957887e+2, -358049.56, -201380.52, 32175.69, -0.14283879, -0.28795168, -195029.9, -195029.9, 0.0, 9.997675, 9.999734 
2.794316e+3, 3.1957585e+2, -395495.16, 52765.957, -136272.56, -0.0260566, -0.5484737, 90941.94, 90941.94, 0.0, 9.996244, 10.002171 
2.8060567e+3, 1.2970105e+2, -1329200.4, -1676046.4, 12280.408, 0.09549713, -0.4672896, -1328766.1, 340117.44, 0.00007198371, 10.003292, 9.99868 
2.8059635e+3, 1.39699e+2, -1227044.5, -1608633.4, 17170.299, 0.10737211, -0.48895675, -1226273.5, 344628.9, 0.000025492809, 10.003459, 9.998389 
2.8058705e+3, 1.496969e+2, -1185702.9, -1545231.9, 67700.05, 0.08083637, -0.48228616, -1173377.3, 299546.06, 0.000004397771, 10.003111, 9.998314 
2.805778e+3, 1.5969485e+2, -1146129.9, -1475082.1, 67350.336, 0.076095864, -0.47341013, -1132874.6, 242069.55, 0.00000013286218, 10.002709, 9.998316 
2.805686e+3, 1.6969283e+2, -1069439.4, -1361734.1, 93123.98, 0.07606278, -0.47582766, -1042291.9, 234672.88, 0.0, 10.002462, 9.998535 
2.8055942e+3, 1.796909e+2, -1008853.2, -1290798.3, 98688.44, 0.064545594, -0.47541985, -977742.4, 201241.89, 0.0, 10.002246, 9.998453 
2.8055024e+3, 1.8968926e+2, -945448.7, -1197282.1, 107912.57, 0.030983416, -0.4428169, -905533.75, 175467.31, 0.0, 10.001957, 9.998561 
2.8054112e+3, 1.9968769e+2, -901831.3, -1147117.6, 99747.73, 0.0010535005, -0.409728, -866389.2, 116628.37, 0.0, 10.001673, 9.998372 
2.8053197e+3, 2.0968543e+2, -836645.44, -1065433.6, 120929.1, -0.008294926, -0.42320856, -784576.75, 100463.69, 0.0, 10.001453, 9.998363 
2.805229e+3, 2.1968319e+2, -767325.0, -976102.6, 132937.06, -0.018819137, -0.44033286, -702689.25, 84374.0, 0.0, 10.001235, 9.998408 
2.8051376e+3, 2.2968146e+2, -691337.4, -857395.25, 123997.77, -0.056915008, -0.4253945, -625137.5, 63942.777, 0.0, 10.000948, 9.998689 
2.8050464e+3, 2.3967986e+2, -643478.7, -792981.6, 114920.086, -0.09123234, -0.40777317, -581137.44, 9958.463, 0.0, 10.000643, 9.998606 
2.8049552e+3, 2.4967806e+2, -578115.94, -696731.3, 108480.97, -0.07911508, -0.4108154, -513788.97, -20675.082, 0.0, 10.000359, 9.99873 
2.8048646e+3, 2.596763e+2, -515310.84, -598946.2, 110969.21, -0.06673442, -0.41631186, -438541.47, -43410.492, 0.0, 10.000046, 9.998879 
2.8047726e+3, 2.6967487e+2, -449819.88, -472709.56, 89463.625, -0.10172983, -0.4296642, -371072.0, -73927.94, 0.0, 9.99963, 9.999275 
2.8046808e+3, 2.796735e+2, -422407.4, -419737.03, 84778.555, -0.121239655, -0.44729346, -336283.16, -137126.75, 0.0, 9.99919, 9.99918 
2.804589e+3, 2.8967214e+2, -369017.6, -325960.1, 47207.07, -0.056622587, -0.4613606, -295604.4, -194434.17, 0.0, 9.998808, 9.999335 
2.804497e+3, 2.996712e+2, -338696.9, -254996.75, 69409.26, -0.051279683, -0.44711792, -215797.0, -212616.6, 0.0, 9.99832, 9.999386 
2.804404e+3, 3.0967182e+2, -408759.13, -203368.77, 92869.03, -0.18366723, -0.31426567, -167604.72, -167604.72, 0.0, 9.997232, 9.999932 
2.804312e+3, 3.1966925e+2, -319931.16, 87814.72, -133949.31, -0.013624308, -0.54279315, 127881.516, 127881.516, 0.0, 9.996773, 10.002153 
2.81606e+3, 1.2979515e+2, -1333109.6, -1692724.3, 20159.764, 0.09771978, -0.44067132, -1331983.0, 335978.6, 0.000016905276, 10.003331, 9.998546 
2.8159666e+3, 1.3979246e+2, -1232804.9, -1612456.1, 14125.003, 0.11452288, -0.5149241, -1232280.1, 337707.03, 0.0000044627095, 10.003423, 9.998381 
2.815873e+3, 1.497905e+2, -1179507.0, -1528748.6, 51552.74, 0.08754276, -0.504325, -1172056.1, 299950.72, 0.00000037420037, 10.003092, 9.998438 
2.8157806e+3, 1.5978876e+2, -1134073.0, -1452444.5, 55026.99, 0.0804212, -0.4782141, -1124830.5, 249194.0, 0.0000000005064632, 10.002717, 9.998469 
2.815688e+3, 1.6978723e+2, -1056733.8, -1338542.4, 85416.484, 0.061883397, -0.4467621, -1032865.44, 243174.75, 0.0, 10.002474, 9.998691 
2.8155956e+3, 1.7978565e+2, -1012470.5, -1299161.9, 88964.45, 0.034145836, -0.42101586, -987107.4, 190948.92, 0.0, 10.002248, 9.998397 
2.8155038e+3, 1.8978333e+2, -967793.94, -1243560.4, 97451.57, 0.02503236, -0.4340617, -936832.3, 143248.02, 0.0, 10.001954, 9.998246 
2.8154126e+3, 1.9978103e+2, -900267.5, -1142818.6, 91564.56, 0.02027874, -0.44785428, -869583.06, 112520.94, 0.0, 10.001666, 9.998405 
2.815321e+3, 2.0977937e+2, -807698.94, -1005901.1, 113656.22, -0.0051771803, -0.4352187, -756006.25, 128114.12, 0.0, 10.001454, 9.998772 
2.8152296e+3, 2.197778e+2, -762664.4, -965596.56, 122989.81, -0.03401334, -0.41923034, -704688.1, 81447.67, 0.0, 10.001229, 9.998485 
2.815138e+3, 2.2977585e+2, -712853.3, -902951.75, 112583.76, -0.04553842, -0.40537426, -660561.25, 27594.338, 0.0, 10.00095, 9.998376 
2.815047e+3, 2.3977388e+2, -648441.1, -805260.3, 103617.49, -0.055572573, -0.39763197, -596909.8, -6734.397, 0.0, 10.0006485, 9.99852 
2.8149554e+3, 2.4977182e+2, -567682.25, -676197.6, 97523.51, -0.082984805, -0.43494928, -510339.2, -18144.225, 0.0, 10.0003605, 9.998872 
2.8148636e+3, 2.5976992e+2, -511146.8, -591301.4, 97594.3, -0.11272841, -0.46841213, -445721.3, -51508.656, 0.0, 10.000048, 9.998933 
2.8147718e+3, 2.6976895e+2, -454565.25, -483139.72, 73380.13, -0.11499934, -0.43198875, -394094.4, -97872.26, 0.0, 9.99963, 9.999205 
2.8146797e+3, 2.7976802e+2, -429518.22, -436475.97, 69583.78, -0.0959363, -0.39677277, -363326.4, -165095.28, 0.0, 9.999196, 9.9990635 
2.8145877e+3, 2.8976625e+2, -381717.9, -355625.78, 33184.445, -0.042189483, -0.43310907, -333015.06, -232767.03, 0.0, 9.998818, 9.999128 
2.8144947e+3, 2.997648e+2, -312819.03, -206279.56, 40517.63, -0.05491506, -0.46386442, -192621.4, -190359.06, 0.0, 9.998339, 9.999713 
2.8144002e+3, 3.0976495e+2, -359066.06, -90334.55, 48479.84, -0.2236745, -0.44552457, -81856.15, -81856.15, 0.0, 9.997188, 10.000731 
2.8143087e+3, 3.1976515e+2, -395152.2, -79366.875, -47751.83, 0.016343499, -0.43175393, -72304.0, -72304.0, 0.0, 9.996811, 10.000991 
2.8260627e+3, 1.2988913e+2, -1342613.6, -1691223.5, 26692.174, 0.121560596, -0.43654406, -1340581.8, 326459.56, 0.00000202772, 10.003239, 9.998601 
2.825969e+3, 1.3988663e+2, -1291735.8, -1627147.1, 27855.553, 0.09431414, -0.49805912, -1289438.1, 279627.22, 0.00000028941432, 10.002962, 9.998501 
2.8258756e+3, 1.4988482e+2, -1217724.4, -1528190.4, 67048.266, 0.078440815, -0.4875019, -1203863.5, 267219.97, 0.0000000018666946, 10.002753, 9.998602 
2.8257826e+3, 1.5988322e+2, -1147217.3, -1445807.4, 71673.95, 0.08773333, -0.46454296, -1130903.9, 242195.92, 0.0, 10.002576, 9.998581 
2.82569e+3, 1.6988167e+2, -1079843.4, -1349282.4, 92926.96, 0.063241065, -0.43740186, -1050902.4, 224213.2, 0.0, 10.002314, 9.998694 
2.8255975e+3, 1.7988008e+2, -1037774.56, -1306666.3, 89887.13, 0.028490191, -0.4143796, -1010494.1, 166637.78, 0.0, 10.00205, 9.998442 
2.8255054e+3, 1.8987778e+2, -981240.5, -1239191.0, 120260.26, 0.018238435, -0.43309572, -933871.94, 145283.53, 0.0, 10.00182, 9.998339 
2.8254136e+3, 1.998755e+2, -903762.7, -1134314.0, 137644.34, 0.01288944, -0.45217612, -839498.8, 141679.78, 0.0, 10.001608, 9.998487 
2.8253222e+3, 2.0987399e+2, -807186.8, -1001702.75, 142136.61, -0.010459684, -0.42845008, -732218.4, 150975.2, 0.0, 10.001446, 9.998802 
2.8252304e+3, 2.1987253e+2, -753949.6, -957762.0, 129266.266, -0.034996714, -0.40188494, -691251.3, 93956.55, 0.0, 10.001275, 9.998515 
2.825139e+3, 2.2987044e+2, -710367.94, -900860.8, 131921.89, -0.04448781, -0.4048963, -642902.1, 44326.76, 0.0, 10.000966, 9.998382 
2.825047e+3, 2.3986833e+2, -643826.7, -792806.06, 144081.66, -0.051959734, -0.4137171, -556118.25, 33131.746, 0.0, 10.000641, 9.998608 
2.8249553e+3, 2.4986649e+2, -550056.5, -650302.2, 141825.39, -0.08419492, -0.44103003, -449757.47, 41509.625, 0.0, 10.000409, 9.999025 
2.8248632e+3, 2.598648e+2, -493982.25, -583807.7, 138360.9, -0.12005434, -0.46281472, -393427.13, -144.60173, 0.0, 10.000169, 9.998926 
2.824771e+3, 2.698637e+2, -439370.03, -495926.5, 102870.67, -0.12034134, -0.42306477, -360961.66, -65667.97, 0.0, 9.9998255, 9.999022 
2.8246784e+3, 2.7986264e+2, -394807.25, -419999.28, 94761.945, -0.09526587, -0.38672236, -311807.84, -114503.305, 0.0, 9.999445, 9.999053 
2.824586e+3, 2.898608e+2, -333060.84, -318832.63, 80567.94, -0.054342013, -0.44229493, -245065.33, -145743.67, 0.0, 9.999098, 9.999246 
2.8244925e+3, 2.9985926e+2, -254489.97, -169587.14, 89455.35, -0.077653795, -0.48937747, -113021.47, -111685.61, 0.0, 9.998701, 9.999791 
2.8243977e+3, 3.0985972e+2, -242527.5, -34910.16, 27657.186, -0.19424392, -0.44043443, -31289.037, -31289.037, 0.0, 9.997994, 10.000722 
2.8243056e+3, 3.1986004e+2, -332259.06, -101095.234, -13728.63, 0.01795488, -0.40344137, -100282.76, -100282.76, 0.0, 9.997473, 10.000519 
2.836066e+3, 1.2998316e+2, -1331909.4, -1661925.4, 16262.911, 0.1624582, -0.44269893, -1331109.9, 335011.34, 0.0000000446266, 10.003208, 9.9988165 
2.835971e+3, 1.3998143e+2, -1274408.9, -1594115.1, 18823.645, 0.048143495, -0.4490526, -1273304.4, 294833.56, 0.000000000017311715, 10.002973, 9.998723 
2.8358775e+3, 1.4997977e+2, -1204257.1, -1501131.0, 60490.51, 0.05232133, -0.44421673, -1192404.9, 277749.44, 0.0, 10.002754, 9.998789 
2.835785e+3, 1.5997812e+2, -1147185.9, -1441934.3, 63016.07, 0.09455058, -0.43973917, -1134278.5, 237892.27, 0.0, 10.002557, 9.998617 
2.8356922e+3, 1.6997617e+2, -1091578.9, -1371026.9, 82943.36, 0.07804373, -0.4437352, -1068814.8, 205375.78, 0.0, 10.002299, 9.998552 
2.8355995e+3, 1.7997427e+2, -1028439.8, -1285893.9, 81200.266, 0.043703694, -0.4448934, -1004969.2, 171240.72, 0.0, 10.002043, 9.998589 
2.8355068e+3, 1.899726e+2, -950104.75, -1175859.3, 111994.78, 0.008689127, -0.43746898, -903972.25, 174254.19, 0.0, 10.001823, 9.998773 
2.8354144e+3, 1.9997096e+2, -898453.2, -1122911.6, 129815.67, -0.019864572, -0.42782977, -839079.6, 141163.0, 0.0, 10.001604, 9.998569 
2.835323e+3, 2.0996922e+2, -828892.7, -1046140.06, 136488.69, -0.023070455, -0.4054887, -763079.4, 119181.336, 0.0, 10.00144, 9.998501 
2.8352314e+3, 2.1996745e+2, -755097.56, -958284.7, 120830.07, -0.027515372, -0.3889628, -698826.75, 85452.38, 0.0, 10.001266, 9.998517 
2.835139e+3, 2.2996525e+2, -690500.75, -858858.7, 119712.836, -0.05459389, -0.42318034, -628333.4, 57966.703, 0.0, 10.00096, 9.998673 
2.8350472e+3, 2.3996319e+2, -628987.6, -761026.25, 133740.8, -0.07938517, -0.45509315, -545858.9, 42460.76, 0.0, 10.000634, 9.99883 
2.8349555e+3, 2.4996206e+2, -540134.9, -630467.1, 133835.86, -0.08201237, -0.42732698, -444049.4, 46280.832, 0.0, 10.000411, 9.999161 
2.8348634e+3, 2.59961e+2, -497297.44, -594103.4, 126730.73, -0.09100885, -0.39542913, -410040.8, -17700.525, 0.0, 10.000181, 9.998851 
2.8347704e+3, 2.699592e+2, -459995.28, -540246.7, 88718.6, -0.11923054, -0.4032676, -402750.22, -108391.61, 0.0, 9.999828, 9.998718 
2.834677e+3, 2.7995732e+2, -385608.13, -403104.16, 81492.76, -0.1273164, -0.42597246, -312395.2, -116018.086, 0.0, 9.999452, 9.9991665 
2.834584e+3, 2.899558e+2, -298061.75, -247215.06, 69470.68, -0.09783561, -0.4947749, -198661.9, -100271.125, 0.0, 9.999102, 9.999737 
2.8344905e+3, 2.9995477e+2, -273556.3, -209282.78, 71439.625, -0.11607061, -0.51659656, -163084.42, -162685.48, 0.0, 9.998698, 9.999521 
2.8343964e+3, 3.0995643e+2, -313182.34, -187685.44, -1258.8843, -0.08352958, -0.2637374, -187672.81, -187672.81, 0.0, 9.998017, 9.999663 
2.834302e+3, 3.1995326e+2, -301441.1, -43118.426, -14264.303, -0.058957003, -0.5031922, -42333.152, -42333.152, 0.0, 9.9974985, 10.000905 
2.8460684e+3, 1.3007756e+2, -1395248.6, -1682855.8, 37400.715, 0.14275904, -0.44614002, -1390464.5, 274732.13, 0.0, 10.00273, 9.998903 
2.8459737e+3, 1.4007618e+2, -1301839.6, -1594107.5, 26050.031, 0.058992274, -0.42821556, -1299536.0, 267674.72, 0.0, 10.0027275, 9.998841 
2.8458795e+3, 1.5007462e+2, -1252046.3, -1512021.8, 58728.83, 0.05210954, -0.4236696, -1239395.0, 229831.2, 0.0, 10.002375, 9.998897 
2.8457865e+3, 1.6007304e+2, -1214206.5, -1459150.4, 62614.734, 0.08273814, -0.42296013, -1199128.5, 172113.5, 0.0, 10.002032, 9.998752 
2.8456935e+3, 1.700712e+2, -1130855.5, -1372119.3, 101896.63, 0.06983434, -0.4316239, -1093579.3, 179681.2, 0.0, 10.001958, 9.998707 
2.8456008e+3, 1.8006939e+2, -1038339.2, -1273984.3, 113566.695, 0.039023675, -0.43949452, -992517.2, 182761.53, 0.0, 10.00191, 9.99873 
2.8455082e+3, 1.9006781e+2, -960844.6, -1171233.5, 123938.03, 0.006036271, -0.4311133, -903476.75, 173817.2, 0.0, 10.00171, 9.998858 
2.8454155e+3, 2.000663e+2, -910538.06, -1119841.6, 124270.68, -0.019227926, -0.41686606, -852723.9, 126584.96, 0.0, 10.001481, 9.998651 
2.8453237e+3, 2.1006462e+2, -863215.0, -1055643.9, 148744.75, -0.026583113, -0.39613, -782279.2, 99047.414, 0.0, 10.001177, 9.998563 
2.845232e+3, 2.2006288e+2, -799113.75, -961707.1, 154954.38, -0.035666402, -0.3828583, -705424.7, 77920.07, 0.0, 10.000891, 9.9986725 
2.8451395e+3, 2.3006083e+2, -699610.4, -837863.06, 152251.4, -0.064630434, -0.42348936, -601527.44, 83836.42, 0.0, 10.000792, 9.998898 
2.8450474e+3, 2.4005891e+2, -613605.0, -737811.2, 160633.58, -0.08879594, -0.45965955, -503487.5, 83893.97, 0.0, 10.000674, 9.998969 
2.8449553e+3, 2.5005797e+2, -545820.06, -629398.6, 151502.3, -0.085091785, -0.4193388, -430449.28, 58941.355, 0.0, 10.000359, 9.999192 
2.844863e+3, 2.6005706e+2, -516240.72, -592320.75, 141945.06, -0.085552126, -0.37546143, -407326.88, -15927.351, 0.0, 10.00001, 9.998943 
2.8447697e+3, 2.700552e+2, -446208.38, -518785.4, 132958.42, -0.12287071, -0.40036765, -344675.28, -51257.336, 0.0, 9.99986, 9.99885 
2.8446764e+3, 2.800533e+2, -345392.94, -376041.0, 145839.63, -0.14275087, -0.44182637, -214074.47, -18637.6, 0.0, 9.999691, 9.999241 
2.844583e+3, 2.9005182e+2, -268865.75, -232883.1, 100486.05, -0.11200655, -0.49898025, -148790.45, -51341.055, 0.0, 9.999303, 9.999738 
2.8444886e+3, 3.0005094e+2, -252010.13, -212877.64, 74564.695, -0.12494525, -0.504268, -155354.75, -155354.75, 0.0, 9.998916, 9.999388 
2.844394e+3, 3.1005237e+2, -232369.3, -185328.78, 48168.676, -0.07580283, -0.24714284, -155244.7, -155244.7, 0.0, 9.998736, 9.999331 
2.8442988e+3, 3.2004842e+2, -216199.98, -2232.9053, 51264.16, -0.09962307, -0.54057, 9415.304, 9415.304, 0.0, 9.998087, 10.000902 
2.85607e+3, 1.3017225e+2, -1401305.4, -1689076.1, 37237.434, 0.074118145, -0.45088875, -1396565.0, 267703.94, 0.0, 10.002706, 9.998872 
2.8559762e+3, 1.4017092e+2, -1306590.3, -1593692.4, 18834.293, 0.113916986, -0.4264769, -1305360.0, 260923.1, 0.0, 10.002683, 9.998866 
2.8558818e+3, 1.5016948e+2, -1249915.1, -1506358.8, 44004.51, 0.07379908, -0.41590104, -1242574.3, 225723.75, 0.0, 10.002367, 9.99894 
2.8557882e+3, 1.6016807e+2, -1195178.5, -1424085.4, 55362.586, 0.056290116, -0.4083579, -1182491.9, 187820.81, 0.0, 10.00205, 9.998984 
2.855695e+3, 1.7016669e+2, -1100994.3, -1313290.3, 100770.3, 0.039781872, -0.4067635, -1060779.5, 211546.42, 0.0, 10.00197, 9.999105 
2.855602e+3, 1.8016523e+2, -1032580.4, -1261159.8, 107925.34, 0.014448446, -0.4088546, -989675.9, 184663.92, 0.0, 10.0019045, 9.998822 
2.8555092e+3, 1.9016337e+2, -977567.3, -1203960.4, 115880.24, 0.009729068, -0.4165768, -928771.0, 147587.36, 0.0, 10.0016985, 9.998641 
2.855417e+3, 2.0016156e+2, -906796.5, -1107851.0, 115007.88, 0.00799821, -0.41882163, -854573.8, 123802.72, 0.0, 10.001462, 9.998742 
2.8553244e+3, 2.1016017e+2, -837969.9, -1002215.6, 137154.2, -0.023083989, -0.3988642, -760232.06, 120158.93, 0.0, 10.001171, 9.998932 
2.855232e+3, 2.2015882e+2, -781922.4, -923719.5, 147411.69, -0.058001965, -0.3827327, -689245.8, 93159.14, 0.0, 10.000879, 9.9989395 
2.85514e+3, 2.3015714e+2, -689181.7, -816444.94, 149364.19, -0.075457714, -0.40505493, -590459.9, 93960.66, 0.0, 10.000792, 9.999045 
2.8550476e+3, 2.4015547e+2, -607907.1, -729219.6, 152222.45, -0.088609785, -0.42762208, -504701.1, 81734.63, 0.0, 10.000687, 9.999023 
2.8549552e+3, 2.5015417e+2, -550160.0, -638904.5, 137338.31, -0.09464798, -0.41914222, -450203.78, 38244.758, 0.0, 10.000358, 9.999129 
2.8548622e+3, 2.60153e+2, -497573.56, -553381.94, 132606.66, -0.10450892, -0.4082238, -389967.0, 493.45465, 0.0, 10.000007, 9.999213 
2.854769e+3, 2.701518e+2, -405508.72, -434353.4, 129860.13, -0.13139395, -0.41499084, -289272.5, 3198.6726, 0.0, 9.999859, 9.999431 
2.8546757e+3, 2.8015056e+2, -344723.28, -376626.0, 135793.69, -0.13979289, -0.4264725, -223947.28, -29465.164, 0.0, 9.999697, 9.999235 
2.854582e+3, 2.901491e+2, -310343.4, -318788.03, 85474.734, -0.09193542, -0.4449194, -228986.77, -132490.55, 0.0, 9.999299, 9.99915 
2.8544873e+3, 3.0014777e+2, -246386.83, -202635.95, 63936.414, -0.10884276, -0.45287928, -156936.25, -156936.25, 0.0, 9.998921, 9.999456 
2.8543913e+3, 3.101472e+2, -186656.86, -97457.27, 46841.96, -0.207788, -0.44357342, -77378.55, -77378.55, 0.0, 9.998767, 9.999921 
2.8542972e+3, 3.2014626e+2, -254890.38, -80810.64, -25345.514, -0.0406915, -0.46242246, -77195.484, -77195.484, 0.0, 9.9980755, 10.000371 
2.8660718e+3, 1.3026723e+2, -1448673.0, -1681679.4, 27793.14, 0.05168395, -0.42267412, -1445403.6, 217936.11, 0.0, 10.002247, 9.999145 
2.8659785e+3, 1.4026584e+2, -1410245.6, -1619405.4, 28892.758, 0.13445704, -0.4275681, -1406327.9, 159025.55, 0.0, 10.001867, 9.999082 
2.8658834e+3, 1.5026455e+2, -1299582.4, -1514011.0, 64132.742, 0.078101926, -0.41966826, -1281865.0, 185502.1, 0.0, 10.001959, 9.999082 
2.8657895e+3, 1.6026327e+2, -1182846.1, -1401136.0, 76538.85, 0.03957521, -0.4094638, -1158683.9, 210696.39, 0.0, 10.002065, 9.999132 
2.8656963e+3, 1.7026219e+2, -1112784.3, -1303931.1, 104784.32, 0.029225772, -0.39232072, -1066533.6, 204857.22, 0.0, 10.001826, 9.999238 
2.8656033e+3, 1.8026103e+2, -1072584.8, -1264415.4, 98852.33, 0.014817001, -0.37988266, -1030762.94, 142639.3, 0.0, 10.00156, 9.998967 
2.8655106e+3, 1.9025914e+2, -1017641.56, -1206908.6, 124923.62, 0.010348657, -0.4049156, -955554.3, 119866.445, 0.0, 10.001355, 9.998784 
2.8654176e+3, 2.0025726e+2, -939438.2, -1106074.9, 143301.64, 0.006281913, -0.42641437, -856993.75, 120445.42, 0.0, 10.001166, 9.998894 
2.8653252e+3, 2.1025607e+2, -855066.8, -995271.06, 152077.63, -0.024769718, -0.40100512, -757711.75, 121739.93, 0.0, 10.000992, 9.999064 
2.8652325e+3, 2.2025494e+2, -781797.06, -904794.56, 149573.31, -0.056984376, -0.37483996, -681573.0, 99890.38, 0.0, 10.0008, 9.999106 
2.86514e+3, 2.302535e+2, -722418.6, -813254.06, 151540.05, -0.075153634, -0.38986224, -609636.6, 73839.945, 0.0, 10.000482, 9.999216 
2.8650478e+3, 2.4025208e+2, -669345.44, -739665.75, 158108.56, -0.08767341, -0.40762168, -542534.75, 42954.96, 0.0, 10.000186, 9.99919 
2.8649548e+3, 2.5025076e+2, -573213.7, -635785.06, 154582.28, -0.09388053, -0.41506127, -446782.9, 40719.848, 0.0, 10.000141, 9.999254 
2.8648618e+3, 2.6024956e+2, -477202.88, -522351.25, 157796.81, -0.104236856, -0.41947696, -340373.72, 49141.066, 0.0, 10.000055, 9.999403 
2.8647682e+3, 2.702487e+2, -408391.44, -408315.28, 132328.17, -0.12800206, -0.41320077, -276025.2, 15496.247, 0.0, 9.999723, 9.999674 
2.864675e+3, 2.8024784e+2, -382693.78, -384995.38, 122889.016, -0.1304551, -0.41097772, -260950.17, -67421.62, 0.0, 9.999401, 9.999316 
2.864581e+3, 2.9024613e+2, -269262.6, -309319.06, 110639.93, -0.0931705, -0.44453615, -176852.73, -81307.6, 0.0, 9.99963, 9.999055 
2.864486e+3, 3.0024463e+2, -120660.49, -143617.4, 104194.04, -0.118436866, -0.46414235, -27314.56, -27314.56, 0.0, 9.999794, 9.999442 
2.8643897e+3, 3.102443e+2, -150481.0, -81282.766, 42701.344, -0.19990435, -0.42971927, -60922.777, -60922.777, 0.0, 9.999026, 9.999906 
2.8642952e+3, 3.2024348e+2, -138469.88, -54403.027, -53664.203, -0.03628273, -0.43458456, -28270.068, -28270.068, 0.0, 9.999009, 10.000099 
2.8760737e+3, 1.3036247e+2, -1414954.1, -1609701.6, 11938.215, 0.061735142, -0.36917144, -1414225.0, 248183.7, 0.0, 10.002239, 9.999641 
2.8759798e+3, 1.4036097e+2, -1383864.5, -1567455.5, 24121.861, 0.12509453, -0.4328102, -1380748.0, 183673.77, 0.0, 10.001879, 9.9994335 
2.875885e+3, 1.5035978e+2, -1285607.6, -1484361.8, 69765.64, 0.06464559, -0.43606445, -1263563.8, 202870.06, 0.0, 10.001955, 9.999289 
2.875791e+3, 1.6035868e+2, -1183130.4, -1395974.8, 73117.195, 0.026961371, -0.42546663, -1160433.1, 208012.13, 0.0, 10.002039, 9.999181 
2.8756976e+3, 1.7035781e+2, -1123127.6, -1320040.1, 94354.83, 0.035595004, -0.38345566, -1085215.0, 185239.97, 0.0, 10.001801, 9.999141 
2.8756046e+3, 1.8035683e+2, -1062434.0, -1237822.4, 90322.3, 0.03610527, -0.34954137, -1024237.75, 148227.31, 0.0, 10.001535, 9.999162 
2.8755113e+3, 1.903551e+2, -986675.4, -1142020.5, 117139.086, 0.0060011963, -0.396368, -923796.9, 150684.19, 0.0, 10.001351, 9.999231 
2.875418e+3, 2.003534e+2, -927767.6, -1081162.5, 135287.16, -0.023004867, -0.44057575, -848949.44, 127547.734, 0.0, 10.001163, 9.999068 
2.8753257e+3, 2.1035232e+2, -860732.1, -1007377.2, 145234.17, -0.03174467, -0.40212613, -771361.2, 107147.76, 0.0, 10.00099, 9.998983 
2.8752333e+3, 2.203513e+2, -777821.6, -894269.6, 139595.5, -0.041332625, -0.3619755, -684794.4, 95725.695, 0.0, 10.00079, 9.999185 
2.87514e+3, 2.3034999e+2, -709501.25, -785624.2, 138769.22, -0.06418965, -0.37919196, -603668.44, 78863.54, 0.0, 10.000479, 9.999408 
2.8750473e+3, 2.4034873e+2, -650826.94, -700964.3, 152214.72, -0.08333504, -0.4011974, -521630.4, 62913.14, 0.0, 10.000184, 9.999458 
2.8749546e+3, 2.5034773e+2, -552274.75, -593474.6, 153757.42, -0.08424042, -0.40553725, -417743.44, 68809.72, 0.0, 10.000144, 9.999543 
2.8748617e+3, 2.603468e+2, -469142.16, -509300.78, 149408.25, -0.09225798, -0.40403455, -338470.0, 50092.027, 0.0, 10.000069, 9.999487 
2.8747678e+3, 2.7034596e+2, -418024.4, -427290.47, 116545.4, -0.1129126, -0.39305702, -306020.0, -15451.197, 0.0, 9.999717, 9.999547 
2.874674e+3, 2.8034493e+2, -368579.8, -355808.3, 119251.82, -0.11834192, -0.4004271, -242771.38, -50194.223, 0.0, 9.999398, 9.999519 
2.8745797e+3, 2.903429e+2, -233531.64, -239449.69, 126373.266, -0.1236628, -0.5108044, -110082.76, -15485.613, 0.0, 9.999647, 9.999527 
2.8744853e+3, 3.0034155e+2, -126961.555, -163344.1, 90409.51, -0.15503392, -0.5425653, -52931.348, -52931.348, 0.0, 9.9998255, 9.99929 
2.8743905e+3, 3.1034446e+2, -208855.72, -196567.08, 8795.028, -0.003784154, -0.12594411, -191982.69, -191982.69, 0.0, 9.999005, 9.999122 
2.874292e+3, 3.203392e+2, -127454.12, -43442.96, 35815.684, -0.16813517, -0.52126324, -30246.803, -30246.803, 0.0, 9.999058, 10.000153 
2.886075e+3, 1.3045757e+2, -1463123.3, -1624817.6, 33920.566, 0.04443302, -0.38456288, -1456295.6, 205181.25, 0.0, 10.00187, 9.999717 
2.8859812e+3, 1.4045642e+2, -1410865.9, -1566703.3, 32227.6, 0.12995975, -0.42006016, -1404464.1, 159022.7, 0.0, 10.001635, 9.999555 
2.8858864e+3, 1.5045547e+2, -1338530.4, -1496119.0, 75927.88, 0.06900607, -0.41410348, -1307900.9, 157596.06, 0.0, 10.001534, 9.999409 
2.8857923e+3, 1.6045453e+2, -1261004.1, -1420225.4, 71548.88, 0.029086078, -0.40069842, -1233576.9, 133930.23, 0.0, 10.001448, 9.999299 
2.8856987e+3, 1.7045353e+2, -1190621.0, -1341373.8, 98696.2, 0.037991602, -0.37865794, -1141809.9, 127707.766, 0.0, 10.001289, 9.99924 
2.8856054e+3, 1.804525e+2, -1112744.9, -1250021.8, 105458.13, 0.03738083, -0.36145368, -1055555.5, 115972.89, 0.0, 10.00114, 9.999267 
2.885512e+3, 1.9045113e+2, -1015846.56, -1143056.6, 114880.96, 0.00408891, -0.38373512, -948138.1, 125403.16, 0.0, 10.001097, 9.999346 
2.8854188e+3, 2.0044978e+2, -934639.2, -1068046.8, 114231.36, -0.025201663, -0.40434328, -869062.2, 106491.86, 0.0, 10.001043, 9.999215 
2.885326e+3, 2.1044864e+2, -873792.44, -994867.44, 134405.94, -0.034711484, -0.38719335, -786919.8, 90646.04, 0.0, 10.00082, 9.999152 
2.8852335e+3, 2.2044758e+2, -795829.25, -883330.44, 142590.27, -0.043581333, -0.36790675, -690428.56, 89148.414, 0.0, 10.000583, 9.999359 
2.8851405e+3, 2.3044653e+2, -710735.2, -767000.44, 139793.25, -0.05842419, -0.37744433, -596271.94, 85314.65, 0.0, 10.000388, 9.9995775 
2.8850472e+3, 2.4044554e+2, -641591.1, -678447.4, 152503.25, -0.06966538, -0.38929358, -506406.63, 77189.1, 0.0, 10.00017, 9.999619 
2.8849542e+3, 2.504447e+2, -585589.4, -595281.75, 142574.14, -0.07574086, -0.39217106, -447779.1, 37824.836, 0.0, 9.999857, 9.999667 
2.8848612e+3, 2.6044393e+2, -519052.9, -509164.9, 135131.23, -0.0856836, -0.39054516, -378887.25, 8724.043, 0.0, 9.999631, 9.999694 
2.8847674e+3, 2.7044323e+2, -385322.3, -388381.47, 123158.19, -0.105710864, -0.38521725, -263684.2, 25931.818, 0.0, 9.999848, 9.999747 
2.8846732e+3, 2.8044233e+2, -292047.75, -291830.8, 138772.47, -0.11248259, -0.4035152, -153166.77, 38456.363, 0.0, 9.99981, 9.999757 
2.884579e+3, 2.904403e+2, -287449.0, -254928.42, 139610.72, -0.12314439, -0.5311772, -130634.27, -36991.105, 0.0, 9.999239, 9.999614 
2.8844842e+3, 3.004391e+2, -222743.56, -204254.86, 87578.36, -0.1543603, -0.55576164, -125434.31, -125434.31, 0.0, 9.99915, 9.999334 
2.8843895e+3, 3.1044295e+2, -36215.2, -131929.39, 49751.934, 0.0024041133, -0.032164272, -15039.285, -15039.285, 0.0, 10.000278, 9.9989605 
2.884291e+3, 3.2043615e+2, -26001.553, -4128.055, 72320.28, -0.18338579, -0.5593429, 58077.77, 58077.77, 0.0, 9.999793, 10.00008 
2.896076e+3, 1.3055263e+2, -1479980.0, -1656217.1, 22635.86, 0.006981081, -0.44725466, -1477119.1, 183424.94, 0.0, 10.001859, 9.999505 
2.8959826e+3, 1.4055224e+2, -1414478.5, -1574400.8, 27087.967, 0.14372863, -0.39197376, -1410014.9, 152533.72, 0.0, 10.001636, 9.999501 
2.8958878e+3, 1.5055156e+2, -1336159.0, -1490464.5, 73411.93, 0.08764738, -0.36113903, -1306813.6, 157743.11, 0.0, 10.00153, 9.999451 
2.8957933e+3, 1.6055073e+2, -1250871.5, -1396611.4, 67641.5, 0.043493334, -0.34367076, -1224316.1, 142250.02, 0.0, 10.001435, 9.999468 
2.8956997e+3, 1.7054938e+2, -1171592.8, -1303857.1, 91953.22, 0.033672612, -0.38168037, -1124460.4, 144118.83, 0.0, 10.001297, 9.999495 
2.895606e+3, 1.8054806e+2, -1109809.4, -1247361.5, 101070.96, 0.017675165, -0.41112474, -1056333.8, 114258.3, 0.0, 10.001153, 9.999279 
2.8955126e+3, 1.9054723e+2, -1027134.44, -1167779.1, 114075.23, 0.004601117, -0.36616084, -963447.9, 109153.07, 0.0, 10.0011, 9.999176 
2.8954196e+3, 2.005464e+2, -927781.94, -1049820.8, 109198.64, -0.006622603, -0.3261774, -863710.56, 110899.305, 0.0, 10.001026, 9.99935 
2.8953263e+3, 2.105451e+2, -847061.1, -938433.56, 125119.99, -0.03489106, -0.35952064, -759547.3, 117074.984, 0.0, 10.000816, 9.999541 
2.8952333e+3, 2.2054385e+2, -779353.8, -847972.6, 133924.13, -0.06277842, -0.39271545, -675414.1, 103219.836, 0.0, 10.000577, 9.999605 
2.89514e+3, 2.3054317e+2, -700922.56, -746339.4, 132467.61, -0.060264315, -0.38235593, -589231.06, 91409.11, 0.0, 10.000385, 9.999722 
2.895047e+3, 2.4054253e+2, -638314.06, -672267.6, 141452.42, -0.05578287, -0.37058416, -512823.3, 69822.89, 0.0, 10.000172, 9.9996605 
2.8949538e+3, 2.5054163e+2, -590221.3, -603350.44, 129618.34, -0.06773073, -0.3758248, -467001.4, 17653.975, 0.0, 9.999851, 9.999616 
2.8948602e+3, 2.6054084e+2, -494877.06, -459868.66, 136978.9, -0.08545354, -0.38133115, -339280.06, 47383.098, 0.0, 9.999633, 10.0000305 
2.8947666e+3, 2.7054054e+2, -345832.88, -309127.75, 130024.56, -0.10951187, -0.39092246, -196166.94, 92496.39, 0.0, 9.999857, 10.000287 
2.8946725e+3, 2.8054002e+2, -270923.66, -254732.56, 118260.8, -0.11587505, -0.41844505, -144290.55, 46375.58, 0.0, 9.999835, 10.000001 
2.894578e+3, 2.9053834e+2, -318731.28, -308240.06, 124484.664, -0.084006004, -0.49605066, -188890.53, -96207.945, 0.0, 9.999195, 9.999264 
2.8944832e+3, 3.0053714e+2, -208058.8, -156486.47, 110694.4, -0.120597914, -0.5046229, -68614.484, -68614.484, 0.0, 9.99908, 9.999694 
2.8943866e+3, 3.1053886e+2, 14088.512, -34909.813, 102127.88, -0.24636705, -0.262315, 94614.65, 94614.65, 0.0, 10.000319, 9.999606 
2.8942928e+3, 3.2053518e+2, -55518.207, -54693.83, -109005.78, 0.044338096, -0.49777114, 53900.54, 53900.54, 0.0, 9.999747, 9.999758 
2.9060778e+3, 1.3064831e+2, -1538977.9, -1683031.0, 13118.485, 0.05957208, -0.43892986, -1537793.0, 121813.51, 0.0, 10.001443, 9.999523 
2.905983e+3, 1.4064783e+2, -1447277.3, -1582708.3, 29627.494, 0.08047287, -0.3951056, -1441079.4, 120532.74, 0.0, 10.001376, 9.99957 
2.9058886e+3, 1.5064724e+2, -1376268.1, -1499564.3, 78394.13, 0.061094668, -0.36521822, -1338185.9, 125433.586, 0.0, 10.001209, 9.999542 
2.9057944e+3, 1.6064651e+2, -1300304.9, -1413669.5, 76013.805, 0.059602603, -0.3459552, -1262166.4, 103461.52, 0.0, 10.001065, 9.999529 
2.9057005e+3, 1.7064536e+2, -1188451.6, -1305940.8, 90521.26, 0.0327318, -0.3681877, -1139284.1, 128355.12, 0.0, 10.001156, 9.999549 
2.9056066e+3, 1.8064421e+2, -1096880.5, -1234148.8, 88616.3, -0.00047831584, -0.3865265, -1053427.6, 116223.01, 0.0, 10.00121, 9.999343 
2.905513e+3, 1.9064328e+2, -1042396.94, -1168290.9, 110820.42, -0.0038315651, -0.35770053, -977893.94, 93766.664, 0.0, 10.000963, 9.999239 
2.90542e+3, 2.006424e+2, -966254.06, -1056641.3, 117323.85, -0.004751628, -0.3300824, -885720.4, 87949.74, 0.0, 10.000709, 9.999456 
2.9053268e+3, 2.1064137e+2, -866484.5, -929874.9, 119846.15, -0.032805894, -0.3501589, -774213.2, 101466.81, 0.0, 10.000604, 9.999703 
2.9052335e+3, 2.206404e+2, -782925.3, -833852.8, 113699.375, -0.060062937, -0.37058085, -691873.2, 85815.77, 0.0, 10.000483, 9.999748 
2.9051402e+3, 2.3063985e+2, -720612.0, -739093.06, 108302.125, -0.0573909, -0.36301693, -621156.94, 58537.2, 0.0, 10.000177, 9.999873 
2.905047e+3, 2.4063931e+2, -666980.7, -674710.0, 123842.86, -0.051009677, -0.3543259, -546942.2, 34756.938, 0.0, 9.999928, 9.999761 
2.9049534e+3, 2.5063848e+2, -543489.8, -566801.8, 124455.37, -0.06891648, -0.3629293, -430145.8, 53561.69, 0.0, 10.0001135, 9.99974 
2.9048595e+3, 2.6063782e+2, -413962.47, -390715.63, 132085.05, -0.0910939, -0.37194547, -269743.53, 115970.3, 0.0, 10.00006, 10.0002985 
2.9047656e+3, 2.7063787e+2, -443755.88, -307883.5, 103403.93, -0.099121734, -0.38391405, -252095.4, 35615.32, 0.0, 9.998978, 10.000717 
2.9046714e+3, 2.8063777e+2, -449761.03, -312521.3, 113400.72, -0.08821141, -0.40671843, -248595.31, -58885.758, 0.0, 9.9985, 10.00024 
2.904577e+3, 2.9063675e+2, -192903.56, -195042.58, 134422.22, -0.10247712, -0.44642052, -59546.605, 32172.854, 0.0, 9.9998455, 9.999723 
2.9160798e+3, 1.3074443e+2, -1532463.6, -1659282.4, 11718.399, 0.16595115, -0.38247138, -1531389.9, 127275.68, 0.0, 10.001402, 9.999703 
2.9159826e+3, 1.4074329e+2, -1438673.3, -1561758.0, 27119.695, -0.038448323, -0.42114002, -1432962.9, 127714.016, 0.0, 10.001364, 9.99972 
2.9158884e+3, 1.5074262e+2, -1366154.9, -1481576.3, 70695.88, 0.001237668, -0.41286626, -1332605.4, 130079.125, 0.0, 10.001221, 9.999661 
2.915795e+3, 1.6074197e+2, -1298932.9, -1415484.4, 74671.11, 0.074404046, -0.3926683, -1262488.9, 102203.09, 0.0, 10.001085, 9.999507 
2.9157013e+3, 1.707415e+2, -1195297.1, -1320984.4, 94964.164, 0.03524783, -0.3388173, -1144265.8, 122431.93, 0.0, 10.001157, 9.999446 
2.915607e+3, 1.8074086e+2, -1092842.9, -1220978.4, 84775.875, -0.017440485, -0.30191165, -1050648.5, 118056.41, 0.0, 10.001189, 9.999443 
2.9155138e+3, 1.9073929e+2, -1025266.4, -1131940.3, 99700.48, -0.021545244, -0.35988325, -965532.5, 105187.91, 0.0, 10.000958, 9.999492 
2.9154202e+3, 2.0073786e+2, -961126.0, -1046295.0, 110366.5, -0.019828938, -0.40587437, -885413.44, 87320.984, 0.0, 10.000709, 9.999528 
2.915327e+3, 2.1073753e+2, -868947.56, -935596.06, 116135.984, -0.030257164, -0.3541114, -781449.3, 93289.33, 0.0, 10.000605, 9.999664 
2.9152337e+3, 2.2073726e+2, -780782.75, -826999.3, 104676.44, -0.04275067, -0.30584824, -696694.25, 80047.87, 0.0, 10.000471, 9.999802 
2.9151398e+3, 2.3073657e+2, -709205.06, -715807.2, 95483.74, -0.049259603, -0.32195473, -616965.4, 61783.16, 0.0, 10.000178, 10.000033 
2.9150462e+3, 2.407359e+2, -654418.2, -650910.6, 123588.41, -0.057281345, -0.34166843, -529063.56, 51691.09, 0.0, 9.999938, 9.99992 
2.914953e+3, 2.507353e+2, -522546.5, -523333.28, 132938.33, -0.08416181, -0.35210052, -390000.97, 92759.1, 0.0, 10.0001135, 10.000036 
2.914859e+3, 2.6073492e+2, -400863.1, -369174.22, 105691.92, -0.10958004, -0.3601587, -278145.7, 106617.586, 0.0, 10.00008, 10.00044 
2.9147643e+3, 2.7073523e+2, -429082.34, -273856.9, 54768.336, -0.073258854, -0.361786, -256478.55, 30280.451, 0.0, 9.998958, 10.000964 
2.9146698e+3, 2.8073552e+2, -445098.75, -294212.25, 157627.17, -0.039895423, -0.36227858, -194904.23, -6149.4297, 0.0, 9.998468, 10.000381 
2.9145753e+3, 2.907354e+2, -93981.62, -18458.918, 154819.58, -0.1940407, -0.38046646, 103137.88, 193893.77, 0.0, 9.9999695, 10.000882 
2.9260802e+3, 1.3084011e+2, -1599116.3, -1667722.1, 19562.678, 0.153307, -0.38194126, -1593930.0, 63798.74, 0.0, 10.000844, 9.999913 
2.925983e+3, 1.4083923e+2, -1491064.6, -1583147.9, 32817.03, -0.049786594, -0.4091161, -1480566.1, 79171.02, 0.0, 10.000985, 9.999757 
2.9258892e+3, 1.5083848e+2, -1391099.9, -1502810.8, 62247.723, -0.013412289, -0.4011551, -1363321.5, 98423.836, 0.0, 10.001088, 9.99958 
2.9257956e+3, 1.6083777e+2, -1295809.3, -1415620.0, 58302.965, 0.057752877, -0.3837982, -1272121.1, 91632.53, 0.0, 10.00111, 9.999496 
2.9257017e+3, 1.7083715e+2, -1226602.5, -1331456.3, 83693.99, 0.014876155, -0.34844008, -1180270.8, 85490.0, 0.0, 10.000918, 9.999491 
2.9256076e+3, 1.8083647e+2, -1153498.9, -1241024.1, 79183.16, -0.037925042, -0.32072005, -1106789.8, 60978.703, 0.0, 10.000727, 9.999532 
2.925514e+3, 1.9083531e+2, -1047378.7, -1126466.8, 87657.086, -0.029152917, -0.3487914, -990758.8, 79021.25, 0.0, 10.000734, 9.999639 
2.9254207e+3, 2.0083426e+2, -954496.4, -1036779.4, 93416.06, -0.017218525, -0.37166128, -893563.44, 78227.48, 0.0, 10.000725, 9.999587 
2.9253268e+3, 2.1083379e+2, -883538.25, -943426.0, 99094.88, -0.03680826, -0.33363032, -809961.94, 63834.703, 0.0, 10.0005045, 9.99966 
2.9252335e+3, 2.2083342e+2, -802798.8, -833950.56, 90697.12, -0.05466319, -0.29622647, -726349.8, 49451.406, 0.0, 10.000301, 9.999837 
2.9251397e+3, 2.3083286e+2, -686887.0, -693630.2, 77142.95, -0.052894857, -0.30839908, -613042.0, 64764.492, 0.0, 10.000279, 10.000138 
2.9250458e+3, 2.4083236e+2, -601009.25, -605152.0, 105941.02, -0.055877063, -0.3247994, -497119.34, 82691.61, 0.0, 10.000213, 10.000104 
2.9249525e+3, 2.50832e+2, -532314.8, -492084.0, 117590.64, -0.09158779, -0.33782417, -392900.66, 88912.87, 0.0, 9.999885, 10.000365 
2.9248583e+3, 2.6083186e+2, -477933.94, -416085.2, 77814.445, -0.11851432, -0.34392664, -363275.4, 20538.916, 0.0, 9.999584, 10.000361 
2.9247636e+3, 2.7083212e+2, -330004.9, -249399.89, -9229.28, -0.06725341, -0.3277166, -248356.64, 37455.184, 0.0, 9.99973, 10.000763 
2.9246688e+3, 2.8083238e+2, -255853.98, -184637.48, 108531.15, -0.024613386, -0.3262709, -106022.46, 81786.555, 0.0, 9.999669, 10.000568 
2.9245743e+3, 2.908323e+2, -168989.83, -5823.012, 80656.06, -0.2182914, -0.38069212, 27316.086, 117123.84, 0.0, 9.999212, 10.001352 
2.9360798e+3, 1.3093546e+2, -1584526.0, -1635709.3, 23305.557, 0.06509811, -0.41935527, -1575504.4, 81290.664, 0.0, 10.00084, 10.0001335 
2.9359844e+3, 1.4093545e+2, -1490222.1, -1587676.6, 36903.5, 0.013915025, -0.37174654, -1477824.8, 80969.94, 0.0, 10.001014, 9.999711 
2.93589e+3, 1.5093471e+2, -1405142.3, -1534599.5, 64208.563, 0.0022993516, -0.34801227, -1378697.8, 82105.805, 0.0, 10.001098, 9.999358 
2.9357958e+3, 1.6093376e+2, -1298018.0, -1417600.9, 55285.402, 0.016142277, -0.33567864, -1276375.4, 86438.52, 0.0, 10.001099, 9.999488 
2.9357016e+3, 1.7093234e+2, -1215928.4, -1309927.9, 75134.03, -0.024458217, -0.3918029, -1174304.8, 90523.2, 0.0, 10.00092, 9.999638 
2.9356077e+3, 1.8093121e+2, -1146049.3, -1228133.5, 75896.53, -0.062170178, -0.42132196, -1100808.5, 66030.85, 0.0, 10.000736, 9.999616 
2.9355142e+3, 1.909314e+2, -1041219.6, -1116458.1, 88391.4, -0.029050041, -0.32320425, -982775.1, 86064.375, 0.0, 10.000744, 9.999703 
2.935421e+3, 2.0093141e+2, -951795.25, -1029974.44, 88200.18, -0.004197018, -0.2459357, -894410.6, 76430.49, 0.0, 10.000719, 9.999636 
2.935327e+3, 2.109301e+2, -880621.3, -937879.94, 89574.65, -0.051679425, -0.29533917, -815212.0, 57642.36, 0.0, 10.000506, 9.999698 
2.9352328e+3, 2.2092895e+2, -801274.5, -831020.94, 87419.41, -0.09368293, -0.33934063, -727472.1, 47393.793, 0.0, 10.000301, 9.999857 
2.9351395e+3, 2.3092876e+2, -683888.0, -686062.4, 76649.41, -0.070446804, -0.3179957, -608318.1, 68549.45, 0.0, 10.000274, 10.000193 
2.9350457e+3, 2.409287e+2, -586392.9, -575851.75, 98157.57, -0.050944407, -0.30116108, -482823.34, 96044.55, 0.0, 10.000215, 10.000306 
2.9349518e+3, 2.5092858e+2, -505668.1, -440001.3, 103769.94, -0.08959522, -0.31909457, -363994.3, 116873.6, 0.0, 9.999895, 10.000721 
2.9348576e+3, 2.6092866e+2, -494397.63, -454802.97, 75248.66, -0.1262298, -0.32031354, -396790.94, -13924.113, 0.0, 9.999604, 10.000084 
2.9347625e+3, 2.7092856e+2, -372519.63, -345513.22, -2323.4048, -0.09022957, -0.27951965, -345314.78, -60445.695, 0.0, 9.999766, 10.000083 
2.9346678e+3, 2.809282e+2, -220246.5, -141327.11, 82871.16, -0.05844359, -0.29935923, -89000.664, 97872.53, 0.0, 9.999789, 10.000814 
2.9345736e+3, 2.9092795e+2, -161001.08, 25984.258, 70602.95, -0.17153798, -0.4098583, 49648.137, 138519.16, 0.0, 9.999147, 10.001601 
2.94608e+3, 1.3103117e+2, -1620766.8, -1658319.6, 17931.566, 0.023339376, -0.38953716, -1613579.9, 42277.574, 0.0, 10.000605, 10.000098 
2.9459855e+3, 1.4103098e+2, -1480491.8, -1580632.4, 16207.407, 0.042330116, -0.36216238, -1477933.9, 79925.555, 0.0, 10.001068, 9.999735 
2.9458907e+3, 1.5103017e+2, -1422232.1, -1540819.4, 44197.973, 0.010269256, -0.34613785, -1407571.8, 52296.75, 0.0, 10.000968, 9.99938 
2.9457963e+3, 1.6102917e+2, -1338193.9, -1432339.6, 46831.656, 0.0033899425, -0.34187368, -1318866.0, 43013.344, 0.0, 10.000799, 9.999534 
2.945702e+3, 1.7102806e+2, -1221814.4, -1300632.1, 65159.977, -0.017098049, -0.37615877, -1185072.9, 78817.52, 0.0, 10.000824, 9.99975 
2.9456082e+3, 1.8102716e+2, -1135464.1, -1220417.1, 64783.9, -0.042745776, -0.39284348, -1100473.3, 65426.5, 0.0, 10.000795, 9.999642 
2.9455143e+3, 1.9102712e+2, -1051235.6, -1126944.1, 71675.54, -0.032751825, -0.314792, -1008032.25, 59869.945, 0.0, 10.000693, 9.99966 
2.945421e+3, 2.01027e+2, -958401.4, -1020255.06, 66452.41, -0.023089347, -0.25028354, -916031.6, 53873.42, 0.0, 10.0006075, 9.999762 
2.945327e+3, 2.1102595e+2, -862029.44, -903822.9, 76048.984, -0.05746851, -0.2954282, -804058.4, 67856.99, 0.0, 10.000518, 9.99993 
2.945233e+3, 2.21025e+2, -776134.44, -817844.94, 87981.95, -0.09069904, -0.33508107, -706569.75, 67354.77, 0.0, 10.000461, 9.999875 
2.945139e+3, 2.3102473e+2, -662951.2, -687408.1, 69981.36, -0.080512196, -0.31440482, -604137.94, 71789.34, 0.0, 10.000457, 10.0001 
2.9450455e+3, 2.4102458e+2, -568214.9, -562716.25, 73519.195, -0.06464423, -0.30058947, -491894.97, 86033.71, 0.0, 10.000314, 10.000351 
2.9449514e+3, 2.5102463e+2, -503340.38, -422945.0, 58878.418, -0.07448092, -0.31714284, -391850.88, 88076.38, 0.0, 9.999835, 10.00087 
2.944857e+3, 2.6102486e+2, -499421.97, -456580.2, 46265.098, -0.094582245, -0.31179386, -427017.63, -45093.254, 0.0, 9.999562, 10.000097 
2.944762e+3, 2.7102464e+2, -307074.2, -334376.72, 24719.215, -0.10063115, -0.27317548, -292487.25, -8559.148, 0.0, 10.000291, 9.999916 
2.944667e+3, 2.8102386e+2, -114487.805, -102850.2, 81058.875, -0.09631041, -0.31704098, -27401.545, 158535.19, 0.0, 10.000564, 10.000705 
2.944573e+3, 2.9102445e+2, -200557.63, 12579.577, 16442.854, -0.11060593, -0.3331002, 13840.63, 101767.3, 0.0, 9.998844, 10.001651 
2.9560798e+3, 1.3112716e+2, -1635240.4, -1684125.3, 37631.086, 0.008726156, -0.30701667, -1614810.5, 40106.723, 0.0, 10.000591, 9.999926 
2.955986e+3, 1.4112604e+2, -1481649.6, -1573247.5, 22500.889, 0.043273825, -0.3640568, -1476420.9, 80507.92, 0.0, 10.001028, 9.999804 
2.9558912e+3, 1.5112512e+2, -1411885.8, -1514855.8, 35217.53, 0.0122106625, -0.37550595, -1400993.0, 57945.19, 0.0, 10.000949, 9.999568 
2.955797e+3, 1.6112414e+2, -1332806.5, -1419898.1, 44181.066, 0.013098443, -0.38277102, -1314318.5, 46629.953, 0.0, 10.000793, 9.999622 
2.9557028e+3, 1.7112418e+2, -1214536.3, -1286041.6, 65296.8, 0.02505595, -0.31338158, -1175844.9, 87104.39, 0.0, 10.000824, 9.999851 
2.955609e+3, 1.8112396e+2, -1138568.3, -1225940.9, 59373.184, 0.006633455, -0.26653817, -1108541.1, 56411.164, 0.0, 10.000792, 9.999606 
2.9555148e+3, 1.9112246e+2, -1061309.8, -1146372.6, 67898.49, -0.04057501, -0.32514367, -1023721.75, 43246.574, 0.0, 10.000687, 9.99953 
2.9554206e+3, 2.0112129e+2, -945720.25, -991412.25, 64510.496, -0.06655417, -0.3627431, -900129.8, 68850.586, 0.0, 10.000596, 9.999966 
2.955327e+3, 2.1112144e+2, -835212.7, -847261.2, 71348.47, -0.056246083, -0.32276356, -769634.6, 101344.15, 0.0, 10.000512, 10.000322 
2.9552332e+3, 2.2112153e+2, -777600.06, -818054.44, 86403.92, -0.056548305, -0.2860234, -709087.3, 63890.48, 0.0, 10.000448, 9.99988 
2.9551393e+3, 2.3112077e+2, -679143.4, -719830.6, 68683.445, -0.083933055, -0.29964048, -627854.06, 47132.035, 0.0, 10.000451, 9.999879 
2.9550448e+3, 2.4112006e+2, -572078.3, -572857.1, 59700.133, -0.09691339, -0.3234111, -512766.34, 64226.984, 0.0, 10.000321, 10.000278 
2.9549512e+3, 2.5112015e+2, -505693.4, -427318.44, 39130.125, -0.0484398, -0.33142948, -411127.0, 67864.375, 0.0, 9.999831, 10.000843 
2.954857e+3, 2.611206e+2, -472498.03, -404644.13, 57433.938, -0.025265288, -0.31686822, -371865.03, 9121.519, 0.0, 9.9995775, 10.000447 
2.9547617e+3, 2.7112052e+2, -270055.6, -266774.94, 63902.465, -0.099958874, -0.31207332, -204491.77, 78496.0, 0.0, 10.00033, 10.000362 
2.9546666e+3, 2.8111956e+2, -143690.75, -174700.97, 41841.484, -0.15395018, -0.3814354, -114573.91, 70423.53, 0.0, 10.000607, 10.000192 
2.9545715e+3, 2.9112095e+2, -234965.9, -53077.934, -48909.426, -0.07150508, -0.23667033, -40760.406, 46222.77, 0.0, 9.998819, 10.00121 
2.96608e+3, 1.3122155e+2, -1656858.8, -1702796.0, 25968.332, 0.031937543, -0.35554913, -1645158.8, 8833.922, 0.0, 10.000477, 9.999851 
2.965986e+3, 1.412208e+2, -1540193.6, -1598416.3, 10365.538, 0.035499163, -0.37006998, -1538403.3, 17598.01, 0.0, 10.000608, 9.999836 
2.965891e+3, 1.5122002e+2, -1439406.4, -1511061.0, 10626.698, -0.020697122, -0.38152984, -1437863.6, 20145.459, 0.0, 10.000683, 9.999724 
2.9657966e+3, 1.6121933e+2, -1347712.1, -1418366.3, 24952.533, -0.039487462, -0.3757184, -1339788.4, 20227.566, 0.0, 10.000649, 9.999705 
2.9657027e+3, 1.7121911e+2, -1245921.8, -1311422.0, 38535.395, -0.031264227, -0.32583117, -1228099.8, 33919.594, 0.0, 10.000647, 9.999765 
2.9656088e+3, 1.812188e+2, -1156385.4, -1223854.9, 23577.578, -0.034897074, -0.28714523, -1148962.8, 15060.834, 0.0, 10.000613, 9.999712 
2.9655147e+3, 1.9121772e+2, -1057983.8, -1114017.0, 53655.492, -0.05541871, -0.3263493, -1025470.75, 40563.957, 0.0, 10.000571, 9.99981 
2.9654208e+3, 2.0121677e+2, -959566.5, -1003441.7, 60964.406, -0.07061317, -0.36021224, -916712.75, 51331.656, 0.0, 10.000522, 9.99992 
2.965327e+3, 2.1121672e+2, -860681.8, -875931.75, 33567.035, -0.062985145, -0.3273206, -833884.6, 36160.45, 0.0, 10.000403, 10.00018 
2.965233e+3, 2.2121675e+2, -784104.8, -805338.7, 33468.05, -0.059191465, -0.29282644, -759610.06, 12434.906, 0.0, 10.000329, 10.000029 
2.9651392e+3, 2.3121627e+2, -674264.25, -689513.56, 46791.195, -0.08730978, -0.30257347, -634480.56, 39569.293, 0.0, 10.000355, 10.00014 
2.9650447e+3, 2.412158e+2, -573550.9, -579672.44, 54436.48, -0.10223518, -0.32226002, -522089.2, 53965.508, 0.0, 10.000326, 10.000237 
2.9649508e+3, 2.5121558e+2, -467748.1, -450423.75, 11959.039, -0.044845093, -0.3330755, -444319.34, 33737.387, 0.0, 10.000256, 10.000488 
2.9648563e+3, 2.612158e+2, -373469.4, -332111.53, 23267.98, -0.010099341, -0.32163164, -321661.44, 58393.12, 0.0, 10.00014, 10.000681 
2.9647616e+3, 2.7121633e+2, -317664.4, -236239.5, 41087.336, -0.09658858, -0.3060628, -219110.16, 62938.406, 0.0, 9.999771, 10.000843 
2.9646662e+3, 2.8121576e+2, -296751.8, -245921.8, 5412.3247, -0.16323665, -0.3737639, -245351.89, -61298.297, 0.0, 9.999548, 10.000219 
2.9645705e+3, 2.9121637e+2, -88911.03, -4427.095, -49102.633, -0.047592837, -0.2791911, 18103.25, 104151.516, 0.0, 9.999936, 10.001009 
2.9760805e+3, 1.3131453e+2, -1658340.3, -1709907.9, 17611.65, 0.07812007, -0.51947033, -1652899.5, 182.39702, 0.0, 10.000496, 9.999792 
2.9759863e+3, 1.41315e+2, -1551415.9, -1601116.1, 14728.817, 0.022587596, -0.4034034, -1547378.9, 7700.312, 0.0, 10.000522, 9.999859 
2.975891e+3, 1.5131463e+2, -1428497.5, -1488704.8, 8907.367, -0.07828728, -0.38779074, -1427207.4, 29875.459, 0.0, 10.000685, 9.999877 
2.9757956e+3, 1.6131453e+2, -1334414.5, -1402696.0, 24362.592, -0.14197566, -0.34260955, -1326613.3, 32470.56, 0.0, 10.000702, 9.999786 
2.9757017e+3, 1.713131e+2, -1255869.8, -1341885.4, 39257.79, -0.16330683, -0.39932552, -1240646.6, 20452.004, 0.0, 10.0006895, 9.9995365 
2.9756078e+3, 1.8131213e+2, -1136117.6, -1188742.9, 23225.074, -0.14383662, -0.41677934, -1127333.9, 35775.117, 0.0, 10.000643, 9.999938 
2.9755145e+3, 1.9131297e+2, -1012556.75, -1025678.6, 51101.29, -0.07696065, -0.31648347, -967596.94, 97504.12, 0.0, 10.000597, 10.000404 
2.9754212e+3, 2.0131311e+2, -977010.94, -1043451.0, 55039.13, -0.049840774, -0.2676487, -945943.5, 21156.547, 0.0, 10.000538, 9.999638 
2.9753268e+3, 2.1131168e+2, -899353.2, -958564.6, 28346.504, -0.07754681, -0.3196589, -887970.9, -18855.729, 0.0, 10.000413, 9.999608 
2.9752326e+3, 2.2131075e+2, -761747.25, -758416.8, 35018.56, -0.091310136, -0.35384282, -725023.94, 46101.02, 0.0, 10.000326, 10.000353 
2.975139e+3, 2.313114e+2, -623946.06, -584405.56, 48259.47, -0.09040779, -0.31689316, -552023.75, 121093.555, 0.0, 10.00035, 10.000864 
2.9750448e+3, 2.413119e+2, -578975.7, -588949.56, 50811.953, -0.08690073, -0.28974327, -532906.56, 42205.387, 0.0, 10.000317, 10.000178 
2.97495e+3, 2.5131097e+2, -516438.3, -553371.56, 11121.493, -0.06706457, -0.31907037, -513347.97, -36224.766, 0.0, 10.000264, 9.999778 
2.9748556e+3, 2.6131058e+2, -360415.03, -308646.0, 11039.147, -0.054826677, -0.3232352, -306390.34, 72738.03, 0.0, 10.000155, 10.000835 
2.9747608e+3, 2.7131224e+2, -279863.2, -153996.73, 27308.006, -0.09257002, -0.25061494, -148327.34, 132782.67, 0.0, 9.999754, 10.001417 
2.9746655e+3, 2.8131264e+2, -254757.45, -148858.67, 8589.007, -0.1257883, -0.2810777, -148166.58, 34936.64, 0.0, 9.999521, 10.0008955 
2.9745707e+3, 2.9131076e+2, -88398.0, -10649.366, -16022.221, -0.010329118, -0.48071745, -7476.994, 77643.58, 0.0, 9.999998, 10.000924 
2.98608e+3, 1.3141191e+2, -1523668.5, -1631899.5, -45743.83, -0.019359596, -0.20459709, -1506925.1, 145204.45, 0.0, 10.001368, 9.99991 
2.985985e+3, 1.4141096e+2, -1669286.1, -1606814.6, 14792.943, -0.04214638, -0.2563633, -1603488.8, -49348.426, 0.0, 9.999502, 10.000307 
2.985892e+3, 1.5141107e+2, -1529913.1, -1495988.6, 36212.93, 0.08171807, -0.23374236, -1472962.3, -16823.578, 0.0, 9.999819, 10.00024 
2.985799e+3, 1.6141017e+2, -1446943.8, -1467327.3, 39915.773, 0.21283032, -0.28382817, -1415939.1, -57792.004, 0.0, 9.999984, 9.999684 
2.9857048e+3, 1.7140885e+2, -1301965.8, -1366017.3, 58617.754, 0.15383047, -0.3228439, -1267195.6, -7034.4287, 0.0, 10.000391, 9.99951 
2.9856098e+3, 1.8140766e+2, -1129777.6, -1194797.6, 42189.035, 0.036464497, -0.35920122, -1109025.9, 53148.004, 0.0, 10.000737, 9.999846 
2.985515e+3, 1.914077e+2, -1016145.6, -1055855.4, 17500.215, -0.03635553, -0.31455347, -1009534.06, 54639.824, 0.0, 10.000697, 10.000149 
2.9854214e+3, 2.0140794e+2, -935780.56, -1004093.2, 6677.8374, -0.054463055, -0.24980418, -935133.9, 31038.016, 0.0, 10.000733, 9.999818 
2.9853272e+3, 2.114068e+2, -829743.8, -904661.0, 26065.84, -0.054266226, -0.2955905, -821567.2, 46616.37, 0.0, 10.000798, 9.999797 
2.9852328e+3, 2.2140592e+2, -729045.6, -741188.5, 49889.58, -0.06481136, -0.33417234, -684859.44, 85332.86, 0.0, 10.00054, 10.00037 
2.9851392e+3, 2.3140654e+2, -656200.5, -598761.8, 19616.86, -0.056685813, -0.3011832, -592701.5, 79484.01, 0.0, 10.000123, 10.000875 
2.9850447e+3, 2.4140702e+2, -613967.3, -600537.94, -3551.3018, -0.06112228, -0.27600554, -599656.6, -25476.006, 0.0, 10.000053, 10.000225 
2.9849496e+3, 2.514063e+2, -486639.25, -529042.06, 10040.066, -0.10294484, -0.29321027, -484382.13, -8192.549, 0.0, 10.000424, 9.999867 
2.984855e+3, 2.61406e+2, -301437.53, -268247.5, 29042.799, -0.11344544, -0.3001279, -251392.86, 126801.11, 0.0, 10.000501, 10.000953 
2.9847604e+3, 2.7140734e+2, -305690.25, -158472.02, 502.44336, -0.037243467, -0.26884133, -158470.3, 121707.76, 0.0, 9.999525, 10.001508 
2.9846656e+3, 2.8140813e+2, -304236.47, -166431.38, -15016.26, -0.031703867, -0.2769935, -164814.06, 17353.75, 0.0, 9.999144, 10.000982 
2.98457e+3, 2.9140624e+2, 18382.797, -43878.242, -48542.723, -0.088490985, -0.45437765, 44919.473, 129106.266, 0.0, 10.001028, 10.0002775 
2.996081e+3, 1.3150474e+2, -1635510.9, -1671635.8, 49499.867, -0.0119303325, -0.3511034, -1600881.0, 50341.508, 0.0, 10.000523, 10.000052 
2.9959843e+3, 1.4150456e+2, -1677930.0, -1549779.3, 30952.793, -0.020703541, -0.36319283, -1542694.8, 10530.197, 0.0, 9.99916, 10.000874 
2.9958898e+3, 1.5150568e+2, -1351309.4, -1378178.5, -59803.805, -0.08783267, -0.28204817, -1303449.8, 151762.95, 0.0, 10.000877, 10.000554 
2.995796e+3, 1.6150454e+2, -1270004.9, -1414922.8, -65784.42, -0.059757363, -0.35767448, -1244597.1, 112625.8, 0.0, 10.001311, 9.999419 
2.9957023e+3, 1.7150363e+2, -1238568.0, -1328869.6, -6278.3555, -0.08393069, -0.35120106, -1238133.6, 21099.629, 0.0, 10.00077, 9.999596 
2.995609e+3, 1.8150418e+2, -1193854.5, -1271756.5, -36134.023, -0.07125208, -0.21458723, -1179675.0, -18445.4, 0.0, 10.000465, 9.999463 
2.9955152e+3, 1.9150212e+2, -1051927.6, -1177124.6, -23164.238, -0.070705615, -0.30514875, -1047779.2, 15471.924, 0.0, 10.000874, 9.999243 
2.9954213e+3, 2.0150158e+2, -922138.3, -937931.8, -13727.225, -0.10775436, -0.29391727, -914198.56, 51058.605, 0.0, 10.000553, 10.000366 
2.9953274e+3, 2.1150164e+2, -882122.4, -838739.6, 8116.3965, -0.060316335, -0.29923478, -837270.9, 29983.725, 0.0, 10.000036, 10.000619 
2.9952323e+3, 2.2150157e+2, -787286.06, -805853.94, 2073.4307, -0.12338405, -0.29801142, -787057.4, -17803.25, 0.0, 10.000293, 10.000047 
2.9951385e+3, 2.3150128e+2, -724965.0, -705155.5, -42142.613, -0.08404958, -0.2940211, -671769.3, -510.76855, 0.0, 9.999963, 10.000223 
2.9950443e+3, 2.4150096e+2, -584554.06, -560253.7, -18780.121, -0.04852595, -0.30726787, -550036.0, 23226.969, 0.0, 10.000143, 10.000457 
2.9949492e+3, 2.5150177e+2, -409750.75, -384696.22, 23728.469, -0.15616515, -0.25830272, -370391.2, 104863.97, 0.0, 10.000493, 10.000821 
2.9948542e+3, 2.6150224e+2, -295839.4, -264117.34, 9711.234, -0.18241724, -0.25148892, -261380.52, 115869.34, 0.0, 10.000524, 10.000975 
2.994761e+3, 2.7150163e+2, -338619.5, -235786.44, -35110.965, 0.07065836, -0.37006813, -224941.92, 54311.566, 0.0, 9.999545, 10.000977 
2.9946652e+3, 2.8150192e+2, -359765.03, -252705.05, 19080.273, 0.10354008, -0.3795492, -249406.2, -68155.97, 0.0, 9.999065, 10.000403 
2.9945678e+3, 2.915044e+2, -57277.46, -155732.11, 46912.54, -0.32818902, -0.058930334, -38503.934, 44728.223, 0.0, 10.000906, 9.999535 
