coord_x,coord_y,stress_xx,stress_yy,tau_xy,velocity_x,velocity_y,stress_1,eps,damage,lx,ly
4.9998188e+0, 1.24936625e+2, -1615508.8, -1753528.0, -2730.3677, -0.06992274, 0.35939732, -1615454.8, 100202.71, 0.0027102246, 10.000873, 9.999308 
5.000184e+0, 1.3493732e+2, -1524797.3, -1615070.6, 1041.0958, -0.020864243, 0.3621389, -1524785.3, 92865.07, 0.0016001622, 10.000701, 9.999655 
5.000399e+0, 1.4493927e+2, -1490736.3, -1611872.5, 38501.156, 0.0071015796, 0.6313088, -1479535.0, 40095.465, 0.00071385584, 10.00056, 9.999058 
5.0002074e+0, 1.5493476e+2, -1402599.1, -1515186.6, 50950.637, -0.007465627, 0.20006604, -1382965.6, 38707.88, 0.00020880907, 10.00048, 9.999089 
5.0001764e+0, 1.6493356e+2, -1289634.5, -1414655.6, 89931.25, -0.016504461, 0.17724112, -1242622.5, 81062.414, 0.00003056022, 10.0006075, 9.999047 
5.000307e+0, 1.7493501e+2, -1153812.8, -1312187.1, 89142.35, -0.01942306, 0.36016375, -1113765.0, 111905.945, 0.0000010193884, 10.000926, 9.998926 
5.000251e+0, 1.8493481e+2, -1044907.6, -1137403.4, 68354.02, -0.014394023, 0.4224081, -1008625.94, 119045.59, 0.0, 10.000706, 9.999555 
4.9999657e+0, 1.9493261e+2, -1067145.0, -1108700.3, 17500.104, -0.0034913572, 0.18986739, -1060757.1, -31067.266, 0.0, 9.999927, 9.999459 
4.999869e+0, 2.0493191e+2, -1013045.8, -1061770.1, 28495.184, -0.004966426, 0.1931647, -999918.06, -68223.22, 0.0, 9.999761, 9.999181 
4.9999124e+0, 2.1493226e+2, -852995.44, -944684.06, 6072.482, -0.024182672, 0.25277823, -852595.0, -18904.299, 0.0, 10.000231, 9.999086 
5.0000805e+0, 2.249312e+2, -799461.56, -1028901.1, 27780.756, -0.026580589, 0.31547752, -796145.75, -60442.43, 0.0, 10.000622, 9.997648 
5.00041e+0, 2.3492834e+2, -662176.06, -917368.06, 45358.844, -0.008659512, 0.20362179, -654353.6, -16617.467, 0.0, 10.000913, 9.997602 
5.0003266e+0, 2.4492793e+2, -481192.97, -624192.7, 33733.113, -0.011233278, 0.3376821, -473634.94, 66108.99, 0.0, 10.00081, 9.998993 
4.999817e+0, 2.5492948e+2, -468892.4, -585013.8, -22194.514, -0.036745757, 0.5379778, -464794.9, -23063.63, 0.000000000017365094, 10.000292, 9.998842 
4.999806e+0, 2.649287e+2, -386687.06, -477876.7, -26203.125, -0.028652638, 0.57887405, -379693.94, -35955.94, 0.000000288742, 10.000114, 9.998982 
5.000306e+0, 2.7492568e+2, -266908.7, -370937.78, -56869.223, 0.012958267, 0.3169798, -241854.3, 3909.0054, 0.0000033591298, 10.000267, 9.99897 
5.00044e+0, 2.8492504e+2, -251250.17, -437623.78, -48931.38, 0.027870018, 0.41391432, -239184.61, -91416.66, 0.000018802597, 10.000244, 9.997844 
5.0001e+0, 2.9492494e+2, -163784.67, -328859.38, -26248.818, 0.0006757084, 0.5530304, -159711.31, -109940.99, 0.000081046455, 10.000082, 9.998002 
4.9999338e+0, 3.0491897e+2, -111284.945, -208722.8, -372.06262, -0.0008850081, 0.11294264, -111283.53, -111283.53, 0.0003038914, 9.9998, 9.998627 
5.0000453e+0, 3.1492016e+2, -41967.56, 73600.93, 5986.985, 0.038825594, 0.32242504, 73910.25, 73910.25, 0.00078894256, 9.999114, 10.000918 
1.4999422e+1, 1.2493798e+2, -1609337.8, -1651105.9, -50581.195, -0.209479, 0.50020474, -1575498.9, 140145.11, 0.0026043395, 10.000546, 10.000189 
1.5000637e+1, 1.349352e+2, -1495634.3, -1507297.8, 7949.0605, -0.05051139, 0.13459009, -1491607.1, 126060.3, 0.0015429672, 10.000543, 10.000497 
1.5001176e+1, 1.4493753e+2, -1464227.4, -1498411.6, 22492.057, 0.021209564, 0.3560524, -1453070.0, 66572.875, 0.0006869522, 10.000335, 9.999958 
1.5000603e+1, 1.549379e+2, -1374139.3, -1407530.3, 63148.64, -0.022458874, 0.36207336, -1325516.4, 96123.68, 0.0001968844, 10.0002985, 9.999927 
1.5000547e+1, 1.6493762e+2, -1290474.4, -1364537.8, 89902.63, -0.04578819, 0.36803326, -1230275.3, 93366.414, 0.000026649353, 10.000412, 9.999497 
1.5000963e+1, 1.749363e+2, -1144080.3, -1249826.0, 114595.91, -0.053972743, 0.2611182, -1070747.9, 154903.81, 0.00000066228677, 10.000763, 9.999448 
1.5000719e+1, 1.8493547e+2, -1141354.8, -1277360.8, 26609.998, -0.043264896, 0.2739103, -1136333.9, -8673.786, 0.0, 10.000481, 9.99871 
1.49999e+1, 1.9493501e+2, -1160550.0, -1249815.1, 2202.9744, -0.0079845395, 0.33307102, -1160495.6, -130827.29, 0.0, 9.999725, 9.998599 
1.4999582e+1, 2.0493424e+2, -1057080.4, -1095930.9, 35662.21, -0.015525506, 0.37925, -1035896.1, -104219.336, 0.0, 9.999545, 9.999058 
1.4999719e+1, 2.1493298e+2, -891665.94, -970725.56, 39521.938, -0.07360375, 0.32041454, -875297.7, -41610.61, 0.0, 10.000025, 9.999016 
1.5000229e+1, 2.2493185e+2, -764895.8, -901745.94, 24847.963, -0.07735929, 0.32954267, -760523.8, -24826.154, 0.0, 10.000416, 9.998631 
1.50012e+1, 2.3493078e+2, -630160.5, -792851.06, 70307.57, -0.02611456, 0.33591056, -603987.4, 33721.902, 0.0, 10.000696, 9.998569 
1.5000986e+1, 2.4492939e+2, -584299.9, -792610.1, 1508.8341, -0.031939074, 0.37479582, -584288.94, -44563.348, 0.0, 10.000639, 9.99793 
1.4999449e+1, 2.5492737e+2, -569983.5, -738302.06, -30000.635, -0.10821128, 0.35216564, -564796.2, -123046.875, 0.0, 10.000073, 9.997906 
1.4999415e+1, 2.6492548e+2, -437175.9, -536714.06, -31867.46, -0.085109144, 0.33856702, -427847.63, -84078.484, 0.00000013049092, 9.999948, 9.99867 
1.5000936e+1, 2.749238e+2, -329780.53, -446568.16, -40421.16, 0.041533627, 0.2802519, -317155.28, -71370.85, 0.0000024373799, 10.000054, 9.998566 
1.5001273e+1, 2.8492355e+2, -208545.22, -302712.5, -66169.64, 0.08110529, 0.3900885, -174417.45, -26632.303, 0.000015368285, 10.000077, 9.998862 
1.5000288e+1, 2.9492372e+2, -125988.01, -188414.92, -11914.608, 0.00032358622, 0.4858256, -123791.31, -74009.8, 0.000069496324, 9.999833, 9.999102 
1.4999868e+1, 3.0491996e+2, -90964.17, -100209.51, -34465.62, 0.010652517, 0.17047366, -60812.594, -60812.594, 0.00026841622, 9.999593, 9.999493 
1.500009e+1, 3.149214e+2, -142465.13, -13939.828, 23364.232, 0.120218344, 0.3792256, -9824.298, -9824.298, 0.0007052667, 9.998673, 10.000549 
2.5000373e+1, 1.2493784e+2, -1615291.0, -1624667.4, 3282.803, -0.14641236, 0.46596044, -1614255.9, 101387.29, 0.0024837567, 10.000411, 10.000405 
2.500034e+1, 1.3493519e+2, -1678405.6, -1584649.0, -21713.357, -0.058370415, 0.08747211, -1579864.5, 37800.324, 0.0014731403, 9.999284, 10.000551 
2.5000972e+1, 1.4493759e+2, -1603086.6, -1544496.1, 38460.24, 0.029058417, 0.3042863, -1525444.6, -5805.083, 0.00065158884, 9.999314, 10.000115 
2.5001794e+1, 1.549391e+2, -1311162.8, -1362359.8, 9974.58, 0.05691057, 0.39728248, -1309288.1, 112338.21, 0.0001815959, 10.00068, 10.00004 
2.5001958e+1, 1.6493906e+2, -1255715.4, -1337428.8, -561.78204, 0.05250961, 0.41989532, -1255711.5, 67914.19, 0.000022322774, 10.000618, 9.99957 
2.500154e+1, 1.7493708e+2, -1382155.0, -1350568.1, -18429.12, 0.019839581, 0.22830172, -1342091.0, -116449.484, 0.00000035252413, 9.999091, 9.999543 
2.5001007e+1, 1.8493609e+2, -1334096.1, -1413162.3, -17873.188, 0.003130686, 0.23738438, -1330243.5, -202591.31, 0.0, 9.999331, 9.998324 
2.500048e+1, 1.9493604e+2, -963222.1, -1193348.6, -17036.258, 0.009695179, 0.36396855, -961967.8, 67690.46, 0.0, 10.001249, 9.998236 
2.5000298e+1, 2.0493515e+2, -759118.06, -992034.44, 38821.66, -0.0020959289, 0.4347134, -752817.8, 178851.2, 0.0, 10.001761, 9.998697 
2.5000426e+1, 2.149332e+2, -810589.0, -974881.9, 11548.425, -0.035311367, 0.33203796, -809781.25, 23905.799, 0.0, 10.00077, 9.998622 
2.5000834e+1, 2.2493206e+2, -765632.5, -865394.4, 16519.238, -0.04366266, 0.34337866, -762968.25, -27271.031, 0.0, 10.000248, 9.998945 
2.5001597e+1, 2.3493159e+2, -687442.7, -790571.4, 3746.7925, -0.022883235, 0.3675252, -687306.75, -49605.813, 0.0, 10.000159, 9.998835 
2.500136e+1, 2.4493009e+2, -669942.6, -848054.9, -26632.463, -0.026105816, 0.3908344, -666045.6, -126328.7, 0.0, 10.000127, 9.997779 
2.500003e+1, 2.5492725e+2, -567270.06, -753226.7, -5763.7046, -0.054003417, 0.29196817, -567091.56, -125343.586, 0.0, 10.000172, 9.997739 
2.4999917e+1, 2.6492512e+2, -423108.34, -565437.6, 74859.33, -0.035547838, 0.28054565, -390985.4, -47215.023, 0.00000003137998, 10.000216, 9.99833 
2.5001052e+1, 2.7492377e+2, -321728.34, -479600.3, 53008.25, 0.044555865, 0.28018585, -305581.38, -59797.56, 0.0000016497497, 10.000285, 9.998217 
2.50013e+1, 2.8492326e+2, -181565.2, -273761.72, 28899.611, 0.07848327, 0.3735062, -173255.4, -25467.822, 0.000012071121, 10.000202, 9.99899 
2.500072e+1, 2.9492292e+2, -110948.88, -167452.92, 1524.893, 0.06762507, 0.39585206, -110907.76, -61119.594, 0.00005739791, 9.999908, 9.999192 
2.5000098e+1, 3.0492097e+2, -75673.83, -30682.098, -38927.734, 0.09651399, 0.23398742, -8217.619, -8217.619, 0.00023072664, 9.999448, 10.000037 
2.4999094e+1, 3.1492198e+2, -182091.05, -93234.164, -35576.156, 0.17634846, 0.31689712, -80745.56, -80745.56, 0.000617959, 9.99869, 9.999973 
3.500234e+1, 1.2493607e+2, -1660428.1, -1673750.3, -83819.234, -0.05754118, 0.1892588, -1583005.6, 132650.75, 0.0023583595, 10.000236, 10.000152 
3.4998858e+1, 1.3493729e+2, -1709354.9, -1626659.8, -56540.957, -0.1683417, 0.24546163, -1597960.9, 19681.357, 0.0013953737, 9.999211, 10.00029 
3.4999415e+1, 1.449393e+2, -1642083.4, -1596652.3, 73507.27, -0.09840797, 0.45204505, -1542430.8, -22808.8, 0.0006105934, 9.999195, 9.999813 
3.5003403e+1, 1.5493833e+2, -1339355.4, -1398198.0, 75626.75, 0.11418075, 0.32982552, -1287628.5, 134004.11, 0.00016453842, 10.000599, 9.999828 
3.5004166e+1, 1.649378e+2, -1266876.1, -1340870.3, -73646.96, 0.17710203, 0.30903777, -1221455.6, 102182.195, 0.000017966355, 10.000523, 9.999602 
3.500171e+1, 1.7493717e+2, -1391067.3, -1357864.4, -61523.94, 0.09398458, 0.2603714, -1310741.4, -85098.875, 0.00000014192928, 9.999038, 9.999526 
3.500079e+1, 1.849365e+2, -1326016.8, -1361704.6, 41267.527, 0.017761335, 0.28286058, -1298900.5, -171250.9, 0.0, 9.999193, 9.99874 
3.5001382e+1, 1.9493563e+2, -950125.25, -1136686.8, 69013.836, -0.056454506, 0.29431623, -927370.6, 102289.53, 0.0, 10.001128, 9.998682 
3.5001713e+1, 2.0493455e+2, -804497.75, -1048488.8, -13478.095, -0.06363709, 0.33668277, -803755.44, 127917.266, 0.0, 10.001607, 9.998384 
3.5001752e+1, 2.149329e+2, -855235.06, -1030128.94, -12650.571, -0.008337255, 0.30572128, -854324.75, -20634.238, 0.0, 10.000614, 9.998319 
3.5001594e+1, 2.2493169e+2, -795380.7, -881371.56, 3602.9312, -0.02061618, 0.32648852, -795230.0, -59527.137, 0.0, 10.000065, 9.99892 
3.5001254e+1, 2.3493081e+2, -713065.8, -798667.2, 14055.12, -0.102914855, 0.31770548, -710817.1, -73106.74, 0.0, 9.999979, 9.998859 
3.5001174e+1, 2.4493007e+2, -622923.1, -721378.06, -36852.9, -0.084345914, 0.36891207, -610656.9, -70939.35, 0.0, 9.999998, 9.998715 
3.5001287e+1, 2.5492918e+2, -524959.5, -629902.7, 10487.752, 0.024884332, 0.38008288, -523921.63, -82194.99, 0.0, 10.000021, 9.99866 
3.5001016e+1, 2.6492772e+2, -442820.53, -588180.94, 66252.72, 0.02551314, 0.3936264, -417155.22, -73414.29, 0.0000000045955626, 10.000138, 9.998209 
3.500026e+1, 2.7492562e+2, -345942.4, -499798.5, 71256.64, -0.09510134, 0.33488488, -318011.34, -72250.7, 0.0000011896407, 10.000157, 9.998138 
3.5000244e+1, 2.849241e+2, -224977.06, -345102.94, 5442.522, -0.07862727, 0.35173205, -224730.98, -76955.91, 0.000009641755, 10.000131, 9.998534 
3.5001042e+1, 2.9492247e+2, -174198.73, -268075.25, 2945.0164, 0.072738044, 0.30121714, -174106.44, -124315.71, 0.0000464018, 9.9997835, 9.998564 
3.5000163e+1, 3.0492178e+2, -39244.32, 51560.914, -77542.9, 0.13066223, 0.27324057, 96015.4, 96015.4, 0.00019513248, 9.999404, 10.00062 
3.4996358e+1, 3.1492224e+2, -236652.97, -190716.55, -23308.447, -0.033734318, 0.23479426, -180961.34, -180961.34, 0.00053834624, 9.998607, 9.999343 
4.5002624e+1, 1.2493671e+2, -1842966.0, -1777092.1, 19661.191, 0.03365112, 0.1379854, -1771670.1, -56025.55, 0.0022337737, 9.999078, 9.999979 
4.500004e+1, 1.3493833e+2, -1320239.3, -1469564.8, -17196.822, -0.09085199, 0.25969023, -1318284.4, 299342.16, 0.0013153872, 10.002019, 10.000012 
4.5000783e+1, 1.4493892e+2, -1247535.0, -1467484.0, 87985.734, -0.0130660515, 0.36449274, -1216669.6, 302951.4, 0.00056916923, 10.002159, 9.999286 
4.5003673e+1, 1.549369e+2, -1532646.6, -1556792.0, 34668.355, 0.14875303, 0.1974141, -1508009.1, -86365.6, 0.00014812649, 9.999541, 9.999267 
4.500409e+1, 1.6493656e+2, -1454538.5, -1416347.4, -59831.574, 0.19703273, 0.21840842, -1372638.0, -48989.63, 0.000013959289, 9.999182, 9.999727 
4.5002097e+1, 1.7493737e+2, -1068832.1, -1188162.5, -65956.14, 0.1326394, 0.29968777, -1039558.3, 186082.81, 0.000000037538413, 10.001191, 9.999655 
4.500134e+1, 1.8493694e+2, -985653.1, -1181025.0, 56081.156, 0.051755156, 0.33638906, -970699.6, 156946.17, 0.0, 10.001459, 9.9988985 
4.500175e+1, 1.9493528e+2, -1131493.0, -1207363.8, 41869.055, -0.055339918, 0.25126454, -1112929.6, -83267.11, 0.0, 9.999812, 9.998837 
4.5002118e+1, 2.049341e+2, -1106059.5, -1182603.9, -13033.729, -0.06646951, 0.2736582, -1103901.0, -172225.45, 0.0, 9.999476, 9.998496 
4.5002463e+1, 2.1493322e+2, -879313.1, -1029216.4, -5644.1963, 0.024870358, 0.30601412, -879100.9, -45413.535, 0.0, 10.000387, 9.998437 
4.500219e+1, 2.2493228e+2, -702062.25, -817785.75, 55019.41, 0.01633037, 0.34130234, -680079.7, 55617.207, 0.0, 10.000616, 9.999103 
4.5001304e+1, 2.349312e+2, -685959.0, -767467.6, 56495.195, -0.08992803, 0.29479796, -657052.56, -19347.297, 0.0, 10.000087, 9.999036 
4.500125e+1, 2.449305e+2, -609722.6, -697574.5, 29674.098, -0.066849716, 0.3365073, -600638.75, -60928.063, 0.0, 10.000022, 9.99886 
4.5001975e+1, 2.5492984e+2, -451999.25, -583234.4, -7927.991, 0.078631155, 0.3561718, -451522.06, -9805.379, 0.0, 10.000466, 9.998765 
4.5001778e+1, 2.6492846e+2, -379754.4, -541315.0, 40223.582, 0.07900906, 0.36474285, -370293.94, -26564.477, 0.000000013083459, 10.0005045, 9.998353 
4.500073e+1, 2.7492636e+2, -323733.25, -474242.66, 41653.27, -0.05735882, 0.29118806, -312974.78, -67226.164, 0.0000010541644, 10.000246, 9.998278 
4.5000267e+1, 2.849248e+2, -264010.34, -372049.34, 16555.541, -0.06730137, 0.30405965, -261530.36, -113766.45, 0.000008106713, 9.999895, 9.998474 
4.5000345e+1, 2.9492325e+2, -227657.53, -309191.72, 18468.277, 0.051557206, 0.26918072, -223669.38, -173888.44, 0.000037622078, 9.9994755, 9.99844 
4.4999522e+1, 3.049231e+2, -44897.07, 44276.426, -26760.162, 0.13961352, 0.30513656, 51690.49, 51690.49, 0.00016443121, 9.999374, 10.000578 
4.4996035e+1, 3.1492308e+2, -114669.03, -151147.69, -62131.676, 0.04301012, 0.20951493, -68154.836, -68154.836, 0.00047154687, 9.9995165, 9.999174 
5.4999816e+1, 1.2494004e+2, -1862114.6, -1833246.0, 87795.36, -0.24500766, 0.31195322, -1758706.4, -43101.26, 0.0021078985, 9.999125, 9.999578 
5.5003434e+1, 1.3493839e+2, -1331321.4, -1513085.8, 108143.9, -0.0023586988, 0.13706605, -1280942.6, 336674.4, 0.0012334009, 10.002093, 9.9996805 
5.50047e+1, 1.449365e+2, -1301284.1, -1581655.0, -28841.242, 0.1109833, 0.048123978, -1298348.0, 221287.98, 0.00052778376, 10.002164, 9.998501 
5.5002123e+1, 1.5493491e+2, -1590833.6, -1681562.4, -50407.69, -0.0027200873, 0.0062772497, -1568383.1, -146725.53, 0.00013278752, 9.999552, 9.998407 
5.500111e+1, 1.6493544e+2, -1454728.8, -1401437.5, 409.09064, -0.056804337, 0.15158364, -1401434.4, -77777.79, 0.0000106646075, 9.99912, 9.999855 
5.5002177e+1, 1.7493753e+2, -1059013.0, -1161641.4, 22220.777, -0.016824188, 0.34411186, -1054408.5, 171230.0, 0.000000007551507, 10.001166, 9.999845 
5.500222e+1, 1.8493737e+2, -1001222.3, -1193849.0, -19740.816, -0.03963561, 0.3967148, -999220.06, 128421.164, 0.0, 10.001374, 9.998851 
5.5001116e+1, 1.9493486e+2, -1145547.3, -1219647.8, -8402.132, -0.13486215, 0.2336116, -1144606.5, -114940.66, 0.0, 9.999742, 9.998787 
5.500105e+1, 2.0493382e+2, -1086209.3, -1107951.0, 9949.837, -0.15112945, 0.24184364, -1082343.3, -150665.94, 0.0, 9.99934, 9.999069 
5.5002075e+1, 2.1493408e+2, -855624.5, -953184.0, 41361.69, -0.08571792, 0.33273682, -840449.2, -6771.243, 0.0, 10.000275, 9.99901 
5.5002177e+1, 2.249338e+2, -690208.56, -765664.44, 23192.46, -0.07738362, 0.38330284, -683650.06, 52029.71, 0.0, 10.0005, 9.999516 
5.500135e+1, 2.3493284e+2, -675072.2, -718235.6, 49883.508, -0.124004364, 0.30901194, -642301.94, -4617.584, 0.0, 9.999972, 9.999428 
5.5001086e+1, 2.449314e+2, -669285.75, -802596.5, 36223.734, -0.11850595, 0.28954455, -660078.75, -120382.33, 0.0, 9.999947, 9.998173 
5.500153e+1, 2.5492918e+2, -520989.66, -687316.06, 20870.129, -0.04837514, 0.22136074, -518410.9, -76692.38, 0.0, 10.000312, 9.9981165 
5.5001837e+1, 2.649274e+2, -356124.2, -487459.44, 17322.36, 0.000044707227, 0.20060511, -353877.9, -10142.252, 0.000000016276152, 10.000473, 9.998745 
5.500212e+1, 2.749259e+2, -308093.03, -426372.34, 44766.117, 0.022942562, 0.14633489, -293060.56, -47311.93, 0.00000094951764, 10.000167, 9.9986515 
5.500087e+1, 2.8492528e+2, -242157.9, -316908.7, -11620.819, -0.02927535, 0.22049397, -240393.0, -92638.16, 0.0000068871877, 9.999861, 9.998862 
5.4998136e+1, 2.949253e+2, -215291.02, -261536.16, 16990.502, -0.15717149, 0.30124784, -209719.84, -159961.25, 0.00003070153, 9.999378, 9.998813 
5.499774e+1, 3.0492494e+2, -88934.04, -31290.178, -26884.77, -0.008406358, 0.3247168, -20697.713, -20697.713, 0.00013855331, 9.999319, 10.000087 
5.4997325e+1, 3.1492427e+2, -108138.73, -110230.195, -19817.082, 0.15176737, 0.21853615, -89339.805, -89339.805, 0.0004144919, 9.999413, 9.9995 
6.4999914e+1, 1.2493924e+2, -1635233.4, -1748622.8, -6067.0464, -0.20757134, 0.25685275, -1634909.6, 80699.79, 0.0019834668, 10.000745, 9.999407 
6.500494e+1, 1.3493794e+2, -1724765.0, -1696453.3, -1585.555, 0.091173455, 0.119673714, -1696364.8, -78745.65, 0.001149572, 9.999338, 9.999766 
6.5006334e+1, 1.4493582e+2, -1696840.9, -1741180.1, -91157.8, 0.21299508, -0.013246958, -1625195.6, -105554.66, 0.00048384682, 9.999326, 9.998771 
6.500201e+1, 1.5493529e+2, -1354802.3, -1534146.9, -64839.4, -0.031205514, 0.025726099, -1333816.1, 87835.24, 0.00011744106, 10.001049, 9.998684 
6.5000534e+1, 1.64936e+2, -1182829.1, -1301377.4, 65000.508, -0.115832575, 0.19031273, -1154134.5, 169514.2, 0.000008467286, 10.001121, 9.9995775 
6.5002286e+1, 1.7493734e+2, -1348602.5, -1333099.3, 26261.703, -0.021133985, 0.33426556, -1313469.1, -87829.72, 0.000000004638606, 9.999329, 9.999548 
6.5002686e+1, 1.8493694e+2, -1329158.5, -1333638.4, -14547.73, -0.0037226286, 0.37248227, -1316679.3, -189034.45, 0.0, 9.999048, 9.999008 
6.5001607e+1, 1.9493476e+2, -1060167.6, -1161567.4, -14919.377, -0.07498358, 0.22517563, -1058018.1, -28351.91, 0.0, 10.000252, 9.99894 
6.500143e+1, 2.0493405e+2, -906018.06, -967823.8, 34758.883, -0.08733675, 0.23626348, -890411.06, 41262.508, 0.0, 10.000335, 9.999561 
6.500215e+1, 2.149347e+2, -993376.5, -963201.7, 38974.273, -0.037228595, 0.31760493, -936496.5, -102827.984, 0.0, 9.999084, 9.999517 
6.5002203e+1, 2.2493452e+2, -886458.75, -851597.44, 49392.293, -0.045816686, 0.34813157, -816650.4, -80981.94, 0.0, 9.999112, 9.999595 
6.5001565e+1, 2.3493336e+2, -597205.4, -669549.44, 26072.31, -0.11450727, 0.24377084, -588788.4, 48886.258, 0.0, 10.000453, 9.999529 
6.500155e+1, 2.4493183e+2, -532464.8, -735607.25, 33933.17, -0.1035118, 0.21153243, -526946.5, 12740.775, 0.0, 10.000872, 9.998207 
6.5002257e+1, 2.549298e+2, -512780.44, -679059.56, 46369.14, 0.0028559915, 0.15908645, -500723.97, -59015.965, 0.0, 10.000342, 9.998178 
6.5002435e+1, 2.6492813e+2, -442210.94, -503611.25, 75358.33, 0.05596901, 0.13867877, -391539.25, -47815.26, 0.00000000394634, 9.999775, 9.998974 
6.500209e+1, 2.7492672e+2, -416974.2, -445913.9, 66940.8, 0.056989893, 0.07406146, -362957.22, -117221.57, 0.0000007712445, 9.999299, 9.998923 
6.500067e+1, 2.8492653e+2, -310737.8, -330901.5, 38136.313, 0.003124767, 0.16294588, -281373.22, -133634.94, 0.000006042053, 9.999312, 9.999027 
6.4998335e+1, 2.949272e+2, -155924.92, -203721.8, 21442.1, -0.077111006, 0.2931576, -147715.75, -97980.21, 0.000026519589, 9.999685, 9.999048 
6.499795e+1, 3.0492616e+2, -40095.457, -63182.906, 4559.2495, 0.06509966, 0.25566417, -39227.72, -39227.72, 0.00012024143, 9.999884, 9.999605 
6.49974e+1, 3.1492516e+2, -27445.295, -35173.387, -30425.842, 0.21701668, 0.17682423, -639.1151, -639.1151, 0.00036921015, 9.999787, 9.99986 
7.500207e+1, 1.2493407e+2, -1605290.6, -1692902.4, -112103.305, -0.14644065, -0.022596925, -1528738.3, 186921.97, 0.0018629195, 10.000785, 9.999764 
7.5003934e+1, 1.3493684e+2, -1681216.3, -1618080.3, -49563.73, 0.015836312, 0.1936145, -1590885.1, 26749.176, 0.0010666472, 9.999389, 10.000281 
7.500496e+1, 1.4493679e+2, -1608330.0, -1548014.4, -42203.953, 0.09934391, 0.17497498, -1526300.5, -6664.4863, 0.0004391749, 9.999288, 10.0001135 
7.500293e+1, 1.5493791e+2, -1257741.9, -1343306.1, 16400.33, -0.08470364, 0.24638167, -1254706.1, 166919.89, 0.00010226521, 10.001083, 9.999984 
7.500189e+1, 1.649382e+2, -1241768.6, -1408645.9, -16163.717, -0.12760414, 0.33612975, -1240217.5, 83408.17, 0.000007138289, 10.001062, 9.998865 
7.500202e+1, 1.7493674e+2, -1405919.5, -1445390.6, -30928.213, -0.016756678, 0.27197415, -1388966.6, -163322.81, 0.00000003688298, 9.999298, 9.998792 
7.500232e+1, 1.8493558e+2, -1318750.4, -1295411.9, 16537.883, 0.02277264, 0.2572888, -1286840.8, -159183.6, 0.0, 9.998972, 9.999311 
7.5002813e+1, 1.9493479e+2, -1042803.44, -1114979.6, 42350.164, -0.014202789, 0.2172257, -1023250.8, 6414.4565, 0.0, 10.000207, 9.999284 
7.500286e+1, 2.0493472e+2, -889107.8, -909921.3, -22767.775, -0.0074167047, 0.2514473, -874481.1, 57183.88, 0.0, 10.000237, 10.000004 
7.500228e+1, 2.149351e+2, -977641.56, -907170.6, 3554.4722, 0.03567371, 0.25748888, -906991.8, -73332.72, 0.0, 9.998977, 9.999956 
7.5001836e+1, 2.2493446e+2, -921618.0, -897871.1, 88528.8, -0.022256212, 0.23401268, -820423.06, -84760.62, 0.0, 9.998997, 9.999331 
7.500158e+1, 2.3493266e+2, -635387.9, -720379.25, 91360.664, -0.1892109, 0.0920425, -577123.2, 60553.56, 0.0, 10.000323, 9.999246 
7.500218e+1, 2.4493185e+2, -491135.4, -632463.0, 2592.9878, -0.15526828, 0.10612238, -491087.84, 48595.313, 0.0, 10.000797, 9.998947 
7.500376e+1, 2.5493178e+2, -479155.0, -585124.9, 38619.94, 0.0883956, 0.17343588, -466573.9, -24889.725, 0.0, 10.000231, 9.998878 
7.500306e+1, 2.6493084e+2, -448973.06, -497777.56, 45925.734, 0.11177924, 0.19021814, -421369.13, -77676.32, 0.00000000015133415, 9.9997, 9.999046 
7.500013e+1, 2.7492902e+2, -429810.84, -445667.53, 66352.22, -0.10368224, 0.073632464, -370914.97, -125205.69, 0.00000065427645, 9.9991865, 9.998978 
7.499931e+1, 2.8492856e+2, -313321.5, -331736.6, 40830.813, -0.09899604, 0.13372935, -280672.94, -132958.97, 0.0000058927376, 9.999287, 9.999037 
7.5000525e+1, 2.94929e+2, -164367.63, -206366.31, 49325.695, 0.13303946, 0.23635031, -131757.31, -82044.95, 0.000025865007, 9.999601, 9.999081 
7.4999654e+1, 3.049266e+2, -86466.21, -140183.2, -1820.256, 0.21621211, 0.08957863, -86404.6, -86404.6, 0.00011203884, 9.999818, 9.999095 
7.49954e+1, 3.1492558e+2, -16874.783, 24530.3, 15294.007, -0.026585886, 0.060027283, 29566.871, 29566.871, 0.00034091447, 9.999635, 10.000334 
8.500374e+1, 1.24933116e+2, -1756191.9, -1765239.1, 33695.656, 0.008911154, -0.039695043, -1726717.6, -11047.279, 0.0017451695, 9.999763, 9.999746 
8.500371e+1, 1.3493668e+2, -1464061.5, -1484513.1, 15924.675, 0.00060589716, 0.23644865, -1455362.1, 162274.92, 0.0009891815, 10.000777, 10.000514 
8.50045e+1, 1.4493665e+2, -1361842.6, -1401863.0, 32232.584, 0.059699416, 0.19332196, -1343914.1, 175724.0, 0.000399723, 10.000838, 10.0003805 
8.500378e+1, 1.5493797e+2, -1394754.1, -1381507.8, -18467.848, -0.04515741, 0.2598802, -1368511.4, 53113.52, 0.00008899464, 10.000019, 10.000236 
8.5003066e+1, 1.649382e+2, -1379057.1, -1465986.1, -68997.69, -0.05695827, 0.32754692, -1340975.1, -17351.078, 0.000006071428, 10.000075, 9.998954 
8.500257e+1, 1.7493635e+2, -1164616.9, -1317106.0, -47506.95, 0.03822856, 0.21850044, -1151027.5, 74617.55, 0.000000076650345, 10.000898, 9.998905 
8.500244e+1, 1.8493539e+2, -1067996.4, -1141361.6, 66935.734, 0.06886524, 0.20295991, -1028350.7, 99305.586, 0.0, 10.000544, 9.999617 
8.500277e+1, 1.9493546e+2, -1216852.3, -1166793.8, 66490.73, 0.03647587, 0.21955335, -1120777.4, -91121.03, 0.0, 9.998867, 9.999576 
8.500274e+1, 2.0493557e+2, -1125707.5, -1013965.1, 11113.38, 0.04820515, 0.25178838, -1012870.56, -81216.68, 0.0, 9.998585, 10.000081 
8.500216e+1, 2.1493542e+2, -868093.8, -847628.44, -19741.105, 0.09766289, 0.20426919, -835625.56, -1974.0555, 0.0, 9.999711, 10.000011 
8.5001856e+1, 2.2493468e+2, -803887.1, -851190.56, 87881.92, 0.044403408, 0.17117333, -736529.9, -873.3403, 0.0, 9.999862, 9.999227 
8.5001963e+1, 2.3493321e+2, -842118.06, -829772.25, 76352.51, -0.10708457, 0.07399109, -759343.56, -121673.91, 0.0, 9.998962, 9.99914 
8.50025e+1, 2.4493264e+2, -770304.06, -728375.3, -6566.0464, -0.090936236, 0.10005389, -727371.1, -187696.95, 0.0, 9.998704, 9.999291 
8.500355e+1, 2.549328e+2, -609202.7, -605912.8, -23493.24, 0.10752023, 0.15498522, -584007.0, -142335.3, 0.0, 9.999163, 9.999239 
8.5002744e+1, 2.6493216e+2, -440547.6, -503130.56, -4629.3457, 0.116455704, 0.18568979, -440207.03, -96529.69, 0.0000000019213902, 9.999761, 9.998994 
8.5000235e+1, 2.7493063e+2, -270116.9, -377454.9, -19966.818, -0.057599306, 0.10236886, -266523.03, -20830.666, 0.0000006294421, 10.000285, 9.998932 
8.499965e+1, 2.8492996e+2, -195546.0, -284697.38, -32550.906, -0.025837561, 0.1464546, -184926.1, -37226.44, 0.0000062489003, 10.000132, 9.998954 
8.500097e+1, 2.949298e+2, -172760.98, -212751.77, -56025.402, 0.2319413, 0.20170745, -133269.72, -83566.914, 0.000027811611, 9.99956, 9.999053 
8.499984e+1, 3.0492732e+2, -94327.96, -189517.56, -57009.125, 0.25934237, 0.06305278, -67657.664, -67657.664, 0.00011222166, 9.999933, 9.998717 
8.49956e+1, 3.1492653e+2, 148330.17, 124499.89, -70050.57, -0.0046539195, 0.09406617, 207471.72, 207471.72, 0.00032900518, 10.000674, 10.000516 
9.500408e+1, 1.24936506e+2, -1790861.1, -1828548.8, 34085.902, -0.00591698, 0.21302642, -1770757.0, -55118.62, 0.0016362383, 9.999728, 9.999327 
9.5003664e+1, 1.3493739e+2, -1461229.1, -1502597.4, 65659.195, -0.122246146, 0.23666093, -1413073.1, 204554.72, 0.0009229167, 10.000872, 10.000346 
9.500454e+1, 1.4493535e+2, -1416779.3, -1514929.3, -12370.197, -0.06079068, 0.036990054, -1415244.3, 104403.4, 0.00036888671, 10.000835, 9.999605 
9.500412e+1, 1.549355e+2, -1452338.8, -1504542.5, -35882.168, -0.052231647, 0.06835147, -1434069.0, -12421.488, 0.00007923838, 10.000031, 9.999386 
9.5003736e+1, 1.6493608e+2, -1322542.1, -1337291.6, -49813.023, -0.029048493, 0.17141931, -1279561.0, 44082.13, 0.0000051224774, 10.000023, 9.999863 
9.500345e+1, 1.7493628e+2, -1099192.3, -1180597.5, -1804.3867, 0.0005581068, 0.17214495, -1099152.4, 126490.14, 0.00000007826353, 10.000894, 9.999844 
9.5002604e+1, 1.8493651e+2, -1059616.4, -1110560.3, -5934.0283, 0.00030293205, 0.21562818, -1058934.3, 68706.93, 0.0, 10.000482, 9.999856 
9.500109e+1, 1.9493683e+2, -1209193.5, -1138099.1, 17354.176, -0.051696114, 0.22948839, -1134089.1, -104450.44, 0.0, 9.998806, 9.999802 
9.5000696e+1, 2.0493662e+2, -1170168.3, -1082101.5, 41174.332, -0.04432554, 0.24189284, -1065850.0, -134210.42, 0.0, 9.998473, 9.999668 
9.500134e+1, 2.149356e+2, -911614.94, -914919.1, 38231.727, 0.0142567055, 0.14349927, -874999.6, -41352.594, 0.0, 9.999605, 9.999602 
9.5001817e+1, 2.2493502e+2, -820360.1, -859839.8, 45112.57, 0.023188554, 0.14912641, -790857.7, -55205.816, 0.0, 9.999751, 9.999219 
9.500223e+1, 2.3493476e+2, -857075.6, -840636.75, 53931.074, -0.008024034, 0.17120309, -794302.4, -156646.88, 0.0, 9.998866, 9.999115 
9.500206e+1, 2.4493407e+2, -784880.0, -735804.3, -1954.2045, -0.034547694, 0.18556711, -735726.6, -196065.13, 0.0, 9.998607, 9.999287 
9.5001256e+1, 2.5493273e+2, -620038.44, -614173.94, 10668.692, -0.0717974, 0.08995937, -606041.9, -164370.16, 0.0, 9.99909, 9.999222 
9.500116e+1, 2.649319e+2, -460973.97, -527396.06, 3375.7764, -0.047665928, 0.10708822, -460802.8, -117123.2, 0.0000000017799018, 9.999693, 9.998855 
9.500191e+1, 2.749314e+2, -298000.97, -406638.03, 11263.572, 0.048993558, 0.14107263, -296845.44, -51158.668, 0.0000005677249, 10.000165, 9.998786 
9.500128e+1, 2.8493074e+2, -217423.89, -318061.66, -67431.99, 0.092169434, 0.20294449, -183605.61, -35910.25, 0.0000064583187, 10.000081, 9.998747 
9.4999236e+1, 2.9492968e+2, -204085.78, -254766.3, -54754.016, 0.06479806, 0.18604203, -169092.55, -119385.05, 0.000029725905, 9.9994545, 9.9988165 
9.499807e+1, 3.0492827e+2, -112034.85, -212398.44, -32925.332, 0.0599285, 0.17446649, -102197.56, -102197.56, 0.0001135958, 9.999878, 9.998578 
9.4997096e+1, 3.1492814e+2, 114503.91, 84114.53, 1816.6506, 0.010143532, 0.28384736, 114612.12, 114612.12, 0.00032168903, 10.000544, 10.000299 
1.0500516e+2, 1.2493784e+2, -1570202.8, -1755991.3, 65124.418, 0.06479052, 0.2580833, -1549648.6, 165975.63, 0.0015480418, 10.001364, 9.999048 
1.0500372e+2, 1.3493797e+2, -1575695.4, -1574284.1, 41643.992, -0.15501687, 0.22490305, -1533339.8, 84281.79, 0.00087241904, 10.000147, 10.000211 
1.0500448e+2, 1.4493579e+2, -1609721.8, -1592536.1, 18158.148, -0.07228356, 0.009379308, -1581040.3, -61397.96, 0.0003471946, 9.999469, 9.999719 
1.0500446e+2, 1.549357e+2, -1525175.8, -1539571.1, 33145.098, 0.016206536, 0.015923712, -1498455.8, -76812.266, 0.000073446034, 9.999532, 9.99939 
1.0500403e+2, 1.6493623e+2, -1381235.0, -1336450.9, 85404.34, 0.032391947, 0.10075772, -1270551.9, 53086.9, 0.000004420773, 9.999511, 10.000104 
1.0500341e+2, 1.7493668e+2, -1304247.5, -1256019.8, 52709.313, -0.009461773, 0.1017187, -1222170.3, 3465.0286, 0.000000050630582, 9.999398, 10.000041 
1.050025e+2, 1.8493715e+2, -1168709.5, -1149333.8, 4942.637, -0.011645712, 0.15407453, -1148145.8, -20514.64, 0.0, 9.999684, 9.999968 
1.0500118e+2, 1.9493775e+2, -1000373.06, -1022902.0, -11765.882, 0.01597759, 0.1842262, -995348.75, 34276.79, 0.0, 10.000195, 9.999913 
1.0500058e+2, 2.0493755e+2, -908590.94, -980405.3, 78824.914, 0.01034937, 0.20175225, -857880.06, 73746.71, 0.0, 10.000379, 9.999445 
1.0500076e+2, 2.1493632e+2, -855343.25, -910065.3, 62760.52, -0.020792237, 0.104066506, -814238.94, 19398.318, 0.0, 10.000095, 9.999393 
1.0500135e+2, 2.249357e+2, -811165.3, -872575.5, 59559.68, 0.0030160751, 0.12440731, -774861.75, -39218.215, 0.0, 9.999876, 9.999088 
1.0500249e+2, 2.3493564e+2, -743519.8, -799378.8, 34369.535, 0.09823198, 0.18324526, -727162.5, -89515.72, 0.0, 9.999706, 9.9990015 
1.0500229e+2, 2.4493496e+2, -585205.6, -617688.94, 44941.7, 0.06995156, 0.19741616, -553660.8, -14008.255, 0.0, 9.999887, 9.999479 
1.05000794e+2, 2.5493348e+2, -420572.84, -494134.0, 49118.664, -0.08438139, 0.06650529, -395990.13, 45672.707, 0.0, 10.000376, 9.99942 
1.0500085e+2, 2.6493257e+2, -408042.2, -515193.38, 45442.863, -0.060922496, 0.07537476, -391365.38, -47694.043, 0.00000000014537505, 10.000135, 9.998717 
1.05002694e+2, 2.7493212e+2, -447489.47, -494925.97, 24868.422, 0.16622472, 0.13026802, -436842.13, -191162.36, 0.00000042821608, 9.999227, 9.998627 
1.05001934e+2, 2.8493142e+2, -320800.1, -350955.47, -351.4854, 0.1971671, 0.18755041, -320796.0, -173107.27, 0.0000059800022, 9.999274, 9.99892 
1.0499852e+2, 2.949304e+2, -83785.04, -181650.66, 11423.2, 0.020912616, 0.1499116, -82469.375, -32770.29, 0.000029321069, 10.000199, 9.998967 
1.04997665e+2, 3.049295e+2, -2732.388, -175122.95, 85717.945, 0.0016633824, 0.19238473, 32633.809, 32633.809, 0.000109980174, 10.000706, 9.998429 
1.0499901e+2, 3.1492898e+2, 106232.234, 36623.484, 76057.67, 0.15476026, 0.2758921, 155070.64, 155070.64, 0.0003078243, 10.000683, 9.999901 
1.1500605e+2, 1.24936916e+2, -1577381.4, -1783346.3, -15818.406, -0.058885697, 0.086014, -1576173.5, 139456.5, 0.0014882531, 10.00141, 9.998841 
1.1500348e+2, 1.3493834e+2, -1576863.6, -1584739.5, 2797.8616, -0.22924854, 0.1961315, -1575970.9, 41648.0, 0.000840427, 10.000181, 10.00012 
1.15004025e+2, 1.449379e+2, -1551037.4, -1457745.8, 4431.3506, -0.10219684, 0.10977687, -1457535.8, 62087.26, 0.00033535642, 9.999409, 10.000675 
1.1500419e+2, 1.5493861e+2, -1455567.0, -1395971.6, 53157.41, -0.002357234, 0.099381514, -1364829.9, 56782.742, 0.0000716502, 9.999547, 10.000361 
1.1500351e+2, 1.649387e+2, -1419304.5, -1415098.1, 69718.22, -0.007155087, 0.117428206, -1347451.4, -23840.572, 0.0000041980056, 9.999498, 9.999577 
1.1500216e+2, 1.7493747e+2, -1338723.3, -1327487.6, 60630.855, -0.10939695, 0.0013862755, -1272214.9, -46590.625, 0.000000024917117, 9.999397, 9.99955 
1.1500189e+2, 1.8493728e+2, -1188100.4, -1165478.4, 12490.713, -0.07002431, 0.016849121, -1159938.4, -32311.975, 0.0, 9.99958, 9.999912 
1.1500257e+2, 1.9493811e+2, -1009452.3, -1031435.75, 20947.041, 0.100045, 0.07614267, -996788.25, 32829.496, 0.0, 10.000147, 9.999881 
1.1500198e+2, 2.0493825e+2, -929169.6, -998746.06, 55377.69, 0.08332815, 0.13188308, -898559.75, 33056.01, 0.0, 10.000273, 9.999372 
1.15e+2, 2.1493739e+2, -877978.3, -929636.06, 62437.707, -0.13411064, 0.07934754, -836238.0, -2614.5952, 0.0, 9.999973, 9.999321 
1.1500009e+2, 2.2493663e+2, -847749.06, -918631.5, 41265.06, -0.13453384, 0.100936554, -828794.7, -93162.45, 0.0, 9.999752, 9.99883 
1.15002334e+2, 2.3493576e+2, -776821.6, -842535.06, 42113.336, 0.08216877, 0.10121859, -756264.0, -118619.89, 0.0, 9.999588, 9.998764 
1.1500284e+2, 2.4493527e+2, -574736.56, -568438.7, 50814.195, 0.107319884, 0.12648655, -520675.97, 18971.934, 0.0, 9.99978, 9.9998665 
1.15001686e+2, 2.5493497e+2, -410893.1, -445491.8, 76946.09, -0.06232618, 0.079114996, -349325.7, 92319.734, 0.0, 10.000257, 9.99981 
1.1500146e+2, 2.649342e+2, -426014.1, -543246.6, 507.5901, -0.041524533, 0.08969443, -426011.88, -82359.06, 0.0, 10.000091, 9.998552 
1.15002215e+2, 2.7493277e+2, -472241.75, -527579.5, 6490.7695, 0.16416903, 0.065103, -471490.63, -225818.42, 0.0000002594802, 9.999134, 9.998456 
1.1500118e+2, 2.8493202e+2, -292778.66, -273300.47, 24051.008, 0.16450313, 0.09401481, -257091.52, -109410.9, 0.000005001763, 9.999203, 9.999487 
1.1499837e+2, 2.949318e+2, -73773.54, -125964.734, 60797.64, -0.050893165, 0.09141294, -33707.72, 15970.591, 0.000026475647, 10.000056, 9.99942 
1.1499823e+2, 3.049309e+2, -21128.277, -194629.69, 82764.66, -0.041722693, 0.121643975, 12019.613, 12019.613, 0.000100772006, 10.000645, 9.998318 
1.1500051e+2, 3.1492904e+2, 51172.277, -49947.254, 111783.086, 0.16666763, 0.068596266, 123298.08, 123298.08, 0.00028477798, 10.000573, 9.999356 
1.2500693e+2, 1.2493748e+2, -1866448.1, -1885042.1, 25489.152, 0.0066138976, 0.029976115, -1848613.4, -132990.34, 0.0014562852, 9.999281, 9.999159 
1.2500356e+2, 1.3493921e+2, -1656907.0, -1613896.5, 8118.6733, -0.19576287, 0.16092585, -1612415.0, 5194.3247, 0.0008261713, 9.999589, 10.000206 
1.2500386e+2, 1.4493957e+2, -1504888.1, -1416641.1, 45496.13, -0.05921874, 0.14319478, -1397386.5, 122219.58, 0.00033346904, 9.999646, 10.000839 
1.2500414e+2, 1.5494066e+2, -1410139.1, -1356383.3, -176.89595, 0.034832425, 0.15227883, -1356382.8, 65210.234, 0.00007407354, 9.999781, 10.000515 
1.2500365e+2, 1.649408e+2, -1351880.4, -1406794.8, 21446.715, 0.036752895, 0.17800403, -1344497.1, -20906.09, 0.000004716059, 10.0000515, 9.999379 
1.2500247e+2, 1.7493947e+2, -1222333.6, -1298281.3, 12872.999, -0.05369482, 0.07478561, -1220211.0, 5394.6084, 0.000000012759114, 10.000288, 9.999338 
1.2500225e+2, 1.8493877e+2, -1109616.9, -1154257.1, -3508.9773, -0.014264105, 0.06039032, -1109342.8, 18270.033, 0.0, 10.000236, 9.999664 
1.25003e+2, 1.9493875e+2, -1072337.1, -1092473.6, -37458.246, 0.15054342, 0.06280555, -1043617.6, -14005.669, 0.0, 9.999847, 9.999604 
1.2500238e+2, 2.0493872e+2, -1007031.06, -1038228.94, 5729.0986, 0.13155727, 0.11642282, -1006012.25, -74400.43, 0.0, 9.999748, 9.999353 
1.2500043e+2, 2.1493846e+2, -899157.1, -941144.94, -7560.764, -0.073279314, 0.12517942, -897837.1, -64222.6, 0.0, 9.999837, 9.999305 
1.2500034e+2, 2.2493766e+2, -827972.25, -899023.5, 10135.195, -0.08061349, 0.13995269, -826554.75, -90931.53, 0.0, 9.999839, 9.998915 
1.2500226e+2, 2.3493624e+2, -748187.5, -815874.6, 11223.539, 0.11728087, 0.07500515, -746375.0, -108735.914, 0.0, 9.999743, 9.998858 
1.2500268e+2, 2.4493581e+2, -635550.9, -603610.0, 43117.824, 0.14263026, 0.10119759, -573600.0, -33957.242, 0.0, 9.999378, 9.999823 
1.2500179e+2, 2.5493616e+2, -632108.56, -561198.5, 13235.179, 0.006167042, 0.12500456, -558808.75, -117172.695, 0.0, 9.998759, 9.999747 
1.2500122e+2, 2.6493564e+2, -582125.1, -584014.8, -36234.39, -0.0061314995, 0.1463683, -546823.25, -203182.1, 0.0, 9.998878, 9.998848 
1.2500107e+2, 2.74934e+2, -356204.88, -434695.7, -20135.229, 0.113865085, 0.06996452, -351340.97, -105680.7, 0.00000012209664, 9.999793, 9.998762 
1.2500052e+2, 2.8493324e+2, -137868.61, -221073.8, 34505.73, 0.13023137, 0.09443675, -125421.04, 22246.43, 0.000003888246, 10.000371, 9.999279 
1.24999754e+2, 2.949333e+2, -9819.94, -115189.3, -12206.54, 0.06692502, 0.13816613, -8424.3545, 41238.023, 0.00002250982, 10.000592, 9.99923 
1.24999836e+2, 3.0493143e+2, -36940.813, -189112.95, -3519.417, 0.07826347, 0.072296456, -36859.457, -36859.457, 0.000088219014, 10.000435, 9.998487 
1.2500061e+2, 3.149298e+2, -108058.984, -160020.58, -14269.171, 0.18266602, 0.02711558, -104398.41, -104398.41, 0.00025421134, 9.999611, 9.999079 
1.3500701e+2, 1.2493941e+2, -1817164.1, -1774853.8, -10726.257, 0.01717923, 0.079226956, -1772289.9, -56685.06, 0.0014504807, 9.999248, 9.99993 
1.350034e+2, 1.3494061e+2, -1622656.1, -1551715.4, 28666.648, -0.20748371, 0.11613216, -1541579.5, 76013.1, 0.0008289551, 9.999636, 10.000605 
1.3500348e+2, 1.4494094e+2, -1551712.0, -1525630.9, 32315.78, -0.10344734, 0.11333802, -1503823.6, 15766.745, 0.0003411424, 9.999681, 10.00008 
1.3500398e+2, 1.5494183e+2, -1464096.4, -1464758.8, 17191.857, 0.0059226435, 0.17627554, -1447232.5, -25647.941, 0.00008049032, 9.999758, 9.999787 
1.3500403e+2, 1.6494255e+2, -1358172.5, -1389186.9, 16368.394, 0.04214375, 0.28853512, -1351132.0, -27552.576, 0.0000062176173, 9.999934, 9.999551 
1.3500376e+2, 1.7494269e+2, -1218336.9, -1276749.9, 37958.23, 0.0141696455, 0.31653473, -1199649.3, 25929.92, 0.000000017143847, 10.000249, 9.999496 
1.3500306e+2, 1.8494174e+2, -1151436.6, -1234653.3, -29544.877, 0.007800402, 0.29606426, -1142014.0, -14425.449, 0.0, 10.000191, 9.99914 
1.350019e+2, 1.9493966e+2, -1116641.0, -1171570.6, -38187.742, 0.019422783, 0.13978614, -1097067.4, -67458.96, 0.0, 9.9997835, 9.999093 
1.350014e+2, 2.0493895e+2, -1020936.7, -1043210.56, -4565.9946, 0.030713644, 0.15243155, -1020037.06, -88421.766, 0.0, 9.999641, 9.999373 
1.3500157e+2, 2.1493942e+2, -914730.44, -944503.94, 10943.144, 0.027825547, 0.2309708, -911141.06, -77529.76, 0.0, 9.99971, 9.999345 
1.3500172e+2, 2.2493884e+2, -814870.1, -848493.6, -6272.808, 0.042376414, 0.24446806, -813738.0, -78121.54, 0.0, 9.999731, 9.999316 
1.3500176e+2, 2.3493703e+2, -735806.06, -763057.94, 19969.494, 0.06448459, 0.09804761, -725256.7, -87624.125, 0.0, 9.99962, 9.999281 
1.3500142e+2, 2.4493647e+2, -680418.0, -675537.75, 8826.588, 0.04891246, 0.11364277, -668820.2, -129182.06, 0.0, 9.9992895, 9.99937 
1.3500072e+2, 2.5493702e+2, -682692.9, -636704.94, 4058.4229, -0.0071225017, 0.20135689, -636349.56, -194714.72, 0.0, 9.998633, 9.999288 
1.3499978e+2, 2.6493683e+2, -542509.6, -485177.25, -14231.922, -0.06685685, 0.24502105, -481838.78, -138202.22, 0.0, 9.998811, 9.999556 
1.3499875e+2, 2.7493563e+2, -322054.84, -335333.56, 26954.934, -0.13031524, 0.14000948, -300933.63, -55288.11, 0.000000046518082, 9.999675, 9.999498 
1.3499957e+2, 2.8493497e+2, -204679.39, -354991.1, 31639.65, -0.035205476, 0.18185066, -198290.95, -50640.258, 0.0000029362805, 10.000345, 9.998372 
1.3500227e+2, 2.9493463e+2, -84004.71, -253414.48, 12425.602, 0.22102061, 0.27349585, -83098.19, -33444.68, 0.000019015239, 10.000511, 9.998324 
1.3500203e+2, 3.049309e+2, -9401.047, -113987.195, -41266.668, 0.22805423, 0.04138372, 4920.4673, 4920.4673, 0.000075927965, 10.000373, 9.999025 
1.3499847e+2, 3.149312e+2, -130470.34, -177889.27, -17406.156, -0.058165587, 0.13704312, -124767.01, -124767.01, 0.0002226974, 9.999492, 9.999013 
1.4500739e+2, 1.2494101e+2, -1703147.3, -1678410.8, -8536.238, 0.117549546, 0.14912494, -1675751.0, 39840.1, 0.0014659849, 9.999867, 10.000293 
1.4500372e+2, 1.3494138e+2, -1613337.8, -1547605.8, -58709.375, -0.13223001, 0.10353774, -1513189.0, 104395.914, 0.0008466132, 9.999707, 10.000594 
1.4500374e+2, 1.449413e+2, -1581336.9, -1575864.6, -18877.05, -0.035149716, 0.07609266, -1559526.4, -39940.133, 0.00035647568, 9.999628, 9.999766 
1.4500378e+2, 1.5494207e+2, -1485675.0, -1507686.5, -27588.238, 0.021679198, 0.15713741, -1466978.3, -45395.688, 0.00008921642, 9.999745, 9.999504 
1.4500381e+2, 1.6494273e+2, -1364541.3, -1352303.5, 24018.145, 0.047771603, 0.25901866, -1333637.0, -10059.394, 0.000008328298, 9.9997225, 9.999897 
1.4500403e+2, 1.7494299e+2, -1298179.6, -1277955.9, 29389.875, 0.060475, 0.2619838, -1256987.0, -31412.244, 0.0000000715251, 9.999536, 9.999829 
1.4500351e+2, 1.8494241e+2, -1216495.6, -1275257.4, 10162.029, 0.061654102, 0.2665805, -1214787.9, -87207.23, 0.0, 9.99979, 9.9990635 
1.4500208e+2, 1.9494087e+2, -1025399.06, -1140597.0, 7346.4565, 0.035478264, 0.1779901, -1024932.44, 4664.3794, 0.0, 10.000458, 9.998998 
1.4500152e+2, 2.0494e+2, -914207.06, -1020873.0, 57208.613, 0.04140589, 0.19303644, -889327.3, 42279.168, 0.0, 10.000502, 9.999105 
1.4500181e+2, 2.149397e+2, -916218.44, -976837.94, 21143.12, 0.08294859, 0.21845192, -909572.6, -75961.586, 0.0, 9.999842, 9.999053 
1.4500178e+2, 2.2493923e+2, -815726.4, -799404.06, 27901.639, 0.09321928, 0.23671588, -778494.5, -42879.598, 0.0, 9.999525, 9.999752 
1.450014e+2, 2.3493843e+2, -711097.06, -705491.6, 27420.297, 0.074050285, 0.15262294, -680731.2, -43111.523, 0.0, 9.999596, 9.999695 
1.4500086e+2, 2.4493803e+2, -641275.1, -699297.4, 36581.523, 0.047833867, 0.18249378, -623597.4, -83973.37, 0.0, 9.999737, 9.998998 
1.450002e+2, 2.5493786e+2, -515851.72, -595877.9, 11951.387, 0.020641014, 0.23532426, -514104.97, -72475.31, 0.0, 9.999954, 9.99893 
1.449994e+2, 2.649373e+2, -359832.1, -374795.25, 26749.22, -0.03588495, 0.2510571, -339537.88, 4096.663, 0.0, 9.99996, 9.999767 
1.4499855e+2, 2.7493626e+2, -291216.34, -299705.94, 3605.9663, -0.11367367, 0.13805324, -289891.47, -44251.7, 0.00000002138944, 9.999781, 9.999706 
1.4499956e+2, 2.8493568e+2, -307422.16, -414106.6, 35293.594, -0.029103208, 0.18489471, -296803.22, -149160.1, 0.0000023054517, 9.999675, 9.998291 
1.4500245e+2, 2.9493546e+2, -205850.53, -312558.13, 46408.926, 0.239619, 0.2955181, -188490.7, -138844.75, 0.000016570593, 9.999683, 9.998306 
1.4500235e+2, 3.0493107e+2, -46438.723, -67828.84, 44712.17, 0.26109427, -0.034840595, -11160.285, -11160.285, 0.0000664134, 9.999861, 9.999577 
1.4499879e+2, 3.1493333e+2, -58689.78, -137405.34, 5655.5547, 0.016740823, 0.20743506, -58285.52, -58285.52, 0.0001967113, 9.99997, 9.999053 
1.5500733e+2, 1.2494266e+2, -1696867.0, -1692914.0, -46577.656, 0.051451195, 0.27543795, -1648270.9, 67307.2, 0.0014879738, 9.99997, 10.000155 
1.5500411e+2, 1.3494167e+2, -1645571.6, -1616690.8, -59628.32, -0.09579435, 0.14160477, -1569779.3, 47805.79, 0.0008684092, 9.999711, 10.000126 
1.5500413e+2, 1.449407e+2, -1572885.8, -1545560.6, -31337.617, 0.0055275243, 0.03914813, -1525036.8, -5443.7236, 0.00037251608, 9.999579, 9.999994 
1.5500303e+2, 1.5494145e+2, -1474322.0, -1472063.9, -8744.18, -0.06627722, 0.09467204, -1464376.1, -42790.285, 0.00009664872, 9.999705, 9.999759 
1.5500261e+2, 1.6494149e+2, -1338299.6, -1287516.8, 4102.712, -0.07826933, 0.09662064, -1287187.5, 36396.625, 0.000009881803, 9.999671, 10.000375 
1.55003e+2, 1.7494051e+2, -1272682.8, -1209748.6, 36224.184, -0.028418705, -0.070137165, -1193232.8, 32358.111, 0.00000020107916, 9.99947, 10.000334 
1.550032e+2, 1.8494084e+2, -1204186.1, -1233757.6, 22450.18, 0.022899957, -0.015716394, -1192090.1, -64502.055, 0.0, 9.999718, 9.999385 
1.5500313e+2, 1.9494237e+2, -1015926.75, -1100556.3, 48378.793, 0.06609743, 0.17079547, -993968.3, 35608.926, 0.0, 10.000379, 9.999308 
1.5500234e+2, 2.0494193e+2, -968899.8, -1112738.8, 21900.732, 0.044144593, 0.24037082, -965639.1, -34054.086, 0.0, 10.000401, 9.998529 
1.5500067e+2, 2.149393e+2, -975673.9, -1068002.6, 8898.297, -0.04593037, 0.09459476, -974824.06, -141210.6, 0.0, 9.999703, 9.998495 
1.5500014e+2, 2.2493885e+2, -805530.44, -756242.5, 18432.389, -0.051499527, 0.12396214, -750111.8, -14493.49, 0.0, 9.999421, 10.000102 
1.5500078e+2, 2.3494042e+2, -702784.7, -665504.44, 44338.71, 0.023517895, 0.23984362, -636047.0, 1553.9758, 0.0, 9.999487, 10.000026 
1.5500061e+2, 2.4494044e+2, -671280.75, -742233.6, 31923.582, 0.022210335, 0.3073794, -659032.0, -119431.07, 0.0, 9.999654, 9.99874 
1.5499978e+2, 2.549386e+2, -552814.9, -646070.1, 35010.82, -0.046861444, 0.21833052, -541133.94, -99512.445, 0.0, 9.999832, 9.998649 
1.549996e+2, 2.6493707e+2, -390390.16, -422426.5, 8245.676, -0.04167111, 0.16692363, -388392.4, -44757.305, 0.0, 9.999897, 9.999466 
1.5500006e+2, 2.7493575e+2, -334464.8, -362764.8, 12998.69, 0.031924497, 0.057004243, -329400.53, -83756.98, 0.000000019825112, 9.999664, 9.999329 
1.5500012e+2, 2.849353e+2, -261054.11, -310200.34, 24482.715, 0.02804445, 0.10076533, -250939.45, -103294.16, 0.0000019865888, 9.999639, 9.9990225 
1.5499988e+2, 2.9493564e+2, -160685.38, -199605.34, 62769.16, -0.027327752, 0.19334449, -114428.85, -64787.504, 0.000014949104, 9.999592, 9.999132 
1.5500039e+2, 3.0493185e+2, -15576.429, 15175.338, 41945.234, 0.051254097, -0.15263723, 44474.06, 44474.06, 0.000059797247, 9.9998, 10.000159 
1.5500067e+2, 3.1493613e+2, -73325.71, -132303.77, 33593.773, 0.14427868, 0.23777746, -58114.13, -58114.13, 0.00017773658, 9.999835, 9.999139 
1.6500701e+2, 1.2494255e+2, -1830760.5, -1753305.4, 29827.293, 0.08060059, 0.18917, -1743150.5, -27573.03, 0.0014964563, 9.999031, 10.000183 
1.6500425e+2, 1.3494276e+2, -1676984.0, -1654120.8, -13966.494, -0.03557317, 0.18544734, -1647504.0, -29929.828, 0.0008776996, 9.999573, 9.999939 
1.6500454e+2, 1.4494158e+2, -1558464.0, -1520629.8, 47763.62, 0.09552502, 0.06610627, -1488173.5, 31410.326, 0.00037921302, 9.999631, 10.000128 
1.6500317e+2, 1.5494174e+2, -1494757.5, -1469257.5, 29629.658, -0.0025179733, 0.049312577, -1449751.0, -28170.686, 0.00009882513, 9.999516, 9.999868 
1.6500247e+2, 1.649415e+2, -1383106.9, -1334446.5, 37517.797, -0.039307337, 0.031089075, -1314060.4, 9520.817, 0.000009884257, 9.999467, 10.000147 
1.6500247e+2, 1.7494068e+2, -1290150.9, -1241688.1, -10962.815, -0.018353341, -0.10106046, -1239323.6, -13735.183, 0.0000002904704, 9.999442, 10.000125 
1.6500275e+2, 1.8494128e+2, -1229295.0, -1211503.0, -8431.098, 0.029030856, -0.023951307, -1208142.5, -80558.64, 0.0, 9.999415, 9.999663 
1.6500331e+2, 1.9494322e+2, -1135691.1, -1124741.5, -10431.4375, 0.103213064, 0.1716605, -1118435.5, -88866.58, 0.0, 9.999417, 9.999588 
1.6500264e+2, 2.0494296e+2, -1057994.6, -1126080.5, 5844.8516, 0.07807928, 0.23440033, -1057496.6, -125922.984, 0.0, 9.999682, 9.998781 
1.6500056e+2, 2.1494037e+2, -878809.7, -992905.25, 29090.213, -0.043965884, 0.06708122, -871820.9, -38221.21, 0.0, 10.000248, 9.998751 
1.6499987e+2, 2.2493982e+2, -715447.7, -754357.44, 58534.62, -0.05240271, 0.093722284, -673219.56, 62386.19, 0.0, 10.000226, 9.999723 
1.650005e+2, 2.3494133e+2, -715233.75, -708885.5, 2430.7175, 0.05140127, 0.24153274, -708061.7, -70469.836, 0.0, 9.999578, 9.999677 
1.6500053e+2, 2.4494122e+2, -689722.56, -720311.6, 30187.982, 0.069085084, 0.3019376, -671175.75, -131582.52, 0.0, 9.9994, 9.999012 
1.6500008e+2, 2.5493932e+2, -544969.4, -605052.44, 45532.96, 0.013526284, 0.17922173, -520460.5, -78848.91, 0.0, 9.999738, 9.998967 
1.6499999e+2, 2.6493776e+2, -438872.78, -491909.22, 44013.93, 0.02325568, 0.12593223, -414005.78, -70380.24, 0.0, 9.999742, 9.999069 
1.6500029e+2, 2.749363e+2, -390364.3, -426089.25, 15379.141, 0.10813902, 0.03829098, -384655.94, -139018.5, 0.000000024295247, 9.999438, 9.998991 
1.6499992e+2, 2.8493592e+2, -302593.2, -292796.22, 51976.305, 0.07702217, 0.090081505, -245488.08, -97848.83, 0.0000019697127, 9.999207, 9.99935 
1.6499926e+2, 2.9493666e+2, -185030.89, -162960.39, 31476.008, -0.01933893, 0.19019394, -140641.25, -91010.7, 0.000013995548, 9.999218, 9.99957 
1.6500016e+2, 3.0493337e+2, -39597.375, 799.90967, 18797.914, 0.070835784, -0.12943077, 8193.779, 8193.779, 0.000055183133, 9.999603, 10.000177 
1.6500133e+2, 3.1493664e+2, -11886.462, -82203.984, -97675.96, 0.22722052, 0.16445601, 56765.816, 56765.816, 0.00016346599, 10.00013, 9.999356 
1.7500542e+2, 1.2494081e+2, -1817462.3, -1722798.1, 21029.836, -0.050824285, -0.10821659, -1718336.5, -2748.5688, 0.0014785845, 9.999018, 10.000394 
1.7500357e+2, 1.3494477e+2, -1674289.9, -1635045.1, 13844.148, -0.09300115, 0.2427997, -1630652.9, -13102.07, 0.00086354057, 9.999533, 10.000076 
1.750046e+2, 1.4494403e+2, -1565502.4, -1534961.5, 28739.154, 0.100773156, 0.16479866, -1517687.8, 1870.046, 0.00037008742, 9.999612, 10.000048 
1.7500386e+2, 1.5494293e+2, -1498229.3, -1472212.6, 40594.145, 0.08026313, 0.025989825, -1442593.5, -21027.518, 0.000094032526, 9.999496, 9.999858 
1.7500299e+2, 1.6494286e+2, -1447028.1, -1464096.1, 23360.783, 0.03314911, 0.06806477, -1430691.3, -107123.195, 0.000008393363, 9.999441, 9.999275 
1.75002e+2, 1.7494354e+2, -1358556.6, -1375313.0, 1219.9131, -0.04188649, 0.1775871, -1358468.4, -132901.53, 0.00000020811186, 9.999407, 9.999225 
1.7500174e+2, 1.8494381e+2, -1217358.4, -1179076.9, -19727.12, -0.0447009, 0.2537729, -1170730.9, -43163.71, 0.0, 9.999369, 9.999914 
1.7500217e+2, 1.9494352e+2, -1128863.3, -1088993.6, 2024.1206, 0.015434959, 0.19714823, -1088891.1, -59320.31, 0.0, 9.999324, 9.99988 
1.7500196e+2, 2.0494324e+2, -999304.2, -982240.7, 11763.084, 0.01781529, 0.18957111, -976241.06, -44669.793, 0.0, 9.999578, 9.999821 
1.7500116e+2, 2.149428e+2, -825719.2, -855283.44, 63614.06, -0.037881438, 0.13330285, -775192.3, 58378.117, 0.0, 10.000129, 9.999753 
1.750006e+2, 2.2494213e+2, -805697.6, -917112.44, 22140.893, -0.030761926, 0.15129542, -801458.94, -65881.805, 0.0, 10.000117, 9.998657 
1.7500015e+2, 2.3494105e+2, -808607.6, -875871.44, -8573.626, 0.031144923, 0.14701287, -807532.0, -169938.6, 0.0, 9.999457, 9.998589 
1.7500018e+2, 2.4494037e+2, -648778.44, -617355.2, 31087.78, 0.066836335, 0.16676837, -598234.25, -58633.348, 0.0, 9.999324, 9.999752 
1.7500071e+2, 2.5493997e+2, -512968.0, -510180.47, 71095.016, 0.07403814, 0.119499296, -440465.56, 1135.13, 0.0, 9.999616, 9.999678 
1.7500034e+2, 2.6493928e+2, -467166.4, -547210.2, 18818.248, 0.053518005, 0.13375206, -462962.97, -119356.69, 0.0, 9.99972, 9.9987 
1.7499883e+2, 2.749379e+2, -428469.5, -487369.78, 15478.9, -0.014154836, 0.09251288, -424649.4, -179028.28, 0.000000035492793, 9.999353, 9.998615 
1.7499854e+2, 2.849376e+2, -308330.53, -301609.53, 38317.465, -0.014613846, 0.17094608, -266505.47, -118881.336, 0.0000021240596, 9.999197, 9.999287 
1.7499995e+2, 2.9493847e+2, -202658.0, -173523.36, 49306.88, 0.09272707, 0.29028562, -136676.92, -87063.336, 0.000013429294, 9.999121, 9.999534 
1.7500134e+2, 3.0493554e+2, -70440.14, -63997.04, 31965.232, 0.19987532, 0.02961071, -35091.43, -35091.43, 0.000050919698, 9.999602, 9.999738 
1.7499992e+2, 3.1493527e+2, -495.05133, -28372.91, -51439.004, 0.008042285, 0.019325245, 38860.152, 38860.152, 0.00014908816, 10.000026, 9.999767 
1.8500514e+2, 1.24941714e+2, -1752220.3, -1698374.5, 55050.234, 0.007268833, -0.11763201, -1664016.4, 51561.92, 0.0014297328, 9.999491, 10.000334 
1.8500336e+2, 1.3494556e+2, -1611487.8, -1590964.4, -18547.268, -0.07539518, 0.21305123, -1580029.3, 37511.87, 0.00082590414, 9.999906, 10.000195 
1.8500458e+2, 1.4494449e+2, -1522593.4, -1542958.8, 10624.56, 0.12602825, 0.107838854, -1518059.8, 1491.8574, 0.00034715154, 10.00002, 9.999789 
1.8500388e+2, 1.549437e+2, -1426512.0, -1463239.9, -20393.723, 0.11088918, 0.02150088, -1417432.6, 4126.069, 0.0000844504, 10.000085, 9.999638 
1.8500282e+2, 1.6494407e+2, -1396105.8, -1410727.1, 7357.2666, 0.06552416, 0.10474762, -1393044.6, -69487.805, 0.000006352812, 9.999702, 9.9995 
1.8500154e+2, 1.749452e+2, -1408304.0, -1374779.4, 44493.65, -0.00027028512, 0.2368545, -1343995.3, -118445.6, 0.000000056960435, 9.998974, 9.999431 
1.8500134e+2, 1.8494517e+2, -1272034.6, -1226273.8, 104903.12, -0.00036258483, 0.28071496, -1141784.9, -14232.567, 0.0, 9.999098, 9.999719 
1.8500209e+2, 1.9494385e+2, -1041458.8, -1067523.4, 65265.727, 0.048104443, 0.1453499, -987936.94, 41628.59, 0.0, 10.000019, 9.999694 
1.8500215e+2, 2.0494342e+2, -906596.0, -900194.0, 32304.297, 0.062934846, 0.11539988, -870932.5, 60634.332, 0.0, 10.000039, 10.000162 
1.850015e+2, 2.1494377e+2, -948879.75, -874896.4, 7556.8784, 0.042944964, 0.10178816, -874132.4, -40575.227, 0.0, 9.999098, 10.000115 
1.8500073e+2, 2.2494318e+2, -989073.7, -1028319.5, 3900.542, 0.03599862, 0.11691201, -988689.75, -253126.75, 0.0, 9.998959, 9.998456 
1.8499975e+2, 2.3494142e+2, -799314.2, -894903.44, 13833.397, 0.04431672, 0.06571648, -797352.56, -159765.92, 0.0, 9.9996195, 9.998382 
1.8499987e+2, 2.4494058e+2, -575170.4, -593776.8, 82887.4, 0.08217447, 0.08664602, -501065.72, 38530.535, 0.0, 9.999871, 9.999654 
1.850012e+2, 2.549406e+2, -509313.38, -516315.03, 36533.31, 0.1652409, 0.08820391, -476113.53, -34521.04, 0.0, 9.999666, 9.999611 
1.8500082e+2, 2.6494014e+2, -456081.5, -542808.25, -7084.1553, 0.13217922, 0.1355539, -455506.66, -111910.836, 0.0, 9.999817, 9.998682 
1.8499859e+2, 2.7493897e+2, -267190.47, -409044.28, -10152.234, -0.022003235, 0.11577097, -266467.6, -20858.191, 0.000000044067633, 10.000468, 9.99862 
1.8499804e+2, 2.8493816e+2, -162257.2, -282890.66, 13272.85, -0.038106013, 0.16692866, -160814.11, -13196.248, 0.000002141611, 10.000391, 9.998855 
1.8499967e+2, 2.94938e+2, -178964.36, -216081.0, -36319.63, 0.14554277, 0.22608258, -156736.33, -107117.51, 0.000012353572, 9.999482, 9.9990835 
1.850018e+2, 3.0493572e+2, -181365.17, -160283.3, -5479.6997, 0.3247873, 0.071748026, -158944.06, -158944.06, 0.00004451732, 9.999029, 9.999346 
1.8499985e+2, 3.149351e+2, -95568.75, -34800.637, -127488.48, 0.053931434, 0.06830647, 65874.46, 65874.46, 0.00012893318, 9.99915, 10.000172 
1.9500542e+2, 1.249453e+2, -1786829.5, -1750597.8, 38987.625, 0.01565255, 0.17664382, -1725722.8, -10174.982, 0.0013506947, 9.999422, 10.000005 
1.9500327e+2, 1.3494517e+2, -1616785.5, -1583600.4, 2631.7002, -0.106590904, 0.104237095, -1583392.9, 34151.477, 0.00077082973, 9.999853, 10.000263 
1.9500405e+2, 1.4494303e+2, -1551163.9, -1596265.4, -3475.768, 0.029661087, -0.09503165, -1550897.6, -31332.574, 0.0003170448, 9.999983, 9.999447 
1.9500278e+2, 1.5494423e+2, -1455180.6, -1517288.5, -6847.412, -0.040142547, 0.052954715, -1454434.6, -32877.98, 0.000073711046, 10.000061, 9.999279 
1.9500157e+2, 1.6494527e+2, -1308741.4, -1225286.1, -30602.201, -0.06043494, 0.15993069, -1215267.3, 108278.27, 0.0000047225935, 9.999669, 10.000799 
1.9500072e+2, 1.749457e+2, -1321535.0, -1185258.8, 32133.512, -0.011940809, 0.08727, -1178061.9, 47474.33, 0.0000000036456946, 9.998929, 10.000757 
1.9500117e+2, 1.8494532e+2, -1328225.3, -1328323.8, 126275.28, 0.04269545, 0.064097255, -1201999.1, -74460.13, 0.0, 9.999026, 9.999059 
1.9500273e+2, 1.9494411e+2, -1101561.5, -1175029.5, 112699.086, 0.08227028, 0.00765411, -1019760.8, 9793.543, 0.0, 9.999941, 9.998999 
1.9500278e+2, 2.0494352e+2, -947112.0, -953824.56, -12680.978, 0.09494389, 0.012541768, -937350.7, -5790.297, 0.0, 9.999911, 9.999852 
1.9500123e+2, 2.1494332e+2, -988035.0, -926517.06, -15449.724, 0.07720571, -0.027384972, -922855.0, -89295.28, 0.0, 9.998969, 9.999823 
1.9499992e+2, 2.2494297e+2, -966281.1, -948985.44, 14807.141, 0.03606451, -0.0023083626, -940485.8, -204922.63, 0.0, 9.998827, 9.999063 
1.9499886e+2, 2.3494236e+2, -776154.8, -812649.06, 51257.75, -0.0340587, 0.0015688672, -739993.2, -102421.17, 0.0, 9.999478, 9.999012 
1.9499923e+2, 2.4494183e+2, -652633.06, -728405.25, 63003.105, 0.007392911, 0.06339068, -617002.2, -77422.766, 0.0, 9.9997635, 9.99878 
1.9500107e+2, 2.5494123e+2, -591885.4, -653223.56, 41087.426, 0.15687375, 0.090076946, -571282.94, -129696.37, 0.0, 9.999524, 9.998736 
1.9500107e+2, 2.649406e+2, -439064.66, -501628.0, 4477.399, 0.14622995, 0.14360985, -438745.84, -95152.98, 0.0, 9.9997835, 9.99899 
1.9499914e+2, 2.7493945e+2, -257039.53, -376447.25, 31084.504, -0.042625334, 0.104206346, -249432.19, -3829.6746, 0.000000036761158, 10.000407, 9.998883 
1.9499804e+2, 2.8493753e+2, -225950.27, -405860.78, -30916.9, -0.10526662, 0.07259816, -220785.58, -73163.77, 0.0000018181237, 10.000355, 9.998027 
1.9499816e+2, 2.9493535e+2, -255051.77, -345307.5, -55147.457, 0.008820454, 0.011881842, -228921.19, -179275.88, 0.000010151812, 9.99937, 9.998247 
1.9500113e+2, 3.0493402e+2, -207049.25, -207325.42, -10395.674, 0.3230728, 0.011042677, -196790.75, -196790.75, 0.00003534469, 9.999011, 9.999023 
1.9500025e+2, 3.149365e+2, -64313.676, 62066.754, -67821.37, 0.116085306, 0.34170148, 91573.58, 91573.58, 0.000103030594, 9.99904, 10.000872 
2.0500574e+2, 1.2494702e+2, -1696362.3, -1761815.6, 112172.47, 0.07633409, 0.2501047, -1612239.9, 103291.695, 0.0012481128, 10.000291, 9.999513 
2.0500378e+2, 1.3494591e+2, -1610881.6, -1598360.1, -4636.557, -0.03014298, 0.093664914, -1596830.3, 20707.488, 0.0007037624, 9.999944, 10.000141 
2.0500442e+2, 1.4494364e+2, -1608195.8, -1623831.3, 31567.338, 0.09781806, -0.10868832, -1583492.6, -63933.004, 0.00028324383, 9.999608, 9.999437 
2.0500231e+2, 1.54945e+2, -1517340.0, -1550328.5, 16890.45, -0.06466921, 0.058591243, -1510226.1, -88675.87, 0.000063005726, 9.999654, 9.9992485 
2.0500107e+2, 1.6494589e+2, -1264219.6, -1189879.5, -20601.24, -0.08241963, 0.14368759, -1184552.3, 138987.5, 0.0000035155435, 9.999914, 10.000926 
2.0500098e+2, 1.749458e+2, -1114192.5, -1073922.5, -74916.49, 0.060613386, 0.012031971, -1016482.4, 209050.58, 0.0000000004928599, 10.000298, 10.000868 
2.0500156e+2, 1.8494539e+2, -1175639.3, -1244024.0, 35055.723, 0.13622342, -0.025679182, -1160862.0, -33327.234, 0.0, 10.000028, 9.999151 
2.0500267e+2, 1.949446e+2, -1215487.6, -1221994.4, 52956.65, 0.13002917, -0.047751773, -1165684.5, -136138.78, 0.0, 9.999114, 9.999072 
2.050024e+2, 2.0494434e+2, -1098119.9, -1048242.7, -18794.287, 0.11867866, -0.0066852523, -1041953.75, -110403.19, 0.0, 9.998975, 9.999656 
2.0500076e+2, 2.1494433e+2, -918351.75, -915265.1, -36862.63, 0.110831134, -0.0027307258, -879913.5, -46362.266, 0.0, 9.999553, 9.9996195 
2.0499972e+2, 2.2494425e+2, -773288.0, -820348.06, 35522.54, 0.08107409, 0.041044008, -754209.2, -18656.45, 0.0, 9.999986, 9.999388 
2.049993e+2, 2.3494388e+2, -644192.4, -715786.9, 24974.39, 0.03206165, 0.035595194, -636341.44, 1215.0758, 0.0, 10.000226, 9.999323 
2.0499949e+2, 2.4494317e+2, -609619.75, -741294.7, 44445.594, 0.042019337, 0.080246866, -596021.8, -56457.082, 0.0, 10.000203, 9.998476 
2.0500036e+2, 2.54942e+2, -547740.6, -667134.7, 40336.37, 0.117907844, 0.080132686, -535390.75, -93811.84, 0.0, 9.99998, 9.99842 
2.050006e+2, 2.6494113e+2, -432804.63, -479769.6, 60478.563, 0.1293473, 0.118603915, -391409.66, -47822.133, 0.0, 9.999751, 9.999147 
2.0500009e+2, 2.7494016e+2, -376591.13, -413657.8, 46859.207, 0.06367753, 0.07623307, -344733.28, -99138.68, 0.00000002096579, 9.999509, 9.999047 
2.049991e+2, 2.8493816e+2, -287960.0, -472642.5, 32028.336, -0.014469186, 0.049303576, -282563.22, -134948.94, 0.0000012828043, 10.000108, 9.997681 
2.0499799e+2, 2.949358e+2, 54876.03, -228600.56, 20192.094, -0.049805705, 0.0016854795, 56307.094, 105947.47, 0.000007381431, 10.001654, 9.997941 
2.050007e+2, 3.0493432e+2, 95834.0, -85515.06, 58559.813, 0.28169957, 0.011656182, 113099.836, 113099.836, 0.00002618385, 10.001192, 9.998826 
2.0499893e+2, 3.1493717e+2, -129237.07, 22172.42, -14698.259, 0.11338249, 0.40156, 23586.072, 23586.072, 0.000078949044, 9.998661, 10.000776 
2.1500508e+2, 1.24946855e+2, -1749401.6, -1860041.1, 75639.76, -0.08559848, 0.10589403, -1711011.0, 4519.278, 0.0011286415, 10.000233, 9.998868 
2.1500461e+2, 1.3494788e+2, -1621829.1, -1630885.5, -6274.5327, 0.024869232, 0.18551143, -1618619.5, -1099.3937, 0.00062779407, 9.999979, 9.999902 
2.1500531e+2, 1.4494653e+2, -1597705.6, -1598216.0, 16970.113, 0.18637286, 0.07983417, -1580988.8, -61455.355, 0.00024660726, 9.999588, 9.999622 
2.1500206e+2, 1.5494612e+2, -1500345.6, -1519561.6, 33146.457, -0.089873895, 0.04694354, -1475442.8, -53904.54, 0.000052325075, 9.999666, 9.999454 
2.1500087e+2, 1.6494587e+2, -1348828.4, -1352793.9, -18670.494, -0.12357789, 0.064310126, -1332035.6, -8496.388, 0.000002586899, 9.999858, 9.999834 
2.1500193e+2, 1.7494547e+2, -1198780.0, -1234173.1, -47157.957, 0.0968375, 0.006211524, -1166107.5, 59432.363, 0.000000000052014764, 10.0002365, 9.999791 
2.1500213e+2, 1.8494534e+2, -1132834.3, -1135640.8, -9587.916, 0.16334304, 0.011213016, -1124547.4, 2992.3271, 0.0, 9.999937, 9.999941 
2.150015e+2, 1.949453e+2, -1163731.6, -1101771.4, 33224.43, 0.06904779, -0.020050447, -1087324.3, -57784.055, 0.0, 9.999055, 9.999926 
2.1500066e+2, 2.0494586e+2, -1118915.5, -1067906.1, -10072.344, 0.02020866, 0.06358793, -1065989.3, -134452.1, 0.0, 9.998873, 9.999569 
2.1499968e+2, 2.1494678e+2, -942637.25, -936680.4, -3995.9397, 0.019504786, 0.16870563, -934675.0, -101142.51, 0.0, 9.999426, 9.999531 
2.1499969e+2, 2.2494689e+2, -792715.94, -823965.6, 32792.215, 0.05653149, 0.23499888, -772016.3, -36483.61, 0.0, 9.999835, 9.99943 
2.1500066e+2, 2.3494598e+2, -664736.2, -718613.9, 48634.11, 0.11902164, 0.169046, -636078.44, 1461.2131, 0.0, 10.000061, 9.999376 
2.150003e+2, 2.449447e+2, -603691.3, -713778.75, 23416.66, 0.07318214, 0.14220585, -598917.44, -59366.008, 0.0, 10.000133, 9.998702 
2.1499869e+2, 2.5494295e+2, -548477.9, -640941.4, 45084.41, -0.07643211, 0.063512646, -530134.25, -88565.31, 0.0, 9.99986, 9.998659 
2.1499899e+2, 2.6494184e+2, -443560.28, -485941.4, 38602.38, -0.035165828, 0.067088574, -420714.7, -77135.44, 0.0, 9.999684, 9.999131 
2.1500096e+2, 2.7494097e+2, -397307.38, -428873.66, 51941.26, 0.16926314, 0.036080245, -358804.22, -113217.89, 0.00000000626477, 9.99939, 9.998998 
2.1500078e+2, 2.8494e+2, -272258.56, -435059.3, 76319.99, 0.1115567, 0.0978048, -242075.95, -94479.836, 0.00000075455597, 10.000087, 9.997948 
2.149989e+2, 2.9493934e+2, 58533.902, -207788.39, 90141.33, -0.1579061, 0.19770992, 86174.96, 135779.13, 0.0000049684672, 10.0015955, 9.998114 
2.1500026e+2, 3.049366e+2, 85593.06, -111763.5, -47907.742, 0.092438735, 0.084224954, 96607.78, 96607.78, 0.000019575336, 10.001209, 9.998641 
2.1499537e+2, 3.149371e+2, -219081.45, -149123.63, -28468.963, -0.17302847, 0.25836492, -139002.58, -139002.58, 0.00006230811, 9.998592, 9.999639 
2.2500585e+2, 1.24946885e+2, -1760522.6, -1853883.5, 27017.668, -0.011108242, 0.09619404, -1753267.8, -37736.445, 0.0009987325, 10.000086, 9.998982 
2.250049e+2, 1.3494837e+2, -1660588.5, -1619217.9, -97053.086, 0.08564941, 0.19495036, -1540670.3, 76847.83, 0.0005469882, 9.9996, 10.000149 
2.2500528e+2, 1.4494817e+2, -1592296.1, -1560468.5, 9320.276, 0.23860167, 0.17241184, -1557940.0, -38419.902, 0.00020906689, 9.999472, 9.999949 
2.2500248e+2, 1.5494756e+2, -1445691.5, -1456002.5, 10769.822, -0.017365102, 0.092040375, -1438906.8, -17382.242, 0.000042237294, 9.999887, 9.999789 
2.2500136e+2, 1.6494705e+2, -1365102.3, -1401175.9, 8377.788, -0.057450242, 0.08349535, -1363251.5, -39723.438, 0.0000020119714, 9.9999275, 9.999457 
2.2500199e+2, 1.7494626e+2, -1328176.8, -1342084.3, 2213.8508, 0.11958294, 0.023989439, -1327832.9, -102298.24, 0.0, 9.999549, 9.999374 
2.2500192e+2, 1.8494612e+2, -1147269.1, -1124873.5, 62721.727, 0.16375266, 0.042153813, -1072357.8, 55177.133, 0.0, 9.999758, 10.000102 
2.2500117e+2, 1.9494659e+2, -953437.7, -983070.94, 29023.29, 0.068840526, 0.045278944, -935667.75, 93862.055, 0.0, 10.000436, 10.000077 
2.2500025e+2, 2.0494711e+2, -904537.1, -976280.0, -19127.56, 0.022466123, 0.12494212, -899756.1, 31770.492, 0.0, 10.000385, 9.999481 
2.2499917e+2, 2.1494743e+2, -938000.44, -945524.94, -34256.887, 0.030016808, 0.17981905, -907299.8, -73772.086, 0.0, 9.999497, 9.999446 
2.2499952e+2, 2.2494741e+2, -866746.56, -842343.1, 48156.668, 0.0899248, 0.22831534, -804866.44, -69337.66, 0.0, 9.999245, 9.999593 
2.2500123e+2, 2.3494682e+2, -721106.75, -726100.7, 45971.227, 0.20326851, 0.17723024, -677564.75, -40033.23, 0.0, 9.99959, 9.999553 
2.25001e+2, 2.4494569e+2, -657499.94, -731116.1, 28414.229, 0.1572324, 0.15326619, -647808.5, -108267.51, 0.0, 9.999727, 9.99878 
2.2499876e+2, 2.5494385e+2, -563352.7, -644182.4, 10638.791, -0.04009825, 0.05870549, -561975.9, -120416.56, 0.0, 9.999725, 9.998712 
2.2499892e+2, 2.6494268e+2, -429036.3, -493116.56, 26980.377, -0.013930985, 0.061200537, -419189.56, -75618.82, 0.0, 9.999846, 9.999004 
2.2500132e+2, 2.7494195e+2, -282495.94, -385372.7, 6704.559, 0.23356064, 0.055602223, -282060.84, -36483.004, 0.00000000006385136, 10.000227, 9.998896 
2.2500147e+2, 2.8494132e+2, -209135.22, -343424.88, 84750.836, 0.17166027, 0.12891875, -168154.52, -20571.32, 0.00000032397858, 10.000247, 9.998503 
2.2499959e+2, 2.9494113e+2, -160772.61, -258162.86, 90867.12, -0.15248325, 0.21807808, -106375.305, -56792.023, 0.000003287384, 9.999851, 9.998604 
2.2500068e+2, 3.0493787e+2, -116960.88, -188035.64, -51972.53, 0.100051165, 0.021881804, -89537.56, -89537.56, 0.00001601569, 9.99973, 9.998823 
2.2499512e+2, 3.149377e+2, -61512.375, -144146.63, 90.588264, -0.110826895, 0.099260926, -61512.277, -61512.277, 0.000054019332, 9.999977, 9.999002 
2.3500738e+2, 1.2494701e+2, -1705245.9, -1736167.4, -18520.041, 0.06290512, 0.20419194, -1696581.4, 18954.47, 0.0008678289, 10.000081, 9.999795 
2.3500422e+2, 1.349473e+2, -1611209.9, -1528817.9, -115229.81, 0.025128732, 0.12776461, -1447641.4, 169891.61, 0.00046623294, 9.999635, 10.000764 
2.3500381e+2, 1.449483e+2, -1564421.5, -1476830.5, 8861.564, 0.11395506, 0.1635796, -1475943.0, 43578.78, 0.00017258529, 9.99937, 10.000571 
2.3500317e+2, 1.5494926e+2, -1408965.1, -1374408.9, 42333.402, 0.02942817, 0.18403031, -1345963.4, 75546.48, 0.000033446406, 9.9998665, 10.000361 
2.350021e+2, 1.6494927e+2, -1361249.9, -1375356.3, -19785.893, -0.005297122, 0.18852746, -1347297.6, -23789.928, 0.0000017722703, 9.999854, 9.999672 
2.350008e+2, 1.7494792e+2, -1314771.3, -1303948.5, 729.37726, 0.015358551, 0.051339135, -1303899.5, -78380.53, 0.0000000001389195, 9.999502, 9.999662 
2.3500054e+2, 1.8494764e+2, -1200641.9, -1208720.0, 75498.88, 0.021761378, 0.0661225, -1129074.1, -1552.8855, 0.0, 9.999647, 9.999581 
2.3500127e+2, 1.9494836e+2, -1002275.56, -1068310.1, 65438.28, 0.006116095, 0.14887245, -961996.8, 67518.55, 0.0, 10.000364, 9.999529 
2.3500068e+2, 2.04948e+2, -929268.75, -992167.25, -64368.56, 0.005751571, 0.1699025, -889077.5, 42442.35, 0.0, 10.000237, 9.999441 
2.3499882e+2, 2.1494626e+2, -962527.56, -959964.9, -53070.113, 0.017881708, 0.021448337, -908160.6, -74623.195, 0.0, 9.99934, 9.999422 
2.349988e+2, 2.249458e+2, -872617.6, -816952.56, 51254.297, 0.071424454, 0.015245298, -786461.44, -50920.633, 0.0, 9.999089, 9.999842 
2.350007e+2, 2.3494643e+2, -723596.75, -699836.94, 73646.48, 0.16069824, 0.06606061, -637118.3, 413.0182, 0.0, 9.999456, 9.9998 
2.3500113e+2, 2.4494609e+2, -674069.94, -749763.8, 15407.427, 0.16591293, 0.11247483, -671053.94, -131519.9, 0.0, 9.999656, 9.998687 
2.3500007e+2, 2.549446e+2, -588768.9, -665778.75, 23201.627, 0.088776544, 0.061519682, -582318.9, -140768.13, 0.0, 9.999592, 9.998627 
2.3499997e+2, 2.649437e+2, -454939.7, -530417.4, 27995.227, 0.07970131, 0.10417563, -445689.7, -102128.086, 0.0, 9.999779, 9.998782 
2.3500083e+2, 2.7494305e+2, -313008.56, -425539.16, 36663.254, 0.13173273, 0.13271125, -302117.5, -56547.95, 0.0, 10.000123, 9.998673 
2.3500067e+2, 2.849422e+2, -152681.06, -218205.98, 59280.195, 0.03630482, 0.15033706, -117712.29, 29862.813, 0.00000009734078, 10.000213, 9.999379 
2.3499957e+2, 2.9494116e+2, -118559.64, -152571.2, 88392.99, -0.17908157, 0.07260907, -45551.438, 4026.1729, 0.0000024854203, 9.999765, 9.999377 
2.350015e+2, 3.0493814e+2, -65758.3, -82223.32, -53019.086, 0.17775932, -0.17175905, -20336.379, -20336.379, 0.000014818684, 9.999732, 9.99955 
2.349974e+2, 3.1493908e+2, -75354.65, -163081.3, 91246.836, 0.054430205, -0.0628027, -17975.809, -17975.809, 0.00005156838, 9.999926, 9.998903 
2.4500771e+2, 1.2494737e+2, -1830363.6, -1754649.0, 187910.86, 0.1526786, 0.12518317, -1600819.9, 114709.78, 0.00074233726, 9.999072, 10.0001545 
2.4500404e+2, 1.3494806e+2, -1607522.4, -1530813.5, -14466.036, 0.05383913, 0.09520691, -1528176.1, 89347.54, 0.00038816038, 9.99969, 10.000727 
2.4500316e+2, 1.4494953e+2, -1516273.4, -1466587.9, 90408.5, 0.10256562, 0.18376781, -1397671.1, 121837.875, 0.00013769997, 9.999748, 10.000453 
2.4500369e+2, 1.5495004e+2, -1485739.4, -1427860.6, 38866.652, 0.12778865, 0.17028475, -1408342.9, 13159.329, 0.000025817635, 9.99942, 10.000202 
2.4500297e+2, 1.6494994e+2, -1372672.5, -1384485.3, -21501.066, 0.10721963, 0.1748859, -1356281.3, -32779.617, 0.0000016011192, 9.999782, 9.999655 
2.4500136e+2, 1.7494892e+2, -1137271.9, -1218195.0, -44493.277, 0.06821175, 0.07145503, -1117593.6, 107916.53, 0.0000000006420841, 10.000721, 9.999667 
2.4500081e+2, 1.8494864e+2, -1075340.9, -1175872.1, 35583.92, 0.042682264, 0.0979733, -1064020.4, 63492.59, 0.0, 10.000642, 9.999316 
2.4500129e+2, 1.9494896e+2, -1156227.1, -1171066.6, 20948.77, 0.023994602, 0.16791289, -1141422.9, -111911.58, 0.0, 9.99945, 9.999252 
2.4500066e+2, 2.0494835e+2, -1058150.4, -1049912.0, -64301.2, 0.032629587, 0.17644735, -989598.2, -58080.316, 0.0, 9.999335, 9.9994755 
2.4499916e+2, 2.149466e+2, -838680.75, -895785.4, -74803.21, 0.08460134, 0.02101374, -787165.9, 46368.555, 0.0, 10.000179, 9.999454 
2.4499902e+2, 2.2494593e+2, -679575.56, -735280.1, 44148.71, 0.12364051, -0.00030558606, -655227.7, 80311.02, 0.0, 10.000461, 9.999742 
2.4500032e+2, 2.3494627e+2, -627578.2, -662702.2, 19893.016, 0.1508787, 0.026334906, -618604.25, 18927.697, 0.0, 10.000158, 9.999715 
2.4500081e+2, 2.4494597e+2, -609566.9, -701897.2, -15511.697, 0.15659007, 0.07501166, -607030.56, -67496.76, 0.0, 10.000027, 9.998844 
2.4500047e+2, 2.5494492e+2, -503753.5, -603143.8, -13882.878, 0.15154228, 0.053019766, -501850.75, -60304.89, 0.0, 10.000093, 9.998815 
2.4500063e+2, 2.6494402e+2, -399396.63, -515092.63, 38230.895, 0.1529769, 0.09393992, -387904.94, -44348.547, 0.0, 10.0001955, 9.998693 
2.4500133e+2, 2.7494317e+2, -287147.03, -418532.6, 32945.633, 0.16645774, 0.10701021, -279348.63, -33781.84, 0.0, 10.000329, 9.998622 
2.450012e+2, 2.8494245e+2, -135727.45, -188020.42, 44350.582, 0.07397503, 0.12952773, -110389.836, 37181.285, 0.00000009803459, 10.0002365, 9.999579 
2.4500018e+2, 2.949416e+2, -77794.56, -108123.59, -6902.0264, -0.09517713, 0.04732378, -76297.73, -26726.34, 0.0000023443192, 9.999947, 9.999593 
2.4500206e+2, 3.0493847e+2, 44878.207, -31423.068, -122045.51, 0.23221354, -0.21367098, 134596.94, 134596.94, 0.000014153015, 10.000508, 9.999524 
2.4499904e+2, 3.1493977e+2, 187092.75, -58765.04, -46113.88, 0.14414604, -0.06962923, 195457.44, 195457.44, 0.00004937861, 10.001854, 9.998677 
2.5500596e+2, 1.24948174e+2, -1843761.1, -1775263.0, 176159.56, 0.0049282634, -0.12164602, -1630054.0, 85456.67, 0.00062344765, 9.999041, 10.0000305 
2.5500405e+2, 1.3495058e+2, -1647561.6, -1610017.1, 18316.016, 0.05745857, 0.07984913, -1602562.0, 14929.113, 0.0003143659, 9.999684, 10.000183 
2.5500312e+2, 1.4495173e+2, -1591181.3, -1611256.0, 60687.082, 0.08474576, 0.21612352, -1539707.1, -20224.846, 0.00010539114, 9.999702, 9.999479 
2.5500348e+2, 1.549498e+2, -1556518.3, -1565160.4, 38896.46, 0.13348353, 0.0487008, -1521703.6, -100201.125, 0.000019009012, 9.999381, 9.999274 
2.5500348e+2, 1.6494903e+2, -1397402.1, -1416083.5, 819.45905, 0.15247867, 0.041998293, -1397366.3, -73855.84, 0.0000013062046, 9.9997, 9.999477 
2.5500324e+2, 1.7494935e+2, -1157394.8, -1249439.3, 6225.4307, 0.15152736, 0.09112428, -1156975.6, 68531.59, 0.000000000635992, 10.00068, 9.999471 
2.5500235e+2, 1.8494917e+2, -1088334.8, -1185537.1, -20146.992, 0.10158627, 0.14108965, -1084324.4, 43184.88, 0.0, 10.000562, 9.99929 
2.5500074e+2, 1.9494829e+2, -1166468.3, -1174975.6, -10444.473, -0.0054974193, 0.08887795, -1159444.5, -129925.68, 0.0, 9.999369, 9.999264 
2.5499988e+2, 2.0494805e+2, -1080260.4, -1057403.9, -44113.973, -0.0050011417, 0.13315065, -1023261.8, -91740.05, 0.0, 9.999175, 9.9995 
2.5499982e+2, 2.1494828e+2, -856081.56, -899562.7, -31075.172, 0.1052632, 0.17378291, -839896.94, -6377.105, 0.0, 10.000045, 9.99949 
2.5499976e+2, 2.2494774e+2, -723654.6, -799751.2, 19705.11, 0.12524296, 0.18177396, -718854.75, 16668.488, 0.0, 10.000341, 9.999358 
2.549997e+2, 2.3494619e+2, -673522.5, -728024.94, 21526.506, 0.04582293, 0.056929786, -666045.94, -28511.746, 0.0, 10.000027, 9.99933 
2.5499967e+2, 2.4494524e+2, -594013.06, -649256.6, -26283.994, 0.014244085, 0.03732126, -583505.94, -43964.902, 0.0, 9.999942, 9.999245 
2.5499958e+2, 2.5494468e+2, -494972.56, -555796.8, -339.1148, 0.02602902, 0.024041286, -494970.66, -53424.62, 0.0, 9.999966, 9.999203 
2.5500047e+2, 2.649437e+2, -404386.4, -505361.34, 30363.6, 0.08873529, 0.03266409, -395959.25, -52403.69, 0.0, 10.000116, 9.998796 
2.5500235e+2, 2.7494222e+2, -295053.94, -411334.13, 52043.15, 0.20481175, -0.026511202, -275163.53, -29592.66, 0.0, 10.000224, 9.998725 
2.5500262e+2, 2.8494188e+2, -175844.4, -258194.0, 19205.164, 0.16217713, 0.055514093, -171585.72, -24012.92, 0.00000013920514, 10.000187, 9.999117 
2.5500095e+2, 2.9494223e+2, -132371.42, -187595.31, -8229.877, -0.04577014, 0.1392822, -131171.05, -81605.125, 0.0000022917138, 9.999809, 9.999108 
2.5500196e+2, 3.0493867e+2, -10562.084, -141759.14, -80132.96, 0.14313011, -0.10725032, 27398.35, 27398.35, 0.0000129202135, 10.000487, 9.998775 
2.5499922e+2, 3.149393e+2, 138579.7, -148429.06, 78787.625, -0.0895506, 0.052434452, 158785.42, 158785.42, 0.000045825393, 10.001803, 9.99809 
2.6500517e+2, 1.2494978e+2, -1800978.5, -1754313.0, 52500.094, 0.023766277, -0.06467646, -1720194.3, -4699.174, 0.00051409315, 9.9992895, 10.000058 
2.650042e+2, 1.3495135e+2, -1702590.9, -1677265.6, -129533.836, 0.12920378, 0.07770998, -1559777.0, 57706.41, 0.0002486299, 9.999438, 9.999852 
2.6500288e+2, 1.4495184e+2, -1597487.0, -1630401.9, -14170.759, 0.0964871, 0.16965616, -1592226.8, -72745.66, 0.00007773356, 9.999737, 9.9993305 
2.650033e+2, 1.549499e+2, -1373264.4, -1492237.5, -5316.657, 0.117678516, 0.015645506, -1373027.3, 48474.09, 0.000013419433, 10.000695, 9.999146 
2.650037e+2, 1.649493e+2, -1214671.1, -1336686.1, 18967.553, 0.148525, 0.033694677, -1211790.5, 111717.69, 0.0000010267595, 10.000993, 9.999398 
2.650041e+2, 1.7494997e+2, -1184416.8, -1272343.1, 4368.84, 0.184156, 0.12741756, -1184200.3, 41301.96, 0.0000000012219834, 10.00053, 9.999385 
2.6500294e+2, 1.8494983e+2, -1132079.5, -1187591.9, -23604.477, 0.13133848, 0.17568472, -1123399.8, 4103.9165, 0.0, 10.00018, 9.999465 
2.6500028e+2, 1.9494866e+2, -1083708.9, -1116896.6, -28793.363, -0.0037565038, 0.07954491, -1067070.0, -37555.164, 0.0, 9.999854, 9.999435 
2.6499948e+2, 2.0494822e+2, -981452.9, -1046529.5, 12643.522, 0.0048530246, 0.10948012, -979082.7, -47563.316, 0.0, 10.000009, 9.999174 
2.6500058e+2, 2.1494836e+2, -808331.1, -916879.44, -27052.947, 0.15916605, 0.17555661, -801962.5, 31556.361, 0.0, 10.000543, 9.999136 
2.650007e+2, 2.2494765e+2, -705765.5, -808948.5, -308.71088, 0.17943744, 0.1946968, -705764.56, 29759.79, 0.0, 10.000539, 9.999203 
2.649998e+2, 2.3494597e+2, -692980.5, -758444.3, -12849.072, 0.06465709, 0.074841805, -690548.9, -53011.668, 0.0, 9.999978, 9.999149 
2.6499948e+2, 2.4494493e+2, -617513.0, -661800.4, -21558.139, 0.015999645, 0.058302596, -608752.06, -69206.93, 0.0, 9.9998, 9.999221 
2.649996e+2, 2.5494432e+2, -481356.5, -549762.06, -49437.723, 0.03453403, 0.04536636, -455443.4, -13893.378, 0.0, 10.0000725, 9.999186 
2.650006e+2, 2.6494306e+2, -380289.34, -468457.22, -8451.781, 0.097307, 0.011314487, -379486.47, -35925.254, 0.0, 10.000169, 9.999027 
2.6500267e+2, 2.749411e+2, -288215.63, -375119.44, -4113.794, 0.22531755, -0.11777364, -288021.34, -42443.2, 0.0, 10.000142, 9.999007 
2.650034e+2, 2.8494105e+2, -172090.92, -299317.66, 171.65347, 0.22222504, -0.0069357683, -172090.69, -24512.836, 0.00000017298198, 10.000387, 9.998738 
2.650024e+2, 2.9494214e+2, 8607.697, -157410.84, -44798.07, 0.07438414, 0.18774502, 19924.49, 69491.83, 0.000002277503, 10.000919, 9.998789 
2.6500282e+2, 3.0493808e+2, 77085.43, -136974.78, -40535.535, 0.15546091, -0.07697641, 84504.33, 84504.33, 0.000011809922, 10.001235, 9.998462 
2.6500022e+2, 3.1493825e+2, -2895.333, -226826.58, 130542.21, -0.10998556, 0.072564185, 57120.348, 57120.348, 0.000042458643, 10.000844, 9.998025 
2.7500477e+2, 1.2495211e+2, -1785107.0, -1722213.3, 3240.753, -0.017865444, 0.2824508, -1722046.6, -6562.8286, 0.00042131313, 9.999284, 10.000285 
2.750038e+2, 1.3495053e+2, -1701851.4, -1675741.4, -120825.25, 0.108696885, 0.109270416, -1567267.9, 50231.332, 0.0001952308, 9.999442, 9.999858 
2.7500182e+2, 1.4494996e+2, -1555260.6, -1535009.6, 1484.0569, -0.019761069, 0.061490633, -1534901.5, -15397.398, 0.000056360343, 9.999702, 10.000004 
2.7500278e+2, 1.5495047e+2, -1328599.1, -1392444.4, 45618.027, -0.03568809, 0.0838072, -1304843.6, 116654.07, 0.000009372096, 10.00067, 9.999845 
2.7500334e+2, 1.6495077e+2, -1217339.4, -1332218.6, -10886.621, -0.019180221, 0.1558534, -1216316.9, 107177.68, 0.0000008660051, 10.00095, 9.999446 
2.7500337e+2, 1.7495076e+2, -1190979.5, -1273201.9, -581.5998, 0.028871253, 0.177044, -1190975.4, 34520.305, 0.000000004874734, 10.000482, 9.999399 
2.7500218e+2, 1.8495055e+2, -1124543.0, -1148260.1, -48987.574, 0.008124864, 0.20371835, -1085999.1, 41497.895, 0.0, 10.000078, 9.9997835 
2.749995e+2, 1.9495001e+2, -1071727.8, -1073112.8, -25870.736, -0.09660012, 0.1380341, -1046540.25, -17040.785, 0.0, 9.999778, 9.99977 
2.749991e+2, 2.0494887e+2, -1047532.7, -1156473.8, 20382.82, -0.05829817, 0.11646833, -1043843.94, -112334.16, 0.0, 9.999894, 9.998474 
2.7500102e+2, 2.1494676e+2, -879732.6, -1027170.6, 6663.721, 0.1216164, 0.026401715, -879432.06, -45900.83, 0.0, 10.000383, 9.998452 
2.7500144e+2, 2.2494566e+2, -730786.4, -824309.94, -33301.33, 0.17439099, 0.039682467, -720140.44, 15401.304, 0.0, 10.0003805, 9.999176 
2.7500027e+2, 2.3494543e+2, -715983.3, -772643.0, -22084.207, 0.08628173, 0.069120236, -708392.5, -70850.086, 0.0, 9.99983, 9.999127 
2.7499983e+2, 2.4494493e+2, -662254.8, -731364.44, -23251.785, 0.044190846, 0.12794697, -655160.1, -115612.96, 0.0, 9.9997015, 9.998789 
2.7500007e+2, 2.5494382e+2, -529184.0, -624232.7, -25942.666, 0.04112232, 0.10581934, -522564.25, -81005.234, 0.0, 9.999958, 9.998733 
2.750007e+2, 2.6494202e+2, -366157.6, -419639.34, -25063.377, 0.05891477, 0.026028654, -356248.13, -12674.24, 0.0, 10.000094, 9.999393 
2.7500185e+2, 2.7493963e+2, -282537.8, -336017.0, 7287.028, 0.103228986, -0.18319918, -281562.66, -35971.758, 0.00000000009324417, 10.000028, 9.99933 
2.7500325e+2, 2.8493962e+2, -194787.27, -334940.53, 5936.584, 0.13696234, -0.07217233, -194536.25, -46946.926, 0.00000023612336, 10.000342, 9.998511 
2.7500415e+2, 2.9494116e+2, -13751.992, -186252.2, -7946.9614, 0.1143939, 0.1908962, -13386.654, 36190.016, 0.0000024951785, 10.000839, 9.998631 
2.750041e+2, 3.0493686e+2, 92560.28, -91005.19, -60083.645, 0.13399807, -0.10954663, 110477.664, 110477.664, 0.0000116764495, 10.001198, 9.998783 
2.7500108e+2, 3.1493682e+2, -26.2584, -179031.2, 158953.44, -0.1747603, -0.0023621458, 92890.8, 92890.8, 0.000040637482, 10.000685, 9.998423 
2.8500426e+2, 1.24951616e+2, -1999891.6, -1796986.5, 37939.74, 0.09673672, 0.3499423, -1790124.5, -74630.3, 0.00034670465, 9.99772, 10.000511 
2.8500366e+2, 1.3495013e+2, -1724999.6, -1649359.6, -93996.39, 0.18152137, 0.15573794, -1585859.9, 31647.084, 0.00015383656, 9.999146, 10.000168 
2.8500146e+2, 1.4494939e+2, -1552240.3, -1512506.9, 42884.168, -0.01338926, 0.0669595, -1485111.1, 34401.285, 0.00004093297, 9.999639, 10.000186 
2.850028e+2, 1.5495062e+2, -1497037.8, -1450609.3, 20416.584, -0.026590317, 0.14278972, -1442908.5, -21410.4, 0.0000066741927, 9.999408, 10.000056 
2.8500327e+2, 1.64951e+2, -1440982.5, -1408638.9, -40857.83, -0.02977847, 0.19793628, -1380868.9, -57376.09, 0.00000074756446, 9.999287, 9.999727 
2.850028e+2, 1.7495036e+2, -1338868.0, -1318050.8, -39078.266, -0.013208455, 0.13283905, -1288018.8, -62520.516, 0.000000006090155, 9.999345, 9.99965 
2.8500187e+2, 1.8495002e+2, -1199861.3, -1201338.6, -57501.734, -0.00074373506, 0.14084028, -1143093.4, -15593.098, 0.0, 9.999643, 9.999621 
2.8500032e+2, 1.9494984e+2, -1033349.1, -1075198.6, -98083.23, -0.0039801053, 0.12633519, -953983.44, 75517.086, 0.0, 10.000129, 9.999584 
2.8500012e+2, 2.0494875e+2, -967218.3, -1101799.3, -14050.021, 0.036028776, 0.11313731, -965767.1, -34257.14, 0.0, 10.000386, 9.998607 
2.850013e+2, 2.1494652e+2, -883960.75, -1015122.94, 7973.312, 0.12488761, -0.0022574428, -883477.9, -49946.46, 0.0, 10.0002985, 9.998574 
2.8500158e+2, 2.249452e+2, -751904.06, -869411.7, 3109.074, 0.1583227, 0.0017484616, -751821.9, -16277.714, 0.0, 10.000396, 9.998853 
2.850009e+2, 2.3494476e+2, -612359.1, -756641.56, -34503.94, 0.13082933, 0.041947193, -604532.4, 33016.547, 0.0, 10.0007, 9.998812 
2.850007e+2, 2.4494423e+2, -505969.9, -675853.0, 884.83234, 0.11155489, 0.122168966, -505965.28, 33590.008, 0.0, 10.000843, 9.99862 
2.85001e+2, 2.5494346e+2, -409763.78, -581931.9, -7365.153, 0.10643979, 0.14613493, -409449.28, 32115.414, 0.0, 10.000852, 9.998586 
2.8500134e+2, 2.6494184e+2, -273784.75, -394736.5, 3012.0393, 0.08814776, 0.09905267, -273709.78, 69868.43, 0.0, 10.000808, 9.999224 
2.8500196e+2, 2.7493927e+2, -201133.66, -315471.66, -30488.03, 0.08907622, -0.11001882, -193512.11, 52084.652, 0.0000000018932573, 10.000647, 9.99918 
2.8500342e+2, 2.849386e+2, -210981.11, -380264.88, -8650.273, 0.12535037, -0.041341156, -210540.23, -62938.133, 0.00000028816427, 10.00039, 9.998181 
2.8500506e+2, 2.949394e+2, -113153.664, -261373.4, -54693.707, 0.159863, 0.17610581, -95156.67, -45558.348, 0.0000027347362, 10.000289, 9.998372 
2.8500485e+2, 3.0493563e+2, 3246.466, -111138.555, -111880.695, 0.1405599, -0.07057713, 71705.35, 71705.35, 0.000012525966, 10.0004635, 9.999001 
2.8500238e+2, 3.1493613e+2, -60834.707, -144856.27, 46761.496, -0.057486914, 0.07213078, -39984.188, -39984.188, 0.00004059471, 9.999985, 9.998991 
2.9500252e+2, 1.24948554e+2, -1980291.3, -1771412.4, 11860.933, 0.07225612, 0.16191918, -1770741.0, -55217.37, 0.00028489743, 9.997771, 10.000665 
2.9500353e+2, 1.3495015e+2, -1687574.8, -1575386.4, -33284.344, 0.21846278, 0.21619058, -1566254.8, 51252.113, 0.000121053716, 9.9991665, 10.000664 
2.9500148e+2, 1.4495006e+2, -1572103.5, -1556500.3, 15104.727, -0.018621886, 0.18502371, -1547301.4, -27794.72, 0.000029834508, 9.999639, 9.999889 
2.9500285e+2, 1.5495034e+2, -1522296.3, -1495602.3, 22284.764, 0.0009685359, 0.19038306, -1482973.3, -61470.402, 0.000004731658, 9.999378, 9.999761 
2.9500303e+2, 1.6495001e+2, -1415461.9, -1339986.1, -49819.355, -0.013460771, 0.16715908, -1315225.0, 8277.864, 0.00000054097734, 9.999227, 10.000221 
2.9500192e+2, 1.7494898e+2, -1306996.3, -1239840.8, -19703.48, -0.07133917, 0.007413855, -1234486.6, -8978.657, 0.0000000012704189, 9.999306, 10.000196 
2.9500166e+2, 1.849484e+2, -1259827.8, -1309890.8, -52557.504, -0.017706458, -0.0024464468, -1226645.3, -99132.9, 0.0, 9.999569, 9.998917 
2.9500222e+2, 1.94948e+2, -1095789.0, -1185105.1, -67485.125, 0.1424308, 0.034641467, -1059523.6, -30004.828, 0.0, 10.000045, 9.99887 
2.9500207e+2, 2.0494774e+2, -922466.06, -973271.2, -29251.646, 0.16689143, 0.092673235, -909126.56, 22394.469, 0.0, 10.000236, 9.999558 
2.9500097e+2, 2.1494748e+2, -840347.3, -885425.3, 19530.05, 0.035390757, 0.079529546, -833063.0, 457.3048, 0.0, 10.000134, 9.99954 
2.9500073e+2, 2.2494626e+2, -820211.6, -973398.1, 1656.4429, 0.0064575532, 0.075528584, -820193.7, -84661.98, 0.0, 10.0002365, 9.998214 
2.9500133e+2, 2.3494394e+2, -679968.4, -861253.25, -7920.4585, 0.080736026, -0.008803149, -679622.94, -42066.02, 0.0, 10.00055, 9.998163 
2.9500186e+2, 2.4494292e+2, -507760.6, -661186.9, -12694.596, 0.11389508, 0.04950186, -506717.34, 32851.43, 0.0, 10.00076, 9.998766 
2.9500213e+2, 2.549431e+2, -415558.75, -570756.75, 4907.288, 0.10094283, 0.15819907, -415403.72, 26164.654, 0.0, 10.000747, 9.99872 
2.9500222e+2, 2.649422e+2, -327198.75, -489309.97, -13888.546, 0.06629174, 0.21019396, -326017.47, 17559.096, 0.0, 10.000743, 9.998603 
2.950024e+2, 2.7494e+2, -262055.45, -412361.9, -25470.379, 0.037983563, 0.09691684, -257856.63, -12260.653, 0.0000000016821552, 10.0005245, 9.998571 
2.9500347e+2, 2.8493816e+2, -242265.81, -438709.88, -26784.676, 0.0587648, 0.10073913, -238679.27, -91064.74, 0.00000022409213, 10.000359, 9.9978 
2.9500479e+2, 2.9493672e+2, -153448.77, -337891.97, -32970.727, 0.06385633, 0.1352577, -147732.17, -98099.29, 0.0000026534976, 10.000241, 9.997881 
2.950047e+2, 3.0493414e+2, 13434.168, -80681.125, -128588.14, 0.046169218, 0.027080908, 103304.72, 103304.72, 0.00001292508, 10.00043, 9.999222 
2.9500327e+2, 3.149359e+2, -19750.984, -43185.297, 54754.777, -0.041834597, 0.2629875, 24526.299, 24526.299, 0.000040888393, 9.999911, 9.999723 
3.0500078e+2, 1.249467e+2, -1775742.8, -1689475.9, -8378.383, 0.06070534, 0.1482924, -1688669.6, 26873.771, 0.00023189843, 9.999261, 10.000513 
3.0500337e+2, 1.3494913e+2, -1664839.8, -1548802.1, -98180.22, 0.29580328, 0.2736927, -1492779.1, 124740.586, 0.000094942065, 9.999243, 10.000818 
3.050017e+2, 1.4494939e+2, -1627379.9, -1538876.1, -35650.457, 0.07933629, 0.2500626, -1526302.1, -6786.1973, 0.000021738364, 9.999096, 10.000259 
3.0500266e+2, 1.5494938e+2, -1529101.0, -1459082.1, -16177.696, 0.066960625, 0.19415474, -1455525.0, -34011.79, 0.0000030875526, 9.999167, 10.000107 
3.0500284e+2, 1.6494901e+2, -1374413.3, -1320385.6, -37560.188, 0.041894905, 0.14733429, -1301133.8, 22379.535, 0.0000002653173, 9.99949, 10.000234 
3.0500203e+2, 1.7494817e+2, -1210600.9, -1193107.4, -74646.836, -0.011784923, 0.0055620074, -1126696.6, 98820.71, 0.0, 9.999952, 10.000213 
3.0500206e+2, 1.8494771e+2, -1153044.0, -1254840.8, -72281.15, 0.041170046, 0.005836315, -1115538.8, 11981.961, 0.0, 10.0002775, 9.998961 
3.0500296e+2, 1.9494739e+2, -1045905.06, -1165900.9, -58261.758, 0.20044237, 0.04872187, -1022271.75, 7254.635, 0.0, 10.00038, 9.99886 
3.0500266e+2, 2.0494713e+2, -921306.94, -978091.56, -20497.262, 0.2089831, 0.11131611, -914681.25, 16847.414, 0.0, 10.00026, 9.999519 
3.0500117e+2, 2.1494687e+2, -877219.5, -912661.06, -76397.89, 0.060413465, 0.103329085, -816514.1, 17014.324, 0.0, 9.999908, 9.99947 
3.05001e+2, 2.2494581e+2, -826916.8, -965462.94, -49609.465, 0.022199523, 0.113631636, -810985.06, -75446.73, 0.0, 10.000142, 9.998316 
3.0500227e+2, 2.349438e+2, -611549.06, -816656.4, -29143.844, 0.1043218, 0.047734536, -607488.4, 30071.76, 0.0, 10.00097, 9.998268 
3.050029e+2, 2.4494256e+2, -503028.6, -659730.5, -24049.13, 0.1460455, 0.08127867, -499420.84, 40152.473, 0.0, 10.000822, 9.998738 
3.0500275e+2, 2.5494203e+2, -546401.7, -631289.3, -44282.72, 0.14055, 0.119906075, -527506.75, -85927.57, 0.0, 9.999858, 9.998724 
3.0500284e+2, 2.6494113e+2, -484354.53, -592216.75, 3007.91, 0.1083848, 0.18271475, -484270.72, -140682.73, 0.0, 9.999773, 9.998366 
3.0500337e+2, 2.749397e+2, -257740.2, -436625.66, -4814.114, 0.08462265, 0.16922823, -257610.75, -12008.545, 0.00000000014964384, 10.000667, 9.998335 
3.0500418e+2, 2.8493786e+2, -147622.06, -391013.38, 33282.582, 0.071566366, 0.18415137, -143152.9, 4468.9575, 0.00000013461268, 10.001018, 9.997802 
3.0500472e+2, 2.9493582e+2, -86933.77, -305214.5, 33326.234, 0.018467551, 0.15974006, -81959.03, -32313.395, 0.0000024184974, 10.000726, 9.997855 
3.0500472e+2, 3.049335e+2, 14897.399, -127487.96, -44693.125, 0.007256272, 0.0998783, 27763.467, 27763.467, 0.00001259153, 10.000635, 9.998813 
3.0500448e+2, 3.1493428e+2, 57156.54, 35553.355, 28169.506, 0.08937798, 0.27898872, 76524.39, 76524.39, 0.000039642433, 10.000245, 10.00012 
3.1499845e+2, 1.24946184e+2, -1802573.4, -1749515.6, -97638.58, -0.16860625, 0.3275668, -1674866.0, 40686.29, 0.0001887222, 9.999284, 10.000088 
3.1500268e+2, 1.349473e+2, -1687332.5, -1578102.6, -91646.71, 0.27265963, 0.34283382, -1526031.5, 91511.77, 0.00007509751, 9.999192, 10.000634 
3.1500164e+2, 1.4494754e+2, -1565569.4, -1410171.0, -49316.4, 0.12363449, 0.28073254, -1395841.6, 123696.96, 0.00001598166, 9.999079, 10.001153 
3.150019e+2, 1.5494779e+2, -1466128.8, -1328406.6, 138.70679, 0.038061343, 0.1559315, -1328406.5, 93122.81, 0.00000170519, 9.9991665, 10.001001 
3.1500247e+2, 1.6494799e+2, -1416116.5, -1398260.5, -39719.285, 0.023712771, 0.14641435, -1366478.3, -42953.633, 0.000000057148895, 9.999445, 9.999727 
3.150029e+2, 1.7494789e+2, -1251499.1, -1267116.8, -48036.85, 0.045635592, 0.13127671, -1210640.5, 14886.143, 0.0, 9.999904, 9.999729 
3.1500268e+2, 1.84948e+2, -1112740.4, -1149185.9, -81502.79, 0.047817387, 0.17464921, -1047448.0, 80077.06, 0.0, 10.00018, 9.999736 
3.15002e+2, 1.9494805e+2, -1001928.2, -1052134.9, -39993.07, 0.03554902, 0.17429313, -979812.6, 49709.777, 0.0, 10.000286, 9.999684 
3.1500155e+2, 2.0494707e+2, -1021519.06, -1148357.6, -47026.35, 0.04613725, 0.17654969, -1005985.94, -74454.36, 0.0, 10.000102, 9.998427 
3.1500143e+2, 2.1494485e+2, -977396.6, -1083433.8, -75102.766, 0.0726906, 0.08321045, -938483.7, -104929.22, 0.0, 9.999753, 9.998372 
3.15002e+2, 2.24944e+2, -783010.4, -844654.2, -30532.168, 0.08054505, 0.12552565, -770447.94, -34885.004, 0.0, 10.000012, 9.999212 
3.1500316e+2, 2.3494437e+2, -568005.9, -695185.1, 15756.896, 0.070442036, 0.21251768, -566082.75, 71475.71, 0.0, 10.000834, 9.999174 
3.1500334e+2, 2.449431e+2, -527210.3, -697373.2, -73250.7, 0.07764947, 0.20820767, -500021.9, 39547.863, 0.0, 10.000763, 9.998508 
3.150024e+2, 2.549401e+2, -580724.25, -673321.8, -69800.03, 0.0948596, 0.025372382, -543263.75, -101665.63, 0.0, 9.999728, 9.998501 
3.150028e+2, 2.6493862e+2, -476727.0, -563460.4, 23992.99, 0.09872321, 0.027505439, -470532.28, -126920.055, 0.0, 9.999718, 9.998591 
3.1500456e+2, 2.7493832e+2, -254115.14, -411068.3, 42606.28, 0.102459915, 0.10606601, -243295.2, 2320.6033, 0.00000000001473293, 10.000582, 9.998556 
3.1500515e+2, 2.849376e+2, -129320.83, -340272.78, 8938.398, 0.036481928, 0.20151497, -128942.77, 18682.057, 0.000000108201135, 10.000968, 9.998168 
3.150043e+2, 2.9493654e+2, -81242.47, -270756.84, 39753.06, -0.13864736, 0.23979554, -73241.55, -23603.057, 0.0000023186144, 10.000621, 9.998144 
3.150045e+2, 3.0493358e+2, -54472.445, -265867.06, -63837.605, -0.10916868, 0.14817102, -36690.36, -36690.36, 0.000012381474, 10.000608, 9.997875 
3.1500554e+2, 3.149312e+2, 66794.26, 57801.215, 45312.69, 0.098491274, 0.09515175, 107832.984, 107832.984, 0.000038038284, 10.000224, 10.000285 
3.2499912e+2, 1.2494506e+2, -1761911.9, -1767047.4, 25457.725, -0.0372071, 0.27297524, -1738892.8, -23333.87, 0.0001575099, 9.999692, 9.999779 
3.2500187e+2, 1.3494557e+2, -1624900.6, -1592447.9, 5770.714, 0.25377896, 0.2601829, -1591452.3, 26105.898, 0.00006189271, 9.999768, 10.000273 
3.2500082e+2, 1.4494616e+2, -1482485.8, -1378595.8, 48992.08, 0.11164985, 0.25510174, -1359136.9, 160415.06, 0.000012633238, 9.999672, 10.001094 
3.2500163e+2, 1.5494668e+2, -1369129.9, -1288124.1, 1001.031, 0.068629496, 0.16484877, -1288111.8, 133429.63, 0.0000008198343, 9.99984, 10.000965 
3.2500252e+2, 1.6494721e+2, -1382586.4, -1371613.6, -27357.303, 0.0849315, 0.1866964, -1349198.0, -25663.535, 0.000000004124255, 9.999664, 9.999789 
3.2500312e+2, 1.7494759e+2, -1355476.8, -1313691.8, -24836.195, 0.12053483, 0.21424858, -1302129.1, -76596.086, 0.0, 9.99919, 9.999748 
3.2500288e+2, 1.8494783e+2, -1207893.0, -1155530.6, -16195.55, 0.0977324, 0.2538568, -1150926.3, -23396.2, 0.0, 9.999364, 10.000073 
3.2500198e+2, 1.949478e+2, -1004691.25, -1010979.44, -39723.082, 0.02477329, 0.20948716, -967988.0, 61539.047, 0.0, 10.000107, 10.000038 
3.2500175e+2, 2.0494676e+2, -932462.7, -1112632.3, -14319.897, 0.03365987, 0.1882873, -931331.6, 204.42168, 0.0, 10.000729, 9.998373 
3.2500225e+2, 2.149445e+2, -785131.9, -995559.7, 13088.659, 0.12144664, 0.09454548, -784320.9, 49238.09, 0.0, 10.001086, 9.998333 
3.2500288e+2, 2.2494353e+2, -672818.3, -797541.25, 86929.805, 0.1376967, 0.12862705, -628195.0, 107373.44, 0.0, 10.000789, 9.999161 
3.2500356e+2, 2.3494372e+2, -711238.7, -769599.5, 38724.914, 0.08630185, 0.19876306, -691930.8, -54364.72, 0.0, 9.999868, 9.9991255 
3.2500356e+2, 2.4494255e+2, -650923.2, -751731.5, -46251.914, 0.077803224, 0.205378, -632918.1, -93342.09, 0.0, 9.999874, 9.998572 
3.2500285e+2, 2.5493994e+2, -395954.78, -575895.8, -39449.62, 0.11411765, 0.05343166, -387685.97, 53913.78, 0.0, 10.000937, 9.998593 
3.2500336e+2, 2.6493827e+2, -268349.72, -478432.97, 84833.02, 0.11507415, 0.034965925, -238371.4, 105244.34, 0.0, 10.001219, 9.998457 
3.2500514e+2, 2.749371e+2, -237420.56, -415162.5, 50068.21, 0.10331489, 0.043358404, -224287.23, 21340.277, 0.00000000010851988, 10.00076, 9.998439 
3.2500586e+2, 2.8493652e+2, -180406.45, -344330.56, 8881.22, 0.04175796, 0.15157624, -179926.69, -32291.432, 0.00000014604628, 10.000513, 9.99837 
3.2500535e+2, 2.949367e+2, -95255.42, -250872.4, 1321.989, -0.07566696, 0.28727794, -95244.19, -45606.785, 0.0000023415487, 10.000412, 9.998383 
3.2500547e+2, 3.0493373e+2, -101376.45, -296773.44, -45442.844, -0.04839404, 0.19289462, -91325.016, -91325.016, 0.000012312151, 10.000358, 9.9977665 
3.250058e+2, 3.1493062e+2, 67223.67, 81368.016, 68812.45, 0.116361886, 0.06926616, 143470.77, 143470.77, 0.000036624067, 10.000172, 10.000451 
3.350018e+2, 1.24943376e+2, -1787168.6, -1803754.0, -46387.59, 0.19158444, -0.0022729263, -1748338.3, -32775.67, 0.00013854062, 9.9996395, 9.999545 
3.3500051e+2, 1.3494411e+2, -1667433.6, -1662096.6, 9273.768, 0.10941525, 0.05399368, -1655115.1, -37552.105, 0.000055370125, 9.999721, 9.9998 
3.349989e+2, 1.4494537e+2, -1555821.0, -1519355.8, 34539.37, -0.086436205, 0.18964718, -1498532.1, 21022.932, 0.000011804474, 9.99962, 10.0001545 
3.3500144e+2, 1.5494634e+2, -1432591.0, -1412967.3, 20177.95, 0.030488255, 0.2334664, -1400342.0, 21204.844, 0.00000057438905, 9.999815, 10.000119 
3.3500263e+2, 1.6494694e+2, -1352748.9, -1299733.5, -57955.77, 0.09595773, 0.2778322, -1262511.0, 61029.76, 0.00000000201948, 9.999617, 10.000309 
3.3500233e+2, 1.7494717e+2, -1323340.9, -1242403.9, -27500.14, 0.08711434, 0.2397993, -1233944.4, -8407.046, 0.0, 9.9991665, 10.000251 
3.350022e+2, 1.849471e+2, -1235954.1, -1187135.9, -3165.6746, 0.06538706, 0.23063248, -1186931.4, -59394.64, 0.0, 9.999249, 9.999912 
3.3500257e+2, 1.9494648e+2, -1027134.94, -1038092.5, 31.325153, 0.041015785, 0.14322537, -1027134.9, 2406.9321, 0.0, 10.000026, 9.999889 
3.350029e+2, 2.0494609e+2, -878395.8, -970713.94, -14688.526, 0.05204293, 0.14373119, -876115.1, 55428.11, 0.0, 10.000604, 9.999408 
3.3500323e+2, 2.149457e+2, -735299.9, -851424.7, 39059.12, 0.0861272, 0.13198331, -723384.75, 110158.125, 0.0, 10.000916, 9.999403 
3.3500332e+2, 2.2494432e+2, -766000.3, -955082.44, 38251.48, 0.07857905, 0.12098849, -758555.1, -22999.396, 0.0, 10.000639, 9.998149 
3.3500314e+2, 2.3494181e+2, -807288.1, -924946.25, 13530.248, 0.03151662, 0.02118296, -805752.25, -168169.08, 0.0, 9.999691, 9.998138 
3.350033e+2, 2.4494095e+2, -624376.9, -686461.0, -19436.068, 0.03496151, 0.08183309, -618794.2, -79202.25, 0.0, 9.999823, 9.999047 
3.3500373e+2, 2.5494158e+2, -380230.56, -515341.0, 12322.646, 0.079271875, 0.20603657, -379115.88, 62467.93, 0.0, 10.00082, 9.9990635 
3.350042e+2, 2.6494005e+2, -313553.53, -562754.7, 53836.773, 0.05191079, 0.20972483, -302420.2, 41177.67, 0.0, 10.001178, 9.997894 
3.350047e+2, 2.7493596e+2, -294350.6, -505601.2, 46915.965, -0.049447294, -0.01972607, -284399.9, -38762.055, 0.000000000044508567, 10.000641, 9.997873 
3.350059e+2, 2.849347e+2, -170477.75, -321410.06, -7332.197, -0.036614817, 0.033236958, -170122.39, -22469.58, 0.00000018851506, 10.000491, 9.998543 
3.350075e+2, 2.9493624e+2, -89994.914, -234487.08, 12801.72, 0.05706084, 0.2980198, -88869.48, -39227.742, 0.0000023038672, 10.000369, 9.998527 
3.3500713e+2, 3.0493382e+2, -65889.01, -218949.81, -60849.133, 0.054486785, 0.22008227, -44646.617, -44646.617, 0.000011796056, 10.000344, 9.998305 
3.3500427e+2, 3.149321e+2, 57314.97, 81665.266, 116547.375, -0.1183243, 0.18851085, 186671.7, 186671.7, 0.000034748333, 10.00007, 10.000513 
3.4500253e+2, 1.2494339e+2, -1745844.3, -1784133.6, -69289.17, 0.3040237, -0.046591133, -1693103.5, 22456.543, 0.00012841672, 9.99994, 9.999528 
3.4499982e+2, 1.3494389e+2, -1632953.8, -1689467.1, -42641.08, 0.06285482, 0.020779775, -1610056.8, 7505.889, 0.00005393956, 10.000123, 9.999437 
3.4499884e+2, 1.4494509e+2, -1526627.3, -1527125.9, 51495.48, -0.058849227, 0.17918006, -1475380.5, 44175.77, 0.00001321429, 9.999931, 9.999939 
3.450019e+2, 1.5494603e+2, -1470319.6, -1461104.8, 47276.863, 0.112924434, 0.24486993, -1418211.4, 3339.1382, 0.00000089811203, 9.999694, 9.999842 
3.4500298e+2, 1.6494648e+2, -1329387.3, -1270054.8, -210.11041, 0.17679273, 0.27967647, -1270054.0, 53491.754, 0.0000000015154811, 9.999678, 10.000489 
3.4500182e+2, 1.7494644e+2, -1215538.0, -1168143.8, -18115.354, 0.10034055, 0.19378185, -1162012.8, 63529.97, 0.0, 9.999805, 10.000455 
3.4500176e+2, 1.8494631e+2, -1200467.0, -1195291.4, 27544.332, 0.08570509, 0.18045631, -1170213.5, -42670.652, 0.0, 9.9995985, 9.999695 
3.45003e+2, 1.9494583e+2, -1195242.6, -1146645.3, 3895.6191, 0.14696237, 0.13070235, -1146335.0, -116785.625, 0.0, 9.998982, 9.999655 
3.4500375e+2, 2.0494574e+2, -1057592.3, -1004685.0, 6961.565, 0.15761551, 0.15078609, -1003784.4, -72236.2, 0.0, 9.999153, 9.999871 
3.4500384e+2, 2.1494581e+2, -828997.5, -848756.0, -12299.616, 0.106215015, 0.1388857, -823100.8, 10440.622, 0.0, 10.000064, 9.999834 
3.4500387e+2, 2.2494446e+2, -753589.94, -980905.8, -13558.557, 0.06609437, 0.1239855, -752784.06, -17230.496, 0.0, 10.000855, 9.997872 
3.4500378e+2, 2.349415e+2, -560080.25, -840460.6, -8373.198, 0.04464216, 0.010097334, -559830.44, 77756.35, 0.0, 10.001515, 9.99785 
3.4500408e+2, 2.4494053e+2, -412905.8, -602624.94, -8763.743, 0.05923137, 0.08291392, -412501.88, 127095.94, 0.0, 10.0013685, 9.998874 
3.4500462e+2, 2.5494134e+2, -444099.3, -572582.1, -55130.504, 0.10753748, 0.24339147, -423686.53, 17902.51, 0.0, 10.000486, 9.998838 
3.4500504e+2, 2.6493984e+2, -442503.8, -596012.75, 10107.249, 0.072724365, 0.2528988, -441841.2, -98238.92, 0.0, 10.00018, 9.99814 
3.4500533e+2, 2.7493578e+2, -295096.88, -473806.63, 38410.496, -0.03359012, 0.0024038018, -287190.97, -41550.59, 0.0, 10.000511, 9.998149 
3.4500656e+2, 2.8493434e+2, -161483.34, -299206.06, 35809.87, -0.011073856, 0.018240318, -152728.77, -5072.955, 0.00000016974016, 10.000503, 9.998678 
3.450084e+2, 2.9493555e+2, -95408.99, -219259.66, 25668.666, 0.12685849, 0.23307753, -90299.805, -40651.9, 0.0000020169734, 10.000269, 9.998674 
3.450077e+2, 3.049336e+2, -30454.215, -180744.1, -15278.612, 0.08304059, 0.18921797, -28916.707, -28916.707, 0.0000103175025, 10.000469, 9.998522 
3.4500486e+2, 3.1493232e+2, 127404.02, 88882.07, 111282.57, -0.080192976, 0.17259653, 221080.17, 221080.17, 0.000031962787, 10.000664, 10.000268 
3.5500056e+2, 1.24945134e+2, -1743447.0, -1772055.6, -107176.52, 0.03221415, 0.14252572, -1649624.5, 65926.52, 0.00012227354, 9.999908, 9.999625 
3.549993e+2, 1.3494493e+2, -1637795.6, -1698127.3, -25319.125, -0.03423771, 0.15510005, -1628578.3, -11021.37, 0.00005490219, 10.000136, 9.999361 
3.5500014e+2, 1.4494549e+2, -1503412.6, -1483109.6, 26022.936, 0.037522797, 0.23322883, -1465328.3, 54225.664, 0.000015641235, 9.999941, 10.000245 
3.5500267e+2, 1.5494575e+2, -1450360.9, -1427686.9, 51790.02, 0.18542027, 0.20766647, -1386007.5, 35544.758, 0.0000017221555, 9.999722, 10.000063 
3.5500318e+2, 1.649458e+2, -1344228.8, -1283901.8, -11701.794, 0.1954401, 0.195115, -1281711.4, 41838.453, 0.000000007086625, 9.999606, 10.000426 
3.550012e+2, 1.7494543e+2, -1223721.3, -1176132.4, -120.87987, 0.027976122, 0.082618795, -1176132.1, 49416.652, 0.0, 9.999765, 10.000419 
3.550011e+2, 1.8494555e+2, -1236983.0, -1246624.3, -6109.589, 0.02769252, 0.10849252, -1234021.3, -106473.586, 0.0, 9.999493, 9.999393 
3.5500306e+2, 1.9494605e+2, -1228916.4, -1195766.0, -4872.41, 0.22144946, 0.18593384, -1195064.8, -165516.89, 0.0, 9.998891, 9.999362 
3.55004e+2, 2.0494588e+2, -1091704.4, -1043688.44, 28231.145, 0.24092671, 0.22296989, -1030637.25, -99087.98, 0.0, 9.999012, 9.999675 
3.550038e+2, 2.1494482e+2, -862883.3, -885574.06, 35789.03, 0.069612935, 0.11901357, -836684.4, -3130.323, 0.0, 9.999918, 9.999653 
3.5500422e+2, 2.2494394e+2, -742275.44, -926406.25, 2193.1487, -0.008918386, 0.13752252, -742249.3, -6687.3955, 0.0, 10.000724, 9.998309 
3.5500517e+2, 2.3494297e+2, -553684.7, -789140.6, 29674.361, 0.0062267045, 0.17978713, -550002.44, 87572.75, 0.0, 10.001358, 9.998278 
3.5500544e+2, 2.449415e+2, -495238.2, -746447.5, -52869.574, 0.031609137, 0.22544523, -484564.75, 55027.3, 0.0, 10.001258, 9.997935 
3.55005e+2, 2.549392e+2, -530206.5, -720881.44, -75647.61, 0.07045309, 0.17057578, -503840.28, -62225.02, 0.0, 10.000362, 9.997877 
3.550054e+2, 2.6493767e+2, -371731.94, -439464.1, 11643.585, 0.06374995, 0.16970545, -369786.22, -26157.81, 0.0, 10.000135, 9.999237 
3.550067e+2, 2.749367e+2, -233629.02, -325184.84, 66308.875, 0.018076973, 0.11503667, -198830.97, 46802.977, 0.0, 10.00042, 9.999214 
3.5500747e+2, 2.8493553e+2, -164130.61, -296604.0, 14841.885, -0.0020421115, 0.10873029, -162488.14, -14844.046, 0.00000011654808, 10.000471, 9.998712 
3.5500762e+2, 2.9493436e+2, -106266.67, -221856.5, 35968.3, -0.01694599, 0.07999861, -95988.31, -46331.09, 0.0000016052002, 10.000186, 9.998697 
3.5500675e+2, 3.04933e+2, -20633.422, -165785.47, -14849.72, -0.09055527, 0.08841884, -19129.803, -19129.803, 0.000008325357, 10.00048, 9.998625 
3.5500646e+2, 3.1493202e+2, 75378.695, -7983.0913, 167908.88, -0.058443107, 0.09170887, 206702.69, 206702.69, 0.000028551576, 10.000605, 9.999638 
3.6499986e+2, 1.24946244e+2, -1685929.1, -1734771.6, -43618.086, -0.02672918, 0.25424427, -1660361.0, 55185.555, 0.000118926524, 10.000242, 9.999735 
3.649997e+2, 1.3494551e+2, -1592572.6, -1675955.6, -21447.92, -0.007335456, 0.21641612, -1587379.3, 30174.785, 0.000056465244, 10.000439, 9.999369 
3.6500153e+2, 1.4494535e+2, -1478670.9, -1474610.8, 31293.105, 0.18063308, 0.22445533, -1445281.9, 74273.625, 0.00001794202, 10.000124, 10.000217 
3.6500207e+2, 1.5494545e+2, -1495113.6, -1449194.4, 6576.8047, 0.17530464, 0.18383688, -1448271.0, -26716.438, 0.000002788093, 9.999416, 10.000065 
3.6500221e+2, 1.6494553e+2, -1390273.5, -1308088.6, -3320.261, 0.16312829, 0.17642981, -1307954.8, 15596.961, 0.00000008230677, 9.999298, 10.000412 
3.6500147e+2, 1.7494549e+2, -1237390.1, -1183278.4, -20811.363, 0.087578416, 0.09810034, -1176200.1, 49348.18, 0.0, 9.999676, 10.000415 
3.6500165e+2, 1.8494563e+2, -1161838.9, -1236190.4, -12007.15, 0.10983807, 0.13790269, -1159948.0, -32400.55, 0.0, 10.000124, 9.999161 
3.6500302e+2, 1.9494574e+2, -1001715.75, -1113017.1, -31388.848, 0.2529032, 0.20180522, -993473.9, 36077.285, 0.0, 10.000569, 9.999123 
3.65004e+2, 2.0494528e+2, -844385.4, -942673.7, 51793.297, 0.25877768, 0.23118673, -822131.44, 109424.66, 0.0, 10.00078, 9.99952 
3.650045e+2, 2.1494406e+2, -760283.75, -852735.5, 33977.19, 0.117123835, 0.122326374, -749139.94, 84424.44, 0.0, 10.000688, 9.99951 
3.650052e+2, 2.249435e+2, -760840.06, -903566.9, 10984.98, 0.036434993, 0.16652414, -759999.56, -24429.941, 0.0, 10.000461, 9.998595 
3.6500603e+2, 2.3494342e+2, -717710.75, -834350.44, 2082.5745, 0.030081464, 0.26936546, -717673.56, -80099.67, 0.0, 10.000091, 9.998575 
3.6500633e+2, 2.4494177e+2, -618682.3, -811421.44, -28791.814, 0.04637394, 0.28616935, -614473.25, -74881.66, 0.0, 10.000411, 9.997912 
3.6500597e+2, 2.549384e+2, -378598.97, -642114.0, -5105.7397, 0.08920536, 0.12365806, -378500.1, 63124.145, 0.0, 10.001383, 9.997927 
3.6500615e+2, 2.6493707e+2, -211502.11, -356905.66, 82627.82, 0.07878889, 0.13429853, -174145.23, 169490.88, 0.0, 10.001221, 9.999278 
3.6500695e+2, 2.7493742e+2, -299552.56, -351820.84, 31620.701, 0.03593773, 0.21087094, -284664.0, -39033.28, 0.0, 9.999947, 9.999259 
3.6500773e+2, 2.8493643e+2, -282941.2, -323860.53, 2034.3383, 0.033484425, 0.2063409, -282840.28, -135201.31, 0.000000055764154, 9.999504, 9.998999 
3.6500823e+2, 2.949344e+2, -133308.36, -202963.14, 17699.77, 0.052707706, 0.059031047, -129068.766, -79410.39, 0.0000011855267, 9.999865, 9.998979 
3.6500695e+2, 3.049337e+2, -48986.94, -163835.9, 7400.6543, -0.09304559, 0.11312122, -48512.023, -48512.023, 0.0000067298934, 10.000243, 9.998744 
3.6500713e+2, 3.1493282e+2, 37207.67, -6526.8896, 138356.98, -0.021786468, 0.11589798, 155414.78, 155414.78, 0.00002565761, 10.000272, 9.999809 
3.7499952e+2, 1.2494696e+2, -1670712.0, -1701435.4, -31483.145, -0.1540912, 0.33714148, -1651042.8, 64501.742, 0.0001191897, 10.000235, 9.999959 
3.7500066e+2, 1.349457e+2, -1577831.1, -1646030.4, -6559.205, 0.004791559, 0.21975143, -1577206.0, 40347.254, 0.00005856906, 10.0004425, 9.999565 
3.7500247e+2, 1.4494476e+2, -1510304.6, -1523417.1, -14005.803, 0.22356156, 0.153203, -1501396.5, 18164.313, 0.000020069963, 10.000055, 9.999914 
3.749996e+2, 1.5494505e+2, -1510384.0, -1487745.9, -5050.386, -0.049496118, 0.16320035, -1486670.3, -65112.1, 0.0000038584762, 9.999441, 9.999791 
3.749997e+2, 1.6494568e+2, -1398925.0, -1313652.8, -864.6159, -0.05044598, 0.22247265, -1313644.0, 9907.492, 0.00000020238203, 9.999247, 10.000396 
3.7500215e+2, 1.7494668e+2, -1246626.4, -1194525.5, 8230.172, 0.15615605, 0.25206852, -1193256.3, 32284.207, 0.0, 9.999637, 10.000357 
3.7500298e+2, 1.849465e+2, -1187387.3, -1264538.5, -7621.9097, 0.2057148, 0.26987064, -1186641.5, -59099.203, 0.0, 10.000019, 9.999014 
3.750025e+2, 1.9494483e+2, -1027911.6, -1140762.1, -372.70258, 0.118073836, 0.1681149, -1027910.4, 1649.7242, 0.0, 10.000459, 9.998981 
3.750034e+2, 2.049439e+2, -875368.3, -976073.56, 35698.684, 0.09528234, 0.1641448, -863997.5, 67571.85, 0.0, 10.000645, 9.999358 
3.7500545e+2, 2.1494354e+2, -795497.75, -884902.6, 41564.39, 0.11932351, 0.16060582, -779160.0, 54411.625, 0.0, 10.000518, 9.999368 
3.7500638e+2, 2.2494319e+2, -769947.94, -894119.75, -19292.87, 0.08734827, 0.22745138, -767019.44, -31443.443, 0.0, 10.000326, 9.99873 
3.7500605e+2, 2.3494264e+2, -725272.75, -823686.44, -809.4616, -0.00694692, 0.26609775, -725266.1, -87681.36, 0.0, 9.999966, 9.9987135 
3.7500638e+2, 2.4494131e+2, -563085.0, -675233.5, -4380.771, -0.016180612, 0.2595195, -562914.2, -23316.967, 0.0, 10.000323, 9.998889 
3.7500712e+2, 2.54939e+2, -328255.4, -512532.53, 45240.336, 0.03684521, 0.105872974, -317747.97, 123867.734, 0.0, 10.00127, 9.998873 
3.7500685e+2, 2.6493794e+2, -289440.22, -507034.22, 23547.201, 0.00047819386, 0.14733422, -286921.2, 56704.996, 0.0, 10.00117, 9.99827 
3.750057e+2, 2.749378e+2, -380883.84, -502710.53, -1797.6448, -0.11528598, 0.27841827, -380857.34, -135225.45, 0.0, 9.999866, 9.998264 
3.750068e+2, 2.8493705e+2, -241416.66, -231271.53, 4771.233, -0.040572576, 0.31109273, -229380.22, -81739.805, 0.00000003400916, 9.9994755, 9.999649 
3.7500978e+2, 2.9493573e+2, -108623.44, -133200.94, 48144.97, 0.18158877, 0.1760038, -71223.65, -21572.994, 0.000000899484, 9.999777, 9.999505 
3.750078e+2, 3.0493566e+2, -48769.504, -154011.47, 5271.1377, -0.055847026, 0.267516, -48506.156, -48506.156, 0.000005766145, 10.000208, 9.998829 
3.7500596e+2, 3.1493425e+2, 82460.46, 100318.97, 158387.63, -0.2327926, 0.20426632, 250028.84, 250028.84, 0.000023929499, 10.000213, 10.000577 
3.8500097e+2, 1.24946706e+2, -1680520.0, -1718325.4, 75832.86, -0.019921552, 0.30581993, -1621269.4, 94276.21, 0.00012316402, 10.000226, 9.99985 
3.8500112e+2, 1.3494582e+2, -1622069.6, -1671689.0, -22106.928, 0.035034962, 0.22750327, -1613649.3, 3901.3347, 0.000061385945, 10.00014, 9.99955 
3.850026e+2, 1.449446e+2, -1546470.8, -1551820.9, -19439.607, 0.2537138, 0.13766451, -1529523.0, -9962.225, 0.000022093489, 9.999853, 9.999814 
3.849991e+2, 1.5494467e+2, -1517575.3, -1500331.6, -36031.363, -0.034336418, 0.13513604, -1471904.9, -50345.28, 0.000004863891, 9.999444, 9.999695 
3.8499925e+2, 1.6494519e+2, -1375420.8, -1348556.6, 25133.545, -0.02825871, 0.20704156, -1333491.0, -9936.013, 0.00000029520132, 9.999588, 10.000002 
3.850024e+2, 1.7494622e+2, -1187133.9, -1207807.5, -13823.294, 0.19967346, 0.27438313, -1180210.0, 45336.47, 0.0, 10.000216, 9.999989 
3.8500342e+2, 1.84946e+2, -1102754.6, -1199407.8, -13725.102, 0.23041311, 0.29569682, -1100843.5, 26705.107, 0.0, 10.000484, 9.999241 
3.8500258e+2, 1.9494413e+2, -1026482.6, -1119984.4, -7039.1646, 0.09396579, 0.15107512, -1025955.6, 3610.0073, 0.0, 10.000359, 9.999181 
3.8500342e+2, 2.049432e+2, -967187.5, -1055902.4, 52666.59, 0.06610399, 0.15445827, -942687.44, -11112.454, 0.0, 10.000175, 9.999033 
3.8500577e+2, 2.1494305e+2, -907402.44, -981424.4, 21982.959, 0.13429078, 0.20778409, -901366.2, -67788.04, 0.0, 9.99992, 9.999002 
3.850069e+2, 2.2494264e+2, -803899.2, -875435.5, -4111.345, 0.13291986, 0.26987746, -803663.7, -68079.73, 0.0, 9.999955, 9.999024 
3.850068e+2, 2.3494177e+2, -649785.0, -752016.25, -2308.3481, 0.05793091, 0.24509649, -649732.9, -12138.839, 0.0, 10.000345, 9.999013 
3.8500717e+2, 2.4494082e+2, -524088.9, -606946.25, 15592.116, 0.036996007, 0.23780155, -521251.9, 18350.162, 0.0, 10.000396, 9.999307 
3.8500798e+2, 2.5493956e+2, -462170.47, -535912.56, -4336.8135, 0.058065396, 0.14748132, -461916.3, -20305.854, 0.0, 10.000168, 9.999241 
3.8500756e+2, 2.6493856e+2, -433525.56, -609483.4, -22331.34, 0.004911247, 0.1941817, -430735.66, -87115.016, 0.0, 10.000312, 9.99799 
3.850062e+2, 2.7493772e+2, -257008.23, -469787.88, -18890.607, -0.093929306, 0.2791954, -255344.14, -9709.787, 0.0, 10.000835, 9.998023 
3.850071e+2, 2.8493682e+2, -83233.69, -187746.55, 13784.322, -0.010432217, 0.32474265, -81446.23, 66199.0, 0.000000026095549, 10.000712, 9.99935 
3.850099e+2, 2.9493576e+2, -112783.12, -169208.2, -37254.473, 0.21987182, 0.2447148, -94264.05, -44610.004, 0.00000066980994, 9.999904, 9.999193 
3.8500783e+2, 3.0493525e+2, -86053.96, -186228.38, -60389.55, -0.053374816, 0.31414872, -57683.367, -57683.367, 0.000005131084, 10.000013, 9.9986925 
3.85007e+2, 3.1493407e+2, 157240.66, 159611.34, -10999.593, -0.15696742, 0.27868077, 169489.28, 169489.28, 0.000023471404, 10.000648, 10.000759 
3.950037e+2, 1.24945626e+2, -1736054.5, -1802931.6, 92156.31, 0.15997036, 0.16038643, -1671457.8, 44090.875, 0.0001272644, 10.000132, 9.99931 
3.9500076e+2, 1.3494594e+2, -1646566.1, -1709027.3, -13000.726, -0.045550864, 0.22889268, -1643968.3, -26422.39, 0.00006380605, 10.00011, 9.999304 
3.9500156e+2, 1.4494494e+2, -1558423.8, -1565681.4, -51293.816, 0.122723766, 0.17982142, -1510630.6, 8924.248, 0.000023677207, 9.999792, 9.999754 
3.9500004e+2, 1.5494429e+2, -1518866.6, -1505972.5, -38381.76, 0.07960594, 0.10586128, -1473500.1, -51940.8, 0.000005569423, 9.999449, 9.999656 
3.9500052e+2, 1.6494392e+2, -1430571.4, -1444055.3, 31645.068, 0.10729563, 0.12322463, -1404958.0, -81394.25, 0.00000035120044, 9.999518, 9.999378 
3.95002e+2, 1.7494395e+2, -1241806.0, -1301281.5, 22877.043, 0.10708795, 0.15598181, -1234024.6, -8457.551, 0.0, 10.000139, 9.999384 
3.9500266e+2, 1.84944e+2, -1078800.4, -1123995.9, -30310.523, 0.077423096, 0.20566732, -1063591.0, 63976.01, 0.0, 10.000369, 9.999818 
3.9500287e+2, 1.9494377e+2, -1001829.8, -1037618.5, 1032.245, 0.054525256, 0.1698578, -1001800.06, 27766.268, 0.0, 10.000231, 9.999805 
3.9500374e+2, 2.0494336e+2, -1021483.9, -1132031.5, 29069.363, 0.052954864, 0.21535666, -1014305.94, -82734.516, 0.0, 10.00002, 9.998586 
3.9500502e+2, 2.1494265e+2, -968118.4, -1058790.0, 27774.633, 0.04238347, 0.25484198, -960286.9, -126703.12, 0.0, 9.999722, 9.998561 
3.9500645e+2, 2.2494188e+2, -793862.56, -822835.7, -425.26602, 0.06269908, 0.28281596, -793856.3, -58263.3, 0.0, 9.999813, 9.999458 
3.9500788e+2, 2.3494081e+2, -641002.5, -698460.3, 27262.205, 0.10608923, 0.19840367, -630126.1, 7475.649, 0.0, 10.000195, 9.999454 
3.9500844e+2, 2.4494027e+2, -547163.1, -636050.5, -4813.8477, 0.09398068, 0.21906124, -546903.2, -7296.878, 0.0, 10.00031, 9.999154 
3.950081e+2, 2.5493997e+2, -487055.3, -563986.25, 1243.3867, 0.019860037, 0.24550083, -487035.22, -45426.047, 0.0, 10.00006, 9.999105 
3.950079e+2, 2.64939e+2, -410658.1, -547499.44, -13842.941, -0.022374533, 0.27542254, -409271.78, -65652.47, 0.0, 10.000246, 9.99845 
3.95008e+2, 2.7493712e+2, -239442.19, -414001.9, 15145.031, -0.028095178, 0.21286543, -238137.94, 7500.554, 0.0, 10.000742, 9.998457 
3.9500824e+2, 2.849357e+2, -176202.03, -361556.88, -28334.912, 0.0044987835, 0.24259031, -171967.27, -24313.156, 0.000000010243951, 10.000645, 9.998183 
3.9500818e+2, 2.9493448e+2, -212427.17, -343874.8, -47642.14, 0.02416351, 0.2680913, -196975.9, -147307.33, 0.0000005130985, 9.999777, 9.9980545 
3.950066e+2, 3.0493248e+2, -107021.195, -230289.63, -39909.035, -0.20939559, 0.2588861, -95228.52, -95228.52, 0.0000059963604, 10.000009, 9.998394 
3.950094e+2, 3.1493175e+2, 116596.74, 92546.98, 7783.3687, -0.044184554, 0.3050491, 118895.92, 118895.92, 0.000027747768, 10.000573, 10.000335 
4.0500534e+2, 1.24944314e+2, -1638062.1, -1761964.0, 64155.36, 0.29869187, 0.120479695, -1610828.9, 104729.25, 0.0001282802, 10.000802, 9.999275 
4.0500143e+2, 1.3494462e+2, -1702418.8, -1719056.3, -120426.41, 0.0481756, 0.16854961, -1590024.1, 27532.008, 0.00006493345, 9.999647, 9.999458 
4.0500116e+2, 1.44944e+2, -1599915.3, -1587561.4, -69516.86, 0.12700598, 0.15206875, -1523947.6, -4385.9116, 0.00002457309, 9.999514, 9.999738 
4.050003e+2, 1.5494356e+2, -1392204.9, -1448952.0, -86244.44, 0.12856258, 0.10023218, -1329786.5, 91777.99, 0.000005781208, 10.000322, 9.999631 
4.05001e+2, 1.64943e+2, -1324546.0, -1403823.4, 24144.15, 0.17410621, 0.10378195, -1317771.6, 5799.2715, 0.0000003430959, 10.00029, 9.99928 
4.0500194e+2, 1.749424e+2, -1352064.9, -1366679.6, 22882.332, 0.13239902, 0.08431535, -1335351.4, -109771.81, 0.0, 9.999426, 9.999279 
4.0500262e+2, 1.8494244e+2, -1195984.6, -1175485.9, 15538.979, 0.08699032, 0.13682072, -1167120.5, -39540.902, 0.0, 9.999556, 9.999854 
4.0500346e+2, 1.9494277e+2, -947044.06, -1008572.6, -15300.483, 0.0825149, 0.15606457, -943449.25, 86124.98, 0.0, 10.000604, 9.999828 
4.0500435e+2, 2.0494252e+2, -881255.06, -1052704.1, 4012.0645, 0.07965169, 0.21019101, -881161.25, 50416.89, 0.0, 10.000927, 9.998691 
4.050052e+2, 2.1494149e+2, -848861.7, -992889.06, 15250.546, 0.05901244, 0.20567998, -847264.6, -13671.258, 0.0, 10.000493, 9.998642 
4.0500653e+2, 2.2494073e+2, -720633.9, -768789.3, 43125.727, 0.078736976, 0.22383687, -695319.6, 40282.44, 0.0, 10.00024, 9.999622 
4.050083e+2, 2.3494007e+2, -630850.2, -681175.8, 25749.283, 0.13737582, 0.1634312, -620010.3, 17596.287, 0.0, 10.0002, 9.999575 
4.050089e+2, 2.4493973e+2, -578895.7, -675880.06, -2658.4958, 0.12552708, 0.21077763, -578822.9, -39212.67, 0.0, 10.000198, 9.998933 
4.0500835e+2, 2.5493965e+2, -470969.1, -570746.25, -24901.389, 0.037965566, 0.2749383, -465099.72, -23485.783, 0.0, 10.000262, 9.998948 
4.0500847e+2, 2.6493862e+2, -355403.7, -489322.13, -1389.029, 0.003953777, 0.2943414, -355389.28, -11764.963, 0.0, 10.000481, 9.998731 
4.0500933e+2, 2.7493644e+2, -207173.53, -369997.5, -7972.617, 0.038630888, 0.16847111, -206784.1, 38859.844, 0.0, 10.000826, 9.998715 
4.0500936e+2, 2.84935e+2, -172963.4, -416380.3, -35596.234, 0.050921638, 0.20704636, -167864.77, -20205.57, 0.0000000008315615, 10.000892, 9.997691 
4.0500838e+2, 2.94934e+2, -100127.99, -333491.56, -27827.705, 0.025167989, 0.2994503, -96855.53, -47182.566, 0.0000007104038, 10.000727, 9.997661 
4.050072e+2, 3.0493128e+2, -62991.4, -239515.92, 57251.55, -0.15907803, 0.2506414, -46049.254, -46049.254, 0.000009515816, 10.000441, 9.998128 
4.050112e+2, 3.1492966e+2, -79027.12, -94389.08, 20806.041, 0.14285511, 0.23754542, -64529.535, -64529.535, 0.000039448827, 9.999583, 9.999545 
4.1500512e+2, 1.24942526e+2, -1589123.9, -1677000.0, 30958.025, 0.12290892, 0.17074083, -1579313.0, 136263.69, 0.00012596608, 10.000854, 9.999833 
4.150026e+2, 1.3494189e+2, -1643634.4, -1623692.9, -154076.2, 0.16531853, 0.056163166, -1479265.1, 138315.81, 0.00006410072, 9.999728, 10.000079 
4.15001e+2, 1.4494176e+2, -1600651.0, -1577466.0, -51796.133, 0.12055654, 0.048341583, -1535981.0, -16399.105, 0.00002430965, 9.999481, 9.999819 
4.1499963e+2, 1.5494254e+2, -1392697.6, -1436438.9, -39951.6, -0.003807689, 0.11323822, -1369022.1, 52552.926, 0.0000053776803, 10.000278, 9.999734 
4.1500035e+2, 1.6494246e+2, -1314856.3, -1361710.6, -21189.434, 0.048953, 0.14569092, -1306695.0, 16880.951, 0.0000002359893, 10.000196, 9.999611 
4.150018e+2, 1.7494172e+2, -1336496.4, -1320496.9, 5540.2676, 0.14022116, 0.074636616, -1318765.8, -93182.9, 0.0, 9.999368, 9.999621 
4.1500285e+2, 1.8494138e+2, -1242705.9, -1251421.9, 41059.26, 0.123122625, 0.09586606, -1205774.0, -78187.664, 0.0, 9.999469, 9.999371 
4.1500396e+2, 1.9494115e+2, -995800.7, -1084756.3, 35346.965, 0.044493925, 0.104757465, -983465.75, 46123.816, 0.0, 10.0005045, 9.999346 
4.1500503e+2, 2.0494065e+2, -857761.7, -977651.25, -24860.248, 0.028521504, 0.12981933, -852811.1, 78784.44, 0.0, 10.000802, 9.999274 
4.1500592e+2, 2.1493965e+2, -831016.8, -912831.8, 9982.717, 0.05573549, 0.07178077, -829816.4, 3789.8499, 0.0, 10.000308, 9.999281 
4.1500682e+2, 2.2493935e+2, -754478.6, -801530.7, 28773.125, 0.056958888, 0.1082025, -740837.94, -5227.946, 0.0, 10.000079, 9.9994755 
4.1500762e+2, 2.3493949e+2, -660735.1, -711830.5, 37413.836, 0.02454729, 0.14285511, -640978.5, -3369.531, 0.0, 10.000067, 9.999429 
4.1500816e+2, 2.4493922e+2, -606183.44, -713951.3, -11507.942, -0.0031534464, 0.21405849, -604968.3, -65354.563, 0.0, 10.000116, 9.99871 
4.1500828e+2, 2.5493833e+2, -501809.1, -610953.7, -9204.15, -0.025734369, 0.22119437, -501038.34, -59411.992, 0.0, 10.000156, 9.998723 
4.1500884e+2, 2.6493725e+2, -352051.72, -465697.06, 386.2823, -0.030913835, 0.23374487, -352050.4, -8412.663, 0.0, 10.000417, 9.99892 
4.1500986e+2, 2.7493572e+2, -210256.88, -350984.44, 17637.922, -0.029600332, 0.1557551, -208079.92, 37570.254, 0.0, 10.000728, 9.998889 
4.1501012e+2, 2.849348e+2, -153710.36, -384206.03, -55878.54, 0.0021123544, 0.22863673, -140878.23, 6781.2065, 0.00000000001177225, 10.000908, 9.997912 
4.150098e+2, 2.9493433e+2, -91270.65, -301076.1, -18561.105, 0.055097826, 0.35213608, -89641.234, -39974.207, 0.0000013022876, 10.000652, 9.997928 
4.150091e+2, 3.0493164e+2, -72719.61, -249929.7, 23381.975, -0.04160568, 0.29224688, -69686.4, -69686.4, 0.000014575742, 10.000414, 9.998059 
4.1501167e+2, 3.1492835e+2, -167444.45, -247069.6, -14560.38, 0.16431493, 0.12114733, -164865.45, -164865.45, 0.000055427667, 9.999471, 9.998543 
4.2500472e+2, 1.2494055e+2, -1890408.8, -1743531.6, 104261.23, 0.129857, 0.15524219, -1689441.3, 26155.47, 0.00012015749, 9.998435, 10.000542 
4.25003e+2, 1.349407e+2, -1689748.0, -1572729.1, -136423.1, 0.27025026, 0.04793184, -1482798.0, 134793.89, 0.00006079175, 9.999092, 10.00073 
4.2500028e+2, 1.4494114e+2, -1582053.3, -1558527.3, 21190.557, 0.10413053, 0.06108853, -1546053.8, -26466.82, 0.00002257458, 9.999569, 9.999904 
4.2499992e+2, 1.549418e+2, -1498438.0, -1476519.3, -7573.8647, 0.044688154, 0.104839936, -1474156.8, -52574.563, 0.0000044461326, 9.999515, 9.999823 
4.2500085e+2, 1.6494185e+2, -1344435.1, -1363870.1, 19132.248, 0.103394456, 0.14157484, -1332694.0, -9112.3125, 0.00000009724189, 9.999951, 9.99971 
4.250019e+2, 1.7494127e+2, -1111625.0, -1199193.9, 2846.0996, 0.1463838, 0.07769515, -1111532.6, 114052.664, 0.0, 10.000864, 9.999731 
4.2500293e+2, 1.8494081e+2, -1054874.1, -1184237.6, 65251.215, 0.123816155, 0.091094665, -1027678.56, 99911.27, 0.0, 10.000845, 9.999176 
4.2500442e+2, 1.9494015e+2, -1107433.9, -1163843.8, 57591.383, 0.081277676, 0.07811931, -1071511.6, -41912.86, 0.0, 9.999827, 9.999137 
4.2500576e+2, 2.049397e+2, -1001470.5, -1016168.0, 24951.771, 0.084566616, 0.103953, -982807.8, -51203.46, 0.0, 9.999696, 9.999534 
4.250068e+2, 2.149392e+2, -797465.75, -871058.5, 6483.536, 0.11438669, 0.07153423, -796898.94, 36710.07, 0.0, 10.000432, 9.999508 
4.250074e+2, 2.2493893e+2, -718244.4, -802656.2, 13634.595, 0.10368209, 0.10880961, -716096.7, 19515.479, 0.0, 10.000412, 9.999305 
4.250076e+2, 2.3493879e+2, -741619.06, -765889.75, -8034.5337, 0.04517382, 0.13069521, -739200.3, -101585.31, 0.0, 9.999585, 9.999286 
4.2500806e+2, 2.4493839e+2, -654967.9, -727553.0, 16450.287, 0.0013605168, 0.19184674, -651413.7, -111792.6, 0.0, 9.999736, 9.998805 
4.250088e+2, 2.5493744e+2, -382826.2, -548482.94, 17111.865, -0.018967196, 0.18877141, -381077.03, 60556.21, 0.0, 10.0009365, 9.998786 
4.2500973e+2, 2.6493642e+2, -277415.53, -443236.3, 12510.4375, -0.0052470365, 0.21361804, -276477.0, 67166.97, 0.0, 10.00099, 9.998807 
4.2501077e+2, 2.7493513e+2, -347973.4, -427199.03, -19252.99, 0.043538425, 0.16937807, -343542.44, -97887.0, 0.0, 9.999834, 9.998799 
4.2501107e+2, 2.849341e+2, -281267.0, -417470.8, -39041.08, 0.061762847, 0.22753958, -270870.0, -123204.75, 0.0000000012455732, 9.999944, 9.998131 
4.2501095e+2, 2.949333e+2, 31147.492, -215958.53, -32171.977, 0.08038653, 0.294166, 35267.434, 84942.555, 0.0000019825331, 10.001392, 9.998152 
4.2501128e+2, 3.0493122e+2, 180570.69, -116564.6, 4654.3633, 0.063880935, 0.27738887, 180643.58, 180643.58, 0.000019679212, 10.0021, 9.998168 
4.250129e+2, 3.149278e+2, 181962.53, -87742.2, -91513.7, 0.23205402, 0.081460476, 210082.31, 210082.31, 0.00007104561, 10.001902, 9.998465 
4.3500346e+2, 1.2493844e+2, -1841310.9, -1615809.4, 72662.95, 0.09031718, 0.06901971, -1594423.5, 121194.055, 0.00011272219, 9.998363, 10.001444 
4.3500227e+2, 1.3494107e+2, -1639645.5, -1466297.8, -93637.5, 0.24854176, 0.1410116, -1425377.1, 192211.03, 0.00005585788, 9.999102, 10.001452 
4.349985e+2, 1.4494206e+2, -1587215.6, -1563346.4, 10665.13, -0.068721086, 0.17663889, -1559275.4, -39697.77, 0.000019900395, 9.999532, 9.999893 
4.350006e+2, 1.5494135e+2, -1491127.5, -1471594.3, 5707.319, 0.12548853, 0.07951582, -1470048.9, -48462.57, 0.0000034951138, 9.999542, 9.999849 
4.3500212e+2, 1.6494104e+2, -1363210.5, -1382693.5, 39836.09, 0.20082128, 0.08295956, -1331942.1, -8352.86, 0.000000032016867, 9.999875, 9.999614 
4.3500185e+2, 1.7494103e+2, -1128092.0, -1216917.6, 49976.586, 0.023021186, 0.088493854, -1105645.5, 119941.58, 0.0, 10.000799, 9.999638 
4.3500245e+2, 1.8494076e+2, -1065123.4, -1177746.0, 15447.014, -0.035875518, 0.11806645, -1063043.1, 64547.008, 0.0, 10.000729, 9.999277 
4.350044e+2, 1.9493996e+2, -1116058.1, -1153565.1, 34205.074, 0.06889668, 0.08019511, -1095802.9, -66202.414, 0.0, 9.999712, 9.999263 
4.3500614e+2, 2.049398e+2, -1034161.7, -1049146.6, 39855.266, 0.124967955, 0.13761018, -1001100.75, -69497.01, 0.0, 9.999547, 9.999377 
4.3500742e+2, 2.1494009e+2, -832039.94, -907219.7, 46989.688, 0.10641847, 0.19545797, -809454.8, 24147.299, 0.0, 10.000281, 9.9993305 
4.35008e+2, 2.2493954e+2, -755658.5, -845064.94, -29199.38, 0.09304171, 0.22708932, -746967.1, -11359.012, 0.0, 10.00026, 9.999086 
4.3500778e+2, 2.3493792e+2, -776983.44, -805465.75, -26238.693, 0.07757055, 0.12452523, -761370.3, -123745.65, 0.0, 9.999438, 9.999084 
4.3500826e+2, 2.4493718e+2, -648373.06, -688281.25, 48501.95, 0.025821451, 0.14520514, -615880.94, -76248.484, 0.0, 9.999633, 9.999119 
4.3500948e+2, 2.549371e+2, -376365.34, -508205.88, 76172.086, -0.071844526, 0.19179334, -341549.97, 100083.44, 0.0, 10.000828, 9.999109 
4.3501064e+2, 2.649364e+2, -310631.1, -505453.75, -41035.26, -0.040048085, 0.24918695, -302340.66, 41300.53, 0.0, 10.000956, 9.998398 
4.350116e+2, 2.7493465e+2, -386333.2, -490977.47, -47341.527, 0.110711485, 0.20625627, -368094.53, -122435.42, 0.0, 9.999757, 9.998401 
4.3501168e+2, 2.8493288e+2, -277155.53, -396733.47, 3873.3997, 0.0966681, 0.19746375, -277030.2, -129353.15, 0.000000012355592, 9.999903, 9.998288 
4.3501157e+2, 2.949309e+2, 25845.121, -209455.05, 38095.395, -0.037842374, 0.13156815, 31859.104, 81555.69, 0.0000027662056, 10.001326, 9.998226 
4.3501332e+2, 3.0493e+2, 201456.0, -79108.41, -12232.592, 0.026705164, 0.2166055, 201988.33, 201988.33, 0.000024180765, 10.002115, 9.99842 
4.35014e+2, 3.149279e+2, 210040.97, -9644.308, -59734.47, 0.08341735, 0.12673642, 225232.78, 225232.78, 0.00008333817, 10.001813, 9.999047 
4.450018e+2, 1.2493768e+2, -1836100.8, -1607565.0, 129981.51, 0.10389305, 0.049187437, -1548765.5, 166857.61, 0.00010688196, 9.998411, 10.001468 
4.450022e+2, 1.349406e+2, -1672713.0, -1486362.6, -94429.64, 0.35713902, 0.15649432, -1446878.3, 170714.45, 0.000051033883, 9.998918, 10.001408 
4.4499776e+2, 1.4494175e+2, -1563310.1, -1554000.1, 9283.368, -0.09218628, 0.21313839, -1548270.0, -28688.977, 0.000017295639, 9.9997015, 9.999873 
4.45001e+2, 1.5494096e+2, -1365048.1, -1409972.8, -35538.145, 0.17738122, 0.10697836, -1345468.6, 76121.484, 0.0000027656245, 10.000408, 9.999848 
4.45003e+2, 1.6494048e+2, -1257683.4, -1351486.0, 27805.3, 0.27232772, 0.09897909, -1250060.8, 73533.96, 0.000000035556127, 10.000654, 9.99947 
4.450025e+2, 1.7494014e+2, -1193789.8, -1266090.0, 11724.34, 0.038747273, 0.08437756, -1191936.0, 33660.223, 0.0, 10.000406, 9.999501 
4.4500297e+2, 1.8493994e+2, -1093660.8, -1187539.6, -23876.908, -0.037920963, 0.1293517, -1087937.0, 39661.742, 0.0, 10.000533, 9.999293 
4.4500494e+2, 1.9493957e+2, -933594.9, -1064008.3, -42634.43, 0.09664966, 0.13273744, -920893.9, 108711.516, 0.0, 10.00097, 9.999262 
4.4500652e+2, 2.0493941e+2, -840164.0, -952211.1, 2004.7023, 0.14987054, 0.1891278, -840128.1, 91480.734, 0.0, 10.000884, 9.999391 
4.4500756e+2, 2.1493924e+2, -838114.5, -905913.6, -3170.0322, 0.10423679, 0.20256603, -837966.6, -4355.1396, 0.0, 10.000233, 9.999357 
4.4500825e+2, 2.2493865e+2, -738880.1, -838092.5, -38820.566, 0.09294255, 0.22618651, -725495.75, 10122.075, 0.0, 10.000376, 9.999079 
4.4500852e+2, 2.3493733e+2, -509748.25, -681858.56, -47116.23, 0.12229825, 0.15760347, -497694.13, 139936.72, 0.0, 10.00129, 9.999043 
4.4500917e+2, 2.4493638e+2, -428101.84, -597208.4, 41981.313, 0.082376406, 0.16369592, -418253.38, 121386.63, 0.0, 10.001204, 9.998987 
4.4501033e+2, 2.5493556e+2, -497256.8, -579010.9, 9487.605, -0.025336606, 0.14932759, -496170.22, -54523.246, 0.0, 10.000053, 9.998992 
4.4501132e+2, 2.6493484e+2, -454850.22, -550388.4, -84327.836, -0.00854121, 0.19869496, -405701.44, -62047.086, 0.0, 9.999865, 9.998609 
4.4501188e+2, 2.7493384e+2, -228845.4, -393967.13, -71530.68, 0.11996451, 0.20962396, -202168.3, 43496.86, 0.0, 10.00075, 9.998587 
4.4501212e+2, 2.8493205e+2, -87959.38, -313783.47, 49715.746, 0.09363967, 0.19458462, -77498.88, 70184.35, 0.00000003062236, 10.001221, 9.998232 
4.45013e+2, 2.9492924e+2, -17263.23, -228091.63, 34588.44, -0.0027846945, 0.051386736, -11733.688, 37976.94, 0.0000032986038, 10.001028, 9.998238 
4.4501594e+2, 3.0492875e+2, 21578.398, -129782.43, -10805.108, 0.15521905, 0.15984415, 22345.846, 22345.846, 0.000027227657, 10.000734, 9.998721 
4.4501564e+2, 3.1492782e+2, 87211.664, 2061.2297, -74249.61, 0.13274448, 0.15416117, 130226.48, 130226.48, 0.000091368296, 10.000683, 9.999654 
4.549987e+2, 1.2493816e+2, -1903697.0, -1747621.6, 24987.13, -0.120872356, 0.07639069, -1743718.9, -28104.633, 0.000102696926, 9.998408, 10.000507 
4.5500225e+2, 1.349392e+2, -1725074.9, -1613126.3, -58080.36, 0.43640068, 0.08439912, -1588438.0, 29167.941, 0.000047349753, 9.998976, 10.000516 
4.5499766e+2, 1.4493997e+2, -1573782.3, -1559962.9, 29957.629, -0.11661383, 0.14947337, -1536128.4, -16528.928, 0.000015080613, 9.999645, 9.999855 
4.550008e+2, 1.5494055e+2, -1371885.3, -1416502.3, 6558.846, 0.07557011, 0.18507397, -1370941.1, 50653.316, 0.0000021144335, 10.000383, 9.999813 
4.5500314e+2, 1.649401e+2, -1271137.0, -1368869.5, 1909.7888, 0.18773043, 0.18799917, -1271099.6, 52498.965, 0.00000004449902, 10.000602, 9.999376 
4.5500353e+2, 1.7493854e+2, -1202248.4, -1283249.0, 16214.023, 0.0664716, 0.05925156, -1199123.4, 26489.375, 0.0, 10.000398, 9.999389 
4.5500413e+2, 1.8493831e+2, -1117564.5, -1216379.8, -20657.59, -0.0040114378, 0.113563746, -1113419.9, 14196.522, 0.0, 10.000446, 9.999134 
4.550056e+2, 1.9493903e+2, -965654.94, -1098344.6, -15586.899, 0.033642802, 0.2418265, -963848.56, 65764.51, 0.0, 10.000835, 9.999086 
4.550065e+2, 2.0493856e+2, -848163.44, -935490.4, -36179.85, 0.033456802, 0.26842153, -835121.7, 96497.49, 0.0, 10.000736, 9.999579 
4.550068e+2, 2.1493673e+2, -849009.8, -884091.9, -14318.239, -0.023665836, 0.09437339, -843908.0, -10271.537, 0.0, 10.000045, 9.999594 
4.550078e+2, 2.2493629e+2, -749989.6, -827017.1, -15966.316, -0.01450515, 0.11407298, -746811.25, -11170.863, 0.0, 10.000222, 9.999235 
4.5500934e+2, 2.3493704e+2, -515445.6, -664322.2, 2086.6404, 0.049016565, 0.23177652, -515416.38, 122216.95, 0.0, 10.001159, 9.9992285 
4.5501035e+2, 2.4493597e+2, -485111.38, -684406.75, -13060.039, 0.051352423, 0.24818657, -484259.2, 55384.34, 0.0, 10.00108, 9.998451 
4.5501092e+2, 2.549328e+2, -552198.94, -662683.06, -19966.48, -0.0013839582, 0.052459396, -548701.4, -107027.04, 0.0, 9.999925, 9.998485 
4.550113e+2, 2.6493168e+2, -414648.9, -448813.25, -62087.67, -0.023614485, 0.051919084, -367336.38, -23651.807, 0.0, 9.99979, 9.999337 
4.550112e+2, 2.7493256e+2, -193884.72, -298573.5, -20229.31, -0.054653823, 0.17188472, -190111.73, 55562.91, 0.0, 10.000654, 9.999282 
4.5501205e+2, 2.8493163e+2, -107376.516, -349550.9, 31046.783, -0.06794053, 0.22415836, -103459.664, 44223.66, 0.000000022691747, 10.001191, 9.998004 
4.550148e+2, 2.949283e+2, -30731.158, -251606.8, 39198.617, 0.035510793, 0.052909866, -23980.908, 25736.072, 0.0000033720132, 10.000987, 9.998106 
4.550186e+2, 3.049274e+2, 45322.953, -73422.66, -23002.018, 0.31687707, 0.10080995, 49622.926, 49622.926, 0.000028360193, 10.000717, 9.99911 
4.5501703e+2, 3.1492704e+2, 116748.56, 77618.58, 8026.5728, 0.13691747, 0.11285802, 118331.02, 118331.02, 0.00009465621, 10.000624, 10.0002 
4.6499664e+2, 1.2493753e+2, -2089764.3, -1861126.5, -76835.56, -0.091608904, 0.100945905, -1837704.6, -122085.9, 0.00009773488, 9.997195, 10.000313 
4.650019e+2, 1.349378e+2, -1558553.3, -1556519.4, -33422.25, 0.45934963, 0.041886885, -1524098.6, 93519.34, 0.000043477085, 10.000178, 10.000334 
4.6499795e+2, 1.4493811e+2, -1354134.6, -1495397.4, 39900.195, -0.124672, 0.08861743, -1343643.8, 175972.38, 0.000012657647, 10.001323, 9.999496 
4.650013e+2, 1.5493871e+2, -1384840.5, -1462121.3, -43454.38, 0.097226255, 0.16060562, -1365331.4, 56280.22, 0.0000014631825, 10.000459, 9.99947 
4.6500382e+2, 1.6493836e+2, -1341736.8, -1405388.5, -22975.404, 0.22522004, 0.19160171, -1334310.1, -10694.541, 0.000000030371112, 10.000151, 9.999332 
4.6500444e+2, 1.7493688e+2, -1200406.4, -1286985.6, -34526.305, 0.124790646, 0.075294554, -1188324.0, 37305.793, 0.0, 10.000443, 9.999335 
4.6500498e+2, 1.8493645e+2, -1110397.3, -1199029.9, -34589.492, 0.04578664, 0.106079124, -1098496.4, 29138.594, 0.0, 10.000416, 9.999277 
4.6500584e+2, 1.9493678e+2, -1075234.3, -1135514.0, -28004.773, 0.029966522, 0.18152091, -1064232.0, -34597.926, 0.0, 9.999992, 9.99925 
4.650066e+2, 2.0493649e+2, -962706.0, -981932.94, -19286.379, 0.018981202, 0.21031544, -950769.94, -19131.809, 0.0, 9.999895, 9.999671 
4.6500704e+2, 2.149353e+2, -831370.75, -871452.5, -35998.473, 0.00015199688, 0.09419979, -810210.56, 23439.127, 0.0, 10.000133, 9.999646 
4.6500823e+2, 2.2493501e+2, -733086.4, -832607.2, 2991.494, 0.010253427, 0.13249478, -732996.56, 2656.0928, 0.0, 10.000417, 9.999087 
4.650102e+2, 2.3493539e+2, -580196.25, -711771.44, -30138.502, 0.04411843, 0.2301687, -573621.3, 64027.734, 0.0, 10.000801, 9.999064 
4.6501133e+2, 2.4493425e+2, -515431.47, -706644.0, -63956.1, 0.060374606, 0.24749212, -496011.9, 43648.535, 0.0, 10.000888, 9.998391 
4.6501184e+2, 2.5493127e+2, -450606.34, -622978.56, -60040.98, 0.071204126, 0.077729076, -431754.53, 9935.114, 0.0, 10.0006485, 9.998408 
4.6501204e+2, 2.6493016e+2, -323297.06, -389706.7, -49787.3, 0.05324449, 0.073118344, -296657.63, 47042.168, 0.0, 10.000336, 9.999493 
4.6501163e+2, 2.7493075e+2, -299186.66, -332532.47, -73975.36, -0.026179433, 0.15226811, -240028.56, 5662.98, 0.0, 9.999848, 9.999448 
4.6501264e+2, 2.8492993e+2, -268895.16, -396836.13, 10287.914, -0.058221314, 0.19292597, -268073.2, -120374.83, 0.00000001636591, 9.999957, 9.99827 
4.6501607e+2, 2.9492712e+2, -33837.863, -206962.58, 13398.542, 0.08100762, 0.0432049, -32807.055, 16918.885, 0.0000038591365, 10.000782, 9.998501 
4.650201e+2, 3.0492643e+2, 115739.945, -73241.45, -36248.758, 0.3738592, 0.10265959, 122454.305, 122454.305, 0.000029778155, 10.0013075, 9.99886 
4.6501827e+2, 3.149257e+2, 224528.86, 107334.36, -47886.176, 0.17248419, 0.11495876, 241606.73, 241606.73, 0.00009717631, 10.001445, 10.000028 
4.749946e+2, 1.2493565e+2, -2060510.6, -1762402.9, -131204.19, -0.093751825, 0.122154936, -1712882.9, 2755.3838, 0.00009217974, 9.99707, 10.001033 
4.7500083e+2, 1.3493635e+2, -1511262.5, -1449930.6, 96792.47, 0.29536563, 0.03537121, -1379062.4, 238566.64, 0.00003847725, 10.00017, 10.001056 
4.7499824e+2, 1.4493617e+2, -1401806.6, -1592339.8, -5660.963, -0.27339205, 0.031726554, -1401638.6, 117992.41, 0.000009911169, 10.001298, 9.99885 
4.7500214e+2, 1.549354e+2, -1423301.3, -1550239.5, -62608.965, 0.09659781, 0.029835142, -1397617.6, 24024.035, 0.0000009593812, 10.000483, 9.99886 
4.7500464e+2, 1.6493516e+2, -1351879.0, -1413988.4, -25410.416, 0.26123953, 0.10167612, -1342807.9, -19161.627, 0.000000014696447, 10.000098, 9.999303 
4.7500497e+2, 1.7493506e+2, -1210439.1, -1296274.8, -8328.44, 0.10006342, 0.1318359, -1209638.5, 16009.411, 0.0, 10.000396, 9.999299 
4.7500506e+2, 1.8493438e+2, -1084730.6, -1126147.5, -61464.223, -0.017890185, 0.11235248, -1040580.0, 87074.38, 0.0, 10.000328, 9.999823 
4.7500542e+2, 1.9493285e+2, -1049963.9, -1063960.4, -29015.13, -0.043596517, -0.05093175, -1027115.0, 2552.9868, 0.0, 9.999905, 9.999789 
4.750064e+2, 2.0493315e+2, -986120.94, -997364.06, -22421.592, -0.015879497, 0.012989427, -968626.94, -36961.074, 0.0, 9.99976, 9.999624 
4.7500792e+2, 2.1493505e+2, -859452.56, -887827.2, -13630.885, 0.049130913, 0.20886667, -853965.5, -20315.266, 0.0, 9.999961, 9.999611 
4.7500932e+2, 2.2493482e+2, -784425.0, -915173.8, 5299.742, 0.047020696, 0.27993113, -784210.5, -48556.42, 0.0, 10.000297, 9.998589 
4.7501066e+2, 2.3493224e+2, -635419.0, -794704.56, -2054.2969, -0.019038161, 0.13394219, -635392.5, 2287.025, 0.0, 10.000656, 9.99857 
4.7501174e+2, 2.4493103e+2, -502980.78, -656317.94, -83608.5, -0.016324406, 0.1486989, -466210.16, 73481.914, 0.0, 10.00078, 9.99879 
4.7501272e+2, 2.5493094e+2, -441649.38, -580852.2, -54164.67, 0.0611142, 0.22525838, -423056.88, 18636.918, 0.0, 10.000537, 9.9987545 
4.750132e+2, 2.6493022e+2, -360799.72, -447073.8, -80111.4, 0.10351443, 0.26402104, -312949.72, 30750.72, 0.0, 10.000255, 9.999133 
4.7501275e+2, 2.749285e+2, -336304.5, -386910.44, -76935.48, 0.07033357, 0.14591452, -280617.9, -34902.23, 0.0, 9.99976, 9.999113 
4.750135e+2, 2.849269e+2, -223420.63, -301719.38, 26661.805, -0.000448108, 0.09090344, -215204.13, -67475.33, 0.0000000367379, 9.999945, 9.998932 
4.7501627e+2, 2.949254e+2, 2531.0698, -118336.195, 58092.33, -0.015079642, 0.0012091175, 25924.297, 75664.59, 0.000004901276, 10.000706, 9.999155 
4.7501993e+2, 3.049256e+2, 48272.098, -196697.22, -46252.473, 0.2057191, 0.15902637, 56714.074, 56714.074, 0.000032907166, 10.001246, 9.998036 
4.750184e+2, 3.1492373e+2, 158101.38, -21999.953, 43836.68, -0.030435383, 0.15307935, 168204.48, 168204.48, 0.00010232853, 10.001414, 9.999147 
4.8499393e+2, 1.2493346e+2, -1829134.3, -1669699.1, -96618.41, 0.06950141, 0.05743123, -1624156.9, 91500.664, 0.00008688649, 9.998732, 10.000886 
4.8499995e+2, 1.349345e+2, -1657166.9, -1549093.6, 110341.23, 0.2514591, 0.03672152, -1480268.0, 137377.83, 0.000032757685, 9.999281, 10.000823 
4.8499918e+2, 1.4493442e+2, -1611322.3, -1684574.3, -31585.865, -0.22755425, 0.049797073, -1599583.6, -79936.34, 0.000007215262, 9.999835, 9.998914 
4.8500293e+2, 1.5493326e+2, -1396902.4, -1534004.9, -73765.914, 0.12913749, 0.0014731053, -1364752.8, 56909.21, 0.00000059770906, 10.000652, 9.998888 
4.8500517e+2, 1.6493294e+2, -1248609.4, -1357503.0, 17794.506, 0.27785918, 0.06299502, -1245775.4, 77891.78, 0.0000000048834687, 10.000783, 9.999355 
4.8500538e+2, 1.7493317e+2, -1232230.8, -1296237.9, 19955.46, 0.1180134, 0.117231734, -1226518.9, -853.0276, 0.0, 10.000218, 9.999372 
4.8500547e+2, 1.8493272e+2, -1117098.6, -1142546.4, -21342.83, 0.008568557, 0.118987635, -1104974.8, 22695.49, 0.0, 10.00012, 9.9998 
4.8500586e+2, 1.9493142e+2, -971641.6, -1022414.25, -54895.27, -0.0102853635, -0.0266646, -936546.94, 93135.15, 0.0, 10.000444, 9.999798 
4.850069e+2, 2.0493156e+2, -874196.0, -982251.44, -47217.664, 0.017173147, 0.03883455, -856470.7, 75210.87, 0.0, 10.000687, 9.999298 
4.8500866e+2, 2.1493292e+2, -774767.2, -879755.2, -77749.4, 0.098499164, 0.21422364, -733449.75, 100221.195, 0.0, 10.000682, 9.999328 
4.850102e+2, 2.2493237e+2, -717048.9, -862734.7, -18544.963, 0.09321375, 0.25863853, -714725.25, 20951.986, 0.0, 10.000676, 9.998766 
4.8501146e+2, 2.3492962e+2, -619510.1, -772582.06, -1009.8445, 0.000016540616, 0.079735294, -619503.44, 18200.045, 0.0, 10.000688, 9.998715 
4.8501223e+2, 2.4492857e+2, -536567.5, -639655.4, -57047.54, -0.01981774, 0.0891494, -511227.1, 28486.682, 0.0, 10.000409, 9.999082 
4.850126e+2, 2.5492913e+2, -530014.44, -587385.6, -65917.98, 0.04293699, 0.2016571, -486810.94, -45102.055, 0.0, 9.999791, 9.9990635 
4.8501334e+2, 2.6492855e+2, -428312.22, -541779.8, -46071.844, 0.110680915, 0.26788163, -411961.56, -68246.664, 0.0, 10.000052, 9.99858 
4.8501414e+2, 2.7492636e+2, -161140.1, -366124.25, -85263.05, 0.16531223, 0.15981409, -130311.45, 115425.41, 0.0, 10.0012245, 9.998555 
4.8501503e+2, 2.8492442e+2, -10749.857, -186628.94, 3997.4392, 0.09754224, 0.09211704, -10659.049, 137095.03, 0.00000008825205, 10.001344, 9.99905 
4.8501682e+2, 2.9492304e+2, -44470.363, -131860.23, -41974.473, -0.0032392442, 0.002747752, -27575.664, 22187.93, 0.0000056092463, 10.000341, 9.999235 
4.850199e+2, 3.0492342e+2, -131305.53, -294795.5, -89711.49, 0.14894727, 0.18247452, -91681.68, -91681.68, 0.000035389916, 10.000065, 9.997921 
4.8501983e+2, 3.1492153e+2, 66395.47, -24284.459, 50125.508, 0.028233433, 0.18064956, 88644.55, 88644.55, 0.00010599746, 10.0006, 9.99952 
4.9499333e+2, 1.2493092e+2, -1892586.0, -1816069.3, -215085.36, 0.055662446, -0.08734152, -1635866.1, 79811.23, 0.00007926606, 9.998793, 9.999852 
4.949988e+2, 1.3493226e+2, -1734436.6, -1715347.4, 139817.77, 0.17744301, 0.03547366, -1584748.9, 32919.363, 0.000026309035, 9.999302, 9.999669 
4.9500033e+2, 1.4493285e+2, -1574850.5, -1594479.3, -15992.959, -0.13371906, 0.14047523, -1565900.6, -46235.613, 0.0000047383246, 9.999774, 9.999562 
4.9500325e+2, 1.5493229e+2, -1354127.8, -1440362.3, -28818.195, 0.061608545, 0.08749033, -1345383.9, 76287.82, 0.0000002991547, 10.000632, 9.999539 
4.9500492e+2, 1.6493179e+2, -1238943.0, -1328872.8, -17918.549, 0.1439138, 0.08767136, -1235504.3, 88173.22, 0.0000000005507737, 10.000741, 9.999576 
4.9500534e+2, 1.7493114e+2, -1222131.6, -1267296.5, 9367.528, 0.06150284, 0.03166858, -1220265.8, 5418.4956, 0.0, 10.000179, 9.999591 
4.9500588e+2, 1.8493143e+2, -1169948.4, -1230016.4, -21664.96, 0.00935836, 0.122711435, -1162949.8, -35266.496, 0.0, 10.000028, 9.999243 
4.950067e+2, 1.949324e+2, -1024433.4, -1111927.8, -32801.66, -0.0007070323, 0.262862, -1013501.8, 16175.243, 0.0, 10.000355, 9.9992285 
4.9500766e+2, 2.0493169e+2, -926316.75, -1061284.5, -62475.848, 0.0036505861, 0.29397386, -901837.0, 29848.383, 0.0, 10.000553, 9.998823 
4.9500886e+2, 2.1492898e+2, -828681.2, -964509.75, -64829.4, 0.022468971, 0.111798525, -802706.2, 31004.865, 0.0, 10.000549, 9.9988165 
4.9501035e+2, 2.2492762e+2, -687459.5, -762366.25, -28452.78, 0.01655466, 0.062377863, -677877.56, 57845.117, 0.0, 10.000519, 9.999526 
4.9501216e+2, 2.3492743e+2, -588291.25, -667778.25, 15535.837, -0.024201866, 0.059469454, -585362.6, 52359.125, 0.0, 10.000521, 9.999512 
4.950124e+2, 2.449269e+2, -540989.6, -621876.06, -92004.164, -0.072714925, 0.07113217, -480932.03, 58793.246, 0.0, 10.000298, 9.999257 
4.950111e+2, 2.5492567e+2, -531228.2, -569279.5, -74597.58, -0.12154184, -0.0074610827, -473268.28, -31531.984, 0.0, 9.9997, 9.999234 
4.950121e+2, 2.649249e+2, -492039.75, -653900.3, -16728.75, -0.047509763, 0.06961998, -490328.88, -146583.67, 0.0, 9.999975, 9.997843 
4.9501523e+2, 2.7492434e+2, -234455.97, -485715.44, -26072.168, 0.12365336, 0.19495314, -231779.08, 13976.069, 0.0, 10.001094, 9.99779 
4.9501678e+2, 2.8492275e+2, -46725.78, -247994.78, -43518.313, 0.10459068, 0.21823958, -37719.293, 110052.6, 0.00000018947561, 10.001289, 9.998653 
4.9501726e+2, 2.9492015e+2, -83574.45, -203206.47, -63901.43, -0.03293112, 0.05100289, -55861.336, -6066.1636, 0.000005650319, 10.000303, 9.99876 
4.9501967e+2, 3.0491996e+2, -84259.53, -203328.22, -78518.664, 0.088229, 0.16876912, -45256.984, -45256.984, 0.00003451672, 10.00008, 9.998545 
4.9502155e+2, 3.1491902e+2, 170017.75, 203879.16, 133833.94, 0.06443298, 0.18649185, 321849.06, 321849.06, 0.00010176044, 10.000539, 10.001117 
5.049939e+2, 1.2492953e+2, -1717830.1, -1748472.9, -245136.8, 0.18181214, -0.047980566, -1487536.4, 228157.36, 0.000066640154, 10.000097, 9.999666 
5.04998e+2, 1.3493024e+2, -1523155.9, -1653392.6, 152039.06, 0.100410484, 0.044328827, -1422876.9, 194813.38, 0.0000195532, 10.000923, 9.999311 
5.0500196e+2, 1.4493066e+2, -1438591.3, -1494210.9, 21424.049, 0.023731222, 0.13829605, -1431295.8, 88392.09, 0.0000028130235, 10.000577, 9.999857 
5.050037e+2, 1.5493059e+2, -1501194.1, -1472489.0, -51721.62, 0.10745109, 0.10300668, -1433165.5, -11476.509, 0.00000011765629, 9.999478, 9.999866 
5.050047e+2, 1.6493036e+2, -1435863.9, -1405244.0, -19782.555, 0.12958921, 0.10497419, -1395539.0, -71847.72, 0.000000000026416515, 9.999299, 9.999749 
5.050054e+2, 1.7492974e+2, -1239243.1, -1258680.6, -21900.688, 0.06733808, 0.03608585, -1225001.6, 695.89484, 0.0, 9.999974, 9.999755 
5.050063e+2, 1.849299e+2, -1129210.8, -1251846.5, -10400.512, 0.03519382, 0.12489152, -1128334.9, -636.87964, 0.0, 10.000487, 9.998874 
5.050076e+2, 1.9493061e+2, -985073.25, -1134148.3, -28667.086, 0.04286775, 0.27968827, -979750.6, 49944.56, 0.0, 10.000809, 9.9988575 
5.050086e+2, 2.0492963e+2, -889670.75, -1026112.4, -29334.486, 0.038774837, 0.29753026, -883631.25, 48074.36, 0.0, 10.000752, 9.998948 
5.0500923e+2, 2.149267e+2, -873567.6, -969588.7, -19159.055, 0.03306091, 0.07870702, -869885.94, -36153.945, 0.0, 10.000198, 9.998932 
5.0501055e+2, 2.2492543e+2, -801300.56, -808679.8, 42159.66, 0.03135171, 0.030256866, -762669.4, -26927.162, 0.0, 9.999689, 9.999616 
5.0501245e+2, 2.3492573e+2, -790646.56, -749210.8, 6615.8057, 0.03699573, 0.06519039, -748180.1, -110443.05, 0.0, 9.99908, 9.9996395 
5.050129e+2, 2.449252e+2, -684731.5, -715133.44, -88448.47, 0.0064107478, 0.081763186, -610187.25, -70446.55, 0.0, 9.999409, 9.999047 
5.0501204e+2, 2.549235e+2, -389721.53, -524231.9, -123273.195, -0.043734316, -0.025553713, -316550.44, 125206.195, 0.0, 10.000767, 9.999032 
5.0501305e+2, 2.6492232e+2, -291815.7, -572378.7, -23363.996, -0.01182904, 0.025611298, -289883.38, 53885.797, 0.0, 10.001409, 9.997721 
5.050159e+2, 2.749215e+2, -224278.05, -495052.9, -19435.713, 0.08772877, 0.13748503, -222890.1, 22890.658, 0.00000000061010413, 10.001221, 9.997669 
5.0501764e+2, 2.8491992e+2, -140971.44, -340924.88, -31661.256, 0.092821784, 0.19254623, -136077.86, 11719.548, 0.00000027597625, 10.000853, 9.998228 
5.050184e+2, 2.949176e+2, -124614.125, -279921.75, -89123.73, 0.06290356, 0.09968852, -84059.85, -34240.1, 0.0000049916057, 10.000268, 9.99826 
5.050201e+2, 3.049162e+2, -116997.94, -208133.28, -60089.902, 0.14583112, 0.1206063, -87152.02, -87152.02, 0.000030276777, 9.999809, 9.998642 
5.0502217e+2, 3.149155e+2, 19728.67, 179675.4, 74218.76, 0.14729807, 0.14017186, 208808.25, 208808.25, 0.000090633286, 9.9993, 10.001546 
5.149945e+2, 1.2492945e+2, -1672170.8, -1663672.9, -242650.45, 0.16189027, 0.18640074, -1425234.3, 290471.34, 0.000052165007, 10.000126, 10.000237 
5.149972e+2, 1.3492854e+2, -1484791.5, -1586051.9, 194101.75, -0.10707235, 0.066986725, -1334825.3, 282885.53, 0.000013925394, 10.000971, 9.999752 
5.1500374e+2, 1.4492798e+2, -1445278.0, -1508154.1, -38112.75, 0.09953567, 0.045696422, -1427310.3, 92404.61, 0.000001645238, 10.00057, 9.99977 
5.150038e+2, 1.549281e+2, -1509662.1, -1486897.1, -77320.52, 0.13901879, 0.039224684, -1420125.9, 1588.3041, 0.00000003629146, 9.99946, 9.999781 
5.1500416e+2, 1.6492857e+2, -1440407.4, -1394837.6, -4576.8594, 0.10891056, 0.110429466, -1394382.5, -70672.89, 0.0, 9.999219, 9.999854 
5.1500505e+2, 1.7492907e+2, -1240587.0, -1248632.6, 17311.992, 0.0015184815, 0.13906723, -1226836.6, -1131.8988, 0.0, 9.999927, 9.999841 
5.1500636e+2, 1.8492833e+2, -1150368.9, -1278878.3, -10628.973, -0.04269128, 0.1411478, -1149495.6, -21783.162, 0.0, 10.000413, 9.998721 
5.150082e+2, 1.949261e+2, -1003067.9, -1160270.6, -1811.9106, -0.012174804, 0.013030891, -1003047.0, 26688.8, 0.0, 10.0007515, 9.998706 
5.150093e+2, 2.0492534e+2, -873238.94, -957064.94, -62572.1, 0.004290802, 0.03213052, -839839.44, 91903.59, 0.0, 10.0006, 9.999497 
5.1500946e+2, 2.1492592e+2, -851356.4, -893195.4, -27879.076, 0.00590766, 0.10345227, -837420.94, -3685.3208, 0.0, 10.000061, 9.999524 
5.1501036e+2, 2.2492567e+2, -856422.44, -897118.3, 3724.3853, 0.024611918, 0.1551457, -856084.4, -120347.03, 0.0, 9.999569, 9.999072 
5.1501197e+2, 2.349244e+2, -848145.2, -841018.8, -3701.691, 0.04615024, 0.090357825, -839444.06, -201693.53, 0.0, 9.998954, 9.999074 
5.1501346e+2, 2.4492344e+2, -732657.25, -796794.4, -50635.727, 0.08217622, 0.11863676, -704789.44, -165028.7, 0.0, 9.999331, 9.998523 
5.150149e+2, 2.5492254e+2, -442574.3, -607993.2, -56943.586, 0.13288686, 0.14175992, -424867.5, 16902.629, 0.0, 10.0006485, 9.998514 
5.150157e+2, 2.6492077e+2, -271183.72, -512245.0, -42324.742, 0.0886395, 0.13532607, -263968.44, 79818.195, 0.0, 10.001337, 9.998171 
5.1501596e+2, 2.749177e+2, -201177.05, -432354.72, -6509.7686, -0.0667016, -0.017817324, -200993.89, 44820.465, 0.0000000018853024, 10.001148, 9.998141 
5.150172e+2, 2.849159e+2, -180138.92, -414720.25, -66291.79, -0.06756818, 0.016031371, -162701.34, -14870.098, 0.00000034894228, 10.000826, 9.997729 
5.150197e+2, 2.9491532e+2, -174164.88, -367580.34, -92749.58, 0.11967299, 0.14162575, -136876.83, -87038.22, 0.000004315403, 10.0002, 9.997688 
5.1502055e+2, 3.0491212e+2, -150635.72, -267736.13, -85232.93, 0.17848487, 0.033411145, -105780.02, -105780.02, 0.000026122347, 9.999783, 9.998244 
5.150209e+2, 3.149104e+2, -47119.977, 64836.496, 114318.07, 0.02526713, -0.0024345054, 136146.06, 136146.06, 0.000081293096, 9.999215, 10.000796 
5.2499616e+2, 1.2492881e+2, -1478340.5, -1579925.4, -68588.02, 0.2584661, 0.24517812, -1443785.5, 271929.6, 0.000041919076, 10.001485, 10.000156 
5.2499664e+2, 1.3492776e+2, -1631395.5, -1668335.1, 199844.11, -0.20161007, 0.122831315, -1449169.5, 168551.47, 0.000010470756, 10.000015, 9.999643 
5.2500504e+2, 1.4492673e+2, -1604158.4, -1589095.5, -2392.6836, 0.23340803, 0.06283989, -1588724.6, -68995.97, 0.0000009776196, 9.999502, 9.999726 
5.250041e+2, 1.5492673e+2, -1357980.9, -1416628.8, -66754.414, 0.18009973, 0.04524221, -1314393.6, 107334.414, 0.000000005050013, 10.000512, 9.999751 
5.25004e+2, 1.6492707e+2, -1252178.8, -1335581.5, 22445.738, 0.11685559, 0.11741879, -1246521.8, 77202.914, 0.0, 10.000641, 9.999585 
5.250053e+2, 1.7492738e+2, -1268945.4, -1293701.5, -12305.799, 0.049028754, 0.1587271, -1263869.1, -38147.152, 0.0, 9.999852, 9.999578 
5.2500683e+2, 1.8492642e+2, -1237228.8, -1286170.1, 591.8924, 0.01039734, 0.13793898, -1237221.5, -109490.195, 0.0, 9.999669, 9.999038 
5.250087e+2, 1.9492395e+2, -1095762.6, -1166145.4, 14154.942, 0.005704338, -0.04100872, -1093022.6, -63267.684, 0.0, 9.999973, 9.999041 
5.250097e+2, 2.0492321e+2, -931324.56, -1028812.8, -50086.21, 0.009056572, -0.016867362, -910178.6, 21583.55, 0.0, 10.000376, 9.999117 
5.2500993e+2, 2.14924e+2, -771544.2, -902776.6, -110406.18, 0.020839363, 0.115569435, -708727.5, 125027.69, 0.0, 10.0008, 9.999109 
5.250109e+2, 2.2492376e+2, -688633.56, -850352.94, -98194.445, 0.05634833, 0.20408618, -642290.94, 93467.9, 0.0, 10.000889, 9.998741 
5.250124e+2, 2.349222e+2, -623573.5, -773168.0, -117761.94, 0.11442218, 0.14328766, -558862.7, 78913.6, 0.0, 10.000672, 9.99871 
5.2501386e+2, 2.4492115e+2, -576672.5, -722359.0, -81129.75, 0.14571634, 0.18177947, -540482.8, -695.3149, 0.0, 10.000409, 9.998518 
5.2501535e+2, 2.5492045e+2, -527944.3, -647730.94, -75239.12, 0.15568905, 0.22866157, -491670.44, -49876.65, 0.0, 10.000069, 9.998519 
5.250166e+2, 2.649185e+2, -455296.6, -579082.75, -41012.81, 0.11617296, 0.19623333, -442941.4, -99130.586, 0.0, 9.999983, 9.998355 
5.250175e+2, 2.74915e+2, -332950.94, -465867.16, -54917.523, 0.03613746, -0.02264133, -313196.44, -67354.836, 0.00000000009174081, 10.000143, 9.998375 
5.2501893e+2, 2.849132e+2, -207512.4, -425216.03, -70235.92, 0.03860209, -0.0070181214, -186819.63, -38962.01, 0.00000033351301, 10.000622, 9.997755 
5.2502054e+2, 2.9491284e+2, 1667.7528, -276478.72, -88885.586, 0.1410641, 0.1409093, 27646.06, 77507.25, 0.0000041082662, 10.001379, 9.997742 
5.250204e+2, 3.0490932e+2, 16517.744, -198926.61, -61359.98, 0.14195366, 0.0013426854, 32767.8, 32767.8, 0.000024723933, 10.000975, 9.998152 
5.2502114e+2, 3.1490764e+2, -157980.19, -84331.82, 100669.76, 0.15630838, -0.010995188, -13962.631, -13962.631, 0.00007789345, 9.998866, 9.999947 
5.349981e+2, 1.2492752e+2, -1512847.6, -1663928.0, -56792.35, 0.22030301, 0.117840774, -1493880.3, 221843.1, 0.000035694404, 10.00155, 9.999546 
5.3499585e+2, 1.3492794e+2, -1686341.8, -1775035.5, 146210.1, -0.30779976, 0.21671456, -1577901.0, 39819.05, 0.000008273398, 9.999987, 9.99893 
5.3500533e+2, 1.4492698e+2, -1610824.8, -1593167.5, 18888.457, 0.27174184, 0.19971791, -1581146.3, -61417.668, 0.00000061502607, 9.999456, 9.999717 
5.3500414e+2, 1.5492652e+2, -1362815.3, -1423988.3, -15448.532, 0.1006813, 0.13242427, -1359135.3, 62594.957, 0.00000000036285042, 10.000497, 9.999707 
5.3500414e+2, 1.6492578e+2, -1305646.0, -1435313.4, -22795.357, 0.033627342, 0.13252032, -1301755.4, 21981.51, 0.0, 10.000593, 9.998925 
5.350059e+2, 1.7492458e+2, -1320132.8, -1393789.8, -28688.953, 0.09476952, 0.08975637, -1310277.3, -84526.9, 0.0, 9.999825, 9.998908 
5.3500736e+2, 1.849241e+2, -1196944.3, -1186410.4, -474.45413, 0.07184733, 0.11505789, -1186389.0, -58634.066, 0.0, 9.9995985, 9.999755 
5.3500855e+2, 1.949241e+2, -1059012.0, -1073434.6, 39062.29, -0.030666774, 0.10803331, -1026501.0, 3252.2803, 0.0, 9.999893, 9.999719 
5.350095e+2, 2.0492321e+2, -1042558.56, -1221813.1, -46792.31, -0.07390182, 0.14573188, -1031079.1, -99315.6, 0.0, 10.000222, 9.997861 
5.350104e+2, 2.1492119e+2, -883579.75, -1098385.5, -82934.03, -0.04494933, 0.12471071, -855286.5, -21498.01, 0.0, 10.000644, 9.997837 
5.350116e+2, 2.2491987e+2, -725712.5, -896724.94, -119155.5, 0.017480131, 0.18196984, -664558.06, 71246.72, 0.0, 10.000751, 9.998494 
5.350133e+2, 2.3491912e+2, -660394.44, -812176.7, -112435.99, 0.11144224, 0.22134396, -600634.1, 37179.92, 0.0, 10.000511, 9.998517 
5.3501385e+2, 2.4491824e+2, -559521.75, -661753.8, -105836.94, 0.08047729, 0.26459098, -493103.5, 46718.1, 0.0, 10.000308, 9.9989805 
5.350132e+2, 2.5491703e+2, -509726.34, -587491.94, -72772.15, -0.0985331, 0.21114245, -466100.6, -24270.87, 0.0, 9.999974, 9.998977 
5.350153e+2, 2.649155e+2, -464479.97, -587492.5, -49020.285, -0.0450378, 0.19875547, -447335.06, -103492.3, 0.0, 9.999933, 9.9983225 
5.350201e+2, 2.749133e+2, -347095.34, -480250.16, -33271.848, 0.24787909, 0.11569784, -339244.5, -93380.57, 0.0, 10.000066, 9.9983225 
5.350222e+2, 2.849116e+2, -169582.05, -338208.78, -52730.953, 0.27465475, 0.11156853, -154450.47, -6571.802, 0.00000019037492, 10.000592, 9.9983635 
5.3502095e+2, 2.949101e+2, 34396.797, -190791.9, -38467.14, -0.003984306, 0.08685355, 40786.516, 90675.375, 0.0000040138116, 10.001301, 9.99837 
5.3501934e+2, 3.0490768e+2, 22989.361, -188257.27, -143722.48, -0.092250645, 0.022005301, 95726.46, 95726.46, 0.000024880646, 10.000978, 9.998222 
5.350216e+2, 3.1490725e+2, -217797.73, -226407.1, 66284.22, 0.24407642, 0.1292204, -155678.56, -155678.56, 0.00007745561, 9.998921, 9.998949 
5.4499984e+2, 1.2492595e+2, -1602404.6, -1781303.4, -36968.47, 0.26229027, 0.09438296, -1595066.4, 120670.72, 0.00003031358, 10.001248, 9.998921 
5.4499626e+2, 1.3492598e+2, -1610657.3, -1782420.4, -6293.6304, -0.29046786, 0.2048219, -1610426.9, 7313.1294, 0.000006366235, 10.000713, 9.998531 
5.4500586e+2, 1.4492485e+2, -1511258.4, -1550357.1, -21780.238, 0.356165, 0.19599935, -1501540.8, 18210.377, 0.00000037085837, 10.0001545, 9.999685 
5.450044e+2, 1.5492482e+2, -1391639.8, -1437781.0, -84697.23, 0.098383196, 0.17340674, -1326927.3, 94821.02, 0.00000000007720086, 10.000292, 9.999718 
5.450044e+2, 1.6492392e+2, -1361329.8, -1452203.8, -75482.52, 0.0354288, 0.15320942, -1318663.9, 5091.957, 0.0, 10.000196, 9.998984 
5.450067e+2, 1.7492202e+2, -1328692.4, -1388667.4, -58232.023, 0.20319885, 0.036022354, -1293180.1, -67404.945, 0.0, 9.999758, 9.998963 
5.450082e+2, 1.8492171e+2, -1178318.5, -1172956.4, 31984.166, 0.19622135, 0.07373217, -1143541.1, -15762.976, 0.0, 9.999681, 9.999819 
5.450089e+2, 1.9492286e+2, -1035414.75, -1052329.8, -291.7994, 0.01578844, 0.17303441, -1035409.7, -5643.4917, 0.0, 9.99999, 9.999821 
5.450099e+2, 2.0492224e+2, -1022344.94, -1209302.6, -31083.518, -0.05739424, 0.22966835, -1017312.44, -85538.35, 0.0, 10.00035, 9.997893 
5.4501134e+2, 2.149195e+2, -886423.0, -1091174.3, 6175.6914, -0.0045000003, 0.13530786, -886236.9, -52431.793, 0.0, 10.000603, 9.997906 
5.450127e+2, 2.2491783e+2, -754160.2, -932304.25, 23013.002, 0.061668813, 0.16260359, -751235.4, -15411.202, 0.0, 10.00064, 9.998306 
5.4501396e+2, 2.3491701e+2, -685454.75, -852338.75, 2112.764, 0.14135173, 0.21783811, -685428.0, -47594.34, 0.0, 10.00045, 9.9982815 
5.450143e+2, 2.449158e+2, -542202.4, -664562.06, 21004.625, 0.09594121, 0.24532484, -538697.06, 1147.4678, 0.0, 10.000474, 9.998881 
5.450136e+2, 2.5491402e+2, -404876.34, -549588.2, -19095.92, -0.089160524, 0.14291559, -402398.88, 39460.105, 0.0, 10.000748, 9.998867 
5.4501563e+2, 2.6491278e+2, -380478.5, -542154.5, 3673.4575, -0.025540756, 0.16620687, -380395.1, -36525.195, 0.0, 10.000501, 9.998354 
5.4502064e+2, 2.749118e+2, -386600.13, -493333.88, -4600.13, 0.3156123, 0.19713467, -386402.22, -140521.52, 0.0, 9.999774, 9.998371 
5.450231e+2, 2.8491023e+2, -286092.84, -360478.63, 28819.96, 0.3518469, 0.1935543, -276233.63, -128339.48, 0.00000011177434, 9.999657, 9.998664 
5.4502213e+2, 2.9490805e+2, -107175.96, -216828.22, -4705.3867, 0.057091236, 0.07074356, -106974.414, -57064.047, 0.0000045059896, 10.000178, 9.998721 
5.450201e+2, 3.0490655e+2, -26413.463, -211969.0, -154190.08, -0.09087499, 0.07902502, 60759.58, 60759.58, 0.000026381855, 10.000633, 9.9982195 
5.450219e+2, 3.149062e+2, -25989.29, -143613.27, -1191.1536, 0.32254025, 0.19030748, -25977.229, -25977.229, 0.00007890932, 10.000295, 9.998837 
5.550006e+2, 1.2492431e+2, -1632550.6, -1842177.8, 41605.39, 0.15613914, 0.21076074, -1624595.0, 91159.336, 0.000026661766, 10.001246, 9.998499 
5.549974e+2, 1.3492191e+2, -1624863.9, -1814027.1, -25521.766, -0.27621287, 0.097937554, -1621481.0, -3700.569, 0.0000052899522, 10.000714, 9.998322 
5.550064e+2, 1.4492026e+2, -1513615.3, -1542315.5, -36767.355, 0.35992974, 0.04370055, -1488496.9, 31300.06, 0.00000021782215, 10.000113, 9.999755 
5.550046e+2, 1.5492159e+2, -1392205.4, -1434577.6, -62228.48, 0.052506052, 0.15738182, -1347655.4, 74126.71, 0.00000000000011946363, 10.000273, 9.999752 
5.550046e+2, 1.6492149e+2, -1313035.1, -1348440.8, -104308.58, -0.007611338, 0.18064648, -1224937.9, 98843.08, 0.0, 10.000177, 9.999707 
5.550073e+2, 1.7491964e+2, -1284462.3, -1289102.8, -62973.547, 0.2509536, -0.0056298417, -1223766.3, 2030.6304, 0.0, 9.999719, 9.999669 
5.550089e+2, 1.8491928e+2, -1225302.4, -1248351.0, 31158.676, 0.27135444, 0.014590572, -1203605.1, -75804.65, 0.0, 9.999588, 9.999348 
5.5500937e+2, 1.9492029e+2, -1083540.8, -1134347.8, 25853.924, 0.029579682, 0.15152831, -1072698.4, -42904.785, 0.0, 9.999906, 9.999307 
5.5501044e+2, 2.0492028e+2, -947665.75, -1020269.1, -33391.215, -0.06287515, 0.22909091, -934644.1, -2850.1445, 0.0, 10.000211, 9.999252 
5.550124e+2, 2.1491893e+2, -814117.25, -904939.1, 29732.865, 0.011331459, 0.13705233, -805249.3, 28555.387, 0.0, 10.000443, 9.999261 
5.550136e+2, 2.2491752e+2, -793953.06, -976060.7, 3336.4702, 0.06397979, 0.13165054, -793891.94, -58074.09, 0.0, 10.000476, 9.998085 
5.550141e+2, 2.3491584e+2, -727189.94, -896185.75, 9015.078, 0.08364818, 0.12499238, -726710.44, -88874.98, 0.0, 10.000272, 9.998063 
5.5501497e+2, 2.4491388e+2, -605990.4, -775519.25, 19792.322, 0.080015615, 0.1243074, -603710.25, -63854.473, 0.0, 10.000369, 9.998179 
5.55016e+2, 2.549114e+2, -468343.06, -656580.7, 6865.4707, 0.04323699, 0.025473185, -468092.97, -26211.594, 0.0, 10.000634, 9.998192 
5.5501723e+2, 2.6491034e+2, -383091.22, -533621.2, -35909.676, 0.053471062, 0.09245514, -374963.63, -31071.064, 0.0, 10.0004425, 9.99844 
5.550187e+2, 2.749103e+2, -394811.56, -493832.53, -17913.533, 0.114926405, 0.21345536, -391670.53, -145777.2, 0.0, 9.9997, 9.998406 
5.550211e+2, 2.84909e+2, -290219.9, -361861.38, 33504.652, 0.16529363, 0.23602584, -276992.84, -129087.41, 0.00000024371042, 9.999622, 9.998675 
5.550238e+2, 2.9490653e+2, -112680.63, -222559.4, 35263.32, 0.16071521, 0.078505605, -102337.266, -52409.1, 0.0000058589785, 10.000139, 9.998708 
5.550219e+2, 3.0490577e+2, -35475.133, -215655.3, -171849.28, 0.003725441, 0.16430841, 68466.74, 68466.74, 0.000029984647, 10.000581, 9.998213 
5.5502117e+2, 3.1490436e+2, 7944.891, -54352.535, 22918.451, 0.14976087, 0.16536115, 15467.843, 15467.843, 0.00008416486, 10.000208, 9.999496 
5.6500214e+2, 1.24920934e+2, -1665135.3, -1805778.6, 142787.4, 0.2251378, 0.20234537, -1576292.3, 139495.95, 0.000022362967, 10.00078, 9.998964 
5.649985e+2, 1.3491939e+2, -1633614.9, -1740118.3, -36733.79, -0.19896041, 0.10310093, -1622174.1, -4369.8623, 0.000004259607, 10.000315, 9.999004 
5.6500584e+2, 1.4491804e+2, -1547555.4, -1558607.4, 38764.96, 0.31412104, 0.04190207, -1513924.5, 5892.6284, 0.00000013010742, 9.99985, 9.999784 
5.650053e+2, 1.5491879e+2, -1469177.1, -1462978.5, -10476.909, 0.13419461, 0.09268619, -1455152.1, -33343.47, 0.0, 9.9997015, 9.999837 
5.6500536e+2, 1.6491903e+2, -1328224.6, -1349489.0, -34406.527, 0.07163285, 0.14247563, -1302845.0, 20959.69, 0.0, 10.000032, 9.999775 
5.6500703e+2, 1.7491837e+2, -1093955.5, -1185167.9, -65749.65, 0.20244068, 0.06521403, -1059543.3, 166266.34, 0.0, 10.000962, 9.999781 
5.650085e+2, 1.8491788e+2, -1039515.7, -1212182.3, 11874.18, 0.21002908, 0.08885079, -1038702.94, 89112.49, 0.0, 10.001108, 9.998852 
5.6500983e+2, 1.949174e+2, -1061327.5, -1172352.3, -17115.555, 0.07503068, 0.123395234, -1058748.9, -28924.834, 0.0, 10.000291, 9.998842 
5.6501126e+2, 2.0491716e+2, -942022.3, -942418.3, -57797.91, 0.022334326, 0.16837464, -884422.06, 47403.527, 0.0, 9.999925, 9.999923 
5.650132e+2, 2.1491699e+2, -832648.25, -833515.44, -70809.516, 0.079476215, 0.12618758, -762271.0, 71550.91, 0.0, 9.999981, 9.999968 
5.650144e+2, 2.2491586e+2, -797001.56, -963510.8, -77432.23, 0.105727755, 0.10723021, -766558.9, -30728.688, 0.0, 10.000398, 9.998205 
5.650149e+2, 2.3491345e+2, -591390.5, -815402.06, -69435.586, 0.102306396, 0.015088925, -571613.94, 66239.63, 0.0, 10.001139, 9.998195 
5.650159e+2, 2.4491173e+2, -528208.7, -764238.8, -25094.146, 0.11632684, 0.04289404, -525570.25, 14302.78, 0.0, 10.001045, 9.997911 
5.650173e+2, 2.5491044e+2, -557271.6, -732729.56, -38069.81, 0.14601251, 0.09017685, -549367.5, -107476.13, 0.0, 10.000181, 9.997879 
5.6501824e+2, 2.649093e+2, -393587.63, -523440.88, -17411.934, 0.12901208, 0.15910275, -391293.4, -47389.34, 0.0, 10.0002985, 9.998579 
5.6501883e+2, 2.7490804e+2, -132513.0, -345356.1, -18761.318, 0.077362455, 0.14100318, -130871.92, 115041.68, 0.0, 10.001414, 9.998591 
5.650209e+2, 2.8490666e+2, -82718.11, -255537.94, 37810.027, 0.12621094, 0.13972339, -74807.98, 73118.29, 0.00000046127252, 10.000997, 9.998747 
5.650242e+2, 2.9490525e+2, -276640.03, -301105.13, 20547.566, 0.25048488, 0.08224645, -264959.47, -215018.66, 0.000007820285, 9.998992, 9.998727 
5.650222e+2, 3.0490485e+2, -257272.97, -326046.2, -94703.625, 0.05581115, 0.20698899, -190906.34, -190906.34, 0.00003595913, 9.99907, 9.998185 
5.65022e+2, 3.1490383e+2, 135799.52, 64869.465, 34776.66, 0.19162095, 0.24250437, 150005.25, 150005.25, 0.000094486146, 10.000845, 10.000007 
5.750041e+2, 1.2491555e+2, -1572096.8, -1596196.8, 175586.31, 0.2733874, 0.039420635, -1408147.5, 307694.2, 0.000015098279, 10.000724, 10.000419 
5.7499915e+2, 1.3491826e+2, -1531253.8, -1524598.0, -51253.96, -0.20085227, 0.21350229, -1476564.0, 141249.14, 0.0000026568694, 10.000301, 10.000486 
5.750038e+2, 1.4491811e+2, -1540995.0, -1538410.0, 11492.485, 0.08816726, 0.19062214, -1528137.6, -8324.898, 0.000000050157187, 9.999827, 9.999931 
5.750062e+2, 1.5491639e+2, -1467241.6, -1451067.9, -2883.0994, 0.22274461, -0.0153057305, -1450569.4, -28741.426, 0.0, 9.999667, 9.999939 
5.7500654e+2, 1.6491649e+2, -1369870.6, -1420468.5, -15525.451, 0.15291007, 0.034774516, -1365486.6, -41658.96, 0.0, 9.999965, 9.999317 
5.750056e+2, 1.7491819e+2, -1135607.9, -1263396.4, -17316.334, -0.06990851, 0.242306, -1133303.0, 92510.9, 0.0, 10.000922, 9.999265 
5.750068e+2, 1.8491754e+2, -1080773.9, -1280704.8, -29458.768, -0.111473724, 0.29919964, -1076523.6, 51298.97, 0.0, 10.00104, 9.998412 
5.750099e+2, 1.9491416e+2, -1108680.1, -1243066.0, -34498.094, 0.020539097, 0.09098793, -1100341.6, -70484.09, 0.0, 10.000177, 9.998409 
5.750121e+2, 2.0491295e+2, -961923.3, -948732.3, -71248.984, 0.087748595, 0.055581063, -883774.2, 48094.13, 0.0, 9.999771, 9.999956 
5.7501334e+2, 2.1491374e+2, -857152.94, -844800.25, -56434.26, 0.07717391, 0.10833996, -794205.4, 39650.758, 0.0, 9.999808, 9.999976 
5.7501465e+2, 2.2491287e+2, -779921.25, -894191.4, -62176.656, 0.06732369, 0.08820426, -752614.94, -16753.71, 0.0, 10.000246, 9.998757 
5.750159e+2, 2.3490997e+2, -574141.25, -744676.4, -27134.098, 0.05984344, -0.10806745, -569928.0, 67959.04, 0.0, 10.000986, 9.998755 
5.7501686e+2, 2.4490939e+2, -535911.94, -764810.4, -71471.59, 0.07494667, 0.003464653, -515428.53, 24467.45, 0.0, 10.000965, 9.997954 
5.7501733e+2, 2.5491095e+2, -569672.94, -734941.4, -55558.582, 0.09746632, 0.3329129, -552732.2, -110842.02, 0.0, 10.00007, 9.997923 
5.7501847e+2, 2.6490957e+2, -380401.3, -489801.72, 10898.312, 0.0917995, 0.3624771, -379326.22, -35421.55, 0.0, 10.000258, 9.9988365 
5.7502043e+2, 2.7490488e+2, -119467.83, -308392.53, 34854.67, 0.060044054, -0.026542177, -113242.625, 132700.19, 0.0, 10.001353, 9.998883 
5.7502204e+2, 2.849031e+2, -72046.13, -219984.64, -51273.285, 0.10222537, -0.09421353, -56013.164, 91944.016, 0.0000006054728, 10.000943, 9.999018 
5.750228e+2, 2.9490417e+2, -273221.03, -276542.72, -35230.586, 0.1768653, 0.07266278, -239612.17, -189663.2, 0.000009307056, 9.99892, 9.99893 
5.7502043e+2, 3.0490392e+2, -267336.63, -338847.3, -33068.85, -0.052875776, 0.20744662, -254388.84, -254388.84, 0.000040671366, 9.999042, 9.998116 
5.750236e+2, 3.1490386e+2, 144534.6, 95811.17, 129565.19, 0.201328, 0.34714213, 252008.5, 252008.5, 0.000103750725, 10.000787, 10.000256 
5.8500415e+2, 1.2491272e+2, -1660947.4, -1631879.5, 291743.5, 0.2572477, 0.029983595, -1354308.1, 361559.94, 0.000008007214, 10.00005, 10.00052 
5.8500093e+2, 1.3491553e+2, -1634324.4, -1558996.4, -117696.26, -0.006208153, 0.20391032, -1473084.5, 144754.73, 0.0000012151539, 9.99952, 10.000637 
5.85003e+2, 1.4491588e+2, -1607486.9, -1530609.1, -38412.395, 0.062376797, 0.2079762, -1514706.0, 5128.303, 0.000000012980553, 9.999236, 10.000245 
5.8500576e+2, 1.5491465e+2, -1441405.1, -1396201.4, -72350.25, 0.22199705, 0.014149982, -1343004.8, 78839.8, 0.0, 9.99969, 10.0002775 
5.850065e+2, 1.6491473e+2, -1378648.4, -1428239.3, -18714.354, 0.16246639, 0.048617214, -1372378.8, -48534.324, 0.0, 9.99991, 9.999297 
5.8500594e+2, 1.7491604e+2, -1288538.5, -1334976.8, -9177.354, -0.06792899, 0.21954527, -1286790.6, -60955.633, 0.0, 9.999861, 9.999288 
5.8500725e+2, 1.849155e+2, -1208131.6, -1306587.9, 24967.418, -0.10388984, 0.26812276, -1202162.1, -74320.195, 0.0, 10.000006, 9.998742 
5.850104e+2, 1.9491264e+2, -1065891.6, -1190317.6, 51840.79, 0.057842795, 0.08209205, -1047123.56, -17254.04, 0.0, 10.000315, 9.998722 
5.8501244e+2, 2.0491138e+2, -930219.44, -997578.1, 51590.105, 0.12542598, 0.054048024, -902288.4, 29593.188, 0.0, 10.000261, 9.999378 
5.8501333e+2, 2.1491154e+2, -890852.9, -929486.7, -3921.0383, 0.09253491, 0.09949745, -890458.94, -56579.46, 0.0, 9.999858, 9.999373 
5.850147e+2, 2.2491081e+2, -810496.06, -851349.5, 19093.621, 0.07733659, 0.100757204, -802961.8, -67077.8, 0.0, 9.999803, 9.999268 
5.850166e+2, 2.3490891e+2, -665594.25, -735898.56, 20481.266, 0.07988527, -0.04496825, -660062.75, -22164.414, 0.0, 10.000129, 9.999238 
5.850176e+2, 2.4490838e+2, -607444.06, -797244.9, -27290.611, 0.08989679, 0.047124714, -603598.0, -63692.49, 0.0, 10.000461, 9.997968 
5.850177e+2, 2.5490907e+2, -445404.3, -670759.3, -40887.28, 0.09869358, 0.2865649, -438215.28, 3691.9795, 0.0, 10.000909, 9.997948 
5.8501905e+2, 2.649076e+2, -315889.13, -460427.56, 59173.242, 0.10604973, 0.30833337, -294754.3, 49168.76, 0.0, 10.000732, 9.998803 
5.850218e+2, 2.7490366e+2, -323063.53, -408980.97, 32720.373, 0.13636197, -0.0010555793, -312021.56, -66065.74, 0.0, 9.999991, 9.998841 
5.8502305e+2, 2.8490227e+2, -221555.13, -290484.22, -83067.59, 0.17147702, -0.02660088, -166086.2, -18119.34, 0.00000055145284, 9.9999075, 9.999028 
5.8502245e+2, 2.949033e+2, -63334.09, -173757.19, -115556.03, 0.18640213, 0.13409896, 9522.749, 59481.04, 0.000008783807, 10.000354, 9.99894 
5.850196e+2, 3.0490208e+2, -50627.754, -219453.44, -24548.943, -0.10066301, 0.1607864, -47130.535, -47130.535, 0.000039667964, 10.000458, 9.998246 
5.85025e+2, 3.1490147e+2, -4073.8684, 20971.98, 65047.863, 0.32375962, 0.22560816, 74691.4, 74691.4, 0.00010388018, 9.99978, 10.000214 
5.950019e+2, 1.2491239e+2, -1725879.3, -1765181.6, 203967.47, -0.0487681, 0.18310615, -1540618.5, 175249.42, 0.0000033727015, 10.000069, 9.999582 
5.950034e+2, 1.3491118e+2, -1719508.4, -1730430.6, -132582.08, 0.26073733, 0.070116356, -1592275.0, 25607.824, 0.00000044999516, 9.999507, 9.999465 
5.9500295e+2, 1.4491132e+2, -1577944.3, -1462438.8, -41310.742, 0.09528356, 0.086343184, -1449184.8, 70697.24, 0.000000014541682, 9.999207, 10.000724 
5.9500355e+2, 1.5491346e+2, -1413507.3, -1333971.9, -42576.277, -0.0039685993, 0.18078002, -1315479.6, 106379.445, 0.0, 9.999667, 10.000719 
5.9500486e+2, 1.6491383e+2, -1352764.8, -1359218.9, -34707.727, -0.02215793, 0.19811669, -1321134.4, 2720.021, 0.0, 9.999856, 9.999792 
5.950077e+2, 1.7491202e+2, -1260199.0, -1262891.8, 2244.738, 0.091136284, 0.007008327, -1258927.8, -33055.72, 0.0, 9.99981, 9.999804 
5.950097e+2, 1.849117e+2, -1142518.8, -1154133.1, 21262.955, 0.11424617, -0.0013140654, -1126284.3, 1589.6157, 0.0, 9.999934, 9.999824 
5.950109e+2, 1.949127e+2, -1008048.1, -1041057.0, 75905.87, 0.0437372, 0.08741104, -946873.1, 82987.945, 0.0, 10.000194, 9.999803 
5.950118e+2, 2.0491241e+2, -1030183.9, -1172677.8, 24295.7, 0.0058127865, 0.15939225, -1026155.25, -94289.74, 0.0, 10.000119, 9.998246 
5.9501255e+2, 2.1491048e+2, -994692.25, -1108089.5, -5277.433, 0.007247196, 0.1093847, -994447.2, -160556.42, 0.0, 9.9997015, 9.998222 
5.9501415e+2, 2.2490983e+2, -799031.5, -802331.94, 16072.713, 0.020252585, 0.1545826, -784524.5, -48626.938, 0.0, 9.999682, 9.999669 
5.9501654e+2, 2.349102e+2, -660094.9, -689579.06, 46602.914, 0.03643152, 0.19812879, -625957.94, 11930.164, 0.0, 9.99997, 9.999638 
5.950179e+2, 2.4490862e+2, -621363.25, -804421.5, -23454.695, 0.034613963, 0.16513091, -618405.8, -78503.734, 0.0, 10.00036, 9.997972 
5.950181e+2, 2.5490484e+2, -458888.28, -673817.4, -12674.333, 0.008742023, -0.044305824, -458143.47, -16201.232, 0.0, 10.000798, 9.997981 
5.950195e+2, 2.6490352e+2, -346862.78, -512714.78, 16682.016, 0.050231736, 0.0023250848, -345201.47, -1242.9557, 0.0, 10.00068, 9.998473 
5.950224e+2, 2.7490437e+2, -359907.1, -468971.8, 20570.11, 0.1670839, 0.2121694, -356156.44, -110203.51, 0.0, 9.999918, 9.998469 
5.950237e+2, 2.8490418e+2, -246345.73, -329091.75, -77853.3, 0.20765722, 0.33477813, -199554.9, -51599.273, 0.0000003359344, 9.999856, 9.998785 
5.950226e+2, 2.949026e+2, -89768.66, -205189.94, -81464.33, 0.12307264, 0.25623128, -47644.66, 2324.9219, 0.000006914508, 10.000261, 9.998765 
5.950193e+2, 3.048992e+2, -29785.293, -172591.6, -55387.867, -0.21098477, 0.05903811, -10821.2705, -10821.2705, 0.000035638073, 10.000433, 9.998585 
5.9502506e+2, 3.1489682e+2, -18812.416, -1092.6581, 34467.566, 0.27516347, -0.082523964, 25635.531, 25635.531, 0.00009897654, 9.999742, 10.000079 
6.050014e+2, 1.2491039e+2, -1847522.5, -1805862.1, 158419.4, -0.0433688, 0.1930147, -1666909.4, 48977.703, 0.0000011596172, 9.999154, 9.99975 
6.0500443e+2, 1.349088e+2, -1624678.0, -1660554.1, -68756.28, 0.39946303, 0.028434249, -1571558.4, 46346.816, 0.00000014603442, 10.000079, 9.999652 
6.050019e+2, 1.4490889e+2, -1461202.0, -1412882.4, 76080.02, 0.043124508, 0.032326106, -1357218.3, 162686.61, 0.0000000031309833, 10.000011, 10.0007 
6.0500276e+2, 1.5491144e+2, -1473236.6, -1365662.1, 2684.6243, -0.022849897, 0.17557916, -1365595.3, 56283.273, 0.0, 9.999256, 10.000715 
6.0500455e+2, 1.649119e+2, -1406547.1, -1375235.4, 34294.367, -0.0060538105, 0.19608022, -1353192.3, -29319.15, 0.0, 9.999425, 9.999898 
6.0500824e+2, 1.7490984e+2, -1148519.6, -1196786.6, 16685.158, 0.13389052, -0.030103173, -1143313.4, 82579.33, 0.0, 10.000513, 9.999923 
6.0501045e+2, 1.8490976e+2, -1014677.5, -1056664.1, -12256.623, 0.16166854, -0.03693607, -1011361.44, 116530.56, 0.0, 10.000677, 10.000127 
6.050111e+2, 1.9491145e+2, -1030890.5, -1014620.9, -44579.383, 0.071867764, 0.08918502, -977440.2, 52432.273, 0.0, 9.99989, 10.000126 
6.050119e+2, 2.0491146e+2, -1068180.1, -1180338.9, -39816.03, 0.027335541, 0.1693465, -1055483.0, -123609.31, 0.0, 9.999811, 9.998354 
6.0501283e+2, 2.1490933e+2, -888647.7, -1048148.75, -2351.466, 0.035463568, 0.094637044, -888613.06, -54713.016, 0.0, 10.000383, 9.998315 
6.050146e+2, 2.2490856e+2, -694702.25, -777409.4, 67105.61, 0.06377156, 0.13560428, -657231.44, 78677.05, 0.0, 10.000519, 9.999423 
6.0501724e+2, 2.3490892e+2, -639665.1, -699753.94, 21970.807, 0.10921324, 0.19982414, -632488.8, 5411.879, 0.0, 10.000221, 9.999427 
6.050187e+2, 2.4490727e+2, -619104.7, -771786.8, -17682.55, 0.09521746, 0.15620522, -617083.56, -77168.31, 0.0, 10.000262, 9.998236 
6.0501885e+2, 2.549033e+2, -455696.03, -644555.1, -14718.304, 0.018983226, -0.09770959, -454555.88, -12600.503, 0.0, 10.000711, 9.998225 
6.0502e+2, 2.6490223e+2, -358892.22, -509058.2, 17464.502, 0.0402191, -0.03663545, -356887.8, -12919.417, 0.0, 10.0005455, 9.998569 
6.050222e+2, 2.7490392e+2, -384166.0, -471328.38, 25216.83, 0.17841916, 0.24561849, -377396.3, -131440.02, 0.0, 9.999692, 9.998568 
6.0502356e+2, 2.8490373e+2, -305546.88, -363351.2, 28054.422, 0.23598792, 0.36671567, -294170.2, -146210.83, 0.00000016006682, 9.999485, 9.998729 
6.0502326e+2, 2.9490143e+2, -128922.48, -228886.97, 10424.092, 0.18023436, 0.22210264, -127847.04, -77867.26, 0.0000052467194, 10.000013, 9.998726 
6.0502034e+2, 3.0489784e+2, -11949.125, -187064.81, 29968.912, -0.1507929, 0.019114975, -6962.3228, -6962.3228, 0.000031333126, 10.00067, 9.998369 
6.05026e+2, 3.1489518e+2, 137871.64, 36081.047, -27768.363, 0.3466375, -0.121812396, 144954.05, 144954.05, 0.00009226463, 10.000975, 9.999759 
6.150019e+2, 1.24906756e+2, -1744056.6, -1584815.6, 47718.402, 0.021661846, 0.06435619, -1571611.1, 144314.11, 0.000000319301, 9.999142, 10.001264 
6.1500365e+2, 1.3490841e+2, -1526498.8, -1457114.5, -22637.543, 0.27970523, 0.083374895, -1450381.9, 167524.3, 0.000000018009526, 10.000086, 10.001044 
6.1499953e+2, 1.449086e+2, -1497211.5, -1492037.5, 25209.713, -0.2400845, 0.057114143, -1469282.4, 50620.332, 0.0, 10.000025, 10.00015 
6.1500293e+2, 1.5490852e+2, -1509146.4, -1449141.4, -14670.847, 0.041270252, -0.007882154, -1445746.5, -23843.078, 0.0, 9.999276, 10.000139 
6.1500525e+2, 1.649089e+2, -1429901.3, -1409840.4, 61026.914, 0.08792821, 0.04383523, -1358025.1, -34124.324, 0.0, 9.999372, 9.999685 
6.1500716e+2, 1.7490952e+2, -1171596.1, -1238398.9, 71999.516, -0.05844244, 0.1056776, -1125627.6, 100269.766, 0.0, 10.00048, 9.999658 
6.1500895e+2, 1.8490966e+2, -1062740.4, -1133405.6, -53592.05, -0.08210027, 0.15864025, -1033881.9, 94015.07, 0.0, 10.00058, 9.999643 
6.150108e+2, 1.94909e+2, -1079396.9, -1096599.5, -58815.19, 0.025470557, 0.09979932, -1028557.4, 1344.9235, 0.0, 9.999806, 9.999606 
6.1501235e+2, 2.049086e+2, -992880.44, -993686.3, -31641.945, 0.06874984, 0.09966151, -961638.9, -29734.184, 0.0, 9.999681, 9.999695 
6.1501366e+2, 2.1490811e+2, -818314.44, -865148.56, 31906.248, 0.05357066, 0.050811473, -802154.1, 31753.033, 0.0, 10.000221, 9.999652 
6.150156e+2, 2.2490704e+2, -780431.94, -916329.75, 45920.406, 0.08493101, 0.04009579, -766370.25, -30453.717, 0.0, 10.000355, 9.998546 
6.150183e+2, 2.3490518e+2, -727569.6, -841213.94, 24849.357, 0.1668064, -0.0320087, -722373.6, -84438.43, 0.0, 10.000048, 9.998537 
6.1501974e+2, 2.4490435e+2, -598206.0, -707117.3, -16367.268, 0.14287569, 0.02669471, -595799.5, -55854.89, 0.0, 10.000165, 9.99873 
6.150197e+2, 2.549044e+2, -436676.2, -584061.06, 14881.639, -0.0033240016, 0.12314396, -435188.6, 6758.1494, 0.0, 10.000613, 9.9986925 
6.150199e+2, 2.6490384e+2, -332855.8, -439740.88, -26975.895, -0.0480332, 0.1858751, -326433.47, 17519.203, 0.0, 10.000481, 9.999074 
6.150207e+2, 2.7490237e+2, -364821.13, -404065.53, 8567.325, 0.025622489, 0.09976541, -363032.38, -117066.84, 0.0, 9.999579, 9.99908 
6.150223e+2, 2.8490108e+2, -302965.6, -351460.22, 33417.363, 0.1265928, 0.079400994, -285925.47, -137948.31, 0.00000012615395, 9.99945, 9.998827 
6.150238e+2, 2.949e+2, -129434.26, -213910.38, 49631.87, 0.19367805, 0.04088883, -106500.42, -56513.08, 0.000004351736, 9.999949, 9.998854 
6.150223e+2, 3.0489805e+2, -73406.07, -318959.03, 35583.53, -0.054358646, 0.03726429, -68353.555, -68353.555, 0.000027327982, 10.000678, 9.997473 
6.150269e+2, 3.148968e+2, 87154.14, -52271.76, -18509.236, 0.2676893, 0.13783999, 89569.46, 89569.46, 0.00008384043, 10.000902, 9.999193 
6.2500215e+2, 1.24905676e+2, -1777616.3, -1583393.0, 111439.19, 0.16323683, 0.03100913, -1532689.4, 183246.56, 0.00000004128188, 9.998811, 10.001456 
6.2500334e+2, 1.3490824e+2, -1575597.6, -1450528.9, 14427.17, 0.2783174, 0.1183659, -1448886.3, 169021.47, 0.000000000001578113, 9.999595, 10.001347 
6.2499887e+2, 1.4490831e+2, -1497810.8, -1531719.0, 40352.875, -0.31379855, 0.08208568, -1470995.0, 48910.383, 0.0, 10.000188, 9.999802 
6.250034e+2, 1.5490755e+2, -1260330.1, -1356697.1, -4241.4663, 0.07350935, -0.019791473, -1260143.8, 161768.9, 0.0, 10.001132, 9.999864 
6.250059e+2, 1.6490781e+2, -1210248.3, -1310797.8, 103828.11, 0.1482911, 0.037447497, -1145163.5, 178747.95, 0.0, 10.000932, 9.999605 
6.2500715e+2, 1.7490889e+2, -1332117.4, -1316788.3, 89316.3, -0.043701608, 0.15247934, -1234808.3, -8904.35, 0.0, 9.999421, 9.999616 
6.2500876e+2, 1.8490893e+2, -1281528.5, -1264671.6, 20127.934, -0.07642222, 0.20806137, -1251278.6, -123373.91, 0.0, 9.99915, 9.999447 
6.2501085e+2, 1.9490755e+2, -1054895.8, -1103505.1, 16345.101, 0.05068722, 0.0927564, -1049910.9, -19993.45, 0.0, 10.000032, 9.999454 
6.2501264e+2, 2.0490696e+2, -886654.0, -929285.4, 40695.438, 0.10181401, 0.07671553, -862029.75, 69891.35, 0.0, 10.00035, 9.99982 
6.250141e+2, 2.1490686e+2, -827074.75, -846559.2, -13488.133, 0.08930228, 0.054325104, -820178.44, 13740.344, 0.0, 10.000073, 9.999845 
6.2501615e+2, 2.2490586e+2, -825259.44, -940213.75, 4489.86, 0.12698892, 0.039314266, -825084.4, -89156.55, 0.0, 10.000049, 9.998537 
6.25019e+2, 2.3490363e+2, -697439.06, -833039.8, 25259.19, 0.22956046, -0.062195633, -692886.75, -54935.42, 0.0, 10.000264, 9.998505 
6.2502044e+2, 2.449032e+2, -585621.1, -658229.7, 39924.99, 0.20801623, 0.019268937, -567962.4, -28005.324, 0.0, 10.000053, 9.999128 
6.2502015e+2, 2.5490445e+2, -571880.56, -600522.9, 35574.34, 0.049790766, 0.19493023, -547852.94, -105906.41, 0.0, 9.999475, 9.999128 
6.2502015e+2, 2.6490378e+2, -462864.56, -497250.38, -3587.6086, -0.018628296, 0.22017047, -462494.25, -118542.09, 0.0, 9.999558, 9.99912 
6.2502056e+2, 2.7490076e+2, -264247.63, -353118.2, -33790.883, 0.027995143, -0.025479475, -252858.92, -6880.652, 0.0, 10.000249, 9.999108 
6.250221e+2, 2.8489932e+2, -168721.42, -301298.84, 4232.0713, 0.12530175, -0.053086434, -168586.47, -20595.174, 0.000000116905284, 10.000432, 9.998706 
6.250242e+2, 2.9489946e+2, -117313.08, -230323.28, -27523.936, 0.23469734, 0.051050074, -110966.02, -60974.656, 0.000004287332, 10.000103, 9.998687 
6.250234e+2, 3.0489787e+2, -121250.25, -305647.3, 31117.648, 0.034248658, 0.077010855, -116140.625, -116140.625, 0.000025852014, 10.000221, 9.997769 
6.250277e+2, 3.1489724e+2, 45202.07, -42026.95, -17389.807, 0.29142886, 0.20695378, 48541.06, 48541.06, 0.00007870898, 10.0005045, 9.999443 
6.3500106e+2, 1.2490704e+2, -1840622.4, -1727246.1, -32083.287, 0.102597855, 0.09941249, -1718796.9, -2876.5315, 0.000000010756334, 9.998868, 10.000442 
6.3500315e+2, 1.3490812e+2, -1635757.8, -1581541.9, 44180.227, 0.2684387, 0.12700942, -1556816.1, 61095.67, 0.0, 9.999609, 10.000449 
6.349994e+2, 1.4490798e+2, -1499963.8, -1520934.4, 55927.082, -0.31066865, 0.109075725, -1453547.6, 66365.84, 0.0, 10.000132, 9.999898 
6.350037e+2, 1.5490852e+2, -1256986.3, -1351427.4, 49222.953, -0.04501136, 0.1316146, -1235996.3, 185910.11, 0.0, 10.001135, 9.999902 
6.3500625e+2, 1.6490853e+2, -1216752.9, -1316982.1, 33049.754, 0.055614974, 0.16232774, -1206836.1, 117069.74, 0.0, 10.0008955, 9.999581 
6.350079e+2, 1.7490776e+2, -1336545.0, -1326258.9, 45988.875, 0.05957882, 0.09778744, -1285126.4, -59212.035, 0.0, 9.999406, 9.999568 
6.350095e+2, 1.8490733e+2, -1279918.8, -1238165.9, 38539.727, 0.053907502, 0.099020906, -1215211.5, -87293.79, 0.0, 9.999061, 9.999666 
6.350109e+2, 1.9490692e+2, -1056706.4, -1083131.1, 60770.137, 0.018940022, 0.057591144, -1007728.9, 22190.18, 0.0, 9.999928, 9.999643 
6.3501227e+2, 2.0490643e+2, -985167.6, -1096124.3, 17227.184, 0.005571564, 0.09579504, -982554.44, -50630.62, 0.0, 10.000189, 9.998748 
6.350137e+2, 2.1490557e+2, -928261.2, -1014883.5, -9075.0, 0.015317128, 0.103321426, -927320.7, -93385.65, 0.0, 9.999892, 9.9987755 
6.3501585e+2, 2.2490497e+2, -790415.8, -828092.6, 22.275469, 0.07058266, 0.139063, -790415.8, -54473.38, 0.0, 9.999881, 9.999386 
6.3501894e+2, 2.349043e+2, -661716.44, -720604.94, 49401.832, 0.17022932, 0.102882184, -633649.75, 4299.4453, 0.0, 10.0001, 9.999355 
6.350203e+2, 2.4490386e+2, -584583.6, -629911.0, 6845.4395, 0.16466048, 0.12832217, -583572.4, -43619.816, 0.0, 9.999946, 9.999371 
6.350199e+2, 2.5490344e+2, -573068.56, -574566.25, 26503.367, 0.047244243, 0.11546551, -547303.44, -105348.67, 0.0, 9.999354, 9.999364 
6.3502026e+2, 2.6490197e+2, -504169.38, -563904.25, 7507.4526, 0.010887907, 0.07265216, -503240.28, -159273.2, 0.0, 9.999482, 9.998696 
6.350215e+2, 2.7489913e+2, -309961.38, -423568.9, 7309.1636, 0.054908838, -0.11831051, -309493.06, -63499.418, 0.0, 10.00015, 9.99867 
6.3502264e+2, 2.8489846e+2, -196033.84, -347976.34, -23615.254, 0.10703701, -0.03343077, -192448.13, -44446.527, 0.0000001448745, 10.000393, 9.998406 
6.350237e+2, 2.949e+2, -159999.05, -290082.88, -19115.074, 0.1427788, 0.24634486, -157248.36, -107257.69, 0.000005079309, 9.999996, 9.998323 
6.350233e+2, 3.0489767e+2, -27762.31, -122575.89, 37817.844, -0.038284663, 0.1574206, -14525.9375, -14525.9375, 0.000027855136, 10.00024, 9.99903 
6.3502735e+2, 3.1489632e+2, 91226.74, 66981.04, 27059.854, 0.13146158, 0.0730429, 108755.19, 108755.19, 0.00008149468, 10.00043, 10.000235 
6.450003e+2, 1.2490717e+2, -1875141.8, -1837243.9, -83279.91, 0.14845087, 0.10541405, -1770784.4, -54867.54, 0.0000000047013002, 9.999041, 9.999596 
6.4500296e+2, 1.3490774e+2, -1542079.4, -1607492.0, 39592.426, 0.2508518, 0.14845288, -1523431.4, 94485.74, 0.0, 10.000598, 9.999768 
6.450007e+2, 1.4490753e+2, -1400560.1, -1473918.6, 48853.082, -0.2181188, 0.15881746, -1376149.4, 143771.55, 0.0, 10.000815, 9.999893 
6.450044e+2, 1.5490797e+2, -1439963.3, -1439123.1, 3385.127, -0.013777631, 0.17123432, -1436132.1, -14218.085, 0.0, 9.9998665, 9.999914 
6.450066e+2, 1.6490784e+2, -1381582.0, -1389549.5, 3928.6453, 0.06993722, 0.18388346, -1379970.8, -56056.8, 0.0, 9.999723, 9.999654 
6.4500827e+2, 1.7490692e+2, -1180095.3, -1239516.6, 2094.618, 0.10516078, 0.09627561, -1180021.6, 45900.695, 0.0, 10.000427, 9.99967 
6.450098e+2, 1.849063e+2, -1052371.5, -1130973.9, 41812.777, 0.1090303, 0.0749925, -1034288.94, 93637.08, 0.0, 10.000637, 9.99964 
6.450114e+2, 1.949057e+2, -1011632.94, -1059577.4, 16180.0625, 0.06931985, 0.016666919, -1006683.5, 23244.402, 0.0, 10.000251, 9.999641 
6.450126e+2, 2.0490521e+2, -1008301.06, -1112503.9, 14424.479, 0.041572522, 0.05557144, -1006341.2, -74407.99, 0.0, 10.0000515, 9.998698 
6.4501375e+2, 2.149045e+2, -924419.06, -1022380.1, 35624.477, 0.038779136, 0.0827843, -912833.94, -78888.59, 0.0, 9.999955, 9.9986925 
6.4501584e+2, 2.2490437e+2, -779819.7, -783546.1, 98620.58, 0.0875219, 0.15185015, -683044.75, 52904.477, 0.0, 9.99976, 9.999755 
6.4501894e+2, 2.3490454e+2, -723258.3, -703810.44, 81162.79, 0.19718471, 0.15706739, -631791.2, 6156.099, 0.0, 9.999467, 9.999771 
6.450204e+2, 2.4490415e+2, -627089.25, -633805.1, 48260.086, 0.20573477, 0.15984857, -582070.44, -42121.094, 0.0, 9.999593, 9.999517 
6.450203e+2, 2.5490293e+2, -445058.3, -494317.84, 39271.72, 0.120768495, 0.05748799, -423331.94, 18625.951, 0.0, 10.000158, 9.999529 
6.450207e+2, 2.649015e+2, -392796.25, -540465.0, 64061.465, 0.07522713, 0.018709214, -368878.97, -24908.15, 0.0, 10.0003805, 9.9984255 
6.45022e+2, 2.7489945e+2, -304158.47, -453411.28, 41560.543, 0.09369934, -0.06037923, -293366.03, -47374.37, 0.000000000000000000046744374, 10.00033, 9.9983835 
6.450232e+2, 2.8489867e+2, -168934.47, -340937.78, 44560.465, 0.12508377, 0.032036465, -158075.81, -10075.014, 0.00000034821963, 10.000604, 9.998348 
6.4502424e+2, 2.9489902e+2, -8533.336, -227734.81, 35659.813, 0.14941043, 0.19833387, -2878.0803, 47121.832, 0.0000068469953, 10.001077, 9.998226 
6.4502424e+2, 3.0489677e+2, 114073.695, -17043.256, 97471.37, -0.0014489995, 0.10508185, 165982.58, 165982.58, 0.00003364889, 10.001075, 9.9993305 
6.4502776e+2, 3.1489635e+2, 83373.664, 37477.98, -57181.242, 0.1427038, 0.0788707, 122039.93, 122039.93, 0.000093661416, 10.000492, 9.999983 
6.5499866e+2, 1.24905944e+2, -1914113.0, -1914882.0, -124153.625, 0.013784873, 0.025542852, -1790343.4, -74416.48, 0.000000001405694, 9.999034, 9.999062 
6.550023e+2, 1.3490717e+2, -1568651.9, -1668877.3, 104464.25, 0.08896302, 0.18081255, -1502902.4, 115020.79, 0.0, 10.000625, 9.99933 
6.5500236e+2, 1.4490701e+2, -1418039.3, -1501590.8, -4681.3984, -0.16454478, 0.22695291, -1417777.8, 102149.766, 0.0, 10.000777, 9.999724 
6.550051e+2, 1.5490592e+2, -1457007.6, -1468558.3, -18207.453, 0.038387664, 0.10266505, -1443681.5, -21745.717, 0.0, 9.999834, 9.999735 
6.550065e+2, 1.649057e+2, -1370866.5, -1352888.0, 14081.39, 0.05737797, 0.10363743, -1345171.1, -21235.3, 0.0, 9.999662, 9.999929 
6.550074e+2, 1.7490631e+2, -1165665.3, -1202742.5, 41961.15, -0.042869806, 0.13958268, -1138329.9, 87598.414, 0.0, 10.0004, 9.999932 
6.550094e+2, 1.8490586e+2, -1083146.6, -1173814.3, 13577.46, -0.030356864, 0.13445823, -1081157.0, 46772.477, 0.0, 10.000549, 9.999388 
6.55012e+2, 1.9490394e+2, -1042390.0, -1099410.6, 17485.02, 0.07659699, -0.030018989, -1037455.4, -7512.13, 0.0, 10.00015, 9.999415 
6.550135e+2, 2.0490326e+2, -963982.7, -988991.8, -3623.3518, 0.095932804, -0.04515326, -963468.3, -31518.768, 0.0, 9.999915, 9.999617 
6.5501386e+2, 2.149035e+2, -883799.1, -896494.5, 44438.504, 0.028994925, -0.012588493, -845257.25, -11306.203, 0.0, 9.999782, 9.99964 
6.550156e+2, 2.2490399e+2, -811401.4, -808142.9, 74284.74, 0.06159356, 0.07397087, -735469.5, 479.06274, 0.0, 9.999587, 9.999666 
6.550185e+2, 2.3490436e+2, -754735.0, -729458.5, 83280.52, 0.18184558, 0.10874228, -657862.75, -19917.197, 0.0, 9.9993, 9.999673 
6.550203e+2, 2.4490412e+2, -637166.7, -625871.44, 53937.31, 0.21009299, 0.124934085, -577286.9, -37339.805, 0.0, 9.999474, 9.999626 
6.550209e+2, 2.5490296e+2, -456268.34, -485557.6, 75142.77, 0.13384818, 0.015899833, -394356.44, 47599.477, 0.0, 10.000029, 9.999646 
6.5502125e+2, 2.649023e+2, -410989.16, -570289.0, 48566.363, 0.054911956, 0.056356825, -397350.25, -53387.258, 0.0, 10.000337, 9.998245 
6.5502167e+2, 2.749018e+2, -324251.66, -485708.88, 58298.97, -0.0066584838, 0.15222964, -305401.78, -59430.727, 0.0000000002377775, 10.000276, 9.998193 
6.5502316e+2, 2.8490013e+2, -165493.14, -315686.03, 48926.59, 0.022476505, 0.15299173, -150960.98, -2973.4438, 0.0000008000927, 10.000539, 9.998545 
6.5502524e+2, 2.9489675e+2, -11636.184, -204126.05, 69928.21, 0.102924705, -0.07863367, 11085.44, 61102.68, 0.000010270006, 10.00096, 9.998437 
6.550258e+2, 3.0489525e+2, 63183.113, -127550.39, 67703.33, 0.006448102, -0.065733425, 84771.73, 84771.73, 0.00004390313, 10.001081, 9.998576 
6.550282e+2, 3.14897e+2, -12088.088, -152384.56, -29078.88, 0.061694995, 0.20154755, -6299.795, -6299.795, 0.00011355634, 10.000453, 9.998702 
6.6499805e+2, 1.2490464e+2, -1794422.9, -1831896.1, -151544.48, 0.031215563, 0.03297916, -1660461.1, 55479.81, 0.00000000035571668, 9.99974, 9.999291 
6.650018e+2, 1.349056e+2, -1723345.3, -1736313.9, 86215.49, 0.0496681, 0.149215, -1643370.6, -25433.441, 0.0, 9.99951, 9.999421 
6.6500396e+2, 1.4490554e+2, -1622886.0, -1618182.8, 1210.9066, -0.00786789, 0.20613863, -1617889.3, -97949.055, 0.0, 9.9994545, 9.999557 
6.650056e+2, 1.5490428e+2, -1423534.8, -1468009.0, -42902.953, 0.09700954, 0.07822505, -1397448.4, 24502.832, 0.0, 10.000147, 9.999576 
6.650065e+2, 1.6490404e+2, -1276561.6, -1310482.6, 23095.66, 0.06916199, 0.087152794, -1264867.9, 59083.883, 0.0, 10.000328, 9.999902 
6.650078e+2, 1.749047e+2, -1249413.8, -1244531.1, -1675.6249, -0.016261403, 0.13119528, -1244011.4, -18068.576, 0.0, 9.999831, 9.999919 
6.6501e+2, 1.8490428e+2, -1180328.1, -1199461.0, -6.8243933, 0.014944401, 0.11965773, -1180328.1, -52384.582, 0.0, 9.999802, 9.999572 
6.6501284e+2, 1.9490235e+2, -1019341.75, -1073015.1, 6704.443, 0.14254329, -0.06366991, -1018517.0, 11440.8545, 0.0, 10.000232, 9.999562 
6.65014e+2, 2.0490189e+2, -916186.94, -955110.0, -16228.026, 0.15551771, -0.06750316, -910308.8, 21653.6, 0.0, 10.000194, 9.999722 
6.650138e+2, 2.1490271e+2, -902374.6, -896096.7, -59364.996, 0.06326291, 0.012114524, -839787.7, -5828.431, 0.0, 9.99961, 9.999734 
6.650152e+2, 2.2490329e+2, -793190.8, -774069.44, -5286.692, 0.0744289, 0.09256735, -772705.1, -36749.465, 0.0, 9.999619, 9.9998865 
6.650182e+2, 2.3490332e+2, -607082.3, -636509.5, 677.15814, 0.18343414, 0.07809517, -607066.75, 30887.47, 0.0, 10.000231, 9.9998665 
6.6502035e+2, 2.4490307e+2, -539940.25, -607429.25, -11039.531, 0.23274206, 0.09684582, -538180.3, 1776.0605, 0.0, 10.0002365, 9.999394 
6.650215e+2, 2.5490227e+2, -546250.9, -559743.7, -49608.855, 0.22272098, 0.04382013, -502931.8, -60966.87, 0.0, 9.999515, 9.999396 
6.6502213e+2, 2.6490188e+2, -493630.6, -570122.0, -23722.617, 0.15358806, 0.1109117, -486870.78, -142901.1, 0.0, 9.999591, 9.99861 
6.6502243e+2, 2.749018e+2, -260814.94, -406983.72, -593.7027, 0.04255594, 0.20872419, -260812.53, -14840.354, 0.0000000023427176, 10.000522, 9.998605 
6.650239e+2, 2.849e+2, -133868.78, -311722.2, 19087.287, 0.044984944, 0.18458937, -131843.4, 16145.364, 0.0000014418595, 10.000787, 9.998463 
6.6502625e+2, 2.94896e+2, -120285.44, -260794.03, -13555.774, 0.14842367, -0.10735822, -118989.58, -68964.52, 0.000014823799, 10.000224, 9.998406 
6.65027e+2, 3.048951e+2, -49328.08, -219054.47, 27896.38, 0.07288555, -0.017300269, -44860.598, -44860.598, 0.000057815294, 10.000479, 9.998235 
6.650291e+2, 3.1489593e+2, 94476.12, -115912.15, -90019.74, 0.08134454, 0.19816963, 127735.445, 127735.445, 0.00014076945, 10.001245, 9.998574 
6.749978e+2, 1.2490338e+2, -1736462.0, -1704956.0, -187348.45, -0.038968198, 0.1222044, -1532699.4, 183258.39, 0.0000000023126079, 9.999723, 10.000167 
6.750012e+2, 1.3490303e+2, -1681307.1, -1646424.5, 82989.06, 0.007049069, 0.04206981, -1579063.9, 38895.824, 0.0, 9.999507, 10.000039 
6.7500496e+2, 1.4490311e+2, -1639910.3, -1640499.8, 7586.1343, 0.10744185, 0.09188517, -1632613.1, -112654.484, 0.0, 9.999402, 9.999427 
6.750053e+2, 1.5490317e+2, -1429795.0, -1481480.0, -1037.0586, 0.012655709, 0.11357551, -1429774.3, -7815.0156, 0.0, 10.000151, 9.999481 
6.750063e+2, 1.6490297e+2, -1301819.3, -1356719.5, -10340.946, -0.020768158, 0.14395763, -1299936.0, 24024.313, 0.0, 10.000298, 9.999601 
6.750088e+2, 1.749022e+2, -1277312.6, -1290362.8, -7120.148, 0.06772802, 0.07490484, -1274179.9, -48215.035, 0.0, 9.99978, 9.999628 
6.750111e+2, 1.8490161e+2, -1150487.0, -1118435.1, -1674.5365, 0.12501028, 0.03169842, -1118347.9, 9619.802, 0.0, 9.999716, 10.000173 
6.750132e+2, 1.9490099e+2, -995219.56, -991305.5, 35755.04, 0.13133122, -0.07856738, -957454.0, 72516.875, 0.0, 10.000101, 10.000188 
6.750139e+2, 2.0490126e+2, -991231.25, -1079324.3, -50484.39, 0.09646724, -0.0016132102, -968279.44, -36309.03, 0.0, 10.000047, 9.998944 
6.7501324e+2, 2.1490218e+2, -980420.0, -1019137.56, -68306.08, 0.018612942, 0.16307335, -928782.44, -94813.19, 0.0, 9.999439, 9.998971 
6.7501444e+2, 2.2490236e+2, -783917.5, -714818.25, 3875.2625, 0.014800955, 0.21893333, -714601.6, 21367.482, 0.0, 9.999446, 10.000379 
6.7501765e+2, 2.3490147e+2, -598276.3, -574327.56, 39925.13, 0.076446675, 0.06273043, -544619.8, 93353.055, 0.0, 10.000045, 10.000383 
6.750201e+2, 2.4490112e+2, -604692.25, -707867.75, -48706.004, 0.15904854, 0.073938005, -585332.3, -45355.7, 0.0, 10.000095, 9.998771 
6.750216e+2, 2.5490096e+2, -612099.3, -666365.75, -62809.203, 0.25648364, 0.1491677, -570813.2, -128829.34, 0.0, 9.999383, 9.998728 
6.7502296e+2, 2.6490048e+2, -444475.75, -443209.4, -4355.447, 0.2465075, 0.19497801, -439441.34, -95452.0, 0.0, 9.999491, 9.999527 
6.7502403e+2, 2.7489945e+2, -209698.38, -278001.25, 50174.758, 0.11668778, 0.106565274, -183155.28, 62840.184, 0.0000000015372758, 10.000425, 9.99954 
6.7502546e+2, 2.848984e+2, -158137.42, -353551.9, -14411.518, 0.0841677, 0.120906524, -157080.31, -9075.391, 0.0000017821444, 10.000752, 9.998189 
6.750266e+2, 2.94897e+2, -154036.64, -306411.53, -14314.342, 0.12346646, 0.12219024, -152703.58, -102682.266, 0.000019076204, 10.000123, 9.998139 
6.7502755e+2, 3.048963e+2, -60988.91, -229212.69, 49150.883, 0.04184258, 0.24556705, -47680.992, -47680.992, 0.000073988194, 10.000428, 9.998185 
6.750295e+2, 3.1489325e+2, 149736.19, 28206.775, -16360.86, -0.07383578, 0.07933203, 151900.22, 151900.22, 0.00017626988, 10.001134, 9.99961 
6.8499887e+2, 1.2490187e+2, -1610326.3, -1622068.9, -86833.22, 0.072381675, 0.14841148, -1529166.1, 186808.73, 0.0000000036242784, 10.000471, 10.000385 
6.850007e+2, 1.349012e+2, -1536326.5, -1570136.5, 36005.17, -0.02923043, 0.036974262, -1513455.3, 104521.49, 0.0, 10.000506, 10.000062 
6.850053e+2, 1.4490111e+2, -1513087.5, -1607292.4, -6601.274, 0.16473657, 0.08063254, -1512627.1, 7349.1445, 0.0, 10.0003805, 9.999188 
6.8500566e+2, 1.5490116e+2, -1414076.0, -1502313.0, -50183.996, 0.032614868, 0.12477473, -1391374.8, 30602.922, 0.0, 10.000366, 9.999245 
6.8500674e+2, 1.649006e+2, -1316596.0, -1364996.4, -55174.68, 0.0059981286, 0.1297434, -1280547.6, 43434.746, 0.0, 10.000191, 9.999602 
6.850092e+2, 1.7489913e+2, -1275121.8, -1295031.9, -57948.125, 0.13368896, -0.010418975, -1226279.9, -286.80182, 0.0, 9.999807, 9.999594 
6.850113e+2, 1.8489894e+2, -1171349.5, -1124766.3, -11104.599, 0.1963721, -0.010954241, -1122254.5, 5738.8267, 0.0, 9.999551, 10.000205 
6.850132e+2, 1.9489978e+2, -1103265.4, -1037644.4, -42477.023, 0.17221619, 0.0187948, -1016781.5, 13204.497, 0.0, 9.999328, 10.0002365 
6.850137e+2, 2.0490037e+2, -1059695.1, -1074179.3, -90056.336, 0.110098965, 0.10781399, -976590.1, -44607.6, 0.0, 9.999448, 9.999246 
6.8501276e+2, 2.1490037e+2, -881916.4, -939811.2, -54719.45, 0.0089563895, 0.15202826, -848959.25, -14972.843, 0.0, 9.99999, 9.999239 
6.850139e+2, 2.2490011e+2, -740427.7, -731476.06, 51570.26, 0.0013703483, 0.1672075, -684187.75, 51801.656, 0.0, 9.99989, 10.00005 
6.850172e+2, 2.348994e+2, -760581.94, -691331.75, -4184.5557, 0.09045374, 0.05798156, -691079.8, -53086.19, 0.0, 9.999077, 10.000049 
6.850199e+2, 2.4489911e+2, -732023.44, -753642.9, -56678.914, 0.18894848, 0.086603485, -685132.6, -145135.36, 0.0, 9.999166, 9.998893 
6.8502176e+2, 2.5489902e+2, -469072.0, -579203.1, -37417.46, 0.29312617, 0.15724573, -457562.2, -15559.209, 0.0, 10.000309, 9.998866 
6.850232e+2, 2.648985e+2, -286766.28, -356212.56, 43775.55, 0.27866694, 0.18518713, -265614.6, 78394.05, 0.0, 10.000514, 9.999632 
6.8502444e+2, 2.748972e+2, -323005.63, -323063.3, 4994.587, 0.16026348, 0.05645769, -318039.78, -72022.34, 0.00000000039754933, 9.999585, 9.999639 
6.850261e+2, 2.8489655e+2, -312968.44, -406561.03, -35049.94, 0.14082968, 0.09683856, -301297.72, -153273.97, 0.000001935021, 9.999604, 9.998372 
6.850279e+2, 2.9489627e+2, -39656.348, -228731.5, -31560.754, 0.21547247, 0.19645613, -34527.31, 15503.611, 0.000022833043, 10.000807, 9.998343 
6.850288e+2, 3.0489534e+2, 38714.56, -142410.27, 75158.57, 0.1167122, 0.270486, 65839.7, 65839.7, 0.00009092674, 10.000948, 9.998531 
6.850296e+2, 3.1489193e+2, -42449.36, 35868.824, -10351.723, -0.07294013, 0.038615376, 37213.965, 37213.965, 0.00021663251, 9.999354, 10.000537 
6.950007e+2, 1.2490032e+2, -1633696.0, -1669979.5, -56544.543, 0.1390786, 0.12391811, -1592454.1, 123535.64, 0.00000000017840025, 10.000484, 10.00004 
6.9499993e+2, 1.3490024e+2, -1576271.9, -1656844.8, 45580.953, -0.19268335, 0.13559806, -1555725.5, 62261.848, 0.0, 10.000527, 9.999454 
6.9500476e+2, 1.448995e+2, -1535963.9, -1650766.3, -23442.58, 0.0299201, 0.15755533, -1531361.4, -11367.99, 0.0, 10.00036, 9.998903 
6.9500643e+2, 1.5489821e+2, -1437857.0, -1554905.9, -35074.45, 0.035423078, 0.09481511, -1428151.5, -6144.004, 0.0, 10.000369, 9.99889 
6.950074e+2, 1.6489692e+2, -1305797.5, -1327972.1, -82949.2, 0.020359205, 0.035069566, -1233197.9, 90820.164, 0.0, 10.000137, 9.999876 
6.9500846e+2, 1.7489563e+2, -1262908.9, -1256816.8, -55826.027, 0.05538371, -0.11343061, -1203953.8, 22071.95, 0.0, 9.999753, 9.999881 
6.9501024e+2, 1.848964e+2, -1221196.8, -1202603.1, -30669.992, 0.10287125, -0.010746132, -1179851.9, -51832.73, 0.0, 9.999446, 9.999717 
6.950125e+2, 1.9489889e+2, -1156926.8, -1121166.8, -36722.344, 0.14080575, 0.2341693, -1098202.9, -68200.84, 0.0, 9.999218, 9.99971 
6.9501305e+2, 2.048993e+2, -984519.1, -891368.2, -85331.9, 0.076212436, 0.2656721, -840728.4, 91270.02, 0.0, 9.999323, 10.000564 
6.9501203e+2, 2.1489726e+2, -813922.25, -757472.6, -21631.166, -0.08965894, -0.02480813, -750136.94, 83874.39, 0.0, 9.999812, 10.000577 
6.950132e+2, 2.2489661e+2, -845932.0, -910250.4, 9049.876, -0.08117777, -0.06153371, -844682.9, -108666.49, 0.0, 9.999717, 9.998904 
6.950167e+2, 2.3489705e+2, -866595.94, -873695.44, -21906.508, 0.10040447, 0.062613145, -847953.44, -209936.97, 0.0, 9.998919, 9.998868 
6.950195e+2, 2.4489713e+2, -681502.7, -626404.7, -27298.88, 0.19821873, 0.14104502, -615170.0, -75152.414, 0.0, 9.999064, 9.999816 
6.950215e+2, 2.5489652e+2, -415362.5, -445937.03, 20828.072, 0.20421132, 0.0615894, -404813.56, 37208.83, 0.0, 10.000208, 9.999831 
6.9502264e+2, 2.6489595e+2, -350495.03, -467176.56, -1036.3342, 0.14458674, 0.07161965, -350485.84, -6457.932, 0.0, 10.000426, 9.998911 
6.95023e+2, 2.7489504e+2, -390472.9, -440544.13, -15169.681, 0.025901817, 0.062090974, -386235.66, -140198.1, 0.0000000054780975, 9.999491, 9.998877 
6.950254e+2, 2.8489447e+2, -278992.34, -324252.44, -6055.814, 0.07578226, 0.11614397, -278196.1, -130150.95, 0.000002364329, 9.999555, 9.998958 
6.9502956e+2, 2.948939e+2, -10305.168, -145911.48, 35329.07, 0.2586938, 0.11906605, -1653.0348, 48400.43, 0.000027093956, 10.000718, 9.99895 
6.950306e+2, 3.0489233e+2, 87814.16, -39336.34, 11243.086, 0.16810751, 0.06259833, 88800.65, 88800.65, 0.00010798756, 10.000933, 9.999248 
6.9502884e+2, 3.14892e+2, 4925.2065, 141926.16, -27204.766, -0.15941879, 0.06736386, 147130.6, 147130.6, 0.00025661878, 9.999314, 10.001285 
7.050016e+2, 1.2489831e+2, -1726512.1, -1744284.4, 15117.06, 0.22026849, 0.0954244, -1717863.0, -1855.2722, 0.0, 9.999945, 9.999808 
7.050008e+2, 1.3489835e+2, -1577769.8, -1693147.0, 31952.209, -0.14950958, 0.15038578, -1569512.0, 48492.426, 0.0, 10.000636, 9.999163 
7.0500576e+2, 1.448972e+2, -1504741.1, -1611918.0, 7287.395, 0.09688056, 0.13119487, -1504247.9, 15766.924, 0.0, 10.000479, 9.9991045 
7.0500726e+2, 1.5489583e+2, -1466463.8, -1540165.5, 4932.144, 0.11167049, 0.04453461, -1466135.1, -44106.594, 0.0, 10.000071, 9.99912 
7.050079e+2, 1.6489483e+2, -1296061.1, -1326822.3, 11876.673, 0.06496839, 0.0029587885, -1292009.4, 32027.385, 0.0, 10.000235, 9.999826 
7.050085e+2, 1.7489399e+2, -1109515.9, -1183487.1, -17423.283, 0.03701212, -0.09424263, -1105617.5, 120423.65, 0.0, 10.000827, 9.999853 
7.0500976e+2, 1.8489477e+2, -1074092.3, -1136605.1, 4178.191, 0.06255895, 0.0105621815, -1073814.3, 54220.707, 0.0, 10.000475, 9.999675 
7.050115e+2, 1.9489677e+2, -1171722.6, -1135508.3, 5141.197, 0.12680504, 0.21162747, -1134792.5, -104770.266, 0.0, 9.999139, 9.999658 
7.050123e+2, 2.0489699e+2, -1040109.94, -913292.8, 11608.733, 0.09931113, 0.22551492, -912238.94, 19780.982, 0.0, 9.9988985, 10.000628 
7.050124e+2, 2.1489514e+2, -824691.06, -754431.6, -44267.285, -0.0198175, -0.054457236, -733048.6, 100981.87, 0.0, 9.999684, 10.000667 
7.050138e+2, 2.2489448e+2, -802146.44, -896217.8, -35281.707, -0.007675133, -0.09216594, -790384.56, -54349.305, 0.0, 10.000063, 9.998829 
7.0501643e+2, 2.3489477e+2, -704489.75, -802464.25, -11990.468, 0.13013004, 0.02328944, -703043.7, -65006.67, 0.0, 10.000076, 9.998797 
7.050189e+2, 2.4489479e+2, -540473.25, -562384.5, 47561.754, 0.18936944, 0.10224458, -502621.63, 37416.88, 0.0, 10.000044, 9.999793 
7.050212e+2, 2.5489423e+2, -461265.8, -470838.06, -2953.3684, 0.17443319, 0.031773154, -460427.94, -18385.29, 0.0, 9.999899, 9.999819 
7.050225e+2, 2.648937e+2, -458743.97, -551679.06, -55789.082, 0.13009022, 0.060302284, -432605.34, -88556.55, 0.0, 9.999826, 9.998622 
7.0502293e+2, 2.748929e+2, -358809.7, -453043.88, -68022.766, 0.0659945, 0.08683264, -323179.47, -77119.62, 0.000000016182126, 9.999842, 9.998614 
7.0502526e+2, 2.8489232e+2, -246022.02, -274193.4, 6148.1694, 0.112960085, 0.14041786, -244738.69, -96671.24, 0.0000030357212, 9.999606, 9.999293 
7.0502925e+2, 2.9489172e+2, -252754.28, -227548.81, 639.0158, 0.25507292, 0.109727345, -227532.63, -177458.45, 0.000031540207, 9.998873, 9.999296 
7.0503104e+2, 3.0489e+2, -132839.5, -98836.33, -20046.197, 0.21644594, -0.002671711, -89552.86, -89552.86, 0.00012311795, 9.999222, 9.999652 
7.050305e+2, 3.1489053e+2, 186063.66, 235317.72, -143656.31, 0.025712239, 0.044943202, 356442.63, 356442.63, 0.0002906225, 10.000548, 10.001314 
7.150008e+2, 1.2489588e+2, -1716190.5, -1726571.3, 53864.164, 0.07759316, 0.08070668, -1667267.3, 48760.64, 0.0, 9.999962, 9.999917 
7.15003e+2, 1.3489544e+2, -1562443.0, -1673322.4, 63635.066, -0.029732225, 0.06756121, -1533484.9, 84544.086, 0.0, 10.000678, 9.999283 
7.1500796e+2, 1.4489414e+2, -1458074.8, -1511964.8, -27108.223, 0.22554529, -0.0040326724, -1446798.3, 73242.02, 0.0, 10.000473, 9.999787 
7.1500796e+2, 1.5489417e+2, -1419150.5, -1439437.4, 5440.6616, 0.12998421, -0.021917317, -1417783.5, 4256.349, 0.0, 10.000056, 9.999817 
7.15008e+2, 1.6489433e+2, -1331942.3, -1383807.6, 20359.705, 0.017109891, 0.031918027, -1324905.0, -866.43713, 0.0, 10.000165, 9.999467 
7.1500885e+2, 1.748942e+2, -1143885.1, -1246668.1, 18701.46, -0.043320145, 0.041801725, -1140588.1, 85451.69, 0.0, 10.000795, 9.999435 
7.150094e+2, 1.84894e+2, -1053923.9, -1080345.4, -59131.582, -0.047360905, 0.0520542, -1006545.3, 121496.16, 0.0, 10.00041, 10.000096 
7.150097e+2, 1.9489348e+2, -1158820.5, -1081294.1, -30287.492, 0.003250332, -0.041304205, -1070864.6, -40818.67, 0.0, 9.99902, 10.000092 
7.1501106e+2, 2.0489362e+2, -1145916.9, -1090869.3, 29056.525, 0.051483072, -0.0018343986, -1078370.0, -146324.5, 0.0, 9.998729, 9.999486 
7.150135e+2, 2.148941e+2, -938678.8, -939603.4, -2572.4292, 0.097426765, 0.0670863, -936527.44, -102484.484, 0.0, 9.999477, 9.999489 
7.150152e+2, 2.2489387e+2, -757488.2, -766882.5, -49701.477, 0.10229731, 0.08526321, -712262.4, 23782.494, 0.0, 9.9999, 9.999798 
7.15016e+2, 2.3489262e+2, -659690.56, -670627.5, 2245.078, 0.055103786, -0.05048982, -659247.6, -21193.42, 0.0, 9.999906, 9.999786 
7.150177e+2, 2.4489215e+2, -630688.25, -715121.56, 28265.338, 0.045667898, -0.022683347, -622099.6, -82040.016, 0.0, 9.999897, 9.998816 
7.150203e+2, 2.5489217e+2, -551400.75, -626801.1, 5462.2, 0.07096208, 0.066221006, -551007.1, -108943.17, 0.0, 9.999773, 9.998807 
7.150224e+2, 2.6489177e+2, -453198.25, -534790.8, -70424.836, 0.103417456, 0.15542826, -412606.6, -68535.46, 0.0, 9.999795, 9.998756 
7.15024e+2, 2.7489066e+2, -361225.8, -439020.25, -50908.855, 0.1448848, 0.13190144, -336055.06, -89970.586, 0.000000020828322, 9.999753, 9.998757 
7.1502537e+2, 2.848901e+2, -246927.95, -255530.86, -33385.184, 0.1375737, 0.1686934, -217568.27, -69477.11, 0.0000037854625, 9.999534, 9.999451 
7.1502644e+2, 2.948899e+2, -258761.44, -212231.02, -5539.676, 0.0481348, 0.16688848, -211580.6, -161488.13, 0.000035842306, 9.998776, 9.999437 
7.1502966e+2, 3.0488855e+2, -128993.11, -101553.73, 20824.498, 0.11666289, 0.08617716, -90335.7, -90335.7, 0.000135526, 9.999252, 9.999629 
7.1503377e+2, 3.1488726e+2, 113779.25, 103264.02, -53011.066, 0.21876779, -0.04586293, 161792.78, 161792.78, 0.00031586387, 10.000458, 10.000462 
7.250016e+2, 1.2489306e+2, -1476998.4, -1625247.1, 77801.805, 0.09371318, 0.06930018, -1443663.3, 272390.75, 0.0, 10.00163, 9.999841 
7.250045e+2, 1.3489242e+2, -1596978.9, -1659075.9, -7332.7144, 0.08337201, 0.022984967, -1596124.8, 21932.396, 0.0, 10.000338, 9.999539 
7.2500867e+2, 1.4489123e+2, -1552968.0, -1557964.8, -73983.56, 0.29188764, -0.04965911, -1481440.6, 38627.734, 0.0, 9.999807, 9.999807 
7.250082e+2, 1.5489225e+2, -1390097.5, -1418649.8, -119129.37, 0.15353349, 0.028946312, -1284391.9, 137668.66, 0.0, 10.000223, 9.999884 
7.250082e+2, 1.6489278e+2, -1316038.5, -1369587.0, -79890.79, 0.027806157, 0.11259249, -1258554.9, 65501.875, 0.0, 10.000209, 9.999563 
7.2500914e+2, 1.7489241e+2, -1294414.1, -1305199.8, -71315.06, -0.030364428, 0.0873964, -1228288.3, -2227.809, 0.0, 9.999682, 9.999577 
7.250096e+2, 1.8489204e+2, -1133551.6, -1087834.5, -123432.61, -0.023845518, 0.05954664, -985161.7, 142900.6, 0.0, 9.999731, 10.00037 
7.2500956e+2, 1.948914e+2, -947158.9, -943814.94, -135113.61, 0.035091363, -0.0753833, -810362.94, 219702.2, 0.0, 10.000327, 10.0004 
7.250107e+2, 2.048915e+2, -945934.4, -1043379.75, -12732.035, 0.07408685, -0.03226599, -944298.25, -12233.692, 0.0, 10.000321, 9.999051 
7.25013e+2, 2.1489203e+2, -949058.9, -997063.8, -14712.626, 0.103278875, 0.08807084, -944908.56, -110844.41, 0.0, 9.999631, 9.999028 
7.250148e+2, 2.2489183e+2, -791568.9, -766346.56, -24808.365, 0.09925085, 0.12451866, -751127.94, -15061.254, 0.0, 9.999585, 9.999961 
7.2501606e+2, 2.3489061e+2, -602388.9, -625166.25, -63983.41, 0.0665648, -0.02463435, -548788.5, 89286.336, 0.0, 10.000212, 9.999958 
7.2501785e+2, 2.4489008e+2, -585684.0, -711330.94, -29539.666, 0.05487692, -0.003504838, -579085.7, -39005.11, 0.0, 10.000291, 9.998643 
7.250199e+2, 2.5488997e+2, -543639.44, -643942.1, -17378.014, 0.053913176, 0.09030977, -540713.94, -98627.18, 0.0, 9.999911, 9.99862 
7.250221e+2, 2.648895e+2, -416473.88, -492004.25, -13509.119, 0.09378397, 0.17034194, -414130.4, -70036.17, 0.0, 9.999956, 9.998964 
7.250245e+2, 2.748883e+2, -239148.42, -358370.0, -20451.322, 0.19817284, 0.119568, -235737.77, 10368.935, 0.000000011844985, 10.000492, 9.998958 
7.250257e+2, 2.8488767e+2, -147053.2, -216229.67, -16446.082, 0.18459006, 0.14753817, -143342.36, 4770.745, 0.000004675658, 10.000279, 9.999351 
7.250253e+2, 2.9488748e+2, -188104.06, -188013.53, -46193.58, 0.035124075, 0.15360177, -141865.2, -91750.26, 0.000040333267, 9.999317, 9.999335 
7.250293e+2, 3.0488664e+2, -134850.28, -156746.72, 62439.15, 0.1582374, 0.15297446, -82406.77, -82406.77, 0.00014552829, 9.999443, 9.999172 
7.2503525e+2, 3.1488475e+2, 78313.79, 40853.008, -92217.98, 0.3430623, 0.008190593, 153684.31, 153684.31, 0.00033116215, 10.000411, 10.000066 
7.350036e+2, 1.2488993e+2, -1493316.9, -1652803.4, 11183.6875, 0.06550296, 0.07943857, -1492536.5, 223548.75, 0.0, 10.001612, 9.999652 
7.3500496e+2, 1.3488932e+2, -1586539.4, -1643251.6, -51452.285, 0.058876272, 0.019999366, -1556146.8, 61942.117, 0.0, 10.000346, 9.99965 
7.3500735e+2, 1.4488831e+2, -1607121.5, -1647396.1, -76698.01, 0.14117056, -0.01513204, -1547961.3, -27860.258, 0.0, 9.9997225, 9.999225 
7.3500776e+2, 1.5488987e+2, -1439011.9, -1520085.0, -86200.56, 0.04982798, 0.17733267, -1384292.3, 37800.313, 0.0, 10.000221, 9.999188 
7.350081e+2, 1.6489013e+2, -1270870.9, -1271734.0, -114733.27, -0.027708733, 0.23944166, -1156568.4, 167523.38, 0.0, 10.000194, 10.000239 
7.35009e+2, 1.7488879e+2, -1254325.9, -1209094.6, -75850.84, -0.039139252, 0.047556553, -1152559.6, 73541.86, 0.0, 9.999622, 10.000269 
7.3500997e+2, 1.84889e+2, -1145808.5, -1083262.8, -113538.9, 0.0066292044, 0.038916226, -996768.56, 131327.86, 0.0, 9.999611, 10.000454 
7.350108e+2, 1.9489054e+2, -962243.56, -944221.6, -100154.59, 0.09537325, 0.1148978, -852673.44, 177405.7, 0.0, 10.000204, 10.000449 
7.35011e+2, 2.0489068e+2, -944701.56, -1010582.6, -53757.64, 0.05252034, 0.14469293, -914594.8, 17481.861, 0.0, 10.000186, 9.999343 
7.3501056e+2, 2.1488903e+2, -952251.4, -961346.06, -26413.432, -0.13286246, 0.015380458, -929996.75, -95904.04, 0.0, 9.999449, 9.999358 
7.350123e+2, 2.2488846e+2, -865777.1, -876867.06, -15117.878, -0.13678297, 0.03045611, -855219.44, -119120.21, 0.0, 9.999399, 9.99929 
7.350162e+2, 2.3488867e+2, -678352.8, -736792.9, -25398.426, 0.041011617, 0.09204093, -668857.3, -30758.371, 0.0, 10.000021, 9.999281 
7.3501873e+2, 2.4488856e+2, -552512.7, -620658.75, -56255.59, 0.090659834, 0.15686755, -520815.94, 19285.31, 0.0, 10.000191, 9.999314 
7.3501956e+2, 2.5488776e+2, -517545.1, -556469.56, -17971.506, 0.004814474, 0.112867825, -510516.72, -68407.12, 0.0, 9.999766, 9.999291 
7.3502135e+2, 2.648871e+2, -414985.5, -464355.5, -4148.6284, -0.0017273595, 0.12339546, -414639.3, -70523.37, 0.0, 9.999854, 9.9992 
7.3502415e+2, 2.7488598e+2, -237678.4, -333327.97, 20344.18, 0.08184022, 0.063545085, -233531.13, 12593.644, 0.000000051096855, 10.000402, 9.999171 
7.350256e+2, 2.8488523e+2, -166524.72, -266229.1, -65800.08, 0.10864127, 0.08340312, -133824.55, 14307.858, 0.0000058850314, 10.000306, 9.998998 
7.350253e+2, 2.9488462e+2, -224194.05, -254779.83, -62394.09, 0.060837086, 0.08127476, -175246.02, -125105.41, 0.000044056193, 9.999272, 9.998901 
7.350295e+2, 3.0488437e+2, -202971.45, -296976.44, 91547.914, 0.20825996, 0.21061222, -147064.98, -147064.98, 0.00015023243, 9.999439, 9.99821 
7.35034e+2, 3.148826e+2, 59680.805, 27013.945, 2985.2473, 0.09644637, 0.1712511, 59951.37, 59951.37, 0.0003329124, 10.000306, 10.000019 
7.4500525e+2, 1.24886885e+2, -1704323.6, -1754816.9, 69651.04, 0.15301162, 0.06535689, -1655484.8, 60630.11, 0.0, 10.000202, 9.999599 
7.4500585e+2, 1.3488707e+2, -1508379.3, -1576985.4, -48671.445, 0.107010126, 0.061301906, -1483137.3, 134974.92, 0.0, 10.000793, 9.999867 
7.450069e+2, 1.4488651e+2, -1451904.8, -1569373.3, -399.71494, 0.08850441, 0.059270903, -1451903.4, 68217.22, 0.0, 10.000775, 9.999248 
7.4500805e+2, 1.548875e+2, -1422201.5, -1503559.6, 3120.468, 0.06488727, 0.18965803, -1422082.0, 35.8677, 0.0, 10.000316, 9.999244 
7.4500865e+2, 1.6488774e+2, -1283672.6, -1259320.8, 1499.9894, 0.02430026, 0.2375956, -1259228.8, 64888.367, 0.0, 10.000032, 10.000404 
7.4500936e+2, 1.7488687e+2, -1191269.8, -1154973.6, -27912.414, 0.020181779, 0.07701156, -1139828.3, 86293.29, 0.0, 9.99996, 10.000477 
7.450102e+2, 1.8488716e+2, -1126993.5, -1125635.8, -53128.64, 0.060459945, 0.0855112, -1073181.6, 54934.67, 0.0, 9.999945, 10.000013 
7.4501115e+2, 1.9488825e+2, -1034604.0, -1033834.75, -101278.11, 0.13434461, 0.16301048, -932940.56, 97164.38, 0.0, 9.999923, 9.99998 
7.450112e+2, 2.0488815e+2, -935794.75, -965454.94, -61567.938, 0.069947205, 0.17480896, -887296.0, 44808.242, 0.0, 10.000071, 9.999695 
7.450103e+2, 2.1488652e+2, -789495.6, -844695.6, -63134.98, -0.14082071, 0.011211677, -748191.44, 85926.19, 0.0, 10.0004, 9.999695 
7.450119e+2, 2.2488594e+2, -779670.94, -866917.75, -7904.548, -0.14342234, 0.022329023, -778960.56, -42836.7, 0.0, 10.00013, 9.999003 
7.45016e+2, 2.3488612e+2, -818525.6, -840312.8, -19293.887, 0.06310894, 0.10936509, -807262.44, -169136.48, 0.0, 9.999195, 9.998975 
7.450186e+2, 2.4488601e+2, -700828.7, -654573.1, -6402.4585, 0.1266054, 0.17237309, -653703.3, -113575.49, 0.0, 9.99901, 9.999659 
7.4501973e+2, 2.548853e+2, -494260.66, -502046.56, -23359.025, 0.050534178, 0.10012758, -474472.4, -32340.18, 0.0, 9.9997425, 9.999678 
7.4502146e+2, 2.6488447e+2, -418464.0, -470357.47, -9272.772, 0.032405756, 0.08201581, -416856.84, -72718.73, 0.0, 9.9998455, 9.999167 
7.4502397e+2, 2.748832e+2, -403639.7, -410549.3, -34721.973, 0.08653451, 0.0063610612, -372201.06, -126052.11, 0.00000017449423, 9.9992695, 9.99918 
7.4502546e+2, 2.8488237e+2, -301368.28, -374089.47, -97978.55, 0.11294583, 0.036751352, -233221.05, -85062.805, 0.0000070145306, 9.999569, 9.998615 
7.450258e+2, 2.9488164e+2, -28306.805, -201394.02, -129677.79, 0.12371436, 0.06374754, 41053.805, 91222.48, 0.00004543542, 10.000791, 9.998542 
7.450304e+2, 3.0488104e+2, -34625.848, -227153.7, 77301.82, 0.3000032, 0.18104531, -7430.0024, -7430.0024, 0.00014809403, 10.0006485, 9.9980955 
7.450334e+2, 3.1487983e+2, -132615.56, -20944.174, 21484.703, 0.09319837, 0.20759955, -16953.309, -16953.309, 0.00032280377, 9.998813, 10.000386 
7.5500566e+2, 1.2488371e+2, -1705716.8, -1746484.9, 37879.89, 0.11227627, -0.009595774, -1683084.6, 33060.324, 0.0, 10.000154, 9.999683 
7.5500697e+2, 1.348856e+2, -1487694.1, -1540135.1, -14298.379, 0.10750353, 0.12931354, -1484049.0, 134078.92, 0.0, 10.000808, 10.000121 
7.550073e+2, 1.4488581e+2, -1413368.0, -1478549.5, -35921.293, 0.012101912, 0.16213275, -1397456.3, 122671.57, 0.0, 10.000736, 9.999887 
7.5500864e+2, 1.5488532e+2, -1383318.0, -1410272.3, -1831.3232, 0.05964145, 0.08237469, -1383194.1, 38940.96, 0.0, 10.000266, 9.999909 
7.5500935e+2, 1.6488563e+2, -1311053.0, -1305517.0, -18636.684, 0.050557677, 0.116987556, -1289443.9, 34688.617, 0.0, 9.999983, 10.000113 
7.550096e+2, 1.7488661e+2, -1222636.9, -1209917.0, -16894.463, 0.018566698, 0.17488074, -1198225.0, 27896.13, 0.0, 9.999916, 10.000121 
7.5501e+2, 1.8488643e+2, -1198119.3, -1254555.1, -70276.84, 0.01587046, 0.19734909, -1150606.9, -22484.203, 0.0, 9.999866, 9.999168 
7.550103e+2, 1.948846e+2, -1110413.6, -1161401.5, -87850.1, 0.02879274, 0.069118276, -1044433.1, -14291.612, 0.0, 9.9998, 9.999163 
7.5501096e+2, 2.0488402e+2, -937466.75, -933064.44, -63314.996, 0.010629485, 0.06008932, -871912.3, 60233.945, 0.0, 9.999911, 9.999999 
7.55012e+2, 2.1488452e+2, -795538.6, -807976.0, -38047.01, -0.041407242, 0.07756682, -763205.44, 70933.164, 0.0, 10.000197, 10.000044 
7.550133e+2, 2.2488436e+2, -797959.5, -863840.25, -54905.176, -0.038402893, 0.10741497, -766871.4, -30731.47, 0.0, 9.999953, 9.99911 
7.550149e+2, 2.3488314e+2, -840702.1, -839514.44, -38534.758, 0.011517144, 0.047034934, -801568.94, -163414.9, 0.0, 9.999001, 9.999072 
7.5501704e+2, 2.4488264e+2, -719690.1, -666027.3, 6547.4307, 0.041321356, 0.066388026, -665240.0, -125082.04, 0.0, 9.998888, 9.999638 
7.550198e+2, 2.5488243e+2, -511450.38, -514059.66, 18113.787, 0.05130159, 0.04573151, -494594.3, -52438.83, 0.0, 9.9996395, 9.999644 
7.55022e+2, 2.648816e+2, -443565.88, -510114.06, -44035.664, 0.06601121, 0.043508444, -421646.63, -77485.09, 0.0, 9.999794, 9.998919 
7.5502354e+2, 2.7487996e+2, -439055.16, -458866.38, -39010.254, 0.08078684, -0.0441438, -408712.53, -162533.67, 0.0000002213921, 9.999162, 9.9989 
7.55025e+2, 2.848791e+2, -338818.53, -441728.4, -64685.074, 0.08149797, 0.019043, -307618.97, -159428.97, 0.000006961638, 9.999519, 9.998178 
7.550264e+2, 2.948785e+2, -64131.285, -263055.4, -63202.883, 0.063193865, 0.10341608, -45748.93, 4450.5186, 0.00004401986, 10.000726, 9.998155 
7.5503117e+2, 3.0487645e+2, 6766.4077, -124321.914, 1922.1442, 0.28477016, 0.05678023, 6794.586, 6794.586, 0.0001416952, 10.00059, 9.998818 
7.550323e+2, 3.148769e+2, -89804.0, 87932.46, 30023.719, 0.029825393, 0.17627607, 92867.14, 92867.14, 0.0003069929, 9.998737, 10.001163 
7.650066e+2, 1.2488181e+2, -1552123.9, -1673867.9, 82328.98, 0.15226378, -0.01918859, -1510607.1, 205555.06, 0.00000000032551553, 10.001151, 9.999719 
7.6500785e+2, 1.3488348e+2, -1583996.0, -1584686.1, -18466.697, 0.16376013, 0.09198276, -1565871.1, 52276.492, 0.0, 10.000112, 10.000155 
7.6500756e+2, 1.4488403e+2, -1541588.4, -1540694.9, -7832.798, 0.018632427, 0.15498005, -1533296.1, -13152.585, 0.0, 9.999827, 9.999914 
7.650092e+2, 1.5488324e+2, -1295211.6, -1364854.4, -47437.086, 0.06556571, 0.040004525, -1271187.4, 150964.56, 0.0, 10.000832, 9.999964 
7.6500994e+2, 1.6488342e+2, -1177752.1, -1292458.1, -77629.27, 0.06754705, 0.08196405, -1138587.4, 185563.39, 0.0, 10.001132, 9.9996395 
7.650102e+2, 1.7488438e+2, -1146023.4, -1227934.9, -116988.016, 0.053244792, 0.1837346, -1063029.3, 163113.1, 0.0, 10.000681, 9.999626 
7.6501036e+2, 1.8488395e+2, -1107518.8, -1190001.8, -102190.16, 0.052126653, 0.19726096, -1038561.8, 89584.49, 0.0, 10.000408, 9.999341 
7.650105e+2, 1.9488169e+2, -1020679.56, -1099979.0, -72521.914, 0.050168768, 0.008475046, -977676.25, 52491.004, 0.0, 10.000336, 9.999328 
7.6501125e+2, 2.0488124e+2, -914837.4, -935546.94, 5275.171, 0.039242737, 0.007594739, -913571.06, 18599.87, 0.0, 10.000135, 9.999874 
7.6501244e+2, 2.1488228e+2, -860753.75, -859797.44, -28873.373, 0.014236974, 0.09332837, -831398.3, 2762.0452, 0.0, 9.999823, 9.999877 
7.6501375e+2, 2.2488229e+2, -780741.8, -847402.4, -43140.86, 0.013738073, 0.14581545, -759555.7, -23395.19, 0.0, 10.000049, 9.999175 
7.6501495e+2, 2.3488095e+2, -564363.7, -695375.4, -59496.137, 0.0325216, 0.066064104, -541377.7, 96796.74, 0.0, 10.000866, 9.999153 
7.650169e+2, 2.4487998e+2, -466223.84, -575640.2, -2215.7166, 0.050796427, 0.047199924, -466179.0, 74003.016, 0.0, 10.000763, 9.999354 
7.6501954e+2, 2.5487903e+2, -534264.9, -558217.9, -35373.977, 0.07038004, -0.016169697, -508894.94, -66708.984, 0.0, 9.999623, 9.999351 
7.650218e+2, 2.6487815e+2, -507155.4, -553249.6, -66480.695, 0.09771686, -0.004375179, -459840.22, -115646.73, 0.0, 9.999416, 9.998805 
7.650237e+2, 2.748771e+2, -301467.28, -405490.34, -83139.77, 0.13826284, -0.019745126, -255410.36, -9203.215, 0.00000016204108, 10.000164, 9.998788 
7.650253e+2, 2.8487647e+2, -198378.75, -339901.56, -30958.275, 0.12515508, 0.059924845, -191902.92, -43687.21, 0.000006290961, 10.00034, 9.998472 
7.650266e+2, 2.9487586e+2, -172220.25, -268887.47, -6965.436, 0.063918434, 0.10882928, -171720.92, -121498.2, 0.000041719115, 9.999818, 9.9985285 
7.6503104e+2, 3.0487332e+2, -139672.36, -189690.56, 40904.496, 0.2794443, -0.013104987, -116737.4, -116737.4, 0.00013461517, 9.9995365, 9.998897 
7.6503205e+2, 3.1487423e+2, -90957.9, 35563.246, 1576.2666, 0.13312176, 0.15332799, 35582.88, 35582.88, 0.00029005748, 9.998926, 10.000736 
7.75007e+2, 1.2488121e+2, -1559057.5, -1671392.5, -49701.246, 0.0016839763, 0.03474885, -1540225.0, 175941.67, 0.0000000023621072, 10.001088, 9.999765 
7.75008e+2, 1.348807e+2, -1601580.3, -1617714.6, -54435.19, 0.127839, -0.043615174, -1554617.8, 63554.06, 0.0, 10.000102, 9.999935 
7.750071e+2, 1.4488113e+2, -1568791.5, -1595119.9, 7441.997, -0.049034707, 0.03488865, -1566833.5, -46665.285, 0.0, 9.999813, 9.99955 
7.750092e+2, 1.5488139e+2, -1325244.1, -1425968.5, 6573.406, -0.047957737, 0.06687128, -1324817.0, 97350.336, 0.0, 10.000825, 9.999549 
7.750102e+2, 1.6488126e+2, -1230386.1, -1387627.3, -109987.625, -0.042203285, 0.12982726, -1173808.8, 150362.3, 0.0, 10.001076, 9.999014 
7.750107e+2, 1.748803e+2, -1195519.8, -1318049.8, -117307.48, 0.0025857673, 0.10296905, -1124442.5, 101741.32, 0.0, 10.000631, 9.99903 
7.7501106e+2, 1.8487987e+2, -1038594.2, -1029859.8, -117548.13, 0.04500452, 0.089225285, -916597.75, 211588.58, 0.0, 10.000324, 10.00049 
7.7501136e+2, 1.948797e+2, -955574.75, -938538.7, -60410.0, 0.07169315, -0.007063363, -886049.1, 144131.63, 0.0, 10.0002165, 10.000498 
7.750115e+2, 2.0487984e+2, -978878.3, -1027568.1, -21555.893, 0.023950905, 0.020198828, -970706.6, -38528.766, 0.0, 9.999963, 9.999323 
7.750114e+2, 2.1487994e+2, -929856.4, -956745.3, -28701.908, -0.094178975, 0.06991042, -911606.2, -77424.87, 0.0, 9.999631, 9.999299 
7.7501285e+2, 2.2487992e+2, -809177.44, -864504.06, -28085.041, -0.10404771, 0.15030077, -797419.56, -61235.832, 0.0, 9.999865, 9.999152 
7.750158e+2, 2.348794e+2, -588354.6, -707854.06, -14644.556, -0.004973708, 0.15460205, -586586.1, 51602.38, 0.0, 10.000699, 9.999153 
7.750177e+2, 2.4487795e+2, -523652.22, -658256.25, -58330.445, 0.027309738, 0.11216977, -501892.44, 38308.12, 0.0, 10.000612, 9.998859 
7.7501863e+2, 2.5487524e+2, -591200.3, -641320.25, -62611.918, -0.01298124, -0.0766143, -548819.56, -106597.0, 0.0, 9.999477, 9.998849 
7.750207e+2, 2.648742e+2, -521353.2, -564217.94, -51588.54, 0.01758756, -0.055446014, -486922.13, -142689.1, 0.0, 9.999338, 9.99877 
7.75024e+2, 2.7487442e+2, -315361.56, -415504.2, -39111.57, 0.11820124, 0.06335778, -301896.66, -55660.836, 0.00000014054619, 10.000078, 9.998765 
7.750258e+2, 2.8487432e+2, -137040.17, -192396.25, -62307.477, 0.10510792, 0.14472824, -96539.805, 51697.57, 0.0000059856334, 10.00026, 9.999519 
7.75026e+2, 2.948736e+2, -105683.45, -119747.09, -6571.71, -0.024337167, 0.07347276, -103090.625, -52850.52, 0.0000396548, 9.999766, 9.999576 
7.750297e+2, 3.0487153e+2, -181140.17, -261539.88, 10927.737, 0.16423883, -0.028643575, -179681.38, -179681.38, 0.00012692052, 9.999487, 9.998427 
7.750316e+2, 3.1487226e+2, -225314.19, -220009.69, 57720.176, 0.11933247, 0.17438589, -164880.86, -164880.86, 0.00027215088, 9.998825, 9.999036 
7.850071e+2, 1.24879666e+2, -1814174.9, -1757460.1, -57989.01, 0.018018512, 0.039363716, -1721266.3, -5084.4688, 0.0000000040597263, 9.99922, 10.000054 
7.850086e+2, 1.3487904e+2, -1459064.0, -1542920.1, -66752.57, 0.14715654, -0.053539038, -1422164.0, 196022.88, 0.0, 10.001089, 9.999953 
7.85008e+2, 1.4487931e+2, -1348166.9, -1508961.4, 29456.734, -0.016109863, 0.015880609, -1342940.4, 177243.61, 0.0, 10.001427, 9.999357 
7.850101e+2, 1.548792e+2, -1407001.4, -1490139.6, 9046.483, -0.014699594, 0.03481811, -1406028.4, 16157.441, 0.0, 10.00038, 9.999319 
7.8501105e+2, 1.6487868e+2, -1393853.8, -1471413.9, -49309.77, -0.009218632, 0.07275289, -1369901.5, -45708.45, 0.0, 9.999971, 9.998964 
7.8501123e+2, 1.7487738e+2, -1272905.4, -1358688.6, -47640.11, 0.028255727, 0.016209286, -1251693.5, -25484.488, 0.0, 10.000124, 9.998987 
7.8501165e+2, 1.8487704e+2, -1037102.0, -1024655.6, -33253.18, 0.080151945, 0.011744091, -997048.3, 131161.98, 0.0, 10.0003195, 10.000522 
7.850122e+2, 1.9487739e+2, -924102.2, -916412.6, -88842.69, 0.132789, -0.03892981, -831331.56, 198867.94, 0.0, 10.000419, 10.000541 
7.850121e+2, 2.048775e+2, -918453.25, -1038755.44, -59137.656, 0.08000929, 0.0016469666, -894251.44, 37946.0, 0.0, 10.000538, 9.998977 
7.8501165e+2, 2.1487707e+2, -822441.3, -943088.5, -76552.37, -0.07447233, 0.034673918, -785301.06, 48906.594, 0.0, 10.000529, 9.998964 
7.850129e+2, 2.2487679e+2, -762579.3, -845339.7, -30469.58, -0.09471655, 0.1067994, -752571.6, -16358.499, 0.0, 10.000194, 9.999121 
7.85016e+2, 2.348763e+2, -769686.0, -800692.94, -46555.945, 0.018565489, 0.117430575, -736120.0, -97903.24, 0.0, 9.9994755, 9.999106 
7.850179e+2, 2.4487494e+2, -709550.1, -731557.56, -55295.438, 0.062294044, 0.08076249, -664174.2, -123946.516, 0.0, 9.999273, 9.998994 
7.8501856e+2, 2.5487232e+2, -558537.8, -610963.8, -42127.043, 0.033390023, -0.11340696, -535134.2, -92885.09, 0.0, 9.999636, 9.998978 
7.850205e+2, 2.6487142e+2, -460292.9, -515417.4, 50724.96, 0.052860666, -0.09092031, -430125.63, -85867.99, 0.0, 9.999681, 9.998934 
7.850237e+2, 2.7487198e+2, -407482.63, -440291.5, 49180.582, 0.12910032, 0.04175955, -372042.72, -125786.2, 0.0000001311964, 9.999368, 9.998929 
7.850256e+2, 2.848717e+2, -282441.9, -280501.9, 6746.0015, 0.11553577, 0.102886796, -274656.53, -126396.336, 0.0000058891046, 9.999331, 9.999371 
7.850261e+2, 2.9487044e+2, -163060.06, -170826.05, -62597.984, 0.028070418, -0.00086851366, -104224.75, -53955.21, 0.000037489564, 9.99946, 9.999387 
7.8502923e+2, 3.0486917e+2, -136739.73, -181423.14, -28603.732, 0.17892674, -0.03698343, -122786.46, -122786.46, 0.00011865352, 9.999526, 9.998957 
7.850308e+2, 3.1487054e+2, -161861.08, -160551.88, 62329.406, 0.15322864, 0.1678079, -98873.63, -98873.63, 0.00025448482, 9.999131, 9.999288 
7.950059e+2, 1.2487775e+2, -1764352.4, -1685497.1, -63446.586, -0.10865658, 0.030336523, -1650225.3, 65976.62, 0.0000000034592607, 9.999334, 10.000503 
7.9500943e+2, 1.3487856e+2, -1429912.3, -1501589.6, 12150.026, 0.07821388, 0.054147173, -1427908.6, 190283.6, 0.0, 10.001155, 10.00021 
7.9500985e+2, 1.4487858e+2, -1361151.1, -1525507.5, -29721.549, -0.020067072, 0.09217267, -1355941.6, 164248.69, 0.0, 10.001388, 9.999257 
7.950113e+2, 1.5487666e+2, -1412890.4, -1499074.4, -13531.197, 0.029208425, -0.06767012, -1410815.9, 11391.692, 0.0, 10.000371, 9.999255 
7.950117e+2, 1.6487575e+2, -1361275.0, -1400861.1, -58442.863, 0.028660169, -0.09005459, -1319364.4, 4851.565, 0.0, 9.999949, 9.999465 
7.950114e+2, 1.7487566e+2, -1236561.3, -1286033.1, -27410.914, -0.0018849319, -0.07734748, -1224375.3, 1841.9773, 0.0, 10.000123, 9.999491 
7.950117e+2, 1.8487543e+2, -1131465.5, -1192957.9, -43589.457, 0.026937926, -0.039956186, -1108869.8, 19348.98, 0.0, 10.000208, 9.999415 
7.9501265e+2, 1.9487469e+2, -1014862.6, -1080870.6, -71266.8, 0.100053325, -0.08912307, -969328.6, 60895.29, 0.0, 10.00032, 9.999454 
7.9501295e+2, 2.0487423e+2, -945947.2, -1061324.1, -74377.445, 0.07867963, -0.049167603, -909508.25, 22721.283, 0.0, 10.00039, 9.998892 
7.9501265e+2, 2.1487364e+2, -853934.0, -968020.6, -63092.945, -0.05077707, -0.026467843, -825920.56, 8319.083, 0.0, 10.000354, 9.998878 
7.950134e+2, 2.2487293e+2, -797118.06, -870028.0, -68078.53, -0.08223791, 0.010378405, -756348.4, -20100.158, 0.0, 9.999992, 9.999048 
7.9501534e+2, 2.3487179e+2, -796622.06, -822163.75, -57042.332, -0.019776732, -0.03706421, -750938.5, -112680.516, 0.0, 9.999324, 9.999033 
7.9501706e+2, 2.44871e+2, -676790.9, -631966.75, -55769.176, 0.030114623, -0.047868703, -594274.75, -54011.918, 0.0, 9.999141, 9.999741 
7.950188e+2, 2.548702e+2, -526964.8, -513489.4, -13330.524, 0.06740351, -0.13328886, -505290.6, -63024.27, 0.0, 9.999498, 9.999714 
7.950206e+2, 2.648699e+2, -441039.7, -460892.25, 26992.895, 0.06862602, -0.11181625, -422205.78, -77938.28, 0.0, 9.999611, 9.999343 
7.950225e+2, 2.7486983e+2, -391677.72, -391848.6, 56953.176, 0.032726, -0.08073011, -334809.9, -88540.99, 0.000000103459534, 9.999296, 9.999297 
7.950244e+2, 2.8486872e+2, -383167.22, -479880.8, -692.8954, 0.03269501, -0.052557386, -383162.25, -234879.39, 0.0000054454867, 9.99929, 9.998023 
7.950262e+2, 2.9486632e+2, -273839.75, -380939.22, -34151.707, 0.052916393, -0.12960039, -263876.38, -213565.08, 0.00003447301, 9.999372, 9.99799 
7.9502904e+2, 3.0486634e+2, -39979.348, 31971.744, -45603.043, 0.17274132, -0.045106646, 54081.29, 54081.29, 0.0001104858, 9.999468, 10.000449 
7.9502887e+2, 3.1486768e+2, -41391.9, 107796.06, 112170.555, -0.026502298, 0.0010186278, 167911.02, 167911.02, 0.000240168, 9.999044, 10.001176 
8.0500627e+2, 1.2487527e+2, -1679760.5, -1632036.9, -31421.184, -0.013131177, -0.016525825, -1616444.0, 99781.75, 0.0000000057252847, 9.999887, 10.000616 
8.0500966e+2, 1.3487668e+2, -1612456.6, -1602225.6, -13847.754, 0.057447203, 0.08461986, -1592578.8, 25632.658, 0.0, 9.999953, 10.00012 
8.0501056e+2, 1.4487673e+2, -1536461.0, -1560486.1, -60187.574, -0.0012918524, 0.11144372, -1487099.0, 33109.848, 0.0, 9.999982, 9.999694 
8.050122e+2, 1.5487489e+2, -1389633.1, -1445226.6, -46434.027, 0.100504056, -0.08143609, -1363311.6, 58912.047, 0.0, 10.000343, 9.999645 
8.0501264e+2, 1.6487414e+2, -1256271.3, -1312808.1, -33352.33, 0.10444604, -0.12263135, -1240819.1, 83409.48, 0.0, 10.000524, 9.999796 
8.05012e+2, 1.7487437e+2, -1152926.0, -1213912.5, -47703.76, 0.026536264, -0.105443954, -1126802.3, 99422.74, 0.0, 10.000567, 9.99978 
8.0501217e+2, 1.8487404e+2, -1101081.0, -1242301.8, -26314.707, 0.029331708, -0.063404135, -1096336.9, 31891.309, 0.0, 10.000702, 9.998839 
8.050131e+2, 1.9487281e+2, -983963.1, -1138922.0, -47993.355, 0.10227646, -0.09779993, -970302.94, 59939.1, 0.0, 10.000847, 9.998812 
8.0501366e+2, 2.048721e+2, -892303.44, -1037505.44, -18886.76, 0.10229796, -0.046860985, -889887.0, 42364.54, 0.0, 10.000769, 9.998877 
8.0501366e+2, 2.1487159e+2, -854501.75, -968744.1, -34183.77, 0.026005732, -0.016020108, -845054.5, -10794.54, 0.0, 10.00036, 9.998868 
8.0501425e+2, 2.248707e+2, -740313.3, -831459.2, -4156.903, -0.005395178, 0.00084868335, -740124.1, -3855.2407, 0.0, 10.00034, 9.999137 
8.0501544e+2, 2.348692e+2, -599400.4, -715129.8, -8353.683, 0.0014826378, -0.092446454, -598800.5, 39480.453, 0.0, 10.000643, 9.999123 
8.0501693e+2, 2.4486862e+2, -501416.84, -558469.06, -6589.692, 0.041547056, -0.08478808, -500665.63, 39618.96, 0.0, 10.000368, 9.999667 
8.050188e+2, 2.548686e+2, -543930.4, -529599.6, -54221.965, 0.12936462, -0.086228654, -482071.66, -39788.477, 0.0, 9.999403, 9.999661 
8.050204e+2, 2.648684e+2, -521406.9, -517181.9, -21607.059, 0.12165008, -0.04403184, -497584.34, -153299.77, 0.0, 9.99912, 9.999206 
8.050217e+2, 2.7486768e+2, -356912.9, -388332.6, -57869.332, 0.021886794, -0.06865742, -312658.94, -66366.64, 0.00000004701224, 9.999569, 9.999202 
8.0502355e+2, 2.8486654e+2, -349556.13, -429772.0, -57169.54, 0.023804417, -0.05244871, -319828.53, -171522.64, 0.000004093495, 9.999373, 9.998325 
8.050258e+2, 2.9486477e+2, -369287.8, -390863.97, 1760.0184, 0.12733665, -0.10266059, -369145.2, -318817.22, 0.000029631305, 9.998566, 9.998307 
8.050282e+2, 3.0486485e+2, -169741.97, -26736.31, 50408.332, 0.20116998, -0.022189043, -10753.973, -10753.973, 0.00010221737, 9.998561, 10.000492 
8.050282e+2, 3.1486547e+2, -9822.749, 182585.83, 58676.586, 0.017184881, -0.054375842, 199067.86, 199067.86, 0.00023173698, 9.99902, 10.001702 
8.150073e+2, 1.24872625e+2, -1694814.9, -1684449.3, -83450.76, 0.022623554, -0.06452459, -1606020.5, 110228.51, 0.000000004999778, 9.9999695, 10.000219 
8.150087e+2, 1.348736e+2, -1640539.3, -1669674.3, -1883.733, -0.06273034, 0.037465807, -1640418.0, -22175.56, 0.0, 9.999999, 9.999631 
8.1500983e+2, 1.4487398e+2, -1474231.5, -1440408.3, -65996.8, -0.11577275, 0.08074426, -1389190.8, 131047.195, 0.0, 10.000012, 10.000509 
8.150126e+2, 1.5487398e+2, -1328588.0, -1317158.8, -18862.047, 0.06333657, -0.008492502, -1303164.6, 119068.64, 0.0, 10.000336, 10.000529 
8.150133e+2, 1.6487394e+2, -1261952.9, -1310994.3, -47935.54, 0.08857911, -0.024380993, -1232630.5, 91599.55, 0.0, 10.000468, 9.999831 
8.150124e+2, 1.7487356e+2, -1154132.0, -1205887.9, -31342.908, -0.019802617, -0.07631457, -1139364.6, 86866.83, 0.0, 10.000529, 9.999846 
8.150124e+2, 1.8487296e+2, -1123037.6, -1273153.8, -33613.406, -0.04181858, -0.0579194, -1115854.8, 12383.153, 0.0, 10.000629, 9.998667 
8.150133e+2, 1.9487181e+2, -1010037.6, -1173510.8, -27261.77, 0.0021194173, -0.06712813, -1005611.2, 24641.914, 0.0, 10.000754, 9.99862 
8.15014e+2, 2.0487124e+2, -922509.6, -1060783.8, -49134.527, 0.03008697, 0.010609637, -906828.5, 25433.78, 0.0, 10.000598, 9.998801 
8.150144e+2, 2.1487091e+2, -882159.06, -986117.1, -34763.12, 0.036825936, 0.06724949, -871605.75, -37337.484, 0.0, 10.000185, 9.998833 
8.150151e+2, 2.2487015e+2, -751400.06, -806325.1, -8362.134, 0.011922923, 0.082103156, -750155.2, -13880.116, 0.0, 10.000137, 9.999408 
8.150158e+2, 2.3486848e+2, -608387.94, -688243.06, 17251.934, -0.055665907, -0.055176266, -604820.2, 33466.24, 0.0, 10.000446, 9.999399 
8.1501687e+2, 2.448677e+2, -589662.6, -699192.75, -57284.508, -0.028588835, -0.03801671, -565176.7, -24882.967, 0.0, 10.000191, 9.998787 
8.150182e+2, 2.5486752e+2, -628310.56, -671486.3, -76597.52, 0.0976772, 0.037758894, -570316.94, -128017.8, 0.0, 9.999263, 9.9987545 
8.1501955e+2, 2.6486695e+2, -574028.7, -605769.75, -18812.926, 0.09759349, 0.11382451, -565286.2, -220977.5, 0.0, 9.999036, 9.998637 
8.150209e+2, 2.7486545e+2, -423441.9, -485833.72, -21986.768, -0.04289616, 0.075091705, -416472.38, -170145.94, 0.000000004527389, 9.999404, 9.998611 
8.150225e+2, 2.8486508e+2, -223107.88, -153897.13, -99948.65, -0.046866637, 0.101185516, -82732.64, 65596.96, 0.0000024308686, 9.99931, 10.000253 
8.1502444e+2, 2.9486573e+2, -253416.88, -126282.59, -6928.3193, 0.09172809, 0.09892014, -125906.14, -75587.055, 0.00002455122, 9.998465, 10.000173 
8.1502634e+2, 3.0486473e+2, -265071.94, -227727.63, 58710.52, 0.1301056, 0.04531213, -184791.55, -184791.55, 0.00009685274, 9.998573, 9.999103 
8.150274e+2, 3.1486288e+2, -84763.99, 63587.883, 131416.44, -0.03685149, -0.09230957, 140317.05, 140317.05, 0.00023260372, 9.998875, 10.000954 
8.250083e+2, 1.2487102e+2, -1693837.4, -1706328.3, -43805.027, 0.13945825, -0.017056087, -1655834.9, 60430.75, 0.0000000017683296, 10.00006, 10.00002 
8.250087e+2, 1.3487104e+2, -1611732.5, -1685727.9, 9374.251, -0.0693174, 0.007998114, -1610563.4, 7704.702, 0.0, 10.000309, 9.999373 
8.2501e+2, 1.4487104e+2, -1441588.4, -1390666.1, -28565.037, -0.094584696, 0.01344169, -1377862.0, 142404.88, 0.0, 10.000101, 10.000801 
8.250127e+2, 1.5487224e+2, -1401465.8, -1320203.9, -58391.332, 0.083647, 0.014554408, -1289698.1, 132552.1, 0.0, 9.99971, 10.000798 
8.2501376e+2, 1.6487253e+2, -1353635.4, -1375305.1, -71402.375, 0.11789148, 0.023023184, -1292250.5, 31993.96, 0.0, 9.999906, 9.999663 
8.2501334e+2, 1.7487156e+2, -1152047.3, -1231341.3, -102463.7, 0.031011963, -0.068206035, -1081827.6, 144425.0, 0.0, 10.000628, 9.999635 
8.250134e+2, 1.8487102e+2, -1097062.4, -1241668.9, -95058.86, 0.00056912145, -0.043080807, -1049933.9, 78325.22, 0.0, 10.000722, 9.998838 
8.250137e+2, 1.9487053e+2, -1092057.8, -1194885.0, -92983.44, 0.0062939594, -0.0033570076, -1037220.4, -6952.946, 0.0, 10.000112, 9.99878 
8.2501435e+2, 2.0487002e+2, -991736.8, -1073671.4, -53395.438, 0.04761483, 0.06424944, -965403.3, -33128.36, 0.0, 10.000041, 9.998967 
8.250156e+2, 2.1486923e+2, -827990.7, -944001.5, -54333.53, 0.13231221, 0.0591842, -806518.06, 27765.95, 0.0, 10.000489, 9.998973 
8.2501626e+2, 2.2486839e+2, -688439.5, -767258.6, -562.4669, 0.10496481, 0.055304743, -688435.44, 47855.41, 0.0, 10.000512, 9.999514 
8.2501614e+2, 2.3486707e+2, -661007.8, -705477.06, -17631.451, -0.039344314, -0.05591424, -654865.56, -16566.24, 0.0, 10.000033, 9.9994955 
8.2501656e+2, 2.4486646e+2, -641690.7, -763634.25, -55521.0, -0.05492345, -0.0076273587, -620199.5, -79893.36, 0.0, 10.000009, 9.998426 
8.250176e+2, 2.5486633e+2, -474847.78, -635585.06, -65562.07, 0.0601418, 0.10585963, -451498.03, -9184.115, 0.0, 10.000495, 9.998402 
8.250188e+2, 2.6486555e+2, -433513.53, -534519.7, 47905.7, 0.07844871, 0.18029624, -414406.84, -70080.59, 0.0, 9.999992, 9.998658 
8.250202e+2, 2.7486366e+2, -568745.8, -550134.56, 58461.184, 0.0034174493, 0.092501216, -500243.03, -253895.23, 0.0, 9.99839, 9.998647 
8.2502186e+2, 2.8486347e+2, -377404.38, -197916.5, 4635.692, 0.024797225, 0.12281344, -197796.86, -49448.754, 0.000001518397, 9.998127, 10.00052 
8.2502395e+2, 2.948648e+2, -121051.28, -29589.021, -60657.957, 0.16259806, 0.16082302, 645.12866, 50974.348, 0.000022026383, 9.999223, 10.000472 
8.250254e+2, 3.048633e+2, -197221.77, -239666.03, 371.41135, 0.15469928, 0.065805845, -197218.52, -197218.52, 0.00009707927, 9.999249, 9.998685 
8.250269e+2, 3.148608e+2, -247556.0, -67122.18, 84380.74, 0.08749019, -0.106265254, -33810.953, -33810.953, 0.00024343748, 9.997969, 10.000485 
8.3500826e+2, 1.2487093e+2, -1700009.5, -1708774.6, -72109.83, 0.053227782, 0.16886571, -1632149.3, 84121.63, 0.000000000051048894, 10.000018, 10.000025 
8.3500916e+2, 1.3486916e+2, -1593087.0, -1649772.0, 31336.918, -0.089736015, 0.0017833358, -1579176.8, 39110.016, 0.0, 10.000326, 9.999608 
8.3501065e+2, 1.448681e+2, -1473192.9, -1451931.6, -61488.445, -0.08172548, -0.09186865, -1400161.6, 120132.61, 0.0, 10.000083, 10.000388 
8.350121e+2, 1.548697e+2, -1429745.9, -1374379.4, -59200.83, 0.014246269, -0.014824528, -1336709.0, 85565.34, 0.0, 9.999693, 10.000431 
8.350134e+2, 1.6486987e+2, -1391197.3, -1432698.4, -60052.113, 0.058683444, 0.018663391, -1348411.6, -24140.045, 0.0, 9.999821, 9.999312 
8.350146e+2, 1.7486851e+2, -1182683.9, -1281971.3, -58177.73, 0.05864046, -0.075049825, -1155847.9, 70439.28, 0.0, 10.000583, 9.999306 
8.350148e+2, 1.8486832e+2, -1075171.3, -1182830.4, -133287.45, 0.03972712, -0.017357077, -985253.94, 143036.56, 0.0, 10.000659, 9.999277 
8.350139e+2, 1.9486889e+2, -1073388.9, -1127971.3, -102176.375, -0.013699661, 0.07996742, -994921.75, 35363.938, 0.0, 9.999993, 9.999295 
8.350145e+2, 2.0486844e+2, -993294.75, -1036347.56, -51329.47, 0.031763233, 0.108744696, -959160.56, -26870.625, 0.0, 9.999863, 9.99931 
8.3501685e+2, 2.1486656e+2, -829987.6, -905581.25, -22006.227, 0.17655735, -0.042720813, -824048.06, 10258.92, 0.0, 10.000307, 9.99932 
8.350174e+2, 2.2486551e+2, -720620.1, -792681.75, -33426.08, 0.14774378, -0.07969677, -707503.0, 28812.758, 0.0, 10.000327, 9.99943 
8.35016e+2, 2.3486502e+2, -690142.4, -731688.75, -18991.346, -0.077154726, -0.10093312, -682769.56, -44450.6, 0.0, 9.999875, 9.999396 
8.350158e+2, 2.4486499e+2, -650982.44, -751440.1, -51268.008, -0.16595174, 0.0022742932, -629438.4, -89117.11, 0.0, 9.999867, 9.99858 
8.350166e+2, 2.5486505e+2, -482914.34, -626536.0, -30252.086, -0.11539291, 0.11945601, -476802.22, -34475.703, 0.0, 10.000375, 9.998524 
8.350177e+2, 2.648643e+2, -405482.97, -453571.16, -23864.959, -0.055958148, 0.15956935, -395650.0, -51313.168, 0.0, 9.999894, 9.999263 
8.35019e+2, 2.7486232e+2, -542653.1, -470228.34, 16487.363, 0.012476194, 0.0012227162, -466651.66, -220296.0, 0.0, 9.998279, 9.99925 
8.3502114e+2, 2.848617e+2, -475795.7, -388398.25, 30343.92, 0.10090054, 0.02485552, -378896.13, -230535.3, 0.0000012583888, 9.998071, 9.999239 
8.350239e+2, 2.9486212e+2, -233775.22, -232642.53, -407.1253, 0.19304734, 0.103142865, -232511.38, -182154.78, 0.000022671806, 9.99909, 9.9991455 
8.350248e+2, 3.0486065e+2, -164504.84, -158080.77, -50434.234, 0.1354563, 0.046602305, -110756.38, -110756.38, 0.0001036696, 9.999194, 9.99927 
8.350256e+2, 3.1486127e+2, -280650.94, -103978.72, 70872.12, 0.09099644, 0.13647035, -79062.336, -79062.336, 0.00026239955, 9.997846, 10.000289 
8.4500915e+2, 1.2486946e+2, -1598180.5, -1663147.0, 18261.86, 0.12700321, 0.17249268, -1593399.0, 122887.37, 0.0, 10.0007305, 9.9999895 
8.450102e+2, 1.3486813e+2, -1554123.5, -1620251.0, 45290.15, -0.014766792, 0.03618938, -1531112.3, 87184.72, 0.0, 10.00055, 9.999703 
8.450118e+2, 1.4486685e+2, -1455085.4, -1483051.9, -17090.896, 0.017717415, -0.06909281, -1446986.4, 73320.18, 0.0, 10.000375, 10.000034 
8.450124e+2, 1.5486746e+2, -1319504.4, -1367910.6, -46859.22, 0.040197413, -0.05237451, -1290966.9, 131329.83, 0.0, 10.000641, 10.000028 
8.450135e+2, 1.6486746e+2, -1276598.3, -1386279.4, 4960.595, 0.059585035, -0.010316346, -1276374.3, 47921.9, 0.0, 10.000653, 9.9992285 
8.4501517e+2, 1.7486675e+2, -1243071.0, -1321828.0, -4505.9697, 0.083029196, -0.030130433, -1242814.1, -16507.572, 0.0, 10.000225, 9.999203 
8.4501576e+2, 1.8486647e+2, -1119878.1, -1191901.5, -65550.99, 0.08863372, 0.018378725, -1081098.3, 47212.117, 0.0, 10.000307, 9.999375 
8.45015e+2, 1.9486621e+2, -936069.7, -1057025.4, -93376.89, 0.06440411, 0.024100365, -885296.44, 145015.44, 0.0, 10.00091, 9.999344 
8.4501547e+2, 2.0486562e+2, -840605.3, -953878.7, -47054.797, 0.09843008, 0.032477345, -823608.6, 108708.25, 0.0, 10.000868, 9.999399 
8.450171e+2, 2.148643e+2, -869799.2, -921668.1, -69514.61, 0.19656496, -0.06569663, -821538.75, 12790.375, 0.0, 10.000011, 9.999361 
8.450173e+2, 2.2486371e+2, -818778.8, -829793.44, -55296.47, 0.15376279, -0.06332634, -768716.06, -32381.3, 0.0, 9.999624, 9.9995 
8.4501606e+2, 2.3486367e+2, -712450.44, -730342.56, -64402.14, -0.04262353, -0.047593694, -656376.0, -18040.893, 0.0, 9.999697, 9.999477 
8.4501565e+2, 2.4486358e+2, -678289.06, -720325.4, -45696.68, -0.14048535, 0.027834097, -649008.6, -108671.6, 0.0, 9.999493, 9.998973 
8.4501606e+2, 2.5486305e+2, -660312.8, -663220.94, -36966.41, -0.13008091, 0.046187695, -624771.9, -182427.1, 0.0, 9.998961, 9.998944 
8.4501684e+2, 2.6486233e+2, -545570.44, -510237.4, -30177.95, -0.07155617, 0.06466049, -492935.16, -148582.17, 0.0, 9.998875, 9.999364 
8.450181e+2, 2.7486116e+2, -388851.5, -385965.34, -57868.117, 0.049765415, -0.022615373, -329522.3, -83158.016, 0.0000000050987805, 9.999276, 9.999355 
8.450202e+2, 2.8486064e+2, -314049.3, -359802.22, 37855.652, 0.1487291, 0.02310242, -292694.75, -144325.08, 0.0000017149706, 9.999383, 9.9988 
8.450231e+2, 2.9486033e+2, -262873.56, -285433.75, 38689.125, 0.22115119, 0.06792681, -233853.67, -183479.72, 0.0000255943, 9.999062, 9.998787 
8.450237e+2, 3.048592e+2, -209862.31, -147635.13, 729.11676, 0.14547718, 0.04579684, -147626.58, -147626.58, 0.000114914044, 9.998727, 9.999579 
8.450246e+2, 3.1486002e+2, -262474.94, -91719.414, 27186.654, 0.20983694, 0.12734093, -87495.414, -87495.414, 0.00028702893, 9.997913, 10.000356 
8.5501033e+2, 1.24866545e+2, -1629118.1, -1711790.3, -13073.602, 0.09636738, -0.039079234, -1627100.0, 89213.055, 0.0, 10.000681, 9.999674 
8.550113e+2, 1.3486806e+2, -1564324.6, -1624616.1, 46005.36, 0.008116172, 0.11498699, -1539468.0, 78829.81, 0.0, 10.000511, 9.999675 
8.55013e+2, 1.448674e+2, -1476053.3, -1530008.8, -26174.193, 0.05906656, 0.08952313, -1465442.6, 54859.586, 0.0, 10.000373, 9.999724 
8.550133e+2, 1.5486562e+2, -1337363.8, -1407724.4, -17321.549, 0.025220051, -0.101551995, -1333330.6, 88985.27, 0.0, 10.000652, 9.999748 
8.5501385e+2, 1.6486536e+2, -1279182.9, -1383632.3, -27473.51, -0.0019440453, -0.0727281, -1272397.3, 51920.25, 0.0, 10.000616, 9.999266 
8.550146e+2, 1.7486629e+2, -1241849.1, -1309587.8, -8124.9326, -0.021913685, 0.060817096, -1240888.3, -14577.712, 0.0, 10.000187, 9.999301 
8.5501564e+2, 1.848655e+2, -1153134.8, -1244425.6, -57492.586, 0.014208729, 0.06941704, -1125371.0, 2947.1125, 0.0, 10.000222, 9.9990635 
8.550166e+2, 1.948626e+2, -965988.6, -1104935.3, -56543.58, 0.099353634, -0.15730193, -945886.7, 84457.664, 0.0, 10.000838, 9.999052 
8.550168e+2, 2.048617e+2, -880459.4, -1003107.3, -94004.86, 0.12306421, -0.15172829, -829544.56, 102809.66, 0.0, 10.000721, 9.999137 
8.550161e+2, 2.1486244e+2, -911914.56, -963891.44, -86561.336, 0.071436994, -0.021188756, -847524.56, -13173.672, 0.0, 9.999819, 9.999164 
8.5501575e+2, 2.2486295e+2, -837358.06, -821276.8, -67378.82, 0.009553744, 0.09287547, -761460.56, -25112.482, 0.0, 9.99942, 9.9996605 
8.5501575e+2, 2.3486295e+2, -723631.3, -715984.44, -44545.332, -0.06787274, 0.09622757, -675098.75, -36750.645, 0.0, 9.999532, 9.999657 
8.550157e+2, 2.4486226e+2, -658387.44, -642990.0, -79521.6, -0.10726711, 0.07088745, -570795.3, -30442.04, 0.0, 9.999341, 9.999577 
8.550156e+2, 2.548603e+2, -640025.7, -585699.3, -42128.32, -0.10403473, -0.113848075, -562736.3, -120367.59, 0.0, 9.998807, 9.999552 
8.55016e+2, 2.6485965e+2, -586035.9, -569831.7, -30097.37, -0.0696825, -0.10460399, -546764.94, -202389.55, 0.0, 9.998769, 9.999009 
8.55017e+2, 2.7486008e+2, -431135.22, -449322.13, -23955.037, -0.01658891, 0.0079684, -414605.75, -168230.8, 0.0000001292932, 9.999174, 9.998971 
8.550188e+2, 2.8486022e+2, -293472.84, -298837.34, 15872.856, 0.03578892, 0.117703535, -280057.22, -131682.69, 0.0000031613251, 9.999306, 9.999255 
8.550212e+2, 2.9485938e+2, -241986.8, -226729.44, 46414.105, 0.07767608, 0.06496447, -187321.27, -136940.06, 0.000030116835, 9.998986, 9.999231 
8.5502166e+2, 3.0485874e+2, -215575.94, -131396.9, -36337.06, 0.044473354, 0.060365543, -117881.484, -117881.484, 0.00012742863, 9.998631, 9.999728 
8.550233e+2, 3.1485763e+2, -287570.4, -108876.625, 9729.999, 0.21330224, -0.055738855, -108348.38, -108348.38, 0.00031382052, 9.997782, 10.0002985 
8.6501175e+2, 1.2486559e+2, -1611469.9, -1721831.6, 36103.258, 0.18165582, -0.052728362, -1600708.5, 115614.14, 0.00000000000000000000885557, 10.000872, 9.999519 
8.6501247e+2, 1.348671e+2, -1433375.8, -1581649.6, 30691.428, 0.040163796, 0.111159146, -1427274.0, 191033.1, 0.0, 10.001462, 9.999529 
8.650142e+2, 1.448666e+2, -1349206.3, -1491984.3, -13097.357, 0.106571585, 0.1191546, -1348014.8, 172295.73, 0.0, 10.00135, 9.999511 
8.650147e+2, 1.5486486e+2, -1330720.0, -1441555.8, -36699.49, 0.09156205, -0.040015273, -1319669.9, 102655.79, 0.0, 10.000837, 9.999442 
8.650151e+2, 1.6486433e+2, -1254648.3, -1357540.4, -7019.1743, 0.06129787, -0.026710123, -1254171.6, 70158.13, 0.0, 10.000734, 9.999375 
8.6501557e+2, 1.7486478e+2, -1098914.1, -1235430.3, -19537.365, 0.013573363, 0.049642812, -1096173.1, 130152.23, 0.0, 10.001138, 9.9993515 
8.650163e+2, 1.8486397e+2, -1052862.4, -1179960.1, -32348.7, 0.03887274, 0.04648381, -1045102.75, 83229.82, 0.0, 10.000863, 9.999186 
8.650172e+2, 1.9486164e+2, -1105696.4, -1159401.0, -27209.816, 0.12730029, -0.13451096, -1094320.3, -63965.89, 0.0, 9.999846, 9.999145 
8.650172e+2, 2.0486099e+2, -1027142.06, -1073444.9, -8739.518, 0.1409724, -0.10596005, -1025547.44, -93185.086, 0.0, 9.999724, 9.999124 
8.650161e+2, 2.1486175e+2, -827448.1, -930783.06, -19251.14, 0.064757295, 0.02714564, -823978.2, 10381.56, 0.0, 10.000436, 9.999091 
8.650156e+2, 2.2486222e+2, -687163.0, -754740.8, 20537.021, 0.010822146, 0.14427707, -681411.3, 54946.945, 0.0, 10.000486, 9.999601 
8.6501586e+2, 2.3486212e+2, -684093.06, -703622.0, -5103.2817, -0.01898453, 0.1444253, -682839.94, -44479.99, 0.0, 9.999839, 9.99959 
8.650157e+2, 2.4486144e+2, -616237.75, -586954.7, -32524.828, -0.0398957, 0.10711702, -565927.75, -25563.684, 0.0, 9.999481, 9.99989 
8.6501515e+2, 2.5485972e+2, -519229.2, -491920.03, -47451.81, -0.050562657, -0.08730433, -456197.28, -13822.375, 0.0, 9.999488, 9.999868 
8.6501557e+2, 2.6485908e+2, -495076.97, -541477.8, 9930.59, -0.016140547, -0.08294129, -493040.97, -148660.81, 0.0000000005766255, 9.999468, 9.998863 
8.650171e+2, 2.7485928e+2, -403025.06, -454039.47, -4625.5205, 0.07058347, 0.024804331, -402609.06, -156226.64, 0.000000514823, 9.999451, 9.998802 
8.6501825e+2, 2.8485918e+2, -293337.13, -252708.67, 46115.035, 0.07092264, 0.09911312, -222631.78, -74248.19, 0.0000054394536, 9.999113, 9.999672 
8.6501896e+2, 2.948583e+2, -299172.4, -201849.98, 43463.37, -0.003528102, 0.0015867718, -185265.69, -134877.27, 0.000035908153, 9.9983835, 9.999695 
8.650196e+2, 3.048581e+2, -252846.42, -161750.19, 649.23047, 0.0023948345, 0.02219393, -161745.55, -161745.55, 0.00014009468, 9.998406, 9.999627 
8.650228e+2, 3.148577e+2, -151251.4, -17229.793, -42197.12, 0.35223278, -0.017588073, -5050.6675, -5050.6675, 0.00033844914, 9.998625, 10.000506 
8.750125e+2, 1.24866955e+2, -1611179.9, -1720858.6, 29256.486, 0.100478336, 0.17452967, -1603863.8, 112447.97, 0.0000000055054987, 10.000865, 9.999526 
8.7501335e+2, 1.3486537e+2, -1436889.6, -1575854.4, 64406.117, -0.049681425, 0.021329634, -1411630.5, 206692.98, 0.0, 10.00142, 9.999577 
8.7501514e+2, 1.448646e+2, -1378164.5, -1547978.0, -50591.145, 0.022734806, 0.019986449, -1364234.9, 156094.97, 0.0, 10.001328, 9.999139 
8.750159e+2, 1.5486534e+2, -1357102.6, -1484702.0, -40999.313, 0.104640275, 0.13905217, -1345064.6, 77259.56, 0.0, 10.000803, 9.999154 
8.750167e+2, 1.648647e+2, -1251089.3, -1346118.9, -7848.463, 0.11315228, 0.14692764, -1250445.4, 73884.59, 0.0, 10.000702, 9.999477 
8.750175e+2, 1.7486246e+2, -1094518.4, -1221977.8, 9789.521, 0.06171624, -0.05352189, -1093770.9, 132578.03, 0.0, 10.001115, 9.999455 
8.7501746e+2, 1.8486212e+2, -1029168.44, -1113939.0, -84599.63, 0.037365507, -0.037624307, -976930.2, 151421.22, 0.0, 10.000793, 9.999673 
8.750163e+2, 1.9486327e+2, -1085129.8, -1087306.9, -49691.92, 0.028885067, 0.078733236, -1036514.44, -6172.712, 0.0, 9.999726, 9.999694 
8.7501603e+2, 2.0486347e+2, -1040375.94, -1065662.4, 3339.0579, 0.034766193, 0.1546003, -1039942.5, -107600.79, 0.0, 9.999565, 9.999258 
8.750166e+2, 2.1486239e+2, -842821.56, -922606.8, 20156.184, 0.04813357, 0.09191718, -838018.6, -3664.317, 0.0, 10.00026, 9.999232 
8.750166e+2, 2.2486174e+2, -738430.6, -818200.75, -18657.25, 0.036970995, 0.10814629, -734282.6, 2080.2234, 0.0, 10.0002985, 9.999258 
8.75016e+2, 2.3486118e+2, -738371.3, -766426.44, -13598.09, -0.011426127, 0.09514329, -732862.25, -94491.7, 0.0, 9.999626, 9.999261 
8.750153e+2, 2.4486108e+2, -635223.0, -595989.0, -47507.11, -0.05432883, 0.13298124, -564208.0, -23838.125, 0.0, 9.999338, 9.999903 
8.7501436e+2, 2.548612e+2, -538526.75, -499522.72, -30584.895, -0.10271019, 0.12323395, -482751.25, -40387.984, 0.0, 9.999347, 9.999884 
8.7501514e+2, 2.648606e+2, -505641.66, -552803.6, -4957.2466, -0.033210527, 0.13274027, -505126.25, -160759.03, 0.0000000691861, 9.999413, 9.998815 
8.750179e+2, 2.7485877e+2, -420990.7, -465624.06, 11890.383, 0.16671191, 0.03315122, -418020.7, -171633.83, 0.000001269736, 9.999338, 9.998776 
8.750183e+2, 2.8485763e+2, -271258.0, -196666.44, 4031.515, 0.13302644, -0.014063502, -196449.19, -48053.594, 0.000008255043, 9.99906, 10.000091 
8.7501615e+2, 2.9485682e+2, -273533.4, -143727.94, 37217.992, -0.16091031, -0.14356029, -133813.94, -83416.28, 0.000042714033, 9.998349, 10.000119 
8.750172e+2, 3.0485716e+2, -286151.1, -212873.34, 4374.9487, -0.106339596, -0.07548915, -212613.08, -212613.08, 0.00015288098, 9.998337, 9.999304 
8.750224e+2, 3.148578e+2, -149995.61, -1813.1924, 1630.2667, 0.37186173, 0.024175046, -1795.2588, -1795.2588, 0.00035815634, 9.998558, 10.000649 
8.8501394e+2, 1.24866344e+2, -1481564.5, -1674613.0, 84955.68, 0.12207423, 0.18524252, -1449502.6, 266813.56, 0.00000006865043, 10.001816, 9.999396 
8.850149e+2, 1.3486397e+2, -1470681.5, -1618692.8, 34946.164, -0.020625168, -0.021966416, -1462845.5, 155490.52, 0.0, 10.001285, 9.99936 
8.8501656e+2, 1.4486304e+2, -1438095.6, -1583952.8, -44623.777, 0.059499573, -0.024831755, -1425526.5, 94818.17, 0.0, 10.000973, 9.99905 
8.850172e+2, 1.5486401e+2, -1290625.9, -1464674.1, -54510.813, 0.13762377, 0.12882078, -1274963.0, 147374.69, 0.0, 10.00132, 9.999032 
8.850177e+2, 1.6486348e+2, -1198620.8, -1287206.8, 15081.756, 0.14744815, 0.1402419, -1196123.5, 128218.83, 0.0, 10.000922, 9.999775 
8.850181e+2, 1.7486136e+2, -1274089.1, -1276305.4, 17486.18, 0.085134014, -0.078022346, -1257676.0, -31316.813, 0.0, 9.999744, 9.999747 
8.8501775e+2, 1.8486138e+2, -1197303.6, -1172076.6, -43047.758, 0.058553834, -0.050841693, -1139832.5, -11474.141, 0.0, 9.999536, 9.999881 
8.8501656e+2, 1.9486314e+2, -982286.1, -1018835.6, -62615.453, 0.055713844, 0.10796437, -935333.1, 95010.63, 0.0, 10.000343, 9.999872 
8.850163e+2, 2.048635e+2, -886042.4, -978649.56, 15797.2295, 0.060971715, 0.1855049, -883421.8, 48920.25, 0.0, 10.000575, 9.999368 
8.850171e+2, 2.1486214e+2, -840766.6, -911879.94, 5249.0293, 0.07579591, 0.08547008, -840381.25, -6025.0054, 0.0, 10.000232, 9.999326 
8.850169e+2, 2.248613e+2, -811130.6, -855026.75, -24077.025, 0.070179485, 0.078685075, -800499.25, -64133.234, 0.0, 9.999803, 9.999237 
8.850158e+2, 2.3486064e+2, -793587.75, -800890.56, -30546.678, 0.033997897, 0.058983114, -766475.0, -128100.52, 0.0, 9.999267, 9.999197 
8.850151e+2, 2.4486056e+2, -653271.4, -626988.9, 7598.1895, -0.00078238593, 0.11307514, -624950.3, -84576.24, 0.0, 9.999316, 9.999691 
8.850146e+2, 2.5486073e+2, -439155.94, -477981.75, -24078.44, -0.047716983, 0.12433929, -427639.38, 14728.899, 0.00000000006372724, 10.000121, 9.99966 
8.850152e+2, 2.648599e+2, -403819.38, -487446.4, -2808.6023, 0.004784848, 0.120410755, -403725.16, -59351.688, 0.00000025387644, 10.000049, 9.99895 
8.850171e+2, 2.748578e+2, -439010.22, -457390.53, -7335.034, 0.17346427, -0.019564034, -436441.9, -190048.1, 0.0000021793016, 9.999143, 9.998923 
8.850173e+2, 2.8485677e+2, -332007.13, -204983.75, 18503.283, 0.16051847, -0.07326822, -202343.3, -53942.727, 0.000011106664, 9.998568, 10.000252 
8.850156e+2, 2.9485658e+2, -254161.81, -116224.5, -2032.5967, -0.04524463, -0.15756717, -116194.555, -65797.53, 0.000049522223, 9.998408, 10.000271 
8.8501674e+2, 3.0485666e+2, -242429.38, -213217.89, 22150.111, 0.0007223189, -0.11424839, -201291.48, -201291.48, 0.00016467013, 9.99873, 9.999119 
8.8502055e+2, 3.148577e+2, -77064.77, 18591.277, -21139.56, 0.32081488, 0.051121052, 23054.752, 23054.752, 0.00037312726, 9.999136, 10.000519 
8.95015e+2, 1.2486364e+2, -1516986.4, -1726500.0, 29798.945, -0.019941084, -0.028773928, -1512830.6, 203506.47, 0.00000033567557, 10.001749, 9.999058 
8.950167e+2, 1.3486326e+2, -1505330.0, -1682382.6, 22175.146, -0.001045315, 0.008696762, -1502594.9, 115746.37, 0.00000000007521531, 10.0012665, 9.998921 
8.950179e+2, 1.4486232e+2, -1432811.4, -1568550.8, -51445.58, 0.060986545, 0.019402597, -1415516.9, 104834.12, 0.0, 10.000949, 9.999171 
8.950181e+2, 1.5486106e+2, -1288270.8, -1452556.6, -22994.637, 0.059975512, -0.058607426, -1285112.9, 137251.06, 0.0, 10.001291, 9.999129 
8.9501774e+2, 1.6486083e+2, -1173324.4, -1227275.3, -44658.8, 0.026601795, -0.04139459, -1148126.3, 176239.14, 0.0, 10.00089, 10.0002 
8.95017e+2, 1.7486146e+2, -1250998.3, -1210604.3, -11335.844, -0.03026875, -0.03139453, -1207640.5, 18715.795, 0.0, 9.999676, 10.000227 
8.9501685e+2, 1.8486181e+2, -1219693.9, -1197245.3, -27882.434, -0.016499253, 0.008319783, -1178412.6, -50060.13, 0.0, 9.999435, 9.99976 
8.950173e+2, 1.9486147e+2, -1014049.9, -1049894.6, -18871.877, 0.06894547, -0.031553537, -1005946.1, 24412.037, 0.0, 10.000194, 9.999728 
8.950174e+2, 2.048613e+2, -900830.0, -977978.56, -11054.611, 0.085489124, -0.0012378278, -899277.25, 33084.223, 0.0, 10.000434, 9.999444 
8.95017e+2, 2.1486102e+2, -861939.06, -909242.6, 10094.59, 0.024563987, -0.0033426082, -859875.0, -25509.652, 0.0, 10.000034, 9.999435 
8.9501625e+2, 2.2486094e+2, -824352.3, -840634.25, -56837.094, -0.0056193923, 0.050032042, -775076.1, -38708.98, 0.0, 9.999613, 9.999433 
8.950148e+2, 2.3486072e+2, -804796.8, -780500.5, -36503.297, -0.014256485, 0.052233174, -754177.0, -115807.15, 0.0, 9.999078, 9.999428 
8.950146e+2, 2.4486004e+2, -702695.8, -698717.56, 21788.582, -0.011800088, 0.05279991, -678827.5, -138452.13, 0.0, 9.999182, 9.999267 
8.9501536e+2, 2.5485837e+2, -497097.56, -555403.94, 22379.973, -0.0051124077, -0.07094445, -489497.9, -47109.566, 0.0000000002378373, 9.999939, 9.999219 
8.9501536e+2, 2.6485732e+2, -395086.53, -446300.97, -48053.625, -0.015586679, -0.09538916, -366243.03, -21847.021, 0.00000030747992, 9.999949, 9.99928 
8.950144e+2, 2.7485654e+2, -436133.06, -425021.53, -20946.553, -0.04410613, -0.13091345, -408906.47, -162504.38, 0.0000026197797, 9.999033, 9.999199 
8.9501476e+2, 2.848566e+2, -350594.25, -235569.63, -1888.8318, 0.014612814, -0.08122694, -235538.61, -87139.6, 0.000013171274, 9.998525, 10.000063 
8.950167e+2, 2.9485735e+2, -276005.9, -145790.61, 8532.376, 0.17706944, -0.051715445, -145233.9, -94845.484, 0.000055655084, 9.99833, 10.000107 
8.950177e+2, 3.048565e+2, -262061.69, -223016.03, 26941.11, 0.19731954, -0.09609289, -209267.78, -209267.78, 0.00017580122, 9.998618, 9.999098 
8.950164e+2, 3.1485566e+2, -119459.445, -23604.434, 49068.215, -0.08286173, -0.11899286, -2940.8643, -2940.8643, 0.00038747952, 9.998963, 10.0002985 
9.0501744e+2, 1.2486269e+2, -1557577.6, -1759327.4, 68002.86, 0.07984587, -0.07676726, -1536796.8, 179547.72, 0.0000010657902, 10.001487, 9.99897 
9.0501845e+2, 1.348627e+2, -1461716.0, -1688273.6, 26583.963, 0.04192314, 0.019657552, -1458638.5, 159707.94, 0.000000007369457, 10.001662, 9.998694 
9.0501916e+2, 1.448619e+2, -1374535.3, -1514287.6, 2070.8494, 0.086615756, 0.042880923, -1374504.5, 145850.63, 0.0, 10.001217, 9.999417 
9.0501916e+2, 1.5486042e+2, -1401901.0, -1479805.4, 5357.09, 0.093330406, -0.08910885, -1401534.4, 20835.225, 0.0, 10.000374, 9.999391 
9.0501857e+2, 1.6486038e+2, -1290901.5, -1280048.0, 1982.6913, 0.064989805, -0.06558338, -1279697.1, 44671.813, 0.0, 10.000067, 10.000244 
9.050173e+2, 1.7486152e+2, -1155741.4, -1160488.6, -30895.254, 0.012853154, -0.0061619603, -1127128.6, 99227.305, 0.0, 10.000307, 10.000271 
9.0501696e+2, 1.8486184e+2, -1083891.4, -1138945.0, -2404.5906, 0.011952573, 0.028063687, -1083786.5, 44566.266, 0.0, 10.000385, 9.9997015 
9.050173e+2, 1.9486089e+2, -994362.94, -1051806.1, -12109.703, 0.054988477, -0.064853944, -991914.44, 38448.91, 0.0, 10.000346, 9.999653 
9.050174e+2, 2.0486073e+2, -937208.2, -955417.44, 4479.7207, 0.07065233, -0.046118677, -936165.75, -3800.1277, 0.0, 10.000015, 9.999792 
9.050169e+2, 2.1486105e+2, -931381.94, -904680.75, 8166.348, 0.050793514, -0.023384215, -902381.2, -68018.37, 0.0, 9.99939, 9.999774 
9.050162e+2, 2.2486122e+2, -824123.06, -830956.5, 6068.213, 0.037607193, 0.034153413, -820575.75, -84214.234, 0.0, 9.999593, 9.999506 
9.0501505e+2, 2.3486088e+2, -554518.75, -653326.3, -12836.841, 0.024434231, 0.020840796, -552878.25, 85486.73, 0.0, 10.000778, 9.999483 
9.05015e+2, 2.4485995e+2, -489088.63, -644120.94, 49994.367, 0.033739638, 0.018311571, -474364.94, 66009.0, 0.0, 10.000861, 9.998828 
9.0501595e+2, 2.5485814e+2, -548453.8, -626904.3, 16713.096, 0.06755893, -0.08137274, -545041.7, -102650.016, 0.0, 9.999799, 9.998788 
9.050155e+2, 2.6485714e+2, -465322.25, -445036.38, -31613.053, 0.04005614, -0.09208721, -421978.94, -77579.56, 0.0000002007212, 9.999327, 9.99959 
9.0501356e+2, 2.7485663e+2, -339569.0, -336974.88, -35219.586, -0.04622586, -0.13110395, -303028.47, -56627.89, 0.0000025589381, 9.999528, 9.999559 
9.050138e+2, 2.8485668e+2, -231251.13, -240829.55, 17492.957, 0.019967457, -0.075508825, -217903.64, -69505.555, 0.000014749117, 9.999602, 9.999525 
9.050164e+2, 2.9485717e+2, -153844.64, -142106.61, -31379.145, 0.27144465, -0.014177229, -116052.34, -65659.9, 0.00006245814, 9.999419, 9.999611 
9.0501726e+2, 3.048561e+2, -144930.72, -122354.49, 27766.578, 0.27936575, -0.078953505, -103669.21, -103669.21, 0.00018874744, 9.999215, 9.999514 
9.0501475e+2, 3.1485456e+2, -169396.36, -47407.38, 38500.367, -0.10452015, -0.204726, -36272.777, -36272.777, 0.0004049675, 9.998581, 10.000342 
9.1502017e+2, 1.2486386e+2, -1542928.1, -1723638.8, 26516.219, 0.13155498, 0.07009272, -1539117.6, 177217.17, 0.000002613721, 10.001484, 9.999211 
9.1501975e+2, 1.3486232e+2, -1456747.0, -1668831.1, 43126.523, -0.023419494, -0.00050401664, -1448312.8, 170038.83, 0.00000007607973, 10.001635, 9.998837 
9.150198e+2, 1.4486168e+2, -1356531.6, -1464834.6, -47664.563, -0.01193947, 0.013698579, -1338542.3, 181816.52, 0.0, 10.001165, 9.999782 
9.150199e+2, 1.548622e+2, -1376791.6, -1421429.5, -9829.0, 0.1019947, 0.04421357, -1374723.3, 47630.2, 0.0, 10.000353, 9.999799 
9.150195e+2, 1.6486236e+2, -1321614.3, -1339954.3, -7638.8545, 0.12576014, 0.08668887, -1318849.4, 5501.694, 0.0, 10.000047, 9.999844 
9.150186e+2, 1.7486177e+2, -1190783.3, -1225441.1, -7035.432, 0.08006347, 0.013112019, -1189409.6, 36946.39, 0.0, 10.00027, 9.999844 
9.1501766e+2, 1.8486156e+2, -1091635.9, -1137068.1, -16939.793, 0.007012863, 0.015945585, -1086015.1, 42342.46, 0.0, 10.000307, 9.999754 
9.1501635e+2, 1.948615e+2, -1013295.7, -1055890.8, 3042.0723, -0.10518917, 0.0062627257, -1013079.5, 17278.93, 0.0, 10.0002, 9.999695 
9.1501594e+2, 2.0486194e+2, -925148.8, -892008.7, -31971.74, -0.10512293, 0.055871673, -872568.2, 59785.316, 0.0, 9.999849, 10.000305 
9.150163e+2, 2.1486247e+2, -925203.3, -844978.1, -2467.6445, 0.024042318, 0.047458034, -844902.3, -10555.61, 0.0, 9.999192, 10.000276 
9.150163e+2, 2.2486229e+2, -849994.94, -853155.25, 32890.63, 0.06805161, 0.04884316, -818646.5, -82298.57, 0.0, 9.999445, 9.999431 
9.150161e+2, 2.348611e+2, -588624.94, -680365.06, 48805.316, 0.022569247, -0.042003863, -567517.2, 70842.96, 0.0, 10.000587, 9.999389 
9.150159e+2, 2.4486049e+2, -544048.5, -723579.44, -2185.1218, 0.009541471, 0.012893044, -544021.9, -3653.307, 0.0, 10.000706, 9.998361 
9.150157e+2, 2.5486004e+2, -601792.56, -709336.56, -7234.079, 0.0340192, 0.10265283, -601308.1, -158930.75, 0.0, 9.999668, 9.998291 
9.150151e+2, 2.6485935e+2, -454092.16, -400433.8, -38499.594, 0.039284352, 0.13045028, -380337.25, -35953.81, 0.00000011562638, 9.999242, 9.999934 
9.1501415e+2, 2.7485806e+2, -329935.28, -290693.38, -10062.571, 0.031914014, -0.024367787, -288263.53, -41873.406, 0.0000025826089, 9.999417, 9.999932 
9.1501397e+2, 2.8485706e+2, -303074.75, -366864.1, -4644.468, 0.050252393, -0.05230707, -302738.38, -154340.75, 0.000017159802, 9.999511, 9.9987 
9.150144e+2, 2.9485616e+2, -229260.97, -281828.88, -17715.666, 0.09081522, -0.045909338, -223848.05, -173440.13, 0.00007135739, 9.999348, 9.998688 
9.150151e+2, 3.0485535e+2, -106512.164, -18334.133, -1818.3073, 0.108595476, -0.06655511, -18296.654, -18296.654, 0.00020564985, 9.999123, 10.00026 
9.1501456e+2, 3.1485498e+2, -155448.67, 26853.191, 79042.5, -0.048264224, -0.16642901, 56351.38, 56351.38, 0.00042848263, 9.998414, 10.000914 
9.2502207e+2, 1.24864e+2, -1524850.6, -1668208.6, 61178.62, 0.19629447, 0.08972944, -1502292.1, 214042.08, 0.0000053718704, 10.001411, 9.999631 
9.25021e+2, 1.348627e+2, -1632657.6, -1703144.8, 49287.01, 0.021420399, -0.004976029, -1607309.8, 11037.773, 0.00000033393198, 10.000208, 9.999304 
9.2502046e+2, 1.4486228e+2, -1528274.6, -1511824.9, 29374.553, 0.011388603, -0.005340038, -1489545.5, 30806.088, 0.0, 9.999839, 10.000098 
9.250204e+2, 1.5486346e+2, -1302633.5, -1355122.0, 24878.986, 0.09337169, 0.06318078, -1292715.3, 129623.625, 0.0, 10.0007305, 10.000071 
9.2502004e+2, 1.6486359e+2, -1213236.5, -1336557.5, 52939.83, 0.13458845, 0.106437646, -1193628.1, 130709.68, 0.0, 10.000996, 9.999403 
9.250196e+2, 1.7486233e+2, -1166838.5, -1265313.0, 17639.928, 0.13869396, 0.011519874, -1163774.0, 62577.094, 0.0, 10.000657, 9.999381 
9.250186e+2, 1.8486188e+2, -1086384.5, -1129499.3, 26400.48, 0.0817004, 0.01272292, -1073858.1, 54497.465, 0.0, 10.00033, 9.999797 
9.250169e+2, 1.9486193e+2, -1048881.1, -1064045.3, 11943.378, -0.049113724, 0.009465974, -1042316.4, -11962.525, 0.0, 9.999924, 9.999768 
9.2501605e+2, 2.0486218e+2, -944008.7, -901823.44, -13147.115, -0.059736893, 0.03689486, -898061.56, 34287.94, 0.0, 9.999726, 10.000304 
9.2501616e+2, 2.1486226e+2, -828909.9, -796561.7, -44532.32, 0.07120703, -0.0146284625, -765357.2, 68988.734, 0.0, 9.999843, 10.000301 
9.2501634e+2, 2.2486211e+2, -774612.75, -820217.56, 35712.473, 0.107916765, -0.0104320515, -755043.8, -18696.553, 0.0, 9.999969, 9.999402 
9.250165e+2, 2.3486148e+2, -667362.7, -725304.2, 21368.846, 0.040681735, -0.04311226, -660334.4, -21978.18, 0.0, 10.000059, 9.999338 
9.2501634e+2, 2.448613e+2, -626127.2, -719015.25, -11827.279, 0.030462895, 0.03951571, -624644.9, -84284.03, 0.0, 9.999959, 9.998756 
9.2501575e+2, 2.5486127e+2, -560769.3, -639107.44, 17420.793, 0.08001817, 0.13038553, -557069.94, -114705.71, 0.0, 9.99975, 9.998731 
9.250149e+2, 2.6486066e+2, -445678.13, -444927.7, 41743.586, 0.09339188, 0.16604629, -403557.63, -59187.637, 0.00000007319143, 9.999479, 9.999527 
9.250139e+2, 2.7485907e+2, -408123.25, -375809.47, -12212.637, 0.09136356, 0.022368474, -371713.13, -125330.89, 0.0000027897247, 9.99906, 9.999529 
9.250135e+2, 2.8485784e+2, -364120.47, -382702.28, 43005.023, 0.08383445, -0.012891822, -329414.2, -181021.2, 0.000020180585, 9.999036, 9.998812 
9.2501354e+2, 2.9485682e+2, -201968.1, -256395.6, 65733.234, 0.07310184, -0.032522213, -158038.0, -107634.07, 0.00008285034, 9.999477, 9.998792 
9.250137e+2, 3.048566e+2, -113095.305, -43232.3, 73332.82, 0.07761071, 0.00700381, 3063.7302, 3063.7302, 0.0002292469, 9.999126, 10.000102 
9.2501354e+2, 3.1485617e+2, -288350.38, -49325.066, 43565.55, 0.06839971, -0.082402684, -41632.25, -41632.25, 0.0004645645, 9.99751, 10.000843 
9.3502223e+2, 1.2486293e+2, -1490745.3, -1570499.8, -28251.807, -0.0014014615, -0.044366576, -1481751.6, 234592.75, 0.000009857008, 10.001322, 10.000335 
9.3502164e+2, 1.3486399e+2, -1568149.8, -1571950.1, 14929.918, 0.03440859, 0.006683091, -1554999.6, 63333.02, 0.0000009955157, 10.000239, 10.000177 
9.350207e+2, 1.4486393e+2, -1516235.9, -1491505.4, 44322.14, 0.00820451, -0.004188719, -1457856.0, 62475.227, 0.00000000002439963, 9.999858, 10.000232 
9.350199e+2, 1.5486425e+2, -1297493.0, -1331823.0, 74211.29, -0.061425097, -0.035245236, -1238487.5, 183838.38, 0.0, 10.00068, 10.000254 
9.350197e+2, 1.648641e+2, -1252877.1, -1407138.0, 22419.107, -0.03723354, -0.010457709, -1249684.9, 74643.6, 0.0, 10.000937, 9.998951 
9.350199e+2, 1.7486323e+2, -1202946.1, -1336202.1, 20717.088, 0.06888914, -0.015932394, -1199799.6, 26541.297, 0.0, 10.000632, 9.99891 
9.350195e+2, 1.848628e+2, -1101827.0, -1142554.6, -442.16928, 0.10840314, 0.014046118, -1101822.3, 26523.902, 0.0, 10.000252, 9.999746 
9.350185e+2, 1.9486226e+2, -1069746.5, -1080524.9, 10802.542, 0.082653604, -0.04550002, -1063063.5, -32714.488, 0.0, 9.999809, 9.999714 
9.350174e+2, 2.0486155e+2, -990168.6, -968386.5, -24028.166, 0.07247064, -0.09139522, -952896.4, -20543.33, 0.0, 9.999596, 9.999911 
9.350163e+2, 2.1486041e+2, -884686.94, -874712.7, -23572.002, 0.07459312, -0.222409, -855606.0, -21245.383, 0.0, 9.99967, 9.999854 
9.3501586e+2, 2.2486067e+2, -808049.6, -841546.1, 26008.584, 0.036951683, -0.1519894, -793863.3, -57503.684, 0.0, 9.9997635, 9.999354 
9.35016e+2, 2.3486203e+2, -697258.5, -744786.75, 38726.844, -0.0438987, 0.018358737, -675585.9, -37232.883, 0.0, 9.999875, 9.999296 
9.350159e+2, 2.4486245e+2, -558813.94, -545859.7, -35109.266, -0.035027564, 0.10187222, -516635.1, 23714.951, 0.0, 9.999815, 10.000015 
9.3501574e+2, 2.5486162e+2, -492514.56, -469667.53, 25416.912, 0.07710049, -0.014091205, -453225.0, -10871.066, 0.0, 9.999619, 9.999966 
9.350146e+2, 2.648609e+2, -538291.2, -602781.56, 15871.584, 0.090005, -0.0023721873, -534596.75, -190236.0, 0.00000003612581, 9.999344, 9.998502 
9.350124e+2, 2.7485988e+2, -505025.28, -544924.0, -8946.714, -0.0013319146, 0.016493998, -503110.94, -256735.52, 0.0000027030533, 9.998933, 9.998423 
9.35012e+2, 2.8485927e+2, -301956.56, -240356.05, 47671.07, -0.0099424645, 0.053754684, -214400.8, -66018.77, 0.000022488803, 9.99897, 9.999824 
9.3501335e+2, 2.948592e+2, -137852.5, -114015.95, 104442.68, 0.064148955, 0.018598134, -20813.729, 29566.662, 0.00009525127, 9.999428, 9.999797 
9.35013e+2, 3.0485976e+2, -195877.98, -197714.33, 7505.9424, 0.055589575, 0.14051332, -189234.27, -189234.27, 0.00025879213, 9.999068, 9.999066 
9.350108e+2, 3.1485888e+2, -355245.72, -153984.42, 39098.613, -0.028479364, 0.10843818, -146655.69, -146655.69, 0.0005142612, 9.99738, 10.000181 
9.450233e+2, 1.24863505e+2, -1547808.4, -1584547.3, 21210.533, 0.01197784, -0.06886641, -1538118.5, 178220.11, 0.000016753027, 10.000839, 10.00048 
9.450225e+2, 1.3486515e+2, -1491018.1, -1525127.1, -42119.793, 0.08834059, 0.029669777, -1462631.1, 155689.5, 0.000002343361, 10.000709, 10.0002775 
9.4502157e+2, 1.4486511e+2, -1426985.8, -1444116.8, 31338.223, 0.08538788, 0.009810986, -1403063.5, 117255.52, 0.0000000053592455, 10.000441, 10.000279 
9.450207e+2, 1.548649e+2, -1341128.9, -1357774.3, 18018.291, -0.026104897, -0.07598678, -1329604.0, 92714.86, 0.0, 10.000379, 10.0002365 
9.450204e+2, 1.6486487e+2, -1335995.9, -1408593.0, -1849.8245, -0.013466609, -0.052051377, -1335948.8, -11628.761, 0.0, 10.000205, 9.999289 
9.4502044e+2, 1.7486484e+2, -1284964.6, -1338254.0, 23688.69, 0.10860595, -0.011988808, -1275956.9, -49632.793, 0.0, 9.999912, 9.999239 
9.450201e+2, 1.8486464e+2, -1140188.9, -1168700.9, 76054.3, 0.16177751, 0.029626079, -1077066.0, 51261.008, 0.0, 10.000046, 9.999649 
9.4501936e+2, 1.9486383e+2, -944570.1, -1029025.0, 54056.434, 0.15154347, -0.045827664, -918202.7, 112130.43, 0.0, 10.000732, 9.999606 
9.4501805e+2, 2.0486292e+2, -809452.0, -924563.9, 38489.57, 0.11546791, -0.0895496, -797768.25, 134571.73, 0.0, 10.001003, 9.999539 
9.4501626e+2, 2.1486169e+2, -764316.5, -855218.4, 12714.206, 0.056810748, -0.1950011, -762571.7, 71777.98, 0.0, 10.000658, 9.999507 
9.4501555e+2, 2.2486176e+2, -740388.7, -820295.56, 97367.81, 0.01172872, -0.12012965, -675095.9, 61255.035, 0.0, 10.000301, 9.999231 
9.4501615e+2, 2.3486283e+2, -683699.1, -748328.5, 75879.59, -0.013117523, 0.034881547, -633539.9, 4806.907, 0.0, 10.000032, 9.999187 
9.45016e+2, 2.4486308e+2, -541126.4, -495511.22, -12453.463, 0.0064659067, 0.08880988, -492332.75, 48011.66, 0.0, 9.999756, 10.000384 
9.450153e+2, 2.5486222e+2, -490647.78, -420814.6, -46436.473, 0.088662565, -0.07045091, -397632.0, 44714.56, 0.0, 9.999429, 10.000381 
9.450141e+2, 2.6486158e+2, -499664.22, -589797.94, -10333.802, 0.10284008, -0.071211375, -498494.63, -154142.66, 0.000000027783642, 9.999624, 9.99846 
9.450125e+2, 2.7486077e+2, -305754.66, -454076.66, 9980.337, 0.05817537, -0.021287221, -305086.13, -58720.9, 0.000002329391, 10.000318, 9.998385 
9.45012e+2, 2.848605e+2, -146367.47, -162815.86, 78153.92, 0.052385606, 0.048523866, -76006.21, 72363.625, 0.000023981273, 10.000036, 9.999846 
9.450126e+2, 2.9486072e+2, -258305.33, -170122.53, 25868.04, 0.09752467, 0.043961257, -163094.4, -112728.0, 0.00010679835, 9.9986, 9.999816 
9.4501144e+2, 3.04861e+2, -343671.7, -287752.7, -45927.516, 0.053201996, 0.14960091, -261943.52, -261943.52, 0.00028981623, 9.998156, 9.998885 
9.450094e+2, 3.1485993e+2, -182000.08, -47842.453, -8097.0938, 0.053384703, 0.11654781, -47355.52, -47355.52, 0.00057081727, 9.998487, 10.000377 
9.550242e+2, 1.24865845e+2, -1601346.5, -1674342.6, -29210.832, -0.051122073, 0.019015407, -1591096.5, 125219.19, 0.00002677623, 10.00078, 9.999871 
9.550232e+2, 1.3486631e+2, -1544434.4, -1616965.9, -34994.695, 0.05983218, 0.05917377, -1530303.4, 88007.18, 0.0000047533053, 10.00065, 9.999658 
9.550225e+2, 1.4486572e+2, -1443042.5, -1465499.0, 8335.135, 0.1014276, 0.021271728, -1440286.9, 80028.805, 0.000000046136613, 10.00038, 10.000167 
9.550222e+2, 1.5486553e+2, -1344160.1, -1370366.8, 30088.07, 0.05197978, -0.05425181, -1324445.9, 97870.94, 0.0, 10.000405, 10.000136 
9.5502174e+2, 1.6486613e+2, -1262743.1, -1253820.0, -27241.168, 0.06373478, -0.012588221, -1230677.5, 93633.08, 0.0, 10.000194, 10.000357 
9.55021e+2, 1.7486721e+2, -1214229.9, -1180434.1, 26970.908, 0.13826852, 0.028102787, -1165504.9, 60794.91, 0.0, 9.9998665, 10.000343 
9.5502007e+2, 1.8486747e+2, -1158540.4, -1197329.1, 86591.516, 0.12578028, 0.06706783, -1089197.9, 39099.484, 0.0, 9.99999, 9.999486 
9.550191e+2, 1.9486652e+2, -969444.56, -1061944.5, 94830.01, 0.020291932, -0.00471675, -910187.25, 120120.12, 0.0, 10.000642, 9.999428 
9.550176e+2, 2.0486617e+2, -852620.75, -977040.9, 9434.653, -0.051338874, 0.030901909, -851909.44, 80402.1, 0.0, 10.000846, 9.999255 
9.5501554e+2, 2.1486609e+2, -816210.25, -913648.56, 12590.349, -0.09755022, 0.06974501, -814609.7, 19703.318, 0.0, 10.000446, 9.99921 
9.550152e+2, 2.2486542e+2, -780581.25, -856654.7, 72247.38, -0.07981337, 0.0943656, -736969.5, -648.7385, 0.0, 10.000099, 9.999079 
9.550167e+2, 2.3486379e+2, -725591.2, -791228.2, 82795.28, 0.006086297, -0.003649822, -669347.25, -31008.715, 0.0, 9.999839, 9.998989 
9.550163e+2, 2.4486308e+2, -600576.6, -574879.75, -36926.94, 0.026762182, -0.013346146, -548629.8, -8284.982, 0.0, 9.999576, 9.999919 
9.55014e+2, 2.5486302e+2, -546517.94, -504829.8, -42532.348, -0.021266801, -0.044441756, -478308.53, -35966.16, 0.0, 9.999293, 9.999866 
9.550131e+2, 2.6486272e+2, -454157.6, -464010.97, 2151.0913, 0.015467085, -0.031864963, -453708.44, -109364.914, 0.000000030362223, 9.999498, 9.999381 
9.550139e+2, 2.7486172e+2, -257374.58, -325067.94, 56307.145, 0.130359, -0.09505798, -225524.28, 20828.143, 0.000002140531, 10.000201, 9.999325 
9.5501316e+2, 2.8486136e+2, -226912.94, -306567.16, 11876.547, 0.13831773, -0.03859838, -225179.84, -76821.78, 0.000025889522, 9.999938, 9.998904 
9.5501095e+2, 2.9486138e+2, -338761.03, -318040.8, -6500.778, 0.030172631, 0.038533423, -316170.16, -265808.22, 0.00011778403, 9.998521, 9.998835 
9.550088e+2, 3.0486056e+2, -309635.7, -202700.55, -36807.883, -0.05260441, 0.04752004, -191255.86, -191255.86, 0.00031950467, 9.998087, 9.999507 
9.550084e+2, 3.1485876e+2, -124811.28, 88641.914, 42491.08, 0.033711474, -0.12112276, 96789.414, 96789.414, 0.00062882464, 9.998402, 10.001359 
9.650257e+2, 1.24868385e+2, -1520462.1, -1677983.5, 70510.55, -0.0006904127, 0.00030291217, -1493511.0, 222777.4, 0.000040530904, 10.001478, 9.999534 
9.6502405e+2, 1.348683e+2, -1550281.3, -1649115.4, 46695.613, 0.08679192, 0.013362156, -1531709.1, 86579.74, 0.000008656152, 10.000717, 9.999422 
9.650232e+2, 1.4486757e+2, -1522537.6, -1509868.1, 158060.27, 0.16154103, -0.022340901, -1358015.8, 162280.31, 0.00000019058375, 9.999893, 10.000077 
9.650225e+2, 1.5486763e+2, -1499845.9, -1457133.9, 140417.67, 0.0993044, -0.061436452, -1336457.5, 85838.586, 0.0, 9.99942, 10.000002 
9.6502185e+2, 1.6486825e+2, -1341051.4, -1256111.6, 100788.16, 0.09923584, -0.02381055, -1189210.9, 135078.38, 0.0, 9.99953, 10.00065 
9.650213e+2, 1.7486915e+2, -1128987.4, -1110274.5, 62304.58, 0.16628736, -0.029328577, -1056627.8, 169650.88, 0.0, 10.000336, 10.000594 
9.650204e+2, 1.8486948e+2, -1062165.1, -1156293.8, 122104.31, 0.13588595, 0.004409551, -978368.75, 149906.58, 0.0, 10.000652, 9.999462 
9.650193e+2, 1.9486886e+2, -1006934.6, -1087361.4, 115033.71, -0.0023049933, -0.027648898, -925287.94, 104994.83, 0.0, 10.000394, 9.999388 
9.6501786e+2, 2.0486888e+2, -945548.9, -1039579.6, 57419.95, -0.07600584, 0.055414665, -918351.75, 13933.63, 0.0, 10.000324, 9.999059 
9.650162e+2, 2.1486919e+2, -820521.6, -936394.75, 31624.992, -0.078024544, 0.15165408, -812452.25, 21833.797, 0.0, 10.000532, 9.998999 
9.6501577e+2, 2.2486836e+2, -732065.6, -808861.7, 125667.94, -0.03322272, 0.16053958, -639060.3, 97234.49, 0.0, 10.000309, 9.999314 
9.6501696e+2, 2.3486604e+2, -739298.2, -764071.5, 138913.36, 0.07319856, -0.03243683, -612220.3, 26094.797, 0.0, 9.999593, 9.999293 
9.650163e+2, 2.4486513e+2, -630217.94, -641111.7, 91279.74, 0.078057155, -0.057467196, -544222.7, -3899.6887, 0.0, 9.999578, 9.9994755 
9.6501374e+2, 2.5486547e+2, -433922.25, -502525.13, 59395.34, -0.012891568, 0.0016490448, -399635.1, 42684.926, 0.0, 10.000288, 9.999412 
9.650129e+2, 2.648653e+2, -333329.84, -362570.88, 101185.26, 0.01759542, 0.03119654, -245714.27, 98606.11, 0.000000012060779, 10.000132, 9.999771 
9.650138e+2, 2.748641e+2, -410449.7, -357045.84, 80879.42, 0.17354484, -0.09228974, -298574.56, -52246.07, 0.0000023356135, 9.998962, 9.999701 
9.6501297e+2, 2.8486356e+2, -403139.16, -414479.9, 75867.91, 0.18422954, -0.06275564, -332730.0, -184394.77, 0.000028869204, 9.998831, 9.998687 
9.650101e+2, 2.9486346e+2, -174787.77, -266454.25, 73355.664, 0.047884688, 0.025011111, -134123.97, -83781.81, 0.00012892728, 9.999773, 9.998578 
9.650076e+2, 3.048623e+2, -44016.617, -37309.813, 83020.64, -0.044197794, -0.0033831648, 42425.13, 42425.13, 0.00034703137, 9.999732, 9.999849 
9.650076e+2, 3.1486148e+2, -143565.63, 121432.16, 69378.61, 0.15055127, -0.1137531, 138497.13, 138497.13, 0.0006841425, 9.99809, 10.001725 
9.750267e+2, 1.24870844e+2, -1514516.0, -1650016.1, -12966.698, -0.11625392, -0.13979279, -1513286.4, 202973.31, 0.000058506626, 10.00142, 9.99975 
9.7502446e+2, 1.3487126e+2, -1524057.4, -1596089.4, 25965.174, 0.02934088, -0.10743333, -1515673.6, 102580.734, 0.00001444443, 10.00073, 9.999776 
9.75023e+2, 1.448709e+2, -1538819.9, -1544743.4, 124316.67, 0.10662087, -0.11357378, -1417429.6, 102828.1, 0.0000005546723, 9.999896, 9.99984 
9.7502124e+2, 1.5487128e+2, -1522176.8, -1494638.6, 141386.86, -0.0015080264, -0.09599612, -1366352.0, 55903.414, 0.0, 9.999387, 9.999758 
9.750205e+2, 1.6487128e+2, -1382597.3, -1337583.6, 112489.57, -0.025256243, -0.08461518, -1245371.4, 78884.37, 0.0, 9.999498, 10.000112 
9.7502095e+2, 1.7487061e+2, -1169856.8, -1191865.9, 104561.51, 0.06665326, -0.19001964, -1075722.4, 150538.81, 0.0, 10.000315, 10.000047 
9.750207e+2, 1.8487063e+2, -1066379.8, -1143781.6, 100265.625, 0.06515998, -0.16364679, -997605.25, 130655.555, 0.0, 10.000564, 9.99959 
9.750196e+2, 1.9487102e+2, -1014549.44, -1072832.8, 120566.805, -0.04280681, -0.11382087, -919652.44, 110605.65, 0.0, 10.000269, 9.999542 
9.7501856e+2, 2.0487124e+2, -982402.5, -1081750.4, 48611.703, -0.07116202, -0.006438076, -962573.94, -30314.266, 0.0, 10.000166, 9.998853 
9.750175e+2, 2.1487093e+2, -861391.8, -981776.1, 54124.69, -0.019680085, 0.05082532, -840636.0, -6366.653, 0.0, 10.000356, 9.998777 
9.7501683e+2, 2.2487049e+2, -710222.25, -719390.75, 82454.45, 0.019340992, 0.07426431, -632224.7, 104049.26, 0.0, 10.000118, 10.000018 
9.750166e+2, 2.3486957e+2, -722493.06, -677192.25, 124371.33, 0.051359057, -0.052055925, -573425.6, 64851.16, 0.0, 9.9993725, 9.999991 
9.7501576e+2, 2.4486932e+2, -681776.06, -712785.0, 102184.914, 0.040616944, -0.023240935, -593926.06, -53648.168, 0.0, 9.999423, 9.999063 
9.750142e+2, 2.548695e+2, -482395.06, -572075.06, 103489.95, -0.020032717, 0.05904247, -414448.56, 27831.918, 0.0, 10.000152, 9.9990015 
9.7501296e+2, 2.6486915e+2, -358947.7, -389867.72, 43969.81, -0.016988058, 0.09844542, -327799.16, 16485.404, 0.0000000034767167, 10.000019, 9.999637 
9.750118e+2, 2.7486792e+2, -432755.44, -381353.53, 55788.21, 0.05118727, -0.018513342, -345630.84, -99337.22, 0.0000028342504, 9.998864, 9.99958 
9.750108e+2, 2.8486726e+2, -383945.88, -353837.72, 98898.02, 0.056898776, -0.014796322, -268854.6, -120554.29, 0.000032313746, 9.998749, 9.999141 
9.750097e+2, 2.9486692e+2, -157891.73, -207507.36, 134331.92, -0.019732198, 0.0011369747, -46096.13, 4211.31, 0.0001399921, 9.999679, 9.999025 
9.750075e+2, 3.04866e+2, -60899.12, -51753.58, 14344.949, -0.068432406, -0.020693049, -41270.195, -41270.195, 0.00037284024, 9.99964, 9.999798 
9.7500604e+2, 3.1486723e+2, -183327.45, 67400.414, 44815.38, 0.108978026, 0.07796285, 75170.0, 75170.0, 0.00073526404, 9.99797, 10.00141 
9.85027e+2, 1.24874964e+2, -1870426.5, -1802395.5, 49342.945, -0.0824763, -0.13661166, -1776479.6, -60262.434, 0.00008108169, 9.998887, 9.999928 
9.850252e+2, 1.3487542e+2, -1552051.6, -1596837.1, 26900.705, 0.05363969, -0.11554446, -1539443.1, 78768.87, 0.000022462764, 10.000459, 9.999912 
9.850236e+2, 1.44875e+2, -1426425.4, -1523141.1, 115488.23, 0.15130433, -0.12142575, -1349579.4, 170637.06, 0.0000013019285, 10.000791, 9.999558 
9.8502105e+2, 1.548751e+2, -1425241.1, -1479684.4, 90688.71, 0.012476501, -0.10616787, -1357776.6, 64439.855, 0.0, 10.000175, 9.999477 
9.850201e+2, 1.6487487e+2, -1341155.1, -1379798.4, 144867.13, -0.030813172, -0.075845756, -1214326.9, 109893.26, 0.0, 10.000045, 9.999563 
9.85021e+2, 1.7487407e+2, -1180226.5, -1256597.5, 108681.11, 0.037688922, -0.13844989, -1103217.8, 123011.32, 0.0, 10.0005045, 9.999512 
9.850211e+2, 1.8487391e+2, -1055328.6, -1130181.5, 93390.98, 0.05768792, -0.10848565, -992143.9, 136087.47, 0.0, 10.000616, 9.999651 
9.8502034e+2, 1.9487402e+2, -1011463.75, -1067523.8, 72762.49, 0.00906488, -0.089657664, -961519.06, 68711.17, 0.0, 10.000282, 9.999572 
9.850192e+2, 2.0487404e+2, -973479.5, -1045333.3, 58653.97, -0.0020722481, -0.017732799, -940623.94, -8391.458, 0.0, 10.000064, 9.99916 
9.8501796e+2, 2.1487363e+2, -911846.5, -971410.9, 75614.75, 0.020350683, -0.0029193172, -860360.2, -26118.658, 0.0, 9.999852, 9.999094 
9.8501706e+2, 2.2487335e+2, -732097.56, -744402.25, 120727.41, 0.04497527, 0.026227558, -617365.8, 118878.43, 0.0, 10.000018, 9.999901 
9.8501676e+2, 2.3487292e+2, -560362.56, -613296.06, 73261.39, 0.08233028, -0.038044468, -508933.75, 129309.51, 0.0, 10.000541, 9.999874 
9.850159e+2, 2.4487269e+2, -558437.9, -658056.5, 61545.87, 0.08348347, 0.00084785605, -529071.0, 11173.636, 0.0, 10.000305, 9.999005 
9.8501444e+2, 2.5487226e+2, -613160.25, -644787.7, 56668.176, 0.036138624, 0.029479384, -570140.7, -127887.66, 0.0, 9.999291, 9.998919 
9.850129e+2, 2.6487193e+2, -505881.13, -452755.5, 37250.77, 0.029594932, 0.070237204, -433566.78, -89308.94, 0.00000001775074, 9.998983, 9.999711 
9.850112e+2, 2.748714e+2, -341444.97, -330595.8, 27137.545, 0.082528666, 0.022866504, -308346.0, -62084.586, 0.000003544514, 9.999461, 9.999653 
9.850101e+2, 2.8487113e+2, -249829.39, -250417.25, 122395.03, 0.078618415, 0.04187439, -127727.93, 20535.96, 0.00003520851, 9.999473, 9.999527 
9.850092e+2, 2.948707e+2, -245835.52, -209918.97, 123656.3, 0.016667394, 0.011536154, -102923.734, -52654.78, 0.00014922032, 9.99887, 9.999419 
9.850071e+2, 3.0486953e+2, -152374.55, -123428.79, 18627.045, -0.03371863, -0.04185737, -114312.875, -114312.875, 0.00039592202, 9.999162, 9.99952 
9.850057e+2, 3.1487092e+2, 76960.98, 115658.445, -41664.1, 0.18018118, 0.10811967, 142247.39, 142247.39, 0.0007798097, 10.000101, 10.000714 
9.9502563e+2, 1.24880746e+2, -1874366.3, -1800476.9, 57416.09, -0.18869664, 0.008416574, -1769146.3, -52985.57, 0.000108580556, 9.99886, 9.999943 
9.950259e+2, 1.3488081e+2, -1559449.0, -1601214.0, 96433.7, 0.043954164, -0.01159873, -1481662.6, 136498.95, 0.000033028722, 10.000426, 9.999887 
9.9502504e+2, 1.4487985e+2, -1450680.6, -1574945.6, 70656.16, 0.1634628, -0.05238418, -1418724.1, 101447.77, 0.0000026281716, 10.000787, 9.999212 
9.950215e+2, 1.5487912e+2, -1442849.3, -1521042.3, 80541.93, 0.0058052726, -0.085948266, -1392416.3, 29762.904, 0.00000000019976186, 10.000189, 9.999194 
9.950202e+2, 1.6487911e+2, -1383926.3, -1457063.9, 145633.31, -0.062157284, 0.007263311, -1270340.6, 53840.723, 0.0, 10.000005, 9.999047 
9.950211e+2, 1.7487957e+2, -1221483.4, -1334100.9, 141383.23, -0.034258097, 0.1199284, -1125608.4, 100573.48, 0.0, 10.000471, 9.998996 
9.9502134e+2, 1.8487918e+2, -1075853.9, -1152179.9, 65355.258, -0.0073462003, 0.1615273, -1038335.1, 89852.27, 0.0, 10.000532, 9.99954 
9.95021e+2, 1.9487768e+2, -1034389.25, -1086084.0, 75357.695, 0.023283677, 0.028701613, -980569.4, 49631.53, 0.0, 10.000162, 9.9995 
9.950196e+2, 2.0487715e+2, -943338.2, -937053.7, 33416.22, 0.0023500482, 0.007730776, -906632.3, 25572.793, 0.0, 9.999875, 9.999991 
9.950171e+2, 2.148773e+2, -880253.44, -856939.1, 80286.766, -0.077421375, -0.006801322, -787467.6, 46735.203, 0.0, 9.99965, 9.999971 
9.950162e+2, 2.2487709e+2, -826022.75, -888039.56, 125144.25, -0.065525725, 0.027455723, -728102.5, 8102.1445, 0.0, 9.9998, 9.99902 
9.950172e+2, 2.3487616e+2, -654722.8, -760122.44, 109079.9, 0.038470004, 0.004846072, -586279.4, 51934.61, 0.0, 10.000333, 9.998965 
9.950164e+2, 2.448752e+2, -565569.56, -635674.1, 9436.115, 0.073191226, 0.004065386, -564321.6, -24098.047, 0.0, 10.00014, 9.99924 
9.9501395e+2, 2.5487384e+2, -618425.9, -617450.6, 34303.09, 0.030737137, -0.08555111, -583631.75, -141394.55, 0.0, 9.999123, 9.999187 
9.950123e+2, 2.6487374e+2, -516052.28, -442154.0, 41022.53, 0.04365871, -0.040589266, -423893.66, -79654.72, 0.000000028595345, 9.998851, 9.999847 
9.950113e+2, 2.7487457e+2, -351677.3, -323017.16, 64533.258, 0.11624745, 0.03308157, -271242.06, -25009.94, 0.000003781716, 9.999343, 9.999761 
9.9501014e+2, 2.84875e+2, -235289.89, -198164.33, 87510.586, 0.10801165, 0.100956805, -127269.414, 20957.977, 0.000036350866, 9.999378, 9.999928 
9.950084e+2, 2.9487488e+2, -223209.44, -144644.98, 123025.89, 0.011144171, 0.056378335, -54782.082, -4555.9355, 0.00015456251, 9.9987955, 9.999899 
9.9500614e+2, 3.0487305e+2, -208774.39, -229069.64, 48110.402, -0.06930755, -0.056739934, -169753.08, -169753.08, 0.00041193186, 9.999112, 9.998822 
9.9500525e+2, 3.148724e+2, -22096.299, -51112.85, 30283.314, 0.055824637, -0.036369465, -3025.278, -3025.278, 0.0008105773, 9.999939, 9.999646 
1.0050257e+3, 1.24883235e+2, -1795561.3, -1789326.6, 4590.152, -0.08345738, -0.030137032, -1786895.4, -70760.03, 0.00014134821, 9.999518, 9.999702 
1.00502566e+3, 1.3488363e+2, -1670946.1, -1682415.6, -16558.355, 0.022213036, 0.005834022, -1659157.6, -41021.305, 0.000046426092, 9.999786, 9.999632 
1.0050253e+3, 1.4488292e+2, -1542765.4, -1579766.3, -15047.138, 0.15796973, -0.010310223, -1537418.8, -17274.184, 0.00000474816, 10.000016, 9.999535 
1.0050225e+3, 1.5488243e+2, -1349718.9, -1442424.3, 37.02956, 0.06921588, -0.04972722, -1349718.9, 72428.77, 0.000000004412824, 10.000696, 9.999487 
1.00502126e+3, 1.6488236e+2, -1273435.1, -1417224.8, 131629.45, 0.012798838, 0.027739355, -1195346.0, 128803.48, 0.0, 10.000804, 9.998946 
1.0050216e+3, 1.7488243e+2, -1259085.1, -1362281.4, 128892.32, -0.01401759, 0.11293461, -1171846.6, 54306.527, 0.0, 10.000247, 9.998916 
1.0050215e+3, 1.8488197e+2, -1179769.5, -1195887.6, 96151.85, -0.007221892, 0.14782442, -1091339.6, 36819.88, 0.0, 9.999793, 9.999595 
1.00502096e+3, 1.9488065e+2, -1124431.0, -1123414.5, 88597.73, 0.04188979, 0.025815174, -1035323.56, -5151.9033, 0.0, 9.99952, 9.99955 
1.0050197e+3, 2.0488024e+2, -952247.4, -944630.44, 75232.69, 0.033678394, 0.015434972, -873109.9, 59064.65, 0.0, 9.99982, 9.999969 
1.0050175e+3, 2.1488047e+2, -734991.7, -797630.25, 23843.385, -0.04113812, 0.013014368, -726948.5, 107222.625, 0.0, 10.000669, 9.999903 
1.0050167e+3, 2.248802e+2, -744412.0, -856659.94, 65437.613, -0.02295464, 0.051210634, -714327.06, 21847.203, 0.0, 10.000409, 9.998938 
1.0050172e+3, 2.3487912e+2, -851260.5, -865715.8, 74319.37, 0.086478546, 0.0224429, -783818.2, -145630.77, 0.0, 9.999036, 9.998864 
1.00501634e+3, 2.4487816e+2, -701325.3, -664686.25, 63592.605, 0.11743022, 0.012396632, -616827.06, -76629.97, 0.0, 9.99905, 9.999565 
1.0050142e+3, 2.5487706e+2, -391187.22, -463499.4, 63215.48, 0.076294236, -0.0850589, -354518.44, 87687.24, 0.0, 10.000512, 9.999562 
1.00501224e+3, 2.6487702e+2, -279082.03, -370126.4, 61566.656, 0.08103939, -0.036808852, -248035.78, 96171.016, 0.000000017098808, 10.000661, 9.999463 
1.00501075e+3, 2.7487758e+2, -380987.94, -376249.25, 16409.092, 0.13219807, 0.042498644, -362039.34, -115834.625, 0.000003428396, 9.999311, 9.9994 
1.0050095e+3, 2.8487778e+2, -295361.66, -227397.97, 60159.41, 0.13527125, 0.106116466, -192286.25, -44083.477, 0.00003625069, 9.998984, 9.999903 
1.0050085e+3, 2.9487747e+2, -96749.43, -86277.82, 24278.803, 0.10493598, 0.046451572, -66676.68, -16473.914, 0.00015744341, 9.999676, 9.999868 
1.0050061e+3, 3.0487606e+2, -90847.04, -140807.89, -3925.675, 0.00042499302, -0.03808593, -90540.45, -90540.45, 0.00042211023, 9.999757, 9.999138 
1.0050043e+3, 3.14876e+2, -172994.64, -118133.234, -1577.1492, 0.030999837, 0.008514443, -118087.93, -118087.93, 0.0008305699, 9.998837, 9.9997425 
1.0150264e+3, 1.2488249e+2, -1832271.8, -1848206.6, -47630.316, -0.03413829, -0.25608805, -1791947.1, -75806.76, 0.0001798155, 9.999464, 9.999314 
1.01502396e+3, 1.348839e+2, -1702658.1, -1745636.5, 4575.527, -0.15819655, -0.07415358, -1702176.4, -84041.29, 0.000062927356, 9.999783, 9.999194 
1.0150238e+3, 1.4488427e+2, -1487254.1, -1460690.1, -12061.006, -0.03698216, -0.004292786, -1456031.1, 64102.645, 0.000007860604, 9.999997, 10.00036 
1.0150237e+3, 1.5488507e+2, -1294132.5, -1324058.0, 40606.676, 0.07648843, 0.0018731946, -1265819.5, 156302.17, 0.000000028517778, 10.000686, 10.000301 
1.015023e+3, 1.6488466e+2, -1254450.8, -1371541.6, 94657.38, 0.07388637, -0.012070507, -1201696.6, 122427.04, 0.0, 10.000776, 9.999273 
1.015022e+3, 1.7488272e+2, -1238192.0, -1317084.9, 120867.55, -0.027621713, -0.16179736, -1150496.9, 75645.836, 0.0, 10.000236, 9.999232 
1.0150209e+3, 1.848823e+2, -1176899.3, -1169396.3, 69289.94, -0.073112145, -0.15019074, -1103756.4, 24390.97, 0.0, 9.999708, 9.999816 
1.0150198e+3, 1.9488308e+2, -1127449.4, -1099393.3, 91785.61, -0.061399683, -0.08491245, -1020569.9, 9570.913, 0.0, 9.999393, 9.999774 
1.01501904e+3, 2.0488347e+2, -1037276.5, -1088308.5, 91302.68, -0.03798773, 0.018842867, -967991.44, -35852.242, 0.0, 9.999678, 9.99905 
1.0150189e+3, 2.1488316e+2, -824931.75, -942460.75, 68670.805, -0.00041961885, 0.055426948, -793314.0, 40831.684, 0.0, 10.000493, 9.998988 
1.015018e+3, 2.2488278e+2, -735105.94, -784753.0, -1507.8057, 0.044917013, 0.09764179, -735060.2, 1091.9359, 0.0, 10.000187, 9.999536 
1.0150166e+3, 2.3488195e+2, -835690.94, -785720.44, 36613.473, 0.09413981, 0.030167252, -766379.5, -128217.664, 0.0, 9.998836, 9.999505 
1.0150155e+3, 2.4488176e+2, -698273.4, -617226.5, 99505.91, 0.09621448, 0.043194167, -550308.9, -10145.754, 0.0, 9.998874, 9.999979 
1.0150146e+3, 2.548819e+2, -383697.13, -415161.88, 133445.0, 0.041040882, 0.026925884, -265060.3, 177098.6, 0.0, 10.000368, 9.999968 
1.0150125e+3, 2.6488152e+2, -352477.72, -493531.38, 374.6339, 0.0112870615, 0.066356465, -352476.72, -8313.836, 0.000000011022683, 10.000538, 9.998673 
1.01500906e+3, 2.7488038e+2, -453593.9, -496832.25, -13691.322, -0.0010287628, 0.053199027, -449623.22, -203444.53, 0.0000031084232, 9.999185, 9.9986315 
1.0150079e+3, 2.8487942e+2, -348205.97, -313914.94, 71114.09, 0.04171938, 0.063377224, -257908.67, -109718.78, 0.000035475467, 9.99889, 9.99935 
1.0150089e+3, 2.948784e+2, -158984.2, -180308.95, 71003.55, 0.13587885, -0.014430511, -97846.914, -47647.727, 0.00015874387, 9.9995365, 9.999283 
1.0150065e+3, 3.0487844e+2, -8405.386, 49102.813, -46202.46, 0.029338859, 0.016814578, 74768.06, 74768.06, 0.00042931808, 9.999677, 10.00048 
1.0150016e+3, 3.1488156e+2, -120034.16, 48251.094, 9011.868, -0.18066157, 0.24210487, 48732.316, 48732.316, 0.00084597495, 9.998613, 10.000984 
1.02502614e+3, 1.2488417e+2, -1985147.9, -1853238.6, -81716.9, 0.069137394, -0.1437669, -1814180.6, -98049.484, 0.00022439056, 9.998102, 9.99995 
1.02502346e+3, 1.348852e+2, -1759518.0, -1708155.6, 7027.076, -0.14060165, -0.052311245, -1707211.5, -89086.97, 0.0000828242, 9.999108, 9.999789 
1.0250235e+3, 1.448855e+2, -1567402.5, -1512018.6, 24053.875, -0.031838607, -0.01589473, -1503030.4, 17091.854, 0.000012107546, 9.999487, 10.000267 
1.02502406e+3, 1.5488629e+2, -1471351.3, -1420111.4, -26235.732, 0.11173122, -0.0016361333, -1409061.3, 13050.457, 0.00000009714164, 9.999507, 10.000215 
1.02502346e+3, 1.6488598e+2, -1416223.1, -1385311.4, 10762.568, 0.11251245, -0.02792742, -1381933.4, -57821.41, 0.0, 9.999415, 9.999814 
1.0250218e+3, 1.7488433e+2, -1329998.1, -1294360.6, 19972.184, -0.019793386, -0.2030118, -1285413.8, -59288.516, 0.0, 9.999349, 9.999797 
1.0250206e+3, 1.8488404e+2, -1186437.9, -1180776.0, 12599.908, -0.05962438, -0.20478852, -1170692.9, -42565.414, 0.0, 9.999649, 9.999774 
1.0250199e+3, 1.948848e+2, -1005193.7, -1046744.06, -10670.508, -0.023116423, -0.13490698, -1002613.6, 27507.965, 0.0, 10.000245, 9.999735 
1.0250194e+3, 2.0488535e+2, -953352.75, -1019121.06, 42752.047, 0.011072077, -0.026664132, -932300.75, -182.00154, 0.0, 10.000146, 9.999302 
1.02501914e+3, 2.1488531e+2, -979133.56, -989120.44, 75351.35, 0.04904743, 0.015075552, -908610.4, -74487.99, 0.0, 9.999333, 9.999228 
1.0250182e+3, 2.2488518e+2, -862044.0, -838384.4, 47203.453, 0.09215751, 0.06612113, -801550.94, -65424.34, 0.0, 9.999279, 9.999605 
1.0250162e+3, 2.348846e+2, -675362.75, -703885.94, 15871.914, 0.13215606, 0.01907608, -668286.4, -30151.758, 0.0, 9.999917, 9.99955 
1.0250151e+3, 2.448847e+2, -566117.2, -554767.4, 90774.29, 0.13590716, 0.06143181, -469490.78, 70643.52, 0.0, 9.999807, 9.999941 
1.0250147e+3, 2.5488517e+2, -605759.5, -529908.2, 53994.14, 0.09617806, 0.08368212, -501851.13, -59722.14, 0.0, 9.998881, 9.999891 
1.0250128e+3, 2.6488474e+2, -548946.0, -595928.6, -44842.785, 0.06088887, 0.122494504, -521814.0, -177679.81, 0.00000001218603, 9.999221, 9.998608 
1.0250094e+3, 2.748831e+2, -214866.25, -385221.3, -37330.36, 0.041406356, 0.066035084, -207045.03, 39108.273, 0.0000027111198, 10.000848, 9.998595 
1.0250078e+3, 2.8488183e+2, -48183.223, -207838.92, 100077.82, 0.05209414, 0.06556394, 4.766466, 148171.89, 0.00003356842, 10.001108, 9.99902 
1.02500804e+3, 2.9488066e+2, -141618.55, -211770.39, 81007.98, 0.09559849, 0.008995279, -88418.695, -38239.69, 0.00015737157, 9.999814, 9.998946 
1.0250057e+3, 3.0488086e+2, -27607.555, 17889.252, -38759.52, 0.0025224816, 0.081769094, 40082.92, 40082.92, 0.00043278775, 9.999672, 10.000247 
1.0250017e+3, 3.148835e+2, 131528.9, 138308.39, -165437.33, -0.10768341, 0.2826534, 300390.72, 300390.72, 0.00085734465, 10.000481, 10.000692 
1.03502356e+3, 1.24888085e+2, -1861914.0, -1608407.4, -108836.86, -0.067115486, 0.29332596, -1568092.3, 148016.89, 0.00027553758, 9.998146, 10.001608 
1.0350237e+3, 1.3488762e+2, -1652466.0, -1485570.9, 51769.19, -0.0596095, 0.07504596, -1470816.9, 147287.16, 0.000106410545, 9.999103, 10.00132 
1.0350241e+3, 1.4488664e+2, -1634191.1, -1650940.6, 3504.0393, 0.023318192, -0.04146507, -1633487.6, -113378.01, 0.000017580353, 9.999491, 9.999311 
1.0350232e+3, 1.5488602e+2, -1536129.9, -1558137.8, -11501.297, 0.038355213, -0.07229117, -1531216.4, -109098.32, 0.00000023822265, 9.9995165, 9.999266 
1.035022e+3, 1.6488628e+2, -1374264.1, -1285152.8, -11905.909, -0.015797162, -0.030084398, -1283589.4, 40525.207, 0.0, 9.999367, 10.000523 
1.03502065e+3, 1.7488724e+2, -1287468.8, -1194557.1, 30946.51, -0.10890352, -0.018519098, -1185193.3, 40907.91, 0.0, 9.9993, 10.000505 
1.0350203e+3, 1.8488723e+2, -1217907.0, -1226117.8, 16713.186, -0.09321195, -0.012170019, -1204802.4, -76702.836, 0.0, 9.999565, 9.999503 
1.035021e+3, 1.948859e+2, -1041141.8, -1097247.4, 22499.889, 0.031542867, -0.12778625, -1033233.44, -3119.5095, 0.0, 10.000138, 9.999441 
1.0350203e+3, 2.0488587e+2, -887576.9, -840617.9, -4137.7935, 0.058483567, -0.1248881, -840256.06, 91857.586, 0.0, 9.999963, 10.000615 
1.0350182e+3, 2.1488684e+2, -903177.7, -801082.5, 60701.285, -0.005700613, -0.11919666, -772817.44, 61284.594, 0.0, 9.999192, 10.000588 
1.0350167e+3, 2.2488728e+2, -921577.1, -916637.5, 55752.008, -0.0030037402, -0.056527432, -863300.6, -127201.96, 0.0, 9.999089, 9.999158 
1.0350157e+3, 2.3488694e+2, -734897.3, -782896.94, 54543.64, 0.067554064, -0.033266675, -699306.9, -61200.49, 0.0, 9.999727, 9.999096 
1.0350149e+3, 2.4488692e+2, -640568.56, -662126.25, 45408.453, 0.10367194, 0.05064564, -604677.2, -64566.063, 0.0, 9.999607, 9.9993 
1.035014e+3, 2.5488693e+2, -672497.6, -630077.3, 37247.242, 0.10901659, 0.08698632, -608424.6, -166309.08, 0.0, 9.998721, 9.999278 
1.0350128e+3, 2.6488665e+2, -520026.53, -508187.6, 551.773, 0.114833005, 0.14032145, -508161.9, -164042.16, 0.00000000560088, 9.999104, 9.999266 
1.0350113e+3, 2.7488568e+2, -190001.77, -299005.6, 42209.098, 0.1176513, 0.08629623, -175568.44, 70559.75, 0.0000022721786, 10.00071, 9.999249 
1.035009e+3, 2.84885e+2, -68357.22, -225920.31, 39161.063, 0.028956868, 0.11270243, -59160.81, 88973.75, 0.000031172072, 10.001008, 9.998941 
1.0350056e+3, 2.9488447e+2, -168151.25, -232791.84, 56237.965, -0.16682613, 0.13035324, -135607.77, -85468.0, 0.00015322318, 9.999676, 9.998865 
1.03500366e+3, 3.0488333e+2, -178290.55, -274531.34, -17177.783, -0.2065045, 0.16966276, -175316.42, -175316.42, 0.00043103905, 9.999587, 9.998278 
1.0350035e+3, 3.1488204e+2, -36879.082, -150887.1, -85165.77, -0.044586755, 0.17427799, 8599.425, 8599.425, 0.0008619147, 10.000252, 9.998802 
1.0450227e+3, 1.2488963e+2, -1743418.9, -1568640.1, 54519.48, 0.0020252909, 0.33377543, -1553028.1, 163067.2, 0.0003338259, 9.999008, 10.0014715 
1.0450234e+3, 1.3488878e+2, -1597830.0, -1478643.6, 53522.44, 0.0033287788, 0.093893416, -1458136.9, 159957.02, 0.00013404706, 9.999536, 10.001159 
1.04502365e+3, 1.448878e+2, -1631160.6, -1648201.3, -10179.391, 0.049144246, -0.01722898, -1626406.3, -106306.14, 0.000024406929, 9.99952, 9.999308 
1.0450228e+3, 1.5488721e+2, -1569306.0, -1568171.4, 7429.8843, 0.075871214, -0.04483686, -1561287.1, -139178.03, 0.0000004785213, 9.999286, 9.999297 
1.0450215e+3, 1.648877e+2, -1389074.0, -1286927.8, 57329.05, 0.023993269, 0.015306189, -1261221.4, 62883.06, 0.0, 9.999228, 10.000594 
1.04502e+3, 1.7488904e+2, -1265427.8, -1176406.5, 23752.998, -0.08811989, 0.059443895, -1170465.1, 55622.83, 0.0, 9.999408, 10.000589 
1.0450199e+3, 1.8488929e+2, -1243461.4, -1207125.4, 35120.496, -0.06364691, 0.07116922, -1185751.9, -57668.168, 0.0, 9.999271, 9.999768 
1.045021e+3, 1.9488801e+2, -1211303.6, -1147322.3, 47348.848, 0.09971222, -0.06037748, -1122170.0, -92074.29, 0.0, 9.998845, 9.999713 
1.0450203e+3, 2.0488779e+2, -1042164.56, -925064.3, 13479.458, 0.12125678, -0.08729242, -923532.75, 8563.943, 0.0, 9.998945, 10.00052 
1.0450175e+3, 2.1488829e+2, -865305.06, -789292.44, -60704.54, -0.0018360747, -0.12018025, -755678.06, 78411.82, 0.0, 9.999497, 10.000511 
1.0450159e+3, 2.2488876e+2, -790476.5, -807630.06, -48461.08, -0.021982502, -0.07139712, -749839.06, -13753.87, 0.0, 9.999779, 9.999582 
1.0450154e+3, 2.3488888e+2, -700370.2, -721625.3, -14242.706, 0.061891284, -0.043456834, -693227.0, -55140.863, 0.0, 9.999751, 9.9995165 
1.0450146e+3, 2.4488895e+2, -633834.25, -685764.2, 30148.45, 0.11801757, 0.039593585, -620010.94, -79921.125, 0.0, 9.999752, 9.999081 
1.0450135e+3, 2.5488868e+2, -534020.6, -587953.8, 22104.219, 0.15264556, 0.07157185, -526119.0, -84020.01, 0.0, 9.999771, 9.999066 
1.04501285e+3, 2.648884e+2, -367410.9, -395414.72, 68976.4, 0.17203932, 0.117113404, -311029.6, 33073.316, 0.0000000009945924, 9.999976, 9.99963 
1.0450123e+3, 2.748876e+2, -225924.44, -280630.03, 57754.16, 0.17559303, 0.046681702, -189373.25, 56733.43, 0.0000020282196, 10.000276, 9.999602 
1.0450102e+3, 2.84887e+2, -141521.98, -295404.16, 16061.199, 0.06167215, 0.07736617, -139863.5, 8248.347, 0.00002862313, 10.000649, 9.998639 
1.04500584e+3, 2.9488647e+2, 11399.148, -173658.78, -21738.314, -0.1669967, 0.123855785, 13918.401, 64037.36, 0.00014660136, 10.001035, 9.998612 
1.04500405e+3, 3.0488512e+2, -6010.7354, -245055.44, 6999.112, -0.18315272, 0.17632088, -5805.98, -5805.98, 0.00042212423, 10.000981, 9.997814 
1.0450047e+3, 3.1488273e+2, -83256.5, -227288.47, 407.63525, 0.07468332, 0.1211932, -83255.35, -83255.35, 0.0008537748, 10.000097, 9.99838 
1.05502255e+3, 1.2488867e+2, -1868648.8, -1821887.5, 20684.814, 0.009719361, -0.04865444, -1814051.0, -97959.81, 0.00039971265, 9.998996, 9.999729 
1.0550225e+3, 1.3488886e+2, -1729200.3, -1743598.1, 86936.81, -0.08649215, -0.0027312187, -1649164.9, -31071.75, 0.00016604259, 9.999512, 9.999351 
1.0550221e+3, 1.4488918e+2, -1571001.3, -1520942.4, -40310.63, -0.10830977, 0.06392562, -1498522.6, 21569.162, 0.000032768716, 9.999506, 10.000188 
1.0550227e+3, 1.5488996e+2, -1510311.6, -1443995.0, 11594.314, 0.096795246, 0.08014265, -1442026.4, -19942.098, 0.0000008393984, 9.999269, 10.000163 
1.0550219e+3, 1.6489029e+2, -1430609.4, -1364588.4, 47585.32, 0.095296204, 0.11007397, -1339684.8, -15604.065, 0.0, 9.999191, 10.000074 
1.0550198e+3, 1.7488986e+2, -1305772.6, -1256232.3, 43947.81, -0.08746997, 0.027751321, -1230554.8, -4470.263, 0.0, 9.999388, 10.00005 
1.05501905e+3, 1.8489026e+2, -1205751.4, -1105182.3, 1504.595, -0.10264204, 0.04596968, -1105159.8, 22919.158, 0.0, 9.99917, 10.000517 
1.05501965e+3, 1.9489121e+2, -1171394.4, -1043418.1, 46405.418, 0.05543539, 0.057521656, -1028362.3, 1704.1322, 0.0, 9.998747, 10.000477 
1.0550189e+3, 2.0489118e+2, -1171927.8, -1158705.8, 16503.191, 0.07654399, 0.08655151, -1147538.6, -215471.47, 0.0, 9.998791, 9.998993 
1.05501674e+3, 2.1488972e+2, -1000762.7, -1032567.44, -26514.51, -0.04766543, 0.012980254, -985747.4, -151661.88, 0.0, 9.999324, 9.998931 
1.05501525e+3, 2.2488958e+2, -736066.6, -643976.6, -62146.523, -0.07854704, 0.019761844, -612676.06, 123410.56, 0.0, 9.999565, 10.000803 
1.05501465e+3, 2.3489045e+2, -636231.25, -546618.44, 94.754105, -0.0061541637, -0.008036202, -546618.3, 91455.23, 0.0, 9.999574, 10.0008 
1.0550139e+3, 2.4489087e+2, -646795.0, -671880.06, 15546.485, 0.052115723, 0.037808765, -639362.4, -99292.79, 0.0, 9.999579, 9.999257 
1.0550131e+3, 2.5489053e+2, -545421.7, -575785.6, 35765.395, 0.09688234, 0.045592323, -521749.38, -79670.98, 0.0, 9.999618, 9.999222 
1.0550124e+3, 2.6489002e+2, -385616.97, -399152.7, 66614.94, 0.1099085, 0.055618435, -325426.97, 18656.46, 0.000000000012280949, 9.999835, 9.999666 
1.0550121e+3, 2.7488893e+2, -242433.7, -282543.97, 89161.24, 0.08580801, -0.04845193, -171099.9, 74987.68, 0.0000016155456, 10.00014, 9.999649 
1.0550107e+3, 2.84888e+2, -194662.84, -378985.38, 17154.482, 0.029490199, -0.026769262, -193079.9, -44982.93, 0.000025306648, 10.000538, 9.99812 
1.0550084e+3, 2.9488677e+2, -45999.336, -264454.63, 17266.432, -0.059017807, 0.0018491793, -44643.04, 5472.2803, 0.00013793015, 10.0009165, 9.99805 
1.0550064e+3, 3.048862e+2, 60066.797, -90757.02, -31087.924, -0.08164969, 0.10608394, 66223.35, 66223.35, 0.00040720604, 10.000901, 9.998913 
1.0550045e+3, 3.1488582e+2, -37425.785, -84146.64, 21332.955, -0.033874482, 0.1417758, -29150.719, -29150.719, 0.00083313056, 9.999894, 9.999462 
1.0650218e+3, 1.24889165e+2, -1775332.0, -1790454.9, -11866.685, 0.023153914, -0.1889949, -1768822.4, -52740.887, 0.00047318285, 9.999712, 9.999605 
1.0650228e+3, 1.3489057e+2, -1804030.4, -1785346.4, 118370.16, 0.03872293, -0.009632704, -1675950.1, -57874.902, 0.00020250746, 9.999046, 9.999289 
1.06502175e+3, 1.448916e+2, -1647961.0, -1523454.1, 83870.88, -0.05192016, 0.11751453, -1481257.5, 38810.42, 0.000042863663, 9.998814, 10.000519 
1.06502175e+3, 1.5489219e+2, -1466766.4, -1380698.4, 56015.684, 0.08462907, 0.08176001, -1353094.8, 68965.73, 0.0000013547858, 9.999386, 10.000541 
1.06502086e+3, 1.6489232e+2, -1419857.9, -1402848.0, 104150.875, 0.07747716, 0.08754524, -1306855.4, 17203.842, 0.0, 9.999446, 9.999693 
1.0650193e+3, 1.748916e+2, -1395940.0, -1342573.3, 77644.73, -0.04072432, 0.019626983, -1287154.8, -61086.934, 0.0, 9.998952, 9.999673 
1.0650187e+3, 1.8489197e+2, -1241282.3, -1117909.4, 54606.934, -0.037201475, 0.05098679, -1097211.8, 30851.834, 0.0, 9.998893, 10.000567 
1.0650189e+3, 1.9489315e+2, -1079682.3, -992851.75, 16248.631, 0.083468884, 0.080715545, -989910.75, 40138.14, 0.0, 9.999339, 10.000542 
1.0650182e+3, 2.0489322e+2, -1055201.1, -1085041.8, 57307.008, 0.088, 0.10796828, -1010904.0, -78856.05, 0.0, 9.999523, 9.99914 
1.0650164e+3, 2.148918e+2, -969855.8, -997925.4, 108543.49, -0.02289575, 0.02327703, -874443.5, -40379.215, 0.0, 9.999462, 9.999094 
1.0650151e+3, 2.2489159e+2, -767426.0, -675905.2, 109175.945, -0.033595543, 0.022255255, -603287.4, 132778.53, 0.0, 9.9994135, 10.000659 
1.06501475e+3, 2.3489234e+2, -679492.4, -578530.4, 38750.598, 0.070787825, -0.0034879514, -565372.25, 72683.08, 0.0, 9.999332, 10.000689 
1.065014e+3, 2.4489275e+2, -649295.3, -653327.56, 34548.047, 0.11813282, 0.03562664, -616704.6, -76653.49, 0.0, 9.999477, 9.9994335 
1.0650128e+3, 2.548924e+2, -503292.34, -540507.25, 24951.424, 0.10048121, 0.03036828, -490774.06, -48716.49, 0.0, 9.999834, 9.999369 
1.0650121e+3, 2.6489174e+2, -347920.7, -390451.03, 81098.03, 0.089854516, 0.025484692, -285346.13, 58716.977, 0.0, 10.000121, 9.999588 
1.0650122e+3, 2.7489057e+2, -241272.94, -285104.06, 55038.387, 0.09725236, -0.08619926, -203947.33, 42122.32, 0.00000091217555, 10.000171, 9.999612 
1.0650115e+3, 2.8488967e+2, -225663.34, -385119.78, 38477.17, 0.07006485, -0.06324505, -216864.27, -68785.38, 0.000020761427, 10.000273, 9.998212 
1.0650096e+3, 2.9488853e+2, -108458.875, -286828.84, 53165.047, 0.012793881, -0.03164464, -93814.75, -43718.9, 0.00012637535, 10.0004225, 9.998142 
1.0650077e+3, 3.048881e+2, 57900.844, -41130.09, 18336.629, -0.0107622305, 0.058247812, 61187.02, 61187.02, 0.00038601994, 10.000679, 9.999346 
1.06500536e+3, 3.148876e+2, 132517.83, 66683.48, -35283.215, 0.03913798, 0.030268386, 147854.63, 147854.63, 0.0008001297, 10.000789, 10.000038 
1.0750201e+3, 1.2489083e+2, -1679490.5, -1577476.8, -46655.43, -0.19657508, -0.1172036, -1559357.4, 156711.9, 0.00055371417, 9.999677, 10.001071 
1.07502416e+3, 1.3489392e+2, -1701274.0, -1562223.5, 99553.94, 0.23435463, 0.07548451, -1510320.9, 107719.516, 0.00024334127, 9.999014, 10.00083 
1.0750221e+3, 1.4489508e+2, -1658229.1, -1547347.1, 80537.95, 0.06530269, 0.14458068, -1505012.5, 15016.235, 0.00005483326, 9.998812, 10.0003605 
1.0750197e+3, 1.5489396e+2, -1476506.4, -1404700.8, 91825.85, -0.09596199, -0.04668371, -1342008.5, 80029.35, 0.000002073113, 9.9993925, 10.000379 
1.07501835e+3, 1.648938e+2, -1445296.3, -1440775.5, 67219.43, -0.15328863, -0.048517093, -1375778.4, -51738.527, 0.0000000000166348, 9.9993925, 9.999453 
1.0750184e+3, 1.7489429e+2, -1419351.9, -1379406.9, 73677.88, -0.060497276, 0.02433928, -1323042.4, -97004.55, 0.0, 9.998903, 9.99944 
1.07501835e+3, 1.8489446e+2, -1302797.9, -1220360.1, 55158.72, 0.011253068, 0.08156307, -1192720.5, -64683.137, 0.0, 9.998793, 9.999909 
1.07501835e+3, 1.9489391e+2, -1144858.5, -1094816.0, 46703.004, 0.056358654, 0.0018950338, -1066854.0, -36811.37, 0.0, 9.999204, 9.999904 
1.07501745e+3, 2.0489396e+2, -956510.8, -843508.56, 36280.645, 0.037127376, -0.023562793, -832863.1, 99175.4, 0.0, 9.999361, 10.00088 
1.07501574e+3, 2.1489441e+2, -869210.1, -748012.44, 120130.39, -0.050093457, -0.10116163, -674061.94, 159965.6, 0.0, 9.999281, 10.000901 
1.07501514e+3, 2.2489475e+2, -899606.94, -899292.0, 92194.1, -0.0039462224, -0.06793643, -807255.25, -71231.49, 0.0, 9.999198, 9.9992285 
1.0750155e+3, 2.3489463e+2, -813498.1, -808028.56, 53580.113, 0.17752253, -0.032958593, -757113.44, -119082.67, 0.0, 9.999124, 9.999215 
1.07501455e+3, 2.4489456e+2, -675746.4, -656917.75, 35899.66, 0.19628371, 0.029950721, -629218.56, -89184.21, 0.0, 9.999267, 9.999503 
1.0750123e+3, 2.5489417e+2, -514617.6, -530487.4, 56423.58, 0.043943316, 0.006940366, -465573.7, -23536.17, 0.0, 9.999693, 9.9995 
1.0750116e+3, 2.648936e+2, -390655.03, -438856.5, 68659.85, 0.0019578491, 0.012714756, -341988.84, 2053.694, 0.000000000031670343, 9.999955, 9.999336 
1.07501246e+3, 2.7489242e+2, -281436.2, -337351.13, 77547.5, 0.07053461, -0.07100331, -226960.44, 19092.598, 0.00000057346807, 10.000038, 9.99932 
1.0750117e+3, 2.8489196e+2, -183907.63, -277797.8, 28531.486, 0.041705206, -0.023117628, -175917.42, -27859.86, 0.000016841232, 10.000186, 9.998986 
1.07500955e+3, 2.9489195e+2, -70276.2, -176026.78, 82220.42, -0.089677595, 0.037804227, -25396.73, 24661.844, 0.000114238224, 10.00029, 9.998965 
1.07500784e+3, 3.0489093e+2, 22946.547, -97383.27, 19061.17, -0.09952425, 0.0436714, 25893.795, 25893.795, 0.0003625103, 10.000607, 9.998998 
1.0750066e+3, 3.1488788e+2, 85601.85, 1237.9366, 28560.633, 0.0025921876, -0.20890285, 94361.305, 94361.305, 0.00076317973, 10.000645, 9.999667 
1.08502e+3, 1.24893054e+2, -1663467.1, -1588109.3, 46373.43, -0.16786256, -0.02361276, -1566037.0, 150012.94, 0.00064071716, 9.999817, 10.000951 
1.0850233e+3, 1.3489507e+2, -1655613.3, -1544189.1, -29913.514, 0.25203606, 0.06395813, -1536666.3, 81363.33, 0.00028839763, 9.999319, 10.0008135 
1.0850206e+3, 1.4489591e+2, -1632080.9, -1521874.3, -18782.957, 0.035925955, 0.09647297, -1518761.0, 1259.5509, 0.00006873226, 9.998979, 10.00043 
1.085019e+3, 1.5489541e+2, -1501616.1, -1409578.6, -32781.918, -0.07971491, -0.037041392, -1399096.1, 22927.988, 0.0000030594845, 9.99921, 10.000422 
1.0850181e+3, 1.6489556e+2, -1426434.1, -1387547.4, -17915.012, -0.10759911, -0.030016141, -1380552.3, -56529.984, 0.000000000186287, 9.999318, 9.99986 
1.08501785e+3, 1.7489614e+2, -1325447.0, -1288947.0, 3809.5222, -0.019293787, 0.0077919313, -1288553.6, -62536.453, 0.0, 9.999348, 9.999847 
1.0850177e+3, 1.8489613e+2, -1239236.5, -1214822.1, 72662.8, 0.047568176, 0.038805783, -1153348.3, -25330.588, 0.0, 9.999335, 9.999694 
1.0850177e+3, 1.9489522e+2, -1162138.5, -1127200.9, 65742.86, 0.087714806, -0.05168159, -1076645.6, -46618.402, 0.0, 9.999203, 9.999681 
1.08501695e+3, 2.0489535e+2, -955281.9, -809249.56, 45928.406, 0.06972425, -0.07506944, -796005.75, 136016.73, 0.0, 9.999238, 10.001165 
1.0850154e+3, 2.1489613e+2, -823817.7, -697101.06, -18673.25, -0.011698462, -0.14496921, -694406.6, 139600.19, 0.0, 9.999476, 10.001152 
1.0850148e+3, 2.2489667e+2, -858640.06, -907071.1, -37271.848, 0.029418804, -0.09187949, -838408.06, -102406.62, 0.0, 9.999603, 9.998984 
1.085015e+3, 2.3489662e+2, -760472.44, -812169.2, -21986.555, 0.19793667, -0.023138877, -752386.3, -114376.555, 0.0, 9.999616, 9.998957 
1.0850142e+3, 2.4489626e+2, -566088.94, -615196.5, 55467.977, 0.20330681, 0.02877063, -529983.1, 10032.856, 0.0, 10.000034, 9.999445 
1.0850125e+3, 2.548953e+2, -368091.5, -466948.13, 36558.145, 0.044288956, -0.04479592, -356040.9, 85982.08, 0.0, 10.000715, 9.999461 
1.0850118e+3, 2.648947e+2, -307933.97, -430030.28, 39228.42, 0.0014591182, -0.022903854, -296416.7, 47612.51, 0.000000020287489, 10.000659, 9.999048 
1.0850123e+3, 2.7489406e+2, -324377.28, -392318.4, 8684.812, 0.07783545, -0.026117265, -323284.7, -77245.85, 0.0000009682407, 9.999882, 9.999014 
1.0850118e+3, 2.8489393e+2, -179869.13, -198545.14, 17725.896, 0.05275457, 0.034377456, -169172.02, -21131.543, 0.000016002106, 9.999894, 9.999663 
1.0850101e+3, 2.9489407e+2, 22098.861, -46456.117, 19997.053, -0.05554883, 0.040634993, 27505.479, 77541.305, 0.00010691048, 10.000578, 9.999705 
1.0850089e+3, 3.0489293e+2, 34262.08, -124993.5, -26062.975, -0.053788558, 0.013608259, 38418.914, 38418.914, 0.00034615427, 10.000841, 9.998706 
1.0850078e+3, 3.1488967e+2, 34045.98, -57702.492, -66746.16, 0.08164016, -0.21624638, 69162.45, 69162.45, 0.0007399488, 10.000466, 9.99935 
1.0950215e+3, 1.2489577e+2, -1774310.6, -1804186.0, 55997.027, -0.071497075, 0.07682484, -1731293.1, -15268.966, 0.000734217, 9.9997635, 9.999492 
1.09502e+3, 1.3489427e+2, -1755258.4, -1758308.6, -39566.813, -0.044174932, -0.043148227, -1717187.3, -99147.04, 0.00033773432, 9.99934, 9.999339 
1.09501675e+3, 1.4489417e+2, -1624991.8, -1499545.5, -31727.115, -0.2890877, -0.03664465, -1491977.9, 28064.277, 0.0000845864, 9.998952, 10.000594 
1.0950194e+3, 1.5489648e+2, -1498274.9, -1387686.4, -8457.262, 0.0013629363, 0.095149636, -1387043.4, 34976.555, 0.0000043925156, 9.999156, 10.000595 
1.09501965e+3, 1.6489765e+2, -1354958.5, -1236053.1, -35479.977, 0.08077422, 0.14156574, -1226271.0, 97735.27, 0.0000000006358386, 9.999295, 10.000915 
1.09501734e+3, 1.7489709e+2, -1250107.5, -1134305.3, 20348.38, -0.040621813, -0.038315423, -1130833.8, 95172.375, 0.0, 9.99934, 10.000918 
1.0950164e+3, 1.8489707e+2, -1235563.6, -1187711.1, 49494.266, -0.056216367, -0.075722896, -1156663.3, -28659.68, 0.0, 9.999259, 9.999911 
1.0950168e+3, 1.9489726e+2, -1165193.3, -1102847.0, 76538.38, 0.0515812, -0.07828866, -1051377.0, -21375.57, 0.0, 9.999075, 9.999907 
1.09501645e+3, 2.0489731e+2, -1064789.5, -1006300.5, 38035.31, 0.061634865, -0.056673888, -987566.6, -55566.457, 0.0, 9.999097, 9.9998865 
1.0950149e+3, 2.1489692e+2, -937782.0, -895296.6, 4764.6064, -0.0328789, -0.11611221, -894768.9, -60766.105, 0.0, 9.999304, 9.999878 
1.0950137e+3, 2.2489728e+2, -835048.94, -807060.2, -53379.4, -0.05633427, -0.05439498, -765871.2, -29871.654, 0.0, 9.999389, 9.999772 
1.0950128e+3, 2.3489805e+2, -734167.25, -708536.06, -6504.488, -0.0024184447, 0.01090061, -706979.94, -68985.59, 0.0, 9.999406, 9.999768 
1.0950124e+3, 2.4489766e+2, -603440.7, -644461.0, 65653.625, 0.0069722096, 0.024537878, -555168.1, -15170.249, 0.0, 9.999832, 9.999339 
1.0950127e+3, 2.548958e+2, -402920.4, -496664.9, 79731.86, -0.025839198, -0.12606496, -357303.88, 84709.31, 0.0, 10.000535, 9.999343 
1.0950124e+3, 2.6489523e+2, -360272.06, -497236.3, -68.92444, -0.03073812, -0.077529326, -360272.03, -16250.7, 0.00000010014453, 10.000485, 9.998669 
1.09501176e+3, 2.7489555e+2, -369296.3, -456488.34, 3010.9846, -0.01334643, 0.051298715, -369192.47, -123166.055, 0.0000018117424, 9.999757, 9.998635 
1.0950112e+3, 2.8489533e+2, -160786.11, -134031.95, 28409.807, -0.027385294, 0.1020934, -116007.38, 32021.576, 0.000017402066, 9.999789, 10.000154 
1.0950112e+3, 2.9489446e+2, 39991.824, 15551.832, 65613.58, -0.052306198, -0.04888781, 94513.65, 144544.42, 0.00010435712, 10.00047, 10.000183 
1.0950103e+3, 3.0489385e+2, -1066.7097, -175442.89, -52812.523, -0.026209652, -0.03096426, 13681.091, 13681.091, 0.00033796718, 10.000747, 9.998402 
1.0950082e+3, 3.1489298e+2, -16747.625, -132117.47, -29904.512, 0.0055641145, 0.007897688, -9456.936, -9456.936, 0.00073106954, 10.0003195, 9.998917 
1.10502206e+3, 1.2489755e+2, -1806713.0, -1833951.6, 123917.47, 0.03743681, 0.12893835, -1695668.6, 20338.63, 0.00083503575, 9.999634, 9.999315 
1.10501856e+3, 1.3489531e+2, -1689593.5, -1748722.5, -2012.714, -0.14044267, -0.04716978, -1689525.1, -71494.5, 0.0003918232, 9.999899, 9.999121 
1.1050159e+3, 1.4489472e+2, -1534074.1, -1471519.3, 80336.22, -0.30112624, -0.07710205, -1416586.5, 103450.445, 0.000102570426, 9.999603, 10.000493 
1.1050193e+3, 1.5489708e+2, -1529134.9, -1415709.3, 53567.484, 0.093784265, 0.06952989, -1394410.4, 27603.092, 0.0000061708192, 9.998966, 10.000506 
1.1050195e+3, 1.6489837e+2, -1420091.5, -1248199.6, 39007.1, 0.1833969, 0.12548631, -1239762.0, 84236.41, 0.0000000015512864, 9.998788, 10.00106 
1.1050167e+3, 1.7489813e+2, -1249948.1, -1111915.0, -11070.855, -0.021492697, -0.04014874, -1111032.6, 114963.16, 0.0, 9.999273, 10.001087 
1.10501565e+3, 1.8489824e+2, -1195364.5, -1155549.1, -6146.9575, -0.05385388, -0.0772772, -1154621.8, -26630.451, 0.0, 9.999482, 10.000023 
1.1050165e+3, 1.9489838e+2, -1110462.8, -1061884.3, -19792.719, 0.09411088, -0.09901597, -1054841.1, -24852.861, 0.0, 9.999391, 10.000032 
1.10501625e+3, 2.0489825e+2, -1039641.56, -1051309.3, 17891.21, 0.121581614, -0.07557919, -1026657.06, -94667.82, 0.0, 9.999511, 9.999382 
1.105015e+3, 2.1489757e+2, -883287.2, -926347.6, 9978.576, 0.019668961, -0.11207048, -881087.25, -47089.824, 0.0, 9.999915, 9.999373 
1.1050139e+3, 2.2489756e+2, -681314.5, -728601.94, -14538.8125, -0.022539036, -0.064122275, -677202.06, 58795.62, 0.0, 10.000421, 9.999811 
1.105013e+3, 2.3489796e+2, -496322.72, -588500.3, -53851.617, -0.00036722113, -0.041255344, -471530.1, 166463.16, 0.0, 10.001016, 9.999814 
1.1050127e+3, 2.4489748e+2, -480343.88, -601677.75, -1746.6306, 0.004971916, -0.028507935, -480318.72, 59678.395, 0.0, 10.0007715, 9.999162 
1.105013e+3, 2.548959e+2, -537645.3, -577523.7, -33209.547, -0.000079465615, -0.1372966, -518848.9, -76836.44, 0.0, 9.9997, 9.999168 
1.1050126e+3, 2.6489553e+2, -501149.3, -523276.0, -60528.113, -0.0015769425, -0.078994945, -450681.78, -106663.1, 0.00000018749917, 9.999325, 9.999062 
1.1050115e+3, 2.7489606e+2, -373090.75, -411392.97, -31847.594, 0.0057431925, 0.03569878, -355079.6, -109060.61, 0.0000025365616, 9.999531, 9.999059 
1.1050111e+3, 2.848958e+2, -203513.45, -191710.08, 54268.805, -0.0010430323, 0.07636218, -143023.0, 4999.0215, 0.000019295574, 9.99965, 9.99984 
1.1050117e+3, 2.9489458e+2, -109355.28, -93544.17, -7941.0513, 0.007519077, -0.07595708, -90244.45, -40214.53, 0.00010487227, 9.999604, 9.999861 
1.1050113e+3, 3.0489415e+2, -68281.17, -185347.92, -104505.15, 0.048497207, -0.03358784, -7033.5713, -7033.5713, 0.00033641586, 10.000145, 9.998632 
1.1050099e+3, 3.1489432e+2, 70287.23, -53994.74, -91191.56, 0.13332972, 0.07516328, 118497.516, 118497.516, 0.00073074934, 10.000759, 9.9992285 
1.11502096e+3, 1.24898806e+2, -1735160.9, -1681029.6, 123853.46, -0.10886483, 0.13581169, -1581319.0, 134676.23, 0.000944546, 9.999627, 10.000369 
1.1150186e+3, 1.3489829e+2, -1633260.9, -1630106.9, 21416.203, -0.16232212, 0.052028835, -1610209.6, 7790.2427, 0.00045159098, 9.9998865, 9.999947 
1.11501746e+3, 1.4489755e+2, -1548538.8, -1496805.0, 34378.93, -0.14905713, -0.024994608, -1479648.5, 40356.508, 0.00012308804, 9.999591, 10.000321 
1.1150183e+3, 1.5489747e+2, -1546500.9, -1449261.4, 43815.113, 0.0655389, -0.105072334, -1432431.5, -10429.368, 0.000008505592, 9.99896, 10.000279 
1.1150176e+3, 1.6489801e+2, -1479683.4, -1369758.6, 36044.87, 0.066846855, -0.068060726, -1358993.5, -34997.535, 0.0000000033697685, 9.998768, 10.000244 
1.1150156e+3, 1.7489924e+2, -1308469.4, -1232093.4, 20793.924, -0.087925844, -0.0028003338, -1226799.0, -812.9122, 0.0, 9.99925, 10.000286 
1.11501515e+3, 1.848996e+2, -1203750.1, -1158093.6, -26450.098, -0.07836825, 0.02420707, -1145982.9, -18001.086, 0.0, 9.999418, 10.000036 
1.115016e+3, 1.9489865e+2, -1129003.8, -1071460.4, -10077.754, 0.08455962, -0.10634265, -1069746.5, -39759.496, 0.0, 9.9992695, 10.000026 
1.115016e+3, 2.0489825e+2, -1041732.5, -1023258.44, 11289.913, 0.11832769, -0.12200887, -1017908.3, -85919.414, 0.0, 9.999371, 9.999639 
1.11501515e+3, 2.1489802e+2, -896458.4, -906287.0, 39589.29, 0.020749992, -0.14243206, -861479.56, -27488.238, 0.0, 9.999711, 9.999609 
1.1150148e+3, 2.2489753e+2, -756932.9, -837618.44, -6993.4346, 0.0042147725, -0.122156315, -756331.2, -20335.412, 0.0, 10.000221, 9.999156 
1.115015e+3, 2.3489651e+2, -572932.75, -698751.2, -15777.567, 0.08344604, -0.17215756, -570984.44, 67020.5, 0.0, 10.00081, 9.999157 
1.1150144e+3, 2.448959e+2, -532166.1, -667061.56, -55009.652, 0.075563364, -0.12558621, -512577.9, 27434.768, 0.0, 10.000587, 9.998801 
1.11501284e+3, 2.548954e+2, -587646.7, -645516.5, -55703.156, -0.01889931, -0.09231429, -553811.6, -111789.35, 0.0, 9.999541, 9.998779 
1.1150117e+3, 2.6489538e+2, -441045.3, -364177.47, -68716.83, -0.049599953, -0.032513313, -323876.6, 20146.234, 0.00000020790911, 9.99918, 10.000219 
1.1150111e+3, 2.7489558e+2, -306989.84, -244576.67, -4188.333, -0.012665403, -0.07542197, -244296.88, 1720.7366, 0.0000030041283, 9.999402, 10.000263 
1.115011e+3, 2.8489542e+2, -304616.53, -365912.7, 38706.766, -0.0011280027, -0.03321755, -285893.38, -137874.27, 0.000021785861, 9.999506, 9.998708 
1.11501135e+3, 2.9489446e+2, -210154.88, -273441.06, 18458.938, -0.027331466, -0.03715329, -205164.4, -155132.63, 0.00010887074, 9.99948, 9.998684 
1.1150117e+3, 3.048938e+2, -33324.934, -88552.37, -88074.5, 0.039058544, 0.00541172, 31363.215, 31363.215, 0.00034133886, 10.000047, 9.999341 
1.1150119e+3, 3.148933e+2, 95309.93, 36386.535, -6989.761, 0.17490412, -0.026501747, 96127.74, 96127.74, 0.0007374856, 10.000593, 9.999931 
1.1250211e+3, 1.2489883e+2, -1843142.5, -1703175.6, 124673.31, -0.0020559751, 0.064249024, -1630186.6, 85807.625, 0.0010643419, 9.998746, 10.000662 
1.1250183e+3, 1.3489959e+2, -1742206.4, -1656810.4, -68017.06, -0.12784988, 0.08908615, -1619200.0, -1212.0697, 0.00051804923, 9.999027, 10.000185 
1.1250183e+3, 1.4489928e+2, -1587585.0, -1512406.4, -31268.102, 0.007219469, 0.041023657, -1501101.4, 18887.264, 0.00014661087, 9.999322, 10.000337 
1.1250171e+3, 1.5489827e+2, -1405164.9, -1375189.9, -46717.5, 0.009533857, -0.13559914, -1341114.8, 80877.95, 0.00001150662, 9.999927, 10.000309 
1.125016e+3, 1.6489841e+2, -1358176.5, -1379314.3, 93.7879, -0.019413795, -0.110503934, -1358176.1, -34185.01, 0.0000000061074554, 9.999892, 9.999639 
1.1250154e+3, 1.7489967e+2, -1344455.1, -1313270.4, -31131.215, -0.0361717, 0.018140363, -1294045.0, -68060.44, 0.0, 9.999289, 9.999705 
1.12501524e+3, 1.8490016e+2, -1206283.9, -1141210.6, -19389.998, 0.0054433863, 0.077152245, -1135871.0, -7891.0806, 0.0, 9.999317, 10.000203 
1.1250156e+3, 1.9489934e+2, -1000669.0, -996833.25, -20755.123, 0.08900722, -0.057136133, -977907.56, 52074.58, 0.0, 10.000061, 10.000171 
1.1250156e+3, 2.0489891e+2, -923487.75, -975644.5, 16662.205, 0.10043402, -0.07854076, -918619.25, 13364.552, 0.0, 10.000242, 9.999539 
1.1250152e+3, 2.1489848e+2, -863036.3, -895415.25, -19117.297, 0.04458182, -0.107505344, -854174.44, -20185.902, 0.0, 9.999981, 9.999544 
1.12501524e+3, 2.2489786e+2, -793709.94, -854835.9, -9622.363, 0.046553385, -0.09919323, -792231.0, -56236.785, 0.0, 9.999948, 9.999181 
1.12501584e+3, 2.3489682e+2, -649337.06, -731268.06, 2167.2024, 0.11654358, -0.15251108, -649279.8, -11276.957, 0.0, 10.000251, 9.999206 
1.125015e+3, 2.4489623e+2, -567888.8, -691079.75, -6544.065, 0.09835953, -0.102648534, -567542.2, -27531.814, 0.0, 10.000381, 9.998737 
1.1250128e+3, 2.5489584e+2, -473382.72, -599425.25, -14660.099, -0.0073295566, -0.04598114, -471700.06, -29680.525, 0.0, 10.000375, 9.998702 
1.1250116e+3, 2.648956e+2, -277235.0, -280333.06, -5518.2285, -0.022370223, -0.007377193, -273052.5, 70968.95, 0.00000016860811, 10.000296, 10.000256 
1.12501144e+3, 2.7489513e+2, -194538.4, -186927.48, -68313.09, 0.06054079, -0.11801211, -122313.94, 123705.9, 0.0000038179373, 10.000171, 10.000283 
1.1250114e+3, 2.8489473e+2, -209497.61, -359028.16, -4058.865, 0.057931565, -0.08348005, -209387.52, -61364.32, 0.000026510976, 10.000313, 9.998364 
1.1250112e+3, 2.948941e+2, -76640.78, -242384.75, -1861.9225, -0.031787757, -0.02697862, -76619.87, -26584.941, 0.00011807009, 10.000542, 9.998376 
1.1250118e+3, 3.048932e+2, 53518.3, -41176.54, -59930.496, 0.027201729, 0.0049126553, 82547.86, 82547.86, 0.0003550206, 10.000652, 9.999373 
1.1250129e+3, 3.148923e+2, 55206.87, 11255.668, -87736.766, 0.25611538, -0.056010682, 123678.31, 123678.31, 0.0007557831, 10.0003395, 9.999897 
1.1350199e+3, 1.2489744e+2, -1879242.4, -1769765.5, 29579.285, -0.07431038, -0.10423759, -1762284.6, -46278.605, 0.0011953667, 9.998733, 10.0002 
1.135017e+3, 1.3489927e+2, -1766362.9, -1696402.6, -45662.926, -0.19390629, 0.054978494, -1673861.4, -55867.195, 0.00059164723, 9.998996, 9.999923 
1.1350181e+3, 1.4490014e+2, -1569308.8, -1474720.6, -27436.156, 0.0095607815, 0.12385395, -1467338.6, 52646.836, 0.00017336896, 9.999321, 10.000601 
1.1350153e+3, 1.5489972e+2, -1388093.9, -1339377.3, -5531.373, -0.19999078, -0.016172636, -1338757.1, 83225.68, 0.000015247707, 9.999919, 10.000564 
1.13501415e+3, 1.6489966e+2, -1388465.3, -1437888.3, -40332.688, -0.22129615, -0.0060105496, -1365875.8, -41892.91, 0.000000009421829, 9.999874, 9.999244 
1.1350154e+3, 1.7489956e+2, -1376980.3, -1378672.4, -41157.668, -0.0011624838, 0.026689107, -1336660.0, -110670.086, 0.0, 9.99928, 9.999259 
1.1350156e+3, 1.8489996e+2, -1186214.6, -1089671.4, -11329.278, 0.07030163, 0.082104124, -1088359.8, 39625.87, 0.0, 9.9992695, 10.000585 
1.1350149e+3, 1.9490054e+2, -995260.75, -949779.9, 21474.111, -0.021879006, 0.048990175, -941243.1, 88729.69, 0.0, 9.999904, 10.000574 
1.1350145e+3, 2.0490034e+2, -985693.3, -1067718.1, -11312.033, -0.059528597, 0.056880776, -984161.9, -52189.29, 0.0, 10.000082, 9.998985 
1.1350147e+3, 2.14899e+2, -935842.94, -994260.0, -17807.938, -0.023001233, -0.006304731, -930842.4, -96853.96, 0.0, 9.999762, 9.998972 
1.13501474e+3, 2.2489859e+2, -770497.7, -762201.5, -17382.67, -0.013599073, 0.016670479, -748478.8, -12486.392, 0.0, 9.99975, 9.999912 
1.1350149e+3, 2.3489882e+2, -630976.7, -644688.5, 28546.363, -0.033376746, 0.013774702, -608474.5, 29512.965, 0.0, 10.000036, 9.999907 
1.1350141e+3, 2.448985e+2, -580462.6, -674050.1, -21373.195, -0.06572136, 0.045241643, -575812.5, -35822.16, 0.0, 10.000195, 9.998943 
1.1350126e+3, 2.5489736e+2, -480259.22, -577004.1, 1401.1803, -0.09005515, 0.00383003, -480238.94, -38235.17, 0.0, 10.000214, 9.998933 
1.135012e+3, 2.6489624e+2, -375411.38, -457958.25, -22144.713, -0.0375787, -0.00078070204, -369845.9, -25831.875, 0.00000020663475, 10.000176, 9.999098 
1.13501236e+3, 2.748947e+2, -297445.66, -375949.88, -51134.688, 0.0902742, -0.09757068, -272234.72, -26208.863, 0.0000055002247, 10.000056, 9.999045 
1.1350118e+3, 2.8489372e+2, -198585.42, -302469.47, -12069.642, 0.041080117, -0.08211531, -197201.56, -49166.566, 0.000033703815, 10.00018, 9.998811 
1.1350109e+3, 2.9489312e+2, -65308.84, -183452.02, 26676.537, -0.1693368, -0.06347488, -59564.61, -9522.256, 0.00013271971, 10.000391, 9.998853 
1.1350111e+3, 3.0489206e+2, -14536.292, -145499.58, -81542.805, -0.13095829, -0.042408787, 24562.535, 24562.535, 0.00037893685, 10.000499, 9.998731 
1.13501236e+3, 3.1489134e+2, -21204.266, -97012.7, -50099.563, 0.08777331, -0.024514932, 3714.2502, 3714.2502, 0.0007912106, 10.00013, 9.999251 
1.1450203e+3, 1.248986e+2, -1745477.4, -1726516.0, 16471.848, 0.053599343, -0.03983863, -1716991.3, -993.20166, 0.0013373722, 9.999698, 10.000054 
1.1450161e+3, 1.3490005e+2, -1579034.5, -1597600.5, 26.1251, -0.22112894, 0.06943096, -1579034.5, 38954.79, 0.000672049, 10.000206, 10.000036 
1.145018e+3, 1.4490113e+2, -1451805.6, -1432209.8, 47397.215, 0.032142952, 0.15836059, -1393608.4, 126370.32, 0.0002032588, 10.000192, 10.000468 
1.14501566e+3, 1.5490103e+2, -1410908.5, -1365637.8, -5688.7524, -0.14671329, 0.06737508, -1364933.9, 57040.027, 0.000019742625, 9.999831, 10.000423 
1.1450144e+3, 1.6490084e+2, -1417166.1, -1425635.5, -12423.185, -0.16563275, 0.060486022, -1408275.8, -84301.734, 0.000000013934886, 9.999575, 9.999468 
1.1450149e+3, 1.7490016e+2, -1320961.3, -1323738.0, 8416.104, 0.018483892, 0.011948044, -1313819.9, -87836.88, 0.0, 9.999553, 9.9995 
1.1450151e+3, 1.8490013e+2, -1147300.5, -1111060.3, 99445.84, 0.080615625, 0.030846598, -1028097.1, 99884.81, 0.0, 9.9997225, 10.00021 
1.1450149e+3, 1.9490048e+2, -991794.0, -979724.4, 36655.266, -0.005431506, 0.010302881, -948610.44, 81362.94, 0.0, 10.000101, 10.000249 
1.1450146e+3, 2.049002e+2, -956578.6, -1074463.4, -429.5459, -0.050001435, 0.035163227, -956577.06, -24602.586, 0.0, 10.00034, 9.998831 
1.14501454e+3, 2.1489894e+2, -850357.2, -971694.0, -977.43646, -0.03302449, -0.0063059637, -850349.3, -16360.417, 0.0, 10.000396, 9.998838 
1.14501454e+3, 2.2489856e+2, -717837.6, -742454.5, 20641.496, -0.027108265, 0.030886995, -706113.44, 29879.71, 0.0, 10.000165, 9.999835 
1.14501454e+3, 2.3489878e+2, -681283.7, -669528.56, -32556.145, -0.04112436, 0.032678295, -642323.7, -4333.5015, 0.0, 9.999722, 9.999873 
1.145014e+3, 2.448986e+2, -607227.25, -642816.9, -60448.957, -0.05425769, 0.0601856, -562008.3, -22017.354, 0.0, 9.9998, 9.999354 
1.1450132e+3, 2.548978e+2, -415080.44, -493040.16, -50413.836, -0.051651143, 0.010049863, -390334.44, 51663.496, 0.0, 10.000434, 9.999399 
1.145013e+3, 2.648966e+2, -341473.34, -526034.8, -32458.256, 0.011507453, 0.008481333, -335931.44, 8077.8374, 0.00000038376965, 10.000759, 9.998355 
1.1450132e+3, 2.7489457e+2, -247102.08, -433069.16, -59678.62, 0.13831301, -0.06476634, -229598.16, 16431.139, 0.0000075917305, 10.000745, 9.998323 
1.1450126e+3, 2.8489318e+2, -155829.28, -262020.25, 20998.031, 0.09707616, -0.060704954, -151827.94, -3785.305, 0.000041535674, 10.000384, 9.998996 
1.1450116e+3, 2.948924e+2, -175919.47, -213806.47, 1788.0643, -0.0786292, -0.08136662, -175835.27, -125785.71, 0.00014998692, 9.9995365, 9.999057 
1.1450117e+3, 3.0489135e+2, -109664.39, -167185.95, -24896.574, -0.06374069, -0.07861282, -100385.43, -100385.43, 0.00040887797, 9.999706, 9.998965 
1.14501245e+3, 3.1489146e+2, 50755.46, -28060.97, 11524.764, 0.08740615, -0.010027796, 52406.074, 52406.074, 0.0008407425, 10.0004835, 9.9995365 
1.15501925e+3, 1.2490157e+2, -1729327.4, -1682110.5, -109298.82, -0.07981584, 0.17871056, -1593899.5, 122077.81, 0.001489488, 9.999656, 10.000373 
1.1550154e+3, 1.3490213e+2, -1539904.1, -1510304.3, 33816.41, -0.34849608, 0.13803597, -1488191.0, 129779.97, 0.00075867696, 10.000191, 10.00063 
1.1550175e+3, 1.449022e+2, -1497593.4, -1533469.3, 14873.519, -0.08258236, 0.13190383, -1492229.1, 27739.307, 0.0002361324, 10.0002, 9.999781 
1.1550176e+3, 1.5490212e+2, -1451971.3, -1458550.6, -5721.263, 0.024820134, 0.10662572, -1448661.4, -26694.469, 0.000024990082, 9.999851, 9.9997835 
1.155016e+3, 1.6490197e+2, -1350264.4, -1283631.0, -31870.004, 0.0014650287, 0.08800066, -1270842.4, 53121.88, 0.000000023716384, 9.999568, 10.000442 
1.1550135e+3, 1.7490156e+2, -1261178.5, -1186183.8, 23043.254, -0.10166778, -0.031410333, -1179669.3, 46293.434, 0.0, 9.999502, 10.000462 
1.15501344e+3, 1.8490079e+2, -1244545.6, -1299045.3, 96059.44, -0.09831063, -0.07390874, -1171945.8, -43978.035, 0.0, 9.9996605, 9.998949 
1.1550154e+3, 1.9489917e+2, -1096033.3, -1173439.5, 62615.434, -0.0020091066, -0.16764626, -1061125.0, -31141.258, 0.0, 9.999997, 9.998971 
1.15501575e+3, 2.0489848e+2, -948482.2, -1022817.2, -20576.842, -0.008257708, -0.14033498, -943166.44, -11176.636, 0.0, 10.000188, 9.999259 
1.1550144e+3, 2.1489844e+2, -849689.94, -924663.25, 15504.28, -0.11046682, -0.10495468, -846610.2, -12621.4, 0.0, 10.00019, 9.999263 
1.15501404e+3, 2.2489792e+2, -814870.8, -898009.94, -11664.192, -0.11682221, -0.055906385, -813265.3, -77270.27, 0.0, 9.999968, 9.99886 
1.1550148e+3, 2.3489663e+2, -779782.06, -830431.44, -34011.51, -0.023155792, -0.10387016, -762702.5, -124690.98, 0.0, 9.999534, 9.99886 
1.1550148e+3, 2.4489647e+2, -586179.75, -553497.56, -56951.875, 0.0137215825, -0.05828743, -510588.78, 29424.53, 0.0, 9.999603, 10.000061 
1.15501426e+3, 2.548972e+2, -392894.9, -406397.72, -13031.169, -0.01589808, -0.028508406, -384970.03, 57032.473, 0.0, 10.000254, 10.000081 
1.1550138e+3, 2.6489666e+2, -386225.88, -579328.9, -46562.84, -0.000102736274, 0.017467855, -375584.6, -31576.953, 0.0000005356376, 10.000593, 9.998063 
1.15501344e+3, 2.748945e+2, -285232.4, -477048.63, -40687.383, 0.06077691, -0.041141134, -276958.8, -30926.322, 0.000008957139, 10.000594, 9.998092 
1.1550132e+3, 2.8489316e+2, -176418.27, -270631.66, -23486.863, 0.089613475, -0.026429238, -170887.77, -22841.303, 0.000047577858, 10.000239, 9.999005 
1.1550132e+3, 2.9489207e+2, -192404.63, -233935.2, -2543.3608, 0.079944685, -0.07613426, -192249.45, -142195.0, 0.00016516355, 9.999461, 9.998961 
1.1550132e+3, 3.048911e+2, -70016.92, -41838.402, -5305.7437, 0.0758571, -0.102111526, -40872.492, -40872.492, 0.00043857994, 9.99954, 9.999893 
1.1550122e+3, 3.148922e+2, 91668.45, 101927.33, 93752.21, -0.052247148, -0.030238375, 190690.33, 190690.33, 0.0008950193, 10.000292, 10.000518 
1.1650192e+3, 1.2490398e+2, -1645293.3, -1684753.4, -41204.836, -0.07633272, 0.24064232, -1619338.4, 96616.7, 0.0016512593, 10.000423, 9.999975 
1.1650164e+3, 1.3490376e+2, -1522154.1, -1553589.3, 20447.336, -0.28158563, 0.17525914, -1512081.5, 105874.164, 0.0008513687, 10.000557, 10.000152 
1.1650177e+3, 1.4490303e+2, -1479292.3, -1523803.4, 946.733, -0.087580495, 0.11283715, -1479272.1, 40688.36, 0.00027198074, 10.000341, 9.999766 
1.16501845e+3, 1.549029e+2, -1439821.8, -1456679.9, -9479.06, 0.1288437, 0.083808914, -1435566.1, -13607.339, 0.00003101119, 9.999958, 9.99974 
1.1650168e+3, 1.6490278e+2, -1295877.6, -1271455.1, -355.91037, 0.113859095, 0.07413551, -1271450.0, 52505.758, 0.00000004774233, 9.999992, 10.000327 
1.1650135e+3, 1.7490241e+2, -1120959.5, -1137014.6, -63756.86, -0.094281055, -0.02563435, -1064726.9, 161226.8, 0.0, 10.000522, 10.000325 
1.1650132e+3, 1.849016e+2, -1142997.8, -1273539.3, 27607.234, -0.11270823, -0.053496327, -1137399.4, -9439.698, 0.0, 10.000454, 9.998742 
1.1650156e+3, 1.949e+2, -1125976.0, -1211344.5, 45722.586, 0.036774214, -0.122101456, -1106110.3, -76132.99, 0.0, 9.99989, 9.998767 
1.1650162e+3, 2.0489924e+2, -981916.44, -1006106.5, 43199.92, 0.04972603, -0.106808744, -949150.3, -17166.434, 0.0, 9.99984, 9.999526 
1.165015e+3, 2.14899e+2, -810102.0, -866531.7, 25725.977, -0.0729669, -0.12085974, -800134.4, 33847.83, 0.0, 10.000328, 9.999576 
1.1650145e+3, 2.2489828e+2, -777373.06, -919769.9, 23927.115, -0.08189541, -0.09043558, -773460.1, -37470.64, 0.0, 10.000383, 9.998521 
1.165015e+3, 2.3489669e+2, -740377.44, -851143.56, 25179.979, 0.036640335, -0.13422015, -734922.06, -96912.12, 0.0, 9.999963, 9.998523 
1.165015e+3, 2.4489632e+2, -586787.7, -565729.75, 54610.82, 0.082326815, -0.08640677, -520642.16, 19372.049, 0.0, 9.999649, 9.999952 
1.16501465e+3, 2.54897e+2, -514235.47, -477667.1, 2382.3293, 0.04588087, -0.051897425, -477512.53, -35508.4, 0.0, 9.999466, 9.999973 
1.1650141e+3, 2.6489666e+2, -518176.1, -608514.0, -14189.533, 0.043050926, 0.0057060416, -515999.75, -171992.38, 0.00000056359414, 9.999548, 9.9983635 
1.16501376e+3, 2.7489507e+2, -373057.16, -484969.16, -827.49084, 0.083546475, -0.023580423, -373051.03, -127024.09, 0.00000928475, 9.999864, 9.998387 
1.1650137e+3, 2.8489387e+2, -194809.02, -288834.5, 46031.645, 0.12820081, -0.004733628, -176025.78, -27986.645, 0.000050789153, 10.000134, 9.998934 
1.1650139e+3, 2.9489264e+2, -83054.56, -184996.58, 21377.324, 0.18104707, -0.06258302, -78753.21, -28705.496, 0.00017624088, 10.000238, 9.998916 
1.1650137e+3, 3.048913e+2, 6119.58, -37814.53, 35020.297, 0.15818186, -0.11144167, 25492.248, 25492.248, 0.0004642717, 10.000183, 9.999632 
1.165012e+3, 3.1489208e+2, -44084.496, 24368.309, -5487.231, -0.046302643, -0.0340702, 24805.377, 24805.377, 0.0009430791, 9.9993925, 10.000443 
1.1750193e+3, 1.2490555e+2, -1733556.0, -1840774.8, -59485.52, -0.1877005, 0.10196617, -1707087.4, 8846.512, 0.0018234614, 10.000338, 9.9989395 
1.1750187e+3, 1.3490507e+2, -1634088.0, -1786845.4, 39044.5, -0.129195, 0.17469934, -1624686.9, -6744.6987, 0.0009506097, 10.000572, 9.998544 
1.17501795e+3, 1.4490373e+2, -1440023.8, -1434237.6, -30218.496, -0.13648385, 0.09967139, -1406774.0, 113179.74, 0.00031097958, 10.000312, 10.00039 
1.1750177e+3, 1.5490349e+2, -1399066.8, -1370770.8, -6535.8433, 0.03398643, -0.0012511855, -1369334.0, 52614.605, 0.00003785508, 9.99995, 10.000331 
1.1750164e+3, 1.6490316e+2, -1391938.5, -1465307.3, 730.35187, 0.033105, 0.0077267205, -1391931.3, -67982.234, 0.00000010132158, 9.999969, 9.999004 
1.1750145e+3, 1.7490259e+2, -1219158.0, -1328262.1, -27855.506, -0.081904985, 0.011873734, -1212457.8, 13498.844, 0.0, 10.000466, 9.999037 
1.17501415e+3, 1.8490267e+2, -1091034.9, -1150288.5, -10706.922, -0.09417028, 0.09314122, -1089159.5, 38797.465, 0.0, 10.00039, 9.9996195 
1.17501535e+3, 1.9490305e+2, -1078776.3, -1090730.9, 42792.773, -0.013955747, 0.13339819, -1041545.4, -11592.0625, 0.0, 9.999789, 9.999646 
1.1750159e+3, 2.049025e+2, -1001056.7, -1012230.1, 43139.63, -0.0055488613, 0.124381766, -963143.56, -31187.365, 0.0, 9.999698, 9.999551 
1.1750157e+3, 2.1490064e+2, -836723.3, -881011.44, 57661.445, -0.04993075, -0.052358717, -797100.06, 36868.758, 0.0, 10.000143, 9.999569 
1.1750155e+3, 2.2489953e+2, -781493.44, -877321.8, -10097.7705, -0.04765468, -0.08043951, -780440.94, -44463.13, 0.0, 10.000167, 9.998915 
1.17501475e+3, 2.3489892e+2, -743048.56, -802217.0, 25492.78, -0.002200498, -0.06672736, -733580.2, -95594.7, 0.0, 9.999737, 9.998962 
1.1750143e+3, 2.4489823e+2, -686127.56, -725222.25, 32073.38, 0.015483629, -0.026868714, -668114.3, -128121.19, 0.0, 9.999442, 9.998962 
1.175014e+3, 2.548971e+2, -600816.5, -623236.94, 11370.54, 0.0076791723, -0.07503624, -596059.3, -154055.67, 0.0, 9.999316, 9.999045 
1.1750139e+3, 2.6489654e+2, -484510.94, -505633.25, -19408.875, 0.03407747, -0.03393328, -472975.88, -128966.66, 0.0000005132723, 9.999403, 9.999145 
1.1750138e+3, 2.7489617e+2, -334190.66, -379330.22, 29788.424, 0.07043517, -0.022011338, -319387.38, -73373.89, 0.000009286575, 9.999753, 9.999169 
1.17501356e+3, 2.8489533e+2, -231404.14, -333028.78, 37025.1, 0.07865392, 0.009604264, -219345.55, -71324.94, 0.000051726838, 10.0, 9.998694 
1.1750134e+3, 2.9489377e+2, -101365.586, -208120.56, 46175.67, 0.06968289, -0.06388693, -84164.41, -34131.406, 0.00018255804, 10.000162, 9.998797 
1.175013e+3, 3.0489153e+2, -110525.61, -238320.92, -2052.991, 0.05489473, -0.13570902, -110492.64, -110492.64, 0.00047999644, 10.000027, 9.998322 
1.17501095e+3, 3.1489134e+2, -146219.83, -125297.266, 6631.664, -0.15454195, -0.027502201, -123372.375, -123372.375, 0.0009686636, 9.999149, 9.999519 
1.18502e+3, 1.2490673e+2, -1655575.6, -1793265.0, -59198.11, -0.15158078, 0.051719353, -1633623.9, 82296.195, 0.0020081834, 10.000804, 9.99905 
1.1850203e+3, 1.34906e+2, -1655403.6, -1826042.8, 33982.246, -0.009800648, 0.11324714, -1648885.3, -30955.676, 0.0010574218, 10.000529, 9.998303 
1.18501805e+3, 1.4490452e+2, -1459284.9, -1462492.6, 24092.64, -0.1355318, 0.047924537, -1436742.9, 83199.1, 0.00035351914, 10.000241, 10.000241 
1.1850177e+3, 1.549043e+2, -1372318.0, -1368051.5, -48012.445, 0.033879343, -0.03699966, -1322124.9, 99813.016, 0.00004562391, 10.00018, 10.000243 
1.1850167e+3, 1.6490392e+2, -1365614.9, -1480729.4, 34100.61, 0.06608111, -0.01682512, -1356271.6, -32331.723, 0.00000019883093, 10.000274, 9.998756 
1.18501574e+3, 1.749031e+2, -1209431.9, -1344707.1, 50407.8, -0.00835041, -0.017846972, -1192714.4, 33236.29, 0.0, 10.000633, 9.998837 
1.1850153e+3, 1.8490319e+2, -1048945.1, -1121847.6, 75075.82, -0.029502917, 0.071461275, -1001939.4, 126011.8, 0.0, 10.000636, 9.999701 
1.1850154e+3, 1.9490388e+2, -997652.44, -1038971.4, 32138.543, -0.009686932, 0.13473961, -980105.9, 49838.71, 0.0, 10.000288, 9.999763 
1.18501574e+3, 2.0490353e+2, -933256.06, -966591.25, 66975.586, 0.008269366, 0.1355222, -880905.3, 51040.355, 0.0, 10.000103, 9.999681 
1.1850167e+3, 2.1490175e+2, -830556.0, -856650.2, 65025.44, 0.043888904, -0.047074035, -777281.6, 56676.316, 0.0, 10.000104, 9.999756 
1.1850166e+3, 2.2490084e+2, -741994.25, -838425.6, 18146.043, 0.049670897, -0.07110094, -738692.6, -2728.2239, 0.0, 10.000358, 9.9990835 
1.18501514e+3, 2.3490056e+2, -569473.44, -700200.44, -2454.679, 0.014822469, -0.044038195, -569427.4, 68540.63, 0.0, 10.000847, 9.999124 
1.1850144e+3, 2.4489965e+2, -505460.03, -692578.2, 34970.066, 0.014774515, -0.01059055, -499138.16, 40839.47, 0.0, 10.000922, 9.998472 
1.18501425e+3, 2.548977e+2, -452237.1, -615060.94, 19070.48, 0.053461377, -0.08352062, -450033.3, -8036.395, 0.0, 10.0006075, 9.9984865 
1.18501425e+3, 2.648966e+2, -321407.0, -436362.75, 20423.504, 0.08155076, -0.06482222, -317886.3, 26122.012, 0.0000005059796, 10.000582, 9.9990425 
1.185014e+3, 2.7489594e+2, -186614.52, -323681.0, -38783.402, 0.07450452, -0.07027125, -176401.6, 69613.47, 0.000009353779, 10.000838, 9.999026 
1.18501365e+3, 2.848953e+2, -135499.66, -284754.66, -41285.75, 0.06187052, -0.011734244, -124840.71, 23179.854, 0.000051580555, 10.000667, 9.998694 
1.1850136e+3, 2.9489452e+2, -118694.38, -219439.63, -50028.0, 0.078059554, -0.00036323612, -98072.625, -48046.31, 0.00018437536, 10.000068, 9.998759 
1.1850133e+3, 3.048921e+2, -152602.45, -299083.78, -38393.105, 0.09546427, -0.0753321, -143149.56, -143149.56, 0.0004810056, 9.999893, 9.9979725 
1.1850111e+3, 3.1489077e+2, -69343.336, -115554.87, -22539.152, -0.07203483, -0.03998592, -60170.78, -60170.78, 0.0009623852, 9.99976, 9.999303 
1.1950223e+3, 1.2490787e+2, -1560340.4, -1593543.0, -24591.068, -0.07583838, 0.11498847, -1547271.4, 168638.84, 0.0022081332, 10.000798, 10.000416 
1.1950205e+3, 1.3490634e+2, -1562943.5, -1639267.5, 33445.24, -0.0768795, -0.03137974, -1550361.9, 67557.1, 0.0011730703, 10.000541, 9.9995775 
1.1950177e+3, 1.4490534e+2, -1525377.1, -1595470.5, 958.58466, -0.24776804, -0.06897032, -1525364.0, -5438.024, 0.00040013902, 10.000228, 9.999333 
1.1950179e+3, 1.5490551e+2, -1434384.5, -1502492.6, -34389.004, 0.00810942, -0.025297668, -1420041.4, 1883.9287, 0.00005450229, 10.000198, 9.999314 
1.19501755e+3, 1.6490515e+2, -1306702.0, -1359244.3, 27034.846, 0.08172476, 0.0014312863, -1295276.3, 28651.154, 0.00000035173326, 10.000272, 9.999594 
1.1950167e+3, 1.7490397e+2, -1157870.6, -1230361.5, 78239.17, 0.0036769216, -0.11476278, -1107889.1, 118046.016, 0.0, 10.000595, 9.999646 
1.195016e+3, 1.8490319e+2, -1110623.1, -1233115.1, 45088.816, -0.052254073, -0.11750003, -1095816.0, 32126.17, 0.0, 10.000568, 9.998966 
1.1950152e+3, 1.9490252e+2, -1067599.9, -1157340.6, 33623.836, -0.08119492, -0.11724678, -1056399.6, -26448.543, 0.0, 10.000171, 9.999007 
1.1950156e+3, 2.0490237e+2, -932382.9, -929097.7, 48352.406, -0.03980148, -0.07643077, -882360.0, 49592.344, 0.0, 9.999954, 10.000007 
1.1950175e+3, 2.1490239e+2, -837755.94, -824513.4, 79974.75, 0.08121577, -0.11106001, -750886.3, 83062.32, 0.0, 9.999902, 10.000073 
1.19501755e+3, 2.2490226e+2, -782946.75, -873445.2, 18744.813, 0.08292051, -0.068185054, -779217.8, -43268.676, 0.0, 10.000142, 9.998946 
1.19501576e+3, 2.3490165e+2, -607109.94, -729813.75, 28262.873, -0.03409331, -0.06096655, -600913.0, 37043.664, 0.0, 10.000643, 9.999015 
1.195015e+3, 2.4490067e+2, -535904.1, -712412.3, 5910.999, -0.046930455, -0.024425639, -535706.4, 4260.3057, 0.0, 10.000731, 9.998435 
1.19501516e+3, 2.5489902e+2, -479454.6, -626999.4, 23093.398, 0.043589313, -0.070176914, -475924.53, -33942.05, 0.0, 10.000421, 9.998494 
1.1950149e+3, 2.64897e+2, -426812.66, -617498.4, 15803.093, 0.0514083, -0.08426032, -425511.84, -81508.625, 0.0000006389743, 10.000413, 9.997885 
1.19501404e+3, 2.7489436e+2, -284178.72, -492597.25, -10347.518, -0.031262472, -0.17457499, -283666.25, -37634.37, 0.000009301616, 10.000699, 9.997932 
1.1950137e+3, 2.848938e+2, -138129.19, -267831.75, -76515.18, -0.036679216, -0.06100023, -102679.62, 45359.082, 0.00005191434, 10.000562, 9.998866 
1.1950138e+3, 2.9489496e+2, -123261.72, -206423.19, -48671.23, 0.0512196, 0.12215162, -100828.03, -50800.594, 0.00018470343, 9.999958, 9.998906 
1.1950139e+3, 3.0489302e+2, -153524.55, -252235.98, -48959.64, 0.13832933, 0.06931479, -133360.23, -133360.23, 0.0004730737, 9.999699, 9.99838 
1.1950115e+3, 3.148904e+2, -70882.445, -58530.496, 21479.225, -0.06700438, -0.07167702, -42356.98, -42356.98, 0.0009339275, 9.999516, 9.999803 
1.2050232e+3, 1.2490874e+2, -1732498.8, -1621479.9, 77708.09, 0.014384525, 0.12898213, -1581491.4, 134408.17, 0.0024257244, 9.99939, 10.000914 
1.2050205e+3, 1.349072e+2, -1627301.4, -1579238.9, -6845.024, -0.07586363, -0.08995106, -1578283.0, 39623.28, 0.0012988481, 9.999722, 10.000382 
1.20501846e+3, 1.4490665e+2, -1585937.6, -1671593.4, 13045.054, -0.170262, -0.102220036, -1583994.9, -64085.79, 0.00045139206, 10.000008, 9.998919 
1.2050185e+3, 1.5490676e+2, -1396852.1, -1528435.9, -27641.22, 0.02775179, -0.025151014, -1391281.5, 30630.592, 0.00006471426, 10.000645, 9.9989195 
1.20501794e+3, 1.6490643e+2, -1230646.3, -1306431.9, 53824.633, 0.08829793, 0.017072214, -1202713.9, 121201.13, 0.00000057087306, 10.000732, 9.999725 
1.2050175e+3, 1.7490534e+2, -1178293.8, -1219192.8, 18808.227, 0.02952184, -0.10412924, -1170959.6, 54961.023, 0.0, 10.00038, 9.999816 
1.20501675e+3, 1.8490426e+2, -1168924.3, -1284616.1, 10909.034, -0.011369413, -0.13358654, -1167904.6, -39974.977, 0.0, 10.000276, 9.99875 
1.20501585e+3, 1.9490284e+2, -1034290.5, -1160099.0, 9603.181, -0.03602933, -0.1911775, -1033561.7, -3616.0889, 0.0, 10.000489, 9.998825 
1.2050162e+3, 2.0490251e+2, -869986.06, -926925.0, 56221.133, 0.009156131, -0.14550145, -835437.06, 96512.05, 0.0, 10.000479, 9.999773 
1.20501794e+3, 2.1490301e+2, -802920.5, -837268.6, 11405.598, 0.12943695, -0.11064406, -799478.2, 34465.145, 0.0, 10.000236, 9.999835 
1.2050181e+3, 2.249031e+2, -778152.1, -857378.4, -10904.401, 0.13456649, -0.03968104, -776678.7, -40736.242, 0.0, 10.000115, 9.999075 
1.20501675e+3, 2.3490246e+2, -667458.25, -746868.8, -11563.4375, 0.026803406, -0.046450134, -665808.7, -27859.201, 0.0, 10.000174, 9.999131 
1.20501585e+3, 2.4490143e+2, -591300.94, -745353.75, -9290.009, 0.0013817392, -0.017016588, -590742.75, -50782.96, 0.0, 10.000398, 9.99835 
1.2050156e+3, 2.5489965e+2, -433481.75, -616340.6, -33066.457, 0.040889077, -0.06462517, -427686.03, 14291.118, 0.00000000020898414, 10.0007925, 9.998378 
1.2050151e+3, 2.648977e+2, -370577.38, -572650.5, 28276.137, 0.038160782, -0.07391629, -366695.28, -22698.654, 0.00000074892756, 10.000714, 9.998046 
1.20501466e+3, 2.7489537e+2, -352892.72, -509202.78, 67601.51, -0.0062984494, -0.15164943, -327712.5, -81691.74, 0.000009032264, 10.000134, 9.998089 
1.2050143e+3, 2.8489465e+2, -230030.27, -310542.94, 69610.94, 0.010145338, -0.06372302, -189873.58, -41844.984, 0.000052136886, 9.999934, 9.998877 
1.2050141e+3, 2.9489526e+2, -119220.18, -200914.38, 39706.113, 0.09598744, 0.06880838, -103101.836, -53078.426, 0.0001849306, 10.0, 9.998918 
1.20501444e+3, 3.0489346e+2, -65649.38, -168336.52, 75117.875, 0.20669812, 0.012335527, -26004.73, -26004.73, 0.0004665325, 10.000115, 9.998753 
1.2050122e+3, 3.148913e+2, -494.2362, 39957.57, 78341.18, 0.050098598, -0.12680839, 100641.664, 100641.664, 0.00090606173, 9.999751, 10.00035 
1.2150224e+3, 1.24908544e+2, -1762196.8, -1668799.9, 34133.89, -0.061678704, 0.012410224, -1657654.9, 58241.063, 0.0026624324, 9.999354, 10.000596 
1.21502005e+3, 1.3490868e+2, -1612700.1, -1546122.0, 12240.277, -0.12415309, -0.06088579, -1543942.9, 73947.33, 0.0014356553, 9.999715, 10.000615 
1.2150203e+3, 1.4490856e+2, -1573455.8, -1644127.1, 15181.578, -0.03632955, -0.052364938, -1570332.5, -50442.164, 0.0005075534, 10.000005, 9.999106 
1.2150189e+3, 1.5490806e+2, -1389839.6, -1514266.1, 15152.22, -0.03534979, -0.04997886, -1388021.0, 33877.297, 0.000076397075, 10.000642, 9.9990225 
1.2150177e+3, 1.6490768e+2, -1271770.5, -1386690.0, 24171.615, -0.059201684, 0.011899263, -1266893.4, 57009.83, 0.0000008702971, 10.000718, 9.999174 
1.2150174e+3, 1.7490721e+2, -1227013.4, -1307062.4, 20202.771, -0.053154364, 0.008155873, -1222203.6, 3703.626, 0.0, 10.000324, 9.999238 
1.2150171e+3, 1.8490638e+2, -1149202.0, -1231321.5, 1450.622, -0.036176298, 0.012311254, -1149176.4, -21262.127, 0.0, 10.000222, 9.999144 
1.215017e+3, 1.9490483e+2, -1024593.7, -1114533.0, 33562.168, -0.008959927, -0.09471622, -1013450.1, 16477.656, 0.0, 10.000378, 9.999194 
1.2150172e+3, 2.0490403e+2, -950325.06, -1054615.1, 28597.057, 0.022719184, -0.07461537, -942998.25, -11062.447, 0.0, 10.000314, 9.998972 
1.2150178e+3, 2.1490376e+2, -890703.1, -965166.44, 15682.195, 0.060965218, -0.039670207, -887535.2, -53594.406, 0.0, 10.000004, 9.999064 
1.21501796e+3, 2.2490354e+2, -782674.44, -820090.75, -26579.623, 0.07958618, 0.019545525, -768879.2, -32936.184, 0.0, 9.9999075, 9.999435 
1.2150176e+3, 2.3490308e+2, -667404.44, -702550.0, 6391.196, 0.0780556, -0.006999072, -666278.25, -28333.012, 0.0, 9.99998, 9.99953 
1.21501684e+3, 2.4490193e+2, -642394.44, -797360.2, -8001.425, 0.026531512, 0.0014450538, -641982.4, -102025.94, 0.0, 10.000167, 9.998101 
1.2150155e+3, 2.5489974e+2, -476579.06, -666286.75, -3018.5862, -0.073599145, -0.064967506, -476531.03, -34550.83, 0.00000000018849695, 10.000623, 9.998114 
1.215015e+3, 2.6489884e+2, -291997.75, -372767.97, -8646.912, -0.07712389, -0.026794324, -291082.4, 52905.27, 0.00000061447383, 10.000549, 9.999503 
1.21501535e+3, 2.7489892e+2, -266744.28, -302166.9, 64185.34, 0.01731097, -0.0062249964, -217871.45, 28110.424, 0.000008322687, 10.000002, 9.999581 
1.215015e+3, 2.8489786e+2, -283053.78, -368250.75, 57954.74, 0.06161737, -0.015522229, -253726.03, -105735.97, 0.000050710027, 9.999726, 9.998573 
1.21501416e+3, 2.9489538e+2, -158807.52, -250823.3, 66543.92, 0.06719648, -0.16294451, -123915.35, -73900.586, 0.00018357177, 9.999868, 9.998632 
1.2150144e+3, 3.048933e+2, -70646.016, -143142.83, 51832.04, 0.17449509, -0.24238846, -43644.855, -43644.855, 0.00046227945, 9.9999695, 9.998998 
1.2150123e+3, 3.14893e+2, 2559.6099, 104728.305, 101429.35, 0.02009941, -0.2183003, 167211.22, 167211.22, 0.000888819, 9.999509, 10.000913 
1.2250228e+3, 1.24908954e+2, -1921485.9, -1796041.3, 73726.34, 0.09763731, -0.06680257, -1761966.5, -46080.76, 0.0029179724, 9.998459, 10.000156 
1.22501954e+3, 1.3490985e+2, -1667103.6, -1601286.8, 885.6376, -0.11470176, -0.034752037, -1601274.9, 16602.945, 0.0015834377, 9.99947, 10.000352 
1.2250207e+3, 1.4490993e+2, -1570532.6, -1593191.6, 18428.643, 0.024094557, -0.01822852, -1560229.5, -40351.844, 0.00056846405, 9.999821, 9.999542 
1.2250192e+3, 1.5490942e+2, -1482831.4, -1495714.0, 527.5409, -0.021701662, -0.065414436, -1482809.8, -60927.07, 0.00008951281, 9.999762, 9.999556 
1.225018e+3, 1.6490908e+2, -1404086.5, -1503851.5, 64198.086, -0.055810306, -0.008026227, -1372669.3, -48781.688, 0.0000012652538, 10.000002, 9.998742 
1.2250178e+3, 1.7490853e+2, -1211631.3, -1345231.0, 42820.96, -0.038315266, 0.026422711, -1199084.8, 26810.486, 0.0, 10.000603, 9.998858 
1.2250178e+3, 1.8490787e+2, -1057333.5, -1163776.8, 49117.273, -0.001779208, 0.05449503, -1038132.44, 89769.22, 0.0, 10.000737, 9.999367 
1.2250178e+3, 1.9490667e+2, -997613.1, -1077434.8, 33983.977, 0.04328952, -0.039167587, -985104.6, 44805.863, 0.0, 10.000451, 9.999425 
1.225018e+3, 2.0490588e+2, -941975.6, -1054307.4, 86223.055, 0.06499786, -0.026597884, -895238.56, 36678.99, 0.0, 10.000402, 9.998925 
1.225018e+3, 2.1490528e+2, -811122.8, -929532.8, 96894.125, 0.060817007, -0.01985133, -756777.4, 77147.91, 0.0, 10.000587, 9.999017 
1.2250182e+3, 2.2490461e+2, -672095.94, -800244.25, 96451.875, 0.07732551, 0.011687156, -620375.2, 115556.5, 0.0, 10.000795, 9.9991455 
1.2250183e+3, 2.3490354e+2, -543762.7, -680185.9, 41989.887, 0.10898531, -0.04503137, -531874.56, 106065.586, 0.0, 10.00097, 9.999214 
1.2250178e+3, 2.4490234e+2, -520066.16, -701536.4, 50774.965, 0.077308714, -0.04309633, -506825.5, 33125.867, 0.0, 10.000823, 9.998461 
1.2250165e+3, 2.5490072e+2, -489048.75, -629908.06, 73708.43, -0.019386267, -0.0879305, -457531.03, -15562.766, 0.0, 10.000343, 9.9985075 
1.225016e+3, 2.6490018e+2, -310891.1, -358564.72, 75092.97, -0.02271157, -0.044830166, -255942.45, 88029.125, 0.0000003685213, 10.000343, 9.999684 
1.2250161e+3, 2.7490038e+2, -144331.75, -218588.89, 11086.395, 0.059811894, -0.030539235, -142711.92, 103252.42, 0.0000073761885, 10.000785, 9.999755 
1.2250154e+3, 2.8489915e+2, -115922.305, -300528.47, -8255.514, 0.08471316, -0.060963202, -115553.86, 32420.139, 0.000049087277, 10.000895, 9.99848 
1.22501425e+3, 2.9489625e+2, -74145.78, -228070.0, -13752.164, 0.07476351, -0.24198045, -72926.766, -22923.734, 0.00018153466, 10.000495, 9.9985 
1.2250149e+3, 3.048948e+2, 9601.863, -116509.88, 8503.461, 0.20051189, -0.24672705, 10172.651, 10172.651, 0.00045750884, 10.000587, 9.998873 
1.2250134e+3, 3.1489503e+2, 184611.89, 169093.02, -47084.42, 0.12727758, -0.15793213, 224571.97, 224571.97, 0.0008771986, 10.000823, 10.0007305 
1.2350223e+3, 1.249096e+2, -1936352.1, -1849690.9, -34480.46, 0.13397048, -0.15700708, -1837646.0, -121773.2, 0.0031899144, 9.998532, 9.99976 
1.23501845e+3, 1.3491075e+2, -1715228.4, -1716638.0, 46672.18, -0.20637523, -0.025593253, -1669255.6, -51386.582, 0.0017411282, 9.999512, 9.999546 
1.2350192e+3, 1.4491059e+2, -1517197.4, -1492254.9, -4633.627, -0.16308218, -0.025549809, -1491421.9, 28450.463, 0.0006337289, 9.999855, 10.000224 
1.2350189e+3, 1.5491071e+2, -1430302.6, -1394167.5, 9431.273, -0.05443096, -0.07533846, -1391854.0, 30012.768, 0.00010392506, 9.999775, 10.000258 
1.2350185e+3, 1.649104e+2, -1409229.9, -1513097.3, 63708.7, -0.029504107, -0.047049128, -1378969.3, -55099.426, 0.0000017603737, 9.999999, 9.998675 
1.2350185e+3, 1.7490934e+2, -1222462.8, -1365817.5, 77940.58, -0.059546776, -0.058712535, -1188251.6, 37632.977, 0.0, 10.000585, 9.998727 
1.23501845e+3, 1.8490872e+2, -1065392.6, -1167878.9, 21817.377, -0.04823679, -0.01751264, -1060941.4, 66950.53, 0.0, 10.000684, 9.999364 
1.2350181e+3, 1.9490832e+2, -1011743.56, -1082046.0, 38413.293, -0.005735503, -0.03276087, -994825.7, 35068.266, 0.0, 10.000342, 9.999444 
1.2350181e+3, 2.0490803e+2, -915486.0, -962309.1, 73573.29, 0.014350174, -0.008298965, -861689.2, 70205.4, 0.0, 10.000242, 9.999635 
1.2350183e+3, 2.1490756e+2, -789986.0, -842774.25, 118797.445, 0.010548291, -0.058316622, -694685.9, 139210.97, 0.0, 10.000398, 9.999706 
1.23501845e+3, 2.2490631e+2, -770563.3, -958981.5, 88602.94, 0.004615386, -0.06955699, -735444.0, 464.67355, 0.0, 10.000594, 9.998157 
1.23501845e+3, 2.3490396e+2, -644466.1, -843087.56, 67096.71, -0.004217892, -0.15504502, -623924.5, 14008.791, 0.0, 10.000768, 9.998197 
1.2350182e+3, 2.4490282e+2, -481018.72, -570311.3, 17968.781, 0.014233293, -0.14488268, -477538.44, 62405.043, 0.0, 10.0006075, 9.999466 
1.2350179e+3, 2.5490263e+2, -440018.1, -488500.28, 72860.15, 0.07284112, -0.1497485, -387472.25, 54469.09, 0.0, 10.000166, 9.999568 
1.2350175e+3, 2.6490167e+2, -427757.06, -549156.25, 78442.92, 0.06995161, -0.14244361, -389271.3, -45322.543, 0.00000016286783, 10.000125, 9.998482 
1.2350165e+3, 2.7489957e+2, -255995.47, -411074.97, 48251.945, -0.006524601, -0.23514009, -242207.98, 3761.3894, 0.000006622681, 10.000619, 9.998512 
1.23501524e+3, 2.8489837e+2, -128950.79, -284712.0, -33097.387, -0.05167062, -0.20971675, -122209.73, 25772.186, 0.000048750662, 10.000715, 9.998676 
1.23501405e+3, 2.9489776e+2, -78346.47, -206509.56, -4032.6577, -0.043524753, -0.18121962, -78219.7, -28230.709, 0.00018217463, 10.000359, 9.998718 
1.235015e+3, 3.048978e+2, -57444.117, -219090.86, 12719.358, 0.124189325, -0.019158175, -56449.402, -56449.402, 0.00045752534, 10.000435, 9.99824 
1.23501465e+3, 3.1489712e+2, 76961.3, 12038.324, -4796.103, 0.09761121, 0.042232107, 77313.695, 77313.695, 0.0008745043, 10.000553, 9.999775 
1.2450218e+3, 1.2491023e+2, -1754974.5, -1737985.6, -34366.715, 0.17873101, -0.2158258, -1711079.1, 4785.3413, 0.003475539, 9.999696, 9.999949 
1.2450185e+3, 1.349114e+2, -1800969.1, -1773693.3, 66126.23, -0.124004126, -0.07004335, -1719813.3, -101953.15, 0.0019075654, 9.998987, 9.999411 
1.2450183e+3, 1.4491145e+2, -1643633.8, -1534690.3, 68850.1, -0.17247665, -0.051942497, -1501369.5, 18491.406, 0.0007030745, 9.998911, 10.000382 
1.2450194e+3, 1.5491144e+2, -1410541.4, -1373257.3, 4450.9653, 0.024547994, -0.13087855, -1372733.3, 49122.656, 0.00011956255, 9.999843, 10.000374 
1.2450194e+3, 1.6491126e+2, -1389264.6, -1470671.6, 70337.555, 0.068776354, -0.109316185, -1348702.3, -24844.785, 0.0000023468863, 10.000009, 9.998954 
1.2450189e+3, 1.749107e+2, -1355904.6, -1395304.6, 78597.625, -0.016457617, -0.09832137, -1294575.8, -68708.05, 0.0, 9.999538, 9.99902 
1.24501854e+3, 1.849101e+2, -1257060.3, -1285378.1, 56930.402, -0.035410143, -0.05718681, -1212554.5, -84679.63, 0.0, 9.999484, 9.999128 
1.2450182e+3, 1.9490916e+2, -1096690.1, -1152757.6, 25627.98, 0.0026256614, -0.104769446, -1086741.1, -56858.68, 0.0, 9.999881, 9.99918 
1.2450182e+3, 2.0490873e+2, -920154.7, -981812.56, 60906.68, 0.013609025, -0.073634624, -882719.06, 49166.223, 0.0, 10.000279, 9.999483 
1.2450187e+3, 2.1490856e+2, -763889.7, -845168.7, 7445.9043, 0.0040805936, -0.07938912, -763213.25, 70672.766, 0.0, 10.000633, 9.999577 
1.2450189e+3, 2.2490764e+2, -767237.2, -914943.56, 6570.333, 0.0058415, -0.07038643, -766945.44, -31050.883, 0.0, 10.0004635, 9.998507 
1.2450188e+3, 2.349056e+2, -762667.75, -855524.25, 53436.74, 0.015905645, -0.16161413, -738307.06, -100392.39, 0.0, 9.99979, 9.998567 
1.2450187e+3, 2.4490453e+2, -591857.4, -620518.9, 68348.125, 0.050161425, -0.1631857, -536353.8, 3569.3232, 0.0, 9.9998455, 9.99948 
1.2450187e+3, 2.549042e+2, -372885.88, -451858.56, 13271.157, 0.11081296, -0.1814836, -370715.34, 71206.484, 0.0, 10.000628, 9.999582 
1.2450182e+3, 2.6490304e+2, -330130.56, -547268.25, 38411.473, 0.103503406, -0.17655234, -323535.88, 20396.389, 0.000000050542315, 10.000963, 9.998098 
1.24501735e+3, 2.749007e+2, -261037.1, -463161.16, 38491.56, 0.016981766, -0.25575876, -253955.08, -7996.9814, 0.0000061370592, 10.000763, 9.998105 
1.2450161e+3, 2.8489944e+2, -118370.0, -263367.84, 12690.914, -0.03443288, -0.2176808, -117267.61, 30703.873, 0.000049451548, 10.000731, 9.998811 
1.2450147e+3, 2.9489908e+2, 5237.6323, -141765.61, -3870.6707, -0.03366754, -0.18054436, 5339.4785, 55314.438, 0.00018750013, 10.000857, 9.998908 
1.2450155e+3, 3.0489942e+2, 4186.3594, -209728.69, 74754.82, 0.12655523, 0.0082384255, 27720.96, 27720.96, 0.000470274, 10.000906, 9.998098 
1.2450155e+3, 3.1489822e+2, 62020.742, -60893.61, 28002.707, 0.13732256, 0.03851423, 68099.75, 68099.75, 0.0008943994, 10.000712, 9.99921 
1.25502e+3, 1.24911554e+2, -1688463.5, -1620005.3, -36409.496, -0.041651938, -0.1909402, -1604261.5, 111592.31, 0.0037739007, 9.999766, 10.000733 
1.2550192e+3, 1.3491206e+2, -1759061.9, -1693379.0, 50969.27, 0.02851543, -0.16897859, -1665586.9, -47737.9, 0.0020822603, 9.999012, 9.999952 
1.2550181e+3, 1.4491272e+2, -1667560.0, -1589485.5, 85547.57, -0.13630034, -0.095970176, -1534489.3, -14647.714, 0.0007764397, 9.998929, 9.999996 
1.2550202e+3, 1.5491173e+2, -1436067.5, -1427787.5, 54922.01, 0.07368835, -0.23669183, -1376849.8, 44999.19, 0.00013646827, 9.99985, 9.999993 
1.2550202e+3, 1.6491173e+2, -1350324.9, -1394736.8, 32390.648, 0.11248413, -0.20158456, -1333259.3, -9409.865, 0.0000030208696, 10.000022, 9.999473 
1.2550189e+3, 1.7491272e+2, -1318191.6, -1314725.5, 73424.63, -0.018378465, -0.09057426, -1243013.5, -17170.35, 0.0, 9.999522, 9.999582 
1.255018e+3, 1.8491203e+2, -1291480.8, -1347896.3, 53437.758, -0.076933116, -0.06944394, -1259262.8, -131412.3, 0.0, 9.99944, 9.998725 
1.2550178e+3, 1.9490921e+2, -1137761.5, -1219519.0, 55930.06, -0.05846566, -0.26154563, -1109363.6, -79487.96, 0.0, 9.999796, 9.998764 
1.2550181e+3, 2.0490803e+2, -1016540.2, -1143163.3, 58088.16, -0.060789015, -0.23259476, -993929.75, -62040.824, 0.0, 10.000114, 9.998459 
1.2550187e+3, 2.1490835e+2, -868196.06, -1011885.0, 36722.586, -0.08709828, -0.085252896, -859354.9, -25462.912, 0.0, 10.00042, 9.998541 
1.255019e+3, 2.2490855e+2, -683148.75, -686781.2, -34478.52, -0.056748655, 0.0059568207, -650438.6, 85451.23, 0.0, 10.000235, 10.000181 
1.2550192e+3, 2.3490833e+2, -671179.25, -622540.4, 44201.883, 0.043814685, -0.073085904, -596409.44, 41475.906, 0.0, 9.999602, 10.0002575 
1.2550189e+3, 2.449074e+2, -688121.06, -774800.1, 81192.555, 0.054549437, -0.1003121, -639425.0, -99534.016, 0.0, 9.999649, 9.998516 
1.2550181e+3, 2.549054e+2, -473079.38, -618684.44, 58715.168, -0.030776555, -0.18740065, -452352.88, -10442.561, 0.0, 10.000444, 9.9985285 
1.255018e+3, 2.649042e+2, -329497.0, -500068.1, 14978.605, -0.055045705, -0.1515264, -328191.66, 15731.533, 0.00000007625481, 10.000767, 9.998516 
1.2550181e+3, 2.7490363e+2, -252895.61, -407604.3, 50964.72, -0.012008331, -0.09820967, -237615.75, 8315.88, 0.0000061507535, 10.000595, 9.998569 
1.2550174e+3, 2.849024e+2, -140418.72, -275506.4, 4582.2383, -0.010285647, -0.08196265, -140263.47, 7679.6255, 0.000051588533, 10.000588, 9.998792 
1.2550157e+3, 2.9490012e+2, -15743.636, -154900.92, 20930.627, -0.03761972, -0.23897502, -12663.634, 37297.848, 0.00020006, 10.000729, 9.998876 
1.2550162e+3, 3.048995e+2, 13305.205, -166805.97, 55990.516, 0.07095097, -0.15943824, 29291.81, 29291.81, 0.00050364254, 10.0008, 9.99844 
1.2550148e+3, 3.1489843e+2, 4137.7686, -123105.695, 56387.055, -0.058734544, -0.1605072, 25529.121, 25529.121, 0.00095308194, 10.000461, 9.998904 
1.2650181e+3, 1.2491231e+2, -1922482.6, -1707943.3, 23343.912, -0.099876, -0.12505034, -1705432.6, 10416.929, 0.004085261, 9.998075, 10.000956 
1.2650198e+3, 1.3491236e+2, -1584906.5, -1539836.0, -29166.135, 0.14589879, -0.19346343, -1525513.4, 92331.38, 0.0022650692, 9.999947, 10.0005455 
1.2650187e+3, 1.4491321e+2, -1503316.3, -1528091.8, 30476.111, -0.012544041, -0.12424264, -1482806.5, 37027.484, 0.00085386867, 10.0001335, 9.999844 
1.2650193e+3, 1.549124e+2, -1568751.5, -1505695.9, -19185.043, 0.053760495, -0.22711971, -1500317.5, -78476.38, 0.00015477135, 9.999018, 9.999859 
1.2650192e+3, 1.6491249e+2, -1528304.6, -1461485.0, -544.71735, 0.07755882, -0.18575236, -1461480.5, -137638.97, 0.0000038088367, 9.99873, 9.999628 
1.2650187e+3, 1.7491332e+2, -1309133.9, -1296940.5, -22388.99, 0.024211071, -0.104053065, -1279833.0, -53996.617, 0.0, 9.999525, 9.999706 
1.2650184e+3, 1.8491277e+2, -1140406.1, -1253493.0, 13870.167, -0.014562853, -0.08584402, -1138729.9, -10887.893, 0.0, 10.000383, 9.998917 
1.2650184e+3, 1.9491042e+2, -901379.75, -1080643.3, 25810.443, -0.039450396, -0.24836694, -897737.56, 132124.39, 0.0, 10.001328, 9.998972 
1.2650187e+3, 2.0490924e+2, -868077.5, -1095302.6, 73667.78, -0.055959653, -0.22038144, -846284.2, 85591.1, 0.0, 10.001236, 9.998242 
1.2650189e+3, 2.1490897e+2, -938013.8, -1069771.4, 79527.04, -0.07422643, -0.1112718, -900623.25, -66738.516, 0.0, 10.000042, 9.998319 
1.2650192e+3, 2.2490905e+2, -735014.2, -698305.44, 32591.527, -0.02631629, -0.026115274, -679255.4, 56628.5, 0.0, 9.999797, 10.000326 
1.2650196e+3, 2.3490933e+2, -531027.2, -536961.3, -33462.44, 0.10151735, -0.07036534, -500400.53, 137473.92, 0.0, 10.000471, 10.000436 
1.2650196e+3, 2.4490845e+2, -539530.75, -720759.0, 15125.792, 0.12618506, -0.09629516, -538276.94, 1603.1786, 0.0, 10.000728, 9.998379 
1.2650195e+3, 2.5490603e+2, -464457.9, -631772.4, 28990.518, 0.045249466, -0.20876163, -459577.13, -17672.693, 0.0, 10.000561, 9.998396 
1.2650187e+3, 2.64905e+2, -371205.34, -482128.72, 27327.865, -0.013314674, -0.16428742, -364838.16, -20922.324, 0.00000015326442, 10.000328, 9.998849 
1.265018e+3, 2.7490515e+2, -310761.94, -391866.8, 15698.016, -0.049850054, -0.07233289, -307829.6, -61912.906, 0.0000068361555, 10.000022, 9.998941 
1.2650174e+3, 2.8490415e+2, -188191.5, -303603.97, 24980.896, -0.034124468, -0.05199203, -183016.47, -35090.766, 0.000055437977, 10.000268, 9.998762 
1.2650177e+3, 2.949016e+2, 60617.145, -125032.66, 6935.589, 0.05576708, -0.22774404, 60875.887, 110822.57, 0.00021969865, 10.001261, 9.998837 
1.2650178e+3, 3.0490038e+2, 113176.45, -64310.64, 27902.488, 0.13989873, -0.22851019, 117459.59, 117459.59, 0.00055763713, 10.001281, 9.9989 
1.2650147e+3, 3.148994e+2, -69217.64, -149366.3, -40300.902, -0.09390105, -0.2599217, -52457.87, -52457.87, 0.0010544788, 9.999947, 9.9989605 
1.275017e+3, 1.24912366e+2, -1935557.1, -1750537.0, 137641.9, -0.10982844, -0.027988387, -1677205.6, 38647.145, 0.0044096503, 9.998142, 10.000624 
1.2750193e+3, 1.349124e+2, -1552205.6, -1474496.5, 46650.63, 0.07947517, -0.14424603, -1452639.0, 165207.28, 0.0024558255, 9.999946, 10.0009985 
1.2750198e+3, 1.4491296e+2, -1486830.0, -1507261.9, -30489.682, 0.026923677, -0.13561776, -1464890.3, 54947.438, 0.00093550276, 10.000185, 9.999962 
1.2750165e+3, 1.5491362e+2, -1559019.3, -1493522.9, -45733.387, -0.15408294, -0.104631, -1470021.8, -48190.484, 0.00017466526, 9.999045, 9.999931 
1.2750159e+3, 1.6491352e+2, -1537269.0, -1493199.4, 10997.1875, -0.16475357, -0.073456906, -1490607.5, -166773.63, 0.0000047674703, 9.998777, 9.999391 
1.2750182e+3, 1.749125e+2, -1326247.5, -1333595.4, 23045.773, -0.011259815, -0.15476261, -1306584.6, -80737.3, 0.0, 9.999522, 9.999456 
1.2750193e+3, 1.8491234e+2, -1100981.6, -1156586.6, 34726.496, 0.017207313, -0.11707807, -1084299.3, 43549.742, 0.0, 10.000321, 9.999609 
1.2750198e+3, 1.9491278e+2, -865215.75, -983565.06, 77314.76, -0.07063199, -0.07341624, -827029.2, 202811.9, 0.0, 10.001233, 9.999683 
1.2750196e+3, 2.0491226e+2, -849021.3, -1021315.8, 11077.523, -0.10520283, -0.046099138, -848312.0, 83533.1, 0.0, 10.001087, 9.998822 
1.2750192e+3, 2.1491042e+2, -928542.44, -1001552.94, 47960.457, -0.08053216, -0.15224484, -904774.7, -70910.195, 0.0, 9.999831, 9.998889 
1.2750193e+3, 2.2490929e+2, -860087.25, -904259.6, 41460.23, -0.023856666, -0.15376858, -835197.4, -99321.47, 0.0, 9.999573, 9.999016 
1.2750201e+3, 2.3490858e+2, -657564.8, -748694.1, 7839.933, 0.064005695, -0.16341656, -656895.25, -19012.88, 0.0, 10.000256, 9.999083 
1.2750207e+3, 2.449076e+2, -527499.44, -641025.3, -4335.852, 0.13602091, -0.15889026, -527334.1, 12556.909, 0.0, 10.0005, 9.999032 
1.2750217e+3, 2.5490618e+2, -443648.06, -538579.06, 41437.902, 0.20092142, -0.247638, -428105.03, 13798.457, 0.0, 10.00035, 9.999134 
1.2750204e+3, 2.6490554e+2, -388126.7, -471787.2, 2200.5845, 0.08675186, -0.21054447, -388068.84, -44159.523, 0.00000020123079, 10.000135, 9.999011 
1.2750165e+3, 2.7490532e+2, -330086.75, -386727.78, 23198.744, -0.2244782, -0.17438404, -321798.1, -75885.21, 0.0000077157165, 9.999835, 9.9990635 
1.275016e+3, 2.849047e+2, -213084.23, -325316.8, 45047.934, -0.2337178, -0.11568813, -197239.75, -49320.36, 0.000060411407, 10.000135, 9.998675 
1.2750195e+3, 2.9490358e+2, 27662.604, -147637.33, 67807.766, 0.08772891, -0.14709012, 50829.65, 100759.87, 0.00024271311, 10.00107, 9.998771 
1.2750201e+3, 3.0490205e+2, 116168.21, -27928.395, -29677.613, 0.19130997, -0.188071, 122041.14, 122041.14, 0.00062258844, 10.001147, 9.999216 
1.275014e+3, 3.1490177e+2, -104315.52, -145345.13, -54589.477, -0.21917002, -0.19159712, -66513.36, -66513.36, 0.0011836756, 9.999641, 9.999124 
1.2850168e+3, 1.2491226e+2, -1852933.6, -1729810.0, 212858.84, 0.046186686, 0.02775306, -1569789.5, 146065.25, 0.0047468157, 9.9987545, 10.000477 
1.2850179e+3, 1.3491201e+2, -1748796.6, -1562084.3, 49566.87, 0.03604785, -0.12357085, -1549741.5, 68109.195, 0.0026545508, 9.998537, 10.001073 
1.28502e+3, 1.4491202e+2, -1699041.6, -1562132.8, -32082.74, 0.12711713, -0.19952026, -1554987.5, -35140.234, 0.0010215283, 9.998551, 10.000367 
1.285016e+3, 1.5491356e+2, -1464484.0, -1396546.1, -58611.64, -0.12016559, -0.11798044, -1362771.4, 59060.04, 0.00019628371, 9.999487, 10.000379 
1.2850153e+3, 1.6491379e+2, -1371162.4, -1414703.4, 70227.36, -0.14166398, -0.07610694, -1319408.5, 4421.768, 0.0000059623408, 9.999909, 9.999397 
1.2850182e+3, 1.7491256e+2, -1281270.1, -1307679.0, 67095.6, 0.034060583, -0.1774694, -1226092.0, -246.72057, 0.0, 9.999811, 9.999498 
1.28502e+3, 1.8491243e+2, -1188785.5, -1197133.1, 101922.31, 0.074543215, -0.1384117, -1090951.6, 36895.83, 0.0, 9.999726, 9.999614 
1.2850207e+3, 1.949131e+2, -1067227.6, -1080330.8, 58957.08, -0.024074087, -0.0716081, -1014459.2, 15380.284, 0.0, 9.999856, 9.999682 
1.2850206e+3, 2.0491292e+2, -985517.6, -1011861.56, -47037.11, -0.055279877, -0.041089244, -949843.0, -18003.578, 0.0, 9.999827, 9.999496 
1.2850194e+3, 2.1491158e+2, -910166.0, -911988.1, -32508.65, -0.016324613, -0.16460297, -878555.7, -44705.598, 0.0, 9.999621, 9.999604 
1.2850194e+3, 2.2491036e+2, -878345.44, -954791.94, 71808.71, 0.03872926, -0.1915307, -835220.6, -99358.96, 0.0, 9.999632, 9.99864 
1.2850204e+3, 2.3490901e+2, -745482.25, -831503.8, 74795.92, 0.10875926, -0.2271539, -702212.4, -64335.168, 0.0, 9.99984, 9.99871 
1.2850213e+3, 2.4490826e+2, -555334.4, -598758.94, 110063.03, 0.17505772, -0.20638165, -464862.47, 75022.18, 0.0, 10.00007, 9.999525 
1.2850223e+3, 2.5490794e+2, -420468.1, -470213.03, 103653.17, 0.2437347, -0.23390014, -338744.97, 103140.81, 0.0, 10.000272, 9.999634 
1.2850213e+3, 2.649075e+2, -296157.1, -423539.75, 88812.945, 0.13994448, -0.20552409, -250558.33, 93330.72, 0.00000014147287, 10.0007305, 9.999064 
1.2850179e+3, 2.749066e+2, -79595.09, -261033.6, 69226.695, -0.14781635, -0.23977116, -56198.977, 189699.34, 0.000007879153, 10.001516, 9.999127 
1.2850173e+3, 2.8490612e+2, -69474.89, -270063.84, 101886.414, -0.17264916, -0.162666, -26801.451, 121102.58, 0.00006527563, 10.001186, 9.99855 
1.2850198e+3, 2.9490572e+2, -188278.23, -265252.3, 78920.44, 0.08988332, -0.10399919, -138960.45, -89051.05, 0.000269289, 9.999636, 9.998656 
1.2850204e+3, 3.0490357e+2, -31709.387, -115960.93, 35629.84, 0.17404187, -0.1994727, -18662.102, -18662.102, 0.0006978516, 10.000186, 9.999087 
1.2850161e+3, 3.1490338e+2, 361492.5, 71641.54, -94907.83, -0.107230075, -0.17692062, 389803.53, 389803.53, 0.0013320218, 10.002809, 9.999117 
1.2950155e+3, 1.2491212e+2, -1837139.1, -1690690.5, 16996.36, -0.027582416, 0.04001507, -1688743.9, 27110.3, 0.0050962004, 9.998739, 10.00075 
1.2950157e+3, 1.3491139e+2, -1782594.3, -1614235.6, 50598.742, -0.090185285, -0.13093342, -1600199.0, 17657.313, 0.0028611089, 9.998475, 10.000743 
1.2950192e+3, 1.4491041e+2, -1653658.3, -1468897.5, -19475.541, 0.15440077, -0.31251934, -1466866.9, 52995.117, 0.00111182, 9.998556, 10.001005 
1.2950173e+3, 1.5491234e+2, -1420966.1, -1302764.5, -5210.339, 0.028660594, -0.2594351, -1302535.4, 119305.17, 0.000219555, 9.999473, 10.001031 
1.2950172e+3, 1.6491342e+2, -1346369.5, -1366758.5, 47220.47, -0.00076601753, -0.18216857, -1308255.5, 15573.835, 0.0000074533, 9.999918, 9.999721 
1.2950183e+3, 1.749136e+2, -1263930.6, -1269933.8, 77261.664, 0.03491071, -0.17376456, -1189612.3, 36217.04, 0.0, 9.999798, 9.9997635 
1.2950195e+3, 1.8491311e+2, -1242886.9, -1307773.1, 89366.91, 0.021515176, -0.14772052, -1180256.4, -52419.754, 0.0, 9.999714, 9.998863 
1.2950209e+3, 1.9491147e+2, -1131513.1, -1197949.3, 78245.195, -0.018144542, -0.23757826, -1079726.8, -49870.625, 0.0, 9.999777, 9.998917 
1.2950209e+3, 2.0491129e+2, -955948.8, -911286.4, -71762.45, -0.030574588, -0.20674625, -858460.9, 73396.695, 0.0, 9.999664, 10.000261 
1.2950194e+3, 2.1491238e+2, -886195.4, -812693.1, -27319.479, -0.012771669, -0.16484757, -803651.25, 30191.082, 0.0, 9.999412, 10.000382 
1.2950192e+3, 2.2491226e+2, -877761.44, -896385.25, 64658.9, 0.02872902, -0.14898327, -821747.4, -85905.516, 0.0, 9.999388, 9.999158 
1.2950204e+3, 2.3491062e+2, -740266.0, -770674.9, 102114.555, 0.102319695, -0.26507443, -652230.2, -14371.214, 0.0, 9.99962, 9.999235 
1.295021e+3, 2.4491039e+2, -578517.5, -579941.25, 101610.86, 0.10823395, -0.23229632, -477616.03, 62245.348, 0.0, 9.999798, 9.999778 
1.295021e+3, 2.5491124e+2, -439510.5, -450388.5, 128136.8, 0.049969584, -0.1671909, -316697.34, 125154.79, 0.0, 10.000034, 9.999877 
1.2950212e+3, 2.6491085e+2, -325270.22, -447714.94, 101073.95, 0.028076539, -0.14233206, -268322.7, 75532.69, 0.000000052302592, 10.000565, 9.998983 
1.2950215e+3, 2.7490908e+2, -114003.06, -282997.5, 116451.836, 0.041031506, -0.2555008, -54622.516, 191249.69, 0.000007172051, 10.001304, 9.99908 
1.2950206e+3, 2.8490844e+2, -115435.75, -316891.44, 29269.059, 0.0014055303, -0.18349019, -111269.48, 36609.85, 0.00006969282, 10.000975, 9.998328 
1.295018e+3, 2.9490834e+2, -237856.97, -319253.5, 44269.582, -0.08634907, -0.07707348, -218420.84, -168538.34, 0.0003009035, 9.9994335, 9.998378 
1.2950185e+3, 3.0490506e+2, -90650.95, -219364.77, 119855.23, -0.04819416, -0.23464473, -18967.104, -18967.104, 0.0007869178, 10.000093, 9.998428 
1.2950206e+3, 3.149046e+2, 312512.9, 39162.715, 45369.39, -0.009414235, -0.18212223, 319846.34, 319846.34, 0.0015023105, 10.002517, 9.999033 
1.305016e+3, 1.2491209e+2, -1697751.0, -1619162.6, 41483.176, 0.10957638, -0.031387053, -1601317.6, 114532.6, 0.0054552136, 9.999685, 10.000784 
1.3050152e+3, 1.3491155e+2, -1671455.4, -1609958.9, 75023.016, -0.0023854082, -0.13796017, -1559627.5, 58225.727, 0.003073975, 9.999462, 10.000292 
1.3050184e+3, 1.4491071e+2, -1596597.0, -1441470.0, 47134.305, 0.19586648, -0.2845411, -1428271.5, 91587.45, 0.0012055306, 9.998925, 10.00102 
1.3050175e+3, 1.5491226e+2, -1518171.9, -1344455.4, -15495.39, 0.14247262, -0.27532536, -1343084.0, 78757.414, 0.000244213, 9.998767, 10.001087 
1.3050178e+3, 1.649134e+2, -1436695.0, -1388132.0, 52426.617, 0.115438335, -0.20251855, -1354636.8, -30807.367, 0.000009295233, 9.999243, 9.999885 
1.3050187e+3, 1.7491405e+2, -1125604.6, -1178713.0, 36344.918, 0.048148423, -0.1631003, -1107146.9, 118677.15, 0.0, 10.000679, 9.99995 
1.3050196e+3, 1.849138e+2, -1086303.6, -1223010.3, 58020.41, 0.015081307, -0.1262641, -1064999.0, 62830.14, 0.0, 10.0007305, 9.998965 
1.3050209e+3, 1.949123e+2, -1197401.0, -1213472.6, 80350.484, 0.03322801, -0.21396881, -1124685.5, -94836.805, 0.0, 9.999255, 9.999063 
1.3050209e+3, 2.0491219e+2, -1051199.9, -952396.2, 9326.555, 0.043643523, -0.18367662, -951523.5, -19673.445, 0.0, 9.998979, 10.000317 
1.3050196e+3, 2.1491334e+2, -805685.4, -767414.1, -32628.969, 0.041943073, -0.14283133, -748723.56, 85111.31, 0.0, 9.999935, 10.000447 
1.3050194e+3, 2.2491343e+2, -706237.2, -791140.2, 41122.996, 0.0722608, -0.11677516, -689585.1, 46247.24, 0.0, 10.000459, 9.999361 
1.3050207e+3, 2.3491222e+2, -603202.06, -679354.75, 20801.492, 0.14207931, -0.21557148, -597890.5, 39954.94, 0.0, 10.000451, 9.9994545 
1.305021e+3, 2.4491219e+2, -512139.72, -552886.6, 23094.893, 0.113437615, -0.17414595, -501716.22, 38129.906, 0.0, 10.000246, 9.999758 
1.3050202e+3, 2.5491306e+2, -466190.66, -469259.8, 1302.8324, -0.0146653615, -0.10459383, -465712.2, -23875.03, 0.0, 9.9998455, 9.999853 
1.3050209e+3, 2.649127e+2, -411213.9, -478975.75, 29916.793, -0.011400896, -0.081152044, -399896.03, -56055.79, 0.000000026393016, 9.999933, 9.999074 
1.3050231e+3, 2.7491078e+2, -215946.75, -327999.0, 19055.111, 0.12027675, -0.2163227, -212794.97, 33063.176, 0.0000066700077, 10.000565, 9.999137 
1.3050227e+3, 2.849099e+2, -46569.547, -306558.5, -54739.78, 0.1045843, -0.15708809, -35514.36, 112352.81, 0.00007506801, 10.001553, 9.998112 
1.3050194e+3, 2.949097e+2, 269446.56, -101516.0, -78652.57, -0.058768593, -0.040968083, 285433.72, 335305.53, 0.00033561388, 10.003029, 9.9981365 
1.3050197e+3, 3.0490607e+2, 244132.55, -85782.62, 49488.832, -0.06544096, -0.20616521, 251396.19, 251396.19, 0.00088381814, 10.002525, 9.99817 
1.3050227e+3, 3.149056e+2, -40730.33, -91313.09, -60565.414, 0.093909614, -0.1252143, -387.7008, -387.7008, 0.0016890818, 9.999908, 9.999399 
1.315015e+3, 1.249122e+2, -1709048.1, -1655829.1, -14257.239, -0.036969084, -0.20404245, -1652250.4, 63592.715, 0.005819013, 9.99973, 10.000514 
1.3150169e+3, 1.3491252e+2, -1718688.6, -1711694.4, 76639.164, 0.17092182, -0.1517497, -1638472.5, -20631.549, 0.0032902497, 9.99947, 9.999594 
1.3150166e+3, 1.4491293e+2, -1626438.1, -1506504.6, 13395.018, 0.0849324, -0.116190925, -1505026.9, 14810.863, 0.0013013786, 9.998948, 10.000561 
1.3150163e+3, 1.5491347e+2, -1557729.5, -1420182.8, -10741.26, 0.1032632, -0.15945333, -1419349.0, 2483.7595, 0.00026992275, 9.99874, 10.000584 
1.315017e+3, 1.6491379e+2, -1437754.9, -1401007.8, 86994.66, 0.08493557, -0.13844974, -1330467.5, -6637.504, 0.00001153221, 9.999273, 9.999788 
1.3150188e+3, 1.7491378e+2, -1128716.0, -1187652.1, 104315.086, -0.037391506, -0.16024417, -1049786.6, 176044.02, 0.0, 10.000677, 9.999895 
1.3150197e+3, 1.8491441e+2, -1024687.6, -1078135.8, -14717.687, -0.072249725, -0.08264233, -1020902.94, 106922.94, 0.0, 10.000665, 9.999987 
1.31502e+3, 1.9491547e+2, -1140708.0, -1072844.3, 36228.926, 0.0017002857, -0.017024538, -1057138.4, -27320.201, 0.0, 9.999158, 10.000074 
1.31502e+3, 2.049156e+2, -1119220.0, -1058195.3, 30721.607, 0.037535056, 0.018402115, -1045408.4, -113590.95, 0.0, 9.99883, 9.999661 
1.3150197e+3, 2.1491447e+2, -881197.44, -885538.94, 21092.607, 0.032596216, -0.1000232, -862164.2, -28336.908, 0.0, 9.999758, 9.999726 
1.3150199e+3, 2.249139e+2, -748354.06, -821177.3, 26692.158, 0.042832524, -0.100488134, -739618.4, -3784.9915, 0.0, 10.000223, 9.999264 
1.315021e+3, 2.3491363e+2, -644590.7, -712858.94, 38729.367, 0.095015734, -0.092646025, -627100.2, 10737.899, 0.0, 10.000228, 9.999332 
1.3150209e+3, 2.4491356e+2, -564906.5, -604326.3, -7867.052, 0.053581968, -0.035159525, -563394.5, -23554.854, 0.0, 10.0, 9.999523 
1.3150196e+3, 2.5491354e+2, -516275.63, -519138.75, 2974.4822, -0.08627648, -0.03196096, -514406.16, -72566.93, 0.0, 9.999614, 9.999622 
1.31502e+3, 2.6491305e+2, -427912.4, -464633.3, 38147.832, -0.1181268, -0.020121446, -403936.53, -60093.29, 0.000000066602475, 9.999726, 9.999269 
1.3150224e+3, 2.7491167e+2, -235860.83, -314918.88, 64807.01, -0.043650147, -0.120361894, -199478.77, 46376.64, 0.0000067822207, 10.000349, 9.999323 
1.3150236e+3, 2.8491077e+2, -82283.44, -356004.84, -12936.354, 0.0060922406, -0.063486174, -81673.414, 66191.76, 0.000081610815, 10.001427, 9.997845 
1.3150238e+3, 2.949099e+2, 217772.9, -157290.11, -221.16621, 0.029976599, 0.0093038315, 217773.05, 267649.22, 0.0003694415, 10.002797, 9.997873 
1.3150229e+3, 3.0490664e+2, 216879.5, -99554.66, -56711.867, -0.02262062, -0.10332548, 226736.45, 226736.45, 0.0009768684, 10.002348, 9.998156 
1.3150217e+3, 3.1490618e+2, -35497.586, 1490.1055, -101833.67, -0.06731861, -0.022626635, 86495.625, 86495.625, 0.001869303, 9.999578, 10.000189 
1.325015e+3, 1.2491179e+2, -1831755.9, -1732964.4, -31250.906, 0.055829488, -0.27754462, -1723908.9, -8063.5635, 0.006183249, 9.998921, 10.000393 
1.3250168e+3, 1.3491267e+2, -1760139.9, -1728414.5, -12032.199, 0.24873358, -0.16572109, -1724367.5, -106528.56, 0.0035072896, 9.999178, 9.999613 
1.3250151e+3, 1.4491369e+2, -1657930.4, -1592968.5, -10650.376, 0.051748876, -0.040338952, -1591266.9, -71435.43, 0.0013982238, 9.999043, 9.999916 
1.3250151e+3, 1.549134e+2, -1507444.4, -1463898.6, -74000.02, 0.097070605, -0.10296217, -1408534.9, 13301.87, 0.00029637254, 9.999388, 9.999963 
1.3250166e+3, 1.649133e+2, -1389923.8, -1337644.8, 89796.1, 0.108481795, -0.111223854, -1270260.9, 53577.723, 0.000014169166, 9.999432, 10.00014 
1.3250189e+3, 1.7491324e+2, -1316894.6, -1243997.1, 106380.836, -0.016271576, -0.17106177, -1167994.1, 57844.176, 0.0, 9.999225, 10.000212 
1.3250197e+3, 1.849142e+2, -1213695.5, -1121187.0, -37016.1, -0.04752782, -0.09779743, -1108198.9, 19629.916, 0.0, 9.999165, 10.000414 
1.3250196e+3, 1.9491597e+2, -1077704.1, -995469.56, -63204.91, 0.040470947, -0.002487947, -961184.6, 68627.94, 0.0, 9.999385, 10.000497 
1.3250196e+3, 2.0491624e+2, -1024142.4, -1024013.94, -1153.6869, 0.0867705, 0.030004034, -1022922.7, -91112.27, 0.0, 9.99955, 9.999538 
1.3250196e+3, 2.1491472e+2, -902130.8, -903465.94, 3120.9133, 0.07796014, -0.116794415, -899606.9, -65781.33, 0.0, 9.999676, 9.999629 
1.32502e+3, 2.2491422e+2, -827550.2, -848951.2, 45058.957, 0.07975707, -0.10639349, -791938.6, -56107.156, 0.0, 9.999637, 9.999362 
1.325021e+3, 2.3491465e+2, -753251.1, -745859.44, 41741.25, 0.11726417, -0.04160662, -707650.75, -69820.98, 0.0, 9.999413, 9.999496 
1.325021e+3, 2.4491452e+2, -619542.44, -649554.94, 53442.617, 0.079848856, 0.009790353, -579039.2, -39207.844, 0.0, 9.999708, 9.9993515 
1.32502e+3, 2.5491354e+2, -394236.0, -477454.78, 35886.72, -0.04243889, -0.064041175, -380898.16, 60940.824, 0.0, 10.00053, 9.999462 
1.3250205e+3, 2.649127e+2, -264465.22, -422930.4, 90664.78, -0.09671337, -0.0631761, -223290.55, 120556.36, 0.0000000978673, 10.001014, 9.998929 
1.3250226e+3, 2.7491158e+2, -135567.73, -303371.28, 40516.41, -0.08450993, -0.103698745, -126297.16, 119561.586, 0.000006920427, 10.001192, 9.998995 
1.3250245e+3, 2.8491086e+2, -109246.445, -292932.25, 14372.937, -0.016497675, -0.044867955, -108128.6, 39737.656, 0.000086783395, 10.000949, 9.998498 
1.325026e+3, 2.9491016e+2, -79035.32, -225592.56, 49319.57, 0.10902229, -0.0139679955, -63984.01, -14111.65, 0.00039501933, 10.000456, 9.998526 
1.3250251e+3, 3.0490738e+2, 9565.66, -246821.55, 24763.436, 0.045627043, -0.09375469, 11935.557, 11935.557, 0.0010501491, 10.001144, 9.997717 
1.3250233e+3, 3.1490612e+2, 444966.6, 232415.98, -107912.984, -0.0056898906, -0.04492529, 490149.7, 490149.7, 0.0020132647, 10.002886, 10.000182 
1.3350156e+3, 1.249101e+2, -1816938.5, -1695991.4, 81430.52, 0.15483414, -0.32227242, -1655035.3, 60828.895, 0.0065457188, 9.998903, 10.000651 
1.3350147e+3, 1.3491201e+2, -1712599.0, -1625229.9, -6714.091, 0.096481316, -0.1825146, -1624717.0, -6870.459, 0.0037237175, 9.999158, 10.000329 
1.3350135e+3, 1.449128e+2, -1700334.8, -1692231.5, -20786.055, -0.052200124, -0.08138837, -1675105.9, -155264.3, 0.0014951822, 9.999076, 9.9992285 
1.335014e+3, 1.5491211e+2, -1555475.3, -1569401.6, -45056.73, -0.0007839253, -0.11061874, -1516846.8, -94993.91, 0.00032323142, 9.999397, 9.999242 
1.3350157e+3, 1.6491203e+2, -1343747.5, -1237318.1, 63339.816, 0.047810916, -0.114227705, -1207805.9, 116048.38, 0.000017128494, 9.999415, 10.000834 
1.3350184e+3, 1.7491253e+2, -1273737.6, -1143895.1, 111634.91, -0.011760358, -0.19360751, -1079676.5, 146169.64, 0.00000000003443261, 9.999183, 10.000916 
1.3350195e+3, 1.8491326e+2, -1230841.5, -1152803.5, -46465.875, -0.03734035, -0.16796738, -1131146.6, -3309.7102, 0.0, 9.999138, 10.0002165 
1.3350193e+3, 1.9491391e+2, -1103062.6, -1032691.1, -41026.305, 0.030358339, -0.16448864, -1013828.8, 16001.881, 0.0, 9.999304, 10.000288 
1.3350193e+3, 2.0491418e+2, -1015902.9, -971759.44, -13383.91, 0.066859126, -0.1434061, -968018.56, -36190.348, 0.0, 9.999399, 9.999972 
1.3350195e+3, 2.1491389e+2, -902622.56, -859982.44, 22831.309, 0.056470014, -0.20813414, -850064.5, -16233.147, 0.0, 9.999476, 10.000032 
1.3350196e+3, 2.2491431e+2, -833971.6, -811438.4, 25157.346, 0.051869247, -0.14657645, -795140.0, -59311.72, 0.0, 9.999418, 9.99972 
1.3350202e+3, 2.3491526e+2, -759959.44, -713245.8, 50954.113, 0.077337004, -0.06505985, -680550.3, -42729.895, 0.0, 9.9992075, 9.999819 
1.3350207e+3, 2.44915e+2, -656033.6, -675983.7, 68951.74, 0.050485257, -0.040294405, -596339.1, -56517.33, 0.0, 9.999504, 9.999261 
1.335021e+3, 2.549131e+2, -432405.3, -509650.6, 83406.19, -0.027056286, -0.1981526, -379113.3, 62723.01, 0.0, 10.000333, 9.999331 
1.335022e+3, 2.6491165e+2, -354242.72, -569679.8, 82249.24, -0.08644431, -0.20090592, -326431.84, 17419.193, 0.00000008871969, 10.00084, 9.998005 
1.3350235e+3, 2.7491045e+2, -231992.2, -448318.03, 66297.64, -0.13530727, -0.16559944, -213290.66, 32577.752, 0.000006673535, 10.000962, 9.998105 
1.3350248e+3, 2.8491014e+2, -34388.426, -94407.766, -23154.902, -0.10675331, -0.089488134, -26493.879, 121377.11, 0.00008871381, 10.000763, 9.999951 
1.335026e+3, 2.9491052e+2, -6971.2046, -27540.123, 52562.832, 0.020554226, -0.101261176, 36303.85, 86164.69, 0.00040769653, 10.00025, 9.999988 
1.3350259e+3, 3.049084e+2, -67183.414, -373066.44, 82666.33, -0.022430079, -0.14870982, -46272.035, -46272.035, 0.0010939079, 10.0009985, 9.996918 
1.3350269e+3, 3.14905e+2, 333791.16, 77523.13, 37474.676, 0.0046645952, -0.23557742, 339158.75, 339158.75, 0.0021064403, 10.002549, 9.999284 
1.3450153e+3, 1.24910414e+2, -1745481.4, -1680880.6, 169598.53, 0.21832743, -0.20877764, -1540534.0, 175331.69, 0.0069055543, 9.999499, 10.00046 
1.3450134e+3, 1.3491197e+2, -1562499.3, -1529083.0, -15987.22, 0.009789068, -0.12332287, -1522666.4, 95184.555, 0.0039389143, 10.000108, 10.000526 
1.3450141e+3, 1.4491233e+2, -1537611.0, -1586685.8, 5355.971, 0.056385882, -0.086824045, -1537033.3, -17184.457, 0.0015916337, 10.000084, 9.999467 
1.3450137e+3, 1.5491201e+2, -1444605.1, -1489984.5, 19459.943, 0.016121406, -0.10203264, -1437403.1, -15548.672, 0.0003501717, 10.000054, 9.99947 
1.3450153e+3, 1.6491215e+2, -1329079.8, -1270731.1, 138332.63, 0.048622817, -0.0762862, -1158529.9, 165324.16, 0.000020254476, 9.999682, 10.000482 
1.3450181e+3, 1.7491266e+2, -1333304.5, -1209007.6, 71527.055, 0.060304735, -0.11584298, -1176400.9, 49447.617, 0.0000000014653116, 9.998937, 10.0005865 
1.3450192e+3, 1.8491316e+2, -1247444.4, -1113352.3, -41546.477, 0.048804674, -0.12063816, -1101523.3, 26318.234, 0.0, 9.998819, 10.000637 
1.3450187e+3, 1.9491331e+2, -1050545.5, -955829.8, -18089.408, 0.048451282, -0.20982444, -952492.56, 77343.58, 0.0, 9.999455, 10.000734 
1.3450189e+3, 2.0491365e+2, -957491.2, -946953.44, 36077.203, 0.0761448, -0.20178673, -915762.44, 16069.085, 0.0, 9.999798, 9.999954 
1.3450195e+3, 2.1491404e+2, -849617.56, -829140.56, 4948.7915, 0.11941603, -0.20173588, -828007.25, 5821.9785, 0.0, 9.999813, 10.000074 
1.34502e+3, 2.2491458e+2, -762665.0, -775384.06, 6496.6416, 0.11642639, -0.13048545, -759933.3, -24108.725, 0.0, 9.999909, 9.99973 
1.34502e+3, 2.3491505e+2, -621222.7, -641790.06, -20095.377, 0.08390025, -0.09746206, -608932.5, 28887.379, 0.0, 10.000153, 9.99985 
1.3450207e+3, 2.4491438e+2, -549751.0, -667324.3, 25220.855, 0.059126034, -0.094670944, -544569.2, -4743.9805, 0.0, 10.0004225, 9.998888 
1.345022e+3, 2.5491226e+2, -404966.5, -533726.2, -11682.677, 0.043364257, -0.23679821, -403915.1, 37928.34, 0.0, 10.000697, 9.998995 
1.3450234e+3, 2.6491094e+2, -404298.25, -570282.6, 17307.002, -0.0054863826, -0.22053751, -402512.88, -58655.78, 0.000000062099474, 10.000404, 9.998212 
1.3450241e+3, 2.7491006e+2, -416150.97, -515893.2, 45725.363, -0.088933416, -0.17179756, -398361.63, -152491.64, 0.0000065347235, 9.999595, 9.998305 
1.3450254e+3, 2.8490952e+2, -182947.0, -176873.47, 5454.1553, -0.06357936, -0.12640132, -173667.66, -25793.365, 0.00008986311, 9.999757, 9.99988 
1.3450271e+3, 2.949094e+2, 93605.91, 23952.232, -76244.086, 0.079604365, -0.18180443, 142600.72, 192469.63, 0.00041362355, 10.000917, 10.00002 
1.3450274e+3, 3.0490777e+2, 27232.03, -291114.9, -8892.426, 0.014087652, -0.20048985, 27480.229, 27480.229, 0.0011143722, 10.001455, 9.9972725 
1.3450295e+3, 3.149045e+2, 148470.0, 3999.5625, -10811.859, 0.07823549, -0.31427965, 149274.66, 149274.66, 0.0021528488, 10.001208, 9.999408 
1.3550137e+3, 1.2491275e+2, -1788941.5, -1764435.5, 6653.582, 0.038391855, 0.03692178, -1762745.5, -46895.754, 0.0072628423, 9.999483, 9.999888 
1.3550125e+3, 1.3491265e+2, -1595700.8, -1589825.0, 14987.071, -0.12718953, 0.00022276331, -1577490.6, 40360.434, 0.004152666, 10.000084, 10.000118 
1.3550165e+3, 1.4491232e+2, -1470077.8, -1436812.6, -18508.3, 0.23166199, -0.059675314, -1428561.5, 91291.12, 0.0016872559, 10.000043, 10.000514 
1.3550141e+3, 1.5491302e+2, -1369102.8, -1333959.5, 34275.133, 0.017777253, -0.081119746, -1313014.3, 108827.6, 0.0003769789, 10.0000515, 10.000544 
1.3550146e+3, 1.6491355e+2, -1423816.3, -1467280.9, 90809.66, -0.015141736, -0.008883547, -1352174.6, -28335.838, 0.000023370363, 9.9996805, 9.999135 
1.3550177e+3, 1.7491353e+2, -1439807.9, -1418115.3, 56469.902, 0.09147084, 0.039243456, -1371459.5, -145612.7, 0.0000000068048798, 9.998882, 9.999179 
1.3550186e+3, 1.8491381e+2, -1187761.3, -968496.7, -35612.113, 0.080559395, 0.03343719, -962857.7, 164985.16, 0.0, 9.998737, 10.001666 
1.3550177e+3, 1.9491412e+2, -994447.44, -812984.9, 21333.605, -0.03003107, -0.1441666, -810510.5, 219318.72, 0.0, 9.999343, 10.001768 
1.355018e+3, 2.0491461e+2, -1011590.4, -1023506.56, 19090.023, -0.0109273335, -0.15190211, -997550.25, -65729.41, 0.0, 9.999646, 9.9995 
1.35502e+3, 2.1491505e+2, -915441.6, -915487.6, 17707.031, 0.14908518, -0.09949126, -897757.56, -63937.594, 0.0, 9.999593, 9.999589 
1.3550204e+3, 2.2491494e+2, -817835.4, -833173.2, -3696.1394, 0.15626898, -0.055867936, -816991.2, -81169.37, 0.0, 9.999667, 9.999449 
1.3550195e+3, 2.3491399e+2, -672550.0, -698688.3, 3545.6384, 0.011849584, -0.13681473, -672077.56, -34249.004, 0.0, 9.999941, 9.999561 
1.3550206e+3, 2.4491276e+2, -624738.6, -773654.7, 19560.84, -0.022837603, -0.14178099, -622212.06, -82371.39, 0.0, 10.000209, 9.998262 
1.3550231e+3, 2.5491104e+2, -480097.63, -638949.75, 15796.042, 0.044627283, -0.18471892, -478542.13, -36681.64, 0.0, 10.000481, 9.998378 
1.3550243e+3, 2.6491034e+2, -344222.2, -401498.38, -29176.912, 0.0213511, -0.13736106, -331977.13, 11890.079, 0.000000036385206, 10.000214, 9.999465 
1.355024e+3, 2.749103e+2, -363190.38, -353062.06, 35953.754, -0.081157744, -0.12475808, -321817.56, -75953.2, 0.0000068750182, 9.999374, 9.99953 
1.3550256e+3, 2.8490907e+2, -317208.44, -415655.13, 34064.39, -0.04630865, -0.1368869, -306570.94, -158695.92, 0.00009120505, 9.999584, 9.9983225 
1.3550287e+3, 2.9490647e+2, -51975.61, -225470.97, -9846.259, 0.123468876, -0.2806095, -51418.598, -1518.8479, 0.0004156126, 10.000683, 9.998424 
1.3550292e+3, 3.0490518e+2, 93903.2, -89363.1, -31798.916, 0.01854079, -0.25632125, 99263.89, 99263.89, 0.0011151334, 10.00121, 9.998767 
1.3550296e+3, 3.14904e+2, 151894.13, 103526.086, 45436.35, -0.0820617, -0.3137291, 179181.73, 179181.73, 0.0021524278, 10.000836, 10.000264 
1.3650128e+3, 1.24913834e+2, -1787568.3, -1720412.9, -14122.551, 0.033896398, 0.10635514, -1717563.8, -1721.2537, 0.0076198755, 9.999278, 10.000296 
1.3650128e+3, 1.3491322e+2, -1670765.4, -1620792.4, 86889.7, -0.052099533, 0.0056516696, -1555367.9, 62477.703, 0.004366158, 9.999506, 10.000197 
1.3650165e+3, 1.4491245e+2, -1551842.5, -1474904.4, 64201.727, 0.27041367, -0.10299799, -1438528.8, 81321.14, 0.0017823466, 9.999481, 10.000515 
1.3650146e+3, 1.5491337e+2, -1391861.9, -1342318.4, 9053.437, 0.089484274, -0.10588016, -1340715.9, 81121.22, 0.0004035849, 9.999896, 10.000552 
1.365015e+3, 1.6491379e+2, -1408120.5, -1479651.1, 71801.01, 0.050657086, -0.032402534, -1363670.3, -39835.58, 0.000026350568, 9.999855, 9.998978 
1.3650167e+3, 1.749135e+2, -1372386.6, -1400899.1, 95275.8, 0.09514118, 0.0016352478, -1290306.4, -64461.105, 0.000000016360648, 9.999399, 9.999058 
1.3650176e+3, 1.8491377e+2, -1136562.6, -984184.0, 74741.49, 0.087633744, 0.019880235, -953644.2, 174198.39, 0.0, 9.999274, 10.001293 
1.3650177e+3, 1.9491442e+2, -988982.44, -845845.94, -6905.6177, 0.039567314, -0.09203385, -845513.56, 184314.73, 0.0, 9.999551, 10.001431 
1.3650186e+3, 2.0491472e+2, -982109.8, -1030475.3, -30806.213, 0.07773302, -0.09216267, -967128.44, -35306.543, 0.0, 9.99993, 9.99932 
1.3650204e+3, 2.149145e+2, -802981.3, -881325.7, -39697.48, 0.20375007, -0.08698571, -786383.0, 47442.895, 0.0, 10.000442, 9.99942 
1.3650207e+3, 2.2491379e+2, -694129.6, -805133.8, -19612.566, 0.18346576, -0.08071368, -690766.3, 45066.29, 0.0, 10.0006485, 9.99917 
1.3650197e+3, 2.3491232e+2, -606654.1, -702342.25, -48173.434, 0.0078114173, -0.18400198, -586603.2, 51241.215, 0.0, 10.00053, 9.999263 
1.3650206e+3, 2.449114e+2, -602112.9, -749854.25, 23442.736, -0.016468862, -0.14884867, -598482.3, -58627.95, 0.0, 10.000315, 9.998368 
1.3650239e+3, 2.549108e+2, -526907.6, -649436.1, 39350.695, 0.103024974, -0.090816505, -515358.53, -73493.63, 0.0, 10.000101, 9.9984865 
1.3650253e+3, 2.6491013e+2, -381621.2, -416856.06, -4647.719, 0.119216226, -0.047353543, -381018.44, -37147.543, 0.000000033203506, 9.999951, 9.999482 
1.3650247e+3, 2.7490914e+2, -272557.94, -297836.13, -66511.46, 0.031904228, -0.13801977, -217495.31, 28379.59, 0.0000069323874, 9.999958, 9.999618 
1.3650265e+3, 2.849075e+2, -252756.4, -445006.94, 13884.1875, 0.04409432, -0.16640182, -251758.88, -103869.01, 0.000089487476, 10.000333, 9.997744 
1.3650301e+3, 2.949051e+2, -2456.2507, -257873.63, 9765.227, 0.16704, -0.23024112, -2083.4465, 47833.125, 0.0004060462, 10.001293, 9.997895 
1.3650306e+3, 3.049041e+2, 105574.414, -26611.053, -42509.313, 0.060618572, -0.17962205, 118064.695, 118064.695, 0.0010871664, 10.001045, 9.999291 
1.3650306e+3, 3.149035e+2, -77454.36, -3423.6084, -89406.164, 0.007147136, -0.21229452, 56326.71, 56326.71, 0.0020984344, 9.999205, 10.000353 
1.375012e+3, 1.24913536e+2, -1696031.9, -1533306.4, -121296.67, -0.056363545, -0.026458384, -1468611.8, 247233.66, 0.0079810945, 9.999297, 10.0015745 
1.375014e+3, 1.3491371e+2, -1630476.6, -1538444.4, 101819.92, 0.08432021, -0.10869021, -1472725.1, 145109.1, 0.0045821774, 9.999506, 10.000762 
1.3750139e+3, 1.4491275e+2, -1624597.0, -1629854.9, 50764.24, 0.020588158, -0.20991291, -1576393.6, -56553.676, 0.0018779465, 9.999494, 9.99945 
1.3750151e+3, 1.5491292e+2, -1470099.0, -1501843.8, 39034.16, 0.10789761, -0.18183966, -1443833.5, -21992.986, 0.00043006244, 9.99988, 9.999467 
1.3750158e+3, 1.6491295e+2, -1332785.0, -1321649.0, 35172.965, 0.10956891, -0.14763792, -1291606.0, 32235.191, 0.000029160963, 9.999841, 10.000073 
1.3750151e+3, 1.749127e+2, -1295060.3, -1237440.3, 94128.92, -0.05347377, -0.22260915, -1167811.0, 58032.027, 0.000000027808229, 9.999373, 10.000199 
1.3750157e+3, 1.8491316e+2, -1265982.4, -1241395.5, 68096.33, -0.06266434, -0.15569662, -1184491.9, -56652.195, 0.0, 9.999232, 9.999544 
1.3750185e+3, 1.9491401e+2, -1135270.8, -1120701.1, 15039.133, 0.13618268, -0.064125165, -1111275.4, -81440.9, 0.0, 9.999427, 9.999606 
1.3750201e+3, 2.0491387e+2, -991553.56, -1013381.25, -28122.39, 0.2061509, -0.02775427, -972301.5, -40465.758, 0.0, 9.999774, 9.999514 
1.3750204e+3, 2.1491249e+2, -823308.44, -870786.3, -4252.747, 0.14836392, -0.15879767, -822930.5, 10915.179, 0.0, 10.000216, 9.999603 
1.3750204e+3, 2.2491132e+2, -753251.0, -869353.5, -39201.016, 0.059595775, -0.18965472, -741254.6, -5399.37, 0.0, 10.000401, 9.998846 
1.3750198e+3, 2.3491012e+2, -667905.8, -767841.56, -35880.785, -0.059433617, -0.2360684, -656357.7, -18490.855, 0.0, 10.000275, 9.998929 
1.3750209e+3, 2.4491023e+2, -577346.25, -652666.2, -4288.6733, -0.05013012, -0.11790818, -577102.9, -37235.992, 0.0, 10.000107, 9.99914 
1.375024e+3, 2.5491157e+2, -499793.4, -548195.7, 45049.523, 0.09669151, 0.05402593, -472855.94, -30999.473, 0.0, 9.9999075, 9.999276 
1.3750258e+3, 2.6491046e+2, -483326.63, -592535.94, -19229.176, 0.15579191, 0.07107057, -480039.75, -136173.02, 0.000000022673568, 9.999793, 9.998351 
1.3750258e+3, 2.7490646e+2, -384030.63, -480315.84, -48302.293, 0.12090244, -0.2089848, -363976.3, -118073.93, 0.0000066245593, 9.999754, 9.998461 
1.3750274e+3, 2.8490475e+2, -240381.05, -390635.25, 31220.518, 0.081234396, -0.2052962, -234152.14, -86232.445, 0.000084736, 10.0002, 9.998182 
1.3750306e+3, 2.9490536e+2, -4121.506, -207703.4, 69115.15, 0.05439806, -0.015094049, 17125.348, 67044.016, 0.0003824706, 10.001061, 9.998354 
1.375031e+3, 3.049044e+2, 44146.273, -115300.266, -116081.05, -0.022393132, 0.038529642, 105244.2, 105244.2, 0.0010250094, 10.000876, 9.998757 
1.3750306e+3, 3.1490254e+2, -196132.56, -143248.31, -88023.88, 0.03828133, -0.06480299, -77780.75, -77780.75, 0.0019870058, 9.9987755, 9.999579 
1.3850111e+3, 1.24914005e+2, -1568732.8, -1488408.1, -21208.396, -0.11154954, -0.082482554, -1483152.4, 232686.06, 0.008351057, 10.00027, 10.001413 
1.3850147e+3, 1.3491395e+2, -1705184.8, -1644204.3, -35563.367, 0.21642648, -0.12252208, -1627850.0, -10018.785, 0.004803759, 9.999307, 10.000135 
1.3850121e+3, 1.4491312e+2, -1760082.9, -1701495.3, -10311.219, -0.053621106, -0.17521758, -1699733.4, -179896.61, 0.0019753822, 9.99858, 9.999409 
1.385015e+3, 1.5491296e+2, -1542667.6, -1535253.6, 23184.56, 0.14780268, -0.17971182, -1515481.6, -93640.59, 0.00045665295, 9.99937, 9.999489 
1.3850163e+3, 1.64913e+2, -1329868.3, -1277651.0, 39604.043, 0.18042254, -0.16330747, -1256324.0, 67516.53, 0.00003186285, 9.999718, 10.000416 
1.3850144e+3, 1.7491314e+2, -1231741.9, -1162829.3, -267.9193, -0.050716575, -0.23683001, -1162828.3, 63007.79, 0.000000039188958, 9.99965, 10.000562 
1.3850151e+3, 1.8491341e+2, -1251823.6, -1335836.6, 29960.197, -0.056744166, -0.1634653, -1242234.0, -114399.14, 0.0, 9.999737, 9.998672 
1.385019e+3, 1.949136e+2, -1080965.3, -1185474.5, 25056.764, 0.19793543, -0.053884123, -1075268.3, -45428.68, 0.0, 10.000174, 9.99881 
1.3850208e+3, 2.04913e+2, -923985.4, -985331.56, 38823.15, 0.26683894, -0.018972872, -905180.44, 26665.475, 0.0, 10.000263, 9.999466 
1.3850206e+3, 2.1491142e+2, -840191.7, -879846.2, 11009.602, 0.14456356, -0.16952124, -837340.06, -3484.1316, 0.0, 10.000105, 9.999593 
1.3850206e+3, 2.2491015e+2, -781783.25, -901783.06, 10663.61, 0.05439454, -0.20337622, -780843.06, -44977.727, 0.0, 10.000269, 9.998694 
1.3850209e+3, 2.3490897e+2, -578639.25, -741362.56, -2363.5784, -0.0031834946, -0.23126312, -578604.94, 59271.715, 0.0, 10.000942, 9.9987955 
1.3850221e+3, 2.4490881e+2, -447455.34, -597676.2, 18721.775, 0.013348243, -0.1305072, -445157.22, 94721.97, 0.0, 10.00104, 9.999061 
1.3850243e+3, 2.5490957e+2, -402325.3, -510758.78, -36422.777, 0.09715451, -0.008378636, -391226.84, 50647.46, 0.0, 10.000609, 9.999195 
1.385026e+3, 2.6490825e+2, -371059.44, -547626.3, -45683.07, 0.15838791, -0.004227505, -359940.13, -16053.631, 0.0000000049794013, 10.000602, 9.998272 
1.385027e+3, 2.7490455e+2, -181826.95, -393891.44, -26437.646, 0.19172117, -0.24843757, -178580.72, 67338.77, 0.0000064670485, 10.001164, 9.998386 
1.3850287e+3, 2.8490314e+2, -130818.875, -347787.0, 98265.234, 0.15546253, -0.20370013, -92930.64, 55004.06, 0.00007993784, 10.000977, 9.998122 
1.3850312e+3, 2.94904e+2, -131537.34, -264374.25, 60671.75, 0.056022767, 0.014537536, -107997.625, -58064.16, 0.00035414053, 10.000153, 9.998408 
1.3850316e+3, 3.049027e+2, -49877.938, -175545.84, -114975.09, -0.0060135974, 0.03925003, 18312.447, 18312.447, 0.0009478654, 10.000284, 9.998628 
1.3850313e+3, 3.149013e+2, 161728.36, 26290.666, -100297.92, 0.13002369, -0.007453524, 215028.17, 215028.17, 0.0018472242, 10.001213, 9.999573 
1.3950114e+3, 1.2491458e+2, -1688809.5, -1716395.4, 141278.67, -0.17826359, -0.10851814, -1560652.0, 155176.23, 0.008733579, 10.000217, 9.9998455 
1.3950142e+3, 1.3491379e+2, -1829179.1, -1897325.3, -82493.93, 0.20368715, -0.054313403, -1773998.5, -156160.45, 0.005033633, 9.999293, 9.9984 
1.3950108e+3, 1.4491363e+2, -1683241.5, -1547740.0, -10710.608, -0.09200991, -0.002607265, -1546898.6, -27059.3, 0.002076125, 9.998602, 10.000453 
1.395014e+3, 1.5491357e+2, -1471132.5, -1381220.1, 70143.83, 0.06233642, -0.105331115, -1342862.4, 78975.164, 0.00048381835, 9.999344, 10.00056 
1.3950156e+3, 1.649139e+2, -1366119.1, -1354290.3, 17018.045, 0.11182513, -0.08730039, -1342188.1, -18355.217, 0.000034571214, 9.999722, 9.99989 
1.3950148e+3, 1.749145e+2, -1283998.1, -1253915.9, 7532.6455, -0.0060154833, -0.057024546, -1252135.1, -26308.129, 0.00000005013657, 9.999576, 9.999975 
1.3950156e+3, 1.8491438e+2, -1237473.5, -1296154.4, 25344.963, -0.02666376, -0.0066145817, -1228042.5, -100213.164, 0.0, 9.999697, 9.9989605 
1.3950182e+3, 1.9491328e+2, -1081502.3, -1157866.9, 54574.094, 0.0953719, -0.052672554, -1053079.6, -23237.068, 0.0, 10.000047, 9.9990635 
1.3950199e+3, 2.0491229e+2, -963318.06, -1034522.94, 16357.88, 0.12744613, -0.056234896, -959739.94, -27888.748, 0.0, 10.000122, 9.999194 
1.3950202e+3, 2.1491127e+2, -894308.4, -938544.0, 18247.492, 0.06297033, -0.121630155, -887752.75, -53895.938, 0.0, 9.999881, 9.999294 
1.395021e+3, 2.2491027e+2, -799562.5, -900954.8, 20011.69, 0.03299578, -0.11774951, -795755.75, -59892.81, 0.0, 10.00009, 9.998791 
1.3950226e+3, 2.3490912e+2, -600816.6, -743193.0, 40405.094, 0.05427975, -0.15761076, -590149.3, 47722.574, 0.0, 10.000741, 9.998883 
1.3950236e+3, 2.4490741e+2, -549385.3, -757055.56, -12635.556, 0.03974012, -0.16887887, -548619.4, -8730.247, 0.0, 10.000819, 9.998074 
1.395024e+3, 2.5490478e+2, -514033.06, -679761.4, -35739.58, -0.0105712535, -0.28102264, -506654.28, -64735.723, 0.0, 10.000351, 9.998155 
1.3950254e+3, 2.649035e+2, -334912.88, -428140.97, -39790.215, 0.01258595, -0.26836282, -320239.66, 23690.818, 0.0000000011462398, 10.000406, 9.999189 
1.3950276e+3, 2.7490348e+2, -149284.14, -275148.8, 14114.761, 0.12301454, -0.23840061, -147720.69, 98204.59, 0.0000063015364, 10.000938, 9.999315 
1.3950297e+3, 2.8490284e+2, -202522.19, -446415.6, 52965.48, 0.12507944, -0.13528055, -191516.48, -43583.227, 0.00007549819, 10.000766, 9.997542 
1.3950312e+3, 2.94901e+2, -214126.95, -378098.2, 53176.395, 0.021878881, -0.12192576, -198391.69, -148431.33, 0.0003302732, 9.999912, 9.997742 
1.395032e+3, 3.0489904e+2, -50855.176, -135828.58, -95949.81, -0.030675622, -0.14779064, 11593.756, 11593.756, 0.0008854581, 10.000103, 9.998989 
1.3950321e+3, 3.1490034e+2, 150715.16, 112419.07, -13000.866, 0.029243696, 0.031437565, 154711.66, 154711.66, 0.0017326016, 10.000765, 10.000379 
1.4050119e+3, 1.2491438e+2, -1816555.4, -1805013.8, 182239.97, -0.10209785, -0.07945295, -1628453.3, 87374.766, 0.009133226, 9.999411, 9.999635 
1.4050129e+3, 1.3491333e+2, -1754232.6, -1829779.0, -73164.1, 0.14628163, -0.081221305, -1709666.3, -91824.51, 0.005275387, 9.999638, 9.998708 
1.4050116e+3, 1.4491381e+2, -1544356.1, -1452988.1, 121092.97, 0.097671874, -0.0008716462, -1369248.3, 150588.52, 0.0021822979, 9.999442, 10.000696 
1.4050134e+3, 1.5491359e+2, -1487726.4, -1367734.6, 95566.99, 0.08255337, -0.13600071, -1314891.9, 106942.44, 0.00051218417, 9.999144, 10.000746 
1.4050145e+3, 1.649138e+2, -1461769.4, -1455275.5, 56551.168, 0.061338536, -0.11393993, -1401878.1, -78047.15, 0.000037386584, 9.99929, 9.999406 
1.4050148e+3, 1.7491437e+2, -1215046.4, -1267228.8, 23961.834, 0.022562897, -0.04661196, -1205712.8, 20115.041, 0.00000006103049, 10.000242, 9.999559 
1.4050162e+3, 1.8491407e+2, -1111796.9, -1209866.3, 64582.566, 0.03869436, -0.007489927, -1079743.3, 48088.574, 0.0, 10.000462, 9.999182 
1.4050186e+3, 1.949126e+2, -1064094.6, -1119956.3, 54981.56, 0.11884877, -0.11400067, -1030356.1, -510.32166, 0.0, 10.000046, 9.999323 
1.40502e+3, 2.049116e+2, -980816.8, -1072918.8, 58061.574, 0.13377084, -0.120658085, -952760.8, -20906.797, 0.0, 10.00013, 9.998936 
1.4050205e+3, 2.1491084e+2, -757316.8, -895926.25, 31815.217, 0.07137045, -0.13405341, -750363.06, 83495.45, 0.0, 10.000925, 9.999087 
1.4050218e+3, 2.249097e+2, -689382.06, -869375.94, 46362.65, 0.073813595, -0.12292381, -678141.94, 57724.95, 0.0, 10.000955, 9.998585 
1.405024e+3, 2.3490795e+2, -686117.44, -799666.6, 10067.724, 0.1487251, -0.20059857, -685231.7, -47350.418, 0.0, 10.000228, 9.998738 
1.405025e+3, 2.4490596e+2, -644644.0, -818515.6, 17939.475, 0.137417, -0.22767188, -642812.4, -102911.016, 0.0, 10.000229, 9.997936 
1.405025e+3, 2.549034e+2, -417648.94, -641799.06, 32171.982, 0.020851746, -0.3198628, -413122.75, 28807.145, 0.0, 10.001058, 9.998071 
1.4050262e+3, 2.6490223e+2, -198434.02, -367783.78, 60795.266, 0.008229807, -0.288931, -178869.27, 165072.16, 0.0000000047036606, 10.001373, 9.999138 
1.4050287e+3, 2.749025e+2, -107834.53, -252739.03, -2941.9316, 0.11374418, -0.22327867, -107774.83, 138160.19, 0.000006310061, 10.00124, 9.999314 
1.4050303e+3, 2.8490186e+2, -137387.67, -407430.53, 36193.633, 0.117236406, -0.12401898, -132620.81, 15321.5625, 0.00007173929, 10.001176, 9.997608 
1.4050317e+3, 2.9489958e+2, -39838.773, -290113.06, 56746.43, 0.022730956, -0.16033332, -27573.363, 22397.613, 0.00031660267, 10.001089, 9.997779 
1.4050327e+3, 3.0489722e+2, 46899.344, -125879.38, -24639.336, 0.004552247, -0.21165243, 50344.38, 50344.38, 0.0008541431, 10.00094, 9.9986515 
1.4050332e+3, 3.1489787e+2, 162947.78, 134267.2, -60773.156, 0.073555134, -0.06672925, 211049.63, 211049.63, 0.0016740352, 10.000771, 10.000531 
1.4150114e+3, 1.2491293e+2, -1725850.6, -1620465.5, 67718.164, -0.15492031, -0.05357032, -1587354.5, 128487.68, 0.009556688, 9.999414, 10.000913 
1.4150104e+3, 1.349127e+2, -1591954.6, -1482390.8, -52163.465, -0.10023539, -0.20351262, -1461528.1, 156313.1, 0.0055341963, 9.999596, 10.00112 
1.415014e+3, 1.4491354e+2, -1579853.8, -1534449.3, 87471.695, 0.35429567, -0.18826331, -1466781.8, 53048.066, 0.0022969088, 9.9994755, 10.00012 
1.4150128e+3, 1.54913e+2, -1546180.1, -1484547.4, 96595.95, 0.08808965, -0.27815482, -1413971.4, 7860.442, 0.0005425403, 9.9991255, 9.999954 
1.4150126e+3, 1.6491283e+2, -1473447.8, -1485777.1, 69033.08, -0.10238418, -0.23956692, -1410304.6, -86471.195, 0.000040406845, 9.999314, 9.999191 
1.4150144e+3, 1.74913e+2, -1242576.1, -1306383.8, 74467.4, -0.09071238, -0.18659385, -1193466.1, 32369.865, 0.00000007226826, 10.000163, 9.999335 
1.4150167e+3, 1.8491267e+2, -1109749.9, -1190955.0, 31975.934, -0.0002460284, -0.14653043, -1098670.5, 29170.006, 0.0, 10.000402, 9.999334 
1.415019e+3, 1.9491154e+2, -1075321.8, -1114370.8, 51796.598, 0.14459588, -0.23399496, -1039492.0, -9642.358, 0.0, 9.999925, 9.999417 
1.4150207e+3, 2.0491077e+2, -1010907.25, -1106867.1, 65745.62, 0.15847123, -0.21342888, -977495.8, -45640.125, 0.0, 9.999999, 9.998768 
1.4150214e+3, 2.1491012e+2, -805382.4, -943268.3, 75705.12, 0.056258995, -0.19747874, -771932.0, 61928.953, 0.0, 10.000692, 9.998878 
1.4150228e+3, 2.249084e+2, -756598.25, -952950.94, 1741.0986, 0.05330341, -0.2134905, -756582.8, -20705.74, 0.0, 10.000715, 9.998123 
1.4150244e+3, 2.3490538e+2, -760860.75, -895516.56, -2251.037, 0.15703812, -0.36905944, -760823.1, -122916.984, 0.0, 9.999979, 9.998197 
1.4150257e+3, 2.4490447e+2, -615852.4, -716815.75, 35256.367, 0.1577063, -0.29580244, -604759.6, -64843.992, 0.0, 10.000039, 9.998726 
1.4150266e+3, 2.549055e+2, -385223.25, -536565.0, 81063.6, 0.05537374, -0.116686665, -350000.53, 91907.1, 0.0, 10.000889, 9.998875 
1.4150278e+3, 2.6490453e+2, -301522.28, -541039.25, 39964.04, 0.014179257, -0.05080818, -295030.16, 48888.53, 0.000000079284355, 10.001198, 9.998031 
1.4150293e+3, 2.7490136e+2, -223093.1, -440557.38, 13757.853, 0.029283775, -0.21447222, -222226.17, 23724.77, 0.000007370644, 10.001017, 9.998133 
1.4150307e+3, 2.8489992e+2, -103092.18, -293660.5, 18194.293, -0.018125271, -0.17751814, -101370.65, 46594.234, 0.00007202747, 10.000992, 9.998475 
1.415032e+3, 2.948997e+2, -18937.477, -190773.47, 77424.03, -0.09013947, -0.10643953, 10800.842, 60767.01, 0.00031764805, 10.000839, 9.998586 
1.4150333e+3, 3.04897e+2, -77747.86, -320046.66, -39997.695, -0.05233177, -0.16276418, -71315.945, -71315.945, 0.00085660315, 10.000689, 9.997421 
1.415034e+3, 3.1489387e+2, 36775.176, -17934.805, -19604.174, 0.015632411, -0.2819198, 43074.594, 43074.594, 0.0016729925, 10.000339, 9.99967 
1.4250118e+3, 1.249119e+2, -2053919.3, -1754441.5, 108462.3, 0.057632785, -0.11564797, -1719286.4, -3436.0789, 0.010011913, 9.9970875, 10.001109 
1.4250092e+3, 1.3491271e+2, -1580646.0, -1398808.0, -49464.645, -0.16106594, -0.21760978, -1386223.4, 231615.14, 0.0058154534, 9.999376, 10.001793 
1.425015e+3, 1.449135e+2, -1427953.9, -1520091.0, 7562.8994, 0.45153654, -0.21850131, -1427337.3, 92490.66, 0.002423067, 10.000785, 9.999579 
1.4250131e+3, 1.5491258e+2, -1367717.9, -1463318.9, -14006.278, 0.1299612, -0.2862186, -1365708.0, 56126.62, 0.00057589856, 10.000639, 9.999359 
1.4250124e+3, 1.6491213e+2, -1353449.8, -1418468.4, 27006.734, -0.08921174, -0.25159785, -1343695.4, -19856.05, 0.00004378684, 10.000098, 9.999268 
1.4250146e+3, 1.749121e+2, -1331400.0, -1336196.9, 21968.645, -0.036188643, -0.23286696, -1311699.3, -85856.22, 0.00000008454083, 9.9994955, 9.999447 
1.4250171e+3, 1.8491183e+2, -1234297.9, -1228795.9, 26647.17, 0.05957408, -0.20254315, -1204758.0, -76912.0, 0.0, 9.999444, 9.999537 
1.425019e+3, 1.9491118e+2, -1032233.94, -1065984.3, 24115.016, 0.14258426, -0.2642319, -1019676.06, 10174.038, 0.0, 10.000103, 9.9996605 
1.4250207e+3, 2.0491062e+2, -953291.2, -1091052.3, 90604.93, 0.15873837, -0.2298493, -908357.06, 23497.684, 0.0, 10.000441, 9.99866 
1.4250226e+3, 2.1490979e+2, -833804.7, -971566.44, 71324.65, 0.1237117, -0.21876845, -803530.2, 30333.283, 0.0, 10.000535, 9.998765 
1.4250241e+3, 2.2490813e+2, -772448.2, -960188.2, 23122.729, 0.12066274, -0.224011, -769642.25, -33762.19, 0.0, 10.000605, 9.998135 
1.4250246e+3, 2.3490545e+2, -642328.56, -833893.94, 25214.488, 0.13775676, -0.34501356, -639065.3, -1159.4965, 0.0, 10.00077, 9.998248 
1.4250258e+3, 2.4490465e+2, -514715.84, -658565.4, 111511.664, 0.13164061, -0.27048618, -453945.4, 85968.59, 0.0, 10.000695, 9.998813 
1.4250277e+3, 2.549055e+2, -430360.97, -548124.9, 67772.94, 0.105299816, -0.117361605, -399464.0, 42442.54, 0.00000000006254562, 10.000525, 9.998975 
1.4250292e+3, 2.6490438e+2, -411454.13, -641580.3, 48760.547, 0.064311065, -0.049550865, -401548.8, -57629.223, 0.00000036239143, 10.00064, 9.997607 
1.42503e+3, 2.749012e+2, -247210.88, -495311.34, 45820.273, 0.0016950152, -0.17431024, -239019.06, 6935.457, 0.000010087366, 10.001026, 9.997748 
1.4250313e+3, 2.848995e+2, -76256.71, -248458.23, 85412.65, -0.037278283, -0.15936448, -41078.203, 106892.69, 0.000078694284, 10.001038, 9.998772 
1.4250335e+3, 2.9489884e+2, 8983.334, -139357.1, 48081.316, -0.013989494, -0.15878794, 23204.486, 73177.664, 0.0003338223, 10.000869, 9.998923 
1.4250351e+3, 3.0489665e+2, -39146.13, -376337.34, -9386.503, 0.04823791, -0.15138078, -38885.035, -38885.035, 0.00088968594, 10.001231, 9.996798 
1.4250349e+3, 3.1489325e+2, 220784.08, 7491.516, 2642.6206, 0.008226516, -0.2364028, 220816.81, 220816.81, 0.0017268027, 10.001837, 9.999143 
1.43501e+3, 1.2491213e+2, -2094221.5, -1862006.1, -53727.715, 0.10783902, -0.20730306, -1850177.6, -134333.9, 0.010506618, 9.997151, 10.000351 
1.435009e+3, 1.3491368e+2, -1677418.5, -1589575.4, 72331.04, -0.14302483, -0.1098119, -1548874.9, 68955.484, 0.006123269, 9.999339, 10.000486 
1.435014e+3, 1.4491381e+2, -1444707.3, -1567859.0, -10900.753, 0.22824182, -0.093964405, -1443749.8, 76079.82, 0.002563054, 10.000832, 9.999237 
1.4350134e+3, 1.5491258e+2, -1400373.9, -1523010.4, -3748.9722, 0.074708834, -0.15573479, -1400259.4, 21581.494, 0.0006133788, 10.000598, 9.998977 
1.4350133e+3, 1.649118e+2, -1332221.8, -1370819.6, -18022.406, -0.045166932, -0.15020123, -1325115.1, -1267.4689, 0.000047750204, 10.000084, 9.999603 
1.4350154e+3, 1.7491135e+2, -1313432.4, -1293461.5, 11166.074, 0.060873687, -0.20414576, -1288467.3, -62615.742, 0.00000010052836, 9.999467, 9.999759 
1.4350171e+3, 1.8491134e+2, -1214600.9, -1175294.0, 30784.764, 0.08785945, -0.18232776, -1158424.0, -30573.59, 0.0, 9.999392, 9.999929 
1.4350179e+3, 1.9491154e+2, -1025397.4, -1022591.44, 63036.387, -0.017722366, -0.19719648, -960942.44, 68904.164, 0.0, 9.999976, 10.000021 
1.43502e+3, 2.0491117e+2, -976203.06, -1104700.1, 74807.52, -0.013831372, -0.16238387, -941841.06, -9990.518, 0.0, 10.000291, 9.998637 
1.4350237e+3, 2.1490991e+2, -872516.75, -1001783.2, 89603.46, 0.1437607, -0.19271639, -826668.1, 7197.451, 0.0, 10.000314, 9.998663 
1.4350252e+3, 2.2490898e+2, -774626.7, -905476.0, 13280.262, 0.14189443, -0.14123066, -773292.44, -37417.453, 0.0, 10.000358, 9.998624 
1.435024e+3, 2.3490824e+2, -646034.56, -777769.6, 48488.77, -0.0287275, -0.12097049, -630111.56, 7768.5005, 0.0, 10.00051, 9.998753 
1.4350247e+3, 2.4490635e+2, -591687.1, -767191.6, 85687.11, -0.06704727, -0.14646904, -556790.56, -16893.283, 0.0, 10.00047, 9.9981785 
1.435028e+3, 2.5490314e+2, -516705.53, -665642.6, 77128.18, 0.0452719, -0.332454, -483962.5, -42033.82, 0.000000006122379, 10.000265, 9.998292 
1.4350298e+3, 2.6490176e+2, -410760.75, -596986.25, 48644.17, 0.033361666, -0.2776157, -398820.0, -54875.83, 0.0000008787704, 10.000446, 9.998013 
1.4350301e+3, 2.7490205e+2, -246901.94, -452194.75, 80856.14, -0.1031771, -0.0958411, -218880.83, 27064.762, 0.000014147242, 10.000839, 9.998143 
1.435032e+3, 2.8490058e+2, -129615.26, -316646.03, 62361.85, -0.08539232, -0.060927313, -110729.01, 37231.668, 0.000090676775, 10.000852, 9.998391 
1.4350358e+3, 2.9489684e+2, -64723.44, -236902.0, 65357.715, 0.09832566, -0.32493815, -42724.816, 7269.3774, 0.00036389777, 10.000619, 9.998381 
1.4350377e+3, 3.0489606e+2, -58892.855, -353303.8, -681.8569, 0.14859846, -0.16092466, -58891.273, -58891.273, 0.0009561929, 10.000985, 9.99706 
1.435035e+3, 3.1489632e+2, 153237.22, -24811.85, 70477.766, -0.20431374, 0.09031555, 177757.75, 177757.75, 0.0018452968, 10.001389, 9.999135 
1.445008e+3, 1.24912016e+2, -1876310.8, -1794674.3, -81510.77, 0.12566422, -0.23194984, -1744332.6, -28491.117, 0.011047917, 9.998797, 10.000015 
1.4450094e+3, 1.3491285e+2, -1714248.0, -1698645.0, 98505.33, -0.025245234, -0.13801341, -1607632.8, 10205.177, 0.00646129, 9.99947, 9.999665 
1.4450133e+3, 1.4491275e+2, -1592171.4, -1610025.5, 17147.365, 0.13487731, -0.110032916, -1581766.5, -61925.715, 0.0027186894, 9.99971, 9.999473 
1.4450136e+3, 1.5491235e+2, -1528989.9, -1544776.1, 26201.744, 0.09019714, -0.1232782, -1509518.1, -87673.92, 0.0006559602, 9.999549, 9.999329 
1.4450137e+3, 1.6491176e+2, -1410951.8, -1393068.6, 72577.23, 0.034203008, -0.12433391, -1328884.3, -5035.798, 0.000052490832, 9.99948, 9.999741 
1.4450155e+3, 1.7491081e+2, -1239784.3, -1236153.5, 58863.523, 0.1123058, -0.24333501, -1179077.4, 46777.625, 0.00000012546444, 9.999892, 9.99994 
1.4450172e+3, 1.8491073e+2, -1154347.4, -1168478.6, 93539.62, 0.12696587, -0.22885191, -1067607.0, 60247.37, 0.0, 9.9998865, 9.999744 
1.4450178e+3, 1.9491133e+2, -1106391.6, -1077808.8, 51831.957, 0.020906417, -0.18859327, -1038334.06, -8485.611, 0.0, 9.999483, 9.999879 
1.4450198e+3, 2.0491104e+2, -1048058.06, -1130244.6, 93607.086, 0.00033965462, -0.14146942, -986921.5, -55068.93, 0.0, 9.999782, 9.998704 
1.4450239e+3, 2.1490961e+2, -780049.7, -938135.6, 82873.96, 0.10256233, -0.19648062, -744568.06, 89301.14, 0.0, 10.000905, 9.998804 
1.4450255e+3, 2.2490895e+2, -615222.8, -807559.56, 12786.217, 0.1133457, -0.13428698, -614376.56, 121499.54, 0.0, 10.001339, 9.998832 
1.445025e+3, 2.3490885e+2, -553619.94, -708486.56, -2571.483, 0.01731796, -0.07516534, -553577.25, 84298.305, 0.0, 10.001013, 9.998989 
1.445026e+3, 2.4490698e+2, -564601.8, -776713.2, 72725.08, -0.004433564, -0.101990975, -542062.25, -2169.369, 0.0, 10.000761, 9.997967 
1.4450283e+3, 2.5490305e+2, -461631.06, -665222.8, 66275.234, 0.05056251, -0.33514553, -441957.56, -26.417503, 0.000000012932129, 10.000737, 9.998075 
1.4450301e+3, 2.649015e+2, -358345.22, -547853.25, 94367.586, 0.028480135, -0.29929838, -319369.78, 24578.293, 0.0000016431604, 10.000715, 9.998218 
1.4450313e+3, 2.7490214e+2, -232263.06, -417302.0, 69362.97, -0.075628094, -0.102436654, -209149.17, 36795.695, 0.000019343763, 10.000832, 9.99838 
1.4450333e+3, 2.8490067e+2, -133494.22, -346084.3, 73842.734, -0.051294398, -0.06671006, -110362.125, 37597.73, 0.00010742406, 10.0009365, 9.998146 
1.4450367e+3, 2.9489687e+2, -34019.453, -241857.94, 62247.656, 0.12218007, -0.31613767, -16802.492, 33192.703, 0.0004097107, 10.000918, 9.99819 
1.4450388e+3, 3.048966e+2, 14872.479, -247779.63, 94281.21, 0.17111555, -0.12140688, 45211.137, 45211.137, 0.0010616613, 10.0011835, 9.997703 
1.4450367e+3, 3.1489724e+2, 218241.95, 39604.855, 105236.46, -0.17732324, 0.103543185, 266954.25, 266954.25, 0.0020378157, 10.001706, 9.99942 
1.4550072e+3, 1.2491202e+2, -1869286.6, -1801451.5, 19457.111, 0.07515257, -0.18802688, -1796266.9, -80428.03, 0.011640448, 9.998883, 9.999931 
1.4550103e+3, 1.3491036e+2, -1752439.5, -1765606.9, 142811.67, 0.07254494, -0.31229553, -1616059.9, 1799.6998, 0.0068325973, 9.999411, 9.999241 
1.4550123e+3, 1.4491053e+2, -1541428.3, -1504352.9, -3857.2966, -0.00078745215, -0.26189065, -1503955.9, 15903.721, 0.0028915813, 9.99971, 10.000196 
1.455013e+3, 1.5491183e+2, -1469688.3, -1411577.8, 32621.81, 0.03542752, -0.1967557, -1396947.9, 24897.635, 0.00070428615, 9.999511, 10.000258 
1.4550135e+3, 1.64912e+2, -1400804.8, -1379716.4, 64283.813, 0.011475656, -0.17336622, -1325117.8, -1276.1115, 0.000058062662, 9.999507, 9.999822 
1.4550146e+3, 1.7491059e+2, -1245113.4, -1235790.3, 89826.73, -0.0037806968, -0.34338778, -1150504.1, 75348.04, 0.00000016567238, 9.999843, 9.999968 
1.4550164e+3, 1.8491009e+2, -1208493.5, -1272728.0, 61602.77, 0.041446485, -0.33712637, -1171138.3, -43281.348, 0.0, 9.999848, 9.99905 
1.4550187e+3, 1.9491051e+2, -1174555.8, -1193677.0, 51231.08, 0.13101543, -0.24127848, -1132000.9, -102144.66, 0.0, 9.999367, 9.999146 
1.4550208e+3, 2.0491014e+2, -1064474.0, -1121761.0, 116934.414, 0.069359474, -0.16948514, -972726.06, -40864.508, 0.0, 9.999607, 9.998842 
1.4550227e+3, 2.1490872e+2, -804257.25, -931973.4, 139502.86, -0.124617055, -0.23996265, -714691.4, 119184.484, 0.0, 10.00067, 9.998958 
1.4550251e+3, 2.2490782e+2, -643168.94, -810764.44, -15757.619, -0.101546496, -0.21476999, -641700.25, 94185.19, 0.0, 10.001102, 9.998924 
1.4550275e+3, 2.3490734e+2, -593443.3, -721559.4, 1206.7948, 0.14245705, -0.19861597, -593431.94, 44459.605, 0.0, 10.000723, 9.999038 
1.4550288e+3, 2.4490662e+2, -581190.3, -759688.94, 57200.08, 0.17503601, -0.12507364, -564433.56, -24533.83, 0.0, 10.00053, 9.998199 
1.4550288e+3, 2.549054e+2, -473749.78, -645396.75, 83534.91, -0.0059275036, -0.11216171, -439807.84, 2104.688, 0.000000017460069, 10.000541, 9.998308 
1.45503e+3, 2.649037e+2, -390827.47, -574478.9, 83726.27, -0.08871918, -0.097584575, -358387.13, -14456.992, 0.000002726617, 10.000535, 9.998121 
1.4550325e+3, 2.7490124e+2, -275804.97, -450689.5, 92205.78, -0.063053615, -0.20199643, -236172.23, 9782.463, 0.000025176965, 10.000591, 9.998261 
1.4550345e+3, 2.8489965e+2, -161232.55, -344338.2, 58417.32, -0.06743774, -0.1760553, -144182.88, 3787.0051, 0.00012772984, 10.000688, 9.998276 
1.455036e+3, 2.9489887e+2, -55001.57, -232631.95, 85143.445, -0.09182563, -0.14125606, -20782.027, 29194.81, 0.0004676586, 10.000691, 9.998365 
1.4550383e+3, 3.0489838e+2, 46968.594, -132946.25, 101660.44, -0.024888173, -0.024828937, 92757.93, 92757.93, 0.0011983007, 10.000975, 9.998593 
1.4550391e+3, 3.1489578e+2, 167516.69, 24027.166, 161069.86, -0.17359327, -0.21026962, 272097.78, 272097.78, 0.002292943, 10.001314, 9.999508 
1.4650065e+3, 1.2491098e+2, -1761670.1, -1746841.4, 16816.697, 0.0911739, -0.13813907, -1735877.1, -20026.068, 0.012283002, 9.999631, 9.999942 
1.4650097e+3, 1.3490917e+2, -1887509.6, -1825242.3, 39518.043, 0.1556361, -0.28198263, -1806067.1, -188193.72, 0.00723705, 9.998479, 9.999274 
1.4650114e+3, 1.4490949e+2, -1803771.6, -1599030.9, -19646.14, 0.05580864, -0.22596811, -1597162.8, -77290.99, 0.0030819494, 9.997746, 10.000511 
1.4650126e+3, 1.5491074e+2, -1531755.5, -1388060.5, -52759.43, 0.08855642, -0.21286306, -1370769.8, 51088.266, 0.0007585455, 9.998828, 10.000761 
1.4650135e+3, 1.6491134e+2, -1409610.8, -1375507.6, -4817.7695, 0.070880786, -0.17816195, -1374840.0, -50989.94, 0.00006440502, 9.999413, 9.999892 
1.4650142e+3, 1.7491077e+2, -1259878.6, -1236903.6, -13431.132, -0.013762794, -0.2693277, -1230717.5, -4864.365, 0.00000022299002, 9.999704, 10.000027 
1.4650162e+3, 1.8491031e+2, -1204796.4, -1299271.4, -3745.0828, 0.018257098, -0.24745217, -1204648.1, -76789.84, 0.0, 10.0000305, 9.998764 
1.465019e+3, 1.9490999e+2, -1004400.44, -1136031.5, -16225.837, 0.16602822, -0.2004495, -1002429.8, 27435.535, 0.0, 10.000666, 9.998901 
1.4650212e+3, 2.0490928e+2, -915259.06, -1019857.6, 106767.016, 0.12457884, -0.16382438, -848670.1, 83202.85, 0.0, 10.000475, 9.999139 
1.4650229e+3, 2.1490799e+2, -947538.4, -965961.75, 117363.195, -0.10740527, -0.2524895, -839025.94, -5142.636, 0.0, 9.999511, 9.999295 
1.4650252e+3, 2.2490726e+2, -918810.44, -944234.0, -3207.436, -0.07861643, -0.22841734, -918412.0, -182520.8, 0.0, 9.999241, 9.998895 
1.4650284e+3, 2.3490682e+2, -720672.56, -787630.44, -32371.863, 0.2163222, -0.20142528, -707581.4, -69682.15, 0.0, 9.999871, 9.998995 
1.4650299e+3, 2.4490647e+2, -576658.5, -727177.94, 59420.453, 0.25203264, -0.10215001, -556028.6, -16123.915, 0.0, 10.000435, 9.998467 
1.4650297e+3, 2.5490606e+2, -383397.0, -565303.6, 55248.035, 0.0085464185, -0.0356858, -367932.03, 73976.75, 0.000000044837254, 10.001018, 9.998621 
1.4650309e+3, 2.649044e+2, -322832.72, -545182.6, 69852.56, -0.06652168, -0.026641738, -302709.34, 41215.594, 0.0000038968087, 10.001016, 9.998094 
1.4650337e+3, 2.7490127e+2, -298995.6, -467248.03, 56377.914, 0.034263596, -0.19352202, -281851.4, -35895.535, 0.000030518888, 10.000436, 9.99823 
1.4650358e+3, 2.8489962e+2, -171819.14, -326747.8, 87922.7, 0.03288437, -0.18345279, -132103.6, 15867.754, 0.00014669313, 10.000523, 9.998477 
1.465037e+3, 2.9489955e+2, 53283.918, -152636.81, 64597.47, -0.066454425, -0.092838764, 71870.54, 121840.984, 0.00052498176, 10.001335, 9.998597 
1.4650397e+3, 3.048983e+2, 129131.3, -99994.74, 66260.59, -0.012402754, -0.06363306, 146913.1, 146913.1, 0.0013417992, 10.00158, 9.99851 
1.4650412e+3, 3.148948e+2, 85950.61, -58269.254, -9076.05, -0.057212416, -0.3219963, 86519.54, 86519.54, 0.0025704885, 10.00093, 9.999117 
1.475005e+3, 1.2490775e+2, -1745279.5, -1717321.6, -87767.37, -0.1004633, -0.17000169, -1642426.9, 73462.42, 0.012969953, 9.999669, 10.000112 
1.4750074e+3, 1.3490923e+2, -1861521.5, -1759441.9, -17157.506, 0.038678486, -0.03380882, -1756635.3, -138755.64, 0.0076708426, 9.998439, 9.999734 
1.4750107e+3, 1.4490958e+2, -1781295.6, -1574771.4, -11565.05, 0.14663976, -0.006097339, -1574125.9, -54247.773, 0.0032881629, 9.997825, 10.000648 
1.475012e+3, 1.5490927e+2, -1529105.9, -1374249.0, 2694.9783, 0.11777162, -0.159913, -1374202.1, 47677.5, 0.00081847684, 9.998791, 10.000877 
1.4750132e+3, 1.6490997e+2, -1397570.0, -1362545.3, -12486.403, 0.06085401, -0.12481773, -1358549.6, -34677.98, 0.000071419374, 9.999454, 9.999962 
1.475014e+3, 1.749115e+2, -1267261.5, -1235450.8, 10559.761, -0.051480923, -0.014266872, -1232264.5, -6408.2896, 0.0000002932695, 9.999639, 10.000063 
1.4750154e+3, 1.8491149e+2, -1199220.3, -1289559.5, 503.9354, -0.07760935, 0.047629405, -1199217.4, -71360.234, 0.0, 10.000023, 9.998841 
1.4750183e+3, 1.9490965e+2, -1012683.75, -1131696.8, 21143.246, -0.0033281818, -0.064149514, -1009039.2, 20837.924, 0.0, 10.000565, 9.998985 
1.475021e+3, 2.049084e+2, -892798.75, -940872.8, 50843.336, 0.02561686, -0.11837952, -860596.8, 71290.79, 0.0, 10.000333, 9.999746 
1.4750238e+3, 2.1490759e+2, -942060.9, -898055.9, 93521.445, 0.016554357, -0.220549, -823983.56, 9906.199, 0.0, 9.999273, 9.999872 
1.475026e+3, 2.2490734e+2, -966096.9, -998504.25, 1917.0875, 0.046398018, -0.16402078, -965983.9, -230091.5, 0.0, 9.999032, 9.9986315 
1.4750275e+3, 2.349073e+2, -765598.2, -838636.25, 7626.647, 0.113246754, -0.07294576, -764810.3, -126911.87, 0.0, 9.9996805, 9.998742 
1.475029e+3, 2.4490654e+2, -582291.06, -695992.9, 63609.01, 0.08162458, -0.01714783, -553830.0, -13922.33, 0.0, 10.000246, 9.998774 
1.4750303e+3, 2.5490484e+2, -397333.47, -540789.44, 91087.79, -0.03952258, -0.11063213, -353122.3, 88799.4, 0.000000082863835, 10.000786, 9.998901 
1.4750324e+3, 2.6490355e+2, -348210.44, -546775.5, 35519.523, -0.0429988, -0.086900935, -342047.9, 1886.1602, 0.0000048986644, 10.000792, 9.998188 
1.4750351e+3, 2.749023e+2, -321690.8, -464285.06, 58221.375, 0.07383889, -0.08062297, -300938.97, -54990.96, 0.00003489947, 10.000223, 9.998347 
1.4750373e+3, 2.849007e+2, -202940.94, -347876.4, 100491.94, 0.09433938, -0.07131698, -151512.73, -3549.9336, 0.00016199093, 10.000326, 9.99843 
1.4750397e+3, 2.9489872e+2, 17060.375, -172752.94, 115198.13, 0.025311446, -0.17315501, 71411.49, 121389.81, 0.0005771533, 10.001095, 9.998576 
1.4750421e+3, 3.0489612e+2, 28330.85, -250749.78, 29115.863, 0.05122883, -0.22993404, 31336.082, 31336.082, 0.0014773308, 10.001325, 9.997596 
1.4750421e+3, 3.1489408e+2, -32552.799, -201296.47, 11011.657, -0.117670804, -0.2598451, -31837.25, -31837.25, 0.002829432, 10.000492, 9.998342 
1.4850053e+3, 1.2490629e+2, -1942861.6, -1773038.9, 30942.732, 0.053943194, -0.16668116, -1767576.6, -51669.066, 0.013700781, 9.998121, 10.000484 
1.4850064e+3, 1.3490817e+2, -1712287.8, -1633272.9, 47005.05, 0.05288168, -0.034444403, -1611377.4, 6513.467, 0.00813248, 9.999186, 10.000261 
1.4850092e+3, 1.4490853e+2, -1615148.8, -1533136.1, 114144.46, 0.16483797, -0.012088312, -1452855.8, 67033.03, 0.0035089266, 9.999171, 10.000265 
1.4850108e+3, 1.5490858e+2, -1468236.3, -1386254.0, 53368.65, 0.10669693, -0.09273309, -1359951.1, 61938.504, 0.0008836724, 9.999408, 10.000483 
1.4850125e+3, 1.649093e+2, -1428098.4, -1365307.5, 29000.102, 0.067475446, -0.039268713, -1353963.3, -30080.332, 0.00007901186, 9.99923, 10.000041 
1.4850135e+3, 1.7491047e+2, -1367353.0, -1272457.6, 17198.414, 0.004694304, 0.02926179, -1269436.9, -43565.83, 0.00000037325287, 9.9989195, 10.000158 
1.4850155e+3, 1.8491039e+2, -1337093.8, -1322940.6, 78813.9, -0.016586376, 0.0651051, -1250886.3, -123014.41, 0.0, 9.998932, 9.99914 
1.4850181e+3, 1.9490889e+2, -1139973.8, -1157038.8, 82958.85, -0.0059791333, -0.045702048, -1065109.8, -35222.67, 0.0, 9.999532, 9.9993105 
1.485021e+3, 2.0490794e+2, -961027.06, -972837.5, 90120.41, 0.025934804, -0.08395695, -876618.6, 55275.977, 0.0, 9.99989, 9.999726 
1.4850241e+3, 2.1490744e+2, -827393.56, -840394.0, 49576.305, 0.08422221, -0.15200214, -783893.2, 50002.11, 0.0, 10.000064, 9.999877 
1.4850265e+3, 2.2490712e+2, -742423.56, -874447.9, 28954.258, 0.116960414, -0.108961195, -736352.75, -454.71362, 0.0, 10.000497, 9.998773 
1.4850278e+3, 2.3490687e+2, -511996.66, -697344.4, 33785.94, 0.10375602, -0.05585796, -506030.1, 131873.92, 0.0, 10.00134, 9.99891 
1.4850296e+3, 2.4490586e+2, -422087.63, -617761.44, 90311.92, 0.070743926, -0.033536844, -386776.88, 153137.81, 0.0, 10.001341, 9.998789 
1.4850315e+3, 2.5490394e+2, -438595.6, -556950.25, 62986.15, 0.025648672, -0.14725664, -411348.3, 30583.04, 0.00000011463164, 10.000489, 9.998937 
1.4850338e+3, 2.649028e+2, -394887.22, -556147.75, 34017.76, 0.046240583, -0.11309772, -388004.94, -44062.266, 0.000005857849, 10.000429, 9.99829 
1.4850362e+3, 2.7490222e+2, -168925.88, -381816.66, 10774.275, 0.12324665, -0.047107343, -168381.98, 77568.94, 0.000039275426, 10.001245, 9.998418 
1.4850385e+3, 2.8490075e+2, -47710.316, -308382.8, 84042.72, 0.13714403, -0.012091249, -22963.63, 125001.61, 0.00017769585, 10.001545, 9.998113 
1.4850415e+3, 2.9489827e+2, 22102.518, -211513.39, 43173.34, 0.097965024, -0.12391578, 29825.826, 79812.305, 0.000630339, 10.001286, 9.998232 
1.4850444e+3, 3.0489522e+2, 98895.2, -219451.48, 15306.917, 0.12005635, -0.2093867, 99629.5, 99629.5, 0.001603161, 10.001797, 9.997596 
1.4850448e+3, 3.14894e+2, 342271.16, 21133.928, -23846.584, -0.0072227134, -0.15603924, 344032.25, 344032.25, 0.0030493059, 10.002881, 9.998717 
1.4950041e+3, 1.2490728e+2, -1856252.1, -1615194.0, -3646.116, 0.039748594, -0.05477552, -1615138.8, 100760.33, 0.014485426, 9.998209, 10.001531 
1.4950058e+3, 1.3490644e+2, -1680130.6, -1550838.4, 86386.984, 0.055659257, -0.25424367, -1507587.1, 110315.36, 0.008627366, 9.999128, 10.0008545 
1.4950067e+3, 1.449067e+2, -1662343.6, -1664342.0, 91146.14, -0.05123987, -0.23024288, -1572191.3, -52290.273, 0.0037456865, 9.9992895, 9.999318 
1.4950088e+3, 1.5490891e+2, -1545857.5, -1544405.4, 75663.09, -0.084381394, 0.0096534, -1469464.9, -47578.918, 0.0009542572, 9.999388, 9.9994135 
1.4950109e+3, 1.6490947e+2, -1410600.8, -1344440.4, -2162.2424, -0.06590288, 0.095383346, -1344369.8, -20487.09, 0.00008722728, 9.999288, 10.000156 
1.4950131e+3, 1.7490771e+2, -1366090.0, -1259528.4, 17783.951, 0.032235667, -0.13881336, -1256638.8, -30741.56, 0.0000004647829, 9.9988785, 10.000262 
1.4950155e+3, 1.8490718e+2, -1297412.0, -1245568.4, 81281.44, 0.05753521, -0.18103415, -1186175.4, -58274.473, 0.0, 9.998943, 9.99967 
1.4950182e+3, 1.9490781e+2, -1123303.8, -1094278.9, 118110.46, 0.015047573, -0.12963027, -989792.6, 40101.27, 0.0, 9.999409, 9.999802 
1.4950208e+3, 2.0490801e+2, -1026619.94, -1077594.8, 78524.69, -0.013340823, -0.046911895, -969549.9, -37657.1, 0.0, 9.999748, 9.999078 
1.4950234e+3, 2.1490753e+2, -904239.6, -951297.25, 69374.58, -0.013237052, -0.049799435, -854512.44, -20612.578, 0.0, 9.999859, 9.999212 
1.495026e+3, 2.2490673e+2, -735346.2, -813204.7, 42576.37, 0.011459003, -0.048705615, -716584.6, 19322.766, 0.0, 10.000286, 9.999301 
1.4950289e+3, 2.3490544e+2, -508497.0, -636193.8, 80905.086, 0.05774543, -0.15295961, -469281.1, 168635.48, 0.0, 10.001104, 9.999446 
1.4950313e+3, 2.4490441e+2, -477912.13, -677421.4, 44563.164, 0.076481454, -0.14412846, -468410.8, 71514.94, 0.0, 10.001097, 9.998496 
1.4950329e+3, 2.5490335e+2, -491772.28, -619487.9, 49743.54, 0.07681451, -0.1475056, -474684.2, -32746.377, 0.00000015644366, 10.0002775, 9.998611 
1.4950348e+3, 2.6490223e+2, -435420.78, -585164.4, 49091.766, 0.06753933, -0.092728026, -420761.63, -76810.81, 0.000006865855, 10.0001955, 9.998199 
1.495037e+3, 2.7490088e+2, -210885.2, -412204.38, 59982.355, 0.04479894, -0.09277963, -194368.7, 51597.547, 0.00004412461, 10.00101, 9.99832 
1.4950392e+3, 2.8489962e+2, -118492.83, -405482.0, 59045.688, 0.01208169, -0.0034558258, -106819.47, 41160.92, 0.00019465707, 10.001326, 9.997552 
1.495042e+3, 2.9489824e+2, -48711.29, -306289.8, 62216.598, -0.0106120175, 0.044511102, -34470.56, 15524.714, 0.0006807663, 10.001057, 9.997692 
1.4950456e+3, 3.048956e+2, 104278.836, -143220.03, 44527.67, 0.029049244, -0.0026129703, 112046.08, 112046.08, 0.0017048066, 10.001529, 9.998244 
1.4950481e+3, 3.1489432e+2, 360985.8, 153714.44, 60592.516, -0.023563674, -0.023769695, 377399.34, 377399.34, 0.0032039285, 10.002482, 9.999824 
1.5050024e+3, 1.2490617e+2, -1934353.3, -1656935.3, -1035.5621, 0.07528208, -0.032793876, -1656931.4, 58980.746, 0.015336173, 9.9977, 10.001489 
1.5050045e+3, 1.3490549e+2, -1831963.4, -1626742.5, -39368.715, 0.06641703, -0.22130118, -1619449.4, -1534.4701, 0.0091627855, 9.9980755, 10.00085 
1.505005e+3, 1.4490598e+2, -1824051.6, -1688671.1, 3470.1711, -0.059687417, -0.19343896, -1688582.3, -168672.67, 0.0040015904, 9.997977, 9.999776 
1.5050076e+3, 1.549077e+2, -1754473.8, -1587195.8, 62023.723, -0.045003816, -0.052383035, -1566707.8, -144811.77, 0.001031135, 9.997724, 9.999917 
1.5050098e+3, 1.6490813e+2, -1605749.9, -1464616.9, 87257.695, -0.018249368, 0.0060579046, -1422962.4, -99069.45, 0.000096309515, 9.99804, 9.999945 
1.5050125e+3, 1.749067e+2, -1310866.0, -1253523.0, 50314.91, 0.06476076, -0.17650232, -1224283.9, 1622.2057, 0.000000575819, 9.999326, 10.000094 
1.5050152e+3, 1.849064e+2, -1159589.8, -1158468.9, 113676.47, 0.099767, -0.19728144, -1045351.44, 82556.734, 0.0, 9.999817, 9.999832 
1.5050182e+3, 1.9490711e+2, -1058748.4, -1039823.06, 93498.24, 0.053990576, -0.15522727, -955309.9, 74589.99, 0.0, 9.999762, 9.999992 
1.5050209e+3, 2.0490752e+2, -1040728.44, -1095012.6, 91602.3, 0.027621567, -0.059252985, -972331.7, -40434.1, 0.0, 9.999704, 9.9989805 
1.5050235e+3, 2.1490733e+2, -924321.0, -974829.1, 89551.164, 0.022865323, -0.016469514, -856531.1, -22627.477, 0.0, 9.999776, 9.999097 
1.5050265e+3, 2.2490652e+2, -787766.25, -828333.5, 113700.625, 0.047524214, -0.012096957, -692554.2, 43357.46, 0.0, 9.9999075, 9.999367 
1.5050298e+3, 2.3490492e+2, -642961.6, -691810.56, 79544.734, 0.08989709, -0.15668376, -584176.0, 53746.91, 0.0, 10.000156, 9.999511 
1.5050323e+3, 2.4490385e+2, -570111.44, -736370.6, 35744.65, 0.11673059, -0.14766076, -562752.3, -22819.746, 0.0, 10.000535, 9.998355 
1.505034e+3, 2.5490317e+2, -382087.0, -579749.6, 15117.038, 0.12171336, -0.09837389, -380937.56, 61004.887, 0.00000020302433, 10.001094, 9.998483 
1.505036e+3, 2.6490206e+2, -236784.3, -486968.88, 87092.01, 0.1072182, -0.036891486, -209452.52, 134502.72, 0.0000077496, 10.001541, 9.998231 
1.5050386e+3, 2.7490032e+2, -73433.02, -343988.72, 79728.305, 0.07365394, -0.07963867, -51686.355, 194286.44, 0.000048509926, 10.001919, 9.9983635 
1.5050413e+3, 2.8489882e+2, 14675.874, -345940.72, 118836.53, 0.041093357, -0.014920248, 50314.8, 198303.72, 0.00020995413, 10.002273, 9.997501 
1.5050441e+3, 2.948974e+2, 190000.44, -187417.81, 105345.75, 0.02298714, 0.036527395, 217413.64, 267418.25, 0.00072207046, 10.002721, 9.997683 
1.5050475e+3, 3.0489507e+2, 229789.33, -96560.3, 111313.62, 0.050637376, 0.023381215, 264141.06, 264141.06, 0.0017705777, 10.0024395, 9.998143 
1.5050505e+3, 3.1489328e+2, 153703.89, 69201.77, 15260.4, 0.0562535, -0.02360446, 156375.34, 156375.34, 0.0032754042, 10.000969, 9.999998 
1.5150012e+3, 1.2490391e+2, -1989201.0, -1804483.9, 42691.04, 0.11160963, -0.0414058, -1795094.6, -79157.45, 0.016257107, 9.997847, 10.000404 
1.5150017e+3, 1.349056e+2, -1901302.6, -1741626.8, 1339.5664, -0.053717416, 0.07225399, -1741615.5, -123690.48, 0.009740974, 9.997976, 10.000101 
1.5150039e+3, 1.4490682e+2, -1678511.4, -1420208.5, -29033.172, -0.040318355, 0.12132617, -1416985.4, 102925.664, 0.0042781597, 9.998095, 10.001573 
1.515007e+3, 1.5490499e+2, -1621822.1, -1317879.8, 65017.008, 0.086243644, -0.27394912, -1304555.9, 117363.46, 0.0011151112, 9.997739, 10.001761 
1.5150091e+3, 1.6490534e+2, -1624562.0, -1522502.3, 112129.945, 0.0555418, -0.2979663, -1450336.4, -126422.79, 0.000106548556, 9.998113, 9.999513 
1.5150112e+3, 1.749075e+2, -1349857.3, -1326092.5, 111730.516, -0.017575968, -0.07905913, -1225614.4, 282.41812, 0.0000007145684, 9.999285, 9.999618 
1.5150142e+3, 1.8490808e+2, -1169547.4, -1179053.3, 95523.836, -0.028745992, 0.020005396, -1078658.3, 49234.605, 0.0, 9.999815, 9.999693 
1.5150176e+3, 1.9490679e+2, -1087723.8, -1072305.8, 104394.14, -0.012890699, -0.12516487, -975336.4, 54568.445, 0.0, 9.999647, 9.999824 
1.5150207e+3, 2.0490646e+2, -1033252.06, -1046565.7, 75463.05, 0.010413903, -0.11076815, -964152.8, -32244.314, 0.0, 9.9995575, 9.999387 
1.5150239e+3, 2.1490702e+2, -927324.5, -927819.3, 106619.33, 0.06401641, -0.03924179, -820952.25, 12952.922, 0.0, 9.999545, 9.999532 
1.5150271e+3, 2.2490668e+2, -854630.25, -910463.0, 107167.29, 0.08301592, 0.01302858, -771803.0, -35893.625, 0.0, 9.9996605, 9.998924 
1.51503e+3, 2.3490524e+2, -708553.0, -777216.6, 105489.28, 0.07312372, -0.06535096, -631949.44, 5973.76, 0.0, 9.99994, 9.999031 
1.5150325e+3, 2.4490416e+2, -603447.0, -759186.56, 40004.47, 0.048305746, -0.032720238, -593772.2, -53837.113, 0.0, 10.000323, 9.998306 
1.5150343e+3, 2.549033e+2, -414633.38, -599653.75, 52382.977, 0.021971628, 0.0005657249, -400832.2, 41114.293, 0.00000026346208, 10.00088, 9.998454 
1.515037e+3, 2.6490214e+2, -255232.86, -468075.44, 87076.58, 0.026275711, 0.047179934, -224148.44, 119809.49, 0.000008336701, 10.001302, 9.998477 
1.5150407e+3, 2.749006e+2, -93902.51, -325857.3, 116055.336, 0.06752943, -0.0048709656, -45807.977, 200162.63, 0.00005112129, 10.001675, 9.998604 
1.5150441e+3, 2.8489846e+2, -1663.3358, -326091.66, 117961.19, 0.06386833, -0.022054315, 36692.383, 184681.72, 0.00022272031, 10.002033, 9.997753 
1.5150474e+3, 2.9489565e+2, 169555.0, -173602.61, 144672.95, 0.03162302, -0.14132287, 222407.81, 272423.6, 0.0007570027, 10.002476, 9.997893 
1.51505e+3, 3.048933e+2, 132096.88, -228070.25, 44492.203, 0.026434267, -0.12899874, 137511.69, 137511.69, 0.0018115009, 10.002155, 9.997366 
1.515051e+3, 3.148909e+2, 54074.043, -31713.863, 24301.047, -0.045479923, -0.1669156, 60479.504, 60479.504, 0.0032857955, 10.000553, 9.999485 
1.524999e+3, 1.2490154e+2, -1963626.5, -1759287.3, 29631.777, 0.11865884, -0.02650113, -1755077.0, -39113.176, 0.017244658, 9.997911, 10.000669 
1.5249991e+3, 1.3490409e+2, -1969289.0, -1716498.1, 35574.21, -0.046189617, 0.11830335, -1711587.4, -93643.92, 0.010359608, 9.99728, 10.000595 
1.5250026e+3, 1.4490579e+2, -1812529.8, -1461720.4, 57478.39, 0.08057386, 0.18590286, -1452542.9, 67381.24, 0.0045741852, 9.997095, 10.001758 
1.5250055e+3, 1.5490417e+2, -1541582.0, -1247936.4, -10718.38, 0.15267669, -0.21835712, -1247545.6, 174384.52, 0.0012060112, 9.998145, 10.002046 
1.5250076e+3, 1.6490442e+2, -1550776.8, -1452469.6, 50522.598, 0.09640119, -0.2770326, -1431134.8, -107211.06, 0.000118081814, 9.998508, 9.999792 
1.5250102e+3, 1.7490654e+2, -1417508.1, -1319793.6, 70991.836, -0.022906566, -0.09106978, -1282471.5, -56566.086, 0.0000008766353, 9.998685, 9.99994 
1.5250131e+3, 1.8490727e+2, -1319830.4, -1263025.8, 90785.734, -0.05511777, 0.013072327, -1196303.3, -68403.336, 0.0, 9.998821, 9.999611 
1.5250166e+3, 1.9490638e+2, -1165663.5, -1123550.8, 72490.19, -0.03878429, -0.07921245, -1069120.8, -39211.14, 0.0, 9.999148, 9.999732 
1.5250203e+3, 2.0490591e+2, -1033761.4, -1043521.6, 70292.21, 0.023740577, -0.07612534, -968180.06, -36265.03, 0.0, 9.999519, 9.99943 
1.5250243e+3, 2.1490577e+2, -856984.6, -888826.0, 42185.5, 0.13607717, -0.08173333, -827815.56, 6101.62, 0.0, 9.999986, 9.999591 
1.5250278e+3, 2.2490548e+2, -765851.06, -878360.2, 74720.2, 0.15915139, -0.02453754, -728576.56, 7344.1865, 0.0, 10.000302, 9.998844 
1.5250303e+3, 2.3490489e+2, -632368.56, -747345.7, 72602.08, 0.08382036, -0.011643469, -597250.44, 40676.887, 0.0, 10.000482, 9.998977 
1.5250331e+3, 2.4490383e+2, -505487.22, -717614.3, 73988.88, 0.046552863, 0.030034686, -482230.13, 57709.06, 0.0, 10.001051, 9.998224 
1.525036e+3, 2.5490218e+2, -239451.44, -519861.7, 50192.67, 0.051656447, -0.005181879, -230737.86, 211219.89, 0.0000003530132, 10.002126, 9.998386 
1.5250394e+3, 2.6490074e+2, -86229.14, -394327.63, 70170.66, 0.07636959, 0.020443143, -71000.24, 272971.13, 0.000008619123, 10.002477, 9.998422 
1.5250428e+3, 2.7489948e+2, -43907.582, -300003.0, 39495.24, 0.11290359, 0.0022860365, -37954.957, 208025.9, 0.000051931653, 10.002016, 9.998607 
1.5250465e+3, 2.8489745e+2, -4264.5566, -324612.9, 76706.914, 0.12332039, -0.010691527, 13155.518, 161154.19, 0.00023518385, 10.002, 9.997789 
1.5250506e+3, 2.9489446e+2, 165617.56, -180500.78, 50182.695, 0.116649404, -0.14444011, 172746.56, 222773.52, 0.000791527, 10.0024395, 9.997892 
1.5250534e+3, 3.048923e+2, 242876.19, -237152.44, -36098.426, 0.106507055, -0.08298071, 245575.63, 245575.63, 0.001847163, 10.003167, 9.996828 
1.5250537e+3, 3.1488904e+2, 491205.0, 83348.07, -109387.1, 0.017810121, -0.15461439, 518690.34, 518690.34, 0.0032816848, 10.003951, 9.998653 
1.5349953e+3, 1.2489901e+2, -1843795.1, -1545453.0, -156183.3, -0.11342096, -0.010050164, -1478649.0, 237343.84, 0.018294634, 9.998026, 10.002114 
1.5349968e+3, 1.3490127e+2, -1851266.0, -1473069.4, 21563.271, -0.048905335, -0.059451643, -1471843.9, 146122.55, 0.011016667, 9.997281, 10.002275 
1.5350008e+3, 1.4490323e+2, -1887124.4, -1652481.4, 69490.234, 0.12618542, 0.021417685, -1633446.0, -113500.07, 0.0048880493, 9.997241, 10.000384 
1.5350027e+3, 1.549054e+2, -1643945.0, -1441726.8, 39517.656, 0.022275927, 0.12963402, -1434278.5, -12352.195, 0.0013030368, 9.998076, 10.00075 
1.5350054e+3, 1.6490565e+2, -1474713.3, -1312517.9, 35416.652, -0.032588966, 0.09014734, -1305121.6, 18799.357, 0.00013086536, 9.998572, 10.000727 
1.5350085e+3, 1.7490385e+2, -1358417.3, -1187539.6, 89117.8, -0.073551364, -0.20806238, -1149520.9, 76410.695, 0.0000010420176, 9.998644, 10.000867 
1.5350117e+3, 1.84904e+2, -1322615.1, -1273345.0, 82435.125, -0.12202102, -0.2044226, -1211942.6, -84014.016, 0.0, 9.998835, 9.9995365 
1.535015e+3, 1.9490595e+2, -1178998.1, -1132699.3, 96138.78, -0.15113287, -0.011257912, -1056962.1, -27048.049, 0.0, 9.999065, 9.99971 
1.5350191e+3, 2.0490588e+2, -1079486.6, -1096787.4, 70720.02, -0.072464876, 0.046839867, -1016889.94, -84972.92, 0.0, 9.999344, 9.999146 
1.5350243e+3, 2.149036e+2, -917796.25, -954942.1, 73440.9, 0.11398261, -0.14229986, -860616.1, -26676.438, 0.0, 9.999735, 9.999254 
1.5350279e+3, 2.2490294e+2, -781048.2, -850789.56, 66133.23, 0.13402069, -0.11830305, -741155.44, -5209.9414, 0.0, 10.000044, 9.999157 
1.5350302e+3, 2.3490381e+2, -640052.0, -711380.94, 96750.4, -0.0014050059, 0.0043521724, -572602.0, 65333.51, 0.0, 10.000255, 9.999335 
1.5350337e+3, 2.449028e+2, -557990.4, -761286.94, 99101.52, -0.028982952, 0.039951313, -517675.7, 22269.781, 0.0, 10.000779, 9.99805 
1.5350387e+3, 2.5489974e+2, -290605.94, -570483.6, 107862.94, 0.078022674, -0.11757425, -253860.63, 188116.45, 0.0000004707298, 10.0019, 9.998142 
1.5350424e+3, 2.6489788e+2, -138721.92, -453975.38, 34892.7, 0.10819785, -0.107258245, -134906.14, 209089.86, 0.0000086272985, 10.00226, 9.998117 
1.5350446e+3, 2.748971e+2, -93267.44, -358700.03, 35970.496, 0.057633806, -0.048968975, -88479.22, 157524.61, 0.000052741245, 10.001827, 9.998296 
1.5350482e+3, 2.848957e+2, -51911.793, -375327.7, 77046.37, 0.06294961, 0.02577817, -34495.19, 113523.26, 0.00024875673, 10.001782, 9.997553 
1.5350534e+3, 2.948937e+2, 113509.73, -233628.36, 93773.89, 0.12662077, 0.012215339, 137221.6, 187261.06, 0.00082812813, 10.0022, 9.9976425 
1.535057e+3, 3.0489206e+2, 171716.42, -322146.66, -20429.203, 0.131085, 0.16378197, 172560.06, 172560.06, 0.0018929114, 10.002906, 9.996365 
1.5350576e+3, 3.148876e+2, 341645.44, -108892.84, -24072.883, -0.047443844, 0.011319674, 342928.03, 342928.03, 0.0033080075, 10.003462, 9.997556 
1.5449926e+3, 1.2489763e+2, -2182611.0, -1642110.9, -70758.99, -0.053462375, 0.018289229, -1633001.1, 83007.56, 0.019406972, 9.995429, 10.002677 
1.5449953e+3, 1.348994e+2, -1777850.8, -1426079.3, -24747.908, 0.07772107, -0.09835628, -1424346.6, 193636.86, 0.0117135905, 9.9977, 10.002405 
1.5449984e+3, 1.4490125e+2, -1857666.3, -1695402.0, 33985.33, 0.1602801, -0.007858682, -1688571.5, -168607.52, 0.0052204016, 9.997702, 9.999868 
1.5450001e+3, 1.5490346e+2, -1738383.6, -1539860.9, 44245.91, 0.002067479, 0.15259688, -1530446.0, -108498.94, 0.0014059248, 9.997636, 10.000298 
1.5450034e+3, 1.6490367e+2, -1596327.9, -1359063.4, 71189.055, -0.03401492, 0.1233542, -1339342.9, -15399.228, 0.00014487762, 9.99769, 10.000826 
1.5450072e+3, 1.749018e+2, -1443509.5, -1220377.0, 27587.365, -0.032815646, -0.19440417, -1217016.8, 8937.232, 0.000001197513, 9.998005, 10.000954 
1.5450108e+3, 1.8490183e+2, -1399829.9, -1295621.1, 38638.98, -0.06595251, -0.20897956, -1282857.6, -154906.31, 0.0, 9.998267, 9.999643 
1.5450142e+3, 1.9490384e+2, -1210618.8, -1130489.4, 34574.96, -0.113247655, -0.022106811, -1117633.3, -87697.78, 0.0, 9.9988, 9.999845 
1.5450187e+3, 2.0490392e+2, -1085144.9, -1103048.8, 55650.957, -0.040596563, 0.04335519, -1037730.44, -105793.5, 0.0, 9.99933, 9.999111 
1.5450244e+3, 2.1490183e+2, -889886.7, -945980.0, 45904.7, 0.13816778, -0.118012525, -864138.75, -30181.164, 0.0, 9.999948, 9.999218 
1.5450285e+3, 2.2490095e+2, -694985.7, -803456.44, 70893.05, 0.16151977, -0.117602706, -659961.3, 76003.72, 0.0, 10.000636, 9.999183 
1.5450312e+3, 2.3490115e+2, -455109.47, -613143.25, 37192.87, 0.021683346, -0.06551318, -446793.78, 191166.19, 0.0, 10.001519, 9.999384 
1.5450351e+3, 2.4490005e+2, -425135.84, -702571.8, 50848.387, 0.00055868755, -0.038405173, -416110.0, 123859.85, 0.000000000009610117, 10.001685, 9.998036 
1.5450405e+3, 2.5489756e+2, -408782.63, -631563.3, 48537.31, 0.11180684, -0.135314, -398667.1, 43328.957, 0.0000005675007, 10.001075, 9.998145 
1.5450443e+3, 2.648958e+2, -314278.4, -551376.25, 20775.893, 0.14385125, -0.11055794, -312471.66, 31543.09, 0.000008574752, 10.001128, 9.997994 
1.5450466e+3, 2.7489442e+2, -86585.09, -380103.84, -1544.2009, 0.07154283, -0.08825614, -86576.98, 159452.06, 0.00005426492, 10.001963, 9.998098 
1.5450503e+3, 2.8489295e+2, 57075.133, -311039.9, 91240.09, 0.06360991, -0.01196105, 78448.69, 226493.3, 0.00026286932, 10.002513, 9.997611 
1.5450555e+3, 2.9489157e+2, 201536.92, -183534.06, 85147.84, 0.10677838, 0.028343007, 219524.77, 269584.88, 0.0008685198, 10.002797, 9.997676 
1.54506e+3, 3.048902e+2, 223190.17, -251265.03, 54956.938, 0.15105964, 0.18299843, 229472.73, 229472.73, 0.0019599411, 10.003048, 9.996794 
1.545062e+3, 3.1488624e+2, 270470.44, -171273.14, 40686.742, 0.091265276, 0.04936186, 274186.63, 274186.63, 0.003393183, 10.0030775, 9.997316 
1.5549876e+3, 1.2489753e+2, -2167956.5, -1637694.1, 647.49664, -0.18435593, 0.08407, -1637693.4, 78316.54, 0.020587768, 9.995562, 10.002639 
1.5549944e+3, 1.3489842e+2, -1882699.5, -1619621.4, 25403.578, 0.17428258, 0.016078338, -1617190.8, 804.3504, 0.012455585, 9.997624, 10.0011 
1.5549952e+3, 1.448998e+2, -1813213.8, -1620983.1, -2875.9797, 0.021840801, 0.10004846, -1620940.1, -100961.41, 0.0055746003, 9.997765, 10.000353 
1.5549977e+3, 1.5489855e+2, -1711444.4, -1477327.0, 57951.06, -0.04793748, -0.1339796, -1463767.6, -41776.848, 0.001515748, 9.99762, 10.000731 
1.5550013e+3, 1.6489872e+2, -1628525.9, -1448488.1, 66297.07, -0.054884475, -0.15234032, -1426709.4, -102720.516, 0.00016035176, 9.997778, 10.000176 
1.5550058e+3, 1.7490044e+2, -1496359.4, -1318884.9, 49852.297, -0.018139524, -0.042913005, -1305840.3, -79868.22, 0.0000013687348, 9.997957, 10.000302 
1.5550098e+3, 1.8490095e+2, -1385794.8, -1256492.3, 40676.977, -0.022877958, 0.0069060936, -1244760.3, -116793.97, 0.0, 9.998227, 9.999928 
1.5550138e+3, 1.949001e+2, -1215691.0, -1105582.9, 70091.9, -0.055692147, -0.11841083, -1071508.9, -41535.09, 0.0, 9.998657, 10.00008 
1.5550186e+3, 2.0489997e+2, -1088674.0, -1086122.8, 61905.496, -0.023498598, -0.09174924, -1025479.75, -93504.57, 0.0, 9.9992075, 9.999295 
1.5550241e+3, 2.1490054e+2, -901961.75, -929746.2, 84369.56, 0.08800749, -0.0072432114, -830348.3, 3622.356, 0.0, 9.999756, 9.999431 
1.5550289e+3, 2.2489956e+2, -753700.3, -872815.4, 88104.87, 0.09650061, -0.00952016, -706911.4, 29067.215, 0.0, 10.000404, 9.998819 
1.555033e+3, 2.3489673e+2, -513655.0, -693647.4, 85234.195, 0.017964931, -0.22058043, -479698.84, 158303.05, 0.0, 10.001331, 9.998928 
1.5550369e+3, 2.4489543e+2, -445197.94, -685448.9, 15185.947, -0.016624592, -0.20282707, -444241.88, 95771.72, 0.0, 10.001433, 9.998273 
1.5550408e+3, 2.5489563e+2, -420387.34, -605409.9, 41058.813, 0.02046108, -0.058225602, -411685.16, 30329.027, 0.0000005355393, 10.000861, 9.9984255 
1.5550447e+3, 2.6489437e+2, -350550.7, -577061.5, 40077.72, 0.037483383, 0.0059479624, -343668.63, 359.2418, 0.000008556659, 10.000915, 9.997918 
1.5550484e+3, 2.748914e+2, -127343.45, -410567.84, 52831.785, 0.033499822, -0.12661432, -117809.33, 128247.36, 0.000056489618, 10.001735, 9.997993 
1.5550524e+3, 2.8488928e+2, 33041.094, -302694.1, 88735.14, -0.011910803, -0.12032339, 55050.973, 203128.39, 0.00027893353, 10.002267, 9.997785 
1.5550566e+3, 2.9488796e+2, 180933.66, -162343.36, 117166.445, -0.09636706, -0.098249204, 217111.78, 267201.94, 0.0009153457, 10.002535, 9.997941 
1.555062e+3, 3.048867e+2, 261706.08, -106255.34, 39950.68, 0.0039285677, -0.006728577, 265993.7, 265993.7, 0.0020537302, 10.002785, 9.997909 
1.5550664e+3, 3.1488457e+2, 231434.14, -124753.164, 79050.484, 0.15677948, -0.07171098, 248190.0, 248190.0, 0.003546435, 10.002566, 9.997867 
1.5649843e+3, 1.2489617e+2, -2088403.0, -1633328.4, 88082.23, -0.09318536, 0.06849147, -1616874.5, 99143.68, 0.021849003, 9.996247, 10.00236 
1.5649916e+3, 1.3489585e+2, -2074536.6, -1792155.1, 42160.402, 0.18781644, -0.041289136, -1785994.9, -167976.36, 0.013250772, 9.9966345, 10.000414 
1.5649922e+3, 1.4489698e+2, -1911452.5, -1643467.9, 43343.004, 0.00038710027, 0.03712887, -1636632.1, -116627.086, 0.0059556314, 9.99699, 10.000569 
1.5649955e+3, 1.5489595e+2, -1737208.3, -1478566.8, 43211.19, -0.0007895175, -0.18865094, -1471538.5, -49524.773, 0.0016345053, 9.997393, 10.000828 
1.5649995e+3, 1.6489634e+2, -1676941.4, -1519432.4, 90998.26, -0.002490034, -0.172544, -1477841.8, -153830.92, 0.00017771397, 9.997652, 9.999755 
1.5650043e+3, 1.7489827e+2, -1479772.5, -1356420.5, 68070.61, 0.04417674, 0.0044203964, -1326240.4, -100245.75, 0.0000016137079, 9.998259, 9.999905 
1.565009e+3, 1.8489872e+2, -1291588.3, -1199197.3, 99096.836, 0.056132644, 0.058306713, -1136057.4, -8067.085, 0.0, 9.998807, 10.000047 
1.5650134e+3, 1.9489737e+2, -1087711.5, -1033576.6, 89270.37, 0.00031228448, -0.13011357, -967360.4, 62639.94, 0.0, 9.999461, 10.000195 
1.5650183e+3, 2.0489717e+2, -1010296.5, -1042653.7, 94731.92, 0.009037412, -0.1153018, -930371.56, 1629.5828, 0.0, 9.999768, 9.999297 
1.5650238e+3, 2.1489821e+2, -857003.94, -896750.56, 68196.734, 0.088033445, 0.010966198, -805843.9, 28148.43, 0.0, 10.000064, 9.99948 
1.5650292e+3, 2.2489718e+2, -763995.75, -908985.2, 109713.805, 0.104582824, 0.013102752, -704989.1, 31012.209, 0.0, 10.000443, 9.998565 
1.5650344e+3, 2.3489384e+2, -592929.1, -753711.06, 95758.11, 0.06010716, -0.2240643, -548290.8, 89739.47, 0.0, 10.000869, 9.998738 
1.5650386e+3, 2.448925e+2, -456959.25, -682839.56, 28985.059, 0.030605013, -0.20674187, -453299.2, 86743.664, 0.0, 10.001302, 9.99836 
1.5650418e+3, 2.5489306e+2, -284879.25, -527365.8, 11633.0625, 0.012433282, -0.034477264, -284322.44, 157717.34, 0.00000039469393, 10.001734, 9.998537 
1.565046e+3, 2.648918e+2, -187304.58, -482183.75, 53335.773, 0.038363513, 0.01749281, -177954.06, 166098.6, 0.000008163994, 10.001965, 9.998063 
1.5650508e+3, 2.748885e+2, -88761.11, -375055.34, 44961.246, 0.10524637, -0.16585754, -81866.195, 164217.81, 0.000058543963, 10.001926, 9.998142 
1.5650551e+3, 2.848863e+2, 35588.383, -260169.4, 132311.06, 0.062070977, -0.1902412, 86139.28, 234243.11, 0.00029613846, 10.00209, 9.998188 
1.5650593e+3, 2.9488522e+2, 214933.75, -101162.555, 133103.02, -0.09228442, -0.1716324, 263514.8, 313626.78, 0.00096601865, 10.002551, 9.998378 
1.5650646e+3, 3.048835e+2, 344255.66, -20782.621, 74045.39, 0.0059147864, -0.16904184, 358703.4, 358703.4, 0.0021659639, 10.003144, 9.998318 
1.5650705e+3, 3.1488258e+2, 417046.25, -19912.086, -10464.865, 0.2632195, -0.15185659, 417296.75, 417296.75, 0.0037513892, 10.0037155, 9.998053 
1.5749821e+3, 1.2489298e+2, -2104591.3, -1689723.9, 99462.15, 0.007922442, -0.06162774, -1667110.9, 48928.16, 0.023204513, 9.996327, 10.001936 
1.574986e+3, 1.348921e+2, -2067597.4, -1778420.6, 71867.734, -0.05975208, -0.22211753, -1761544.6, -143495.67, 0.014108494, 9.996638, 10.000502 
1.5749894e+3, 1.4489317e+2, -1890856.8, -1633625.9, 40203.887, -0.04098202, -0.16930152, -1627488.6, -107449.26, 0.0063687824, 9.997128, 10.000572 
1.5749936e+3, 1.5489571e+2, -1765356.9, -1525959.0, 66980.13, 0.028950732, -0.005995534, -1508493.3, -86477.89, 0.00176415, 9.997355, 10.000518 
1.5749973e+3, 1.6489644e+2, -1678905.6, -1535475.8, 92671.48, -0.024370965, 0.06872782, -1490011.3, -166001.89, 0.00019721544, 9.997694, 9.999627 
1.5750027e+3, 1.7489536e+2, -1491959.3, -1376107.3, 105813.57, 0.021771347, -0.05042435, -1313401.9, -87380.17, 0.0000019795527, 9.998234, 9.999783 
1.5750079e+3, 1.8489523e+2, -1284698.1, -1190014.4, 107183.33, 0.02737387, -0.049907748, -1120183.3, 7839.0874, 0.0, 9.998823, 10.000105 
1.5750124e+3, 1.9489592e+2, -1107437.4, -1041229.94, 125713.375, -0.07105213, -0.035011787, -944334.8, 85677.805, 0.0, 9.999322, 10.000209 
1.5750173e+3, 2.0489578e+2, -1047128.0, -1089580.9, 87795.88, -0.09151676, -0.004265952, -978029.06, -46016.406, 0.0, 9.999628, 9.999046 
1.5750234e+3, 2.1489468e+2, -906840.06, -957368.5, 90713.77, 0.007695633, -0.063281156, -837938.1, -3914.0898, 0.0, 9.999873, 9.999161 
1.5750293e+3, 2.248936e+2, -792219.6, -917332.5, 113103.734, 0.04603711, -0.052028928, -725525.3, 10509.339, 0.0, 10.000228, 9.99861 
1.5750352e+3, 2.3489241e+2, -625166.0, -765816.56, 124782.15, 0.024718022, -0.07959335, -552256.4, 85789.266, 0.0, 10.000635, 9.998768 
1.5750399e+3, 2.448912e+2, -502831.25, -715423.8, 29446.496, -0.00050920335, -0.04599574, -498827.97, 41229.938, 0.0, 10.00103, 9.998265 
1.5750435e+3, 2.548898e+2, -325931.22, -563559.44, 42625.8, -0.026290158, -0.06243866, -318516.38, 123556.51, 0.00000029448665, 10.001519, 9.998389 
1.5750481e+3, 2.6488805e+2, -202452.73, -463991.2, 37361.22, 0.02396861, -0.0638164, -197220.3, 146869.1, 0.000007127328, 10.001748, 9.998296 
1.5750535e+3, 2.7488557e+2, -95549.12, -344298.8, 62230.336, 0.14588088, -0.19315529, -80849.46, 165261.53, 0.000059012113, 10.001736, 9.998446 
1.5750583e+3, 2.8488392e+2, 45963.42, -199032.58, 132909.55, 0.12331155, -0.20578028, 104215.83, 252339.78, 0.00030982727, 10.001913, 9.9986925 
1.5750626e+3, 2.9488346e+2, 206453.64, -52621.99, 177382.6, -0.03732875, -0.18311805, 296562.44, 346687.38, 0.0010139557, 10.002271, 9.998844 
1.575068e+3, 3.048807e+2, 278926.0, -84515.19, 83639.53, -0.0046291878, -0.28784305, 297250.28, 297250.28, 0.002281504, 10.002856, 9.998002 
1.5750733e+3, 3.1487998e+2, 328279.16, -67640.766, 58958.12, 0.12495973, -0.22964762, 336872.34, 336872.34, 0.003972573, 10.00317, 9.997958 
1.5849793e+3, 1.2488872e+2, -2206087.5, -1720122.8, 24863.602, 0.14289683, -0.12141271, -1718853.9, -2774.3916, 0.024665277, 9.995575, 10.002057 
1.584982e+3, 1.348887e+2, -2066296.0, -1773593.6, -19573.648, -0.110987164, -0.20148781, -1772290.5, -154207.56, 0.0150364665, 9.996633, 10.000525 
1.5849867e+3, 1.4489013e+2, -1770829.6, -1572770.6, -53679.75, -0.030371143, -0.11839012, -1559157.5, -39086.727, 0.0068181083, 9.997937, 10.000602 
1.5849924e+3, 1.5489261e+2, -1588913.6, -1449200.0, -51504.535, 0.13182244, 0.049823295, -1432265.6, -10218.452, 0.0019058621, 9.998589, 10.000457 
1.5849963e+3, 1.6489306e+2, -1533155.5, -1453605.5, 14866.565, 0.07230399, 0.09540391, -1450918.0, -126874.98, 0.0002187055, 9.998644, 9.99973 
1.585001e+3, 1.7489135e+2, -1435159.6, -1331982.1, 12366.03, 0.027381307, -0.099516265, -1330520.8, -104461.33, 0.000002466339, 9.998556, 9.999928 
1.5850066e+3, 1.8489112e+2, -1334403.8, -1240027.9, 50076.21, 0.02888154, -0.106535375, -1218409.4, -90348.61, 0.0, 9.998605, 9.999864 
1.585012e+3, 1.948922e+2, -1152694.0, -1087602.6, 18012.45, -0.024855364, -0.02728324, -1082950.6, -52902.293, 0.0, 9.999119, 9.999984 
1.5850173e+3, 2.0489185e+2, -1040942.3, -1107459.3, 8515.355, -0.047635574, 0.00043687044, -1039869.5, -107818.65, 0.0, 9.999735, 9.998888 
1.5850234e+3, 2.1488985e+2, -811603.75, -929756.25, -3353.8767, 0.00086006115, -0.13179281, -811508.6, 22561.768, 0.0, 10.000568, 9.99903 
1.5850298e+3, 2.2488898e+2, -699167.1, -826449.6, 45499.895, 0.056727566, -0.11306691, -684575.06, 51504.047, 0.0, 10.000695, 9.99901 
1.5850362e+3, 2.3488918e+2, -643348.75, -736900.8, 51889.15, 0.101286955, -0.034243617, -620264.4, 17813.186, 0.0, 10.00034, 9.999128 
1.5850414e+3, 2.4488828e+2, -554614.2, -704715.0, 33450.953, 0.08924632, 0.0007026784, -547496.94, -7410.2817, 0.0, 10.000546, 9.99856 
1.5850453e+3, 2.5488624e+2, -324208.8, -533553.7, 38783.21, 0.009067244, -0.10687433, -317254.84, 124852.22, 0.00000023115544, 10.001415, 9.998647 
1.58505e+3, 2.6488456e+2, -169849.69, -428622.28, 56701.47, 0.03837866, -0.119293936, -157970.73, 186151.78, 0.0000061293663, 10.001905, 9.99845 
1.5850556e+3, 2.7488297e+2, -16424.322, -282738.88, 34802.87, 0.17164661, -0.17249292, -11951.297, 234184.42, 0.000060026516, 10.002207, 9.998624 
1.5850608e+3, 2.8488177e+2, 79203.18, -196405.64, 98406.56, 0.18601976, -0.14358644, 110732.484, 258877.3, 0.0003212461, 10.002208, 9.998554 
1.5850657e+3, 2.9488108e+2, 131573.28, -102806.914, 51986.86, 0.08268405, -0.1297505, 142586.73, 192735.47, 0.001056996, 10.001804, 9.9987135 
1.5850712e+3, 3.0487758e+2, 229880.14, -145946.0, 23950.611, 0.06643602, -0.2881849, 231400.33, 231400.33, 0.0023867078, 10.002643, 9.997714 
1.585077e+3, 3.1487674e+2, 551071.2, 64879.836, -74635.94, 0.12624036, -0.19741537, 562270.7, 562270.7, 0.004167416, 10.004564, 9.998232 
1.5949757e+3, 1.2488434e+2, -2133664.0, -1637725.8, -81163.91, 0.13443907, -0.071436726, -1624780.6, 91349.82, 0.026239868, 9.995798, 10.002557 
1.5949798e+3, 1.3488568e+2, -2092183.8, -1824749.1, 65774.11, -0.036174014, 0.004811211, -1809447.8, -191327.84, 0.016040104, 9.996627, 10.000173 
1.5949841e+3, 1.4488772e+2, -1751072.3, -1573403.5, -42192.047, -0.15096329, 0.17820074, -1563893.0, -43792.402, 0.0073062, 9.998094, 10.000532 
1.5949917e+3, 1.5488686e+2, -1570204.1, -1422746.0, -16864.242, 0.1707572, -0.007431808, -1420841.9, 1265.6113, 0.002060233, 9.998631, 10.000624 
1.5949962e+3, 1.6488652e+2, -1498584.4, -1401947.1, -10621.285, 0.1487844, -0.065919414, -1400793.5, -76684.85, 0.00024185247, 9.998726, 10.000045 
1.5949991e+3, 1.7488647e+2, -1421629.3, -1294317.9, 20728.174, -0.0479674, -0.12624474, -1291028.0, -64921.566, 0.0000030340082, 9.998518, 10.000202 
1.5950043e+3, 1.8488638e+2, -1368513.0, -1313774.0, 52181.96, -0.08089998, -0.105695054, -1282219.5, -154113.81, 0.0, 9.998612, 9.999353 
1.5950117e+3, 1.948862e+2, -1209496.3, -1173888.5, 51936.55, 0.010069609, -0.10251942, -1136789.0, -106681.445, 0.0, 9.998992, 9.99945 
1.5950179e+3, 2.0488545e+2, -1059205.6, -1114784.6, 25567.994, 0.0054779532, -0.08736453, -1049233.0, -117118.19, 0.0, 9.999602, 9.9988985 
1.5950237e+3, 2.1488392e+2, -846209.2, -941662.06, 40561.62, -0.05615113, -0.17818281, -831301.3, 2828.0686, 0.0, 10.000321, 9.999063 
1.5950301e+3, 2.2488354e+2, -685791.0, -747796.44, 17708.783, -0.0027701969, -0.14512557, -681089.8, 55042.73, 0.0, 10.000463, 9.999665 
1.5950374e+3, 2.3488425e+2, -632610.5, -662489.75, 58332.89, 0.1632705, -0.08496912, -587334.56, 50790.363, 0.0, 10.000112, 9.999751 
1.595043e+3, 2.4488392e+2, -555408.1, -645889.6, 55917.97, 0.15505384, -0.05054963, -528721.5, 11405.811, 0.0, 10.000292, 9.999082 
1.5950467e+3, 2.5488234e+2, -323544.47, -467260.78, 87420.61, -0.011109827, -0.16683233, -282239.2, 159902.84, 0.00000009760233, 10.001155, 9.999215 
1.5950513e+3, 2.6488128e+2, -205154.38, -455373.66, 52918.277, -0.045194555, -0.14406344, -194423.06, 149729.11, 0.0000054247644, 10.001695, 9.998371 
1.595057e+3, 2.7488068e+2, -57671.973, -316937.94, 65245.992, 0.055946574, -0.09514045, -42178.29, 203979.89, 0.0000627863, 10.001976, 9.998502 
1.5950625e+3, 2.8487962e+2, -18601.57, -332493.5, 66586.7, 0.108450696, -0.0047968025, -5060.5103, 143107.92, 0.0003316825, 10.001926, 9.997754 
1.5950681e+3, 2.948777e+2, 36613.21, -233912.9, 61023.984, 0.108777754, -0.033558387, 49741.6, 99928.42, 0.0010854187, 10.001528, 9.997947 
1.5950741e+3, 3.0487388e+2, 153273.5, -224494.72, 78022.38, 0.050720155, -0.16852202, 168753.53, 168753.53, 0.0024519642, 10.002323, 9.997319 
1.595081e+3, 3.14873e+2, 498525.22, 95234.63, 43615.793, -0.005089473, -0.047675483, 503188.34, 503188.34, 0.004279934, 10.004007, 9.998696 
1.6049725e+3, 1.2487991e+2, -1996460.5, -1570591.6, -45745.387, 0.18809918, 0.026136752, -1565733.3, 150443.77, 0.027939666, 9.996773, 10.002562 
1.6049771e+3, 1.3488103e+2, -2019773.4, -1756049.6, 69021.375, 0.049491115, 0.05720722, -1739077.8, -120911.28, 0.01712635, 9.997015, 10.00045 
1.6049813e+3, 1.4488225e+2, -1960003.6, -1661844.6, 32097.13, -0.17267458, 0.13661374, -1658428.5, -138274.89, 0.007836914, 9.996638, 10.000606 
1.6049899e+3, 1.548814e+2, -1738804.5, -1477828.1, 16026.205, 0.19846283, -0.07050274, -1476847.6, -54687.99, 0.0022287087, 9.997374, 10.000838 
1.6049954e+3, 1.6488147e+2, -1593727.0, -1416069.6, 42801.383, 0.2454148, -0.113961175, -1406295.6, -82139.21, 0.00026665046, 9.997964, 10.000304 
1.6049981e+3, 1.7488219e+2, -1356360.5, -1232279.5, 39177.434, -0.0016233898, -0.11771884, -1220945.0, 5201.163, 0.0000036433328, 9.998853, 10.00046 
1.6050036e+3, 1.8488227e+2, -1260581.8, -1275146.6, 113418.19, -0.046680644, -0.08808846, -1154212.4, -26068.547, 0.0, 9.9994, 9.999239 
1.6050117e+3, 1.9488148e+2, -1082438.3, -1124382.4, 113687.98, 0.08443514, -0.13761051, -987804.2, 42347.723, 0.0, 9.999887, 9.999362 
1.6050187e+3, 2.048805e+2, -1000610.7, -1092226.6, 127466.87, 0.09857648, -0.1362819, -910970.6, 21190.814, 0.0, 10.000051, 9.998836 
1.6050243e+3, 2.1487929e+2, -883928.94, -963697.25, 102256.65, -0.007699141, -0.18786402, -814053.5, 20119.709, 0.0, 10.000097, 9.999015 
1.6050307e+3, 2.2487879e+2, -725344.9, -795599.0, 58141.184, 0.023514077, -0.15066846, -692543.25, 43635.13, 0.0, 10.000317, 9.999396 
1.605038e+3, 2.3487903e+2, -544043.06, -636658.3, -2179.4624, 0.18533465, -0.114883214, -543991.8, 94184.98, 0.0, 10.000813, 9.999561 
1.6050437e+3, 2.4487875e+2, -423721.13, -580740.1, -9146.902, 0.17087236, -0.06784334, -423190.1, 116989.31, 0.0, 10.001181, 9.999111 
1.6050479e+3, 2.5487775e+2, -273760.28, -440534.4, -42153.645, -0.010227953, -0.12516856, -263711.1, 178477.5, 0.000000007673713, 10.001467, 9.999258 
1.6050531e+3, 2.6487678e+2, -160463.8, -439039.22, -65531.902, -0.04091302, -0.092439555, -145818.1, 198379.92, 0.0000049768487, 10.002011, 9.9983425 
1.6050595e+3, 2.7487597e+2, 53609.87, -273344.53, -94755.79, 0.07990244, -0.054679308, 79086.25, 325293.28, 0.00006482946, 10.002761, 9.998448 
1.6050655e+3, 2.8487456e+2, 168280.69, -283686.56, -51110.75, 0.15599197, 0.023584554, 173988.47, 322210.16, 0.00033743004, 10.003346, 9.997425 
1.6050714e+3, 2.9487228e+2, 355121.13, -114785.99, -64935.32, 0.17580082, -0.008465798, 363929.28, 414174.38, 0.0010902431, 10.003851, 9.997657 
1.6050772e+3, 3.0486888e+2, 304259.75, -159717.17, 27330.158, 0.09790724, -0.08731481, 305864.06, 305864.06, 0.0024554476, 10.003385, 9.997248 
1.6050844e+3, 3.148674e+2, 199140.27, -10616.016, -60307.258, 0.07199866, -0.01535502, 215243.06, 215243.06, 0.004280209, 10.001725, 9.999074 
1.6149691e+3, 1.24874376e+2, -2008609.5, -1655622.6, 103016.914, 0.10149305, 0.056998536, -1627757.5, 88472.53, 0.02978273, 9.997023, 10.001853 
1.6149743e+3, 1.3487524e+2, -1951545.4, -1628296.0, 50552.004, 0.014260069, -0.010946853, -1620574.8, -2357.4082, 0.018308382, 9.997062, 10.001313 
1.6149773e+3, 1.4487417e+2, -1929513.5, -1621927.0, 36077.543, -0.2731688, -0.21341549, -1617752.0, -97526.8, 0.008418617, 9.996731, 10.000838 
1.6149865e+3, 1.5487629e+2, -1727139.0, -1453317.8, 59042.215, 0.087777175, -0.14025356, -1441129.5, -18926.074, 0.0024150687, 9.9973755, 10.001005 
1.6149935e+3, 1.6487785e+2, -1557055.6, -1381282.6, 54552.84, 0.21276818, -0.051181253, -1365728.1, -41541.367, 0.0002938315, 9.998123, 10.000471 
1.614998e+3, 1.7487855e+2, -1344360.3, -1212775.0, 83183.49, 0.050918795, -0.07402438, -1172510.3, 53668.156, 0.000004294035, 9.9988575, 10.000599 
1.615004e+3, 1.8487869e+2, -1240556.6, -1234539.0, 116132.65, -0.009595287, -0.058171876, -1121376.3, 6799.6606, 0.0, 9.999407, 9.999511 
1.6150118e+3, 1.9487809e+2, -1076940.9, -1091056.0, 144873.72, 0.07527765, -0.12116241, -938952.94, 91228.12, 0.0, 9.999796, 9.999634 
1.615019e+3, 2.0487717e+2, -1037300.9, -1131011.1, 109370.81, 0.08701257, -0.12034861, -965171.25, -32981.457, 0.0, 9.999889, 9.998646 
1.615025e+3, 2.1487588e+2, -929599.4, -1012302.4, 116261.31, 0.029015288, -0.15965383, -847554.56, -13351.948, 0.0, 9.999902, 9.998774 
1.615031e+3, 2.2487466e+2, -849539.75, -988207.3, 60699.316, 0.008670678, -0.12181852, -826723.75, -90506.74, 0.0, 10.000046, 9.9982 
1.6150376e+3, 2.3487338e+2, -664075.94, -827234.7, 32312.822, 0.037096772, -0.11956919, -657909.6, -19675.215, 0.0, 10.000571, 9.998366 
1.6150433e+3, 2.4487261e+2, -486420.9, -663442.4, -15155.686, -0.00891785, -0.038636766, -485132.72, 55111.73, 0.0, 10.000964, 9.998651 
1.6150485e+3, 2.5487235e+2, -341154.47, -525429.5, -12617.787, -0.120632954, 0.014695897, -340294.5, 101952.77, 0.00000000987263, 10.001226, 9.998791 
1.6150548e+3, 2.648711e+2, -213352.94, -479511.44, -53619.953, -0.094673105, 0.047533534, -202956.81, 141302.86, 0.000004852571, 10.001723, 9.998194 
1.6150625e+3, 2.7486858e+2, 9378.068, -306664.66, -44704.242, 0.08722636, -0.07166702, 15579.787, 261863.98, 0.00006465758, 10.002528, 9.998318 
1.6150692e+3, 2.8486657e+2, 134916.0, -297424.56, -50699.645, 0.1648412, -0.05017237, 140781.86, 289086.56, 0.0003366383, 10.003104, 9.997449 
1.615075e+3, 2.94865e+2, 317649.22, -127366.08, -21802.932, 0.12273123, -0.02367484, 318714.88, 369036.03, 0.0010768, 10.003566, 9.997708 
1.6150804e+3, 3.0486232e+2, 267491.3, -150731.39, -52759.63, 0.039364938, -0.040100694, 274044.34, 274044.34, 0.0024101299, 10.003048, 9.99745 
1.6150863e+3, 3.148603e+2, 136631.47, 8809.394, -56494.55, 0.044891212, -0.051994193, 158021.39, 158021.39, 0.004186122, 10.001148, 9.999449 
1.6249661e+3, 1.2486676e+2, -2202014.0, -1867754.6, 110666.46, 0.15066883, 0.0039167106, -1834436.3, -118133.66, 0.03179242, 9.996226, 10.000728 
1.6249709e+3, 1.3486862e+2, -1917526.9, -1499776.3, -47958.98, 0.012293033, -0.07567178, -1494341.1, 123938.89, 0.019603958, 9.996772, 10.002343 
1.6249758e+3, 1.4486839e+2, -1883785.4, -1583484.6, 14583.201, -0.097261146, -0.2558887, -1582778.1, -62499.023, 0.009062119, 9.997003, 10.00096 
1.6249844e+3, 1.5487073e+2, -1612629.9, -1384114.1, 8612.882, 0.10367511, -0.16966015, -1383790.0, 38464.176, 0.002624408, 9.99812, 10.001112 
1.6249916e+3, 1.6487214e+2, -1505914.8, -1394678.3, -3768.3276, 0.18850556, -0.08210327, -1394550.8, -70311.086, 0.00032476612, 9.998641, 10.000128 
1.6249971e+3, 1.7487249e+2, -1393194.5, -1267389.5, -46641.73, 0.10426783, -0.1122728, -1251983.8, -25746.45, 0.000005034694, 9.998663, 10.000308 
1.6250037e+3, 1.8487264e+2, -1302843.3, -1237347.3, 6708.2925, 0.06539144, -0.08997286, -1236667.1, -108432.016, 0.0, 9.99887, 9.999759 
1.6250116e+3, 1.9487256e+2, -1091671.6, -1058974.3, 4978.15, 0.08563985, -0.1252186, -1058233.1, -27999.346, 0.0, 9.999556, 9.999966 
1.625019e+3, 2.0487206e+2, -959365.75, -1078946.4, 8291.36, 0.10550248, -0.10789373, -958793.56, -26555.502, 0.0, 10.000342, 9.99879 
1.6250263e+3, 2.1487094e+2, -715467.8, -895106.2, 15488.231, 0.12063549, -0.14286762, -714142.2, 120107.586, 0.0, 10.00129, 9.998917 
1.6250326e+3, 2.248697e+2, -640112.0, -928233.3, 18863.084, 0.08112564, -0.09639988, -638882.25, 97382.75, 0.0, 10.001642, 9.997849 
1.6250378e+3, 2.3486818e+2, -574551.94, -828374.56, 20260.959, -0.025928756, -0.08091664, -572944.8, 65340.76, 0.0, 10.001354, 9.9979925 
1.6250437e+3, 2.4486695e+2, -458888.78, -666478.6, 44467.99, -0.07059467, -0.018976893, -449764.3, 90535.766, 0.0, 10.001231, 9.998495 
1.6250503e+3, 2.5486597e+2, -331613.44, -539744.9, 30949.807, -0.06646739, -0.019020196, -327108.6, 115200.45, 0.000000011745934, 10.0013685, 9.998623 
1.6250573e+3, 2.6486436e+2, -218859.6, -497944.56, 54061.645, -0.0018813347, -0.00662369, -208753.27, 135571.22, 0.0000048598445, 10.001759, 9.99805 
1.6250654e+3, 2.748618e+2, -14275.41, -337700.94, 24191.385, 0.13915648, -0.10909744, -12475.97, 233873.1, 0.00006306325, 10.002441, 9.998146 
1.6250724e+3, 2.8485993e+2, 102099.05, -310757.34, 37443.07, 0.18866774, -0.066411175, 105467.38, 253836.6, 0.00033149842, 10.002896, 9.997442 
1.6250783e+3, 2.9485863e+2, 259735.2, -160385.34, 4726.9355, 0.11539687, -0.0055310684, 259788.38, 310173.63, 0.0010554205, 10.003198, 9.997653 
1.6250835e+3, 3.048564e+2, 354419.16, -61444.33, -21574.67, 0.043156184, 0.0016436932, 355535.44, 355535.44, 0.0023408108, 10.003429, 9.997893 
1.6250898e+3, 3.148539e+2, 488823.25, 184885.83, -76896.66, 0.1726935, -0.09019411, 507170.66, 507170.66, 0.0040329522, 10.003495, 9.999569 
1.6349618e+3, 1.2485847e+2, -2290585.5, -2081478.8, -29229.832, 0.020560125, -0.004454885, -2077469.8, -361088.66, 0.03398967, 9.996344, 9.999208 
1.6349667e+3, 1.3486099e+2, -1830903.0, -1325535.1, -25500.586, -0.1282972, -0.14043504, -1324251.6, 294104.34, 0.02102759, 9.996779, 10.003561 
1.6349766e+3, 1.4486483e+2, -1849165.0, -1556943.0, 21110.156, 0.22640261, 0.014407472, -1555425.9, -35110.203, 0.009775217, 9.997174, 10.001072 
1.634983e+3, 1.548648e+2, -1607769.6, -1380001.6, 61032.105, 0.107154004, -0.13667546, -1364678.5, 57632.484, 0.002860367, 9.99814, 10.001136 
1.6349891e+3, 1.6486447e+2, -1551611.5, -1503451.9, -20794.412, 0.016034245, -0.19000675, -1495715.9, -171402.13, 0.00036087315, 9.998696, 9.999357 
1.6349953e+3, 1.7486387e+2, -1457134.3, -1392914.8, -37694.965, 0.038206972, -0.22692572, -1375507.4, -149183.97, 0.000005927034, 9.998633, 9.99946 
1.6350026e+3, 1.8486401e+2, -1274549.9, -1190011.3, 12349.773, 0.03966907, -0.18207967, -1188244.1, -59921.71, 0.0, 9.99891, 10.00007 
1.6350105e+3, 1.9486475e+2, -1081822.5, -1020715.6, 42932.57, -0.0034035183, -0.16609323, -998574.5, 31737.19, 0.0, 9.999474, 10.000274 
1.6350189e+3, 2.0486495e+2, -946770.44, -1014753.8, 29355.129, 0.023945099, -0.11879113, -935849.3, -3540.5867, 0.0, 10.000176, 9.999313 
1.6350281e+3, 2.1486439e+2, -706604.0, -832768.0, 68071.77, 0.14690511, -0.15076922, -676879.2, 157436.47, 0.0, 10.001095, 9.999444 
1.6350347e+3, 2.248639e+2, -655300.75, -892952.8, -3550.7144, 0.09059952, -0.073124856, -655247.7, 81074.87, 0.0, 10.00136, 9.998223 
1.6350384e+3, 2.3486345e+2, -583616.1, -788495.7, 24564.822, -0.12820557, 0.005652609, -580712.0, 57618.19, 0.0, 10.001108, 9.99838 
1.6350444e+3, 2.4486175e+2, -498971.22, -680225.75, 33733.22, -0.15325226, -0.0017092255, -492896.72, 47449.805, 0.0, 10.000942, 9.998535 
1.6350527e+3, 2.5485867e+2, -358737.3, -542074.4, 54014.54, 0.018144807, -0.21519361, -344007.1, 98366.37, 0.000000006263202, 10.001156, 9.998701 
1.6350605e+3, 2.6485676e+2, -261602.2, -546302.75, 63579.176, 0.098524466, -0.2257031, -248048.94, 96341.71, 0.000005059976, 10.001567, 9.997818 
1.6350678e+3, 2.7485585e+2, -60473.387, -385151.53, 75331.94, 0.10077029, -0.15081237, -43846.332, 202553.34, 0.000060994436, 10.002221, 9.99793 
1.6350743e+3, 2.8485465e+2, 40647.906, -366754.34, 33109.67, 0.061619755, -0.019518346, 43321.195, 191736.73, 0.0003219481, 10.002606, 9.997189 
1.6350804e+3, 2.9485303e+2, 193970.4, -220774.58, 43798.453, -0.016805504, 0.03822345, 198545.2, 248984.03, 0.0010251604, 10.002893, 9.997374 
1.6350862e+3, 3.0485088e+2, 338627.78, -10825.763, -37331.2, -0.0620223, 0.049622092, 342571.28, 342571.28, 0.002256268, 10.0030775, 9.998409 
1.6350941e+3, 3.148481e+2, 415831.75, 158375.94, -1406.854, 0.19700521, -0.14220847, 415839.44, 415839.44, 0.0038509592, 10.002973, 9.999629 
1.6449586e+3, 1.2485152e+2, -2405289.8, -2109759.3, 90142.445, 0.1120837, -0.057545222, -2084434.3, -367988.97, 0.036383986, 9.995485, 9.999429 
1.6449639e+3, 1.3485342e+2, -1822108.0, -1356219.1, 15062.704, -0.0935865, -0.22289759, -1355732.6, 262695.66, 0.022584815, 9.997013, 10.003238 
1.6449748e+3, 1.448586e+2, -1789090.9, -1553031.1, 727.1228, 0.30515146, 0.0945147, -1553028.9, -32652.07, 0.010560797, 9.99768, 10.000864 
1.6449812e+3, 1.5485767e+2, -1691469.8, -1443660.3, -8377.341, 0.1544155, -0.13254158, -1443377.4, -20994.43, 0.0031241647, 9.997644, 10.000945 
1.6449876e+3, 1.6485718e+2, -1618025.5, -1520678.3, -22819.24, 0.053293243, -0.20034999, -1515594.6, -191206.89, 0.0004029895, 9.998175, 9.999496 
1.6449946e+3, 1.7485729e+2, -1297495.1, -1305494.8, 4377.3164, 0.053658202, -0.17644565, -1295565.4, -69175.66, 0.0000070009137, 9.999676, 9.999571 
1.6450024e+3, 1.8485746e+2, -1101631.1, -1104761.4, 81862.83, 0.06387525, -0.1325309, -1021318.5, 107069.234, 0.0, 10.000111, 10.000053 
1.6450104e+3, 1.9485746e+2, -1055958.6, -1009646.0, 53320.84, 0.04144568, -0.18928589, -974670.4, 55712.89, 0.0, 9.999674, 10.000235 
1.6450192e+3, 2.0485747e+2, -1037806.6, -1057084.3, 57733.88, 0.07341911, -0.16010039, -988912.5, -56530.25, 0.0, 9.999553, 9.999315 
1.6450287e+3, 2.1485734e+2, -888121.4, -912196.3, 24780.594, 0.15927827, -0.15292455, -872609.3, -38223.742, 0.0, 9.999833, 9.999488 
1.6450356e+3, 2.2485708e+2, -748493.6, -896542.7, -41868.438, 0.103564575, -0.075940974, -737473.44, -1083.9954, 0.0, 10.00054, 9.998606 
1.64504e+3, 2.3485647e+2, -470471.56, -692005.7, -43024.813, -0.09655713, -0.044399638, -462409.03, 175986.64, 0.0, 10.001705, 9.998767 
1.6450465e+3, 2.4485487e+2, -333648.8, -637194.94, -31384.65, -0.10090805, -0.047738828, -330437.8, 209973.19, 0.0, 10.002219, 9.998223 
1.6450548e+3, 2.54852e+2, -250351.23, -534933.0, -73061.16, 0.07453555, -0.20260821, -232690.16, 209747.92, 0.000000005166704, 10.00207, 9.998326 
1.6450627e+3, 2.6485005e+2, -166231.95, -469661.8, -15787.999, 0.15581432, -0.20649241, -165412.69, 179042.97, 0.000005473011, 10.002115, 9.998064 
1.6450703e+3, 2.7484894e+2, 7874.932, -316294.3, -17327.803, 0.12812014, -0.1801608, 8798.522, 255263.42, 0.000058881178, 10.002574, 9.998212 
1.645077e+3, 2.848476e+2, 45826.42, -346989.13, -15220.469, 0.07898782, -0.082413875, 46415.29, 194895.69, 0.0003079229, 10.002556, 9.99737 
1.645083e+3, 2.9484603e+2, 41536.133, -277382.47, -16002.876, 0.016057344, -0.030309424, 42337.125, 92839.53, 0.0009851817, 10.001767, 9.99754 
1.6450891e+3, 3.048441e+2, 215203.05, -92389.016, -14723.857, -0.012013527, 0.0016494386, 215906.25, 215906.25, 0.0021653068, 10.00228, 9.998246 
1.6450983e+3, 3.148422e+2, 519879.44, 148056.52, -116770.54, 0.28505582, -0.084146634, 553509.4, 553509.4, 0.0036772224, 10.003956, 9.999075 
1.6549551e+3, 1.2484613e+2, -2220261.3, -1780015.0, 29753.006, 0.13796552, -0.15156958, -1778013.4, -61520.184, 0.03897044, 9.995688, 10.001609 
1.6549625e+3, 1.3484628e+2, -1959400.3, -1634582.6, 90620.06, 0.02828444, -0.29824865, -1611011.3, 7482.3936, 0.024272982, 9.9970045, 10.001299 
1.6549693e+3, 1.448499e+2, -1812858.1, -1618513.4, -20229.502, -0.044829894, -0.011230801, -1616430.0, -95969.18, 0.0114189135, 9.99775, 10.000379 
1.6549787e+3, 1.5484932e+2, -1720615.1, -1507617.6, 1359.8046, 0.11122662, -0.15654802, -1507608.9, -85139.28, 0.0034161112, 9.997664, 10.000496 
1.6549873e+3, 1.6485032e+2, -1524780.5, -1354954.9, 12322.295, 0.15375906, -0.10389632, -1354065.4, -29604.455, 0.00045137366, 9.998282, 10.0005865 
1.6549943e+3, 1.7485285e+2, -1217848.0, -1133440.4, 72814.516, 0.03766346, 0.041024044, -1091482.9, 134952.13, 0.000008273259, 9.999647, 10.000764 
1.6550022e+3, 1.8485305e+2, -1129692.9, -1168522.8, 52911.06, 0.0071191923, 0.04962588, -1092747.1, 35683.082, 0.0, 10.000124, 9.999616 
1.655011e+3, 1.9485071e+2, -1101916.1, -1087163.4, 47970.043, 0.09651103, -0.19391844, -1046005.9, -15557.106, 0.0, 9.999586, 9.99975 
1.6550192e+3, 2.0484963e+2, -1099701.3, -1146511.4, 53573.62, 0.103948906, -0.22128586, -1064643.3, -132184.72, 0.0, 9.999389, 9.998778 
1.6550274e+3, 2.1484973e+2, -956028.25, -1002161.0, 47868.902, 0.04096221, -0.1399482, -925958.1, -91497.9, 0.0, 9.999618, 9.998974 
1.6550352e+3, 2.2484896e+2, -755657.4, -854597.44, -15991.7705, -0.016276848, -0.10818264, -753136.9, -16668.809, 0.0, 10.000294, 9.999013 
1.6550423e+3, 2.3484713e+2, -476185.72, -648143.9, 17986.566, -0.061749812, -0.2402744, -474324.5, 164158.97, 0.0, 10.001466, 9.999185 
1.6550493e+3, 2.448462e+2, -425852.56, -763834.8, -46272.64, -0.07246945, -0.16049011, -419631.94, 120862.4, 0.0, 10.001944, 9.997484 
1.6550562e+3, 2.5484598e+2, -340595.97, -660628.44, -62259.633, -0.020579223, 0.018164596, -328910.56, 113592.234, 0.00000000856411, 10.00182, 9.997573 
1.655064e+3, 2.648442e+2, -167047.53, -419175.6, -15497.866, 0.038253203, 0.04883031, -166098.48, 178421.6, 0.0000057188686, 10.001879, 9.998529 
1.6550727e+3, 2.7484083e+2, 17573.742, -250896.84, 22373.143, 0.08910146, -0.20595844, 19425.45, 265972.53, 0.00005720022, 10.002366, 9.998766 
1.6550799e+3, 2.8483865e+2, 44568.016, -279051.9, -62345.26, 0.08438735, -0.25205815, 56163.348, 204728.89, 0.0002952708, 10.002252, 9.997985 
1.6550854e+3, 2.948375e+2, 50749.69, -206402.03, -16182.014, 0.04456119, -0.2248882, 51763.992, 102342.03, 0.00095047243, 10.001534, 9.998144 
1.6550918e+3, 3.0483574e+2, 86719.29, -269895.13, 30224.932, -0.0032325936, -0.15607873, 89262.87, 89262.87, 0.0020977126, 10.001919, 9.997191 
1.6551016e+3, 3.148354e+2, 346778.2, -91428.45, 11915.992, 0.16052727, 0.02433329, 347101.97, 347101.97, 0.0035619321, 10.003435, 9.997678 
1.664951e+3, 1.2483891e+2, -2082195.3, -1636445.8, -104605.914, 0.15284719, -0.11038233, -1613118.3, 103447.625, 0.041736465, 9.996261, 10.002355 
1.66496e+3, 1.3483864e+2, -2017463.5, -1711083.9, -25853.941, 0.11589073, -0.26454556, -1708917.5, -90347.88, 0.026087236, 9.996788, 10.000883 
1.6649663e+3, 1.4484172e+2, -1998788.3, -1670697.8, -24027.38, -0.050265685, -0.018826324, -1668947.5, -148405.97, 0.012349877, 9.9963455, 10.000678 
1.664976e+3, 1.5484217e+2, -1739667.0, -1463946.9, 35402.773, 0.10471223, -0.10655798, -1459473.8, -36933.04, 0.003737191, 9.997333, 10.000938 
1.6649857e+3, 1.6484354e+2, -1555076.6, -1335347.1, 98053.484, 0.18737397, -0.05013083, -1297954.4, 26572.924, 0.00050616945, 9.997955, 10.000862 
1.6649938e+3, 1.748455e+2, -1401383.9, -1193187.4, 58199.72, 0.08098214, 0.009797491, -1178022.8, 48482.457, 0.000009797576, 9.998265, 10.001014 
1.6650023e+3, 1.8484554e+2, -1345123.0, -1313036.0, 18577.021, 0.07500635, 0.0067744465, -1304533.6, -176031.08, 0.0, 9.998826, 9.999245 
1.6650116e+3, 1.9484358e+2, -1048558.9, -1098240.9, -6949.029, 0.18756439, -0.16295217, -1047605.2, -17085.334, 0.0, 10.00012, 9.999408 
1.6650198e+3, 2.0484248e+2, -912847.94, -1057604.5, 38482.066, 0.16775705, -0.17644344, -903253.75, 29276.584, 0.0, 10.000674, 9.998774 
1.6650271e+3, 2.1484211e+2, -824856.44, -940948.44, 45066.977, -0.00012061628, -0.13981654, -809415.25, 25119.596, 0.0, 10.000517, 9.998967 
1.6650352e+3, 2.2484107e+2, -740757.75, -843734.3, 34208.156, -0.04380648, -0.13335994, -730429.9, 6114.57, 0.0, 10.000388, 9.999026 
1.6650441e+3, 2.3483928e+2, -631610.94, -717580.94, 3644.8518, 0.032877013, -0.2678561, -631456.7, 7103.317, 0.0, 10.000373, 9.999219 
1.6650517e+3, 2.448385e+2, -588511.8, -806536.9, -22374.707, 0.061089978, -0.19256598, -586239.3, -45670.395, 0.0, 10.000657, 9.997829 
1.6650583e+3, 2.548386e+2, -392950.9, -645551.0, 14453.894, 0.03932728, -0.011923658, -392126.53, 50446.266, 0.0000000057748837, 10.001281, 9.997947 
1.665066e+3, 2.6483706e+2, -216860.3, -442191.8, 118440.26, 0.07399217, 0.02197455, -166058.42, 178529.66, 0.0000055479773, 10.001523, 9.998543 
1.6650751e+3, 2.748338e+2, -131214.14, -338394.28, 77274.37, 0.14231473, -0.21107265, -105567.09, 141048.55, 0.000055377644, 10.001376, 9.998659 
1.6650826e+3, 2.8483173e+2, 19953.61, -267988.72, -5109.606, 0.15640695, -0.254417, 20044.252, 168677.45, 0.00028510438, 10.001979, 9.99817 
1.6650884e+3, 2.9483068e+2, 324591.75, -48970.32, -46250.14, 0.1069902, -0.23474564, 330232.72, 380874.22, 0.000926934, 10.003345, 9.998325 
1.6650951e+3, 3.0482814e+2, 358507.56, -197726.5, 61125.24, 0.04340065, -0.22862059, 365145.47, 365145.47, 0.0020635044, 10.004034, 9.996668 
1.6651054e+3, 3.148278e+2, 329435.47, -143837.83, 10147.594, 0.21742773, 0.0059371665, 329652.97, 329652.97, 0.0035203707, 10.003504, 9.997275 
1.674946e+3, 1.24829374e+2, -2118456.5, -1724341.0, 31729.123, -0.067275956, 0.005622682, -1721802.9, -5134.7188, 0.044670317, 9.99634, 10.001677 
1.6749562e+3, 1.3483067e+2, -1934245.6, -1556770.5, -46673.207, 0.018634912, -0.10609298, -1551085.3, 67569.12, 0.028026333, 9.996847, 10.001932 
1.674965e+3, 1.4483404e+2, -1903785.6, -1491446.4, -20612.441, 0.13301611, 0.058955748, -1490418.5, 30200.775, 0.013357116, 9.996414, 10.00188 
1.6749728e+3, 1.5483627e+2, -1648431.8, -1276955.5, 89897.28, 0.007188343, 0.021305894, -1256344.0, 166251.1, 0.004090086, 9.997334, 10.00223 
1.6749822e+3, 1.6483685e+2, -1580986.8, -1410896.6, 94714.57, 0.0014935528, -0.043742537, -1368648.6, -44061.617, 0.0005678562, 9.998042, 10.000306 
1.674992e+3, 1.7483534e+2, -1452650.0, -1289191.4, 78414.21, 0.06262316, -0.26492742, -1257657.9, -31058.148, 0.000011659807, 9.998222, 10.000378 
1.675002e+3, 1.8483503e+2, -1364087.5, -1356683.6, 48459.203, 0.116009794, -0.25217038, -1311785.1, -183181.81, 0.0, 9.998834, 9.998951 
1.6750121e+3, 1.9483608e+2, -1083459.9, -1146726.4, 52511.15, 0.19563349, -0.09533984, -1053789.9, -23192.947, 0.0, 10.000012, 9.999133 
1.6750205e+3, 2.0483595e+2, -890595.1, -983336.56, 17909.996, 0.13149427, -0.023914019, -887256.56, 45341.79, 0.0, 10.000547, 9.999348 
1.675027e+3, 2.1483444e+2, -818192.25, -878913.3, 54596.04, -0.09111471, -0.15834661, -786082.9, 48527.04, 0.0, 10.000301, 9.999501 
1.675035e+3, 2.2483346e+2, -812448.2, -925225.1, 21508.121, -0.12812892, -0.15277208, -808485.5, -71867.05, 0.0, 10.000098, 9.998605 
1.675045e+3, 2.3483296e+2, -697194.06, -802148.7, 17148.27, 0.063451715, -0.112952426, -694463.3, -55838.234, 0.0, 10.00015, 9.998745 
1.6750535e+3, 2.4483182e+2, -528049.8, -619174.5, -15506.586, 0.15102768, -0.11910786, -525483.4, 15151.215, 0.0, 10.000392, 9.999239 
1.6750605e+3, 2.548299e+2, -325667.13, -447868.5, 57754.973, 0.12315087, -0.2845427, -302690.88, 139956.83, 0.0000000017385277, 10.001035, 9.999417 
1.6750683e+3, 2.6482862e+2, -295832.7, -542081.1, 97953.06, 0.11363522, -0.27804765, -261621.67, 83037.914, 0.0000048816705, 10.001244, 9.997997 
1.6750768e+3, 2.7482772e+2, -203353.0, -444157.9, 93977.055, 0.1461268, -0.21519463, -171018.95, 75654.055, 0.000051551386, 10.001176, 9.998036 
1.6750845e+3, 2.8482658e+2, -61175.637, -359211.34, 31392.318, 0.12103499, -0.10752378, -57904.953, 90780.766, 0.0002714196, 10.001653, 9.997702 
1.6750914e+3, 2.9482523e+2, 263838.78, -117688.484, 33075.527, 0.042100444, -0.08124329, 266684.94, 317381.34, 0.0008994481, 10.00308, 9.997988 
1.6750985e+3, 3.0482098e+2, 291953.1, -228066.22, 26423.486, -0.04671589, -0.23096894, 293292.28, 293292.28, 0.0020333803, 10.003597, 9.996661 
1.6751088e+3, 3.1481877e+2, 302728.72, -97341.98, 50619.207, 0.13418506, -0.18176278, 309033.97, 309033.97, 0.0035085906, 10.003086, 9.997787 
1.6849434e+3, 1.2482042e+2, -1998178.5, -1680938.6, 157618.75, 0.023999305, 0.05174725, -1615943.0, 100814.46, 0.04776628, 9.997257, 10.001534 
1.6849524e+3, 1.3482162e+2, -1895655.9, -1503067.5, -36548.42, -0.04879363, -0.101751484, -1499693.9, 119048.91, 0.030093629, 9.996983, 10.002233 
1.6849633e+3, 1.4482497e+2, -1774058.3, -1406808.3, -14496.677, 0.2925847, 0.028372696, -1406236.9, 114470.11, 0.0144471, 9.997186, 10.002107 
1.6849706e+3, 1.5482733e+2, -1638824.1, -1255341.3, -17754.346, 0.06596992, -0.0114981495, -1254521.1, 168159.08, 0.004479329, 9.997314, 10.002398 
1.68498e+3, 1.6482785e+2, -1652547.9, -1463979.6, -6478.5347, -0.00077287597, -0.08209138, -1463757.4, -139084.23, 0.0006375465, 9.997626, 10.000148 
1.6849908e+3, 1.7482628e+2, -1397185.9, -1274209.1, -10808.497, 0.10008171, -0.29745573, -1273266.4, -46578.164, 0.00001399049, 9.998656, 10.000265 
1.6850014e+3, 1.8482645e+2, -1264145.9, -1252203.3, 40028.008, 0.1715469, -0.25895447, -1217703.6, -89015.48, 0.0, 9.999288, 9.99944 
1.6850118e+3, 1.9482842e+2, -1102536.0, -1105525.0, 76422.46, 0.18918554, -0.05565099, -1027593.44, 3079.081, 0.0, 9.999659, 9.999588 
1.6850206e+3, 2.0482853e+2, -995707.56, -1030334.0, 40755.438, 0.13632007, 0.016317498, -968740.4, -36068.81, 0.0, 9.999814, 9.999375 
1.6850278e+3, 2.1482672e+2, -890788.5, -904564.7, 947.2116, 0.0042696265, -0.15293616, -890723.7, -56037.543, 0.0, 9.999777, 9.999569 
1.6850361e+3, 2.2482574e+2, -796696.4, -910683.9, 19575.762, -0.012494637, -0.15543437, -793428.2, -56733.86, 0.0, 10.00015, 9.998705 
1.6850457e+3, 2.348255e+2, -583277.3, -736743.5, 34187.176, 0.08788828, -0.096535936, -576006.06, 62691.465, 0.0, 10.000873, 9.998868 
1.6850546e+3, 2.4482438e+2, -349102.38, -512050.7, 16305.73, 0.1540168, -0.11338746, -347486.75, 193219.22, 0.0, 10.001532, 9.999414 
1.6850625e+3, 2.548222e+2, -149254.0, -352947.13, -45483.594, 0.16624299, -0.3238349, -139559.19, 303162.06, 0.0000000018399801, 10.002177, 9.999527 
1.6850704e+3, 2.6482108e+2, -158179.69, -496573.7, -40922.902, 0.16428676, -0.29878452, -153301.1, 191431.56, 0.0000039092515, 10.002271, 9.997822 
1.6850783e+3, 2.7482086e+2, -111474.88, -405604.75, -52252.047, 0.15201873, -0.14846012, -102468.125, 144273.19, 0.000046409757, 10.001874, 9.997946 
1.6850866e+3, 2.8481978e+2, 26115.443, -342943.3, 11946.237, 0.14976545, -0.017818218, 26501.732, 175256.19, 0.00025645504, 10.002341, 9.997507 
1.6850959e+3, 2.9481786e+2, 324694.06, -112594.03, -12262.91, 0.15480879, -0.023738172, 325037.7, 375808.7, 0.0008664291, 10.003586, 9.997801 
1.6851032e+3, 3.0481324e+2, 397910.25, -177019.5, -25365.629, 0.03614361, -0.20840938, 399027.2, 399027.2, 0.0019906836, 10.004274, 9.996719 
1.6851118e+3, 3.1481034e+2, 482750.38, 33711.33, -69910.73, 0.107645094, -0.20832437, 493383.0, 493383.0, 0.0034818049, 10.004074, 9.998268 
1.6949415e+3, 1.2481138e+2, -1956046.4, -1641008.1, -117906.695, 0.0123929195, -0.038686175, -1601767.8, 115071.984, 0.051028147, 9.997422, 10.001756 
1.6949475e+3, 1.3481122e+2, -1927451.5, -1559382.9, -13707.768, -0.26350793, -0.2774175, -1558873.0, 59964.992, 0.032295942, 9.996946, 10.001853 
1.6949609e+3, 1.4481445e+2, -1808771.9, -1505282.5, -22378.94, 0.28412116, -0.1149432, -1503641.3, 17163.479, 0.015627254, 9.997297, 10.001371 
1.6949691e+3, 1.5481547e+2, -1707125.1, -1406449.5, -3468.249, 0.15257642, -0.18766645, -1406409.5, 16385.252, 0.004910431, 9.997356, 10.001336 
1.6949783e+3, 1.6481659e+2, -1614991.6, -1402678.0, 10295.401, 0.022687223, -0.15872894, -1402180.0, -77395.086, 0.0007170378, 9.997695, 10.000533 
1.6949897e+3, 1.7481838e+2, -1370002.5, -1212487.6, 42365.074, 0.07371018, -0.08413165, -1201816.1, 24953.89, 0.000016975888, 9.998633, 10.000697 
1.6950005e+3, 1.8481979e+2, -1171959.8, -1070999.5, 37351.67, 0.09464636, -0.004019761, -1058683.1, 70073.29, 0.0, 9.999325, 10.000667 
1.6950102e+3, 1.9482055e+2, -1032199.8, -934528.56, 98774.4, 0.031925455, -0.04394226, -873176.6, 157570.4, 0.0, 9.999554, 10.000808 
1.6950198e+3, 2.0482029e+2, -1063684.6, -1126987.5, 21725.768, 0.03933734, -0.045125764, -1056945.6, -124196.49, 0.0, 9.999617, 9.998813 
1.6950294e+3, 2.1481891e+2, -958384.6, -1007541.5, 12603.857, 0.15568519, -0.11027228, -955341.4, -120577.36, 0.0, 9.9996, 9.998956 
1.6950381e+3, 2.2481781e+2, -784244.9, -816027.0, 31058.277, 0.14069983, -0.13297683, -765248.4, -28475.287, 0.0, 9.999867, 9.999484 
1.6950457e+3, 2.3481683e+2, -570740.9, -642262.6, 80279.414, -0.019445043, -0.22650287, -518617.6, 120160.25, 0.0, 10.000586, 9.99965 
1.6950542e+3, 2.44816e+2, -480916.53, -704282.06, 27331.346, -0.065664224, -0.1985063, -477620.84, 63164.16, 0.0, 10.001186, 9.998263 
1.6950637e+3, 2.5481528e+2, -268395.28, -543360.3, -2344.785, 0.045047175, -0.14301664, -268375.28, 174419.97, 0.0000000033657745, 10.001934, 9.998339 
1.695072e+3, 2.6481426e+2, -192157.63, -495381.38, -68435.26, 0.06738111, -0.048393488, -177427.84, 167379.98, 0.0000030031388, 10.00197, 9.997968 
1.695079e+3, 2.7481303e+2, -130060.94, -391246.84, -46013.973, 0.022713546, -0.028525868, -122191.61, 124631.086, 0.000041455987, 10.001652, 9.998146 
1.6950887e+3, 2.848111e+2, -15187.546, -358301.56, 38825.098, 0.08633441, 0.0024063652, -10849.144, 137993.17, 0.00024337543, 10.002041, 9.997546 
1.6951008e+3, 2.9480824e+2, 290401.34, -130064.62, 56817.227, 0.27497107, -0.096805334, 297943.7, 348812.78, 0.0008331997, 10.003338, 9.997808 
1.6951083e+3, 3.048044e+2, 326622.5, -210530.58, -46771.555, 0.09907673, -0.19775367, 330664.63, 330664.63, 0.0019313671, 10.003817, 9.996691 
1.6951138e+3, 3.1480303e+2, 448774.28, 101745.06, -19899.041, -0.16148631, -0.05987569, 449911.6, 449911.6, 0.0034096164, 10.003504, 9.998991 
1.7049398e+3, 1.248032e+2, -1905487.3, -1618866.4, -102580.53, 0.07707345, -0.08384735, -1585936.5, 130979.32, 0.054460447, 9.997774, 10.001757 
1.7049448e+3, 1.3480178e+2, -1912576.3, -1640008.8, -24544.477, -0.23136193, -0.36095664, -1637816.1, -18888.6, 0.034638863, 9.9974375, 10.001055 
1.704958e+3, 1.4480507e+2, -1810264.4, -1567566.0, 2979.1042, 0.24757689, -0.12441952, -1567529.5, -46634.953, 0.016903277, 9.997587, 10.000795 
1.704967e+3, 1.5480499e+2, -1572534.5, -1404688.4, 17121.465, 0.15331186, -0.24847956, -1402959.8, 19936.398, 0.00538814, 9.998576, 10.000749 
1.7049767e+3, 1.64806e+2, -1456165.8, -1295806.0, 62066.41, 0.05677577, -0.21531637, -1274590.4, 50297.23, 0.0008082668, 9.998655, 10.000797 
1.7049883e+3, 1.7480892e+2, -1440634.0, -1212403.1, 54825.94, 0.11699266, -0.057137635, -1199916.0, 26945.209, 0.000020835996, 9.997997, 10.001008 
1.7049992e+3, 1.8481053e+2, -1371910.9, -1164718.3, 45005.383, 0.11870122, 0.025568936, -1155364.6, -26519.094, 0.0, 9.997934, 10.000711 
1.7050087e+3, 1.9481039e+2, -1140370.1, -986315.9, -9681.67, -0.013952594, -0.10343286, -985709.8, 45135.152, 0.0, 9.998795, 10.00084 
1.705019e+3, 2.0481017e+2, -1066992.1, -1092624.4, -80495.47, 0.017210525, -0.116851956, -998298.94, -65451.94, 0.0, 9.999453, 9.999111 
1.7050298e+3, 2.1480992e+2, -879030.94, -936136.1, -53322.582, 0.22428831, -0.09881805, -847097.6, -12246.545, 0.0, 10.000025, 9.999228 
1.7050391e+3, 2.2480917e+2, -690848.5, -774646.06, 4578.02, 0.2382901, -0.099872075, -690599.1, 46258.113, 0.0, 10.000521, 9.999446 
1.7050469e+3, 2.3480771e+2, -533991.3, -623870.94, -42856.785, 0.04093326, -0.24113671, -516832.1, 122035.02, 0.0, 10.000842, 9.9996395 
1.7050554e+3, 2.4480689e+2, -556404.0, -775141.9, -76331.516, -0.02708226, -0.19733201, -532401.0, 8474.459, 0.0, 10.000817, 9.997957 
1.7050646e+3, 2.548066e+2, -505339.63, -681700.44, -71974.34, 0.03777909, -0.0655795, -479695.22, -36811.973, 0.0000000026261497, 10.000436, 9.9980955 
1.7050734e+3, 2.648054e+2, -302126.16, -528798.7, -48975.918, 0.06003458, 0.010269967, -291996.84, 52900.344, 0.0000021613648, 10.001119, 9.998157 
1.7050815e+3, 2.7480316e+2, 65068.332, -280787.94, -61173.96, 0.03635342, -0.08471785, 75569.73, 322487.9, 0.000036656253, 10.002904, 9.998316 
1.7050917e+3, 2.8480104e+2, 186193.02, -257547.64, 41985.85, 0.12545192, -0.083410546, 190130.69, 339069.6, 0.00022921336, 10.003411, 9.997571 
1.7051041e+3, 2.947987e+2, 174134.44, -185111.45, 16137.204, 0.3143073, -0.12726854, 174857.86, 225820.13, 0.00079328316, 10.00255, 9.997799 
1.705112e+3, 3.0479577e+2, 238113.16, -225263.9, -15145.549, 0.12822099, -0.14681016, 238607.66, 238607.66, 0.001843639, 10.003073, 9.996934 
1.7051184e+3, 3.1479415e+2, 662001.2, 250217.83, -61813.902, -0.099535294, -0.06289057, 671080.1, 671080.1, 0.0032697637, 10.004799, 9.999352 
1.7149383e+3, 1.2479628e+2, -1900460.5, -1628338.0, 4890.923, 0.07844416, -0.077015564, -1628250.1, 88731.84, 0.058051143, 9.997852, 10.001646 
1.7149445e+3, 1.3479388e+2, -2020212.3, -1856441.1, -18943.074, -0.03037921, -0.31390208, -1854278.6, -235272.84, 0.037118543, 9.997417, 9.999579 
1.7149533e+3, 1.4479703e+2, -1817038.8, -1613228.4, 23774.57, -0.013834579, 0.012799017, -1610491.8, -89517.12, 0.018276531, 9.997708, 10.00043 
1.7149638e+3, 1.5479578e+2, -1581344.0, -1427264.0, 70768.055, -0.072365545, -0.213102, -1399693.9, 23291.83, 0.005915651, 9.998587, 10.000591 
1.7149748e+3, 1.6479605e+2, -1437004.4, -1267178.9, 19226.857, -0.036830273, -0.25511596, -1265029.3, 59952.277, 0.0009130136, 9.99871, 10.000963 
1.7149864e+3, 1.7479804e+2, -1439184.3, -1194584.3, 40329.61, 0.10721061, -0.20516388, -1188106.3, 38854.125, 0.000025810483, 9.997945, 10.00115 
1.7149973e+3, 1.8479878e+2, -1452536.5, -1330044.6, 61363.63, 0.09253365, -0.1591622, -1304592.5, -175638.34, 0.0, 9.997923, 9.999583 
1.7150073e+3, 1.9479801e+2, -1231708.6, -1155538.0, 36852.324, -0.072452985, -0.24070407, -1140627.1, -109661.67, 0.0, 9.998707, 9.999721 
1.7150179e+3, 2.0479824e+2, -1014152.8, -946764.1, -72410.65, -0.08269753, -0.20417371, -900592.25, 32372.043, 0.0, 9.999298, 10.000188 
1.7150287e+3, 2.1479958e+2, -835666.8, -788450.2, -18200.316, 0.08329475, -0.14015001, -782249.06, 52700.285, 0.0, 9.999778, 10.000361 
1.715039e+3, 2.2479957e+2, -793164.5, -917883.8, 4343.161, 0.15301289, -0.082504354, -793013.44, -56064.324, 0.0, 10.0002165, 9.998615 
1.715049e+3, 2.3479806e+2, -626957.8, -770927.8, -14395.1, 0.13664615, -0.13985308, -625532.6, 13433.257, 0.0, 10.000632, 9.998738 
1.7150576e+3, 2.4479693e+2, -562602.4, -711740.75, -105681.61, 0.089614704, -0.10861799, -507830.28, 33147.758, 0.0, 10.000502, 9.998537 
1.7150652e+3, 2.547961e+2, -502340.78, -616673.0, -69249.05, 0.0147838555, -0.096285656, -469710.47, -26723.785, 0.0000000000058928205, 10.000185, 9.998662 
1.715074e+3, 2.647942e+2, -327053.16, -517414.06, -217.0183, -0.0057307556, -0.12973386, -327052.9, 17950.697, 0.0000014626683, 10.000852, 9.9983635 
1.7150848e+3, 2.7479115e+2, 41197.18, -269212.56, 22792.22, 0.047888964, -0.32053232, 42861.8, 289890.97, 0.000032258973, 10.002641, 9.998523 
1.715095e+3, 2.8478944e+2, 129231.99, -296749.8, -6784.8135, 0.092539005, -0.28129035, 129340.03, 278385.3, 0.00021422842, 10.003069, 9.997469 
1.715105e+3, 2.9478905e+2, 133878.16, -210269.03, 12667.148, 0.11048236, -0.13291658, 134343.77, 185396.27, 0.0007461243, 10.002293, 9.997751 
1.7151137e+3, 3.0478704e+2, 188597.94, -222419.88, 31429.713, -0.041426156, -0.07210471, 190987.4, 190987.4, 0.0017331633, 10.002653, 9.997146 
1.7151248e+3, 3.1478313e+2, 563048.6, 215010.64, 51912.117, 0.0018434912, -0.24275596, 570626.6, 570626.6, 0.0030820344, 10.004114, 9.999422 
1.7249362e+3, 1.2478689e+2, -2038431.0, -1735083.0, 23672.29, 0.1378293, -0.08755553, -1733246.8, -16175.658, 0.06177432, 9.997092, 10.001232 
1.724943e+3, 1.3478447e+2, -1821492.3, -1827404.6, -118887.66, 0.014670742, -0.29152393, -1705524.0, -86425.586, 0.039721623, 9.999061, 9.998967 
1.724952e+3, 1.447877e+2, -1667062.8, -1569376.3, -20876.121, 0.03691283, 0.092025235, -1565101.9, -44034.56, 0.019743169, 9.998838, 10.000198 
1.7249618e+3, 1.5478589e+2, -1706374.8, -1489811.0, -2456.5032, -0.06400527, -0.1814781, -1489783.3, -66700.92, 0.006494274, 9.997709, 10.000609 
1.724973e+3, 1.6478574e+2, -1620564.4, -1409287.5, -18546.486, -0.019071603, -0.24389493, -1407671.8, -82590.04, 0.001032908, 9.997665, 10.000505 
1.7249848e+3, 1.7478685e+2, -1284723.6, -1173021.9, -73031.06, 0.105428144, -0.23583542, -1136933.4, 90136.086, 0.00003215152, 9.999216, 10.000693 
1.7249963e+3, 1.847872e+2, -1237974.4, -1234432.5, -23952.107, 0.12823881, -0.20168522, -1212185.9, -83118.65, 0.0, 9.999431, 9.999508 
1.725007e+3, 1.9478683e+2, -1261057.9, -1173846.0, 1709.3413, 0.036530696, -0.23511106, -1173812.5, -142737.34, 0.0, 9.998528, 9.999676 
1.7250176e+3, 2.0478724e+2, -1098248.5, -956197.2, -33983.63, 0.013967166, -0.19397478, -948485.75, -15413.758, 0.0, 9.998583, 10.000478 
1.7250282e+3, 2.1478832e+2, -797747.1, -739329.9, -67268.555, 0.058133785, -0.18143924, -695202.25, 139855.95, 0.0, 9.999894, 10.000652 
1.725039e+3, 2.2478853e+2, -768705.5, -901261.06, -49405.605, 0.12646271, -0.11729466, -752317.3, -15261.017, 0.0, 10.000398, 9.998625 
1.7250499e+3, 2.3478784e+2, -706358.06, -807904.1, -41246.086, 0.20776416, -0.090492085, -691715.94, -52648.945, 0.0, 10.000116, 9.998717 
1.7250592e+3, 2.447867e+2, -500663.03, -660988.0, -58941.223, 0.19104864, -0.068823114, -481326.3, 59752.59, 0.0, 10.000812, 9.998739 
1.7250668e+3, 2.54785e+2, -153013.42, -422268.53, -74405.484, 0.057544533, -0.16578841, -133820.45, 309272.6, 0.0000000000049057277, 10.002459, 9.9989 
1.7250763e+3, 2.6478302e+2, -36559.06, -393576.8, -5507.5566, 0.041132223, -0.21117203, -36474.117, 308635.6, 0.0000011502509, 10.002928, 9.998207 
1.7250882e+3, 2.7478063e+2, -49330.066, -337133.8, -47085.9, 0.15731104, -0.31369033, -41822.457, 205307.69, 0.000029351942, 10.002117, 9.998311 
1.7250985e+3, 2.8477907e+2, 20420.982, -327892.97, -55877.438, 0.17930724, -0.25708017, 29165.457, 178310.66, 0.00020332959, 10.0022545, 9.997629 
1.7251073e+3, 2.947782e+2, 317120.6, -102353.23, -77517.33, 0.066679254, -0.17021103, 330987.16, 382143.28, 0.0007057303, 10.003503, 9.997888 
1.7251165e+3, 3.0477628e+2, 410548.0, -128081.86, -2213.4033, -0.06445689, -0.103605874, 410557.1, 410557.1, 0.0016357158, 10.004181, 9.997092 
1.7251307e+3, 3.147721e+2, 509207.28, 111807.61, -71376.12, 0.20320512, -0.28035098, 521638.13, 521638.13, 0.0029145537, 10.003967, 9.998844 
1.734933e+3, 1.24774605e+2, -2093202.6, -1860904.4, 141730.17, 0.029123142, -0.16296, -1793810.4, -76622.76, 0.06561491, 9.997159, 10.000327 
1.7349398e+3, 1.3477334e+2, -1803572.5, -1795351.5, -72210.62, -0.26906067, -0.2978777, -1727134.5, -107927.11, 0.042436883, 9.999073, 9.999185 
1.7349535e+3, 1.4477658e+2, -1661825.5, -1572814.1, -93656.06, 0.24972595, 0.08500358, -1513626.9, 7550.9014, 0.021297567, 9.998905, 10.000137 
1.734961e+3, 1.5477534e+2, -1695900.1, -1467557.4, -36303.68, 0.038393397, -0.14819568, -1461924.5, -38738.414, 0.0071235094, 9.997713, 10.000755 
1.7349708e+3, 1.6477516e+2, -1672814.3, -1546665.6, 20273.994, -0.057747815, -0.17090255, -1543487.4, -218300.22, 0.0011691477, 9.997775, 9.999515 
1.7349833e+3, 1.7477529e+2, -1358615.3, -1333227.8, -3880.6997, -0.0059423307, -0.15396674, -1332647.8, -105459.09, 0.00004011834, 9.999233, 9.999591 
1.7349955e+3, 1.8477574e+2, -1172808.1, -1099341.8, -76036.57, 0.070957474, -0.09809047, -1051630.4, 77555.18, 0.0, 9.999435, 10.00043 
1.7350072e+3, 1.9477676e+2, -1216681.6, -1045056.4, -22627.059, 0.18050261, -0.09248844, -1042123.3, -10947.975, 0.0, 9.998372, 10.000632 
1.7350179e+3, 2.0477706e+2, -1157664.9, -1038504.44, -2377.8015, 0.15898709, -0.08775414, -1038457.0, -105285.84, 0.0, 9.998402, 9.999999 
1.7350279e+3, 2.1477629e+2, -860987.2, -830614.56, -4168.2183, 0.013324322, -0.21208557, -830052.9, 5123.491, 0.0, 9.999718, 10.00011 
1.7350383e+3, 2.2477613e+2, -758862.3, -818610.25, -74198.38, -0.009072421, -0.190644, -708749.7, 28427.818, 0.0, 10.000131, 9.999318 
1.7350495e+3, 2.347767e+2, -685384.5, -714630.2, -36075.69, 0.12029569, -0.113847174, -661080.75, -21907.021, 0.0, 9.999893, 9.999467 
1.7350598e+3, 2.4477585e+2, -551708.0, -689147.3, -10410.867, 0.13293467, -0.101406485, -550923.8, -9742.55, 0.0, 10.000492, 9.998697 
1.7350692e+3, 2.5477332e+2, -195056.48, -446262.28, 7743.0454, 0.026721857, -0.27219453, -194818.05, 248384.1, 0.000000000000012544113, 10.002197, 9.998859 
1.7350796e+3, 2.6477185e+2, -126805.36, -502426.22, -47492.13, 0.044142433, -0.23724163, -120893.67, 224322.34, 0.0000010511417, 10.002596, 9.997616 
1.735091e+3, 2.747716e+2, -130139.83, -439674.28, -54308.047, 0.21578233, -0.07470488, -120887.98, 126333.555, 0.000029114979, 10.001852, 9.997724 
1.7351015e+3, 2.847697e+2, -19390.188, -341527.8, -30611.502, 0.21824609, -0.022168135, -16507.098, 132733.3, 0.00019954766, 10.001953, 9.997684 
1.7351106e+3, 2.947657e+2, 269947.63, -118682.45, -5893.7886, 0.015057049, -0.25887263, 270036.97, 321314.3, 0.0006841952, 10.003153, 9.997944 
1.7351204e+3, 3.0476323e+2, 315230.94, -209451.63, -30447.734, -0.14603369, -0.23767073, 316991.94, 316991.94, 0.0015848163, 10.003709, 9.99674 
1.735135e+3, 3.1476012e+2, 343801.3, -53361.57, -19375.271, 0.170766, -0.2874791, 344744.28, 344744.28, 0.0028348158, 10.003258, 9.998015 
1.7449318e+3, 1.24762714e+2, -1928111.5, -1683095.0, 203508.28, 0.16405141, -0.20042314, -1568066.1, 149236.45, 0.06957688, 9.997899, 10.0012455 
1.7449374e+3, 1.3476154e+2, -2101316.8, -1914817.5, -104381.49, -0.29644734, -0.3350776, -1868099.4, -248779.22, 0.045260757, 9.996949, 9.9993925 
1.7449528e+3, 1.4476469e+2, -1830771.5, -1680102.0, -76931.195, 0.3483071, 0.037648194, -1647762.5, -126470.91, 0.022935338, 9.997867, 9.999885 
1.7449604e+3, 1.5476358e+2, -1403371.6, -1361393.1, -97217.14, 0.12973553, -0.15527168, -1282925.3, 140375.9, 0.0078018596, 9.999879, 10.000423 
1.7449702e+3, 1.647633e+2, -1375972.4, -1422603.1, -15430.761, 0.0022985623, -0.16466802, -1371328.6, -46023.926, 0.0013223152, 9.999907, 9.999342 
1.7449823e+3, 1.747634e+2, -1494323.5, -1412720.0, -1286.2365, 0.0137358885, -0.13274178, -1412699.8, -185392.84, 0.000049909977, 9.998377, 9.999462 
1.7449945e+3, 1.8476397e+2, -1358869.4, -1171118.5, -29232.0, 0.10768859, -0.068378665, -1166672.4, -37370.125, 0.0000000000000006446772, 9.998085, 10.00058 
1.7450067e+3, 1.9476505e+2, -1069297.0, -955768.94, -68496.6, 0.2594384, -0.073879875, -923572.6, 107717.6, 0.0, 9.999308, 10.000781 
1.7450179e+3, 2.0476522e+2, -944920.8, -969834.6, -17671.32, 0.25057545, -0.0753736, -935757.1, -2469.752, 0.0, 9.999991, 9.999713 
1.7450283e+3, 2.1476425e+2, -804343.06, -832437.25, -33655.19, 0.06988613, -0.18769862, -781921.06, 53374.625, 0.0, 10.000226, 9.999859 
1.7450388e+3, 2.2476397e+2, -677005.6, -743370.8, -103550.81, 0.015424348, -0.18322556, -601450.6, 135847.1, 0.0, 10.000511, 9.999668 
1.7450495e+3, 2.3476446e+2, -521640.06, -593821.56, -119302.11, 0.092577934, -0.1500578, -433089.2, 206203.53, 0.0, 10.000831, 9.99985 
1.7450605e+3, 2.4476385e+2, -452117.16, -625662.7, -44381.473, 0.13898054, -0.1373456, -441425.94, 99870.69, 0.0, 10.001147, 9.998802 
1.745072e+3, 2.5476187e+2, -295166.47, -483051.78, -54580.66, 0.13660957, -0.2598116, -280461.66, 162850.56, 0.0, 10.001499, 9.99893 
1.745083e+3, 2.6476046e+2, -224502.03, -554197.3, -99010.766, 0.17144783, -0.22009125, -197053.34, 148272.47, 0.0000010008785, 10.00192, 9.997592 
1.7450933e+3, 2.747597e+2, -47223.36, -404778.3, -100965.805, 0.236254, -0.103880316, -20682.838, 226654.38, 0.000030147008, 10.002418, 9.997695 
1.7451039e+3, 2.8475776e+2, 92112.586, -287779.88, 7593.993, 0.23635927, -0.059058145, 92264.33, 241621.56, 0.00019898178, 10.002693, 9.997709 
1.7451146e+3, 2.9475406e+2, 187973.05, -172607.02, -20217.73, 0.13690998, -0.26181203, 189103.11, 240494.33, 0.00068108423, 10.002598, 9.997868 
1.7451245e+3, 3.047516e+2, 198069.7, -244704.64, 6564.287, -0.03412001, -0.23624612, 198167.0, 198167.0, 0.0015910955, 10.00279, 9.996959 
1.7451385e+3, 3.1474966e+2, 396175.3, -41149.313, -26745.633, 0.18912584, -0.19217744, 397804.94, 397804.94, 0.002872257, 10.003649, 9.997918 
1.7549291e+3, 1.2475066e+2, -1702567.5, -1273642.8, 12948.275, 0.02302739, -0.23671883, -1273252.3, 444169.22, 0.07366958, 9.997996, 10.004202 
1.7549352e+3, 1.3474889e+2, -2089248.1, -1881960.8, -103812.46, -0.23449582, -0.4247496, -1838910.8, -219472.86, 0.048192136, 9.996918, 9.999628 
1.7549492e+3, 1.4475258e+2, -1838691.3, -1725353.5, -10615.349, 0.1547282, -0.011416176, -1724367.8, -202964.1, 0.024652572, 9.997981, 9.999527 
1.7549603e+3, 1.5475069e+2, -1455737.9, -1482829.0, -12399.437, 0.086136945, -0.19950478, -1450919.6, -27492.557, 0.008527423, 9.99992, 9.999576 
1.7549706e+3, 1.6474989e+2, -1324739.4, -1328037.8, -99606.46, 0.0036915415, -0.24219924, -1226768.5, 98668.66, 0.0014925194, 9.999966, 9.999961 
1.7549811e+3, 1.7475107e+2, -1447174.1, -1299447.6, -46774.805, 0.03612445, -0.18059005, -1285882.9, -58457.84, 0.00006156021, 9.9983225, 10.000259 
1.7549928e+3, 1.8475187e+2, -1398688.9, -1255163.0, -1374.2769, 0.093673386, -0.106882006, -1255149.9, -125732.69, 0.0000000010737394, 9.998088, 10.000002 
1.7550053e+3, 1.9475171e+2, -1128258.4, -1061878.9, -11957.768, 0.14458798, -0.17100325, -1059790.5, -28370.928, 0.0, 9.999233, 10.000091 
1.755017e+3, 2.0475169e+2, -975268.8, -998806.2, -24556.797, 0.13676174, -0.15005605, -959806.3, -26385.563, 0.0, 9.999844, 9.999584 
1.7550291e+3, 2.1475194e+2, -839656.25, -858193.8, -11869.187, 0.104000114, -0.13399024, -833865.56, 1553.3572, 0.0, 10.000016, 9.999784 
1.75504e+3, 2.2475185e+2, -715171.7, -758185.4, -105102.33, 0.055793203, -0.108509116, -629398.3, 108020.65, 0.0, 10.000237, 9.999698 
1.7550495e+3, 2.3475121e+2, -553581.6, -609891.1, -90589.39, -0.008275289, -0.19080132, -486872.63, 152550.06, 0.0, 10.000608, 9.999849 
1.7550609e+3, 2.4475074e+2, -490197.72, -637702.0, -41950.727, 0.0372474, -0.1680301, -479101.53, 62323.19, 0.0, 10.000858, 9.998858 
1.7550749e+3, 2.5475037e+2, -322966.75, -488183.56, -24181.252, 0.23753636, -0.13984275, -319500.28, 123925.37, 0.0, 10.001271, 9.999003 
1.7550862e+3, 2.6474845e+2, -232306.78, -512695.5, -98446.4, 0.2622752, -0.17519987, -201193.97, 144249.17, 0.00000094846536, 10.001666, 9.998003 
1.7550945e+3, 2.747449e+2, -53083.277, -351453.72, -63184.26, 0.08263669, -0.38257375, -40254.668, 207222.81, 0.000030605133, 10.002144, 9.998189 
1.7551053e+3, 2.8474322e+2, 42952.156, -318057.16, -10438.503, 0.063588746, -0.33886617, 43253.73, 192748.73, 0.0002004244, 10.002383, 9.997648 
1.7551185e+3, 2.947431e+2, 128558.625, -216804.97, -1860.4364, 0.23910093, -0.17877133, 128568.64, 180067.16, 0.000696978, 10.002267, 9.997717 
1.7551284e+3, 3.0474156e+2, 161205.13, -221519.77, 9946.268, 0.052673098, -0.06955463, 161463.44, 161463.44, 0.0016497148, 10.002373, 9.99731 
1.7551406e+3, 3.1474084e+2, 297687.4, -71062.21, 75486.33, -0.027281586, 0.031283643, 312541.75, 312541.75, 0.0030015628, 10.002941, 9.998031 
1.7649257e+3, 1.2473787e+2, -1753333.3, -1181870.4, -21131.826, -0.047213163, -0.22330372, -1181090.0, 536461.56, 0.07790593, 9.997059, 10.005356 
1.7649338e+3, 1.3473603e+2, -1899606.4, -1798975.1, -192375.47, -0.130045, -0.41642871, -1650444.1, -30878.613, 0.05123237, 9.998222, 9.999574 
1.7649469e+3, 1.4473979e+2, -1744009.9, -1647891.3, -41077.695, 0.10371892, -0.01033626, -1632728.1, -111198.55, 0.026445003, 9.998495, 9.999818 
1.7649592e+3, 1.5473837e+2, -1659772.9, -1549554.5, -3856.269, 0.06554578, -0.174066, -1549419.8, -125870.37, 0.009296644, 9.998412, 9.999843 
1.7649698e+3, 1.6473792e+2, -1494997.5, -1372285.1, -72057.54, 0.019660965, -0.21175037, -1339000.6, -13444.818, 0.0016790463, 9.998641, 10.000282 
1.7649804e+3, 1.7473905e+2, -1270836.0, -1184795.0, -87166.18, 0.08241129, -0.18927237, -1130611.0, 96931.484, 0.000074904594, 9.999389, 10.000529 
1.7649919e+3, 1.8473966e+2, -1213048.5, -1183184.8, 14901.606, 0.1437726, -0.13827467, -1177021.1, -47485.594, 0.000000009428086, 9.999444, 9.9998455 
1.7650042e+3, 1.9473943e+2, -1146678.5, -1083717.0, 12032.055, 0.1455727, -0.19327663, -1081496.0, -49956.98, 0.0, 9.99918, 9.99997 
1.7650166e+3, 2.047395e+2, -1079319.8, -1043486.94, 41789.414, 0.145961, -0.15714681, -1015935.25, -82395.95, 0.0, 9.999125, 9.999614 
1.7650293e+3, 2.1474001e+2, -941850.8, -902636.06, 35032.676, 0.16075957, -0.116317116, -882097.0, -46561.984, 0.0, 9.999317, 9.999803 
1.7650406e+3, 2.2473969e+2, -794710.94, -840342.1, -25903.703, 0.12747596, -0.09726375, -783007.6, -45470.023, 0.0, 9.99989, 9.999294 
1.7650506e+3, 2.3473828e+2, -528486.2, -640080.06, -80591.9, 0.021156399, -0.21295717, -486260.94, 153288.19, 0.0, 10.000976, 9.999458 
1.7650622e+3, 2.4473754e+2, -372709.56, -581520.6, -38718.918, 0.056480926, -0.20035893, -365761.28, 175792.98, 0.0, 10.001616, 9.998908 
1.7650762e+3, 2.547374e+2, -256270.5, -454773.25, -44373.555, 0.25265723, -0.15086228, -246802.75, 196750.5, 0.0, 10.001679, 9.999062 
1.7650878e+3, 2.6473576e+2, -194226.8, -444411.25, -82299.48, 0.27952275, -0.18187778, -169581.69, 175985.83, 0.0000007067664, 10.001739, 9.9984255 
1.7650965e+3, 2.747324e+2, -69530.43, -311984.66, -92813.63, 0.096354365, -0.40907028, -38080.16, 209518.5, 0.000029110019, 10.0018425, 9.998599 
1.7651077e+3, 2.8473103e+2, 65795.64, -288320.0, 4822.1587, 0.08044961, -0.36476386, 65861.29, 215474.52, 0.00020337792, 10.002477, 9.997806 
1.7651217e+3, 2.9473135e+2, 357246.13, -94670.625, -24007.768, 0.26568857, -0.16175586, 358517.97, 410130.78, 0.00072560523, 10.003808, 9.99781 
1.765132e+3, 3.047294e+2, 435251.13, -79180.2, 10715.139, 0.09411383, -0.10092144, 435474.22, 435474.22, 0.0017290524, 10.004189, 9.997416 
1.7651445e+3, 3.147288e+2, 352991.53, -32310.164, -14204.782, 0.07680688, 0.011741459, 353514.5, 353514.5, 0.0031406845, 10.003212, 9.998188 
1.7749229e+3, 1.24725424e+2, -1812612.6, -1329166.5, 101277.75, -0.11221051, -0.08006651, -1308807.1, 408875.38, 0.08231803, 9.997192, 10.004226 
1.7749329e+3, 1.347233e+2, -1921689.1, -1853626.4, -145374.2, -0.07584598, -0.28590876, -1738353.4, -118653.766, 0.054393712, 9.998249, 9.999187 
1.774945e+3, 1.4472589e+2, -1674634.8, -1519100.0, -68623.73, 0.010037056, -0.0023124185, -1493151.5, 28521.9, 0.02831169, 9.998553, 10.00068 
1.7749564e+3, 1.5472658e+2, -1561334.3, -1348410.8, 5092.4673, -0.07975799, -0.08876623, -1348289.0, 75379.47, 0.010105246, 9.998414, 10.001229 
1.7749678e+3, 1.6472743e+2, -1488599.8, -1368670.9, -60732.46, -0.09914554, -0.07379891, -1343288.0, -17627.828, 0.0018804772, 9.998683, 10.000286 
1.7749795e+3, 1.7472734e+2, -1288884.6, -1213837.4, -46664.883, 0.02643664, -0.15522398, -1191480.9, 36178.43, 0.00008970714, 9.999358, 10.000342 
1.7749915e+3, 1.8472743e+2, -1193759.5, -1149255.5, -11220.361, 0.10229246, -0.15854365, -1146586.8, -16929.58, 0.000000028818846, 9.999465, 10.00007 
1.7750037e+3, 1.9472809e+2, -1137346.4, -1047177.9, 16911.734, 0.13113366, -0.15159349, -1044110.3, -12460.515, 0.0, 9.999099, 10.000263 
1.775016e+3, 2.0472851e+2, -1093412.1, -1033501.9, 33931.19, 0.13125108, -0.103290476, -1018195.2, -84550.56, 0.0, 9.998964, 9.999753 
1.7750284e+3, 2.1472839e+2, -969968.06, -907701.9, 54210.656, 0.11916641, -0.14078848, -876320.44, -40675.44, 0.0, 9.999096, 9.999868 
1.7750405e+3, 2.2472736e+2, -897684.94, -999748.44, 994.9163, 0.088259585, -0.14460164, -897675.25, -160020.53, 0.0, 9.999645, 9.998322 
1.7750521e+3, 2.3472539e+2, -620878.0, -795383.56, -22812.955, 0.054852765, -0.22633664, -617945.0, 21729.83, 0.0, 10.000799, 9.998484 
1.775064e+3, 2.4472389e+2, -407648.3, -581869.94, -50668.98, 0.04885433, -0.24434981, -393983.94, 147704.61, 0.0, 10.001318, 9.9990425 
1.7750764e+3, 2.5472295e+2, -281018.13, -448867.38, -25276.96, 0.06935561, -0.29162565, -277294.22, 166400.63, 0.0, 10.001445, 9.99921 
1.775088e+3, 2.6472238e+2, -217625.92, -425877.84, -90791.086, 0.08856727, -0.2378328, -183602.55, 162096.48, 0.00000032366296, 10.001457, 9.998686 
1.7750987e+3, 2.7472213e+2, -96492.95, -293029.03, -68260.43, 0.11998557, -0.18446963, -75111.12, 172590.6, 0.00002512301, 10.001543, 9.998862 
1.7751107e+3, 2.8472102e+2, 24672.434, -301221.2, 31055.799, 0.10580552, -0.12729865, 27605.477, 177318.38, 0.00020098852, 10.002159, 9.997872 
1.7751238e+3, 2.9471877e+2, 321821.22, -95994.734, 47769.63, 0.05757973, -0.20200036, 327213.22, 378947.84, 0.0007425487, 10.003499, 9.997948 
1.7751347e+3, 3.0471525e+2, 357596.44, -139264.05, -39645.656, -0.09106422, -0.29990235, 360739.97, 360739.97, 0.0017707977, 10.003764, 9.997203 
1.7751496e+3, 3.1471553e+2, 260983.03, -31556.764, 28382.51, 0.20572284, -0.0721814, 263711.28, 263711.28, 0.0031853206, 10.00245, 9.998531 
1.784922e+3, 1.2471449e+2, -1719209.1, -1453740.4, 309855.97, 0.0047944067, 0.03974839, -1249385.5, 468402.8, 0.08696164, 9.998751, 10.00256 
1.7849317e+3, 1.3471133e+2, -1864702.1, -1856869.9, -29527.922, -0.029958459, -0.23731123, -1830999.5, -211180.63, 0.057701517, 9.998843, 9.998852 
1.7849432e+3, 1.4471331e+2, -1687340.5, -1469348.9, 60010.1, 0.01477564, -0.016144812, -1453920.9, 67878.055, 0.030258754, 9.998226, 10.001186 
1.7849553e+3, 1.547148e+2, -1580982.9, -1294507.5, 45514.09, -0.015819492, -0.08446929, -1287450.3, 136333.5, 0.0109521225, 9.99799, 10.001812 
1.7849669e+3, 1.6471626e+2, -1567787.6, -1402098.1, 12889.999, -0.015236491, -0.043871537, -1401101.3, -75333.0, 0.0020959692, 9.998115, 10.000332 
1.7849791e+3, 1.7471613e+2, -1348458.1, -1236905.6, 3467.0994, 0.078850605, -0.13297716, -1236798.0, -9029.848, 0.000105867584, 9.99894, 10.00038 
1.784991e+3, 1.8471588e+2, -1221965.9, -1179935.8, 34784.42, 0.13521269, -0.16221106, -1160311.1, -30542.31, 0.0000000562377, 9.999343, 9.999925 
1.7850028e+3, 1.9471607e+2, -1080842.1, -1033913.6, 5316.3413, 0.1208608, -0.18994914, -1033318.9, -1553.9146, 0.0, 9.999532, 10.000148 
1.7850153e+3, 2.0471624e+2, -940445.44, -978476.3, 46966.965, 0.13494627, -0.15579052, -908790.56, 24971.465, 0.0, 10.000078, 9.999607 
1.785029e+3, 2.14716e+2, -669079.1, -780309.9, 19562.928, 0.18071699, -0.18551041, -665738.75, 170024.77, 0.0, 10.001219, 9.999736 
1.7850418e+3, 2.2471502e+2, -620922.44, -887705.44, 8571.652, 0.17521897, -0.16804354, -620647.3, 117126.15, 0.0, 10.001646, 9.998129 
1.7850536e+3, 2.3471329e+2, -560407.1, -788087.44, 7934.7847, 0.112473905, -0.20383814, -560130.94, 79661.15, 0.0, 10.001325, 9.9982815 
1.7850655e+3, 2.4471164e+2, -444796.28, -632883.25, 7956.6377, 0.083109155, -0.20962678, -444460.28, 97348.48, 0.0, 10.001227, 9.998719 
1.7850778e+3, 2.5471008e+2, -306479.4, -498931.94, -36683.734, 0.0696855, -0.2892045, -299724.16, 144099.58, 0.0, 10.00145, 9.998851 
1.7850897e+3, 2.6470947e+2, -143067.72, -380506.16, -92366.14, 0.09265125, -0.22312868, -111368.336, 234460.4, 0.00000018370703, 10.001897, 9.998804 
1.785101e+3, 2.7470973e+2, 71519.22, -211778.03, -109999.37, 0.13879357, -0.1269488, 109214.38, 357039.47, 0.000020759246, 10.002633, 9.998929 
1.7851132e+3, 2.8470847e+2, 105716.73, -265780.6, 21865.852, 0.12759408, -0.080031484, 106999.3, 256835.53, 0.0001926232, 10.002748, 9.997821 
1.7851266e+3, 2.9470572e+2, 139622.97, -192086.52, -22709.285, 0.06458063, -0.19794157, 141170.47, 193032.81, 0.00073852565, 10.002284, 9.997866 
1.7851381e+3, 3.0470157e+2, 208890.98, -215381.55, -83716.71, -0.06324962, -0.35089886, 224812.34, 224812.34, 0.001755, 10.002767, 9.997157 
1.7851534e+3, 3.1470054e+2, 487682.3, 76988.164, -89366.56, 0.29219112, -0.23462251, 506285.7, 506285.7, 0.0031042786, 10.003984, 9.99856 
1.7949215e+3, 1.2470308e+2, -1850107.5, -1763188.8, 178295.56, -0.0033017448, -0.08576347, -1623132.4, 94755.74, 0.09190124, 9.998912, 10.000198 
1.7949295e+3, 1.3469999e+2, -1865262.4, -1887727.8, -34836.367, -0.17924677, -0.2950926, -1839892.5, -219968.42, 0.06119029, 9.99894, 9.998609 
1.7949414e+3, 1.4470223e+2, -1678722.4, -1464306.6, 24527.523, -0.03911366, -0.049821194, -1461536.6, 60367.805, 0.03230053, 9.998289, 10.001187 
1.7949551e+3, 1.5470313e+2, -1605634.6, -1337547.4, 49122.18, 0.1396149, -0.1527281, -1328830.0, 95064.305, 0.011841973, 9.997966, 10.00152 
1.7949669e+3, 1.6470438e+2, -1552424.1, -1389246.5, 22540.328, 0.12736215, -0.11555845, -1386190.3, -60309.6, 0.0023264778, 9.998182, 10.000395 
1.7949788e+3, 1.7470525e+2, -1331720.0, -1206507.0, 44182.785, 0.12351852, -0.120976985, -1192486.6, 35383.918, 0.00012352158, 9.998946, 10.000593 
1.7949903e+3, 1.847049e+2, -1252858.5, -1248547.4, 24232.225, 0.09119772, -0.15136303, -1226375.0, -96503.07, 0.000000085167756, 9.999368, 9.999438 
1.7950012e+3, 1.9470331e+2, -1138473.0, -1127910.6, 20674.389, -0.015567742, -0.3018157, -1111853.5, -79968.21, 0.0, 9.999426, 9.999553 
1.7950146e+3, 2.0470266e+2, -988617.94, -1043246.5, 71272.86, 0.0045399745, -0.29819235, -939604.7, -5713.3584, 0.0, 9.999919, 9.999243 
1.7950308e+3, 2.1470298e+2, -719601.7, -843383.0, 75807.03, 0.21887785, -0.24115425, -683629.4, 152260.7, 0.0, 10.001029, 9.9994 
1.7950444e+3, 2.2470266e+2, -630833.1, -844267.6, -16616.412, 0.248588, -0.1622934, -629547.25, 108347.05, 0.0, 10.001371, 9.99856 
1.7950548e+3, 2.3470174e+2, -565232.94, -739559.4, 11434.832, 0.072468765, -0.1618028, -564486.06, 75417.18, 0.0, 10.001074, 9.998733 
1.7950664e+3, 2.4470045e+2, -550216.06, -781198.06, 3755.5754, 0.013896459, -0.1140487, -550155.0, -8236.967, 0.0, 10.000926, 9.997847 
1.79508e+3, 2.5469857e+2, -406298.47, -646394.9, -12537.224, 0.1168609, -0.1331422, -405645.56, 38295.254, 0.0, 10.001204, 9.9979515 
1.7950922e+3, 2.646968e+2, -191707.02, -412296.94, -79471.52, 0.13398391, -0.13236979, -166058.23, 179899.8, 0.00000013255313, 10.001596, 9.998732 
1.7951027e+3, 2.7469522e+2, 30290.078, -226214.95, -65648.984, 0.01760656, -0.22467928, 46115.656, 294084.03, 0.0000188634, 10.002347, 9.998958 
1.7951149e+3, 2.8469375e+2, 37260.195, -336479.6, -13716.876, -0.018542653, -0.18944289, 37762.953, 187743.34, 0.00018772867, 10.002431, 9.997493 
1.7951295e+3, 2.946924e+2, 67829.46, -254165.83, -9521.764, 0.09616772, -0.13618392, 68110.79, 120105.27, 0.00073078944, 10.001922, 9.997607 
1.7951415e+3, 3.0468836e+2, 120069.1, -299394.4, -56400.625, -0.03594916, -0.24712579, 127520.305, 127520.305, 0.0017134675, 10.002318, 9.996805 
1.795155e+3, 3.1468415e+2, 403094.0, 53359.758, 31656.662, -0.0025699458, -0.4331096, 405936.34, 405936.34, 0.0029593005, 10.003369, 9.998672 
1.8049213e+3, 1.24690086e+2, -1814847.8, -1775166.0, 63851.273, 0.09436014, -0.19992578, -1728144.0, -10132.952, 0.097200245, 9.999303, 9.999883 
1.8049285e+3, 1.3468893e+2, -1944490.1, -1834357.1, -127712.41, -0.117467925, -0.28345448, -1750345.3, -130318.78, 0.06490086, 9.998005, 9.999428 
1.80494e+3, 1.446902e+2, -1825960.8, -1585699.5, 43200.85, 0.034813046, -0.16120552, -1578167.8, -56151.832, 0.034457777, 9.997491, 10.000727 
1.8049543e+3, 1.5469082e+2, -1488079.9, -1339960.1, 19343.227, 0.21620226, -0.24081752, -1337475.6, 86533.8, 0.0127833225, 9.999024, 10.000991 
1.8049662e+3, 1.646917e+2, -1335995.9, -1316397.5, 5373.1245, 0.17023885, -0.1973768, -1315021.0, 10979.26, 0.0025744103, 9.999813, 10.000109 
1.8049783e+3, 1.7469266e+2, -1196119.3, -1163905.3, -38156.03, 0.13429956, -0.1692473, -1138595.9, 89394.8, 0.00014305822, 9.9999895, 10.000372 
1.8049905e+3, 1.8469237e+2, -1133778.4, -1214540.6, -42793.51, 0.12501913, -0.17491582, -1115321.4, 14671.376, 0.00000010953618, 10.000274, 9.999237 
1.8050018e+3, 1.9469063e+2, -935156.25, -1049977.9, -47385.54, 0.043517865, -0.3198563, -918126.5, 113881.77, 0.0, 10.000911, 9.999371 
1.8050152e+3, 2.0468985e+2, -864853.94, -1015203.44, 48507.426, 0.05318586, -0.30748355, -850562.44, 83454.195, 0.0, 10.000906, 9.998968 
1.8050313e+3, 2.1469006e+2, -847618.3, -932815.1, 28276.59, 0.2025286, -0.23116082, -839087.56, -3070.1064, 0.0, 10.000278, 9.999147 
1.8050452e+3, 2.2468975e+2, -743489.0, -853690.06, -32611.229, 0.24087605, -0.1569125, -734561.7, 3459.4639, 0.0, 10.000418, 9.998941 
1.8050565e+3, 2.346889e+2, -463332.8, -648303.4, -39603.76, 0.1304368, -0.18725355, -455210.0, 184818.08, 0.0, 10.001599, 9.999097 
1.8050686e+3, 2.446878e+2, -385889.28, -723020.3, -15218.919, 0.09332708, -0.1322604, -385203.66, 156837.34, 0.0, 10.002113, 9.997702 
1.8050817e+3, 2.546862e+2, -333506.6, -636980.94, -7988.403, 0.1506336, -0.097863935, -333296.47, 110766.15, 0.0, 10.001777, 9.997772 
1.8050939e+3, 2.646843e+2, -165691.34, -409094.03, 5710.8857, 0.14305532, -0.09729834, -165557.44, 180524.36, 0.00000007008213, 10.00183, 9.998631 
1.8051049e+3, 2.74682e+2, 31221.479, -247584.45, -28888.393, 0.0077094673, -0.24470642, 34183.277, 282281.7, 0.000018211349, 10.0024395, 9.998774 
1.8051177e+3, 2.846801e+2, 83936.984, -333277.78, 27461.438, 0.0098379925, -0.23047374, 85736.76, 235851.05, 0.00018396281, 10.002827, 9.997324 
1.8051331e+3, 2.946787e+2, 237000.78, -196409.73, -5652.8906, 0.20721802, -0.15972026, 237074.5, 289204.4, 0.0007176876, 10.003174, 9.997408 
1.8051454e+3, 3.046753e+2, 277184.38, -212953.28, 27999.215, 0.104661286, -0.1955058, 278778.66, 278778.66, 0.0016608936, 10.003375, 9.996878 
1.8051583e+3, 3.146717e+2, 350906.4, 8755.224, 46986.875, 0.015006072, -0.31010172, 357241.7, 357241.7, 0.0028185374, 10.002995, 9.998591 
1.8149206e+3, 1.2467531e+2, -1679332.1, -1537953.6, 53327.08, -0.0053944145, -0.31331432, -1520094.9, 198064.34, 0.10291468, 9.999423, 10.001604 
1.8149284e+3, 1.3467807e+2, -1817077.5, -1571432.5, -180692.98, 0.025793262, -0.19844642, -1475770.9, 144356.13, 0.06887483, 9.9979925, 10.001298 
1.8149383e+3, 1.4467703e+2, -1868632.0, -1684562.1, 69899.73, 0.07656102, -0.366571, -1661027.1, -138891.88, 0.036753505, 9.99753, 10.000032 
1.8149523e+3, 1.546777e+2, -1532413.1, -1439183.3, 91834.67, 0.0764944, -0.3658096, -1382810.0, 41320.598, 0.01378539, 9.999052, 10.000298 
1.8149643e+3, 1.6467825e+2, -1370177.1, -1404325.4, -4049.0642, -0.055414975, -0.29541177, -1369703.6, -43576.137, 0.002842686, 9.9998865, 9.999467 
1.8149772e+3, 1.7467837e+2, -1253178.5, -1280939.6, -19982.82, -0.0024885735, -0.27681845, -1242728.4, -14599.535, 0.00016504708, 9.999974, 9.999579 
1.8149908e+3, 1.8467832e+2, -1123369.6, -1192310.9, -37100.3, 0.10106959, -0.2227326, -1107197.9, 22933.064, 0.00000012908751, 10.000271, 9.999392 
1.8150043e+3, 1.946781e+2, -928182.9, -1019999.44, -12121.676, 0.1755172, -0.23817237, -926609.5, 105523.84, 0.0, 10.000843, 9.99961 
1.8150173e+3, 2.0467776e+2, -904420.9, -1059536.5, 12032.632, 0.13608134, -0.18366952, -903493.0, 30645.06, 0.0, 10.00075, 9.998737 
1.81503e+3, 2.1467716e+2, -897764.2, -986721.2, 19121.441, 0.017328875, -0.1643285, -893828.1, -57681.51, 0.0, 10.000064, 9.998879 
1.8150435e+3, 2.246762e+2, -768725.1, -839384.0, -4076.87, 0.017275529, -0.1524028, -768490.7, -30335.072, 0.0, 10.00013, 9.999181 
1.8150586e+3, 2.3467483e+2, -482276.4, -630699.3, 20037.035, 0.1551536, -0.26089585, -479619.0, 160546.94, 0.0, 10.001354, 9.999337 
1.8150717e+3, 2.4467365e+2, -397773.53, -678405.06, -37471.05, 0.16101338, -0.24431145, -392856.4, 149321.45, 0.0, 10.001817, 9.998147 
1.8150826e+3, 2.5467283e+2, -328490.34, -571772.4, -3684.3352, 0.04464902, -0.19387935, -328434.56, 115756.13, 0.0, 10.001545, 9.998324 
1.8150944e+3, 2.646717e+2, -235113.92, -481830.25, 13274.895, -0.022228444, -0.12779658, -234401.7, 111800.516, 0.0000000874347, 10.001521, 9.9982815 
1.815107e+3, 2.7467e+2, -41034.105, -321059.4, 15310.629, -0.038842164, -0.18172961, -40199.47, 208015.53, 0.00001648955, 10.002129, 9.998407 
1.815121e+3, 2.8466767e+2, 16456.98, -400055.16, 22223.936, 0.023898434, -0.17733553, 17639.43, 167876.02, 0.00017264257, 10.0025, 9.997027 
1.8151367e+3, 2.9466468e+2, 185034.8, -242053.25, 32681.191, 0.22011055, -0.24994276, 187521.11, 239788.63, 0.00068283465, 10.002899, 9.997227 
1.8151496e+3, 3.0466253e+2, 225254.42, -226239.9, -3707.0513, 0.14551415, -0.16507079, 225284.86, 225284.86, 0.0015899244, 10.002982, 9.996971 
1.8151605e+3, 3.146607e+2, 246361.53, 3797.8577, 71675.766, -0.116712324, -0.119409196, 265958.0, 265958.0, 0.0027097075, 10.002163, 9.998915 
1.824919e+3, 1.2466137e+2, -2105693.3, -1694401.8, 112343.586, 0.06968755, -0.3459831, -1665716.0, 52579.445, 0.10907774, 9.996318, 10.001907 
1.8249269e+3, 1.3466588e+2, -1570125.1, -1385373.6, -254125.02, 0.03034267, -0.12851477, -1207355.6, 412887.8, 0.07313931, 9.99938, 10.002006 
1.8249382e+3, 1.4466305e+2, -1502477.9, -1527800.0, -15554.792, 0.19385192, -0.5085326, -1495082.8, 27185.889, 0.039204508, 10.000164, 9.99983 
1.8249512e+3, 1.5466481e+2, -1550903.6, -1487379.4, -709.8838, 0.07460385, -0.36291224, -1487371.4, -63116.45, 0.014855209, 9.999115, 9.999926 
1.824963e+3, 1.646654e+2, -1518849.6, -1469938.3, -22253.313, -0.10265368, -0.2670889, -1461329.0, -135077.14, 0.0031336718, 9.998833, 9.999522 
1.824977e+3, 1.7466494e+2, -1294350.1, -1288729.0, -4444.5596, -0.0020317293, -0.3175926, -1286280.9, -58022.617, 0.00019006866, 9.999642, 9.999685 
1.8249916e+3, 1.8466498e+2, -1174940.0, -1228910.8, 26866.604, 0.16765666, -0.25532615, -1163846.3, -33585.992, 0.00000015151502, 9.9999695, 9.999288 
1.8250057e+3, 1.9466545e+2, -1064156.0, -1096504.1, -5030.4375, 0.27890292, -0.18846275, -1063391.8, -31133.63, 0.0, 9.99998, 9.999497 
1.8250185e+3, 2.046652e+2, -944293.3, -1071041.1, 36904.617, 0.2113115, -0.12280921, -934330.94, -68.4132, 0.0, 10.000448, 9.998783 
1.82503e+3, 2.1466392e+2, -682056.6, -873476.0, 40252.434, -0.031937055, -0.17883973, -673936.6, 162339.42, 0.0, 10.001517, 9.998935 
1.8250437e+3, 2.2466277e+2, -561429.9, -752863.25, 43468.637, -0.054515198, -0.18866028, -552021.8, 186265.33, 0.0, 10.001591, 9.999083 
1.8250595e+3, 2.3466167e+2, -610169.2, -697765.8, 13369.121, 0.14756685, -0.2600222, -608174.2, 32121.818, 0.0, 10.000499, 9.999292 
1.825073e+3, 2.4466072e+2, -574325.7, -731171.5, -18292.135, 0.1951122, -0.23292118, -572220.6, -29915.227, 0.0, 10.000472, 9.998419 
1.8250844e+3, 2.5466e+2, -292704.44, -522868.97, -32618.959, 0.07270896, -0.19849075, -288170.97, 156144.23, 0.0, 10.001659, 9.9985895 
1.8250966e+3, 2.6465878e+2, -160455.67, -489888.4, -10708.679, 0.013225582, -0.13714495, -160107.94, 186219.73, 0.00000011582431, 10.002231, 9.997886 
1.8251094e+3, 2.7465674e+2, -73793.04, -391318.88, -57551.94, -0.0023225269, -0.17652789, -63683.55, 184662.81, 0.000015405387, 10.002124, 9.99794 
1.8251237e+3, 2.8465423e+2, 16027.04, -383081.44, 16463.018, 0.064001404, -0.16925026, 16704.98, 167075.25, 0.00016033727, 10.002434, 9.997173 
1.8251397e+3, 2.9465145e+2, 242798.02, -207377.83, 9157.997, 0.2229526, -0.22461173, 242984.25, 295382.4, 0.0006397898, 10.003257, 9.997301 
1.8251534e+3, 3.046495e+2, 290589.53, -154912.95, -17227.793, 0.21544166, -0.1416626, 291254.75, 291254.75, 0.0015189088, 10.003246, 9.997337 
1.8251638e+3, 3.1464767e+2, 272377.53, 24003.56, -61638.3, 0.022988494, -0.12034269, 286832.84, 286832.84, 0.0026480635, 10.002233, 9.999069 
1.8349168e+3, 1.2464901e+2, -2174276.8, -1861416.4, 48320.617, 0.12239372, -0.2392441, -1854123.4, -135711.02, 0.11569034, 9.996427, 10.000674 
1.8349239e+3, 1.3465238e+2, -1578897.5, -1425527.5, -140110.53, -0.24653547, -0.074605145, -1342489.1, 277886.3, 0.07769921, 9.999442, 10.001668 
1.8349388e+3, 1.4464834e+2, -1476792.6, -1498392.9, -74017.74, 0.19590355, -0.579631, -1412791.1, 109623.68, 0.04181763, 10.000271, 9.999992 
1.8349507e+3, 1.5465206e+2, -1557616.0, -1509069.0, -28783.273, 0.07268764, -0.22908351, -1495690.4, -71307.125, 0.015997248, 9.99914, 9.999765 
1.8349622e+3, 1.6465315e+2, -1447579.6, -1341666.4, -14005.559, -0.11371524, -0.11297806, -1339845.8, -13471.714, 0.0034491862, 9.998913, 10.000366 
1.8349771e+3, 1.746522e+2, -1220303.5, -1144315.9, 35723.957, 0.012195574, -0.30694976, -1130158.8, 98222.12, 0.00021871291, 9.999669, 10.000668 
1.8349919e+3, 1.8465209e+2, -1206440.5, -1292061.0, 10332.773, 0.16048832, -0.29304975, -1205211.1, -74827.86, 0.00000018976193, 9.999966, 9.998853 
1.8350054e+3, 1.9465248e+2, -1115908.4, -1183763.5, 5860.253, 0.22664918, -0.1812005, -1115406.0, -83021.336, 0.0, 9.999893, 9.9989395 
1.8350185e+3, 2.0465194e+2, -939678.94, -1025263.44, 60080.52, 0.13443516, -0.1339814, -908709.1, 25682.98, 0.0, 10.00029, 9.999176 
1.8350314e+3, 2.1465033e+2, -680762.9, -823611.9, 90234.14, -0.07629352, -0.26542208, -637106.25, 199300.05, 0.0, 10.001313, 9.999376 
1.8350448e+3, 2.246494e+2, -631753.44, -831668.5, -6972.9546, -0.12883049, -0.2535605, -631510.5, 106905.24, 0.0, 10.0013, 9.998685 
1.8350585e+3, 2.3464915e+2, -670447.9, -771365.0, -11701.668, -0.009195418, -0.19924268, -669108.8, -28688.133, 0.0, 10.0002775, 9.998898 
1.8350723e+3, 2.446487e+2, -610686.1, -737873.5, 8877.002, 0.060526732, -0.10891875, -610069.56, -67642.984, 0.0, 10.000172, 9.998524 
1.8350865e+3, 2.5464785e+2, -329651.03, -533760.8, 30067.602, 0.10257002, -0.093552954, -325313.9, 119121.055, 0.0, 10.001383, 9.998651 
1.8350996e+3, 2.6464579e+2, -250979.61, -614808.8, -24091.996, 0.07636442, -0.0838679, -249391.22, 97064.484, 0.000000090536304, 10.001951, 9.997164 
1.8351115e+3, 2.7464214e+2, -149134.2, -498375.16, -38062.063, -0.030919071, -0.21746786, -145034.14, 103458.3, 0.00001528185, 10.001912, 9.997303 
1.8351254e+3, 2.846397e+2, 58.287285, -347583.6, 24773.61, -0.047582097, -0.20014058, 1814.8257, 152331.55, 0.00015301339, 10.002133, 9.997563 
1.8351416e+3, 2.9463872e+2, 220443.45, -165770.47, 67981.195, 0.050398223, -0.116800815, 232060.06, 284584.66, 0.00060731446, 10.002887, 9.997757 
1.835156e+3, 3.046364e+2, 225462.67, -172016.58, -71625.85, 0.11308576, -0.101226024, 237975.73, 237975.73, 0.0014671788, 10.0027485, 9.997455 
1.835166e+3, 3.146331e+2, 161695.39, -60965.38, -71086.664, -0.041105404, -0.25988385, 182455.02, 182455.02, 0.0026243313, 10.001643, 9.998749 
1.8449154e+3, 1.2463384e+2, -2038971.9, -1878015.4, 18423.535, 0.30241808, -0.38868842, -1875933.5, -157377.8, 0.12272786, 9.997726, 9.999943 
1.8449226e+3, 1.3463846e+2, -1696421.1, -1492262.0, -69531.77, -0.26707858, -0.071332045, -1470830.9, 149679.27, 0.08254445, 9.998708, 10.001518 
1.8449384e+3, 1.4463413e+2, -1577962.1, -1542854.0, -74920.35, 0.15977633, -0.60206294, -1483458.8, 39095.613, 0.04459436, 9.999516, 10.000059 
1.8449502e+3, 1.54638e+2, -1506926.5, -1477728.1, -51319.516, 0.10614435, -0.24224801, -1438971.6, -14450.676, 0.017215712, 9.999452, 9.999835 
1.8449621e+3, 1.6463952e+2, -1368134.4, -1267221.8, 27137.59, -0.015577677, -0.10326624, -1260386.9, 66120.234, 0.0037916328, 9.999329, 10.000678 
1.844977e+3, 1.7463894e+2, -1208148.9, -1100715.5, -3012.4512, 0.048625495, -0.2887661, -1100631.0, 127878.47, 0.00025177147, 9.999617, 10.000989 
1.8449914e+3, 1.8463877e+2, -1181235.1, -1271248.4, -14017.304, 0.13316348, -0.30039272, -1179102.9, -48591.3, 0.00000025167606, 10.0000925, 9.998935 
1.8450049e+3, 1.9463873e+2, -947178.8, -1095386.0, 908.3211, 0.13354337, -0.2403493, -947173.25, 85342.77, 0.0, 10.001006, 9.999008 
1.8450184e+3, 2.0463823e+2, -862055.8, -996297.06, 70441.33, 0.0728536, -0.18892004, -831877.1, 102646.59, 0.0, 10.000868, 9.999099 
1.8450323e+3, 2.1463725e+2, -909804.25, -943879.56, 30618.873, -0.032807447, -0.24494244, -891802.0, -55267.48, 0.0, 9.999799, 9.999286 
1.845046e+3, 2.246366e+2, -862075.75, -949893.4, -41887.35, -0.04863673, -0.1981238, -845300.7, -106757.836, 0.0, 9.999756, 9.998607 
1.8450591e+3, 2.3463608e+2, -578991.44, -739799.06, -50069.6, -0.0023492076, -0.16415441, -564676.0, 75874.695, 0.0, 10.000948, 9.998783 
1.8450733e+3, 2.4463536e+2, -404363.16, -628998.06, 26789.748, 0.062579334, -0.10017444, -401212.4, 141346.23, 0.0, 10.001564, 9.998587 
1.8450883e+3, 2.5463438e+2, -296480.3, -513203.56, 10179.181, 0.14165431, -0.10343127, -296003.28, 148564.28, 0.0, 10.001581, 9.998693 
1.8451022e+3, 2.6463225e+2, -265358.63, -635554.9, 318.79123, 0.15073764, -0.09691927, -265358.38, 81230.58, 0.00000009817215, 10.001925, 9.997029 
1.8451147e+3, 2.7462873e+2, -49260.887, -468461.2, -8662.016, 0.058641404, -0.19746757, -49081.977, 199543.56, 0.000013983738, 10.002691, 9.997126 
1.8451282e+3, 2.846264e+2, 65886.31, -265999.3, 75695.5, 0.014933364, -0.17596538, 82335.45, 232983.78, 0.00014297603, 10.002363, 9.99802 
1.8451428e+3, 2.946257e+2, -48110.883, -237311.67, 65718.99, 0.0108139785, -0.111844726, -27523.516, 25128.686, 0.00057426473, 10.000778, 9.998293 
1.8451577e+3, 3.0462295e+2, 11454.415, -291937.63, 23877.787, 0.111266695, -0.16075073, 13322.164, 13322.164, 0.0014121899, 10.001329, 9.997329 
1.8451701e+3, 3.1461954e+2, 544734.44, 94400.21, -124927.21, 0.079697035, -0.29789186, 577068.9, 577068.9, 0.002578712, 10.004373, 9.998517 
1.854914e+3, 1.246178e+2, -2035168.9, -1933045.9, -125303.875, 0.29251862, -0.6134409, -1848799.1, -130092.53, 0.13014582, 9.997952, 9.999478 
1.8549229e+3, 1.3462406e+2, -1706110.0, -1516112.8, -5878.5605, -0.15487063, -0.13372637, -1515931.0, 104717.164, 0.08765755, 9.99871, 10.001345 
1.854936e+3, 1.4462028e+2, -1560069.0, -1525567.3, -88102.83, -0.07420251, -0.5940292, -1453042.4, 69645.766, 0.04753598, 9.9996, 10.000148 
1.8549493e+3, 1.5462258e+2, -1477242.8, -1429733.6, -43854.1, 0.037549045, -0.41390356, -1403613.8, 21054.582, 0.01851746, 9.999507, 10.000142 
1.8549623e+3, 1.6462444e+2, -1377576.9, -1304631.6, 14785.277, 0.021099424, -0.24693358, -1301748.8, 24902.9, 0.0041650403, 9.999405, 10.000382 
1.8549763e+3, 1.7462502e+2, -1239690.3, -1165356.1, 19590.764, -0.012105783, -0.27623257, -1160509.1, 68136.43, 0.00029041685, 9.999605, 10.000553 
1.8549901e+3, 1.846249e+2, -1134997.3, -1174866.5, 1272.1643, -0.057784848, -0.29100457, -1134956.6, -4310.2905, 0.0000003514084, 10.0000925, 9.999598 
1.8550037e+3, 1.9462419e+2, -909464.6, -994335.7, 44084.938, -0.12566721, -0.36887363, -890709.8, 141942.72, 0.0, 10.000906, 9.999751 
1.8550177e+3, 2.046241e+2, -932490.6, -1102680.8, 16222.117, -0.12469392, -0.28270185, -930958.2, 3699.1294, 0.0, 10.000696, 9.998452 
1.8550324e+3, 2.1462461e+2, -988591.3, -1060790.9, 3197.5212, -0.013907913, -0.12151326, -988450.0, -151788.5, 0.0, 9.999599, 9.998578 
1.8550469e+3, 2.2462417e+2, -877845.3, -924802.25, -12606.756, 0.042983923, -0.03202659, -874674.8, -136004.61, 0.0, 9.999498, 9.998909 
1.8550606e+3, 2.3462245e+2, -590466.25, -712968.0, 10171.361, 0.03674852, -0.14808522, -589627.5, 51058.19, 0.0, 10.000725, 9.999079 
1.8550748e+3, 2.446209e+2, -455337.34, -666301.56, 16715.643, 0.040925115, -0.17523827, -454021.1, 88678.805, 0.0, 10.001269, 9.998471 
1.8550894e+3, 2.5461954e+2, -336427.7, -537309.8, 26752.043, 0.072805546, -0.21195272, -332926.06, 111787.016, 0.0, 10.001338, 9.998639 
1.8551038e+3, 2.6461807e+2, -282053.25, -603528.4, 11034.172, 0.100089185, -0.15585494, -281674.97, 65053.336, 0.00000008466028, 10.001639, 9.997387 
1.8551183e+3, 2.7461627e+2, -67659.11, -438455.56, 42391.387, 0.13115604, -0.12290699, -62874.44, 185873.44, 0.000011476472, 10.002404, 9.997467 
1.8551315e+3, 2.8461432e+2, 32639.266, -255813.61, 1090.1027, 0.07796279, -0.09139089, 32643.385, 183409.7, 0.00012753508, 10.002019, 9.99826 
1.8551432e+3, 2.9461238e+2, -57781.02, -189780.08, 28276.813, -0.064510204, -0.18776736, -51978.63, 802.5718, 0.00053210376, 10.000495, 9.998754 
1.8551582e+3, 3.046092e+2, -91616.27, -409983.4, 107469.34, -0.0058335606, -0.27816954, -58734.566, -58734.566, 0.0013364267, 10.00092, 9.996713 
1.8551761e+3, 3.1460854e+2, 421683.94, 24797.383, 5518.3594, 0.18030816, -0.07232045, 421760.66, 421760.66, 0.002472215, 10.003611, 9.998384 
1.8649119e+3, 1.2460459e+2, -2026553.8, -1893108.5, -134379.0, 0.30882165, -0.54072875, -1809799.0, -90962.125, 0.1378835, 9.997908, 9.99974 
1.8649219e+3, 1.3461065e+2, -1744306.9, -1523942.6, 21240.553, -0.09511356, -0.10726811, -1521913.9, 98866.01, 0.09301642, 9.9984255, 10.0014105 
1.8649359e+3, 1.4460658e+2, -1710556.0, -1600326.5, -33047.64, 0.014749138, -0.59665567, -1591177.9, -68355.734, 0.050644647, 9.998593, 10.000095 
1.8649484e+3, 1.5460868e+2, -1487872.5, -1439719.4, -51113.465, 0.017432267, -0.43566707, -1407295.8, 17508.084, 0.01991141, 9.999457, 10.000097 
1.8649617e+3, 1.6461036e+2, -1362096.3, -1355160.1, 5774.1353, 0.008031283, -0.2595652, -1351892.6, -25103.219, 0.0045744055, 9.999748, 9.999866 
1.864976e+3, 1.7461072e+2, -1271469.6, -1233997.1, -24797.8, -0.00006303908, -0.26419988, -1221653.1, 7133.6895, 0.0003360051, 9.999622, 10.00006 
1.86499e+3, 1.8461044e+2, -1218800.6, -1185610.0, -15680.942, -0.028934594, -0.28120163, -1179373.4, -48584.355, 0.00000050835786, 9.999392, 9.999862 
1.8650039e+3, 1.9460972e+2, -1118274.0, -1062648.9, -34946.887, -0.10670383, -0.39080676, -1045797.94, -13004.229, 0.0, 9.999331, 10.000048 
1.865018e+3, 2.0460972e+2, -1084645.6, -1170044.1, -43342.76, -0.09095932, -0.31348705, -1066502.3, -131705.39, 0.0, 9.999617, 9.998514 
1.8650328e+3, 2.1461034e+2, -857544.5, -994963.75, -27085.2, 0.012463473, -0.14859766, -852398.7, -15597.656, 0.0, 10.000465, 9.998619 
1.8650472e+3, 2.2461013e+2, -634612.2, -756093.06, 46116.426, 0.06672032, -0.058532327, -619089.06, 119717.77, 0.0, 10.000958, 9.999366 
1.8650617e+3, 2.3460902e+2, -498506.22, -615289.1, 47973.29, 0.041890364, -0.15652768, -481326.53, 159488.0, 0.0, 10.001139, 9.999557 
1.8650761e+3, 2.4460763e+2, -473769.22, -717515.1, 56012.07, 0.060461804, -0.17537563, -461514.0, 81313.73, 0.0, 10.001318, 9.9981 
1.8650912e+3, 2.546058e+2, -343507.4, -588771.0, 15203.366, 0.113052115, -0.21522579, -342568.56, 102279.69, 0.0, 10.001496, 9.998211 
1.8651058e+3, 2.6460436e+2, -220870.36, -470111.56, 46931.125, 0.14458318, -0.17679903, -212326.31, 134536.64, 0.000000065173005, 10.001608, 9.998321 
1.8651202e+3, 2.7460337e+2, -103292.695, -346799.9, 82766.914, 0.13913254, -0.16001746, -77824.35, 171046.77, 0.000009433609, 10.001684, 9.998448 
1.8651338e+3, 2.846019e+2, 30798.584, -306834.94, 54242.527, 0.11003925, -0.108478844, 39298.914, 190183.1, 0.00011541226, 10.002236, 9.99779 
1.8651459e+3, 2.9459986e+2, 321705.0, -69255.984, -28880.695, 0.024631886, -0.15619802, 323826.94, 376730.53, 0.00049646525, 10.00338, 9.998183 
1.8651606e+3, 3.04596e+2, 304068.9, -181420.06, 124548.7, 0.030615581, -0.30181202, 334156.34, 334156.34, 0.0012601638, 10.003462, 9.997051 
1.865179e+3, 3.1459627e+2, 280367.3, 12057.109, -11936.285, 0.19352971, -0.04232628, 280897.28, 280897.28, 0.002330116, 10.002347, 9.998908 
1.8749087e+3, 1.2459317e+2, -1946618.0, -1755942.1, -164067.34, 0.117702365, -0.3414632, -1661523.9, 57433.56, 0.14588223, 9.9980135, 10.000689 
1.8749194e+3, 1.3459833e+2, -1728709.1, -1502698.6, 31490.83, -0.20956382, -0.0061339233, -1498392.9, 122511.65, 0.0986057, 9.998454, 10.00157 
1.8749373e+3, 1.4459307e+2, -1714598.4, -1632890.8, -20523.377, 0.23852761, -0.6136451, -1628025.4, -105069.336, 0.053927336, 9.998688, 9.999828 
1.8749472e+3, 1.545962e+2, -1510565.8, -1492480.8, -3065.2568, -0.08491831, -0.3140227, -1491975.3, -67046.945, 0.021407956, 9.999474, 9.999729 
1.8749598e+3, 1.6459726e+2, -1393289.6, -1434630.3, -12663.874, -0.20540336, -0.14827415, -1389718.8, -62798.902, 0.0050250688, 9.999815, 9.999289 
1.8749754e+3, 1.74596e+2, -1313226.9, -1320215.5, -17401.7, -0.049138203, -0.25497586, -1298972.1, -70038.695, 0.00038988978, 9.999611, 9.999483 
1.8749905e+3, 1.8459524e+2, -1226613.3, -1202089.8, -37494.44, 0.039762914, -0.28420496, -1174903.0, -43961.945, 0.000000733184, 9.999395, 9.999748 
1.875005e+3, 1.9459526e+2, -1144527.1, -1090937.5, -26830.504, 0.06569837, -0.30485892, -1079813.5, -46873.387, 0.0, 9.999226, 9.999904 
1.8750192e+3, 2.0459504e+2, -1043528.8, -1060756.9, -30710.883, 0.024804246, -0.28141505, -1020246.75, -85303.3, 0.0, 9.999502, 9.999325 
1.8750325e+3, 2.1459447e+2, -828373.5, -889374.8, 16328.006, -0.0814913, -0.31802148, -824278.0, 12674.678, 0.0, 10.000267, 9.999441 
1.8750465e+3, 2.2459462e+2, -644052.5, -710803.1, 38777.4, -0.13625951, -0.25687146, -626265.3, 112686.47, 0.0, 10.000671, 9.999818 
1.8750614e+3, 2.3459564e+2, -500276.28, -560991.3, 68600.8, -0.110710464, -0.1919925, -455616.13, 185322.73, 0.0, 10.000892, 10.000043 
1.8750769e+3, 2.4459521e+2, -561670.7, -832323.94, 47634.91, -0.028195154, -0.10804419, -553531.7, -10586.689, 0.0, 10.0010195, 9.997462 
1.875093e+3, 2.5459296e+2, -428465.3, -704064.44, 39465.67, 0.12456132, -0.12496895, -422925.22, 22049.658, 0.0, 10.00124, 9.997542 
1.8751076e+3, 2.6459113e+2, -167055.86, -297374.2, 34918.01, 0.12657256, -0.15507069, -158289.5, 188703.38, 0.00000004605578, 10.001332, 9.999648 
1.8751204e+3, 2.7459002e+2, -38712.41, -153692.23, 104613.06, -0.05031509, -0.2912823, 23166.777, 272161.75, 0.000008319171, 10.001424, 9.999906 
1.8751346e+3, 2.8458914e+2, -104587.36, -515196.38, 77610.695, -0.07612741, -0.19957435, -90407.555, 60594.76, 0.00010877432, 10.001919, 9.996517 
1.8751505e+3, 2.9458782e+2, 163994.19, -310962.3, 42945.047, 0.11321058, -0.032347642, 167846.0, 220868.42, 0.00047256332, 10.003017, 9.996696 
1.8751642e+3, 3.0458292e+2, 320152.7, -41635.098, 63967.883, -0.0027524761, -0.2599068, 331129.84, 331129.84, 0.0011935771, 10.003023, 9.998218 
1.87518e+3, 3.1458187e+2, 254346.42, 137516.97, -455.8686, 0.009558986, -0.26269096, 254348.2, 254348.2, 0.0021828366, 10.001622, 10.000106 
1.884907e+3, 1.245796e+2, -1821178.0, -1680099.4, -87671.26, 0.13692497, -0.3357204, -1638113.0, 80980.33, 0.15411249, 9.9987335, 10.000914 
1.8849193e+3, 1.3458472e+2, -1810359.5, -1606070.6, -38816.336, -0.060099807, 0.04107149, -1598943.9, 22097.27, 0.10442951, 9.998183, 10.000927 
1.8849364e+3, 1.4457938e+2, -1727032.4, -1631958.8, -56348.098, 0.3074595, -0.54141104, -1605774.1, -82680.87, 0.057399224, 9.99861, 9.99985 
1.8849467e+3, 1.5458246e+2, -1515681.6, -1462261.4, -31911.115, -0.074211456, -0.26578906, -1447357.3, -22293.072, 0.023018045, 9.999354, 9.999963 
1.8849595e+3, 1.6458328e+2, -1401654.5, -1459435.6, 8606.88, -0.20672525, -0.13053365, -1400399.6, -73342.695, 0.005521801, 9.99983, 9.999117 
1.8849756e+3, 1.7458141e+2, -1196501.4, -1284753.1, 9447.177, -0.023442077, -0.2822376, -1195501.4, 33574.62, 0.0004532519, 10.0004835, 9.999316 
1.884991e+3, 1.8458058e+2, -1101104.9, -1194754.1, 6004.8857, 0.099435166, -0.28780094, -1100721.5, 30364.105, 0.0000010252129, 10.000491, 9.999258 
1.8850054e+3, 1.9458091e+2, -1048110.6, -1097231.4, -31159.43, 0.12749714, -0.23126559, -1032995.8, 89.03345, 0.0, 10.000113, 9.99942 
1.8850194e+3, 2.045807e+2, -941322.0, -963732.56, -7132.268, 0.08273391, -0.20536071, -939244.7, -4156.6626, 0.0, 10.000009, 9.999743 
1.885033e+3, 2.1457969e+2, -769288.94, -808277.9, -18602.51, -0.06121313, -0.32763475, -761837.44, 75259.46, 0.0, 10.000447, 9.999912 
1.8850473e+3, 2.2457959e+2, -668796.6, -742909.5, -26554.2, -0.10571523, -0.3059162, -660264.6, 78832.234, 0.0, 10.000602, 9.999621 
1.8850625e+3, 2.3458052e+2, -571697.9, -624943.1, -76779.35, -0.058699787, -0.22344622, -517056.56, 124030.586, 0.0, 10.000531, 9.999777 
1.8850783e+3, 2.4458036e+2, -560604.25, -752150.5, -41852.133, 0.024657901, -0.13211104, -551859.0, -8768.528, 0.0, 10.000694, 9.998164 
1.885094e+3, 2.5457877e+2, -389597.4, -610448.2, 12983.716, 0.12831305, -0.1497857, -388836.72, 56273.91, 0.0, 10.001177, 9.99822 
1.885109e+3, 2.6457715e+2, -156402.8, -315354.38, 29631.531, 0.12668699, -0.18429968, -151058.61, 196067.38, 0.000000017635879, 10.001532, 9.999411 
1.8851219e+3, 2.7457574e+2, 5577.083, -155343.45, -59409.48, -0.03816708, -0.3224647, 25133.52, 274266.53, 0.000007223604, 10.001863, 9.99966 
1.8851367e+3, 2.845749e+2, -32848.293, -439686.03, -31962.938, -0.055940256, -0.23051392, -30352.459, 120788.19, 0.00010058898, 10.002263, 9.996858 
1.8851535e+3, 2.9457384e+2, 166981.7, -275937.5, 16312.434, 0.14038248, -0.07308333, 167581.67, 220738.73, 0.0004433926, 10.0028925, 9.996996 
1.8851666e+3, 3.0456954e+2, 384543.0, -9943.583, 55247.05, -0.05946325, -0.2555746, 392134.16, 392134.16, 0.0011175724, 10.00341, 9.998285 
1.8851833e+3, 3.1456828e+2, 460854.06, 175195.3, -183359.3, 0.1095858, -0.28257233, 550448.56, 550448.56, 0.0020292015, 10.0032835, 9.999586 
1.8949042e+3, 1.245653e+2, -1850130.5, -1794522.9, -17754.809, -0.124631055, -0.40183318, -1789337.5, -70107.36, 0.16258536, 9.998959, 9.999963 
1.8949202e+3, 1.3457018e+2, -1908543.9, -1808859.6, -24079.541, 0.18144427, 0.06797336, -1803347.8, -182161.44, 0.110513955, 9.998178, 9.999536 
1.894933e+3, 1.4456542e+2, -1693492.5, -1565756.4, -39907.418, 0.0484444, -0.39040112, -1554313.5, -31079.428, 0.06108175, 9.998634, 10.000287 
1.8949462e+3, 1.5456736e+2, -1467152.9, -1362286.6, 7047.845, -0.07898461, -0.2973783, -1361815.1, 63397.43, 0.024752133, 9.999351, 10.000662 
1.8949603e+3, 1.6456822e+2, -1357310.8, -1396650.5, 15626.484, -0.16656858, -0.21336399, -1351859.1, -24656.646, 0.0060684755, 9.9999485, 9.999493 
1.8949762e+3, 1.745669e+2, -1173099.3, -1236069.5, 43120.285, -0.044702455, -0.34519774, -1151192.8, 78022.15, 0.0005270964, 10.000481, 9.999653 
1.894991e+3, 1.8456632e+2, -1148297.5, -1297613.5, -22507.986, 0.008202806, -0.3084578, -1144978.5, -13754.668, 0.0000013718216, 10.000522, 9.998532 
1.8950039e+3, 1.9456688e+2, -1118216.4, -1217089.9, -37313.387, -0.056657046, -0.15266043, -1105715.4, -72489.34, 0.0, 10.000013, 9.99864 
1.895018e+3, 2.0456685e+2, -962787.44, -981507.4, -5101.387, -0.08551539, -0.06425517, -961487.56, -26258.695, 0.0, 9.99988, 9.99969 
1.8950339e+3, 2.1456599e+2, -795272.3, -821355.5, 12499.685, -0.04339138, -0.1738303, -790249.44, 46984.137, 0.0, 10.000262, 9.999915 
1.8950494e+3, 2.2456494e+2, -773154.75, -893109.4, -43606.184, 0.009921107, -0.2055039, -758978.3, -19735.111, 0.0, 10.000318, 9.998724 
1.8950644e+3, 2.3456377e+2, -671304.0, -776307.9, -61451.46, 0.056545593, -0.24409011, -642980.6, -1722.6393, 0.0, 10.000297, 9.998845 
1.8950795e+3, 2.445632e+2, -476143.66, -516884.8, -40046.727, 0.052090652, -0.2285458, -451584.28, 91678.05, 0.0, 10.000422, 9.999918 
1.8950942e+3, 2.5456324e+2, -290789.7, -349091.3, 45200.855, 0.006848756, -0.27558273, -266154.94, 179100.8, 0.0, 10.0009365, 10.00013 
1.8951096e+3, 2.6456228e+2, -320421.13, -592730.75, 25887.316, 0.0033618093, -0.2575084, -317981.97, 29281.863, 0.0000000071100716, 10.001258, 9.997639 
1.8951248e+3, 2.7456033e+2, -171057.28, -451726.72, -29068.494, 0.026984137, -0.2607697, -168078.33, 81208.734, 0.0000064443307, 10.001571, 9.997761 
1.8951397e+3, 2.8455907e+2, 42991.54, -203002.02, -30176.027, -0.017749706, -0.19954737, 46639.145, 197939.27, 0.0000894982, 10.001913, 9.998654 
1.8951547e+3, 2.9455775e+2, 233606.92, -44237.953, 67626.04, -0.059351277, -0.2677167, 249192.5, 302501.63, 0.00040206578, 10.002485, 9.998788 
1.8951672e+3, 3.0455568e+2, 234188.67, -201243.83, 38524.836, -0.37884745, -0.2609224, 237570.89, 237570.89, 0.0010247865, 10.00292, 9.99719 
1.895188e+3, 3.1455532e+2, 158709.88, -251564.61, -76506.36, 0.18346617, -0.08987399, 172512.14, 172512.14, 0.001871482, 10.002498, 9.996998 
1.9049019e+3, 1.2454898e+2, -1875316.6, -1697070.4, 51787.74, -0.21369568, -0.43518075, -1683116.4, 36273.27, 0.1713416, 9.9983635, 10.000924 
1.904919e+3, 1.3455257e+2, -1990879.6, -1891296.8, -165454.83, 0.2826155, -0.090843484, -1768303.6, -146943.44, 0.11689223, 9.997848, 9.999099 
1.904929e+3, 1.4455032e+2, -1829964.6, -1615887.4, -51400.406, -0.1486192, -0.26736414, -1604185.8, -80801.94, 0.06499328, 9.997584, 10.000476 
1.9049467e+3, 1.5455145e+2, -1451802.0, -1293326.0, -44298.41, 0.04532376, -0.31337366, -1281784.0, 143585.08, 0.026617203, 9.999131, 10.001285 
1.9049622e+3, 1.6455252e+2, -1377599.6, -1371275.5, -40690.62, 0.06704121, -0.25312555, -1333624.3, -6267.5127, 0.0066676727, 9.999679, 9.999794 
1.9049765e+3, 1.74552e+2, -1275584.6, -1249659.9, -47469.273, -0.00038069507, -0.33331728, -1213415.0, 15947.525, 0.0006122247, 9.999645, 9.999948 
1.9049907e+3, 1.8455169e+2, -1221917.4, -1293992.4, -57049.91, -0.035359997, -0.3008946, -1190476.0, -59107.676, 0.0000017786746, 9.999855, 9.998885 
1.9050038e+3, 1.945522e+2, -992744.94, -1118786.6, -16803.428, -0.09495812, -0.18065643, -990543.25, 42825.742, 0.0, 10.000713, 9.998993 
1.9050184e+3, 2.0455226e+2, -833468.1, -947855.5, 71170.63, -0.07494413, -0.08470904, -799358.06, 136012.33, 0.0, 10.00092, 9.999402 
1.905035e+3, 2.1455158e+2, -768131.9, -844502.56, 30846.127, 0.03837843, -0.14377275, -757229.5, 80145.305, 0.0, 10.000624, 9.99957 
1.9050507e+3, 2.2455028e+2, -737523.25, -914200.7, 17783.846, 0.10825501, -0.16881222, -735750.94, 3637.337, 0.0, 10.000703, 9.998404 
1.9050656e+3, 2.3454829e+2, -547396.2, -760162.75, 17263.9, 0.09598494, -0.25422788, -546004.5, 95407.07, 0.0, 10.001299, 9.998487 
1.9050807e+3, 2.445475e+2, -294385.94, -418521.06, 34837.336, 0.07452592, -0.24628577, -285277.5, 258140.33, 0.0, 10.001652, 9.999985 
1.9050959e+3, 2.5454786e+2, -139792.28, -263082.47, -46166.086, 0.03567081, -0.2711822, -124421.625, 320985.16, 0.0, 10.001929, 10.000232 
1.9051114e+3, 2.645469e+2, -251410.27, -606145.0, -68760.47, 0.04334432, -0.23678651, -238548.34, 108866.375, 0.000000016068412, 10.00191, 9.997241 
1.9051266e+3, 2.7454472e+2, -191927.22, -519135.72, -54335.89, 0.06336258, -0.21994014, -183140.23, 66302.44, 0.000006020835, 10.001618, 9.997297 
1.9051418e+3, 2.8454304e+2, -5722.6665, -165806.42, -52.976532, 0.042628698, -0.2035518, -5722.649, 145736.67, 0.00007835106, 10.001292, 9.99922 
1.9051573e+3, 2.945414e+2, 77113.234, -43716.246, -43660.203, 0.022612, -0.36299944, 91238.11, 144706.05, 0.00035541714, 10.001082, 9.999461 
1.9051698e+3, 3.0454087e+2, 99928.46, -233394.9, -1616.8074, -0.33075684, -0.25386286, 99936.305, 99936.305, 0.0009238466, 10.001866, 9.99748 
1.905192e+3, 3.145398e+2, 317984.56, -217502.08, -65477.855, 0.2995131, -0.16439484, 325874.75, 325874.75, 0.0017193621, 10.003691, 9.996703 
1.9149016e+3, 1.24531195e+2, -1714374.0, -1384480.8, 243716.81, -0.15823655, -0.38559666, -1255139.6, 464426.72, 0.18042894, 9.998358, 10.003559 
1.9149156e+3, 1.3453135e+2, -1959117.8, -1824703.5, -207355.27, 0.11543707, -0.47335568, -1673935.9, -52367.85, 0.12358676, 9.997852, 9.999548 
1.914924e+3, 1.4453374e+2, -1801874.8, -1594352.3, -21614.285, -0.46759215, -0.18812518, -1592124.9, -68579.336, 0.069141634, 9.997738, 10.000553 
1.9149473e+3, 1.5453473e+2, -1405428.9, -1199589.6, 21074.72, 0.15568912, -0.3058, -1197454.1, 228079.66, 0.028615344, 9.999135, 10.0019455 
1.914965e+3, 1.645364e+2, -1349300.0, -1335456.6, -58229.49, 0.33125892, -0.23618975, -1283738.9, 43779.066, 0.0073205116, 9.999774, 9.999992 
1.9149764e+3, 1.7453681e+2, -1272692.4, -1236089.0, -40152.34, -0.02266163, -0.23499201, -1210264.0, 19253.76, 0.00070924795, 9.999618, 10.00005 
1.9149894e+3, 1.8453677e+2, -1121435.6, -1096019.6, -45854.4, -0.18625121, -0.24297653, -1061144.9, 70373.49, 0.0000023137907, 9.999889, 10.000234 
1.9150047e+3, 1.9453691e+2, -905696.4, -913226.94, 25486.604, -0.10624433, -0.30444035, -883698.44, 149814.88, 0.0, 10.000606, 10.000456 
1.9150202e+3, 2.0453686e+2, -900915.9, -1056605.3, 46498.86, -0.03528131, -0.2659693, -888085.7, 47427.68, 0.0, 10.000776, 9.998725 
1.9150358e+3, 2.1453638e+2, -848924.2, -966244.5, 29602.775, 0.053212836, -0.23266275, -841877.9, -4356.336, 0.0, 10.000422, 9.998829 
1.9150512e+3, 2.2453551e+2, -761703.3, -898277.4, 26178.426, 0.05113227, -0.18832602, -756857.4, -17324.664, 0.0, 10.000414, 9.998655 
1.9150655e+3, 2.3453417e+2, -565526.25, -733589.06, 54233.203, -0.052472588, -0.23402816, -549545.06, 92002.17, 0.0, 10.001037, 9.998795 
1.9150811e+3, 2.4453318e+2, -452073.0, -679341.56, 31643.816, -0.06071605, -0.18297458, -447749.3, 95808.49, 0.0, 10.001358, 9.998339 
1.9150984e+3, 2.5453255e+2, -296338.03, -528255.94, -18683.164, 0.06626192, -0.1375884, -294842.6, 150721.52, 0.0, 10.001675, 9.998531 
1.915114e+3, 2.645312e+2, -236010.39, -507573.47, -96488.445, 0.07358796, -0.09462488, -205218.67, 142358.42, 0.000000038925435, 10.001615, 9.998066 
1.915127e+3, 2.7452892e+2, -165698.36, -402093.97, -48193.273, -0.07538331, -0.17995255, -156250.9, 93348.47, 0.0000054500297, 10.001356, 9.998225 
1.9151424e+3, 2.8452677e+2, -96814.08, -286531.72, -27487.51, -0.060481478, -0.22622058, -92911.78, 58706.813, 0.00006657065, 10.000999, 9.998532 
1.9151604e+3, 2.9452467e+2, -30603.12, -181457.83, -27657.617, 0.19954604, -0.35953057, -25692.254, 27942.314, 0.0003045757, 10.000723, 9.998688 
1.915174e+3, 3.0452517e+2, 140689.9, -54841.746, 39306.645, -0.14049333, -0.17405969, 148295.66, 148295.66, 0.0008128925, 10.001462, 9.998893 
1.9151925e+3, 3.1452364e+2, 330595.4, 24180.273, 102418.65, -0.08066356, -0.30609062, 361676.03, 361676.03, 0.0015555569, 10.00283, 9.998743 
1.9249006e+3, 1.24516524e+2, -2217732.3, -1598756.4, 328519.84, 0.09941113, -0.084759004, -1456904.0, 262808.16, 0.18987963, 9.994766, 10.003651 
1.9249131e+3, 1.3451338e+2, -1680391.0, -1581721.6, -102999.414, 0.032946657, -0.6161364, -1516851.3, 104894.25, 0.13060497, 9.999258, 10.000631 
1.9249232e+3, 1.4451905e+2, -1476417.9, -1446336.0, 80582.375, -0.41128543, -0.0551155, -1379402.9, 144288.22, 0.07352615, 10.000048, 10.000485 
1.924946e+3, 1.5451914e+2, -1567509.1, -1277663.0, 47092.215, 0.18782859, -0.26209602, -1270203.8, 155485.81, 0.030745408, 9.998046, 10.001909 
1.924964e+3, 1.645203e+2, -1669182.6, -1464332.5, -793.57556, 0.37506768, -0.2524799, -1464329.5, -136649.9, 0.008026891, 9.997476, 10.000209 
1.9249758e+3, 1.7452174e+2, -1353518.5, -1252279.9, -546.7098, 0.008014652, -0.1706622, -1252276.9, -22607.512, 0.0008187495, 9.99896, 10.00026 
1.9249897e+3, 1.8452212e+2, -1132274.9, -1094995.3, -16096.564, -0.12609512, -0.15354876, -1089007.0, 42658.215, 0.0000031359323, 9.999755, 10.000315 
1.9250059e+3, 1.9452149e+2, -960936.8, -930879.6, -72445.05, -0.017488739, -0.30399072, -871920.75, 161745.16, 0.0, 10.000146, 10.000562 
1.9250214e+3, 2.0452112e+2, -953062.4, -1086993.9, -75908.19, 0.049086664, -0.30444774, -918803.3, 16865.469, 0.0, 10.000439, 9.998684 
1.9250365e+3, 2.1452092e+2, -780527.6, -940782.56, -67664.89, 0.05447908, -0.23307979, -755779.25, 81896.26, 0.0, 10.000922, 9.998769 
1.9250518e+3, 2.2452044e+2, -621046.94, -807284.44, -3106.5295, 0.03613364, -0.15336089, -620995.1, 118687.836, 0.0, 10.001314, 9.998832 
1.925067e+3, 2.345195e+2, -451591.0, -655120.06, -17080.107, -0.040966697, -0.17956841, -450167.6, 191524.95, 0.0, 10.001737, 9.998989 
1.9250831e+3, 2.445183e+2, -418152.22, -723242.6, 4574.164, -0.012786258, -0.13565975, -418083.63, 125621.78, 0.0, 10.001824, 9.997822 
1.9251005e+3, 2.545169e+2, -345885.53, -622299.8, 10332.722, 0.12229824, -0.10379955, -345499.8, 100221.34, 0.0, 10.001606, 9.997937 
1.925116e+3, 2.6451537e+2, -204452.61, -452905.66, -4065.6316, 0.13168533, -0.068187185, -204386.1, 143350.58, 0.000000047147957, 10.001678, 9.998403 
1.925129e+3, 2.7451333e+2, -18339.912, -287767.03, -35230.973, -0.053975496, -0.16790101, -13809.21, 235945.72, 0.0000044268, 10.002189, 9.998608 
1.9251443e+3, 2.845112e+2, 61809.06, -253936.36, -7070.9946, -0.016613014, -0.2102238, 61967.332, 213740.52, 0.000054025306, 10.002298, 9.998118 
1.9251627e+3, 2.9450917e+2, 143873.83, -159831.78, -29964.246, 0.30521077, -0.283345, 146801.94, 200591.48, 0.0002523606, 10.002169, 9.998144 
1.925177e+3, 3.0450827e+2, 210303.0, -11181.506, 82985.766, 0.018830966, -0.21364304, 237946.02, 237946.02, 0.0006949562, 10.001886, 9.99899 
1.9251943e+3, 3.1450784e+2, 165209.45, 22126.307, -20573.494, -0.076695114, -0.24192809, 168108.9, 168108.9, 0.0013694268, 10.001273, 9.999511 
1.9348952e+3, 1.2449951e+2, -2373116.5, -1909724.3, -90444.055, 0.018261392, -0.07468663, -1892697.3, -172816.38, 0.1997211, 9.994854, 10.001117 
1.9349107e+3, 1.3449849e+2, -1562529.0, -1351230.3, 34773.703, -0.1645181, -0.5366989, -1345654.6, 276239.8, 0.13795441, 9.99923, 10.002445 
1.9349264e+3, 1.4450674e+2, -1469974.4, -1465377.5, -2957.7275, -0.17024414, 0.17667644, -1463930.1, 59885.45, 0.07814733, 10.00018, 10.000283 
1.9349428e+3, 1.5450472e+2, -1617249.4, -1390329.4, -17279.766, 0.015694816, -0.16888843, -1389021.1, 36814.93, 0.033007, 9.998087, 10.001099 
1.9349585e+3, 1.6450402e+2, -1634484.6, -1414449.4, 32243.58, 0.026944427, -0.31122017, -1409821.8, -81978.37, 0.008786739, 9.997563, 10.000516 
1.9349748e+3, 1.745067e+2, -1323769.3, -1194458.1, 65042.563, -0.032236118, -0.14489946, -1167402.9, 62415.375, 0.00094156526, 9.99897, 10.000659 
1.934991e+3, 1.8450771e+2, -1202091.5, -1248318.9, -15704.908, -0.024204548, -0.036784306, -1197260.9, -65451.844, 0.0000044945964, 9.999792, 9.999244 
1.9350068e+3, 1.9450612e+2, -1061655.9, -1117424.3, -45821.91, 0.044338185, -0.16329423, -1035900.75, -2075.683, 0.0, 10.000045, 9.999333 
1.935022e+3, 2.045052e+2, -937473.4, -1018746.06, -74066.23, 0.0201767, -0.17770183, -893628.25, 42206.82, 0.0, 10.000282, 9.999229 
1.9350362e+3, 2.145053e+2, -773718.9, -869506.56, -37373.336, -0.08138888, -0.13946506, -760862.5, 76973.51, 0.0, 10.000683, 9.999371 
1.935052e+3, 2.2450499e+2, -667804.75, -826626.1, -1128.1635, -0.09906395, -0.07609267, -667796.75, 72043.28, 0.0, 10.000983, 9.9988575 
1.9350693e+3, 2.3450412e+2, -487011.72, -671585.6, 13699.016, -0.0114278495, -0.09384715, -486000.5, 155847.94, 0.0, 10.0014925, 9.998992 
1.935086e+3, 2.4450281e+2, -422671.88, -666082.8, -18624.037, 0.04431803, -0.08618318, -421255.16, 122605.8, 0.0, 10.0015335, 9.99836 
1.9351019e+3, 2.5450093e+2, -342412.47, -555848.0, 15925.84, 0.080529846, -0.16232327, -341230.66, 104648.12, 0.0, 10.001358, 9.998513 
1.9351172e+3, 2.6449925e+2, -270120.34, -508446.38, -3231.4573, 0.06901321, -0.1589334, -270076.56, 77818.664, 0.00000001782158, 10.00134, 9.99818 
1.9351317e+3, 2.7449778e+2, -82272.75, -341526.34, -241.1823, -0.01729601, -0.17925443, -82272.52, 167638.03, 0.0000033385966, 10.001874, 9.998378 
1.935147e+3, 2.844964e+2, 692.5608, -318645.78, -36601.348, -0.008222337, -0.11922387, 4833.96, 156756.38, 0.00004416703, 10.002017, 9.997817 
1.9351639e+3, 2.9449487e+2, 85631.266, -206296.67, -14455.005, 0.16308977, -0.119216226, 86345.266, 140278.72, 0.00021030588, 10.001861, 9.99797 
1.9351786e+3, 3.044905e+2, 54747.605, -244478.47, 40408.945, -0.049555704, -0.32247627, 60108.58, 60108.58, 0.0005915191, 10.0015, 9.997575 
1.9351952e+3, 3.1449035e+2, 8387.626, -108543.26, 30888.002, -0.16698197, -0.1811133, 16045.376, 16045.376, 0.0011872258, 10.0005045, 9.998949 
1.9448902e+3, 1.2448266e+2, -2036315.9, -1904427.1, -116419.234, -0.10525188, -0.20470664, -1836572.8, -116523.89, 0.20999403, 9.9978285, 9.9997225 
1.9449085e+3, 1.3448425e+2, -1865904.1, -1401946.1, 140204.39, -0.17911558, -0.46420932, -1362868.9, 259166.08, 0.14565058, 9.996662, 10.003339 
1.9449276e+3, 1.4449236e+2, -1840253.8, -1671637.6, 24995.258, 0.07089903, 0.18165588, -1668010.4, -144053.06, 0.083007626, 9.997711, 10.000046 
1.9449405e+3, 1.5449026e+2, -1533665.5, -1427728.0, -30980.295, -0.047610763, -0.105532095, -1419333.4, 6646.8525, 0.03539992, 9.998982, 10.000413 
1.9449553e+3, 1.6448894e+2, -1406552.0, -1315854.5, 78977.016, -0.12345155, -0.2721535, -1270132.5, 57861.44, 0.009600047, 9.999175, 10.0004225 
1.9449742e+3, 1.74491e+2, -1310384.5, -1192479.0, 56498.5, 0.019340448, -0.1609084, -1169777.0, 60195.426, 0.0010784023, 9.999081, 10.000619 
1.9449916e+3, 1.844919e+2, -1310535.1, -1327098.3, 1065.2926, 0.11337558, -0.050551854, -1310466.9, -178502.95, 0.0000066792873, 9.999189, 9.998984 
1.9450068e+3, 1.9449054e+2, -1117042.8, -1172217.1, 10302.994, 0.05586131, -0.12511528, -1115181.6, -81201.86, 0.0, 9.999828, 9.999048 
1.9450219e+3, 2.0448978e+2, -943585.0, -1000325.44, 27488.916, -0.00090228004, -0.11795526, -932451.94, 3536.901, 0.0, 10.0001545, 9.999418 
1.945037e+3, 2.1448982e+2, -808390.2, -862363.94, 6721.2095, -0.04876387, -0.10193354, -807565.8, 30423.111, 0.0, 10.000342, 9.999586 
1.9450535e+3, 2.2448938e+2, -711821.9, -882807.56, 58689.504, -0.023765247, -0.048280533, -693615.7, 46378.656, 0.0, 10.000813, 9.998556 
1.9450714e+3, 2.3448823e+2, -477157.0, -707166.2, 24131.55, 0.06278833, -0.061020773, -474652.47, 167355.16, 0.0, 10.001715, 9.99865 
1.945088e+3, 2.4448705e+2, -371196.28, -579729.06, -39116.93, 0.10913544, -0.04821921, -364100.13, 179919.25, 0.0, 10.001658, 9.99888 
1.945103e+3, 2.5448567e+2, -412928.03, -533945.94, -44542.53, 0.08746177, -0.12443112, -398301.28, 47729.336, 0.0, 10.000637, 9.999007 
1.9451185e+3, 2.644841e+2, -371711.47, -566363.7, 23443.36, 0.09274602, -0.13044523, -368927.8, -20882.572, 0.000000002142629, 10.000656, 9.998121 
1.9451347e+3, 2.7448258e+2, -70539.836, -355999.2, 9434.9, 0.09329592, -0.14337318, -70228.336, 179833.39, 0.0000030022966, 10.001997, 9.998243 
1.9451502e+3, 2.8448135e+2, 98110.29, -288242.25, -13973.595, 0.09070038, -0.053838056, 98615.02, 250688.1, 0.00003904193, 10.002749, 9.997681 
1.9451652e+3, 2.9448032e+2, 227577.02, -147776.14, -31701.404, 0.08755229, 0.011862395, 230235.61, 284315.75, 0.00018459432, 10.002856, 9.997904 
1.9451806e+3, 3.0447465e+2, 207254.69, -206314.14, 83735.33, -0.04402661, -0.30580318, 223565.31, 223565.31, 0.00051477127, 10.0027275, 9.9972315 
1.945198e+3, 3.1447443e+2, 287727.66, 247.36586, 62432.254, -0.0130461315, -0.10920067, 300700.66, 300700.66, 0.0010271312, 10.002477, 9.998776 
1.9548874e+3, 1.2446897e+2, -1985132.5, -1889589.9, -93618.3, -0.27251205, -0.18950552, -1832258.9, -112071.64, 0.22070916, 9.998146, 9.999707 
1.9549057e+3, 1.344708e+2, -1846842.0, -1389998.3, 158955.02, -0.13799477, -0.39490744, -1340133.9, 282031.78, 0.15369554, 9.996748, 10.0034275 
1.9549266e+3, 1.444758e+2, -1839321.8, -1701450.1, 74879.91, 0.14219771, -0.061040312, -1668606.0, -144489.38, 0.08810495, 9.997853, 9.999769 
1.9549389e+3, 1.5447572e+2, -1572684.4, -1516240.1, 25122.188, -0.14052428, -0.08755136, -1506678.5, -80555.99, 0.037922986, 9.999013, 9.999791 
1.9549537e+3, 1.6447504e+2, -1423952.6, -1381605.9, 53109.14, -0.25580645, -0.13420473, -1345605.0, -17474.2, 0.010466628, 9.999298, 9.99991 
1.9549738e+3, 1.7447469e+2, -1343700.1, -1270049.9, 64051.336, 0.04248038, -0.21277052, -1232992.3, -2860.6968, 0.0012294218, 9.999109, 10.000074 
1.9549915e+3, 1.8447466e+2, -1266549.9, -1246587.4, 11559.545, 0.1273562, -0.1915029, -1241296.1, -109165.72, 0.000009908067, 9.999241, 9.999508 
1.9550052e+3, 1.9447464e+2, -1090489.1, -1095645.8, 44077.813, -0.10908323, -0.1867066, -1048914.3, -14783.292, 0.0, 9.999741, 9.999615 
1.9550206e+3, 2.0447452e+2, -980889.8, -1039088.7, 19654.494, -0.17286278, -0.13620017, -974874.06, -38741.246, 0.0, 9.999984, 9.999235 
1.9550382e+3, 2.144744e+2, -852717.1, -903479.25, 26289.908, 0.017316194, -0.11968778, -841555.7, -3420.449, 0.0, 10.000128, 9.999402 
1.9550557e+3, 2.2447358e+2, -796290.6, -992709.44, 79988.88, 0.097962156, -0.06607989, -767837.8, -27691.314, 0.0, 10.000522, 9.997946 
1.9550732e+3, 2.3447183e+2, -559535.0, -816227.5, 72569.305, 0.050842546, -0.0772495, -540439.56, 101730.484, 0.0, 10.001457, 9.998021 
1.955089e+3, 2.4447095e+2, -397564.84, -557043.0, -86047.914, 0.009625726, -0.015176992, -359989.97, 184190.98, 0.0, 10.001325, 9.999195 
1.9551028e+3, 2.54471e+2, -418567.28, -490177.5, -66163.51, 0.006282414, 0.010880935, -379141.97, 67035.78, 0.0, 10.000408, 9.999409 
1.9551189e+3, 2.644701e+2, -406833.9, -580056.8, 52414.94, 0.04147982, 0.042748448, -392208.66, -44023.254, 0.00000003752054, 10.000394, 9.9981575 
1.9551374e+3, 2.7446783e+2, -104197.89, -367977.44, 76533.4, 0.13542368, -0.047654442, -83600.7, 166607.03, 0.0000033251551, 10.001755, 9.998274 
1.9551535e+3, 2.8446624e+2, 28495.443, -341085.8, -26854.813, 0.09702565, 0.011593499, 30436.594, 182659.7, 0.000036409245, 10.00236, 9.997502 
1.9551669e+3, 2.9446575e+2, 167008.27, -177752.39, -3111.2764, -0.081149064, 0.14400813, 167036.34, 221263.48, 0.00016708692, 10.002461, 9.997879 
1.9551826e+3, 3.0446076e+2, 177783.2, -174394.56, 46232.914, -0.1830377, -0.13246468, 183751.39, 183751.39, 0.00045041088, 10.002303, 9.997669 
1.9552033e+3, 3.1445962e+2, 231406.22, 30287.605, 76981.516, 0.20560595, -0.0768467, 257489.44, 257489.44, 0.0008724613, 10.00189, 9.999245 
1.9648856e+3, 1.2445458e+2, -2270846.8, -1992329.6, -77732.86, -0.14332022, -0.07350909, -1972103.6, -251773.39, 0.23177752, 9.996124, 9.999922 
1.964903e+3, 1.3445666e+2, -1700552.6, -1350597.5, 53897.01, -0.14248376, -0.21922933, -1342484.8, 279818.88, 0.1620495, 9.997929, 10.0031185 
1.9649252e+3, 1.4445734e+2, -1779108.1, -1675490.0, -24048.086, 0.20384242, -0.2967517, -1670180.9, -145885.05, 0.093428105, 9.998307, 9.999702 
1.964938e+3, 1.544595e+2, -1622627.9, -1537262.6, -70847.984, -0.10788789, -0.10061882, -1497233.4, -70953.09, 0.04057487, 9.998677, 9.9997835 
1.9649532e+3, 1.6445951e+2, -1510039.9, -1475060.9, -10980.246, -0.19289601, -0.059240974, -1471899.8, -143617.28, 0.011385711, 9.998932, 9.999447 
1.9649732e+3, 1.7445792e+2, -1361241.1, -1334075.3, -26117.889, 0.07623836, -0.21074422, -1318219.4, -87923.29, 0.0013940044, 9.999233, 9.999576 
1.964991e+3, 1.8445738e+2, -1209981.0, -1202824.9, -45211.12, 0.15589625, -0.2220443, -1161050.5, -28750.553, 0.000014255441, 9.999545, 9.999669 
1.9650057e+3, 1.9445767e+2, -1002291.4, -1033055.25, -65355.582, -0.05609942, -0.20657606, -950532.0, 83764.02, 0.0, 10.000245, 9.999805 
1.9650215e+3, 2.0445758e+2, -916869.5, -1017604.56, -100015.5, -0.100728214, -0.16004033, -855254.94, 81042.26, 0.0, 10.000455, 9.999152 
1.9650386e+3, 2.144571e+2, -857172.94, -920521.1, -114345.64, 0.056978885, -0.16897207, -770195.56, 68108.17, 0.0, 10.000136, 9.999285 
1.9650562e+3, 2.2445655e+2, -831232.2, -922616.94, 36237.09, 0.12824194, -0.1204018, -818607.1, -78295.47, 0.0, 9.999914, 9.998724 
1.9650738e+3, 2.3445573e+2, -712527.94, -802823.8, 103217.44, 0.04931389, -0.113541424, -645016.3, -2693.2517, 0.0, 10.000015, 9.998817 
1.96509e+3, 2.4445501e+2, -507108.56, -660567.1, -5893.791, 0.019121459, -0.057298146, -506882.53, 37449.414, 0.0, 10.000742, 9.998794 
1.9651043e+3, 2.5445455e+2, -197982.2, -441637.28, -80238.26, 0.032727767, -0.03235601, -173932.64, 272403.75, 0.0, 10.002146, 9.99893 
1.9651209e+3, 2.6445344e+2, -67124.91, -406696.0, 42336.92, 0.08415961, 0.0027142416, -61926.035, 286420.88, 0.00000006167767, 10.002705, 9.998233 
1.9651394e+3, 2.7445114e+2, -25022.836, -324002.9, 27110.771, 0.15586308, -0.09216527, -22584.387, 227783.6, 0.000003603985, 10.002284, 9.998317 
1.9651558e+3, 2.8444934e+2, -40707.113, -349465.94, -47711.93, 0.13510586, -0.06730364, -33502.395, 118883.37, 0.00003430298, 10.001785, 9.99772 
1.9651693e+3, 2.9444867e+2, 11172.334, -239903.4, -45414.625, -0.006475716, 0.038509093, 19134.445, 73527.91, 0.00015136057, 10.001331, 9.99801 
1.9651851e+3, 3.0444536e+2, 71920.15, -233850.55, 43145.844, -0.091334715, -0.07331664, 77891.64, 77891.64, 0.00039140965, 10.001595, 9.997613 
1.9652055e+3, 3.1444317e+2, 303720.1, 69564.32, -109412.76, 0.23973893, -0.10206847, 346886.97, 346886.97, 0.0007269925, 10.002324, 9.999332 
1.9748837e+3, 1.2443784e+2, -2203656.3, -1925149.4, 27311.512, -0.055208575, -0.07147191, -1922496.4, -202002.38, 0.24301729, 9.996416, 10.000248 
1.9748996e+3, 1.3444206e+2, -1749075.6, -1466572.8, 100542.96, -0.30546722, 0.075352795, -1434443.5, 188003.19, 0.17062773, 9.998065, 10.002146 
1.9749224e+3, 1.4443672e+2, -1747183.5, -1639161.9, -37511.484, 0.042185172, -0.55411476, -1627413.4, -102916.2, 0.09895461, 9.9984255, 9.999902 
1.9749373e+3, 1.5444155e+2, -1576608.1, -1449882.6, -47723.832, -0.0827781, -0.1444385, -1433920.8, -7466.6504, 0.04335473, 9.998712, 10.00037 
1.9749537e+3, 1.6444229e+2, -1515126.9, -1512412.0, -14951.694, -0.081383884, -0.044610295, -1498756.3, -170306.66, 0.012356995, 9.999054, 9.999131 
1.974972e+3, 1.7444064e+2, -1391114.9, -1395352.1, -5660.442, 0.00040997795, -0.15583476, -1387189.5, -156722.58, 0.0015709848, 9.999237, 9.999152 
1.9749899e+3, 1.8443996e+2, -1219176.6, -1232308.9, -37221.3, 0.042622846, -0.1468787, -1187946.8, -55473.094, 0.000019593592, 9.999582, 9.9994545 
1.9750075e+3, 1.9443956e+2, -1025372.0, -1059682.5, -27448.273, 0.075565696, -0.18366526, -1010158.9, 24317.004, 0.0, 10.000156, 9.999665 
1.9750237e+3, 2.0443887e+2, -945903.56, -1034851.8, -120562.484, 0.050027717, -0.18838012, -861873.75, 74608.99, 0.0, 10.000271, 9.999121 
1.9750379e+3, 2.1443807e+2, -890929.44, -939128.4, -114216.15, -0.048140828, -0.22922751, -798297.94, 40195.04, 0.0, 9.999916, 9.999263 
1.9750541e+3, 2.244384e+2, -737926.7, -658962.4, 23362.422, -0.0956971, -0.18371615, -652568.2, 87920.05, 0.0, 9.999604, 10.000687 
1.975073e+3, 2.3443986e+2, -593521.44, -510294.2, 123935.79, -0.057713576, -0.16193227, -421172.28, 221295.22, 0.0, 9.999812, 10.000925 
1.9750907e+3, 2.4443932e+2, -630310.0, -853682.44, 28111.299, -0.017309805, -0.14743783, -626826.56, -82354.66, 0.0, 10.0004635, 9.997606 
1.9751067e+3, 2.5443637e+2, -319129.94, -649720.56, -13733.743, 0.035819333, -0.23474984, -318560.38, 127945.5, 0.0, 10.001952, 9.997596 
1.9751234e+3, 2.644341e+2, -124431.26, -449374.03, 13352.718, 0.045522336, -0.23754759, -123883.484, 224646.39, 0.000000055759365, 10.0023775, 9.998094 
1.9751406e+3, 2.744326e+2, -68245.55, -340685.56, 30219.04, 0.021469636, -0.26171586, -64933.91, 185608.03, 0.0000036492006, 10.001981, 9.998338 
1.9751568e+3, 2.8443086e+2, -63328.17, -326522.75, -84523.336, 0.036312845, -0.24889469, -38522.008, 114036.74, 0.00003270768, 10.00147, 9.998038 
1.9751723e+3, 2.9442906e+2, 5694.2505, -206600.45, -34384.67, 0.12705524, -0.29739758, 11124.521, 65703.89, 0.00013942833, 10.001131, 9.998338 
1.9751878e+3, 3.0442837e+2, -75639.5, -423984.84, 50105.29, -0.013040525, -0.10824912, -68575.695, -68575.695, 0.00034788318, 10.001127, 9.99652 
1.9752067e+3, 3.1442532e+2, 185365.67, 16015.05, -47676.035, 0.0800002, -0.13561252, 197865.02, 197865.02, 0.0006200003, 10.001556, 9.999305 
1.9848832e+3, 1.24416985e+2, -1841048.5, -1726517.5, 51763.934, 0.16162811, -0.4047682, -1706589.5, 14107.199, 0.25424254, 9.998758, 10.0005455 
1.9848984e+3, 1.344248e+2, -1750370.1, -1555190.5, 25596.063, -0.23766457, 0.19109446, -1551889.6, 70726.83, 0.17932345, 9.998463, 10.001233 
1.9849192e+3, 1.4441746e+2, -1879976.0, -1680333.6, -78200.88, -0.06041019, -0.5964862, -1653349.3, -128662.03, 0.104643695, 9.99742, 10.000113 
1.9849364e+3, 1.544227e+2, -1601680.9, -1418217.9, -107967.39, -0.018556083, -0.18397848, -1368275.0, 58362.824, 0.046255346, 9.998341, 10.000797 
1.9849539e+3, 1.6442397e+2, -1487985.0, -1453159.9, -37389.098, 0.031534966, -0.07461299, -1429327.5, -100700.66, 0.013380272, 9.999053, 9.999527 
1.984971e+3, 1.7442283e+2, -1309310.4, -1312148.8, 5682.6406, -0.026095223, -0.17499603, -1304872.4, -74233.22, 0.0017591557, 9.999617, 9.999534 
1.9849889e+3, 1.8442243e+2, -1203544.4, -1237579.4, 35514.03, -0.0028108682, -0.15246543, -1181181.1, -48537.703, 0.0000256483, 9.999736, 9.999342 
1.9850078e+3, 1.9442199e+2, -1105271.6, -1114539.1, 21667.691, 0.124139465, -0.18434896, -1087747.8, -53100.273, 0.0, 9.999648, 9.99954 
1.9850244e+3, 2.0442134e+2, -1021625.0, -1056622.8, -45390.2, 0.1333387, -0.18598779, -990477.4, -53823.07, 0.0, 9.999685, 9.999261 
1.9850379e+3, 2.144208e+2, -846223.25, -902412.7, -57648.637, -0.039331008, -0.21280387, -810187.8, 28473.29, 0.0, 10.000159, 9.999402 
1.985054e+3, 2.2442092e+2, -617234.4, -596766.9, 45035.063, -0.088287055, -0.19825618, -560817.44, 179839.69, 0.0, 10.000404, 10.000726 
1.9850735e+3, 2.3442164e+2, -515589.5, -472216.56, -35652.93, 0.008376737, -0.25222373, -452172.53, 190469.38, 0.0, 10.000341, 10.000927 
1.9850919e+3, 2.4442102e+2, -577258.4, -798510.94, -93320.87, 0.058719296, -0.2532307, -543154.0, 1492.1716, 0.0, 10.000758, 9.99781 
1.9851084e+3, 2.544186e+2, -304980.03, -622107.3, -52968.168, 0.008250099, -0.30313146, -296366.94, 150308.33, 0.0, 10.001988, 9.997752 
1.9851251e+3, 2.644167e+2, -136487.64, -423260.66, -1135.6997, -0.0002197614, -0.29317844, -136483.14, 212213.25, 0.00000004684117, 10.002164, 9.998368 
1.9851421e+3, 2.7441537e+2, -188263.6, -369682.84, -7651.0327, 0.033479445, -0.31972978, -187941.5, 62765.117, 0.000003631824, 10.001039, 9.998584 
1.9851588e+3, 2.8441402e+2, -102208.48, -343073.9, -39929.457, 0.10234113, -0.28065693, -95761.72, 56958.93, 0.000030883682, 10.00121, 9.998036 
1.985175e+3, 2.9441237e+2, 263869.6, -91765.68, -66345.99, 0.19866039, -0.30524096, 275843.7, 330585.38, 0.00012822116, 10.002976, 9.9982195 
1.9851904e+3, 3.0441168e+2, 258507.97, -216293.55, 46835.832, 0.0327997, -0.12847197, 263083.88, 263083.88, 0.0003141248, 10.003187, 9.996959 
1.9852093e+3, 3.144096e+2, 179584.02, 38325.367, -33492.51, 0.2001091, -0.100648746, 187122.77, 187122.77, 0.00054965925, 10.001334, 9.999583 
1.9948812e+3, 1.24399096e+2, -1816905.4, -1728938.4, -43734.547, -0.005456005, -0.3392064, -1710895.6, 9973.209, 0.26535824, 9.998991, 10.000404 
1.9948986e+3, 1.3440464e+2, -1792570.3, -1653782.8, -24992.053, -0.1032616, 0.11291257, -1649419.5, -26603.906, 0.18805622, 9.99856, 10.000408 
1.9949152e+3, 1.443994e+2, -1840276.9, -1630810.9, -85422.26, -0.2552654, -0.43519518, -1600392.3, -75524.85, 0.11045076, 9.99756, 10.000388 
1.9949348e+3, 1.5440282e+2, -1576184.1, -1368476.5, -61897.652, -0.03843194, -0.23135148, -1351429.8, 75403.28, 0.04926506, 9.998359, 10.001135 
1.994953e+3, 1.6440438e+2, -1392609.6, -1279690.1, -28171.896, -0.011286102, -0.16339004, -1273051.9, 55764.52, 0.014456319, 9.99915, 10.000678 
1.99497e+3, 1.7440441e+2, -1221844.4, -1130107.1, 32884.297, -0.12265789, -0.26849124, -1119537.3, 111276.31, 0.0019582892, 9.999617, 10.000782 
1.9949877e+3, 1.844047e+2, -1197706.6, -1233394.9, 18374.805, -0.12869585, -0.24507196, -1189937.4, -57126.56, 0.000032105352, 9.999773, 9.9993515 
1.9950064e+3, 1.944049e+2, -1124061.0, -1128475.0, 27393.297, -0.024389008, -0.20439777, -1098786.0, -63974.4, 0.0, 9.999552, 9.999485 
1.9950232e+3, 2.0440505e+2, -1028071.6, -1036088.5, -46653.1, 0.00043629893, -0.13408515, -985255.06, -48443.816, 0.0, 9.999531, 9.999478 
1.9950384e+3, 2.144051e+2, -854386.6, -878915.4, -27393.834, -0.042530347, -0.12707302, -836637.06, 2172.619, 0.0, 9.999981, 9.999649 
1.9950555e+3, 2.2440396e+2, -790541.6, -890780.2, 33206.57, -0.014077863, -0.16667248, -780539.2, -39719.695, 0.0, 10.000119, 9.998845 
1.9950753e+3, 2.344012e+2, -687345.25, -779884.0, -20074.023, 0.118061736, -0.37141114, -683178.3, -40333.797, 0.0, 10.000125, 9.998919 
1.9950931e+3, 2.4440008e+2, -530854.75, -626684.9, -63828.547, 0.076353185, -0.37981164, -498957.94, 45896.977, 0.0, 10.000429, 9.999151 
1.9951089e+3, 2.5440112e+2, -229880.75, -409224.13, 9982.694, -0.16089025, -0.24727497, -229326.8, 217519.42, 0.0, 10.00174, 9.999333 
1.9951256e+3, 2.644009e+2, -154941.31, -381322.34, -53488.566, -0.19759405, -0.17071223, -142939.5, 205909.23, 0.000000042002604, 10.001826, 9.9988165 
1.9951436e+3, 2.7439925e+2, -199575.02, -329037.06, -34378.42, 0.044721235, -0.27084458, -191012.23, 59851.707, 0.0000035134383, 10.000778, 9.998981 
1.9951606e+3, 2.8439838e+2, -194612.17, -459574.97, -331.23468, 0.13176395, -0.17542836, -194611.75, -41736.387, 0.00002820436, 10.000883, 9.9973955 
1.9951768e+3, 2.94398e+2, 161949.95, -215909.39, 19678.28, 0.04513952, -0.016114116, 162972.0, 217858.08, 0.00011358975, 10.002594, 9.99755 
1.995192e+3, 3.0439505e+2, 284180.84, -13340.587, -36337.063, -0.15685922, -0.11116504, 288554.5, 288554.5, 0.0002776181, 10.002578, 9.9986315 
1.995211e+3, 3.143959e+2, 87506.266, 7405.1265, -5157.085, 0.17169748, 0.008471523, 87836.92, 87836.92, 0.00049017585, 10.000702, 9.999646 
2.0048782e+3, 1.2438104e+2, -2067542.4, -1828832.8, -45343.637, -0.09693294, -0.24543074, -1820509.8, -99465.46, 0.27641812, 9.997205, 10.000528 
2.0048971e+3, 1.343854e+2, -1718644.5, -1594082.5, 14412.399, -0.093791746, 0.041628413, -1592436.6, 30567.75, 0.1968332, 9.998925, 10.000679 
2.0049152e+3, 1.4438228e+2, -1635342.5, -1513663.6, 29120.96, -0.062334027, -0.32111, -1507053.4, 17981.377, 0.11636926, 9.998879, 10.000564 
2.0049328e+3, 1.54384e+2, -1559470.9, -1352407.6, 26895.74, -0.07754595, -0.30368638, -1348971.3, 78043.125, 0.05238356, 9.998415, 10.001226 
2.0049503e+3, 1.643854e+2, -1520189.8, -1315169.9, 60890.164, -0.12950943, -0.26826766, -1298449.4, 30548.404, 0.015589432, 9.998136, 10.000933 
2.0049694e+3, 1.743866e+2, -1358725.1, -1168933.6, 25569.045, -0.08706865, -0.28881186, -1165549.4, 65434.75, 0.0021699998, 9.998518, 10.001061 
2.004988e+3, 1.8438719e+2, -1349329.3, -1290655.5, -8629.321, -0.019296858, -0.25741664, -1289412.6, -156434.03, 0.00003871999, 9.998686, 9.999474 
2.0050055e+3, 1.9438697e+2, -1178408.0, -1147897.8, -17909.455, -0.024613062, -0.2654969, -1139627.0, -104643.48, 0.0, 9.9991665, 9.9995365 
2.0050225e+3, 2.0438698e+2, -1004235.06, -1017324.56, -52402.227, -0.024123982, -0.21367243, -957970.5, -20986.23, 0.0, 9.999685, 9.999528 
2.0050389e+3, 2.1438716e+2, -778217.7, -835657.1, -72104.91, -0.0089488635, -0.19586405, -729323.4, 109657.13, 0.0, 10.000488, 9.999703 
2.0050566e+3, 2.2438602e+2, -726216.94, -924357.2, 20507.361, 0.05029211, -0.2063397, -724116.7, 16874.85, 0.0, 10.000868, 9.998244 
2.0050758e+3, 2.3438318e+2, -625158.1, -817424.0, 30183.838, 0.12458877, -0.3511333, -620530.94, 22490.518, 0.0, 10.000882, 9.998284 
2.0050938e+3, 2.4438219e+2, -464541.1, -566578.1, 43659.715, 0.09779417, -0.32818368, -448410.06, 96622.29, 0.0, 10.000717, 9.999445 
2.0051105e+3, 2.5438341e+2, -423476.94, -462590.56, 1165.9348, -0.07216285, -0.20923622, -423442.22, 23577.777, 0.0, 10.000219, 9.999702 
2.0051275e+3, 2.643834e+2, -368495.25, -488601.5, -110118.73, -0.097785935, -0.13473646, -303119.06, 45901.6, 0.000000029896977, 10.000352, 9.998797 
2.0051447e+3, 2.743815e+2, -114197.39, -302056.88, -151795.42, 0.052702986, -0.25083926, -29620.42, 221419.95, 0.0000031274246, 10.001382, 9.998896 
2.0051618e+3, 2.8438085e+2, -39121.918, -312955.66, -41702.652, 0.12467166, -0.16005863, -32911.777, 120136.97, 0.000025154262, 10.001633, 9.99805 
2.0051783e+3, 2.943813e+2, -46938.29, -245554.66, 18122.297, 0.05240719, 0.022181833, -45298.3, 9748.899, 0.00009776422, 10.000851, 9.998188 
2.0051943e+3, 3.0437776e+2, 144981.52, -33888.418, 1290.8807, -0.08719888, -0.18182318, 144990.83, 144990.83, 0.00024035014, 10.001391, 9.999084 
2.0052144e+3, 3.1437814e+2, 424163.2, 51493.855, -106517.17, 0.3128474, -0.12794633, 452459.63, 452459.63, 0.0004337669, 10.003474, 9.998655 
2.0148765e+3, 1.2436123e+2, -2045888.5, -1800155.8, -83771.96, -0.092039146, -0.3156125, -1774314.8, -53075.8, 0.28771394, 9.997289, 10.000682 
2.0148943e+3, 1.34367e+2, -1617012.5, -1433136.9, 47537.184, -0.32629275, -0.03803734, -1421574.3, 201609.02, 0.20582092, 9.998974, 10.002056 
2.0149188e+3, 1.4436604e+2, -1607959.1, -1494899.0, -9844.008, 0.35447899, -0.26051426, -1494048.3, 31141.764, 0.12247417, 9.999027, 10.000639 
2.0149295e+3, 1.5436621e+2, -1561279.3, -1355795.0, 15296.448, -0.26897928, -0.3935829, -1354662.5, 72519.17, 0.055639356, 9.998419, 10.001199 
2.0149453e+3, 1.6436715e+2, -1545091.8, -1386563.9, 57485.656, -0.48992312, -0.37793693, -1367912.6, -38742.734, 0.016791714, 9.998222, 10.000403 
2.0149687e+3, 1.7436947e+2, -1404958.3, -1255829.9, 49693.594, -0.025616571, -0.22517607, -1240787.9, -9637.659, 0.0023981123, 9.998488, 10.000479 
2.0149891e+3, 1.8437003e+2, -1330290.6, -1267916.8, -12213.419, 0.1726401, -0.1746152, -1265610.5, -132464.36, 0.000045425786, 9.998747, 9.999607 
2.0150052e+3, 1.9436817e+2, -1180070.1, -1131413.3, 6765.9546, -0.006270432, -0.36142874, -1130490.0, -95326.266, 0.0, 9.999082, 9.999691 
2.0150216e+3, 2.0436715e+2, -1036441.56, -1046099.5, -37840.094, -0.102347665, -0.41479266, -1003123.56, -65950.875, 0.0, 9.999518, 9.9994135 
2.015039e+3, 2.1436702e+2, -824096.3, -879863.7, -29028.17, -0.05531486, -0.40915236, -811729.1, 27443.498, 0.0, 10.000269, 9.999507 
2.0150568e+3, 2.2436701e+2, -735233.6, -879824.1, 9902.405, -0.051232904, -0.31641728, -734558.6, 6615.439, 0.0, 10.000581, 9.998694 
2.0150746e+3, 2.3436722e+2, -612674.5, -753533.6, 44513.848, -0.08370287, -0.20943758, -599786.56, 43390.02, 0.0, 10.000701, 9.9988165 
2.0150936e+3, 2.4436681e+2, -561557.0, -694000.25, 15554.867, -0.037087914, -0.12272733, -559754.7, -14571.293, 0.0, 10.00041, 9.998713 
2.0151131e+3, 2.5436544e+2, -514554.5, -597214.25, -4454.9004, 0.13160336, -0.18143871, -514315.1, -67117.7, 0.0, 9.999995, 9.998884 
2.0151304e+3, 2.6436388e+2, -444748.88, -579453.06, -88837.32, 0.12001524, -0.19212542, -400618.34, -51403.855, 0.0000000091701935, 10.000063, 9.998316 
2.015145e+3, 2.7436218e+2, -183677.89, -381105.5, -91889.66, -0.076503694, -0.2501457, -147528.34, 103706.51, 0.0000023642951, 10.001108, 9.998483 
2.0151612e+3, 2.843617e+2, 13909.171, -112705.305, -86099.04, -0.1172651, -0.19506902, 57470.316, 210708.48, 0.000021595964, 10.001255, 9.999599 
2.0151794e+3, 2.9436216e+2, 36338.773, -24589.635, 8335.886, 0.03726367, -0.184311, 37458.66, 92684.734, 0.000083873885, 10.000623, 9.999823 
2.0151968e+3, 3.0435944e+2, 3374.7712, -213453.75, 48059.438, -0.02040374, -0.34768716, 13549.555, 13549.555, 0.00020823472, 10.000937, 9.998047 
2.015217e+3, 3.143589e+2, 163437.81, -248381.7, 77063.9, 0.16836786, -0.2867029, 177386.36, 177386.36, 0.0003833975, 10.002522, 9.997008 
2.0248759e+3, 1.2434263e+2, -1992264.1, -1881771.8, -18506.895, 0.0857867, -0.2477857, -1878754.4, -157336.2, 0.29983783, 9.998147, 9.999688 
2.0248933e+3, 1.3434726e+2, -1801304.5, -1416601.9, 27467.293, -0.2122509, -0.18934257, -1414650.6, 208723.89, 0.21537028, 9.997236, 10.0030365 
2.0249175e+3, 1.4434901e+2, -1692345.5, -1535343.8, -46113.883, 0.36228257, -0.19857891, -1522801.4, 2553.5483, 0.12892798, 9.998458, 10.000609 
2.024929e+3, 1.5434867e+2, -1504954.3, -1359267.9, -77850.266, -0.1899047, -0.35779577, -1325495.9, 101855.5, 0.05909158, 9.998945, 10.000927 
2.024945e+3, 1.6434869e+2, -1487249.1, -1446387.1, -16562.914, -0.37708494, -0.37951744, -1440516.9, -111167.2, 0.018083457, 9.999034, 9.999579 
2.0249678e+3, 1.7434992e+2, -1284678.4, -1291090.4, -66990.55, -0.023330184, -0.25012958, -1220817.1, 10526.201, 0.0026487417, 9.999762, 9.999602 
2.0249882e+3, 1.8435037e+2, -1142643.4, -1128183.6, -124040.41, 0.16720675, -0.18231423, -1011162.6, 122178.36, 0.000052423693, 9.999819, 10.000044 
2.0250052e+3, 1.9434945e+2, -1106116.6, -1044007.56, -103635.47, 0.08778624, -0.32602084, -966873.9, 68473.56, 0.0, 9.99935, 10.000162 
2.0250224e+3, 2.0434876e+2, -1037252.0, -1029109.4, -63525.668, 0.029935503, -0.38182688, -969524.7, -32172.52, 0.0, 9.999446, 9.999552 
2.0250396e+3, 2.1434817e+2, -782349.7, -850679.06, -62750.332, -0.026281578, -0.43443757, -745066.25, 94290.35, 0.0, 10.000512, 9.99958 
2.0250572e+3, 2.2434817e+2, -677207.7, -828541.9, -30051.947, -0.066245615, -0.35400346, -671458.44, 69899.35, 0.0, 10.00088, 9.998895 
2.0250751e+3, 2.343491e+2, -630987.06, -737769.6, -43657.742, -0.10480007, -0.19515373, -615410.06, 27943.492, 0.0, 10.000476, 9.9990225 
2.025094e+3, 2.4434887e+2, -567181.1, -702261.44, -32638.139, -0.013977093, -0.10019976, -559708.44, -14349.574, 0.0, 10.00042, 9.998635 
2.0251143e+3, 2.5434685e+2, -388350.78, -552122.56, -27586.59, 0.20980999, -0.21115796, -383828.8, 63550.445, 0.0, 10.000939, 9.998732 
2.0251319e+3, 2.6434514e+2, -298269.66, -498197.06, -30420.727, 0.2210052, -0.23147315, -293743.34, 55654.406, 0.000000001074916, 10.001037, 9.998399 
2.025146e+3, 2.7434412e+2, -257617.56, -399598.28, -33896.438, -0.050571557, -0.22801101, -249940.28, 1471.439, 0.0000018159459, 10.000563, 9.998602 
2.0251623e+3, 2.8434357e+2, -36028.58, -144245.22, -29736.715, -0.10109408, -0.183682, -28395.643, 125019.625, 0.000018189116, 10.000912, 9.99956 
2.0251812e+3, 2.9434302e+2, 264321.6, 94518.53, -96511.836, 0.09053257, -0.2672557, 307961.13, 363372.6, 0.000072171526, 10.002154, 9.999896 
2.0252006e+3, 3.0434042e+2, 290800.53, -153519.36, -33656.367, 0.16325945, -0.39750734, 293335.47, 293335.47, 0.00017992329, 10.00317, 9.997426 
2.0252185e+3, 3.143401e+2, 298904.47, -167435.06, -83582.31, 0.061347116, -0.22419944, 313432.38, 313432.38, 0.00033564074, 10.003293, 9.99723 
2.0348725e+3, 1.2432277e+2, -2133118.3, -2238101.5, 33280.242, -0.17078385, -0.33282596, -2123457.3, -401851.16, 0.3135409, 9.998373, 9.997164 
2.0348942e+3, 1.34326e+2, -1746147.6, -1351917.4, 58033.965, 0.11090721, -0.42906427, -1343551.9, 280028.13, 0.22593072, 9.997352, 10.00359 
2.0349105e+3, 1.44331e+2, -1672031.8, -1541067.3, -21773.22, -0.24794087, -0.14168222, -1537542.3, -12011.001, 0.13594478, 9.998658, 10.000473 
2.0349306e+3, 1.5433136e+2, -1526333.4, -1415995.9, -60561.28, 0.039691895, -0.1943415, -1389242.4, 38281.21, 0.06282382, 9.999004, 10.000483 
2.0349488e+3, 1.6432995e+2, -1555151.5, -1612937.4, -17313.77, 0.046908453, -0.2812107, -1550361.1, -220823.23, 0.019494196, 9.999142, 9.998385 
2.034966e+3, 1.7432785e+2, -1359157.5, -1454872.4, -28973.975, -0.207171, -0.36597624, -1351070.0, -119505.445, 0.0029308582, 9.999794, 9.998462 
2.0349848e+3, 1.8432817e+2, -1086908.9, -1019024.0, -151018.16, -0.20066415, -0.28892505, -898180.9, 235382.84, 0.00006041413, 9.999848, 10.000782 
2.0350054e+3, 1.943309e+2, -1060535.1, -925932.0, -110905.766, 0.13631713, -0.15024567, -863504.6, 172029.56, 0.0, 9.999255, 10.001018 
2.0350239e+3, 2.043318e+2, -1033676.3, -985801.0, -41784.133, 0.20089418, -0.10836958, -961583.44, -24060.738, 0.0, 9.999294, 9.999922 
2.0350403e+3, 2.1433043e+2, -786689.7, -811078.94, -10035.901, -0.043062918, -0.27408272, -783091.0, 56442.67, 0.0, 10.000303, 9.999954 
2.0350575e+3, 2.2432947e+2, -726460.06, -850887.8, -52611.08, -0.15703559, -0.3131696, -707197.0, 34346.19, 0.0, 10.000551, 9.998893 
2.035076e+3, 2.3432893e+2, -676378.94, -768460.2, -41899.344, -0.06800953, -0.2961508, -660167.7, -16616.04, 0.0, 10.000215, 9.998933 
2.0350948e+3, 2.443283e+2, -579044.9, -658035.56, -28503.031, -0.0046418114, -0.25375035, -569833.94, -24274.66, 0.0, 10.000123, 9.999083 
2.0351137e+3, 2.5432754e+2, -382841.56, -492883.88, 3882.3535, 0.045936085, -0.29145342, -382704.75, 64861.457, 0.0, 10.00073, 9.999242 
2.0351313e+3, 2.6432702e+2, -317175.28, -457119.6, -60485.46, 0.035898555, -0.2423142, -294656.4, 54915.49, 0.000000023664393, 10.000703, 9.998836 
2.0351471e+3, 2.743268e+2, -257986.5, -353388.0, -36353.742, -0.021239974, -0.20834704, -245712.63, 5863.6685, 0.0000019634658, 10.000352, 9.999023 
2.0351644e+3, 2.8432587e+2, -198613.1, -389224.25, -7545.6563, -0.020861967, -0.15506148, -198314.84, -44728.977, 0.000016146072, 10.000535, 9.998051 
2.0351835e+3, 2.943238e+2, 110102.016, -149043.27, -26217.355, 0.06468728, -0.23237495, 112727.78, 168331.92, 0.00006227005, 10.001817, 9.998391 
2.0352043e+3, 3.0432048e+2, 158036.14, -267545.63, -41408.3, 0.19040959, -0.3293477, 162027.66, 162027.66, 0.00015436458, 10.002514, 9.996935 
2.0352197e+3, 3.143198e+2, 333278.25, 95285.93, -54325.965, -0.21375972, -0.17277403, 345092.63, 345092.63, 0.0002908974, 10.002531, 9.999372 
2.0448701e+3, 1.2430323e+2, -2089532.6, -2238882.3, 131648.25, -0.23846857, -0.36034977, -2012855.0, -291059.9, 0.3294151, 9.998779, 9.9969845 
2.0448928e+3, 1.343063e+2, -1730997.9, -1373065.8, -11851.275, 0.23087634, -0.41783825, -1372673.8, 251097.38, 0.23787552, 9.997605, 10.003317 
2.0449078e+3, 1.443103e+2, -1821565.1, -1634430.9, -57974.66, -0.31992444, -0.20410515, -1617925.9, -92191.96, 0.14372098, 9.997738, 10.000271 
2.0449303e+3, 1.5431161e+2, -1458549.8, -1405687.5, -131879.55, 0.09617072, -0.14235832, -1297616.5, 130103.66, 0.06692591, 9.999593, 10.000288 
2.0449495e+3, 1.6431047e+2, -1386156.9, -1499190.3, -39520.47, 0.16671892, -0.20640886, -1373709.8, -43977.543, 0.021061258, 10.000145, 9.998691 
2.044966e+3, 1.7430784e+2, -1354997.1, -1420159.9, 33204.824, -0.17278008, -0.37799314, -1341058.6, -109297.02, 0.003256253, 9.999672, 9.998767 
2.0449844e+3, 1.8430802e+2, -1150539.6, -1055122.1, -41034.137, -0.20483854, -0.3257699, -1039902.94, 93857.914, 0.00007088071, 9.999444, 10.000728 
2.0450044e+3, 1.9431108e+2, -975736.5, -889305.25, -97926.04, 0.09866932, -0.14988944, -825483.06, 210245.94, 0.0, 9.999871, 10.000964 
2.0450231e+3, 2.0431231e+2, -932290.75, -924095.4, -32892.92, 0.18692611, -0.07581862, -895045.94, 42669.152, 0.0, 9.999913, 10.000065 
2.0450406e+3, 2.1431142e+2, -863686.3, -821955.25, -40256.652, -0.00095576653, -0.21356316, -797478.0, 42244.305, 0.0, 9.999665, 10.000189 
2.0450583e+3, 2.2431056e+2, -816675.2, -887599.9, -67162.98, -0.08226516, -0.25764862, -776187.25, -34456.6, 0.0, 9.99988, 9.998981 
2.0450768e+3, 2.3430943e+2, -589729.4, -720572.0, -72510.664, -0.040356692, -0.30605194, -557489.3, 86254.82, 0.0, 10.000758, 9.999013 
2.0450953e+3, 2.4430874e+2, -451579.5, -566825.1, -43371.85, -0.0062806606, -0.28733975, -437080.84, 108670.71, 0.0, 10.000851, 9.9993725 
2.0451136e+3, 2.5430873e+2, -472380.7, -498280.4, -55167.543, -0.0012479599, -0.27821422, -428663.47, 19087.012, 0.0, 9.99995, 9.999581 
2.0451313e+3, 2.6430854e+2, -407707.2, -499353.56, -86125.18, 0.017255232, -0.21832542, -355973.66, -6221.523, 0.00000011200642, 10.000049, 9.998865 
2.0451486e+3, 2.7430797e+2, -90623.67, -280485.38, -127477.164, 0.049146626, -0.21307142, -26613.357, 225145.02, 0.000002326167, 10.001511, 9.998972 
2.0451663e+3, 2.8430662e+2, -18590.459, -365856.97, -64962.8, 0.06188142, -0.17065473, -6835.8154, 146937.13, 0.000014696717, 10.002026, 9.997496 
2.0451847e+3, 2.943042e+2, -21501.596, -273403.56, -60199.5, 0.045887217, -0.21287736, -7854.4775, 47944.074, 0.00005375532, 10.001189, 9.997832 
2.0452067e+3, 3.0430186e+2, 44270.586, -272194.7, 63047.434, 0.26188987, -0.21090518, 56368.645, 56368.645, 0.00013253847, 10.001509, 9.99738 
2.0452234e+3, 3.1429997e+2, 483941.63, 218444.4, -92731.98, -0.112980455, -0.20746881, 513123.28, 513123.28, 0.0002539401, 10.003295, 9.999859 
2.054871e+3, 1.2428354e+2, -1868050.5, -1852524.0, 104901.8, -0.10480991, -0.36303976, -1755098.6, -33108.543, 0.3476065, 9.999081, 9.999492 
2.054888e+3, 1.3428862e+2, -1784417.5, -1474047.9, -32914.51, -0.04445918, -0.11479135, -1470595.8, 153348.08, 0.2513395, 9.997677, 10.002402 
2.0549089e+3, 1.4428675e+2, -1826114.0, -1675779.5, -6764.074, -0.05165927, -0.41670632, -1675475.8, -149511.14, 0.15236652, 9.997877, 9.999918 
2.0549275e+3, 1.5428948e+2, -1445015.9, -1395879.9, -52260.844, -0.17089006, -0.20647047, -1362700.3, 65240.02, 0.071473114, 9.999656, 10.000312 
2.0549466e+3, 1.6429032e+2, -1249198.4, -1250869.8, -69987.86, -0.1987271, -0.15195599, -1180041.3, 149891.02, 0.022826005, 10.000296, 10.000341 
2.0549673e+3, 1.7428988e+2, -1231112.0, -1168184.5, 22464.936, -0.04467802, -0.2781444, -1160987.6, 70946.5, 0.0036400491, 9.999686, 10.000495 
2.054986e+3, 1.842898e+2, -1201629.1, -1182248.3, -41526.813, -0.014145495, -0.30116245, -1149296.3, -15362.538, 0.00008593674, 9.999518, 9.999828 
2.055002e+3, 1.9428976e+2, -1048804.5, -1036433.9, -73394.39, -0.1543155, -0.33340985, -968964.6, 66969.49, 0.0, 9.999834, 9.999981 
2.0550197e+3, 2.042901e+2, -962545.44, -949702.25, -55212.055, -0.18049866, -0.29567918, -900539.6, 37391.836, 0.0, 9.999754, 9.999965 
2.05504e+3, 2.1429095e+2, -897569.94, -843027.1, -37581.203, -0.03151673, -0.25626364, -823865.0, 16059.116, 0.0, 9.999449, 10.000149 
2.0550591e+3, 2.2429115e+2, -853699.44, -887315.75, -50214.758, -0.011571695, -0.19947562, -817554.44, -75630.98, 0.0, 9.9995575, 9.999135 
2.0550767e+3, 2.3429042e+2, -612317.9, -708251.9, -25018.87, -0.1469778, -0.22834408, -606185.2, 37747.78, 0.0, 10.000507, 9.999218 
2.0550947e+3, 2.4429002e+2, -495501.03, -573412.6, -86613.87, -0.18143581, -0.19851282, -439485.7, 106451.64, 0.0, 10.000501, 9.999489 
2.055113e+3, 2.542901e+2, -503788.9, -500393.25, -73643.16, -0.061573744, -0.19114153, -428428.34, 19506.441, 0.0, 9.999694, 9.999685 
2.0551316e+3, 2.6428944e+2, -485512.4, -583700.2, -50761.05, 0.00039413886, -0.16780195, -463988.34, -114047.914, 0.00000017468948, 9.999724, 9.998437 
2.0551501e+3, 2.742875e+2, -161462.95, -374192.53, -54656.99, 0.020650435, -0.249449, -148241.56, 103717.15, 0.0000023499456, 10.001275, 9.998445 
2.0551677e+3, 2.842857e+2, -79110.375, -386114.6, -103002.17, -0.042259432, -0.22511254, -47754.855, 106222.7, 0.000012296112, 10.001594, 9.997555 
2.0551844e+3, 2.9428405e+2, -56821.67, -277591.53, -68753.81, -0.14728548, -0.22229312, -37160.766, 18836.553, 0.000044415407, 10.000894, 9.997941 
2.0552075e+3, 3.0428335e+2, 27985.654, -164042.23, 96861.85, 0.13011463, -0.109377585, 68356.81, 68356.81, 0.00011238554, 10.000937, 9.998379 
2.0552288e+3, 3.1427988e+2, 239426.1, -69595.71, -92054.31, 0.033037543, -0.37945324, 264769.63, 264769.63, 0.00022337346, 10.002394, 9.998296 
2.0648724e+3, 1.24263436e+2, -1897909.0, -1741650.6, 114102.61, 0.15647878, -0.45340934, -1681491.8, 40697.313, 0.36771804, 9.998291, 10.000736 
2.0648852e+3, 1.3426973e+2, -1498259.9, -1455777.5, -33151.273, -0.21064888, 0.012827558, -1437646.3, 186484.47, 0.26616043, 10.000485, 10.001232 
2.0649084e+3, 1.4426565e+2, -1657548.9, -1582221.0, 54301.496, 0.081166096, -0.45604128, -1553800.0, -27627.336, 0.1618756, 9.998947, 10.000055 
2.0649263e+3, 1.5426843e+2, -1611102.8, -1426549.1, 33959.707, -0.19930197, -0.2817052, -1420498.6, 7647.7817, 0.07651462, 9.99828, 10.000753 
2.0649453e+3, 1.6427034e+2, -1512710.1, -1322526.1, 7368.6763, -0.24679835, -0.17229229, -1322241.0, 7886.19, 0.024829434, 9.998257, 10.000808 
2.0649669e+3, 1.742711e+2, -1331044.4, -1168537.8, -26728.738, -0.0046102204, -0.21809964, -1164254.4, 67862.74, 0.0041003036, 9.998806, 10.000904 
2.0649858e+3, 1.8427101e+2, -1312392.3, -1249543.3, -84078.58, 0.052212104, -0.2557562, -1191208.6, -57092.17, 0.000108260756, 9.998832, 9.999681 
2.0650013e+3, 1.9426982e+2, -1199884.5, -1123557.3, -78247.87, -0.17267339, -0.38977703, -1074662.3, -38534.42, 0.0, 9.998862, 9.9998455 
2.0650189e+3, 2.0426977e+2, -1068853.1, -1021121.56, -4887.0815, -0.20304312, -0.37516937, -1020626.3, -82496.766, 0.0, 9.999115, 9.999773 
2.06504e+3, 2.1427108e+2, -853339.7, -846868.1, -28662.307, -0.005365063, -0.2642354, -821259.5, 18859.604, 0.0, 9.999873, 9.999913 
2.0650594e+3, 2.2427166e+2, -775237.44, -815386.25, -22137.137, 0.04443949, -0.17194335, -765428.2, -23312.889, 0.0, 9.999942, 9.999445 
2.0650767e+3, 2.3427114e+2, -791494.2, -751705.8, -13349.185, -0.1102112, -0.21481737, -747642.1, -103521.34, 0.0, 9.9991045, 9.999586 
2.065095e+3, 2.4427074e+2, -682927.8, -702992.1, -46541.04, -0.13559504, -0.19092289, -645350.0, -99224.84, 0.0, 9.999382, 9.999136 
2.0651138e+3, 2.5427026e+2, -317443.9, -453827.5, -100568.6, -0.0157723, -0.19977325, -264127.8, 184002.27, 0.0, 10.001156, 9.999297 
2.0651329e+3, 2.6426914e+2, -176016.33, -449333.44, -60118.53, 0.050422654, -0.1942803, -163377.2, 186763.47, 0.00000012472299, 10.001897, 9.998325 
2.0651516e+3, 2.7426717e+2, -153108.61, -370203.25, -63978.34, 0.040056575, -0.26751342, -135656.92, 116501.516, 0.0000018192295, 10.001342, 9.998436 
2.0651694e+3, 2.842658e+2, -142476.16, -407976.47, -88323.17, 0.010104746, -0.21071862, -115778.555, 38394.74, 0.000008845643, 10.001111, 9.997649 
2.065186e+3, 2.942646e+2, -19695.656, -256598.22, -114678.445, -0.06535925, -0.15828413, 26722.258, 82911.32, 0.000033872344, 10.001149, 9.997963 
2.065208e+3, 3.0426314e+2, 186229.53, 22216.229, 133733.14, 0.09222224, -0.17036998, 261097.48, 261097.48, 0.00009226449, 10.001474, 9.999445 
2.0652322e+3, 3.1426087e+2, 196412.3, -38519.79, -197780.8, 0.19238633, -0.42595226, 308979.97, 308979.97, 0.00019361054, 10.001818, 9.998824 
2.0748702e+3, 1.2424648e+2, -1904359.4, -1790395.9, -69262.1, 0.008785499, -0.2930565, -1757688.4, -35331.277, 0.38886976, 9.99849, 10.000171 
2.0748837e+3, 1.3424931e+2, -1561910.1, -1615881.4, -41941.64, -0.4373648, -0.05700409, -1539022.6, 85312.02, 0.28190908, 10.000642, 9.9997015 
2.074906e+3, 1.4424689e+2, -1586400.5, -1474818.5, -25747.168, -0.113845855, -0.30929667, -1469164.0, 57194.98, 0.17213808, 9.999075, 10.000812 
2.0749256e+3, 1.5424834e+2, -1535217.8, -1285817.3, 21837.424, -0.12554379, -0.3663186, -1283919.6, 144419.81, 0.08207624, 9.998307, 10.001787 
2.0749451e+3, 1.6425027e+2, -1541764.5, -1410700.0, 15897.708, -0.14409433, -0.27782354, -1408799.3, -78480.41, 0.027111659, 9.998376, 10.000144 
2.0749643e+3, 1.7425151e+2, -1390171.0, -1291498.8, 81.92387, -0.17200783, -0.19330719, -1291498.6, -59188.383, 0.0046569863, 9.998816, 10.00005 
2.0749831e+3, 1.8425177e+2, -1264535.5, -1168050.3, -98736.51, -0.16041523, -0.17524593, -1106400.9, 27907.578, 0.00014131474, 9.998909, 10.000204 
2.0750012e+3, 1.942512e+2, -1167141.4, -1037854.0, -69193.625, -0.07531349, -0.31152126, -1007805.75, 28505.246, 0.0000000002137382, 9.998785, 10.000471 
2.0750201e+3, 2.0425114e+2, -1113328.4, -1081346.8, 4599.4204, -0.03957835, -0.31320545, -1080698.5, -142387.45, 0.0, 9.998968, 9.999433 
2.0750396e+3, 2.1425167e+2, -910481.94, -920333.0, 13320.659, -0.049610995, -0.24344236, -901205.4, -60895.93, 0.0, 9.999675, 9.999504 
2.0750585e+3, 2.2425185e+2, -795510.25, -777469.9, -58417.375, -0.06349809, -0.1895155, -727380.4, 14927.944, 0.0, 9.999613, 9.999856 
2.0750767e+3, 2.3425151e+2, -797630.94, -700618.44, -31325.453, -0.05712281, -0.26155585, -691382.7, -47074.195, 0.0, 9.998847, 10.000054 
2.0750955e+3, 2.4425068e+2, -794352.75, -851175.0, 882.12054, -0.044478163, -0.26663888, -794339.06, -248022.25, 0.0, 9.999029, 9.998285 
2.0751154e+3, 2.54249e+2, -421398.88, -611169.94, -19692.771, -0.000040279316, -0.3009242, -419376.88, 28960.887, 0.0, 10.00091, 9.998332 
2.0751345e+3, 2.642476e+2, -222678.97, -452016.63, -92271.92, -0.0057498477, -0.27812558, -190164.08, 160189.22, 0.000000021824269, 10.001504, 9.998493 
2.0751524e+3, 2.742467e+2, -169823.11, -338765.4, -68263.46, -0.036027554, -0.2769671, -145688.2, 106672.11, 0.00000084431264, 10.00107, 9.998781 
2.0751709e+3, 2.842462e+2, -206618.53, -441794.97, -108638.12, 0.0009671707, -0.14949279, -164115.44, -9749.404, 0.000005133315, 10.000702, 9.997604 
2.0751892e+3, 2.942454e+2, -79820.2, -323611.66, -91188.49, 0.11771648, -0.050844073, -49486.14, 6892.262, 0.000023723636, 10.000883, 9.997634 
2.0752083e+3, 3.042412e+2, 146559.88, 109710.984, 122613.37, -0.07341774, -0.35389245, 252125.34, 252125.34, 0.00007269807, 10.000809, 10.000335 
2.0752321e+3, 3.1424382e+2, 187981.22, 195366.86, -119528.72, -0.057207596, -0.25567946, 311259.78, 311259.78, 0.00016065389, 10.00084, 10.000854 
2.0848688e+3, 1.24227345e+2, -1950593.5, -1887360.6, -94781.96, 0.041303795, -0.23138441, -1819061.0, -96516.984, 0.40993002, 9.998525, 9.999474 
2.084883e+3, 1.3422921e+2, -1861812.3, -1734334.5, -44215.563, -0.4485528, -0.13113412, -1720499.8, -95968.42, 0.29801235, 9.998278, 9.999971 
2.084905e+3, 1.442284e+2, -1616894.9, -1507793.6, 42848.094, -0.11583565, -0.23398554, -1492977.6, 33562.41, 0.18298064, 9.998999, 10.000576 
2.084925e+3, 1.5422866e+2, -1392622.6, -1274747.6, -29962.021, -0.0689119, -0.36321202, -1267568.9, 160963.69, 0.088167645, 9.999559, 10.001274 
2.0849448e+3, 1.6423012e+2, -1418174.6, -1378982.0, -59015.652, -0.03739841, -0.28019053, -1336394.1, -5876.995, 0.029713616, 9.999335, 9.999915 
2.0849633e+3, 1.7423111e+2, -1390222.4, -1309846.6, -56932.22, -0.13779078, -0.20348226, -1280347.0, -47835.492, 0.005333032, 9.9988785, 9.999911 
2.084982e+3, 1.8423137e+2, -1278585.3, -1177136.4, -105684.12, -0.14279963, -0.17801818, -1110634.1, 23876.113, 0.00018960002, 9.998823, 10.000195 
2.085001e+3, 1.9423124e+2, -1025979.2, -974456.06, -145957.58, -0.034498077, -0.26153764, -852004.0, 184504.63, 0.000000020895914, 9.999785, 10.000424 
2.08502e+3, 2.0423132e+2, -943773.75, -982815.44, -70071.984, 0.014069467, -0.25264603, -890554.4, 47953.11, 0.0, 10.000099, 9.999549 
2.0850393e+3, 2.1423142e+2, -873219.75, -885032.4, -52605.082, -0.03978267, -0.23698924, -826190.44, 14318.698, 0.0, 9.999874, 9.999639 
2.0850584e+3, 2.2423147e+2, -752189.5, -738788.0, -104904.625, -0.04262623, -0.2127105, -640370.3, 102138.164, 0.0, 9.999812, 10.00004 
2.0850764e+3, 2.3423137e+2, -612170.9, -590030.2, -127200.87, -0.00063923374, -0.27749953, -473418.88, 171086.13, 0.0, 10.000006, 10.000268 
2.0850956e+3, 2.4423073e+2, -655723.7, -777778.94, -9613.312, 0.040011235, -0.27925718, -654971.2, -108460.39, 0.0, 9.999945, 9.998349 
2.0851162e+3, 2.542291e+2, -604946.3, -699441.5, 18551.81, 0.05553093, -0.30563968, -601434.6, -152903.38, 0.0, 9.9996395, 9.9983425 
2.0851354e+3, 2.642279e+2, -454145.78, -545475.7, -6135.033, 0.049384072, -0.2719869, -453735.5, -103190.13, 0.0, 9.999841, 9.99865 
2.0851536e+3, 2.742272e+2, -212111.9, -342559.2, -28885.145, -0.0029241561, -0.26460403, -206002.0, 46548.97, 0.000000115745564, 10.000715, 9.99892 
2.0851725e+3, 2.8422642e+2, -56680.664, -356642.03, -32408.418, 0.07928334, -0.18328835, -53219.14, 101339.81, 0.0000020138657, 10.001641, 9.9977455 
2.0851924e+3, 2.9422504e+2, 164849.69, -179010.52, -36935.664, 0.27439117, -0.14906463, 168772.38, 225346.11, 0.000014504671, 10.00245, 9.997872 
2.0852098e+3, 3.0422235e+2, 329104.3, 164665.13, 163015.83, -0.04631415, -0.30972952, 429461.34, 429461.34, 0.00005340342, 10.002137, 10.000099 
2.0852336e+3, 3.1422412e+2, 42864.59, 5227.099, -229647.72, 0.053564787, -0.24265714, 254463.33, 254463.33, 0.0001257325, 10.000221, 9.999896 
2.0948677e+3, 1.2420355e+2, -2000402.6, -2024176.3, 100688.62, -0.035733394, -0.5142091, -1910901.6, -188127.38, 0.42994058, 9.998652, 9.99849 
2.0948826e+3, 1.3420922e+2, -1699572.6, -1471039.9, -10393.015, -0.3755807, -0.22246617, -1470568.1, 154154.44, 0.31401625, 9.998301, 10.002254 
2.0949045e+3, 1.4421013e+2, -1681963.5, -1676838.9, 59254.113, -0.12264819, -0.22536656, -1620091.8, -93375.55, 0.19429262, 9.999154, 9.999302 
2.0949239e+3, 1.5420942e+2, -1526289.6, -1561917.0, -8454.473, -0.18084176, -0.25515473, -1524385.1, -95659.445, 0.094824284, 9.999632, 9.999167 
2.0949438e+3, 1.6420983e+2, -1381443.4, -1341220.5, -97657.49, -0.11226544, -0.16777608, -1261625.1, 69097.695, 0.032688897, 9.999497, 10.000107 
2.0949636e+3, 1.742099e+2, -1345066.5, -1224788.8, -67555.1, -0.02634419, -0.23497613, -1194482.1, 38238.645, 0.0061590113, 9.998911, 10.000482 
2.0949821e+3, 1.8420982e+2, -1303953.6, -1250967.3, -88813.62, -0.06213424, -0.25161928, -1184779.5, -50058.098, 0.00026052183, 9.998911, 9.999646 
2.0949996e+3, 1.9421008e+2, -1084401.4, -1083815.5, -101963.83, -0.18271509, -0.22696848, -982144.1, 54575.938, 0.00000016154512, 9.999734, 9.999698 
2.0950183e+3, 2.0421033e+2, -937897.5, -932485.0, -89934.52, -0.20582423, -0.18357006, -845216.0, 93502.54, 0.0, 9.999935, 9.99997 
2.0950389e+3, 2.142103e+2, -871550.0, -824910.0, -50167.043, -0.098577194, -0.233348, -792907.75, 47811.266, 0.0, 9.99964, 10.000156 
2.0950584e+3, 2.242104e+2, -799920.75, -764393.8, -110302.164, -0.05798929, -0.23020522, -670433.94, 72282.7, 0.0, 9.999496, 10.000014 
2.095076e+3, 2.3421067e+2, -652397.44, -616516.8, -105189.22, -0.078855135, -0.2558527, -527749.0, 116961.68, 0.0, 9.999761, 10.000203 
2.0950949e+3, 2.4421076e+2, -645043.1, -674328.44, -32995.766, -0.062986754, -0.22066596, -623586.94, -76878.93, 0.0, 9.999597, 9.999226 
2.0951158e+3, 2.542105e+2, -567561.44, -574210.0, 20584.373, 0.02273585, -0.21119632, -550034.7, -101323.08, 0.0, 9.999432, 9.999303 
2.0951355e+3, 2.642098e+2, -499428.9, -562470.0, 7559.497, 0.028361287, -0.18199973, -498535.1, -147816.02, 0.0, 9.99952, 9.998682 
2.0951542e+3, 2.7420834e+2, -260351.64, -381326.7, 19637.82, -0.012797093, -0.24697769, -257243.69, -4509.882, 0.0, 10.000453, 9.998777 
2.0951745e+3, 2.8420615e+2, -113560.76, -356011.06, -20083.754, 0.064960256, -0.30216673, -111908.35, 42845.39, 0.00000039293647, 10.001145, 9.997987 
2.0951948e+3, 2.942036e+2, 157316.36, -111091.47, 18385.186, 0.24389796, -0.42646214, 158569.84, 215344.16, 0.000007667558, 10.002097, 9.998509 
2.0952114e+3, 3.0420506e+2, 110866.21, -104609.65, 75394.65, -0.13217646, -0.15503672, 134626.63, 134626.63, 0.000037309022, 10.001407, 9.998575 
2.0952366e+3, 3.1420135e+2, -306568.72, -487169.16, -82863.87, 0.25287822, -0.44121128, -274310.6, -274310.6, 0.00009614077, 9.999318, 9.996907 
2.1048667e+3, 1.2418373e+2, -2006835.9, -2112760.8, 162057.1, -0.003412377, -0.28572354, -1889306.4, -166339.73, 0.44859928, 9.998975, 9.997715 
2.1048822e+3, 1.341876e+2, -1585386.5, -1346780.9, -88756.71, -0.26602185, -0.31558353, -1317386.3, 307544.6, 0.3298663, 9.998649, 10.003407 
2.1049044e+3, 1.4418963e+2, -1718826.5, -1730299.0, -43449.797, -0.043384477, -0.24806975, -1680735.9, -153821.64, 0.20615475, 9.999068, 9.998968 
2.1049233e+3, 1.541894e+2, -1553175.9, -1603051.0, -30162.14, -0.17377926, -0.20271917, -1538977.4, -110054.32, 0.10215144, 9.999601, 9.998882 
2.1049431e+3, 1.6418946e+2, -1379294.0, -1336119.5, -46222.55, -0.13442919, -0.1361285, -1306691.8, 24233.217, 0.036114734, 9.9995, 10.000118 
2.104963e+3, 1.741894e+2, -1264463.1, -1177672.1, -73755.45, 0.021618871, -0.22518072, -1135492.9, 97429.625, 0.007176738, 9.999424, 10.000549 
2.104982e+3, 1.841894e+2, -1275419.3, -1244544.8, -57133.887, 0.03613368, -0.23612657, -1200799.4, -65877.74, 0.0003661867, 9.99914, 9.999578 
2.104999e+3, 1.9418931e+2, -1200883.4, -1147409.3, -47746.215, -0.14986031, -0.23592982, -1119423.6, -82499.61, 0.00000091193453, 9.998978, 9.99962 
2.1050176e+3, 2.0418948e+2, -1071300.0, -988041.1, -7899.9756, -0.20043582, -0.2023193, -987298.2, -48375.13, 0.0, 9.998938, 10.000092 
2.105038e+3, 2.1418971e+2, -921720.06, -843326.3, -21967.986, -0.10320655, -0.23789544, -837590.06, 3329.9434, 0.0, 9.99922, 10.000264 
2.1050578e+3, 2.2418995e+2, -808590.94, -797454.25, -64960.41, -0.03470388, -0.21266103, -737823.94, 5092.6904, 0.0, 9.999582, 9.999731 
2.1050765e+3, 2.3419003e+2, -581219.8, -616517.06, -110355.195, -0.034711316, -0.22183272, -487110.94, 157803.56, 0.0, 10.000413, 9.999874 
2.1050954e+3, 2.4418995e+2, -467628.38, -559991.8, -81414.016, -0.0040119314, -0.2006516, -420209.9, 126704.2, 0.0, 10.000667, 9.999512 
2.1051152e+3, 2.541895e+2, -461162.9, -485364.88, -102093.36, 0.023259275, -0.23803593, -370455.88, 78461.08, 0.0, 9.999993, 9.99965 
2.1051353e+3, 2.6418912e+2, -436770.88, -489669.38, -63251.35, 0.043494623, -0.21292415, -394661.44, -43741.453, 0.0, 9.999751, 9.999082 
2.1051553e+3, 2.7418852e+2, -279906.94, -350925.94, -45239.574, 0.061469782, -0.2248322, -257905.2, -4978.682, 0.0, 10.000137, 9.999146 
2.105176e+3, 2.8418666e+2, -151380.63, -317690.6, -19486.068, 0.15652086, -0.28441072, -149128.0, 5814.358, 0.00000006547354, 10.000681, 9.99845 
2.1051966e+3, 2.9418355e+2, 79159.15, -108016.77, -36346.125, 0.25509825, -0.50031435, 85969.13, 142936.42, 0.000004738257, 10.001423, 9.998839 
2.1052143e+3, 3.0418512e+2, 151488.8, -220414.28, 4495.2876, -0.0033339963, -0.17534423, 151543.13, 151543.13, 0.00002905632, 10.002238, 9.997386 
2.1052383e+3, 3.1418028e+2, 253435.2, -171328.5, -150841.53, 0.31505397, -0.44277275, 301551.38, 301551.38, 0.00007991688, 10.002935, 9.997342 
2.1148635e+3, 1.241635e+2, -2075572.0, -2285840.8, -20934.285, -0.3110756, -0.016181394, -2073508.1, -350343.72, 0.46656317, 9.999106, 9.996459 
2.1148807e+3, 1.341644e+2, -1573591.8, -1345140.4, -79802.38, -0.31565958, -0.40488455, -1320025.0, 305130.84, 0.34608045, 9.998769, 10.003431 
2.1149036e+3, 1.441665e+2, -1654186.8, -1647963.3, -24258.06, -0.08030353, -0.33339638, -1626618.3, -99480.55, 0.21890919, 9.999281, 9.9994335 
2.1149233e+3, 1.5416843e+2, -1423657.9, -1370794.0, -6220.507, -0.18680315, -0.21296166, -1370072.0, 59053.566, 0.110347085, 9.99973, 10.000462 
2.1149416e+3, 1.6416882e+2, -1363348.5, -1338875.4, -66503.234, -0.2761831, -0.20113063, -1283492.3, 47632.844, 0.040102176, 9.999652, 10.000032 
2.1149617e+3, 1.7416957e+2, -1291747.8, -1244071.4, -68232.19, -0.12025392, -0.17016988, -1195633.1, 37483.926, 0.008443992, 9.999456, 10.000079 
2.114981e+3, 1.8416992e+2, -1242712.8, -1186832.1, -80615.06, -0.023427013, -0.13645308, -1129452.8, 5659.5664, 0.00052604213, 9.999186, 9.999949 
2.1149993e+3, 1.9416884e+2, -1179611.8, -1080595.3, -46776.09, -0.06364366, -0.28561586, -1061992.9, -24871.36, 0.0000034897541, 9.998887, 10.000116 
2.1150176e+3, 2.0416862e+2, -1115484.5, -1031580.44, -13908.117, -0.13434933, -0.3091767, -1029335.06, -90212.44, 0.0, 9.998733, 9.999891 
2.1150368e+3, 2.1416967e+2, -976325.5, -896302.5, -1981.1508, -0.18166779, -0.23789422, -896253.44, -55141.36, 0.0, 9.998982, 10.000008 
2.1150567e+3, 2.2417009e+2, -904506.6, -918495.4, -46855.08, -0.1511647, -0.1517123, -864126.75, -121017.99, 0.0, 9.999244, 9.9990635 
2.1150774e+3, 2.3416936e+2, -665979.2, -740128.0, -63901.125, 0.0052133207, -0.17047532, -629176.25, 15941.842, 0.0, 10.000184, 9.999137 
2.1150969e+3, 2.4416807e+2, -541517.2, -629992.44, -113679.99, 0.03208793, -0.21389653, -463770.75, 83359.98, 0.0, 10.000316, 9.999192 
2.1151145e+3, 2.5416604e+2, -512383.4, -542840.0, -114046.53, -0.07254142, -0.38899717, -412552.97, 36595.24, 0.0, 9.999792, 9.999343 
2.115134e+3, 2.641658e+2, -446870.78, -423102.1, -62733.535, -0.07668977, -0.36213824, -371137.13, -19988.463, 0.0, 9.999389, 9.999705 
2.1151558e+3, 2.7416778e+2, -252644.28, -242567.84, -10536.284, 0.06787502, -0.19363609, -235927.16, 17200.914, 0.0, 9.999918, 9.99999 
2.1151768e+3, 2.8416747e+2, -192678.7, -308997.84, -9908.677, 0.11304619, -0.16416049, -191840.67, -36711.406, 0.00000005479561, 10.000273, 9.998708 
2.115197e+3, 2.9416418e+2, 26478.813, -155009.33, 19457.55, 0.1217161, -0.42710927, 28541.438, 85700.57, 0.0000044706885, 10.001132, 9.998663 
2.1152176e+3, 3.0416232e+2, -67996.92, -442256.94, 4420.3687, 0.036347613, -0.35807097, -67944.72, -67944.72, 0.000027145721, 10.00131, 9.996274 
2.1152385e+3, 3.1416097e+2, 278275.2, 139846.11, -7600.967, -0.017231872, -0.2244146, 278691.28, 278691.28, 0.00007500438, 10.001903, 9.999946 
2.1248636e+3, 1.24135725e+2, -1840075.4, -1320184.8, -4953.3174, -0.06375358, -0.78181684, -1320137.6, 403302.7, 0.48543465, 9.995295, 10.00756 
2.1248794e+3, 1.3414398e+2, -1632091.0, -1422808.9, 1002.46643, -0.27944964, -0.37352318, -1422804.1, 202551.02, 0.3637423, 9.99853, 10.002767 
2.1249038e+3, 1.4414485e+2, -1715496.3, -1651714.8, 78874.67, 0.047318723, -0.39485812, -1598527.6, -71181.17, 0.23315269, 9.998731, 9.999678 
2.1249224e+3, 1.5414733e+2, -1607075.5, -1409567.5, -10264.915, -0.17059271, -0.25900927, -1409035.5, 20292.852, 0.1197026, 9.998227, 10.000916 
2.1249405e+3, 1.6414796e+2, -1564539.8, -1427632.4, -75459.38, -0.29015198, -0.25277752, -1394203.8, -62878.473, 0.044803485, 9.99822, 10.00012 
2.1249609e+3, 1.741487e+2, -1305762.5, -1253128.3, -66616.086, -0.110535845, -0.21736176, -1207819.3, 25497.98, 0.01004214, 9.999373, 10.000059 
2.124981e+3, 1.8414924e+2, -1163940.8, -1166539.1, -79616.15, 0.03904512, -0.15821163, -1085613.3, 49698.348, 0.0007722133, 9.999792, 9.999795 
2.1249993e+3, 1.941484e+2, -1071898.3, -1052408.1, -120226.62, 0.036790155, -0.26385257, -941532.25, 95787.07, 0.000010944595, 9.9997015, 9.999931 
2.1250178e+3, 2.0414801e+2, -1009584.6, -990687.4, -80686.9, -0.00567311, -0.28821838, -918897.75, 20424.713, 0.0, 9.999524, 9.999779 
2.1250366e+3, 2.1414824e+2, -902422.4, -866538.6, -88174.586, -0.11772178, -0.28972048, -794499.0, 46819.758, 0.0, 9.999545, 9.999917 
2.1250564e+3, 2.2414832e+2, -845139.2, -882317.0, -61043.93, -0.094537154, -0.23802966, -799916.6, -56598.1, 0.0, 9.999605, 9.9991455 
2.1250778e+3, 2.3414803e+2, -730775.06, -758588.0, -37410.18, 0.0542644, -0.22052237, -704770.25, -59445.918, 0.0, 9.999683, 9.999255 
2.1250974e+3, 2.441471e+2, -595261.8, -667495.44, -38705.52, 0.08821505, -0.22975697, -578439.6, -31105.273, 0.0, 10.000023, 9.999065 
2.125115e+3, 2.5414512e+2, -376951.6, -497232.25, -65280.418, -0.046270106, -0.37539232, -348331.63, 101020.66, 0.0, 10.000827, 9.999157 
2.1251345e+3, 2.641446e+2, -202243.84, -316278.6, -16848.168, -0.029259916, -0.35918537, -199806.69, 151548.9, 0.0, 10.001121, 9.999601 
2.1251565e+3, 2.7414578e+2, -171219.95, -215121.33, -69098.69, 0.12323668, -0.255639, -120669.18, 132673.22, 0.0, 10.000549, 9.999869 
2.1251772e+3, 2.841458e+2, -151704.6, -268990.56, -54961.68, 0.14609866, -0.19514272, -129974.78, 25365.79, 0.000000117451826, 10.000436, 9.998926 
2.1251972e+3, 2.9414403e+2, 9238.566, -138215.78, -64565.99, 0.058651708, -0.31712756, 33513.754, 90870.86, 0.0000050467984, 10.000897, 9.9988985 
2.1252197e+3, 3.0414104e+2, 10259.581, -390153.44, 31309.996, 0.14713717, -0.38400418, 12693.054, 12693.054, 0.00002697455, 10.00167, 9.996526 
2.1252415e+3, 3.1414232e+2, 316435.28, 244176.22, -53588.195, 0.12076064, 0.0019917819, 344935.75, 344935.75, 0.00007158717, 10.001669, 10.00085 
2.1348782e+3, 1.3412674e+2, -1715942.9, -1545502.0, 23320.895, -0.29232997, -0.12342144, -1542368.6, 83156.086, 0.38411817, 9.9986105, 10.0014105 
2.1349041e+3, 1.4412458e+2, -1699146.0, -1660720.4, 24032.229, 0.13876039, -0.41259018, -1649165.0, -121623.64, 0.24951555, 9.998906, 9.999528 
2.1349199e+3, 1.5412599e+2, -1634590.0, -1489822.3, -25320.309, -0.2578769, -0.3303194, -1485521.5, -55989.273, 0.13052814, 9.998329, 10.000293 
2.1349385e+3, 1.641267e+2, -1520900.0, -1378205.5, -54839.78, -0.36377445, -0.30047247, -1359564.8, -28037.762, 0.050404422, 9.998396, 10.000373 
2.1349612e+3, 1.741267e+2, -1276594.1, -1195122.3, -16594.178, -0.07855381, -0.37562045, -1191872.0, 41652.293, 0.012084308, 9.999386, 10.000448 
2.1349815e+3, 1.841272e+2, -1204989.9, -1270155.3, -92886.375, 0.05556895, -0.30739695, -1139137.3, -3617.1526, 0.001155736, 9.999868, 9.999046 
2.1349993e+3, 1.9412804e+2, -1141094.5, -1185854.1, -114034.4, 0.024101626, -0.16140023, -1047264.6, -9747.184, 0.000030850606, 9.999653, 9.999042 
2.1350178e+3, 2.0412757e+2, -1042911.44, -1015678.4, -94513.055, -0.007924434, -0.14078331, -933806.0, 5717.4653, 0.0, 9.999336, 9.999698 
2.1350373e+3, 2.1412522e+2, -935458.5, -881123.2, -75604.89, -0.025431734, -0.3989364, -827952.94, 13589.417, 0.0, 9.999315, 9.9999275 
2.1350569e+3, 2.2412457e+2, -839106.0, -780914.56, -66566.28, -0.03572061, -0.46019387, -737363.0, 6183.587, 0.0, 9.999239, 10.00001 
2.135077e+3, 2.3412605e+2, -701263.56, -645629.75, -22570.334, -0.013222452, -0.3595472, -637624.9, 7908.3906, 0.0, 9.999464, 10.000135 
2.1350966e+3, 2.441268e+2, -651893.8, -709170.44, -23611.176, -0.021628035, -0.24321248, -643415.56, -95888.39, 0.0, 9.999702, 9.998929 
2.1351162e+3, 2.5412643e+2, -419882.03, -540332.7, -21060.43, -0.027916918, -0.21123204, -416305.88, 33226.47, 0.0, 10.0006275, 9.998953 
2.1351363e+3, 2.6412505e+2, -326125.53, -488307.22, -46706.145, 0.0030178323, -0.22479159, -313636.53, 37909.246, 0.0, 10.00077, 9.998582 
2.135157e+3, 2.7412212e+2, -283526.6, -401805.88, -74115.07, 0.09190934, -0.4237698, -247847.77, 5725.1196, 0.00000000014169585, 10.000343, 9.998687 
2.135177e+3, 2.8412116e+2, -223820.72, -302462.63, -57452.656, 0.025582993, -0.39835072, -193521.67, -37940.22, 0.000000256191, 9.99997, 9.998899 
2.135197e+3, 2.941228e+2, -9231.728, -109957.5, -11507.235, -0.096228376, -0.2062858, -7933.828, 49631.137, 0.0000052967753, 10.000604, 9.99923 
2.1352205e+3, 3.0412e+2, -26125.121, -242842.31, 32041.49, -0.0071917865, -0.34308493, -21487.068, -21487.068, 0.000025200057, 10.000801, 9.997915 
2.1352442e+3, 3.1412002e+2, 80656.77, 76811.37, -32128.635, 0.1450616, -0.21473895, 110920.19, 110920.19, 0.00006359548, 10.0004015, 10.000256 
2.1448775e+3, 1.3410485e+2, -1820197.0, -1551421.9, 37153.16, -0.1610902, -0.13153912, -1546380.6, 79358.28, 0.40760165, 9.997655, 10.001827 
2.1449035e+3, 1.441028e+2, -1650071.0, -1633881.8, -87022.19, 0.19733912, -0.43954176, -1554578.5, -26826.95, 0.26811564, 9.999241, 9.999541 
2.14492e+3, 1.5410382e+2, -1432550.1, -1418543.3, -110161.49, -0.17855535, -0.37988776, -1315162.8, 114583.23, 0.14296411, 9.999888, 10.000089 
2.1449387e+3, 1.6410461e+2, -1314283.9, -1254749.5, -106370.69, -0.22192326, -0.33528987, -1174059.5, 157680.03, 0.057087187, 9.99974, 10.000611 
2.1449608e+3, 1.7410451e+2, -1337683.9, -1187002.3, -106801.375, -0.007939783, -0.45570564, -1131642.0, 102095.16, 0.014719365, 9.998832, 10.000772 
2.144981e+3, 1.841049e+2, -1382900.4, -1338082.6, -117639.34, 0.08743249, -0.42263407, -1240736.9, -105003.375, 0.0017550356, 9.998574, 9.999205 
2.1449992e+3, 1.9410592e+2, -1094890.6, -1144416.3, -84184.445, 0.04654527, -0.27449974, -1031902.56, 5826.003, 0.00008036648, 9.999901, 9.999195 
2.1450178e+3, 2.0410573e+2, -935496.94, -994701.7, -37506.234, 0.050442804, -0.22274153, -917318.4, 22414.488, 0.000000018813253, 10.000209, 9.999421 
2.1450374e+3, 2.141037e+2, -946581.1, -925470.6, -67774.74, 0.06895506, -0.41567826, -867434.1, -25683.027, 0.0, 9.999386, 9.999599 
2.1450572e+3, 2.241031e+2, -841995.7, -779197.5, -46734.094, 0.06078433, -0.45871922, -754294.0, -10537.479, 0.0, 9.999199, 10.000049 
2.1450767e+3, 2.341042e+2, -607560.06, -589807.56, -89555.05, -0.020636404, -0.39730626, -508689.94, 137056.23, 0.0, 10.000069, 10.00023 
2.1450967e+3, 2.4410509e+2, -515854.28, -616504.6, -94089.516, -0.027303616, -0.28261822, -459476.78, 88261.36, 0.0, 10.000508, 9.999187 
2.1451174e+3, 2.5410554e+2, -441725.38, -521487.03, -81428.48, 0.04812183, -0.18967767, -390936.03, 58798.637, 0.0, 10.000342, 9.999224 
2.145138e+3, 2.6410413e+2, -373191.66, -561790.0, -48913.934, 0.103046365, -0.2037711, -361260.38, -9511.684, 0.0, 10.000644, 9.998146 
2.1451578e+3, 2.7410004e+2, -138665.08, -384753.5, -67996.91, 0.08742309, -0.46695402, -121126.73, 132661.19, 0.00000000016893417, 10.00157, 9.998214 
2.1451777e+3, 2.840987e+2, 34796.965, -199935.8, -9693.538, 0.040046114, -0.446281, 35196.59, 190996.67, 0.0000002738674, 10.001792, 9.998741 
2.1451984e+3, 2.9410058e+2, 50749.19, -73569.87, -29474.932, -0.014350988, -0.21119587, 57383.402, 115164.17, 0.0000047479944, 10.00099, 9.999286 
2.145222e+3, 3.0409834e+2, 88776.086, -72754.07, 45296.23, 0.07665608, -0.3701442, 100610.93, 100610.93, 0.000021563434, 10.000985, 9.999039 
2.1452457e+3, 3.1409788e+2, 164415.4, 45136.93, -177910.44, 0.26152867, -0.37542108, 292416.7, 292416.7, 0.000054127682, 10.001187, 9.999676 
2.1548764e+3, 1.3407831e+2, -1684778.6, -1392777.9, 97067.78, -0.13139962, -0.38225374, -1363454.9, 262542.34, 0.43279883, 9.997788, 10.00373 
2.1549009e+3, 1.4407897e+2, -1592281.8, -1596615.9, -100918.28, -0.10037469, -0.5388572, -1493507.3, 34474.723, 0.28823382, 9.999607, 9.999674 
2.1549211e+3, 1.5408076e+2, -1409904.3, -1403862.8, -80364.516, -0.0825431, -0.41373283, -1326462.3, 103508.11, 0.15688464, 10.000021, 10.000124 
2.154941e+3, 1.6408186e+2, -1280329.5, -1227844.3, -147000.5, -0.053385362, -0.35044083, -1104762.4, 227199.5, 0.06501248, 9.999947, 10.000714 
2.1549597e+3, 1.7408209e+2, -1327334.1, -1165152.6, -139228.52, -0.03605555, -0.4502027, -1085121.4, 148835.19, 0.018139776, 9.998838, 10.000917 
2.1549788e+3, 1.8408217e+2, -1296772.8, -1178331.4, -92701.87, -0.043244816, -0.50220484, -1127548.8, 8404.494, 0.0026903055, 9.998646, 10.000272 
2.1549985e+3, 1.9408205e+2, -1017321.6, -968326.6, -25342.627, -0.034248807, -0.59009016, -957576.75, 80376.32, 0.00019736934, 9.999839, 10.000432 
2.1550179e+3, 2.0408247e+2, -990651.8, -1076447.8, -76594.266, -0.013398398, -0.52301496, -945760.75, -5809.9644, 0.0000007869328, 10.000062, 9.998934 
2.1550366e+3, 2.1408354e+2, -1019327.75, -1037107.94, -89826.86, 0.032264993, -0.34165272, -937952.1, -96005.22, 0.0, 9.999208, 9.998921 
2.1550559e+3, 2.2408368e+2, -946236.1, -924436.4, -32128.027, 0.0055944966, -0.23374408, -901409.56, -157459.69, 0.0, 9.998889, 9.999199 
2.1550761e+3, 2.3408234e+2, -697100.2, -725998.4, -41936.773, -0.10362146, -0.33737582, -667193.1, -21228.98, 0.0, 9.99985, 9.999399 
2.1550967e+3, 2.4408187e+2, -530639.94, -558841.5, -108262.0, -0.1071593, -0.34212506, -435564.3, 112403.87, 0.0, 10.000143, 9.999752 
2.1551181e+3, 2.540824e+2, -423248.72, -437139.7, -74031.18, 0.06118004, -0.31007168, -355837.94, 94122.055, 0.0, 10.000142, 9.9999 
2.1551387e+3, 2.640816e+2, -422546.34, -579478.0, -25696.447, 0.08212548, -0.302686, -418445.88, -66479.69, 0.0, 10.000288, 9.998192 
2.1551585e+3, 2.7407897e+2, -173304.47, -401326.9, -15976.223, -0.03279133, -0.42258647, -172190.55, 81801.79, 0.0, 10.001325, 9.998221 
2.1551792e+3, 2.8407758e+2, -69342.06, -289298.34, -47359.7, -0.02788768, -0.39262232, -59578.26, 96427.36, 0.000000100631844, 10.001287, 9.998352 
2.1552011e+3, 2.9407728e+2, -40861.375, -173919.34, -26773.117, 0.12431136, -0.3332973, -35676.31, 22330.217, 0.0000031808167, 10.000611, 9.998776 
2.1552226e+3, 3.0407476e+2, -7462.669, -50037.543, 34486.64, -0.0027711065, -0.5124882, 11777.458, 11777.458, 0.000016664693, 10.000093, 9.999592 
2.1552451e+3, 3.14077e+2, -62858.27, -213075.72, -4130.1294, -0.009648202, -0.34748647, -62744.797, -62744.797, 0.000045618737, 10.000305, 9.998312 
2.1648762e+3, 1.3405532e+2, -1448818.3, -1351529.9, 185254.97, -0.048355635, -0.5125544, -1208639.1, 417580.16, 0.45757636, 10.000782, 10.00294 
2.1648991e+3, 1.4405648e+2, -1714359.1, -1552944.0, -25497.693, -0.15596883, -0.5782084, -1549012.0, -20812.453, 0.3088363, 9.99831, 10.00056 
2.1649207e+3, 1.5405914e+2, -1569253.8, -1397783.4, 28992.934, -0.038056668, -0.46188164, -1393013.8, 37164.957, 0.17204043, 9.998511, 10.000864 
2.164941e+3, 1.6406083e+2, -1516047.6, -1347298.0, -22947.207, 0.05784308, -0.3746957, -1344233.3, -12068.332, 0.07433442, 9.998298, 10.000636 
2.164959e+3, 1.7406139e+2, -1320539.1, -1171815.8, -38967.043, 0.009189948, -0.4375928, -1162224.5, 71933.65, 0.022589553, 9.998882, 10.000868 
2.1649778e+3, 1.8406166e+2, -1192052.1, -1083099.6, 37175.297, -0.009591432, -0.48421708, -1071623.9, 64529.29, 0.00413868, 9.999207, 10.000648 
2.1649985e+3, 1.9406147e+2, -1022233.0, -934009.06, 11788.8545, 0.00067137234, -0.6099286, -932460.94, 105690.67, 0.00045452762, 9.999662, 10.00076 
2.1650183e+3, 2.0406191e+2, -1005085.0, -1105338.4, -78193.375, 0.025258776, -0.55254847, -962330.6, -22181.639, 0.000007502901, 10.000029, 9.998759 
2.1650364e+3, 2.1406311e+2, -830452.06, -970381.4, -86478.42, 0.009733341, -0.33387303, -789180.2, 52965.395, 0.0, 10.000606, 9.99871 
2.1650554e+3, 2.240632e+2, -695445.1, -838516.25, 46944.32, -0.008956722, -0.20334677, -681417.25, 62732.836, 0.0, 10.000779, 9.998868 
2.1650767e+3, 2.3406146e+2, -614587.56, -728965.5, 48876.72, -0.05703873, -0.3123782, -596546.8, 49621.38, 0.0, 10.000599, 9.999017 
2.1650976e+3, 2.4406044e+2, -493463.25, -567300.44, -16825.352, -0.01829359, -0.33948302, -489810.0, 58367.844, 0.0, 10.000495, 9.999528 
2.1651186e+3, 2.5406033e+2, -379888.97, -424272.53, -73743.51, 0.08894851, -0.35514015, -325070.5, 125106.28, 0.0, 10.000507, 9.999792 
2.1651389e+3, 2.6405984e+2, -366082.34, -515778.16, -11529.165, 0.09079014, -0.3280139, -365199.6, -13019.736, 0.0, 10.0005045, 9.998531 
2.1651591e+3, 2.740584e+2, -268353.63, -404947.78, 285.62222, -0.03175591, -0.35895112, -268353.03, -14159.638, 0.0, 10.000491, 9.998596 
2.1651806e+3, 2.8405678e+2, -161746.88, -370450.03, -1624.9867, 0.030542064, -0.36140975, -161734.23, -5525.7036, 0.0000000029805467, 10.000787, 9.998046 
2.165203e+3, 2.9405487e+2, 41116.15, -175308.84, -22361.738, 0.21663044, -0.4138635, 43402.48, 101628.6, 0.000001345268, 10.001359, 9.998402 
2.1652244e+3, 3.040544e+2, 218200.48, 88252.44, 71149.23, 0.117210254, -0.39002302, 249579.13, 249579.13, 0.000010778314, 10.001508, 9.999861 
2.1652456e+3, 3.1405428e+2, 64983.133, -201691.05, -62479.56, -0.0241635, -0.4636554, 78895.74, 78895.74, 0.00003608632, 10.001426, 9.997841 
2.1748781e+3, 1.340376e+2, -1572402.0, -1628961.9, -4157.3047, -0.026350139, -0.330206, -1572098.0, 54289.64, 0.48078975, 10.001242, 9.999087 
2.1748982e+3, 1.4403632e+2, -1600666.3, -1430851.9, -6232.885, -0.17022523, -0.5346838, -1430623.5, 97771.766, 0.32934, 9.998612, 10.0015745 
2.1749182e+3, 1.540392e+2, -1486885.1, -1268246.0, 31033.496, -0.17104481, -0.50768805, -1263926.5, 166442.61, 0.18832743, 9.998556, 10.001937 
2.1749382e+3, 1.6404131e+2, -1509136.9, -1376328.1, -18522.285, -0.10358467, -0.4155484, -1373793.3, -41442.645, 0.0852701, 9.998473, 10.000352 
2.174958e+3, 1.740425e+2, -1314244.5, -1175733.3, -4744.972, -0.014103878, -0.4070271, -1175571.0, 58769.766, 0.028395085, 9.99895, 10.000803 
2.1749778e+3, 1.8404344e+2, -1221097.4, -1162261.0, 39085.39, 0.01342683, -0.3625766, -1142759.9, -6427.5776, 0.006367479, 9.999291, 10.000057 
2.1749988e+3, 1.9404402e+2, -1081889.3, -1042693.7, 36179.438, 0.019776033, -0.34416637, -1021145.06, 17181.28, 0.0009868387, 9.999603, 10.000034 
2.1750183e+3, 2.0404376e+2, -1021591.94, -1104312.5, -69437.26, -0.024949845, -0.3177686, -982130.2, -41799.996, 0.000047582707, 9.999867, 9.998849 
2.1750359e+3, 2.140423e+2, -843929.5, -946923.4, -55428.28, -0.122773595, -0.39115587, -819767.8, 22580.363, 0.00000000032497088, 10.000383, 9.998978 
2.1750551e+3, 2.2404143e+2, -745989.5, -856469.06, 31705.117, -0.1429082, -0.37444624, -737537.44, 6821.7393, 0.0, 10.000412, 9.9989195 
2.175078e+3, 2.3404112e+2, -650499.8, -742820.3, 55105.438, -0.01371669, -0.34342337, -624775.56, 21587.107, 0.0, 10.000348, 9.999036 
2.1750991e+3, 2.4404034e+2, -628060.25, -743368.2, -29643.99, 0.03974009, -0.30361876, -620885.6, -72513.86, 0.0, 10.000065, 9.998517 
2.1751185e+3, 2.5403893e+2, -491256.38, -597631.9, -59974.633, 0.006590709, -0.34393308, -464282.47, -13894.303, 0.0, 10.000263, 9.998715 
2.1751384e+3, 2.6403844e+2, -387915.88, -462353.8, -25016.074, -0.04626374, -0.28568053, -380290.06, -27896.838, 0.0, 10.000103, 9.999082 
2.1751596e+3, 2.7403826e+2, -257538.98, -321515.78, 17808.605, -0.056300424, -0.2668513, -252915.84, 1476.1495, 0.0, 10.000247, 9.999278 
2.1751814e+3, 2.8403607e+2, -254475.31, -452354.84, 4193.5117, -0.019921472, -0.34308672, -254386.48, -97974.625, 0.0, 10.000335, 9.99769 
2.1752031e+3, 2.9403284e+2, -41976.617, -277944.6, 16403.367, 0.06629448, -0.4969792, -40841.79, 17602.563, 0.00000028754212, 10.001062, 9.997833 
2.1752264e+3, 3.0403557e+2, 72962.38, -36079.68, 35129.84, 0.12296954, -0.08321024, 83300.03, 83300.03, 0.0000061263827, 10.000809, 9.999308 
2.1752481e+3, 3.1403247e+2, -61602.664, -228265.22, 63714.496, 0.00070156786, -0.44568512, -40035.715, -40035.715, 0.000027574106, 10.000454, 9.998102 
2.184898e+3, 1.4401844e+2, -1850218.4, -1646766.1, -63442.15, 0.033369433, -0.45092577, -1628604.4, -100033.984, 0.34983045, 9.997441, 10.000317 
2.1849172e+3, 1.5401915e+2, -1437074.8, -1269401.9, 6980.458, -0.1401797, -0.5825661, -1269111.9, 161452.61, 0.2059314, 9.998947, 10.001794 
2.184937e+3, 1.6402185e+2, -1542484.5, -1404132.4, -34959.9, -0.05425754, -0.42224398, -1395800.3, -63261.418, 0.09816949, 9.99832, 10.000231 
2.1849573e+3, 1.7402244e+2, -1330566.4, -1203273.1, -42137.723, 0.030840244, -0.45099682, -1190588.4, 43945.973, 0.036017943, 9.998984, 10.000578 
2.1849771e+3, 1.84023e+2, -1223967.1, -1219180.5, 8116.0635, 0.027127288, -0.4120763, -1213112.3, -76582.14, 0.009796201, 9.999458, 9.999606 
2.1849982e+3, 1.9402371e+2, -1103793.9, -1106175.0, 2443.4395, 0.02154458, -0.3367286, -1102266.4, -63742.0, 0.0020521113, 9.999634, 9.999592 
2.1850184e+3, 2.0402333e+2, -1056314.3, -1129823.5, -58781.48, 0.015633574, -0.2941758, -1023742.3, -83212.35, 0.00020967671, 9.999695, 9.998751 
2.1850364e+3, 2.1402124e+2, -882314.1, -973918.44, -99034.22, -0.079150885, -0.42279378, -819003.44, 23549.865, 0.00000086887735, 10.000164, 9.998899 
2.1850562e+3, 2.2402006e+2, -779558.56, -878348.94, -30507.373, -0.07961721, -0.4282753, -770897.0, -26330.148, 0.0, 10.000185, 9.998891 
2.1850784e+3, 2.3402014e+2, -746057.56, -782734.94, -36279.625, 0.046376504, -0.35570002, -723745.06, -77178.14, 0.0, 9.999681, 9.99908 
2.1850994e+3, 2.4401957e+2, -700282.6, -770902.25, -41691.86, 0.095228255, -0.30246645, -680957.3, -132383.34, 0.0, 9.999519, 9.9986 
2.1851182e+3, 2.54018e+2, -536138.94, -615962.06, -13546.014, -0.011730721, -0.36357635, -533902.8, -83311.14, 0.0, 9.999908, 9.9987755 
2.1851386e+3, 2.6401758e+2, -348942.72, -453930.72, 71291.12, -0.032956846, -0.3018077, -312904.0, 39692.203, 0.0, 10.000387, 9.999018 
2.1851614e+3, 2.740176e+2, -128460.734, -270505.16, 27729.676, 0.042868063, -0.2410796, -123239.32, 131354.08, 0.0, 10.001169, 9.999198 
2.1851833e+3, 2.840155e+2, -41126.305, -323553.2, 21726.568, 0.0861483, -0.32345873, -39464.695, 117148.0, 0.0, 10.00165, 9.997963 
2.185204e+3, 2.9401156e+2, 48634.625, -226830.44, 35099.438, 0.036157355, -0.5601066, 53036.61, 111687.984, 0.000000027227998, 10.0016165, 9.997939 
2.1852277e+3, 3.0401447e+2, 174013.52, -115026.266, 100052.09, 0.16282979, -0.08742667, 205267.4, 205267.4, 0.0000044959556, 10.001962, 9.9982605 
2.18525e+3, 3.1401074e+2, 293700.63, 69985.234, -56601.1, 0.08358122, -0.37489533, 307205.72, 307205.72, 0.000025056477, 10.002197, 9.999395 
2.1948975e+3, 1.4400123e+2, -1970400.6, -1915164.5, -381333.47, 0.123119935, -0.30123174, -1560450.3, -31708.813, 0.371045, 9.997567, 9.9984 
2.1949168e+3, 1.539982e+2, -1483282.9, -1369676.5, 743.6172, -0.11512739, -0.69641167, -1369671.8, 61100.86, 0.22535217, 9.999076, 10.000881 
2.1949367e+3, 1.6400245e+2, -1515311.3, -1374057.6, -57817.344, 0.024602182, -0.3746901, -1353410.1, -20680.264, 0.113554515, 9.99844, 10.000378 
2.1949565e+3, 1.7400087e+2, -1373373.0, -1285537.8, -5704.45, 0.024527526, -0.570802, -1285168.9, -50426.605, 0.046104282, 9.998968, 10.00001 
2.1949753e+3, 1.8399982e+2, -1223123.5, -1233250.5, 10730.7705, -0.14797798, -0.652529, -1216321.6, -79570.234, 0.015073848, 9.999523, 9.999482 
2.1949968e+3, 1.940006e+2, -1107300.1, -1102911.8, 13451.804, -0.12277116, -0.570057, -1091476.4, -52730.824, 0.004138987, 9.999595, 9.999634 
2.1950178e+3, 2.0400073e+2, -1109663.1, -1203651.4, -61619.945, -0.045799885, -0.4609561, -1079162.3, -138414.81, 0.00072646124, 9.999537, 9.998318 
2.1950376e+3, 2.1399972e+2, -952962.9, -1063054.6, -73094.25, -0.0048879217, -0.43138584, -916505.6, -73742.79, 0.000022642807, 9.999923, 9.998396 
2.1950574e+3, 2.23999e+2, -841548.0, -919313.5, -58227.16, -0.0077064605, -0.36298603, -810414.5, -65640.36, 0.000000000011542125, 9.999806, 9.99879 
2.1950778e+3, 2.3399843e+2, -776741.7, -799847.06, -43642.957, -0.007074208, -0.35475552, -743148.25, -96366.695, 0.0, 9.999478, 9.999058 
2.1950977e+3, 2.4399802e+2, -692536.3, -651222.2, -44627.26, -0.04915849, -0.3301126, -622702.94, -73917.38, 0.0, 9.999094, 9.999618 
2.1951175e+3, 2.5399742e+2, -491338.1, -469082.6, 11202.744, -0.10763517, -0.40990344, -464420.22, -13631.761, 0.0, 9.999684, 9.9998865 
2.195139e+3, 2.6399693e+2, -475277.0, -607367.6, 82113.69, -0.07710933, -0.37766656, -435943.75, -83151.555, 0.0, 9.999944, 9.998161 
2.1951634e+3, 2.7399614e+2, -242474.16, -432637.88, 72750.375, 0.11080477, -0.30317283, -217834.77, 36966.4, 0.0, 10.0008745, 9.998206 
2.1951857e+3, 2.839944e+2, -65421.89, -262295.34, 5947.1064, 0.12446743, -0.32820243, -65242.402, 91575.54, 0.0, 10.001195, 9.998592 
2.1952054e+3, 2.9399103e+2, 45308.113, -157626.31, 55197.93, -0.03324974, -0.58506393, 59350.24, 118197.71, 0.000000020729713, 10.001296, 9.998565 
2.1952277e+3, 3.0399048e+2, -55426.035, -408746.03, 107632.37, -0.0952673, -0.39859653, -25220.18, -25220.18, 0.0000055230016, 10.001231, 9.996561 
2.195251e+3, 3.139873e+2, 150224.63, 50318.76, -29094.49, -0.10282149, -0.48823762, 158079.88, 158079.88, 0.000029811183, 10.001105, 9.999733 
2.2048955e+3, 1.4398128e+2, -1654351.1, -1741710.1, -188128.48, 0.08262912, -0.38540998, -1504898.0, 24040.191, 0.39437363, 9.999733, 9.998573 
2.2049157e+3, 1.5397686e+2, -1604709.1, -1513511.4, -83337.086, -0.09872385, -0.764728, -1464113.8, -33129.957, 0.24751917, 9.998707, 9.999946 
2.2049367e+3, 1.6398251e+2, -1418134.5, -1350496.4, -129980.24, 0.1587652, -0.25723296, -1250007.6, 82920.44, 0.13222682, 9.999189, 10.000253 
2.2049558e+3, 1.7397982e+2, -1223707.8, -1271367.5, -80463.586, 0.021955015, -0.526222, -1163619.5, 71331.875, 0.059555795, 10.000194, 9.999567 
2.204975e+3, 1.8397796e+2, -1153146.1, -1230252.5, -69768.39, -0.1465028, -0.6484511, -1111987.5, 24980.957, 0.023171267, 10.00014, 9.999211 
2.204996e+3, 1.9397846e+2, -1120846.0, -1136413.3, -118166.5, -0.13347314, -0.56956154, -1010207.06, 28758.215, 0.008108057, 9.999619, 9.999412 
2.205017e+3, 2.039787e+2, -1104265.1, -1164576.6, -133418.31, -0.0337421, -0.4501952, -997637.06, -56671.766, 0.0021629941, 9.999411, 9.998657 
2.205038e+3, 2.1397817e+2, -919011.8, -1006693.0, -97389.68, 0.06740634, -0.41010383, -856050.06, -13076.247, 0.00023583506, 9.999962, 9.998774 
2.205058e+3, 2.2397746e+2, -791656.6, -884548.5, -47009.82, 0.0953005, -0.36208683, -772018.2, -27034.336, 0.0000019906881, 10.000095, 9.998897 
2.2050774e+3, 2.3397683e+2, -732189.75, -774701.44, -61503.87, -0.0012715579, -0.36789584, -688372.3, -41379.254, 0.0, 9.999747, 9.999118 
2.2050972e+3, 2.4397646e+2, -576480.4, -580014.4, -27720.887, -0.034762364, -0.34366518, -550470.25, -1473.5537, 0.0, 9.999805, 9.999773 
2.2051181e+3, 2.5397632e+2, -348987.38, -369056.3, -66752.125, -0.030325783, -0.3984013, -291519.72, 159474.27, 0.0, 10.000572, 10.000128 
2.2051401e+3, 2.6397562e+2, -324749.8, -548569.5, 6327.4604, 0.0118956305, -0.39249232, -324571.1, 28427.654, 0.0, 10.001019, 9.998056 
2.2051638e+3, 2.7397388e+2, -219546.0, -452205.66, 34967.906, 0.074637376, -0.39812055, -214404.08, 40613.473, 0.0, 10.00112, 9.997975 
2.2051868e+3, 2.8397247e+2, -72621.21, -278961.6, -5683.5986, 0.11528679, -0.37138665, -72464.78, 84566.6, 0.0, 10.001204, 9.99847 
2.2052078e+3, 2.9397026e+2, 84841.414, -146122.72, -76324.74, 0.08373997, -0.48571315, 107784.69, 166836.11, 0.00000007580395, 10.001615, 9.9984865 
2.20523e+3, 3.0396813e+2, 48400.703, -361124.13, 55830.97, -0.017587755, -0.46297073, 55875.758, 55875.758, 0.0000083740215, 10.001917, 9.99658 
2.2052534e+3, 3.1396556e+2, 318652.03, 189172.97, -89630.45, 0.021013938, -0.46252584, 364478.44, 364478.44, 0.000042885644, 10.001966, 10.000269 
2.2148946e+3, 1.4396258e+2, -1556884.8, -1473203.1, 245789.0, -0.08715744, -0.29373196, -1265719.0, 263402.44, 0.4221777, 9.99963, 10.0012 
2.2149141e+3, 1.539549e+2, -1706752.4, -1705735.6, -56610.832, -0.16608663, -0.7915366, -1649630.9, -218430.34, 0.27423543, 9.998645, 9.998659 
2.2149363e+3, 1.6396178e+2, -1408146.8, -1377709.4, -107612.39, 0.11729446, -0.06238015, -1284244.9, 48891.258, 0.15564767, 9.999398, 9.999941 
2.2149548e+3, 1.739593e+2, -1225345.8, -1282276.4, -46317.688, -0.1298724, -0.3075231, -1199445.6, 35715.934, 0.07778218, 10.000227, 9.999462 
2.2149758e+3, 1.839575e+2, -1185032.9, -1309979.1, -104462.734, -0.14506018, -0.39188635, -1125787.6, 11392.874, 0.035576556, 10.000193, 9.998643 
2.214996e+3, 1.9395725e+2, -1177258.1, -1224658.0, -128986.16, -0.13383469, -0.32774642, -1069812.6, -30628.346, 0.0154146915, 9.9995, 9.9988575 
2.2150162e+3, 2.0395708e+2, -1051175.3, -1016305.94, -125002.52, -0.13231473, -0.27325007, -907528.06, 33657.29, 0.005714695, 9.999241, 9.999759 
2.2150376e+3, 2.139564e+2, -858385.56, -834708.75, -64454.76, -0.003449376, -0.37308797, -781014.25, 62173.62, 0.0013616167, 9.9997635, 10.000049 
2.2150579e+3, 2.2395568e+2, -841522.25, -895565.7, -70346.67, 0.029887956, -0.40150186, -793186.0, -47991.875, 0.00013056793, 9.9997015, 9.999009 
2.2150767e+3, 2.3395509e+2, -764388.7, -785675.4, -61652.965, -0.06766016, -0.4075983, -712467.1, -65263.254, 0.0000045921656, 9.999502, 9.999163 
2.215097e+3, 2.4395473e+2, -697861.56, -716783.3, -22632.871, -0.06974695, -0.3502501, -682791.75, -133582.66, 0.000000030624218, 9.999337, 9.999047 
2.21512e+3, 2.539545e+2, -445722.88, -498379.16, -25958.373, 0.086266354, -0.33994418, -435077.94, 16132.055, 0.0, 10.000285, 9.999368 
2.2151421e+3, 2.6395327e+2, -356178.16, -507692.66, -5427.047, 0.051005103, -0.36534834, -355984.03, -2764.0632, 0.0, 10.000586, 9.998537 
2.2151627e+3, 2.739507e+2, -217792.88, -377767.13, 49702.23, -0.19429144, -0.5232952, -203608.6, 51634.285, 0.0, 10.000833, 9.998614 
2.2151853e+3, 2.839496e+2, -234231.36, -485739.6, -9868.285, -0.17900638, -0.44565907, -233844.77, -76590.875, 0.0, 10.000679, 9.997288 
2.215211e+3, 2.9394886e+2, -48188.902, -340100.22, -36945.043, 0.20842901, -0.2936309, -43585.633, 15680.82, 0.00000027397763, 10.001284, 9.9973 
2.2152334e+3, 3.0394688e+2, 71702.87, -163149.86, 43746.293, 0.07291095, -0.28140876, 79586.875, 79586.875, 0.000015050563, 10.001321, 9.9981985 
2.2152546e+3, 3.1394356e+2, 148148.17, 94215.78, 78807.91, -0.14019258, -0.53394574, 204475.8, 204475.8, 0.00007034586, 10.000917, 10.000093 
2.2248931e+3, 1.4393201e+2, -1991575.9, -1202060.9, 179623.56, 0.098506495, -0.5861263, -1163115.5, 366309.3, 0.45833316, 9.993148, 10.007389 
2.2249131e+3, 1.5393426e+2, -1554330.1, -1499516.0, -103668.39, -0.1345401, -0.61246294, -1419693.0, 11710.083, 0.30885017, 9.999127, 9.999837 
2.2249353e+3, 1.6393876e+2, -1333084.9, -1394689.3, -38651.363, 0.075134136, -0.1372574, -1314463.4, 18897.742, 0.18666483, 10.000136, 9.999439 
2.2249548e+3, 1.7393789e+2, -1258073.9, -1292104.4, -28242.172, -0.12961292, -0.21560153, -1242117.4, -6743.1445, 0.103338934, 9.999978, 9.999501 
2.2249766e+3, 1.8393686e+2, -1254691.3, -1335189.1, -44535.07, -0.028480818, -0.2346375, -1234912.3, -97525.76, 0.054786276, 9.999654, 9.998742 
2.2249968e+3, 1.939353e+2, -1045692.4, -1154769.3, -36896.617, -0.030831924, -0.30945355, -1034384.06, 5016.451, 0.028543482, 10.00035, 9.998927 
2.2250164e+3, 2.0393434e+2, -860812.9, -897913.0, -13447.111, -0.06332069, -0.35100943, -856451.56, 84955.63, 0.013685946, 10.000449, 9.999986 
2.225037e+3, 2.1393408e+2, -844956.9, -804224.3, -63382.5, -0.02307381, -0.42912558, -758016.4, 85388.54, 0.005262215, 9.999766, 10.00026 
2.2250572e+3, 2.2393376e+2, -848445.75, -899091.6, -77020.22, 0.0031028327, -0.42903978, -792692.4, -47285.793, 0.001420654, 9.999625, 9.999032 
2.2250764e+3, 2.3393348e+2, -649323.06, -726632.6, -88065.01, -0.067874864, -0.406586, -591802.8, 55610.08, 0.0002619265, 10.000255, 9.999215 
2.2250971e+3, 2.4393292e+2, -551535.56, -705404.1, -10729.5625, -0.025364101, -0.34562513, -550791.0, -1370.0762, 0.000035642544, 10.0005865, 9.998532 
2.2251214e+3, 2.5393197e+2, -412375.3, -546792.94, -16016.075, 0.15204717, -0.3514422, -410493.34, 40938.297, 0.0000011567587, 10.000745, 9.998841 
2.2251433e+3, 2.639307e+2, -298617.56, -449928.25, 18105.74, 0.1380637, -0.36317486, -296481.22, 56962.215, 0.0, 10.00084, 9.998819 
2.2251636e+3, 2.7392915e+2, -124265.48, -279176.13, 14541.144, -0.18181545, -0.45291102, -122912.35, 132543.17, 0.0, 10.001281, 9.999069 
2.2251862e+3, 2.8392822e+2, -126250.66, -449070.66, 4284.2056, -0.1704857, -0.3800409, -126193.805, 31270.713, 0.0, 10.001465, 9.997181 
2.2252126e+3, 2.9392606e+2, 14087.081, -329024.47, 25268.338, 0.2367544, -0.33162293, 15937.976, 75429.12, 0.00000073017384, 10.001801, 9.997126 
2.2252363e+3, 3.0392483e+2, 222820.95, -38054.46, 106019.766, 0.21470119, -0.27610844, 260473.06, 260473.06, 0.00002755439, 10.0021, 9.998711 
2.2252558e+3, 3.139208e+2, 291345.8, 182422.1, -67859.12, -0.14040232, -0.5982554, 323895.2, 323895.2, 0.000118261974, 10.00175, 10.00035 
2.234912e+3, 1.5391552e+2, -1369560.9, -1134958.1, -59449.35, -0.19306518, -0.1316944, -1120753.5, 310831.88, 0.35698506, 9.998883, 10.003518 
2.2349341e+3, 1.6391276e+2, -1390881.6, -1521815.3, -52026.13, -0.14944072, -0.5460419, -1372726.5, -39116.234, 0.23053116, 10.000129, 9.998566 
2.2349556e+3, 1.7391528e+2, -1265754.5, -1286168.6, -35625.402, -0.10128716, -0.27196142, -1238902.8, -3310.7007, 0.14104874, 9.999883, 9.999584 
2.234977e+3, 1.839159e+2, -1203734.3, -1222679.3, -39961.883, -0.004255348, -0.18364039, -1172137.5, -34550.0, 0.08532412, 9.999629, 9.999523 
2.2349983e+3, 1.9391249e+2, -1012514.4, -1055984.3, -3078.3958, 0.043132342, -0.5141018, -1012297.44, 27317.082, 0.05187056, 10.0002365, 9.9996605 
2.2350179e+3, 2.039106e+2, -945668.9, -1022410.75, -48078.793, -0.013830344, -0.65409213, -922526.4, 19103.453, 0.030293982, 10.000227, 9.999234 
2.2350362e+3, 2.1391103e+2, -933098.3, -937796.6, -81582.53, -0.11910993, -0.581285, -853831.1, -10204.268, 0.015773455, 9.999551, 9.999444 
2.2350554e+3, 2.2391152e+2, -912424.75, -932817.25, -69647.29, -0.17348571, -0.45213923, -852231.3, -106607.98, 0.0069356123, 9.999212, 9.99899 
2.2350761e+3, 2.339119e+2, -675626.75, -728484.0, -50377.3, -0.15026526, -0.37839216, -645166.5, 2454.7434, 0.002541045, 10.000026, 9.999304 
2.2350974e+3, 2.4391104e+2, -649485.1, -803271.0, -21068.445, -0.1086329, -0.32876873, -646651.0, -97018.805, 0.00075579167, 10.000149, 9.998062 
2.2351211e+3, 2.5390878e+2, -478324.63, -614904.25, 776.2042, 0.029019127, -0.43517512, -478320.22, -26661.736, 0.00014769337, 10.000451, 9.998508 
2.2351438e+3, 2.6390788e+2, -395068.78, -518255.84, 6699.289, 0.051282894, -0.38022533, -394705.53, -41036.27, 0.000007045108, 10.000299, 9.998594 
2.2351664e+3, 2.7390888e+2, -176108.38, -310731.63, 42364.09, -0.055556796, -0.2096262, -163886.55, 91771.555, 0.00000000065814787, 10.000959, 9.998994 
2.235189e+3, 2.839077e+2, -168639.83, -391740.7, -16786.836, -0.09701249, -0.1999472, -167383.81, -9714.909, 0.0, 10.000886, 9.9978285 
2.2352125e+3, 2.939019e+2, -29091.654, -291477.0, 55275.16, -0.005208213, -0.5974125, -17922.602, 41803.457, 0.0000012574419, 10.001296, 9.997601 
2.2352375e+3, 3.0390128e+2, -2498.5212, -295824.88, 73957.33, 0.0892056, -0.43548134, 15093.512, 15093.512, 0.000044073433, 10.001256, 9.99732 
2.2352578e+3, 3.1390014e+2, 111596.984, 106157.92, 7556.1377, -0.15962121, -0.34114128, 116908.086, 116908.086, 0.00018419352, 10.000581, 10.000352 
2.2449104e+3, 1.5388845e+2, -1527079.0, -1288127.1, -8872.941, -0.2673194, -0.55122966, -1287798.0, 144053.42, 0.42759266, 9.9980345, 10.00236 
2.2449343e+3, 1.638891e+2, -1455976.0, -1466447.8, -71928.39, -0.06957812, -0.6541897, -1389093.1, -55252.773, 0.29616648, 9.999308, 9.999349 
2.2449556e+3, 1.7389166e+2, -1259579.5, -1253900.4, -58213.72, -0.066687614, -0.4115385, -1198457.0, 37363.54, 0.19952731, 9.999824, 9.999871 
2.2449768e+3, 1.8389247e+2, -1163067.9, -1155354.1, -52748.215, 0.0068074306, -0.3360431, -1106322.0, 31491.164, 0.13536815, 9.999712, 9.999956 
2.2449982e+3, 1.9389059e+2, -1072885.5, -1037544.56, -63931.547, 0.0659374, -0.56323415, -988886.4, 50938.777, 0.09319166, 9.999589, 10.000137 
2.2450183e+3, 2.0388964e+2, -1059023.4, -1141779.3, -96268.51, 0.071269274, -0.61211634, -995616.94, -53784.695, 0.06306426, 9.999655, 9.99873 
2.2450371e+3, 2.1388972e+2, -898244.5, -995994.3, -141469.31, 0.007926575, -0.5021618, -797445.4, 46390.32, 0.0400799, 10.000086, 9.998817 
2.2450563e+3, 2.238894e+2, -746160.8, -868956.0, -87481.07, -0.026421452, -0.4091143, -700681.8, 45159.246, 0.023131557, 10.000399, 9.998876 
2.2450773e+3, 2.3388861e+2, -639968.94, -710338.56, -113730.13, -0.029171424, -0.4501378, -556105.4, 91742.31, 0.011994159, 10.000265, 9.999324 
2.2450984e+3, 2.438875e+2, -611309.75, -797482.2, -51879.066, -0.017653696, -0.41952947, -597829.2, -47969.195, 0.0054928027, 10.000403, 9.998007 
2.2451209e+3, 2.5388637e+2, -420646.25, -587073.1, -27745.021, -0.04386281, -0.4069598, -416142.75, 35733.414, 0.002050329, 10.00083, 9.998529 
2.245143e+3, 2.638858e+2, -382559.06, -536666.75, -2040.6927, -0.020388378, -0.3049935, -382532.06, -28647.43, 0.0004876709, 10.00047, 9.998399 
2.2451678e+3, 2.7388597e+2, -329028.38, -390044.44, 17517.049, 0.061146267, -0.20670651, -324357.06, -68474.66, 0.000047167257, 9.999927, 9.998959 
2.2451909e+3, 2.838847e+2, -270255.9, -381078.44, 1555.7966, 0.08553953, -0.2311245, -270234.1, -112340.46, 0.00000034188096, 9.999905, 9.998388 
2.2452137e+3, 2.9387975e+2, 127020.79, -176583.84, 27618.215, -0.044530213, -0.56889683, 129512.7, 189454.08, 0.0000013302117, 10.002138, 9.998017 
2.2452395e+3, 3.03879e+2, 190904.42, -295864.4, 49476.06, 0.0919858, -0.42879808, 195882.36, 195882.36, 0.0000584347, 10.002919, 9.996533 
2.245262e+3, 3.13878e+2, 254094.92, 211144.2, -120206.164, 0.16295017, -0.19033363, 354729.0, 354729.0, 0.00025945, 10.001286, 10.000748 
2.2549355e+3, 1.6386874e+2, -1430244.3, -1302066.0, -62666.62, -0.0006381424, -0.34669572, -1276519.6, 57522.758, 0.39765337, 9.998737, 10.000949 
2.254955e+3, 1.7386678e+2, -1238813.3, -1203708.4, -46322.44, -0.1686429, -0.64566004, -1171724.4, 64337.594, 0.29298013, 9.99976, 10.000321 
2.2549753e+3, 1.8386623e+2, -1223214.1, -1215331.3, -102556.33, -0.20150782, -0.712824, -1116640.6, 21426.064, 0.21888196, 9.999443, 9.99966 
2.2549966e+3, 1.9386907e+2, -1104613.4, -1039756.8, -68470.336, -0.11119728, -0.48649222, -996423.75, 43613.51, 0.16615056, 9.999319, 10.000251 
2.2550176e+3, 2.0387112e+2, -1131364.1, -1213417.4, -91328.06, -0.026915368, -0.24852712, -1072270.8, -130252.87, 0.12546477, 9.999328, 9.998374 
2.2550394e+3, 2.1386993e+2, -967601.2, -1085271.1, -113336.586, 0.188267, -0.22417326, -898738.4, -54704.793, 0.0914258, 9.999855, 9.99829 
2.2550598e+3, 2.2386736e+2, -850937.5, -980957.44, -97355.586, 0.23658621, -0.3021312, -798881.6, -52821.773, 0.062582165, 9.999939, 9.998326 
2.2550799e+3, 2.3386356e+2, -694220.25, -765139.25, -106109.35, 0.17442052, -0.61986583, -617802.25, 30290.795, 0.039919913, 10.000003, 9.999076 
2.2550996e+3, 2.4386221e+2, -703635.25, -816851.06, -60041.43, 0.03277519, -0.60542357, -677723.94, -127618.57, 0.023601582, 9.999697, 9.998197 
2.2551201e+3, 2.538647e+2, -450719.3, -554954.56, -4491.5825, -0.21787904, -0.27933845, -450526.13, 1559.1918, 0.012405956, 10.000453, 9.998912 
2.2551413e+3, 2.6386425e+2, -496519.5, -636831.0, -55839.637, -0.278939, -0.15156934, -477009.78, -122918.14, 0.005154125, 9.999914, 9.997967 
2.2551675e+3, 2.7386034e+2, -399653.84, -426298.84, 7075.085, 0.0046695583, -0.46240175, -397891.72, -141763.23, 0.0013586987, 9.999477, 9.998911 
2.2551917e+3, 2.8385907e+2, -385583.66, -440373.97, 28917.71, 0.11635107, -0.4871699, -373145.06, -215004.28, 0.00015517221, 9.999179, 9.998307 
2.2552158e+3, 2.9385978e+2, 64000.31, -175843.77, 133900.39, -0.06529071, -0.2580645, 123829.8, 183966.02, 0.0000026982873, 10.001653, 9.998216 
2.255241e+3, 3.0385807e+2, 41061.297, -428473.78, -23098.398, -0.12646098, -0.22160411, 42194.867, 42194.867, 0.000065484004, 10.002212, 9.995938 
2.2552644e+3, 3.1385118e+2, 118264.15, 166074.67, 27117.406, 0.21607745, -0.4783372, 178319.31, 178319.31, 0.00034262822, 10.00034, 10.0008745 
2.2649565e+3, 1.7384377e+2, -1279513.3, -1192381.1, -135261.4, 0.068674445, -0.36081806, -1093842.9, 142453.27, 0.44342524, 9.998659, 10.001495 
2.264979e+3, 1.8384856e+2, -847914.5, -1031876.6, -106031.336, 0.030083518, -0.21264042, -799527.6, 338718.7, 0.3585124, 10.002999, 9.999628 
2.264997e+3, 1.9384767e+2, -1072900.9, -1039056.7, -190679.78, 0.0098940525, -0.310757, -864549.56, 175701.34, 0.29413474, 9.999727, 10.000233 
2.2650163e+3, 2.0384657e+2, -1143593.3, -1149546.8, -97637.14, -0.05753993, -0.42359895, -1048887.5, -106627.4, 0.24160613, 9.998808, 9.999117 
2.2650361e+3, 2.1384563e+2, -795577.44, -930792.9, -52085.457, -0.143794, -0.43441907, -777840.56, 66431.484, 0.1940874, 10.00077, 9.998964 
2.2650574e+3, 2.2384402e+2, -581549.9, -875613.7, -1779.5675, -0.11601188, -0.44317165, -581539.1, 164748.52, 0.14888066, 10.002096, 9.998036 
2.2650789e+3, 2.3384167e+2, -520442.56, -746503.0, -70694.16, 0.013075458, -0.53757805, -500155.5, 148150.84, 0.108788945, 10.0016165, 9.998445 
2.2650999e+3, 2.4383985e+2, -509742.4, -728645.2, -26255.375, 0.035290156, -0.52365315, -506637.38, 43685.19, 0.07581198, 10.000982, 9.998214 
2.2651216e+3, 2.5383994e+2, -466586.94, -558643.6, -15978.126, -0.094921395, -0.45166627, -463892.5, -11568.44, 0.048806984, 10.000194, 9.999087 
2.2651428e+3, 2.6383874e+2, -450712.72, -608268.7, -16597.09, -0.13296545, -0.40778577, -448983.34, -94646.16, 0.026684597, 10.000105, 9.998112 
2.265168e+3, 2.738362e+2, -11085.474, -228077.05, 36358.426, -0.006929482, -0.5932851, -5155.4287, 251206.0, 0.010897145, 10.002017, 9.999102 
2.2651917e+3, 2.838353e+2, -73884.42, -371311.94, 60415.29, 0.11715228, -0.5555008, -62080.92, 96290.29, 0.002788968, 10.001626, 9.997633 
2.2652192e+3, 2.9383576e+2, 187130.22, -190775.66, 142229.31, 0.06836718, -0.26522395, 234677.58, 295048.0, 0.0003034348, 10.002846, 9.997546 
2.2652444e+3, 3.03833e+2, 245988.4, -273052.2, -82455.05, -0.043359354, -0.35651314, 258772.39, 258772.39, 0.000074942734, 10.003422, 9.996437 
2.2652668e+3, 3.1382656e+2, 397906.34, 192677.53, -37905.16, 0.29695648, -0.45870852, 404683.53, 404683.53, 0.00045627946, 10.002591, 10.000079 
2.2750188e+3, 2.0382099e+2, -1026039.06, -1087471.3, 30487.186, 0.24888836, -0.5904162, -1013477.6, -70967.27, 0.4526298, 9.999624, 9.999086 
2.2750372e+3, 2.1382217e+2, -667699.3, -712878.3, -29423.197, -0.15936089, -0.5716353, -653194.2, 191304.17, 0.38963944, 10.00154, 10.000563 
2.2750603e+3, 2.2382312e+2, -730095.3, -1038076.3, -203542.75, -0.089999616, -0.43319908, -628855.1, 117633.1, 0.32267725, 10.001597, 9.997184 
2.2750789e+3, 2.3382267e+2, -761116.06, -986226.94, -141185.72, -0.17136532, -0.25639015, -693110.9, -44620.426, 0.25840095, 10.0004, 9.997302 
2.2750992e+3, 2.4381891e+2, -792873.25, -1007968.2, -42734.7, -0.25019032, -0.30006424, -784693.9, -234167.86, 0.20062341, 9.999655, 9.9969015 
2.275125e+3, 2.53812e+2, -603940.2, -625673.56, -24147.643, 0.17673603, -0.96763766, -588326.8, -135733.25, 0.14660953, 9.999302, 9.999003 
2.2751465e+3, 2.6380977e+2, -734157.1, -790511.94, -1486.5745, 0.18039317, -1.0103486, -734117.94, -379502.2, 0.09444842, 9.998404, 9.997636 
2.2751692e+3, 2.7381423e+2, -95701.61, -231238.56, 95223.11, -0.119739406, -0.54975045, -46594.055, 209980.03, 0.04983968, 10.001365, 9.999359 
2.2751911e+3, 2.8381392e+2, -376850.78, -716357.7, -30898.033, -0.1456655, -0.38549682, -374061.7, -215482.11, 0.019500945, 10.00046, 9.995792 
2.2752227e+3, 2.9380795e+2, -53360.46, -488933.94, 201890.83, 0.100593776, -0.6159102, 25822.45, 86463.77, 0.004786881, 10.002042, 9.995849 
2.275248e+3, 3.038039e+2, 95205.03, -252340.89, -167708.48, -0.06790949, -0.8154965, 162933.98, 162933.98, 0.0007184054, 10.002103, 9.99716 
2.2752666e+3, 3.138052e+2, -30697.273, -261157.56, 45836.86, -0.054210357, -0.21153703, -21915.307, -21915.307, 0.0007782504, 10.000946, 9.997644 
2.285105e+3, 2.4379912e+2, 112935.72, 105304.84, -164020.8, -0.0065088947, -0.6466437, 273185.47, 823905.8, 0.45869297, 10.004615, 10.006565 
2.2851233e+3, 2.537961e+2, -1351255.4, -1401698.9, -78155.914, 0.24991208, -0.42795488, -1294352.4, -841605.0, 0.36361384, 9.9958725, 9.995478 
2.2851394e+3, 2.63796e+2, -1005634.4, -1116385.4, 19665.322, -0.38709545, 0.019004239, -1002246.2, -647497.2, 0.26167566, 9.997114, 9.996115 
2.28517e+3, 2.7379236e+2, -6617.997, -403529.38, -7821.0493, -0.22310272, -0.1172124, -6463.945, 250324.06, 0.1640845, 10.003112, 9.997442 
2.2851929e+3, 2.8378683e+2, 17149.008, -318066.56, -294464.6, -0.10025675, -0.39928156, 188365.31, 347210.3, 0.0825175, 10.002296, 9.9977665 
2.2852224e+3, 2.9378474e+2, 272375.44, 9414.43, 352413.3, -0.13618374, -0.5331977, 517036.22, 577903.2, 0.030766618, 10.002682, 9.999105 
2.2852519e+3, 3.0378485e+2, 416428.16, 113438.88, 120385.67, 0.09046391, -0.5769621, 458436.3, 458436.3, 0.009050352, 10.003213, 9.999229 
2.2852683e+3, 3.1378442e+2, 133183.7, 112653.234, -2276.2424, 0.050810307, -0.28883165, 133433.05, 133433.05, 0.003966855, 10.000736, 10.000314 
2.2951789e+3, 2.737582e+2, 40815.04, -655063.3, -82487.98, 0.3130504, -0.5787591, 50459.332, 307583.47, 0.434636, 10.006366, 9.993989 
2.2951975e+3, 2.8375316e+2, -742428.1, -512791.78, -520524.94, 0.018672032, -0.78871197, -94572.016, 64603.703, 0.25417715, 9.996304, 9.999254 
2.295219e+3, 2.9376945e+2, 569604.75, 879638.6, 433979.13, -0.84420675, 0.042374402, 1185455.9, 1246470.0, 0.1217753, 10.001896, 10.006173 
2.2952558e+3, 3.0377877e+2, -630493.44, -577518.06, 7238.2227, 0.0012668115, 0.6019408, -576546.9, -576546.9, 0.054066982, 9.996997, 9.997329 
2.2952746e+3, 3.1376198e+2, 18419.941, 605785.4, -351703.66, 0.4220733, -1.1981634, 770300.2, 770300.2, 0.031655442, 9.997889, 10.004994 
2.3052317e+3, 2.9375118e+2, -38043.266, -1613267.0, -346241.88, -0.55466133, -0.601821, 34702.867, 95885.15, 0.36169618, 10.006774, 9.986473 
2.3052695e+3, 3.0374146e+2, 569113.56, 493462.7, -324683.47, 0.62941974, -1.3447857, 858167.44, 858167.44, 0.21613166, 10.003433, 10.002688 
2.3052669e+3, 3.1375238e+2, -87893.36, -730863.7, 406381.4, -0.5542095, -0.019472517, 108789.945, 108789.945, 0.16917871, 10.001643, 9.994903 
2.3451902e+3, 2.7879518e+2, -419438.84, -2380665.8, -598597.1, 0.63358593, -0.791023, -251174.05, -43388.2, 0.47194284, 10.007027, 9.980914 
2.3448572e+3, 2.8880298e+2, 615557.94, 1206495.4, -113321.42, -0.14816888, -0.0074806917, 1227481.3, 1337186.0, 0.44368437, 10.000906, 10.01529 
2.3583232e+3, 1.7918892e+2, -1181085.6, -1763320.4, -63166.652, 0.31926063, 0.8884761, -1174311.5, 9627.445, 0.43652725, 10.001899, 9.994509 
2.358e+3, 1.8916908e+2, -962699.7, -684049.94, -78474.13, -0.1700638, -0.7128616, -663469.8, 422665.03, 0.377693, 9.9986725, 10.004401 
2.3576929e+3, 1.9918932e+2, -2363008.0, -1585215.8, -303329.53, 0.9521611, 1.1981838, -1480909.1, -492975.4, 0.33361414, 9.989736, 10.000292 
2.3573755e+3, 2.091725e+2, -1079818.1, -1279318.0, -317839.0, -0.09268374, 0.20053755, -846443.94, 43663.52, 0.30108795, 9.999769, 9.996793 
2.35707e+3, 2.1916127e+2, 122762.33, -508113.5, -106437.06, 0.21538413, -0.31017265, 140235.7, 932462.3, 0.27831703, 10.008846, 9.998062 
2.356754e+3, 2.2916254e+2, 263313.5, -190820.5, -375594.75, -0.08530507, 0.24785852, 475143.78, 1169347.6, 0.26126474, 10.007971, 10.0003805 
2.3564392e+3, 2.391529e+2, -2174683.5, -1445607.1, -661296.56, -0.36219904, -0.4642206, -1055028.6, -458745.6, 0.2457743, 9.988699, 9.999265 
2.3561329e+3, 2.4914764e+2, -857311.8, -917086.56, -564554.75, 0.5377732, -0.38191286, -321853.88, 176473.06, 0.23017006, 9.998196, 9.997633 
2.3558116e+3, 2.5914177e+2, 207107.44, -352530.84, -470106.94, -0.09379506, -0.35923856, 474370.84, 874749.75, 0.20995367, 10.0057, 9.997629 
2.3554875e+3, 2.6913887e+2, 763813.94, 337171.88, -156059.48, -0.39270207, -0.25859106, 814804.1, 1117211.8, 0.17525023, 10.007423, 10.001456 
2.3551784e+3, 2.7913225e+2, -856687.3, -1364704.6, 766107.1, -0.18797445, -0.25528115, -303577.34, -99099.734, 0.13169263, 9.998588, 9.992382 
2.3548596e+3, 2.8912506e+2, 386585.6, 164165.67, -175.71814, -0.037063878, -0.098169714, 386585.72, 493139.75, 0.12170422, 10.003181, 10.000209 
2.354549e+3, 2.9912576e+2, -511931.2, -33047.168, 179280.9, 0.13283268, -0.16764383, 26633.066, 35184.76, 0.18200749, 9.995368, 10.00216 
2.3542358e+3, 3.0911112e+2, -514254.78, -623545.75, -556869.94, -0.33061484, -0.921087, -9355.592, -9355.592, 0.3076661, 9.998597, 9.996494 
2.3689495e+3, 1.5949927e+2, -1427003.5, -1280325.3, 31498.717, 0.28759205, -0.6060672, -1273847.1, 103038.67, 0.40917805, 9.997981, 10.001695 
2.368634e+3, 1.6949509e+2, -1161014.8, -1252779.9, -91040.02, 0.23865323, -0.5691526, -1104948.9, 173985.75, 0.31914258, 10.000973, 9.99932 
2.3683074e+3, 1.7948982e+2, -1110028.1, -1289760.4, -32786.746, -0.9414642, -0.61720294, -1104234.0, 76760.42, 0.25440106, 10.000739, 9.998506 
2.3679954e+3, 1.8948062e+2, -548298.8, -673366.0, -100549.17, -0.27683884, -1.0239415, -492423.88, 590660.75, 0.20803168, 10.003474, 10.001364 
2.3676871e+3, 1.9947523e+2, -163857.48, -579339.4, 41286.68, 0.7966483, -1.2403849, -159794.53, 825342.25, 0.17323133, 10.006166, 10.000027 
2.3673801e+3, 2.0947693e+2, -758064.06, -900999.8, 400696.84, 0.83468616, -0.5120745, -422511.56, 464615.47, 0.14628568, 10.000992, 9.999217 
2.367075e+3, 2.1947993e+2, -1404804.1, -1146424.3, 260321.9, 1.0158148, 0.31714013, -984998.4, -195892.6, 0.1255391, 9.995414, 9.999389 
2.3667556e+3, 2.2947627e+2, -801626.5, -716559.25, 88989.16, 0.53661156, 0.463177, -660461.3, 30682.41, 0.10831205, 9.998548, 10.00011 
2.3664302e+3, 2.3946843e+2, -255416.89, -474849.7, 137574.4, -0.3746864, 0.17765343, -189166.23, 404054.4, 0.092004575, 10.002114, 9.999497 
2.3661166e+3, 2.4946317e+2, -153686.66, -137841.44, 271508.6, -0.41331944, 0.07055681, 125860.11, 621130.56, 0.075872436, 10.001152, 10.001698 
2.3658106e+3, 2.5945777e+2, -410730.88, -408684.25, 262192.53, 0.038181618, -0.019072732, -147513.02, 249807.14, 0.059166066, 9.999459, 9.999819 
2.3654944e+3, 2.6945668e+2, 267510.84, 624690.6, -166793.63, 0.38322452, 0.015813012, 690466.2, 989782.94, 0.04046042, 10.000699, 10.005795 
2.3651814e+3, 2.7945477e+2, -359654.5, -497074.06, 17793.533, 0.59490633, -0.11577512, -357387.94, -156066.16, 0.022691203, 9.9996, 9.997626 
2.3648567e+3, 2.8944388e+2, -357579.84, -882965.94, -117968.59, -0.046869066, -0.19995481, -332307.22, -228871.7, 0.017876904, 10.001002, 9.993514 
2.3645332e+3, 2.9943588e+2, -309613.3, -324218.63, 420813.3, -0.77693546, -0.3311559, 103960.695, 109486.95, 0.038467344, 9.9987, 9.998236 
2.3642361e+3, 3.09449e+2, -241819.38, 316309.3, 62476.008, 0.4613565, 1.3771209, 323217.28, 323217.28, 0.085398845, 9.9966545, 10.003697 
2.3792583e+3, 1.4981799e+2, -1516464.1, -2086096.0, 203010.81, 0.21340549, -0.4193101, -1451518.0, 20254.385, 0.38968268, 10.002019, 9.994265 
2.37894e+3, 1.598162e+2, -1580152.1, -1720289.5, -76076.76, -0.20532706, 0.1985219, -1546793.0, -172986.33, 0.27836236, 9.999228, 9.997604 
2.3786275e+3, 1.6981481e+2, -1064894.5, -713694.5, 25959.54, -0.03306122, 0.2871921, -711786.06, 564032.8, 0.19862524, 9.999061, 10.004728 
2.3783147e+3, 1.7981508e+2, -1141964.0, -1035844.56, -11569.294, 0.10239331, 0.2800202, -1034597.9, 143214.28, 0.1461588, 9.999269, 10.001069 
2.3779996e+3, 1.8981172e+2, -827783.2, -978381.5, -17646.727, 0.20179997, 0.4612635, -825743.0, 254100.16, 0.11113541, 10.001793, 9.999409 
2.3776856e+3, 1.9980575e+2, -545252.8, -821629.7, -166.10146, 0.4479094, 0.32083836, -545252.75, 436647.34, 0.08556882, 10.003048, 9.999361 
2.3773724e+3, 2.097994e+2, -804684.56, -721462.4, 162106.55, 0.37489787, 0.1105802, -595711.5, 288248.4, 0.065839775, 9.999682, 10.000875 
2.377057e+3, 2.1979289e+2, -1538585.8, -1228525.4, 189190.36, 0.026084825, -0.16710043, -1138959.3, -352936.72, 0.050802168, 9.994716, 9.999121 
2.3767444e+3, 2.2978903e+2, -1040882.25, -779491.7, 213184.67, -0.048923586, -0.06854682, -660129.06, 27937.324, 0.03888462, 9.996897, 10.000383 
2.3764344e+3, 2.3978537e+2, -708270.8, -704483.25, 160069.63, 0.13581012, 0.017155167, -546296.2, 43811.81, 0.028499532, 9.999015, 9.999304 
2.3761189e+3, 2.4978305e+2, -290433.75, -86961.33, 162913.66, 0.05526555, 0.115168735, 3373.0688, 495501.8, 0.019239584, 9.999761, 10.002478 
2.3758054e+3, 2.5977877e+2, -795162.2, -790668.56, 174937.5, -0.041265782, 0.05698043, -617963.44, -223796.23, 0.01143259, 9.997837, 9.997867 
2.3754868e+3, 2.6977307e+2, -309108.0, -335208.22, -238731.98, 0.012779924, 0.09847135, -83069.7, 213151.52, 0.005417436, 9.999884, 9.999232 
2.3751706e+3, 2.7976635e+2, -525799.9, -587944.5, -158115.23, -0.023382267, -0.07608823, -395732.78, -197448.55, 0.0017239751, 9.998604, 9.997479 
2.3748535e+3, 2.8975824e+2, 93831.58, -19415.828, -155698.89, -0.05819077, -0.2694332, 202883.44, 303242.16, 0.0009962119, 10.001327, 9.999324 
2.374541e+3, 2.9975614e+2, -100550.39, -144752.67, 261686.78, 0.1535196, -0.22753713, 139966.88, 142343.08, 0.0037776493, 9.999755, 9.999017 
2.374226e+3, 3.097522e+2, 75727.445, 202756.55, 153193.72, -0.44683728, 0.06921231, 305080.5, 305080.5, 0.0111080455, 10.000106, 10.0011425 
2.389565e+3, 1.4014694e+2, -1978447.8, -1724365.4, 23576.092, -0.30355823, 0.31910354, -1722196.3, -155659.19, 0.42782643, 9.996654, 9.999885 
2.3892559e+3, 1.5013728e+2, -1512865.1, -1620967.6, 42895.035, 0.28965864, -0.08891144, -1497912.6, -29268.42, 0.2998544, 9.999897, 9.998584 
2.3889346e+3, 1.6013521e+2, -1197762.3, -1427326.0, 169799.03, -0.43129885, 0.30312675, -1107589.0, 263088.53, 0.19614406, 10.001603, 9.998669 
2.388623e+3, 1.7013071e+2, -1020205.8, -960125.94, 37522.715, -0.06873555, 0.2622449, -942099.75, 330621.75, 0.12585048, 10.000584, 10.001781 
2.3883122e+3, 1.8012655e+2, -1220631.5, -1161341.8, -119471.6, 0.37890935, 0.117871754, -1067892.0, 106868.26, 0.083471425, 9.999032, 10.000266 
2.3879966e+3, 1.9012348e+2, -1038953.3, -1018238.94, -94361.03, 0.3342731, 0.2798746, -933668.4, 143121.47, 0.057587944, 9.999793, 10.00009 
2.3876801e+3, 2.0011958e+2, -820580.1, -891167.4, -36506.883, 0.19302137, 0.32163313, -805095.9, 173731.33, 0.03970386, 10.000527, 10.000045 
2.3873648e+3, 2.1011367e+2, -538932.75, -551594.6, -7525.7607, -0.00010148997, 0.09869095, -535429.1, 345451.72, 0.026570952, 10.001258, 10.001298 
2.3870495e+3, 2.2010739e+2, -477617.9, -633702.8, 11307.816, -0.17876574, -0.17050439, -476802.94, 306136.1, 0.017417854, 10.001582, 9.999935 
2.3867393e+3, 2.3010388e+2, -656380.1, -577594.2, 40899.016, 0.047773417, -0.084992565, -560202.2, 124776.695, 0.011141793, 9.99943, 10.000592 
2.3864302e+3, 2.4010026e+2, -906465.9, -709218.4, 40395.42, 0.34518632, -0.00037196896, -701266.2, -114246.3, 0.0065593217, 9.997243, 10.000105 
2.386114e+3, 2.500981e+2, -582730.06, -240696.56, -21869.895, 0.14028059, 0.07917803, -239303.86, 249735.2, 0.0032030866, 9.997729, 10.002371 
2.3857985e+3, 2.6009485e+2, -771065.06, -769857.7, 7279.324, -0.12722166, 0.12005425, -763157.06, -372088.84, 0.0011282732, 9.997906, 9.997958 
2.385481e+3, 2.7008733e+2, -350355.5, -589497.2, -95653.33, -0.14788973, 0.11740767, -316803.03, -23659.867, 0.00023273825, 10.000563, 9.997171 
2.3851652e+3, 2.8007874e+2, 15360.806, -198130.97, 107113.1, -0.16928679, -0.06914395, 59836.28, 255064.47, 0.000018977813, 10.00168, 9.998669 
2.3848508e+3, 2.900731e+2, 316326.9, 356058.56, -33975.332, -0.032468155, -0.22933026, 375549.75, 472825.97, 0.000039610317, 10.001684, 10.001701 
2.3845413e+3, 3.0007333e+2, -41247.164, -195679.95, 27773.445, 0.598011, -0.0037262673, -36404.215, -36404.215, 0.00031053094, 10.000418, 9.998318 
2.384219e+3, 3.1005895e+2, -227877.45, -44618.117, -317862.78, -0.58128935, -0.58202434, 194558.42, 194558.42, 0.0010092399, 9.998619, 9.999957 
2.3998845e+3, 1.3045976e+2, -1787143.4, -1694523.8, -177765.63, -0.2831818, 0.21857314, -1557134.8, 104355.086, 0.49043697, 9.999134, 9.999784 
2.3995604e+3, 1.4044733e+2, -1639096.5, -1544529.6, -153164.86, -0.20821856, -0.7867133, -1431515.9, 132082.83, 0.36336103, 9.999009, 10.000466 
2.3992456e+3, 1.504508e+2, -1289847.4, -1038443.7, 124288.85, -0.25350496, -0.2743017, -987372.56, 478196.63, 0.24041095, 9.99954, 10.003515 
2.3989314e+3, 1.6045356e+2, -1524096.6, -1546778.9, 77932.92, -0.3903483, 0.17942257, -1456684.0, -89135.43, 0.14389461, 9.999039, 9.99885 
2.3986192e+3, 1.7044434e+2, -1430559.3, -1607777.4, 16676.658, -0.008524909, -0.022913385, -1429003.5, -159361.34, 0.08188297, 9.999752, 9.997371 
2.3983069e+3, 1.8043403e+2, -1331161.3, -1443365.0, -43607.09, 0.39490542, -0.38372532, -1316206.8, -144460.84, 0.047678713, 9.999324, 9.998161 
2.3979902e+3, 1.9043097e+2, -982514.5, -885653.94, 12617.677, 0.21866447, -0.24310201, -884037.25, 189740.2, 0.028905774, 9.999805, 10.000962 
2.3976736e+3, 2.0042911e+2, -1013663.3, -1004386.75, 17087.049, -0.013242492, -0.06947979, -991319.6, -15523.259, 0.017015342, 9.999394, 9.999768 
2.3973607e+3, 2.10426e+2, -719694.56, -641580.4, 52253.824, -0.016211795, 0.013340354, -615400.06, 262424.13, 0.00915297, 10.000158, 10.001121 
2.397049e+3, 2.2042201e+2, -813077.06, -841023.1, -21901.754, 0.12141162, -0.008496824, -801070.6, -21209.363, 0.0045936005, 9.999611, 9.999434 
2.3967351e+3, 2.3041822e+2, -789603.0, -621614.3, -48651.22, 0.19803526, 0.03356189, -608541.7, 73359.62, 0.0022051786, 9.998529, 10.000688 
2.3964208e+3, 2.4041364e+2, -1103741.4, -846287.06, -16354.596, 0.17994772, -0.00442812, -845252.25, -261303.23, 0.0009056362, 9.996176, 9.99968 
2.3961055e+3, 2.5041148e+2, -654916.1, -268015.78, -20584.227, -0.009867587, 0.08106079, -266923.72, 219045.36, 0.00023937336, 9.997436, 10.002207 
2.3957916e+3, 2.6040843e+2, -867881.1, -761672.25, 21451.754, -0.15812138, 0.096383214, -757503.2, -369505.63, 0.000025130046, 9.997106, 9.998401 
2.3954777e+3, 2.7040195e+2, -213702.03, -287074.22, 7528.4146, -0.07813818, 0.04135439, -212937.53, 77121.195, 0.00000030344088, 10.000588, 9.999196 
2.395164e+3, 2.803957e+2, -85409.26, -204761.06, 91282.445, -0.06804075, -0.12703124, -36026.934, 156091.11, 0.0000000068303647, 10.000878, 9.999025 
2.394846e+3, 2.903913e+2, 130085.9, 96045.99, -14329.804, -0.24101822, -0.07465156, 135315.05, 229475.86, 0.0000039429096, 10.001262, 10.000072 
2.3945308e+3, 3.003893e+2, -521048.97, -771117.9, 28813.62, -0.25512415, 0.20841965, -517771.9, -517771.9, 0.00006190627, 9.998686, 9.995181 
2.3942202e+3, 3.1037632e+2, -205756.48, -43239.523, -75104.03, -0.14780287, -0.1689935, -13847.398, -13847.398, 0.0002690841, 9.998646, 9.99997 
2.4098824e+3, 1.3077553e+2, -1961483.0, -1501428.6, -231862.52, 0.13771245, 0.16301918, -1404847.9, 253558.2, 0.44510007, 9.995877, 10.003747 
2.4095586e+3, 1.4076684e+2, -1297540.0, -1397280.9, 6412.244, -0.113723926, -0.6104091, -1297129.4, 263339.5, 0.31930807, 10.001973, 10.000384 
2.409243e+3, 1.5076661e+2, -1372753.5, -1320274.9, -182.33008, -0.106339805, -0.22195141, -1320274.3, 142203.1, 0.20041417, 10.000071, 10.00067 
2.408928e+3, 1.6076572e+2, -1693854.5, -1560524.5, -105051.21, -0.1586628, 0.06371035, -1502770.9, -138277.45, 0.110025235, 9.99751, 9.999506 
2.4086145e+3, 1.7076008e+2, -1163552.6, -1169707.8, 47566.484, -0.021129292, -0.03506183, -1118964.3, 147582.77, 0.054970514, 10.000218, 10.000217 
2.4083008e+3, 1.8075351e+2, -849186.06, -1103703.6, 162809.77, 0.080244474, -0.2167895, -769800.6, 398809.6, 0.027314784, 10.002147, 9.999173 
2.4079841e+3, 1.9074863e+2, -754151.56, -887761.3, 147367.16, -0.057520974, -0.20055987, -659154.2, 411506.0, 0.013986388, 10.001781, 10.000023 
2.407668e+3, 2.0074429e+2, -820141.4, -949563.6, 138874.84, -0.21150082, -0.15277873, -731641.0, 241063.3, 0.006556314, 10.000792, 9.999498 
2.4073566e+3, 2.107414e+2, -728330.75, -694459.2, 136430.5, 0.016432023, -0.00088014605, -573917.3, 300814.13, 0.002469395, 10.000297, 10.0007 
2.4070454e+3, 2.2073786e+2, -774543.94, -828864.44, 71148.87, 0.20634688, 0.09971006, -725547.5, 51217.65, 0.00078321603, 9.999781, 9.999468 
2.4067286e+3, 2.3073222e+2, -698976.1, -647953.1, -8956.881, 0.09600994, -0.0027514372, -646426.5, 32395.465, 0.00023610769, 9.999297, 10.000189 
2.4064124e+3, 2.407265e+2, -666289.3, -607010.44, 74056.78, -0.042445526, -0.10884978, -556882.06, 23997.51, 0.000047296035, 9.998881, 10.000054 
2.4060999e+3, 2.507243e+2, -280100.94, -105497.34, 92860.9, 0.00042131613, -0.022464108, -65344.25, 417556.66, 0.0000020598873, 10.00002, 10.002109 
2.4057883e+3, 2.6072162e+2, -292814.9, -333114.06, 103628.74, 0.033327688, 0.029047716, -207394.97, 177531.0, 0.0, 10.000313, 9.999794 
2.4054736e+3, 2.707163e+2, -406155.72, -288219.47, 13221.07, -0.01407934, -0.00510538, -286755.5, 220.99413, 0.0, 9.998822, 10.000067 
2.4051587e+3, 2.807113e+2, -581385.2, -390375.8, -17836.557, -0.07114973, -0.09283874, -388724.5, -199700.16, 0.0, 9.997089, 9.999609 
2.4048415e+3, 2.9070657e+2, -191712.81, -136322.16, -84537.25, -0.21054423, -0.06111391, -75059.19, 16013.102, 0.00000028208012, 9.9992285, 9.999534 
2.4045269e+3, 3.0070385e+2, -247570.06, -562382.9, 129441.695, -0.18505107, 0.23000039, -201182.63, -201182.63, 0.000017512673, 10.000064, 9.995998 
2.404221e+3, 3.1069195e+2, 424276.0, 352785.47, 69249.79, 0.26378995, -0.116991885, 466461.84, 466461.84, 0.0001005609, 10.002414, 10.000983 
2.4198714e+3, 1.3109468e+2, -1526606.5, -1042052.2, 60801.11, -0.104458705, 0.5957643, -1034539.44, 620744.44, 0.41411293, 9.997107, 10.008065 
2.4195579e+3, 1.4108865e+2, -1508133.9, -1598919.6, -33613.293, 0.12293295, -0.21354665, -1497043.5, 60271.797, 0.28877336, 10.00035, 9.999279 
2.4192415e+3, 1.5108241e+2, -1560293.1, -1809989.4, -53456.92, 0.20931584, -0.11588954, -1549330.0, -89943.46, 0.17287979, 10.000386, 9.99697 
2.4189249e+3, 1.6107698e+2, -1401746.9, -1362249.4, -4322.7266, 0.21047527, -0.02984647, -1361781.9, -332.58447, 0.08747846, 9.999185, 10.000134 
2.4186102e+3, 1.7107706e+2, -919059.1, -577908.6, 139447.06, -0.013177, 0.08129515, -528162.75, 735277.9, 0.038149297, 9.999893, 10.00454 
2.4182951e+3, 1.8107617e+2, -1125919.0, -1153930.8, 94111.38, -0.1866572, 0.1256652, -1044776.94, 120665.18, 0.01570925, 9.999922, 9.999839 
2.4179785e+3, 1.9106886e+2, -970194.4, -1136347.9, 64823.375, -0.2749054, -0.030499838, -947896.44, 119619.62, 0.0064830934, 10.000957, 9.998647 
2.4176633e+3, 2.0106143e+2, -1015185.2, -1212856.8, 68699.03, -0.24447241, -0.17011139, -993654.56, -24063.23, 0.0021827125, 10.00025, 9.997933 
2.4173523e+3, 2.1105786e+2, -831590.9, -838296.8, 94099.664, 0.03358224, -0.0019828682, -740784.5, 130841.21, 0.00044835047, 10.000013, 9.999819 
2.41704e+3, 2.2105382e+2, -1064589.4, -1091742.4, 15975.553, 0.22456452, 0.107492514, -1057200.6, -283535.78, 0.000068581576, 9.99845, 9.998275 
2.416721e+3, 2.310467e+2, -822318.2, -751366.2, -50032.836, -0.088431425, -0.07828792, -725508.44, -49772.984, 0.0000096515805, 9.998875, 9.999578 
2.4164043e+3, 2.4103986e+2, -873857.25, -770001.0, 61098.527, -0.25258994, -0.26939493, -741744.6, -163941.4, 0.00000040342232, 9.997907, 9.999368 
2.4160962e+3, 2.5103784e+2, -345749.2, -137513.5, 127239.0, 0.08836786, -0.16316013, -77222.44, 402600.06, 0.0, 9.999665, 10.002017 
2.4157867e+3, 2.6103556e+2, -540254.3, -526333.5, 20425.271, 0.29137364, -0.07794173, -511715.22, -129870.57, 0.0, 9.999042, 9.99909 
2.4154668e+3, 2.7103126e+2, -537987.1, -383351.66, -74285.695, -0.069021896, 0.00677161, -353448.16, -69558.8, 0.0, 9.998195, 9.999641 
2.4151489e+3, 2.8102624e+2, -893414.06, -681504.7, -15400.201, -0.3318255, -0.018891595, -680391.3, -494451.06, 0.0, 9.995656, 9.998301 
2.4148388e+3, 2.9101926e+2, -235068.34, -89412.2, 3637.0679, 0.03396819, -0.20541617, -89321.445, -1315.434, 0.0000000009564638, 9.998802, 9.999987 
2.41453e+3, 3.0101463e+2, -358600.28, -393289.97, 214905.25, 0.32288244, -0.23569097, -160341.06, -160341.06, 0.0000015325257, 9.998513, 9.997881 
2.4142116e+3, 3.1100982e+2, 348436.97, 456719.72, 105128.49, -0.64104885, -0.22611228, 520829.3, 520829.3, 0.000021924814, 10.001359, 10.002191 
2.4298707e+3, 1.3140917e+2, -1465854.4, -1260960.8, 117272.44, 0.28204182, 0.11486428, -1207689.3, 444496.63, 0.39271495, 9.999603, 10.004158 
2.4295507e+3, 1.4140335e+2, -1583461.0, -1650910.9, 4688.717, -0.18700874, -0.32723325, -1583136.6, -28908.61, 0.26710206, 9.999699, 9.999241 
2.4292348e+3, 1.5139899e+2, -1242606.4, -1488583.9, 49273.785, -0.15586121, -0.15288344, -1233103.0, 223177.78, 0.15331793, 10.002117, 9.998425 
2.4289192e+3, 1.6139463e+2, -949829.3, -1174832.5, 133268.1, -0.12483991, -0.009311065, -887926.2, 470405.84, 0.07196278, 10.002615, 9.999878 
2.4286045e+3, 1.7139184e+2, -1058271.1, -868137.8, 44682.754, -0.12528355, -0.0014927927, -858160.6, 402192.94, 0.027363949, 9.9999075, 10.002427 
2.4282898e+3, 1.8138866e+2, -1465698.0, -1355844.6, -51592.66, -0.17477848, -0.021204792, -1335413.9, -173033.92, 0.009079448, 9.997693, 9.999509 
2.4279763e+3, 1.913834e+2, -982326.7, -1092466.0, -10383.706, -0.12827227, -0.011547489, -981356.25, 83079.44, 0.002868925, 10.0005865, 9.999155 
2.4276626e+3, 2.0137767e+2, -635054.94, -956702.94, -13139.802, -0.08141231, -0.022415977, -634519.0, 331975.6, 0.00059867656, 10.002439, 9.998664 
2.4273482e+3, 2.113722e+2, -697107.8, -794901.7, -9453.31, 0.021584524, -0.06178106, -696202.4, 172340.86, 0.000045539302, 10.000869, 9.999777 
2.4270335e+3, 2.2136655e+2, -918708.06, -997596.1, -2149.4382, 0.07695456, -0.09256354, -918649.5, -148054.81, 0.0000022398012, 9.999224, 9.998556 
2.4267162e+3, 2.3135985e+2, -678738.7, -719863.6, -34687.586, -0.043776087, -0.21517883, -658976.94, 13685.969, 0.000000052409952, 9.9999695, 9.999289 
2.4264011e+3, 2.41354e+2, -485466.34, -526147.9, 69672.37, -0.10886927, -0.27770463, -433226.22, 141496.69, 0.0, 10.000272, 9.999893 
2.4260916e+3, 2.5135246e+2, -448371.84, -243900.64, 86501.46, 0.12387797, -0.0912558, -212216.03, 264525.16, 0.0, 9.999136, 10.001583 
2.4257807e+3, 2.6135033e+2, -591577.06, -467318.3, -37964.027, 0.2707234, 0.048602935, -456637.47, -77873.49, 0.0, 9.998173, 9.999942 
2.4254619e+3, 2.7134556e+2, -232204.88, -202674.44, -99675.1, -0.023407247, 0.027784752, -116676.88, 164134.81, 0.0, 9.999983, 10.000092 
2.4251448e+3, 2.8134048e+2, -6067.0605, -133543.42, 63022.273, -0.18051459, -0.02453124, 19829.363, 202690.44, 0.0, 10.001091, 9.999457 
2.4248357e+3, 2.9133388e+2, 244933.86, 189933.6, 124672.086, 0.1435651, -0.2295165, 345102.78, 430024.7, 0.0, 10.001698, 10.000595 
2.4245268e+3, 3.0132878e+2, 118691.96, 911.1494, 242429.84, 0.3788581, -0.36498442, 309281.63, 309281.63, 0.000000086511356, 10.000864, 9.999523 
2.4242078e+3, 3.113285e+2, 19897.729, 255892.64, -321146.94, -0.62442803, 0.07494846, 480033.7, 480033.7, 0.0000026170453, 9.998956, 10.002117 
2.4401768e+3, 1.21727504e+2, -1849540.4, -1916813.5, -465974.16, -0.5943035, -0.41684818, -1415990.4, 331063.3, 0.4945436, 10.000304, 9.999311 
2.43987e+3, 1.317233e+2, -1569253.9, -1630579.5, 30745.006, 0.6740806, -0.34831515, -1556494.8, 92598.164, 0.3775347, 10.0009165, 9.99933 
2.4395432e+3, 1.4171687e+2, -1868154.8, -1799062.0, 14186.143, -0.40087786, -0.49966732, -1796262.6, -245109.13, 0.25111946, 9.997881, 9.999065 
2.439228e+3, 1.5171593e+2, -1342688.1, -1328119.6, 63303.656, -0.5068177, -0.1771846, -1271682.5, 181488.39, 0.13882844, 10.000315, 10.00047 
2.4389139e+3, 1.6171323e+2, -1269264.1, -1506420.4, -8787.936, -0.40825602, 0.037345234, -1268939.0, 86264.7, 0.060861234, 10.001108, 9.998189 
2.4385992e+3, 1.7170529e+2, -1266395.0, -1358059.3, -91575.734, -0.156593, -0.17407428, -1209822.5, 47457.02, 0.02025213, 10.000227, 9.998804 
2.4382852e+3, 1.8169838e+2, -1414594.8, -1442166.5, -3497.4893, 0.072677135, -0.28871697, -1414158.0, -254811.19, 0.0052852775, 9.998585, 9.998503 
2.4379751e+3, 1.916966e+2, -982227.1, -984004.94, 88043.89, 0.17344475, -0.005401014, -895067.6, 166303.61, 0.0012089658, 10.000189, 10.000084 
2.4376631e+3, 2.0169367e+2, -900290.2, -1027757.0, -59368.066, 0.24661642, 0.17931135, -876923.0, 86479.95, 0.00012403581, 10.000526, 9.999061 
2.437344e+3, 2.1168609e+2, -804401.6, -776042.1, -109315.97, 0.033639688, -0.1440907, -679990.06, 185475.75, 0.000001917801, 9.999999, 10.000221 
2.4370264e+3, 2.2167847e+2, -1116406.6, -1168450.9, -28875.824, -0.06311451, -0.3973348, -1103557.6, -336025.25, 0.000000018702426, 9.99832, 9.997772 
2.4367131e+3, 2.3167296e+2, -719990.44, -782646.06, -13863.321, 0.11920178, -0.3709356, -717060.06, -47468.664, 0.0, 9.999906, 9.998845 
2.4363999e+3, 2.4166852e+2, -709948.7, -759539.0, 23112.742, 0.23812243, -0.26120353, -700846.94, -129205.35, 0.0, 9.999355, 9.998727 
2.4360855e+3, 2.5166813e+2, -564204.25, -376598.22, 22680.416, 0.096581504, 0.10784591, -373895.22, 99759.78, 0.0, 9.998824, 10.000764 
2.4357717e+3, 2.6166636e+2, -775450.2, -607649.2, -29107.814, 0.005420382, 0.33711457, -602743.4, -227065.33, 0.0, 9.997277, 9.999391 
2.4354583e+3, 2.7166e+2, -231205.78, -89562.16, -34039.27, 0.09743826, 0.084464274, -81806.61, 195927.31, 0.0, 9.999609, 10.001004 
2.4351451e+3, 2.8165424e+2, -172321.92, -170775.97, 66794.35, 0.15624571, -0.1374799, -104750.12, 75034.664, 0.0, 9.999872, 9.999795 
2.4348308e+3, 2.916506e+2, 146476.88, 185736.1, 141533.03, -0.083911, -0.13095595, 308994.28, 390812.84, 0.0, 10.000921, 10.000916 
2.4345168e+3, 3.016472e+2, -410488.44, -481034.44, 193924.47, -0.39237675, -0.039998885, -248655.16, -248655.16, 0.0, 9.998356, 9.997411 
2.4342072e+3, 3.1164297e+2, -386297.9, -145965.56, -48008.395, -0.27878785, 0.11335107, -136730.38, -136730.38, 0.00000012758136, 9.997329, 10.00002 
2.4501818e+3, 1.22046724e+2, -1476473.8, -1733771.5, -27616.54, -0.04184137, -0.044901304, -1473543.0, 270395.97, 0.48539904, 10.0041, 9.997863 
2.4498624e+3, 1.3204168e+2, -1477048.8, -1620830.8, -197874.55, 0.1793653, -0.035020486, -1338410.3, 307574.47, 0.36593348, 10.002057, 9.9992285 
2.4495363e+3, 1.4203542e+2, -2016013.9, -1891683.8, 14374.285, -0.41794738, -0.13411814, -1890043.5, -342001.63, 0.23856215, 9.996926, 9.998899 
2.449225e+3, 1.5203184e+2, -1567720.6, -1459353.1, 85933.45, -0.2876565, -0.050999913, -1411947.4, 38132.234, 0.1275105, 9.998727, 10.000244 
2.4489133e+3, 1.6202736e+2, -1374089.4, -1533376.0, -62784.984, -0.11052609, -0.008276867, -1352317.6, -191.94357, 0.052560914, 10.000182, 9.998456 
2.4485974e+3, 1.7202021e+2, -1010952.0, -1242976.8, -64543.52, 0.0041305204, -0.14730828, -994206.2, 259987.77, 0.01541553, 10.0019245, 9.998832 
2.4482822e+3, 1.8201366e+2, -915777.2, -1231087.5, 72157.42, 0.07705054, -0.1943836, -900048.9, 256210.08, 0.0031067657, 10.002065, 9.998296 
2.4479707e+3, 1.920105e+2, -1045108.1, -1106592.1, 88685.18, 0.17395417, 0.03465113, -981987.8, 76310.02, 0.00048131414, 10.000108, 9.999314 
2.4476577e+3, 2.0200665e+2, -1156400.0, -1105470.8, -82184.45, 0.19384408, 0.17713624, -1044896.3, -84556.86, 0.000015932997, 9.998492, 9.999504 
2.4473384e+3, 2.1199998e+2, -857714.1, -749875.3, -150303.05, -0.020721298, -0.09429773, -644112.8, 218281.5, 0.0000000054715246, 9.999386, 10.000699 
2.4470207e+3, 2.219934e+2, -762241.25, -915780.94, -36851.438, -0.16406868, -0.28230625, -753854.56, 10597.02, 0.0, 10.000306, 9.998559 
2.4467085e+3, 2.3198824e+2, -495455.0, -693197.56, -8902.506, 0.03975353, -0.2207761, -495055.0, 171452.69, 0.0, 10.0014305, 9.998788 
2.446396e+3, 2.4198386e+2, -336740.22, -560953.6, -30893.727, 0.18197007, -0.079857945, -332561.34, 235996.14, 0.0, 10.0016575, 9.999025 
2.4460807e+3, 2.519821e+2, -369152.75, -354385.8, -38478.81, 0.111349344, 0.19958514, -322588.5, 147995.13, 0.0, 10.000287, 10.000315 
2.4457662e+3, 2.6197952e+2, -474738.47, -376822.28, -28166.549, 0.038465954, 0.37447783, -369298.06, 3315.489, 0.0, 9.998808, 10.000285 
2.4454534e+3, 2.7197275e+2, -368924.5, -140942.1, -52992.227, 0.147431, 0.045074143, -129226.61, 145443.39, 0.0, 9.998466, 10.001268 
2.4451406e+3, 2.8196698e+2, -356771.44, -237393.7, -19927.414, 0.19512936, -0.18242615, -234155.13, -57435.777, 0.0, 9.998318, 10.000126 
2.4448247e+3, 2.9196483e+2, -148569.83, -3223.3916, -57924.26, -0.21546035, -0.0009525425, 17036.79, 95779.21, 0.0, 9.998936, 10.000632 
2.4445112e+3, 3.019622e+2, -266558.9, -431977.38, -6984.1157, -0.4961605, 0.20731089, -266264.56, -266264.56, 0.0, 9.999218, 9.997369 
2.4442068e+3, 3.1195605e+2, 378794.13, 232636.98, -68700.016, 0.055452444, 0.29044703, 406015.97, 406015.97, 0.000000000000427524, 10.002295, 10.000285 
2.4601814e+3, 1.2236353e+2, -1897203.8, -2055380.0, 351232.13, -0.009843734, 0.27049512, -1616265.5, 124584.28, 0.47722498, 9.999991, 9.99788 
2.4598548e+3, 1.3235961e+2, -1473181.3, -1549645.9, -383804.44, -0.24738865, 0.30014813, -1125709.6, 517172.5, 0.3557266, 10.001812, 10.000328 
2.4595314e+3, 1.4235446e+2, -1513141.4, -1690545.3, -21470.021, -0.22224237, 0.27551937, -1510580.0, 34345.24, 0.22774403, 10.000657, 9.998489 
2.4592236e+3, 1.5234712e+2, -1496789.6, -1507818.3, 110829.89, 0.135011, 0.047417607, -1391337.0, 55658.082, 0.11809006, 9.999689, 9.999415 
2.4589138e+3, 1.6234057e+2, -1522487.8, -1584165.4, -37251.055, 0.42577308, -0.06669465, -1504966.8, -155909.0, 0.04605504, 9.99912, 9.998615 
2.4585967e+3, 1.7233603e+2, -1045722.6, -1155882.4, -51749.316, 0.23299117, -0.04392487, -1025226.1, 225874.3, 0.012013259, 10.001279, 9.9997225 
2.4582797e+3, 1.8233104e+2, -1062453.8, -1410218.5, -20936.072, 0.10237822, 0.028675467, -1061197.9, 91952.586, 0.0018483637, 10.001588, 9.997287 
2.4579653e+3, 1.9232461e+2, -1100537.1, -1298190.6, -13596.896, 0.106851816, 0.045177434, -1099606.1, -44384.21, 0.00018026956, 10.00045, 9.997817 
2.4576506e+3, 2.0231871e+2, -1206138.1, -1201575.8, -92784.64, 0.104400314, 0.09244705, -1111044.3, -153759.83, 0.0000007906511, 9.998574, 9.9988 
2.4573325e+3, 2.1231422e+2, -835732.4, -720531.94, -141816.53, -0.06789244, 0.018520154, -625064.5, 234257.88, 0.0, 9.999545, 10.000823 
2.4570158e+3, 2.2230953e+2, -960529.75, -1042433.75, -46331.84, -0.17417613, 0.014990513, -939645.6, -178280.89, 0.0, 9.999266, 9.998173 
2.4567032e+3, 2.3230487e+2, -656489.06, -735559.56, -3198.6082, -0.14578874, 0.10204469, -656359.9, 7055.588, 0.0, 10.000415, 9.998882 
2.4563904e+3, 2.4230014e+2, -673318.2, -799644.94, -87162.625, -0.038729396, 0.21291615, -628838.94, -63372.043, 0.0, 9.999842, 9.998224 
2.4560766e+3, 2.5229535e+2, -489750.47, -462134.97, -116835.24, 0.1627251, 0.21479416, -358294.4, 109223.63, 0.0, 9.999736, 9.999802 
2.4557622e+3, 2.622904e+2, -705781.2, -575322.8, -82903.12, 0.24378969, 0.19460103, -535063.75, -165497.05, 0.0, 9.99772, 9.999421 
2.4554463e+3, 2.7228415e+2, -464569.06, -210474.16, -70380.13, 0.078434326, -0.07625855, -192282.44, 79334.86, 0.0, 9.998031, 10.000939 
2.4551319e+3, 2.8227907e+2, -706024.06, -613615.75, 3435.164, -0.07419574, -0.14161377, -613488.25, -439827.25, 0.0, 9.996982, 9.998162 
2.4548186e+3, 2.922766e+2, -390730.13, -301964.9, -34530.234, -0.28048205, 0.14393292, -290114.5, -214421.52, 0.0, 9.998179, 9.998899 
2.4545102e+3, 3.0227125e+2, -723805.0, -804118.1, 48261.883, -0.15674153, 0.2616534, -701178.1, -701178.1, 0.0, 9.996954, 9.995861 
2.4542053e+3, 3.122637e+2, 108756.68, 244054.73, 145162.28, -0.04471888, 0.12442645, 336557.13, 336557.13, 0.0, 10.000177, 10.001245 
2.4701758e+3, 1.2267516e+2, -2217780.0, -1993648.4, 234974.72, -0.01265967, 0.2995043, -1845384.0, -107595.305, 0.46784827, 9.9965315, 9.999593 
2.4698518e+3, 1.326686e+2, -1265742.8, -1289116.6, -236898.47, -0.2978802, -0.10908842, -1040243.1, 599603.25, 0.34520847, 10.002652, 10.00207 
2.4695337e+3, 1.4266679e+2, -973154.75, -1403959.5, -68902.97, -0.044105854, 0.09507867, -962402.75, 579455.1, 0.21743059, 10.005376, 9.99844 
2.4692202e+3, 1.5265918e+2, -1320862.6, -1482217.0, -32500.832, 0.13935864, -0.1058298, -1314562.1, 129369.46, 0.109704144, 10.001307, 9.998762 
2.468907e+3, 1.6265254e+2, -1588598.5, -1606625.6, -1679.6318, 0.25247064, -0.17877151, -1588443.3, -242446.38, 0.040704507, 9.998601, 9.998713 
2.4685918e+3, 1.7264834e+2, -1041706.0, -1168110.9, -8618.582, 0.081026815, -0.10738631, -1041121.06, 206919.86, 0.00953522, 10.001313, 9.999665 
2.4682762e+3, 1.826439e+2, -837976.3, -1200104.1, -79367.84, -0.09856122, 0.0073440727, -821345.06, 328742.84, 0.0011160366, 10.002635, 9.998236 
2.4679603e+3, 1.9263823e+2, -787626.5, -1074915.6, -41333.176, -0.10549745, 0.031462513, -781798.0, 270350.5, 0.00006263998, 10.002232, 9.998525 
2.467645e+3, 2.0263271e+2, -797568.1, -1049804.9, -46716.117, -0.08190659, 0.10972816, -789193.94, 165012.8, 0.0000000031066179, 10.001504, 9.998452 
2.4673298e+3, 2.126278e+2, -609851.94, -784964.06, -144240.47, 0.047615167, 0.14490941, -528673.4, 327582.25, 0.0, 10.001765, 9.999376 
2.4670143e+3, 2.2262265e+2, -667432.3, -857603.75, -140297.11, 0.052907106, 0.19471483, -593034.75, 165271.72, 0.0, 10.000954, 9.9986725 
2.4666984e+3, 2.3261718e+2, -902439.8, -816432.9, -112602.29, -0.09807497, 0.16020428, -738901.8, -78540.73, 0.0, 9.998424, 9.99936 
2.4663836e+3, 2.42612e+2, -964603.1, -843897.1, -110213.41, -0.15746297, 0.17972638, -778593.94, -216180.9, 0.0, 9.997307, 9.999168 
2.46607e+3, 2.5260696e+2, -446580.97, -434275.06, -100981.734, 0.003800102, 0.1390916, -339259.0, 125204.18, 0.0, 9.999882, 9.999989 
2.4657565e+3, 2.6260164e+2, -131057.875, -291983.2, -80824.1, 0.1134477, 0.0973432, -97473.28, 269040.22, 0.0, 10.001461, 9.999598 
2.4654418e+3, 2.7259618e+2, -27797.805, -85877.375, -132155.94, 0.10678438, -0.03531358, 78471.32, 347031.7, 0.0, 10.001253, 10.000299 
2.4651274e+3, 2.8259152e+2, -109478.25, -347281.06, -41333.344, -0.011384174, 0.004113277, -102498.8, 68104.49, 0.0, 10.001049, 9.998046 
2.464814e+3, 2.92587e+2, 101698.94, -176713.45, -34046.16, -0.31299537, 0.18284813, 105801.87, 178457.48, 0.0, 10.001905, 9.99805 
2.4645078e+3, 3.025796e+2, -26262.82, -395866.75, 117652.99, 0.016117722, 0.16035062, 8010.5283, 8010.5283, 0.0, 10.001205, 9.996681 
2.4642e+3, 3.1257045e+2, -129402.99, 174747.42, 114397.734, -0.13522173, -0.123157576, 212971.22, 212971.22, 0.0, 9.997972, 10.001979 
2.4801692e+3, 1.22982904e+2, -2072057.9, -1775616.0, 207879.0, 0.04380315, -0.18835771, -1668527.1, 66236.625, 0.45571682, 9.996677, 10.001382 
2.47985e+3, 1.3297771e+2, -1451943.4, -1322479.5, -86910.586, -0.22124629, -0.5519386, -1278843.3, 357965.38, 0.33319858, 10.000268, 10.002821 
2.4795361e+3, 1.4297809e+2, -1383709.3, -1636330.3, -149879.67, 0.21783948, -0.16376562, -1314014.0, 224786.03, 0.20679392, 10.001921, 9.998314 
2.479216e+3, 1.5297122e+2, -1354890.5, -1551668.5, -165445.75, 0.09515353, -0.26817825, -1260788.8, 180078.56, 0.10179194, 10.001276, 9.998364 
2.4788994e+3, 1.6296475e+2, -1468230.8, -1603955.0, 64826.477, 0.067881145, -0.2747171, -1442243.4, -99309.71, 0.036105353, 9.999754, 9.99816 
2.4785867e+3, 1.7296012e+2, -1169913.6, -1271556.6, 92778.555, -0.07774854, -0.21255359, -1114949.1, 130038.05, 0.0076701324, 10.000719, 9.999192 
2.4782725e+3, 1.8295586e+2, -1050399.5, -1239748.3, -70420.43, -0.20672831, -0.06442133, -1027081.25, 119953.21, 0.000687035, 10.001019, 9.998705 
2.4779555e+3, 1.9295225e+2, -814083.75, -932425.5, -82298.15, -0.30065343, 0.024922049, -771893.0, 277177.2, 0.000019881356, 10.001524, 9.99977 
2.4776407e+3, 2.0294756e+2, -1016746.7, -1345453.6, -75776.09, -0.1660253, 0.17452219, -1000119.3, -49000.27, 0.0, 10.000919, 9.996654 
2.477329e+3, 2.1294124e+2, -831082.94, -1132254.4, -127501.22, 0.27679154, 0.25969934, -784355.1, 68834.33, 0.0, 10.00137, 9.997093 
2.4770142e+3, 2.2293472e+2, -843986.1, -1004307.06, -185831.27, 0.46208704, 0.3204256, -721763.44, 33494.15, 0.0, 10.000096, 9.998041 
2.4766935e+3, 2.329275e+2, -848714.1, -745507.94, -200936.27, 0.06851695, 0.06132175, -589654.4, 67669.14, 0.0, 9.9986315, 9.999723 
2.4763756e+3, 2.4292141e+2, -1053887.5, -873110.4, -58969.855, -0.21454838, -0.045140974, -855575.2, -296196.13, 0.0, 9.996789, 9.999186 
2.476062e+3, 2.5291765e+2, -491245.53, -380925.16, -5290.2275, -0.30803794, -0.032477774, -380672.06, 80741.55, 0.0, 9.999398, 10.000502 
2.4757497e+3, 2.6291353e+2, -469417.9, -629088.56, -76263.79, -0.2245808, 0.06317953, -438845.63, -75392.5, 0.0, 10.000053, 9.997937 
2.4754392e+3, 2.7290896e+2, -240383.81, -332813.7, -148331.19, 0.18043692, 0.14461072, -131234.78, 134264.39, 0.0, 10.000561, 9.998895 
2.4751265e+3, 2.8290358e+2, -400601.97, -608689.25, -37384.574, 0.21546601, 0.24068649, -394089.38, -226536.2, 0.0, 9.999686, 9.9969 
2.4748103e+3, 2.9289517e+2, -33597.79, -234856.55, -2973.836, -0.41972226, 0.02134827, -33553.855, 36084.99, 0.0, 10.001111, 9.997959 
2.4745032e+3, 3.02888e+2, -361302.13, -560146.25, 5623.0776, -0.16988121, 0.019392947, -361143.25, -361143.25, 0.0, 9.9991, 9.996531 
2.4741921e+3, 3.1288296e+2, -494576.2, 46292.535, -40596.71, -0.3635199, 0.018756386, 49322.68, 49322.68, 0.0, 9.995423, 10.002286 
2.4901626e+3, 1.23299405e+2, -1879253.9, -1521156.4, 227741.8, -0.0051529617, -0.15046187, -1410507.4, 321157.78, 0.43991777, 9.99703, 10.004048 
2.489844e+3, 1.3329767e+2, -1887831.5, -1668419.9, -70314.51, -0.2249937, 0.0022880659, -1647820.3, -14138.187, 0.31901658, 9.997756, 10.000585 
2.4895288e+3, 1.4329188e+2, -1821509.0, -1763698.1, -116486.41, -0.027945692, -0.11992676, -1672584.4, -136848.19, 0.19536594, 9.998136, 9.99921 
2.4892126e+3, 1.5328711e+2, -1198876.5, -1300341.6, -37753.984, 0.044393934, -0.15111268, -1186370.1, 251405.94, 0.094030365, 10.001587, 10.000034 
2.4888971e+3, 1.6328192e+2, -1090292.8, -1442530.5, 121464.47, 0.07766635, -0.10327405, -1052469.0, 287357.56, 0.032013185, 10.002474, 9.997958 
2.488583e+3, 1.7327666e+2, -1295773.5, -1435456.3, 125889.34, -0.036550496, -0.009914761, -1221649.8, 20238.54, 0.0062260167, 10.000263, 9.998282 
2.4882688e+3, 1.8327132e+2, -1307712.3, -1338396.8, 16910.197, -0.14607787, 0.0875293, -1300221.6, -156275.81, 0.00043419475, 9.999066, 9.998976 
2.487954e+3, 1.932657e+2, -875498.75, -957927.44, -24504.842, -0.11312925, -0.019481698, -868764.1, 177232.02, 0.0000058323185, 10.000999, 9.999882 
2.4876393e+3, 2.032599e+2, -818976.44, -1198037.6, -54933.24, -0.043081336, 0.0112895435, -811176.06, 136876.52, 0.000000000090419006, 10.00198, 9.9971485 
2.4873252e+3, 2.1325356e+2, -660542.7, -1041388.2, -11472.511, 0.16744657, 0.08425091, -660197.44, 189925.45, 0.0, 10.002376, 9.997271 
2.4870093e+3, 2.2324717e+2, -468909.34, -819944.75, -50240.37, 0.21494155, 0.16839197, -461860.47, 290330.38, 0.0, 10.002556, 9.998119 
2.4866894e+3, 2.3324081e+2, -248147.63, -546536.94, -111875.9, -0.003632106, 0.086394295, -210861.02, 443391.47, 0.0, 10.003069, 9.999003 
2.4863715e+3, 2.4323483e+2, -195696.98, -428136.5, -20907.99, -0.18473011, 0.051547892, -193831.28, 362477.53, 0.0, 10.002436, 9.999525 
2.4860576e+3, 2.5322998e+2, -446731.7, -395919.22, -21706.184, -0.25685805, -0.02060167, -387909.38, 70442.89, 0.0, 9.999721, 10.000292 
2.4857451e+3, 2.6322508e+2, -643971.8, -690975.56, -54949.805, -0.21042426, 0.018805722, -607709.0, -247310.11, 0.0, 9.998593, 9.998241 
2.4854349e+3, 2.732202e+2, -163536.77, -346171.75, -37616.7, 0.11800015, 0.11308454, -156092.42, 106357.39, 0.0, 10.001131, 9.998614 
2.485123e+3, 2.8321463e+2, 9133.215, -329936.56, 86271.76, 0.18026389, 0.2007724, 29821.602, 194329.4, 0.0, 10.001963, 9.997765 
2.4848074e+3, 2.9320663e+2, -160980.86, -252861.33, 118772.016, -0.3208574, 0.0038982306, -79573.945, -12986.049, 0.0, 9.999881, 9.998504 
2.4844988e+3, 3.032007e+2, -286655.94, -362904.13, 151975.28, -0.11510701, 0.05414285, -168095.84, -168095.84, 0.0, 9.9988, 9.998051 
2.4841855e+3, 3.1319693e+2, 106243.836, 339976.66, -10943.439, -0.32578596, 0.19682795, 340487.94, 340487.94, 0.0, 9.999193, 10.002632 
2.500156e+3, 1.2362025e+2, -1993450.0, -1547497.9, 231062.8, 0.08599203, 0.27026236, -1449369.0, 279153.9, 0.42027465, 9.996054, 10.004176 
2.4998382e+3, 1.3361824e+2, -1892724.3, -1908683.3, -84590.195, -0.10127039, 0.60608417, -1815738.0, -185188.17, 0.30251706, 9.998824, 9.998445 
2.4995212e+3, 1.4360641e+2, -1483455.8, -1498141.5, -10485.18, -0.18580876, -0.008451004, -1477998.0, 54667.605, 0.18302314, 10.000035, 10.000186 
2.4992096e+3, 1.5360354e+2, -1040302.8, -1069995.1, -4440.906, 0.080158174, -0.025834423, -1039652.8, 395028.13, 0.08629053, 10.001995, 10.00157 
2.4988967e+3, 1.6359988e+2, -1177476.1, -1564801.6, -27030.264, 0.266341, 0.111041814, -1175598.9, 161113.94, 0.028287582, 10.002204, 9.997231 
2.4985804e+3, 1.7359425e+2, -1236432.4, -1531925.9, -27135.268, 0.10625071, 0.22880176, -1233961.1, 4817.8076, 0.0050760456, 10.001149, 9.997206 
2.4982654e+3, 1.8358739e+2, -1249796.6, -1379426.9, 30821.67, 0.07924376, 0.25965318, -1242841.5, -101991.445, 0.00028139996, 9.999885, 9.998277 
2.4979536e+3, 1.9357906e+2, -926591.56, -1008232.44, 9326.829, 0.23733877, -0.098626405, -925539.6, 117383.16, 0.0000014559199, 10.0009, 9.999547 
2.4976392e+3, 2.0357159e+2, -938147.06, -1194355.1, -57414.59, 0.2440038, -0.23260376, -925869.2, 19122.326, 0.0, 10.001013, 9.997633 
2.4973203e+3, 2.1356581e+2, -720729.0, -914609.94, -31915.559, -0.083340295, -0.24028036, -715610.4, 131441.88, 0.0, 10.001476, 9.99852 
2.4970022e+3, 2.2356069e+2, -789432.94, -1134826.3, -74267.305, -0.23118882, -0.04164149, -774140.9, -25032.766, 0.0, 10.001173, 9.996624 
2.496686e+3, 2.3355624e+2, -488905.22, -815788.9, -109051.836, -0.1459306, 0.19194116, -455864.13, 195295.25, 0.0, 10.002166, 9.997555 
2.4963704e+3, 2.4355078e+2, -519247.28, -729875.75, -110652.51, -0.055015404, 0.3380705, -471803.3, 81412.43, 0.0, 10.000927, 9.99817 
2.4960552e+3, 2.535435e+2, -615251.2, -560744.8, -131759.6, 0.017171571, 0.083704956, -453449.38, 1832.8398, 0.0, 9.999035, 9.999449 
2.495741e+3, 2.6353678e+2, -800781.1, -770399.06, 5093.4756, 0.0005758419, -0.0072351447, -769567.9, -412222.66, 0.0, 9.997669, 9.998115 
2.4954289e+3, 2.7353042e+2, -208282.53, -306309.0, 71277.59, -0.097745486, -0.13325201, -170792.63, 88615.79, 0.0, 10.000625, 9.999112 
2.4951175e+3, 2.8352535e+2, -180926.95, -386026.13, 21798.914, -0.121350616, -0.024680782, -178635.66, -17175.38, 0.0, 10.000653, 9.9979725 
2.4948044e+3, 2.935224e+2, -255017.34, -206808.45, 56737.99, -0.14717938, 0.16743164, -169266.95, -105773.78, 0.0, 9.99894, 9.999223 
2.4944942e+3, 3.0351847e+2, -488909.13, -373621.7, 154718.48, -0.052770436, 0.35067132, -266157.53, -266157.53, 0.0, 9.997236, 9.998682 
2.4941814e+3, 3.1351224e+2, -202422.34, 167303.45, 146243.2, -0.326693, 0.123176485, 218155.14, 218155.14, 0.0, 9.997537, 10.002125 
2.5101465e+3, 1.2392754e+2, -2388095.3, -1992057.3, 183572.47, -0.11564157, -0.4618328, -1920057.0, -194559.61, 0.39734322, 9.994942, 10.000442 
2.509837e+3, 1.3393067e+2, -1622433.5, -1717699.3, 109161.43, 0.21040556, 0.34518945, -1550965.1, 76512.57, 0.28406283, 10.000551, 9.998966 
2.5095206e+3, 1.4391948e+2, -1231821.8, -1505698.5, 58391.906, -0.059575934, -0.16028063, -1219892.0, 309699.44, 0.16993596, 10.002786, 9.998771 
2.5092086e+3, 1.5391576e+2, -1030769.8, -1236228.9, -23082.459, 0.12724571, -0.093913265, -1028208.5, 403413.78, 0.078587286, 10.002822, 9.999914 
2.5088948e+3, 1.6391142e+2, -1063772.1, -1409105.0, -115492.24, 0.22405834, 0.033322524, -1028707.56, 304954.97, 0.024857625, 10.002546, 9.998138 
2.508579e+3, 1.739054e+2, -838383.3, -1209455.4, -44688.453, 0.15041313, 0.0077713174, -833077.4, 402648.38, 0.0041356636, 10.003317, 9.998401 
2.5082633e+3, 1.8389915e+2, -786967.6, -1122561.4, 9008.051, 0.09219267, 0.033281785, -786726.0, 351062.22, 0.00018434241, 10.002876, 9.998597 
2.50795e+3, 1.938929e+2, -805607.2, -988834.06, 10268.665, 0.18736641, -0.075527065, -805033.44, 234812.25, 0.00000026313862, 10.001854, 9.999246 
2.5076348e+3, 2.0388652e+2, -901640.4, -1154410.3, -87493.44, 0.11468623, -0.07760748, -874310.44, 67597.336, 0.0, 10.001092, 9.997886 
2.507316e+3, 2.1388012e+2, -787288.0, -976050.0, -115880.09, -0.17133561, -0.11441181, -732216.75, 111759.26, 0.0, 10.001054, 9.998372 
2.5069985e+3, 2.2387423e+2, -756534.8, -1066338.6, -170747.56, -0.28750136, -0.00061357603, -680895.3, 65143.55, 0.0, 10.001008, 9.997227 
2.5066835e+3, 2.3386885e+2, -652738.9, -900642.0, -146419.06, -0.097621396, 0.13260616, -584850.56, 63245.793, 0.0, 10.000903, 9.997655 
2.506368e+3, 2.4386321e+2, -509976.97, -727403.4, -123313.305, 0.047314644, 0.2653066, -454298.16, 95855.97, 0.0, 10.0008745, 9.998234 
2.5060523e+3, 2.5385633e+2, -320332.9, -495903.8, -147663.69, 0.14761938, 0.12658085, -236331.14, 215888.64, 0.0, 10.001255, 9.998894 
2.5057372e+3, 2.638499e+2, -252243.19, -423598.3, 42850.887, 0.10535095, 0.0790099, -242124.9, 112156.45, 0.0, 10.000977, 9.998929 
2.5054246e+3, 2.7384406e+2, -288184.84, -309564.72, 77060.74, -0.13110226, -0.014778905, -221076.11, 35262.707, 0.0, 9.99985, 9.999515 
2.5051126e+3, 2.8383893e+2, -244373.9, -348086.1, -7861.61, -0.19236784, 0.051187046, -243781.38, -85391.75, 0.0, 9.999752, 9.998709 
2.5048015e+3, 2.938354e+2, 143149.77, -24661.357, -45049.64, -0.00612241, 0.17385267, 154478.73, 214904.36, 0.0, 10.001459, 9.999368 
2.504491e+3, 3.038319e+2, 87151.375, -10396.302, 22468.705, 0.1699198, 0.35415044, 92077.91, 92077.91, 0.0, 10.000631, 9.99959 
2.5041783e+3, 3.1382608e+2, -254589.64, 137787.27, -27166.83, 0.061703324, 0.12462008, 139659.28, 139659.28, 0.0, 9.9969, 10.002308 
2.5201413e+3, 1.2424099e+2, -1940690.0, -2047945.4, 27151.54, 0.1910601, -0.526317, -1934208.4, -211793.63, 0.3720952, 9.999115, 9.998038 
2.5198352e+3, 1.3424121e+2, -1523269.6, -1618373.4, 37539.77, 0.42692843, -0.05729787, -1510237.6, 114186.94, 0.26429757, 10.001144, 9.999326 
2.519522e+3, 1.4423284e+2, -1514850.9, -1833055.8, -102609.26, 0.2711864, -0.24152574, -1484632.8, 41881.254, 0.15642525, 10.001319, 9.9971285 
2.5192073e+3, 1.5422761e+2, -1356161.1, -1611819.0, -123152.82, 0.22437134, -0.16070513, -1306488.4, 122079.28, 0.071005836, 10.001512, 9.997784 
2.5188926e+3, 1.6422199e+2, -1193722.0, -1356077.5, -112426.78, 0.25875795, -0.08462852, -1136228.9, 194393.28, 0.021693112, 10.001237, 9.999114 
2.518578e+3, 1.7421538e+2, -932357.6, -1051035.8, -83934.03, 0.23537952, -0.33034956, -888905.44, 343777.0, 0.00335279, 10.001974, 10.000085 
2.5182623e+3, 1.8421054e+2, -994005.5, -1274539.9, -69048.125, 0.18204226, -0.24046984, -977931.6, 156797.36, 0.00011963712, 10.001709, 9.998099 
2.5179458e+3, 1.9420749e+2, -901709.5, -1091878.1, -73963.69, 0.04836812, -0.013036227, -876329.5, 160433.11, 0.00000002568285, 10.001427, 9.998719 
2.5176293e+3, 2.0420276e+2, -1072244.9, -1378106.1, -103179.85, -0.035557214, 0.22291467, -1040692.75, -101877.516, 0.0, 10.000563, 9.996599 
2.5173122e+3, 2.1419528e+2, -942506.8, -1158554.4, -129518.58, -0.12695305, 0.14963749, -881876.5, -40978.18, 0.0, 10.000461, 9.997384 
2.516996e+3, 2.2418782e+2, -924883.44, -1112799.8, -154830.73, -0.09843648, 0.15087602, -837732.0, -94756.7, 0.0, 9.999852, 9.997414 
2.5166807e+3, 2.3418018e+2, -649135.8, -801800.5, -145823.58, 0.05097186, -0.048748266, -560874.25, 84172.25, 0.0, 10.000629, 9.998418 
2.516365e+3, 2.4417397e+2, -692699.1, -904260.94, -117456.07, 0.15848547, 0.028106647, -640411.94, -93304.86, 0.0, 10.0001545, 9.997342 
2.516049e+3, 2.5416905e+2, -481868.0, -633840.94, -136495.88, 0.19710667, 0.120568655, -401633.25, 47526.25, 0.0, 10.000545, 9.998246 
2.5157338e+3, 2.6416466e+2, -473217.47, -585702.5, 1680.4623, 0.121942185, 0.3387129, -473192.38, -121987.13, 0.0, 9.9998455, 9.998322 
2.51542e+3, 2.741607e+2, -398401.25, -356445.13, 30067.025, -0.09390756, 0.40794364, -340761.13, -87516.77, 0.0, 9.999211, 9.999425 
2.5151083e+3, 2.8415433e+2, -440202.1, -484477.22, 31012.795, -0.14448406, 0.36719406, -424236.3, -268931.13, 0.0, 9.9987755, 9.998193 
2.5147992e+3, 2.9414493e+2, 28961.574, -97175.52, 41521.543, 0.05920819, -0.08942167, 41402.5, 98794.83, 0.0, 10.000918, 9.999067 
2.5144884e+3, 3.0414024e+2, -37052.92, -61914.883, -123396.016, 0.25057277, -0.004594922, 74536.69, 74536.69, 0.0, 9.999903, 9.999537 
2.514168e+3, 3.141351e+2, -487702.34, 54096.273, -66032.95, -0.31280842, -0.23440835, 62028.07, 62028.07, 0.0, 9.995399, 10.00238 
2.5301385e+3, 1.24553554e+2, -1440515.8, -1643180.9, 13618.048, -0.03337538, 0.01349325, -1439604.8, 279762.03, 0.34545994, 10.0029955, 9.999219 
2.5298297e+3, 1.345478e+2, -1546184.9, -1715263.4, -158373.05, 0.18366201, -0.06297483, -1451200.0, 170236.1, 0.24384509, 10.001285, 9.998694 
2.5295162e+3, 1.4454451e+2, -1680327.1, -1680186.9, -268904.34, 0.074406505, 0.18778226, -1411352.6, 112121.94, 0.14280653, 9.999197, 9.999231 
2.529202e+3, 1.545396e+2, -1421996.1, -1408671.3, -160802.17, 0.10880573, 0.085821226, -1254393.5, 171127.56, 0.06363834, 10.0000105, 9.999927 
2.5288883e+3, 1.6453448e+2, -1285083.4, -1343166.4, -128030.18, 0.1520366, 0.07939715, -1182842.3, 144726.34, 0.0187796, 10.000261, 9.999691 
2.5285736e+3, 1.7452878e+2, -1090306.0, -1112172.6, -124722.38, 0.12837353, -0.10199757, -976038.6, 253581.63, 0.0026956536, 10.000657, 10.000356 
2.528258e+3, 1.8452382e+2, -1070966.0, -1241021.5, -145327.23, 0.054874655, -0.06685024, -987619.94, 144047.84, 0.00007576087, 10.000869, 9.998712 
2.5279424e+3, 1.9451946e+2, -827719.44, -1024210.56, -124612.68, -0.015112023, 0.0056272754, -767281.3, 266432.47, 0.00000000011876218, 10.001737, 9.999052 
2.5276262e+3, 2.0451482e+2, -803925.9, -1117619.8, -152762.48, -0.06072484, 0.18435507, -741826.8, 193937.58, 0.0, 10.001761, 9.997812 
2.5273097e+3, 2.1450932e+2, -765093.8, -994509.44, -95682.04, -0.052662283, 0.24455613, -730426.44, 107399.4, 0.0, 10.0012245, 9.998183 
2.5269935e+3, 2.2450289e+2, -584625.5, -836104.2, -31154.475, -0.039394375, 0.2681472, -580823.44, 159066.73, 0.0, 10.00159, 9.998493 
2.526678e+3, 2.3449507e+2, -195502.77, -541112.3, -24390.787, 0.047758218, 0.03154175, -193789.92, 448170.2, 0.0, 10.003408, 9.9989395 
2.526362e+3, 2.4448827e+2, -219024.38, -660165.44, -96682.305, 0.11074791, 0.028126491, -198765.45, 345259.88, 0.0, 10.003223, 9.997556 
2.5260445e+3, 2.544828e+2, -446681.06, -663236.2, -106530.17, 0.15223622, 0.1325178, -403061.6, 43022.2, 0.0, 10.0008955, 9.997905 
2.5257295e+3, 2.644776e+2, -417182.38, -610012.5, 88120.734, 0.09774783, 0.31967434, -382979.2, -34840.49, 0.0, 10.000303, 9.9979725 
2.5254166e+3, 2.744723e+2, -71062.336, -311696.34, 33647.69, -0.01925973, 0.3646944, -66445.96, 183746.9, 0.0, 10.001774, 9.998569 
2.5251055e+3, 2.8446597e+2, -33651.797, -191557.44, -1437.8239, -0.018547626, 0.3398516, -33638.707, 118615.06, 0.0, 10.001096, 9.999071 
2.524795e+3, 2.9445755e+2, -322383.0, -224734.84, 16002.463, 0.090844065, -0.04920259, -222179.27, -167847.83, 0.0, 9.998253, 9.999507 
2.5244826e+3, 3.0445206e+2, -347613.63, -235209.94, -147295.36, 0.25824103, -0.041290462, -133758.45, -133758.45, 0.0, 9.997773, 9.9994135 
2.5241628e+3, 3.1444877e+2, 81702.21, 282097.1, -206947.13, -0.09582111, 0.008283971, 411827.13, 411827.13, 0.0, 9.999347, 10.002136 
2.5401375e+3, 1.24862336e+2, -1538935.3, -1620541.6, 111493.8, -0.013953424, 0.20383675, -1461012.8, 255343.1, 0.31815657, 10.001531, 10.000066 
2.5398248e+3, 1.3485602e+2, -1752094.1, -1839942.3, -97070.945, 0.09712934, 0.075223215, -1689472.0, -71039.555, 0.22319712, 9.9997225, 9.9984665 
2.5395086e+3, 1.4485607e+2, -1521897.4, -1356337.6, -52234.086, -0.1322971, 0.57435155, -1341235.4, 179200.92, 0.12934339, 9.999068, 10.001643 
2.5391972e+3, 1.5485185e+2, -1169951.4, -1045324.4, -60676.84, 0.07066877, 0.31123137, -1020662.9, 401808.34, 0.05657354, 10.000672, 10.002269 
2.538884e+3, 1.6484784e+2, -1241587.5, -1328084.0, -75382.3, 0.17281394, 0.3142401, -1197928.4, 126578.555, 0.016116831, 10.000649, 9.9995775 
2.538568e+3, 1.7484365e+2, -1130503.6, -1154077.3, -108841.516, 0.022575086, 0.27500477, -1032812.56, 193734.36, 0.0021455006, 10.000494, 10.000129 
2.538253e+3, 1.8483816e+2, -1161670.3, -1274686.6, -93471.13, -0.02593467, 0.26850945, -1108953.8, 19646.68, 0.000046550977, 10.000228, 9.998798 
2.5379395e+3, 1.9483086e+2, -913787.4, -1034549.0, -101219.03, 0.019661011, 0.00043255373, -856307.56, 174365.06, 0.0, 10.001034, 9.999329 
2.537624e+3, 2.0482597e+2, -877454.6, -1014039.56, -182960.03, 0.070876494, 0.08703659, -750457.0, 182265.34, 0.0, 10.00079, 9.998939 
2.5373068e+3, 2.1482314e+2, -786325.4, -835975.9, -166215.33, 0.05581334, 0.24040675, -643091.6, 191661.2, 0.0, 10.000479, 9.999576 
2.5369906e+3, 2.2481865e+2, -775374.06, -912832.3, -12456.016, 0.03747885, 0.38593805, -774254.5, -37459.492, 0.0, 10.000348, 9.998538 
2.536676e+3, 2.3481183e+2, -429128.25, -606404.8, 5407.543, -0.02381486, 0.19240037, -428963.47, 209891.38, 0.0, 10.001752, 9.999233 
2.5363588e+3, 2.4480496e+2, -533723.44, -887020.0, -212946.23, -0.012665455, 0.20885791, -433693.72, 107226.06, 0.0, 10.001541, 9.996757 
2.536039e+3, 2.5479746e+2, -569426.06, -764392.0, -208507.4, 0.008711723, 0.11141441, -436738.97, 6257.186, 0.0, 10.00033, 9.997434 
2.5357243e+3, 2.647891e+2, -673423.8, -943305.06, 132533.9, 0.03460695, 0.10953434, -619223.75, -274142.63, 0.0, 9.999596, 9.995979 
2.535415e+3, 2.7477977e+2, -319875.34, -612272.94, 97646.375, 0.08845716, -0.11835983, -290264.84, -43088.336, 0.0, 10.000963, 9.996855 
2.5351027e+3, 2.847752e+2, -176942.14, -220837.55, -120798.57, 0.05722677, 0.11496272, -76113.65, 73109.81, 0.0, 10.000047, 9.999359 
2.5347868e+3, 2.9477417e+2, -409946.75, -177475.95, -71710.94, -0.10118701, 0.3604383, -157134.9, -105900.375, 0.0, 9.997366, 10.000229 
2.5344735e+3, 3.0476812e+2, -615128.56, -484423.1, -71153.3, 0.014455962, 0.33626816, -453164.38, -453164.38, 0.0, 9.996632, 9.998199 
2.5341615e+3, 3.1476197e+2, -64864.715, 249104.94, -61793.242, 0.15804961, 0.18211207, 260828.86, 260828.86, 0.0, 9.9983425, 10.002357 
2.5501305e+3, 1.2517384e+2, -1822261.4, -1927909.4, 352312.94, -0.4262009, -0.15893392, -1518834.4, 194463.08, 0.29081753, 10.00005, 9.998623 
2.5498185e+3, 1.351724e+2, -1732655.5, -1660858.3, 144521.92, -0.040257864, 0.078638345, -1547843.3, 67477.54, 0.2027681, 9.999127, 10.000075 
2.549502e+3, 1.4517006e+2, -1530960.6, -1478657.8, 244119.31, -0.36827686, 0.3412794, -1259293.1, 258053.38, 0.11625642, 9.999632, 10.0005 
2.5491962e+3, 1.5516399e+2, -1085463.9, -1152737.6, 164826.39, 0.2626003, 0.04661152, -950877.1, 468525.22, 0.04988728, 10.001886, 10.000911 
2.5488833e+3, 1.6515948e+2, -1084271.5, -1305180.1, -27426.285, 0.35447696, 0.11023085, -1080917.4, 240530.08, 0.013707004, 10.001979, 9.999099 
2.5485638e+3, 1.7515588e+2, -1105757.1, -1215935.4, -44931.363, -0.060298476, 0.22180414, -1089757.3, 133730.27, 0.0016894786, 10.000969, 9.999497 
2.548248e+3, 1.8515131e+2, -1092892.9, -1213954.1, -20682.914, -0.19842651, 0.33675373, -1089456.8, 36079.21, 0.000027889511, 10.000526, 9.999082 
2.5479352e+3, 1.9514528e+2, -940568.5, -1053572.9, -20960.395, -0.042816576, 0.21265905, -936806.0, 90791.35, 0.0, 10.000817, 9.999334 
2.5476205e+3, 2.0513967e+2, -862524.7, -1021531.7, -186707.28, 0.057534985, 0.24221681, -739098.6, 190554.0, 0.0, 10.000895, 9.998848 
2.5473034e+3, 2.1513422e+2, -719671.0, -864528.3, -236312.28, 0.09267801, 0.19672993, -544936.94, 286767.5, 0.0, 10.001081, 9.999133 
2.5469875e+3, 2.2512907e+2, -753444.3, -812051.4, -169724.73, 0.11926398, 0.25086597, -610512.0, 123239.46, 0.0, 10.000053, 9.999381 
2.5466725e+3, 2.3512366e+2, -936565.06, -816873.75, -150347.1, 0.1370519, 0.16718337, -714899.3, -79100.055, 0.0, 9.9980545, 9.999599 
2.5463554e+3, 2.4511753e+2, -820982.0, -986355.25, -281456.72, 0.079139575, 0.20951504, -610317.4, -72459.07, 0.0, 9.999239, 9.997258 
2.5460356e+3, 2.5511014e+2, -133677.81, -574456.3, -273528.34, -0.04543523, 0.14091334, -2799.1082, 437134.78, 0.0, 10.003203, 9.997468 
2.545721e+3, 2.6510206e+2, -31750.752, -484012.72, 60306.227, -0.036438376, 0.09139638, -23847.416, 318167.1, 0.0, 10.003259, 9.997409 
2.5454113e+3, 2.7509317e+2, -414210.5, -586954.9, 153019.6, 0.12502432, -0.13123284, -324869.44, -80767.56, 0.0, 9.999902, 9.997607 
2.5450978e+3, 2.850888e+2, -344106.34, -305846.78, 6195.4375, 0.07741416, 0.09765681, -304868.53, -158720.7, 0.0, 9.998764, 9.9994545 
2.5447792e+3, 2.9508856e+2, -78528.98, -65869.09, -78469.5, -0.22289038, 0.4926742, 6525.36, 54681.33, 0.0, 9.999727, 9.99993 
2.5444672e+3, 3.0508235e+2, -100264.336, -198567.11, -14270.874, 0.04366323, 0.44480374, -98234.51, -98234.51, 0.0, 9.99981, 9.998717 
2.5441554e+3, 3.150728e+2, -123649.44, 52215.12, -75899.75, 0.1460367, 0.009439379, 80441.6, 80441.6, 0.0, 9.998379, 10.001101 
2.5601324e+3, 1.2549192e+2, -1776153.9, -1655751.1, -231014.88, 0.19817929, -0.06545972, -1477222.4, 232951.75, 0.26403108, 9.999116, 10.001071 
2.5598118e+3, 1.354895e+2, -1564298.0, -1527715.1, -45422.6, -0.17201278, -0.0117088305, -1497039.4, 115160.17, 0.18292536, 10.000112, 10.000583 
2.5594977e+3, 1.4548455e+2, -1578704.3, -1706790.8, 173861.83, -0.3387191, 0.06758349, -1457465.4, 56783.375, 0.1037245, 10.000183, 9.998535 
2.5591958e+3, 1.5547642e+2, -1355219.1, -1516421.9, 98031.25, 0.51656765, -0.27046534, -1308908.4, 107419.97, 0.043632858, 10.000967, 9.998754 
2.5588825e+3, 1.6547114e+2, -1279298.9, -1469994.1, -106374.85, 0.59564805, -0.15125479, -1231794.3, 86591.47, 0.011545959, 10.001016, 9.998386 
2.5585598e+3, 1.754677e+2, -1194905.5, -1350117.0, -122144.336, -0.06681349, 0.033953834, -1127798.1, 92631.21, 0.0013158798, 10.000835, 9.9986 
2.5582427e+3, 1.8546438e+2, -1099525.3, -1236175.3, -31915.639, -0.27033883, 0.33459133, -1092438.6, 30030.424, 0.000016496271, 10.000684, 9.998832 
2.557931e+3, 1.9546062e+2, -976375.7, -1119879.6, -70350.195, -0.08331749, 0.44275433, -947641.4, 76869.61, 0.0, 10.000855, 9.998862 
2.5576168e+3, 2.0545392e+2, -1011671.25, -1216149.5, -198334.4, 0.07406728, 0.45716184, -890775.06, 35800.83, 0.0, 10.000524, 9.997668 
2.5572997e+3, 2.1544437e+2, -942426.8, -1096973.0, -221317.27, 0.14243084, 0.09651077, -785280.5, 43383.453, 0.0, 10.000222, 9.997928 
2.5569838e+3, 2.2543783e+2, -862685.6, -859329.4, -219550.34, 0.27978548, 0.08138124, -641450.7, 89273.49, 0.0, 9.999392, 9.999327 
2.5566688e+3, 2.3543309e+2, -979219.4, -834230.75, -227367.98, 0.43610775, 0.018492734, -668079.7, -35311.84, 0.0, 9.997834, 9.999542 
2.5563523e+3, 2.4542794e+2, -926064.06, -1022258.2, -132012.27, 0.3309026, 0.16554393, -833660.0, -298839.94, 0.0, 9.998585, 9.997273 
2.556034e+3, 2.5542173e+2, -308213.94, -637839.4, -119897.375, -0.041237935, 0.16611223, -269216.4, 167670.34, 0.0, 10.002043, 9.997545 
2.5557184e+3, 2.6541674e+2, -74340.1, -225632.0, -71520.11, -0.12206183, 0.30844977, -45883.043, 293051.38, 0.0, 10.00194, 9.999733 
2.5554058e+3, 2.7541193e+2, -366692.4, -309715.97, 34574.465, 0.04006988, 0.20531791, -293404.94, -52429.77, 0.0, 9.99925, 9.99977 
2.5550908e+3, 2.8540578e+2, -585073.0, -629177.3, 19694.395, -0.02672796, 0.25760052, -577558.9, -434522.13, 0.0, 9.998137, 9.9974785 
2.5547734e+3, 2.9539925e+2, -321579.13, -414444.97, -42890.88, -0.31822652, 0.18675074, -304800.94, -259691.8, 0.0, 9.999147, 9.997762 
2.5544637e+3, 3.053933e+2, -208947.83, -290527.28, -101250.14, 0.12699649, 0.3074831, -140579.9, -140579.9, 0.0, 9.999441, 9.998153 
2.5541505e+3, 3.1538948e+2, -184766.44, 137380.61, -134567.66, 0.20282343, 0.4115959, 186195.47, 186195.47, 0.0, 9.997736, 10.001871 
2.5701243e+3, 1.2580636e+2, -1941516.0, -1784641.6, -199375.47, -0.1112663, 0.24552228, -1648829.0, 58275.813, 0.23823552, 9.998143, 10.000366 
2.5698105e+3, 1.3579902e+2, -1544444.9, -1593752.5, -166433.92, 0.0486289, -0.12136588, -1400848.8, 208320.64, 0.16394834, 10.000697, 9.999817 
2.5694972e+3, 1.457932e+2, -1484177.3, -1586422.4, -14431.581, -0.034239046, -0.1387586, -1482179.4, 29045.688, 0.09188186, 10.000485, 9.999214 
2.569188e+3, 1.5578954e+2, -1474929.1, -1527369.8, -1659.4209, 0.088957764, -0.07917579, -1474876.8, -61613.184, 0.03784501, 9.999854, 9.999249 
2.568874e+3, 1.657853e+2, -1348200.1, -1430035.4, -152664.86, 0.12220432, 0.08167052, -1231064.5, 84245.25, 0.009625426, 10.000211, 9.999048 
2.5685573e+3, 1.7578022e+2, -1077028.4, -1271038.9, -101085.055, -0.029463343, 0.072774135, -1033932.94, 183433.58, 0.0010124295, 10.001498, 9.998847 
2.568242e+3, 1.8577541e+2, -913619.9, -1198978.6, -64379.496, -0.09672302, 0.24198702, -899767.7, 219652.16, 0.000009793076, 10.002143, 9.998395 
2.567929e+3, 1.957704e+2, -780108.6, -1091260.5, -99490.78, -0.017753933, 0.31298926, -751016.56, 270458.06, 0.0, 10.002391, 9.998358 
2.567613e+3, 2.057645e+2, -663841.9, -845482.9, -224778.7, 0.02513359, 0.32557374, -512229.25, 411300.22, 0.0, 10.0019455, 9.999553 
2.5672954e+3, 2.1575741e+2, -687053.7, -838471.4, -113582.93, 0.058637, 0.085276455, -626260.1, 199329.56, 0.0, 10.0012665, 9.999253 
2.566979e+3, 2.2575085e+2, -610884.9, -867647.25, -93455.305, 0.16395351, 0.07400948, -580471.75, 147180.39, 0.0, 10.001528, 9.998286 
2.566664e+3, 2.3574454e+2, -397979.06, -706035.44, -169369.48, 0.34092808, 0.022692846, -323073.4, 306644.03, 0.0, 10.002295, 9.998343 
2.566348e+3, 2.4573925e+2, -364790.2, -537048.3, -65231.13, 0.29811478, 0.11456177, -342876.13, 188894.2, 0.0, 10.001435, 9.999229 
2.566031e+3, 2.557343e+2, -569873.2, -598705.5, 15438.449, 0.05660774, 0.11684163, -563166.6, -129347.12, 0.0, 9.999438, 9.999088 
2.565715e+3, 2.657301e+2, -446694.1, -389405.88, -22792.777, -0.082047164, 0.2575235, -381444.03, -45585.027, 0.0, 9.999173, 9.99996 
2.5654e+3, 2.7572587e+2, -192572.97, -242101.3, -104375.266, -0.07325763, 0.23996687, -110064.305, 127832.4, 0.0, 10.000351, 9.999734 
2.5650853e+3, 2.8571957e+2, -182486.63, -440065.28, -76713.42, -0.08956518, 0.25936624, -161370.52, -21411.215, 0.0, 10.000825, 9.997487 
2.5647706e+3, 2.9571173e+2, -118845.53, -378238.88, -44552.01, -0.14819825, 0.11702431, -111406.836, -69364.88, 0.0, 10.000672, 9.997305 
2.5644583e+3, 3.0570439e+2, -182469.8, -311783.6, -41340.04, 0.10091294, 0.13513194, -170383.53, -170383.53, 0.0, 9.999612, 9.997976 
2.5641418e+3, 3.1570172e+2, -229003.7, -74149.61, -371149.75, -0.016807742, 0.45492268, 227563.28, 227563.28, 0.0, 9.99801, 10.000357 
2.5801188e+3, 1.2612118e+2, -1940179.5, -1922600.1, 5328.0566, -0.070254035, 0.76369435, -1921111.4, -217082.98, 0.21373183, 9.998647, 9.999086 
2.5798103e+3, 1.361076e+2, -1467329.8, -1586562.9, -60291.152, 0.43160576, -0.23074834, -1442157.4, 163991.9, 0.14603193, 10.001347, 9.999477 
2.5794968e+3, 1.4610185e+2, -1350906.4, -1412746.5, 24078.424, 0.31948134, -0.2727684, -1342636.9, 165566.97, 0.080827504, 10.0010605, 10.000163 
2.5791782e+3, 1.561032e+2, -1420889.0, -1430856.0, -34792.023, -0.36650115, 0.20357181, -1390725.4, 19470.514, 0.032553293, 9.999986, 9.999829 
2.578865e+3, 1.660999e+2, -1288849.4, -1337015.9, -96146.09, -0.33645743, 0.40650767, -1213816.1, 98415.34, 0.007938516, 10.000371, 9.999565 
2.578555e+3, 1.76093e+2, -1073940.6, -1240415.3, -89755.195, 0.11303455, 0.13508403, -1034767.0, 179534.45, 0.00076767127, 10.001431, 9.999053 
2.5782424e+3, 1.8608612e+2, -1033002.4, -1338382.6, -40883.434, 0.2324301, 0.13524064, -1027623.75, 88749.25, 0.000005913737, 10.00178, 9.997565 
2.577928e+3, 1.9607887e+2, -993946.44, -1243410.8, -80712.32, 0.1459085, 0.03453922, -970110.1, 48338.906, 0.0, 10.001275, 9.9977865 
2.5776103e+3, 2.0607479e+2, -669149.1, -605367.3, -218092.48, 0.06081431, 0.13979656, -416846.4, 503637.16, 0.0, 10.00093, 10.0016575 
2.5772905e+3, 2.1607198e+2, -727439.1, -680574.9, -160811.22, -0.037784625, 0.077003695, -541497.56, 281000.6, 0.0, 10.000282, 10.000785 
2.5769737e+3, 2.2606592e+2, -931133.4, -1241597.3, -68312.95, -0.021052912, 0.16465922, -916766.94, -192207.8, 0.0, 10.000488, 9.996155 
2.576658e+3, 2.3605724e+2, -705293.7, -1050013.8, -127943.86, 0.067090586, 0.06551691, -662996.75, -36341.707, 0.0, 10.001211, 9.996453 
2.5763428e+3, 2.4605177e+2, -367028.75, -291045.0, -123404.29, 0.14804961, 0.1164421, -199916.77, 328789.75, 0.0, 10.000516, 10.0013075 
2.5760272e+3, 2.5604764e+2, -590447.56, -434433.4, -53207.12, 0.20551567, -0.04267204, -418015.38, 12721.309, 0.0, 9.9986725, 10.000548 
2.5757104e+3, 2.660424e+2, -714899.44, -764331.75, 3757.4417, 0.028698053, 0.05857143, -714615.5, -381827.56, 0.0, 9.9985, 9.997692 
2.5753936e+3, 2.760363e+2, -484662.7, -613545.25, -51751.598, -0.272083, 0.04260915, -466454.66, -231600.44, 0.0, 9.999472, 9.997576 
2.5750807e+3, 2.8603142e+2, -194216.72, -277322.22, -62854.645, -0.16675477, 0.22848351, -160421.36, -23518.82, 0.0, 10.000128, 9.998905 
2.57477e+3, 2.9602626e+2, -129442.97, -251904.83, -7563.266, 0.13446765, 0.18733136, -128977.625, -90026.99, 0.0, 10.000124, 9.998425 
2.574451e+3, 3.0601683e+2, -249094.5, -288822.5, -74225.55, -0.14088652, -0.065869994, -192120.94, -192120.94, 0.0, 9.999054, 9.99836 
2.5741377e+3, 3.1601474e+2, -343706.0, -126971.586, 112668.14, 0.15030752, 0.2539711, -79013.62, -79013.62, 0.0, 9.997357, 10.000297 
2.5901142e+3, 1.2642835e+2, -1847996.3, -1806960.6, 201017.44, -0.12271172, -0.03499698, -1625416.6, 75577.586, 0.19077115, 9.999072, 9.999728 
2.5898066e+3, 1.3642223e+2, -1398289.3, -1630870.4, 151788.97, 0.28360575, -0.1930365, -1323364.3, 279691.97, 0.12932457, 10.00221, 9.998808 
2.5894928e+3, 1.4641634e+2, -1285038.5, -1472603.9, 57577.61, 0.17876509, -0.16326943, -1268774.0, 236344.69, 0.07062259, 10.00195, 9.999291 
2.5891754e+3, 1.5641388e+2, -1388096.4, -1512818.9, 12072.209, -0.29766962, 0.057738148, -1386938.6, 20210.85, 0.027766839, 10.000595, 9.998989 
2.5888622e+3, 1.6641042e+2, -1168987.1, -1242026.9, -22390.902, -0.2851212, 0.26344225, -1162669.5, 146518.03, 0.0064744665, 10.001, 9.999928 
2.5885528e+3, 1.7640544e+2, -928619.75, -1142822.0, -14065.147, 0.09117588, 0.18583873, -927700.1, 283538.78, 0.0005723583, 10.002202, 9.9993925 
2.5882396e+3, 1.8639944e+2, -890223.6, -1079816.6, -31585.1, 0.19501214, 0.16406535, -885100.2, 228197.86, 0.0000035552432, 10.001878, 9.999316 
2.587924e+3, 1.9639243e+2, -989274.1, -1105802.5, 42828.09, 0.10596498, -0.033202317, -975226.75, 40139.54, 0.0, 10.000587, 9.999117 
2.5876066e+3, 2.063882e+2, -781287.7, -713490.75, -128972.44, 0.08645013, 0.032813583, -614036.3, 303367.72, 0.0, 10.000349, 10.001218 
2.587288e+3, 2.1638551e+2, -673745.9, -713774.94, -174590.89, 0.11812005, 0.085117385, -518026.03, 301398.22, 0.0, 10.0007925, 10.00037 
2.5869712e+3, 2.2637989e+2, -702528.7, -952391.4, -34570.637, 0.104553334, 0.13941753, -697833.75, 23646.023, 0.0, 10.001217, 9.997797 
2.5866553e+3, 2.3637207e+2, -549717.6, -870493.06, 73528.69, 0.0746364, 0.033168554, -533666.44, 89895.01, 0.0, 10.001722, 9.997478 
2.586339e+3, 2.463661e+2, -274547.16, -420911.75, -55166.387, 0.10088889, 0.08099259, -256083.5, 269537.03, 0.0, 10.001754, 9.999867 
2.5860223e+3, 2.5636095e+2, -269424.13, -416092.06, -189635.64, 0.1708049, 0.0016477469, -139436.8, 288230.88, 0.0, 10.001332, 9.9994335 
2.5857058e+3, 2.6635522e+2, -240403.55, -403541.72, -48339.535, 0.016202195, 0.015305778, -227155.83, 102566.71, 0.0, 10.001123, 9.998927 
2.5853896e+3, 2.7634886e+2, -181682.89, -368994.88, 68062.805, -0.24783926, -0.07699432, -159563.28, 72223.0, 0.0, 10.0010195, 9.998562 
2.585077e+3, 2.8634462e+2, -57988.5, -58293.54, 85800.914, -0.120770544, 0.058786236, 27660.031, 161485.23, 0.0, 10.000317, 10.000347 
2.5847656e+3, 2.9634076e+2, -171155.25, -161801.4, 59022.973, 0.19707094, 0.06565157, -107270.34, -71412.62, 0.0, 9.999231, 9.999518 
2.5844452e+3, 3.0633143e+2, -140975.2, -205781.83, -51925.22, -0.14978084, -0.2388698, -112172.28, -112172.28, 0.0, 9.999587, 9.998713 
2.5841346e+3, 3.1632724e+2, -36071.707, 156654.98, -112205.4, 0.49147153, -0.105329745, 208196.84, 208196.84, 0.0, 9.998771, 10.001597 
2.6001117e+3, 1.2673752e+2, -1784899.3, -2008664.1, 101750.22, 0.07606261, -0.70326865, -1745550.8, -47606.813, 0.16949552, 10.00048, 9.997633 
2.599802e+3, 1.3673744e+2, -1608620.6, -1897862.4, 29946.627, 0.10897315, -0.14188315, -1605552.8, -5593.2173, 0.11391175, 10.001226, 9.997408 
2.599489e+3, 1.4673159e+2, -1458420.1, -1665281.3, -75864.5, 0.06366297, -0.002512251, -1433580.3, 68446.02, 0.061296463, 10.00122, 9.998243 
2.599174e+3, 1.5672402e+2, -1429684.4, -1670503.6, -90066.97, -0.015113811, -0.19706385, -1399726.0, 4381.299, 0.023481611, 10.000955, 9.997705 
2.5988615e+3, 1.6672042e+2, -1165280.5, -1226098.0, -2410.3994, -0.004033359, 0.042160723, -1165185.1, 140962.34, 0.005220199, 10.000986, 10.000068 
2.5985503e+3, 1.7671828e+2, -1124635.6, -1222065.5, -32741.514, 0.11222196, 0.23120913, -1114655.3, 93516.96, 0.00041937284, 10.000828, 9.999531 
2.5982356e+3, 1.8671387e+2, -946290.2, -874305.0, -85555.21, 0.12610397, 0.24211723, -817479.75, 292731.7, 0.0000020172258, 10.000548, 10.00133 
2.597919e+3, 1.967077e+2, -1077982.5, -1023239.2, -50636.035, 0.063344575, -0.08598527, -993050.3, 19213.84, 0.0, 9.999509, 10.000171 
2.597603e+3, 2.067029e+2, -1008466.56, -1025687.2, -134845.9, 0.20814542, -0.012371372, -881956.4, 32355.367, 0.0, 9.999779, 9.999305 
2.597287e+3, 2.166986e+2, -928112.0, -999838.3, -164319.03, 0.46470064, 0.040562388, -795788.06, 20570.078, 0.0, 9.99989, 9.99879 
2.5969705e+3, 2.2669385e+2, -592581.3, -582877.6, -28952.479, 0.41185796, 0.09847941, -558373.25, 160027.55, 0.0, 10.000694, 10.000554 
2.5966537e+3, 2.366881e+2, -589080.1, -728242.8, 26606.824, 0.22946317, -0.101150416, -584166.6, 36283.316, 0.0, 10.000847, 9.998843 
2.5963357e+3, 2.4668176e+2, -691034.0, -1070086.5, -97047.45, 0.10517365, 0.08649695, -667632.06, -145111.84, 0.0, 10.000946, 9.995766 
2.596017e+3, 2.5667462e+2, -655895.44, -964797.5, -183668.48, -0.00023435237, 0.18147212, -570368.94, -145763.7, 0.0, 10.000322, 9.996145 
2.5957015e+3, 2.6666853e+2, -147400.4, -5936.268, -46268.758, -0.067219295, 0.12652539, 7852.8037, 334511.7, 0.0, 10.000376, 10.001974 
2.5953874e+3, 2.766625e+2, -159306.05, -101699.375, 54256.527, -0.093424425, -0.26043734, -69074.68, 159627.4, 0.0, 10.000159, 10.000799 
2.5950733e+3, 2.8665835e+2, -158168.06, -77052.484, 18108.285, -0.058009345, -0.21242346, -73193.56, 57542.098, 0.0, 9.999608, 10.000536 
2.5947577e+3, 2.96655e+2, -369808.88, -297171.56, 10341.394, -0.0658598, -0.19134867, -295727.97, -262961.63, 0.0, 9.998175, 9.999069 
2.5944418e+3, 3.0664572e+2, -269863.94, -322367.06, -59232.145, 0.040430978, -0.4372913, -231326.67, -231326.67, 0.0, 9.999105, 9.998064 
2.5941262e+3, 3.166455e+2, -22625.148, 356379.03, -134542.98, 0.14174977, 0.10261441, 399283.6, 399283.6, 0.0, 9.9982, 10.003199 
2.6101106e+3, 1.2705047e+2, -1615807.5, -1742826.8, -191104.28, 0.18884984, -0.11593549, -1477936.1, 216965.48, 0.14988421, 10.001012, 9.999291 
2.6097968e+3, 1.3704787e+2, -1729837.6, -1876760.6, -136686.05, -0.05582826, 0.09097493, -1648122.9, -51191.45, 0.09979623, 10.000019, 9.998153 
2.6094845e+3, 1.4704242e+2, -1501635.5, -1548917.0, -146335.33, -0.038001694, 0.15911502, -1377043.6, 121945.06, 0.05285716, 10.000332, 9.999492 
2.6091728e+3, 1.570351e+2, -1245979.6, -1483758.5, -95788.44, 0.12021054, -0.101858206, -1212192.5, 188871.38, 0.019694533, 10.001763, 9.998638 
2.608859e+3, 1.6703121e+2, -1059479.3, -1072576.3, -78075.74, 0.06734433, 0.011685809, -987677.8, 315425.3, 0.004163879, 10.001251, 10.000992 
2.6085442e+3, 1.7702883e+2, -1252240.8, -1187262.3, -59666.016, -0.07245327, 0.10536404, -1151813.5, 53313.293, 0.00030229846, 9.999514, 10.000402 
2.6082295e+3, 1.8702543e+2, -1050018.3, -815671.9, -117966.29, -0.013386337, 0.11499629, -766575.4, 340578.34, 0.0000010444409, 9.999282, 10.002379 
2.6079148e+3, 1.9702096e+2, -1023801.0, -930048.2, -101920.37, 0.10277641, -0.11218702, -864741.0, 144446.98, 0.0, 9.999457, 10.000884 
2.6075992e+3, 2.0701654e+2, -881940.2, -988259.06, -140520.6, 0.2389883, -0.033665694, -784859.94, 126372.8, 0.0, 10.000619, 9.999204 
2.6072833e+3, 2.1701176e+2, -619186.0, -897564.75, -99395.625, 0.3869551, 0.019966487, -587339.8, 225946.11, 0.0, 10.00203, 9.998512 
2.6069668e+3, 2.2700581e+2, -325671.03, -535073.44, -86888.39, 0.30620185, 0.00019984556, -294313.66, 421028.88, 0.0, 10.002731, 9.999964 
2.6066503e+3, 2.3699927e+2, -293027.13, -609806.7, -200816.75, 0.11520267, -0.2000121, -195653.94, 421747.25, 0.0, 10.002816, 9.998773 
2.6063326e+3, 2.4699458e+2, -327324.13, -668632.06, -208332.72, 0.063162625, 0.013638446, -228672.86, 290780.22, 0.0, 10.002443, 9.997794 
2.6060143e+3, 2.569901e+2, -294752.38, -650251.3, 6618.586, 0.058408465, 0.24571045, -294629.22, 126879.914, 0.0, 10.002082, 9.99749 
2.605698e+3, 2.6698402e+2, -39520.484, -21081.828, 99512.234, -0.008246576, 0.17647122, 69637.234, 393202.7, 0.0, 10.001284, 10.00148 
2.6053834e+3, 2.7697703e+2, -162243.7, -133037.83, -42930.746, -0.045358717, -0.21707144, -102294.38, 123327.03, 0.0, 10.000142, 10.000624 
2.6050687e+3, 2.8697282e+2, -51340.316, -6279.9893, -137447.66, -0.039457947, -0.2031176, 110471.82, 238128.0, 0.0, 10.00018, 10.000763 
2.604752e+3, 2.9696998e+2, -19389.902, -126129.17, -137240.34, -0.08873043, -0.11466058, 74492.734, 104173.836, 0.0, 10.000446, 9.999184 
2.6044387e+3, 3.069607e+2, 49195.375, -140786.69, -104001.6, 0.17694566, -0.39746982, 95057.56, 95057.56, 0.0, 10.000963, 9.9984865 
2.6041186e+3, 3.1695476e+2, 327560.03, 378039.2, -112853.62, -0.15050074, -0.43555778, 468441.2, 468441.2, 0.0, 10.001041, 10.0020075 
2.6201096e+3, 1.2736276e+2, -1226049.1, -1381931.3, -37448.62, 0.34738293, 0.4063006, -1217519.4, 474348.03, 0.13183987, 10.003323, 10.000808 
2.6197916e+3, 1.3735807e+2, -1528540.6, -1628890.9, -49958.496, -0.10108523, 0.2643512, -1507910.4, 85995.66, 0.08692974, 10.000872, 9.999415 
2.6194805e+3, 1.473531e+2, -1379442.9, -1377822.4, 21673.35, -0.017521735, 0.273458, -1356944.1, 139008.83, 0.045284748, 10.00062, 10.000582 
2.6191717e+3, 1.5734737e+2, -1283957.1, -1391676.1, -11174.463, 0.30860567, 0.06426827, -1282810.1, 115199.39, 0.01638905, 10.001005, 9.999656 
2.6188558e+3, 1.6734307e+2, -1123132.9, -1027084.5, -80223.35, 0.1455996, 0.05362779, -981609.44, 318439.72, 0.0032885466, 10.000533, 10.001636 
2.6185375e+3, 1.7733929e+2, -1307224.5, -1165803.8, -105453.51, -0.19104783, -0.05993059, -1109548.0, 92534.23, 0.00021471751, 9.998959, 10.000827 
2.6182234e+3, 1.873365e+2, -1020644.44, -754085.2, -126778.72, -0.054933883, -0.03610962, -703418.3, 400683.34, 0.00000047553752, 9.999308, 10.002782 
2.617911e+3, 1.9733392e+2, -1035090.44, -933234.4, -149305.6, 0.27461272, -0.13006586, -826410.0, 179707.69, 0.0, 9.999449, 10.000859 
2.6175952e+3, 2.0733002e+2, -881491.75, -954098.9, -132712.92, 0.2730701, -0.0112216445, -780206.5, 127949.95, 0.0, 10.00055, 9.99944 
2.6172778e+3, 2.1732503e+2, -842205.56, -1072616.3, -106638.445, 0.15163656, -0.022246238, -800426.75, 9783.551, 0.0, 10.000899, 9.997837 
2.6169616e+3, 2.2731717e+2, -648267.1, -933129.8, -91743.65, 0.026711864, -0.06779253, -621277.1, 91014.46, 0.0, 10.00172, 9.997657 
2.6166457e+3, 2.3730823e+2, -621790.5, -878122.25, -189969.7, -0.097881876, -0.31196567, -520794.9, 93587.5, 0.0, 10.001197, 9.997666 
2.6163295e+3, 2.4730648e+2, -136237.66, -5731.161, -206302.9, 0.0139697455, -0.065359294, 145392.28, 661789.1, 0.0, 10.001418, 10.00279 
2.6160133e+3, 2.573071e+2, -315787.72, -349705.88, -28910.344, 0.22778235, 0.17655505, -299229.38, 119157.484, 0.0, 10.000723, 10.0001745 
2.6156956e+3, 2.673014e+2, -406627.28, -591695.4, 40492.07, 0.08443778, 0.2615258, -398155.6, -77707.945, 0.0, 10.000545, 9.997863 
2.6153776e+3, 2.7729288e+2, -524180.3, -660871.3, -66871.06, -0.1856234, 0.03038007, -496907.6, -274368.4, 0.0, 9.999276, 9.99738 
2.615063e+3, 2.8728843e+2, -117591.21, 9573.895, -120264.24, -0.13820116, 0.1295349, 82028.945, 206609.86, 0.0, 9.999673, 10.001053 
2.6147494e+3, 2.9728556e+2, -130370.49, -172067.81, -103580.414, 0.017097719, 0.15743057, -45561.367, -18957.578, 0.0, 9.999765, 9.999176 
2.6144335e+3, 3.072787e+2, 17053.771, -32806.14, -108153.09, 0.051646985, 0.05364481, 103112.98, 103112.98, 0.0, 10.000317, 9.999516 
2.614113e+3, 3.172764e+2, -30421.027, -103874.3, -111153.81, -0.42600608, 0.29283947, 49916.49, 49916.49, 0.0, 10.000095, 9.999134 
2.630111e+3, 1.276788e+2, -1007913.06, -1290850.5, -623.4368, 0.35906845, 0.4772038, -1007911.7, 680857.6, 0.11528824, 10.005033, 10.000645 
2.6297894e+3, 1.3766962e+2, -1410830.0, -1586686.0, 59716.66, -0.11708228, -0.092828564, -1392468.6, 198379.78, 0.07524984, 10.001742, 9.999314 
2.6294762e+3, 1.4766619e+2, -1373459.0, -1368622.4, 177238.23, -0.11679871, 0.0824084, -1193785.9, 299095.53, 0.038529176, 10.000645, 10.000632 
2.6291662e+3, 1.5766402e+2, -1367478.6, -1445321.3, 136027.05, 0.11002703, 0.24313071, -1264914.1, 129991.63, 0.013527696, 10.0004425, 9.999575 
2.6288515e+3, 1.6765906e+2, -1263144.1, -1224502.3, -36001.45, 0.13673995, 0.24663822, -1202964.9, 93988.18, 0.0025719018, 10.000059, 10.000539 
2.628535e+3, 1.7765322e+2, -1329994.9, -1292669.3, -69974.32, 0.040283717, 0.055412162, -1238911.8, -39904.707, 0.00015054179, 9.999192, 9.999878 
2.6282203e+3, 1.8764839e+2, -955960.06, -880037.56, -116954.39, 0.07513484, -0.010998958, -795037.9, 306010.47, 0.0000001940375, 10.00037, 10.001424 
2.6279065e+3, 1.9764383e+2, -741059.94, -877674.7, -191508.14, 0.14100197, -0.16540432, -606041.75, 397044.22, 0.0, 10.001713, 10.000192 
2.6275903e+3, 2.0764032e+2, -627999.25, -750879.06, -232703.34, 0.09491041, -0.039357327, -448761.6, 456358.75, 0.0, 10.001915, 10.000188 
2.6272732e+3, 2.1763678e+2, -648296.7, -885508.06, -173192.6, -0.024809439, 0.038403414, -556990.5, 250167.64, 0.0, 10.001726, 9.998747 
2.626958e+3, 2.2763033e+2, -637321.5, -875338.75, -99924.9, -0.05298024, 0.05473182, -600933.7, 108293.664, 0.0, 10.001473, 9.998203 
2.626643e+3, 2.3762274e+2, -563732.6, -754994.1, -81608.86, -0.062395275, -0.077896476, -533644.5, 77663.66, 0.0, 10.001025, 9.998635 
2.6263258e+3, 2.4761987e+2, -242609.61, 15931.288, -232893.89, 0.058143638, -0.029882077, 153026.03, 666354.94, 0.0, 10.000239, 10.003564 
2.6260087e+3, 2.5761896e+2, -454478.78, -307817.6, -253681.64, 0.22087018, -0.010385608, -117080.49, 298245.75, 0.0, 9.999151, 10.001259 
2.6256904e+3, 2.6761466e+2, -538632.94, -642256.06, -84815.35, 0.03694822, 0.13292968, -491055.97, -173681.63, 0.0, 9.999455, 9.998093 
2.6253724e+3, 2.7760854e+2, -363029.75, -557800.06, 25504.732, -0.26506996, 0.16847456, -359745.34, -140298.73, 0.0, 10.000102, 9.9977455 
2.6250583e+3, 2.8760317e+2, -33045.92, 7074.912, 20584.777, -0.15670688, 0.18231712, 15757.38, 137257.48, 0.0, 10.000315, 10.000775 
2.6247457e+3, 2.975985e+2, -26634.62, -80367.41, -28124.453, 0.097763464, 0.089909196, -14606.437, 8935.525, 0.0, 10.000191, 9.999642 
2.6244292e+3, 3.0759495e+2, 203169.6, 75583.4, -63464.15, 0.022301879, 0.26683697, 229361.27, 229361.27, 0.0, 10.001425, 9.999781 
2.6241177e+3, 3.175868e+2, 196073.86, 62211.664, -113313.39, 0.43138763, -0.02091326, 260747.08, 260747.08, 0.0, 10.001198, 9.999831 
2.6401123e+3, 1.2799501e+2, -1321072.3, -1517093.6, -79181.86, 0.46816373, 0.39116555, -1293083.5, 392581.03, 0.10017185, 10.002855, 9.999963 
2.6397875e+3, 1.3798283e+2, -1328241.4, -1602021.6, -71946.88, -0.028924389, -0.41485617, -1310485.9, 277286.78, 0.06469282, 10.002622, 9.99878 
2.6394722e+3, 1.4798072e+2, -1217674.3, -1330105.0, 134273.92, -0.1260489, -0.08168761, -1128322.9, 361471.7, 0.032530583, 10.001928, 10.000254 
2.6391608e+3, 1.5798104e+2, -1385051.6, -1558266.8, 48608.81, -0.036404897, 0.3644225, -1372343.1, 19453.668, 0.011066901, 10.000802, 9.998607 
2.6388475e+3, 1.6797553e+2, -1232282.9, -1361918.5, -74857.1, 0.20153949, 0.42457783, -1198080.9, 95770.72, 0.0019930317, 10.000969, 9.999124 
2.6385334e+3, 1.7796798e+2, -1296783.6, -1491767.9, -76333.12, 0.43932036, 0.20833059, -1270455.5, -74531.06, 0.00010503105, 10.000371, 9.99795 
2.6382178e+3, 1.8796064e+2, -1039814.8, -1095774.8, -21484.717, 0.2654932, 0.062111083, -1032517.7, 65475.684, 0.00000008640195, 10.000725, 9.999671 
2.6379016e+3, 1.979534e+2, -999856.7, -1159528.0, -128525.81, -0.012198542, -0.19997033, -928389.3, 71671.18, 0.0, 10.000757, 9.998665 
2.637585e+3, 2.0795026e+2, -667884.0, -679676.2, -184872.61, -0.086873315, -0.031615224, -488813.5, 413277.38, 0.0, 10.001287, 10.00097 
2.6372692e+3, 2.1794833e+2, -811128.8, -899100.9, -155795.78, -0.07195103, 0.11800107, -693228.75, 110882.555, 0.0, 10.0003805, 9.999313 
2.636955e+3, 2.2794491e+2, -650155.94, -685116.3, -92770.12, 0.021981964, 0.30790105, -573233.56, 132917.5, 0.0, 10.000608, 9.999885 
2.636641e+3, 2.3794055e+2, -763933.0, -808229.7, -109548.766, 0.1393887, 0.31747112, -674316.06, -66115.22, 0.0, 9.999546, 9.998976 
2.6363218e+3, 2.4793406e+2, -484932.53, -299043.66, -276541.47, 0.12684537, 0.10052014, -100245.3, 410010.13, 0.0, 9.999532, 10.001699 
2.636001e+3, 2.5792712e+2, -698954.9, -538140.25, -266785.63, 0.07134169, -0.32844245, -339908.2, 72401.27, 0.0, 9.998056, 10.000198 
2.6356837e+3, 2.6792505e+2, -418903.22, -227655.66, -59148.81, -0.10495901, -0.120985895, -210840.63, 103489.1, 0.0, 9.998879, 10.001162 
2.6353672e+3, 2.7792388e+2, -448879.56, -442722.34, 42346.566, -0.3078029, 0.10109839, -403342.63, -186996.63, 0.0, 9.998959, 9.999077 
2.6350534e+3, 2.879168e+2, -234187.84, -228767.02, 6419.1196, -0.1750075, -0.022813253, -224509.55, -106092.46, 0.0, 9.999624, 9.999449 
2.6347402e+3, 2.9790843e+2, -278625.0, -352054.94, -17107.453, 0.00005235298, -0.38299185, -274834.97, -254335.56, 0.0, 9.999204, 9.998237 
2.634426e+3, 3.0790827e+2, 135540.73, 23398.785, -13261.765, 0.029144969, 0.1854663, 137087.72, 137087.72, 0.0, 10.001191, 9.999454 
2.6341078e+3, 3.1789818e+2, 90448.13, -30266.56, -176933.1, -0.27249357, -0.30426568, 217035.52, 217035.52, 0.0, 10.000822, 9.999312 
2.6501068e+3, 1.2830882e+2, -1806549.6, -1924074.6, -21377.436, 0.19892836, 0.03579007, -1802782.0, -120201.54, 0.086430125, 10.000086, 9.9983425 
2.649787e+3, 1.3830274e+2, -1262202.5, -1710338.6, 6699.038, 0.019191263, 0.009905471, -1262102.4, 322540.53, 0.055199515, 10.003657, 9.997554 
2.6494718e+3, 1.4829749e+2, -1055030.4, -1339169.1, 66663.97, -0.045176025, 0.10967187, -1040167.3, 446526.63, 0.027235242, 10.003414, 9.999486 
2.6491582e+3, 1.5829219e+2, -1266709.9, -1544201.1, 15731.773, -0.04110189, 0.07739233, -1265820.9, 122924.12, 0.0089680515, 10.001739, 9.998267 
2.6488444e+3, 1.6828649e+2, -972816.5, -1199943.4, -42651.98, 0.113696635, 0.105019495, -965071.06, 325728.63, 0.0015322798, 10.002671, 9.999375 
2.64853e+3, 1.7828028e+2, -801475.25, -1229775.9, -9373.964, 0.25446993, 0.016135259, -801270.2, 391589.03, 0.00007382683, 10.003632, 9.998173 
2.6482135e+3, 1.882744e+2, -805869.44, -1043523.3, 27003.555, 0.112116985, 0.049070906, -802839.75, 292077.63, 0.000000036839044, 10.002537, 9.999193 
2.6478967e+3, 1.9826862e+2, -989073.06, -1136241.0, 1315.6797, -0.15149309, 0.0049933097, -989061.3, 7913.538, 0.0, 10.000652, 9.9989 
2.6475814e+3, 2.0826441e+2, -707078.56, -644835.4, -35791.977, -0.12624292, 0.025616758, -628526.8, 270487.5, 0.0, 10.000722, 10.001498 
2.647266e+3, 2.1826091e+2, -662007.06, -750511.1, -4801.166, -0.046227038, -0.00090361125, -661747.4, 139299.39, 0.0, 10.000965, 10.000075 
2.6469514e+3, 2.2825837e+2, -619394.56, -647022.6, -17250.754, 0.058633123, 0.23992866, -611108.44, 91969.76, 0.0, 10.000616, 10.000189 
2.6466364e+3, 2.3825572e+2, -633614.2, -702143.6, -85885.94, 0.1572137, 0.41669616, -575410.2, 29702.285, 0.0, 10.000091, 9.999487 
2.6463166e+3, 2.4824847e+2, -445849.6, -373496.9, -220465.34, 0.110370055, 0.15326641, -186259.52, 320916.6, 0.0, 10.00007, 10.000995 
2.6459953e+3, 2.5824013e+2, -380133.34, -372748.5, -148477.88, 0.008768343, -0.31223962, -227917.14, 181329.06, 0.0, 10.000023, 10.000442 
2.6456788e+3, 2.6823848e+2, -208679.73, -3567.4302, -14639.462, -0.0861487, -0.14243263, -2527.8381, 308731.47, 0.0, 9.999701, 10.002349 
2.6453638e+3, 2.782386e+2, -330196.03, -274791.0, -39914.74, -0.122907124, 0.11634976, -253907.34, -40648.7, 0.0, 9.999159, 10.000169 
2.6450497e+3, 2.882309e+2, -310589.25, -378438.78, -76083.88, -0.063422166, -0.060979936, -261209.47, -145872.1, 0.0, 9.99944, 9.998565 
2.6447344e+3, 2.982216e+2, -203090.1, -330031.97, -62197.293, -0.06585543, -0.40353566, -177695.61, -160263.3, 0.0, 9.999614, 9.998225 
2.6444227e+3, 3.0822277e+2, 27008.746, 54198.715, 13329.751, 0.0898805, 0.23911998, 59643.316, 59643.316, 0.0, 9.999934, 10.000327 
2.6441026e+3, 3.182116e+2, 186011.13, 112542.23, -173370.3, -0.43936273, -0.4158487, 326495.97, 326495.97, 0.0, 10.000825, 10.000349 
2.660102e+3, 1.2862311e+2, -1600876.5, -1969854.1, -17148.85, 0.08816739, -0.2197664, -1600081.1, 79413.734, 0.073999815, 10.002099, 9.997038 
2.6597872e+3, 1.3862337e+2, -1384984.5, -1945167.0, -12780.27, 0.16614264, 0.49458903, -1384693.1, 196814.61, 0.046711504, 10.003437, 9.996063 
2.659472e+3, 1.4861447e+2, -1124350.9, -1444074.0, -8129.5576, 0.114329234, 0.32869568, -1124144.3, 359447.97, 0.022592498, 10.003331, 9.99877 
2.6591566e+3, 1.5860327e+2, -1269525.0, -1600023.8, -52507.95, 0.101700805, -0.22369458, -1261383.4, 124311.36, 0.0071954923, 10.002022, 9.997758 
2.6588416e+3, 1.6859716e+2, -986193.6, -1169670.3, -13849.945, 0.073897585, -0.24540937, -985154.06, 302596.44, 0.001170623, 10.002429, 9.999705 
2.6585266e+3, 1.7859259e+2, -1012052.4, -1321346.8, -46057.12, 0.060909946, -0.21303026, -1005339.7, 184453.27, 0.00005271245, 10.002234, 9.998205 
2.6582098e+3, 1.885891e+2, -890077.5, -1089118.1, -49010.6, -0.042030755, 0.047962952, -878663.94, 213167.0, 0.000000014947995, 10.002015, 9.999124 
2.6578927e+3, 1.9858584e+2, -1092977.5, -1213985.1, -40072.332, -0.13534045, 0.2583296, -1080910.6, -87042.86, 0.0, 10.000144, 9.998614 
2.6575777e+3, 2.0858017e+2, -730107.3, -601461.44, -29349.684, -0.061356485, 0.10525637, -595081.9, 300837.38, 0.0, 10.000491, 10.001817 
2.6572633e+3, 2.1857405e+2, -898092.9, -915619.56, -47065.297, 0.06845839, -0.22350417, -858982.0, -61008.297, 0.0, 9.99974, 9.999472 
2.6569474e+3, 2.2857153e+2, -726583.2, -726829.3, -47686.746, 0.09528505, 0.054696336, -679019.3, 20985.65, 0.0, 10.000144, 9.999783 
2.6566312e+3, 2.3856965e+2, -867201.4, -894252.8, -110048.11, 0.10914741, 0.32612938, -769850.9, -167818.27, 0.0, 9.998977, 9.998666 
2.656311e+3, 2.4856377e+2, -521341.25, -420988.84, -230046.84, 0.06252, 0.22897056, -235709.75, 268376.94, 0.0, 9.999706, 10.000798 
2.65599e+3, 2.5855693e+2, -611627.06, -563613.3, -156982.89, -0.023099964, -0.0819176, -428812.25, -22665.654, 0.0, 9.99893, 9.999621 
2.6556748e+3, 2.685545e+2, -332759.06, -87896.32, -37026.0, 0.04245846, 0.05242609, -82420.05, 225746.81, 0.0, 9.999157, 10.001932 
2.6553613e+3, 2.7855286e+2, -562225.44, -493530.38, -29697.248, 0.17490396, 0.16582538, -482472.2, -272290.6, 0.0, 9.9982, 9.999081 
2.655046e+3, 2.8854603e+2, -403776.03, -451987.66, -58943.652, 0.079901464, 0.12714118, -364199.47, -251943.92, 0.0, 9.999097, 9.998138 
2.6547283e+3, 2.985386e+2, -375534.72, -437921.9, -35993.29, -0.20810406, -0.006641303, -359098.94, -344762.72, 0.0, 9.998705, 9.997881 
2.6544175e+3, 3.0853853e+2, 29779.967, 219940.16, 12328.334, 0.061431102, 0.41783062, 220736.08, 220736.08, 0.0, 9.9993725, 10.001657 
2.6541036e+3, 3.1852978e+2, -153125.52, -326330.1, 41795.125, -0.01755939, -0.10086844, -143567.58, -143567.58, 0.0, 9.999841, 9.997761 
2.6701e+3, 1.2893693e+2, -1287065.9, -1518092.3, -197097.69, -0.08208644, 0.021933183, -1174126.0, 502302.8, 0.062782034, 10.003118, 9.999734 
2.6697847e+3, 1.389362e+2, -1381241.1, -1782621.6, -46931.57, -0.012328233, 0.40406403, -1375826.6, 202615.02, 0.039146993, 10.002737, 9.997542 
2.66947e+3, 1.4892839e+2, -1198737.8, -1519922.4, -26044.879, 0.058028154, 0.32224676, -1196639.5, 283879.03, 0.018543638, 10.00302, 9.99838 
2.669156e+3, 1.5891893e+2, -1130156.1, -1535847.0, -40094.43, 0.13372391, -0.009504071, -1126231.5, 256378.11, 0.005710664, 10.00296, 9.997758 
2.6688403e+3, 1.6891357e+2, -955914.7, -1153912.4, -37666.035, 0.12503374, 0.028415432, -948991.4, 335667.97, 0.0008890518, 10.0025425, 9.999783 
2.6685244e+3, 1.7890926e+2, -1063793.4, -1276097.4, -51919.676, 0.0631293, 0.08072797, -1051776.4, 134922.31, 0.000037964888, 10.001482, 9.998888 
2.668208e+3, 1.8890451e+2, -850981.7, -943805.44, -41907.527, 0.04348031, 0.11265078, -834861.1, 253881.16, 0.0000000057994387, 10.001687, 10.000292 
2.667891e+3, 1.988997e+2, -828487.5, -1026515.4, 7567.446, 0.010449206, 0.082838565, -828198.75, 162588.73, 0.0, 10.001594, 9.999217 
2.6675746e+3, 2.0889452e+2, -658513.1, -712659.9, -29383.785, -0.017255107, 0.052170984, -645631.9, 247207.48, 0.0, 10.001577, 10.000561 
2.6672587e+3, 2.1888904e+2, -633391.94, -779636.0, -107970.92, -0.04563286, -0.085207164, -576112.44, 218781.47, 0.0, 10.001377, 9.999657 
2.666943e+3, 2.2888586e+2, -495180.66, -493000.2, -75776.65, 0.054024518, 0.03507104, -418305.94, 278619.6, 0.0, 10.001108, 10.000979 
2.6666275e+3, 2.3888311e+2, -522583.88, -669043.25, -64175.195, 0.15591079, 0.15400279, -498442.9, 100510.98, 0.0, 10.000945, 9.999303 
2.6663074e+3, 2.4887744e+2, -273419.7, -440895.28, -201355.11, 0.08808114, 0.14238635, -139084.33, 361925.84, 0.0, 10.0019245, 9.999619 
2.6659864e+3, 2.5887132e+2, -60785.867, -351468.56, -206714.81, -0.042765494, 0.024371587, 46568.492, 449638.78, 0.0, 10.002811, 9.9992285 
2.6656702e+3, 2.6886785e+2, 74360.11, 6788.2964, -153945.8, -0.015018821, 0.115029715, 198183.83, 503285.34, 0.0, 10.002233, 10.001167 
2.665356e+3, 2.7886474e+2, -101644.65, -261167.55, -160332.27, 0.11193483, 0.1611442, -2329.7825, 204800.4, 0.0, 10.001172, 9.999276 
2.6650414e+3, 2.8885916e+2, -29273.367, -229879.47, -117629.84, 0.07564998, 0.2031807, 25011.691, 134203.72, 0.0, 10.001404, 9.998623 
2.664725e+3, 2.988534e+2, 95148.73, -143602.78, -75032.04, -0.12119111, 0.21489005, 116770.766, 128027.78, 0.0, 10.001489, 9.998624 
2.664412e+3, 3.0885193e+2, 267042.22, 318621.56, -118137.586, -0.025130386, 0.48211476, 413751.7, 413751.7, 0.0, 10.001008, 10.001593 
2.6641023e+3, 3.1884617e+2, -145869.34, -352531.63, -20097.688, 0.27974916, 0.30699575, -143933.0, -143933.0, 0.0, 9.999832, 9.9976425 
2.680099e+3, 1.292507e+2, -1109355.9, -1193685.4, -92019.664, -0.04682297, 0.24906385, -1050300.6, 623060.5, 0.05267765, 10.003249, 10.002039 
2.6797822e+3, 1.3924786e+2, -1290841.8, -1582267.8, -105775.75, -0.052767415, 0.21000025, -1256497.0, 318888.6, 0.03242507, 10.002745, 9.998883 
2.679468e+3, 1.4924216e+2, -1244653.9, -1563641.8, -15828.07, 0.0438642, 0.2894697, -1243870.4, 233575.75, 0.015032841, 10.002739, 9.99819 
2.679155e+3, 1.5923572e+2, -1266151.3, -1621411.9, -30581.584, 0.23266284, 0.26698175, -1263538.0, 115976.54, 0.0044764117, 10.002135, 9.997553 
2.678839e+3, 1.6923137e+2, -1017889.75, -1167796.5, -29632.207, 0.24232654, 0.4073681, -1012244.9, 269311.47, 0.00066900725, 10.002139, 9.999858 
2.6785228e+3, 1.7922732e+2, -1111117.0, -1250822.5, -47044.426, 0.22267453, 0.47307304, -1096752.3, 86840.68, 0.000027210404, 10.001029, 9.99928 
2.6782066e+3, 1.8922037e+2, -810859.7, -770516.9, -25818.75, 0.2460922, 0.17651005, -757924.06, 327725.6, 0.000000001728097, 10.001374, 10.001616 
2.6778904e+3, 1.992133e+2, -1025563.8, -1157592.6, -22269.988, 0.28227562, -0.18402193, -1021908.56, -34200.285, 0.0, 10.000503, 9.998824 
2.6775718e+3, 2.0920914e+2, -911342.06, -1054670.3, -33735.996, 0.052818652, 0.022858888, -903798.44, -14040.086, 0.0, 10.000836, 9.998538 
2.6772535e+3, 2.1920542e+2, -961888.7, -1034340.3, -101671.35, -0.16518776, 0.23104899, -890182.25, -98376.77, 0.0, 9.999619, 9.998756 
2.6769388e+3, 2.2920103e+2, -478435.16, -288651.1, -80553.32, 0.03335571, 0.11091249, -259070.9, 434768.94, 0.0, 10.000409, 10.002697 
2.6766247e+3, 2.3919651e+2, -761331.4, -838396.3, -68814.516, 0.29317608, -0.09371398, -720995.7, -125121.98, 0.0, 9.999655, 9.998745 
2.676305e+3, 2.4919038e+2, -508752.47, -760208.75, -156330.16, 0.1487312, -0.014409566, -433864.84, 64074.84, 0.0, 10.001359, 9.997591 
2.675984e+3, 2.591841e+2, -415778.38, -761883.5, -183278.27, -0.08945957, 0.02742216, -336763.25, 63246.1, 0.0, 10.001547, 9.996979 
2.675665e+3, 2.6917928e+2, -84953.27, -197221.48, -195893.14, -0.27079955, 0.11920229, 62689.85, 364745.9, 0.0, 10.00177, 9.999945 
2.675348e+3, 2.7917477e+2, -329509.06, -466382.56, -185496.02, -0.34926054, 0.119739704, -200227.92, 3871.0515, 0.0, 10.000109, 9.998375 
2.6750365e+3, 2.8916997e+2, -33543.754, -107424.94, -120832.445, -0.09192397, 0.179889, 55868.684, 162018.69, 0.0, 10.000907, 9.999665 
2.674724e+3, 2.9916537e+2, -89201.63, -281868.56, -92040.11, 0.076688126, 0.21469457, -52300.273, -44101.016, 0.0, 10.000547, 9.998114 
2.6744068e+3, 3.091624e+2, 72558.55, 2907.7778, -174430.9, -0.19439273, 0.46940556, 215606.58, 215606.58, 0.0, 10.000738, 9.999502 
2.6740953e+3, 3.191534e+2, -144460.9, -8657.305, -14577.59, -0.01660608, 0.06259601, -7110.1265, -7110.1265, 0.0, 9.998578, 10.00056 
2.690099e+3, 1.2956354e+2, -1419395.0, -1688518.4, -68431.516, -0.015723223, -0.0029266002, -1402994.0, 267287.22, 0.043619107, 10.002664, 9.998645 
2.689782e+3, 1.3955903e+2, -1429932.5, -1753557.9, -128970.9, 0.06121129, 0.050920963, -1384822.9, 187513.97, 0.026486209, 10.002208, 9.997942 
2.6894662e+3, 1.495554e+2, -1211452.5, -1362415.8, -27278.254, 0.05830462, 0.2339201, -1206674.8, 267701.03, 0.012009438, 10.002118, 9.999901 
2.6891515e+3, 1.5955144e+2, -1240698.4, -1461516.8, 20121.219, 0.10007091, 0.31030893, -1238879.9, 137536.2, 0.003455713, 10.001593, 9.998929 
2.6888356e+3, 1.6954646e+2, -982185.1, -1088375.6, 52222.39, 0.14185068, 0.29435208, -960807.0, 317654.97, 0.00049606664, 10.002025, 10.000492 
2.688519e+3, 1.7954135e+2, -950834.4, -1162989.4, 54929.06, 0.11907742, 0.22202344, -937456.3, 243051.25, 0.00001910138, 10.001978, 9.999453 
2.6882032e+3, 1.8953511e+2, -780990.7, -835971.5, -8076.8647, 0.20700972, 0.042974405, -779828.75, 302733.97, 0.0000000002885943, 10.001825, 10.000981 
2.6878867e+3, 1.9952916e+2, -934107.25, -1124118.4, -60176.586, 0.26550165, -0.1393826, -916652.7, 67963.38, 0.0, 10.001058, 9.998804 
2.6875678e+3, 2.0952561e+2, -982766.56, -1083372.1, -28430.951, 0.08082489, 0.123903185, -975287.94, -88625.85, 0.0, 10.000227, 9.9986725 
2.687249e+3, 2.1952239e+2, -954456.5, -978612.56, 8016.4224, -0.12672268, 0.38236177, -952038.25, -163332.81, 0.0, 9.999329, 9.999296 
2.6869345e+3, 2.2951698e+2, -516146.88, -320899.38, -9970.366, 0.05828821, 0.16360663, -320391.56, 370354.84, 0.0, 10.000098, 10.002694 
2.6866204e+3, 2.395114e+2, -523924.13, -683525.2, -60960.05, 0.27290532, -0.12529431, -503304.28, 89482.734, 0.0, 10.000974, 9.999218 
2.6863015e+3, 2.4950512e+2, -396659.8, -774902.3, -75198.4, 0.109466985, -0.035713825, -382257.97, 112596.99, 0.0, 10.002267, 9.99715 
2.6859817e+3, 2.594986e+2, -136702.66, -658669.5, -56393.76, -0.1364683, 0.06674612, -130679.336, 266249.13, 0.0, 10.003409, 9.996847 
2.6856622e+3, 2.6949266e+2, 101512.53, -229317.28, -92364.81, -0.3264227, 0.13072437, 125553.03, 424541.34, 0.0, 10.003457, 9.99898 
2.6853442e+3, 2.7948695e+2, 73370.36, -295413.13, -73291.49, -0.42908144, 0.13884383, 87402.3, 288446.38, 0.0, 10.00284, 9.998258 
2.6850328e+3, 2.8948152e+2, 88136.99, -51097.535, -55658.73, -0.11970401, 0.14107566, 107651.414, 210749.8, 0.0, 10.001609, 9.99975 
2.684721e+3, 2.994766e+2, -120070.38, -299727.63, -86294.12, 0.17376941, 0.15536597, -85336.35, -80188.85, 0.0, 10.000217, 9.998152 
2.6844034e+3, 3.0947205e+2, 69491.836, -105106.18, -100668.69, -0.13570598, 0.31692085, 115441.85, 115441.85, 0.0, 10.001052, 9.998647 
2.68409e+3, 3.1946316e+2, 221140.64, 296547.94, -43792.64, -0.04418569, -0.0091925245, 316631.47, 316631.47, 0.0, 10.000365, 10.001811 
2.7000988e+3, 1.2987754e+2, -1567022.4, -2191867.3, -148078.9, 0.14915484, -0.20747757, -1533706.3, 133486.1, 0.03555001, 10.003387, 9.994872 
2.6997817e+3, 1.3987091e+2, -1453489.0, -1891599.1, -160213.2, 0.2848614, -0.039283484, -1401152.5, 168130.17, 0.021269772, 10.002528, 9.996886 
2.6994643e+3, 1.4986902e+2, -1052582.8, -1056878.4, -41122.504, 0.16458634, 0.18338956, -1013552.0, 457748.97, 0.009415533, 10.002235, 10.001966 
2.699148e+3, 1.5986703e+2, -1211305.4, -1318874.9, -13470.534, 0.08652545, 0.28053746, -1209644.1, 163671.8, 0.0026134893, 10.001282, 10.000051 
2.6988313e+3, 1.6986085e+2, -1001394.94, -1024853.9, -3362.545, 0.035486154, 0.06140939, -1000922.5, 274447.78, 0.0003600524, 10.001629, 10.001071 
2.698515e+3, 1.7985438e+2, -1157474.4, -1317870.1, -32885.02, 0.018596683, -0.1906267, -1150993.9, 26434.438, 0.000012952271, 10.000888, 9.998883 
2.6981992e+3, 1.8985002e+2, -966237.06, -1052191.4, -64392.4, 0.14260805, -0.09875388, -931797.06, 147676.81, 0.000000000007316074, 10.00121, 9.999743 
2.697883e+3, 1.9984616e+2, -1136946.5, -1302252.9, -96086.055, 0.26309556, 0.03496015, -1092855.5, -111339.21, 0.0, 10.000078, 9.998064 
2.6975638e+3, 2.0984288e+2, -931723.3, -963693.94, -81517.37, 0.14656126, 0.26918554, -864638.7, 18920.213, 0.0, 10.000222, 9.9994755 
2.6972452e+3, 2.1983945e+2, -1063363.5, -1074671.6, -9623.495, 0.034341644, 0.44451368, -1057856.0, -272254.84, 0.0, 9.998905, 9.99881 
2.6969305e+3, 2.2983359e+2, -596486.9, -452118.3, 1569.0682, 0.11744739, 0.2347059, -452101.25, 235545.58, 0.0, 10.000129, 10.001668 
2.6966158e+3, 2.3982751e+2, -753851.2, -916217.1, -45135.605, 0.2063931, -0.015132023, -742147.7, -152454.44, 0.0, 10.000047, 9.998036 
2.696298e+3, 2.4982111e+2, -437236.16, -742755.75, -53555.418, 0.026373418, 0.050414614, -428120.25, 63639.793, 0.0, 10.001858, 9.997517 
2.6959798e+3, 2.598147e+2, -431698.22, -875690.3, -53398.98, -0.16828763, 0.1284742, -425366.22, -31536.467, 0.0, 10.001871, 9.996056 
2.6956618e+3, 2.6980805e+2, -86794.63, -411158.97, -105984.07, -0.22427702, 0.1884819, -55235.53, 240662.84, 0.0, 10.002691, 9.99802 
2.695344e+3, 2.7980146e+2, -205198.84, -564063.4, -86356.016, -0.24289197, 0.1837989, -185499.75, 12465.192, 0.0, 10.001668, 9.996945 
2.6950297e+3, 2.8979447e+2, -59368.49, -196951.03, -105026.33, -0.073863305, 0.12115285, -2609.894, 97421.234, 0.0, 10.001097, 9.998928 
2.6947156e+3, 2.9978764e+2, -346348.7, -495527.78, -76106.31, 0.051167097, 0.026129704, -314374.78, -312279.06, 0.0, 9.999182, 9.997289 
2.6944017e+3, 3.0978116e+2, 24593.105, -87885.195, -38949.51, 0.04331895, -0.024318866, 36763.797, 36763.797, 0.0, 10.000686, 9.998906 
2.6940867e+3, 3.1977677e+2, -197418.47, -334904.7, -186516.72, -0.041173443, 0.15507875, -67380.05, -67380.05, 0.0, 9.99954, 9.997852 
2.7100992e+3, 1.301945e+2, -1561580.0, -2167535.0, -311668.06, 0.19645283, 0.21090141, -1429894.0, 234205.97, 0.028414996, 10.003357, 9.995074 
2.709779e+3, 1.401849e+2, -1360928.8, -1752073.8, -149822.25, 0.14617707, 0.042824324, -1310137.0, 256075.02, 0.016713178, 10.002753, 9.997744 
2.7094626e+3, 1.5018298e+2, -924821.8, -834910.6, -35231.727, 0.20376399, 0.12534015, -822749.8, 645474.06, 0.0071980846, 10.002415, 10.003407 
2.7091467e+3, 1.6018122e+2, -1164450.6, -1279914.0, -24162.861, 0.22043225, 0.1452404, -1159598.0, 210634.13, 0.0019202423, 10.001495, 10.000226 
2.708828e+3, 1.7017496e+2, -1132652.4, -1226088.1, -63305.24, -0.0057445797, 0.008878032, -1100693.0, 171600.63, 0.00025324232, 10.001314, 9.999862 
2.7085093e+3, 1.8016884e+2, -1189105.9, -1310564.9, -143773.33, -0.22508334, -0.11073291, -1093762.1, 80592.67, 0.000008369746, 10.000515, 9.999125 
2.708194e+3, 1.9016632e+2, -1023727.94, -984950.6, -123709.89, 0.017770546, 0.08684688, -879119.25, 197264.17, 0.0, 10.000389, 10.000616 
2.7078786e+3, 2.0016399e+2, -1036093.0, -1146127.3, -63169.89, 0.24087897, 0.30147588, -1007340.7, -28930.186, 0.0, 10.000218, 9.999094 
2.7075607e+3, 2.1015866e+2, -646419.44, -793483.1, -39273.566, 0.19834533, 0.28503048, -636588.56, 243878.02, 0.0, 10.001901, 9.999917 
2.707243e+3, 2.2015323e+2, -432848.66, -782168.5, -5566.866, 0.09949581, 0.24790294, -432759.97, 349762.6, 0.0, 10.003165, 9.998797 
2.7069274e+3, 2.3014764e+2, -277545.66, -523232.34, -50330.85, 0.113548405, 0.22090003, -267634.78, 416937.63, 0.0, 10.003208, 9.999755 
2.7066123e+3, 2.4014194e+2, -317323.06, -709327.8, -146284.39, 0.105321035, 0.17711294, -268752.22, 317870.38, 0.0, 10.002942, 9.998071 
2.7062944e+3, 2.5013575e+2, -303936.06, -563213.7, -141207.38, -0.07430259, 0.18311241, -241883.06, 246801.14, 0.0, 10.002216, 9.998604 
2.7059764e+3, 2.601297e+2, -418681.5, -713289.25, -115835.65, -0.24032281, 0.20611225, -378591.88, 12154.225, 0.0, 10.001207, 9.997481 
2.7056593e+3, 2.7012366e+2, -329403.2, -484377.4, -106062.62, -0.18050541, 0.25482804, -275537.6, 17270.893, 0.0, 10.000742, 9.998486 
2.7053425e+3, 2.801174e+2, -330926.78, -534402.5, -19367.893, -0.07945424, 0.2560343, -329099.66, -134227.4, 0.0, 10.000296, 9.997816 
2.7050266e+3, 2.9011047e+2, -67559.89, -182435.61, 38965.1, -0.029716952, 0.17623939, -55590.35, 41345.324, 0.0, 10.000903, 9.999163 
2.70471e+3, 3.0010325e+2, -10375.629, -258428.98, 139650.08, -0.0365804, 0.05033696, 52372.324, 52372.324, 0.0, 10.001036, 9.99806 
2.704398e+3, 3.1009528e+2, 33570.773, -38149.39, 200622.52, 0.115520716, -0.17064339, 201512.89, 201512.89, 0.0, 10.000447, 9.999427 
2.704082e+3, 3.2009476e+2, -262605.9, -412204.38, -24710.865, 0.057912566, 0.4242868, -258629.81, -258629.81, 0.0, 9.999158, 9.997539 
2.7201e+3, 1.3051127e+2, -1384010.1, -1933000.4, -188953.67, 0.37889874, 0.5315808, -1325262.0, 335748.97, 0.022191226, 10.003935, 9.996422 
2.7197763e+3, 1.4050014e+2, -1267079.0, -1605876.5, -47399.613, 0.091477334, 0.11420342, -1260572.5, 302555.03, 0.01278431, 10.002936, 9.99868 
2.7194613e+3, 1.5049787e+2, -889333.25, -740127.44, -4337.4854, 0.28941333, 0.08116764, -740001.5, 725136.6, 0.00532732, 10.002337, 10.004106 
2.7191463e+3, 1.6049582e+2, -1285167.1, -1406455.6, -60685.063, 0.49653494, 0.047153294, -1260018.6, 107128.85, 0.0013580795, 10.001043, 9.99957 
2.7188247e+3, 1.7048985e+2, -1297551.8, -1463361.9, -65223.54, 0.05189455, 0.051818516, -1274970.5, -5757.0845, 0.00016970174, 10.000943, 9.998386 
2.7185038e+3, 1.8048441e+2, -1320720.5, -1404834.8, -108118.16, -0.34300682, 0.12229595, -1246767.5, -75492.22, 0.0000049540654, 9.9998045, 9.998823 
2.7181885e+3, 1.9048329e+2, -928750.2, -793038.5, -112777.43, -0.06511958, 0.34926483, -729276.9, 344012.22, 0.0, 10.000436, 10.001876 
2.7178743e+3, 2.0048167e+2, -1093816.8, -1138465.3, -40481.176, 0.292624, 0.5291248, -1069912.3, -94606.41, 0.0, 9.999797, 9.999305 
2.7175587e+3, 2.1047416e+2, -688737.5, -755946.4, 9864.696, 0.2845902, 0.24582472, -687319.5, 190055.34, 0.0, 10.001552, 10.000248 
2.7172422e+3, 2.2046645e+2, -774718.75, -1138163.4, 14310.507, 0.22260298, -0.004575079, -774156.1, 5290.9316, 0.0, 10.001764, 9.997017 
2.716926e+3, 2.3046087e+2, -575008.3, -943483.06, -37781.313, 0.13233006, 0.18764007, -571174.3, 110332.67, 0.0, 10.002439, 9.997207 
2.7166092e+3, 2.404557e+2, -658108.94, -969833.3, -127317.875, 0.025355963, 0.40613803, -612717.94, -29156.125, 0.0, 10.001177, 9.997094 
2.7162907e+3, 2.5044984e+2, -338333.6, -412101.06, -139301.3, -0.19070414, 0.3332279, -231115.77, 254500.98, 0.0, 10.001367, 9.999993 
2.7159718e+3, 2.6044425e+2, -559843.5, -699664.3, -119027.15, -0.34761137, 0.27372926, -491714.3, -104045.03, 0.0, 9.999983, 9.998181 
2.7156553e+3, 2.7043974e+2, -315966.34, -315970.03, -113397.914, -0.17557548, 0.34036657, -202570.27, 87145.48, 0.0, 10.000254, 9.99985 
2.7153388e+3, 2.8043512e+2, -458741.47, -522037.4, -15952.441, 0.0035733487, 0.38358718, -454948.28, -263185.28, 0.0, 9.999204, 9.998428 
2.715022e+3, 2.9042953e+2, -75583.64, -82717.61, 49514.453, -0.087789714, 0.32922682, -29507.854, 64303.992, 0.0, 10.000458, 10.00003 
2.7147043e+3, 3.004237e+2, -133148.28, -271634.63, 127803.195, -0.28371018, 0.25474873, -57035.76, -57035.76, 0.0, 10.00011, 9.998389 
2.7143928e+3, 3.104153e+2, -3286.223, 36916.375, 164037.53, 0.0319236, -0.10064534, 182079.64, 182079.64, 0.0, 9.999899, 10.000131 
2.7140749e+3, 3.2041508e+2, -104636.98, 138046.47, 42167.098, -0.19450146, 0.33940297, 145164.39, 145164.39, 0.0, 9.99838, 10.001624 
2.7301016e+3, 1.3082647e+2, -1154236.8, -1404840.5, -184412.7, 0.5029669, 0.2812426, -1056584.4, 601341.0, 0.016854262, 10.003808, 10.000075 
2.7297723e+3, 1.4082016e+2, -1283228.1, -1624708.9, 65100.336, -0.2059353, 0.08159049, -1271238.3, 288745.47, 0.009467284, 10.002879, 9.9985695 
2.7294564e+3, 1.508168e+2, -1153059.0, -1226109.1, 33716.574, 0.061005726, 0.20773636, -1139876.1, 322141.53, 0.0037924994, 10.002099, 10.000846 
2.7291417e+3, 1.6081332e+2, -1352582.6, -1503563.6, -90612.266, 0.3418948, 0.29399723, -1310135.1, 53917.5, 0.0009170214, 10.00085, 9.998977 
2.7288213e+3, 1.708081e+2, -1241163.1, -1299185.3, -17621.418, 0.099344596, 0.30060482, -1236230.8, 29875.422, 0.0001065257, 10.000717, 9.999625 
2.7285013e+3, 1.8080315e+2, -1181380.9, -1266141.8, 18652.328, -0.1902239, 0.32639897, -1177457.8, -9300.425, 0.0000025959862, 10.000384, 9.999504 
2.7281845e+3, 1.9079871e+2, -838968.1, -813033.4, -11692.76, -0.109589316, 0.26677603, -808540.1, 261659.2, 0.0, 10.001205, 10.001448 
2.7278686e+3, 2.0079468e+2, -798840.0, -954602.3, 10767.531, 0.009561102, 0.2474531, -798099.2, 174137.75, 0.0, 10.0015545, 9.999727 
2.7275538e+3, 2.1079014e+2, -537057.3, -677946.8, 61430.813, 0.06130056, 0.25373128, -514034.38, 360243.4, 0.0, 10.002505, 10.000354 
2.727239e+3, 2.2078484e+2, -552597.1, -999451.4, 25370.6, 0.06527373, 0.253068, -551161.3, 225166.19, 0.0, 10.003037, 9.997361 
2.7269223e+3, 2.3077689e+2, -704259.3, -1034697.9, 26277.684, 0.042528104, 0.22723565, -702182.7, -23772.373, 0.0, 10.001581, 9.997014 
2.7266052e+3, 2.4076973e+2, -723302.75, -876158.9, 45798.527, -0.020862358, 0.25298184, -710631.1, -130146.76, 0.0, 10.000074, 9.998281 
2.726286e+3, 2.5076488e+2, -362677.56, -316175.53, 65683.12, -0.24328433, 0.20491448, -269749.56, 212777.05, 0.0, 10.000614, 10.001084 
2.7259672e+3, 2.6076028e+2, -317348.56, -467985.9, 48814.438, -0.3909373, 0.17646027, -302913.4, 81653.47, 0.0, 10.001023, 9.999289 
2.725651e+3, 2.707557e+2, -229759.1, -279057.28, -19979.082, -0.16206944, 0.23750587, -222679.0, 63936.11, 0.0, 10.000774, 9.999901 
2.725335e+3, 2.807512e+2, -228290.4, -350834.4, 26394.865, 0.07469048, 0.3016141, -222846.98, -34184.58, 0.0, 10.000378, 9.999067 
2.725018e+3, 2.9074672e+2, 22523.205, -24128.756, 37993.742, -0.07905492, 0.33955222, 43780.023, 134482.23, 0.0, 10.000941, 10.000248 
2.7247003e+3, 3.00742e+2, 39353.617, -122140.27, 23731.266, -0.3093819, 0.35143918, 42768.67, 42768.67, 0.0, 10.000895, 9.999047 
2.724387e+3, 3.107333e+2, -44333.03, 3483.8083, -26742.348, -0.052601572, -0.05530456, 15446.904, 15446.904, 0.0, 9.999512, 10.000178 
2.7240685e+3, 3.207336e+2, 314499.1, 469285.63, -132716.25, -0.25592762, 0.4221424, 545526.06, 545526.06, 0.0, 10.0004425, 10.002998 
2.740102e+3, 1.311432e+2, -1198252.8, -1077049.4, -138576.39, 0.68590003, 0.06456364, -986403.0, 668419.06, 0.012358515, 10.001933, 10.003232 
2.739769e+3, 1.411409e+2, -1410152.0, -1778936.6, -56847.33, -0.31742993, 0.07953035, -1401588.0, 155245.1, 0.0067449147, 10.00243, 9.997677 
2.7394515e+3, 1.5113646e+2, -1344117.4, -1708450.4, -17049.197, -0.13086751, 0.366861, -1343321.3, 115570.36, 0.0025850076, 10.00245, 9.997332 
2.7391362e+3, 1.6113181e+2, -1303976.3, -1532171.0, -51519.86, 0.21012202, 0.59787834, -1292883.8, 68066.07, 0.0005889778, 10.001417, 9.998493 
2.7388182e+3, 1.7112735e+2, -1086178.0, -1048154.4, 2989.1611, 0.21696958, 0.54305243, -1047920.8, 215067.83, 0.00006228534, 10.000996, 10.001225 
2.7385e+3, 1.8112233e+2, -1281645.4, -1336488.0, 42242.72, 0.1431742, 0.46755174, -1258704.3, -93672.69, 0.0000011486238, 9.999864, 9.999254 
2.7381808e+3, 1.9111392e+2, -961962.06, -961392.6, 27044.037, -0.08871415, 0.06260553, -934631.8, 132476.17, 0.0, 10.000857, 10.000524 
2.7378622e+3, 2.0110719e+2, -978583.3, -1125516.8, 70284.07, -0.25706187, -0.14248961, -950377.94, 18791.572, 0.0, 10.0007925, 9.9988985 
2.7375486e+3, 2.1110705e+2, -627349.0, -750971.4, 101679.27, -0.22354122, 0.31763807, -570167.3, 301004.72, 0.0, 10.002021, 10.000076 
2.7372345e+3, 2.2110523e+2, -800987.1, -1133108.8, -2281.6167, -0.14652032, 0.6952924, -800971.44, -27780.623, 0.0, 10.00148, 9.997179 
2.7369177e+3, 2.3109406e+2, -755784.56, -949348.5, -50839.043, -0.05832453, 0.2525207, -743244.25, -67944.29, 0.0, 10.000864, 9.997891 
2.7366e+3, 2.41084e+2, -874909.56, -918547.75, 28923.814, -0.025959896, -0.087261096, -860498.0, -283101.56, 0.0, 9.998989, 9.998503 
2.7362815e+3, 2.5108066e+2, -389174.22, -238539.08, 74786.32, -0.25308752, -0.084238835, -207716.5, 271704.1, 0.0, 10.000127, 10.001801 
2.735963e+3, 2.6107758e+2, -579393.3, -696198.6, 29159.77, -0.42748964, 0.0050921054, -572518.4, -191073.97, 0.0, 9.9998045, 9.998268 
2.7356464e+3, 2.710715e+2, -379528.47, -471156.38, -45170.03, -0.1898666, -0.009603545, -361005.4, -77496.61, 0.0, 10.000325, 9.998751 
2.7353305e+3, 2.810657e+2, -476058.9, -614910.6, 35817.887, 0.0360576, 0.03923914, -467363.9, -281793.22, 0.0, 9.999455, 9.997657 
2.7350152e+3, 2.91062e+2, -73371.734, -118408.9, 65548.26, 0.0015248079, 0.194559, -26581.87, 61024.77, 0.0, 10.000629, 9.999692 
2.7346978e+3, 3.0105776e+2, -189067.08, -372753.78, -17273.93, -0.1925359, 0.33330524, -187456.75, -187456.75, 0.0, 10.000076, 9.997697 
2.7343783e+3, 3.1104884e+2, -202855.02, -165905.52, -103806.055, -0.38306466, -0.03159724, -78943.016, -78943.016, 0.0, 9.998977, 9.9991865 
2.734069e+3, 3.2104632e+2, -80599.58, -229329.13, 224360.45, 0.071095005, 0.34826773, 81399.21, 81399.21, 0.0, 10.0001135, 9.998289 
2.750092e+3, 1.314646e+2, -1640527.5, -1512149.1, -113087.68, 0.038804814, 0.29086876, -1446303.4, 205370.45, 0.008685325, 9.999811, 10.001256 
2.7497724e+3, 1.4145988e+2, -1498470.6, -1818277.1, -78372.9, 0.19895214, 0.1911447, -1480297.0, 73418.16, 0.004592608, 10.001776, 9.997727 
2.7494514e+3, 1.5145567e+2, -1203490.8, -1530472.0, 52247.01, 0.0075549413, 0.40992177, -1195345.4, 260421.22, 0.0016782222, 10.0029, 9.998368 
2.7491322e+3, 1.6145094e+2, -1062553.5, -1357123.8, 60572.652, -0.06338527, 0.56534535, -1050584.3, 307236.38, 0.0003582281, 10.0028105, 9.999018 
2.7488148e+3, 1.7144501e+2, -1020187.8, -1026097.75, 56446.043, 0.1623059, 0.37385592, -966619.44, 293252.22, 0.000033741435, 10.001484, 10.0011425 
2.748497e+3, 1.8143925e+2, -1251960.9, -1333463.3, 98518.984, 0.25421768, 0.25095204, -1186097.5, -24176.877, 0.00000040337267, 10.000076, 9.999162 
2.7481782e+3, 1.9143301e+2, -967745.9, -1043237.3, 120699.09, 0.022052642, 0.12734956, -879028.1, 184950.27, 0.0, 10.001106, 9.999854 
2.7478603e+3, 2.0142719e+2, -838461.0, -1115818.9, 136564.78, -0.20565212, 0.091320276, -782507.5, 183525.14, 0.0, 10.001886, 9.998463 
2.7475455e+3, 2.1142279e+2, -665920.25, -865925.75, 151205.19, -0.24799192, 0.21231696, -584639.94, 283434.9, 0.0, 10.002027, 9.999358 
2.747231e+3, 2.214183e+2, -678447.6, -980154.0, 1499.2297, -0.23907211, 0.35591716, -678440.1, 91678.555, 0.0, 10.001787, 9.998112 
2.746914e+3, 2.3141053e+2, -553961.5, -754476.7, -40694.918, -0.09203355, 0.17793354, -546017.1, 126178.6, 0.0, 10.001674, 9.998922 
2.7465963e+3, 2.414032e+2, -466348.84, -634790.4, 42770.52, -0.008858029, 0.034997202, -456110.84, 118155.836, 0.0, 10.001304, 9.999349 
2.7462783e+3, 2.5139934e+2, -346778.16, -287799.03, 14931.413, -0.14087588, 0.03437853, -284234.38, 192064.61, 0.0, 10.000656, 10.001244 
2.74596e+3, 2.613953e+2, -475457.97, -633012.6, -71617.4, -0.26418748, 0.08285401, -447769.72, -69436.06, 0.0, 10.00033, 9.998477 
2.7456427e+3, 2.7138832e+2, -195112.67, -424466.53, -114132.57, -0.2080844, 0.0072735227, -147996.39, 132407.92, 0.0, 10.001655, 9.9984865 
2.7453256e+3, 2.8138176e+2, -29415.242, -372798.22, -24662.836, -0.11026182, -0.0018368242, -27652.924, 154818.6, 0.0, 10.002301, 9.997971 
2.745011e+3, 2.913771e+2, -26421.613, -129899.21, -8914.034, -0.030623972, 0.09838527, -25659.334, 58858.55, 0.0, 10.001055, 9.999454 
2.744694e+3, 3.0137244e+2, -219619.38, -433299.28, -74046.2, -0.110682584, 0.24099563, -196468.5, -196468.5, 0.0, 9.999946, 9.997381 
2.7443734e+3, 3.1136557e+2, 93508.51, -143685.94, -172602.22, -0.42035213, 0.19226155, 184331.5, 184331.5, 0.0, 10.001406, 9.99824 
2.744069e+3, 3.2135922e+2, -55942.887, -367264.06, 443846.56, 0.455685, 0.31718162, 258747.45, 258747.45, 0.0, 10.00076, 9.99706 
2.7600834e+3, 1.3178554e+2, -1609437.3, -1740971.9, -130949.77, -0.38127807, 0.5135708, -1528667.3, 119864.336, 0.005822727, 10.001116, 9.999021 
2.759776e+3, 1.4177875e+2, -1453672.5, -1757505.8, -135658.52, 0.882414, 0.35406712, -1401918.1, 148682.25, 0.002969682, 10.001957, 9.998053 
2.7594513e+3, 1.5177467e+2, -1210096.3, -1307687.9, -7382.408, 0.23478168, 0.4035263, -1209541.0, 243100.7, 0.0010279784, 10.001954, 10.000323 
2.7591282e+3, 1.6176997e+2, -1282601.8, -1460037.5, -33600.395, -0.2104413, 0.4295241, -1276452.0, 78235.21, 0.0002033788, 10.001289, 9.999065 
2.7588108e+3, 1.7176251e+2, -1033730.1, -1106555.0, -69197.25, 0.12891828, 0.120046474, -991949.7, 264803.22, 0.000016580547, 10.00171, 10.000484 
2.758494e+3, 1.8175627e+2, -1170718.9, -1392716.0, 49042.332, 0.3928765, 0.013534429, -1160367.5, -1559.3898, 0.00000009587778, 10.0011425, 9.998233 
2.7581766e+3, 1.9175349e+2, -921613.75, -1098799.8, 79968.01, 0.23425104, 0.29656583, -890860.2, 169975.73, 0.0, 10.001819, 9.999121 
2.7578598e+3, 2.01749e+2, -992923.2, -1321396.3, 112483.586, 0.05368008, 0.48786628, -958096.4, 4783.078, 0.0, 10.001473, 9.997245 
2.7575442e+3, 2.1173762e+2, -813770.0, -1013466.9, 120783.945, -0.1150773, -0.030689793, -756907.0, 108078.46, 0.0, 10.00145, 9.99857 
2.7572283e+3, 2.2172871e+2, -921482.0, -1082766.5, -3648.9668, -0.18826486, -0.28285658, -921399.5, -154329.66, 0.0, 10.000238, 9.998106 
2.7569106e+3, 2.3172747e+2, -604417.2, -656770.7, -50155.375, -0.0662447, 0.07930104, -574018.5, 95068.73, 0.0, 10.000934, 9.999895 
2.7565932e+3, 2.417256e+2, -753675.6, -901216.9, 11589.671, 0.04468805, 0.4575177, -752770.75, -181660.72, 0.0, 10.000055, 9.998073 
2.756276e+3, 2.5171962e+2, -535930.8, -559307.25, -16991.523, 0.064420715, 0.36826295, -526995.56, -53825.918, 0.0, 10.0002165, 9.99954 
2.7559584e+3, 2.6171324e+2, -697484.94, -861498.9, -44192.17, 0.00039627106, 0.32436267, -686335.6, -311103.53, 0.0, 9.9994545, 9.997319 
2.755639e+3, 2.7170604e+2, -287949.1, -450981.78, -71355.6, -0.24685864, 0.22764723, -261130.14, 16169.353, 0.0, 10.001108, 9.998518 
2.7553204e+3, 2.8169894e+2, -259112.23, -543140.9, -60526.8, -0.38288927, 0.18395956, -246751.81, -67384.41, 0.0, 10.001112, 9.9973545 
2.7550048e+3, 2.9169163e+2, -145382.55, -223689.72, -75667.83, -0.25517932, 0.023632772, -99338.58, -17899.625, 0.0, 10.000452, 9.999077 
2.754689e+3, 3.01686e+2, -455488.78, -682835.94, -75225.33, -0.18581147, 0.13732454, -432851.9, -432851.9, 0.0, 9.999034, 9.996086 
2.754374e+3, 3.1168407e+2, -45029.984, -331017.03, -121117.695, 0.008507704, 0.6759754, -629.15497, -629.15497, 0.0, 10.001067, 9.997086 
2.754061e+3, 3.2167104e+2, 31226.078, 116123.42, 388422.22, -0.067196704, 0.062012702, 464409.6, 464409.6, 0.0, 9.999692, 10.000822 
2.770083e+3, 1.3209786e+2, -1597839.6, -1795054.5, -296457.9, -0.25132838, 0.3518305, -1384020.0, 261454.67, 0.0036892197, 10.001549, 9.998392 
2.7697712e+3, 1.4209323e+2, -1417241.4, -1606763.4, -225953.14, 0.6083284, 0.3917841, -1266983.0, 280540.94, 0.0018042208, 10.001667, 9.999205 
2.7694476e+3, 1.5208966e+2, -1294328.4, -1153687.4, -123168.6, 0.21522924, 0.3119601, -1082178.9, 367374.03, 0.00058557204, 10.000534, 10.002059 
2.7691254e+3, 1.6208577e+2, -1457077.5, -1520962.5, -97938.54, -0.09707955, 0.29583016, -1386004.1, -34417.82, 0.00010501939, 9.999938, 9.999307 
2.7688077e+3, 1.7208041e+2, -910505.5, -1118488.6, -90317.016, 0.023913123, 0.2389674, -876760.3, 376877.9, 0.0000068884756, 10.002784, 9.99993 
2.7684906e+3, 1.8207501e+2, -708471.3, -1210124.3, -48361.383, 0.14489692, 0.2706157, -703851.6, 451838.7, 0.00000000965895, 10.004451, 9.997901 
2.768175e+3, 1.9206935e+2, -651799.0, -1046169.7, -16282.577, 0.2042629, 0.3258655, -651127.9, 406617.78, 0.0, 10.003941, 9.998505 
2.7678588e+3, 2.0206341e+2, -727122.2, -1071764.0, -9462.092, 0.1540173, 0.37776342, -726862.6, 232939.69, 0.0, 10.002727, 9.998356 
2.7675414e+3, 2.1205512e+2, -766038.6, -881222.0, 61160.0, -0.04857394, 0.07445749, -739622.25, 122255.98, 0.0, 10.001256, 9.999608 
2.767224e+3, 2.2204797e+2, -851360.4, -943369.6, -5521.155, -0.18329445, -0.08644683, -851030.25, -87085.58, 0.0, 10.000163, 9.999131 
2.7669066e+3, 2.3204519e+2, -625733.3, -647267.44, -46500.246, -0.06621189, 0.113598555, -588769.9, 77205.16, 0.0, 10.000613, 10.000184 
2.7665892e+3, 2.4204218e+2, -565023.75, -799630.8, -3081.597, 0.017389704, 0.36488667, -564983.3, 3024.6416, 0.0, 10.00117, 9.998271 
2.766272e+3, 2.5203604e+2, -293047.4, -549544.56, 3367.128, 0.009362248, 0.35241184, -293003.22, 177068.05, 0.0, 10.002224, 9.998707 
2.765955e+3, 2.620297e+2, -182629.25, -554588.06, -12294.361, -0.026292285, 0.36690938, -182223.33, 189911.27, 0.0, 10.002648, 9.997891 
2.7656364e+3, 2.7202305e+2, -144900.34, -354641.03, -15217.678, -0.17434724, 0.30925176, -143801.97, 130393.04, 0.0, 10.001869, 9.998872 
2.7653182e+3, 2.8201592e+2, -232958.36, -525481.4, 6887.661, -0.27781847, 0.2592988, -232796.27, -56535.527, 0.0, 10.001136, 9.997476 
2.765001e+3, 2.9200727e+2, -24064.105, -276505.13, -63703.56, -0.25635442, 0.045113284, -8899.466, 69445.09, 0.0, 10.001548, 9.998263 
2.7646843e+3, 3.020005e+2, -57712.56, -469666.2, -21481.084, -0.19149177, 0.1006583, -56595.47, -56595.47, 0.0, 10.001525, 9.996359 
2.764373e+3, 3.119991e+2, 30273.857, -281184.4, 28830.414, 0.22878928, 0.68460065, 32920.086, 32920.086, 0.0, 10.001437, 9.997254 
2.764052e+3, 3.2198492e+2, 72616.39, 307305.13, 255203.4, -0.50205535, -0.0862844, 470849.5, 470849.5, 0.0, 9.999109, 10.002404 
2.7800825e+3, 1.3241075e+2, -1592348.6, -1787474.3, -68087.484, 0.015609502, 0.19418484, -1570939.1, 71471.98, 0.0021709697, 10.001553, 9.998432 
2.7797654e+3, 1.4240757e+2, -1258687.5, -1441116.3, -95095.4, 0.34569538, 0.3578538, -1218132.4, 326313.97, 0.0010072378, 10.002281, 10.000096 
2.7794433e+3, 1.5240443e+2, -1046485.25, -908600.1, -119893.91, 0.2215423, 0.20399295, -839240.06, 607225.2, 0.00030058212, 10.001598, 10.003293 
2.7791232e+3, 1.6240141e+2, -1368065.8, -1498532.0, -23988.68, 0.14019, 0.21618979, -1363794.9, -15306.8, 0.000046417692, 10.000667, 9.999114 
2.7788046e+3, 1.723985e+2, -1021507.3, -1233683.5, -4842.734, -0.02659466, 0.43870556, -1021396.9, 229127.1, 0.0000020738605, 10.002326, 9.999353 
2.7784875e+3, 1.8239383e+2, -1000294.06, -1434858.0, -16385.588, -0.08733385, 0.6192749, -999677.1, 152897.53, 0.00000000000031198744, 10.002871, 9.997097 
2.7781734e+3, 1.9238387e+2, -855852.3, -1183506.4, -27303.977, 0.15878922, 0.26430658, -853592.6, 201077.28, 0.0, 10.002791, 9.998062 
2.7778578e+3, 2.0237628e+2, -875528.56, -1078959.3, -19097.734, 0.2924494, 0.16042362, -873751.2, 82990.38, 0.0, 10.001542, 9.99885 
2.7775386e+3, 2.1237424e+2, -775136.75, -723479.7, -15325.204, 0.037067298, 0.33580765, -719275.3, 139483.08, 0.0, 10.000593, 10.000977 
2.7772197e+3, 2.2237083e+2, -1049537.9, -1058309.5, -34340.887, -0.117374346, 0.47303894, -1019303.8, -258514.97, 0.0, 9.998976, 9.998885 
2.7769023e+3, 2.3236278e+2, -723717.4, -710815.9, -57894.195, -0.038219176, 0.13422377, -659014.2, 3851.824, 0.0, 10.000097, 9.999943 
2.776585e+3, 2.423558e+2, -788493.1, -986028.0, 17339.697, -0.01671364, 0.025970612, -786982.6, -222048.77, 0.0, 10.000119, 9.997472 
2.7762672e+3, 2.523505e+2, -463447.66, -668699.1, 31148.582, -0.19282113, 0.12680137, -458824.75, 8162.587, 0.0, 10.001351, 9.998275 
2.7759504e+3, 2.6234525e+2, -430980.66, -676966.75, -25729.59, -0.24095719, 0.2938439, -428318.22, -59279.45, 0.0, 10.001124, 9.997729 
2.7756348e+3, 2.7233928e+2, -206707.44, -316598.28, -48912.258, -0.013851085, 0.22995697, -188090.58, 83001.44, 0.0, 10.00126, 9.999373 
2.7753183e+3, 2.823327e+2, -460272.4, -741533.4, -1870.155, 0.09440081, 0.23967287, -460259.97, -287107.94, 0.0, 10.000194, 9.996409 
2.774999e+3, 2.9232392e+2, -221667.86, -493496.66, -41685.4, -0.089723594, 0.10359681, -215418.98, -140183.33, 0.0, 10.000888, 9.997017 
2.7746806e+3, 3.023159e+2, -166366.33, -456246.88, -19179.174, -0.28173506, 0.106111325, -165102.89, -165102.89, 0.0, 10.000676, 9.9968195 
2.774367e+3, 3.1230897e+2, 22176.822, -86855.625, 32819.22, -0.043558214, -0.043286536, 31293.293, 31293.293, 0.0, 10.000669, 9.998922 
2.7740467e+3, 3.22306e+2, -416471.25, -331243.5, 21207.92, -0.5221256, 0.352455, -326257.8, -326257.8, 0.0, 9.997682, 9.998688 
2.7900782e+3, 1.3273291e+2, -1575402.9, -1627633.9, 179811.02, -0.1544744, 0.26323712, -1419820.8, 219428.13, 0.0011674977, 10.001025, 9.999793 
2.7897656e+3, 1.427284e+2, -1225761.4, -1576235.1, 89471.72, 0.46011326, 0.30031154, -1204241.8, 337052.44, 0.00050489604, 10.003174, 9.998733 
2.7894396e+3, 1.5272358e+2, -1017644.0, -1131622.1, -26735.574, 0.0348188, 0.19414772, -1011684.3, 431650.88, 0.00013439951, 10.002829, 10.001166 
2.7891174e+3, 1.6271871e+2, -1233388.0, -1538639.1, 8497.657, -0.18447955, 0.20424695, -1233151.6, 112228.48, 0.000016423304, 10.002015, 9.998194 
2.7888012e+3, 1.7271349e+2, -1165810.6, -1377228.9, 46187.49, -0.11147402, 0.27579296, -1156160.8, 91276.734, 0.0000003300107, 10.001613, 9.998728 
2.7884853e+3, 1.8270822e+2, -1180208.6, -1404004.4, 13696.882, -0.06569227, 0.39819166, -1179373.5, -29880.879, 0.0, 10.001046, 9.998223 
2.7881703e+3, 1.927011e+2, -987543.75, -1131220.0, 79945.055, 0.11342549, 0.2450862, -951902.0, 99657.305, 0.0, 10.001272, 9.999234 
2.7878538e+3, 2.0269483e+2, -974364.94, -1122961.9, 52250.613, 0.19571795, 0.22457606, -957831.75, -4213.184, 0.0, 10.000841, 9.998859 
2.7875343e+3, 2.1269098e+2, -917204.6, -909232.1, -19543.332, 0.02648642, 0.33601308, -893272.6, -37615.137, 0.0, 10.000124, 9.9999275 
2.7872154e+3, 2.2268683e+2, -874922.7, -976038.25, -56516.496, -0.093012094, 0.46593586, -849650.4, -91951.43, 0.0, 10.000059, 9.998947 
2.7868983e+3, 2.3268034e+2, -514094.88, -658524.7, -63491.355, -0.069911644, 0.3192456, -490152.9, 169609.52, 0.0, 10.001565, 9.999667 
2.786581e+3, 2.4267386e+2, -426367.56, -687593.75, -42281.363, -0.09527744, 0.24155585, -419694.5, 142129.42, 0.0, 10.001999, 9.998618 
2.7862632e+3, 2.5266743e+2, -525245.6, -596463.9, 16566.273, -0.24482821, 0.15186457, -521580.72, -57698.61, 0.0, 10.000416, 9.999255 
2.7859464e+3, 2.6266113e+2, -572788.06, -732138.5, 43140.51, -0.27418604, 0.15499295, -561858.44, -195918.6, 0.0, 9.999947, 9.997952 
2.785632e+3, 2.7265456e+2, -39782.85, -335838.0, -39878.113, -0.0057916357, 0.11793724, -34505.414, 233496.2, 0.0, 10.002662, 9.998643 
2.7853167e+3, 2.8264797e+2, 135250.89, -385468.97, -76117.92, 0.17617916, 0.1503095, 146149.58, 316211.97, 0.0, 10.003873, 9.997097 
2.784997e+3, 2.9264045e+2, 633.9706, -336028.03, -30652.902, 0.010890454, 0.109473236, 3402.1409, 75532.41, 0.0, 10.002101, 9.99754 
2.784677e+3, 3.0263233e+2, -165548.28, -382081.06, 59237.42, -0.22457758, 0.051580597, -150402.02, -150402.02, 0.0, 10.000216, 9.997584 
2.78436e+3, 3.1262287e+2, -188666.31, -178334.13, -15288.983, -0.22175825, -0.35727158, -167362.02, -167362.02, 0.0, 9.998981, 9.999199 
2.7840438e+3, 3.2262495e+2, -235452.9, -288694.9, -42817.594, -0.16585425, 0.56352097, -211655.42, -211655.42, 0.0, 9.998911, 9.99845 
2.8000748e+3, 1.3305616e+2, -1400418.6, -1433127.3, 195093.73, -0.17596865, 0.35070732, -1220994.9, 415080.78, 0.0005665633, 10.001684, 10.000812 
2.7997658e+3, 1.4305075e+2, -1645113.1, -1999751.9, 9548.831, 0.71497184, 0.28807056, -1644856.3, -106728.21, 0.00022570654, 10.001292, 9.996689 
2.799436e+3, 1.5304373e+2, -1200259.9, -1526411.8, -73678.46, -0.10490184, 0.20858467, -1184388.1, 255808.88, 0.00005282333, 10.00293, 9.998368 
2.799112e+3, 1.6303638e+2, -1184262.6, -1644087.6, 13736.743, -0.4658711, 0.19148585, -1183852.6, 158417.45, 0.000004777361, 10.00301, 9.996919 
2.7987984e+3, 1.7302814e+2, -1125298.1, -1432149.0, 20876.887, -0.095695645, 0.015575809, -1123884.3, 120469.56, 0.00000002399446, 10.002262, 9.997984 
2.7984837e+3, 1.8302217e+2, -1103533.8, -1280731.6, 22667.176, 0.14776264, 0.08895741, -1100680.1, 45732.895, 0.0, 10.001299, 9.998913 
2.798167e+3, 1.9301982e+2, -884194.5, -907946.9, 40753.227, 0.14003527, 0.25506327, -853622.25, 194809.89, 0.0, 10.001326, 10.000704 
2.797849e+3, 2.0301546e+2, -1135694.8, -1379288.5, 664.2567, 0.120970316, 0.40010157, -1135693.0, -185219.0, 0.0, 10.0005455, 9.99724 
2.7975294e+3, 2.1300636e+2, -1048162.6, -1206792.5, -60635.36, 0.049054883, 0.16384356, -1027640.1, -175071.63, 0.0, 10.000247, 9.997815 
2.797211e+3, 2.2300008e+2, -1040362.2, -1141003.6, 15683.444, -0.018875731, 0.24652232, -1037974.75, -283339.5, 0.0, 9.999463, 9.998048 
2.796895e+3, 2.3299834e+2, -693595.56, -759776.7, 4709.3887, -0.089596055, 0.58163255, -693262.1, -36605.277, 0.0, 10.00054, 9.99942 
2.7965775e+3, 2.4299452e+2, -624868.1, -698329.06, -61939.727, -0.1371448, 0.7708153, -589587.06, -30894.607, 0.0, 10.000391, 9.999287 
2.796259e+3, 2.5298563e+2, -537111.8, -420692.8, -48127.785, -0.1734234, 0.26276654, -403373.3, 57391.88, 0.0, 9.999656, 10.00078 
2.7959418e+3, 2.6297724e+2, -828851.3, -1006968.56, 107456.84, -0.20454611, 0.02404301, -778344.8, -415506.5, 0.0, 9.998964, 9.996515 
2.7956283e+3, 2.7296904e+2, -285028.94, -641446.44, 72719.68, -0.16914621, -0.03953364, -270762.97, -5841.525, 0.0, 10.001892, 9.996875 
2.7953133e+3, 2.8296214e+2, 26914.158, -345166.63, -117273.805, -0.08703197, 0.051301207, 60792.324, 227779.2, 0.0, 10.002859, 9.99783 
2.7949944e+3, 2.9295665e+2, 38031.91, -84786.8, -107617.33, 0.0023433247, 0.004991561, 100528.16, 169558.39, 0.0, 10.00146, 9.999551 
2.7946734e+3, 3.029504e+2, -392974.75, -581003.25, -24425.93, -0.14476469, 0.046705548, -389853.5, -389853.5, 0.0, 9.999222, 9.996623 
2.7943525e+3, 3.129422e+2, -470279.5, -468319.8, -69982.11, -0.39903983, -0.12019313, -399310.7, -399310.7, 0.0, 9.997878, 9.997654 
2.7940428e+3, 3.2293627e+2, -10295.287, 416448.1, 195369.81, 0.26075456, -0.12869889, 492380.47, 492380.47, 0.0, 9.998202, 10.003505 
2.8100714e+3, 1.3337444e+2, -1450311.8, -1529741.1, -144918.39, -0.31859496, 0.31297618, -1339764.8, 293195.38, 0.0002494511, 10.001645, 10.00019 
2.8097594e+3, 1.4337198e+2, -1961765.1, -2068308.6, -47081.207, 0.54570884, 0.55215436, -1943941.6, -408953.7, 0.00009135431, 9.998792, 9.997418 
2.809435e+3, 1.5336457e+2, -1198834.5, -1478629.0, 55580.555, -0.02218445, 0.37714845, -1188197.9, 248861.4, 0.000018191195, 10.002716, 9.99883 
2.809114e+3, 1.6335677e+2, -943737.2, -1555504.8, 39202.22, -0.28810948, 0.31572723, -941235.3, 397900.8, 0.000001253609, 10.004764, 9.996683 
2.8087977e+3, 1.7334884e+2, -958658.5, -1426820.6, 47061.215, -0.045511775, 0.2549526, -953974.56, 287242.7, 0.0000000065346386, 10.003703, 9.997347 
2.8084812e+3, 1.833425e+2, -930521.2, -1211938.9, 17918.5, 0.10783161, 0.34226254, -929384.9, 213896.17, 0.0, 10.00255, 9.998757 
2.8081638e+3, 1.9333826e+2, -775803.7, -928402.9, -1566.1451, 0.11126306, 0.3905463, -775787.6, 269532.7, 0.0, 10.002351, 10.000078 
2.807846e+3, 2.0333302e+2, -825722.7, -1157943.0, -83764.586, 0.10404414, 0.45449507, -805797.7, 141572.8, 0.0, 10.002276, 9.997941 
2.8075266e+3, 2.1332467e+2, -645850.94, -973833.94, -21874.383, 0.053076234, 0.25540695, -644398.44, 205055.67, 0.0, 10.002692, 9.998303 
2.8072074e+3, 2.2331806e+2, -612742.6, -871498.9, 78042.59, -0.027573984, 0.26199868, -591026.94, 160493.28, 0.0, 10.002057, 9.998663 
2.80689e+3, 2.3331454e+2, -764240.2, -787095.56, 101071.74, -0.12350156, 0.44224545, -673952.2, -20397.506, 0.0, 9.99995, 9.999545 
2.8065726e+3, 2.4331015e+2, -786370.7, -789730.6, 53985.156, -0.16133545, 0.57800585, -734039.4, -178443.94, 0.0, 9.999205, 9.999248 
2.8062555e+3, 2.5330293e+2, -351477.2, -414259.47, -35131.99, -0.098613866, 0.32183364, -335755.06, 121903.055, 0.0, 10.001129, 10.000175 
2.8059393e+3, 2.6329565e+2, -323332.16, -654433.4, 83023.83, -0.08387797, 0.18368137, -303680.28, 56043.094, 0.0, 10.001836, 9.9976 
2.805625e+3, 2.732875e+2, -461848.3, -646753.1, 195538.86, -0.13632613, 0.070380375, -338007.2, -76204.805, 0.0, 10.000167, 9.997756 
2.8053096e+3, 2.8328055e+2, -399771.9, -455515.44, 71169.516, -0.097691305, 0.07532586, -351211.13, -187343.72, 0.0, 9.999358, 9.998808 
2.8049913e+3, 2.932753e+2, -36321.465, -99251.69, -39640.453, 0.06356528, 0.050414603, -17176.115, 48733.48, 0.0, 10.000673, 9.999916 
2.80467e+3, 3.032694e+2, -73378.45, -409779.16, -20571.145, -0.029366681, 0.106046945, -72125.18, -72125.18, 0.0, 10.001268, 9.996813 
2.8043476e+3, 3.1326166e+2, -4525.983, -294216.53, -13255.664, -0.35899466, 0.05010552, -3920.6948, -3920.6948, 0.0, 10.001182, 9.997301 
2.8040388e+3, 3.2325226e+2, 196708.66, 755964.1, 176320.27, 0.45783105, -0.36813822, 806912.4, 806912.4, 0.0, 9.998383, 10.005834 
2.820068e+3, 1.3369104e+2, -1956525.5, -1803198.3, -329854.4, -0.24025786, 0.20262112, -1541215.6, 88645.7, 0.00010706495, 9.998371, 9.999862 
2.8197524e+3, 1.43692e+2, -1556001.4, -1765682.4, 17253.012, 0.3853441, 0.7832981, -1554591.3, -22731.621, 0.000035101017, 10.001177, 9.998329 
2.819435e+3, 1.5368487e+2, -1055601.1, -1275353.4, 116002.04, 0.18645214, 0.51693356, -1005698.56, 428227.56, 0.0000055355054, 10.003214, 9.999963 
2.8191173e+3, 1.6367789e+2, -1097656.0, -1672971.4, -14697.613, 0.09277279, 0.49281767, -1097280.8, 238713.8, 0.0000002527922, 10.003949, 9.996279 
2.8187972e+3, 1.7367114e+2, -1088748.4, -1549405.6, -31250.783, 0.06952227, 0.5925344, -1086638.0, 151427.89, 0.0, 10.003142, 9.996791 
2.8184783e+3, 1.8366438e+2, -1094469.1, -1417268.1, 25886.8, 0.0733914, 0.72093683, -1092406.3, 47729.39, 0.0, 10.002005, 9.997613 
2.8181612e+3, 1.9365644e+2, -986869.9, -1190250.8, 2261.7932, 0.14258282, 0.5153706, -986844.7, 55369.445, 0.0, 10.001595, 9.99866 
2.817844e+3, 2.0364982e+2, -970264.6, -1135425.1, -41548.96, 0.18356234, 0.5055226, -960401.25, -16123.65, 0.0, 10.001032, 9.9986315 
2.8175247e+3, 2.136444e+2, -725244.4, -844063.8, -13595.162, 0.117404535, 0.43350053, -723708.7, 122617.66, 0.0, 10.001568, 9.999665 
2.817205e+3, 2.2363809e+2, -766810.3, -928672.2, 19629.146, -0.002003655, 0.39519078, -764463.9, -16081.826, 0.0, 10.001039, 9.998726 
2.8168848e+3, 2.3362961e+2, -815595.25, -773892.1, 15879.906, -0.12927748, 0.028105484, -768533.8, -118077.79, 0.0, 9.999565, 9.999766 
2.8165668e+3, 2.436236e+2, -999880.25, -1092174.1, 110696.78, -0.16762234, 0.0742116, -926096.7, -373584.22, 0.0, 9.998738, 9.997363 
2.8162524e+3, 2.5362e+2, -591951.75, -745249.7, 47909.383, -0.031166082, 0.34712467, -578210.56, -123655.56, 0.0, 10.000509, 9.998166 
2.8159377e+3, 2.636158e+2, -372709.6, -478383.63, 53751.66, 0.05000361, 0.5732185, -350174.28, 6422.8237, 0.0, 10.000816, 9.999232 
2.815622e+3, 2.7360925e+2, -369598.44, -277849.2, 139069.16, 0.03227756, 0.31607094, -177283.69, 81367.836, 0.0, 9.999552, 10.000517 
2.8153053e+3, 2.8360298e+2, -596178.3, -643050.44, 86090.18, 0.013610649, 0.28348425, -530391.25, -369685.03, 0.0, 9.998598, 9.997819 
2.8149873e+3, 2.935965e+2, -238047.69, -317065.06, 15267.543, 0.08536587, 0.22275916, -235200.33, -172432.83, 0.0, 9.999975, 9.998681 
2.814667e+3, 3.0358955e+2, -166409.73, -442062.06, -23057.988, -0.015646797, 0.25330356, -164494.27, -164494.27, 0.0, 10.000671, 9.996864 
2.8143463e+3, 3.1358075e+2, -77750.81, -244585.52, -3369.0588, -0.15383466, -0.005093676, -77682.81, -77682.81, 0.0, 10.000385, 9.998006 
2.8140262e+3, 3.23577e+2, -181638.88, 324064.44, -7804.661, -0.23584835, 0.17244141, 324184.88, 324184.88, 0.0, 9.997089, 10.003403 
2.830065e+3, 1.3400476e+2, -2283982.0, -1730842.4, -4227.7246, 0.2037129, 0.042985484, -1730810.0, -104025.83, 0.000050593044, 9.995131, 10.001917 
2.8297445e+3, 1.4400479e+2, -1141727.9, -1488958.8, 41998.6, -0.3164697, 0.4055538, -1136720.3, 392063.75, 0.000015386415, 10.003706, 9.998992 
2.8294325e+3, 1.540001e+2, -1017588.4, -1252709.3, 93299.805, -0.012174772, 0.36383453, -985064.5, 445766.94, 0.0000020566958, 10.003445, 10.000011 
2.8291166e+3, 1.6399473e+2, -1148001.3, -1560116.5, -111557.58, 0.09181868, 0.44506, -1119741.1, 213145.1, 0.00000005936716, 10.00298, 9.997524 
2.8287932e+3, 1.7398798e+2, -1080339.5, -1442747.8, -46638.844, -0.16362357, 0.44122764, -1074433.6, 160522.31, 0.0, 10.002686, 9.997772 
2.828473e+3, 1.8398142e+2, -1088546.4, -1405728.8, 12429.518, -0.2324329, 0.5285607, -1088060.0, 48964.516, 0.0, 10.001951, 9.997744 
2.8281564e+3, 1.9397408e+2, -1129201.3, -1317506.4, 44226.82, -0.015936943, 0.43773386, -1119331.1, -80230.34, 0.0, 10.0008, 9.998208 
2.8278396e+3, 2.0396842e+2, -1011787.6, -1052695.5, 41009.15, 0.14442775, 0.5081839, -986414.56, -45257.46, 0.0, 10.000236, 9.999615 
2.827522e+3, 2.1396446e+2, -775974.56, -806355.6, 76936.164, 0.18537642, 0.5543621, -712743.6, 130447.77, 0.0, 10.000889, 10.000277 
2.827203e+3, 2.2395879e+2, -623053.56, -786232.7, 40783.402, 0.11458027, 0.5154087, -613428.3, 131810.92, 0.0, 10.001615, 9.999453 
2.8268814e+3, 2.3394972e+2, -429906.2, -599814.7, 33809.99, -0.10010269, 0.10038176, -423425.53, 223890.1, 0.0, 10.002111, 9.999805 
2.8265628e+3, 2.4394263e+2, -473394.8, -803974.25, 170084.11, -0.20178097, 0.022000886, -401515.2, 147864.84, 0.0, 10.002126, 9.997745 
2.8262484e+3, 2.5393772e+2, -433265.75, -720644.4, 210027.9, -0.1042303, 0.22107428, -322478.47, 128955.63, 0.0, 10.00168, 9.9978485 
2.8259337e+3, 2.6393303e+2, -259983.94, -366584.06, 179640.48, 0.01064995, 0.40630382, -125903.11, 227578.47, 0.0, 10.001265, 9.999792 
2.825618e+3, 2.7392775e+2, -135336.75, -159455.0, 74061.195, 0.0833441, 0.29171398, -72359.33, 183167.44, 0.0, 10.001101, 10.000586 
2.8253016e+3, 2.8392226e+2, -226879.33, -430279.53, -6715.2783, 0.12422966, 0.29899397, -226657.88, -69081.016, 0.0, 10.000869, 9.998226 
2.824983e+3, 2.939156e+2, -159489.84, -334552.1, -8307.154, 0.10759035, 0.2578179, -159096.53, -99453.24, 0.0, 10.000595, 9.998328 
2.8246626e+3, 3.0390882e+2, -170964.95, -330413.84, -9674.204, -0.011818514, 0.27836844, -170380.14, -170380.14, 0.0, 10.000007, 9.9979925 
2.8243428e+3, 3.139013e+2, -202601.38, -260275.72, -16334.758, -0.013773993, 0.09100323, -198296.33, -198296.33, 0.0, 9.999164, 9.998545 
2.8240174e+3, 3.2390025e+2, 47975.363, 205177.89, -100737.54, -0.45675817, 0.5896882, 254350.69, 254350.69, 0.0, 9.999444, 10.001538 
2.840061e+3, 1.3431917e+2, -1591486.9, -1234100.4, 493358.84, 0.5953856, -0.08515874, -888070.7, 735629.0, 0.00002671971, 9.99903, 10.003528 
2.8397378e+3, 1.4431773e+2, -1526317.3, -1645005.8, 67971.336, -0.8024489, 0.05574684, -1495429.4, 30277.209, 0.000008259606, 10.000911, 9.999268 
2.839429e+3, 1.543149e+2, -1409393.1, -1449065.1, 62041.96, -0.15283741, 0.1930202, -1364093.4, 63646.582, 0.0000013335809, 10.000749, 9.999966 
2.8391138e+3, 1.6431074e+2, -1396163.0, -1533856.9, -108734.84, 0.080786504, 0.3406709, -1336311.9, -6527.2935, 0.000000073245815, 10.000725, 9.998755 
2.838789e+3, 1.7430368e+2, -1167976.9, -1349948.1, -91723.84, -0.35131058, 0.16591652, -1129766.3, 102088.875, 0.0, 10.001554, 9.998934 
2.8384677e+3, 1.8429755e+2, -1196055.0, -1457921.8, -40484.043, -0.46459657, 0.23824899, -1189939.1, -56019.754, 0.0, 10.001298, 9.997649 
2.8381506e+3, 1.9429167e+2, -1207956.9, -1388685.3, -34167.98, -0.1442359, 0.2824564, -1201712.9, -165728.92, 0.0, 10.000474, 9.997827 
2.8378347e+3, 2.0428744e+2, -1014694.56, -1012244.2, 54828.113, 0.123485215, 0.4997349, -958627.56, -20599.121, 0.0, 10.00011, 9.999927 
2.837519e+3, 2.1428448e+2, -845103.56, -819465.5, 61956.973, 0.32121497, 0.5847435, -769015.3, 71039.734, 0.0, 10.000417, 10.0003805 
2.837201e+3, 2.2428001e+2, -776957.2, -868472.5, 32737.418, 0.29530084, 0.67140293, -766452.06, -24359.965, 0.0, 10.000702, 9.9993 
2.8368792e+3, 2.3427257e+2, -578549.2, -694885.2, 9659.242, -0.029289521, 0.39229327, -577752.6, 66400.06, 0.0, 10.0012865, 9.999528 
2.8365594e+3, 2.4426469e+2, -562971.2, -796582.75, 133698.52, -0.25083193, 0.24443366, -502241.4, 43978.652, 0.0, 10.001395, 9.998134 
2.8362435e+3, 2.5425547e+2, -528801.2, -704763.4, 159203.55, -0.26236588, -0.087852515, -434885.5, 13419.236, 0.0, 10.000878, 9.998319 
2.8359285e+3, 2.642486e+2, -538236.56, -692091.7, 149928.94, -0.17380105, -0.059496418, -446651.44, -96280.28, 0.0, 10.000331, 9.997945 
2.835614e+3, 2.742436e+2, -424049.66, -543481.3, 67424.7, 0.043068897, 0.015522315, -393698.47, -141273.83, 0.0, 10.000297, 9.998283 
2.8352976e+3, 2.8423858e+2, -312087.56, -410226.1, -16416.232, 0.14062099, 0.18664974, -309414.34, -154938.16, 0.0, 10.000151, 9.998666 
2.8349784e+3, 2.942325e+2, -222348.14, -285868.7, -8073.651, 0.057273064, 0.0911372, -221338.02, -164800.92, 0.0, 9.999935, 9.998957 
2.8346565e+3, 3.0422768e+2, -238771.06, -253415.33, -44511.0, -0.13556719, 0.24252607, -200983.97, -200983.97, 0.0, 9.999253, 9.998818 
2.834336e+3, 3.1422368e+2, -355212.5, -263109.2, -34153.82, -0.11085574, 0.29403505, -251826.39, -251826.39, 0.0, 9.99799, 9.999029 
2.834015e+3, 3.2421952e+2, -116446.21, 68422.6, 89663.16, -0.24001393, 0.43005693, 104765.52, 104765.52, 0.0, 9.99883, 10.000763 
2.8500524e+3, 1.3463974e+2, -1319962.5, -1281369.9, 287964.03, -0.011239568, 0.2734387, -1012056.4, 608508.0, 0.0000133144695, 10.001622, 10.001992 
2.8497386e+3, 1.4463778e+2, -1933002.5, -1743750.1, 15467.999, -0.17946257, 0.4310249, -1742494.3, -219916.92, 0.0000038169696, 9.997688, 10.000147 
2.8494227e+3, 1.5463239e+2, -1857669.3, -1613802.8, 92419.16, -0.18967888, 0.23814614, -1582735.9, -158103.86, 0.0000005153316, 9.9974, 10.000474 
2.8491065e+3, 1.6462758e+2, -1723913.0, -1642463.6, -51450.668, -0.08985147, 0.27834952, -1617570.8, -290889.22, 0.00000002542409, 9.998243, 9.999197 
2.848788e+3, 1.7462264e+2, -1338722.5, -1411241.1, -29443.414, -0.069279574, 0.29867727, -1328273.6, -99541.29, 0.0, 10.000264, 9.999141 
2.8484675e+3, 1.846172e+2, -1114292.0, -1314813.9, -82584.49, -0.14102344, 0.38422975, -1084658.9, 46128.81, 0.0, 10.0013485, 9.998618 
2.8481466e+3, 1.9461069e+2, -1042594.0, -1226298.6, -16595.99, -0.22376838, 0.29976302, -1041106.75, -8252.882, 0.0, 10.001153, 9.998636 
2.8478286e+3, 2.0460543e+2, -880920.5, -976962.56, 62370.395, -0.11916576, 0.37641373, -850226.3, 84678.8, 0.0, 10.001093, 9.999713 
2.847514e+3, 2.1460085e+2, -775252.94, -857598.3, 43080.004, 0.17157456, 0.3789763, -756834.7, 80111.96, 0.0, 10.001086, 9.999847 
2.847197e+3, 2.2459568e+2, -702271.3, -901302.4, -23269.314, 0.24099752, 0.44784355, -699587.06, 39405.75, 0.0, 10.001471, 9.998705 
2.8468764e+3, 2.3458892e+2, -470414.38, -736419.75, -71350.39, -0.012269115, 0.34613693, -452484.63, 188568.39, 0.0, 10.002331, 9.998767 
2.8465575e+3, 2.4458179e+2, -340578.97, -587314.25, -44149.227, -0.17807342, 0.24507362, -332917.13, 210198.13, 0.0, 10.002364, 9.999142 
2.84624e+3, 2.5457346e+2, -396800.88, -547579.3, -16732.725, -0.23678395, -0.062151913, -394966.28, 50221.32, 0.0, 10.001245, 9.999269 
2.8459242e+3, 2.645669e+2, -474715.13, -559911.4, 48750.832, -0.17279664, -0.122162655, -452573.44, -105325.13, 0.0, 10.000217, 9.998963 
2.8456095e+3, 2.7456197e+2, -439350.78, -483007.78, 123053.66, 0.034038592, -0.056818865, -336204.53, -86905.02, 0.0, 9.999759, 9.999034 
2.845293e+3, 2.845573e+2, -297019.22, -319167.7, 137978.83, 0.12846816, 0.07554973, -169670.94, -18322.998, 0.0, 9.99979, 9.999505 
2.8449735e+3, 2.9455212e+2, -123070.0, -167247.4, 103509.44, 0.025051082, 0.05849248, -39318.664, 14081.698, 0.0, 10.000245, 9.999644 
2.8446516e+3, 3.0454764e+2, -32231.285, -163718.38, -3531.1514, -0.12899254, 0.20331238, -32136.521, -32136.521, 0.0, 10.000568, 9.998858 
2.8443313e+3, 3.1454384e+2, 25917.164, -117097.11, -102938.65, -0.03336376, 0.33728603, 79748.12, 79748.12, 0.0, 10.000622, 9.998841 
2.8440118e+3, 3.2453692e+2, 168819.03, 39225.297, 22796.553, -0.07992952, 0.26679474, 172712.17, 172712.17, 0.0, 10.00122, 9.999544 
2.860047e+3, 1.3496068e+2, -1479501.6, -1587654.1, 98397.27, -0.2944457, 0.6208826, -1421300.3, 196124.83, 0.0000059672334, 10.00155, 9.999913 
2.8597394e+3, 1.4495794e+2, -1624272.5, -1507877.0, 37868.168, 0.57151073, 0.7926843, -1496641.5, 22806.14, 0.0000015122073, 9.999477, 10.000883 
2.859416e+3, 1.5495019e+2, -1521120.5, -1389604.6, 56397.945, -0.15388145, 0.2858111, -1368732.1, 52789.613, 0.0000000966577, 9.999469, 10.000999 
2.8590995e+3, 1.649449e+2, -1501341.1, -1533307.0, 6308.224, -0.16017592, 0.25388253, -1500141.3, -176566.58, 0.00000000026919006, 9.999787, 9.999208 
2.8587878e+3, 1.749422e+2, -1307530.5, -1406614.0, 25355.389, 0.40113473, 0.48340586, -1301419.0, -75813.71, 0.0, 10.0005455, 9.999034 
2.8584686e+3, 1.8493767e+2, -1106931.9, -1183526.8, -84297.21, 0.34296635, 0.6182889, -1052640.4, 75009.36, 0.0, 10.000972, 9.999679 
2.8581423e+3, 1.9493043e+2, -1064617.6, -1131018.0, -75575.84, -0.22622874, 0.34764567, -1015271.1, 14445.355, 0.0, 10.000672, 9.9994955 
2.8578225e+3, 2.0492356e+2, -1021400.2, -1154280.6, 45789.87, -0.3249448, 0.27009368, -1007149.5, -75370.54, 0.0, 10.000648, 9.998701 
2.8575087e+3, 2.1491605e+2, -974889.4, -1105535.5, 20336.06, 0.022820326, 0.066560395, -971797.1, -137950.53, 0.0, 10.000396, 9.998492 
2.8571925e+3, 2.2490911e+2, -929218.2, -1166037.5, 27268.648, 0.14994167, 0.10283349, -926118.94, -190205.86, 0.0, 10.000675, 9.997212 
2.8568745e+3, 2.3490208e+2, -752672.4, -1053917.0, -22156.633, 0.05757505, 0.08067776, -751051.5, -113066.37, 0.0, 10.001318, 9.997008 
2.8565562e+3, 2.4489678e+2, -459961.16, -532760.2, -43335.883, -0.026117897, 0.21459241, -439766.3, 100268.73, 0.0, 10.00126, 9.999927 
2.856238e+3, 2.5489208e+2, -536484.9, -551964.0, -36543.273, -0.08456494, 0.14612304, -506870.6, -64796.58, 0.0, 10.000167, 9.999668 
2.8559205e+3, 2.6488748e+2, -421657.75, -277437.63, 39944.496, -0.060780454, 0.1617266, -267113.3, 76998.766, 0.0, 9.999571, 10.00117 
2.8556043e+3, 2.748823e+2, -411130.5, -241894.05, 107599.87, 0.04891059, -0.06360329, -189625.55, 56530.523, 0.0, 9.999025, 10.001031 
2.8552872e+3, 2.848782e+2, -410284.47, -346018.84, 142579.78, 0.066583924, 0.022896672, -231995.88, -83801.445, 0.0, 9.999078, 9.999587 
2.854968e+3, 2.9487413e+2, -272195.28, -260279.34, 129280.01, -0.051948916, 0.08219322, -136820.1, -86582.93, 0.0, 9.999448, 9.999339 
2.8546473e+3, 3.04868e+2, -271761.06, -470676.13, -12115.015, -0.12862173, 0.1741271, -271025.9, -271025.9, 0.0, 9.9999275, 9.996975 
2.854328e+3, 3.148601e+2, -320945.7, -538940.56, -93549.71, 0.05030357, 0.04127969, -286304.72, -286304.72, 0.0, 9.999514, 9.996404 
2.8540072e+3, 3.248505e+2, 10641.636, -76376.16, 153719.22, -0.2803113, -0.17678693, 126890.76, 126890.76, 0.0, 10.00053, 9.998996 
2.870047e+3, 1.3527724e+2, -1536109.6, -1660484.8, 4178.621, -0.02776035, 0.41780856, -1535969.4, 78343.45, 0.0000021514043, 10.001308, 9.999564 
2.869734e+3, 1.4527091e+2, -1384212.9, -1450210.6, 96460.16, 0.3759127, 0.29138464, -1315263.4, 201109.92, 0.00000043033984, 10.001344, 10.000384 
2.8694126e+3, 1.5526764e+2, -1224592.9, -1349500.3, 95903.73, -0.2170511, 0.31549677, -1172600.1, 245809.25, 0.000000019645139, 10.001903, 10.000124 
2.8690964e+3, 1.6526362e+2, -1099314.5, -1228583.0, -28407.914, -0.19400492, 0.40187785, -1093347.1, 227103.06, 0.0, 10.002064, 10.000205 
2.8687826e+3, 1.7525929e+2, -1142986.5, -1247232.8, 44097.02, 0.19826743, 0.40595487, -1126835.5, 95656.97, 0.0, 10.001289, 9.999787 
2.8684637e+3, 1.8525442e+2, -1089043.6, -1211543.9, -101280.836, 0.20072806, 0.4786424, -1031932.5, 92608.0, 0.0, 10.001141, 9.999452 
2.8681397e+3, 1.9524805e+2, -1034930.0, -1178392.4, -94767.24, -0.13563968, 0.35439405, -987807.56, 38795.992, 0.0, 10.000983, 9.999095 
2.8678203e+3, 2.0524208e+2, -878983.0, -996140.56, 3642.3857, -0.18514326, 0.33598304, -878869.9, 49788.563, 0.0, 10.001208, 9.999512 
2.867505e+3, 2.1523573e+2, -763259.6, -943996.75, 56659.47, 0.0017171387, 0.21200195, -746966.25, 83747.64, 0.0, 10.001497, 9.999094 
2.867189e+3, 2.2522868e+2, -708963.4, -944875.75, 124046.07, 0.13042715, 0.1534587, -655743.94, 77035.49, 0.0, 10.00157, 9.998347 
2.8668728e+3, 2.3522097e+2, -668988.4, -904230.9, 200099.31, 0.19539846, 0.01125316, -554500.8, 80354.82, 0.0, 10.001267, 9.998124 
2.8665543e+3, 2.452159e+2, -470052.06, -497100.78, 180301.7, 0.11703462, 0.103322506, -302768.2, 234135.4, 0.0, 10.000903, 10.000381 
2.8662336e+3, 2.5521252e+2, -426256.94, -461305.84, 154783.64, -0.09518138, 0.19798006, -288008.84, 150923.75, 0.0, 10.000633, 10.00011 
2.865915e+3, 2.6520818e+2, -277199.84, -179736.03, 156600.61, -0.14168526, 0.20902935, -64460.164, 276509.1, 0.0, 10.000317, 10.001523 
2.8655982e+3, 2.7520248e+2, -266068.75, -151504.53, 80862.98, -0.057758365, -0.055304803, -109690.414, 133327.6, 0.0, 9.999782, 10.001331 
2.865281e+3, 2.8519812e+2, -266953.47, -257926.16, 91478.695, -0.015119272, -0.028278353, -170849.84, -25791.484, 0.0, 9.999911, 9.999813 
2.8649634e+3, 2.9519448e+2, -47394.996, -145548.75, 59120.6, -0.06031214, 0.08466319, -19635.78, 27461.348, 0.0, 10.000848, 9.9994955 
2.8646436e+3, 3.0518854e+2, 20990.754, -307965.78, -12320.892, -0.13271058, 0.17081355, 21451.58, 21451.58, 0.0, 10.001742, 9.997265 
2.8643233e+3, 3.151804e+2, 161884.38, -280698.5, 20651.258, -0.043135043, 0.048867133, 162845.89, 162845.89, 0.0, 10.002566, 9.99677 
2.8640032e+3, 3.2516995e+2, -119028.484, -141650.11, 244203.2, -0.24010316, -0.2407264, 114125.7, 114125.7, 0.0, 9.999479, 9.999105 
2.880047e+3, 1.3559307e+2, -1536640.1, -1630406.1, -27309.762, 0.2946766, 0.09917744, -1529266.0, 81941.09, 0.00000033823923, 10.001155, 9.999834 
2.8797284e+3, 1.4558452e+2, -1452713.6, -1580161.8, 158067.19, 0.14984174, -0.20378147, -1346008.9, 167282.3, 0.000000039050374, 10.001313, 9.999495 
2.87941e+3, 1.5558559e+2, -1332429.6, -1535721.6, 135367.22, -0.16557463, 0.36718237, -1264794.3, 150496.67, 0.0000000006124831, 10.001746, 9.998931 
2.879094e+3, 1.6558237e+2, -1110529.0, -1148275.0, -18305.19, -0.16689059, 0.556102, -1103110.0, 214213.78, 0.0, 10.001665, 10.000898 
2.8787765e+3, 1.7557546e+2, -1191319.9, -1226889.3, -23027.959, -0.05717925, 0.21141975, -1180008.5, 39377.543, 0.0, 10.000792, 10.000143 
2.8784576e+3, 1.8557021e+2, -1191775.5, -1321426.6, -106442.23, -0.00049811264, 0.25580007, -1131972.4, -10532.926, 0.0, 10.000835, 9.99879 
2.8781378e+3, 1.9556537e+2, -1095542.5, -1295892.3, -97344.766, 0.09010748, 0.3298818, -1056035.6, -32541.043, 0.0, 10.001065, 9.998221 
2.8778195e+3, 2.055614e+2, -849673.5, -868642.56, 40270.78, 0.11250143, 0.5094583, -817785.44, 107747.664, 0.0, 10.001047, 10.000434 
2.877502e+3, 2.1555749e+2, -873540.56, -920561.5, 50183.8, 0.10364891, 0.52237004, -841633.0, -14068.098, 0.0, 10.00055, 9.999676 
2.8771862e+3, 2.2555119e+2, -739965.5, -713219.5, 95999.99, 0.2072001, 0.4031039, -629665.56, 99953.63, 0.0, 10.0004425, 10.000436 
2.8768712e+3, 2.3554288e+2, -787893.3, -786603.9, 142213.89, 0.42588905, -0.027075667, -645033.25, -13339.941, 0.0, 9.999853, 9.9995775 
2.8765514e+3, 2.4553764e+2, -638839.1, -607981.6, 142465.02, 0.27015874, -0.0025064694, -480112.34, 53628.27, 0.0, 9.999955, 10.0000725 
2.8762284e+3, 2.555342e+2, -665157.1, -665309.1, 126366.664, -0.1862787, 0.10081565, -538866.44, -103093.52, 0.0, 9.999478, 9.999266 
2.8759083e+3, 2.655294e+2, -524263.5, -454146.7, 128819.35, -0.35943958, 0.17693765, -355700.38, -17881.475, 0.0, 9.999431, 10.000013 
2.875591e+3, 2.7552265e+2, -590015.25, -524534.0, 67781.11, -0.28055167, -0.059785638, -482000.25, -242116.9, 0.0, 9.998628, 9.9992895 
2.875275e+3, 2.855174e+2, -367490.72, -311118.7, 126152.1, -0.16111849, -0.02149858, -210042.17, -68106.65, 0.0, 9.999318, 9.9997015 
2.8749597e+3, 2.9551268e+2, -223938.08, -303508.38, 103134.27, -0.04689384, -0.026078941, -153181.22, -109196.734, 0.0, 10.000031, 9.9987955 
2.87464e+3, 3.0550903e+2, 70542.05, -37677.113, 3289.8948, -0.19802724, 0.2137282, 70641.97, 70641.97, 0.0, 10.001183, 9.9993515 
2.874318e+3, 3.1550545e+2, 13172.531, -237851.0, 63415.41, -0.36949024, 0.33722222, 28283.371, 28283.371, 0.0, 10.001191, 9.99771 
2.874e+3, 3.2549778e+2, -398390.06, -172413.92, 61379.645, -0.022533705, 0.14640225, -156818.31, -156818.31, 0.0, 9.9974575, 9.999712 
2.8900436e+3, 1.3591409e+2, -1516312.6, -1408260.5, -85552.89, 0.26810494, 0.3084904, -1361103.0, 246960.42, 0.0000000028010363, 10.000352, 10.001768 
2.889723e+3, 1.459052e+2, -1528460.6, -1646384.6, 200317.92, -0.07036133, -0.10106863, -1378607.5, 131536.33, 0.0, 10.0009165, 9.999223 
2.8894067e+3, 1.5590341e+2, -1420486.4, -1622128.8, 228045.84, -0.25074032, 0.22944441, -1271968.8, 140200.73, 0.0, 10.001265, 9.998596 
2.8890908e+3, 1.6589865e+2, -1216189.6, -1324273.4, -4488.728, -0.14203045, 0.33060682, -1216003.5, 98215.54, 0.0, 10.001409, 9.999843 
2.8887737e+3, 1.758914e+2, -1233209.0, -1355872.4, -43349.938, 0.014457245, 0.07882005, -1219435.5, -3146.855, 0.0, 10.000876, 9.999257 
2.8884545e+3, 1.858866e+2, -975005.06, -1094115.3, -90607.37, 0.022840101, 0.1416442, -926132.75, 192203.89, 0.0, 10.001676, 9.99999 
2.8881344e+3, 1.9588332e+2, -748303.75, -1007293.06, -5831.583, -0.047249954, 0.28861997, -748172.5, 272199.8, 0.0, 10.0028, 9.999418 
2.8878164e+3, 2.058792e+2, -671073.3, -805214.2, 34119.473, 0.061904863, 0.402056, -662893.6, 259518.89, 0.0, 10.002281, 10.0003 
2.8874996e+3, 2.1587412e+2, -855082.94, -903345.6, 37141.066, 0.22768195, 0.33226198, -834922.25, -10462.994, 0.0, 10.000505, 9.999853 
2.8871828e+3, 2.2586913e+2, -783977.94, -714272.3, 29405.945, 0.31927028, 0.31135073, -703524.4, 22979.826, 0.0, 9.999928, 10.000723 
2.8868657e+3, 2.3586376e+2, -713864.0, -688423.3, 5529.559, 0.3544145, 0.16607969, -687273.44, -58720.9, 0.0, 9.999904, 10.00029 
2.8865457e+3, 2.4585891e+2, -616761.0, -529324.7, -17718.762, 0.18501739, 0.1329624, -525870.5, 4725.722, 0.0, 9.999729, 10.000771 
2.886223e+3, 2.5585404e+2, -610454.4, -557100.9, 10996.316, -0.19317468, 0.054269377, -554923.4, -122282.32, 0.0, 9.999348, 10.000138 
2.8859034e+3, 2.658495e+2, -535856.4, -456044.44, 81759.586, -0.3174775, 0.10171049, -404971.75, -70287.586, 0.0, 9.999284, 10.000078 
2.8855854e+3, 2.7584448e+2, -419744.78, -435907.9, 104758.29, -0.2687751, 0.07854431, -322756.8, -86023.89, 0.0, 9.999663, 9.999422 
2.8852695e+3, 2.858388e+2, -252804.73, -279940.2, 227630.58, -0.18347277, 0.07490962, -38337.895, 100450.87, 0.0, 10.000043, 9.999613 
2.884955e+3, 2.958326e+2, -166396.95, -251004.39, 202718.3, -0.06957088, -0.03758954, -1615.3915, 39234.996, 0.0, 10.000163, 9.999133 
2.8846362e+3, 3.0582842e+2, 62946.57, 55789.063, 75813.76, -0.15575258, 0.082750835, 135266.0, 135266.0, 0.0, 10.000623, 10.000336 
2.8843158e+3, 3.1582555e+2, 79148.25, -72748.74, 27841.78, -0.23938522, 0.23987907, 84090.664, 84090.664, 0.0, 10.000938, 9.999066 
2.8839982e+3, 3.2582185e+2, 560481.25, 216884.5, -234384.47, 0.23476776, 0.47639525, 679287.0, 679287.0, 0.0, 10.004059, 9.999434 
2.9000396e+3, 1.3623449e+2, -1403218.0, -1229631.6, -111714.59, 0.27792996, 0.47304842, -1174956.8, 429970.34, 0.00000000011876347, 10.000564, 10.002931 
2.899718e+3, 1.46226e+2, -1411812.8, -1598866.1, 107881.83, -0.18437439, 0.054682948, -1362560.9, 144437.52, 0.0, 10.0017805, 9.999143 
2.8994033e+3, 1.5622085e+2, -1490211.6, -1682450.6, 126032.94, -0.23790386, 0.044263605, -1427828.0, -18774.045, 0.0, 10.000946, 9.998327 
2.8990886e+3, 1.6621502e+2, -1368252.0, -1517640.9, -36832.98, -0.016945085, 0.1035088, -1359664.1, -48548.836, 0.0, 10.000986, 9.9986725 
2.8987724e+3, 1.7620806e+2, -1365048.1, -1549205.8, 59.035206, 0.28156957, -0.008047031, -1365048.1, -151861.53, 0.0, 10.000596, 9.998054 
2.8984523e+3, 1.8620414e+2, -974587.4, -931887.56, 33541.086, 0.13990778, 0.12011611, -913477.9, 201746.02, 0.0, 10.001019, 10.001383 
2.8981304e+3, 1.9620198e+2, -898728.2, -959116.3, 50953.19, -0.19227971, 0.2186672, -869694.6, 147546.28, 0.0, 10.001308, 10.000416 
2.8978124e+3, 2.0619673e+2, -878434.4, -971234.0, 2492.733, -0.033562582, 0.20300889, -878367.5, 40924.156, 0.0, 10.001214, 9.99962 
2.897497e+3, 2.1618897e+2, -1046049.9, -1095885.9, -694.25183, 0.45252538, -0.08485434, -1046040.2, -224671.28, 0.0, 9.999728, 9.998865 
2.8971788e+3, 2.2618566e+2, -889066.5, -813418.8, 67742.84, 0.4500896, 0.12849574, -773655.7, -50251.66, 0.0, 9.99956, 10.000143 
2.8968588e+3, 2.3618464e+2, -928106.06, -885176.44, 21826.096, 0.1654553, 0.4594298, -876028.9, -250611.2, 0.0, 9.998948, 9.99936 
2.8965384e+3, 2.4618009e+2, -655024.4, -413147.4, -11801.44, -0.0033353094, 0.4352705, -412572.97, 114887.04, 0.0, 9.999048, 10.001793 
2.896218e+3, 2.5617284e+2, -774571.2, -567324.7, 1677.0198, -0.10876588, -0.017483532, -567311.1, -137785.88, 0.0, 9.998087, 10.0006 
2.8958994e+3, 2.6616916e+2, -571989.8, -378060.9, 106053.53, -0.13095221, 0.054484174, -331326.16, 230.84865, 0.0, 9.99873, 10.000829 
2.895582e+3, 2.761673e+2, -521882.28, -464888.7, 129366.61, -0.096174, 0.23952554, -360917.44, -127344.56, 0.0, 9.998969, 9.99954 
2.8952652e+3, 2.8616187e+2, -331278.06, -298512.4, 214293.81, -0.17075714, 0.2517287, -99976.086, 35647.215, 0.0, 9.999581, 9.99966 
2.8949484e+3, 2.9615384e+2, -349004.7, -396982.0, 215352.77, -0.28208867, -0.052144684, -156308.61, -118609.51, 0.0, 9.999309, 9.998498 
2.8946307e+3, 3.0614802e+2, 93758.09, 81942.125, 94891.56, -0.2940352, -0.088907525, 182925.4, 182925.4, 0.0, 10.001004, 10.000137 
2.894312e+3, 3.1614414e+2, -123706.85, -467823.22, 112197.07, -0.253872, -0.0041929134, -90357.63, -90357.63, 0.0, 10.001052, 9.996168 
2.8939974e+3, 3.2613292e+2, -92468.49, -510095.2, -51065.992, 0.076532915, -0.28623196, -86314.98, -86314.98, 0.0, 10.0018215, 9.995156 
2.910035e+3, 1.3654791e+2, -1558656.5, -1509142.3, -62040.203, 0.12990677, 0.31038794, -1467101.9, 134759.31, 0.0000000000007792345, 10.000335, 10.001161 
2.9097158e+3, 1.4654242e+2, -1283176.4, -1471394.3, -69368.445, -0.18900022, 0.2370234, -1260373.0, 243540.89, 0.0, 10.00234, 9.999775 
2.9093993e+3, 1.5653886e+2, -1452389.8, -1561687.5, -18537.666, -0.30445805, 0.32130846, -1449331.1, -43374.64, 0.0, 10.000711, 9.999296 
2.909084e+3, 1.6653559e+2, -1198335.6, -1075644.4, -68004.62, -0.08635007, 0.39599448, -1045404.4, 262583.53, 0.0, 10.000587, 10.001895 
2.9087678e+3, 1.7653199e+2, -1144178.9, -1137040.3, 115596.26, 0.16329499, 0.32043988, -1024958.2, 185060.25, 0.0, 10.000715, 10.000848 
2.9084477e+3, 1.8652739e+2, -1043218.25, -989731.56, 134138.31, 0.07775789, 0.27664527, -879696.6, 232361.05, 0.0, 10.00058, 10.001227 
2.908126e+3, 1.9652258e+2, -1143599.9, -1086840.4, 125280.914, -0.20383266, 0.15140954, -986765.06, 27333.295, 0.0, 9.999565, 10.000413 
2.9078078e+3, 2.0651732e+2, -1021274.25, -1084825.6, 63501.258, -0.0931653, 0.15578386, -982042.2, -65892.61, 0.0, 10.000288, 9.99934 
2.907491e+3, 2.1651125e+2, -782024.06, -959335.1, 83424.53, 0.19712618, 0.08840362, -748944.44, 69267.7, 0.0, 10.00137, 9.999051 
2.907173e+3, 2.2650702e+2, -606337.06, -648322.0, 137817.72, 0.273461, 0.18842684, -487922.22, 232333.16, 0.0, 10.001297, 10.000486 
2.9068542e+3, 2.3650376e+2, -658056.25, -697318.56, 152988.11, 0.1589017, 0.30508173, -523444.9, 98843.87, 0.0, 10.000398, 10.000008 
2.9065338e+3, 2.464999e+2, -546190.5, -406711.03, 87694.02, 0.05281002, 0.34790993, -364406.7, 159920.55, 0.0, 9.999845, 10.001494 
2.9062128e+3, 2.564951e+2, -545989.2, -433098.06, 42478.363, -0.05110134, 0.19272836, -418900.06, 7473.5703, 0.0, 9.999368, 10.000938 
2.9058948e+3, 2.6649117e+2, -352973.75, -256695.27, 157930.3, -0.05823563, 0.20405756, -139730.4, 188676.23, 0.0, 9.999959, 10.001163 
2.905578e+3, 2.7648804e+2, -177708.27, -241827.84, 140074.42, -0.03465063, 0.25063837, -66071.6, 164358.55, 0.0, 10.000915, 10.000191 
2.9052606e+3, 2.8648216e+2, -211433.5, -335224.38, 146822.66, -0.15674706, 0.22934812, -113993.016, 18491.28, 0.0, 10.000752, 9.998863 
2.904943e+3, 2.964739e+2, -337596.3, -323158.97, 71628.71, -0.32729697, -0.010138311, -258386.11, -223822.38, 0.0, 9.998884, 9.999243 
2.9200315e+3, 1.3686176e+2, -1650939.6, -1744573.1, 223856.9, 0.1775148, 0.17575228, -1469056.3, 129736.99, 0.0, 10.00057, 9.999384 
2.9197133e+3, 1.4685987e+2, -1454579.3, -1450744.1, 59604.586, -0.15127362, 0.47908664, -1393026.3, 107794.55, 0.0, 10.000741, 10.000653 
2.919396e+3, 1.56858e+2, -1557809.1, -1471303.3, 123897.984, -0.23796962, 0.6603022, -1383325.4, 19523.635, 0.0, 9.999392, 10.000546 
2.9190794e+3, 1.6685735e+2, -1101898.0, -656475.06, 66330.945, -0.110075705, 0.7542135, -646807.06, 658042.5, 0.0, 9.999608, 10.005278 
2.9187626e+3, 1.7685694e+2, -1114721.0, -829179.25, 104818.24, 0.07384592, 0.6612927, -794833.25, 412006.66, 0.0, 9.999694, 10.003465 
2.9184428e+3, 1.8685168e+2, -1129518.9, -1084423.0, 74949.87, 0.037143264, 0.46071416, -1028702.8, 80179.34, 0.0, 10.000344, 10.000623 
2.9181224e+3, 1.968436e+2, -1159852.1, -1216610.0, 69089.77, -0.032083843, 0.058194134, -1113539.9, -102585.29, 0.0, 10.000022, 9.999302 
2.917803e+3, 2.0683922e+2, -990078.25, -1087284.0, 94531.195, -0.105085894, 0.20769255, -932387.25, -19389.375, 0.0, 10.000688, 9.999094 
2.9174837e+3, 2.1683638e+2, -952269.94, -1090726.1, 91206.48, -0.16833551, 0.4702688, -906994.1, -91964.31, 0.0, 10.000511, 9.998555 
2.9171667e+3, 2.2682993e+2, -662403.25, -600858.7, 92495.16, 0.011622903, 0.32128054, -534151.3, 182939.19, 0.0, 10.000679, 10.001066 
2.9168504e+3, 2.3682165e+2, -815235.8, -778474.1, 92214.37, 0.30399144, -0.14582737, -702826.56, -83660.42, 0.0, 9.999477, 9.999854 
2.9165304e+3, 2.468193e+2, -694896.56, -600691.25, 50622.2, 0.2346774, 0.112109385, -578647.2, -57453.625, 0.0, 9.999476, 10.000281 
2.916208e+3, 2.5681943e+2, -778482.6, -697051.8, 24030.088, -0.009354619, 0.53968805, -690489.4, -267288.2, 0.0, 9.998546, 9.999498 
2.9158896e+3, 2.6681462e+2, -422975.25, -245640.72, 181119.55, -0.089140415, 0.49526384, -132649.44, 192592.16, 0.0, 9.999494, 10.001346 
2.9155734e+3, 2.7680734e+2, -393147.28, -410821.2, 175335.67, -0.11812203, 0.08184158, -226426.02, 873.0435, 0.0, 9.999862, 9.999492 
2.9152557e+3, 2.868005e+2, -429856.75, -651189.5, 111956.266, -0.22915696, 0.10098299, -383102.5, -253738.36, 0.0, 10.000287, 9.99685 
2.9149383e+3, 2.967923e+2, -475485.78, -283467.53, -222.64624, -0.22673099, -0.04171155, -283467.28, -252017.97, 0.0, 9.997647, 10.000076 
2.9300287e+3, 1.371823e+2, -1686700.8, -1623210.3, 181495.8, 0.25795317, 0.27561662, -1470704.4, 124957.51, 0.0, 9.999722, 10.000637 
2.9297045e+3, 1.4718416e+2, -1533580.8, -1151598.4, 189888.34, -0.5215591, 0.7268975, -1073265.9, 424377.47, 0.0, 9.998669, 10.003744 
2.9293916e+3, 1.5718158e+2, -1665062.3, -1306562.3, 347918.84, -0.07563296, 0.57240194, -1094432.5, 305234.47, 0.0, 9.997641, 10.002559 
2.9290757e+3, 1.6717866e+2, -1465063.4, -1103580.5, 243848.72, 0.1198517, 0.5195653, -980793.25, 320897.2, 0.0, 9.998237, 10.002893 
2.928757e+3, 1.7717549e+2, -1352336.9, -1143420.5, 135283.7, 0.042154692, 0.399424, -1076960.0, 126754.125, 0.0, 9.998832, 10.001759 
2.9284385e+3, 1.8717116e+2, -1068485.1, -1096866.0, 52797.0, -0.019623581, 0.37727207, -1028004.8, 77747.586, 0.0, 10.000898, 10.000294 
2.9281202e+3, 1.971657e+2, -730057.1, -993585.06, 46343.496, -0.055596244, 0.2828367, -722144.8, 285658.5, 0.0, 10.002829, 9.9994955 
2.9278013e+3, 2.0716035e+2, -624257.44, -854801.0, 12418.135, -0.01575718, 0.28864056, -623590.5, 286264.28, 0.0, 10.002926, 9.999629 
2.9274818e+3, 2.1715525e+2, -739609.44, -924636.4, 53628.88, -0.032086365, 0.29203323, -725189.25, 86716.1, 0.0, 10.001542, 9.999252 
2.9271632e+3, 2.2715011e+2, -521128.94, -576134.7, 53227.273, 0.036346924, 0.2640933, -488718.97, 225235.19, 0.0, 10.001641, 10.000884 
2.9268453e+3, 2.3714453e+2, -404962.06, -573438.9, 18020.648, 0.11894185, 0.106994435, -403056.13, 212950.08, 0.0, 10.002053, 10.00011 
2.9265252e+3, 2.471409e+2, -355368.22, -565382.56, -56438.84, 0.08428651, 0.2766082, -341161.94, 176884.97, 0.0, 10.002209, 9.999292 
2.9262033e+3, 2.5713828e+2, -270320.97, -505962.97, -86464.63, -0.03463609, 0.5542989, -241998.48, 178082.84, 0.0, 10.002074, 9.999188 
2.9258856e+3, 2.6713285e+2, -169227.67, -161195.69, 50329.41, -0.06349384, 0.45981273, -114722.3, 207406.27, 0.0, 10.0012665, 10.001125 
2.9255697e+3, 2.7712563e+2, -253265.67, -301452.72, -1898.8013, -0.09028299, 0.07820436, -253190.97, -29004.574, 0.0, 10.000424, 10.00004 
2.9252538e+3, 2.8712022e+2, -366974.16, -528011.2, 53827.22, 0.0033941087, 0.14767978, -350639.16, -224402.5, 0.0, 10.000091, 9.997918 
2.924935e+3, 2.9711315e+2, -118196.71, 27796.246, -22116.03, 0.055698752, 0.05955069, 31072.992, 59382.164, 0.0, 9.9991865, 10.001571 
2.940024e+3, 1.3750467e+2, -1635580.5, -1426469.6, 97049.17, 0.27853963, 0.46959645, -1388370.3, 204139.98, 0.0, 9.999273, 10.002232 
2.9396963e+3, 1.4750843e+2, -1404007.9, -792078.0, 141278.22, -0.7115228, 0.8800137, -761035.4, 733426.4, 0.0, 9.998329, 10.006365 
2.939388e+3, 1.5750505e+2, -1368396.9, -1027565.0, 140722.95, 0.23719072, 0.38327447, -976972.9, 419508.66, 0.0, 9.99916, 10.003728 
2.9390723e+3, 1.6749948e+2, -1493525.6, -1465701.5, 130733.53, 0.4091519, 0.20117216, -1348141.9, -49608.906, 0.0, 9.9996395, 9.999682 
2.9387522e+3, 1.7749274e+2, -1491133.0, -1527791.4, 129487.71, 0.14105566, 0.025847523, -1378683.8, -178083.8, 0.0, 9.999324, 9.998836 
2.9384342e+3, 1.8748993e+2, -1147625.9, -1169831.8, 149992.77, -0.019772451, 0.28290904, -1008325.75, 94303.555, 0.0, 10.000556, 9.999935 
2.9381183e+3, 1.974882e+2, -982055.8, -1148443.9, 115858.4, -0.0041734627, 0.5902178, -922616.0, 82032.414, 0.0, 10.001344, 9.9991255 
2.937801e+3, 2.0748088e+2, -742277.1, -832529.4, -22064.97, 0.17620997, 0.35106164, -737171.44, 169546.08, 0.0, 10.001872, 10.0002365 
2.9374823e+3, 2.1747148e+2, -932342.56, -1045348.06, 615.64044, 0.40739098, -0.12875912, -932339.2, -123533.88, 0.0, 10.000428, 9.998953 
2.9371613e+3, 2.2746965e+2, -650105.56, -685949.2, 79917.29, 0.19270894, 0.20284876, -586125.2, 124700.49, 0.0, 10.001121, 10.0002775 
2.9368392e+3, 2.3747012e+2, -681954.56, -841220.9, 48053.984, -0.1776212, 0.69114447, -668578.94, -55753.098, 0.0, 10.0008955, 9.998761 
2.9365194e+3, 2.4746308e+2, -559273.4, -766087.9, -32442.314, -0.21591352, 0.62960076, -554303.7, -39405.12, 0.0, 10.001442, 9.998187 
2.9361996e+3, 2.574536e+2, -579621.2, -791551.94, -52449.94, -0.090666376, 0.30690634, -567351.0, -150356.06, 0.0, 10.000735, 9.997826 
2.9358828e+3, 2.6744783e+2, -293129.47, -292265.6, 41243.32, -0.0097090965, 0.2631619, -251451.94, 67597.0, 0.0, 10.000799, 10.000444 
2.9355663e+3, 2.7744317e+2, -438850.88, -389326.9, -7360.8413, 0.01931187, 0.18563306, -388256.0, -167167.44, 0.0, 9.999295, 9.999956 
2.9352534e+3, 2.874409e+2, -190687.17, -3870.1287, 49058.51, 0.45310637, 0.32575876, 8229.119, 131333.7, 0.0, 9.999606, 10.001667 
2.9349262e+3, 2.9743683e+2, -288133.5, 32418.178, -163042.58, -0.2782487, 0.21112877, 100771.36, 125909.85, 0.0, 9.997979, 10.002076 
2.950016e+3, 1.3782863e+2, -1665580.6, -1250460.8, -214284.05, -0.03926527, 0.69687545, -1159694.1, 429635.28, 0.0, 9.998206, 10.003993 
2.9496956e+3, 1.4782509e+2, -1726815.4, -1379658.3, 145016.78, -0.14157434, 0.54337037, -1327052.5, 164300.72, 0.0, 9.997981, 10.002509 
2.9493836e+3, 1.5781999e+2, -1259608.5, -1228427.0, -50865.51, 0.14321204, 0.23832223, -1190816.5, 202582.83, 0.0, 10.000943, 10.001522 
2.9490668e+3, 1.6781685e+2, -1063556.9, -1052442.3, -110986.33, 0.23293959, 0.23475365, -946874.2, 348553.1, 0.0, 10.00162, 10.001605 
2.948747e+3, 1.7781404e+2, -1149256.1, -1161010.4, 47548.53, 0.0026284317, 0.273101, -1107222.9, 90229.766, 0.0, 10.0007, 10.000719 
2.9484305e+3, 1.8781064e+2, -1072556.0, -1022452.7, 160671.23, -0.0075065983, 0.32653052, -884891.8, 214592.33, 0.0, 10.0004835, 10.001021 
2.9481155e+3, 1.9780709e+2, -1128066.6, -1146208.6, 183917.69, 0.08471227, 0.36903274, -952996.3, 48521.656, 0.0, 9.999896, 9.999877 
2.9477975e+3, 2.078009e+2, -936700.8, -1026477.0, 19615.662, 0.17698647, 0.2793832, -932602.0, -29021.531, 0.0, 10.000819, 9.999488 
2.9474774e+3, 2.177934e+2, -721790.44, -938019.1, -14421.259, 0.2110197, 0.07959792, -720832.8, 84823.195, 0.0, 10.001683, 9.999133 
2.947157e+3, 2.2779086e+2, -475376.13, -536161.4, 79422.266, 0.042154435, 0.2885302, -420729.88, 286952.84, 0.0, 10.001975, 10.000924 
2.9468358e+3, 2.377901e+2, -442860.2, -607061.44, 85012.18, -0.23865555, 0.6085866, -406776.28, 202915.8, 0.0, 10.001889, 9.999916 
2.946516e+3, 2.4778323e+2, -449644.3, -644804.8, 102516.39, -0.19068588, 0.48661178, -405691.8, 106066.234, 0.0, 10.00172, 9.998985 
2.9461974e+3, 2.577738e+2, -373206.13, -639881.9, 185565.34, -0.0028732775, 0.13947235, -278041.3, 135807.7, 0.0, 10.001718, 9.998472 
2.94588e+3, 2.6776847e+2, -217031.95, -451260.16, 254023.88, 0.06442348, 0.24230355, -54425.047, 261481.3, 0.0, 10.0020275, 9.998828 
2.9455626e+3, 2.7776477e+2, -30951.676, -226990.95, 117934.14, 0.016687667, 0.44545174, 24378.973, 242327.73, 0.0, 10.002091, 9.999768 
2.945247e+3, 2.8776053e+2, -6728.1436, 271475.16, 50484.043, 0.35240376, 0.291141, 280352.94, 400335.72, 0.0, 9.999868, 10.003538 
2.9449147e+3, 2.9775944e+2, -193911.66, 27903.307, -209097.95, -0.7741232, 0.36227313, 153686.39, 175669.13, 0.0, 9.998493, 10.001899 
2.960011e+3, 1.3814946e+2, -1381574.3, -1057248.5, -467970.13, 0.108895406, 0.6602772, -724140.9, 862035.56, 0.00000000001490612, 9.99996, 10.004476 
2.9596952e+3, 1.4813998e+2, -1706125.6, -1836637.3, 198198.11, 0.42566863, 0.16573955, -1562717.0, -74453.22, 0.0, 10.000193, 9.9983 
2.9593784e+3, 1.581336e+2, -1713906.5, -1701719.4, 85799.875, 0.07743674, 0.13844131, -1621797.0, -231462.16, 0.0, 9.998935, 9.999243 
2.9590613e+3, 1.6813375e+2, -1155102.9, -781057.56, -47314.203, 0.05140876, 0.3613057, -775165.44, 517164.03, 0.0, 9.999631, 10.004427 
2.9587424e+3, 1.7813565e+2, -1140617.6, -901719.5, 72355.75, -0.010702981, 0.59176517, -881513.9, 312789.56, 0.0, 9.999707, 10.002976 
2.9584268e+3, 1.8813114e+2, -1041788.3, -844517.7, 133556.47, 0.067526616, 0.3504746, -777122.06, 319218.16, 0.0, 10.000108, 10.002366 
2.9581127e+3, 1.9812447e+2, -1238938.3, -1198895.4, 133738.27, 0.31059715, -0.033485718, -1083688.1, -85288.93, 0.0, 9.999234, 9.999815 
2.9577926e+3, 2.0812097e+2, -1087586.5, -1213923.9, 65339.96, 0.14743035, 0.21230316, -1059872.9, -159430.95, 0.0, 10.00043, 9.998313 
2.9574704e+3, 2.1811779e+2, -954142.6, -1139528.6, 67489.234, -0.13548134, 0.5381161, -932176.2, -129690.984, 0.0, 10.00065, 9.998185 
2.9571515e+3, 2.2811227e+2, -509563.38, -439990.6, 107893.34, -0.17616637, 0.40915522, -361414.44, 343123.63, 0.0, 10.001337, 10.00185 
2.9568338e+3, 2.3810683e+2, -618232.25, -597429.0, 71099.34, -0.10359739, 0.15086414, -535974.44, 70610.984, 0.0, 10.00039, 10.000699 
2.956515e+3, 2.4810243e+2, -400506.44, -391472.47, 80472.36, 0.022021564, 0.10257956, -315390.44, 193229.78, 0.0, 10.001165, 10.000942 
2.956196e+3, 2.580976e+2, -561282.6, -727759.6, 187351.89, 0.18357842, 0.035475783, -439510.44, -28850.094, 0.0, 10.000561, 9.99838 
2.9558778e+3, 2.6809338e+2, -507361.47, -868939.6, 261552.72, 0.09151589, 0.4021637, -370196.9, -57479.434, 0.0, 10.001355, 9.996202 
2.955558e+3, 2.7808926e+2, -391449.34, -645497.4, 83205.85, -0.17288446, 0.8076869, -366623.72, -151844.88, 0.0, 10.000837, 9.997447 
2.9552346e+3, 2.8807914e+2, -74541.79, 282432.6, -69458.64, -0.3914486, 0.08636777, 295471.34, 412343.34, 0.0, 9.999389, 10.003746 
2.9549137e+3, 2.9808e+2, -464979.8, -301602.66, 85382.9, -0.31036627, 0.32405815, -265124.97, -246272.17, 0.0, 9.997684, 9.999978 
2.9700106e+3, 1.384626e+2, -1346888.1, -1499473.8, -283034.3, 0.33999205, 0.2299751, -1130044.5, 453057.66, 0.00000010737005, 10.00217, 10.000368 
2.9696864e+3, 1.4845748e+2, -1313000.1, -1478613.9, -8479.22, -0.13543616, 0.194712, -1312567.1, 172590.53, 0.0, 10.002128, 9.99983 
2.9693705e+3, 1.5845573e+2, -1949652.9, -1656160.6, 102820.19, -0.05010682, 0.49801832, -1623724.0, -236540.72, 0.0, 9.99658, 10.000707 
2.9690558e+3, 1.6845448e+2, -1437831.5, -842545.06, 141940.11, 0.16512406, 0.4829114, -810433.06, 478754.97, 0.0, 9.997321, 10.005147 
2.9687402e+3, 1.7845319e+2, -1159792.1, -903039.1, 154313.58, 0.21455848, 0.35867256, -830683.94, 360505.47, 0.0, 9.99947, 10.003097 
2.9684237e+3, 1.8844903e+2, -1076957.8, -995448.56, 70594.62, 0.18513024, 0.23080124, -954689.1, 138537.33, 0.0, 10.000344, 10.001261 
2.968107e+3, 1.9844371e+2, -1054723.4, -1034705.44, -211.96404, 0.17054258, 0.06349632, -1034703.2, -39426.45, 0.0, 10.000037, 10.000596 
2.9677883e+3, 2.0844157e+2, -818748.44, -758564.3, 72033.195, 0.11289078, 0.22444464, -710590.3, 186710.58, 0.0, 10.000817, 10.0012865 
2.9674685e+3, 2.1844028e+2, -685519.3, -814896.2, 211020.95, -0.028553234, 0.48438206, -529494.25, 269824.88, 0.0, 10.001518, 10.000039 
2.9671493e+3, 2.2843504e+2, -599947.2, -711306.94, 167283.08, -0.06873982, 0.46907413, -479320.88, 222052.0, 0.0, 10.00152, 9.999987 
2.9668304e+3, 2.3842868e+2, -527757.2, -609804.0, 11941.9795, -0.090663135, 0.30112213, -526054.3, 77380.85, 0.0, 10.001078, 10.000325 
2.9665112e+3, 2.4842396e+2, -312194.38, -234278.56, -30873.104, 0.013267194, 0.1644437, -223528.66, 281943.06, 0.0, 10.001159, 10.0020685 
2.966192e+3, 2.5842e+2, -334566.4, -476860.5, 15246.239, 0.13511191, 0.07991043, -332951.2, 74549.234, 0.0, 10.001342, 9.999747 
2.9658732e+3, 2.6841682e+2, -483585.22, -821848.5, 215778.02, -0.030880837, 0.47544804, -378553.28, -69007.07, 0.0, 10.001178, 9.996707 
2.9655525e+3, 2.7841306e+2, -351064.5, -601282.56, 192970.1, -0.3489604, 0.9079225, -246195.86, -34591.875, 0.0, 10.00078, 9.997862 
2.9652303e+3, 2.884021e+2, 61063.47, 171987.25, -43009.434, -0.3357442, 0.20926645, 186709.64, 300416.97, 0.0, 10.000945, 10.002344 
2.9649156e+3, 2.984039e+2, -296851.94, -284565.8, 49880.543, 0.49655765, 0.7325374, -240451.48, -224769.42, 0.0, 9.998959, 9.999551 
2.9800084e+3, 1.3877775e+2, -1649147.9, -2028686.5, 129090.12, 0.31033292, -0.014409045, -1609403.3, -29393.035, 0.00000019973128, 10.001743, 9.996961 
2.979679e+3, 1.4877753e+2, -1226349.8, -1183452.1, -69137.39, -0.58319074, 0.4214112, -1132512.9, 349512.84, 0.000000000008976791, 10.001663, 10.002089 
2.9793632e+3, 1.5877992e+2, -1534632.4, -1289595.3, 58435.848, 0.015186408, 0.91401464, -1276373.1, 107635.47, 0.0, 9.998752, 10.002205 
2.9790512e+3, 1.6877621e+2, -1264539.0, -766986.44, 207246.73, 0.39473465, 0.6084995, -691971.4, 594063.44, 0.0, 9.9986315, 10.0050335 
2.9787388e+3, 1.7877045e+2, -1381841.1, -1161655.9, 171584.31, 0.5905489, 0.07724595, -1067881.9, 120195.984, 0.0, 9.998652, 10.001743 
2.9784206e+3, 1.8876694e+2, -1289015.5, -1286474.0, 70309.25, 0.33666018, 0.18116707, -1217424.0, -127309.555, 0.0, 9.999763, 9.999552 
2.9781008e+3, 1.987643e+2, -1092603.8, -995258.8, 45858.508, 0.042301763, 0.39277136, -977058.2, 15087.112, 0.0, 9.999608, 10.001073 
2.9777843e+3, 2.0876226e+2, -620972.56, -232317.22, 70617.914, 0.12520544, 0.25956273, -219883.84, 674275.75, 0.0, 10.00028, 10.005189 
2.9774684e+3, 2.1876147e+2, -898822.3, -783461.8, 133159.75, 0.3654396, 0.20541954, -696026.5, 100133.96, 0.0, 9.999564, 10.001203 
2.9771483e+3, 2.2875872e+2, -925238.56, -1171364.0, 102948.3, 0.20451465, 0.5685232, -887855.7, -189658.88, 0.0, 10.000758, 9.997141 
2.9768264e+3, 2.3875365e+2, -819930.0, -997462.6, 14753.31, -0.07615716, 0.8148688, -818712.3, -218454.27, 0.0, 10.000292, 9.998024 
2.976506e+3, 2.4874693e+2, -411046.1, -209421.38, -24804.293, -0.1079833, 0.49945483, -206414.73, 295901.63, 0.0, 10.000353, 10.002574 
2.976187e+3, 2.5874114e+2, -607081.0, -563693.1, 21687.635, -0.034541093, 0.20350532, -554711.6, -150349.77, 0.0, 9.9994335, 10.000059 
2.975867e+3, 2.6873884e+2, -401328.13, -454708.28, 186229.45, -0.2456087, 0.46679342, -239885.88, 66504.16, 0.0, 10.000495, 9.999507 
2.975547e+3, 2.7873635e+2, -531978.94, -673192.25, 167876.2, -0.51720273, 0.77622193, -420465.5, -212041.86, 0.0, 9.999665, 9.997884 
2.9752347e+3, 2.887292e+2, -314342.6, -380422.2, -60034.44, 0.50092965, 0.6698623, -278856.78, -168364.27, 0.0, 10.000155, 9.9988785 
2.9749084e+3, 2.9872486e+2, -459069.34, -207297.86, -210021.16, 0.3013925, 0.8251857, -88324.24, -75792.35, 0.0, 9.997506, 10.000702 
2.9899997e+3, 1.3910432e+2, -1822694.3, -1932898.6, 249055.13, -0.3260818, 0.31424403, -1622718.6, -45915.938, 0.000000019519112, 9.999813, 9.998603 
2.989684e+3, 1.4910367e+2, -1437065.9, -1351866.1, 58664.527, 0.2520618, 0.70607054, -1321965.9, 156851.44, 0.0, 10.00056, 10.001498 
2.9893622e+3, 1.590992e+2, -1296964.0, -1360857.6, 110282.61, 0.2333548, 0.62006664, -1214094.3, 166769.52, 0.0, 10.001158, 10.000575 
2.9890463e+3, 1.6909532e+2, -1304086.8, -1117057.9, 106876.266, 0.38220254, 0.5621448, -1068560.0, 214343.11, 0.0, 9.999776, 10.0020895 
2.9887304e+3, 1.7909166e+2, -1547198.9, -1288154.3, 50555.06, 0.3103938, 0.48581344, -1278637.6, -93698.76, 0.0, 9.997703, 10.001333 
2.9884124e+3, 1.8908799e+2, -1197121.0, -999496.2, 133204.2, 0.00766037, 0.4398289, -932455.5, 154519.78, 0.0, 9.999345, 10.001746 
2.988094e+3, 1.9908486e+2, -981082.56, -886100.6, 141002.75, -0.24173784, 0.45817477, -784805.94, 204200.63, 0.0, 10.000074, 10.001606 
2.9877746e+3, 2.0908171e+2, -865655.1, -567728.3, -44180.37, -0.37410498, 0.35232475, -561314.75, 329720.34, 0.0, 9.999478, 10.0033045 
2.9874545e+3, 2.190773e+2, -1001718.4, -834913.6, -148390.6, -0.5413423, 0.098316416, -748093.44, 44981.71, 0.0, 9.99872, 10.001294 
2.9871395e+3, 2.2907305e+2, -595568.44, -757288.44, 21001.94, -0.35334063, 0.14116535, -592885.5, 102233.26, 0.0, 10.001797, 9.99956 
2.986825e+3, 2.3907048e+2, -15832.061, -440821.5, 38887.36, -0.07820299, 0.4186802, -12303.095, 584844.4, 0.0, 10.004956, 9.999649 
2.986505e+3, 2.4906565e+2, -377670.97, -375098.63, -148405.45, 0.16622224, 0.37512538, -227973.77, 271218.53, 0.0, 10.001291, 10.001051 
2.9861835e+3, 2.5905892e+2, -954811.94, -687812.9, -77961.44, 0.29216558, 0.11976948, -666715.8, -265462.03, 0.0, 9.996679, 10.000621 
2.9858643e+3, 2.690556e+2, -342238.5, -182334.34, 161978.63, -0.055361565, 0.14032973, -81650.3, 221633.11, 0.0, 9.999776, 10.001837 
2.9855448e+3, 2.7905366e+2, 219479.77, -85995.74, 28671.098, -0.45686054, 0.3009128, 222147.45, 427448.06, 0.0, 10.003699, 10.000089 
2.9852316e+3, 2.8904286e+2, -154066.13, -313328.34, -88482.48, 0.6926316, -0.23446894, -114658.33, -7253.7314, 0.0, 10.001155, 9.999052 
2.9848978e+3, 2.9903722e+2, -78172.02, 119556.12, 33900.375, -0.110828705, -0.1690064, 125206.83, 134663.47, 0.0, 9.999138, 10.002434 
2.999996e+3, 1.3942902e+2, -1342955.0, -1551166.8, -81962.48, -0.33599743, 0.31805858, -1314562.3, 259053.6, 0.0, 10.002236, 10.000117 
2.999683e+3, 1.4942029e+2, -1422848.3, -1632840.0, -51246.3, 0.6109128, 0.011756586, -1411009.6, 64693.516, 0.0, 10.001887, 9.998866 
2.9993507e+3, 1.5941158e+2, -1308019.8, -1766772.1, -196581.69, -0.6315541, -0.2629362, -1235306.9, 142481.47, 0.0, 10.002669, 9.997026 
2.999038e+3, 1.6940935e+2, -1449442.9, -1645603.6, -284901.03, 0.084726736, 0.16543473, -1246212.1, 33613.863, 0.0, 10.000684, 9.9979105 
2.9987282e+3, 1.7940879e+2, -1526933.0, -1456627.1, -239299.69, 0.72235346, 0.68865955, -1249912.1, -68065.11, 0.0, 9.998483, 9.999794 
2.9984102e+3, 1.8940702e+2, -1141406.5, -675164.8, -167184.7, 0.36125803, 0.59130424, -621412.75, 462446.4, 0.0, 9.998373, 10.004357 
2.9980922e+3, 1.9940071e+2, -1123185.6, -1103965.9, -192124.89, -0.047149237, 0.10721115, -921210.7, 64703.34, 0.0, 9.999657, 10.000283 
2.9977772e+3, 2.0940223e+2, -740748.06, -831526.8, -91046.38, 0.36622587, 0.6517242, -684404.25, 203499.48, 0.0, 10.001783, 10.00024 
2.9974562e+3, 2.1940157e+2, -580863.2, -815445.06, 93099.24, 0.1766788, 1.0800854, -548405.56, 241509.69, 0.0, 10.002403, 9.999596 
2.9971388e+3, 2.2939064e+2, -547348.56, -332805.97, 92744.625, -0.13839889, 0.21832874, -298272.13, 393738.0, 0.0, 10.000458, 10.002959 
2.9968262e+3, 2.3938666e+2, -846582.1, -703497.0, -150285.92, 0.055411477, -0.02104267, -608593.75, -14557.618, 0.0, 9.998701, 10.000768 
2.996497e+3, 2.493866e+2, -493754.78, -665038.25, 20421.656, -0.21580927, 0.4534254, -491353.63, 4687.0874, 0.0, 10.001573, 9.998745 
2.9961726e+3, 2.593804e+2, -667948.5, -733243.6, 213312.36, -0.019247033, 0.4592846, -484799.8, -86693.055, 0.0, 9.999529, 9.998822 
2.9958624e+3, 2.6937371e+2, 498602.9, 384684.16, 332520.0, 0.23327391, 0.052292924, 779006.75, 1079168.0, 0.0, 10.005064, 10.002954 
2.995545e+3, 2.7937242e+2, -69071.414, -64584.69, 19835.818, -0.32289675, 0.121543355, -46865.777, 155295.56, 0.0, 10.001122, 10.001373 
2.995223e+3, 2.8936964e+2, -145184.52, 14748.4375, -91124.12, 0.2757322, 0.09382623, 56018.27, 160202.1, 0.0, 10.000076, 10.001602 
2.994896e+3, 2.9936317e+2, 19132.877, 242129.14, -44017.67, 0.30143678, -0.17718875, 250503.39, 256743.0, 0.0, 9.999806, 10.002731 
