coord_x,coord_y,stress_xx,stress_yy,tau_xy,velocity_x,velocity_y,stress_1,eps,damage,lx,ly
4.9993247e+0, 1.2609498e+2, -1869876.5, -1792485.3, 64937.848, -0.013933308, 0.19035971, -1755588.0, -51310.59, 0.0027102246, 9.998779, 10.000051 
4.99955e+0, 1.3609605e+2, -1664550.1, -1457555.4, 45903.94, 0.0120727895, 0.02838479, -1447832.3, 158427.94, 0.0016001622, 9.998779, 10.001666 
4.999879e+0, 1.4609456e+2, -1648283.4, -1605138.4, 49148.01, 0.027068669, -0.18019776, -1573036.9, -64764.133, 0.00071385584, 9.999128, 9.999797 
5.0001943e+0, 1.5609637e+2, -1465001.8, -1476181.4, 6348.8853, 0.027503751, -0.045757316, -1462132.5, -51876.33, 0.00020880907, 9.999762, 9.999705 
5.00021e+0, 1.6609675e+2, -1389894.8, -1489035.3, 27124.35, 0.015690135, 0.07451097, -1382958.9, -70705.58, 0.00003056022, 10.000038, 9.998814 
5.000018e+0, 1.7609507e+2, -1288581.9, -1387162.9, 66872.07, -0.004263281, -0.028396051, -1254797.5, -40527.273, 0.0000010193884, 10.0000515, 9.998834 
4.9999958e+0, 1.8609463e+2, -1124465.0, -1143221.8, 73343.46, -0.005639457, -0.0073857456, -1059902.8, 56370.934, 0.0, 10.000027, 9.999843 
5.0000656e+0, 1.9609493e+2, -1049695.9, -1083711.5, 23026.357, 0.0040866043, -0.012009779, -1038077.2, -19808.2, 0.0, 9.999982, 9.999605 
5.000149e+0, 2.0609422e+2, -998786.44, -1143825.6, 24159.484, -0.0010203276, 0.029057434, -994868.0, -74589.68, 0.0, 10.00025, 9.998384 
5.000199e+0, 2.1609241e+2, -836026.5, -1019121.2, 7890.5947, -0.019164251, -0.04493525, -835687.1, -13385.994, 0.0, 10.0007105, 9.998346 
5.000597e+0, 2.2609133e+2, -669720.2, -862845.1, 23871.467, 0.0028879477, 0.0050189244, -666813.25, 57497.918, 0.0, 10.001072, 9.998574 
5.0012463e+0, 2.3609045e+2, -537442.8, -760198.8, 23774.494, 0.053208943, 0.0028949762, -534933.7, 91381.805, 0.0, 10.001357, 9.998469 
5.001144e+0, 2.460887e+2, -462809.16, -741854.6, 24424.666, 0.036960054, 0.018656276, -460687.44, 67644.625, 0.0, 10.001488, 9.997861 
5.0005543e+0, 2.56086e+2, -362618.84, -645072.3, -2487.9187, -0.023477716, -0.08996192, -362596.94, 67763.46, 0.000000000017365094, 10.001509, 9.997845 
5.000397e+0, 2.660847e+2, -210254.1, -420187.13, -14451.549, -0.03613831, -0.046087895, -209263.94, 123109.016, 0.000000288742, 10.0014515, 9.998736 
5.0005174e+0, 2.7608424e+2, -139628.86, -352254.3, -50438.266, -0.018673763, -0.016878378, -128270.8, 106104.99, 0.0000032414011, 10.001332, 9.998589 
5.000791e+0, 2.860834e+2, -83665.66, -416098.63, -21725.309, -0.007254436, 0.107864924, -82251.87, 54134.844, 0.00001724438, 10.0016575, 9.9973135 
5.001097e+0, 2.9608104e+2, 124619.77, -243234.42, -265.1559, -0.010210925, 0.07829926, 124619.97, 163034.61, 0.00007523581, 10.002302, 9.997522 
5.0014335e+0, 3.0607986e+2, 246002.58, -111503.875, -17131.305, 0.009958098, 0.17405471, 246821.61, 246821.61, 0.0002887192, 10.002589, 9.997952 
5.001615e+0, 3.160771e+2, 302245.34, 33554.71, -66885.414, 0.033015314, 0.06032015, 317974.4, 317974.4, 0.00075781514, 10.002388, 9.999064 
1.499795e+1, 1.2609394e+2, -1900272.4, -1774750.3, 31644.432, -0.040834397, -0.07188206, -1767223.9, -62944.066, 0.0026043395, 9.998484, 10.000334 
1.4998724e+1, 1.3609809e+2, -1681356.9, -1449851.3, 59578.363, 0.04633555, 0.11167708, -1435418.5, 170819.28, 0.0015429672, 9.998637, 10.001809 
1.4999627e+1, 1.4609712e+2, -1723899.9, -1709072.9, 59799.086, 0.08212189, -0.017004661, -1656229.5, -147981.11, 0.0006869522, 9.998924, 9.999195 
1.5000561e+1, 1.5609711e+2, -1521258.8, -1548791.8, 40884.44, 0.0824174, 0.030876148, -1491885.4, -81633.836, 0.0001968844, 9.999598, 9.999296 
1.5000658e+1, 1.6609707e+2, -1313131.6, -1283930.0, 16410.879, 0.051311255, 0.045323726, -1276564.9, 35684.69, 0.000026649353, 9.999865, 10.000317 
1.5000099e+1, 1.7609625e+2, -1220431.6, -1208683.9, 78996.54, -0.0085189575, -0.0917853, -1135343.1, 78909.164, 0.00000066228677, 9.999907, 10.000143 
1.4999953e+1, 1.8609567e+2, -1222926.1, -1292655.3, 60096.14, -0.017354432, -0.09510818, -1188313.5, -72055.914, 0.0, 9.999822, 9.998922 
1.5000202e+1, 1.9609526e+2, -1136625.1, -1216964.3, 36324.098, 0.01463958, -0.049342867, -1122637.3, -104372.72, 0.0, 9.999802, 9.998788 
1.5000424e+1, 2.0609489e+2, -1030676.2, -1156695.8, 32453.13, -0.0034915847, 0.062330175, -1022809.75, -102536.88, 0.0, 10.00005, 9.9984 
1.5000576e+1, 2.1609434e+2, -860216.94, -1018560.0, 38877.81, -0.058736708, 0.14181605, -851186.3, -28902.156, 0.0, 10.000519, 9.998451 
1.5001789e+1, 2.2609292e+2, -665632.8, -805474.44, 22103.959, 0.011301327, 0.12245794, -662222.2, 62075.395, 0.0, 10.000887, 9.999066 
1.5003712e+1, 2.3609087e+2, -540799.0, -715881.2, 46218.805, 0.15903214, -0.012325162, -529347.06, 96965.85, 0.0, 10.001164, 9.998874 
1.5003447e+1, 2.4608934e+2, -511500.97, -803132.9, 13267.264, 0.11303808, 0.025882082, -510898.63, 17429.453, 0.0, 10.001338, 9.997522 
1.5001667e+1, 2.5608793e+2, -411662.84, -695890.9, 7915.305, -0.068726994, 0.10606643, -411442.56, 18902.775, 0.0, 10.00131, 9.9976015 
1.5001187e+1, 2.660858e+2, -275394.66, -512964.13, -29352.486, -0.10744323, 0.10384155, -271821.8, 60545.367, 0.00000013049092, 10.001297, 9.998184 
1.5001573e+1, 2.760832e+2, -202558.2, -433606.75, -42446.656, -0.053496674, 0.0016363752, -195006.98, 39385.316, 0.0000023602508, 10.00114, 9.998136 
1.5002331e+1, 2.8608212e+2, -38784.48, -281188.84, -7127.0117, -0.024096597, 0.07205492, -38575.12, 97827.42, 0.000014211254, 10.001507, 9.998323 
1.5003277e+1, 2.9608127e+2, 148702.92, -136546.13, 39720.37, -0.032675777, 0.12463513, 154130.64, 192541.17, 0.00006483318, 10.002074, 9.998379 
1.5004353e+1, 3.0607834e+2, 159330.06, -229754.6, -31503.883, 0.04146531, 0.051501404, 161864.4, 161864.4, 0.00025577057, 10.002395, 9.9972515 
1.5004809e+1, 3.160753e+2, 192247.97, -85815.02, -38242.387, 0.10108189, 0.026891522, 197411.61, 197411.61, 0.0006795775, 10.001987, 9.998455 
2.4996445e+1, 1.2609354e+2, -1999343.4, -1875437.6, 51262.566, -0.004610507, -0.1822393, -1856979.0, -152700.13, 0.0024837567, 9.998068, 9.999813 
2.4997781e+1, 1.360982e+2, -1619397.3, -1496846.8, -27300.326, 0.060780928, 0.11416242, -1491040.3, 115197.31, 0.0014731403, 9.9994335, 10.001084 
2.4998945e+1, 1.4609772e+2, -1608819.3, -1638259.1, 5986.765, 0.09424036, 0.05827457, -1607648.4, -99403.31, 0.00065158884, 9.999671, 9.999302 
2.500013e+1, 1.5609719e+2, -1562596.8, -1561921.4, 28290.52, 0.10318322, 0.032307427, -1533966.5, -123714.555, 0.0001815959, 9.999292, 9.999342 
2.5000492e+1, 1.6609715e+2, -1366355.3, -1306725.0, 8825.497, 0.07408823, 0.047505766, -1305446.3, 6803.516, 0.000022322774, 9.999505, 10.000318 
2.5000343e+1, 1.7609681e+2, -1193883.6, -1195921.0, -55834.55, 0.022638598, -0.05204629, -1139058.5, 75189.51, 0.00000035252413, 10.000115, 10.000112 
2.500036e+1, 1.86096e+2, -1143624.1, -1305774.4, -68869.45, 0.010790451, -0.05184804, -1118321.8, -2065.525, 0.0, 10.000575, 9.998464 
2.5000596e+1, 1.9609495e+2, -1012377.8, -1195192.3, -65929.1, 0.030393073, -0.03820977, -991082.2, 27188.111, 0.0, 10.000821, 9.99843 
2.5001046e+1, 2.0609461e+2, -889965.2, -1065378.9, -3566.3728, 0.017827662, 0.07862782, -889892.7, 30384.861, 0.0, 10.000909, 9.998609 
2.5001597e+1, 2.1609445e+2, -803615.0, -976206.94, 5902.8223, -0.01771075, 0.16984673, -803413.4, 18869.63, 0.0, 10.000841, 9.998582 
2.5002825e+1, 2.2609328e+2, -701428.6, -845626.0, -5110.372, 0.03937917, 0.18174087, -701247.75, 23047.428, 0.0, 10.000741, 9.998845 
2.5004515e+1, 2.3609127e+2, -638969.2, -790210.5, -41147.914, 0.1569201, 0.066189684, -628499.0, -2185.9346, 0.0, 10.000594, 9.99863 
2.5004366e+1, 2.4608973e+2, -552863.5, -802250.56, -25604.453, 0.09488657, 0.10489335, -550261.9, -21933.182, 0.0, 10.000981, 9.997684 
2.500296e+1, 2.5608823e+2, -344153.28, -651060.44, -11081.264, -0.08417595, 0.15284817, -343753.72, 86591.27, 0.0, 10.001733, 9.997689 
2.50029e+1, 2.6608586e+2, -199466.92, -511602.56, -6760.2813, -0.09334704, 0.14198597, -199320.58, 133048.39, 0.00000003137998, 10.001981, 9.997853 
2.500375e+1, 2.7608296e+2, -111801.44, -418392.47, -11999.149, 0.019402817, 0.03498924, -111332.54, 123065.45, 0.0000016165861, 10.001899, 9.997863 
2.5004324e+1, 2.860819e+2, -2815.4885, -236114.23, 44484.797, 0.025220057, 0.10743728, 5378.934, 141785.64, 0.000011342512, 10.001644, 9.998556 
2.5004804e+1, 2.9608142e+2, 33064.75, -173401.81, 22344.691, -0.035287194, 0.16273285, 35455.31, 73863.95, 0.000053962976, 10.001227, 9.998518 
2.5006086e+1, 3.0607715e+2, 41622.098, -295583.1, 5826.528, 0.026742378, -0.044010017, 41722.742, 41722.742, 0.00022089553, 10.001635, 9.997168 
2.5007513e+1, 3.1607538e+2, 257428.2, -62784.117, 17201.719, 0.16789778, 0.045357194, 258349.63, 258349.63, 0.000598242, 10.002499, 9.99835 
3.4994516e+1, 1.2609373e+2, -2105403.0, -2059828.5, 67997.01, -0.06677752, -0.19835055, -2010902.1, -306626.8, 0.0023583595, 9.997926, 9.998617 
3.4996316e+1, 1.3609643e+2, -1709803.9, -1665977.8, 24395.91, -0.06065152, 0.060360417, -1655098.4, -48839.043, 0.0013953737, 9.999375, 9.999944 
3.49975e+1, 1.4609624e+2, -1548217.5, -1487095.5, -23008.951, -0.055147506, 0.025154905, -1479402.3, 28861.602, 0.0006105934, 9.999565, 10.000389 
3.499855e+1, 1.560966e+2, -1511717.8, -1433278.4, 31614.838, -0.017373694, -0.0153179, -1422122.6, -11865.064, 0.00016453842, 9.999211, 10.0002575 
3.4999505e+1, 1.6609696e+2, -1464516.0, -1493233.5, 16858.943, -0.00717411, 0.06202019, -1456729.8, -144475.84, 0.000017966355, 9.999418, 9.999089 
3.5000455e+1, 1.7609656e+2, -1277998.8, -1361248.4, -21151.805, -0.008776357, 0.08940887, -1272932.9, -58673.4, 0.00000014192928, 10.000069, 9.999006 
3.5000905e+1, 1.8609545e+2, -1139865.5, -1267121.0, -70048.914, -0.021171236, 0.093062, -1108860.5, 7410.874, 0.0, 10.00045, 9.998785 
3.5000953e+1, 1.9609389e+2, -1000677.5, -1146394.6, -45627.6, -0.04560545, 0.030154796, -987569.5, 30717.727, 0.0, 10.000719, 9.998815 
3.500174e+1, 2.060932e+2, -864330.7, -977278.94, -20600.932, -0.02812323, 0.055761173, -860690.56, 59603.26, 0.0, 10.000767, 9.999281 
3.5002995e+1, 2.1609274e+2, -786349.94, -906147.5, 14576.492, 0.011909965, 0.05766152, -784601.8, 37695.523, 0.0, 10.0007, 9.999129 
3.5003433e+1, 2.260923e+2, -772639.25, -954025.2, -19048.947, -0.00016013542, 0.1560729, -770660.3, -46355.703, 0.0, 10.000581, 9.998177 
3.5003334e+1, 2.3609176e+2, -695522.2, -867889.4, -30998.152, -0.047873534, 0.2576024, -690117.06, -63801.902, 0.0, 10.000434, 9.99817 
3.5003638e+1, 2.460899e+2, -513504.9, -693140.56, -7855.8696, -0.099811606, 0.24147333, -513162.0, 15171.346, 0.0, 10.000862, 9.998495 
3.5004166e+1, 2.5608695e+2, -314280.06, -555107.2, 27442.758, -0.16328211, 0.06891781, -311192.5, 119166.31, 0.0, 10.001592, 9.998418 
3.5005274e+1, 2.66085e+2, -201402.22, -498692.22, -19351.715, -0.07930917, 0.05745025, -200147.83, 132229.8, 0.0000000045955626, 10.001908, 9.997976 
3.5006675e+1, 2.7608368e+2, -121141.32, -410517.9, -2378.6973, 0.09230336, 0.10300948, -121121.766, 113269.98, 0.0000011861115, 10.0017805, 9.997973 
3.500651e+1, 2.8608283e+2, -33391.582, -282244.75, 16935.998, 0.051711746, 0.2043001, -32244.271, 104154.79, 0.000009324045, 10.001576, 9.998272 
3.5005337e+1, 2.9608145e+2, -5538.481, -226926.8, 22530.258, -0.13824064, 0.20708197, -3268.8875, 35140.76, 0.00004426637, 10.001119, 9.998204 
3.5006234e+1, 3.06076e+2, 94912.34, -177190.42, 28377.943, -0.14692964, -0.14268428, 97840.41, 97840.41, 0.00018827697, 10.001588, 9.997999 
3.5009062e+1, 3.1607762e+2, 283090.34, 7901.9595, 88645.47, 0.012794497, 0.19273639, 309173.22, 309173.22, 0.00052441156, 10.002412, 9.998877 
4.4992867e+1, 1.2609373e+2, -1919580.1, -1862352.5, -34643.938, -0.039898884, -0.017250467, -1846033.5, -141749.5, 0.0022337737, 9.998765, 9.999549 
4.4995186e+1, 1.3609552e+2, -1956898.5, -1740890.6, -1983.8751, 0.0017464793, 0.1034377, -1740872.4, -134599.52, 0.0013153872, 9.997491, 10.000336 
4.4996682e+1, 1.4609554e+2, -1772047.4, -1563329.3, 24331.258, 0.005746464, 0.059558783, -1560530.4, -52257.27, 0.00056916923, 9.997888, 10.000688 
4.4997993e+1, 1.5609603e+2, -1458683.9, -1388030.1, -15470.808, 0.0059930575, 0.007036806, -1384791.0, 25473.92, 0.00014812649, 9.999481, 10.000455 
4.4999364e+1, 1.6609627e+2, -1386286.1, -1499008.5, 2584.9595, 0.012266092, 0.08760726, -1386226.9, -73963.54, 0.000013959289, 10.00015, 9.998696 
4.50008e+1, 1.7609571e+2, -1275387.9, -1396291.0, 3678.6516, 0.020829683, 0.13659161, -1275276.1, -61003.56, 0.000000037538413, 10.000241, 9.998686 
4.5001537e+1, 1.8609461e+2, -1127182.4, -1239480.6, -3074.2813, 0.0077823955, 0.14696547, -1127098.3, -10813.898, 0.0, 10.000449, 9.998984 
4.5001724e+1, 1.9609325e+2, -1000507.44, -1126727.3, -11065.405, -0.026474474, 0.08579287, -999544.7, 18752.303, 0.0, 10.00064, 9.998994 
4.5002565e+1, 2.0609227e+2, -894105.9, -982239.56, -7313.4546, -0.0000015870755, 0.072258875, -893503.1, 26801.396, 0.0, 10.000511, 9.999374 
4.5003846e+1, 2.160913e+2, -870605.2, -941211.94, -36762.67, 0.06840686, 0.012869031, -854939.7, -32628.7, 0.0, 10.000088, 9.999187 
4.5004132e+1, 2.2609067e+2, -824676.6, -1002641.5, -23636.773, 0.03493192, 0.10004986, -821590.8, -97270.375, 0.0, 10.000317, 9.997979 
4.500376e+1, 2.360901e+2, -630126.06, -852473.7, -22093.273, -0.0644895, 0.21977226, -627952.06, -1619.1565, 0.0, 10.000955, 9.998035 
4.500454e+1, 2.4608868e+2, -453497.2, -615825.2, 21297.254, -0.09656068, 0.2299104, -450749.53, 77597.7, 0.0, 10.00107, 9.998918 
4.5006055e+1, 2.5608638e+2, -391527.9, -552272.25, 5328.176, -0.08972205, 0.08051413, -391351.5, 39014.535, 0.0, 10.000877, 9.998781 
4.500731e+1, 2.6608482e+2, -326273.38, -528428.7, -31432.908, -0.009087072, 0.07887445, -321498.7, 10881.626, 0.000000013083459, 10.00093, 9.99824 
4.5008433e+1, 2.7608383e+2, -191733.88, -425967.66, -26333.578, 0.12828757, 0.13114195, -188809.84, 45580.895, 0.0000010541644, 10.00122, 9.998143 
4.5008427e+1, 2.8608263e+2, -72603.16, -352417.0, 7707.2974, 0.09750177, 0.21816424, -72391.02, 64010.758, 0.000008050424, 10.001523, 9.997828 
4.5007583e+1, 2.960805e+2, 74570.34, -229638.73, -21701.354, -0.05104577, 0.19543193, 76110.66, 114531.34, 0.00003666787, 10.001841, 9.99785 
4.5007947e+1, 3.0607522e+2, 148819.0, -56152.246, 20938.629, -0.121519245, -0.16748331, 150936.1, 150936.1, 0.0001603948, 10.001543, 9.998846 
4.5010617e+1, 3.160781e+2, 72930.74, -46514.61, 46425.594, 0.02422325, 0.19989955, 88852.85, 88852.85, 0.00046251278, 10.000749, 9.999303 
5.499017e+1, 1.2609392e+2, -1717094.5, -1460447.0, -116733.58, -0.26964217, 0.371347, -1415295.4, 289006.16, 0.0021078985, 9.99882, 10.002291 
5.4993975e+1, 1.3609555e+2, -1813604.5, -1461495.9, -25257.023, 0.086078785, 0.25124812, -1459693.4, 146584.06, 0.0012334009, 9.997557, 10.002223 
5.499618e+1, 1.4609574e+2, -1807744.5, -1642576.8, 66996.3, 0.11879148, 0.16978066, -1618818.8, -110546.78, 0.00052778376, 9.997902, 10.00014 
5.4998034e+1, 1.5609553e+2, -1488938.1, -1457139.4, 51420.168, 0.022979094, 0.106103644, -1419216.6, -8943.375, 0.00013278752, 9.999501, 9.999974 
5.4999465e+1, 1.6609518e+2, -1367236.8, -1446298.8, -6905.374, -0.02781902, 0.12780347, -1366638.3, -54361.23, 0.0000106646075, 10.000097, 9.999078 
5.5000895e+1, 1.7609416e+2, -1251366.4, -1339971.1, 18327.549, -0.029333686, 0.088579595, -1247725.0, -33436.965, 0.000000007551507, 10.000217, 9.99908 
5.500188e+1, 1.8609346e+2, -1130891.0, -1229794.3, -9342.139, -0.034051012, 0.111860424, -1130016.4, -13721.1045, 0.0, 10.000374, 9.999088 
5.5002475e+1, 1.9609295e+2, -1006010.5, -1124975.1, 4408.6763, -0.047426652, 0.12653056, -1005847.4, 12452.866, 0.0, 10.000586, 9.999032 
5.500309e+1, 2.0609184e+2, -944781.44, -1057379.6, -32868.508, -0.026683409, 0.12311529, -935889.06, -15579.52, 0.0, 10.000389, 9.998914 
5.500371e+1, 2.1609014e+2, -912972.1, -1003342.6, -36947.05, 0.015828958, 0.037705526, -899789.6, -77465.68, 0.0, 9.999982, 9.99881 
5.5004495e+1, 2.2608836e+2, -819315.7, -967984.7, -9840.568, 0.011121065, 0.010591274, -818667.2, -94324.68, 0.0, 10.0002165, 9.998265 
5.5005425e+1, 2.360864e+2, -628246.94, -823427.9, 10506.998, -0.02102896, -0.038351603, -627682.94, -1317.9934, 0.0, 10.000848, 9.998284 
5.500663e+1, 2.4608603e+2, -463509.06, -620201.7, 5323.177, -0.025261465, 0.06624381, -463328.44, 65041.902, 0.0, 10.001002, 9.9989195 
5.5008096e+1, 2.560865e+2, -407211.53, -549444.6, 10501.193, -0.0066822274, 0.1897403, -406440.4, 23926.436, 0.0, 10.000737, 9.99886 
5.5008644e+1, 2.6608542e+2, -304867.6, -479078.84, -32364.393, 0.00057883747, 0.21344773, -299049.38, 33327.313, 0.000000016276152, 10.000899, 9.998599 
5.5008703e+1, 2.760833e+2, -183677.06, -395539.94, -4137.693, 0.0018307497, 0.1147037, -183596.28, 50799.652, 0.00000094951764, 10.00115, 9.998391 
5.5009633e+1, 2.860812e+2, -118464.58, -437390.38, 8320.118, 0.036223758, 0.13657284, -118247.67, 18168.258, 0.0000068870954, 10.001487, 9.997257 
5.50111e+1, 2.9607865e+2, 34129.625, -292290.03, -610.8055, 0.08052933, 0.124533616, 34130.766, 72572.68, 0.000030486934, 10.001745, 9.997465 
5.501081e+1, 3.0607486e+2, 209611.56, 88520.46, -12846.622, -0.019079633, -0.12642951, 210959.47, 210959.47, 0.00013676572, 10.001477, 9.999871 
5.501139e+1, 3.160768e+2, 90469.5, 15040.256, 54529.313, -0.034886956, 0.052680902, 119056.0, 119056.0, 0.00040932593, 10.000659, 9.999763 
6.4989495e+1, 1.260923e+2, -1717326.0, -1468154.6, 61325.797, -0.19927932, 0.35044912, -1453879.0, 250438.42, 0.0019834668, 9.998802, 10.002272 
6.499253e+1, 1.3609323e+2, -1585416.0, -1403508.6, -92452.45, 0.11178069, 0.21337688, -1364770.3, 241530.22, 0.001149572, 9.999317, 10.001792 
6.4995074e+1, 1.4609374e+2, -1608452.9, -1556726.5, 15689.39, 0.15842992, 0.18833505, -1552339.6, -44046.65, 0.00048384682, 9.999325, 10.000037 
6.4997834e+1, 1.5609385e+2, -1528165.1, -1474784.0, 1550.4802, 0.07698787, 0.16508281, -1474739.0, -64446.09, 0.00011744106, 9.999246, 9.999961 
6.49996e+1, 1.6609356e+2, -1430457.8, -1419234.3, -29156.002, 0.019539565, 0.16353677, -1395154.8, -82859.08, 0.000008467286, 9.999417, 9.999594 
6.500089e+1, 1.7609245e+2, -1304488.4, -1311435.8, -18762.104, -0.012929162, 0.06669222, -1288881.1, -74575.26, 0.000000004638606, 9.99963, 9.999556 
6.5002084e+1, 1.8609214e+2, -1163720.0, -1211341.3, -8834.285, -0.022948567, 0.09217739, -1162134.0, -45825.574, 0.0, 10.000001, 9.99939 
6.5003103e+1, 1.9609228e+2, -1012803.7, -1102170.5, -5838.976, -0.02557665, 0.14300334, -1012423.75, 5882.7427, 0.0, 10.000421, 9.999269 
6.500389e+1, 2.0609136e+2, -901560.06, -1070660.9, -21389.613, 0.0018646764, 0.16251174, -898896.44, 21418.73, 0.0, 10.000822, 9.998622 
6.500449e+1, 2.160895e+2, -768704.06, -957861.25, -31386.215, 0.04950101, 0.0912557, -763632.25, 58700.367, 0.0, 10.001075, 9.998597 
6.500553e+1, 2.2608764e+2, -676682.4, -859576.8, 32929.906, 0.060371224, 0.04722342, -670934.06, 53417.05, 0.0, 10.001023, 9.998622 
6.5006846e+1, 2.3608568e+2, -615941.8, -781630.06, 34346.656, 0.048050974, -0.038657002, -609104.0, 17267.086, 0.0, 10.00077, 9.99861 
6.5007967e+1, 2.4608529e+2, -532666.8, -665696.6, 36227.72, 0.03838143, 0.052873075, -523440.84, 4935.5728, 0.0, 10.0005665, 9.998837 
6.500898e+1, 2.5608575e+2, -457991.34, -581909.94, 14691.706, 0.03421044, 0.19001526, -456273.34, -25899.754, 0.0, 10.000413, 9.998814 
6.500962e+1, 2.6608464e+2, -294344.94, -468357.16, 5678.1616, 0.013297813, 0.21163319, -294159.84, 38224.066, 0.00000000394634, 10.00095, 9.998651 
6.5010095e+1, 2.7608246e+2, -53110.746, -321935.66, -12814.316, -0.009176749, 0.102377966, -52501.297, 181902.06, 0.0000007712445, 10.002024, 9.998464 
6.5011513e+1, 2.8608036e+2, -16417.588, -398673.6, 11573.927, 0.04836984, 0.12240435, -16067.475, 120356.81, 0.000006042053, 10.002238, 9.997155 
6.501362e+1, 2.9607794e+2, 27915.744, -304335.2, 11211.306, 0.16874723, 0.13339905, 28293.623, 66743.74, 0.000026514312, 10.001761, 9.997362 
6.5013385e+1, 3.060754e+2, 266998.7, 38971.594, -30600.033, 0.06644199, 0.044241715, 271033.66, 271033.66, 0.000119780976, 10.0021925, 9.999193 
6.501392e+1, 3.1607467e+2, 379648.66, 44896.22, -136715.53, 0.045683723, 0.038633894, 428388.0, 428388.0, 0.00036687037, 10.003097, 9.998814 
7.4990046e+1, 1.2608851e+2, -1886777.3, -1826668.5, 40902.902, -0.100242294, -0.08633079, -1805965.5, -101630.51, 0.0018629195, 9.998845, 9.999781 
7.499028e+1, 1.3608845e+2, -1768938.6, -1796102.5, -69384.836, -0.08453894, -0.024435664, -1711818.9, -105475.805, 0.0010666472, 9.999369, 9.999072 
7.499264e+1, 1.4608952e+2, -1587459.4, -1507070.6, -1698.7822, -0.05878616, 0.11206092, -1507034.6, 1301.732, 0.0004391749, 9.9993, 10.000389 
7.4996984e+1, 1.5609089e+2, -1498473.5, -1423474.6, 14261.42, 0.030417105, 0.1775504, -1420854.3, -10529.559, 0.00010226521, 9.99928, 10.000303 
7.4999326e+1, 1.6609132e+2, -1393042.9, -1330911.8, -34154.07, 0.019084167, 0.19996671, -1315808.4, -3488.4302, 0.000007138289, 9.999374, 10.0002165 
7.500043e+1, 1.7609054e+2, -1266273.9, -1228682.6, -210.42276, -0.056156375, 0.07094077, -1228681.5, -14355.456, 0.00000003688298, 9.99961, 10.000134 
7.500175e+1, 1.8609057e+2, -1141624.9, -1150093.6, -4611.8896, -0.085420296, 0.08195081, -1139598.3, -23274.049, 0.0, 9.999932, 9.999846 
7.5003225e+1, 1.9609118e+2, -989174.0, -1043220.5, 20315.426, -0.08722497, 0.12923396, -982389.4, 35927.668, 0.0, 10.0003805, 9.999693 
7.500463e+1, 2.0609075e+2, -922658.0, -1094684.0, -21327.123, -0.03384335, 0.18666905, -920053.4, 268.50858, 0.0, 10.000738, 9.998496 
7.500583e+1, 2.1608937e+2, -787006.06, -974194.56, -13188.057, 0.046099924, 0.1712932, -786081.5, 36255.61, 0.0, 10.000977, 9.998533 
7.500682e+1, 2.2608851e+2, -663350.75, -807496.75, 13390.17, 0.060387183, 0.20731692, -662117.44, 62228.656, 0.0, 10.000917, 9.999029 
7.5007683e+1, 2.3608786e+2, -611090.4, -743678.6, 38036.973, 0.027348336, 0.21173376, -600953.3, 25398.781, 0.0, 10.000646, 9.998933 
7.500812e+1, 2.4608642e+2, -554392.3, -695932.2, 19550.695, -0.02881491, 0.19468172, -551741.44, -23376.12, 0.0, 10.000503, 9.998656 
7.500836e+1, 2.5608426e+2, -486691.22, -620892.56, 24512.436, -0.09752845, 0.08343151, -482354.1, -51968.574, 0.0, 10.000317, 9.998593 
7.50098e+1, 2.6608267e+2, -322160.88, -508258.78, 37063.355, -0.090311274, 0.082758985, -315050.94, 17349.451, 0.00000000015133415, 10.000881, 9.998406 
7.501212e+1, 2.7608144e+2, -80964.51, -355870.63, 38123.945, -0.040921852, 0.09152895, -75775.43, 158637.11, 0.00000065427645, 10.001923, 9.998279 
7.5013703e+1, 2.8608015e+2, 7925.014, -342357.63, -16233.549, 0.01212204, 0.17551838, 8675.735, 145102.31, 0.0000058927376, 10.002209, 9.997558 
7.501474e+1, 2.960784e+2, 27443.455, -290561.25, 11193.028, 0.06855667, 0.2157745, 27836.938, 66282.6, 0.000025865007, 10.00168, 9.997504 
7.501525e+1, 3.0607674e+2, 85466.984, -320776.78, 2064.4846, 0.004271354, 0.33872145, 85477.47, 85477.47, 0.000112007656, 10.002131, 9.996741 
7.5017416e+1, 3.160715e+2, 199524.9, -295858.0, -73297.83, 0.025154425, 0.13149346, 210142.63, 210142.63, 0.00034011903, 10.002958, 9.9965315 
8.4989965e+1, 1.2608644e+2, -1910646.9, -1886044.4, -45340.996, 0.018205922, -0.16975603, -1851365.5, -147014.97, 0.0017451695, 9.998908, 9.999332 
8.498962e+1, 1.3608617e+2, -1818909.1, -1900171.9, -50681.57, -0.07408935, -0.04012702, -1794582.6, -188218.1, 0.0009891815, 9.9994, 9.998326 
8.499154e+1, 1.4608712e+2, -1583150.1, -1487628.9, 80471.81, -0.08372032, 0.10851718, -1441811.8, 66548.13, 0.000399723, 9.999232, 10.000568 
8.4995824e+1, 1.5608849e+2, -1574975.4, -1442315.3, 61045.53, 0.02539267, 0.15642343, -1418499.6, -8152.5737, 0.00008899464, 9.998671, 10.000471 
8.499844e+1, 1.6608925e+2, -1476745.9, -1367924.6, 29039.55, 0.030884368, 0.20068805, -1360660.3, -48320.313, 0.000006071428, 9.998781, 10.000252 
8.500004e+1, 1.7608896e+2, -1313943.8, -1242473.6, -4032.785, -0.02912426, 0.11931755, -1242246.8, -27904.11, 0.000000076650345, 9.999245, 10.0002165 
8.500157e+1, 1.8608901e+2, -1182662.0, -1146037.4, -15878.796, -0.06908063, 0.11480958, -1140111.8, -23771.25, 0.0, 9.999546, 10.000064 
8.5003144e+1, 1.960893e+2, -1077882.3, -1063527.0, -30841.889, -0.090595655, 0.113074526, -1039038.56, -20703.82, 0.0, 9.99967, 9.999899 
8.500508e+1, 2.0608884e+2, -969588.75, -1081586.5, -34158.38, -0.031874992, 0.1421893, -959992.9, -39653.95, 0.0, 10.000275, 9.998803 
8.5007066e+1, 2.1608767e+2, -742630.1, -925478.75, -24543.463, 0.07074949, 0.11885895, -739393.0, 82959.06, 0.0, 10.00117, 9.998774 
8.500799e+1, 2.2608723e+2, -614713.44, -791448.5, -20459.06, 0.074247934, 0.19356751, -612376.0, 111981.734, 0.0, 10.0013, 9.998947 
8.500827e+1, 2.3608726e+2, -580084.8, -736181.1, -54353.016, 0.016767524, 0.2741, -563023.75, 63335.324, 0.0, 10.000907, 9.998849 
8.5008943e+1, 2.4608561e+2, -469117.06, -667280.3, -42236.188, -0.021502726, 0.24704003, -460490.47, 67884.0, 0.0, 10.00114, 9.99854 
8.500994e+1, 2.5608277e+2, -275552.63, -529218.56, -55493.254, -0.037688494, 0.07760139, -263943.9, 166456.48, 0.0, 10.001823, 9.998487 
8.501139e+1, 2.6608095e+2, -253597.03, -499976.06, -26270.195, -0.03847238, 0.067016385, -250827.11, 81590.445, 0.0000000019213902, 10.001424, 9.998216 
8.501329e+1, 2.7607968e+2, -340211.88, -497245.63, -40664.688, -0.02087238, 0.09199042, -330306.38, -95875.96, 0.0000006294421, 10.000182, 9.998159 
8.5015243e+1, 2.8607827e+2, -150213.56, -379398.66, -37870.86, 0.017344369, 0.15176412, -144117.86, -7672.78, 0.0000062489003, 10.000942, 9.997919 
8.5017234e+1, 2.960766e+2, 274260.44, -129405.06, -37752.117, 0.08473688, 0.16149314, 277760.78, 316223.44, 0.000027811611, 10.003201, 9.997876 
8.501829e+1, 3.0607593e+2, 276843.44, -263241.38, 40224.266, 0.034457855, 0.38299105, 279822.8, 279822.8, 0.00011221668, 10.003577, 9.996456 
8.502009e+1, 3.1607065e+2, 83365.836, -362972.9, 84181.22, 0.050055176, 0.20086144, 98714.91, 98714.91, 0.00032879677, 10.002203, 9.996432 
9.498848e+1, 1.260863e+2, -1803597.4, -1658802.8, -64112.203, -0.09038502, 0.12019693, -1634495.6, 69866.44, 0.0016362383, 9.998888, 10.000898 
9.4990015e+1, 1.3608639e+2, -1728166.1, -1735363.6, -25312.623, -0.01299535, 0.15990509, -1706197.8, -99832.72, 0.0009229167, 9.999493, 9.999412 
9.4991416e+1, 1.4608651e+2, -1578077.6, -1478681.4, 46104.918, -0.05760876, 0.17316611, -1460588.9, 47775.063, 0.00036888671, 9.99924, 10.000625 
9.4993967e+1, 1.5608668e+2, -1577047.5, -1449805.5, 56254.438, -0.06330164, 0.10011411, -1428501.9, -18141.863, 0.00007923838, 9.998681, 10.000415 
9.499664e+1, 1.6608739e+2, -1522005.5, -1450225.9, 35851.906, -0.05765862, 0.1725072, -1435386.6, -123031.82, 0.0000051224774, 9.998731, 9.999713 
9.4999266e+1, 1.760878e+2, -1347062.0, -1310193.9, 25212.49, -0.06342723, 0.21167831, -1297395.1, -83040.22, 0.00000007826353, 9.999241, 9.999753 
9.500114e+1, 1.8608746e+2, -1197181.9, -1162791.8, -20571.701, -0.0942736, 0.19524917, -1153175.1, -36818.375, 0.0, 9.999485, 9.999978 
9.5002496e+1, 1.9608669e+2, -1087061.6, -1068879.9, -10314.695, -0.15309265, 0.09107941, -1064221.6, -45862.387, 0.0, 9.999609, 9.999889 
9.5004874e+1, 2.0608571e+2, -939796.75, -998158.1, -10758.145, -0.10619135, 0.033766884, -937876.75, -17510.855, 0.0, 10.0001745, 9.999426 
9.500781e+1, 2.1608432e+2, -722171.5, -860758.06, 17575.287, -0.00033939705, -0.07501455, -719977.4, 102400.79, 0.0, 10.00107, 9.999269 
9.5008653e+1, 2.2608379e+2, -673517.6, -892495.8, -44518.465, -0.018098503, 0.0014927356, -664813.0, 59573.6, 0.0, 10.0012045, 9.9983 
9.5008194e+1, 2.3608369e+2, -632794.9, -828779.0, -54586.78, -0.11017443, 0.13357711, -618616.75, 7777.1265, 0.0, 10.000823, 9.998258 
9.501004e+1, 2.4608275e+2, -482835.38, -675771.5, -27552.918, -0.05266561, 0.20357192, -478977.72, 49427.027, 0.0, 10.001055, 9.998522 
9.5013344e+1, 2.560811e+2, -287784.0, -541520.2, -22640.436, 0.090211004, 0.15616155, -285779.7, 144639.81, 0.0, 10.001756, 9.998439 
9.501405e+1, 2.6607922e+2, -271522.6, -520734.7, -83786.99, 0.058325358, 0.14724474, -245972.3, 86464.97, 0.0000000017799018, 10.001363, 9.998097 
9.501318e+1, 2.76077e+2, -360854.97, -514794.6, -63766.477, -0.07996924, 0.08669348, -337872.2, -103413.44, 0.0000005677249, 10.000076, 9.998087 
9.5015776e+1, 2.860748e+2, -136396.77, -338043.1, 35907.652, -0.05149364, 0.053030383, -130193.44, 6286.417, 0.0000064583187, 10.00089, 9.998225 
9.502064e+1, 2.960725e+2, 292699.0, -68002.734, 55460.074, 0.07121838, -0.033528153, 301033.75, 339535.25, 0.000029725905, 10.003097, 9.998348 
9.502209e+1, 3.0607304e+2, 408333.22, 18504.232, -15518.59, 0.02988163, 0.17706059, 408950.0, 408950.0, 0.00011359456, 10.003539, 9.998405 
9.502111e+1, 3.1607217e+2, 205883.27, -82205.96, 77600.98, -0.12998672, 0.24057469, 225456.38, 225456.38, 0.0003216318, 10.002085, 9.998418 
1.0498709e+2, 1.2608398e+2, -1677412.1, -1499153.5, -27897.342, -0.12189484, 0.19043829, -1494889.6, 209499.94, 0.0015480418, 9.999299, 10.00181 
1.04989946e+2, 1.3608496e+2, -1740760.3, -1675286.8, -79834.36, 0.062156748, 0.24959995, -1621737.9, -15357.775, 0.00087241904, 9.999103, 10.000025 
1.0499127e+2, 1.4608446e+2, -1568579.1, -1492554.3, -8559.664, 0.0045064823, 0.18163729, -1491602.4, 16780.492, 0.0003471946, 9.99941, 10.000436 
1.0499318e+2, 1.5608351e+2, -1388828.4, -1388807.4, -44768.406, -0.07067925, 0.025182983, -1344049.5, 66339.516, 0.000073446034, 10.000108, 10.000147 
1.0499584e+2, 1.6608419e+2, -1338990.1, -1365057.0, -27713.775, -0.065831535, 0.11039365, -1321398.0, -9013.798, 0.000004420773, 10.000014, 9.999665 
1.04999e+2, 1.7608535e+2, -1328837.8, -1308364.4, -26839.113, -0.0145350965, 0.23091239, -1289876.0, -75497.93, 0.000000050630582, 9.999408, 9.999678 
1.0500126e+2, 1.8608497e+2, -1152568.5, -1128949.8, -11107.162, -0.03673276, 0.20462894, -1124547.1, -8166.3145, 0.0, 9.9997425, 10.000083 
1.05002925e+2, 1.9608359e+2, -943356.6, -984238.94, -14871.692, -0.109097995, 0.028354853, -938519.2, 79869.73, 0.0, 10.000536, 10.000019 
1.05005264e+2, 2.0608301e+2, -858928.25, -913191.75, -5901.6963, -0.09498598, -0.01664095, -858293.75, 62097.49, 0.0, 10.000538, 9.999832 
1.0500804e+2, 2.1608275e+2, -861841.1, -886761.94, -18043.145, -0.020063357, -0.052665167, -852374.0, -29981.922, 0.0, 9.999939, 9.999632 
1.0500912e+2, 2.2608209e+2, -798122.0, -961795.1, -32466.121, -0.043351352, 0.0008497914, -791917.25, -67515.8, 0.0, 10.000382, 9.998231 
1.0500918e+2, 2.360811e+2, -537330.44, -788555.25, -23442.256, -0.120304585, 0.052359056, -535161.75, 91255.82, 0.0, 10.001507, 9.998208 
1.0501135e+2, 2.4608037e+2, -407775.75, -636696.94, 32561.223, -0.045304332, 0.14398733, -403234.4, 125192.52, 0.0, 10.001558, 9.998547 
1.05014995e+2, 2.5607964e+2, -417418.63, -600655.75, 20340.426, 0.13090377, 0.18701889, -415187.88, 15245.576, 0.0, 10.000865, 9.998455 
1.0501582e+2, 2.6607782e+2, -282452.66, -535793.0, -18560.91, 0.10732469, 0.1877253, -281100.03, 51351.266, 0.00000000014537505, 10.0013485, 9.997993 
1.05014965e+2, 2.7607507e+2, 5484.796, -348832.0, -21990.848, -0.030123495, 0.0878394, 6844.451, 241322.66, 0.00000042821608, 10.002651, 9.997983 
1.0501755e+2, 2.8607297e+2, 55792.38, -232052.34, 99240.89, -0.01826865, 0.06071495, 86691.07, 223189.27, 0.0000059800022, 10.002134, 9.998363 
1.05022386e+2, 2.960712e+2, -93422.15, -239834.11, 79998.555, 0.08157244, 0.010916499, -58189.74, -19675.596, 0.000029321069, 10.000367, 9.99849 
1.0502457e+2, 3.0607066e+2, 67039.734, -88354.36, -34270.273, 0.06323114, 0.08131749, 74261.96, 74261.96, 0.00010998001, 10.000959, 9.998903 
1.0502439e+2, 3.1607082e+2, 378976.4, 68257.164, -81892.7, -0.04408942, 0.19589071, 399238.63, 399238.63, 0.0003078072, 10.002995, 9.999005 
1.1498493e+2, 1.260793e+2, -1654513.9, -1468314.0, -69152.234, -0.34024325, 0.03287197, -1445441.4, 258993.88, 0.0014882531, 9.999363, 10.001996 
1.1498904e+2, 1.3608176e+2, -1723020.0, -1649013.3, -75927.195, 0.027561437, 0.22286326, -1601552.5, 4858.226, 0.000840427, 9.9991455, 10.000183 
1.14990816e+2, 1.4608088e+2, -1610957.6, -1567415.8, 3979.4646, -0.017340131, 0.13511813, -1567055.0, -58637.46, 0.00033535642, 9.999352, 9.999949 
1.1499286e+2, 1.5607895e+2, -1414112.4, -1442645.4, -6866.1934, -0.14858568, -0.074291706, -1412546.0, -2112.045, 0.0000716502, 10.000126, 9.999761 
1.14995666e+2, 1.6607969e+2, -1315335.1, -1314618.1, -61291.832, -0.11798452, 0.013586069, -1253683.8, 58744.35, 0.0000041980056, 10.0, 10.000026 
1.1499898e+2, 1.7608161e+2, -1301778.3, -1252826.0, -32641.55, 0.009982135, 0.17203961, -1236503.3, -22090.438, 0.000000024917117, 9.99941, 10.000058 
1.15001716e+2, 1.8608148e+2, -1147575.5, -1097731.5, 9240.069, 0.0073415567, 0.14119245, -1096073.8, 20339.34, 0.0, 9.99965, 10.000346 
1.15003996e+2, 1.9607991e+2, -929706.4, -947377.6, 21342.477, -0.08829137, -0.07975592, -915442.9, 102981.4, 0.0, 10.000496, 10.000295 
1.1500585e+2, 2.0608072e+2, -863466.94, -899847.06, -40383.727, -0.11585153, -0.0067393677, -837365.6, 83049.4, 0.0, 10.000438, 9.999973 
1.150074e+2, 2.1608283e+2, -864901.0, -868220.94, -23964.81, -0.1039177, 0.17910346, -842538.75, -20143.832, 0.0, 9.999828, 9.999814 
1.1500906e+2, 2.2608213e+2, -780842.4, -898399.4, -530.0465, -0.11054534, 0.19379367, -780840.0, -56437.188, 0.0, 10.000268, 9.998719 
1.1501083e+2, 2.3607944e+2, -520328.72, -728543.6, 24233.18, -0.13425405, 0.023846075, -517545.53, 108885.164, 0.0, 10.001394, 9.998676 
1.150126e+2, 2.4607842e+2, -418024.75, -633631.1, -4612.752, -0.102674864, 0.06222464, -417926.13, 110515.36, 0.0, 10.001462, 9.998613 
1.15014486e+2, 2.5607833e+2, -429403.6, -600483.94, 10417.303, -0.033208232, 0.16384771, -428771.6, 1671.1305, 0.0, 10.000759, 9.9985075 
1.1501638e+2, 2.6607668e+2, -298052.78, -556920.4, 21178.377, 0.0025923413, 0.18726914, -296331.56, 36128.49, 0.0, 10.001299, 9.997877 
1.1501828e+2, 2.7607387e+2, -15889.578, -373300.38, 28528.781, 0.007851447, 0.09167952, -13626.718, 220862.7, 0.0000002594802, 10.002557, 9.997868 
1.15020156e+2, 2.8607276e+2, 43004.99, -241397.23, 22617.223, 0.0016503177, 0.1713063, 44792.402, 181293.02, 0.000005001763, 10.00207, 9.998328 
1.1502209e+2, 2.9607266e+2, -130884.82, -284041.2, 42182.555, -0.016693275, 0.29664624, -120035.4, -81534.6, 0.000026475647, 10.000229, 9.998254 
1.150254e+2, 3.0606875e+2, -9384.156, -226574.83, 41537.465, 0.023808656, 0.10283248, -1711.2336, -1711.2336, 0.000100772006, 10.000891, 9.997981 
1.1502907e+2, 3.1606665e+2, 308083.25, -48744.316, 35890.555, 0.060116198, 0.06723459, 311657.4, 311657.4, 0.00028477277, 10.002878, 9.998254 
1.24983884e+2, 1.260765e+2, -1998552.5, -1695923.5, 51161.836, -0.26543587, -0.007038624, -1687508.1, 16951.408, 0.0014562852, 9.997292, 10.001419 
1.24988444e+2, 1.3607824e+2, -1696353.1, -1678924.5, -54958.79, 0.047627453, 0.1568105, -1631993.4, -25549.074, 0.0008261713, 9.9995165, 9.999799 
1.24990314e+2, 1.4607751e+2, -1523637.3, -1499606.0, 36097.336, -0.014365668, 0.08791478, -1473577.0, 34874.16, 0.00033346904, 9.999838, 10.000178 
1.2499245e+2, 1.5607694e+2, -1545189.5, -1481749.8, 44898.33, -0.14396924, -0.008522001, -1458496.8, -48041.473, 0.00007407354, 9.999117, 9.999976 
1.2499517e+2, 1.6607752e+2, -1427099.6, -1340223.8, 25209.621, -0.1163568, 0.0410008, -1333438.4, -20989.473, 0.000004716059, 9.999094, 10.000299 
1.249982e+2, 1.760784e+2, -1290269.4, -1228067.5, 28401.791, 0.0007125114, 0.06920259, -1217050.4, -2609.7744, 0.000000012759114, 9.99938, 10.000259 
1.2500148e+2, 1.8607849e+2, -1163262.6, -1128629.8, 92045.23, 0.027336756, 0.06504455, -1052286.3, 64152.97, 0.0, 9.99965, 10.000125 
1.250049e+2, 1.9607815e+2, -1037068.25, -1023846.4, 38257.86, -0.0083192205, -0.009833123, -991632.44, 26809.29, 0.0, 9.999874, 10.000064 
1.2500672e+2, 2.06079e+2, -928612.5, -943134.2, -57979.5, -0.04635658, 0.08400403, -877440.94, 42992.41, 0.0, 10.00004, 9.9998665 
1.2500748e+2, 2.1608043e+2, -834089.7, -860223.3, -78054.1, -0.08385628, 0.21156633, -768016.2, 54403.945, 0.0, 10.0000725, 9.999748 
1.250095e+2, 2.2607966e+2, -739404.9, -851029.2, -12033.447, -0.09323233, 0.20548902, -738122.4, -13694.376, 0.0, 10.000425, 9.998963 
1.2501244e+2, 2.360773e+2, -565010.2, -720822.9, -34057.67, -0.08221124, 0.046235453, -557891.06, 68559.625, 0.0, 10.000976, 9.9989195 
1.2501407e+2, 2.4607621e+2, -471283.84, -647233.75, -91270.5, -0.07411473, 0.058645584, -432491.7, 95969.66, 0.0, 10.001039, 9.998726 
1.2501496e+2, 2.5607574e+2, -416282.03, -585160.9, -88145.9, -0.05638714, 0.111947894, -378657.06, 51808.992, 0.0, 10.000796, 9.998604 
1.2501729e+2, 2.6607424e+2, -332409.2, -549400.8, 4669.932, -0.013219768, 0.13402355, -332308.75, 173.3292, 0.0, 10.000963, 9.998085 
1.250206e+2, 2.7607194e+2, -173429.28, -429681.66, 8293.869, 0.05001738, 0.068402484, -173161.13, 61345.598, 0.00000012209664, 10.001411, 9.998019 
1.2502249e+2, 2.860712e+2, -13829.21, -316191.78, -33273.293, 0.04586923, 0.20139003, -10210.97, 126303.99, 0.000003888246, 10.001891, 9.997897 
1.2502365e+2, 2.9607138e+2, 145632.31, -202948.58, -60629.67, 0.018723171, 0.39766067, 155876.73, 194389.78, 0.00002250982, 10.002363, 9.997778 
1.2502737e+2, 3.0606574e+2, 161622.3, -228628.73, 22305.125, 0.069389574, 0.09211662, 162893.02, 162893.02, 0.000088219014, 10.002385, 9.997279 
1.2503244e+2, 3.1606287e+2, 146419.8, -162734.67, -4553.0566, 0.17218155, 0.042165603, 146486.84, 146486.84, 0.00025421128, 10.001907, 9.997955 
1.3498321e+2, 1.2607545e+2, -2101742.3, -1903158.6, 86966.99, -0.12671666, 0.057118036, -1870457.5, -165993.63, 0.0014504805, 9.997264, 10.0000105 
1.3498762e+2, 1.360744e+2, -1747631.3, -1793761.1, 27050.502, -0.02021299, 0.044954717, -1735147.3, -128666.414, 0.0008289551, 9.999563, 9.998982 
1.3498937e+2, 1.460744e+2, -1458660.1, -1378536.0, -7854.4395, -0.13327664, 0.040460773, -1377773.4, 130709.77, 0.0003411424, 9.999881, 10.000997 
1.3499162e+2, 1.5607744e+2, -1492173.5, -1371036.1, 33013.895, -0.16972716, 0.22370565, -1362623.0, 47830.086, 0.00008049032, 9.999104, 10.000749 
1.349939e+2, 1.6607776e+2, -1427905.0, -1313564.9, 23905.889, -0.17749952, 0.19932804, -1308768.0, 3678.7742, 0.0000062176173, 9.998985, 10.000528 
1.3499613e+2, 1.7607577e+2, -1287660.6, -1212935.3, 53883.21, -0.17573147, -0.08056238, -1184728.3, 29732.764, 0.000000017143847, 9.999352, 10.000369 
1.3500006e+2, 1.8607621e+2, -1224516.8, -1248737.3, 90285.91, -0.11143623, -0.012137051, -1145532.5, -29075.066, 0.0, 9.999605, 9.999329 
1.3500516e+2, 1.9607826e+2, -1095762.3, -1135477.3, 59492.785, -0.0039140787, 0.23103815, -1052900.5, -34458.703, 0.0, 9.999822, 9.999326 
1.3500744e+2, 2.0607781e+2, -969311.6, -1003860.5, -68768.58, -0.0030847713, 0.24954225, -915681.06, 4765.8984, 0.0, 9.999937, 9.999501 
1.3500781e+2, 2.160755e+2, -873755.7, -913789.9, -61035.97, -0.085186824, 0.03742556, -829538.25, -7070.077, 0.0, 9.9999485, 9.99944 
1.350101e+2, 2.2607465e+2, -755772.5, -862165.8, -2524.3386, -0.10595911, 0.03927534, -755712.6, -31235.844, 0.0, 10.000321, 9.998939 
1.350136e+2, 2.3607463e+2, -581011.6, -728007.56, -5549.662, -0.092438415, 0.11286917, -580802.4, 45675.96, 0.0, 10.000859, 9.998925 
1.3501535e+2, 2.4607363e+2, -471734.9, -628818.75, -111197.33, -0.076016605, 0.1263721, -414138.38, 114349.2, 0.0, 10.000957, 9.998891 
1.3501602e+2, 2.5607184e+2, -417981.6, -562591.8, -81968.06, -0.057786062, 0.02824731, -380985.3, 49518.273, 0.0, 10.000684, 9.998811 
1.350182e+2, 2.6607046e+2, -307390.84, -482489.63, 10801.993, -0.04350486, 0.027536979, -306726.97, 25790.316, 0.0, 10.000903, 9.9985695 
1.3502145e+2, 2.760692e+2, -164550.45, -382769.03, 36444.473, -0.034796014, 0.01395878, -158624.8, 75906.41, 0.000000046518082, 10.001294, 9.998394 
1.350242e+2, 2.8606814e+2, -72682.57, -431056.53, -25207.408, -0.0018867587, 0.14493272, -70918.21, 65624.16, 0.0000029362805, 10.001857, 9.997126 
1.3502663e+2, 2.9606718e+2, 81936.54, -320736.88, -32245.758, 0.046169605, 0.29829526, 84502.41, 123055.27, 0.000019015239, 10.002291, 9.997007 
1.3503002e+2, 3.0606148e+2, 124709.8, -290823.3, -1881.976, 0.072518446, 0.042688362, 124718.32, 124718.32, 0.000075927965, 10.002331, 9.996873 
1.350338e+2, 3.1605938e+2, 139811.53, -153885.36, 28863.482, 0.05464728, 0.11044945, 142621.25, 142621.25, 0.0002226974, 10.001805, 9.998068 
1.4498359e+2, 1.2607302e+2, -1742216.0, -1728544.9, 49701.848, 0.07902108, 0.100833036, -1685210.8, 19277.459, 0.0014659849, 9.999742, 10.00001 
1.4498563e+2, 1.3607156e+2, -1918503.8, -1839876.1, 38434.848, -0.10071226, 0.015519976, -1824209.9, -217701.78, 0.0008466132, 9.99824, 9.999297 
1.4498739e+2, 1.4607191e+2, -1723615.4, -1505001.4, 27873.64, -0.21887045, 0.027522115, -1501503.4, 7004.1396, 0.00035647568, 9.998051, 10.001018 
1.4499138e+2, 1.5607552e+2, -1535452.3, -1392995.8, -13163.548, -0.08057087, 0.26716092, -1391789.6, 18683.586, 0.00008921642, 9.998804, 10.000749 
1.4499399e+2, 1.6607577e+2, -1334619.9, -1295328.0, -16188.145, -0.09549423, 0.24652824, -1289517.8, 22950.201, 0.000008328298, 9.99975, 10.000276 
1.449957e+2, 1.7607334e+2, -1095441.9, -1146698.3, -54634.715, -0.21734983, -0.051617287, -1060723.1, 153762.97, 0.0000000715251, 10.000791, 10.000125 
1.4499973e+2, 1.8607344e+2, -1069919.5, -1181897.3, -14646.823, -0.15285821, -0.0024011235, -1068035.4, 48449.895, 0.0, 10.000703, 9.999265 
1.4500524e+2, 1.9607511e+2, -1102372.9, -1150643.4, -11647.923, 0.031200293, 0.21194963, -1099709.1, -81236.42, 0.0, 9.999818, 9.999236 
1.4500791e+2, 2.060743e+2, -970475.9, -1026569.4, -60564.06, 0.05065182, 0.20704855, -931779.6, -11298.219, 0.0, 10.000026, 9.999299 
1.4500862e+2, 2.1607164e+2, -748641.5, -873570.5, -69759.59, -0.038574416, -0.017211828, -717467.25, 105038.62, 0.0, 10.000897, 9.999256 
1.4501086e+2, 2.26071e+2, -684403.8, -802536.1, 5520.194, -0.07350186, 0.0022272982, -684146.44, 40366.297, 0.0, 10.000713, 9.999161 
1.4501409e+2, 2.3607153e+2, -714007.2, -769118.8, -3013.9722, -0.070190914, 0.11240629, -713842.8, -87333.5, 0.0, 9.999845, 9.999141 
1.450163e+2, 2.4607085e+2, -564700.75, -632642.06, -50453.85, -0.030096743, 0.1250967, -537847.1, -9332.331, 0.0, 10.000135, 9.999266 
1.4501785e+2, 2.5606915e+2, -318835.88, -477689.25, -31435.94, 0.039186593, 0.0029001075, -312841.16, 117686.52, 0.0, 10.001208, 9.999142 
1.4501996e+2, 2.6606792e+2, -228329.63, -466588.34, 49629.58, 0.017171722, 0.011108232, -218405.13, 114134.73, 0.0, 10.001531, 9.998383 
1.4502244e+2, 2.760668e+2, -163525.73, -409502.84, 4141.1973, -0.060974892, 0.035600163, -163456.03, 71097.13, 0.00000002138944, 10.001394, 9.998178 
1.4502582e+2, 2.8606507e+2, -66006.18, -452334.47, -8585.5, -0.024655558, 0.11675596, -65815.47, 70755.664, 0.0000023054517, 10.002001, 9.99691 
1.4502974e+2, 2.960629e+2, 186916.42, -289548.22, -11063.201, 0.09663232, 0.17141001, 187173.16, 225765.45, 0.000016570593, 10.0031, 9.996822 
1.4503288e+2, 3.0605745e+2, 164619.73, -277418.25, 21222.83, 0.121647015, -0.043704107, 165636.33, 165636.33, 0.0000664134, 10.002652, 9.996794 
1.4503573e+2, 3.160566e+2, 74465.016, -121815.51, 55683.09, 0.11866625, 0.15283626, 89161.44, 89161.44, 0.0001967113, 10.001109, 9.99861 
1.5498444e+2, 1.2606959e+2, -1631666.1, -1529887.1, -38328.42, 0.117999025, 0.15360826, -1517067.9, 187461.1, 0.0014879738, 9.999858, 10.00133 
1.5498208e+2, 1.3606995e+2, -1817698.9, -1633734.1, -4142.4614, -0.31170666, 0.089626916, -1633641.0, -27116.445, 0.0008684092, 9.998246, 10.000718 
1.5498394e+2, 1.4607012e+2, -1778029.8, -1605295.0, 41014.945, -0.40301397, 0.05748022, -1596051.0, -87527.26, 0.00037251608, 9.998004, 10.000348 
1.5499116e+2, 1.5607128e+2, -1588630.0, -1493130.4, 30073.61, -0.015833708, 0.11901271, -1484449.1, -73934.35, 0.00009664872, 9.998774, 10.000068 
1.549951e+2, 1.6607167e+2, -1396319.0, -1414413.4, 11430.892, 0.008480287, 0.18743466, -1390788.3, -78276.92, 0.000009881803, 9.999705, 9.999487 
1.5499666e+2, 1.7607127e+2, -1146305.0, -1240807.4, -9800.411, -0.23040755, 0.17012617, -1145299.4, 69215.08, 0.00000020107916, 10.00074, 9.999507 
1.5500009e+2, 1.8607023e+2, -1034140.0, -1094538.3, -59924.47, -0.21387617, 0.1005787, -997235.3, 119287.14, 0.0, 10.000643, 9.999895 
1.5500474e+2, 1.9606866e+2, -1075099.5, -1075221.4, -24728.053, -0.027923422, -0.073385365, -1050432.3, -31897.441, 0.0, 9.999745, 9.999786 
1.5500773e+2, 2.0606841e+2, -988245.1, -1042759.6, -37464.543, 0.004663165, -0.04210726, -969171.5, -48634.707, 0.0, 9.99993, 9.999239 
1.5500948e+2, 2.1606888e+2, -766109.25, -881300.9, -32000.555, -0.07103528, 0.0511936, -757816.44, 64716.83, 0.0, 10.000774, 9.999263 
1.5501146e+2, 2.2606872e+2, -672442.0, -757072.75, -38271.215, -0.11087833, 0.099280424, -657702.3, 66833.42, 0.0, 10.000618, 9.999521 
1.5501362e+2, 2.3606801e+2, -702001.44, -723718.6, -15360.132, -0.12870431, 0.045690328, -694049.3, -67505.336, 0.0, 9.999746, 9.999503 
1.5501653e+2, 2.4606776e+2, -534818.2, -551135.5, -21560.594, -0.046327937, 0.054459527, -519924.25, 8619.066, 0.0, 10.000053, 9.999862 
1.5502003e+2, 2.5606763e+2, -306160.88, -426700.34, 17861.887, 0.110012606, 0.02605421, -303569.75, 126969.375, 0.0, 10.001095, 9.99955 
1.5502211e+2, 2.6606658e+2, -298367.78, -598201.06, 33886.83, 0.052415844, 0.085591204, -294585.63, 37964.37, 0.0, 10.001476, 9.997501 
1.5502322e+2, 2.7606475e+2, -235452.98, -535175.1, 18836.793, -0.14839953, 0.12470205, -234273.78, 299.45193, 0.000000019825112, 10.001292, 9.997363 
1.55027e+2, 2.8606188e+2, -49418.258, -409540.56, 23881.795, -0.13459124, 0.115634106, -47841.42, 88760.01, 0.0000019865888, 10.001965, 9.997222 
1.550326e+2, 2.960584e+2, 198572.3, -243653.77, 33162.285, 0.035620708, 0.0057012783, 201045.28, 239678.03, 0.000014949104, 10.002999, 9.9971895 
1.5503564e+2, 3.0605373e+2, 168729.58, -248662.97, -44720.004, 0.10760807, -0.1626792, 173467.16, 173467.16, 0.000059797247, 10.002582, 9.997012 
1.5503748e+2, 3.160544e+2, 121544.984, 2280.9084, 64647.45, 0.1235654, 0.16176711, 149863.34, 149863.34, 0.00017773658, 10.001004, 9.999504 
1.6498294e+2, 1.2606645e+2, -1851639.6, -1630362.9, 41081.58, 0.07046861, 0.14106317, -1622981.9, 81580.414, 0.0014964563, 9.998319, 10.001376 
1.6498163e+2, 1.3606788e+2, -1732125.0, -1573449.5, -63760.773, -0.19388404, 0.15778352, -1551003.5, 55543.65, 0.0008776996, 9.9987335, 10.000901 
1.6498345e+2, 1.4606814e+2, -1603379.1, -1543324.5, 35035.977, -0.30863088, 0.13801195, -1527209.0, -18664.232, 0.00037921302, 9.9993305, 10.000117 
1.649904e+2, 1.5606774e+2, -1385128.8, -1420698.9, 23905.047, -0.03660755, 0.06819046, -1373118.5, 37431.215, 0.00009882513, 10.00029, 9.99983 
1.6499491e+2, 1.6606806e+2, -1365634.3, -1407569.5, 46153.676, 0.015427864, 0.14611183, -1335908.6, -23361.137, 0.000009884257, 9.999938, 9.999421 
1.6499752e+2, 1.7606875e+2, -1451243.8, -1392652.1, 56452.19, -0.107583284, 0.23946781, -1358346.9, -143805.14, 0.0000002904704, 9.998653, 9.999472 
1.6500087e+2, 1.8606772e+2, -1300134.4, -1218168.6, 34052.72, -0.10064645, 0.16858925, -1205867.5, -89317.34, 0.0, 9.998813, 9.999913 
1.650048e+2, 1.960654e+2, -1040813.5, -1053284.0, 582.37384, 0.0015036426, -0.084015414, -1040786.3, -22216.945, 0.0, 9.999958, 9.999824 
1.6500792e+2, 2.0606533e+2, -910767.1, -973128.9, 17825.975, 0.016863056, -0.050996054, -906031.25, 14537.741, 0.0, 10.0003395, 9.9995165 
1.6501032e+2, 2.1606666e+2, -828398.4, -882444.1, 21166.668, -0.028328788, 0.10407303, -821095.44, 1461.0032, 0.0, 10.000224, 9.999521 
1.6501242e+2, 2.2606662e+2, -719178.8, -775499.7, 6417.3237, -0.053058818, 0.14918771, -718456.9, 6100.457, 0.0, 10.000286, 9.999552 
1.650143e+2, 2.3606558e+2, -600649.25, -670989.9, -15224.607, -0.063187994, 0.061615564, -597495.44, 29072.396, 0.0, 10.000446, 9.999519 
1.6501752e+2, 2.4606496e+2, -414083.1, -537161.6, -5329.5015, 0.0046878117, 0.05456721, -413852.75, 114718.69, 0.0, 10.001078, 9.999464 
1.6502178e+2, 2.5606444e+2, -193678.25, -405096.8, -70950.39, 0.13583079, 0.030215045, -172075.27, 258496.58, 0.0, 10.00202, 9.999244 
1.6502404e+2, 2.660634e+2, -241688.52, -570654.94, -69903.51, 0.08658958, 0.09619118, -227450.64, 105132.32, 0.0, 10.001849, 9.997517 
1.6502506e+2, 2.7606162e+2, -273314.84, -540544.3, -35245.633, -0.07092159, 0.13754287, -268744.34, -34140.496, 0.000000024295247, 10.00098, 9.997466 
1.6502926e+2, 2.8605875e+2, -168329.73, -446801.63, 69892.484, -0.051401697, 0.113944575, -151772.2, -15140.474, 0.0000019697127, 10.001069, 9.997399 
1.6503575e+2, 2.960553e+2, 54798.02, -278092.28, 34545.066, 0.11747608, -0.0070256568, 58345.074, 97007.99, 0.000013995548, 10.001864, 9.997508 
1.6503796e+2, 3.060511e+2, 94204.92, -236778.81, -74410.58, 0.13161227, -0.17355056, 110164.13, 110164.13, 0.000055183133, 10.001826, 9.997475 
1.6503878e+2, 3.1605217e+2, 164911.7, 66075.71, 25066.502, 0.16217862, 0.14974974, 170905.5, 170905.5, 0.00016346597, 10.001087, 9.99991 
1.7497814e+2, 1.260637e+2, -1939348.9, -1807341.6, 17032.531, -0.30508, 0.06390471, -1805179.4, -100591.984, 0.0014785845, 9.9983015, 10.00016 
1.7498381e+2, 1.3606554e+2, -1810307.1, -1722657.6, -38936.73, 0.12187546, 0.22831562, -1707859.3, -101284.61, 0.00086354057, 9.998698, 9.99988 
1.7498568e+2, 1.4606607e+2, -1595950.9, -1531565.6, 57979.383, -0.055017117, 0.27744302, -1497441.0, 11128.849, 0.00037008742, 9.999326, 10.000212 
1.7498873e+2, 1.5606493e+2, -1369588.0, -1388300.0, 65744.19, -0.2635768, 0.1197002, -1312537.5, 98040.72, 0.000094032526, 10.000285, 10.000057 
1.7499302e+2, 1.6606507e+2, -1317248.4, -1302292.0, -15053.156, -0.19546103, 0.12612501, -1292961.8, 19613.828, 0.000008393363, 9.99991, 10.000161 
1.749978e+2, 1.7606589e+2, -1416311.9, -1310466.6, 28848.51, 0.027257496, 0.16278835, -1303114.5, -88547.27, 0.00000020811186, 9.998617, 10.000051 
1.7500171e+2, 1.8606597e+2, -1346470.0, -1309678.6, 67054.664, 0.07296902, 0.21212563, -1258542.1, -141974.58, 0.0, 9.998777, 9.9993105 
1.7500505e+2, 1.960654e+2, -1083008.0, -1124216.5, 50572.87, 0.0002221452, 0.19184206, -1049003.3, -30427.768, 0.0, 9.999883, 9.999375 
1.7500804e+2, 2.0606513e+2, -884119.7, -897466.6, -75.847244, -0.027414676, 0.19422306, -884119.25, 36457.88, 0.0, 10.000247, 10.00008 
1.7501079e+2, 2.1606496e+2, -813872.0, -826453.75, 29990.21, -0.02915892, 0.13860358, -789520.0, 33056.168, 0.0, 10.0001135, 9.999957 
1.7501335e+2, 2.2606468e+2, -752920.75, -822894.7, 632.5098, -0.012733681, 0.15714784, -752915.0, -28337.6, 0.0, 10.000185, 9.999273 
1.7501573e+2, 2.3606417e+2, -643015.25, -737628.5, 5938.728, 0.010145668, 0.14874297, -642643.94, -16061.88, 0.0, 10.000347, 9.999109 
1.7501894e+2, 2.460624e+2, -524008.6, -748647.6, 19848.518, 0.013472334, 0.12351309, -522268.3, 6331.036, 0.0, 10.001009, 9.998041 
1.7502272e+2, 2.560597e+2, -296024.88, -590090.2, -32404.205, 0.0021807225, 0.01874394, -292496.47, 138129.77, 0.0, 10.001903, 9.998031 
1.7502551e+2, 2.6605827e+2, -174036.06, -426876.34, -115500.13, 0.022880752, 0.050807204, -129218.555, 203420.36, 0.0, 10.001828, 9.998514 
1.7502758e+2, 2.760574e+2, -220510.81, -414250.13, -50470.543, 0.054400034, 0.081682466, -208151.31, 26493.809, 0.000000035492793, 10.000902, 9.998374 
1.750322e+2, 2.8605568e+2, -165012.78, -435893.47, 87665.75, 0.10631605, 0.12643744, -139116.92, -2455.3325, 0.0000021240596, 10.001056, 9.997476 
1.750386e+2, 2.9605353e+2, 58708.363, -252664.64, 73835.49, 0.18607157, 0.12557113, 75329.625, 114013.336, 0.000013429294, 10.001801, 9.997705 
1.7503951e+2, 3.060494e+2, 149470.78, -126414.86, -108700.78, 0.07812207, -0.087820314, 187152.78, 187152.78, 0.000050919698, 10.001836, 9.998235 
1.7503881e+2, 3.1605008e+2, 151961.66, 60265.664, 50100.895, -0.003100018, 0.13526574, 174026.39, 174026.39, 0.0001490851, 10.001009, 9.999904 
1.8497665e+2, 1.2606119e+2, -1917296.9, -1838728.9, 33089.21, -0.28850514, 0.06185135, -1826650.1, -122038.516, 0.0014297239, 9.998627, 9.99979 
1.8498394e+2, 1.360622e+2, -1605472.1, -1673839.3, -21646.37, 0.19318148, 0.19685778, -1599194.8, 7412.4873, 0.00082590414, 10.000319, 9.999431 
1.8498603e+2, 1.4606279e+2, -1499452.4, -1489727.5, 79734.266, 0.02170001, 0.2726482, -1414707.6, 93894.07, 0.00034715154, 9.999996, 10.000172 
1.8498887e+2, 1.560616e+2, -1629495.8, -1513684.4, 53315.27, -0.18196183, 0.10897545, -1492878.0, -82268.37, 0.0000844504, 9.998487, 10.000066 
1.8499301e+2, 1.6606164e+2, -1459756.4, -1358825.5, -22443.607, -0.1323332, 0.10053346, -1354059.9, -41452.117, 0.000006352812, 9.99891, 10.000242 
1.8499774e+2, 1.7606233e+2, -1112369.0, -1158510.1, -50994.566, 0.06195309, 0.11656635, -1079469.0, 135131.98, 0.000000056960435, 10.000689, 10.0000925 
1.8500164e+2, 1.8606289e+2, -1093956.8, -1191251.6, 718.1615, 0.10770908, 0.21214047, -1093951.5, 22646.512, 0.0, 10.000542, 9.999265 
1.8500495e+2, 1.9606322e+2, -1205480.8, -1185302.1, 3689.3977, 0.049321752, 0.28824723, -1184648.8, -166050.3, 0.0, 9.9990635, 9.999347 
1.8500814e+2, 2.0606287e+2, -1025767.4, -966815.8, -7730.001, 0.012314086, 0.28125814, -965819.06, -45217.332, 0.0, 9.999267, 10.000078 
1.8501121e+2, 2.1606192e+2, -748000.5, -794829.06, -43355.324, -0.013731682, 0.14899088, -722140.94, 100467.26, 0.0, 10.000555, 9.999964 
1.8501417e+2, 2.2606158e+2, -607306.56, -756533.06, -69887.21, 0.0054643536, 0.16246696, -579687.94, 144921.95, 0.0, 10.001202, 9.999244 
1.8501703e+2, 2.3606148e+2, -492888.63, -673636.0, -67702.81, 0.05925356, 0.2004138, -470341.66, 156268.55, 0.0, 10.001408, 9.9990425 
1.8502052e+2, 2.4605967e+2, -506426.3, -779098.9, 28415.264, 0.062097702, 0.19499819, -503496.63, 25132.025, 0.0, 10.0012865, 9.997704 
1.8502444e+2, 2.5605667e+2, -453638.25, -693244.56, 36846.727, 0.03877711, 0.09132983, -448099.97, -17439.97, 0.0, 10.000934, 9.997789 
1.8502718e+2, 2.660548e+2, -238589.27, -424688.38, -34595.91, 0.04011483, 0.074921414, -232365.98, 100309.71, 0.0, 10.001253, 9.998802 
1.850291e+2, 2.7605346e+2, -29442.008, -291096.47, -46879.8, 0.06451549, 0.030477919, -21296.291, 213387.2, 0.000000044067633, 10.002084, 9.998653 
1.85034e+2, 2.860522e+2, -8677.348, -353476.38, 95935.27, 0.13820702, 0.09988624, 16217.765, 152913.83, 0.000002141611, 10.002072, 9.997564 
1.8504098e+2, 2.960511e+2, 28404.074, -251091.9, 55496.813, 0.26568148, 0.2015423, 39020.297, 77730.3, 0.000012353572, 10.001491, 9.997881 
1.8504107e+2, 3.0604738e+2, 157602.75, -41274.785, -112863.29, 0.07235964, -0.023141205, 208584.03, 208584.03, 0.00004451732, 10.001552, 9.998948 
1.8503997e+2, 3.1604734e+2, 264805.66, 64439.246, 12443.551, -0.026535897, 0.07465321, 265575.47, 265575.47, 0.00012891147, 10.001965, 9.999495 
1.9497788e+2, 1.2605898e+2, -1892217.9, -1772133.3, 50862.473, -0.09567825, 0.15635529, -1753485.9, -48851.727, 0.0013506769, 9.99858, 10.000266 
1.9498168e+2, 1.3605794e+2, -1606215.6, -1660127.3, 36107.184, -0.09325399, 0.06825742, -1588112.1, 18532.676, 0.00077082973, 10.000276, 9.999539 
1.9498406e+2, 1.4605834e+2, -1509934.1, -1506770.4, 7057.1406, -0.20874204, 0.12828436, -1501120.0, 7520.0757, 0.0003170448, 9.999968, 10.0000725 
1.9499038e+2, 1.5605791e+2, -1643491.5, -1537771.8, 19196.344, 0.090308726, 0.050169084, -1534394.0, -123751.53, 0.000073711046, 9.998467, 9.99991 
1.9499451e+2, 1.66058e+2, -1504747.8, -1449255.5, 36214.758, 0.0991138, 0.08677451, -1431379.8, -118737.51, 0.0000047225935, 9.998883, 9.999642 
1.9499703e+2, 1.7605822e+2, -1149765.1, -1228988.4, 17486.328, -0.108832605, 0.11205409, -1146077.3, 68564.805, 0.0000000036456946, 10.000653, 9.999629 
1.9500034e+2, 1.8605849e+2, -1070237.9, -1127541.8, -67810.73, -0.10439302, 0.17626564, -1025274.44, 91366.375, 0.0, 10.000473, 9.99974 
1.9500414e+2, 1.9605874e+2, -1191651.1, -1139932.0, -30533.338, 0.037148833, 0.19740655, -1125779.0, -107139.44, 0.0, 9.998989, 9.999698 
1.950078e+2, 2.0605844e+2, -1078563.9, -1049670.8, 31606.805, 0.027775545, 0.20971172, -1029365.44, -108722.125, 0.0, 9.999154, 9.999562 
1.9501126e+2, 2.1605757e+2, -794882.56, -865143.8, 11983.201, -0.09079896, 0.13556416, -792895.0, 29757.363, 0.0, 10.000438, 9.999537 
1.9501457e+2, 2.2605738e+2, -613646.06, -741830.7, -74275.08, -0.09639077, 0.17329492, -579633.3, 145021.02, 0.0, 10.001085, 9.999401 
1.950178e+2, 2.3605752e+2, -494550.44, -647235.7, -51555.656, -0.028041705, 0.2202707, -478772.56, 147879.98, 0.0, 10.001282, 9.999284 
1.9502191e+2, 2.4605682e+2, -465586.1, -668965.2, 3795.3125, 0.050185494, 0.27001897, -465515.28, 63143.984, 0.0, 10.001183, 9.998507 
1.9502649e+2, 2.5605544e+2, -424367.2, -601950.25, 39997.73, 0.12510628, 0.2481272, -415774.16, 14898.836, 0.0, 10.000807, 9.998473 
1.9502868e+2, 2.660531e+2, -274128.94, -491727.0, -13468.457, 0.039467487, 0.17682952, -273298.47, 59393.875, 0.0, 10.001218, 9.998367 
1.9502929e+2, 2.7604976e+2, -67698.79, -359172.97, -7107.5537, -0.1541306, -0.018633721, -67525.58, 167193.48, 0.000000036761158, 10.002025, 9.998224 
1.950344e+2, 2.8604814e+2, -10487.715, -345860.38, 64141.855, -0.056848172, 0.033347398, 1361.1412, 138096.95, 0.0000018181237, 10.002029, 9.997634 
1.9504255e+2, 2.9604816e+2, 21360.156, -233103.03, 54505.016, 0.24449424, 0.23282012, 32543.428, 71284.35, 0.000010151812, 10.001363, 9.998061 
1.9504233e+2, 3.0604511e+2, 198670.0, 54706.453, -103112.914, 0.013687469, 0.02984884, 252440.56, 252440.56, 0.00003534469, 10.001514, 9.99962 
1.9504143e+2, 3.1604436e+2, 212982.8, -17235.877, 59615.367, -0.13228692, -0.0033537087, 227504.3, 227504.3, 0.00010294475, 10.001877, 9.9989605 
2.0497833e+2, 1.2605585e+2, -1709579.3, -1650652.0, 50537.523, 0.05005315, 0.2240795, -1621616.5, 83049.58, 0.0012481074, 9.999692, 10.000571 
2.0498104e+2, 1.3605373e+2, -1677977.6, -1709418.9, -17810.4, -0.14674361, 0.03413993, -1669942.3, -63257.48, 0.0007037624, 9.999821, 9.999443 
2.049833e+2, 1.460538e+2, -1543105.1, -1550018.1, -83212.89, -0.27136058, 0.084770605, -1463277.0, 45406.387, 0.00028324383, 9.999875, 9.999819 
2.0499033e+2, 1.56054e+2, -1435122.9, -1459806.0, -113606.75, 0.16880748, 0.09589671, -1333189.3, 77492.66, 0.000063005726, 10.000001, 9.999705 
2.0499447e+2, 1.660541e+2, -1391599.0, -1363295.1, 1488.0107, 0.18178551, 0.12614326, -1363217.1, -50535.957, 0.0000035155435, 9.999524, 9.999925 
2.0499648e+2, 1.7605387e+2, -1427219.3, -1331748.3, 22321.139, -0.119915806, 0.08301372, -1326787.4, -112104.18, 0.0000000004928599, 9.998613, 9.999911 
2.049998e+2, 1.86054e+2, -1239588.3, -1164782.8, -32054.064, -0.13011861, 0.09629659, -1152926.8, -36245.605, 0.0, 9.999118, 10.000136 
2.0500407e+2, 1.9605428e+2, -939367.0, -985837.1, -23370.984, 0.057412717, 0.08153092, -929646.44, 89030.71, 0.0, 10.00057, 9.999993 
2.0500799e+2, 2.0605409e+2, -883480.75, -998046.1, 75391.31, 0.06107655, 0.113140285, -846078.94, 74601.27, 0.0, 10.000675, 9.999185 
2.0501165e+2, 2.1605344e+2, -907936.1, -958450.0, 45804.63, -0.057465255, 0.09929902, -880886.5, -58196.73, 0.0, 9.999831, 9.999191 
2.0501514e+2, 2.260532e+2, -794312.6, -829563.3, -16970.387, -0.08067847, 0.14752425, -787470.75, -62777.316, 0.0, 9.999843, 9.999394 
2.0501849e+2, 2.3605306e+2, -622244.6, -709161.5, -30946.406, -0.037333846, 0.16838388, -612352.2, 14342.478, 0.0, 10.000401, 9.999287 
2.050229e+2, 2.4605262e+2, -483761.3, -641762.56, 6357.1914, 0.051699333, 0.22535096, -483505.94, 45192.52, 0.0, 10.000898, 9.998828 
2.0502797e+2, 2.560518e+2, -321606.2, -527071.0, -14277.083, 0.16962586, 0.23097457, -320618.84, 110086.64, 0.0, 10.001395, 9.998704 
2.0503071e+2, 2.6604962e+2, -223853.66, -507166.97, -41304.125, 0.101191096, 0.1808696, -217954.77, 114770.13, 0.0, 10.001741, 9.998002 
2.0503186e+2, 2.760461e+2, -92678.43, -402257.44, -60236.637, -0.089489296, 0.00231549, -81370.84, 153385.13, 0.00000002096579, 10.002002, 9.997929 
2.0503642e+2, 2.8604442e+2, -68924.79, -350121.34, 3020.6182, -0.023997523, 0.05410311, -68892.34, 67881.28, 0.0000012828043, 10.001536, 9.997838 
2.0504329e+2, 2.960446e+2, -71895.88, -255849.56, -8244.743, 0.22809872, 0.24587475, -71527.1, -32750.7, 0.000007381431, 10.000639, 9.998245 
2.0504332e+2, 3.0604184e+2, 182023.45, 17412.172, -117203.195, -0.028574513, 0.07839317, 242933.75, 242933.75, 0.000026183836, 10.001525, 9.999372 
2.0504527e+2, 3.160405e+2, 402033.28, 23825.46, -81220.086, -0.0006280144, 0.008372917, 418737.5, 418737.5, 0.000078692225, 10.003413, 9.9985 
2.1497712e+2, 1.2605171e+2, -1707619.9, -1629827.0, 4100.533, -0.100868605, 0.2652237, -1629611.4, 75096.65, 0.0011286365, 9.999625, 10.000744 
2.1498181e+2, 1.3604967e+2, -1688543.3, -1739692.8, -546.41925, -0.08270102, 0.09952823, -1688537.5, -81811.22, 0.00062779407, 9.999855, 9.999218 
2.1498325e+2, 1.460494e+2, -1584715.5, -1632643.3, -92292.89, -0.2960823, 0.15623067, -1513326.1, -4596.198, 0.00024660726, 9.999858, 9.999258 
2.1498834e+2, 1.5604995e+2, -1457382.4, -1508481.4, -100633.22, -0.062357046, 0.25480503, -1379106.0, 31620.967, 0.000052325075, 10.000008, 9.999368 
2.149925e+2, 1.6604993e+2, -1320127.6, -1201140.9, -45511.68, 0.0042604995, 0.22562292, -1185729.1, 126995.51, 0.000002586899, 9.999465, 10.001064 
2.1499574e+2, 1.7604929e+2, -1360293.5, -1179203.1, 8697.203, -0.079668365, 0.022790551, -1178786.4, 35938.38, 0.000000000052014764, 9.998561, 10.0009775 
2.1499972e+2, 1.8604936e+2, -1232662.8, -1132499.6, 13760.84, -0.07483597, -0.029943619, -1130643.5, -13924.283, 0.0, 9.999037, 10.0004 
2.1500437e+2, 1.9604981e+2, -929145.75, -951772.9, 35730.668, 0.0019824877, -0.058548126, -902980.3, 115731.04, 0.0, 10.000513, 10.000254 
2.1500841e+2, 2.0604984e+2, -913398.4, -1040030.94, 31179.258, 0.012092604, -0.0032569412, -906137.8, 14574.482, 0.0, 10.0005865, 9.9989395 
2.1501204e+2, 2.1604946e+2, -940464.06, -999527.9, 28917.908, -0.029348118, 0.035468984, -928663.44, -105942.66, 0.0, 9.999715, 9.998964 
2.1501544e+2, 2.2604893e+2, -827533.7, -865187.3, -7745.1045, -0.055023465, 0.07460604, -826002.8, -101274.6, 0.0, 9.999705, 9.999213 
2.1501872e+2, 2.3604813e+2, -655816.4, -743741.1, 2358.2573, -0.0783471, 0.042983554, -655753.2, -29016.625, 0.0, 10.000254, 9.999115 
2.150232e+2, 2.4604714e+2, -507111.97, -674011.75, 14638.733, -0.033801243, 0.0626572, -505837.75, 22908.102, 0.0, 10.000828, 9.998641 
2.1502857e+2, 2.5604594e+2, -352636.5, -562963.0, 14616.109, 0.06032228, 0.047946364, -351625.63, 79131.05, 0.0, 10.001276, 9.998514 
2.150329e+2, 2.6604444e+2, -255287.97, -558317.4, -42275.574, 0.11928656, 0.09502748, -249500.64, 83271.85, 0.0, 10.001683, 9.997675 
2.1503644e+2, 2.7604237e+2, -128359.09, -449931.13, -41434.008, 0.13960302, 0.09100438, -123106.195, 111689.18, 0.00000000626477, 10.001889, 9.997653 
2.1503973e+2, 2.86041e+2, -41324.51, -283247.2, -43307.984, 0.12524366, 0.1586177, -33805.395, 103005.08, 0.00000075455597, 10.0015, 9.998313 
2.1504296e+2, 2.9604053e+2, -67239.07, -234457.45, -18053.357, 0.10003614, 0.2459608, -65312.184, -26496.238, 0.0000049684672, 10.000589, 9.998418 
2.1504381e+2, 3.0603766e+2, 97754.055, -165933.25, -52165.47, -0.15633646, 0.13462406, 107698.92, 107698.92, 0.000019574018, 10.001553, 9.998104 
2.1505097e+2, 3.1603572e+2, 344212.56, -79090.05, -6078.715, 0.16708829, 0.12238488, 344299.8, 344299.8, 0.000061826526, 10.00333, 9.997842 
2.2497588e+2, 1.2604634e+2, -1839485.3, -1666908.6, -1782.3069, -0.11901902, 0.22994979, -1666890.3, 37869.117, 0.0009987261, 9.998584, 10.000991 
2.2498253e+2, 1.3604511e+2, -1787883.1, -1757689.8, -11883.945, 0.054722197, 0.11806887, -1753573.4, -146803.8, 0.0005469882, 9.999062, 9.999459 
2.24984e+2, 1.4604448e+2, -1575532.9, -1599143.5, -14850.424, -0.19808732, 0.11149815, -1568367.1, -59591.195, 0.00020906689, 9.999792, 9.999531 
2.2498806e+2, 1.5604502e+2, -1353968.4, -1435223.6, 8017.371, -0.11508478, 0.18250819, -1353184.9, 57586.793, 0.000042237294, 10.000622, 9.999579 
2.2499186e+2, 1.6604522e+2, -1203200.8, -1181972.8, -4044.2422, -0.0490805, 0.18519612, -1181228.4, 131539.58, 0.0000020119714, 10.00043, 10.000726 
2.2499512e+2, 1.7604485e+2, -1240918.5, -1155900.9, -83315.61, -0.041270588, 0.045511212, -1104876.3, 109891.695, 0.0, 9.999529, 10.000667 
2.2499937e+2, 1.8604492e+2, -1171359.4, -1069954.3, -41882.504, -0.020777809, -0.011644764, -1054892.9, 61869.348, 0.0, 9.999311, 10.000697 
2.2500446e+2, 1.960452e+2, -1067310.3, -990702.75, -46105.266, 0.021033404, -0.08263076, -969065.94, 49687.445, 0.0, 9.9994545, 10.000501 
2.2500885e+2, 2.0604526e+2, -994198.3, -1083307.3, -47711.848, 0.029280055, -0.035365224, -973472.44, -52718.77, 0.0, 10.000052, 9.998906 
2.2501267e+2, 2.160449e+2, -772413.3, -924803.06, -54717.438, 0.009812132, 0.010672055, -754801.7, 67960.78, 0.0, 10.000894, 9.998916 
2.2501622e+2, 2.2604431e+2, -649138.9, -794038.7, -59244.23, -0.006755938, 0.05277368, -627999.94, 96770.9, 0.0, 10.000985, 9.999088 
2.2501962e+2, 2.360434e+2, -623961.06, -739388.56, -67434.47, -0.018682772, 0.02189287, -592915.1, 33865.305, 0.0, 10.000522, 9.999014 
2.2502415e+2, 2.4604212e+2, -522102.63, -695283.6, -7284.6543, -0.012818742, 0.023568606, -521796.75, 6995.4907, 0.0, 10.000786, 9.998519 
2.2502947e+2, 2.5604042e+2, -310472.75, -557178.4, -29423.428, 0.012887874, -0.025852194, -307012.1, 123795.12, 0.0, 10.001617, 9.998401 
2.2503443e+2, 2.6603907e+2, -267340.6, -557186.0, -72442.54, 0.114532076, 0.038601864, -250243.22, 82579.51, 0.0, 10.001573, 9.997736 
2.250391e+2, 2.760377e+2, -248277.33, -497696.16, -66080.93, 0.2679363, 0.09660607, -231851.61, 2989.505, 0.00000000006385136, 10.001022, 9.997742 
2.2504202e+2, 2.860366e+2, -61560.234, -274131.03, -40944.0, 0.2243994, 0.18097655, -53946.566, 82906.83, 0.00000032397858, 10.001273, 9.998486 
2.250438e+2, 2.960361e+2, 141293.64, -135165.36, -59221.96, 0.061605424, 0.24378924, 153445.78, 192304.25, 0.000003287384, 10.002028, 9.998403 
2.2504519e+2, 3.0603254e+2, 103822.99, -247002.67, -25923.457, -0.18315941, 0.109500065, 105728.195, 105728.195, 0.000016014252, 10.001964, 9.99734 
2.2505513e+2, 3.1603083e+2, 54204.492, -198661.13, -11073.86, 0.37048268, 0.17568047, 54688.527, 54688.527, 0.000053501928, 10.001259, 9.998008 
2.3497407e+2, 1.260397e+2, -1821250.6, -1626143.0, -51162.23, -0.22551353, 0.10113219, -1613540.9, 91279.53, 0.0008678266, 9.998582, 10.001272 
2.3498285e+2, 1.3603993e+2, -1739415.5, -1669899.8, 10852.773, 0.14993767, 0.09241, -1668244.9, -61428.45, 0.00046623294, 9.999101, 10.000053 
2.3498501e+2, 1.460388e+2, -1500982.3, -1420761.8, 3175.915, -0.10350514, -0.061481483, -1420636.3, 88187.71, 0.00017258529, 9.999699, 10.0008 
2.349891e+2, 1.5603909e+2, -1294098.6, -1308053.6, 46522.137, -0.10213558, -0.13293742, -1254033.6, 156783.0, 0.000033446406, 10.00061, 10.00046 
2.3499218e+2, 1.6603982e+2, -1350200.3, -1470943.0, -51632.195, -0.08740731, -0.0070983837, -1331132.4, -18319.986, 0.0000017722703, 10.000365, 9.9987755 
2.3499429e+2, 1.760404e+2, -1361784.4, -1398504.3, -102212.375, -0.10546735, 0.13800654, -1276296.1, -61481.29, 0.0000000001389195, 9.999491, 9.999023 
2.3499842e+2, 1.8604058e+2, -1167324.8, -1035896.75, -48444.82, -0.07290912, 0.14855488, -1019969.94, 96841.14, 0.0, 9.999207, 10.000982 
2.35004e+2, 1.9604044e+2, -1057958.1, -957279.4, -28343.002, 0.0015587588, 0.008884376, -949848.7, 68955.234, 0.0, 9.999393, 10.000761 
2.3500884e+2, 2.0604022e+2, -999485.3, -1062205.9, -26549.834, 0.0026052836, 0.0073893936, -989755.94, -68950.555, 0.0, 9.999918, 9.999114 
2.3501319e+2, 2.160397e+2, -780503.3, -908530.2, -14476.792, -0.05344401, 0.015318956, -778886.75, 43928.414, 0.0, 10.000751, 9.999097 
2.3501714e+2, 2.2603934e+2, -677964.1, -818766.8, -85622.92, -0.035921697, 0.07747149, -637515.9, 87305.14, 0.0, 10.00084, 9.998988 
2.3502089e+2, 2.360389e+2, -648784.56, -762598.25, -67542.42, 0.028708067, 0.109537736, -617371.7, 9454.06, 0.0, 10.000401, 9.998916 
2.3502532e+2, 2.460375e+2, -535086.3, -706914.5, 12075.985, -0.0034628497, 0.10450378, -534241.75, -5403.39, 0.0, 10.000719, 9.998471 
2.3503025e+2, 2.560352e+2, -328525.6, -565419.4, 8046.951, -0.09762741, 0.002553396, -328252.6, 102605.43, 0.0, 10.001491, 9.998404 
2.3503494e+2, 2.660336e+2, -246965.67, -497197.66, -104556.67, -0.01582812, 0.014212923, -209029.19, 123846.0, 0.0, 10.001501, 9.998182 
2.3503953e+2, 2.7603215e+2, -234532.36, -448244.6, -67761.09, 0.18142436, 0.020946177, -214858.64, 20034.52, 0.0, 10.000928, 9.998131 
2.3504291e+2, 2.8603142e+2, -72908.25, -289217.0, -21397.188, 0.15574344, 0.12768118, -70811.96, 66089.99, 0.00000009734078, 10.001239, 9.998399 
2.350454e+2, 2.9603124e+2, 111544.39, -175734.16, -23094.4, -0.016325045, 0.23955145, 113389.11, 152293.67, 0.0000024854203, 10.001931, 9.998178 
2.3504704e+2, 3.0602646e+2, 94882.35, -263682.72, -57187.21, -0.22352031, 0.0038410523, 103782.19, 103782.19, 0.000014818683, 10.001954, 9.9972315 
2.3505716e+2, 3.160258e+2, 117119.08, -61215.97, -38433.64, 0.38775337, 0.17122816, 125049.4, 125049.4, 0.000051300616, 10.001217, 9.99898 
2.4497344e+2, 1.260337e+2, -1771885.9, -1586147.8, -34781.62, -0.14944856, 0.0344136, -1579848.1, 125030.41, 0.0007423371, 9.998875, 10.001406 
2.449817e+2, 1.3603495e+2, -1721804.0, -1608990.1, 13900.087, 0.14026704, 0.08739946, -1607302.8, -438.97073, 0.00038816038, 9.999009, 10.000519 
2.449844e+2, 1.460342e+2, -1543052.1, -1389071.6, 5509.3203, -0.09973665, -0.07899069, -1388874.8, 119992.664, 0.00013769997, 9.999174, 10.001264 
2.449897e+2, 1.5603526e+2, -1453373.9, -1346931.5, -41688.914, -0.032119326, -0.11820771, -1332547.5, 78304.49, 0.000025817635, 9.999359, 10.000789 
2.4499278e+2, 1.6603594e+2, -1469861.6, -1567073.0, -91004.445, -0.023030657, 0.0054970332, -1415296.0, -102447.19, 0.0000016011192, 9.999699, 9.9984455 
2.4499427e+2, 1.7603582e+2, -1304494.9, -1408009.5, -42949.15, -0.07713539, 0.1170718, -1288995.5, -74137.15, 0.0000000006420841, 10.000041, 9.998697 
2.4499813e+2, 1.8603565e+2, -1063959.8, -1022407.94, 62522.99, -0.059691656, 0.12432089, -977299.4, 139559.75, 0.0, 10.000087, 10.000638 
2.4500369e+2, 1.9603537e+2, -1006893.6, -962286.8, 14416.651, 0.015075696, 0.0030013062, -958033.06, 60821.063, 0.0, 9.99989, 10.000474 
2.4500859e+2, 2.0603527e+2, -1000170.75, -1030983.0, 33089.258, -0.00013951224, 0.010546757, -979076.9, -58222.918, 0.0, 9.999777, 9.999394 
2.4501312e+2, 2.160351e+2, -933828.2, -954734.4, 26405.648, -0.067361176, 0.024034414, -915881.9, -93022.89, 0.0, 9.999588, 9.999334 
2.4501754e+2, 2.2603466e+2, -798307.44, -904087.56, -28398.096, -0.035619978, 0.08059656, -791165.75, -66300.56, 0.0, 10.000129, 9.998744 
2.4502195e+2, 2.3603386e+2, -553721.75, -736764.4, -40646.246, 0.06600634, 0.099118054, -545101.8, 81771.83, 0.0, 10.001143, 9.998733 
2.4502665e+2, 2.460325e+2, -487089.97, -659944.25, 58068.652, 0.052094486, 0.09577807, -469394.03, 59491.797, 0.0, 10.000939, 9.998696 
2.4503152e+2, 2.5603062e+2, -539590.2, -637623.6, 53617.99, -0.030781286, 0.007964718, -515960.3, -85058.53, 0.0, 9.999922, 9.998665 
2.4503583e+2, 2.6602894e+2, -415617.6, -550238.4, -21924.36, -0.0059256465, -0.011728061, -412136.97, -79218.26, 0.0, 10.000206, 9.998446 
2.4503982e+2, 2.7602726e+2, -149836.3, -378608.66, -21151.248, 0.102178745, -0.054579027, -147897.19, 87040.37, 0.0, 10.001387, 9.998386 
2.450439e+2, 2.8602684e+2, -51845.797, -290530.78, 36903.613, 0.12924506, 0.07156154, -46270.29, 90673.625, 0.00000009803459, 10.001431, 9.998302 
2.4504788e+2, 2.9602692e+2, -69323.086, -270180.75, 12216.998, 0.10702097, 0.22023751, -68582.73, -29638.365, 0.0000023443192, 10.000724, 9.998109 
2.4504945e+2, 3.060216e+2, 8539.292, -296348.88, 34971.832, -0.13560185, -0.06668349, 12499.261, 12499.261, 0.000014153015, 10.001337, 9.997301 
2.4505866e+2, 3.1602192e+2, 378797.66, 138757.63, -21788.037, 0.35307518, 0.18587899, 380759.3, 380759.3, 0.000049336963, 10.002732, 9.99961 
2.5497317e+2, 1.2602843e+2, -1777520.5, -1591608.8, -96176.94, -0.12227486, 0.0361695, -1550808.1, 154124.45, 0.00062344765, 9.998852, 10.00138 
2.5497878e+2, 1.3603012e+2, -1689490.3, -1539749.1, 30390.627, -0.077730924, 0.08652719, -1533816.3, 73096.21, 0.0003143659, 9.999009, 10.000992 
2.5498196e+2, 1.4603056e+2, -1581402.5, -1457081.5, -2615.5212, -0.2947126, 0.042373873, -1457026.5, 51880.355, 0.00010539114, 9.999126, 10.000817 
2.5498933e+2, 1.5603344e+2, -1474603.9, -1382136.9, -23111.645, -0.03597666, 0.22589405, -1376682.1, 34196.426, 0.000019009012, 9.999325, 10.000559 
2.5499323e+2, 1.6603352e+2, -1385695.1, -1373647.8, -89037.4, 0.026968723, 0.22356431, -1290430.5, 22446.58, 0.0000013062046, 9.999621, 9.999808 
2.5499463e+2, 1.7603128e+2, -1232166.1, -1248106.6, -18032.348, -0.073021784, -0.0112621775, -1220421.1, -5523.433, 0.000000000635992, 10.000006, 9.999807 
2.5499815e+2, 1.8603025e+2, -1143614.3, -1173481.4, 45050.395, -0.09255717, -0.08244691, -1111086.9, 5818.3735, 0.0, 10.000018, 9.999638 
2.550032e+2, 1.9602993e+2, -1074250.3, -1088540.9, 19329.559, -0.053272013, -0.111679405, -1060787.6, -41882.793, 0.0, 9.999824, 9.9996395 
2.5500783e+2, 2.0603032e+2, -1000953.75, -998392.56, 15747.397, -0.07715759, -0.035638608, -983873.8, -62973.434, 0.0, 9.999633, 9.999686 
2.5501215e+2, 2.1603094e+2, -932682.94, -927123.3, 34540.61, -0.1485792, 0.028654415, -895250.8, -72355.49, 0.0, 9.99948, 9.999575 
2.550171e+2, 2.2603016e+2, -837325.7, -958915.0, -2082.6948, -0.118874945, 0.058556203, -837290.06, -112385.63, 0.0, 10.000016, 9.998423 
2.5502244e+2, 2.360282e+2, -588105.5, -780074.25, 2107.4075, -0.025021814, -0.010987718, -588082.4, 38842.523, 0.0, 10.00102, 9.998494 
2.550278e+2, 2.4602713e+2, -464757.7, -593875.2, 7539.3447, 0.048107028, -0.0027320373, -464318.97, 64615.98, 0.0, 10.000857, 9.999188 
2.5503302e+2, 2.5602645e+2, -525552.8, -581640.44, 33090.62, 0.09921142, -0.01734425, -510221.03, -79281.15, 0.0, 9.999803, 9.999108 
2.5503674e+2, 2.6602504e+2, -416369.78, -533157.8, 12412.772, 0.03795838, -0.040479112, -415065.06, -82110.95, 0.0, 10.000133, 9.998598 
2.550396e+2, 2.760229e+2, -156015.44, -369429.47, 29495.465, -0.08799898, -0.13782759, -152013.97, 82962.01, 0.0, 10.0012865, 9.998503 
2.550446e+2, 2.8602257e+2, -66755.5, -305022.56, -3570.351, 0.03224959, -0.00026510566, -66702.016, 70279.05, 0.00000013920514, 10.001372, 9.998223 
2.5505078e+2, 2.9602304e+2, -94674.17, -287501.16, 1921.7733, 0.2956566, 0.1881561, -94655.016, -55676.285, 0.0000022917138, 10.000585, 9.99805 
2.5505212e+2, 3.0601782e+2, 26917.885, -258991.61, 82756.81, -0.030115139, -0.103289075, 49144.098, 49144.098, 0.0000129202135, 10.001332, 9.997562 
2.5505897e+2, 3.160188e+2, 378978.9, 145165.81, 31654.375, 0.048404012, 0.19960116, 383188.6, 383188.6, 0.00004582413, 10.002691, 9.999685 
2.6497182e+2, 1.2602417e+2, -1964065.8, -1694413.0, 10167.601, -0.06378913, 0.0563632, -1694030.3, 10942.96, 0.00051409315, 9.997584, 10.001292 
2.6497796e+2, 1.3602617e+2, -1609400.1, -1478795.4, 98841.07, -0.06680678, 0.10217513, -1425632.8, 181316.36, 0.0002486299, 9.999417, 10.001228 
2.649812e+2, 1.4602652e+2, -1579378.6, -1495827.8, 44444.87, -0.28422073, 0.058340576, -1476607.0, 32337.717, 0.00007773356, 9.999323, 10.000455 
2.6498768e+2, 1.5602861e+2, -1638079.9, -1489742.3, 6356.193, -0.07530052, 0.19552702, -1489470.4, -78544.54, 0.000013419433, 9.9983225, 10.000309 
2.6499227e+2, 1.6602875e+2, -1443725.9, -1319604.5, -13392.729, 0.015242847, 0.17151658, -1318175.9, -5253.55, 0.0000010267595, 9.998874, 10.00054 
2.6499543e+2, 1.7602728e+2, -1136378.9, -1137267.4, -19334.438, -0.0054239305, -0.05840777, -1117483.6, 97448.66, 0.0000000012219834, 10.00038, 10.000389 
2.649991e+2, 1.8602648e+2, -1060173.6, -1198093.6, 25358.258, -0.03844881, -0.09969755, -1055659.0, 61279.305, 0.0, 10.000873, 9.999061 
2.650032e+2, 1.9602604e+2, -997760.56, -1111444.3, 4167.0415, -0.06658434, -0.0803383, -997608.06, 21334.518, 0.0, 10.000602, 9.999113 
2.650078e+2, 2.0602599e+2, -878127.8, -934642.7, 29079.602, -0.077017464, -0.02839551, -865837.7, 55104.5, 0.0, 10.000454, 9.99973 
2.6501268e+2, 2.1602601e+2, -811213.7, -866658.5, 8712.209, -0.07872487, -0.028057482, -809876.94, 13063.38, 0.0, 10.000303, 9.999598 
2.65018e+2, 2.2602497e+2, -744060.8, -897112.6, 37823.266, -0.054966774, -0.030704983, -735223.9, -10273.541, 0.0, 10.00058, 9.998579 
2.6502356e+2, 2.3602311e+2, -566854.44, -758150.4, 41525.688, -0.010345748, -0.10372606, -558229.1, 68740.32, 0.0, 10.00111, 9.998609 
2.6502883e+2, 2.4602248e+2, -490732.1, -606957.9, -522.47375, 0.08358417, -0.0544375, -490729.72, 38247.297, 0.0, 10.000706, 9.99916 
2.6503378e+2, 2.5602245e+2, -533600.06, -582564.56, -25586.533, 0.20671114, 0.0006028171, -522669.75, -91691.195, 0.0, 9.999756, 9.999111 
2.6503763e+2, 2.6602137e+2, -406510.66, -512311.8, 35871.832, 0.1213867, 0.0034977933, -395495.2, -62504.953, 0.0, 10.000122, 9.998754 
2.6504093e+2, 2.7601954e+2, -129126.05, -333754.8, 24443.432, -0.08119424, -0.084656246, -126246.734, 108761.945, 0.0, 10.001388, 9.998695 
2.6504612e+2, 2.8601894e+2, -15072.419, -288147.34, -40526.086, 0.033194885, 0.019001087, -9185.017, 127830.25, 0.00000017298198, 10.001749, 9.99816 
2.6505223e+2, 2.9601857e+2, 40616.676, -222428.48, -51620.902, 0.34291625, 0.13247079, 50384.246, 89403.75, 0.000002277503, 10.0014925, 9.998069 
2.6505396e+2, 3.0601376e+2, 32428.742, -254552.53, 93945.46, 0.031480387, -0.12297361, 60447.03, 60447.03, 0.000011809922, 10.001348, 9.997599 
2.6506048e+2, 3.1601495e+2, 133606.0, 37913.18, -37111.38, 0.03268747, 0.20151873, 146311.5, 146311.5, 0.000042458643, 10.00094, 9.999794 
2.7496883e+2, 1.2602079e+2, -1973196.1, -1711908.6, 24129.957, -0.18886171, 0.076810114, -1709698.9, -4697.1807, 0.00042131313, 9.997572, 10.00118 
2.7497867e+2, 1.3602324e+2, -1599643.1, -1459569.0, 161268.1, 0.030048376, 0.15120322, -1353786.4, 253186.05, 0.0001952308, 9.999425, 10.001352 
2.7498168e+2, 1.4602223e+2, -1603511.3, -1542380.8, -12572.96, -0.20679459, -0.016538383, -1539895.8, -30916.11, 0.000056360343, 9.999306, 10.000147 
2.749845e+2, 1.5602084e+2, -1657869.0, -1526469.9, -8074.9478, -0.25534576, -0.1969291, -1525975.5, -114982.586, 0.000009372096, 9.998308, 10.000066 
2.7498966e+2, 1.6602169e+2, -1441747.3, -1305895.6, 33146.875, -0.16282743, -0.14672473, -1298239.5, 14744.487, 0.0000008660051, 9.998834, 10.0006485 
2.749962e+2, 1.7602378e+2, -1138969.4, -1132735.0, 42443.62, 0.0010069833, -0.029357951, -1093294.3, 121668.234, 0.000000004874734, 10.000342, 10.000435 
2.7500048e+2, 1.8602431e+2, -1089063.4, -1235988.0, 3839.3496, -0.011016914, 0.072948545, -1088963.1, 27995.633, 0.0, 10.000778, 9.998845 
2.750033e+2, 1.9602369e+2, -1021397.1, -1143728.8, 8133.381, -0.14371909, 0.09269383, -1020858.75, -1891.1252, 0.0, 10.000535, 9.998921 
2.7500814e+2, 2.0602237e+2, -910210.5, -976145.9, 11985.211, -0.11039856, 0.04118174, -908099.5, 12879.059, 0.0, 10.000348, 9.999496 
2.7501428e+2, 2.1602029e+2, -842490.75, -896172.7, 17710.639, 0.025576029, -0.14647172, -837174.2, -14180.491, 0.0, 10.000154, 9.999465 
2.7501985e+2, 2.2601911e+2, -730233.06, -830817.9, 47393.945, 0.05246256, -0.18698654, -711420.4, 13582.437, 0.0, 10.00042, 9.999114 
2.7502498e+2, 2.3601845e+2, -556979.6, -706295.7, 66704.09, -0.0014314322, -0.1918218, -531521.44, 95487.49, 0.0, 10.000973, 9.999034 
2.7502948e+2, 2.4601842e+2, -540960.06, -691404.2, -48259.477, 0.05099804, -0.07106984, -526810.25, 2203.0679, 0.0, 10.000621, 9.998619 
2.7503344e+2, 2.5601855e+2, -580796.44, -661492.0, -41751.535, 0.16858011, 0.049616907, -563082.75, -132063.56, 0.0, 9.999664, 9.998618 
2.7503815e+2, 2.6601794e+2, -405136.53, -491131.63, 69863.29, 0.13535859, 0.11471803, -366099.53, -33071.63, 0.0, 10.000054, 9.998927 
2.7504343e+2, 2.7601683e+2, -138153.03, -323418.97, 77573.016, 0.0029932314, 0.08671453, -109962.01, 125076.21, 0.00000000009324417, 10.001267, 9.998822 
2.7504808e+2, 2.8601554e+2, -20108.05, -285445.63, -63583.414, 0.024814708, 0.11169063, -5658.3223, 131391.38, 0.00000023612336, 10.001698, 9.9982 
2.750518e+2, 2.9601347e+2, 36471.387, -212901.28, -47771.457, 0.1161891, 0.04755778, 45309.56, 84377.23, 0.0000024951785, 10.0014105, 9.998175 
2.750545e+2, 3.0600962e+2, 25641.66, -260693.36, 73084.79, -0.07281435, -0.11661833, 43217.18, 43217.18, 0.0000116764495, 10.001327, 9.997559 
2.750624e+2, 3.1601062e+2, 110899.07, 26923.42, -39170.973, 0.06830152, 0.20426507, 126333.734, 126333.734, 0.00004063622, 10.0007925, 9.999787 
2.8496778e+2, 1.2601557e+2, -1632950.9, -1565589.3, -72687.805, -0.1615712, 0.0561664, -1519158.1, 185892.75, 0.00034670465, 10.000014, 10.00099 
2.849779e+2, 1.3601768e+2, -1832631.0, -1577650.5, 9555.319, 0.101959705, 0.108840585, -1577292.9, 29733.197, 0.00015383656, 9.997878, 10.001273 
2.8498158e+2, 1.4601707e+2, -1774274.9, -1583082.4, -92858.984, -0.070726015, -0.036041453, -1545406.5, -36377.78, 0.00004093297, 9.997963, 10.000511 
2.8498414e+2, 1.5601556e+2, -1419885.8, -1375663.9, -64451.645, -0.18647037, -0.26463184, -1329636.0, 81405.086, 0.0000066741927, 9.999779, 10.000393 
2.8498933e+2, 1.6601653e+2, -1307643.5, -1279753.9, -3746.387, -0.12763266, -0.19650353, -1279259.5, 33772.176, 0.00000074756446, 9.999923, 10.00031 
2.8499618e+2, 1.7601901e+2, -1361668.3, -1273350.0, -50949.82, 0.04203408, -0.005890029, -1250085.8, -35076.227, 0.000000006090155, 9.998949, 10.000152 
2.8500083e+2, 1.8601963e+2, -1305654.4, -1293845.1, -47554.02, 0.03718106, 0.09469795, -1251830.6, -134825.69, 0.0, 9.999095, 9.999255 
2.8500405e+2, 1.9601886e+2, -1083394.9, -1138129.6, -22451.316, -0.08801372, 0.062187616, -1075364.0, -56350.902, 0.0, 9.999953, 9.999241 
2.8500906e+2, 2.0601743e+2, -915148.25, -1010658.1, 5166.0825, -0.05213196, 0.001390021, -914869.6, 6155.2036, 0.0, 10.0004635, 9.999195 
2.8501526e+2, 2.1601534e+2, -789648.0, -897713.4, -19064.686, 0.092485085, -0.15793635, -786383.3, 36657.957, 0.0, 10.000642, 9.999214 
2.850206e+2, 2.2601436e+2, -693250.3, -772207.3, 28568.572, 0.088342726, -0.18538131, -683997.8, 41050.6, 0.0, 10.000504, 9.99947 
2.8502533e+2, 2.360141e+2, -654354.6, -716536.3, 11290.494, -0.018245108, -0.18678683, -652368.06, -25318.094, 0.0, 10.0001545, 9.999351 
2.850296e+2, 2.4601407e+2, -570731.25, -722700.3, -70713.21, 0.016026594, -0.07233726, -542917.9, -13863.573, 0.0, 10.000468, 9.998482 
2.8503367e+2, 2.560141e+2, -359890.94, -566231.94, -55231.73, 0.15327184, 0.04736558, -346037.1, 85024.51, 0.0, 10.001234, 9.998511 
2.8503868e+2, 2.660134e+2, -265815.4, -437316.84, 90458.336, 0.13917701, 0.117144816, -226923.06, 106147.93, 0.0, 10.001068, 9.998807 
2.850445e+2, 2.7601215e+2, -294928.34, -410949.88, 54392.785, 0.044988018, 0.08116569, -273416.63, -38333.387, 0.0000000018932573, 10.000226, 9.998727 
2.850493e+2, 2.8601044e+2, -203522.38, -371003.56, -57619.3, 0.049009945, 0.06774809, -185614.2, -48516.098, 0.00000028816427, 10.000419, 9.998236 
2.8505293e+2, 2.9600817e+2, 50043.074, -194119.02, -67274.945, 0.092693985, -0.019922778, 67352.484, 106469.73, 0.0000027347362, 10.001464, 9.998272 
2.8505638e+2, 3.06005e+2, 71141.13, -263554.72, 34813.816, -0.025053974, -0.11300855, 74723.984, 74723.984, 0.000012525966, 10.001735, 9.997337 
2.8506377e+2, 3.160055e+2, 106025.06, 5359.112, -135971.03, 0.14071092, 0.1822389, 200680.13, 200680.13, 0.000040586296, 10.000838, 9.999612 
2.9496768e+2, 1.2600881e+2, -1650280.3, -1616603.6, -207696.39, -0.24677214, 0.017171847, -1425064.1, 280054.25, 0.00028489743, 10.000068, 10.00062 
2.9497537e+2, 1.3600954e+2, -1858615.4, -1633844.5, -51967.76, 0.028355027, -0.02345846, -1622411.0, -15300.96, 0.000121053716, 9.997893, 10.000877 
2.949806e+2, 1.4601098e+2, -1699231.6, -1432822.9, -43103.1, -0.00306202, 0.00038274686, -1426022.8, 83069.945, 0.000029834508, 9.99797, 10.001546 
2.9498607e+2, 1.5601271e+2, -1361881.5, -1251376.9, 3234.998, -0.00060731545, -0.010093707, -1251282.3, 159788.63, 0.000004731658, 9.999761, 10.001256 
2.9499084e+2, 1.6601333e+2, -1371271.3, -1397776.6, -51486.82, 0.0052063586, 0.028753093, -1331358.9, -18293.408, 0.00000054097734, 9.99987, 9.999519 
2.94995e+2, 1.7601313e+2, -1407402.1, -1356842.0, -65857.86, 0.00027138257, 0.023681784, -1311578.9, -96507.1, 0.0000000012704189, 9.998914, 9.999587 
2.9499978e+2, 1.8601255e+2, -1245893.6, -1156313.9, -27205.008, -0.007513843, -0.02396094, -1148699.1, -31623.629, 0.0, 9.999029, 10.000235 
2.9500496e+2, 1.9601151e+2, -1034823.5, -1021301.75, 18457.844, -0.020631924, -0.18085322, -1008405.56, 10673.994, 0.0, 9.999885, 10.000074 
2.9501015e+2, 2.060111e+2, -961328.56, -1076772.6, 973.59375, -0.011959171, -0.1551025, -961320.4, -40238.56, 0.0, 10.000336, 9.998801 
2.9501522e+2, 2.16011e+2, -833279.3, -954499.2, -1027.8379, -0.0016542017, -0.07669163, -833270.6, -10186.388, 0.0, 10.000498, 9.998891 
2.9501987e+2, 2.2601067e+2, -702387.56, -756768.6, 3180.0544, -0.061308715, -0.0356678, -702202.25, 22885.21, 0.0, 10.000358, 9.999643 
2.950242e+2, 2.3601006e+2, -660749.8, -697594.0, 15556.56, -0.16946316, -0.090814404, -655060.06, -27967.344, 0.0, 10.000018, 9.999544 
2.9502898e+2, 2.4600956e+2, -561107.3, -683078.44, -54200.914, -0.11789471, -0.04921386, -540502.56, -11403.778, 0.0, 10.000382, 9.998798 
2.9503405e+2, 2.56009e+2, -357714.97, -540037.4, -22237.94, 0.04028002, -0.013947088, -355041.78, 76064.97, 0.0, 10.001137, 9.998744 
2.9503888e+2, 2.6600763e+2, -297409.38, -490786.72, 48116.1, 0.025402531, -0.0058341636, -286098.72, 47022.86, 0.0, 10.001017, 9.998464 
2.9504368e+2, 2.7600545e+2, -329051.47, -459173.9, 39320.14, -0.08851441, -0.100818016, -318092.72, -82949.22, 0.0000000016821552, 10.000128, 9.998443 
2.9504937e+2, 2.8600386e+2, -202412.2, -361897.47, -31167.336, -0.0139608905, -0.09485388, -196537.72, -59379.332, 0.00000022409213, 10.000388, 9.998315 
2.9505515e+2, 2.9600266e+2, 41242.332, -202227.14, -11901.238, 0.13397026, -0.0785066, 41822.703, 80991.086, 0.0000026534976, 10.001408, 9.998252 
2.9505923e+2, 3.059998e+2, 44622.953, -312625.88, 703.48914, 0.05628497, -0.12152611, 44624.34, 44624.34, 0.00001292508, 10.001708, 9.997013 
2.9506376e+2, 3.1599915e+2, 77408.34, -44760.223, -117558.664, -0.012516111, 0.08825077, 148805.48, 148805.48, 0.000040883584, 10.000788, 9.999293 
3.0496785e+2, 1.2600444e+2, -1808836.3, -1723328.8, -63250.883, -0.171794, 0.028469928, -1689737.5, 15421.934, 0.00023189843, 9.999117, 10.000353 
3.0497387e+2, 1.3600394e+2, -1624758.0, -1578053.4, 46706.11, 0.0069439947, -0.08367266, -1549187.0, 57977.742, 0.000094942065, 9.9997225, 10.000392 
3.0497986e+2, 1.4600562e+2, -1474694.9, -1304738.8, 94349.72, 0.059967846, -0.020268636, -1262739.9, 246405.25, 0.000021738364, 9.999456, 10.001692 
3.049863e+2, 1.5600823e+2, -1473136.5, -1290476.8, 37326.72, 0.09363388, 0.04147093, -1283143.5, 127971.22, 0.0000030875526, 9.998945, 10.00137 
3.0499098e+2, 1.660088e+2, -1470651.8, -1449651.1, -10433.619, 0.07519927, 0.070747286, -1445348.9, -132239.5, 0.0000002653173, 9.999189, 9.999495 
3.0499443e+2, 1.7600793e+2, -1272183.5, -1295933.9, 8778.51, 0.013940181, 0.0034364203, -1269291.0, -54169.086, 0.0, 9.999848, 9.9995575 
3.0499947e+2, 1.8600704e+2, -1042313.9, -1077735.3, 70908.164, -0.004618729, -0.0665865, -986938.06, 130190.766, 0.0, 10.00051, 10.000067 
3.050056e+2, 1.9600587e+2, -868191.75, -964990.5, 579.665, 0.0012261106, -0.21584792, -868188.25, 150946.23, 0.0, 10.00111, 9.999889 
3.0501083e+2, 2.0600572e+2, -876322.56, -1013446.3, -37893.383, 0.0060501476, -0.1652627, -866547.75, 54587.023, 0.0, 10.000813, 9.999016 
3.0501544e+2, 2.1600617e+2, -908977.6, -976249.44, -19979.887, 0.009286233, -0.04806993, -903491.0, -80358.83, 0.0, 9.999897, 9.9990425 
3.050199e+2, 2.2600593e+2, -811190.75, -831942.5, 19021.908, -0.0514779, 0.0023255127, -799898.9, -74763.37, 0.0, 9.99971, 9.999443 
3.0502433e+2, 2.36005e+2, -674220.0, -722095.6, -19664.887, -0.15009531, -0.06303903, -667178.4, -40034.055, 0.0, 10.000007, 9.999383 
3.050295e+2, 2.460042e+2, -546873.8, -647424.9, -56968.973, -0.099080615, -0.05703939, -521168.5, 7983.1665, 0.0, 10.000374, 9.999043 
3.0503508e+2, 2.5600335e+2, -375113.44, -521129.66, -55778.84, 0.049820177, -0.0745346, -356244.13, 74915.36, 0.0, 10.000913, 9.998978 
3.0504e+2, 2.6600194e+2, -295735.94, -501302.7, 10251.864, 0.041679997, -0.0764026, -295225.94, 37948.234, 0.0, 10.001074, 9.998365 
3.0504456e+2, 2.7599993e+2, -200535.48, -403704.44, 89.72917, -0.049991004, -0.14466399, -200535.45, 34660.305, 0.00000000014964384, 10.001042, 9.998381 
3.0505034e+2, 2.8599876e+2, -57778.36, -253474.89, 11036.046, 0.011298525, -0.112113506, -57157.965, 80049.18, 0.00000013461268, 10.001234, 9.998642 
3.0505654e+2, 2.959983e+2, 73528.98, -149102.95, 22719.234, 0.13689356, -0.05406298, 75823.78, 115033.74, 0.0000024184974, 10.0014925, 9.99856 
3.0506137e+2, 3.059956e+2, 69983.914, -268928.84, 61052.465, 0.107552424, -0.10778136, 80646.57, 80646.57, 0.00001259153, 10.001743, 9.997306 
3.0506572e+2, 3.159939e+2, 189563.39, -9252.671, -40980.637, 0.07597231, -0.030057956, 197679.17, 197679.17, 0.00003964243, 10.001637, 9.99914 
3.149678e+2, 1.2600279e+2, -1815200.8, -1737075.4, -74933.62, -0.15372501, 0.12093682, -1691634.0, 13537.528, 0.0001887222, 9.999129, 10.000248 
3.1497288e+2, 1.3600111e+2, -1673631.3, -1658369.0, 70746.875, -0.08993117, -0.05655336, -1594842.9, 12344.561, 0.00007509751, 9.999663, 9.999859 
3.1497887e+2, 1.4600122e+2, -1536242.1, -1435449.8, 58605.93, -0.020557934, -0.07688135, -1408551.5, 100632.65, 0.00001598166, 9.999452, 10.000801 
3.1498435e+2, 1.5600209e+2, -1521584.5, -1393056.1, 34045.586, -0.027380677, -0.10571504, -1384594.9, 26577.275, 0.00000170519, 9.998953, 10.000662 
3.1498948e+2, 1.6600288e+2, -1424431.9, -1347298.5, -2783.881, -0.0220175, -0.06201904, -1347198.1, -34034.395, 0.000000057148895, 9.999153, 10.000221 
3.1499416e+2, 1.7600343e+2, -1240696.5, -1221275.5, 41730.332, -0.026836032, -0.060635414, -1188140.8, 27019.078, 0.0, 9.999806, 10.0000925 
3.1499958e+2, 1.860031e+2, -1148939.8, -1281461.8, 81428.2, -0.07233391, -0.022612277, -1110219.5, 6945.078, 0.0, 10.00043, 9.998709 
3.1500554e+2, 1.9600195e+2, -958265.0, -1131522.4, 30321.293, -0.144198, -0.037953254, -953111.8, 66065.555, 0.0, 10.001025, 9.998786 
3.150108e+2, 2.0600139e+2, -845737.56, -914330.5, -84872.63, -0.103735894, -0.02096878, -788493.8, 132688.52, 0.0, 10.000667, 9.999765 
3.1501555e+2, 2.1600105e+2, -887755.4, -896900.75, -37198.027, 0.006594696, -0.058596864, -854850.0, -31666.4, 0.0, 9.999752, 9.999655 
3.1502038e+2, 2.2600025e+2, -867318.4, -922047.44, 18877.12, 0.0021494655, -0.058418952, -861438.9, -136247.75, 0.0, 9.999593, 9.998886 
3.1502527e+2, 2.3599893e+2, -726116.4, -802031.44, 4634.7764, -0.080480784, -0.10434242, -725834.44, -98629.766, 0.0, 9.999885, 9.9988985 
3.1503066e+2, 2.4599792e+2, -543145.1, -627847.56, -48641.465, -0.046052482, -0.105849765, -521001.25, 8212.415, 0.0, 10.00032, 9.999204 
3.1503636e+2, 2.5599706e+2, -380106.97, -504246.3, -27992.932, 0.061475266, -0.14139307, -374086.66, 57133.68, 0.0, 10.000792, 9.999154 
3.1504175e+2, 2.6599643e+2, -290389.56, -478934.13, -1518.5608, 0.0801193, -0.08565838, -290377.3, 42850.83, 0.0, 10.001022, 9.998546 
3.1504682e+2, 2.7599558e+2, -195075.63, -378015.03, 13010.619, 0.04186785, -0.05619914, -194154.95, 41085.36, 0.00000000001473293, 10.000972, 9.998596 
3.1505182e+2, 2.8599507e+2, -29780.756, -180756.06, 8539.581, 0.008713536, 0.0051878383, -29299.27, 107945.99, 0.000000108201135, 10.001179, 9.999163 
3.150566e+2, 2.9599494e+2, 94576.266, -79559.45, 46767.35, -0.04615731, 0.042609077, 106341.586, 145585.25, 0.0000023186144, 10.00138, 9.999093 
3.150624e+2, 3.0599236e+2, 133224.36, -133731.84, 51272.86, 0.007012334, -0.07153971, 142733.36, 142733.36, 0.000012381474, 10.001719, 9.998249 
3.1506896e+2, 3.1598967e+2, 194050.4, 1515.4596, 12018.154, 0.17364855, -0.19120568, 194797.69, 194797.69, 0.000038038284, 10.0016165, 9.9992285 
3.249681e+2, 1.2599805e+2, -1776875.0, -1695804.6, -97981.64, -0.032184787, 0.021955416, -1630304.4, 74910.18, 0.0001575099, 9.99926, 10.000474 
3.249726e+2, 1.3599761e+2, -1687862.6, -1674119.5, 17622.508, -0.06592442, -0.040013283, -1662076.3, -54857.863, 0.00006189271, 9.999557, 9.999817 
3.2497853e+2, 1.4599712e+2, -1572694.9, -1523233.9, 49993.9, 0.0047197347, -0.08413339, -1492188.1, 17033.555, 0.000012633238, 9.999491, 10.00019 
3.2498312e+2, 1.5599677e+2, -1459681.4, -1426311.0, 24709.26, -0.07113647, -0.17260794, -1413181.0, -1957.9276, 0.0000008198343, 9.999628, 10.00012 
3.249885e+2, 1.6599724e+2, -1319849.8, -1303000.8, 10941.261, -0.0643092, -0.13181534, -1297616.4, 15601.9375, 0.000000004124255, 9.999931, 10.000134 
3.2499427e+2, 1.7599809e+2, -1168103.8, -1198473.8, -36937.594, -0.019221047, -0.08820184, -1143351.6, 71859.914, 0.0, 10.000368, 9.999975 
3.2500008e+2, 1.8599814e+2, -1174813.8, -1286907.8, 41690.41, -0.04590101, -0.009622337, -1161008.4, -43795.11, 0.0, 10.00023, 9.998756 
3.2500607e+2, 1.959975e+2, -1156132.6, -1216720.3, 66216.34, -0.11745637, 0.01996354, -1113609.4, -94387.43, 0.0, 9.99964, 9.998852 
3.2501107e+2, 2.0599696e+2, -979599.0, -966195.0, -20152.703, -0.082564756, 0.026684476, -951659.1, -30432.164, 0.0, 9.9996805, 9.999885 
3.2501554e+2, 2.1599631e+2, -833857.44, -856344.4, -38181.75, 0.020752849, -0.05583438, -805298.1, 17932.695, 0.0, 10.000056, 9.999785 
3.2502076e+2, 2.2599544e+2, -743961.94, -853195.8, 72718.1, 0.0467855, -0.07321214, -707634.2, 17603.97, 0.0, 10.000394, 9.998972 
3.2502654e+2, 2.3599422e+2, -595008.8, -732226.0, 85045.234, 0.023180326, -0.12096266, -554347.9, 72901.766, 0.0, 10.000746, 9.998963 
3.2503185e+2, 2.4599312e+2, -500006.8, -625479.44, 54562.168, 0.027146421, -0.12622337, -479599.44, 49659.664, 0.0, 10.000686, 9.999049 
3.250368e+2, 2.5599205e+2, -436582.72, -545267.7, 33784.496, 0.050125454, -0.16951899, -426936.94, 4330.9805, 0.0, 10.000448, 9.99904 
3.2504237e+2, 2.6599154e+2, -348484.7, -495102.2, 70986.97, 0.06922259, -0.099826664, -319747.75, 13526.417, 0.0, 10.000579, 9.99865 
3.2504833e+2, 2.7599108e+2, -185967.97, -362090.1, 54269.16, 0.10077142, -0.03915573, -170588.75, 64693.21, 0.00000000010851988, 10.000996, 9.99869 
3.2505342e+2, 2.859904e+2, -62869.2, -213839.77, 36488.563, 0.06833845, 0.008576008, -54512.71, 82776.484, 0.00000014604628, 10.001002, 9.999037 
3.2505786e+2, 2.9598978e+2, -12613.07, -138475.67, 5080.8364, -0.0074877786, 0.0048668054, -12408.3, 26885.436, 0.0000023415487, 10.000668, 9.999038 
3.2506394e+2, 3.0598825e+2, 85633.91, -108160.46, 9726.676, 0.02672724, -0.022955269, 86120.875, 86120.875, 0.000012312151, 10.001219, 9.998647 
3.2507128e+2, 3.1598565e+2, 274203.53, 37268.22, -110159.07, 0.22507194, -0.17327371, 317506.13, 317506.13, 0.000036624067, 10.002215, 9.9991665 
3.3496797e+2, 1.2599024e+2, -1743326.5, -1615794.6, -98325.336, -0.0387362, -0.26160234, -1562368.6, 142920.03, 0.00013854062, 9.999229, 10.001032 
3.3497268e+2, 1.3599356e+2, -1657750.5, -1595369.1, 26952.48, -0.04214629, -0.009496362, -1585337.3, 21918.54, 0.000055370125, 9.9995165, 10.00036 
3.3497846e+2, 1.4599343e+2, -1600387.1, -1568811.0, 35206.305, 0.01286064, -0.026425319, -1546014.8, -36758.133, 0.000011804474, 9.999441, 9.999901 
3.3498225e+2, 1.5599248e+2, -1483982.0, -1469445.1, 43379.7, -0.15440816, -0.14749652, -1432729.1, -21464.111, 0.00000057438905, 9.999604, 9.999833 
3.3498767e+2, 1.6599208e+2, -1396442.9, -1454317.4, 16046.693, -0.16992362, -0.12902282, -1392291.4, -79020.18, 0.00000000201948, 9.999894, 9.999117 
3.3499435e+2, 1.7599186e+2, -1226151.6, -1314897.0, -10316.77, -0.079447, -0.08929014, -1224968.0, -9690.449, 0.0, 10.000348, 9.9991865 
3.3500066e+2, 1.8599208e+2, -1091728.1, -1090557.5, 6238.825, -0.040535945, -0.034644436, -1084876.6, 32398.893, 0.0, 10.000128, 10.000154 
3.3500677e+2, 1.9599241e+2, -1082635.3, -1043291.5, 58087.813, -0.035460666, -0.04897896, -1001634.94, 17634.482, 0.0, 9.9995575, 10.000079 
3.3501142e+2, 2.0599237e+2, -1027263.8, -1039837.9, -19152.152, -0.03916742, -0.021154087, -1013393.1, -92124.03, 0.0, 9.999572, 9.999434 
3.3501503e+2, 2.159919e+2, -878063.8, -911659.06, -12962.356, -0.05797489, -0.043533668, -873643.94, -50369.426, 0.0, 9.999902, 9.99948 
3.350207e+2, 2.2599143e+2, -713925.06, -759783.25, 73116.805, -0.022504948, -0.044975895, -660226.44, 65050.805, 0.0, 10.000261, 9.999675 
3.3502775e+2, 2.3599087e+2, -574495.4, -650674.9, 104738.58, 0.04848758, -0.09946628, -501135.6, 126143.47, 0.0, 10.000588, 9.999594 
3.3503267e+2, 2.4598986e+2, -531133.06, -682824.94, 33690.516, 0.017216144, -0.10665043, -523987.1, 5300.2705, 0.0, 10.000646, 9.998676 
3.3503607e+2, 2.5598833e+2, -475559.94, -601736.4, 37994.543, -0.09346346, -0.15723455, -465002.34, -33700.523, 0.0, 10.000347, 9.998697 
3.3504164e+2, 2.6598737e+2, -357418.06, -506580.88, 74121.43, -0.08429921, -0.115254484, -326850.2, 6461.495, 0.0, 10.000547, 9.998585 
3.3504862e+2, 2.7598646e+2, -209515.56, -386112.25, 79658.37, 0.001830677, -0.09562767, -178893.55, 56427.855, 0.000000000044508567, 10.000889, 9.998575 
3.3505479e+2, 2.8598484e+2, -109390.984, -309327.34, 11762.025, 0.07390187, -0.102088325, -108701.414, 28637.063, 0.00000018851506, 10.000984, 9.998393 
3.3506006e+2, 2.9598293e+2, -63077.984, -237166.36, 12016.522, 0.1092495, -0.16513318, -62252.453, -22893.953, 0.0000023038672, 10.000626, 9.998387 
3.3506557e+2, 3.0598316e+2, 63494.96, -154073.08, 39948.477, 0.042196676, 0.02738778, 70598.14, 70598.14, 0.000011796056, 10.001217, 9.998333 
3.3507183e+2, 3.159817e+2, 235837.13, -19922.762, -36378.566, -0.0017847309, 0.020570511, 240910.86, 240910.86, 0.000034748333, 10.002104, 9.998837 
3.449679e+2, 1.2598582e+2, -1763032.9, -1643432.1, -26668.947, 0.049763117, -0.22429894, -1637754.9, 67578.99, 0.00012841672, 9.999186, 10.00086 
3.4497213e+2, 1.3598883e+2, -1790697.5, -1672095.4, -39164.844, 0.0072769006, 0.005683245, -1660329.6, -53025.727, 0.00005393956, 9.998642, 10.00027 
3.4497795e+2, 1.4598839e+2, -1720645.0, -1639469.0, 15374.689, 0.06621311, -0.028560817, -1636654.6, -127346.54, 0.00001321429, 9.998684, 9.999774 
3.4498206e+2, 1.5598781e+2, -1518086.9, -1505390.4, -5728.55, -0.11647218, -0.09683993, -1503187.8, -91873.58, 0.00000089811203, 9.999459, 9.999653 
3.449876e+2, 1.6598754e+2, -1429213.5, -1480228.5, 23067.352, -0.14718753, -0.05364091, -1420330.1, -107010.63, 0.0000000015154811, 9.999691, 9.999044 
3.4499416e+2, 1.7598724e+2, -1354060.6, -1377418.3, 44166.645, -0.079041265, -0.01565251, -1320054.8, -104728.65, 0.0, 9.999473, 9.999182 
3.450005e+2, 1.8598731e+2, -1164718.4, -1085855.3, 54521.313, -0.027392114, 0.003625368, -1058000.8, 59323.387, 0.0, 9.999449, 10.000521 
3.4500673e+2, 1.9598736e+2, -1070843.9, -1007733.94, 11735.594, 0.014879009, -0.071618654, -1005622.3, 13696.112, 0.0, 9.999496, 10.000365 
3.4501156e+2, 2.0598717e+2, -1030932.3, -1068563.1, -49809.69, 0.019411134, -0.058931176, -996502.8, -75183.54, 0.0, 9.999666, 9.999189 
3.4501535e+2, 2.1598658e+2, -899471.1, -949688.7, -56423.234, -0.0072575742, -0.06651999, -862822.0, -39495.402, 0.0, 9.9998665, 9.99924 
3.4502122e+2, 2.259863e+2, -734260.7, -747563.1, 32614.46, 0.021738233, -0.04876206, -707626.1, 17701.703, 0.0, 10.00003, 9.999872 
3.450285e+2, 2.3598608e+2, -621471.3, -655740.2, 2696.537, 0.09124033, -0.08476479, -621260.44, 6065.769, 0.0, 10.00018, 9.999762 
3.4503347e+2, 2.459853e+2, -518011.44, -674261.9, -47526.984, 0.03342794, -0.076934524, -504690.7, 24641.627, 0.0, 10.000739, 9.998689 
3.450368e+2, 2.5598386e+2, -291362.16, -520671.53, -42476.926, -0.11266407, -0.11777135, -283746.72, 147599.63, 0.0, 10.001631, 9.998649 
3.4504274e+2, 2.6598242e+2, -216950.42, -449100.2, 10039.654, -0.076846674, -0.11249212, -216517.06, 116842.516, 0.0, 10.001564, 9.9984865 
3.450503e+2, 2.7598074e+2, -214932.08, -398679.56, -9448.128, 0.087876424, -0.15835023, -214447.55, 20927.197, 0.0, 10.000902, 9.998482 
3.4505624e+2, 2.8597885e+2, -132450.22, -331496.63, -26278.678, 0.13591975, -0.1803546, -129039.28, 8355.013, 0.00000016974016, 10.000909, 9.998263 
3.4506088e+2, 2.95977e+2, 46106.03, -201657.83, -12767.525, 0.09400623, -0.2253488, 46762.215, 86177.44, 0.0000020169734, 10.001464, 9.998223 
3.4506652e+2, 3.059774e+2, 111680.37, -184654.36, 70859.22, -0.0014822257, 0.023435695, 127752.45, 127752.45, 0.0000103175025, 10.001761, 9.997872 
3.4507376e+2, 3.1597558e+2, 162285.33, -49508.92, -58666.246, 0.020400625, 0.017485877, 177449.89, 177449.89, 0.000031962787, 10.001576, 9.998879 
3.5496724e+2, 1.2598474e+2, -1834343.5, -1788430.4, -47432.184, -0.00909253, 0.13693191, -1758691.4, -53341.086, 0.00012227354, 9.999171, 9.999871 
3.5497046e+2, 1.3598341e+2, -1830585.8, -1754916.9, -47619.906, -0.05531786, 0.0052910694, -1731931.0, -124568.72, 0.00005490219, 9.998662, 9.999682 
3.549766e+2, 1.4598218e+2, -1726194.1, -1660141.5, 28140.184, 0.02363635, -0.080033764, -1649778.9, -140404.02, 0.000015641235, 9.998711, 9.999628 
3.5498226e+2, 1.5598275e+2, -1520553.3, -1521668.6, 32232.617, -0.07623536, -0.011164577, -1488873.5, -77502.805, 0.0000017221555, 9.999498, 9.999529 
3.549879e+2, 1.6598357e+2, -1371175.5, -1345562.1, -767.5706, -0.118805334, 0.09787706, -1345539.1, -32175.72, 0.000000007086625, 9.999631, 9.999994 
3.549933e+2, 1.7598425e+2, -1301252.6, -1261041.4, 48757.855, -0.14035283, 0.1359377, -1228406.5, -13049.331, 0.0, 9.999441, 9.999993 
3.549992e+2, 1.8598384e+2, -1225562.6, -1189563.0, 46835.563, -0.12736887, 0.10616622, -1157387.5, -40028.61, 0.0, 9.999352, 9.999855 
3.5500562e+2, 1.9598259e+2, -1125103.5, -1100484.8, 26968.19, -0.07561167, -0.034900874, -1083149.5, -63782.477, 0.0, 9.999411, 9.999769 
3.550112e+2, 2.0598154e+2, -1059085.5, -1097634.5, -53129.953, -0.005711516, -0.07208148, -1021841.94, -100466.39, 0.0, 9.999537, 9.999055 
3.5501617e+2, 2.1598046e+2, -928801.9, -979794.9, -36400.594, 0.06728709, -0.11654166, -909856.56, -86470.35, 0.0, 9.999733, 9.999099 
3.5502204e+2, 2.259801e+2, -775364.4, -805877.3, 29292.076, 0.07892034, -0.080694996, -757593.8, -32204.342, 0.0, 9.999913, 9.999529 
3.5502842e+2, 2.3598008e+2, -663126.5, -708242.5, 22869.428, 0.04305759, -0.06443889, -653561.7, -26172.348, 0.0, 10.000038, 9.999469 
3.5503381e+2, 2.459796e+2, -514853.56, -642524.6, -24075.629, -0.03135824, -0.024129698, -510464.38, 18928.488, 0.0, 10.000638, 9.998952 
3.5503855e+2, 2.559786e+2, -294320.7, -496420.9, -3202.6057, -0.12718813, -0.04703294, -294269.94, 137131.23, 0.0, 10.00151, 9.998869 
3.5504514e+2, 2.6597682e+2, -230476.52, -467561.4, -24675.627, -0.016193649, -0.08454706, -227935.53, 105481.25, 0.0, 10.001518, 9.998382 
3.5505295e+2, 2.7597415e+2, -234885.2, -419084.44, -16170.89, 0.23474681, -0.21799709, -233476.34, 1963.7167, 0.0, 10.000813, 9.998383 
3.5505754e+2, 2.859725e+2, -117407.09, -293392.44, -16551.46, 0.14645818, -0.22500303, -115863.96, 21592.152, 0.00000011654808, 10.000881, 9.998537 
3.550599e+2, 2.9597172e+2, 47938.195, -177500.52, 22088.365, -0.18283041, -0.1923212, 50082.01, 89547.305, 0.0000016052002, 10.001382, 9.998427 
3.5506642e+2, 3.0597103e+2, 83214.43, -250628.53, 58139.074, -0.21852557, -0.03892509, 93049.66, 93049.66, 0.000008325357, 10.001773, 9.997423 
3.5507607e+2, 3.159679e+2, 175956.52, -10366.809, -39346.16, 0.027559126, -0.13430862, 183924.55, 183924.55, 0.000028551576, 10.001514, 9.999187 
3.649658e+2, 1.2598024e+2, -1988463.3, -1880462.8, -34773.32, -0.0039090505, 0.23795427, -1870235.1, -164837.55, 0.000118926524, 9.9981785, 9.99973 
3.6497012e+2, 1.3597801e+2, -1674758.9, -1670799.4, -57979.62, 0.0065486263, 0.011538087, -1614765.8, -7348.1523, 0.000056465244, 9.999688, 9.999766 
3.6497608e+2, 1.4597687e+2, -1570169.0, -1587357.0, 64572.055, 0.0555665, -0.068106756, -1513621.5, -4192.6816, 0.00001794202, 9.999798, 9.999601 
3.6498168e+2, 1.5597782e+2, -1581402.4, -1549135.6, 54133.76, -0.052031096, 0.042145528, -1508782.3, -97361.05, 0.000002788093, 9.999082, 9.999539 
3.6498755e+2, 1.659785e+2, -1454937.6, -1351784.0, 26374.863, -0.07081637, 0.12124841, -1345431.5, -32017.783, 0.00000008230677, 9.998911, 10.000301 
3.6499316e+2, 1.7597878e+2, -1346967.9, -1254311.6, -2465.4697, -0.07093242, 0.08784322, -1254246.0, -38837.402, 0.0, 9.999002, 10.000255 
3.649989e+2, 1.8597837e+2, -1258836.4, -1231232.9, 24626.146, -0.08044152, 0.059052154, -1216804.5, -99394.266, 0.0, 9.999238, 9.999624 
3.65005e+2, 1.9597732e+2, -1120160.1, -1118276.4, 15960.259, -0.077812746, -0.036712192, -1103230.3, -83812.086, 0.0, 9.9995365, 9.999585 
3.6501092e+2, 2.0597634e+2, -971409.7, -1030344.5, -3548.0532, -0.0028268641, -0.071194105, -971196.9, -49771.1, 0.0, 10.000032, 9.999278 
3.6501676e+2, 2.159752e+2, -788918.9, -894522.9, 12040.626, 0.11487286, -0.14406912, -787563.44, 35872.035, 0.0, 10.000623, 9.999252 
3.6502272e+2, 2.2597459e+2, -681269.8, -826628.75, 87599.875, 0.11585473, -0.10827917, -640124.6, 85317.31, 0.0, 10.000839, 9.998942 
3.6502877e+2, 2.3597421e+2, -592575.6, -732797.56, 42390.87, 0.0444854, -0.069081664, -580756.56, 46691.316, 0.0, 10.00077, 9.998948 
3.6503473e+2, 2.4597362e+2, -479294.0, -624060.8, 19596.838, -0.005858155, -0.020734213, -476688.13, 52765.563, 0.0, 10.0008545, 9.998987 
3.6504063e+2, 2.5597274e+2, -361667.16, -517515.16, -725.79346, -0.036739584, -0.038285524, -361663.75, 69797.16, 0.0, 10.001, 9.998969 
3.6504716e+2, 2.659711e+2, -281263.94, -484833.63, -27050.957, 0.057935737, -0.06608748, -277730.63, 55743.652, 0.0, 10.001143, 9.998441 
3.6505404e+2, 2.7596864e+2, -157801.17, -377072.47, -28225.69, 0.24673325, -0.1848282, -154226.11, 81269.14, 0.0, 10.00132, 9.998429 
3.650582e+2, 2.859672e+2, -67813.93, -277353.44, 3772.709, 0.11902598, -0.17211054, -67746.02, 69763.06, 0.000000055764154, 10.001233, 9.9984865 
3.6506054e+2, 2.9596666e+2, -19385.805, -211774.25, -5307.172, -0.22700503, -0.11469257, -19239.516, 20276.475, 0.0000011855267, 10.000926, 9.998411 
3.6506784e+2, 3.0596492e+2, 7738.2017, -234221.94, 82179.49, -0.20540638, -0.0888636, 33010.125, 33010.125, 0.0000067298934, 10.001057, 9.997866 
3.650782e+2, 3.1596187e+2, 172322.22, 45453.715, -7035.054, 0.11607651, -0.22007304, 172711.14, 172711.14, 0.00002565761, 10.001266, 9.999685 
3.7496278e+2, 1.2597246e+2, -1932977.6, -1763745.3, 19658.064, -0.18673535, 0.11859799, -1761491.9, -56017.734, 0.0001191897, 9.998173, 10.0005245 
3.749707e+2, 1.3597272e+2, -1611043.1, -1539764.8, -2355.9321, 0.06148431, 0.039176393, -1539687.0, 67781.695, 0.00005856906, 9.999696, 10.000654 
3.7497592e+2, 1.4597255e+2, -1568250.5, -1572017.5, 20956.111, 0.023176132, 0.00730348, -1549093.5, -39623.78, 0.000020069963, 9.999751, 9.999728 
3.7497997e+2, 1.5597296e+2, -1569615.5, -1533665.9, 44172.45, -0.16597185, 0.051968593, -1503951.0, -92484.37, 0.0000038584762, 9.999115, 9.999632 
3.7498626e+2, 1.6597232e+2, -1488725.3, -1411411.3, 19069.121, -0.12023347, 0.014335212, -1406963.8, -93493.24, 0.00000020238203, 9.998868, 9.99991 
3.7499332e+2, 1.759709e+2, -1377704.0, -1310668.4, 15333.221, 0.0184155, -0.14857844, -1307327.6, -91848.055, 0.0, 9.998967, 9.999886 
3.749992e+2, 1.8597084e+2, -1256397.8, -1204458.3, 24703.945, -0.0018035828, -0.1370525, -1194585.1, -77106.67, 0.0, 9.999146, 9.999848 
3.750045e+2, 1.959715e+2, -1117043.3, -1086724.1, 40757.207, -0.10671757, -0.08662291, -1058398.5, -38926.094, 0.0, 9.999434, 9.999846 
3.7501043e+2, 2.059715e+2, -951033.06, -962179.9, 6723.0156, -0.078960486, -0.06515144, -947873.7, -26402.91, 0.0, 9.999916, 9.9998045 
3.7501666e+2, 2.1597084e+2, -780711.75, -843623.75, 42156.367, 0.018421076, -0.13996358, -759568.9, 63905.027, 0.0, 10.00048, 9.999669 
3.7502292e+2, 2.2596982e+2, -756417.75, -957240.1, 70117.516, 0.030706871, -0.11887379, -734359.06, -8874.117, 0.0, 10.000719, 9.998109 
3.7502915e+2, 2.3596837e+2, -662189.94, -851411.56, 50410.58, -0.018268295, -0.10707034, -649598.0, -22094.87, 0.0, 10.000649, 9.998196 
3.7503585e+2, 2.4596728e+2, -499519.9, -645924.75, 14173.342, -0.00034370468, -0.06725462, -498160.44, 31354.691, 0.0, 10.00077, 9.998878 
3.750427e+2, 2.5596625e+2, -383911.06, -540677.44, 17702.346, 0.042836826, -0.08696526, -381936.94, 49588.117, 0.0, 10.000897, 9.998861 
3.7504834e+2, 2.6596528e+2, -273023.1, -457171.2, -30655.563, 0.038157478, -0.056158718, -268053.88, 65478.81, 0.0, 10.001098, 9.9986515 
3.7505326e+2, 2.7596405e+2, -156192.13, -356451.28, -9833.742, 0.0036935895, -0.07022571, -155710.39, 79830.945, 0.0, 10.001242, 9.99861 
3.750579e+2, 2.859629e+2, -91207.805, -318648.97, -17567.229, -0.0682659, -0.020980516, -89858.94, 47693.945, 0.00000003400916, 10.001201, 9.9982195 
3.7506223e+2, 2.9596183e+2, -44425.88, -246328.89, -264.03775, -0.18274632, 0.013377022, -44425.535, -4859.3843, 0.000000899484, 10.000842, 9.998218 
3.7507027e+2, 3.0595902e+2, 88587.31, -58024.58, 86269.914, -0.0904276, -0.12618077, 128490.28, 128490.28, 0.000005766145, 10.001021, 9.999097 
3.750794e+2, 3.1595695e+2, 200604.27, 116478.49, 26141.596, 0.046939727, -0.2793206, 208065.81, 208065.81, 0.000023929499, 10.0012045, 10.00021 
3.8496083e+2, 1.2596452e+2, -1953871.4, -1731413.0, 120693.99, -0.1719701, -0.04466409, -1678511.3, 27035.5, 0.00012316402, 9.99784, 10.000914 
3.849702e+2, 1.3596624e+2, -1791989.4, -1593377.4, -6105.245, 0.12182907, -0.011807247, -1593189.9, 14338.024, 0.000061385945, 9.998282, 10.000984 
3.8497496e+2, 1.4596696e+2, -1703499.9, -1617098.6, -9659.893, 0.008761954, 0.020139478, -1616031.8, -106510.57, 0.000022093489, 9.998737, 9.999907 
3.8497943e+2, 1.5596743e+2, -1555730.6, -1509889.9, -18611.256, -0.12574358, 0.050755937, -1503285.4, -91766.69, 0.000004863891, 9.999147, 9.999774 
3.84986e+2, 1.659664e+2, -1403962.3, -1401772.4, -1728.9622, -0.057484817, -0.017371029, -1400820.9, -87294.336, 0.00000029520132, 9.999569, 9.999645 
3.8499314e+2, 1.7596437e+2, -1251604.5, -1275506.4, -15968.936, 0.060390618, -0.21587154, -1243609.8, -28068.41, 0.0, 9.999938, 9.999658 
3.849991e+2, 1.8596435e+2, -1174923.9, -1179654.4, -4854.0366, 0.0497102, -0.18608208, -1171889.5, -54348.45, 0.0, 9.999757, 9.999731 
3.8500467e+2, 1.959653e+2, -1162508.1, -1127394.3, -37545.65, -0.009257346, -0.09231332, -1103503.4, -83969.57, 0.0, 9.999178, 9.999703 
3.8501084e+2, 2.0596552e+2, -1014399.7, -1001572.94, -51412.43, -0.005244996, -0.037020233, -956175.44, -34644.23, 0.0, 9.999523, 9.9997225 
3.8501713e+2, 2.1596506e+2, -783766.1, -857392.0, -86200.4, 0.021789832, -0.08227495, -726847.0, 96686.2, 0.0, 10.000498, 9.999577 
3.8502356e+2, 2.2596402e+2, -727298.44, -921144.56, -36183.14, 0.024719207, -0.06888677, -720764.75, 4778.9263, 0.0, 10.000838, 9.998289 
3.850301e+2, 2.3596242e+2, -634160.75, -821347.56, -7219.71, 0.011238044, -0.09025492, -633882.7, -6321.049, 0.0, 10.000783, 9.99833 
3.8503706e+2, 2.4596117e+2, -500378.63, -665336.75, 13469.364, 0.04530384, -0.0636288, -499286.06, 30289.152, 0.0, 10.00086, 9.998685 
3.850442e+2, 2.5596e+2, -369880.22, -558055.5, -13115.936, 0.10036786, -0.081696935, -368970.4, 62617.574, 0.0, 10.001092, 9.998645 
3.8504955e+2, 2.659589e+2, -216193.97, -423464.3, -43359.92, 0.038094126, -0.052244563, -207488.89, 126107.93, 0.0, 10.001461, 9.998714 
3.8505384e+2, 2.759578e+2, -52091.18, -297091.5, -61369.496, -0.08695649, -0.06576028, -37578.55, 198025.8, 0.0, 10.001927, 9.998684 
3.8505903e+2, 2.859565e+2, -36790.668, -314852.8, -74004.29, -0.09112063, -0.01998153, -18321.666, 119295.11, 0.000000026095549, 10.0016775, 9.998015 
3.850646e+2, 2.959551e+2, -46777.074, -262616.6, -70644.94, -0.02424145, -0.00000038727916, -25710.857, 13922.48, 0.00000066980994, 10.000901, 9.9980755 
3.8507274e+2, 3.059526e+2, 76495.91, -7716.9, 42089.19, 0.07909638, -0.12610245, 93924.78, 93924.78, 0.000005131084, 10.000697, 9.999591 
3.8507983e+2, 3.1595165e+2, 118080.03, 74909.39, -106838.83, 0.010194694, -0.21984322, 205492.23, 205492.23, 0.000023471404, 10.000663, 10.000174 
3.9495933e+2, 1.2595654e+2, -1978444.5, -1750756.6, 82778.74, -0.16798455, -0.2506131, -1723842.8, -18228.398, 0.0001272644, 9.9977455, 10.000816 
3.9496824e+2, 1.3595864e+2, -1818069.8, -1630310.9, 24005.11, 0.06971121, -0.14936945, -1627290.4, -19695.541, 0.00006380605, 9.998239, 10.000744 
3.949727e+2, 1.4596023e+2, -1704049.9, -1612071.6, -8564.638, -0.11985542, -0.02299693, -1611280.9, -101698.445, 0.000023677207, 9.9986925, 9.9999695 
3.9497957e+2, 1.5596116e+2, -1547424.8, -1497310.8, 8491.27, -0.061064407, 0.043622486, -1495911.1, -84333.52, 0.000005569423, 9.99916, 9.999857 
3.949865e+2, 1.6596058e+2, -1414788.0, -1407960.9, -3429.4175, 0.0038402, 0.02043054, -1406535.6, -92952.625, 0.00000035120044, 9.99951, 9.99963 
3.9499226e+2, 1.7595913e+2, -1264354.3, -1284665.6, 6270.535, -0.048359055, -0.12019513, -1262574.4, -46979.76, 0.0, 9.999871, 9.999627 
3.9499837e+2, 1.8595877e+2, -1223274.0, -1257693.8, -38437.598, -0.023951892, -0.09414903, -1198369.4, -80770.61, 0.0, 9.999656, 9.999248 
3.9500523e+2, 1.959589e+2, -1211889.3, -1202275.0, -42512.098, 0.09993032, -0.03399648, -1164299.0, -144698.31, 0.0, 9.999064, 9.99924 
3.9501175e+2, 2.059586e+2, -1080385.8, -1107143.8, -27044.285, 0.11247982, 0.02636683, -1063592.1, -141986.75, 0.0, 9.999387, 9.9990635 
3.9501777e+2, 2.159579e+2, -843702.8, -937369.7, -38561.76, 0.014180884, 0.020488117, -829870.1, -6257.372, 0.0, 10.000316, 9.999109 
3.9502436e+2, 2.2595724e+2, -666953.5, -765236.2, -48485.145, -0.0051361644, 0.03011363, -647060.94, 78556.8, 0.0, 10.000703, 9.999429 
3.9503124e+2, 2.3595634e+2, -584168.4, -684165.25, 4878.663, 0.024519065, -0.029477539, -583930.94, 43692.707, 0.0, 10.000643, 9.999339 
3.9503804e+2, 2.4595529e+2, -530666.44, -712372.25, 11266.467, 0.029803071, -0.013231204, -529970.56, -336.43732, 0.0, 10.000787, 9.9984045 
3.950447e+2, 2.559539e+2, -401477.16, -601774.6, 9224.594, 0.0149902785, -0.021308232, -401053.22, 30596.768, 0.0, 10.000991, 9.9984 
3.950504e+2, 2.6595208e+2, -231143.84, -440936.1, -35157.477, -0.048411556, -0.0505233, -225408.84, 108257.3, 0.0, 10.001399, 9.998627 
3.9505544e+2, 2.7594978e+2, -71720.93, -319353.53, -34232.973, -0.14634846, -0.17174287, -67075.67, 168608.84, 0.0, 10.001839, 9.99858 
3.9506122e+2, 2.8594798e+2, -52100.047, -327931.4, -113940.24, -0.06520349, -0.17096038, -11121.587, 126579.42, 0.000000010243951, 10.001613, 9.9979515 
3.9506724e+2, 2.9594645e+2, -69001.25, -280289.25, -78267.38, 0.11678006, -0.14923939, -43167.35, -3450.2651, 0.0000005130985, 10.00079, 9.998006 
3.950748e+2, 3.059457e+2, 64987.246, -33137.516, 36266.07, 0.19204508, -0.089950174, 76935.89, 76935.89, 0.0000059963604, 10.000696, 9.999418 
3.9507878e+2, 3.1594577e+2, 65685.04, -16567.133, -45887.184, -0.22266734, -0.060891613, 86178.664, 86178.664, 0.000027747768, 10.0005865, 9.999582 
4.049577e+2, 1.2594993e+2, -2037713.8, -1748912.6, 6109.0444, -0.055896986, -0.18367912, -1748783.4, -43105.242, 0.0001282802, 9.997181, 10.001111 
4.0496686e+2, 1.3595091e+2, -1796383.8, -1604660.0, -32781.12, 0.1189931, -0.21038856, -1599210.0, 8457.881, 0.00006493345, 9.998313, 10.000888 
4.0497097e+2, 1.4595239e+2, -1656577.9, -1551551.6, -28447.412, -0.16218519, -0.118751355, -1544341.4, -34686.12, 0.00002457309, 9.998859, 10.000299 
4.0497893e+2, 1.5595366e+2, -1600145.3, -1491681.3, -23313.924, -0.0030043114, -0.05263339, -1486882.4, -75235.92, 0.000005781208, 9.998653, 10.000142 
4.049865e+2, 1.6595384e+2, -1494445.6, -1438080.9, 19821.754, 0.09175261, -0.016806174, -1431808.3, -118162.22, 0.0000003430959, 9.998924, 9.999702 
4.0499228e+2, 1.7595346e+2, -1301750.9, -1299613.3, 5113.048, -0.01041629, -0.05756807, -1295458.5, -79808.766, 0.0, 9.999592, 9.999659 
4.0499836e+2, 1.8595313e+2, -1168670.1, -1264809.5, -26836.846, -0.009929063, -0.014789934, -1161686.0, -44030.887, 0.0, 10.000189, 9.998936 
4.0500516e+2, 1.9595248e+2, -1002650.2, -1135916.3, -36081.8, 0.11711459, 0.00077840977, -993508.2, 26157.031, 0.0, 10.000658, 9.998929 
4.0501192e+2, 2.0595175e+2, -871062.0, -1015381.3, 48249.71, 0.12710476, 0.03840137, -856417.0, 65257.22, 0.0, 10.000863, 9.99898 
4.0501842e+2, 2.1595082e+2, -765654.6, -909916.56, 49450.75, 0.030647717, 0.018358046, -750331.3, 73352.73, 0.0, 10.000884, 9.999025 
4.050252e+2, 2.2595032e+2, -631943.1, -721443.5, 20826.29, 0.013213918, 0.032824058, -627334.25, 98353.22, 0.0, 10.000831, 9.999665 
4.050321e+2, 2.3594984e+2, -556312.0, -650961.3, -14174.558, 0.04943846, -0.007100632, -554234.8, 73454.07, 0.0, 10.000738, 9.999525 
4.0503874e+2, 2.45949e+2, -537309.7, -704248.75, 11407.355, 0.03651733, 0.017727768, -536533.8, -6836.4336, 0.0, 10.000695, 9.998501 
4.0504524e+2, 2.5594783e+2, -432172.1, -596324.8, 16019.198, -0.011598715, 0.01772357, -430623.44, 1088.1993, 0.0, 10.000721, 9.998554 
4.050516e+2, 2.659462e+2, -301651.97, -470742.22, 22598.559, -0.03821261, -0.003371917, -298683.8, 35042.836, 0.0, 10.000883, 9.998668 
4.0505788e+2, 2.75944e+2, -173315.08, -363779.75, 12701.083, -0.04244224, -0.11985318, -172471.84, 63273.055, 0.0, 10.001109, 9.998623 
4.050635e+2, 2.8594202e+2, -28369.291, -299039.47, -34468.35, 0.01049218, -0.14961234, -24048.898, 113713.0, 0.0000000008315615, 10.001681, 9.998119 
4.050687e+2, 2.9594007e+2, 194174.73, -137825.61, -7430.169, 0.107698224, -0.19321027, 194340.94, 234120.23, 0.0000007104038, 10.002518, 9.998146 
4.0507618e+2, 3.059397e+2, 165897.78, -88976.46, 75294.51, 0.21013395, -0.054104194, 186479.17, 186479.17, 0.000009515816, 10.001843, 9.998487 
4.050794e+2, 3.159393e+2, -84382.5, -169752.13, -57403.156, -0.16685952, 0.026703384, -55533.293, -55533.293, 0.000039448827, 9.999876, 9.998885 
4.1495517e+2, 1.2594461e+2, -1972208.5, -1627237.3, -44159.977, -0.09610409, 0.15689689, -1621674.0, 84065.336, 0.00012596608, 9.997231, 10.001919 
4.1496566e+2, 1.3594316e+2, -1738946.9, -1509993.1, 19938.297, 0.13509294, -0.18271153, -1508269.8, 99476.3, 0.00006410072, 9.998389, 10.001506 
4.149693e+2, 1.4594345e+2, -1618773.5, -1462288.8, -45662.07, -0.25422505, -0.27251157, -1449939.3, 59800.715, 0.00002430965, 9.998831, 10.000922 
4.149773e+2, 1.5594494e+2, -1566373.5, -1406861.6, -14325.456, -0.061436024, -0.2427211, -1405585.3, 6139.683, 0.0000053776803, 9.998607, 10.00074 
4.1498575e+2, 1.6594623e+2, -1500377.4, -1430681.3, 32257.963, 0.093622014, -0.12961662, -1418042.9, -104328.44, 0.0000002359893, 9.99884, 9.999792 
4.149928e+2, 1.7594753e+2, -1302489.9, -1290328.1, 43395.832, 0.050053585, -0.01257903, -1252589.3, -36883.934, 0.0, 9.999546, 9.9997425 
4.149986e+2, 1.8594742e+2, -1190113.1, -1290216.1, -21364.697, -0.032873027, 0.05736534, -1185744.0, -68034.16, 0.0, 10.00011, 9.998796 
4.1500407e+2, 1.9594604e+2, -1022579.6, -1152474.5, -9974.56, -0.0808096, 0.011141472, -1021818.2, -2091.1667, 0.0, 10.000562, 9.998855 
4.1501108e+2, 2.0594497e+2, -858784.44, -966132.7, 36983.277, -0.069306456, -0.005652527, -847276.75, 74461.25, 0.0, 10.000748, 9.999381 
4.150188e+2, 2.1594392e+2, -766375.94, -871627.2, 59393.16, -0.04450622, -0.07834796, -739647.9, 84098.52, 0.0, 10.000713, 9.999371 
4.1502583e+2, 2.2594336e+2, -701218.75, -832432.1, 5975.1255, -0.032146033, -0.046829503, -700947.2, 24804.662, 0.0, 10.000686, 9.998976 
4.150323e+2, 2.3594292e+2, -614818.44, -742692.6, -4757.4907, -0.03219278, -0.01790048, -614641.7, 13115.65, 0.0, 10.000611, 9.998958 
4.1503876e+2, 2.4594237e+2, -512722.28, -636190.3, 2831.702, -0.061099857, 0.032448247, -512657.38, 17107.197, 0.0, 10.000618, 9.999004 
4.1504526e+2, 2.5594157e+2, -412353.1, -533876.44, 29873.836, -0.10882613, 0.019395772, -405406.34, 26368.44, 0.0, 10.000625, 9.99903 
4.150527e+2, 2.6594105e+2, -292127.53, -436558.84, 20762.873, -0.038921382, 0.07254517, -289202.0, 44578.543, 0.0, 10.000828, 9.998926 
4.1506073e+2, 2.7594048e+2, -168954.14, -330692.56, 34543.336, 0.09839318, 0.095773935, -161885.47, 73899.945, 0.0, 10.001015, 9.998891 
4.1506562e+2, 2.8593868e+2, 6080.807, -233591.16, -15428.126, 0.020866789, 0.04868014, 7069.8623, 144868.97, 0.00000000001177225, 10.001693, 9.99857 
4.1506848e+2, 2.9593587e+2, 202371.27, -104758.18, 28074.107, -0.20274317, -0.124512, 204916.38, 244736.69, 0.0000013022876, 10.002438, 9.998419 
4.150763e+2, 3.0593455e+2, 54406.14, -316971.3, -4130.6885, 0.0080399085, -0.011756392, 54452.08, 54452.08, 0.000014575742, 10.001835, 9.996921 
4.1508102e+2, 3.1593257e+2, -147857.42, -281757.47, -41791.223, -0.052878745, 0.06739304, -135884.63, -135884.63, 0.000055427667, 9.9998, 9.99815 
4.2495355e+2, 1.259362e+2, -1882266.0, -1553340.9, -4678.164, 0.0047238856, 0.11518189, -1553274.4, 152547.25, 0.00012015749, 9.9977, 10.0022 
4.2496356e+2, 1.3593593e+2, -1781344.6, -1505500.9, 69238.234, 0.11545339, -0.13659446, -1489097.1, 118719.48, 0.00006079175, 9.99798, 10.001731 
4.2496762e+2, 1.459362e+2, -1611198.4, -1467232.6, -26765.723, -0.29867065, -0.23464753, -1462417.5, 47393.324, 0.00002257458, 9.998919, 10.000847 
4.249767e+2, 1.5593737e+2, -1400924.5, -1333389.6, -89581.28, -0.030958515, -0.23033804, -1271422.8, 140376.17, 0.0000044461326, 9.999773, 10.000685 
4.249855e+2, 1.6593853e+2, -1377616.9, -1363710.0, -50491.555, 0.15306956, -0.12985256, -1319695.3, -5905.6284, 0.00000009724189, 9.999656, 9.999856 
4.2499256e+2, 1.7593962e+2, -1390721.9, -1322691.3, -62615.355, 0.10829679, -0.037913267, -1285448.4, -69666.04, 0.0, 9.9989, 9.999834 
4.249983e+2, 1.859396e+2, -1340806.1, -1327673.9, -67643.305, -0.0023528896, 0.016722761, -1266278.8, -148493.3, 0.0, 9.998913, 9.999124 
4.2500386e+2, 1.9593847e+2, -1164057.0, -1188124.5, -45374.68, -0.09676736, -0.03618648, -1129147.5, -109348.48, 0.0, 9.999431, 9.999163 
4.250111e+2, 2.059378e+2, -1010676.3, -998900.06, 14676.82, -0.07326126, -0.04589759, -988974.3, -67168.81, 0.0, 9.999541, 9.99973 
4.2501923e+2, 2.1593726e+2, -946116.06, -925225.56, 9401.339, 0.0032424014, -0.099911414, -921617.75, -97808.43, 0.0, 9.999338, 9.999667 
4.2502627e+2, 2.2593692e+2, -870099.94, -889658.25, 20691.879, 0.014634754, -0.0693239, -856992.75, -131179.95, 0.0, 9.999439, 9.999173 
4.250325e+2, 2.3593661e+2, -726482.56, -772393.6, 47142.387, -0.022901822, -0.045352384, -697003.75, -69186.625, 0.0, 9.999759, 9.999156 
4.2503905e+2, 2.4593605e+2, -615072.75, -688506.6, 76786.78, -0.0529152, -0.0051351003, -566675.94, -36850.977, 0.0, 9.999927, 9.998983 
4.2504588e+2, 2.55935e+2, -502016.03, -582132.5, 43755.332, -0.070948616, -0.03438335, -482751.47, -50913.727, 0.0, 10.000019, 9.998998 
4.2505372e+2, 2.659348e+2, -344864.25, -450943.7, 46129.227, 0.0052863844, 0.045903932, -327610.9, 6230.515, 0.0, 10.000421, 9.999031 
4.2506212e+2, 2.7593493e+2, -161810.27, -316015.53, 26555.363, 0.14549589, 0.12858926, -157365.34, 78475.33, 0.0, 10.001019, 9.998996 
4.2506734e+2, 2.8593343e+2, -4255.3364, -240595.22, -15196.246, 0.03209975, 0.10958099, -3282.2505, 134569.75, 0.0000000012455732, 10.001661, 9.998523 
4.250705e+2, 2.959306e+2, 186351.77, -119494.484, -42734.258, -0.23115161, -0.058273833, 192210.58, 232084.52, 0.0000019825331, 10.002369, 9.998349 
4.2507812e+2, 3.0592856e+2, 146315.64, -298331.88, -66444.39, -0.015588887, -0.00039500758, 156032.2, 156032.2, 0.000019679212, 10.00258, 9.996688 
4.2508307e+2, 3.1592676e+2, 237345.1, -77067.91, -2197.4846, 0.055356883, 0.11215141, 237360.45, 237360.45, 0.00007104561, 10.002364, 9.998312 
4.349519e+2, 1.2592457e+2, -1906428.4, -1578763.3, -113027.43, 0.007952205, -0.3310857, -1543557.4, 162368.52, 0.00011272219, 9.997636, 10.002044 
4.349603e+2, 1.359293e+2, -1790384.9, -1521814.5, 103906.89, -0.04426778, -0.07421276, -1486308.3, 121570.77, 0.00005585788, 9.997987, 10.001614 
4.349656e+2, 1.459306e+2, -1676483.0, -1595556.4, 102.59671, -0.42913878, -0.01447964, -1595556.3, -85688.04, 0.000019900395, 9.9988785, 9.99999 
4.349767e+2, 1.5593097e+2, -1446902.1, -1439834.4, -49099.996, -0.045279685, -0.009956468, -1394141.3, 17726.969, 0.0000034951138, 9.9998045, 9.999945 
4.3498537e+2, 1.6593066e+2, -1384937.4, -1361437.5, -91579.97, 0.14546734, -0.02441965, -1280856.8, 33015.668, 0.000000032016867, 9.999591, 9.999899 
4.349911e+2, 1.7592977e+2, -1391937.1, -1309652.9, -74931.6, 0.044665657, -0.13687555, -1265311.6, -49430.703, 0.0, 9.998841, 9.9999485 
4.3499717e+2, 1.8592961e+2, -1301473.3, -1219700.3, -58909.1, -0.035066854, -0.14156935, -1188879.1, -70997.016, 0.0, 9.998803, 9.999917 
4.350041e+2, 1.9592984e+2, -1126709.1, -1084510.9, -14713.779, -0.04274586, -0.13823618, -1079887.0, -60007.113, 0.0, 9.999324, 9.999924 
4.3501163e+2, 2.0593035e+2, -1014793.44, -975489.6, -4196.655, 0.0025950712, -0.07663003, -975046.5, -53170.78, 0.0, 9.999405, 9.999954 
4.350193e+2, 2.1593086e+2, -946092.4, -893140.7, 15166.101, 0.054046515, -0.05169402, -889104.56, -65232.055, 0.0, 9.999202, 9.99995 
4.350261e+2, 2.2593111e+2, -819600.6, -753688.7, 21934.89, 0.034893643, -0.029064035, -747056.3, -21187.025, 0.0, 9.999303, 10.000174 
4.3503237e+2, 2.3593095e+2, -684454.8, -655705.44, 69735.555, -0.033173908, -0.09047649, -598878.44, 28989.979, 0.0, 9.999629, 10.00002 
4.350393e+2, 2.4593002e+2, -671088.4, -782475.9, 68064.47, -0.041371755, -0.091921985, -638835.75, -108956.76, 0.0, 9.999836, 9.998377 
4.350467e+2, 2.5592837e+2, -554752.2, -667639.8, 61009.813, -0.01900848, -0.12881356, -528081.0, -96181.74, 0.0, 9.999923, 9.998451 
4.3505418e+2, 2.659277e+2, -349768.16, -457897.94, 59099.348, -0.015639704, -0.066861175, -323734.72, 10172.6455, 0.0, 10.0004015, 9.998995 
4.3506163e+2, 2.7592742e+2, -178082.73, -333988.16, 63113.855, -0.03299453, -0.019379523, -155735.98, 80173.555, 0.0, 10.000942, 9.998913 
4.350682e+2, 2.859263e+2, -55575.043, -332044.28, 1840.0294, -0.07715636, 0.032169066, -55562.797, 82357.5, 0.000000012355592, 10.00161, 9.997913 
4.3507442e+2, 2.959243e+2, 138705.98, -198970.61, -3142.403, -0.11065186, 0.010448699, 138735.23, 178674.28, 0.0000027662056, 10.0022955, 9.997833 
4.3508133e+2, 3.0592182e+2, 224245.72, -147051.42, -85442.086, 0.01777476, -0.010098143, 242963.84, 242963.84, 0.000024180765, 10.002608, 9.997719 
4.3508455e+2, 3.1592157e+2, 284126.75, 38505.73, 75204.6, -0.097094506, 0.15363577, 305323.72, 305323.72, 0.00008333817, 10.002276, 9.999155 
4.449498e+2, 1.2591714e+2, -1939186.3, -1669328.0, -122601.266, 0.043451503, -0.392314, -1621947.1, 84047.19, 0.00010688196, 9.99776, 10.00136 
4.4495866e+2, 1.3592196e+2, -1850355.5, -1603807.5, 87305.28, 0.014122134, -0.071228504, -1576023.0, 31927.936, 0.000051033883, 9.9978285, 10.001132 
4.449653e+2, 1.4592311e+2, -1803171.9, -1646073.1, 48321.516, -0.29150626, -0.0073950845, -1632400.1, -122457.92, 0.000017295639, 9.997954, 10.000088 
4.4497555e+2, 1.5592334e+2, -1741528.9, -1566515.1, 35733.215, -0.025875177, -0.03193731, -1559500.5, -147558.6, 0.0000027656245, 9.99772, 10.0000725 
4.4498405e+2, 1.6592303e+2, -1563108.4, -1447881.0, 49392.766, 0.124062255, -0.05550186, -1429606.8, -115661.44, 0.000000035556127, 9.998344, 9.999923 
4.449902e+2, 1.7592214e+2, -1281716.9, -1252948.9, 42830.547, 0.04209319, -0.16981925, -1222151.5, -6198.259, 0.0, 9.99957, 9.999994 
4.4499663e+2, 1.8592204e+2, -1135551.1, -1110990.8, 51697.19, -0.01402888, -0.1857945, -1070135.3, 47818.36, 0.0, 9.99983, 10.000159 
4.4500384e+2, 1.9592224e+2, -1108231.4, -1052008.6, 27453.145, 0.0064766505, -0.20778942, -1040827.2, -20876.08, 0.0, 9.999356, 10.000125 
4.4501156e+2, 2.0592314e+2, -996420.0, -970548.6, 37502.902, 0.053454276, -0.114354774, -943813.2, -21868.832, 0.0, 9.999572, 9.999898 
4.4501936e+2, 2.1592432e+2, -800023.94, -826628.25, 10449.209, 0.095512636, -0.015132985, -796410.6, 27526.025, 0.0, 10.000238, 9.999898 
4.4502613e+2, 2.2592457e+2, -685321.6, -704215.2, -28366.81, 0.06150142, 0.014393156, -664869.94, 61064.79, 0.0, 10.000271, 10.000054 
4.450322e+2, 2.3592389e+2, -665791.06, -659665.3, -84643.664, -0.01724156, -0.085234575, -578029.1, 49910.34, 0.0, 9.999794, 9.999922 
4.450395e+2, 2.4592334e+2, -586320.6, -700269.4, -32572.873, -0.01867004, -0.06520657, -577666.75, -47721.176, 0.0, 10.000235, 9.99875 
4.450477e+2, 2.559227e+2, -331082.94, -525851.7, 6680.76, 0.029115353, -0.037631698, -330854.06, 101100.164, 0.0, 10.00131, 9.998756 
4.4505543e+2, 2.659214e+2, -231682.22, -438027.25, 21053.965, 0.028256396, -0.032037236, -229555.92, 104411.266, 0.0, 10.001382, 9.998651 
4.4506267e+2, 2.7591947e+2, -218139.47, -388088.8, -20907.23, -0.011629022, -0.1192351, -215605.23, 20380.322, 0.0, 10.000827, 9.99859 
4.450698e+2, 2.8591827e+2, -106650.445, -359600.75, -10929.54, -0.050482396, -0.05640813, -106179.07, 31818.281, 0.00000003062236, 10.001247, 9.997908 
4.450774e+2, 2.959174e+2, 129003.914, -193735.0, -3699.9985, -0.030309465, 0.027556442, 129046.33, 169053.16, 0.0000032986038, 10.002187, 9.99792 
4.4508344e+2, 3.0591455e+2, 195941.3, -135662.78, -105885.88, -0.0065693613, -0.042822536, 226867.84, 226867.84, 0.000027227657, 10.002321, 9.99792 
4.4508713e+2, 3.1591365e+2, 241957.9, -3388.6584, -24237.508, -0.045109536, 0.0367842, 244329.38, 244329.38, 0.000091368296, 10.002098, 9.998938 
4.549461e+2, 1.2591375e+2, -2031470.5, -1857843.1, -215917.61, -0.16970164, -0.08772699, -1711940.1, -5911.7275, 0.000102696926, 9.997754, 10.000066 
4.5495817e+2, 1.3591373e+2, -1904335.3, -1733335.1, 106543.0, 0.14869401, -0.13846858, -1682227.5, -74194.01, 0.000047349753, 9.997887, 10.000221 
4.549663e+2, 1.4591342e+2, -1734294.9, -1486125.5, 34134.387, -0.022380643, -0.24106105, -1481516.1, 28519.453, 0.000015080613, 9.997894, 10.001209 
4.5497298e+2, 1.559144e+2, -1675374.9, -1420723.4, 44977.27, -0.08804531, -0.30031207, -1413012.9, -991.8599, 0.0000021144335, 9.997691, 10.001083 
4.5498115e+2, 1.6591558e+2, -1563108.3, -1436735.6, 80968.65, -0.029320259, -0.22612436, -1397216.4, -83207.53, 0.00000004449902, 9.998292, 10.000025 
4.549895e+2, 1.7591675e+2, -1277586.0, -1246148.8, 95553.22, -0.013805612, -0.14281031, -1165029.9, 50969.81, 0.0, 9.999571, 10.000042 
4.5499635e+2, 1.859168e+2, -1174046.8, -1171337.9, 22224.408, -0.049878072, -0.12552926, -1150426.6, -32425.865, 0.0, 9.999749, 9.999782 
4.5500273e+2, 1.9591573e+2, -1152052.9, -1115112.0, 23405.818, -0.06968365, -0.23843583, -1103766.5, -83754.44, 0.0, 9.999242, 9.9997425 
4.5501047e+2, 2.0591621e+2, -1040475.94, -1031067.2, 50049.75, -0.037528306, -0.14876117, -985501.2, -63490.652, 0.0, 9.9994335, 9.999552 
4.5501903e+2, 2.1591763e+2, -852032.4, -894228.4, 44414.67, 0.011102164, 0.009152073, -823959.4, 42.154457, 0.0, 10.000066, 9.999516 
4.5502588e+2, 2.259173e+2, -794147.25, -895942.7, -56311.73, -0.011894959, 0.065088265, -769139.8, -43131.133, 0.0, 10.00012, 9.998816 
4.5503145e+2, 2.3591548e+2, -750577.0, -809416.7, -83090.86, -0.09396167, -0.02808072, -691851.4, -63821.844, 0.0, 9.99968, 9.998949 
4.550392e+2, 2.4591602e+2, -508476.9, -511432.72, -2679.313, -0.094608374, 0.072744735, -506894.94, 23129.34, 0.0, 10.000128, 10.000099 
4.5504862e+2, 2.5591797e+2, -267898.84, -362347.2, 54121.188, -0.035570752, 0.22725718, -243295.28, 188707.83, 0.0, 10.001175, 9.9999485 
4.5505717e+2, 2.659159e+2, -295005.4, -551350.56, -10030.257, 0.036845233, 0.13873914, -294613.53, 39408.44, 0.0, 10.001305, 9.997907 
4.550648e+2, 2.7591088e+2, -275828.78, -487584.6, -20238.275, 0.090104155, -0.18206945, -273911.88, -37841.95, 0.0, 10.00074, 9.997945 
4.550718e+2, 2.859094e+2, -63833.797, -264316.6, 14329.397, -0.00041521952, -0.15160504, -62814.79, 75267.82, 0.000000022691747, 10.001214, 9.998582 
4.5507902e+2, 2.959099e+2, 165956.73, -106005.78, 40017.605, -0.122839004, 0.0020727478, 171722.83, 211798.92, 0.0000033720132, 10.002123, 9.998563 
4.5508406e+2, 3.0590674e+2, 152186.14, -222394.27, -119554.04, -0.20806047, -0.10195269, 187091.33, 187091.33, 0.000028360193, 10.00231, 9.997327 
4.5509017e+2, 3.1590286e+2, 140104.75, -203208.55, -919.89667, -0.0114873685, -0.25210527, 140107.2, 140107.2, 0.00009465621, 10.002043, 9.997596 
4.6494454e+2, 1.2590784e+2, -2056995.6, -1910116.5, -262086.84, -0.08813956, 0.04392061, -1711374.4, -5284.317, 0.00009773488, 9.99772, 9.999722 
4.6495646e+2, 1.3590623e+2, -1784420.4, -1707866.3, 115645.5, 0.15726341, -0.14276922, -1624327.9, -16218.795, 0.000043477085, 9.9988165, 9.999954 
4.6496636e+2, 1.4590561e+2, -1562797.3, -1395427.9, 27110.707, 0.14936791, -0.26843208, -1391146.0, 118966.984, 0.000012657647, 9.999028, 10.001289 
4.6497127e+2, 1.5590695e+2, -1526866.1, -1336508.3, -66409.89, -0.06559973, -0.30034488, -1315629.9, 96463.96, 0.0000014631825, 9.998652, 10.001203 
4.6497932e+2, 1.6590841e+2, -1505267.8, -1377622.6, 8994.266, -0.04896495, -0.21930659, -1376991.9, -62913.453, 0.000000030371112, 9.998573, 10.000284 
4.649891e+2, 1.7590971e+2, -1390754.9, -1277317.9, 6420.078, 0.0399058, -0.14920567, -1276955.8, -60887.46, 0.0, 9.998705, 10.000242 
4.6499634e+2, 1.8591e+2, -1290617.8, -1252570.1, -57381.133, 0.017427845, -0.105059326, -1211141.5, -93073.734, 0.0, 9.999042, 9.999571 
4.6500215e+2, 1.9590934e+2, -1135304.0, -1131620.0, -61833.28, -0.05352957, -0.15732084, -1071601.3, -51524.816, 0.0, 9.999446, 9.99954 
4.6500978e+2, 2.0590934e+2, -1017154.2, -1038556.56, 18549.762, -0.053727455, -0.09852123, -1006440.25, -84361.125, 0.0, 9.999654, 9.999404 
4.6501854e+2, 2.1590963e+2, -916693.25, -947736.1, -937.5303, -0.016814658, -0.037343245, -916664.94, -92585.44, 0.0, 9.999701, 9.999336 
4.6502578e+2, 2.2590905e+2, -798457.06, -904046.44, -31387.877, -0.027445141, 0.008567357, -789831.25, -63743.31, 0.0, 10.000143, 9.998731 
4.650319e+2, 2.3590769e+2, -582507.9, -739799.0, 381.04184, -0.07446043, -0.03326564, -582506.94, 45597.01, 0.0, 10.000903, 9.998826 
4.6503982e+2, 2.4590787e+2, -447494.84, -516636.75, 64607.69, -0.06799052, 0.05414864, -408790.28, 121312.13, 0.0, 10.00068, 9.999799 
4.6504918e+2, 2.559089e+2, -491339.38, -496560.13, -22149.738, -0.017582046, 0.14875889, -471646.72, -39555.93, 0.0, 9.999743, 9.999715 
4.650578e+2, 2.6590723e+2, -435581.44, -562987.25, -52086.234, 0.041827444, 0.080526434, -416998.06, -82892.22, 0.0, 10.000079, 9.998427 
4.650657e+2, 2.7590346e+2, -165074.05, -381549.47, 10369.965, 0.086389095, -0.16714133, -164578.42, 71562.25, 0.0, 10.001259, 9.998434 
4.650733e+2, 2.859024e+2, -19611.475, -229284.83, 85866.53, 0.017806722, -0.12705389, 11064.913, 149214.64, 0.00000001636591, 10.001464, 9.998699 
4.6508136e+2, 2.959027e+2, 31459.457, -140133.7, 35274.777, -0.04032556, -0.006354541, 38427.973, 78573.71, 0.0000038591365, 10.0010805, 9.998819 
4.6508592e+2, 3.0590007e+2, 59508.0, -255208.55, -77849.15, -0.20569481, -0.0828881, 77712.01, 77712.01, 0.000029778155, 10.001589, 9.997479 
4.6509346e+2, 3.1589592e+2, 216927.34, -171099.42, 38017.156, 0.10137301, -0.26355112, 220617.02, 220617.02, 0.00009717631, 10.002585, 9.997568 
4.749441e+2, 1.2589918e+2, -2021205.6, -1804877.3, -258033.75, 0.029486822, -0.0040179393, -1633254.1, 72927.05, 0.00009217974, 9.997617, 10.000479 
4.749532e+2, 1.3589941e+2, -1745195.8, -1622769.5, 165979.94, -0.08306044, -0.08246838, -1507074.8, 101103.305, 0.00003847725, 9.99882, 10.0005245 
4.7496516e+2, 1.4589965e+2, -1628496.0, -1530546.6, 44.923306, 0.0808008, -0.092497215, -1530546.6, -20371.965, 0.000009911169, 9.999011, 10.000376 
4.7497e+2, 1.5590103e+2, -1572387.4, -1441865.8, -66684.97, -0.09437519, -0.03443387, -1413821.4, -1661.1619, 0.0000009593812, 9.998687, 10.00047 
4.7497815e+2, 1.6590151e+2, -1484697.0, -1323683.1, 2138.101, -0.049883734, -0.04176449, -1323654.8, -9499.923, 0.000000014696447, 9.998527, 10.000682 
4.7498867e+2, 1.7590094e+2, -1370853.3, -1228558.0, 26434.691, 0.09831699, -0.19082871, -1223805.9, -7646.163, 0.0, 9.9986725, 10.000596 
4.7499615e+2, 1.8590164e+2, -1299866.4, -1252091.3, -51715.066, 0.06744476, -0.12374733, -1219013.4, -100858.59, 0.0, 9.998956, 9.999618 
4.7500178e+2, 1.9590306e+2, -1143112.4, -1131704.1, -34703.035, -0.06297597, 0.02879046, -1102239.5, -82095.02, 0.0, 9.999371, 9.99958 
4.7500908e+2, 2.0590255e+2, -1036033.0, -1047016.1, 9204.377, -0.10673626, 0.0327466, -1030806.44, -108656.234, 0.0, 9.999528, 9.999402 
4.750176e+2, 2.1590042e+2, -931764.2, -942783.0, 15745.722, -0.104954414, -0.14771828, -920591.8, -96422.24, 0.0, 9.999549, 9.999439 
4.7502548e+2, 2.2589988e+2, -743363.7, -767820.7, -12459.57, -0.09618847, -0.15847893, -738134.3, -11962.037, 0.0, 10.000034, 9.999726 
4.7503302e+2, 2.359003e+2, -550761.25, -642115.0, 36073.31, -0.07524822, -0.11684341, -538234.5, 89930.016, 0.0, 10.00076, 9.99957 
4.7504088e+2, 2.4589877e+2, -597438.8, -803748.3, 18546.586, -0.05458791, -0.13052477, -595784.8, -65603.69, 0.0, 10.000574, 9.997879 
4.7504902e+2, 2.5589564e+2, -620924.06, -742725.25, -36794.47, -0.038488228, -0.26495913, -610671.9, -178454.8, 0.0, 9.999637, 9.998079 
4.750571e+2, 2.6589552e+2, -319054.2, -302605.9, -17310.408, -0.06308334, -0.20060472, -291665.3, 42553.22, 0.0, 10.000007, 10.000247 
4.7506493e+2, 2.758972e+2, -64441.746, -149182.02, 63118.305, -0.14184731, -0.080627054, -30791.168, 205407.02, 0.0, 10.001166, 10.0000725 
4.7507378e+2, 2.858971e+2, -57209.934, -303343.97, 57424.44, -0.105810516, 0.006201211, -44471.73, 93727.98, 0.0000000367379, 10.001439, 9.998204 
4.7508398e+2, 2.9589552e+2, -8551.904, -203887.6, 37928.363, 0.080913685, -0.01291514, -1445.8564, 38772.355, 0.000004901276, 10.000979, 9.998439 
4.7508863e+2, 3.058942e+2, 116409.01, -120042.43, -52616.375, -0.116479665, 0.0083649205, 127588.87, 127588.87, 0.000032907166, 10.001524, 9.998434 
4.750963e+2, 3.1589246e+2, 293061.38, -2821.7566, 75250.15, 0.058339097, -0.017709138, 311099.6, 311099.6, 0.00010232853, 10.002543, 9.998743 
4.8494357e+2, 1.2589027e+2, -1961488.0, -1709998.9, -156337.88, 0.22278625, -0.06876882, -1635111.4, 71159.98, 0.00008688649, 9.997732, 10.001089 
4.8495096e+2, 1.3589185e+2, -1745673.6, -1576314.1, 148897.39, -0.16454487, -0.055695288, -1489701.5, 118550.56, 0.000032757685, 9.998606, 10.000963 
4.8496464e+2, 1.4589243e+2, -1737260.3, -1605939.1, -6680.813, 0.1695113, -0.04156717, -1605600.1, -95353.875, 0.000007215262, 9.998373, 10.000162 
4.8496878e+2, 1.5589336e+2, -1716686.6, -1534211.8, -50712.117, -0.031951595, -0.006306032, -1521065.4, -108826.05, 0.00000059770906, 9.997797, 10.000265 
4.8497668e+2, 1.6589381e+2, -1540511.6, -1334995.6, 86686.32, -0.019098453, -0.013119751, -1303315.1, 10919.555, 0.0000000048834687, 9.998077, 10.000819 
4.8498774e+2, 1.7589359e+2, -1327412.8, -1189603.8, 72871.86, 0.13306457, -0.1455803, -1158218.0, 58017.242, 0.0, 9.998909, 10.000738 
4.8499566e+2, 1.8589437e+2, -1222594.8, -1211039.5, 5222.305, 0.10656998, -0.080085434, -1209029.0, -90800.06, 0.0, 9.999474, 9.999644 
4.8500156e+2, 1.9589567e+2, -1080874.4, -1094772.4, -587.1374, -0.034621812, 0.055430304, -1080849.6, -60630.195, 0.0, 9.99978, 9.999625 
4.8500896e+2, 2.0589492e+2, -966181.75, -1020428.7, 55318.54, -0.09556139, 0.036614485, -931695.0, -9468.806, 0.0, 10.000035, 9.999347 
4.8501748e+2, 2.1589242e+2, -847472.6, -903375.25, 41094.57, -0.092911854, -0.17562164, -825724.44, -1477.4165, 0.0, 10.000138, 9.999426 
4.8502555e+2, 2.2589192e+2, -713144.8, -744870.94, 1478.708, -0.09620082, -0.18752176, -713076.06, 13172.245, 0.0, 10.000204, 9.999806 
4.850332e+2, 2.3589258e+2, -622416.2, -675312.4, -44460.813, -0.10137068, -0.12777664, -597131.7, 31106.383, 0.0, 10.000244, 9.9995985 
4.8504132e+2, 2.4589083e+2, -652025.5, -845044.9, -16392.965, -0.046439424, -0.15788452, -650643.2, -120386.37, 0.0, 10.000261, 9.9977455 
4.850498e+2, 2.5588724e+2, -542766.5, -716777.75, 37916.66, 0.054840174, -0.32303447, -534863.5, -102566.28, 0.0, 10.000233, 9.997966 
4.85058e+2, 2.6588735e+2, -284503.6, -294331.97, 94149.625, 0.020725267, -0.22725555, -195140.0, 139157.67, 0.0, 10.000279, 10.000171 
4.8506585e+2, 2.7588964e+2, -177606.66, -209001.66, 7537.164, -0.12037152, -0.042077236, -175890.94, 60382.746, 0.0, 10.000405, 10.000028 
4.8507488e+2, 2.858894e+2, -187420.16, -342666.7, -28981.234, -0.081638135, 0.021046467, -182186.4, -43909.23, 0.00000008825205, 10.000439, 9.998418 
4.850853e+2, 2.9588747e+2, -81877.84, -218040.17, -22948.959, 0.15535761, -0.049541704, -78114.04, -37815.78, 0.0000056092463, 10.000381, 9.998629 
4.8509023e+2, 3.0588672e+2, 86279.6, -107059.91, -38336.02, -0.078032136, 0.0060141752, 93603.555, 93603.555, 0.000035389916, 10.001208, 9.998658 
4.850996e+2, 3.1588614e+2, 336392.3, 55928.516, -43239.473, 0.14239591, 0.07009199, 342907.25, 342907.25, 0.00010599746, 10.002687, 9.999064 
4.9494192e+2, 1.258811e+2, -1922853.0, -1646084.9, -88172.1, 0.21026027, -0.13821433, -1620382.3, 85977.86, 0.00007926606, 9.997795, 10.001498 
4.9494922e+2, 1.358836e+2, -1720706.0, -1529303.0, 179051.55, -0.22757699, -0.06933642, -1421981.8, 186348.97, 0.000026309035, 9.998624, 10.001274 
4.9496448e+2, 1.4588393e+2, -1718727.3, -1553932.9, -44735.695, 0.28180662, -0.11559884, -1542572.0, -32244.512, 0.0000047383246, 9.998316, 10.000546 
4.9496722e+2, 1.5588394e+2, -1694281.1, -1485732.4, -55276.46, -0.00036772905, -0.20874673, -1471987.1, -59656.67, 0.0000002991547, 9.997789, 10.000601 
4.949745e+2, 1.6588539e+2, -1549867.9, -1346210.0, 105200.83, -0.07386375, -0.12787588, -1301627.4, 12690.009, 0.0000000005507737, 9.998037, 10.000765 
4.9498597e+2, 1.7588758e+2, -1333519.5, -1196364.0, 112235.39, 0.036503907, -0.014147021, -1133413.5, 82881.984, 0.0, 9.998879, 10.000708 
4.9499464e+2, 1.858881e+2, -1231874.8, -1210761.1, 5765.786, 0.026505277, 0.023156479, -1209289.3, -90998.02, 0.0, 9.999391, 9.999685 
4.950011e+2, 1.9588715e+2, -1088810.6, -1095401.5, 19367.99, -0.08604403, -0.07098182, -1072459.8, -52157.953, 0.0, 9.999705, 9.99966 
4.9500892e+2, 2.0588644e+2, -983526.7, -1029027.4, 45486.484, -0.1222098, -0.08515479, -955418.44, -33111.11, 0.0, 9.999911, 9.9993515 
4.9501786e+2, 2.1588573e+2, -871911.44, -928490.75, 56144.63, -0.09532188, -0.11932988, -837332.0, -13020.724, 0.0, 10.000014, 9.99932 
4.9502546e+2, 2.2588512e+2, -797650.75, -885464.56, -7053.1875, -0.1476513, -0.086714715, -797087.9, -70770.875, 0.0, 10.000061, 9.998906 
4.9503204e+2, 2.3588443e+2, -689407.9, -779300.94, -28805.19, -0.2673298, -0.07429674, -680969.6, -52644.4, 0.0, 10.000097, 9.998954 
4.9504077e+2, 2.4588403e+2, -551011.75, -611911.9, -27384.547, -0.1538289, -0.030338457, -540509.2, -10179.77, 0.0, 10.000165, 9.999392 
4.9505112e+2, 2.5588357e+2, -463832.6, -530778.94, 50080.95, 0.13344796, -0.04320751, -437068.28, -4735.1865, 0.0, 10.000136, 9.9992895 
4.9506012e+2, 2.6588255e+2, -430693.38, -578971.56, 85969.08, 0.17587352, -0.015223706, -391310.28, -56964.926, 0.0, 10.000205, 9.998247 
4.9506792e+2, 2.7588078e+2, -315781.5, -463722.44, 25940.754, 0.019481545, -0.045744214, -311364.78, -74998.19, 0.0, 10.0002775, 9.998335 
4.9507612e+2, 2.8587955e+2, -128294.99, -207529.52, -40202.984, -0.033797838, -0.056853388, -111469.3, 26909.9, 0.00000018947561, 10.000389, 9.999368 
4.95085e+2, 2.9587865e+2, -33579.09, -107718.3, -4714.408, 0.050033975, -0.11327781, -33280.508, 7104.689, 0.000005650319, 10.000343, 9.999401 
4.950906e+2, 3.0587763e+2, 60003.074, -172612.02, 11451.526, -0.19332413, -0.09463632, 60565.47, 60565.47, 0.00003451672, 10.001239, 9.998199 
4.9510252e+2, 3.1587705e+2, 286592.84, -33311.363, -2498.775, 0.09902477, 0.001861982, 286612.34, 286612.34, 0.00010176044, 10.002615, 9.998487 
5.049409e+2, 1.2587298e+2, -1666369.9, -1533092.9, 484.67355, 0.25583312, -0.101787806, -1533091.1, 173350.86, 0.000066640154, 9.999634, 10.001373 
5.0494695e+2, 1.3587521e+2, -2065649.5, -1708571.5, 74815.77, -0.18738368, -0.042207103, -1693529.5, -85112.52, 0.0000195532, 9.996317, 10.001157 
5.04963e+2, 1.4587568e+2, -2035167.1, -1656584.9, -49435.445, 0.42882484, -0.08972666, -1650236.0, -139823.33, 0.0000028130235, 9.995946, 10.000979 
5.049655e+2, 1.5587632e+2, -1588236.6, -1386338.6, -87388.164, 0.030453885, -0.16132334, -1353768.4, 58640.414, 0.00000011765629, 9.99833, 10.001014 
5.049726e+2, 1.6587803e+2, -1405062.4, -1274145.5, 74902.22, -0.11074584, -0.07852747, -1240129.5, 74263.195, 0.000000000026416515, 9.999011, 10.000791 
5.049841e+2, 1.7588007e+2, -1411926.9, -1234495.8, 64648.492, -0.004228336, 0.02215234, -1213439.4, 2932.238, 0.0, 9.998326, 10.000719 
5.0499356e+2, 1.858804e+2, -1342324.1, -1248383.6, 5963.192, 0.028158952, 0.032318573, -1248006.6, -129638.54, 0.0, 9.998575, 9.999818 
5.050013e+2, 1.9587924e+2, -1116908.6, -1094249.4, 4661.8286, -0.014861637, -0.09052367, -1093327.8, -72948.875, 0.0, 9.999466, 9.999778 
5.050095e+2, 2.0587869e+2, -962569.56, -1010199.75, 39661.13, -0.052162264, -0.09906665, -940122.75, -17740.049, 0.0, 10.00003, 9.999413 
5.050182e+2, 2.1587835e+2, -838162.7, -904643.9, 26113.158, -0.06754613, -0.101713166, -829132.3, -4748.736, 0.0, 10.000235, 9.999367 
5.0502586e+2, 2.2587784e+2, -772740.2, -880475.7, 19875.545, -0.11637722, -0.056816943, -769190.44, -42801.344, 0.0, 10.000257, 9.998848 
5.050328e+2, 2.3587707e+2, -695025.7, -780221.06, 36461.47, -0.18971705, -0.04980741, -681552.0, -53152.88, 0.0, 10.000071, 9.998949 
5.050414e+2, 2.4587686e+2, -520565.7, -579817.4, 34194.805, -0.10073516, 0.004000629, -504948.03, 25453.182, 0.0, 10.000299, 9.999549 
5.050514e+2, 2.5587675e+2, -348720.72, -463097.13, -19814.527, 0.11801218, 0.009664635, -345385.3, 87015.32, 0.0, 10.0008745, 9.9994 
5.0506055e+2, 2.6587552e+2, -320720.75, -578342.8, 53867.375, 0.1613612, 0.03719511, -309910.97, 24504.56, 0.0, 10.00118, 9.997792 
5.05069e+2, 2.7587324e+2, -209404.47, -461302.94, 71063.76, 0.061630636, 0.00072951126, -190739.5, 45704.14, 0.00000000061010413, 10.001209, 9.99791 
5.050772e+2, 2.8587177e+2, -18213.035, -155993.86, 31107.719, 0.009439726, -0.011955623, -11515.227, 126943.73, 0.00000027597625, 10.001157, 9.999354 
5.0508565e+2, 2.9587087e+2, 65890.15, -65412.46, -29756.51, 0.049937055, -0.06667009, 72318.96, 112783.83, 0.0000049916057, 10.001054, 9.999356 
5.0509185e+2, 3.058698e+2, 129656.17, -107318.18, 60301.875, -0.20241807, -0.06183508, 144118.33, 144118.33, 0.000030276777, 10.001587, 9.998482 
5.0510514e+2, 3.1586865e+2, 263967.63, -34836.258, 13843.736, 0.11854109, -0.053630415, 264607.63, 264607.63, 0.000090633286, 10.002419, 9.998575 
5.1494e+2, 1.2586601e+2, -1715452.6, -1644336.3, -29047.064, 0.1300708, 0.05231642, -1633980.3, 72535.5, 0.000052165007, 9.999661, 10.000598 
5.1494384e+2, 1.3586679e+2, -2100537.8, -1788276.9, -28862.023, -0.16175932, 0.026127622, -1785631.6, -177121.52, 0.000013925394, 9.996348, 10.000592 
5.149598e+2, 1.4586778e+2, -2005214.8, -1593470.6, 22965.346, 0.48287368, 0.03631032, -1592193.8, -81692.64, 0.000001645238, 9.995936, 10.001422 
5.1496327e+2, 1.5587051e+2, -1560257.8, -1327040.4, 9339.001, -0.057784285, 0.12770884, -1326667.0, 85806.98, 0.00000003629146, 9.998321, 10.00143 
5.1497054e+2, 1.6587165e+2, -1412076.9, -1270978.3, 40657.242, -0.24890429, 0.13146393, -1260101.5, 54359.676, 0.0, 9.998938, 10.000843 
5.149816e+2, 1.7587116e+2, -1413902.4, -1229229.4, 56463.016, -0.11166149, -0.030075066, -1213334.1, 3128.5386, 0.0, 9.998291, 10.000767 
5.1499206e+2, 1.8587142e+2, -1336164.3, -1220359.1, 28058.207, -0.00610713, -0.03968284, -1213919.0, -95461.1, 0.0, 9.998507, 10.00004 
5.1500183e+2, 1.9587201e+2, -1109168.4, -1068363.4, 49559.33, 0.05683553, -0.015469174, -1035171.2, -14720.667, 0.0, 9.999413, 9.999983 
5.150103e+2, 2.0587154e+2, -985504.56, -1022670.3, 36501.184, 0.0032074964, -0.02438538, -963128.2, -40674.75, 0.0, 9.99988, 9.999398 
5.1501805e+2, 2.1587016e+2, -851076.0, -900918.56, 43962.195, -0.12289894, -0.13368106, -825462.7, -997.4193, 0.0, 10.000097, 9.999458 
5.1502645e+2, 2.2586997e+2, -733887.1, -772667.8, -1110.2277, -0.10415283, -0.10622147, -733855.4, -7389.5024, 0.0, 10.000134, 9.999652 
5.150351e+2, 2.358704e+2, -670828.75, -701148.0, 42413.094, 0.0044153533, -0.055284426, -640947.44, -12487.124, 0.0, 9.999943, 9.999557 
5.150429e+2, 2.4586928e+2, -618381.7, -766161.5, 44176.387, -0.01243511, -0.052090336, -606182.9, -75710.42, 0.0, 10.000225, 9.998305 
5.150502e+2, 2.5586683e+2, -437921.2, -623331.94, 14311.751, -0.11928633, -0.1611948, -436822.97, -4323.728, 0.0, 10.00076, 9.998357 
5.15059e+2, 2.658663e+2, -264157.38, -443627.28, 44100.527, -0.13657378, -0.06476447, -253906.23, 80601.34, 0.0, 10.00111, 9.998753 
5.150688e+2, 2.7586687e+2, -165796.69, -352515.28, 89581.16, -0.103692375, 0.08915242, -129769.96, 106736.22, 0.0000000018853024, 10.001126, 9.998702 
5.150779e+2, 2.8586596e+2, -93022.04, -301705.56, 15378.146, -0.06838315, 0.1531788, -91894.89, 46622.64, 0.00000034894228, 10.0011215, 9.998366 
5.1508653e+2, 2.9586405e+2, -7297.4897, -200956.11, -14040.966, 0.002735225, 0.08619585, -6284.7637, 34253.434, 0.000004315403, 10.000982, 9.998458 
5.150934e+2, 3.0586314e+2, 196308.38, 41331.098, 87366.586, -0.23654975, 0.09844569, 235599.05, 235599.05, 0.000026122347, 10.001556, 9.999517 
5.1510674e+2, 3.158607e+2, 291727.1, 58151.824, 60147.918, -0.020975593, -0.12538795, 306305.84, 306305.84, 0.000081293096, 10.002287, 9.999276 
5.249394e+2, 1.2585849e+2, -1955314.6, -1824097.6, 77798.305, 0.182907, 0.12782308, -1787936.5, -81345.24, 0.000041919076, 9.998274, 10.000033 
5.2494085e+2, 1.3585868e+2, -1847409.6, -1706253.9, -80701.516, -0.17945442, 0.08701516, -1669621.8, -61027.11, 0.000010470756, 9.998254, 10.000232 
5.249563e+2, 1.4585967e+2, -1697921.9, -1393597.5, 117076.44, 0.44672284, 0.0864367, -1353769.5, 156815.5, 0.0000009776196, 9.997823, 10.00188 
5.249619e+2, 1.558628e+2, -1622318.4, -1312501.1, 74670.89, 0.016445652, 0.16913396, -1295443.4, 117107.22, 0.000000005050013, 9.997702, 10.001822 
5.249696e+2, 1.6586377e+2, -1563976.6, -1376882.3, 76159.26, -0.1754954, 0.15704726, -1349800.6, -35262.27, 0.0, 9.99804, 10.000554 
5.2498e+2, 1.758628e+2, -1376513.0, -1239938.5, 41214.18, -0.11996463, -0.022640113, -1228465.1, -11919.171, 0.0, 9.998668, 10.000518 
5.2499074e+2, 1.858629e+2, -1251807.6, -1170813.3, 34904.477, -0.008995355, -0.03841005, -1157846.9, -39304.074, 0.0, 9.999042, 10.000135 
5.2500165e+2, 1.9586362e+2, -1148203.3, -1072353.5, 17000.387, 0.12035938, -0.0073915534, -1068717.5, -48183.867, 0.0, 9.9991, 10.000109 
5.2501047e+2, 2.0586339e+2, -1106029.6, -1071573.6, 12795.924, 0.07812486, -0.0027852275, -1067341.4, -144806.88, 0.0, 9.999002, 9.999487 
5.2501786e+2, 2.1586226e+2, -1042466.25, -986060.7, 6869.1533, -0.077012576, -0.09543615, -985236.2, -160691.28, 0.0, 9.998744, 9.999529 
5.250266e+2, 2.25862e+2, -883904.3, -827276.8, -34398.246, -0.041582182, -0.08459626, -811038.25, -84492.195, 0.0, 9.999044, 9.999793 
5.250361e+2, 2.358621e+2, -690866.6, -702372.6, -65208.645, 0.12546746, -0.07933276, -631157.7, -2614.3723, 0.0, 9.999766, 9.999637 
5.250439e+2, 2.4586089e+2, -618957.5, -779926.0, -8851.299, 0.06487876, -0.0808966, -618472.25, -87916.11, 0.0, 10.000283, 9.998183 
5.2505046e+2, 2.5585863e+2, -459694.2, -639468.44, 16352.218, -0.15419921, -0.15655118, -458218.9, -25637.813, 0.0, 10.0006485, 9.998297 
5.250593e+2, 2.6585826e+2, -325434.3, -418287.06, 60740.61, -0.18394002, -0.06839098, -295409.22, 39177.25, 0.0, 10.00046, 9.9992285 
5.250696e+2, 2.75859e+2, -317512.72, -372614.63, 48888.164, -0.07316342, 0.05344422, -288946.75, -52366.188, 0.00000000009174081, 9.999885, 9.999142 
5.25079e+2, 2.8585815e+2, -229663.72, -422447.16, 40842.09, -0.018485451, 0.12520863, -221368.1, -82776.47, 0.00000033351301, 10.000411, 9.99788 
5.2508795e+2, 2.9585606e+2, 62067.598, -220670.48, 16112.254, 0.017411094, 0.08918223, 62982.813, 103598.68, 0.0000041082662, 10.001678, 9.997986 
5.2509546e+2, 3.0585536e+2, 205325.1, 18825.541, 89218.66, -0.17631629, 0.15914948, 241131.47, 241131.47, 0.000024723933, 10.001734, 9.999282 
5.2510905e+2, 3.1585193e+2, 53352.043, -42674.266, -107409.65, 0.08445444, -0.13734609, 122991.33, 122991.33, 0.00007789345, 10.000585, 9.999408 
5.3493863e+2, 1.2585019e+2, -1966573.9, -1853050.4, 150903.53, 0.20453657, 0.10053798, -1748586.4, -41915.504, 0.000035694404, 9.998313, 9.999811 
5.3493756e+2, 1.35851e+2, -1863234.8, -1729862.8, -82282.73, -0.36231616, 0.1438476, -1690636.1, -81966.195, 0.000008273398, 9.998222, 10.000086 
5.349518e+2, 1.4585143e+2, -1672057.3, -1333061.6, 97221.61, 0.1746288, 0.07157373, -1307158.5, 203505.14, 0.00000061502607, 9.997789, 10.002309 
5.349611e+2, 1.5585321e+2, -1602165.8, -1268834.5, 85338.266, 0.13604975, -0.028226888, -1248256.9, 164381.2, 0.00000000036285042, 9.99769, 10.002128 
5.3496975e+2, 1.6585438e+2, -1617642.6, -1478358.9, 85387.086, -0.00041505106, 0.0033835508, -1437814.8, -123190.24, 0.0, 9.997997, 9.99988 
5.3497875e+2, 1.7585489e+2, -1422582.4, -1333217.0, 75368.14, -0.13803825, 0.03889209, -1290281.8, -73659.52, 0.0, 9.998653, 9.999888 
5.349891e+2, 1.8585478e+2, -1266324.8, -1186521.4, 25794.436, -0.09752787, 0.03489094, -1178909.9, -60286.613, 0.0, 9.99898, 10.000056 
5.350004e+2, 1.9585401e+2, -1164658.4, -1093032.6, 30716.287, 0.05864824, -0.076405175, -1081664.4, -61035.426, 0.0, 9.999029, 10.000006 
5.3500944e+2, 2.0585419e+2, -1110152.4, -1044327.44, -8902.404, 0.05624688, -0.03951871, -1043144.7, -120518.09, 0.0, 9.9988575, 9.999739 
5.350172e+2, 2.1585485e+2, -1051368.5, -970915.25, 10625.529, -0.043985043, 0.023203287, -969535.56, -144915.16, 0.0, 9.998601, 9.999699 
5.3502595e+2, 2.2585413e+2, -946016.94, -928785.44, -18732.248, -0.03288934, 0.01342719, -916782.5, -190154.47, 0.0, 9.99892, 9.99916 
5.350354e+2, 2.358522e+2, -743733.44, -778861.1, -25984.064, 0.05354623, -0.12571757, -729933.9, -101286.38, 0.0, 9.999623, 9.99918 
5.3504395e+2, 2.4585164e+2, -567373.94, -651814.0, -5432.9434, 0.022229275, -0.0907687, -567025.8, -36373.22, 0.0, 10.000197, 9.999103 
5.350519e+2, 2.5585192e+2, -415148.16, -525255.94, 41123.633, -0.10450464, -0.004342773, -401484.63, 31164.29, 0.0, 10.000555, 9.999126 
5.3506094e+2, 2.6585126e+2, -326731.47, -410701.47, 27253.836, -0.09333567, 0.013887879, -318661.38, 15992.295, 0.0, 10.000412, 9.999305 
5.350706e+2, 2.7584964e+2, -323107.22, -370296.06, 47420.313, 0.011832876, -0.108410954, -293735.78, -57068.13, 0.0, 9.999812, 9.9992 
5.3508025e+2, 2.8584823e+2, -228335.44, -414377.8, 78812.04, 0.030378101, -0.099150464, -199437.48, -60754.89, 0.00000019037492, 10.000393, 9.997942 
5.350896e+2, 2.9584685e+2, 44128.66, -237177.52, 75850.77, -0.024571197, -0.065536164, 63277.42, 103976.58, 0.0000040138116, 10.001588, 9.997918 
5.3509784e+2, 3.0584648e+2, 94651.59, -216318.05, 43104.867, -0.1405077, 0.12577213, 100515.96, 100515.96, 0.000024880646, 10.001742, 9.997665 
5.3511107e+2, 3.158422e+2, 26033.164, -115861.92, -117505.445, 0.16194722, -0.09662792, 92348.445, 92348.445, 0.00007745561, 10.000629, 9.998891 
5.449367e+2, 1.2583975e+2, -2038500.0, -1826309.0, 119842.02, 0.22939153, 0.01909486, -1772347.1, -65573.76, 0.00003031358, 9.997536, 10.000412 
5.449362e+2, 1.3584174e+2, -1978836.4, -1715819.9, -174389.72, -0.25582612, 0.11845472, -1628910.6, -20152.127, 0.000006366235, 9.997138, 10.000714 
5.4494834e+2, 1.4584234e+2, -1804022.3, -1487408.3, 45064.293, 0.08942311, 0.077076964, -1481119.1, 29631.88, 0.00000037085837, 9.997269, 10.001512 
5.449592e+2, 1.5584294e+2, -1560531.3, -1327089.9, -86711.35, 0.15052, -0.05815209, -1298405.6, 114333.62, 0.00000000007720086, 9.998306, 10.001437 
5.4496866e+2, 1.6584398e+2, -1522538.5, -1390936.4, -64680.375, 0.08368132, -0.029230485, -1364469.6, -49741.582, 0.0, 9.998492, 10.00023 
5.449781e+2, 1.7584516e+2, -1501762.8, -1329024.8, -24525.592, -0.02356639, 0.040403396, -1325610.1, -108891.2, 0.0, 9.997953, 10.000247 
5.449881e+2, 1.858455e+2, -1389279.9, -1208478.1, 6501.4766, -0.03845981, 0.04522418, -1208244.6, -89529.12, 0.0, 9.997954, 10.000407 
5.4499847e+2, 1.9584504e+2, -1231943.6, -1082075.1, 21723.725, 0.008574029, -0.07087267, -1078989.8, -58271.83, 0.0, 9.998368, 10.000398 
5.45008e+2, 2.0584558e+2, -1096510.1, -995226.25, 21482.574, 0.03858411, -0.03752047, -990858.1, -68146.53, 0.0, 9.998768, 10.000125 
5.450171e+2, 2.1584657e+2, -965076.2, -888499.44, 32559.26, 0.0741798, 0.020234743, -876527.44, -51825.945, 0.0, 9.999028, 10.000057 
5.4502624e+2, 2.2584608e+2, -877128.5, -927392.6, 66740.54, 0.08277189, 0.03416854, -830944.94, -104237.21, 0.0, 9.999523, 9.998879 
5.4503536e+2, 2.3584431e+2, -678477.06, -776188.4, 55736.977, 0.06922686, -0.06023705, -653214.7, -24486.525, 0.0, 10.000191, 9.99893 
5.4504424e+2, 2.4584389e+2, -516261.53, -586518.1, 64958.137, 0.026142333, -0.020076787, -477541.63, 53189.77, 0.0, 10.000375, 9.999464 
5.450529e+2, 2.5584427e+2, -440763.72, -506485.8, 41055.785, -0.040885177, 0.039274815, -421037.44, 11686.806, 0.0, 10.000248, 9.999403 
5.4506207e+2, 2.6584303e+2, -361419.84, -494448.0, 1284.677, -0.01524305, 0.0207916, -361407.44, -26673.51, 0.0, 10.000464, 9.998704 
5.450717e+2, 2.7584037e+2, -188487.19, -360529.1, -50983.324, 0.087408505, -0.14817587, -174513.63, 62245.297, 0.0, 10.000972, 9.998713 
5.4508156e+2, 2.8583887e+2, -77420.86, -287156.0, 25136.143, 0.08447492, -0.14920348, -74450.43, 64322.94, 0.00000011177434, 10.00121, 9.998423 
5.450913e+2, 2.9583824e+2, 26123.309, -193856.55, 26693.033, 0.00873038, -0.091225766, 29315.986, 70096.26, 0.0000045059896, 10.001274, 9.998355 
5.451002e+2, 3.0583718e+2, 60349.758, -317377.38, 45909.508, -0.076171584, 0.05379698, 65849.586, 65849.586, 0.000026381855, 10.001869, 9.996902 
5.451134e+2, 3.158329e+2, 268015.13, -6277.0825, -107770.8, 0.25237012, -0.10000382, 305292.63, 305292.63, 0.00007890932, 10.002339, 9.998803 
5.5493283e+2, 1.2582731e+2, -1927246.9, -1587103.5, 96784.48, 0.036065545, -0.082803436, -1561492.8, 145405.03, 0.000026661766, 9.997514, 10.002055 
5.549364e+2, 1.3583095e+2, -1884814.1, -1519796.5, -183573.2, 0.029804606, 0.018985907, -1443445.1, 165414.97, 0.0000052899522, 9.997131, 10.002067 
5.549458e+2, 1.458323e+2, -1947469.9, -1775126.6, 66616.13, 0.07597342, 0.09473663, -1752379.8, -241531.73, 0.00000021782215, 9.997234, 9.999552 
5.5495566e+2, 1.5583202e+2, -1681293.9, -1578799.4, -36211.613, -0.057430856, 0.072127804, -1567296.6, -154442.13, 0.00000000000011946363, 9.998306, 9.999716 
5.5496615e+2, 1.6583258e+2, -1430769.9, -1196337.3, -96146.3, -0.047651738, 0.06156259, -1161949.6, 152899.22, 0.0, 9.998474, 10.0015745 
5.5497766e+2, 1.7583352e+2, -1416213.8, -1144830.6, -29999.824, 0.11158108, -0.026557222, -1141553.9, 75282.87, 0.0, 9.99792, 10.001531 
5.549874e+2, 1.8583503e+2, -1341896.4, -1088773.1, 11048.671, 0.0661931, -0.009694592, -1088291.8, 30527.62, 0.0, 9.997864, 10.001274 
5.5499566e+2, 1.9583674e+2, -1185380.1, -969958.06, 50091.926, -0.13857278, 0.0066896104, -958879.94, 61920.457, 0.0, 9.998293, 10.001213 
5.550057e+2, 2.0583753e+2, -1074280.6, -917941.44, 21099.797, -0.088949785, -0.0025494567, -915143.8, 7645.9814, 0.0, 9.998641, 10.000712 
5.550173e+2, 2.1583742e+2, -949448.5, -823769.8, 56616.1, 0.15588184, -0.11344037, -802026.8, 22761.02, 0.0, 9.998885, 10.000571 
5.550271e+2, 2.2583781e+2, -899492.6, -937807.25, 80405.07, 0.19005486, -0.036282945, -835994.2, -109208.24, 0.0, 9.999372, 9.99888 
5.550357e+2, 2.3583843e+2, -704707.4, -790234.7, 91655.5, 0.06220673, 0.10804704, -646330.25, -17544.697, 0.0, 10.00002, 9.998913 
5.550443e+2, 2.4583767e+2, -546217.75, -628656.0, 49944.48, -0.028671164, 0.13113125, -522679.88, 8112.4053, 0.0, 10.000278, 9.9992285 
5.550529e+2, 2.558357e+2, -475547.72, -557352.94, 51823.9, -0.09367594, -0.018826105, -450429.56, -17622.809, 0.0, 10.00015, 9.999104 
5.550623e+2, 2.658336e+2, -454487.84, -678930.5, 8318.312, -0.05891487, -0.048454266, -454180.0, -119352.695, 0.0, 10.000427, 9.997457 
5.550725e+2, 2.7583104e+2, -277277.4, -529911.56, -20117.07, 0.04125862, -0.07648874, -275685.53, -38830.133, 0.0, 10.000902, 9.997586 
5.550826e+2, 2.8582996e+2, -21232.887, -161093.97, 14732.842, 0.047904186, -0.032663483, -19697.791, 119167.4, 0.00000024371042, 10.001167, 9.999311 
5.5509245e+2, 2.9582992e+2, 76277.81, -78592.42, 47928.305, -0.03231933, -0.0026918598, 89910.36, 130771.79, 0.0000058589785, 10.001215, 9.999183 
5.55102e+2, 3.058273e+2, 60942.496, -304194.2, 59694.914, -0.112535626, -0.059320536, 70454.04, 70454.04, 0.000029984647, 10.001822, 9.997011 
5.5511516e+2, 3.158235e+2, 278173.7, 27942.053, -58839.867, 0.1324468, -0.17766505, 291318.84, 291318.84, 0.00008416486, 10.002265, 9.9990835 
5.6492966e+2, 1.258166e+2, -2191537.3, -1699444.3, 167316.66, 0.0806652, -0.0095952265, -1647944.5, 59061.88, 0.000022362967, 9.99562, 10.002188 
5.6493586e+2, 1.3582009e+2, -1629673.6, -1380614.9, -270226.22, 0.18991022, 0.06183152, -1207604.8, 401365.22, 0.000004259607, 9.998807, 10.0022 
5.649432e+2, 1.4582165e+2, -1651484.8, -1601239.8, -43.764557, 0.0026955728, 0.1345438, -1601239.8, -90284.37, 0.00000013010742, 9.999115, 9.999845 
5.649541e+2, 1.5582146e+2, -1802900.5, -1597964.3, 47498.99, 0.010909499, 0.09197851, -1587490.5, -174530.5, 0.0, 9.997312, 10.00006 
5.6496465e+2, 1.6582233e+2, -1634339.1, -1269180.3, 59629.594, 0.041656356, 0.08194259, -1259689.5, 55261.84, 0.0, 9.99695, 10.001816 
5.6497544e+2, 1.7582366e+2, -1424866.6, -1117364.0, 22007.26, 0.11516495, 0.0031250103, -1115797.0, 101138.92, 0.0, 9.997715, 10.001815 
5.649852e+2, 1.8582551e+2, -1297882.4, -1042467.56, 29111.533, 0.060442947, 0.028776566, -1039191.56, 79723.77, 0.0, 9.998071, 10.001483 
5.649942e+2, 1.9582756e+2, -1212913.9, -956318.9, 905.1925, -0.08901426, 0.055563077, -956315.7, 64576.992, 0.0, 9.998008, 10.001427 
5.650048e+2, 2.0582823e+2, -1080219.0, -943352.06, -37813.926, -0.03794653, 0.033995103, -933599.6, -10715.846, 0.0, 9.998692, 10.000515 
5.650168e+2, 2.1582772e+2, -815073.06, -768364.9, -84701.34, 0.1774221, -0.09837273, -703856.94, 121029.93, 0.0, 9.999857, 10.000478 
5.650269e+2, 2.258283e+2, -758586.44, -805647.94, -56284.523, 0.20222156, -0.028746093, -721111.94, 5769.4854, 0.0, 10.000065, 9.999452 
5.650357e+2, 2.3582946e+2, -737631.9, -749130.94, -22097.55, 0.09172824, 0.11177959, -720548.1, -91675.97, 0.0, 9.999549, 9.999416 
5.6504494e+2, 2.4582863e+2, -608188.1, -704634.6, -11951.148, 0.020276288, 0.12610734, -606729.25, -75849.32, 0.0, 10.000076, 9.998791 
5.6505424e+2, 2.558261e+2, -321118.7, -530617.06, -54831.516, -0.02166479, -0.033755783, -307635.53, 125267.305, 0.0, 10.001425, 9.998671 
5.6506383e+2, 2.6582408e+2, -269828.28, -591637.2, -48791.383, -0.008973129, -0.03314642, -262593.38, 72330.24, 0.0, 10.001703, 9.997437 
5.6507355e+2, 2.7582216e+2, -234499.6, -505953.72, -10593.379, 0.04695603, 0.002434043, -234086.81, 2858.0608, 0.0, 10.001197, 9.997596 
5.650837e+2, 2.858209e+2, -113020.94, -223518.02, 40282.477, 0.07241742, 0.03475798, -99894.92, 39061.266, 0.00000046127252, 10.000591, 9.999165 
5.65094e+2, 2.9582012e+2, -115430.195, -182429.97, -19135.98, 0.069545485, 0.005273369, -110349.93, -69390.445, 0.000007820285, 9.999929, 9.999092 
5.651039e+2, 3.0581746e+2, -54850.98, -251745.45, 68493.16, -0.028935296, -0.10714103, -33368.363, -33368.363, 0.00003595913, 10.0005665, 9.997977 
5.651168e+2, 3.1581587e+2, 247072.89, 77176.07, -50195.516, 0.1087052, -0.10219409, 260794.75, 260794.75, 0.000094486146, 10.0018015, 9.999632 
5.7492656e+2, 1.258075e+2, -2294379.8, -1895376.8, 184798.05, 0.14533088, 0.22544612, -1822938.6, -115837.95, 0.000015098279, 9.995558, 10.000861 
5.7493395e+2, 1.3580899e+2, -1708507.4, -1548755.4, -157001.94, 0.088439874, 0.24390887, -1452478.8, 156611.2, 0.0000026568694, 9.99882, 10.001036 
5.7494e+2, 1.458103e+2, -1463383.0, -1207926.1, -87728.266, -0.25619414, 0.19731873, -1180700.4, 330373.53, 0.000000050157187, 9.999105, 10.002548 
5.7495403e+2, 1.5581124e+2, -1638005.5, -1251863.1, -854.9687, 0.24775769, 0.00066168915, -1251861.3, 161195.22, 0.0, 9.997291, 10.002451 
5.749639e+2, 1.6581315e+2, -1696232.1, -1381398.1, 74822.664, 0.24467854, 0.02461049, -1364520.8, -49484.29, 0.0, 9.99688, 10.001078 
5.7497096e+2, 1.7581554e+2, -1481748.6, -1229048.9, 61028.7, -0.13361108, 0.1269346, -1215082.0, 1934.6781, 0.0, 9.997683, 10.001065 
5.749812e+2, 1.8581699e+2, -1332019.9, -1098750.9, 16497.447, -0.174115, 0.16689523, -1097589.9, 21412.607, 0.0, 9.9980135, 10.0011215 
5.749938e+2, 1.9581747e+2, -1256222.5, -1023038.94, 14426.124, 0.03533075, 0.07578519, -1022149.8, -1154.6268, 0.0, 9.997911, 10.001015 
5.7500505e+2, 2.0581767e+2, -1165251.1, -1087708.4, -7150.745, 0.09175409, 0.07498786, -1087054.5, -164060.75, 0.0, 9.998551, 9.999593 
5.750153e+2, 2.158175e+2, -892204.5, -892228.94, -34428.793, 0.026323628, 0.06985325, -857787.94, -32789.793, 0.0, 9.999699, 9.999706 
5.7502526e+2, 2.2581755e+2, -692057.8, -636674.75, -86943.86, 0.0103982845, 0.056853216, -573119.06, 153875.11, 0.0, 9.999926, 10.000681 
5.750349e+2, 2.3581754e+2, -681517.8, -602059.1, -23096.37, 0.03090172, -0.04165246, -595833.5, 33153.4, 0.0, 9.999414, 10.000492 
5.750455e+2, 2.458168e+2, -668174.6, -816106.44, 25757.764, 0.05211493, -0.028664278, -663818.0, -132824.28, 0.0, 10.000008, 9.998064 
5.7505685e+2, 2.5581533e+2, -376818.7, -621528.0, 4687.698, 0.061859924, -0.010069407, -376728.9, 56284.203, 0.0, 10.00131, 9.998106 
5.7506627e+2, 2.658144e+2, -189609.5, -418706.25, -79493.64, 0.034114778, 0.059057403, -164728.44, 170294.83, 0.0, 10.001663, 9.99865 
5.7507426e+2, 2.7581355e+2, -166747.27, -357212.38, -20488.166, -0.027254667, 0.07941029, -164568.3, 72460.87, 0.0, 10.001144, 9.9986515 
5.7508415e+2, 2.8581163e+2, -190842.89, -373644.94, 1255.9824, 0.03410586, 0.054769676, -190834.27, -51787.27, 0.0000006054728, 10.000546, 9.998156 
5.750953e+2, 2.9580888e+2, -185603.14, -311972.53, -19897.846, 0.17530137, -0.073569804, -182544.13, -141469.5, 0.000009307056, 9.999863, 9.998235 
5.7510567e+2, 3.058076e+2, 64012.125, 36.518997, 110345.67, 0.06476458, -0.09776162, 146912.9, 146912.9, 0.000040671366, 10.000546, 9.999722 
5.751178e+2, 3.1580952e+2, 281511.88, 161347.56, 13759.065, -0.036497723, 0.086610556, 283067.2, 283067.2, 0.000103750725, 10.001738, 10.000253 
5.849227e+2, 1.2579636e+2, -2044886.5, -1736453.8, 155280.67, 0.13906516, 0.25649717, -1671821.4, 35390.746, 0.000008007214, 9.99707, 10.001239 
5.8493245e+2, 1.3579796e+2, -2058373.6, -1678585.8, 9495.466, 0.19552197, 0.25469413, -1678348.5, -69149.38, 0.0000012151539, 9.996243, 10.001398 
5.849378e+2, 1.4579958e+2, -1787012.8, -1305956.4, 20676.41, -0.26096028, 0.19707465, -1305069.4, 206110.27, 0.000000012980553, 9.996664, 10.003033 
5.849525e+2, 1.558012e+2, -1494829.3, -1129694.3, -91406.945, 0.32678795, 0.016605122, -1108090.0, 305065.7, 0.0, 9.998063, 10.002897 
5.8496225e+2, 1.6580345e+2, -1459729.9, -1267915.1, -9192.69, 0.31215504, 0.054126617, -1267475.5, 47656.92, 0.0, 9.9985, 10.001077 
5.8496857e+2, 1.7580599e+2, -1397333.1, -1186300.8, 11850.095, -0.1604581, 0.1714297, -1185637.4, 31474.008, 0.0, 9.998251, 10.001083 
5.8497924e+2, 1.8580726e+2, -1296334.5, -1103983.3, 17899.38, -0.17847121, 0.20183283, -1102331.8, 16767.342, 0.0, 9.998348, 10.000933 
5.849932e+2, 1.9580726e+2, -1156275.4, -998831.06, 8004.198, 0.15400228, 0.085685916, -998425.2, 22671.074, 0.0, 9.998685, 10.000822 
5.8500475e+2, 2.0580739e+2, -1108451.4, -1071828.3, 72643.58, 0.1917759, 0.09082769, -1015223.8, -92127.914, 0.0, 9.99899, 9.999486 
5.850145e+2, 2.158074e+2, -960678.5, -940061.44, 82447.34, 0.006683216, 0.11326847, -867280.7, -42181.33, 0.0, 9.999282, 9.999583 
5.850248e+2, 2.2580725e+2, -710760.0, -656258.56, 2708.0208, -0.019841084, 0.09004719, -656124.3, 70973.055, 0.0, 9.999854, 10.000586 
5.850352e+2, 2.3580672e+2, -510914.78, -534162.75, -59468.367, 0.06918355, -0.045348782, -461945.0, 167149.22, 0.0, 10.000644, 10.000379 
5.850463e+2, 2.4580595e+2, -606406.56, -776753.3, 9290.522, 0.11110515, -0.035099782, -605901.4, -74799.98, 0.0, 10.000382, 9.998152 
5.850576e+2, 2.558048e+2, -635145.06, -729710.1, 24525.53, 0.11505829, 0.004720108, -629162.8, -196044.88, 0.0, 9.999466, 9.998243 
5.8506745e+2, 2.658042e+2, -436701.97, -486845.5, -33577.535, 0.086325265, 0.076403305, -419868.56, -84744.05, 0.0, 9.999767, 9.99909 
5.85076e+2, 2.7580371e+2, -157761.86, -308901.38, -58999.023, 0.042546842, 0.089921944, -137458.4, 99667.67, 0.0, 10.001039, 9.999029 
5.850856e+2, 2.8580186e+2, -98849.17, -360420.6, -41700.992, 0.08996747, 0.068322085, -92361.89, 46781.746, 0.00000055145284, 10.0013075, 9.997878 
5.850959e+2, 2.9579887e+2, -78890.414, -288435.4, -31389.504, 0.21158466, -0.05396413, -74289.34, -33115.008, 0.000008783807, 10.000713, 9.997985 
5.851071e+2, 3.0579802e+2, 111400.2, 35275.64, 139831.14, 0.15767789, -0.025751391, 218256.81, 218256.81, 0.000039667964, 10.000808, 9.999833 
5.851204e+2, 3.1579936e+2, 184064.25, 85736.055, -133925.23, 0.0802267, 0.07917105, 277564.38, 277564.38, 0.00010388018, 10.001189, 9.999983 
5.949171e+2, 1.2578307e+2, -1872670.1, -1377276.1, -46510.164, -0.19371256, 0.084135205, -1372947.4, 334394.94, 0.0000033727015, 9.997095, 10.003676 
5.94931e+2, 1.3578695e+2, -1924651.9, -1392401.5, -4633.645, 0.4052873, 0.082416706, -1392361.1, 216936.38, 0.00000044999516, 9.996216, 10.003373 
5.94936e+2, 1.4578949e+2, -1921569.6, -1572065.0, 58346.758, -0.1375558, 0.12055358, -1562581.9, -51309.715, 0.000000014541682, 9.996607, 10.001232 
5.949487e+2, 1.5579134e+2, -1612800.8, -1371166.6, -31592.03, 0.121334866, 0.14251342, -1367104.4, 46153.53, 0.0, 9.998045, 10.001252 
5.9495914e+2, 1.6579328e+2, -1409369.1, -1152944.6, -32004.08, 0.13003626, 0.18512648, -1149010.6, 166228.64, 0.0, 9.998463, 10.001881 
5.94968e+2, 1.7579503e+2, -1348926.4, -1076664.9, 15112.804, -0.07032466, 0.14215936, -1075828.6, 141391.44, 0.0, 9.998216, 10.001852 
5.9497905e+2, 1.8579623e+2, -1307459.4, -1111571.1, 16981.344, -0.05653636, 0.13206527, -1110109.9, 9095.702, 0.0, 9.998281, 10.000913 
5.949919e+2, 1.9579688e+2, -1170197.9, -1001575.75, 31735.664, 0.13486958, 0.077804215, -995800.7, 25395.816, 0.0, 9.998576, 10.0008545 
5.950035e+2, 2.0579739e+2, -1074463.4, -971290.75, 71760.72, 0.14214958, 0.08049516, -934498.6, -11308.082, 0.0, 9.998859, 10.00024 
5.950141e+2, 2.1579751e+2, -941557.9, -865959.8, 107715.62, 0.010129259, 0.042006664, -789603.56, 35586.16, 0.0, 9.999136, 10.000162 
5.9502506e+2, 2.2579746e+2, -830035.8, -878674.0, 19174.729, 0.005176416, 0.07962137, -823385.75, -96195.5, 0.0, 9.999738, 9.999119 
5.950363e+2, 2.3579699e+2, -622536.0, -732668.06, -22647.527, 0.089226626, 0.094852835, -618060.6, 11133.916, 0.0, 10.000496, 9.99909 
5.950467e+2, 2.4579602e+2, -554444.3, -651886.94, -36927.586, 0.08420314, 0.0972544, -542031.25, -10827.849, 0.0, 10.000299, 9.999054 
5.9505635e+2, 2.5579458e+2, -589654.2, -615160.5, 6535.2886, 0.01045019, 0.015101193, -588077.2, -154860.16, 0.0, 9.999374, 9.999076 
5.9506696e+2, 2.6579362e+2, -465385.56, -535703.94, 1039.2213, 0.03700216, 0.028533941, -465370.22, -130143.836, 0.0, 9.9997225, 9.998778 
5.950782e+2, 2.7579266e+2, -190692.16, -357977.8, -1605.1355, 0.12991442, 0.03182076, -190676.75, 46558.688, 0.0, 10.000955, 9.998737 
5.950876e+2, 2.8579152e+2, -77725.445, -302108.3, -75177.625, 0.12798521, 0.06855398, -54866.547, 84379.83, 0.0000003359344, 10.00125, 9.998302 
5.950953e+2, 2.9579e+2, -68463.19, -246247.78, -38073.945, 0.044095505, 0.049620513, -60652.504, -19392.322, 0.000006914508, 10.000633, 9.998307 
5.9510803e+2, 3.057888e+2, 11399.484, -171255.56, 147518.61, 0.13973497, 0.10110632, 93572.555, 93572.555, 0.000035638073, 10.000794, 9.9984255 
5.951234e+2, 3.1578574e+2, 103127.11, -68014.914, -87960.125, 0.19647829, -0.0854947, 140272.77, 140272.77, 0.00009897654, 10.001126, 9.998959 
6.049133e+2, 1.2577306e+2, -2160206.8, -1518052.1, 45257.152, -0.17504452, 0.040176, -1514878.3, 192558.28, 0.0000011596172, 9.995123, 10.003673 
6.049286e+2, 1.3577662e+2, -1704124.0, -1279162.4, -7100.9634, 0.4724572, 0.0022083283, -1279043.8, 330350.72, 0.00000014603442, 9.997717, 10.003417 
6.0493404e+2, 1.457791e+2, -1686462.4, -1513795.4, 54108.715, -0.080377646, 0.05826494, -1498240.6, 13130.465, 0.0000000031309833, 9.998436, 10.000767 
6.04946e+2, 1.557813e+2, -1673982.3, -1447997.0, 33118.934, 0.0665285, 0.16464727, -1443243.3, -29887.117, 0.0, 9.99782, 10.000842 
6.04957e+2, 1.6578302e+2, -1498320.6, -1208674.4, 58342.934, 0.09937034, 0.20861986, -1197364.1, 117976.13, 0.0, 9.997893, 10.001782 
6.0496724e+2, 1.757841e+2, -1318762.9, -1074297.3, 13945.345, 0.018893072, 0.109562725, -1073504.3, 143822.14, 0.0, 9.998468, 10.001755 
6.049785e+2, 1.8578503e+2, -1231356.0, -1081144.3, 11070.964, 0.040098928, 0.07863338, -1080332.8, 38981.75, 0.0, 9.998841, 10.000849 
6.0499084e+2, 1.9578561e+2, -1100283.4, -969757.7, -2165.2695, 0.15371521, 0.02666835, -969721.8, 51583.96, 0.0, 9.999072, 10.000833 
6.050027e+2, 2.057864e+2, -993706.56, -904497.2, 38744.117, 0.15999447, 0.044066045, -890019.9, 33276.62, 0.0, 9.999293, 10.000497 
6.05014e+2, 2.1578702e+2, -880130.25, -814226.5, 13606.8955, 0.08480628, 0.029297428, -811527.7, 13762.327, 0.0, 9.999458, 10.000366 
6.050254e+2, 2.2578697e+2, -869377.4, -927541.75, -6970.185, 0.078231476, 0.07593687, -868553.75, -141262.52, 0.0, 9.999604, 9.9988365 
6.050367e+2, 2.3578623e+2, -746682.75, -811360.56, 14102.365, 0.12102423, 0.08982907, -743741.6, -114441.02, 0.0, 9.999746, 9.998894 
6.050471e+2, 2.457854e+2, -556500.75, -615222.06, 17104.494, 0.112970695, 0.09730416, -551881.8, -20573.875, 0.0, 10.000154, 9.999364 
6.050569e+2, 2.5578433e+2, -366436.13, -481220.8, -7677.318, 0.06594514, 0.026081685, -365924.9, 67390.95, 0.0, 10.00081, 9.999302 
6.0506773e+2, 2.6578316e+2, -333743.03, -510693.47, 4347.0103, 0.10085625, 0.027763296, -333636.3, 1690.878, 0.0, 10.000775, 9.998449 
6.050794e+2, 2.7578157e+2, -318670.97, -451443.9, -22893.313, 0.20221092, -0.0006067634, -314834.44, -77490.49, 0.0, 10.000193, 9.998466 
6.05089e+2, 2.8578046e+2, -131079.92, -302049.5, -71784.65, 0.17886712, 0.039640278, -104937.266, 34416.973, 0.00000016006682, 10.000782, 9.998527 
6.050968e+2, 2.957795e+2, 182374.14, -107105.48, -79225.23, 0.06254665, 0.057498883, 202638.11, 243998.86, 0.0000052467194, 10.0022745, 9.998476 
6.0511035e+2, 3.0577803e+2, 162429.47, -171230.86, 121670.79, 0.2351265, 0.105188884, 202084.38, 202084.38, 0.000031333126, 10.002164, 9.997764 
6.0512507e+2, 3.1577334e+2, 633.3302, -151780.94, -97312.44, 0.29316598, -0.16952635, 48027.316, 48027.316, 0.00009226463, 10.000567, 9.998665 
6.1491024e+2, 1.2576638e+2, -2329304.0, -1853221.3, -4116.711, -0.056608442, 0.1230478, -1853185.6, -145691.34, 0.000000319301, 9.99508, 10.00138 
6.149246e+2, 1.3576704e+2, -1847287.1, -1577765.9, 97694.48, 0.2740766, 0.021951085, -1546079.5, 63410.02, 0.000000018009526, 9.997731, 10.001359 
6.1493134e+2, 1.4576839e+2, -1622829.3, -1386587.5, 10022.608, -0.23040795, 0.017027648, -1386163.0, 125313.78, 0.0, 9.998452, 10.001631 
6.14944e+2, 1.5577102e+2, -1617475.5, -1339530.0, 22368.416, 0.0477689, 0.07627705, -1337741.4, 75709.64, 0.0, 9.997841, 10.001582 
6.1495525e+2, 1.657726e+2, -1575580.5, -1354752.1, 67133.19, 0.1082785, 0.12336205, -1335944.9, -20509.113, 0.0, 9.997839, 10.000804 
6.1496574e+2, 1.7577317e+2, -1389885.1, -1216525.6, 47550.566, -0.0029132434, 0.07188633, -1204339.6, 13091.493, 0.0, 9.998442, 10.0007925 
6.149772e+2, 1.8577358e+2, -1249493.3, -1099993.8, 8138.957, -0.0023481185, 0.039228935, -1099552.0, 19874.123, 0.0, 9.99876, 10.000755 
6.1498964e+2, 1.9577362e+2, -1119174.0, -994115.0, 19996.236, 0.10263338, -0.058343332, -990995.56, 30427.164, 0.0, 9.9990015, 10.000702 
6.15002e+2, 2.0577458e+2, -1027406.7, -946978.2, 33258.227, 0.13602819, -0.0052279285, -935007.25, -11594.815, 0.0, 9.999177, 10.00026 
6.150141e+2, 2.1577589e+2, -913456.9, -849385.7, 31688.5, 0.11633154, 0.07394314, -836360.9, -10961.017, 0.0, 9.999309, 10.000199 
6.1502534e+2, 2.2577584e+2, -827343.1, -805966.06, -10653.082, 0.08567728, 0.07738167, -801563.8, -74163.805, 0.0, 9.999456, 9.9997425 
6.150359e+2, 2.3577456e+2, -712656.56, -703392.7, 34276.586, 0.048221257, -0.052022137, -673436.5, -44024.992, 0.0, 9.999586, 9.999711 
6.1504716e+2, 2.4577412e+2, -592086.1, -668387.0, 28073.014, 0.08049724, -0.028783841, -582870.44, -51455.473, 0.0, 10.000061, 9.999045 
6.150589e+2, 2.5577408e+2, -403955.78, -539214.3, 24754.459, 0.15732226, 0.03315604, -399567.7, 33846.977, 0.0, 10.000719, 9.99895 
6.1506945e+2, 2.6577285e+2, -364931.9, -562970.25, -29553.9, 0.166328, 0.0672882, -360615.56, -25188.55, 0.0, 10.00072, 9.998117 
6.1507916e+2, 2.7577052e+2, -354617.22, -501600.38, -24444.928, 0.12759826, -0.008832752, -350658.4, -113207.03, 0.0, 10.00009, 9.998168 
6.1508954e+2, 2.8576887e+2, -134254.03, -302071.03, -27741.975, 0.123617545, -0.008787379, -129786.88, 9679.389, 0.00000012615395, 10.00075, 9.998541 
6.1509997e+2, 2.9576772e+2, 174407.31, -103963.44, -14919.162, 0.11184364, -0.016357245, 175204.61, 216678.36, 0.000004351736, 10.002196, 9.9985285 
6.1511374e+2, 3.0576584e+2, 157768.03, -183233.08, 52797.063, 0.32247564, -0.0069953823, 165755.48, 165755.48, 0.000027327982, 10.002166, 9.997691 
6.151245e+2, 3.1576222e+2, 13436.885, -106309.57, -86929.27, 0.114397645, -0.16217469, 59116.973, 59116.973, 0.00008384043, 10.000491, 9.999019 
6.249068e+2, 1.2575689e+2, -2238350.3, -1861655.9, -149761.4, 0.07223512, 0.11776644, -1809372.4, -101787.445, 0.00000004128188, 9.995899, 10.00095 
6.2492067e+2, 1.3575746e+2, -2039214.6, -1705559.9, 128061.23, 0.17675933, 0.045917507, -1662075.5, -52492.93, 0.000000000001578113, 9.996544, 10.001071 
6.2492937e+2, 1.4575848e+2, -1806641.0, -1470584.4, 54230.855, -0.20161797, 0.02054923, -1462049.8, 49522.477, 0.0, 9.997169, 10.001679 
6.2494206e+2, 1.5576051e+2, -1566871.5, -1305053.9, -15322.924, 0.062330298, 0.01447783, -1304160.3, 109389.25, 0.0, 9.998172, 10.001647 
6.249535e+2, 1.6576192e+2, -1528639.3, -1383731.0, 46823.25, 0.1329691, 0.063521475, -1369918.0, -54381.52, 0.0, 9.998401, 10.000325 
6.2496454e+2, 1.7576256e+2, -1496543.0, -1310919.5, 33544.51, 0.06994681, 0.06580667, -1305043.6, -87510.18, 0.0, 9.997927, 10.000379 
6.249762e+2, 1.8576299e+2, -1357049.0, -1162470.4, 49647.465, 0.06735967, 0.05937395, -1150534.8, -31005.646, 0.0, 9.99804, 10.000685 
6.2498844e+2, 1.9576299e+2, -1191954.3, -1031169.3, 43429.246, 0.11501658, -0.039021693, -1020188.7, 1337.8733, 0.0, 9.998503, 10.000689 
6.250008e+2, 2.0576379e+2, -1079781.3, -962878.8, 88447.7, 0.13547361, -0.004803711, -915313.3, 8203.525, 0.0, 9.998771, 10.000352 
6.2501335e+2, 2.1576487e+2, -967075.56, -858233.2, 89560.41, 0.1442618, 0.040326104, -807855.9, 17649.072, 0.0, 9.998875, 10.000345 
6.250251e+2, 2.2576483e+2, -854305.06, -813816.3, 52152.63, 0.13546202, 0.03527086, -778116.7, -50612.207, 0.0, 9.999244, 9.999795 
6.2503624e+2, 2.3576373e+2, -678484.4, -687960.2, 11593.411, 0.121656634, -0.07890346, -670698.1, -41183.164, 0.0, 9.999809, 9.999721 
6.250479e+2, 2.4576329e+2, -597299.44, -696243.0, 10112.537, 0.15133594, -0.043984085, -596276.5, -64756.94, 0.0, 10.0001135, 9.99884 
6.250599e+2, 2.557631e+2, -477819.2, -591295.2, -9437.536, 0.20913671, 0.02671105, -477039.63, -43517.87, 0.0, 10.000276, 9.998809 
6.2507045e+2, 2.657619e+2, -343711.66, -526325.25, -27299.156, 0.19808203, 0.05335836, -339718.0, -4184.616, 0.0, 10.0007515, 9.998348 
6.2508e+2, 2.7575955e+2, -149143.94, -384329.53, -7453.7334, 0.14503811, -0.046406083, -148907.94, 88647.55, 0.0, 10.001412, 9.998336 
6.250909e+2, 2.8575763e+2, -273.79886, -278284.9, 50177.71, 0.1407578, -0.058712713, 8505.445, 148078.38, 0.000000116905284, 10.0018425, 9.998188 
6.2510246e+2, 2.9575607e+2, 139050.69, -165331.5, 2026.0255, 0.15180033, -0.07074356, 139064.17, 180650.75, 0.000004287332, 10.002122, 9.998163 
6.251165e+2, 3.0575433e+2, 170364.66, -153761.98, 29473.867, 0.39999512, -0.038224295, 173023.02, 173023.02, 0.000025852014, 10.0021715, 9.997879 
6.2512624e+2, 3.1575206e+2, 224834.44, 22328.182, -108245.46, 0.18621457, -0.082722396, 271801.66, 271801.66, 0.00007870898, 10.001837, 9.999248 
6.3490224e+2, 1.2574421e+2, -2115539.0, -1618593.3, -225463.52, -0.04761732, 0.014483799, -1531547.8, 176164.33, 0.000000010756334, 9.995956, 10.002586 
6.349163e+2, 1.3574767e+2, -1936472.4, -1494680.1, 152591.34, 0.06439511, 0.06680895, -1447100.5, 162575.25, 0.0, 9.996543, 10.002526 
6.349277e+2, 1.4574935e+2, -1857242.0, -1559263.0, 73795.29, -0.11510389, 0.07176763, -1541988.8, -30331.16, 0.0, 9.997107, 10.001096 
6.3493997e+2, 1.5574986e+2, -1605673.6, -1390662.1, 35376.46, 0.0016895501, -0.025583224, -1384991.1, 28660.227, 0.0, 9.998187, 10.001057 
6.349515e+2, 1.6575088e+2, -1535816.4, -1391539.8, 15394.639, 0.061061144, 0.014767375, -1389915.4, -74272.37, 0.0, 9.998368, 10.000288 
6.349634e+2, 1.7575209e+2, -1500079.3, -1320832.3, 29690.967, 0.13069062, 0.0794501, -1316042.3, -98407.42, 0.0, 9.997923, 10.000322 
6.3497514e+2, 1.8575305e+2, -1365780.8, -1158895.8, 54326.25, 0.13416201, 0.1268294, -1145497.8, -25872.102, 0.0, 9.997958, 10.000742 
6.3498676e+2, 1.9575357e+2, -1202585.6, -1029800.8, 70005.53, 0.071765214, 0.074231245, -1004997.8, 16620.732, 0.0, 9.998404, 10.000744 
6.349989e+2, 2.0575394e+2, -1069480.9, -908543.56, 80139.875, 0.047536414, 0.039258476, -875444.56, 48166.293, 0.0, 9.99863, 10.000791 
6.3501155e+2, 2.1575391e+2, -966213.5, -817672.1, 108487.76, 0.053745914, -0.07136707, -760467.6, 65137.81, 0.0, 9.998705, 10.000706 
6.3502437e+2, 2.2575392e+2, -932109.8, -938661.06, 61746.703, 0.11767417, -0.046693057, -873551.9, -145946.77, 0.0, 9.99909, 9.999009 
6.350373e+2, 2.3575369e+2, -753706.4, -807598.6, 45900.098, 0.22146593, 0.0019281638, -727427.4, -97816.055, 0.0, 9.999653, 9.998975 
6.350488e+2, 2.4575295e+2, -620403.9, -719739.5, 6017.2915, 0.20769516, 0.04709554, -620040.75, -88419.41, 0.0, 10.000013, 9.998725 
6.350594e+2, 2.5575158e+2, -498229.97, -606837.25, 9851.844, 0.10480118, 0.010426711, -497343.53, -63707.293, 0.0, 10.000162, 9.998757 
6.350704e+2, 2.6575035e+2, -303040.78, -422761.53, -15500.564, 0.09081714, -0.0045005917, -301066.44, 34579.56, 0.0, 10.000676, 9.999094 
6.3508165e+2, 2.7574882e+2, -122601.59, -300053.0, 29364.373, 0.13615912, -0.097586036, -117868.664, 119786.76, 0.0, 10.001295, 9.998969 
6.350928e+2, 2.8574684e+2, -54204.25, -378629.0, 45541.71, 0.11719369, -0.10683551, -47932.496, 91741.28, 0.0000001448745, 10.001796, 9.997523 
6.3510376e+2, 2.9574463e+2, 73749.94, -270624.78, 30282.064, 0.03684365, -0.111848585, 76392.47, 118090.63, 0.000005079309, 10.002008, 9.99749 
6.351183e+2, 3.057437e+2, 190326.13, -119656.59, 12127.977, 0.32955062, 0.021417191, 190799.89, 190799.89, 0.000027855136, 10.002178, 9.998121 
6.3512915e+2, 3.1574282e+2, 203782.1, -4982.3438, -44704.652, 0.22940938, 0.0812727, 212952.3, 212952.3, 0.00008149468, 10.001757, 9.999104 
6.448985e+2, 1.257329e+2, -2035141.8, -1557529.0, -114873.19, -0.019642666, -0.036088917, -1531336.6, 176484.47, 0.0000000047013002, 9.996414, 10.002784 
6.449123e+2, 1.3573669e+2, -1904777.3, -1458170.1, 105319.42, 0.00993166, 0.03332705, -1434579.6, 175201.22, 0.0, 9.996706, 10.002675 
6.4492583e+2, 1.4573874e+2, -1872084.9, -1561464.8, 51749.28, 0.005157819, 0.06630429, -1553070.1, -41311.324, 0.0, 9.996986, 10.001138 
6.449379e+2, 1.557391e+2, -1693280.4, -1424238.4, 30920.586, 0.015699109, -0.051194403, -1420730.5, -6976.601, 0.0, 9.99755, 10.001131 
6.449494e+2, 1.6573992e+2, -1576680.5, -1416838.8, 32729.51, 0.039066374, -0.030960416, -1410396.6, -94649.62, 0.0, 9.998097, 10.000254 
6.4496166e+2, 1.7574097e+2, -1405092.4, -1279142.1, 28223.324, 0.14428262, 0.019976506, -1273107.0, -55366.914, 0.0, 9.998589, 10.000289 
6.449738e+2, 1.8574187e+2, -1257967.4, -1145946.6, 69861.05, 0.16376957, 0.081090115, -1112415.1, 7316.7095, 0.0, 9.998866, 10.000394 
6.449857e+2, 1.9574235e+2, -1150783.0, -1039339.3, 28108.95, 0.1031031, 0.061069448, -1032650.94, -10925.222, 0.0, 9.998919, 10.000425 
6.44998e+2, 2.0574246e+2, -1008042.94, -893171.25, 23048.03, 0.07232293, 0.021639446, -888719.44, 35001.71, 0.0, 9.999116, 10.000658 
6.4501077e+2, 2.1574202e+2, -880788.06, -791799.9, -20084.484, 0.07752628, -0.11798114, -787476.9, 38243.656, 0.0, 9.999359, 10.000565 
6.450239e+2, 2.257421e+2, -870998.4, -899950.4, -17747.055, 0.14748889, -0.08427984, -862572.1, -134852.67, 0.0, 9.999445, 9.999113 
6.4503723e+2, 2.3574233e+2, -776628.44, -801734.8, 6122.064, 0.270212, -0.0047629764, -775215.1, -145494.58, 0.0, 9.999413, 9.999128 
6.4504904e+2, 2.4574167e+2, -681732.4, -734008.3, 30856.865, 0.25346074, 0.035365146, -667431.0, -135701.75, 0.0, 9.999539, 9.998857 
6.4505965e+2, 2.557401e+2, -540406.56, -611791.6, 33931.67, 0.14124939, -0.03115461, -526851.6, -93105.836, 0.0, 9.999814, 9.998892 
6.45071e+2, 2.6573902e+2, -378337.4, -462857.38, 23032.918, 0.12354285, -0.036527187, -372468.2, -36713.605, 0.0, 10.0001745, 9.999063 
6.450831e+2, 2.757379e+2, -217926.7, -351486.56, -20215.725, 0.19455324, -0.081594065, -214933.9, 22826.803, 0.000000000000000000046744374, 10.000661, 9.998928 
6.450948e+2, 2.8573588e+2, -146553.38, -424185.3, 17836.027, 0.17633674, -0.09499169, -145412.22, -5632.403, 0.00000034821963, 10.001164, 9.997509 
6.4510584e+2, 2.9573306e+2, 6325.5815, -312817.97, 20592.969, 0.07518728, -0.15870589, 7648.871, 49458.62, 0.0000068469953, 10.001579, 9.997403 
6.4512056e+2, 3.05732e+2, 200640.22, -149640.23, 36634.31, 0.339781, -0.0094315875, 204430.63, 204430.63, 0.00003364889, 10.0024185, 9.997778 
6.451319e+2, 3.157312e+2, 444915.53, 89344.7, -94283.21, 0.25182652, 0.07829295, 468368.72, 468368.72, 0.000093661416, 10.003517, 9.998885 
6.54895e+2, 1.25723e+2, -2116463.3, -1724795.5, -109100.03, -0.07274323, -0.04214976, -1696456.0, 11455.413, 0.000000001405694, 9.996415, 10.00163 
6.54908e+2, 1.3572459e+2, -1986087.5, -1631492.5, 120089.57, -0.11428637, -0.05964959, -1594650.1, 15247.145, 0.0, 9.996731, 10.001468 
6.5492356e+2, 1.4572664e+2, -1831732.0, -1473373.0, 54171.254, 0.046197385, -0.002085521, -1465363.3, 46512.574, 0.0, 9.996966, 10.001756 
6.549354e+2, 1.5572819e+2, -1657145.6, -1344888.1, 65315.93, -0.013107672, -0.061958134, -1331776.4, 82080.97, 0.0, 9.997522, 10.001697 
6.5494686e+2, 1.6572902e+2, -1579417.5, -1406939.0, 37491.004, -0.05942037, -0.07248901, -1399142.1, -83293.21, 0.0, 9.9980345, 10.000344 
6.5495896e+2, 1.7572917e+2, -1407614.6, -1279355.6, 58150.223, -0.015909793, -0.11905228, -1256917.0, -39067.484, 0.0, 9.998569, 10.000293 
6.549717e+2, 1.8572943e+2, -1321292.3, -1260651.5, 59578.004, 0.04537104, -0.08179498, -1224122.4, -104274.76, 0.0, 9.9987955, 9.99964 
6.5498483e+2, 1.9572945e+2, -1214615.4, -1151300.6, 44770.39, 0.09398574, -0.07713534, -1128125.8, -106278.69, 0.0, 9.998832, 9.999699 
6.5499765e+2, 2.057294e+2, -1080356.3, -1014803.7, 19118.037, 0.104374185, -0.05568493, -1009635.44, -85787.86, 0.0, 9.998991, 9.999887 
6.550105e+2, 2.1572909e+2, -948104.9, -893748.94, 486.39148, 0.09287772, -0.10435696, -893744.56, -67893.3, 0.0, 9.9992, 9.999943 
6.550232e+2, 2.2572933e+2, -824052.75, -763281.1, -31250.395, 0.11602175, -0.08077209, -750079.25, -22231.36, 0.0, 9.999283, 10.000125 
6.5503573e+2, 2.357297e+2, -732348.8, -672151.44, 16993.22, 0.15206024, -0.0880856, -667685.7, -37843.453, 0.0, 9.999256, 10.000091 
6.55048e+2, 2.457295e+2, -666281.75, -679234.5, 27044.7, 0.1778891, -0.06753991, -644948.8, -113105.75, 0.0, 9.999444, 9.999276 
6.550602e+2, 2.557287e+2, -532822.7, -569856.1, 58032.918, 0.19075873, -0.10432273, -490424.0, -56573.14, 0.0, 9.999707, 9.999227 
6.550721e+2, 2.6572794e+2, -439043.6, -585150.3, 28334.938, 0.18370952, -0.04577105, -433740.94, -97882.0, 0.0, 10.00015, 9.998238 
6.550839e+2, 2.7572697e+2, -274804.7, -460590.4, 14518.826, 0.17868005, 0.005116253, -273676.9, -35807.063, 0.0000000002377775, 10.00061, 9.998208 
6.550962e+2, 2.8572485e+2, -110977.62, -334961.16, 21238.36, 0.17003664, -0.01650693, -108981.56, 30907.963, 0.0000008000927, 10.001108, 9.998142 
6.551083e+2, 2.9572156e+2, 27316.084, -243459.56, 53420.156, 0.121779375, -0.19844486, 37474.047, 79393.734, 0.000010270006, 10.001478, 9.997923 
6.5512294e+2, 3.0571964e+2, 135720.55, -289784.56, 70894.39, 0.29855675, -0.10854091, 147221.56, 147221.56, 0.00004390313, 10.002428, 9.9968195 
6.551337e+2, 3.157167e+2, 417665.25, 43491.594, 13663.028, 0.017209597, -0.13143551, 418163.5, 418163.5, 0.00011355634, 10.003465, 9.998602 
6.648917e+2, 1.2571199e+2, -2149709.5, -1811360.5, -57111.227, -0.02921906, -0.086613365, -1801980.5, -93967.92, 0.00000000035571668, 9.996487, 10.001 
6.6490465e+2, 1.3571276e+2, -1961940.3, -1712074.4, 105550.84, -0.14228855, -0.106347494, -1673455.4, -63445.63, 0.0, 9.997272, 10.0006695 
6.6492146e+2, 1.4571452e+2, -1824483.3, -1451684.8, 48814.832, 0.1457445, -0.048576787, -1445398.9, 66593.78, 0.0, 9.996937, 10.001917 
6.649326e+2, 1.5571642e+2, -1822247.9, -1403177.6, 1273.688, 0.027086435, -0.09390677, -1403173.8, 10796.991, 0.0, 9.996305, 10.001876 
6.649444e+2, 1.6571762e+2, -1726763.5, -1458612.6, 31161.441, -0.041846603, -0.08512531, -1455039.0, -139080.5, 0.0, 9.996943, 10.000519 
6.6495776e+2, 1.757181e+2, -1415203.1, -1262043.6, 28503.635, 0.022788106, -0.1173399, -1256911.0, -38955.72, 0.0, 9.9984255, 10.000479 
6.649709e+2, 1.8571809e+2, -1298634.8, -1248351.6, 53433.875, 0.077666014, -0.11512623, -1214440.0, -94485.35, 0.0, 9.998959, 9.999642 
6.6498345e+2, 1.9571742e+2, -1233741.4, -1168754.6, 68430.24, 0.09306423, -0.1764208, -1125495.0, -103535.63, 0.0, 9.998736, 9.999625 
6.649965e+2, 2.0571737e+2, -1150177.4, -1119218.0, 109250.984, 0.111023, -0.11906538, -1024355.5, -100393.41, 0.0, 9.998808, 9.999265 
6.650101e+2, 2.1571757e+2, -1011113.9, -989609.2, 74422.42, 0.1454636, -0.053678337, -925166.4, -99200.695, 0.0, 9.99904, 9.999368 
6.6502297e+2, 2.2571756e+2, -794752.25, -726716.6, 35396.594, 0.16339755, -0.039985407, -711641.4, 16324.036, 0.0, 9.999399, 10.000323 
6.650353e+2, 2.3571713e+2, -636284.2, -607773.6, 285.80402, 0.15976019, -0.14125124, -607770.75, 22193.896, 0.0, 9.9998455, 10.000254 
6.650478e+2, 2.4571693e+2, -476787.75, -584199.75, 9841.998, 0.16004568, -0.1320215, -475893.38, 56070.867, 0.0, 10.000701, 9.999333 
6.6506064e+2, 2.5571668e+2, -225114.22, -421266.1, -19151.977, 0.16780266, -0.12031204, -223261.73, 210704.66, 0.0, 10.001791, 9.999255 
6.65073e+2, 2.6571584e+2, -187518.2, -496855.7, -36043.04, 0.17295095, -0.05339326, -183374.1, 152602.05, 0.0, 10.002012, 9.997952 
6.650851e+2, 2.7571446e+2, -147907.94, -421245.44, -34483.492, 0.1921231, -0.017415749, -143624.72, 94368.516, 0.0000000023427176, 10.00159, 9.998 
6.65098e+2, 2.857126e+2, 27755.55, -245230.64, 27555.758, 0.21169773, -0.016555311, 30509.305, 170519.94, 0.0000014418595, 10.001949, 9.998361 
6.6511124e+2, 2.957099e+2, 242780.53, -111145.43, 1249.6758, 0.21645214, -0.15974508, 242784.95, 284818.2, 0.000014823799, 10.002832, 9.998179 
6.6512597e+2, 3.057076e+2, 211046.44, -271988.84, 54353.7, 0.34512344, -0.11415547, 217087.06, 217087.06, 0.000057815294, 10.003036, 9.996648 
6.6513646e+2, 3.1570444e+2, 276203.8, -9465.086, 18624.54, 0.009262174, -0.13782868, 277412.94, 277412.94, 0.00014076945, 10.002424, 9.998742 
6.748884e+2, 1.2570006e+2, -2164367.0, -1837348.9, 5424.4585, -0.077582575, -0.16316077, -1837258.9, -129135.914, 0.0000000023126079, 9.996478, 10.000824 
6.7490166e+2, 1.3570112e+2, -1989158.3, -1766755.8, 134889.5, -0.193199, -0.1187429, -1703140.3, -93021.05, 0.0, 9.997273, 10.000292 
6.7491895e+2, 1.457024e+2, -1847345.4, -1490943.0, 5705.0317, 0.16772935, -0.07363564, -1490851.8, 21257.012, 0.0, 9.996904, 10.001661 
6.7492896e+2, 1.5570393e+2, -1834472.9, -1429266.3, -2258.8938, -0.006027292, -0.129671, -1429253.6, -15160.904, 0.0, 9.996308, 10.001696 
6.7494184e+2, 1.6570584e+2, -1710023.5, -1419580.9, 73377.21, -0.024825348, -0.057006974, -1402095.5, -86021.26, 0.0, 9.996919, 10.000802 
6.749578e+2, 1.7570779e+2, -1396640.9, -1216686.8, 92707.43, 0.15625814, 0.029371183, -1177471.9, 40584.56, 0.0, 9.998392, 10.000808 
6.749708e+2, 1.857079e+2, -1255718.0, -1142885.0, 29013.861, 0.15086587, -0.015178059, -1135861.5, -15808.754, 0.0, 9.998886, 10.000404 
6.7498124e+2, 1.9570635e+2, -1202735.0, -1077892.3, 73551.45, -0.025403604, -0.2344908, -1043844.7, -21782.775, 0.0, 9.998625, 10.000304 
6.7499423e+2, 2.0570646e+2, -1207191.8, -1208737.4, 107198.7, -0.022665076, -0.16385752, -1100763.1, -176699.23, 0.0, 9.998675, 9.998717 
6.750091e+2, 2.1570756e+2, -1069720.0, -1077605.9, 95700.66, 0.12190094, 0.041801486, -977881.1, -151818.11, 0.0, 9.998892, 9.998836 
6.750228e+2, 2.257069e+2, -861246.2, -827448.7, 39656.16, 0.18630743, 0.051359616, -801240.8, -73170.195, 0.0, 9.99924, 9.999707 
6.750355e+2, 2.3570472e+2, -702210.4, -705096.0, 33633.227, 0.17508914, -0.16542275, -669989.06, -39901.918, 0.0, 9.99968, 9.999663 
6.750481e+2, 2.4570403e+2, -520379.5, -646313.75, 41332.285, 0.094602674, -0.15911648, -508025.88, 24066.092, 0.0, 10.00058, 9.998964 
6.7506063e+2, 2.5570416e+2, -267110.1, -480695.75, 30675.568, -0.043732792, -0.070867054, -262791.72, 171299.23, 0.0, 10.001665, 9.998908 
6.750733e+2, 2.657029e+2, -184137.78, -465298.28, -65554.16, -0.020325895, -0.045384027, -169604.67, 166499.66, 0.0, 10.001914, 9.998214 
6.7508626e+2, 2.7570042e+2, -144288.23, -394458.56, -32284.764, 0.119733825, -0.14639334, -140189.02, 97941.586, 0.0000000015372758, 10.001508, 9.998225 
6.7510015e+2, 2.8569907e+2, 19467.27, -259249.16, 49611.793, 0.20240325, -0.09781271, 28034.854, 168177.94, 0.0000017821444, 10.001936, 9.998269 
6.7511445e+2, 2.9569834e+2, 227632.52, -117977.734, 50105.453, 0.21287681, -0.034406245, 234750.06, 276898.38, 0.000019076204, 10.0027275, 9.998181 
6.7512923e+2, 3.0569586e+2, 233884.05, -209221.8, 22831.357, 0.33603504, -0.03508088, 235057.34, 235057.34, 0.000073988194, 10.002979, 9.9971 
6.7513907e+2, 3.1569418e+2, 300995.5, 75191.086, 46156.82, -0.033342894, 0.04913081, 310066.1, 310066.1, 0.00017626988, 10.002297, 9.999376 
6.848858e+2, 1.2568676e+2, -1986117.9, -1715807.9, -47480.184, -0.019499542, -0.18441413, -1707710.5, 542.39, 0.0000000036242784, 9.997517, 10.001169 
6.848985e+2, 1.3568829e+2, -2114095.5, -1787203.0, 10282.246, -0.17724143, -0.12540258, -1786880.0, -176637.19, 0.0, 9.996273, 10.000616 
6.849159e+2, 1.4568953e+2, -1947038.3, -1570196.1, -33013.53, 0.21375865, -0.08706392, -1567325.8, -55092.684, 0.0, 9.996348, 10.0013895 
6.849267e+2, 1.556912e+2, -1637351.4, -1361931.4, -67480.195, 0.07282864, -0.098885834, -1346286.9, 67930.4, 0.0, 9.997772, 10.001461 
6.8493986e+2, 1.65693e+2, -1544339.0, -1314699.6, 27421.81, 0.052049436, -0.04167142, -1311470.6, 4729.5586, 0.0, 9.997939, 10.001037 
6.849559e+2, 1.7569457e+2, -1571724.5, -1278121.5, 16720.898, 0.19319603, -0.01596255, -1277172.4, -58987.45, 0.0, 9.997085, 10.001025 
6.849692e+2, 1.8569511e+2, -1443329.5, -1187453.6, -32100.271, 0.18092316, -0.044890538, -1183488.0, -63311.574, 0.0, 9.997396, 10.0008135 
6.849803e+2, 1.9569461e+2, -1187376.3, -1024820.6, -37036.313, 0.025745993, -0.20672578, -1016780.06, 5396.0923, 0.0, 9.998529, 10.000708 
6.849935e+2, 2.0569478e+2, -1123218.8, -1163576.8, 27873.477, 0.019175809, -0.15053111, -1108986.8, -184809.61, 0.0, 9.999264, 9.998722 
6.850084e+2, 2.1569519e+2, -951852.9, -1024486.8, 32193.586, 0.13292155, -0.009649329, -939637.94, -113456.305, 0.0, 9.999733, 9.998783 
6.8502253e+2, 2.2569458e+2, -732207.6, -813749.5, 31651.955, 0.19101636, 0.02845586, -721363.5, 6826.462, 0.0, 10.000316, 9.999285 
6.8503594e+2, 2.35693e+2, -549418.2, -677434.56, 14086.809, 0.2036733, -0.08656741, -547886.4, 82316.81, 0.0, 10.000905, 9.999266 
6.8504894e+2, 2.4569207e+2, -511472.75, -650521.5, 52246.734, 0.12517147, -0.08107787, -494029.56, 38181.414, 0.0, 10.00069, 9.998871 
6.8506145e+2, 2.556914e+2, -523789.7, -610125.1, 40950.406, -0.026482545, -0.06413498, -507456.25, -73239.3, 0.0, 9.99995, 9.998832 
6.850745e+2, 2.6568988e+2, -368587.97, -540915.2, -9664.583, -0.017096132, -0.06747035, -368047.66, -31815.951, 0.0, 10.00058, 9.998335 
6.8508816e+2, 2.7568746e+2, -43255.477, -336986.53, -14953.586, 0.13408662, -0.17395288, -42496.164, 195759.66, 0.00000000039754933, 10.00215, 9.998311 
6.851026e+2, 2.8568617e+2, 112824.97, -261016.61, 68424.48, 0.21420923, -0.10694952, 124955.15, 265224.1, 0.000001935021, 10.002787, 9.997842 
6.851173e+2, 2.9568535e+2, 225738.08, -157519.0, 14029.924, 0.22690593, -0.0022101742, 226250.98, 268527.8, 0.000022833043, 10.002877, 9.997839 
6.851319e+2, 3.0568248e+2, 231986.95, -169748.19, -35814.09, 0.32907405, -0.045923866, 235154.75, 235154.75, 0.00009092674, 10.002793, 9.997461 
6.8514156e+2, 3.1568146e+2, 255135.61, 40518.445, -56489.06, 0.009637729, 0.07370565, 269095.94, 269095.94, 0.00021663251, 10.0020075, 9.999293 
6.9488364e+2, 1.2567222e+2, -1909341.0, -1559333.8, -59716.883, -0.04932437, -0.13742046, -1549425.5, 158976.05, 0.00000000017840025, 9.99755, 10.0022135 
6.948946e+2, 1.3567439e+2, -2043931.5, -1640031.1, -25865.863, -0.21879536, -0.119785674, -1638381.4, -28001.951, 0.0, 9.996276, 10.001619 
6.949121e+2, 1.4567581e+2, -1964933.3, -1606456.9, 5533.4004, 0.16144767, -0.100375, -1606371.5, -94005.23, 0.0, 9.996339, 10.001149 
6.949256e+2, 1.5567817e+2, -1652849.9, -1402601.3, -4286.1875, 0.15553547, -0.018059539, -1402527.9, 11817.399, 0.0, 9.997795, 10.00118 
6.949383e+2, 1.65679e+2, -1539387.1, -1293229.4, -17414.732, 0.07086853, -0.04958824, -1292003.5, 24333.227, 0.0, 9.997902, 10.001195 
6.949514e+2, 1.7567848e+2, -1569017.6, -1259580.8, 4337.4375, 0.014102016, -0.24689804, -1259520.0, -41180.523, 0.0, 9.997031, 10.001177 
6.9496554e+2, 1.8567981e+2, -1450776.6, -1180172.6, 1311.9404, 0.050688583, -0.21044853, -1180166.3, -59841.066, 0.0, 9.9973, 10.000907 
6.949801e+2, 1.9568226e+2, -1195005.9, -1015537.94, 17410.527, 0.13072906, -0.087922804, -1013864.5, 8436.576, 0.0, 9.99843, 10.000815 
6.949941e+2, 2.0568234e+2, -1103638.5, -1097703.1, 31047.086, 0.12568413, -0.071594775, -1069482.3, -145180.98, 0.0, 9.999149, 9.999232 
6.950077e+2, 2.156804e+2, -942480.4, -968949.44, 61541.035, 0.06326302, -0.21497077, -892766.9, -66444.586, 0.0, 9.9995775, 9.99924 
6.950219e+2, 2.2568053e+2, -771379.06, -858351.6, 42757.496, 0.07472197, -0.11356873, -753879.6, -25555.852, 0.0, 10.000157, 9.999054 
6.9503635e+2, 2.3568195e+2, -584980.94, -715816.06, 44275.96, 0.1333247, 0.09254501, -571406.0, 58906.93, 0.0, 10.000755, 9.99907 
6.9505006e+2, 2.4568114e+2, -510989.38, -626980.6, 12164.612, 0.13906653, 0.10934739, -509727.34, 22593.063, 0.0, 10.00059, 9.999083 
6.9506294e+2, 2.556784e+2, -519825.06, -584474.2, 32628.441, 0.09770452, -0.1055968, -506220.4, -71875.99, 0.0, 9.99987, 9.999048 
6.9507635e+2, 2.6567674e+2, -380488.47, -549858.1, 39277.047, 0.084334515, -0.13163318, -371823.38, -35464.492, 0.0, 10.000515, 9.998304 
6.9509023e+2, 2.756756e+2, -64137.06, -358569.4, 53160.3, 0.10078338, -0.102111354, -54832.887, 183536.28, 0.0000000054780975, 10.002055, 9.998209 
6.9510466e+2, 2.8567374e+2, 47757.836, -380194.6, 56786.21, 0.120368175, -0.044898294, 55164.76, 195553.6, 0.000002364329, 10.002721, 9.997051 
6.951193e+2, 2.9567108e+2, 159503.33, -270301.72, 36150.758, 0.10639308, -0.054124076, 162522.73, 204940.44, 0.000027093956, 10.002775, 9.997108 
6.9513375e+2, 3.0566758e+2, 249417.55, -129560.734, -68346.625, 0.20587586, -0.14134039, 261366.73, 261366.73, 0.00010798756, 10.002767, 9.997751 
6.9514334e+2, 3.1566694e+2, 188442.69, -85076.96, -45917.496, -0.07606757, -0.010230927, 195945.36, 195945.36, 0.00025661878, 10.0019455, 9.998462 
7.048814e+2, 1.2565804e+2, -2161991.0, -1672893.6, 87781.55, 0.07355281, -0.14577381, -1657616.1, 50924.434, 0.0, 9.995746, 10.002328 
7.0489156e+2, 1.3566068e+2, -1863877.1, -1519608.0, -26779.402, -0.19307436, -0.112359434, -1517537.4, 92974.445, 0.0, 9.997334, 10.001947 
7.0490825e+2, 1.4566185e+2, -1820753.0, -1527892.6, 34320.348, 0.10918219, -0.13828728, -1523924.4, -11424.378, 0.0, 9.997294, 10.001219 
7.049231e+2, 1.5566392e+2, -1832325.8, -1475973.9, 22573.906, 0.19926569, -0.0910568, -1474549.6, -60068.535, 0.0, 9.996529, 10.001267 
7.0493615e+2, 1.6566485e+2, -1692225.8, -1369071.9, 34872.277, 0.12512158, -0.11552377, -1365351.5, -48880.008, 0.0, 9.996877, 10.001158 
7.049488e+2, 1.7566462e+2, -1441243.8, -1199135.5, 15830.186, 0.014709298, -0.28369293, -1198104.9, 20367.066, 0.0, 9.9979315, 10.001143 
7.049633e+2, 1.8566601e+2, -1310000.3, -1170877.3, 25304.703, 0.0486564, -0.21243776, -1166417.6, -45958.258, 0.0, 9.998514, 10.000388 
7.04979e+2, 1.9566834e+2, -1180881.4, -1062278.1, -29519.533, 0.16921592, -0.04722427, -1055337.1, -32896.73, 0.0, 9.99874, 10.000355 
7.049938e+2, 2.0566843e+2, -1040970.7, -1004802.4, -8834.429, 0.18172896, -0.03827654, -1002759.8, -78319.984, 0.0, 9.999289, 9.999817 
7.050079e+2, 2.1566664e+2, -840885.5, -860056.9, 4301.9126, 0.11711559, -0.22594143, -839964.44, -13509.276, 0.0, 9.999999, 9.999794 
7.050222e+2, 2.2566669e+2, -793686.94, -878459.4, -646.8873, 0.10318042, -0.15209968, -793682.0, -65225.71, 0.0, 10.00007, 9.998947 
7.0503646e+2, 2.3566788e+2, -747223.8, -804753.25, -16475.357, 0.11744429, 0.043657582, -742839.7, -112390.47, 0.0, 9.999711, 9.998959 
7.0505047e+2, 2.4566716e+2, -575768.7, -664974.9, -32393.166, 0.15040152, 0.07744439, -565246.9, -32789.773, 0.0, 10.00017, 9.99903 
7.050645e+2, 2.5566474e+2, -329294.8, -498696.38, -54004.13, 0.20015012, -0.09822933, -313543.28, 120935.67, 0.0, 10.001202, 9.999002 
7.050785e+2, 2.6566318e+2, -200363.6, -464106.38, -6601.8403, 0.1928679, -0.1129859, -200198.45, 136294.08, 0.0, 10.0017605, 9.998297 
7.0509267e+2, 2.7566198e+2, -79390.99, -360058.7, -21560.1, 0.15201254, -0.08938964, -77744.47, 160758.08, 0.000000016182126, 10.001944, 9.998244 
7.0510685e+2, 2.8566003e+2, -48779.89, -430058.1, 13695.905, 0.11132683, -0.038447298, -48288.555, 92234.35, 0.0000030357212, 10.002044, 9.997052 
7.0512104e+2, 2.9565737e+2, 30311.334, -332871.78, 25834.422, 0.05242629, -0.046490017, 32139.816, 74692.61, 0.000031540207, 10.001865, 9.997132 
7.051359e+2, 3.056543e+2, 142896.33, -136868.05, -28777.268, 0.20141338, -0.1166378, 145825.77, 145825.77, 0.00012311795, 10.001848, 9.9981365 
7.051466e+2, 3.1565288e+2, 175936.81, -83551.0, -43024.91, 0.07274397, -0.10304023, 182884.63, 182884.63, 0.0002906225, 10.00184, 9.9985075 
7.1487826e+2, 1.2564409e+2, -2205737.5, -1758166.3, 138904.88, 0.119393975, -0.21391845, -1718561.3, -9890.641, 0.0, 9.995734, 10.001739 
7.14889e+2, 1.3564703e+2, -1878837.6, -1562013.4, 33590.96, -0.21774605, -0.120276436, -1558491.1, 52149.93, 0.0, 9.997376, 10.001637 
7.149042e+2, 1.4564762e+2, -1790888.1, -1467618.9, -13579.288, -0.07174011, -0.21195376, -1467049.5, 45584.9, 0.0, 9.997308, 10.00162 
7.1491873e+2, 1.5564859e+2, -1810560.6, -1427047.3, 12281.017, 0.08056103, -0.31612983, -1426654.4, -12030.344, 0.0, 9.996506, 10.0016165 
7.1493304e+2, 1.6565056e+2, -1716830.6, -1402488.4, 63250.44, 0.09823372, -0.24288552, -1390238.9, -73633.95, 0.0, 9.996806, 10.000961 
7.1494776e+2, 1.7565294e+2, -1464980.4, -1244255.0, 66361.03, 0.084324226, -0.1269305, -1225839.9, -7257.3438, 0.0, 9.997914, 10.000844 
7.1496224e+2, 1.8565369e+2, -1396309.0, -1338783.0, 21568.35, 0.06271584, -0.04764709, -1331594.5, -211015.03, 0.0, 9.998464, 9.999263 
7.1497655e+2, 1.956529e+2, -1267717.8, -1216963.4, -6602.4097, 0.023685196, -0.07935429, -1216118.6, -193524.84, 0.0, 9.998631, 9.999349 
7.1499217e+2, 2.056532e+2, -1015063.06, -914100.75, 7617.028, 0.07062406, -0.042576693, -913529.3, 11062.19, 0.0, 9.999138, 10.000506 
7.1500885e+2, 2.1565402e+2, -825120.4, -780860.9, 39297.836, 0.18572515, -0.03877732, -757890.25, 68688.875, 0.0, 9.999809, 10.000424 
7.1502316e+2, 2.2565322e+2, -819073.94, -894937.4, -27223.402, 0.16780308, -0.076012775, -810315.94, -81729.77, 0.0, 9.999911, 9.998913 
7.1503556e+2, 2.3565091e+2, -773648.06, -824487.25, -13128.546, 0.04090956, -0.22391336, -770458.0, -139847.14, 0.0, 9.999558, 9.998898 
7.1504986e+2, 2.4565017e+2, -618440.06, -723236.75, -6146.73, 0.050977875, -0.17027582, -618080.75, -85460.38, 0.0, 10.000041, 9.998693 
7.150655e+2, 2.5565043e+2, -369322.06, -552645.06, -5476.0283, 0.1616648, -0.044778246, -369158.63, 65462.09, 0.0, 10.001081, 9.99869 
7.150805e+2, 2.6564923e+2, -205010.89, -465596.34, -13772.844, 0.19112715, -0.006625524, -204284.98, 132347.14, 0.0, 10.0017185, 9.998309 
7.15095e+2, 2.756466e+2, -86734.945, -357967.38, 45.003483, 0.1598852, -0.13016038, -86734.94, 151920.38, 0.000000020828322, 10.001862, 9.998302 
7.151089e+2, 2.8564507e+2, -1269.3335, -311521.6, -4156.475, 0.07825734, -0.086361445, -1213.6588, 139457.55, 0.0000037854625, 10.001972, 9.997896 
7.151219e+2, 2.956443e+2, 68130.336, -226558.02, 38685.445, -0.077541254, 0.013919201, 73124.17, 115806.47, 0.000035842306, 10.001763, 9.997905 
7.1513784e+2, 3.056427e+2, 172648.69, -82420.99, -39039.684, 0.1796002, 0.036082722, 178490.13, 178490.13, 0.000135526, 10.001866, 9.99851 
7.1515054e+2, 3.1563884e+2, 212027.5, 6073.8257, 9137.425, 0.20799159, -0.2331696, 212432.11, 212432.11, 0.00031586387, 10.001764, 9.99917 
7.2487473e+2, 1.2562947e+2, -2047471.9, -1719264.3, 122861.95, 0.15383291, -0.26622722, -1678367.8, 30443.063, 0.0, 9.996932, 10.001466 
7.248866e+2, 1.3563257e+2, -2050985.1, -1630235.0, -10888.335, -0.11859306, -0.15741022, -1629953.4, -19172.707, 0.0, 9.996156, 10.001754 
7.2490084e+2, 1.4563331e+2, -1944587.4, -1583663.0, -52905.57, -0.08410067, -0.2201836, -1576067.8, -63294.168, 0.0, 9.996422, 10.001266 
7.249153e+2, 1.5563402e+2, -1673497.5, -1393679.8, -108231.08, 0.040729932, -0.31386775, -1356703.1, 58063.676, 0.0, 9.997588, 10.001327 
7.2493017e+2, 1.6563584e+2, -1562026.0, -1349682.1, -44058.203, 0.08763645, -0.2328383, -1340903.6, -24154.113, 0.0, 9.997931, 10.000798 
7.2494584e+2, 1.7563814e+2, -1517243.6, -1283865.0, -60632.848, 0.12608922, -0.109841585, -1269052.4, -50324.758, 0.0, 9.997603, 10.000727 
7.249608e+2, 1.8563855e+2, -1443929.1, -1365918.8, -22029.307, 0.09862869, -0.055700544, -1360127.8, -239400.92, 0.0, 9.998157, 9.999223 
7.249753e+2, 1.9563726e+2, -1166009.4, -1169706.4, 3852.002, 0.0040856753, -0.13665543, -1163585.4, -140840.28, 0.0, 9.999344, 9.999325 
7.249911e+2, 2.0563747e+2, -1002572.1, -928989.6, 11727.917, 0.05192984, -0.09542238, -927165.6, -2421.6409, 0.0, 9.999322, 10.00032 
7.2500813e+2, 2.1563852e+2, -1054194.1, -909171.4, -43675.145, 0.21802548, -0.046447437, -897034.0, -70302.61, 0.0, 9.998315, 10.000266 
7.250229e+2, 2.25638e+2, -920296.7, -898999.06, -58264.51, 0.20262684, -0.07075144, -850418.25, -121682.59, 0.0, 9.999004, 9.999333 
7.250359e+2, 2.3563603e+2, -537452.1, -670816.94, -36378.05, 0.053023603, -0.22777323, -528174.6, 102580.55, 0.0, 10.000988, 9.999273 
7.2505045e+2, 2.4563524e+2, -448706.13, -678132.6, -9708.194, 0.048127312, -0.18041696, -448296.06, 84469.44, 0.0, 10.001369, 9.998357 
7.250661e+2, 2.556351e+2, -460655.88, -631663.2, -32037.82, 0.14412127, -0.05913937, -454850.72, -20079.223, 0.0, 10.000595, 9.998381 
7.2508174e+2, 2.6563412e+2, -304603.94, -464975.88, 17737.66, 0.1883891, -0.008658755, -302665.53, 34115.77, 0.0, 10.000846, 9.998723 
7.2509736e+2, 2.7563217e+2, -47721.996, -294884.66, 28036.154, 0.21627106, -0.10461781, -44581.695, 194215.39, 0.000000011844985, 10.001939, 9.998698 
7.251114e+2, 2.856308e+2, 15015.495, -261476.34, 7833.683, 0.14847736, -0.08259723, 15237.265, 156047.97, 0.000004675658, 10.0019245, 9.99825 
7.251238e+2, 2.956297e+2, -9644.233, -226296.34, -14521.287, -0.018303795, -0.052416015, -8675.266, 34149.2, 0.000040333267, 10.00108, 9.998226 
7.2514e+2, 3.0562866e+2, 145950.78, -95875.766, -45539.26, 0.22785148, 0.017371751, 154242.16, 154242.16, 0.00014552829, 10.001695, 9.998508 
7.2515357e+2, 3.1562623e+2, 445850.6, 162652.1, -54065.19, 0.28283784, -0.11228288, 455821.1, 455821.1, 0.00033116215, 10.00319, 9.999566 
7.348705e+2, 1.25614e+2, -2030487.9, -1679344.1, 41093.35, -0.025614902, -0.29898378, -1674599.3, 34363.47, 0.0, 9.996931, 10.001725 
7.348841e+2, 1.3561727e+2, -2027440.1, -1581354.5, -32302.549, -0.016217021, -0.22185054, -1579027.5, 31903.666, 0.0, 9.996144, 10.002097 
7.3489773e+2, 1.456188e+2, -2032818.4, -1745456.6, -24494.049, -0.06848048, -0.16900976, -1743383.8, -230464.83, 0.0, 9.996344, 10.000184 
7.349124e+2, 1.556201e+2, -1749274.9, -1555297.9, -52445.41, -0.040349457, -0.092182145, -1542026.3, -127115.48, 0.0, 9.997603, 10.000212 
7.3492736e+2, 1.6562064e+2, -1561368.9, -1349662.8, -71731.18, -0.020514892, -0.08401146, -1327647.9, -10741.905, 0.0, 9.997937, 10.000792 
7.349428e+2, 1.7562027e+2, -1519105.5, -1279794.1, -56721.453, 0.03378046, -0.2288944, -1267030.8, -48124.223, 0.0, 9.997561, 10.00078 
7.349587e+2, 1.8562067e+2, -1388922.4, -1224763.5, 12310.952, 0.040177695, -0.23374112, -1223845.4, -102944.14, 0.0, 9.998049, 10.000237 
7.3497474e+2, 1.9562139e+2, -1121130.0, -1049680.6, 55241.492, -0.004741865, -0.21304438, -1019618.7, 3275.03, 0.0, 9.999236, 10.000195 
7.349903e+2, 2.0562129e+2, -1092937.8, -1090942.3, -40664.99, 0.020151803, -0.18812113, -1051262.8, -126365.875, 0.0, 9.999204, 9.999267 
7.3500544e+2, 2.1562025e+2, -1138892.3, -1050914.0, -61626.965, 0.09360084, -0.24650887, -1019187.0, -192275.83, 0.0, 9.998165, 9.999365 
7.3502105e+2, 2.256211e+2, -882842.8, -782991.75, 4493.0005, 0.098620765, -0.136971, -782790.0, -53886.04, 0.0, 9.998839, 10.000209 
7.3503697e+2, 2.3562318e+2, -506869.5, -564599.5, 44941.44, 0.042692307, 0.021255057, -482321.75, 148560.75, 0.0, 10.000809, 10.000088 
7.350519e+2, 2.4562237e+2, -483288.28, -728352.75, -50088.77, 0.025988154, 0.044045497, -473445.9, 59446.215, 0.0, 10.001273, 9.998057 
7.350659e+2, 2.5561896e+2, -495507.13, -676598.3, -43786.09, 0.03706328, -0.13150194, -485475.75, -50546.32, 0.0, 10.000477, 9.99813 
7.350818e+2, 2.6561806e+2, -265655.0, -363178.2, 49307.566, 0.091440074, -0.10072994, -245070.16, 91867.625, 0.0, 10.000759, 9.999461 
7.350993e+2, 2.7561873e+2, -15832.043, -204227.95, 83088.28, 0.18896271, -0.005419808, 15576.202, 254503.1, 0.000000051096855, 10.001838, 9.999369 
7.351141e+2, 2.8561723e+2, 11350.017, -276447.84, -37846.28, 0.18665479, -0.026308088, 16243.704, 157185.0, 0.0000058850314, 10.001941, 9.998143 
7.351263e+2, 2.956137e+2, -24536.531, -251964.73, -23597.799, 0.08068363, -0.22882506, -22113.848, 20863.963, 0.000044056193, 10.001045, 9.998071 
7.3514193e+2, 3.0561242e+2, 112367.09, -162854.94, 3746.691, 0.22487609, -0.15226415, 112418.086, 112418.086, 0.00015023243, 10.001684, 9.998052 
7.351548e+2, 3.156141e+2, 438763.13, 177079.72, 70181.39, 0.016480854, 0.17288692, 456396.94, 456396.94, 0.0003329124, 10.003068, 9.999721 
7.4486697e+2, 1.2559994e+2, -2171295.0, -1773396.1, 45888.145, -0.013949461, -0.18410237, -1768172.6, -59068.516, 0.0, 9.996106, 10.001456 
7.448816e+2, 1.3560222e+2, -1942604.8, -1560956.8, -104187.516, 0.0984906, -0.18107064, -1534366.8, 76716.53, 0.0, 9.99684, 10.001888 
7.448949e+2, 1.4560387e+2, -1888814.0, -1655158.3, -8811.637, -0.01369498, -0.115442574, -1654826.4, -141757.31, 0.0, 9.997244, 10.000363 
7.4491036e+2, 1.5560524e+2, -1749281.9, -1534130.9, 27168.205, 0.0042940886, -0.054475788, -1530753.3, -115695.055, 0.0, 9.997526, 10.000381 
7.449256e+2, 1.6560549e+2, -1574654.3, -1399086.8, 43927.55, 0.01593861, -0.0638944, -1388709.3, -71653.94, 0.0, 9.9980345, 10.000411 
7.449411e+2, 1.7560457e+2, -1372041.8, -1242344.1, 6000.0093, 0.059849832, -0.22475249, -1242067.1, -23005.438, 0.0, 9.99872, 10.000478 
7.449572e+2, 1.8560487e+2, -1262355.6, -1143905.8, 62882.46, 0.063942924, -0.23656891, -1116749.0, 4307.353, 0.0, 9.998816, 10.000434 
7.4497384e+2, 1.9560577e+2, -1234535.3, -1089519.5, 22843.291, 0.02885676, -0.21618806, -1086006.3, -62961.02, 0.0, 9.99838, 10.000343 
7.4498945e+2, 2.0560567e+2, -1154784.9, -1139749.3, -49139.95, 0.039076407, -0.18900934, -1097555.4, -172507.19, 0.0, 9.998867, 9.999079 
7.450044e+2, 2.1560453e+2, -873318.25, -946355.9, -34046.625, 0.08217065, -0.23931606, -859909.1, -32844.547, 0.0, 10.000093, 9.999146 
7.450205e+2, 2.256052e+2, -686870.5, -717361.75, 56661.95, 0.0954549, -0.12334238, -643439.0, 85621.18, 0.0, 10.000317, 9.999944 
7.450375e+2, 2.35607e+2, -681014.4, -675484.2, -17433.89, 0.075220436, 0.033845615, -660597.5, -29554.848, 0.0, 9.99972, 9.999854 
7.450529e+2, 2.4560624e+2, -631498.25, -754312.1, -111868.31, 0.06733559, 0.053036314, -565291.2, -32240.213, 0.0, 10.000059, 9.998471 
7.4506706e+2, 2.5560325e+2, -356171.75, -563014.5, -80722.0, 0.07825274, -0.12153893, -328398.53, 106683.48, 0.0, 10.001242, 9.998541 
7.450828e+2, 2.656023e+2, -194521.06, -351420.5, 22000.11, 0.10043394, -0.10606195, -191494.63, 145596.6, 0.0, 10.001337, 9.999269 
7.4509996e+2, 2.7560258e+2, -212657.89, -311526.7, -37788.863, 0.14233248, -0.033840775, -199868.84, 39217.668, 0.00000017449423, 10.000551, 9.999245 
7.4511534e+2, 2.8560138e+2, -140820.63, -313500.38, -146986.95, 0.18645895, -0.030101227, -56691.324, 84406.33, 0.0000070145306, 10.000746, 9.998467 
7.4512917e+2, 2.955988e+2, 99999.266, -157744.63, -130457.8, 0.2313393, -0.16870296, 154504.58, 197627.97, 0.00004543542, 10.001757, 9.998379 
7.451447e+2, 3.0559692e+2, 173868.67, -186631.97, -33625.793, 0.3138706, -0.14375743, 176978.3, 176978.3, 0.00014809403, 10.002337, 9.997565 
7.451571e+2, 3.1559774e+2, 266689.7, 16726.322, 4170.4756, -0.0017377891, 0.14812696, 266759.25, 266759.25, 0.00032280377, 10.002225, 9.99901 
7.548634e+2, 1.2558731e+2, -2240610.8, -1897231.8, 3184.6394, -0.04050693, 0.074451864, -1897202.3, -187967.75, 0.0, 9.996035, 10.000635 
7.548789e+2, 1.355874e+2, -2001987.5, -1686644.3, -66604.1, 0.11667482, -0.044719663, -1673153.9, -61916.11, 0.0, 9.99685, 10.001021 
7.5489235e+2, 1.4558846e+2, -1785053.0, -1439115.1, -16230.626, -0.029783404, -0.07371176, -1438355.3, 74869.9, 0.0, 9.997241, 10.001848 
7.549086e+2, 1.5558946e+2, -1656486.9, -1334806.4, 49894.465, 0.045425016, -0.19512072, -1327245.3, 87963.07, 0.0, 9.997494, 10.001769 
7.5492454e+2, 1.6559036e+2, -1632408.5, -1506987.0, 55873.906, 0.0777203, -0.16899018, -1485706.5, -168509.0, 0.0, 9.997983, 9.999695 
7.5494045e+2, 1.75591e+2, -1429169.1, -1353702.0, 43165.42, 0.09095833, -0.099339426, -1334102.5, -114909.27, 0.0, 9.998691, 9.999728 
7.5495625e+2, 1.8559113e+2, -1308827.3, -1224720.4, 32275.031, 0.06080128, -0.0646143, -1213762.9, -92570.07, 0.0, 9.99875, 9.999912 
7.5497204e+2, 1.9559045e+2, -1280296.5, -1159616.8, 23701.854, -0.009413952, -0.14843361, -1155128.6, -131929.75, 0.0, 9.998274, 9.999914 
7.549882e+2, 2.0559065e+2, -1136985.8, -1069553.4, -15337.113, 0.0022741975, -0.09949516, -1066228.9, -141031.7, 0.0, 9.998721, 9.999636 
7.550046e+2, 2.1559134e+2, -867435.2, -889495.25, 19172.365, 0.07596163, -0.022206059, -856346.44, -29155.203, 0.0, 9.99991, 9.999624 
7.550209e+2, 2.2559035e+2, -808845.2, -931587.4, 23096.32, 0.08659861, -0.022684285, -804643.06, -75439.54, 0.0, 10.000152, 9.998552 
7.55037e+2, 2.3558767e+2, -794913.25, -869544.5, -20592.617, 0.038620513, -0.17083928, -789608.3, -158374.7, 0.0, 9.999546, 9.998604 
7.550531e+2, 2.455871e+2, -572451.56, -607667.2, -79657.99, 0.060481384, -0.13279228, -508478.56, 24761.41, 0.0, 9.999953, 9.99953 
7.5506914e+2, 2.5558785e+2, -304933.47, -434172.22, -28011.256, 0.137696, -0.039727222, -299123.47, 136107.17, 0.0, 10.001143, 9.999474 
7.550844e+2, 2.655867e+2, -273815.25, -503127.06, -19383.79, 0.09499371, -0.03124257, -272188.28, 65054.36, 0.0, 10.001286, 9.99825 
7.55099e+2, 2.7558377e+2, -294160.75, -456193.78, -46852.4, -0.040117845, -0.17837714, -281588.66, -42314.215, 0.0000002213921, 10.000447, 9.998302 
7.551149e+2, 2.8558344e+2, -98402.13, -217991.55, -119079.57, 0.04519412, -0.07915605, -24947.635, 116330.42, 0.000006961638, 10.000706, 9.999146 
7.5513184e+2, 2.9558492e+2, 136540.16, -70291.2, -74456.9, 0.28758305, 0.120069966, 160555.38, 203817.36, 0.00004401986, 10.001694, 9.999017 
7.551477e+2, 3.0558184e+2, 126196.836, -262608.2, -43083.938, 0.35386023, 0.020396106, 130913.79, 130913.79, 0.0001416952, 10.002256, 9.99707 
7.551594e+2, 3.155785e+2, 146278.77, -206132.77, 61912.22, -0.062713936, -0.05733114, 156839.16, 156839.16, 0.0003069929, 10.002118, 9.997522 
7.648597e+2, 1.255715e+2, -2250747.3, -1861719.6, 13213.782, 0.014608454, 0.033377357, -1861271.4, -151882.58, 0.00000000032551553, 9.99572, 10.001047 
7.64876e+2, 1.3557202e+2, -1992503.6, -1666905.3, 22041.771, 0.16127662, -0.06460949, -1665419.9, -54033.25, 0.0, 9.996814, 10.001181 
7.648902e+2, 1.4557327e+2, -1740847.5, -1448687.9, 69998.26, 0.018241597, -0.07024083, -1432782.9, 80589.14, 0.0, 9.997658, 10.0015955 
7.6490724e+2, 1.5557365e+2, -1507451.1, -1290724.6, -25016.389, 0.11327507, -0.22924401, -1287874.5, 127487.23, 0.0, 9.998621, 10.00154 
7.649236e+2, 1.6557439e+2, -1472408.4, -1443077.9, -28563.963, 0.13602173, -0.20177679, -1425634.4, -108281.82, 0.0, 9.999148, 9.999563 
7.649395e+2, 1.7557518e+2, -1349640.8, -1332059.6, -23508.95, 0.11173899, -0.104793854, -1315751.5, -96404.836, 0.0, 9.999313, 9.99957 
7.6495546e+2, 1.8557505e+2, -1231105.9, -1228500.6, -3120.213, 0.07918796, -0.067868866, -1226422.0, -105072.83, 0.0, 9.99947, 9.999533 
7.649714e+2, 1.9557384e+2, -1110001.9, -1116778.1, -25859.078, 0.035750058, -0.16875525, -1087309.9, -63947.93, 0.0, 9.999612, 9.999562 
7.6498765e+2, 2.0557398e+2, -962964.25, -953211.5, -15225.5205, 0.03300923, -0.12551764, -942100.5, -16740.555, 0.0, 9.9997835, 9.999927 
7.650043e+2, 2.1557488e+2, -843286.2, -854969.9, -26833.8, 0.05696383, -0.054401763, -821665.7, 5683.544, 0.0, 9.999963, 9.9998455 
7.6502085e+2, 2.255737e+2, -829994.6, -979854.5, 1541.9064, 0.07514984, -0.065554544, -829978.75, -100615.45, 0.0, 10.000177, 9.998207 
7.6503736e+2, 2.3557062e+2, -688005.5, -852148.3, 11393.54, 0.083633006, -0.22006127, -687218.4, -55818.9, 0.0, 10.000436, 9.998286 
7.6505387e+2, 2.455701e+2, -461292.13, -546581.2, 1155.3096, 0.11807962, -0.16521366, -461276.47, 72129.88, 0.0, 10.000687, 9.999593 
7.650704e+2, 2.5557134e+2, -341009.34, -445969.56, -46034.254, 0.16948469, -0.028503537, -323680.3, 111712.15, 0.0, 10.0008745, 9.99952 
7.6508564e+2, 2.6557022e+2, -329724.03, -539395.1, -48695.594, 0.11706506, -0.01275099, -318966.53, 18437.596, 0.0, 10.000946, 9.998168 
7.6509994e+2, 2.75567e+2, -233741.94, -435911.66, -33809.62, -0.00556483, -0.18112175, -228237.69, 11200.966, 0.00000016204108, 10.000901, 9.998227 
7.65116e+2, 2.8556657e+2, -34470.523, -199396.69, -35043.42, 0.060415175, -0.083073154, -27333.375, 114110.04, 0.000006290961, 10.001201, 9.999029 
7.6513326e+2, 2.955681e+2, 127793.24, -74547.766, -79117.23, 0.2675792, 0.13367729, 155055.63, 198482.39, 0.000041719115, 10.00166, 9.998984 
7.651493e+2, 3.055656e+2, 90672.23, -241893.89, -43059.063, 0.32658628, 0.06968058, 96156.85, 96156.85, 0.00013461517, 10.001826, 9.9974375 
7.651629e+2, 3.155614e+2, 27328.996, -263019.97, 87322.9, 0.13344854, -0.12131542, 51567.97, 51567.97, 0.00029005748, 10.001282, 9.997554 
7.748548e+2, 1.2555228e+2, -2130640.3, -1593246.0, -36505.125, -0.11695254, -0.32677865, -1590777.5, 118791.38, 0.0000000023621072, 9.995652, 10.002917 
7.748725e+2, 1.3555604e+2, -1902339.4, -1476940.3, 67456.34, 0.09177143, -0.24398448, -1466499.8, 145030.14, 0.0, 9.996809, 10.002485 
7.7488786e+2, 1.4555834e+2, -1874902.6, -1729649.3, 87706.14, -0.01385032, -0.106073275, -1688403.3, -174894.45, 0.0, 9.997664, 9.999666 
7.749059e+2, 1.5555789e+2, -1634670.6, -1557415.4, 24413.527, 0.08963279, -0.15173571, -1550347.1, -134829.58, 0.0, 9.998629, 9.999707 
7.749225e+2, 1.6555761e+2, -1442152.5, -1372895.3, -37787.316, 0.081833564, -0.16451488, -1356269.4, -38748.965, 0.0, 9.999118, 10.00006 
7.749381e+2, 1.7555717e+2, -1320067.4, -1264003.3, -3150.8987, 0.0058821863, -0.24264078, -1263826.8, -44305.14, 0.0, 9.999286, 10.0000515 
7.7495444e+2, 1.8555671e+2, -1260409.9, -1273250.4, -9265.891, 0.0023483955, -0.24497229, -1255557.3, -134032.14, 0.0, 9.9993925, 9.9992695 
7.7497137e+2, 1.9555603e+2, -1141826.9, -1160383.1, -7280.3564, 0.0464345, -0.26568547, -1139311.5, -115778.15, 0.0, 9.999509, 9.999316 
7.749874e+2, 2.0555565e+2, -985191.4, -961598.94, -22674.842, 0.010106994, -0.26379478, -947835.44, -22299.316, 0.0, 9.999624, 9.999944 
7.75003e+2, 2.1555519e+2, -866265.25, -860224.7, -8338.078, -0.08699282, -0.32906348, -854376.75, -26839.045, 0.0, 9.999785, 9.999891 
7.7502e+2, 2.2555533e+2, -810103.0, -898438.44, -2947.4172, -0.05015388, -0.24508086, -810004.75, -80466.07, 0.0, 10.000002, 9.998855 
7.7503806e+2, 2.3555563e+2, -668651.44, -779286.25, 33335.125, 0.091185234, -0.1263235, -659383.7, -27841.707, 0.0, 10.000288, 9.998863 
7.750549e+2, 2.4555516e+2, -542768.0, -684000.4, -4074.6738, 0.12309053, -0.046464518, -542650.56, -9099.71, 0.0, 10.000553, 9.998713 
7.750705e+2, 2.5555387e+2, -414848.6, -569709.6, -24985.332, 0.06583428, -0.07691137, -410917.25, 24649.043, 0.0, 10.000748, 9.998732 
7.750863e+2, 2.6555294e+2, -286051.63, -432125.25, -60928.598, 0.064759, -0.04393446, -263974.47, 73600.4, 0.0, 10.000875, 9.9989395 
7.7510226e+2, 2.75552e+2, -195930.17, -342481.97, -19592.85, 0.10674949, -0.059445884, -193355.97, 46225.86, 0.00000014054619, 10.000832, 9.998907 
7.751178e+2, 2.855505e+2, -104902.984, -327357.72, -28522.479, 0.09930756, -0.05582503, -101304.13, 40291.953, 0.0000059856334, 10.001128, 9.998179 
7.751331e+2, 2.955484e+2, 66423.38, -188633.47, -44599.063, 0.044015933, -0.123666026, 73997.05, 117615.17, 0.0000396548, 10.001599, 9.998229 
7.751494e+2, 3.0554816e+2, 168463.03, -63516.504, -69331.336, 0.12835759, 0.012299993, 187604.55, 187604.55, 0.00012692052, 10.001767, 9.998691 
7.7516675e+2, 3.1554678e+2, 96159.24, -92940.65, 103677.75, 0.32530594, -0.019066243, 141925.97, 141925.97, 0.00027215088, 10.001164, 9.998784 
7.8485096e+2, 1.2553461e+2, -2152476.5, -1580465.5, -100428.75, -0.038313206, -0.37577596, -1563345.5, 146396.56, 0.0000000040597263, 9.995432, 10.003099 
7.8486973e+2, 1.355385e+2, -1923032.0, -1492692.9, -136436.95, 0.15317072, -0.2726294, -1453082.3, 158618.89, 0.0, 9.996714, 10.002413 
7.848862e+2, 1.4554086e+2, -1894279.9, -1725696.6, -72085.53, 0.06657903, -0.13046797, -1699076.5, -185397.25, 0.0, 9.997486, 9.999769 
7.849044e+2, 1.5554094e+2, -1725776.5, -1592757.8, -10207.006, 0.118278414, -0.13083646, -1591979.1, -176296.0, 0.0, 9.997976, 9.999774 
7.8492147e+2, 1.655406e+2, -1475755.5, -1394937.4, 3496.2874, 0.086915255, -0.14786369, -1394786.4, -77099.586, 0.0, 9.998911, 10.000004 
7.8493774e+2, 1.7553969e+2, -1205206.3, -1212839.8, -37683.652, 0.008328738, -0.2665618, -1171146.6, 48546.25, 0.0, 10.000101, 10.000003 
7.849545e+2, 1.8553947e+2, -1124668.0, -1203029.6, -58603.508, 0.031034583, -0.24707957, -1093354.1, 28340.902, 0.0, 10.000309, 9.999303 
7.849716e+2, 1.9553955e+2, -1127104.6, -1147918.5, -58719.07, 0.12394756, -0.19629055, -1077877.4, -54180.51, 0.0, 9.999604, 9.999344 
7.8498745e+2, 2.0553896e+2, -1021396.0, -1000104.56, -26270.404, 0.061561022, -0.20730083, -982404.8, -56702.785, 0.0, 9.999451, 9.999768 
7.850023e+2, 2.1553753e+2, -901926.0, -892778.3, -50395.082, -0.1186172, -0.35112524, -846749.94, -19037.283, 0.0, 9.999601, 9.999759 
7.8501964e+2, 2.2553779e+2, -777061.3, -830948.5, -22821.508, -0.07433356, -0.27244845, -768695.2, -38984.035, 0.0, 10.000002, 9.999316 
7.85039e+2, 2.3553911e+2, -599383.0, -699830.75, -28319.146, 0.14687672, -0.09739359, -591949.2, 39753.508, 0.0, 10.000566, 9.999276 
7.850559e+2, 2.4553882e+2, -530254.94, -701192.7, -32873.543, 0.16499482, -0.0074858903, -524150.9, 9559.136, 0.0, 10.000746, 9.998496 
7.850706e+2, 2.5553694e+2, -441706.5, -603532.4, -32520.254, 0.019772083, -0.07207212, -435415.8, 316.8949, 0.0, 10.000651, 9.998543 
7.850869e+2, 2.6553604e+2, -250441.86, -373538.03, -29673.0, 0.046230942, -0.051196266, -243662.39, 94078.04, 0.0, 10.000946, 9.999303 
7.8510445e+2, 2.7553555e+2, -73940.24, -246987.55, -44633.582, 0.21727987, -0.05709789, -63106.31, 176633.4, 0.0000001311964, 10.001519, 9.999225 
7.8512e+2, 2.8553343e+2, -75401.14, -362950.4, -31271.74, 0.19155693, -0.10799748, -72039.555, 69719.914, 0.0000058891046, 10.00154, 9.997742 
7.85134e+2, 2.9552996e+2, -47860.02, -293589.1, -48323.402, 0.0210056, -0.26447406, -38698.63, 5097.6914, 0.000037489564, 10.001021, 9.997792 
7.851501e+2, 3.0553028e+2, 101311.555, -75571.695, -68799.11, 0.061330434, -0.060977172, 124920.09, 124920.09, 0.00011865352, 10.001205, 9.998877 
7.851688e+2, 3.1553033e+2, 214307.9, 51968.57, -33083.805, 0.4100946, 0.024290033, 220791.27, 220791.27, 0.00025448482, 10.001589, 9.999567 
7.948472e+2, 1.2551925e+2, -2253765.5, -1815509.4, -115483.81, -0.028986478, -0.048036885, -1786940.8, -77039.414, 0.0000000034592607, 9.995532, 10.001443 
7.9486746e+2, 1.355194e+2, -2021794.6, -1709639.6, -84679.0, 0.21831647, -0.14839794, -1688148.3, -76247.49, 0.0, 9.99676, 10.000901 
7.9488474e+2, 1.455207e+2, -1746921.9, -1413808.9, -74738.875, 0.13775963, -0.15190595, -1397808.6, 116076.32, 0.0, 9.997461, 10.001921 
7.9490227e+2, 1.5552273e+2, -1581993.6, -1294528.3, 24279.57, 0.070598945, -0.1785001, -1292492.0, 123367.02, 0.0, 9.997977, 10.001817 
7.9492e+2, 1.6552345e+2, -1525954.8, -1493664.4, 35951.555, 0.022250155, -0.1530281, -1470399.1, -152548.28, 0.0, 9.998882, 9.999344 
7.94938e+2, 1.7552283e+2, -1247052.9, -1301911.1, 16682.568, 0.00006168528, -0.17613149, -1242378.0, -22518.006, 0.0, 10.000102, 9.999394 
7.9495525e+2, 1.8552329e+2, -1117392.8, -1164684.6, -98192.66, 0.04983256, -0.07676765, -1040039.06, 81820.12, 0.0, 10.000215, 9.999609 
7.9497176e+2, 1.955243e+2, -1117673.9, -1108612.4, -70816.984, 0.14513096, 0.035002586, -1042181.3, -18328.021, 0.0, 9.999522, 9.999649 
7.949872e+2, 2.0552388e+2, -1064081.4, -1055363.9, -34012.496, 0.06964592, 0.04111241, -1025432.0, -99574.32, 0.0, 9.999309, 9.999455 
7.9500175e+2, 2.1552187e+2, -945702.2, -947193.3, -31447.629, -0.15190531, -0.13125382, -914991.3, -87117.086, 0.0, 9.999442, 9.999463 
7.9501945e+2, 2.2552113e+2, -786985.9, -808231.4, -11414.485, -0.11186559, -0.1515676, -782015.9, -52135.55, 0.0, 9.999817, 9.999561 
7.950397e+2, 2.3552118e+2, -602715.2, -674666.2, 7407.7695, 0.1365033, -0.1276345, -601960.44, 29920.027, 0.0, 10.000422, 9.99952 
7.9505646e+2, 2.4552107e+2, -521000.66, -651148.75, -49128.594, 0.12478946, -0.051720902, -504537.9, 29345.906, 0.0, 10.000617, 9.9989 
7.9507035e+2, 2.5552052e+2, -434935.38, -559882.2, -20398.43, -0.10034756, -0.023279075, -431689.5, 4203.452, 0.0, 10.000524, 9.998905 
7.9508704e+2, 2.6551944e+2, -257392.83, -375246.47, -18579.238, -0.059220336, -0.03743799, -254533.27, 83368.15, 0.0, 10.000884, 9.999323 
7.9510605e+2, 2.755177e+2, -85090.13, -253599.28, -7674.6685, 0.20193812, -0.16959868, -84741.32, 155170.39, 0.000000103459534, 10.001443, 9.999217 
7.9512215e+2, 2.855155e+2, -86193.91, -375277.78, -61927.12, 0.22658563, -0.22742493, -73486.55, 68445.7, 0.0000054454867, 10.001494, 9.997684 
7.9513556e+2, 2.955127e+2, -67393.65, -315861.06, -43407.453, 0.03595683, -0.30649284, -60028.645, -16066.241, 0.00003447301, 10.000938, 9.997686 
7.9515076e+2, 3.0551207e+2, 34148.664, -203446.03, -54647.777, -0.018552145, -0.1495431, 46115.184, 46115.184, 0.0001104858, 10.001149, 9.998025 
7.9516864e+2, 3.1551027e+2, 208842.02, 64018.094, 18324.943, 0.16155024, -0.16663305, 211124.73, 211124.73, 0.000240168, 10.001475, 9.999709 
8.048445e+2, 1.2550175e+2, -2144325.8, -1804512.6, -66805.74, 0.11931116, 0.09509257, -1791850.8, -81773.12, 0.0000000057252847, 9.996486, 10.001069 
8.04865e+2, 1.3550076e+2, -1868379.1, -1683371.1, 23940.896, 0.2462697, -0.069822334, -1680323.3, -68235.76, 0.0, 9.998012, 10.000501 
8.0488306e+2, 1.4550124e+2, -1574686.3, -1295172.9, -9356.165, 0.18654221, -0.15230115, -1294860.1, 219218.56, 0.0, 9.998503, 10.002233 
8.049007e+2, 1.5550345e+2, -1505774.4, -1226680.1, -91053.64, 0.10327488, -0.18525244, -1199601.4, 216447.48, 0.0, 9.998369, 10.002099 
8.0491894e+2, 1.6550463e+2, -1558233.9, -1428274.1, -44645.61, 0.06300287, -0.16203216, -1414414.9, -96379.984, 0.0, 9.998325, 10.000065 
8.049379e+2, 1.7550476e+2, -1452883.9, -1326400.9, 11130.082, 0.069872975, -0.17924789, -1325428.9, -105392.81, 0.0, 9.998377, 10.000064 
8.049552e+2, 1.8550561e+2, -1315182.9, -1224894.3, -62402.758, 0.105568185, -0.086957805, -1193018.4, -70987.01, 0.0, 9.99871, 9.999923 
8.049711e+2, 1.9550683e+2, -1149850.3, -1097973.9, -64622.64, 0.15190288, 0.016458359, -1054278.3, -30253.814, 0.0, 9.999183, 9.999899 
8.0498695e+2, 2.0550679e+2, -977324.8, -999180.25, 30941.889, 0.09943886, 0.04620428, -955437.7, -29412.385, 0.0, 9.999844, 9.999589 
8.0500287e+2, 2.1550544e+2, -773217.4, -848557.44, 37381.42, -0.033364695, -0.074455716, -757817.6, 70218.086, 0.0, 10.000571, 9.999594 
8.050203e+2, 2.2550453e+2, -707978.8, -778862.94, 59404.625, -0.037174877, -0.11249821, -674246.8, 55796.055, 0.0, 10.000404, 9.999472 
8.0503875e+2, 2.3550378e+2, -754232.6, -753909.56, 28875.03, 0.06000176, -0.16041137, -725195.6, -93145.73, 0.0, 9.999426, 9.999446 
8.050558e+2, 2.4550344e+2, -665868.06, -694819.3, 2339.2122, 0.063096136, -0.119128585, -665680.25, -131625.8, 0.0, 9.999487, 9.999158 
8.050717e+2, 2.5550306e+2, -443215.72, -538210.25, -5315.956, -0.0010230839, -0.10062353, -442919.16, -6858.6353, 0.0, 10.000341, 9.999152 
8.0508864e+2, 2.6550224e+2, -314236.13, -437743.56, -42.09667, 0.0318438, -0.08326975, -314236.13, 23831.49, 0.0, 10.000635, 9.999023 
8.0510646e+2, 2.7550083e+2, -237558.6, -355181.3, -35739.297, 0.15315598, -0.15480147, -227550.81, 12527.566, 0.00000004701224, 10.000502, 9.998982 
8.0512273e+2, 2.8549904e+2, -165805.67, -379237.13, -61204.973, 0.18023571, -0.17407003, -149499.88, -7404.6606, 0.000004093495, 10.000801, 9.997987 
8.051375e+2, 2.954967e+2, 35964.527, -230678.97, -48217.703, 0.11836656, -0.24103147, 44415.96, 88535.18, 0.000029631305, 10.001505, 9.997991 
8.0515224e+2, 3.054953e+2, 74737.49, -189830.36, 1037.2717, 0.009884761, -0.17390767, 74741.56, 74741.56, 0.00010221737, 10.001454, 9.997979 
8.0516917e+2, 3.1549382e+2, 72514.87, 26860.252, 70382.625, 0.13454528, -0.15607806, 123679.45, 123679.45, 0.00023173698, 10.000443, 9.999944 
8.14842e+2, 1.2548223e+2, -2076056.1, -1680518.5, -46186.785, 0.15225278, 0.058763836, -1675196.9, 35072.242, 0.000000004999778, 9.996562, 10.001881 
8.148618e+2, 1.354828e+2, -1807360.5, -1568518.9, 88706.37, 0.0949976, -0.041716907, -1539177.6, 73081.37, 0.0, 9.99807, 10.001254 
8.148807e+2, 1.4548267e+2, -1695386.6, -1556903.5, -30300.53, 0.06335628, -0.12356787, -1550563.9, -36306.22, 0.0, 9.998545, 10.000421 
8.148992e+2, 1.5548314e+2, -1615043.3, -1455455.1, -83656.29, 0.0880238, -0.15263666, -1419640.1, -3387.662, 0.0, 9.998376, 10.000527 
8.149178e+2, 1.6548419e+2, -1421684.0, -1132795.6, -59200.246, 0.090845995, -0.17641415, -1121134.8, 197104.13, 0.0, 9.998278, 10.002112 
8.149368e+2, 1.7548545e+2, -1318896.0, -1037794.5, 27584.998, 0.096155874, -0.28839594, -1035113.1, 185108.1, 0.0, 9.998337, 10.002059 
8.1495386e+2, 1.8548653e+2, -1312390.4, -1202007.3, -55069.664, 0.07663247, -0.27973247, -1179232.3, -57021.566, 0.0, 9.998631, 10.000121 
8.149692e+2, 1.9548716e+2, -1147894.0, -1075629.8, -31969.059, 0.016962204, -0.25456452, -1063517.1, -39307.81, 0.0, 9.999097, 10.000095 
8.149864e+2, 2.054878e+2, -967914.1, -941605.5, 44882.83, 0.03781153, -0.19000924, -907989.06, 18214.586, 0.0, 9.999682, 10.000062 
8.1500524e+2, 2.1548824e+2, -765339.1, -793698.06, 75522.02, 0.1247878, -0.18040495, -702677.0, 125519.766, 0.0, 10.000404, 10.00005 
8.1502163e+2, 2.25488e+2, -764294.9, -851853.1, 8414.22, 0.03569202, -0.15253562, -763493.6, -33294.863, 0.0, 10.0002165, 9.999063 
8.1503576e+2, 2.3548685e+2, -805230.06, -821446.25, 8332.675, -0.20725557, -0.20024686, -801711.7, -169499.95, 0.0, 9.999258, 9.9990635 
8.150535e+2, 2.4548583e+2, -679875.4, -687962.9, 20647.607, -0.13435672, -0.21490258, -662879.25, -128656.51, 0.0, 9.999336, 9.999277 
8.1507427e+2, 2.5548464e+2, -457112.25, -536179.44, 36978.785, 0.19987136, -0.28743917, -442513.25, -6278.8027, 0.0, 10.000211, 9.9992285 
8.150913e+2, 2.654845e+2, -361098.03, -517323.4, -17956.805, 0.21006985, -0.18116793, -359060.6, -20822.049, 0.0, 10.000562, 9.998511 
8.1510514e+2, 2.7548486e+2, -290326.9, -433842.78, -21457.066, -0.05470659, -0.01897727, -287187.53, -46947.906, 0.000000004527389, 10.000374, 9.998504 
8.1512135e+2, 2.8548402e+2, -128368.94, -293446.88, -46141.37, -0.07078401, 0.04372817, -116347.3, 25901.803, 0.0000024308686, 10.00076, 9.998596 
8.151394e+2, 2.9548195e+2, 57038.15, -160911.38, -5398.1074, 0.12048709, -0.05532922, 57171.766, 101438.79, 0.00002455122, 10.001395, 9.998524 
8.151541e+2, 3.0547976e+2, 128609.414, -81635.195, -45602.33, 0.01938393, -0.12651728, 138074.5, 138074.5, 0.00009685274, 10.001469, 9.9987135 
8.1516916e+2, 3.1548008e+2, 92066.66, 85577.83, 54920.973, 0.021293102, -0.008313671, 143838.97, 143838.97, 0.00023260372, 10.00037, 10.000385 
8.2483983e+2, 1.2546153e+2, -1859289.4, -1577174.4, -31893.713, 0.22417542, -0.039648432, -1573613.6, 136857.06, 0.0000000017683296, 9.99802, 10.00189 
8.2485926e+2, 1.354631e+2, -1848764.4, -1579189.5, -7173.2236, 0.06381759, -0.05629252, -1578998.9, 33451.418, 0.0, 9.997726, 10.0013485 
8.24879e+2, 1.4546312e+2, -1841552.0, -1624267.4, -60655.62, 0.092955105, -0.12938827, -1608482.0, -94033.805, 0.0, 9.997539, 10.000435 
8.2489794e+2, 1.5546352e+2, -1711471.0, -1500068.8, -8566.269, 0.16846895, -0.16599075, -1499722.1, -83276.91, 0.0, 9.997714, 10.000529 
8.2491636e+2, 1.6546483e+2, -1467181.8, -1121024.9, 32396.08, 0.15519442, -0.18220486, -1118019.0, 200411.25, 0.0, 9.9978, 10.002425 
8.249347e+2, 1.7546666e+2, -1388448.0, -1042650.5, -40690.715, 0.09394508, -0.2679752, -1037926.9, 182480.9, 0.0, 9.997708, 10.002337 
8.24952e+2, 1.854681e+2, -1312376.9, -1156316.9, -115462.22, 0.049885113, -0.25780898, -1094990.5, 27402.672, 0.0, 9.998434, 10.000528 
8.249684e+2, 1.9546889e+2, -1014168.0, -966160.75, -107585.586, 0.0019084939, -0.2558702, -879933.56, 144454.7, 0.0, 9.999829, 10.000486 
8.249861e+2, 2.0546955e+2, -936292.0, -914048.94, -54188.145, 0.043848127, -0.21545891, -869852.8, 56529.113, 0.0, 9.999848, 10.00016 
8.250051e+2, 2.1546987e+2, -1015589.7, -904678.25, -80107.38, 0.16708335, -0.22482379, -862704.4, -34327.773, 0.0, 9.998644, 10.000136 
8.250216e+2, 2.2546996e+2, -933704.44, -905852.4, -87010.75, 0.08535266, -0.18103632, -831660.3, -101285.016, 0.0, 9.9989195, 9.999331 
8.2503587e+2, 2.3546949e+2, -620773.3, -706542.8, -64496.387, -0.16680558, -0.18394421, -586205.6, 46175.344, 0.0, 10.0004015, 9.999313 
8.250535e+2, 2.4546863e+2, -499792.75, -607331.06, -18842.371, -0.11876217, -0.19009702, -496586.84, 37803.273, 0.0, 10.000612, 9.999208 
8.2507396e+2, 2.554672e+2, -522006.9, -570905.25, -43183.625, 0.17527503, -0.28189582, -496831.63, -60427.137, 0.0, 9.999803, 9.999179 
8.250914e+2, 2.6546702e+2, -424019.06, -542075.1, -39032.836, 0.1991687, -0.17829108, -412280.78, -73871.23, 0.0, 10.000108, 9.998555 
8.251065e+2, 2.7546751e+2, -154911.44, -359724.8, -31115.291, 0.006361083, -0.011779738, -150288.73, 90122.0, 0.0, 10.00127, 9.998571 
8.2512295e+2, 2.854668e+2, -13548.781, -208008.1, -38950.047, -0.010825316, 0.051020917, -6037.2695, 136380.67, 0.000001518397, 10.001431, 9.998861 
8.251405e+2, 2.9546484e+2, -22362.49, -170914.58, -51635.938, 0.13396882, -0.06551231, -6177.4893, 38255.266, 0.000022026383, 10.000723, 9.998781 
8.251553e+2, 3.0546245e+2, 114249.97, -129219.67, -86261.734, 0.007292141, -0.1485509, 141714.52, 141714.52, 0.00009707927, 10.001565, 9.998327 
8.2517165e+2, 3.1546196e+2, 499749.44, 188685.64, -143584.66, 0.08478806, -0.07358176, 555893.5, 555893.5, 0.00024343748, 10.003565, 9.999547 
8.3483696e+2, 1.2543987e+2, -1916561.9, -1685538.6, -70318.11, 0.07204839, -0.17836976, -1665818.8, 44861.223, 0.000000000051048894, 9.997991, 10.001158 
8.34857e+2, 1.354417e+2, -1871182.4, -1627069.5, -8079.7993, 0.03901622, -0.11367136, -1626802.4, -14141.512, 0.0, 9.997745, 10.001007 
8.3487743e+2, 1.4544258e+2, -1718708.5, -1370025.4, -70848.52, 0.15042502, -0.17789783, -1356179.6, 158470.53, 0.0, 9.997539, 10.00218 
8.3489645e+2, 1.5544459e+2, -1596941.9, -1260500.6, 11825.035, 0.20956235, -0.23168875, -1260085.5, 156541.36, 0.0, 9.997704, 10.002178 
8.349142e+2, 1.6544662e+2, -1582115.6, -1338280.4, 15610.941, 0.13061388, -0.17920576, -1337285.0, -18676.855, 0.0, 9.997715, 10.000977 
8.3493125e+2, 1.7544857e+2, -1489594.0, -1241544.1, -26580.498, -0.04989716, -0.10675759, -1238727.8, -18133.604, 0.0, 9.99767, 10.000988 
8.349494e+2, 1.8545043e+2, -1281781.5, -1082407.0, -77439.65, -0.08585041, -0.013604117, -1055862.6, 66714.96, 0.0, 9.9983835, 10.001064 
8.349683e+2, 1.9545193e+2, -990574.44, -892234.3, -46327.668, -0.014481436, 0.0015418218, -873847.4, 150714.58, 0.0, 9.999722, 10.001046 
8.349858e+2, 2.0545192e+2, -981172.44, -970257.44, -113541.695, 0.0026482274, -0.037086256, -862042.1, 64518.695, 0.0, 9.999687, 9.999852 
8.35002e+2, 2.1545033e+2, -1056659.3, -951812.06, -107683.65, -0.030359438, -0.20978935, -884469.2, -55894.363, 0.0, 9.99848, 9.999887 
8.3501977e+2, 2.2545047e+2, -893796.75, -785770.3, -44924.387, -0.0041841194, -0.1972749, -769529.5, -38957.855, 0.0, 9.998751, 10.00024 
8.350388e+2, 2.3545177e+2, -581706.2, -593667.75, 3155.4832, 0.058651756, -0.11621691, -580924.8, 51632.004, 0.0, 10.000253, 10.000165 
8.3505553e+2, 2.4545188e+2, -536400.44, -654261.25, -62042.87, -0.008807321, -0.050481584, -509761.5, 24794.486, 0.0, 10.000483, 9.998951 
8.350704e+2, 2.554507e+2, -552873.4, -614959.56, -54670.973, -0.1865376, -0.093066186, -521046.84, -84476.55, 0.0, 9.999706, 9.998926 
8.350887e+2, 2.6544982e+2, -395763.88, -464538.8, -6117.1953, -0.105411135, -0.07661135, -395224.0, -56643.426, 0.0, 10.000026, 9.999128 
8.3510995e+2, 2.754489e+2, -133573.23, -290423.34, 26031.287, 0.19251797, -0.11076247, -129365.87, 111224.81, 0.0, 10.00116, 9.999104 
8.3512694e+2, 2.854476e+2, -21416.467, -209186.48, -79069.266, 0.2244414, -0.130858, 7443.557, 150044.14, 0.0000012583888, 10.00137, 9.998881 
8.351405e+2, 2.9544568e+2, -43691.42, -189690.75, -56371.59, 0.024991935, -0.24480402, -24459.273, 20154.645, 0.000022671806, 10.000616, 9.998706 
8.351556e+2, 3.054435e+2, 10465.45, -339072.25, -14109.223, -0.15111862, -0.23021777, 11034.049, 11034.049, 0.0001036696, 10.001538, 9.996899 
8.3517563e+2, 3.1544235e+2, 328680.6, -132314.86, -48439.895, 0.06511676, -0.0759038, 333715.5, 333715.5, 0.00026239955, 10.003426, 9.997406 
8.4483653e+2, 1.254212e+2, -1691015.9, -1620671.3, 68977.234, 0.16233149, -0.17883717, -1578416.5, 132444.1, 0.0, 9.9997225, 10.0007715 
8.448551e+2, 1.3542247e+2, -1860351.4, -1648808.5, 81646.234, 0.07766527, -0.14676669, -1620962.3, -8112.411, 0.0, 9.997934, 10.000772 
8.4487504e+2, 1.4542371e+2, -1749161.1, -1332565.1, 53705.363, 0.19099784, -0.18850836, -1325753.1, 189083.2, 0.0, 9.997099, 10.002651 
8.448941e+2, 1.5542659e+2, -1602324.3, -1219554.9, 6899.615, 0.22932881, -0.20047571, -1219430.5, 197373.19, 0.0, 9.997477, 10.002574 
8.4491205e+2, 1.6542879e+2, -1566718.6, -1389524.0, 33888.4, 0.13644266, -0.12309336, -1383264.0, -64479.766, 0.0, 9.998074, 10.000451 
8.4492934e+2, 1.7543022e+2, -1378899.1, -1244851.3, 34456.49, -0.051495023, -0.047155984, -1236513.0, -15735.633, 0.0, 9.99868, 10.000477 
8.449481e+2, 1.8543182e+2, -1216651.9, -1049931.1, 26034.434, -0.064734355, 0.04003328, -1045960.25, 76804.016, 0.0, 9.998829, 10.001067 
8.449681e+2, 1.954332e+2, -1162891.8, -982014.56, -13296.024, 0.057224568, 0.04437925, -981042.44, 43707.066, 0.0, 9.998556, 10.000998 
8.449856e+2, 2.0543332e+2, -1075513.9, -1001682.1, -82576.21, 0.062971875, 0.014991337, -948145.75, -21398.922, 0.0, 9.998977, 9.999984 
8.4500116e+2, 2.1543206e+2, -843264.25, -841854.2, -74033.56, -0.024237365, -0.13135363, -768522.3, 60235.066, 0.0, 9.9999075, 9.999963 
8.450193e+2, 2.25432e+2, -719719.44, -696509.7, 11492.906, 0.019537088, -0.14470775, -691781.8, 38973.99, 0.0, 9.999941, 10.000262 
8.450395e+2, 2.3543273e+2, -736784.1, -661108.8, -41897.1, 0.16536485, -0.12506585, -642492.44, -9746.665, 0.0, 9.999185, 10.000199 
8.450562e+2, 2.4543284e+2, -698111.0, -706828.5, -104210.18, 0.07661911, -0.072495036, -598168.44, -63424.203, 0.0, 9.999256, 9.999185 
8.4506994e+2, 2.5543213e+2, -493466.8, -555584.56, -85992.8, -0.2051426, -0.090746686, -433095.88, 3657.3772, 0.0, 9.999989, 9.999192 
8.4508836e+2, 2.6543143e+2, -329972.28, -405165.88, 17435.225, -0.14841107, -0.08368067, -326126.28, 12634.297, 0.0, 10.000354, 9.999375 
8.451107e+2, 2.7543047e+2, -221601.11, -305109.97, -1566.1531, 0.20108849, -0.1437237, -221571.75, 19197.416, 0.0000000050987805, 10.00043, 9.999355 
8.451283e+2, 2.854292e+2, -94972.484, -249227.5, -111393.42, 0.25250733, -0.17455031, -36611.44, 106167.625, 0.0000017149706, 10.000866, 9.998853 
8.4514177e+2, 2.954272e+2, 86309.74, -120211.9, -120057.93, 0.058216017, -0.2955448, 141405.17, 186199.47, 0.0000255943, 10.001474, 9.998766 
8.451575e+2, 3.0542567e+2, 89453.984, -302365.94, 56916.113, -0.12347661, -0.221497, 97554.21, 97554.21, 0.000114914044, 10.00207, 9.996909 
8.4517825e+2, 3.1542385e+2, 187639.67, -188076.77, 57449.31, 0.041848976, -0.12996057, 196227.72, 196227.72, 0.00028702893, 10.002363, 9.997555 
8.5483795e+2, 1.254057e+2, -1713723.0, -1661118.4, -16289.718, 0.26297745, -0.056373958, -1656482.5, 54528.563, 0.0, 9.999715, 10.00049 
8.54853e+2, 1.3540566e+2, -1877722.8, -1667188.5, 24587.654, 0.042039815, -0.14597477, -1664355.0, -51340.645, 0.0, 9.997893, 10.000647 
8.548714e+2, 1.4540677e+2, -1807765.8, -1459970.4, 52064.46, 0.079276554, -0.14814165, -1452343.6, 62660.43, 0.0, 9.997106, 10.001784 
8.5489064e+2, 1.5540965e+2, -1653160.1, -1333049.6, 39866.89, 0.096075915, -0.07409829, -1328159.3, 88815.27, 0.0, 9.997506, 10.001781 
8.549096e+2, 1.6541137e+2, -1548673.5, -1344429.0, 42385.547, 0.057820227, -0.02219572, -1335982.4, -17024.234, 0.0, 9.998042, 10.000775 
8.5492855e+2, 1.7541169e+2, -1359939.6, -1197349.5, 68106.25, -0.024269171, -0.09684148, -1172591.0, 48365.938, 0.0, 9.998651, 10.000813 
8.549478e+2, 1.8541226e+2, -1267633.9, -1141985.1, 2888.9324, -0.005151129, -0.09699375, -1141918.8, -18965.729, 0.0, 9.998758, 10.000475 
8.549672e+2, 1.9541281e+2, -1207740.0, -1063170.9, -9582.723, 0.08664514, -0.117192954, -1062538.5, -37589.07, 0.0, 9.998495, 10.000471 
8.549853e+2, 2.054139e+2, -1060620.9, -943847.7, -61305.22, 0.11286232, -0.04708195, -917574.25, 9363.998, 0.0, 9.998855, 10.000447 
8.5500234e+2, 2.1541509e+2, -835231.94, -786255.06, -26460.086, 0.075148925, 0.0006293634, -774690.5, 54233.887, 0.0, 9.999737, 10.000429 
8.5501975e+2, 2.2541451e+2, -813276.5, -847786.6, -29795.43, 0.05050015, -0.034790676, -796100.4, -65172.324, 0.0, 9.999754, 9.999316 
8.5503757e+2, 2.354123e+2, -817987.6, -797462.75, -52196.617, 0.036096293, -0.2162902, -754529.25, -121580.805, 0.0, 9.999042, 9.999333 
8.5505503e+2, 2.4541152e+2, -667120.1, -612371.25, -89185.586, 0.01922122, -0.24933748, -546453.5, -11499.012, 0.0, 9.99913, 9.999893 
8.5507226e+2, 2.5541154e+2, -464596.7, -466588.16, -46183.223, 0.0010196748, -0.26730594, -419398.47, 17554.23, 0.0, 9.999861, 9.9998665 
8.550902e+2, 2.654118e+2, -346300.28, -416405.9, 6565.414, -0.02646982, -0.19475377, -345690.75, -6740.9097, 0.0, 10.000257, 9.999348 
8.551086e+2, 2.754121e+2, -240065.98, -319049.53, 19663.889, -0.076048724, -0.12458863, -235441.22, 5506.426, 0.0000001292932, 10.000328, 9.9993105 
8.551265e+2, 2.854115e+2, -106890.11, -255499.1, -98019.2, -0.035597082, -0.08712232, -58194.92, 84758.93, 0.0000031613251, 10.000788, 9.998845 
8.5514385e+2, 2.954094e+2, 76661.73, -121962.56, -81561.99, 0.07685298, -0.21435623, 105861.3, 150835.08, 0.000030116835, 10.001388, 9.9988 
8.551606e+2, 3.054088e+2, 177030.23, -95983.836, 59824.59, -0.04504134, -0.12465371, 189563.97, 189563.97, 0.00012742863, 10.001986, 9.998361 
8.55179e+2, 3.154067e+2, 301847.28, 82415.99, 88115.95, -0.18125284, -0.20169735, 332851.0, 332851.0, 0.00031382052, 10.002235, 9.999474 
8.648373e+2, 1.2538832e+2, -2063371.8, -1836922.1, -29872.082, 0.35830495, -0.07144981, -1833047.8, -121865.88, 0.00000000000000000000885557, 9.997328, 10.000439 
8.648513e+2, 1.3538869e+2, -1799839.4, -1646826.4, -38545.03, 0.071792446, -0.11615409, -1637665.1, -24483.832, 0.0, 9.998462, 10.000529 
8.6486924e+2, 1.4538966e+2, -1625075.8, -1450253.9, 49015.105, 0.08813796, -0.08904833, -1437449.3, 77723.97, 0.0, 9.998711, 10.001071 
8.648885e+2, 1.5539156e+2, -1563506.5, -1376390.1, 11700.656, 0.096204616, -0.03631712, -1375661.4, 41493.88, 0.0, 9.998483, 10.001025 
8.649078e+2, 1.653928e+2, -1491999.9, -1289823.6, 48977.492, 0.06829764, -0.0059825727, -1278583.6, 40558.984, 0.0, 9.998323, 10.001004 
8.649273e+2, 1.7539322e+2, -1403367.9, -1203520.4, 34427.91, 0.011787812, -0.090528734, -1197755.6, 23381.99, 0.0, 9.99828, 10.000951 
8.6494666e+2, 1.8539351e+2, -1344091.0, -1209357.5, -11530.924, 0.032141436, -0.111101486, -1208377.9, -85241.8, 0.0, 9.998389, 10.000177 
8.649658e+2, 1.953935e+2, -1213262.6, -1096060.5, -26750.242, 0.10401691, -0.15377407, -1090243.8, -65104.523, 0.0, 9.998616, 10.0001745 
8.649846e+2, 2.0539477e+2, -1014679.75, -878891.0, -25125.646, 0.1582263, -0.07161028, -874391.0, 52735.64, 0.0, 9.998999, 10.000811 
8.650029e+2, 2.1539675e+2, -860311.4, -762665.3, -32228.271, 0.18620028, 0.017764905, -752987.5, 76116.74, 0.0, 9.99942, 10.000734 
8.6502033e+2, 2.2539641e+2, -800874.5, -852151.6, -7606.746, 0.13389556, -0.004561735, -799769.9, -68663.78, 0.0, 9.999891, 9.999221 
8.65037e+2, 2.3539394e+2, -627551.4, -715638.94, 6983.4937, 0.017981984, -0.20099397, -627001.1, 6129.1143, 0.0, 10.000399, 9.99924 
8.6505485e+2, 2.4539316e+2, -429585.13, -492419.22, 18775.563, 0.014568689, -0.23280513, -424402.28, 110734.39, 0.0, 10.000745, 9.999933 
8.650737e+2, 2.5539345e+2, -296670.25, -380822.16, -18013.982, 0.10514532, -0.22655454, -292976.22, 144155.61, 0.0, 10.001004, 9.999902 
8.650915e+2, 2.6539364e+2, -276881.84, -378176.25, 12713.631, 0.06632117, -0.16294993, -275310.5, 63818.453, 0.0000000005766255, 10.000715, 9.999385 
8.6510867e+2, 2.7539355e+2, -291627.25, -342661.47, -117.198524, -0.07909193, -0.1362671, -291626.97, -50496.88, 0.000000514823, 9.999969, 9.999319 
8.6512667e+2, 2.8539297e+2, -232358.13, -351030.53, -60698.51, -0.05886376, -0.07855214, -206811.5, -63674.242, 0.0000054394536, 10.000082, 9.998532 
8.6514527e+2, 2.9539147e+2, -13044.868, -192012.63, -93717.25, 0.11543762, -0.11546687, 27048.596, 72203.01, 0.000035908153, 10.0009, 9.998552 
8.6516327e+2, 3.053906e+2, 183159.16, -79911.516, 17941.422, 0.041028593, -0.047808956, 184377.13, 184377.13, 0.00014009468, 10.001955, 9.998483 
8.6518174e+2, 3.153886e+2, 409071.9, 203575.56, -97785.73, -0.14084892, -0.13304822, 448166.03, 448166.03, 0.00033844914, 10.002701, 10.000059 
8.7483335e+2, 1.2536933e+2, -2051189.0, -1804871.0, -13050.795, 0.17242917, -0.18943736, -1804181.4, -92810.85, 0.0000000055054987, 9.997296, 10.0006695 
8.748498e+2, 1.3537167e+2, -1789342.8, -1617225.0, 14079.437, 0.04472512, -0.06269305, -1616080.9, -2731.3438, 0.0, 9.998439, 10.000731 
8.7486845e+2, 1.4537255e+2, -1680915.6, -1569068.6, 23031.975, 0.097943775, -0.011251207, -1564511.4, -49169.086, 0.0, 9.998722, 10.000252 
8.748874e+2, 1.5537244e+2, -1617243.5, -1479733.9, 16841.66, 0.1117272, -0.08538151, -1477701.1, -60356.52, 0.0, 9.998464, 10.000317 
8.749062e+2, 1.6537336e+2, -1491676.1, -1284996.8, 33564.285, 0.04691785, -0.059046134, -1279682.6, 39652.914, 0.0, 9.998295, 10.001057 
8.7492514e+2, 1.7537506e+2, -1402830.4, -1197697.8, 46128.402, -0.06459645, -0.017552704, -1187802.3, 33515.22, 0.0, 9.998258, 10.001 
8.7494427e+2, 1.8537584e+2, -1357549.8, -1223606.0, -15979.802, -0.0705694, 0.012423414, -1221726.0, -98415.13, 0.0, 9.998331, 10.00011 
8.749637e+2, 1.9537534e+2, -1228587.6, -1104316.0, -2923.7698, 0.0016040282, -0.07582545, -1104247.3, -78928.51, 0.0, 9.998516, 10.000165 
8.7498313e+2, 2.0537592e+2, -1024234.44, -863803.3, -21283.365, 0.09125455, -0.07131416, -861027.8, 66284.445, 0.0, 9.998846, 10.00099 
8.750026e+2, 2.1537723e+2, -869765.2, -744443.7, -4663.051, 0.19206408, -0.06633596, -744270.44, 85025.21, 0.0, 9.999255, 10.00094 
8.750206e+2, 2.2537784e+2, -776972.56, -762616.0, -3073.9194, 0.15988395, -0.03860739, -761985.5, -30697.229, 0.0, 9.999718, 9.999921 
8.750375e+2, 2.3537758e+2, -609562.9, -631934.5, 39840.797, 0.00490746, -0.08312427, -579367.44, 53924.24, 0.0, 10.000201, 9.999909 
8.750553e+2, 2.4537766e+2, -493423.84, -595668.44, 14348.303, -0.043129206, -0.030511338, -491448.47, 43843.207, 0.0, 10.000609, 9.999293 
8.7507373e+2, 2.5537774e+2, -360382.28, -480427.72, 5547.3496, -0.009342799, 0.02174336, -360126.5, 77164.84, 0.0, 10.000864, 9.999285 
8.75092e+2, 2.653769e+2, -283121.53, -379600.84, -28168.723, 0.02100263, 0.008609015, -275499.4, 63799.133, 0.0000000691861, 10.000658, 9.999405 
8.751102e+2, 2.7537483e+2, -304768.88, -347164.56, -10858.37, 0.05113696, -0.16864981, -302149.66, -60833.293, 0.000001269736, 9.999869, 9.999335 
8.751282e+2, 2.853738e+2, -273340.22, -432421.2, -43197.32, 0.06378204, -0.12785357, -262367.2, -119039.57, 0.000008255043, 10.000056, 9.997993 
8.7514585e+2, 2.9537323e+2, -52405.24, -275454.97, -42745.816, 0.049538866, -0.015321774, -44493.926, 843.7769, 0.000042714033, 10.000895, 9.997991 
8.751653e+2, 3.0537108e+2, 98639.19, -243448.05, 43353.383, 0.024629436, 0.004538241, 104047.93, 104047.93, 0.00015288098, 10.001911, 9.9973755 
8.7518567e+2, 3.1536734e+2, 331095.3, 57577.92, -15543.723, -0.08955277, -0.13688046, 331975.8, 331975.8, 0.00035815634, 10.002619, 9.999101 
8.848311e+2, 1.2535173e+2, -1903786.0, -1710830.0, -610.67993, 0.18409902, -0.10764944, -1710828.1, 719.37885, 0.00000006865043, 9.998202, 10.000888 
8.848485e+2, 1.3535357e+2, -1814118.3, -1619016.3, -41133.496, 0.08900367, -0.04098822, -1610698.6, 2830.7434, 0.0, 9.998217, 10.000836 
8.848674e+2, 1.4535412e+2, -1749823.4, -1619709.1, 7662.063, 0.15381047, -0.017785326, -1619259.5, -103735.06, 0.0, 9.998344, 10.000075 
8.8488656e+2, 1.5535377e+2, -1567053.9, -1479539.1, 12181.198, 0.16554657, -0.09422611, -1477875.3, -60346.59, 0.0, 9.998917, 10.000092 
8.8490516e+2, 1.653544e+2, -1439444.3, -1298699.3, 43468.938, 0.1001386, -0.06703921, -1286356.3, 33166.32, 0.0, 9.998821, 10.0007105 
8.849236e+2, 1.7535587e+2, -1443383.4, -1253362.6, -271.43448, -0.026265254, -0.015602654, -1253362.3, -31854.387, 0.0, 9.9981365, 10.000681 
8.849427e+2, 1.853568e+2, -1364570.8, -1187729.8, -8470.399, -0.043338407, 0.028793799, -1187325.0, -63825.95, 0.0, 9.998112, 10.000461 
8.849624e+2, 1.9535686e+2, -1185524.3, -1049266.9, 4808.345, 0.022020943, -0.03831672, -1049097.4, -23597.572, 0.0, 9.998661, 10.000475 
8.8498193e+2, 2.0535725e+2, -1013697.7, -875547.94, 8807.777, 0.090795495, -0.059580408, -874988.7, 52505.805, 0.0, 9.998988, 10.000845 
8.850015e+2, 2.1535777e+2, -899342.2, -774753.7, -21215.166, 0.16623665, -0.11662519, -771240.25, 58245.523, 0.0, 9.999118, 10.000806 
8.8502e+2, 2.2535864e+2, -805037.1, -743114.6, -16543.463, 0.15158655, -0.071397506, -738971.94, -7495.3857, 0.0, 9.999377, 10.000214 
8.8503784e+2, 2.3535949e+2, -658231.0, -628492.9, -37145.45, 0.052318394, -0.033918016, -603351.06, 30119.322, 0.0, 9.999738, 10.000157 
8.8505596e+2, 2.4535996e+2, -598290.6, -639363.4, -31842.092, 0.010710117, 0.04345135, -580936.9, -45469.46, 0.0, 9.999864, 9.999346 
8.8507414e+2, 2.553597e+2, -496552.66, -543753.4, -19271.717, 0.008652989, 0.05644861, -489683.75, -52213.195, 0.00000000006372724, 9.999893, 9.999321 
8.850927e+2, 2.653587e+2, -368222.03, -424808.66, -15087.752, 0.051119592, 0.022720298, -364450.53, -24970.83, 0.00000025387644, 10.000096, 9.999364 
8.851112e+2, 2.7535656e+2, -209616.45, -305889.97, -32155.69, 0.13963386, -0.15072295, -199864.22, 41633.133, 0.0000021793016, 10.000541, 9.999296 
8.8512963e+2, 2.853555e+2, -56748.066, -339890.16, 31656.244, 0.13251823, -0.10795732, -53251.957, 90256.59, 0.000011106664, 10.001615, 9.997861 
8.851478e+2, 2.9535496e+2, 286138.0, -128112.21, 28230.787, 0.04349986, 0.020997368, 288053.03, 333570.8, 0.000049522223, 10.003298, 9.997838 
8.851681e+2, 3.0535194e+2, 306288.78, -183333.3, 128657.86, 0.04272903, -0.016361272, 338037.47, 338037.47, 0.00016467013, 10.003511, 9.997025 
8.851892e+2, 3.153481e+2, 207670.55, -67018.89, 93373.92, 0.036940254, -0.12851693, 236404.92, 236404.92, 0.00037312726, 10.002063, 9.998522 
8.948297e+2, 1.2533547e+2, -1906888.0, -1692984.6, -35398.64, 0.16822124, 0.17002812, -1687278.8, 24434.904, 0.00000033567557, 9.998134, 10.001028 
8.948469e+2, 1.3533464e+2, -1817730.5, -1614937.5, -34138.71, 0.092031635, -0.025857922, -1609344.8, 4373.626, 0.00000000007521531, 9.998192, 10.000866 
8.9486563e+2, 1.4533469e+2, -1720107.6, -1559654.3, 12142.133, 0.10977201, -0.07845921, -1558740.6, -43024.492, 0.0, 9.998341, 10.000494 
8.948854e+2, 1.5533577e+2, -1543699.9, -1430272.4, 50080.65, 0.13530084, -0.0518495, -1411325.5, 6379.888, 0.0, 9.998908, 10.000437 
8.949043e+2, 1.653361e+2, -1498785.6, -1416725.1, 3499.822, 0.10088882, -0.026348896, -1416576.1, -96873.41, 0.0, 9.9988, 9.9999075 
8.949225e+2, 1.753356e+2, -1501628.0, -1360373.9, -10303.574, 0.025029214, -0.09523117, -1359626.3, -137917.14, 0.0, 9.998082, 9.999969 
8.9494157e+2, 1.8533647e+2, -1327502.0, -1090660.8, -428.35147, 0.0071382388, -0.061815295, -1090660.0, 33040.063, 0.0, 9.998017, 10.001174 
8.949614e+2, 1.9533822e+2, -1158461.5, -963725.8, 37823.465, 0.037766587, -0.029685918, -956637.4, 69043.57, 0.0, 9.998532, 10.001124 
8.949806e+2, 2.0533891e+2, -1064189.5, -951690.5, 796.8079, 0.032523677, -0.027798256, -951684.9, -24013.08, 0.0, 9.99886, 10.000386 
8.94999e+2, 2.1533842e+2, -955397.44, -849269.06, 375.3379, -0.0061719837, -0.1426485, -849267.75, -19593.586, 0.0, 9.9989395, 10.000378 
8.950181e+2, 2.2533888e+2, -845931.25, -786557.7, -14782.332, 0.0004146005, -0.10810317, -783080.94, -51410.457, 0.0, 9.999194, 10.000007 
8.9503765e+2, 2.3533991e+2, -695814.6, -662561.3, -10711.162, 0.037392195, -0.035507467, -659409.8, -25745.627, 0.0, 9.999551, 10.000011 
8.9505655e+2, 2.4534024e+2, -566185.44, -543344.44, -44596.707, 0.053788185, -0.0009818281, -508729.13, 26932.934, 0.0, 9.999735, 10.000071 
8.950747e+2, 2.553396e+2, -473413.3, -455961.3, -3537.3438, 0.045928825, -0.10162474, -455271.6, -17604.215, 0.0000000002378373, 9.999724, 10.000008 
8.9509296e+2, 2.6533926e+2, -387637.06, -444766.94, -9666.248, 0.050087675, -0.09088404, -386045.84, -46376.492, 0.00000030747992, 10.0000105, 9.999266 
8.9511126e+2, 2.7533883e+2, -234714.98, -333345.13, 4778.1665, 0.06395306, -0.08047064, -234484.05, 7188.109, 0.0000026197797, 10.00044, 9.999154 
8.951305e+2, 2.8533795e+2, -52320.875, -321953.63, 81847.94, 0.024211027, -0.021657305, -29420.604, 114260.26, 0.000013171274, 10.001569, 9.998007 
8.9515054e+2, 2.9533643e+2, 283734.66, -109027.21, 101966.3, -0.05376447, -0.010324189, 308628.66, 354325.13, 0.000055655084, 10.003184, 9.998025 
8.951712e+2, 3.053331e+2, 311616.22, -135714.81, 63448.46, -0.01877219, -0.10805606, 320441.5, 320441.5, 0.00017580122, 10.003372, 9.997412 
8.951911e+2, 3.153293e+2, 176562.81, -85487.92, 99202.055, -0.03041128, -0.25103542, 209880.66, 209880.66, 0.00038747952, 10.001887, 9.9984665 
9.0482795e+2, 1.2531655e+2, -1997100.8, -1728192.3, 18897.857, 0.22871684, 0.1667328, -1726870.6, -14970.347, 0.0000010657902, 9.99743, 10.0011425 
9.048454e+2, 1.3531576e+2, -1871387.9, -1642679.1, -24797.094, 0.1556956, -0.029491566, -1640021.4, -26117.47, 0.000000007369457, 9.997806, 10.000869 
9.0486395e+2, 1.453161e+2, -1780953.0, -1550092.0, 54076.742, 0.14447293, -0.07237193, -1538052.9, -22154.52, 0.0, 9.997746, 10.000842 
9.048833e+2, 1.5531765e+2, -1716351.4, -1474079.6, 54284.902, 0.10827686, -0.03826628, -1462472.4, -44589.58, 0.0, 9.997546, 10.000792 
9.049027e+2, 1.6531812e+2, -1593785.8, -1457567.5, 76555.164, 0.10186414, -0.020190878, -1423209.4, -103331.1, 0.0, 9.998125, 9.999964 
9.049222e+2, 1.753173e+2, -1310251.3, -1263434.1, 95416.68, 0.1346059, -0.121608146, -1188596.5, 33290.023, 0.0, 9.999371, 10.000016 
9.049412e+2, 1.853179e+2, -1140728.0, -1059651.1, 97436.266, 0.10699881, -0.09351957, -994656.7, 129223.8, 0.0, 9.999539, 10.000655 
9.0495986e+2, 1.9531941e+2, -1153147.8, -1021232.5, 20918.104, 0.018199323, -0.033879805, -1017994.94, 7869.9634, 0.0, 9.998802, 10.000607 
9.049789e+2, 2.0531985e+2, -1088616.6, -984221.56, -6608.816, -0.008042176, -0.02149712, -983804.9, -55945.746, 0.0, 9.998789, 10.000189 
9.0499836e+2, 2.1531905e+2, -899009.7, -843562.44, -23491.195, 0.017620793, -0.14740196, -834948.3, -5083.073, 0.0, 9.999421, 10.00018 
9.0501773e+2, 2.2531942e+2, -817752.75, -758079.5, -8418.193, 0.046657708, -0.119036175, -756914.7, -25052.422, 0.0, 9.999334, 10.000133 
9.05037e+2, 2.3532052e+2, -813021.5, -706296.94, -4906.385, 0.07070034, -0.04612602, -706071.9, -72217.71, 0.0, 9.998695, 10.000125 
9.0505624e+2, 2.4532099e+2, -673255.8, -575343.1, 255.14873, 0.101409, -0.013488195, -575342.5, -39491.8, 0.0, 9.998919, 10.00024 
9.050753e+2, 2.5532055e+2, -432290.6, -415269.4, -29286.217, 0.13755798, -0.10876533, -393282.25, 44571.83, 0.0, 9.9999275, 10.000182 
9.050939e+2, 2.6532033e+2, -302192.7, -425342.9, -29660.64, 0.12008519, -0.08563253, -295421.25, 44434.414, 0.0000002007212, 10.000703, 9.999062 
9.051121e+2, 2.7531987e+2, -118997.7, -294385.94, -51188.41, 0.061932657, -0.06201344, -105151.125, 136708.45, 0.0000025589381, 10.001318, 9.998992 
9.0513176e+2, 2.8531876e+2, -64627.766, -320548.75, 60411.816, 0.010778032, -0.01781871, -51083.93, 92786.19, 0.000014749117, 10.00144, 9.9980955 
9.0515286e+2, 2.9531705e+2, -22159.86, -239685.9, 45214.59, -0.016510572, -0.030534618, -13135.9795, 32750.871, 0.00006245814, 10.001021, 9.998173 
9.051737e+2, 3.0531466e+2, 37914.04, -217401.97, 1880.7358, 0.01691336, -0.06712204, 37927.89, 37927.89, 0.00018874744, 10.001259, 9.997877 
9.051934e+2, 3.1531176e+2, 169469.47, -73383.664, 3748.1633, 0.03172709, -0.16468118, 169527.3, 169527.3, 0.0004049675, 10.001731, 9.998646 
9.1482455e+2, 1.252953e+2, -1982254.1, -1695408.8, -11739.966, 0.07840805, -0.09776169, -1694929.1, 17174.76, 0.000002613721, 9.997441, 10.001355 
9.148435e+2, 1.3529697e+2, -1866625.1, -1623524.0, -1384.8276, 0.15528974, -0.06217308, -1623516.1, -9430.4795, 0.00000007607973, 9.997772, 10.001012 
9.148619e+2, 1.4529823e+2, -1771010.0, -1516580.6, 29617.1, 0.12617438, -0.030100293, -1513178.5, 2893.7017, 0.0, 9.997693, 10.0011 
9.148796e+2, 1.5529953e+2, -1699137.5, -1430305.3, 63633.086, -0.04265205, -0.04820433, -1416004.0, 2055.6152, 0.0, 9.997517, 10.001105 
9.1489977e+2, 1.6530064e+2, -1532280.6, -1325565.9, 108101.055, -0.026943002, -0.027697364, -1279362.0, 40684.918, 0.0, 9.998103, 10.000879 
9.149223e+2, 1.7530127e+2, -1255716.4, -1146482.1, 155212.78, 0.17567682, -0.079300515, -1036557.3, 185480.17, 0.0, 9.99935, 10.000831 
9.149413e+2, 1.8530129e+2, -1271112.0, -1316479.6, 58091.97, 0.12928542, -0.058796134, -1231432.1, -107393.74, 0.0, 9.999479, 9.998923 
9.149572e+2, 1.9530049e+2, -1290400.3, -1276934.6, 9935.585, -0.14820977, -0.05325322, -1271665.5, -245614.69, 0.0, 9.998679, 9.998913 
9.1497654e+2, 2.0530014e+2, -1114833.0, -1002163.0, 5408.613, -0.14458779, -0.036997173, -1001903.94, -73848.29, 0.0, 9.998634, 10.000137 
9.1499895e+2, 2.1529979e+2, -930742.0, -864724.5, 11338.358, 0.116023675, -0.11135938, -862831.44, -32774.15, 0.0, 9.999233, 10.000123 
9.150185e+2, 2.2530031e+2, -805941.8, -702567.56, -48238.1, 0.16899222, -0.08972536, -683554.8, 48496.406, 0.0, 9.999192, 10.0005865 
9.150356e+2, 2.3530135e+2, -808828.4, -657963.2, -12403.006, 0.037800327, -0.06968336, -656950.3, -22909.762, 0.0, 9.998524, 10.000539 
9.1505474e+2, 2.4530227e+2, -717817.75, -638413.8, 26296.303, 0.037537556, 0.009653577, -630495.0, -94462.79, 0.0, 9.998788, 9.999872 
9.150757e+2, 2.5530273e+2, -476985.4, -481291.97, 23718.518, 0.15616292, 0.041594565, -455322.63, -17292.77, 0.0, 9.999805, 9.999793 
9.150951e+2, 2.653019e+2, -332270.94, -469364.66, -18378.482, 0.13862228, 0.039747044, -329849.9, 10188.318, 0.00000011562638, 10.000629, 9.998793 
9.151131e+2, 2.7529964e+2, -150926.4, -337485.6, -12564.924, 0.0092187775, -0.09245513, -150083.95, 91975.6, 0.0000025826089, 10.001218, 9.998746 
9.1513306e+2, 2.852981e+2, -69649.82, -312329.7, 30775.406, -0.026244292, -0.086814135, -65807.86, 78267.26, 0.000017159802, 10.001368, 9.998184 
9.151545e+2, 2.9529703e+2, -28749.156, -241492.36, 49707.953, 0.014872975, -0.041671876, -17707.82, 28379.408, 0.00007135739, 10.000969, 9.998188 
9.1517526e+2, 3.052966e+2, 56807.25, -157000.84, 14030.278, 0.017920218, 0.09709103, 57723.996, 57723.996, 0.00020564985, 10.001182, 9.998318 
9.1519487e+2, 3.152958e+2, 189503.8, 8849.551, 74175.33, -0.05450994, 0.15191583, 216056.81, 216056.81, 0.00042848263, 10.00158, 9.999267 
9.248217e+2, 1.252764e+2, -1933123.9, -1677835.0, 45384.25, 0.04739041, -0.14121398, -1670006.9, 42279.313, 0.0000053718704, 9.997806, 10.001304 
9.248417e+2, 1.3527837e+2, -1796744.1, -1589806.4, -515.6867, 0.18564302, -0.07638682, -1589805.0, 24460.063, 0.00000033393198, 9.998255, 10.001021 
9.2486054e+2, 1.4527945e+2, -1662813.6, -1492344.3, 32371.05, 0.18764046, -0.0506798, -1486404.1, 29850.523, 0.0, 9.998554, 10.000854 
9.2487836e+2, 1.552805e+2, -1496591.3, -1363232.8, -6551.723, 0.010006687, -0.065794595, -1362911.6, 55334.4, 0.0, 9.999034, 10.000836 
9.2489845e+2, 1.6528179e+2, -1402999.9, -1247030.6, 25601.676, -0.00048545856, -0.024716612, -1242935.8, 77296.63, 0.0, 9.998918, 10.001021 
9.2492074e+2, 1.75283e+2, -1398176.1, -1200251.6, -16962.9, 0.14641932, -0.029020453, -1198808.4, 23408.262, 0.0, 9.998312, 10.00096 
9.2494017e+2, 1.8528298e+2, -1400088.9, -1381543.1, -56836.527, 0.12279277, -0.01666742, -1333228.0, -209010.27, 0.0, 9.998618, 9.998892 
9.2495716e+2, 1.9528149e+2, -1145897.0, -1206672.6, -7190.683, -0.061691146, -0.077371016, -1145057.9, -118821.164, 0.0, 9.999681, 9.998907 
9.249766e+2, 2.0528115e+2, -980886.06, -943926.8, 63982.457, -0.046486694, -0.056287274, -895808.75, 32432.799, 0.0, 9.999576, 10.000092 
9.2499816e+2, 2.1528153e+2, -1040937.0, -922005.7, 52202.746, 0.15748371, -0.054659195, -902343.0, -72106.13, 0.0, 9.998485, 10.000097 
9.250177e+2, 2.2528176e+2, -873887.9, -753572.75, 21608.316, 0.1972977, -0.052824188, -749809.6, -17576.545, 0.0, 9.998795, 10.000427 
9.250354e+2, 2.3528162e+2, -557262.75, -557650.4, -20363.34, 0.08974143, -0.13397762, -537092.3, 97140.19, 0.0, 10.000325, 10.000362 
9.250546e+2, 2.4528219e+2, -464641.66, -546150.9, 18246.13, 0.061326828, -0.06958569, -460743.63, 75484.16, 0.0, 10.000661, 9.999607 
9.25075e+2, 2.5528303e+2, -461806.75, -497630.7, -4736.515, 0.10137273, 0.028624259, -461191.1, -22968.668, 0.0, 10.000028, 9.999571 
9.250949e+2, 2.6528242e+2, -391589.47, -515888.47, 12656.756, 0.08573326, 0.06427486, -390313.78, -50084.027, 0.00000007319143, 10.000269, 9.998663 
9.2511463e+2, 2.7528012e+2, -155900.28, -353186.13, 6258.4683, 0.043396905, -0.05816933, -155701.95, 86550.1, 0.0000027897247, 10.001219, 9.998647 
9.2513514e+2, 2.8527826e+2, -29675.303, -293818.66, 47340.08, 0.039767854, -0.07634952, -21447.262, 122823.445, 0.000020180585, 10.001647, 9.998168 
9.251563e+2, 2.9527667e+2, 69070.04, -197122.94, 26236.88, 0.070919745, -0.08498537, 71631.39, 117919.164, 0.00008285034, 10.00165, 9.998156 
9.2517674e+2, 3.052766e+2, 148301.61, -153784.2, 9564.701, 0.027239557, 0.109627835, 148604.16, 148604.16, 0.0002292469, 10.0019455, 9.997988 
9.251971e+2, 3.1527644e+2, 269499.63, 39223.26, -31368.512, 0.0011199693, 0.26577675, 273696.22, 273696.22, 0.0004645645, 10.0021305, 9.999229 
9.348185e+2, 1.2525977e+2, -1962019.5, -1710636.5, 19957.22, -0.11450649, 0.017442565, -1709061.9, 3386.3643, 0.000009857008, 9.997721, 10.001109 
9.348395e+2, 1.352602e+2, -1794747.0, -1591128.9, 26572.283, 0.11265492, -0.07091384, -1587718.4, 26722.379, 0.0000009955157, 9.9983, 10.00098 
9.348595e+2, 1.4525996e+2, -1719055.6, -1620401.8, 34091.426, 0.18767482, -0.12563348, -1609767.3, -93323.66, 0.00000000002439963, 9.998602, 9.999955 
9.3487906e+2, 1.552606e+2, -1559073.3, -1487371.5, 24272.578, 0.14900051, -0.09454289, -1479927.6, -61485.625, 0.0, 9.999012, 9.999994 
9.348984e+2, 1.652615e+2, -1454926.4, -1344009.0, -15940.095, 0.06630993, -0.017147737, -1341763.6, -21328.793, 0.0, 9.998868, 10.000382 
9.3491715e+2, 1.7526253e+2, -1442329.5, -1286920.4, -25865.521, -0.0677755, 0.023075143, -1282728.5, -60304.137, 0.0, 9.998286, 10.0003805 
9.349375e+2, 1.8526296e+2, -1298595.3, -1151412.0, -27997.24, -0.036062703, 0.030049307, -1146266.3, -21847.383, 0.0, 9.998539, 10.000511 
9.3495923e+2, 1.9526245e+2, -1051670.9, -986057.06, 44136.383, 0.14996544, -0.09816135, -963870.2, 62552.203, 0.0, 9.999576, 10.000476 
9.3497854e+2, 2.0526297e+2, -991447.6, -938140.2, 8706.045, 0.1687152, -0.07152096, -936754.4, -8337.964, 0.0, 9.9994545, 10.000189 
9.349956e+2, 2.1526422e+2, -1062172.5, -930328.1, 28739.434, 0.03487313, 0.012557617, -924335.9, -93931.87, 0.0, 9.998323, 10.000123 
9.3501496e+2, 2.2526376e+2, -958549.4, -885008.56, 67766.14, 0.019074371, -0.0128975855, -844679.6, -112271.86, 0.0, 9.998607, 9.999615 
9.350362e+2, 2.3526143e+2, -638600.8, -686650.0, 47723.094, 0.11277025, -0.2342767, -609196.25, 25233.148, 0.0, 10.000151, 9.999564 
9.3505543e+2, 2.4526076e+2, -496918.16, -582356.1, -20016.629, 0.05232895, -0.24443106, -492461.1, 43975.344, 0.0, 10.000528, 9.999423 
9.350729e+2, 2.552613e+2, -492119.84, -537390.1, -12364.714, -0.13823931, -0.15637301, -488962.8, -50529.793, 0.0, 9.999914, 9.999361 
9.3509316e+2, 2.6526162e+2, -398668.56, -501382.78, 39525.406, -0.13749185, -0.024004012, -385219.72, -44788.016, 0.00000003612581, 10.0001545, 9.998811 
9.3511605e+2, 2.7526134e+2, -167242.47, -347405.94, 58184.094, 0.038743246, 0.042278413, -150085.66, 92350.77, 0.0000027030533, 10.001102, 9.998738 
9.351375e+2, 2.8525943e+2, -47053.195, -318220.22, 36931.32, 0.084995024, 0.019959288, -42113.363, 102342.18, 0.000022488803, 10.001589, 9.99803 
9.351578e+2, 2.95256e+2, 50617.242, -228416.42, 46467.652, 0.012941653, -0.16276535, 58152.066, 104640.305, 0.00009525127, 10.001609, 9.997964 
9.35178e+2, 3.0525476e+2, 63354.55, -312524.84, 11468.259, -0.07200472, -0.019782936, 63704.13, 63704.13, 0.00025879213, 10.0018835, 9.996924 
9.3519926e+2, 3.1525427e+2, 205544.2, -56231.586, 22285.227, -0.051917523, 0.20734473, 207427.81, 207427.81, 0.0005142612, 10.001983, 9.99864 
9.448174e+2, 1.2524086e+2, -1884259.6, -1693013.8, 23630.285, -0.0029837955, -0.0033664138, -1690137.3, 22493.559, 0.000016753027, 9.998304, 10.000964 
9.448374e+2, 1.3524103e+2, -1809137.4, -1619833.8, -24921.338, 0.08638763, -0.100486495, -1616607.9, -1980.542, 0.000002343361, 9.998274, 10.000807 
9.448578e+2, 1.4524077e+2, -1778773.9, -1660953.6, 45535.797, 0.18261667, -0.14630102, -1645406.4, -128774.914, 0.0000000053592455, 9.998238, 9.999855 
9.44879e+2, 1.5524161e+2, -1648501.4, -1551987.4, 59228.523, 0.27246994, -0.08112454, -1523845.8, -105218.195, 0.0, 9.998473, 9.999823 
9.4489825e+2, 1.6524209e+2, -1495282.8, -1401968.5, 72524.516, 0.18864039, -0.019841727, -1362389.4, -41764.297, 0.0, 9.9987545, 10.000035 
9.4491565e+2, 1.752421e+2, -1351874.4, -1279817.6, 56083.066, -0.0736891, -0.047211852, -1249187.5, -26562.14, 0.0, 9.999068, 10.000046 
9.4493586e+2, 1.8524268e+2, -1220189.0, -1056775.8, 58472.332, -0.0599091, -0.03817788, -1038008.56, 86609.695, 0.0, 9.998845, 10.0009985 
9.449586e+2, 1.9524334e+2, -1221809.6, -1013980.75, 18680.727, 0.21168129, -0.09639561, -1012314.94, 14293.561, 0.0, 9.998189, 10.000937 
9.4497824e+2, 2.0524412e+2, -1119742.1, -1026302.3, -44131.266, 0.242766, -0.056594897, -1008754.7, -80154.516, 0.0, 9.998673, 9.999964 
9.44995e+2, 2.1524481e+2, -819895.75, -833452.6, -74261.07, 0.062643245, -0.008976189, -752104.44, 78490.24, 0.0, 10.000076, 9.999936 
9.450143e+2, 2.2524439e+2, -755691.6, -827550.0, 7212.0566, 0.02210481, -0.0032225244, -754974.94, -22375.021, 0.0, 10.000192, 9.99924 
9.450358e+2, 2.3524265e+2, -801419.44, -801961.75, -4980.7266, 0.11266849, -0.12718078, -796702.5, -162084.73, 0.0, 9.999211, 9.999218 
9.4505537e+2, 2.4524179e+2, -670937.7, -656225.56, -22882.197, 0.06272515, -0.1417458, -639546.1, -102920.11, 0.0, 9.999288, 9.99951 
9.4507325e+2, 2.5524148e+2, -430479.9, -492276.75, -19102.693, -0.09933497, -0.15056247, -425051.7, 13576.366, 0.0, 10.0002775, 9.999484 
9.4509387e+2, 2.6524135e+2, -297936.6, -486637.7, 67800.83, -0.1134154, -0.055601228, -276102.06, 64528.035, 0.000000027783642, 10.000986, 9.998516 
9.4511694e+2, 2.75241e+2, -143928.05, -367040.47, 25111.867, 0.014817762, 0.03490482, -141136.56, 101499.484, 0.000002329391, 10.001394, 9.998467 
9.451388e+2, 2.8523925e+2, -56696.08, -321412.03, -3972.2854, 0.062294908, 0.04297042, -56636.484, 88017.414, 0.000023981273, 10.001522, 9.998047 
9.451595e+2, 2.952361e+2, 5645.8594, -247408.58, -11228.781, 0.049384713, -0.106676675, 6143.137, 52826.82, 0.00010679835, 10.001297, 9.997991 
9.451797e+2, 3.0523413e+2, -28772.367, -326505.6, 42784.38, -0.039892163, -0.05416633, -22746.205, -22746.205, 0.00028981623, 10.001139, 9.997183 
9.4520116e+2, 3.1523317e+2, 64471.656, -75124.484, 87099.42, 0.011377797, 0.10102798, 106289.36, 106289.36, 0.00057081727, 10.000813, 9.99907 
9.5481765e+2, 1.2521973e+2, -1911573.9, -1734160.4, -20444.055, 0.11940899, -0.20688921, -1731835.0, -19002.072, 0.00002677623, 9.998271, 10.000677 
9.5483494e+2, 1.3522099e+2, -1839185.0, -1661581.4, -16012.737, -0.010247268, -0.16816938, -1660149.3, -45325.297, 0.0000047533053, 9.998208, 10.000535 
9.548549e+2, 1.4522183e+2, -1741001.9, -1573714.5, 35583.402, 0.038203076, -0.12235606, -1566460.3, -49642.086, 0.000000046136613, 9.998186, 10.000485 
9.5487744e+2, 1.552237e+2, -1597437.8, -1457304.4, 81614.99, 0.24127635, -0.019817572, -1419805.5, -1004.06433, 0.0, 9.998516, 10.000453 
9.5489776e+2, 1.6522379e+2, -1501483.6, -1412504.0, 72214.95, 0.23164064, -0.024627969, -1372174.4, -51373.76, 0.0, 9.998748, 9.999966 
9.5491594e+2, 1.7522188e+2, -1361712.3, -1293101.4, 81842.07, 0.021938628, -0.2382356, -1238665.8, -15847.835, 0.0, 9.999038, 9.9999695 
9.54935e+2, 1.8522213e+2, -1273389.6, -1158942.9, 20916.059, -0.05411788, -0.22141448, -1155240.1, -30425.32, 0.0, 9.998799, 10.000325 
9.549549e+2, 1.952241e+2, -1280259.9, -1117117.9, 8602.196, -0.007329409, -0.083246894, -1116665.6, -89869.56, 0.0, 9.9981, 10.000277 
9.549753e+2, 2.0522454e+2, -1175865.3, -1107597.1, -6510.3057, 0.05834164, -0.018919963, -1106981.9, -178188.44, 0.0, 9.998526, 9.999477 
9.5499605e+2, 2.1522331e+2, -882792.9, -919397.4, -11352.757, 0.13540263, -0.11511121, -879557.75, -48748.945, 0.0, 9.999883, 9.999443 
9.550155e+2, 2.2522363e+2, -773392.44, -822365.1, -43432.19, 0.10386681, -0.015804805, -748019.6, -15210.377, 0.0, 10.000014, 9.999358 
9.550339e+2, 2.3522507e+2, -819808.44, -803011.56, -24621.168, -0.023505388, 0.17040479, -785395.9, -150596.81, 0.0, 9.999044, 9.999296 
9.550539e+2, 2.4522509e+2, -666452.75, -607366.8, 3318.1272, -0.027711226, 0.21732792, -607181.06, -70383.16, 0.0, 9.999129, 9.999913 
9.550756e+2, 2.5522348e+2, -424439.6, -453330.5, 31403.824, 0.085007645, 0.037556328, -404318.13, 34490.0, 0.0, 10.000164, 9.999803 
9.550966e+2, 2.6522157e+2, -367215.2, -602797.8, 70207.5, 0.044145532, -0.022247432, -347879.25, -7054.33, 0.000000030362223, 10.000875, 9.997767 
9.551169e+2, 2.7521902e+2, -208812.5, -478613.97, 58025.51, -0.14947356, -0.078245565, -196862.4, 45988.78, 0.000002140531, 10.001298, 9.997745 
9.551385e+2, 2.8521755e+2, -56304.023, -299651.06, -24708.572, -0.14194125, -0.015929813, -53820.55, 91046.54, 0.000025889522, 10.001435, 9.998237 
9.551611e+2, 2.9521695e+2, 7920.843, -224079.48, -899.5027, 0.0508135, 0.067457944, 7924.33, 54799.15, 0.00011778403, 10.001216, 9.998189 
9.5518154e+2, 3.052147e+2, 63967.867, -118524.43, 28290.934, 0.00825957, 0.01072858, 68253.055, 68253.055, 0.00031950467, 10.001069, 9.998647 
9.552019e+2, 3.1521273e+2, 153578.8, 120362.016, 101542.6, -0.057975147, -0.084004045, 239862.28, 239862.28, 0.00062882464, 10.00076, 10.0004425 
9.6481687e+2, 1.2519988e+2, -2023795.9, -1805604.0, -18531.701, 0.27212486, -0.24514928, -1804041.3, -91014.164, 0.000040530904, 9.99753, 10.000564 
9.648332e+2, 1.3520205e+2, -1847392.5, -1669803.0, -33668.996, 0.009910877, -0.11191958, -1663634.0, -48622.527, 0.000008656152, 9.998143, 10.000523 
9.64853e+2, 1.4520313e+2, -1690199.8, -1519266.6, 56979.1, 0.026381891, -0.053966448, -1502014.4, 14989.143, 0.00000019058375, 9.9984455, 10.000711 
9.6487564e+2, 1.5520456e+2, -1537925.3, -1403491.8, 33008.402, 0.19683549, -0.013185442, -1395824.4, 23165.043, 0.0, 9.99886, 10.00064 
9.648965e+2, 1.6520463e+2, -1458753.1, -1395354.0, 26393.52, 0.21905504, -0.025431028, -1385804.6, -64816.18, 0.0, 9.999075, 9.999918 
9.649158e+2, 1.7520311e+2, -1354959.9, -1300069.5, 7737.4175, 0.10860098, -0.19383046, -1298999.6, -75996.47, 0.0, 9.999132, 9.999874 
9.6493495e+2, 1.8520327e+2, -1209417.6, -1171487.1, -27276.326, 0.032930057, -0.16465063, -1157230.8, -32228.88, 0.0, 9.999408, 9.999961 
9.649537e+2, 1.9520466e+2, -1049940.6, -1050108.0, -40974.168, -0.014998678, -0.04309291, -1009050.0, 17938.518, 0.0, 9.999857, 9.999905 
9.649741e+2, 2.0520462e+2, -969714.44, -1029321.25, 23087.783, 0.021141455, 0.0016161748, -961817.9, -32827.01, 0.0, 10.00006, 9.999262 
9.649959e+2, 2.1520299e+2, -871238.06, -935475.5, 6845.8916, 0.13875651, -0.11439585, -870516.56, -39506.305, 0.0, 10.000074, 9.999228 
9.650159e+2, 2.2520326e+2, -701197.75, -779246.8, -17081.438, 0.12781362, -0.012494443, -697623.1, 35387.55, 0.0, 10.000461, 9.999449 
9.6503425e+2, 2.3520502e+2, -499655.97, -631643.75, -23920.145, 0.014569652, 0.19384943, -495454.66, 139541.73, 0.0, 10.001171, 9.999444 
9.6505463e+2, 2.452049e+2, -365917.38, -534504.9, 13058.688, 0.01767665, 0.25015613, -364911.84, 172085.2, 0.0, 10.001485, 9.999293 
9.650769e+2, 2.5520283e+2, -284037.4, -453447.03, -60022.535, 0.13902839, 0.09269657, -264926.97, 174086.53, 0.0, 10.001419, 9.999207 
9.6509814e+2, 2.6520053e+2, -267516.6, -517067.13, 4223.9, 0.092227235, 0.005746193, -267445.13, 73588.09, 0.000000012060779, 10.001387, 9.998109 
9.651185e+2, 2.7519757e+2, -185355.5, -432654.1, 41147.555, -0.11228468, -0.12569979, -178688.75, 64371.246, 0.0000023356135, 10.001303, 9.998055 
9.651398e+2, 2.8519621e+2, -97736.8, -330971.8, 1360.3497, -0.12498191, -0.06266524, -97728.87, 47345.06, 0.000028869204, 10.001203, 9.998123 
9.6516204e+2, 2.9519626e+2, -24451.957, -252666.58, -32789.6, 0.04511954, 0.09692366, -19834.225, 27242.754, 0.00012892728, 10.001062, 9.998056 
9.651828e+2, 3.0519372e+2, 146210.4, -84023.555, -19132.295, 0.020414175, 0.018237835, 147789.45, 147789.45, 0.00034703137, 10.001638, 9.9986105 
9.652046e+2, 3.151915e+2, 371000.06, 193731.02, -118095.78, 0.065806985, -0.100463465, 430022.88, 430022.88, 0.0006841425, 10.002397, 10.000147 
9.748143e+2, 1.2518114e+2, -2009337.3, -1754845.6, -44553.39, 0.19169731, -0.1254502, -1747271.3, -34056.01, 0.000058506626, 9.9974575, 10.000939 
9.748317e+2, 1.3518447e+2, -1812585.4, -1597029.9, -3346.315, 0.02233936, 0.07750808, -1596977.9, 18209.62, 0.00001444443, 9.998153, 10.001011 
9.748516e+2, 1.4518496e+2, -1714389.4, -1575465.8, 57335.34, 0.006513347, 0.071460515, -1554859.4, -37674.695, 0.0000005546723, 9.9984665, 10.00032 
9.7487307e+2, 1.5518422e+2, -1567737.3, -1461832.9, 65304.543, 0.025639076, -0.06607207, -1430710.0, -11518.763, 0.0, 9.998844, 10.000248 
9.74894e+2, 1.651846e+2, -1466739.9, -1406936.0, 11702.329, 0.03625597, -0.025548585, -1404727.6, -83538.36, 0.0, 9.999047, 9.999855 
9.7491485e+2, 1.751858e+2, -1362004.3, -1312256.8, 20095.988, 0.06732341, 0.085799254, -1305153.1, -81971.734, 0.0, 9.999116, 9.999801 
9.7493505e+2, 1.851861e+2, -1223941.1, -1183382.5, -22023.51, 0.08198067, 0.13537446, -1173723.9, -48544.9, 0.0, 9.999332, 9.999912 
9.749547e+2, 1.9518517e+2, -1066741.3, -1061946.3, -9603.045, 0.07503706, 0.026536938, -1054445.9, -27261.098, 0.0, 9.99976, 9.999866 
9.749745e+2, 2.051845e+2, -990604.75, -1042044.3, 8813.248, 0.029989861, 0.012588065, -989136.7, -59945.926, 0.0, 9.999923, 9.999245 
9.749943e+2, 2.1518378e+2, -897748.1, -952402.75, 20446.658, -0.051597103, -0.0074533704, -890945.56, -59745.95, 0.0, 9.999905, 9.999199 
9.750149e+2, 2.2518323e+2, -717971.75, -770074.9, -5674.415, -0.028551698, 0.004849735, -717360.9, 15843.845, 0.0, 10.000274, 9.999597 
9.750365e+2, 2.3518251e+2, -523730.28, -632981.8, 14170.798, 0.097071506, -0.05226192, -521922.13, 113287.37, 0.0, 10.000965, 9.999531 
9.75057e+2, 2.4518138e+2, -498350.97, -778349.3, -2629.854, 0.08716891, -0.018639047, -498326.25, 38895.71, 0.0, 10.0013485, 9.997686 
9.750767e+2, 2.5517955e+2, -407853.6, -684670.6, -45589.86, -0.05139635, 0.0071254997, -400538.56, 38705.883, 0.0, 10.001304, 9.997677 
9.750981e+2, 2.651781e+2, -184152.53, -320389.4, -11393.333, -0.07968477, 0.006900832, -183206.3, 158050.6, 0.0000000034767167, 10.001287, 9.999505 
9.7512114e+2, 2.751766e+2, -102319.16, -239668.06, 54274.684, -0.00639342, -0.116430454, -83461.2, 159801.94, 0.0000028342504, 10.001214, 9.999423 
9.751425e+2, 2.8517538e+2, -138256.84, -399743.56, -15723.374, -0.015720544, -0.08574615, -137314.78, 7958.527, 0.000032313746, 10.001142, 9.997679 
9.7516185e+2, 2.9517415e+2, -64478.645, -325070.44, -15702.399, -0.114359364, -0.008161307, -63535.88, -16246.263, 0.0001399921, 10.001018, 9.99758 
9.7518325e+2, 3.0517098e+2, 31466.447, -309425.03, 1262.9858, -0.12911105, -0.0457309, 31471.127, 31471.127, 0.00037284024, 10.001582, 9.997094 
9.752081e+2, 3.1516895e+2, 212124.86, -103350.0, -55426.816, 0.115189776, 0.0022192812, 221579.63, 221579.63, 0.00073526404, 10.002254, 9.998175 
9.848116e+2, 1.2516083e+2, -2076608.4, -1781063.6, 4242.7915, 0.21959789, -0.13291584, -1781002.8, -67588.47, 0.00008108169, 9.9969635, 10.001003 
9.8483056e+2, 1.3516411e+2, -1723850.1, -1553693.0, -32431.238, 0.07837623, 0.06380654, -1547721.3, 67665.414, 0.000022462764, 9.998743, 10.001036 
9.848511e+2, 1.4516453e+2, -1602748.9, -1539027.3, 8184.942, 0.07898817, 0.05687836, -1537992.6, -20607.78, 0.0000013019285, 9.999285, 10.000179 
9.848718e+2, 1.551636e+2, -1565463.0, -1476182.0, 1686.8767, 0.027534766, -0.089770466, -1476150.1, -56755.78, 0.0, 9.99891, 10.000114 
9.8489267e+2, 1.6516437e+2, -1491120.3, -1410486.5, 7372.527, 0.016765429, -0.008543915, -1409818.0, -88428.734, 0.0, 9.998841, 9.999933 
9.8491377e+2, 1.7516652e+2, -1350458.8, -1295495.4, 173.05617, 0.05526223, 0.19075799, -1295494.9, -72122.47, 0.0, 9.999156, 9.999895 
9.8493475e+2, 1.8516652e+2, -1226727.1, -1223985.1, -18866.166, 0.11837659, 0.22610573, -1206440.3, -81067.45, 0.0, 9.999486, 9.9995575 
9.8495555e+2, 1.9516422e+2, -1100137.5, -1118351.6, -60947.855, 0.1939787, 0.015271736, -1047620.06, -20227.742, 0.0, 9.999711, 9.999501 
9.849753e+2, 2.0516336e+2, -980669.2, -1011292.94, -28514.729, 0.12945361, -0.013322156, -963615.25, -34215.938, 0.0, 9.999854, 9.9995 
9.849939e+2, 2.1516354e+2, -890293.94, -921200.9, -21322.088, -0.06890233, 0.03086595, -879414.1, -48016.477, 0.0, 9.999829, 9.999454 
9.8501474e+2, 2.2516276e+2, -739087.5, -805929.6, 4195.6, -0.0689387, 0.019726431, -738825.1, -5421.5845, 0.0, 10.000222, 9.999381 
9.850377e+2, 2.3516084e+2, -539560.8, -663913.3, -27443.83, 0.12729491, -0.1360075, -533773.5, 101645.71, 0.0, 10.000948, 9.9993305 
9.8505867e+2, 2.4515943e+2, -500595.2, -783560.75, 6812.5884, 0.12263022, -0.11695755, -500431.25, 37002.895, 0.0, 10.001364, 9.99764 
9.850777e+2, 2.5515813e+2, -382468.44, -681197.8, 48310.45, -0.07504764, -0.03749062, -374849.97, 64602.45, 0.0, 10.001513, 9.997603 
9.850993e+2, 2.651569e+2, -176456.67, -348818.75, 91172.57, -0.087589055, 0.004646845, -137180.11, 204283.78, 0.00000001775074, 10.001482, 9.999226 
9.851233e+2, 2.7515548e+2, -108247.59, -277012.3, 884.53754, 0.08679299, -0.07712163, -108242.96, 135228.53, 0.000003544514, 10.001317, 9.99913 
9.8514485e+2, 2.8515393e+2, -62834.805, -415209.7, -79335.22, 0.07967237, -0.044023026, -45796.754, 99689.25, 0.00003520851, 10.001862, 9.997244 
9.85164e+2, 2.9515186e+2, 196134.83, -249624.06, -105849.125, -0.096498765, -0.0042749406, 219992.66, 267502.6, 0.00014922032, 10.003005, 9.997154 
9.8518574e+2, 3.051485e+2, 224201.97, -232360.23, -30038.035, -0.09571866, -0.03308359, 226169.75, 226169.75, 0.00039592202, 10.002996, 9.996932 
9.852115e+2, 3.1514636e+2, 79425.29, -229321.19, -53214.91, 0.2739425, 0.029135251, 88339.91, 88339.91, 0.0007798097, 10.001617, 9.997617 
9.9480784e+2, 1.2513885e+2, -2109610.0, -1837530.0, 26021.9, 0.09100235, -0.2768848, -1835063.6, -121438.64, 0.000108580556, 9.99693, 10.000621 
9.9482954e+2, 1.3514088e+2, -1757559.0, -1614580.5, 43432.426, 0.0715729, -0.16639788, -1602421.1, 13188.508, 0.000033028722, 9.998717, 10.000621 
9.9485123e+2, 1.4514175e+2, -1593645.0, -1523954.9, -26437.541, 0.124674655, -0.111428395, -1515060.8, 2544.152, 0.0000026281716, 9.999292, 10.000286 
9.948716e+2, 1.5514275e+2, -1549832.8, -1449863.3, -1589.7369, 0.08723516, -0.07599682, -1449838.0, -30239.85, 0.00000000019976186, 9.998928, 10.000293 
9.9489194e+2, 1.6514403e+2, -1478129.1, -1374829.0, 4035.54, 0.033685133, 0.033028945, -1374671.5, -53084.145, 0.0, 9.998811, 10.000189 
9.949123e+2, 1.7514522e+2, -1335100.6, -1261484.5, 25591.947, -0.032064673, 0.11056354, -1253462.0, -29885.744, 0.0, 9.999143, 10.000136 
9.949336e+2, 1.8514444e+2, -1289434.0, -1336441.0, -24787.63, 0.030805692, 0.09392947, -1278778.4, -153194.1, 0.0, 9.999416, 9.998818 
9.9495584e+2, 1.951416e+2, -1163861.9, -1226296.8, -39475.09, 0.2210477, -0.096740246, -1144752.3, -117139.36, 0.0, 9.999609, 9.998809 
9.94976e+2, 2.0514101e+2, -968714.75, -944437.8, -45180.0, 0.19944125, -0.09144571, -909794.06, 19824.125, 0.0, 9.9996805, 10.000039 
9.949944e+2, 2.1514224e+2, -878053.7, -852292.2, -9785.203, -0.025818516, 0.0018969809, -848996.94, -17392.521, 0.0, 9.999647, 10.0000105 
9.950149e+2, 2.2514199e+2, -806226.0, -895828.7, 18019.35, -0.09178242, 0.0409266, -802738.0, -69131.984, 0.0, 10.000015, 9.998863 
9.9503744e+2, 2.3514003e+2, -603111.6, -749268.7, 13693.149, -0.009099749, -0.06551442, -601839.8, 33785.45, 0.0, 10.000751, 9.99884 
9.95059e+2, 2.4513899e+2, -423112.78, -586433.8, -1805.9552, 0.003379504, -0.05761153, -423092.8, 114541.695, 0.0, 10.0012045, 9.999068 
9.950797e+2, 2.551385e+2, -306059.4, -488778.63, 67362.375, -0.05096149, -0.039664343, -283910.13, 155727.56, 0.0, 10.001362, 9.998998 
9.9510145e+2, 2.65137e+2, -335000.88, -651439.25, 72063.43, -0.04028319, 0.010503366, -319362.5, 22290.914, 0.000000028595345, 10.001372, 9.9972 
9.9512434e+2, 2.751342e+2, -264065.88, -577846.3, 13978.076, 0.033816874, -0.007730186, -263444.4, -19759.727, 0.000003781716, 10.001224, 9.99711 
9.951465e+2, 2.851317e+2, -100664.2, -474949.6, -46154.066, 0.033461023, 0.0517085, -95056.84, 50655.67, 0.000036350866, 10.0017805, 9.996871 
9.951679e+2, 2.9512936e+2, 162851.42, -297521.25, -41076.99, -0.038841315, 0.0977438, 166487.81, 214225.36, 0.00015456251, 10.002916, 9.996864 
9.951899e+2, 3.0512628e+2, 281475.25, -100005.18, -83189.76, -0.0024847712, 0.059694327, 298827.22, 298827.22, 0.00041193186, 10.002936, 9.997872 
9.952136e+2, 3.151237e+2, 109681.99, -135534.4, -66161.7, 0.25909126, -0.014576696, 126394.08, 126394.08, 0.0008105773, 10.001484, 9.998325 
1.0048055e+3, 1.2511767e+2, -1992563.8, -1762112.3, -53462.17, 0.14061147, -0.1638902, -1750313.6, -36475.637, 0.00014134821, 9.997645, 10.000794 
1.00482754e+3, 1.3511872e+2, -1879367.9, -1653351.9, -27229.482, 0.057795208, -0.16814598, -1650117.6, -34289.066, 0.000046426092, 9.997799, 10.00079 
1.0048498e+3, 1.4511962e+2, -1779893.9, -1581391.5, -63240.355, 0.13469921, -0.13233896, -1562956.0, -45134.105, 0.00000474816, 9.997908, 10.000544 
1.00487046e+3, 1.5512158e+2, -1610058.5, -1452653.0, -68542.875, 0.11432245, -0.023128211, -1426989.8, -7183.8228, 0.000000004412824, 9.998418, 10.000518 
1.0048913e+3, 1.6512254e+2, -1451492.1, -1368143.6, -29017.965, 0.08572018, 0.046781737, -1359036.1, -37238.79, 0.0, 9.999004, 10.000152 
1.0049124e+3, 1.7512225e+2, -1271418.1, -1231935.8, -54991.8, 0.05023685, -0.021058718, -1193249.1, 30549.191, 0.0, 9.99958, 10.000133 
1.0049337e+3, 1.8512148e+2, -1235160.8, -1291579.8, -70767.945, 0.09517434, -0.04553169, -1187187.1, -61381.023, 0.0, 9.999714, 9.998978 
1.0049552e+3, 1.9511998e+2, -1171497.9, -1211788.0, -44535.32, 0.21945897, -0.11717479, -1142763.3, -114940.49, 0.0, 9.999488, 9.998959 
1.00497566e+3, 2.0511976e+2, -970666.06, -972898.25, -6546.7056, 0.20077975, -0.070383824, -965141.0, -35315.348, 0.0, 9.99978, 9.999795 
1.004995e+3, 2.1512043e+2, -777147.6, -836455.4, -60142.63, 0.04341826, -0.0066223107, -739745.6, 92072.78, 0.0, 10.000466, 9.999732 
1.00501575e+3, 2.2512011e+2, -724728.06, -854589.0, -21934.236, -0.02835105, 0.03920343, -721123.3, 12698.108, 0.0, 10.000572, 9.9988785 
1.0050376e+3, 2.3511854e+2, -691322.94, -791741.6, -18533.908, -0.023853775, -0.028251156, -688011.44, -52174.438, 0.0, 10.000146, 9.998841 
1.0050596e+3, 2.4511759e+2, -512790.75, -609238.44, -16733.0, -0.011295563, -0.022319352, -509970.16, 27874.727, 0.0, 10.000498, 9.999252 
1.00508176e+3, 2.551169e+2, -260914.23, -438327.44, -68980.59, 0.022006238, -0.040426027, -237250.11, 202597.92, 0.0, 10.001572, 9.999227 
1.0051037e+3, 2.651154e+2, -251686.45, -647223.75, -43468.52, 0.026465543, 0.014570198, -246965.72, 94898.49, 0.000000017098808, 10.002101, 9.996871 
1.0051255e+3, 2.751127e+2, -169283.67, -561192.56, -3152.928, 0.0014192894, 0.03018006, -169258.3, 74638.85, 0.000003428396, 10.002006, 9.996836 
1.0051479e+3, 2.851102e+2, -50306.215, -400542.7, 84965.96, 0.0017042743, 0.0811618, -30782.188, 115142.63, 0.00003625069, 10.001921, 9.997306 
1.00517094e+3, 2.9510775e+2, 26251.773, -316860.22, 112167.62, 0.04481094, 0.074917264, 59666.59, 107615.4, 0.00015744341, 10.001769, 9.997283 
1.00519314e+3, 3.0510518e+2, 157152.67, -122785.78, 60857.156, 0.09238478, 0.050295293, 169810.38, 169810.38, 0.00042211023, 10.0019, 9.998229 
1.0052154e+3, 3.1510285e+2, 213121.14, -57281.99, -14539.566, 0.27429944, -0.037437692, 213900.69, 213900.69, 0.0008305699, 10.002043, 9.998614 
1.01480365e+3, 1.250974e+2, -1937708.4, -1631651.1, -108586.47, 0.1268633, 0.21814343, -1597039.6, 117013.336, 0.0001798155, 9.997598, 10.0017 
1.014824e+3, 1.3509779e+2, -1824377.8, -1531739.0, -13929.642, -0.10037654, 0.061976627, -1531077.4, 84965.18, 0.000062927356, 9.997775, 10.00163 
1.01484634e+3, 1.4509822e+2, -1764984.3, -1545701.1, -65387.777, -0.052854236, -0.0054232734, -1527683.6, -9647.982, 0.000007860604, 9.997881, 10.000804 
1.01486795e+3, 1.551001e+2, -1594417.3, -1418765.0, -36594.664, -0.010776393, 0.07163863, -1411446.0, 8571.764, 0.000000028517778, 9.998409, 10.000754 
1.0148904e+3, 1.6509996e+2, -1475535.5, -1412630.9, -22084.773, 0.06355752, 0.034314036, -1405651.6, -83633.23, 0.0, 9.998982, 9.999856 
1.0149137e+3, 1.750976e+2, -1290804.1, -1274369.9, -22173.998, 0.19149357, -0.21245614, -1258939.4, -34900.33, 0.0, 9.999584, 9.999842 
1.0149347e+3, 1.8509759e+2, -1170010.6, -1140199.1, -94561.98, 0.19503681, -0.19901702, -1059375.3, 66663.13, 0.0, 9.999647, 10.000049 
1.01495355e+3, 1.9509952e+2, -1113369.3, -1066539.1, -40494.652, 0.074729234, -0.036071397, -1043177.25, -15156.728, 0.0, 9.99938, 10.000009 
1.0149738e+3, 2.0509979e+2, -1066352.5, -1136802.3, 5625.1567, 0.01628899, 0.060656104, -1065906.1, -135885.97, 0.0, 9.999635, 9.998738 
1.0149955e+3, 2.1509816e+2, -873399.9, -997259.8, -23037.54, 0.01985115, -0.00011823065, -869253.75, -37214.23, 0.0, 10.000301, 9.998704 
1.0150168e+3, 2.2509721e+2, -722281.7, -801788.9, -52772.03, 0.0023411205, 0.010078872, -695965.3, 38083.93, 0.0, 10.00037, 9.999336 
1.0150378e+3, 2.3509659e+2, -684590.4, -737013.2, -20833.188, -0.040352214, -0.01128506, -677319.56, -41266.867, 0.0, 9.999969, 9.9993 
1.0150601e+3, 2.4509543e+2, -612079.9, -772322.44, 7849.256, -0.031558488, 0.0050594043, -611696.3, -73633.37, 0.0, 10.000319, 9.998219 
1.01508364e+3, 2.5509343e+2, -352173.06, -596325.5, -14363.264, 0.023368914, -0.042374168, -351331.0, 88751.766, 0.0, 10.001434, 9.998212 
1.0151058e+3, 2.6509205e+2, -168875.6, -448462.94, -57074.344, -0.0057143364, 0.0035014837, -157673.4, 184423.56, 0.000000011022683, 10.0019865, 9.99829 
1.01512656e+3, 2.7509096e+2, -86972.11, -360361.44, 12210.341, -0.1263841, 0.042857267, -86427.84, 157680.75, 0.0000031084232, 10.001876, 9.998277 
1.0151488e+3, 2.8508937e+2, 10665.312, -246716.86, 65545.86, -0.11957343, 0.05505707, 26396.023, 172519.72, 0.000035475467, 10.001809, 9.99841 
1.01517275e+3, 2.95087e+2, 78965.89, -171341.98, 123944.63, 0.0070629218, -0.05688867, 129953.32, 178098.0, 0.00015874387, 10.001626, 9.998344 
1.01519495e+3, 3.0508518e+2, 133473.84, -155617.81, 56723.387, 0.057219688, -0.049319673, 144205.31, 144205.31, 0.00042931808, 10.001827, 9.99804 
1.015216e+3, 3.1508356e+2, 175824.67, -86807.086, 35749.363, 0.06953487, -0.047956005, 180603.89, 180603.89, 0.00084597495, 10.00185, 9.998498 
1.02480166e+3, 1.2507534e+2, -1937993.8, -1610963.3, 50872.64, 0.19187869, 0.24616155, -1603232.3, 111038.33, 0.00022439056, 9.997485, 10.001914 
1.0248219e+3, 1.3507573e+2, -1789947.3, -1500831.6, 55302.668, -0.07837767, 0.07845597, -1490614.3, 125644.266, 0.0000828242, 9.997939, 10.0017805 
1.0248445e+3, 1.4507589e+2, -1708129.4, -1554422.1, 4785.677, -0.03365604, -0.0075444533, -1554273.3, -36019.996, 0.000012107546, 9.998418, 10.000491 
1.02486685e+3, 1.5507711e+2, -1501381.0, -1408790.6, -39358.87, 0.008636024, 0.033602446, -1394321.0, 25920.85, 0.00000009714164, 9.999193, 10.000444 
1.02488965e+3, 1.6507694e+2, -1441112.3, -1376162.6, -23892.705, 0.09707904, 0.0017341421, -1368320.3, -46076.996, 0.0, 9.999155, 10.000008 
1.0249132e+3, 1.7507528e+2, -1444123.5, -1326234.1, -19874.488, 0.24827828, -0.18965445, -1322973.8, -98715.76, 0.0, 9.9984665, 10.000009 
1.0249342e+3, 1.8507579e+2, -1268865.0, -1148160.3, -58290.523, 0.23210627, -0.15230075, -1124606.8, 1645.5782, 0.0, 9.99877, 10.000427 
1.02495275e+3, 1.9507807e+2, -1005431.3, -974967.75, -79576.4, 0.03804397, 0.008402866, -909178.5, 119051.55, 0.0, 9.999932, 10.000382 
1.02497354e+3, 2.0507815e+2, -953381.0, -1128037.0, -9736.524, -0.021736292, 0.08982994, -952839.94, -22608.225, 0.0, 10.000617, 9.998328 
1.02499634e+3, 2.1507584e+2, -824453.75, -1020847.1, -20610.104, 0.054040365, 0.0045109103, -822314.2, 9944.914, 0.0, 10.000856, 9.998276 
1.0250181e+3, 2.2507462e+2, -635867.44, -762958.6, -44249.63, 0.06668359, 0.010906337, -621978.75, 112293.375, 0.0, 10.000978, 9.999306 
1.02503866e+3, 2.3507416e+2, -555489.5, -679539.0, -76249.29, 0.011842451, 0.010952739, -519223.75, 117050.27, 0.0, 10.000889, 9.999249 
1.025061e+3, 2.4507293e+2, -497537.53, -710955.25, 37031.53, 0.0031766633, 0.022935802, -491294.56, 46989.66, 0.0, 10.00109, 9.998257 
1.0250851e+3, 2.550707e+2, -341665.7, -589922.25, 60873.26, 0.035582736, -0.054580893, -327542.8, 112762.88, 0.0, 10.001502, 9.998222 
1.0251073e+3, 2.6506928e+2, -249406.95, -445746.72, -733.6126, -0.0023828547, -0.030653471, -249404.22, 92914.734, 0.00000001218603, 10.001253, 9.998663 
1.02512784e+3, 2.750684e+2, -283596.97, -410231.53, -38779.535, -0.097590946, -0.0107574845, -272665.13, -28337.943, 0.0000027111198, 10.00034, 9.99867 
1.0251501e+3, 2.850672e+2, -189335.23, -287397.56, 10804.451, -0.084805146, -0.0028029454, -188158.9, -41821.137, 0.00003356842, 10.000198, 9.998911 
1.025174e+3, 2.9506537e+2, -20118.207, -163893.67, -7361.279, 0.03473817, -0.10777757, -19742.293, 28611.545, 0.00015737157, 10.000709, 9.998842 
1.0251967e+3, 3.0506423e+2, 110822.27, -109347.92, -26021.947, 0.084502906, -0.07525904, 113856.016, 113856.016, 0.00043278775, 10.001455, 9.998519 
1.0252184e+3, 3.1506273e+2, 264193.72, 24011.025, -50464.45, 0.12650084, -0.11175964, 274365.9, 274365.9, 0.00085734465, 10.002168, 9.999096 
1.03479855e+3, 1.2505126e+2, -1968699.5, -1686706.4, 9433.141, 0.06843185, -0.11770736, -1686391.1, 28100.848, 0.00027553758, 9.997535, 10.0013685 
1.03482105e+3, 1.350526e+2, -1836208.9, -1599346.0, 81275.12, 0.008645449, -0.1267727, -1574140.3, 42334.438, 0.000106410545, 9.997945, 10.001103 
1.0348444e+3, 1.4505267e+2, -1769137.9, -1683989.3, 15901.23, 0.06398736, -0.13984168, -1681116.8, -162642.98, 0.000017580353, 9.998433, 9.999593 
1.0348668e+3, 1.5505245e+2, -1557848.6, -1533378.4, 1612.1606, 0.0511188, -0.1564732, -1533272.6, -112793.24, 0.00000023822265, 9.999218, 9.999579 
1.0348887e+3, 1.6505343e+2, -1406686.6, -1294965.8, -68776.51, 0.05515136, -0.06195623, -1262222.6, 60249.816, 0.0, 9.999119, 10.000579 
1.0349105e+3, 1.7505534e+2, -1411774.8, -1249097.4, -32825.438, 0.10889935, 0.047090393, -1242723.6, -18268.902, 0.0, 9.998421, 10.000561 
1.0349318e+3, 1.850562e+2, -1302845.9, -1196896.6, -29274.271, 0.08922244, 0.1063412, -1189346.0, -62899.54, 0.0, 9.998681, 10.0001335 
1.03495255e+3, 1.9505565e+2, -1040655.6, -1024869.5, -25836.951, -0.0062442627, 0.012559601, -1005746.8, 22704.404, 0.0, 9.99983, 10.00009 
1.0349742e+3, 2.0505483e+2, -966670.1, -1117168.0, -15792.493, -0.024957296, 0.012044184, -965030.8, -34570.33, 0.0, 10.000451, 9.998481 
1.0349972e+3, 2.1505342e+2, -830466.06, -1004881.0, 3196.1045, 0.040848844, -0.001984713, -830407.5, 2070.0452, 0.0, 10.000723, 9.998451 
1.035019e+3, 2.2505227e+2, -701842.6, -854630.3, -60926.9, 0.05286677, 0.028099602, -680522.06, 53968.574, 0.0, 10.000791, 9.998765 
1.0350398e+3, 2.3505113e+2, -616750.5, -766626.8, -65559.9, 0.008867433, 0.014100706, -592120.44, 44381.457, 0.0, 10.000717, 9.998733 
1.035062e+3, 2.4505e+2, -455512.56, -580878.44, 42501.008, -0.030110357, 0.012113344, -442462.5, 96047.42, 0.0, 10.000908, 9.999239 
1.03508584e+3, 2.5504863e+2, -294115.63, -455679.94, 93199.4, -0.06185425, -0.075843684, -251561.33, 188955.8, 0.0, 10.00135, 9.999216 
1.0351081e+3, 2.6504716e+2, -310139.5, -543721.9, -48579.22, -0.069142446, -0.08155741, -300439.13, 42090.56, 0.00000000560088, 10.001136, 9.998044 
1.0351289e+3, 2.7504504e+2, -344419.2, -510421.94, -56525.64, -0.050777588, -0.11968547, -326999.56, -82447.836, 0.0000022721786, 10.000238, 9.998028 
1.0351511e+3, 2.850437e+2, -201708.11, -300797.03, 17626.805, -0.025561698, -0.08968313, -198665.9, -52099.707, 0.000031172072, 10.000145, 9.998844 
1.03517465e+3, 2.9504305e+2, -40006.11, -179258.36, 33240.086, -0.008796675, -0.07070092, -32478.486, 16095.023, 0.00015322318, 10.000601, 9.998788 
1.0351981e+3, 3.0504256e+2, 164558.58, 24602.428, -8889.864, 0.05724653, -0.021804413, 165120.98, 165120.98, 0.00043103905, 10.001366, 9.999478 
1.03522144e+3, 3.150408e+2, 312299.78, 184882.39, 20579.615, 0.1561108, -0.17983355, 315541.2, 315541.2, 0.0008619147, 10.001938, 10.0002985 
1.0447964e+3, 1.2502822e+2, -1967995.3, -1767196.4, -45931.016, 0.08601718, -0.24314372, -1757188.9, -42478.895, 0.0003338259, 9.997872, 10.000653 
1.0448203e+3, 1.3502969e+2, -1659721.3, -1599519.9, -8903.583, 0.0862494, -0.16403396, -1598230.6, 18465.03, 0.00013404706, 9.999511, 10.000341 
1.044844e+3, 1.4502968e+2, -1590909.9, -1609499.5, -45922.133, 0.13315137, -0.14217421, -1553351.4, -34654.004, 0.000024406929, 9.999711, 9.999487 
1.0448664e+3, 1.5502897e+2, -1627222.1, -1571734.5, -37307.504, 0.1126281, -0.19556612, -1552985.6, -132278.3, 0.0000004785213, 9.998786, 9.999517 
1.0448877e+3, 1.6502999e+2, -1490636.4, -1327572.4, -72897.484, 0.08462168, -0.0979673, -1299735.8, 22964.322, 0.0, 9.998495, 10.0006695 
1.0449087e+3, 1.7503239e+2, -1340610.6, -1205130.5, -98236.984, 0.06881877, 0.051696576, -1153542.4, 71135.96, 0.0, 9.998863, 10.000653 
1.0449303e+3, 1.8503317e+2, -1229097.1, -1194947.0, -47923.484, 0.054268114, 0.11444197, -1161147.5, -34475.465, 0.0, 9.999348, 9.999821 
1.04495265e+3, 1.9503206e+2, -1043805.06, -1058941.5, -77793.73, 0.03618043, -0.0029589692, -973212.25, 55471.49, 0.0, 9.999965, 9.9997835 
1.0449751e+3, 2.0503132e+2, -967450.0, -1047073.1, -58509.43, 0.04636634, -0.012584813, -936492.1, -5800.2856, 0.0, 10.000135, 9.999115 
1.0449978e+3, 2.1503063e+2, -926748.7, -977734.0, -30846.04, 0.09062665, -0.018141825, -912224.44, -79524.69, 0.0, 9.999755, 9.999099 
1.0450196e+3, 2.2502981e+2, -818104.94, -918949.1, -20176.309, 0.0826267, 0.019664109, -814218.0, -79509.42, 0.0, 10.00001, 9.998711 
1.0450406e+3, 2.3502862e+2, -600366.06, -769332.1, -17815.586, 0.019329261, 0.0071212505, -598508.06, 38213.227, 0.0, 10.00085, 9.998663 
1.04506284e+3, 2.450275e+2, -442260.22, -571553.4, 83952.62, -0.031891987, 0.004581204, -400948.22, 137781.44, 0.0, 10.000974, 9.999279 
1.0450865e+3, 2.5502613e+2, -429894.3, -516096.56, 35378.363, -0.06556805, -0.086645775, -417234.03, 23502.305, 0.0, 10.000394, 9.999263 
1.045109e+3, 2.650245e+2, -373470.84, -586187.94, -88709.29, -0.06379554, -0.10251453, -341332.16, 1417.267, 0.0000000009945924, 10.000741, 9.997955 
1.0451301e+3, 2.7502212e+2, -107040.375, -410807.6, -85283.27, -0.024997458, -0.1598622, -84734.81, 160038.77, 0.0000020282196, 10.001901, 9.997929 
1.0451526e+3, 2.850205e+2, 39879.805, -230813.25, 12468.337, 0.027428033, -0.131408, 40452.895, 187243.69, 0.00002862313, 10.001991, 9.998441 
1.0451764e+3, 2.950196e+2, -11955.633, -207068.6, -29622.236, 0.09973973, -0.09768451, -7557.4966, 41244.113, 0.00014660136, 10.000965, 9.998422 
1.0451999e+3, 3.0501926e+2, 90622.805, -47669.184, -56736.42, 0.1366732, -0.0027574287, 110920.59, 110920.59, 0.00042212423, 10.001002, 9.99916 
1.045223e+3, 3.1501752e+2, 278847.94, 141979.6, -166926.03, 0.1381684, -0.119923376, 390823.13, 390823.13, 0.0008537748, 10.001764, 10.0001135 
1.054794e+3, 1.250062e+2, -2027439.0, -1881384.5, -40694.86, -0.0033586808, -0.13834345, -1870811.3, -155885.73, 0.00039971265, 9.997851, 9.999869 
1.0548196e+3, 1.3500704e+2, -1718883.0, -1722968.3, 63700.05, 0.02407298, -0.033074323, -1657192.8, -40271.332, 0.00016604259, 9.99952, 9.999488 
1.054843e+3, 1.4500707e+2, -1538210.9, -1507153.5, -103064.984, 0.027977718, 0.0008928326, -1418453.9, 100468.734, 0.000032768716, 9.999737, 10.000178 
1.054865e+3, 1.5500686e+2, -1580645.8, -1478001.6, -61021.035, 0.076205954, -0.076094344, -1449589.6, -28665.768, 0.0000008393984, 9.998786, 10.000167 
1.0548862e+3, 1.6500674e+2, -1525761.0, -1387642.1, -73516.62, 0.06086845, -0.10075582, -1355835.9, -32910.914, 0.0, 9.998447, 10.000275 
1.0549072e+3, 1.750064e+2, -1369399.0, -1262578.6, -73358.914, 0.01063194, -0.18759024, -1225246.4, -317.2717, 0.0, 9.998853, 10.000263 
1.0549294e+3, 1.8500666e+2, -1268237.0, -1257903.6, -42125.027, 0.008536013, -0.13822927, -1220629.6, -93700.33, 0.0, 9.9992695, 9.999427 
1.05495304e+3, 1.9500722e+2, -1083103.8, -1122379.4, -41979.367, 0.048417207, -0.051495567, -1056396.0, -27468.045, 0.0, 9.999878, 9.999394 
1.05497584e+3, 2.0500763e+2, -912754.2, -897761.75, -88846.945, 0.080099456, 0.017104331, -816095.3, 114829.96, 0.0, 9.999985, 10.000213 
1.0549979e+3, 2.1500748e+2, -874024.25, -833843.2, -32950.758, 0.10227016, -0.04295889, -815341.2, 17583.87, 0.0, 9.999598, 10.000167 
1.0550195e+3, 2.250073e+2, -822496.6, -879312.1, -1112.2561, 0.050840512, -0.0145635065, -822474.9, -87548.79, 0.0, 9.9998045, 9.999076 
1.05504066e+3, 2.3500676e+2, -596916.9, -723173.25, 27480.6, -0.07064647, -0.0030513313, -591194.8, 45736.582, 0.0, 10.000683, 9.999058 
1.0550631e+3, 2.4500552e+2, -530491.94, -717533.4, 47059.35, -0.12032398, 0.010916922, -519319.25, 19623.113, 0.0, 10.000816, 9.998351 
1.0550869e+3, 2.550033e+2, -513855.3, -660618.5, 25215.9, -0.095561616, -0.07671623, -509643.75, -68681.75, 0.0, 10.000265, 9.998332 
1.05510965e+3, 2.6500142e+2, -363158.84, -534777.94, -57509.98, -0.09909673, -0.09108678, -345669.4, -2691.5955, 0.000000000012280949, 10.000619, 9.998361 
1.05513126e+3, 2.749996e+2, -94626.45, -357234.72, -23598.809, -0.13722032, -0.13373637, -92522.64, 152469.56, 0.0000016155456, 10.001784, 9.998347 
1.0551543e+3, 2.8499767e+2, -22102.44, -339359.9, -39381.15, -0.036014766, -0.12184071, -17287.145, 129723.26, 0.000025306648, 10.001908, 9.997736 
1.0551789e+3, 2.9499528e+2, -75301.16, -320539.88, -47169.52, 0.21254013, -0.17013673, -66541.41, -17505.404, 0.00013793015, 10.000893, 9.997679 
1.0552017e+3, 3.049944e+2, -17726.367, -268087.3, -32702.38, 0.18352826, -0.009612152, -13525.247, -13525.247, 0.00040720604, 10.000974, 9.997662 
1.0552223e+3, 3.149932e+2, 153676.38, -79952.99, -86148.89, -0.16943698, 0.07036483, 182007.48, 182007.48, 0.00083313056, 10.0016, 9.99867 
1.06479295e+3, 1.2498272e+2, -1874548.3, -1788896.0, -67987.54, 0.07838203, -0.06436023, -1751370.5, -36212.99, 0.00047318285, 9.998827, 10.000041 
1.0648189e+3, 1.3498269e+2, -1847598.3, -1762791.8, 63024.176, 0.06588273, -0.060702626, -1729233.9, -112073.27, 0.00020250746, 9.998557, 9.999682 
1.0648418e+3, 1.4498292e+2, -1715184.4, -1556815.5, -84431.06, 0.006787738, -0.033204496, -1520246.9, -1087.6556, 0.000042863663, 9.998363, 10.000508 
1.06486425e+3, 1.5498349e+2, -1588751.9, -1441704.5, -104408.13, 0.14844781, -0.06292475, -1387530.1, 33622.164, 0.0000013547858, 9.998565, 10.00052 
1.0648855e+3, 1.6498348e+2, -1497799.1, -1407493.1, -64771.563, 0.13511144, -0.08120218, -1373689.5, -50536.77, 0.0, 9.998764, 9.999994 
1.0649059e+3, 1.7498264e+2, -1381051.1, -1300526.4, -85567.766, 0.00031129745, -0.18804157, -1246221.8, -21058.766, 0.0, 9.9989, 9.99999 
1.0649283e+3, 1.8498279e+2, -1300101.9, -1232742.1, 7395.35, -0.005566575, -0.15506217, -1231939.8, -104775.97, 0.0, 9.998863, 9.999797 
1.06495276e+3, 1.9498362e+2, -1229225.4, -1152093.1, 37011.457, 0.105974205, -0.078584656, -1137206.5, -108048.73, 0.0, 9.99869, 9.999764 
1.06497586e+3, 2.049842e+2, -1062518.6, -968415.4, 556.0329, 0.14484571, -0.011319102, -968412.1, -37259.3, 0.0, 9.998956, 10.000217 
1.06499754e+3, 2.1498428e+2, -861198.2, -823963.06, -57260.086, 0.11774026, -0.04899109, -782369.9, 50781.625, 0.0, 9.999687, 10.000183 
1.0650197e+3, 2.2498415e+2, -721548.0, -833085.25, -26128.36, 0.056957956, -0.014518925, -715730.6, 19421.621, 0.0, 10.000502, 9.999059 
1.065042e+3, 2.3498355e+2, -501839.97, -674897.56, -52774.69, -0.029625615, -0.0079464605, -487015.9, 150141.98, 0.0, 10.001337, 9.999065 
1.0650648e+3, 2.4498232e+2, -440701.25, -694855.2, -47932.18, -0.061798226, 0.01489774, -431962.0, 107207.43, 0.0, 10.001525, 9.998164 
1.065088e+3, 2.549801e+2, -413354.1, -636570.56, -42721.12, -0.044437844, -0.04822408, -405457.13, 35733.305, 0.0, 10.001057, 9.998121 
1.06511086e+3, 2.649781e+2, -285840.44, -495595.47, -35805.445, -0.052862365, -0.06122833, -279896.8, 63310.63, 0.0, 10.001133, 9.998383 
1.0651333e+3, 2.749762e+2, -119457.46, -360808.16, -66094.664, -0.07681378, -0.12024081, -102542.68, 142679.47, 0.00000091217555, 10.00159, 9.99841 
1.06515646e+3, 2.849739e+2, -18335.639, -385232.25, -93400.71, -0.0057034683, -0.13154268, 4072.7385, 151316.16, 0.000020761427, 10.002131, 9.997318 
1.0651801e+3, 2.9497063e+2, 166059.56, -253914.86, -110259.45, 0.16832954, -0.21588047, 193246.92, 242523.02, 0.00012637535, 10.002742, 9.997254 
1.0652029e+3, 3.049694e+2, 199705.75, -261398.42, -17011.752, 0.1280897, -0.03301135, 200332.52, 200332.52, 0.00038601994, 10.002895, 9.996771 
1.0652246e+3, 3.14968e+2, 207827.84, -130359.1, -76886.35, -0.12201241, 0.111791365, 224487.2, 224487.2, 0.0008001297, 10.002316, 9.997953 
1.07479274e+3, 1.2495751e+2, -1799430.3, -1623839.1, -99049.37, 0.109030835, -0.04491214, -1579276.0, 136133.27, 0.00055371417, 9.998814, 10.001167 
1.0748178e+3, 1.3495658e+2, -1771085.8, -1590883.4, 56712.957, 0.08317462, -0.25253764, -1574520.6, 42893.07, 0.00024334127, 9.998511, 10.000876 
1.07483976e+3, 1.449571e+2, -1718790.9, -1562067.0, -97958.5, -0.0671435, -0.2574181, -1514983.9, 4423.9063, 0.00005483326, 9.998341, 10.000488 
1.07486375e+3, 1.5495874e+2, -1586444.1, -1442722.6, -82958.25, 0.20551711, -0.17808904, -1404829.0, 16565.297, 0.000002073113, 9.998578, 10.000511 
1.0748851e+3, 1.6496022e+2, -1514660.4, -1430640.4, -76252.01, 0.19446176, -0.039524302, -1385591.8, -62208.113, 0.0000000000166348, 9.998723, 9.99985 
1.0749044e+3, 1.7496122e+2, -1394730.3, -1322292.8, -67145.85, -0.06588179, 0.048877988, -1282220.1, -56841.56, 0.0, 9.998871, 9.999853 
1.0749265e+3, 1.8496174e+2, -1236396.5, -1076781.8, -13526.771, -0.09912609, 0.07035473, -1075643.5, 51730.023, 0.0, 9.99877, 10.000909 
1.0749515e+3, 1.9496134e+2, -1167364.4, -993892.3, 43619.914, 0.09059251, -0.0890088, -983541.56, 45830.523, 0.0, 9.998567, 10.000906 
1.0749748e+3, 2.0496114e+2, -1167996.1, -1151169.1, 11450.299, 0.13078985, -0.09768867, -1145373.6, -214000.2, 0.0, 9.998799, 9.999042 
1.0749966e+3, 2.1496092e+2, -964613.3, -1002048.06, -16059.801, 0.021098763, -0.050505053, -958667.8, -125287.88, 0.0, 9.999522, 9.999043 
1.0750197e+3, 2.2496034e+2, -776072.75, -897788.6, -7085.391, -0.010434831, 0.01255672, -775661.7, -40273.938, 0.0, 10.0002985, 9.998712 
1.0750442e+3, 2.349591e+2, -554684.4, -739927.0, -4899.5073, 0.0357213, -0.010865485, -554554.9, 82844.98, 0.0, 10.001144, 9.9987135 
1.0750675e+3, 2.4495788e+2, -438120.6, -643236.1, -75910.55, 0.03172179, 0.012053205, -413083.25, 126327.28, 0.0, 10.001333, 9.998606 
1.0750895e+3, 2.5495645e+2, -396211.25, -572737.6, -44204.32, -0.026288033, -0.019892592, -385760.66, 55661.875, 0.0, 10.000935, 9.998614 
1.07511245e+3, 2.6495463e+2, -336459.34, -564268.9, -31403.393, -0.027714016, -0.026901908, -332209.7, 11228.986, 0.000000000031670343, 10.000983, 9.997984 
1.0751362e+3, 2.7495196e+2, -167856.47, -434024.4, -29452.732, 0.025500903, -0.118686065, -164636.34, 80826.336, 0.00000057346807, 10.001471, 9.997971 
1.0751588e+3, 2.8494912e+2, -38961.91, -405788.63, -83048.33, -0.011136649, -0.14835617, -21036.04, 126452.92, 0.000016841232, 10.00204, 9.997216 
1.07518e+3, 2.9494596e+2, 145615.39, -268894.78, -63164.93, -0.14492366, -0.2221512, 155027.05, 204546.53, 0.000114238224, 10.002627, 9.997204 
1.0752035e+3, 3.0494428e+2, 162336.05, -328554.97, -38778.008, -0.14038718, -0.059418324, 165380.44, 165380.44, 0.0003625103, 10.002845, 9.996339 
1.07522875e+3, 3.1494182e+2, 159858.55, -202290.88, -37042.31, -0.0074994736, 0.023392955, 163608.58, 163608.58, 0.00076317973, 10.002185, 9.997536 
1.0847921e+3, 1.2493354e+2, -1829028.8, -1621498.1, 73024.57, 0.19954035, -0.04509357, -1598378.4, 117268.51, 0.00064071716, 9.998494, 10.001359 
1.0848165e+3, 1.3493304e+2, -1820663.6, -1583074.5, 70929.94, 0.14493126, -0.23969077, -1563510.1, 54135.715, 0.00028839763, 9.998016, 10.001176 
1.0848374e+3, 1.4493376e+2, -1774728.0, -1585741.8, -43921.05, -0.101188846, -0.23860024, -1576033.1, -56395.18, 0.00006873226, 9.99798, 10.000478 
1.0848622e+3, 1.5493543e+2, -1568880.8, -1436755.6, -70449.57, 0.19855465, -0.15381545, -1406239.6, 15386.06, 0.0000030594845, 9.998728, 10.00047 
1.08488426e+3, 1.6493694e+2, -1425473.8, -1384263.6, -37515.168, 0.2137011, -0.0123690665, -1362067.4, -38452.598, 0.000000000186287, 9.999314, 9.999885 
1.0849038e+3, 1.7493805e+2, -1260773.8, -1254646.9, -46957.37, -0.039135344, 0.081232555, -1210653.1, 14954.387, 0.0, 9.999781, 9.999876 
1.0849259e+3, 1.8493849e+2, -1074936.9, -1004174.75, -22049.035, -0.07751107, 0.0992211, -997866.75, 129735.37, 0.0, 9.999898, 10.000871 
1.0849506e+3, 1.94938e+2, -1027717.44, -930365.1, -82904.75, 0.09903246, -0.06178656, -882903.0, 146698.22, 0.0, 9.999559, 10.000863 
1.0849741e+3, 2.0493774e+2, -1033895.3, -1092117.8, -52420.55, 0.14356264, -0.07163069, -1003045.06, -71442.305, 0.0, 9.999749, 9.998982 
1.0849967e+3, 2.1493734e+2, -832139.25, -948515.6, -30765.875, 0.05184393, -0.035214137, -824506.44, 9103.804, 0.0, 10.000483, 9.998945 
1.0850206e+3, 2.249364e+2, -734367.56, -896237.94, 33236.254, 0.047707174, 0.005368514, -727809.06, 7812.4683, 0.0, 10.0006695, 9.998548 
1.0850458e+3, 2.3493461e+2, -689007.3, -823835.1, 14907.028, 0.1331023, -0.05200934, -687378.8, -49739.574, 0.0, 10.000309, 9.998544 
1.0850691e+3, 2.4493328e+2, -545029.1, -697789.56, -38468.41, 0.11520765, -0.036299877, -535888.8, 3763.2449, 0.0, 10.000579, 9.99862 
1.0850907e+3, 2.5493208e+2, -338786.72, -545540.2, -65224.258, -0.0039442, -0.042510916, -319930.25, 121732.195, 0.0, 10.001317, 9.998635 
1.0851137e+3, 2.6493058e+2, -251297.81, -513972.28, -27782.088, -0.008444292, -0.018848488, -248391.56, 95284.586, 0.000000020287489, 10.001534, 9.998052 
1.0851383e+3, 2.749283e+2, -195833.67, -441460.72, -26045.445, 0.102311365, -0.077842176, -193102.28, 52595.043, 0.0000009682407, 10.001253, 9.998016 
1.0851609e+3, 2.8492585e+2, -77751.72, -391672.63, 9228.9, 0.030427558, -0.08918361, -77480.63, 70239.53, 0.000016002106, 10.001635, 9.997505 
1.0851819e+3, 2.94923e+2, 152388.72, -227111.6, 17224.854, -0.21222742, -0.16036275, 153168.92, 202915.31, 0.00010691048, 10.002516, 9.997538 
1.0852056e+3, 3.0492118e+2, 178781.19, -267231.3, 70483.016, -0.1971277, -0.05070594, 189654.48, 189654.48, 0.00034615427, 10.002757, 9.996804 
1.08523205e+3, 3.1491834e+2, 187933.78, -132619.6, 83716.58, 0.12130194, -0.04757013, 208480.44, 208480.44, 0.0007399488, 10.002182, 9.998006 
1.094791e+3, 1.2491073e+2, -1880381.9, -1714205.9, 84003.22, 0.17984673, -0.09435465, -1679140.8, 36730.21, 0.000734217, 9.998436, 10.00075 
1.09481454e+3, 1.3491249e+2, -1855699.8, -1660675.0, 62356.69, 0.12416893, -0.012589666, -1642441.9, -24588.803, 0.00033773432, 9.998027, 10.000641 
1.0948345e+3, 1.4491329e+2, -1791505.1, -1611307.0, -33732.81, -0.23168413, 0.032840505, -1605199.3, -85352.78, 0.0000845864, 9.997947, 10.000317 
1.09485924e+3, 1.5491368e+2, -1586680.4, -1462183.4, -26798.678, 0.004543202, 0.006967639, -1456659.9, -34814.137, 0.0000043925156, 9.998687, 10.000313 
1.0948824e+3, 1.6491373e+2, -1413058.5, -1357523.5, -36910.73, 0.06710249, 0.0014519724, -1339101.9, -15256.1045, 0.0000000006358386, 9.999304, 10.000077 
1.094904e+3, 1.7491299e+2, -1242432.9, -1224126.9, -14769.564, -0.033522133, -0.10922084, -1215904.0, 9946.606, 0.0, 9.999798, 10.000082 
1.0949263e+3, 1.8491307e+2, -1170199.8, -1186722.5, -51302.45, -0.054379035, -0.077417314, -1126497.8, 1351.6274, 0.0, 9.999841, 9.999641 
1.0949496e+3, 1.9491376e+2, -1128876.1, -1115583.0, -80577.766, 0.016751409, 0.0007917723, -1041378.2, -11533.898, 0.0, 9.999454, 9.999641 
1.0949734e+3, 2.04914e+2, -986934.56, -965715.0, -40550.242, 0.06826198, 0.05666944, -934409.5, -2568.2202, 0.0, 9.999618, 9.999918 
1.0949979e+3, 2.1491353e+2, -786839.8, -819111.9, 9934.065, 0.09774249, -0.009476884, -784027.06, 49816.027, 0.0, 10.000322, 9.999915 
1.0950222e+3, 2.249123e+2, -771442.3, -925029.44, 4807.456, 0.11955208, -0.039693374, -771292.0, -35438.016, 0.0, 10.000467, 9.998444 
1.0950464e+3, 2.3490998e+2, -724265.8, -853659.94, 15228.1455, 0.13824877, -0.14292294, -722497.75, -84619.95, 0.0, 10.00012, 9.998429 
1.0950694e+3, 2.449083e+2, -597219.8, -760510.6, -24458.818, 0.067728095, -0.13558052, -593634.9, -53739.46, 0.0, 10.000388, 9.998278 
1.0950914e+3, 2.5490707e+2, -386437.4, -607586.3, -21375.148, -0.092408754, -0.11623359, -384390.34, 57518.742, 0.0, 10.001159, 9.998284 
1.09511465e+3, 2.649062e+2, -243985.61, -463034.6, -47024.5, -0.10392865, -0.032809786, -234317.33, 109600.81, 0.00000010014453, 10.001382, 9.998474 
1.09513916e+3, 2.749053e+2, -175502.7, -381843.3, -15041.554, 0.03389891, 0.0015984871, -174411.98, 71514.17, 0.0000018117424, 10.001171, 9.998469 
1.0951625e+3, 2.8490376e+2, -48538.684, -309578.88, 27731.813, -0.00076287956, 0.030300517, -45625.09, 102314.516, 0.000017402066, 10.001546, 9.998108 
1.0951848e+3, 2.949014e+2, 173719.13, -153501.45, 67146.71, -0.19797774, -0.058155883, 186961.9, 236922.61, 0.00010435712, 10.002389, 9.998106 
1.0952085e+3, 3.0489984e+2, 246239.13, -102399.35, 36662.17, -0.19458781, -0.0068677263, 250052.73, 250052.73, 0.00033796718, 10.002648, 9.997989 
1.0952338e+3, 3.1489718e+2, 249680.23, 12532.819, 106048.69, 0.018056028, -0.101582944, 290185.28, 290185.28, 0.00073106954, 10.002087, 9.999062 
1.1047887e+3, 1.2488759e+2, -1901997.0, -1727167.8, 72632.016, 0.13282806, -0.040719606, -1700930.6, 15170.757, 0.00083503575, 9.99832, 10.000687 
1.10481285e+3, 1.3489006e+2, -1898884.4, -1688685.4, -37807.06, 0.17717217, 0.1129247, -1682092.1, -64012.95, 0.0003918232, 9.997767, 10.000563 
1.1048334e+3, 1.4489077e+2, -1829403.5, -1630985.8, -30133.592, -0.109500036, 0.15051706, -1626510.4, -106436.93, 0.000102570426, 9.99766, 10.000335 
1.1048577e+3, 1.5489067e+2, -1651351.3, -1493946.5, -36428.863, 0.011097812, 0.07415437, -1485924.5, -63849.48, 0.0000061708192, 9.99822, 10.000329 
1.104881e+3, 1.6489032e+2, -1491763.4, -1385024.3, -12394.396, 0.03139079, 0.024150323, -1383603.9, -59527.113, 0.0000000015512864, 9.998736, 10.000151 
1.1049036e+3, 1.748894e+2, -1306579.0, -1241587.8, -33851.74, -0.028852422, -0.11314959, -1227158.9, -1076.837, 0.0, 9.999328, 10.0001745 
1.10492624e+3, 1.8488911e+2, -1220410.8, -1272805.0, -47064.156, -0.026786739, -0.09507678, -1192743.9, -64659.652, 0.0, 9.99977, 9.999079 
1.1049495e+3, 1.9488916e+2, -1082792.3, -1153580.6, -57007.805, 0.039364815, -0.025555572, -1051084.8, -20998.117, 0.0, 10.000041, 9.999088 
1.1049735e+3, 2.048892e+2, -889509.56, -918560.44, 26323.244, 0.09092825, 0.03532511, -873970.06, 58116.06, 0.0, 10.000278, 9.999928 
1.10499844e+3, 2.1488895e+2, -757212.56, -801967.5, -23815.63, 0.12606435, -0.008912659, -746910.75, 87174.4, 0.0, 10.000509, 9.999945 
1.10502295e+3, 2.2488804e+2, -749072.3, -913223.06, -56434.938, 0.14912274, -0.010595005, -731542.1, 4551.4526, 0.0, 10.000612, 9.998454 
1.1050469e+3, 2.3488614e+2, -658345.9, -819991.2, -63116.26, 0.16500704, -0.07073648, -636621.2, 1493.71, 0.0, 10.000567, 9.998443 
1.1050702e+3, 2.448847e+2, -563941.6, -725244.5, -30576.432, 0.10145768, -0.04847472, -558340.1, -18209.248, 0.0, 10.00056, 9.998417 
1.1050926e+3, 2.5488347e+2, -455646.1, -619898.9, -28914.098, -0.041881327, -0.044050764, -450704.88, -8560.781, 0.0, 10.000623, 9.998434 
1.1051161e+3, 2.6488245e+2, -279496.9, -486663.53, -29202.549, -0.06554015, 0.021804811, -275459.2, 68694.75, 0.00000018749917, 10.001144, 9.998442 
1.1051406e+3, 2.7488142e+2, -59181.81, -328922.28, -61098.105, 0.040094964, 0.04420433, -45988.008, 200175.4, 0.0000025365616, 10.001979, 9.998451 
1.1051643e+3, 2.8487995e+2, 18985.246, -246961.45, -31036.523, 0.021391083, 0.068574764, 22559.242, 170735.5, 0.000019295574, 10.001887, 9.99838 
1.10518724e+3, 2.9487786e+2, -45393.434, -227023.83, -50869.926, -0.10305481, -0.011435361, -32116.607, 18077.969, 0.00010487227, 10.000761, 9.998383 
1.1052109e+3, 3.0487654e+2, 48179.316, -151789.39, -60635.594, -0.12540211, 0.026220366, 65128.906, 65128.906, 0.00033641586, 10.001045, 9.998431 
1.105236e+3, 3.14874e+2, 317005.8, 102087.24, -88138.695, 0.031066094, -0.11034198, 348528.28, 348528.28, 0.00073074934, 10.002307, 9.999557 
1.1147848e+3, 1.248645e+2, -1874795.6, -1662460.3, 67314.734, -0.1633101, 0.113019705, -1642918.5, 73416.266, 0.000944546, 9.998301, 10.001142 
1.11481115e+3, 1.3486579e+2, -1885182.9, -1655093.4, -46628.08, 0.19662061, 0.13297352, -1646003.1, -27679.385, 0.00045159098, 9.997747, 10.000808 
1.11483395e+3, 1.4486612e+2, -1807182.8, -1580458.6, -30173.584, 0.1404685, 0.10352909, -1576511.6, -56191.98, 0.00012308804, 9.997643, 10.000688 
1.11485705e+3, 1.5486656e+2, -1627825.0, -1445484.9, -2111.0078, 0.10029687, 0.044557013, -1445460.5, -23148.72, 0.000008505592, 9.998221, 10.000661 
1.11487955e+3, 1.6486698e+2, -1503535.9, -1403646.9, -9074.876, -0.013251965, 0.06134496, -1402829.1, -78523.63, 0.0000000033697685, 9.998706, 10.000044 
1.114902e+3, 1.7486739e+2, -1315607.0, -1258694.5, 1365.4103, -0.14212793, 0.071072295, -1258661.8, -32361.018, 0.0, 9.999307, 10.000077 
1.11492544e+3, 1.8486664e+2, -1221776.0, -1262042.9, -52188.23, -0.12078562, 0.041790485, -1185972.3, -57665.453, 0.0, 9.999713, 9.99918 
1.1149497e+3, 1.9486429e+2, -1092541.4, -1148674.1, -34471.984, 0.044902403, -0.13755433, -1076155.1, -45827.23, 0.0, 9.999935, 9.999173 
1.114974e+3, 2.0486335e+2, -969192.8, -1057189.1, 14539.044, 0.09241282, -0.13213833, -966852.8, -34515.867, 0.0, 10.000162, 9.99903 
1.114998e+3, 2.1486354e+2, -850055.2, -951792.44, -2188.181, 0.018881444, -0.045053586, -850008.1, -15671.078, 0.0, 10.00032, 9.999007 
1.1150223e+3, 2.2486357e+2, -765833.44, -902690.4, -71345.35, 0.017743848, 0.08748069, -735405.4, 934.89874, 0.0, 10.000424, 9.998613 
1.115047e+3, 2.3486322e+2, -672083.94, -806445.0, -50490.49, 0.10345881, 0.16550906, -655225.7, -16876.656, 0.0, 10.000389, 9.998623 
1.11507095e+3, 2.4486247e+2, -554266.2, -665976.94, -40445.5, 0.1034279, 0.2231965, -541160.3, -802.4596, 0.0, 10.000392, 9.998904 
1.1150941e+3, 2.5486097e+2, -441818.06, -560556.3, -10186.601, 0.016456492, 0.15318054, -440950.5, 1419.2183, 0.0, 10.000486, 9.998908 
1.1151179e+3, 2.6485914e+2, -330917.13, -561965.1, -12821.727, -0.022749253, 0.1342655, -330207.78, 14177.886, 0.00000020790911, 10.001013, 9.997984 
1.1151423e+3, 2.748566e+2, -110016.38, -404683.8, -11015.836, -0.014159222, 0.04885246, -109605.14, 136804.31, 0.0000030041283, 10.001847, 9.9979925 
1.115166e+3, 2.8485456e+2, -6969.733, -266565.28, -82981.46, -0.027604407, 0.04013382, 17288.93, 165717.25, 0.000021785861, 10.001748, 9.998307 
1.11518875e+3, 2.948527e+2, -61576.875, -242848.66, -66138.74, -0.06793932, -0.011959417, -40011.17, 10434.393, 0.00010887074, 10.000684, 9.998313 
1.1152124e+3, 3.0485138e+2, 18121.32, -197334.34, -19884.752, -0.10998915, 0.04864421, 19941.146, 19941.146, 0.00034133886, 10.000978, 9.998149 
1.1152377e+3, 3.1484857e+2, 265797.22, 36610.035, 16600.7, -0.1048732, -0.08832992, 266993.4, 266993.4, 0.0007374856, 10.002124, 9.999201 
1.12478286e+3, 1.2483966e+2, -2104549.0, -1765837.6, 133361.75, -0.09233789, 0.108955845, -1719631.9, -3052.7666, 0.0010643419, 9.996689, 10.001226 
1.1248089e+3, 1.3484086e+2, -1778311.0, -1607762.1, -70368.15, 0.16627356, 0.125606, -1582477.0, 36093.426, 0.00051804923, 9.998506, 10.000771 
1.1248335e+3, 1.4484124e+2, -1540202.8, -1431645.9, -34982.598, 0.25883624, 0.09437004, -1421349.3, 99216.33, 0.00014661087, 9.9994, 10.000856 
1.1248562e+3, 1.5484172e+2, -1422830.8, -1325753.8, -59902.54, 0.14063258, 0.020531679, -1297193.0, 125362.24, 0.00001150662, 9.999557, 10.000832 
1.12487875e+3, 1.6484237e+2, -1428831.9, -1396584.9, -55539.56, 0.022341743, 0.06303521, -1354875.8, -30328.715, 0.0000000061074554, 9.999339, 9.999788 
1.1249017e+3, 1.7484307e+2, -1405152.1, -1326925.6, -86754.43, -0.055416886, 0.12870033, -1270874.9, -44332.69, 0.0, 9.998811, 9.999843 
1.12492554e+3, 1.8484245e+2, -1281794.8, -1259346.9, -80902.3, -0.034116976, 0.109362386, -1188893.6, -60346.21, 0.0, 9.99915, 9.9994755 
1.1249502e+3, 1.9484e+2, -991330.2, -1073626.1, -73912.27, 0.07307663, -0.11067592, -947883.94, 82683.51, 0.0, 10.000476, 9.999446 
1.12497434e+3, 2.0483889e+2, -891500.44, -1054973.5, -877.0166, 0.09189596, -0.11965489, -891495.7, 41082.33, 0.0, 10.000875, 9.9986925 
1.1249984e+3, 2.148388e+2, -856520.94, -986530.0, -10205.446, 0.025751213, -0.022759348, -855724.75, -21142.393, 0.0, 10.00044, 9.998698 
1.1250227e+3, 2.2483878e+2, -768988.6, -899180.2, -22457.012, 0.015513294, 0.114947185, -765223.8, -28637.057, 0.0, 10.000363, 9.998677 
1.1250471e+3, 2.3483862e+2, -612199.44, -769140.25, -38213.336, 0.07040548, 0.20568274, -603389.5, 35203.574, 0.0, 10.000751, 9.998706 
1.1250713e+3, 2.4483787e+2, -479714.28, -613779.56, -25515.344, 0.09208991, 0.25050643, -475022.38, 65578.45, 0.0, 10.0008335, 9.999055 
1.1250952e+3, 2.5483623e+2, -412309.34, -532147.7, -46171.363, 0.08321741, 0.15407085, -396583.94, 46028.7, 0.0, 10.000629, 9.999045 
1.1251194e+3, 2.648343e+2, -379800.66, -549643.44, 12360.483, 0.055167615, 0.10897836, -378905.8, -34277.797, 0.00000016860811, 10.000545, 9.998286 
1.1251437e+3, 2.748318e+2, -266858.6, -444306.47, 31239.008, 0.0072994875, -0.0035368728, -261519.72, -14868.629, 0.0000038179373, 10.000639, 9.998289 
1.12516746e+3, 2.848298e+2, -133623.02, -362544.7, -17353.166, -0.0064064865, -0.0054541533, -132315.05, 16354.718, 0.000026510976, 10.001004, 9.998013 
1.12519056e+3, 2.948282e+2, 32452.752, -226617.7, -52273.71, 0.024176197, -0.005633735, 42602.586, 93288.84, 0.00011807009, 10.001452, 9.998049 
1.1252143e+3, 3.0482697e+2, 86480.125, -170228.7, 49209.688, -0.02109814, 0.07402178, 95590.06, 95590.06, 0.0003550206, 10.001507, 9.998075 
1.1252395e+3, 3.1482413e+2, 61852.332, -87431.88, 48649.04, -0.041860066, -0.047691606, 76306.65, 76306.65, 0.0007557831, 10.000834, 9.998979 
1.1347811e+3, 1.2481312e+2, -2135270.3, -1812977.1, 135679.02, 0.00838961, -0.060644273, -1763465.1, -46631.363, 0.0011953667, 9.99664, 10.000915 
1.13480516e+3, 1.3481535e+2, -1798174.8, -1640653.8, 11211.425, -0.06847867, 0.08155206, -1639859.9, -21041.643, 0.00059164723, 9.998482, 10.000551 
1.1348315e+3, 1.4481641e+2, -1538647.1, -1433565.5, -45621.715, 0.085975535, 0.12932044, -1416522.8, 104285.66, 0.00017336896, 9.999419, 10.000839 
1.13485485e+3, 1.5481637e+2, -1421442.0, -1328301.8, -37423.67, 0.010126464, 0.010881684, -1315128.3, 107674.875, 0.000015247707, 9.999574, 10.000811 
1.1348783e+3, 1.6481651e+2, -1459072.0, -1457578.1, -92787.82, 0.0022844549, 0.024199633, -1365534.3, -40733.14, 0.000000009421829, 9.999333, 9.999371 
1.1349026e+3, 1.7481647e+2, -1438622.3, -1394268.9, -96059.44, 0.110372685, 0.056146014, -1317859.5, -91053.086, 0.0, 9.998801, 9.999385 
1.1349265e+3, 1.8481655e+2, -1247263.6, -1179196.5, -50649.805, 0.11779636, 0.10329913, -1152208.1, -23401.684, 0.0, 9.999108, 10.00005 
1.1349502e+3, 1.9481647e+2, -969219.0, -997353.2, -11823.827, 0.0045606275, 0.06131928, -964909.9, 65893.88, 0.0, 10.000339, 10.00004 
1.1349742e+3, 2.04816e+2, -903834.0, -1048765.1, -33243.76, -0.029234707, 0.0813959, -896572.5, 36234.74, 0.0, 10.000739, 9.9988 
1.1349992e+3, 2.1481484e+2, -879206.3, -987148.5, -15828.13, 0.039449736, 0.061227083, -876933.25, -42113.117, 0.0, 10.000242, 9.998791 
1.13502346e+3, 2.248137e+2, -794939.0, -911644.06, -26231.807, 0.03228677, 0.08387931, -789313.94, -52481.45, 0.0, 10.000179, 9.99868 
1.13504685e+3, 2.3481232e+2, -643184.4, -788858.6, -10066.605, -0.055368934, 0.048510063, -642492.0, -3644.7625, 0.0, 10.000554, 9.998668 
1.1350709e+3, 2.4481092e+2, -516772.88, -653510.9, -47005.406, -0.058483094, 0.04382588, -502173.03, 38686.5, 0.0, 10.000671, 9.998859 
1.1350957e+3, 2.5480935e+2, -445534.78, -567419.2, -39823.703, 0.045482602, -0.029090794, -433676.72, 9194.399, 0.0, 10.000482, 9.998875 
1.1351201e+3, 2.6480818e+2, -328461.38, -421238.16, 5208.7725, 0.061395302, -0.04291028, -328169.84, 16709.654, 0.00000020663475, 10.000442, 9.999224 
1.1351444e+3, 2.7480692e+2, -214878.66, -320639.22, 54523.55, -0.020387296, -0.11800895, -191804.06, 55085.188, 0.0000055002247, 10.000558, 9.9991865 
1.1351683e+3, 2.848056e+2, -185143.11, -440215.1, -17216.428, -0.042302225, -0.07613627, -183986.31, -35083.8, 0.000033703815, 10.000894, 9.997524 
1.1351924e+3, 2.9480413e+2, -21881.555, -309855.25, -17044.102, 0.021507537, -0.010643903, -20876.287, 30043.844, 0.00013271971, 10.001325, 9.997539 
1.1352163e+3, 3.0480295e+2, 72821.086, -164741.44, 16689.2, 0.0044724126, 0.09461809, 73987.805, 73987.805, 0.00037893685, 10.001367, 9.9981785 
1.1352409e+3, 3.1480047e+2, 39165.51, -99209.25, 70498.0, -0.059366383, -0.001224291, 68754.96, 68754.96, 0.0007912106, 10.000684, 9.998969 
1.1447797e+3, 1.2478753e+2, -1902773.4, -1731613.5, 90944.92, 0.14166744, -0.06230911, -1692313.9, 24769.291, 0.0013373722, 9.998317, 10.000685 
1.1448035e+3, 1.3478956e+2, -1793884.4, -1645988.3, -597.0065, -0.08003404, 0.058870327, -1645985.9, -26915.85, 0.000672049, 9.998493, 10.00053 
1.1448312e+3, 1.447909e+2, -1683525.9, -1533186.1, -53942.87, 0.16130675, 0.14922917, -1515833.9, 5224.899, 0.0002032588, 9.998559, 10.000565 
1.14485376e+3, 1.5479088e+2, -1567145.8, -1430410.9, -108906.93, 0.0074879453, 0.062528126, -1370190.5, 52865.51, 0.000019742625, 9.998716, 10.000519 
1.1448773e+3, 1.6479082e+2, -1497127.5, -1438552.3, -122484.33, -0.0029127116, 0.054969642, -1341902.8, -16846.354, 0.000000013934886, 9.998913, 9.999704 
1.1449021e+3, 1.7479041e+2, -1347967.4, -1310632.0, -90517.13, 0.17505844, 0.014974638, -1236877.8, -9814.727, 0.0, 9.999251, 9.999742 
1.14492655e+3, 1.847908e+2, -1182483.1, -1151651.3, 26623.766, 0.19595325, 0.07858822, -1136302.4, -7242.214, 0.0, 9.999587, 9.999999 
1.1449505e+3, 1.9479182e+2, -1028879.2, -1021319.8, -18050.371, 0.025078826, 0.1512123, -1006657.6, 24392.16, 0.0, 9.999954, 10.000036 
1.1449746e+3, 2.0479172e+2, -973272.6, -1065211.8, -70880.33, -0.028796898, 0.19793385, -934760.06, -1709.7996, 0.0, 10.000153, 9.998987 
1.1449995e+3, 2.147901e+2, -880142.8, -967524.9, -69690.305, 0.060830593, 0.11143337, -841580.3, -6515.0435, 0.0, 10.000115, 9.999003 
1.1450241e+3, 2.2478855e+2, -786392.44, -911073.25, -22692.865, 0.08053572, 0.084980965, -782390.6, -45310.56, 0.0, 10.000273, 9.9986315 
1.1450481e+3, 2.3478676e+2, -621507.2, -778253.56, -42970.258, 0.020968817, 0.015025892, -610500.3, 28597.523, 0.0, 10.000718, 9.998654 
1.1450721e+3, 2.4478523e+2, -512036.16, -649620.94, -75103.625, 0.013065175, -0.0044691116, -478980.88, 62130.188, 0.0, 10.0006895, 9.99888 
1.14509605e+3, 2.547838e+2, -484313.66, -577045.5, -81117.8, 0.068376705, -0.067605965, -437245.66, 5875.617, 0.0, 10.000186, 9.998942 
1.1451206e+3, 2.64783e+2, -375205.9, -443808.94, -10123.734, 0.09069291, -0.0480152, -373743.13, -28616.031, 0.00000038376965, 10.000105, 9.999235 
1.14514574e+3, 2.747825e+2, -224186.1, -320076.94, -54529.18, 0.0814897, -0.050904308, -199521.63, 47610.164, 0.0000075917305, 10.000469, 9.999232 
1.14517e+3, 2.8478146e+2, -154172.03, -375417.8, -82258.336, 0.05018005, -0.0014208928, -126940.445, 22201.643, 0.000041535674, 10.000891, 9.997975 
1.1451936e+3, 2.9477987e+2, -3497.2585, -247268.47, -48116.066, 0.029773366, 0.0076417075, 5656.2773, 56814.87, 0.00014998692, 10.001228, 9.998014 
1.14521764e+3, 3.0477867e+2, 69601.25, -189101.8, 13563.821, 0.014277765, 0.093218625, 70310.46, 70310.46, 0.00040887797, 10.001404, 9.997999 
1.1452429e+3, 3.1477666e+2, 62528.355, -117625.29, -6851.565, 0.07750014, 0.059669457, 62788.555, 62788.555, 0.0008407425, 10.000981, 9.998684 
1.1547758e+3, 1.2476236e+2, -1905875.4, -1731977.8, -49318.85, -0.14391561, 0.04769729, -1718964.4, -1631.1339, 0.001489488, 9.998307, 10.000676 
1.1548031e+3, 1.347637e+2, -1773744.5, -1597693.1, 17767.834, 0.008672746, 0.06758776, -1595917.9, 23405.9, 0.00075867696, 9.998477, 10.000858 
1.154832e+3, 1.4476472e+2, -1731649.5, -1637473.9, -66511.06, 0.35196495, 0.14440778, -1603069.5, -81752.766, 0.0002361324, 9.99856, 9.999859 
1.1548528e+3, 1.5476516e+2, -1610540.3, -1526881.1, -91090.91, 0.003656514, 0.1694437, -1468474.6, -45159.6, 0.000024990082, 9.99873, 9.999858 
1.1548752e+3, 1.6476533e+2, -1410971.5, -1258079.8, -127454.055, -0.13159114, 0.15824988, -1185903.5, 139408.75, 0.000000023716384, 9.99891, 10.000941 
1.1549001e+3, 1.7476507e+2, -1265437.3, -1130284.3, -63367.68, 0.01980958, 0.0049023186, -1105221.4, 122088.664, 0.0, 9.999216, 10.000991 
1.15492515e+3, 1.8476541e+2, -1246942.6, -1275248.4, 24311.6, 0.073272996, 0.040288612, -1232964.5, -103657.86, 0.0, 9.99954, 9.999173 
1.1549504e+3, 1.9476606e+2, -1102102.8, -1154546.5, 6456.85, 0.0047033937, 0.15810876, -1101319.5, -70013.67, 0.0, 9.999864, 9.999168 
1.154975e+3, 2.0476593e+2, -964374.6, -1012200.75, -92407.875, -0.032075137, 0.22654784, -892835.9, 40472.215, 0.0, 10.000005, 9.99942 
1.1549989e+3, 2.1476465e+2, -876369.56, -917460.4, -58415.402, -0.024276331, 0.12816522, -834991.9, 325.0502, 0.0, 9.999925, 9.999441 
1.1550242e+3, 2.2476341e+2, -825282.4, -948407.56, -20411.62, 0.046718042, 0.117517635, -821986.75, -84658.5, 0.0, 10.000089, 9.998462 
1.1550508e+3, 2.3476195e+2, -661922.5, -820938.44, -12047.225, 0.18935578, 0.099203706, -661015.0, -21670.277, 0.0, 10.000542, 9.998446 
1.1550748e+3, 2.4476069e+2, -518170.78, -621948.1, -110863.125, 0.19457802, 0.10477582, -447654.1, 93701.99, 0.0, 10.000514, 9.999153 
1.1550962e+3, 2.5475943e+2, -487999.25, -551707.7, -87532.89, 0.04041889, 0.029775314, -426704.7, 16659.422, 0.0, 10.000036, 9.999188 
1.15512036e+3, 2.647587e+2, -453136.56, -573166.3, -9716.917, 0.03079031, 0.08537768, -452355.03, -106983.66, 0.0000005356376, 9.999969, 9.99841 
1.1551475e+3, 2.7475825e+2, -296695.53, -442019.66, -21856.406, 0.17695808, 0.16887191, -293479.56, -46098.88, 0.000008957139, 10.000343, 9.998456 
1.15517214e+3, 2.8475738e+2, -76579.72, -181747.52, -79112.46, 0.14418843, 0.20101082, -34169.684, 115219.07, 0.000047577858, 10.000753, 9.99937 
1.155194e+3, 2.9475558e+2, 82033.21, -57791.758, -10353.612, -0.090875596, 0.04788144, 82795.71, 134195.84, 0.00016516355, 10.001162, 9.999355 
1.1552179e+3, 3.0475408e+2, 5890.9365, -282432.13, -10819.125, -0.12550522, 0.07210849, 6296.3467, 6296.3467, 0.00043857994, 10.001255, 9.997418 
1.1552445e+3, 3.1475237e+2, -8063.5215, -236078.05, 29669.314, 0.08193686, 0.121239364, -4266.183, -4266.183, 0.0008950193, 10.000855, 9.99793 
1.16477504e+3, 1.2473746e+2, -1833286.0, -1722217.5, -69362.62, -0.063790806, 0.14481404, -1688896.6, 28683.615, 0.0016512593, 9.998919, 10.000443 
1.1648018e+3, 1.3473791e+2, -1789468.5, -1619716.5, -11481.044, 0.044272777, 0.09674086, -1618943.5, 634.45605, 0.0008513687, 9.998456, 10.000714 
1.1648303e+3, 1.4473842e+2, -1727417.9, -1602413.6, -18654.389, 0.33660924, 0.115198076, -1599689.3, -78114.12, 0.00027198074, 9.99846, 10.000139 
1.1648523e+3, 1.5473923e+2, -1533196.8, -1458735.3, -3390.595, 0.06993148, 0.14792725, -1458581.1, -35011.793, 0.00003101119, 9.999133, 10.000126 
1.1648751e+3, 1.6473986e+2, -1339093.1, -1234650.3, -35133.344, -0.052208044, 0.17394692, -1223931.8, 101630.766, 0.00000004774233, 9.999452, 10.00084 
1.1648994e+3, 1.7474017e+2, -1241912.8, -1136374.3, -111413.51, 0.030445727, 0.090970166, -1065865.1, 161691.47, 0.0, 9.999441, 10.000851 
1.1649246e+3, 1.8474029e+2, -1269209.0, -1285489.8, -16314.24, 0.071877494, 0.11316955, -1259117.0, -129561.6, 0.0, 9.999374, 9.999187 
1.1649503e+3, 1.9474004e+2, -1177559.8, -1188648.9, 6258.9473, 0.03881655, 0.1403477, -1174742.8, -143180.56, 0.0, 9.999331, 9.999197 
1.1649753e+3, 2.0473978e+2, -1010260.0, -992468.5, -28836.818, 0.032941837, 0.17663293, -971186.5, -37621.824, 0.0, 9.999527, 9.999774 
1.1649996e+3, 2.1473926e+2, -841653.94, -852029.75, -38782.87, 0.06471566, 0.11376676, -807713.56, 27851.678, 0.0, 9.999983, 9.999844 
1.165025e+3, 2.2473854e+2, -816495.75, -938617.25, 31021.586, 0.13517432, 0.13052426, -809067.44, -71496.1, 0.0, 10.00012, 9.998519 
1.1650515e+3, 2.347372e+2, -753208.6, -858601.94, 33150.105, 0.25451994, 0.12011175, -743648.8, -104061.63, 0.0, 9.999887, 9.9985075 
1.1650757e+3, 2.4473612e+2, -590936.9, -657903.9, -39424.207, 0.25352445, 0.13937844, -572696.0, -31098.201, 0.0, 10.0000105, 9.999148 
1.1650971e+3, 2.5473508e+2, -419010.2, -521141.44, -67857.66, 0.11550988, 0.09051625, -385150.22, 58454.37, 0.0, 10.000508, 9.999175 
1.1651212e+3, 2.647342e+2, -365040.84, -541848.7, 51618.07, 0.09153622, 0.13735364, -351074.47, -5460.882, 0.00000056359414, 10.000634, 9.998299 
1.1651478e+3, 2.7473325e+2, -312897.84, -462853.13, 55742.7, 0.19532219, 0.18251376, -294446.94, -46819.61, 0.00000928475, 10.00031, 9.998325 
1.1651726e+3, 2.8473222e+2, -149855.55, -228117.33, 9184.88, 0.15396369, 0.20912981, -148792.05, 845.156, 0.000050789153, 10.000279, 9.999283 
1.1651952e+3, 2.9473078e+2, -23138.35, -112660.305, -65345.773, -0.040529937, 0.09976365, 11306.828, 62953.027, 0.00017624088, 10.00047, 9.999302 
1.1652197e+3, 3.047292e+2, 21250.33, -238425.63, -46661.96, -0.051747512, 0.09879435, 29380.607, 29380.607, 0.0004642717, 10.001188, 9.997771 
1.1652468e+3, 3.1472757e+2, 175763.19, -108060.5, 21821.871, 0.18516877, 0.12996536, 177431.17, 177431.17, 0.0009430786, 10.0019455, 9.998304 
1.1747763e+3, 1.24712326e+2, -1876026.0, -1784303.6, -155442.6, 0.102518916, 0.16057757, -1668098.0, 49731.25, 0.0018234614, 9.998838, 10.000048 
1.1747992e+3, 1.3471232e+2, -1837631.8, -1722012.5, -16898.918, -0.08022867, 0.14055651, -1719593.3, -99761.664, 0.0009506097, 9.998476, 10.000002 
1.1748253e+3, 1.4471215e+2, -1637559.8, -1413157.6, -8788.8545, -0.04289653, 0.060189996, -1412814.0, 109018.54, 0.00031097958, 9.998448, 10.001441 
1.1748518e+3, 1.5471324e+2, -1440856.5, -1270919.8, 40082.52, 0.083656415, -0.008767669, -1261940.1, 161877.08, 0.00003785508, 9.999142, 10.001412 
1.1748765e+3, 1.6471441e+2, -1457141.3, -1473289.0, -50251.7, 0.11172417, 0.08628239, -1414319.0, -88512.03, 0.00000010132158, 9.999429, 9.999208 
1.1748998e+3, 1.7471562e+2, -1363930.4, -1380167.1, -97413.06, 0.09686088, 0.25755376, -1274298.0, -46494.875, 0.0, 9.9994, 9.999195 
1.1749242e+3, 1.847156e+2, -1214925.5, -1159444.4, -35560.145, 0.070037514, 0.3034161, -1142084.4, -12278.946, 0.0, 9.999317, 10.000081 
1.17494956e+3, 1.9471385e+2, -1124098.3, -1058829.4, 21555.34, 0.0127026765, 0.08815335, -1052353.3, -20535.205, 0.0, 9.999242, 10.000136 
1.1749752e+3, 2.0471334e+2, -1013496.5, -968719.4, -27707.645, 0.046779178, 0.0408805, -955485.44, -21666.398, 0.0, 9.999399, 9.999997 
1.17500134e+3, 2.1471399e+2, -853480.6, -838769.6, -9018.855, 0.20825784, 0.071567215, -834487.1, 1322.4789, 0.0, 9.999811, 10.000022 
1.1750262e+3, 2.247138e+2, -821039.44, -899672.1, 5291.43, 0.23191306, 0.11753076, -820684.94, -82874.336, 0.0, 9.999915, 9.998883 
1.1750499e+3, 2.3471251e+2, -754015.4, -812733.94, 39119.77, 0.09342638, 0.07207873, -734463.25, -94637.91, 0.0, 9.999687, 9.998915 
1.175074e+3, 2.4471156e+2, -641129.5, -719873.5, -35118.746, 0.067626685, 0.10097177, -627742.8, -85907.25, 0.0, 9.999823, 9.998817 
1.1750985e+3, 2.5471076e+2, -456028.5, -568286.06, -34808.875, 0.1735913, 0.10384417, -446111.1, -2267.9495, 0.0, 10.000377, 9.998914 
1.1751228e+3, 2.6470953e+2, -353724.5, -488856.56, 24441.607, 0.17284767, 0.10653776, -349439.56, -3585.3403, 0.0000005132723, 10.000505, 9.99873 
1.1751467e+3, 2.7470744e+2, -295321.16, -407740.0, 60536.805, 0.02101448, -0.006433382, -268921.84, -21049.041, 0.000009286575, 10.000225, 9.99875 
1.1751713e+3, 2.8470603e+2, -270815.66, -456430.84, 3812.2375, -0.036154855, 0.03790041, -270737.38, -120849.836, 0.000051726838, 10.000182, 9.997762 
1.1751968e+3, 2.947052e+2, -126867.48, -326498.53, -38435.71, 0.030981116, 0.13957553, -119723.0, -67823.06, 0.00018255804, 10.000446, 9.997849 
1.1752226e+3, 3.047036e+2, 93674.5, -53778.82, -24267.201, 0.10722843, 0.14165424, 97565.6, 97565.6, 0.00047999644, 10.001063, 9.999091 
1.175249e+3, 3.147024e+2, 250147.25, 102922.516, 91207.72, 0.1571963, 0.078966625, 293742.5, 293742.5, 0.0009686636, 10.0017185, 9.999857 
1.1847754e+3, 1.2468683e+2, -1917585.1, -1789772.1, -89399.5, 0.1699148, 0.13847908, -1743786.4, -25706.053, 0.0020081834, 9.998456, 10.000205 
1.1847987e+3, 1.346869e+2, -1753587.1, -1698754.1, 24216.133, 0.006315339, 0.13312556, -1689590.8, -69510.97, 0.0010574218, 9.999101, 9.999867 
1.1848232e+3, 1.446866e+2, -1579066.1, -1374896.3, 38264.96, -0.09754058, 0.043259956, -1367960.4, 154120.48, 0.00035351914, 9.998805, 10.001533 
1.18485056e+3, 1.5468788e+2, -1641854.6, -1350188.9, -45233.805, 0.12461646, -0.017467627, -1343334.8, 80729.164, 0.00004562391, 9.997705, 10.001556 
1.1848759e+3, 1.6468911e+2, -1678295.9, -1594156.4, -50239.566, 0.19480114, 0.08017219, -1570698.4, -244644.58, 0.00000019883093, 9.997965, 9.999096 
1.18489966e+3, 1.7469008e+2, -1306533.5, -1359280.3, -7298.5205, 0.13850054, 0.2378119, -1305542.3, -77489.36, 0.0, 9.999829, 9.99913 
1.1849242e+3, 1.8469004e+2, -1061280.5, -1079025.9, 61553.98, 0.101109535, 0.28421906, -1007962.94, 122091.88, 0.0, 10.000347, 10.0001335 
1.18494935e+3, 1.9468857e+2, -1097480.8, -1034807.0, 15773.169, 0.06594109, 0.08647728, -1031061.2, 1002.3496, 0.0, 9.999383, 10.000227 
1.184975e+3, 2.0468791e+2, -1062923.5, -1020030.25, -14985.801, 0.11227683, 0.031233976, -1015313.3, -81247.27, 0.0, 9.999171, 9.999767 
1.1850016e+3, 2.1468788e+2, -867303.5, -866002.25, -51840.465, 0.27227437, 0.022103805, -814808.3, 21256.088, 0.0, 9.999816, 9.999834 
1.1850266e+3, 2.2468783e+2, -744738.3, -802799.6, -41031.066, 0.2679281, 0.06557672, -723506.4, 14557.405, 0.0, 10.000178, 9.999419 
1.1850496e+3, 2.346875e+2, -641507.25, -697579.1, -28556.682, 0.06697805, 0.06003177, -629524.44, 10542.616, 0.0, 10.00019, 9.999464 
1.18507385e+3, 2.4468687e+2, -587205.3, -719353.6, -45848.098, 0.055210125, 0.102681674, -572856.56, -30782.303, 0.0, 10.000313, 9.998583 
1.1850997e+3, 2.5468558e+2, -443702.06, -599773.56, -70827.13, 0.25861433, 0.089491084, -416352.53, 27736.807, 0.0, 10.000625, 9.998586 
1.1851243e+3, 2.646842e+2, -288385.16, -415162.44, -10125.981, 0.25988993, 0.076956525, -287581.47, 58520.445, 0.0000005059796, 10.000782, 9.999096 
1.1851469e+3, 2.7468237e+2, -196847.7, -321022.63, -14978.344, 0.006996224, -0.04382916, -195066.53, 53048.004, 0.000009353779, 10.000734, 9.999098 
1.1851716e+3, 2.8468096e+2, -188644.81, -474643.7, 16050.533, -0.048871428, 0.0059167384, -187746.86, -37617.938, 0.000051580555, 10.001012, 9.997228 
1.1851989e+3, 2.9467985e+2, 8536.449, -325613.16, 12569.175, 0.15316609, 0.13746473, 9008.577, 61155.28, 0.00018437536, 10.001671, 9.99726 
1.1852253e+3, 3.0467743e+2, 189117.39, -15433.528, 14031.374, 0.24374208, 0.09292803, 190075.39, 190075.39, 0.0004810056, 10.001727, 9.999043 
1.1852502e+3, 3.1467584e+2, 100953.945, 26165.154, -24802.477, 0.17300986, -0.006143363, 108431.63, 108431.63, 0.0009623852, 10.000683, 9.999835 
1.1947726e+3, 1.2466135e+2, -1850214.4, -1648625.0, -28764.979, -0.021351237, 0.1028027, -1644600.9, 73728.5, 0.0022081332, 9.998448, 10.001171 
1.1947997e+3, 1.3466166e+2, -1704579.6, -1603712.1, 60135.215, 0.17363411, 0.0525774, -1575661.4, 44660.887, 0.0011730703, 9.999118, 10.000511 
1.1948238e+3, 1.4466184e+2, -1666547.5, -1556021.9, -19964.746, 0.041370645, 0.03985112, -1552526.1, -30206.268, 0.00040013902, 9.998806, 10.000288 
1.1948481e+3, 1.546633e+2, -1729442.9, -1538132.5, -73782.984, 0.07983554, 0.12511587, -1512982.6, -88674.01, 0.00005450229, 9.997722, 10.000262 
1.1948729e+3, 1.6466402e+2, -1573101.3, -1373795.3, -3156.0618, 0.06644774, 0.16404407, -1373745.3, -47442.684, 0.00000035173326, 9.9979515, 10.000617 
1.1948988e+3, 1.746636e+2, -1200674.1, -1134259.4, 76721.22, 0.041040815, 0.026432808, -1083867.3, 144437.72, 0.0, 9.999798, 10.000695 
1.1949242e+3, 1.8466368e+2, -1125621.8, -1202157.5, 13749.207, 0.04370734, 0.04303976, -1123226.8, 7076.5483, 0.0, 10.000307, 9.999307 
1.1949491e+3, 1.9466412e+2, -1176127.0, -1175751.3, -7160.156, 0.079749964, 0.12850355, -1168776.5, -136477.31, 0.0, 9.999283, 9.999311 
1.1949743e+3, 2.0466341e+2, -1125201.9, -1116569.9, -10120.303, 0.10832377, 0.1434544, -1109883.6, -175577.52, 0.0, 9.999036, 9.999166 
1.1950003e+3, 2.1466106e+2, -935541.2, -966259.4, -14180.495, 0.1393265, -0.040163, -929996.06, -93667.33, 0.0, 9.999637, 9.999231 
1.1950255e+3, 2.2466066e+2, -728133.44, -723919.5, -55589.06, 0.124204084, -0.031651277, -670397.5, 67933.23, 0.0, 9.999989, 10.000051 
1.1950498e+3, 2.3466228e+2, -619617.4, -608477.4, -16887.883, 0.059383266, 0.08735865, -596264.6, 44046.707, 0.0, 10.000006, 10.00016 
1.19507484e+3, 2.4466214e+2, -627894.44, -765118.3, -51028.293, 0.09658142, 0.15484464, -610999.2, -68686.11, 0.0, 10.000141, 9.998359 
1.1951005e+3, 2.546597e+2, -484173.38, -642539.2, -44235.945, 0.2445952, 0.05232823, -472654.84, -28313.025, 0.0, 10.00045, 9.998374 
1.1951249e+3, 2.6465836e+2, -300964.16, -404464.06, -24316.793, 0.23163533, 0.048246283, -295535.75, 50819.496, 0.0000006389743, 10.00062, 9.999252 
1.1951481e+3, 2.7465805e+2, -197617.03, -292329.22, -322.28287, 0.030422568, 0.056401215, -197615.94, 50737.125, 0.000009301616, 10.000608, 9.999355 
1.19517334e+3, 2.84657e+2, -180429.73, -437255.34, 27416.092, 0.00431725, 0.114957884, -177535.69, -27174.12, 0.00005191434, 10.0009165, 9.997534 
1.1952013e+3, 2.9465467e+2, 13743.113, -296198.9, 60025.36, 0.18588953, 0.09012581, 24961.928, 77349.03, 0.00018470343, 10.0015745, 9.997513 
1.19522706e+3, 3.0465078e+2, 63112.176, -236677.45, -26884.693, 0.2339616, -0.03932022, 65504.07, 65504.07, 0.0004730737, 10.001567, 9.997593 
1.1952496e+3, 3.1464794e+2, -28141.734, -199941.19, -10358.172, -0.009718661, -0.121634014, -27519.47, -27519.47, 0.0009339275, 10.00051, 9.99836 
1.204771e+3, 1.2463573e+2, -1915658.8, -1660072.6, 71004.15, 0.006340426, 0.0779442, -1641671.8, 76905.29, 0.0024257244, 9.997925, 10.001356 
1.20479874e+3, 1.3463598e+2, -1792151.9, -1607879.6, 18116.184, 0.21417183, -0.0026659067, -1606115.4, 14454.989, 0.0012988481, 9.998373, 10.000838 
1.20482326e+3, 1.4463656e+2, -1712803.1, -1633448.5, -37981.215, 0.11336278, 0.029569637, -1618199.9, -95634.66, 0.00045139206, 9.998712, 9.999807 
1.2048466e+3, 1.5463781e+2, -1535236.3, -1497019.0, -70699.39, 0.08761942, 0.14235207, -1442891.4, -18333.004, 0.00006471426, 9.999278, 9.999794 
1.2048711e+3, 1.6463836e+2, -1355270.3, -1228935.0, 57602.098, 0.045699105, 0.17081279, -1206614.9, 119938.945, 0.00000057087306, 9.999285, 10.0009575 
1.2048977e+3, 1.7463773e+2, -1323120.9, -1146891.8, 14853.118, 0.01443731, -0.024998846, -1145648.8, 82906.19, 0.0, 9.998775, 10.001088 
1.20492384e+3, 1.8463784e+2, -1317230.4, -1304907.4, -58502.883, 0.044204503, -0.020591164, -1252242.4, -121690.47, 0.0, 9.999036, 9.999211 
1.2049493e+3, 1.9463854e+2, -1039695.8, -1114967.8, -45535.49, 0.13939168, 0.097053856, -1018256.06, 14290.943, 0.0, 10.000249, 9.99925 
1.2049746e+3, 2.0463803e+2, -898412.7, -1020839.25, 30297.482, 0.16460477, 0.13925216, -891325.1, 43227.9, 0.0, 10.000641, 9.999047 
1.2049999e+3, 2.1463576e+2, -874775.3, -952191.5, 30750.178, 0.117276534, -0.023711, -864047.7, -27472.336, 0.0, 10.0001, 9.999107 
1.205025e+3, 2.2463503e+2, -744969.6, -744772.75, 14873.483, 0.09070987, -0.034990337, -729997.4, 8582.852, 0.0, 9.999926, 9.999943 
1.2050502e+3, 2.3463586e+2, -602828.44, -613615.1, -32143.484, 0.0936079, 0.018560305, -575629.0, 64938.504, 0.0, 10.000178, 10.000047 
1.2050753e+3, 2.4463561e+2, -607406.25, -735553.6, -62468.99, 0.13976471, 0.0712583, -581993.56, -39423.754, 0.0, 10.000208, 9.998514 
1.2051002e+3, 2.5463378e+2, -543801.4, -655960.06, -58673.3, 0.21353294, 0.010463229, -518717.63, -74124.86, 0.00000000020898414, 9.999974, 9.998504 
1.20512486e+3, 2.646327e+2, -391770.3, -454777.8, 985.29443, 0.20868449, 0.02772384, -391754.9, -45150.586, 0.00000074892756, 10.000019, 9.999192 
1.2051493e+3, 2.7463228e+2, -234354.05, -318428.4, -24496.26, 0.11613149, 0.032591883, -227737.44, 20867.15, 0.000009032264, 10.00038, 9.999282 
1.2051751e+3, 2.846313e+2, -161850.23, -364346.88, 38571.348, 0.09805796, 0.07527944, -154752.03, -4140.541, 0.000052136886, 10.000775, 9.998103 
1.2052023e+3, 2.9462937e+2, -19216.338, -244906.92, 51963.434, 0.16769928, 0.03497495, -7826.9385, 44803.168, 0.0001849306, 10.001081, 9.998097 
1.2052283e+3, 3.0462566e+2, 51030.246, -289799.13, 22478.768, 0.20759542, -0.08515246, 52506.4, 52506.4, 0.0004665325, 10.001693, 9.997161 
1.20525144e+3, 3.1462324e+2, 189090.78, -117649.38, 55683.883, 0.054731343, -0.08248596, 198886.5, 198886.5, 0.00090606173, 10.00214, 9.998119 
1.214771e+3, 1.24609545e+2, -1976065.6, -1758638.0, 91666.83, 0.16135958, 0.008738641, -1725149.5, -6321.981, 0.0026624324, 9.9978485, 10.000701 
1.21479526e+3, 1.3461e+2, -1808365.1, -1633407.0, 41464.51, 0.012921035, -0.031773113, -1624077.5, -3254.61, 0.0014356553, 9.998348, 10.000675 
1.21482104e+3, 1.446108e+2, -1682569.5, -1568099.3, -35903.227, -0.016898286, 0.010677472, -1557770.4, -34954.285, 0.0005075534, 9.998705, 10.000257 
1.21484555e+3, 1.5461141e+2, -1504202.5, -1438745.4, -30754.6, 0.030544044, 0.012983345, -1426562.9, -1749.8768, 0.000076397075, 9.999298, 10.00019 
1.2148704e+3, 1.6461203e+2, -1416584.1, -1355803.1, 23698.094, 0.006697394, 0.07390494, -1347655.5, -20847.57, 0.0000008702971, 9.999291, 10.000077 
1.21489614e+3, 1.746125e+2, -1397261.8, -1288452.4, 7624.359, -0.049866423, 0.08131664, -1287920.6, -59118.117, 0.0, 9.998722, 10.000143 
1.2149225e+3, 1.846126e+2, -1270935.6, -1196844.6, -31469.8, -0.016273787, 0.09379294, -1185282.4, -54481.664, 0.0, 9.998984, 9.999978 
1.2149497e+3, 1.9461189e+2, -997217.06, -1005676.06, 14062.615, 0.12148045, -0.008068046, -986761.7, 46044.26, 0.0, 10.0001545, 10.000051 
1.2149755e+3, 2.0461176e+2, -894113.44, -980501.7, -5327.5283, 0.16122355, 0.017173383, -893786.1, 41020.277, 0.0, 10.000508, 9.999385 
1.21499985e+3, 2.1461208e+2, -879973.8, -914692.44, 21609.727, 0.08812594, 0.075419106, -869614.44, -32810.973, 0.0, 9.999892, 9.999462 
1.2150248e+3, 2.2461112e+2, -831803.75, -881535.6, 6908.667, 0.05389435, 0.06020022, -830861.8, -92050.62, 0.0, 9.999732, 9.999102 
1.21505015e+3, 2.3460844e+2, -686732.3, -750522.2, -8022.3857, 0.064704455, -0.1482816, -685738.9, -44905.082, 0.0, 10.000011, 9.999189 
1.21507496e+3, 2.4460734e+2, -609440.94, -689542.2, -82513.13, 0.06662058, -0.15447044, -557772.06, -14928.421, 0.0, 9.999996, 9.998929 
1.2150989e+3, 2.5460783e+2, -533468.94, -599162.75, -53555.0, 0.0593809, -0.032798752, -503490.22, -58648.66, 0.00000000018849695, 9.999824, 9.998964 
1.2151239e+3, 2.6460725e+2, -431921.4, -506793.88, 50.91423, 0.08067552, 0.024830122, -431921.34, -85073.086, 0.00000061447383, 9.999879, 9.998908 
1.2151501e+3, 2.7460507e+2, -270679.53, -370259.66, 6132.4824, 0.13750209, -0.11364392, -270303.28, -21434.818, 0.000008322687, 10.000268, 9.998986 
1.21517606e+3, 2.8460398e+2, -144090.89, -279229.75, 38504.156, 0.104467504, -0.10395186, -133890.16, 16987.504, 0.000050710027, 10.000583, 9.998777 
1.2152018e+3, 2.9460388e+2, 14956.977, -143116.53, 85930.56, -0.022472782, -0.029542457, 52671.54, 105547.625, 0.00018357177, 10.000953, 9.998857 
1.2152287e+3, 3.046018e+2, 52243.348, -247512.44, 30763.164, 0.05451506, -0.04716045, 55367.92, 55367.92, 0.00046227945, 10.00153, 9.997532 
1.21525474e+3, 3.1460088e+2, 214176.36, -11497.711, 111343.984, 0.1081313, 0.07653052, 259862.75, 259862.75, 0.00088881893, 10.001914, 9.99896 
1.2247694e+3, 1.2458325e+2, -2007208.5, -1818249.6, 53317.13, 0.2399932, 0.024607627, -1804243.6, -85161.05, 0.0029179724, 9.997773, 10.000349 
1.2247935e+3, 1.3458377e+2, -1836110.6, -1653820.1, -21857.535, 0.013994914, -0.001515761, -1651235.9, -30155.596, 0.0015834377, 9.998176, 10.000627 
1.22482054e+3, 1.4458454e+2, -1721444.5, -1535331.5, -63576.684, 0.0962133, 0.01677809, -1515687.0, 7387.1577, 0.00056846405, 9.998224, 10.00071 
1.22484446e+3, 1.5458527e+2, -1623630.1, -1430532.8, -90791.9, 0.058412023, -0.021908812, -1394549.1, 30517.666, 0.00008951281, 9.998221, 10.000747 
1.2248694e+3, 1.6458593e+2, -1509544.4, -1431941.8, 29343.418, 0.0120226005, 0.025867853, -1422095.6, -95035.73, 0.0000012652538, 9.9987545, 9.999837 
1.2248957e+3, 1.7458634e+2, -1234052.6, -1235845.6, 40270.09, -0.012385766, 0.05100175, -1194669.0, 34386.69, 0.0, 9.999935, 9.999932 
1.2249224e+3, 1.8458639e+2, -1093903.8, -1087187.1, 31779.264, 0.02641955, 0.060298104, -1058589.1, 72464.98, 0.0, 10.000085, 10.000209 
1.22494936e+3, 1.9458568e+2, -1132481.4, -1044491.4, 792.5541, 0.13184391, -0.066033214, -1044484.2, -11424.882, 0.0, 9.999107, 10.000298 
1.2249751e+3, 2.0458584e+2, -1076988.0, -1031711.5, -4839.077, 0.15216446, -0.041270353, -1031200.06, -96143.36, 0.0, 9.999098, 9.999714 
1.22499965e+3, 2.1458676e+2, -812561.25, -844247.3, -6380.636, 0.069833264, 0.048266623, -811324.7, 25722.494, 0.0, 10.000206, 9.999792 
1.2250249e+3, 2.2458604e+2, -704599.44, -845937.75, 21363.777, 0.053905964, 0.050562166, -701440.8, 37612.637, 0.0, 10.000711, 9.998872 
1.22505076e+3, 2.345831e+2, -637140.56, -758237.56, 16050.284, 0.109968506, -0.15861829, -635049.4, 6031.694, 0.0, 10.000483, 9.998913 
1.22507565e+3, 2.445819e+2, -527442.25, -629841.1, -14209.424, 0.12092477, -0.17132439, -525507.0, 17584.936, 0.0, 10.000451, 9.999133 
1.2250993e+3, 2.5458246e+2, -396174.94, -504544.53, -28012.303, 0.07765657, -0.062119, -389362.34, 55723.52, 0.0, 10.000641, 9.999224 
1.22512415e+3, 2.6458186e+2, -339450.3, -504185.66, 45429.582, 0.0858018, -0.0042219316, -327752.7, 19340.352, 0.0000003685213, 10.000716, 9.998509 
1.2251505e+3, 2.7457944e+2, -258188.84, -408630.75, 7548.4707, 0.14113902, -0.12168309, -257811.05, -8692.053, 0.0000073761885, 10.000586, 9.9985485 
1.2251765e+3, 2.8457826e+2, -127201.03, -215049.17, 53602.574, 0.11417965, -0.119715706, -101824.6, 49304.934, 0.000049087277, 10.000432, 9.999292 
1.2252025e+3, 2.9457837e+2, -73553.09, -128529.83, 60502.414, 0.013342056, -0.08297183, -34587.324, 18536.523, 0.00018153466, 10.000081, 9.999384 
1.2252301e+3, 3.0457702e+2, -96562.99, -289631.13, 52791.98, 0.11119766, -0.068399854, -83070.61, -83070.61, 0.00045750884, 10.00038, 9.997788 
1.2252566e+3, 3.145767e+2, 132750.94, 4014.2737, 61808.32, 0.16694967, 0.08702483, 157621.33, 157621.33, 0.0008771935, 10.001075, 9.999477 
1.23476475e+3, 1.2455583e+2, -1983467.3, -1784486.8, -81957.49, -0.056382686, 0.031982232, -1755076.5, -35723.688, 0.0031899144, 9.9978285, 10.000554 
1.2347925e+3, 1.3455725e+2, -1821494.8, -1634413.0, -2410.765, 0.074055456, 0.07748094, -1634381.9, -13038.581, 0.0017411282, 9.998202, 10.00075 
1.2348213e+3, 1.445576e+2, -1684854.3, -1466405.0, -82773.8, 0.3108527, 0.025670158, -1438583.9, 84756.79, 0.0006337289, 9.998247, 10.001177 
1.234843e+3, 1.5455931e+2, -1587503.1, -1360348.4, -81749.305, 0.061171692, 0.04021344, -1333987.3, 91333.34, 0.00010392506, 9.998224, 10.001238 
1.23486765e+3, 1.6455998e+2, -1462464.5, -1335363.3, 51428.184, -0.055876758, 0.029742649, -1317160.9, 10149.433, 0.0000017603737, 9.998758, 10.000496 
1.2348961e+3, 1.7455924e+2, -1189330.3, -1146354.9, 97131.766, 0.00674365, -0.12640774, -1068362.4, 160951.63, 0.0, 9.999938, 10.00055 
1.234923e+3, 1.8455921e+2, -1125293.3, -1144955.5, -17007.965, 0.047810696, -0.13777556, -1115479.5, 15833.115, 0.0, 10.000053, 9.999828 
1.2349479e+3, 1.9455984e+2, -1175007.8, -1111286.4, -22670.121, 0.05364015, -0.08719097, -1104044.1, -70736.78, 0.0, 9.999009, 9.999888 
1.23497315e+3, 2.0456018e+2, -1077865.5, -994320.7, 15756.511, 0.025635121, -0.039976597, -991447.8, -56143.688, 0.0, 9.998933, 10.00005 
1.2349989e+3, 2.1455988e+2, -813377.94, -806568.4, 49421.465, -0.04460106, -0.11024619, -760434.56, 76871.43, 0.0, 10.0000305, 10.000138 
1.235025e+3, 2.2455981e+2, -711333.7, -817964.7, 1219.5006, -0.022149662, -0.07186551, -711319.75, 27987.28, 0.0, 10.000525, 9.999158 
1.2350515e+3, 2.345598e+2, -644532.3, -733048.56, 24048.973, 0.11292966, -0.017034499, -638420.44, 2889.1328, 0.0, 10.000299, 9.999178 
1.2350768e+3, 2.445592e+2, -551012.75, -633625.44, -21879.203, 0.16858816, 0.014921012, -545576.06, -2261.094, 0.0, 10.0002575, 9.9992 
1.2351007e+3, 2.5455767e+2, -410406.53, -502944.53, -6312.178, 0.14343274, -0.09392849, -409977.97, 35348.023, 0.0, 10.000499, 9.999308 
1.23512514e+3, 2.6455644e+2, -409883.44, -606545.9, 28218.008, 0.10096389, -0.07294162, -405914.66, -58575.52, 0.00000016286783, 10.000533, 9.997894 
1.2351502e+3, 2.7455524e+2, -325243.56, -515231.5, 21528.465, 0.019926565, -0.006262429, -322834.6, -73476.88, 0.000006622681, 10.000446, 9.997885 
1.2351762e+3, 2.845541e+2, -120928.03, -165020.45, 31746.346, 0.009700514, 0.01476806, -104323.68, 47045.29, 0.000048750662, 10.000278, 9.999709 
1.2352039e+3, 2.9455274e+2, -55272.906, -68758.8, 70283.04, 0.111410424, -0.14009371, 8589.906, 61964.445, 0.00018217463, 9.999982, 9.999846 
1.2352318e+3, 3.045513e+2, -109481.43, -288713.56, 71861.086, 0.21840413, -0.15966661, -84227.766, -84227.766, 0.00045752534, 10.000262, 9.997849 
1.2352566e+3, 3.1455064e+2, 111362.625, 15213.975, 119443.375, -0.0029955907, -0.04732428, 192043.34, 192043.34, 0.000874485, 10.000845, 9.999661 
1.2447632e+3, 1.2452858e+2, -1865820.1, -1666141.4, -53894.6, -0.020319836, -0.017484318, -1652523.6, 67096.945, 0.003475539, 9.998408, 10.001061 
1.2447906e+3, 1.3453083e+2, -1924343.6, -1680173.6, 28455.848, 0.12841922, 0.10263667, -1676901.1, -55299.453, 0.0019075654, 9.997485, 10.000775 
1.24481924e+3, 1.4453109e+2, -1783415.3, -1509500.9, -1523.0807, 0.32662323, 0.037698496, -1509492.4, 14106.435, 0.0007030745, 9.997548, 10.001222 
1.24484226e+3, 1.5453246e+2, -1462846.5, -1303353.8, -66997.76, 0.13367088, 0.018063754, -1278945.5, 146635.61, 0.00011956255, 9.999074, 10.001231 
1.24486744e+3, 1.6453302e+2, -1357213.9, -1279122.5, 35073.99, 0.020201731, -0.004078386, -1265682.5, 61889.473, 0.0000023468863, 9.999476, 10.000525 
1.2448955e+3, 1.7453247e+2, -1368821.5, -1228744.4, -758.9008, 0.026390593, -0.1397373, -1228740.3, 834.20966, 0.0, 9.998709, 10.000565 
1.2449221e+3, 1.8453261e+2, -1321381.0, -1228909.5, -107242.445, 0.043232758, -0.1409083, -1158360.5, -26788.605, 0.0, 9.998667, 9.999913 
1.244947e+3, 1.9453324e+2, -1095151.6, -1064966.6, -101575.98, 0.06104958, -0.0990409, -977368.0, 56197.977, 0.0, 9.999521, 9.999958 
1.2449724e+3, 2.0453356e+2, -957937.2, -918527.94, -8400.109, 0.040906936, -0.06531034, -916812.1, 18750.492, 0.0, 9.999664, 10.000218 
1.2449985e+3, 2.1453328e+2, -967338.25, -857361.2, -19697.355, -0.018073807, -0.15382163, -853939.75, -16375.347, 0.0, 9.998868, 10.000346 
1.2450248e+3, 2.2453363e+2, -935632.9, -896337.25, -38813.375, -0.0005764808, -0.09882576, -872482.0, -132920.11, 0.0, 9.998877, 9.999404 
1.2450514e+3, 2.3453438e+2, -687567.94, -720302.94, -47634.645, 0.10817702, 0.0073540513, -653567.25, -12009.37, 0.0, 9.999882, 9.999454 
1.24507725e+3, 2.4453391e+2, -480922.9, -609685.25, -65237.082, 0.1699935, 0.04198509, -453648.13, 89914.66, 0.0, 10.000792, 9.999104 
1.2451021e+3, 2.5453177e+2, -265786.16, -444657.9, -92961.15, 0.18074828, -0.114041544, -226223.77, 219356.48, 0.0, 10.001556, 9.99919 
1.2451267e+3, 2.645306e+2, -214007.48, -473934.4, -37981.09, 0.15024234, -0.09546088, -208571.3, 139020.86, 0.000000050542315, 10.001689, 9.998254 
1.2451511e+3, 2.745303e+2, -215318.56, -425544.4, -1315.3318, 0.05439154, 0.024141338, -215310.33, 34290.035, 0.0000061370592, 10.001013, 9.998244 
1.2451768e+3, 2.8452933e+2, -75047.15, -160972.7, 69877.32, 0.032182716, 0.050691046, -35981.637, 115628.63, 0.000049451548, 10.000682, 9.99954 
1.2452042e+3, 2.9452726e+2, 41769.082, -36579.25, 24780.656, 0.120211884, -0.15632647, 48948.945, 102574.01, 0.00018750013, 10.000733, 9.999693 
1.24523245e+3, 3.0452633e+2, 2118.861, -200595.33, 67317.83, 0.23675191, -0.1327998, 22437.363, 22437.363, 0.000470274, 10.000853, 9.99819 
1.2452579e+3, 3.1452549e+2, 145705.06, 66635.61, 78416.13, 0.057154432, -0.07172315, 193988.81, 193988.81, 0.00089436676, 10.000926, 9.999986 
1.2547629e+3, 1.2450245e+2, -1789534.9, -1531135.5, -138103.63, 0.03591206, -0.056035493, -1471218.4, 248658.27, 0.0037739007, 9.998491, 10.001958 
1.2547879e+3, 1.3450472e+2, -1926558.6, -1689153.8, 5148.3384, 0.07977366, 0.07193057, -1689042.1, -67189.17, 0.0020822603, 9.997499, 10.0007105 
1.254814e+3, 1.4450523e+2, -1813862.3, -1572608.4, 36200.547, 0.0069086137, 0.055330228, -1567293.5, -43447.598, 0.0007764397, 9.997546, 10.000787 
1.2548418e+3, 1.5450484e+2, -1491269.8, -1367460.9, 5934.18, 0.14450732, -0.097351365, -1367177.1, 58669.777, 0.00013646827, 9.999096, 10.000778 
1.2548684e+3, 1.6450512e+2, -1408203.4, -1391899.5, -10182.625, 0.1284193, -0.084430456, -1387007.6, -59163.98, 0.0000030208696, 9.9995, 9.999743 
1.2548937e+3, 1.7450623e+2, -1425115.3, -1340258.4, -19950.334, -0.05467207, 0.01912754, -1335802.0, -105966.03, 0.0, 9.99868, 9.999814 
1.2549196e+3, 1.8450664e+2, -1286081.0, -1143781.0, -94787.91, -0.09407027, 0.055406928, -1096410.8, 35421.043, 0.0, 9.998612, 10.000527 
1.2549466e+3, 1.9450587e+2, -1058544.5, -971924.9, -55567.363, 0.037194233, -0.11045491, -944782.75, 89052.7, 0.0, 9.999443, 10.000636 
1.2549728e+3, 2.04506e+2, -979225.1, -926295.4, -51469.41, 0.08572483, -0.13160756, -894885.44, 40946.656, 0.0, 9.999511, 10.000242 
1.254998e+3, 2.1450701e+2, -998089.25, -875608.4, -35906.36, 0.030721352, -0.08643427, -865858.25, -28036.305, 0.0, 9.998671, 10.000321 
1.2550238e+3, 2.2450744e+2, -951011.5, -878464.56, -19447.451, -0.008894935, -0.033681173, -873580.2, -133761.61, 0.0, 9.998664, 9.999626 
1.2550503e+3, 2.3450683e+2, -697670.25, -701029.3, 4088.5496, -0.017627478, -0.08548956, -694929.7, -53103.754, 0.0, 9.999703, 9.999674 
1.2550767e+3, 2.4450605e+2, -526471.3, -659723.3, -50626.563, 0.009718586, -0.08330979, -509418.94, 34416.03, 0.0, 10.000599, 9.998854 
1.2551028e+3, 2.5450474e+2, -316248.16, -506617.9, -49200.52, 0.07820876, -0.12749304, -304284.28, 141564.38, 0.0, 10.001365, 9.998859 
1.2551282e+3, 2.6450428e+2, -154766.5, -305017.88, -75310.59, 0.111462705, -0.08002842, -123517.586, 224335.39, 0.00000007625481, 10.001493, 9.999507 
1.2551528e+3, 2.745046e+2, -140200.4, -236966.42, -9668.024, 0.105372824, -0.033112973, -139243.92, 110604.04, 0.0000061507535, 10.00087, 9.999609 
1.2551779e+3, 2.84504e+2, -145845.75, -282256.84, 56997.7, 0.041761, -0.006214568, -125165.22, 26688.447, 0.000051588533, 10.000568, 9.998758 
1.2552032e+3, 2.9450193e+2, -35198.74, -174261.8, 43398.04, -0.07474603, -0.12996887, -22766.719, 31108.625, 0.00020006, 10.000632, 9.9987955 
1.2552316e+3, 3.0450198e+2, 27652.336, -123837.47, 56821.35, 0.054940224, 0.009585999, 46596.168, 46596.168, 0.00050364056, 10.0007515, 9.998761 
1.2552594e+3, 3.145011e+2, 130640.19, 87981.66, 112625.74, 0.054045606, -0.00047677557, 223938.56, 223938.56, 0.00095293473, 10.000698, 10.000242 
1.264762e+3, 1.2447643e+2, -1900075.3, -1598917.0, -50096.184, 0.157486, -0.07227163, -1590802.4, 129326.37, 0.004085261, 9.997803, 10.001844 
1.2647864e+3, 1.344772e+2, -1689804.6, -1592520.5, -29722.736, 0.10749469, -0.061940324, -1584158.3, 37958.766, 0.0022650692, 9.999232, 10.000533 
1.2648112e+3, 1.4447786e+2, -1553784.6, -1501523.3, 41327.246, -0.11553513, -0.033595733, -1478758.6, 45350.16, 0.00085386867, 9.999566, 10.0003 
1.2648407e+3, 1.5447754e+2, -1535498.5, -1439880.9, -27442.238, 0.14310062, -0.12768096, -1432564.8, -6452.5127, 0.00015477135, 9.999036, 10.000301 
1.2648681e+3, 1.644779e+2, -1510601.4, -1435716.3, -9502.622, 0.20166373, -0.08373099, -1434529.3, -106419.305, 0.0000038088367, 9.998779, 9.999784 
1.264893e+3, 1.7447895e+2, -1360417.6, -1304849.4, 12746.367, -0.005431032, 0.009267409, -1302065.1, -71962.79, 0.0, 9.999104, 9.999858 
1.2649189e+3, 1.8447943e+2, -1194303.8, -1083454.3, 2874.899, -0.058325525, 0.042179633, -1083379.8, 48717.72, 0.0, 9.999169, 10.000671 
1.264946e+3, 1.9447896e+2, -1118940.1, -982984.8, -29314.584, 0.06781321, -0.10952701, -976933.4, 57165.48, 0.0, 9.998961, 10.000786 
1.2649724e+3, 2.0447917e+2, -1047991.06, -982666.94, -39177.47, 0.12074842, -0.11892761, -964322.3, -28227.227, 0.0, 9.999143, 10.000027 
1.2649976e+3, 2.1447998e+2, -850366.25, -830625.94, -72984.3, 0.074780226, -0.07224978, -766847.4, 71240.29, 0.0, 9.999799, 10.00008 
1.2650235e+3, 2.2448017e+2, -755362.94, -774520.94, -27028.395, 0.040520597, -0.035025742, -736266.3, 3820.0654, 0.0, 9.999942, 9.999737 
1.2650502e+3, 2.3447944e+2, -734618.9, -702510.6, -36048.805, 0.03182207, -0.11259733, -679102.7, -37008.945, 0.0, 9.999366, 9.999833 
1.2650768e+3, 2.444789e+2, -691288.6, -717491.75, -34209.02, 0.03804954, -0.10400928, -667758.1, -123657.57, 0.0, 9.999358, 9.999062 
1.2651032e+3, 2.544783e+2, -490620.16, -567851.06, -22841.492, 0.061978, -0.09694047, -484370.38, -38261.07, 0.0, 10.000052, 9.99908 
1.265129e+3, 2.644781e+2, -266443.66, -333086.06, -63262.99, 0.09736078, -0.0452701, -228263.06, 119847.94, 0.00000015326442, 10.000626, 9.999733 
1.265154e+3, 2.7447805e+2, -100013.88, -187602.22, -116376.13, 0.14676872, -0.05676427, -19464.441, 230642.33, 0.0000068361555, 10.001028, 9.999865 
1.2651789e+3, 2.8447726e+2, -115704.805, -317413.72, -56454.195, 0.09011616, -0.03914524, -100979.43, 51134.883, 0.000055437977, 10.000979, 9.998327 
1.2652038e+3, 2.9447538e+2, -77502.805, -247709.75, -72574.69, -0.06963613, -0.09423593, -50759.57, 3378.5354, 0.00021969865, 10.000565, 9.99833 
1.2652323e+3, 3.0447575e+2, 25345.979, -95127.31, -11204.807, 0.061088465, 0.093722716, 26379.238, 26379.238, 0.00055760087, 10.000626, 9.999007 
1.2652609e+3, 3.1447446e+2, 137256.63, 64802.4, -50875.51, 0.13127509, 0.017649703, 163485.27, 163485.27, 0.0010537416, 10.000875, 9.999988 
1.2747608e+3, 1.244513e+2, -1982335.9, -1780570.8, 95377.81, 0.19896212, -0.0009112964, -1742621.8, -22252.7, 0.0044096503, 9.997849, 10.0005665 
1.2747857e+3, 1.3444841e+2, -1721055.1, -1666990.4, 30549.643, 0.08261801, -0.30760047, -1653230.3, -30837.387, 0.0024558255, 9.999263, 10.0000105 
1.2748104e+3, 1.4444897e+2, -1578710.8, -1574222.8, 5524.75, -0.19468077, -0.23569714, -1570503.6, -46116.19, 0.00093550276, 9.999653, 9.99976 
1.2748387e+3, 1.5445073e+2, -1569139.8, -1518677.5, -35668.773, 0.017561644, -0.06966355, -1500218.0, -73842.11, 0.00017466526, 9.999066, 9.999747 
1.2748663e+3, 1.644514e+2, -1442523.3, -1307095.1, -15727.372, 0.116268866, -0.0073855133, -1305292.6, 23077.88, 0.0000047674703, 9.998822, 10.000651 
1.274893e+3, 1.744506e+2, -1292454.1, -1168283.9, 39563.66, 0.06217908, -0.19211724, -1156749.4, 73624.65, 0.0, 9.999111, 10.000794 
1.2749192e+3, 1.8445098e+2, -1230928.5, -1145973.6, -16753.313, 0.029153802, -0.19883655, -1142789.3, -10420.454, 0.0, 9.999116, 10.000264 
1.274945e+3, 1.9445255e+2, -1165580.9, -1058139.3, -22083.494, 0.032261882, -0.10139435, -1053777.4, -19422.057, 0.0, 9.998867, 10.000314 
1.2749708e+3, 2.0445314e+2, -1101112.0, -1063209.0, -33270.23, 0.02129569, -0.02798666, -1043871.25, -107520.09, 0.0, 9.999011, 9.999538 
1.2749968e+3, 2.1445222e+2, -911551.1, -915771.1, -36216.87, -0.0005543322, -0.104710236, -877382.8, -39021.57, 0.0, 9.999613, 9.999588 
1.2750235e+3, 2.2445194e+2, -780807.75, -777443.5, -61115.92, 0.03517408, -0.09207483, -717986.56, 22377.861, 0.0, 9.999736, 9.999811 
1.2750508e+3, 2.3445214e+2, -757163.9, -704986.75, -42029.758, 0.13657199, -0.08728098, -681607.0, -39245.32, 0.0, 9.999175, 9.999907 
1.2750773e+3, 2.4445237e+2, -678977.7, -642809.7, -22707.557, 0.131411, -0.031896494, -631865.0, -87504.63, 0.0, 9.99915, 9.999672 
1.275103e+3, 2.5445253e+2, -467870.8, -478415.2, 20625.809, 0.004106632, -0.023174787, -451854.03, -5492.1484, 0.0, 9.99987, 9.999781 
1.2751287e+3, 2.644522e+2, -349388.78, -463331.9, -60516.875, -0.021100415, 0.014693709, -323245.66, 25119.596, 0.00000020123079, 10.00045, 9.99892 
1.2751545e+3, 2.7445078e+2, -191141.31, -335266.7, -83315.09, 0.063255936, -0.04478715, -153047.58, 97327.91, 0.0000077157165, 10.000855, 9.998931 
1.27518e+3, 2.8444928e+2, -145416.86, -352806.28, -85489.31, 0.06042832, -0.038878493, -114720.3, 37670.723, 0.000060411407, 10.000863, 9.998139 
1.2752052e+3, 2.9444766e+2, -105458.58, -274368.94, -65171.816, -0.019554643, -0.052759364, -83236.48, -28823.95, 0.00024271311, 10.000432, 9.998211 
1.2752338e+3, 3.0444783e+2, -5419.025, -138246.69, -7738.857, 0.113521166, 0.12744051, -4969.6606, -4969.6606, 0.0006224366, 10.00053, 9.998758 
1.2752615e+3, 3.1444645e+2, 32552.664, -83840.32, -7153.9097, 0.057815026, 0.06299007, 32990.72, 32990.72, 0.0011818967, 10.000598, 9.99909 
1.2847611e+3, 1.2442475e+2, -1685216.3, -1708360.8, 99718.35, 0.3410545, 0.02723324, -1596401.0, 124227.21, 0.0047468157, 10.000164, 9.999946 
1.2847841e+3, 1.344218e+2, -1837378.8, -1717295.4, -21335.95, 0.054259885, -0.29202732, -1713617.1, -90962.9, 0.0026545508, 9.99842, 10.000063 
1.2848097e+3, 1.4442234e+2, -1881102.6, -1718982.0, 41783.004, -0.114772394, -0.22732559, -1708846.9, -184197.17, 0.0010215283, 9.997595, 9.999759 
1.284838e+3, 1.5442415e+2, -1621271.0, -1539575.9, 11277.849, 0.06067738, -0.0534606, -1538047.5, -111410.164, 0.00019628371, 9.998697, 9.9997835 
1.2848656e+3, 1.6442475e+2, -1397252.1, -1265341.5, 47963.324, 0.16090307, -0.00895922, -1249745.8, 78886.29, 0.0000059623408, 9.999038, 10.000843 
1.2848923e+3, 1.7442384e+2, -1368630.3, -1177384.9, 15085.796, 0.117899045, -0.22564061, -1176202.1, 54433.125, 0.0, 9.998474, 10.001038 
1.2849183e+3, 1.8442427e+2, -1333234.9, -1209526.1, -16677.334, 0.073138714, -0.2330129, -1207317.3, -74687.734, 0.0, 9.998484, 10.000134 
1.2849438e+3, 1.9442606e+2, -1103305.4, -1043614.0, -27544.21, 0.030467356, -0.09875732, -1032846.3, 1769.1302, 0.0, 9.999373, 10.000173 
1.28497e+3, 2.0442663e+2, -956359.3, -1002610.06, 24086.055, 0.0066227526, -0.011252649, -946094.25, -9482.645, 0.0, 10.000045, 9.999461 
1.2849969e+3, 2.1442552e+2, -795953.94, -865044.75, 26390.223, 0.00589592, -0.10206905, -787027.2, 51595.633, 0.0, 10.000435, 9.999542 
1.2850237e+3, 2.2442508e+2, -698417.6, -735797.7, 147.79848, 0.059187572, -0.10293201, -698417.06, 42209.81, 0.0, 10.000303, 9.999821 
1.2850504e+3, 2.3442526e+2, -703650.1, -673349.8, -23962.018, 0.17904615, -0.10155298, -660150.25, -17525.88, 0.0, 9.99954, 9.99994 
1.2850769e+3, 2.444256e+2, -645708.7, -613584.44, 47552.723, 0.18836652, -0.042790744, -579454.44, -34832.824, 0.0, 9.999321, 9.99979 
1.2851031e+3, 2.54426e+2, -484772.63, -472126.4, 20252.56, 0.06987815, -0.018647056, -457232.8, -10612.777, 0.0, 9.9997015, 9.999902 
1.2851293e+3, 2.6442546e+2, -394948.34, -509040.1, -34247.668, 0.021952096, 0.0018492456, -385457.5, -36832.38, 0.00000014147287, 10.000212, 9.998732 
1.2851551e+3, 2.744234e+2, -191841.78, -356320.88, -35486.855, 0.048083194, -0.10477825, -184512.03, 66129.96, 0.000007879153, 10.000925, 9.998759 
1.2851807e+3, 2.844217e+2, -95077.445, -352129.75, -6193.814, 0.047804125, -0.0962403, -94928.29, 57730.95, 0.00006527563, 10.001316, 9.997924 
1.2852065e+3, 2.944203e+2, 2583.2627, -247012.77, -32130.275, 0.04214862, -0.0701836, 6653.006, 61332.348, 0.000269289, 10.001268, 9.997997 
1.2852348e+3, 3.0442e+2, 90478.22, -46908.484, 75543.62, 0.16782488, 0.05527613, 123890.76, 123890.76, 0.00069755525, 10.00098, 9.999184 
1.2852617e+3, 3.1441918e+2, -17269.744, -117008.805, 51279.324, 0.055115454, 0.010488074, 4390.715, 4390.715, 0.0013291562, 10.000238, 9.99906 
1.2947619e+3, 1.2439587e+2, -1665299.1, -1674268.5, -77228.04, 0.3406078, -0.09375396, -1592425.6, 128489.984, 0.0050962004, 10.000216, 10.000152 
1.2947814e+3, 1.343977e+2, -1803303.8, -1628401.6, -83074.016, -0.07960631, 0.0027226915, -1595233.5, 27664.87, 0.0028611089, 9.998355, 10.000705 
1.2948088e+3, 1.4439826e+2, -1848626.1, -1644665.0, 55994.4, 0.0038629617, 0.014906653, -1630303.8, -105410.586, 0.00111182, 9.997564, 10.000284 
1.294838e+3, 1.54398e+2, -1587001.5, -1464408.3, 71367.47, 0.16442002, -0.071961775, -1431627.4, -4732.521, 0.000219555, 9.998678, 10.000313 
1.2948655e+3, 1.643981e+2, -1427061.1, -1331136.5, 13377.221, 0.20514333, -0.08482683, -1329305.9, -413.0421, 0.0000074533, 9.999051, 10.000381 
1.2948902e+3, 1.743988e+2, -1410455.1, -1262182.1, 6339.921, 0.04514551, -0.0903178, -1261911.5, -31026.508, 0.0, 9.99846, 10.000462 
1.2949158e+3, 1.8439941e+2, -1330409.0, -1199715.5, -2531.3564, -0.053985637, -0.05122998, -1199666.5, -66787.875, 0.0, 9.998462, 10.000215 
1.2949428e+3, 1.9439954e+2, -1103347.3, -1030872.56, 18368.07, -0.047503382, -0.09537639, -1026483.2, 8395.213, 0.0, 9.999308, 10.000296 
1.2949699e+3, 2.043997e+2, -953577.1, -961667.25, 23715.27, -0.038354956, -0.07300073, -933564.44, 3311.7468, 0.0, 9.999902, 9.999806 
1.2949972e+3, 2.1439977e+2, -800297.56, -826082.1, 52998.598, -0.028244138, -0.08250423, -758645.7, 80227.46, 0.0, 10.000233, 9.999903 
1.2950236e+3, 2.2439954e+2, -739439.25, -769369.0, -40599.258, -0.006209204, -0.07560106, -711134.6, 29739.441, 0.0, 10.00008, 9.999701 
1.2950489e+3, 2.3439875e+2, -741033.1, -707091.2, -35230.086, 0.039462555, -0.15579405, -684957.56, -42075.84, 0.0, 9.999344, 9.999806 
1.2950754e+3, 2.4439855e+2, -712280.9, -691714.4, 43923.426, 0.08586868, -0.12639461, -656886.5, -112002.06, 0.0, 9.999078, 9.999365 
1.2951037e+3, 2.543987e+2, -548642.06, -552102.94, 50614.637, 0.13873999, -0.08114185, -499728.28, -52844.023, 0.0, 9.99949, 9.999449 
1.2951306e+3, 2.6439792e+2, -387684.53, -461022.66, -22254.258, 0.1114117, -0.07835352, -381459.84, -32569.033, 0.000000052302592, 10.00006, 9.99914 
1.2951556e+3, 2.7439594e+2, -185149.14, -297974.78, 7740.812, -0.025413282, -0.22468701, -184620.53, 66285.2, 0.000007172051, 10.000731, 9.999256 
1.295181e+3, 2.8439456e+2, -144144.84, -409758.34, -20181.697, -0.08131899, -0.20085166, -142620.17, 10299.235, 0.00006969282, 10.0011215, 9.997621 
1.2952074e+3, 2.9439336e+2, -53222.945, -317510.38, -11925.227, -0.0209153, -0.11943039, -52685.945, 2251.227, 0.00030090337, 10.001078, 9.997601 
1.2952355e+3, 3.0439237e+2, 141806.1, 77925.9, 38012.695, 0.103877544, -0.08384887, 159516.13, 159516.13, 0.00078645255, 10.0008955, 10.000088 
1.295261e+3, 3.1439304e+2, 5364.2217, -14107.044, 50016.16, -0.09720651, -0.09021411, 46583.46, 46583.46, 0.0014985187, 10.000006, 9.999878 
1.3047625e+3, 1.24370106e+2, -1949726.3, -1798347.5, 7442.5386, 0.48309004, -0.09021546, -1797982.5, -76810.88, 0.0054552136, 9.998217, 10.000258 
1.3047807e+3, 1.343731e+2, -1599178.0, -1540816.5, -27196.363, -0.030892445, 0.13413627, -1530107.9, 93036.88, 0.003073975, 9.999811, 10.000601 
1.3048084e+3, 1.4437321e+2, -1469527.8, -1440171.1, 127563.71, 0.10710003, 0.09811146, -1326444.1, 198698.92, 0.0012055306, 10.000061, 10.000481 
1.3048372e+3, 1.5437232e+2, -1467081.1, -1376937.8, 94241.984, 0.19631292, -0.08071739, -1317544.1, 109603.09, 0.000244213, 9.999372, 10.000569 
1.3048643e+3, 1.6437237e+2, -1479582.8, -1379523.4, 42537.254, 0.21283035, -0.10200344, -1363884.3, -34739.504, 0.000009295233, 9.998819, 10.000155 
1.3048887e+3, 1.7437367e+2, -1395186.0, -1279117.1, 23536.781, 0.052717116, -0.017838515, -1274525.9, -43392.65, 0.0, 9.998697, 10.000223 
1.3049145e+3, 1.8437424e+2, -1271571.3, -1200232.6, 86844.05, -0.034879707, 0.03894929, -1142018.0, -8889.546, 0.0, 9.998978, 9.999968 
1.3049424e+3, 1.9437352e+2, -1058677.1, -1033978.9, 55057.87, -0.014541023, -0.06589486, -989902.25, 45233.23, 0.0, 9.999721, 10.000075 
1.30497e+3, 2.0437326e+2, -946494.56, -938535.2, 36211.383, 0.0044787438, -0.081328586, -906085.44, 31050.62, 0.0, 9.99986, 9.999988 
1.3049972e+3, 2.1437348e+2, -931808.4, -864482.44, 21721.69, 0.01418837, -0.094548665, -858082.6, -18952.668, 0.0, 9.99923, 10.000121 
1.3050233e+3, 2.2437337e+2, -886478.94, -865374.94, -51969.633, 0.029044617, -0.07748346, -822896.9, -81767.39, 0.0, 9.9991665, 9.999477 
1.3050485e+3, 2.3437259e+2, -703912.4, -716730.94, -85165.49, 0.056379363, -0.13687035, -624915.3, 18223.197, 0.0, 9.999711, 9.999558 
1.3050751e+3, 2.443721e+2, -582307.8, -640354.8, 41732.12, 0.1054376, -0.119468614, -560498.94, -15355.304, 0.0, 9.999998, 9.999277 
1.3051039e+3, 2.5437167e+2, -479595.9, -528818.9, 49558.18, 0.18435252, -0.12667936, -448874.4, -1727.7551, 0.0, 9.999984, 9.999379 
1.3051312e+3, 2.643708e+2, -398525.6, -479595.03, 8964.796, 0.16961336, -0.12421984, -397546.1, -48392.082, 0.000000026393016, 10.000053, 9.999014 
1.3051564e+3, 2.7436915e+2, -261014.69, -357334.72, -41435.027, 0.024239568, -0.21920252, -245643.23, 5525.4346, 0.0000066700077, 10.000291, 9.999072 
1.3051823e+3, 2.84368e+2, -204619.77, -396737.34, -49029.957, -0.03232686, -0.17898959, -192830.39, -39650.34, 0.00007506801, 10.000526, 9.9979925 
1.3052088e+3, 2.9436696e+2, -50330.047, -273190.7, -23061.223, 0.034850843, -0.12131698, -47968.73, 7223.6733, 0.00033560226, 10.000907, 9.997984 
1.3052364e+3, 3.0436492e+2, 137374.06, 40054.09, 24384.184, 0.11627559, -0.19207497, 143141.84, 143141.84, 0.0008831013, 10.00103, 9.999754 
1.3052613e+3, 3.1436577e+2, 94204.734, 4606.744, -133700.88, -0.0915716, -0.13899358, 190412.38, 190412.38, 0.001684596, 10.000717, 9.999669 
1.3147588e+3, 1.24347866e+2, -1941593.0, -1784647.0, -88041.555, 0.23593304, 0.0488501, -1745182.1, -23790.11, 0.005819013, 9.99822, 10.000355 
1.314782e+3, 1.3434803e+2, -1659800.3, -1679285.8, 48225.086, 0.08227023, 0.08776306, -1620343.6, 3048.514, 0.0032902497, 9.999853, 9.999636 
1.3148083e+3, 1.4434724e+2, -1461453.5, -1436770.6, 80690.92, 0.038642153, 0.008293646, -1367482.9, 157915.8, 0.0013013786, 10.00013, 10.000467 
1.3148354e+3, 1.5434727e+2, -1471370.8, -1384087.4, 77391.74, 0.042708013, -0.07243117, -1338880.4, 88512.31, 0.00026992275, 9.999365, 10.000527 
1.3148619e+3, 1.6434768e+2, -1477491.0, -1385405.0, 19023.734, 0.06346805, -0.053115524, -1381629.8, -52243.242, 0.00001153221, 9.998849, 10.000106 
1.3148876e+3, 1.7434849e+2, -1393134.9, -1281183.5, 31859.916, 0.03620838, -0.017894436, -1272751.6, -41371.418, 0.0, 9.99871, 10.000208 
1.3149144e+3, 1.843487e+2, -1317010.5, -1279748.0, 97490.74, 0.01313551, 0.028852716, -1199124.3, -65745.016, 0.0, 9.998922, 9.999443 
1.3149427e+3, 1.9434792e+2, -1112780.5, -1124843.3, 95123.26, 0.013947794, -0.025683405, -1023497.6, 11889.569, 0.0, 9.99963, 9.999494 
1.3149703e+3, 2.0434737e+2, -966353.2, -947720.1, 3174.593, 0.017608253, -0.042250533, -947194.1, -9803.218, 0.0, 9.999723, 9.999989 
1.3149966e+3, 2.143468e+2, -953064.0, -876332.75, 13810.23, 0.025671111, -0.13670667, -873922.8, -34530.668, 0.0, 9.999078, 10.000118 
1.3150229e+3, 2.243466e+2, -940422.94, -924163.44, -46703.63, 0.044737402, -0.114157155, -884887.25, -143494.1, 0.0, 9.998951, 9.999172 
1.3150488e+3, 2.3434661e+2, -757733.56, -782585.75, -47583.09, 0.101814575, -0.058782805, -720980.8, -77584.875, 0.0, 9.9995165, 9.9992 
1.3150755e+3, 2.4434617e+2, -593061.75, -613895.56, 27710.803, 0.11896573, -0.028651671, -573874.6, -28474.854, 0.0, 9.999789, 9.99956 
1.315103e+3, 2.5434503e+2, -485767.22, -495012.4, 64063.797, 0.08685574, -0.14104557, -426159.47, 21246.2, 0.0, 9.999781, 9.999711 
1.3151304e+3, 2.6434407e+2, -475877.38, -597631.6, 3363.0183, 0.071888104, -0.13289028, -475784.56, -126370.016, 0.000000066602475, 9.999872, 9.99829 
1.3151574e+3, 2.7434304e+2, -345316.34, -485918.16, -11489.952, 0.06711887, -0.08697102, -344383.6, -92953.73, 0.0000067822207, 10.000105, 9.998271 
1.3151841e+3, 2.843422e+2, -153534.61, -270346.4, -47023.25, 0.066394195, -0.01577398, -136957.61, 16481.285, 0.000081610815, 10.0004225, 9.99892 
1.3152106e+3, 2.9434103e+2, -5216.996, -134106.28, 12547.1875, 0.08110863, -0.07740293, -4006.9065, 51437.824, 0.0003693932, 10.000705, 9.999044 
1.3152371e+3, 3.0433768e+2, 790.497, -204821.0, 7518.3184, 0.072838776, -0.26321357, 1065.0426, 1065.0426, 0.00097588636, 10.000868, 9.998144 
1.3152616e+3, 3.1433734e+2, -24647.83, -172358.98, -102750.42, -0.18633538, -0.15457436, 28036.291, 28036.291, 0.001864563, 10.000435, 9.998579 
1.3247569e+3, 1.2432349e+2, -1784753.0, -1687870.0, -105660.87, 0.20093119, 0.08817531, -1620075.5, 101557.305, 0.006183249, 9.999159, 10.0005865 
1.3247825e+3, 1.3432263e+2, -1778311.3, -1755014.1, 26206.531, 0.20743404, 0.046215124, -1737983.9, -114342.76, 0.0035072896, 9.999139, 9.999445 
1.3248076e+3, 1.4432193e+2, -1673995.6, -1575096.8, 73957.4, 0.036360577, 0.00096547324, -1535580.3, -9933.991, 0.0013982238, 9.998818, 10.000155 
1.3248345e+3, 1.5432191e+2, -1552487.0, -1458046.8, 20832.525, 0.053511288, -0.05403218, -1453655.5, -26012.861, 0.00029637254, 9.998956, 10.000219 
1.3248612e+3, 1.6432217e+2, -1457814.5, -1381966.6, -5998.429, 0.10577837, -0.029569041, -1381495.3, -51856.906, 0.000014169166, 9.999018, 10.000035 
1.324887e+3, 1.743227e+2, -1340108.0, -1265409.1, -26846.793, 0.09777253, -0.016555848, -1256761.5, -25127.3, 0.0, 9.999117, 10.000116 
1.324914e+3, 1.8432264e+2, -1281487.8, -1277744.1, 93467.68, 0.07790716, 0.015370757, -1186129.5, -52494.63, 0.0, 9.99923, 9.999312 
1.3249426e+3, 1.9432162e+2, -1149251.6, -1157502.8, 95086.984, 0.06417151, -0.047929622, -1058200.8, -22556.744, 0.0, 9.999443, 9.99936 
1.3249703e+3, 2.0432095e+2, -1003273.8, -993246.2, 10685.481, 0.06349406, -0.058002133, -986456.7, -48807.61, 0.0, 9.999598, 9.999735 
1.3249965e+3, 2.1432048e+2, -881093.9, -866054.06, -27919.125, 0.07111671, -0.11827164, -844659.8, -5008.5728, 0.0, 9.999696, 9.999884 
1.3250227e+3, 2.2432016e+2, -783415.25, -868154.2, -32341.326, 0.084490895, -0.08532063, -772482.44, -30828.424, 0.0, 10.000116, 9.9990015 
1.3250493e+3, 2.3431988e+2, -557596.0, -696738.3, -45939.613, 0.12667742, -0.043600548, -543796.94, 99862.016, 0.0, 10.000954, 9.999095 
1.3250759e+3, 2.4431923e+2, -416264.03, -540658.4, 15097.0625, 0.14295001, -0.022199286, -414458.0, 131206.22, 0.0, 10.0010605, 9.999451 
1.3251033e+3, 2.5431788e+2, -430772.34, -477786.66, -14349.3545, 0.11798319, -0.14302391, -426738.78, 20933.41, 0.0, 10.000211, 9.999617 
1.3251305e+3, 2.6431692e+2, -462308.06, -578315.9, -8750.935, 0.10124717, -0.13367245, -461651.66, -111970.43, 0.0000000978673, 9.999918, 9.998392 
1.3251576e+3, 2.743162e+2, -294598.2, -445987.5, 12273.02, 0.08429587, -0.07173489, -293609.66, -41915.59, 0.000006920427, 10.000391, 9.998403 
1.3251847e+3, 2.8431556e+2, -105800.01, -207732.39, 17310.955, 0.089912, -0.0016862939, -102940.35, 50760.098, 0.000086783395, 10.000613, 9.999247 
1.3252115e+3, 2.943146e+2, 12183.837, -87446.445, -17655.133, 0.12941287, -0.07276143, 15219.921, 70922.875, 0.00039493892, 10.00068, 9.999369 
1.325238e+3, 3.0431113e+2, -43024.71, -274535.84, 17072.717, 0.09295283, -0.26574486, -41772.46, -41772.46, 0.0010490068, 10.000781, 9.997708 
1.3252628e+3, 3.1431103e+2, 27908.166, -129988.14, -63731.863, -0.10702753, -0.0858314, 50422.133, 50422.133, 0.0020087387, 10.000714, 9.998735 
1.3347551e+3, 1.24296695e+2, -1741582.3, -1603004.3, 10238.565, 0.042444043, 0.000858057, -1602251.9, 119644.72, 0.0065457188, 9.999174, 10.001164 
1.3347822e+3, 1.3429688e+2, -1741655.5, -1676817.9, 19736.025, 0.22476196, 0.0046735327, -1671282.9, -47391.35, 0.0037237175, 9.999121, 9.999992 
1.3348061e+3, 1.4429721e+2, -1706743.9, -1644347.9, 58049.6, -0.04274304, 0.056299113, -1609643.9, -83757.195, 0.0014951822, 9.998816, 9.999688 
1.3348344e+3, 1.5429632e+2, -1589467.0, -1537956.4, 41490.164, 0.12008989, -0.031007905, -1514877.5, -86981.67, 0.00032323142, 9.998956, 9.999679 
1.3348617e+3, 1.6429596e+2, -1474703.3, -1414201.1, -19510.549, 0.2207931, -0.02914089, -1408455.1, -78555.87, 0.000017128494, 9.999008, 9.999818 
1.3348867e+3, 1.7429633e+2, -1357781.6, -1296466.1, -11079.033, 0.13021727, -0.013932447, -1294525.6, -62630.81, 0.00000000003443261, 9.999093, 9.999913 
1.3349131e+3, 1.842961e+2, -1265805.3, -1245392.3, 83720.445, 0.04423699, -0.0010403718, -1171258.5, -37363.297, 0.0, 9.999222, 9.999545 
1.3349418e+3, 1.9429468e+2, -1139459.9, -1125270.6, 114460.375, 0.02544932, -0.13004023, -1017685.25, 18220.213, 0.0, 9.999375, 9.999622 
1.3349696e+3, 2.0429407e+2, -1057787.3, -1072879.8, -1042.1552, 0.025208827, -0.12517405, -1057715.8, -119805.57, 0.0, 9.9994545, 9.999257 
1.3349959e+3, 2.1429436e+2, -946569.1, -962469.4, -10945.284, 0.038015958, -0.05559723, -940991.4, -101082.42, 0.0, 9.9995165, 9.999317 
1.3350224e+3, 2.2429392e+2, -812460.9, -880459.75, -13399.645, 0.028831532, -0.0040407167, -809915.7, -68002.016, 0.0, 9.999911, 9.999012 
1.3350491e+3, 2.3429243e+2, -583742.8, -707955.56, 1840.0929, 0.014793192, -0.09022656, -583715.56, 60211.45, 0.0, 10.000762, 9.999111 
1.3350762e+3, 2.4429129e+2, -479069.06, -624478.2, -26479.783, 0.047053628, -0.09734932, -474397.06, 71539.914, 0.0, 10.000867, 9.998961 
1.3351038e+3, 2.5429028e+2, -493596.2, -570900.8, -31037.96, 0.14086974, -0.13124207, -482676.75, -34730.867, 0.0, 10.000051, 9.999051 
1.335131e+3, 2.642894e+2, -422215.0, -466370.3, -8030.6675, 0.12817462, -0.11911789, -420799.78, -70845.92, 0.00000008871969, 9.99979, 9.999223 
1.3351572e+3, 2.7428854e+2, -253419.9, -316773.5, 46737.7, -0.035398807, -0.17057323, -228635.81, 23326.244, 0.000006673535, 10.000207, 9.999375 
1.3351838e+3, 2.8428805e+2, -152223.05, -267921.34, 2774.8567, -0.08400004, -0.12318744, -152156.53, 1809.1552, 0.00008871381, 10.000454, 9.99891 
1.3352117e+3, 2.9428768e+2, -43281.03, -164050.75, 5091.843, 0.038575746, -0.09656478, -43066.73, 12900.312, 0.0004076121, 10.000508, 9.998928 
1.3352384e+3, 3.0428544e+2, -14753.461, -182892.8, 8730.491, 0.026302433, -0.17504048, -14301.354, -14301.354, 0.0010927352, 10.000648, 9.998396 
1.3352641e+3, 3.1428614e+2, 73363.89, 25325.309, -6458.909, -0.09852211, 0.0053760097, 74217.16, 74217.16, 0.002102164, 10.000447, 9.999936 
1.3447534e+3, 1.24270156e+2, -1850182.9, -1664540.9, 136288.23, 0.0017052268, -0.035247833, -1592467.4, 129686.24, 0.0069055543, 9.998482, 10.001072 
1.3447808e+3, 1.3427062e+2, -1689519.4, -1616720.5, -21782.578, 0.17823501, -0.031605035, -1610700.6, 13446.037, 0.0039389143, 9.999344, 10.000297 
1.344806e+3, 1.4427161e+2, -1640674.5, -1619722.3, 34180.258, 0.05336084, 0.07299596, -1594448.8, -68312.11, 0.0015916337, 9.999307, 9.999617 
1.344834e+3, 1.5427071e+2, -1585215.9, -1542525.9, 22745.2, 0.19987264, -0.0074355197, -1532678.8, -104531.52, 0.0003501717, 9.999027, 9.999603 
1.3448614e+3, 1.6427013e+2, -1456275.0, -1445422.9, 30321.791, 0.27820686, -0.007099521, -1420045.5, -89892.016, 0.000020254476, 9.999305, 9.999467 
1.3448864e+3, 1.7426991e+2, -1209023.5, -1263553.3, -3946.343, 0.15583248, -0.0113374125, -1208739.5, 23415.354, 0.0000000014653116, 10.000286, 9.999565 
1.3449131e+3, 1.8426943e+2, -1077216.9, -1147955.4, 75818.21, 0.067481644, -0.0065598716, -1028923.9, 105233.32, 0.0, 10.0005, 9.99959 
1.3449417e+3, 1.9426829e+2, -1069387.6, -1078614.1, 62115.71, 0.061190367, -0.116066, -1011714.06, 24449.682, 0.0, 9.999824, 9.999714 
1.3449696e+3, 2.042676e+2, -1048121.94, -1118284.9, -9526.528, 0.06972546, -0.101182655, -1046851.44, -108682.03, 0.0, 9.999721, 9.998822 
1.3449964e+3, 2.1426743e+2, -857709.25, -963794.56, -43247.246, 0.08599502, -0.035427917, -842313.25, -2138.2944, 0.0, 10.0003195, 9.998912 
1.3450228e+3, 2.2426674e+2, -730012.06, -813498.2, -15187.108, 0.070199594, 0.00060173485, -727335.1, 14846.936, 0.0, 10.00036, 9.999256 
1.3450494e+3, 2.342652e+2, -712718.44, -734043.6, -6166.833, 0.029135369, -0.11933896, -711063.56, -66870.375, 0.0, 9.999725, 9.999429 
1.3450766e+3, 2.4426414e+2, -653917.56, -735549.25, 11537.022, 0.054108147, -0.12245028, -652318.3, -106116.305, 0.0, 9.999788, 9.998726 
1.3451044e+3, 2.542635e+2, -407140.56, -556523.0, -1653.918, 0.16762826, -0.09169992, -407122.25, 41088.117, 0.0, 10.000777, 9.998802 
1.3451317e+3, 2.642627e+2, -218895.3, -369157.84, 30946.75, 0.1614472, -0.060170446, -212771.36, 137447.55, 0.000000062099474, 10.001197, 9.999215 
1.3451578e+3, 2.742613e+2, -149172.39, -269096.7, -19591.117, -0.0031717347, -0.16282418, -146053.08, 106177.81, 0.0000065347235, 10.000919, 9.999366 
1.3451846e+3, 2.8426045e+2, -107534.29, -248309.08, -56342.86, -0.055722736, -0.14884916, -87761.25, 66476.266, 0.00008986311, 10.000747, 9.998914 
1.3452122e+3, 2.9426038e+2, -8972.749, -134763.58, -64789.984, 0.04049321, -0.093395926, 18428.984, 74665.71, 0.00041355038, 10.000694, 9.999037 
1.3452388e+3, 3.0425873e+2, 45162.086, -166728.44, -21361.426, -0.014555677, -0.113786265, 47294.152, 47294.152, 0.0011132387, 10.001083, 9.998313 
1.3452658e+3, 3.1425878e+2, 296122.88, 149570.81, -143822.58, -0.03234643, 0.010452594, 384260.3, 384260.3, 0.002148471, 10.001918, 10.000073 
1.3547531e+3, 1.24243684e+2, -1916861.4, -1789335.1, 171275.38, 0.052855168, -0.075019576, -1670338.9, 52066.25, 0.0072628423, 9.998447, 10.000223 
1.3547783e+3, 1.34244e+2, -1697665.8, -1630358.6, 14391.659, -0.04413012, -0.076284535, -1627410.5, -3005.338, 0.004152666, 9.999338, 10.000205 
1.354807e+3, 1.4424516e+2, -1625474.1, -1583389.3, 4026.0867, 0.19222325, 0.045354437, -1583007.5, -56612.05, 0.0016872559, 9.999286, 9.999874 
1.354833e+3, 1.5424511e+2, -1559927.8, -1495811.4, 27357.361, 0.16870098, 0.014845551, -1485725.1, -57329.125, 0.0003769789, 9.999042, 9.999921 
1.3548596e+3, 1.6424462e+2, -1485796.3, -1510395.1, 46814.41, 0.15521623, 0.027026681, -1449692.5, -119291.34, 0.000023370363, 9.999318, 9.999016 
1.3548863e+3, 1.7424336e+2, -1250978.4, -1344806.6, 46013.152, 0.07281816, -0.02914215, -1232179.9, 234.78513, 0.0000000068048798, 10.000256, 9.999026 
1.3549134e+3, 1.8424264e+2, -1099732.8, -1178522.9, 37482.38, 0.023926344, -0.009784641, -1084750.5, 49670.375, 0.0, 10.000438, 9.999405 
1.3549417e+3, 1.9424242e+2, -1093494.4, -1109268.4, 50607.72, 0.05518255, -0.0131552955, -1050162.8, -13743.553, 0.0, 9.999737, 9.999546 
1.3549696e+3, 2.0424154e+2, -1095349.9, -1181622.1, -6716.7373, 0.08274519, 0.008981078, -1094830.1, -156403.0, 0.0, 9.999577, 9.998454 
1.354997e+3, 2.1423966e+2, -916649.1, -1038487.4, -8523.961, 0.109076984, -0.056939907, -916055.7, -75606.3, 0.0, 10.000112, 9.998501 
1.3550237e+3, 2.2423849e+2, -727086.56, -754419.75, -52747.65, 0.0994054, -0.07000069, -686263.8, 56196.652, 0.0, 10.0001335, 9.999769 
1.3550496e+3, 2.3423813e+2, -698056.75, -661409.94, -16720.092, 0.051023643, -0.13193738, -654927.94, -10470.024, 0.0, 9.999544, 10.000014 
1.3550766e+3, 2.4423786e+2, -679150.0, -744614.75, 30325.107, 0.0466323, -0.08942593, -667261.5, -120802.69, 0.0, 9.9996, 9.998755 
1.3551046e+3, 2.542375e+2, -437086.28, -571821.75, 51607.8, 0.08856401, -0.030040896, -419590.72, 28875.514, 0.0, 10.000577, 9.9987955 
1.3551323e+3, 2.6423654e+2, -307625.97, -510031.66, 9570.523, 0.088161774, 0.027281726, -307174.47, 43304.023, 0.000000036385206, 10.001009, 9.998341 
1.3551594e+3, 2.7423438e+2, -248908.8, -427016.88, -9620.175, 0.049929604, -0.054193515, -248390.69, 4110.0015, 0.0000068750182, 10.000712, 9.9983835 
1.3551864e+3, 2.8423288e+2, -110180.19, -218140.9, -69127.3, 0.020918408, -0.06386855, -76453.86, 78060.18, 0.00009120505, 10.000593, 9.999195 
1.3552126e+3, 2.9423237e+2, -8679.693, -95400.95, -44582.49, -0.011918139, -0.092352234, 10150.854, 66666.23, 0.00041555686, 10.000518, 9.999398 
1.3552387e+3, 3.0423078e+2, -41756.555, -293070.88, -5272.4834, -0.15353315, -0.08853024, -41645.99, -41645.99, 0.0011140582, 10.0008745, 9.997536 
1.3552669e+3, 3.1422865e+2, 163733.31, -32753.387, -50725.79, -0.18324749, -0.093732566, 176056.05, 176056.05, 0.0021475311, 10.001538, 9.998994 
1.3647519e+3, 1.2421666e+2, -2092467.0, -1901842.4, 88161.76, 0.17003012, -0.0797913, -1867320.4, -144653.2, 0.0076198755, 9.997341, 9.999988 
1.3647768e+3, 1.3421704e+2, -1676244.0, -1599774.6, 2201.3801, -0.09989135, -0.096379206, -1599711.4, 24956.648, 0.004366158, 9.99937, 10.000409 
1.3648076e+3, 1.4421792e+2, -1478847.6, -1515025.6, -22108.654, 0.2867507, -0.011796478, -1468370.8, 58290.637, 0.0017823466, 10.000304, 9.999849 
1.3648327e+3, 1.542182e+2, -1362772.3, -1402799.1, -56183.574, 0.1655518, -0.0056666033, -1323144.0, 105514.16, 0.0004035849, 10.000417, 9.999889 
1.3648592e+3, 1.6421781e+2, -1326757.1, -1441379.6, 11092.425, 0.12104646, 0.022090152, -1325693.5, 4968.8647, 0.000026350568, 10.000426, 9.998965 
1.3648865e+3, 1.7421648e+2, -1239549.1, -1340542.8, 16296.819, 0.079170085, -0.039273564, -1236984.5, -4307.1704, 0.000000016360648, 10.000338, 9.999018 
1.3649139e+3, 1.8421568e+2, -1130549.3, -1222194.1, 36268.816, 0.056820035, -0.014163728, -1117932.6, 16752.79, 0.0, 10.000342, 9.999153 
1.364942e+3, 1.9421542e+2, -997572.9, -1087575.8, 9887.251, 0.08829558, 0.003401685, -996499.5, 40186.332, 0.0, 10.000507, 9.999319 
1.3649699e+3, 2.0421457e+2, -964053.7, -1094762.4, 5850.5146, 0.11683983, 0.026459962, -963792.4, -25098.402, 0.0, 10.000375, 9.998666 
1.3649972e+3, 2.1421269e+2, -931892.6, -1016648.06, 25965.654, 0.13345525, -0.06223547, -924570.4, -83856.3, 0.0, 9.999879, 9.998762 
1.365024e+3, 2.2421157e+2, -773620.94, -794760.0, 18549.975, 0.13740598, -0.076579586, -762840.6, -20116.469, 0.0, 9.999895, 9.999606 
1.3650502e+3, 2.3421133e+2, -560391.3, -619646.5, -38048.15, 0.12302559, -0.10781549, -541795.9, 102926.5, 0.0, 10.000593, 9.999801 
1.3650772e+3, 2.4421099e+2, -506443.47, -659480.75, 10899.386, 0.109649934, -0.06049201, -505671.13, 41053.52, 0.0, 10.000777, 9.998773 
1.3651049e+3, 2.5421035e+2, -469485.47, -583446.8, 4648.742, 0.078177854, -0.03218786, -469296.16, -20562.05, 0.0, 10.000329, 9.998835 
1.3651325e+3, 2.6420948e+2, -434003.56, -556453.44, 19484.078, 0.059715997, 0.025434192, -430978.03, -80233.04, 0.000000033203506, 10.000083, 9.998465 
1.36516e+3, 2.74208e+2, -308284.53, -429689.34, 46992.77, 0.06767625, -0.005823718, -292220.4, -39460.2, 0.0000069323874, 10.000207, 9.998595 
1.3651873e+3, 2.8420654e+2, -157000.84, -296486.03, 54625.99, 0.068355195, -0.0028726456, -138154.34, 16619.783, 0.000089487476, 10.000549, 9.998664 
1.3652141e+3, 2.9420516e+2, 79315.914, -111303.76, -19937.342, 0.056950737, -0.05553991, 81378.88, 138164.86, 0.00040599646, 10.001393, 9.998859 
1.3652402e+3, 3.0420363e+2, 49903.15, -215990.63, 32711.79, -0.08691268, -0.034748446, 53868.406, 53868.406, 0.0010861106, 10.001365, 9.997838 
1.3652684e+3, 3.1420135e+2, -71775.64, -150092.47, 25769.521, -0.08385256, -0.07718004, -64057.094, -64057.094, 0.0020928015, 9.999902, 9.999006 
1.3747497e+3, 1.241887e+2, -2066158.0, -1844689.1, -145404.86, 0.14243743, -0.08402317, -1772654.0, -49709.844, 0.0079810945, 9.997347, 10.000367 
1.374776e+3, 1.3418971e+2, -1633942.9, -1518743.1, 87817.73, -0.13552237, -0.09305557, -1471320.6, 153615.03, 0.0045821774, 9.999384, 10.000963 
1.3748074e+3, 1.4418988e+2, -1498116.6, -1561313.1, -41019.406, 0.19708396, -0.0967698, -1477936.0, 48998.445, 0.0018779465, 10.000331, 9.99952 
1.3748324e+3, 1.5418983e+2, -1393309.1, -1469562.5, -39271.28, 0.07532038, -0.08170436, -1376701.1, 52234.027, 0.00043006244, 10.000426, 9.99943 
1.374859e+3, 1.641896e+2, -1294834.8, -1379788.4, -12322.31, 0.046609957, -0.029016595, -1293083.5, 37854.45, 0.000029160963, 10.00044, 9.999386 
1.3748868e+3, 1.7418927e+2, -1202856.1, -1266067.5, 25769.127, 0.056977052, -0.041996308, -1193682.3, 39260.54, 0.000000027808229, 10.000328, 9.999542 
1.3749145e+3, 1.8418863e+2, -1155595.8, -1262580.1, 25655.29, 0.04297098, -0.017780595, -1149761.6, -14811.426, 0.0, 10.0003, 9.998893 
1.3749424e+3, 1.9418724e+2, -1041372.94, -1152917.8, 27265.982, 0.04986615, -0.076182984, -1035064.8, 1899.7456, 0.0, 10.000395, 9.998929 
1.3749698e+3, 2.0418653e+2, -922148.94, -977026.0, -26583.918, 0.044799525, -0.05690832, -911383.06, 27588.18, 0.0, 10.00024, 9.999539 
1.3749962e+3, 2.141866e+2, -892795.56, -891175.7, 21216.525, 0.031664886, -0.048130106, -870753.6, -29785.281, 0.0, 9.999685, 9.99972 
1.3750233e+3, 2.2418614e+2, -867972.7, -938569.25, 26633.387, 0.05413949, -0.0060706516, -859052.1, -116080.23, 0.0, 9.999674, 9.998723 
1.375051e+3, 2.3418479e+2, -667724.0, -787532.94, 3435.9792, 0.12526855, -0.045582976, -667625.56, -22639.164, 0.0, 10.000363, 9.998754 
1.3750783e+3, 2.4418345e+2, -537883.9, -681865.75, -20732.928, 0.12337776, -0.035997614, -534957.8, 12042.138, 0.0, 10.000585, 9.998714 
1.3751048e+3, 2.541821e+2, -490421.2, -587757.0, 537.56836, 0.025181519, -0.08637776, -490418.22, -41405.03, 0.0, 10.000159, 9.998888 
1.3751318e+3, 2.6418167e+2, -373668.1, -400898.84, 9353.559, -0.04165347, -0.04061789, -370764.78, -19747.967, 0.000000022673568, 9.9999485, 9.999597 
1.375159e+3, 2.7418202e+2, -250084.6, -264932.47, 67154.266, -0.06397027, -0.0139839975, -189945.16, 63066.12, 0.0000066245593, 10.000023, 9.999814 
1.3751872e+3, 2.841812e+2, -259167.4, -482074.03, 65895.31, -0.027607864, 0.044626713, -241144.72, -86124.81, 0.000084736, 10.000425, 9.997452 
1.3752162e+3, 2.9417887e+2, -52552.734, -333440.53, 35153.195, 0.10012953, 0.034252603, -48220.13, 8827.76, 0.00038240643, 10.001164, 9.997448 
1.3752429e+3, 3.0417717e+2, 105704.164, -55868.418, -18606.555, 0.027225656, 0.05450015, 107819.19, 107819.19, 0.0010237873, 10.00118, 9.999018 
1.3752693e+3, 3.1417608e+2, -65706.68, -47315.65, 42454.355, -0.024300465, -0.00016231797, -13072.36, -13072.36, 0.0019802414, 9.99954, 9.99987 
1.3847482e+3, 1.2416207e+2, -1852968.5, -1749130.0, -104027.03, 0.21511254, -0.04386567, -1684785.6, 38422.285, 0.008351057, 9.998865, 10.000285 
1.3847773e+3, 1.341628e+2, -1591257.5, -1546573.1, 114149.53, 0.04581888, -0.03393143, -1452599.9, 172601.53, 0.004803759, 9.999908, 10.000518 
1.3848066e+3, 1.4416215e+2, -1554125.9, -1596199.1, -63389.25, 0.11791111, -0.091825925, -1508373.8, 18833.742, 0.0019753822, 9.999969, 9.999464 
1.3848326e+3, 1.541618e+2, -1485717.8, -1514358.1, -67401.49, 0.08435153, -0.10543111, -1431132.0, -1921.6416, 0.00045665295, 9.999792, 9.999431 
1.3848595e+3, 1.641617e+2, -1403264.3, -1405926.8, 6214.745, 0.09127446, -0.050820187, -1398239.8, -67028.086, 0.00003186285, 9.99961, 9.999592 
1.3848868e+3, 1.7416206e+2, -1305026.5, -1286306.5, -13853.288, 0.08088524, -0.016265152, -1278947.5, -45737.363, 0.000000039188958, 9.999524, 9.99978 
1.3849145e+3, 1.841618e+2, -1262856.0, -1314930.9, 23897.54, 0.068151765, 0.03173986, -1253551.6, -118336.95, 0.0, 9.999551, 9.998905 
1.3849427e+3, 1.9416046e+2, -1095991.6, -1169749.4, 33242.87, 0.069406725, -0.027230896, -1083220.3, -45990.68, 0.0, 9.999976, 9.999012 
1.38497e+3, 2.041598e+2, -933898.06, -967761.56, -17078.559, 0.060652237, -0.01368746, -926780.7, 12455.267, 0.0, 10.000096, 9.999674 
1.384996e+3, 2.1415988e+2, -854335.06, -854621.44, -64831.33, 0.0462878, -0.01905702, -789646.75, 51585.55, 0.0, 9.999867, 9.999887 
1.385023e+3, 2.2415948e+2, -842297.44, -943721.8, -1603.9443, 0.06917666, 0.02519625, -842272.06, -99036.62, 0.0, 9.9999075, 9.998586 
1.3850515e+3, 2.3415825e+2, -650718.56, -797712.0, 16780.037, 0.13787635, 0.01569325, -648827.4, -3577.5432, 0.0, 10.00054, 9.998608 
1.3850792e+3, 2.4415681e+2, -507584.25, -664487.7, 31701.236, 0.14112489, 0.020628976, -501421.3, 45843.07, 0.0, 10.000797, 9.998717 
1.3851054e+3, 2.54155e+2, -418819.94, -550996.75, 9067.459, 0.044149615, -0.0773519, -418200.78, 31079.564, 0.0, 10.000645, 9.9988985 
1.385132e+3, 2.641542e+2, -295371.9, -369118.2, 12390.039, -0.023184206, -0.06405722, -293345.9, 57940.59, 0.0000000049794013, 10.000512, 9.999543 
1.3851593e+3, 2.7415457e+2, -178348.13, -237746.08, -50187.34, -0.05357246, -0.02974844, -149730.73, 103550.805, 0.0000064670485, 10.000532, 9.9997635 
1.3851875e+3, 2.8415406e+2, -238670.52, -439446.75, -13676.43, -0.018848173, 0.048760384, -237743.19, -82455.99, 0.00007993784, 10.000407, 9.997767 
1.3852169e+3, 2.9415217e+2, -151879.28, -327807.1, 45247.73, 0.10534472, 0.048791096, -140924.0, -83614.72, 0.00035406946, 10.00025, 9.997925 
1.3852438e+3, 3.041503e+2, 41186.7, -35448.37, 41411.344, 0.053129796, 0.0026705065, 59288.426, 59288.426, 0.00094641367, 10.000488, 9.999498 
1.3852704e+3, 3.1414947e+2, 166589.56, 92477.36, 9709.094, 0.065961696, -0.078998424, 167840.39, 167840.39, 0.0018394246, 10.000975, 10.000146 
1.3947468e+3, 1.24136165e+2, -1892368.1, -1822210.5, -69978.15, 0.109181896, -0.018182691, -1779011.3, -55546.855, 0.008733579, 9.998849, 9.99978 
1.3947804e+3, 1.341362e+2, -1696977.1, -1765553.1, 149533.28, 0.33025777, 0.06691752, -1577851.1, 47615.383, 0.005033633, 9.999906, 9.999012 
1.394805e+3, 1.441349e+2, -1529296.1, -1548658.1, -93964.05, -0.08082483, 0.0076978174, -1444515.6, 82963.6, 0.002076125, 9.999985, 9.999783 
1.3948323e+3, 1.5413423e+2, -1458468.0, -1451231.5, -58337.813, 0.052581538, -0.07819821, -1396399.8, 33082.633, 0.00048381835, 9.99976, 9.999882 
1.3948596e+3, 1.641341e+2, -1410853.9, -1421091.6, -17229.293, 0.11447103, -0.048588444, -1397999.1, -66515.69, 0.000034571214, 9.999605, 9.999493 
1.3948864e+3, 1.7413467e+2, -1329763.8, -1321941.3, -7613.9116, 0.051718004, 0.024294542, -1317292.8, -83811.02, 0.00000005013657, 9.9994545, 9.999574 
1.3949138e+3, 1.8413514e+2, -1229582.5, -1238018.6, 18835.957, 0.009211057, 0.13243192, -1214498.0, -79018.234, 0.0, 9.99952, 9.999445 
1.3949424e+3, 1.9413523e+2, -1071726.3, -1095868.8, 60706.992, 0.023996497, 0.16138676, -1021902.0, 15577.4795, 0.0, 9.99987, 9.999575 
1.3949701e+3, 2.0413454e+2, -992288.3, -1059395.3, -39443.93, 0.041230727, 0.16777359, -974057.06, -34570.47, 0.0, 9.999968, 9.999105 
1.3949962e+3, 2.1413258e+2, -933400.75, -970469.6, -61383.633, 0.0588186, 0.026854308, -887814.4, -46308.867, 0.0, 9.999662, 9.999189 
1.395023e+3, 2.2413163e+2, -818843.1, -860359.06, 4592.667, 0.059065506, 0.022054782, -818341.1, -74826.67, 0.0, 9.999742, 9.999243 
1.3950513e+3, 2.3413193e+2, -621775.75, -698489.56, 57067.027, 0.050587974, 0.08564046, -591372.94, 54137.81, 0.0, 10.0003605, 9.99938 
1.395079e+3, 2.4413125e+2, -537107.9, -680827.44, 13787.451, 0.04063289, 0.12470196, -535797.2, 11718.621, 0.0, 10.000605, 9.998698 
1.395106e+3, 2.541289e+2, -464093.5, -588142.9, 18082.547, 0.02689991, -0.01449549, -461511.38, -11974.692, 0.0, 10.000409, 9.9987545 
1.395133e+3, 2.6412702e+2, -405212.0, -557547.6, -1796.6826, 0.003824685, -0.04519086, -405190.8, -53635.94, 0.0000000011462398, 10.0003395, 9.998335 
1.3951604e+3, 2.7412584e+2, -298701.06, -443337.5, -30712.902, -0.01763057, -0.03722312, -292449.53, -38880.637, 0.0000063015364, 10.000334, 9.998451 
1.395188e+3, 2.8412536e+2, -148359.81, -208851.84, -32433.875, -0.03721469, 0.03770389, -134257.45, 21315.7, 0.00007549819, 10.000227, 9.999434 
1.3952157e+3, 2.9412505e+2, -50784.836, -70696.99, 59191.62, -0.058783043, 0.007368032, -717.82294, 56853.105, 0.0003302392, 10.000051, 9.999788 
1.3952428e+3, 3.04123e+2, 18615.854, -41939.07, 39786.77, -0.1294023, -0.1563396, 38335.508, 38335.508, 0.00088409375, 10.0003195, 9.999532 
1.3952708e+3, 3.1412223e+2, 93793.5, 40841.098, 79047.19, -0.040408745, -0.22796461, 150680.64, 150680.64, 0.0017247418, 10.000566, 9.999985 
1.404746e+3, 1.2410856e+2, -1716249.9, -1734217.6, -61098.906, 0.123896144, 0.05155432, -1663477.9, 60260.855, 0.009133226, 10.0, 9.999843 
1.4047812e+3, 1.3410799e+2, -1888511.0, -1882007.5, 53705.47, 0.4869876, 0.09494715, -1831455.5, -205709.64, 0.005275387, 9.9986725, 9.998813 
1.4048037e+3, 1.4410707e+2, -1769930.4, -1614545.5, -62147.855, -0.105811276, 0.061714288, -1592746.9, -64992.88, 0.0021822979, 9.998122, 10.000226 
1.4048317e+3, 1.5410669e+2, -1497536.9, -1417788.3, -62790.043, 0.05736719, -0.043647878, -1383281.4, 46472.33, 0.00051218417, 9.99927, 10.000346 
1.4048594e+3, 1.6410658e+2, -1394149.9, -1430410.8, -3809.3418, 0.13176246, -0.028674336, -1393754.0, -61999.816, 0.000037386584, 9.999791, 9.999336 
1.4048864e+3, 1.7410682e+2, -1279560.0, -1311276.8, -23933.932, 0.09649774, 0.023199435, -1266707.4, -32951.457, 0.00000006103049, 9.999861, 9.99944 
1.4049138e+3, 1.8410717e+2, -1194487.4, -1175621.3, 29786.242, 0.06732635, 0.108155556, -1153810.0, -18055.78, 0.0, 9.999578, 9.999844 
1.4049418e+3, 1.9410749e+2, -1175506.1, -1093054.6, 29920.695, 0.04670672, 0.11153909, -1083341.1, -45591.4, 0.0, 9.998936, 10.000047 
1.4049695e+3, 2.0410702e+2, -1145488.4, -1153137.3, -11598.948, 0.05856166, 0.1232536, -1137099.6, -197345.22, 0.0, 9.999007, 9.998925 
1.4049965e+3, 2.1410534e+2, -851814.44, -949582.25, -26495.746, 0.10521964, 0.031203743, -845095.7, -3322.3496, 0.0, 10.0003195, 9.999009 
1.4050238e+3, 2.241045e+2, -668983.25, -775456.06, 48484.37, 0.12211181, 0.0453662, -650213.75, 93568.45, 0.0, 10.000734, 9.999339 
1.405052e+3, 2.3410468e+2, -680230.6, -705868.7, 18927.271, 0.09948975, 0.08232622, -670189.9, -24410.986, 0.0, 9.999877, 9.999556 
1.4050795e+3, 2.4410401e+2, -682862.25, -752732.9, -7745.604, 0.08318191, 0.11485227, -682013.94, -134230.42, 0.0, 9.999603, 9.998693 
1.4051065e+3, 2.54102e+2, -481960.25, -593048.44, -19624.129, 0.054776683, 0.008747167, -478595.5, -28793.982, 0.0, 10.000272, 9.998787 
1.4051338e+3, 2.641e+2, -379711.75, -587856.8, 19704.623, 0.042834155, -0.018915495, -377862.78, -26041.184, 0.0000000047036606, 10.000701, 9.997954 
1.4051618e+3, 2.7409825e+2, -246672.61, -457523.06, 12614.741, 0.070597164, -0.024385445, -245920.58, 7921.5854, 0.000006310061, 10.000881, 9.998083 
1.4051893e+3, 2.8409752e+2, -39389.117, -142505.6, 20282.137, 0.05446172, 0.04361347, -35543.23, 120305.04, 0.00007173929, 10.000917, 9.999554 
1.4052163e+3, 2.9409736e+2, 52794.49, -4374.8687, -39495.074, -0.023126177, 0.0066846, 72963.734, 130806.96, 0.0003165935, 10.000693, 9.999934 
1.4052433e+3, 3.040949e+2, 39440.867, -86355.99, -88097.84, -0.10860219, -0.17877199, 84789.57, 84789.57, 0.00085306884, 10.000706, 9.999039 
1.4052716e+3, 3.1409457e+2, 155375.81, 44602.715, -130712.4, -0.018750878, -0.14934398, 241951.94, 241951.94, 0.0016671364, 10.0011015, 9.999756 
1.4147465e+3, 1.2407934e+2, -1653851.6, -1615746.4, 60342.848, 0.09767331, 0.16492213, -1571519.8, 152510.58, 0.009556688, 10.000036, 10.000654 
1.414779e+3, 1.3407823e+2, -1810715.6, -1709529.9, 5015.5547, 0.37560293, 0.041685477, -1709281.9, -83243.16, 0.0055341963, 9.998622, 10.000027 
1.414802e+3, 1.4407861e+2, -1735302.8, -1535814.9, -45204.344, -0.113579996, 0.042403154, -1526049.5, 1982.9656, 0.0022969088, 9.998097, 10.000775 
1.4148305e+3, 1.5407918e+2, -1477675.5, -1366715.5, -5966.4956, -0.014158225, -0.0055428296, -1366395.6, 63628.49, 0.0005425403, 9.999231, 10.000715 
1.4148584e+3, 1.6407932e+2, -1389592.5, -1428022.5, -19180.871, 0.019879073, 0.01614219, -1381657.5, -49635.453, 0.000040406845, 9.99982, 9.999343 
1.4148864e+3, 1.7407879e+2, -1293738.6, -1324522.0, -8128.905, 0.09571005, -0.001491879, -1291724.0, -57693.98, 0.00000007226826, 9.999789, 9.999389 
1.4149141e+3, 1.8407814e+2, -1182675.0, -1140473.4, -9055.807, 0.11499332, -0.025548775, -1138612.3, -2576.3105, 0.0, 9.999535, 10.000102 
1.414941e+3, 1.9407715e+2, -1172814.3, -1063408.4, 16900.262, 0.02564349, -0.17986178, -1060857.3, -22816.604, 0.0, 9.998833, 10.000298 
1.4149682e+3, 2.0407706e+2, -1143095.6, -1123397.0, 11101.083, -0.0011072636, -0.15465719, -1118405.8, -178365.05, 0.0, 9.998891, 9.999188 
1.4149968e+3, 2.1407813e+2, -865486.4, -931931.8, 35740.02, 0.08186956, 0.00094925717, -849912.6, -7877.1216, 0.0, 10.000112, 9.999235 
1.415025e+3, 2.2407809e+2, -730068.9, -851017.44, 6610.2, 0.14320122, 0.10132343, -729708.7, 14329.988, 0.0, 10.000517, 9.998921 
1.4150526e+3, 2.3407643e+2, -752679.8, -800782.0, 541.2712, 0.17048293, 0.0055807037, -752673.75, -106618.75, 0.0, 9.999647, 9.999011 
1.4150798e+3, 2.4407522e+2, -699120.25, -750571.44, -180.11891, 0.13160984, 0.007950434, -699119.56, -151053.27, 0.0, 9.99944, 9.998786 
1.4151065e+3, 2.5407442e+2, -492457.1, -580689.56, 21728.459, 0.0030962552, 0.004022199, -487396.4, -37323.06, 0.0, 10.00012, 9.998944 
1.415134e+3, 2.6407322e+2, -381532.56, -554049.25, 12520.404, -0.02303863, 0.033517826, -380628.63, -28543.287, 0.000000079284355, 10.00054, 9.998261 
1.4151631e+3, 2.7407148e+2, -257483.64, -433640.2, 37891.543, 0.08579436, -0.0012911543, -249678.9, 4425.113, 0.000007370644, 10.000683, 9.998343 
1.415191e+3, 2.840703e+2, -140016.0, -319381.53, -811.6319, 0.11345938, 0.059229873, -140012.33, 16103.136, 0.00007202747, 10.000773, 9.998408 
1.4152181e+3, 2.9406902e+2, -70559.47, -217430.88, -24100.244, 0.06276423, 0.03910757, -66705.945, -8580.477, 0.0003176136, 10.000492, 9.998574 
1.415245e+3, 3.0406588e+2, -82439.6, -278216.5, -80953.24, -0.036442194, -0.08444129, -53302.168, -53302.168, 0.0008555456, 10.00047, 9.997815 
1.4152724e+3, 3.1406638e+2, 46627.617, -76587.125, -57568.035, -0.103735924, 0.13773507, 69338.375, 69338.375, 0.0016671689, 10.000689, 9.9991 
1.4247473e+3, 1.240491e+2, -1759053.8, -1637425.0, 198747.44, 0.21915877, 0.11207601, -1490395.9, 233930.63, 0.010011913, 9.999218, 10.000897 
1.424776e+3, 1.340487e+2, -1727834.6, -1568306.0, -21916.848, 0.2326706, -0.017988421, -1565349.6, 60977.4, 0.0058154534, 9.998803, 10.000894 
1.4248008e+3, 1.4405003e+2, -1641660.6, -1487618.4, -14556.275, -0.073655576, 0.02899178, -1486255.0, 42057.105, 0.002423067, 9.998735, 10.000794 
1.4248298e+3, 1.5405108e+2, -1574078.6, -1416742.0, -44296.97, 0.031893898, 0.034595523, -1405127.9, 25173.16, 0.00057589856, 9.998597, 10.000665 
1.4248578e+3, 1.640515e+2, -1556232.4, -1476013.4, -44228.082, 0.05337418, 0.06972196, -1456416.1, -124118.96, 0.00004378684, 9.998531, 9.999633 
1.4248858e+3, 1.7405085e+2, -1394439.4, -1335685.4, -36022.773, 0.112053744, 0.007461785, -1318579.6, -84274.77, 0.00000008454083, 9.998928, 9.999729 
1.4249137e+3, 1.8405011e+2, -1199211.0, -1154906.9, -3949.6768, 0.13343239, -0.04224723, -1154557.5, -18246.414, 0.0, 9.999442, 10.00005 
1.4249405e+3, 1.9404918e+2, -964565.94, -967634.56, -33094.242, 0.045307644, -0.1834933, -932970.5, 105345.0, 0.0, 10.000287, 10.00025 
1.4249681e+3, 2.0404923e+2, -878964.8, -984342.94, -12082.15, 0.019466585, -0.14888954, -877597.3, 62716.81, 0.0, 10.0006485, 9.999295 
1.424997e+3, 2.140503e+2, -812125.0, -896265.2, -26860.813, 0.09981339, -0.0011447436, -804281.2, 38026.707, 0.0, 10.000408, 9.999345 
1.4250255e+3, 2.2405028e+2, -748510.4, -866283.44, -43217.285, 0.16167821, 0.09683861, -734353.4, 9957.498, 0.0, 10.000415, 9.998871 
1.4250529e+3, 2.3404871e+2, -564277.75, -714092.1, -49210.83, 0.17662452, 0.016990984, -549559.1, 96767.86, 0.0, 10.000955, 9.998981 
1.4250802e+3, 2.440476e+2, -471998.97, -653475.94, 1720.1729, 0.14864773, 0.036412068, -471982.7, 76355.71, 0.0, 10.001057, 9.998677 
1.4251073e+3, 2.5404692e+2, -416565.84, -556432.3, -29207.926, 0.06468113, 0.057438694, -410711.47, 39634.324, 0.00000000006254562, 10.000687, 9.998844 
1.4251351e+3, 2.6404572e+2, -360427.53, -526868.1, -20597.24, 0.037564356, 0.08653368, -357916.5, -5558.308, 0.00000036239143, 10.000608, 9.99841 
1.4251637e+3, 2.7404392e+2, -199534.39, -381265.75, -30078.64, 0.07702217, 0.024438817, -194685.4, 59690.934, 0.000010087366, 10.000968, 9.99856 
1.4251918e+3, 2.840427e+2, -112628.14, -342164.34, -23452.73, 0.10146378, 0.0837075, -110256.375, 46132.38, 0.00007869426, 10.001121, 9.998089 
1.4252198e+3, 2.940416e+2, 4044.5225, -220226.25, -34610.95, 0.14532927, 0.11876033, 9264.42, 67664.72, 0.00033370158, 10.001181, 9.9982195 
1.4252469e+3, 3.0403858e+2, -25691.766, -279255.22, 9037.584, 0.089274265, 0.039387234, -25370.053, -25370.053, 0.00088820356, 10.000938, 9.997606 
1.4252727e+3, 3.1403854e+2, -27264.691, -77019.32, 66887.7, -0.08265069, 0.21794048, 19222.172, 19222.172, 0.0017210246, 9.999987, 9.999455 
1.4347479e+3, 1.2401828e+2, -1779669.8, -1688588.5, 86116.43, 0.2976842, -0.102556795, -1636712.6, 87909.28, 0.010506618, 9.999231, 10.000537 
1.4347722e+3, 1.3401978e+2, -1713448.1, -1535118.8, -6976.607, -0.057476323, -0.06885524, -1534846.3, 91761.03, 0.006123269, 9.998786, 10.001126 
1.4347993e+3, 1.4402156e+2, -1656494.3, -1537035.8, -35858.66, -0.1326477, 0.02557225, -1527098.5, 1492.4023, 0.002563054, 9.998805, 10.00043 
1.4348291e+3, 1.5402263e+2, -1614713.4, -1492596.0, -36999.0, 0.079579175, 0.08222213, -1482260.9, -51678.223, 0.0006133788, 9.998549, 10.000177 
1.4348571e+3, 1.6402315e+2, -1521480.6, -1394742.1, -51403.527, 0.10083599, 0.13053843, -1376515.0, -43935.965, 0.000047750204, 9.998496, 10.000208 
1.4348842e+3, 1.7402281e+2, -1352947.5, -1243853.6, -9305.833, 0.03303112, 0.033448666, -1243065.5, -8482.834, 0.00000010052836, 9.9988985, 10.000379 
1.4349121e+3, 1.8402298e+2, -1225798.3, -1197988.6, 7511.0986, 0.0020441671, 0.0537006, -1196089.6, -59508.844, 0.0, 9.9993925, 9.999777 
1.4349404e+3, 1.9402371e+2, -1009635.5, -1034962.1, 11571.988, -0.015411718, 0.11528684, -1005144.5, 33428.32, 0.0, 10.000172, 9.9998455 
1.4349687e+3, 2.0402357e+2, -899493.0, -997138.7, -35581.063, -0.017978184, 0.15430897, -887903.25, 52670.434, 0.0, 10.000517, 9.999269 
1.434997e+3, 2.1402195e+2, -846040.0, -919068.25, -23307.951, 0.039656296, 0.033007056, -839235.06, 3354.4048, 0.0, 10.000201, 9.999288 
1.4350252e+3, 2.2402117e+2, -759470.94, -837498.1, -41090.434, 0.056971923, 0.044092763, -741823.44, 2774.1057, 0.0, 10.000196, 9.999172 
1.4350523e+3, 2.3402153e+2, -574618.9, -678953.5, -13837.583, 0.0072263926, 0.123576, -572814.9, 73779.68, 0.0, 10.000719, 9.999334 
1.43508e+3, 2.4402109e+2, -525728.8, -717128.56, -27477.445, 0.016214538, 0.204409, -521862.25, 26738.168, 0.0, 10.000846, 9.998344 
1.4351088e+3, 2.540193e+2, -482590.44, -637066.6, -28611.143, 0.12047245, 0.15738559, -477461.53, -26840.889, 0.000000006122379, 10.000449, 9.998404 
1.4351366e+3, 2.6401752e+2, -374404.72, -518317.56, -22804.977, 0.10830314, 0.14665636, -370877.4, -18237.691, 0.0000008787704, 10.00044, 9.998555 
1.4351633e+3, 2.7401567e+2, -212359.88, -367227.47, 3277.6018, -0.07480653, 0.062168486, -212290.53, 42367.336, 0.000014147242, 10.000787, 9.998752 
1.435191e+3, 2.840148e+2, -117658.22, -310416.97, -34029.32, -0.107665956, 0.12770477, -111827.13, 44840.387, 0.000090676054, 10.000936, 9.998394 
1.4352205e+3, 2.940147e+2, -16138.781, -214168.55, -10320.559, 0.0887889, 0.22965606, -15602.365, 43068.785, 0.00036367134, 10.00096, 9.998373 
1.4352483e+3, 3.0401266e+2, 10804.68, -147547.7, -36941.336, 0.12734558, 0.20718595, 18998.572, 18998.572, 0.00095405756, 10.000728, 9.9986 
1.4352722e+3, 3.1401137e+2, 19322.361, 111706.66, 79184.33, -0.18672377, 0.1425469, 157187.14, 157187.14, 0.0018381028, 9.999604, 10.000937 
1.4447471e+3, 1.2398965e+2, -1738407.0, -1685803.8, 48506.535, 0.31182647, -0.083494596, -1656926.9, 67976.6, 0.011047917, 9.999573, 10.000392 
1.4447707e+3, 1.3399181e+2, -1749076.4, -1576947.3, -65556.836, -0.051598605, 0.02971427, -1554823.1, 72060.86, 0.00646129, 9.998633, 10.000908 
1.4447989e+3, 1.4399302e+2, -1716646.8, -1542868.1, -47435.73, -0.023291722, 0.07511359, -1530763.0, -1889.7314, 0.0027186894, 9.998311, 10.000612 
1.444828e+3, 1.5399362e+2, -1562445.3, -1431632.4, -33906.844, 0.1306068, 0.052893884, -1423366.0, 7501.959, 0.0006559602, 9.998765, 10.000485 
1.4448561e+3, 1.639942e+2, -1438337.8, -1339453.5, 13567.951, 0.13152207, 0.08385472, -1337625.6, -4762.525, 0.000052490832, 9.999005, 10.000339 
1.4448835e+3, 1.7399472e+2, -1275544.5, -1185709.4, -11032.306, 0.062563516, 0.05860713, -1184374.4, 50484.37, 0.00000012546444, 9.999357, 10.0005455 
1.4449117e+3, 1.8399538e+2, -1225435.6, -1222664.4, 16646.662, 0.025286872, 0.12642887, -1207345.8, -70492.56, 0.0, 9.999487, 9.999566 
1.4449401e+3, 1.9399598e+2, -1144902.6, -1122726.8, 3499.2014, -0.019861719, 0.197381, -1122187.6, -83339.75, 0.0, 9.999336, 9.999642 
1.4449684e+3, 2.0399551e+2, -1054517.4, -1068979.6, -13011.987, -0.019114219, 0.21310851, -1046862.2, -106010.17, 0.0, 9.999462, 9.999282 
1.4449975e+3, 2.1399328e+2, -854542.1, -909790.44, -29391.85, 0.082816795, 0.02751401, -841830.5, 1040.7942, 0.0, 10.0001135, 9.999385 
1.445026e+3, 2.2399214e+2, -720493.44, -830190.1, -22309.822, 0.114769734, 0.003724496, -716129.75, 28751.752, 0.0, 10.0005, 9.999081 
1.4450529e+3, 2.3399241e+2, -613542.7, -709426.3, -55522.656, 0.026875319, 0.082588665, -588127.94, 58752.234, 0.0, 10.000483, 9.999242 
1.4450806e+3, 2.4399209e+2, -573170.94, -712550.06, -52480.652, 0.021884348, 0.16906464, -555620.25, -6735.16, 0.0, 10.000411, 9.998577 
1.4451092e+3, 2.5399068e+2, -460126.34, -599716.1, -33774.613, 0.133248, 0.13430347, -452383.8, -1482.5975, 0.000000012932129, 10.000471, 9.998655 
1.4451371e+3, 2.6398936e+2, -370714.5, -488740.75, 40043.01, 0.12456165, 0.14431113, -358411.5, -5495.689, 0.0000016431604, 10.000347, 9.998804 
1.4451636e+3, 2.7398807e+2, -292634.1, -374728.13, 31565.996, -0.06671016, 0.09150662, -281900.13, -26970.984, 0.000019343763, 10.000108, 9.9990225 
1.4451914e+3, 2.839873e+2, -208662.63, -343389.9, 32397.197, -0.123646945, 0.14843284, -201277.1, -44338.996, 0.00010742276, 10.000258, 9.998492 
1.4452209e+3, 2.9398707e+2, -21899.992, -201001.72, 18626.082, 0.03578513, 0.22486395, -19983.441, 38959.35, 0.00040939418, 10.000855, 9.998504 
1.4452492e+3, 3.0398548e+2, 63066.016, -133026.31, -30760.533, 0.13209291, 0.24170065, 67778.12, 67778.12, 0.0010586398, 10.001117, 9.998526 
1.4452738e+3, 3.1398335e+2, 196965.45, 187807.94, -78533.03, -0.029143916, 0.102538675, 271053.1, 271053.1, 0.002027643, 10.000879, 10.000841 
1.4547452e+3, 1.2396371e+2, -1716615.5, -1671072.4, -54860.26, 0.08759853, 0.18185209, -1634445.4, 90721.97, 0.011640448, 9.999692, 10.000442 
1.4547718e+3, 1.339651e+2, -1809334.3, -1693893.8, -80239.05, 0.15700544, 0.28301865, -1652771.0, -25616.264, 0.0068325973, 9.998587, 10.0001335 
1.4547989e+3, 1.4396465e+2, -1670713.5, -1443734.4, -49096.17, 0.110390864, 0.18116042, -1433569.9, 95587.516, 0.0028915813, 9.998299, 10.001296 
1.4548264e+3, 1.5396397e+2, -1498771.3, -1288732.9, -4047.6213, 0.0503116, -0.066729136, -1288654.9, 142502.8, 0.00070428615, 9.998726, 10.001482 
1.4548542e+3, 1.639646e+2, -1444300.5, -1364108.4, 6704.2627, 0.009565414, -0.077001214, -1363551.6, -30402.678, 0.000058062662, 9.999051, 10.000151 
1.4548834e+3, 1.739667e+2, -1304488.9, -1240816.4, 16637.596, 0.0883589, 0.08904057, -1236731.1, -1599.4352, 0.00000016567238, 9.999329, 10.000184 
1.454912e+3, 1.8396738e+2, -1234876.5, -1234968.9, -2660.5657, 0.07882574, 0.18026817, -1232261.6, -95134.57, 0.0, 9.9994545, 9.9995 
1.454939e+3, 1.9396597e+2, -1166032.1, -1142626.0, 11267.023, -0.083912075, 0.059041362, -1138083.9, -98943.03, 0.0, 9.999227, 9.999567 
1.4549674e+3, 2.0396492e+2, -1077158.4, -1074837.9, -7928.7207, -0.10595282, 0.021319952, -1067985.0, -126835.01, 0.0, 9.999294, 9.999317 
1.4549981e+3, 2.1396418e+2, -883442.5, -916698.3, 8874.277, 0.11022996, -0.02400484, -881222.56, -38068.39, 0.0, 9.999894, 9.999439 
1.4550275e+3, 2.2396311e+2, -777441.5, -899009.4, -36675.84, 0.20546485, -0.027987413, -767233.8, -22069.914, 0.0, 10.000285, 9.998713 
1.4550544e+3, 2.3396151e+2, -685415.44, -794224.5, -40894.21, 0.11193771, -0.091613136, -671759.75, -24577.348, 0.0, 10.000216, 9.998786 
1.4550814e+3, 2.4396078e+2, -547255.94, -615204.0, -63505.1, 0.035951253, -0.052647352, -509208.22, 39982.727, 0.0, 10.000212, 9.999348 
1.4551085e+3, 2.5396124e+2, -422353.5, -479232.47, -14790.035, -0.008639597, 0.0077935527, -418737.56, 32448.395, 0.000000017460069, 10.000286, 9.999576 
1.4551361e+3, 2.639614e+2, -376921.4, -463672.97, 18325.125, -0.03894268, 0.103129245, -373209.3, -20024.13, 0.000002726617, 10.000179, 9.999057 
1.4551643e+3, 2.7396092e+2, -311745.75, -364323.9, 37769.992, -0.04262181, 0.10772392, -292016.5, -36823.758, 0.000025176965, 9.999898, 9.999189 
1.4551924e+3, 2.839601e+2, -233392.33, -343737.03, 36993.34, -0.077224426, 0.15050763, -222138.06, -64935.816, 0.00012772917, 10.000044, 9.998592 
1.4552203e+3, 2.939588e+2, -42044.05, -194300.58, 61676.754, -0.1434397, 0.111789845, -20195.102, 39020.035, 0.00046719576, 10.000645, 9.998654 
1.4552489e+3, 3.0395722e+2, -46958.06, -315066.9, -48800.25, -0.019246673, 0.1622726, -38351.86, -38351.86, 0.0011939944, 10.000914, 9.9973755 
1.4552769e+3, 3.139542e+2, 8869.703, -124787.11, -49670.16, 0.13032065, 0.07576388, 25306.902, 25306.902, 0.0022784644, 10.000536, 9.998861 
1.4647439e+3, 1.2393577e+2, -1889972.9, -1697464.9, -29531.557, 0.066372335, 0.24389705, -1693036.5, 32407.412, 0.012283002, 9.998277, 10.0009365 
1.4647713e+3, 1.3393645e+2, -1742219.6, -1646963.5, -54411.938, 0.25626883, 0.2593289, -1622279.1, 5157.2295, 0.00723705, 9.999007, 10.000244 
1.4647985e+3, 1.4393593e+2, -1603708.5, -1442825.8, 48437.73, 0.22309814, 0.16222802, -1429368.0, 100070.78, 0.0030819494, 9.998862, 10.001052 
1.4648257e+3, 1.5393554e+2, -1443042.1, -1275241.1, -19821.906, 0.09452921, -0.045338944, -1272931.5, 158505.81, 0.0007585455, 9.999138, 10.0013895 
1.4648536e+3, 1.639362e+2, -1424521.6, -1352043.8, -22511.305, 0.052865252, -0.04902327, -1345621.0, -12192.629, 0.00006440502, 9.999182, 10.000165 
1.464883e+3, 1.7393789e+2, -1325605.4, -1247691.8, -18534.861, 0.12896912, 0.07388065, -1243507.1, -8093.103, 0.00000022299002, 9.999169, 10.000211 
1.4649116e+3, 1.8393831e+2, -1247783.9, -1232003.6, 14776.046, 0.11268733, 0.1386079, -1223143.0, -85731.484, 0.0, 9.999356, 9.999555 
1.4649388e+3, 1.9393703e+2, -1026040.3, -1060509.4, 6606.7847, -0.04649013, 0.019492064, -1024817.4, 14607.269, 0.0, 10.00015, 9.999672 
1.4649676e+3, 2.0393622e+2, -926471.7, -996651.94, 14379.78, -0.053199116, -0.0029902733, -923639.6, 17792.105, 0.0, 10.000274, 9.9994 
1.4649984e+3, 2.1393594e+2, -933928.8, -928770.56, 11907.24, 0.17326444, -0.011624224, -919166.3, -75735.05, 0.0, 9.999474, 9.999573 
1.4650278e+3, 2.2393523e+2, -931277.4, -962833.8, 27454.104, 0.26013312, 0.008435773, -915390.44, -169952.75, 0.0, 9.999215, 9.998779 
1.4650546e+3, 2.3393361e+2, -712602.5, -801460.7, 25599.246, 0.12794447, -0.061475486, -705755.2, -58298.453, 0.0, 10.000011, 9.998831 
1.4650816e+3, 2.4393277e+2, -507434.78, -578629.2, 18374.297, 0.027963154, -0.043904584, -502972.34, 46493.707, 0.0, 10.000415, 9.9995 
1.4651084e+3, 2.5393307e+2, -406584.75, -447042.88, -20565.863, -0.032139044, -0.015136152, -397966.47, 53494.387, 0.000000044837254, 10.0003, 9.999782 
1.4651361e+3, 2.6393312e+2, -376072.44, -486136.0, -4745.283, -0.05038739, 0.07011228, -375868.25, -22407.771, 0.0000038968087, 10.000286, 9.998853 
1.4651647e+3, 2.7393267e+2, -242485.25, -361786.5, -40788.74, -0.013496232, 0.10688391, -229873.03, 25596.057, 0.000030518888, 10.000489, 9.998932 
1.465193e+3, 2.839318e+2, -141758.14, -284171.78, -12026.532, -0.030141344, 0.14948015, -140749.67, 16730.29, 0.00014669269, 10.000606, 9.998733 
1.465221e+3, 2.9393044e+2, -27808.361, -163162.25, -32999.348, -0.11057842, 0.093287855, -20191.709, 39300.594, 0.00052426284, 10.000654, 9.998856 
1.4652501e+3, 3.039291e+2, -51337.875, -312376.78, -83589.66, 0.028210655, 0.1527527, -26865.205, -26865.205, 0.0013359482, 10.000882, 9.997389 
1.4652784e+3, 3.1392673e+2, 48584.168, -160577.14, -49587.61, 0.22946696, 0.13961792, 59744.797, 59744.797, 0.002551417, 10.001038, 9.998366 
1.474742e+3, 1.2390494e+2, -1822454.3, -1553205.8, -19205.352, -0.010630009, 0.028138442, -1551842.8, 173898.4, 0.012969953, 9.99827, 10.001924 
1.4747688e+3, 1.3390571e+2, -1679901.8, -1507585.6, -37675.13, 0.06491237, -0.052285314, -1499708.5, 128020.68, 0.0076708426, 9.998969, 10.001218 
1.4747971e+3, 1.4390682e+2, -1661065.1, -1584148.5, 30010.691, 0.1525604, 0.006618879, -1573824.8, -44107.547, 0.0032881629, 9.998944, 10.000047 
1.4748256e+3, 1.5390855e+2, -1534130.1, -1457043.5, 3548.9514, 0.1457567, 0.13487431, -1456880.5, -25176.537, 0.00081847684, 9.999106, 10.000159 
1.474854e+3, 1.6390929e+2, -1401734.6, -1317302.6, -40481.89, 0.13075784, 0.19594933, -1301029.5, 32668.613, 0.000071419374, 9.999228, 10.000381 
1.4748818e+3, 1.7390838e+2, -1308712.4, -1198045.1, -8250.56, 0.059532598, 0.020759089, -1197433.4, 38271.33, 0.0000002932695, 9.99911, 10.000576 
1.4749101e+3, 1.8390822e+2, -1237028.3, -1213294.0, 23603.893, -0.0015577486, 0.0021672389, -1198742.0, -61036.043, 0.0, 9.999357, 9.99969 
1.4749394e+3, 1.9390906e+2, -1028706.0, -1049712.5, 49025.293, -0.027800512, 0.0813603, -989071.5, 50628.695, 0.0, 10.000069, 9.999791 
1.4749688e+3, 2.0390937e+2, -923296.5, -962168.56, -28553.115, 0.009891682, 0.15021543, -908192.1, 33505.504, 0.0, 10.000153, 9.999692 
1.4749978e+3, 2.1390878e+2, -945980.9, -903090.06, -7488.719, 0.14905092, 0.08031599, -901820.1, -58119.51, 0.0, 9.999259, 9.999849 
1.475026e+3, 2.2390857e+2, -931861.3, -921321.56, 34876.613, 0.15538771, 0.11962291, -891318.94, -145616.89, 0.0, 9.999017, 9.999167 
1.4750531e+3, 2.3390868e+2, -709980.06, -754058.3, 70737.62, -0.041504476, 0.17901346, -657927.8, -10224.3955, 0.0, 9.9998255, 9.99925 
1.4750805e+3, 2.4390799e+2, -564382.8, -657162.75, 509.05588, -0.13852194, 0.20747206, -564380.0, -14669.321, 0.0, 10.000238, 9.999047 
1.4751087e+3, 2.5390598e+2, -479616.97, -546565.06, -12922.115, -0.06534751, 0.05954696, -477209.34, -25481.691, 0.000000082863835, 10.000075, 9.999207 
1.4751367e+3, 2.639045e+2, -448947.8, -588686.3, -10811.93, -0.041208565, 0.04741384, -448116.22, -94373.63, 0.0000048986644, 10.0000725, 9.99825 
1.4751644e+3, 2.739035e+2, -312652.75, -460648.22, -10177.186, -0.10371492, 0.085752964, -311956.16, -56199.195, 0.00003489947, 10.00029, 9.998343 
1.475193e+3, 2.839026e+2, -176424.9, -315332.7, -24748.637, -0.11972232, 0.16083579, -172147.27, -14378.492, 0.00016199038, 10.000421, 9.998611 
1.4752227e+3, 2.939018e+2, -64764.547, -185402.94, -11758.083, -0.037300278, 0.1608069, -63629.223, -3853.2566, 0.00057622173, 10.000417, 9.998819 
1.4752522e+3, 3.039008e+2, -3583.9243, -159363.5, -88838.125, 0.11630176, 0.21229558, 36674.633, 36674.633, 0.0014704296, 10.000647, 9.998551 
1.475278e+3, 3.1390053e+2, 62135.563, -42493.97, -5493.022, 0.022133542, 0.26912707, 62423.152, 62423.152, 0.002807485, 10.000658, 9.999357 
1.4847417e+3, 1.2387623e+2, -1946180.1, -1664276.9, 58311.74, 0.1793002, -0.025399085, -1652691.3, 73329.69, 0.013700781, 9.997624, 10.001481 
1.4847676e+3, 1.3387668e+2, -1618151.4, -1499096.8, -82519.14, 0.045552325, -0.1128872, -1456874.9, 171138.06, 0.00813248, 9.999448, 10.001066 
1.4847964e+3, 1.4387812e+2, -1574375.8, -1571533.8, -40326.54, 0.16476366, 0.00047702168, -1532603.1, -2604.0432, 0.0035089266, 9.999704, 9.999748 
1.484825e+3, 1.5387996e+2, -1561610.5, -1502914.5, -36113.29, 0.18528348, 0.1695162, -1485727.9, -53740.95, 0.0008836724, 9.999079, 9.999844 
1.4848533e+3, 1.6388066e+2, -1461506.3, -1331038.9, 3302.7734, 0.17132048, 0.24166654, -1330955.4, 3026.6907, 0.00007901186, 9.998786, 10.000494 
1.4848806e+3, 1.7387956e+2, -1255227.8, -1149946.9, -10697.78, 0.042332664, 0.031149728, -1148870.9, 87118.21, 0.00000037325287, 9.999397, 10.000771 
1.4849092e+3, 1.838795e+2, -1208927.4, -1177523.6, 45375.188, -0.01737802, 0.0029485459, -1145210.4, -7221.9385, 0.0, 9.9994545, 9.999888 
1.4849393e+3, 1.9388095e+2, -1173960.6, -1095948.4, 45268.387, 0.017980056, 0.123985276, -1075199.1, -35222.465, 0.0, 9.998968, 10.000003 
1.4849688e+3, 2.0388147e+2, -1093271.5, -1040610.4, -14995.006, 0.065131314, 0.20362666, -1036639.94, -94667.77, 0.0, 9.999002, 9.999691 
1.4849971e+3, 2.1388051e+2, -849842.06, -853779.7, -52705.637, 0.13395625, 0.0988361, -799068.5, 44910.527, 0.0, 9.999927, 9.999852 
1.4850253e+3, 2.238801e+2, -729823.5, -821037.9, 6982.558, 0.124287315, 0.11535701, -729292.06, 16690.217, 0.0, 10.000373, 9.999206 
1.4850532e+3, 2.3388049e+2, -646088.06, -717201.8, -9830.843, -0.02975917, 0.19938208, -644754.06, 3226.0117, 0.0, 10.00022, 9.999318 
1.4850809e+3, 2.4387991e+2, -612540.44, -691993.8, -74828.87, -0.104725026, 0.24099043, -567546.56, -17560.365, 0.0, 9.999959, 9.99895 
1.4851086e+3, 2.5387782e+2, -556983.06, -595919.25, -90162.13, -0.051340807, 0.0971107, -484211.2, -32205.77, 0.00000011463164, 9.999598, 9.999104 
1.4851366e+3, 2.6387617e+2, -504255.9, -604995.75, 2490.6406, -0.018548947, 0.07093776, -504194.38, -150172.4, 0.000005857849, 9.999665, 9.998325 
1.4851654e+3, 2.7387503e+2, -281786.25, -437898.4, 13044.661, -0.038965184, 0.09175786, -280703.75, -24667.836, 0.000039275426, 10.00048, 9.998405 
1.4851941e+3, 2.8387386e+2, -151693.75, -320960.0, 27282.488, -0.044793576, 0.1482692, -147404.98, 10643.78, 0.00017769578, 10.000673, 9.998446 
1.4852232e+3, 2.9387254e+2, -141262.22, -246857.39, -3541.7097, -0.0048184227, 0.116862, -141143.56, -81082.72, 0.0006295016, 9.99998, 9.99862 
1.4852525e+3, 3.03871e+2, -31032.773, -163630.67, -38415.15, 0.12181505, 0.116402544, -20707.482, -20707.482, 0.0015966581, 10.000396, 9.998657 
1.4852795e+3, 3.1387216e+2, 293119.03, 86766.94, -119378.69, 0.059658773, 0.311278, 347729.47, 347729.47, 0.003028199, 10.002166, 9.9995165 
1.4947401e+3, 1.2385019e+2, -2041845.4, -1879720.6, -27528.03, 0.18245971, 0.14312528, -1875174.0, -148896.17, 0.014485426, 9.997702, 9.999955 
1.4947675e+3, 1.3385e+2, -1719409.9, -1698984.1, -12622.369, 0.07099021, 0.13066587, -1692960.4, -64678.375, 0.008627366, 9.999411, 9.999703 
1.4947961e+3, 1.4385016e+2, -1523302.8, -1502290.5, -86795.29, 0.11936271, 0.16931818, -1425367.8, 104913.94, 0.0037456865, 9.999839, 10.000169 
1.4948232e+3, 1.5384988e+2, -1527548.1, -1431004.8, -49448.754, 0.07804643, 0.0743523, -1410172.6, 22111.988, 0.0009542572, 9.999062, 10.000354 
1.4948508e+3, 1.6385035e+2, -1449518.0, -1318497.0, 3359.7874, 0.016936062, 0.09179218, -1318410.9, 15868.463, 0.00008722728, 9.998833, 10.000555 
1.4948796e+3, 1.7385148e+2, -1263839.8, -1158525.3, 24886.305, -0.037001006, 0.10416973, -1152940.8, 83325.68, 0.0000004647829, 9.999359, 10.000726 
1.4949085e+3, 1.8385236e+2, -1188158.8, -1140727.5, 12427.931, -0.06562451, 0.16099383, -1137668.4, 588.3428, 0.0, 9.999472, 10.000137 
1.4949378e+3, 1.9385289e+2, -1174147.4, -1069570.6, 37628.94, -0.042628538, 0.16330391, -1057438.5, -17186.02, 0.0, 9.998849, 10.000244 
1.4949672e+3, 2.0385267e+2, -1134273.6, -1096413.5, -2727.669, -0.018156147, 0.16870213, -1096218.0, -153963.84, 0.0, 9.998868, 9.999376 
1.4949961e+3, 2.1385114e+2, -905285.56, -924638.94, -5356.719, 0.025071435, 0.042557213, -903901.8, -59635.22, 0.0, 9.999737, 9.999457 
1.4950252e+3, 2.238499e+2, -778109.3, -878740.75, -11809.035, 0.04955444, 0.0125069795, -776742.06, -30464.602, 0.0, 10.00018, 9.998907 
1.4950542e+3, 2.3384914e+2, -697898.06, -774315.0, -2010.4849, 0.04054048, 0.005264215, -697845.2, -49559.086, 0.0, 10.0, 9.999034 
1.495082e+3, 2.4384873e+2, -631271.4, -679137.06, -99888.24, -0.0077348533, 0.07191328, -552488.9, -2197.6875, 0.0, 9.999733, 9.9991455 
1.4951077e+3, 2.538486e+2, -567863.5, -575867.2, -85315.19, -0.10707765, 0.09738535, -486456.38, -34162.816, 0.00000015644366, 9.999407, 9.999335 
1.4951356e+3, 2.6384813e+2, -498064.44, -543884.3, 14767.18, -0.10652978, 0.1524437, -493717.53, -139418.97, 0.000006865855, 9.999459, 9.998841 
1.4951669e+3, 2.7384707e+2, -276103.44, -374424.0, 60976.934, 0.045358136, 0.12609369, -246937.98, 9369.85, 0.00004412461, 10.000262, 9.998944 
1.495196e+3, 2.838455e+2, -191687.03, -361309.7, -7933.8765, 0.045653652, 0.12034307, -191316.73, -32994.945, 0.00019465707, 10.000483, 9.998263 
1.4952219e+3, 2.9384273e+2, -182537.3, -295552.63, -3282.231, -0.15101172, -0.0337047, -182442.05, -122095.11, 0.00068026903, 9.999812, 9.99837 
1.495251e+3, 3.0383977e+2, -140113.13, -336091.06, 10781.026, -0.097278416, -0.113804184, -139521.83, -139521.83, 0.0016999418, 10.000176, 9.997572 
1.4952822e+3, 3.1384155e+2, 169111.13, -82916.555, -14268.494, 0.05435038, 0.2553831, 169916.36, 169916.36, 0.0031866326, 10.001785, 9.998533 
1.5047388e+3, 1.2382234e+2, -1736574.6, -1769254.4, -36500.37, 0.1854046, 0.19594532, -1712923.6, 13630.061, 0.015336173, 9.999969, 9.999614 
1.5047674e+3, 1.3382258e+2, -1817283.1, -1775379.3, 28940.662, 0.15049939, 0.24471109, -1760602.5, -132047.6, 0.0091627855, 9.998853, 9.999451 
1.5047951e+3, 1.4382221e+2, -1759320.1, -1600513.0, 2866.4617, 0.12892771, 0.23892757, -1600461.3, -69901.56, 0.0040015904, 9.998181, 10.000284 
1.5048224e+3, 1.5382135e+2, -1602604.4, -1441492.4, -26549.701, 0.1280039, 0.068803005, -1437230.0, -4663.647, 0.001031135, 9.998461, 10.000562 
1.5048498e+3, 1.6382164e+2, -1486862.5, -1351291.1, 63198.195, 0.06306405, 0.06058614, -1326400.5, 8161.3726, 0.000096309515, 9.998613, 10.000449 
1.5048787e+3, 1.7382316e+2, -1316572.1, -1194354.1, 51029.895, -0.033687733, 0.12423382, -1175849.3, 60695.71, 0.000000575819, 9.999022, 10.0006485 
1.5049079e+3, 1.8382412e+2, -1242564.6, -1162560.4, 30934.65, -0.050072215, 0.1913286, -1151994.5, -13460.225, 0.0, 9.999089, 10.000159 
1.5049374e+3, 1.9382419e+2, -1159404.0, -1052950.4, 8094.174, 0.022645606, 0.14100376, -1052338.4, -11804.786, 0.0, 9.998916, 10.000314 
1.5049666e+3, 2.0382375e+2, -1113449.8, -1089434.4, 41538.29, 0.053726535, 0.11946417, -1058203.0, -115665.98, 0.0, 9.99903, 9.999348 
1.5049957e+3, 2.1382235e+2, -902126.3, -931505.44, 37435.02, 0.016211027, 0.01657621, -876601.9, -32053.848, 0.0, 9.999786, 9.999394 
1.5050249e+3, 2.238211e+2, -804228.44, -890140.8, 44496.434, 0.023063727, -0.011103028, -785336.7, -38777.504, 0.0, 10.000031, 9.998884 
1.5050544e+3, 2.3382e+2, -762549.5, -805439.06, 31536.08, 0.08545829, -0.047750168, -745857.6, -97286.984, 0.0, 9.999581, 9.999009 
1.5050822e+3, 2.4381955e+2, -664924.9, -698236.0, -21293.498, 0.072051436, 0.016272321, -654546.75, -103970.49, 0.0, 9.999524, 9.999105 
1.5051077e+3, 2.5381994e+2, -464550.06, -526849.5, -62202.363, -0.06739192, 0.09537646, -426133.72, 26440.348, 0.00000020302433, 10.000133, 9.99931 
1.5051357e+3, 2.6381958e+2, -344037.06, -462634.0, 50808.02, -0.07949497, 0.16165283, -325247.38, 29329.94, 0.0000077496, 10.000475, 9.998916 
1.5051678e+3, 2.738181e+2, -241791.86, -347489.38, 39538.047, 0.100393414, 0.08286755, -228638.73, 27949.975, 0.000048509926, 10.00043, 9.999059 
1.505197e+3, 2.8381652e+2, -164405.55, -346589.88, -17459.174, 0.1046714, 0.07000261, -162747.48, -4145.563, 0.00020995413, 10.000672, 9.998271 
1.5052226e+3, 2.9381445e+2, 63091.59, -168386.66, -47215.117, -0.13493313, -0.011411409, 72351.72, 132972.78, 0.0007218459, 10.001504, 9.998403 
1.5052517e+3, 3.0381128e+2, 108497.51, -231319.95, 58591.918, -0.12461872, -0.11017706, 118316.32, 118316.32, 0.0017673858, 10.001934, 9.997463 
1.5052837e+3, 3.138117e+2, 111947.96, -77794.87, 55130.816, 0.07281899, 0.13950793, 126803.445, 126803.445, 0.0032624332, 10.001244, 9.998853 
1.5147384e+3, 1.2379346e+2, -1634584.3, -1606159.6, -33882.72, 0.05887879, 0.16781758, -1583629.3, 143211.95, 0.016257107, 10.00017, 10.000658 
1.5147665e+3, 1.337947e+2, -1777134.1, -1667615.1, 11798.006, 0.15569405, 0.2274101, -1666358.6, -37530.06, 0.009740974, 9.998764, 10.00023 
1.5147927e+3, 1.4379463e+2, -1764885.9, -1633237.4, -10330.772, 0.019115848, 0.2223286, -1632431.6, -101602.54, 0.0042781597, 9.998252, 10.000031 
1.514822e+3, 1.5379451e+2, -1627865.3, -1494997.1, -1619.976, 0.21057853, 0.16031662, -1494977.4, -62147.05, 0.0011151112, 9.998455, 10.0002 
1.51485e+3, 1.6379464e+2, -1488376.5, -1371508.9, 56546.336, 0.17513092, 0.16394334, -1348628.5, -13800.531, 0.000106548556, 9.998679, 10.000278 
1.5148777e+3, 1.7379476e+2, -1333744.8, -1222306.8, 78877.555, -0.058033373, 0.09811627, -1181453.1, 55370.52, 0.0000007145684, 9.9989805, 10.00048 
1.5149066e+3, 1.8379487e+2, -1250960.8, -1180391.4, 12003.992, -0.105313696, 0.09455627, -1178405.4, -39585.016, 0.0, 9.999089, 10.000038 
1.5149373e+3, 1.9379489e+2, -1186120.0, -1083142.9, 13240.745, 0.098781355, 0.053358607, -1081467.6, -40647.676, 0.0, 9.998809, 10.000158 
1.514967e+3, 2.0379478e+2, -1117678.1, -1067876.1, 47898.113, 0.15290615, 0.06549201, -1038793.0, -95973.04, 0.0, 9.998894, 9.999565 
1.5149954e+3, 2.1379438e+2, -913249.06, -905772.94, 79665.68, -0.009043101, 0.03432467, -829757.7, 15064.019, 0.0, 9.999573, 9.999677 
1.515024e+3, 2.2379386e+2, -825991.94, -882759.6, 17542.447, -0.0849006, 0.057364702, -821008.44, -74182.66, 0.0, 9.999801, 9.999049 
1.515053e+3, 2.3379306e+2, -782996.2, -802232.7, 29900.375, -0.01089822, 0.037485633, -761205.2, -112370.8, 0.0, 9.999384, 9.999129 
1.5150812e+3, 2.4379233e+2, -715842.25, -760814.0, -18837.227, 0.002910967, 0.08237821, -708994.6, -158152.72, 0.0, 9.99933, 9.998776 
1.5151082e+3, 2.5379166e+2, -516667.03, -595152.6, -23911.803, -0.061139125, 0.09277442, -509955.8, -57107.26, 0.00000026346208, 9.999951, 9.998935 
1.5151367e+3, 2.6379037e+2, -391703.2, -513616.6, 38561.504, -0.07098531, 0.09753251, -380530.1, -25670.158, 0.000008336701, 10.000273, 9.998664 
1.5151674e+3, 2.7378818e+2, -291190.47, -399051.88, 58733.664, 0.003862619, -0.03026655, -265383.06, -8504.953, 0.00005112129, 10.000221, 9.998805 
1.5151967e+3, 2.8378704e+2, -195830.16, -362805.84, -5400.341, -0.00858703, 0.018577017, -195655.67, -36767.996, 0.00022272031, 10.000455, 9.998263 
1.5152246e+3, 2.9378736e+2, 26931.615, -188569.16, 6268.3467, -0.118767835, 0.1659335, 27113.791, 88000.18, 0.0007568992, 10.001261, 9.998381 
1.515254e+3, 3.037849e+2, 118862.17, -131918.78, 26282.889, -0.11705371, 0.107895985, 121587.12, 121587.12, 0.0018094213, 10.001626, 9.998282 
1.5152834e+3, 3.137823e+2, 161845.2, 131675.31, 83139.44, -0.13243313, -0.045353737, 231257.14, 231257.14, 0.0032761982, 10.000824, 10.000482 
1.5247373e+3, 1.2376489e+2, -1844277.0, -1665862.9, 80872.46, 0.032650474, 0.120335415, -1634661.3, 92460.56, 0.017244658, 9.998571, 10.001009 
1.5247652e+3, 1.3376662e+2, -1703411.8, -1586203.1, -21151.146, 0.14889352, 0.18805963, -1582503.0, 46600.68, 0.010359608, 9.999092, 10.000624 
1.5247916e+3, 1.4376685e+2, -1657514.1, -1594685.3, 6965.9785, 0.05108674, 0.20014873, -1593922.1, -62820.97, 0.0045741852, 9.999058, 9.9999 
1.5248212e+3, 1.5376724e+2, -1504011.1, -1445486.0, -1778.4636, 0.25291505, 0.19689889, -1445432.0, -12333.99, 0.0012060112, 9.999337, 10.000115 
1.5248497e+3, 1.6376731e+2, -1424826.3, -1349880.1, 95542.73, 0.2508584, 0.20403539, -1284724.5, 50371.94, 0.000118081814, 9.999189, 10.000174 
1.5248773e+3, 1.737668e+2, -1343237.6, -1230696.0, 89249.305, 0.0079074735, 0.087653704, -1181459.3, 55638.637, 0.0000008766353, 9.998963, 10.000422 
1.5249062e+3, 1.837666e+2, -1282093.6, -1218744.8, 53812.344, -0.049866118, 0.06511901, -1187976.9, -48879.094, 0.0, 9.99897, 9.999846 
1.5249367e+3, 1.9376683e+2, -1071738.8, -1054558.5, 20144.822, 0.14135088, 0.06955453, -1041248.7, -153.01688, 0.0, 9.999695, 9.999944 
1.5249668e+3, 2.0376681e+2, -971925.06, -1007911.56, 66470.65, 0.2083226, 0.10977043, -921055.4, 22039.996, 0.0, 9.999921, 9.999482 
1.5249956e+3, 2.137664e+2, -943349.5, -924760.2, 44007.734, 0.07612683, 0.07824597, -889076.3, -43978.137, 0.0, 9.999373, 9.999639 
1.5250243e+3, 2.2376597e+2, -889130.3, -885954.5, 1948.3357, 0.0077207447, 0.10111099, -885028.94, -137927.89, 0.0, 9.999232, 9.999308 
1.5250531e+3, 2.3376551e+2, -702494.56, -726852.4, 235.68376, 0.037154227, 0.083328255, -702492.25, -53387.996, 0.0, 9.999769, 9.99946 
1.5250815e+3, 2.437646e+2, -586919.3, -728352.8, 13368.971, 0.04758851, 0.101120815, -585666.75, -34554.4, 0.0, 10.000371, 9.998479 
1.5251096e+3, 2.5376284e+2, -362575.56, -559361.1, -19701.238, 0.028130896, 0.045429457, -360622.56, 92506.28, 0.0000003530132, 10.001197, 9.998564 
1.5251382e+3, 2.637609e+2, -237208.06, -479862.84, 30317.736, 0.013642658, 0.020256525, -233477.45, 121669.08, 0.000008619123, 10.0015, 9.998307 
1.5251677e+3, 2.7375868e+2, -213924.44, -391944.28, 3165.411, -0.0038027512, -0.0794758, -213868.17, 43297.563, 0.000051931653, 10.0008955, 9.998516 
1.525197e+3, 2.8375745e+2, -184134.14, -353959.78, -5414.8467, -0.023165679, -0.029261068, -183961.66, -24785.195, 0.00023518385, 10.000519, 9.998304 
1.5252264e+3, 2.9375756e+2, -82130.08, -237451.23, -20567.365, -0.019596508, 0.10012609, -79452.734, -18276.71, 0.0007914771, 10.000471, 9.99845 
1.5252557e+3, 3.0375567e+2, -46435.813, -200019.55, -7508.109, -0.010861102, 0.09349262, -46069.645, -46069.645, 0.0018456153, 10.000414, 9.998413 
1.5252836e+3, 3.137526e+2, 84370.29, 124539.16, -74149.22, -0.14444679, -0.12283409, 181275.89, 181275.89, 0.0032737567, 10.00013, 10.000779 
1.5347368e+3, 1.2373721e+2, -1882738.8, -1756014.3, 88107.19, 0.051117096, 0.08196221, -1710851.6, 16537.896, 0.018294634, 9.998611, 10.000362 
1.5347631e+3, 1.337387e+2, -1713094.1, -1606505.8, 3358.5781, -0.003982378, 0.14265794, -1606400.1, 22976.516, 0.011016667, 9.999095, 10.000481 
1.5347911e+3, 1.437392e+2, -1635830.6, -1582811.9, -8224.973, 0.06376408, 0.1949356, -1581565.1, -50192.438, 0.0048880493, 9.999194, 9.999923 
1.5348195e+3, 1.5373975e+2, -1500177.5, -1422365.4, 18830.43, 0.12583368, 0.19363013, -1418048.0, 15319.041, 0.0013030368, 9.999283, 10.000302 
1.5348482e+3, 1.6373986e+2, -1418903.6, -1356338.4, 68593.695, 0.1567999, 0.19812825, -1312230.6, 23134.111, 0.00013086536, 9.999259, 10.000101 
1.5348768e+3, 1.7373937e+2, -1358068.9, -1252090.9, 91232.58, 0.052290026, 0.09640849, -1199575.3, 37791.438, 0.0000010420176, 9.998923, 10.000295 
1.5349057e+3, 1.8373938e+2, -1302748.5, -1266784.8, 58275.824, -0.012100386, 0.11870593, -1223779.6, -84414.09, 0.0, 9.998987, 9.999509 
1.5349357e+3, 1.9374007e+2, -1102566.0, -1104349.3, 58788.445, 0.030999035, 0.19779247, -1044662.44, -3302.0935, 0.0, 9.999628, 9.999636 
1.5349656e+3, 2.0373991e+2, -1017536.2, -1066273.0, 36315.38, 0.08505879, 0.25479373, -998171.0, -54808.363, 0.0, 9.999768, 9.999152 
1.5349959e+3, 2.1373838e+2, -1003046.44, -996317.75, 36320.938, 0.15073371, 0.14774884, -963205.7, -117827.914, 0.0, 9.999153, 9.999251 
1.5350254e+3, 2.2373743e+2, -895604.9, -844992.0, 3355.2375, 0.16485278, 0.123847485, -844770.56, -97385.46, 0.0, 9.998996, 9.999702 
1.5350538e+3, 2.3373736e+2, -693692.0, -661728.44, 36761.28, 0.114927396, 0.090576634, -637625.2, 11755.157, 0.0, 9.999564, 10.00001 
1.5350825e+3, 2.4373627e+2, -645874.9, -789562.6, 29140.18, 0.073344305, 0.072496876, -640190.1, -88802.305, 0.0, 10.000116, 9.998177 
1.5351114e+3, 2.537335e+2, -428507.88, -645713.1, 27432.059, 0.07468831, -0.045740645, -425096.9, 28318.29, 0.0000004707298, 10.000988, 9.998068 
1.5351401e+3, 2.6373118e+2, -296465.72, -556764.5, -2813.9844, 0.036027543, -0.06042315, -296435.3, 59002.05, 0.0000086272985, 10.001296, 9.997879 
1.5351681e+3, 2.737295e+2, -270007.47, -467559.97, -5750.0527, -0.066650234, -0.061247833, -269840.25, -12387.982, 0.000052741245, 10.000717, 9.998087 
1.5351972e+3, 2.8372747e+2, -209430.03, -363126.97, -21773.225, -0.090047814, -0.06719252, -206405.1, -46935.2, 0.00024875673, 10.000322, 9.998342 
1.5352274e+3, 2.9372513e+2, -103368.02, -239598.7, 4730.109, 0.018917467, -0.19988602, -103203.984, -41714.484, 0.00082809955, 10.000284, 9.998528 
1.535257e+3, 3.0372384e+2, -120285.86, -300410.4, -29179.91, 0.04459592, -0.12621328, -115676.7, -115676.7, 0.0018913832, 10.000198, 9.997821 
1.5352832e+3, 3.1372267e+2, -46347.56, -33890.63, -29247.469, -0.24251015, -0.09067365, -10215.78, -10215.78, 0.0032998577, 9.999661, 9.999906 
1.5447368e+3, 1.2371113e+2, -1869684.0, -1778945.4, 144681.55, 0.20955983, 0.11801231, -1672686.5, 54956.234, 0.019406972, 9.998827, 10.000097 
1.5447623e+3, 1.3371208e+2, -1723656.5, -1644464.4, 40056.01, 0.0119513115, 0.1477102, -1627736.9, 1898.7229, 0.0117135905, 9.999134, 10.000204 
1.5447907e+3, 1.4371161e+2, -1703670.5, -1624411.5, 80125.78, 0.1310453, 0.122297265, -1574650.6, -43009.316, 0.0052204016, 9.998773, 9.999844 
1.5448186e+3, 1.5371239e+2, -1379125.1, -1367106.5, 75947.18, 0.08820144, 0.14628217, -1296931.3, 136701.39, 0.0014059248, 10.000106, 10.000297 
1.5448475e+3, 1.6371252e+2, -1274177.4, -1354163.8, 90082.64, 0.111827925, 0.1775921, -1215609.3, 120021.75, 0.00014487762, 10.000556, 9.999477 
1.5448764e+3, 1.7371176e+2, -1293413.4, -1303558.3, 28565.74, 0.09995929, 0.11665812, -1269473.3, -31834.674, 0.000001197513, 9.999711, 9.99956 
1.5449056e+3, 1.8371144e+2, -1275641.9, -1255388.5, 51401.363, 0.074134864, 0.14969295, -1213125.9, -73484.03, 0.0, 9.999203, 9.999472 
1.5449354e+3, 1.9371188e+2, -1091205.4, -1085045.5, 60779.47, 0.056809187, 0.19776502, -1027267.94, 14369.147, 0.0, 9.999672, 9.999739 
1.5449655e+3, 2.0371152e+2, -995883.56, -1079156.5, 59365.49, 0.083449714, 0.2363702, -965008.94, -21368.018, 0.0, 10.000028, 9.998943 
1.5449956e+3, 2.1370989e+2, -854195.9, -952626.5, 32783.67, 0.1623447, 0.14529327, -844276.44, 1381.975, 0.0, 10.0002985, 9.999006 
1.5450251e+3, 2.2370893e+2, -701032.94, -737108.1, 34869.08, 0.19942531, 0.13099375, -679812.3, 67854.04, 0.0, 10.000295, 9.999809 
1.545054e+3, 2.3370904e+2, -620111.5, -603508.25, 3837.2214, 0.16356304, 0.10154196, -602664.3, 46994.68, 0.0, 10.000001, 10.000188 
1.5450828e+3, 2.4370807e+2, -672101.06, -809396.44, 30116.537, 0.12706736, 0.0892316, -665785.3, -114120.31, 0.000000000009610117, 9.999936, 9.998149 
1.5451121e+3, 2.537054e+2, -541889.8, -708040.0, 36713.68, 0.10239036, -0.008050411, -534138.9, -80446.77, 0.0000005675007, 10.0002165, 9.998035 
1.545141e+3, 2.637034e+2, -440916.88, -621379.7, 37754.316, 0.06874882, 0.0072540813, -433336.75, -77624.7, 0.000008574752, 10.0002985, 9.997916 
1.545169e+3, 2.7370203e+2, -352567.72, -512659.56, 29049.156, -0.0077465884, 0.038853474, -347459.63, -89735.53, 0.00005426492, 10.000157, 9.998059 
1.5451981e+3, 2.836997e+2, -198360.22, -363478.06, 82514.1, -0.016749483, 0.002400318, -164194.88, -4450.3003, 0.00026286932, 10.000454, 9.998245 
1.5452288e+3, 2.936962e+2, 63135.875, -170771.42, 55890.887, 0.07075071, -0.23083414, 75804.555, 137578.5, 0.00086847367, 10.001505, 9.998387 
1.5452579e+3, 3.036952e+2, 70494.55, -186570.42, 13746.17, 0.08563053, -0.1312689, 71227.516, 71227.516, 0.001958194, 10.001406, 9.99803 
1.5452829e+3, 3.136947e+2, -141516.31, -118231.02, -3153.5884, -0.19016309, -0.043073706, -117811.484, -117811.484, 0.0033838842, 9.999168, 9.999561 
1.5547343e+3, 1.2368598e+2, -1818600.5, -1699622.5, -21970.738, -0.0071429275, 0.16923128, -1695695.0, 32193.17, 0.020587768, 9.9989605, 10.000569 
1.554762e+3, 1.3368684e+2, -1754340.1, -1685915.6, 24266.066, 0.04533009, 0.22259669, -1678183.6, -48303.83, 0.012455585, 9.999056, 9.999958 
1.5547897e+3, 1.4368401e+2, -1697455.5, -1627643.0, 91127.445, 0.10988578, -0.026410304, -1564965.1, -33058.04, 0.0055746003, 9.998828, 9.999799 
1.5548183e+3, 1.5368536e+2, -1391689.5, -1391080.6, 144165.67, 0.010390649, 0.06335059, -1247219.1, 186673.6, 0.001515748, 10.000104, 10.000132 
1.554847e+3, 1.6368556e+2, -1338351.9, -1513588.6, 53699.246, -0.022965103, 0.16331214, -1323205.5, 12686.617, 0.00016035176, 10.000658, 9.998341 
1.5548758e+3, 1.7368405e+2, -1388423.5, -1492985.9, 4670.751, 0.04009663, 0.15871844, -1388215.3, -150302.75, 0.0000013687348, 9.999678, 9.998279 
1.5549052e+3, 1.836829e+2, -1259041.1, -1214907.5, 45351.383, 0.08247894, 0.1667756, -1186539.3, -46613.926, 0.0, 9.999178, 9.999761 
1.5549357e+3, 1.9368227e+2, -1077808.5, -1026399.56, 92073.87, 0.09897305, 0.060977053, -956509.5, 85416.67, 0.0, 9.999545, 10.000202 
1.5549657e+3, 2.0368157e+2, -1018173.3, -1104619.0, 54608.7, 0.07546451, 0.04763664, -991751.94, -47821.28, 0.0, 9.999921, 9.998829 
1.5549944e+3, 2.1368091e+2, -890775.1, -991778.94, 57048.04, 0.001521509, 0.071893886, -865087.0, -19146.795, 0.0, 10.000124, 9.998832 
1.5550235e+3, 2.2368053e+2, -751995.2, -792149.5, 11710.166, -0.021501314, 0.13419712, -748829.75, -885.426, 0.0, 10.0000725, 9.999537 
1.5550531e+3, 2.336804e+2, -670328.44, -670740.6, 7106.539, 0.060830865, 0.1133337, -663425.0, -13483.576, 0.0, 9.999831, 9.999813 
1.5550824e+3, 2.4367985e+2, -684112.56, -779070.4, 25849.223, 0.07064531, 0.15089338, -677532.0, -125586.83, 0.0, 9.999703, 9.9984665 
1.5551114e+3, 2.5367865e+2, -540339.06, -657304.2, 61903.99, -0.0048599257, 0.15486455, -513661.1, -59701.742, 0.0000005355393, 10.000015, 9.998479 
1.5551408e+3, 2.6367742e+2, -443772.63, -583962.94, 24609.393, -0.019945957, 0.21016161, -439578.13, -83606.29, 0.000008556659, 10.000111, 9.998262 
1.55517e+3, 2.736761e+2, -355758.38, -477779.8, 44738.97, 0.057445984, 0.20449115, -341112.75, -83130.07, 0.000056489618, 9.999982, 9.99838 
1.5551998e+3, 2.836738e+2, -255614.75, -433091.4, 103484.766, 0.07083257, 0.1746979, -208031.44, -48029.1, 0.00027893353, 10.000246, 9.997866 
1.5552297e+3, 2.936703e+2, -4204.174, -245855.69, 116613.58, -0.0033851373, -0.020962818, 42891.453, 104924.95, 0.0009152954, 10.001235, 9.997997 
1.5552585e+3, 3.0366936e+2, 78465.72, -95500.38, -68332.35, -0.03497663, 0.06911509, 102096.234, 102096.234, 0.0020518804, 10.001102, 9.998791 
1.555282e+3, 3.1366816e+2, -205271.63, -133909.84, -51636.793, -0.24587514, -0.0038797262, -106825.43, -106825.43, 0.0035361347, 9.998703, 9.999661 
1.564733e+3, 1.2365878e+2, -1975338.0, -1737013.3, -37792.61, 0.038962994, 0.10865632, -1731163.9, -3010.056, 0.021849003, 9.99772, 10.000922 
1.5647615e+3, 1.3365966e+2, -1800243.6, -1732427.0, -56605.34, 0.12918587, 0.19513345, -1700351.0, -70206.75, 0.013250772, 9.998829, 9.999765 
1.564788e+3, 1.4365683e+2, -1619661.4, -1589959.0, 59003.07, 0.06333379, -0.05309558, -1543966.8, -11795.169, 0.0059556314, 9.999373, 9.999788 
1.5648182e+3, 1.5365835e+2, -1543798.3, -1478104.9, 82305.8, 0.06376573, 0.06513127, -1422333.5, 11822.683, 0.0016345053, 9.999124, 9.999999 
1.5648475e+3, 1.6365853e+2, -1599266.6, -1650102.9, 34403.742, 0.047070086, 0.17398445, -1581909.8, -245753.4, 0.00017771397, 9.998908, 9.998257 
1.5648757e+3, 1.736568e+2, -1425121.0, -1517835.0, 52215.28, 0.09125899, 0.15626112, -1401653.9, -163475.13, 0.0000016137079, 9.999443, 9.99823 
1.564905e+3, 1.8365538e+2, -1209459.0, -1233341.1, 166947.2, 0.13872695, 0.15392928, -1054026.4, 86168.17, 0.0, 9.999694, 9.999388 
1.5649356e+3, 1.9365434e+2, -1086777.5, -1080734.0, 121655.28, 0.14244995, 0.046434388, -962062.94, 80137.16, 0.0, 9.999677, 9.99977 
1.5649655e+3, 2.036535e+2, -1079052.4, -1114973.1, 77050.45, 0.10747745, 0.037645064, -1017896.75, -73690.96, 0.0, 9.999463, 9.998952 
1.5649943e+3, 2.1365316e+2, -981801.3, -1001534.6, 76447.7, 0.01351679, 0.07256174, -914586.2, -68376.05, 0.0, 9.9994, 9.999083 
1.5650234e+3, 2.236527e+2, -866348.4, -890788.8, 70073.46, -0.006539314, 0.1293869, -807437.56, -59222.94, 0.0, 9.999451, 9.999168 
1.5650532e+3, 2.3365198e+2, -721025.1, -738487.6, 36284.23, 0.09808345, 0.08817016, -692436.4, -42216.727, 0.0, 9.999657, 9.99943 
1.5650825e+3, 2.4365126e+2, -639297.7, -736871.8, 85133.75, 0.12237711, 0.120215215, -589962.75, -37736.97, 0.0, 9.999905, 9.998666 
1.5651116e+3, 2.5365055e+2, -489927.28, -597870.5, 85356.945, 0.01200186, 0.14429131, -442910.06, 11323.585, 0.00000039469393, 10.000206, 9.998793 
1.5651411e+3, 2.636495e+2, -355494.75, -535952.94, 55514.527, -0.010179867, 0.19616869, -339784.44, 16459.545, 0.000008163994, 10.000698, 9.998304 
1.565171e+3, 2.7364776e+2, -139946.5, -373128.75, 16697.5, 0.09708937, 0.15502205, -138756.92, 119503.164, 0.000058543963, 10.001466, 9.998378 
1.5652007e+3, 2.8364578e+2, -89523.11, -332012.16, 89081.47, 0.111887194, 0.14846455, -60315.836, 99962.734, 0.00029613846, 10.001285, 9.998083 
1.56523e+3, 2.9364368e+2, -217239.42, -320063.75, 108684.625, -0.0028445986, 0.076549344, -148420.31, -86122.42, 0.00096598663, 9.999635, 9.998278 
1.5652584e+3, 3.0364314e+2, -190560.7, -152649.67, -28957.88, -0.007261691, 0.15675798, -136994.92, -136994.92, 0.0021640193, 9.9989195, 9.999448 
1.5652826e+3, 3.1364197e+2, -86051.62, -77998.89, -96749.78, -0.08545901, 0.028604481, 14808.2705, 14808.2705, 0.0037402343, 9.9994545, 9.999707 
1.5747316e+3, 1.23630054e+2, -1942281.0, -1682902.5, 111919.36, 0.07504734, 0.014439801, -1641287.1, 87147.05, 0.023204513, 9.99775, 10.001303 
1.5747604e+3, 1.3363092e+2, -1801760.4, -1737761.6, -3489.1199, 0.10687153, 0.105867915, -1737571.9, -107146.664, 0.014108494, 9.9988365, 9.9997225 
1.5747859e+3, 1.4363043e+2, -1595280.4, -1571963.6, 36755.61, -0.14377418, 0.08301421, -1545061.8, -12631.108, 0.0063687824, 9.999512, 9.999847 
1.5748183e+3, 1.5363137e+2, -1563996.6, -1505749.3, 77132.26, 0.1450192, 0.16255838, -1452425.5, -18002.424, 0.00176415, 9.99907, 9.999833 
1.5748481e+3, 1.6363138e+2, -1519022.5, -1488165.8, 30731.666, 0.1939338, 0.21440765, -1469207.1, -132783.11, 0.00019721544, 9.9989195, 9.999365 
1.5748759e+3, 1.736301e+2, -1340636.8, -1335051.8, 87807.47, 0.13467768, 0.11031468, -1249992.4, -11556.129, 0.0000019795527, 9.99941, 9.999501 
1.5749048e+3, 1.8362908e+2, -1270820.9, -1370041.9, 154832.0, 0.10841761, 0.116661824, -1157845.5, -17398.6, 0.0, 9.999727, 9.998435 
1.5749349e+3, 1.9362839e+2, -1198849.8, -1285166.3, 131803.38, 0.06910341, 0.17702335, -1103318.5, -60862.645, 0.0, 9.999558, 9.998425 
1.5749647e+3, 2.0362756e+2, -1075304.5, -1082078.0, 57988.91, 0.041720305, 0.23200798, -1020603.5, -76139.78, 0.0, 9.999342, 9.999239 
1.5749943e+3, 2.1362652e+2, -972886.5, -944513.3, 84463.33, 0.07779824, 0.14608851, -873053.5, -26583.701, 0.0, 9.999228, 9.999561 
1.5750241e+3, 2.2362532e+2, -914595.06, -944472.25, 64562.703, 0.114595816, 0.11175178, -863265.2, -114786.21, 0.0, 9.999252, 9.998893 
1.5750536e+3, 2.3362374e+2, -780475.75, -813653.56, 55654.24, 0.15935111, 0.02677492, -738990.7, -88496.51, 0.0, 9.999451, 9.999012 
1.5750828e+3, 2.4362233e+2, -668169.75, -744851.8, 81308.13, 0.1470451, 0.009388128, -616616.2, -64109.47, 0.0, 9.999678, 9.998719 
1.5751123e+3, 2.5362113e+2, -509645.0, -598390.25, 109929.38, 0.046035293, -0.03024592, -435470.6, 19044.057, 0.00000029448665, 10.000027, 9.998874 
1.575142e+3, 2.636196e+2, -410339.5, -604513.1, 69236.62, -0.012983221, -0.0135606695, -388180.53, -31652.117, 0.000007127328, 10.000499, 9.997933 
1.5751716e+3, 2.7361718e+2, -195670.19, -442112.1, 64783.344, -0.013013222, -0.08552983, -179678.05, 78877.31, 0.000059012113, 10.001265, 9.998003 
1.5752009e+3, 2.8361577e+2, -74734.39, -255089.16, 25046.06, -0.036235545, -0.04626834, -71320.83, 89251.24, 0.00030982727, 10.0010805, 9.998707 
1.5752293e+3, 2.9361644e+2, -201115.31, -226665.88, 72656.82, -0.06822282, 0.08204139, -140119.19, -77553.19, 0.0010139171, 9.999381, 9.999038 
1.575258e+3, 3.0361652e+2, -186538.03, -88107.37, -25667.436, 0.01718865, 0.15640901, -81816.25, -81816.25, 0.0022794015, 9.998697, 9.999984 
1.5752836e+3, 3.1361577e+2, -143354.28, -87096.445, -32522.021, 0.015044861, 0.013604408, -72226.31, -72226.31, 0.0039605875, 9.999022, 9.999828 
1.5847297e+3, 1.2360073e+2, -1834398.9, -1592494.1, 181178.83, 0.10451865, -0.039358847, -1495604.3, 233115.1, 0.024665277, 9.9983425, 10.001637 
1.5847579e+3, 1.336027e+2, -1852105.1, -1699146.0, -5808.137, 0.008410207, 0.10616668, -1698925.8, -68225.92, 0.0150364665, 9.99823, 10.00027 
1.5847848e+3, 1.436028e+2, -1729521.5, -1627738.1, 51499.15, -0.13588408, 0.10673338, -1606227.3, -73527.63, 0.0068181083, 9.998546, 9.999933 
1.5848175e+3, 1.5360302e+2, -1627520.6, -1541245.0, 58643.313, 0.18835452, 0.11984039, -1511582.4, -76882.55, 0.0019058621, 9.998645, 9.999801 
1.5848474e+3, 1.6360292e+2, -1490623.8, -1431258.0, 53944.426, 0.24231389, 0.14829098, -1399369.3, -62667.766, 0.0002187055, 9.998935, 9.999742 
1.5848757e+3, 1.7360239e+2, -1208267.5, -1217393.8, 22216.193, 0.14961839, 0.0711738, -1190150.6, 48554.637, 0.000002466339, 10.000098, 9.999969 
1.584905e+3, 1.8360183e+2, -1160325.5, -1336096.1, 67368.77, 0.12336789, 0.106961645, -1137475.1, 3236.0938, 0.0, 10.000582, 9.998251 
1.5849347e+3, 1.9360118e+2, -1107600.1, -1268468.4, 89483.086, 0.092516884, 0.19981146, -1067714.4, -24992.848, 0.0, 10.00031, 9.998169 
1.5849645e+3, 2.0360014e+2, -975287.2, -1039086.2, 85211.89, 0.077759705, 0.24780633, -916199.6, 28532.117, 0.0, 10.000025, 9.999224 
1.5849943e+3, 2.1359843e+2, -874043.94, -894806.3, 54183.992, 0.12872076, 0.09203208, -829255.6, 17486.424, 0.0, 9.999857, 9.999617 
1.5850241e+3, 2.2359692e+2, -839973.3, -948381.75, 59444.246, 0.17098944, 0.03807562, -813730.56, -64976.46, 0.0, 9.99996, 9.99853 
1.5850538e+3, 2.3359568e+2, -613727.56, -789460.4, 21239.574, 0.1802757, 0.03988467, -611196.94, 39572.27, 0.0, 10.0008335, 9.998532 
1.5850833e+3, 2.435943e+2, -421974.66, -590735.3, 58131.844, 0.16080853, 0.04410286, -403888.66, 148894.0, 0.0, 10.0012455, 9.999007 
1.5851131e+3, 2.5359273e+2, -345157.47, -475314.88, 69019.28, 0.079887696, -0.06904225, -315373.66, 139418.56, 0.00000023115544, 10.000985, 9.99925 
1.5851428e+3, 2.6359126e+2, -404886.6, -564988.75, 86706.45, 0.02519111, -0.08201033, -366928.4, -10123.726, 0.0000061293663, 10.000387, 9.998249 
1.585172e+3, 2.735898e+2, -436164.06, -517442.3, 97427.47, -0.0005908788, -0.09148721, -371239.7, -112416.02, 0.000060026516, 9.999462, 9.998337 
1.5852009e+3, 2.8358915e+2, -327899.34, -326909.97, 90925.3, -0.02373639, -0.009433114, -236478.02, -75644.99, 0.0003212461, 9.999128, 9.999146 
1.5852292e+3, 2.9358995e+2, -116138.305, -133077.1, 75915.195, -0.027453868, 0.08303428, -48221.527, 14604.291, 0.0010569163, 9.999717, 9.9995165 
1.585258e+3, 3.035893e+2, 81065.51, 46729.23, 28139.543, 0.07226568, 0.05693856, 96860.664, 96860.664, 0.0023844014, 10.000483, 10.000081 
1.5852846e+3, 3.135897e+2, 186678.05, 94693.266, -83666.38, 0.13302696, 0.03340722, 236160.08, 236160.08, 0.0041548307, 10.001174, 10.000072 
1.5947294e+3, 1.23570785e+2, -1797849.1, -1581218.6, 117604.68, 0.166758, -0.10824642, -1529649.4, 199359.78, 0.026239868, 9.998567, 10.001627 
1.5947537e+3, 1.3357511e+2, -1791273.0, -1574388.6, 25850.945, -0.24802144, 0.18333974, -1571350.0, 59616.332, 0.016040104, 9.998228, 10.001132 
1.5947844e+3, 1.4357372e+2, -1708451.3, -1616672.4, 42410.137, -0.07256244, -0.011577173, -1600076.1, -67095.58, 0.0073062, 9.998666, 9.99996 
1.5948153e+3, 1.5357341e+2, -1617767.6, -1530635.1, 73128.89, 0.06559984, -0.06019216, -1489078.8, -54094.4, 0.002060233, 9.998673, 9.999865 
1.5948449e+3, 1.6357343e+2, -1508973.8, -1488007.8, 72926.13, 0.055373408, -0.0054178117, -1424815.0, -87829.28, 0.00024185247, 9.999013, 9.999315 
1.5948749e+3, 1.7357379e+2, -1248242.3, -1294812.4, 76471.16, 0.030119471, 0.05762412, -1191589.6, 47394.992, 0.0000030340082, 10.000076, 9.999446 
1.5949051e+3, 1.8357365e+2, -1112279.3, -1244850.8, 46128.145, 0.051133752, 0.13686964, -1097808.6, 43178.973, 0.0, 10.000611, 9.998864 
1.5949354e+3, 1.935727e+2, -1067724.6, -1161495.0, 90809.44, 0.097638644, 0.11771456, -1012411.1, 30586.193, 0.0, 10.000209, 9.998951 
1.594965e+3, 2.0357129e+2, -1009940.75, -1082178.1, 65077.19, 0.09345457, 0.095446646, -971630.94, -26621.818, 0.0, 9.999902, 9.998984 
1.5949936e+3, 2.1356907e+2, -935144.25, -966784.1, 59376.813, 0.05017231, -0.07341701, -889516.0, -42491.082, 0.0, 9.999631, 9.9992285 
1.595023e+3, 2.2356774e+2, -908675.94, -1043209.9, 72403.44, 0.031051919, -0.06560024, -877114.25, -128076.88, 0.0, 9.999743, 9.997987 
1.5950535e+3, 2.3356786e+2, -689160.94, -895916.7, 73599.17, 0.04853623, 0.1272661, -665637.94, -14594.186, 0.0, 10.000612, 9.997911 
1.5950836e+3, 2.4356729e+2, -432940.7, -555008.2, 46448.01, 0.034968928, 0.23182616, -417276.72, 135775.66, 0.0, 10.000998, 9.999369 
1.5951134e+3, 2.5356528e+2, -341676.25, -407837.44, 74758.87, -0.0039185355, 0.022471918, -293005.9, 162060.44, 0.00000009760233, 10.00074, 9.999825 
1.5951428e+3, 2.635643e+2, -374321.84, -458461.88, 41457.85, -0.014605906, -0.010537699, -357327.16, -253.76892, 0.0000054247644, 10.000194, 9.999076 
1.5951718e+3, 2.7356532e+2, -406361.56, -411374.03, 80110.52, 0.011693646, 0.13439465, -328718.1, -69651.53, 0.0000627863, 9.999264, 9.999163 
1.5952006e+3, 2.8356552e+2, -343782.06, -305728.84, 89933.13, 0.0104571115, 0.24648292, -232831.69, -71766.17, 0.0003316825, 9.998899, 9.999402 
1.595229e+3, 2.9356375e+2, -142477.55, -123802.086, 121019.734, -0.03030302, 0.062781714, -11760.373, 51320.914, 0.0010853008, 9.999446, 9.999713 
1.595258e+3, 3.0356136e+2, 539.6335, -41609.137, 38267.402, 0.00566238, -0.12636484, 23151.904, 23151.904, 0.0024493474, 10.000167, 9.999617 
1.5952852e+3, 3.1356347e+2, 131198.98, 89106.23, -23350.67, 0.034050457, 0.07109096, 141588.31, 141588.31, 0.0042672292, 10.000736, 10.000236 
1.6047283e+3, 1.2354207e+2, -1972994.3, -1703399.0, 58961.813, 0.26473796, -0.05871878, -1691067.8, 38224.137, 0.027939666, 9.997582, 10.001233 
1.6047518e+3, 1.3354604e+2, -1833663.3, -1581287.6, -39272.938, -0.22943598, 0.19585985, -1575317.4, 55935.6, 0.01712635, 9.997918, 10.001224 
1.6047837e+3, 1.4354418e+2, -1792589.0, -1615602.6, -6147.866, 0.034762952, -0.056996785, -1615389.4, -82118.36, 0.007836914, 9.997942, 10.000296 
1.6048138e+3, 1.535447e+2, -1558569.9, -1443729.5, 16128.533, 0.048396166, -0.07761968, -1441507.4, -6241.9336, 0.0022287087, 9.998845, 10.000361 
1.6048436e+3, 1.6354512e+2, -1480572.3, -1473909.4, 80306.555, 0.030541621, -0.009941462, -1396865.3, -59603.258, 0.00026665046, 9.999219, 9.999309 
1.6048744e+3, 1.7354535e+2, -1386215.4, -1369263.0, 88239.055, 0.034410395, 0.051339217, -1289094.0, -49830.895, 0.0000036433328, 9.999169, 9.999375 
1.6049051e+3, 1.8354523e+2, -1298319.0, -1287834.9, 77691.73, 0.07590675, 0.11879133, -1215208.6, -73942.914, 0.0, 9.99912, 9.99929 
1.6049355e+3, 1.9354439e+2, -1129628.4, -1133343.4, 70640.1, 0.13191454, 0.05847497, -1060821.4, -17549.566, 0.0, 9.999508, 9.999486 
1.604965e+3, 2.035431e+2, -1036253.56, -1118896.5, 63898.97, 0.11927439, 0.026101058, -1001479.44, -56197.27, 0.0, 9.999847, 9.9987545 
1.6049929e+3, 2.1354105e+2, -856935.25, -966176.94, 30353.146, -0.00653214, -0.088783465, -849068.06, -1768.8896, 0.0, 10.000349, 9.998882 
1.6050221e+3, 2.2353974e+2, -796750.44, -943823.6, 96539.19, -0.05090834, -0.07067871, -748930.3, 381.43808, 0.0, 10.000319, 9.99838 
1.6050532e+3, 2.3353988e+2, -804612.4, -877429.3, 150386.88, 0.027654376, 0.064070925, -686289.5, -34974.555, 0.0, 9.999525, 9.99853 
1.6050838e+3, 2.4353963e+2, -716704.06, -716777.44, 182729.81, 0.05226628, 0.1727557, -534010.94, 19308.98, 0.0, 9.999147, 9.999162 
1.6051136e+3, 2.535385e+2, -534563.1, -540630.6, 125369.23, 0.0073038605, 0.085674845, -412190.94, 43139.066, 0.000000007673713, 9.999566, 9.999493 
1.605143e+3, 2.635378e+2, -376527.72, -430562.06, 56153.41, -0.0064746514, 0.08588695, -341230.1, 16106.177, 0.0000049768487, 10.000049, 9.999347 
1.6051717e+3, 2.735381e+2, -189893.3, -273506.06, 13386.555, 0.02162354, 0.14130054, -187802.36, 71530.53, 0.00006482946, 10.000588, 9.999494 
1.6052003e+3, 2.835381e+2, -106537.164, -182843.73, 29291.584, 0.034413654, 0.20751911, -96589.83, 64742.605, 0.00033743004, 10.000456, 9.999512 
1.6052288e+3, 2.9353696e+2, -161875.28, -120612.34, 12872.843, 0.018485889, 0.079378024, -116925.766, -53584.195, 0.0010901192, 9.999249, 9.999835 
1.605258e+3, 3.0353454e+2, -132803.63, -187166.81, 33272.902, 0.055316426, -0.09018807, -117020.984, -117020.984, 0.0024527118, 9.999587, 9.99889 
1.605288e+3, 3.1353498e+2, 365919.34, 168560.63, -113257.36, 0.15559195, 0.022542285, 417455.97, 417455.97, 0.00426785, 10.002464, 9.999951 
1.614724e+3, 1.23515256e+2, -1999583.1, -1819346.4, -130691.43, 0.009196243, 0.16511299, -1750714.8, -21153.428, 0.02978273, 9.997824, 10.000327 
1.614752e+3, 1.3351588e+2, -1887059.8, -1699228.0, -35088.223, -0.038455997, 0.17286363, -1692887.4, -61331.13, 0.018308382, 9.997939, 10.000409 
1.6147819e+3, 1.4351475e+2, -1733630.8, -1513772.9, 3042.862, 0.026019191, 0.012709986, -1513730.8, 19836.031, 0.008418617, 9.99802, 10.00096 
1.6148126e+3, 1.5351693e+2, -1497029.6, -1318671.3, 64018.215, 0.024103794, 0.07752137, -1298072.3, 137470.0, 0.0024150687, 9.998857, 10.001217 
1.6148433e+3, 1.63518e+2, -1426955.9, -1401755.0, 62333.055, 0.034962915, 0.13872094, -1350761.6, -13231.215, 0.0002938315, 9.999372, 9.999734 
1.614874e+3, 1.735171e+2, -1362955.9, -1322893.3, 94712.27, 0.06258783, 0.051245928, -1246117.1, -6576.814, 0.000004294035, 9.999161, 9.999703 
1.6149046e+3, 1.8351652e+2, -1285315.6, -1257299.6, 74544.64, 0.07200631, 0.045525063, -1195458.3, -53912.434, 0.0, 9.999109, 9.999499 
1.6149347e+3, 1.9351636e+2, -1130828.0, -1113659.9, 97433.89, 0.08020664, 0.032104425, -1024432.6, 19111.523, 0.0, 9.999417, 9.999663 
1.6149642e+3, 2.0351568e+2, -1077588.5, -1170329.9, 63747.473, 0.017506996, 0.06464464, -1045130.44, -99581.07, 0.0, 9.999699, 9.998471 
1.6149919e+3, 2.1351427e+2, -911937.9, -1038691.7, 60430.516, -0.14776498, 0.046491005, -887744.94, -40179.61, 0.0, 10.000172, 9.998467 
1.6150211e+3, 2.2351289e+2, -743132.6, -771485.3, 58046.137, -0.18943657, 0.026906554, -697556.8, 52020.945, 0.0, 10.000064, 9.999682 
1.6150525e+3, 2.3351164e+2, -723041.8, -654793.4, 133642.47, -0.008067918, -0.13928135, -550987.25, 100596.62, 0.0, 9.999304, 10.000163 
1.6150832e+3, 2.435112e+2, -794361.3, -836745.44, 174896.05, 0.07413323, -0.11230785, -639378.06, -85791.24, 0.0, 9.9989605, 9.99843 
1.615113e+3, 2.5351223e+2, -646223.6, -724546.9, 157440.47, -0.009804578, 0.12215922, -523147.34, -67563.29, 0.00000000987263, 9.999359, 9.998328 
1.6151425e+3, 2.6351166e+2, -442513.1, -509974.38, 60791.617, -0.08009654, 0.22118758, -406721.25, -49128.055, 0.000004852571, 9.999806, 9.998912 
1.6151711e+3, 2.7350822e+2, -242564.94, -328715.6, 53511.652, -0.1078693, -0.0767544, -216945.44, 42678.27, 0.00006465758, 10.00037, 9.999209 
1.6151997e+3, 2.8350702e+2, -147942.63, -216982.36, -25272.824, -0.09513992, -0.102992944, -139680.06, 21952.623, 0.0003366383, 10.000233, 9.999385 
1.6152278e+3, 2.9350975e+2, -192202.98, -142802.05, -12313.278, -0.02683315, 0.15447994, -139903.06, -76298.15, 0.0010767062, 9.999072, 9.999769 
1.615258e+3, 3.0350855e+2, -233387.3, -340717.7, 99010.68, 0.062690444, 0.15271375, -174433.38, -174433.38, 0.0024076046, 9.999377, 9.997917 
1.6152912e+3, 3.135048e+2, 228352.66, 33833.61, 52091.887, 0.19612814, -0.051379498, 241424.36, 241424.36, 0.0041744797, 10.001871, 9.999276 
1.624722e+3, 1.2348711e+2, -1831900.6, -1754485.8, -117750.44, -0.023308503, 0.27232948, -1669243.9, 60598.168, 0.03179242, 9.999038, 10.000166 
1.6247515e+3, 1.3348664e+2, -1943392.5, -1765258.4, -55193.086, 0.1505557, 0.19217034, -1749543.6, -117696.53, 0.019603958, 9.99769, 10.000066 
1.6247799e+3, 1.4348584e+2, -1940492.4, -1599028.5, 86430.97, 0.09517101, 0.07583358, -1578397.6, -44543.64, 0.009062119, 9.99656, 10.001072 
1.6248114e+3, 1.5348804e+2, -1619986.5, -1350794.4, 88102.16, 0.0772713, 0.12152097, -1324523.8, 111305.08, 0.002624408, 9.997908, 10.00145 
1.6248426e+3, 1.6348927e+2, -1492407.3, -1399663.1, 48755.207, 0.07615366, 0.1778664, -1378749.0, -40934.5, 0.00032476612, 9.99879, 10.000025 
1.6248731e+3, 1.7348883e+2, -1350010.8, -1276253.9, 39826.383, 0.07803864, 0.10033382, -1258853.8, -19034.053, 0.000005034694, 9.999092, 10.000044 
1.6249035e+3, 1.834884e+2, -1264773.6, -1222098.9, 53939.867, 0.08054777, 0.08493225, -1185429.4, -43606.723, 0.0, 9.999148, 9.999729 
1.624934e+3, 1.9348815e+2, -1154896.9, -1089404.9, 52960.516, 0.08438616, 0.037003484, -1059884.4, -16063.682, 0.0, 9.999124, 9.999966 
1.6249634e+3, 2.0348766e+2, -1163335.5, -1185655.0, 64608.38, 0.034244567, 0.060107775, -1108930.1, -163106.66, 0.0, 9.998981, 9.998716 
1.6249917e+3, 2.1348684e+2, -1103202.5, -1105353.3, 82743.46, -0.11463451, 0.07788502, -1021527.4, -173692.72, 0.0, 9.998731, 9.998711 
1.625021e+3, 2.2348584e+2, -880074.44, -805732.56, 103245.78, -0.1487421, 0.068238564, -733170.3, 16673.004, 0.0, 9.99897, 9.999979 
1.6250522e+3, 2.3348446e+2, -590362.2, -564005.8, 51968.1, 0.0040396987, -0.13628568, -523571.06, 128277.06, 0.0, 10.000074, 10.000426 
1.6250832e+3, 2.4348372e+2, -544981.44, -751168.3, 76551.78, 0.08926436, -0.14017075, -519667.56, 34185.516, 0.0, 10.000828, 9.998111 
1.6251133e+3, 2.5348407e+2, -426649.5, -669342.9, 74802.82, 0.019810688, 0.07099652, -405446.25, 50412.11, 0.000000011745934, 10.001076, 9.997878 
1.6251431e+3, 2.634831e+2, -296436.8, -460968.94, 31507.266, -0.04334165, 0.16403098, -290609.66, 67262.64, 0.0000048598445, 10.000909, 9.998714 
1.6251716e+3, 2.7347973e+2, -299047.7, -374609.28, -2617.4355, -0.075474896, -0.103962876, -298957.13, -39055.754, 0.00006306325, 10.000058, 9.99904 
1.6252004e+3, 2.8347817e+2, -186108.22, -298039.66, -33351.8, -0.05068168, -0.13326873, -176924.08, -15010.27, 0.00033149842, 10.000266, 9.998797 
1.625229e+3, 2.9347974e+2, 241243.73, -14252.178, -113379.37, 0.028803961, 0.076785065, 284301.0, 348199.38, 0.001055369, 10.002407, 9.99904 
1.6252592e+3, 3.034784e+2, 264878.66, -150726.95, 16829.973, 0.07301567, 0.12520094, 265559.1, 265559.1, 0.0023387242, 10.003012, 9.997485 
1.6252923e+3, 3.1347486e+2, 57859.484, -106686.38, -48156.105, 0.18703397, -0.004940759, 70916.74, 70916.74, 0.004022567, 10.0008955, 9.99881 
1.634721e+3, 1.23457275e+2, -1753714.5, -1627165.0, -15673.263, -0.10169686, 0.20555301, -1625252.8, 104884.7, 0.03398967, 9.999166, 10.000994 
1.6347498e+3, 1.334584e+2, -1932308.6, -1746411.8, -119406.95, 0.18379702, 0.26009527, -1688041.3, -55916.402, 0.02102759, 9.997706, 10.000188 
1.634777e+3, 1.4345738e+2, -1944208.4, -1641434.4, 89435.86, 0.11683138, 0.13080634, -1616989.6, -82856.484, 0.009775217, 9.996692, 10.000728 
1.6348095e+3, 1.534581e+2, -1650125.1, -1412583.0, 150588.67, 0.076754704, 0.07007231, -1339563.8, 96559.984, 0.002860367, 9.9979, 10.001034 
1.6348411e+3, 1.6345914e+2, -1473715.8, -1371382.8, 48110.043, 0.009173759, 0.119633526, -1352316.9, -14203.949, 0.00036087315, 9.998829, 10.000203 
1.6348715e+3, 1.734605e+2, -1339637.9, -1248346.0, 58397.82, -0.03430734, 0.2049516, -1219871.4, 20230.174, 0.000005927034, 9.999065, 10.00025 
1.6349019e+3, 1.8346088e+2, -1231848.4, -1167537.6, 36696.293, -0.032993615, 0.24013765, -1150901.8, -8804.898, 0.0, 9.999198, 10.000085 
1.6349328e+3, 1.9345964e+2, -1139644.8, -1043349.4, 62234.063, 0.03520053, 0.05953357, -1012812.4, 31290.287, 0.0, 9.999052, 10.000323 
1.6349627e+3, 2.0345882e+2, -1129145.4, -1078780.5, 41651.957, 0.04996385, -0.006256582, -1055290.1, -109183.445, 0.0, 9.998826, 9.999527 
1.6349915e+3, 2.1345869e+2, -1065550.9, -988400.7, 88807.984, -0.01853817, -0.005749882, -930151.75, -82043.68, 0.0, 9.998557, 9.999601 
1.6350208e+3, 2.2345856e+2, -973554.94, -939538.8, 126795.61, -0.07099147, 0.05429139, -828615.6, -78507.07, 0.0, 9.998715, 9.999178 
1.635052e+3, 2.3345841e+2, -701091.75, -738821.0, 107972.36, -0.049601972, 0.075053066, -610348.4, 41758.84, 0.0, 9.999844, 9.999332 
1.6350831e+3, 2.4345721e+2, -587836.8, -776698.75, 76417.875, -0.028054116, 0.08927362, -560789.75, -6671.376, 0.0, 10.00056, 9.998062 
1.6351143e+3, 2.5345412e+2, -442990.97, -653873.0, 100909.54, -0.02484285, -0.05418268, -402484.94, 53666.695, 0.000000006263202, 10.000875, 9.9980755 
1.6351444e+3, 2.6345235e+2, -324371.78, -480225.53, -8502.254, -0.026583903, -0.05086836, -323909.34, 34261.32, 0.000005059976, 10.000726, 9.998679 
1.6351725e+3, 2.7345282e+2, -326289.84, -394078.38, -10305.836, -0.01359452, 0.06032367, -324757.7, -64592.785, 0.000060994436, 9.999886, 9.998994 
1.6352014e+3, 2.834515e+2, -304977.1, -488705.25, 18696.389, 0.005686579, 0.105104156, -303093.84, -140917.03, 0.0003219481, 10.000042, 9.997588 
1.6352317e+3, 2.9344702e+2, 97491.89, -244440.45, -1783.7269, 0.024062566, -0.14038017, 97501.195, 161721.28, 0.0010251402, 10.002131, 9.997583 
1.635261e+3, 3.0344436e+2, 208148.42, -188978.38, -53893.805, -0.06723877, -0.13562009, 215332.36, 215332.36, 0.0022546886, 10.002674, 9.997383 
1.635291e+3, 3.1344527e+2, -17413.174, -158689.75, -58216.22, -0.09057389, 0.15574141, 3484.8464, 3484.8464, 0.0038422053, 10.000459, 9.998657 
1.644719e+3, 1.2342704e+2, -2063467.3, -1726102.4, 20901.691, -0.107583605, 0.1735016, -1724812.3, 5622.1816, 0.036383986, 9.996887, 10.00139 
1.6447471e+3, 1.3342848e+2, -1747306.3, -1573148.6, -158672.61, 0.10994251, 0.19246249, -1479231.0, 153186.63, 0.022584815, 9.998647, 10.000937 
1.644776e+3, 1.4342913e+2, -1568561.1, -1476835.5, 121470.98, 0.22906542, 0.19260246, -1392857.6, 141551.3, 0.010560797, 9.999328, 10.000601 
1.6448079e+3, 1.5342909e+2, -1574441.9, -1409365.5, 166812.77, 0.10068818, 0.08243222, -1305788.0, 130619.625, 0.0031241647, 9.998546, 10.000751 
1.6448393e+3, 1.634297e+2, -1588704.0, -1420797.0, 98409.17, 0.0009008416, 0.10043407, -1375396.1, -36994.65, 0.0004029895, 9.998006, 10.000264 
1.64487e+3, 1.734313e+2, -1437096.9, -1285583.5, 76007.91, -0.032037042, 0.19965757, -1254026.3, -13638.359, 0.0000070009137, 9.998341, 10.000353 
1.6449009e+3, 1.8343191e+2, -1323653.3, -1205651.5, 60215.27, -0.017751124, 0.25045463, -1180349.5, -37967.8, 0.0, 9.998563, 10.000112 
1.6449317e+3, 1.9343081e+2, -1156642.6, -1050426.4, 26588.75, 0.04162346, 0.08155877, -1044142.25, 245.31534, 0.0, 9.99895, 10.000309 
1.644962e+3, 2.034302e+2, -1030554.56, -969128.75, 4892.3633, 0.07314839, 0.016596673, -968741.56, -22352.146, 0.0, 9.999243, 10.00007 
1.644991e+3, 2.1343054e+2, -886544.0, -820917.7, 1808.585, 0.042587206, -0.005886422, -820867.9, 27515.535, 0.0, 9.999458, 10.000298 
1.6450207e+3, 2.2343054e+2, -855659.2, -940939.7, 92302.05, 0.0071490454, 0.0490834, -796624.2, -46242.29, 0.0, 9.999774, 9.998673 
1.6450521e+3, 2.334298e+2, -685904.44, -813019.1, 79858.02, -0.024122743, 0.08733089, -647398.9, 4990.512, 0.0, 10.000298, 9.998618 
1.6450834e+3, 2.4342833e+2, -587989.9, -736513.1, 74111.42, -0.022561217, 0.09968807, -557335.9, -2931.733, 0.0, 10.00038, 9.998429 
1.6451146e+3, 2.5342548e+2, -577927.3, -664836.06, 88694.78, -0.0041960813, -0.06877852, -522614.06, -66182.42, 0.000000005166704, 9.999705, 9.998577 
1.645145e+3, 2.6342398e+2, -467222.97, -540640.94, 39684.58, 0.017909903, -0.06870082, -449872.6, -91426.305, 0.000005473011, 9.999728, 9.998731 
1.6451734e+3, 2.7342469e+2, -124736.5, -296272.3, -2926.2173, 0.03389759, 0.0694769, -124686.6, 135752.64, 0.000058881178, 10.0013, 9.998966 
1.645203e+3, 2.834233e+2, 8780.625, -370379.2, 106290.25, 0.050762326, 0.124187835, 36544.13, 198996.53, 0.0003079229, 10.00233, 9.997317 
1.6452341e+3, 2.9341856e+2, 59870.133, -296765.44, 127002.35, 0.061742365, -0.115573704, 100474.31, 164973.47, 0.0009851714, 10.002024, 9.997283 
1.6452633e+3, 3.0341586e+2, 128609.18, -214018.8, 118148.305, -0.0490473, -0.107849, 165399.75, 165399.75, 0.002164133, 10.002027, 9.99754 
1.6452922e+3, 3.1341648e+2, 226217.66, -64412.926, 27728.742, -0.07400307, 0.13589293, 228839.56, 228839.56, 0.0036698945, 10.002239, 9.998442 
1.6547164e+3, 1.2339695e+2, -2062208.3, -1757593.9, -68079.0, -0.10229311, 0.2248239, -1743071.1, -12343.421, 0.03897044, 9.997017, 10.00112 
1.6547431e+3, 1.33397e+2, -1646702.4, -1377878.6, -75104.17, -0.185331, -0.0064505497, -1358319.1, 274404.88, 0.024272982, 9.998674, 10.002299 
1.6547762e+3, 1.4340125e+2, -1539797.9, -1446409.4, 83457.98, 0.26657176, 0.265873, -1397471.0, 137208.5, 0.0114189135, 9.999454, 10.000747 
1.6548058e+3, 1.5340112e+2, -1582299.5, -1434101.9, 145642.61, 0.024533847, 0.16313778, -1344792.0, 91887.06, 0.0034161112, 9.998585, 10.000562 
1.6548368e+3, 1.634011e+2, -1571744.4, -1412579.9, 87146.08, -0.09072555, 0.13014132, -1374146.1, -35467.313, 0.00045137366, 9.998111, 10.000275 
1.6548687e+3, 1.7340142e+2, -1432846.1, -1268982.5, 99817.33, -0.018273106, 0.08824394, -1221777.5, 18899.383, 0.000008273259, 9.998307, 10.000482 
1.6549e+3, 1.834016e+2, -1348566.1, -1262858.0, 61561.4, 0.009554463, 0.10664801, -1230703.6, -88027.695, 0.0, 9.998575, 9.999719 
1.6549303e+3, 1.9340166e+2, -1201976.3, -1128523.9, 51762.02, -0.011754437, 0.10191879, -1101782.6, -57107.15, 0.0, 9.998871, 9.999817 
1.6549604e+3, 2.0340186e+2, -1035182.3, -943793.7, 388.87155, -0.036108073, 0.13747758, -943792.0, 2879.3987, 0.0, 9.999096, 10.000314 
1.6549899e+3, 2.1340235e+2, -888029.06, -776111.4, 20964.738, -0.039855003, 0.09025375, -772313.06, 76347.98, 0.0, 9.999254, 10.000704 
1.6550203e+3, 2.2340158e+2, -902641.3, -986214.3, 93336.31, -0.04295242, 0.053378813, -842164.5, -91499.35, 0.0, 9.999548, 9.998472 
1.6550523e+3, 2.3339859e+2, -739203.0, -874502.7, 115557.5, -0.038504083, -0.10289786, -672949.75, -20254.457, 0.0, 10.000085, 9.9983015 
1.6550839e+3, 2.4339704e+2, -577864.6, -656766.8, 46892.32, -0.043200042, -0.105213925, -556035.44, -1324.8921, 0.0, 10.000131, 9.999093 
1.6551143e+3, 2.533981e+2, -549430.6, -554402.56, 77657.03, -0.032085348, 0.02277931, -474219.8, -17520.682, 0.00000000856411, 9.999498, 9.999424 
1.6551444e+3, 2.6339778e+2, -500610.72, -568750.7, 70231.93, -0.028879149, 0.10166294, -456621.2, -97920.29, 0.0000057188686, 9.999539, 9.998632 
1.6551742e+3, 2.7339515e+2, -165142.84, -338296.1, 76336.77, -0.051171366, -0.07289794, -136294.97, 124431.266, 0.00005720022, 10.001108, 9.998774 
1.6552044e+3, 2.8339356e+2, 9265.508, -302468.88, 86230.016, -0.053119823, -0.06069399, 31528.035, 194270.14, 0.0002952708, 10.002037, 9.997927 
1.6552356e+3, 2.9339367e+2, 80309.26, -204056.8, 139873.77, -0.008512156, 0.110615976, 137577.19, 202319.28, 0.0009504649, 10.001793, 9.998036 
1.6552655e+3, 3.0339196e+2, 86788.2, -211988.67, 106909.875, -0.05553136, 0.16651507, 121102.31, 121102.31, 0.002096844, 10.00167, 9.997716 
1.6552953e+3, 3.133877e+2, 124852.64, -166790.7, 99594.71, -0.0337862, -0.08685367, 155618.23, 155618.23, 0.003555798, 10.001766, 9.997971 
1.6647151e+3, 1.2336792e+2, -2122169.8, -1828700.4, 24335.77, 0.09376008, 0.21659817, -1826696.0, -95687.6, 0.041736465, 9.996763, 10.000761 
1.664741e+3, 1.3336746e+2, -1757035.4, -1490726.0, -30787.201, -0.20143105, -0.018803596, -1487213.1, 145798.63, 0.026087236, 9.998153, 10.001765 
1.6647743e+3, 1.4337079e+2, -1714238.8, -1509643.5, 1942.3098, 0.2110203, 0.19002403, -1509625.0, 25352.25, 0.012349877, 9.998195, 10.000897 
1.6648039e+3, 1.5337162e+2, -1649870.6, -1418847.6, 67360.44, 0.01589674, 0.14647369, -1400641.8, 36324.633, 0.003737191, 9.99794, 10.000958 
1.664835e+3, 1.6337207e+2, -1625048.4, -1441655.9, 88838.12, -0.047054656, 0.14143063, -1405679.0, -66718.42, 0.00050616945, 9.997787, 10.000217 
1.6648671e+3, 1.7337163e+2, -1481309.9, -1309720.8, 57098.805, 0.014233829, 0.03661157, -1292457.3, -51491.22, 0.000009797576, 9.9980545, 10.0003195 
1.6648985e+3, 1.8337153e+2, -1393895.6, -1260791.0, 56988.14, 0.044040117, 0.030134644, -1239725.6, -96757.91, 0.0, 9.998165, 9.999926 
1.6649294e+3, 1.9337237e+2, -1225681.4, -1103042.9, 80007.95, 0.019052055, 0.072370805, -1063558.8, -18598.363, 0.0, 9.998556, 10.000133 
1.6649596e+3, 2.03373e+2, -1077951.0, -1000239.0, 71256.664, -0.0025053003, 0.14098504, -957932.8, -10979.555, 0.0, 9.998954, 9.999999 
1.6649893e+3, 2.1337321e+2, -884393.06, -824714.8, 6875.832, -0.023706941, 0.11256863, -823932.9, 25013.906, 0.0, 9.999487, 10.000263 
1.6650198e+3, 2.2337224e+2, -867117.7, -945127.4, 73799.93, -0.024346404, 0.07317046, -822649.1, -71695.53, 0.0, 9.999695, 9.998669 
1.6650523e+3, 2.3336925e+2, -813892.2, -870724.4, 107514.164, -0.002581182, -0.11779458, -731102.3, -78118.89, 0.0, 9.999406, 9.998636 
1.665084e+3, 2.4336791e+2, -622430.25, -645682.4, 85039.05, 0.00568069, -0.13415903, -548226.25, 6769.7295, 0.0, 9.999662, 9.999414 
1.6651145e+3, 2.5336942e+2, -314514.63, -401571.1, 54815.875, -0.009790115, 0.015679037, -288046.53, 168931.52, 0.0000000057748837, 10.0009365, 9.99979 
1.6651449e+3, 2.6336923e+2, -208334.98, -444998.03, 64384.156, -0.018631836, 0.08647668, -191953.22, 167025.28, 0.0000055479773, 10.001608, 9.998489 
1.6651751e+3, 2.7336594e+2, -180825.81, -390737.97, 33927.016, -0.045138456, -0.12333535, -175478.58, 85532.78, 0.000055377644, 10.001151, 9.998417 
1.665206e+3, 2.8336442e+2, -117241.22, -299855.16, 52561.992, -0.028937954, -0.10371418, -103192.95, 59834.06, 0.00028510438, 10.000898, 9.998471 
1.6652372e+3, 2.9336601e+2, 24799.992, -150507.47, 45503.016, 0.039661642, 0.15126719, 35907.086, 100918.98, 0.0009269267, 10.001102, 9.998708 
1.6652676e+3, 3.033644e+2, 129495.25, -138883.19, 78237.59, 0.013720343, 0.15622808, 150637.5, 150637.5, 0.0020627284, 10.001734, 9.998177 
1.6652985e+3, 3.1336027e+2, 244439.27, -66738.85, 28555.426, 0.079663314, -0.12725379, 247037.97, 247037.97, 0.0035152223, 10.002424, 9.998321 
1.6747116e+3, 1.2333966e+2, -2117570.8, -1842466.6, -94758.38, -0.010324571, 0.08734807, -1812986.6, -81707.67, 0.044670317, 9.996861, 10.000618 
1.674741e+3, 1.3334037e+2, -1938451.8, -1875313.6, 6210.1157, -0.046564553, 0.20073473, -1874708.6, -241432.9, 0.028026333, 9.998192, 9.999087 
1.6747698e+3, 1.4333749e+2, -1688113.1, -1467995.3, -29214.35, -0.094637536, -0.062493447, -1464183.9, 71120.56, 0.013357116, 9.998242, 10.001165 
1.6748017e+3, 1.5334058e+2, -1584016.9, -1281603.0, 71666.53, -0.04510094, 0.026692139, -1265479.0, 171790.56, 0.004090086, 9.997929, 10.001914 
1.6748336e+3, 1.6334258e+2, -1623585.1, -1459164.8, 80447.266, -0.0051351096, 0.1261621, -1426352.0, -87104.63, 0.0005678562, 9.99787, 10.000062 
1.6748647e+3, 1.7334197e+2, -1517116.9, -1374770.8, 75040.55, -0.04599823, 0.050102856, -1342519.0, -101264.24, 0.000011659807, 9.998015, 9.999894 
1.6748962e+3, 1.8334189e+2, -1332127.9, -1139706.0, 54425.71, -0.057172474, 0.032847095, -1125378.8, 17877.115, 0.0, 9.998185, 10.000755 
1.674928e+3, 1.9334297e+2, -1163912.9, -954512.3, 103629.63, 0.023573672, -0.0038324539, -911899.1, 133343.19, 0.0, 9.998463, 10.001204 
1.6749594e+3, 2.0334356e+2, -1149964.3, -1125791.1, 76315.84, 0.050695185, 0.030712903, -1060610.6, -113375.46, 0.0, 9.998844, 9.999191 
1.6749889e+3, 2.133431e+2, -998974.8, -1020637.06, 41454.027, -0.025686339, 0.05458265, -966960.3, -117719.445, 0.0, 9.999297, 9.999015 
1.6750194e+3, 2.2334251e+2, -869348.06, -887386.44, 55931.42, -0.07409321, 0.10303287, -821713.3, -70466.055, 0.0, 9.999429, 9.99919 
1.6750517e+3, 2.3334174e+2, -785525.44, -764130.7, 107751.88, -0.030400023, 0.051060423, -666546.5, -13292.274, 0.0, 9.999201, 9.999465 
1.6750838e+3, 2.433408e+2, -656197.1, -658746.3, 108078.89, -0.012273235, 0.029131271, -549385.3, 5875.7095, 0.0, 9.999417, 9.99944 
1.6751152e+3, 2.5333965e+2, -356876.2, -433877.13, 120304.63, -0.05259355, -0.081459746, -269061.63, 188205.94, 0.0000000017385277, 10.000694, 9.999683 
1.675146e+3, 2.6333836e+2, -271679.78, -506515.47, 43481.53, -0.088292874, -0.1037217, -263887.44, 95390.7, 0.0000048816705, 10.0013075, 9.998215 
1.6751763e+3, 2.733368e+2, -233126.77, -455313.5, 37097.332, -0.07825185, -0.10450506, -227096.48, 34199.93, 0.000051551386, 10.000956, 9.998073 
1.675207e+3, 2.8333578e+2, -141775.72, -284891.28, 43417.86, -0.03734523, -0.021396365, -129633.88, 33674.285, 0.0002714196, 10.00062, 9.998711 
1.6752389e+3, 2.9333562e+2, 25548.49, -97602.31, 80061.37, 0.05165906, 0.0092609925, 64974.832, 130283.65, 0.0008993855, 10.000862, 9.999197 
1.6752695e+3, 3.0333322e+2, 110949.58, -68705.06, 85332.984, -0.007904867, -0.124449104, 145020.06, 145020.06, 0.0020323566, 10.001294, 9.998862 
1.6753004e+3, 3.1333312e+2, 256906.28, 56626.582, 108393.61, -0.02418292, -0.070957616, 304337.3, 304337.3, 0.0035038409, 10.002023, 9.999357 
1.684709e+3, 1.2330997e+2, -1960501.8, -1750562.3, -161456.66, 0.018164534, 0.043829355, -1662952.4, 68616.13, 0.04776628, 9.997897, 10.000745 
1.6847403e+3, 1.3331202e+2, -1995054.4, -1898239.0, 8746.5205, 0.09214948, 0.28431502, -1897455.1, -263904.25, 0.030093629, 9.997816, 9.999096 
1.6847675e+3, 1.4330707e+2, -1771759.4, -1530508.5, 104935.1, -0.11703715, -0.18077752, -1491253.1, 44346.37, 0.0144471, 9.997753, 10.000976 
1.6847995e+3, 1.5331069e+2, -1551572.5, -1296529.0, 85886.586, -0.055006567, -0.012879563, -1270303.1, 167257.8, 0.004479329, 9.998278, 10.001651 
1.6848315e+3, 1.6331294e+2, -1541375.8, -1407184.5, 76115.94, -0.016719757, 0.12554054, -1372813.5, -33277.016, 0.0006375465, 9.998379, 10.000177 
1.684863e+3, 1.7331222e+2, -1453072.3, -1315410.8, 94715.43, -0.030597145, 0.011465746, -1267157.5, -25614.398, 0.00001399049, 9.998336, 10.000141 
1.6848947e+3, 1.8331197e+2, -1323990.0, -1180878.6, 101550.76, -0.0068501364, -0.020620625, -1128205.6, 15339.116, 0.0, 9.998448, 10.0003395 
1.6849272e+3, 1.9331288e+2, -1107954.1, -994165.75, 8711.0205, 0.05561548, -0.016865443, -993502.75, 52032.223, 0.0, 9.999133, 10.00061 
1.6849588e+3, 2.0331308e+2, -1026520.94, -1081139.6, -49112.64, 0.077525266, 0.02368703, -997635.5, -50102.477, 0.0, 9.999764, 9.999052 
1.684989e+3, 2.1331215e+2, -847853.1, -945037.3, -31657.717, 0.01911941, 0.0031583717, -838450.4, 11093.251, 0.0, 10.000343, 9.999019 
1.6850199e+3, 2.2331166e+2, -685677.56, -797698.3, 25811.428, -0.008520932, 0.06053141, -680016.3, 71533.14, 0.0, 10.000659, 9.999237 
1.6850519e+3, 2.3331197e+2, -608313.25, -671544.4, -1488.9666, 0.020099167, 0.113429956, -608278.25, 45268.215, 0.0, 10.00037, 9.999558 
1.6850838e+3, 2.4331148e+2, -582247.5, -628137.4, 10149.536, 0.039157506, 0.13293505, -580102.94, -24553.152, 0.0, 9.999954, 9.999375 
1.6851157e+3, 2.533095e+2, -550534.0, -547424.3, -11198.311, 0.004195323, -0.05128382, -537673.44, -80107.87, 0.0000000018399801, 9.999435, 9.99951 
1.685147e+3, 2.6330787e+2, -514687.1, -590599.0, -38571.297, -0.025909021, -0.10424583, -498528.38, -138949.05, 0.0000039092515, 9.999497, 9.998509 
1.6851775e+3, 2.7330723e+2, -234524.2, -396665.94, -28616.814, -0.02897025, -0.052770346, -229621.78, 31965.309, 0.000046409757, 10.000747, 9.998548 
1.6852084e+3, 2.8330642e+2, -29978.305, -257648.63, 12926.825, 0.008584972, 0.035108984, -29246.688, 134349.34, 0.00025645504, 10.001474, 9.998512 
1.6852401e+3, 2.9330516e+2, 21954.396, -135666.94, -43775.656, 0.09315206, -0.011802481, 33295.984, 98905.18, 0.000866263, 10.0009775, 9.998899 
1.6852707e+3, 3.0330223e+2, 97174.13, -42478.082, -8365.54, 0.01421011, -0.19506967, 97673.47, 97673.47, 0.0019892203, 10.000999, 9.999221 
1.6853023e+3, 3.133037e+2, 265146.4, 154856.38, -62019.93, 0.0001522131, -0.012911773, 292992.0, 292992.0, 0.003476974, 10.001605, 10.000291 
1.6947071e+3, 1.2327801e+2, -1931042.9, -1725274.3, 27286.693, -0.046576906, 0.019162744, -1721717.3, 10168.738, 0.051028147, 9.998034, 10.000848 
1.694738e+3, 1.3328189e+2, -1790355.5, -1471014.6, 7526.3667, 0.043348666, 0.18172511, -1470837.4, 163004.48, 0.032295942, 9.997778, 10.002085 
1.694767e+3, 1.4327979e+2, -1805153.0, -1622060.1, 111189.44, 0.02678657, -0.1547581, -1569579.4, -33720.402, 0.015627254, 9.997841, 10.000305 
1.6947973e+3, 1.5328221e+2, -1664487.1, -1539528.6, 117323.37, -0.13164619, 0.054074246, -1469085.3, -31247.475, 0.004910431, 9.998315, 9.999962 
1.694828e+3, 1.6328327e+2, -1491719.8, -1325064.1, 57548.496, -0.23656996, 0.15045832, -1307123.3, 32703.764, 0.0007170378, 9.998464, 10.000698 
1.6948614e+3, 1.732824e+2, -1386902.4, -1175392.1, 104894.36, -0.05173727, -0.07393693, -1132194.3, 109635.51, 0.000016975888, 9.998322, 10.001107 
1.6948943e+3, 1.8328187e+2, -1437397.3, -1429659.1, 107302.81, 0.06342818, -0.119501986, -1326155.6, -182322.28, 0.0, 9.998499, 9.9986105 
1.6949257e+3, 1.9328204e+2, -1281658.1, -1334195.5, 42481.418, -0.008205349, 0.03232951, -1257979.8, -212140.75, 0.0, 9.999043, 9.998319 
1.6949575e+3, 2.0328166e+2, -1020347.75, -1025747.06, -43807.03, -0.05418036, 0.12902123, -979157.25, -31310.99, 0.0, 9.999579, 9.999525 
1.6949892e+3, 2.1328035e+2, -799219.56, -807986.06, 1505.1249, -0.008524865, -0.025832744, -798968.4, 50887.063, 0.0, 10.000175, 10.000049 
1.6950211e+3, 2.2327963e+2, -738161.2, -847101.06, 6213.9785, 0.024449948, -0.04390277, -737807.94, 14052.99, 0.0, 10.000412, 9.999012 
1.6950525e+3, 2.3327999e+2, -684698.3, -766700.56, 4820.125, 0.030962117, 0.062845774, -684416.0, -30556.166, 0.0, 10.000102, 9.999032 
1.695084e+3, 2.4327984e+2, -647925.44, -691462.94, -19035.078, 0.028096998, 0.15888692, -640776.9, -84913.95, 0.0, 9.999643, 9.999092 
1.6951157e+3, 2.5327876e+2, -593168.25, -593365.2, -13150.77, 0.04252278, 0.090638086, -580115.6, -122241.87, 0.0000000033657745, 9.999252, 9.999285 
1.6951472e+3, 2.6327765e+2, -497183.84, -493390.1, -14376.961, 0.018569028, 0.071000494, -480785.4, -120902.44, 0.0000030031388, 9.999245, 9.999292 
1.6951784e+3, 2.73277e+2, -197085.66, -266127.4, 37708.453, -0.028383316, 0.017847642, -180482.97, 81402.48, 0.000041455987, 10.000524, 9.999548 
1.6952097e+3, 2.8327608e+2, -117906.61, -368709.38, -13289.93, -0.037799608, 0.057551518, -117204.35, 46689.12, 0.00024337543, 10.001168, 9.997896 
1.6952404e+3, 2.932741e+2, -73153.27, -291567.13, -41410.184, 0.013916791, 0.039838832, -65565.695, 351.91794, 0.00083297, 10.000778, 9.997934 
1.6952707e+3, 3.0327088e+2, 33837.223, -76118.65, -5169.4834, -0.090927586, -0.10976953, 34079.727, 34079.727, 0.0019296512, 10.000612, 9.99916 
1.6953032e+3, 3.132726e+2, 260914.8, 276842.34, 14856.503, -0.12730066, 0.056275595, 285734.94, 285734.94, 0.0034048194, 10.001062, 10.001378 
1.704705e+3, 1.2324687e+2, -2026655.5, -1774564.8, 185862.7, -0.0022805184, 0.034174945, -1676038.6, 56153.61, 0.054460447, 9.997385, 10.000849 
1.7047341e+3, 1.3325036e+2, -1781297.1, -1388582.3, -126931.73, -0.08338465, 0.100751944, -1351128.0, 283023.5, 0.034638863, 9.997494, 10.00282 
1.7047657e+3, 1.4325097e+2, -1841474.9, -1645283.4, -75119.97, 0.12617365, -0.00587944, -1619824.4, -83682.72, 0.016903277, 9.997642, 10.00024 
1.7047958e+3, 1.5325177e+2, -1754778.5, -1611255.6, 2827.337, -0.07445882, 0.065162346, -1611200.0, -173064.28, 0.00538814, 9.9978285, 9.999698 
1.7048265e+3, 1.6325173e+2, -1560065.8, -1388548.6, 11193.925, -0.20146878, 0.07834229, -1387821.1, -47685.22, 0.0008082668, 9.998126, 10.00042 
1.7048602e+3, 1.7325144e+2, -1310526.4, -1167651.3, -59122.574, -0.02142652, -0.058123484, -1146359.1, 95775.68, 0.000020835996, 9.998967, 10.000853 
1.7048934e+3, 1.8325117e+2, -1291204.9, -1368503.5, -31183.709, 0.0931166, -0.05704878, -1280193.5, -136057.0, 0.0, 9.9995365, 9.998542 
1.7049253e+3, 1.9325072e+2, -1150806.3, -1275458.1, 48030.51, 0.0048722243, 0.038076747, -1134446.4, -88300.27, 0.0, 9.999948, 9.998301 
1.7049572e+3, 2.0324995e+2, -976434.6, -1015462.94, 58039.113, -0.037743933, 0.10030414, -934716.94, 13439.061, 0.0, 9.999929, 9.999414 
1.7049891e+3, 2.1324885e+2, -939762.7, -892920.1, -10901.458, 0.0062490865, -0.02263065, -890507.4, -40343.758, 0.0, 9.999293, 9.999882 
1.705021e+3, 2.23248e+2, -908294.2, -926880.7, -16605.201, 0.043897, -0.042574793, -898558.56, -146388.44, 0.0, 9.999242, 9.999019 
1.7050529e+3, 2.3324771e+2, -651876.7, -740749.0, -9495.936, 0.060475092, -0.008482773, -650873.4, 3300.8857, 0.0, 10.000298, 9.999102 
1.7050844e+3, 2.4324737e+2, -477857.03, -648530.56, -1290.3258, 0.06621107, 0.079807766, -477847.25, 78332.21, 0.0, 10.000977, 9.9987545 
1.7051156e+3, 2.5324693e+2, -381451.06, -528517.5, -40070.313, 0.043956812, 0.118123196, -371242.03, 86945.234, 0.0000000026261497, 10.000887, 9.998936 
1.705147e+3, 2.6324624e+2, -257275.63, -336650.84, -9163.282, 0.018082466, 0.140913, -256231.53, 103962.61, 0.0000021613648, 10.00069, 9.999687 
1.7051788e+3, 2.7324536e+2, -191261.17, -206466.02, -15792.982, -0.012766911, 0.015502893, -181336.05, 80859.86, 0.000036656253, 10.000288, 10.000091 
1.7052105e+3, 2.8324443e+2, -230713.67, -414889.94, -30900.299, -0.0066754986, 0.022065945, -225667.61, -61465.12, 0.00022921336, 10.000369, 9.997952 
1.7052417e+3, 2.9324287e+2, 11967.577, -258555.98, -38968.477, 0.020716716, 0.050623212, 17469.043, 83693.266, 0.0007930789, 10.001424, 9.997835 
1.7052719e+3, 3.032401e+2, 204009.67, -27667.527, 49449.203, -0.087927766, -0.030782761, 214122.67, 214122.67, 0.0018420495, 10.001924, 9.998845 
1.705305e+3, 3.1324074e+2, 256748.73, 277648.88, -58937.965, -0.019786099, 0.05782857, 327056.03, 327056.03, 0.0032654046, 10.001056, 10.001342 
1.7147037e+3, 1.23217545e+2, -2006236.3, -1746170.4, 76738.65, 0.055241928, 0.15185274, -1725215.4, 7261.726, 0.058051143, 9.997442, 10.001002 
1.7147289e+3, 1.3321792e+2, -1927289.4, -1674393.4, -102166.56, -0.38511533, 0.08572024, -1638277.3, -3801.8264, 0.037118543, 9.997459, 10.000811 
1.7147624e+3, 1.4322065e+2, -1780228.9, -1547867.3, -87893.7, -0.009370451, 0.29009837, -1518365.9, 18082.074, 0.018276531, 9.997754, 10.000862 
1.7147945e+3, 1.5321903e+2, -1668269.1, -1430937.8, 21913.416, -0.0065840147, -0.0014655795, -1428931.4, 9526.75, 0.005915651, 9.99782, 10.000942 
1.714827e+3, 1.6321814e+2, -1630103.1, -1541491.8, 20844.771, -0.022848483, -0.10099428, -1536833.3, -196368.66, 0.0009130136, 9.998167, 9.999346 
1.7148592e+3, 1.7321943e+2, -1428622.1, -1401199.9, -18722.19, -0.04665774, 0.070425324, -1391705.0, -149247.47, 0.000025810483, 9.998927, 9.999263 
1.7148918e+3, 1.8321997e+2, -1176137.4, -1131892.9, -28757.201, -0.059496775, 0.1812504, -1117733.3, 26720.21, 0.0, 9.999543, 10.000163 
1.7149253e+3, 1.9321896e+2, -997742.25, -940199.06, 75551.34, -0.02220262, -0.0049330806, -888126.3, 158329.7, 0.0, 9.999873, 10.000638 
1.7149577e+3, 2.0321804e+2, -1045489.94, -1126983.9, 28700.666, -0.015195627, -0.06617949, -1036396.7, -87935.69, 0.0, 9.999795, 9.998713 
1.7149879e+3, 2.1321753e+2, -1069604.8, -1106656.5, -23667.887, -0.053701296, -0.0020129827, -1058074.4, -207605.14, 0.0, 9.999055, 9.9985285 
1.7150193e+3, 2.2321661e+2, -935399.06, -919621.4, 729.2927, -0.0686329, 0.04247002, -919587.7, -167108.7, 0.0, 9.998961, 9.999208 
1.7150526e+3, 2.3321506e+2, -643868.75, -681674.8, 46312.863, -0.013407337, -0.09624639, -612749.75, 41740.793, 0.0, 10.000102, 9.999609 
1.7150849e+3, 2.4321403e+2, -546736.6, -718129.25, -12324.763, -0.009613252, -0.09607239, -545854.9, 10645.427, 0.0, 10.000673, 9.998415 
1.7151153e+3, 2.532139e+2, -460817.2, -632381.44, -27860.701, -0.103328675, 0.026690805, -456406.25, 2101.6667, 0.0000000000058928205, 10.000626, 9.998348 
1.7151462e+3, 2.6321334e+2, -296002.2, -351155.78, -36858.703, -0.1602583, 0.09869324, -277545.9, 82969.44, 0.0000014626683, 10.000413, 9.99972 
1.7151783e+3, 2.7321225e+2, -212291.89, -195582.08, -14763.819, -0.10939579, -0.06390943, -186973.06, 75546.05, 0.000032258973, 10.000054, 10.000278 
1.7152107e+3, 2.8321153e+2, -237039.02, -359956.9, -17248.078, -0.053986616, -0.07430519, -234664.61, -70141.28, 0.00021422842, 10.000075, 9.998472 
1.7152426e+3, 2.932112e+2, 20581.748, -180614.56, 27267.674, -0.046307594, 0.012167106, 24211.78, 90742.52, 0.0007459909, 10.001159, 9.998498 
1.7152736e+3, 3.032095e+2, 82777.07, -175262.58, 10458.886, -0.14060025, 0.030878246, 83200.29, 83200.29, 0.0017319232, 10.001501, 9.998027 
1.7153072e+3, 3.132076e+2, 99320.586, 90387.32, -45743.652, 0.0468585, -0.023405107, 140815.16, 140815.16, 0.0030783708, 10.00049, 10.000311 
1.7247017e+3, 1.231866e+2, -2096888.1, -1701939.9, 39664.22, 0.167851, 0.17547786, -1697995.9, 34782.465, 0.06177432, 9.996425, 10.0018 
1.7247266e+3, 1.3318528e+2, -2015035.1, -1848253.9, -77620.21, -0.34718892, 0.021361016, -1817719.6, -182924.16, 0.039721623, 9.99742, 9.999618 
1.7247601e+3, 1.4318848e+2, -1765520.8, -1517412.6, -9956.31, 0.007314335, 0.33491448, -1517013.8, 19751.139, 0.019743169, 9.997736, 10.001092 
1.7247929e+3, 1.5318704e+2, -1549783.8, -1292435.5, 23113.74, 0.02867879, -0.002481597, -1290376.0, 148394.89, 0.006494274, 9.998254, 10.001712 
1.7248257e+3, 1.6318652e+2, -1614073.5, -1571956.0, 58816.633, 0.045838263, -0.09662564, -1530541.8, -189768.58, 0.001032908, 9.998431, 9.999022 
1.7248583e+3, 1.7318748e+2, -1521938.3, -1506029.8, 69946.62, 0.0021387541, 0.09546827, -1443586.6, -200815.0, 0.00003215152, 9.998537, 9.998737 
1.7248912e+3, 1.8318783e+2, -1302329.1, -1161923.3, 89264.21, -0.006759916, 0.20227517, -1118563.3, 26207.348, 0.0, 9.998551, 10.000431 
1.724925e+3, 1.9318715e+2, -1112690.8, -944050.1, 25656.715, 0.029133772, 0.0076680533, -940233.1, 106534.73, 0.0, 9.998871, 10.001089 
1.7249577e+3, 2.0318642e+2, -1141100.8, -1192318.0, -78383.99, 0.047405645, -0.05409632, -1084248.1, -135477.7, 0.0, 9.999216, 9.998556 
1.724988e+3, 2.131856e+2, -967721.25, -1090814.4, -80296.87, 0.024755144, 0.013046045, -928096.8, -77313.664, 0.0, 9.999887, 9.998248 
1.7250195e+3, 2.2318448e+2, -754503.5, -829273.25, 28205.88, 0.013024678, 0.0539326, -745056.75, 7738.9653, 0.0, 10.0002165, 9.999208 
1.7250527e+3, 2.33183e+2, -655598.56, -679827.1, 9580.5, 0.010288487, -0.08103945, -652268.06, 2537.3938, 0.0, 10.000021, 9.999645 
1.725085e+3, 2.4318188e+2, -662425.4, -758898.44, -48565.86, -0.011538053, -0.09564828, -642211.9, -85397.24, 0.0, 9.999796, 9.998555 
1.7251152e+3, 2.5318158e+2, -616854.0, -682710.94, -39994.613, -0.09648729, -0.012337618, -597976.56, -139154.34, 0.0000000000049057277, 9.999441, 9.998566 
1.7251462e+3, 2.6318094e+2, -467748.16, -485562.6, 14198.496, -0.13608244, 0.05629319, -459894.22, -99063.75, 0.0000011502509, 9.999472, 9.999239 
1.7251788e+3, 2.7317968e+2, -228594.61, -278898.8, -53145.617, -0.057981342, -0.05625524, -194949.73, 67889.95, 0.000029351942, 10.000271, 9.9995985 
1.7252117e+3, 2.8317887e+2, -124273.53, -264874.75, -57994.902, 0.017621592, -0.04663732, -103439.16, 61406.7, 0.00020332959, 10.000691, 9.998819 
1.7252438e+3, 2.9317877e+2, -49175.13, -151785.25, -73041.06, 0.004423233, 0.013941927, -11220.981, 55626.36, 0.0007056686, 10.000441, 9.999026 
1.7252749e+3, 3.0317754e+2, -32423.764, -265519.47, -45490.223, -0.09419131, 0.05507742, -23860.617, -23860.617, 0.0016348903, 10.000804, 9.997777 
1.7253096e+3, 3.1317422e+2, 281489.94, 76887.414, -119091.05, 0.17417295, -0.082081966, 336186.22, 336186.22, 0.0029115556, 10.002087, 9.99951 
1.7346962e+3, 1.2315327e+2, -1995034.8, -1510650.9, 45766.18, -0.09274392, 0.026785035, -1506364.6, 226738.92, 0.06561491, 9.996464, 10.003178 
1.7347269e+3, 1.3315241e+2, -2038693.0, -1893797.9, -55294.5, -0.087620944, -0.09940133, -1875107.5, -239995.44, 0.042436883, 9.997399, 9.999319 
1.7347586e+3, 1.4315385e+2, -1768923.5, -1536559.0, -14054.272, 0.043347415, 0.07578339, -1535712.0, 1385.9574, 0.021297567, 9.997794, 10.000922 
1.7347899e+3, 1.5315591e+2, -1535059.6, -1263574.3, 51467.53, -0.10976252, 0.070915855, -1254144.6, 184928.69, 0.0071235094, 9.998265, 10.001901 
1.7348224e+3, 1.6315718e+2, -1556447.4, -1484205.9, 48172.2, -0.16743554, 0.12115795, -1460116.4, -119057.59, 0.0011691477, 9.998551, 9.999571 
1.7348571e+3, 1.7315568e+2, -1481270.5, -1428585.9, 84140.19, 0.014695259, 0.011803595, -1366760.9, -123684.87, 0.00004011834, 9.998552, 9.999268 
1.7348914e+3, 1.8315466e+2, -1385166.5, -1332740.4, 82553.74, 0.11424357, 0.00027067057, -1272337.9, -127250.195, 0.0, 9.998551, 9.999254 
1.7349242e+3, 1.9315514e+2, -1245163.5, -1183446.4, 46189.39, 0.03951231, 0.06972848, -1158755.8, -111672.85, 0.0, 9.99872, 9.9995165 
1.7349568e+3, 2.0315494e+2, -1138118.6, -1148589.1, -70763.09, 0.0128638595, 0.13750663, -1072397.4, -123311.98, 0.0, 9.999051, 9.998935 
1.734989e+3, 2.1315318e+2, -936194.0, -988182.7, -42395.73, 0.11260716, 0.03170755, -912458.06, -61353.645, 0.0, 9.9997225, 9.99903 
1.7350212e+3, 2.2315176e+2, -810988.94, -889808.3, 11796.568, 0.13056241, 0.007932693, -809261.3, -56142.43, 0.0, 9.999973, 9.998909 
1.7350529e+3, 2.3315124e+2, -720683.44, -768952.9, 16729.604, 0.006312255, 0.015835352, -715452.1, -60330.418, 0.0, 9.999812, 9.999136 
1.7350844e+3, 2.4315064e+2, -657778.6, -678495.56, -71773.56, -0.07696493, 0.05440291, -595619.94, -38494.48, 0.0, 9.999505, 9.999245 
1.735115e+3, 2.5314993e+2, -581057.56, -553672.3, -35374.254, -0.07113926, 0.0025603115, -529433.06, -70302.78, 0.000000000000012544113, 9.999216, 9.999558 
1.7351466e+3, 2.6314893e+2, -580741.7, -655655.5, 24056.219, -0.06148734, 0.015947558, -573682.06, -212541.77, 0.0000010511417, 9.999197, 9.998201 
1.7351799e+3, 2.7314758e+2, -364952.16, -508799.72, -1201.7549, -0.0038186435, 0.035175312, -364942.13, -101784.195, 0.000029114979, 10.000052, 9.9981165 
1.735213e+3, 2.8314635e+2, -168437.08, -301480.28, -78967.52, 0.050106447, 0.09763329, -131706.6, 33464.676, 0.00019954766, 10.000448, 9.998689 
1.7352447e+3, 2.9314524e+2, -74025.53, -144053.84, -60125.168, 0.017756626, 0.033860344, -39462.2, 27715.129, 0.00068418466, 10.000186, 9.999204 
1.7352757e+3, 3.0314386e+2, -78399.35, -263546.47, -28667.898, -0.13291615, 0.04496304, -74062.06, -74062.06, 0.0015843388, 10.000414, 9.997961 
1.735311e+3, 3.1313977e+2, 163336.66, -2580.4048, -15607.939, 0.057918336, -0.20510325, 164792.14, 164792.14, 0.002832177, 10.001425, 9.999251 
1.7446935e+3, 1.23121426e+2, -1777026.9, -1391508.0, 129438.0, -0.06196125, 0.05642749, -1352081.3, 381333.3, 0.06957688, 9.997909, 10.003372 
1.7447256e+3, 1.3311961e+2, -1966314.8, -1895795.1, -124433.305, 0.024062773, -0.123720445, -1801722.4, -166291.66, 0.045260757, 9.998076, 9.9989805 
1.7447564e+3, 1.431196e+2, -1734152.3, -1581085.6, -47796.176, 0.036127128, -0.051242363, -1567386.9, -29955.643, 0.022935338, 9.998312, 10.000351 
1.7447884e+3, 1.5312257e+2, -1591203.8, -1360915.3, -87944.305, -0.0716493, 0.09378694, -1331172.0, 108229.875, 0.0078018596, 9.9982, 10.001238 
1.7448212e+3, 1.6312407e+2, -1574547.8, -1440747.3, -96090.77, -0.103436954, 0.18697187, -1390561.8, -49175.42, 0.0013223152, 9.998215, 10.000033 
1.7448564e+3, 1.731222e+2, -1326635.1, -1271719.8, -75739.67, 0.065735586, -0.026298488, -1218614.3, 24788.566, 0.000049909977, 9.999272, 10.0 
1.7448908e+3, 1.831211e+2, -1227663.5, -1278451.8, -34615.266, 0.16047044, -0.0781591, -1210126.5, -64713.125, 0.0000000000000006446772, 9.999716, 9.999062 
1.7449231e+3, 1.931219e+2, -1213614.5, -1211195.6, -15947.752, 0.059933677, 0.05897651, -1196411.5, -149002.44, 0.0, 9.999113, 9.999126 
1.7449556e+3, 2.0312203e+2, -1157578.1, -1121707.5, -29051.178, 0.028899405, 0.17050456, -1105501.3, -156090.84, 0.0, 9.998756, 9.999262 
1.7449887e+3, 2.131208e+2, -971373.5, -945913.25, -47023.68, 0.14215085, 0.06936694, -909927.0, -58503.594, 0.0, 9.999231, 9.999556 
1.7450212e+3, 2.2311975e+2, -838848.5, -896703.94, 17307.465, 0.17105742, 0.04813624, -834066.3, -80632.19, 0.0, 9.999728, 9.998996 
1.7450528e+3, 2.3311935e+2, -666232.6, -742492.8, 33159.438, 0.016148664, 0.06971093, -653831.0, 1605.9012, 0.0, 10.000177, 9.999149 
1.7450845e+3, 2.4311884e+2, -495764.06, -560003.06, -29546.793, -0.054481562, 0.100842506, -484240.97, 73198.3, 0.0, 10.000471, 9.999584 
1.7451157e+3, 2.5311795e+2, -370478.22, -408115.22, -73107.07, 0.02660144, -0.005877324, -313806.47, 145635.77, 0.0, 10.0005, 9.999931 
1.7451477e+3, 2.6311663e+2, -389986.34, -623057.2, 29293.455, 0.066448994, -0.022251196, -386361.0, -24907.49, 0.0000010008785, 10.000743, 9.997686 
1.7451806e+3, 2.7311477e+2, -208728.73, -517047.9, 30572.326, 0.015573623, 0.018740796, -205726.48, 57752.49, 0.000030147008, 10.001461, 9.997386 
1.745214e+3, 2.8311312e+2, 52763.09, -232370.55, -7942.2573, 0.041654088, 0.097294964, 52984.15, 218481.92, 0.00019898178, 10.002113, 9.998366 
1.745247e+3, 2.9311165e+2, 226163.22, -44022.93, -70989.266, 0.13528903, 0.027128639, 243679.5, 311185.88, 0.00068108423, 10.0023985, 9.998846 
1.7452782e+3, 3.031099e+2, 173587.53, -149626.94, -19950.396, 0.014465432, 0.024080766, 174814.31, 174814.31, 0.0015908242, 10.002164, 9.997914 
1.7453128e+3, 3.131065e+2, 131585.23, -72763.8, -99569.03, 0.106092334, -0.14978841, 172076.84, 172076.84, 0.0028696053, 10.001421, 9.998775 
1.754693e+3, 1.23090155e+2, -1848867.9, -1553790.9, 161449.53, 0.026480354, 0.18198586, -1482620.5, 251099.7, 0.07366958, 9.998, 10.002154 
1.7547217e+3, 1.330869e+2, -1994133.5, -1953326.5, -100828.59, -0.20178927, -0.05903186, -1870857.8, -235105.86, 0.048192136, 9.998077, 9.998583 
1.754753e+3, 1.4308646e+2, -1782640.9, -1711245.1, -61545.715, -0.18948022, 0.012961501, -1675793.8, -138035.19, 0.024652572, 9.998429, 9.999411 
1.7547882e+3, 1.5308695e+2, -1700629.8, -1594757.3, -86606.01, 0.038488764, 0.067815624, -1546190.5, -106432.93, 0.008527423, 9.99822, 9.999629 
1.754822e+3, 1.630867e+2, -1548458.3, -1393411.3, -93019.81, 0.11215414, 0.07350545, -1349845.6, -8084.711, 0.0014925194, 9.998252, 10.000339 
1.7548557e+3, 1.7308675e+2, -1272374.6, -1145563.9, -25444.871, 0.039274476, -0.028483603, -1140648.9, 103105.93, 0.00006156021, 9.999224, 10.000885 
1.7548892e+3, 1.8308713e+2, -1162643.3, -1148262.5, -62260.484, -0.00867706, -0.023710763, -1092778.5, 52969.14, 0.0000000010737394, 9.999736, 9.999945 
1.7549217e+3, 1.9308749e+2, -1166567.3, -1097966.1, -31169.342, -0.03262955, -0.014916673, -1085919.6, -38173.94, 0.0, 9.9990425, 9.999938 
1.754954e+3, 2.0308775e+2, -1161006.5, -1096974.8, -34983.137, -0.046171177, 0.052540515, -1081568.8, -131823.83, 0.0, 9.998619, 9.9994955 
1.7549866e+3, 2.1308821e+2, -988950.3, -939124.5, -17113.623, 0.002782551, 0.10297945, -933812.75, -82070.03, 0.0, 9.99904, 9.999696 
1.7550196e+3, 2.2308822e+2, -843315.7, -847699.3, 20895.682, 0.0050219344, 0.16288039, -824497.2, -70753.6, 0.0, 9.99948, 9.999451 
1.7550522e+3, 2.3308742e+2, -659662.3, -684055.44, 65184.44, -0.08692656, 0.089331836, -605543.2, 50206.984, 0.0, 9.999977, 9.99965 
1.7550845e+3, 2.430865e+2, -546108.3, -602089.3, -35525.516, -0.10753256, 0.056361355, -528871.3, 28884.64, 0.0, 10.000199, 9.999427 
1.7551169e+3, 2.5308543e+2, -417642.38, -464012.94, -57418.727, 0.060264993, -0.04093474, -378904.6, 80854.945, 0.0, 10.000314, 9.999638 
1.755149e+3, 2.6308373e+2, -430263.56, -662853.8, 33945.563, 0.10172482, -0.0714877, -425410.6, -63637.1, 0.00000094846536, 10.000546, 9.997513 
1.7551811e+3, 2.730812e+2, -246884.08, -539334.0, 75903.61, -0.12207593, -0.0907264, -228357.42, 35446.098, 0.000030605133, 10.001222, 9.997345 
1.7552145e+3, 2.8307933e+2, -31346.947, -337922.38, -7356.201, -0.15571883, -0.021024156, -31170.537, 134654.58, 0.0002004244, 10.001816, 9.997785 
1.75525e+3, 2.9307806e+2, 126911.94, -177106.67, -41148.08, 0.17680568, 0.0019029081, 132382.77, 200217.47, 0.00069697236, 10.002093, 9.998073 
1.7552818e+3, 3.0307585e+2, 71851.445, -271617.2, -66463.055, 0.13568892, 0.025433447, 84263.84, 84263.84, 0.0016493566, 10.001782, 9.997254 
1.755314e+3, 3.1307444e+2, -39147.125, -269612.9, -57366.125, 0.046658643, 0.09084962, -25657.48, -25657.48, 0.0029987826, 10.000774, 9.997714 
1.7646906e+3, 1.2305583e+2, -2016772.9, -1644719.4, 111641.266, 0.06415398, 0.122543335, -1613790.5, 120268.44, 0.07790593, 9.996866, 10.0020275 
1.7647201e+3, 1.3305435e+2, -2020134.5, -1963064.8, -104301.47, -0.13648379, 0.058902245, -1883465.3, -247392.36, 0.05123237, 9.997856, 9.998624 
1.7647512e+3, 1.4305305e+2, -1749468.5, -1726274.9, -26405.967, -0.2223607, 0.048254333, -1709031.4, -170943.28, 0.026445003, 9.998785, 9.999144 
1.7647874e+3, 1.5305285e+2, -1563108.1, -1572138.1, -2536.0186, 0.11408012, 0.07485803, -1562444.6, -122349.86, 0.009296644, 9.999369, 9.999231 
1.7648217e+3, 1.6305244e+2, -1376897.8, -1304963.9, 71398.83, 0.22562182, 0.0859104, -1260984.5, 81115.336, 0.0016790463, 9.999409, 10.000377 
1.7648543e+3, 1.7305309e+2, -1362955.3, -1178739.8, 54909.004, 0.04233987, 0.025756182, -1163614.9, 80472.72, 0.000074904594, 9.998541, 10.000983 
1.7648876e+3, 1.8305372e+2, -1383978.9, -1213398.4, -2935.305, -0.04576503, 0.03376703, -1213347.9, -67270.67, 0.000000009428086, 9.998053, 10.000311 
1.764921e+3, 1.9305384e+2, -1132415.8, -1029744.75, -33987.434, 0.0012131939, -0.019163227, -1019513.4, 28562.623, 0.0, 9.999079, 10.000393 
1.7649537e+3, 2.0305407e+2, -978567.25, -981451.56, -32509.773, 0.02378913, 0.009069317, -947467.7, 2606.7854, 0.0, 9.999756, 9.999742 
1.7649859e+3, 2.1305493e+2, -892768.8, -870696.0, -35621.184, 0.0049346657, 0.083265185, -844440.7, 7627.01, 0.0, 9.999614, 9.999887 
1.7650186e+3, 2.2305529e+2, -840446.7, -811775.06, 22635.807, -0.013917662, 0.15265073, -799317.3, -45252.313, 0.0, 9.999362, 9.999746 
1.765052e+3, 2.3305461e+2, -755866.0, -690168.25, 17138.613, -0.05184272, 0.062776655, -685966.06, -29895.648, 0.0, 9.999162, 9.99999 
1.765085e+3, 2.430538e+2, -653533.5, -679704.56, -50409.344, -0.04147494, 0.028091773, -614538.94, -56463.21, 0.0, 9.999534, 9.999236 
1.7651173e+3, 2.5305277e+2, -347008.66, -469557.53, -89029.945, 0.066792525, -0.03271558, -300204.94, 159875.0, 0.0, 10.000933, 9.999322 
1.76515e+3, 2.6305106e+2, -243236.83, -551945.2, 22942.37, 0.099839754, -0.051712293, -241541.13, 120552.695, 0.0000007067664, 10.001769, 9.997673 
1.7651829e+3, 2.7304828e+2, -196699.25, -489315.28, 43818.863, -0.04005657, -0.117021784, -190278.33, 73845.97, 0.000029110019, 10.001473, 9.9975605 
1.7652169e+3, 2.8304625e+2, -110000.664, -413957.63, 15940.336, -0.04951903, -0.057592265, -109167.0, 56979.97, 0.00020337792, 10.001442, 9.997446 
1.7652519e+3, 2.9304513e+2, 94226.11, -254305.14, -47874.547, 0.17526709, 0.03740079, 100682.59, 168841.28, 0.00072556926, 10.002138, 9.997523 
1.7652832e+3, 3.0304238e+2, 170552.45, -176630.0, -42932.07, 0.091110915, 0.025122251, 175782.58, 175782.58, 0.0017283146, 10.002243, 9.997683 
1.7653158e+3, 3.1304148e+2, 4915.868, -185691.42, -19346.967, 0.16488622, 0.0869723, 6859.793, 6859.793, 0.003137363, 10.000758, 9.998319 
1.774686e+3, 1.2302064e+2, -1932230.9, -1509769.6, -34153.01, -0.14300206, 0.08187995, -1507026.4, 227383.16, 0.08231803, 9.996963, 10.002995 
1.7747211e+3, 1.3302243e+2, -1983204.5, -1886464.4, -40909.055, 0.1576653, 0.2607575, -1871484.5, -235094.66, 0.054393712, 9.997847, 9.999155 
1.7747505e+3, 1.43019e+2, -1711291.3, -1661208.3, -20905.89, -0.21437708, 0.007606375, -1653628.8, -115204.97, 0.02831169, 9.998841, 9.999564 
1.774786e+3, 1.5302043e+2, -1493317.3, -1435450.0, 33933.855, 0.011657711, 0.11017638, -1419789.3, 20622.314, 0.010105246, 9.999395, 10.000158 
1.7748202e+3, 1.6302168e+2, -1386799.5, -1338946.8, 34943.383, 0.08254719, 0.23535357, -1320523.3, 21876.322, 0.0018804772, 9.999466, 10.000116 
1.7748523e+3, 1.730214e+2, -1417261.3, -1280311.4, 32648.283, -0.0445484, 0.14881128, -1272926.4, -28527.34, 0.00008970714, 9.998497, 10.000305 
1.7748854e+3, 1.8302101e+2, -1398915.5, -1247959.0, 7142.831, -0.09097677, 0.10472495, -1247621.8, -101221.23, 0.000000028818846, 9.998062, 10.000071 
1.7749205e+3, 1.9302087e+2, -1148534.0, -1048101.6, 20272.021, 0.04247447, 0.03533267, -1044164.2, 4236.9634, 0.0, 9.999006, 10.000305 
1.7749545e+3, 2.0302084e+2, -985361.2, -960169.75, -42438.055, 0.10444279, 0.033922028, -928497.6, 21902.83, 0.0, 9.999614, 9.9999485 
1.774986e+3, 2.1302094e+2, -908698.6, -854152.7, -31088.604, 0.03461705, 0.005201776, -840069.7, 12329.017, 0.0, 9.999408, 10.0000925 
1.7750181e+3, 2.2302091e+2, -873321.3, -829722.0, 2578.2695, -0.017863613, 0.024095958, -829570.06, -75171.56, 0.0, 9.999134, 9.999736 
1.775052e+3, 2.3302075e+2, -778305.25, -705653.9, 23920.09, 0.006811127, -0.016719934, -698485.56, -42085.88, 0.0, 9.999009, 9.999964 
1.7750852e+3, 2.4302042e+2, -704620.8, -722792.7, -23037.95, 0.009562626, 0.0052514267, -688941.8, -130540.17, 0.0, 9.999274, 9.99906 
1.7751172e+3, 2.530199e+2, -396227.97, -518694.3, -20580.402, -0.056189217, 0.01644246, -392861.97, 67541.38, 0.0, 10.000715, 9.999084 
1.7751504e+3, 2.6301858e+2, -263828.78, -530142.94, 11859.117, -0.05959723, 0.037768014, -263301.72, 99112.52, 0.00000032366296, 10.001496, 9.997953 
1.7751862e+3, 2.7301592e+2, -210208.95, -448363.38, 49524.715, 0.10878053, -0.053282943, -200320.75, 64120.707, 0.00002512301, 10.0012, 9.997963 
1.775221e+3, 2.8301388e+2, -177762.16, -491218.88, 14266.844, 0.18000886, 0.0018375488, -177114.14, -10650.484, 0.00020098852, 10.001161, 9.997055 
1.7752524e+3, 2.930128e+2, 18642.553, -342924.3, 353.43646, -0.0060027125, 0.13423803, 18642.896, 87121.97, 0.0007424846, 10.001843, 9.997055 
1.7752822e+3, 3.0300948e+2, 196654.77, -23598.518, -95862.88, -0.26432696, 0.045068655, 232533.5, 232533.5, 0.0017696349, 10.001829, 9.99893 
1.7753173e+3, 3.1300938e+2, 61904.387, 101005.91, -1767.0916, 0.18904695, 0.017218497, 101085.61, 101085.61, 0.0031804799, 10.000098, 10.000579 
1.784683e+3, 1.229864e+2, -1910198.3, -1498113.8, 3817.2896, -0.14082956, 0.10298423, -1498078.4, 236668.86, 0.08696164, 9.997149, 10.002971 
1.7847218e+3, 1.3298981e+2, -1831076.6, -1755629.4, -12210.379, 0.40951306, 0.39768544, -1753702.5, -116991.9, 0.057701517, 9.9987, 9.9996195 
1.7847492e+3, 1.4298464e+2, -1680198.5, -1605961.9, 9102.214, -0.2178137, -0.06857345, -1604862.1, -66101.734, 0.030258754, 9.998892, 9.999916 
1.7847845e+3, 1.529871e+2, -1602747.9, -1446860.4, -10554.902, -0.02919838, 0.09643734, -1446149.0, -5411.8833, 0.0109521225, 9.998461, 10.000532 
1.7848186e+3, 1.6298911e+2, -1577609.6, -1457565.5, -13574.119, 0.049297243, 0.284823, -1456049.6, -113332.38, 0.0020959692, 9.998267, 9.99988 
1.7848513e+3, 1.729881e+2, -1361867.8, -1291605.5, -32252.389, -0.0051672603, 0.16034083, -1279045.9, -34320.094, 0.000105867584, 9.999057, 9.999949 
1.7848848e+3, 1.8298724e+2, -1225228.6, -1163438.6, -69.58451, -0.00093353883, 0.09355469, -1163438.6, -16705.756, 0.0000000562377, 9.999247, 10.000087 
1.7849195e+3, 1.9298764e+2, -1216571.5, -1063957.6, 9802.557, 0.083903104, 0.06425303, -1063330.6, -14603.025, 0.0, 9.998451, 10.000466 
1.7849535e+3, 2.0298785e+2, -1185314.9, -1041674.94, -9964.828, 0.12506449, 0.07049472, -1040986.94, -90263.25, 0.0, 9.99817, 10.0000925 
1.7849857e+3, 2.1298744e+2, -904547.25, -834690.44, -30495.492, 0.071584135, -0.024794206, -823251.06, 29474.264, 0.0, 9.999355, 10.000259 
1.7850183e+3, 2.2298712e+2, -735162.56, -791248.4, 5599.198, 0.04429302, -0.030676365, -734609.0, 20118.107, 0.0, 10.000213, 9.999484 
1.7850523e+3, 2.3298733e+2, -611523.7, -667896.0, -32024.23, 0.08289622, 0.0046135243, -597048.25, 59678.31, 0.0, 10.000348, 9.999582 
1.7850855e+3, 2.4298705e+2, -544135.75, -651978.3, -45470.402, 0.078178406, 0.059745792, -527522.94, 31206.613, 0.0, 10.000424, 9.998978 
1.7851177e+3, 2.529859e+2, -423399.8, -533860.3, -54439.8, -0.060520716, 0.007850223, -401079.63, 59658.73, 0.0, 10.000557, 9.9990425 
1.7851512e+3, 2.6298442e+2, -343036.38, -549329.06, -13071.989, -0.07702263, 0.0120840175, -342211.34, 20539.355, 0.00000018370703, 10.00084, 9.998156 
1.7851879e+3, 2.7298254e+2, -154175.63, -409350.72, -17111.426, 0.15846224, -0.021841012, -153033.28, 111736.63, 0.000020759246, 10.001469, 9.998137 
1.7852232e+3, 2.829809e+2, -82233.99, -384067.78, -1694.9933, 0.27874368, 0.04181516, -82224.48, 84563.06, 0.0001926232, 10.001578, 9.997575 
1.7852546e+3, 2.929797e+2, -101029.7, -337241.16, 8498.799, 0.098624215, 0.11163369, -100724.31, -31921.65, 0.00073848246, 10.000761, 9.997605 
1.785284e+3, 3.0297637e+2, 42099.367, -83616.29, -39396.473, -0.18741404, -0.017250925, 53425.02, 53425.02, 0.0017537118, 10.000709, 9.999054 
1.7853178e+3, 3.1297603e+2, 350984.7, 249221.16, -133590.92, 0.15534715, -0.05170927, 443055.7, 443055.7, 0.0030983181, 10.002021, 10.000695 
1.7946805e+3, 1.22951336e+2, -1980737.6, -1664533.4, 23236.338, -0.17536502, -0.02829491, -1662834.9, 72253.63, 0.09190124, 9.997286, 10.001671 
1.7947212e+3, 1.3295637e+2, -1788733.8, -1697021.4, 31883.63, 0.4378324, 0.440434, -1687026.3, -49990.29, 0.06119029, 9.998796, 9.999992 
1.7947467e+3, 1.4295012e+2, -1666833.1, -1587169.6, -24698.436, -0.3905418, -0.17371747, -1580133.8, -41037.22, 0.03230053, 9.9989395, 10.000018 
1.7947823e+3, 1.5295283e+2, -1629755.6, -1488454.6, -17632.543, -0.12032522, 0.03953558, -1486287.6, -45216.69, 0.011841973, 9.998408, 10.000266 
1.7948167e+3, 1.6295458e+2, -1586779.5, -1487895.4, -10944.395, -0.0073817647, 0.23261118, -1486698.6, -143644.34, 0.0023264778, 9.998302, 9.9996605 
1.7948513e+3, 1.7295295e+2, -1363339.3, -1301640.1, 7586.8345, 0.056125302, 0.055202655, -1300720.9, -55651.09, 0.00012352158, 9.999074, 9.999881 
1.7948852e+3, 1.8295228e+2, -1195244.8, -1111951.5, -36387.063, 0.08816915, -0.005030921, -1098294.8, 48780.73, 0.000000085167756, 9.999297, 10.000413 
1.7949174e+3, 1.9295415e+2, -1207100.3, -1020657.44, -15086.307, 0.0030865925, 0.07419939, -1019444.56, 29611.178, 0.0, 9.998351, 10.000812 
1.79495e+3, 2.029552e+2, -1197010.8, -1033379.6, 4223.156, -0.059038922, 0.13970965, -1033270.7, -82227.43, 0.0, 9.998021, 10.000225 
1.7949843e+3, 2.1295448e+2, -921331.44, -833478.4, 27958.072, -0.0006194871, 0.0052914484, -825335.8, 27711.129, 0.0, 9.999187, 10.000356 
1.7950186e+3, 2.2295392e+2, -814964.44, -898982.2, 4764.8975, 0.04556824, -0.007065146, -814695.06, -59643.695, 0.0, 9.999965, 9.998864 
1.7950524e+3, 2.3295419e+2, -702142.2, -800622.94, -12906.234, 0.06478574, 0.11077389, -700478.9, -43426.008, 0.0, 10.0001135, 9.99878 
1.7950858e+3, 2.4295351e+2, -593216.5, -687645.7, -50914.723, 0.03286757, 0.17702825, -570993.9, -11932.602, 0.0, 10.000139, 9.998871 
1.7951183e+3, 2.5295076e+2, -451020.84, -535750.1, -34080.375, -0.069717675, -0.040179066, -439014.22, 22070.234, 0.0, 10.000327, 9.999136 
1.7951521e+3, 2.6294857e+2, -378090.47, -559985.4, -4735.9873, -0.096647486, -0.11468756, -377967.22, -14863.783, 0.00000013255313, 10.000571, 9.998214 
1.7951879e+3, 2.7294815e+2, -183777.33, -405516.03, 24091.957, -0.0038117291, -0.01772399, -181189.92, 83919.23, 0.0000188634, 10.001206, 9.99828 
1.7952232e+3, 2.8294748e+2, -46158.555, -241423.9, -38521.188, 0.110453784, 0.08859357, -38833.996, 128281.96, 0.00018772867, 10.001278, 9.998705 
1.7952576e+3, 2.929461e+2, -47527.008, -143996.45, 3364.2898, 0.29862723, 0.0011713166, -47409.824, 21717.834, 0.0007307819, 10.0004225, 9.999087 
1.7952879e+3, 3.0294305e+2, -107777.42, -308032.28, -24889.973, 0.09865345, -0.13149749, -104730.18, -104730.18, 0.0017125614, 10.000319, 9.997711 
1.7953165e+3, 3.129418e+2, 172093.63, 10544.485, -9230.706, -0.22916077, -0.08863, 172619.34, 172619.34, 0.0029538858, 10.001487, 9.999285 
1.8046792e+3, 1.2291759e+2, -1802403.6, -1622417.5, 77220.984, -0.09149841, -0.095526956, -1593828.0, 141589.7, 0.097200245, 9.998723, 10.001306 
1.8047199e+3, 1.329239e+2, -1840121.5, -1717942.5, 80867.44, 0.4637896, 0.5093661, -1677683.8, -40330.855, 0.06490086, 9.998436, 10.000024 
1.8047449e+3, 1.4291626e+2, -1794613.0, -1650899.4, 13061.133, -0.4051676, -0.24976394, -1649722.0, -110295.09, 0.034457777, 9.998057, 10.000006 
1.8047811e+3, 1.529192e+2, -1646924.8, -1495181.1, 4429.022, -0.05465846, -0.015403937, -1495052.0, -53653.633, 0.0127833225, 9.998284, 10.000273 
1.8048157e+3, 1.6292097e+2, -1580331.1, -1500377.0, 84654.336, 0.07708327, 0.18220909, -1446735.0, -103353.46, 0.0025744103, 9.998423, 9.999519 
1.8048504e+3, 1.7291932e+2, -1431059.0, -1348756.9, 75617.29, 0.10310986, 0.019285545, -1303818.5, -58420.438, 0.00014305822, 9.998683, 9.99974 
1.8048847e+3, 1.829186e+2, -1280300.6, -1190118.5, 6643.958, 0.1310855, -0.025614297, -1189631.6, -42226.336, 0.00000010953618, 9.998861, 10.000089 
1.8049163e+3, 1.9292015e+2, -1107556.1, -1011080.25, -59486.34, 0.027248617, 0.057966832, -982731.44, 66657.766, 0.0, 9.999202, 10.0004635 
1.8049487e+3, 2.0292105e+2, -982730.0, -945589.8, -17023.273, -0.054716934, 0.1345697, -938967.9, 12410.921, 0.0, 9.999559, 10.000094 
1.8049835e+3, 2.1292056e+2, -800109.3, -781145.06, -24687.61, -0.03257764, 0.033369947, -764181.25, 89198.98, 0.0, 10.000056, 10.000295 
1.8050183e+3, 2.2292002e+2, -781628.4, -866801.25, -45811.473, 0.016626222, 0.01942244, -761666.5, -6282.3916, 0.0, 10.00014, 9.998985 
1.8050523e+3, 2.329197e+2, -771810.94, -817699.25, -31201.707, 0.0827689, 0.06701762, -756025.5, -98635.64, 0.0, 9.999575, 9.998911 
1.805086e+3, 2.4291891e+2, -669083.4, -707648.2, 30244.932, 0.092770286, 0.10901233, -652497.0, -93098.56, 0.0, 9.999523, 9.999054 
1.8051192e+3, 2.5291702e+2, -409543.34, -502718.7, 34227.074, -0.002897917, -0.034173477, -398321.8, 63092.47, 0.0, 10.000524, 9.999299 
1.8051535e+3, 2.6291537e+2, -266578.56, -466814.88, 90885.336, -0.037304938, -0.079440475, -231479.14, 131949.34, 0.00000007008213, 10.001179, 9.99855 
1.8051888e+3, 2.729146e+2, -177609.38, -371107.2, 95356.56, -0.00934538, -0.046903145, -138515.63, 126920.76, 0.000018211349, 10.001106, 9.998569 
1.805224e+3, 2.829138e+2, -66152.82, -215024.81, 30486.207, 0.08882547, 0.018269071, -60151.72, 107291.555, 0.00018396281, 10.000973, 9.999032 
1.8052587e+3, 2.92913e+2, 74488.83, -58464.813, -49703.16, 0.34419563, -0.03727385, 91015.45, 160464.61, 0.0007176876, 10.00112, 9.99935 
1.80529e+3, 3.0291083e+2, 68206.22, -273312.75, -13066.683, 0.24353744, -0.08347761, 68705.43, 68705.43, 0.0016605181, 10.00177, 9.997233 
1.80532e+3, 3.1290916e+2, 322704.75, -11797.626, 12223.653, -0.084727794, 0.005638504, 323150.84, 323150.84, 0.0028147476, 10.002841, 9.998523 
1.8146774e+3, 1.2288509e+2, -1740451.9, -1542608.6, -96227.17, -0.19566903, -0.112888806, -1503526.0, 232209.48, 0.10291468, 9.998891, 10.001845 
1.8147174e+3, 1.3289249e+2, -1867223.9, -1767739.8, 79388.86, 0.34265223, 0.6103424, -1723796.9, -86136.09, 0.06887483, 9.998409, 9.999694 
1.8147434e+3, 1.4288303e+2, -1787089.3, -1637638.8, -4795.5713, -0.40129822, -0.30804315, -1637485.0, -97732.68, 0.036753505, 9.998061, 10.000099 
1.8147808e+3, 1.5288617e+2, -1618864.1, -1443792.9, 28899.434, 0.05021382, -0.0824452, -1439145.8, 2574.1206, 0.01378539, 9.998303, 10.000624 
1.8148153e+3, 1.6288832e+2, -1574909.5, -1504814.9, 78055.04, 0.15254185, 0.13208377, -1454299.9, -110601.875, 0.002842686, 9.99849, 9.999454 
1.8148486e+3, 1.7288731e+2, -1457105.9, -1398648.8, 96838.61, 0.030739715, 0.058936678, -1326723.9, -81014.445, 0.00016504708, 9.998655, 9.999413 
1.8148826e+3, 1.828863e+2, -1346224.5, -1327428.8, 4492.8643, -0.0010252559, 0.04459315, -1326410.0, -178689.31, 0.00000012908751, 9.998859, 9.999148 
1.8149158e+3, 1.9288574e+2, -1187331.1, -1167932.0, -35496.434, 0.044925533, 0.020564327, -1140833.8, -91106.25, 0.0, 9.999159, 9.999411 
1.814949e+3, 2.0288539e+2, -1034385.9, -1020514.56, -13075.175, 0.011427891, 0.05258027, -1012649.44, -60918.64, 0.0, 9.999426, 9.999641 
1.8149827e+3, 2.1288556e+2, -849839.0, -840516.8, 6872.389, -0.12818837, 0.048318516, -836874.0, 16852.441, 0.0, 9.999866, 9.999979 
1.8150167e+3, 2.2288525e+2, -768414.4, -776923.75, -72071.266, -0.16925052, 0.04670469, -700472.3, 55254.418, 0.0, 9.999872, 9.999732 
1.8150516e+3, 2.3288396e+2, -732100.44, -685287.56, -39758.55, 0.017242108, -0.102822885, -662557.2, -4820.6196, 0.0, 9.999359, 9.999924 
1.815086e+3, 2.4288331e+2, -684209.4, -677955.1, 45023.64, 0.10881577, -0.119657084, -635950.1, -76209.03, 0.0, 9.999262, 9.999379 
1.8151201e+3, 2.5288442e+2, -421557.84, -478302.9, 89030.664, 0.019287935, 0.007938508, -356488.1, 105242.34, 0.0, 10.000316, 9.999558 
1.8151549e+3, 2.6288447e+2, -279138.4, -430418.8, 82667.96, -0.03445545, 0.09814602, -242727.6, 121001.75, 0.0000000874347, 10.000904, 9.998936 
1.8151902e+3, 2.728819e+2, -187884.03, -324653.4, 109701.88, 0.003386415, -0.097480245, -126997.805, 138754.03, 0.00001648955, 10.000828, 9.999014 
1.8152247e+3, 2.828801e+2, -154471.66, -330715.03, 16316.235, 0.037104778, -0.13396585, -152973.86, 14794.204, 0.00017264257, 10.000672, 9.998384 
1.8152577e+3, 2.9288045e+2, -13755.97, -191399.94, -19964.959, 0.09459135, 0.0020081566, -11539.806, 58226.656, 0.00068283465, 10.000898, 9.998541 
1.8152906e+3, 3.028796e+2, 14608.648, -308621.66, 4829.3833, 0.07271398, 0.14122508, 14680.788, 14680.788, 0.0015898239, 10.001455, 9.99714 
1.8153253e+3, 3.1287596e+2, 231255.72, -1322.2124, 89704.02, 0.11803093, 0.00652755, 261833.81, 261833.81, 0.0027072954, 10.00206, 9.998929 
1.8246756e+3, 1.2285309e+2, -1990637.5, -1619253.3, -41906.434, -0.16506009, -0.107941225, -1614583.4, 121464.836, 0.10907774, 9.99699, 10.002162 
1.8247159e+3, 1.3286024e+2, -2033989.0, -1857585.9, 87203.81, 0.42409235, 0.5857762, -1821755.1, -183779.84, 0.07313931, 9.997273, 9.999631 
1.8247423e+3, 1.4285114e+2, -1915562.9, -1707692.8, 82522.0, -0.2745242, -0.2944111, -1678916.3, -138853.23, 0.039204508, 9.997244, 10.000004 
1.8247797e+3, 1.5285392e+2, -1598570.1, -1459836.6, 52912.18, 0.11320617, -0.08444744, -1441959.8, 74.20178, 0.014855209, 9.9985695, 10.000382 
1.8248141e+3, 1.6285567e+2, -1458671.5, -1463050.5, 73816.984, 0.17117885, 0.11078044, -1387011.6, -42995.254, 0.0031336718, 9.999345, 9.999326 
1.8248478e+3, 1.7285489e+2, -1383153.8, -1369526.4, 73633.88, 0.05569343, 0.06870938, -1302391.6, -56365.97, 0.00019006866, 9.999199, 9.999348 
1.8248819e+3, 1.8285388e+2, -1312783.9, -1339230.4, 55703.367, 0.04594021, 0.06907122, -1268755.8, -120718.59, 0.00000015151502, 9.999219, 9.998893 
1.8249157e+3, 1.9285272e+2, -1091470.0, -1154254.4, 46869.895, 0.080865316, 0.01786246, -1066450.8, -16401.137, 0.0, 9.9999895, 9.999097 
1.8249494e+3, 2.0285185e+2, -932317.44, -1020271.56, 107851.67, 0.056306995, 0.03399842, -859821.5, 92236.95, 0.0, 10.000337, 9.99919 
1.824983e+3, 2.1285163e+2, -892494.44, -909745.56, 88284.81, -0.06644862, 0.032003473, -812414.9, 41644.727, 0.0, 9.999791, 9.999522 
1.825017e+3, 2.228512e+2, -799538.25, -772651.75, 16120.137, -0.10182688, 0.037540473, -765105.0, -9043.606, 0.0, 9.999549, 9.999933 
1.8250512e+3, 2.3285036e+2, -604540.56, -575211.94, -23063.938, 0.029216135, -0.106601484, -562545.2, 95519.27, 0.0, 10.000025, 10.000365 
1.8250856e+3, 2.4284981e+2, -517528.47, -635366.4, 67013.016, 0.09445138, -0.12875366, -487216.3, 72850.64, 0.0, 10.000569, 9.999031 
1.8251206e+3, 2.528502e+2, -338932.53, -500606.53, 32261.049, 0.010349135, -0.0176871, -332732.78, 129332.49, 0.0, 10.001151, 9.998989 
1.825156e+3, 2.6285005e+2, -187378.75, -349963.13, -21417.13, -0.011318641, 0.07322169, -184604.81, 179462.25, 0.00000011582431, 10.0013895, 9.999254 
1.8251917e+3, 2.7284834e+2, -129572.484, -242847.66, -40554.38, 0.0796648, -0.07781499, -116550.375, 149529.03, 0.000015405387, 10.000991, 9.999507 
1.8252262e+3, 2.8284678e+2, -92400.22, -289247.97, -43312.883, 0.12856233, -0.12120564, -83291.47, 84800.16, 0.00016033727, 10.001061, 9.998481 
1.8252587e+3, 2.9284614e+2, 172652.08, -112304.28, -56283.2, 0.068935126, -0.07132005, 183366.03, 253464.39, 0.0006397898, 10.002223, 9.998453 
1.8252929e+3, 3.028449e+2, 272655.66, -181902.97, 39478.34, 0.090820454, 0.030242652, 276058.88, 276058.88, 0.0015188638, 10.003198, 9.99718 
1.8253295e+3, 3.1284186e+2, 427091.38, 57655.69, -12658.615, 0.29129434, -0.028276026, 427524.6, 427524.6, 0.002646335, 10.003473, 9.998711 
1.8346734e+3, 1.228223e+2, -1989562.3, -1622406.1, 100829.9, -0.1504212, -0.038055778, -1596538.3, 139810.7, 0.11569034, 9.996998, 10.00216 
1.8347152e+3, 1.3282715e+2, -2005400.9, -1802398.4, 83973.13, 0.6052078, 0.4151447, -1772165.0, -133868.3, 0.07769921, 9.997286, 10.000002 
1.8347405e+3, 1.4282092e+2, -1939303.9, -1769602.8, 101643.836, -0.202452, -0.19414319, -1722048.3, -181692.53, 0.04181763, 9.997294, 9.999555 
1.8347773e+3, 1.5282254e+2, -1661988.6, -1597048.8, 117818.93, -0.002914907, -0.01290827, -1507307.4, -64967.207, 0.015997248, 9.998585, 9.999435 
1.8348122e+3, 1.62823e+2, -1455070.0, -1476590.9, 60610.633, -0.008850776, 0.121115625, -1404272.0, -59935.758, 0.0034491862, 9.999433, 9.999193 
1.8348473e+3, 1.7282188e+2, -1365512.5, -1343797.5, 75397.484, 0.06623438, 0.032116555, -1278479.8, -32131.191, 0.00021871291, 9.999232, 9.999513 
1.8348822e+3, 1.8282111e+2, -1288013.4, -1286825.3, 61676.813, 0.12624255, 0.027484488, -1225739.6, -77382.81, 0.00000018976193, 9.999222, 9.999248 
1.8349153e+3, 1.9282092e+2, -1077871.4, -1109539.6, 87264.85, 0.017116625, 0.03926471, -1005015.75, 45341.465, 0.0, 9.999918, 9.999438 
1.8349488e+3, 2.0282027e+2, -976888.94, -1081816.1, 83642.195, -0.057404775, 0.070248574, -930618.3, 21744.8, 0.0, 10.000201, 9.998835 
1.834984e+3, 2.1281876e+2, -956950.25, -1002715.44, 75446.97, 0.031183796, -0.0059539173, -900992.1, -46612.48, 0.0, 9.999612, 9.998972 
1.8350185e+3, 2.228179e+2, -860551.44, -835598.6, 15311.453, 0.07676016, 0.0032934686, -828324.06, -71936.34, 0.0, 9.999276, 9.999635 
1.8350512e+3, 2.3281863e+2, -649289.1, -618952.56, 11379.253, 0.010705085, 0.037578378, -615158.6, 43217.215, 0.0, 9.999814, 10.000171 
1.8350846e+3, 2.4281809e+2, -627776.94, -800204.56, 75137.7, -0.07290026, 0.06633029, -599629.5, -39250.613, 0.0, 10.000291, 9.998038 
1.8351203e+3, 2.5281462e+2, -468804.25, -707533.0, 71574.26, -0.1426885, -0.08448574, -448989.84, 13426.235, 0.0, 10.000887, 9.997699 
1.8351565e+3, 2.6281255e+2, -228883.22, -376546.6, -38747.473, -0.12273177, -0.09908767, -219333.34, 145103.69, 0.000000090536304, 10.001125, 9.999201 
1.8351929e+3, 2.7281386e+2, -125811.98, -193928.02, -33790.574, 0.083267145, 0.01289432, -111893.42, 154525.8, 0.00001528185, 10.000811, 9.999929 
1.8352282e+3, 2.828136e+2, -84231.66, -217478.61, -32235.818, 0.18855877, 0.04630104, -76842.734, 91573.445, 0.00015301339, 10.000822, 9.99909 
1.8352616e+3, 2.9281005e+2, 170253.8, -35682.742, 11459.465, 0.0969363, -0.26554114, 170889.5, 241334.97, 0.00060731446, 10.001882, 9.999136 
1.8352965e+3, 3.0280718e+2, 179569.39, -256904.44, 40277.445, 0.09534256, -0.35706934, 183255.05, 183255.05, 0.0014670701, 10.002695, 9.996902 
1.8353309e+3, 3.1280753e+2, 270591.2, -128733.63, 23589.205, 0.024028996, -0.04765385, 271979.84, 271979.84, 0.002622712, 10.002905, 9.997684 
1.8446718e+3, 1.2278913e+2, -1908261.3, -1587129.4, 163683.03, -0.03411159, -0.038915165, -1518406.1, 218264.3, 0.12272786, 9.997564, 10.002203 
1.8447116e+3, 1.3279197e+2, -1931701.8, -1793630.5, -91751.5, 0.5002284, 0.24378651, -1747843.4, -109203.96, 0.08254445, 9.99794, 9.9997425 
1.8447393e+3, 1.427882e+2, -1797225.9, -1716317.6, -42142.984, -0.0713818, -0.09383139, -1698354.6, -157679.16, 0.04459436, 9.99831, 9.999441 
1.8447764e+3, 1.5278886e+2, -1596106.6, -1570427.8, 15503.681, 0.031066928, -0.0029591743, -1563137.3, -120468.09, 0.017215712, 9.999058, 9.999391 
1.8448116e+3, 1.6278891e+2, -1481114.6, -1481662.4, -5787.572, 0.019022137, 0.088916466, -1475594.5, -130925.11, 0.0037916328, 9.999249, 9.999242 
1.8448465e+3, 1.7278804e+2, -1433893.8, -1367683.5, -36334.957, 0.09810311, 0.02266953, -1351634.0, -104954.15, 0.00025177147, 9.998752, 9.999574 
1.8448813e+3, 1.8278748e+2, -1329030.8, -1267011.0, 12923.655, 0.14941938, 0.023541784, -1264425.6, -115739.87, 0.00000025167606, 9.9987545, 9.999612 
1.844915e+3, 1.9278759e+2, -993819.5, -1017195.6, 35069.516, 0.0018829603, 0.016934622, -968541.6, 82139.95, 0.0, 10.000254, 9.999911 
1.8449491e+3, 2.0278719e+2, -868100.8, -1022053.44, 14189.365, -0.06945348, 0.042253748, -866803.94, 85880.04, 0.0, 10.000926, 9.998897 
1.844984e+3, 2.127859e+2, -908338.75, -986294.7, -2488.6707, 0.06720201, -0.0019350395, -908259.4, -53560.063, 0.0, 9.999998, 9.998899 
1.8450186e+3, 2.2278503e+2, -830728.8, -884782.3, 33068.99, 0.1465907, 0.03133679, -815047.2, -58338.184, 0.0, 9.999761, 9.999053 
1.8450518e+3, 2.3278497e+2, -488071.84, -623938.94, -17422.467, 0.028507173, 0.05828839, -485873.3, 172832.86, 0.0, 10.001265, 9.999428 
1.8450856e+3, 2.4278389e+2, -390287.47, -689461.7, 35345.867, -0.06332366, 0.075949654, -386168.28, 174546.72, 0.0, 10.001953, 9.997987 
1.8451215e+3, 2.5278047e+2, -474915.7, -699202.56, 84115.945, -0.087260656, -0.07769532, -446874.8, 15875.356, 0.0, 10.00079, 9.997802 
1.8451579e+3, 2.6277807e+2, -369504.1, -480581.97, 86002.34, -0.04375792, -0.11989072, -322666.38, 42106.8, 0.00000009817215, 10.000333, 9.998859 
1.8451943e+3, 2.7277833e+2, -28532.547, -199607.17, 10691.991, 0.09673027, -0.06716962, -27866.898, 238899.08, 0.000013983738, 10.001719, 9.99944 
1.8452296e+3, 2.8277767e+2, 138830.3, -111304.11, -34966.85, 0.17992511, -0.0416708, 143626.42, 312393.78, 0.00014297603, 10.002354, 9.99909 
1.8452634e+3, 2.9277536e+2, 97492.89, -52457.09, -86480.22, 0.14341637, -0.23249364, 136973.47, 207759.05, 0.00057426473, 10.00129, 9.999321 
1.8452989e+3, 3.0277258e+2, -2438.6548, -287392.38, 26900.36, 0.18313262, -0.34874234, 78.571014, 78.571014, 0.001412024, 10.001189, 9.997429 
1.8453334e+3, 3.1277186e+2, 357247.1, -24383.588, -28282.611, -0.0064269993, -0.18964943, 359331.75, 359331.75, 0.002576916, 10.003223, 9.998248 
1.8546711e+3, 1.22754134e+2, -1876714.3, -1571248.5, 221011.56, 0.06527243, -0.04824124, -1455330.3, 281676.56, 0.13014582, 9.997752, 10.002287 
1.8547042e+3, 1.3275445e+2, -2004032.8, -1953043.5, -74176.86, -0.05953528, 0.061874185, -1900102.3, -261096.75, 0.08765755, 9.997965, 9.998644 
1.8547386e+3, 1.4275268e+2, -1760594.8, -1662177.1, -38018.063, -0.028555164, -0.014926502, -1649201.6, -108176.13, 0.04753598, 9.998402, 9.999773 
1.8547763e+3, 1.5275265e+2, -1524397.6, -1436170.9, 50403.844, 0.09728621, -0.07032917, -1413302.6, 29720.428, 0.01851746, 9.999112, 10.000293 
1.854812e+3, 1.6275316e+2, -1457202.4, -1446323.5, -36030.883, 0.10491523, 0.00076576445, -1415323.8, -70306.32, 0.0041650403, 9.9993105, 9.9994545 
1.8548448e+3, 1.7275317e+2, -1443307.4, -1384429.5, -46888.594, 0.038035456, 0.028621303, -1358504.3, -111483.234, 0.00029041685, 9.998733, 9.999472 
1.8548787e+3, 1.8275288e+2, -1297928.0, -1201030.4, 36120.32, -0.024853617, 0.047035184, -1189047.8, -40022.32, 0.0000003514084, 9.998751, 10.000068 
1.8549147e+3, 1.9275267e+2, -962683.6, -932019.94, 101361.79, -0.0835264, -0.04986266, -844837.0, 206185.94, 0.0, 10.000162, 10.000543 
1.8549499e+3, 2.027526e+2, -861526.6, -974818.9, -16399.852, -0.117297724, -0.044421945, -859200.44, 93820.54, 0.0, 10.000779, 9.999293 
1.854983e+3, 2.1275295e+2, -910976.7, -952018.3, -27609.164, -0.058902077, 0.038653567, -897097.4, -42077.52, 0.0, 9.999824, 9.99922 
1.8550168e+3, 2.2275232e+2, -919859.1, -1016041.8, 59285.695, -0.021724895, 0.10751145, -891611.94, -134584.48, 0.0, 9.999521, 9.998272 
1.8550526e+3, 2.3274949e+2, -600736.3, -808697.06, 56446.195, -0.03830008, -0.033185367, -586403.2, 72651.3, 0.0, 10.001048, 9.998268 
1.8550883e+3, 2.4274749e+2, -380075.47, -600593.06, 921.2893, -0.030512562, -0.0627287, -380071.63, 181001.19, 0.0, 10.001666, 9.998733 
1.8551241e+3, 2.5274765e+2, -413033.5, -515042.7, 51748.94, 0.058965858, 0.011036772, -391378.47, 71690.33, 0.0, 10.000561, 9.999169 
1.8551598e+3, 2.6274636e+2, -449744.75, -590598.56, 101249.64, 0.09421317, 0.01941342, -396837.0, -31758.723, 0.00000008466028, 10.000089, 9.998223 
1.8551952e+3, 2.727417e+2, -157907.58, -403322.22, 86233.27, 0.003363298, -0.3021793, -130637.35, 136482.69, 0.000011476472, 10.001446, 9.998173 
1.85523e+3, 2.8273913e+2, 30525.098, -255956.25, -72178.59, -0.04137003, -0.35396126, 47682.8, 216826.05, 0.00012753508, 10.002005, 9.998267 
1.855264e+3, 2.9274192e+2, 26222.943, -136350.69, -106011.9, 0.061624568, 0.017287333, 78525.305, 149645.2, 0.00053210376, 10.001019, 9.998875 
1.8553e+3, 3.0274075e+2, 12738.431, -171020.7, 59960.95, 0.15366754, 0.04737253, 30572.902, 30572.902, 0.0013363026, 10.000832, 9.998396 
1.8553373e+3, 3.127365e+2, 382387.84, 206008.2, 58141.29, 0.016342508, -0.27564678, 399828.78, 399828.78, 0.0024703583, 10.002495, 10.000169 
1.8646702e+3, 1.22719094e+2, -1854040.5, -1432427.9, 185414.8, 0.25817934, -0.029305832, -1362488.8, 374856.47, 0.1378835, 9.997314, 10.00355 
1.8647002e+3, 1.3271804e+2, -2051024.9, -2044428.8, -35657.188, -0.24121715, -0.029826293, -2011917.4, -372558.16, 0.09301642, 9.997974, 9.997989 
1.8647385e+3, 1.4271712e+2, -1708709.8, -1626557.6, 28397.836, 0.113710694, 0.018790169, -1617697.0, -76323.91, 0.050644647, 9.998725, 9.999854 
1.8647756e+3, 1.527168e+2, -1611511.1, -1440056.3, 37093.08, 0.156239, -0.10061505, -1432375.5, 10997.757, 0.01991141, 9.998355, 10.000628 
1.8648112e+3, 1.6271728e+2, -1596922.5, -1503407.4, -45189.035, 0.148521, -0.055494335, -1485139.4, -139771.86, 0.0045744055, 9.998289, 9.999554 
1.8648438e+3, 1.727178e+2, -1325521.8, -1317872.3, -70195.31, 0.047575, 0.010751833, -1251397.5, -4030.9485, 0.0003360051, 9.999497, 9.999549 
1.8648778e+3, 1.8271784e+2, -1126525.8, -1112469.5, 33226.906, -0.022894558, 0.05573053, -1085535.6, 63832.62, 0.00000050835786, 9.999909, 10.000113 
1.8649144e+3, 1.9271769e+2, -1161755.9, -1025564.9, 26364.68, -0.040731937, -0.040926166, -1020639.2, 30727.914, 0.0, 9.998786, 10.000566 
1.86495e+3, 2.0271777e+2, -1172978.9, -1087416.5, -82378.39, -0.04385474, -0.035542626, -1037372.94, -84008.87, 0.0, 9.998481, 9.999628 
1.8649828e+3, 2.1271831e+2, -778127.3, -841466.75, -109597.61, -0.059564963, 0.026690682, -695715.44, 159642.89, 0.0, 10.000522, 9.999646 
1.865017e+3, 2.2271763e+2, -607996.2, -873817.3, 17522.293, -0.051765002, 0.06540051, -606846.2, 150518.78, 0.0, 10.001706, 9.998201 
1.8650536e+3, 2.327143e+2, -642236.25, -855027.2, 49142.86, -0.016189037, -0.09673318, -631435.25, 27962.383, 0.0, 10.000885, 9.998036 
1.86509e+3, 2.4271229e+2, -540276.56, -662261.6, 26776.184, 0.05102577, -0.11631019, -534657.9, 26758.793, 0.0, 10.000485, 9.998884 
1.8651257e+3, 2.5271347e+2, -297542.72, -429987.8, -23869.371, 0.1562411, 0.034507565, -293372.28, 170030.22, 0.0, 10.001224, 9.999436 
1.8651615e+3, 2.627126e+2, -228191.3, -485023.1, 41650.324, 0.19014852, 0.065535374, -221605.73, 143802.52, 0.000000065173005, 10.00161, 9.998219 
1.8651967e+3, 2.7270713e+2, -206954.45, -439429.63, 70160.99, 0.04512365, -0.3217317, -187421.13, 80036.92, 0.000009433609, 10.001159, 9.998068 
1.8652317e+3, 2.827044e+2, -128612.98, -372334.5, -4549.3623, -0.014814585, -0.37307358, -128528.086, 40955.906, 0.00011541226, 10.001095, 9.997893 
1.8652657e+3, 2.9270765e+2, 137588.69, -133165.55, -74812.39, 0.077333495, 0.09177327, 156884.97, 228343.58, 0.00049646525, 10.0020075, 9.998406 
1.865301e+3, 3.027059e+2, 271700.9, -43210.59, 132317.52, 0.10816571, 0.093721725, 319915.38, 319915.38, 0.0012600875, 10.002572, 9.998435 
1.8653399e+3, 3.1270218e+2, 399138.4, 249003.72, -44315.637, 0.051078305, -0.197036, 411243.2, 411243.2, 0.0023282347, 10.002394, 10.00052 
1.874666e+3, 1.22682355e+2, -1678041.8, -1137172.8, -69715.05, 0.04510722, -0.2002787, -1128331.5, 609370.75, 0.14588223, 9.997407, 10.005887 
1.8746997e+3, 1.3268292e+2, -2067332.8, -2087206.6, 31377.014, -0.1159277, -0.035111032, -2044356.8, -404657.84, 0.0986057, 9.998001, 9.99769 
1.8747383e+3, 1.4268161e+2, -1706936.3, -1649993.6, 14893.625, 0.18261695, -0.0016997333, -1646333.4, -104616.02, 0.053927336, 9.998835, 9.999641 
1.8747734e+3, 1.5268126e+2, -1627365.6, -1475274.3, 34096.664, 0.08066122, -0.09931693, -1467980.1, -24260.084, 0.021407956, 9.998355, 10.000389 
1.8748084e+3, 1.6268136e+2, -1583757.4, -1481341.4, -26642.313, 0.0026095791, -0.08383797, -1474825.3, -129106.09, 0.0050250688, 9.998316, 9.999693 
1.8748432e+3, 1.7268193e+2, -1309183.6, -1282622.1, -10112.748, -0.00026866264, -0.030669546, -1279210.3, -31494.25, 0.00038988978, 9.999483, 9.999805 
1.8748783e+3, 1.8268226e+2, -1148294.4, -1163631.5, -9054.969, -0.0066638063, 0.039482206, -1144097.0, 5618.2173, 0.000000733184, 9.999938, 9.999749 
1.8749139e+3, 1.9268256e+2, -1220029.5, -1118416.5, -10660.468, 0.016423943, 0.049158618, -1117310.1, -65595.85, 0.0, 9.998673, 9.999981 
1.8749493e+3, 2.0268258e+2, -1167228.3, -1052674.5, -49389.48, 0.012630786, 0.07204467, -1034320.94, -80606.81, 0.0, 9.998369, 9.999927 
1.8749838e+3, 2.1268201e+2, -767958.56, -778920.3, -19249.004, -0.054223977, -0.028525578, -753425.4, 102289.125, 0.0, 10.000337, 10.000169 
1.8750185e+3, 2.2268096e+2, -610163.94, -819010.2, -4447.9155, -0.09385923, -0.0755061, -610069.25, 147651.53, 0.0, 10.001442, 9.998708 
1.8750544e+3, 2.326792e+2, -636853.06, -791759.5, 28032.496, -0.024002828, -0.13806127, -631936.25, 27801.453, 0.0, 10.000662, 9.998575 
1.8750906e+3, 2.4267799e+2, -606085.0, -739079.9, 28566.705, 0.042373937, -0.09642662, -600208.7, -38458.86, 0.0, 10.000222, 9.99849 
1.8751265e+3, 2.5267795e+2, -378907.34, -543588.4, 21898.793, 0.08294818, -0.00785446, -376045.06, 87706.56, 0.0, 10.00099, 9.998771 
1.8751624e+3, 2.6267684e+2, -233211.03, -440475.94, 20492.395, 0.09958177, 0.029636338, -231204.38, 134557.33, 0.00000004605578, 10.001357, 9.998655 
1.8751983e+3, 2.726744e+2, -181906.7, -336145.66, 69204.75, 0.08199183, -0.13243687, -155408.08, 112373.54, 0.000008319171, 10.000927, 9.998896 
1.875234e+3, 2.8267303e+2, -173235.17, -399489.38, 1829.2993, 0.06700973, -0.10101457, -173220.38, -3427.195, 0.00010877432, 10.000812, 9.997847 
1.8752676e+3, 2.9267237e+2, 53601.195, -223358.2, -14234.099, 0.047696147, 0.0099483915, 54330.82, 126134.11, 0.00047256332, 10.001654, 9.997958 
1.8753015e+3, 3.0266806e+2, 155362.8, -178902.44, 112006.96, -0.14589283, -0.18844736, 189423.8, 189423.8, 0.0011934324, 10.002132, 9.997708 
1.8753423e+3, 3.1266803e+2, 219023.64, 61416.19, 932.3802, -0.0010873621, -0.0326163, 219029.16, 219029.16, 0.0021805223, 10.001635, 9.99958 
1.8846634e+3, 1.2264566e+2, -1796750.1, -1150071.4, -109274.46, 0.10115548, -0.29142204, -1132105.6, 605954.4, 0.15411249, 9.996266, 10.006401 
1.884699e+3, 1.3264717e+2, -1971710.1, -2009898.3, 66115.15, -0.00050623727, -0.0825476, -1921987.1, -281941.06, 0.10442951, 9.998503, 9.997984 
1.8847375e+3, 1.4264622e+2, -1593104.5, -1626597.1, 37519.914, 0.18290335, -0.014289076, -1568763.3, -26702.379, 0.057399224, 9.999783, 9.999328 
1.884772e+3, 1.5264605e+2, -1468591.4, -1419748.4, 4768.036, 0.06868693, -0.06892262, -1419287.3, 24777.146, 0.023018045, 9.999586, 10.000154 
1.8848069e+3, 1.626462e+2, -1442361.9, -1376398.8, 1272.9031, 0.00032490786, -0.04538065, -1376374.1, -30310.246, 0.005521801, 9.999111, 10.000036 
1.8848425e+3, 1.7264661e+2, -1393150.6, -1261517.0, 24155.986, 0.043355722, -0.06603857, -1257224.1, -9165.165, 0.0004532519, 9.998625, 10.000376 
1.8848781e+3, 1.8264687e+2, -1388619.0, -1322824.9, 56637.117, 0.08020763, -0.023720717, -1290224.0, -140166.77, 0.0000010252129, 9.998474, 9.999356 
1.8849136e+3, 1.9264705e+2, -1108121.6, -1138016.3, 28459.943, 0.06875065, 0.032433446, -1090922.6, -38861.68, 0.0, 9.999751, 9.999321 
1.8849489e+3, 2.0264691e+2, -863799.1, -913416.9, 24694.836, 0.040444292, 0.080533095, -853603.5, 100460.77, 0.0, 10.000493, 9.999853 
1.884984e+3, 2.1264598e+2, -779237.8, -771079.44, 615.57465, -0.04470308, -0.060847193, -771033.25, 85033.31, 0.0, 10.000205, 10.000283 
1.8850194e+3, 2.2264501e+2, -765318.56, -841213.25, -6666.735, -0.06385605, -0.12379107, -764737.4, -6666.629, 0.0, 10.000163, 9.99916 
1.8850559e+3, 2.326443e+2, -543368.7, -687502.9, -3788.6782, 0.042280816, -0.13380057, -543269.2, 116808.125, 0.0, 10.001051, 9.999102 
1.8850921e+3, 2.426435e+2, -430212.34, -680445.5, 30476.629, 0.1251841, -0.074532464, -426554.0, 135531.73, 0.0, 10.00156, 9.998239 
1.8851276e+3, 2.526422e+2, -389478.28, -613771.6, -2930.0999, 0.101742, -0.054087747, -389440.0, 74661.1, 0.0, 10.0012, 9.998188 
1.8851633e+3, 2.6264068e+2, -299289.72, -477077.22, 4137.0845, 0.09332075, -0.023383364, -299193.5, 66923.79, 0.000000017635879, 10.000952, 9.998582 
1.8851994e+3, 2.7263978e+2, -130213.02, -293069.16, -28500.086, 0.09622564, -0.03880389, -125369.51, 142754.16, 0.000007223604, 10.00124, 9.999018 
1.8852355e+3, 2.8263894e+2, -88587.47, -372805.2, -73583.02, 0.12508793, 0.044847038, -70666.99, 99463.734, 0.00010058898, 10.001477, 9.997696 
1.8852703e+3, 2.926363e+2, 54919.703, -255127.13, -119719.53, 0.17219187, -0.019632649, 95766.2, 167924.92, 0.0004433926, 10.001802, 9.997663 
1.8853034e+3, 3.0263174e+2, 135899.5, -159260.2, 38993.613, -0.12808868, -0.23708282, 140964.06, 140964.06, 0.0011172837, 10.001834, 9.998017 
1.8853435e+3, 3.1263337e+2, 52005.445, -38142.656, -80321.44, 0.041107383, 0.048501905, 99035.7, 99035.7, 0.002026479, 10.000561, 9.999421 
1.8946603e+3, 1.2260992e+2, -1921717.9, -1404278.6, 57898.82, 0.09040969, -0.22955212, -1397879.1, 340530.2, 0.16258536, 9.996383, 10.004328 
1.894697e+3, 1.3261111e+2, -1898916.4, -1866407.0, 155178.78, -0.07014118, -0.14189483, -1726633.9, -86236.38, 0.110513955, 9.998514, 9.9989805 
1.8947352e+3, 1.4261095e+2, -1608914.9, -1663605.8, 34594.81, -0.055607792, -0.03020692, -1592163.0, -49759.44, 0.06108175, 9.999812, 9.999054 
1.8947713e+3, 1.5261114e+2, -1492276.3, -1472230.6, 7304.506, -0.002998509, -0.014081465, -1469851.3, -25444.137, 0.024752133, 9.999603, 9.999782 
1.8948063e+3, 1.6261175e+2, -1376327.8, -1269968.4, -29608.62, -0.014039726, 0.055052005, -1262281.4, 84121.37, 0.0060684755, 9.999234, 10.000712 
1.8948416e+3, 1.7261183e+2, -1326541.4, -1120326.0, 13467.331, 0.06896416, -0.094512686, -1119450.3, 128945.05, 0.0005270964, 9.998607, 10.001356 
1.8948773e+3, 1.8261158e+2, -1407870.3, -1363679.1, 77331.164, 0.1074117, -0.15139964, -1305348.8, -154954.08, 0.0000013718216, 9.9984865, 9.999064 
1.8949127e+3, 1.9261132e+2, -1170257.8, -1243531.1, 88152.6, -0.011872168, -0.07716822, -1111431.8, -59027.293, 0.0, 9.999662, 9.998633 
1.8949482e+3, 2.0261091e+2, -913400.5, -995692.2, 15149.172, -0.11857477, 0.0068936646, -910700.25, 43712.094, 0.0, 10.000391, 9.999345 
1.8949834e+3, 2.1261024e+2, -832886.8, -846037.7, 641.477, -0.13813426, -0.06728703, -832855.56, 23558.713, 0.0, 10.000037, 9.999855 
1.8950194e+3, 2.2260967e+2, -778198.4, -807143.44, 1776.21, -0.09702672, -0.08067005, -778089.75, -19673.555, 0.0, 9.999903, 9.999517 
1.8950571e+3, 2.326097e+2, -536278.56, -616993.8, 47086.81, 0.054991227, -0.07410211, -514620.8, 145794.47, 0.0, 10.000814, 9.999695 
1.895094e+3, 2.42609e+2, -491871.4, -749387.9, 12483.066, 0.14616507, -0.030914089, -491267.7, 71155.05, 0.0, 10.001291, 9.997901 
1.895129e+3, 2.5260633e+2, -463577.5, -715710.7, -4864.9443, 0.099949315, -0.09304755, -463483.66, 967.60297, 0.0, 10.000976, 9.997596 
1.895164e+3, 2.6260394e+2, -374384.75, -578554.5, -4427.2163, 0.039433014, -0.08847075, -374288.8, -7811.963, 0.0000000071100716, 10.000717, 9.997998 
1.8951996e+3, 2.7260318e+2, -206531.5, -389627.22, 105.50184, -0.034302384, -0.03517927, -206531.45, 61953.75, 0.0000064443307, 10.000986, 9.998471 
1.895236e+3, 2.8260216e+2, -151030.0, -435406.56, -78992.76, 0.0009315941, 0.076334104, -130561.086, 39934.906, 0.0000894982, 10.001179, 9.997414 
1.8952735e+3, 2.925992e+2, -22295.32, -333561.88, -77484.98, 0.27156466, -0.003138669, -4073.3757, 68453.17, 0.00040206578, 10.001442, 9.997304 
1.8953058e+3, 3.0259663e+2, 146104.88, -31065.701, -6186.6265, -0.09282688, -0.04836058, 146320.64, 146320.64, 0.0010244871, 10.001402, 9.999091 
1.8953432e+3, 3.1259814e+2, -57168.4, -87833.89, -22091.063, -0.09095203, 0.09161156, -45610.477, -45610.477, 0.0018689361, 9.99987, 9.999386 
1.9046575e+3, 1.2257312e+2, -1795389.4, -1549387.8, 49166.863, 0.10054785, -0.11434919, -1539925.0, 198846.88, 0.1713416, 9.9983225, 10.002181 
1.9046949e+3, 1.3257448e+2, -1912417.8, -1749474.3, 41502.51, -0.07984768, -0.105287686, -1739512.4, -98754.25, 0.11689223, 9.997941, 10.000029 
1.9047333e+3, 1.4257416e+2, -1933642.3, -1791261.1, -42367.89, -0.091448605, -0.0707594, -1779607.6, -236843.81, 0.06499328, 9.997414, 9.999357 
1.9047698e+3, 1.5257475e+2, -1719871.6, -1533915.9, -45583.477, 0.0027104462, -0.057515856, -1523343.1, -78580.266, 0.026617203, 9.9977865, 10.0002575 
1.9048052e+3, 1.6257593e+2, -1537868.9, -1350634.9, -25087.379, 0.017553782, 0.037753534, -1347331.8, -578.5803, 0.0066676727, 9.998158, 10.00067 
1.9048408e+3, 1.725761e+2, -1231478.0, -1089296.6, -92316.41, 0.10000551, -0.08501452, -1043870.4, 204874.84, 0.0006122247, 9.999352, 10.001195 
1.9048767e+3, 1.8257572e+2, -1207671.6, -1289655.8, -57230.832, 0.14635779, -0.13589604, -1178266.9, -27520.615, 0.0000017786746, 9.999968, 9.998862 
1.9049123e+3, 1.92575e+2, -1186415.9, -1277182.9, -40776.355, -0.0066697123, -0.0789228, -1170788.1, -118028.3, 0.0, 9.999666, 9.998412 
1.9049479e+3, 2.0257427e+2, -1076468.6, -1077476.6, -72209.18, -0.10698521, -0.008179459, -1004761.7, -49990.95, 0.0, 9.99931, 9.99929 
1.9049837e+3, 2.1257351e+2, -931771.9, -892791.1, -90658.87, -0.065938115, -0.087968476, -819551.2, 37222.86, 0.0, 9.999373, 9.999844 
1.90502e+3, 2.2257306e+2, -837619.3, -826137.94, -32577.6, 0.009564973, -0.090930305, -798799.06, -40023.715, 0.0, 9.999435, 9.999619 
1.9050579e+3, 2.3257364e+2, -705568.56, -688113.44, -39470.41, 0.116463855, -0.04360249, -656417.2, 4352.442, 0.0, 9.999584, 9.999808 
1.9050951e+3, 2.4257317e+2, -668281.75, -818408.3, -53838.563, 0.18682136, 0.012666691, -650970.3, -88195.8, 0.0, 10.000034, 9.99802 
1.9051303e+3, 2.5256985e+2, -376473.22, -656762.94, -50742.56, 0.13841315, -0.12519886, -367569.78, 97238.23, 0.0, 10.001511, 9.997732 
1.9051655e+3, 2.625671e+2, -137573.75, -484627.66, 4271.947, 0.06191589, -0.15791807, -137521.17, 229315.14, 0.000000016068412, 10.002413, 9.997832 
1.9052005e+3, 2.7256662e+2, -72624.34, -362807.63, -11524.027, -0.081088856, -0.05026158, -72167.41, 196676.47, 0.000006020835, 10.00202, 9.998177 
1.9052368e+3, 2.8256562e+2, -61725.81, -354281.2, -23901.348, -0.040597353, 0.0649872, -59785.965, 111069.35, 0.00007835106, 10.00161, 9.997776 
1.9052756e+3, 2.9256284e+2, 31457.793, -240068.03, -10505.756, 0.3487486, -0.04494997, 31863.67, 104745.62, 0.00035541714, 10.00152, 9.9979105 
1.9053082e+3, 3.025616e+2, 167616.19, -13268.354, 90473.84, 0.023619955, 0.005001127, 205100.94, 205100.94, 0.0009236993, 10.001526, 9.999159 
1.9053455e+3, 3.1256086e+2, 155738.13, -76572.8, -78533.516, 0.07143678, -0.05890022, 179795.38, 179795.38, 0.0017174939, 10.001641, 9.99866 
1.9146553e+3, 1.2253327e+2, -1944528.4, -1841683.0, -108771.625, -0.038584746, -0.1407795, -1772791.3, -33623.78, 0.18042894, 9.9984255, 9.99984 
1.9146925e+3, 1.3253686e+2, -1842577.0, -1607805.1, 18367.512, -0.14720578, 0.0104353735, -1606376.9, 34755.484, 0.12358676, 9.997934, 10.001035 
1.9147313e+3, 1.4253539e+2, -1846043.8, -1628548.3, -57187.793, -0.08171512, -0.15891443, -1614428.0, -71281.54, 0.069141634, 9.997491, 10.000439 
1.9147673e+3, 1.5253688e+2, -1621655.4, -1322702.8, -21847.879, -0.04265065, -0.19931796, -1321114.5, 124017.53, 0.028615344, 9.99774, 10.001754 
1.9148028e+3, 1.6253881e+2, -1584913.6, -1463050.8, -3376.0178, -0.059188206, -0.09154913, -1462957.4, -115843.836, 0.0073205116, 9.998222, 9.999866 
1.9148396e+3, 1.7253943e+2, -1342714.8, -1315109.4, -38665.594, 0.0110344775, -0.025638029, -1287856.8, -38748.277, 0.00070924795, 9.999333, 9.999649 
1.9148761e+3, 1.8253924e+2, -1213331.4, -1316535.3, -76310.52, 0.05028587, 0.04701458, -1172813.5, -21701.484, 0.0000023137907, 10.000022, 9.998658 
1.914912e+3, 1.9253808e+2, -1182637.6, -1248491.4, -46272.75, -0.021629602, 0.041972928, -1158772.4, -105645.37, 0.0, 9.999573, 9.998656 
1.914948e+3, 2.0253687e+2, -1074883.9, -1045178.7, -87919.34, -0.061206773, 0.037991885, -970866.25, -15726.063, 0.0, 9.999176, 9.999577 
1.9149844e+3, 2.1253572e+2, -933695.8, -856211.75, -78383.125, 0.049438942, -0.11681692, -807518.94, 49627.664, 0.0, 9.999191, 10.000182 
1.915021e+3, 2.2253518e+2, -885090.0, -864106.4, -38005.85, 0.12476282, -0.1476552, -835170.75, -76022.125, 0.0, 9.999171, 9.999489 
1.9150576e+3, 2.3253621e+2, -762328.2, -747674.44, -19670.371, 0.1197588, -0.022997357, -734010.7, -72871.6, 0.0, 9.999344, 9.999515 
1.9150946e+3, 2.4253596e+2, -672587.2, -765714.5, -21935.717, 0.104033135, 0.0581892, -667679.0, -104537.37, 0.0, 9.999765, 9.998513 
1.9151315e+3, 2.5253275e+2, -359449.66, -560803.5, 20988.973, 0.08319462, -0.14506476, -357285.06, 107886.516, 0.0, 10.001255, 9.998511 
1.9151676e+3, 2.625304e+2, -170684.83, -485437.1, -12610.778, 0.0029041686, -0.19624445, -170180.38, 197014.02, 0.000000038925435, 10.002111, 9.997977 
1.9152015e+3, 2.7253014e+2, -117879.69, -392473.56, -13676.55, -0.18864042, -0.059874542, -117200.19, 151999.13, 0.0000054500297, 10.001748, 9.998103 
1.9152373e+3, 2.8252918e+2, -42855.68, -252528.06, -49537.137, -0.17742902, 0.032241397, -31741.215, 139468.55, 0.00006657065, 10.001342, 9.998605 
1.9152763e+3, 2.92527e+2, 62004.668, -100509.2, 4830.954, 0.25524724, -0.13073973, 62148.145, 135375.72, 0.0003045757, 10.0012045, 9.999019 
1.9153102e+3, 3.0252686e+2, 58145.414, -174365.77, 66758.32, 0.035574757, -0.0026774714, 75949.64, 75949.64, 0.0008128508, 10.001231, 9.998189 
1.9153465e+3, 3.1252342e+2, -24866.889, -278374.25, 22494.994, -0.019963503, -0.20716721, -22886.27, -22886.27, 0.001554527, 10.000946, 9.997578 
1.9246548e+3, 1.2249643e+2, -1885622.4, -2010517.3, -8215.438, 0.032168187, -0.03429385, -1885084.4, -145552.19, 0.18987963, 9.999655, 9.998109 
1.9246913e+3, 1.3250078e+2, -1692541.0, -1437956.8, 68504.55, -0.06781082, 0.11486468, -1420693.9, 220795.28, 0.13060497, 9.998424, 10.002159 
1.9247293e+3, 1.4249828e+2, -1903637.4, -1632100.1, 94032.72, 0.017403068, -0.23510993, -1602716.4, -59205.676, 0.07352615, 9.997015, 10.000632 
1.9247656e+3, 1.5250053e+2, -1490342.6, -1275462.6, 2379.27, -0.030069046, -0.19354182, -1275436.3, 170052.38, 0.030745408, 9.998723, 10.001606 
1.9248016e+3, 1.625023e+2, -1374771.3, -1398997.1, -36800.98, -0.07067683, -0.07773989, -1348141.0, -669.3289, 0.008026891, 9.999835, 9.99952 
1.9248386e+3, 1.7250255e+2, -1330527.3, -1355931.8, -24090.473, -0.011069359, -0.010604529, -1315995.4, -66523.86, 0.0008187495, 9.999619, 9.999233 
1.9248757e+3, 1.8250224e+2, -1298045.8, -1335230.8, 22867.572, 0.056031436, 0.06641016, -1287166.1, -135689.7, 0.0000031359323, 9.999316, 9.998878 
1.924912e+3, 1.9250108e+2, -1130963.5, -1174150.5, 43137.29, 0.0324796, 0.015613613, -1104317.0, -50828.47, 0.0, 9.9996805, 9.999117 
1.9249482e+3, 2.0249991e+2, -999571.5, -1039402.75, 19511.04, 0.04018167, -0.007273877, -991606.8, -36106.75, 0.0, 9.999817, 9.999314 
1.9249845e+3, 2.124989e+2, -886246.1, -891052.94, -56558.613, 0.13178714, -0.09859872, -832039.9, 25468.707, 0.0, 9.999763, 9.999672 
1.9250208e+3, 2.2249831e+2, -787261.94, -827540.1, -15047.088, 0.19300732, -0.09718066, -782261.44, -22748.238, 0.0, 9.999918, 9.99937 
1.9250576e+3, 2.3249865e+2, -537752.7, -636594.25, -982.7239, 0.13027279, -0.04148135, -537742.9, 123766.07, 0.0, 10.000886, 9.999532 
1.9250947e+3, 2.4249816e+2, -428441.34, -621808.3, 20432.922, 0.089573614, 0.0039991704, -426305.8, 137206.72, 0.0, 10.001302, 9.998772 
1.9251323e+3, 2.5249612e+2, -456510.63, -577966.1, 3992.9937, 0.0830186, -0.1114782, -456379.5, 9151.921, 0.0, 10.000432, 9.998811 
1.925169e+3, 2.6249442e+2, -447586.66, -576894.2, -11257.073, 0.040312607, -0.12849697, -446613.97, -79066.625, 0.000000047147957, 10.000042, 9.998342 
1.9252035e+3, 2.724934e+2, -183049.89, -382374.0, -17380.404, -0.1286233, -0.10563648, -181545.73, 88012.1, 0.0000044268, 10.001126, 9.998472 
1.9252393e+3, 2.824921e+2, 43239.95, -217064.98, -33596.598, -0.13183124, -0.06572126, 47506.215, 219076.56, 0.000054025306, 10.001978, 9.998525 
1.9252774e+3, 2.924908e+2, 226527.92, -58426.047, -115594.41, 0.1851458, -0.11043897, 267522.34, 341103.84, 0.0002523606, 10.002476, 9.998694 
1.9253118e+3, 3.0248976e+2, 276644.75, -102573.96, -52738.14, 0.030221172, -0.038663115, 283842.47, 283842.47, 0.0006949365, 10.002878, 9.997885 
1.92535e+3, 3.124873e+2, 325645.4, -70749.74, -67910.17, 0.14087953, -0.114034005, 336956.97, 336956.97, 0.0013690214, 10.003116, 9.997987 
1.9346547e+3, 1.2246182e+2, -1915194.5, -2112132.0, -65396.816, -0.020437885, 0.105122045, -1895456.5, -155582.7, 0.1997211, 9.999826, 9.997333 
1.9346906e+3, 1.3246611e+2, -1612148.8, -1286315.8, -4172.7236, -0.0050998703, 0.1797888, -1286262.4, 355566.47, 0.13795441, 9.998407, 10.003386 
1.9347268e+3, 1.424635e+2, -1945149.4, -1737505.1, 108304.24, 0.015693119, -0.25245076, -1691297.8, -147447.47, 0.07814733, 9.997087, 9.999879 
1.9347641e+3, 1.5246585e+2, -1619686.9, -1554230.0, 83315.445, -0.079317845, -0.018287003, -1497445.3, -51614.195, 0.033007, 9.998777, 9.999637 
1.9348009e+3, 1.6246632e+2, -1343235.5, -1362415.3, -43868.98, -0.17267454, 0.08156485, -1307920.5, 39908.184, 0.008786739, 9.999955, 9.99972 
1.9348378e+3, 1.7246537e+2, -1269568.1, -1233482.0, -26929.115, -0.077229716, -0.04435944, -1219110.1, 30725.068, 0.00094156526, 9.99963, 10.000074 
1.934875e+3, 1.8246469e+2, -1237461.6, -1219176.8, 16914.969, 0.006678083, -0.08855054, -1209091.6, -57252.504, 0.0000044945964, 9.999356, 9.999655 
1.934912e+3, 1.9246414e+2, -1094334.5, -1082520.9, 69822.164, 0.036409386, -0.15026887, -1018356.06, 35486.426, 0.0, 9.999603, 9.999788 
1.9349484e+3, 2.0246352e+2, -1077741.1, -1171749.9, 7315.875, 0.048842743, -0.12902604, -1077175.3, -121326.03, 0.0, 9.999686, 9.99847 
1.9349837e+3, 2.1246308e+2, -1017079.75, -1111780.8, -48499.633, 0.06955364, -0.029474057, -996649.1, -138789.28, 0.0, 9.999545, 9.998262 
1.9350198e+3, 2.224623e+2, -844414.9, -873754.56, -1190.9456, 0.067716755, 0.047771603, -844366.6, -84495.67, 0.0, 9.999612, 9.999198 
1.9350575e+3, 2.3246081e+2, -554016.6, -616358.25, 50739.74, 0.017411383, -0.09667898, -525637.94, 136242.2, 0.0, 10.000655, 9.999779 
1.9350952e+3, 2.4245974e+2, -467114.56, -640357.4, -10794.214, -0.016505443, -0.12729041, -466444.6, 97442.66, 0.0, 10.001032, 9.998779 
1.9351321e+3, 2.524598e+2, -494646.56, -605700.4, -18430.914, 0.021570228, -0.026016593, -491667.6, -25778.992, 0.0, 10.000215, 9.998726 
1.9351691e+3, 2.6245892e+2, -459831.84, -529225.56, -4002.6719, 0.032376297, 0.030556126, -459601.72, -91704.266, 0.00000001782158, 9.999742, 9.998807 
1.9352058e+3, 2.7245623e+2, -182118.81, -300168.47, 38715.61, -0.037775137, -0.17935349, -170554.48, 99365.57, 0.0000033385966, 10.000811, 9.999174 
1.9352421e+3, 2.824546e+2, -68720.52, -388821.25, -33636.605, -0.07591857, -0.18135089, -65224.133, 106710.664, 0.00004416703, 10.001699, 9.997489 
1.9352779e+3, 2.9245442e+2, 77802.336, -297520.66, -78572.0, -0.030745316, 0.030249722, 93587.14, 167529.28, 0.00021030588, 10.002182, 9.997192 
1.935313e+3, 3.0245072e+2, 221743.89, -132030.08, -61497.844, -0.17358519, -0.062401388, 232129.4, 232129.4, 0.0005915153, 10.002517, 9.997855 
1.9353533e+3, 3.1245032e+2, 316839.97, 107651.53, 9315.711, 0.11802389, 0.0066785263, 317254.0, 317254.0, 0.0011871255, 10.002339, 9.999555 
1.944654e+3, 1.2242424e+2, -2191347.5, -2157962.5, 25813.33, 0.06583337, -0.083866544, -2143914.8, -403673.66, 0.20999403, 9.9975395, 9.998127 
1.9446875e+3, 1.3242966e+2, -1765047.8, -1426922.9, -117483.43, -0.09852951, 0.18419568, -1390110.4, 252075.77, 0.14565058, 9.997683, 10.002668 
1.9447261e+3, 1.4242725e+2, -1682696.1, -1632469.1, -24681.154, 0.15945008, -0.19319215, -1622371.1, -78163.945, 0.083007626, 9.99896, 9.99971 
1.9447634e+3, 1.5242933e+2, -1696856.9, -1643163.3, 25092.066, 0.006683507, 0.055843614, -1633262.8, -187071.94, 0.03539992, 9.998458, 9.999187 
1.9448e+3, 1.6242917e+2, -1644096.0, -1506592.6, -16000.778, -0.14187165, 0.11897784, -1504755.1, -156560.86, 0.009600047, 9.99788, 9.999733 
1.944837e+3, 1.7242764e+2, -1372413.1, -1266615.9, -72953.16, -0.06774278, -0.07659833, -1229401.1, 20804.623, 0.0010784023, 9.998851, 10.00022 
1.9448744e+3, 1.8242691e+2, -1205286.3, -1166274.0, -62976.86, 0.034339827, -0.14781122, -1119851.6, 32358.121, 0.0000066792873, 9.999444, 9.999966 
1.9449118e+3, 1.9242734e+2, -1110923.1, -1045731.2, -66815.81, 0.08514204, -0.14535293, -1003984.4, 50219.395, 0.0, 9.999344, 10.000152 
1.9449484e+3, 2.024274e+2, -1143148.1, -1212406.0, -96055.96, 0.1129705, -0.07174541, -1075669.8, -119465.72, 0.0, 9.99929, 9.99838 
1.9449835e+3, 2.1242666e+2, -985396.4, -1121274.5, -91883.984, 0.07862026, 0.023492564, -939062.2, -80843.79, 0.0, 9.999882, 9.998031 
1.9450194e+3, 2.2242546e+2, -758095.9, -866252.25, 42539.55, 0.050491814, 0.08536274, -743369.5, 16864.494, 0.0, 10.000332, 9.998902 
1.945058e+3, 2.3242337e+2, -602762.1, -675819.44, 37539.73, 0.021486254, -0.0901034, -586911.7, 75337.89, 0.0, 10.00046, 9.999472 
1.9450963e+3, 2.4242213e+2, -552608.8, -678757.56, -49998.49, 0.021866277, -0.118632175, -535195.75, 29062.984, 0.0, 10.000465, 9.998778 
1.9451328e+3, 2.5242278e+2, -445333.6, -578661.0, -89628.29, 0.06537699, 0.04147124, -400295.56, 65959.53, 0.0, 10.000542, 9.99875 
1.9451697e+3, 2.6242203e+2, -327327.56, -449989.75, -25519.744, 0.09274933, 0.10248337, -322230.03, 46033.098, 0.000000002142629, 10.000556, 9.99897 
1.9452068e+3, 2.7241877e+2, -216615.38, -302325.25, -34980.69, 0.033400353, -0.18500167, -204151.28, 66138.54, 0.0000030022966, 10.000462, 9.999352 
1.9452438e+3, 2.8241697e+2, -214903.03, -473360.97, -56004.906, -0.014472792, -0.2070292, -203289.27, -30983.959, 0.00003904193, 10.000756, 9.997371 
1.9452797e+3, 2.924176e+2, 91145.66, -309935.8, -48177.69, -0.06434934, 0.11268486, 96851.56, 171157.69, 0.00018459432, 10.002341, 9.997042 
1.9453159e+3, 3.024128e+2, 299839.84, -128358.42, 11237.014, -0.16145815, -0.066375494, 300134.53, 300134.53, 0.00051477127, 10.003221, 9.997532 
1.9453555e+3, 3.1241205e+2, 293637.75, 81119.59, -77919.62, 0.14663406, 0.01960075, 319145.38, 319145.38, 0.0010271264, 10.002192, 9.999469 
1.954653e+3, 1.22387685e+2, -1971019.1, -1759520.6, 66888.04, 0.12617101, -0.21299596, -1740142.3, 452.19656, 0.22070916, 9.997709, 10.000816 
1.9546814e+3, 1.3239135e+2, -1940166.9, -1784906.0, -52198.5, -0.5116418, 0.11904662, -1768988.8, -126426.8, 0.15369554, 9.997772, 9.999908 
1.9547269e+3, 1.423894e+2, -1624390.6, -1560611.8, -30150.643, 0.2986953, -0.06513483, -1548615.0, -4032.0186, 0.08810495, 9.999172, 10.000099 
1.9547631e+3, 1.5239075e+2, -1615477.8, -1479682.6, 6288.736, 0.10630927, 0.009120296, -1479392.1, -32822.336, 0.037922986, 9.998473, 10.000305 
1.9547983e+3, 1.623908e+2, -1644802.5, -1522387.5, -15260.154, -0.14306258, 0.02574984, -1520513.9, -171944.84, 0.010466628, 9.997938, 9.9995985 
1.9548358e+3, 1.7238937e+2, -1415056.1, -1360658.3, -23157.285, -0.095350526, -0.1031599, -1352135.5, -101552.31, 0.0012294218, 9.998863, 9.999573 
1.9548737e+3, 1.8238887e+2, -1211111.4, -1190916.8, -69766.82, -0.0123381615, -0.10257831, -1130520.4, 22068.4, 0.000009908067, 9.999505, 9.999764 
1.9549112e+3, 1.9239058e+2, -1128222.4, -1061478.6, -64881.324, 0.06090134, 0.03848754, -1021889.8, 32683.453, 0.0, 9.999259, 10.000084 
1.9549477e+3, 2.023913e+2, -1121762.4, -1131092.3, -96125.68, 0.086115435, 0.15845108, -1030188.5, -73621.17, 0.0, 9.999127, 9.999017 
1.954983e+3, 2.1238954e+2, -949024.44, -1001042.2, -57461.44, 0.03381608, 0.06268191, -911959.75, -53374.527, 0.0, 9.999693, 9.998943 
1.9550194e+3, 2.2238773e+2, -820189.7, -938974.0, 41343.797, -0.0060443054, 0.015803626, -807216.5, -46613.063, 0.0, 10.00008, 9.998529 
1.9550586e+3, 2.3238623e+2, -694003.3, -811169.0, 54040.934, 0.019880967, -0.023488183, -672884.4, -10266.727, 0.0, 10.000234, 9.998649 
1.955097e+3, 2.423852e+2, -610182.06, -724574.44, -58768.887, 0.04117527, 0.027719177, -585371.0, -20743.047, 0.0, 10.00015, 9.998612 
1.9551337e+3, 2.5238508e+2, -473601.56, -578725.94, -71593.234, 0.08431754, 0.10049611, -437347.22, 29283.777, 0.0, 10.000303, 9.998852 
1.9551703e+3, 2.62384e+2, -371190.2, -489602.3, -42261.496, 0.074392006, 0.12770802, -357654.28, 10986.93, 0.00000003752054, 10.000322, 9.998818 
1.9552068e+3, 2.72381e+2, -262525.3, -350294.72, -23349.795, -0.039977506, -0.111679725, -256700.05, 13965.561, 0.0000033251551, 10.000259, 9.999122 
1.9552438e+3, 2.8237933e+2, -228649.31, -422331.1, -30544.402, -0.11155924, -0.12473597, -223946.52, -51267.086, 0.000036409245, 10.000418, 9.997881 
1.9552821e+3, 2.923806e+2, 100957.13, -194737.42, 37533.758, -0.07153197, 0.17743582, 105647.06, 180317.81, 0.00016708692, 10.00195, 9.998012 
1.9553196e+3, 3.023762e+2, 185736.97, -270889.38, -26293.922, -0.14517516, -0.0030232717, 187246.06, 187246.06, 0.00045041088, 10.002789, 9.996776 
1.9553576e+3, 3.1237233e+2, 123755.71, -146833.47, -95556.31, 0.09103983, -0.10739804, 154098.17, 154098.17, 0.0008724593, 10.001694, 9.998126 
1.9646516e+3, 1.223519e+2, -1834822.0, -1516851.4, 50495.246, 0.24698882, -0.15923586, -1509025.1, 231917.77, 0.23177752, 9.997699, 10.002898 
1.9646801e+3, 1.3235304e+2, -1867028.5, -1875154.1, 36342.363, -0.4585737, 0.0018554359, -1834522.5, -191587.27, 0.1620495, 9.998912, 9.998689 
1.9647259e+3, 1.4235166e+2, -1631903.0, -1573962.0, 79884.2, 0.2899591, -0.043161582, -1517957.4, 26995.35, 0.093428105, 9.999199, 9.999982 
1.9647619e+3, 1.5235291e+2, -1475759.8, -1362902.1, 15193.587, 0.11568923, -0.014758497, -1360892.5, 86047.2, 0.04057487, 9.999234, 10.000737 
1.9647974e+3, 1.6235314e+2, -1473736.8, -1442847.5, 13290.222, -0.068157874, -0.010212709, -1437916.5, -88978.98, 0.011385711, 9.999118, 9.999581 
1.9648352e+3, 1.7235227e+2, -1398041.9, -1367807.4, 24062.2, -0.03909144, -0.07310489, -1354507.6, -103559.42, 0.0013940044, 9.999047, 9.999438 
1.9648732e+3, 1.8235208e+2, -1308188.4, -1265989.5, 14325.535, 0.027288742, -0.025392894, -1261585.9, -108633.39, 0.000014255441, 9.998947, 9.999524 
1.9649103e+3, 1.9235346e+2, -1128877.9, -1094192.1, -21809.613, 0.07767292, 0.108713284, -1083670.5, -28728.893, 0.0, 9.999384, 9.999802 
1.9649471e+3, 2.0235379e+2, -1011298.8, -1083455.9, -41840.785, 0.09607503, 0.20861305, -992129.6, -35189.773, 0.0, 9.999899, 9.99897 
1.964983e+3, 2.1235156e+2, -804203.44, -932221.0, -86788.0, 0.031693723, 0.064066984, -760373.06, 98587.55, 0.0, 10.000666, 9.998953 
1.9650199e+3, 2.2234966e+2, -709254.75, -892606.94, -32088.797, 0.011298172, 0.012378977, -703801.06, 57177.777, 0.0, 10.000881, 9.998465 
1.9650589e+3, 2.3234886e+2, -734170.7, -847456.8, -12788.937, 0.05103337, 0.05872724, -732744.9, -69756.68, 0.0, 10.00002, 9.998509 
1.9650973e+3, 2.4234797e+2, -668826.8, -738635.6, -32439.357, 0.10050496, 0.12876531, -656080.06, -91082.125, 0.0, 9.999636, 9.998791 
1.9651344e+3, 2.523471e+2, -433381.78, -530757.2, -47324.9, 0.12926714, 0.10291959, -414171.5, 52834.54, 0.0, 10.000425, 9.999147 
1.9651712e+3, 2.623459e+2, -273839.66, -455517.47, 8179.834, 0.11124988, 0.103032395, -273472.1, 95544.67, 0.00000006167767, 10.001072, 9.998684 
1.9652073e+3, 2.723438e+2, -137562.36, -330285.2, -25957.023, -0.045031365, -0.012416868, -134127.55, 136907.53, 0.000003603985, 10.001308, 9.998744 
1.9652444e+3, 2.8234228e+2, -63803.15, -272503.03, 9537.705, -0.10827024, -0.0073673953, -63368.176, 109680.164, 0.00003430298, 10.001254, 9.998506 
1.965284e+3, 2.9234296e+2, -17507.387, -156325.55, 47458.293, 0.014333536, 0.15072377, -2833.7107, 72209.14, 0.00015136057, 10.000716, 9.998883 
1.9653222e+3, 3.023401e+2, -41547.47, -333949.97, 45917.484, -0.049512364, 0.054488514, -34506.36, -34506.36, 0.00039140965, 10.0010195, 9.997204 
1.9653587e+3, 3.123357e+2, 350644.94, 7321.935, -57994.09, -0.034390282, -0.11356023, 360176.66, 360176.66, 0.00072698283, 10.003033, 9.998563 
1.9746476e+3, 1.2231586e+2, -1739494.1, -1420677.4, -2267.2195, -0.025196318, -0.07644126, -1420661.3, 320635.0, 0.24301729, 9.997965, 10.003672 
1.9746841e+3, 1.3231501e+2, -1835263.0, -1838923.0, 81297.52, 0.019658657, -0.1725836, -1755774.9, -112471.586, 0.17062773, 9.999019, 9.998894 
1.9747218e+3, 1.4231397e+2, -1651535.1, -1651594.5, 70093.625, -0.08153877, -0.1564422, -1581471.1, -36155.46, 0.09895461, 9.999343, 9.999373 
1.9747593e+3, 1.523159e+2, -1493615.6, -1414763.3, 25290.79, -0.10433711, -0.018902065, -1407348.8, 39951.39, 0.04335473, 9.999301, 10.000341 
1.974797e+3, 1.6231622e+2, -1441082.8, -1403183.3, -3295.5798, -0.059730127, 0.016284432, -1402898.8, -53598.7, 0.012356995, 9.999248, 9.999789 
1.9748348e+3, 1.7231634e+2, -1367868.4, -1303177.0, 29959.236, -0.006742409, 0.01581695, -1291434.1, -40133.363, 0.0015709848, 9.999045, 9.999882 
1.9748724e+3, 1.8231648e+2, -1322198.3, -1303427.3, 11312.739, 0.014064792, 0.081918426, -1298113.5, -144812.36, 0.000019593592, 9.998978, 9.999256 
1.9749093e+3, 1.9231588e+2, -1173301.4, -1168597.9, 6799.3677, 0.0033740902, 0.06297244, -1163755.0, -108445.734, 0.0, 9.999309, 9.999327 
1.9749463e+3, 2.0231475e+2, -1089431.4, -1209678.9, -25413.12, -0.014121263, 0.07398145, -1084281.3, -126958.66, 0.0, 9.999744, 9.9981785 
1.9749832e+3, 2.1231283e+2, -895653.25, -1075146.1, -46709.008, -0.040917173, 0.047358677, -884225.8, -24882.598, 0.0, 10.000462, 9.998071 
1.9750203e+3, 2.2231145e+2, -745774.3, -904340.4, -64135.043, -0.05260141, 0.09946175, -723081.4, 38277.277, 0.0, 10.000596, 9.998525 
1.9750586e+3, 2.3231126e+2, -727688.1, -796423.8, -30449.256, 0.007815919, 0.16533576, -716139.7, -52778.254, 0.0, 9.999847, 9.998945 
1.9750968e+3, 2.423106e+2, -672561.6, -690221.06, -30402.234, 0.0591063, 0.21034174, -649732.9, -84365.14, 0.0, 9.99939, 9.999246 
1.9751345e+3, 2.5230902e+2, -424717.9, -471028.94, -2784.1665, 0.08527753, 0.066497944, -424551.13, 42828.51, 0.0, 10.00024, 9.999649 
1.9751719e+3, 2.623077e+2, -342688.13, -527193.8, 6883.193, 0.044736363, 0.03558468, -342431.7, 26958.87, 0.000000055759365, 10.000766, 9.998336 
1.975208e+3, 2.7230713e+2, -216345.95, -430017.72, -492.86362, -0.11078867, 0.122210376, -216344.83, 55053.625, 0.0000036492006, 10.001041, 9.9981785 
1.9752455e+3, 2.82306e+2, -68228.84, -222111.67, -22997.395, -0.16165915, 0.1801387, -64865.457, 108544.98, 0.00003270768, 10.000982, 9.998992 
1.9752853e+3, 2.923045e+2, 15330.997, -46573.777, 51571.28, 0.032932, 0.033445984, 44525.492, 119948.695, 0.00013942833, 10.000528, 9.999731 
1.9753231e+3, 3.023042e+2, -45531.496, -232856.66, 76746.61, -0.093256325, 0.117839925, -18104.352, -18104.352, 0.00034788318, 10.000576, 9.998102 
1.9753602e+3, 3.1230196e+2, 396338.25, 283113.5, 43197.81, -0.22827464, 0.031336974, 410936.9, 410936.9, 0.0006199965, 10.002304, 10.000786 
1.9846448e+3, 1.2227831e+2, -1930971.3, -1499126.4, -25131.791, -0.012668864, -0.058726996, -1497668.8, 243999.0, 0.25424254, 9.996642, 10.003669 
1.9846854e+3, 1.3227719e+2, -1825922.6, -1806361.4, 8582.639, 0.2845955, -0.20931168, -1803129.5, -159454.33, 0.17932345, 9.998934, 9.999181 
1.9847196e+3, 1.4227682e+2, -1735097.8, -1710327.1, 8960.464, -0.20188484, -0.13191922, -1707425.6, -161745.53, 0.104643695, 9.998844, 9.999221 
1.984758e+3, 1.5227853e+2, -1611618.1, -1487157.5, -36991.1, -0.109448686, -0.0019271296, -1476993.4, -29325.588, 0.046255346, 9.998554, 10.000205 
1.9847967e+3, 1.6227879e+2, -1555096.4, -1453815.9, -19937.566, 0.033400428, 0.033360418, -1450032.4, -100363.4, 0.013380272, 9.998459, 9.999811 
1.9848341e+3, 1.7227915e+2, -1340768.9, -1276603.1, -29803.943, 0.020728778, 0.046056625, -1264895.8, -13228.91, 0.0017591557, 9.999185, 9.99999 
1.9848713e+3, 1.8227932e+2, -1232170.9, -1275448.5, -34542.773, 0.007043675, 0.11273309, -1213048.9, -59382.46, 0.0000256483, 9.999646, 9.999126 
1.9849089e+3, 1.9227806e+2, -1105738.8, -1161987.6, -42585.86, 0.017670332, 0.047516875, -1082828.5, -27148.291, 0.0, 9.999848, 9.999121 
1.9849464e+3, 2.0227656e+2, -1053462.6, -1191624.3, -5032.0347, 0.029672425, 0.03428013, -1053279.6, -95582.914, 0.0, 9.99999, 9.998186 
1.9849837e+3, 2.1227512e+2, -882567.6, -1062891.6, 18969.744, -0.021904327, 0.051275577, -880593.6, -20880.963, 0.0, 10.000531, 9.998121 
1.985021e+3, 2.2227389e+2, -710051.25, -897151.25, 33083.77, -0.03420826, 0.11896818, -704373.56, 57352.93, 0.0, 10.0008745, 9.998439 
1.9850591e+3, 2.322732e+2, -626879.5, -764124.7, -9612.234, 0.05894007, 0.14879455, -626209.56, 37524.676, 0.0, 10.000607, 9.998798 
1.9850972e+3, 2.4227232e+2, -555763.8, -648335.94, -2978.7693, 0.13546522, 0.18563879, -555668.06, 10075.167, 0.0, 10.000305, 9.999063 
1.9851346e+3, 2.522708e+2, -432906.22, -502643.66, -47286.355, 0.08192961, 0.07197183, -409022.7, 58732.918, 0.0, 10.00033, 9.999373 
1.985172e+3, 2.622695e+2, -380886.6, -525355.94, -37868.008, 0.018251153, 0.05292592, -371562.5, -1795.2992, 0.00000004684117, 10.000426, 9.998503 
1.9852096e+3, 2.7226898e+2, -232919.58, -406836.13, -21601.064, -0.043768734, 0.12554097, -230276.8, 41497.25, 0.000003631824, 10.000805, 9.998444 
1.9852477e+3, 2.8226814e+2, -26410.738, -191383.83, 1670.9824, -0.023813581, 0.18990104, -26393.814, 147389.44, 0.000030883682, 10.001241, 9.999064 
1.9852868e+3, 2.9226652e+2, 149052.19, 7891.043, -37620.03, 0.0936879, 0.041489046, 158452.14, 234248.86, 0.00012822116, 10.001524, 9.999604 
1.985324e+3, 3.0226603e+2, 136360.64, -113963.79, 1999.2224, -0.09799984, 0.1024638, 136376.61, 136376.61, 0.0003141248, 10.001646, 9.998406 
1.9853634e+3, 3.1226477e+2, 313627.2, 255828.92, -151596.6, -0.06648818, 0.08320644, 439054.63, 439054.63, 0.0005496592, 10.0016, 10.000952 
1.9946426e+3, 1.222407e+2, -1977384.3, -1592282.5, -6049.6226, 0.03506262, 0.082477756, -1592187.5, 149855.86, 0.26535824, 9.996761, 10.002763 
1.9946831e+3, 1.3223958e+2, -1780719.1, -1733709.1, 35985.895, 0.13085231, -0.08702402, -1714231.9, -70179.84, 0.18805622, 9.99901, 9.999644 
1.9947189e+3, 1.4224009e+2, -1686635.0, -1641619.0, -25336.2, -0.19303097, 0.026962448, -1630237.0, -84189.12, 0.11045076, 9.99898, 9.999631 
1.9947578e+3, 1.5224071e+2, -1596032.8, -1453786.5, -39656.66, 0.0020305037, 0.028292567, -1443477.8, 4566.163, 0.04926506, 9.998559, 10.000432 
1.9947958e+3, 1.6224071e+2, -1554186.5, -1469208.3, -13493.605, 0.07112667, 0.032077353, -1467117.1, -117071.64, 0.014456319, 9.99853, 9.999672 
1.9948325e+3, 1.7224051e+2, -1357172.4, -1309875.6, 5248.8477, -0.071623854, 0.011349603, -1309300.1, -57252.215, 0.0019582892, 9.999184, 9.99976 
1.99487e+3, 1.8224029e+2, -1225101.5, -1269356.1, -35448.914, -0.1357707, 0.05384108, -1205440.8, -51390.17, 0.000032105352, 9.999689, 9.999146 
1.9949089e+3, 1.9223994e+2, -1109031.8, -1146497.9, -26807.715, 0.015484087, 0.06765147, -1095060.4, -39005.406, 0.0, 9.9997635, 9.999263 
1.9949472e+3, 2.0223938e+2, -1025016.06, -1098738.0, -5410.114, 0.09292827, 0.11166819, -1024621.1, -66560.164, 0.0, 9.99984, 9.998897 
1.9949843e+3, 2.1223831e+2, -842240.06, -939574.7, 51263.793, -0.02571312, 0.07452932, -820221.56, 39848.293, 0.0, 10.000359, 9.999049 
1.9950217e+3, 2.2223689e+2, -765250.44, -954177.7, 21404.021, -0.082182705, 0.07209901, -762855.9, -772.6576, 0.0, 10.000622, 9.998171 
1.9950601e+3, 2.322348e+2, -704404.0, -881390.75, -5334.5693, 0.08834664, 0.021913119, -704243.4, -40137.402, 0.0, 10.000409, 9.99809 
1.9950981e+3, 2.4223304e+2, -667005.2, -810934.2, -18615.318, 0.17307988, 0.0504652, -664636.5, -98510.89, 0.0, 10.000007, 9.998093 
1.9951344e+3, 2.522323e+2, -533520.9, -664979.6, -29934.855, 0.0121994, 0.11561979, -527025.3, -58890.31, 0.0, 10.000126, 9.998357 
1.9951715e+3, 2.622311e+2, -392649.6, -482739.2, -39644.523, -0.10315635, 0.1557832, -377688.38, -7540.638, 0.000000042002604, 10.000146, 9.998928 
1.9952112e+3, 2.7222934e+2, -199095.7, -277790.5, 9369.194, 0.018411597, 0.008862052, -197995.61, 74166.81, 0.0000035134383, 10.000567, 9.999438 
1.9952506e+3, 2.822284e+2, -112162.16, -302297.5, -2355.6367, 0.11383486, 0.02932013, -112132.98, 62036.24, 0.00002820436, 10.000946, 9.998448 
1.995288e+3, 2.9222864e+2, 27404.775, -177025.81, -10346.922, 0.035692863, 0.15885463, 27927.133, 104094.45, 0.00011358975, 10.001225, 9.998478 
1.9953243e+3, 3.0222565e+2, 31041.361, -202500.42, -19992.314, -0.25616163, 0.039826635, 32740.44, 32740.44, 0.0002776181, 10.001118, 9.99804 
1.9953665e+3, 3.1222475e+2, 66584.95, -96341.414, -52044.324, 0.028531887, 0.07414268, 81790.59, 81790.59, 0.00049017585, 10.000955, 9.998816 
2.0046419e+3, 1.2220305e+2, -1664938.0, -1562748.8, 11572.434, 0.15948075, 0.15745243, -1561454.6, 180962.02, 0.27641812, 9.999635, 10.001656 
2.0046796e+3, 1.3220328e+2, -1836720.0, -1734605.0, 78234.05, -0.07558647, 0.10436959, -1692241.8, -47827.78, 0.1968332, 9.998505, 9.999872 
2.004719e+3, 1.4220287e+2, -1808609.3, -1686035.6, 11658.846, -0.018054077, 0.10073483, -1684936.5, -138517.69, 0.11636926, 9.998093, 9.999743 
2.0047572e+3, 1.5220304e+2, -1552192.8, -1436688.4, -33622.953, 0.08196434, 0.05424482, -1427613.8, 20803.404, 0.05238356, 9.998868, 10.000408 
2.0047945e+3, 1.6220291e+2, -1433012.8, -1427451.5, 21232.406, 0.05006019, 0.051347677, -1408818.4, -58400.348, 0.015589432, 9.999406, 9.999549 
2.0048322e+3, 1.7220241e+2, -1254942.5, -1284995.5, 26488.682, -0.04902213, 0.013292553, -1239515.0, 12907.749, 0.0021699998, 9.999951, 9.999577 
2.0048705e+3, 1.8220189e+2, -1166527.3, -1240395.9, -3209.895, -0.052026544, 0.03474887, -1166388.0, -11960.168, 0.00003871999, 10.000106, 9.999138 
2.0049089e+3, 1.9220176e+2, -1058009.8, -1122366.8, -36057.12, 0.043713506, 0.072475925, -1041860.44, 14569.2705, 0.0, 10.000136, 9.999248 
2.0049472e+3, 2.0220135e+2, -986936.25, -1064338.8, -9574.607, 0.09649613, 0.1298391, -985769.5, -27335.682, 0.0, 10.000045, 9.999034 
2.0049849e+3, 2.1220018e+2, -875654.8, -933572.6, -25997.967, 0.026736299, 0.06504546, -865697.0, -5253.9688, 0.0, 10.000039, 9.99925 
2.0050228e+3, 2.2219871e+2, -843253.2, -974714.75, -69981.55, 0.01034048, 0.04431703, -812973.8, -50517.54, 0.0, 10.000046, 9.998296 
2.0050606e+3, 2.3219684e+2, -699845.06, -866577.94, -79079.445, 0.10192791, 0.011480493, -668304.94, -3827.7478, 0.0, 10.00043, 9.998167 
2.0050983e+3, 2.4219519e+2, -564340.3, -790333.25, -13473.406, 0.16036807, 0.05888625, -563539.9, 2956.1638, 0.0, 10.000796, 9.9978695 
2.0051353e+3, 2.5219423e+2, -442617.44, -655173.44, 1617.6257, 0.067850165, 0.12986459, -442605.13, 25903.623, 0.0, 10.000885, 9.998062 
2.0051728e+3, 2.6219288e+2, -277150.78, -444986.0, 43197.33, 0.006241424, 0.1762086, -266685.25, 103838.44, 0.000000029896977, 10.000985, 9.998794 
2.0052125e+3, 2.721908e+2, -98389.22, -246171.38, -369.15735, 0.07286214, 0.0111877555, -98388.3, 174153.13, 0.0000031274246, 10.001283, 9.9993305 
2.0052521e+3, 2.8218985e+2, -56640.39, -314096.72, -26714.371, 0.15244044, 0.043778207, -53897.656, 120651.18, 0.000025154262, 10.001488, 9.998113 
2.0052895e+3, 2.9219e+2, 27744.68, -238866.53, -50856.414, 0.081723094, 0.22316426, 37116.188, 113664.35, 0.00009776422, 10.001494, 9.997929 
2.0053264e+3, 3.0218604e+2, 147168.47, -66455.83, 16051.801, -0.14813074, 0.015182426, 148367.88, 148367.88, 0.00024035014, 10.001562, 9.9987755 
2.0053694e+3, 3.1218547e+2, 78833.62, -141634.95, 34673.094, 0.21574308, 0.006758023, 84158.07, 84158.07, 0.00043376363, 10.001235, 9.998401 
2.0146434e+3, 1.2216332e+2, -1745343.6, -1740716.4, -211345.58, 0.26893058, -0.06715447, -1531671.8, 211135.58, 0.28771394, 9.999906, 10.000135 
2.0146747e+3, 1.3216834e+2, -1830555.1, -1730863.5, 62062.168, -0.44250846, 0.35983157, -1701108.4, -56348.223, 0.20582092, 9.998536, 9.99989 
2.0147195e+3, 1.42165e+2, -1813488.4, -1716166.0, 11531.145, 0.16754404, 0.077098206, -1714818.4, -168024.13, 0.12247417, 9.998171, 9.999503 
2.0147555e+3, 1.5216543e+2, -1566481.1, -1466283.3, 3940.1626, -0.003044198, 0.07921392, -1466128.6, -17340.34, 0.055639356, 9.998874, 10.000193 
2.0147918e+3, 1.6216548e+2, -1414474.6, -1419113.0, 28143.549, -0.19596072, 0.10422891, -1388554.9, -37769.043, 0.016791714, 9.999533, 9.999549 
2.014833e+3, 1.7216492e+2, -1257423.9, -1286024.6, 54723.29, -0.00536241, 0.06410983, -1215163.3, 37627.18, 0.0023981123, 9.999939, 9.999576 
2.0148727e+3, 1.8216425e+2, -1165534.8, -1255669.1, -15935.077, 0.12702672, 0.0727327, -1162800.5, -8003.9087, 0.000045425786, 10.00017, 9.999008 
2.0149086e+3, 1.9216347e+2, -1081849.1, -1156904.9, -29562.533, -0.018240277, 0.0655403, -1071603.8, -14798.768, 0.0, 10.000072, 9.9990425 
2.0149453e+3, 2.0216247e+2, -1038281.1, -1136101.3, -23089.973, -0.11329245, 0.09193293, -1033104.75, -74289.56, 0.0, 9.999896, 9.998614 
2.014985e+3, 2.121608e+2, -946650.5, -1031951.94, -14385.838, 0.025230141, 0.031790797, -944289.7, -83458.4, 0.0, 9.99983, 9.998676 
2.015024e+3, 2.2215933e+2, -860754.5, -952434.4, -71248.19, 0.0988979, 0.039211053, -821873.7, -59027.867, 0.0, 9.999779, 9.998584 
2.01506e+3, 2.3215906e+2, -674334.56, -781096.2, -50138.77, -0.0072987704, 0.10442831, -654480.06, 10370.431, 0.0, 10.000271, 9.998837 
2.0150971e+3, 2.421584e+2, -574114.0, -744689.6, -15980.353, -0.05146152, 0.19034348, -572629.8, -5771.38, 0.0, 10.000523, 9.998313 
2.0151368e+3, 2.521564e+2, -447526.88, -617311.75, 16758.717, 0.119302176, 0.1223847, -445888.5, 22989.855, 0.0, 10.000685, 9.998418 
2.0151758e+3, 2.621544e+2, -363436.25, -561166.94, 39181.996, 0.17762157, 0.10433722, -355955.06, 14943.951, 0.0000000091701935, 10.000717, 9.998125 
2.0152132e+3, 2.7215332e+2, -204576.08, -407240.5, 29379.447, -0.0029949623, 0.13370308, -200402.98, 72508.51, 0.0000023642951, 10.001036, 9.99834 
2.0152515e+3, 2.821525e+2, -134422.58, -398464.8, -42241.16, -0.084055126, 0.25699535, -127829.51, 47091.17, 0.000021595964, 10.001163, 9.997684 
2.0152912e+3, 2.9215035e+2, -17336.158, -286746.03, -29200.906, 0.062428582, 0.22743697, -14207.452, 62733.027, 0.000083873885, 10.001275, 9.99771 
2.0153296e+3, 3.0214673e+2, 170966.95, 90021.42, -8591.099, -0.02248394, 0.013496462, 171868.72, 171868.72, 0.00020823472, 10.001132, 10.00004 
2.0153697e+3, 3.1214887e+2, 52114.03, 9459.459, 118030.0, 0.073259614, 0.08258418, 150728.13, 150728.13, 0.00038339235, 10.000422, 9.999792 
2.0246427e+3, 1.2212523e+2, -1911227.4, -1833342.3, -170177.36, 0.26613748, -0.061393414, -1697708.6, 45473.332, 0.29983783, 9.99868, 9.999854 
2.0246734e+3, 1.3213e+2, -1814435.5, -1708247.5, -25906.29, -0.41871658, 0.33094063, -1702264.4, -57127.53, 0.21537028, 9.998625, 9.999976 
2.0247184e+3, 1.4212741e+2, -1791718.1, -1722323.5, 19410.084, 0.25510213, 0.116318494, -1717263.4, -170100.58, 0.12892798, 9.998377, 9.999367 
2.0247546e+3, 1.5212716e+2, -1514803.6, -1487014.9, -13029.816, -0.0004698029, 0.08804952, -1481861.3, -32697.584, 0.05909158, 9.999419, 9.999789 
2.0247912e+3, 1.6212662e+2, -1387482.0, -1407161.9, -5546.424, -0.19553435, 0.079171315, -1386026.5, -34858.984, 0.018083457, 9.999763, 9.9995 
2.024833e+3, 1.7212655e+2, -1344334.3, -1321378.0, -10741.584, 0.06479092, 0.089185946, -1317135.9, -63968.11, 0.0026487417, 9.999362, 9.999589 
2.0248733e+3, 1.8212627e+2, -1326181.0, -1322943.1, -43444.4, 0.24299434, 0.13369888, -1281087.5, -125917.29, 0.000052423693, 9.999023, 9.999091 
2.024909e+3, 1.9212507e+2, -1138436.6, -1180203.0, -54926.383, 0.029588306, 0.07557308, -1100557.5, -43374.98, 0.0, 9.999652, 9.9990835 
2.0249453e+3, 2.0212378e+2, -1000794.6, -1120664.0, -3287.4333, -0.09446396, 0.06748914, -1000704.5, -41508.965, 0.0, 10.00017, 9.998577 
2.0249853e+3, 2.1212222e+2, -842665.94, -994892.4, 10354.949, 0.03833442, 0.02843003, -841964.8, 19246.133, 0.0, 10.000597, 9.998552 
2.0250243e+3, 2.2212085e+2, -699006.56, -871576.5, -992.8411, 0.11902918, 0.04941487, -699000.8, 64223.84, 0.0, 10.0008745, 9.998603 
2.0250605e+3, 2.3212059e+2, -565855.44, -718979.9, -40637.336, -0.009362019, 0.10915172, -555739.1, 109489.37, 0.0, 10.00098, 9.998911 
2.0250979e+3, 2.4212004e+2, -469868.66, -656806.9, -19414.729, -0.044762608, 0.1874431, -467873.63, 99360.9, 0.0, 10.001097, 9.998624 
2.025138e+3, 2.5211826e+2, -321504.94, -518989.78, -13249.577, 0.14586289, 0.10755871, -320619.97, 148631.36, 0.0, 10.001396, 9.998742 
2.0251775e+3, 2.6211634e+2, -253891.92, -536574.3, 41772.832, 0.24687228, 0.088902906, -247848.25, 123422.086, 0.000000001074916, 10.001596, 9.9978695 
2.0252149e+3, 2.7211505e+2, -177427.75, -444864.4, 32188.908, 0.056912366, 0.14668229, -173608.02, 99677.79, 0.0000018159459, 10.00147, 9.99786 
2.0252529e+3, 2.8211388e+2, -89594.04, -372366.3, 22021.31, -0.04153161, 0.26354375, -87889.375, 87409.65, 0.000018189116, 10.001424, 9.997746 
2.0252925e+3, 2.921116e+2, 33321.21, -215736.58, 31769.055, 0.07622207, 0.19175397, 37309.703, 114629.23, 0.000072171526, 10.001431, 9.998115 
2.0253325e+3, 3.0210835e+2, 224122.48, 23407.914, 63049.094, 0.1476604, 0.018259933, 242284.28, 242284.28, 0.00017992329, 10.001812, 9.999298 
2.02537e+3, 3.121099e+2, 277776.22, 91493.46, -114026.93, 0.026647469, 0.15175498, 331867.5, 331867.5, 0.00033564065, 10.001993, 9.999641 
2.034637e+3, 1.2208915e+2, -1832636.5, -1700413.1, 187741.61, -0.2491991, 0.17008488, -1567483.0, 176054.2, 0.3135409, 9.998765, 10.00103 
2.0346755e+3, 1.320877e+2, -1789294.3, -1694565.4, -57375.938, -0.107906744, -0.034658305, -1667529.6, -21980.697, 0.22593072, 9.998769, 10.0000105 
2.0347153e+3, 1.4208992e+2, -1763235.8, -1713817.3, 29671.54, 0.052051004, 0.21573067, -1699913.8, -152387.86, 0.13594478, 9.998588, 9.999326 
2.034754e+3, 1.5208818e+2, -1543421.3, -1557181.0, 29244.74, -0.018764807, 0.0818649, -1520258.0, -70714.32, 0.06282382, 9.999465, 9.999282 
2.0347925e+3, 1.6208619e+2, -1384984.8, -1425718.0, -29211.203, -0.0920341, -0.03456452, -1369741.1, -18176.713, 0.019494196, 9.999859, 9.999329 
2.0348324e+3, 1.7208716e+2, -1335151.3, -1312384.6, -19665.404, 0.042094305, 0.08055583, -1301045.5, -47489.652, 0.0029308582, 9.999394, 9.999638 
2.0348717e+3, 1.8208791e+2, -1303043.5, -1281882.6, -42438.176, 0.13727565, 0.20929113, -1248725.8, -93176.3, 0.00006041413, 9.999056, 9.99936 
2.0349093e+3, 1.9208662e+2, -1128083.9, -1135328.3, -19762.008, 0.07988993, 0.11330702, -1111614.9, -54053.004, 0.0, 9.999557, 9.999437 
2.0349468e+3, 2.0208529e+2, -998896.06, -1081920.0, 1220.3859, 0.0025245147, 0.06560337, -998878.1, -39303.47, 0.0, 10.000024, 9.998913 
2.0349851e+3, 2.1208437e+2, -843581.3, -954304.4, 37356.703, -0.046895783, 0.055909067, -832156.44, 29426.238, 0.0, 10.000414, 9.998921 
2.0350233e+3, 2.2208323e+2, -757772.8, -921172.94, -3863.2441, -0.08367125, 0.0809889, -757681.5, 5911.845, 0.0, 10.000576, 9.9984 
2.0350616e+3, 2.3208147e+2, -636709.1, -807881.7, -20768.33, -0.02530779, 0.03482658, -634225.3, 31385.615, 0.0, 10.000739, 9.998412 
2.0350999e+3, 2.4208003e+2, -506099.25, -667365.56, -21644.922, 0.017908102, 0.05391699, -503244.66, 64380.72, 0.0, 10.000817, 9.998687 
2.0351385e+3, 2.520797e+2, -322943.63, -483939.38, 8642.859, 0.038591854, 0.0890699, -322480.97, 147147.56, 0.0, 10.001225, 9.999069 
2.0351775e+3, 2.6207864e+2, -300015.4, -560332.0, 26200.008, 0.060149092, 0.13655609, -297404.66, 74234.29, 0.000000023664393, 10.001303, 9.997841 
2.035217e+3, 2.7207574e+2, -218483.4, -484101.2, 41214.715, 0.10894352, 0.03871881, -212235.28, 61432.555, 0.0000019634658, 10.001265, 9.997691 
2.035256e+3, 2.8207365e+2, -109940.02, -326315.16, 1653.7239, 0.09218227, 0.055895668, -109927.38, 65760.695, 0.000016146072, 10.001062, 9.99823 
2.0352933e+3, 2.9207346e+2, 51585.133, -112687.76, 51440.37, -0.008265562, 0.12283639, 66363.63, 144051.4, 0.00006227005, 10.001142, 9.998968 
2.0353343e+3, 3.020705e+2, -59476.98, -421080.28, 53968.676, 0.11634052, 0.041104235, -51594.094, -51594.094, 0.00015436458, 10.001225, 9.996508 
2.0353712e+3, 3.120669e+2, 100306.2, -119499.61, -83293.72, -0.108520426, 0.003207854, 128303.59, 128303.59, 0.0002908974, 10.001371, 9.998462 
2.0446348e+3, 1.2205015e+2, -1844650.6, -1675128.1, 219420.27, -0.3113511, 0.31920892, -1524666.6, 219253.84, 0.3294151, 9.998542, 10.001463 
2.0446761e+3, 1.3204454e+2, -1928646.9, -1739112.5, -206538.66, 0.15601274, -0.3004955, -1606637.4, 39334.137, 0.23787552, 9.997742, 10.000264 
2.044713e+3, 1.420502e+2, -1784076.6, -1678189.5, -59375.223, 0.0066513596, 0.26243564, -1651581.6, -103667.695, 0.14372098, 9.998264, 9.99972 
2.044753e+3, 1.5204886e+2, -1691414.9, -1586525.3, -36728.92, 0.015553219, 0.13237885, -1574942.9, -125013.29, 0.06692591, 9.998287, 9.999639 
2.0447925e+3, 1.6204697e+2, -1604236.8, -1506428.6, -25439.922, 0.020654526, -0.004978323, -1500207.4, -148256.92, 0.021061258, 9.99823, 9.999566 
2.0448318e+3, 1.720477e+2, -1356003.8, -1306287.5, -30046.676, 0.065529466, 0.06663419, -1292149.1, -38204.902, 0.003256253, 9.99917, 9.999797 
2.0448709e+3, 1.8204845e+2, -1185317.0, -1198229.6, -26405.111, 0.124423794, 0.18169318, -1164590.3, -8652.917, 0.00007088071, 9.999757, 9.999595 
2.044909e+3, 1.9204795e+2, -1075272.1, -1075418.6, -31967.645, 0.11083141, 0.13254929, -1043377.6, 14564.543, 0.0, 9.999786, 9.999728 
2.0449473e+3, 2.0204723e+2, -1005754.25, -1063489.6, 13240.124, 0.07347725, 0.12229209, -1002862.75, -42913.89, 0.0, 9.999861, 9.999133 
2.0449857e+3, 2.120466e+2, -808041.2, -908082.2, 16618.848, -0.016424457, 0.11896167, -805352.75, 56601.48, 0.0, 10.000535, 9.999183 
2.0450243e+3, 2.2204562e+2, -686943.75, -878282.8, -17336.736, -0.049982324, 0.13946217, -685385.6, 78577.46, 0.0, 10.001008, 9.998502 
2.045063e+3, 2.3204318e+2, -602434.1, -788194.5, -27732.725, 0.0557626, 0.024264028, -598382.25, 67603.44, 0.0, 10.000941, 9.998462 
2.0451015e+3, 2.4204123e+2, -508638.3, -720858.6, 23742.89, 0.12067128, 0.0043302495, -506014.44, 61990.402, 0.0, 10.001009, 9.9982395 
2.0451397e+3, 2.5204104e+2, -315597.1, -551151.9, -32580.531, 0.0280984, 0.1193443, -311173.8, 158835.78, 0.0, 10.001582, 9.998437 
2.0451784e+3, 2.620401e+2, -196593.98, -502726.78, -48840.348, 0.011709187, 0.21589525, -188990.83, 183029.9, 0.00000011200642, 10.001957, 9.997925 
2.0452191e+3, 2.7203685e+2, -129312.82, -405889.6, -42321.77, 0.17804171, 0.057570618, -122981.67, 151068.64, 0.000002326167, 10.001713, 9.9980135 
2.0452583e+3, 2.8203434e+2, -43913.832, -288565.25, -39059.285, 0.22257148, 0.0084452545, -37829.234, 138243.58, 0.000014696717, 10.001475, 9.998291 
2.0452946e+3, 2.9203403e+2, 71373.24, -106709.81, -84370.6, 0.022308756, 0.078646466, 104997.08, 183070.94, 0.00005375532, 10.00131, 9.99892 
2.0453364e+3, 3.020322e+2, 39922.08, -390981.25, 37009.33, 0.20450841, 0.11610532, 43077.617, 43077.617, 0.00013253847, 10.001976, 9.996342 
2.0453748e+3, 3.1202713e+2, 497432.66, 40525.49, -60968.766, -0.021515744, -0.032615673, 505428.28, 505428.28, 0.0002539401, 10.004184, 9.998211 
2.0546354e+3, 1.2200899e+2, -1834519.3, -1730943.3, 38979.56, -0.17959063, 0.47267467, -1717913.0, 26411.59, 0.3476065, 9.9988165, 10.000542 
2.0546746e+3, 1.3200071e+2, -1884024.5, -1658122.4, -157348.06, 0.19086291, -0.44130203, -1577382.0, 69020.99, 0.2513395, 9.997759, 10.000878 
2.054711e+3, 1.420081e+2, -1708615.5, -1555114.4, -62748.094, -0.07716588, 0.23286684, -1532728.9, 15600.237, 0.15236652, 9.998398, 10.000516 
2.0547512e+3, 1.520093e+2, -1599204.3, -1409222.0, -27516.688, -0.038106557, 0.24302456, -1405316.9, 45003.555, 0.071473114, 9.998324, 10.000864 
2.0547907e+3, 1.6200912e+2, -1553357.1, -1428371.6, -17814.598, -0.0213385, 0.18284568, -1425882.1, -73557.805, 0.022826005, 9.998335, 10.000059 
2.0548308e+3, 1.7200817e+2, -1338264.1, -1269698.3, 15245.236, 0.022630658, 0.05716847, -1266461.4, -12128.869, 0.0036400491, 9.999163, 10.000055 
2.0548701e+3, 1.8200776e+2, -1161280.3, -1170644.3, -28199.357, 0.047552913, 0.03555629, -1137376.9, 18958.82, 0.00008593674, 9.999836, 9.999754 
2.054908e+3, 1.920088e+2, -1061848.9, -1047094.4, -24023.303, -0.00584334, 0.11958377, -1029341.1, 28984.885, 0.0, 9.999764, 9.999943 
2.0549463e+3, 2.0200941e+2, -1020045.7, -1061326.1, 18772.295, -0.0452459, 0.22470748, -1012785.75, -52465.42, 0.0, 9.999725, 9.999212 
2.0549865e+3, 2.1200876e+2, -835817.5, -919782.94, 55215.88, 0.010266773, 0.21439709, -808436.44, 53890.5, 0.0, 10.000332, 9.999201 
2.0550266e+3, 2.2200768e+2, -707741.4, -848992.6, -24240.248, 0.06437125, 0.21161756, -703697.25, 60639.664, 0.0, 10.000706, 9.998845 
2.0550647e+3, 2.3200555e+2, -597071.1, -725990.56, -19090.791, 0.114266306, 0.07508264, -594303.56, 72051.0, 0.0, 10.000724, 9.998993 
2.0551027e+3, 2.4200349e+2, -623573.1, -881824.4, 24454.648, 0.108261056, 0.041307654, -621277.9, -52903.37, 0.0, 10.0006895, 9.99728 
2.0551409e+3, 2.5200206e+2, -463952.88, -798719.0, 5312.654, -0.006743086, 0.1805602, -463868.56, 6528.0713, 0.0, 10.001335, 9.99685 
2.0551799e+3, 2.6200053e+2, -237601.39, -511781.1, -60183.31, -0.050319534, 0.3137854, -224972.66, 147444.58, 0.00000017468948, 10.001636, 9.998014 
2.0552208e+3, 2.719982e+2, -107219.67, -315383.3, -36643.79, 0.13484621, 0.18578571, -100957.516, 173477.23, 0.0000023499456, 10.001512, 9.998736 
2.0552595e+3, 2.8199562e+2, -142721.98, -401849.16, -60552.723, 0.17504753, 0.11250027, -129270.35, 47185.043, 0.000012296112, 10.001098, 9.997688 
2.0552959e+3, 2.9199317e+2, -34711.824, -272113.16, -67745.25, -0.008869775, 0.042563204, -16740.377, 61738.113, 0.000044415407, 10.001072, 9.997896 
2.0553383e+3, 3.0199248e+2, 87009.08, -157427.13, 79238.23, 0.17198777, 0.17393719, 110447.97, 110447.97, 0.00011238554, 10.001431, 9.99819 
2.0553796e+3, 3.1198952e+2, 355041.16, -22708.924, -50253.55, -0.011709648, -0.022891615, 361612.28, 361612.28, 0.00022337346, 10.003231, 9.998216 
2.0646347e+3, 1.2196639e+2, -2335723.8, -1972547.3, 73176.016, 0.060402907, 0.3974697, -1958357.5, -213618.86, 0.36771804, 9.99541, 10.000423 
2.0646724e+3, 1.3195997e+2, -1671075.4, -1491700.1, -32995.582, 0.16570921, -0.42581528, -1485823.1, 160977.7, 0.26616043, 9.998729, 10.001808 
2.0647095e+3, 1.419676e+2, -1681718.9, -1519840.6, 60625.758, -0.043321237, 0.20618647, -1499653.0, 49072.44, 0.1618756, 9.998443, 10.000786 
2.0647497e+3, 1.5196922e+2, -1544252.4, -1360430.1, 7388.7603, -0.008916478, 0.23005538, -1360133.6, 90579.3, 0.07651462, 9.998566, 10.001121 
2.0647895e+3, 1.6196984e+2, -1481757.8, -1370094.9, 9670.038, 0.027168514, 0.22164406, -1369263.6, -16554.072, 0.024829434, 9.998752, 10.000238 
2.0648298e+3, 1.7196895e+2, -1343454.1, -1254497.4, 13669.292, 0.046042964, 0.08918752, -1252444.3, 2272.8552, 0.0041003036, 9.999074, 10.000183 
2.0648697e+3, 1.8196842e+2, -1252932.8, -1209007.1, -24904.99, 0.06167132, 0.04489106, -1197764.1, -41042.535, 0.000108260756, 9.999195, 9.999786 
2.0649077e+3, 1.9196936e+2, -1062488.9, -1043408.4, -65145.707, -0.003378016, 0.120602, -987108.06, 71604.086, 0.0, 9.999753, 9.999967 
2.064946e+3, 2.0196983e+2, -978837.06, -1051685.8, -18204.316, -0.022534212, 0.21454251, -974541.25, -13833.54, 0.0, 10.0000515, 9.999115 
2.0649871e+3, 2.1196872e+2, -919682.9, -978481.75, -21960.621, 0.065486096, 0.17336287, -912386.3, -49667.2, 0.0, 9.999843, 9.999028 
2.0650277e+3, 2.2196747e+2, -816028.2, -892220.44, -80110.43, 0.13536133, 0.16641477, -765416.94, -685.8627, 0.0, 9.999915, 9.998932 
2.0650655e+3, 2.3196638e+2, -545751.25, -676149.4, -119448.47, 0.11589593, 0.11512069, -474866.3, 191873.44, 0.0, 10.000983, 9.999202 
2.0651038e+3, 2.4196501e+2, -454108.22, -804880.44, -51783.65, 0.09302351, 0.14152545, -446623.25, 122130.26, 0.0, 10.001871, 9.997239 
2.0651431e+3, 2.5196263e+2, -374569.8, -769014.3, -3367.2288, 0.044827063, 0.19898961, -374541.06, 96243.66, 0.0, 10.002008, 9.996723 
2.0651826e+3, 2.6196042e+2, -181650.77, -485127.7, 7646.682, 0.043305956, 0.2706991, -181458.22, 191353.67, 0.00000012472299, 10.002007, 9.998026 
2.0652221e+3, 2.7195898e+2, -37844.11, -264145.3, -40440.086, 0.14289473, 0.22251344, -30834.572, 243987.13, 0.0000018192295, 10.001916, 9.998892 
2.0652613e+3, 2.819573e+2, -35610.043, -382041.38, -43278.953, 0.19733478, 0.23320562, -30285.143, 146549.53, 0.000008845643, 10.00196, 9.997417 
2.0652989e+3, 2.9195425e+2, 87384.58, -276793.88, -65333.34, 0.1245005, 0.16015197, 98750.59, 177615.27, 0.000033872344, 10.0021925, 9.997325 
2.0653403e+3, 3.019521e+2, 256940.52, 3084.688, 112339.164, 0.21821304, 0.15074497, 299514.2, 299514.2, 0.00009226449, 10.002192, 9.998972 
2.065383e+3, 3.1195125e+2, 17230.293, -133063.8, -264972.44, 0.17398533, 0.06944812, 217505.61, 217505.61, 0.00019361054, 10.000647, 9.998734 
2.0746316e+3, 1.2192217e+2, -2289592.5, -1886719.3, 85198.41, 0.13251981, 0.05621553, -1869442.6, -124278.57, 0.38886976, 9.995466, 10.000977 
2.0746687e+3, 1.3192268e+2, -1584284.0, -1355072.9, -10562.895, -0.10120559, -0.22425778, -1354587.1, 292573.7, 0.28190908, 9.99885, 10.003095 
2.0747085e+3, 1.4192876e+2, -1678136.0, -1539791.6, 32342.93, -0.05976774, 0.18783583, -1532603.8, 16498.348, 0.17213808, 9.998575, 10.000551 
2.0747483e+3, 1.519285e+2, -1583374.4, -1444551.0, 25152.7, -0.024464857, 0.08335114, -1440134.1, 10974.01, 0.08207624, 9.998613, 10.000471 
2.0747885e+3, 1.619288e+2, -1474457.3, -1383362.3, 8309.0, 0.00739903, 0.09168111, -1382610.6, -29502.193, 0.027111659, 9.998871, 10.000092 
2.074829e+3, 1.7193003e+2, -1340629.6, -1248442.8, 31460.074, 0.026128972, 0.1667294, -1238729.9, 16368.118, 0.0046569863, 9.999077, 10.000221 
2.0748688e+3, 1.8193054e+2, -1256111.6, -1231260.0, -21146.727, 0.027571686, 0.23306692, -1219158.5, -62064.977, 0.00014131474, 9.999264, 9.999599 
2.0749077e+3, 1.919296e+2, -1093245.6, -1090894.8, -36554.195, 0.01262687, 0.14528836, -1055497.1, 3604.3928, 0.0000000002137382, 9.999682, 9.999676 
2.0749468e+3, 2.0192829e+2, -1020273.8, -1108928.8, -33802.36, -0.0010286183, 0.08998589, -1008856.1, -47743.023, 0.0, 9.99992, 9.998788 
2.0749868e+3, 2.1192624e+2, -968719.6, -1040344.6, -18172.498, 0.029497722, -0.010283671, -964372.75, -101239.77, 0.0, 9.999664, 9.998692 
2.0750266e+3, 2.2192483e+2, -876314.5, -941284.56, -61245.703, 0.024240213, -0.009724692, -839471.94, -74324.67, 0.0, 9.999604, 9.998735 
2.075065e+3, 2.319256e+2, -595359.94, -717140.4, -62470.336, -0.052074447, 0.1433004, -569013.9, 98127.91, 0.0, 10.000734, 9.999034 
2.075104e+3, 2.4192564e+2, -449844.88, -716436.6, -47253.152, -0.084158435, 0.29295394, -441717.1, 127426.69, 0.0, 10.0015335, 9.998006 
2.0751452e+3, 2.5192267e+2, -327968.22, -618291.3, 10955.801, 0.052675474, 0.17830563, -327555.38, 143620.19, 0.0, 10.0017805, 9.997866 
2.0751855e+3, 2.6191977e+2, -239618.17, -516923.3, -11623.257, 0.122599766, 0.11280488, -239131.84, 134073.8, 0.000000021824269, 10.001636, 9.997984 
2.0752236e+3, 2.7191895e+2, -105181.86, -343693.72, -29351.271, 0.06814034, 0.16487266, -101622.99, 173590.56, 0.00000084431264, 10.001667, 9.998464 
2.0752625e+3, 2.8191873e+2, -102762.69, -429006.75, -57726.613, 0.09304635, 0.34620795, -92849.58, 84366.586, 0.000005133315, 10.001578, 9.997272 
2.0753025e+3, 2.9191673e+2, 21346.506, -352682.28, -34914.996, 0.26613185, 0.3965412, 24577.848, 103815.52, 0.000023723636, 10.001911, 9.996944 
2.0753421e+3, 3.0191106e+2, 129057.914, -95389.59, 55393.258, 0.13064036, 0.08250816, 141984.4, 141984.4, 0.00007269807, 10.0015335, 9.998583 
2.0753835e+3, 3.1191358e+2, -59622.473, -85937.55, -258760.55, 0.1164813, 0.33607537, 186314.84, 186314.84, 0.00016065389, 9.999855, 9.999395 
2.0846294e+3, 1.2188034e+2, -1978860.3, -1778012.6, 115226.58, 0.279105, -0.15696374, -1725589.8, 19979.928, 0.40993002, 9.997776, 10.0006695 
2.084666e+3, 1.3188538e+2, -1830536.4, -1463452.8, -22437.205, -0.15535322, 0.01757666, -1462086.4, 185438.66, 0.29801235, 9.997062, 10.002954 
2.084707e+3, 1.4188844e+2, -1723220.0, -1565401.4, -30333.18, -0.02998626, 0.1318164, -1559772.0, -10274.638, 0.18298064, 9.998328, 10.000459 
2.0847473e+3, 1.5188764e+2, -1546183.1, -1463664.3, -42944.336, -0.0062297834, 0.004897278, -1445370.8, 6136.6797, 0.088167645, 9.999038, 10.000134 
2.0847878e+3, 1.6188806e+2, -1420541.1, -1379002.0, -22814.379, 0.052056875, 0.054480113, -1368919.1, -15413.508, 0.029713616, 9.999318, 9.999925 
2.0848283e+3, 1.718895e+2, -1271987.4, -1226544.3, -39408.62, 0.04224637, 0.16396509, -1203776.1, 51718.008, 0.005333032, 9.9995775, 10.00015 
2.0848684e+3, 1.8189012e+2, -1201280.3, -1209179.8, -66726.08, 0.041207626, 0.24601021, -1138387.1, 19102.744, 0.00018960002, 9.999659, 9.999574 
2.0849077e+3, 1.91889e+2, -1039411.06, -1068041.8, -80222.92, 0.040494684, 0.14689212, -972236.25, 87263.37, 0.000000020895914, 10.000072, 9.999647 
2.0849471e+3, 2.0188762e+2, -945155.8, -1042819.0, -39584.13, 0.047609676, 0.07992647, -931127.0, 30384.557, 0.0, 10.000348, 9.999018 
2.084987e+3, 2.1188578e+2, -774796.3, -906277.0, -8422.35, 0.04633265, -0.032390963, -774258.94, 89269.05, 0.0, 10.000851, 9.999023 
2.0850268e+3, 2.2188438e+2, -654691.44, -875651.56, 12159.031, 0.023933476, -0.037416223, -654024.4, 111517.08, 0.0, 10.001276, 9.998399 
2.0850654e+3, 2.3188467e+2, -527664.9, -754592.94, -37225.49, -0.09397342, 0.123974174, -521714.4, 145829.22, 0.0, 10.001469, 9.99844 
2.085105e+3, 2.4188453e+2, -439614.16, -665133.7, -49295.867, -0.11499802, 0.27718386, -429309.53, 140239.66, 0.0, 10.001391, 9.998429 
2.0851468e+3, 2.5188243e+2, -415734.06, -570288.2, -47456.91, 0.10455495, 0.1781129, -402325.4, 69244.625, 0.0, 10.000772, 9.998689 
2.0851874e+3, 2.618803e+2, -396318.13, -580977.94, -32868.598, 0.22240095, 0.13389225, -390642.13, -17051.37, 0.0, 10.000519, 9.99808 
2.0852245e+3, 2.7187914e+2, -156548.89, -401838.9, -62350.477, 0.03419088, 0.17470819, -141609.81, 133993.05, 0.000000115745564, 10.001473, 9.998152 
2.0852637e+3, 2.8187808e+2, -379.294, -369417.9, -73757.87, 0.043670543, 0.2908576, 13816.264, 191430.47, 0.0000020138657, 10.002214, 9.997378 
2.0853055e+3, 2.918756e+2, 34866.73, -295709.38, -63897.777, 0.3901121, 0.27171698, 46787.785, 126427.28, 0.000014504671, 10.001803, 9.997379 
2.0853437e+3, 3.018721e+2, 187146.48, -42881.625, 127642.305, 0.1736607, 0.12311425, 243948.58, 243948.58, 0.00005340342, 10.001757, 9.998863 
2.085385e+3, 3.1187546e+2, 358835.94, 36196.945, -201861.38, 0.1355957, 0.47258207, 455919.22, 455919.22, 0.0001257325, 10.002928, 9.998808 
2.0946267e+3, 1.2183981e+2, -2018007.8, -1908838.8, -160525.78, 0.114526086, -0.361367, -1793870.9, -47904.3, 0.42994058, 9.998007, 9.999595 
2.0946638e+3, 1.318479e+2, -1943760.3, -1627763.9, 28663.576, -0.11559447, 0.30066636, -1625184.9, 22710.668, 0.31401625, 9.997061, 10.001363 
2.0947047e+3, 1.418464e+2, -1704176.5, -1556382.8, -9848.317, -0.13794997, 0.044227406, -1555729.4, -5815.224, 0.19429262, 9.998442, 10.000475 
2.0947456e+3, 1.518466e+2, -1535621.9, -1457763.5, -13953.192, -0.09469047, 0.014572508, -1455338.5, -3427.2688, 0.094824284, 9.9991, 10.000145 
2.094787e+3, 1.6184758e+2, -1408849.9, -1394543.3, -30620.53, -0.014520852, 0.12846076, -1370251.6, -16350.262, 0.032688897, 9.999483, 9.99974 
2.0948274e+3, 1.7184739e+2, -1281344.3, -1256186.9, -25310.879, -0.025079992, 0.09330982, -1240501.4, 15404.513, 0.0061590113, 9.999617, 9.9999275 
2.0948674e+3, 1.8184704e+2, -1179269.9, -1184552.4, -68455.95, -0.05688602, 0.08833604, -1113404.3, 44507.082, 0.00026052183, 9.999746, 9.999701 
2.0949072e+3, 1.918476e+2, -1027813.2, -1035242.5, -57772.793, -0.045540884, 0.13436233, -973635.75, 86270.61, 0.00000016154512, 10.000032, 9.999891 
2.094947e+3, 2.0184791e+2, -920194.7, -957899.25, -36268.113, -0.030083427, 0.1959084, -898171.75, 63730.875, 0.0, 10.000207, 9.999666 
2.0949875e+3, 2.1184722e+2, -748817.6, -800964.1, 20078.965, -0.00039563677, 0.117516555, -741982.2, 121923.086, 0.0, 10.000637, 9.999844 
2.0950279e+3, 2.2184603e+2, -728347.6, -959837.44, 11485.114, -0.020644747, 0.09039305, -727779.25, 38135.92, 0.0, 10.00098, 9.997961 
2.0950665e+3, 2.3184356e+2, -634726.5, -921414.06, -17152.531, -0.14372692, 0.070087075, -633703.9, 34241.645, 0.0, 10.001228, 9.99741 
2.095106e+3, 2.4184166e+2, -485042.16, -680221.25, -75142.5, -0.1750327, 0.113570824, -459464.7, 110504.99, 0.0, 10.001053, 9.9984865 
2.0951475e+3, 2.5184196e+2, -403017.75, -500679.75, -57519.234, 0.08196937, 0.20339277, -376397.25, 95570.79, 0.0, 10.000583, 9.99926 
2.0951878e+3, 2.6184192e+2, -432169.38, -589314.94, -26789.7, 0.17137301, 0.31997076, -427727.88, -53759.113, 0.0, 10.000246, 9.998148 
2.0952252e+3, 2.7183932e+2, -211012.42, -462232.56, -6943.7705, -0.096953385, 0.23769505, -210820.64, 65171.426, 0.0, 10.001246, 9.997843 
2.0952643e+3, 2.818354e+2, -50148.055, -366616.88, -88362.28, -0.1196335, 0.09229638, -27147.754, 150880.78, 0.00000039293647, 10.001769, 9.99761 
2.0953071e+3, 2.918313e+2, 66577.18, -163997.53, -58258.414, 0.34504893, -0.16661143, 80461.09, 160528.66, 0.000007667558, 10.001522, 9.99842 
2.0953447e+3, 3.0183375e+2, 127545.15, 5241.6777, 128519.95, 0.063403614, 0.1706557, 208720.19, 208720.19, 0.000037309022, 10.001077, 9.999496 
2.0953874e+3, 3.1183633e+2, 139432.39, -174882.67, 54688.555, 0.009117626, 0.4319915, 148675.97, 148675.97, 0.00009614077, 10.0019655, 9.997782 
2.1046248e+3, 1.2180216e+2, -1937225.6, -1941284.4, -248591.13, 0.099020176, -0.08009586, -1690655.6, 55683.434, 0.44859928, 9.99897, 9.999054 
2.1046613e+3, 1.318079e+2, -1728913.1, -1606074.0, -8975.485, -0.11316527, 0.3861439, -1605421.8, 42868.473, 0.3298663, 9.998812, 10.000755 
2.1047038e+3, 1.4180489e+2, -1724268.6, -1567690.9, 18265.105, -0.044070095, 0.023677267, -1565588.4, -15266.08, 0.20615475, 9.998325, 10.000441 
2.104745e+3, 1.5180561e+2, -1544907.8, -1417679.8, 2062.072, -0.04070325, 0.009037916, -1417646.4, 34665.33, 0.10215144, 9.998866, 10.000536 
2.1047862e+3, 1.6180643e+2, -1458687.0, -1412873.8, 30814.93, -0.02025012, 0.079432555, -1397384.1, -43082.93, 0.036114734, 9.999124, 9.999771 
2.1048272e+3, 1.7180596e+2, -1296858.5, -1270775.4, 24081.488, -0.011328521, 0.02208333, -1256430.8, -122.63113, 0.007176738, 9.999538, 9.999855 
2.1048677e+3, 1.8180573e+2, -1180713.3, -1188106.5, 5558.792, 0.0072930628, 0.031098116, -1177734.1, -19421.271, 0.0003661867, 9.999751, 9.999671 
2.1049075e+3, 1.918065e+2, -1024686.6, -1035093.0, -27365.27, 0.0067982147, 0.09938032, -1002034.25, 58272.656, 0.00000091193453, 10.000072, 9.999867 
2.1049476e+3, 2.0180705e+2, -903523.1, -946858.25, -15050.024, 0.012990527, 0.18613586, -898809.1, 63492.45, 0.0, 10.000262, 9.999739 
2.1049878e+3, 2.1180673e+2, -789343.94, -817077.5, -32745.006, -0.016711282, 0.1371687, -767650.6, 96650.76, 0.0, 10.000292, 9.999932 
2.1050279e+3, 2.2180592e+2, -824929.56, -963601.1, -36030.26, -0.04352957, 0.1298326, -816126.8, -49818.926, 0.0, 10.000156, 9.998317 
2.1050677e+3, 2.3180345e+2, -745845.6, -922792.4, 5213.2334, -0.08490477, 0.0671988, -745692.2, -77355.42, 0.0, 10.000262, 9.9978485 
2.1051079e+3, 2.4180141e+2, -579393.9, -755687.4, 25241.416, -0.051989667, 0.07742245, -575851.0, -5489.4653, 0.0, 10.000527, 9.99823 
2.1051484e+3, 2.5180137e+2, -375880.38, -548744.44, -58431.098, 0.10137113, 0.18785112, -357982.7, 114382.5, 0.0, 10.001047, 9.9987 
2.1051882e+3, 2.6180115e+2, -228654.8, -478309.7, -40564.92, 0.15280397, 0.32013303, -222229.03, 152139.86, 0.0, 10.001564, 9.998287 
2.1052271e+3, 2.7179873e+2, -69816.34, -341906.94, 5259.3203, -0.039076485, 0.2180203, -69714.73, 206674.1, 0.0, 10.00198, 9.998321 
2.105267e+3, 2.8179514e+2, 46321.813, -300852.22, -25334.832, -0.039018348, 0.067155704, 48160.863, 226581.75, 0.00000006547354, 10.00238, 9.99775 
2.1053082e+3, 2.917915e+2, 187235.66, -130172.766, -118550.35, 0.25315177, -0.12776697, 226625.4, 307082.5, 0.000004738257, 10.002486, 9.99818 
2.1053462e+3, 3.0179393e+2, 251356.3, -49492.83, -2459.7231, 0.061534487, 0.27497482, 251376.4, 251376.4, 0.00002905632, 10.002392, 9.99849 
2.1053906e+3, 3.117921e+2, 204876.13, -68807.68, -176175.52, 0.16561647, 0.20258892, 291111.6, 291111.6, 0.00007991688, 10.002064, 9.998468 
2.1146223e+3, 1.2176547e+2, -1934378.9, -1990269.6, -118746.5, -0.14547725, 0.45927817, -1840333.8, -93627.06, 0.46656317, 9.999097, 9.998495 
2.1146585e+3, 1.317651e+2, -1677537.3, -1558850.5, -25745.56, -0.34397152, 0.23960759, -1553506.5, 95205.266, 0.34608045, 9.998967, 10.001186 
2.1147038e+3, 1.417637e+2, -1708867.9, -1586756.3, 20183.094, 0.070050836, 0.04725742, -1583506.8, -32783.543, 0.21890919, 9.998533, 10.000213 
2.114745e+3, 1.5176453e+2, -1472522.3, -1309195.5, 25473.791, 0.030013824, -0.01906954, -1305314.6, 147394.84, 0.110347085, 9.998983, 10.001318 
2.1147847e+3, 1.6176437e+2, -1413050.6, -1351009.3, 32731.232, -0.12680738, -0.112830356, -1336934.4, 17772.613, 0.040102176, 9.999257, 10.000138 
2.1148266e+3, 1.7176527e+2, -1286258.6, -1258898.0, 48480.01, -0.033354726, -0.048288193, -1222205.0, 34495.793, 0.008443992, 9.999571, 9.999927 
2.1148685e+3, 1.8176611e+2, -1190058.9, -1218458.6, 2967.9104, 0.075313956, 0.070196725, -1189752.0, -31056.76, 0.00052604213, 9.999801, 9.999435 
2.1149087e+3, 1.9176556e+2, -1063050.6, -1095286.1, -8706.062, 0.082018, 0.043486506, -1060849.6, -147.43504, 0.0000034897541, 9.999993, 9.999487 
2.1149482e+3, 2.017649e+2, -967467.4, -1036451.3, -24628.787, 0.024499053, 0.048491985, -959576.9, 3133.0125, 0.0, 10.000079, 9.999211 
2.1149871e+3, 2.1176438e+2, -864807.3, -917820.0, -24028.965, -0.121752456, 0.039265, -855536.9, 9178.827, 0.0, 10.000072, 9.999339 
2.1150266e+3, 2.2176409e+2, -799965.8, -840179.4, -43915.74, -0.20761673, 0.08827739, -771772.75, -5053.423, 0.0, 9.999845, 9.999315 
2.1150686e+3, 2.3176414e+2, -655396.1, -687029.0, 23053.893, -0.036881283, 0.11737045, -643254.75, 25464.46, 0.0, 10.0000515, 9.999571 
2.1151099e+3, 2.4176346e+2, -668299.8, -864207.9, 29182.734, 0.07943546, 0.16639458, -664045.1, -93317.26, 0.0, 10.000207, 9.997631 
2.1151489e+3, 2.5176042e+2, -527110.9, -815631.4, -26697.717, 0.040445067, 0.12631363, -524661.25, -51897.617, 0.0, 10.000852, 9.996955 
2.1151887e+3, 2.6175794e+2, -271860.63, -483362.47, -32582.424, 0.006199993, 0.1452132, -266955.0, 107836.805, 0.0, 10.001211, 9.998417 
2.1152303e+3, 2.7175736e+2, -18670.434, -181912.86, 38975.438, 0.05461463, 0.1256699, -9842.173, 266950.47, 0.0, 10.001748, 9.999529 
2.1152708e+3, 2.8175655e+2, -36734.86, -375058.25, -32081.814, 0.043707352, 0.17091414, -33719.547, 145078.25, 0.00000005479561, 10.001956, 9.997446 
2.1153079e+3, 2.9175517e+2, 41347.926, -379941.44, -85863.32, -0.051381472, 0.30126032, 58175.645, 138992.83, 0.0000044706885, 10.002234, 9.9965925 
2.1153474e+3, 3.017524e+2, -67173.43, -501941.28, -35557.066, -0.11107395, 0.42792875, -64284.625, -64284.625, 0.000027145721, 10.001567, 9.995748 
2.1153948e+3, 3.1174374e+2, 146996.48, 57082.92, -61710.6, 0.31428915, -0.13567317, 178389.63, 178389.63, 0.00007500438, 10.00108, 9.999781 
2.1246284e+3, 1.2171698e+2, -1629430.3, -1622083.3, -99183.82, 0.46937135, -0.30859798, -1526504.9, 220679.84, 0.48543465, 10.0006, 10.00114 
2.1246578e+3, 1.3172354e+2, -1612497.8, -1558737.9, -18901.188, -0.3135833, 0.14696816, -1552757.8, 96361.266, 0.3637423, 9.999757, 10.000807 
2.1247023e+3, 1.4172198e+2, -1621772.4, -1577072.6, 58081.16, 0.066642374, -0.01884706, -1537189.5, 13941.88, 0.23315269, 9.999256, 9.999957 
2.1247442e+3, 1.517236e+2, -1423060.8, -1290128.8, -1010.47156, 0.044702724, -0.0029600326, -1290121.0, 162989.94, 0.1197026, 9.999317, 10.001344 
2.1247841e+3, 1.6172382e+2, -1435710.1, -1366100.5, -32464.75, -0.06589325, -0.058043916, -1353309.8, 1795.6047, 0.044803485, 9.999117, 10.00011 
2.1248262e+3, 1.717242e+2, -1357142.5, -1304208.5, -56471.188, 0.00051035814, -0.03019779, -1268309.8, -11206.026, 0.01004214, 9.999139, 9.999823 
2.1248682e+3, 1.8172464e+2, -1268381.4, -1235549.1, -70347.19, 0.10509013, 0.050643105, -1179728.0, -20626.996, 0.0007722133, 9.999156, 9.99963 
2.1249087e+3, 1.9172418e+2, -1030927.0, -1047697.6, -46111.785, 0.10926011, 0.0031452312, -992444.3, 68661.125, 0.000010944595, 10.000049, 9.999799 
2.1249488e+3, 2.017236e+2, -911724.4, -1035080.94, -21222.262, 0.06812543, 0.0037684392, -908175.44, 54936.508, 0.0, 10.000597, 9.998956 
2.1249872e+3, 2.1172269e+2, -854130.7, -969131.06, -52774.75, -0.11856286, 0.004100166, -833583.1, 31541.48, 0.0, 10.000421, 9.998795 
2.1250266e+3, 2.2172222e+2, -723825.94, -778902.06, -58676.62, -0.19229065, 0.06424471, -686546.7, 80585.39, 0.0, 10.00025, 9.999547 
2.125069e+3, 2.317233e+2, -571821.4, -574348.25, -84625.13, 0.00402947, 0.13911915, -488450.25, 180669.97, 0.0, 10.000314, 10.000219 
2.1251108e+3, 2.4172339e+2, -606748.2, -804969.06, -76850.086, 0.14493214, 0.21468751, -580444.06, -9324.621, 0.0, 10.000514, 9.997886 
2.1251501e+3, 2.517197e+2, -470444.97, -786789.1, -38498.35, 0.05743176, 0.1137586, -465827.22, 7333.654, 0.0, 10.001238, 9.996972 
2.1251902e+3, 2.617167e+2, -204800.31, -437556.66, 36978.715, 0.035353787, 0.07447366, -199066.64, 176127.6, 0.0, 10.001628, 9.998527 
2.1252316e+3, 2.7171642e+2, -167794.5, -239827.98, -2944.6663, 0.10841696, 0.07878458, -167674.33, 109518.72, 0.0, 10.000689, 9.999639 
2.1252722e+3, 2.8171653e+2, -219645.17, -421115.03, -41843.25, 0.0948141, 0.1942457, -211300.39, -32110.943, 0.000000117451826, 10.000491, 9.997854 
2.12531e+3, 2.9171595e+2, 151870.86, -272198.9, -11664.836, -0.043225463, 0.36705986, 152191.48, 233390.53, 0.0000050467984, 10.002755, 9.997086 
2.1253519e+3, 3.017113e+2, 304453.56, -362777.84, 169961.27, 0.07932828, 0.29000154, 345252.44, 345252.44, 0.00002697455, 10.004191, 9.9955 
2.1253964e+3, 3.1170517e+2, 160021.39, 77377.78, 89436.35, 0.40596905, 0.03189692, 217220.4, 217220.4, 0.00007158717, 10.000997, 10.000028 
2.1346602e+3, 1.3168369e+2, -1672079.1, -1678776.8, -62706.215, -0.098677866, 0.19833621, -1612632.4, 36875.242, 0.38411817, 9.999856, 9.999625 
2.134699e+3, 1.4167972e+2, -1625671.5, -1635269.5, 30413.861, -0.2783534, -0.15206978, -1599680.4, -48133.344, 0.24951555, 9.999463, 9.9994335 
2.134742e+3, 1.5168276e+2, -1454982.6, -1381558.5, 2048.6567, -0.1328409, 0.077951536, -1381501.4, 72015.43, 0.13052814, 9.999429, 10.000581 
2.1347845e+3, 1.6168468e+2, -1444953.3, -1425559.8, -52326.117, -0.005322302, 0.25350982, -1382039.5, -26541.684, 0.050404422, 9.999287, 9.999618 
2.1348251e+3, 1.7168261e+2, -1380230.9, -1352359.0, -52159.516, -0.029873319, 0.07380217, -1312305.9, -54787.445, 0.012084308, 9.999141, 9.999487 
2.134866e+3, 1.816812e+2, -1216447.3, -1143733.0, -59506.88, -0.066959605, -0.031958986, -1110355.6, 49176.125, 0.001155736, 9.999223, 10.000228 
2.1349075e+3, 1.9168238e+2, -965476.7, -903560.2, -1814.9468, -0.035151478, -0.010725847, -903507.0, 158009.66, 0.000030850606, 10.000006, 10.000813 
2.1349485e+3, 2.0168306e+2, -941235.6, -1054059.8, -28800.697, -0.03480104, 0.04990049, -934308.9, 29199.857, 0.0, 10.000417, 9.998914 
2.1349879e+3, 2.1168141e+2, -924359.9, -1064454.8, -51067.94, -0.111031, 0.026148027, -907720.7, -42190.074, 0.0, 10.000206, 9.998244 
2.1350276e+3, 2.2168024e+2, -805816.1, -868440.5, -66688.45, -0.15823464, 0.065495916, -763454.7, 4092.0945, 0.0, 9.999917, 9.9990835 
2.1350686e+3, 2.3168091e+2, -636164.7, -659721.8, -69295.375, -0.07952054, 0.14341246, -577653.94, 91885.41, 0.0, 10.000108, 9.999732 
2.1351099e+3, 2.4168111e+2, -588123.9, -695767.4, -66445.25, -0.02517534, 0.23249327, -556436.9, 15100.076, 0.0, 10.0002165, 9.998775 
2.1351512e+3, 2.516791e+2, -385777.22, -568344.3, 3305.6477, 0.029673671, 0.1431391, -385717.4, 87841.445, 0.0, 10.001051, 9.998559 
2.1351925e+3, 2.6167694e+2, -264019.44, -479694.66, 7547.6313, 0.06766491, 0.08914646, -263755.66, 111825.5, 0.0, 10.001295, 9.99839 
2.1352316e+3, 2.7167544e+2, -270083.5, -408265.2, -25130.344, 0.0025929045, 0.055233646, -265655.13, 11939.011, 0.00000000014169585, 10.000496, 9.998574 
2.135271e+3, 2.8167456e+2, -227584.25, -329896.34, -5561.0894, -0.091593206, 0.120123364, -227282.88, -47682.445, 0.000000256191, 10.000058, 9.998671 
2.1353146e+3, 2.9167372e+2, 247539.7, 6860.3193, 113166.414, 0.09891809, 0.08056424, 292391.66, 373996.06, 0.0000052967753, 10.002398, 9.999174 
2.1353585e+3, 3.0166948e+2, 288649.72, -152878.63, 102466.42, 0.27442554, -0.18093452, 311270.4, 311270.4, 0.000025200057, 10.003231, 9.997366 
2.1353936e+3, 3.116709e+2, -66747.63, -103627.375, -26654.201, -0.053891055, 0.18441743, -52776.465, -52776.465, 0.00006359548, 9.99986, 9.999282 
2.1446607e+3, 1.3164365e+2, -1836406.5, -1832379.4, 20750.807, 0.055576056, 0.2217419, -1813544.8, -163645.72, 0.40760165, 9.9989395, 9.99892 
2.1446985e+3, 1.4163968e+2, -1696891.4, -1711721.1, 37996.67, -0.24151918, -0.07408841, -1665592.9, -113652.27, 0.26811564, 9.999156, 9.999052 
2.1447413e+3, 1.5164186e+2, -1459818.0, -1413362.4, 30090.54, -0.12531547, 0.1020115, -1398577.5, 55341.89, 0.14296411, 9.99957, 10.000262 
2.1447845e+3, 1.6164353e+2, -1383504.0, -1397479.8, 26854.021, 0.06349586, 0.27693474, -1362743.5, -6840.704, 0.057087187, 9.999737, 9.999589 
2.1448244e+3, 1.7164156e+2, -1284044.4, -1289167.5, 33483.188, -0.027583506, 0.090503454, -1253024.9, 4896.949, 0.014719365, 9.999756, 9.999619 
2.1448648e+3, 1.8164013e+2, -1173449.9, -1133623.1, 65566.164, -0.1147395, -0.02069794, -1085013.0, 74922.03, 0.0017550356, 9.999575, 10.000127 
2.1449067e+3, 1.9164144e+2, -996368.2, -934734.6, 24494.604, -0.08525084, 0.025867723, -926185.7, 135734.84, 0.00008036648, 9.999886, 10.000645 
2.1449485e+3, 2.0164229e+2, -986582.3, -1059388.4, -49974.82, -0.039177734, 0.11239579, -961157.7, 2753.9937, 0.000000018813253, 10.0000305, 9.999065 
2.1449885e+3, 2.1164106e+2, -908827.56, -1027462.1, -45024.09, -0.035725582, 0.101383485, -893675.4, -27747.18, 0.0, 10.000159, 9.998531 
2.1450286e+3, 2.2163983e+2, -764565.56, -846413.8, 16561.783, -0.029338842, 0.116130844, -761341.4, 6601.7593, 0.0, 10.00019, 9.999109 
2.1450686e+3, 2.3163907e+2, -624980.25, -664492.1, 17151.363, -0.07961263, 0.06268155, -618573.9, 51373.902, 0.0, 10.000241, 9.999635 
2.1451093e+3, 2.4163862e+2, -543871.5, -634769.0, 56846.74, -0.087240905, 0.08026044, -516538.8, 55411.66, 0.0, 10.00034, 9.999144 
2.1451518e+3, 2.516388e+2, -407447.6, -512186.88, 42976.016, 0.032616958, 0.15988171, -392071.25, 81880.86, 0.0, 10.000614, 9.999159 
2.1451938e+3, 2.616382e+2, -305853.38, -504468.63, 4795.447, 0.13331726, 0.21793216, -305737.66, 70223.33, 0.0, 10.001004, 9.998366 
2.1452329e+3, 2.7163538e+2, -139017.83, -381075.13, -30435.0, 0.037807517, 0.08509251, -135249.75, 142737.19, 0.00000000016893417, 10.001549, 9.998253 
2.1452725e+3, 2.8163365e+2, 12549.986, -194371.86, 53979.145, -0.01646852, 0.075143896, 25784.867, 205786.17, 0.0000002738674, 10.001573, 9.998886 
2.1453166e+3, 2.9163325e+2, -41050.742, -47131.918, 51611.074, 0.1932068, 0.038184877, 7609.2334, 89607.51, 0.0000047479944, 10.000057, 9.999917 
2.1453604e+3, 3.016304e+2, -92288.555, -177712.8, -2845.8687, 0.34950286, -0.2145614, -92193.85, -92193.85, 0.000021563434, 9.999823, 9.998877 
2.1453957e+3, 3.11633e+2, 304599.94, 29769.822, -265421.5, 0.081146285, 0.15925632, 466068.6, 466068.6, 0.000054127682, 10.002522, 9.998927 
2.1546587e+3, 1.3160372e+2, -1854105.6, -1892740.0, 47531.75, -0.13317224, 0.2543106, -1822115.6, -171825.23, 0.43279883, 9.999065, 9.998432 
2.1547e+3, 1.4160162e+2, -1663089.0, -1722532.6, 3988.889, -0.08839834, 0.1767779, -1662822.5, -110508.03, 0.28823382, 9.999485, 9.998823 
2.1547419e+3, 1.516009e+2, -1443300.4, -1405227.4, 49873.03, -0.06223638, 0.05626708, -1370881.3, 83436.89, 0.15688464, 9.999687, 10.000282 
2.1547838e+3, 1.616004e+2, -1331886.0, -1334240.3, 19837.986, -0.046471313, -0.004131305, -1313190.3, 43129.547, 0.06501248, 9.999939, 9.999933 
2.1548237e+3, 1.7160098e+2, -1246447.0, -1214764.1, 36488.508, -0.122691184, 0.01927608, -1190826.8, 67487.336, 0.018139776, 9.999776, 10.00012 
2.1548638e+3, 1.816014e+2, -1218624.6, -1247169.3, 58016.684, -0.20051356, 0.08925363, -1173150.6, -12839.48, 0.0026903055, 9.999652, 9.999314 
2.154906e+3, 1.916013e+2, -1098451.6, -1135153.5, 45702.46, -0.16850883, 0.12322901, -1067553.5, -5236.557, 0.00019736934, 9.999839, 9.9992895 
2.1549483e+3, 2.0160125e+2, -985299.75, -1026319.4, -56855.355, -0.11836929, 0.19873333, -945368.0, 18953.193, 0.0000007869328, 9.999896, 9.999359 
2.154989e+3, 2.1160148e+2, -855190.0, -877875.1, -32233.615, -0.016919568, 0.23394985, -832361.5, 33957.176, 0.0, 9.999988, 9.999642 
2.1550295e+3, 2.2160089e+2, -775794.9, -805099.4, 6617.3833, 0.021634774, 0.22339374, -774369.9, -6047.6104, 0.0, 9.9999075, 9.999528 
2.1550687e+3, 2.3159763e+2, -644920.0, -660980.44, 31918.053, -0.12314442, -0.099599704, -620037.5, 50309.324, 0.0, 10.00004, 9.999756 
2.1551086e+3, 2.4159573e+2, -609503.3, -686367.75, 52957.73, -0.20988525, -0.23037882, -582501.94, -10140.37, 0.0, 9.99999, 9.99895 
2.1551518e+3, 2.5159866e+2, -464076.78, -583930.0, 65937.43, -0.044127747, 0.15568827, -434902.63, 39439.97, 0.0, 10.000414, 9.998762 
2.1551946e+3, 2.6160005e+2, -358646.75, -531401.6, 16548.283, 0.059278328, 0.43927392, -357075.84, 19261.0, 0.0, 10.000657, 9.998344 
2.1552348e+3, 2.7159575e+2, -157135.7, -367484.13, 5394.3506, 0.06935812, 0.13829929, -156997.45, 121378.54, 0.0, 10.001323, 9.998459 
2.1552756e+3, 2.8159288e+2, -84876.15, -282428.03, 4325.178, 0.10281363, 0.016055882, -84781.5, 95619.016, 0.000000100631844, 10.0011215, 9.998482 
2.1553159e+3, 2.9159403e+2, -142270.53, -182013.23, 21327.025, 0.100462794, 0.19790736, -132992.05, -50607.066, 0.0000031808167, 9.999737, 9.999144 
2.1553567e+3, 3.0159256e+2, -155439.83, -101487.5, 35568.03, -0.047215756, 0.09085646, -83822.9, -83822.9, 0.000016664693, 9.998993, 9.999767 
2.1554011e+3, 3.1159332e+2, 119439.22, -147446.22, 7512.477, 0.27845186, 0.13052365, 119650.516, 119650.516, 0.000045618737, 10.001654, 9.998117 
2.1646573e+3, 1.315594e+2, -1651300.8, -1674859.4, -83261.125, -0.20723723, 0.12418538, -1578989.9, 71736.625, 0.45757636, 10.000223, 9.999583 
2.1647009e+3, 1.415598e+2, -1505934.6, -1541469.4, -85529.43, 0.045831285, 0.21607769, -1436346.6, 116377.03, 0.3088363, 10.000332, 9.999802 
2.1647419e+3, 1.5155905e+2, -1425495.6, -1357347.6, -40069.645, 0.0063344506, 0.028985694, -1338823.0, 115903.875, 0.17204043, 9.999631, 10.000689 
2.164783e+3, 1.6155836e+2, -1506103.3, -1408021.9, -49432.17, -0.008177749, -0.07536173, -1387431.3, -30701.021, 0.07433442, 9.998656, 10.000047 
2.1648234e+3, 1.7155954e+2, -1265807.4, -1212549.3, -60362.074, -0.088041164, -0.0063233236, -1173203.5, 85515.625, 0.022589553, 9.9995575, 10.000262 
2.164864e+3, 1.8156049e+2, -1174514.6, -1235171.4, -33597.0, -0.14474833, 0.11117276, -1159581.9, 1129.8917, 0.00413868, 10.000022, 9.999209 
2.164906e+3, 1.9156022e+2, -1166220.4, -1207244.5, -9124.655, -0.13794626, 0.16074152, -1164282.4, -101561.13, 0.00045452762, 9.999555, 9.998938 
2.1649477e+3, 2.0155996e+2, -1081670.3, -1055391.3, -28405.533, -0.08384126, 0.23257276, -1037233.44, -72504.63, 0.000007502901, 9.99914, 9.999529 
2.1649893e+3, 2.1156012e+2, -837434.1, -817489.9, -60825.598, 0.0067288275, 0.22355267, -765824.4, 100900.195, 0.0, 9.999891, 10.000104 
2.1650301e+3, 2.2155975e+2, -696083.8, -736079.75, -55904.965, 0.06365101, 0.1977457, -656707.7, 112016.23, 0.0, 10.00034, 9.99978 
2.1650691e+3, 2.3155724e+2, -658522.4, -657083.9, -66453.38, -0.048642013, -0.06374792, -591345.9, 79395.47, 0.0, 9.999903, 9.999845 
2.1651094e+3, 2.4155554e+2, -672809.0, -719014.2, -10141.587, -0.099362135, -0.17735942, -670681.0, -97926.86, 0.0, 9.999549, 9.998943 
2.1651518e+3, 2.5155714e+2, -556847.4, -619498.56, 11447.209, -0.026095638, 0.08018643, -554821.4, -80074.47, 0.0, 9.999766, 9.998812 
2.1651943e+3, 2.6155818e+2, -407279.47, -524876.9, 19800.95, 0.03162523, 0.31445226, -404034.9, -27291.355, 0.0, 10.000182, 9.998624 
2.165236e+3, 2.7155575e+2, -167403.95, -323564.47, 6234.8057, 0.09744252, 0.16564228, -167155.42, 111609.086, 0.0, 10.001046, 9.998889 
2.1652779e+3, 2.815534e+2, -26116.605, -286034.6, 282.817, 0.21262172, 0.06916825, -26116.297, 154668.19, 0.0000000029805467, 10.001644, 9.998212 
2.1653166e+3, 2.9155216e+2, 15174.047, -179513.44, -41010.414, 0.15206245, 0.08833632, 23460.123, 106253.5, 0.000001345268, 10.001149, 9.998476 
2.1653567e+3, 3.0155215e+2, 147676.61, 80907.82, 62397.94, 0.011825053, 0.14323631, 185059.58, 185059.58, 0.000010778314, 10.000908, 10.000102 
2.1654028e+3, 3.1155118e+2, 120960.04, -152957.61, -38180.117, 0.3215125, -0.024078898, 126182.23, 126182.23, 0.00003608632, 10.001726, 9.998033 
2.174658e+3, 1.315118e+2, -1511576.4, -1413805.0, -150635.33, -0.2462538, 0.00068153616, -1304321.5, 346875.4, 0.48078975, 10.000623, 10.002376 
2.1747012e+3, 1.4151466e+2, -1390335.6, -1352010.9, -68295.055, -0.05486319, 0.040550146, -1300240.8, 252923.06, 0.32934, 10.000665, 10.0014715 
2.1747415e+3, 1.515164e+2, -1396928.6, -1309481.4, -69517.28, -0.04096358, 0.038082752, -1271080.6, 184064.58, 0.18832743, 9.99968, 10.001084 
2.1747822e+3, 1.6151728e+2, -1492527.3, -1417156.9, -53374.293, -0.019741211, 0.07693729, -1389504.6, -32368.781, 0.0852701, 9.998808, 9.999909 
2.1748237e+3, 1.7151724e+2, -1260651.0, -1217485.1, -13328.822, -0.053833146, 0.029778577, -1213701.1, 45435.89, 0.028395085, 9.999618, 10.000194 
2.1748647e+3, 1.8151732e+2, -1134099.6, -1172669.5, -50892.816, -0.10922402, 0.04560754, -1098960.5, 62177.637, 0.006367479, 10.000115, 9.999591 
2.174906e+3, 1.9151793e+2, -1132690.1, -1127772.0, -24417.99, -0.11401514, 0.12904559, -1105689.6, -42553.445, 0.0009868387, 9.999512, 9.999498 
2.174947e+3, 2.015181e+2, -1100602.5, -1061828.8, -27317.54, -0.11601325, 0.20473124, -1047717.94, -82580.695, 0.000047582707, 9.998991, 9.99956 
2.1749882e+3, 2.1151686e+2, -880768.7, -859250.5, -20157.307, -0.08273764, 0.07070615, -847160.6, 19986.002, 0.00000000032497088, 9.999682, 9.999919 
2.1750294e+3, 2.2151622e+2, -748985.44, -766816.6, -66798.195, -0.055364087, 0.03137429, -690510.44, 78639.4, 0.0, 10.000007, 9.999728 
2.1750699e+3, 2.3151743e+2, -690841.7, -671217.5, -73107.29, 0.01866767, 0.1428311, -607266.75, 63868.63, 0.0, 9.999682, 9.999848 
2.1751106e+3, 2.4151754e+2, -720365.6, -723539.44, -22104.596, 0.054063518, 0.20207907, -699791.06, -126658.4, 0.0, 9.99916, 9.999091 
2.1751519e+3, 2.5151414e+2, -569930.3, -594813.75, 32856.85, -0.035191447, -0.07024458, -547238.44, -72072.1, 0.0, 9.99955, 9.999082 
2.1751934e+3, 2.6151255e+2, -425115.16, -473643.28, 33205.527, -0.115691654, -0.13306093, -408253.16, -31071.252, 0.0, 9.999822, 9.99914 
2.1752363e+3, 2.7151534e+2, -162787.66, -253361.58, 55259.94, -0.0047359136, 0.17592458, -136628.34, 142525.05, 0.0, 10.000798, 9.999484 
2.1752785e+3, 2.815148e+2, -117765.88, -359439.03, -20451.965, 0.100128435, 0.23527898, -116047.33, 65109.68, 0.0, 10.001166, 9.997927 
2.1753179e+3, 2.915076e+2, -86190.57, -326157.63, -48320.527, 0.1364988, -0.29456097, -76826.04, 6398.694, 0.00000028754212, 10.00088, 9.997592 
2.1753602e+3, 3.0150804e+2, 384.95325, -64271.133, 50016.984, 0.1977568, -0.083321095, 27611.936, 27611.936, 0.0000061263827, 10.000281, 9.9993725 
2.1754028e+3, 3.115092e+2, 15098.788, -147769.39, 118481.9, 0.07932915, -0.044189118, 77433.516, 77433.516, 0.000027574106, 10.0007925, 9.998501 
2.1847011e+3, 1.4147474e+2, -1690830.9, -1621638.4, -44528.47, 0.0067666033, 0.025075091, -1599846.0, -46294.434, 0.34983045, 9.998764, 9.999854 
2.1847412e+3, 1.5147524e+2, -1272021.4, -1264996.5, 48713.18, -0.0563619, -0.018883305, -1219669.3, 235877.98, 0.2059314, 10.000797, 10.000987 
2.1847832e+3, 1.6147718e+2, -1154385.5, -1267473.3, 83341.55, 0.09297107, 0.12029687, -1110216.8, 247311.4, 0.09816949, 10.001365, 9.999767 
2.1848242e+3, 1.7147666e+2, -1248223.9, -1267988.6, 73065.266, 0.044708293, 0.07510537, -1184375.6, 75159.086, 0.036017943, 10.000018, 9.999636 
2.1848644e+3, 1.8147597e+2, -1312864.0, -1269724.6, 27509.875, -0.064128965, 0.051940955, -1256336.5, -94792.99, 0.009796201, 9.998895, 9.999528 
2.1849056e+3, 1.9147623e+2, -1097158.6, -1085484.4, 14662.307, -0.08970793, 0.07963833, -1075540.0, -11997.018, 0.0020521113, 9.999616, 9.999742 
2.1849468e+3, 2.0147629e+2, -941691.3, -983838.5, 28489.709, -0.07182635, 0.12699313, -927328.25, 38215.26, 0.00020967671, 10.000094, 9.999562 
2.1849881e+3, 2.114751e+2, -853136.6, -864937.06, 9390.0205, -0.06448455, 0.010465887, -847947.0, 19606.004, 0.00000086887735, 9.999957, 9.999751 
2.1850292e+3, 2.2147448e+2, -807861.25, -831627.7, -29493.703, -0.034420278, -0.0017901371, -787946.8, -18389.715, 0.0, 9.999736, 9.99943 
2.1850698e+3, 2.3147607e+2, -686537.8, -696261.8, -85696.22, 0.057342753, 0.17838259, -605565.8, 65976.64, 0.0, 9.999845, 9.999597 
2.1851109e+3, 2.4147634e+2, -584566.25, -644780.06, -16595.041, 0.12572348, 0.26646486, -580295.5, -6755.888, 0.0, 10.000017, 9.999227 
2.1851522e+3, 2.5147232e+2, -437694.72, -499792.63, 23426.18, 0.02174286, -0.091723844, -429848.63, 45725.836, 0.0, 10.000288, 9.999394 
2.185194e+3, 2.6147038e+2, -343615.88, -434933.1, 33154.027, -0.036032073, -0.21665533, -332848.47, 44741.66, 0.0, 10.000364, 9.999157 
2.1852371e+3, 2.714731e+2, -264070.56, -326038.78, -27506.81, 0.0361053, 0.11356921, -253622.33, 25941.27, 0.0, 10.000205, 9.999281 
2.1852793e+3, 2.8147262e+2, -204011.77, -369982.28, -104187.15, 0.11095415, 0.17670752, -153799.73, 27768.557, 0.0, 10.000398, 9.998248 
2.1853194e+3, 2.9146564e+2, 50055.07, -225314.4, -95528.875, 0.15459557, -0.36354816, 79949.73, 163584.6, 0.000000027227998, 10.001626, 9.997948 
2.1853626e+3, 3.0146685e+2, 278345.34, -58415.75, 78371.86, 0.32976815, -0.05058414, 295690.8, 295690.8, 0.0000044959556, 10.002652, 9.998321 
2.1854039e+3, 3.114668e+2, 238478.72, 66719.8, -61423.566, 0.08320231, 0.022167593, 258184.0, 258184.0, 0.000025056477, 10.001727, 9.999598 
2.1947002e+3, 1.4143789e+2, -1935929.6, -2139468.5, -395856.72, -0.07151096, 0.113532595, -1628969.9, -75062.41, 0.371045, 9.9988575, 9.996238 
2.1947409e+3, 1.5143485e+2, -1267831.5, -1274356.3, 110361.31, -0.20792967, -0.16763619, -1160684.4, 295255.53, 0.22535217, 10.000928, 10.000888 
2.1947856e+3, 1.6143818e+2, -1137961.0, -1261025.1, 40008.348, 0.16031177, 0.06908015, -1126097.9, 231808.0, 0.113554515, 10.001533, 9.999746 
2.194825e+3, 1.7143764e+2, -1334321.4, -1448292.8, 26497.188, 0.095888324, 0.12647606, -1328462.3, -68548.44, 0.046104282, 10.000019, 9.99839 
2.1948628e+3, 1.8143603e+2, -1332016.6, -1322940.8, 22385.85, -0.17989162, 0.11152762, -1304637.5, -142705.63, 0.015073848, 9.998948, 9.999141 
2.1949045e+3, 1.9143516e+2, -1098404.4, -1079502.1, 53572.594, -0.18639758, 0.028974691, -1034553.4, 29387.947, 0.004138987, 9.999582, 9.999801 
2.1949466e+3, 2.014346e+2, -972326.5, -1015936.75, 19842.951, -0.13015348, 0.015341818, -964649.4, 1297.6838, 0.00072646124, 9.999962, 9.999403 
2.1949883e+3, 2.1143462e+2, -901761.75, -913933.94, 8991.44, -0.0738421, 0.04082004, -896990.25, -29044.588, 0.000022642807, 9.99974, 9.999511 
2.1950291e+3, 2.2143441e+2, -894488.8, -930704.4, -41139.613, -0.046429884, 0.10079687, -867648.2, -97701.09, 0.000000000011542125, 9.999387, 9.998915 
2.1950689e+3, 2.3143311e+2, -755080.56, -797449.06, -69462.664, -0.053815894, 0.046650924, -703643.6, -31681.006, 0.0, 9.999662, 9.998987 
2.1951091e+3, 2.4143198e+2, -640710.1, -667572.94, -20296.602, -0.06765301, 0.03338885, -629803.2, -55828.2, 0.0, 9.999632, 9.999247 
2.1951523e+3, 2.514316e+2, -443547.44, -464267.75, 43964.023, 0.009873386, 0.006415111, -408739.38, 67233.664, 0.0, 10.000088, 9.99973 
2.1951959e+3, 2.614312e+2, -454225.22, -561253.06, 16496.723, 0.06981063, 0.03680881, -451740.2, -73767.56, 0.0, 9.999945, 9.998475 
2.1952377e+3, 2.7142885e+2, -383790.16, -507976.03, -17682.78, 0.07023725, -0.038079873, -381321.4, -101324.75, 0.0, 9.99994, 9.99814 
2.1952793e+3, 2.8142652e+2, -221686.13, -301975.03, -85955.4, 0.034541603, -0.115324385, -166962.73, 15058.599, 0.0, 9.999972, 9.998909 
2.1953203e+3, 2.9142603e+2, 98313.53, -49487.08, -24460.48, 0.06935585, -0.13741603, 102256.47, 186282.2, 0.000000020729713, 10.001306, 9.999307 
2.1953633e+3, 3.0142742e+2, 62058.4, -322944.66, 67257.53, 0.1001943, 0.17984487, 73469.63, 73469.63, 0.0000055230016, 10.001911, 9.996827 
2.1954052e+3, 3.114226e+2, 61234.41, -31517.365, -82612.61, -0.0074577075, -0.042850886, 109597.984, 109597.984, 0.000029811183, 10.000667, 9.999383 
2.2047004e+3, 1.4139673e+2, -1903749.8, -2050672.3, -388672.25, 0.10383753, -0.09268786, -1581657.4, -27348.605, 0.39437363, 9.998793, 9.996867 
2.2047408e+3, 1.5139596e+2, -1402613.1, -1359901.0, 87981.71, -0.2585185, -0.07595193, -1290720.5, 165597.69, 0.24751917, 9.999892, 10.000665 
2.2047868e+3, 1.6139728e+2, -1316736.8, -1382351.4, -85318.61, 0.21434765, -0.022534218, -1258135.3, 100167.61, 0.13222682, 10.000304, 9.999474 
2.204825e+3, 1.7139634e+2, -1310803.3, -1506729.3, -99385.25, 0.08523594, 0.050109304, -1269216.4, -8901.771, 0.059555795, 10.000414, 9.997834 
2.2048622e+3, 1.8139459e+2, -1200229.0, -1305254.1, -17061.6, -0.15774302, 0.07047016, -1197526.9, -35192.004, 0.023171267, 10.000048, 9.998737 
2.2049043e+3, 1.9139367e+2, -1123143.8, -1134741.4, -25352.61, -0.1460973, 0.02135243, -1102935.3, -38589.08, 0.008108057, 9.999594, 9.999433 
2.2049466e+3, 2.0139317e+2, -1079335.6, -1049310.3, -58465.598, -0.06458154, 0.037742667, -1003960.7, -37608.51, 0.0021629941, 9.999142, 9.999578 
2.2049883e+3, 2.1139339e+2, -907000.25, -860878.56, -39246.234, -0.01319433, 0.04069064, -838419.44, 29927.383, 0.00023583506, 9.999446, 10.000026 
2.2050293e+3, 2.2139305e+2, -837146.44, -915647.5, -8974.783, 0.026216885, 0.056608524, -836133.5, -65785.39, 0.0000019906881, 9.999829, 9.998811 
2.205069e+3, 2.313913e+2, -668076.4, -817844.3, -52222.375, -0.019467106, 0.0025215656, -651665.25, 20704.781, 0.0, 10.000511, 9.998455 
2.2051096e+3, 2.4138989e+2, -466919.97, -621719.94, 4547.28, -0.024085235, 0.014775556, -466786.5, 107600.39, 0.0, 10.00097, 9.998925 
2.2051528e+3, 2.5139016e+2, -368379.97, -435081.88, -2532.8828, 0.039361987, 0.0693635, -368283.94, 108095.055, 0.0, 10.000684, 9.999623 
2.205196e+3, 2.613898e+2, -395830.72, -545908.4, -22896.402, 0.10791069, 0.11465793, -392415.28, -14036.903, 0.0, 10.000378, 9.9983835 
2.2052383e+3, 2.7138627e+2, -314872.5, -492093.56, -5468.9224, 0.12525831, -0.069884345, -314703.88, -34289.938, 0.0, 10.000444, 9.998028 
2.2052805e+3, 2.8138405e+2, -143499.67, -266408.06, 9183.6045, 0.15343451, -0.12781154, -142817.27, 39620.004, 0.0, 10.000525, 9.99888 
2.2053218e+3, 2.9138514e+2, 52851.508, -70978.19, -69005.37, 0.114813305, 0.022378968, 83646.9, 168076.0, 0.00000007580395, 10.001015, 9.99929 
2.2053638e+3, 3.0138543e+2, -14460.741, -349194.16, 15857.656, 0.021362107, 0.22012347, -13711.179, -13711.179, 0.0000083740215, 10.001302, 9.996961 
2.2054078e+3, 3.1138113e+2, 217448.8, 142544.66, -105727.83, 0.1739322, 0.05079692, 292161.9, 292161.9, 0.000042885644, 10.001275, 10.000281 
2.2147046e+3, 1.413565e+2, -1538335.1, -1375832.6, -12834.858, 0.5381054, -0.060780164, -1374825.1, 179880.53, 0.4221777, 9.998689, 10.002454 
2.2147407e+3, 1.5135889e+2, -1473724.8, -1472681.6, 149633.78, -0.27007678, 0.31260407, -1323568.5, 133110.48, 0.27423543, 9.999834, 9.999867 
2.2147858e+3, 1.6135387e+2, -1326889.0, -1435221.4, -98515.77, 0.028025892, -0.16537136, -1268630.4, 90094.3, 0.15564767, 10.000461, 9.999025 
2.2148235e+3, 1.7135271e+2, -1283978.1, -1451832.5, -96595.0, -0.13704811, -0.15211388, -1239943.0, 20795.227, 0.07778218, 10.000432, 9.998198 
2.2148629e+3, 1.8135165e+2, -1227262.1, -1378113.5, -45634.145, -0.15732028, -0.064046115, -1214531.8, -51779.79, 0.035576556, 10.000114, 9.99821 
2.2149047e+3, 1.9135165e+2, -1199346.5, -1268250.4, -36551.504, -0.08316382, 0.063036844, -1183569.5, -118810.88, 0.0154146915, 9.999493, 9.998562 
2.2149463e+3, 2.0135179e+2, -1067255.4, -989386.44, -66074.32, -0.047690615, 0.18485297, -951628.6, 15132.408, 0.005714695, 9.998985, 10.000068 
2.2149877e+3, 2.1135126e+2, -841977.2, -683878.7, -14241.002, -0.014503839, -0.0003779053, -682606.1, 186151.7, 0.0013616167, 9.999263, 10.00133 
2.215029e+3, 2.2135061e+2, -884626.6, -927079.44, 1142.7872, -0.002820655, -0.10847616, -884595.9, -113837.69, 0.00013056793, 9.999457, 9.99891 
2.2150703e+3, 2.3135036e+2, -739766.3, -913884.1, -12948.286, 0.034525022, 0.028797831, -738808.7, -66041.04, 0.0000045921656, 10.0002775, 9.99791 
2.2151116e+3, 2.4134985e+2, -583989.2, -755855.9, -12119.392, 0.05983128, 0.19513083, -583138.75, -8360.678, 0.000000030624218, 10.000527, 9.998206 
2.2151533e+3, 2.513479e+2, -458636.97, -555896.4, -4753.6055, -0.006861152, 0.09348263, -458405.2, 18388.76, 0.0, 10.000416, 9.998913 
2.2151949e+3, 2.6134586e+2, -433128.72, -523081.13, -41500.25, -0.079724304, 0.013668003, -416907.47, -38097.125, 0.0, 9.9999695, 9.998729 
2.2152382e+3, 2.7134502e+2, -287850.56, -369108.25, 7245.9556, 0.07046407, 0.0063417493, -287209.5, -6391.3438, 0.0, 10.000174, 9.998993 
2.215282e+3, 2.8134483e+2, -285853.56, -440027.7, 4827.664, 0.22203374, 0.11726461, -285702.56, -102881.12, 0.0, 10.0000305, 9.997911 
2.215323e+3, 2.9134268e+2, -113369.05, -337144.0, -28259.03, 0.12554343, 0.104307964, -109855.56, -25008.248, 0.00000027397763, 10.000696, 9.997603 
2.2153632e+3, 3.0134073e+2, 10009.042, -151196.75, 1565.1305, -0.20178361, 0.11498215, 10024.236, 10024.236, 0.000015050563, 10.000717, 9.998574 
2.2154084e+3, 3.1134024e+2, 129446.48, 204473.56, 51129.53, 0.052568525, 0.06046703, 230375.28, 230375.28, 0.00007034586, 10.000277, 10.001165 
2.2246951e+3, 1.4130956e+2, -1598417.9, -1449277.4, -243030.42, -0.30605814, -0.12182133, -1269634.1, 285533.13, 0.45833316, 9.99898, 10.0019245 
2.2247414e+3, 1.5131573e+2, -1452152.5, -1435214.9, 19589.738, -0.15453386, 0.22165874, -1422341.8, 34759.266, 0.30885017, 9.999752, 10.000035 
2.2247851e+3, 1.613113e+2, -1514551.8, -1544066.4, -108079.78, -0.027267186, -0.17210525, -1420226.5, -61085.24, 0.18666483, 9.999144, 9.998885 
2.2248237e+3, 1.7131022e+2, -1200123.8, -1330768.3, -106007.695, -0.15903892, -0.20332468, -1140928.4, 120224.62, 0.103338934, 10.000749, 9.998891 
2.2248642e+3, 1.8130967e+2, -1039830.75, -1280349.1, -45512.15, -0.053950325, -0.11287478, -1031506.8, 131654.17, 0.054786276, 10.001412, 9.998273 
2.224905e+3, 1.9130972e+2, -1036906.56, -1215219.4, -24901.244, -0.029902417, 0.035722766, -1033494.4, 31673.375, 0.028543482, 10.0007, 9.998347 
2.2249456e+3, 2.0130973e+2, -951089.6, -951060.9, 9409.796, -0.031636912, 0.1585509, -941665.44, 25506.617, 0.013685946, 9.999874, 9.999891 
2.2249873e+3, 2.1130902e+2, -812109.0, -695670.25, -60182.406, 0.006064676, -0.021835655, -670155.4, 199015.7, 0.005262215, 9.999597, 10.001089 
2.225029e+3, 2.2130822e+2, -854376.6, -917942.4, -80387.25, 0.05813773, -0.12546211, -799717.25, -28544.434, 0.001420654, 9.999659, 9.998887 
2.2250707e+3, 2.3130797e+2, -676538.75, -864233.5, -59572.38, 0.06713871, 0.0022719933, -659227.7, 13952.098, 0.0002619265, 10.000608, 9.9981 
2.2251126e+3, 2.4130724e+2, -496373.06, -737353.0, -20800.621, 0.07703073, 0.14356029, -494590.8, 80599.734, 0.000035642544, 10.001223, 9.998008 
2.2251536e+3, 2.513046e+2, -431499.97, -589817.9, -23753.701, -0.0073385504, 0.012107471, -428012.84, 49201.074, 0.0000011567587, 10.000759, 9.998542 
2.2251949e+3, 2.6130226e+2, -389350.53, -503634.25, -15602.37, -0.057403907, -0.073719025, -387258.75, -8024.3193, 0.0, 10.000267, 9.998727 
2.2252388e+3, 2.7130225e+2, -188706.81, -289500.5, -42220.473, 0.0739135, -0.011071558, -173358.61, 107875.1, 0.0, 10.00075, 9.999258 
2.2252822e+3, 2.8130248e+2, -154718.48, -386257.2, -37922.098, 0.22808775, 0.1284259, -148665.72, 34566.438, 0.0, 10.000942, 9.997866 
2.2253235e+3, 2.9129925e+2, -84059.41, -343338.56, 315.76468, 0.10598008, 0.03947003, -84059.02, 1209.976, 0.00000073017384, 10.000982, 9.997426 
2.225365e+3, 3.012976e+2, 80421.88, -108840.66, 61205.297, -0.09917517, 0.0637461, 98490.06, 98490.06, 0.00002755439, 10.001133, 9.998691 
2.2254096e+3, 3.112953e+2, 217837.83, 217112.55, -172273.42, 0.13264759, -0.12423105, 389749.0, 389749.0, 0.000118261974, 10.000951, 10.000975 
2.2347422e+3, 1.5126601e+2, -1420438.6, -1319616.1, -65669.555, -0.08909835, -0.3473208, -1287239.8, 170349.4, 0.35698506, 9.999479, 10.001366 
2.2347842e+3, 1.6126902e+2, -1518533.4, -1541843.6, -77092.85, -0.10619206, -0.0782683, -1452219.6, -92661.664, 0.23053116, 9.999088, 9.998927 
2.2348252e+3, 1.7126869e+2, -1152467.4, -1203489.0, -40711.523, -0.09067589, -0.11316578, -1129934.1, 131627.02, 0.14104874, 10.00066, 9.999846 
2.2348662e+3, 1.8126854e+2, -1000800.4, -1183848.3, -57482.117, -0.042378142, -0.08525351, -984246.44, 179317.0, 0.08532412, 10.001416, 9.998938 
2.2349052e+3, 1.9126782e+2, -1015617.06, -1148438.0, -49068.426, -0.10926881, -0.061388686, -999456.0, 66117.984, 0.05187056, 10.000621, 9.998847 
2.2349444e+3, 2.012671e+2, -1047393.4, -1104722.3, -21284.248, -0.18970126, -0.01628472, -1040355.3, -72771.44, 0.030293982, 9.999679, 9.998929 
2.2349863e+3, 2.1126641e+2, -965813.8, -968266.75, -60773.0, -0.071514085, -0.030373719, -906254.94, -36666.25, 0.015773455, 9.999395, 9.999309 
2.2350286e+3, 2.2126561e+2, -922474.94, -965969.5, -68306.87, 0.030350603, -0.0051746285, -872537.0, -100942.59, 0.0069356123, 9.99927, 9.9987335 
2.2350703e+3, 2.3126408e+2, -641570.44, -742444.4, -6962.6943, -0.056581754, -0.08485561, -641092.1, 32515.004, 0.002541045, 10.000395, 9.999031 
2.2351116e+3, 2.4126218e+2, -547274.5, -743318.8, -35814.277, -0.1603461, -0.12919374, -540936.7, 34686.977, 0.00075579167, 10.000809, 9.998156 
2.2351538e+3, 2.512604e+2, -475335.34, -619291.8, -34617.344, -0.098419935, -0.1774932, -467443.5, 10195.396, 0.00014769337, 10.000497, 9.99846 
2.2351955e+3, 2.6125893e+2, -505766.06, -626044.56, -34084.375, -0.046380036, -0.14340062, -496778.8, -117127.34, 0.000007045108, 9.999783, 9.998101 
2.2352387e+3, 2.7125794e+2, -278259.2, -408999.28, -10333.181, -0.007931729, -0.11914956, -277447.53, 4213.307, 0.00000000065814787, 10.00047, 9.998557 
2.235281e+3, 2.8125694e+2, -197968.0, -340602.78, -63641.473, -0.026420014, -0.08414333, -173700.83, 9970.095, 0.0, 10.000405, 9.998413 
2.2353224e+3, 2.9125485e+2, -98024.914, -247395.53, 16157.9795, -0.11709601, -0.17120263, -96297.03, -10601.953, 0.0000012574419, 10.000485, 9.998299 
2.2353674e+3, 3.0125505e+2, -191107.11, -458443.75, 33843.145, -0.0060545285, 0.06149851, -186889.33, -186889.33, 0.000044073433, 10.000269, 9.996679 
2.2354122e+3, 3.1124967e+2, -73500.79, -97203.914, -88559.805, 0.23756437, -0.16339415, 3996.9597, 3996.9597, 0.00018419352, 9.999805, 9.999329 
2.2447427e+3, 1.5122883e+2, -1523140.6, -1638520.3, -2760.9785, -0.062931605, 0.12363145, -1523074.6, -65122.758, 0.42759266, 10.00006, 9.998248 
2.2447847e+3, 1.6122626e+2, -1385930.3, -1460523.8, -43975.96, 0.03406548, -0.039803695, -1365564.8, -5585.0825, 0.29616648, 9.999912, 9.999101 
2.2448257e+3, 1.712268e+2, -1260194.5, -1208594.4, -53598.133, -0.055138614, -0.027713155, -1174910.0, 87064.24, 0.19952731, 9.999588, 10.000375 
2.2448659e+3, 1.8122734e+2, -1268194.8, -1253232.9, -103877.805, -0.07816227, 0.014862569, -1156567.0, 7401.7656, 0.13536815, 9.999196, 9.999518 
2.244906e+3, 1.9122654e+2, -1048586.8, -1104444.1, -118642.43, -0.057653435, -0.02674429, -954630.06, 111346.55, 0.09319166, 10.000146, 9.999416 
2.244946e+3, 2.012257e+2, -886795.7, -1059692.1, -57816.164, -0.028845547, -0.023655253, -869243.9, 98741.37, 0.06306426, 10.0009, 9.998697 
2.244987e+3, 2.1122476e+2, -822401.9, -972540.75, -44128.05, 0.028298778, 0.0025169877, -810392.56, 59601.938, 0.0400799, 10.000677, 9.9986925 
2.2450286e+3, 2.2122358e+2, -744112.4, -885365.94, 53729.242, 0.05698755, 0.034637485, -725998.1, 46007.37, 0.023131557, 10.000503, 9.998711 
2.2450708e+3, 2.312214e+2, -633521.8, -704500.56, 48624.13, -0.029125003, -0.13610306, -608813.2, 65209.35, 0.011994159, 10.000309, 9.999339 
2.2451128e+3, 2.41219e+2, -595803.1, -776626.0, -1981.5253, -0.077460036, -0.23843423, -595781.44, -19739.715, 0.0054928027, 10.000464, 9.998117 
2.2451548e+3, 2.512176e+2, -342050.75, -561122.75, -29693.172, -0.056138054, -0.23857756, -338097.44, 139955.31, 0.002050329, 10.00143, 9.998419 
2.2451963e+3, 2.6121622e+2, -264333.8, -581397.2, -17874.889, -0.014366572, -0.1701544, -263329.28, 116735.65, 0.0004876709, 10.001723, 9.997488 
2.2452395e+3, 2.7121398e+2, -228018.9, -471012.4, -17665.35, 0.007953737, -0.18888056, -226741.38, 55346.77, 0.000047167257, 10.001181, 9.9978 
2.2452815e+3, 2.8121224e+2, -193873.81, -311523.63, -75185.57, 0.005385497, -0.19588782, -157235.42, 26871.516, 0.00000034188096, 10.000298, 9.998675 
2.245323e+3, 2.9121095e+2, -35715.875, -159885.88, -59639.633, -0.10484492, -0.23403047, -11711.196, 74409.75, 0.0000013302117, 10.000616, 9.998869 
2.2453684e+3, 3.0121154e+2, -182605.42, -499250.44, 23685.549, 0.08503845, 0.0032782417, -180843.5, -180843.5, 0.0000584347, 10.000449, 9.9963255 
2.2454141e+3, 3.1120694e+2, 5394.079, 2482.9492, -64525.586, 0.4463375, -0.047602274, 68480.516, 68480.516, 0.00025945, 9.999957, 9.999951 
2.2547862e+3, 1.611838e+2, -1510760.5, -1584525.1, -85655.11, 0.09765143, 0.053955156, -1454384.5, -93986.22, 0.39765337, 9.9993305, 9.998507 
2.2548245e+3, 1.7118426e+2, -1272459.4, -1213688.6, -73795.125, -0.19026564, 0.039821252, -1163643.4, 98751.99, 0.29298013, 9.999494, 10.000458 
2.2548632e+3, 1.8118581e+2, -1304296.5, -1255681.6, -128382.16, -0.35572168, 0.17613529, -1149326.0, 15053.811, 0.21888196, 9.998898, 9.99964 
2.254907e+3, 1.911854e+2, -1054620.4, -1053324.3, -76679.586, -0.017646609, 0.11459682, -977290.0, 89090.9, 0.16615056, 9.999879, 9.999906 
2.25495e+3, 2.0118512e+2, -903292.25, -1014832.06, -56801.19, 0.24420457, 0.11466986, -879459.0, 88921.305, 0.12546477, 10.000607, 9.999134 
2.2549893e+3, 2.1118389e+2, -819676.6, -913481.3, -42373.383, 0.1466165, 0.05142844, -803370.3, 67020.09, 0.0914258, 10.000484, 9.999176 
2.2550283e+3, 2.2118206e+2, -822292.7, -952675.56, 38721.734, -0.051492654, -0.0036949061, -811660.06, -39253.824, 0.062582165, 10.000085, 9.998448 
2.255072e+3, 2.3117968e+2, -701673.3, -795568.06, 53011.43, 0.03558634, -0.15461168, -677809.2, -3381.5034, 0.039919913, 10.000071, 9.998832 
2.2551155e+3, 2.411775e+2, -722280.7, -877172.8, 406.16324, 0.113913015, -0.18226434, -722279.6, -145832.86, 0.023601582, 9.999801, 9.99773 
2.2551568e+3, 2.5117618e+2, -394936.06, -581321.75, 14791.195, -0.029777145, -0.18277204, -393769.56, 84686.54, 0.012405956, 10.001077, 9.998433 
2.255197e+3, 2.6117384e+2, -408223.47, -741422.7, -55806.086, -0.15414986, -0.16575049, -399125.2, -18648.559, 0.005154125, 10.00116, 9.996649 
2.2552405e+3, 2.711702e+2, -359496.22, -627984.7, -32007.715, -0.0438498, -0.25514543, -355733.2, -73216.16, 0.0013586987, 10.000708, 9.996937 
2.2552824e+3, 2.8116786e+2, -336967.72, -432558.0, -108241.38, 0.055097334, -0.2412526, -266438.84, -81895.1, 0.00015517221, 9.999589, 9.998163 
2.2553244e+3, 2.9116777e+2, -90865.7, -159462.77, -21606.174, -0.036245354, -0.14855918, -84627.63, 1916.0594, 0.0000026982873, 10.000197, 9.999033 
2.2553672e+3, 3.0116746e+2, -226000.72, -431345.5, -23605.57, -0.14540708, -0.063477084, -223322.06, -223322.06, 0.000065484004, 9.999836, 9.99706 
2.255412e+3, 3.1116346e+2, 4801.745, 227486.38, 122120.14, 0.20999856, -0.12781447, 281402.75, 281402.75, 0.00034262822, 9.999055, 10.001919 
2.2648239e+3, 1.7113955e+2, -1199445.9, -1329137.5, -37223.633, -0.19753908, -0.14416409, -1189521.6, 73310.1, 0.44342524, 10.000438, 9.999219 
2.2648637e+3, 1.8114188e+2, -990547.3, -1191834.4, -33325.523, -0.36121827, -0.0385851, -985173.3, 179635.77, 0.3585124, 10.002092, 9.998576 
2.2649068e+3, 1.911407e+2, -1071442.5, -1075683.9, -107271.95, 0.0023776973, -0.1012888, -966270.25, 100543.914, 0.29413474, 9.999879, 9.999778 
2.2649492e+3, 2.0113981e+2, -1102933.1, -1052334.8, -68852.914, 0.20045938, -0.19675769, -1004280.2, -35463.33, 0.24160613, 9.998763, 9.9998045 
2.2649859e+3, 2.1113953e+2, -917821.5, -916662.7, -75877.125, -0.17842108, -0.2049256, -841362.75, 29454.303, 0.1940874, 9.999522, 9.999676 
2.2650254e+3, 2.2113891e+2, -749481.6, -960901.56, 31650.61, -0.3742116, -0.16497414, -744845.06, 27976.727, 0.14888066, 10.000754, 9.998097 
2.2650725e+3, 2.3113762e+2, -483535.78, -790268.1, -7660.4077, -0.010238002, -0.09907303, -483344.56, 191491.89, 0.108788945, 10.002204, 9.997852 
2.2651182e+3, 2.4113557e+2, -263336.66, -672138.94, -71560.52, 0.26315317, -0.03336948, -251172.03, 325686.06, 0.07581198, 10.003149, 9.997561 
2.2651592e+3, 2.5113335e+2, -339971.22, -549250.44, -97647.375, 0.104743615, -0.13236031, -301486.9, 177391.73, 0.048806984, 10.001356, 9.9986 
2.265198e+3, 2.611306e+2, -598052.75, -797165.1, -110738.41, -0.066522725, -0.1624365, -548698.1, -167793.5, 0.026684597, 9.999609, 9.997051 
2.2652411e+3, 2.711281e+2, -267117.0, -492978.0, 14160.444, -0.0012939723, -0.21506272, -266232.66, 16698.697, 0.010897145, 10.000848, 9.997845 
2.2652835e+3, 2.8112662e+2, -208585.66, -399083.6, 35040.906, 0.17270894, -0.16927268, -202344.58, -17397.176, 0.002788968, 10.0005455, 9.99796 
2.2653279e+3, 2.9112557e+2, 170005.92, -122009.3, 105041.41, 0.18748845, -0.0856591, 203864.7, 290821.7, 0.0003034348, 10.002396, 9.998237 
2.2653699e+3, 3.011227e+2, 228694.61, -232003.23, -15483.845, 0.000054113312, -0.23992744, 229214.42, 229214.42, 0.000074942734, 10.003097, 9.996875 
2.2654116e+3, 3.1111914e+2, 137488.28, 127903.336, -30565.934, 0.17559439, -0.09282661, 163635.17, 163635.17, 0.00045627946, 10.0005455, 10.000622 
2.2749475e+3, 2.0109408e+2, -1140551.8, -1155417.0, 2488.2986, 0.0901094, -0.4746296, -1140146.3, -170894.25, 0.4526298, 9.998898, 9.998978 
2.274986e+3, 2.1109506e+2, -911950.4, -875023.2, -8819.617, -0.117145345, -0.40987018, -873024.9, -1783.4298, 0.38963944, 9.999412, 9.999909 
2.2750318e+3, 2.210949e+2, -1072537.3, -1244964.0, 24366.268, 0.12917364, -0.34309727, -1069160.0, -295915.72, 0.32267725, 9.999083, 9.996899 
2.275077e+3, 2.3109373e+2, -820898.5, -1132235.8, 67490.54, 0.19484918, -0.14412743, -806897.75, -131634.83, 0.25840095, 10.000494, 9.99626 
2.275121e+3, 2.4109177e+2, -518172.5, -914780.9, -80625.26, 0.14127672, 0.079618804, -502409.0, 74880.414, 0.20062341, 10.001876, 9.996475 
2.275162e+3, 2.5108883e+2, -452337.97, -573172.06, -150073.66, 0.22194068, -0.15253545, -350976.4, 128346.56, 0.14660953, 10.000538, 9.998819 
2.2751991e+3, 2.6108685e+2, -779234.25, -822632.5, -145786.39, 0.04207875, -0.1256625, -653541.0, -272195.84, 0.09444842, 9.998148, 9.997538 
2.2752427e+3, 2.7108833e+2, -181315.83, -177548.03, 60356.5, 0.0019018205, -0.016381478, -119046.04, 164278.5, 0.04983968, 10.000322, 10.000256 
2.2752842e+3, 2.8108874e+2, -403603.47, -539711.75, -28248.209, 0.13661255, 0.06781196, -397973.63, -212658.22, 0.019500945, 9.999467, 9.99748 
2.2753318e+3, 2.9108405e+2, -78827.07, -449852.63, 181365.9, 0.32313865, -0.09762219, -4900.876, 82462.73, 0.004786881, 10.00164, 9.996315 
2.2753745e+3, 3.0107713e+2, -81678.96, -542621.5, -133007.64, 0.112043716, -0.519869, -46052.43, -46052.43, 0.0007184054, 10.001778, 9.995319 
2.2754097e+3, 3.1107548e+2, -459005.44, -684564.4, -9457.076, -0.12381416, 0.0028317128, -458609.63, -458609.63, 0.0007782504, 9.998936, 9.995712 
2.2851177e+3, 2.4104734e+2, -428641.84, -172448.45, -42853.15, -0.32230335, -0.5063339, -165470.53, 412248.28, 0.45869297, 9.9980545, 10.00632 
2.2851604e+3, 2.5104958e+2, -850314.2, -1063018.9, 76887.46, 0.09751194, 0.06553416, -825432.0, -345730.9, 0.36361384, 9.9989, 9.996335 
2.2852033e+3, 2.6104507e+2, 199475.45, -272264.84, 464.01947, 0.19768347, -0.026619373, 199475.9, 581226.1, 0.26167566, 10.005951, 9.997917 
2.2852485e+3, 2.7104634e+2, 610209.9, 164683.39, 18352.178, 0.2751177, 0.07986616, 610964.56, 894700.8, 0.1640845, 10.006943, 10.000109 
2.2852863e+3, 2.810445e+2, 30851.635, -284356.3, -266101.06, 0.28642336, 0.0012414665, 182519.03, 368271.22, 0.0825175, 10.0023155, 9.99798 
2.2853306e+3, 2.910421e+2, 117917.14, -159690.16, 276176.47, 0.06280727, -0.09275719, 288208.78, 375987.78, 0.030766618, 10.001996, 9.998263 
2.2853762e+3, 3.0104107e+2, 182305.31, -11605.785, 131776.98, 0.13767272, -0.17672864, 248951.58, 248951.58, 0.009050321, 10.0016365, 9.999124 
2.2854114e+3, 3.1103998e+2, -197907.95, 24456.137, 237920.8, 0.19342354, 0.00043127284, 175891.22, 175891.22, 0.003966125, 9.998165, 10.000939 
2.29525e+3, 2.7099878e+2, -927559.8, -812643.0, 57088.77, -0.29132104, -0.28820083, -789103.94, -504905.03, 0.434636, 9.9962845, 9.997762 
2.2952895e+3, 2.8099406e+2, -974869.56, -983461.06, -608666.94, 0.27144605, -0.48562178, -370483.22, -184226.22, 0.2541771, 9.996271, 9.995938 
2.2953252e+3, 2.9100367e+2, 257450.28, 435146.78, 347347.06, -0.7715709, 0.05418848, 704828.9, 792992.1, 0.121767476, 10.000897, 10.003212 
2.2953753e+3, 3.0101737e+2, -475172.8, 119387.37, 2910.89, -0.28142318, 0.9958615, 119401.62, 119401.62, 0.054011412, 9.995345, 10.002961 
2.2954185e+3, 3.110092e+2, 309492.03, 1550155.5, -228340.03, 0.9255025, -0.5860578, 1590846.3, 1590846.3, 0.03150884, 9.996355, 10.01244 
2.3053369e+3, 2.9098186e+2, -752607.9, -440980.13, -70586.11, 0.09162319, 0.711354, -425737.4, -337356.8, 0.36138254, 9.994944, 10.00016 
2.3053843e+3, 3.0096722e+2, -261307.02, -189837.02, 258805.25, 0.2852314, -1.2360668, 35688.668, 35688.668, 0.21542566, 9.998197, 9.99959 
2.3054148e+3, 3.1097144e+2, 762635.3, -1240494.1, -93005.234, -0.13530439, 0.34729737, 766944.3, 766944.3, 0.16809407, 10.012736, 9.985992 
2.3441704e+3, 2.7612773e+2, -580313.1, -887037.7, 552958.6, -0.8782595, -0.419462, -159843.38, 74062.234, 0.46943372, 9.999177, 9.99526 
2.343776e+3, 2.8611797e+2, -3714566.8, -1330714.4, 1850734.8, 0.21519262, -0.6741053, -321298.47, -185297.44, 0.43969768, 9.972391, 10.00457 
2.3581131e+3, 1.7658588e+2, -1199054.9, -785692.0, 117699.02, -0.2012782, -1.2437568, -754528.4, 454902.84, 0.4364257, 9.996344, 10.006188 
2.3577276e+3, 1.8659215e+2, -2239437.3, -1405118.1, -518478.97, 0.3134253, -0.20793939, -1156813.6, -45443.977, 0.37760645, 9.990857, 10.001519 
2.3573306e+3, 1.965918e+2, -1517165.1, -1174275.5, -360685.75, 0.1353841, 0.12137452, -946361.4, 67015.734, 0.33353668, 9.995655, 10.000376 
2.3569307e+3, 2.065783e+2, -750491.06, -857041.5, -369282.94, -1.0226322, -0.48761278, -430660.2, 484847.4, 0.3009786, 10.001525, 9.999429 
2.3565549e+3, 2.1657972e+2, -508564.34, -768360.0, -281694.47, 0.22146372, 0.30324325, -328260.28, 489228.56, 0.27814487, 10.002796, 9.998721 
2.3561606e+3, 2.2657558e+2, 49583.273, -877294.0, -354606.0, 0.2968379, 0.93876326, 169686.22, 889210.3, 0.261049, 10.009312, 9.993907 
2.3557547e+3, 2.3655178e+2, -1238706.8, -1548703.8, 257400.64, -0.65939754, -0.19296078, -1093239.6, -471486.4, 0.24563164, 9.997724, 9.994076 
2.3553643e+3, 2.4653934e+2, -582781.56, -608933.56, 459481.84, 0.17768323, -0.31333435, -136189.7, 387685.63, 0.23008844, 9.999518, 9.999318 
2.354969e+3, 2.5652787e+2, -752303.8, -477562.56, 166173.86, 0.28857282, -0.67441094, -399330.7, 26656.021, 0.2098481, 9.996521, 10.000735 
2.35457e+3, 2.6652154e+2, 369914.38, 233510.55, -201306.11, 0.2703677, -0.8137767, 514258.1, 842309.94, 0.17508836, 10.003802, 10.002318 
2.3541829e+3, 2.7651563e+2, 180833.08, -689523.0, -74044.2, 0.40787527, -0.6121967, 187087.33, 417204.13, 0.13131973, 10.005685, 9.993498 
2.3537791e+3, 2.865091e+2, 1508475.9, 808350.7, -679035.06, -0.001741047, -0.30204713, 1922371.8, 2054542.5, 0.12070859, 10.011487, 10.001277 
2.353376e+3, 2.9650986e+2, 269575.2, 257387.6, -219309.48, -1.049323, -0.21311414, 482875.53, 517020.47, 0.17989989, 10.001554, 10.001524 
2.3529848e+3, 3.0649662e+2, 59191.066, -1670028.1, -656136.06, -0.440889, 0.19818981, 279968.16, 279968.16, 0.3040905, 10.009094, 9.9843445 
2.3689075e+3, 1.5701579e+2, -1556883.8, -1519849.8, 130907.32, 0.64802897, -0.3781592, -1406156.3, -4947.285, 0.40917483, 9.998191, 9.999465 
2.3685017e+3, 1.6701019e+2, -1095816.5, -1634337.5, 127108.67, -0.17080343, 0.13226439, -1067322.4, 235945.05, 0.3191415, 10.00369, 9.995296 
2.3681016e+3, 1.7700362e+2, -1156164.4, -1652750.1, 286915.38, -0.6639511, 0.66406494, -1025023.75, 180311.48, 0.25440004, 10.002133, 9.995404 
2.367714e+3, 1.8699025e+2, -681653.8, -780917.75, 298341.6, -0.06735055, 0.29471186, -428844.0, 678627.44, 0.20803122, 10.002589, 10.000919 
2.3673345e+3, 1.969777e+2, -456219.9, -711645.5, 188992.05, 1.171586, -0.3081423, -355835.03, 653764.75, 0.17323056, 10.003733, 10.000144 
2.3669407e+3, 2.0696557e+2, -710560.7, -880868.5, 286173.56, 0.6371234, -0.68163323, -497140.5, 414575.38, 0.14628343, 10.001361, 9.999145 
2.3665418e+3, 2.169544e+2, -1050036.1, -927464.56, 201129.34, -0.43568453, -0.9800961, -778491.06, 35327.05, 0.1255341, 9.997682, 9.999822 
2.3661517e+3, 2.269463e+2, -830101.06, -504562.34, -151534.27, 0.06977502, -1.1469433, -444943.53, 270943.3, 0.10829949, 9.997359, 10.002313 
2.365762e+3, 2.369371e+2, -675433.75, -496467.78, -278944.66, 1.0322529, -1.5158948, -293004.8, 324959.28, 0.09199208, 9.99828, 10.001251 
2.365359e+3, 2.469341e+2, -548627.7, -701275.56, -149400.28, 0.6530445, -1.0092466, -457184.56, 62813.055, 0.07586676, 9.999923, 9.998258 
2.364956e+3, 2.5693318e+2, -408409.2, -895664.5, 105612.86, -0.19735001, 0.00441533, -386502.47, 35517.23, 0.059159536, 10.001582, 9.995412 
2.3645605e+3, 2.6692647e+2, 40078.223, -211004.8, 167242.22, -0.26767728, 0.34476775, 123655.42, 447747.56, 0.04045304, 10.002284, 9.9991045 
2.3641755e+3, 2.769147e+2, -546963.25, -881070.25, 477614.88, 0.03110324, 0.14880753, -208029.73, 18180.793, 0.02267617, 9.999605, 9.994999 
2.3637761e+3, 2.8690025e+2, -100780.62, -223441.31, -45519.152, -0.14256285, -0.18379118, -85734.234, 42607.125, 0.017752256, 10.000447, 9.998345 
2.3633754e+3, 2.9688737e+2, -46022.73, 263607.78, 282896.38, -0.45525476, -0.9363657, 431279.94, 461729.03, 0.038001835, 9.998619, 10.002346 
2.3629883e+3, 3.0686846e+2, 334075.8, 682063.6, -187552.34, 0.2414769, -2.2854168, 763901.25, 763901.25, 0.08439391, 10.000303, 10.00471 
2.3792878e+3, 1.4741893e+2, -2354961.0, -2020784.4, 351654.56, 0.3929403, -0.521739, -1798540.6, -303295.1, 0.38968244, 9.994219, 9.998468 
2.3788916e+3, 1.5740654e+2, -1592805.6, -1740838.8, 111678.83, -0.18096781, -0.9665268, -1532842.3, -135474.89, 0.27836236, 9.999201, 9.997493 
2.3784985e+3, 1.6739699e+2, -1090043.1, -1161644.3, 83550.65, -0.045482945, -1.0324078, -1034945.94, 264515.25, 0.19862524, 10.001207, 9.999924 
2.3781064e+3, 1.7739159e+2, -1030123.75, -1318811.8, 156073.06, 0.30197036, -0.8550457, -961879.0, 239635.6, 0.1461588, 10.00182, 9.997789 
2.3777094e+3, 1.8738444e+2, -1022828.06, -1491303.1, 329041.5, -0.10600149, -0.41360185, -853165.2, 250425.36, 0.11113541, 10.002217, 9.995666 
2.3773144e+3, 1.9737475e+2, -923017.3, -1377625.1, 183682.13, -0.508075, -0.24756636, -858077.9, 147615.75, 0.08556882, 10.00187, 9.99603 
2.3769297e+3, 2.0736495e+2, -849664.44, -899492.7, 169506.9, 0.12413756, -0.28912193, -703250.5, 204539.34, 0.065839775, 10.000083, 9.9994335 
2.3765445e+3, 2.1735433e+2, -1346809.3, -1210227.9, 95145.5, 0.74291086, -0.5609186, -1161402.0, -351511.25, 0.050802168, 9.996375, 9.998449 
2.3761453e+3, 2.2734739e+2, -1185418.9, -880211.25, -129973.74, 0.4243588, -0.4525805, -832362.8, -120404.48, 0.038884565, 9.99607, 10.000094 
2.3757446e+3, 2.3734143e+2, -1151849.8, -993065.7, -250222.42, 0.11620955, -0.282424, -809942.3, -195925.39, 0.028499383, 9.996332, 9.998611 
2.3753461e+3, 2.4733394e+2, -472446.22, -349790.56, -105965.96, 0.034750503, -0.30830938, -288685.2, 227406.48, 0.019239577, 9.999235, 10.000924 
2.3749526e+3, 2.5732464e+2, -448338.1, -656939.7, 114042.5, -0.011038512, -0.46474802, -398093.28, 20091.94, 0.011432521, 10.000377, 9.997576 
2.374557e+3, 2.673188e+2, -11031.863, -83946.77, 81477.984, -0.115584455, -0.22151434, 41773.26, 362016.4, 0.00541735, 10.001412, 10.000278 
2.3741639e+3, 2.7731213e+2, -608519.7, -614555.0, 304257.8, -0.34256533, -0.15480654, -307264.53, -84956.04, 0.0017239637, 9.997975, 9.997619 
2.373769e+3, 2.8730035e+2, -237162.58, -304617.97, 9946.844, -0.08849673, -0.31523982, -235726.4, -111298.84, 0.0009904382, 9.9995985, 9.998211 
2.3733807e+3, 2.9729304e+2, -406906.03, -308259.2, 270344.4, 0.7085189, -0.38115805, -82775.6, -56273.13, 0.0037172302, 9.997823, 9.998778 
2.3729753e+3, 3.072827e+2, 456888.53, 506636.66, 41348.4, -0.8362697, -0.5317951, 530016.2, 530016.2, 0.01090394, 10.002152, 10.002282 
2.389668e+3, 1.3781817e+2, -1454966.1, -936186.6, 127155.266, 0.18147464, -0.1729524, -906696.6, 682659.75, 0.42782593, 9.996765, 10.008618 
2.3892766e+3, 1.4781512e+2, -1421577.6, -1382716.0, 15621.513, 0.09544456, -0.11847149, -1377215.1, 114159.56, 0.2998544, 9.999733, 10.000637 
2.3888882e+3, 1.5780385e+2, -1367733.8, -1464740.6, 52471.53, 0.14757022, -0.5521303, -1344782.0, 48702.625, 0.19614406, 9.999982, 9.999105 
2.3884946e+3, 1.6779523e+2, -1010650.2, -1137167.3, -85876.65, 0.12184583, -0.6235057, -967248.3, 328318.6, 0.12585048, 10.001606, 9.999929 
2.3880999e+3, 1.777877e+2, -806181.5, -1188347.0, -108885.64, 0.09310093, -0.63608015, -777335.4, 420302.9, 0.083471425, 10.003183, 9.998058 
2.3877048e+3, 1.8777782e+2, -884418.06, -1416416.8, 18790.7, -0.120029084, -0.53643006, -883755.2, 215982.17, 0.057587944, 10.002951, 9.995836 
2.3873098e+3, 1.9776705e+2, -953990.06, -1381607.5, 72067.63, -0.45908368, -0.47000644, -942171.0, 59676.04, 0.03970386, 10.00145, 9.99621 
2.3869213e+3, 2.0775953e+2, -709854.06, -829653.1, 52919.934, -0.047951907, -0.30193764, -689825.7, 214098.61, 0.026570952, 10.000974, 9.999467 
2.3865354e+3, 2.1775256e+2, -627782.06, -792077.6, 5001.908, 0.6428783, -0.18978389, -627629.94, 178365.25, 0.017417854, 10.00097, 9.999114 
2.3861367e+3, 2.2774626e+2, -441679.97, -482908.38, -70314.19, 0.42677823, -0.07140032, -389020.5, 319036.22, 0.011141793, 10.000965, 10.000527 
2.3857339e+3, 2.3773928e+2, -412831.6, -572952.56, 53309.9, -0.1310624, 0.010356176, -396706.72, 213418.02, 0.0065593217, 10.001094, 9.999194 
2.3853372e+3, 2.4772991e+2, -275389.97, -250082.48, 86660.51, -0.16310063, -0.18755168, -175156.77, 337059.8, 0.0032030866, 10.000521, 10.000984 
2.384946e+3, 2.5771922e+2, -643455.1, -611742.1, 135775.44, 0.045658614, -0.5065812, -490900.4, -76579.04, 0.0011282732, 9.998415, 9.998792 
2.384551e+3, 2.6771218e+2, -450221.13, -303789.84, -17832.14, 0.013362304, -0.4102035, -301649.56, 14739.282, 0.00023273825, 9.998417, 10.000194 
2.3841557e+3, 2.7770585e+2, -507147.4, -344729.2, 28803.47, -0.24054399, -0.35169935, -339772.44, -121322.4, 0.000018977813, 9.99768, 9.9995775 
2.3837614e+3, 2.8769752e+2, -287666.56, -288600.06, -156907.86, -0.038727805, -0.3147887, -131224.77, -10680.381, 0.000039543782, 9.999033, 9.998579 
2.383374e+3, 2.9769483e+2, -202278.44, -378620.97, 80715.336, 0.9004137, 0.1899779, -170912.52, -148325.86, 0.00030463652, 9.999798, 9.997355 
2.3829646e+3, 3.0768847e+2, 13828.898, 262775.28, -94814.64, -1.2206485, 0.6283963, 294773.78, 294773.78, 0.00096671697, 9.999254, 10.001893 
2.400053e+3, 1.2820873e+2, -1936270.1, -1696411.1, 352770.94, 0.30614644, -0.7567513, -1443741.1, 239787.64, 0.49043512, 9.997724, 10.001166 
2.3996565e+3, 1.3820882e+2, -1689611.6, -1539031.6, 23632.404, -0.12539686, -0.27869892, -1535409.8, 50121.383, 0.36336103, 9.998354, 10.000721 
2.399271e+3, 1.4820617e+2, -1354544.9, -1165034.8, 82997.4, 0.29363674, -0.024509873, -1133825.1, 353732.34, 0.24041095, 9.999489, 10.002488 
2.398887e+3, 1.5820202e+2, -1359167.0, -1325426.1, 36020.176, 0.79899067, 0.048642665, -1302521.4, 87076.4, 0.14389461, 9.999554, 10.00021 
2.39849e+3, 1.6819482e+2, -1133650.5, -1281962.8, -17982.066, 0.26274696, 0.1343125, -1131501.4, 160164.16, 0.08188297, 10.001138, 9.998959 
2.3980899e+3, 1.7818527e+2, -957607.2, -1328721.3, -85957.52, -0.45177627, 0.02823117, -938664.56, 255090.66, 0.047678713, 10.00228, 9.997532 
2.3976997e+3, 1.8817216e+2, -931284.1, -1237071.5, -26566.479, -0.14411472, -0.2988479, -928993.2, 166888.27, 0.028905774, 10.001791, 9.99759 
2.3973115e+3, 1.9815892e+2, -1165791.5, -1387892.3, 4552.1787, 0.37357363, -0.6472344, -1165698.3, -167687.63, 0.017015342, 9.999692, 9.997003 
2.3969164e+3, 2.0815314e+2, -938418.3, -943310.56, 53003.156, 0.16461319, -0.33302093, -887804.9, 12270.569, 0.00915297, 9.9995165, 9.9993515 
2.3965213e+3, 2.181491e+2, -925541.44, -907568.56, -19795.105, -0.049450945, 0.07972986, -894815.56, -92690.914, 0.0045936005, 9.99892, 9.999306 
2.3961252e+3, 2.2814186e+2, -438733.75, -219771.55, -76379.27, -0.002643828, -0.07362267, -195761.42, 508427.75, 0.0022051786, 9.99992, 10.002808 
2.3957285e+3, 2.3813228e+2, -557947.7, -572073.8, 13280.259, 0.0174906, -0.47371566, -549969.06, 56303.66, 0.0009056362, 9.999868, 9.999793 
2.3953311e+3, 2.4812526e+2, -493840.66, -535360.25, -731.7012, -0.02369886, -0.36838773, -493827.75, 14515.149, 0.00023937336, 9.999993, 9.999169 
2.3949362e+3, 2.5811806e+2, -951960.25, -991410.2, 31844.049, 0.0028167153, -0.19819447, -934227.0, -523809.16, 0.000025130046, 9.997371, 9.996696 
2.3945439e+3, 2.6810807e+2, -591305.8, -530120.1, -21682.879, 0.2335312, -0.22986954, -523215.38, -210698.47, 0.00000030344088, 9.998252, 9.9986725 
2.3941523e+3, 2.7809808e+2, -701832.8, -515146.3, -28273.99, 0.35623977, -0.45393854, -510958.13, -296343.1, 0.0000000068303647, 9.996741, 9.998877 
2.3937485e+3, 2.880927e+2, -287165.03, -165912.73, -100785.35, -0.47540075, -0.1908877, -108924.19, 7755.833, 0.0000039429096, 9.998642, 9.9995575 
2.3933472e+3, 2.9809132e+2, -554759.2, -599943.1, 77360.12, -1.1783367, 0.4492862, -496759.7, -478052.13, 0.0000615741, 9.997719, 9.996808 
2.3929724e+3, 3.0807698e+2, -132334.14, 459916.56, 83827.195, 0.2948583, -0.105608314, 471552.84, 471552.84, 0.00025997285, 9.997159, 10.0041895 
2.4100436e+3, 1.2860952e+2, -1626653.5, -1655187.6, -88930.64, -0.048931632, -0.10339963, -1550852.8, 128756.22, 0.44509998, 10.000418, 9.999619 
2.4096496e+3, 1.386017e+2, -1675377.1, -1710060.5, -2345.6003, -0.085690014, -0.17926615, -1675219.3, -93529.695, 0.31930807, 9.999269, 9.999 
2.4092622e+3, 1.485959e+2, -1311870.3, -1190227.8, 70132.94, 0.10838543, -0.13012126, -1158216.5, 325526.03, 0.20041417, 10.000061, 10.001875 
2.4088757e+3, 1.5858972e+2, -1228005.8, -1294921.8, 4516.6396, 0.27507034, -0.19515952, -1227702.3, 158095.97, 0.110025235, 10.00069, 9.999883 
2.4084821e+3, 1.6858259e+2, -1029544.94, -1233283.0, -67829.875, 0.06269939, -0.10452693, -1009028.56, 278839.5, 0.054970514, 10.001792, 9.999016 
2.4080867e+3, 1.7857467e+2, -934188.9, -1246707.1, -109411.27, -0.3024934, -0.056037843, -899692.3, 290254.38, 0.027314784, 10.002023, 9.998236 
2.4076939e+3, 1.8856527e+2, -978365.7, -1123619.9, -138319.56, -0.08919624, -0.13027008, -894765.4, 197273.69, 0.013986388, 10.000788, 9.998881 
2.4073023e+3, 1.9855507e+2, -1188738.9, -1226528.9, -74700.65, 0.23919916, -0.28921485, -1130580.6, -136441.31, 0.006556314, 9.998709, 9.998601 
2.4069075e+3, 2.0854801e+2, -1140161.4, -936089.5, 17763.693, 0.15736789, -0.22726585, -934554.8, -38341.8, 0.002469395, 9.997637, 10.000345 
2.4065118e+3, 2.1854201e+2, -1125580.5, -873006.5, 52508.7, -0.08507462, -0.08109818, -862525.2, -64247.926, 0.00078321603, 9.996864, 10.000568 
2.406116e+3, 2.2853607e+2, -719016.3, -288896.28, -33536.0, -0.07597923, -0.18802881, -286297.22, 414032.72, 0.00023610769, 9.997568, 10.003511 
2.4057205e+3, 2.3852892e+2, -670836.6, -530237.44, 1858.6376, -0.010816738, -0.41630095, -530212.8, 72178.445, 0.000047296035, 9.998548, 10.000741 
2.4053244e+3, 2.485222e+2, -400320.47, -520279.97, 19120.994, 0.011958702, -0.2895644, -397346.4, 107110.836, 0.0000020598873, 10.000719, 9.998946 
2.4049294e+3, 2.5851524e+2, -158971.78, -536976.1, 134785.94, 0.012166965, -0.07511785, -115833.76, 290694.8, 0.0, 10.002415, 9.997388 
2.4045362e+3, 2.685041e+2, -219619.27, -422315.28, 107398.05, 0.22187614, -0.1819294, -173299.55, 135339.84, 0.0, 10.001076, 9.998082 
2.4041435e+3, 2.784928e+2, -420989.53, -376745.88, 105996.84, 0.39750656, -0.4327949, -290587.03, -79834.68, 0.0, 9.9984865, 9.999039 
2.4037388e+3, 2.8848806e+2, -166516.73, -65301.21, 56769.73, -0.5996556, -0.12687963, -39856.703, 72950.42, 0.00000028208012, 9.999092, 10.000139 
2.4033353e+3, 2.9848692e+2, -151812.98, -276749.47, 211427.98, -1.5842289, 0.5285109, 6182.086, 21009.492, 0.000017469716, 9.999727, 9.9981165 
2.402976e+3, 3.0846465e+2, 189595.55, 573455.1, -39156.18, 1.5428765, -0.8256355, 577408.56, 577408.56, 0.00009824351, 9.999298, 10.00405 
2.4200374e+3, 1.2900244e+2, -1600736.0, -1595611.5, -86520.234, 0.04896132, 0.1432066, -1511615.6, 164155.78, 0.4141129, 10.000138, 10.000282 
2.4196436e+3, 1.3899457e+2, -1551665.4, -1685131.1, -75592.055, 0.12880011, 0.016316531, -1517564.6, 60283.113, 0.28877336, 10.000312, 9.998735 
2.419253e+3, 1.4898503e+2, -1330791.3, -1277223.8, 102237.64, -0.08219133, -0.25239545, -1198319.8, 281611.88, 0.17287979, 10.000201, 10.00105 
2.418863e+3, 1.5897505e+2, -1374178.0, -1450772.3, 29524.994, -0.30251008, -0.60470146, -1364118.3, 17901.129, 0.08747846, 9.999828, 9.999228 
2.4184749e+3, 1.6896798e+2, -1171472.8, -1242619.3, -14949.6875, -0.08106772, -0.53092045, -1168459.1, 115632.85, 0.038149297, 10.000498, 9.999538 
2.418086e+3, 1.7896208e+2, -1131173.8, -1268556.4, -95093.98, 0.21399526, -0.33655336, -1082556.3, 103599.74, 0.01570925, 10.000369, 9.998842 
2.4176879e+3, 1.8895797e+2, -1011816.75, -998075.7, -168068.7, 0.022855654, 0.0016063725, -836737.1, 251463.69, 0.0064830934, 9.999971, 10.0001 
2.417289e+3, 1.9895309e+2, -1220870.4, -1140896.5, -115461.64, -0.15136342, 0.25122273, -1058693.6, -68441.48, 0.0021827125, 9.998107, 9.999467 
2.4168965e+3, 2.0894302e+2, -1045059.56, -745874.5, -2903.3677, 0.08269511, -0.116926864, -745846.4, 146500.94, 0.00044835047, 9.997685, 10.001609 
2.416505e+3, 2.1893264e+2, -1192801.3, -843083.8, 17475.678, 0.35384285, -0.55237716, -842212.75, -47768.07, 0.000068581576, 9.996249, 10.001049 
2.4161074e+3, 2.2893077e+2, -778722.7, -317488.28, -20502.168, 0.112643234, -0.26706004, -316578.72, 379884.75, 0.0000096515805, 9.997378, 10.003315 
2.4157102e+3, 2.3892947e+2, -837224.1, -618981.6, 18708.855, -0.123016015, 0.08159477, -617389.44, -18912.605, 0.00000040342232, 9.997609, 10.000552 
2.4153168e+3, 2.4892154e+2, -355795.94, -361608.28, 99703.46, -0.04458109, -0.000855208, -258956.3, 241594.31, 0.0, 10.000522, 10.000093 
2.4149245e+3, 2.5891188e+2, -287210.72, -561897.75, 109967.81, 0.043359414, -0.18443236, -248610.61, 154031.2, 0.0, 10.00147, 9.997687 
2.4145254e+3, 2.6890165e+2, -326709.66, -482062.8, 7617.442, -0.1951364, -0.23341548, -326337.03, -21593.523, 0.0, 10.000501, 9.997879 
2.4141264e+3, 2.7889147e+2, -769592.2, -698904.44, 52900.676, -0.40373573, -0.3184489, -670627.0, -463781.78, 0.0, 9.996866, 9.997603 
2.4137369e+3, 2.888845e+2, -253366.97, -58297.61, 128548.05, 0.045826692, -0.21106638, 5529.4585, 114441.72, 0.0000000009564638, 9.998476, 10.000396 
2.41335e+3, 2.988792e+2, -663477.8, -714284.0, 273706.7, 0.54933244, 0.0006851418, -413997.88, -403034.84, 0.0000015241876, 9.997221, 9.996294 
2.4129507e+3, 3.088608e+2, -501903.53, -481169.56, -204330.5, -0.28916782, -0.689139, -286943.22, -286943.22, 0.000020757188, 9.997724, 9.997549 
2.4300249e+3, 1.293924e+2, -1507748.4, -1513200.1, -85634.03, -0.614186, 0.14355206, -1424796.9, 247153.13, 0.39271495, 10.000869, 10.0008135 
2.4296372e+3, 1.3938566e+2, -1295988.1, -1466650.5, -31438.355, -0.035147153, 0.112061776, -1290381.0, 283637.63, 0.26710206, 10.002257, 9.999533 
2.429247e+3, 1.4937742e+2, -1215649.4, -1221287.8, 51020.473, -0.061949205, -0.052673437, -1167370.3, 308724.28, 0.15331793, 10.001102, 10.00105 
2.4288562e+3, 1.5936893e+2, -1473789.0, -1405589.6, 38981.49, -0.23110871, -0.25464365, -1387898.0, -9725.945, 0.07196278, 9.9987335, 10.000064 
2.4284665e+3, 1.6936237e+2, -1348626.4, -1182252.4, 45353.39, -0.1160945, -0.24128872, -1170692.3, 109544.92, 0.027363949, 9.9986105, 10.000881 
2.4280761e+3, 1.793561e+2, -1313203.9, -1187543.9, 5200.823, 0.019286986, -0.19952855, -1187328.9, -5027.619, 0.009079448, 9.998365, 10.000347 
2.4276799e+3, 1.8935142e+2, -1035992.6, -861392.06, -73249.336, 0.027604695, -0.03916973, -834732.7, 249615.8, 0.002868925, 9.999132, 10.001464 
2.4272825e+3, 1.9934669e+2, -908412.7, -864167.94, 7266.273, -0.0347741, 0.12624854, -863005.2, 123390.76, 0.00059867656, 9.999625, 10.000662 
2.4268882e+3, 2.0933814e+2, -719035.06, -610447.6, 56253.707, 0.089202, -0.10591519, -586560.25, 301915.9, 0.000045539302, 9.999869, 10.001554 
2.4264951e+3, 2.1932909e+2, -696115.7, -618956.8, 32364.566, 0.2257533, -0.38790765, -607179.1, 183382.08, 0.0000022398012, 9.999615, 10.0009775 
2.4260984e+3, 2.29326e+2, -570648.25, -360620.38, -66875.45, 0.10443983, -0.1272897, -341134.3, 351461.47, 0.000000052409952, 9.99939, 10.002064 
2.4257022e+3, 2.393238e+2, -587075.1, -446664.88, -67678.266, -0.0786158, 0.22481015, -419355.34, 175266.33, 0.0, 9.999041, 10.0010395 
2.4253096e+3, 2.4931572e+2, -429298.53, -272086.97, -1103.6655, -0.05399616, 0.03398626, -272079.22, 224614.5, 0.0, 9.999397, 10.001297 
2.4249175e+3, 2.5930622e+2, -411462.03, -440877.0, -37332.555, -0.027171066, -0.25629464, -386044.34, 12734.65, 0.0, 9.9997, 9.999389 
2.424518e+3, 2.6929772e+2, -173317.7, -377458.2, -150617.28, -0.25535983, -0.21559614, -93443.164, 207420.81, 0.0, 10.001261, 9.9983015 
2.4241187e+3, 2.7928945e+2, 89592.234, -207201.78, -11858.957, -0.41897932, -0.13230978, 90065.33, 293013.4, 0.0, 10.002277, 9.998391 
2.4237335e+3, 2.892806e+2, 363014.8, 208283.72, 79604.78, 0.39838132, -0.221713, 396655.34, 501684.13, 0.0, 10.00265, 10.0002985 
2.4233505e+3, 2.9927203e+2, 43458.67, -378599.78, 139069.53, 1.274853, -0.32076597, 85161.85, 92269.055, 0.000000086511356, 10.001869, 9.996413 
2.4229358e+3, 3.0926034e+2, -157697.23, -715385.0, -402109.7, -0.99636155, -0.08440093, 52791.184, 52791.184, 0.0000023081952, 10.001442, 9.994319 
2.4404249e+3, 1.1978449e+2, -1457632.0, -1232008.1, -190007.67, 0.5843241, -0.13295451, -1123846.3, 642265.94, 0.49454197, 10.000406, 10.006524 
2.4400142e+3, 1.2978207e+2, -1571361.5, -1535336.8, -2081.845, -1.0280672, 0.08396815, -1535216.8, 132912.61, 0.3775347, 10.000232, 10.000831 
2.4396314e+3, 1.3977589e+2, -1558964.3, -1546262.1, -9278.023, -0.042585865, 0.10959454, -1541369.6, 28826.816, 0.25111946, 9.999554, 10.000056 
2.4392417e+3, 1.497705e+2, -1418702.5, -1304231.6, 27948.924, 0.09790479, 0.19465518, -1297772.3, 174478.83, 0.13882844, 9.999409, 10.0011425 
2.4388508e+3, 1.5976474e+2, -1500391.9, -1333398.5, 23226.188, 0.13058567, 0.25154626, -1330228.4, 44079.316, 0.060861234, 9.998238, 10.000788 
2.4384578e+3, 1.6975872e+2, -1303396.1, -986636.0, 63663.043, -0.07764715, 0.16994207, -974319.8, 302044.53, 0.02025213, 9.998228, 10.002398 
2.4380645e+3, 1.7975219e+2, -1338626.0, -1071707.8, -3615.6055, -0.22534618, 0.0437839, -1071658.9, 106766.77, 0.0052852775, 9.99767, 10.001503 
2.4376719e+3, 1.8974519e+2, -1030959.9, -724052.5, -65165.39, 0.09177727, -0.16065484, -710789.2, 369700.6, 0.0012089658, 9.99862, 10.00266 
2.4372788e+3, 1.9973867e+2, -1029777.75, -884878.56, -4859.8755, 0.44709823, -0.27902007, -884715.75, 97834.33, 0.00012403581, 9.998763, 10.000902 
2.4368809e+3, 2.0973448e+2, -829730.5, -703923.6, 36200.66, 0.15795541, -0.07127722, -694250.7, 190341.2, 0.000001917801, 9.999458, 10.001001 
2.4364832e+3, 2.197296e+2, -948702.4, -945405.8, 10785.28, -0.119108975, 0.14060445, -936143.6, -149502.08, 0.000000018702426, 9.998874, 9.999046 
2.436089e+3, 2.2972144e+2, -745948.06, -699781.44, -80398.336, 0.0049419445, 0.093422085, -639218.25, 49509.53, 0.0, 9.999299, 9.999742 
2.4356955e+3, 2.3971303e+2, -806384.9, -687719.9, -80504.86, 0.1537198, 0.0027489983, -647045.5, -56230.22, 0.0, 9.998191, 9.999791 
2.4353015e+3, 2.4970609e+2, -414700.94, -129461.76, 6649.083, -0.029741384, -0.14303042, -129306.84, 363566.9, 0.0, 9.999072, 10.002371 
2.4349082e+3, 2.5969923e+2, -537476.56, -471425.4, -26985.969, -0.1816107, -0.26478398, -461802.06, -66871.125, 0.0, 9.998844, 9.999572 
2.4345158e+3, 2.6969323e+2, -143769.17, -236846.72, -96943.93, 0.17231575, -0.07208417, -82771.98, 214221.33, 0.0, 10.001024, 9.999335 
2.434123e+3, 2.7968678e+2, -87560.0, -335630.1, 1133.7838, 0.4890601, 0.09341566, -87554.82, 111507.47, 0.0, 10.001352, 9.997961 
2.4337229e+3, 2.89676e+2, 178322.39, -41198.09, 54980.746, -0.20269673, -0.11210967, 191322.88, 292489.0, 0.0, 10.002181, 9.998768 
2.4333252e+3, 2.9966572e+2, -386053.38, -651341.0, 87123.38, -0.81770486, -0.24784748, -359999.78, -356732.22, 0.0, 9.999361, 9.99574 
2.4329458e+3, 3.0965933e+2, -167321.19, -358639.0, -48047.777, 0.4413921, 0.21016009, -155932.38, -155932.38, 0.00000012398218, 10.000207, 9.997186 
2.450407e+3, 1.2017854e+2, -1501999.3, -1245201.9, -103599.03, -0.5740148, -0.22895199, -1208618.8, 553624.1, 0.48539877, 9.999768, 10.006545 
2.4500144e+3, 1.3017291e+2, -1791073.9, -1748348.8, 5076.3145, -0.20208797, -0.19443822, -1747753.9, -83459.21, 0.36593348, 9.999036, 9.999389 
2.4496214e+3, 1.4016572e+2, -1931711.6, -1727925.6, 47855.652, -0.14417084, -0.14361428, -1717247.1, -150875.33, 0.23856215, 9.997037, 9.999961 
2.4492317e+3, 1.5016152e+2, -1553204.8, -1258973.5, 128144.22, -0.034726094, -0.009857701, -1210989.4, 257425.0, 0.1275105, 9.9979315, 10.002215 
2.4488422e+3, 1.6015708e+2, -1428156.5, -1207037.9, 136232.05, 0.08246913, 0.09444358, -1142147.6, 228310.67, 0.052560914, 9.998327, 10.001654 
2.4484494e+3, 1.7015186e+2, -1294577.8, -952436.1, 127464.14, -0.0016063483, 0.06431845, -910170.75, 362338.06, 0.01541553, 9.998132, 10.002691 
2.4480559e+3, 1.8014623e+2, -1345116.5, -1014935.94, 43547.066, -0.13772012, 0.0154529605, -1009289.1, 165273.28, 0.0031067657, 9.997333, 10.00206 
2.4476624e+3, 1.9014041e+2, -1083625.3, -717476.56, -29069.4, 0.064873196, -0.10161358, -715183.06, 361432.53, 0.00048131414, 9.998097, 10.002962 
2.4472688e+3, 2.0013438e+2, -985000.2, -818908.56, 4315.687, 0.25573015, -0.19530722, -818796.5, 159874.48, 0.000015932997, 9.998823, 10.001313 
2.4468715e+3, 2.1012923e+2, -744858.56, -654262.6, 31271.863, -0.015764521, -0.093016855, -644516.7, 236204.17, 0.0000000054715246, 9.99998, 10.001093 
2.4464746e+3, 2.2012384e+2, -646353.8, -800924.1, 21362.723, -0.30740988, 0.07452116, -643455.7, 139319.5, 0.0, 10.000859, 9.999097 
2.4460818e+3, 2.3011503e+2, -587137.4, -764690.6, -35694.863, -0.01591187, 0.06288099, -580230.06, 104640.65, 0.0, 10.000878, 9.998607 
2.4456891e+3, 2.4010564e+2, -471023.66, -523933.5, 9319.992, 0.2535879, -0.0065131043, -469429.94, 117540.055, 0.0, 10.000331, 9.999921 
2.4452937e+3, 2.5009853e+2, -361782.97, -104535.02, 49270.848, -0.002027305, -0.15676287, -95421.05, 393609.38, 0.0, 9.999302, 10.002513 
2.4448992e+3, 2.6009223e+2, -525023.1, -346934.38, -17943.559, -0.2574147, -0.23491953, -345144.47, 45938.043, 0.0, 9.998254, 10.000762 
2.4445096e+3, 2.700871e+2, -326641.2, -245856.22, -77668.76, 0.24088486, -0.041212656, -198704.5, 94432.55, 0.0, 9.999284, 10.000183 
2.4441192e+3, 2.8008142e+2, -129610.77, -279141.4, -10142.411, 0.6678436, 0.14428756, -128925.97, 66272.59, 0.0, 10.000547, 9.998768 
2.4437138e+3, 2.900709e+2, -4670.59, -199577.22, 39177.58, -0.55451846, -0.008336187, 2909.5715, 100214.41, 0.0, 10.00106, 9.998282 
2.4433123e+3, 3.0006075e+2, -84686.63, -349716.97, 114154.07, -1.5213771, -0.08859193, -42297.77, -42297.77, 0.0, 10.000524, 9.997299 
2.4429505e+3, 3.1005812e+2, 171151.38, 203165.77, 93304.945, 1.4946914, 0.5991478, 281826.63, 281826.63, 0.000000000000427524, 10.000546, 10.000952 
2.4603984e+3, 1.2057695e+2, -1530635.9, -1458338.9, -35971.895, -0.67704177, -0.067582116, -1443490.4, 314840.72, 0.47722468, 10.000941, 10.003109 
2.4600147e+3, 1.3056548e+2, -1651566.1, -1818834.3, -2106.5835, 0.6496096, -0.41009194, -1651539.6, 8904.395, 0.3557266, 10.000549, 9.998234 
2.4596111e+3, 1.405576e+2, -1764585.0, -1647982.5, 118427.375, -0.16520691, -0.31053796, -1574283.4, -11756.482, 0.22774403, 9.998152, 9.99999 
2.4592215e+3, 1.505532e+2, -1500459.6, -1142203.9, 184273.4, -0.111588925, -0.2703951, -1064342.4, 400226.72, 0.11809006, 9.997937, 10.0030775 
2.4588333e+3, 1.6054909e+2, -1517927.8, -1233576.5, 119907.33, 0.11898375, -0.19534649, -1189763.8, 176844.47, 0.04605504, 9.99764, 10.00179 
2.4584414e+3, 1.705446e+2, -1393598.8, -1024955.4, 65345.645, 0.15997553, -0.15126462, -1013714.94, 254938.73, 0.012013259, 9.997573, 10.002442 
2.4580486e+3, 1.805403e+2, -1433394.4, -1093753.1, -10249.717, 0.16677186, -0.057325866, -1093444.1, 77253.02, 0.0018483637, 9.996922, 10.001714 
2.4576524e+3, 1.9053635e+2, -1121834.0, -767575.75, -47622.516, 0.019834898, 0.01866111, -761285.56, 311448.63, 0.00018026956, 9.997968, 10.002677 
2.4572563e+3, 2.005315e+2, -1113453.3, -925690.4, -562.25385, -0.08922707, 0.06529992, -925688.7, 49090.656, 0.0000007906511, 9.998213, 10.000881 
2.4568616e+3, 2.1052286e+2, -821887.1, -672568.75, 33282.59, -0.23663606, -0.19823052, -665486.1, 211372.94, 0.0, 9.999431, 10.0012455 
2.4564677e+3, 2.205143e+2, -904156.75, -981209.2, -9699.929, -0.28074595, -0.34896496, -902954.44, -124013.414, 0.0, 9.999498, 9.998498 
2.4560754e+3, 2.3050824e+2, -714683.4, -841149.4, -64422.94, 0.057419736, -0.06690034, -687646.06, -6633.602, 0.0, 10.000309, 9.998247 
2.4556826e+3, 2.4050184e+2, -705566.94, -747798.2, -28145.7, 0.35529238, 0.19980597, -691496.6, -108411.08, 0.0, 9.999352, 9.998819 
2.455286e+3, 2.504932e+2, -500917.0, -288407.2, -11604.422, 0.05248775, -0.02356952, -287775.4, 197387.45, 0.0, 9.998896, 10.001412 
2.4548897e+3, 2.6048487e+2, -774712.25, -551120.2, -48330.785, -0.26177967, -0.21840101, -541120.4, -153883.64, 0.0, 9.997016, 9.999932 
2.4544963e+3, 2.7047879e+2, -389283.5, -196863.33, -37380.426, -0.22587971, -0.17666523, -189856.77, 99442.19, 0.0, 9.998646, 10.000757 
2.454104e+3, 2.804732e+2, -393045.56, -402405.56, 32367.447, -0.11273317, -0.022650382, -365021.53, -173663.81, 0.0, 9.9988985, 9.998688 
2.4537107e+3, 2.9046604e+2, -141478.8, -199789.78, 61777.297, -0.20864023, 0.08722014, -102322.67, -8890.205, 0.0, 9.999975, 9.998752 
2.45332e+3, 3.0045688e+2, -560966.06, -596435.56, 100668.52, -0.060268357, 0.10377692, -476482.03, -476482.03, 0.0, 9.997557, 9.996991 
2.4529324e+3, 3.1045038e+2, -216340.73, 295230.78, 169640.06, 0.34427178, 0.2263033, 346371.9, 346371.9, 0.0, 9.997111, 10.0030775 
2.4703942e+3, 1.2097242e+2, -1578692.9, -1790195.9, 137734.53, -0.6744042, -0.34368393, -1510794.8, 243654.56, 0.46784744, 10.002789, 9.998276 
2.4700063e+3, 1.3096707e+2, -1453365.5, -1624550.0, -9375.29, 0.36679968, -0.011839546, -1452853.5, 203659.19, 0.34520847, 10.00237, 9.998766 
2.4696021e+3, 1.4096072e+2, -1674309.5, -1692137.9, 174953.95, -0.29045826, 0.23258771, -1508042.8, 50540.508, 0.21743059, 9.999193, 9.99922 
2.4692124e+3, 1.5095152e+2, -1589400.3, -1344264.5, 220750.98, -0.11597281, -0.051293463, -1214337.0, 246331.23, 0.109704144, 9.99817, 10.001383 
2.4688238e+3, 1.6094315e+2, -1678118.5, -1426950.4, 120652.04, 0.11279591, -0.24441193, -1378384.3, -15638.554, 0.040704507, 9.997067, 10.000682 
2.4684308e+3, 1.7093731e+2, -1487263.4, -1196368.8, 32963.45, 0.06959041, -0.21825644, -1192680.1, 72125.3, 0.00953522, 9.997441, 10.001348 
2.4680372e+3, 1.8093221e+2, -1352147.5, -1052273.1, -59439.207, -0.021052973, -0.11693795, -1040921.2, 125936.3, 0.0011160366, 9.997436, 10.001762 
2.4676426e+3, 1.9092827e+2, -1077677.1, -724908.6, -80115.87, -0.019579431, -0.058079038, -707566.4, 361325.84, 0.00006263998, 9.99815, 10.002911 
2.4672478e+3, 2.0092373e+2, -1046230.94, -815767.7, -28954.832, -0.08882541, -0.0031337882, -812185.56, 158746.88, 0.0000000031066179, 9.998306, 10.001596 
2.466853e+3, 2.1091558e+2, -939589.25, -696305.1, 2406.1885, -0.23663612, -0.2497571, -696281.4, 176726.13, 0.0, 9.998431, 10.001611 
2.4664593e+3, 2.2090724e+2, -970493.8, -912114.4, -15617.894, -0.32855272, -0.40732607, -908198.8, -133112.02, 0.0, 9.998509, 9.999474 
2.4660674e+3, 2.3090158e+2, -682550.8, -752951.3, -16105.75, -0.011556189, -0.1552765, -679041.2, -1889.721, 0.0, 10.000118, 9.998994 
2.465675e+3, 2.4089576e+2, -376341.22, -542100.44, 12786.785, 0.23470058, 0.1259013, -375360.66, 203856.25, 0.0, 10.00127, 9.999345 
2.4652776e+3, 2.5088722e+2, -414085.56, -348075.7, 1500.3696, 0.022435024, -0.019351237, -348041.6, 133256.88, 0.0, 9.999782, 10.000653 
2.4648806e+3, 2.608786e+2, -553465.1, -419386.38, 37836.96, -0.23297697, -0.1694024, -409445.8, -26065.896, 0.0, 9.998249, 10.000276 
2.4644865e+3, 2.7087203e+2, -317134.75, -163260.23, 29989.113, -0.35348836, -0.17213053, -157622.14, 127823.53, 0.0, 9.999, 10.000877 
2.4640937e+3, 2.8086635e+2, -202980.78, -209737.72, 18334.006, -0.40690118, -0.045127593, -187716.56, -212.96939, 0.0, 9.999644, 9.999673 
2.4637055e+3, 2.9085958e+2, -170379.25, -167540.02, 9873.74, 0.046210077, 0.06661215, -158984.36, -69411.625, 0.0, 9.999412, 9.999338 
2.4633208e+3, 3.008503e+2, -235719.13, -344375.2, 68023.09, 0.8163932, 0.02845898, -202991.56, -202991.56, 0.0, 9.99913, 9.998029 
2.462915e+3, 3.1083992e+2, 261246.5, 540434.9, -45102.656, -0.5666156, -0.21666756, 547540.4, 547540.4, 0.0, 9.999869, 10.003608 
2.48039e+3, 1.21368974e+2, -2029835.1, -2333357.5, 250406.02, -0.5939643, -0.5042367, -1888791.5, -138230.72, 0.45571586, 9.999548, 9.995886 
2.4799973e+3, 1.3136825e+2, -1577284.3, -1693642.0, -146038.97, 0.027151978, 0.30252376, -1478262.1, 174322.64, 0.33319858, 10.001009, 9.999048 
2.4795942e+3, 1.4136367e+2, -1536211.9, -1700753.8, 52677.81, -0.2723305, 0.71610224, -1520792.1, 33847.95, 0.20679392, 10.000526, 9.998485 
2.4792038e+3, 1.5135042e+2, -1573500.4, -1554598.4, 149937.0, -0.041660383, 0.18987943, -1413814.8, 42947.016, 0.10179194, 9.999198, 9.999366 
2.4788144e+3, 1.6133772e+2, -1722634.8, -1622333.0, 110332.945, 0.23329191, -0.24172789, -1551287.9, -192408.45, 0.036105353, 9.9975605, 9.9991045 
2.47842e+3, 1.7133033e+2, -1480724.1, -1333405.9, 59497.42, -0.01814103, -0.24232076, -1312378.1, -51422.37, 0.0076701324, 9.998179, 10.000021 
2.4780254e+3, 1.8132387e+2, -1286513.6, -1079713.9, -14914.067, -0.1823709, -0.15807919, -1078643.8, 84377.48, 0.000687035, 9.99823, 10.001157 
2.4776335e+3, 1.9131921e+2, -1038923.3, -666195.0, -55781.27, 0.026805934, -0.1991913, -658026.0, 407033.25, 0.000019881356, 9.998366, 10.00314 
2.477241e+3, 2.0131436e+2, -1135330.4, -861883.4, -31445.664, 0.19716586, -0.18962596, -858313.8, 108785.85, 0.0, 9.997785, 10.001487 
2.4768452e+3, 2.113085e+2, -974965.0, -679395.6, -18237.844, -0.091681294, -0.25146347, -678274.5, 190880.44, 0.0, 9.998118, 10.001794 
2.4764499e+3, 2.2130215e+2, -1065290.1, -914854.8, 3979.2654, -0.30197695, -0.24676566, -914749.6, -143533.88, 0.0, 9.997737, 9.9998 
2.4760586e+3, 2.3129502e+2, -676999.06, -624220.6, 32467.227, -0.14906359, -0.26190767, -608770.7, 64517.137, 0.0, 9.999622, 10.000108 
2.475666e+3, 2.4128795e+2, -606564.5, -675440.5, -18963.379, 0.018498011, -0.18508813, -601688.56, -26328.004, 0.0, 9.999935, 9.9990425 
2.4752688e+3, 2.5128093e+2, -540896.9, -454011.44, -77612.73, -0.03198812, -0.1588451, -408510.3, 68923.95, 0.0, 9.99925, 10.000099 
2.4748728e+3, 2.6127374e+2, -839584.4, -705787.5, 34802.94, -0.06376417, -0.089480616, -697276.1, -317767.78, 0.0, 9.997092, 9.998844 
2.474481e+3, 2.7126732e+2, -501035.6, -360357.4, 53794.387, -0.062039167, 0.013638883, -342144.7, -60572.105, 0.0, 9.9983425, 9.9998045 
2.4740884e+3, 2.812604e+2, -510953.28, -451528.28, -5824.2085, -0.13859054, 0.11755422, -450962.84, -267322.13, 0.0, 9.998052, 9.998771 
2.4736959e+3, 2.9124936e+2, -320825.1, -163539.14, -20208.736, -0.11376071, -0.2539767, -160984.14, -75239.29, 0.0, 9.9982395, 9.999845 
2.4733096e+3, 3.0123934e+2, -757647.94, -798230.6, 57348.242, 0.5090993, -0.35344332, -717107.06, -717107.06, 0.0, 9.99661, 9.996092 
2.472909e+3, 3.1123316e+2, -295480.0, -32416.336, -98481.04, -0.507341, -0.032334484, 365.97574, 365.97574, 0.0, 9.997532, 10.000755 
2.4903823e+3, 1.2176504e+2, -2038348.8, -1605129.8, 99487.516, -0.49309134, -0.21386772, -1583375.1, 163309.0, 0.4399176, 9.995984, 10.003413 
2.489989e+3, 1.3175844e+2, -1664610.6, -1699264.9, -113474.97, -0.0759826, -0.17907828, -1567147.5, 81601.27, 0.31901658, 10.000023, 9.999393 
2.4895877e+3, 1.4175184e+2, -1374054.6, -1587694.0, -9190.165, -0.40270957, 0.0025071306, -1373660.0, 177155.94, 0.19536594, 10.001843, 9.998607 
2.4891965e+3, 1.517431e+2, -1402703.6, -1457582.9, 72760.19, -0.078630075, -0.080036856, -1352381.0, 100519.625, 0.094030365, 10.00037, 9.999459 
2.488806e+3, 1.61734e+2, -1539989.0, -1531332.4, 156992.1, 0.20164733, -0.15230533, -1378609.0, -23619.137, 0.032013185, 9.998802, 9.999121 
2.4884129e+3, 1.7172658e+2, -1194065.4, -1223556.9, 200512.66, 0.064699836, -0.12987435, -1007757.0, 249310.9, 0.0062260167, 10.000253, 9.999779 
2.4880193e+3, 1.8171957e+2, -910417.56, -908350.0, 92803.28, -0.10265752, -0.066699065, -816574.75, 342564.8, 0.00043419475, 10.000812, 10.001084 
2.487625e+3, 1.9171353e+2, -873193.44, -647735.25, 2817.4917, -0.017984284, -0.18497677, -647700.06, 413492.06, 0.0000058323185, 9.999714, 10.002635 
2.4872309e+3, 2.0170754e+2, -1060734.9, -902767.1, 23530.73, 0.033613894, -0.21034363, -899336.5, 63909.004, 0.000000000090419006, 9.998544, 10.00085 
2.4868369e+3, 2.1170142e+2, -845842.56, -735719.6, 2359.7979, -0.08618254, -0.18997277, -735669.06, 129637.945, 0.0, 9.999381, 10.000841 
2.4864429e+3, 2.2169498e+2, -697000.7, -611076.1, -50717.785, -0.22928447, -0.16664623, -587569.94, 179800.2, 0.0, 9.99964, 10.000963 
2.4860503e+3, 2.316875e+2, -696079.0, -474194.22, -7841.8325, -0.15396792, -0.3460688, -473917.44, 195521.1, 0.0, 9.998759, 10.001587 
2.4856572e+3, 2.4168031e+2, -744094.8, -690002.0, -45844.49, -0.08963214, -0.38123387, -663820.4, -92312.46, 0.0, 9.9986725, 9.999553 
2.4852614e+3, 2.5167444e+2, -257905.19, -418508.97, -125241.77, -0.07645653, -0.17676939, -189432.44, 284143.3, 0.0, 10.001497, 9.999308 
2.4848662e+3, 2.6166803e+2, 69533.2, -266364.88, -63756.473, -0.05541359, 0.025057634, 81227.61, 456874.34, 0.0, 10.0031595, 9.998969 
2.4844742e+3, 2.716605e+2, -88396.91, -204531.78, 15301.201, 0.013308222, 0.046393774, -86414.74, 191304.84, 0.0, 10.001189, 9.999585 
2.4840815e+3, 2.8165227e+2, -200445.53, -247402.0, 22537.053, -0.02399445, 0.038142253, -191379.23, -11581.599, 0.0, 9.999743, 9.999407 
2.483687e+3, 2.9164088e+2, 72303.81, 40640.37, -22892.994, -0.19270416, -0.3723689, 84306.11, 166210.3, 0.0, 10.000678, 10.000164 
2.4832986e+3, 3.0163148e+2, -99575.17, -442750.8, 68685.586, 0.2125802, -0.44394043, -86338.51, -86338.51, 0.0, 10.000837, 9.996518 
2.4829024e+3, 3.1162673e+2, -209654.55, -176756.64, -38811.746, -0.28801656, 0.2025753, -151052.06, -151052.06, 0.0, 9.998569, 9.9994135 
2.5003734e+3, 1.22158684e+2, -1429583.6, -1038282.75, 125155.664, -0.3399187, -0.2092919, -1001676.75, 741151.7, 0.42027465, 9.999153, 10.00853 
2.4999821e+3, 1.3214818e+2, -1563908.0, -1613395.0, -70608.96, 0.015421309, -0.64734036, -1513832.6, 131084.44, 0.30251706, 10.000684, 9.99974 
2.499582e+3, 1.4213899e+2, -1435969.8, -1589831.0, -81598.74, -0.36993957, -0.74460495, -1400754.6, 146246.86, 0.18302314, 10.001025, 9.999067 
2.4991892e+3, 1.5213506e+2, -1320389.8, -1387310.5, -65058.367, -0.07429811, -0.40747216, -1280691.5, 168354.25, 0.08629053, 10.0007515, 9.999811 
2.4987979e+3, 1.6213052e+2, -1365551.5, -1429139.3, 103940.66, 0.25898042, -0.058629345, -1288650.9, 62445.5, 0.028287582, 9.999908, 9.999286 
2.4984075e+3, 1.7212361e+2, -1179715.9, -1226202.9, 185523.94, 0.24364291, -0.02188127, -1015985.06, 237185.2, 0.0050760456, 10.000322, 9.99974 
2.4980149e+3, 1.8211631e+2, -1095813.6, -1067436.8, 33247.535, 0.16438101, 0.029545631, -1045476.75, 109768.68, 0.00028139996, 9.999927, 10.000407 
2.4976163e+3, 1.9210914e+2, -1016019.4, -810453.3, -85198.89, -0.065138325, -0.1321759, -779732.75, 277579.3, 0.0000014559199, 9.999235, 10.001734 
2.4972197e+3, 2.021018e+2, -1254338.6, -1175699.8, 24057.127, -0.16461171, -0.17081434, -1168924.0, -209541.78, 0.0, 9.998094, 9.9991865 
2.4968286e+3, 2.1209459e+2, -1036123.44, -970465.06, 45445.637, -0.07101577, -0.13096946, -947231.25, -85772.08, 0.0, 9.998867, 9.99943 
2.496437e+3, 2.2208741e+2, -838346.0, -660972.4, -51182.36, 0.0015272525, -0.08469438, -647262.94, 116268.11, 0.0, 9.998696, 10.00108 
2.4960427e+3, 2.3207982e+2, -644692.4, -287255.44, -50648.76, -0.020854225, -0.41780472, -280217.1, 385377.0, 0.0, 9.998481, 10.002981 
2.4956484e+3, 2.4207292e+2, -944139.8, -880866.0, 5835.6016, -0.046330445, -0.48675904, -880332.3, -312675.47, 0.0, 9.997792, 9.998651 
2.4952544e+3, 2.5206795e+2, -447360.9, -629159.6, -22673.645, -0.15653256, -0.10640042, -444575.75, 25144.824, 0.0, 10.000825, 9.9981365 
2.4948598e+3, 2.6206166e+2, -121764.5, -382300.5, -88470.15, -0.2212787, 0.19121596, -94562.766, 277229.8, 0.0, 10.002078, 9.998667 
2.4944663e+3, 2.7205116e+2, -122833.66, -146398.86, -61700.734, -0.1333158, -0.16265139, -71800.58, 202088.97, 0.0, 10.000702, 10.000194 
2.494073e+3, 2.8204194e+2, -436636.03, -417575.38, 25119.51, -0.09808303, -0.2901342, -400239.06, -224263.22, 0.0, 9.998515, 9.998794 
2.4936792e+3, 2.920362e+2, -59595.42, -71375.13, 36819.637, -0.32701695, -0.12552534, -28197.527, 49837.24, 0.0, 10.000087, 9.999627 
2.4932876e+3, 3.020296e+2, -246975.69, -410407.47, -17113.996, -0.27787608, 0.09479894, -245202.8, -245202.8, 0.0, 9.999587, 9.997287 
2.4928941e+3, 3.120199e+2, -560184.3, -240410.98, -39745.93, -0.29015082, 0.010195093, -235544.86, -235544.86, 0.0, 9.996113, 10.000011 
2.5103676e+3, 1.2255512e+2, -1457147.5, -1383417.6, 163278.16, -0.42335275, 0.027776485, -1252894.4, 486048.13, 0.39734322, 10.001339, 10.003149 
2.5099787e+3, 1.3254358e+2, -1590109.1, -1762736.8, -143271.66, 0.2898353, -0.33544403, -1509160.1, 131890.05, 0.28406283, 10.001199, 9.998374 
2.5095785e+3, 1.4253293e+2, -1568636.0, -1635074.5, -135336.38, -0.075641334, -0.50024074, -1462501.5, 80649.19, 0.16993596, 9.999918, 9.999278 
2.5091827e+3, 1.5252665e+2, -1144850.5, -1216911.6, -79640.68, -0.15234356, -0.48441422, -1093469.3, 351739.53, 0.078587286, 10.001648, 10.000644 
2.5087887e+3, 1.6252086e+2, -1001586.75, -1142143.3, 33573.047, -0.12586801, -0.348297, -993979.3, 353284.9, 0.024857625, 10.001966, 10.000288 
2.508399e+3, 1.7251493e+2, -1066940.0, -1054834.6, 130373.24, 0.0431668, -0.3129454, -930373.6, 318951.5, 0.0041356636, 10.000586, 10.000798 
2.5080064e+3, 1.8250868e+2, -1216230.9, -1122525.6, -27169.328, 0.08182761, -0.2163614, -1115217.9, 36171.375, 0.00018434241, 9.999067, 10.000434 
2.5076082e+3, 1.9250247e+2, -1078561.0, -933188.0, -100902.28, -0.04241002, -0.2014107, -881517.75, 171935.03, 0.00000026313862, 9.999174, 10.000936 
2.5072116e+3, 2.0249572e+2, -1039127.56, -988498.44, 36454.24, -0.15229677, -0.14683352, -969431.25, -13909.962, 0.0, 9.999164, 9.999962 
2.5068206e+3, 2.1248811e+2, -925672.8, -839355.5, 163105.42, -0.05877932, -0.20362394, -713795.3, 143804.33, 0.0, 9.9992285, 10.000208 
2.506429e+3, 2.2248095e+2, -710004.94, -653136.06, 108517.625, -0.013386353, -0.16368902, -569389.44, 190282.69, 0.0, 9.999657, 10.000728 
2.5060347e+3, 2.324746e+2, -360700.66, -312577.56, -30794.217, -0.0708304, -0.22318615, -297559.2, 364171.84, 0.0, 10.000971, 10.001686 
2.50564e+3, 2.4246794e+2, -387894.9, -551491.2, -72096.45, -0.14762452, -0.20333263, -360657.13, 203137.55, 0.0, 10.001221, 9.999283 
2.5052464e+3, 2.524604e+2, -642180.56, -653503.06, 15512.714, -0.21379374, -0.13927141, -631328.4, -165452.34, 0.0, 9.999048, 9.998891 
2.5048527e+3, 2.6245296e+2, -597577.44, -501934.0, 28059.863, -0.25608638, -0.024556365, -494309.6, -126355.45, 0.0, 9.99824, 9.99972 
2.5044593e+3, 2.7244425e+2, -57954.855, -83577.49, 9018.34, -0.16370015, -0.20593391, -55099.0, 214935.83, 0.0, 10.000927, 10.000574 
2.5040656e+3, 2.8243595e+2, 49279.18, -179238.52, 43776.402, -0.14906693, -0.24876751, 57378.24, 229492.48, 0.0, 10.001673, 9.998948 
2.5036708e+3, 2.9243046e+2, -317268.22, -294782.1, 29034.193, -0.36862552, 0.014429852, -274890.13, -200714.8, 0.0, 9.99851, 9.998954 
2.5032786e+3, 3.024246e+2, -483586.5, -363386.06, -22179.693, -0.32540855, 0.30655217, -359424.0, -359424.0, 0.0, 9.997062, 9.998889 
2.5028878e+3, 3.1241405e+2, 109426.664, 195499.03, -59835.195, 0.0668983, 0.012776115, 226167.4, 226167.4, 0.0, 9.999884, 10.001306 
2.5203642e+3, 1.2295154e+2, -1722158.8, -1934013.4, 201418.9, -0.21295136, 0.15990351, -1600511.5, 134546.81, 0.3720952, 10.000985, 9.998087 
2.519974e+3, 1.3293962e+2, -1647397.1, -2004293.3, -146472.03, 0.47981098, -0.01299821, -1594982.1, 42197.73, 0.26429757, 10.001457, 9.99654 
2.5195757e+3, 1.4292887e+2, -1389369.1, -1471785.1, -21077.887, 0.3815369, -0.0979275, -1384291.4, 154993.14, 0.15642525, 10.001007, 9.999862 
2.5191763e+3, 1.5291908e+2, -1194535.8, -1161189.0, 4447.358, -0.17679651, -0.5103059, -1160606.1, 280760.47, 0.071005836, 10.000992, 10.001306 
2.51878e+3, 1.6291086e+2, -1160010.5, -1108991.4, 56847.76, -0.40983585, -0.6808566, -1072192.0, 271244.97, 0.021693112, 10.0004425, 10.001239 
2.5183895e+3, 1.729056e+2, -1139529.0, -938000.0, 68761.74, -0.15370773, -0.6905706, -916774.06, 328712.28, 0.00335279, 9.99958, 10.002048 
2.5179976e+3, 1.8290065e+2, -1314685.8, -1243807.8, -41113.715, 0.065743215, -0.5143869, -1224967.3, -77430.47, 0.00011963712, 9.998707, 9.99977 
2.517601e+3, 1.9289567e+2, -1105373.8, -1055216.9, -100300.47, 0.085214175, -0.31042042, -976907.2, 72688.234, 0.00000002568285, 9.999425, 9.999964 
2.5172052e+3, 2.0288986e+2, -986796.6, -883825.56, 60758.77, 0.07753407, -0.13796079, -855672.0, 95985.84, 0.0, 9.999188, 10.000668 
2.5168124e+3, 2.1288186e+2, -877127.2, -647975.1, 121746.25, -0.009853741, -0.40025583, -595369.2, 258364.38, 0.0, 9.998812, 10.001717 
2.51642e+3, 2.2287531e+2, -1085713.8, -1095084.6, 124637.76, -0.08133426, -0.3060927, -965673.4, -209872.55, 0.0, 9.9983425, 9.998276 
2.5160265e+3, 2.3287153e+2, -726748.5, -841828.2, 13485.326, -0.21212077, 0.17419115, -725189.4, -67337.586, 0.0, 10.00009, 9.998432 
2.5156322e+3, 2.4286486e+2, -536197.06, -553811.94, -119160.836, -0.26981923, 0.37749493, -425518.6, 134404.31, 0.0, 10.000046, 9.999811 
2.515238e+3, 2.5285167e+2, -601430.06, -380178.7, -80511.65, -0.17671317, -0.3509526, -353982.7, 108058.95, 0.0, 9.998365, 10.00106 
2.5148445e+3, 2.6284248e+2, -776959.94, -603366.06, 83192.77, -0.12448262, -0.5332316, -569935.1, -205808.55, 0.0, 9.997222, 9.999476 
2.5144526e+3, 2.728409e+2, -180080.81, -167901.3, 111266.78, -0.17005295, -0.0076004895, -62557.742, 203588.4, 0.0, 10.000351, 10.000194 
2.5140592e+3, 2.828352e+2, -187924.83, -405522.6, -55891.2, -0.1997669, 0.27529767, -174408.45, -6202.277, 0.0, 10.000704, 9.997816 
2.5136638e+3, 2.9282194e+2, -566613.56, -481744.9, -108082.75, -0.13614158, -0.18593623, -408064.84, -337724.16, 0.0, 9.997261, 9.998203 
2.5132716e+3, 3.0281383e+2, -691016.9, -381861.3, 73037.664, 0.046675716, -0.09918626, -365474.78, -365474.78, 0.0, 9.995456, 9.999485 
2.5128767e+3, 3.128078e+2, 68586.88, 342847.72, 206558.77, -0.4491249, -0.13450822, 453651.3, 453651.3, 0.0, 9.999168, 10.002559 
2.530361e+3, 1.2334333e+2, -1806239.9, -1808208.4, -53095.96, 0.072379656, -0.2902189, -1754119.0, -22899.344, 0.34545994, 9.999345, 9.999563 
2.5299644e+3, 1.3333486e+2, -1632405.8, -1966856.3, 46094.2, 0.09738797, -0.15148655, -1626169.4, 7139.2036, 0.24384509, 10.001365, 9.996808 
2.5295684e+3, 1.4332657e+2, -1345170.3, -1453021.3, 76189.89, 0.16248624, 0.014621909, -1305753.0, 229638.05, 0.14280653, 10.001411, 9.999767 
2.5291708e+3, 1.533184e+2, -1347288.5, -1242998.6, 88033.305, -0.00072608574, -0.1982477, -1192825.6, 244636.84, 0.06363834, 9.999933, 10.001169 
2.528775e+3, 1.6331063e+2, -1451039.9, -1274854.8, 119814.72, -0.10814642, -0.2915278, -1214233.3, 125297.625, 0.0187796, 9.998506, 10.001013 
2.5283816e+3, 1.7330344e+2, -1314101.3, -1069335.4, 108825.96, -0.116673455, -0.4485831, -1027948.1, 213648.39, 0.0026956536, 9.998487, 10.001705 
2.5279877e+3, 1.8329681e+2, -1268093.6, -1206524.5, 16861.063, -0.10137421, -0.41424173, -1202209.4, -58549.117, 0.00007576087, 9.998961, 9.999885 
2.5275934e+3, 1.9329056e+2, -831789.75, -927311.56, 17085.6, -0.0015096167, -0.32049668, -828825.7, 216902.06, 0.00000000011876218, 10.001273, 9.999962 
2.5271988e+3, 2.0328407e+2, -645018.0, -792447.5, 48571.434, 0.021894166, -0.18016401, -630454.5, 317341.7, 0.0, 10.001809, 10.000017 
2.5268042e+3, 2.1327661e+2, -828924.06, -756089.94, -27807.406, -0.05556152, -0.26182407, -746687.2, 103182.53, 0.0, 9.999639, 10.000588 
2.5264105e+3, 2.2326986e+2, -1063516.9, -975369.2, -9311.756, -0.14171565, -0.17216787, -974396.25, -222458.16, 0.0, 9.997926, 9.999309 
2.5260186e+3, 2.332645e+2, -1013010.06, -895976.1, 128367.49, -0.15808623, 0.07627758, -813417.06, -159418.2, 0.0, 9.997635, 9.999296 
2.525625e+3, 2.432576e+2, -756725.4, -562341.4, 91324.21, -0.2060868, 0.192683, -526167.75, 29901.967, 0.0, 9.998003, 10.000764 
2.5252292e+3, 2.5324658e+2, -328079.13, -205166.61, 25982.916, -0.23099743, -0.31595847, -199899.69, 258267.48, 0.0, 9.999975, 10.001525 
2.5248355e+3, 2.6323777e+2, -280878.22, -361950.6, 110794.64, -0.21827091, -0.48017564, -203437.14, 156810.61, 0.0, 10.000471, 9.999605 
2.524445e+3, 2.7323455e+2, -517388.06, -403486.8, 116140.0, -0.13865282, -0.04586092, -331085.7, -68800.64, 0.0, 9.998179, 9.999685 
2.524053e+3, 2.832286e+2, -509639.44, -498320.16, -72168.59, -0.09434233, 0.22383644, -431589.63, -267241.06, 0.0, 9.998172, 9.998382 
2.5236565e+3, 2.9321522e+2, 132063.56, -136684.23, -95604.516, -0.040828753, -0.24343987, 162603.48, 229086.27, 0.0, 10.001936, 9.9983635 
2.5232637e+3, 3.0320588e+2, 333646.72, 102310.625, 118666.78, 0.123707384, -0.2713413, 383692.0, 383692.0, 0.0, 10.002421, 9.999504 
2.5228694e+3, 3.132033e+2, -124381.56, 202200.3, 74298.914, -0.38328242, 0.14359367, 218309.08, 218309.08, 0.0, 9.997839, 10.002344 
2.540356e+3, 1.2374183e+2, -1639926.0, -1554477.4, -227742.5, 0.35977432, 0.018916849, -1365486.3, 361830.34, 0.31815657, 9.999971, 10.001666 
2.5399557e+3, 1.3373072e+2, -1682864.8, -1854435.0, -4607.1787, -0.089728355, -0.2607205, -1682741.1, -53312.13, 0.22319712, 10.000385, 9.998062 
2.53956e+3, 1.4372422e+2, -1457241.4, -1514117.8, 18748.484, -0.035519682, 0.008588904, -1451617.3, 79878.29, 0.12934339, 10.00048, 9.999754 
2.5391662e+3, 1.5371914e+2, -1347034.6, -1316767.5, -14977.2705, 0.29835534, 0.14826362, -1310609.3, 122935.95, 0.05657354, 10.000199, 10.000559 
2.5387716e+3, 1.6371267e+2, -1394293.9, -1320106.9, 90294.6, 0.4253952, 0.25238436, -1259583.5, 76022.38, 0.016116831, 9.999226, 10.000341 
2.538374e+3, 1.7370348e+2, -1312820.6, -1168084.0, 70081.34, 0.027814656, -0.050366532, -1139712.3, 97977.9, 0.0021455006, 9.9989, 10.000831 
2.5379783e+3, 1.8369478e+2, -1293985.1, -1240546.8, 87762.516, -0.17834613, -0.16305049, -1175526.3, -35754.906, 0.000046550977, 9.998883, 9.9997015 
2.5375858e+3, 1.9368643e+2, -925824.9, -965298.7, 79187.625, -0.0841122, -0.30436975, -863951.56, 177901.08, 0.0, 10.0006, 10.000043 
2.537192e+3, 2.0367885e+2, -963653.44, -1198643.9, -1227.5281, -0.016800413, -0.17561866, -963647.06, -19716.707, 0.0, 10.000813, 9.997669 
2.5367957e+3, 2.1367198e+2, -1064850.0, -1154524.3, -103845.16, -0.09006046, 0.034571145, -996575.75, -150569.55, 0.0, 9.999341, 9.997958 
2.5364017e+3, 2.236641e+2, -951282.06, -646054.0, -519.4339, -0.06220569, 0.06916722, -646053.1, 102030.17, 0.0, 9.997628, 10.001691 
2.5360107e+3, 2.3365429e+2, -839965.7, -406579.25, 104379.555, 0.09182516, -0.49336383, -382750.03, 267416.72, 0.0, 9.997214, 10.0028105 
2.5356174e+3, 2.4364802e+2, -946596.56, -745692.25, 129987.35, 0.043339092, -0.46940747, -681866.1, -129643.586, 0.0, 9.997247, 9.999816 
2.5352198e+3, 2.5364602e+2, -514051.9, -444002.38, 90533.234, -0.40809938, 0.017292082, -381955.0, 72291.22, 0.0, 9.999434, 10.000095 
2.5348255e+3, 2.636387e+2, -531339.9, -621718.6, 41089.117, -0.49386373, 0.15298094, -515452.3, -159133.16, 0.0, 9.999494, 9.998249 
2.534437e+3, 2.73624e+2, -745989.3, -600223.44, 15512.537, 0.022165654, -0.51131386, -598590.9, -340128.6, 0.0, 9.997103, 9.998813 
2.5340453e+3, 2.8361502e+2, -699350.75, -554046.7, 52422.742, 0.1409693, -0.49915498, -537108.2, -376557.53, 0.0, 9.996839, 9.99862 
2.5336477e+3, 2.9361233e+2, 174713.22, 5998.561, 102482.96, -0.4128497, -0.028373182, 223092.16, 285670.75, 0.0, 10.001838, 9.999343 
2.533254e+3, 3.0360338e+2, 29412.28, -421593.25, -44807.934, -0.40171197, 0.09390901, 33820.906, 33820.906, 0.0, 10.002144, 9.995984 
2.5328645e+3, 3.135916e+2, -727004.1, -341247.25, -164686.23, 0.13714388, -0.08692678, -280504.63, -280504.63, 0.0, 9.995004, 9.999921 
2.5503448e+3, 1.2413195e+2, -1658679.6, -1669387.6, 25609.715, -0.18158165, -0.15137763, -1637870.3, 85632.055, 0.29081753, 10.000384, 10.000123 
2.5499505e+3, 1.3412654e+2, -1560463.4, -1480004.4, -26476.457, 0.11532268, -0.14629845, -1472073.5, 153474.72, 0.2027681, 9.999897, 10.001119 
2.5495523e+3, 1.4411923e+2, -1566814.3, -1525990.8, 16418.244, -0.06975438, -0.13985175, -1520207.1, 7410.8447, 0.11625642, 9.999491, 10.000126 
2.549157e+3, 1.5411396e+2, -1283909.5, -1304768.8, 18406.223, 0.08573733, -0.014417342, -1273183.4, 156489.25, 0.04988728, 10.00072, 10.000393 
2.5487626e+3, 1.6410747e+2, -1188312.3, -1247022.5, 71169.516, 0.17333166, 0.11741662, -1140681.5, 191055.0, 0.013707004, 10.000791, 10.000085 
2.5483674e+3, 1.7409863e+2, -1139506.6, -1126108.9, 80518.93, 0.11316246, -0.09698577, -1052010.6, 181808.8, 0.0016894786, 10.000286, 10.000452 
2.5479728e+3, 1.8409066e+2, -1109063.1, -1099803.4, 116749.24, -0.0051188003, -0.13363357, -987592.25, 148302.36, 0.000027889511, 9.999891, 10.000191 
2.5475788e+3, 1.940834e+2, -1004497.75, -971850.9, 141179.22, -0.08617209, -0.18733571, -846054.56, 191909.55, 0.0, 9.999878, 10.000371 
2.5471845e+3, 2.040756e+2, -994387.7, -1158843.0, 72624.97, -0.105707794, -0.10773551, -966907.6, -26866.238, 0.0, 10.000303, 9.998203 
2.5467893e+3, 2.1406688e+2, -691877.94, -965261.44, 123043.71, -0.06217395, -0.0792149, -644655.6, 197476.88, 0.0, 10.001748, 9.998137 
2.546395e+3, 2.240581e+2, -330771.38, -372608.78, 169825.9, -0.01426353, -0.11544706, -180580.67, 563636.56, 0.0, 10.001949, 10.001497 
2.5460026e+3, 2.340486e+2, -363440.25, -251592.06, 53548.45, 0.078055896, -0.54605, -230089.16, 416208.6, 0.0, 10.000747, 10.002201 
2.5456086e+3, 2.4404192e+2, -532667.0, -592255.4, -11495.828, -0.014779129, -0.52832323, -530526.1, 17831.389, 0.0, 10.000135, 9.999532 
2.545212e+3, 2.5403953e+2, -452607.63, -506367.56, -10760.317, -0.43206888, -0.0040661786, -450533.88, -146.73099, 0.0, 10.000076, 9.999439 
2.5448185e+3, 2.6403216e+2, -376966.34, -558476.3, -90888.88, -0.46061847, 0.15394044, -339279.7, 13182.822, 0.0, 10.000496, 9.998239 
2.5444305e+3, 2.7401626e+2, -119234.27, -368091.06, -109786.234, 0.18450747, -0.55488706, -77724.59, 176891.97, 0.0, 10.0016, 9.998302 
2.544038e+3, 2.840064e+2, -40445.688, -139477.52, 10719.96, 0.26034907, -0.6515369, -39298.563, 117412.32, 0.0, 10.000776, 9.999631 
2.543639e+3, 2.940058e+2, -356707.4, -193464.05, 24119.893, -0.5876609, -0.017283393, -189974.81, -131260.36, 0.0, 9.997781, 10.000008 
2.5432464e+3, 3.039972e+2, -540638.0, -707672.25, -181222.47, -0.4495037, 0.08241712, -424613.94, -424613.94, 0.0, 9.998067, 9.996074 
2.5428563e+3, 3.1397977e+2, 370.54874, -258513.72, -193832.17, 0.3213836, -0.5229954, 104008.18, 104008.18, 0.0, 10.000824, 9.997811 
2.5603446e+3, 1.24529175e+2, -1562264.0, -1552683.5, -61981.402, 0.49917918, 0.13022394, -1495307.5, 224308.03, 0.26403108, 10.000722, 10.001102 
2.559945e+3, 1.3452299e+2, -1386235.3, -1244079.8, -20997.145, 0.3230282, -0.0838163, -1241043.3, 380617.25, 0.18292536, 10.00056, 10.002783 
2.5595462e+3, 1.4451471e+2, -1491780.8, -1494819.1, 39783.758, 0.11197678, -0.24868749, -1453487.1, 70248.18, 0.1037245, 10.00003, 10.000096 
2.5591478e+3, 1.545079e+2, -1376304.9, -1391898.5, -212.62135, -0.15686457, -0.2755004, -1376302.0, 49504.563, 0.043632858, 10.000198, 10.000014 
2.5587526e+3, 1.6450083e+2, -1299891.1, -1320295.8, 54901.934, -0.091672145, -0.17595892, -1254251.6, 73625.99, 0.011545959, 10.00016, 9.999844 
2.558362e+3, 1.7449285e+2, -1183637.9, -1192547.9, 36465.97, 0.29979414, -0.28555942, -1151355.8, 78598.75, 0.0013158798, 10.000235, 9.999988 
2.5579682e+3, 1.8448624e+2, -1087448.3, -1059497.4, 110101.75, 0.35049096, -0.16842453, -962487.6, 169530.38, 0.000016496271, 10.000008, 10.000396 
2.5575718e+3, 1.9448085e+2, -1020936.6, -972877.5, 94099.71, -0.0072041675, -0.070687935, -899787.7, 134282.06, 0.0, 9.999781, 10.000425 
2.5571772e+3, 2.0447303e+2, -972456.06, -982667.5, 85521.875, -0.10278001, -0.052017994, -891887.7, 44256.336, 0.0, 9.99985, 9.999613 
2.5567847e+3, 2.1446183e+2, -736168.1, -812379.0, 117478.04, 0.074318945, -0.4492088, -650770.06, 187480.06, 0.0, 10.00081, 9.999622 
2.5563902e+3, 2.2445306e+2, -705491.44, -921589.44, 98865.32, 0.0997085, -0.40699536, -667085.9, 73249.2, 0.0, 10.001057, 9.998116 
2.5559938e+3, 2.3444656e+2, -731895.44, -850122.56, -20298.264, -0.10670042, -0.20494159, -728507.56, -86107.805, 0.0, 10.000101, 9.998365 
2.5555992e+3, 2.4443793e+2, -712284.3, -747060.1, -13109.523, -0.19249256, -0.13912965, -707896.1, -163412.39, 0.0, 9.999318, 9.998811 
2.5552064e+3, 2.5442663e+2, -605145.44, -618872.75, -27473.244, -0.2221989, -0.50755996, -583691.44, -137098.11, 0.0, 9.999316, 9.99899 
2.5548148e+3, 2.6441875e+2, -555804.3, -698800.44, -57512.16, -0.08671843, -0.3410378, -535543.9, -186871.63, 0.0, 9.999663, 9.997594 
2.5544253e+3, 2.74413e+2, -203265.5, -463586.75, -62855.24, 0.25902018, -0.035415113, -188883.5, 61849.75, 0.0, 10.001369, 9.997703 
2.5540313e+3, 2.8440356e+2, -169303.89, -240420.11, -150864.92, 0.21753319, -0.034225628, -49863.28, 102960.77, 0.0, 10.000196, 9.999154 
2.553631e+3, 2.9439127e+2, -654680.6, -392219.22, -160547.11, -0.31579608, -0.5731189, -316093.06, -261156.86, 0.0, 9.996078, 9.999397 
2.5532407e+3, 3.0438286e+2, -609303.8, -461851.22, -65634.06, 0.010049809, -0.5220708, -436868.88, -436868.88, 0.0, 9.996597, 9.998358 
2.552849e+3, 3.1438103e+2, 268697.34, 193771.9, 66412.36, 0.09496987, 0.07262346, 307484.6, 307484.6, 0.0, 10.001597, 10.000397 
2.5703356e+3, 1.24927476e+2, -1667852.9, -1571712.0, -12397.816, 0.23156258, -0.02488066, -1570139.0, 145565.44, 0.23823552, 9.999674, 10.001309 
2.569937e+3, 1.3491999e+2, -1503392.9, -1479310.1, 29438.69, 0.19770385, -0.1731491, -1459545.4, 158224.02, 0.16394834, 10.000556, 10.000728 
2.56954e+3, 1.4491072e+2, -1544590.9, -1591876.6, 25190.656, 0.1942265, -0.2864283, -1533685.9, -13829.221, 0.09188186, 9.999988, 9.9994135 
2.569142e+3, 1.5490335e+2, -1546343.0, -1541239.3, -5283.2725, 0.036827024, -0.29895958, -1537923.9, -115992.766, 0.03784501, 9.999305, 9.999425 
2.5687468e+3, 1.6489635e+2, -1376501.3, -1308571.9, 65904.445, 0.06525893, -0.1873037, -1268394.9, 55605.75, 0.009625426, 9.999431, 10.000261 
2.5683552e+3, 1.7488897e+2, -1090938.6, -1135455.3, 99329.57, 0.28022444, -0.25080252, -1011404.0, 214668.25, 0.0010124295, 10.000792, 10.000118 
2.5679615e+3, 1.848818e+2, -937412.44, -1026872.75, 84945.97, 0.28797328, -0.16996887, -886139.44, 242002.05, 0.000009793076, 10.001189, 10.000042 
2.567566e+3, 1.948747e+2, -922621.7, -983392.1, 65111.703, 0.088927366, -0.1721884, -881154.3, 149055.72, 0.0, 10.000657, 9.999935 
2.5671712e+3, 2.0486695e+2, -863181.4, -910440.1, 8944.274, -0.02165487, -0.14459597, -861545.25, 70739.08, 0.0, 10.000437, 9.99985 
2.5667775e+3, 2.1485774e+2, -714632.0, -799315.8, -5807.813, 0.02829621, -0.33823702, -714235.5, 120135.64, 0.0, 10.000854, 9.999732 
2.5663832e+3, 2.2484915e+2, -684938.94, -998756.7, -56228.41, -0.0067830067, -0.27038884, -675168.4, 61287.16, 0.0, 10.001451, 9.997427 
2.565987e+3, 2.3484127e+2, -516781.78, -890174.6, -30185.918, -0.15033911, -0.085386276, -514357.22, 124179.695, 0.0, 10.002032, 9.99722 
2.5655928e+3, 2.4483144e+2, -306015.72, -549408.1, 27808.395, -0.2096929, -0.08294387, -302878.94, 237754.0, 0.0, 10.002017, 9.998878 
2.5652003e+3, 2.5481862e+2, -288542.38, -501410.84, 15398.53, -0.15377897, -0.54362243, -287434.25, 155318.92, 0.0, 10.0015335, 9.998764 
2.5648087e+3, 2.6481023e+2, -335947.13, -526827.4, 24345.02, -0.055685703, -0.4462138, -332891.06, 11943.657, 0.0, 10.00076, 9.998266 
2.564417e+3, 2.7480668e+2, -380550.16, -520729.5, 62321.84, 0.10137528, 0.07567328, -356849.78, -109974.95, 0.0, 9.999877, 9.998064 
2.5640228e+3, 2.8479722e+2, -193322.86, -319703.63, -105111.48, 0.102839604, 0.08840118, -133869.66, 15097.565, 0.0, 10.000214, 9.998623 
2.563625e+3, 2.9478088e+2, 58608.375, -164500.36, -175512.06, -0.026716316, -0.7152026, 155017.61, 206137.92, 0.0, 10.001348, 9.998462 
2.563234e+3, 3.047725e+2, 62487.156, 30652.346, 42875.605, 0.22891666, -0.6938158, 92304.66, 92304.66, 0.0, 10.000304, 10.000016 
2.5628358e+3, 3.1477016e+2, -184715.36, 16861.076, -43878.96, -0.5572736, -0.24381483, 25998.416, 25998.416, 0.0, 9.997983, 10.001031 
2.5803268e+3, 1.2532656e+2, -1830223.4, -1894404.5, -12459.755, 0.121581405, 0.0038701012, -1827889.4, -116104.945, 0.21373183, 9.999475, 9.998909 
2.5799295e+3, 1.3531704e+2, -1590147.0, -1713793.1, -33965.965, 0.14929143, -0.21324922, -1581430.9, 32448.11, 0.14603193, 10.000601, 9.998963 
2.579534e+3, 1.4530717e+2, -1483177.8, -1602562.3, 6094.4937, 0.34552234, -0.2872057, -1482867.4, 33107.863, 0.080827504, 10.000646, 9.999014 
2.5791377e+3, 1.5529971e+2, -1396882.8, -1540736.5, -33101.367, 0.42138454, -0.25509492, -1389631.5, 28415.951, 0.032553293, 10.000676, 9.998758 
2.5787422e+3, 1.6529277e+2, -1203513.0, -1211420.0, 124806.33, 0.37857828, -0.10992018, -1082597.5, 237517.61, 0.007938516, 10.000563, 10.00036 
2.5783476e+3, 1.752858e+2, -1133598.9, -1161789.3, 83591.49, 0.22868809, -0.16302107, -1062922.5, 159260.89, 0.00076767127, 10.000521, 10.000053 
2.5779542e+3, 1.8527742e+2, -1064537.5, -1183341.4, 40409.81, 0.21926883, -0.15858996, -1052095.6, 72169.305, 0.000005913737, 10.000811, 9.999115 
2.577561e+3, 1.9526744e+2, -1008284.6, -1126326.5, 2399.6646, 0.30720496, -0.38387355, -1008235.8, 18125.543, 0.0, 10.00062, 9.998923 
2.577166e+3, 2.052601e+2, -921857.3, -1047541.94, 18564.96, 0.20482479, -0.21079995, -919172.4, 9261.533, 0.0, 10.000552, 9.998826 
2.57677e+3, 2.152544e+2, -848368.2, -985390.8, -13379.656, -0.07236651, 0.0050054463, -847073.94, -16581.842, 0.0, 10.000493, 9.9986105 
2.5763756e+3, 2.2524557e+2, -770155.44, -974473.44, -30410.664, -0.122239575, 0.087234385, -765725.2, -33144.797, 0.0, 10.000773, 9.997868 
2.5759828e+3, 2.3523363e+2, -630414.75, -889769.25, -25735.656, 0.003672253, -0.20568086, -627885.7, 6813.394, 0.0, 10.001186, 9.997586 
2.5755885e+3, 2.4522421e+2, -478507.4, -677631.2, 9118.229, -0.05189359, -0.15209183, -478090.72, 58697.64, 0.0, 10.001177, 9.998348 
2.575193e+3, 2.55216e+2, -470347.22, -658106.4, -5727.403, -0.25734434, -0.1367729, -470172.66, -31311.004, 0.0, 10.000706, 9.998048 
2.5747988e+3, 2.6520652e+2, -410003.16, -452822.8, -14530.095, -0.33603182, -0.15417996, -405538.22, -64588.043, 0.0, 9.999887, 9.99918 
2.5744054e+3, 2.7519622e+2, -507763.7, -489986.0, 33854.9, -0.29836628, -0.43264863, -463872.47, -220823.0, 0.0, 9.998739, 9.998793 
2.574013e+3, 2.8518766e+2, -432806.06, -600679.06, -7395.34, -0.1477538, -0.28169054, -432480.9, -287343.97, 0.0, 9.999406, 9.997043 
2.57362e+3, 2.9517895e+2, -60768.055, -401377.7, -53244.125, 0.033422895, -0.1963449, -52638.94, -5410.1685, 0.0, 10.001415, 9.996777 
2.573226e+3, 3.0517095e+2, 9425.206, -4656.34, -74756.83, 0.10081778, -0.037664674, 77472.086, 77472.086, 0.0, 10.00014, 9.999804 
2.5728282e+3, 3.1516072e+2, -525870.9, -24613.371, 71899.875, -0.33692208, -0.38674638, -14504.011, -14504.011, 0.0, 9.995349, 10.001968 
2.5903207e+3, 1.2571932e+2, -1909780.6, -1866557.3, 22179.922, 0.2534758, -0.39277977, -1857201.0, -149274.06, 0.19077115, 9.998763, 9.999422 
2.589922e+3, 1.357156e+2, -1651100.5, -1784138.5, 14293.221, 0.07821036, 0.0081810355, -1649582.3, -39605.043, 0.12932457, 10.000354, 9.9986 
2.5895265e+3, 1.4570658e+2, -1339644.3, -1432427.1, 44576.293, 0.15232928, -0.009802728, -1321699.0, 190367.45, 0.07062259, 10.001284, 9.9999075 
2.5891322e+3, 1.5569729e+2, -1060269.3, -1308513.8, 91660.21, 0.35179046, -0.22333984, -1030093.3, 384056.1, 0.027766839, 10.00276, 9.999364 
2.588736e+3, 1.656891e+2, -1069795.3, -1348443.8, 108418.81, 0.28129813, -0.12662709, -1032580.9, 283648.7, 0.0064744665, 10.0023575, 9.998551 
2.5883397e+3, 1.7568126e+2, -1281904.5, -1437469.9, 37585.867, 0.06633088, -0.061809584, -1273299.4, -54987.56, 0.0005723583, 10.000326, 9.998285 
2.5879464e+3, 1.8567234e+2, -1086320.0, -1172376.4, 25166.492, 0.09271862, -0.04259282, -1079500.6, 40898.977, 0.0000035552432, 10.000544, 9.999331 
2.587555e+3, 1.9566205e+2, -742345.4, -1002271.9, 44126.816, 0.27854264, -0.28882393, -735058.44, 287439.2, 0.0, 10.00239, 9.998958 
2.587161e+3, 2.0565397e+2, -547366.7, -869500.1, 7033.2427, 0.22309946, -0.1961603, -547213.2, 377363.66, 0.0, 10.003091, 9.998851 
2.586765e+3, 2.156476e+2, -512263.28, -856336.75, 21255.754, -0.015892342, 0.009317001, -510955.13, 315686.38, 0.0, 10.002838, 9.998426 
2.5863707e+3, 2.2563855e+2, -491455.38, -829003.2, -11173.661, -0.0679989, 0.07395487, -491085.9, 237646.77, 0.0, 10.0025625, 9.998025 
2.585978e+3, 2.356268e+2, -434195.88, -796656.75, -20628.426, 0.044094633, -0.17278564, -433025.66, 197824.48, 0.0, 10.002427, 9.997665 
2.585583e+3, 2.4561751e+2, -309963.88, -524648.5, -30097.848, -0.04015412, -0.15738398, -305824.13, 227112.27, 0.0, 10.001894, 9.999097 
2.5851867e+3, 2.5561005e+2, -377900.16, -557113.1, 23620.414, -0.28797123, -0.08982107, -374839.25, 60159.86, 0.0, 10.000964, 9.998663 
2.5847912e+3, 2.6560038e+2, -285585.16, -421663.0, -19563.852, -0.39978665, -0.14609624, -282828.34, 54261.59, 0.0, 10.0008, 9.99898 
2.5843972e+3, 2.755883e+2, -167125.7, -356289.44, -90513.13, -0.3644225, -0.5296426, -130794.02, 108413.44, 0.0, 10.001107, 9.998618 
2.584005e+3, 2.8558058e+2, -220597.42, -397343.78, -62318.816, -0.19553812, -0.36094165, -200834.33, -59546.324, 0.0, 10.00033, 9.998017 
2.583613e+3, 2.9557574e+2, -354760.8, -478672.84, 28281.242, 0.025506955, 0.06820232, -348611.2, -305266.2, 0.0, 9.998958, 9.997485 
2.5832164e+3, 3.0556786e+2, -40103.484, -101366.16, -51029.26, -0.113414116, 0.24961486, -11217.894, -11217.894, 0.0, 9.999997, 9.999264 
2.5828183e+3, 3.155564e+2, 34945.316, -182682.66, 114500.586, -0.3641314, -0.0999227, 84089.77, 84089.77, 0.0, 10.000863, 9.99828 
2.6003152e+3, 1.2611437e+2, -1808643.3, -1988245.1, -2556.8804, 0.48822358, -0.61801165, -1808606.9, -104556.12, 0.16949552, 10.000169, 9.997944 
2.5999147e+3, 1.3611375e+2, -1655545.3, -1854434.1, -18337.164, 0.086781286, 0.17208305, -1653868.8, -47789.87, 0.11391175, 10.000602, 9.998022 
2.599519e+3, 1.4610596e+2, -1289221.5, -1321143.0, 57241.043, 0.029533954, 0.25060022, -1245757.6, 262398.28, 0.061296463, 10.0012865, 10.0006695 
2.599126e+3, 1.5609479e+2, -1090560.8, -1310106.3, 16952.545, 0.25740018, -0.2339536, -1089259.4, 320992.28, 0.023481611, 10.002486, 9.999474 
2.59873e+3, 1.6608521e+2, -1210462.4, -1663751.9, -29941.773, 0.21312375, -0.16658306, -1208493.3, 103853.625, 0.005220199, 10.002441, 9.9963875 
2.5983322e+3, 1.7607646e+2, -1342048.9, -1711917.5, -62079.47, 0.032905806, 0.02750607, -1331907.4, -117463.58, 0.00041937284, 10.0009775, 9.99612 
2.597939e+3, 1.8606733e+2, -1046563.06, -1136266.3, 102804.695, 0.058198035, 0.11066062, -979252.0, 137282.97, 0.0000020172258, 10.000766, 9.999451 
2.597549e+3, 1.9605736e+2, -921642.75, -1106747.6, 73696.93, 0.21593346, -0.1262088, -895885.44, 122742.36, 0.0, 10.001264, 9.998767 
2.5971568e+3, 2.0604806e+2, -721767.56, -942706.2, -10484.097, 0.27113897, -0.14877248, -721271.2, 199445.9, 0.0, 10.001948, 9.998861 
2.5967625e+3, 2.1603903e+2, -728945.5, -992025.7, -14606.204, 0.247357, -0.22859986, -728137.06, 94668.17, 0.0, 10.001613, 9.998039 
2.5963673e+3, 2.2603032e+2, -651671.3, -968394.2, -13192.511, 0.14234269, -0.07391677, -651122.75, 73770.695, 0.0, 10.001794, 9.997412 
2.595972e+3, 2.36021e+2, -639452.1, -957808.06, -40449.633, 0.022597589, -0.0454611, -634393.06, -7403.7563, 0.0, 10.001363, 9.997043 
2.5955766e+3, 2.4601135e+2, -370108.8, -416486.8, -60457.832, -0.076815486, -0.10045458, -328545.38, 200531.67, 0.0, 10.0009985, 10.000245 
2.5951806e+3, 2.5600123e+2, -499948.72, -553171.4, -16054.803, -0.18668957, -0.43890813, -495480.78, -64318.65, 0.0, 9.999944, 9.999171 
2.5947866e+3, 2.659923e+2, -572270.56, -820588.94, -14678.293, -0.1733894, -0.30243093, -571405.94, -238155.58, 0.0, 10.000078, 9.996551 
2.594394e+3, 2.7598345e+2, -445646.9, -736311.06, -104547.3, -0.045863345, -0.15625195, -411949.5, -176602.23, 0.0, 10.000345, 9.996362 
2.5939992e+3, 2.8597558e+2, -132394.02, -1358.7449, -159249.14, -0.017853934, -0.059263073, 105323.64, 242748.61, 0.0, 9.999525, 10.0011 
2.5936022e+3, 2.9596835e+2, -457598.1, -272306.47, -34088.254, -0.13519023, -0.19815151, -266234.22, -226742.97, 0.0, 9.997291, 9.999674 
2.5932032e+3, 3.059586e+2, -295212.44, -420041.2, 58698.65, -0.6644302, -0.20578311, -271946.7, -271946.7, 0.0, 9.999277, 9.997336 
2.5928175e+3, 3.1595042e+2, 325595.28, 501508.0, 117293.875, 0.075342864, -0.08305712, 560160.56, 560160.56, 0.0, 10.000713, 10.003007 
2.6103035e+3, 1.2651177e+2, -1633299.4, -1622251.4, -133973.84, -0.089949474, -0.207238, -1493687.8, 206476.95, 0.14988421, 10.000271, 10.000522 
2.6099098e+3, 1.3650611e+2, -1596895.3, -1707846.1, -14681.231, 0.23453459, -0.11374043, -1594985.5, 7240.263, 0.09979623, 10.000508, 9.999074 
2.6095143e+3, 1.4649805e+2, -1457928.8, -1591825.1, 50288.71, 0.20160055, -0.0041196174, -1441145.1, 63160.863, 0.05285716, 10.000921, 9.998906 
2.6091197e+3, 1.5648788e+2, -1275120.8, -1597463.5, -52007.547, 0.07089193, -0.19438171, -1266937.5, 139465.48, 0.019694533, 10.002009, 9.997741 
2.6087242e+3, 1.6647825e+2, -1058851.9, -1445273.1, -143894.83, 0.09568527, -0.14449261, -1011155.75, 297342.9, 0.004163879, 10.002866, 9.997665 
2.6083288e+3, 1.7646874e+2, -953431.44, -1424494.0, -42848.41, 0.16185562, -0.13215122, -949565.6, 261030.44, 0.00030229846, 10.003217, 9.996999 
2.6079342e+3, 1.8645994e+2, -872950.2, -1106541.4, 84682.516, 0.12701415, -0.029997895, -845480.94, 267202.63, 0.0000010444409, 10.002129, 9.999011 
2.607541e+3, 1.9645101e+2, -1139855.0, -1279621.4, 64990.79, 0.03554845, -0.088919654, -1114305.1, -99535.15, 0.0, 9.999942, 9.99825 
2.6071486e+3, 2.0644191e+2, -956748.9, -1051368.3, 9836.941, 0.09450415, -0.07536766, -955737.0, -38877.453, 0.0, 10.000254, 9.998946 
2.6067567e+3, 2.1643242e+2, -678894.94, -969111.1, 5772.0947, 0.20303844, -0.1815153, -678780.2, 140173.83, 0.0, 10.001846, 9.998108 
2.6063624e+3, 2.2642379e+2, -544855.2, -831149.4, -19179.883, 0.16766162, -0.07596305, -543576.0, 177464.03, 0.0, 10.002043, 9.998275 
2.6059666e+3, 2.3641539e+2, -613213.25, -889459.7, 33589.53, 0.040844202, 0.0086820815, -609187.7, 13936.401, 0.0, 10.001151, 9.997663 
2.605571e+3, 2.4640553e+2, -394176.25, -508136.03, -44249.133, -0.032341976, -0.05519508, -379012.56, 146203.95, 0.0, 10.001102, 9.9995775 
2.6051754e+3, 2.5639454e+2, -274587.9, -525345.1, -130218.164, -0.08240102, -0.37848228, -219199.92, 208116.1, 0.0, 10.001691, 9.998564 
2.6047814e+3, 2.6638567e+2, -249555.77, -582207.0, -33339.895, -0.054697264, -0.26914012, -246247.19, 83155.51, 0.0, 10.001821, 9.997385 
2.6043886e+3, 2.7637804e+2, -196081.6, -546972.4, 87759.12, 0.06138176, -0.025103562, -175356.8, 56128.063, 0.0, 10.001616, 9.997089 
2.6039928e+3, 2.8636965e+2, 144605.73, 146778.77, -81084.21, 0.029199097, -0.01007482, 226783.73, 360348.88, 0.0, 10.00126, 10.001314 
2.6035932e+3, 2.9636094e+2, 43427.285, -10879.804, -165826.38, -0.1825588, -0.27965185, 184308.56, 219951.13, 0.0, 10.000516, 9.999954 
2.6031935e+3, 3.0634975e+2, -179599.28, -378599.28, 41731.78, -0.8223388, -0.4585196, -171202.14, -171202.14, 0.0, 9.999943, 9.9973545 
2.6028135e+3, 3.16343e+2, -34491.49, 34735.824, -107010.945, 0.33911437, -0.16478983, 112591.93, 112591.93, 0.0, 9.999279, 10.00051 
2.6202923e+3, 1.2690738e+2, -1546672.8, -1387428.8, -25089.967, -0.50338733, -0.0039078523, -1383569.1, 312724.44, 0.13183987, 10.000032, 10.002379 
2.6199055e+3, 1.3689815e+2, -1401976.0, -1493058.4, -58988.563, 0.5076076, -0.43761954, -1372994.4, 225380.08, 0.08692974, 10.001459, 10.000145 
2.619511e+3, 1.4688958e+2, -1495548.8, -1865442.5, 75331.66, 0.47221988, -0.30044547, -1480795.3, 19666.441, 0.045284748, 10.001646, 9.99673 
2.619113e+3, 1.5688084e+2, -1482770.1, -1877728.8, 15910.768, 0.00071696803, -0.12836902, -1482130.1, -79573.34, 0.01638905, 10.00129, 9.996202 
2.618719e+3, 1.6687116e+2, -1072451.6, -1256961.5, -49275.492, 0.08415123, -0.1162449, -1060116.6, 244534.56, 0.0032885466, 10.00197, 9.999376 
2.6183265e+3, 1.768608e+2, -964109.5, -1300213.5, -30381.28, 0.43798018, -0.35778198, -961385.3, 245362.44, 0.00021471751, 10.002594, 9.998167 
2.6179305e+3, 1.8685229e+2, -897115.8, -1208190.9, 11287.306, 0.2971808, -0.23271558, -896706.8, 212125.25, 0.00000047553752, 10.002357, 9.998206 
2.6175323e+3, 1.9684467e+2, -1118830.5, -1374431.5, -11637.351, -0.06475086, -0.09083723, -1118301.8, -107391.07, 0.0, 10.000593, 9.997285 
2.6171395e+3, 2.0683622e+2, -931940.44, -1068294.9, 77632.58, -0.08735925, 0.047814064, -896798.0, 16199.831, 0.0, 10.000593, 9.998647 
2.6167494e+3, 2.1682706e+2, -868409.4, -1086344.3, 38274.035, 0.07170621, -0.014485269, -861883.1, -46790.746, 0.0, 10.00074, 9.997826 
2.6163563e+3, 2.2681858e+2, -576942.94, -666808.3, -47094.156, 0.15096167, 0.030976351, -556784.9, 160389.6, 0.0, 10.001189, 9.999765 
2.615961e+3, 2.3681024e+2, -761491.1, -901673.2, -7313.124, 0.17681871, -0.03901974, -761110.7, -141858.38, 0.0, 10.000028, 9.998084 
2.6155654e+3, 2.4680065e+2, -684626.94, -948020.25, -9952.32, 0.10138664, 0.06611976, -684251.44, -162901.48, 0.0, 10.000525, 9.996782 
2.61517e+3, 2.5679004e+2, -576717.7, -899742.2, -114910.125, 0.0016444065, 0.03681839, -540011.5, -116551.445, 0.0, 10.000729, 9.996422 
2.614775e+3, 2.6678082e+2, -70495.72, -55899.758, -33169.496, -0.10279783, -0.02795476, -29234.877, 296307.75, 0.0, 10.001248, 10.001222 
2.6143804e+3, 2.7677208e+2, -186030.98, -297758.78, 91983.4, -0.18278967, -0.291472, -134276.47, 93338.984, 0.0, 10.000741, 9.99918 
2.6139846e+3, 2.8676304e+2, -217083.92, -460580.88, -93310.68, -0.14406432, -0.20395306, -185438.88, -55733.887, 0.0, 10.000785, 9.997311 
2.6135877e+3, 2.9675364e+2, -295164.0, -554213.7, -191907.23, -0.0780814, -0.1783902, -193161.14, -161358.38, 0.0, 9.999945, 9.996477 
2.6131913e+3, 3.0674446e+2, -134423.75, -54913.81, -42492.477, -0.30797246, -0.16085291, -36478.848, -36478.848, 0.0, 9.9990835, 9.999955 
2.612801e+3, 3.167404e+2, -296655.47, -13621.183, -152453.64, -0.067477375, 0.13246018, 52874.207, 52874.207, 0.0, 9.997371, 10.001062 
2.6302877e+3, 1.273027e+2, -1903660.0, -1876765.6, 107281.71, -0.248198, -0.13719669, -1782091.6, -89681.664, 0.11528824, 9.999013, 9.999169 
2.6298988e+3, 1.3729289e+2, -1452783.1, -1754217.8, -5199.178, 0.35080045, -0.347188, -1452693.5, 141815.8, 0.07524984, 10.002115, 9.997963 
2.6295045e+3, 1.4728472e+2, -1339780.9, -1568852.4, 26918.77, 0.3473797, -0.20442186, -1336660.1, 159932.06, 0.038529176, 10.001836, 9.998665 
2.6291075e+3, 1.5727672e+2, -1545369.4, -1746719.6, 132371.8, 0.10321144, -0.133941, -1479738.3, -81064.305, 0.013527696, 10.000173, 9.99764 
2.6287135e+3, 1.6726708e+2, -1267187.5, -1428836.1, 103983.4, 0.14983545, -0.121447615, -1216311.0, 84456.54, 0.0025719018, 10.000921, 9.998727 
2.6283208e+3, 1.7725667e+2, -1044516.1, -1400731.1, 72356.96, 0.3151649, -0.29207042, -1030379.44, 172487.08, 0.00015054179, 10.002245, 9.997664 
2.6279256e+3, 1.8724681e+2, -728148.9, -1197949.6, 32968.293, 0.22979131, -0.24759209, -725846.56, 379117.97, 0.0000001940375, 10.003786, 9.997608 
2.627529e+3, 1.9723721e+2, -521894.5, -1114376.9, 33171.766, -0.029124105, -0.22938141, -520043.06, 487019.1, 0.0, 10.004716, 9.997116 
2.627135e+3, 2.0722957e+2, -514662.4, -804818.75, 77660.4, -0.033126667, -0.044054307, -495184.16, 413957.47, 0.0, 10.00316, 9.999221 
2.626743e+3, 2.1722229e+2, -831836.5, -1012318.25, 116610.516, 0.057622932, 0.055164356, -774627.6, 36590.094, 0.0, 10.0006485, 9.998401 
2.6263493e+3, 2.2721305e+2, -626093.1, -718441.5, 15264.601, 0.1076198, 0.022191647, -623635.4, 89672.08, 0.0, 10.000914, 9.999563 
2.6259544e+3, 2.3720326e+2, -409556.03, -715475.5, -34743.266, 0.11179098, -0.15680677, -405659.88, 209740.42, 0.0, 10.002252, 9.9983225 
2.6255593e+3, 2.471947e+2, -386321.0, -759139.75, 38107.41, 0.06744397, 0.00478824, -382465.75, 135023.33, 0.0, 10.002274, 9.997279 
2.6251638e+3, 2.5718623e+2, -391776.34, -721277.1, 159681.28, -0.012461003, 0.18572608, -327090.9, 92489.53, 0.0, 10.001502, 9.997297 
2.624769e+3, 2.6717693e+2, -102552.766, -41046.152, 101815.77, -0.08408314, 0.07209061, 34559.45, 356223.84, 0.0, 10.000755, 10.001622 
2.6243737e+3, 2.7716732e+2, -254375.1, -277096.06, -31069.037, -0.15768436, -0.2934024, -232654.69, -8911.2, 0.0, 9.99986, 9.999808 
2.6239777e+3, 2.8715804e+2, -346565.47, -602954.56, -88095.77, -0.112556696, -0.22724068, -319213.53, -193378.39, 0.0, 10.000125, 9.996696 
2.6235816e+3, 2.9714888e+2, -173948.4, -497299.8, 49115.984, 0.0007776362, -0.06626542, -166652.47, -138718.78, 0.0, 10.0006695, 9.996558 
2.6231867e+3, 3.0714e+2, 39542.67, 56563.836, 100804.38, 0.04879608, -0.033657137, 149216.27, 149216.27, 0.0, 10.000043, 10.000334 
2.6227888e+3, 3.1712836e+2, -40890.168, 311636.0, -140750.2, -0.29989582, -0.46728075, 360937.28, 360937.28, 0.0, 9.998028, 10.003081 
2.6402843e+3, 1.2769732e+2, -1901164.3, -2196901.0, 64930.652, 0.17791376, -0.31677946, -1887536.4, -199000.66, 0.10017185, 10.000302, 9.996423 
2.639892e+3, 1.3768831e+2, -1588952.3, -1988862.1, 26237.482, 0.21432088, -0.17156877, -1587238.3, 3401.1077, 0.06469282, 10.001796, 9.996526 
2.6394978e+3, 1.4768066e+2, -1163715.1, -1246546.5, -27500.3, 0.28185713, -0.06949581, -1155416.4, 337298.66, 0.032530583, 10.002035, 10.000824 
2.639103e+3, 1.5767287e+2, -1308492.6, -1500827.5, -464.76163, 0.3545989, -0.18888426, -1308491.5, 86295.2, 0.011066901, 10.001238, 9.998806 
2.6387084e+3, 1.6766359e+2, -1168290.4, -1513424.6, 82789.914, 0.2882803, -0.13062942, -1149458.5, 147419.31, 0.0019930317, 10.0021715, 9.997534 
2.638314e+3, 1.7765354e+2, -1048672.1, -1561352.6, 47223.754, 0.1811917, -0.14304896, -1044358.6, 154619.23, 0.00010503105, 10.002883, 9.99628 
2.637921e+3, 1.8764192e+2, -829134.56, -1267922.9, 51295.406, 0.16962335, -0.21072558, -823217.75, 277875.3, 0.00000008640195, 10.0033455, 9.997255 
2.6375276e+3, 1.9762984e+2, -781055.44, -1265722.6, 6639.3613, 0.18887192, -0.41744837, -780964.5, 222248.73, 0.0, 10.003169, 9.996786 
2.6371327e+3, 2.0762318e+2, -580455.5, -745044.75, -25942.4, 0.18795481, -0.18034172, -576463.3, 328817.53, 0.0, 10.002333, 10.000038 
2.636737e+3, 2.1761824e+2, -985510.56, -1100611.8, 16290.186, 0.20773703, 0.06921139, -983249.44, -175917.6, 0.0, 9.999692, 9.998273 
2.6363423e+3, 2.2760758e+2, -810611.75, -966956.5, 60197.844, 0.10476401, -0.018266216, -790119.5, -80681.44, 0.0, 10.000374, 9.998088 
2.6359475e+3, 2.3759502e+2, -670380.2, -928729.2, -7081.275, -0.031371694, -0.35931325, -670186.2, -58624.066, 0.0, 10.000899, 9.997509 
2.6355523e+3, 2.4758834e+2, -283562.53, -355838.78, 8511.899, -0.0797054, -0.17408423, -282573.63, 231053.66, 0.0, 10.001546, 10.000367 
2.635157e+3, 2.575833e+2, -481115.72, -635185.06, 120329.33, -0.08158546, 0.038418535, -415274.63, 402.08093, 0.0, 10.000423, 9.998405 
2.6347634e+3, 2.675742e+2, -452810.06, -583435.5, 54190.664, 0.070585504, 0.10997414, -433255.94, -115487.67, 0.0, 10.000098, 9.998157 
2.63437e+3, 2.7756363e+2, -619171.44, -706752.3, -76037.016, 0.2615208, -0.041165233, -575216.6, -355342.9, 0.0, 9.998576, 9.997462 
2.6339725e+3, 2.8755572e+2, -207620.95, -98646.9, -61507.49, 0.11627139, 0.015536518, -70963.33, 50984.07, 0.0, 9.999299, 10.000514 
2.6335725e+3, 2.9754853e+2, -223773.9, -317444.06, 95761.625, -0.17709589, -0.011750975, -164007.8, -139994.11, 0.0, 9.999562, 9.998305 
2.633178e+3, 3.0753487e+2, -260398.08, -446580.1, 81203.79, -0.052176736, -0.3295983, -229957.75, -229957.75, 0.0, 9.999678, 9.9969635 
2.632779e+3, 3.175244e+2, -318399.53, -135442.9, -17205.326, -0.39815846, -0.36640194, -133838.97, -133838.97, 0.0, 9.9976635, 10.000109 
2.6502794e+3, 1.2808816e+2, -1679284.9, -1636605.3, -52238.94, 0.26683962, -0.33354512, -1601515.5, 83198.98, 0.086430125, 10.000012, 10.000394 
2.6498857e+3, 1.3808283e+2, -1553680.8, -1717536.5, 127779.4, 0.15128823, -0.19473433, -1483820.1, 102949.27, 0.055199515, 10.000989, 9.998788 
2.6494917e+3, 1.4807488e+2, -1255341.0, -1452958.5, 11911.484, 0.18744318, -0.10819454, -1254625.6, 234222.63, 0.027235242, 10.0021, 9.99932 
2.649098e+3, 1.580656e+2, -1143859.6, -1547199.1, -30949.04, 0.27310115, -0.23100543, -1141498.6, 249440.4, 0.0089680515, 10.002892, 9.997691 
2.6487043e+3, 1.6805626e+2, -892033.44, -1385385.3, 16849.756, 0.23658793, -0.14431295, -891458.6, 401575.66, 0.0015322798, 10.004161, 9.997417 
2.6483107e+3, 1.7804658e+2, -749869.75, -1392993.8, -11356.973, 0.1076475, -0.1087573, -749669.25, 445464.34, 0.00007382683, 10.004801, 9.996511 
2.6479158e+3, 1.8803652e+2, -794140.2, -1180253.9, -54617.43, 0.045340367, -0.081994966, -786563.0, 310671.5, 0.000000036839044, 10.003236, 9.997935 
2.6475203e+3, 1.9802615e+2, -1066589.1, -1325664.5, -34132.54, -0.01779644, -0.17009857, -1062167.8, -62830.3, 0.0, 10.000797, 9.997536 
2.6471248e+3, 2.0801824e+2, -800890.06, -864933.1, -85666.84, 0.021506371, -0.08625751, -741455.7, 159959.58, 0.0, 10.000841, 9.999939 
2.6467294e+3, 2.180114e+2, -713254.1, -936469.94, -54567.895, 0.04615078, -0.01362173, -700628.44, 102854.34, 0.0, 10.001327, 9.998629 
2.646335e+3, 2.2800206e+2, -703508.8, -871475.5, 46666.996, 0.04823819, -0.022159114, -691414.0, 14162.007, 0.0, 10.000833, 9.998552 
2.6459414e+3, 2.3799153e+2, -724429.1, -880668.2, 86493.086, 0.0048579206, -0.18143137, -685999.44, -78318.35, 0.0, 10.000058, 9.99828 
2.6455456e+3, 2.4798393e+2, -462248.16, -401140.25, -14559.014, -0.06840298, -0.13794301, -397848.84, 111903.48, 0.0, 10.000047, 10.000826 
2.6451495e+3, 2.5797766e+2, -465715.25, -564693.7, -75339.25, -0.13359515, -0.07768984, -425064.7, -13255.329, 0.0, 10.000112, 9.999079 
2.6447558e+3, 2.6796904e+2, -500261.16, -665770.94, -41858.23, 0.053320494, 0.025662994, -490277.25, -176379.52, 0.0, 9.999941, 9.997703 
2.644363e+3, 2.7795953e+2, -428516.2, -572474.3, 41519.0, 0.35996112, 0.05376993, -417400.06, -201402.17, 0.0, 9.999574, 9.997932 
2.6439652e+3, 2.879522e+2, -24727.797, 96040.36, -20320.59, 0.21786958, 0.0864586, 99367.84, 217434.33, 0.0, 9.999934, 10.001617 
2.643565e+3, 2.979456e+2, -32475.152, -139990.33, -84787.3, -0.19785501, 0.033531893, 14160.309, 34284.586, 0.0, 10.000327, 9.999199 
2.6431713e+3, 3.0793083e+2, -166722.33, -544015.4, -69316.89, 0.0029272973, -0.37561846, -154390.39, -154390.39, 0.0, 10.000762, 9.995839 
2.6427737e+3, 3.1792673e+2, 227276.75, 220165.69, 82134.555, -0.12671672, 0.34195268, 305932.7, 305932.7, 0.0, 10.000744, 10.001143 
2.660274e+3, 1.2848012e+2, -1380037.4, -1119753.5, 62497.73, 0.43585172, -0.3053561, -1105524.8, 575357.94, 0.07399981, 10.000359, 10.004047 
2.65988e+3, 1.3847743e+2, -1372283.4, -1460965.0, 30714.25, 0.19523631, -0.23994918, -1362684.6, 220213.53, 0.046711504, 10.001439, 10.000397 
2.659486e+3, 1.4846882e+2, -1311682.4, -1679338.5, -28962.525, 0.15640774, -0.15825291, -1309414.9, 175570.05, 0.022592498, 10.002613, 9.997518 
2.6590928e+3, 1.5845837e+2, -1205378.6, -1732065.4, -37446.3, 0.23764238, -0.21761385, -1202729.6, 184363.72, 0.0071954923, 10.003158, 9.996318 
2.6587006e+3, 1.6844863e+2, -1014312.75, -1446865.8, 60337.797, 0.22945057, -0.12727372, -1006053.8, 283142.56, 0.001170623, 10.003323, 9.99741 
2.6583084e+3, 1.7843921e+2, -1050233.3, -1506786.0, -20153.422, 0.19875754, -0.07636061, -1049345.3, 141950.56, 0.00005271245, 10.002671, 9.996743 
2.6579103e+3, 1.8843156e+2, -897598.5, -1120106.6, -111148.04, -0.028285297, 0.111613825, -851590.5, 241783.36, 0.000000014947995, 10.002055, 9.998917 
2.657511e+3, 1.984242e+2, -1170856.1, -1349874.3, -69247.83, -0.25233367, 0.23471628, -1147196.6, -151748.78, 0.0, 10.000032, 9.99774 
2.657115e+3, 2.0841397e+2, -912261.4, -959853.94, -26275.477, -0.2509467, 0.10141734, -900608.2, -3060.832, 0.0, 10.0004015, 9.999414 
2.6567206e+3, 2.184033e+2, -941381.9, -1074608.6, -37242.035, -0.15717895, -0.17111152, -931678.06, -132027.39, 0.0, 10.000032, 9.99825 
2.6563278e+3, 2.2839728e+2, -683051.2, -676441.8, 31525.117, 0.034600694, 0.056707118, -648048.6, 53662.11, 0.0, 10.00031, 10.000064 
2.6559362e+3, 2.3839183e+2, -884205.75, -945721.44, 46131.406, 0.24583994, 0.25181207, -859518.56, -255753.0, 0.0, 9.999048, 9.998283 
2.6555392e+3, 2.4838114e+2, -674260.94, -707510.06, -19938.402, 0.08235176, 0.101981536, -664925.6, -159058.39, 0.0, 9.999576, 9.998909 
2.6551414e+3, 2.5836948e+2, -731409.1, -794638.4, -84106.484, -0.18266428, -0.21880727, -673171.7, -265194.84, 0.0, 9.998878, 9.998062 
2.6547456e+3, 2.6836202e+2, -424581.63, -306754.47, -48076.91, -0.17339665, -0.15270406, -289627.25, 20419.03, 0.0, 9.999256, 10.000406 
2.654351e+3, 2.783554e+2, -563395.8, -573484.06, 64030.258, -0.011892112, -0.09993201, -504211.28, -292101.7, 0.0, 9.998549, 9.99837 
2.6539567e+3, 2.8834677e+2, -302021.78, -346887.72, -6123.5986, 0.1234404, -0.028004933, -301201.0, -187001.52, 0.0, 9.999541, 9.998676 
2.6535603e+3, 2.9833823e+2, -353547.38, -517654.0, -91760.27, 0.041962095, -0.0145826675, -312504.4, -296214.5, 0.0, 9.999263, 9.997074 
2.6531655e+3, 3.083306e+2, -78379.33, -263247.44, -73072.74, 0.11595393, 0.22153051, -52984.36, -52984.36, 0.0, 10.000479, 9.997825 
2.6527646e+3, 3.1832102e+2, 225781.36, 468556.88, -23796.271, -0.40878236, 0.13387495, 470867.34, 470867.34, 0.0, 9.999848, 10.003228 
2.6702657e+3, 1.2887608e+2, -1687263.9, -1535318.1, 107002.43, 0.2255939, -0.05262379, -1480060.6, 196947.2, 0.062782034, 9.999429, 10.001405 
2.6698723e+3, 1.3886891e+2, -1509009.9, -1699370.8, -6060.8457, -0.033555556, -0.19683659, -1508817.1, 70252.9, 0.039146993, 10.001211, 9.998844 
2.6694798e+3, 1.488604e+2, -1235294.1, -1534803.3, -58768.504, -0.0105451355, -0.12794502, -1224175.5, 256979.5, 0.018543638, 10.002738, 9.99843 
2.669088e+3, 1.5885141e+2, -1083425.6, -1561862.0, -7614.5576, 0.09617021, -0.1263051, -1083304.5, 299943.38, 0.005710664, 10.003509, 9.997324 
2.668695e+3, 1.6884334e+2, -1133963.0, -1392777.0, 37357.563, 0.11457176, 0.028533723, -1128678.6, 156656.44, 0.0008890518, 10.001997, 9.998418 
2.668301e+3, 1.7883536e+2, -1400624.9, -1522518.1, 30356.822, 0.06451809, 0.13094848, -1393483.1, -206061.75, 0.000037964888, 9.999561, 9.998129 
2.6679033e+3, 1.8882737e+2, -1123322.5, -1056798.0, -17128.15, -0.035181284, 0.14320272, -1052647.0, 36851.176, 0.0000000057994387, 9.9997635, 10.000448 
2.6675045e+3, 1.9881949e+2, -1068918.1, -1161961.9, 62477.777, -0.17552878, 0.091063984, -1037544.2, -45971.773, 0.0, 10.000074, 9.999011 
2.6671088e+3, 2.0881051e+2, -912927.06, -960374.3, 127107.13, -0.18227924, 0.05648034, -807348.56, 86310.14, 0.0, 10.000367, 9.999453 
2.6667136e+3, 2.1880095e+2, -855961.0, -1032927.6, 143636.94, -0.173304, -0.06826172, -775740.8, 20010.547, 0.0, 10.0005045, 9.998338 
2.6663208e+3, 2.2879359e+2, -632245.5, -753306.6, 108952.27, -0.021807985, 0.0972112, -568138.4, 129689.195, 0.0, 10.000989, 9.999273 
2.6659286e+3, 2.3878698e+2, -521282.8, -773119.2, 14672.033, 0.15879993, 0.27319488, -520430.9, 79465.81, 0.0, 10.001432, 9.998353 
2.6655328e+3, 2.4877676e+2, -396236.28, -559070.06, 5258.5044, 0.12081889, 0.14696659, -396066.63, 105928.125, 0.0, 10.001321, 9.9991255 
2.6651356e+3, 2.5876546e+2, -372487.1, -534560.9, 60998.38, -0.046346363, -0.1327045, -352095.28, 52005.688, 0.0, 10.000824, 9.99894 
2.664738e+3, 2.6875803e+2, -157102.14, -103909.266, 1452.2004, -0.16526665, -0.13280238, -103869.65, 202296.67, 0.0, 10.000637, 10.001193 
2.6643416e+3, 2.7875137e+2, -249658.06, -385346.38, -17441.18, -0.1864369, -0.12785101, -247452.06, -39227.19, 0.0, 10.000403, 9.9987955 
2.663948e+3, 2.8874123e+2, -258449.64, -527590.9, -27933.893, -0.012383003, -0.109769925, -255581.0, -145246.1, 0.0, 10.000646, 9.996949 
2.6635534e+3, 2.9873118e+2, -119251.06, -418578.75, -40401.89, 0.085820556, -0.065505326, -113893.69, -101445.75, 0.0, 10.000782, 9.997068 
2.6631588e+3, 3.087291e+2, 57715.15, 7001.1226, -16074.619, 0.13141309, 0.6106681, 62380.984, 62380.984, 0.0, 10.000444, 9.999748 
2.6627573e+3, 3.1871316e+2, 194507.08, 540636.8, -196115.69, -0.3690039, -0.25040445, 629130.4, 629130.4, 0.0, 9.999038, 10.004177 
2.6802585e+3, 1.2927176e+2, -1193269.0, -1640417.9, 170224.47, 0.17174229, 0.14290136, -1135841.9, 537293.1, 0.05267765, 10.004458, 9.9982605 
2.679866e+3, 1.3926066e+2, -1343519.4, -1751544.3, 46526.848, -0.08244863, -0.10253264, -1338281.1, 236959.67, 0.03242507, 10.00298, 9.997613 
2.679474e+3, 1.4925243e+2, -1208865.3, -1379486.5, 35273.77, -0.09187138, -0.06922934, -1201860.4, 275461.47, 0.015032841, 10.002246, 9.999727 
2.679083e+3, 1.592449e+2, -1306114.9, -1534101.0, -2088.5505, 0.044818003, -0.056117967, -1306095.8, 73302.23, 0.0044764117, 10.001393, 9.998522 
2.678688e+3, 1.6923892e+2, -1197273.8, -1278479.4, -14555.688, 0.038775828, 0.19007829, -1194743.5, 86720.76, 0.00066900725, 10.001004, 9.999668 
2.678292e+3, 1.792329e+2, -1309103.8, -1336403.4, -12354.704, 0.010554706, 0.3650245, -1304342.8, -120811.82, 0.000027210404, 9.999626, 9.999383 
2.6778963e+3, 1.892236e+2, -982687.9, -828952.44, -21811.162, 0.063181624, 0.105537385, -825917.9, 259696.97, 0.000000001728097, 10.000081, 10.0018635 
2.6775002e+3, 1.9921425e+2, -1078942.3, -1093039.8, 337.67807, 0.15892619, -0.22627674, -1078934.1, -91237.39, 0.0, 9.999751, 9.999639 
2.677104e+3, 2.0920804e+2, -888281.8, -934989.56, 67193.18, 0.09778507, -0.028141327, -840499.7, 49254.816, 0.0, 10.000506, 9.999547 
2.676708e+3, 2.1920176e+2, -1050686.5, -1268592.5, 93127.79, 0.01765478, 0.18184389, -1016309.4, -224493.75, 0.0, 9.999839, 9.997052 
2.6763135e+3, 2.2919023e+2, -853380.1, -1112367.6, 103226.305, -0.06357009, 0.10593358, -817271.06, -123333.87, 0.0, 10.000588, 9.996984 
2.6759195e+3, 2.3917858e+2, -823875.75, -1050193.6, 14739.216, -0.08071562, -0.033825893, -822919.9, -226859.38, 0.0, 10.000027, 9.997116 
2.675526e+3, 2.49172e+2, -385664.22, -342329.94, -3680.0718, 0.12474514, 0.099193476, -342019.63, 156104.22, 0.0, 10.000646, 10.0008335 
2.675132e+3, 2.5916588e+2, -572979.0, -636593.9, 45945.62, 0.30437598, 0.17233594, -548905.2, -148725.6, 0.0, 9.999608, 9.998788 
2.6747334e+3, 2.691571e+2, -347797.25, -368198.7, -12346.906, 0.07988754, 0.14026155, -341982.34, -39724.23, 0.0, 10.0001545, 9.999569 
2.6743343e+3, 2.791475e+2, -543228.6, -724662.7, -37673.04, -0.16539814, -0.0016180213, -535717.1, -331371.6, 0.0, 9.999329, 9.996981 
2.6739383e+3, 2.8913528e+2, -347366.56, -602961.3, -42583.08, -0.28814524, -0.125676, -340458.75, -233983.56, 0.0, 10.000233, 9.996601 
2.6735422e+3, 2.99124e+2, -277448.84, -480263.03, -57819.168, -0.3732431, -0.20554149, -262123.52, -253524.83, 0.0, 9.9997425, 9.997134 
2.6731512e+3, 3.0912343e+2, 47046.773, 162461.27, -58036.5, 0.13595156, 0.5042426, 186597.55, 186597.55, 0.0, 9.999821, 10.001053 
2.6727515e+3, 3.1911376e+2, -455373.25, -280201.06, -354820.25, -0.06921141, 0.23766884, -2316.5942, -2316.5942, 0.0, 9.997018, 9.999452 
2.690259e+3, 1.296638e+2, -815581.94, -1526647.9, 11311.848, 0.1227791, -0.004572539, -815402.0, 853892.2, 0.043619107, 10.00761, 9.997435 
2.689866e+3, 1.3965634e+2, -1242382.8, -1701679.8, 14925.035, 0.24443333, 0.14745449, -1241898.3, 329470.66, 0.026486209, 10.003734, 9.997559 
2.6894695e+3, 1.4964719e+2, -1333574.0, -1364934.4, 18472.82, 0.017397355, 0.04095691, -1325023.8, 148433.1, 0.012009438, 10.001041, 10.000414 
2.6890737e+3, 1.5963821e+2, -1650639.4, -1581303.1, 30380.527, -0.14360824, -0.15028098, -1569875.1, -194332.03, 0.003455713, 9.998484, 9.999598 
2.6886803e+3, 1.6963275e+2, -1273135.6, -1163300.1, 84008.69, 0.0110804085, 0.009585295, -1117851.5, 159746.67, 0.00049606664, 9.9997835, 10.001049 
2.6882866e+3, 1.7962758e+2, -1087449.0, -1237776.4, 81047.68, 0.0989991, 0.17522456, -1052076.3, 127575.164, 0.00001910138, 10.001129, 9.999342 
2.6878893e+3, 1.8961857e+2, -861167.94, -983027.94, -62979.723, 0.032215394, 0.08286637, -834468.56, 247270.56, 0.0000000002885943, 10.001758, 10.000019 
2.687492e+3, 1.9960928e+2, -824825.56, -1066863.4, -140036.56, -0.03923512, -0.08295915, -760761.2, 223066.84, 0.0, 10.001811, 9.998841 
2.6870978e+3, 2.0960145e+2, -561997.6, -778465.4, -111467.664, 0.03843792, -0.046100304, -514862.25, 371038.9, 0.0, 10.002673, 9.999607 
2.6867035e+3, 2.1959403e+2, -517757.88, -926279.4, -108362.64, 0.07825092, 0.0249774, -490793.8, 297177.47, 0.0, 10.003047, 9.997858 
2.686307e+3, 2.2958387e+2, -723638.9, -950247.6, -29687.26, -0.029693665, -0.016093537, -719814.25, -29738.002, 0.0, 10.000979, 9.99794 
2.685911e+3, 2.3957361e+2, -908362.06, -950638.94, 68938.49, -0.14303, -0.098687105, -857394.0, -265210.34, 0.0, 9.998725, 9.998452 
2.6855183e+3, 2.4956778e+2, -439239.03, -350303.1, 51068.168, 0.067868486, 0.062679045, -327055.78, 167185.48, 0.0, 10.000071, 10.001134 
2.6851255e+3, 2.595624e+2, -214464.45, -447189.78, -5823.68, 0.29731473, 0.21216877, -214318.81, 181973.56, 0.0, 10.001842, 9.999048 
2.684728e+3, 2.6955268e+2, -99133.58, -371818.97, -71049.38, 0.17474642, 0.14814286, -81731.86, 216650.52, 0.0, 10.002271, 9.998591 
2.6843295e+3, 2.7954197e+2, -150871.81, -556231.8, -49999.51, -0.034386165, 0.0057186047, -144795.66, 55687.285, 0.0, 10.001968, 9.996892 
2.683931e+3, 2.8953016e+2, -217866.88, -519970.38, -3721.28, -0.3229923, -0.09414585, -217821.05, -115213.25, 0.0, 10.000888, 9.996896 
2.683533e+3, 2.995194e+2, -193114.33, -321457.63, 5734.575, -0.5273754, -0.14263529, -192858.61, -188134.75, 0.0, 9.999668, 9.998274 
2.683144e+3, 3.0951768e+2, 69254.46, 281029.47, -25449.842, 0.21937369, 0.34840202, 284044.94, 284044.94, 0.0, 9.999366, 10.002142 
2.6827434e+3, 3.1951347e+2, -257586.66, -594838.2, -380171.03, 0.08205246, 0.6610899, -10322.231, -10322.231, 0.0, 9.999929, 9.995922 
2.7002594e+3, 1.3005757e+2, -1126570.9, -1712732.3, -20183.28, 0.20039058, -0.12693234, -1125876.8, 539558.06, 0.03555001, 10.005391, 9.997215 
2.6998663e+3, 1.4005269e+2, -1299095.0, -1724666.6, -6050.6235, 0.65422606, 0.3312122, -1299009.0, 268477.88, 0.021269772, 10.003216, 9.997701 
2.699465e+3, 1.500427e+2, -1153630.5, -1233339.1, -1769.434, 0.20788628, 0.107358634, -1153591.3, 315990.6, 0.009415533, 10.002072, 10.000851 
2.6990643e+3, 1.6003235e+2, -1319661.1, -1349333.6, 28672.877, -0.18455246, -0.25593233, -1302213.5, 69464.99, 0.0026134893, 10.000447, 10.000249 
2.6986733e+3, 1.7002657e+2, -1027908.25, -921208.9, 94284.19, 0.05616329, -0.23309161, -866227.1, 407501.9, 0.0003600524, 10.000942, 10.0021305 
2.6982823e+3, 1.8002132e+2, -1196215.8, -1403591.1, 22395.605, 0.30830356, -0.13789853, -1193824.6, -18047.793, 0.000012952271, 10.000927, 9.99828 
2.697883e+3, 1.9001336e+2, -1111382.1, -1414229.6, -76676.41, -0.01482726, 0.0945166, -1093075.4, -15210.644, 0.000000000007316074, 10.001468, 9.997157 
2.6974833e+3, 2.000045e+2, -1091276.6, -1405879.1, -88838.94, -0.31613606, 0.23507887, -1067923.4, -87962.266, 0.0, 10.00094, 9.9969425 
2.6970914e+3, 2.0999286e+2, -682864.44, -846521.5, -58724.168, -0.09974328, -0.06078737, -663973.4, 218098.23, 0.0, 10.001929, 9.99948 
2.6966992e+3, 2.1998204e+2, -706122.4, -921801.8, -127678.99, 0.16771378, -0.34661463, -646835.44, 137336.88, 0.0, 10.001459, 9.998627 
2.6963016e+3, 2.2997658e+2, -624056.9, -578099.06, -124301.555, 0.10182882, -0.16306761, -474670.25, 211553.42, 0.0, 10.000425, 10.000668 
2.6959032e+3, 2.3997144e+2, -1012132.1, -947706.94, 46481.934, -0.0044632135, 0.031373326, -923366.7, -335093.13, 0.0, 9.997894, 9.998849 
2.6955098e+3, 2.4996358e+2, -547819.1, -505812.25, 106164.19, -0.038656823, 0.03156395, -418593.78, 71759.76, 0.0, 9.999856, 10.00012 
2.6951167e+3, 2.5995532e+2, -503685.8, -733963.3, 18780.338, -0.0038437194, -0.019960122, -502164.22, -109727.11, 0.0, 10.000647, 9.997616 
2.694722e+3, 2.6994506e+2, -215849.08, -462042.44, -71915.984, 0.14494157, -0.0805528, -196381.03, 98155.52, 0.0, 10.001751, 9.998145 
2.6943263e+3, 2.7993503e+2, -321990.53, -631844.0, -63263.117, 0.23391965, -0.14567417, -309571.75, -112937.11, 0.0, 10.000936, 9.996834 
2.6939276e+3, 2.8992748e+2, -225345.67, -363350.84, -44251.668, 0.006101124, 0.084698476, -212375.3, -113658.28, 0.0, 10.000343, 9.998156 
2.693528e+3, 2.9992014e+2, -379847.3, -363209.13, 4869.041, -0.24728532, 0.26371524, -361889.0, -361092.56, 0.0, 9.998338, 9.998604 
2.693134e+3, 3.099121e+2, -21114.639, 255410.81, -9386.1045, 0.06356499, 0.08428725, 255729.05, 255729.05, 0.0, 9.998776, 10.002211 
2.6927364e+3, 3.199019e+2, -260460.52, -543076.94, -67574.45, 0.039003067, -0.22758916, -245134.39, -245134.39, 0.0, 9.999899, 9.99626 
2.7102545e+3, 1.3045762e+2, -1433892.1, -1645013.3, -29837.996, 0.03117291, 0.095295504, -1429756.1, 231750.39, 0.028414996, 10.002301, 9.999163 
2.7098578e+3, 1.4044572e+2, -1426155.5, -1772881.4, 127704.74, 0.24338044, -0.29028195, -1384197.3, 179422.66, 0.016713178, 10.002303, 9.997799 
2.7094597e+3, 1.5043925e+2, -1072186.6, -1325565.6, 114402.85, 0.12818514, -0.06429385, -1028176.8, 437510.3, 0.0071980846, 10.003249, 9.999614 
2.7090618e+3, 1.604322e+2, -1005967.1, -1392102.8, 85287.8, -0.035975028, 0.047713444, -987968.1, 379790.66, 0.0019202423, 10.003439, 9.998516 
2.708668e+3, 1.70422e+2, -900680.2, -1118526.1, 35843.92, 0.006429351, -0.15252888, -894934.06, 374919.6, 0.00025324232, 10.002913, 9.999846 
2.708274e+3, 1.8041246e+2, -1102856.1, -1376760.3, -122795.81, 0.039201006, -0.30586272, -1055866.1, 116076.625, 0.000008369746, 10.0015955, 9.998153 
2.7078766e+3, 1.9040546e+2, -1077951.1, -1245046.9, -94940.57, -0.025448874, -0.09314373, -1035031.75, 38986.58, 0.0, 10.001029, 9.998536 
2.7074784e+3, 2.0039828e+2, -1130223.6, -1348751.3, 59999.043, -0.15552972, 0.119024135, -1114834.1, -138737.73, 0.0, 10.000294, 9.997658 
2.7070844e+3, 2.1038792e+2, -918637.5, -1029710.3, 96450.0, -0.1416664, -0.0031639263, -862877.5, 15321.465, 0.0, 10.000516, 9.998966 
2.7066907e+3, 2.2037771e+2, -755311.25, -850292.8, -12525.861, -0.08503233, -0.18005677, -753687.2, 26609.986, 0.0, 10.0006, 9.999566 
2.706295e+3, 2.3037146e+2, -366201.0, -343964.6, -89794.78, 0.09954166, -0.15965423, -264602.3, 417749.3, 0.0, 10.0016365, 10.001758 
2.7058986e+3, 2.403658e+2, -305432.06, -570479.4, 5679.133, 0.18712795, -0.07897629, -305310.44, 279091.97, 0.0, 10.002471, 9.999255 
2.7055028e+3, 2.503579e+2, -361802.47, -544329.0, 39399.082, -0.049747307, -0.0061310884, -353661.16, 132826.39, 0.0, 10.001616, 9.999039 
2.705108e+3, 2.603494e+2, -507708.47, -705442.2, -65192.996, -0.23919742, 0.01098725, -488149.06, -99570.5, 0.0, 10.000398, 9.997925 
2.7047142e+3, 2.7033925e+2, -405547.1, -505568.3, -104390.21, 0.0038443184, -0.09125193, -339806.34, -49128.785, 0.0, 10.000153, 9.998639 
2.70432e+3, 2.803296e+2, -348223.94, -503410.34, -66375.164, 0.26423618, -0.16119067, -323707.56, -130935.99, 0.0, 10.00004, 9.998149 
2.7039218e+3, 2.903243e+2, -98835.92, -178655.78, -65578.06, 0.18345132, 0.18220615, -61978.125, 32850.75, 0.0, 10.000627, 9.999329 
2.703522e+3, 3.003185e+2, 72713.52, -67621.82, -25307.025, -0.025978452, 0.4319859, 77137.73, 77137.73, 0.0, 10.000992, 9.999382 
2.7031246e+3, 3.1030595e+2, 403521.8, 370876.47, -93152.65, -0.11913223, -0.15411063, 481771.03, 481771.03, 0.0, 10.001977, 10.001524 
2.7027327e+3, 3.20294e+2, 31218.686, -291414.66, -81956.06, 0.35101935, -0.5830088, 50843.617, 50843.617, 0.0, 10.001265, 9.997374 
2.7202484e+3, 1.3085693e+2, -1320428.5, -1405416.4, -528.4193, -0.02834306, 0.1222544, -1320425.3, 337157.63, 0.022191128, 10.002192, 10.000949 
2.719849e+3, 1.4083938e+2, -1365090.3, -1766577.0, 54932.164, -0.09044039, -0.92048573, -1357709.9, 202035.84, 0.012784308, 10.00275, 9.997665 
2.719455e+3, 1.5083666e+2, -1140389.5, -1529152.0, 96969.72, 0.114117496, -0.21697903, -1117544.6, 344239.13, 0.00532732, 10.003493, 9.998121 
2.7190608e+3, 1.6083284e+2, -1170311.5, -1720056.4, 76778.984, 0.29336074, 0.3991979, -1159789.8, 204041.67, 0.0013580795, 10.003435, 9.996265 
2.718663e+3, 1.7081788e+2, -1142891.4, -1548081.6, 50966.92, 0.001779813, -0.015561663, -1136578.9, 129396.85, 0.00016970174, 10.002664, 9.997005 
2.7182654e+3, 1.8080369e+2, -1178395.1, -1414186.8, -69886.15, -0.19849862, -0.41762048, -1159238.1, 8873.7, 0.0000049540654, 10.0011215, 9.998129 
2.7178705e+3, 1.9079731e+2, -849441.8, -846281.6, -88601.5, 0.06818868, -0.3482368, -759246.1, 310927.78, 0.0, 10.001367, 10.001084 
2.7174756e+3, 2.0079178e+2, -1103349.0, -1290463.5, 31268.744, 0.28670982, -0.17312655, -1098262.0, -126032.02, 0.0, 10.000379, 9.997981 
2.7170774e+3, 2.1078531e+2, -976410.4, -1118860.5, 83485.93, -0.11061576, 0.12842059, -937895.25, -63594.934, 0.0, 10.000544, 9.9982605 
2.7166802e+3, 2.2077797e+2, -955669.94, -1024609.3, 5989.3193, -0.3759206, 0.29811394, -955153.44, -178776.83, 0.0, 9.999671, 9.998806 
2.716289e+3, 2.3076738e+2, -456757.06, -397094.75, -51173.047, 0.11474194, -0.10232201, -367692.66, 310777.72, 0.0, 10.001135, 10.001604 
2.7158964e+3, 2.4075776e+2, -624580.75, -867899.3, 3439.7324, 0.50299174, -0.37340596, -624532.1, -43974.03, 0.0, 10.00105, 9.997863 
2.7154976e+3, 2.5075158e+2, -555305.6, -773528.1, 2745.9146, 0.030909346, -0.018950166, -555271.1, -72636.71, 0.0, 10.000974, 9.9977255 
2.7150992e+3, 2.6074514e+2, -705813.94, -840912.8, -90557.24, -0.38933125, 0.3020062, -660387.5, -275676.22, 0.0, 9.999306, 9.997536 
2.714704e+3, 2.7073562e+2, -400267.4, -345495.9, -111835.65, -0.25683734, 0.15024646, -257741.78, 29059.746, 0.0, 9.999628, 9.999961 
2.714309e+3, 2.8072628e+2, -517838.6, -545795.3, -62447.7, -0.04827639, -0.00038963114, -467823.9, -278935.3, 0.0, 9.998812, 9.998449 
2.7139133e+3, 2.907196e+2, -138187.06, -135829.52, -52501.168, 0.038869765, 0.1303176, -84493.89, 6458.0713, 0.0, 10.000142, 9.999824 
2.7135155e+3, 3.0071238e+2, -161309.1, -346248.84, -7933.459, -0.07452866, 0.22988777, -160969.39, -160969.39, 0.0, 10.000215, 9.997817 
2.7131185e+3, 3.10699e+2, 252533.13, 43468.496, -87122.35, -0.22123669, -0.25377536, 284079.13, 284079.13, 0.0, 10.002147, 9.999113 
2.712727e+3, 3.2069254e+2, -137520.33, -333999.9, -361521.75, 0.395893, 0.009052066, 138871.77, 138871.77, 0.0, 10.000145, 9.997542 
2.7302426e+3, 1.3125154e+2, -1625560.0, -1734026.4, -32260.77, -0.10313884, -0.21015057, -1616690.1, 37013.39, 0.016854065, 10.0009575, 9.999183 
2.729844e+3, 1.4123936e+2, -1457451.9, -1874203.8, 10741.9, -0.20104958, -0.6147326, -1457175.1, 98647.49, 0.009467284, 10.002419, 9.997065 
2.729451e+3, 1.5123335e+2, -1136476.0, -1494911.5, 88076.05, 0.11070403, -0.2557362, -1116003.0, 341888.3, 0.0037924994, 10.003408, 9.998376 
2.729058e+3, 1.6122688e+2, -1133829.1, -1614817.0, 82342.38, 0.34465447, 0.059972018, -1120123.1, 239839.89, 0.0009170214, 10.003329, 9.997013 
2.7286586e+3, 1.7121507e+2, -1121248.5, -1430259.0, 151512.45, 0.07001668, -0.11944061, -1059356.3, 202720.34, 0.0001065257, 10.002368, 9.997946 
2.72826e+3, 1.8120354e+2, -1158465.8, -1438023.4, 157711.4, -0.19365177, -0.28096822, -1087505.4, 76682.41, 0.0000025959862, 10.001378, 9.997839 
2.7278644e+3, 1.9119531e+2, -752278.25, -979946.3, 47592.41, -0.0023155173, -0.24309321, -742729.9, 323541.66, 0.0, 10.002725, 9.999571 
2.7274695e+3, 2.0118766e+2, -663093.56, -1074982.0, 6948.7036, 0.14838174, -0.15407002, -662976.4, 305372.78, 0.0, 10.003313, 9.998053 
2.7270725e+3, 2.1117999e+2, -615066.9, -906032.8, 73127.27, -0.049136553, -0.005191694, -597722.06, 272704.34, 0.0, 10.002798, 9.998656 
2.726676e+3, 2.2117223e+2, -619886.0, -892633.2, 22509.816, -0.22391964, 0.122102916, -618040.75, 154463.9, 0.0, 10.00201, 9.998589 
2.726282e+3, 2.3116182e+2, -632546.56, -639357.9, -93749.8, 0.11050588, -0.14176546, -542140.6, 132464.13, 0.0, 10.00052, 10.000257 
2.7258882e+3, 2.4115235e+2, -803746.75, -876469.1, -48239.055, 0.3672753, -0.31640255, -779699.75, -203002.5, 0.0, 9.999389, 9.998607 
2.7254906e+3, 2.5114712e+2, -436566.7, -595947.1, 109960.5, -0.016382415, 0.037163075, -380456.16, 98304.77, 0.0, 10.00115, 9.998924 
2.725093e+3, 2.6114145e+2, -154968.69, -459217.56, 105636.85, -0.37199306, 0.35849926, -121887.86, 258939.97, 0.0, 10.002468, 9.998651 
2.7246967e+3, 2.71132e+2, -81071.48, -188376.3, -4871.1475, -0.26616883, 0.21533652, -80850.805, 202067.22, 0.0, 10.001722, 10.000083 
2.7243012e+3, 2.8112248e+2, -137988.48, -286466.0, -3143.1716, -0.098256536, 0.049259473, -137921.98, 47084.617, 0.0, 10.000923, 9.999253 
2.7239057e+3, 2.9111454e+2, 109982.49, 12271.772, -7519.5137, -0.0260453, 0.024663009, 110557.78, 197635.27, 0.0, 10.001557, 10.000222 
2.723509e+3, 3.0110633e+2, 49005.707, -241185.88, 26714.615, -0.0758933, 0.013195452, 51444.52, 51444.52, 0.0, 10.001513, 9.9979315 
2.723113e+3, 3.1109375e+2, -176259.23, -298999.4, 47524.81, -0.10838811, -0.29233798, -160009.13, -160009.13, 0.0, 9.999632, 9.998053 
2.722718e+3, 3.2109317e+2, -186180.83, -217155.25, -358504.78, 0.34153083, 0.65666306, 157171.13, 157171.13, 0.0, 9.998938, 9.999013 
2.7402374e+3, 1.316463e+2, -1691750.3, -1926326.5, -63913.414, 0.028003136, -0.45094204, -1675466.5, -25639.766, 0.012358498, 10.001112, 9.997792 
2.7398393e+3, 1.416393e+2, -1529951.0, -1920262.8, -17639.35, -0.11903212, -0.21712345, -1529155.4, 22746.936, 0.0067449147, 10.00195, 9.996947 
2.739447e+3, 1.5162937e+2, -1157114.4, -1446918.8, 30636.693, 0.15567487, -0.31139848, -1153911.0, 300095.88, 0.0025850076, 10.002975, 9.998908 
2.7390543e+3, 1.616201e+2, -1090624.3, -1445789.9, -34964.555, 0.42685908, -0.36080456, -1087214.9, 268887.5, 0.0005889778, 10.002961, 9.998345 
2.738655e+3, 1.7161313e+2, -1000913.25, -1188759.4, 1136.8287, 0.21587506, -0.25065878, -1000906.4, 257261.05, 0.00006228534, 10.002348, 9.99963 
2.7382553e+3, 1.8160555e+2, -1291434.5, -1665397.9, 81509.81, 0.008805932, -0.08894318, -1274440.6, -114199.67, 0.0000011486238, 10.001205, 9.996354 
2.7378586e+3, 1.9159526e+2, -1037989.7, -1419456.5, 59912.29, -0.06850958, -0.02788923, -1028801.4, 33549.715, 0.0, 10.002139, 9.996783 
2.7374628e+3, 2.015848e+2, -900217.94, -1268348.9, 29768.014, -0.052221358, -0.012923281, -897826.3, 66632.92, 0.0, 10.002114, 9.997284 
2.737069e+3, 2.1157351e+2, -649617.0, -850143.25, 46395.11, 0.123628534, -0.2882113, -639402.94, 227159.23, 0.0, 10.00223, 9.999316 
2.7366742e+3, 2.215633e+2, -900534.1, -1195029.9, -33847.715, 0.24284914, -0.4049965, -896693.94, -128034.86, 0.0, 10.000869, 9.997053 
2.7362743e+3, 2.3155575e+2, -852390.25, -976841.1, -158353.13, 0.091435626, -0.2053053, -744475.4, -73729.35, 0.0, 10.000107, 9.99809 
2.7358758e+3, 2.4154904e+2, -882081.0, -841290.75, -2237.5142, -0.022779197, 0.023159558, -841168.4, -268346.5, 0.0, 9.998611, 9.999213 
2.735483e+3, 2.5154418e+2, -280270.63, -158340.63, 184786.23, -0.11784491, 0.111570336, -24722.277, 450147.75, 0.0, 10.000745, 10.002071 
2.7350897e+3, 2.6153848e+2, -349894.53, -590922.7, 99002.96, -0.17734204, 0.21474658, -314443.13, 62483.523, 0.0, 10.001431, 9.998205 
2.734693e+3, 2.715282e+2, -256915.48, -433407.38, -41042.16, -0.016690252, 0.094988585, -247838.22, 31189.164, 0.0, 10.00127, 9.9985695 
2.734297e+3, 2.8151804e+2, -360483.03, -497569.78, 6031.846, 0.11993915, -0.016588723, -360218.16, -179092.36, 0.0, 10.0, 9.998208 
2.7339005e+3, 2.91509e+2, 69254.164, 15358.342, 25334.59, 0.043266147, -0.16723196, 79293.164, 162499.78, 0.0, 10.00132, 10.000302 
2.7335033e+3, 3.0150065e+2, -85812.14, -268396.97, -35064.195, -0.04817523, -0.20919384, -79309.86, -79309.86, 0.0, 10.000582, 9.998165 
2.7331072e+3, 3.1149235e+2, -290052.56, -186171.7, -34212.063, 0.190178, -0.23659195, -175916.69, -175916.69, 0.0, 9.998299, 9.999377 
2.732704e+3, 3.214898e+2, -258905.78, -24823.732, -89078.8, -0.18147624, 0.3528107, 5219.0073, 5219.0073, 0.0, 9.997697, 10.000851 
2.7502325e+3, 1.3203882e+2, -1649731.4, -1583167.3, -210568.61, 0.11295808, -0.38990027, -1403266.8, 242723.08, 0.008685325, 10.000086, 10.00064 
2.7498344e+3, 1.420317e+2, -1669263.1, -1929470.4, -12152.092, -0.08673024, -0.39582106, -1668696.9, -120638.836, 0.004592608, 10.000779, 9.997431 
2.7494407e+3, 1.5202382e+2, -1305627.9, -1570237.8, 17916.898, -0.0015944737, -0.26071674, -1304420.1, 145724.75, 0.0016782222, 10.002183, 9.998448 
2.749047e+3, 1.6201565e+2, -1119648.3, -1416117.6, -142172.95, 0.09734764, -0.18675072, -1062489.0, 289742.25, 0.0003582281, 10.002577, 9.998729 
2.7486485e+3, 1.7200752e+2, -959772.6, -1098199.1, -161960.77, 0.09440667, -0.25951055, -852855.94, 401449.4, 0.000033741435, 10.002329, 10.000257 
2.7482504e+3, 1.8199965e+2, -1152874.3, -1473460.1, -81567.59, 0.045983374, -0.21224684, -1133314.1, 23065.387, 0.00000040337267, 10.001586, 9.997483 
2.7478546e+3, 1.919911e+2, -1080011.9, -1336829.1, 33499.35, 0.0872031, -0.08673571, -1075714.1, -17243.934, 0.0, 10.001366, 9.997739 
2.7474585e+3, 2.0198172e+2, -1016035.3, -1305739.6, 87795.914, 0.07318075, -0.019506896, -991505.44, -30938.99, 0.0, 10.001142, 9.997524 
2.7470627e+3, 2.1196927e+2, -756074.56, -965662.06, 75478.766, 0.03220941, -0.36228558, -731722.0, 130960.484, 0.0, 10.001641, 9.998876 
2.7466664e+3, 2.219585e+2, -688729.0, -1022931.1, -42733.207, 0.021225553, -0.51885843, -683351.44, 81434.7, 0.0, 10.001923, 9.997747 
2.7462673e+3, 2.3195271e+2, -471624.2, -766364.9, -30779.467, 0.021782089, -0.16249038, -468444.22, 198412.42, 0.0, 10.002494, 9.998451 
2.7458692e+3, 2.4194713e+2, -235725.28, -435827.2, 208429.72, -0.06096398, 0.16059859, -104576.89, 464345.44, 0.0, 10.002533, 10.000126 
2.745476e+3, 2.5194082e+2, -178502.6, -85050.73, 212485.45, -0.1967584, 0.10644748, 85785.7, 556767.2, 0.0, 10.001286, 10.002346 
2.7450827e+3, 2.6193398e+2, -424525.25, -527775.75, -19024.605, -0.23872234, 0.06508317, -421131.38, -48085.875, 0.0, 10.00037, 9.999173 
2.744687e+3, 2.7192432e+2, -243204.8, -404644.25, -44131.938, -0.012190344, -0.030723866, -231928.31, 43211.953, 0.0, 10.00114, 9.998893 
2.7442905e+3, 2.8191483e+2, -62464.34, -253832.52, 110767.305, 0.14441445, -0.10058077, -11776.165, 165456.42, 0.0, 10.001515, 9.999167 
2.7438942e+3, 2.9190615e+2, 115499.086, 70928.19, 141759.97, 0.023648288, -0.22392102, 236714.61, 316027.06, 0.0, 10.001445, 10.000674 
2.743497e+3, 3.0189827e+2, 76071.55, -73837.65, 12293.059, -0.051682103, -0.23896095, 77072.93, 77072.93, 0.0, 10.001051, 9.99932 
2.7431002e+3, 3.118927e+2, 96228.984, 92752.05, -65509.926, 0.37546805, -0.066160515, 160023.5, 160023.5, 0.0, 10.00038, 10.000379 
2.742693e+3, 3.218866e+2, 56052.594, 192902.02, 45948.35, -0.38271618, 0.10011311, 206898.13, 206898.13, 0.0, 9.999355, 10.00159 
2.760228e+3, 1.3243249e+2, -1209242.4, -1083778.6, -55846.105, 0.34433874, -0.30564415, -1062522.0, 579621.44, 0.005822727, 10.001829, 10.003255 
2.759829e+3, 1.4242461e+2, -1444765.4, -1785620.4, 255.4982, 0.02070157, -0.5266818, -1444765.1, 99445.82, 0.002969682, 10.002167, 9.997763 
2.759434e+3, 1.5241876e+2, -1343130.1, -1634895.0, 74319.01, -0.12219056, -0.16274033, -1325290.3, 120990.03, 0.0010279784, 10.002161, 9.998001 
2.7590394e+3, 1.624117e+2, -1262525.3, -1496245.9, -91398.43, -0.12877414, 0.063480794, -1231027.9, 117329.1, 0.0002033788, 10.001622, 9.998668 
2.7586415e+3, 1.7240126e+2, -1065024.5, -1128265.9, -139881.2, -0.0029515305, -0.25712997, -953234.56, 297217.9, 0.000016580547, 10.001504, 10.0004635 
2.7582452e+3, 1.8239221e+2, -1155995.0, -1306202.6, -52956.84, 0.16432966, -0.39060736, -1139202.1, 13333.76, 0.00000009587778, 10.000905, 9.998949 
2.7578512e+3, 1.9238609e+2, -930990.7, -1025785.56, 10865.597, 0.40461758, -0.22959742, -929761.2, 124835.84, 0.0, 10.001402, 9.999851 
2.7574554e+3, 2.023785e+2, -1080340.3, -1385514.3, 99816.74, 0.41782144, -0.09450679, -1050592.0, -93918.664, 0.0, 10.000977, 9.99705 
2.7570546e+3, 2.1236627e+2, -896515.25, -1128428.9, 83604.875, -0.1524378, -0.34205002, -869518.4, -10724.137, 0.0, 10.001198, 9.997922 
2.756656e+3, 2.2235626e+2, -846653.1, -1000185.25, -16837.71, -0.41159287, -0.39470053, -844828.25, -83933.53, 0.0, 10.000578, 9.998509 
2.7562618e+3, 2.3235182e+2, -460436.2, -548538.75, -14093.13, 0.022119744, -0.096286684, -458236.72, 204708.33, 0.0, 10.001764, 10.000256 
2.7558666e+3, 2.4234632e+2, -561060.8, -770981.44, 179077.36, 0.21245715, 0.17831361, -458450.97, 106553.81, 0.0, 10.001223, 9.998415 
2.755469e+3, 2.523369e+2, -464760.78, -494481.53, 154866.55, -0.26288372, 0.016372731, -324043.28, 143054.95, 0.0, 10.000579, 9.999824 
2.755072e+3, 2.623281e+2, -573412.6, -571508.8, -19809.64, -0.5334869, -0.07513547, -552628.2, -183444.47, 0.0, 9.9993515, 9.999353 
2.7546775e+3, 2.7232036e+2, -199647.08, -140908.42, -27070.559, -0.26404992, -0.17138168, -130335.64, 140919.4, 0.0, 10.000558, 10.000937 
2.7542824e+3, 2.8231326e+2, -215894.42, -280770.94, 108595.34, -0.0658471, -0.14806011, -134996.06, 38326.668, 0.0, 10.000386, 9.999513 
2.7538854e+3, 2.9230726e+2, 33640.98, 63559.79, 134321.1, -0.19294752, -0.06397299, 183751.92, 259136.2, 0.0, 10.000803, 10.000907 
2.7534884e+3, 3.0230144e+2, -127076.984, -195053.6, -9043.617, -0.21148011, 0.11908863, -125894.39, -125894.39, 0.0, 9.999888, 9.9990225 
2.7530935e+3, 3.1229562e+2, 46468.17, 83648.945, -76135.64, 0.4015106, 0.24985132, 143430.98, 143430.98, 0.0, 10.000095, 10.00041 
2.7526894e+3, 3.2228494e+2, -323850.75, -287217.78, 47472.52, 0.017105477, 0.034750007, -254650.73, -254650.73, 0.0, 9.998308, 9.998707 
2.7702242e+3, 1.3283214e+2, -1425511.4, -1618163.3, -16728.742, 0.37379953, 0.042957474, -1424069.6, 214172.02, 0.0036892197, 10.002285, 9.999292 
2.7698207e+3, 1.4282289e+2, -1363373.5, -1727193.1, -15537.846, -0.37960023, -0.09966529, -1362711.1, 177616.86, 0.0018042208, 10.002696, 9.997882 
2.769429e+3, 1.5281512e+2, -1319641.3, -1452691.0, 96102.69, -0.08777989, -0.07089925, -1269284.6, 173119.81, 0.00058557204, 10.001605, 9.999502 
2.7690354e+3, 1.628073e+2, -1401019.8, -1501298.5, -31447.875, 0.1014343, -0.02754935, -1391973.5, -47492.117, 0.00010501939, 10.000387, 9.999229 
2.7686352e+3, 1.7279866e+2, -1223180.3, -1190840.0, -43356.99, 0.008749695, -0.17497821, -1160736.0, 85827.26, 0.0000068884756, 10.000327, 10.000624 
2.7682373e+3, 1.827906e+2, -1188162.6, -1264006.3, 58398.44, 0.009952085, -0.21699834, -1156453.8, -7814.5596, 0.00000000965895, 10.0004225, 9.999469 
2.7678442e+3, 1.927834e+2, -793800.1, -911124.94, 100238.055, 0.26836216, -0.19671899, -736320.56, 314386.84, 0.0, 10.002092, 10.000328 
2.7674487e+3, 2.0277578e+2, -795492.1, -1156160.0, 73487.93, 0.27834734, -0.11569738, -781093.4, 171689.22, 0.0, 10.002517, 9.99787 
2.767048e+3, 2.1276617e+2, -883797.75, -1079368.9, 112683.44, -0.2085679, -0.13154924, -832386.9, 22495.404, 0.0, 10.001092, 9.998322 
2.7666488e+3, 2.2275737e+2, -879561.0, -963865.8, 43012.203, -0.4597899, -0.085241266, -861489.9, -104516.86, 0.0, 10.000051, 9.99903 
2.7662545e+3, 2.3275061e+2, -678340.2, -662895.75, -19330.21, -0.04253216, 0.0041508824, -649802.3, 9238.967, 0.0, 10.000223, 10.000271 
2.7658594e+3, 2.4274337e+2, -701637.4, -809684.44, 90963.43, 0.13808374, 0.09702255, -649864.44, -88750.375, 0.0, 10.00003, 9.998746 
2.7654615e+3, 2.5273362e+2, -669091.6, -678083.06, 163511.31, -0.29045713, -0.033314552, -510014.22, -46803.023, 0.0, 9.999417, 9.999193 
2.7650645e+3, 2.627248e+2, -541041.5, -431171.78, 79164.24, -0.5302948, -0.10419549, -389748.88, -24452.037, 0.0, 9.998931, 10.000536 
2.7646703e+3, 2.7271822e+2, -296768.5, -80347.95, 24609.834, -0.24968974, -0.16291071, -77584.77, 189769.48, 0.0, 9.999325, 10.002001 
2.7642748e+3, 2.8271204e+2, -307426.34, -259599.08, 82403.55, -0.07976879, -0.122490935, -197709.4, -28297.842, 0.0, 9.999347, 10.000165 
2.7638775e+3, 2.927065e+2, -230355.34, -108636.945, 46123.293, -0.25588763, 0.025124842, -93133.85, -21662.43, 0.0, 9.998977, 10.000671 
2.76348e+3, 3.0270088e+2, -171688.72, -179846.53, -96865.99, -0.27830276, 0.22513008, -78815.79, -78815.79, 0.0, 9.999279, 9.99943 
2.763086e+3, 3.1269446e+2, 267564.8, 190411.42, -162535.89, 0.34692207, 0.28524944, 396039.25, 396039.25, 0.0, 10.001518, 10.000472 
2.7626854e+3, 3.2268173e+2, 251557.7, -192813.5, -80640.14, 0.33762628, -0.06613423, 265738.94, 265738.94, 0.0, 10.002871, 9.997174 
2.7802193e+3, 1.3323157e+2, -1546403.0, -2071239.1, 43237.74, 0.38316932, 0.33217543, -1542864.8, 91476.65, 0.0021709546, 10.0030985, 9.9958105 
2.7798134e+3, 1.4322156e+2, -1228773.9, -1592805.5, 20377.074, -0.6034186, 0.3163391, -1227636.9, 308803.06, 0.0010072378, 10.003198, 9.998623 
2.7794245e+3, 1.5321165e+2, -1244103.9, -1245116.6, 41831.758, 0.081902385, -0.025231354, -1202775.4, 235750.16, 0.00030058212, 10.001253, 10.001179 
2.7790317e+3, 1.632032e+2, -1447754.5, -1476442.5, -68982.08, 0.49165383, -0.15329899, -1391640.9, -51039.125, 0.000046417692, 9.99987, 9.999654 
2.7786285e+3, 1.7319733e+2, -1156274.4, -1158010.1, -105188.43, 0.09724069, -0.04891333, -1051950.3, 190711.78, 0.0000020738605, 10.000796, 10.000625 
2.7782288e+3, 1.8319057e+2, -1154234.5, -1277083.5, 68222.74, -0.11903162, 0.051773764, -1123858.6, 20869.695, 0.00000000000031198744, 10.000815, 9.999178 
2.7778363e+3, 1.9318153e+2, -911072.4, -972027.2, 97806.234, 0.03162928, -0.12537682, -839105.0, 207707.05, 0.0, 10.00136, 10.000233 
2.7774414e+3, 2.031738e+2, -992058.06, -1199240.6, 12360.434, 0.09252627, -0.06788814, -991323.25, -42435.555, 0.0, 10.001044, 9.9982605 
2.777042e+3, 2.1316774e+2, -913676.06, -990515.9, 14574.241, -0.109528676, 0.16861686, -911004.6, -60048.71, 0.0, 10.000524, 9.999184 
2.776643e+3, 2.2316001e+2, -1086364.6, -1191336.8, 22105.377, -0.20592882, 0.31798038, -1081899.5, -328862.3, 0.0, 9.999243, 9.997841 
2.7762458e+3, 2.331488e+2, -829879.56, -876481.2, -22946.164, -0.12042858, 0.0630416, -820477.9, -165331.5, 0.0, 9.99985, 9.998945 
2.7758494e+3, 2.4313913e+2, -845438.06, -862697.9, 85878.73, -0.07728562, -0.015866213, -767756.75, -210516.25, 0.0, 9.9991, 9.998808 
2.775454e+3, 2.5313133e+2, -707297.8, -586639.4, 130019.195, -0.20598635, -0.045499038, -503634.7, -44318.32, 0.0, 9.998818, 10.000073 
2.7750587e+3, 2.631241e+2, -737123.3, -543187.4, 76010.29, -0.20157695, 0.007071798, -516946.8, -155562.45, 0.0, 9.9978285, 10.000242 
2.7746645e+3, 2.7311778e+2, -419286.5, -149563.6, 35298.637, 0.0556952, -0.041154645, -145020.58, 118418.695, 0.0, 9.99864, 10.001798 
2.7742687e+3, 2.8311077e+2, -585697.3, -519080.34, 58220.355, 0.15608793, -0.021707173, -485313.78, -319810.72, 0.0, 9.998124, 9.998941 
2.77387e+3, 2.9310206e+2, -461855.4, -309989.22, 15149.607, -0.10287379, -0.12212314, -308492.72, -240903.33, 0.0, 9.997941, 9.999713 
2.7734706e+3, 3.0309346e+2, -430392.0, -386292.25, -42702.395, -0.3367019, -0.11766998, -360282.88, -360282.88, 0.0, 9.998038, 9.998567 
2.7730748e+3, 3.130842e+2, 171077.45, 128276.47, -89510.08, -0.13090008, -0.350203, 241709.75, 241709.75, 0.0, 10.001064, 10.000222 
2.772681e+3, 3.23077e+2, 302555.1, -9089.282, -73234.11, 0.24986999, -0.16812342, 318906.63, 318906.63, 0.0, 10.00274, 9.998481 
2.7902117e+3, 1.3362555e+2, -1328408.4, -1574777.4, 99378.336, -0.025032539, 0.10532515, -1293319.5, 337163.03, 0.0011673695, 10.002977, 9.999259 
2.7898148e+3, 1.4362021e+2, -1246379.5, -1629282.9, 35290.273, -0.125698, 0.3831849, -1243154.1, 289375.47, 0.00050489604, 10.0032425, 9.998331 
2.7894178e+3, 1.5360868e+2, -1428584.3, -1408890.9, -8010.956, 0.06672845, -0.046233643, -1406043.8, 28591.297, 0.00013439951, 10.000342, 10.000479 
2.789021e+3, 1.6359948e+2, -1613339.1, -1655162.3, -46894.77, 0.18441622, -0.16315366, -1582904.8, -246182.05, 0.000016423304, 9.999155, 9.99877 
2.788621e+3, 1.7359373e+2, -1076933.3, -1234305.4, -69753.586, -0.04593739, 0.05656768, -1050466.8, 188318.77, 0.0000003300107, 10.001815, 9.999613 
2.7882227e+3, 1.8358718e+2, -909497.2, -1116478.0, -54513.266, -0.21177144, 0.21368584, -896017.7, 244833.75, 0.0, 10.002257, 9.999606 
2.7878278e+3, 1.9357817e+2, -1104478.3, -1031124.44, -11450.061, -0.10247434, 0.013409645, -1029378.75, 13554.36, 0.0, 9.999822, 10.000615 
2.7874327e+3, 2.0357043e+2, -1267135.9, -1185713.3, -58639.65, -0.03808356, 0.00092647836, -1155038.1, -210031.28, 0.0, 9.99852, 9.999556 
2.787035e+3, 2.1356437e+2, -918895.9, -882920.1, -17115.098, -0.041941147, 0.14043418, -876078.75, -29007.01, 0.0, 9.999994, 10.000193 
2.7866372e+3, 2.2355707e+2, -713353.3, -903612.5, 11418.301, -0.10467875, 0.23428932, -712670.5, 36476.176, 0.0, 10.00123, 9.998874 
2.7862382e+3, 2.3354676e+2, -474615.9, -665284.3, 67910.06, -0.24362253, 0.030514987, -452901.47, 198344.84, 0.0, 10.001986, 9.99941 
2.785841e+3, 2.4353778e+2, -370996.7, -519935.06, 169932.28, -0.26252058, -0.032235134, -259932.48, 293399.94, 0.0, 10.001785, 9.999875 
2.7854472e+3, 2.535308e+2, -442233.22, -392181.84, 193563.36, -0.081502594, -0.0152443545, -222033.11, 233365.06, 0.0, 10.000257, 10.000758 
2.7850527e+3, 2.6352376e+2, -467731.2, -442756.56, 158145.48, 0.048733804, 0.031694543, -296606.16, 60858.39, 0.0, 9.999661, 10.000075 
2.7846575e+3, 2.735162e+2, -131283.19, -143167.66, 62795.742, 0.13941772, -0.017022682, -74149.16, 185385.36, 0.0, 10.001009, 10.000777 
2.784261e+3, 2.8350818e+2, -106545.516, -285421.38, 16362.766, 0.1662844, -0.035469476, -105061.05, 56548.2, 0.0, 10.001316, 9.999011 
2.7838624e+3, 2.934985e+2, -92100.5, -167930.61, 4909.5664, -0.027145386, -0.18741769, -91783.95, -28082.629, 0.0, 10.00055, 9.999452 
2.783463e+3, 3.0348834e+2, -136396.5, -224676.88, 56840.62, -0.27415976, -0.3306128, -108569.94, -108569.94, 0.0, 9.999815, 9.99886 
2.7830663e+3, 3.1347767e+2, -39200.793, -15610.887, 21518.75, -0.28168344, -0.6559286, -2866.5342, -2866.5342, 0.0, 9.999608, 10.000034 
2.782676e+3, 3.2347494e+2, 63497.055, 8180.408, 16289.839, 0.296055, -0.023897799, 67937.664, 67937.664, 0.0, 10.000314, 9.999838 
2.8002065e+3, 1.3402086e+2, -1254298.5, -1159248.6, 243537.94, -0.066009305, -0.119494535, -958641.8, 667965.5, 0.0005664125, 10.001729, 10.002744 
2.7998155e+3, 1.4401884e+2, -1536025.4, -1852966.1, -42431.574, 0.4357241, 0.3363518, -1530443.0, -1826.6482, 0.00022570654, 10.00163, 9.99754 
2.7994102e+3, 1.540061e+2, -1367021.6, -1528181.5, -82035.96, 0.045080222, -0.0943503, -1332610.1, 98129.234, 0.00005282333, 10.001417, 9.999113 
2.7990097e+3, 1.639961e+2, -1445934.0, -1710333.1, 88298.05, -0.11362218, -0.15447395, -1419157.9, -86317.625, 0.000004777361, 10.000956, 9.997465 
2.7986142e+3, 1.7398982e+2, -1131998.1, -1399258.1, 68156.875, -0.13002232, 0.12894484, -1115620.4, 119291.03, 0.00000002399446, 10.002047, 9.998335 
2.7982178e+3, 1.8398301e+2, -1003061.4, -1146634.9, -58619.26, -0.13696744, 0.3330403, -982168.25, 154812.86, 0.0, 10.001628, 9.999678 
2.79782e+3, 1.9397466e+2, -1131015.4, -994528.5, -90418.49, -0.101174325, 0.15216209, -949490.56, 89565.2, 0.0, 9.9994955, 10.001 
2.7974233e+3, 2.0396659e+2, -1286889.6, -1134429.3, 7464.1626, -0.017662872, 0.06822949, -1134064.8, -192934.69, 0.0, 9.998141, 10.000093 
2.7970284e+3, 2.1395838e+2, -923877.5, -787789.4, 35088.227, 0.08464437, -0.10720594, -779275.06, 63934.465, 0.0, 9.999535, 10.001062 
2.7966315e+3, 2.2395141e+2, -807191.2, -792953.1, 57511.027, 0.013207122, -0.08537247, -742122.2, 3155.1062, 0.0, 10.000074, 10.000141 
2.7962315e+3, 2.339452e+2, -512856.28, -495875.72, 71668.32, -0.32397702, -0.05758896, -432196.53, 215140.78, 0.0, 10.00104, 10.000994 
2.7958342e+3, 2.4393874e+2, -549078.56, -583562.1, 116089.08, -0.32193628, 0.04290394, -448957.88, 100439.59, 0.0, 10.000577, 9.999998 
2.7954417e+3, 2.5393164e+2, -541915.56, -396845.13, 123088.44, 0.1318147, -0.00796552, -326509.34, 124952.02, 0.0, 9.999483, 10.001059 
2.795047e+3, 2.6392353e+2, -788637.7, -829677.7, 201658.25, 0.26051715, 0.014272996, -606458.1, -252919.14, 0.0, 9.998582, 9.997917 
2.794649e+3, 2.7391323e+2, -371245.3, -475827.75, 113824.984, -0.044351075, -0.13206767, -298274.8, -42632.133, 0.0, 10.000411, 9.998738 
2.7942517e+3, 2.8390425e+2, -248299.47, -387024.5, -13862.962, -0.16787468, -0.109505415, -246927.69, -89197.44, 0.0, 10.000612, 9.998622 
2.7938545e+3, 2.93896e+2, -130689.51, -133208.45, -31409.164, -0.10106002, -0.17294824, -100514.57, -40707.902, 0.0, 10.000169, 9.9998455 
2.793457e+3, 3.0388775e+2, -300041.0, -311557.3, 1617.4924, -0.07240542, -0.14467368, -299818.16, -299818.16, 0.0, 9.998908, 9.99863 
2.7930626e+3, 3.1387934e+2, -297690.75, -131001.84, -4375.4336, 0.2076344, -0.26480085, -130887.07, -130887.07, 0.0, 9.997971, 9.999941 
2.7926627e+3, 3.23875e+2, -240671.17, -81578.79, 203193.02, -0.29007137, 0.18189545, 57083.625, 57083.625, 0.0, 9.998329, 10.000038 
2.8102052e+3, 1.3442244e+2, -1705497.3, -1536951.6, 160087.14, 0.42117542, 0.10062442, -1440310.6, 182358.4, 0.00024939553, 9.999391, 10.001262 
2.809803e+3, 1.4441505e+2, -1828002.0, -1909294.8, -5718.193, -0.09814272, 0.06073588, -1827601.8, -302868.75, 0.00009135431, 9.999329, 9.998244 
2.8094047e+3, 1.5440562e+2, -1174266.6, -1356800.4, 71210.234, 0.017285097, -0.112635374, -1149772.9, 277046.94, 0.000018191195, 10.002432, 9.999801 
2.8090072e+3, 1.6439676e+2, -1085914.5, -1532889.0, 177632.4, 0.046200167, -0.076698065, -1023920.06, 304987.63, 0.000001253609, 10.003422, 9.997497 
2.8086102e+3, 1.74389e+2, -1113679.0, -1408011.4, 224598.67, -0.050719235, 0.09776311, -992326.2, 238666.34, 0.0000000065346386, 10.002256, 9.998183 
2.808212e+3, 1.8438078e+2, -1166330.4, -1288409.1, 14630.505, -0.08915842, 0.22320144, -1164601.5, -31524.217, 0.0, 10.000806, 9.99907 
2.8078127e+3, 1.9437112e+2, -1180708.0, -1133693.4, -30241.252, -0.023859287, 0.03563207, -1118897.6, -83728.19, 0.0, 9.999646, 9.999975 
2.807415e+3, 2.04363e+2, -1080839.9, -938848.25, 96506.6, -0.008918476, -0.02546672, -890036.2, 47209.15, 0.0, 9.999088, 10.000978 
2.807019e+3, 2.1435599e+2, -873082.3, -695300.5, 146173.2, -0.068498194, -0.1352255, -613111.94, 226197.5, 0.0, 9.999494, 10.001746 
2.8066227e+3, 2.2434954e+2, -844210.6, -789522.25, 81153.32, -0.12902537, -0.09461721, -731230.2, 10141.698, 0.0, 9.999677, 10.000367 
2.8062257e+3, 2.3434351e+2, -689770.4, -597248.8, 31834.566, -0.1964925, -0.01599245, -587353.56, 56081.227, 0.0, 9.999815, 10.000923 
2.805829e+3, 2.443371e+2, -597534.44, -581134.44, -37888.94, -0.1338163, 0.069475435, -550568.3, -5072.2866, 0.0, 10.000038, 10.000282 
2.8054345e+3, 2.543297e+2, -401837.16, -355703.88, -70381.38, 0.16594559, 0.0023899481, -304705.63, 142854.75, 0.0, 10.000436, 10.000929 
2.8050387e+3, 2.6432115e+2, -500501.8, -689300.0, 65155.06, 0.20840664, -0.028196983, -480199.7, -130558.02, 0.0, 10.000427, 9.99804 
2.8046408e+3, 2.7431023e+2, -447002.97, -570940.56, 113825.03, -0.12693764, -0.18889047, -379371.34, -127618.01, 0.0, 9.999988, 9.998374 
2.8042436e+3, 2.8430125e+2, -307941.22, -336205.0, 28658.898, -0.2549064, -0.1813989, -290119.34, -136277.48, 0.0, 9.999696, 9.999462 
2.803847e+3, 2.942943e+2, -153883.31, -123940.93, 4540.3467, -0.1039895, -0.118063666, -123267.586, -67363.61, 0.0, 9.999745, 10.000195 
2.8034508e+3, 3.0428684e+2, -91769.25, -200386.94, 28210.354, 0.07614839, -0.023648137, -84879.445, -84879.445, 0.0, 10.00021, 9.998769 
2.8030577e+3, 3.1427875e+2, 220323.08, 80884.18, -28752.28, 0.5213798, -0.05545657, 226019.11, 226019.11, 0.0, 10.001575, 9.999704 
2.8026497e+3, 3.2427335e+2, -74225.82, 29088.377, 140754.95, -0.72365344, 0.27583238, 127365.96, 127365.96, 0.0, 9.999098, 10.000516 
2.8202018e+3, 1.3482319e+2, -1347224.3, -1597667.5, 96782.18, 0.81709033, 0.18331051, -1314182.6, 304556.6, 0.00010704309, 10.00287, 9.999173 
2.8197908e+3, 1.4481156e+2, -1333974.5, -1547107.0, 69069.016, -0.53874415, -0.18260957, -1313549.0, 207298.97, 0.000035101017, 10.002205, 9.999344 
2.8194007e+3, 1.5480565e+2, -1024409.6, -1164907.4, 102278.46, 0.13037471, -0.114721976, -970578.7, 452316.6, 0.0000055355054, 10.002988, 10.00085 
2.8190064e+3, 1.6479833e+2, -1169299.6, -1549090.1, 104696.766, 0.41041315, 0.015223662, -1142350.3, 182614.27, 0.0000002527922, 10.002778, 9.997706 
2.8186065e+3, 1.7478918e+2, -1205747.3, -1431259.8, 132185.83, 0.1487274, 0.021710986, -1144759.3, 82301.17, 0.0, 10.001588, 9.998366 
2.8182063e+3, 1.8477939e+2, -1300151.8, -1508837.3, -13917.648, 0.054519057, 0.050297096, -1299227.6, -170066.33, 0.0, 10.000567, 9.997683 
2.817806e+3, 1.9476792e+2, -1210935.8, -1331921.6, -49053.91, 0.16676062, -0.17769402, -1193546.3, -162269.27, 0.0, 10.000201, 9.998373 
2.8174073e+3, 2.0476007e+2, -1041853.06, -877553.9, 159376.95, 0.07913132, -0.13778193, -780400.44, 152951.52, 0.0, 9.999292, 10.001247 
2.8170085e+3, 2.1475556e+2, -914094.6, -660160.1, 149315.42, -0.2855936, -0.061750054, -591127.94, 244260.56, 0.0, 9.999089, 10.0021305 
2.816613e+3, 2.2474964e+2, -1059805.0, -1048674.0, 91342.08, -0.2781338, 0.0879372, -962728.0, -225279.78, 0.0, 9.998959, 9.998905 
2.8162208e+3, 2.3474158e+2, -870116.1, -802079.06, 32653.543, 0.15304738, 0.055734433, -788943.44, -149404.64, 0.0, 9.999205, 9.999762 
2.815825e+3, 2.4473375e+2, -792122.25, -762705.94, -12783.3, 0.24332657, 0.10725787, -757927.1, -216310.08, 0.0, 9.999209, 9.999403 
2.8154254e+3, 2.547253e+2, -554378.2, -493801.53, -58742.465, 0.021491753, -0.027588695, -457998.56, -14307.559, 0.0, 9.999767, 10.000269 
2.8150284e+3, 2.647168e+2, -577249.1, -609457.1, 53194.055, -0.06514249, -0.050510686, -537774.8, -192004.53, 0.0, 9.999569, 9.998938 
2.8146338e+3, 2.7470726e+2, -455794.97, -400203.66, 98393.5, -0.05278581, -0.24950509, -325755.1, -77889.37, 0.0, 9.999329, 9.999791 
2.8142372e+3, 2.8469974e+2, -469961.8, -406976.1, 22474.217, -0.09462917, -0.16029881, -399779.28, -249841.72, 0.0, 9.998735, 9.999373 
2.8138387e+3, 2.9469383e+2, -291180.66, -155523.98, 7531.933, -0.10753079, -0.043580174, -155107.08, -103117.914, 0.0, 9.99881, 10.000361 
2.8134418e+3, 3.0468473e+2, -305842.2, -466773.22, 87023.31, -0.07019256, -0.039546534, -267784.5, -267784.5, 0.0, 9.99955, 9.99724 
2.8130493e+3, 3.1467187e+2, 79292.33, -115413.42, 31834.605, 0.23061275, -0.45517433, 84365.15, 84365.15, 0.0, 10.001252, 9.998484 
2.812643e+3, 3.2466784e+2, -221446.06, 168563.38, -149492.42, -0.5658725, -0.026972044, 219271.55, 219271.55, 0.0, 9.997438, 10.002179 
2.8301963e+3, 1.352223e+2, -1172919.3, -1736540.4, 25281.572, 0.44250846, 0.15821758, -1171787.5, 443038.16, 0.000050582996, 10.005068, 9.997147 
2.8297904e+3, 1.4521125e+2, -1000734.7, -1367197.6, 10604.44, -0.2650447, -0.05644085, -1000428.1, 516508.22, 0.000015386415, 10.004459, 9.999461 
2.8293955e+3, 1.5520371e+2, -1067556.3, -1215715.0, 47649.574, 0.060174707, -0.14520507, -1053554.8, 365443.16, 0.0000020566958, 10.002841, 10.000558 
2.8289992e+3, 1.6519614e+2, -1257175.6, -1449031.5, 65.71649, 0.23095176, -0.08703723, -1257175.6, 63891.652, 0.00000005936716, 10.001558, 9.99897 
2.8285998e+3, 1.751876e+2, -1256108.5, -1346533.3, 85344.59, 0.12537973, -0.1297396, -1204740.0, 18412.727, 0.0, 10.000731, 9.9993725 
2.8281996e+3, 1.8517895e+2, -1177297.9, -1345244.1, 25064.076, 0.06429566, -0.08581578, -1173637.1, -48396.754, 0.0, 10.000916, 9.998661 
2.8277996e+3, 1.9516936e+2, -863731.3, -1096251.3, 108432.07, 0.09204317, -0.18151611, -821013.6, 206324.17, 0.0, 10.002246, 9.999032 
2.8274003e+3, 2.0516162e+2, -702233.5, -792340.4, 235902.89, 0.01073852, -0.11707829, -507120.38, 422292.0, 0.0, 10.001915, 10.000593 
2.8270015e+3, 2.1515529e+2, -819409.0, -749789.4, 194266.16, -0.23814258, -0.07917065, -587238.94, 244229.61, 0.0, 10.000261, 10.000981 
2.8266057e+3, 2.2514851e+2, -936017.75, -989476.25, 145554.92, -0.21800697, 0.051917937, -814758.2, -81219.836, 0.0, 9.999739, 9.998954 
2.826213e+3, 2.3514052e+2, -772709.3, -818454.4, 143872.92, 0.11735994, 0.08814261, -649902.2, -14272.977, 0.0, 10.00003, 9.999302 
2.8258163e+3, 2.4513206e+2, -608631.75, -654645.06, 113071.11, 0.14482015, 0.10156808, -516250.44, 21464.174, 0.0, 10.000305, 9.999637 
2.8254166e+3, 2.5512263e+2, -433337.97, -484427.34, 108128.28, -0.13791052, -0.067004554, -347777.97, 92022.01, 0.0, 10.000694, 9.999931 
2.8250206e+3, 2.6511437e+2, -392505.78, -461941.47, 147625.47, -0.13912235, -0.06118346, -275570.72, 66308.39, 0.0, 10.000513, 9.9995 
2.8246278e+3, 2.751066e+2, -363048.34, -350519.25, 72239.37, 0.10236948, -0.065393865, -284273.3, -40314.934, 0.0, 9.999877, 9.999886 
2.8242308e+3, 2.8509945e+2, -305543.88, -274122.1, -39245.65, 0.11780029, 0.019678215, -247559.44, -101533.39, 0.0, 9.9995165, 9.999958 
2.8238308e+3, 2.950926e+2, -189887.61, -134740.44, -64159.48, -0.06961793, 0.06148024, -92480.35, -44394.88, 0.0, 9.999485, 10.000245 
2.823433e+3, 3.0508238e+2, -278706.84, -452942.6, 113877.5, -0.19972628, -0.05030171, -222445.48, -222445.48, 0.0, 9.999588, 9.997355 
2.82304e+3, 3.150683e+2, -126769.086, -303270.47, 111317.51, -0.049241137, -0.5278863, -72964.25, -72964.25, 0.0, 10.000023, 9.99785 
2.8226376e+3, 3.2506382e+2, 279889.6, 466544.3, -370111.6, -0.20163682, -0.1439607, 754913.94, 754913.94, 0.0, 10.000374, 10.002922 
2.8401923e+3, 1.3562195e+2, -1342324.6, -2005323.8, 64912.813, 0.33330828, 0.12622313, -1336028.9, 274879.8, 0.000026717651, 10.004531, 9.995644 
2.839791e+3, 1.4561205e+2, -1223186.1, -1483807.0, 45232.582, 0.16535327, 0.12559344, -1215559.0, 297455.03, 0.000008259606, 10.002917, 9.999417 
2.83939e+3, 1.5560196e+2, -1156450.5, -1303678.3, 36809.324, 0.0053560757, -0.1750305, -1147760.5, 267339.7, 0.0000013335809, 10.002362, 10.000203 
2.8389913e+3, 1.6559382e+2, -1168289.5, -1264833.6, 32623.16, 0.060859468, -0.21171866, -1158299.5, 158873.75, 0.000000073245815, 10.00161, 10.000185 
2.838593e+3, 1.7558613e+2, -1133465.1, -1174200.8, 46451.492, 0.16432407, -0.28093573, -1103112.3, 116134.4, 0.0, 10.001108, 10.000367 
2.8381935e+3, 1.8557936e+2, -1084016.1, -1152730.3, 61864.457, 0.13112696, -0.16015409, -1047608.7, 73704.336, 0.0, 10.000983, 9.99991 
2.8377926e+3, 1.9557261e+2, -872228.25, -983951.25, 84474.234, 0.006149341, -0.11953654, -826815.9, 196564.67, 0.0, 10.001728, 10.000019 
2.8373942e+3, 2.0556453e+2, -882046.5, -1070772.1, 139921.03, -0.0028511256, -0.05085321, -807642.5, 117816.734, 0.0, 10.001559, 9.9988365 
2.836997e+3, 2.1555486e+2, -946726.94, -1012408.8, 99719.09, 0.043196596, -0.19995578, -874580.1, -47028.418, 0.0, 10.000332, 9.999115 
2.8365993e+3, 2.2554718e+2, -986514.56, -1018509.06, 158398.44, -0.022832558, -0.060002573, -843307.6, -113676.59, 0.0, 9.999496, 9.998855 
2.836202e+3, 2.355403e+2, -873163.1, -888596.25, 139089.3, -0.15421635, 0.06573691, -741576.5, -109868.72, 0.0, 9.999497, 9.99907 
2.835805e+3, 2.4553183e+2, -722472.6, -741285.56, 133257.69, -0.23063213, 0.11464074, -598289.8, -64496.85, 0.0, 9.999754, 9.999298 
2.8354084e+3, 2.5552142e+2, -555792.06, -581587.8, 106329.625, -0.24360926, -0.16479087, -461580.9, -25689.65, 0.0, 10.000129, 9.999516 
2.8350145e+3, 2.655141e+2, -629781.1, -735320.4, 115264.555, -0.025381232, 0.04191854, -555781.06, -217814.6, 0.0, 9.999717, 9.99795 
2.8346223e+3, 2.755084e+2, -592619.56, -625984.7, 36510.203, 0.36467326, 0.3495821, -569161.06, -329129.44, 0.0, 9.999135, 9.998301 
2.8342247e+3, 2.8550032e+2, -447728.0, -374482.4, -45264.945, 0.33085158, 0.44230887, -352880.25, -210770.23, 0.0, 9.998804, 9.999569 
2.8338227e+3, 2.9548973e+2, -339299.28, -252711.9, -65919.72, -0.03219452, 0.103713036, -217140.19, -172935.48, 0.0, 9.998769, 9.999751 
2.833423e+3, 3.054807e+2, -353284.3, -342532.72, 109544.086, -0.36102626, 0.083443254, -238232.61, -238232.61, 0.0, 9.998637, 9.998503 
2.8330284e+3, 3.1547198e+2, -325878.75, -282024.28, 119849.305, -0.38670135, -0.004456395, -182112.84, -182112.84, 0.0, 9.9983425, 9.998735 
2.8326315e+3, 3.2546115e+2, 99954.52, 241499.77, -196228.64, -0.14097992, -0.2793413, 379328.28, 379328.28, 0.0, 10.000047, 10.001384 
2.8501892e+3, 1.3602263e+2, -1498973.3, -1931110.5, -133069.88, 0.343162, 0.0441409, -1461283.6, 145701.5, 0.000013313982, 10.00283, 9.996984 
2.8497845e+3, 1.4601597e+2, -1528030.6, -1619905.3, 123184.64, 0.09489172, 0.31656152, -1442496.6, 66559.77, 0.0000038169696, 10.000798, 9.999498 
2.8493834e+3, 1.560057e+2, -1298741.3, -1413902.1, 168988.97, -0.097665034, 0.021079903, -1177792.3, 233354.9, 0.0000005153316, 10.001563, 9.99984 
2.8489855e+3, 1.6599694e+2, -1138502.3, -1289272.9, 92759.04, 0.0060121953, -0.028127266, -1094358.5, 218869.89, 0.00000002542409, 10.0019865, 9.999822 
2.848588e+3, 1.7598869e+2, -1030825.9, -1184152.3, 91563.24, 0.2103795, -0.09832913, -988069.3, 227239.02, 0.0, 10.002069, 9.999828 
2.848188e+3, 1.859813e+2, -961360.56, -1116637.4, 21847.055, 0.173628, -0.00024357313, -958345.3, 159035.83, 0.0, 10.001887, 9.999724 
2.8477868e+3, 1.9597408e+2, -947344.8, -1063145.1, 24126.656, 0.0099372, 0.031487547, -942519.2, 76934.14, 0.0, 10.001326, 9.999686 
2.8473878e+3, 2.0596533e+2, -836633.0, -1056828.1, 57240.246, -0.05816786, 0.04102103, -822642.2, 98894.95, 0.0, 10.001862, 9.998789 
2.8469905e+3, 2.1595488e+2, -551007.94, -853257.44, 87453.1, -0.05912672, -0.15284184, -527528.1, 296107.97, 0.0, 10.003103, 9.998894 
2.8465927e+3, 2.2594644e+2, -457694.25, -730290.8, 110586.11, -0.097532734, -0.09945162, -418474.7, 307244.84, 0.0, 10.002938, 9.999181 
2.8461948e+3, 2.3593895e+2, -538515.2, -721153.5, 124893.98, -0.22232336, -0.014940609, -475116.22, 152680.78, 0.0, 10.001665, 9.999208 
2.8457987e+3, 2.459308e+2, -435299.47, -620045.6, 132015.9, -0.23453964, 0.055703618, -366548.44, 163331.11, 0.0, 10.001697, 9.99923 
2.8454033e+3, 2.5592154e+2, -207450.36, -454305.4, 104238.2, -0.15265797, -0.043913014, -169323.08, 262648.3, 0.0, 10.0025625, 9.999272 
2.8450087e+3, 2.6591384e+2, -201883.83, -495801.94, 103724.695, 0.027733756, 0.109859996, -168965.77, 165084.75, 0.0, 10.002409, 9.998344 
2.8446144e+3, 2.7590725e+2, -188763.0, -421533.3, 128298.7, 0.2795522, 0.36949167, -131925.58, 104195.766, 0.0, 10.001755, 9.998499 
2.8442165e+3, 2.858983e+2, -167733.98, -290360.7, 61594.688, 0.29771388, 0.39069754, -142138.0, -3928.4297, 0.0, 10.000834, 9.999207 
2.8438154e+3, 2.9588678e+2, -226863.53, -254381.64, -5445.1406, 0.07975605, 0.06186701, -225825.25, -185507.98, 0.0, 9.999692, 9.999328 
2.8434157e+3, 3.0587915e+2, -221570.95, -174853.89, 136065.39, -0.2373805, 0.15063854, -60156.59, -60156.59, 0.0, 9.998943, 9.999573 
2.8430197e+3, 3.1587434e+2, -245182.39, -172431.45, 83982.94, -0.36941963, 0.40217513, -117284.74, -117284.74, 0.0, 9.998435, 9.999531 
2.8426242e+3, 3.2585958e+2, -230936.83, -93908.13, -190111.88, -0.021849168, -0.21386105, 39658.547, 39658.547, 0.0, 9.9982195, 10.000104 
2.8601852e+3, 1.364241e+2, -1459035.8, -1753826.9, -234520.77, 0.47586545, -0.02664154, -1329437.8, 273614.28, 0.0000059672334, 10.002389, 9.998421 
2.8597775e+3, 1.4641975e+2, -1222804.4, -1482161.9, 131530.72, 0.050290037, 0.43778828, -1167775.5, 337322.44, 0.0000015122073, 10.00295, 9.999398 
2.8593776e+3, 1.5640981e+2, -1168223.4, -1401713.0, 122897.28, -0.07447211, 0.19476697, -1115459.9, 291729.03, 0.0000000966577, 10.002671, 9.999386 
2.8589803e+3, 1.6640073e+2, -1151072.5, -1397968.1, 57991.95, 0.09016989, 0.17960396, -1138129.6, 171147.44, 0.00000000026919006, 10.002336, 9.998921 
2.8585833e+3, 1.7639181e+2, -1128071.8, -1344641.1, 26543.965, 0.32960522, 0.12584883, -1124865.8, 86500.586, 0.0, 10.001886, 9.998821 
2.858183e+3, 1.8638352e+2, -1057616.4, -1236185.9, -20608.62, 0.28424808, 0.21608035, -1055268.8, 58181.063, 0.0, 10.00164, 9.999006 
2.8577814e+3, 1.9637509e+2, -1032741.1, -1188463.0, -35520.184, 0.13193142, 0.19787884, -1025021.7, -9487.159, 0.0, 10.001205, 9.998861 
2.857382e+3, 2.0636588e+2, -870436.6, -1055988.3, 92390.25, -0.038584083, 0.19303691, -832280.0, 85341.32, 0.0, 10.0015745, 9.998937 
2.8569838e+3, 2.163554e+2, -695498.5, -938315.94, 81828.125, -0.22711585, -0.0370767, -670497.1, 149220.6, 0.0, 10.0021715, 9.998788 
2.8565866e+3, 2.263459e+2, -613214.44, -807217.25, 50178.477, -0.19578801, -0.07978515, -601004.4, 120802.336, 0.0, 10.001958, 9.999072 
2.8561905e+3, 2.3633666e+2, -680191.9, -819715.7, 53335.53, -0.03841624, -0.19815367, -662139.2, -38244.273, 0.0, 10.00096, 9.998805 
2.855795e+3, 2.4632967e+2, -599177.1, -744456.06, 164480.64, 0.058326755, 0.0364522, -492010.13, 33957.844, 0.0, 10.000956, 9.998619 
2.8554007e+3, 2.56323e+2, -409665.0, -624054.06, 120019.69, 0.12865148, 0.21253264, -355939.1, 72101.73, 0.0, 10.001629, 9.998472 
2.855003e+3, 2.663135e+2, -215967.64, -361366.94, 80001.48, 0.006836839, 0.16430703, -180567.9, 149563.34, 0.0, 10.0018015, 9.999516 
2.8546035e+3, 2.7630207e+2, -245411.17, -376813.13, 99601.94, -0.19343394, -0.21755168, -191792.56, 40443.07, 0.0, 10.001109, 9.999105 
2.8542066e+3, 2.8629258e+2, -391776.2, -550047.5, 14616.273, -0.014949351, -0.18476073, -390437.72, -256108.67, 0.0, 10.000129, 9.997691 
2.85381e+3, 2.9628322e+2, -491209.44, -557501.25, -36813.777, 0.32277143, -0.17894746, -474818.44, -438393.56, 0.0, 9.99877, 9.997644 
2.8534117e+3, 3.0627656e+2, -397527.66, -288064.7, 103072.22, 0.24143128, 0.106566444, -226093.92, -226093.92, 0.0, 9.998037, 9.999146 
2.8530148e+3, 3.1627187e+2, -563738.44, -407876.56, 43263.566, 0.107901506, 0.37063855, -396672.94, -396672.94, 0.0, 9.996785, 9.9986315 
2.8526127e+3, 3.262603e+2, -501636.78, -100967.75, -168453.02, -0.16088991, 0.025128314, -39557.465, -39557.465, 0.0, 9.996095, 10.000973 
2.8701788e+3, 1.3682605e+2, -1438993.3, -1532957.0, -21240.428, 0.37251115, -0.0025711302, -1434414.9, 164689.69, 0.0000021514043, 10.001623, 10.000305 
2.8697744e+3, 1.4681828e+2, -1027879.5, -1496460.1, 87746.74, 0.026870023, 0.09917328, -1011986.94, 489191.28, 0.00000043033984, 10.00476, 9.998418 
2.869375e+3, 1.5680723e+2, -1131471.6, -1528909.9, 72045.8, 0.025470437, -0.14031082, -1118814.6, 284471.2, 0.000000019645139, 10.003533, 9.998106 
2.8689757e+3, 1.6679858e+2, -1155586.5, -1494280.0, -43468.98, 0.110101745, -0.012482393, -1150096.6, 155278.73, 0.0, 10.002709, 9.998078 
2.8685755e+3, 1.767908e+2, -1216286.0, -1496141.0, -36648.93, 0.09741868, 0.15032806, -1211566.1, -4107.63, 0.0, 10.001715, 9.997879 
2.8681752e+3, 1.8678224e+2, -1051768.3, -1274103.9, -90506.74, 0.0751801, 0.26147643, -1019584.2, 89961.3, 0.0, 10.001781, 9.998706 
2.8677753e+3, 1.9677271e+2, -946375.0, -1203922.0, -44596.805, 0.07046486, 0.1876645, -938871.25, 72768.8, 0.0, 10.001933, 9.998455 
2.8673768e+3, 2.0676371e+2, -797849.8, -981282.1, 40542.5, -0.007123136, 0.19315423, -789288.6, 124437.14, 0.0, 10.001898, 9.999284 
2.866979e+3, 2.1675438e+2, -770552.7, -956169.56, 45179.777, -0.16556048, 0.08195598, -760139.9, 55672.703, 0.0, 10.001519, 9.998993 
2.8665814e+3, 2.267448e+2, -620815.94, -796593.25, -21879.855, -0.17789187, 0.002698026, -618133.4, 99768.49, 0.0, 10.001766, 9.999264 
2.866184e+3, 2.3673502e+2, -466336.56, -694218.94, -4821.046, -0.091564655, -0.15812775, -466234.63, 153758.72, 0.0, 10.002229, 9.999094 
2.865789e+3, 2.4672788e+2, -489620.47, -625557.1, 104206.95, 0.030085662, 0.0018645604, -433175.06, 88889.69, 0.0, 10.001312, 9.999309 
2.8653944e+3, 2.5672165e+2, -631199.25, -675174.0, 133725.11, 0.13468948, 0.20442477, -517666.0, -93534.72, 0.0, 9.999737, 9.9990835 
2.8649962e+3, 2.6671204e+2, -414247.53, -413057.16, 89518.56, -0.016276076, 0.08525754, -324131.8, 2090.5923, 0.0, 10.000129, 10.000007 
2.8645962e+3, 2.7670002e+2, -153629.36, -303227.9, 23862.139, -0.31701806, -0.36101785, -149915.38, 78416.11, 0.0, 10.001482, 9.999465 
2.8641987e+3, 2.8669068e+2, -157671.7, -436838.72, -52728.61, -0.103850424, -0.34242347, -148044.4, -17620.607, 0.0, 10.001674, 9.997734 
2.8638026e+3, 2.9668248e+2, -82543.42, -360941.34, -1678.6804, 0.3704175, -0.18028389, -82533.3, -50022.613, 0.0, 10.001469, 9.997721 
2.863405e+3, 3.0667582e+2, -54156.67, -85788.44, 178500.33, 0.40669757, 0.084951736, 109227.09, 109227.09, 0.0, 10.000104, 9.999595 
2.8630075e+3, 3.1667054e+2, -281264.4, -204481.17, 141406.39, 0.3357246, 0.31813443, -96347.42, -96347.42, 0.0, 9.998272, 9.9993725 
2.862602e+3, 3.2666227e+2, 20297.773, 185515.03, -47222.18, -0.2305954, 0.28439254, 198059.53, 198059.53, 0.0, 9.999318, 10.001457 
2.8801724e+3, 1.3722667e+2, -1278652.4, -1293410.4, 158486.61, 0.29078278, -0.100009225, -1127373.1, 467795.66, 0.00000033823923, 10.00196, 10.001797 
2.879772e+3, 1.4721633e+2, -1297529.8, -1736424.3, -12233.493, 0.12674993, -0.24467593, -1297189.0, 200074.86, 0.000000039050374, 10.003374, 9.997443 
2.8793725e+3, 1.5720426e+2, -1348766.0, -1772199.8, -8642.171, 0.23743504, -0.4692785, -1348589.6, 50797.258, 0.0000000006124831, 10.0026245, 9.996894 
2.8789708e+3, 1.6719589e+2, -1194739.4, -1607002.1, -37989.652, 0.15153663, -0.21083686, -1191267.9, 110209.92, 0.0, 10.002866, 9.997195 
2.8785673e+3, 1.771889e+2, -1089846.8, -1544452.3, -43142.074, -0.11783337, 0.10685384, -1085788.8, 117768.56, 0.0, 10.003047, 9.996896 
2.8781673e+3, 1.8717983e+2, -954517.9, -1253181.3, -37417.227, -0.12067526, 0.22759417, -949901.56, 155747.63, 0.0, 10.002673, 9.998384 
2.8777692e+3, 1.9716944e+2, -973116.0, -1260433.1, -28297.611, 0.07093149, 0.086484365, -970355.5, 37395.203, 0.0, 10.002024, 9.998011 
2.8773722e+3, 2.0716105e+2, -875120.06, -1015548.0, 67563.47, 0.122864634, 0.17979473, -847892.6, 61939.598, 0.0, 10.001467, 9.9992285 
2.8769752e+3, 2.1715309e+2, -931988.4, -1068339.5, 37357.89, 0.10589028, 0.20121254, -922423.9, -110514.3, 0.0, 10.000688, 9.998592 
2.8765765e+3, 2.2714382e+2, -743006.5, -835908.6, 15120.761, -0.04838797, 0.17253895, -740607.4, -26610.11, 0.0, 10.000961, 9.999351 
2.8761768e+3, 2.3713388e+2, -656706.0, -797492.1, -1168.9697, -0.22400102, -0.028378803, -656696.3, -40605.555, 0.0, 10.001091, 9.998916 
2.8757802e+3, 2.4712569e+2, -528790.8, -510787.25, 60476.72, -0.17070673, -0.025386697, -458646.03, 59520.46, 0.0, 10.000549, 10.000459 
2.8753844e+3, 2.571179e+2, -748536.25, -685765.9, 95710.16, -0.017511101, -0.10535526, -616426.4, -196187.13, 0.0, 9.998842, 9.999436 
2.874989e+3, 2.671104e+2, -583615.5, -572946.8, 142649.55, 0.02425303, 0.02591176, -435531.94, -113216.08, 0.0, 9.999445, 9.999186 
2.874593e+3, 2.7710223e+2, -398035.25, -523037.13, 53128.55, 0.01796239, 0.016167061, -378505.63, -154104.05, 0.0, 10.000376, 9.998454 
2.8741938e+3, 2.8709394e+2, -144834.9, -270410.06, -59249.02, 0.0073612896, 0.1041251, -121293.305, 5190.878, 0.0, 10.001144, 9.999102 
2.8737932e+3, 2.9708517e+2, -140957.73, -295767.5, -2769.5723, 0.024270415, 0.04965419, -140908.2, -112338.125, 0.0, 10.000758, 9.998496 
2.8733942e+3, 3.07077e+2, -82758.63, 33593.2, 97049.65, 0.047971856, 0.06645736, 88567.945, 88567.945, 0.0, 9.999496, 10.000668 
2.8729963e+3, 3.170694e+2, -548575.75, -333204.72, 134067.2, 0.16466093, -0.040070303, -268930.4, -268930.4, 0.0, 9.996585, 9.999283 
2.872594e+3, 3.270659e+2, -186166.8, 58835.83, 186086.97, -0.23879468, 0.33449295, 159123.5, 159123.5, 0.0, 9.998374, 10.0008745 
2.8901643e+3, 1.3762316e+2, -1466601.6, -1427514.5, 39768.11, 0.0038356327, -0.2387075, -1402747.3, 188533.86, 0.0000000028010363, 10.000894, 10.001394 
2.8897667e+3, 1.4761586e+2, -1546487.4, -1741901.3, -115392.95, 0.14800055, -0.13548185, -1492991.9, 361.6588, 0.0, 10.001203, 9.99843 
2.8893653e+3, 1.5760818e+2, -1538152.8, -1773094.1, 6687.369, 0.076434776, -0.01605251, -1537962.6, -142525.83, 0.0, 10.000933, 9.9977 
2.8889653e+3, 1.6759844e+2, -1081514.3, -1481392.9, 69383.16, 0.011154263, 0.023767347, -1069817.8, 227717.58, 0.0, 10.003302, 9.997856 
2.8885648e+3, 1.77588e+2, -625402.94, -1279522.1, 98779.75, -0.1755391, -0.045366548, -610811.56, 588827.8, 0.0, 10.006013, 9.997302 
2.888164e+3, 1.8757829e+2, -543204.1, -1091941.6, -4376.679, -0.12532876, 0.017820546, -543169.2, 558567.3, 0.0, 10.005581, 9.998115 
2.8877643e+3, 1.9756854e+2, -761797.25, -1181414.8, 43151.477, 0.03149178, 0.005472744, -757405.7, 246427.9, 0.0, 10.003472, 9.9978895 
2.8873658e+3, 2.0755994e+2, -818150.7, -1004448.7, 113549.28, 0.073942, 0.08759246, -764431.8, 141486.1, 0.0, 10.001859, 9.999132 
2.8869677e+3, 2.1755148e+2, -945859.56, -1067927.4, 138334.86, 0.027435241, 0.09701964, -855692.7, -47692.563, 0.0, 10.000451, 9.998739 
2.8865692e+3, 2.2754264e+2, -795798.75, -878617.94, 127990.016, -0.10762545, 0.11146105, -702686.25, 7399.569, 0.0, 10.000586, 9.999264 
2.8861699e+3, 2.3753338e+2, -611157.7, -728904.3, 118346.25, -0.30246356, 0.01921574, -537849.7, 74325.05, 0.0, 10.001057, 9.99944 
2.885773e+3, 2.4752471e+2, -342155.1, -335182.84, 126895.25, -0.23386061, -0.104941465, -211725.84, 302526.6, 0.0, 10.001344, 10.001334 
2.8853768e+3, 2.57516e+2, -293991.94, -384199.56, 165215.84, -0.08505579, -0.31980035, -167833.89, 248495.53, 0.0, 10.00145, 10.000311 
2.884982e+3, 2.6750997e+2, -342304.9, -493412.44, 244182.94, 0.014683068, -0.057161815, -162254.14, 156142.66, 0.0, 10.001191, 9.998912 
2.884587e+3, 2.775045e+2, -294689.56, -465628.0, 168807.6, 0.07994829, 0.28241566, -190947.28, 29517.766, 0.0, 10.00093, 9.998611 
2.8841868e+3, 2.874963e+2, -245242.1, -268655.06, -7985.0728, 0.011698001, 0.34119132, -242778.08, -120230.67, 0.0, 10.000078, 9.999679 
2.8837842e+3, 2.974868e+2, -322632.66, -292006.84, -9611.564, -0.112140544, 0.18466084, -289240.28, -264602.94, 0.0, 9.998965, 9.999429 
2.883385e+3, 3.0747697e+2, -51816.668, 46463.02, 14302.389, -0.026427398, -0.01681255, 48502.1, 48502.1, 0.0, 9.999674, 10.000718 
2.8829882e+3, 3.1746712e+2, 93576.04, -6281.459, -9806.651, 0.25917348, -0.30340955, 94530.0, 94530.0, 0.0, 10.000809, 9.999569 
2.8825882e+3, 3.2746813e+2, 553160.9, 307917.78, 30169.887, -0.17078899, 0.6154808, 556817.8, 556817.8, 0.0, 10.003584, 10.000297 
2.9001567e+3, 1.3801958e+2, -1646804.8, -1607126.6, 47809.324, -0.08953102, -0.3505748, -1575203.5, 12194.007, 0.00000000011876347, 9.9999695, 10.000662 
2.8997603e+3, 1.4801526e+2, -1430332.6, -1544448.8, -114770.484, 0.19460905, 0.0048938897, -1359219.4, 130227.83, 0.0, 10.001366, 9.999739 
2.8993577e+3, 1.5801248e+2, -1275838.4, -1516568.9, -1264.2628, -0.018561063, 0.4814353, -1275831.6, 115653.12, 0.0, 10.002155, 9.998889 
2.8989604e+3, 1.680014e+2, -1064871.8, -1352522.4, 153673.33, -0.028738383, 0.2780402, -998218.56, 295369.8, 0.0, 10.002982, 9.998859 
2.8985637e+3, 1.779874e+2, -942703.4, -1375973.0, 119317.18, -0.04004576, -0.25000864, -912018.1, 283698.25, 0.0, 10.003638, 9.997779 
2.8981626e+3, 1.8797764e+2, -844878.3, -1275574.6, -55229.605, -0.01238694, -0.18503207, -837908.8, 259904.16, 0.0, 10.003681, 9.997746 
2.8977603e+3, 1.9796906e+2, -916486.94, -1298819.9, -9854.964, 0.09181662, -0.066569716, -916233.1, 83668.13, 0.0, 10.002635, 9.997446 
2.897359e+3, 2.0795971e+2, -834448.5, -1036369.25, 86528.41, 0.011443364, -0.034287125, -802442.1, 99550.055, 0.0, 10.001902, 9.998847 
2.896959e+3, 2.1794988e+2, -987252.9, -1140655.8, 106534.88, -0.10255814, -0.1520669, -932680.6, -128594.38, 0.0, 10.00047, 9.998198 
2.896561e+3, 2.2794168e+2, -848185.94, -917736.2, 167090.92, -0.18859385, -0.04237017, -712289.75, -6122.754, 0.0, 10.000414, 9.999013 
2.8961635e+3, 2.3793359e+2, -791800.8, -857976.94, 130050.195, -0.24800527, -0.014088661, -690695.44, -82448.234, 0.0, 10.000092, 9.998989 
2.895767e+3, 2.4792485e+2, -419917.94, -293826.3, 136944.5, -0.16401878, -0.16676839, -206112.14, 304212.66, 0.0, 10.000632, 10.001857 
2.8953707e+3, 2.5791577e+2, -499161.47, -497533.38, 159924.63, -0.031601172, -0.4957813, -338420.72, 73983.23, 0.0, 10.000262, 10.000028 
2.8949744e+3, 2.679105e+2, -443256.44, -550623.6, 243345.48, -0.08165432, -0.13010783, -247743.4, 66723.12, 0.0, 10.000629, 9.99874 
2.8945777e+3, 2.77906e+2, -471134.53, -622253.8, 143805.84, -0.17560664, 0.29140168, -384246.1, -167717.58, 0.0, 10.000121, 9.997907 
2.8941774e+3, 2.87897e+2, -390502.2, -365825.47, -73879.94, -0.10905847, 0.3187037, -303260.7, -184640.81, 0.0, 9.999362, 9.999306 
2.8937763e+3, 2.9788616e+2, -618947.5, -558097.56, -28839.125, 0.016058441, 0.06278968, -546601.5, -525877.9, 0.0, 9.997624, 9.998198 
2.893377e+3, 3.0787766e+2, -130720.586, -139025.66, 77474.125, -0.0006666728, 0.114155054, -57287.785, -57287.785, 0.0, 9.999985, 9.999107 
2.8929794e+3, 3.178697e+2, -138452.02, -615514.8, 91725.51, -0.047777545, 0.19385599, -121423.64, -121423.64, 0.0, 10.0016, 9.994865 
2.892584e+3, 3.27855e+2, -118941.2, -458709.34, 13194.846, -0.33922035, -0.103025265, -118429.555, -118429.555, 0.0, 10.001343, 9.995764 
2.9101488e+3, 1.384207e+2, -1892223.5, -1672643.3, 12464.816, -0.072649054, 0.09378082, -1671938.0, -88462.66, 0.0000000000007792345, 9.99807, 10.001146 
2.909753e+3, 1.4841135e+2, -1423131.9, -1450469.1, -45449.684, 0.08211257, -0.12035342, -1389339.9, 96228.805, 0.0, 10.001016, 10.000565 
2.9093543e+3, 1.5840767e+2, -1013644.0, -1296535.3, 22828.484, 0.021176325, 0.18561044, -1011813.7, 375794.66, 0.0, 10.003528, 9.999759 
2.9089564e+3, 1.683989e+2, -1078641.8, -1205160.6, 46039.188, 0.03839578, 0.08266846, -1063662.0, 226026.13, 0.0, 10.002206, 10.000246 
2.9085577e+3, 1.7838809e+2, -1455435.3, -1494519.3, 68662.32, -0.0370483, -0.25295317, -1403588.1, -211802.94, 0.0, 9.999503, 9.998978 
2.908156e+3, 1.8837968e+2, -1233480.0, -1373872.3, -26803.39, -0.06287062, -0.16024499, -1228536.8, -134667.67, 0.0, 10.000556, 9.998604 
2.9077536e+3, 1.9837183e+2, -959233.9, -1268059.3, 83294.26, -0.067058325, -0.031195588, -938200.8, 57749.47, 0.0, 10.002038, 9.997971 
2.9073542e+3, 2.0836177e+2, -599389.0, -993600.25, 140476.97, -0.039267886, -0.046789497, -554452.44, 343596.5, 0.0, 10.003718, 9.998306 
2.9069552e+3, 2.1835098e+2, -341614.2, -829690.0, 141527.2, -0.07412716, -0.19085589, -303544.94, 496608.56, 0.0, 10.004798, 9.998283 
2.906556e+3, 2.2834249e+2, -432677.2, -681725.4, 154435.17, -0.107572235, -0.14001712, -358816.63, 343419.72, 0.0, 10.003034, 9.999415 
2.9061574e+3, 2.3833437e+2, -684624.8, -752755.3, 194266.56, -0.15829657, -0.116882645, -521459.38, 82856.11, 0.0, 10.000457, 9.999583 
2.9057607e+3, 2.4832647e+2, -490294.16, -373735.47, 190366.7, -0.08682903, -0.1846333, -232926.97, 273460.28, 0.0, 10.000228, 10.001541 
2.9053643e+3, 2.5831845e+2, -413933.16, -436502.2, 168898.03, -0.012467883, -0.35537508, -255943.08, 152515.95, 0.0, 10.000591, 10.00033 
2.904967e+3, 2.68312e+2, -382220.6, -498206.9, 260749.02, -0.13186285, -0.14773971, -173093.47, 137437.06, 0.0, 10.00078, 9.999104 
2.9045695e+3, 2.783061e+2, -289600.9, -449542.16, 182237.17, -0.30487984, 0.122078694, -170559.75, 42041.79, 0.0, 10.000862, 9.998776 
2.9041708e+3, 2.8829694e+2, 34839.082, -137536.86, 28816.246, -0.08511421, 0.087430455, 39528.734, 154222.55, 0.0, 10.002117, 9.999572 
2.90377e+3, 2.982873e+2, 199283.58, -69523.74, 118513.13, 0.11061814, -0.039352868, 244071.73, 260859.06, 0.0, 10.002639, 9.999175 
2.9201418e+3, 1.3882053e+2, -1686005.0, -1510549.3, 59921.05, 0.10892691, 0.37868136, -1492038.1, 87526.26, 0.0, 9.999234, 10.001656 
2.919745e+3, 1.4880764e+2, -1520377.5, -1427186.6, 93284.26, 0.008003534, -0.24742639, -1369508.0, 112177.78, 0.0, 10.000064, 10.001152 
2.9193515e+3, 1.588018e+2, -1271667.9, -1334731.5, 59843.01, 0.19577731, -0.21537316, -1235557.8, 148181.78, 0.0, 10.00138, 10.000529 
2.9189518e+3, 1.6879573e+2, -1124322.4, -1099945.4, -43262.324, 0.17800672, -0.15416403, -1067187.4, 218606.3, 0.0, 10.001294, 10.001448 
2.9185504e+3, 1.7878902e+2, -1311322.5, -1305885.6, -7787.5737, 0.052962523, -0.19962354, -1300355.6, -112501.63, 0.0, 9.9999895, 10.00006 
2.9181483e+3, 1.887823e+2, -1101478.1, -1164334.4, 5647.5166, -0.09621258, -0.066131085, -1100974.8, -11053.323, 0.0, 10.000945, 9.999796 
2.9177472e+3, 1.98775e+2, -988327.94, -1272757.1, 86441.17, -0.1430896, 0.00412569, -964118.2, 27878.14, 0.0, 10.00182, 9.998051 
2.9173502e+3, 2.0876463e+2, -769484.2, -1150607.6, 171912.22, -0.008785742, 0.001280923, -703399.1, 190701.11, 0.0, 10.002959, 9.99757 
2.916954e+3, 2.1875335e+2, -634324.2, -1028113.56, 110416.79, 0.13682015, -0.14211394, -605477.06, 190735.2, 0.0, 10.003113, 9.99773 
2.916553e+3, 2.2874399e+2, -516637.1, -650357.0, 45850.02, 0.08940966, -0.20812197, -502426.25, 195875.06, 0.0, 10.002208, 10.000002 
2.9161516e+3, 2.3873529e+2, -825260.1, -848601.7, 114961.07, 0.022478355, -0.31486073, -721378.94, -120995.734, 0.0, 9.999722, 9.999253 
2.915754e+3, 2.4872932e+2, -638378.75, -559482.8, 199551.11, 0.026209997, -0.11450713, -395517.94, 106923.83, 0.0, 9.999817, 10.000419 
2.9153574e+3, 2.5872338e+2, -634814.44, -637569.4, 172652.64, 0.042412944, 0.0013983859, -463533.75, -59033.664, 0.0, 9.999602, 9.999406 
2.91496e+3, 2.687142e+2, -425623.22, -390160.22, 256704.53, -0.11574315, -0.10264532, -150575.53, 156014.02, 0.0, 10.000142, 10.000038 
2.9145628e+3, 2.7870452e+2, -423265.78, -447127.9, 209640.83, -0.295374, -0.33195275, -225216.77, -16531.955, 0.0, 9.999805, 9.999258 
2.9141662e+3, 2.8869626e+2, 37445.05, -55560.32, 106280.4, 0.031279854, -0.34764808, 106951.086, 217717.3, 0.0, 10.0019245, 10.000154 
2.9137635e+3, 2.9869118e+2, 176822.25, 96270.234, 123416.086, -0.05082148, -0.15797435, 266368.0, 279183.13, 0.0, 10.001899, 10.000635 
2.9301366e+3, 1.392152e+2, -1713563.5, -1493973.1, -123565.53, 0.32228464, 0.08543026, -1438470.3, 137222.1, 0.0, 9.998955, 10.001902 
2.929733e+3, 1.4920734e+2, -1719054.4, -1444837.5, 107475.82, -0.3639767, -0.101133056, -1407734.1, 70031.11, 0.0, 9.998321, 10.001892 
2.9293415e+3, 1.5920147e+2, -1698578.3, -1492981.4, 101337.26, -0.019117419, -0.12944603, -1451430.4, -71609.195, 0.0, 9.9981985, 10.0009985 
2.9289442e+3, 1.6919577e+2, -1290660.5, -1150295.5, -18529.453, 0.116338074, -0.06669514, -1147890.6, 133984.61, 0.0, 10.0000105, 10.001729 
2.928544e+3, 1.7918956e+2, -1071790.8, -1159771.9, -4308.662, 0.037558693, -0.07840272, -1071580.3, 112353.56, 0.0, 10.001459, 10.00037 
2.9281425e+3, 1.8918179e+2, -888652.5, -1056191.0, -57127.723, -0.09252372, -0.070407115, -871027.2, 214982.3, 0.0, 10.002366, 9.999858 
2.927742e+3, 1.9917355e+2, -854625.56, -1145886.1, -18692.756, -0.18765266, -0.101202644, -853430.75, 134660.06, 0.0, 10.002416, 9.998644 
2.9273438e+3, 2.0916489e+2, -914928.0, -1142603.1, 50024.88, -0.09429054, -0.020610264, -904421.4, -14241.501, 0.0, 10.001573, 9.998316 
2.9269463e+3, 2.1915577e+2, -969616.44, -1110988.8, 76721.125, -0.033058234, -0.009289465, -935982.56, -143709.14, 0.0, 10.000334, 9.998544 
2.9265466e+3, 2.2914699e+2, -489847.72, -632981.0, 19115.389, -0.0031521209, -0.055170886, -487338.84, 207018.92, 0.0, 10.002211, 10.000211 
2.926146e+3, 2.391384e+2, -135871.98, -483093.6, 60099.773, -0.02500803, -0.15159857, -125763.73, 470675.28, 0.0, 10.004122, 9.999724 
2.9257482e+3, 2.4913198e+2, -167217.1, -406668.56, 119674.18, 0.019885125, 0.014409399, -117661.516, 380841.66, 0.0, 10.00323, 9.999906 
2.925351e+3, 2.5912565e+2, -282035.38, -439532.47, 130225.36, 0.035169058, 0.16024856, -208599.89, 191966.83, 0.0, 10.001725, 9.999812 
2.9249528e+3, 2.691161e+2, -237394.02, -240387.4, 206484.56, -0.18255605, -0.052183323, -32400.723, 270253.28, 0.0, 10.001022, 10.000702 
2.9245546e+3, 2.7910575e+2, -194755.27, -232520.22, 130070.664, -0.40001822, -0.4053937, -82203.625, 122544.22, 0.0, 10.000692, 10.000379 
2.924161e+3, 2.8909776e+2, -171536.63, -147100.22, 29342.727, 0.16063312, -0.45962045, -127533.516, -20708.578, 0.0, 10.000214, 10.000488 
2.923756e+3, 2.990948e+2, 20055.707, 98377.67, -17942.484, -0.18283226, -0.06772751, 102292.38, 111144.17, 0.0, 10.000129, 10.001623 
2.9401287e+3, 1.396105e+2, -1441124.3, -1380349.0, -208972.13, 0.36517796, -0.17069888, -1199566.8, 372246.2, 0.0, 10.000809, 10.001827 
2.939722e+3, 1.4960724e+2, -1499102.0, -1282084.1, 107432.15, -0.573325, 0.07283267, -1237897.8, 235944.9, 0.0, 9.999604, 10.002393 
2.939331e+3, 1.596018e+2, -1562997.5, -1389822.5, 45038.277, -0.14778571, 0.03484782, -1378809.5, -2911.1921, 0.0, 9.999001, 10.001316 
2.9389358e+3, 1.6959623e+2, -1316369.3, -1154341.1, -18305.287, 0.08225548, 0.09201269, -1152298.8, 125656.05, 0.0, 9.999874, 10.001726 
2.9385382e+3, 1.7958972e+2, -1225172.4, -1266769.9, -31785.027, 0.13766672, 0.042836104, -1207985.9, -27966.578, 0.0, 10.000599, 10.00001 
2.9381377e+3, 1.8958029e+2, -1014246.94, -1153367.5, -56065.137, -0.014574024, -0.089937784, -994465.56, 87643.15, 0.0, 10.001681, 9.999517 
2.9377374e+3, 1.9957058e+2, -939102.56, -1169819.9, -37810.535, -0.08232057, -0.24921131, -933064.06, 51137.34, 0.0, 10.001836, 9.998744 
2.937337e+3, 2.0956425e+2, -837974.5, -956824.2, -12339.711, -0.17031011, -0.045151643, -836706.8, 49562.79, 0.0, 10.001537, 9.999561 
2.9369366e+3, 2.1955813e+2, -1010523.7, -1110135.8, 44851.0, -0.24015208, 0.15572758, -993305.44, -204968.81, 0.0, 10.000031, 9.998693 
2.9365388e+3, 2.2955081e+2, -588030.75, -675037.3, 97694.414, -0.18752164, 0.24670751, -524591.4, 165818.31, 0.0, 10.001662, 10.000087 
2.9361412e+3, 2.3954284e+2, -414260.13, -681134.6, 73793.984, -0.10081264, 0.20515755, -395214.4, 197273.23, 0.0, 10.002642, 9.999007 
2.935743e+3, 2.4953416e+2, -327266.7, -495117.72, 56540.477, -0.032582164, 0.17690374, -309997.75, 184574.5, 0.0, 10.002367, 9.999611 
2.9353443e+3, 2.5952575e+2, -504521.34, -572040.4, 96251.2, 0.010197563, 0.11251837, -436280.88, -39627.49, 0.0, 10.000497, 9.999443 
2.9349446e+3, 2.695183e+2, -296789.78, -230475.52, 197289.34, -0.3299587, 0.09178499, -63576.45, 235141.66, 0.0, 10.000531, 10.000997 
2.9345453e+3, 2.795105e+2, -412787.88, -375342.8, 103899.914, -0.6039336, -0.037631445, -288492.03, -87706.734, 0.0, 9.9995165, 9.999934 
2.934154e+3, 2.895016e+2, -302139.78, -215131.31, -11272.374, 0.26219487, -0.15969191, -213694.64, -110824.23, 0.0, 9.999534, 10.000263 
2.9337478e+3, 2.994955e+2, -259905.64, 1618.1228, 47047.227, -0.20945252, -0.07782754, 9824.264, 14749.36, 0.0, 9.998393, 10.001677 
2.950119e+3, 1.4000903e+2, -1311983.6, -1349766.5, -338709.63, -0.09569715, -0.18368885, -991639.06, 576268.0, 0.0, 10.001831, 10.0015745 
2.9497194e+3, 1.5000509e+2, -1470013.4, -1483797.8, 22648.578, -0.13316728, 0.12321768, -1453231.6, 16712.754, 0.0, 10.000749, 10.00046 
2.9493222e+3, 1.5999646e+2, -1584588.9, -1530911.3, -71415.664, -0.2615093, -0.053710375, -1481457.8, -109425.336, 0.0, 9.999389, 10.00018 
2.948927e+3, 1.6999123e+2, -1413129.6, -1237713.3, -147764.13, -0.0088752415, 0.07318922, -1153587.3, 120500.85, 0.0, 9.999331, 10.001427 
2.9485306e+3, 1.7998607e+2, -1358984.1, -1228524.8, -141833.56, 0.06115012, 0.15772258, -1137640.1, 38501.69, 0.0, 9.999168, 10.000987 
2.9481304e+3, 1.8997867e+2, -1012417.2, -935762.8, -83505.625, -0.09540656, 0.038141575, -882208.75, 196001.19, 0.0, 10.000672, 10.001533 
2.9477307e+3, 1.9997075e+2, -858278.9, -1014041.3, 5568.9897, -0.2241308, -0.10508681, -858080.06, 122203.62, 0.0, 10.001793, 9.999862 
2.947332e+3, 2.0996386e+2, -590243.06, -850853.94, -38023.19, -0.14175427, 0.019240854, -584808.75, 297547.9, 0.0, 10.003164, 9.999574 
2.946933e+3, 2.1995711e+2, -431500.84, -781375.7, -52466.313, -0.118744954, 0.16161625, -423802.5, 360626.94, 0.0, 10.003639, 9.999267 
2.946534e+3, 2.2995022e+2, -568657.4, -653834.75, -17864.627, -0.09896397, 0.25217816, -565062.3, 121436.75, 0.0, 10.001649, 10.000289 
2.9461354e+3, 2.3994295e+2, -796845.06, -822279.2, -12664.706, -0.089027904, 0.26823568, -791614.5, -203043.02, 0.0, 9.999684, 9.999497 
2.9457363e+3, 2.4993396e+2, -551480.8, -642912.9, -8468.007, -0.07070016, 0.20210928, -550703.2, -60044.492, 0.0, 10.000831, 9.999416 
2.9453376e+3, 2.5992483e+2, -195392.34, -378006.97, 14258.823, -0.07434001, 0.091597445, -194285.7, 198460.08, 0.0, 10.002225, 10.000009 
2.9449385e+3, 2.6991805e+2, -154048.61, -143311.38, 73979.586, -0.2826728, 0.09045523, -74505.87, 220298.0, 0.0, 10.001275, 10.001316 
2.9445392e+3, 2.799114e+2, -292266.84, -317644.88, -10475.272, -0.4891051, 0.075454436, -288501.63, -91641.23, 0.0, 10.000163, 10.000078 
2.9441458e+3, 2.899018e+2, -107925.19, -238397.05, -116985.734, 0.19296868, -0.07264475, -39215.652, 59737.523, 0.0, 10.001162, 9.999422 
2.9437393e+3, 2.9989424e+2, 215132.55, 327461.44, -135288.1, -0.29876065, -0.06549857, 417780.13, 418799.28, 0.0, 10.000886, 10.0028105 
2.9601136e+3, 1.4040764e+2, -1423208.5, -1445452.1, -392403.7, -0.017039606, -0.15571192, -1041769.0, 522233.13, 0.0, 10.001264, 10.001196 
2.9597178e+3, 1.5040149e+2, -1458835.1, -1702685.9, -23936.72, 0.36301237, 0.099789806, -1456507.8, 9553.619, 0.0, 10.001818, 9.998452 
2.9593146e+3, 1.6038975e+2, -1509154.6, -1621841.4, -70767.69, -0.22063659, -0.20119248, -1475040.0, -106859.25, 0.0, 10.000424, 9.999076 
2.9589182e+3, 1.7038482e+2, -1368010.1, -1254648.3, -80204.0, -0.04295395, 0.006235543, -1213118.1, 57116.836, 0.0, 9.999754, 10.001137 
2.9585218e+3, 1.8038088e+2, -1308894.4, -1071097.1, -24838.459, 0.07277184, 0.20284165, -1068530.4, 103748.016, 0.0, 9.998951, 10.002179 
2.9581222e+3, 1.903768e+2, -928791.0, -595223.4, -7403.181, -0.18013588, 0.18285406, -595059.2, 479254.38, 0.0, 10.0000515, 10.004121 
2.9577237e+3, 2.0037158e+2, -1024356.06, -1047341.44, 24452.826, -0.26417413, 0.10580138, -1008829.8, -32469.732, 0.0, 10.000528, 10.000228 
2.957329e+3, 2.1036306e+2, -807240.6, -1000127.2, 20167.42, 0.0320993, 0.09899424, -805154.56, 73292.58, 0.0, 10.002003, 9.999045 
2.9569325e+3, 2.2035424e+2, -698370.44, -941938.94, -46988.027, 0.2900655, 0.06531783, -689620.06, 90917.92, 0.0, 10.002096, 9.998855 
2.9565302e+3, 2.3034696e+2, -626763.8, -642909.25, -74277.62, 0.17893709, 0.10023954, -560121.56, 122489.484, 0.0, 10.0011635, 10.000562 
2.9561284e+3, 2.4033998e+2, -938729.0, -918795.06, -3646.019, 0.07040585, 0.11606451, -918149.1, -333468.84, 0.0, 9.998932, 9.999196 
2.9557294e+3, 2.503317e+2, -599254.9, -661964.44, 68978.086, -0.06579536, 0.12182602, -554839.6, -68079.09, 0.0, 10.000575, 9.999367 
2.9553312e+3, 2.603231e+2, -395927.2, -524895.44, 33744.805, -0.13000993, 0.06402988, -387631.4, 1211.0205, 0.0, 10.001206, 9.999447 
2.9549342e+3, 2.7031547e+2, -252593.44, -175778.95, 19831.668, -0.028043207, -0.02527452, -170961.06, 119950.0, 0.0, 10.000653, 10.001315 
2.9545358e+3, 2.8030774e+2, -572880.5, -588071.2, -28183.459, -0.0579191, -0.1331133, -551286.9, -358306.22, 0.0, 9.998994, 9.998732 
2.9541343e+3, 2.9029822e+2, -264572.38, -446454.34, -79070.625, -0.29508284, -0.16835348, -235004.34, -139929.63, 0.0, 10.000843, 9.998049 
2.9537338e+3, 3.0028763e+2, 67886.164, 387884.06, -355758.3, -0.16362649, -0.4329402, 617966.7, 617966.7, 0.0, 9.999544, 10.003814 
2.9701063e+3, 1.4080687e+2, -1474715.5, -1404132.5, -201267.0, -0.10738059, 0.15114152, -1235086.3, 325009.75, 0.0, 10.000667, 10.00175 
2.969712e+3, 1.5079714e+2, -1355517.8, -1656167.3, -53663.09, 0.2857384, 0.02893691, -1346226.5, 115963.875, 0.0, 10.0025425, 9.998412 
2.9693097e+3, 1.6078737e+2, -1238018.4, -1372520.0, -61666.43, -0.11632513, -0.0918451, -1214025.4, 150264.86, 0.0, 10.001763, 10.000144 
2.9689106e+3, 1.7078198e+2, -1124958.6, -947790.44, -3606.7485, -0.10614669, -0.09153973, -947717.0, 318626.8, 0.0, 10.000587, 10.002856 
2.9685116e+3, 1.8077722e+2, -1265380.1, -1057430.4, 110594.39, -0.19182584, -0.06442108, -1009609.7, 158781.67, 0.0, 9.999234, 10.0021515 
2.9681137e+3, 1.9077359e+2, -1106813.4, -841847.9, 25145.154, -0.23047258, 0.08043854, -839482.7, 230944.6, 0.0, 9.9994135, 10.002789 
2.967717e+3, 2.0076905e+2, -1143564.4, -986291.8, -41832.293, -0.21298386, 0.14600149, -975857.3, -3386.4233, 0.0, 9.999067, 10.001397 
2.9673213e+3, 2.1076146e+2, -1009795.0, -830313.94, 65209.29, -0.019800084, 0.014992606, -809123.75, 65419.32, 0.0, 9.999445, 10.001453 
2.9669243e+3, 2.2075391e+2, -870536.2, -854965.56, 107459.484, 0.109594874, -0.07983242, -755009.75, 21606.033, 0.0, 10.000071, 10.000457 
2.9665235e+3, 2.3074767e+2, -436829.06, -551546.56, 92160.81, 0.081165045, 0.028174873, -385635.3, 293043.2, 0.0, 10.002303, 10.000722 
2.9661223e+3, 2.4074093e+2, -175755.98, -514547.06, 152400.1, 0.007738546, 0.08857973, -117290.52, 463455.25, 0.0, 10.00386, 9.9996395 
2.9657245e+3, 2.507318e+2, -306762.47, -528293.8, 214903.97, 0.008611668, 0.019324781, -175758.11, 307076.25, 0.0, 10.002465, 9.999443 
2.9653266e+3, 2.6072276e+2, -384662.6, -497229.34, 164352.88, 0.012864381, -0.055538025, -267222.97, 117698.8, 0.0, 10.000988, 9.999793 
2.964929e+3, 2.707152e+2, -195132.92, -221164.1, 124880.21, 0.10509051, -0.08169775, -82591.86, 204401.97, 0.0, 10.001174, 10.000857 
2.9645294e+3, 2.8070763e+2, -185150.55, -368215.94, 89059.98, 0.035944004, -0.10358809, -148972.97, 40093.574, 0.0, 10.00129, 9.999215 
2.964126e+3, 2.907001e+2, -154350.81, -361153.34, 167292.67, -0.4627576, 0.03981214, -61083.164, 30058.004, 0.0, 10.001307, 9.998507 
2.96373e+3, 3.0068824e+2, 453013.25, 535170.75, -270861.7, 0.16183911, -0.3034279, 768050.94, 768050.94, 0.0, 10.0021515, 10.003648 
2.9801008e+3, 1.4120446e+2, -1449270.4, -1295547.1, 128377.766, -0.035357796, 0.2090964, -1222780.6, 333426.16, 0.0, 10.000354, 10.002676 
2.979705e+3, 1.5119472e+2, -1550091.8, -1696922.3, 99461.21, 0.15163371, 0.05837346, -1499885.3, -41584.023, 0.0, 10.000948, 9.998927 
2.979305e+3, 1.6118702e+2, -1312980.0, -1259186.0, 57451.566, 0.04191042, 0.06857892, -1222647.0, 137732.5, 0.0, 10.0006, 10.001521 
2.9789025e+3, 1.7118141e+2, -998631.9, -676645.4, 20810.186, -0.16097437, -0.113030896, -675305.94, 587123.0, 0.0, 10.000617, 10.004709 
2.9785013e+3, 1.811757e+2, -1267147.1, -1196805.4, 125927.78, -0.3486478, -0.26755902, -1101229.3, 63252.332, 0.0, 9.999844, 10.000929 
2.978106e+3, 1.9117087e+2, -1240356.5, -1191131.4, 80069.78, -0.17208041, 0.0021856287, -1131976.8, -65441.5, 0.0, 9.999752, 10.000241 
2.9777104e+3, 2.0116629e+2, -1100088.3, -840246.7, 24996.418, 0.01276912, 0.1925641, -837863.94, 130720.05, 0.0, 9.998882, 10.002489 
2.977312e+3, 2.1115993e+2, -829452.56, -395763.56, 73999.27, -0.116466515, -0.10393927, -383484.9, 487151.66, 0.0, 9.999122, 10.004631 
2.9769135e+3, 2.2115465e+2, -1005737.4, -796554.7, 116983.836, -0.15758607, -0.2500313, -744223.9, 28456.123, 0.0, 9.998683, 10.001534 
2.9765153e+3, 2.3115082e+2, -568804.8, -575374.6, 134872.86, -0.12789617, 0.04202404, -437176.88, 237541.94, 0.0, 10.001373, 10.000955 
2.976117e+3, 2.4114482e+2, -444162.13, -706304.1, 127179.44, -0.06261283, 0.1819032, -392601.75, 184177.1, 0.0, 10.0024185, 9.999001 
2.9757205e+3, 2.5113407e+2, -439416.75, -570257.8, 130967.484, 0.1700536, -0.046481155, -358439.44, 120443.555, 0.0, 10.001636, 9.9995 
2.9753232e+3, 2.6112396e+2, -670273.56, -761840.5, 141867.28, 0.36299995, -0.20118822, -566985.06, -186002.78, 0.0, 9.999724, 9.998571 
2.974922e+3, 2.711174e+2, -346528.22, -379618.06, 128182.47, 0.089098915, -0.043925017, -233827.33, 49224.523, 0.0, 10.000657, 9.99997 
2.9745206e+3, 2.811117e+2, -353650.9, -397487.66, 93663.26, -0.20300066, 0.15005894, -279375.63, -94263.84, 0.0, 10.000105, 9.999558 
2.9741237e+3, 2.911084e+2, -153045.42, -100175.63, 174303.58, -0.042628706, 0.5245784, 49686.207, 136828.6, 0.0, 10.000381, 10.0006895 
2.9737213e+3, 3.0109787e+2, -559.68286, -121978.28, -74682.92, -0.1800611, 0.26250982, 34976.32, 34976.32, 0.0, 10.001246, 9.999486 
2.9901007e+3, 1.4160132e+2, -1655142.9, -1149869.5, 155189.17, 0.68271464, -0.4281027, -1106011.8, 446315.28, 0.0, 9.997988, 10.004841 
2.9896903e+3, 1.5159936e+2, -1855289.1, -1661952.8, 272387.78, -0.48153457, 0.062643066, -1469588.4, -15248.183, 0.0, 9.99814, 10.000536 
2.98929e+3, 1.6159056e+2, -1725777.9, -1548048.4, 290633.28, -0.6879422, -0.091906756, -1332997.6, 23427.416, 0.0, 9.998158, 10.000725 
2.988893e+3, 1.7158976e+2, -1229725.6, -1019598.44, 156228.44, -0.41560632, 0.41550055, -936391.75, 322035.03, 0.0, 10.000013, 10.002664 
2.9884958e+3, 1.8158688e+2, -1083083.5, -1098792.4, 155583.61, -0.32799158, 0.6995488, -935156.2, 225294.94, 0.0, 10.001073, 10.001003 
2.9880986e+3, 1.9157657e+2, -1035623.7, -1017890.56, 207783.2, -0.24789694, 0.37556893, -818784.8, 243771.44, 0.0, 10.000874, 10.000884 
2.9877025e+3, 2.0156743e+2, -1120124.0, -964565.8, 174824.55, -0.044171207, 0.15053019, -850999.1, 113649.625, 0.0, 9.999208, 10.001473 
2.9873067e+3, 2.1156144e+2, -1028317.3, -688208.9, 34675.086, 0.21139738, 0.079372875, -684709.6, 181992.52, 0.0, 9.998552, 10.002927 
2.986909e+3, 2.2155453e+2, -1035409.5, -834220.44, -39938.89, 0.23512441, -0.08973077, -826582.0, -57816.938, 0.0, 9.998453, 10.001414 
2.986511e+3, 2.3154743e+2, -635527.94, -574234.25, -1338.2611, 0.073308736, -0.16276108, -574205.06, 96630.664, 0.0, 10.000652, 10.001371 
2.9861137e+3, 2.4154201e+2, -244781.38, -408950.38, -52565.523, 0.022842245, -0.065145336, -229392.81, 343496.53, 0.0, 10.002796, 10.000899 
2.985715e+3, 2.515369e+2, -63879.41, -241032.11, 39.77887, 0.14493248, 0.10758179, -63879.402, 411057.84, 0.0, 10.003494, 10.000936 
2.9853153e+3, 2.615299e+2, -87086.7, -417937.6, 110897.72, 0.15453304, 0.1783561, -53354.22, 323650.88, 0.0, 10.003312, 9.9992695 
2.984915e+3, 2.7152085e+2, -40509.945, -283843.6, 141182.88, -0.038729638, 0.13227132, 24197.643, 303297.1, 0.0, 10.002937, 9.999604 
2.9845145e+3, 2.8151295e+2, 113722.54, -66267.8, 76731.21, -0.20945989, 0.13845412, 141993.22, 323174.6, 0.0, 10.002686, 10.0007 
2.9841188e+3, 2.9150397e+2, 59703.914, 117256.85, 54589.42, 0.21473049, -0.16096278, 150190.11, 233457.9, 0.0, 10.001179, 10.001988 
2.983711e+3, 3.0149582e+2, -237440.17, -581139.3, 118756.65, -0.5723723, -0.13675351, -200398.83, -200398.83, 0.0, 10.00077, 9.99679 
3.000084e+3, 1.4201383e+2, -1714714.5, -1144361.6, -116936.39, -0.0645558, 0.3622333, -1121317.9, 426979.2, 0.0, 9.997139, 10.005386 
2.9996842e+3, 1.5201735e+2, -1114640.4, -1329151.0, 69100.664, -0.22650675, 1.375219, -1094308.1, 355942.22, 0.0, 10.003291, 10.000301 
2.9992947e+3, 1.6199704e+2, -855083.06, -1347016.9, -125238.1, 0.55446523, 0.09301433, -825034.9, 527407.75, 0.0, 10.004916, 9.998831 
2.9988888e+3, 1.719845e+2, -1490964.6, -1455801.8, -98246.38, -0.06601405, -0.39569753, -1373576.0, -119016.41, 0.0, 9.9994545, 9.999854 
2.998489e+3, 1.8197952e+2, -1702039.9, -1464512.6, 23920.375, -0.28487262, -0.17838621, -1462127.6, -305523.9, 0.0, 9.996976, 10.000469 
2.9980916e+3, 1.9197632e+2, -1079895.4, -910234.25, -8013.4756, -0.24452305, 0.04212413, -909856.6, 148777.05, 0.0, 9.999903, 10.002036 
2.997693e+3, 2.0196638e+2, -879750.06, -1242899.9, 15480.494, -0.2299555, -0.2321644, -879091.4, 81640.14, 0.0, 10.002437, 9.997996 
2.9972973e+3, 2.1196182e+2, -671834.2, -901693.94, 80313.11, 0.15605946, 0.16425444, -646553.25, 216226.69, 0.0, 10.002691, 9.999346 
2.996901e+3, 2.2195604e+2, -829187.75, -974675.8, 124009.125, 0.33353525, 0.4339748, -758161.3, 6678.8364, 0.0, 10.000888, 9.9992285 
2.9965025e+3, 2.3194514e+2, -1053147.4, -773362.1, 88416.32, -0.039795026, -0.007060649, -747763.4, -80814.19, 0.0, 9.997827, 10.001218 
2.9961073e+3, 2.4193998e+2, -1259788.9, -803539.44, -222728.94, -0.083392166, 0.031374644, -712839.7, -143838.97, 0.0, 9.99546, 10.001644 
2.995709e+3, 2.5193825e+2, -872497.4, -390692.72, -447769.16, -0.0051077604, 0.28563058, -123135.47, 347879.28, 0.0, 9.997013, 10.002854 
2.995309e+3, 2.619307e+2, -460380.63, -620066.56, -230391.6, -0.053515207, 0.07812745, -296389.25, 76696.32, 0.0, 10.00092, 9.998932 
2.9949147e+3, 2.7191827e+2, -147183.78, -364548.9, 153762.31, 0.44087946, -0.32959837, -67572.02, 207634.42, 0.0, 10.002506, 9.999048 
2.9945084e+3, 2.8191388e+2, -479204.97, -495102.4, 63951.484, -0.33293182, 0.07553325, -422710.13, -245460.05, 0.0, 9.999326, 9.999274 
2.9941073e+3, 2.9191208e+2, -111545.39, -58850.71, 11328.663, -0.23529565, 0.5581134, -56518.426, 22751.56, 0.0, 10.000636, 10.000831 
2.9937077e+3, 3.0190098e+2, -232605.88, -573676.1, -65106.28, -0.22601996, 0.32090467, -220600.44, -220600.44, 0.0, 10.001074, 9.99649 
