coord_x,coord_y,stress_xx,stress_yy,tau_xy,velocity_x,velocity_y,stress_1,eps,damage,lx,ly
5.000375e+0, 1.2447888e+2, -1548189.5, -1741614.1, 58923.125, -0.042093396, -0.35503456, -1531653.4, 188422.3, 0.0026923823, 10.001457, 9.999108 
5.000211e+0, 1.3448003e+2, -1463014.0, -1466503.1, 8640.713, -0.014250774, -0.39365652, -1455943.5, 166121.9, 0.0015911749, 10.000634, 10.000711 
5.0002795e+0, 1.4448199e+2, -1517170.9, -1625482.6, 36403.855, 0.0041601663, -0.18072112, -1506072.6, 17974.264, 0.0007108368, 10.000398, 9.999047 
5.0004333e+0, 1.5447944e+2, -1350264.0, -1499358.9, 54920.242, -0.0049701026, -0.3961685, -1332218.0, 93854.29, 0.00020845741, 10.000899, 9.999 
5.0002587e+0, 1.6447905e+2, -1187291.3, -1250065.0, 38474.55, -0.018616363, -0.38104028, -1169025.1, 159051.52, 0.000030560106, 10.000831, 10.000073 
4.9996632e+0, 1.7448024e+2, -1207857.4, -1213066.9, -14250.137, -0.03838101, -0.32284197, -1195975.9, 34089.586, 0.0000010193884, 10.000032, 10.000039 
4.9996775e+0, 1.844811e+2, -1140570.4, -1166961.0, -1473.0486, -0.03526254, -0.22093602, -1140488.4, -8430.1455, 0.0, 9.999993, 9.999698 
5.000418e+0, 1.9448143e+2, -921835.9, -1024668.5, -17107.97, -0.00514586, -0.20333324, -919064.4, 114992.54, 0.0, 10.000878, 9.99958 
5.0006735e+0, 2.0448121e+2, -851514.25, -1027207.56, -37173.63, 0.010573111, -0.13952139, -843972.7, 92087.08, 0.0, 10.001073, 9.99879 
5.0002795e+0, 2.1447998e+2, -859458.6, -994885.56, -44334.105, 0.00452642, -0.18642554, -846236.1, -8164.7144, 0.0, 10.000405, 9.998664 
5.0001776e+0, 2.244783e+2, -835037.2, -1024736.2, 6409.927, -0.00016428648, -0.17481261, -834820.8, -94731.93, 0.0, 10.0003, 9.997836 
5.000451e+0, 2.3447588e+2, -656763.56, -900367.56, 27576.967, -0.0031640138, -0.24751584, -653680.75, -11565.286, 0.0, 10.000902, 9.997729 
5.0003874e+0, 2.4447437e+2, -515690.75, -681802.9, 20519.84, -0.0020853342, -0.20920421, -513193.47, 30939.146, 0.0, 10.000764, 9.998623 
4.9999285e+0, 2.544735e+2, -575575.9, -669092.44, 1980.8932, 0.0038837933, -0.21050063, -575533.94, -129391.2, 0.000000000017365094, 9.999716, 9.998545 
4.999811e+0, 2.6447263e+2, -438527.28, -448115.84, 40816.3, 0.0014733433, -0.1880848, -402224.66, -54075.42, 0.000000288742, 9.999537, 9.999471 
5.0001e+0, 2.7447203e+2, -213016.47, -285191.25, 23917.885, -0.01310879, -0.2512665, -205809.92, 44339.02, 0.0000032414011, 10.000396, 9.999503 
5.000318e+0, 2.8447142e+2, -252019.05, -461353.53, 2586.2832, 0.010687746, -0.1678686, -251987.1, -99833.82, 0.00001724438, 10.000359, 9.997628 
5.0003874e+0, 2.9446906e+2, -304562.9, -435296.53, 21701.979, 0.06914833, -0.2142069, -301054.5, -246872.77, 0.00007523581, 9.999304, 9.997647 
5.00013e+0, 3.0446526e+2, -139081.9, -87532.4, 58107.09, 0.056582157, -0.47242475, -49740.09, -49740.09, 0.0002887192, 9.999058, 9.999818 
4.999352e+0, 3.1446832e+2, -46427.523, 2202.8264, 25042.83, -0.044309672, -0.19561234, 12792.824, 12792.824, 0.00075781514, 9.999428, 10.000273 
1.5001106e+1, 1.2448097e+2, -1636174.5, -1853853.6, -5434.399, -0.12536679, -0.33442774, -1636038.9, 84015.016, 0.0025889925, 10.001199, 9.99848 
1.5000685e+1, 1.344812e+2, -1535624.5, -1578649.0, -12252.121, -0.035108306, -0.34100857, -1532380.1, 89675.76, 0.0015350278, 10.000505, 10.00002 
1.5000835e+1, 1.4448322e+2, -1486373.9, -1515832.4, 40841.508, 0.013796911, -0.12510024, -1457686.8, 66350.27, 0.00068435894, 10.00022, 9.999898 
1.5001285e+1, 1.5448184e+2, -1312087.9, -1381925.8, 84902.72, -0.015150501, -0.28303576, -1255203.8, 170844.22, 0.00019662973, 10.000757, 9.999883 
1.5000802e+1, 1.6448113e+2, -1275038.5, -1392937.9, 1474.098, -0.05201051, -0.3031076, -1275020.0, 53034.406, 0.000026649353, 10.000682, 9.999176 
1.4999038e+1, 1.7448057e+2, -1292697.3, -1358461.1, -34088.727, -0.111523084, -0.29641104, -1278216.0, -48153.688, 0.00000066228677, 9.999911, 9.999114 
1.4999007e+1, 1.844801e+2, -1178096.1, -1197768.5, 19889.756, -0.10613607, -0.2754412, -1165743.3, -33674.29, 0.0, 9.999815, 9.999579 
1.5001261e+1, 1.9447975e+2, -951102.6, -1046205.7, 28162.63, -0.013691077, -0.2908459, -943388.56, 90685.22, 0.0, 10.000726, 9.9995165 
1.5001997e+1, 2.044791e+2, -866141.5, -1008661.3, -66831.24, 0.03191732, -0.27891383, -839706.06, 96374.47, 0.0, 10.00089, 9.999013 
1.5000825e+1, 2.144779e+2, -869240.56, -967986.56, -56260.55, 0.013843634, -0.31937087, -843760.75, -5669.619, 0.0, 10.000225, 9.998943 
1.5000522e+1, 2.2447705e+2, -798442.5, -904612.2, 16377.855, 0.0005933132, -0.28590366, -795973.44, -55873.83, 0.0, 10.000134, 9.998748 
1.5001327e+1, 2.3447666e+2, -618475.4, -774539.25, 62530.35, -0.010440492, -0.22105464, -596512.2, 45592.953, 0.0, 10.000726, 9.998684 
1.5001176e+1, 2.4447586e+2, -542796.06, -702873.8, -25691.137, -0.0046717394, -0.15726674, -538773.94, 5340.6226, 0.0, 10.000628, 9.998553 
1.4999782e+1, 2.5447434e+2, -605072.7, -683080.56, -27976.129, 0.012050362, -0.18816283, -596076.94, -149945.84, 0.0, 9.999531, 9.998547 
1.4999442e+1, 2.6447284e+2, -467711.7, -471573.78, 60125.75, 0.0061862865, -0.230944, -409485.97, -61341.188, 0.00000013049092, 9.999401, 9.999385 
1.5000334e+1, 2.7447152e+2, -251587.77, -321921.3, 64430.984, -0.035704076, -0.32488957, -213351.19, 36801.754, 0.0000023602508, 10.000223, 9.999348 
1.500091e+1, 2.8447142e+2, -217766.5, -352219.5, -41225.242, 0.029086128, -0.22186817, -206132.86, -53979.77, 0.000014211254, 10.000222, 9.998453 
1.5001152e+1, 2.9447165e+2, -273081.94, -317754.34, 648.22375, 0.20545469, -0.072378054, -273072.53, -218917.2, 0.00006483318, 9.999092, 9.998569 
1.5000425e+1, 3.0446887e+2, -192315.83, -141557.28, 65178.56, 0.17858377, -0.25772053, -96991.195, -96991.195, 0.00025577057, 9.998879, 9.999546 
1.499804e+1, 3.1446746e+2, -98884.164, -11351.244, 70037.25, -0.13108358, -0.35314906, 27469.943, 27469.943, 0.0006795775, 9.999077, 10.000362 
2.5002998e+1, 1.24483444e+2, -1594224.4, -1841633.4, 11502.864, -0.0611969, -0.272718, -1593690.8, 126339.99, 0.002469872, 10.001556, 9.998363 
2.5001702e+1, 1.3448252e+2, -1527476.5, -1615977.3, 9330.838, 0.0133448485, -0.3724003, -1526503.4, 95538.9, 0.001465867, 10.000774, 9.9996195 
2.5001663e+1, 1.4448407e+2, -1428240.1, -1504024.6, 137315.36, 0.058842294, -0.17615367, -1323684.8, 200342.75, 0.0006493342, 10.00071, 9.999726 
2.5002545e+1, 1.5448305e+2, -1205733.5, -1354143.6, 90980.98, 0.00047675127, -0.29146227, -1162533.5, 263502.25, 0.00018140074, 10.001593, 9.999662 
2.5001985e+1, 1.6448228e+2, -1142872.0, -1363013.0, -26887.385, -0.048556514, -0.2898308, -1139635.8, 188407.48, 0.000022322774, 10.001753, 9.998849 
2.4999729e+1, 1.7448123e+2, -1153221.9, -1323351.8, -27873.404, -0.08293623, -0.30605587, -1148771.6, 81283.414, 0.00000035252413, 10.001038, 9.998792 
2.4999392e+1, 1.844804e+2, -1089084.6, -1192046.3, 111895.64, -0.08116861, -0.28834313, -1017395.25, 114669.75, 0.0, 10.000579, 9.999244 
2.5001553e+1, 1.9447988e+2, -1039736.5, -1122374.1, 95032.58, -0.027908247, -0.29553637, -977428.9, 56642.637, 0.0, 10.000268, 9.999199 
2.50024e+1, 2.0447902e+2, -944502.1, -1067066.1, -336.48434, 0.011964158, -0.2807963, -944501.2, -8420.709, 0.0, 10.000429, 9.99883 
2.5001618e+1, 2.144775e+2, -757537.94, -935721.2, -30333.857, 0.034095142, -0.34587616, -752515.5, 85578.91, 0.0, 10.001081, 9.998745 
2.5001413e+1, 2.244766e+2, -652507.8, -803882.56, 28361.98, 0.03803498, -0.31723553, -647368.3, 92734.336, 0.0, 10.000997, 9.999015 
2.5001973e+1, 2.3447648e+2, -712206.9, -792183.94, 17498.982, 0.025470015, -0.26473132, -708545.7, -66441.086, 0.0, 9.9999485, 9.998931 
2.5001618e+1, 2.4447602e+2, -656206.3, -740758.0, -50599.86, 0.023366911, -0.1870485, -632545.9, -88435.836, 0.0, 9.999794, 9.99868 
2.5000104e+1, 2.544749e+2, -422486.06, -585130.75, -48249.0, 0.037102662, -0.19662203, -409250.03, 36872.246, 0.0, 10.000746, 9.998623 
2.4999735e+1, 2.6447332e+2, -324014.1, -441364.28, 56329.74, 0.042756766, -0.23064622, -301351.6, 46785.63, 0.00000003137998, 10.000573, 9.999014 
2.5000724e+1, 2.744714e+2, -455386.88, -460462.97, 26906.78, 0.047475897, -0.3554949, -430898.72, -180745.17, 0.0000016165861, 9.99902, 9.998959 
2.500095e+1, 2.8447115e+2, -400661.25, -373610.9, -49761.87, 0.09471855, -0.2737642, -335568.9, -183413.81, 0.000011342512, 9.998677, 9.999046 
2.500047e+1, 2.944722e+2, -143603.17, -186180.34, -35692.215, 0.2060625, -0.113759995, -123332.91, -69186.01, 0.000053962976, 9.999705, 9.999166 
2.4999897e+1, 3.0447078e+2, -71677.055, -149043.75, 41901.395, 0.19408779, -0.16505101, -53332.97, -53332.97, 0.00022089553, 9.999993, 9.998964 
2.4998479e+1, 3.144675e+2, -74737.0, -4859.279, -7268.5483, 0.012746558, -0.40441602, -4111.226, -4111.226, 0.000598242, 9.999289, 10.000294 
3.500579e+1, 1.2448631e+2, -1575464.4, -1776094.9, -54854.36, 0.004866727, -0.21661648, -1561446.1, 158560.16, 0.0023442989, 10.001448, 9.998867 
3.5002875e+1, 1.3448407e+2, -1512552.8, -1570562.9, -12834.585, 0.02421165, -0.46067834, -1509840.0, 112183.57, 0.0013882996, 10.0007305, 9.999947 
3.500246e+1, 1.4448449e+2, -1508292.5, -1649893.4, 155535.52, 0.03339585, -0.34904718, -1408201.1, 115817.15, 0.0006086515, 10.000625, 9.998767 
3.5003895e+1, 1.5448308e+2, -1283290.4, -1495386.8, 136677.13, -0.054844074, -0.39890292, -1216344.8, 209690.75, 0.00016439817, 10.001523, 9.99872 
3.5003638e+1, 1.6448247e+2, -1121497.5, -1303732.9, -63842.273, -0.0874893, -0.3561869, -1101357.5, 226685.2, 0.000017966355, 10.001676, 9.999303 
3.500147e+1, 1.7448208e+2, -1123555.6, -1255363.4, -43050.977, -0.04130167, -0.35249963, -1110740.4, 119305.016, 0.00000014192928, 10.001002, 9.999283 
3.500055e+1, 1.844818e+2, -1127316.4, -1242983.0, 90845.766, -0.049581196, -0.2880587, -1077457.4, 54591.066, 0.0, 10.000465, 9.998945 
3.500102e+1, 1.9448172e+2, -1074865.0, -1174643.8, 94853.266, -0.13568425, -0.21518864, -1017581.2, 16470.313, 0.0, 10.000181, 9.998882 
3.500162e+1, 2.0448087e+2, -987976.44, -1124478.9, 9712.688, -0.13194826, -0.16787532, -987288.8, -51227.8, 0.0, 10.000296, 9.9985 
3.5002407e+1, 2.1447878e+2, -799047.8, -990820.7, 4524.5283, -0.019762361, -0.24806821, -798941.1, 39139.93, 0.0, 10.000953, 9.998428 
3.5002613e+1, 2.2447696e+2, -684123.2, -832488.6, -15422.42, 0.035388414, -0.2901658, -682537.0, 57561.58, 0.0, 10.000845, 9.998891 
3.50021e+1, 2.3447545e+2, -738511.75, -811277.1, -11112.242, 0.018667836, -0.3588252, -736852.6, -94739.445, 0.0, 9.9998045, 9.998868 
3.5001478e+1, 2.4447486e+2, -640046.4, -682564.06, -28040.473, 0.007870397, -0.31210294, -626117.06, -81998.266, 0.0, 9.999686, 9.999136 
3.5000667e+1, 2.544752e+2, -407407.66, -523557.84, -292.48965, -0.005883005, -0.2182857, -407406.94, 38708.61, 0.0, 10.00062, 9.999106 
3.5000476e+1, 2.6447418e+2, -366472.53, -515132.34, -5562.305, 0.037282575, -0.19937044, -366264.7, -18139.22, 0.0000000045955626, 10.000507, 9.998541 
3.5000932e+1, 2.744716e+2, -507136.78, -541069.56, -18857.54, 0.13910872, -0.33024228, -498736.56, -248586.23, 0.0000011861115, 9.998901, 9.998464 
3.5000202e+1, 2.844706e+2, -371548.88, -294091.5, -26402.209, 0.1272338, -0.33364984, -285948.13, -133788.33, 0.000009324045, 9.998602, 9.999627 
3.4998035e+1, 2.9447064e+2, -124614.88, -121687.055, 12140.396, -0.03848866, -0.32822248, -110922.63, -56764.93, 0.00004426637, 9.999602, 9.99966 
3.4998173e+1, 3.0447066e+2, -117555.48, -239168.2, 9720.364, -0.00029682668, -0.2254379, -116783.445, -116783.445, 0.00018827697, 9.999957, 9.998361 
3.5000098e+1, 3.1446847e+2, -90795.6, -27994.975, -6661.89, 0.19159439, -0.29954696, -27296.06, -27296.06, 0.00052441156, 9.999224, 10.000168 
4.5007518e+1, 1.24488614e+2, -1769578.3, -1822321.0, 33062.453, 0.13217323, -0.2324213, -1753658.1, -33674.965, 0.0022184679, 9.999937, 9.999265 
4.5004445e+1, 1.3448633e+2, -1247553.0, -1445961.8, 5397.3906, 0.03286257, -0.4821627, -1247406.3, 374592.8, 0.0013082918, 10.002561, 9.999923 
4.5004168e+1, 1.444863e+2, -1211633.0, -1571757.0, 147897.45, 0.039605413, -0.386827, -1158680.0, 365318.63, 0.00056754425, 10.002948, 9.998192 
4.5005593e+1, 1.5448469e+2, -1446798.5, -1649473.4, 124671.48, 0.015369144, -0.38478562, -1387474.0, 38546.707, 0.00014805637, 10.000722, 9.998064 
4.5005333e+1, 1.6448395e+2, -1323153.0, -1407929.4, -11149.827, -0.006981584, -0.31850755, -1321711.1, 6319.2544, 0.000013959289, 10.000325, 9.999236 
4.5003206e+1, 1.744835e+2, -953512.6, -1178976.0, -52222.254, -0.017899407, -0.31657398, -942004.25, 288027.8, 0.000000037538413, 10.002186, 9.999241 
4.5002088e+1, 1.8448265e+2, -840674.1, -1156298.0, 27300.736, -0.042319845, -0.28304094, -838330.1, 293709.25, 0.0, 10.002654, 9.998497 
4.5002037e+1, 1.9448154e+2, -948874.5, -1166387.0, -218.58597, -0.09755617, -0.26401904, -948874.25, 85177.33, 0.0, 10.001278, 9.998416 
4.5002437e+1, 2.0448044e+2, -927572.1, -1087535.0, -9108.179, -0.08943228, -0.218741, -927055.2, 9008.164, 0.0, 10.0006695, 9.998577 
4.5003453e+1, 2.1447912e+2, -799504.44, -979826.75, 166.21523, 0.0022728378, -0.23268048, -799504.25, 38572.23, 0.0, 10.000896, 9.998533 
4.5003402e+1, 2.2447748e+2, -735486.0, -870838.06, -32175.105, 0.05457715, -0.25824994, -728226.9, 11865.878, 0.0, 10.000549, 9.998774 
4.500204e+1, 2.3447534e+2, -799809.06, -856979.0, -51648.67, 0.058370844, -0.37329122, -769362.8, -127249.57, 0.0, 9.999459, 9.998725 
4.5001307e+1, 2.4447452e+2, -712159.75, -693467.3, 7105.703, 0.061154377, -0.3523038, -691072.9, -146952.53, 0.0, 9.999096, 9.999339 
4.500133e+1, 2.5447497e+2, -535092.44, -563585.3, -769.08734, 0.054176454, -0.27014396, -535071.7, -88957.43, 0.0, 9.999648, 9.999297 
4.5001054e+1, 2.644741e+2, -466811.0, -572172.2, -41837.367, 0.08375893, -0.24340178, -452218.94, -104096.54, 0.000000013083459, 9.999866, 9.998455 
4.500045e+1, 2.7447176e+2, -392505.63, -502813.47, -45037.195, 0.1676778, -0.33944502, -376453.5, -126306.82, 0.0000010541644, 9.999756, 9.998323 
4.499915e+1, 2.8447053e+2, -237446.98, -218281.61, 8103.877, 0.12666829, -0.35715544, -215314.38, -63156.254, 0.000008050424, 9.999482, 9.999729 
4.4996879e+1, 2.9447e+2, -207911.38, -156407.72, -12904.599, -0.075313814, -0.4169153, -153355.28, -99195.24, 0.00003666787, 9.999009, 9.999714 
4.4997516e+1, 3.0447006e+2, -251631.11, -296843.16, 7120.1616, -0.0049906885, -0.314257, -250536.31, -250536.31, 0.0001603948, 9.999001, 9.998421 
4.5000306e+1, 3.1446895e+2, -33242.31, 15803.935, 11967.161, 0.28610665, -0.2947991, 18568.107, 18568.107, 0.00046251278, 9.999549, 10.000309 
5.5006945e+1, 1.2449073e+2, -1758460.9, -1821521.3, 87250.55, 0.0050855405, -0.30696195, -1697218.1, 22739.584, 0.0020911084, 10.000014, 9.999237 
5.500604e+1, 1.3448939e+2, -1266268.6, -1499975.1, 116456.82, -0.10560252, -0.42872486, -1218146.5, 403821.44, 0.0012261746, 10.002621, 9.999521 
5.500653e+1, 1.4448953e+2, -1227971.9, -1613193.4, 57520.582, -0.062139027, -0.28124008, -1219566.4, 304401.53, 0.0005263589, 10.002969, 9.997901 
5.500723e+1, 1.5448797e+2, -1464346.4, -1695553.5, 52249.22, 0.07112794, -0.24687941, -1453087.3, -27096.375, 0.00013276051, 10.000755, 9.997735 
5.50065e+1, 1.6448675e+2, -1375903.3, -1506530.0, 40309.01, 0.04453124, -0.17500451, -1364466.1, -36460.71, 0.0000106646075, 10.000282, 9.998576 
5.5004466e+1, 1.744854e+2, -1001352.56, -1272471.9, 27807.486, -0.1442043, -0.20130415, -998529.9, 231486.17, 0.000000007551507, 10.002165, 9.998605 
5.500365e+1, 1.8448299e+2, -891427.8, -1245934.4, -31660.799, -0.17945147, -0.26715353, -888622.44, 243415.22, 0.0, 10.002586, 9.997915 
5.500421e+1, 1.9447935e+2, -995942.1, -1254307.3, -43388.98, -0.037941836, -0.4423074, -988850.2, 45221.953, 0.0, 10.001237, 9.997831 
5.5004466e+1, 2.0447777e+2, -907105.9, -1022002.2, -11864.178, 0.020233937, -0.4378327, -905893.56, 30193.75, 0.0, 10.000574, 9.99907 
5.500436e+1, 2.1447851e+2, -772592.8, -904402.06, 19683.176, -0.024969772, -0.30147898, -769716.3, 68364.72, 0.0, 10.0008135, 9.99909 
5.5003405e+1, 2.2447813e+2, -755008.06, -891079.75, -80173.59, -0.027159974, -0.22705494, -717893.2, 22192.371, 0.0, 10.000462, 9.998676 
5.500147e+1, 2.3447627e+2, -822332.25, -883208.0, -82271.2, 0.029260037, -0.3007767, -765048.9, -122944.99, 0.0, 9.99937, 9.998588 
5.500073e+1, 2.4447499e+2, -728343.3, -711447.1, 17368.834, 0.06655275, -0.31331652, -700580.8, -156466.13, 0.0, 9.999032, 9.999245 
5.5001605e+1, 2.5447416e+2, -559196.75, -580149.7, 29383.717, 0.086776055, -0.35337245, -538477.75, -92358.91, 0.0, 9.999513, 9.999243 
5.5001074e+1, 2.6447305e+2, -454021.25, -537819.0, -55034.86, 0.07224719, -0.36018074, -426751.13, -78622.875, 0.000000016276152, 9.9998255, 9.998713 
5.499897e+1, 2.744717e+2, -384198.13, -469438.8, -39250.19, 0.015991027, -0.3855572, -368878.25, -118734.93, 0.00000094951764, 9.99968, 9.998593 
5.4997426e+1, 2.8447095e+2, -267217.4, -271985.47, -18884.861, -0.019345235, -0.35076085, -250566.69, -98416.29, 0.0000068870954, 9.999453, 9.9993725 
5.499664e+1, 2.9447028e+2, -247934.22, -220052.9, -19488.361, -0.03330213, -0.3858776, -210032.39, -155878.1, 0.000030486934, 9.9989195, 9.999321 
5.499757e+1, 3.0446896e+2, -202279.55, -174620.08, 21697.002, 0.074515894, -0.44138905, -162720.03, -162720.03, 0.00013676572, 9.998929, 9.999295 
5.499835e+1, 3.1446883e+2, -14597.903, 75941.336, 71734.47, 0.0793666, -0.41134614, 115496.086, 115496.086, 0.00040932593, 9.999466, 10.000759 
6.5008634e+1, 1.24491274e+2, -1491562.9, -1731758.1, -36911.707, 0.09248913, -0.32248813, -1486018.5, 233933.14, 0.0019647046, 10.001975, 9.998931 
6.500779e+1, 1.344902e+2, -1568805.1, -1714030.0, -63197.133, -0.08953607, -0.3484996, -1545155.3, 76808.266, 0.0011417874, 10.000812, 9.998938 
6.500828e+1, 1.4449017e+2, -1533190.3, -1701759.1, -108335.945, -0.05537981, -0.21504167, -1480213.9, 43752.184, 0.0004823996, 10.000626, 9.998417 
6.500852e+1, 1.5448894e+2, -1243161.9, -1519590.9, -76347.266, 0.073656924, -0.2045188, -1223477.1, 202504.38, 0.00011742101, 10.001989, 9.998335 
6.5008056e+1, 1.6448762e+2, -1091161.8, -1418203.8, 14206.6045, 0.07276061, -0.15780964, -1090545.8, 237450.45, 0.000008467286, 10.002447, 9.998145 
6.500704e+1, 1.7448555e+2, -1112344.3, -1381947.5, -4104.664, -0.06930657, -0.20164175, -1112281.9, 117733.98, 0.000000004638606, 10.001652, 9.998104 
6.5006363e+1, 1.8448295e+2, -1072581.8, -1301676.8, -52612.496, -0.08860853, -0.27233896, -1061076.9, 70962.695, 0.0, 10.001211, 9.998188 
6.5006006e+1, 1.9447966e+2, -986828.2, -1215854.8, -22834.59, 0.030123316, -0.443505, -984573.75, 49494.723, 0.0, 10.001149, 9.998138 
6.500547e+1, 2.0447816e+2, -884973.3, -1018090.5, 54250.004, 0.06202111, -0.44332704, -865665.1, 70416.75, 0.0, 10.000752, 9.999016 
6.5004736e+1, 2.1447873e+2, -925252.94, -985690.44, 20643.621, -0.010733001, -0.31691068, -918874.8, -80797.13, 0.0, 9.999802, 9.99902 
6.500361e+1, 2.2447832e+2, -862184.44, -946109.0, -74302.03, -0.010259182, -0.23798984, -818814.3, -78731.875, 0.0, 9.999741, 9.99865 
6.500195e+1, 2.344767e+2, -624509.7, -789503.2, -88243.945, 0.07967867, -0.28615895, -586206.2, 55892.098, 0.0, 10.000732, 9.998577 
6.500106e+1, 2.444752e+2, -488735.13, -624828.3, 20073.525, 0.116824575, -0.3091182, -485836.06, 58275.02, 0.0, 10.000782, 9.999018 
6.500114e+1, 2.5447366e+2, -557134.2, -605923.0, -652.77277, 0.092201054, -0.39183003, -557125.44, -111003.56, 0.0, 9.999633, 9.999027 
6.500035e+1, 2.644723e+2, -568222.6, -557094.44, -63559.742, 0.0712967, -0.42357662, -498855.72, -150722.8, 0.00000000394634, 9.99888, 9.999043 
6.499858e+1, 2.744714e+2, -497227.47, -476593.16, -59022.67, 0.06516258, -0.44478738, -426992.72, -176850.03, 0.0000007712445, 9.998715, 9.999 
6.499716e+1, 2.8447112e+2, -346213.8, -343179.34, -388.89566, 0.037146736, -0.37217793, -343130.28, -190984.78, 0.000006042053, 9.999047, 9.999078 
6.499633e+1, 2.9447088e+2, -138485.55, -194007.08, -20216.23, 0.010599698, -0.331912, -131904.55, -77757.35, 0.000026514312, 9.9998, 9.999067 
6.499675e+1, 3.0446857e+2, -98349.63, -52284.36, 10884.855, 0.090060785, -0.51099306, -49841.86, -49841.86, 0.000119780976, 9.999325, 9.999948 
6.499637e+1, 3.1447005e+2, -352645.56, -113103.32, 5301.8613, 0.059236478, -0.37766087, -112986.03, -112986.03, 0.00036687037, 9.997245, 10.000544 
7.5011873e+1, 1.2448991e+2, -1507545.5, -1773481.3, -112623.266, 0.15049836, -0.28397322, -1466259.4, 253708.5, 0.0018421272, 10.002022, 9.998615 
7.500916e+1, 1.3448866e+2, -1615432.4, -1822012.8, -103758.58, -0.06966604, -0.25529644, -1572316.6, 49670.434, 0.0010580781, 10.000861, 9.998173 
7.5008756e+1, 1.4448822e+2, -1437762.5, -1504365.3, -75104.055, -0.10810286, -0.18781191, -1388907.9, 135084.77, 0.0004375462, 10.0006275, 9.999772 
7.50091e+1, 1.5448761e+2, -1138351.0, -1311881.4, -11640.745, -0.1017034, -0.26107284, -1137573.6, 288419.56, 0.00010224, 10.002022, 9.999752 
7.500962e+1, 1.6448648e+2, -1112359.8, -1452060.0, -22394.902, -0.044754416, -0.25904942, -1110889.8, 217113.23, 0.000007138289, 10.002408, 9.997928 
7.50106e+1, 1.74484e+2, -1136742.4, -1430579.5, -24471.727, 0.090802446, -0.3169686, -1134718.3, 95312.695, 0.00000003688298, 10.00164, 9.997774 
7.500988e+1, 1.8448254e+2, -1003212.7, -1151037.3, -65951.055, 0.11415276, -0.30330107, -978066.56, 153978.44, 0.0, 10.001175, 9.999245 
7.500704e+1, 1.9448242e+2, -909303.06, -1049163.9, -15162.489, -0.010831989, -0.2741019, -907678.2, 126363.305, 0.0, 10.0011215, 9.999298 
7.5005126e+1, 2.0448162e+2, -939820.25, -1115606.0, 11201.165, -0.07294691, -0.236678, -939109.44, -3062.0725, 0.0, 10.000681, 9.998381 
7.500427e+1, 2.1447974e+2, -987236.7, -1097102.1, -5612.775, -0.065109484, -0.283804, -986950.75, -148883.83, 0.0, 9.99972, 9.998298 
7.5003624e+1, 2.2447805e+2, -876010.25, -951767.9, -49197.98, -0.0060721324, -0.29564506, -851798.44, -111714.9, 0.0, 9.999643, 9.998655 
7.500319e+1, 2.3447652e+2, -638940.8, -794280.2, -38751.363, 0.10584599, -0.34153354, -629810.44, 12287.027, 0.0, 10.00062, 9.9986 
7.50019e+1, 2.4447511e+2, -525608.44, -683597.06, -27591.697, 0.09976983, -0.3396083, -520928.38, 23181.4, 0.0, 10.00071, 9.998643 
7.499965e+1, 2.5447357e+2, -600054.56, -675533.25, -34902.02, -0.04625685, -0.385207, -586389.56, -140266.6, 0.0, 9.99954, 9.998594 
7.499851e+1, 2.644721e+2, -550513.5, -500151.97, -79831.46, -0.023273094, -0.42736322, -441624.13, -93488.84, 0.00000000015133415, 9.998805, 9.999467 
7.4998856e+1, 2.7447093e+2, -480512.97, -416256.22, -50042.863, 0.19167133, -0.5201934, -388915.94, -138771.56, 0.00000065427645, 9.9986105, 9.999463 
7.4997973e+1, 2.8447104e+2, -365757.84, -374462.63, 17623.738, 0.18670678, -0.42345053, -351957.03, -199813.66, 0.0000058927376, 9.999006, 9.998883 
7.499556e+1, 2.9447177e+2, -161931.53, -226474.78, 18599.021, -0.079009734, -0.26561007, -156955.58, -102816.06, 0.000025865007, 9.999716, 9.998893 
7.4994665e+1, 3.0446866e+2, -82311.875, -4943.448, -64582.098, -0.077360675, -0.53363943, 31653.914, 31653.914, 0.000112007656, 9.999273, 10.000289 
7.499362e+1, 3.1447223e+2, -431748.28, -244937.92, -41743.563, 0.0072633834, -0.22718745, -236034.5, -236034.5, 0.00034011903, 9.997109, 9.999696 
8.5013616e+1, 1.2448909e+2, -1567779.8, -1800111.6, -1473.8633, 0.15607159, -0.32317522, -1567770.4, 152204.05, 0.0017237901, 10.001615, 9.998616 
8.501123e+1, 1.3448788e+2, -1475213.4, -1776883.6, 172.67656, 0.010139009, -0.26577458, -1475213.3, 146780.3, 0.0009802121, 10.001944, 9.997946 
8.501082e+1, 1.444869e+2, -1281560.9, -1414461.5, 54488.387, -0.0050863475, -0.24797758, -1262077.3, 261927.2, 0.00039778455, 10.001621, 9.99992 
8.5010445e+1, 1.5448654e+2, -1334352.9, -1387852.4, -2540.902, -0.090783894, -0.31192267, -1334232.5, 91769.414, 0.000088897265, 10.00059, 9.999921 
8.501066e+1, 1.6448577e+2, -1421801.1, -1553576.4, -37889.0, -0.057917144, -0.3040518, -1411683.8, -83675.86, 0.000006071428, 10.000076, 9.998356 
8.501187e+1, 1.7448375e+2, -1330641.1, -1471315.4, -4346.449, 0.13942455, -0.3585768, -1330506.9, -100475.77, 0.000000076650345, 10.000086, 9.998243 
8.5011184e+1, 1.8448281e+2, -1113570.5, -1193615.9, -7200.0156, 0.17406654, -0.32255146, -1112928.0, 19112.594, 0.0, 10.000377, 9.999336 
8.500822e+1, 1.9448332e+2, -931762.0, -1053319.8, -55611.97, 0.011534582, -0.23539598, -910159.06, 123872.88, 0.0, 10.000941, 9.999355 
8.500615e+1, 2.0448248e+2, -882545.0, -1096092.5, -68178.836, -0.05392194, -0.20074923, -862634.1, 73404.04, 0.0, 10.001117, 9.998301 
8.500503e+1, 2.144798e+2, -842540.1, -1039005.75, -62244.703, -0.006214136, -0.31684938, -824479.8, 13584.526, 0.0, 10.000768, 9.99819 
8.5004115e+1, 2.2447771e+2, -765800.9, -906393.5, -33470.465, 0.045191098, -0.3599127, -758239.3, -18154.82, 0.0, 10.000446, 9.998573 
8.50035e+1, 2.3447633e+2, -718194.6, -839104.9, -52136.637, 0.107398815, -0.3805329, -698818.4, -56721.266, 0.0, 10.000118, 9.998525 
8.5001993e+1, 2.4447514e+2, -652899.0, -745550.1, -48072.92, 0.08735044, -0.35121313, -632463.3, -88355.34, 0.0, 9.999838, 9.9986315 
8.499945e+1, 2.5447404e+2, -577490.8, -661539.56, -46769.195, -0.019227453, -0.35368103, -556639.06, -110520.79, 0.0, 9.999697, 9.998604 
8.499789e+1, 2.6447266e+2, -416784.13, -445077.06, -52190.703, -0.0050682076, -0.38455898, -376856.66, -28726.297, 0.0000000019213902, 9.999736, 9.999408 
8.499769e+1, 2.744711e+2, -316335.03, -346243.94, -82076.086, 0.16504888, -0.50924826, -247862.16, 2281.1846, 0.0000006294421, 9.999753, 9.999405 
8.4996694e+1, 2.844712e+2, -359119.94, -374119.38, -14769.315, 0.16432124, -0.4090659, -350055.28, -197912.19, 0.0000062489003, 9.999057, 9.998864 
8.4994787e+1, 2.9447255e+2, -442846.6, -354702.75, -16140.744, -0.019931884, -0.18980417, -351840.06, -297705.3, 0.000027811611, 9.997762, 9.99895 
8.4993654e+1, 3.0446923e+2, -239848.61, -18252.38, -63610.477, -0.02739941, -0.5090231, -1290.8986, -1290.8986, 0.00011221668, 9.997902, 10.0008745 
8.499197e+1, 3.144727e+2, -134249.3, -102493.89, -59713.7, 0.044032063, -0.2644551, -56583.023, -56583.023, 0.00032879677, 9.999139, 9.999701 
9.50132e+1, 1.2448902e+2, -1545061.8, -1753025.6, -30354.178, -0.111377, -0.42141327, -1540721.9, 179247.72, 0.0016162735, 10.001621, 9.998931 
9.501353e+1, 1.344879e+2, -1450152.9, -1741350.4, 21676.857, 0.009860653, -0.38247615, -1448548.1, 173434.78, 0.000914127, 10.002012, 9.998155 
9.5014113e+1, 1.444862e+2, -1353387.4, -1564548.4, 6931.063, 0.12865174, -0.397063, -1353160.1, 170841.42, 0.00036652523, 10.001626, 9.998885 
9.501218e+1, 1.5448576e+2, -1413634.3, -1554894.0, -29951.97, -0.008833273, -0.35715058, -1407545.9, 18461.854, 0.00007896126, 10.000601, 9.998769 
9.5010895e+1, 1.6448551e+2, -1350585.8, -1398062.1, -50004.95, -0.06861062, -0.28362563, -1318970.5, 9039.971, 0.000005121987, 10.000041, 9.999442 
9.5010453e+1, 1.7448486e+2, -1243877.5, -1290751.6, 6745.036, -0.040988356, -0.32537413, -1242926.1, -12910.181, 0.00000007826353, 10.000084, 9.999481 
9.5009935e+1, 1.844838e+2, -1185377.1, -1332290.0, 4360.1396, -0.01363614, -0.32545188, -1185247.8, -53221.895, 0.0, 10.000328, 9.99841 
9.500924e+1, 1.9448233e+2, -1011903.7, -1208564.5, -22350.455, -0.008307049, -0.33283633, -1009395.5, 24644.512, 0.0, 10.000893, 9.998313 
9.5008206e+1, 2.0448077e+2, -867164.0, -1045862.7, -88798.42, 0.01663074, -0.33314642, -830543.25, 105510.84, 0.0, 10.001033, 9.998687 
9.500663e+1, 2.144788e+2, -822741.75, -977873.4, -63557.336, 0.050546955, -0.42659658, -800028.0, 38042.84, 0.0, 10.000678, 9.998654 
9.5004725e+1, 2.2447717e+2, -794013.75, -947099.4, -53552.496, 0.035585277, -0.4359163, -777139.94, -37054.08, 0.0, 10.000362, 9.998335 
9.5002496e+1, 2.3447591e+2, -747618.5, -884510.1, -55444.28, -0.031050641, -0.42154694, -727979.75, -85880.52, 0.0, 10.000039, 9.998255 
9.5000976e+1, 2.4447516e+2, -638415.06, -696491.8, -64394.555, -0.022234023, -0.35213155, -596814.3, -52707.504, 0.0, 9.999757, 9.999005 
9.5000213e+1, 2.5447488e+2, -558776.9, -610680.2, -38865.36, 0.05948955, -0.31516773, -537995.2, -91885.95, 0.0, 9.999634, 9.998986 
9.499817e+1, 2.6447377e+2, -465758.44, -527894.2, -60467.91, 0.02685664, -0.31377903, -428844.1, -80723.65, 0.0000000017799018, 9.999664, 9.998867 
9.4994676e+1, 2.7447173e+2, -372837.28, -437688.1, -72837.93, -0.1379943, -0.42832917, -325533.34, -75391.914, 0.0000005677249, 9.999645, 9.998823 
9.4993013e+1, 2.8447166e+2, -356472.4, -356981.1, -72939.91, -0.13615757, -0.3258896, -283786.4, -131641.75, 0.0000064583187, 9.999007, 9.999003 
9.499361e+1, 2.944732e+2, -442861.9, -333967.38, -45756.79, 0.05436045, -0.10474468, -317293.7, -263160.97, 0.000029725905, 9.997668, 9.999137 
9.499334e+1, 3.0447033e+2, -182232.13, 109003.45, -24294.182, 0.12787238, -0.4343043, 111016.11, 111016.11, 0.00011359456, 9.997866, 10.001763 
9.499061e+1, 3.1447178e+2, -93533.97, 10508.226, 22306.361, -0.061854824, -0.48567468, 15088.969, 15088.969, 0.0003216318, 9.999014, 10.000537 
1.0501457e+2, 1.2448914e+2, -1527523.3, -1671599.3, -85439.53, -0.1102663, -0.39857277, -1487805.3, 232164.66, 0.0015309328, 10.00139, 9.999619 
1.0501502e+2, 1.3448854e+2, -1518404.0, -1702507.8, -40501.906, 0.008936961, -0.37130103, -1509887.6, 112084.87, 0.0008642909, 10.0012045, 9.998826 
1.05015695e+2, 1.4448635e+2, -1489824.5, -1656344.9, -11816.754, 0.17198482, -0.46199492, -1488990.1, 35003.902, 0.00034447288, 10.000829, 9.998629 
1.0501356e+2, 1.5448557e+2, -1474570.0, -1628214.6, -14030.235, 0.08911215, -0.41565603, -1473299.4, -47293.516, 0.00007296801, 10.00038, 9.998375 
1.05011865e+2, 1.6448541e+2, -1261522.6, -1319911.0, 36262.996, 0.008360966, -0.32911408, -1244162.5, 83846.17, 0.000004414203, 10.000512, 9.999742 
1.05010994e+2, 1.7448542e+2, -1040342.6, -1160131.9, 5079.217, -0.051392592, -0.3363571, -1040127.6, 189878.77, 0.000000050630582, 10.001349, 9.9997635 
1.05010495e+2, 1.8448438e+2, -1023272.25, -1284790.4, -10102.33, -0.04674969, -0.3368186, -1022882.56, 109133.44, 0.0, 10.001575, 9.998129 
1.050103e+2, 1.9448212e+2, -1040733.1, -1258987.5, -7934.996, 0.017920116, -0.39406186, -1040445.0, -6405.903, 0.0, 10.000852, 9.997983 
1.0500938e+2, 2.0448029e+2, -968962.1, -1102039.9, -49096.26, 0.069937736, -0.3994866, -952809.56, -16752.73, 0.0, 10.00037, 9.99862 
1.050076e+2, 2.1447882e+2, -915183.75, -1026193.0, -85301.7, 0.1169878, -0.43718058, -868918.3, -30848.465, 0.0, 10.000067, 9.998614 
1.05005376e+2, 2.2447743e+2, -804165.3, -925777.7, -42653.676, 0.080331355, -0.43115813, -790696.8, -50614.285, 0.0, 10.000178, 9.998578 
1.05002716e+2, 2.3447609e+2, -617871.0, -793542.25, -25521.365, -0.044912238, -0.44609988, -614238.4, 27857.078, 0.0, 10.000811, 9.998512 
1.0500091e+2, 2.4447538e+2, -490516.9, -600572.3, -29042.14, -0.043845933, -0.39922634, -483323.28, 60779.125, 0.0, 10.000667, 9.999227 
1.0500026e+2, 2.5447524e+2, -563406.5, -586417.7, -38457.652, 0.11324336, -0.36541843, -534770.25, -88666.99, 0.0, 9.999503, 9.999211 
1.0499796e+2, 2.6447448e+2, -594505.3, -618224.1, -12558.607, 0.083836585, -0.33019572, -589091.5, -240979.17, 0.00000000014537505, 9.998915, 9.998603 
1.04993835e+2, 2.7447292e+2, -477299.78, -523329.72, -24741.865, -0.15119196, -0.3677114, -466523.5, -216392.33, 0.00000042821608, 9.999086, 9.998504 
1.04991935e+2, 2.8447247e+2, -340551.56, -358561.84, -31299.701, -0.14396304, -0.2787496, -316987.34, -164849.03, 0.0000059800022, 9.999135, 9.998942 
1.0499278e+2, 2.9447296e+2, -260444.95, -257962.39, -46671.93, 0.14863102, -0.1607388, -212515.23, -158379.94, 0.000029321069, 9.998953, 9.999052 
1.0499254e+2, 3.0447072e+2, -75415.984, 96015.67, -20642.732, 0.218854, -0.39818874, 98466.31, 98466.31, 0.00010998001, 9.9988985, 10.001165 
1.0498998e+2, 3.1447124e+2, -118359.43, 6035.8926, -126658.055, -0.005198598, -0.4772704, 84943.914, 84943.914, 0.0003078072, 9.998828, 10.0005865 
1.15016915e+2, 1.2448929e+2, -1446771.6, -1519812.8, -126323.64, -0.08111865, -0.2610053, -1351795.4, 368182.0, 0.001474528, 10.0014515, 10.000635 
1.15015395e+2, 1.3448979e+2, -1431542.4, -1531220.1, -41562.027, -0.10556087, -0.23517293, -1416486.6, 205476.25, 0.00083337264, 10.001245, 9.99998 
1.1501532e+2, 1.4448734e+2, -1461637.5, -1590516.5, -40299.465, 0.021023802, -0.4368694, -1450073.8, 73908.49, 0.00033260565, 10.000793, 9.999099 
1.1501403e+2, 1.54486e+2, -1439505.3, -1559077.6, -15231.17, 0.06611327, -0.49186298, -1437595.6, -11599.687, 0.0000710648, 10.000403, 9.998831 
1.1501321e+2, 1.6448545e+2, -1301896.8, -1404010.5, 56254.082, 0.061457712, -0.43956736, -1276984.4, 51017.45, 0.0000041843605, 10.0005045, 9.999175 
1.1501325e+2, 1.7448542e+2, -1080274.9, -1245276.1, 47180.69, 0.010449798, -0.39384213, -1067736.6, 162265.88, 0.000000024917117, 10.001358, 9.999176 
1.1501263e+2, 1.8448454e+2, -1013580.0, -1245223.6, -42798.203, -0.015590387, -0.35813323, -1005925.56, 126085.42, 0.0, 10.00149, 9.998446 
1.1501099e+2, 1.9448261e+2, -1018637.4, -1204501.6, -24865.037, -0.029333279, -0.42073148, -1015368.44, 18661.266, 0.0, 10.0008135, 9.998378 
1.1500931e+2, 2.0448105e+2, -1019774.75, -1188451.4, -71769.96, 0.002518988, -0.39398205, -993370.6, -57324.42, 0.0, 10.000284, 9.998071 
1.1500759e+2, 2.1447982e+2, -971219.44, -1118989.0, -88021.53, 0.08579253, -0.35146344, -930183.6, -92121.836, 0.0, 9.999963, 9.998029 
1.1500577e+2, 2.2447845e+2, -771969.56, -835372.8, -30765.135, 0.080579065, -0.3420635, -759495.56, -19420.605, 0.0, 10.000078, 9.999246 
1.1500377e+2, 2.3447682e+2, -580283.06, -691337.75, 9408.516, -0.045479488, -0.46286827, -579491.6, 62595.04, 0.0, 10.000702, 9.999267 
1.1500157e+2, 2.444757e+2, -501238.9, -599270.5, -78842.25, -0.069795705, -0.49560115, -457418.03, 86676.984, 0.0, 10.00057, 9.999281 
1.149992e+2, 2.5447512e+2, -574783.56, -587983.5, -74623.33, 0.031402886, -0.5118986, -506468.88, -60368.063, 0.0, 9.999408, 9.999247 
1.1499696e+2, 2.6447475e+2, -602875.0, -624283.8, -17657.773, 0.06860994, -0.43730298, -592930.4, -244823.86, 0.0, 9.998866, 9.998588 
1.1499486e+2, 2.7447462e+2, -492927.53, -535240.75, -6002.975, 0.016237952, -0.3304282, -492092.38, -241979.44, 0.0000002594802, 9.998993, 9.998473 
1.1499313e+2, 2.8447372e+2, -370341.1, -403382.2, -45080.22, 0.038190927, -0.26954332, -338849.63, -186725.53, 0.000005001763, 9.99907, 9.998665 
1.14991955e+2, 2.9447186e+2, -309578.8, -327039.06, -40302.79, 0.14165196, -0.3539508, -277071.47, -222929.31, 0.000026475647, 9.998816, 9.998643 
1.1499091e+2, 3.0447024e+2, -234953.55, -217533.2, -24298.926, 0.14209929, -0.39359412, -200430.5, -200430.5, 0.000100772006, 9.998837, 9.999037 
1.1498935e+2, 3.1447107e+2, -188605.84, -112128.19, -102743.67, -0.009425648, -0.24463116, -40738.23, -40738.23, 0.00028477277, 9.998718, 9.9998255 
1.2501922e+2, 1.2448998e+2, -1485971.6, -1568908.6, 57639.82, 0.020554824, -0.27936408, -1456433.3, 263535.1, 0.0014451224, 10.001339, 10.000339 
1.2501723e+2, 1.3449018e+2, -1404851.1, -1543591.8, -2713.178, -0.051219054, -0.25933525, -1404798.1, 217159.83, 0.000820366, 10.001543, 9.999751 
1.250168e+2, 1.4448752e+2, -1335332.0, -1500728.3, -40247.918, 0.064182095, -0.48292544, -1326058.0, 197921.19, 0.00033115427, 10.001531, 9.999358 
1.2501504e+2, 1.5448675e+2, -1254325.3, -1440452.4, -56851.06, 0.076426506, -0.51111865, -1238334.4, 187651.66, 0.00007354598, 10.001543, 9.999092 
1.2501419e+2, 1.6448614e+2, -1227130.0, -1426126.0, 37685.938, 0.07700707, -0.45374972, -1220232.1, 107760.09, 0.0000047036624, 10.001257, 9.998668 
1.2501468e+2, 1.7448545e+2, -1254344.3, -1394758.4, 14838.84, 0.07051639, -0.41545022, -1252793.1, -22792.174, 0.000000012759114, 10.000424, 9.998613 
1.25014e+2, 1.8448433e+2, -1209126.1, -1301818.8, -63747.55, 0.055307817, -0.391014, -1176657.9, -44645.74, 0.0, 9.999989, 9.998777 
1.2501182e+2, 1.9448273e+2, -1114783.9, -1210901.8, -68227.67, 0.020092545, -0.45442575, -1079388.1, -45362.254, 0.0, 9.999986, 9.998731 
1.2500969e+2, 2.0448142e+2, -1012710.8, -1183383.0, -60205.125, 0.0169432, -0.42196906, -993610.75, -57570.79, 0.0, 10.000326, 9.998082 
1.2500772e+2, 2.1448036e+2, -826037.94, -1050537.9, -52048.51, 0.058736008, -0.35980198, -814557.94, 23497.828, 0.0, 10.000966, 9.998014 
1.2500589e+2, 2.2447933e+2, -683245.1, -752327.94, 11028.492, 0.07056186, -0.33463255, -681527.25, 58539.31, 0.0, 10.000508, 9.999603 
1.2500426e+2, 2.3447828e+2, -843303.6, -773390.0, 887.75696, 0.04076716, -0.43632117, -773378.75, -131306.69, 0.0, 9.998716, 9.999649 
1.2500185e+2, 2.4447736e+2, -815269.2, -752919.4, -56735.453, 0.017100219, -0.47156572, -719358.0, -175279.42, 0.0, 9.998424, 9.999261 
1.24998674e+2, 2.5447646e+2, -493353.97, -557511.4, -74706.72, 0.016308805, -0.5121361, -444129.9, 1957.9971, 0.0, 9.999993, 9.999182 
1.2499641e+2, 2.644759e+2, -344000.88, -487154.63, -14375.428, 0.046496335, -0.45559177, -342571.56, 5523.0635, 0.0, 10.000592, 9.998694 
1.249953e+2, 2.7447578e+2, -337569.3, -444690.78, -12021.109, 0.1183205, -0.36459017, -336236.9, -86137.52, 0.00000012209664, 10.000007, 9.998596 
1.24993525e+2, 2.8447473e+2, -271472.56, -333295.0, -4683.5454, 0.14830774, -0.33512694, -271119.75, -119009.41, 0.000003888246, 9.999665, 9.998854 
1.24991134e+2, 2.9447272e+2, -190776.23, -251690.97, 14805.299, 0.14956257, -0.45205432, -187368.45, -133240.38, 0.00002250982, 9.999569, 9.99879 
1.2498968e+2, 3.044715e+2, -242505.92, -335124.0, 115355.0, 0.12577154, -0.40984127, -164511.69, -164511.69, 0.000088219014, 9.99923, 9.99807 
1.2498877e+2, 3.1447136e+2, -230810.78, -126847.54, 76150.055, 0.09066515, -0.2632342, -86628.73, -86628.73, 0.00025421128, 9.998387, 9.9999 
1.3502082e+2, 1.2449099e+2, -1606729.1, -1812037.8, 30053.96, -0.013245508, -0.46799472, -1602420.1, 117524.55, 0.0014399097, 10.001313, 9.998679 
1.3502002e+2, 1.3448973e+2, -1502521.6, -1752060.0, 13685.021, 0.043755986, -0.44652513, -1501773.4, 120183.98, 0.0008240123, 10.001582, 9.998294 
1.3501975e+2, 1.4448698e+2, -1333541.6, -1511054.9, -53886.188, 0.1699747, -0.59743017, -1318464.5, 205519.7, 0.00033951883, 10.001574, 9.999274 
1.3501626e+2, 1.5448774e+2, -1252004.1, -1436037.9, -46020.18, 0.015327367, -0.47300997, -1241137.8, 184838.2, 0.00008018549, 10.001535, 9.999132 
1.350144e+2, 1.6448747e+2, -1272892.9, -1494941.9, -2337.3203, -0.050792255, -0.36543375, -1272868.3, 55111.426, 0.0000062149566, 10.001158, 9.998238 
1.3501477e+2, 1.7448553e+2, -1290742.4, -1463248.5, -2873.0684, 0.008930768, -0.40497997, -1290694.5, -60692.973, 0.000000017143847, 10.000407, 9.998144 
1.3501418e+2, 1.8448386e+2, -1193756.8, -1264585.4, -74850.98, 0.044257246, -0.42604467, -1146365.0, -14346.968, 0.0, 9.999951, 9.999056 
1.3501231e+2, 1.944825e+2, -1098103.9, -1166755.4, -56252.664, 0.042588018, -0.49829984, -1066531.0, -32503.328, 0.0, 9.999937, 9.999059 
1.3501017e+2, 2.044814e+2, -988205.6, -1111437.9, -47159.875, 0.0075446377, -0.48692107, -972229.25, -36190.773, 0.0, 10.000236, 9.998621 
1.3500756e+2, 2.1448047e+2, -803652.44, -975661.4, -15390.844, -0.0784909, -0.4683492, -802286.1, 35766.0, 0.0, 10.000847, 9.998584 
1.3500541e+2, 2.2448015e+2, -694568.3, -756338.9, -62717.95, -0.053554166, -0.40451798, -655543.4, 84513.61, 0.0, 10.000416, 9.999624 
1.3500378e+2, 2.3448044e+2, -857385.0, -780222.5, -57239.457, 0.09521858, -0.3709847, -749775.7, -107723.52, 0.0, 9.998615, 9.999652 
1.3500147e+2, 2.4448021e+2, -831983.7, -772633.0, -13585.752, 0.11092869, -0.33198765, -769670.94, -225616.97, 0.0, 9.998358, 9.999158 
1.3499837e+2, 2.5447923e+2, -516360.22, -581855.25, -4561.977, -0.03928307, -0.3697862, -516043.97, -69979.08, 0.0, 9.99989, 9.999063 
1.3499601e+2, 2.6447803e+2, -339229.25, -461401.34, -41429.94, -0.07349697, -0.3843974, -326505.1, 21571.473, 0.0, 10.000527, 9.9988985 
1.3499472e+2, 2.7447632e+2, -336131.6, -414463.9, -23450.86, 0.03270229, -0.4706599, -329647.66, -79556.58, 0.000000046518082, 9.999894, 9.998854 
1.3499276e+2, 2.844754e+2, -228714.45, -236508.5, -18483.553, 0.07938352, -0.48071957, -213721.58, -61623.563, 0.0000029362805, 9.999628, 9.9995365 
1.3498998e+2, 2.9447535e+2, -155435.95, -162625.73, 22779.285, 0.045218244, -0.47144577, -135969.64, -81874.46, 0.000019015239, 9.999495, 9.99944 
1.3498838e+2, 3.0447432e+2, -230720.45, -297653.72, 78695.01, 0.054671235, -0.4532115, -178671.48, -178671.48, 0.000075927965, 9.999179, 9.998348 
1.3498758e+2, 3.144721e+2, -178101.58, 193.92757, 71455.945, 0.076130964, -0.5456743, 25297.102, 25297.102, 0.0002226974, 9.998305, 10.000814 
1.4502294e+2, 1.2449243e+2, -1544329.5, -1829537.1, 16160.826, 0.052842606, -0.5493673, -1543416.8, 176509.14, 0.0014542761, 10.00195, 9.998258 
1.4502183e+2, 1.3449116e+2, -1483831.9, -1760197.1, 48607.21, 0.063622236, -0.51450974, -1475532.1, 146408.25, 0.0008417685, 10.001783, 9.998141 
1.4502159e+2, 1.4448857e+2, -1343530.3, -1569198.8, 50773.953, 0.19485694, -0.61844903, -1332632.8, 191334.86, 0.0003553583, 10.001733, 9.998803 
1.4501813e+2, 1.5448944e+2, -1227173.3, -1478962.3, -1200.7452, 0.036140535, -0.43340194, -1227167.6, 198792.81, 0.00008912462, 10.001935, 9.9986515 
1.450159e+2, 1.6448893e+2, -1184450.9, -1448649.8, 34562.895, -0.037232522, -0.3287026, -1180004.1, 147962.9, 0.000008328298, 10.001755, 9.998261 
1.4501551e+2, 1.7448637e+2, -1196825.1, -1414345.9, 44512.13, 0.016916407, -0.43398097, -1188068.9, 41924.508, 0.0000000715251, 10.001039, 9.998172 
1.4501454e+2, 1.8448454e+2, -1086698.6, -1211160.9, 27828.826, 0.056017805, -0.47070068, -1080759.8, 51251.05, 0.0, 10.000681, 9.999074 
1.450127e+2, 1.9448355e+2, -986386.6, -1112739.0, 3792.8447, 0.058169004, -0.50727135, -986272.9, 47744.613, 0.0, 10.000695, 9.999074 
1.450106e+2, 2.044827e+2, -950115.2, -1063084.1, 8397.28, 0.028685236, -0.4844844, -949494.44, -13468.704, 0.0, 10.000371, 9.998884 
1.4500812e+2, 2.1448193e+2, -972441.44, -1029116.56, -5209.5386, -0.035674725, -0.47744134, -971966.56, -133929.47, 0.0, 9.999571, 9.99883 
1.4500569e+2, 2.2448169e+2, -822561.56, -827675.4, -58383.242, -0.018961499, -0.41356662, -766679.25, -26637.977, 0.0, 9.999585, 9.999536 
1.4500335e+2, 2.3448198e+2, -577627.5, -661001.56, -83919.96, 0.09785602, -0.36659658, -525610.9, 116426.89, 0.0, 10.000597, 9.999525 
1.4500102e+2, 2.4448186e+2, -507271.75, -633706.94, -3539.9236, 0.121192, -0.30216163, -507172.72, 36866.977, 0.0, 10.000663, 9.999004 
1.4499876e+2, 2.5448117e+2, -565994.44, -619208.44, -18298.67, 0.032482516, -0.29748487, -560309.44, -114260.52, 0.0, 9.999618, 9.998935 
1.4499642e+2, 2.6447982e+2, -526215.0, -528645.2, -52438.707, -0.011898369, -0.32896918, -474977.3, -126915.86, 0.0, 9.999134, 9.999114 
1.4499404e+2, 2.7447754e+2, -399621.72, -425110.34, -55857.16, 0.00981291, -0.4923332, -355073.44, -104993.87, 0.00000002138944, 9.9993515, 9.999058 
1.449917e+2, 2.8447652e+2, -268019.13, -241315.67, -53332.52, 0.034211442, -0.5237678, -199688.97, -47602.766, 0.0000023054517, 9.999286, 9.999673 
1.4498927e+2, 2.944772e+2, -241673.75, -187667.63, -81501.01, 0.06570211, -0.45934704, -128812.78, -74735.43, 0.000016570593, 9.998828, 9.999586 
1.4498758e+2, 3.0447635e+2, -274608.44, -226807.8, -7472.212, 0.09865638, -0.4720528, -225666.97, -225666.97, 0.0000664134, 9.998509, 9.999138 
1.4498651e+2, 3.1447446e+2, -125139.75, 117113.99, -26807.451, 0.15171613, -0.6101943, 120045.0, 120045.0, 0.0001967113, 9.998303, 10.001606 
1.5502502e+2, 1.2449462e+2, -1475471.3, -1715379.9, -22506.176, 0.00031912845, -0.49610844, -1473378.3, 246529.98, 0.0014746141, 10.002062, 9.998996 
1.5502223e+2, 1.3449457e+2, -1403492.9, -1597175.1, 45992.39, -0.10152685, -0.44684172, -1393126.3, 228779.64, 0.00086313457, 10.001792, 9.999262 
1.5502185e+2, 1.444923e+2, -1404375.9, -1686036.4, 44790.594, 0.019458098, -0.5421349, -1397424.6, 126504.52, 0.00037152023, 10.001697, 9.998016 
1.5502015e+2, 1.5449187e+2, -1293674.3, -1611230.9, 19416.594, 0.012629841, -0.39661583, -1292491.5, 133447.33, 0.00009663115, 10.00192, 9.997745 
1.5501836e+2, 1.644906e+2, -1161332.6, -1391166.4, -1745.2611, 0.0047062743, -0.3382093, -1161319.4, 166633.73, 0.000009881803, 10.001712, 9.998681 
1.5501662e+2, 1.7448807e+2, -1166693.8, -1342226.9, 28936.17, -0.0027487027, -0.4901492, -1162046.8, 67928.875, 0.00000020107916, 10.0009985, 9.998688 
1.5501475e+2, 1.8448643e+2, -1112525.1, -1254004.4, 16657.346, -0.015949957, -0.52096623, -1110590.4, 21399.68, 0.0, 10.000632, 9.998806 
1.5501262e+2, 1.9448584e+2, -1019468.4, -1164305.8, 16173.164, -0.046572246, -0.48784843, -1017684.4, 16311.257, 0.0, 10.00063, 9.99875 
1.5501074e+2, 2.044853e+2, -962962.7, -1074843.3, -30171.145, -0.019436384, -0.41478044, -955345.06, -19342.879, 0.0, 10.000298, 9.998846 
1.5500903e+2, 2.1448474e+2, -988022.56, -1036710.5, -25621.084, 0.07340237, -0.38297576, -977024.4, -139013.6, 0.0, 9.999464, 9.998831 
1.5500642e+2, 2.24484e+2, -854287.0, -873487.7, -32559.014, 0.07133198, -0.3569056, -829942.44, -89923.2, 0.0, 9.999495, 9.999266 
1.5500265e+2, 2.344829e+2, -613457.1, -713990.6, -33874.117, -0.05432885, -0.42272174, -603108.7, 38920.426, 0.0, 10.0005, 9.99921 
1.5500018e+2, 2.4448228e+2, -530042.2, -666221.1, -49493.75, -0.052283023, -0.38120472, -513954.44, 30081.45, 0.0, 10.000596, 9.998812 
1.5499948e+2, 2.544821e+2, -594566.6, -657089.25, -45385.793, 0.11736583, -0.30685437, -570717.7, -124676.63, 0.0, 9.999516, 9.998727 
1.5499717e+2, 2.644812e+2, -521687.5, -504215.13, -55915.215, 0.12791325, -0.29132232, -456357.75, -108307.62, 0.0, 9.999077, 9.999305 
1.5499292e+2, 2.744793e+2, -403461.53, -409801.63, -34028.227, -0.060606796, -0.4407288, -372456.0, -122390.125, 0.000000019825112, 9.999253, 9.999208 
1.5498999e+2, 2.8447822e+2, -302148.9, -303715.84, -77554.2, -0.089090824, -0.46686873, -225374.22, -73299.06, 0.0000019865888, 9.9992485, 9.999262 
1.5498865e+2, 2.944782e+2, -279799.7, -246922.53, -87051.055, 0.088305786, -0.4270977, -174771.53, -120695.82, 0.000014949104, 9.998735, 9.999227 
1.5498692e+2, 3.0447757e+2, -195517.92, -47612.69, -20868.115, 0.15922892, -0.46253547, -44724.777, -44724.777, 0.000059797247, 9.998456, 10.000385 
1.5498483e+2, 3.144784e+2, -96249.336, 200847.48, -16848.365, 0.101400636, -0.46046928, 201799.89, 201799.89, 0.00017773658, 9.998208, 10.00222 
1.6502798e+2, 1.244968e+2, -1543817.9, -1715883.6, -56786.453, 0.12965247, -0.36716372, -1526766.5, 193127.6, 0.0014821975, 10.001451, 9.999277 
1.6502327e+2, 1.3449676e+2, -1422092.5, -1554808.6, -72651.125, -0.15062203, -0.3657761, -1390055.6, 231833.22, 0.0008719991, 10.001431, 9.999727 
1.6502257e+2, 1.4449467e+2, -1433912.0, -1684107.5, -27832.31, -0.05877637, -0.47263372, -1430853.4, 93055.016, 0.0003781117, 10.001457, 9.998129 
1.6502224e+2, 1.5449353e+2, -1302898.0, -1608851.8, -4979.6353, 0.041210923, -0.40567407, -1302817.0, 123107.25, 0.000098805474, 10.001842, 9.997792 
1.6502078e+2, 1.6449225e+2, -1131586.9, -1371638.1, -7764.6313, 0.07564787, -0.35171664, -1131336.0, 196602.64, 0.000009884257, 10.001881, 9.998734 
1.6501811e+2, 1.7449069e+2, -1102224.5, -1302838.8, -31774.346, 0.033838067, -0.41606084, -1097312.1, 132640.13, 0.0000002904704, 10.001391, 9.998772 
1.6501553e+2, 1.8448938e+2, -1084836.3, -1255016.6, -21824.953, -0.0067849597, -0.41441813, -1082081.9, 49882.586, 0.0, 10.000899, 9.998657 
1.6501307e+2, 1.9448824e+2, -1060517.6, -1201825.0, -32013.93, -0.04597255, -0.4195406, -1053603.0, -19627.008, 0.0, 10.000425, 9.99858 
1.6501093e+2, 2.0448737e+2, -957121.1, -1062115.6, -44687.258, -0.025469536, -0.3746516, -940677.0, -4691.758, 0.0, 10.000311, 9.998922 
1.6500899e+2, 2.1448681e+2, -806948.44, -937924.5, -52949.203, 0.07015082, -0.35249865, -788220.6, 49771.11, 0.0, 10.000659, 9.998933 
1.6500646e+2, 2.2448578e+2, -715273.56, -831476.94, -21021.637, 0.0768357, -0.34804735, -711587.56, 28414.31, 0.0, 10.00057, 9.99903 
1.6500305e+2, 2.3448423e+2, -711207.44, -783615.3, -41371.324, -0.029829876, -0.4333298, -692435.8, -50419.414, 0.0, 9.9999485, 9.998986 
1.6500051e+2, 2.4448332e+2, -649332.1, -707987.0, -43000.613, -0.02804312, -0.41435724, -626610.06, -82584.195, 0.0, 9.999713, 9.998952 
1.6499919e+2, 2.5448316e+2, -518961.0, -598117.6, -37053.676, 0.12197686, -0.35369056, -504322.9, -58292.984, 0.0, 9.999945, 9.99892 
1.6499658e+2, 2.6448286e+2, -431646.44, -441557.88, -10908.492, 0.14014082, -0.29902807, -424620.75, -76586.63, 0.0, 9.9996, 9.999487 
1.6499245e+2, 2.744822e+2, -481313.88, -417360.22, -11368.431, 0.0077669215, -0.347055, -415399.47, -165359.1, 0.000000024295247, 9.998598, 9.999459 
1.6498934e+2, 2.8448144e+2, -451265.2, -357167.2, 4302.543, -0.016748903, -0.35893697, -356970.88, -204923.48, 0.0000019697127, 9.998162, 9.999414 
1.649876e+2, 2.944807e+2, -291177.25, -222238.34, 14920.38, 0.12824842, -0.4045464, -219147.7, -165093.48, 0.000013995548, 9.99854, 9.999491 
1.6498545e+2, 3.0447993e+2, -154845.97, -34605.957, 79588.79, 0.16219056, -0.47214434, 5017.6655, 5017.6655, 0.000055183133, 9.998735, 10.000353 
1.6498283e+2, 3.144823e+2, -98895.5, 149760.73, -84014.8, 0.083471835, -0.29864478, 175485.83, 175485.83, 0.00016346597, 9.998382, 10.001791 
1.75031e+2, 1.2449897e+2, -1557676.1, -1740138.8, -85902.93, 0.23110461, -0.17204554, -1523598.0, 196285.33, 0.001464911, 10.001437, 9.999111 
1.7502446e+2, 1.3449788e+2, -1437087.3, -1576253.9, -67524.47, -0.20088091, -0.26643673, -1409709.8, 212177.9, 0.0008580161, 10.001411, 9.999576 
1.7502345e+2, 1.4449582e+2, -1369603.8, -1556868.5, -26951.63, -0.1463179, -0.4013382, -1365802.0, 158102.02, 0.00036898247, 10.001465, 9.999008 
1.7502408e+2, 1.5449443e+2, -1231536.6, -1462868.0, 22522.62, 0.010641098, -0.45824966, -1229364.3, 196552.69, 0.00009401229, 10.001845, 9.9987955 
1.7502286e+2, 1.6449392e+2, -1151277.9, -1405777.5, -35228.39, 0.06699241, -0.37021375, -1146491.5, 181431.72, 0.000008393363, 10.001846, 9.998519 
1.7501956e+2, 1.7449433e+2, -1128252.0, -1349345.9, -39640.164, 0.01333811, -0.20750615, -1121359.8, 108563.055, 0.00000020811186, 10.001364, 9.998464 
1.7501655e+2, 1.8449344e+2, -1091720.6, -1265325.9, -48146.62, -0.020642491, -0.14317101, -1079262.1, 52671.04, 0.0, 10.000868, 9.998608 
1.7501375e+2, 1.9449088e+2, -1070249.4, -1206742.6, -39452.656, -0.04897807, -0.2909651, -1059666.4, -25708.72, 0.0, 10.000357, 9.998581 
1.7501079e+2, 2.0448905e+2, -955925.3, -1043083.2, -45648.15, -0.09121179, -0.34930626, -936394.2, -420.45572, 0.0, 10.000233, 9.999092 
1.7500764e+2, 2.1448807e+2, -812072.7, -924991.4, -28984.459, -0.1537988, -0.38700646, -805067.4, 32913.137, 0.0, 10.000558, 9.999071 
1.7500542e+2, 2.2448707e+2, -739974.25, -865557.5, -53774.363, -0.10470382, -0.37888637, -720095.0, 19893.93, 0.0, 10.00049, 9.9988365 
1.7500421e+2, 2.344859e+2, -738197.06, -820782.4, -54750.72, 0.069081455, -0.4054458, -710913.3, -68912.65, 0.0, 9.999859, 9.998777 
1.750017e+2, 2.4448499e+2, -628228.56, -648247.2, -45411.223, 0.09723368, -0.39989647, -591736.6, -47726.984, 0.0, 9.999647, 9.999391 
1.7499755e+2, 2.544843e+2, -505192.28, -544092.5, -18746.324, -0.058957078, -0.4367013, -497628.88, -51612.848, 0.0, 9.999837, 9.999344 
1.749944e+2, 2.6448467e+2, -416920.97, -406968.56, -57457.06, -0.06146449, -0.34582186, -354272.63, -6258.9556, 0.0, 9.999577, 9.999736 
1.7499232e+2, 2.7448618e+2, -475483.56, -386927.75, -39624.758, 0.1097867, -0.20592646, -371786.34, -121783.27, 0.000000035492793, 9.998514, 9.999711 
1.7498942e+2, 2.844862e+2, -402878.28, -251811.86, 4045.4084, 0.14864671, -0.18691778, -251703.6, -99701.15, 0.0000021240596, 9.998142, 10.000143 
1.7498556e+2, 2.9448462e+2, -244349.36, -109307.805, 44047.066, 0.042977553, -0.39555892, -96210.97, -42197.574, 0.000013429294, 9.998479, 10.00029 
1.7498279e+2, 3.044832e+2, -243327.64, -222552.5, 62786.906, -0.0011178146, -0.5076142, -169299.69, -169299.69, 0.000050919698, 9.998745, 9.9990635 
1.7497973e+2, 3.1448632e+2, -212002.11, -64724.418, -84444.36, -0.118214704, -0.110582165, -26320.729, -26320.729, 0.0001490851, 9.998303, 10.00035 
1.8503235e+2, 1.24500126e+2, -1533342.1, -1747548.9, 37563.7, 0.21880917, -0.19534244, -1526945.9, 192927.69, 0.0014182838, 10.001677, 9.998948 
1.8502723e+2, 1.3449901e+2, -1333397.4, -1558898.3, -2611.575, -0.09947943, -0.26283562, -1333367.1, 288513.3, 0.00082149997, 10.002257, 9.9992895 
1.8502663e+2, 1.4449748e+2, -1282120.1, -1481348.5, 21405.645, 0.008492525, -0.3425516, -1279846.3, 244045.38, 0.00034638878, 10.001911, 9.999308 
1.8502577e+2, 1.5449597e+2, -1364880.9, -1486669.4, -640.3454, 0.057223488, -0.44838268, -1364877.6, 61025.785, 0.000084445885, 10.000745, 9.999163 
1.850237e+2, 1.6449541e+2, -1350679.8, -1489499.1, -32383.64, 0.042905744, -0.39046952, -1343497.0, -15588.073, 0.000006352812, 10.000451, 9.998606 
1.8502048e+2, 1.7449576e+2, -1139712.4, -1349191.8, -29048.277, -0.021068074, -0.24001929, -1135758.9, 94150.53, 0.000000056960435, 10.001269, 9.998506 
1.850176e+2, 1.8449506e+2, -1013507.0, -1220441.4, -28801.693, -0.025156118, -0.16290739, -1009573.1, 122345.28, 0.0, 10.001388, 9.99866 
1.8501483e+2, 1.9449304e+2, -1032068.9, -1181386.4, -37161.844, 0.017431322, -0.2591851, -1023331.44, 10606.81, 0.0, 10.000596, 9.998639 
1.850118e+2, 2.0449123e+2, -942047.4, -1049198.9, 6227.4497, -0.013872822, -0.3166241, -941686.7, -5732.2437, 0.0, 10.000376, 9.9989805 
1.8500845e+2, 2.1448958e+2, -783271.25, -925715.94, -16842.104, -0.1350486, -0.40848443, -781307.0, 56660.01, 0.0, 10.000806, 9.998949 
1.8500595e+2, 2.2448851e+2, -676430.7, -835397.7, -55821.676, -0.11713929, -0.40108562, -658787.0, 81188.875, 0.0, 10.000925, 9.998837 
1.8500447e+2, 2.3448803e+2, -618292.5, -764304.6, -62058.09, 0.07267666, -0.35882622, -595480.56, 46500.84, 0.0, 10.000678, 9.998775 
1.8500149e+2, 2.4448721e+2, -550902.06, -589072.9, -33018.7, 0.09665845, -0.35082105, -531849.75, 12138.878, 0.0, 10.000076, 9.999592 
1.8499678e+2, 2.54486e+2, -605746.06, -565911.94, -43710.043, -0.07355831, -0.46457705, -537795.06, -91796.875, 0.0, 9.999031, 9.999581 
1.8499331e+2, 2.6448607e+2, -566288.1, -486527.94, -81108.96, -0.073057726, -0.41290933, -436025.03, -88026.66, 0.0, 9.998591, 9.999663 
1.8499133e+2, 2.7448756e+2, -416735.94, -369592.2, -110662.57, 0.14376839, -0.2610751, -280018.88, -30029.809, 0.000000044067633, 9.998959, 9.999623 
1.8498825e+2, 2.8448814e+2, -280614.4, -179971.14, -73380.88, 0.18699409, -0.1934664, -141315.14, 10669.353, 0.000002141611, 9.998905, 10.00028 
1.84984e+2, 2.944877e+2, -247115.47, -94613.31, -101650.555, 0.04898863, -0.29761884, -43793.305, 10191.128, 0.000012353572, 9.99837, 10.000456 
1.849814e+2, 3.044856e+2, -304581.1, -287519.97, -40885.29, 0.0067021484, -0.47395927, -254284.78, -254284.78, 0.00004451732, 9.998483, 9.998736 
1.8497783e+2, 3.1448776e+2, -90255.11, -31331.473, -152784.34, -0.17402665, -0.12788522, 94805.734, 94805.734, 0.00012891147, 9.999209, 10.000165 
1.9503134e+2, 1.2450029e+2, -1550243.6, -1771477.5, 35458.086, -0.10811834, -0.41967076, -1544699.5, 175165.03, 0.0013429979, 10.001644, 9.998795 
1.9503126e+2, 1.3450013e+2, -1368666.8, -1618096.9, 22312.656, 0.051198628, -0.3520424, -1366686.5, 255180.69, 0.0007683095, 10.002218, 9.998895 
1.9503169e+2, 1.4449969e+2, -1299085.3, -1514833.3, -34325.566, 0.2906542, -0.29362422, -1293755.8, 230115.4, 0.00031677555, 10.001893, 9.999092 
1.9502692e+2, 1.5449834e+2, -1382075.6, -1519760.6, -35298.016, 0.070310615, -0.36279258, -1373553.9, 52328.227, 0.000073711046, 10.000733, 9.998942 
1.9502303e+2, 1.6449688e+2, -1327473.3, -1438879.4, -12954.751, -0.09407579, -0.39732078, -1325986.6, 1907.7621, 0.0000047225935, 10.00043, 9.998969 
1.9502059e+2, 1.7449509e+2, -1115318.8, -1291201.9, 14674.576, -0.16454788, -0.50315833, -1114102.8, 115808.18, 0.0000000036456946, 10.001236, 9.998922 
1.950183e+2, 1.8449427e+2, -1012315.2, -1206746.5, -67158.6, -0.11642224, -0.46511972, -991373.5, 140546.27, 0.0, 10.001331, 9.998787 
1.95016e+2, 1.9449466e+2, -1034329.1, -1171634.5, -56602.93, 0.050228473, -0.33065736, -1014003.8, 19914.79, 0.0, 10.000532, 9.99874 
1.9501361e+2, 2.0449384e+2, -982247.56, -1108669.0, 11465.946, 0.10806726, -0.27623224, -981216.06, -45288.35, 0.0, 10.000277, 9.998617 
1.9501111e+2, 2.1449134e+2, -826205.06, -987136.8, 8538.783, 0.025747124, -0.4172838, -825753.3, 12197.895, 0.0, 10.0006895, 9.99858 
1.9500777e+2, 2.2449015e+2, -682875.4, -823399.4, -75475.336, -0.049031842, -0.4070654, -650019.6, 89942.75, 0.0, 10.000818, 9.998972 
1.950034e+2, 2.3449057e+2, -622015.56, -744329.7, -62245.844, -0.12348619, -0.29181945, -595910.2, 46048.777, 0.0, 10.000562, 9.998965 
1.9499964e+2, 2.4449004e+2, -565770.6, -597436.25, -81751.14, -0.119064376, -0.26547658, -498333.22, 45629.527, 0.0, 9.999981, 9.999579 
1.9499648e+2, 2.5448826e+2, -623024.4, -573465.94, -72937.02, -0.029703392, -0.4357703, -521213.88, -75237.54, 0.0, 9.998912, 9.999583 
1.9499305e+2, 2.644871e+2, -599865.7, -547972.94, -79815.125, 0.01725459, -0.49258015, -489992.75, -142005.31, 0.0, 9.99855, 9.999268 
1.9498913e+2, 2.7448636e+2, -458117.0, -442603.16, -84604.88, 0.0024559516, -0.51350814, -365400.34, -115402.09, 0.000000036761158, 9.998896, 9.99916 
1.9498555e+2, 2.8448713e+2, -321776.47, -255366.22, -100571.52, 0.0025086512, -0.37752065, -182660.0, -30666.371, 0.0000018181237, 9.998866, 9.999779 
1.9498256e+2, 2.9449e+2, -298081.53, -172487.25, -105399.71, 0.042966254, -0.10036482, -112595.44, -58628.93, 0.000010151812, 9.998259, 9.99997 
1.9498104e+2, 3.044871e+2, -264030.1, -192359.84, -19839.71, 0.09618344, -0.36340046, -187234.38, -187234.38, 0.00003534469, 9.998445, 9.999403 
1.9497639e+2, 3.1448698e+2, -9709.119, 161858.9, -101601.87, -0.28980118, -0.32714257, 209047.95, 209047.95, 0.00010294475, 9.999121, 10.001522 
2.0503438e+2, 1.24502786e+2, -1374547.5, -1709659.4, 76416.89, -0.02319202, -0.43522978, -1357944.5, 361894.63, 0.0012444656, 10.00295, 9.998598 
2.0503327e+2, 1.3450232e+2, -1451894.5, -1719420.5, 6893.718, 0.06084997, -0.34621337, -1451717.0, 170130.72, 0.00070293987, 10.001888, 9.998378 
2.0503329e+2, 1.4450194e+2, -1370208.5, -1560576.0, -22164.428, 0.28983068, -0.24802724, -1367662.0, 156190.97, 0.00028321997, 10.001472, 9.998978 
2.0502849e+2, 1.545008e+2, -1177699.3, -1433134.0, -43618.684, 0.08828133, -0.28389868, -1170456.3, 255406.17, 0.000063005726, 10.002192, 9.998834 
2.0502451e+2, 1.6449933e+2, -1093763.0, -1281806.9, -2369.935, -0.05394838, -0.33500636, -1093733.1, 234140.92, 0.0000035155435, 10.001844, 9.999364 
2.0502189e+2, 1.744972e+2, -1246023.9, -1308344.1, 5813.841, -0.09757299, -0.51249635, -1245486.1, -15595.409, 0.0000000004928599, 10.000139, 9.999336 
2.0501949e+2, 1.8449625e+2, -1217230.0, -1302035.0, -27950.645, -0.054359026, -0.5122128, -1208846.5, -76947.38, 0.0, 9.999913, 9.998815 
2.050172e+2, 1.9449669e+2, -897641.44, -1107973.8, -46568.875, 0.07623717, -0.37316135, -887792.0, 146105.86, 0.0, 10.001472, 9.998723 
2.0501484e+2, 2.0449616e+2, -766310.5, -1011736.2, 21632.611, 0.13370284, -0.2860205, -764418.3, 171486.78, 0.0, 10.001789, 9.998555 
2.0501249e+2, 2.1449427e+2, -854035.6, -1008988.1, 22761.734, 0.108562246, -0.35529009, -850761.25, -12837.102, 0.0, 10.000536, 9.998507 
2.0500876e+2, 2.2449322e+2, -816828.0, -853179.5, -16804.326, 0.028672157, -0.34484303, -810250.1, -70315.77, 0.0, 9.999744, 9.999281 
2.0500344e+2, 2.3449308e+2, -758502.4, -778382.56, -13386.293, -0.11742483, -0.3178882, -751769.2, -109834.555, 0.0, 9.99948, 9.999256 
2.0499925e+2, 2.4449252e+2, -657104.7, -672255.7, -22618.389, -0.124402694, -0.2967129, -640826.9, -96888.266, 0.0, 9.999484, 9.999301 
2.0499647e+2, 2.5449133e+2, -507068.06, -556374.6, -56622.06, 0.035876065, -0.3749032, -469965.03, -24016.47, 0.0, 9.9998665, 9.999242 
2.0499292e+2, 2.6448998e+2, -423631.0, -461904.4, -36135.742, 0.09507218, -0.43127453, -401877.53, -53916.125, 0.0, 9.999766, 9.999266 
2.0498829e+2, 2.7448818e+2, -427091.88, -423099.4, -31581.383, 0.022392128, -0.56367767, -393451.22, -143470.92, 0.00000002096579, 9.999108, 9.999179 
2.0498407e+2, 2.8448856e+2, -366006.34, -306837.28, -3529.9688, -0.016356781, -0.4514124, -306627.44, -154648.9, 0.0000012828043, 9.998695, 9.999504 
2.0498073e+2, 2.9449204e+2, -267233.94, -188158.89, -8341.702, 0.025154524, -0.09343914, -187288.5, -133341.23, 0.000007381431, 9.998604, 9.999692 
2.0497976e+2, 3.0448836e+2, -281387.8, -182390.45, 98115.586, 0.14375602, -0.42469713, -121994.69, -121994.69, 0.000026183836, 9.99825, 9.999576 
2.0497514e+2, 3.144884e+2, -217892.67, 123441.516, -65044.867, -0.23235677, -0.39441347, 135416.4, 135416.4, 0.000078692225, 9.997454, 10.002053 
2.1504064e+2, 1.24507524e+2, -1397790.8, -1740306.4, 11885.2295, 0.25378215, -0.24495149, -1397378.8, 322419.16, 0.0011273269, 10.002884, 9.998414 
2.150331e+2, 1.3450566e+2, -1488559.9, -1800255.3, -24745.686, -0.17335491, -0.24124317, -1486607.5, 135213.38, 0.0006276391, 10.001912, 9.997808 
2.150311e+2, 1.4450437e+2, -1382233.4, -1582245.6, -11888.889, -0.10702056, -0.19646496, -1381529.3, 142306.55, 0.0002466057, 10.001457, 9.998836 
2.1503015e+2, 1.5450342e+2, -1181755.5, -1442096.5, -4878.288, 0.0049372683, -0.20520355, -1181664.1, 244179.69, 0.000052325075, 10.002193, 9.99877 
2.1502778e+2, 1.645027e+2, -1070700.6, -1222810.8, -72651.54, 0.06473771, -0.19876422, -1041576.75, 286271.1, 0.000002586899, 10.001795, 9.999793 
2.1502404e+2, 1.7450209e+2, -1219896.5, -1243147.3, -48358.78, 0.079723716, -0.27373132, -1181785.4, 48063.082, 0.000000000052014764, 10.000097, 9.999798 
2.1502079e+2, 1.8450095e+2, -1236607.8, -1327937.9, 16110.349, 0.06363917, -0.30787092, -1233849.3, -101992.164, 0.0, 9.999846, 9.998672 
2.1501812e+2, 1.9449908e+2, -914580.94, -1129221.6, 23787.36, -0.0042376337, -0.38682914, -911976.3, 121900.17, 0.0, 10.001413, 9.998605 
2.1501526e+2, 2.0449817e+2, -759345.1, -980483.2, -31609.076, -0.027023578, -0.34191984, -754915.7, 180970.92, 0.0, 10.001712, 9.998808 
2.1501224e+2, 2.144984e+2, -848718.4, -974207.06, -15254.679, 0.0065373513, -0.22772428, -846890.56, -9004.416, 0.0, 10.000431, 9.9987955 
2.1500862e+2, 2.2449763e+2, -804327.75, -797178.5, -38986.484, 0.01833558, -0.22355744, -761603.06, -21710.709, 0.0, 9.9996195, 9.9997225 
2.1500418e+2, 2.3449554e+2, -746065.25, -720087.5, -12061.072, -0.010826364, -0.44000477, -715351.25, -73442.945, 0.0, 9.999346, 9.999717 
2.1500006e+2, 2.4449468e+2, -707340.0, -761853.44, -19275.207, -0.015222846, -0.44530967, -701213.2, -157297.16, 0.0, 9.99942, 9.998718 
2.1499641e+2, 2.5449532e+2, -567597.6, -654793.94, -32659.4, 0.018814264, -0.27460545, -556721.6, -110807.58, 0.0, 9.999752, 9.998622 
2.1499263e+2, 2.644949e+2, -407870.38, -415524.53, -68310.484, 0.06607291, -0.22130527, -343279.84, 4639.486, 0.0, 9.999708, 9.999609 
2.1498841e+2, 2.7449292e+2, -415875.72, -374676.6, -44870.21, 0.09915363, -0.41186816, -345903.3, -95967.04, 0.00000000626477, 9.999001, 9.999561 
2.1498352e+2, 2.844924e+2, -366281.72, -294842.63, -19025.29, 0.03406152, -0.4177344, -290091.84, -138151.66, 0.00000075455597, 9.998648, 9.999608 
2.1497828e+2, 2.9449376e+2, -278067.3, -197520.67, -694.20483, -0.109140456, -0.27347896, -197514.69, -143588.3, 0.0000049684672, 9.998549, 9.999655 
2.1497737e+2, 3.0448937e+2, -309488.2, -246208.6, 62157.457, 0.05794178, -0.64893, -208101.52, -208101.52, 0.000019574018, 9.998266, 9.999135 
2.1497366e+2, 3.1449208e+2, -269828.16, 31620.137, -54405.242, -0.17923574, -0.3126543, 41138.613, 41138.613, 0.000061826526, 9.997377, 10.001468 
2.2504361e+2, 1.2451141e+2, -1386397.1, -1709639.4, 48984.375, 0.2790012, -0.16228002, -1379137.1, 340627.78, 0.0009979393, 10.002832, 9.998653 
2.2503535e+2, 1.3450933e+2, -1381555.9, -1739993.6, -4925.748, -0.1651056, -0.19479549, -1381488.3, 240299.5, 0.0005469221, 10.002623, 9.997869 
2.2503294e+2, 1.445076e+2, -1279982.8, -1507714.4, 97220.625, -0.09168542, -0.20556867, -1244124.6, 279679.94, 0.00020906674, 10.002046, 9.999076 
2.2503221e+2, 1.5450668e+2, -1302302.4, -1471396.0, 112276.6, 0.04580779, -0.23437041, -1246299.6, 179510.69, 0.000042237294, 10.001239, 9.999038 
2.2502981e+2, 1.6450614e+2, -1201678.8, -1341338.3, 28280.148, 0.12626256, -0.20357932, -1196169.5, 131643.86, 0.0000020119714, 10.001128, 9.999301 
2.2502562e+2, 1.7450574e+2, -1014886.1, -1210129.9, -47728.727, 0.1486944, -0.19990748, -1003843.1, 225972.5, 0.0, 10.00178, 9.999217 
2.2502208e+2, 1.8450454e+2, -962389.8, -1175592.5, 34149.4, 0.12164845, -0.2204456, -957053.56, 174772.45, 0.0, 10.001643, 9.998847 
2.2501923e+2, 1.9450225e+2, -1043823.06, -1171024.6, 49239.066, 0.018948764, -0.36098206, -1026990.4, 6856.7363, 0.0, 10.000443, 9.998787 
2.2501598e+2, 2.0450126e+2, -1009941.5, -1069676.3, 298.34525, -0.028518844, -0.34734982, -1009940.0, -74083.625, 0.0, 9.999859, 9.999094 
2.2501232e+2, 2.1450171e+2, -895672.0, -964309.56, -2598.0386, -0.0009562053, -0.23783585, -895573.8, -57721.188, 0.0, 9.999967, 9.999092 
2.250087e+2, 2.2450103e+2, -737521.75, -783954.56, -7697.9673, 0.043560147, -0.23485735, -736278.8, 3579.825, 0.0, 10.000155, 9.99956 
2.2500513e+2, 2.344988e+2, -606522.2, -671021.75, -48467.16, 0.10562538, -0.44506913, -580555.9, 61322.05, 0.0, 10.000385, 9.999553 
2.2500098e+2, 2.4449816e+2, -570763.0, -651371.44, -31212.67, 0.10131964, -0.43742627, -560090.2, -16206.174, 0.0, 10.000168, 9.99912 
2.2499609e+2, 2.5449938e+2, -575566.6, -612446.1, 13873.377, 0.031463105, -0.25162458, -570930.5, -125055.29, 0.0, 9.999491, 9.999046 
2.2499196e+2, 2.6449934e+2, -481242.03, -466701.22, 24305.166, 0.056060094, -0.17907816, -448602.34, -100725.125, 0.0, 9.999271, 9.99947 
2.2498852e+2, 2.7449757e+2, -325186.78, -350486.97, -14868.007, 0.18396306, -0.3328005, -318315.56, -68421.75, 0.00000000006385136, 9.9997, 9.999394 
2.2498348e+2, 2.8449684e+2, -217230.02, -239492.2, -3762.6892, 0.11981764, -0.33830935, -216611.27, -64711.125, 0.00000032397858, 9.999739, 9.999463 
2.2497693e+2, 2.9449758e+2, -195133.13, -182148.39, -26704.004, -0.12614551, -0.2443298, -161158.88, -107265.914, 0.000003287384, 9.999231, 9.999427 
2.2497591e+2, 3.0449373e+2, -274211.5, -204819.22, 55244.08, 0.08705563, -0.5640776, -174279.4, -174279.4, 0.000016014252, 9.998403, 9.999346 
2.249722e+2, 3.1449658e+2, -272492.78, 42902.31, -21025.096, -0.046597272, -0.24740624, 44297.723, 44297.723, 0.000053501928, 9.997302, 10.001575 
2.350428e+2, 1.24514535e+2, -1342882.6, -1619755.3, 17166.791, -0.14483991, -0.18828854, -1341822.4, 377916.94, 0.0008671324, 10.002843, 9.999267 
2.3503965e+2, 1.3451317e+2, -1334041.6, -1652061.0, -14767.695, -0.02310204, -0.2004432, -1333357.4, 288392.03, 0.0004662031, 10.002658, 9.998462 
2.3503837e+2, 1.445114e+2, -1239154.0, -1406018.3, 53424.05, 0.22217639, -0.28412932, -1223515.3, 300246.44, 0.00017258529, 10.001977, 9.999807 
2.3503435e+2, 1.5451053e+2, -1253015.1, -1367718.6, 94230.87, 0.10622834, -0.37825838, -1200055.1, 225707.28, 0.000033446406, 10.001234, 9.999753 
2.3503025e+2, 1.6450952e+2, -1316516.4, -1566406.9, 38523.4, 0.03096515, -0.3554603, -1310712.4, 17059.104, 0.0000017722703, 10.001074, 9.997785 
2.3502634e+2, 1.7450806e+2, -1127790.8, -1437374.0, -12455.724, 0.018556722, -0.2976269, -1127290.4, 102502.66, 0.0000000001389195, 10.001747, 9.997675 
2.3502299e+2, 1.8450697e+2, -944975.9, -1118045.1, -17491.26, 0.026374284, -0.24812995, -943225.8, 188580.28, 0.0, 10.001554, 9.999288 
2.3502015e+2, 1.945062e+2, -1013788.6, -1096284.5, 12582.154, 0.041652, -0.2903162, -1011912.25, 21897.54, 0.0, 10.00039, 9.999327 
2.350166e+2, 2.0450534e+2, -1002238.6, -1028162.9, -8457.683, 0.029617446, -0.30772132, -999723.4, -63908.42, 0.0, 9.99975, 9.999432 
2.3501232e+2, 2.1450421e+2, -890794.9, -924712.9, 12814.838, -0.01809678, -0.3904578, -886497.6, -48673.953, 0.0, 9.999839, 9.999427 
2.3500875e+2, 2.2450343e+2, -811044.7, -905459.56, -7405.7813, 0.013038332, -0.37728202, -810467.4, -70634.86, 0.0, 10.000028, 9.998788 
2.35006e+2, 2.3450293e+2, -681526.06, -800881.5, -28403.88, 0.12980689, -0.32734877, -675111.3, -33268.55, 0.0, 10.000275, 9.998717 
2.3500155e+2, 2.4450295e+2, -483873.78, -455166.72, -65444.113, 0.11803558, -0.27697226, -402520.6, 141322.6, 0.0, 10.000099, 10.0005 
2.3499511e+2, 2.5450346e+2, -487414.5, -401902.75, -1713.9758, -0.039269295, -0.31238508, -401868.4, 43964.54, 0.0, 9.999373, 10.000547 
2.3499061e+2, 2.6450327e+2, -534545.75, -561361.5, 28856.086, -0.027490541, -0.30213028, -516134.7, -168299.92, 0.0, 9.999206, 9.99885 
2.3498835e+2, 2.7450204e+2, -388392.8, -463633.72, 14263.003, 0.17028046, -0.32830322, -385779.8, -135926.72, 0.0, 9.999617, 9.99866 
2.3498361e+2, 2.8450206e+2, -248646.55, -295964.34, -29643.166, 0.13187103, -0.20842053, -234378.4, -82520.47, 0.00000009734078, 9.999704, 9.999091 
2.349763e+2, 2.9450348e+2, -239454.39, -253297.3, -36164.582, -0.14248121, -0.0056848372, -209554.88, -155707.48, 0.0000024854203, 9.999135, 9.99899 
2.3497498e+2, 3.0450135e+2, -207931.27, -60497.574, 6341.2563, 0.12813357, -0.17338811, -60225.336, -60225.336, 0.000014818683, 9.998375, 10.000351 
2.3497006e+2, 3.1450203e+2, -223802.72, 156965.16, -2978.272, -0.04126786, -0.18438643, 156988.45, 156988.45, 0.000051300616, 9.99724, 10.002393 
2.450455e+2, 1.245181e+2, -1327354.9, -1568932.3, 81396.14, -0.14426109, -0.2038974, -1302489.0, 417217.28, 0.0007416808, 10.002777, 9.999647 
2.4504289e+2, 1.3451762e+2, -1284307.0, -1582312.1, -12956.719, 0.037208147, -0.16853617, -1283744.8, 337959.56, 0.00038814702, 10.002804, 9.998877 
2.4504122e+2, 1.4451548e+2, -1189743.6, -1402587.3, 20964.164, 0.2946762, -0.30120575, -1187698.4, 336020.53, 0.00013769997, 10.0024, 9.999618 
2.4503599e+2, 1.545142e+2, -1208039.0, -1376106.3, -36596.61, 0.13440432, -0.4182402, -1200415.9, 225309.64, 0.000025817635, 10.00168, 9.999473 
2.4503139e+2, 1.6451292e+2, -1288877.0, -1551369.5, -18490.197, 0.034697756, -0.4048164, -1287581.0, 40156.36, 0.0000016011192, 10.001254, 9.997806 
2.4502797e+2, 1.745115e+2, -1227439.9, -1481555.4, 34104.47, 0.047836334, -0.34778306, -1222942.3, 6815.533, 0.0000000006420841, 10.001047, 9.997713 
2.4502473e+2, 1.8451054e+2, -1026689.25, -1173974.9, 66574.29, 0.07331872, -0.27950403, -1001057.7, 130712.2, 0.0, 10.001076, 9.999126 
2.4502149e+2, 1.9451001e+2, -892372.4, -1056995.8, 20978.563, 0.098429196, -0.27955902, -889741.06, 144031.77, 0.0, 10.001322, 9.999138 
2.450176e+2, 2.0450908e+2, -773646.2, -910471.2, -10889.432, 0.084046245, -0.2982348, -772785.0, 162994.53, 0.0, 10.0012865, 9.9994955 
2.4501309e+2, 2.1450756e+2, -756102.06, -850836.7, -30077.158, 0.037825663, -0.4279026, -747359.6, 90431.96, 0.0, 10.000731, 9.999498 
2.4500908e+2, 2.2450708e+2, -800132.1, -898510.2, -13942.433, 0.045716483, -0.38921174, -798194.3, -58396.055, 0.0, 10.000094, 9.998801 
2.4500565e+2, 2.3450775e+2, -817682.25, -862492.7, 11150.511, 0.11892499, -0.22520857, -815060.94, -173261.69, 0.0, 9.999329, 9.998745 
2.4500093e+2, 2.4450786e+2, -647335.8, -506511.34, -16405.213, 0.114277005, -0.18025862, -504625.47, 39173.26, 0.0, 9.998851, 10.000757 
2.4499482e+2, 2.5450718e+2, -563768.94, -407042.2, -65492.26, 0.032187, -0.3612184, -383277.94, 62519.484, 0.0, 9.998715, 10.000832 
2.4499024e+2, 2.645069e+2, -565301.1, -558632.9, -1932.6143, 0.035125308, -0.38257343, -558113.25, -210314.17, 0.0, 9.99891, 9.999015 
2.4498752e+2, 2.7450702e+2, -390104.16, -441795.3, 33095.348, 0.13755314, -0.29090866, -373958.13, -124153.05, 0.0, 9.9995165, 9.998855 
2.4498266e+2, 2.8450736e+2, -271257.66, -316926.9, 22210.281, 0.07979749, -0.143024, -262237.66, -110430.695, 0.00000009803459, 9.999582, 9.999014 
2.4497558e+2, 2.945078e+2, -266248.0, -275165.66, 10267.762, -0.11267706, -0.032773077, -259512.73, -205707.05, 0.0000023443192, 9.998985, 9.998915 
2.4497432e+2, 3.045065e+2, -183476.33, -104512.34, 47107.086, 0.21405846, -0.085777886, -82529.67, -82529.67, 0.000014153015, 9.998795, 9.999845 
2.4496876e+2, 3.1450546e+2, 41703.28, 264181.88, -88250.33, 0.018283838, -0.22105756, 294936.6, 294936.6, 0.000049336963, 9.999178, 10.002187 
2.55051e+2, 1.2452224e+2, -1317703.9, -1547448.1, 62396.613, 0.07214389, -0.20181133, -1301851.3, 417813.47, 0.000622871, 10.002773, 9.999797 
2.5504482e+2, 1.3452263e+2, -1257727.9, -1523051.1, -5394.0317, -0.075429305, -0.11306176, -1257618.3, 364034.63, 0.00031436078, 10.002799, 9.999281 
2.5504133e+2, 1.4451987e+2, -1280386.0, -1583993.8, -17824.553, 0.034674454, -0.26926088, -1279343.1, 244333.16, 0.00010539114, 10.002367, 9.998387 
2.550367e+2, 1.5451764e+2, -1298564.5, -1560699.4, -53030.383, 0.00931171, -0.35312438, -1288242.8, 137456.77, 0.000019009012, 10.001666, 9.998209 
2.550328e+2, 1.6451637e+2, -1188640.1, -1328195.8, -36579.62, 0.028455732, -0.35086516, -1179633.4, 148077.52, 0.0000013062046, 10.001192, 9.999365 
2.550301e+2, 1.7451613e+2, -1111577.4, -1234263.0, 38793.348, 0.12908228, -0.34607795, -1100340.1, 129369.12, 0.000000000635992, 10.001025, 9.999415 
2.550269e+2, 1.8451528e+2, -1090734.1, -1296275.4, 66014.47, 0.15954745, -0.31364882, -1071358.4, 60358.42, 0.0, 10.00102, 9.998317 
2.5502297e+2, 1.9451359e+2, -962149.5, -1190793.3, 41229.227, 0.08400548, -0.34028503, -954942.25, 78794.85, 0.0, 10.001267, 9.998246 
2.5501874e+2, 2.0451239e+2, -812618.2, -959540.8, -39454.594, 0.04856785, -0.32758152, -802693.5, 133057.27, 0.0, 10.001151, 9.999225 
2.550143e+2, 2.1451162e+2, -786065.5, -891050.9, -40872.78, 0.059537802, -0.35951912, -772029.5, 65728.36, 0.0, 10.000637, 9.999268 
2.550093e+2, 2.2451186e+2, -754199.4, -780815.4, -53222.707, 0.03789741, -0.2759192, -712646.1, 27110.934, 0.0, 9.999996, 9.999658 
2.5500366e+2, 2.3451313e+2, -769908.3, -737657.7, -7021.251, -0.033918332, -0.14368126, -736195.44, -94447.12, 0.0, 9.999214, 9.999659 
2.5499883e+2, 2.4451283e+2, -719641.9, -638158.2, -33037.883, -0.004269668, -0.14798245, -626446.25, -82695.12, 0.0, 9.998773, 9.999889 
2.5499487e+2, 2.5451043e+2, -647415.2, -556792.3, -61408.418, 0.14331485, -0.40476447, -525787.8, -80018.15, 0.0, 9.998608, 9.999858 
2.5499055e+2, 2.6451015e+2, -505327.6, -417391.4, 10790.432, 0.15007195, -0.42067146, -416086.7, -68316.09, 0.0, 9.998843, 10.000016 
2.549857e+2, 2.7451235e+2, -326073.25, -288360.28, 68870.04, -0.022426404, -0.23054437, -235811.95, 13939.485, 0.0, 9.999421, 9.99996 
2.549803e+2, 2.8451267e+2, -264543.1, -284352.9, -9710.767, -0.13947904, -0.15594566, -260576.94, -108828.05, 0.00000013920514, 9.999515, 9.999263 
2.549744e+2, 2.9451048e+2, -273134.9, -255921.7, -5626.0645, -0.15831654, -0.3267974, -254245.97, -200477.47, 0.0000022917138, 9.998854, 9.999104 
2.5497365e+2, 3.045091e+2, -325561.78, -397514.3, 51920.85, 0.24545074, -0.30697712, -298371.06, -298371.06, 0.0000129202135, 9.998784, 9.997839 
2.5496763e+2, 3.1450653e+2, -63013.83, 56539.95, -4091.285, -0.0691705, -0.37482923, 56679.797, 56679.797, 0.00004582413, 9.99913, 10.00079 
2.6505482e+2, 1.2452652e+2, -1244343.9, -1571376.0, 118810.46, 0.15055539, -0.24275145, -1205737.6, 513880.28, 0.0005136847, 10.003506, 9.999282 
2.6504728e+2, 1.3452657e+2, -1330766.3, -1583818.0, -39405.086, -0.07664621, -0.17273277, -1324772.1, 296839.88, 0.0002486243, 10.00237, 9.999082 
2.650427e+2, 1.4452386e+2, -1390650.9, -1655861.1, 7688.988, -0.023580419, -0.30632323, -1390428.1, 133209.45, 0.00007773356, 10.001705, 9.998211 
2.6503846e+2, 1.545226e+2, -1238874.5, -1552778.0, 30704.432, -0.00097570237, -0.2738831, -1235899.4, 189754.86, 0.000013419433, 10.002166, 9.998027 
2.650348e+2, 1.6452162e+2, -998800.0, -1199780.9, 65831.09, 0.058460098, -0.24869145, -979156.9, 348506.0, 0.0000010267595, 10.002336, 9.999699 
2.6503202e+2, 1.7452087e+2, -939423.9, -1112290.1, 18512.006, 0.17404492, -0.33053505, -937463.7, 292199.25, 0.0000000012219834, 10.002034, 9.999768 
2.650284e+2, 1.8451975e+2, -1033190.4, -1267666.8, 35469.094, 0.19189389, -0.34312522, -1027942.44, 103729.414, 0.0, 10.001416, 9.9983225 
2.650237e+2, 1.9451815e+2, -1101790.5, -1263374.5, 54092.086, 0.085807264, -0.35708153, -1085354.4, -51661.625, 0.0, 10.000328, 9.998206 
2.650192e+2, 2.0451729e+2, -996302.3, -1046403.25, 50127.063, 0.04842395, -0.30891114, -965314.9, -29610.38, 0.0, 9.9998865, 9.999235 
2.6501495e+2, 2.1451722e+2, -865725.56, -931908.06, 44608.492, 0.093964174, -0.26963168, -843274.5, -5568.4233, 0.0, 10.000103, 9.999246 
2.6500967e+2, 2.2451742e+2, -726966.44, -736507.3, 22289.984, 0.07694858, -0.20251091, -708942.1, 30762.783, 0.0, 10.000042, 9.999945 
2.6500317e+2, 2.3451787e+2, -697524.1, -672573.06, -2220.5798, -0.013822931, -0.182942, -672376.94, -30675.844, 0.0, 9.999577, 9.999937 
2.6499817e+2, 2.4451731e+2, -601086.2, -635417.06, 22588.498, 0.0045179203, -0.19911923, -589881.0, -46175.168, 0.0, 9.999844, 9.99938 
2.6499477e+2, 2.5451547e+2, -324614.53, -458339.0, 8537.657, 0.157692, -0.3482858, -324071.63, 121650.664, 0.0, 10.001091, 9.999323 
2.6499045e+2, 2.6451513e+2, -195018.47, -285804.47, 37390.72, 0.15078595, -0.33345205, -181601.69, 166123.23, 0.0, 10.001041, 9.999868 
2.649849e+2, 2.7451673e+2, -328595.44, -296352.25, -19432.09, -0.039809044, -0.19083175, -287224.84, -37514.527, 0.0, 9.999446, 9.999887 
2.6497948e+2, 2.8451648e+2, -315063.94, -283107.03, -99825.21, -0.14037499, -0.18382339, -197989.58, -46278.082, 0.00000017298198, 9.999052, 9.9994955 
2.6497442e+2, 2.9451358e+2, -73833.125, -125940.84, -110457.92, -0.09242532, -0.45480514, 13602.029, 67337.28, 0.000002277503, 10.00006, 9.999422 
2.6497343e+2, 3.045124e+2, -198399.25, -401914.16, 6182.125, 0.2970834, -0.3984857, -198211.63, -198211.63, 0.000011809922, 9.999918, 9.997279 
2.649663e+2, 3.145104e+2, -193782.56, -16872.143, 70081.87, -0.05626436, -0.3514868, 7525.6157, 7525.6157, 0.000042458643, 9.998256, 10.000715 
2.7505642e+2, 1.2453081e+2, -1321917.6, -1736388.0, 47825.117, -0.09956198, -0.3423812, -1316470.8, 403096.47, 0.00042107303, 10.003513, 9.998146 
2.7504972e+2, 1.3452959e+2, -1375719.6, -1682420.1, -79493.63, -0.098476216, -0.32984567, -1356340.3, 265239.75, 0.00019522583, 10.002393, 9.998391 
2.750449e+2, 1.4452758e+2, -1335826.8, -1540708.3, 5088.519, -0.0068965843, -0.3952335, -1335700.5, 187900.94, 0.000056360343, 10.0016985, 9.999006 
2.7504098e+2, 1.5452912e+2, -1178931.9, -1424017.9, 60479.3, 0.0064469194, -0.16921614, -1164820.1, 260769.0, 0.000009372096, 10.002153, 9.998918 
2.750371e+2, 1.6452867e+2, -1064274.3, -1326278.8, 45946.34, 0.029004432, -0.097070836, -1056450.5, 271142.94, 0.0000008660051, 10.002296, 9.998844 
2.750333e+2, 1.745257e+2, -1012930.25, -1256162.6, 17546.412, 0.071582094, -0.30769798, -1011671.0, 217948.13, 0.000000004874734, 10.002002, 9.998792 
2.750288e+2, 1.8452394e+2, -993464.8, -1166026.8, -14390.166, 0.06920698, -0.36779362, -992273.06, 139362.16, 0.0, 10.001335, 9.999059 
2.750234e+2, 1.9452366e+2, -1049609.4, -1140892.1, 25079.764, -0.0041136793, -0.33323675, -1043172.6, -9532.678, 0.0, 10.000274, 9.999069 
2.7501863e+2, 2.0452386e+2, -993414.8, -1019984.06, 45911.504, -0.016655548, -0.23330082, -958904.56, -23264.818, 0.0, 9.999798, 9.999461 
2.750147e+2, 2.1452437e+2, -868954.75, -907476.3, 63646.453, 0.03527475, -0.1590765, -821718.56, 15917.756, 0.0, 9.999971, 9.9994755 
2.7500987e+2, 2.2452378e+2, -773402.8, -798127.3, -4069.0425, 0.07202145, -0.16689871, -772750.3, -33108.555, 0.0, 9.999895, 9.999594 
2.7500388e+2, 2.3452178e+2, -743018.7, -735503.4, -11015.637, 0.07606944, -0.35232675, -727622.1, -85963.26, 0.0, 9.999443, 9.999569 
2.749986e+2, 2.445212e+2, -622753.5, -663283.4, 56264.504, 0.04238636, -0.34624067, -583215.75, -39551.84, 0.0, 9.999769, 9.999225 
2.7499416e+2, 2.545221e+2, -349074.25, -489600.63, 65912.805, -0.039182037, -0.20581394, -322997.34, 122659.57, 0.0, 10.000998, 9.999158 
2.7498963e+2, 2.6452172e+2, -295306.88, -477026.53, -31739.023, -0.05900729, -0.12470131, -289922.88, 57740.12, 0.0, 10.000974, 9.998586 
2.7498478e+2, 2.7451992e+2, -440570.8, -504905.03, -70641.52, -0.021123448, -0.18590045, -395117.38, -145433.14, 0.00000000009324417, 9.999344, 9.998506 
2.7498004e+2, 2.8451842e+2, -300341.38, -239688.86, -77619.03, -0.017052602, -0.24287465, -186682.08, -34983.94, 0.00000023612336, 9.999001, 9.999815 
2.7497533e+2, 2.9451683e+2, -51328.785, -63018.277, -60906.734, -0.040630776, -0.42344606, 4012.997, 57720.38, 0.0000024951785, 9.999988, 9.99989 
2.7497312e+2, 3.0451667e+2, -129067.875, -249746.84, -60646.113, 0.2520772, -0.34888023, -103857.34, -103857.34, 0.0000116764495, 9.999894, 9.998326 
2.749641e+2, 3.1451717e+2, -131152.75, 144805.44, 72580.25, -0.16083407, -0.14807759, 162730.56, 162730.56, 0.00004063622, 9.998123, 10.001887 
2.850601e+2, 1.2453635e+2, -1486522.9, -1897379.0, 105913.195, -0.033131745, -0.3854727, -1460827.0, 258679.88, 0.00034660724, 10.002754, 9.997399 
2.8505307e+2, 1.345344e+2, -1322618.8, -1703543.3, -47564.125, -0.01865804, -0.3981421, -1316769.5, 304760.94, 0.00015383559, 10.002982, 9.9979515 
2.850473e+2, 1.4453259e+2, -1198383.6, -1460856.5, 60531.84, 0.028898409, -0.42832172, -1185096.3, 338455.22, 0.00004093297, 10.002587, 9.9991255 
2.8504306e+2, 1.5453427e+2, -1236543.9, -1434055.5, 39023.55, 0.031455353, -0.20122227, -1229113.3, 196423.27, 0.0000066741927, 10.001672, 9.999083 
2.850389e+2, 1.645338e+2, -1266507.9, -1470351.0, 34314.36, 0.041259255, -0.121621594, -1260886.5, 66655.89, 0.00000074756446, 10.0011215, 9.998424 
2.8503487e+2, 1.7453054e+2, -1183412.0, -1393753.9, 20363.418, 0.08041605, -0.30925998, -1181458.8, 48116.035, 0.000000006090155, 10.001067, 9.998307 
2.8502998e+2, 1.8452908e+2, -1011775.5, -1115598.1, 6488.4966, 0.07692149, -0.33963984, -1011371.56, 120217.586, 0.0, 10.000956, 9.999588 
2.8502396e+2, 1.9452976e+2, -949028.8, -1030873.75, 3092.802, 0.009638322, -0.26619202, -948912.06, 84670.25, 0.0, 10.000693, 9.999625 
2.850189e+2, 2.0453006e+2, -904029.3, -974403.3, 41515.71, 0.00467871, -0.18587889, -884795.0, 50784.055, 0.0, 10.000409, 9.999472 
2.8501502e+2, 2.1452975e+2, -870030.9, -912417.2, 20897.441, 0.07506319, -0.19054095, -861460.75, -23878.617, 0.0, 9.999987, 9.999432 
2.8501022e+2, 2.2452863e+2, -778516.8, -833462.0, -25929.012, 0.11793604, -0.2346483, -768213.0, -28620.78, 0.0, 10.000011, 9.999287 
2.8500426e+2, 2.3452646e+2, -599373.7, -703275.4, -50746.004, 0.122768044, -0.40457666, -578701.9, 62909.383, 0.0, 10.000591, 9.999235 
2.8499883e+2, 2.4452586e+2, -532283.94, -634449.25, 44877.594, 0.06308213, -0.3758533, -515370.72, 28246.488, 0.0, 10.00044, 9.999104 
2.849941e+2, 2.5452712e+2, -581811.6, -611258.5, 36481.41, -0.0617094, -0.18910599, -557194.6, -111587.0, 0.0, 9.999449, 9.999064 
2.849894e+2, 2.6452667e+2, -564970.7, -626768.44, -20418.467, -0.08382486, -0.10520882, -558833.75, -211218.7, 0.0, 9.999214, 9.998401 
2.8498474e+2, 2.7452403e+2, -385837.5, -499838.25, 5801.351, 0.027226666, -0.23016867, -385543.03, -135899.13, 0.0000000018932573, 9.999802, 9.998322 
2.849801e+2, 2.845225e+2, -186091.77, -203164.22, 83244.11, 0.054336127, -0.27827668, -110947.36, 40711.914, 0.00000028816427, 9.999854, 9.999664 
2.8497535e+2, 2.94522e+2, -138501.73, -112500.195, 38984.477, -0.0019684862, -0.33405158, -84405.836, -30745.537, 0.0000027347362, 9.999428, 9.999817 
2.8497228e+2, 3.0452198e+2, -184430.98, -224668.22, -29435.662, 0.22225793, -0.26631084, -168895.48, -168895.48, 0.000012525966, 9.99928, 9.998787 
2.8496325e+2, 3.1452313e+2, -20116.396, 207251.56, 45844.7, -0.07668208, -0.044808682, 216147.3, 216147.3, 0.000040586296, 9.998846, 10.001957 
2.9506496e+2, 1.2454325e+2, -1512200.4, -1960015.9, 72313.84, 0.10878339, -0.35860786, -1500812.6, 218623.38, 0.00028487924, 10.002785, 9.996958 
2.9505706e+2, 1.3454103e+2, -1342105.3, -1745966.3, -34998.5, 0.05228268, -0.37713307, -1339094.8, 282368.84, 0.000121053716, 10.002999, 9.997647 
2.9504964e+2, 1.4453878e+2, -1231890.1, -1538947.4, 10186.405, -0.031354092, -0.4065104, -1231552.5, 291936.3, 0.000029834508, 10.002605, 9.998588 
2.950442e+2, 1.5453802e+2, -1277178.5, -1517541.9, 11961.757, -0.048095617, -0.37192497, -1276584.8, 148912.13, 0.000004731658, 10.001665, 9.998514 
2.950397e+2, 1.64537e+2, -1276409.6, -1477774.5, 21240.096, -0.009388762, -0.3127991, -1274193.6, 53315.836, 0.00000054097734, 10.001073, 9.998391 
2.9503635e+2, 1.7453557e+2, -1184631.9, -1387023.3, 33024.44, 0.09397365, -0.3227948, -1179379.5, 50148.87, 0.0000000012704189, 10.001041, 9.998358 
2.9503152e+2, 1.8453532e+2, -1001018.5, -1081640.1, -13512.113, 0.11056273, -0.24875912, -998814.1, 132718.3, 0.0, 10.000898, 9.999852 
2.95025e+2, 1.9453634e+2, -939185.5, -996936.06, 4051.622, 0.015572422, -0.1664589, -938902.6, 94617.73, 0.0, 10.000635, 9.999886 
2.950196e+2, 2.045358e+2, -936389.7, -1016595.75, 17223.424, 0.010870879, -0.17381598, -932847.56, 2675.3765, 0.0, 10.000301, 9.999233 
2.9501548e+2, 2.1453328e+2, -906480.3, -957384.0, 17555.26, 0.09937379, -0.37360787, -901013.2, -63468.94, 0.0, 9.999857, 9.999183 
2.950104e+2, 2.2453192e+2, -820336.8, -887126.1, -16023.7, 0.11041707, -0.41298798, -816691.44, -77135.11, 0.0, 9.999871, 9.998984 
2.9500413e+2, 2.3453188e+2, -639113.25, -754885.25, -16428.568, 0.025790393, -0.34084058, -636827.06, 4731.35, 0.0, 10.0004635, 9.9989395 
2.9499868e+2, 2.4453145e+2, -546355.2, -646909.25, -634.10657, -0.020898076, -0.27805498, -546351.2, -2786.9753, 0.0, 10.000364, 9.999059 
2.949942e+2, 2.545305e+2, -597876.5, -624711.0, 9212.752, -0.020801745, -0.30724484, -595018.06, -149443.0, 0.0, 9.999357, 9.9990225 
2.9498944e+2, 2.6452973e+2, -505341.66, -491543.2, -9349.3, -0.023514863, -0.29529157, -486823.1, -139240.1, 0.0, 9.999163, 9.999353 
2.9498434e+2, 2.74529e+2, -327765.44, -358881.53, 36523.004, -0.020089306, -0.3296887, -303624.84, -54035.38, 0.0000000016821552, 9.999711, 9.999333 
2.949793e+2, 2.845287e+2, -233002.1, -292827.72, 56685.074, -0.03672212, -0.27720588, -198821.42, -47227.797, 0.00000022409213, 9.999818, 9.999069 
2.949741e+2, 2.945289e+2, -193662.52, -218354.28, 41872.97, -0.10325748, -0.1958652, -162353.31, -108758.74, 0.0000026534976, 9.999378, 9.999122 
2.9497066e+2, 3.0452818e+2, -194909.08, -236344.64, -47631.86, 0.101905026, -0.16068332, -163684.39, -163684.39, 0.00001292508, 9.999242, 9.998723 
2.9496306e+2, 3.1452778e+2, -99218.914, 55380.285, 79320.14, -0.04256601, -0.089893386, 88836.78, 88836.78, 0.000040883584, 9.998788, 10.00094 
3.050693e+2, 1.2454888e+2, -1488311.3, -1895273.3, -21900.594, 0.28172004, -0.3093218, -1487136.1, 232247.92, 0.00023189351, 10.002732, 9.99743 
3.0505994e+2, 1.3454683e+2, -1403589.5, -1730088.5, -112484.945, 0.07900543, -0.35067356, -1368588.5, 252819.53, 0.000094942065, 10.002361, 9.998076 
3.0505133e+2, 1.4454505e+2, -1344928.6, -1600554.0, -13514.209, -0.08033086, -0.3530926, -1344216.1, 179211.92, 0.000021738364, 10.001895, 9.998489 
3.0504638e+2, 1.5454361e+2, -1284659.8, -1538426.4, -13518.594, 0.008264036, -0.3711244, -1283941.6, 141501.78, 0.0000030875526, 10.001701, 9.998344 
3.050416e+2, 1.6454257e+2, -1203929.9, -1416721.5, 57076.53, 0.06576817, -0.31653568, -1189587.1, 137869.05, 0.0000002653173, 10.001434, 9.99864 
3.0503705e+2, 1.74542e+2, -1177767.1, -1351477.0, 66021.56, 0.07296954, -0.2689734, -1155522.9, 73943.32, 0.0, 10.000937, 9.998654 
3.050319e+2, 1.8454184e+2, -1059191.0, -1149340.3, 30997.62, 0.07710326, -0.184815, -1049561.1, 81908.3, 0.0, 10.000673, 9.999497 
3.050261e+2, 1.9454199e+2, -967542.2, -1061018.5, -23832.613, 0.072234295, -0.14810331, -961816.56, 71650.516, 0.0, 10.000643, 9.999454 
3.0502075e+2, 2.0454086e+2, -880521.44, -982418.75, -6179.201, 0.08576719, -0.1929098, -880148.1, 55326.93, 0.0, 10.0006485, 9.999309 
3.0501583e+2, 2.1453816e+2, -782943.0, -891186.94, -3622.6174, 0.118670285, -0.41753533, -782821.94, 54674.234, 0.0, 10.000666, 9.999256 
3.0501035e+2, 2.2453703e+2, -733243.1, -861577.6, 14337.0205, 0.095974, -0.43212733, -731660.94, 7845.134, 0.0, 10.000534, 9.998846 
3.0500427e+2, 2.345377e+2, -689319.44, -795192.4, 4813.757, 0.014050968, -0.2751733, -689101.06, -47597.62, 0.0, 10.00019, 9.998795 
3.0499902e+2, 2.4453732e+2, -605822.0, -678902.4, 27220.432, 0.0010905566, -0.1986305, -596797.56, -53287.992, 0.0, 9.999978, 9.9990225 
3.0499473e+2, 2.545356e+2, -500320.6, -577652.9, 19137.406, 0.06689397, -0.30179405, -495843.8, -50316.547, 0.0, 10.000034, 9.999017 
3.0498973e+2, 2.6453468e+2, -384518.1, -399062.97, 20614.607, 0.058866754, -0.3230424, -369930.75, -22395.133, 0.0, 9.9998455, 9.999659 
3.049839e+2, 2.745345e+2, -340684.3, -329203.88, -5333.327, -0.016215116, -0.33612818, -327108.66, -77573.84, 0.00000000014964384, 9.999472, 9.999651 
3.0497852e+2, 2.8453448e+2, -315816.1, -336705.2, 20274.639, -0.063301325, -0.26760706, -303453.84, -151917.72, 0.00000013461268, 9.9992895, 9.999008 
3.049734e+2, 2.945349e+2, -216125.38, -236380.73, 28585.508, -0.097066484, -0.1544961, -195926.48, -142389.0, 0.0000024184974, 9.999284, 9.999027 
3.0496958e+2, 3.0453396e+2, -158232.75, -214599.63, -10407.095, 0.06706231, -0.13434562, -156372.66, -156372.66, 0.00001259153, 9.999468, 9.998779 
3.0496275e+2, 3.145331e+2, -48920.598, 17413.412, 90240.23, 0.028730873, -0.11358529, 80388.74, 80388.74, 0.00003964243, 9.999399, 10.000403 
3.1507263e+2, 1.2455346e+2, -1387702.9, -1684820.4, -88311.516, 0.28455207, -0.21336973, -1363436.3, 355912.44, 0.00018871382, 10.002737, 9.998867 
3.150612e+2, 1.345521e+2, -1330225.6, -1555658.8, -120521.75, -0.051741082, -0.30524057, -1277925.5, 343435.7, 0.00007509751, 10.002294, 9.999297 
3.1505197e+2, 1.445516e+2, -1332765.0, -1577162.1, -35478.176, -0.24102157, -0.25018921, -1327719.0, 195648.05, 0.00001598166, 10.001887, 9.998657 
3.150492e+2, 1.5455101e+2, -1273910.4, -1518968.6, -8868.656, 0.08739566, -0.20078437, -1273589.8, 151786.6, 0.00000170519, 10.001715, 9.998469 
3.1504437e+2, 1.6455045e+2, -1170685.4, -1343054.3, 23860.234, 0.16783084, -0.1294667, -1167443.5, 159939.61, 0.000000057148895, 10.001407, 9.999165 
3.1503668e+2, 1.745498e+2, -1144941.1, -1274430.1, 54302.395, -0.08383088, -0.14393406, -1125183.6, 104204.65, 0.0, 10.000898, 9.999203 
3.1503072e+2, 1.8454866e+2, -1139521.1, -1302446.9, 17723.887, -0.13087443, -0.13817908, -1137615.4, -6215.3613, 0.0, 10.000609, 9.998479 
3.15027e+2, 1.9454674e+2, -1051170.9, -1217916.6, -13933.898, 0.06951804, -0.20331317, -1050014.6, -16592.83, 0.0, 10.000573, 9.998409 
3.1502205e+2, 2.0454536e+2, -877619.7, -946121.6, -17058.258, 0.13275695, -0.2335688, -873606.94, 61827.355, 0.0, 10.0005245, 9.999616 
3.1501576e+2, 2.1454448e+2, -776094.56, -844743.8, 8122.1367, 0.022360113, -0.3139415, -775146.7, 62290.723, 0.0, 10.000534, 9.999636 
3.1500983e+2, 2.2454402e+2, -744394.1, -861002.0, -8555.444, -0.03213158, -0.28428438, -743769.8, -4328.865, 0.0, 10.000428, 9.998906 
3.1500432e+2, 2.345439e+2, -702285.8, -797233.8, 2071.599, -0.019519594, -0.2076763, -702240.6, -60794.203, 0.0, 10.000079, 9.998839 
3.1499946e+2, 2.4454336e+2, -615335.44, -684823.7, 17087.707, 0.021957092, -0.14667557, -611360.75, -67906.63, 0.0, 9.999919, 9.999009 
3.149952e+2, 2.5454235e+2, -518054.16, -585950.2, 28101.438, 0.09083402, -0.17588173, -507932.25, -62467.57, 0.0, 9.999912, 9.999019 
3.1498986e+2, 2.6454148e+2, -412034.8, -447001.2, -2684.5762, 0.06567245, -0.17855598, -411829.9, -64357.586, 0.0, 9.999802, 9.999354 
3.149831e+2, 2.7454036e+2, -371473.0, -379163.44, -8201.046, -0.07153909, -0.25364953, -366260.47, -116780.21, 0.00000000001473293, 9.999402, 9.999346 
3.1497735e+2, 2.845397e+2, -293981.0, -278161.06, 7872.5527, -0.13273506, -0.2574625, -274911.06, -123423.66, 0.000000108201135, 9.999236, 9.999433 
3.149728e+2, 2.9453975e+2, -200357.6, -184270.89, 42343.055, -0.11877231, -0.22427236, -149214.02, -95723.055, 0.0000023186144, 9.999195, 9.99943 
3.1496865e+2, 3.0453923e+2, -145235.31, -183629.45, -15476.672, 0.0056586405, -0.1919539, -139773.61, -139773.61, 0.000012381474, 9.999446, 9.999003 
3.1496167e+2, 3.14539e+2, -49283.867, 18724.6, 113971.55, -0.07902762, -0.14301284, 103656.49, 103656.49, 0.000038038284, 9.999377, 10.000427 
3.250735e+2, 1.2455795e+2, -1709066.4, -1749322.8, 7795.0728, 0.24197944, -0.23583823, -1707609.6, 11698.574, 0.00015750076, 10.000104, 9.999703 
3.2506335e+2, 1.3455744e+2, -1435828.6, -1547174.4, -88349.84, -0.0035070619, -0.30519652, -1387073.8, 234237.36, 0.00006189271, 10.001269, 9.999864 
3.2505423e+2, 1.4455765e+2, -1343056.3, -1578201.8, -14842.308, -0.18930562, -0.21016675, -1342123.1, 181186.11, 0.000012633238, 10.001786, 9.998708 
3.2505122e+2, 1.545569e+2, -1238546.9, -1496441.9, -18762.574, 0.11601642, -0.17857054, -1237189.0, 188131.1, 0.0000008198343, 10.001916, 9.998535 
3.25046e+2, 1.6455616e+2, -1130938.4, -1297403.8, 2158.4731, 0.1876901, -0.14033353, -1130910.4, 196416.95, 0.000000004124255, 10.001597, 9.999372 
3.2503763e+2, 1.7455532e+2, -1148078.9, -1257087.8, -19024.855, -0.06734186, -0.19193585, -1144853.9, 84477.695, 0.0, 10.0008, 9.999367 
3.2503137e+2, 1.8455397e+2, -1164352.4, -1325954.1, 9017.592, -0.11575406, -0.21009831, -1163850.8, -32506.283, 0.0, 10.00049, 9.998367 
3.2502776e+2, 1.9455194e+2, -1044067.94, -1225767.8, 24653.256, 0.09337146, -0.27505764, -1040782.4, -7413.9756, 0.0, 10.000681, 9.998292 
3.2502258e+2, 2.0455089e+2, -880990.3, -963589.4, 49841.75, 0.13614601, -0.2624808, -857560.75, 77818.695, 0.0, 10.000556, 9.999483 
3.250155e+2, 2.1455088e+2, -871163.94, -904903.9, 17431.824, -0.022889968, -0.2428153, -863775.6, -26399.336, 0.0, 9.999936, 9.999513 
3.2500955e+2, 2.2455059e+2, -841822.1, -902163.1, 13063.551, -0.061797097, -0.19292875, -839115.4, -99736.43, 0.0, 9.999732, 9.998958 
3.2500497e+2, 2.3454976e+2, -699458.25, -790692.0, 6005.6294, 0.044219453, -0.19458367, -699064.6, -57674.504, 0.0, 10.000067, 9.998891 
3.250002e+2, 2.4454889e+2, -608870.4, -703774.3, 31193.172, 0.101172835, -0.16058165, -599535.9, -56135.113, 0.0, 10.000052, 9.998819 
3.249951e+2, 2.54548e+2, -553189.94, -625691.8, 10653.133, 0.101704836, -0.15864187, -551657.0, -106246.4, 0.0, 9.999754, 9.998825 
3.2498953e+2, 2.6454714e+2, -444090.9, -461066.03, 1100.5157, 0.06822034, -0.14889492, -444019.84, -96601.516, 0.0, 9.999583, 9.999364 
3.249833e+2, 2.7454597e+2, -338945.94, -360065.84, -1857.3506, 0.0048859604, -0.23158541, -338783.84, -89356.76, 0.00000000010851988, 9.999625, 9.999366 
3.2497737e+2, 2.8454524e+2, -270065.75, -264255.44, 28496.281, -0.05464897, -0.23720136, -238516.63, -87082.414, 0.00000014604628, 9.999372, 9.999476 
3.2497188e+2, 2.9454544e+2, -272638.56, -211804.08, 10761.504, -0.09210666, -0.20003678, -209956.5, -156520.27, 0.0000023415487, 9.998664, 9.9995 
3.2496753e+2, 3.0454502e+2, -218071.19, -161316.02, -301.85294, -0.0069717676, -0.18739, -161314.4, -161314.4, 0.000012312151, 9.998729, 9.999485 
3.249617e+2, 3.1454515e+2, -8154.999, 78891.695, 91480.98, -0.010784957, -0.14757842, 136675.06, 136675.06, 0.000036624067, 9.999518, 10.000752 
3.350712e+2, 1.2456235e+2, -1697648.6, -1718030.5, -22888.525, -0.060592584, -0.37083554, -1682784.9, 36478.164, 0.00013853858, 10.000087, 9.999918 
3.3506602e+2, 1.3456291e+2, -1444495.4, -1552414.8, -43093.414, 0.1081307, -0.32953718, -1429399.4, 191857.52, 0.000055370125, 10.001244, 9.999823 
3.350578e+2, 1.4456324e+2, -1347914.8, -1580458.5, -25130.318, -0.043108348, -0.22062261, -1345230.0, 178023.89, 0.000011804474, 10.001751, 9.99871 
3.3505213e+2, 1.5456152e+2, -1236506.3, -1486570.4, -2889.0686, -0.013707222, -0.2894363, -1236472.9, 188799.23, 0.00000057438905, 10.001897, 9.9986105 
3.3504617e+2, 1.6455992e+2, -1149374.6, -1328882.1, -37496.902, 0.01837425, -0.3344556, -1141856.8, 185429.9, 0.00000000201948, 10.001564, 9.999175 
3.350396e+2, 1.7455854e+2, -1164791.6, -1289345.6, -36872.62, 0.018128928, -0.41781762, -1154694.5, 74601.83, 0.0, 10.000789, 9.999153 
3.3503348e+2, 1.8455775e+2, -1125715.3, -1224152.5, 2916.7102, 0.018230464, -0.40324998, -1125629.0, 5673.919, 0.0, 10.000399, 9.99911 
3.3502814e+2, 1.9455747e+2, -998930.5, -1114742.8, 41256.94, 0.03388701, -0.37135676, -985736.3, 47571.63, 0.0, 10.000611, 9.999086 
3.3502194e+2, 2.0455737e+2, -932315.8, -1047295.06, 15706.761, -0.0026716325, -0.27974927, -930208.8, 5102.3037, 0.0, 10.000459, 9.998958 
3.3501467e+2, 2.1455732e+2, -930600.5, -996332.4, 4232.033, -0.11649923, -0.20667844, -930329.1, -93016.016, 0.0, 9.999802, 9.998949 
3.3500922e+2, 2.2455668e+2, -857915.56, -908591.4, 12526.081, -0.08863533, -0.16097428, -854988.44, -115667.99, 0.0, 9.999618, 9.998966 
3.350058e+2, 2.3455527e+2, -715358.25, -787953.5, 26375.605, 0.101468384, -0.22870623, -706787.3, -65452.676, 0.0, 9.999922, 9.998975 
3.3500087e+2, 2.4455392e+2, -636150.9, -753567.0, 11336.758, 0.14307788, -0.2335059, -635066.3, -91717.414, 0.0, 10.000013, 9.998498 
3.3499405e+2, 2.5455254e+2, -590598.56, -682606.75, 8753.362, -0.0010291454, -0.2481355, -589773.2, -144408.73, 0.0, 9.999664, 9.998478 
3.3498845e+2, 2.645517e+2, -432321.34, -429268.4, -8321.662, -0.019999618, -0.23103562, -422334.38, -74961.31, 0.0, 9.999549, 9.9995985 
3.349841e+2, 2.7455118e+2, -333265.2, -327272.63, 11444.561, 0.096672736, -0.2746702, -318438.63, -69062.59, 0.000000000044508567, 9.999533, 9.999635 
3.3497822e+2, 2.8455117e+2, -290879.84, -304713.94, -7135.003, 0.067798324, -0.2127636, -287859.38, -136482.8, 0.00000018851506, 9.999348, 9.999214 
3.3497033e+2, 2.9455203e+2, -302371.72, -262256.13, -3294.1294, -0.14621313, -0.08074809, -261987.44, -208615.1, 0.0000023038672, 9.998604, 9.999188 
3.3496574e+2, 3.0455115e+2, -178889.2, -74481.31, 20233.016, -0.0849861, -0.1250253, -70697.52, -70697.52, 0.000011796056, 9.998707, 10.000092 
3.349621e+2, 3.145515e+2, 12740.042, 146575.19, 136698.27, 0.022801446, -0.12996998, 231856.1, 231856.1, 0.000034748333, 9.999408, 10.001277 
3.4507114e+2, 1.245688e+2, -1618096.8, -1686364.3, 48727.42, -0.09064437, -0.36187002, -1592737.1, 126463.14, 0.00012841672, 10.000671, 9.999854 
3.4506842e+2, 1.3456942e+2, -1414370.8, -1582866.9, -844.2307, 0.21880524, -0.2774031, -1414366.6, 206828.3, 0.00005393956, 10.001623, 9.999449 
3.450607e+2, 1.4456931e+2, -1331956.3, -1550243.8, -288.5517, 0.07918325, -0.20196693, -1331955.9, 191240.45, 0.00001321429, 10.001772, 9.998902 
3.450529e+2, 1.5456751e+2, -1338633.6, -1518764.9, -2542.3914, -0.07829563, -0.29772982, -1338597.8, 86616.086, 0.00000089811203, 10.001121, 9.998765 
3.450464e+2, 1.6456586e+2, -1273689.8, -1408867.0, -15315.704, -0.06772243, -0.34538236, -1271976.1, 55252.48, 0.0000000015154811, 10.000779, 9.999011 
3.4504104e+2, 1.7456451e+2, -1177411.3, -1312122.9, -32524.398, 0.095704235, -0.40994442, -1169969.8, 59269.44, 0.0, 10.000775, 9.999004 
3.45035e+2, 1.8456382e+2, -1095366.3, -1207276.1, 14340.961, 0.12629825, -0.3810469, -1093557.8, 37687.465, 0.0, 10.000596, 9.999137 
3.4502825e+2, 1.9456361e+2, -1067218.4, -1146815.0, -19962.215, 0.017795406, -0.34286976, -1062492.6, -29243.98, 0.0, 10.000133, 9.999105 
3.4502167e+2, 2.0456332e+2, -1005664.25, -1085322.3, -44926.44, -0.045340452, -0.2678866, -985453.8, -50200.992, 0.0, 9.999967, 9.998931 
3.4501508e+2, 2.1456274e+2, -895290.0, -988665.8, -39081.56, -0.06546698, -0.24351816, -881091.7, -43831.64, 0.0, 10.000074, 9.998874 
3.4500974e+2, 2.245619e+2, -768927.2, -865372.56, 28002.488, -0.024147986, -0.21420094, -761386.4, -22117.371, 0.0, 10.000233, 9.998966 
3.4500584e+2, 2.3456067e+2, -638543.4, -753613.2, 16856.055, 0.092386566, -0.2611626, -636125.06, 5155.716, 0.0, 10.000454, 9.998959 
3.4500065e+2, 2.4455947e+2, -583801.25, -717306.3, 5196.453, 0.10562561, -0.25543225, -583599.3, -40305.945, 0.0, 10.000344, 9.998583 
3.4499374e+2, 2.5455806e+2, -550298.6, -658668.25, 10765.83, -0.005438683, -0.27731076, -549239.5, -103930.1, 0.0, 9.999921, 9.998524 
3.4498826e+2, 2.6455718e+2, -437349.8, -467286.66, 22343.004, 0.0040597892, -0.24670425, -425424.7, -78105.55, 0.0, 9.999674, 9.999274 
3.449843e+2, 2.7455676e+2, -334070.28, -364691.13, -22613.225, 0.16135691, -0.2460452, -322071.97, -72748.445, 0.0, 9.999693, 9.9993 
3.4497806e+2, 2.8455678e+2, -280654.7, -281443.56, -57144.086, 0.12359883, -0.17684464, -223903.69, -72579.93, 0.00000016974016, 9.999368, 9.9993515 
3.4496897e+2, 2.9455724e+2, -276098.06, -233507.97, -45768.75, -0.14185824, -0.091080084, -204322.75, -151004.0, 0.0000020169734, 9.998722, 9.999329 
3.449642e+2, 3.0455565e+2, -220210.69, -121459.74, 38758.363, -0.08677281, -0.20223069, -108064.62, -108064.62, 0.0000103175025, 9.99852, 9.999869 
3.449619e+2, 3.1455556e+2, -146980.6, 5506.094, 48503.594, 0.11772518, -0.23657355, 19626.715, 19626.715, 0.000031962787, 9.998576, 10.000707 
3.5507256e+2, 1.2457727e+2, -1641239.1, -1737119.1, 9749.842, -0.08082364, -0.19946915, -1640257.8, 78862.164, 0.00012227354, 10.000681, 9.999501 
3.550702e+2, 1.3457692e+2, -1450312.1, -1657135.6, 45168.848, 0.20397577, -0.15238258, -1440878.0, 180247.34, 0.00005490219, 10.001641, 9.99892 
3.5506257e+2, 1.4457598e+2, -1312333.0, -1518998.8, -35606.36, 0.051584374, -0.14424922, -1306370.4, 216764.61, 0.000015641235, 10.001801, 9.999111 
3.5505325e+2, 1.545748e+2, -1319409.5, -1490271.4, -16976.805, -0.18637758, -0.19745745, -1317739.0, 107406.83, 0.0000017221555, 10.001162, 9.998946 
3.5504633e+2, 1.645739e+2, -1284420.6, -1421216.6, -31170.64, -0.18068369, -0.17700216, -1277652.9, 49501.21, 0.000000007086625, 10.000735, 9.998945 
3.5504168e+2, 1.7457318e+2, -1183084.5, -1321012.8, -22294.752, 0.054793198, -0.17168081, -1179570.3, 49590.395, 0.0, 10.000761, 9.998949 
3.550355e+2, 1.845721e+2, -1154949.9, -1312624.5, -10514.992, 0.09889605, -0.14735787, -1154251.8, -23080.078, 0.0, 10.000518, 9.998452 
3.550279e+2, 1.9457045e+2, -1124924.1, -1253356.0, -25707.32, -0.055665016, -0.18198054, -1119969.6, -86780.7, 0.0, 10.000074, 9.998403 
3.5502148e+2, 2.0456886e+2, -993938.6, -1036950.3, -51399.21, -0.08117278, -0.21892951, -959727.5, -24524.045, 0.0, 9.999861, 9.999317 
3.5501632e+2, 2.145672e+2, -880440.25, -929163.75, -23348.52, 0.031472504, -0.34909987, -871058.1, -33841.75, 0.0, 9.999952, 9.999341 
3.550108e+2, 2.2456628e+2, -789659.9, -885109.5, 28359.326, 0.04010831, -0.347913, -781869.75, -42645.688, 0.0, 10.00013, 9.998881 
3.550048e+2, 2.345661e+2, -665846.25, -780768.3, 34612.92, -0.08066492, -0.2784156, -656226.56, -14999.464, 0.0, 10.000328, 9.998833 
3.5499907e+2, 2.4456559e+2, -570656.1, -667910.4, -20202.596, -0.10797669, -0.21283938, -566626.44, -23393.059, 0.0, 10.000254, 9.998963 
3.5499373e+2, 2.5456452e+2, -538248.1, -606407.9, 3751.0771, -0.01994096, -0.24440908, -538042.3, -92796.85, 0.0, 9.999812, 9.998931 
3.5498857e+2, 2.6456365e+2, -504728.13, -598425.1, 13623.877, 0.047873825, -0.19273145, -502787.34, -155530.83, 0.0, 9.999632, 9.998394 
3.549835e+2, 2.7456284e+2, -413757.6, -510080.34, -10209.883, 0.088070504, -0.1386113, -412687.28, -163418.8, 0.0, 9.999607, 9.998341 
3.5497653e+2, 2.8456196e+2, -253598.95, -217442.17, -90831.39, 0.010939671, -0.12769213, -142907.56, 8368.119, 0.00000011654808, 9.999337, 9.999806 
3.5496742e+2, 2.9456097e+2, -248652.13, -159307.1, -55888.99, -0.2003514, -0.24445498, -132430.94, -79154.22, 0.0000016052002, 9.998655, 9.999868 
3.549627e+2, 3.0455852e+2, -283063.44, -258236.88, 33508.137, -0.11637706, -0.4271824, -234916.63, -234916.63, 0.000008325357, 9.998533, 9.998931 
3.5496026e+2, 3.1455782e+2, -277475.94, -250464.53, 86086.375, 0.035168692, -0.41259614, -176830.88, -176830.88, 0.000028551576, 9.998503, 9.998989 
3.6507475e+2, 1.24584466e+2, -1455250.1, -1691476.9, 15187.975, 0.012414983, -0.1758018, -1454277.6, 264773.25, 0.000118926524, 10.002139, 9.999118 
3.6507118e+2, 1.3458371e+2, -1499969.6, -1716945.3, 61722.137, 0.15843605, -0.13659045, -1483640.6, 137419.53, 0.000056465244, 10.001445, 9.998607 
3.6506394e+2, 1.4458226e+2, -1412434.6, -1561109.3, -1759.8062, 0.052746832, -0.16689728, -1412413.8, 110661.11, 0.00001794202, 10.001103, 9.999151 
3.6505505e+2, 1.5458135e+2, -1304915.0, -1474495.8, -21349.027, -0.11660642, -0.19597685, -1302268.6, 122813.77, 0.000002788093, 10.001236, 9.999016 
3.6504802e+2, 1.645807e+2, -1194114.9, -1395574.1, -3132.947, -0.1087955, -0.1438661, -1194066.1, 133022.73, 0.00000008230677, 10.001439, 9.998782 
3.6504257e+2, 1.7458029e+2, -1070633.3, -1285649.0, -28451.22, 0.033071432, -0.09113636, -1066932.3, 162162.69, 0.0, 10.001617, 9.998778 
3.650361e+2, 1.8457915e+2, -1011337.2, -1251080.6, 92.21996, 0.059856195, -0.060818877, -1011337.1, 119769.81, 0.0, 10.001539, 9.998381 
3.6502874e+2, 1.9457695e+2, -980542.4, -1191849.9, 12605.154, -0.025910253, -0.14202899, -979793.1, 53334.48, 0.0, 10.0011015, 9.99833 
3.6502236e+2, 2.045751e+2, -877034.94, -1000338.8, 25146.318, -0.01593098, -0.19320013, -872103.9, 63040.23, 0.0, 10.0007515, 9.999139 
3.6501715e+2, 2.145735e+2, -820268.9, -920119.7, -17421.018, 0.09990419, -0.29885465, -817316.75, 19840.531, 0.0, 10.000456, 9.999159 
3.650113e+2, 2.2457242e+2, -787574.25, -873275.1, 34240.47, 0.08366816, -0.30909896, -775574.25, -36408.01, 0.0, 10.000093, 9.998984 
3.650047e+2, 2.3457184e+2, -757271.0, -811015.5, 39170.56, -0.08096661, -0.2902888, -736641.1, -95469.586, 0.0, 9.999638, 9.99896 
3.6499882e+2, 2.4457142e+2, -640711.9, -687655.5, 15301.424, -0.12116748, -0.2321599, -636164.8, -92988.445, 0.0, 9.999687, 9.999114 
3.6499384e+2, 2.5457105e+2, -454940.6, -544257.4, 1260.0017, -0.0068511823, -0.20761912, -454922.8, -9741.387, 0.0, 10.000282, 9.999134 
3.649885e+2, 2.6457033e+2, -395830.28, -549200.5, 39892.96, 0.04443038, -0.15255825, -386074.34, -38883.516, 0.0, 10.000398, 9.998362 
3.6498263e+2, 2.745689e+2, -360213.47, -489665.34, 61718.4, 0.026511166, -0.15663299, -335504.47, -86296.11, 0.0, 9.999996, 9.998296 
3.6497584e+2, 2.8456745e+2, -175223.44, -231664.03, 15160.332, -0.024456428, -0.1743118, -171409.06, -20188.074, 0.000000055764154, 10.000083, 9.999355 
3.6496803e+2, 2.945662e+2, 19285.791, -81947.984, -46130.547, -0.098517686, -0.27328342, 37153.184, 90379.46, 0.0000011855267, 10.000717, 9.999405 
3.6496282e+2, 3.0456442e+2, -66397.35, -138330.19, 18500.365, -0.01771946, -0.36966676, -61918.168, -61918.168, 0.0000067298934, 9.999985, 9.999043 
3.6495766e+2, 3.1456363e+2, -439674.25, -330330.8, 125829.03, -0.008666585, -0.37766778, -247809.45, -247809.45, 0.00002565761, 9.997421, 9.9989605 
3.7507695e+2, 1.2459068e+2, -1476735.6, -1742831.3, -69301.39, -0.04588863, -0.24615733, -1459768.8, 259221.31, 0.0001191897, 10.00216, 9.998752 
3.75071e+2, 1.3458999e+2, -1497044.8, -1713359.5, 44962.242, -0.035521306, -0.20914356, -1488071.4, 132926.55, 0.00005856906, 10.001455, 9.998621 
3.7506443e+2, 1.4458822e+2, -1427633.0, -1582954.1, -11947.641, -0.04260906, -0.2662949, -1426719.4, 96295.7, 0.000020069963, 10.001062, 9.999022 
3.7505797e+2, 1.5458713e+2, -1306580.5, -1486527.3, -3546.391, 0.016469395, -0.3007769, -1306510.6, 118513.586, 0.0000038584762, 10.001269, 9.998919 
3.7505123e+2, 1.6458634e+2, -1221120.8, -1442814.5, -6347.688, 0.038742803, -0.24472113, -1220939.3, 106093.86, 0.00000020238203, 10.001402, 9.998474 
3.7504342e+2, 1.7458594e+2, -1098793.3, -1339459.0, -9152.879, -0.067767695, -0.15804192, -1098445.6, 130595.48, 0.0, 10.001595, 9.998422 
3.7503636e+2, 1.8458496e+2, -983537.3, -1175573.8, -25277.3, -0.09277874, -0.118364766, -980265.9, 150785.17, 0.0, 10.001464, 9.998933 
3.7503037e+2, 1.9458309e+2, -951165.0, -1109559.6, 7675.716, 0.0027330455, -0.22856517, -950793.94, 82271.12, 0.0, 10.001016, 9.998932 
3.7502405e+2, 2.0458199e+2, -947953.6, -1126614.9, 3835.7632, 0.05450145, -0.1960239, -947871.3, -12796.084, 0.0, 10.000656, 9.998321 
3.750172e+2, 2.1458167e+2, -899760.06, -1054669.3, -19084.242, 0.03494212, -0.08404262, -897443.6, -60361.242, 0.0, 10.000328, 9.998296 
3.750109e+2, 2.2458035e+2, -779479.9, -835166.1, 4139.005, 0.0147031015, -0.08745684, -779173.94, -40078.875, 0.0, 9.9999895, 9.999301 
3.7500522e+2, 2.3457776e+2, -745214.5, -763093.94, 31519.248, -0.012447734, -0.30924943, -721391.75, -80276.39, 0.0, 9.999532, 9.999343 
3.749996e+2, 2.4457686e+2, -654147.06, -696520.94, 27299.004, -0.034412295, -0.31689683, -640777.9, -97655.375, 0.0, 9.999608, 9.99909 
3.7499374e+2, 2.5457773e+2, -474589.25, -562246.56, 35267.184, -0.07062564, -0.16304113, -462162.0, -17045.533, 0.0, 10.000181, 9.999061 
3.7498763e+2, 2.645772e+2, -347467.34, -436626.3, 17016.176, -0.10384266, -0.121803455, -344330.16, 2791.7754, 0.0, 10.000347, 9.999158 
3.7498122e+2, 2.7457476e+2, -312119.3, -370795.8, 58390.29, -0.13728409, -0.30844548, -276111.13, -26967.514, 0.0, 9.999913, 9.999152 
3.7497547e+2, 2.8457332e+2, -269838.7, -421906.1, 29190.35, -0.09307419, -0.31437317, -264427.94, -113268.79, 0.00000003400916, 10.000052, 9.998066 
3.7497047e+2, 2.945731e+2, -92013.34, -297824.9, -8556.365, 0.042846672, -0.16764912, -91658.24, -38491.953, 0.000000899484, 10.000644, 9.997963 
3.749642e+2, 3.0457345e+2, 4333.6646, 18880.813, -77477.45, 0.09885377, -0.02360222, 89425.37, 89425.37, 0.000005766145, 9.999944, 10.000145 
3.7495336e+2, 3.145726e+2, -343416.94, -113201.8, 74853.97, -0.23302665, -0.16073036, -91003.62, -91003.62, 0.000023929499, 9.997345, 10.000491 
3.850793e+2, 1.24598466e+2, -1690799.1, -1842178.9, 473.19043, 0.058655873, -0.219234, -1690797.6, 28117.03, 0.00012316402, 10.00069, 9.998772 
3.8507193e+2, 1.3459754e+2, -1447558.3, -1662850.5, 99390.26, -0.087007925, -0.23068841, -1408691.1, 212232.13, 0.000061385945, 10.001671, 9.998871 
3.8506606e+2, 1.4459562e+2, -1336645.3, -1566447.9, 56239.977, -0.012689808, -0.30175662, -1323619.9, 199321.75, 0.000022093489, 10.001804, 9.998776 
3.8505974e+2, 1.5459467e+2, -1379153.1, -1549464.8, 19539.209, 0.09732165, -0.2956357, -1376940.3, 48010.65, 0.000004863891, 10.000902, 9.998657 
3.85053e+2, 1.6459367e+2, -1331636.0, -1504339.9, 64987.406, 0.122412615, -0.24645928, -1309913.9, 17048.299, 0.00000029520132, 10.000655, 9.998423 
3.85045e+2, 1.7459264e+2, -1170717.8, -1378560.4, 67717.7, -0.042342555, -0.21913111, -1150601.4, 78373.46, 0.0, 10.0011, 9.998397 
3.8503778e+2, 1.8459153e+2, -983441.1, -1164890.8, 52826.28, -0.08878137, -0.19660431, -969182.06, 161803.05, 0.0, 10.001412, 9.999035 
3.850319e+2, 1.9458999e+2, -866376.8, -1061858.9, 24838.133, 0.039139237, -0.28557405, -863270.25, 169725.53, 0.0, 10.00155, 9.999011 
3.8502547e+2, 2.04589e+2, -853161.7, -1136022.5, 33412.58, 0.09364788, -0.22421432, -849268.44, 85737.52, 0.0, 10.00155, 9.997825 
3.8501808e+2, 2.1458851e+2, -783546.8, -1061728.4, 18342.703, 0.04594479, -0.074999705, -782342.56, 54674.51, 0.0, 10.001386, 9.997746 
3.8501152e+2, 2.2458708e+2, -622006.06, -777324.0, 56768.68, 0.027759248, -0.05250899, -603469.4, 135562.55, 0.0, 10.001165, 9.99912 
3.8500595e+2, 2.3458447e+2, -554267.7, -689555.1, 18194.033, 0.04227196, -0.2607866, -551863.56, 89188.836, 0.0, 10.000934, 9.999165 
3.8500008e+2, 2.4458335e+2, -522884.66, -619550.06, 26526.754, 0.019048207, -0.28630295, -516083.72, 26977.28, 0.0, 10.000467, 9.999191 
3.8499373e+2, 2.545838e+2, -521685.8, -576282.4, 26116.783, -0.061232973, -0.18522401, -511204.72, -66147.125, 0.0, 9.999821, 9.999134 
3.849876e+2, 2.6458326e+2, -437337.6, -454856.13, 13130.22, -0.10313782, -0.16082154, -430313.1, -83250.84, 0.0, 9.999618, 9.999389 
3.8498163e+2, 2.7458137e+2, -292633.6, -331183.25, -12389.052, -0.084086485, -0.31973454, -288995.38, -39917.473, 0.0, 9.999924, 9.999417 
3.84976e+2, 2.845803e+2, -300422.2, -410611.97, 11903.339, -0.019917399, -0.31080487, -299151.0, -148060.83, 0.000000026095549, 9.999736, 9.998296 
3.8497072e+2, 2.9458028e+2, -331024.56, -388339.44, 76674.305, 0.100239165, -0.16577074, -277827.28, -224729.77, 0.00000066980994, 9.998907, 9.998174 
3.8496342e+2, 3.0458134e+2, -185518.67, -60125.69, 22869.22, 0.10496154, 0.03173771, -56085.004, -56085.004, 0.000005131084, 9.998578, 10.000254 
3.8495177e+2, 3.145812e+2, -105667.58, 81913.21, 69598.91, -0.17858824, -0.055745065, 104915.99, 104915.99, 0.000023471404, 9.998633, 10.001202 
3.9508128e+2, 1.246079e+2, -1683433.8, -1809110.6, 5309.6904, 0.12760879, -0.09616144, -1683209.8, 35613.953, 0.0001272644, 10.000646, 9.999015 
3.950737e+2, 1.3460633e+2, -1422454.4, -1598710.0, 146649.89, -0.10543891, -0.21121787, -1339489.5, 281346.9, 0.00006380605, 10.001646, 9.999316 
3.9506856e+2, 1.4460453e+2, -1374733.5, -1641813.3, 11237.4795, 0.022769675, -0.26991236, -1374261.6, 148592.64, 0.000023677207, 10.00177, 9.998284 
3.950601e+2, 1.5460396e+2, -1410435.9, -1622066.6, -4137.3267, 0.01003039, -0.17912304, -1410355.0, 14508.172, 0.000005569423, 10.000926, 9.998151 
3.950531e+2, 1.6460258e+2, -1316838.1, -1460783.4, 64849.184, 0.0386138, -0.15484357, -1291932.1, 34945.383, 0.00000035120044, 10.000609, 9.998742 
3.9504692e+2, 1.7460042e+2, -1152849.0, -1326710.4, 94420.695, 0.01301899, -0.2757985, -1111435.6, 117460.94, 0.0, 10.001045, 9.998778 
3.9504012e+2, 1.8459886e+2, -1022670.75, -1227217.5, 48015.535, -0.016799403, -0.29802534, -1011960.4, 118949.39, 0.0, 10.001325, 9.998654 
3.9503318e+2, 1.9459778e+2, -907593.6, -1123223.0, 40059.465, -0.017544523, -0.2970743, -900391.94, 132526.77, 0.0, 10.001451, 9.998635 
3.9502636e+2, 2.045962e+2, -879165.4, -1163317.8, 16382.378, 0.007688273, -0.26668546, -878224.0, 56711.152, 0.0, 10.001433, 9.997694 
3.9501953e+2, 2.1459402e+2, -813899.8, -1086708.6, 25120.342, 0.032139126, -0.27738082, -811606.06, 25354.873, 0.0, 10.001229, 9.997646 
3.9501294e+2, 2.2459264e+2, -690188.25, -891356.2, 39193.84, 0.0297891, -0.21291114, -682821.75, 56154.87, 0.0, 10.001044, 9.998398 
3.9500657e+2, 2.3459192e+2, -627518.9, -808682.0, 21103.139, -0.012859, -0.15136091, -625093.06, 15889.989, 0.0, 10.000795, 9.998413 
3.950001e+2, 2.4459086e+2, -515600.56, -590855.6, -7424.047, -0.052624892, -0.14255469, -514875.16, 28116.873, 0.0, 10.000403, 9.999425 
3.9499357e+2, 2.5458923e+2, -514026.34, -540987.4, 12363.258, -0.087844126, -0.2770626, -509215.5, -64210.023, 0.0, 9.999731, 9.999425 
3.9498797e+2, 2.645885e+2, -468705.4, -507267.66, 14340.817, -0.046091214, -0.270642, -463956.97, -116945.21, 0.0, 9.999559, 9.99906 
3.9498347e+2, 2.7458856e+2, -330071.1, -391863.56, 11180.771, 0.08221507, -0.1938152, -328110.25, -79098.266, 0.0, 9.999842, 9.999045 
3.9497712e+2, 2.845883e+2, -183357.95, -148017.06, -27296.771, 0.09495587, -0.16912787, -133170.47, 17844.168, 0.000000010243951, 9.999666, 10.000127 
3.9496842e+2, 2.9458773e+2, -217343.84, -120628.99, 60764.04, -0.048070062, -0.2702998, -91328.78, -38308.72, 0.0000005130985, 9.998782, 10.000071 
3.9496017e+2, 3.0458805e+2, -246299.98, -181294.19, 20422.271, -0.102682665, -0.20707501, -175410.8, -175410.8, 0.0000059963604, 9.99855, 9.999435 
3.949522e+2, 3.14589e+2, -122214.51, 63902.883, 119388.47, -0.050132092, -0.09188367, 122216.336, 122216.336, 0.000027747768, 9.998565, 10.001111 
4.0508354e+2, 1.24615066e+2, -1424500.3, -1680740.3, -18477.236, 0.21850833, -0.118753225, -1423174.8, 295580.5, 0.0001282802, 10.002374, 9.999079 
4.0507534e+2, 1.3461418e+2, -1557418.9, -1651194.4, 36163.75, -0.041821856, -0.18212485, -1545092.9, 75669.48, 0.00006493345, 10.000648, 9.999447 
4.0507087e+2, 1.4461319e+2, -1574898.0, -1723741.3, -30740.816, 0.15802877, -0.17352521, -1568799.0, -46026.273, 0.00002457309, 10.000341, 9.9984045 
4.050611e+2, 1.546126e+2, -1285846.8, -1551402.0, -26152.285, -0.013140125, -0.09683312, -1283295.8, 141486.13, 0.000005781208, 10.001726, 9.998252 
4.0505397e+2, 1.6461103e+2, -1094889.6, -1354266.1, 67809.08, -0.005348564, -0.09532029, -1078232.0, 248565.66, 0.0000003430959, 10.002143, 9.998729 
4.050488e+2, 1.7460853e+2, -1098141.4, -1303524.3, 41214.633, 0.08815226, -0.24707097, -1090179.4, 138639.55, 0.0, 10.001437, 9.998745 
4.0504247e+2, 1.8460701e+2, -1030430.1, -1257659.5, 23215.637, 0.089620575, -0.2536155, -1028082.5, 102750.2, 0.0, 10.001397, 9.998403 
4.050352e+2, 1.946063e+2, -842787.94, -1122471.8, 9662.828, 0.020589046, -0.18665978, -842454.5, 190386.16, 0.0, 10.002033, 9.99836 
4.0502805e+2, 2.046047e+2, -727805.94, -1058294.4, 5151.8164, -0.0043427595, -0.15983793, -727725.6, 207131.9, 0.0, 10.002334, 9.997978 
4.050209e+2, 2.1460192e+2, -650943.3, -978387.8, 19396.338, 0.0051672063, -0.26180044, -649798.4, 187087.73, 0.0, 10.002209, 9.99792 
4.0501425e+2, 2.2460032e+2, -576250.3, -853833.06, 83071.79, 0.018096818, -0.22319463, -553288.9, 185613.55, 0.0, 10.0019045, 9.99824 
4.0500802e+2, 2.3459993e+2, -548033.4, -793439.2, 89448.875, 0.030246284, -0.111141175, -518890.6, 122015.75, 0.0, 10.001433, 9.998213 
4.0500134e+2, 2.4459869e+2, -454785.13, -611405.75, 76622.01, 0.007739243, -0.08912548, -423535.25, 119382.64, 0.0, 10.001033, 9.998981 
4.049941e+2, 2.5459638e+2, -396706.7, -526503.25, 23162.412, -0.04949479, -0.2483774, -392697.16, 52241.44, 0.0, 10.000736, 9.999033 
4.0498802e+2, 2.6459545e+2, -360761.47, -436330.84, 47340.23, -0.026924102, -0.25088295, -337975.7, 8971.134, 0.0, 10.000215, 9.999228 
4.0498316e+2, 2.7459586e+2, -375761.6, -392719.94, 68002.16, 0.0955859, -0.16092764, -315712.0, -66769.12, 0.0, 9.999432, 9.999232 
4.0497634e+2, 2.8459594e+2, -278289.25, -161935.88, 7827.1196, 0.10206276, -0.12773553, -161411.7, -10470.245, 0.0000000008315615, 9.998864, 10.000419 
4.049672e+2, 2.9459548e+2, -221219.19, -84600.96, -47176.42, -0.02884637, -0.2515728, -69893.516, -16948.78, 0.0000007104038, 9.998579, 10.000411 
4.0495828e+2, 3.045949e+2, -256688.19, -212923.2, -78173.875, -0.1404008, -0.28266573, -153626.89, -153626.89, 0.000009515816, 9.998598, 9.9992 
4.0495175e+2, 3.1459582e+2, -119931.33, 50705.914, 28760.777, 0.057503477, -0.1398126, 55423.117, 55423.117, 0.000039448827, 9.998624, 10.001 
4.1508538e+2, 1.2461985e+2, -1415452.0, -1675721.4, -75325.26, 0.1039408, -0.2906984, -1395224.0, 323486.53, 0.0001259659, 10.002422, 9.999087 
4.150765e+2, 1.3462122e+2, -1547710.3, -1652292.0, -22216.797, -0.021209897, -0.13218781, -1543186.4, 77512.914, 0.00006410072, 10.000719, 9.999406 
4.1507262e+2, 1.4462163e+2, -1526998.3, -1620002.3, 5990.9976, 0.26751998, -0.014368552, -1526613.9, -3917.5054, 0.00002430965, 10.000335, 9.999118 
4.1506252e+2, 1.5462068e+2, -1235922.9, -1437381.4, 39397.344, -0.07259639, -0.04740314, -1228492.4, 196213.63, 0.0000053776803, 10.001695, 9.999046 
4.150553e+2, 1.646191e+2, -1134431.9, -1420466.8, 32766.328, -0.111911036, -0.0668465, -1130726.4, 195995.22, 0.0000002359893, 10.002072, 9.998308 
4.150504e+2, 1.746171e+2, -1134129.4, -1371929.0, 27304.414, 0.07159875, -0.12511775, -1131034.6, 97706.695, 0.0, 10.00141, 9.998287 
4.150444e+2, 1.8461597e+2, -1047301.6, -1278250.4, 35078.92, 0.1170074, -0.063295156, -1042091.0, 88663.01, 0.0, 10.001337, 9.998289 
4.1503766e+2, 1.946156e+2, -861208.7, -1139804.4, 43066.473, 0.0390085, 0.04386229, -854703.25, 178058.02, 0.0, 10.001951, 9.998274 
4.1503024e+2, 2.0461445e+2, -700573.44, -978620.06, -8648.366, -0.04045858, 0.091299556, -700304.7, 234468.48, 0.0, 10.002225, 9.998584 
4.1502187e+2, 2.1461217e+2, -625789.8, -890232.9, 22900.2, -0.13875367, -0.022064257, -623821.4, 212971.08, 0.0, 10.002056, 9.998598 
4.1501507e+2, 2.2461021e+2, -567577.44, -806729.56, 55124.17, -0.106986344, -0.07333878, -555483.06, 183325.5, 0.0, 10.001777, 9.998629 
4.1501e+2, 2.3460849e+2, -537200.9, -745451.2, 82455.69, 0.06420599, -0.13562106, -508506.66, 132315.69, 0.0, 10.001323, 9.998597 
4.150034e+2, 2.4460685e+2, -538133.6, -769449.5, 56309.496, 0.08584298, -0.122617595, -525154.4, 17683.842, 0.0, 10.000966, 9.997926 
4.1499496e+2, 2.5460514e+2, -487885.16, -695551.0, 22259.68, -0.06264125, -0.11195091, -485525.94, -40667.676, 0.0, 10.000646, 9.997915 
4.1498727e+2, 2.64604e+2, -315678.16, -331609.78, 10088.526, -0.1443592, -0.114134595, -310789.7, 36079.15, 0.0, 10.000173, 9.999964 
4.1498035e+2, 2.7460334e+2, -333525.03, -282719.28, 48683.56, -0.15917799, -0.2105208, -253209.55, -4339.7715, 0.0, 9.999342, 10.000028 
4.1497344e+2, 2.8460324e+2, -361254.25, -340217.72, -15563.329, -0.10327329, -0.17896463, -331951.66, -181081.78, 0.00000000001177225, 9.998873, 9.999198 
4.1496658e+2, 2.946035e+2, -320785.72, -277874.2, -46583.56, 0.0183626, -0.101961695, -248042.75, -195171.03, 0.0000013022876, 9.998508, 9.999125 
4.149573e+2, 3.046019e+2, -230675.7, -151883.63, -79514.195, -0.122256085, -0.18768516, -102540.98, -102540.98, 0.000014575742, 9.998575, 9.999626 
4.1494977e+2, 3.14602e+2, -137363.4, 36608.117, 33084.0, -0.05804893, -0.17958544, 42687.242, 42687.242, 0.000055427667, 9.998533, 10.000946 
4.2508796e+2, 1.2462783e+2, -1437691.6, -1707113.1, 27965.43, 0.13131474, -0.22924876, -1434819.5, 283816.06, 0.000120138786, 10.002349, 9.998904 
4.2507723e+2, 1.3462856e+2, -1438367.6, -1639683.1, -35656.29, -0.056939732, -0.10499146, -1432238.9, 188391.88, 0.00006079175, 10.00163, 9.999052 
4.2507383e+2, 1.4462893e+2, -1353882.4, -1496782.8, 65722.164, 0.3095653, 0.008335643, -1328252.5, 194375.38, 0.00002257458, 10.001348, 9.999476 
4.2506462e+2, 1.5462781e+2, -1250135.8, -1400510.9, 41194.926, -0.007992287, -0.08230932, -1239590.0, 185047.58, 0.0000044461326, 10.00141, 9.999437 
4.250575e+2, 1.6462658e+2, -1209773.5, -1452716.0, 25841.512, -0.06514594, -0.08780496, -1207055.3, 119594.41, 0.00000009724189, 10.001542, 9.998339 
4.2505178e+2, 1.7462535e+2, -1089343.0, -1349025.8, 34554.223, 0.065210745, -0.06993037, -1084823.8, 143839.56, 0.0, 10.001709, 9.998303 
4.250456e+2, 1.846244e+2, -1014663.06, -1244294.4, 98469.234, 0.10347079, 0.0007669139, -978221.25, 152453.34, 0.0, 10.001479, 9.998459 
4.2503923e+2, 1.9462347e+2, -1021087.94, -1201205.1, 106318.62, 0.067122884, 0.037931964, -971811.7, 60874.176, 0.0, 10.000773, 9.998426 
4.2503226e+2, 2.0462228e+2, -904214.2, -1058980.5, 80294.98, 0.0203611, 0.06576922, -870083.06, 64614.313, 0.0, 10.000756, 9.998734 
4.2502442e+2, 2.1462059e+2, -701158.8, -912955.1, 53549.094, -0.054637276, -0.00291385, -688389.7, 148321.23, 0.0, 10.001483, 9.998718 
4.2501754e+2, 2.2461882e+2, -566381.5, -793498.44, 49483.508, -0.029629448, -0.047278665, -556068.44, 182656.89, 0.0, 10.001741, 9.998728 
4.2501172e+2, 2.346169e+2, -514087.84, -720139.6, 29502.48, 0.10245892, -0.13675104, -509946.88, 130794.445, 0.0, 10.001433, 9.998711 
4.250047e+2, 2.4461538e+2, -500918.3, -738775.1, 57424.3, 0.115971446, -0.12440021, -487780.38, 54975.5, 0.0, 10.001169, 9.998042 
4.2499635e+2, 2.5461403e+2, -426816.53, -656329.56, 96033.56, -0.0015099443, -0.08696158, -391935.16, 52835.92, 0.0, 10.001016, 9.998012 
4.2498806e+2, 2.6461276e+2, -269890.94, -343094.1, 94204.195, -0.09695141, -0.09006797, -205427.67, 141354.89, 0.0, 10.00063, 9.999674 
4.2497993e+2, 2.7461144e+2, -265170.94, -282891.2, 29302.074, -0.1565183, -0.21916719, -243418.77, 5372.1704, 0.0, 9.999953, 9.99974 
4.249726e+2, 2.8461105e+2, -297052.3, -350742.72, -7693.13, -0.10399329, -0.18153837, -295971.72, -145177.3, 0.0000000012455732, 9.999517, 9.998802 
4.2496616e+2, 2.9461142e+2, -213478.53, -269821.72, 5874.051, 0.08475754, -0.050571922, -212872.64, -160076.88, 0.0000019825331, 9.999443, 9.998728 
4.2495656e+2, 3.0460978e+2, -88153.19, -74619.5, 29942.19, -0.089804046, -0.12736037, -50689.03, -50689.03, 0.000019679212, 9.999517, 9.9997015 
4.2494926e+2, 3.1460923e+2, -24240.943, 59902.28, 26447.959, 0.0050924597, -0.19225891, 67524.88, 67524.88, 0.00007104561, 9.999441, 10.000663 
4.3509057e+2, 1.24638945e+2, -1476872.0, -1764196.8, 43238.14, 0.10204895, 0.04664693, -1470506.4, 248024.52, 0.000112459136, 10.002281, 9.998535 
4.3507737e+2, 1.3463633e+2, -1483312.8, -1727122.1, -48741.57, -0.24033168, -0.10285292, -1473929.6, 146626.61, 0.000055857796, 10.001624, 9.998451 
4.350741e+2, 1.4463507e+2, -1363349.6, -1510702.4, 59750.21, 0.16926478, -0.11302197, -1342166.6, 180400.98, 0.000019900395, 10.001313, 9.999402 
4.3506703e+2, 1.5463397e+2, -1245865.0, -1401668.0, 57558.32, 0.056601968, -0.19810708, -1226907.8, 197668.88, 0.0000034951138, 10.001438, 9.999421 
4.3506014e+2, 1.6463338e+2, -1185125.6, -1383582.1, 21861.686, 0.018986661, -0.16623808, -1182745.9, 143836.67, 0.000000032016867, 10.001474, 9.998841 
4.3505272e+2, 1.7463331e+2, -1061564.1, -1276289.9, 52029.223, -0.037798177, -0.080847934, -1049621.4, 178963.42, 0.0, 10.001652, 9.998826 
4.3504572e+2, 1.8463233e+2, -997998.8, -1189447.9, 63205.887, -0.056584045, -0.062414214, -979014.25, 151580.08, 0.0, 10.001392, 9.9988785 
4.350396e+2, 1.9463004e+2, -1003489.4, -1143809.3, 92079.63, 0.0026805548, -0.20375183, -957886.3, 74727.68, 0.0, 10.000688, 9.998861 
4.3503383e+2, 2.0462836e+2, -945894.0, -1119748.3, 95464.12, 0.07700611, -0.22952168, -903709.8, 30919.36, 0.0, 10.000645, 9.998371 
4.3502814e+2, 2.146272e+2, -747166.44, -979980.75, 91208.73, 0.14606838, -0.2050142, -715689.7, 120951.24, 0.0, 10.001362, 9.998315 
4.3502122e+2, 2.2462624e+2, -604504.3, -840722.7, 29558.725, 0.14099373, -0.13702664, -600861.7, 137789.9, 0.0, 10.001603, 9.998471 
4.350128e+2, 2.3462522e+2, -548651.2, -763427.56, 27766.26, 0.044645056, -0.11349333, -545119.6, 95543.47, 0.0, 10.001308, 9.998474 
4.35005e+2, 2.4462424e+2, -426043.97, -566851.75, 40695.086, 0.008461291, -0.091899954, -415128.75, 127542.23, 0.0, 10.001098, 9.999255 
4.349979e+2, 2.5462312e+2, -351235.63, -477497.13, 100798.89, 0.027953597, -0.16042694, -295429.8, 149246.2, 0.0, 10.000924, 9.999281 
4.3499008e+2, 2.6462185e+2, -363882.25, -533102.6, 61264.78, 0.019956615, -0.16711988, -344030.7, 2656.125, 0.0, 10.000604, 9.998383 
4.349815e+2, 2.7462018e+2, -372345.66, -490308.72, 15891.549, -0.022128632, -0.19310227, -370242.3, -121536.21, 0.0, 9.99988, 9.998353 
4.3497324e+2, 2.8461942e+2, -279773.1, -299493.1, -19790.617, -0.014187962, -0.14247583, -267522.28, -116806.86, 0.000000012355592, 9.999465, 9.999172 
4.3496564e+2, 2.946194e+2, -197123.05, -216176.33, 19421.797, 0.0577969, -0.094748504, -185017.23, -132301.36, 0.0000027662056, 9.99937, 9.999126 
4.3495575e+2, 3.0461857e+2, -106088.67, -120459.734, 22948.725, -0.14738347, -0.0965038, -89226.836, -89226.836, 0.000024180765, 9.999539, 9.999382 
4.3494946e+2, 3.1461746e+2, -84835.95, -47724.395, 4474.7544, 0.02359826, -0.17617336, -47192.47, -47192.47, 0.00008333817, 9.999356, 9.99997 
4.450934e+2, 1.2464744e+2, -1503759.6, -1742289.9, 86587.77, 0.18497677, 0.10361937, -1475642.3, 242805.9, 0.00010599228, 10.001961, 9.998841 
4.4507906e+2, 1.3464406e+2, -1523280.9, -1735244.6, -72797.695, -0.20380585, -0.12899923, -1500687.3, 119791.7, 0.00005101591, 10.001323, 9.998543 
4.4507518e+2, 1.4464258e+2, -1423840.5, -1547731.0, 119445.9, 0.17720278, -0.16266707, -1351232.8, 171259.5, 0.000017295639, 10.000928, 9.999331 
4.4506833e+2, 1.5464209e+2, -1357223.3, -1458555.9, 87241.12, 0.08941416, -0.18528683, -1307003.1, 117493.836, 0.0000027656245, 10.00069, 9.999386 
4.4506168e+2, 1.6464184e+2, -1256220.9, -1382793.9, 86608.91, 0.06427623, -0.13267723, -1212240.0, 114259.67, 0.000000035556127, 10.00081, 9.999183 
4.450544e+2, 1.7464182e+2, -1087716.6, -1248533.1, 85799.94, -0.010185536, -0.082624815, -1050536.1, 177964.88, 0.0, 10.00129, 9.999197 
4.450474e+2, 1.8464085e+2, -965803.94, -1167690.3, 75657.49, -0.03284013, -0.081665255, -940598.06, 189911.58, 0.0, 10.001593, 9.998923 
4.4504112e+2, 1.9463855e+2, -868564.56, -1075659.6, 51409.855, 0.046772756, -0.22758117, -856504.75, 176024.73, 0.0, 10.0016, 9.998884 
4.450353e+2, 2.0463689e+2, -833954.06, -1052036.8, 93223.08, 0.13229024, -0.2583367, -799536.2, 135008.22, 0.0, 10.001379, 9.99847 
4.4502985e+2, 2.1463576e+2, -811306.5, -997686.0, 104522.05, 0.20996024, -0.24004723, -764463.44, 72091.86, 0.0, 10.000879, 9.998419 
4.4502285e+2, 2.2463486e+2, -739439.75, -934050.9, 81106.25, 0.19321732, -0.15932909, -710070.2, 28495.871, 0.0, 10.000783, 9.99823 
4.450142e+2, 2.3463398e+2, -595408.2, -818957.5, 58254.348, 0.07188444, -0.09513812, -581138.6, 59439.867, 0.0, 10.001113, 9.998194 
4.4500604e+2, 2.4463297e+2, -413789.94, -533754.75, 40637.06, 0.009211088, -0.073640116, -401320.56, 141266.13, 0.0, 10.001063, 9.9994955 
4.4499838e+2, 2.5463164e+2, -388317.72, -466816.66, 2060.7163, 0.009733026, -0.19037977, -388263.66, 56328.11, 0.0, 10.000545, 9.999535 
4.449906e+2, 2.6463035e+2, -440290.4, -616387.44, -24833.2, 0.031815987, -0.1959025, -436855.4, -90252.44, 0.0, 10.000289, 9.997955 
4.449826e+2, 2.7462885e+2, -326029.47, -519096.38, -22223.238, 0.07782102, -0.15791781, -323504.47, -74881.47, 0.0, 10.000429, 9.997885 
4.449741e+2, 2.8462774e+2, -153494.33, -246191.55, -15492.374, 0.08587218, -0.11077271, -150973.64, -337.91833, 0.00000003062236, 10.000343, 9.999125 
4.449655e+2, 2.946269e+2, -128919.75, -177977.8, -34988.94, 0.094890036, -0.14718804, -110718.23, -58076.023, 0.0000032986038, 9.999814, 9.999174 
4.4495544e+2, 3.0462632e+2, -149586.27, -186015.28, -14558.382, -0.11787178, -0.1063977, -144483.08, -144483.08, 0.000027227657, 9.999446, 9.998965 
4.4494876e+2, 3.1462502e+2, -101408.07, -69936.02, -128265.49, 0.032013226, -0.16343877, 43555.113, 43555.113, 0.000091368296, 9.999313, 9.99983 
4.5509562e+2, 1.2465329e+2, -1437003.4, -1603643.5, 107551.58, 0.15151481, -0.06526507, -1384273.6, 334114.3, 0.00010140695, 10.001968, 9.999784 
4.5508188e+2, 1.3465168e+2, -1464228.5, -1626952.5, -87490.82, -0.08417764, -0.19465226, -1426114.9, 194285.2, 0.00004730018, 10.001372, 9.999267 
4.5507675e+2, 1.4465122e+2, -1429918.9, -1550044.0, 103405.125, 0.20613265, -0.16331702, -1370398.3, 152005.92, 0.000015080613, 10.000895, 9.999329 
4.5506826e+2, 1.5465204e+2, -1363435.0, -1466953.9, 91282.86, -0.015182863, -0.047846995, -1310258.3, 114141.19, 0.0000021144335, 10.000679, 9.999332 
4.5506173e+2, 1.6465193e+2, -1242213.6, -1347549.6, 90031.2, -0.03765223, 0.009527715, -1190576.6, 135825.23, 0.00000004449902, 10.000777, 9.999441 
4.5505652e+2, 1.7465076e+2, -1068677.8, -1210977.3, 114602.37, 0.042811573, -0.080293916, -1004935.0, 223477.3, 0.0, 10.00129, 9.999455 
4.5505026e+2, 1.8464991e+2, -1002585.1, -1224333.8, 66457.055, 0.07211477, -0.06416975, -984193.6, 146227.53, 0.0, 10.001512, 9.99857 
4.5504338e+2, 1.946491e+2, -912636.25, -1139206.8, 60646.203, 0.08668321, -0.02607521, -897424.4, 135007.28, 0.0, 10.001488, 9.998496 
4.5503637e+2, 2.046479e+2, -813092.0, -981546.3, 63459.508, 0.07948146, -0.014389671, -791861.5, 142580.97, 0.0, 10.001256, 9.999017 
4.5502913e+2, 2.1464619e+2, -789471.06, -916490.7, 97562.7, 0.032795414, -0.11531642, -736567.94, 99886.46, 0.0, 10.000726, 9.999047 
4.5502225e+2, 2.246447e+2, -774457.1, -979137.3, 83963.22, 0.033435497, -0.1144222, -744421.56, -5953.028, 0.0, 10.000658, 9.997987 
4.5501563e+2, 2.3464325e+2, -628290.94, -864016.0, 83571.73, 0.07808719, -0.08136189, -601668.8, 38818.258, 0.0, 10.001008, 9.997936 
4.5500737e+2, 2.4464162e+2, -482250.5, -648519.0, 12586.966, 0.016929416, -0.07159583, -481303.06, 61200.105, 0.0, 10.000954, 9.998761 
4.5499748e+2, 2.5463957e+2, -455864.1, -579945.94, -6916.672, -0.15897542, -0.1830052, -455479.75, -10960.995, 0.0, 10.000429, 9.998816 
4.5498925e+2, 2.6463813e+2, -424387.63, -568439.5, -29049.477, -0.15160094, -0.18174939, -418750.16, -72218.3, 0.0, 10.000225, 9.998313 
4.5498285e+2, 2.746373e+2, -313249.2, -471720.78, -2691.6948, 0.03676192, -0.12061866, -313203.47, -64660.71, 0.0, 10.000341, 9.998248 
4.549748e+2, 2.846361e+2, -185403.0, -304274.28, -43552.992, 0.096395396, -0.08327278, -171153.78, -20598.615, 0.000000022691747, 10.000303, 9.998748 
4.5496538e+2, 2.94634e+2, -159463.5, -232565.69, -42008.77, 0.07009746, -0.20070253, -140330.48, -87756.69, 0.0000033720132, 9.999762, 9.998833 
4.5495516e+2, 3.0463305e+2, -186755.84, -260347.53, -23002.021, -0.11813109, -0.15983237, -180157.83, -180157.83, 0.000028360193, 9.999439, 9.998454 
4.549467e+2, 3.1463155e+2, -87843.805, -27692.43, -155334.2, -0.1641865, -0.18408743, 100450.914, 100450.914, 0.00009465621, 9.9992485, 10.0001545 
4.6509826e+2, 1.24659844e+2, -1371279.1, -1599208.6, 197122.73, 0.20320778, -0.20869578, -1257548.3, 460770.13, 0.000096649455, 10.002509, 9.999553 
4.6508455e+2, 1.346594e+2, -1406044.9, -1634921.1, -165998.52, 0.03183105, -0.1961537, -1318860.6, 301462.38, 0.00004344866, 10.001895, 9.998968 
4.6507797e+2, 1.4465919e+2, -1350729.8, -1507153.0, 34930.85, 0.22030069, -0.12739109, -1343283.8, 179042.78, 0.000012657647, 10.001411, 9.999376 
4.6506926e+2, 1.5465996e+2, -1296169.4, -1427958.1, 2622.424, 0.0050519267, -0.025368966, -1296117.3, 128204.91, 0.0000014631825, 10.001109, 9.999395 
4.6506268e+2, 1.6465983e+2, -1240344.1, -1321353.4, 38665.71, -0.010773149, 0.014999308, -1224851.8, 101472.516, 0.000000030371112, 10.000706, 9.999645 
4.650577e+2, 1.7465854e+2, -1217427.8, -1259782.9, 35621.777, 0.09322123, -0.1083608, -1197163.8, 31171.4, 0.0, 10.000182, 9.999653 
4.650516e+2, 1.8465793e+2, -1190562.5, -1293819.3, 33774.6, 0.12999949, -0.088318914, -1180496.4, -50154.734, 0.0, 10.000117, 9.998773 
4.6504462e+2, 1.9465782e+2, -1039412.2, -1179576.0, 53797.867, 0.11958192, 0.0017997376, -1021144.3, 11201.721, 0.0, 10.000509, 9.998703 
4.6503744e+2, 2.0465705e+2, -844869.8, -977537.3, 81385.69, 0.086468846, 0.03334084, -806209.3, 128143.86, 0.0, 10.0009365, 9.999205 
4.6502995e+2, 2.1465535e+2, -681127.0, -849106.6, 59768.46, 0.01651669, -0.08295481, -662031.6, 174333.19, 0.0, 10.001388, 9.999201 
4.6502298e+2, 2.2465383e+2, -674467.6, -900790.1, 58623.125, 0.019491194, -0.10485721, -660184.25, 78194.055, 0.0, 10.001238, 9.99823 
4.650165e+2, 2.3465227e+2, -696485.4, -867775.25, 73547.836, 0.10018956, -0.10628568, -669239.44, -28843.531, 0.0, 10.000438, 9.998175 
4.6500838e+2, 2.4465059e+2, -605252.4, -763142.5, 66213.2, 0.06035375, -0.091898896, -581161.0, -38747.42, 0.0, 10.0003395, 9.998271 
4.6499866e+2, 2.5464857e+2, -401648.34, -611031.94, 45690.19, -0.106372386, -0.14992927, -392112.44, 52320.457, 0.0, 10.001047, 9.998302 
4.6499017e+2, 2.6464713e+2, -249039.13, -432391.44, 42197.473, -0.1240854, -0.1442346, -239793.81, 106652.55, 0.0, 10.001185, 9.998795 
4.6498287e+2, 2.7464625e+2, -243296.63, -382174.7, 58476.824, 0.00333171, -0.14325583, -221953.95, 26500.426, 0.0, 10.000561, 9.99877 
4.6497425e+2, 2.846452e+2, -187174.05, -325792.6, 62229.06, 0.016995663, -0.10671395, -163337.03, -12873.189, 0.00000001636591, 10.00038, 9.998566 
4.6496484e+2, 2.9464358e+2, -14530.523, -172511.0, 47791.34, -0.0049974257, -0.15839994, -1198.1221, 51281.316, 0.0000038591365, 10.000806, 9.998737 
4.6495584e+2, 3.046419e+2, -2884.9849, -219542.55, 94750.91, -0.05998193, -0.16387087, 32705.861, 32705.861, 0.000029778155, 10.000889, 9.998057 
4.6494752e+2, 3.1464005e+2, 90757.44, 50388.715, -92754.82, -0.05617695, -0.1771503, 165498.66, 165498.66, 0.00009717631, 10.000512, 10.00009 
4.751006e+2, 1.2466691e+2, -1475414.1, -1780911.9, 186282.44, 0.12310396, -0.33432934, -1387261.8, 330979.66, 0.0000915649, 10.002393, 9.998346 
4.7508678e+2, 1.3466723e+2, -1488225.3, -1796552.9, -176695.92, 0.035201173, -0.13272332, -1407894.0, 212353.6, 0.000038474074, 10.001881, 9.997852 
4.7507855e+2, 1.4466655e+2, -1341207.3, -1490116.0, 13642.016, 0.09844821, -0.058565974, -1339967.8, 182291.2, 0.000009911169, 10.001406, 9.999504 
4.7507092e+2, 1.5466589e+2, -1273696.6, -1395427.0, 2957.216, 0.024797287, -0.11738265, -1273624.9, 150639.73, 0.0000009593812, 10.001153, 9.999606 
4.7506416e+2, 1.6466552e+2, -1237750.3, -1303505.3, 9192.938, 0.03874738, -0.11941847, -1236489.1, 89778.03, 0.000000014696447, 10.000656, 9.999793 
4.7505766e+2, 1.746651e+2, -1212246.5, -1241234.3, 29058.207, 0.04646253, -0.16531196, -1194268.0, 34001.83, 0.0, 10.000153, 9.999796 
4.75051e+2, 1.8466488e+2, -1142795.8, -1179494.0, 39726.754, 0.033146832, -0.15340726, -1117385.3, 12886.09, 0.0, 10.000049, 9.999593 
4.7504458e+2, 1.9466473e+2, -989270.0, -1062224.6, 80625.65, 0.040451467, -0.15015456, -937253.9, 95018.94, 0.0, 10.000447, 9.999543 
4.7503826e+2, 2.046643e+2, -876850.7, -1016439.8, 88597.82, 0.05329306, -0.11561885, -833858.5, 100418.18, 0.0, 10.000824, 9.998989 
4.7503197e+2, 2.1466336e+2, -719611.94, -895732.3, 87928.67, 0.055331, -0.13199626, -683229.1, 153056.1, 0.0, 10.001248, 9.998943 
4.7502473e+2, 2.2466226e+2, -637982.6, -807221.6, 20860.098, 0.04649366, -0.13062172, -635449.4, 102845.5, 0.0, 10.001145, 9.998926 
4.7501647e+2, 2.3466092e+2, -661817.56, -769403.25, 54609.63, 0.032008253, -0.18389608, -638956.06, 1350.443, 0.0, 10.000315, 9.998916 
4.7500873e+2, 2.4465975e+2, -633915.7, -802786.75, 82353.664, 0.033972636, -0.1459696, -600404.25, -58085.05, 0.0, 10.000252, 9.998041 
4.750016e+2, 2.5465855e+2, -437860.34, -666699.44, 84037.06, 0.058863156, -0.0946676, -410314.9, 34020.348, 0.0, 10.000953, 9.99797 
4.7499302e+2, 2.6465726e+2, -214137.48, -340186.16, 12400.665, 0.01746432, -0.08920861, -212929.1, 133418.44, 0.0, 10.001108, 9.999461 
4.749823e+2, 2.746556e+2, -205378.4, -283122.2, 47685.32, -0.1375113, -0.22903168, -182728.64, 65629.164, 0.0, 10.0004835, 9.999483 
4.7497216e+2, 2.84655e+2, -191522.44, -333936.2, 64856.53, -0.25624338, -0.18512107, -166413.22, -16051.326, 0.0000000367379, 10.000369, 9.998517 
4.7496346e+2, 2.9465535e+2, -32055.584, -190690.52, 74902.34, -0.2518527, -0.033024255, -2278.4956, 50082.633, 0.000004901276, 10.000711, 9.998665 
4.7495705e+2, 3.0465275e+2, -29616.955, -258833.67, 70684.055, -0.04406829, -0.12238459, -9572.756, -9572.756, 0.000032907166, 10.000826, 9.997814 
4.7495055e+2, 3.1465024e+2, 52555.33, -20750.945, -73678.51, 0.1405072, -0.16417105, 98194.195, 98194.195, 0.00010232853, 10.000483, 9.999612 
4.8510253e+2, 1.246752e+2, -1680227.9, -1895465.0, 193253.64, 0.15896326, -0.29698673, -1566648.0, 151511.56, 0.00008664265, 10.001041, 9.998223 
4.8508912e+2, 1.3467531e+2, -1592360.1, -1850964.0, -154898.81, 0.1274061, -0.11169244, -1519888.3, 100280.11, 0.000032757685, 10.001167, 9.997838 
4.8507905e+2, 1.4467421e+2, -1390083.3, -1509559.4, 106523.36, 0.03139822, -0.08050627, -1327690.8, 194492.63, 0.000007215262, 10.001066, 9.999526 
4.8507217e+2, 1.5467313e+2, -1323482.1, -1419995.6, 52783.805, 0.059560437, -0.1820328, -1300220.8, 123971.2, 0.00000059770906, 10.000825, 9.99959 
4.850654e+2, 1.646728e+2, -1219894.0, -1297693.0, 72462.05, 0.10091254, -0.17652874, -1176550.5, 149642.95, 0.0000000048834687, 10.000788, 9.999771 
4.8505825e+2, 1.7467302e+2, -1099201.5, -1185485.6, 63652.93, 0.05836331, -0.15907076, -1065448.0, 162742.28, 0.0, 10.000935, 9.999793 
4.8505124e+2, 1.8467289e+2, -1025428.4, -1097177.6, 69836.41, 0.02605529, -0.14978558, -982791.1, 147399.17, 0.0, 10.000749, 9.999815 
4.8504484e+2, 1.9467223e+2, -1021828.5, -1046670.6, 47333.586, 0.043930452, -0.22580917, -985313.4, 46881.875, 0.0, 10.000104, 9.999804 
4.850388e+2, 2.0467174e+2, -1009143.1, -1092496.3, 77005.88, 0.07087272, -0.20613408, -963259.2, -29059.219, 0.0, 9.999965, 9.998887 
4.8503324e+2, 2.1467118e+2, -862205.9, -973156.2, 74677.37, 0.109387904, -0.17476258, -824653.06, 11554.008, 0.0, 10.000307, 9.998868 
4.8502597e+2, 2.2467045e+2, -714842.06, -809407.56, -12062.876, 0.0943484, -0.14753568, -713327.56, 24886.393, 0.0, 10.000472, 9.999235 
4.850167e+2, 2.3466939e+2, -618773.06, -714678.2, -30627.926, 0.021913247, -0.20354429, -609826.44, 30395.98, 0.0, 10.000457, 9.999224 
4.8500884e+2, 2.4466854e+2, -587933.56, -744568.75, 49637.805, 0.021921111, -0.16364345, -573528.1, -31296.824, 0.0, 10.000408, 9.998367 
4.850028e+2, 2.5466785e+2, -512761.22, -662533.44, 76176.195, 0.11892584, -0.094981536, -480826.25, -36584.234, 0.0, 10.000272, 9.998323 
4.8499435e+2, 2.6466665e+2, -346201.53, -419965.44, 2528.248, 0.08964519, -0.09040323, -346114.97, 138.64566, 0.0, 10.000271, 9.999313 
4.8498306e+2, 2.746646e+2, -221087.34, -309279.6, -47882.973, -0.1036773, -0.25627723, -200089.33, 48180.098, 0.0, 10.000452, 9.999318 
4.8497263e+2, 2.8466395e+2, -172897.08, -303453.34, -23555.602, -0.24286363, -0.21860161, -168777.08, -18502.492, 0.00000008825205, 10.000405, 9.998705 
4.8496404e+2, 2.9466498e+2, -117147.71, -209846.84, -21804.37, -0.22403277, -0.020516617, -112275.086, -60008.31, 0.0000056092463, 10.000035, 9.998855 
4.849584e+2, 3.0466238e+2, -124874.7, -239748.67, 40307.703, 0.06648803, -0.14363793, -112142.48, -112142.48, 0.000035389916, 9.999896, 9.998381 
4.849514e+2, 3.1466046e+2, 20344.46, -17005.201, -59929.36, 0.20684768, -0.18566906, 64441.258, 64441.258, 0.00010599746, 10.0001745, 9.999781 
4.9510327e+2, 1.2468467e+2, -1613124.5, -1762913.0, 149917.7, 0.060780987, -0.09873354, -1520434.6, 197638.47, 0.000079155536, 10.00107, 9.999118 
4.9509105e+2, 1.3468362e+2, -1511825.3, -1692109.1, -142161.5, 0.17889644, -0.13684243, -1433635.8, 186449.5, 0.000026309019, 10.001196, 9.998913 
4.9507904e+2, 1.4468215e+2, -1408935.8, -1539026.0, 85643.18, -0.106008194, -0.18956298, -1366437.4, 155662.84, 0.0000047383246, 10.001026, 9.999343 
4.950727e+2, 1.5468162e+2, -1340346.9, -1455895.5, 54045.82, -0.0007067772, -0.21356054, -1319008.5, 105096.02, 0.0000002991547, 10.00083, 9.999341 
4.9506617e+2, 1.6468166e+2, -1232459.6, -1317335.1, 65691.79, 0.07265421, -0.15341648, -1196690.1, 129413.27, 0.0000000005507737, 10.000753, 9.999658 
4.950592e+2, 1.7468219e+2, -1108534.3, -1202065.8, 78161.55, 0.033627294, -0.092452586, -1064216.1, 163881.3, 0.0, 10.000917, 9.999691 
4.950521e+2, 1.8468185e+2, -1059229.8, -1148904.1, 36431.082, 0.010556349, -0.08361935, -1046295.0, 83804.89, 0.0, 10.000671, 9.9994955 
4.95045e+2, 1.9468023e+2, -1054024.9, -1100064.1, 31196.186, 0.025015257, -0.22242272, -1038274.56, -6160.27, 0.0, 10.000039, 9.999471 
4.950387e+2, 2.0467925e+2, -1013987.9, -1079451.6, 77744.35, 0.04638759, -0.24091849, -962366.0, -28242.117, 0.0, 9.999861, 9.99903 
4.950334e+2, 2.1467884e+2, -868488.7, -962531.5, 97820.305, 0.076632276, -0.20845741, -806975.2, 29154.432, 0.0, 10.000194, 9.999002 
4.950262e+2, 2.2467831e+2, -744028.8, -838066.75, -20476.182, 0.054598458, -0.16201997, -739763.7, -1627.4259, 0.0, 10.000341, 9.999098 
4.950168e+2, 2.3467754e+2, -649125.56, -743196.75, -19446.293, -0.037011616, -0.17559421, -645264.2, -5119.028, 0.0, 10.000313, 9.999094 
4.9500853e+2, 2.4467698e+2, -535701.94, -615142.44, 35825.098, -0.07559888, -0.14840347, -521932.63, 20217.873, 0.0, 10.000321, 9.999298 
4.9500167e+2, 2.5467637e+2, -457066.16, -528109.6, 82480.33, -0.04439167, -0.16210143, -402783.66, 41370.547, 0.0, 10.00019, 9.999286 
4.949939e+2, 2.6467523e+2, -423436.13, -563393.0, -2728.4453, -0.007564691, -0.15615818, -423382.97, -77216.99, 0.0, 10.000204, 9.998359 
4.9498472e+2, 2.7467316e+2, -312324.06, -466734.06, -29335.201, -0.007752677, -0.22435199, -306938.7, -58749.074, 0.0, 10.000324, 9.998294 
4.949752e+2, 2.8467214e+2, -151649.23, -241317.53, -44196.656, -0.049606413, -0.1919482, -133527.48, 16672.928, 0.00000018947561, 10.000333, 9.999165 
4.9496624e+2, 2.946724e+2, -91336.2, -145211.83, -22563.057, -0.03927402, -0.117668584, -83135.19, -30938.86, 0.000005650319, 9.999993, 9.999315 
4.949597e+2, 3.0467078e+2, -20165.861, -33309.516, 40948.285, 0.17830788, -0.23586962, 14734.604, 14734.604, 0.00003451672, 9.999925, 9.999794 
4.9494913e+2, 3.146709e+2, 68736.02, 95785.125, 2147.4502, -0.09900863, -0.22644503, 95954.555, 95954.555, 0.00010176044, 10.000111, 10.000589 
5.0510335e+2, 1.2469267e+2, -1768895.0, -1755653.9, 166269.19, 0.044689853, -0.044305313, -1595873.5, 122124.664, 0.00006651573, 9.999678, 9.99983 
5.050935e+2, 1.3469146e+2, -1423379.8, -1565914.3, -148233.2, 0.3097769, -0.17033781, -1330171.8, 289835.97, 0.00001955312, 10.001448, 9.999663 
5.050803e+2, 1.4469022e+2, -1293337.1, -1508445.3, 41039.586, -0.124421865, -0.22826278, -1285773.4, 236245.67, 0.0000028130235, 10.001949, 9.999102 
5.0507385e+2, 1.5469e+2, -1315135.5, -1473505.1, -26347.14, 0.02353786, -0.18833147, -1310867.4, 113154.17, 0.00000011765629, 10.001155, 9.999055 
5.050671e+2, 1.6468987e+2, -1257573.0, -1311397.3, 27431.846, 0.11147883, -0.14010067, -1246056.4, 79965.41, 0.000000000026416515, 10.000493, 9.999822 
5.050599e+2, 1.746896e+2, -1244508.6, -1251889.5, 40639.313, 0.06846601, -0.1756014, -1207392.5, 20628.846, 0.0, 9.9999, 9.999844 
5.0505257e+2, 1.8468909e+2, -1171304.8, -1220687.0, 48437.668, 0.033826467, -0.18382289, -1141628.1, -11603.098, 0.0, 9.999986, 9.999332 
5.050454e+2, 1.9468805e+2, -951561.9, -1067385.5, 37091.445, 0.02898902, -0.24476711, -940701.94, 91333.19, 0.0, 10.000832, 9.999307 
5.050389e+2, 2.0468737e+2, -834839.1, -962996.44, 97774.805, 0.033603117, -0.23606879, -782016.2, 152025.97, 0.0, 10.000969, 9.999289 
5.050334e+2, 2.1468699e+2, -857166.7, -924779.06, 102026.305, 0.058068734, -0.22765616, -783491.6, 52555.6, 0.0, 10.000153, 9.999272 
5.050263e+2, 2.2468658e+2, -818302.44, -882366.6, 25095.766, 0.05799888, -0.17981902, -809642.3, -71588.69, 0.0, 9.999857, 9.999033 
5.0501764e+2, 2.3468599e+2, -690521.7, -769943.9, 11296.95, 0.032881908, -0.16726165, -688946.06, -48883.156, 0.0, 10.000061, 9.999031 
5.050092e+2, 2.4468552e+2, -528526.75, -553038.4, 68640.91, -0.024064986, -0.15331337, -471056.13, 71011.05, 0.0, 10.00012, 9.999819 
5.050012e+2, 2.546849e+2, -434146.13, -455784.84, 63996.582, -0.098157115, -0.22389615, -380060.78, 64007.39, 0.0, 10.000088, 9.99983 
5.049936e+2, 2.646842e+2, -443843.6, -588037.3, 21615.994, -0.047792874, -0.1969523, -440672.88, -94596.99, 0.0, 10.000124, 9.998237 
5.04986e+2, 2.7468315e+2, -350392.72, -504660.66, 32372.186, 0.10847743, -0.14819118, -343874.97, -95781.414, 0.00000000061010413, 10.000138, 9.998131 
5.0497687e+2, 2.8468207e+2, -179864.39, -262495.5, 47777.25, 0.10237125, -0.10837196, -158016.34, -7910.239, 0.00000027597625, 10.000173, 9.999099 
5.049668e+2, 2.9468113e+2, -68382.445, -147844.31, -371.74344, 0.012426453, -0.1438349, -68380.71, -16268.7295, 0.0000049916057, 10.000213, 9.999197 
5.0496e+2, 3.0467936e+2, 15519.457, -2948.8108, 21859.41, 0.21563216, -0.27256304, 30015.117, 30015.117, 0.000030276777, 10.000127, 9.999902 
5.049491e+2, 3.1467986e+2, 40088.664, 89245.71, -124614.43, -0.09460679, -0.24311413, 191682.38, 191682.38, 0.000090633286, 9.999897, 10.000645 
5.151019e+2, 1.2469924e+2, -1736432.0, -1688256.0, 128941.19, -0.12557358, -0.12958606, -1581172.1, 136762.7, 0.00005196835, 9.999676, 10.00029 
5.1509637e+2, 1.3469891e+2, -1385900.8, -1501000.0, -66241.72, 0.4167196, -0.21703883, -1355701.3, 264233.88, 0.000013925394, 10.001498, 10.000084 
5.150824e+2, 1.446984e+2, -1318789.8, -1562388.6, 781.9751, -0.14065412, -0.20232202, -1318787.3, 203152.2, 0.000001645238, 10.001949, 9.998734 
5.1507527e+2, 1.5469824e+2, -1343368.9, -1530621.8, -43119.234, 0.023414755, -0.119214445, -1333916.8, 90026.47, 0.00000003629146, 10.001146, 9.99867 
5.150679e+2, 1.6469736e+2, -1240519.4, -1257754.5, -2335.399, 0.10942529, -0.14546879, -1240208.5, 85740.9, 0.0, 10.00042, 10.000219 
5.1505995e+2, 1.7469534e+2, -1220330.4, -1193572.1, 28976.441, 0.052957803, -0.40269062, -1175035.1, 52926.207, 0.0, 9.999871, 10.000252 
5.150524e+2, 1.846948e+2, -1178207.0, -1224825.8, 67405.125, -0.010336111, -0.43482187, -1130194.8, -230.95494, 0.0, 9.999938, 9.999326 
5.150457e+2, 1.9469571e+2, -958576.56, -1074908.1, 80112.984, -0.05322884, -0.29993042, -917740.6, 114216.83, 0.0, 10.000789, 9.999279 
5.1503915e+2, 2.0469601e+2, -835855.6, -933105.25, 58679.1, -0.066361174, -0.20621106, -808272.75, 125683.27, 0.0, 10.000833, 9.999559 
5.1503265e+2, 2.1469547e+2, -851863.7, -888055.9, 80604.24, -0.047632504, -0.24597962, -787349.2, 48612.555, 0.0, 10.000035, 9.999581 
5.150259e+2, 2.246951e+2, -832500.94, -885552.4, 19633.64, 0.014552512, -0.21258768, -826025.25, -88057.34, 0.0, 9.999741, 9.99907 
5.1501876e+2, 2.3469476e+2, -705752.56, -774941.44, 29393.307, 0.117854826, -0.17670287, -694951.6, -54975.73, 0.0, 9.999946, 9.999054 
5.150104e+2, 2.4469428e+2, -528140.9, -536479.75, 57569.51, 0.06545546, -0.17095631, -474590.03, 67390.72, 0.0, 10.000051, 9.999967 
5.1500094e+2, 2.5469345e+2, -438534.88, -439725.94, 75965.89, -0.16299787, -0.28349078, -363162.2, 80821.71, 0.0, 9.999975, 9.999995 
5.149931e+2, 2.6469353e+2, -407643.63, -496847.8, 12802.065, -0.13742045, -0.2135368, -405842.72, -59859.36, 0.0, 10.000058, 9.998896 
5.1498675e+2, 2.746944e+2, -312056.84, -409523.9, 49019.35, 0.14315613, -0.03447807, -291668.34, -43686.34, 0.0000000018853024, 10.00007, 9.99882 
5.149774e+2, 2.846937e+2, -227694.67, -355996.3, 39486.9, 0.10807361, 0.033752616, -216515.92, -66524.17, 0.00000034894228, 10.000148, 9.998468 
5.149651e+2, 2.9469115e+2, -130935.46, -263177.53, 14047.023, -0.21125886, -0.10173403, -129459.83, -77445.36, 0.000004315403, 10.000144, 9.998438 
5.1495886e+2, 3.046881e+2, -74244.99, -178108.95, 6590.18, 0.059345417, -0.25672442, -73828.516, -73828.516, 0.000026122347, 10.000091, 9.998715 
5.1495075e+2, 3.146869e+2, -37191.152, -39041.445, -57769.12, 0.033901248, -0.2767197, 19660.229, 19660.229, 0.000081293096, 9.999774, 9.999821 
5.2510124e+2, 1.2470684e+2, -1858434.5, -1765913.9, 169866.84, -0.11272463, -0.16865385, -1636120.9, 81737.56, 0.000041741798, 9.998905, 10.000128 
5.250982e+2, 1.3470714e+2, -1476937.0, -1558691.4, -15867.353, 0.48694548, -0.18005852, -1473965.4, 145890.19, 0.000010470756, 10.000933, 9.999953 
5.25084e+2, 1.4470689e+2, -1351028.9, -1549920.3, -14432.8, -0.14777602, -0.14547357, -1349987.0, 171871.34, 0.0000009776196, 10.001598, 9.998992 
5.250767e+2, 1.5470654e+2, -1367793.4, -1512423.6, -37805.875, 0.071890585, -0.11163482, -1358507.3, 65355.316, 0.000000005050013, 10.000835, 9.998946 
5.250689e+2, 1.6470551e+2, -1219279.4, -1295137.6, 53985.324, 0.16550057, -0.14292471, -1191231.0, 134639.23, 0.0, 10.000773, 9.9998 
5.2506065e+2, 1.7470352e+2, -1009351.94, -1141762.8, -2444.6738, 0.06299457, -0.3523228, -1009306.8, 218577.31, 0.0, 10.001533, 9.999813 
5.2505285e+2, 1.847029e+2, -983478.2, -1109740.8, 9217.768, -0.015525439, -0.3754428, -982808.8, 147078.88, 0.0, 10.001184, 9.999522 
5.250458e+2, 1.9470371e+2, -1137219.1, -1132385.8, 14710.742, -0.042422444, -0.2695051, -1119894.5, -88013.62, 0.0, 9.99946, 9.999523 
5.2503914e+2, 2.0470402e+2, -1085287.4, -1038889.8, 40064.79, -0.050014358, -0.19542596, -1015792.06, -81913.29, 0.0, 9.999049, 9.999692 
5.250327e+2, 2.1470353e+2, -842173.25, -868694.2, 31361.064, -0.036599405, -0.24073501, -821384.4, 14499.183, 0.0, 10.000038, 9.99971 
5.250259e+2, 2.2470342e+2, -759795.94, -812345.75, -24883.006, 0.023303745, -0.20479688, -749883.4, -11996.58, 0.0, 10.000089, 9.999395 
5.250184e+2, 2.3470344e+2, -811805.1, -792756.8, -16434.488, 0.13562576, -0.16607322, -783286.2, -143395.14, 0.0, 9.999077, 9.9993515 
5.250102e+2, 2.4470316e+2, -704998.75, -622416.4, 59153.6, 0.1061465, -0.154273, -591568.0, -49673.938, 0.0, 9.9988365, 9.999966 
5.250014e+2, 2.5470242e+2, -518156.06, -480236.1, 42566.75, -0.07703215, -0.25293568, -452597.7, -8700.687, 0.0, 9.999437, 9.99998 
5.249936e+2, 2.6470238e+2, -433716.5, -492160.63, -29549.283, -0.07049632, -0.20320612, -421380.3, -75482.7, 0.0, 9.999813, 9.999036 
5.249867e+2, 2.7470294e+2, -314379.25, -387411.1, -54966.16, 0.13865922, -0.0741665, -284905.1, -37007.26, 0.00000000009174081, 9.999977, 9.9990015 
5.249772e+2, 2.8470242e+2, -199278.31, -349914.06, -31600.854, 0.07356304, 0.007956491, -192917.56, -43011.785, 0.00000033351301, 10.000377, 9.998395 
5.249653e+2, 2.947006e+2, -17624.834, -219669.52, -41902.098, -0.24214429, -0.048847068, -9279.451, 42644.625, 0.0000041082662, 10.000967, 9.998338 
5.2495944e+2, 3.046976e+2, 48672.043, -162396.05, 11687.224, 0.07507594, -0.17590876, 49317.215, 49317.215, 0.000024723933, 10.001116, 9.998334 
5.2495205e+2, 3.1469616e+2, 58721.777, -35293.2, -11030.593, 0.15831792, -0.17575224, 59998.633, 59998.633, 0.00007789345, 10.000613, 9.999442 
5.351004e+2, 1.2471521e+2, -1890926.9, -1847809.5, 85276.73, -0.1613486, -0.17925707, -1781408.6, -63636.895, 0.000035627574, 9.998977, 9.999528 
5.350986e+2, 1.3471611e+2, -1527243.3, -1658305.0, 66922.12, 0.4159602, -0.061178617, -1499110.5, 120659.305, 0.000008273398, 10.000908, 9.999289 
5.3508466e+2, 1.4471568e+2, -1297952.8, -1425332.0, -50513.313, -0.27837694, -0.05335941, -1280353.0, 241422.75, 0.00000061502607, 10.001539, 9.99987 
5.350777e+2, 1.5471493e+2, -1304918.3, -1381475.3, -55986.816, 0.06383264, -0.15701225, -1275375.3, 148404.03, 0.00000000036285042, 10.0008335, 9.999845 
5.350701e+2, 1.6471437e+2, -1313207.9, -1483871.9, 66762.375, 0.17908871, -0.12518917, -1290194.3, 35589.7, 0.0, 10.000745, 9.99852 
5.3506184e+2, 1.7471401e+2, -1105195.5, -1339501.5, 37158.867, 0.002554, -0.033787113, -1099443.6, 128347.09, 0.0, 10.001521, 9.9984665 
5.3505355e+2, 1.8471329e+2, -965721.5, -1058868.3, -61851.61, -0.08630101, -0.017850408, -934869.44, 194928.2, 0.0, 10.001124, 9.999898 
5.350455e+2, 1.9471192e+2, -1118894.3, -1083164.6, -38132.824, -0.04713417, -0.17338143, -1058919.3, -27112.41, 0.0, 9.999402, 9.999893 
5.350387e+2, 2.0471132e+2, -1100519.8, -1040338.25, 64310.066, -0.022873014, -0.21118839, -999427.3, -65616.38, 0.0, 9.998927, 9.999737 
5.350333e+2, 2.147114e+2, -858811.94, -874425.25, 78551.72, -0.011955094, -0.20464931, -787679.94, 48130.824, 0.0, 9.999912, 9.999731 
5.3502584e+2, 2.2471167e+2, -740669.1, -745881.56, -71140.25, -0.011648907, -0.15478021, -672087.4, 65722.03, 0.0, 9.999969, 9.999913 
5.350161e+2, 2.3471199e+2, -790863.5, -719394.7, -43556.016, -0.02439667, -0.14136545, -698790.2, -58981.563, 0.0, 9.998947, 9.999917 
5.3500825e+2, 2.4471207e+2, -731206.9, -657468.0, 71372.46, 0.0007993129, -0.113736704, -614004.5, -72196.36, 0.0, 9.998755, 9.999764 
5.3500247e+2, 2.547117e+2, -547206.44, -521487.47, 78420.29, 0.05741276, -0.15315689, -454879.3, -11069.765, 0.0, 9.999355, 9.999737 
5.349949e+2, 2.6471063e+2, -463274.63, -545236.25, -32798.234, 0.053579897, -0.1763618, -451765.9, -105946.06, 0.0, 9.999772, 9.9986925 
5.349852e+2, 2.747086e+2, -349040.13, -444202.8, -34756.363, -0.034199327, -0.2756162, -337697.88, -89855.51, 0.0, 9.9999, 9.998654 
5.3497595e+2, 2.847082e+2, -167724.78, -277301.84, -18433.057, -0.118764654, -0.19078727, -164707.08, -14857.519, 0.00000019037492, 10.000348, 9.998906 
5.349672e+2, 2.9470932e+2, 9139.8545, -145175.72, -4486.5684, -0.17940012, 0.0026523022, 9270.187, 61112.617, 0.0000040138116, 10.000886, 9.99889 
5.3496176e+2, 3.0470777e+2, 71377.625, -117998.06, -10438.408, 0.16329384, -0.026673168, 71951.25, 71951.25, 0.000024880646, 10.001117, 9.99864 
5.349519e+2, 3.1470746e+2, 63287.8, -33912.363, 32903.41, 0.020312836, 0.055198535, 73378.45, 73378.45, 0.00007745561, 10.0006275, 9.999451 
5.451001e+2, 1.2472183e+2, -1844264.5, -1795348.1, -54616.43, -0.08582619, -0.21980898, -1759963.6, -42257.19, 0.000030309948, 9.999162, 9.99983 
5.4509836e+2, 1.3472337e+2, -1585435.8, -1646295.8, 70892.03, 0.34312096, -0.06672371, -1538718.6, 80979.8, 0.000006366235, 10.000343, 9.999652 
5.4508525e+2, 1.4472324e+2, -1356354.8, -1443866.4, -63854.195, -0.33871847, -0.049861725, -1322703.0, 198998.84, 0.00000037085837, 10.001089, 9.9999695 
5.450791e+2, 1.547227e+2, -1168650.0, -1301606.6, -158910.5, 0.08630558, -0.13993461, -1062872.9, 360831.0, 0.00000000007720086, 10.001709, 9.999972 
5.450716e+2, 1.6472241e+2, -1200460.6, -1421404.6, 964.9926, 0.22392662, -0.093199044, -1200456.4, 125250.6, 0.0, 10.001503, 9.998572 
5.4506284e+2, 1.7472231e+2, -1284603.1, -1417454.3, 50440.605, 0.021990972, 0.021081673, -1267622.4, -39910.402, 0.0, 10.000276, 9.998523 
5.4505414e+2, 1.8472154e+2, -1148695.5, -1177177.0, -7314.0806, -0.072046995, 0.04017889, -1146927.0, -17206.973, 0.0, 9.999974, 9.999651 
5.450458e+2, 1.947198e+2, -941117.5, -1023845.75, -53667.473, -0.021701472, -0.12871853, -914723.3, 117009.695, 0.0, 10.000721, 9.999668 
5.450385e+2, 2.0471905e+2, -883289.56, -931211.06, 53562.086, 0.0015215428, -0.16961503, -848573.1, 85165.27, 0.0, 10.0004, 9.999782 
5.4503274e+2, 2.147192e+2, -1022072.44, -944805.1, 51510.273, 0.00456592, -0.15988842, -919050.4, -83312.695, 0.0, 9.99876, 9.999804 
5.450252e+2, 2.247195e+2, -948150.2, -842195.2, -78864.6, 0.010019262, -0.11536305, -800166.2, -62430.21, 0.0, 9.998522, 9.99995 
5.450159e+2, 2.3471971e+2, -658049.06, -655035.25, -112301.38, 0.020334383, -0.113419734, -544230.6, 95504.67, 0.0, 9.999853, 9.9999275 
5.45008e+2, 2.4471992e+2, -538901.25, -579712.5, -4593.315, 0.039069638, -0.06525707, -538390.6, 3343.4207, 0.0, 10.000146, 9.999622 
5.4500175e+2, 2.5471997e+2, -562660.8, -544361.0, -17687.764, 0.0644992, -0.050852064, -533596.6, -89862.695, 0.0, 9.999326, 9.999588 
5.449942e+2, 2.647189e+2, -542005.5, -533014.5, -61029.94, 0.053681526, -0.088434786, -476314.72, -130571.03, 0.0, 9.999019, 9.999138 
5.449851e+2, 2.7471638e+2, -398753.5, -414769.6, -22915.63, 0.004187092, -0.2836296, -382486.97, -134720.08, 0.0, 9.999326, 9.999134 
5.449763e+2, 2.8471586e+2, -298323.0, -344709.63, 28144.674, -0.0697289, -0.23217753, -285046.44, -135272.2, 0.00000011177434, 9.999491, 9.998855 
5.449677e+2, 2.947174e+2, -182253.61, -233732.73, -25920.072, -0.13922252, 0.009107758, -171464.06, -119698.68, 0.0000045059896, 9.999589, 9.998894 
5.449624e+2, 3.0471653e+2, -10116.502, -98356.05, -19555.223, 0.16607225, 0.022680555, -5976.9634, -5976.9634, 0.000026381855, 10.000299, 9.999167 
5.4495287e+2, 3.1471667e+2, 155280.81, 25806.014, 21773.574, 0.03951174, 0.09466055, 158844.36, 158844.36, 0.00007890932, 10.001204, 9.999577 
5.5509937e+2, 1.2472695e+2, -1752744.9, -1602865.3, -162176.48, -0.12877885, -0.2593629, -1499151.3, 218508.81, 0.000026661139, 9.999165, 10.001143 
5.550973e+2, 1.3472894e+2, -1495569.1, -1459222.6, 121875.48, 0.17160346, -0.18781498, -1354172.9, 265468.1, 0.0000052899522, 10.000342, 10.000939 
5.550858e+2, 1.4472951e+2, -1401246.5, -1530640.5, -54841.71, -0.43228352, -0.13990872, -1381130.1, 140507.11, 0.00000021782215, 10.001063, 9.999387 
5.550806e+2, 1.547299e+2, -1212640.1, -1397763.1, -120708.55, 0.03428814, -0.06896607, -1153089.3, 270547.06, 0.00000000000011946363, 10.0017185, 9.999316 
5.55073e+2, 1.6472964e+2, -1111517.0, -1230178.1, -52929.617, 0.18777029, -0.049939573, -1091338.6, 234300.38, 0.0, 10.001478, 9.999895 
5.5506337e+2, 1.7472838e+2, -1193706.8, -1222456.8, 14703.356, 0.019129155, -0.19117613, -1187519.0, 40129.65, 0.0, 10.000246, 9.999878 
5.550544e+2, 1.8472764e+2, -1216350.8, -1298815.3, 7898.506, -0.06770935, -0.1965828, -1215601.0, -85946.09, 0.0, 9.999894, 9.998857 
5.5504626e+2, 1.9472736e+2, -1012432.75, -1157696.0, -14244.024, -0.06552529, -0.13312578, -1011049.2, 20609.898, 0.0, 10.000651, 9.998791 
5.5503833e+2, 2.0472719e+2, -892719.9, -922439.8, -14711.1045, -0.07809688, -0.07642281, -886669.7, 46992.008, 0.0, 10.000284, 9.999893 
5.5503064e+2, 2.1472694e+2, -1033300.9, -937252.6, 1608.7162, -0.097756654, -0.11954094, -937225.7, -101560.91, 0.0, 9.998626, 9.999921 
5.5502367e+2, 2.2472678e+2, -1003463.5, -924387.75, -41951.086, -0.015709136, -0.101232424, -906279.0, -168611.47, 0.0, 9.998385, 9.999451 
5.550174e+2, 2.3472661e+2, -715833.1, -739482.2, -49359.61, 0.16983782, -0.08815289, -676901.44, -37230.445, 0.0, 9.999703, 9.999416 
5.550093e+2, 2.4472682e+2, -560432.3, -606151.25, -42017.883, 0.12391376, -0.0061981343, -535458.1, 6213.1123, 0.0, 10.000058, 9.99949 
5.5499893e+2, 2.5472724e+2, -583390.25, -564902.8, -36143.79, -0.1764755, 0.059020534, -536839.44, -93169.27, 0.0, 9.999225, 9.999498 
5.549912e+2, 2.6472718e+2, -459199.38, -350792.38, -60527.074, -0.17178138, 0.059418783, -323745.97, 21923.486, 0.0, 9.998976, 10.000408 
5.549862e+2, 2.747262e+2, -322168.8, -238476.0, -484.2107, 0.15370119, -0.10260924, -238473.2, 9198.8545, 0.0, 9.999252, 10.000381 
5.549781e+2, 2.8472537e+2, -347745.78, -442338.22, 20279.4, 0.13369666, -0.11399158, -343581.47, -193901.03, 0.00000024371042, 9.999463, 9.998202 
5.5496645e+2, 2.9472458e+2, -234620.84, -334381.1, -7282.272, -0.25937945, -0.038429063, -234092.06, -182396.81, 0.0000058589785, 9.999542, 9.998233 
5.5496085e+2, 3.047237e+2, 40801.133, 17232.643, 8997.64, -0.037760776, -0.031066913, 43843.414, 43843.414, 0.000029984647, 10.000261, 9.999974 
5.549544e+2, 3.1472364e+2, 162212.7, 55000.31, 98958.85, 0.014587134, -0.063943714, 221151.95, 221151.95, 0.00008416486, 10.001132, 9.999814 
5.651002e+2, 1.2473457e+2, -1652535.0, -1556114.3, -68133.69, 0.01909504, -0.21941961, -1520859.4, 196726.97, 0.000022362967, 9.999852, 10.001119 
5.65097e+2, 1.3473593e+2, -1556743.8, -1481765.9, 164477.05, 0.14020894, -0.22196376, -1350559.5, 269012.2, 0.000004259607, 9.999893, 10.000984 
5.6508684e+2, 1.4473635e+2, -1531492.9, -1579020.8, -3534.2798, -0.36987177, -0.19681157, -1531231.5, -9663.156, 0.00000013010742, 10.000097, 9.999526 
5.650816e+2, 1.5473735e+2, -1346036.4, -1437826.9, -31873.818, 0.022558676, -0.08263211, -1336054.0, 87507.875, 0.0, 10.000708, 9.999526 
5.6507367e+2, 1.6473733e+2, -1197335.9, -1268517.8, -3118.0105, 0.14697674, -0.052273393, -1197199.6, 128362.94, 0.0, 10.000856, 9.999941 
5.650637e+2, 1.7473583e+2, -1146631.0, -1190705.5, -54591.645, 0.02445168, -0.22404914, -1109796.4, 117778.25, 0.0, 10.000523, 9.999961 
5.650547e+2, 1.8473518e+2, -1135412.1, -1232080.5, -10163.219, -0.04552044, -0.23832858, -1134355.3, -4775.4336, 0.0, 10.000342, 9.999089 
5.6504667e+2, 1.9473532e+2, -1058153.5, -1146598.5, 33010.52, -0.064113535, -0.15863545, -1047191.5, -15612.827, 0.0, 10.000211, 9.999064 
5.650384e+2, 2.047352e+2, -980346.1, -1027484.25, 23126.29, -0.07754867, -0.085755914, -970895.06, -37313.508, 0.0, 9.999949, 9.999335 
5.6503004e+2, 2.147346e+2, -950069.56, -958339.6, -36178.402, -0.061375704, -0.10495276, -917790.6, -82200.07, 0.0, 9.999468, 9.999367 
5.650228e+2, 2.2473413e+2, -846674.44, -849272.06, 6619.4204, 0.010341948, -0.089707695, -841227.56, -103630.875, 0.0, 9.999465, 9.999445 
5.650169e+2, 2.3473358e+2, -676272.0, -716055.44, 20439.51, 0.14640738, -0.11612556, -667642.6, -28040.883, 0.0, 9.999958, 9.99945 
5.6500876e+2, 2.4473353e+2, -630221.4, -656150.9, 362.53073, 0.10029668, -0.05495609, -630216.3, -88612.25, 0.0, 9.999675, 9.999319 
5.6499815e+2, 2.5473374e+2, -683928.1, -636145.94, -25569.152, -0.14185256, 0.01036651, -625043.2, -181437.03, 0.0, 9.998641, 9.999289 
5.6499046e+2, 2.6473388e+2, -528829.9, -407478.34, -27135.662, -0.1205635, 0.054854367, -401686.88, -56081.72, 0.0, 9.998598, 10.0002 
5.649858e+2, 2.7473372e+2, -278001.53, -233807.42, -99781.984, 0.18421894, -0.010527976, -153705.05, 93897.28, 0.0, 9.999641, 10.000217 
5.6497794e+2, 2.8473285e+2, -211944.42, -344737.78, -93229.234, 0.1434223, -0.03364498, -163884.95, -14274.199, 0.00000046127252, 10.000234, 9.9985075 
5.649664e+2, 2.9473126e+2, -92895.99, -235387.78, -62426.973, -0.25371987, -0.07106509, -69415.414, -17785.293, 0.000007820285, 10.000365, 9.998522 
5.6496096e+2, 3.0473086e+2, 37708.734, -2170.1204, -15465.917, -0.05238012, -0.023388118, 43003.715, 43003.715, 0.00003595913, 10.00032, 9.999809 
5.649546e+2, 3.147304e+2, -30164.97, -32348.416, -26310.338, -0.0011769502, -0.081618026, -4923.7144, -4923.7144, 0.000094486146, 9.999797, 9.999847 
5.751018e+2, 1.24744445e+2, -1740109.9, -1740599.8, -169353.75, 0.13559642, -0.123124644, -1571000.9, 146487.02, 0.000015098279, 9.999864, 9.999843 
5.7509696e+2, 1.3474411e+2, -1635426.5, -1654702.4, 169221.11, 0.12108799, -0.17862947, -1475569.1, 143923.23, 0.0000026568694, 9.999923, 9.9997835 
5.7508826e+2, 1.4474367e+2, -1470120.1, -1443934.4, 619.57684, -0.26899168, -0.22390439, -1443919.8, 77576.67, 0.000000050157187, 10.000072, 10.0004635 
5.750818e+2, 1.5474492e+2, -1281065.8, -1296754.4, 2620.2776, -0.04998673, -0.18246217, -1280639.8, 142842.19, 0.0, 10.000682, 10.000509 
5.7507336e+2, 1.6474535e+2, -1280614.0, -1428632.1, -28055.611, 0.0059494916, -0.105653085, -1275474.8, 50003.973, 0.0, 10.000799, 9.998868 
5.750636e+2, 1.7474465e+2, -1231765.8, -1363850.5, -56242.723, -0.06885649, -0.08443814, -1211062.3, 16428.133, 0.0, 10.000502, 9.998785 
5.7505465e+2, 1.8474415e+2, -1049741.9, -1041903.7, -23136.246, -0.1104629, -0.08595334, -1022356.94, 107137.32, 0.0, 10.000294, 10.000416 
5.750465e+2, 1.9474366e+2, -972983.94, -950495.5, 39472.605, -0.12913981, -0.20610848, -920696.8, 110795.39, 0.0, 10.00013, 10.000449 
5.750384e+2, 2.0474307e+2, -1082205.4, -1210494.3, -7375.689, -0.09158003, -0.19323047, -1081782.6, -148284.4, 0.0, 9.999825, 9.998139 
5.750304e+2, 2.1474221e+2, -1060897.3, -1156650.9, -44731.934, 0.006618808, -0.11054908, -1043252.0, -207737.27, 0.0, 9.99933, 9.998074 
5.750223e+2, 2.247415e+2, -824046.44, -775473.25, 14430.436, -0.012431226, -0.07999015, -771509.6, -33985.87, 0.0, 9.999344, 10.000012 
5.7501405e+2, 2.347407e+2, -651857.75, -635735.6, 50893.99, -0.165299, -0.19144608, -592268.25, 47258.508, 0.0, 9.999828, 10.000066 
5.750063e+2, 2.4474005e+2, -657399.75, -704749.1, -49277.168, -0.1423878, -0.20806411, -626405.2, -84872.664, 0.0, 9.999626, 9.999016 
5.7499915e+2, 2.5473937e+2, -720465.0, -692306.8, -52406.64, 0.06760479, -0.19908787, -652121.06, -208578.08, 0.0, 9.9985485, 9.998952 
5.749917e+2, 2.6473904e+2, -647088.56, -650633.94, 149.0233, 0.11920853, -0.1048225, -647082.3, -301531.22, 0.0, 9.998577, 9.998547 
5.749837e+2, 2.7473876e+2, -400406.38, -479412.13, -52058.688, -0.026684223, -0.0148096485, -374559.56, -127000.31, 0.0, 9.999588, 9.998563 
5.749755e+2, 2.8473818e+2, -121494.06, -145613.11, -100087.516, -0.1561616, 0.010747799, -32742.16, 116823.81, 0.0000006054728, 10.000188, 9.999898 
5.7496715e+2, 2.9473737e+2, -6372.872, -38375.547, -41629.656, -0.24629354, -0.09713118, 22224.793, 73795.48, 0.000009307056, 10.000295, 9.9999075 
5.749623e+2, 3.0473796e+2, -47996.113, -178552.5, -39670.848, 0.029895397, 0.041499972, -36887.01, -36887.01, 0.000040671366, 10.000311, 9.99861 
5.749531e+2, 3.1473646e+2, -65811.74, -90100.76, 4578.4873, -0.19161586, -0.0006649241, -64977.355, -64977.355, 0.000103750725, 9.999719, 9.999498 
5.8510274e+2, 1.24753594e+2, -1548941.4, -1728323.3, -200776.84, 0.17403422, -0.079078965, -1418732.8, 298666.06, 0.000008007214, 10.00149, 9.999156 
5.8509696e+2, 1.3475251e+2, -1570053.3, -1686005.6, 166033.63, 0.10349496, -0.14827764, -1452164.6, 167246.14, 0.0000012151539, 10.00064, 9.9992285 
5.850903e+2, 1.4475165e+2, -1456599.6, -1417231.3, 55523.625, -0.0663797, -0.21359698, -1378005.9, 143412.1, 0.000000012980553, 10.000095, 10.00062 
5.8508253e+2, 1.5475252e+2, -1310805.0, -1287930.0, -29311.762, -0.023508359, -0.2323226, -1267903.3, 155501.67, 0.0, 10.00039, 10.000693 
5.850736e+2, 1.6475284e+2, -1322953.3, -1462538.9, -53123.04, -0.03486704, -0.17154156, -1305035.8, 20366.107, 0.0, 10.000562, 9.998751 
5.8506435e+2, 1.7475237e+2, -1225180.8, -1370643.3, -25440.486, -0.041176748, -0.11430163, -1220859.8, 6551.839, 0.0, 10.000586, 9.998696 
5.850556e+2, 1.8475199e+2, -1051140.5, -1066616.3, 5880.2524, -0.03929768, -0.09100946, -1049159.6, 80255.95, 0.0, 10.000384, 10.00021 
5.8504736e+2, 1.9475141e+2, -1025027.8, -1000726.3, -72278.91, -0.035995528, -0.19489275, -939583.94, 91832.28, 0.0, 9.999876, 10.0002365 
5.85039e+2, 2.0475064e+2, -1040269.94, -1179451.0, -89577.87, -0.016483456, -0.19501548, -996427.5, -63003.688, 0.0, 10.000065, 9.998235 
5.850307e+2, 2.1474947e+2, -807060.3, -1023794.5, -42781.297, 0.028842008, -0.1580402, -798921.3, 36519.523, 0.0, 10.001019, 9.998176 
5.850221e+2, 2.247487e+2, -641589.75, -731070.4, 29388.338, -0.027124554, -0.11872843, -632800.9, 104649.766, 0.0, 10.000801, 9.999615 
5.8501315e+2, 2.347481e+2, -753221.56, -735435.44, -36467.477, -0.20395564, -0.16659188, -706792.4, -67337.08, 0.0, 9.999349, 9.999621 
5.850056e+2, 2.4474739e+2, -712426.0, -714720.1, -114172.195, -0.14872722, -0.17094508, -599395.1, -57932.984, 0.0, 9.999171, 9.999164 
5.8499956e+2, 2.5474647e+2, -415518.5, -523608.03, -100321.43, 0.16430882, -0.20627598, -355610.53, 87862.1, 0.0, 10.000545, 9.999141 
5.84992e+2, 2.6474583e+2, -369014.16, -561917.7, 34612.145, 0.19200975, -0.13295704, -362991.8, -17508.373, 0.0, 10.000704, 9.998123 
5.8498245e+2, 2.7474517e+2, -423740.1, -541062.06, 54076.176, -0.10070327, -0.032096636, -402617.97, -155120.92, 0.0, 9.999662, 9.9981 
5.849742e+2, 2.847446e+2, -263061.38, -208362.14, 27320.27, -0.23586215, 0.0153240245, -197054.31, -47549.48, 0.00000055145284, 9.999192, 9.999941 
5.8496773e+2, 2.947441e+2, -161607.61, -111340.59, -45903.266, -0.15510654, -0.06363473, -84140.53, -32634.389, 0.000008783807, 9.999216, 9.999925 
5.849628e+2, 3.047445e+2, -250829.05, -260838.39, -46059.938, 0.12727514, 0.04976558, -209502.69, -209502.69, 0.000039667964, 9.998848, 9.998746 
5.849515e+2, 3.1474316e+2, -253450.8, -91509.5, 86313.02, -0.21942557, 0.00055389816, -54132.426, -54132.426, 0.00010388018, 9.998051, 10.000279 
5.951024e+2, 1.2476186e+2, -1536121.4, -1706787.4, -253774.25, -0.06917009, -0.09185767, -1353717.4, 363603.3, 0.0000033727015, 10.001532, 9.999277 
5.9509677e+2, 1.3476114e+2, -1565607.3, -1673485.4, 135361.63, -0.010326988, -0.13527738, -1473833.6, 145493.5, 0.00000044999516, 10.000637, 9.999313 
5.950926e+2, 1.4476027e+2, -1502571.3, -1507183.3, 47478.293, 0.1241304, -0.17611857, -1457343.0, 63990.484, 0.000000014541682, 10.00007, 10.000013 
5.950833e+2, 1.5476012e+2, -1359453.8, -1386759.6, -7919.583, -0.014981398, -0.23296456, -1357323.1, 66008.016, 0.0, 10.000378, 10.000024 
5.95074e+2, 1.6475984e+2, -1267037.8, -1336427.3, -63193.15, -0.07896181, -0.2387112, -1229641.6, 95689.65, 0.0, 10.000523, 9.999635 
5.9506565e+2, 1.7475909e+2, -1162144.5, -1233605.6, -14212.434, 0.007277746, -0.30248955, -1159421.6, 67915.97, 0.0, 10.000562, 9.999648 
5.950573e+2, 1.847587e+2, -1179832.3, -1321955.1, -25194.74, 0.06945628, -0.24608903, -1175498.0, -46154.2, 0.0, 10.000332, 9.998484 
5.950488e+2, 1.9475853e+2, -1164101.5, -1269311.0, -81174.66, 0.093628295, -0.1317605, -1119976.8, -88625.46, 0.0, 9.999792, 9.998432 
5.9503984e+2, 2.0475788e+2, -953347.5, -976151.75, -64765.54, 0.040046625, -0.0969184, -898988.06, 34370.45, 0.0, 9.999963, 9.999681 
5.950307e+2, 2.1475643e+2, -718900.6, -810769.4, 5571.031, -0.091810554, -0.23846492, -718564.0, 116803.984, 0.0, 10.00089, 9.999701 
5.950221e+2, 2.2475575e+2, -753814.4, -944621.44, -34710.473, -0.13152641, -0.19860205, -747696.25, -10319.342, 0.0, 10.000707, 9.998199 
5.95014e+2, 2.347557e+2, -876878.6, -964051.6, -80474.33, -0.07710198, -0.04357732, -828945.2, -189557.72, 0.0, 9.999223, 9.998116 
5.950063e+2, 2.447555e+2, -677164.06, -628555.75, -74592.914, -0.022953335, 0.049022894, -574407.4, -33014.156, 0.0, 9.999105, 9.999791 
5.949991e+2, 2.5475505e+2, -378328.53, -425922.56, -39316.33, 0.031151796, -0.009103552, -356168.25, 87226.62, 0.0, 10.000454, 9.999857 
5.94991e+2, 2.6475433e+2, -319147.3, -450496.78, -14222.522, -0.0012977343, -0.019617215, -317624.94, 27776.367, 0.0, 10.000669, 9.998908 
5.949819e+2, 2.74753e+2, -380936.5, -436933.6, 28593.363, -0.14980362, -0.06448418, -368916.3, -121500.64, 0.0, 9.999596, 9.998851 
5.949741e+2, 2.8475207e+2, -364556.75, -407499.44, 17789.555, -0.19438614, -0.024841793, -358144.66, -208717.36, 0.0000003359344, 9.9991455, 9.998593 
5.949678e+2, 2.9475147e+2, -272967.13, -317038.84, -35177.273, -0.104290426, 0.021068636, -253493.72, -202056.6, 0.000006914508, 9.999115, 9.998554 
5.94962e+2, 3.0475056e+2, -152055.44, -48451.01, -84969.51, 0.14048146, -0.00023445932, -737.9658, -737.9658, 0.000035638073, 9.99881, 10.000228 
5.949491e+2, 3.1475043e+2, -121840.84, 200997.97, 123117.266, -0.33019873, -0.07777242, 242591.1, 242591.1, 0.00009897654, 9.997973, 10.002325 
6.051042e+2, 1.2477041e+2, -1449286.4, -1667563.3, -172148.6, -0.06778836, -0.12794353, -1354595.6, 362641.88, 0.0000011596172, 10.002128, 9.999274 
6.050966e+2, 1.3477002e+2, -1448118.6, -1613088.6, 116197.2, -0.122599676, -0.13504916, -1388106.0, 231133.8, 0.00000014603442, 10.001446, 9.9993305 
6.0509384e+2, 1.4476927e+2, -1441569.1, -1507016.4, 93393.43, 0.22041826, -0.15068763, -1375332.4, 145912.22, 0.0000000031309833, 10.000607, 9.999765 
6.050843e+2, 1.5476857e+2, -1403697.9, -1436261.8, 40820.492, 0.06265661, -0.23341456, -1376032.0, 47215.85, 0.0, 10.00019, 9.999782 
6.0507476e+2, 1.6476797e+2, -1300491.3, -1333650.0, 10788.619, -0.026645774, -0.26945642, -1297290.0, 27960.395, 0.0, 10.000208, 9.999809 
6.0506636e+2, 1.7476715e+2, -1140190.6, -1204522.9, -17264.252, 0.023923824, -0.35751042, -1135850.4, 91404.86, 0.0, 10.000632, 9.999818 
6.0505795e+2, 1.8476655e+2, -1122477.8, -1349186.5, -6476.965, 0.0824991, -0.30688104, -1122292.9, 6970.7095, 0.0, 10.000968, 9.997987 
6.0504955e+2, 1.9476597e+2, -994512.6, -1244153.9, 11763.944, 0.13341191, -0.18150936, -993959.5, 37317.848, 0.0, 10.001199, 9.997928 
6.050407e+2, 2.0476526e+2, -769879.9, -880802.56, 66983.96, 0.06776273, -0.13045233, -738376.8, 194909.31, 0.0, 10.0012, 9.999742 
6.050313e+2, 2.1476404e+2, -711335.7, -798699.56, 6111.685, -0.1167129, -0.25482634, -710910.25, 124382.35, 0.0, 10.000907, 9.999775 
6.050226e+2, 2.2476341e+2, -785722.44, -975117.1, -68316.25, -0.13616528, -0.20655242, -763652.06, -26351.105, 0.0, 10.000564, 9.998051 
6.0501456e+2, 2.3476325e+2, -745578.3, -910358.9, -35992.027, 0.024463037, -0.0483719, -738059.9, -98746.46, 0.0, 10.000189, 9.998004 
6.050066e+2, 2.447631e+2, -578221.4, -595667.94, 71423.555, 0.06417948, 0.063532844, -514990.34, 26329.006, 0.0, 9.999881, 9.999633 
6.0499847e+2, 2.5476283e+2, -501718.97, -505304.5, 20494.932, -0.028421039, 0.040517263, -482938.53, -39618.266, 0.0, 9.999709, 9.99967 
6.049903e+2, 2.6476195e+2, -454422.1, -493616.44, -32027.033, -0.082854226, 0.020529218, -436472.22, -91145.266, 0.0, 9.999623, 9.9991255 
6.0498196e+2, 2.7476034e+2, -363958.94, -403595.7, -52826.85, -0.09855577, -0.07812816, -327355.28, -80013.28, 0.0, 9.999581, 9.999093 
6.0497445e+2, 2.8475937e+2, -313650.9, -422479.84, 3156.785, -0.09984149, -0.03940248, -313559.4, -164205.23, 0.00000016006682, 9.999667, 9.998241 
6.049677e+2, 2.9475892e+2, -176304.33, -310103.7, 2489.0151, -0.05431042, 0.061251633, -176258.05, -124893.12, 0.0000052467194, 9.999943, 9.998209 
6.0496074e+2, 3.047574e+2, -64185.246, 25958.406, -79582.2, 0.12051993, -0.019443985, 72345.836, 72345.836, 0.000031333126, 9.999288, 10.0005045 
6.0494727e+2, 3.147578e+2, -202211.33, 161764.3, 14799.89, -0.27104288, -0.06376365, 162365.1, 162365.1, 0.00009226463, 9.997414, 10.002339 
6.1510736e+2, 1.2477938e+2, -1449771.5, -1662133.6, -158637.89, -0.01582407, -0.17573193, -1365058.9, 352089.25, 0.000000319301, 10.002113, 9.99931 
6.150961e+2, 1.3477924e+2, -1460163.5, -1635247.8, 95630.74, -0.344403, -0.14093314, -1418056.6, 201091.33, 0.000000018009526, 10.001444, 9.999176 
6.1509365e+2, 1.4477868e+2, -1434821.0, -1498523.1, 56364.19, 0.10613738, -0.133339, -1401930.9, 119220.1, 0.0, 10.000621, 9.999819 
6.150852e+2, 1.5477785e+2, -1391505.8, -1424001.6, 33958.492, 0.10403443, -0.23923503, -1370108.3, 53047.258, 0.0, 10.000229, 9.999853 
6.150757e+2, 1.6477714e+2, -1343158.3, -1412020.8, 14116.174, 0.015760632, -0.26285654, -1340377.0, -15217.182, 0.0, 10.000171, 9.999289 
6.150662e+2, 1.7477642e+2, -1184073.5, -1290547.4, 10088.695, -0.087639816, -0.28802606, -1183126.0, 44039.598, 0.0, 10.000608, 9.999241 
6.150574e+2, 1.8477541e+2, -1082016.9, -1247286.3, -7543.524, -0.098054565, -0.2828662, -1081673.3, 47502.707, 0.0, 10.00089, 9.998723 
6.1504954e+2, 1.9477388e+2, -950631.5, -1140036.5, 32838.457, -0.013053065, -0.33178234, -945099.6, 86093.59, 0.0, 10.001138, 9.998675 
6.150411e+2, 2.0477292e+2, -876846.1, -1078156.5, 46076.977, -0.031094028, -0.2775238, -866801.06, 66404.195, 0.0, 10.001095, 9.998437 
6.150321e+2, 2.1477234e+2, -828771.3, -1011028.3, 5305.302, -0.14945066, -0.20269527, -828617.0, 6597.104, 0.0, 10.000768, 9.998387 
6.150233e+2, 2.2477168e+2, -725817.4, -821317.06, -90463.54, -0.14337882, -0.14055589, -671275.0, 65947.66, 0.0, 10.000435, 9.999169 
6.1501473e+2, 2.347708e+2, -682459.4, -746788.1, -37654.93, -0.0030820388, -0.17311847, -665101.6, -25869.336, 0.0, 10.000049, 9.999193 
6.1500615e+2, 2.4477017e+2, -660463.9, -749587.6, 51822.15, 0.010068369, -0.12316935, -636678.9, -95438.125, 0.0, 9.999804, 9.998615 
6.149975e+2, 2.5476962e+2, -591385.25, -672480.5, 23535.666, -0.124118984, -0.06317011, -585049.6, -141799.88, 0.0, 9.999625, 9.998565 
6.1498946e+2, 2.6476875e+2, -485299.8, -544945.5, -43623.313, -0.15148383, -0.015974399, -462279.53, -117018.805, 0.0, 9.999569, 9.998797 
6.149821e+2, 2.7476725e+2, -401401.1, -454503.38, -41315.605, -0.06720465, -0.07313353, -378840.7, -131564.88, 0.0, 9.999473, 9.998791 
6.149748e+2, 2.8476655e+2, -273583.9, -333341.75, 1351.7295, -0.058677275, -0.022108626, -273553.34, -124268.43, 0.00000012615395, 9.999635, 9.998869 
6.149671e+2, 2.9476666e+2, -138191.66, -211503.88, 25931.008, -0.14249544, 0.0646577, -129946.9, -78658.96, 0.000004351736, 9.999866, 9.998918 
6.1495864e+2, 3.0476508e+2, -139348.86, -131506.39, -156326.89, -0.04543161, -0.0059442497, 20948.45, 20948.45, 0.000027327982, 9.999283, 9.999436 
6.149451e+2, 3.147657e+2, -355801.0, -134125.69, 3235.737, -0.28839198, 0.08828369, -134078.47, -134078.47, 0.00008384043, 9.997322, 10.000351 
6.251099e+2, 1.2478868e+2, -1531512.9, -1713053.0, -72002.37, 0.071884446, -0.19159336, -1506422.9, 210632.39, 0.00000004128188, 10.001581, 9.99923 
6.2509745e+2, 1.3478844e+2, -1494619.5, -1671498.9, 46524.707, -0.3331651, -0.148844, -1483128.5, 135927.78, 0.000000000001578113, 10.001277, 9.999018 
6.25095e+2, 1.4478758e+2, -1421606.8, -1548052.3, 39744.285, 0.1759927, -0.13693729, -1410152.0, 110911.305, 0.0, 10.000945, 9.99933 
6.250859e+2, 1.5478653e+2, -1271273.5, -1413078.9, -38355.82, 0.10342557, -0.21684691, -1261563.8, 161508.5, 0.0, 10.001279, 9.999413 
6.250761e+2, 1.6478589e+2, -1216120.0, -1355011.9, -45475.668, 0.006082221, -0.21087399, -1202555.3, 122522.195, 0.0, 10.00107, 9.99924 
6.2506694e+2, 1.7478545e+2, -1257030.3, -1324676.1, -41450.355, -0.03822593, -0.20301266, -1237354.4, -10273.403, 0.0, 10.000124, 9.999229 
6.2505835e+2, 1.8478449e+2, -1157924.3, -1259799.4, 2220.1287, -0.05223195, -0.20364766, -1157875.9, -28785.91, 0.0, 10.000247, 9.998953 
6.250504e+2, 1.9478267e+2, -886111.56, -1077898.5, -15243.309, -0.0506187, -0.30791032, -884907.56, 146200.05, 0.0, 10.001445, 9.998949 
6.250419e+2, 2.0478164e+2, -829678.06, -1099696.3, -17970.684, -0.07369734, -0.2580721, -828487.3, 104633.25, 0.0, 10.001599, 9.998053 
6.2503314e+2, 2.1478117e+2, -882631.2, -1073570.8, -6365.7563, -0.103627004, -0.13338768, -882419.2, -47288.08, 0.0, 10.000564, 9.998054 
6.250242e+2, 2.2478038e+2, -696973.5, -767017.56, -36408.29, -0.092082374, -0.08541365, -681477.1, 55662.74, 0.0, 10.00045, 9.999537 
6.250151e+2, 2.34779e+2, -468382.9, -605695.7, -62238.816, -0.028155103, -0.20296837, -444371.25, 194778.05, 0.0, 10.001335, 9.999554 
6.250063e+2, 2.4477795e+2, -477887.8, -702183.94, 10557.146, -0.016340356, -0.19654343, -477392.0, 63767.84, 0.0, 10.00121, 9.998274 
6.2499785e+2, 2.547771e+2, -549203.94, -691199.4, 14241.672, -0.06590896, -0.1338971, -547789.7, -104616.375, 0.0, 10.000069, 9.998225 
6.2498975e+2, 2.6477617e+2, -485164.97, -539200.4, 32468.463, -0.07259695, -0.074187726, -469943.38, -124758.15, 0.0, 9.999545, 9.998844 
6.24982e+2, 2.7477488e+2, -371376.66, -435573.1, 37506.223, -0.029904108, -0.1168497, -354108.78, -106910.1, 0.0, 9.999648, 9.998836 
6.2497413e+2, 2.847744e+2, -333822.8, -334580.7, 88134.734, -0.051289987, -0.05883977, -246066.2, -96860.54, 0.000000116905284, 9.999111, 9.999116 
6.249659e+2, 2.947747e+2, -401699.2, -319083.6, 55325.855, -0.14959538, 0.029299866, -291345.88, -240139.86, 0.000004287332, 9.997954, 9.999115 
6.249568e+2, 3.047734e+2, -323348.6, -246441.27, -82096.0, -0.09248149, -0.013017976, -194239.33, -194239.33, 0.000025852014, 9.998152, 9.999182 
6.249447e+2, 3.147735e+2, -67560.1, -61229.52, 105226.47, -0.16287345, 0.05654418, 40879.258, 40879.258, 0.00007870898, 9.999592, 9.999753 
6.351116e+2, 1.2479813e+2, -1528424.3, -1723452.1, -33107.457, 0.012912227, -0.1823755, -1522957.3, 194003.58, 0.000000010756334, 10.001653, 9.999125 
6.3510025e+2, 1.3479738e+2, -1509758.3, -1708680.0, 30169.508, -0.20572534, -0.16690482, -1505283.3, 113683.664, 0.0, 10.001293, 9.998761 
6.350977e+2, 1.4479594e+2, -1486127.6, -1672526.3, 32109.037, 0.31266168, -0.15645374, -1480751.6, 40230.13, 0.0, 10.000911, 9.998488 
6.3508606e+2, 1.5479466e+2, -1331552.3, -1543644.0, -10074.703, -0.03307516, -0.17166671, -1331074.8, 91922.79, 0.0, 10.001296, 9.998512 
6.3507587e+2, 1.6479412e+2, -1193060.9, -1301488.5, -91107.21, -0.1549587, -0.12974437, -1141257.5, 183746.6, 0.0, 10.001042, 9.999622 
6.350684e+2, 1.7479417e+2, -1227247.6, -1268236.0, -65884.94, 0.07245705, -0.111622125, -1178743.0, 48259.234, 0.0, 10.0001335, 9.99962 
6.350605e+2, 1.8479364e+2, -1180669.4, -1294173.5, 34867.87, 0.11012181, -0.07937141, -1170813.9, -41806.637, 0.0, 10.000198, 9.998736 
6.3505167e+2, 1.947922e+2, -915089.56, -1120685.0, 39007.633, -0.088402055, -0.122746885, -907937.44, 123084.67, 0.0, 10.001369, 9.9986925 
6.350429e+2, 2.0479119e+2, -808649.44, -1023907.3, -66745.58, -0.15978535, -0.08348367, -789633.3, 143400.44, 0.0, 10.001463, 9.998636 
6.3503414e+2, 2.1479043e+2, -862249.4, -994449.2, -33589.65, -0.08683698, -0.049752273, -854204.44, -19160.377, 0.0, 10.000405, 9.9986725 
6.3502496e+2, 2.2478941e+2, -741970.1, -830264.94, -14830.903, -0.08180403, -0.03987159, -739545.5, -2492.0913, 0.0, 10.000319, 9.999167 
6.350153e+2, 2.3478782e+2, -517001.63, -674015.5, -16580.314, -0.15888877, -0.14084846, -515269.88, 123794.734, 0.0, 10.001194, 9.999153 
6.350067e+2, 2.447865e+2, -468014.84, -661203.5, -39928.05, -0.12278516, -0.15890954, -460087.84, 80988.46, 0.0, 10.001123, 9.998596 
6.349993e+2, 2.5478524e+2, -540013.6, -648638.7, -18547.365, 0.041531276, -0.16947784, -536934.0, -93843.67, 0.0, 9.999968, 9.998568 
6.349909e+2, 2.647843e+2, -467699.6, -485473.4, 23520.508, 0.060646243, -0.14711209, -451443.06, -106342.85, 0.0, 9.999476, 9.999244 
6.349813e+2, 2.747834e+2, -361724.16, -385136.72, 53327.86, -0.09331531, -0.19311632, -318832.84, -71723.72, 0.0, 9.999527, 9.999237 
6.349722e+2, 2.8478295e+2, -347787.0, -355476.72, 32408.078, -0.18201216, -0.14221443, -318996.5, -169880.95, 0.0000001448745, 9.999074, 9.998994 
6.3496363e+2, 2.9478317e+2, -432503.88, -355914.06, 28837.492, -0.20287913, -0.04733119, -346270.44, -295152.38, 0.000005079309, 9.997854, 9.998906 
6.349547e+2, 3.0478254e+2, -291643.5, -187691.5, -31733.367, -0.14104982, -0.026735874, -178769.95, -178769.95, 0.000027855136, 9.998163, 9.99959 
6.349452e+2, 3.1478137e+2, -49194.59, 4076.2495, 190226.48, -0.1323857, -0.1380808, 169523.0, 169523.0, 0.00008149468, 9.999471, 10.000265 
6.451135e+2, 1.2480733e+2, -1451397.8, -1732296.4, 67306.96, 0.020341415, -0.19430174, -1436103.0, 280764.72, 0.0000000047013002, 10.002386, 9.998709 
6.451027e+2, 1.3480577e+2, -1413242.0, -1701844.5, -11456.952, -0.12571573, -0.21921334, -1412787.9, 206094.5, 0.0, 10.002158, 9.99837 
6.450992e+2, 1.4480399e+2, -1394158.5, -1636857.0, 50755.656, 0.35111737, -0.22082901, -1383971.5, 136930.42, 0.0, 10.001593, 9.998399 
6.4508677e+2, 1.548033e+2, -1380084.5, -1572947.1, 39046.56, -0.065359004, -0.16922778, -1372479.1, 50434.465, 0.0, 10.000998, 9.998449 
6.4507645e+2, 1.6480283e+2, -1217754.9, -1341627.1, -11987.607, -0.18533745, -0.10128806, -1216605.5, 108315.08, 0.0, 10.00099, 9.999374 
6.450697e+2, 1.7480253e+2, -1028288.94, -1196127.9, -52948.09, 0.11967662, -0.09654593, -1012981.5, 213942.03, 0.0, 10.001608, 9.999402 
6.4506197e+2, 1.84802e+2, -960560.6, -1168976.3, 74747.73, 0.17351678, -0.058743533, -936524.56, 192404.11, 0.0, 10.001629, 9.998907 
6.45053e+2, 1.9480097e+2, -969251.25, -1123556.1, 87400.64, -0.064910285, -0.077695124, -929821.7, 101117.36, 0.0, 10.000909, 9.998891 
6.45044e+2, 2.048002e+2, -907212.3, -1016821.7, -10297.485, -0.14194584, -0.050895553, -906253.3, 26693.48, 0.0, 10.000553, 9.99912 
6.45035e+2, 2.1479943e+2, -811272.0, -920001.0, -12438.239, -0.029965328, -0.067005984, -809867.25, 25087.064, 0.0, 10.000534, 9.999122 
6.450257e+2, 2.2479825e+2, -752539.6, -869448.0, 55997.21, -0.037463464, -0.08100333, -730045.8, 6918.7993, 0.0, 10.000381, 9.998872 
6.450158e+2, 2.347964e+2, -695724.44, -791784.56, 35711.49, -0.17432418, -0.18112613, -683903.06, -44922.848, 0.0, 10.0001, 9.998867 
6.4500713e+2, 2.4479502e+2, -570067.06, -690365.94, 17844.34, -0.14686517, -0.19485876, -567476.0, -26483.627, 0.0, 10.000349, 9.998771 
6.4500004e+2, 2.5479403e+2, -347903.7, -532170.75, 10038.039, 0.0709736, -0.19526151, -347358.47, 95643.9, 0.0, 10.001194, 9.998777 
6.449912e+2, 2.647933e+2, -295238.28, -426884.5, 22338.318, 0.09144996, -0.15429202, -291551.06, 53459.535, 0.0, 10.000767, 9.999026 
6.4498055e+2, 2.7479252e+2, -450048.38, -455458.1, -23404.18, -0.08800477, -0.16261092, -429193.28, -182173.0, 0.000000000000000000046744374, 9.999038, 9.998998 
6.449711e+2, 2.847919e+2, -390894.47, -371995.1, -7935.853, -0.17757495, -0.12003257, -369104.8, -220076.44, 0.00000034821963, 9.998758, 9.999029 
6.4496267e+2, 2.947914e+2, -128238.234, -210911.55, -24246.688, -0.17912115, -0.101089515, -121651.82, -70616.12, 0.0000068469953, 9.999939, 9.998897 
6.449534e+2, 3.0479088e+2, -39933.168, -43273.156, -56160.97, -0.15814051, -0.074334875, 14582.63, 14582.63, 0.00003364889, 9.99981, 9.999769 
6.4494413e+2, 3.147906e+2, -210457.4, -33218.1, 79098.09, -0.10408839, -0.12552877, -3052.44, -3052.44, 0.000093661416, 9.998201, 10.000601 
6.551154e+2, 1.2481638e+2, -1491462.3, -1811737.6, 96592.9, -0.08185236, -0.22510062, -1464585.9, 252188.98, 0.000000001405694, 10.002377, 9.998162 
6.551043e+2, 1.3481376e+2, -1446557.5, -1773576.9, -17510.936, -0.2075811, -0.3060246, -1445622.5, 173179.05, 0.0, 10.002175, 9.997865 
6.550996e+2, 1.4481173e+2, -1355067.8, -1554469.4, 11376.09, 0.19219704, -0.33492184, -1354420.8, 166402.58, 0.0, 10.001584, 9.998974 
6.550877e+2, 1.5481235e+2, -1341940.0, -1493003.0, 28302.734, -0.102791585, -0.20906675, -1336811.4, 86009.67, 0.0, 10.000985, 9.999011 
6.5507764e+2, 1.6481198e+2, -1277001.3, -1455306.4, -2960.4282, -0.2008641, -0.12247444, -1276952.1, 47875.684, 0.0, 10.000952, 9.998607 
6.550703e+2, 1.7481047e+2, -1087961.5, -1316406.3, -18558.135, -0.0073444643, -0.1584153, -1086463.8, 140381.39, 0.0, 10.001593, 9.99858 
6.5506256e+2, 1.8480958e+2, -929244.2, -1087130.8, 37446.97, 0.04188699, -0.14409436, -920812.9, 208041.5, 0.0, 10.001557, 9.999503 
6.55054e+2, 1.9480911e+2, -936443.44, -1034898.7, 73000.02, -0.0856623, -0.17280239, -897623.56, 133234.08, 0.0, 10.000824, 9.999539 
6.55045e+2, 2.0480871e+2, -900479.44, -980060.56, -23040.533, -0.11644916, -0.15577209, -894290.06, 38569.35, 0.0, 10.000451, 9.999426 
6.5503573e+2, 2.1480812e+2, -810099.94, -883374.44, -2386.7432, -0.0434477, -0.18336995, -810022.3, 24840.143, 0.0, 10.00039, 9.999443 
6.550261e+2, 2.2480689e+2, -791047.1, -914581.6, 34356.67, -0.057828307, -0.20741542, -782135.0, -45261.457, 0.0, 10.000236, 9.998629 
6.5501606e+2, 2.3480467e+2, -735103.0, -838417.4, 35465.965, -0.17746872, -0.31814846, -724100.0, -85203.68, 0.0, 9.999953, 9.998615 
6.5500724e+2, 2.4480356e+2, -580103.44, -687175.94, 36352.586, -0.18897949, -0.29632735, -568927.75, -28019.707, 0.0, 10.000248, 9.998838 
6.549998e+2, 2.5480345e+2, -358685.1, -527564.06, 53953.3, -0.09281536, -0.21840917, -342919.84, 99989.93, 0.0, 10.001084, 9.9988575 
6.549905e+2, 2.648031e+2, -359612.25, -556320.1, -52513.504, -0.08128009, -0.100392446, -346471.06, -1554.3914, 0.0, 10.000736, 9.9981575 
6.549793e+2, 2.748023e+2, -519968.88, -590256.6, -73789.02, -0.14122707, -0.017749537, -473382.03, -226450.98, 0.0000000002377775, 9.99898, 9.998107 
6.5497017e+2, 2.8480127e+2, -386231.6, -344438.47, 23598.314, -0.17127316, 0.015587581, -333814.47, -184871.13, 0.0000008000927, 9.9986925, 9.999244 
6.5496266e+2, 2.9479948e+2, -131010.414, -186471.52, 34097.082, -0.20801072, -0.12345851, -114791.055, -63832.84, 0.000010270006, 9.999821, 9.999116 
6.549524e+2, 3.047986e+2, -45614.598, -59468.473, -121541.09, -0.2697599, -0.13443284, 69196.79, 69196.79, 0.00004390313, 9.999815, 9.999666 
6.549411e+2, 3.148004e+2, -206913.5, -18177.857, 41774.48, -0.2946237, 0.03670179, -9344.938, -9344.938, 0.00011355634, 9.998159, 10.000732 
6.6511756e+2, 1.2482447e+2, -1559642.4, -1785236.6, 36066.527, -0.058395654, -0.18446673, -1554016.6, 162683.13, 0.00000000035571668, 10.001647, 9.998697 
6.651066e+2, 1.3482259e+2, -1579058.9, -1768712.8, -87136.37, -0.12589887, -0.2579629, -1545103.5, 73613.57, 0.0, 10.000945, 9.998508 
6.6510046e+2, 1.448207e+2, -1491692.0, -1620161.1, 10156.096, 0.18448769, -0.30704448, -1490894.1, 29842.713, 0.0, 10.000648, 9.998972 
6.650892e+2, 1.5482123e+2, -1300873.4, -1474458.8, -41007.387, -0.060684163, -0.19039476, -1291673.4, 131062.3, 0.0, 10.001278, 9.998993 
6.6507924e+2, 1.6482083e+2, -1203175.1, -1424800.8, -33427.68, -0.15585741, -0.10405346, -1198243.0, 126499.93, 0.0, 10.001484, 9.998564 
6.650716e+2, 1.7481922e+2, -1153711.8, -1350274.3, -17222.314, -0.008745538, -0.14600697, -1152214.1, 74546.71, 0.0, 10.001147, 9.998563 
6.650635e+2, 1.8481842e+2, -1036737.56, -1107572.5, 49843.566, 0.031913545, -0.13751546, -1011009.5, 117759.625, 0.0, 10.0007, 9.999769 
6.650546e+2, 1.9481821e+2, -1017665.4, -1047786.1, 33116.65, -0.06358277, -0.16417201, -996345.44, 34424.09, 0.0, 10.000149, 9.999778 
6.650456e+2, 2.0481792e+2, -915640.0, -947814.06, -20016.232, -0.08490434, -0.16545755, -906047.4, 26722.078, 0.0, 10.000175, 9.999783 
6.6503644e+2, 2.148173e+2, -730333.06, -806852.0, -18837.275, -0.019158795, -0.22948338, -725947.1, 108824.234, 0.0, 10.000771, 9.999789 
6.6502684e+2, 2.2481643e+2, -696440.25, -873040.8, 26427.959, -0.027825847, -0.23452516, -692570.2, 44209.38, 0.0, 10.00091, 9.998591 
6.650168e+2, 2.3481506e+2, -653717.44, -806900.75, 20557.563, -0.1218396, -0.2519028, -651006.5, -12210.048, 0.0, 10.00055, 9.998549 
6.650079e+2, 2.4481426e+2, -595009.75, -672298.9, 71043.41, -0.1353997, -0.20598952, -552780.5, -11974.746, 0.0, 10.000028, 9.999055 
6.6500026e+2, 2.5481382e+2, -605856.44, -626022.1, 71600.984, -0.061968863, -0.18193437, -543631.8, -100822.54, 0.0, 9.999271, 9.999064 
6.6499054e+2, 2.6481318e+2, -555166.2, -665026.3, 8954.385, -0.07997046, -0.09876648, -554441.1, -209622.98, 0.0, 9.999452, 9.9980345 
6.649787e+2, 2.748122e+2, -282641.22, -484370.78, 21586.773, -0.17445102, -0.023451911, -280357.1, -33523.613, 0.0000000023427176, 10.000659, 9.998017 
6.6496956e+2, 2.848109e+2, -134554.31, -265185.75, 161405.0, -0.1884779, 0.009631018, -25750.207, 123097.55, 0.0000014418595, 10.000587, 9.998881 
6.649627e+2, 2.9480872e+2, -259006.03, -280851.16, 101953.484, -0.13780524, -0.13684724, -167391.7, -116524.78, 0.000014823799, 9.999077, 9.998825 
6.649519e+2, 3.0480763e+2, -284908.1, -181313.58, -77202.62, -0.21207081, -0.15167357, -140142.02, -140142.02, 0.000057815294, 9.998207, 9.9996 
6.649393e+2, 3.1480953e+2, -294322.1, -93214.07, 28105.814, -0.2571292, 0.03948497, -89360.01, -89360.01, 0.00014076945, 9.997697, 10.0004425 
6.7511946e+2, 1.24831565e+2, -1454108.9, -1565773.6, 5524.1636, -0.09150263, -0.093506515, -1453836.3, 262806.0, 0.0000000023126079, 10.001655, 10.0001955 
6.751091e+2, 1.3483222e+2, -1458127.8, -1516382.5, -108881.97, 0.00990476, -0.08926296, -1374544.5, 244084.95, 0.0, 10.000945, 10.000238 
6.7510164e+2, 1.4483093e+2, -1531755.9, -1698528.6, 16204.97, 0.2033994, -0.138426, -1530195.9, -9554.208, 0.0, 10.000628, 9.998444 
6.750906e+2, 1.5483016e+2, -1337796.5, -1551802.8, -3807.2043, -0.072633006, -0.09405547, -1337728.8, 84926.68, 0.0, 10.001284, 9.998458 
6.7508096e+2, 1.6482952e+2, -1154866.4, -1324066.5, -56521.21, -0.15905258, -0.038980506, -1137722.6, 186941.69, 0.0, 10.001473, 9.999264 
6.7507327e+2, 1.7482884e+2, -1107207.1, -1246093.4, -17633.633, 0.015052082, -0.06144368, -1105003.3, 121666.89, 0.0, 10.001114, 9.999294 
6.750645e+2, 1.8482849e+2, -1049432.5, -1124284.0, 15870.226, 0.039999444, -0.039049793, -1046206.6, 82466.13, 0.0, 10.000652, 9.999681 
6.750545e+2, 1.9482833e+2, -1038489.4, -1067806.4, 23281.922, -0.11341144, -0.04902388, -1025635.7, 5038.4097, 0.0, 10.0000515, 9.999687 
6.750453e+2, 2.0482792e+2, -907564.0, -908068.06, -8199.276, -0.14940354, -0.07351329, -899612.9, 33063.113, 0.0, 10.000064, 10.000114 
6.7503697e+2, 2.1482702e+2, -724165.5, -763799.7, 14420.342, -0.060402792, -0.20518039, -719474.2, 115206.766, 0.0, 10.000636, 10.000151 
6.7502785e+2, 2.2482695e+2, -706871.75, -859995.6, 2522.733, -0.04270671, -0.15272757, -706830.2, 29851.469, 0.0, 10.000763, 9.998751 
6.750176e+2, 2.3482762e+2, -664318.4, -792883.06, 20480.584, -0.11543697, 0.016354028, -661134.6, -22454.627, 0.0, 10.0004, 9.998715 
6.7500865e+2, 2.4482721e+2, -589977.6, -636032.06, 34361.08, -0.083867796, 0.07746282, -571641.4, -30956.684, 0.0, 9.999918, 9.999355 
6.750009e+2, 2.5482532e+2, -602282.56, -593690.25, 54147.824, 0.0542595, -0.07351611, -543668.44, -100969.0, 0.0, 9.999161, 9.999339 
6.749909e+2, 2.6482368e+2, -521570.78, -576498.6, 41311.164, -0.007880462, -0.13581738, -499427.44, -154714.02, 0.0, 9.999374, 9.998678 
6.7497844e+2, 2.7482215e+2, -249213.1, -396762.06, 81114.99, -0.2934922, -0.1824356, -213341.25, 33386.64, 0.0000000015372758, 10.000581, 9.998659 
6.7496914e+2, 2.8482082e+2, -194729.14, -389197.06, 95806.06, -0.319744, -0.14359272, -155459.47, -6717.509, 0.0000017821444, 10.000581, 9.998033 
6.749625e+2, 2.9481933e+2, -331479.78, -406151.47, 62207.266, -0.10019812, -0.12825756, -296264.2, -245504.36, 0.000019076204, 9.998969, 9.998016 
6.749514e+2, 3.0481797e+2, -304532.16, -204964.78, -103628.78, -0.11224165, -0.13066009, -139781.78, -139781.78, 0.000073988194, 9.998141, 9.999462 
6.7493784e+2, 3.1481808e+2, -357546.03, -192200.63, 31838.563, -0.22790651, -0.09801626, -186281.73, -186281.73, 0.00017626988, 9.997573, 9.999811 
6.851219e+2, 1.2483966e+2, -1641354.4, -1639467.4, 141651.67, 0.07265936, -0.05400866, -1498756.0, 217811.16, 0.0000000036242784, 10.000272, 10.000367 
6.851105e+2, 1.3484105e+2, -1449654.0, -1461471.1, -119558.21, 0.07695495, -0.015685689, -1335858.5, 282689.78, 0.0, 10.000804, 10.000669 
6.8510133e+2, 1.4484037e+2, -1461591.0, -1608864.0, 39498.504, 0.11047326, -0.051636998, -1451666.3, 68887.266, 0.0, 10.000857, 9.998953 
6.850919e+2, 1.5483949e+2, -1398956.6, -1525995.3, 75345.78, -0.03145801, -0.06743952, -1363928.0, 58637.43, 0.0, 10.000609, 9.998971 
6.8508285e+2, 1.6483894e+2, -1255053.3, -1335203.6, 62672.066, -0.06354184, -0.04739412, -1220738.9, 103833.06, 0.0, 10.00062, 9.999603 
6.850746e+2, 1.7483854e+2, -1115634.0, -1218115.8, 48407.27, 0.06413598, -0.07429979, -1096384.5, 130190.09, 0.0, 10.000906, 9.999596 
6.8506545e+2, 1.8483837e+2, -1033370.44, -1122166.1, 72203.04, 0.06745819, -0.046910968, -993007.1, 135568.58, 0.0, 10.000788, 9.999628 
6.850549e+2, 1.9483815e+2, -1024981.3, -1065432.4, 61843.72, -0.07973488, -0.058237717, -980139.8, 50438.12, 0.0, 10.000161, 9.999645 
6.850456e+2, 2.0483787e+2, -939790.5, -952986.6, 69603.31, -0.11805321, -0.05502685, -876473.2, 56107.027, 0.0, 9.999997, 9.999819 
6.850377e+2, 2.148373e+2, -786889.75, -828620.25, 20784.502, -0.037651844, -0.12094845, -778304.1, 56280.79, 0.0, 10.000365, 9.999827 
6.850286e+2, 2.2483726e+2, -713002.06, -811775.2, -11264.846, -0.017407298, -0.071764536, -711733.6, 24851.424, 0.0, 10.000485, 9.999218 
6.8501836e+2, 2.3483767e+2, -645541.44, -731613.7, 7871.312, -0.06299147, 0.021364536, -644827.5, -6245.462, 0.0, 10.000283, 9.999196 
6.850092e+2, 2.4483709e+2, -515198.7, -610119.56, 50234.313, -0.043703713, 0.045846995, -493550.66, 47035.98, 0.0, 10.000483, 9.999253 
6.8500084e+2, 2.5483528e+2, -315798.88, -466333.7, 18907.99, 0.039948188, -0.0871711, -313460.25, 129141.26, 0.0, 10.001191, 9.999227 
6.8499094e+2, 2.6483366e+2, -253334.25, -432993.25, 2765.0435, -0.026402693, -0.14839621, -253291.7, 91323.5, 0.0, 10.001152, 9.998802 
6.849794e+2, 2.7483195e+2, -290156.1, -401765.53, -22003.182, -0.23453149, -0.22448184, -285974.94, -39345.043, 0.00000000039754933, 10.000226, 9.998793 
6.849696e+2, 2.8483087e+2, -353630.63, -434066.88, -9000.717, -0.25869408, -0.18461272, -352635.78, -203994.39, 0.000001935021, 9.999363, 9.998306 
6.849613e+2, 2.9483008e+2, -336502.56, -374598.0, 19163.77, -0.0985537, -0.122113355, -328530.56, -277877.72, 0.000022833043, 9.998784, 9.998323 
6.8495005e+2, 3.0482942e+2, -141250.02, -159717.8, -24671.248, -0.10552934, -0.05905125, -124141.26, -124141.26, 0.00009092674, 9.999406, 9.999166 
6.84938e+2, 3.1482798e+2, 71893.164, -27053.242, 50274.332, -0.11163406, -0.14090143, 92954.39, 92954.39, 0.00021663251, 10.000667, 9.999477 
6.951244e+2, 1.2484877e+2, -1700626.8, -1771406.9, 114505.85, 0.23217507, -0.058976766, -1616166.8, 100308.19, 0.00000000017840025, 10.000327, 9.999423 
6.9511056e+2, 1.3484919e+2, -1505950.0, -1580084.3, -92065.41, -0.030903421, -0.02917906, -1443769.9, 174702.31, 0.0, 10.000821, 9.999841 
6.950994e+2, 1.4484897e+2, -1350373.8, -1380269.1, 18011.234, -0.19669822, -0.05937085, -1341915.5, 178557.56, 0.0, 10.00086, 10.000525 
6.950928e+2, 1.5484919e+2, -1288472.1, -1301979.6, 79410.93, -0.034533925, -0.1241143, -1215528.3, 206938.61, 0.0, 10.000622, 10.00051 
6.950846e+2, 1.6484906e+2, -1264291.4, -1344677.9, 61697.652, 0.02477966, -0.13408893, -1230849.8, 93616.57, 0.0, 10.000585, 9.999551 
6.950756e+2, 1.7484851e+2, -1128668.5, -1231883.6, 72282.16, 0.03615409, -0.16793261, -1091461.4, 135011.66, 0.0, 10.000852, 9.999527 
6.950659e+2, 1.8484817e+2, -1043752.44, -1126238.1, 40812.363, 0.0115521215, -0.1547019, -1026972.7, 101503.95, 0.0, 10.000712, 9.999635 
6.950554e+2, 1.9484776e+2, -1037728.3, -1072659.6, 50065.17, -0.067529134, -0.18640454, -1002169.7, 28310.354, 0.0, 10.000086, 9.999628 
6.95046e+2, 2.048478e+2, -1019716.44, -1099427.0, 70366.26, -0.09247091, -0.10357655, -978702.4, -46220.54, 0.0, 9.999905, 9.998861 
6.95038e+2, 2.1484812e+2, -874869.06, -980318.44, 45479.754, -0.05780616, 0.018070012, -857964.0, -23480.234, 0.0, 10.000231, 9.998851 
6.950291e+2, 2.2484735e+2, -677576.5, -708047.7, -28151.62, -0.04576764, 0.0047161006, -660802.1, 75687.55, 0.0, 10.000354, 9.999993 
6.950189e+2, 2.3484519e+2, -608669.8, -624062.5, 10987.22, -0.064107694, -0.23965043, -602951.5, 35551.246, 0.0, 10.000153, 9.999994 
6.950092e+2, 2.4484399e+2, -561377.94, -685012.75, 66031.49, -0.11558883, -0.29272896, -532743.44, 7767.4287, 0.0, 10.00039, 9.998785 
6.949998e+2, 2.5484368e+2, -360068.66, -540191.1, 57990.645, -0.21051414, -0.22907278, -343013.4, 99502.18, 0.0, 10.00111, 9.99876 
6.949904e+2, 2.6484305e+2, -291690.6, -498057.78, -39649.65, -0.2179646, -0.14737803, -284334.84, 60189.016, 0.0, 10.00109, 9.998385 
6.9498104e+2, 2.7484167e+2, -334644.47, -472535.13, -45829.605, -0.12004637, -0.14472419, -320802.03, -74262.81, 0.0000000054780975, 10.0001335, 9.998352 
6.949706e+2, 2.8484103e+2, -266235.84, -238907.7, -44035.59, -0.124127574, -0.10617612, -206464.94, -57918.72, 0.000002364329, 9.999306, 9.99967 
6.949586e+2, 2.94841e+2, -251279.61, -177768.2, 17332.2, -0.27936172, -0.1114216, -173886.64, -123341.26, 0.000027093956, 9.998706, 9.999707 
6.949478e+2, 3.0484194e+2, -170692.25, -222019.44, 20156.3, -0.30499104, 0.064122, -163723.1, -163723.1, 0.00010798756, 9.999406, 9.998739 
6.949395e+2, 3.148399e+2, 51264.23, -56294.29, 123406.63, -0.089161396, -0.035912246, 132100.73, 132100.73, 0.00025661878, 10.000609, 9.999304 
7.0512563e+2, 1.2485812e+2, -1515387.1, -1717734.9, 154099.75, 0.26364776, -0.11917731, -1432216.5, 284164.5, 0.0, 10.001736, 9.99913 
7.051117e+2, 1.3485849e+2, -1509059.9, -1615739.9, -16088.931, 0.011987651, -0.06366167, -1506686.1, 111696.34, 0.0, 10.000921, 9.999561 
7.050995e+2, 1.4485888e+2, -1404299.0, -1342234.9, 106014.11, -0.234366, -0.04401046, -1262804.4, 257573.61, 0.0, 10.000227, 10.0010805 
7.050934e+2, 1.5485963e+2, -1317494.8, -1246329.4, 68819.77, -0.004727971, -0.113177635, -1204437.6, 217926.56, 0.0, 10.000148, 10.001101 
7.050852e+2, 1.648598e+2, -1356296.0, -1378054.5, 48353.934, 0.06725801, -0.12924828, -1317612.6, 6747.426, 0.0, 9.999916, 9.999638 
7.050756e+2, 1.7485917e+2, -1337274.6, -1318762.3, 46554.387, 0.039166152, -0.18077475, -1280552.8, -54184.633, 0.0, 9.999371, 9.999636 
7.050661e+2, 1.848589e+2, -1192780.8, -1195636.6, 58972.543, 0.02150805, -0.16786836, -1135218.9, -6847.762, 0.0, 9.999677, 9.999659 
7.0505655e+2, 1.9485867e+2, -912656.06, -1013146.6, 47730.168, 0.0011489824, -0.18000801, -893599.44, 136772.72, 0.0, 10.000934, 9.999637 
7.050473e+2, 2.0485853e+2, -837604.94, -1044315.6, 99983.69, -0.020074893, -0.101796694, -797158.1, 135217.56, 0.0, 10.001288, 9.99858 
7.0503855e+2, 2.1485828e+2, -837461.06, -993748.0, 106116.12, -0.040765487, -0.007438798, -783820.5, 50562.895, 0.0, 10.000614, 9.99858 
7.0502937e+2, 2.2485718e+2, -664937.6, -710292.44, 58348.48, -0.051519964, -0.037742153, -625014.6, 111377.766, 0.0, 10.000496, 9.999902 
7.050195e+2, 2.3485488e+2, -491053.7, -575448.1, 8790.837, -0.059022002, -0.28441018, -490147.75, 148257.81, 0.0, 10.001013, 9.999908 
7.0500994e+2, 2.4485372e+2, -526527.8, -691247.7, 47075.625, -0.08998047, -0.32167396, -514023.25, 26390.658, 0.0, 10.00073, 9.998581 
7.0500076e+2, 2.5485355e+2, -597558.9, -676046.2, 40059.52, -0.1453952, -0.22211127, -580723.75, -138304.67, 0.0, 9.999573, 9.9985695 
7.049912e+2, 2.6485306e+2, -548194.9, -598292.1, -2982.7668, -0.14919858, -0.12542696, -548017.94, -203591.31, 0.0, 9.999238, 9.9985895 
7.0498127e+2, 2.748519e+2, -373450.84, -462256.28, 11944.516, -0.082479015, -0.12477083, -371872.34, -125432.76, 0.000000016182126, 9.999761, 9.998595 
7.049704e+2, 2.8485113e+2, -151442.0, -194268.63, 7771.5767, -0.10445568, -0.10553227, -150075.34, -1628.1825, 0.0000030357212, 10.000113, 9.999605 
7.0495826e+2, 2.948508e+2, -56878.96, -94011.266, -63150.59, -0.24433094, -0.13693506, -9621.871, 40827.2, 0.000031540207, 10.000063, 9.999643 
7.049475e+2, 3.0485153e+2, -168049.81, -208245.92, -59533.957, -0.25988564, 0.016209034, -125312.98, -125312.98, 0.00012311795, 9.999373, 9.998843 
7.0493925e+2, 3.1484953e+2, -293787.88, -137877.23, 42229.254, -0.028213665, -0.09709749, -127173.984, -127173.984, 0.0002906225, 9.997884, 10.000041 
7.1512467e+2, 1.2486763e+2, -1478175.8, -1643718.1, 45226.19, -0.05935907, -0.22498411, -1466625.9, 249660.3, 0.0, 10.001755, 9.999622 
7.1511376e+2, 1.348688e+2, -1481315.4, -1568322.0, -40634.97, 0.0962244, -0.12794134, -1465289.4, 152990.89, 0.0, 10.00096, 9.999868 
7.151012e+2, 1.4487016e+2, -1431946.3, -1403845.6, 87971.22, -0.12469429, -0.006261886, -1328809.8, 191458.31, 0.0, 10.000248, 10.000644 
7.150934e+2, 1.5487096e+2, -1348623.0, -1310220.0, 78809.836, -0.05077146, -0.027276052, -1248306.3, 173950.23, 0.0, 10.00014, 10.000668 
7.150844e+2, 1.6487114e+2, -1344452.8, -1342822.8, 17490.303, -0.036830682, -0.03446872, -1326128.5, -1875.4485, 0.0, 9.999873, 9.999898 
7.150746e+2, 1.7487045e+2, -1322213.3, -1285974.3, 36755.33, -0.026344007, -0.11676895, -1263114.9, -36854.445, 0.0, 9.999368, 9.999863 
7.150658e+2, 1.8487045e+2, -1193239.4, -1191620.5, 94994.25, -0.004575966, -0.088713564, -1097432.3, 30827.734, 0.0, 9.999651, 9.999701 
7.150579e+2, 1.9487096e+2, -922441.2, -1011872.25, 107245.39, 0.020503337, -0.035915416, -850962.7, 179291.0, 0.0, 10.00084, 9.999691 
7.1504897e+2, 2.048702e+2, -829857.44, -996599.8, 65468.773, -0.003561179, -0.040900618, -807224.3, 125036.11, 0.0, 10.001158, 9.998968 
7.1503896e+2, 2.1486787e+2, -835989.56, -949666.9, 89046.375, -0.08223609, -0.19307938, -787187.8, 47095.26, 0.0, 10.000448, 9.998958 
7.1502924e+2, 2.2486681e+2, -750431.3, -858822.44, 64948.715, -0.13107848, -0.19066522, -720036.7, 16255.702, 0.0, 10.000365, 9.998948 
7.150197e+2, 2.3486683e+2, -579349.7, -727651.75, 39634.465, -0.15428115, -0.10804648, -569421.75, 68868.09, 0.0, 10.000875, 9.998932 
7.150111e+2, 2.4486627e+2, -538806.6, -689989.75, -7147.429, -0.066569634, -0.036742005, -538469.5, 1825.995, 0.0, 10.000615, 9.998647 
7.150033e+2, 2.5486487e+2, -606717.06, -670888.5, 6339.2075, 0.12843055, -0.06609742, -606096.8, -163784.55, 0.0, 9.999474, 9.998652 
7.1499294e+2, 2.6486373e+2, -494342.84, -480711.5, 2861.8718, 0.07369759, -0.0776549, -480135.03, -135811.77, 0.0, 9.999207, 9.999416 
7.149797e+2, 2.748626e+2, -326733.22, -348437.88, 45665.336, -0.24023287, -0.16350503, -290648.4, -44317.277, 0.000000020828322, 9.999682, 9.999418 
7.1496886e+2, 2.8486115e+2, -260685.06, -406603.6, -3941.3452, -0.29360583, -0.1842168, -260578.67, -112233.87, 0.0000037854625, 10.000058, 9.998173 
7.1496004e+2, 2.9485938e+2, -177527.02, -323656.38, -48625.266, -0.112538755, -0.2054196, -162825.73, -112461.08, 0.000035842306, 9.999987, 9.998099 
7.1494883e+2, 3.048582e+2, -120524.55, -118037.31, -123276.85, -0.08810131, -0.19043793, 4002.1924, 4002.1924, 0.000135526, 9.999393, 9.999461 
7.149363e+2, 3.1485587e+2, -204320.81, 68322.375, 32538.521, -0.16655377, -0.4093887, 72151.88, 72151.88, 0.00031586387, 9.99778, 10.001519 
7.25125e+2, 1.2488078e+2, -1610513.1, -1763166.3, 198383.95, -0.15564063, -0.22141808, -1474279.3, 241874.31, 0.0, 10.001047, 9.999172 
7.251159e+2, 1.3488124e+2, -1418330.9, -1595548.5, 50912.348, 0.18907765, -0.13505659, -1404745.9, 213410.38, 0.0, 10.0016575, 9.999342 
7.25103e+2, 1.4488216e+2, -1303666.0, -1430757.0, 149692.75, -0.021785371, 0.009147489, -1204589.4, 315560.75, 0.0, 10.0015, 9.999868 
7.2509354e+2, 1.5488203e+2, -1328745.9, -1383113.9, 91578.7, -0.062954105, -0.024763277, -1260401.8, 161748.23, 0.0, 10.000627, 9.999936 
7.250841e+2, 1.6488193e+2, -1247287.6, -1297667.3, 55044.773, -0.06784501, -0.023473298, -1211942.8, 112207.26, 0.0, 10.000528, 9.999902 
7.2507524e+2, 1.7488162e+2, -1046614.94, -1148726.3, 34750.01, 0.013431188, -0.06992036, -1035911.0, 190241.38, 0.0, 10.001234, 9.999907 
7.2506666e+2, 1.8488151e+2, -988288.94, -1113215.8, 97483.17, 0.050184634, -0.047410037, -934973.9, 193178.63, 0.0, 10.001143, 9.999522 
7.2505844e+2, 1.9488136e+2, -1033261.7, -1084681.6, 70560.4, 0.026553085, -0.040427294, -983873.25, 46279.813, 0.0, 10.000164, 9.999519 
7.2504956e+2, 2.0488045e+2, -960060.0, -1029948.5, 38536.016, -0.002909984, -0.0654638, -942983.8, -10823.509, 0.0, 10.000136, 9.999238 
7.250401e+2, 2.1487841e+2, -724908.5, -868151.25, 34353.996, -0.037691604, -0.21556866, -717095.5, 117082.42, 0.0, 10.00108, 9.999221 
7.250305e+2, 2.248774e+2, -637236.44, -845625.0, 47562.668, -0.08579801, -0.20244858, -626894.0, 109292.46, 0.0, 10.001316, 9.998584 
7.2502065e+2, 2.3487729e+2, -611636.9, -786757.3, 43220.5, -0.13823217, -0.094124995, -601550.75, 36636.504, 0.0, 10.000832, 9.998553 
7.2501165e+2, 2.4487662e+2, -539186.6, -682831.75, 22541.717, -0.06130254, -0.02167161, -535732.25, 4462.705, 0.0, 10.000585, 9.998704 
7.2500336e+2, 2.5487506e+2, -427326.9, -580717.4, 14389.689, 0.13633503, -0.07218572, -425988.66, 16223.835, 0.0, 10.000681, 9.998692 
7.249928e+2, 2.6487392e+2, -302269.03, -365742.66, 26011.38, 0.08803857, -0.09447703, -292971.5, 51251.242, 0.0, 10.00044, 9.999601 
7.2497994e+2, 2.7487296e+2, -279661.13, -305941.63, -4175.26, -0.19522402, -0.1807729, -279013.75, -32785.445, 0.000000011844985, 9.999915, 9.999598 
7.249694e+2, 2.8487173e+2, -293426.2, -412801.53, 12510.419, -0.23168139, -0.1896004, -292129.2, -143889.98, 0.000004675658, 9.999825, 9.998222 
7.2496074e+2, 2.948701e+2, -142301.63, -301249.22, 54219.063, -0.0381327, -0.20217653, -125568.41, -75311.1, 0.000040333267, 10.000223, 9.998126 
7.2494906e+2, 3.048681e+2, -1671.5956, -73201.74, -3184.3022, -0.042703405, -0.26561844, -1530.1201, -1530.1201, 0.00014552829, 10.000275, 9.999348 
7.249363e+2, 3.1486642e+2, 79010.54, 196446.69, 50615.145, -0.04010859, -0.4077626, 215250.9, 215250.9, 0.00033116215, 9.999779, 10.001434 
7.351258e+2, 1.2489744e+2, -1699099.4, -1939314.6, 133386.94, -0.23267604, -0.09744873, -1639713.5, 76271.27, 0.0, 10.001027, 9.997961 
7.3511773e+2, 1.3489568e+2, -1522824.3, -1814304.4, 77808.47, 0.18284081, -0.08907758, -1503354.4, 114657.234, 0.0, 10.001655, 9.997844 
7.3510456e+2, 1.4489472e+2, -1387114.1, -1589480.0, 103796.75, -0.048377957, -0.0066373986, -1343342.8, 176683.14, 0.0, 10.00145, 9.998795 
7.3509365e+2, 1.5489279e+2, -1408896.3, -1550717.8, 73516.38, -0.14932108, -0.11384495, -1377665.0, 44380.492, 0.0, 10.000633, 9.998782 
7.3508435e+2, 1.648922e+2, -1256359.8, -1320342.8, 68619.72, -0.12835559, -0.09337523, -1212640.5, 111410.24, 0.0, 10.000542, 9.999739 
7.350772e+2, 1.748928e+2, -1061433.4, -1173469.3, 73368.06, 0.058675624, -0.035673194, -1025142.75, 200900.38, 0.0, 10.001202, 9.999755 
7.350684e+2, 1.8489215e+2, -1033620.3, -1184745.5, 51571.19, 0.08159572, -0.03638174, -1017699.06, 110349.27, 0.0, 10.001054, 9.999071 
7.3505765e+2, 1.9488998e+2, -1079916.5, -1157225.5, 44378.77, -0.080408946, -0.18420312, -1059718.3, -29648.973, 0.0, 10.000069, 9.999062 
7.350488e+2, 2.0488934e+2, -960647.25, -1009332.4, 62184.39, -0.11199961, -0.16794476, -918210.6, 13863.972, 0.0, 10.000036, 9.999429 
7.3504156e+2, 2.1488999e+2, -730093.56, -844513.3, 82394.95, -0.018505856, -0.07386899, -686994.44, 147072.13, 0.0, 10.000932, 9.999451 
7.3503274e+2, 2.2488907e+2, -646400.3, -831290.56, 18380.422, -0.013648099, -0.07166016, -644590.8, 91482.47, 0.0, 10.001168, 9.998755 
7.3502195e+2, 2.3488626e+2, -620799.2, -769862.4, 36272.83, -0.107803345, -0.25219128, -612441.25, 25656.744, 0.0, 10.000678, 9.998742 
7.3501134e+2, 2.4488473e+2, -545182.06, -676445.8, 17029.582, -0.17739414, -0.27768236, -543008.7, -2896.4573, 0.0, 10.000502, 9.998788 
7.350007e+2, 2.548842e+2, -440299.6, -579469.94, 29801.662, -0.22295503, -0.23415087, -434186.44, 7932.0146, 0.0, 10.000561, 9.998756 
7.349907e+2, 2.6488382e+2, -347561.84, -441081.72, -1822.6477, -0.18867339, -0.16428821, -347526.3, -3403.0862, 0.0, 10.00036, 9.999123 
7.349814e+2, 2.7488315e+2, -327348.72, -383731.84, -7141.535, -0.06006482, -0.16655262, -326458.22, -80328.44, 0.000000051096855, 9.999827, 9.999105 
7.3497146e+2, 2.8488305e+2, -179691.89, -183654.72, 16487.543, -0.037738595, -0.1198296, -165067.13, -16937.281, 0.0000058850314, 9.999843, 9.99979 
7.3496014e+2, 2.948832e+2, -40890.242, -77099.76, 84868.32, -0.15712027, -0.11724098, 27782.959, 77908.81, 0.000044056193, 10.00016, 9.999696 
7.349477e+2, 3.0488136e+2, -69739.57, -217202.6, -26423.98, -0.23149982, -0.19042109, -65147.637, -65147.637, 0.00015023243, 10.000279, 9.99836 
7.349379e+2, 3.148808e+2, -51105.742, -53230.367, 66223.85, 0.09011359, -0.118689984, 14064.318, 14064.318, 0.0003329124, 9.999689, 9.999762 
7.451272e+2, 1.24910176e+2, -1814379.8, -1931380.1, -62838.996, -0.12920228, -0.06749903, -1787025.4, -71165.125, 0.0, 9.999984, 9.998503 
7.45119e+2, 1.3490805e+2, -1582339.4, -1805031.8, 10979.769, 0.17507792, -0.12556945, -1581799.4, 36087.31, 0.0, 10.001105, 9.998159 
7.4510616e+2, 1.4490671e+2, -1394728.4, -1629400.3, 104466.234, -0.032388583, -0.08183501, -1354962.8, 164940.8, 0.0, 10.0015545, 9.9984665 
7.4509573e+2, 1.5490462e+2, -1308880.4, -1536585.5, 101209.5, -0.038214408, -0.17260152, -1270398.5, 151527.08, 0.0, 10.001473, 9.998467 
7.450863e+2, 1.6490385e+2, -1162485.4, -1316462.5, 171803.47, -0.019721158, -0.1362402, -1051209.0, 272724.66, 0.0, 10.001368, 9.999373 
7.450785e+2, 1.7490417e+2, -1077420.1, -1219690.1, 138085.73, 0.072303936, -0.06771024, -993223.7, 232705.95, 0.0, 10.001257, 9.999416 
7.450692e+2, 1.849034e+2, -1039476.94, -1203817.0, 109353.625, 0.07033361, -0.057626393, -984862.0, 143074.58, 0.0, 10.001072, 9.998937 
7.450584e+2, 1.9490121e+2, -987014.06, -1129855.6, 105693.055, -0.0436271, -0.19480261, -930873.3, 99084.59, 0.0, 10.000769, 9.998917 
7.450495e+2, 2.049005e+2, -894946.06, -987839.5, 183962.13, -0.062687494, -0.17331189, -751657.8, 180306.48, 0.0, 10.000539, 9.99932 
7.4504256e+2, 2.1490107e+2, -819477.3, -902141.56, 154027.0, 0.016864605, -0.07320978, -701333.2, 132624.42, 0.0, 10.000385, 9.999314 
7.450337e+2, 2.2490019e+2, -759679.9, -866128.94, 76027.59, 0.021466376, -0.06844132, -720097.9, 15866.4375, 0.0, 10.00031, 9.998928 
7.4502283e+2, 2.3489754e+2, -663328.56, -771535.2, 68607.69, -0.063977174, -0.2529874, -630058.06, 7929.602, 0.0, 10.000296, 9.9989195 
7.4501187e+2, 2.4489592e+2, -577171.2, -683866.06, 83237.305, -0.1585055, -0.29955247, -531653.06, 8349.11, 0.0, 10.000242, 9.998871 
7.450007e+2, 2.5489515e+2, -478148.53, -585374.8, 71500.09, -0.25301856, -0.28976113, -442393.72, -383.93668, 0.0, 10.000248, 9.998869 
7.4499065e+2, 2.6489472e+2, -369758.1, -477197.44, 65162.984, -0.21938573, -0.21756814, -339026.5, 4988.4233, 0.0, 10.000316, 9.9989 
7.4498177e+2, 2.7489433e+2, -250046.64, -367171.3, 56505.88, -0.03770681, -0.17040648, -227230.47, 18789.53, 0.00000017449423, 10.000456, 9.998915 
7.449718e+2, 2.848941e+2, -132186.17, -171135.47, 54634.184, 0.0040780716, -0.11813412, -93659.47, 54362.22, 0.0000070145306, 10.000214, 9.999705 
7.4496037e+2, 2.9489377e+2, -109933.31, -115577.0, -29074.352, -0.11460459, -0.1557723, -83544.19, -33521.6, 0.00004543542, 9.999702, 9.999661 
7.449476e+2, 3.048926e+2, -114527.586, -224488.84, -124870.16, -0.24135016, -0.17060032, -33069.863, -33069.863, 0.00014809403, 9.999917, 9.998477 
7.4493843e+2, 3.1489256e+2, 39574.94, -50333.816, 185.2279, 0.13924089, -0.056175075, 39575.324, 39575.324, 0.00032280377, 10.000494, 9.999387 
7.5512844e+2, 1.2491938e+2, -1661169.6, -1603586.1, -87892.36, -0.061830215, -0.11187124, -1539889.9, 175885.61, 0.0, 9.999953, 10.000763 
7.5511926e+2, 1.349184e+2, -1446440.3, -1518518.3, 59298.242, 0.07297223, -0.25267643, -1413088.4, 204692.73, 0.0, 10.001095, 10.000129 
7.551076e+2, 1.4491808e+2, -1367241.0, -1572460.5, 85216.01, -0.071488865, -0.22407153, -1336469.6, 183313.72, 0.0, 10.001549, 9.998862 
7.550993e+2, 1.5491764e+2, -1283808.4, -1478550.9, 106769.59, 0.14207308, -0.18907109, -1236677.4, 185112.38, 0.0, 10.001446, 9.998881 
7.550896e+2, 1.6491692e+2, -1205297.5, -1397841.1, 153389.1, 0.1435115, -0.14373922, -1120471.4, 203327.52, 0.0, 10.001332, 9.998834 
7.5507885e+2, 1.7491576e+2, -1122513.0, -1306896.8, 145418.86, -0.042092387, -0.1654401, -1042524.8, 183287.53, 0.0, 10.001232, 9.998831 
7.55069e+2, 1.8491524e+2, -1028559.44, -1169909.5, 85517.055, -0.07880903, -0.11226072, -988292.5, 139525.4, 0.0, 10.00102, 9.999197 
7.5506014e+2, 1.9491504e+2, -980594.8, -1095138.3, 105941.75, 0.026750792, -0.07600638, -917435.2, 112383.67, 0.0, 10.000678, 9.999199 
7.550513e+2, 2.0491393e+2, -949696.44, -1074580.9, 165678.11, 0.044571217, -0.0819257, -835084.25, 96745.02, 0.0, 10.000418, 9.998789 
7.550427e+2, 2.1491168e+2, -880275.25, -985503.4, 157205.14, -0.029431844, -0.210575, -767113.25, 66737.87, 0.0, 10.00021, 9.998824 
7.550332e+2, 2.2491087e+2, -768112.4, -849623.8, 64703.336, -0.07739671, -0.18470876, -732398.8, 3460.1416, 0.0, 10.000163, 9.999114 
7.550229e+2, 2.3491122e+2, -673829.75, -756678.44, 81248.58, -0.1099925, -0.08420762, -624054.8, 13800.432, 0.0, 10.000143, 9.999095 
7.550128e+2, 2.4491031e+2, -586456.25, -682308.94, 71364.49, -0.10746169, -0.07156778, -548418.5, -8555.017, 0.0, 10.000149, 9.998928 
7.5500304e+2, 2.5490776e+2, -487200.06, -583779.3, 82673.875, -0.06874031, -0.24598384, -439746.0, 2141.4006, 0.0, 10.000158, 9.998925 
7.5499225e+2, 2.6490656e+2, -371202.56, -467834.3, 59980.8, -0.1160529, -0.25692758, -342498.16, 1400.2744, 0.0, 10.000267, 9.998986 
7.549804e+2, 2.7490652e+2, -263252.0, -367077.2, 75031.164, -0.24163894, -0.18387833, -223925.39, 21973.08, 0.0000002213921, 10.000342, 9.998969 
7.5497013e+2, 2.8490505e+2, -262215.34, -434324.44, 25135.361, -0.20394012, -0.16813368, -258619.63, -110705.98, 0.000006961638, 10.0001745, 9.997923 
7.5496125e+2, 2.9490185e+2, -243193.19, -377882.56, -30344.738, -0.03397679, -0.30955368, -236672.39, -186724.92, 0.00004401986, 9.99963, 9.997903 
7.5494826e+2, 3.0490148e+2, -36380.33, -44567.586, -107220.3, -0.19613412, -0.22445846, 66824.46, 66824.46, 0.0001416952, 9.999851, 9.999737 
7.549367e+2, 3.1490293e+2, 91239.914, 78258.89, 38409.12, -0.14129618, -0.08679931, 123703.055, 123703.055, 0.0003069929, 10.000409, 10.000304 
7.6512927e+2, 1.24928616e+2, -1645058.4, -1549057.8, 6112.6323, 0.050806776, -0.21825115, -1548670.1, 167015.36, 0.00000000032551553, 9.999798, 10.001227 
7.6512027e+2, 1.3492897e+2, -1423854.4, -1474024.6, 13495.332, 0.0695856, -0.2648781, -1420454.6, 197223.17, 0.0, 10.001061, 10.0004635 
7.651092e+2, 1.4492922e+2, -1358643.4, -1524028.3, -30105.746, -0.05227764, -0.21657424, -1353333.5, 166340.53, 0.0, 10.001409, 9.999269 
7.651004e+2, 1.5492938e+2, -1275655.9, -1429837.4, -34708.043, 0.12613186, -0.16214138, -1268202.9, 153471.23, 0.0, 10.001296, 9.999298 
7.650905e+2, 1.6492872e+2, -1243975.8, -1421141.5, 53949.527, 0.12293097, -0.1287931, -1228840.4, 94842.04, 0.0, 10.001101, 9.9987755 
7.650798e+2, 1.7492703e+2, -1187704.6, -1343893.4, 58436.59, -0.045595136, -0.19933818, -1168261.5, 57439.336, 0.0, 10.000817, 9.998768 
7.6507e+2, 1.8492651e+2, -1056746.8, -1170707.3, 40076.4, -0.06406201, -0.15007257, -1044064.5, 83641.89, 0.0, 10.000781, 9.999301 
7.6506126e+2, 1.9492687e+2, -926650.06, -1059236.5, 26607.914, 0.062305514, -0.06777112, -921509.56, 108192.414, 0.0, 10.001003, 9.9992895 
7.650524e+2, 2.0492586e+2, -897933.44, -1060567.9, 106564.68, 0.09224288, -0.06390513, -845203.94, 86508.02, 0.0, 10.000825, 9.9986925 
7.6504326e+2, 2.1492314e+2, -887396.6, -1005805.25, 107942.47, 0.018003408, -0.22966196, -823488.25, 10251.269, 0.0, 10.0002165, 9.998693 
7.650336e+2, 2.2492236e+2, -793069.3, -839485.3, 66271.15, -0.036136217, -0.20275335, -746060.0, -10312.448, 0.0, 9.999908, 9.999302 
7.650232e+2, 2.3492339e+2, -689243.9, -740940.9, 58758.637, -0.07729604, -0.054393552, -650899.5, -13162.108, 0.0, 9.99995, 9.999287 
7.6501346e+2, 2.4492288e+2, -611882.75, -683977.44, 69962.71, -0.04292363, -0.01495308, -569226.9, -29484.678, 0.0, 9.999937, 9.999012 
7.6500434e+2, 2.5492057e+2, -527663.9, -593078.2, 62750.35, 0.06503878, -0.17348944, -489608.28, -47843.652, 0.0, 9.999846, 9.999007 
7.649933e+2, 2.649193e+2, -393967.88, -490267.63, 71395.1, -0.024413355, -0.18804373, -356003.44, -12226.901, 0.0, 10.0001545, 9.998891 
7.649804e+2, 2.749189e+2, -194958.6, -343546.94, 48774.746, -0.29871616, -0.14287196, -180378.7, 65401.152, 0.00000016204108, 10.000848, 9.99889 
7.649703e+2, 2.8491712e+2, -119230.78, -410395.6, 52549.8, -0.26219183, -0.13787012, -110036.836, 37761.25, 0.000006290961, 10.001351, 9.997514 
7.6496285e+2, 2.949137e+2, 13157.688, -293665.13, 78623.586, 0.07004984, -0.26300803, 32131.686, 81965.29, 0.000041719115, 10.001578, 9.997527 
7.6494956e+2, 3.0491295e+2, 135319.25, -50493.49, 4177.7, -0.1099654, -0.15275952, 135413.13, 135413.13, 0.00013461517, 10.001407, 9.998953 
7.649365e+2, 3.1491262e+2, 67265.945, 33310.215, -69579.61, -0.18786566, -0.1145711, 121909.09, 121909.09, 0.00029005748, 10.000379, 10.000019 
7.7512896e+2, 1.2493784e+2, -1724520.5, -1707009.6, -6700.9526, -0.02918366, -0.38725433, -1704739.6, 10851.388, 0.0000000023621072, 9.999776, 10.000152 
7.751212e+2, 1.3493979e+2, -1505815.5, -1640128.1, 63564.902, 0.032978836, -0.15531306, -1480503.1, 137072.89, 0.0, 10.001053, 9.999325 
7.751104e+2, 1.4494021e+2, -1322857.5, -1452425.5, -51690.145, -0.1048139, -0.059424773, -1304763.0, 214811.19, 0.0, 10.001411, 9.999763 
7.750989e+2, 1.5494e+2, -1243130.9, -1360713.1, -25170.47, -0.17871386, -0.090168156, -1237969.3, 183607.8, 0.0, 10.0012865, 9.999778 
7.750889e+2, 1.6493939e+2, -1219002.9, -1360697.5, 30659.912, -0.17117788, -0.09524247, -1212653.3, 110929.36, 0.0, 10.001064, 9.999208 
7.7508086e+2, 1.7493808e+2, -1161458.9, -1281247.0, 61062.906, -0.04412028, -0.17141102, -1135819.5, 89774.9, 0.0, 10.000784, 9.999214 
7.750718e+2, 1.8493731e+2, -1070067.6, -1185819.6, 38313.76, 0.00394223, -0.16577752, -1058534.9, 69066.51, 0.0, 10.000719, 9.999233 
7.7506155e+2, 1.9493687e+2, -944559.8, -1075093.9, 46232.867, -0.040489614, -0.15572871, -929843.94, 99761.64, 0.0, 10.000907, 9.999229 
7.7505225e+2, 2.0493639e+2, -895523.6, -1023132.25, 71123.39, -0.025035117, -0.11394836, -863779.4, 67832.016, 0.0, 10.000685, 9.999016 
7.750441e+2, 2.1493551e+2, -889513.0, -971795.56, 95263.26, 0.054778807, -0.12455128, -826886.8, 6734.9404, 0.0, 10.000056, 9.999001 
7.750345e+2, 2.249348e+2, -804250.8, -828362.75, 55004.27, 0.039651748, -0.11448694, -759996.8, -24368.064, 0.0, 9.999758, 9.999454 
7.750234e+2, 2.3493391e+2, -697578.4, -727145.25, 71436.055, -0.07565702, -0.17286602, -639412.06, -1776.8922, 0.0, 9.999811, 9.999452 
7.750133e+2, 2.4493356e+2, -620231.56, -673869.94, 54833.883, -0.073239125, -0.1323371, -586009.56, -46370.707, 0.0, 9.999821, 9.999138 
7.7500427e+2, 2.5493363e+2, -535016.25, -583743.44, 72011.945, 0.04917929, -0.066589154, -483358.13, -41716.883, 0.0, 9.999742, 9.999123 
7.749936e+2, 2.6493302e+2, -421086.5, -534662.7, 88173.87, -0.034639288, -0.0070661474, -372996.0, -29347.201, 0.0, 10.0001, 9.998614 
7.749812e+2, 2.7493137e+2, -224643.0, -389344.88, 87376.24, -0.32874748, -0.057773273, -186926.11, 58739.652, 0.00000014054619, 10.000772, 9.998616 
7.749716e+2, 2.849301e+2, -58171.86, -264406.63, 51487.203, -0.28837988, -0.03822097, -46032.457, 101644.01, 0.0000059856334, 10.001276, 9.998548 
7.749648e+2, 2.9492918e+2, 76407.8, -151533.73, 104024.17, 0.07835407, -0.020711785, 116743.1, 166424.84, 0.0000396548, 10.001532, 9.998523 
7.749515e+2, 3.0492714e+2, -65881.82, -462898.5, -38232.047, -0.0802124, 0.052143447, -62233.66, -62233.66, 0.00012692052, 10.001385, 9.996136 
7.749374e+2, 3.149214e+2, -79526.91, -247460.48, -97297.664, -0.20591907, -0.16158965, -34974.21, -34974.21, 0.00027215088, 10.000264, 9.998157 
7.851292e+2, 1.2494931e+2, -1547493.8, -1665644.4, 42841.984, -0.037897583, -0.34094205, -1533594.3, 181886.0, 0.0000000040597263, 10.001212, 9.999731 
7.8512174e+2, 1.3495146e+2, -1618839.9, -1725949.3, 128955.39, 0.023402529, -0.058128793, -1532760.8, 84703.39, 0.0, 10.000438, 9.999019 
7.851115e+2, 1.449514e+2, -1551904.6, -1556070.8, 40345.3, -0.04749286, 0.0016757107, -1513588.6, 5879.1646, 0.0, 9.99982, 9.999812 
7.850992e+2, 1.5495075e+2, -1489917.6, -1476239.8, 8322.481, -0.1893917, -0.07337663, -1472306.8, -50831.715, 0.0, 9.999584, 9.999801 
7.850894e+2, 1.649503e+2, -1362204.1, -1376522.9, 91056.125, -0.1682399, -0.08819238, -1278026.4, 45452.03, 0.0, 9.999849, 9.99968 
7.850824e+2, 1.7494975e+2, -1163191.9, -1227602.5, 97731.15, 0.05271396, -0.13595363, -1092496.5, 132984.19, 0.0, 10.00054, 9.999693 
7.8507334e+2, 1.84949e+2, -1092771.1, -1220443.9, 80080.16, 0.10493946, -0.14310691, -1054197.0, 73290.23, 0.0, 10.000673, 9.999012 
7.850621e+2, 1.9494778e+2, -1072183.3, -1158966.4, 53466.67, -0.029189928, -0.18862693, -1046716.2, -17215.574, 0.0, 10.000145, 9.999013 
7.850524e+2, 2.0494758e+2, -969214.9, -1007907.25, 98241.57, -0.029081274, -0.13060397, -888432.7, 43071.59, 0.0, 9.999958, 9.999471 
7.850446e+2, 2.1494809e+2, -866610.94, -908989.9, 110647.56, 0.11624568, -0.047862362, -775142.2, 58358.508, 0.0, 9.99999, 9.999463 
7.8503495e+2, 2.2494759e+2, -739717.4, -772658.06, 116040.81, 0.107548766, -0.050645664, -638983.9, 96520.67, 0.0, 10.000085, 9.9996805 
7.8502345e+2, 2.3494576e+2, -620917.4, -665912.1, 114520.45, -0.061874572, -0.22605368, -526705.44, 110813.25, 0.0, 10.000229, 9.999674 
7.850132e+2, 2.449453e+2, -531517.0, -661090.2, 113983.51, -0.09240469, -0.192677, -465194.7, 74328.87, 0.0, 10.000565, 9.99886 
7.850043e+2, 2.5494605e+2, -349549.22, -525722.2, 75670.68, 0.018963283, -0.028778758, -321509.56, 120011.44, 0.0, 10.001144, 9.998841 
7.8499407e+2, 2.6494557e+2, -279696.53, -481618.94, 95926.33, -0.040494964, 0.05916326, -241391.72, 102137.555, 0.0, 10.001149, 9.998469 
7.849824e+2, 2.7494335e+2, -267157.9, -424874.6, 81861.805, -0.26650771, -0.028646607, -232350.11, 13202.13, 0.0000001311964, 10.000558, 9.99847 
7.8497297e+2, 2.8494206e+2, -122108.76, -239356.77, 69388.94, -0.24117196, -0.03308405, -89894.45, 57668.164, 0.0000058891046, 10.000589, 9.999055 
7.8496575e+2, 2.9494163e+2, 50245.15, -111126.516, 57508.02, 0.044970974, -0.011480835, 68641.984, 118202.0, 0.000037489564, 10.001117, 9.999006 
7.849529e+2, 3.0493918e+2, -56669.08, -505964.66, -12988.014, -0.08364508, 0.017013557, -56293.938, -56293.938, 0.00011865352, 10.001644, 9.99571 
7.849396e+2, 3.1493494e+2, 156431.84, -139529.03, 42186.855, -0.07695794, -0.012418347, 162327.78, 162327.78, 0.00025448482, 10.001903, 9.998102 
7.951293e+2, 1.24963276e+2, -1525421.8, -1640061.8, -17957.02, -0.22046338, -0.0710095, -1522674.9, 192675.27, 0.0000000034592607, 10.001292, 9.999873 
7.951216e+2, 1.34964e+2, -1580038.9, -1651711.8, 104302.63, -0.0735017, 0.0227228, -1505588.0, 111754.125, 0.0, 10.000468, 9.999511 
7.9511225e+2, 1.4496277e+2, -1582766.8, -1620619.0, 12842.47, 0.00831249, -0.037386753, -1578820.9, -59465.824, 0.0, 9.999818, 9.999371 
7.951006e+2, 1.5496168e+2, -1516511.4, -1536002.8, 11987.566, -0.031780463, -0.11811977, -1510807.8, -89439.625, 0.0, 9.999604, 9.999379 
7.950912e+2, 1.6496153e+2, -1327914.8, -1304854.8, 105002.86, 0.004724547, -0.105054215, -1210750.8, 112617.98, 0.0, 9.999843, 10.000178 
7.950841e+2, 1.7496212e+2, -1127720.0, -1154751.1, 133992.0, 0.13780041, -0.090526, -1006563.6, 218795.4, 0.0, 10.000537, 10.000197 
7.950746e+2, 1.8496154e+2, -1134506.3, -1285645.8, 48753.73, 0.13550025, -0.084391735, -1120144.3, 7220.0337, 0.0, 10.000584, 9.998605 
7.9506254e+2, 1.9495954e+2, -1110634.5, -1220232.4, 45742.926, -0.020094052, -0.17305629, -1094051.8, -64664.125, 0.0, 10.000069, 9.998624 
7.950526e+2, 2.0495938e+2, -943890.3, -926670.56, 87335.734, -0.029499711, -0.11840054, -847521.3, 83869.414, 0.0, 9.999837, 10.000085 
7.9504466e+2, 2.149608e+2, -846019.75, -830852.4, 122403.57, 0.1015903, -0.010284412, -715797.8, 117578.945, 0.0, 9.999839, 10.0000725 
7.950348e+2, 2.2496073e+2, -743214.44, -742161.7, 111786.89, 0.06715456, -0.014730455, -630899.94, 104474.91, 0.0, 9.999922, 9.999969 
7.9502314e+2, 2.3495893e+2, -618952.2, -635294.4, 133637.06, -0.13782631, -0.21169916, -493236.63, 144150.66, 0.0, 10.000109, 9.999944 
7.950129e+2, 2.4495809e+2, -595496.6, -769847.9, 124319.36, -0.20781946, -0.1985507, -530833.9, 8562.274, 0.0, 10.000463, 9.998163 
7.9500407e+2, 2.5495782e+2, -416511.16, -638332.25, 109453.77, -0.1425102, -0.06397011, -371597.2, 69807.41, 0.0, 10.001031, 9.998125 
7.949943e+2, 2.6495683e+2, -286205.78, -484960.97, 63496.39, -0.14984277, 0.009945909, -267652.47, 75765.93, 0.0, 10.001097, 9.998474 
7.949836e+2, 2.7495486e+2, -278210.97, -434724.53, 74567.36, -0.22389027, -0.055896733, -248373.28, -2933.7974, 0.000000103459534, 10.000495, 9.998435 
7.9497397e+2, 2.8495294e+2, -128559.05, -243065.92, 79513.586, -0.21987948, -0.11704854, -87831.02, 59625.152, 0.0000054454867, 10.000547, 9.99905 
7.94965e+2, 2.9495087e+2, 35574.313, -119504.07, 96345.29, -0.16948876, -0.25861844, 81707.03, 131177.0, 0.00003447301, 10.001023, 9.998996 
7.949531e+2, 3.0494913e+2, 77289.875, -223033.17, -4510.1025, -0.2520149, -0.26215568, 77357.59, 77357.59, 0.0001104858, 10.001613, 9.99767 
7.949426e+2, 3.1495127e+2, 267802.97, 101394.92, 80405.39, -0.028987788, 0.15182573, 300305.2, 300305.2, 0.000240168, 10.001846, 9.99979 
8.0513066e+2, 1.24974795e+2, -1680209.6, -1657086.0, -98456.37, -0.12923557, 0.07893566, -1569514.9, 145728.78, 0.0000000057252847, 10.000001, 10.00039 
8.051213e+2, 1.3497454e+2, -1707739.0, -1641077.1, -14993.914, -0.080310315, 0.01162589, -1637859.9, -20619.383, 0.0, 9.9992695, 10.000185 
8.051121e+2, 1.4497295e+2, -1631524.9, -1631265.9, 952.55365, 0.04206932, -0.12137903, -1630434.1, -111179.625, 0.0, 9.999446, 9.999474 
8.051016e+2, 1.549724e+2, -1333842.5, -1443504.9, 2903.4136, 0.04219934, -0.15284899, -1333765.8, 87496.58, 0.0, 10.000841, 9.999423 
8.0509204e+2, 1.649727e+2, -1157120.4, -1224303.0, 91055.64, 0.049702145, -0.09766331, -1093657.5, 229602.47, 0.0, 10.001036, 10.00016 
8.050838e+2, 1.7497362e+2, -1204168.6, -1196448.6, 55597.13, 0.08451073, -0.04083374, -1144577.6, 80671.68, 0.0, 10.000045, 10.000154 
8.050742e+2, 1.8497345e+2, -1193995.3, -1236281.9, 15259.02, 0.08570162, -0.027087146, -1189064.1, -61813.527, 0.0, 9.999843, 9.9993 
8.050633e+2, 1.949719e+2, -1025144.2, -1108300.9, 66671.336, 0.038306683, -0.1336352, -988148.8, 41117.465, 0.0, 10.000342, 9.99927 
8.050533e+2, 2.0497169e+2, -887935.06, -923761.3, 126720.445, 0.041091137, -0.10863197, -777867.94, 153401.44, 0.0, 10.000322, 9.999879 
8.050443e+2, 2.1497245e+2, -882221.7, -868797.6, 74484.04, 0.096324615, -0.041856166, -800723.8, 32538.719, 0.0, 9.999687, 9.999884 
8.050344e+2, 2.2497232e+2, -810627.2, -803916.9, 55906.37, 0.055362172, -0.03022375, -751265.06, -16002.136, 0.0, 9.999597, 9.99969 
8.050236e+2, 2.3497108e+2, -654968.25, -680784.06, 13557.527, -0.08626573, -0.14833392, -649156.6, -11884.07, 0.0, 10.000002, 9.999672 
8.0501354e+2, 2.4497022e+2, -583967.8, -728805.6, 50582.59, -0.17584054, -0.13821219, -568051.56, -28771.066, 0.0, 10.000372, 9.998499 
8.050043e+2, 2.549694e+2, -445765.1, -614897.7, 92264.125, -0.20356083, -0.095535964, -405175.0, 36115.42, 0.0, 10.000653, 9.998477 
8.0499476e+2, 2.6496822e+2, -352490.03, -537544.06, 75222.305, -0.19326967, -0.04444632, -325770.9, 17533.703, 0.0, 10.000722, 9.998299 
8.0498505e+2, 2.749665e+2, -268743.06, -446885.0, 53414.832, -0.13137665, -0.06925932, -253954.61, -8629.293, 0.00000004701224, 10.000616, 9.998301 
8.0497545e+2, 2.84965e+2, -113511.87, -223424.36, 108333.81, -0.12389561, -0.08940845, -46992.17, 100347.4, 0.000004093495, 10.0006075, 9.99915 
8.049656e+2, 2.9496336e+2, 13383.327, -114733.97, 104695.234, -0.19130453, -0.2031354, 72062.62, 121413.055, 0.000029631305, 10.000809, 9.999126 
8.049543e+2, 3.0496135e+2, 103655.5, -111622.75, -2169.3704, -0.27875033, -0.27802053, 103677.36, 103677.36, 0.00010221737, 10.001383, 9.998551 
8.049455e+2, 3.149639e+2, 310063.97, 150414.39, -57330.68, 0.0806861, 0.086674094, 328518.38, 328518.38, 0.00023173698, 10.002048, 10.000023 
8.151327e+2, 1.24984145e+2, -1622049.4, -1552174.8, -141092.4, 0.007380497, 0.12220588, -1441758.4, 273399.47, 0.000000004999778, 10.000065, 10.00108 
8.151203e+2, 1.3498335e+2, -1642303.1, -1511911.3, -34632.92, -0.12838237, -0.08767287, -1503283.4, 113872.86, 0.0, 9.999306, 10.001047 
8.1511074e+2, 1.449822e+2, -1596996.6, -1567882.4, 39013.258, -0.07519034, -0.23927571, -1540798.9, -21635.594, 0.0, 9.999473, 9.999901 
8.151015e+2, 1.5498301e+2, -1301252.0, -1373293.6, 68195.164, -0.078419246, -0.17979656, -1260149.0, 161007.5, 0.0, 10.000831, 9.999909 
8.150915e+2, 1.649838e+2, -1207396.0, -1317799.6, 40097.36, -0.1335847, -0.0692986, -1194370.0, 128781.555, 0.0, 10.000992, 9.999537 
8.150811e+2, 1.7498428e+2, -1251024.3, -1284419.1, 30455.047, -0.2134999, 0.0012836416, -1232989.6, -7838.367, 0.0, 10.000011, 9.99956 
8.1507194e+2, 1.8498479e+2, -1086066.0, -998669.2, 23920.932, -0.14967415, 0.028948199, -992550.3, 134594.72, 0.0, 9.999779, 10.000965 
8.1506383e+2, 1.94985e+2, -918417.9, -871087.75, 96713.86, 0.032938343, -0.06936609, -795185.75, 233950.14, 0.0, 10.000271, 10.000935 
8.150542e+2, 2.0498453e+2, -985371.5, -1092853.5, 88831.305, 0.082537025, -0.09623211, -935290.06, -4150.85, 0.0, 10.00018, 9.998787 
8.150433e+2, 2.1498312e+2, -980720.94, -1037145.1, 61912.19, 0.00059235055, -0.13964663, -940896.0, -107738.54, 0.0, 9.999533, 9.998801 
8.150334e+2, 2.2498243e+2, -890720.1, -933245.0, 58512.777, -0.031738512, -0.09107576, -849726.4, -114558.07, 0.0, 9.999438, 9.99888 
8.150245e+2, 2.3498206e+2, -734925.7, -811013.3, 39761.87, -0.023095943, -0.039362308, -717939.2, -80764.2, 0.0, 9.999846, 9.998854 
8.1501484e+2, 2.4498159e+2, -505999.78, -535803.44, 48910.68, -0.10175997, -0.018191384, -469771.2, 69406.25, 0.0, 10.000239, 9.999887 
8.150045e+2, 2.5498077e+2, -366290.53, -423344.75, 113545.45, -0.26519635, -0.11282804, -277743.44, 163434.48, 0.0, 10.000541, 9.999847 
8.1499493e+2, 2.649798e+2, -378851.4, -575687.1, 60072.91, -0.26784983, -0.10180956, -361966.06, -18778.322, 0.0, 10.000657, 9.998065 
8.1498617e+2, 2.7497837e+2, -308834.84, -495270.28, 64095.574, -0.11101773, -0.07178334, -288925.28, -43715.742, 0.000000004527389, 10.000478, 9.998032 
8.1497693e+2, 2.8497824e+2, -105404.08, -203066.45, 104590.9, -0.06839076, 0.051813252, -38806.754, 108406.14, 0.0000024308686, 10.000579, 9.99931 
8.149672e+2, 2.9497918e+2, 7029.492, -107304.43, 128548.914, -0.14885606, 0.18401518, 90549.72, 139749.67, 0.00002455122, 10.000719, 9.999223 
8.14956e+2, 3.049759e+2, 87609.23, -146372.75, 15266.12, -0.27145767, -0.013246572, 88601.055, 88601.055, 0.00009685274, 10.001389, 9.998306 
8.149471e+2, 3.1497246e+2, 206681.47, -30107.354, -15760.328, -0.02032577, -0.21832772, 207725.84, 207725.84, 0.00023260372, 10.001907, 9.998852 
8.2513285e+2, 1.24994405e+2, -1813977.0, -1705191.3, 66606.73, 0.08897543, 0.022498187, -1673589.6, 41462.285, 0.0000000017683296, 9.998989, 10.000544 
8.2512015e+2, 1.3499372e+2, -1655092.8, -1569720.5, 19748.098, -0.0698455, -0.13812679, -1565373.8, 51679.438, 0.0, 9.99942, 10.000598 
8.251106e+2, 1.449931e+2, -1583282.4, -1521826.1, 106956.445, -0.022257503, -0.23190081, -1441271.3, 77785.43, 0.0, 9.999407, 10.000241 
8.251012e+2, 1.5499458e+2, -1513283.1, -1440421.4, 98331.016, -0.09981557, -0.13777372, -1371989.5, 49053.406, 0.0, 9.999227, 10.000216 
8.250912e+2, 1.6499528e+2, -1445964.0, -1433310.1, 79184.46, -0.1701018, -0.051325466, -1360200.3, -37161.832, 0.0, 9.999342, 9.999538 
8.25081e+2, 1.7499502e+2, -1297211.9, -1314188.3, 89338.45, -0.20111892, -0.054285143, -1215959.3, 9085.723, 0.0, 9.999698, 9.999517 
8.250721e+2, 1.8499547e+2, -1071109.8, -999365.2, 87398.79, -0.11814479, -0.026583029, -940763.3, 186276.58, 0.0, 9.999921, 10.00089 
8.2506406e+2, 1.9499631e+2, -963847.1, -901234.8, 3872.6484, 0.05385523, -0.05549831, -900996.2, 128029.83, 0.0, 10.000004, 10.000851 
8.250544e+2, 2.0499593e+2, -977793.44, -1109540.0, -25111.969, 0.08328888, -0.060109634, -973169.25, -42139.727, 0.0, 10.000322, 9.998592 
8.250431e+2, 2.1499418e+2, -807744.8, -977906.5, -10958.301, -0.022367548, -0.11887342, -807042.0, 26010.072, 0.0, 10.000818, 9.998589 
8.250333e+2, 2.2499353e+2, -674314.8, -838408.56, 77830.79, -0.047281496, -0.04910409, -643271.8, 91791.13, 0.0, 10.000954, 9.9988165 
8.2502496e+2, 2.3499364e+2, -610468.7, -760870.56, 89772.43, 0.0070631364, 0.0579972, -568561.7, 68503.97, 0.0, 10.0007305, 9.998786 
8.250157e+2, 2.4499299e+2, -441644.4, -489978.28, 106768.41, -0.046925995, 0.059525628, -356342.0, 182727.19, 0.0, 10.00063, 10.000012 
8.2500565e+2, 2.549914e+2, -331822.84, -387955.28, 50389.766, -0.20740086, -0.123002596, -302210.28, 138864.98, 0.0, 10.000716, 10.000002 
8.249961e+2, 2.649904e+2, -319264.03, -531780.1, -16396.338, -0.2268955, -0.13312513, -318006.44, 25077.8, 0.0, 10.000999, 9.998201 
8.249871e+2, 2.7498952e+2, -159381.72, -406833.63, -7633.407, -0.09466834, -0.06409219, -159146.47, 85953.21, 0.0, 10.0014305, 9.998177 
8.249778e+2, 2.8498957e+2, -29291.027, -198593.64, 41304.89, -0.055009726, 0.08535989, -19751.37, 127350.516, 0.000001518397, 10.001251, 9.999017 
8.249682e+2, 2.9499024e+2, -47461.34, -163114.16, 5320.7114, -0.099893756, 0.22076634, -47217.07, 1876.5521, 0.000022026383, 10.000467, 9.998963 
8.249576e+2, 3.049872e+2, 2349.286, -147373.08, -24940.053, -0.20221293, 0.04149077, 6394.3955, 6394.3955, 0.00009707927, 10.000646, 9.998646 
8.2494897e+2, 3.1498158e+2, 181306.19, -28965.715, -67669.7, -0.0044520698, -0.42602187, 201201.25, 201201.25, 0.00024343748, 10.0016575, 9.998972 
8.351305e+2, 1.2500569e+2, -1934109.8, -1949232.5, 63997.414, -0.10893489, -0.20125511, -1877228.5, -162303.33, 0.000000000051048894, 9.998976, 9.998875 
8.351205e+2, 1.3500573e+2, -1753403.9, -1778131.1, 46200.695, -0.011410947, -0.13837022, -1717941.1, -101010.6, 0.0, 9.999452, 9.999147 
8.351114e+2, 1.4500567e+2, -1575545.5, -1510630.4, 83422.7, 0.07690941, -0.106828585, -1453573.5, 65360.902, 0.0, 9.999424, 10.000311 
8.351003e+2, 1.5500708e+2, -1505093.3, -1422295.0, 101648.71, -0.15072842, -0.03090802, -1353938.3, 66983.53, 0.0, 9.999223, 10.00034 
8.3509076e+2, 1.6500722e+2, -1410624.4, -1343729.6, 79140.05, -0.17744192, -0.040595353, -1291259.3, 31660.73, 0.0, 9.999275, 10.000187 
8.350831e+2, 1.7500608e+2, -1254766.1, -1219688.1, 116372.74, 0.012022573, -0.19553998, -1119540.1, 105388.78, 0.0, 9.99968, 10.00017 
8.350742e+2, 1.850057e+2, -1205343.6, -1275842.4, 76671.13, 0.07300489, -0.18564574, -1156207.1, -29273.504, 0.0, 9.999902, 9.999007 
8.350637e+2, 1.9500576e+2, -1103732.6, -1172604.5, 19151.889, -0.008262209, -0.10746559, -1098765.3, -69827.96, 0.0, 9.99992, 9.999028 
8.350535e+2, 2.0500582e+2, -952870.2, -1022942.3, -18331.432, -0.05999349, -0.009535832, -948364.3, -17423.96, 0.0, 10.000172, 9.999258 
8.350435e+2, 2.1500565e+2, -783803.75, -890563.9, 19409.512, -0.0874835, 0.019389447, -780384.5, 52561.305, 0.0, 10.000659, 9.99926 
8.35034e+2, 2.2500575e+2, -649716.6, -755741.8, 55794.01, -0.09639664, 0.09791599, -625766.2, 109179.92, 0.0, 10.000808, 9.999457 
8.350249e+2, 2.3500586e+2, -582859.0, -678022.7, 94766.33, -0.09833814, 0.140184, -524399.9, 112544.15, 0.0, 10.000609, 9.999417 
8.3501595e+2, 2.4500449e+2, -537238.6, -664933.8, 98515.555, -0.11333188, 0.09396243, -483690.2, 55264.934, 0.0, 10.000526, 9.99886 
8.3500725e+2, 2.5500134e+2, -429316.38, -569320.6, 67519.375, -0.1404594, -0.13029331, -402060.28, 38921.96, 0.0, 10.000619, 9.998805 
8.349979e+2, 2.6499996e+2, -292380.66, -459021.16, -10066.013, -0.1710385, -0.13808833, -291774.8, 51219.54, 0.0, 10.000926, 9.998737 
8.349878e+2, 2.750001e+2, -137191.67, -338178.16, 23298.568, -0.19968447, -0.026044099, -134526.22, 110468.33, 0.0, 10.001332, 9.998697 
8.34978e+2, 2.8499904e+2, -84464.55, -301611.6, 235.82295, -0.19422011, 0.025477262, -84464.3, 62541.324, 0.0000012583888, 10.001204, 9.998332 
8.349683e+2, 2.9499662e+2, -115233.99, -276492.34, -8471.096, -0.16526882, -0.08348507, -114790.21, -65759.49, 0.000022671806, 10.000356, 9.99824 
8.349586e+2, 3.0499515e+2, 70524.26, -2642.478, 9819.574, -0.18515694, -0.11309656, 71819.21, 71819.21, 0.0001036696, 10.000627, 9.999652 
8.349503e+2, 3.1499356e+2, 250284.05, 142121.67, 4520.7856, -0.098643444, -0.27682203, 250472.67, 250472.67, 0.00026239955, 10.001549, 10.0002 
8.451304e+2, 1.2501599e+2, -1765806.0, -1865644.5, -58005.95, -0.060713872, -0.2796705, -1739196.8, -24376.27, 0.0, 10.000124, 9.998897 
8.451204e+2, 1.3501662e+2, -1666874.3, -1739733.8, -32468.637, 0.013303478, -0.1549225, -1654505.1, -37683.332, 0.0, 10.000064, 9.999121 
8.451112e+2, 1.4501688e+2, -1561973.0, -1538664.0, 58340.996, 0.11378609, -0.075300686, -1490824.9, 27999.146, 0.0, 9.999665, 10.000001 
8.451003e+2, 1.5501772e+2, -1511889.3, -1463307.6, 18765.41, -0.066687696, -0.024892818, -1456903.4, -36085.434, 0.0, 9.999337, 10.000006 
8.45091e+2, 1.6501778e+2, -1342672.1, -1280181.5, 24679.625, -0.08336879, -0.039740145, -1271610.3, 51206.18, 0.0, 9.999608, 10.000465 
8.4508365e+2, 1.7501695e+2, -1146635.9, -1137869.5, 8853.305, 0.07279103, -0.18775815, -1132373.8, 92446.88, 0.0, 10.000297, 10.000437 
8.4507465e+2, 1.8501656e+2, -1112050.9, -1263352.0, 16008.772, 0.099850506, -0.18028215, -1110375.6, 16450.26, 0.0, 10.00069, 9.998707 
8.45064e+2, 1.9501622e+2, -1002009.4, -1165005.1, 47322.688, -0.013102171, -0.108219855, -989266.4, 39569.063, 0.0, 10.000788, 9.998668 
8.450538e+2, 2.0501631e+2, -850813.25, -947690.56, 75539.22, -0.071070835, -0.0044681635, -809516.3, 121322.445, 0.0, 10.000757, 9.9995 
8.450442e+2, 2.150165e+2, -792235.06, -873653.9, 54282.668, -0.07111122, 0.041962955, -765092.7, 67746.0, 0.0, 10.0005045, 9.999458 
8.4503466e+2, 2.2501633e+2, -696593.56, -791318.3, 66644.09, -0.086701274, 0.09180205, -662196.4, 72643.805, 0.0, 10.000562, 9.999313 
8.450253e+2, 2.3501568e+2, -551146.6, -672920.5, 16065.668, -0.12172955, 0.069322206, -549062.75, 87781.85, 0.0, 10.000902, 9.99929 
8.4501654e+2, 2.4501422e+2, -539811.94, -730272.94, 23919.709, -0.11037431, 0.050645985, -536853.9, 2004.2996, 0.0, 10.000777, 9.998292 
8.450085e+2, 2.5501165e+2, -538317.56, -679469.44, 15410.675, -0.048964053, -0.060536303, -536654.6, -95770.55, 0.0, 10.000125, 9.998278 
8.449992e+2, 2.6501027e+2, -385773.2, -477311.6, 8782.66, -0.0830458, -0.060051173, -384938.13, -42041.11, 0.0, 10.000173, 9.998968 
8.449889e+2, 2.750097e+2, -173055.14, -325542.66, -4210.1504, -0.19704087, -0.036141768, -172938.98, 71960.65, 0.0000000050987805, 10.000959, 9.9989605 
8.44979e+2, 2.8500822e+2, -94109.79, -326558.94, -36666.703, -0.20704424, -0.03666057, -88463.125, 58450.746, 0.0000017149706, 10.001213, 9.998156 
8.4496933e+2, 2.9500538e+2, -54960.785, -259632.75, -32065.959, -0.11318525, -0.17068872, -50054.613, -1110.9346, 0.0000255943, 10.000813, 9.998131 
8.449603e+2, 3.0500463e+2, 69550.914, -40874.215, 33544.344, -0.08462382, -0.11168843, 78942.15, 78942.15, 0.000114914044, 10.000776, 9.999328 
8.4495157e+2, 3.1500414e+2, 180493.72, 138256.92, -111628.62, -0.08004462, -0.12898825, 272984.0, 272984.0, 0.00028702893, 10.000904, 10.000503 
8.5513186e+2, 1.2502547e+2, -1676071.6, -1666194.1, -80373.305, 0.009469243, -0.22265905, -1590608.0, 124127.23, 0.0, 10.000078, 10.000283 
8.5511935e+2, 1.3502654e+2, -1581684.1, -1547820.1, -29881.064, -0.12019978, -0.18279721, -1530407.3, 86317.875, 0.0, 10.000029, 10.000438 
8.551098e+2, 1.4502697e+2, -1600401.8, -1633019.5, 29797.365, -0.030635592, -0.12192074, -1582742.0, -64018.895, 0.0, 9.999707, 9.999344 
8.551009e+2, 1.5502667e+2, -1549659.5, -1553303.6, 23325.648, 0.033874005, -0.118864395, -1528084.9, -107355.305, 0.0, 9.999383, 9.999367 
8.550918e+2, 1.6502707e+2, -1358506.8, -1310618.6, 37494.375, 0.0053479047, -0.055773, -1290075.0, 32652.006, 0.0, 9.999595, 10.000264 
8.5508233e+2, 1.7502776e+2, -1160516.8, -1158391.1, 44777.504, -0.117513336, -0.040185254, -1114663.8, 110055.664, 0.0, 10.000265, 10.000307 
8.5507315e+2, 1.850281e+2, -1041306.2, -1100847.1, 7199.8457, -0.14203274, -0.010835381, -1040447.94, 86268.22, 0.0, 10.000611, 9.999866 
8.5506433e+2, 1.9502783e+2, -926329.25, -996653.3, 61079.543, -0.07981589, -0.048598103, -891013.75, 137705.94, 0.0, 10.000732, 9.99985 
8.550549e+2, 2.050275e+2, -883501.8, -994269.8, 52503.934, -0.053498574, -0.030706853, -862570.4, 68152.94, 0.0, 10.000656, 9.999237 
8.5504484e+2, 2.1502672e+2, -827433.7, -914409.56, 57756.086, -0.07257325, -0.05695607, -798623.9, 34106.746, 0.0, 10.0003605, 9.999251 
8.550352e+2, 2.2502527e+2, -792246.5, -949051.0, 68005.92, -0.11344956, -0.076712675, -766861.9, -32116.72, 0.0, 10.000385, 9.998317 
8.550259e+2, 2.3502299e+2, -639504.1, -826068.5, 42263.266, -0.17368822, -0.16093494, -630376.56, 6391.5923, 0.0, 10.000769, 9.998304 
8.550172e+2, 2.4502221e+2, -552150.1, -728783.25, -12692.947, -0.14428294, -0.06894023, -551242.6, -12464.192, 0.0, 10.000663, 9.998359 
8.55009e+2, 2.550224e+2, -551609.0, -679950.7, 2565.083, -0.026121903, 0.08957339, -551557.75, -110777.22, 0.0, 10.000005, 9.998336 
8.550001e+2, 2.6502115e+2, -399954.28, -487362.4, 26283.783, -0.040012352, 0.1024583, -392659.5, -49866.766, 0.0, 10.000089, 9.998942 
8.549902e+2, 2.7501824e+2, -192178.1, -341726.97, 40380.555, -0.19380426, -0.10266876, -181971.31, 62844.855, 0.0000001292932, 10.00086, 9.998899 
8.5498047e+2, 2.8501698e+2, -74250.61, -268265.3, -60165.34, -0.20619723, -0.09997014, -57107.65, 89719.414, 0.0000031613251, 10.0011425, 9.998587 
8.549708e+2, 2.9501668e+2, -38548.883, -206592.61, -33045.906, -0.07968623, -0.02323682, -32283.951, 16547.813, 0.000030116835, 10.0007305, 9.998535 
8.5496193e+2, 3.0501556e+2, -52271.824, -278756.56, 30770.6, -0.014176855, 0.060528267, -48165.72, -48165.72, 0.00012742863, 10.000722, 9.997717 
8.549526e+2, 3.15013e+2, 86364.945, -21493.76, -62900.117, -0.13445017, 0.006087229, 115289.68, 115289.68, 0.00031382052, 10.000765, 9.999471 
8.6513186e+2, 1.2503594e+2, -1937871.9, -1752624.4, 26543.842, 0.12350796, -0.13502593, -1748896.0, -34258.043, 0.00000000000000000000885557, 9.998088, 10.000652 
8.6511904e+2, 1.3503662e+2, -1654460.8, -1561299.0, -46004.637, -0.11260954, -0.16301006, -1542410.8, 74218.125, 0.0, 9.999386, 10.000673 
8.651095e+2, 1.4503676e+2, -1517452.6, -1591775.9, 17253.273, -0.052083272, -0.14202565, -1513642.8, 4984.74, 0.0, 10.000292, 9.999337 
8.651015e+2, 1.5503606e+2, -1301407.0, -1443727.9, 25422.271, 0.06647243, -0.17364646, -1297002.1, 123634.1, 0.0, 10.001123, 9.9992895 
8.6509234e+2, 1.6503626e+2, -1226017.3, -1286872.3, 54243.797, 0.052425284, -0.10831432, -1194249.6, 128386.516, 0.0, 10.000688, 9.999889 
8.6508214e+2, 1.7503709e+2, -1365634.9, -1306777.5, 17602.582, -0.093483046, -0.03944136, -1301914.9, -77285.04, 0.0, 9.999063, 9.999868 
8.65073e+2, 1.8503754e+2, -1267291.5, -1156550.5, 9948.888, -0.12361601, 0.0009406243, -1155663.8, -29038.496, 0.0, 9.998851, 10.0003195 
8.6506486e+2, 1.9503745e+2, -1003121.44, -982573.56, -11453.745, -0.054463837, -0.062339224, -977461.06, 51163.42, 0.0, 10.00001, 10.000283 
8.650558e+2, 2.0503713e+2, -900269.94, -1010919.5, -51001.22, -0.020039296, -0.061664876, -880348.75, 50277.95, 0.0, 10.0006, 9.999132 
8.6504567e+2, 2.150362e+2, -812551.06, -920818.7, -65646.93, -0.030680556, -0.09434245, -781596.75, 51038.508, 0.0, 10.000539, 9.999108 
8.6503613e+2, 2.2503448e+2, -767039.1, -946739.1, 22660.215, -0.06122776, -0.12899016, -764225.75, -29573.848, 0.0, 10.000595, 9.9982395 
8.650273e+2, 2.3503184e+2, -653623.8, -842410.1, 43638.31, -0.105172604, -0.24130844, -644024.8, -7346.886, 0.0, 10.000707, 9.998228 
8.650185e+2, 2.4503106e+2, -498080.84, -707973.8, 31677.277, -0.09370873, -0.14141694, -493404.28, 45284.215, 0.0, 10.001066, 9.998301 
8.6500984e+2, 2.5503173e+2, -302697.13, -564097.1, 11029.925, -0.02819527, 0.06942647, -302232.53, 138454.9, 0.0, 10.001743, 9.99829 
8.650008e+2, 2.650306e+2, -222569.89, -415572.7, 39751.508, -0.034250412, 0.10290453, -214703.19, 127996.1, 0.0000000005766255, 10.001362, 9.99882 
8.6499137e+2, 2.7502742e+2, -331660.7, -422137.53, 20251.857, -0.104652286, -0.11746535, -327334.47, -82608.79, 0.000000514823, 9.999952, 9.998784 
8.649819e+2, 2.8502607e+2, -232516.84, -359774.63, -41816.24, -0.12086744, -0.11125309, -220006.17, -73268.14, 0.0000054394536, 10.000115, 9.998463 
8.649722e+2, 2.9502594e+2, 112293.46, -141959.88, -78882.26, -0.06531871, -0.0032399104, 134778.3, 183519.92, 0.000035908153, 10.001801, 9.99847 
8.6496335e+2, 3.0502445e+2, 110289.95, -240298.56, -6920.223, 0.0035823095, 0.06221517, 110426.5, 110426.5, 0.00014009468, 10.002003, 9.997356 
8.6495376e+2, 3.1502315e+2, 13624.728, -75729.9, -29117.701, -0.06694906, 0.16612798, 22275.67, 22275.67, 0.00033844914, 10.000371, 9.999264 
8.7512964e+2, 1.2504774e+2, -1965645.5, -1824629.6, 45879.316, 0.033103056, 0.023851486, -1811017.0, -96491.71, 0.0000000055054987, 9.998144, 10.000128 
8.751191e+2, 1.3504702e+2, -1698496.9, -1641873.4, 11389.79, -0.075436704, -0.09741452, -1639668.3, -23136.639, 0.0, 9.9993515, 10.000126 
8.7511e+2, 1.4504647e+2, -1491831.0, -1536748.4, 32353.201, -0.064853325, -0.13322395, -1474905.4, 43629.555, 0.0, 10.000281, 9.999722 
8.7510145e+2, 1.5504599e+2, -1276090.0, -1378611.0, 68367.85, -0.0773419, -0.18846965, -1241899.9, 178637.13, 0.0, 10.001085, 9.999747 
8.750922e+2, 1.6504554e+2, -1270015.3, -1377039.1, -19547.613, -0.052372254, -0.18028508, -1266556.6, 55985.1, 0.0, 10.00067, 9.999286 
8.7508273e+2, 1.7504512e+2, -1407359.3, -1394938.6, -31397.19, 0.032898426, -0.17427333, -1369143.4, -144593.88, 0.0, 9.999068, 9.999261 
8.750738e+2, 1.8504515e+2, -1289905.3, -1199873.6, 42292.402, 0.04280965, -0.13114509, -1183123.3, -56572.77, 0.0, 9.998831, 10.000035 
8.750654e+2, 1.9504519e+2, -1029854.8, -1021207.56, 45383.813, -0.036066014, -0.15829585, -979941.9, 48607.05, 0.0, 9.999937, 10.000052 
8.7505615e+2, 2.050452e+2, -924367.0, -1029847.1, -64405.77, -0.06596535, -0.109846644, -893862.75, 36686.01, 0.0, 10.000462, 9.999071 
8.750462e+2, 2.1504496e+2, -836356.44, -937718.5, -57970.926, -0.052268807, -0.06436001, -810036.2, 22515.605, 0.0, 10.000396, 9.999062 
8.750372e+2, 2.2504407e+2, -730634.9, -836692.7, 13589.173, -0.030359166, -0.05657307, -728921.4, 5637.9507, 0.0, 10.000444, 9.999069 
8.750291e+2, 2.350422e+2, -620123.25, -731463.5, 59907.188, -0.010160545, -0.17561115, -594013.0, 42560.88, 0.0, 10.000529, 9.999074 
8.750202e+2, 2.4504079e+2, -531486.06, -749599.0, 44573.746, -0.05252665, -0.17097688, -522728.56, 15859.812, 0.0, 10.00094, 9.998078 
8.750104e+2, 2.5503957e+2, -338251.84, -606763.25, 49712.88, -0.16713688, -0.123929694, -329343.44, 111261.59, 0.0, 10.001612, 9.998059 
8.750011e+2, 2.6503852e+2, -247114.64, -455302.7, -24416.506, -0.16354023, -0.057167787, -244289.39, 98327.69, 0.0000000691861, 10.001307, 9.998576 
8.7499225e+2, 2.7503723e+2, -364127.16, -464116.88, -18941.49, -0.04430004, -0.07058785, -360659.25, -116031.086, 0.000001269736, 9.999844, 9.9985485 
8.749829e+2, 2.8503555e+2, -279455.2, -448300.5, 9356.443, -0.04947977, -0.05479094, -278938.28, -132292.44, 0.000008255043, 10.000072, 9.997881 
8.749731e+2, 2.9503304e+2, 62907.88, -230770.92, 330.73468, -0.18360655, -0.12375412, 62908.254, 111582.8, 0.000042714033, 10.001737, 9.997896 
8.7496424e+2, 3.050312e+2, 164929.8, -111490.59, -72394.695, -0.13058539, -0.11132919, 182742.2, 182742.2, 0.00015288098, 10.00194, 9.998269 
8.749543e+2, 3.150327e+2, 31420.518, -22403.178, -29506.682, -0.10893631, 0.18095732, 44444.766, 44444.766, 0.00035815634, 10.000295, 9.99967 
8.851282e+2, 1.2505668e+2, -1813401.0, -1732245.5, -11139.689, 0.029076692, 0.040901992, -1730744.3, -16302.956, 0.00000006865043, 9.999118, 10.000299 
8.8511896e+2, 1.3505663e+2, -1699167.1, -1635232.0, -45223.535, -0.005850276, -0.0146892425, -1611818.3, 4622.822, 0.0, 9.999316, 10.000198 
8.851103e+2, 1.4505632e+2, -1634161.3, -1557645.5, 14402.064, 0.00515343, -0.05180054, -1555024.5, -36582.94, 0.0, 9.99911, 10.000135 
8.851015e+2, 1.5505585e+2, -1573357.0, -1478864.8, 19370.824, -0.057307187, -0.14593396, -1475047.9, -54605.816, 0.0, 9.998858, 10.000127 
8.850925e+2, 1.6505536e+2, -1442850.1, -1456750.9, -33154.453, -0.030566204, -0.16177346, -1415925.4, -93479.2, 0.0, 9.999478, 9.999311 
8.8508326e+2, 1.7505492e+2, -1126828.4, -1256164.8, -21257.64, 0.0902655, -0.15995194, -1123424.1, 101029.4, 0.0, 10.000984, 9.999291 
8.8507444e+2, 1.8505478e+2, -985128.25, -1095222.3, 92566.32, 0.11761062, -0.11445666, -932478.0, 193978.22, 0.0, 10.00111, 9.999654 
8.85066e+2, 1.9505455e+2, -1065012.4, -1084832.0, 58373.19, 0.039095286, -0.12806043, -1015713.8, 12744.958, 0.0, 9.999894, 9.99964 
8.850567e+2, 2.0505425e+2, -1020176.6, -1073125.4, -9896.785, -0.017163606, -0.08986878, -1018387.25, -87925.52, 0.0, 9.999781, 9.999112 
8.850468e+2, 2.1505378e+2, -785972.7, -911932.25, -14092.031, -0.048252, -0.07236656, -784415.4, 48051.406, 0.0, 10.000724, 9.999094 
8.850379e+2, 2.2505312e+2, -659708.94, -787372.4, 29927.75, -0.021466866, -0.047286585, -653041.3, 81430.49, 0.0, 10.000876, 9.999187 
8.850301e+2, 2.3505196e+2, -649947.1, -736295.25, -9304.577, 0.053454835, -0.10723077, -648955.9, -12475.892, 0.0, 10.000283, 9.999155 
8.8502127e+2, 2.4505055e+2, -659717.2, -771290.44, 13835.623, 0.01608412, -0.12303852, -658027.1, -119533.8, 0.0, 9.999887, 9.998432 
8.850113e+2, 2.5504857e+2, -584470.94, -688406.5, 36369.348, -0.13811098, -0.1890933, -573008.56, -132493.84, 0.00000000006372724, 9.999738, 9.998404 
8.8500196e+2, 2.6504752e+2, -403461.03, -532230.5, 3683.9827, -0.14651802, -0.14050019, -403355.75, -60829.207, 0.00000025387644, 10.000246, 9.998556 
8.849932e+2, 2.75047e+2, -124588.02, -349428.13, -1162.0104, -0.0045676376, -0.07443346, -124582.016, 119949.84, 0.0000021793016, 10.001492, 9.998541 
8.8498414e+2, 2.8504562e+2, -76469.86, -366941.63, 93738.95, -0.0060860496, -0.019566216, -48846.105, 97701.61, 0.000011106664, 10.001558, 9.997707 
8.849746e+2, 2.9504305e+2, -127379.27, -341637.34, 86917.19, -0.14114192, -0.07225843, -96554.59, -47977.125, 0.000049522223, 10.000521, 9.997714 
8.849657e+2, 3.0504072e+2, 35122.285, -136030.5, 19210.758, -0.118499756, -0.11985749, 37252.063, 37252.063, 0.00016467013, 10.00088, 9.998623 
8.8495594e+2, 3.1504133e+2, 304416.4, 97987.07, -1520.7683, -0.06231793, 0.057038784, 304427.63, 304427.63, 0.00037312726, 10.002224, 9.999584 
8.9512664e+2, 1.2506273e+2, -1768426.6, -1618087.5, -41438.473, -0.09190925, -0.08664968, -1607422.4, 106963.83, 0.00000033567557, 9.999059, 10.001099 
8.9511853e+2, 1.3506578e+2, -1654812.8, -1534918.0, -32437.81, -0.005761423, 0.105381764, -1526704.6, 89649.85, 0.00000000007521531, 9.999305, 10.000882 
8.9510995e+2, 1.4506668e+2, -1602094.3, -1498612.6, -10673.177, 0.026441751, 0.1328528, -1497523.3, 20820.057, 0.0, 9.999131, 10.000535 
8.9510137e+2, 1.5506583e+2, -1548632.0, -1428094.6, 24552.438, 0.016320657, -0.03523768, -1423285.4, -2936.283, 0.0, 9.998857, 10.00048 
8.9509255e+2, 1.6506581e+2, -1401935.6, -1370420.4, 9723.653, 0.002194364, -0.051339522, -1367661.8, -45313.594, 0.0, 9.999471, 9.9999075 
8.950835e+2, 1.7506641e+2, -1090040.1, -1167851.6, 46544.82, -0.010190447, -0.0070575275, -1068282.3, 156059.64, 0.0, 10.000937, 9.999918 
8.950747e+2, 1.8506645e+2, -1033986.4, -1181622.0, 34505.258, 0.007831825, 0.049543567, -1026319.94, 100022.71, 0.0, 10.001036, 9.999099 
8.950662e+2, 1.9506562e+2, -1121048.5, -1176119.1, 23845.064, 0.055041272, 0.032799207, -1112158.9, -83805.54, 0.0, 9.999785, 9.999065 
8.9505696e+2, 2.0506445e+2, -1024280.8, -1055701.5, 14338.879, 0.011851043, 0.003770049, -1018721.0, -88356.3, 0.0, 9.999666, 9.999287 
8.9504695e+2, 2.1506271e+2, -797956.4, -895462.1, 35745.047, -0.12159084, -0.12491103, -786256.4, 46122.93, 0.0, 10.000551, 9.999287 
8.950379e+2, 2.2506174e+2, -733948.9, -905488.75, -3079.8396, -0.12903996, -0.1035004, -733893.56, 494.78238, 0.0, 10.000712, 9.998459 
8.950298e+2, 2.3506127e+2, -720395.4, -847575.9, -19456.549, -0.027531736, -0.023291165, -717485.44, -81090.805, 0.0, 10.000133, 9.998461 
8.9502126e+2, 2.4506046e+2, -609703.5, -643662.2, -3952.5735, 0.0016717607, 0.006630074, -609249.5, -70847.266, 0.0, 9.999782, 9.999362 
8.950122e+2, 2.550589e+2, -542226.94, -564018.1, 43679.676, -0.045032907, -0.111577794, -508104.47, -67689.49, 0.0000000002378373, 9.999585, 9.999331 
8.9500314e+2, 2.650578e+2, -399970.7, -507570.2, 40240.336, -0.07865895, -0.122795306, -386586.38, -44161.445, 0.00000030747992, 10.00017, 9.998761 
8.94994e+2, 2.7505678e+2, -128667.42, -333498.8, 61383.26, -0.102028154, -0.122867756, -111680.945, 132754.64, 0.0000026197797, 10.00139, 9.998697 
8.9498496e+2, 2.850562e+2, -71650.39, -350524.8, 42393.945, -0.10279382, -0.002087226, -65348.17, 81095.57, 0.000013171274, 10.001518, 9.997842 
8.9497614e+2, 2.950559e+2, -124045.34, -321058.9, 61700.55, -0.076728866, 0.14867383, -106317.26, -57865.895, 0.000055655084, 10.000451, 9.9978895 
8.9496726e+2, 3.0505288e+2, 6651.1367, -169997.31, 62497.25, -0.06579716, 0.03480574, 26526.148, 26526.148, 0.00017580122, 10.000787, 9.998427 
8.9495766e+2, 3.1504792e+2, 251484.9, 27635.295, 100866.33, -0.16663043, -0.32636493, 290229.2, 290229.2, 0.00038747952, 10.002076, 9.999158 
9.051262e+2, 1.250704e+2, -1756996.0, -1613099.9, 22695.924, -0.022421872, -0.083646454, -1609605.0, 104708.22, 0.0000010657902, 9.999091, 10.001128 
9.051184e+2, 1.3507321e+2, -1616663.6, -1521945.3, -57551.367, 0.049221456, 0.08378363, -1494772.3, 121510.45, 0.000000007369457, 9.999564, 10.000849 
9.051097e+2, 1.450742e+2, -1539693.6, -1458655.8, -64233.945, 0.076362416, 0.11640745, -1423228.8, 95042.22, 0.0, 9.999516, 10.000621 
9.0510076e+2, 1.5507388e+2, -1486093.5, -1385124.6, -79691.7, 0.059382994, -0.011836715, -1341272.1, 79001.04, 0.0, 9.999225, 10.000597 
9.0509224e+2, 1.6507426e+2, -1378317.6, -1295924.3, -26851.936, 0.03906058, -0.021788282, -1287945.8, 34321.992, 0.0, 9.99936, 10.000477 
9.050842e+2, 1.7507502e+2, -1200322.8, -1157494.6, -20707.914, 0.024245098, -0.015980104, -1149119.8, 75137.82, 0.0, 9.999901, 10.000489 
9.0507567e+2, 1.8507528e+2, -1151165.1, -1242273.3, -48689.535, 0.044982977, 0.035216574, -1130042.1, -3786.3481, 0.0, 10.000242, 9.9990635 
9.050667e+2, 1.9507477e+2, -1019651.9, -1132710.8, -39004.504, 0.095934406, 0.05212604, -1007501.44, 20763.154, 0.0, 10.000481, 9.999035 
9.050573e+2, 2.0507383e+2, -919900.7, -972798.0, 19858.703, 0.056837086, 0.033912923, -913275.2, 16998.707, 0.0, 10.000251, 9.999565 
9.0504736e+2, 2.1507221e+2, -922305.94, -926152.3, 16112.555, -0.07219146, -0.10987751, -908002.25, -75715.42, 0.0, 9.99957, 9.999544 
9.050384e+2, 2.2507134e+2, -869275.5, -945846.7, 43335.395, -0.09576007, -0.103602834, -849735.94, -115441.21, 0.0, 9.999685, 9.998677 
9.0503013e+2, 2.3507093e+2, -629114.94, -781840.9, 74667.82, -0.023852674, -0.03602409, -598676.3, 37624.203, 0.0, 10.000667, 9.998659 
9.050217e+2, 2.4507016e+2, -442543.78, -584330.2, 89076.07, 0.016469706, 0.00024224145, -399593.25, 138714.63, 0.0, 10.001026, 9.999165 
9.05013e+2, 2.5506878e+2, -376890.06, -505120.7, 24671.104, 0.021425176, -0.08245818, -372307.22, 68012.22, 0.0, 10.0008135, 9.99914 
9.050041e+2, 2.6506767e+2, -331177.47, -479721.84, 23911.137, -0.01741849, -0.08299931, -327423.38, 14906.622, 0.0000002007212, 10.000675, 9.99871 
9.049951e+2, 2.7506644e+2, -243911.94, -392319.94, -631.5881, -0.09128474, -0.09902141, -243909.25, 433.69, 0.0000025589381, 10.00062, 9.998663 
9.0498626e+2, 2.8506583e+2, -145777.42, -352843.78, -23369.35, -0.0851475, 0.004483636, -143172.75, 3177.945, 0.000014749117, 10.000861, 9.998151 
9.049778e+2, 2.9506576e+2, 21049.957, -211347.39, -19828.602, 0.010511804, 0.15325594, 22729.63, 71083.35, 0.00006245814, 10.001292, 9.998238 
9.049689e+2, 3.0506316e+2, 103050.95, -155245.89, 45475.83, -0.010642374, 0.07539655, 110823.55, 110823.55, 0.00018874744, 10.001577, 9.998154 
9.049597e+2, 3.1505743e+2, 134063.3, -60876.15, 33813.12, -0.12622486, -0.32986653, 139761.75, 139761.75, 0.0004049675, 10.001373, 9.998907 
9.1512585e+2, 1.2508003e+2, -1794916.3, -1694938.9, -1161.4597, -0.028704625, 0.07759302, -1694925.4, 19293.238, 0.000002613721, 9.999123, 10.000546 
9.151182e+2, 1.3507901e+2, -1663253.6, -1609694.1, -31748.348, 0.047499605, -0.08008527, -1594939.4, 21285.574, 0.00000007607973, 9.999534, 10.000257 
9.151092e+2, 1.4507881e+2, -1559362.3, -1491063.4, -90324.76, 0.040725045, -0.12541108, -1428648.1, 89577.125, 0.0, 9.999478, 10.00042 
9.150993e+2, 1.5508012e+2, -1498937.4, -1409371.6, -74896.56, -0.038160667, -0.06977513, -1366890.5, 53322.277, 0.0, 9.99922, 10.000433 
9.1509116e+2, 1.65081e+2, -1340614.6, -1218642.5, -20114.564, -0.032949667, -0.049647503, -1215411.0, 106791.516, 0.0, 9.999361, 10.001006 
9.150849e+2, 1.750811e+2, -1170149.1, -1087280.3, 10947.351, 0.07900286, -0.16479574, -1085858.5, 138339.19, 0.0, 9.9998665, 10.000987 
9.150769e+2, 1.8508154e+2, -1122509.0, -1168787.1, -51112.42, 0.11456862, -0.14514886, -1089541.9, 36651.324, 0.0, 10.00018, 9.999599 
9.1506714e+2, 1.9508213e+2, -1000975.75, -1065421.1, -16459.463, 0.06440915, -0.06858096, -997015.4, 31176.02, 0.0, 10.000363, 9.999554 
9.150574e+2, 2.0508255e+2, -920279.25, -943559.75, -16620.736, 0.01859667, 0.008767344, -911628.0, 18560.383, 0.0, 10.000119, 9.999827 
9.150477e+2, 2.1508247e+2, -929185.5, -900536.6, 1446.0787, -0.014699251, -0.008159667, -900463.8, -68276.125, 0.0, 9.999403, 9.999797 
9.150389e+2, 2.2508197e+2, -805369.5, -788104.0, 65975.03, -0.034856632, -0.03348447, -730199.3, 3990.836, 0.0, 9.999566, 9.999823 
9.1503084e+2, 2.3508088e+2, -574236.0, -630198.5, 124369.61, -0.0386136, -0.14910014, -474738.8, 161458.92, 0.0, 10.000505, 9.999777 
9.150224e+2, 2.4507979e+2, -552971.75, -788263.94, 70453.59, -0.044509407, -0.1350234, -533489.0, 4719.8867, 0.0, 10.00091, 9.997825 
9.150133e+2, 2.5507832e+2, -485986.47, -709244.75, 29950.88, -0.053682804, -0.09083743, -482038.28, -41811.22, 0.0, 10.0007105, 9.997792 
9.1500443e+2, 2.650771e+2, -361559.22, -526272.94, 11065.657, -0.069916725, -0.01630203, -360819.16, -18578.055, 0.00000011562638, 10.000608, 9.998421 
9.1499597e+2, 2.7507585e+2, -277190.88, -438119.3, 12597.785, -0.087302275, -0.0065158694, -276210.66, -31956.314, 0.0000025826089, 10.000522, 9.998396 
9.149876e+2, 2.8507444e+2, -123384.46, -287621.03, -19014.078, -0.05961944, 0.002230717, -121211.9, 25056.379, 0.000017159802, 10.000785, 9.998634 
9.1497934e+2, 2.950727e+2, 39604.47, -158349.17, 13639.981, 0.0013816818, -0.063829914, 40539.914, 88823.984, 0.00007135739, 10.00123, 9.998633 
9.1497016e+2, 3.0507144e+2, 60409.668, -223089.86, 31934.63, -0.06632645, -0.00020341651, 63962.402, 63962.402, 0.00020564985, 10.001495, 9.997721 
9.149609e+2, 3.1506994e+2, 119032.64, -55540.43, 62348.066, -0.19594534, 0.05093385, 139013.16, 139013.16, 0.00042848263, 10.001233, 9.998999 
9.251262e+2, 1.250892e+2, -1765761.4, -1693761.6, 57769.516, 0.09174234, 0.14859736, -1661693.1, 52437.39, 0.0000053718704, 9.999378, 10.000439 
9.251176e+2, 1.3508733e+2, -1721693.3, -1641048.8, 29511.42, 0.064351805, -0.09100014, -1631403.0, -15259.427, 0.00000033393198, 9.9991455, 10.000243 
9.251084e+2, 1.4508674e+2, -1598718.8, -1509469.5, 36863.813, 0.033318296, -0.17450124, -1496212.4, 21934.701, 0.0, 9.999207, 10.000424 
9.2509896e+2, 1.5508834e+2, -1410302.5, -1370134.6, 35191.55, -0.019152949, -0.08982643, -1349699.3, 70432.46, 0.0, 9.999837, 10.000405 
9.25091e+2, 1.6508932e+2, -1301318.9, -1212639.1, 87055.07, 0.0051278095, -0.051737677, -1159282.5, 162838.67, 0.0, 9.9996805, 10.000894 
9.250846e+2, 1.7508946e+2, -1329337.6, -1175987.9, 46762.03, 0.11986539, -0.1514014, -1162853.4, 61264.18, 0.0, 9.998822, 10.000885 
9.2507666e+2, 1.8509e+2, -1263069.1, -1173381.1, 16058.238, 0.14619939, -0.14432219, -1170592.8, -44481.125, 0.0, 9.998946, 10.000167 
9.250673e+2, 1.9509071e+2, -1017354.0, -1007463.44, 25319.365, 0.07587278, -0.11439922, -986610.94, 41495.04, 0.0, 9.99997, 10.000138 
9.250576e+2, 2.0509136e+2, -918949.06, -957071.6, -8157.6875, 0.030747311, -0.037470665, -917276.8, 12823.541, 0.0, 10.00019, 9.999708 
9.2504764e+2, 2.1509165e+2, -889519.1, -893847.25, -34944.68, 0.023715233, -0.0037099395, -856671.56, -24573.936, 0.0, 9.99972, 9.9997 
9.250388e+2, 2.2509138e+2, -823704.8, -793042.8, 35327.94, 0.01732798, -0.002833714, -769862.75, -35763.688, 0.0, 9.999424, 9.999854 
9.250311e+2, 2.3509037e+2, -746454.6, -711145.6, -18505.201, 0.007563207, -0.11436551, -703224.3, -67117.695, 0.0, 9.999301, 9.999804 
9.2502284e+2, 2.4508932e+2, -714733.2, -854261.9, -33319.645, -0.027474213, -0.10159574, -707184.8, -169067.44, 0.0, 9.999753, 9.997932 
9.250137e+2, 2.5508794e+2, -454768.47, -679220.25, 10091.387, -0.08689899, -0.05745303, -454315.66, -14181.675, 0.0, 10.000872, 9.997922 
9.250052e+2, 2.650866e+2, -290521.03, -513671.3, 44981.684, -0.07969863, 0.0029746767, -281795.03, 60353.895, 0.00000007319143, 10.001172, 9.998242 
9.249974e+2, 2.7508488e+2, -272877.66, -455692.25, 34294.258, 0.0077826567, -0.01840899, -266656.1, -22490.402, 0.0000027897247, 10.000619, 9.998234 
9.2498916e+2, 2.8508297e+2, -170878.66, -328210.8, 38821.625, 0.03396308, -0.038357843, -161820.9, -15637.433, 0.000020180585, 10.000538, 9.998469 
9.2498034e+2, 2.950808e+2, -11932.748, -203682.44, -6266.171, 0.0038464575, -0.12805955, -11728.194, 36474.883, 0.00008285034, 10.000958, 9.99845 
9.249712e+2, 3.050796e+2, 6054.995, -277295.2, 1437.6223, -0.08396287, -0.04042252, 6062.289, 6062.289, 0.0002292469, 10.00121, 9.997493 
9.2496324e+2, 3.150793e+2, 89742.664, -62575.13, -6937.055, -0.057982143, 0.15075734, 90057.945, 90057.945, 0.0004645645, 10.000977, 9.999083 
9.351264e+2, 1.2509745e+2, -1748413.4, -1633668.4, 8895.428, 0.115787804, 0.08407361, -1632982.9, 81069.67, 0.000009857008, 9.9993, 10.000881 
9.3511623e+2, 1.3509822e+2, -1670345.6, -1542946.6, 29833.738, -0.017377876, 0.04525396, -1536306.4, 79731.43, 0.0000009955157, 9.9992, 10.000882 
9.351069e+2, 1.4509809e+2, -1585840.1, -1495077.5, 44700.36, -0.0721313, -0.026656829, -1476759.6, 41275.523, 0.00000000002439963, 9.999255, 10.000504 
9.3509936e+2, 1.5509848e+2, -1409232.6, -1356896.4, 69696.56, 0.0031737704, -0.07091886, -1308617.3, 111413.33, 0.0, 9.999792, 10.000518 
9.350914e+2, 1.650992e+2, -1353981.4, -1312183.9, 38260.555, 0.045540158, -0.03299591, -1289486.4, 32537.934, 0.0, 9.999634, 10.0002365 
9.35083e+2, 1.7510012e+2, -1375831.9, -1271397.8, 27163.754, 0.046840165, 0.014034859, -1264754.9, -40737.51, 0.0, 9.9988165, 10.000236 
9.3507475e+2, 1.8510072e+2, -1233615.1, -1099221.8, 44816.17, 0.03405774, 0.032844484, -1085647.9, 40362.56, 0.0, 9.998892, 10.000704 
9.350669e+2, 1.951006e+2, -997508.0, -939883.1, 74531.91, 0.012537415, -0.07421554, -888788.4, 139219.36, 0.0, 9.99986, 10.000658 
9.350576e+2, 2.0510036e+2, -961703.25, -1019700.5, -40269.33, -0.014326965, -0.09222051, -941077.9, -11068.856, 0.0, 10.000074, 9.999335 
9.350468e+2, 2.1509981e+2, -941554.6, -966834.9, -39775.03, -0.046992864, -0.099997245, -912459.56, -80443.44, 0.0, 9.999564, 9.999278 
9.350379e+2, 2.2509964e+2, -926265.44, -967482.5, 20849.48, -0.037336096, -0.013934915, -917558.25, -183537.48, 0.0, 9.999259, 9.9987335 
9.3503076e+2, 2.350995e+2, -847576.4, -884320.06, -10814.219, 0.013758145, 0.072089024, -844629.9, -208603.63, 0.0, 9.999144, 9.998692 
9.3502265e+2, 2.4509886e+2, -621835.1, -638227.94, -4156.022, -0.040951513, 0.10579716, -620841.6, -82809.21, 0.0, 9.99965, 9.999466 
9.350138e+2, 2.5509754e+2, -363751.22, -469492.06, 64192.816, -0.18502724, 0.0034276312, -333459.16, 106582.52, 0.0, 10.000772, 9.999415 
9.3500596e+2, 2.6509592e+2, -305077.0, -516442.34, 16503.055, -0.14079912, -0.03889857, -303796.25, 38258.523, 0.00000003612581, 10.001061, 9.998272 
9.3499905e+2, 2.7509356e+2, -291835.03, -465878.16, 29657.604, 0.081938595, -0.1254199, -286920.06, -42844.414, 0.0000027030533, 10.000504, 9.998214 
9.3499047e+2, 2.8509164e+2, -236049.19, -452149.03, 44864.074, 0.08701081, -0.10313165, -227105.22, -81011.06, 0.000022488803, 10.000481, 9.997648 
9.3498045e+2, 2.9509014e+2, -76241.42, -330590.56, 27255.258, -0.11507294, -0.04770109, -73353.62, -25242.959, 0.00009525127, 10.00092, 9.9976 
9.3497175e+2, 3.0508763e+2, -4892.9497, -288472.25, -11066.446, -0.180608, -0.046552487, -4461.7466, -4461.7466, 0.00025879213, 10.001167, 9.997436 
9.3496615e+2, 3.150854e+2, 82300.586, -54270.707, 13694.29, 0.071979925, -0.04389081, 83660.2, 83660.2, 0.0005142612, 10.000879, 9.999185 
9.451269e+2, 1.251071e+2, -1689008.5, -1619910.8, 119211.49, 0.22564648, 0.04525125, -1530342.8, 183613.52, 0.000016753027, 9.999746, 10.0007715 
9.451163e+2, 1.3510835e+2, -1586135.9, -1519286.9, 46832.08, 0.04485652, 0.066641375, -1495175.0, 120763.53, 0.000002343361, 9.999835, 10.000748 
9.4510686e+2, 1.4510821e+2, -1581019.1, -1516101.3, 52325.477, -0.0023617425, 0.012039527, -1486984.8, 30951.98, 0.0000000053592455, 9.999386, 10.000298 
9.450995e+2, 1.5510812e+2, -1587375.3, -1473745.4, 24706.527, 0.10063906, -0.059466116, -1468605.9, -48669.07, 0.0, 9.998687, 10.000258 
9.450915e+2, 1.6510859e+2, -1480063.9, -1415964.3, 30857.494, 0.13450006, -0.012807336, -1403523.9, -81590.26, 0.0, 9.998966, 9.999835 
9.450827e+2, 1.7510949e+2, -1202871.5, -1231296.9, 10632.781, 0.083106846, 0.0711216, -1199334.3, 24593.799, 0.0, 10.000202, 9.99983 
9.4507414e+2, 1.8510993e+2, -1085923.0, -1032215.94, 17199.48, 0.04382174, 0.09261145, -1027180.06, 98742.9, 0.0, 9.999934, 10.000649 
9.4506603e+2, 1.951095e+2, -1234673.8, -1059349.5, -17578.018, 0.023985375, -0.040495772, -1057604.5, -29682.35, 0.0, 9.998261, 10.000599 
9.4505703e+2, 2.0510902e+2, -1179088.8, -1133047.8, -70992.734, 0.00074742106, -0.07760787, -1081436.4, -151511.0, 0.0, 9.99861, 9.999262 
9.450472e+2, 2.1510832e+2, -762811.94, -883026.5, -72408.234, -0.02168234, -0.09677687, -728813.75, 103120.305, 0.0, 10.000805, 9.999246 
9.4503826e+2, 2.2510797e+2, -672513.1, -869089.1, 1442.4137, -0.012256678, -0.015738217, -672502.5, 61438.07, 0.0, 10.001112, 9.998515 
9.450303e+2, 2.3510765e+2, -782972.06, -873489.06, 17313.682, 0.034629714, 0.075160414, -779773.44, -143825.6, 0.0, 9.999681, 9.998504 
9.450222e+2, 2.4510711e+2, -690561.3, -630244.2, 87274.53, -0.013651501, 0.1098388, -568064.3, -30111.668, 0.0, 9.999004, 9.999826 
9.450141e+2, 2.5510618e+2, -591976.8, -534417.75, 44441.355, -0.13959692, 0.00641101, -510251.13, -70293.87, 0.0, 9.999017, 9.999805 
9.450068e+2, 2.651046e+2, -483422.63, -608172.44, -30553.979, -0.09975226, -0.04933856, -476341.25, -134371.78, 0.000000027783642, 9.99985, 9.998232 
9.450002e+2, 2.7510202e+2, -158384.9, -404664.88, -46937.848, 0.10632911, -0.15041403, -149742.42, 94250.03, 0.000002329391, 10.001429, 9.998196 
9.4499165e+2, 2.8510034e+2, -52010.52, -358808.13, -3492.2522, 0.09773245, -0.106698915, -51970.773, 94038.33, 0.000023981273, 10.001729, 9.997692 
9.449813e+2, 2.950994e+2, -105822.51, -338031.2, 19711.928, -0.107494764, -0.00008996478, -104161.08, -56140.44, 0.00010679835, 10.000697, 9.997658 
9.4497263e+2, 3.050965e+2, -87761.73, -290807.63, 70184.984, -0.1641734, -0.053599037, -65863.28, -65863.28, 0.00028981623, 10.000454, 9.997764 
9.449676e+2, 3.1509426e+2, 76702.35, -38671.38, 64335.938, 0.15948087, -0.08213787, 105426.64, 105426.64, 0.00057081727, 10.000774, 9.999344 
9.551267e+2, 1.2511835e+2, -1749964.9, -1739457.1, 83620.95, 0.17539775, 0.04736932, -1660925.1, 52914.598, 0.00002677623, 9.999734, 9.999943 
9.551172e+2, 1.351179e+2, -1652797.8, -1639574.5, 56931.637, 0.13910489, -0.020978032, -1588871.9, 26972.01, 0.0000047533053, 9.999776, 9.999934 
9.5510787e+2, 1.451172e+2, -1622231.9, -1597267.1, 8145.5894, 0.12570135, -0.06717181, -1594844.4, -76993.26, 0.000000046136613, 9.999355, 9.9997635 
9.550989e+2, 1.5511745e+2, -1612944.5, -1542571.3, 10420.097, 0.14860773, -0.050751302, -1541060.8, -121211.88, 0.0, 9.998753, 9.999755 
9.550909e+2, 1.6511777e+2, -1489304.4, -1443711.8, 65773.74, 0.1511231, 0.016061205, -1396895.9, -75049.125, 0.0, 9.999, 9.99963 
9.5508367e+2, 1.7511776e+2, -1220244.5, -1261666.8, 67980.41, 0.12922446, 0.029141743, -1169890.3, 53957.867, 0.0, 10.000175, 9.999636 
9.550747e+2, 1.8511772e+2, -1134058.3, -1123415.1, -57923.66, 0.076007396, 0.042144977, -1070569.1, 55279.13, 0.0, 9.999888, 10.000051 
9.5506424e+2, 1.9511735e+2, -1285981.9, -1150331.4, -67610.8, -0.006646455, -0.022867534, -1122388.8, -94539.07, 0.0, 9.99819, 10.000011 
9.5505553e+2, 2.051173e+2, -1175528.5, -1100692.4, -1592.9902, -0.028217882, -0.0021491954, -1100658.5, -170808.84, 0.0, 9.998501, 9.999539 
9.550484e+2, 2.151172e+2, -770330.8, -857430.7, 19351.73, 0.0028149853, 0.01222841, -766224.9, 65626.37, 0.0, 10.000626, 9.999511 
9.550397e+2, 2.2511646e+2, -644189.5, -769848.56, -64663.316, -0.000803949, 0.0024978293, -616858.6, 116999.34, 0.0, 10.00094, 9.999279 
9.550295e+2, 2.3511481e+2, -756779.44, -781785.8, -22400.98, -0.033381738, -0.112422384, -743628.5, -107756.23, 0.0, 9.999519, 9.999214 
9.55021e+2, 2.4511403e+2, -765652.44, -752743.94, 77210.92, -0.05326318, -0.099033356, -681718.0, -143839.08, 0.0, 9.998869, 9.999044 
9.5501417e+2, 2.5511378e+2, -665243.1, -661725.6, 58023.45, -0.06119096, -0.054093692, -605434.3, -165553.14, 0.0, 9.998911, 9.998979 
9.550073e+2, 2.6511258e+2, -508497.8, -633414.25, 18003.4, -0.05183771, -0.022169685, -505954.84, -164061.81, 0.000000030362223, 9.999742, 9.998109 
9.550004e+2, 2.7511013e+2, -179188.92, -426693.66, 27350.3, -0.035733353, -0.09941353, -176202.64, 67714.62, 0.000002140531, 10.001341, 9.998085 
9.549921e+2, 2.8510886e+2, 1972.0208, -226903.16, -53094.992, -0.045822714, -0.060641207, 13689.258, 159619.42, 0.000025889522, 10.001647, 9.998635 
9.549825e+2, 2.951085e+2, -51884.285, -207581.69, -2454.4102, -0.081981085, 0.0071449853, -51845.605, -3912.0989, 0.00011778403, 10.000618, 9.998589 
9.5497364e+2, 3.0510634e+2, -51281.98, -196731.0, 81686.13, -0.12763317, -0.050554108, -14637.941, -14637.941, 0.00031950467, 10.000375, 9.998449 
9.5496726e+2, 3.1510574e+2, 84098.25, -9229.216, 100764.94, -0.017612586, 0.013178461, 148479.9, 148479.9, 0.00062882464, 10.000709, 9.999581 
9.65127e+2, 1.2512808e+2, -1822181.5, -1840553.9, 29856.65, 0.25703788, 0.0043670274, -1800129.8, -86387.34, 0.000040530904, 9.999497, 9.999367 
9.651172e+2, 1.3512781e+2, -1727324.4, -1734327.0, -10756.435, 0.18134469, 0.0015141745, -1719513.8, -103764.38, 0.000008656152, 9.9994955, 9.999424 
9.6510804e+2, 1.4512707e+2, -1572763.9, -1584790.8, 8199.953, 0.1929751, -0.015277146, -1568608.8, -50850.34, 0.00000019058375, 9.999784, 9.999619 
9.650991e+2, 1.5512708e+2, -1346199.0, -1430192.9, 2670.7698, 0.20378052, -0.0060033933, -1346114.1, 73643.38, 0.0, 10.000692, 9.999576 
9.6509075e+2, 1.6512698e+2, -1247796.9, -1324489.5, 99759.52, 0.1600279, 0.028767403, -1179267.5, 142490.27, 0.0, 10.000656, 9.999645 
9.6508294e+2, 1.7512646e+2, -1284198.6, -1296223.3, 93390.41, 0.06892117, -0.011534158, -1196627.3, 27135.225, 0.0, 9.999749, 9.999607 
9.65074e+2, 1.8512617e+2, -1223003.1, -1218303.1, -26430.383, 0.04118097, 0.0033543226, -1194118.5, -68353.45, 0.0, 9.999494, 9.9995985 
9.65064e+2, 1.9512588e+2, -1075948.5, -1100546.3, -47528.19, 0.06902592, -0.00785015, -1039153.6, -11385.912, 0.0, 9.9998455, 9.999563 
9.6505535e+2, 2.051258e+2, -1021209.8, -1029137.6, 85053.69, 0.058748726, 0.03356175, -940027.7, -10258.82, 0.0, 9.999606, 9.999483 
9.650482e+2, 2.1512556e+2, -1033937.44, -989305.8, 53038.535, 0.017184405, 0.039326917, -954079.6, -122308.234, 0.0, 9.9988575, 9.999446 
9.6503955e+2, 2.2512472e+2, -897985.9, -879892.0, -71285.6, -0.009968024, 0.016049951, -817081.56, -83303.01, 0.0, 9.999134, 9.999401 
9.6502954e+2, 2.3512301e+2, -623811.6, -698686.94, -97589.41, -0.013597054, -0.118281536, -556725.25, 79067.125, 0.0, 10.000348, 9.999386 
9.650213e+2, 2.4512216e+2, -479149.56, -657446.6, 26643.014, -0.012115172, -0.10180882, -475253.44, 62546.51, 0.0, 10.001006, 9.998682 
9.6501476e+2, 2.5512198e+2, -364943.2, -556921.4, 16410.727, 0.0034625467, -0.012040448, -363550.47, 76252.875, 0.0, 10.001145, 9.998631 
9.6500796e+2, 2.6512092e+2, -354935.25, -499575.53, 45411.055, 0.0039555565, 0.026019026, -341860.06, -46.39474, 0.000000012060779, 10.000535, 9.998641 
9.650008e+2, 2.7511868e+2, -463734.84, -506784.2, 75930.01, -0.015663229, -0.08551118, -406337.53, -162503.22, 0.0000023356135, 9.999136, 9.998595 
9.649927e+2, 2.8511766e+2, -303687.5, -323126.7, 34413.99, -0.0357439, -0.068095505, -277646.88, -131803.03, 0.000028869204, 9.999332, 9.999079 
9.6498364e+2, 2.9511768e+2, 38496.68, -115859.07, 13406.37, -0.04525717, -0.0024553668, 39652.418, 87495.9, 0.00012892728, 10.001041, 9.999008 
9.649749e+2, 3.0511618e+2, 152068.44, -54007.508, 72047.05, -0.09478946, -0.03718455, 174758.73, 174758.73, 0.00034703137, 10.001564, 9.998857 
9.649678e+2, 3.151159e+2, 61185.016, -12919.692, 12206.502, -0.013665913, 0.014822459, 63143.887, 63143.887, 0.0006841425, 10.000524, 9.999635 
9.75127e+2, 1.251362e+2, -1837336.0, -1862198.9, -12338.303, 0.2408289, -0.10630413, -1832252.5, -118586.85, 0.000058506626, 9.999463, 9.999232 
9.751158e+2, 1.3513824e+2, -1723462.5, -1732998.9, -4416.751, 0.065639205, 0.12943475, -1721731.3, -106078.2, 0.00001444443, 9.999536, 9.99941 
9.7510695e+2, 1.4513814e+2, -1563866.9, -1577813.6, 29389.332, 0.07698214, 0.17297226, -1540634.9, -22979.268, 0.0000005546723, 9.999829, 9.999649 
9.750998e+2, 1.5513708e+2, -1347085.9, -1427993.3, 50607.266, 0.1694723, 0.07371143, -1322750.6, 96911.43, 0.0, 10.000676, 9.9995985 
9.7509074e+2, 1.651363e+2, -1236809.1, -1295433.6, 49372.094, 0.06462481, 0.02745422, -1208703.5, 112963.21, 0.0, 10.000624, 9.999865 
9.7508025e+2, 1.7513558e+2, -1270928.6, -1266755.4, 66732.336, -0.1991584, -0.053465735, -1202077.0, 21594.283, 0.0, 9.999739, 9.999815 
9.7507167e+2, 1.8513535e+2, -1251487.0, -1266037.9, -24354.893, -0.1639307, -0.028481629, -1233344.1, -107670.93, 0.0, 9.999444, 9.999294 
9.750648e+2, 1.9513524e+2, -1110300.9, -1150535.6, -22452.514, 0.14590532, 0.006535092, -1100271.5, -72596.22, 0.0, 9.999755, 9.999261 
9.750563e+2, 2.0513466e+2, -1069673.3, -1105266.0, 42783.254, 0.1658174, 0.039310686, -1041132.6, -111450.81, 0.0, 9.999493, 9.999021 
9.750463e+2, 2.1513332e+2, -1087027.5, -1068546.9, 36685.62, -0.08883879, -0.01748662, -1039955.8, -208260.31, 0.0, 9.998718, 9.998975 
9.7503746e+2, 2.2513261e+2, -952104.9, -953539.4, -38913.215, -0.1485379, 0.019165218, -913902.3, -180199.05, 0.0, 9.99897, 9.99897 
9.7503e+2, 2.351322e+2, -683573.9, -776639.94, -41661.695, -0.01984287, 0.05648956, -667648.75, -31940.531, 0.0, 10.000156, 9.998939 
9.750228e+2, 2.4513164e+2, -491983.2, -657541.5, 19999.57, 0.010130766, 0.12059786, -489601.5, 48112.96, 0.0, 10.000887, 9.998742 
9.750156e+2, 2.5513065e+2, -373099.2, -550955.6, 35013.906, -0.054983154, 0.12442561, -366454.4, 73270.125, 0.0, 10.001042, 9.998723 
9.750083e+2, 2.651294e+2, -285344.13, -332412.6, -19305.375, -0.03774519, 0.07330239, -278438.97, 63294.484, 0.0000000034767167, 10.00044, 9.999832 
9.750009e+2, 2.7512756e+2, -395056.13, -342493.6, 39669.01, 0.056780595, -0.11593736, -321189.8, -77445.81, 0.0000028342504, 9.999044, 9.9997635 
9.749929e+2, 2.8512686e+2, -320758.3, -345832.16, 89251.74, 0.023480222, -0.11787648, -243167.28, -97418.26, 0.000032313746, 9.999278, 9.998951 
9.7498405e+2, 2.9512694e+2, 19940.549, -140148.36, 97314.93, -0.13911511, -0.031579353, 65901.29, 113652.3, 0.0001399921, 10.00098, 9.998871 
9.749757e+2, 3.0512574e+2, 140243.14, -56130.285, 25155.62, -0.1896326, -0.032665256, 143414.39, 143414.39, 0.00037284024, 10.0014715, 9.998888 
9.7496843e+2, 3.151244e+2, 23880.287, -56596.133, 5889.818, -0.06112276, -0.09240568, 24309.059, 24309.059, 0.00073526404, 10.000384, 9.999398 
9.8512596e+2, 1.2514535e+2, -1971692.6, -1885944.1, 17723.508, 0.26239052, -0.060301475, -1882425.3, -168844.78, 0.00008108169, 9.998366, 9.999607 
9.851159e+2, 1.351477e+2, -1525036.1, -1602648.3, 14671.49, 0.07418751, 0.17671955, -1522355.4, 93206.85, 0.000022462764, 10.000738, 9.999735 
9.8510766e+2, 1.451474e+2, -1389633.1, -1546344.6, 21918.822, 0.10242687, 0.20751391, -1386625.1, 130941.05, 0.0000013019285, 10.001225, 9.999198 
9.8510003e+2, 1.5514562e+2, -1446491.5, -1524567.6, -19891.43, 0.16133276, 0.07465779, -1441715.9, -22134.994, 0.0, 10.000186, 9.999171 
9.850906e+2, 1.6514476e+2, -1394420.6, -1366888.3, -28074.848, 0.057004992, 0.040834613, -1349386.1, -27799.443, 0.0, 9.999521, 9.9999075 
9.850798e+2, 1.7514464e+2, -1333688.6, -1290690.0, -46824.566, -0.18887413, 0.015323742, -1260664.9, -37078.953, 0.0, 9.999286, 9.99987 
9.8507124e+2, 1.8514447e+2, -1247505.3, -1268849.5, -77418.53, -0.15094966, 0.048558835, -1180026.8, -54439.83, 0.0, 9.999502, 9.999241 
9.850646e+2, 1.9514403e+2, -1069992.0, -1138700.5, -85537.734, 0.14155893, 0.055800255, -1012167.5, 15424.633, 0.0, 10.000074, 9.9991865 
9.8505616e+2, 2.0514306e+2, -957371.75, -1067805.0, -7216.7295, 0.16974711, 0.061373457, -956902.1, -27300.314, 0.0, 10.000313, 9.998892 
9.8504597e+2, 2.1514134e+2, -888800.6, -986874.2, -10819.307, -0.05254327, -0.024459304, -887621.25, -56002.773, 0.0, 10.000131, 9.998859 
9.8503727e+2, 2.251406e+2, -774432.5, -885572.5, 8342.5625, -0.121560164, 0.020923546, -773809.8, -40183.44, 0.0, 10.000257, 9.998819 
9.8503023e+2, 2.3514052e+2, -621904.4, -763034.5, 4738.837, -0.035739373, 0.108183555, -621745.44, 13882.717, 0.0, 10.000644, 9.998798 
9.8502326e+2, 2.4513987e+2, -567395.0, -692481.56, 57642.473, 0.0031712595, 0.16943088, -544883.5, -7247.7676, 0.0, 10.000379, 9.998738 
9.850162e+2, 2.5513825e+2, -592686.9, -659959.4, 39914.184, -0.009196219, 0.112539284, -574126.06, -134473.58, 0.0, 9.999544, 9.998697 
9.850087e+2, 2.6513708e+2, -399049.3, -356081.66, -30632.477, 0.017405627, 0.059101757, -340150.2, 1510.2573, 0.00000001775074, 9.999525, 10.00012 
9.850009e+2, 2.7513614e+2, -193457.83, -214783.14, -68427.57, 0.09755856, -0.068410605, -134867.16, 108794.89, 0.000003544514, 10.000292, 10.000052 
9.849928e+2, 2.8513566e+2, -190034.75, -275762.06, 2944.0637, 0.05105914, -0.066310324, -189933.77, -44269.207, 0.00003520851, 10.000126, 9.999041 
9.849842e+2, 2.951353e+2, -256690.4, -264328.47, 3242.7605, -0.11822383, -0.034048222, -255499.39, -207828.69, 0.00014922032, 9.999022, 9.998975 
9.8497635e+2, 3.051344e+2, -119782.98, -144300.89, -11100.322, -0.16222678, -0.025922967, -115504.12, -115504.12, 0.00039592202, 9.999536, 9.99921 
9.8496956e+2, 3.1513256e+2, 177529.13, 43155.72, -59861.12, -0.023551501, -0.1581346, 200328.02, 200328.02, 0.0007798097, 10.001319, 9.999642 
9.951232e+2, 1.2515557e+2, -1914581.9, -1773166.6, 65309.082, 0.08977709, 0.14540224, -1747620.1, -34133.387, 0.000108580556, 9.9984, 10.000358 
9.951173e+2, 1.3515633e+2, -1482540.6, -1505052.6, 108174.61, 0.11247801, 0.14804436, -1385038.0, 230438.28, 0.000033028722, 10.000707, 10.000415 
9.9510986e+2, 1.4515504e+2, -1453729.9, -1677873.3, -35777.53, 0.1578466, 0.09519005, -1448157.8, 69330.78, 0.0000026281716, 10.001211, 9.998307 
9.950996e+2, 1.5515283e+2, -1500369.3, -1643481.3, -48169.797, 0.069436, 0.007687781, -1485666.4, -66154.03, 0.00000000019976186, 10.000211, 9.998348 
9.9509007e+2, 1.651525e+2, -1402932.6, -1383930.0, -49477.246, 0.01770268, 0.07083896, -1343050.0, -21533.297, 0.0, 9.999522, 9.999786 
9.950813e+2, 1.7515366e+2, -1342234.6, -1308455.3, -43458.074, 0.0016925774, 0.185669, -1278720.3, -55214.46, 0.0, 9.999283, 9.999749 
9.9507225e+2, 1.8515357e+2, -1247078.4, -1256791.6, -68254.984, -0.023544319, 0.22769375, -1183507.5, -58001.24, 0.0, 9.9994545, 9.999349 
9.95063e+2, 1.9515213e+2, -1070266.8, -1123459.5, -52636.844, -0.051066794, 0.12416043, -1037888.56, -10368.974, 0.0, 10.000005, 9.999325 
9.950546e+2, 2.051509e+2, -963557.3, -1045370.94, -28570.541, -0.032451063, 0.08486004, -954567.75, -25037.795, 0.0, 10.000167, 9.999115 
9.9504703e+2, 2.1514961e+2, -896510.94, -962453.75, -7087.438, 0.023608698, 0.019082526, -895757.75, -64217.383, 0.0, 9.999959, 9.999107 
9.9503875e+2, 2.2514872e+2, -790053.75, -873678.8, 10978.215, -0.023746235, 0.03103302, -788636.56, -55089.824, 0.0, 10.00007, 9.998991 
9.950298e+2, 2.3514798e+2, -635508.06, -750672.5, 31618.604, -0.1679746, 0.03383009, -627398.25, 8153.5825, 0.0, 10.000472, 9.998966 
9.9502236e+2, 2.4514678e+2, -595040.4, -718709.8, 13341.438, -0.14430068, 0.036555994, -593617.5, -56053.113, 0.0, 10.000241, 9.998624 
9.9501646e+2, 2.551448e+2, -619805.75, -685396.44, 22096.088, 0.03617132, -0.046840325, -613056.5, -173469.56, 0.0, 9.999408, 9.998589 
9.95009e+2, 2.6514414e+2, -466413.44, -469809.4, -12426.81, 0.0739573, -0.005978162, -455569.16, -113975.65, 0.000000028595345, 9.999417, 9.999391 
9.9500024e+2, 2.751444e+2, -259833.73, -326925.34, -24747.447, -0.020765899, 0.062167678, -251693.13, -8105.047, 0.000003781716, 10.000185, 9.999333 
9.949919e+2, 2.851439e+2, -177672.4, -228526.66, -49726.14, -0.07414531, 0.08285938, -147249.48, -1658.2803, 0.000036350866, 10.000033, 9.999409 
9.949838e+2, 2.9514268e+2, -237308.05, -207182.61, -18766.447, -0.093937054, -0.015899975, -198181.56, -150578.77, 0.00015456251, 9.998954, 9.999395 
9.949767e+2, 3.0514222e+2, -91401.1, -75533.766, 52337.58, -0.11001937, -0.0098638665, -30531.95, -30531.95, 0.00041193186, 9.999492, 9.999705 
9.9497014e+2, 3.1514066e+2, 200058.7, 131132.92, 42616.598, -0.15202999, -0.1670785, 220403.34, 220403.34, 0.0008105773, 10.00115, 10.000327 
1.0051225e+3, 1.2516388e+2, -1738764.4, -1682328.3, 74277.625, 0.12880242, 0.21870743, -1631089.3, 82316.87, 0.00014134821, 9.999583, 10.000402 
1.00511745e+3, 1.3516377e+2, -1737621.5, -1621837.6, 34790.137, 0.15554179, 0.12749785, -1612188.3, 3214.7227, 0.000046426092, 9.998937, 10.000455 
1.0051105e+3, 1.4516246e+2, -1751888.5, -1784945.1, -80374.82, 0.2219234, 0.05322511, -1686360.1, -168944.55, 0.00000474816, 9.999042, 9.998606 
1.0050999e+3, 1.5516104e+2, -1486210.1, -1606984.6, -43953.844, 0.07918082, 0.021642411, -1471907.5, -52474.684, 0.000000004412824, 10.000194, 9.998608 
1.0050901e+3, 1.6516097e+2, -1295648.9, -1352901.3, -6559.0903, 0.030877063, 0.107133515, -1294907.0, 26528.793, 0.0, 10.000339, 9.999616 
1.0050813e+3, 1.751619e+2, -1321211.1, -1314019.5, -26202.992, 0.069990136, 0.21510103, -1291166.8, -67739.16, 0.0, 9.999495, 9.999613 
1.0050722e+3, 1.8516167e+2, -1253103.1, -1262952.4, 10966.94, 0.03452363, 0.24978817, -1246005.9, -120575.914, 0.0, 9.999433, 9.999312 
1.0050628e+3, 1.9516006e+2, -1050427.0, -1118322.0, -8121.968, -0.064351946, 0.13451464, -1049469.0, -22024.307, 0.0, 10.000168, 9.999277 
1.0050548e+3, 2.05159e+2, -905093.2, -1000703.44, 2573.056, -0.038696703, 0.10532807, -905024.0, 24429.602, 0.0, 10.00049, 9.999262 
1.00504786e+3, 2.151582e+2, -832308.6, -918161.3, -7313.889, 0.09699093, 0.07463541, -831690.0, -230.64267, 0.0, 10.000333, 9.999235 
1.0050396e+3, 2.2515738e+2, -734322.7, -799413.6, 54581.332, 0.056712072, 0.06558048, -703320.3, 30143.135, 0.0, 10.000252, 9.999414 
1.0050302e+3, 2.3515625e+2, -640108.7, -708970.0, 63846.1, -0.1492847, -0.01114102, -602001.1, 33467.754, 0.0, 10.000248, 9.999363 
1.0050226e+3, 2.4515493e+2, -604148.9, -747750.4, 53569.586, -0.13822265, -0.024851235, -586367.0, -48885.105, 0.0, 10.000279, 9.998409 
1.0050168e+3, 2.5515327e+2, -499595.34, -641918.6, 30773.617, 0.0897982, -0.060411036, -493226.38, -53722.418, 0.0, 10.000318, 9.998436 
1.00500934e+3, 2.6515275e+2, -327686.25, -442742.13, 67276.73, 0.11027639, 0.019469889, -296695.16, 44815.71, 0.000000017098808, 10.000542, 9.999029 
1.00500025e+3, 2.7515295e+2, -188070.52, -329336.56, 58075.37, -0.06779412, 0.11169478, -167260.81, 76246.75, 0.000003428396, 10.000838, 9.998994 
1.0049919e+3, 2.851521e+2, -54498.7, -173710.8, 16675.479, -0.109749064, 0.11570395, -52210.06, 93304.02, 0.00003625069, 10.000905, 9.999357 
1.0049844e+3, 2.951502e+2, 9357.91, -97254.46, -14711.528, -0.0071612317, -0.042243868, 11350.716, 58881.617, 0.00015744341, 10.000674, 9.999324 
1.00497745e+3, 3.0515018e+2, 40408.61, -22918.742, 89238.195, -0.019404994, 0.016225766, 103434.13, 103434.13, 0.00042211023, 10.000432, 9.99962 
1.0049704e+3, 3.1514946e+2, 41503.926, 67446.43, -6668.431, -0.16802251, -0.04945316, 69060.15, 69060.15, 0.0008305699, 9.99998, 10.000464 
1.0151229e+3, 1.251705e+2, -1774365.8, -1758474.6, -2930.0935, 0.15175131, 0.16019927, -1757951.5, -44614.734, 0.0001798155, 9.999598, 9.999869 
1.0151159e+3, 1.3517018e+2, -1773523.8, -1701778.0, 19998.357, 0.08183865, 0.10509086, -1696580.3, -81239.33, 0.000062927356, 9.998959, 9.999893 
1.01510935e+3, 1.4516968e+2, -1661044.0, -1597820.9, -55363.613, 0.16178387, 0.07306001, -1565679.6, -48332.65, 0.000007860604, 9.999043, 9.999889 
1.0151004e+3, 1.5517028e+2, -1402015.5, -1427200.0, 9430.425, 0.09163016, 0.115989454, -1398875.6, 20466.65, 0.000000028517778, 10.0001745, 9.999848 
1.0150904e+3, 1.6517025e+2, -1309121.8, -1379062.4, -51642.22, 0.0006976215, 0.15522684, -1281723.4, 39619.63, 0.0, 10.000327, 9.999442 
1.01507954e+3, 1.7516944e+2, -1331691.3, -1340705.9, -46447.055, -0.08115642, 0.104851976, -1289533.4, -66182.336, 0.0, 9.999509, 9.999426 
1.01507075e+3, 1.8516876e+2, -1273330.8, -1293915.6, 26117.926, -0.07936059, 0.1159494, -1255550.4, -130192.69, 0.0, 9.999386, 9.999124 
1.015064e+3, 1.9516791e+2, -1076882.9, -1150010.1, 30416.639, -0.0016913683, 0.09334259, -1065885.3, -38518.81, 0.0, 10.000067, 9.999108 
1.0150564e+3, 2.0516741e+2, -920828.6, -1000763.3, -15674.098, 0.04372569, 0.12643506, -917865.0, 11506.715, 0.0, 10.000353, 9.999328 
1.015048e+3, 2.1516708e+2, -847486.3, -916100.75, -2681.8562, 0.059374478, 0.13356501, -847381.6, -16005.898, 0.0, 10.000192, 9.999315 
1.0150397e+3, 2.2516648e+2, -719056.2, -726136.2, 41017.273, 0.01464814, 0.11497574, -681426.44, 51950.477, 0.0, 10.000073, 10.000002 
1.0150313e+3, 2.3516543e+2, -621860.06, -634169.06, 75303.875, -0.091884926, -0.017044984, -552459.6, 82918.61, 0.0, 10.00009, 9.99995 
1.0150237e+3, 2.4516454e+2, -648973.1, -803065.56, 40622.62, -0.08087547, -0.00069075235, -638919.9, -101533.39, 0.0, 10.00012, 9.998106 
1.0150168e+3, 2.5516358e+2, -538206.4, -695653.25, 44620.484, 0.039804358, 0.06514279, -526440.2, -87036.27, 0.0, 10.000202, 9.998125 
1.0150091e+3, 2.651627e+2, -334134.72, -434385.1, 69339.83, 0.017073927, 0.121168405, -298699.72, 42714.445, 0.000000011022683, 10.000446, 9.999132 
1.0150006e+3, 2.751617e+2, -193807.73, -318069.97, 86268.25, -0.15057372, 0.08276085, -149625.7, 93794.48, 0.0000031084232, 10.000738, 9.999119 
1.0149927e+3, 2.8516018e+2, -105933.41, -261483.56, -2673.5144, -0.14989044, 0.036875684, -105887.47, 39545.58, 0.000035475467, 10.000827, 9.99879 
1.0149855e+3, 2.9515788e+2, -51837.57, -190522.02, -5831.6206, 0.0066303853, -0.10277415, -51592.79, -4138.173, 0.00015874387, 10.000542, 9.99874 
1.01497814e+3, 3.0515823e+2, -14329.213, -124239.2, 65333.45, -0.015406412, 0.0573089, 16088.568, 16088.568, 0.00042931808, 10.000369, 9.998959 
1.0149696e+3, 3.151588e+2, -13341.621, -1976.9192, 22137.627, -0.30482176, 0.18585642, 15196.006, 15196.006, 0.00084597495, 9.9998, 10.00007 
1.0251224e+3, 1.2517673e+2, -1709410.4, -1753905.0, 3036.235, 0.13639781, 0.032253537, -1709204.3, 4066.455, 0.00022439056, 10.000152, 9.999645 
1.0251156e+3, 1.3517687e+2, -1698217.9, -1699284.9, 19583.676, 0.12790191, 0.05928145, -1679160.4, -63886.75, 0.0000828242, 9.999617, 9.999608 
1.025109e+3, 1.4517708e+2, -1612877.1, -1518029.1, -3592.793, 0.22948143, 0.086400054, -1517893.3, -618.5993, 0.000012107546, 9.999119, 10.000403 
1.0250998e+3, 1.5517864e+2, -1554041.8, -1443192.6, -19653.014, 0.097322755, 0.16911855, -1439811.4, -20550.49, 0.00000009714164, 9.998874, 10.000362 
1.02509e+3, 1.6517879e+2, -1499359.8, -1453729.0, -89356.625, -0.0008483543, 0.19442469, -1384321.0, -63061.25, 0.0, 9.998972, 9.999568 
1.0250795e+3, 1.7517751e+2, -1315889.3, -1312219.1, -88056.03, -0.039534707, 0.086257905, -1225979.0, -2707.4717, 0.0, 9.999557, 9.999582 
1.0250709e+3, 1.8517682e+2, -1202813.0, -1234749.5, 47303.77, -0.006594446, 0.07286326, -1168855.0, -43576.93, 0.0, 9.999742, 9.999367 
1.02506444e+3, 1.9517635e+2, -1148855.4, -1158897.1, 63247.66, 0.07657429, 0.0648845, -1090429.6, -63147.1, 0.0, 9.999449, 9.999354 
1.0250566e+3, 2.0517617e+2, -1040998.7, -1064838.6, 48231.03, 0.08575885, 0.12117588, -1003236.44, -73951.055, 0.0, 9.999567, 9.9992695 
1.0250478e+3, 2.1517603e+2, -869135.3, -935618.7, 24558.447, 0.03493145, 0.1584843, -861047.5, -29758.176, 0.0, 10.000093, 9.99923 
1.0250398e+3, 2.2517549e+2, -698459.3, -731000.5, 49782.16, 0.013560071, 0.15596204, -662356.3, 70935.08, 0.0, 10.000283, 9.999864 
1.0250323e+3, 2.3517436e+2, -636311.94, -656541.1, 4896.6465, 0.013376741, 0.033420276, -635189.0, 105.04426, 0.0, 10.000069, 9.999805 
1.0250248e+3, 2.4517342e+2, -647776.06, -791549.25, -11527.877, 0.027481409, 0.047238104, -646857.6, -109555.48, 0.0, 10.000095, 9.998186 
1.02501705e+3, 2.551724e+2, -523400.2, -683922.2, -8112.6987, 0.05291729, 0.099978186, -522991.22, -83672.86, 0.0, 10.000283, 9.998168 
1.0250093e+3, 2.6517132e+2, -351823.47, -455124.6, 47346.03, 0.0006189833, 0.13967006, -333406.72, 7923.119, 0.00000001218603, 10.00038, 9.999023 
1.0250013e+3, 2.7516997e+2, -254372.48, -354810.6, 21038.764, -0.11577181, 0.077654816, -250143.55, -6804.287, 0.0000027111198, 10.000369, 9.999041 
1.0249935e+3, 2.8516823e+2, -175431.5, -320609.7, -44436.45, -0.12297885, 0.027074518, -162910.23, -17556.191, 0.00003356842, 10.000468, 9.998554 
1.0249857e+3, 2.9516578e+2, -60140.65, -222697.02, -52495.914, -0.026342107, -0.10436195, -44661.59, 2715.5046, 0.00015737157, 10.000605, 9.998491 
1.0249785e+3, 3.0516583e+2, -1734.4998, -154479.02, 62488.973, -0.016483217, 0.05595009, 20572.488, 20572.488, 0.00043278775, 10.000644, 9.998604 
1.02497116e+3, 3.151662e+2, 62946.52, 22260.047, -2012.4814, -0.14347504, 0.19957022, 63045.82, 63045.82, 0.00085734465, 10.00038, 9.99995 
1.0351205e+3, 1.2518255e+2, -1697763.3, -1743095.4, -76639.555, -0.14706996, -0.16403528, -1640508.3, 72699.56, 0.00027553758, 10.000206, 9.999694 
1.0351161e+3, 1.3518399e+2, -1705385.0, -1713048.6, 6948.846, 0.19055553, -0.001185862, -1701281.5, -86081.66, 0.000106410545, 9.999614, 9.999516 
1.0351092e+3, 1.4518479e+2, -1621211.8, -1540283.1, -27699.65, 0.3035031, 0.10118635, -1531710.4, -14513.139, 0.000017580353, 9.99914, 10.000239 
1.0350979e+3, 1.5518613e+2, -1561234.6, -1461543.1, -17747.906, -0.01784367, 0.17573763, -1458477.8, -39289.01, 0.00000023822265, 9.998883, 10.000234 
1.0350884e+3, 1.6518663e+2, -1475101.9, -1398316.4, -82978.88, -0.09018674, 0.22056495, -1345278.9, -24093.324, 0.0, 9.998953, 9.999957 
1.03508055e+3, 1.7518614e+2, -1293922.0, -1259273.4, -54583.297, 0.09767426, 0.15227483, -1219331.0, 3858.291, 0.0, 9.999524, 9.999962 
1.0350725e+3, 1.851858e+2, -1163173.0, -1137015.5, 22577.094, 0.14843346, 0.12284832, -1124002.5, 1188.2968, 0.0, 9.999677, 10.000069 
1.03506394e+3, 1.9518535e+2, -1113062.3, -1066909.3, 60597.04, 0.06493095, 0.04448297, -1025143.4, 2049.5598, 0.0, 9.999371, 10.000025 
1.03505544e+3, 2.051852e+2, -1079441.6, -1112509.9, 54573.61, -0.012172795, 0.08566062, -1038952.44, -109757.44, 0.0, 9.999427, 9.999008 
1.0350471e+3, 2.1518505e+2, -903817.9, -979536.6, 56300.973, -0.07145683, 0.1455002, -873830.9, -42630.56, 0.0, 9.999967, 9.99899 
1.03503965e+3, 2.2518432e+2, -784453.7, -871041.9, 29322.525, -0.04477292, 0.17960595, -775458.3, -42251.047, 0.0, 10.00012, 9.998982 
1.0350331e+3, 2.3518291e+2, -716876.9, -789865.25, 9221.619, 0.056351688, 0.11471452, -715729.8, -80512.22, 0.0, 9.999922, 9.9989605 
1.03502564e+3, 2.4518146e+2, -646357.4, -750322.2, -13465.136, 0.07602482, 0.09968797, -644641.75, -107411.68, 0.0, 9.999934, 9.998547 
1.0350174e+3, 2.5517976e+2, -514829.63, -638549.8, 13739.761, 0.02178707, 0.04688545, -513322.1, -74075.27, 0.0, 10.000168, 9.998533 
1.0350096e+3, 2.6517868e+2, -387729.94, -507358.25, 35646.508, -0.032604557, 0.082736835, -377913.6, -36656.76, 0.00000000560088, 10.000287, 9.998708 
1.0350023e+3, 2.7517784e+2, -298025.16, -412520.34, 35782.08, -0.08626547, 0.10174808, -287762.4, -44498.367, 0.0000022721786, 10.000238, 9.998702 
1.03499405e+3, 2.8517628e+2, -180342.23, -313409.5, -50974.74, -0.14614977, 0.08553147, -163059.7, -17782.426, 0.000031172072, 10.00039, 9.998641 
1.0349846e+3, 2.9517406e+2, -70885.19, -215493.02, -29027.873, -0.2300302, -0.03273773, -65275.86, -17979.508, 0.00015322318, 10.000485, 9.998594 
1.0349784e+3, 3.0517304e+2, -27889.846, -192713.27, 45293.617, -0.1234873, 0.025920484, -16263.256, -16263.256, 0.00043103905, 10.000576, 9.998375 
1.03497416e+3, 3.1517166e+2, 32660.643, 18734.553, 31410.094, 0.06163824, 0.016170343, 57870.227, 57870.227, 0.0008619147, 10.000156, 10.00002 
1.04512125e+3, 1.251913e+2, -1771963.6, -1748671.6, -42128.68, -0.05267588, -0.120315604, -1716608.9, -3487.8513, 0.0003338259, 9.999552, 9.99997 
1.04511485e+3, 1.3519217e+2, -1694091.1, -1684669.0, 42982.184, 0.12880358, -0.03884297, -1646140.4, -31023.652, 0.00013404706, 9.999576, 9.999724 
1.0451073e+3, 1.451928e+2, -1637443.8, -1552702.4, 52356.34, 0.20887204, 0.037175104, -1527719.8, -10604.218, 0.000024406929, 9.999054, 10.000199 
1.0450969e+3, 1.5519416e+2, -1646145.1, -1500414.4, 39035.887, 0.03146611, 0.12164251, -1490616.9, -71508.93, 0.0000004785213, 9.99831, 10.000242 
1.0450878e+3, 1.6519493e+2, -1539714.9, -1391617.9, 45322.676, -0.0014694142, 0.17473103, -1378848.6, -57746.3, 0.0, 9.998335, 10.000308 
1.04508005e+3, 1.7519487e+2, -1330028.9, -1241363.5, 50064.977, 0.1151122, 0.11358462, -1218824.0, 4277.306, 0.0, 9.99911, 10.000291 
1.04507215e+3, 1.8519488e+2, -1214308.4, -1186431.1, 83173.6, 0.16706127, 0.115102835, -1116036.3, 9064.589, 0.0, 9.999448, 9.999832 
1.0450642e+3, 1.9519478e+2, -1117680.6, -1091330.3, 25502.938, 0.15399256, 0.09568783, -1075800.4, -48697.355, 0.0, 9.999448, 9.999811 
1.04505576e+3, 2.051946e+2, -1056093.3, -1073003.5, 43818.68, 0.08670055, 0.13142535, -1019921.44, -90816.16, 0.0, 9.999456, 9.999269 
1.0450471e+3, 2.151941e+2, -971214.0, -983084.44, 61560.383, -0.021828495, 0.13024992, -915303.4, -84192.516, 0.0, 9.99938, 9.9992485 
1.0450398e+3, 2.2519317e+2, -841209.25, -942581.44, 99381.57, -0.024554182, 0.15068442, -780334.7, -47215.063, 0.0, 9.999912, 9.998595 
1.04503356e+3, 2.351916e+2, -583971.25, -773142.7, 88838.41, 0.065002605, 0.11199885, -548792.9, 86341.04, 0.0, 10.00102, 9.998554 
1.04502626e+3, 2.451899e+2, -411473.53, -656091.2, 77883.54, 0.075108595, 0.101453535, -388781.34, 148367.38, 0.0, 10.001615, 9.998394 
1.0450182e+3, 2.5518787e+2, -298855.97, -551796.6, 40432.914, 0.016512768, 0.0322043, -292549.94, 146616.39, 0.0, 10.001718, 9.998385 
1.04501046e+3, 2.6518643e+2, -266007.6, -517724.97, 31399.281, -0.015881397, 0.06670331, -262149.97, 79030.28, 0.0000000009945924, 10.001412, 9.998102 
1.0450033e+3, 2.7518502e+2, -277904.28, -477643.66, -14331.433, -0.018349685, 0.09423587, -276881.25, -33685.98, 0.0000020282196, 10.00066, 9.99807 
1.0449951e+3, 2.8518337e+2, -154748.06, -322416.25, -63250.207, -0.079230785, 0.10990427, -133564.33, 11646.083, 0.00002862313, 10.000652, 9.998458 
1.0449857e+3, 2.9518148e+2, 38708.305, -180242.14, -95273.43, -0.19338007, 0.043381236, 74360.09, 121586.03, 0.00014660136, 10.0013075, 9.998445 
1.0449796e+3, 3.051798e+2, 53969.95, -189303.44, -42287.137, -0.074068576, 0.05655178, 61110.918, 61110.918, 0.00042212423, 10.001292, 9.998048 
1.04497574e+3, 3.1517705e+2, 62492.11, 3195.0332, -106232.055, 0.19889112, -0.051889703, 143135.39, 143135.39, 0.0008537748, 10.000438, 9.9998 
1.05512366e+3, 1.2520275e+2, -1732203.1, -1662363.5, -95551.125, 0.18188068, 0.12374148, -1595551.3, 117461.27, 0.00039971265, 9.999541, 10.000564 
1.0551118e+3, 1.3520141e+2, -1663249.1, -1614599.5, 53733.934, -0.16911982, -0.061686207, -1579940.9, 35083.45, 0.00016604259, 9.999555, 10.000215 
1.0551029e+3, 1.4520125e+2, -1631533.3, -1545122.5, 6206.5938, -0.17185272, -0.091915175, -1544679.0, -27650.842, 0.000032768716, 9.999068, 10.000246 
1.0550967e+3, 1.5520285e+2, -1644033.5, -1499260.9, 22857.29, 0.14141738, 0.008816692, -1495737.8, -76720.13, 0.0000008393984, 9.998315, 10.000252 
1.0550879e+3, 1.6520375e+2, -1518040.0, -1341268.4, 61125.414, 0.15164693, 0.059409816, -1322190.9, -1181.0149, 0.0, 9.998317, 10.000659 
1.0550774e+3, 1.7520379e+2, -1309163.1, -1194842.8, 87154.84, -0.08998803, -0.030050514, -1147776.0, 75230.99, 0.0, 9.9991, 10.000613 
1.0550697e+3, 1.8520416e+2, -1306540.6, -1364012.4, 68505.69, -0.05151919, 0.053753145, -1260988.0, -135980.92, 0.0, 9.999388, 9.998643 
1.0550647e+3, 1.9520463e+2, -1210664.0, -1266127.0, 37335.953, 0.23765394, 0.2098607, -1191887.4, -164874.95, 0.0, 9.999365, 9.998653 
1.05505735e+3, 2.0520443e+2, -1020697.94, -971231.56, 26705.664, 0.27934304, 0.25820544, -959565.25, -30549.598, 0.0, 9.999333, 10.000027 
1.0550479e+3, 2.1520326e+2, -938956.8, -887361.2, 69717.09, 0.09075055, 0.11479943, -838821.94, -7801.7905, 0.0, 9.99925, 9.9999695 
1.0550399e+3, 2.2520207e+2, -864126.4, -951904.0, 130162.86, -0.023255052, 0.074000895, -770652.2, -37624.133, 0.0, 9.999747, 9.998607 
1.0550334e+3, 2.3520055e+2, -603202.6, -777990.25, 142339.03, -0.06505057, 0.034724034, -523569.25, 111472.64, 0.0, 10.000871, 9.998589 
1.0550265e+3, 2.4519894e+2, -479961.13, -767117.9, 68073.23, -0.07978594, 0.06333063, -464641.06, 72415.88, 0.0, 10.001478, 9.997699 
1.0550193e+3, 2.5519693e+2, -366499.1, -663387.8, 53621.145, -0.070447385, 0.06393825, -357111.4, 81964.47, 0.0, 10.001592, 9.99768 
1.0550118e+3, 2.651946e+2, -350274.53, -662756.6, -7404.1563, -0.047853053, 0.09434466, -350099.2, -8999.068, 0.000000000012280949, 10.001288, 9.997161 
1.0550043e+3, 2.7519172e+2, -357876.47, -615981.2, -24505.82, -0.018646102, 0.06289846, -355570.38, -112438.85, 0.0000016155456, 10.000547, 9.997169 
1.05499655e+3, 2.851897e+2, -199078.02, -399093.8, -50292.21, -0.020322127, 0.11103836, -187144.47, -41992.676, 0.000025306648, 10.000583, 9.997969 
1.0549889e+3, 2.951882e+2, -14019.333, -264310.88, -53231.676, -0.041413747, 0.13256924, -3168.504, 43996.24, 0.00013793015, 10.001202, 9.99792 
1.054982e+3, 3.0518612e+2, 13542.274, -258492.5, -79576.62, 0.005737603, 0.15633126, 35110.316, 35110.316, 0.00040720604, 10.00122, 9.997609 
1.05497494e+3, 3.1518263e+2, 7142.9077, -68500.75, -94166.42, 0.02910591, 0.01228328, 70799.18, 70799.18, 0.00083313056, 10.000259, 9.999392 
1.0651227e+3, 1.2521158e+2, -1874945.0, -1674071.8, -90525.83, 0.20303169, 0.111745276, -1639295.9, 73631.98, 0.00047318285, 9.998332, 10.001068 
1.06511086e+3, 1.3521115e+2, -1918477.9, -1679490.1, 19092.594, -0.108515926, -0.03189079, -1677974.5, -63044.7, 0.00020250746, 9.997572, 10.000724 
1.0651012e+3, 1.4521126e+2, -1810837.6, -1631323.3, 27730.508, -0.1775953, -0.058755796, -1627137.1, -110207.555, 0.000042863663, 9.997833, 10.000257 
1.06509544e+3, 1.5521213e+2, -1505918.9, -1427760.5, 13107.68, 0.1491537, -0.03218155, -1425620.8, -6695.933, 0.0000013547858, 9.999245, 10.000293 
1.065087e+3, 1.6521293e+2, -1339168.8, -1266313.1, 55903.832, 0.175591, 0.010425022, -1236015.9, 84901.945, 0.0, 9.99958, 10.000572 
1.0650768e+3, 1.752135e+2, -1340899.9, -1219101.0, 23709.377, -0.04043488, -0.012980477, -1214648.5, 8262.078, 0.0, 9.998915, 10.000545 
1.0650692e+3, 1.85214e+2, -1371534.3, -1398680.6, 70702.586, -0.005976819, 0.0847655, -1313113.8, -188203.89, 0.0, 9.998943, 9.998622 
1.0650643e+3, 1.9521414e+2, -1171666.1, -1253093.4, 102163.055, 0.2499129, 0.2107788, -1102403.0, -75484.875, 0.0, 9.999641, 9.998616 
1.0650574e+3, 2.052136e+2, -920917.8, -968220.2, 105172.75, 0.3012528, 0.24954827, -836769.75, 92154.85, 0.0, 10.000223, 9.999612 
1.0650486e+3, 2.1521224e+2, -750431.7, -839545.06, 31222.857, 0.17007276, 0.12795168, -740581.0, 90350.516, 0.0, 10.000746, 9.99957 
1.0650409e+3, 2.2521074e+2, -745906.94, -919378.1, 65038.785, 0.06331762, 0.08638345, -724230.75, 8711.88, 0.0, 10.000656, 9.998398 
1.0650343e+3, 2.3520885e+2, -749628.56, -870297.8, 37786.11, -0.013791481, 0.03108698, -738772.9, -103812.5, 0.0, 9.99996, 9.998395 
1.0650276e+3, 2.4520713e+2, -673130.7, -857932.6, 16214.42, -0.05395272, 0.059719827, -671718.8, -134742.8, 0.0, 10.000151, 9.997712 
1.0650206e+3, 2.552053e+2, -429988.13, -697065.7, 26992.563, -0.06776461, 0.079866044, -427287.4, 11705.27, 0.0, 10.00117, 9.997657 
1.0650133e+3, 2.6520267e+2, -288488.13, -676932.75, 8222.914, -0.051742475, 0.104911506, -288314.13, 52705.598, 0.0, 10.001893, 9.996773 
1.0650057e+3, 2.7519917e+2, -142758.38, -549194.7, -653.4634, -0.002798899, 0.048940558, -142757.33, 100300.62, 0.00000091217555, 10.002193, 9.996828 
1.0649983e+3, 2.8519684e+2, -8006.2207, -326307.94, 39279.1, 0.029220294, 0.085400544, -3230.7432, 141851.48, 0.000020761427, 10.001981, 9.997794 
1.064991e+3, 2.951951e+2, -7462.296, -282835.28, 33184.76, 0.054751236, 0.10384671, -3519.7, 43578.0, 0.00012637535, 10.001324, 9.997738 
1.0649835e+3, 3.051931e+2, -3936.3904, -258902.6, 52923.195, 0.053511616, 0.1398749, 6612.409, 6612.409, 0.00038601994, 10.001059, 9.997677 
1.0649752e+3, 3.151903e+2, 115783.78, 8318.953, 30690.781, -0.0023270317, 0.051485926, 123931.06, 123931.06, 0.0008001297, 10.0008955, 9.999598 
1.0751178e+3, 1.2521772e+2, -1850234.6, -1617970.9, -141181.58, -0.17878422, -0.1656267, -1551294.5, 161573.25, 0.00055371417, 9.998329, 10.001446 
1.0751117e+3, 1.352214e+2, -1890440.9, -1616506.0, -4823.6294, 0.18672277, 0.055935178, -1616421.1, -1588.6686, 0.00024334127, 9.997561, 10.001155 
1.0751018e+3, 1.4522277e+2, -1804930.3, -1627473.1, 60526.68, 0.061918043, 0.13159274, -1608794.9, -91974.52, 0.00005483326, 9.997855, 10.000279 
1.0750929e+3, 1.5522194e+2, -1501523.6, -1424364.5, 74629.836, -0.05532662, -0.014917552, -1378932.3, 39897.836, 0.000002073113, 9.999261, 10.000311 
1.07508495e+3, 1.6522253e+2, -1378707.4, -1341217.5, 15417.467, -0.02479382, 0.030593365, -1335691.8, -14865.928, 0.0000000000166348, 9.999556, 10.000067 
1.075078e+3, 1.7522411e+2, -1375956.3, -1287619.3, 10672.87, 0.16678473, 0.1556815, -1286348.1, -63536.813, 0.0, 9.998898, 10.000079 
1.0750706e+3, 1.8522446e+2, -1303140.4, -1241077.0, 83209.016, 0.20098604, 0.2067522, -1183301.6, -58493.145, 0.0, 9.998882, 9.999731 
1.0750625e+3, 1.9522339e+2, -1111965.8, -1102635.4, 138117.55, 0.08564544, 0.09952035, -969104.25, 57714.957, 0.0, 9.999538, 9.999694 
1.07505545e+3, 2.052223e+2, -1055942.0, -1220413.9, 108515.9, 0.060891267, 0.11533324, -1002021.94, -73191.03, 0.0, 10.000098, 9.997945 
1.075049e+3, 2.1522094e+2, -885912.3, -1084454.5, 61527.004, 0.11681552, 0.16031933, -868391.56, -37546.074, 0.0, 10.000587, 9.997966 
1.0750425e+3, 2.2521912e+2, -798503.0, -989187.2, 27458.33, 0.13814826, 0.18358237, -794627.8, -61763.906, 0.0, 10.000488, 9.998 
1.07503586e+3, 2.3521654e+2, -799637.0, -936313.6, 26985.814, 0.124748886, 0.097937256, -794501.8, -159613.27, 0.0, 9.9998, 9.998019 
1.0750291e+3, 2.4521457e+2, -653090.56, -780037.6, 45513.543, 0.05325254, 0.08873109, -638459.2, -101553.89, 0.0, 9.999997, 9.998317 
1.075022e+3, 2.552129e+2, -400247.2, -611303.56, 80577.91, -0.075229414, 0.0620371, -373001.13, 65916.35, 0.0, 10.001065, 9.998293 
1.0750148e+3, 2.6521063e+2, -302179.97, -672036.25, 8325.027, -0.11754574, 0.083631, -301992.66, 38947.09, 0.000000000031670343, 10.001755, 9.996875 
1.0750073e+3, 2.752075e+2, -154833.22, -547735.25, 26482.346, -0.08166316, 0.052647993, -153056.3, 89918.15, 0.00000057346807, 10.00208, 9.996897 
1.0749997e+3, 2.852048e+2, -6931.8506, -304315.34, 1807.2133, -0.04813656, 0.047362354, -6920.868, 138080.39, 0.000016841232, 10.001897, 9.997983 
1.074992e+3, 2.9520237e+2, -6102.4575, -254472.92, 30593.398, -0.022187855, -0.028557902, -2389.5742, 44633.11, 0.000114238224, 10.001217, 9.997983 
1.07498385e+3, 3.0520085e+2, 20976.236, -194014.39, 45099.563, -0.044085633, 0.018824039, 30053.703, 30053.703, 0.0003625103, 10.001001, 9.998154 
1.0749754e+3, 3.1519985e+2, 125276.14, 64215.754, 74125.42, -0.12932792, 0.06641127, 174912.47, 174912.47, 0.00076317973, 10.000737, 10.000067 
1.08511485e+3, 1.2522708e+2, -2028026.9, -1733394.4, -58828.266, -0.24180385, -0.12864116, -1722082.6, -9304.43, 0.00064071716, 9.997215, 10.001204 
1.0851104e+3, 1.3523056e+2, -1767410.9, -1578577.4, -42024.64, 0.2633207, 0.09208768, -1569647.3, 45098.266, 0.00028839763, 9.998475, 10.000986 
1.0851005e+3, 1.4523198e+2, -1657983.0, -1541078.8, 51527.336, 0.099305555, 0.17702816, -1521609.6, -4877.2773, 0.00006873226, 9.998836, 10.000374 
1.0850923e+3, 1.5523136e+2, -1581656.5, -1456798.5, 31856.809, -0.011671219, 0.042174395, -1449140.1, -30401.38, 0.0000030594845, 9.9987, 10.00035 
1.08508475e+3, 1.6523156e+2, -1475827.5, -1437587.1, -18368.652, 0.03224696, 0.06933074, -1430193.4, -109455.85, 0.000000000186287, 9.999106, 9.999617 
1.085078e+3, 1.7523229e+2, -1242986.6, -1275043.8, -47241.492, 0.22964253, 0.15420467, -1209128.5, 13603.298, 0.0, 10.000033, 9.999613 
1.0850705e+3, 1.8523209e+2, -1082087.4, -1125916.8, 14535.019, 0.24724437, 0.16975985, -1077705.3, 47027.64, 0.0, 10.000361, 9.999814 
1.0850624e+3, 1.9523083e+2, -1027869.5, -1053694.1, -33682.727, 0.097400814, 0.03606108, -1004708.94, 22033.645, 0.0, 10.000088, 9.999767 
1.08505554e+3, 2.0522961e+2, -1033671.56, -1235638.4, -3269.8745, 0.05846606, 0.049488634, -1033618.6, -104863.52, 0.0, 10.000371, 9.997702 
1.0850498e+3, 2.1522814e+2, -819004.2, -1085624.6, 23964.926, 0.11676543, 0.10581174, -816867.25, 13906.398, 0.0, 10.001185, 9.997671 
1.0850437e+3, 2.2522634e+2, -654676.4, -940039.75, 35515.313, 0.16343893, 0.16019277, -650322.7, 82470.17, 0.0, 10.001579, 9.997809 
1.0850372e+3, 2.3522407e+2, -543723.1, -834720.6, 19070.295, 0.19788015, 0.1271532, -542478.7, 92336.03, 0.0, 10.001661, 9.99782 
1.08503036e+3, 2.452218e+2, -421337.0, -699767.9, 63705.24, 0.11820909, 0.108499296, -407453.47, 129382.23, 0.0, 10.001705, 9.998061 
1.0850233e+3, 2.5521925e+2, -340245.8, -609309.0, 8678.328, -0.06321751, 0.022638343, -339966.2, 98891.766, 0.0, 10.001589, 9.998064 
1.0850162e+3, 2.6521736e+2, -339217.84, -596611.75, -68084.58, -0.10681757, 0.053957593, -322318.03, 18557.86, 0.000000020287489, 10.001112, 9.99769 
1.08500905e+3, 2.7521574e+2, -357749.16, -557250.8, -26953.572, -0.023501335, 0.09646265, -354171.75, -111278.48, 0.0000009682407, 10.000312, 9.997677 
1.08500145e+3, 2.8521356e+2, -195881.14, -383002.38, 16752.703, 0.014255098, 0.09316029, -194393.13, -49478.53, 0.000016002106, 10.000541, 9.998094 
1.0849936e+3, 2.952106e+2, 54133.86, -207858.69, 2162.0457, 0.02230292, -0.046854414, 54151.703, 101092.87, 0.00010691048, 10.001555, 9.998137 
1.084985e+3, 3.0520907e+2, 102969.445, -118070.31, 2660.516, -0.049498565, -0.022428084, 103001.46, 103001.46, 0.00034615427, 10.001433, 9.998473 
1.08497545e+3, 3.15209e+2, 53077.14, 67845.76, -31094.637, -0.1511694, 0.09203551, 92420.87, 92420.87, 0.0007399488, 10.0001135, 10.000389 
1.0951137e+3, 1.2523936e+2, -2078262.0, -1842007.1, 13575.922, -0.14045197, 0.18482739, -1841229.5, -128567.69, 0.000734217, 9.997226, 10.000456 
1.0951066e+3, 1.3523898e+2, -1805020.8, -1668143.4, 9515.044, 0.018492673, 0.07727806, -1667485.1, -52819.258, 0.00033773432, 9.99851, 10.000359 
1.0950969e+3, 1.4523922e+2, -1660284.5, -1542356.6, 31150.063, -0.17212668, 0.07636174, -1534634.1, -17971.035, 0.0000845864, 9.998826, 10.000368 
1.09509304e+3, 1.5524042e+2, -1586549.9, -1458609.1, 41118.11, 0.17160636, 0.12782231, -1446534.0, -27883.727, 0.0000043925156, 9.998676, 10.000345 
1.0950862e+3, 1.6524012e+2, -1504492.6, -1501457.6, 646.42896, 0.23406902, 0.12887397, -1501325.6, -180673.23, 0.0000000006358386, 9.999117, 9.999177 
1.0950765e+3, 1.7523812e+2, -1270819.6, -1337792.1, -1785.211, 0.051392917, -0.018302694, -1270772.0, -48100.383, 0.0, 10.000046, 9.99918 
1.0950691e+3, 1.8523705e+2, -1155322.9, -1266070.0, -10667.851, 0.035852347, -0.02054242, -1154304.6, -29622.73, 0.0, 10.000313, 9.998874 
1.0950635e+3, 1.9523662e+2, -1104926.4, -1189256.9, -28992.908, 0.1806413, 0.021923896, -1095920.4, -69234.01, 0.0, 9.999986, 9.998882 
1.09505735e+3, 2.052356e+2, -973775.1, -1088867.4, 13814.154, 0.18858527, 0.043659955, -972140.3, -43443.32, 0.0, 10.000265, 9.998765 
1.0950508e+3, 2.1523385e+2, -767703.1, -942511.9, 64930.617, 0.0717745, -0.03457389, -746224.5, 84490.91, 0.0, 10.001026, 9.9987335 
1.0950443e+3, 2.2523254e+2, -689635.06, -971195.8, 25389.926, 0.04172686, 0.02218448, -687363.9, 45364.85, 0.0, 10.001401, 9.997679 
1.09503806e+3, 2.3523135e+2, -579100.5, -869052.06, 34587.65, 0.09545939, 0.10803757, -575031.7, 59708.74, 0.0, 10.001491, 9.997664 
1.0950315e+3, 2.4522866e+2, -520383.97, -868186.94, 47820.203, 0.032124303, 0.11505023, -513928.84, 22839.477, 0.0, 10.001545, 9.996982 
1.0950244e+3, 2.552244e+2, -430058.0, -766590.1, 18721.555, -0.13609692, -0.03779385, -429019.7, 9793.509, 0.0, 10.001461, 9.997047 
1.0950175e+3, 2.652231e+2, -256098.72, -392395.03, -106004.14, -0.12080521, 0.02188843, -198226.84, 142599.69, 0.00000010014453, 10.000976, 9.999159 
1.0950105e+3, 2.752241e+2, -267882.94, -352155.56, -34423.953, 0.05586288, 0.17898183, -255608.98, -12794.79, 0.0000018117424, 10.000225, 9.999131 
1.0950032e+3, 2.852229e+2, -211925.73, -394721.38, 43282.87, 0.105213284, 0.20855297, -202195.08, -57370.973, 0.000017402066, 10.000452, 9.9980545 
1.0949959e+3, 2.952195e+2, 34887.516, -225834.05, 55638.57, 0.05353153, 0.02612037, 46264.465, 93120.71, 0.00010435712, 10.001461, 9.99806 
1.0949862e+3, 3.0521768e+2, 101061.7, -106479.87, -55722.055, -0.0926898, 0.018730156, 115075.99, 115075.99, 0.00033796718, 10.001362, 9.998589 
1.0949746e+3, 3.152176e+2, 39395.527, 59585.367, -38858.176, -0.30658937, 0.12457132, 89638.484, 89638.484, 0.00073106954, 10.000007, 10.000396 
1.1051117e+3, 1.2524763e+2, -1960132.9, -1784882.9, 48403.46, -0.083706245, 0.21852085, -1772402.8, -59823.72, 0.00083503575, 9.998055, 10.000422 
1.1051048e+3, 1.3524649e+2, -1885760.9, -1709835.8, -26269.734, 0.03152472, 0.031560898, -1705996.9, -91407.18, 0.0003918232, 9.997964, 10.00033 
1.1050957e+3, 1.4524616e+2, -1741445.9, -1640342.5, 30432.584, -0.15029304, -0.000031988988, -1631889.0, -115296.64, 0.000102570426, 9.998498, 9.999867 
1.1050924e+3, 1.5524742e+2, -1457163.8, -1454196.1, -19824.172, 0.19931392, 0.10687791, -1435800.4, -17220.283, 0.0000061708192, 9.999792, 9.9998455 
1.1050859e+3, 1.6524695e+2, -1359346.9, -1444252.4, -46007.707, 0.25641108, 0.12035361, -1339198.1, -18613.416, 0.0000000015512864, 10.00018, 9.99905 
1.1050765e+3, 1.7524463e+2, -1307646.5, -1366817.6, -56199.742, 0.064412124, -0.04485778, -1273720.5, -51112.867, 0.0, 9.999859, 9.9990635 
1.1050691e+3, 1.8524352e+2, -1222291.3, -1306585.1, -8802.705, 0.03962391, -0.043485396, -1221381.9, -96762.93, 0.0, 9.999905, 9.998783 
1.1050635e+3, 1.9524316e+2, -1068703.0, -1178835.3, 9005.948, 0.16564229, 0.015504011, -1067971.4, -41348.75, 0.0, 10.0002775, 9.998804 
1.1050576e+3, 2.0524243e+2, -942465.6, -1046005.6, 89944.46, 0.18662584, 0.057078287, -890456.4, 38174.3, 0.0, 10.000361, 9.999016 
1.1050518e+3, 2.1524115e+2, -862504.94, -957915.2, 52950.1, 0.11124997, 0.0026191515, -838939.5, -8294.902, 0.0, 10.000243, 9.999005 
1.1050457e+3, 2.2524e+2, -769124.4, -978002.0, 33314.074, 0.07591911, 0.04586511, -763939.8, -31283.766, 0.0, 10.000714, 9.997963 
1.1050394e+3, 2.352387e+2, -527868.6, -814260.25, 49358.926, 0.08112381, 0.09284734, -519600.4, 115067.56, 0.0, 10.00171, 9.997936 
1.10503286e+3, 2.4523635e+2, -522808.63, -864393.25, 100774.24, 0.028905828, 0.11902214, -495294.44, 41398.793, 0.0, 10.001532, 9.996996 
1.10502586e+3, 2.5523284e+2, -596039.3, -842055.8, 119655.89, -0.07447026, 0.038575426, -547441.7, -108708.76, 0.0, 10.000327, 9.997056 
1.1050187e+3, 2.652314e+2, -330031.84, -438716.16, 32003.967, -0.063197166, 0.09254099, -321307.97, 19439.975, 0.00000018749917, 10.000492, 9.999085 
1.1050113e+3, 2.7523163e+2, -42964.113, -249550.67, -39366.957, 0.05675633, 0.17862847, -35716.637, 207026.22, 0.0000025365616, 10.001791, 9.999084 
1.1050042e+3, 2.8523043e+2, -1693.7537, -278409.0, 8334.242, 0.09546756, 0.20262574, -1442.9662, 143309.67, 0.000019295574, 10.001843, 9.998184 
1.1049972e+3, 2.9522774e+2, -72951.95, -263385.4, 1548.6119, 0.08464999, 0.07773818, -72939.36, -26161.352, 0.00010487227, 10.000675, 9.998176 
1.1049874e+3, 3.052258e+2, -11178.596, -207022.77, -94486.19, -0.065015554, 0.07676279, 26974.203, 26974.203, 0.00033641586, 10.000761, 9.99819 
1.10497594e+3, 3.1522495e+2, 253001.02, 133617.34, -160483.2, -0.24228612, 0.13290608, 364534.1, 364534.1, 0.00073074934, 10.001611, 10.000111 
1.115109e+3, 1.252523e+2, -1925423.1, -1701963.8, 74612.26, -0.22829776, -0.029060451, -1679341.1, 33184.79, 0.000944546, 9.998027, 10.001005 
1.11510485e+3, 1.3525328e+2, -1859353.6, -1652739.8, -19376.096, 0.20269719, -0.037787415, -1650938.4, -36423.004, 0.00045159098, 9.997956, 10.0007305 
1.1150964e+3, 1.4525294e+2, -1802355.9, -1766842.1, 59534.75, 0.039221626, -0.04719366, -1722472.6, -205953.03, 0.00012308804, 9.9985, 9.998998 
1.1150902e+3, 1.5525262e+2, -1517772.9, -1580297.6, 38912.15, -0.033254985, -0.011308218, -1499120.4, -80595.1, 0.000008505592, 9.999794, 9.99898 
1.11508384e+3, 1.652523e+2, -1352033.9, -1426715.1, -75182.61, -0.0036146615, 0.054104287, -1305429.6, 15102.059, 0.0000000033697685, 10.000163, 9.9991865 
1.11507766e+3, 1.7525189e+2, -1298034.6, -1345848.4, -56196.105, 0.16145995, 0.069564514, -1260871.5, -38332.27, 0.0, 9.999844, 9.999224 
1.1150703e+3, 1.8525138e+2, -1177249.3, -1203368.5, -9338.808, 0.14306524, 0.08806628, -1174253.8, -49708.973, 0.0, 9.999864, 9.999513 
1.1150618e+3, 1.9525054e+2, -1037383.9, -1086546.3, 32702.465, -0.050762903, 0.024401136, -1021054.4, 5496.4966, 0.0, 10.000166, 9.999491 
1.1150559e+3, 2.052502e+2, -993623.3, -1131508.8, 67169.94, -0.051474944, 0.09903372, -966311.7, -37756.1, 0.0, 10.000265, 9.998475 
1.11505225e+3, 2.1524999e+2, -925129.9, -1049163.3, 61831.902, 0.12565479, 0.20226207, -899572.25, -69009.914, 0.0, 10.000072, 9.998462 
1.11504726e+3, 2.2524871e+2, -742584.9, -882817.25, 59224.293, 0.15330943, 0.22303466, -720919.8, 11655.613, 0.0, 10.000547, 9.998694 
1.11504115e+3, 2.3524627e+2, -500277.4, -717069.3, 98477.0, 0.05595885, 0.085353695, -462224.06, 172372.05, 0.0, 10.001541, 9.998686 
1.11503445e+3, 2.4524492e+2, -477230.2, -733989.44, 44269.273, 0.006386085, 0.12241921, -469811.8, 66797.92, 0.0, 10.001377, 9.997966 
1.1150272e+3, 2.5524426e+2, -551328.0, -721038.8, 90976.0, 0.004858572, 0.2312979, -511776.5, -73156.92, 0.0, 10.000205, 9.997945 
1.11501954e+3, 2.652421e+2, -457008.56, -677124.75, 67840.38, -0.04632621, 0.25234753, -437779.78, -97137.2, 0.00000020790911, 10.000384, 9.997498 
1.1150115e+3, 2.7523834e+2, -165388.86, -479462.7, 23548.023, -0.14486277, 0.092142865, -163633.14, 79047.19, 0.0000030041283, 10.001683, 9.997556 
1.11500405e+3, 2.8523627e+2, 1299.231, -242488.39, -46596.582, -0.12896094, 0.087252095, 9901.943, 154601.38, 0.000021785861, 10.001721, 9.998487 
1.1149972e+3, 2.952354e+2, -67415.164, -230484.28, -17278.488, -0.011205817, 0.116835006, -65604.48, -18899.506, 0.00010887074, 10.000585, 9.9984455 
1.11498825e+3, 3.0523345e+2, -88484.68, -353409.38, -68268.5, -0.07416376, 0.15183283, -71927.36, -71927.36, 0.00034133886, 10.000701, 9.997212 
1.11497864e+3, 3.1523058e+2, 169285.11, -11608.271, -83136.75, -0.20159322, 0.101699956, 201689.23, 201689.23, 0.0007374856, 10.001481, 9.999179 
1.1251074e+3, 1.2525652e+2, -2121959.5, -1785497.3, 17414.7, -0.102790244, -0.10540429, -1784598.3, -72113.93, 0.0010643419, 9.996636, 10.001109 
1.1251028e+3, 1.3525856e+2, -1812306.3, -1630651.4, -193714.58, 0.19768938, -0.0038789073, -1507527.9, 106937.17, 0.00051804923, 9.998301, 10.000712 
1.1250957e+3, 1.4525843e+2, -1700856.1, -1661195.9, -42997.496, 0.10326533, -0.019855963, -1633676.0, -117209.26, 0.00014661087, 9.998954, 9.9995 
1.1250891e+3, 1.5525755e+2, -1616673.3, -1571877.4, 1389.2991, -0.0762211, -0.09241385, -1571834.4, -153359.08, 0.00001150662, 9.99888, 9.999475 
1.1250827e+3, 1.6525775e+2, -1528753.4, -1480913.9, -53576.137, -0.058186114, -0.012746548, -1446160.4, -125684.04, 0.0000000061074554, 9.998808, 9.999469 
1.125077e+3, 1.7525879e+2, -1423653.5, -1370179.3, -46228.082, 0.16876036, 0.115470484, -1343513.1, -121041.17, 0.0, 9.998826, 9.999542 
1.1250701e+3, 1.8525891e+2, -1249835.0, -1210554.4, 42351.43, 0.17368412, 0.16609743, -1183510.8, -59038.652, 0.0, 9.999234, 9.99977 
1.125062e+3, 1.9525784e+2, -1031627.8, -1063224.3, 24876.777, -0.03534814, 0.055620115, -1017956.75, 8523.406, 0.0, 10.000075, 9.999712 
1.12505615e+3, 2.0525731e+2, -982416.94, -1129416.6, 62476.164, -0.044351928, 0.10364708, -959451.75, -30965.113, 0.0, 10.000384, 9.998422 
1.1250525e+3, 2.1525696e+2, -887111.1, -1027640.8, 62402.188, 0.13613838, 0.19784074, -863401.6, -32906.84, 0.0, 10.000347, 9.998463 
1.1250479e+3, 2.2525574e+2, -776138.25, -872281.06, 102926.13, 0.17451257, 0.21084829, -710611.0, 21896.516, 0.0, 10.00019, 9.998945 
1.1250422e+3, 2.352536e+2, -705471.7, -783967.75, 80586.02, 0.0916141, 0.076110594, -655084.3, -20558.332, 0.0, 9.999986, 9.998973 
1.12503566e+3, 2.4525279e+2, -600892.25, -715739.1, -1115.6316, 0.058734603, 0.11817284, -600881.4, -64348.184, 0.0, 10.000195, 9.998665 
1.12502836e+3, 2.55253e+2, -418650.03, -584024.9, 4198.648, 0.0753915, 0.24437152, -418543.5, 19989.023, 0.0, 10.000802, 9.998608 
1.12502076e+3, 2.6525083e+2, -361310.8, -678979.75, 83036.414, 0.0046857134, 0.25562552, -340915.16, -359.5922, 0.00000016860811, 10.001268, 9.997053 
1.1250131e+3, 2.752462e+2, -204706.72, -548774.7, 88201.31, -0.1472998, 0.061114155, -183414.14, 59189.246, 0.0000038179373, 10.001644, 9.997094 
1.1250055e+3, 2.85244e+2, 20109.56, -262699.84, 15120.912, -0.15913327, 0.07686847, 20915.729, 165541.3, 0.000026510976, 10.001953, 9.998245 
1.1249982e+3, 2.9524368e+2, 134658.0, -154873.5, -27937.09, -0.039164837, 0.1830049, 137329.03, 183955.89, 0.00011807009, 10.002063, 9.998251 
1.12498984e+3, 3.0524164e+2, 68174.06, -298484.06, -14488.64, -0.045858134, 0.22634938, 68745.695, 68745.695, 0.0003550206, 10.001896, 9.997008 
1.12498194e+3, 3.152379e+2, 109026.5, -71325.67, -20799.03, 0.0024746174, 0.12114624, 111394.055, 111394.055, 0.0007557831, 10.001199, 9.998915 
1.1351059e+3, 1.2526058e+2, -2140504.8, -1830223.6, 48464.324, 0.016376896, 0.0039447546, -1822830.0, -110378.89, 0.0011953667, 9.996671, 10.000782 
1.1350983e+3, 1.3526241e+2, -1835228.5, -1672639.9, -122670.08, -0.107217595, 0.12070626, -1606772.0, 7665.6577, 0.00059164723, 9.998281, 10.000432 
1.1350933e+3, 1.4526282e+2, -1573676.3, -1393739.5, -60882.227, -0.07481886, 0.07721019, -1375075.6, 141356.08, 0.00017336896, 9.998937, 10.0013485 
1.13508865e+3, 1.5526237e+2, -1492180.6, -1309724.5, 12943.34, -0.03824586, -0.13328943, -1308810.9, 109617.43, 0.000015247707, 9.998861, 10.001286 
1.135082e+3, 1.6526341e+2, -1496550.9, -1413401.5, -68305.555, -0.035251014, -0.08229889, -1375013.0, -54595.332, 0.000000009421829, 9.998802, 9.999935 
1.1350742e+3, 1.752655e+2, -1393143.1, -1307500.0, -35319.504, -0.02146727, 0.10396054, -1294813.5, -72409.66, 0.0, 9.99883, 9.99997 
1.1350681e+3, 1.8526615e+2, -1260785.4, -1232070.3, 56881.688, 0.02763565, 0.19436523, -1187762.0, -63361.613, 0.0, 9.999221, 9.999633 
1.1350636e+3, 1.9526523e+2, -1058766.0, -1090491.3, 64602.51, 0.09548758, 0.11227365, -1008107.1, 18302.246, 0.0, 9.999948, 9.999589 
1.13505825e+3, 2.0526397e+2, -976533.56, -1091193.5, 44769.258, 0.09638362, 0.07833353, -961124.2, -32701.98, 0.0, 10.000266, 9.998745 
1.1350522e+3, 2.152622e+2, -890812.94, -994853.06, 70216.85, 0.048208527, -0.0006598396, -855445.94, -25005.107, 0.0, 10.000171, 9.998776 
1.13504685e+3, 2.252612e+2, -810847.06, -906596.44, 78882.586, 0.042408347, 0.02534092, -766448.0, -33996.223, 0.0, 10.000023, 9.99879 
1.1350422e+3, 2.3526062e+2, -743830.2, -823557.5, 85974.97, 0.07648397, 0.061283693, -688926.7, -54468.445, 0.0, 9.999811, 9.998787 
1.1350361e+3, 2.4526e+2, -591220.8, -663227.9, 8495.951, 0.06750453, 0.109260105, -590231.94, -53768.0, 0.0, 10.000052, 9.999093 
1.1350289e+3, 2.552591e+2, -403989.06, -524744.75, 39673.46, 0.032933906, 0.08480727, -392121.03, 46349.55, 0.0, 10.000677, 9.999074 
1.1350221e+3, 2.6525766e+2, -330344.75, -596832.25, 88339.055, -0.0099473335, 0.110159926, -303720.8, 36764.867, 0.00000020663475, 10.001184, 9.997663 
1.1350157e+3, 2.752553e+2, -180524.33, -480270.13, 120384.95, -0.06340312, 0.08041014, -138161.89, 104350.445, 0.0000055002247, 10.001559, 9.99761 
1.1350082e+3, 2.8525355e+2, -52084.105, -386667.25, 4910.636, -0.11105538, 0.1603781, -52012.047, 92520.41, 0.000033703815, 10.001853, 9.997434 
1.1349996e+3, 2.952523e+2, 61955.43, -276046.06, -7718.3228, -0.13937353, 0.2527113, 62131.59, 108678.67, 0.00013271971, 10.001937, 9.997477 
1.13499135e+3, 3.0525014e+2, 88254.58, -224468.06, -48497.22, -0.101925515, 0.29373163, 95602.88, 95602.88, 0.00037893685, 10.001762, 9.997581 
1.1349849e+3, 3.152469e+2, 119529.08, -9522.842, -7364.7383, 0.12758024, 0.18116347, 119948.01, 119948.01, 0.0007912106, 10.001037, 9.999413 
1.1451037e+3, 1.2526561e+2, -1989175.4, -1749485.1, 146941.23, 0.1067469, 0.11508631, -1679713.4, 32693.059, 0.0013373722, 9.997644, 10.000881 
1.145096e+3, 1.3526687e+2, -1933382.3, -1700418.9, 6207.5083, -0.12433518, 0.15255137, -1700253.5, -85854.63, 0.000672049, 9.9974785, 10.0006485 
1.14509255e+3, 1.4526801e+2, -1771814.9, -1399268.8, 47488.246, 0.048575986, 0.12853351, -1393310.6, 123074.47, 0.0002032588, 9.997201, 10.002142 
1.1450869e+3, 1.5526858e+2, -1718867.5, -1331940.4, 8219.046, 0.0080322195, -0.054600287, -1331765.9, 86604.12, 0.000019742625, 9.99694, 10.002057 
1.1450802e+3, 1.6526972e+2, -1624239.8, -1432569.0, -43346.395, -0.040567927, -0.05010818, -1423222.1, -102865.55, 0.000000013934886, 9.997755, 10.000304 
1.1450731e+3, 1.752711e+2, -1250090.3, -1198965.0, -41639.242, -0.05226632, 0.027115049, -1175667.9, 46679.438, 0.0, 9.999643, 10.000321 
1.14506766e+3, 1.8527186e+2, -1168451.5, -1190824.5, 33723.86, 0.027466299, 0.11606714, -1144107.3, -19764.242, 0.0, 9.999883, 9.999591 
1.1450636e+3, 1.952719e+2, -1245467.0, -1173866.3, 20205.96, 0.1668359, 0.13280563, -1168557.6, -142212.55, 0.0, 9.998673, 9.999613 
1.1450585e+3, 2.0527115e+2, -1143182.5, -1127642.0, 69976.586, 0.16734886, 0.12549204, -1065005.6, -136652.06, 0.0, 9.998914, 9.999155 
1.1450525e+3, 2.1526945e+2, -820340.25, -919360.25, 78495.375, 0.056315962, 0.01110441, -777045.25, 53325.027, 0.0, 10.000449, 9.999173 
1.1450471e+3, 2.2526866e+2, -688892.25, -842742.0, 81664.65, 0.03312224, 0.040436167, -653627.3, 78751.39, 0.0, 10.000852, 9.998825 
1.14504226e+3, 2.3526849e+2, -671398.06, -780210.9, 75354.81, 0.084201485, 0.11323999, -632861.44, 1520.6504, 0.0, 10.000282, 9.998855 
1.1450364e+3, 2.4526763e+2, -538426.94, -647567.3, 51561.164, 0.074397445, 0.13805088, -517920.78, 18469.58, 0.0, 10.00045, 9.999012 
1.1450297e+3, 2.5526592e+2, -312775.1, -483295.7, 17406.14, 0.018542377, 0.03769337, -311016.47, 127388.47, 0.0, 10.001318, 9.999044 
1.1450237e+3, 2.6526487e+2, -218179.53, -489139.8, 46951.156, 0.0011556585, 0.07700022, -210274.61, 130141.72, 0.00000038376965, 10.00171, 9.998155 
1.1450182e+3, 2.75264e+2, -126486.57, -397688.4, 47470.832, 0.01860119, 0.14996149, -118417.42, 124010.66, 0.0000075917305, 10.001679, 9.99812 
1.1450109e+3, 2.8526255e+2, -30117.018, -378206.0, 1936.6361, -0.028122438, 0.23341466, -30106.242, 114339.44, 0.000041535674, 10.002018, 9.997413 
1.1450021e+3, 2.9526043e+2, 155075.14, -233614.19, 14825.945, -0.10337671, 0.24685973, 155639.83, 202108.58, 0.00014998692, 10.002592, 9.997454 
1.14499375e+3, 3.0525827e+2, 255906.86, -136987.27, -17357.191, -0.07558186, 0.2808401, 256672.17, 256672.17, 0.00040887797, 10.002845, 9.997671 
1.1449876e+3, 3.1525543e+2, 331717.78, 96137.0, -61806.23, 0.23103274, 0.19359921, 346948.4, 346948.4, 0.0008407425, 10.002474, 9.999443 
1.1550989e+3, 1.2527132e+2, -1957212.3, -1681126.5, 18956.418, -0.2012942, 0.18470633, -1679831.0, 32522.768, 0.001489488, 9.997629, 10.001358 
1.1550951e+3, 1.3527218e+2, -1880393.6, -1587921.6, 12499.983, 0.022714343, 0.10245403, -1587388.4, 26958.486, 0.00075867696, 9.997474, 10.001415 
1.1550929e+3, 1.4527404e+2, -1791739.6, -1451174.8, 21189.023, 0.33333716, 0.13485953, -1449861.5, 66464.9, 0.0002361324, 9.997229, 10.001782 
1.1550835e+3, 1.5527616e+2, -1733134.3, -1373094.8, 10630.743, -0.059035156, 0.13841367, -1372781.1, 45519.5, 0.000024990082, 9.996978, 10.001761 
1.1550768e+3, 1.652767e+2, -1598130.0, -1381145.6, 12012.047, -0.19367337, 0.07677757, -1380482.6, -60190.152, 0.000000023716384, 9.997768, 10.0006485 
1.1550733e+3, 1.7527565e+2, -1233933.1, -1153659.9, 37704.438, -0.03213355, -0.12157322, -1138727.8, 83573.86, 0.0, 9.999599, 10.000648 
1.1550681e+3, 1.8527624e+2, -1180381.0, -1204310.8, -27384.543, 0.058754444, -0.06334865, -1162461.6, -38163.637, 0.0, 9.999831, 9.999524 
1.1550615e+3, 1.9527796e+2, -1258256.9, -1184241.1, -13632.279, 0.06350625, 0.123173594, -1181810.1, -155523.92, 0.0, 9.998598, 9.999578 
1.1550565e+3, 2.0527881e+2, -1116928.3, -1047966.9, 108534.625, 0.05808594, 0.24672012, -968567.44, -40286.76, 0.0, 9.9988, 9.999759 
1.1550531e+3, 2.1527863e+2, -805570.8, -848730.06, 144794.2, 0.05317374, 0.22481099, -680757.0, 149526.16, 0.0, 10.000268, 9.999748 
1.1550483e+3, 2.2527815e+2, -704263.56, -832730.9, 47115.742, 0.041231032, 0.24853796, -688836.4, 43451.73, 0.0, 10.000672, 9.99898 
1.1550421e+3, 2.352772e+2, -685307.9, -772375.94, 67318.76, 0.017241927, 0.22681697, -648673.2, -14375.712, 0.0, 10.000126, 9.998983 
1.1550362e+3, 2.4527565e+2, -600086.8, -739686.56, 67738.516, -0.01719739, 0.20592676, -572621.44, -36308.418, 0.0, 10.000293, 9.998454 
1.1550304e+3, 2.5527334e+2, -373872.03, -577037.3, 59907.61, -0.06766904, 0.10050419, -357522.66, 80813.44, 0.0, 10.00117, 9.998471 
1.1550249e+3, 2.6527235e+2, -208265.89, -438132.8, 33117.04, -0.065170564, 0.15395819, -203589.83, 136758.16, 0.0000005356376, 10.00158, 9.998565 
1.1550196e+3, 2.7527225e+2, -108389.7, -332114.66, 62330.37, -0.022434955, 0.25473693, -92196.375, 150155.92, 0.000008957139, 10.001559, 9.998628 
1.1550132e+3, 2.85271e+2, 11757.597, -265965.5, 13512.444, -0.021962509, 0.29154852, 12413.487, 156778.83, 0.000047577858, 10.001907, 9.998239 
1.1550055e+3, 2.952683e+2, 195831.22, -137724.45, 59260.54, -0.06126987, 0.16905394, 206046.77, 252436.97, 0.00016516355, 10.002531, 9.998149 
1.1549967e+3, 3.0526605e+2, 196910.53, -225317.67, -38663.207, -0.095931366, 0.18970543, 200421.7, 200421.7, 0.00043857994, 10.002709, 9.997121 
1.15498886e+3, 3.1526306e+2, 263400.6, -11044.035, -29423.54, 0.049586862, 0.13762993, 266519.66, 266519.66, 0.0008950193, 10.002321, 9.998776 
1.16509765e+3, 1.2527716e+2, -2009189.9, -1666038.0, -16040.639, -0.048315838, 0.23708129, -1665289.8, 47010.535, 0.0016512593, 9.997116, 10.0017 
1.16509244e+3, 1.3527821e+2, -1950122.5, -1562587.9, -7395.1855, 0.049457606, 0.12859917, -1562446.8, 51841.785, 0.0008513687, 9.9967785, 10.001916 
1.16509005e+3, 1.4528008e+2, -1834975.0, -1499242.3, 47164.75, 0.34479496, 0.14808305, -1492742.3, 23525.719, 0.00027198074, 9.997053, 10.001532 
1.16508104e+3, 1.5528204e+2, -1626188.3, -1351347.8, 10361.837, -0.03495139, 0.15966117, -1350957.6, 67288.2, 0.00003101119, 9.997837, 10.001494 
1.1650749e+3, 1.6528273e+2, -1566450.9, -1349609.4, 44999.977, -0.15265732, 0.120736636, -1340641.6, -20405.078, 0.00000004774233, 9.997918, 10.000794 
1.16507225e+3, 1.7528212e+2, -1534988.3, -1287443.6, 25682.69, 0.02194313, -0.044583354, -1284807.1, -62566.676, 0.0, 9.997473, 10.000768 
1.16506726e+3, 1.8528244e+2, -1423419.1, -1320022.4, -32406.795, 0.08265097, -0.019154385, -1310705.0, -186466.72, 0.0, 9.998151, 9.99954 
1.16506e+3, 1.9528337e+2, -1070569.8, -1094569.6, -38820.617, 0.006685013, 0.089658625, -1041936.75, -15703.523, 0.0, 9.999884, 9.999578 
1.1650554e+3, 2.0528409e+2, -956178.94, -982147.94, 75536.31, 0.019710982, 0.20604347, -892519.25, 35709.992, 0.0, 9.999968, 9.999636 
1.1650531e+3, 2.152844e+2, -1057598.4, -974780.5, 24804.107, 0.11851635, 0.2411441, -967919.94, -137691.56, 0.0, 9.998581, 9.9996805 
1.16504885e+3, 2.2528419e+2, -964132.75, -905070.5, -43937.574, 0.12916785, 0.26884115, -881662.06, -149431.72, 0.0, 9.998661, 9.999451 
1.1650426e+3, 2.3528318e+2, -666055.75, -712213.8, -22559.293, 0.06279947, 0.19666435, -656861.56, -22623.541, 0.0, 10.000037, 9.999442 
1.1650367e+3, 2.4528193e+2, -550391.0, -704034.8, 38957.13, 0.0035039543, 0.17861933, -541077.75, -4827.5337, 0.0, 10.000579, 9.99856 
1.1650311e+3, 2.5528032e+2, -483510.78, -619339.94, 53886.348, -0.05551488, 0.12833989, -464729.75, -26461.541, 0.0, 10.000359, 9.998575 
1.1650259e+3, 2.652796e+2, -349181.22, -462766.16, 67531.32, -0.064027324, 0.18719946, -317736.13, 22541.46, 0.00000056359414, 10.000435, 9.998939 
1.1650208e+3, 2.7527952e+2, -201142.6, -335221.53, 60263.234, -0.023451652, 0.25519583, -178038.03, 64243.445, 0.00000928475, 10.000757, 9.998989 
1.1650148e+3, 2.8527853e+2, -55400.805, -222472.58, 37586.176, -0.008387793, 0.2674982, -47334.48, 96955.83, 0.000050789153, 10.001108, 9.998924 
1.1650078e+3, 2.952765e+2, 80394.164, -114069.88, 42369.527, -0.012653145, 0.13575786, 89224.586, 135531.13, 0.00017624088, 10.001407, 9.998845 
1.1649995e+3, 3.0527455e+2, 183961.61, -265617.1, 5065.013, -0.070368595, 0.1699566, 184018.66, 184018.66, 0.0004642717, 10.002762, 9.996827 
1.16499215e+3, 3.152713e+2, 566624.25, 86093.26, -4566.3516, 0.05579709, 0.12958565, 566667.6, 566667.6, 0.0009430786, 10.00462, 9.998351 
1.1750979e+3, 1.2528263e+2, -2001757.6, -1638550.5, -127702.24, 0.19947113, 0.19951671, -1598145.8, 114105.75, 0.0018234614, 9.997075, 10.00191 
1.1750876e+3, 1.352851e+2, -1934531.4, -1540619.4, -6336.784, -0.12977496, 0.22326791, -1540517.4, 73705.66, 0.0009506097, 9.996824, 10.002047 
1.17508374e+3, 1.4528619e+2, -1843581.1, -1519717.4, 63733.37, -0.036045138, 0.16514923, -1507626.6, 8582.078, 0.00031097958, 9.9970665, 10.001382 
1.1750792e+3, 1.5528634e+2, -1640349.5, -1382091.4, 51833.484, -0.027860835, 0.014078837, -1372076.5, 46127.453, 0.00003785508, 9.99784, 10.001282 
1.17507435e+3, 1.6528784e+2, -1582019.0, -1377532.8, 12636.003, -0.038437475, 0.077391, -1376754.9, -56566.484, 0.00000010132158, 9.9979, 10.0006075 
1.1750698e+3, 1.7529042e+2, -1547036.1, -1308137.5, 23786.895, 0.004728552, 0.24143723, -1305792.1, -83627.914, 0.0, 9.997455, 10.000631 
1.1750647e+3, 1.8529055e+2, -1422056.3, -1308301.8, 17556.053, -0.012953618, 0.24704194, -1305653.9, -181490.8, 0.0, 9.998113, 9.9996395 
1.1750591e+3, 1.952882e+2, -1078489.3, -1092993.3, 37755.594, -0.10650779, 0.018176742, -1047295.5, -21110.008, 0.0, 9.999802, 9.999632 
1.1750549e+3, 2.052871e+2, -1036162.0, -1121264.5, 7944.601, -0.056927014, -0.0029313206, -1035426.7, -107228.42, 0.0, 9.999853, 9.998735 
1.17505215e+3, 2.1528687e+2, -1139144.4, -1110608.8, -13693.584, 0.14159757, 0.068109065, -1105100.8, -274895.9, 0.0, 9.998431, 9.998823 
1.1750482e+3, 2.2528672e+2, -931071.9, -793729.44, -7489.5337, 0.1922531, 0.10134336, -793322.2, -61116.387, 0.0, 9.998481, 10.000301 
1.1750432e+3, 2.3528652e+2, -632876.6, -596251.0, 40885.97, 0.10213222, 0.019173639, -569764.06, 64439.367, 0.0, 9.999845, 10.000325 
1.1750377e+3, 2.452866e+2, -525031.3, -614473.3, 17340.799, 0.020217407, 0.05714341, -521786.97, 14414.211, 0.0, 10.000411, 9.999262 
1.1750317e+3, 2.5528675e+2, -444476.3, -512545.8, 58549.51, -0.05457605, 0.109998494, -410788.03, 27413.514, 0.0, 10.000245, 9.999362 
1.1750262e+3, 2.6528656e+2, -349931.53, -439440.88, 65684.945, -0.08405944, 0.17128456, -315203.53, 25002.012, 0.0000005132723, 10.000322, 9.999161 
1.175021e+3, 2.752858e+2, -199741.81, -313371.88, 88830.89, -0.09860054, 0.14766116, -151110.78, 91105.25, 0.000009286575, 10.000671, 9.999185 
1.1750151e+3, 2.8528517e+2, -37247.566, -159719.98, 37266.367, -0.10169297, 0.16464819, -26799.361, 117421.27, 0.000051726838, 10.001, 9.999408 
1.17500894e+3, 2.9528457e+2, 116784.36, -30750.89, 72075.81, -0.08406558, 0.12475931, 146150.56, 192371.75, 0.00018255804, 10.00136, 9.999444 
1.1750022e+3, 3.0528343e+2, 173151.03, -258272.73, 69866.74, -0.102106996, 0.19666307, 184183.45, 184183.45, 0.00047999644, 10.002651, 9.996927 
1.1749972e+3, 3.1528035e+2, 534615.7, 66508.42, 104164.305, 0.038411442, 0.16553704, 556748.1, 556748.1, 0.0009686636, 10.004432, 9.9983015 
1.18509494e+3, 1.25288e+2, -2226702.8, -1744546.3, -70539.16, 0.2852729, 0.17053914, -1734438.4, -22238.486, 0.0020081834, 9.9955, 10.001942 
1.1850853e+3, 1.3529083e+2, -1753000.9, -1477162.9, -1853.0151, -0.10502936, 0.23905668, -1477150.4, 137017.1, 0.0010574218, 9.998145, 10.00185 
1.18508056e+3, 1.4529161e+2, -1643047.9, -1472867.3, 27465.986, -0.12938362, 0.1831782, -1468544.3, 47612.633, 0.00035351914, 9.998663, 10.00093 
1.18507765e+3, 1.5529145e+2, -1714830.6, -1458770.5, -38464.54, 0.050045352, 0.044982184, -1453117.4, -34960.477, 0.00004562391, 9.997523, 10.000902 
1.18507326e+3, 1.6529271e+2, -1614257.4, -1397542.8, -22604.33, 0.08091125, 0.10400426, -1395210.1, -75066.03, 0.00000019883093, 9.997696, 10.000575 
1.1850681e+3, 1.7529505e+2, -1310967.9, -1192686.8, -29255.195, 0.019656217, 0.24582575, -1185846.5, 36274.758, 0.0, 9.999073, 10.00064 
1.1850632e+3, 1.8529536e+2, -1239884.6, -1214739.0, -5743.7617, -0.027468199, 0.26613358, -1213489.1, -89370.64, 0.0, 9.999337, 9.999691 
1.1850585e+3, 1.9529355e+2, -1238107.6, -1159323.3, -20214.814, -0.08025049, 0.08389241, -1154439.3, -128302.68, 0.0, 9.998661, 9.999724 
1.1850544e+3, 2.0529248e+2, -1139450.3, -1139778.9, 4181.631, -0.030231738, 0.048310682, -1135429.6, -207281.81, 0.0, 9.999012, 9.9990225 
1.1850514e+3, 2.1529181e+2, -847201.7, -935766.3, 49452.773, 0.1306761, 0.04957091, -825102.5, 5053.581, 0.0, 10.000298, 9.9991255 
1.1850476e+3, 2.2529162e+2, -641145.4, -675751.4, 96900.44, 0.1861219, 0.07264566, -560015.2, 172142.22, 0.0, 10.000561, 10.00011 
1.1850433e+3, 2.3529162e+2, -636366.56, -620368.9, 35605.297, 0.1353368, 0.030943863, -591875.0, 42279.875, 0.0, 9.999901, 10.000138 
1.18503824e+3, 2.452919e+2, -595259.2, -600637.7, -21135.305, 0.06836958, 0.07329639, -576642.75, -40491.51, 0.0, 9.999733, 9.999681 
1.1850322e+3, 2.5529215e+2, -446651.28, -477419.84, -32080.703, -0.0123546645, 0.102722034, -426456.8, 11692.484, 0.0, 10.000071, 9.999699 
1.185027e+3, 2.652921e+2, -340361.6, -401988.8, -10901.136, -0.040666748, 0.14941989, -338490.16, 1660.2015, 0.0000005059796, 10.000264, 9.999437 
1.185022e+3, 2.7529156e+2, -235347.3, -305212.03, -17484.227, -0.04740231, 0.12158185, -231216.02, 10940.843, 0.000009353779, 10.000325, 9.999405 
1.1850166e+3, 2.852908e+2, -39993.777, -175153.0, -38758.363, -0.05390815, 0.118281655, -29668.227, 114494.336, 0.000051580555, 10.001057, 9.999265 
1.1850113e+3, 2.9528978e+2, 252077.27, 18335.473, -81788.28, -0.0333812, 0.056664646, 277853.25, 324021.06, 0.00018437536, 10.002374, 9.999287 
1.18500516e+3, 3.0528897e+2, 265391.6, -163463.23, -74467.69, -0.08108408, 0.14669456, 277954.38, 277954.38, 0.0004810056, 10.003051, 9.997391 
1.18500076e+3, 3.1528682e+2, 321856.0, -19625.06, -57820.75, 0.03888119, 0.15815906, 331380.75, 331380.75, 0.0009623852, 10.002871, 9.998466 
1.1950885e+3, 1.2529355e+2, -2211240.0, -1725508.3, 36744.66, 0.025342777, 0.1585912, -1722744.3, -10601.054, 0.0022081332, 9.995553, 10.002041 
1.19508475e+3, 1.3529545e+2, -1778676.3, -1532882.5, 101166.555, -0.0017519078, 0.16417241, -1496599.3, 117522.14, 0.0011730703, 9.998145, 10.001468 
1.19508006e+3, 1.4529637e+2, -1700440.0, -1589080.3, -33231.926, -0.07745138, 0.18453725, -1579917.1, -63805.176, 0.00040013902, 9.998651, 10.000139 
1.19507596e+3, 1.5529744e+2, -1759715.0, -1564922.4, -65119.656, 0.09416125, 0.24531808, -1545158.1, -127054.41, 0.00005450229, 9.997569, 10.000155 
1.1950713e+3, 1.652974e+2, -1596744.0, -1368936.1, 12179.49, 0.09320549, 0.20240133, -1368286.9, -48184.273, 0.00000035173326, 9.9977255, 10.00076 
1.1950669e+3, 1.752962e+2, -1305913.5, -1175404.8, 31476.473, -0.031925347, -0.026716638, -1168209.9, 53899.945, 0.0, 9.999041, 10.000777 
1.1950625e+3, 1.8529701e+2, -1248653.6, -1223254.0, -45964.9, -0.068918265, 0.04015342, -1188266.8, -64163.484, 0.0, 9.999297, 9.999653 
1.195058e+3, 1.9529942e+2, -1251069.6, -1164927.8, -31210.193, -0.024032744, 0.2845454, -1154808.6, -128722.62, 0.0, 9.998568, 9.999735 
1.195054e+3, 2.0530021e+2, -1049829.1, -927037.9, 36187.926, -0.01173029, 0.354749, -917166.5, 10911.871, 0.0, 9.9988985, 10.000534 
1.1950503e+3, 2.1529926e+2, -771969.25, -740694.94, 106911.79, -0.02001315, 0.17634974, -648282.8, 181799.05, 0.0, 10.000133, 10.000543 
1.1950466e+3, 2.252988e+2, -755577.06, -874754.56, 57375.56, 0.0043626125, 0.17167665, -732444.75, -359.21515, 0.0, 10.000391, 9.998825 
1.1950426e+3, 2.3529862e+2, -746251.1, -807375.6, 22068.516, 0.058176402, 0.23439941, -739116.25, -105024.88, 0.0, 9.999729, 9.998932 
1.1950378e+3, 2.4529795e+2, -614966.0, -607431.25, -23486.393, 0.039946146, 0.24084975, -587412.0, -51313.215, 0.0, 9.999578, 9.999717 
1.1950322e+3, 2.5529668e+2, -463863.38, -476226.6, -6578.819, -0.046194788, 0.11294146, -461017.63, -22907.791, 0.0, 9.999916, 9.999778 
1.1950273e+3, 2.6529643e+2, -348958.06, -390924.5, -20453.635, -0.046551343, 0.1232136, -340638.63, -528.05853, 0.0000006389743, 10.000133, 9.999583 
1.1950232e+3, 2.7529678e+2, -235967.25, -281873.13, 309.58057, 0.024569923, 0.17136502, -235965.16, 6139.196, 0.000009301616, 10.000224, 9.999614 
1.1950188e+3, 2.8529537e+2, -109284.37, -302432.2, -1494.3746, 0.040007196, 0.1357628, -109272.805, 34843.246, 0.00005191434, 10.000975, 9.998435 
1.1950143e+3, 2.952921e+2, 181420.3, -109757.68, -15043.239, 0.007974932, -0.07407176, 182195.42, 228341.92, 0.00018470343, 10.00228, 9.998457 
1.1950079e+3, 3.052912e+2, 288260.6, -78144.3, -86434.78, -0.129759, 0.019488392, 307626.9, 307626.9, 0.0004730737, 10.002899, 9.998044 
1.19500205e+3, 3.152906e+2, 313001.25, 14117.547, -13490.022, -0.17054933, 0.112602055, 313608.88, 313608.88, 0.0009339275, 10.002658, 9.998793 
1.20508395e+3, 1.2529847e+2, -1864248.5, -1618225.9, 61527.094, -0.09736278, 0.19362505, -1603696.9, 108397.44, 0.0024257244, 9.998223, 10.001499 
1.20508365e+3, 1.3529946e+2, -2092458.1, -1746192.3, -7535.883, 0.17208643, 0.1782203, -1746028.4, -131943.38, 0.0012988481, 9.996291, 10.000895 
1.2050793e+3, 1.453004e+2, -2028149.8, -1717783.6, -68349.8, 0.10444622, 0.2144375, -1703398.1, -187322.31, 0.00045139206, 9.996263, 10.000414 
1.2050741e+3, 1.5530147e+2, -1644843.9, -1476554.0, -54940.926, 0.12652683, 0.24387704, -1460205.8, -42140.508, 0.00006471426, 9.99821, 10.000456 
1.20506935e+3, 1.653015e+2, -1447839.1, -1314660.1, 74573.734, 0.06758864, 0.2007408, -1281272.6, 38790.355, 0.00000057087306, 9.99883, 10.00059 
1.2050654e+3, 1.7530034e+2, -1411567.0, -1239098.1, 42231.137, -0.048347015, -0.0076631512, -1229312.5, -7241.5723, 0.0, 9.998384, 10.000645 
1.2050613e+3, 1.8530113e+2, -1353209.8, -1254464.3, -25082.945, -0.06927576, 0.055366527, -1248458.0, -124393.5, 0.0, 9.998507, 9.999812 
1.2050569e+3, 1.9530343e+2, -1148987.8, -1092099.3, -20213.113, -0.0075099478, 0.26862302, -1085648.8, -59601.242, 0.0, 9.999178, 9.9999275 
1.2050533e+3, 2.0530453e+2, -949808.25, -869664.5, 51471.566, 0.015427286, 0.3550912, -844505.44, 83530.98, 0.0, 9.999532, 10.000623 
1.2050504e+3, 2.1530426e+2, -837523.9, -764892.6, -12797.788, 0.009749502, 0.23385742, -762703.6, 67330.19, 0.0, 9.999628, 10.000625 
1.2050468e+3, 2.2530389e+2, -907047.56, -964512.8, -85354.266, 0.032221116, 0.24284998, -845719.56, -113682.164, 0.0, 9.999427, 9.998676 
1.2050422e+3, 2.3530325e+2, -867104.8, -882832.75, -60404.28, 0.08158463, 0.2808719, -814054.75, -180006.1, 0.0, 9.998979, 9.998779 
1.20503746e+3, 2.4530247e+2, -672728.5, -630236.6, -5018.0005, 0.07179742, 0.28020418, -629652.06, -93594.58, 0.0, 9.999173, 9.999739 
1.2050323e+3, 2.553013e+2, -460563.97, -475201.1, -19360.123, -0.011028124, 0.15718046, -447185.28, -9118.175, 0.00000000020898414, 9.999939, 9.999766 
1.2050281e+3, 2.6530084e+2, -274414.78, -361901.72, -22508.223, -0.011162254, 0.15425292, -268963.63, 71104.664, 0.00000074892756, 10.000674, 9.9995165 
1.2050243e+3, 2.7530086e+2, -70066.555, -213868.44, -46662.707, 0.06243527, 0.1760754, -56251.96, 185811.84, 0.000009032264, 10.001401, 9.999513 
1.2050206e+3, 2.852992e+2, -42439.887, -321385.13, -14641.977, 0.09078169, 0.14168803, -41673.43, 102405.5, 0.000052136886, 10.001667, 9.997968 
1.20501675e+3, 2.9529577e+2, 27021.684, -231165.03, -39123.523, 0.076033205, -0.03576995, 32819.93, 78933.95, 0.0001849306, 10.001442, 9.998018 
1.20501086e+3, 3.0529463e+2, 224390.94, -49805.23, -68813.97, -0.087074004, 0.02962602, 240691.83, 240691.83, 0.0004665325, 10.002215, 9.998561 
1.2050051e+3, 3.1529436e+2, 445482.97, 108356.99, -47058.234, -0.16487363, 0.10615266, 451928.44, 451928.44, 0.00090606173, 10.003472, 9.999037 
1.21508226e+3, 1.2530282e+2, -1955417.6, -1793329.0, 38188.21, -0.1517578, 0.27073616, -1784782.5, -72730.05, 0.0026624324, 9.998192, 10.000301 
1.2150815e+3, 1.3530295e+2, -2154010.5, -1881620.6, -70944.64, 0.31552267, 0.27486762, -1864250.6, -250193.13, 0.0014356553, 9.996323, 9.999957 
1.215078e+3, 1.4530382e+2, -1926291.4, -1503970.4, -13144.893, 0.3054582, 0.2709766, -1503561.6, 12485.823, 0.0005075534, 9.996262, 10.001876 
1.2150717e+3, 1.5530363e+2, -1554209.6, -1285833.6, 30189.373, 0.044656303, 0.03418183, -1282479.5, 135561.19, 0.000076397075, 9.9981985, 10.001772 
1.2150667e+3, 1.6530494e+2, -1485176.8, -1388501.8, 44048.55, -0.10972957, 0.08415313, -1371442.1, -51416.375, 0.0000008702971, 9.998821, 10.000082 
1.21506326e+3, 1.7530747e+2, -1451156.5, -1311821.3, 38071.93, -0.12979986, 0.29368353, -1302097.1, -80092.32, 0.0, 9.998347, 10.000162 
1.21505946e+3, 1.853077e+2, -1325212.0, -1192229.4, -15579.755, -0.13808107, 0.3008551, -1190428.5, -66425.7, 0.0, 9.998486, 10.000252 
1.2150551e+3, 1.9530563e+2, -1135776.5, -1046597.0, 15623.969, -0.14062373, 0.03607244, -1043939.0, -17918.908, 0.0, 9.999097, 10.000281 
1.2150524e+3, 2.0530553e+2, -1061131.9, -1072096.9, 38782.93, -0.056236103, 0.054271508, -1027445.8, -99424.57, 0.0, 9.99941, 9.99929 
1.2150513e+3, 2.1530694e+2, -952932.4, -957739.06, 535.66675, 0.11044989, 0.23104277, -952873.44, -122863.15, 0.0, 9.999428, 9.999393 
1.2150476e+3, 2.25307e+2, -865452.7, -839766.2, -117303.734, 0.16313818, 0.29242107, -734604.7, -2593.286, 0.0, 9.999253, 9.999621 
1.21504165e+3, 2.3530568e+2, -822780.94, -757099.1, -62978.965, 0.11203699, 0.1668166, -718912.75, -84887.29, 0.0, 9.99883, 9.999714 
1.2150367e+3, 2.453055e+2, -704142.25, -652984.8, 13173.365, 0.05464668, 0.18344305, -649791.9, -113764.875, 0.0, 9.998992, 9.999667 
1.21503256e+3, 2.5530604e+2, -483778.38, -495033.53, 21918.309, -0.0051053613, 0.23866889, -466776.72, -28756.45, 0.00000000018849695, 9.999817, 9.999687 
1.2150287e+3, 2.6530558e+2, -313983.06, -415856.3, -7465.0674, -0.041107327, 0.25217196, -313438.94, 26583.344, 0.00000061447383, 10.00055, 9.999208 
1.2150249e+3, 2.7530387e+2, -105969.49, -263084.6, -5216.134, -0.051598746, 0.13160755, -105796.516, 136238.44, 0.000008322687, 10.001287, 9.999231 
1.2150214e+3, 2.853023e+2, -86468.52, -371600.13, -33629.355, -0.019796297, 0.13496363, -82555.86, 61494.953, 0.000050710027, 10.0015, 9.997701 
1.2150183e+3, 2.9530078e+2, -2225.732, -266848.2, -26105.906, 0.050957717, 0.17242889, 325.11572, 46395.445, 0.00018357177, 10.001338, 9.99782 
1.2150136e+3, 3.0529916e+2, 222923.08, -23004.576, -30739.234, -0.057764556, 0.18608522, 226707.05, 226707.05, 0.00046227945, 10.00209, 9.998808 
1.21500894e+3, 3.152978e+2, 425127.72, 116734.84, 45953.54, -0.17954643, 0.13505629, 431829.6, 431829.6, 0.00088881893, 10.003266, 9.999188 
1.2250802e+3, 1.2530567e+2, -2224005.3, -1904249.8, -9227.847, -0.05311132, 0.33068347, -1903983.6, -191957.42, 0.0029179724, 9.996225, 10.000499 
1.225078e+3, 1.35306e+2, -1901766.6, -1683545.8, -62086.32, 0.27076846, 0.28616303, -1667118.1, -53090.31, 0.0015834377, 9.99772, 10.00064 
1.2250756e+3, 1.4530732e+2, -1645781.4, -1369472.8, 69905.71, 0.3497268, 0.29285592, -1352793.5, 163219.5, 0.00056846405, 9.998189, 10.00187 
1.2250698e+3, 1.5530732e+2, -1586910.5, -1292775.1, -24360.697, 0.054838255, 0.07108222, -1290771.3, 127233.67, 0.00008951281, 9.997952, 10.001829 
1.2250651e+3, 1.6530874e+2, -1646329.9, -1489600.5, -50952.945, -0.09705334, 0.13484699, -1474492.1, -154502.05, 0.0000012652538, 9.9977865, 9.999909 
1.22506164e+3, 1.7531121e+2, -1546935.8, -1376992.5, -53045.973, -0.08714439, 0.35748512, -1361794.0, -139822.84, 0.0, 9.997746, 10.000024 
1.22505814e+3, 1.8531123e+2, -1378214.5, -1214093.9, -48975.332, -0.08597024, 0.34854272, -1200590.3, -76619.625, 0.0, 9.998097, 10.000294 
1.22505434e+3, 1.9530879e+2, -1162088.1, -1055403.4, -76186.34, -0.10448484, 0.04210931, -1015741.6, 10247.587, 0.0, 9.998895, 10.000325 
1.225052e+3, 2.053083e+2, -1122206.5, -1124447.8, -25976.023, -0.012600166, 0.030899227, -1097326.9, -169333.17, 0.0, 9.999094, 9.999082 
1.22505106e+3, 2.1530934e+2, -1069293.6, -1034783.5, -7542.737, 0.17706756, 0.19325806, -1033206.94, -203219.19, 0.0, 9.998731, 9.999199 
1.2250475e+3, 2.2530949e+2, -857758.25, -811765.4, -69544.26, 0.2283057, 0.25991058, -761514.0, -29525.578, 0.0, 9.999201, 9.999835 
1.2250416e+3, 2.3530856e+2, -579686.3, -620540.6, -103841.7, 0.14931887, 0.15479068, -494281.7, 139715.9, 0.0, 10.000406, 9.999897 
1.225037e+3, 2.4530847e+2, -440102.9, -538051.8, -32148.871, 0.09636692, 0.1761364, -430493.7, 105503.89, 0.0, 10.000843, 9.999576 
1.22503355e+3, 2.5530893e+2, -369281.16, -446055.66, -47780.348, 0.066264495, 0.22990529, -346377.75, 91613.445, 0.0, 10.000635, 9.999631 
1.22502975e+3, 2.6530835e+2, -315522.7, -436787.38, -45251.023, 0.019733327, 0.24841735, -300498.34, 39496.3, 0.0000003685213, 10.000638, 9.999015 
1.2250259e+3, 2.7530658e+2, -201838.98, -326402.53, -66277.234, -0.04532493, 0.1401993, -173171.92, 68838.08, 0.0000073761885, 10.000733, 9.999047 
1.2250227e+3, 2.8530526e+2, -100613.82, -375407.53, -53514.074, -0.01859012, 0.17200126, -90560.17, 53464.273, 0.000049087277, 10.001357, 9.997751 
1.2250205e+3, 2.9530424e+2, 142965.03, -198143.73, -48554.473, 0.097495936, 0.25721285, 149741.8, 195780.61, 0.00018153466, 10.0023155, 9.997836 
1.22501664e+3, 3.0530202e+2, 308420.3, 24716.973, -19839.01, 0.021069387, 0.20927913, 309800.9, 309800.9, 0.00045750884, 10.002648, 9.9988575 
1.2250125e+3, 3.1530067e+2, 261753.28, 33440.555, -7826.42, -0.086230196, 0.15030146, 262021.25, 262021.25, 0.0008771935, 10.002107, 9.9991865 
1.235078e+3, 1.2530586e+2, -2096148.8, -1661629.0, -58942.58, 0.04041577, 0.25058973, -1653775.4, 58251.816, 0.0031899144, 9.996294, 10.002139 
1.2350724e+3, 1.353086e+2, -1729160.1, -1345425.0, -3711.5193, -0.094549514, 0.204605, -1345389.1, 268607.34, 0.0017411282, 9.997774, 10.002944 
1.2350718e+3, 1.4531076e+2, -1739795.1, -1573170.5, 44731.266, 0.109647095, 0.25273725, -1561921.6, -45947.35, 0.0006337289, 9.998222, 10.00046 
1.23506814e+3, 1.5531243e+2, -1681720.3, -1494556.6, -24330.064, 0.057891406, 0.34461612, -1491445.6, -73486.625, 0.00010392506, 9.997959, 10.000451 
1.2350641e+3, 1.6531275e+2, -1620093.3, -1438132.1, -71945.43, -0.0026668003, 0.34869736, -1413123.0, -93166.03, 0.0000017603737, 9.997798, 10.000256 
1.2350602e+3, 1.753117e+2, -1524715.5, -1333639.5, -43875.03, -0.030710764, 0.18407273, -1324046.5, -102077.914, 0.0, 9.997749, 10.000322 
1.2350571e+3, 1.8531185e+2, -1410656.9, -1274880.6, -31994.422, -0.026827104, 0.194634, -1267719.1, -143752.31, 0.0, 9.99807, 9.999891 
1.2350544e+3, 1.9531289e+2, -1199634.9, -1113151.3, -34301.496, -0.006330562, 0.2764073, -1101198.4, -75243.49, 0.0, 9.998805, 9.999973 
1.2350519e+3, 2.0531282e+2, -1078739.6, -1001397.8, -56566.77, 0.04138529, 0.27672458, -971546.94, -43592.734, 0.0, 9.998954, 9.999995 
1.2350493e+3, 2.1531156e+2, -1031865.4, -922607.06, -7655.594, 0.113981284, 0.11773253, -922073.25, -92107.555, 0.0, 9.998579, 10.000044 
1.2350458e+3, 2.2531138e+2, -921069.8, -908769.56, -36453.72, 0.1267322, 0.14349629, -877950.8, -145982.7, 0.0, 9.999046, 9.9992485 
1.2350416e+3, 2.3531196e+2, -644765.2, -718383.2, -44597.27, 0.087972485, 0.24535452, -623748.4, 10216.385, 0.0, 10.000241, 9.999309 
1.2350378e+3, 2.4531147e+2, -469316.03, -560178.7, -53035.066, 0.074170694, 0.26195106, -444913.84, 91054.61, 0.0, 10.000676, 9.999504 
1.2350347e+3, 2.5530985e+2, -389467.03, -462508.63, -41587.68, 0.09228124, 0.1158381, -370640.7, 67339.49, 0.0, 10.000517, 9.999578 
1.2350311e+3, 2.6530913e+2, -353810.0, -474715.03, -51756.36, 0.06216462, 0.12762721, -334680.94, 5305.3247, 0.00000016286783, 10.000464, 9.998837 
1.2350271e+3, 2.7530897e+2, -233318.27, -360448.22, -44628.816, -0.021091415, 0.19567081, -219215.77, 22773.957, 0.000006622681, 10.000603, 9.998874 
1.2350244e+3, 2.8530797e+2, -92552.414, -326062.56, -26737.936, -0.015849516, 0.2520215, -89529.92, 54470.63, 0.000048750662, 10.001221, 9.998157 
1.2350229e+3, 2.9530603e+2, 155280.05, -148318.34, 7676.2173, 0.07692549, 0.2051224, 155474.0, 201494.36, 0.00018217463, 10.002208, 9.998233 
1.2350194e+3, 3.0530313e+2, 269709.13, -24073.916, -42363.574, 0.013938262, 0.079515554, 275695.97, 275695.97, 0.00045752534, 10.002514, 9.998588 
1.235015e+3, 3.1530273e+2, 224402.89, 8584.694, 12165.088, -0.111523315, 0.1423101, 225086.44, 225086.44, 0.000874485, 10.001893, 9.999112 
1.2450757e+3, 1.2530701e+2, -2186650.8, -1668386.5, 57465.23, 0.2151477, 0.13952406, -1662091.3, 49921.24, 0.003475539, 9.995551, 10.002428 
1.2450694e+3, 1.3531084e+2, -1821506.8, -1359913.3, -18258.254, -0.11353983, 0.17110284, -1359192.1, 254777.88, 0.0019075654, 9.997021, 10.003203 
1.24506935e+3, 1.4531267e+2, -1860582.9, -1633764.8, -32433.834, 0.09255135, 0.1749928, -1629218.0, -113266.71, 0.0007030745, 9.997402, 10.000442 
1.2450659e+3, 1.5531488e+2, -1837421.3, -1576140.0, -25190.607, 0.102520436, 0.32475308, -1573733.5, -155801.17, 0.00011956255, 9.996913, 10.000401 
1.2450623e+3, 1.6531514e+2, -1675764.6, -1466826.9, 29950.895, 0.06344196, 0.326953, -1462618.3, -142686.53, 0.0000023468863, 9.997437, 10.000223 
1.2450591e+3, 1.7531347e+2, -1347281.3, -1248458.0, 1091.039, 0.023992868, 0.1040844, -1248446.0, -26496.617, 0.0, 9.998986, 10.0002985 
1.2450564e+3, 1.8531385e+2, -1208240.0, -1166986.4, 18326.98, 0.03509568, 0.13354912, -1160020.8, -36075.04, 0.0, 9.99941, 9.999985 
1.2450541e+3, 1.9531584e+2, -1190902.4, -1102145.1, 30422.719, 0.077037595, 0.30037114, -1092718.5, -66792.98, 0.0, 9.998824, 10.000044 
1.2450514e+3, 2.0531607e+2, -1065973.4, -996089.75, 25892.512, 0.098427184, 0.32700104, -987541.9, -59619.234, 0.0, 9.999037, 9.999991 
1.2450485e+3, 2.1531452e+2, -833381.8, -824154.94, -20813.469, 0.108738616, 0.1375886, -807449.75, 22487.45, 0.0, 9.999925, 10.000069 
1.2450453e+3, 2.2531416e+2, -734536.4, -828117.9, -22686.803, 0.10538013, 0.14525053, -729326.5, 2614.8628, 0.0, 10.000384, 9.999147 
1.24504186e+3, 2.3531453e+2, -615850.56, -710376.2, -22268.0, 0.08942776, 0.2362612, -610867.44, 23071.746, 0.0, 10.000483, 9.999235 
1.2450386e+3, 2.45314e+2, -484755.94, -567978.56, -7257.3867, 0.093423195, 0.25233656, -484127.8, 51814.85, 0.0, 10.000578, 9.999497 
1.2450354e+3, 2.5531247e+2, -372899.38, -454718.44, -17989.617, 0.11712545, 0.119657904, -369118.7, 68834.2, 0.0, 10.000644, 9.999564 
1.24503225e+3, 2.6531148e+2, -302980.8, -488901.1, 3031.2498, 0.10996406, 0.12060683, -302931.4, 37030.91, 0.000000050542315, 10.000962, 9.998505 
1.2450289e+3, 2.7531067e+2, -130403.03, -353750.63, -28329.152, 0.06920641, 0.16010974, -126865.81, 115107.65, 0.0000061370592, 10.001463, 9.998525 
1.2450264e+3, 2.8530982e+2, -18517.814, -241372.03, 13156.572, 0.05034948, 0.22567886, -17743.781, 126239.13, 0.000049451548, 10.001539, 9.998577 
1.2450243e+3, 2.9530862e+2, 38078.64, -153992.64, 11885.381, 0.055420622, 0.21209817, 38811.313, 84805.22, 0.00018750013, 10.001212, 9.99866 
1.2450214e+3, 3.0530554e+2, 96100.31, -140005.72, -15290.36, 0.015244439, 0.060411934, 97086.41, 97086.41, 0.000470274, 10.001432, 9.998333 
1.24501795e+3, 3.1530523e+2, 257153.14, 45305.99, -784.81934, 0.003391151, 0.16264614, 257156.05, 257156.05, 0.00089436676, 10.002019, 9.999321 
1.2550709e+3, 1.2530966e+2, -2230071.5, -1793845.5, -13940.377, 0.12712829, 0.024101608, -1793400.4, -81423.086, 0.0037739007, 9.995672, 10.001524 
1.2550692e+3, 1.3531291e+2, -1942068.3, -1622094.8, 47538.02, 0.13108768, 0.18766657, -1615181.4, -1234.7726, 0.0020822603, 9.9970665, 10.001385 
1.255068e+3, 1.4531325e+2, -1762297.1, -1435402.0, -67086.08, 0.18262354, 0.063833006, -1422170.0, 93772.22, 0.0007764397, 9.997422, 10.001792 
1.2550628e+3, 1.5531488e+2, -1737499.3, -1379014.9, -30152.986, 0.0704519, 0.014652534, -1376496.4, 41426.71, 0.00013646827, 9.996952, 10.001734 
1.2550594e+3, 1.6531603e+2, -1709240.8, -1543639.0, 71098.37, -0.0002928323, 0.06720191, -1517302.6, -197389.4, 0.0000030208696, 9.997463, 9.999688 
1.255058e+3, 1.7531656e+2, -1383730.5, -1319410.5, 67351.14, -0.0107190395, 0.11671198, -1276935.1, -55022.11, 0.0, 9.998961, 9.999824 
1.2550558e+3, 1.8531722e+2, -1167619.8, -1073428.1, -19060.21, 0.0055241897, 0.16118318, -1069717.4, 54190.5, 0.0, 9.999366, 10.00065 
1.2550527e+3, 1.953177e+2, -1155805.4, -1015987.25, 21333.227, 0.041166145, 0.11106084, -1012804.75, 13096.296, 0.0, 9.998761, 10.000666 
1.2550502e+3, 2.0531811e+2, -1149835.1, -1137048.0, 45030.64, 0.056749273, 0.17306878, -1097959.4, -170060.7, 0.0, 9.998898, 9.999093 
1.2550479e+3, 2.1531828e+2, -922765.9, -965957.75, 24186.098, 0.053372797, 0.24889769, -911937.25, -82035.23, 0.0, 9.999736, 9.99919 
1.2550452e+3, 2.253177e+2, -736580.6, -784802.5, -33060.387, 0.045821663, 0.2583367, -719773.0, 12136.037, 0.0, 10.00018, 9.999541 
1.2550421e+3, 2.3531622e+2, -611617.8, -666605.94, -6923.681, 0.0474157, 0.1241864, -610759.44, 23161.93, 0.0, 10.000328, 9.999612 
1.255039e+3, 2.4531606e+2, -503191.78, -569543.7, -17836.26, 0.0479318, 0.15210214, -498701.1, 37219.26, 0.0, 10.000418, 9.999563 
1.2550355e+3, 2.5531676e+2, -395688.03, -466402.97, -1992.0054, 0.039663166, 0.23628601, -395631.97, 42277.914, 0.0, 10.000485, 9.99956 
1.2550329e+3, 2.6531526e+2, -364998.97, -578219.1, 9312.664, 0.056118887, 0.21867059, -364593.0, -24668.82, 0.00000007625481, 10.0007925, 9.9979725 
1.2550311e+3, 2.7531168e+2, -182481.89, -430578.34, 6643.415, 0.10342416, 0.028965339, -182304.13, 59657.83, 0.0000061507535, 10.001328, 9.998062 
1.2550282e+3, 2.853108e+2, -10017.3, -201091.97, -9717.357, 0.054958526, 0.09688613, -9524.383, 134447.06, 0.000051588533, 10.001434, 9.998906 
1.2550245e+3, 2.95312e+2, 47091.996, -116854.04, 18280.832, -0.078886084, 0.28288049, 49105.668, 95065.15, 0.00020006, 10.001126, 9.998958 
1.255022e+3, 3.0530915e+2, 62311.56, -187225.7, -3541.7976, -0.091267526, 0.15710528, 62361.816, 62361.816, 0.00050364056, 10.001336, 9.998049 
1.2550205e+3, 3.1530783e+2, 251775.78, 85740.67, 66560.75, -0.00032420532, 0.1766759, 275164.28, 275164.28, 0.00095293473, 10.001799, 9.999702 
1.2650687e+3, 1.2531243e+2, -1831981.6, -1605259.9, -44636.707, 0.19367698, -0.0029292908, -1596788.4, 115161.43, 0.004085261, 9.998456, 10.001483 
1.265067e+3, 1.3531503e+2, -2033008.5, -1741834.4, 56331.656, 0.22447984, 0.1771154, -1731316.3, -117390.3, 0.0022650692, 9.996817, 10.000672 
1.2650646e+3, 1.4531496e+2, -1855653.0, -1488522.5, -12965.56, 0.15099852, 0.052065503, -1488065.3, 27860.652, 0.00085386867, 9.996816, 10.001721 
1.2650613e+3, 1.5531623e+2, -1499270.3, -1264620.1, -115686.29, 0.15629672, -0.027107473, -1217177.3, 200733.28, 0.00015477135, 9.998604, 10.0017185 
1.2650585e+3, 1.6531771e+2, -1504366.4, -1390394.0, -16451.238, 0.114293315, 0.035774216, -1388066.9, -68170.72, 0.0000038088367, 9.998643, 10.000163 
1.2650563e+3, 1.7531914e+2, -1592244.6, -1371266.8, 26265.998, 0.008634219, 0.12751363, -1368187.6, -146302.58, 0.0, 9.99732, 10.000262 
1.265054e+3, 1.8531993e+2, -1444270.1, -1203705.1, -12281.119, 0.0057370635, 0.1637454, -1203079.9, -79201.46, 0.0, 9.997456, 10.000676 
1.2650521e+3, 1.9531997e+2, -1132463.8, -998545.56, -50331.117, 0.0912569, 0.06649447, -981738.6, 44139.133, 0.0, 9.998911, 10.000707 
1.2650497e+3, 2.0532066e+2, -1080670.8, -1075286.9, 10656.242, 0.09944609, 0.14153875, -1066987.8, -139114.39, 0.0, 9.9992485, 9.999345 
1.2650469e+3, 2.1532173e+2, -1076628.0, -1012674.94, 48686.24, 0.030411331, 0.27985033, -986403.25, -156535.3, 0.0, 9.998559, 9.999433 
1.2650445e+3, 2.2532125e+2, -935183.0, -872884.5, 65604.89, 0.039349623, 0.2836624, -831409.56, -99536.4, 0.0, 9.998763, 9.999633 
1.2650429e+3, 2.3531927e+2, -697633.5, -697875.06, 46226.465, 0.12926067, 0.091437355, -651527.6, -17638.824, 0.0, 9.99968, 9.999717 
1.2650402e+3, 2.4531884e+2, -534316.6, -628824.94, 19528.645, 0.13453464, 0.10839394, -530440.3, 5450.226, 0.0, 10.000383, 9.999177 
1.2650363e+3, 2.553195e+2, -358880.84, -493540.94, -24159.258, 0.060821977, 0.22678241, -354677.63, 83204.984, 0.0, 10.000913, 9.999178 
1.2650338e+3, 2.6531786e+2, -294596.3, -549045.1, 22980.639, 0.057188362, 0.21597081, -292537.47, 47361.25, 0.00000015326442, 10.001302, 9.99793 
1.2650324e+3, 2.75314e+2, -154608.27, -419914.78, 22696.104, 0.11898882, 0.0067187776, -152680.7, 89257.14, 0.0000068361555, 10.001536, 9.998031 
1.26503e+3, 2.85313e+2, 16370.815, -232865.27, 6953.628, 0.0811236, 0.08416632, 16564.668, 160513.92, 0.000055437977, 10.001796, 9.998517 
1.2650265e+3, 2.9531425e+2, 181674.97, -99082.14, -49672.254, -0.039546363, 0.31713483, 190204.0, 236143.34, 0.00021969865, 10.002238, 9.99855 
1.2650241e+3, 3.0531138e+2, 146886.64, -161483.23, -77411.21, -0.027609497, 0.2159346, 165228.48, 165228.48, 0.00055760087, 10.002001, 9.997891 
1.2650228e+3, 3.1530932e+2, 142856.97, 77888.26, -49331.363, 0.09707233, 0.17863277, 169438.83, 169438.83, 0.0010537416, 10.000875, 10.000078 
1.2750675e+3, 1.2531699e+2, -1764160.5, -1491971.9, -38630.13, 0.18217057, 0.20939608, -1486595.5, 225318.14, 0.0044096503, 9.998561, 10.002213 
1.2750624e+3, 1.3531727e+2, -2011858.6, -1711377.9, 1727.3896, 0.05516005, 0.12854873, -1711368.0, -97460.85, 0.0024558255, 9.996855, 10.00087 
1.275059e+3, 1.4531787e+2, -1949407.4, -1698810.4, 39487.17, -0.14095747, 0.13885808, -1692735.6, -176834.47, 0.00093550276, 9.99688, 10.000247 
1.2750612e+3, 1.5531906e+2, -1593652.0, -1466484.9, -39626.36, 0.2610036, 0.19535336, -1455147.8, -37254.555, 0.00017466526, 9.998625, 10.000323 
1.2750593e+3, 1.6532017e+2, -1395063.8, -1176759.6, -81822.13, 0.29702938, 0.21536201, -1149496.8, 170384.1, 0.0000047674703, 9.998687, 10.001614 
1.2750536e+3, 1.7532118e+2, -1489389.0, -1166431.9, -8954.985, -0.022722762, 0.1188529, -1166183.9, 55681.723, 0.0, 9.997347, 10.001658 
1.2750511e+3, 1.8532208e+2, -1497095.6, -1306140.5, 29897.99, -0.07773306, 0.13378152, -1301568.8, -177712.28, 0.0, 9.997428, 9.999984 
1.2750515e+3, 1.9532265e+2, -1187578.4, -1095857.3, 15688.999, 0.116949014, 0.1578641, -1093247.9, -67392.445, 0.0, 9.9988365, 10.000073 
1.2750491e+3, 2.0532367e+2, -1001207.06, -883986.0, -31164.584, 0.11382722, 0.22402138, -876215.6, 51631.617, 0.0, 9.99913, 10.000717 
1.2750447e+3, 2.1532486e+2, -1006562.56, -830558.25, 34093.723, -0.0633679, 0.23657395, -824184.8, 5650.114, 0.0, 9.998396, 10.000764 
1.275043e+3, 2.2532487e+2, -972233.44, -904658.4, 87059.03, -0.015861832, 0.23295921, -845060.25, -113227.66, 0.0, 9.998577, 9.999499 
1.2750438e+3, 2.3532365e+2, -736185.94, -737165.8, 94358.25, 0.22809342, 0.12777524, -642316.3, -8474.83, 0.0, 9.999507, 9.999527 
1.2750418e+3, 2.4532232e+2, -624991.56, -774165.9, 27047.512, 0.24459417, 0.11216865, -620238.9, -84385.0, 0.0, 10.0002, 9.998268 
1.2750375e+3, 2.5532073e+2, -437634.1, -621315.3, 11092.787, 0.06407982, 0.09103607, -436966.6, 904.00275, 0.0, 10.000759, 9.998375 
1.2750348e+3, 2.6531932e+2, -289438.78, -503792.8, 20265.902, -0.00756178, 0.11977309, -287539.56, 52345.395, 0.00000020123079, 10.001156, 9.998308 
1.2750332e+3, 2.7531773e+2, -156374.94, -386800.16, 47168.22, 0.0066328, 0.095797054, -147093.42, 94807.234, 0.0000077157165, 10.001386, 9.998326 
1.2750316e+3, 2.8531644e+2, -83096.836, -412500.1, 8547.482, 0.018736877, 0.19431183, -82875.19, 61041.34, 0.000060411407, 10.0016775, 9.99734 
1.2750298e+3, 2.9531536e+2, 80089.56, -273396.84, -15419.048, 0.040112175, 0.30855793, 80760.87, 126694.68, 0.00024271311, 10.002086, 9.997424 
1.2750275e+3, 3.053122e+2, 114282.0, -207111.31, -125673.46, 0.08585354, 0.24662007, 157588.38, 157588.38, 0.0006224366, 10.001897, 9.997632 
1.2750238e+3, 3.153101e+2, 116938.44, 83488.445, -51266.88, 0.078000806, 0.21827507, 154139.48, 154139.48, 0.0011818967, 10.000639, 10.000221 
1.2850651e+3, 1.2532063e+2, -1942386.9, -1634883.5, 60366.703, 0.14905757, 0.3340676, -1623457.4, 88423.82, 0.0047468157, 9.997549, 10.001713 
1.2850599e+3, 1.3532005e+2, -1798380.9, -1633925.4, -66339.91, 0.062919214, 0.18754502, -1610500.9, 3383.3713, 0.0026545508, 9.998402, 10.000647 
1.2850569e+3, 1.4532115e+2, -1795026.3, -1635439.1, 71055.12, -0.08929097, 0.25822014, -1608387.8, -92513.87, 0.0010215283, 9.998009, 10.000135 
1.2850592e+3, 1.5532176e+2, -1817846.3, -1582981.0, 64772.434, 0.26305228, 0.2729029, -1566302.1, -148431.69, 0.00019628371, 9.9971285, 10.000248 
1.2850574e+3, 1.6532253e+2, -1591604.1, -1250485.9, 30041.436, 0.31468716, 0.24997917, -1247860.4, 72000.4, 0.0000059623408, 9.997241, 10.00181 
1.285052e+3, 1.7532347e+2, -1337337.4, -1068853.0, -18053.264, 0.042519365, 0.12819818, -1067644.6, 154200.5, 0.0, 9.998287, 10.001875 
1.2850496e+3, 1.8532452e+2, -1320663.6, -1186155.5, 62664.73, -0.0030307395, 0.13359182, -1161485.8, -37652.445, 0.0, 9.998501, 10.000288 
1.2850504e+3, 1.9532539e+2, -1274887.0, -1104301.1, 95428.24, 0.15987478, 0.1581509, -1061604.0, -35776.125, 0.0, 9.998104, 10.00037 
1.2850481e+3, 2.0532635e+2, -1082256.0, -923471.1, 46092.703, 0.12464841, 0.2076748, -911061.06, 16758.186, 0.0, 9.998582, 10.000711 
1.2850435e+3, 2.1532723e+2, -799450.3, -727278.56, -15471.293, -0.086026736, 0.19003583, -724101.9, 105707.64, 0.0, 9.999816, 10.000786 
1.2850422e+3, 2.253274e+2, -704774.94, -772598.6, 24518.791, -0.037344735, 0.19716261, -696839.6, 34966.746, 0.0, 10.000406, 9.999522 
1.2850438e+3, 2.3532669e+2, -602961.56, -669061.3, 14010.217, 0.24100606, 0.14345677, -600114.6, 33696.715, 0.0, 10.00042, 9.999551 
1.2850426e+3, 2.4532528e+2, -526722.9, -734604.8, 21378.912, 0.27105212, 0.12415761, -524547.0, 11277.942, 0.0, 10.000909, 9.998196 
1.2850389e+3, 2.5532314e+2, -299478.2, -561686.2, 34399.51, 0.08452507, 0.05443667, -295040.38, 142807.16, 0.0, 10.001748, 9.998303 
1.2850364e+3, 2.65322e+2, -177885.75, -442069.13, 53070.93, 0.007263855, 0.10838762, -167623.17, 172236.25, 0.00000014147287, 10.00187, 9.998396 
1.2850347e+3, 2.7532142e+2, -145863.1, -372326.75, 32787.11, 0.02235973, 0.18004619, -141211.75, 100653.055, 0.000007879153, 10.001406, 9.998423 
1.285033e+3, 2.8531983e+2, -163500.25, -475076.56, 64635.203, 0.03363495, 0.2524534, -150624.08, -6740.6265, 0.00006527563, 10.001242, 9.997117 
1.2850314e+3, 2.9531702e+2, -54367.59, -363453.94, 73069.4, 0.049881738, 0.21968418, -37964.19, 7952.449, 0.000269289, 10.001268, 9.9972 
1.2850294e+3, 3.053142e+2, 78050.5, -218724.06, 20533.676, 0.10978599, 0.2037397, 79464.48, 79464.48, 0.00069755525, 10.001614, 9.997699 
1.2850253e+3, 3.1531233e+2, 355162.97, 197597.17, 61344.953, 0.10338557, 0.19480406, 376229.72, 376229.72, 0.0013291562, 10.002224, 10.000273 
1.2950616e+3, 1.253226e+2, -2072803.4, -1896680.3, 107072.96, -0.028647518, 0.27859113, -1846107.5, -134247.22, 0.0050962004, 9.997534, 9.999917 
1.2950595e+3, 1.3532355e+2, -1849035.8, -1725479.8, -33633.91, 0.14589642, 0.35529754, -1716917.4, -103061.055, 0.0028611089, 9.998359, 10.000037 
1.2950581e+3, 1.4532481e+2, -1706572.6, -1456018.3, 17160.127, 0.19207098, 0.41159913, -1454848.4, 60995.21, 0.00111182, 9.998023, 10.001362 
1.2950544e+3, 1.553245e+2, -1736674.8, -1417170.4, 48459.223, 0.060256254, 0.21288204, -1409982.3, 7858.9927, 0.000219555, 9.997137, 10.001385 
1.2950523e+3, 1.6532493e+2, -1658877.9, -1396108.4, 52976.5, 0.04730474, 0.15259305, -1385829.9, -65995.48, 0.0000074533, 9.997263, 10.000799 
1.2950511e+3, 1.7532608e+2, -1406912.0, -1213491.5, 30666.648, 0.10376824, 0.15301187, -1208745.8, 13077.088, 0.0, 9.998286, 10.000881 
1.2950496e+3, 1.853273e+2, -1235903.3, -1009028.8, 32681.588, 0.12070459, 0.16068698, -1004414.9, 119393.39, 0.0, 9.998489, 10.001513 
1.2950483e+3, 1.9532824e+2, -1199945.0, -939839.25, 92550.19, 0.1225953, 0.06871998, -910269.8, 115524.86, 0.0, 9.998055, 10.001526 
1.295046e+3, 2.0532878e+2, -1198380.5, -1130510.9, 78114.99, 0.028794318, 0.08915801, -1079278.1, -151488.81, 0.0, 9.998445, 9.999351 
1.295043e+3, 2.1532884e+2, -920066.7, -931048.3, 40278.742, -0.14912666, 0.12447538, -884906.25, -55113.836, 0.0, 9.999623, 9.999474 
1.2950419e+3, 2.2532877e+2, -726236.4, -770975.7, 11626.878, -0.13309795, 0.16630359, -723395.2, 8399.631, 0.0, 10.000204, 9.999634 
1.2950426e+3, 2.3532839e+2, -616996.2, -658800.56, 31997.867, 0.057904437, 0.13243435, -599678.44, 34119.92, 0.0, 10.000243, 9.99971 
1.295042e+3, 2.4532774e+2, -513878.2, -651482.56, 39824.137, 0.10008962, 0.14690685, -503183.8, 32620.277, 0.0, 10.00068, 9.998872 
1.2950401e+3, 2.5532666e+2, -284530.63, -480882.63, 78174.16, 0.014979512, 0.11570657, -257208.7, 180605.45, 0.0, 10.00155, 9.998947 
1.2950383e+3, 2.6532587e+2, -210247.42, -481521.38, 22099.123, 0.00053163915, 0.18568604, -208458.92, 131363.38, 0.000000052302592, 10.0017395, 9.998193 
1.2950365e+3, 2.7532527e+2, -178645.73, -403197.47, 31772.148, 0.04658957, 0.26968527, -174236.81, 67592.39, 0.000007172051, 10.0012455, 9.998287 
1.2950341e+3, 2.8532317e+2, -142354.89, -396495.56, 54492.594, -0.001977837, 0.26844722, -131163.47, 12686.017, 0.00006969282, 10.001085, 9.997733 
1.2950313e+3, 2.953194e+2, -37515.25, -291866.3, 93619.56, -0.13621785, 0.07247922, -6772.3267, 39113.74, 0.00030090337, 10.001114, 9.997763 
1.2950295e+3, 3.0531758e+2, 83435.69, -188038.13, 32025.668, -0.069275625, 0.11787402, 87162.58, 87162.58, 0.00078645255, 10.001526, 9.997955 
1.2950268e+3, 3.1531638e+2, 319230.5, 182224.61, 120703.336, -0.034977887, 0.14361925, 389514.97, 389514.97, 0.0014985187, 10.001982, 10.000278 
1.3050598e+3, 1.2532432e+2, -2192511.8, -1953510.5, 75082.22, 0.107817635, 0.2810481, -1931880.9, -220038.14, 0.0054552136, 9.996729, 9.999911 
1.3050577e+3, 1.3532533e+2, -1904057.3, -1684365.6, 11140.903, 0.18002369, 0.31140536, -1683802.1, -69964.31, 0.003073975, 9.9977045, 10.000633 
1.3050577e+3, 1.4532672e+2, -1698869.6, -1409994.3, 62157.46, 0.3715842, 0.32921574, -1397187.5, 118635.85, 0.0012055306, 9.997885, 10.0017395 
1.3050519e+3, 1.5532748e+2, -1600462.0, -1309902.4, 6567.61, 0.055056836, 0.1968294, -1309754.0, 108056.19, 0.000244213, 9.997892, 10.001746 
1.3050495e+3, 1.6532828e+2, -1590562.3, -1394711.6, 74633.79, 0.02307114, 0.17131336, -1369512.8, -49712.08, 0.000009295233, 9.997894, 10.000499 
1.3050501e+3, 1.7532909e+2, -1461009.5, -1268753.3, 76800.25, 0.19350807, 0.16985403, -1241841.1, -20046.41, 0.0, 9.998063, 10.000605 
1.305049e+3, 1.8533021e+2, -1240182.4, -1013296.44, 65687.66, 0.21518233, 0.18259092, -995651.0, 128130.75, 0.0, 9.998452, 10.00151 
1.3050467e+3, 1.953314e+2, -1060532.1, -870998.44, 8581.985, 0.11218549, 0.11423207, -870610.6, 155154.42, 0.0, 9.999001, 10.001546 
1.3050447e+3, 2.0533168e+2, -1068018.4, -1056939.9, 55311.09, 0.026814956, 0.103160046, -1006891.4, -79130.85, 0.0, 9.9992895, 9.999452 
1.3050434e+3, 2.1533103e+2, -953402.0, -938983.06, 99820.12, -0.048848752, 0.059751485, -846112.44, -16344.234, 0.0, 9.99936, 9.999552 
1.3050427e+3, 2.2533095e+2, -842112.0, -863673.0, 111462.89, -0.042338893, 0.114835836, -740909.5, -9138.23, 0.0, 9.999561, 9.9993 
1.3050424e+3, 2.3533118e+2, -701798.1, -733888.06, 68796.375, 0.03883536, 0.17141531, -647200.5, -13428.287, 0.0, 9.999807, 9.999395 
1.305042e+3, 2.4533077e+2, -583045.4, -673248.8, 83292.14, 0.06292961, 0.21485968, -533427.8, 2349.0024, 0.0, 10.000136, 9.998988 
1.3050413e+3, 2.5532952e+2, -417949.2, -536130.4, 56204.71, 0.038666222, 0.15660343, -395488.16, 42299.082, 0.0, 10.000566, 9.999052 
1.3050401e+3, 2.6532856e+2, -309356.16, -544277.06, -13240.073, 0.041632153, 0.21274276, -308612.28, 31184.727, 0.000000026393016, 10.001134, 9.998051 
1.305038e+3, 2.7532762e+2, -99426.57, -385964.0, -36015.43, 0.05914978, 0.28255436, -94969.06, 146839.36, 0.0000066700077, 10.001862, 9.99812 
1.3050357e+3, 2.8532523e+2, 49096.633, -239218.72, 10456.966, 0.000049210783, 0.22673306, 49475.4, 193305.08, 0.00007506801, 10.002121, 9.998311 
1.3050328e+3, 2.953213e+2, 142168.67, -145547.27, 15047.462, -0.12877043, -0.04000295, 142953.52, 188815.69, 0.00033560226, 10.002085, 9.998301 
1.3050318e+3, 3.0532032e+2, 198279.05, -163186.56, -13126.944, -0.042193435, 0.07549985, 198755.14, 198755.14, 0.0008831013, 10.002453, 9.997674 
1.3050294e+3, 3.1531948e+2, 438013.2, 157352.55, -29783.557, -0.024590228, 0.1745674, 441138.97, 441138.97, 0.001684596, 10.003141, 9.999556 
1.3150574e+3, 1.2532516e+2, -2053870.0, -1684777.0, -86086.13, 0.14062843, 0.253245, -1665686.0, 46149.074, 0.005819013, 9.996787, 10.00174 
1.3150544e+3, 1.3532563e+2, -1782895.9, -1440044.5, 57936.88, 0.054787923, 0.059108093, -1430518.8, 183308.1, 0.0032902497, 9.997724, 10.002311 
1.3150555e+3, 1.4532702e+2, -1724343.6, -1465038.8, 39078.434, 0.31167033, 0.012716025, -1459277.4, 56534.734, 0.0013013786, 9.997904, 10.00135 
1.315051e+3, 1.5533082e+2, -1632331.9, -1373084.9, 15926.991, 0.14982405, 0.2299961, -1372110.0, 45665.992, 0.00026992275, 9.997882, 10.00132 
1.3150488e+3, 1.653326e+2, -1559236.1, -1342676.9, 64099.414, 0.1340329, 0.30574796, -1325126.4, -5366.922, 0.00001153221, 9.997934, 10.000843 
1.3150486e+3, 1.7533241e+2, -1432969.1, -1219984.9, 93350.57, 0.21481168, 0.167716, -1184861.6, 36899.91, 0.0, 9.99809, 10.000931 
1.3150473e+3, 1.8533327e+2, -1329340.0, -1186321.0, 71698.27, 0.1701674, 0.1953505, -1156567.1, -32813.344, 0.0, 9.998407, 10.000339 
1.315045e+3, 1.9533482e+2, -1149194.6, -1036275.56, 39246.277, 0.02315295, 0.28215215, -1023975.0, 1764.3181, 0.0, 9.998921, 10.000447 
1.315044e+3, 2.0533508e+2, -979566.2, -844118.3, 45994.227, 0.00995636, 0.2416167, -829976.5, 97756.37, 0.0, 9.999166, 10.000972 
1.3150446e+3, 2.1533392e+2, -873970.44, -743769.8, 115958.16, 0.11478141, -0.00316001, -675887.6, 153848.22, 0.0, 9.999219, 10.000964 
1.315044e+3, 2.2533402e+2, -926021.44, -990472.2, 109484.914, 0.12420533, 0.04127071, -844117.9, -112382.5, 0.0, 9.999368, 9.99852 
1.3150427e+3, 2.3533502e+2, -783665.94, -862731.44, 93483.836, 0.06971348, 0.2542094, -721699.56, -87966.06, 0.0, 9.999634, 9.998596 
1.3150421e+3, 2.4533425e+2, -637025.8, -742788.06, 86413.87, 0.04251764, 0.32473913, -588596.6, -52852.977, 0.0, 9.999952, 9.998601 
1.3150422e+3, 2.553319e+2, -471018.13, -603511.2, 86463.79, 0.041736476, 0.19197582, -428339.97, 9424.918, 0.0, 10.000382, 9.998678 
1.3150413e+3, 2.6533017e+2, -347799.0, -586344.3, 2543.442, 0.01135331, 0.19895793, -347771.88, -7989.0, 0.000000066602475, 10.000972, 9.997838 
1.3150391e+3, 2.7532864e+2, -138318.02, -423778.22, 8985.654, -0.05176474, 0.22894675, -138035.45, 103765.984, 0.0000067822207, 10.001694, 9.997932 
1.3150373e+3, 2.8532618e+2, 73188.89, -173488.38, -2579.125, -0.06931641, 0.15066817, 73215.85, 217037.47, 0.000081610815, 10.002037, 9.998813 
1.315036e+3, 2.9532275e+2, 150728.22, -89510.04, 34688.87, -0.045182165, -0.11982098, 155636.77, 201481.27, 0.0003693932, 10.001916, 9.998772 
1.3150355e+3, 3.0532235e+2, 109192.03, -314988.4, 5659.687, 0.064404495, 0.08218362, 109267.53, 109267.53, 0.00097588636, 10.002314, 9.996692 
1.3150322e+3, 3.1532198e+2, 291439.13, -72289.43, 26877.586, -0.10260089, 0.32017878, 293414.5, 293414.5, 0.0018645464, 10.002844, 9.998105 
1.3250554e+3, 1.2532786e+2, -2026023.6, -1591808.5, 48397.727, 0.2790522, 0.17500022, -1586479.5, 125327.28, 0.006183249, 9.996594, 10.002485 
1.3250521e+3, 1.3532954e+2, -1975424.9, -1487918.3, 133060.1, 0.13112761, 0.061276954, -1453965.5, 159818.23, 0.0035072896, 9.996232, 10.002682 
1.3250521e+3, 1.4533044e+2, -1969826.4, -1646274.3, 100830.7, 0.27098322, -0.02277103, -1617424.1, -101650.27, 0.0013982238, 9.9964905, 10.000791 
1.3250493e+3, 1.5533338e+2, -1676981.4, -1452565.5, 46794.72, 0.20320953, 0.16251798, -1443198.9, -25450.092, 0.00029637254, 9.997825, 10.000805 
1.3250478e+3, 1.6533521e+2, -1497928.5, -1293505.3, 87244.34, 0.22209108, 0.2592429, -1261333.9, 58399.02, 0.000014169166, 9.99828, 10.001004 
1.325047e+3, 1.753358e+2, -1432457.6, -1208155.9, 73450.59, 0.24188551, 0.18473269, -1186244.1, 35482.996, 0.0, 9.998044, 10.001031 
1.3250457e+3, 1.8533652e+2, -1376240.6, -1259534.5, 119610.12, 0.17715684, 0.21930857, -1184802.4, -61081.242, 0.0, 9.998311, 9.999881 
1.3250442e+3, 1.9533718e+2, -1160489.0, -1092100.0, 111310.375, 0.052745022, 0.26216912, -1009850.25, 15866.702, 0.0, 9.999065, 9.999992 
1.3250439e+3, 2.0533726e+2, -935489.2, -836596.0, 81429.97, 0.05843404, 0.23287442, -790775.56, 136937.31, 0.0, 9.999522, 10.000851 
1.3250445e+3, 2.1533667e+2, -807584.25, -720414.25, 7856.443, 0.17149474, 0.054236904, -719711.8, 109998.87, 0.0, 9.99972, 10.000877 
1.3250443e+3, 2.2533667e+2, -813671.06, -932198.25, 12628.037, 0.1853878, 0.09172706, -812340.56, -80630.58, 0.0, 10.000127, 9.998559 
1.3250434e+3, 2.35337e+2, -620092.44, -772184.44, 33687.492, 0.13034596, 0.23461674, -612964.9, 20747.318, 0.0, 10.000722, 9.998691 
1.3250431e+3, 2.4533585e+2, -517484.75, -700616.25, 81227.125, 0.105331376, 0.26787034, -486648.97, 49076.523, 0.0, 10.000843, 9.998463 
1.3250431e+3, 2.5533321e+2, -459487.06, -610387.44, 72029.33, 0.09876852, 0.12307337, -430625.44, 7124.5723, 0.0, 10.000523, 9.998562 
1.3250424e+3, 2.6533163e+2, -354493.72, -573967.8, 63915.9, 0.04091446, 0.14332356, -337236.8, 2530.3745, 0.0000000978673, 10.000871, 9.997966 
1.3250406e+3, 2.7533063e+2, -103872.96, -393373.97, 66297.055, -0.069236, 0.21364127, -89412.89, 152368.25, 0.000006920427, 10.001873, 9.9980545 
1.3250397e+3, 2.853285e+2, 98279.4, -180874.25, 33852.07, -0.058752142, 0.17714171, 102325.875, 246124.3, 0.000086783395, 10.002318, 9.998616 
1.3250391e+3, 2.9532537e+2, 209123.19, -83972.94, -21210.459, 0.056113224, -0.042034257, 210650.17, 256470.0, 0.00039493892, 10.002421, 9.998562 
1.3250391e+3, 3.0532417e+2, 210146.28, -319396.9, 17905.592, 0.16780248, 0.1110379, 210751.03, 210751.03, 0.0010490068, 10.003244, 9.996214 
1.3250358e+3, 3.1532288e+2, 475247.72, -83787.04, 6038.0986, -0.095197536, 0.31120768, 475312.94, 475312.94, 0.0020086237, 10.004519, 9.997231 
1.3350502e+3, 1.2533285e+2, -2028675.3, -1605911.4, 8402.462, 0.031487264, 0.07318575, -1605744.4, 106009.48, 0.0065457188, 9.996623, 10.0023775 
1.3350505e+3, 1.3533702e+2, -2044532.8, -1637716.8, 120629.164, 0.31386742, 0.30443576, -1604637.5, 9071.466, 0.0037237175, 9.996251, 10.001643 
1.3350475e+3, 1.453368e+2, -2007850.8, -1734042.0, 130535.5, 0.11722304, 0.19533616, -1681784.3, -166073.81, 0.0014951822, 9.996518, 10.000182 
1.3350464e+3, 1.5533528e+2, -1710640.0, -1530614.3, 107690.29, 0.11239842, -0.009356261, -1480272.1, -62544.875, 0.00032323142, 9.997848, 10.000265 
1.3350458e+3, 1.6533627e+2, -1509244.6, -1314953.1, 63707.035, 0.17359208, 0.038563546, -1295927.1, 23792.016, 0.000017128494, 9.998273, 10.000858 
1.3350447e+3, 1.7533933e+2, -1442953.5, -1227869.9, 78064.22, 0.18012881, 0.221352, -1202523.5, 19166.7, 0.00000000003443261, 9.998037, 10.000897 
1.3350438e+3, 1.8534005e+2, -1364576.6, -1237838.9, 132878.67, 0.13349253, 0.2527481, -1153992.5, -30309.283, 0.0, 9.998312, 10.000036 
1.335044e+3, 1.9533844e+2, -1161343.8, -1082473.5, 148803.2, 0.100249834, 0.056286663, -967968.6, 57729.055, 0.0, 9.999004, 10.000094 
1.3350438e+3, 2.0533825e+2, -1073149.4, -1092819.0, 73967.11, 0.066655666, 0.08250162, -1008366.1, -80665.95, 0.0, 9.999395, 9.999154 
1.335043e+3, 2.1533912e+2, -944799.5, -971370.0, 26228.703, 0.021938246, 0.21905111, -928683.3, -98989.55, 0.0, 9.999564, 9.999236 
1.3350432e+3, 2.2533874e+2, -776081.25, -813538.8, 25230.1, 0.032937724, 0.25185078, -763388.3, -31691.873, 0.0, 9.999949, 9.999456 
1.3350442e+3, 2.3533715e+2, -583842.06, -661382.06, 69621.27, 0.11213523, 0.11117095, -542923.7, 90784.26, 0.0, 10.000561, 9.999531 
1.3350445e+3, 2.4533549e+2, -534778.94, -696284.7, 56417.793, 0.12859233, 0.04675587, -517022.97, 18699.58, 0.0, 10.000675, 9.998569 
1.3350438e+3, 2.5533348e+2, -474781.03, -608005.94, 74645.94, 0.09144876, -0.046892278, -441347.3, -3604.7126, 0.0, 10.000379, 9.998644 
1.3350432e+3, 2.653329e+2, -342091.53, -522907.1, 88951.63, 0.01548299, 0.05327377, -305668.88, 34081.313, 0.00000008871969, 10.000757, 9.998372 
1.3350424e+3, 2.7533343e+2, -101090.93, -347214.94, 119073.61, -0.10104928, 0.22811711, -52913.973, 188834.75, 0.000006673535, 10.001702, 9.998452 
1.3350418e+3, 2.8533217e+2, 6415.2114, -338288.2, 22224.28, -0.09249995, 0.30851945, 7842.184, 151603.53, 0.00008871381, 10.002172, 9.997605 
1.3350418e+3, 2.9532924e+2, 116280.086, -237874.02, 4306.401, 0.04787219, 0.20848791, 116332.445, 162120.36, 0.0004076121, 10.002254, 9.997587 
1.3350424e+3, 3.0532593e+2, 196671.13, -313158.03, 63806.742, 0.13604167, 0.19495355, 204535.44, 204535.44, 0.0010927352, 10.003106, 9.996319 
1.3350397e+3, 3.153219e+2, 412670.16, -143144.17, 85673.38, -0.20979318, 0.11132269, 425576.2, 425576.2, 0.0021020353, 10.004222, 9.996965 
1.3450466e+3, 1.253368e+2, -2008192.3, -1680475.8, 7332.177, -0.006735827, 0.050705977, -1680311.8, 31398.133, 0.0069055543, 9.997143, 10.001607 
1.3450485e+3, 1.3534002e+2, -1858584.6, -1682220.1, -38589.23, 0.4161555, 0.30847698, -1674146.3, -60466.67, 0.0039389143, 9.998112, 10.000446 
1.3450442e+3, 1.4533971e+2, -1799276.5, -1606898.3, 34552.223, 0.08139983, 0.23919898, -1600880.6, -85197.45, 0.0015916337, 9.997839, 10.000416 
1.3450447e+3, 1.5533815e+2, -1754050.9, -1524342.3, 47249.24, 0.17856546, 0.0044256174, -1515003.1, -97304.81, 0.0003501717, 9.997444, 10.000497 
1.3450445e+3, 1.6533881e+2, -1600627.8, -1415773.9, 46658.277, 0.23450054, 0.03504871, -1404664.6, -84971.55, 0.000020254476, 9.997891, 10.000352 
1.3450426e+3, 1.7534128e+2, -1337804.8, -1229082.4, 4235.1636, 0.12552965, 0.20989083, -1228917.6, -7246.0186, 0.0000000014653116, 9.99899, 10.000427 
1.3450423e+3, 1.853418e+2, -1217285.5, -1151557.3, 58885.676, 0.09947585, 0.24006261, -1116985.8, 6680.682, 0.0, 9.999268, 10.00016 
1.3450438e+3, 1.9534044e+2, -1164189.6, -1069669.1, 49240.65, 0.19032559, 0.051365554, -1048678.5, -23000.98, 0.0, 9.998937, 10.000206 
1.3450441e+3, 2.0534013e+2, -1105808.1, -1168073.3, 64426.656, 0.16831176, 0.089711756, -1065386.3, -137704.67, 0.0, 9.999425, 9.998627 
1.345043e+3, 2.1534067e+2, -829288.1, -963330.94, 75328.34, 0.03185418, 0.2429666, -795481.8, 34198.746, 0.0, 10.000576, 9.998795 
1.3450432e+3, 2.2533989e+2, -648343.56, -737873.5, 83907.586, 0.016288593, 0.250907, -598006.56, 133680.27, 0.0, 10.000769, 9.999579 
1.3450445e+3, 2.353378e+2, -634638.25, -670797.75, 47813.867, 0.12131776, 0.049299937, -601600.06, 32101.104, 0.0, 10.000156, 9.999657 
1.345045e+3, 2.453364e+2, -550706.94, -710506.3, 45661.336, 0.12585022, 0.008897846, -538579.9, -2866.274, 0.0, 10.000605, 9.998507 
1.3450444e+3, 2.553354e+2, -244932.84, -499146.56, 25914.424, 0.043094076, 0.020459954, -242318.05, 195408.42, 0.0, 10.001981, 9.99862 
1.3450444e+3, 2.653349e+2, -117663.195, -380046.72, 39489.4, -0.011717783, 0.11237138, -111848.78, 227883.97, 0.000000062099474, 10.0021515, 9.998684 
1.3450444e+3, 2.7533457e+2, -135446.06, -331028.38, 28879.293, -0.04313179, 0.1739236, -131270.94, 110465.05, 0.0000065347235, 10.001317, 9.998749 
1.3450444e+3, 2.8533328e+2, -97858.305, -428319.94, 9256.005, -0.035459585, 0.25636432, -97599.25, 46149.97, 0.00008986311, 10.001617, 9.99726 
1.3450441e+3, 2.953313e+2, 195014.52, -223401.52, 3096.2056, 0.022712095, 0.28485286, 195037.42, 240807.75, 0.00041355038, 10.002905, 9.997367 
1.3450451e+3, 3.0532756e+2, 299988.47, -229787.16, 125793.79, 0.090272635, 0.21908806, 328340.53, 328340.53, 0.0011132387, 10.003641, 9.996651 
1.3450441e+3, 3.1532347e+2, 369720.03, -111186.46, 91155.37, -0.16799222, 0.095937215, 386418.6, 386418.6, 0.0021484285, 10.003708, 9.997423 
1.3550457e+3, 1.2533958e+2, -2116014.0, -1894232.4, 231017.53, 0.13585015, 0.07386854, -1748869.6, -37193.418, 0.0072628423, 9.997129, 10.000138 
1.3550462e+3, 1.3533866e+2, -1951825.4, -1878524.0, -9174.389, 0.3344804, 0.06311948, -1877393.1, -263699.03, 0.004152666, 9.998129, 9.999093 
1.355042e+3, 1.4533935e+2, -1734576.1, -1468457.3, -1718.6638, 0.040878873, 0.11313301, -1468446.1, 47244.105, 0.0016872559, 9.99782, 10.001373 
1.3550436e+3, 1.5534197e+2, -1687137.0, -1389887.8, 48621.563, 0.2889953, 0.19496676, -1382136.8, 35525.336, 0.0003769789, 9.997457, 10.001414 
1.3550434e+3, 1.653427e+2, -1657447.9, -1538378.1, 72646.336, 0.29539284, 0.22980511, -1503988.1, -184331.75, 0.000023370363, 9.997909, 9.999505 
1.3550404e+3, 1.7534158e+2, -1400267.4, -1352655.9, 54185.625, -0.009770925, 0.13408153, -1317277.3, -95605.33, 0.0000000068048798, 9.998959, 9.999598 
1.3550404e+3, 1.8534186e+2, -1219442.1, -1141103.9, 31247.293, -0.038532488, 0.17405611, -1130167.0, -6496.4116, 0.0, 9.9992075, 10.0002575 
1.3550432e+3, 1.9534312e+2, -1166200.9, -1059089.4, 51875.0, 0.21673304, 0.23843907, -1038084.9, -12428.167, 0.0, 9.998871, 10.000311 
1.3550445e+3, 2.0534289e+2, -1081253.6, -1087051.0, 93164.4, 0.25694868, 0.24806814, -990942.8, -63285.77, 0.0, 9.9993, 9.99924 
1.3550445e+3, 2.1534128e+2, -817737.3, -895749.2, 127475.164, 0.10424582, 0.12492839, -723433.9, 106237.07, 0.0, 10.000387, 9.999351 
1.3550444e+3, 2.2534002e+2, -723840.1, -845198.8, 45334.645, 0.037031963, 0.090968244, -708775.06, 22907.033, 0.0, 10.000556, 9.998945 
1.3550442e+3, 2.3533891e+2, -702757.3, -772667.25, 38673.277, 0.05336713, 0.048675302, -685582.9, -51890.625, 0.0, 9.999988, 9.999039 
1.3550444e+3, 2.4533859e+2, -590276.5, -753161.7, 84467.055, -0.007819872, 0.15937842, -554383.75, -18685.426, 0.0, 10.000431, 9.9983 
1.3550448e+3, 2.5533885e+2, -283873.7, -538658.44, 89710.07, -0.14613742, 0.31469676, -255456.2, 182246.19, 0.0, 10.001803, 9.998435 
1.3550454e+3, 2.6533735e+2, -128426.55, -366982.06, -5215.7197, -0.14433466, 0.30751908, -128312.57, 211404.03, 0.000000036385206, 10.001997, 9.99885 
1.3550463e+3, 2.75334e+2, -150748.53, -323648.7, 17212.094, -0.008769987, 0.055259254, -149051.73, 92691.03, 0.0000068750182, 10.001152, 9.998881 
1.3550463e+3, 2.85332e+2, -95992.09, -395044.56, 46478.33, -0.01807543, 0.04292195, -88935.03, 54825.586, 0.00009120505, 10.001489, 9.99755 
1.3550454e+3, 2.953312e+2, 191551.38, -196050.13, 70572.74, -0.15224887, 0.16229132, 204001.06, 249771.94, 0.00041555686, 10.0027485, 9.997637 
1.3550472e+3, 3.0532864e+2, 311825.22, -159501.5, 115963.09, -0.09433523, 0.17109166, 338811.16, 338811.16, 0.0011140582, 10.003461, 9.997212 
1.3550478e+3, 3.153268e+2, 393409.63, 11518.246, 117714.04, -0.22037344, 0.21644819, 426778.13, 426778.13, 0.0021475272, 10.003405, 9.998407 
1.365043e+3, 1.2533955e+2, -2094163.4, -1833743.3, 174785.75, 0.1710429, 0.057242323, -1745997.5, -34322.31, 0.0076198755, 9.997057, 10.000587 
1.3650417e+3, 1.3533884e+2, -2171035.3, -1902890.0, -48611.473, 0.18851446, -0.011279403, -1894349.3, -280657.72, 0.004366158, 9.99625, 9.99984 
1.3650396e+3, 1.4534049e+2, -1929514.1, -1544467.4, 61710.406, 0.10177774, 0.08968922, -1534819.0, -19140.313, 0.0017823466, 9.996407, 10.00153 
1.3650413e+3, 1.5534386e+2, -1609074.6, -1337062.4, 27636.104, 0.29842412, 0.23389517, -1334282.9, 83360.78, 0.0004035849, 9.997933, 10.001542 
1.3650414e+3, 1.653445e+2, -1578400.4, -1504008.8, 76062.71, 0.2862376, 0.25697783, -1456534.3, -136895.66, 0.000026350568, 9.99845, 9.999487 
1.3650392e+3, 1.7534275e+2, -1519925.5, -1410397.4, 91084.6, 0.011321055, 0.09586783, -1358881.1, -137221.06, 0.000000016360648, 9.998135, 9.999601 
1.3650395e+3, 1.85343e+2, -1332211.4, -1230041.6, 114419.625, -0.017114691, 0.14952312, -1155820.9, -32161.4, 0.0, 9.998574, 9.999956 
1.3650422e+3, 1.9534484e+2, -1065908.8, -1037857.44, 78372.11, 0.19691904, 0.2989314, -972265.8, 53375.62, 0.0, 9.999681, 10.000066 
1.3650441e+3, 2.0534456e+2, -963137.0, -1002132.75, 113397.23, 0.25560534, 0.29968223, -867573.56, 60068.555, 0.0, 9.999986, 9.999493 
1.365045e+3, 2.1534228e+2, -914119.5, -916647.9, 96032.4, 0.16857395, 0.087046415, -819342.94, 10317.7295, 0.0, 9.999611, 9.999581 
1.3650452e+3, 2.2534104e+2, -843873.25, -940327.8, 34858.113, 0.097265035, 0.05907635, -832594.6, -100922.14, 0.0, 9.999889, 9.998617 
1.3650443e+3, 2.353405e+2, -620448.06, -771379.94, 21476.13, 0.03534671, 0.1091847, -617451.75, 16228.087, 0.0, 10.000703, 9.998714 
1.3650444e+3, 2.4534047e+2, -535754.3, -682545.8, 132104.64, -0.046733696, 0.24440365, -458025.72, 77657.74, 0.0, 10.000623, 9.998688 
1.3650455e+3, 2.5534075e+2, -544080.5, -622897.25, 151217.52, -0.1576405, 0.36472046, -427220.66, 10464.697, 0.0, 9.999841, 9.998799 
1.3650468e+3, 2.6533905e+2, -351758.94, -514183.94, 99959.53, -0.13117614, 0.33633354, -304179.44, 35521.168, 0.000000033203506, 10.000636, 9.998492 
1.3650484e+3, 2.753354e+2, 75211.26, -247846.94, 53841.805, 0.018135719, 0.08333226, 83948.39, 325678.13, 0.0000069323874, 10.0028515, 9.998577 
1.365049e+3, 2.8533286e+2, 167213.8, -306214.44, 59205.0, 0.011804088, 0.049769975, 174505.42, 318258.34, 0.000089487476, 10.003491, 9.997185 
1.3650486e+3, 2.9533133e+2, 192485.39, -227024.89, 7730.23, -0.12078332, 0.1338047, 192627.78, 238398.69, 0.00040599646, 10.002907, 9.99734 
1.3650502e+3, 3.0532882e+2, 251415.16, -147481.1, 52546.21, -0.090651564, 0.14482884, 258220.89, 258220.89, 0.0010861106, 10.002869, 9.997588 
1.3650514e+3, 3.1532806e+2, 399686.6, 104650.76, -28812.31, -0.17243181, 0.26797724, 402474.0, 402474.0, 0.0020927999, 10.003031, 9.999252 
1.3750409e+3, 1.2533644e+2, -1937497.1, -1517800.4, 37711.605, 0.1830484, -0.02712121, -1514438.8, 197270.67, 0.0079810945, 9.997094, 10.002743 
1.3750346e+3, 1.353404e+2, -1966550.9, -1486219.4, -74246.016, -0.17310397, 0.07880545, -1475004.9, 138668.2, 0.0045821774, 9.996267, 10.002696 
1.3750368e+3, 1.4534305e+2, -1968547.6, -1632511.9, 93683.4, 0.15248568, 0.1669518, -1608158.8, -92509.8, 0.0018779465, 9.996433, 10.000916 
1.3750376e+3, 1.5534377e+2, -1656192.6, -1434154.9, 94136.445, 0.107603624, 0.11454109, -1399616.8, 18026.766, 0.00043006244, 9.997928, 10.000879 
1.3750382e+3, 1.6534434e+2, -1517866.8, -1380798.5, 45902.254, 0.0877585, 0.12080916, -1366846.6, -47207.49, 0.000029160963, 9.998454, 10.000335 
1.3750382e+3, 1.7534482e+2, -1460398.9, -1289942.8, 92103.51, 0.076475956, 0.09656934, -1249684.3, -28048.605, 0.000000027808229, 9.998136, 10.000433 
1.3750389e+3, 1.853453e+2, -1382824.5, -1329236.0, 140383.0, 0.04992902, 0.16710539, -1213113.0, -89480.6, 0.0, 9.998554, 9.999285 
1.3750406e+3, 1.9534552e+2, -1129700.9, -1147158.1, 127384.96, 0.031636167, 0.22536172, -1010745.9, 14886.619, 0.0, 9.999579, 9.999368 
1.3750423e+3, 2.0534502e+2, -986180.3, -1017959.44, 85121.945, 0.05118226, 0.24094003, -915477.6, 12160.144, 0.0, 9.999847, 9.999452 
1.3750443e+3, 2.1534376e+2, -944435.2, -937881.4, 96131.125, 0.110551454, 0.13305809, -844971.3, -15322.457, 0.0, 9.99943, 9.999523 
1.375045e+3, 2.2534303e+2, -878229.75, -963778.06, 52004.195, 0.076288626, 0.16632542, -853668.44, -122011.78, 0.0, 9.999686, 9.99855 
1.3750444e+3, 2.353426e+2, -652914.25, -789000.5, 64337.348, -0.04400552, 0.23083454, -627313.56, 6349.87, 0.0, 10.000498, 9.998686 
1.3750447e+3, 2.45342e+2, -497869.53, -566939.8, 85598.03, -0.101224385, 0.26437807, -440102.47, 95566.75, 0.0, 10.000453, 9.999568 
1.375046e+3, 2.5534114e+2, -505504.66, -510398.88, 136467.23, -0.093957394, 0.18057644, -371462.6, 66212.53, 0.0, 9.999696, 9.999645 
1.3750482e+3, 2.653401e+2, -428490.75, -642616.4, 171030.94, -0.08336076, 0.21765293, -333776.38, 5907.58, 0.000000022673568, 10.000504, 9.997673 
1.3750507e+3, 2.753385e+2, -9233.398, -381162.6, 148622.28, -0.07174734, 0.2544216, 42859.59, 284558.1, 0.0000066245593, 10.00268, 9.997742 
1.3750522e+3, 2.8533566e+2, 86824.83, -450051.16, 20617.305, -0.05522174, 0.28000274, 87615.42, 231343.05, 0.000084736, 10.003383, 9.996253 
1.375053e+3, 2.9533172e+2, 102944.58, -370720.7, 7702.096, -0.011692265, 0.21306957, 103069.79, 148839.53, 0.00038240643, 10.002718, 9.996449 
1.375054e+3, 3.0532813e+2, 233272.22, -142425.72, 55805.94, -0.031689193, 0.15216126, 241386.34, 241386.34, 0.0010237873, 10.002697, 9.997696 
1.375054e+3, 3.1532654e+2, 378669.22, 156400.84, 16250.629, -0.2691521, 0.18559103, 379851.06, 379851.06, 0.0019802407, 10.002656, 9.999772 
1.3850366e+3, 1.2533577e+2, -2424265.0, -1700262.3, 70870.66, 0.22263403, 0.0055482723, -1693390.1, 18327.822, 0.008351057, 9.993565, 10.003173 
1.3850299e+3, 1.3534096e+2, -1947010.3, -1384114.1, -120891.95, -0.26453772, 0.1562323, -1359248.9, 254419.06, 0.004803759, 9.996023, 10.00351 
1.3850345e+3, 1.4534362e+2, -1897534.0, -1595102.8, 23314.535, 0.25195205, 0.20075093, -1593315.9, -77672.72, 0.0019753822, 9.996901, 10.000953 
1.3850343e+3, 1.5534356e+2, -1824924.3, -1511514.4, 45592.402, 0.04705032, 0.07148979, -1505016.6, -87371.48, 0.00045665295, 9.996752, 10.000917 
1.3850352e+3, 1.6534443e+2, -1679880.9, -1446392.4, 18415.908, 0.011588622, 0.09995587, -1444948.8, -125310.125, 0.00003186285, 9.997319, 10.00042 
1.3850372e+3, 1.7534609e+2, -1382161.5, -1240769.5, -26346.785, 0.13509858, 0.18370694, -1236019.6, -14394.942, 0.000000039188958, 9.998641, 10.000523 
1.3850385e+3, 1.8534635e+2, -1333950.3, -1298275.3, 39428.12, 0.13207272, 0.22306298, -1272837.5, -149214.58, 0.0, 9.99885, 9.999357 
1.3850392e+3, 1.9534521e+2, -1309736.9, -1218776.5, 62837.777, 0.007161792, 0.13632786, -1186687.1, -161053.77, 0.0, 9.998282, 9.999493 
1.3850409e+3, 2.053448e+2, -1192514.8, -1133484.3, 77636.32, -0.0011967905, 0.16200955, -1079942.0, -152303.8, 0.0, 9.998503, 9.999305 
1.3850437e+3, 2.1534492e+2, -947549.9, -954290.25, 54234.387, 0.10136891, 0.20419534, -896581.06, -66941.68, 0.0, 9.999467, 9.9994 
1.385045e+3, 2.2534443e+2, -794693.56, -912854.6, 56715.09, 0.09265021, 0.26058817, -771877.1, -40232.008, 0.0, 10.000199, 9.998661 
1.3850453e+3, 2.3534322e+2, -590948.2, -749891.7, 53673.688, -0.018613627, 0.23661286, -574520.94, 59136.203, 0.0, 10.000869, 9.99878 
1.3850461e+3, 2.4534197e+2, -416647.25, -589289.6, 18880.21, -0.054381527, 0.22928813, -414606.63, 121061.81, 0.0, 10.001289, 9.998999 
1.3850474e+3, 2.553406e+2, -269594.34, -457345.0, -70928.54, -0.028874384, 0.15193762, -245811.55, 191868.33, 0.0, 10.00158, 9.999092 
1.3850498e+3, 2.6533923e+2, -244744.9, -591512.6, 12276.274, -0.03027513, 0.20144269, -244310.84, 95381.95, 0.0000000049794013, 10.001928, 9.997336 
1.3850532e+3, 2.7533758e+2, -67477.11, -445105.44, -854.94714, -0.058470868, 0.26501402, -67475.17, 174234.34, 0.0000064670485, 10.00242, 9.997432 
1.3850552e+3, 2.8533477e+2, -5981.4023, -469457.97, -98037.27, -0.039890587, 0.2964114, 13902.928, 157641.06, 0.00007993784, 10.002621, 9.996498 
1.3850558e+3, 2.9533085e+2, 118429.6, -325320.38, -58492.15, 0.032990657, 0.20580444, 126010.15, 171788.2, 0.00035406946, 10.002659, 9.996785 
1.385057e+3, 3.0532756e+2, 218991.5, -199635.27, 52856.914, 0.009291372, 0.17722942, 225562.22, 225562.22, 0.00094641367, 10.002789, 9.997268 
1.3850579e+3, 3.1532484e+2, 381139.06, 128871.13, -68037.625, -0.14115313, 0.13777341, 398319.06, 398319.06, 0.0018394237, 10.002754, 9.999542 
1.3950278e+3, 1.2533663e+2, -2513673.3, -1880983.6, -97245.65, -0.06364471, 0.05492329, -1866374.1, -154664.16, 0.008733579, 9.993549, 10.001937 
1.3950269e+3, 1.3534057e+2, -2035525.1, -1566405.1, -22659.348, -0.18446462, 0.20978335, -1565313.1, 48362.76, 0.005033633, 9.996022, 10.002251 
1.395032e+3, 1.453424e+2, -1841269.3, -1486619.3, -4875.7876, 0.27375326, 0.19421011, -1486552.3, 29107.09, 0.002076125, 9.996934, 10.001681 
1.3950308e+3, 1.5534341e+2, -1779734.0, -1413482.0, 55342.89, -0.014564434, 0.09801796, -1405302.1, 12345.333, 0.00048381835, 9.996732, 10.001601 
1.395032e+3, 1.6534479e+2, -1733375.3, -1560817.4, 49967.816, -0.07298847, 0.1848119, -1547392.6, -227755.56, 0.000034571214, 9.997329, 9.999633 
1.3950357e+3, 1.7534637e+2, -1443403.0, -1356306.1, 29563.96, 0.097506404, 0.34264082, -1347219.1, -125590.25, 0.00000005013657, 9.99859, 9.999756 
1.3950375e+3, 1.853461e+2, -1265042.3, -1152215.4, -332.83575, 0.11797467, 0.31504697, -1152214.4, -28583.734, 0.0, 9.9988365, 10.000365 
1.3950378e+3, 1.9534403e+2, -1255722.0, -1087748.4, 52636.473, 0.013496265, 0.035932, -1072617.1, -46974.164, 0.0, 9.9981985, 10.000437 
1.3950396e+3, 2.0534405e+2, -1224520.9, -1173256.4, 99238.75, -0.013337521, 0.070271775, -1096393.0, -168750.55, 0.0, 9.998387, 9.999087 
1.3950425e+3, 2.1534579e+2, -990797.75, -1000389.0, 100961.125, 0.03074267, 0.29901186, -894518.44, -64886.355, 0.0, 9.999283, 9.99917 
1.3950449e+3, 2.2534524e+2, -793766.44, -878972.4, 68208.46, 0.031964295, 0.34465215, -755949.2, -24311.549, 0.0, 10.000046, 9.998973 
1.3950466e+3, 2.3534255e+2, -597274.25, -727896.94, 92400.25, 0.0078113154, 0.13908567, -549433.56, 84225.25, 0.0, 10.00071, 9.999012 
1.3950479e+3, 2.4534062e+2, -582846.06, -897516.3, 15941.49, -0.022468, 0.15667851, -582040.5, -46361.867, 0.0, 10.00113, 9.99696 
1.3950488e+3, 2.553391e+2, -439934.75, -764374.3, -45281.465, -0.05965998, 0.26979303, -433733.44, 3966.4841, 0.0, 10.001387, 9.997074 
1.3950515e+3, 2.6533645e+2, -256745.1, -583292.3, 17973.232, -0.06877424, 0.28649205, -255758.83, 83968.56, 0.0000000011462398, 10.001783, 9.997464 
1.3950561e+3, 2.753328e+2, -83364.375, -435059.0, 34716.16, -0.04485303, 0.1312573, -79970.26, 161790.8, 0.0000063015364, 10.002232, 9.997596 
1.3950579e+3, 2.8533038e+2, 64035.867, -286316.9, -108096.75, -0.06553789, 0.12647663, 94703.29, 238485.52, 0.00007549819, 10.002458, 9.997833 
1.3950574e+3, 2.9532868e+2, 177805.0, -164629.17, -37488.387, -0.11554126, 0.12567075, 181861.05, 227657.56, 0.0003302392, 10.002497, 9.997969 
1.395059e+3, 3.0532697e+2, 144458.13, -317363.16, 38516.465, -0.09423951, 0.23913763, 147648.4, 147648.4, 0.00088409375, 10.002635, 9.996528 
1.3950624e+3, 3.1532335e+2, 260421.55, -30110.012, -29520.666, -0.011600135, 0.17783983, 263390.78, 263390.78, 0.0017247383, 10.002379, 9.998623 
1.4050213e+3, 1.2533578e+2, -2530099.5, -1876898.1, -162890.88, -0.056219224, 0.08139303, -1838531.1, -126811.766, 0.009133226, 9.993337, 10.002088 
1.405024e+3, 1.353391e+2, -2095493.4, -1609836.9, 31291.738, -0.047477737, 0.18284413, -1607829.0, 5859.5933, 0.005275387, 9.995654, 10.002138 
1.4050284e+3, 1.4534058e+2, -1918393.3, -1530904.1, 309.64026, 0.25998423, 0.14152527, -1530903.9, -15228.769, 0.0021822979, 9.996443, 10.00161 
1.4050275e+3, 1.5534222e+2, -1870020.4, -1466247.0, -38279.42, 0.021740122, 0.114508756, -1462650.0, -44990.746, 0.00051218417, 9.996154, 10.001518 
1.4050293e+3, 1.6534367e+2, -1842972.8, -1595297.4, 53646.574, -0.029752884, 0.20669945, -1584176.8, -264528.53, 0.000037386584, 9.996496, 9.999796 
1.4050338e+3, 1.7534487e+2, -1555148.6, -1383732.9, 79962.086, 0.114750855, 0.30094755, -1352224.0, -130581.375, 0.00000006103049, 9.997713, 9.999983 
1.4050364e+3, 1.8534468e+2, -1312165.0, -1162773.5, 32341.715, 0.14992736, 0.26476765, -1156072.5, -32429.332, 0.0, 9.998469, 10.000469 
1.4050369e+3, 1.9534317e+2, -1142179.5, -1021024.7, -7701.3823, 0.077252895, 0.030766314, -1020537.1, 5113.1636, 0.0, 9.998921, 10.000551 
1.405039e+3, 2.0534329e+2, -1083717.8, -1121685.6, 69390.03, 0.03558073, 0.07611495, -1030761.7, -103112.71, 0.0, 9.999426, 9.998941 
1.4050421e+3, 2.1534468e+2, -872171.25, -951995.25, 51417.152, 0.017373795, 0.28187925, -846993.4, -17351.475, 0.0, 10.000146, 9.999079 
1.4050451e+3, 2.2534375e+2, -739736.3, -872540.94, 15360.16, 0.024247495, 0.30454895, -737982.94, -6331.738, 0.0, 10.000532, 9.998769 
1.4050478e+3, 2.3534067e+2, -617691.7, -753917.25, -27628.031, 0.054221824, 0.07905864, -612301.7, 21374.543, 0.0, 10.000655, 9.99885 
1.4050496e+3, 2.4533866e+2, -574519.94, -924643.4, -13025.907, 0.026056876, 0.113751166, -574036.0, -38338.65, 0.0, 10.001319, 9.996687 
1.4050506e+3, 2.5533748e+2, -289688.78, -717560.0, 33768.18, -0.066755086, 0.2849941, -287040.16, 150676.81, 0.0, 10.00253, 9.996846 
1.4050539e+3, 2.6533473e+2, -117855.96, -517222.6, 152456.2, -0.062198877, 0.30305782, -66309.66, 273436.22, 0.0000000047036606, 10.002738, 9.997462 
1.405059e+3, 2.7533072e+2, -94678.02, -432900.34, 122527.164, 0.037550736, 0.11656578, -54955.543, 186826.63, 0.000006310061, 10.0021305, 9.997657 
1.405061e+3, 2.853284e+2, 83628.44, -251487.19, -9808.563, 0.017073924, 0.10346957, 83915.28, 227717.77, 0.00007173929, 10.002495, 9.998047 
1.4050606e+3, 2.95327e+2, 365500.72, -51624.836, -46929.05, -0.09917514, 0.11640115, 370715.3, 416529.03, 0.0003165935, 10.003704, 9.99816 
1.4050621e+3, 3.0532596e+2, 322420.22, -203817.02, 17981.717, -0.10187756, 0.2769326, 323033.94, 323033.94, 0.00085306884, 10.003744, 9.996772 
1.4050657e+3, 3.1532192e+2, 302015.9, -22680.193, -33315.15, 0.07420133, 0.1503584, 305398.94, 305398.94, 0.0016671325, 10.002713, 9.998518 
1.4150146e+3, 1.253335e+2, -2401805.3, -1620256.5, -55981.547, -0.118922986, 0.08607466, -1616266.9, 95476.34, 0.009556688, 9.99337, 10.003842 
1.4150208e+3, 1.3533673e+2, -2025859.6, -1463221.1, 123690.16, 0.040172353, 0.0709437, -1437229.9, 176474.31, 0.0055341963, 9.995642, 10.003161 
1.4150234e+3, 1.4533812e+2, -1979481.1, -1664522.5, -28334.09, 0.06097227, 0.018407479, -1661993.9, -146302.72, 0.0022969088, 9.996473, 10.000679 
1.4150241e+3, 1.5534002e+2, -1937154.8, -1602355.8, -35871.617, 0.05274162, 0.11788263, -1598555.5, -180875.27, 0.0005425403, 9.996142, 10.00059 
1.4150268e+3, 1.6534129e+2, -1748027.4, -1406635.3, 79379.055, 0.030018948, 0.17182907, -1389081.0, -69410.734, 0.000040406845, 9.996528, 10.00108 
1.4150316e+3, 1.7534183e+2, -1478644.8, -1211167.3, 136315.63, 0.080441944, 0.07670701, -1153940.0, 67723.27, 0.00000007226826, 9.997652, 10.001201 
1.4150347e+3, 1.8534233e+2, -1372766.6, -1279874.1, 33889.85, 0.109344825, 0.09036554, -1268824.5, -145166.58, 0.0, 9.998433, 9.999681 
1.4150363e+3, 1.9534267e+2, -1210830.3, -1143097.8, 20078.535, 0.095521145, 0.1210208, -1137593.0, -111937.95, 0.0, 9.9988365, 9.999752 
1.4150386e+3, 2.053425e+2, -1097696.0, -1130193.9, 77643.555, 0.03945894, 0.17673875, -1034619.3, -106961.28, 0.0, 9.999328, 9.998934 
1.4150418e+3, 2.1534167e+2, -902880.75, -973734.75, 88820.57, -0.034075882, 0.16198824, -842682.6, -13014.537, 0.0, 9.999956, 9.999026 
1.4150451e+3, 2.2534e+2, -817319.7, -986960.94, 4816.578, -0.037139617, 0.14651266, -817183.06, -85497.66, 0.0, 10.000332, 9.998077 
1.4150482e+3, 2.3533748e+2, -697525.56, -866661.9, -7424.502, 0.017426245, 0.050262026, -697200.3, -63490.277, 0.0, 10.000437, 9.998178 
1.4150505e+3, 2.4533619e+2, -489718.6, -715773.7, 22051.992, -0.030423665, 0.11133039, -487587.5, 48136.355, 0.0, 10.001167, 9.998195 
1.4150524e+3, 2.553358e+2, -208123.66, -515344.34, 92184.68, -0.16269046, 0.20842823, -182585.6, 255144.67, 0.0, 10.002384, 9.998306 
1.4150561e+3, 2.653341e+2, -155592.81, -558491.4, 116636.88, -0.11822696, 0.2694956, -124263.28, 215484.2, 0.000000079284355, 10.002581, 9.9972515 
1.4150617e+3, 2.7533114e+2, -140108.73, -486081.5, 119684.63, 0.07252283, 0.21040006, -102741.37, 139033.94, 0.000007370644, 10.001958, 9.997373 
1.4150645e+3, 2.853285e+2, 15080.104, -368125.97, 22973.994, 0.07927867, 0.22059926, 16452.525, 160254.13, 0.00007202747, 10.0023775, 9.997303 
1.4150651e+3, 2.9532576e+2, 287501.63, -173646.08, 18509.617, -0.043260366, 0.16672264, 288243.38, 334073.84, 0.0003176136, 10.003515, 9.99742 
1.4150655e+3, 3.053244e+2, 357187.9, -72368.57, -26673.764, -0.14287782, 0.2813722, 358837.9, 358837.9, 0.0008555456, 10.003517, 9.997766 
1.4150672e+3, 3.1532082e+2, 277762.44, 7781.251, -20723.965, -0.099315055, 0.094821356, 279343.97, 279343.97, 0.0016671653, 10.002403, 9.998856 
1.4250098e+3, 1.2532978e+2, -2060231.4, -1443404.9, -25590.984, -0.03789842, 0.05998678, -1442345.0, 269434.8, 0.010011913, 9.995677, 10.003949 
1.4250161e+3, 1.3533267e+2, -2164603.5, -1532278.5, -37608.574, 0.06332674, 0.023312328, -1530049.5, 83694.27, 0.0058154534, 9.994744, 10.0031 
1.4250183e+3, 1.4533444e+2, -2152937.3, -1728009.8, -150642.03, -0.0153488, 0.0020118423, -1680024.3, -164296.89, 0.002423067, 9.995211, 10.000845 
1.4250213e+3, 1.55337e+2, -1850425.4, -1539265.9, -108689.77, 0.1238584, 0.15064496, -1505060.3, -87349.7, 0.00057589856, 9.99666, 10.00076 
1.4250246e+3, 1.6533834e+2, -1646743.4, -1325976.1, 33192.918, 0.13986972, 0.18618962, -1322577.4, -2878.0786, 0.00004378684, 9.997077, 10.0013685 
1.4250293e+3, 1.7533848e+2, -1577394.1, -1227461.9, -10363.315, 0.14199874, 0.018148484, -1227155.3, -5460.7354, 0.00000008454083, 9.996826, 10.001491 
1.4250329e+3, 1.8533933e+2, -1530989.0, -1365993.4, -73195.76, 0.14778775, 0.059009064, -1338202.9, -214516.58, 0.0, 9.997391, 9.999591 
1.4250351e+3, 1.9534075e+2, -1220343.4, -1153623.1, -61187.18, 0.11546512, 0.20514943, -1117292.8, -91616.56, 0.0, 9.998801, 9.999693 
1.4250383e+3, 2.0534052e+2, -1096511.6, -1120132.6, 28044.549, 0.07937262, 0.2534294, -1077892.1, -150211.98, 0.0, 9.999292, 9.999021 
1.4250423e+3, 2.1533857e+2, -1025185.06, -1023473.7, 18346.41, 0.054975364, 0.120640405, -1005963.0, -176264.11, 0.0, 9.99906, 9.999124 
1.4250457e+3, 2.2533706e+2, -920023.0, -1004954.8, 17431.367, 0.041010387, 0.09967947, -916584.6, -184870.17, 0.0, 9.999479, 9.998373 
1.4250486e+3, 2.3533581e+2, -653297.5, -810701.5, 53396.96, 0.018891856, 0.10128805, -636893.0, -3165.1526, 0.0, 10.000575, 9.998503 
1.4250517e+3, 2.4533498e+2, -458117.9, -667104.75, 105407.22, -0.025530998, 0.17454347, -414187.78, 121549.68, 0.0, 10.00125, 9.99849 
1.4250551e+3, 2.553343e+2, -286944.94, -518494.38, 51499.87, -0.086039566, 0.21510758, -276007.28, 161738.1, 0.00000000006254562, 10.001689, 9.998622 
1.4250591e+3, 2.6533264e+2, -170239.33, -545708.7, 53765.07, -0.053117737, 0.2543909, -162692.19, 177069.0, 0.00000036239143, 10.002388, 9.99743 
1.425064e+3, 2.7533004e+2, 71330.84, -362815.1, 64131.67, 0.05505807, 0.21079026, 80606.164, 322390.63, 0.000010087366, 10.003308, 9.997566 
1.4250672e+3, 2.8532755e+2, 136441.7, -331222.53, 38505.504, 0.06852149, 0.23749463, 139590.89, 283400.88, 0.00007869426, 10.003306, 9.997115 
1.4250687e+3, 2.9532492e+2, 154182.83, -251288.36, 27678.02, 0.025799554, 0.2145456, 156063.44, 201903.48, 0.00033370158, 10.002663, 9.997296 
1.4250696e+3, 3.0532327e+2, 358591.03, -67828.66, 10574.969, -0.08186049, 0.30062234, 358853.13, 358853.13, 0.00088820356, 10.003468, 9.997845 
1.4250712e+3, 3.1532016e+2, 677067.4, 159438.53, -78258.97, -0.067894995, 0.15027824, 688640.44, 688640.44, 0.0017210031, 10.005291, 9.998531 
1.4350078e+3, 1.2532541e+2, -2161014.0, -1660827.1, -23789.541, 0.11521532, 0.061178807, -1659698.1, 52123.06, 0.010506618, 9.995707, 10.002429 
1.4350095e+3, 1.3532718e+2, -2258469.3, -1719587.6, -49628.395, -0.08635122, 0.050865933, -1715055.3, -101250.5, 0.006123269, 9.994719, 10.001816 
1.4350131e+3, 1.4532976e+2, -2043253.4, -1519088.8, -110389.05, -0.09161046, 0.09644893, -1496789.5, 18991.777, 0.002563054, 9.995277, 10.002255 
1.4350182e+3, 1.5533336e+2, -1762643.6, -1355565.0, -44303.844, 0.12911487, 0.21416344, -1350799.0, 66949.38, 0.0006133788, 9.996644, 10.002037 
1.4350224e+3, 1.653349e+2, -1695305.1, -1429216.3, 4964.699, 0.1746137, 0.24535236, -1429123.6, -109389.05, 0.000047750204, 9.997086, 10.000658 
1.435027e+3, 1.7533459e+2, -1625514.5, -1329111.1, -7507.6616, 0.19828267, 0.107847944, -1328921.1, -107183.38, 0.00000010052836, 9.996827, 10.000797 
1.4350307e+3, 1.8533558e+2, -1487811.3, -1271075.9, -37663.37, 0.15777771, 0.16110122, -1264717.5, -140988.13, 0.0, 9.997368, 10.000254 
1.4350334e+3, 1.9533747e+2, -1192022.0, -1070919.3, 1288.5605, 0.027091013, 0.28942937, -1070905.5, -45192.664, 0.0, 9.998697, 10.000312 
1.4350374e+3, 2.0533742e+2, -1099620.5, -1100821.8, 2276.8997, 0.028217563, 0.313901, -1097866.4, -170151.88, 0.0, 9.999175, 9.999208 
1.4350428e+3, 2.1533546e+2, -1041304.3, -1012707.75, 23463.656, 0.17560168, 0.16010794, -999529.06, -169795.44, 0.0, 9.998867, 9.999289 
1.4350465e+3, 2.2533499e+2, -861711.8, -834629.4, 44393.66, 0.14744522, 0.17432901, -801757.6, -70020.03, 0.0, 9.999274, 9.999638 
1.4350487e+3, 2.3533574e+2, -601166.06, -649127.44, 106062.85, -0.04356753, 0.24624817, -516406.7, 117322.47, 0.0, 10.00036, 9.999712 
1.4350529e+3, 2.4533498e+2, -549282.3, -816024.3, 104681.03, -0.071846366, 0.31636253, -513107.03, 22631.31, 0.0, 10.001067, 9.99756 
1.4350584e+3, 2.5533274e+2, -380532.66, -666315.4, 81029.88, 0.049569, 0.29531857, -359156.6, 78607.68, 0.000000006122379, 10.001492, 9.997701 
1.4350627e+3, 2.6533028e+2, -139279.84, -450041.63, 75517.63, 0.025349198, 0.2628496, -121900.41, 217886.73, 0.0000008787704, 10.002245, 9.998162 
1.4350659e+3, 2.7532747e+2, 98174.41, -272254.4, 114084.51, -0.12492037, 0.12725602, 130490.805, 372299.63, 0.000014147242, 10.003153, 9.998271 
1.4350685e+3, 2.853256e+2, 129627.76, -311749.38, 198.14311, -0.13451788, 0.16821875, 129627.85, 273454.84, 0.000090676054, 10.003157, 9.997319 
1.4350712e+3, 2.9532418e+2, 134212.16, -256799.44, 26002.145, -0.0222868, 0.24841915, 135933.7, 181779.1, 0.00036367134, 10.002496, 9.997344 
1.4350736e+3, 3.053223e+2, 290336.16, -159981.19, 66353.086, -0.052668307, 0.34284806, 299909.6, 299909.6, 0.00095405756, 10.003283, 9.997289 
1.4350772e+3, 3.1532013e+2, 565984.44, 24374.805, 45833.676, -0.045693997, 0.3386356, 569835.75, 569835.75, 0.0018380493, 10.004895, 9.99779 
1.4450036e+3, 1.2532109e+2, -2295242.8, -1754125.4, -1867.591, 0.19586325, 0.09340559, -1754118.9, -42253.625, 0.011047917, 9.994902, 10.00217 
1.4450046e+3, 1.353232e+2, -2181685.0, -1702508.6, 25970.744, -0.069297574, 0.12351781, -1701105.3, -87257.65, 0.00646129, 9.995308, 10.00165 
1.4450091e+3, 1.4532578e+2, -1941760.8, -1449700.6, 22889.771, -0.046739012, 0.17183976, -1448638.1, 67185.51, 0.0027186894, 9.995905, 10.002417 
1.445015e+3, 1.5532856e+2, -1766901.9, -1334275.9, -39631.918, 0.15460548, 0.18634532, -1330675.3, 87121.1, 0.0006559602, 9.99652, 10.002241 
1.4450194e+3, 1.6533013e+2, -1704274.4, -1445545.3, -664.15045, 0.17987002, 0.21794151, -1445543.5, -125761.81, 0.000052490832, 9.9970875, 10.000537 
1.4450239e+3, 1.7533064e+2, -1466876.4, -1258126.6, 7716.6895, 0.16142483, 0.1718144, -1257841.8, -36063.59, 0.00000012546444, 9.99796, 10.000723 
1.4450285e+3, 1.8533167e+2, -1306341.8, -1165982.1, 28135.04, 0.13862136, 0.22320862, -1160552.5, -36782.51, 0.0, 9.998527, 10.00042 
1.4450325e+3, 1.9533296e+2, -1153954.0, -1026899.25, 4181.2266, 0.067034215, 0.27016735, -1026761.75, -1002.4122, 0.0, 9.998848, 10.000538 
1.4450368e+3, 2.0533316e+2, -1071254.9, -1018606.25, -1015.23846, 0.081076995, 0.27917925, -1018586.7, -90828.96, 0.0, 9.999097, 9.999806 
1.445042e+3, 2.1533222e+2, -924785.3, -884766.4, 22958.807, 0.19560784, 0.1688318, -874321.2, -44555.637, 0.0, 9.999376, 9.999917 
1.4450462e+3, 2.2533242e+2, -746192.6, -763269.2, 83452.18, 0.16863306, 0.21162546, -670843.06, 60919.94, 0.0, 9.999989, 9.999788 
1.4450498e+3, 2.3533346e+2, -506923.84, -588571.4, 35626.777, 0.0039282, 0.2956837, -493564.16, 140188.78, 0.0, 10.000921, 9.999863 
1.4450544e+3, 2.4533251e+2, -498597.34, -794015.06, 34078.008, -0.026662935, 0.34137422, -494717.25, 41046.457, 0.0, 10.0014305, 9.997529 
1.4450599e+3, 2.5532964e+2, -349871.5, -657632.7, 53609.8, 0.05525036, 0.26327607, -340800.4, 96994.016, 0.000000012932129, 10.001711, 9.997663 
1.4450648e+3, 2.6532716e+2, -176664.7, -449974.13, 91638.086, 0.032908008, 0.22103798, -148783.55, 191033.92, 0.0000016431604, 10.0019245, 9.998309 
1.4450689e+3, 2.7532485e+2, -31469.854, -314972.8, 49204.98, -0.08320971, 0.12193901, -23172.635, 218662.03, 0.000019343763, 10.00219, 9.998431 
1.445072e+3, 2.85323e+2, 100534.2, -347007.88, -78568.984, -0.100309536, 0.16574405, 113926.74, 257779.05, 0.00010742276, 10.003041, 9.997132 
1.4450745e+3, 2.9532132e+2, 384428.9, -154649.19, -100315.63, -0.024716258, 0.23472084, 402491.2, 448363.47, 0.00040939418, 10.004294, 9.997171 
1.4450774e+3, 3.0531877e+2, 435134.88, -150055.92, -19767.842, -0.045058917, 0.3013939, 435801.88, 435801.88, 0.0010586398, 10.004518, 9.996778 
1.4450823e+3, 3.1531742e+2, 390181.22, -90348.93, -94921.71, 0.047962207, 0.42401496, 408252.03, 408252.03, 0.0020276, 10.003814, 9.99752 
1.4549987e+3, 1.2531689e+2, -2217540.5, -1623952.3, -90724.5, 0.13177261, 0.12074324, -1610395.5, 101515.91, 0.011640448, 9.995017, 10.003023 
1.4550011e+3, 1.353209e+2, -2124762.5, -1574671.9, 63525.83, 0.018925192, 0.2380611, -1567431.1, 46438.918, 0.0068325973, 9.99526, 10.002558 
1.4550057e+3, 1.4532268e+2, -2023690.1, -1619839.0, 33929.047, -0.023422195, 0.23006175, -1617008.4, -101156.086, 0.0028915813, 9.99591, 10.001242 
1.4550109e+3, 1.5532258e+2, -1841008.4, -1477940.4, -6404.355, 0.080532216, 0.060901184, -1477827.5, -59973.246, 0.00070428615, 9.996486, 10.001267 
1.4550155e+3, 1.6532414e+2, -1656175.4, -1359593.1, 12475.208, 0.040410325, 0.10593055, -1359069.3, -39229.484, 0.000058062662, 9.997138, 10.001107 
1.4550199e+3, 1.7532676e+2, -1435327.5, -1187412.9, 52980.926, -0.06759314, 0.21781647, -1176565.1, 45249.297, 0.00000016567238, 9.9979315, 10.001225 
1.4550257e+3, 1.8532772e+2, -1327870.1, -1205876.9, 25380.76, -0.025958747, 0.2514859, -1200807.1, -77000.03, 0.0, 9.998504, 10.000159 
1.4550321e+3, 1.9532724e+2, -1186259.4, -1072664.0, 27826.201, 0.1285095, 0.15117805, -1066214.0, -40398.74, 0.0, 9.998752, 10.000277 
1.4550367e+3, 2.053277e+2, -1024199.75, -886999.0, -6429.377, 0.12590517, 0.15018709, -886698.4, 41111.99, 0.0, 9.998956, 10.000774 
1.4550397e+3, 2.1532878e+2, -889809.75, -764125.0, 45619.348, 0.007684646, 0.14219771, -749312.44, 80483.39, 0.0, 9.999178, 10.000836 
1.4550447e+3, 2.2532924e+2, -831136.6, -897769.2, 102752.734, -0.012364945, 0.20787774, -756433.94, -24641.973, 0.0, 9.9998045, 9.998955 
1.4550515e+3, 2.3532905e+2, -600116.2, -724123.5, 83832.19, 0.048639324, 0.2560369, -557849.6, 75948.664, 0.0, 10.000681, 9.999044 
1.4550562e+3, 2.4532771e+2, -463533.66, -682367.1, 32268.896, -0.0077447454, 0.25964585, -458874.53, 76937.68, 0.0, 10.001249, 9.99839 
1.4550596e+3, 2.5532523e+2, -314361.88, -547798.5, 78895.03, -0.16547756, 0.13227943, -290198.72, 147635.47, 0.000000017460069, 10.001553, 9.998496 
1.4550652e+3, 2.6532343e+2, -237804.55, -542133.4, 89387.04, -0.14246278, 0.14689283, -213492.19, 126358.51, 0.000002726617, 10.001771, 9.997749 
1.4550725e+3, 2.7532202e+2, -98606.695, -408938.22, 74347.086, 0.047281794, 0.1883568, -81714.61, 160149.4, 0.000025176965, 10.002003, 9.997869 
1.455077e+3, 2.8531972e+2, 47496.453, -412889.25, -45063.63, 0.0536254, 0.2319524, 51865.914, 195752.88, 0.00012772917, 10.002853, 9.996771 
1.4550784e+3, 2.953164e+2, 332604.16, -216808.02, -35500.145, -0.102736294, 0.17560297, 334888.5, 380808.25, 0.00046719576, 10.004098, 9.996842 
1.455081e+3, 3.0531293e+2, 366516.97, -249804.97, -56273.09, -0.17620641, 0.1910444, 371612.84, 371612.84, 0.0011939944, 10.004328, 9.996186 
1.4550859e+3, 3.153115e+2, 331933.5, -140970.89, -73748.41, -0.01640241, 0.3709081, 343167.53, 343167.53, 0.0022784446, 10.003508, 9.997323 
1.4649947e+3, 1.2531328e+2, -2093432.8, -1570700.3, -76687.83, 0.21429095, 0.23027183, -1559682.0, 152269.88, 0.012283002, 9.995899, 10.002972 
1.4649974e+3, 1.3531634e+2, -2060240.6, -1551138.1, -61064.75, 0.109220795, 0.2565289, -1543916.1, 70002.586, 0.00723705, 9.99574, 10.002487 
1.4650014e+3, 1.4531776e+2, -2057367.4, -1649857.0, -4029.7214, -0.018402193, 0.22823004, -1649817.1, -133914.3, 0.0030819494, 9.995707, 10.001155 
1.4650078e+3, 1.5531771e+2, -1734129.0, -1417269.3, 10666.516, 0.085478865, 0.055715393, -1416910.5, 991.999, 0.0007585455, 9.99715, 10.001378 
1.4650132e+3, 1.6531926e+2, -1577858.6, -1306443.9, 55678.492, 0.08101019, 0.08685972, -1295465.9, 24421.074, 0.00006440502, 9.997619, 10.001235 
1.4650176e+3, 1.7532177e+2, -1503245.1, -1208703.9, 32775.277, -0.041739486, 0.17647105, -1205100.9, 16761.695, 0.00000022299002, 9.997411, 10.001332 
1.4650236e+3, 1.8532294e+2, -1484230.6, -1263629.8, 32234.395, -0.014239743, 0.22130455, -1259016.1, -135162.89, 0.0, 9.997382, 10.000291 
1.4650305e+3, 1.9532304e+2, -1321033.5, -1114736.0, 37591.02, 0.14615953, 0.1612164, -1108099.8, -82243.89, 0.0, 9.997748, 10.000459 
1.4650355e+3, 2.0532362e+2, -1110968.8, -919990.4, 22443.813, 0.15126951, 0.15917805, -917388.2, 10461.376, 0.0, 9.998304, 10.000874 
1.465039e+3, 2.1532446e+2, -889075.5, -752350.25, -10309.222, 0.021962816, 0.11599403, -751577.3, 78259.77, 0.0, 9.999121, 10.000956 
1.4650446e+3, 2.2532487e+2, -828489.75, -922126.0, 80245.17, -0.009122419, 0.18577287, -782403.5, -50569.387, 0.0, 9.999957, 9.998706 
1.465052e+3, 2.3532474e+2, -575781.1, -737578.25, 73023.82, 0.041133627, 0.26412302, -547697.75, 86143.51, 0.0, 10.000959, 9.9988165 
1.4650577e+3, 2.4532345e+2, -443053.78, -656992.3, 9259.985, 0.015396227, 0.2768708, -442653.75, 93201.4, 0.0, 10.001331, 9.998524 
1.4650618e+3, 2.5532112e+2, -349465.94, -547014.5, -27667.402, -0.08678756, 0.1508619, -345664.2, 92211.125, 0.000000044837254, 10.001243, 9.998646 
1.4650677e+3, 2.653194e+2, -236452.53, -570110.56, 19977.756, -0.058595244, 0.17971845, -235260.63, 104631.2, 0.0000038968087, 10.001889, 9.99751 
1.4650755e+3, 2.7531806e+2, 61894.99, -363111.56, 8633.251, 0.085150324, 0.25596693, 62070.285, 303976.97, 0.000030518888, 10.00321, 9.997621 
1.4650804e+3, 2.853155e+2, 146642.92, -338763.94, -66443.14, 0.09375252, 0.283211, 155573.44, 299504.84, 0.00014669269, 10.003424, 9.997004 
1.4650825e+3, 2.9531205e+2, 146961.3, -277258.4, -64611.7, -0.021864012, 0.18586253, 156583.86, 202547.98, 0.00052426284, 10.002707, 9.997089 
1.465085e+3, 3.0530828e+2, 157781.98, -340595.06, -16430.15, -0.12256588, 0.15535857, 158323.05, 158323.05, 0.0013359481, 10.0028715, 9.996241 
1.4650895e+3, 3.1530625e+2, 397410.25, -57513.14, -17503.24, -0.01714097, 0.27306873, 398082.72, 398082.72, 0.0025513412, 10.003724, 9.997785 
1.4749904e+3, 1.2530941e+2, -2146049.3, -1683727.3, -45309.305, 0.11595604, 0.3514501, -1679328.6, 32666.635, 0.012969953, 9.995942, 10.002143 
1.4749928e+3, 1.353095e+2, -2142242.3, -1713281.5, -83919.055, 0.047788538, 0.18872234, -1697448.5, -83454.98, 0.0076708426, 9.995714, 10.001375 
1.474996e+3, 1.4531101e+2, -1959593.1, -1469482.0, 19969.078, -0.16711588, 0.1644467, -1468669.8, 47305.61, 0.0032881629, 9.995787, 10.002362 
1.475005e+3, 1.5531409e+2, -1654571.3, -1244317.8, 74911.96, 0.06375127, 0.18140687, -1231066.9, 186872.28, 0.00081847684, 9.997114, 10.002586 
1.4750122e+3, 1.6531569e+2, -1593649.8, -1352241.5, 31461.229, 0.1732203, 0.17557473, -1348208.8, -28287.549, 0.000071419374, 9.997666, 10.000897 
1.475017e+3, 1.753158e+2, -1533776.9, -1260835.6, 34938.37, 0.120868884, 0.05664654, -1256434.3, -34513.227, 0.0000002932695, 9.997369, 10.000989 
1.475022e+3, 1.8531741e+2, -1445158.5, -1191154.3, 28801.082, 0.05969455, 0.13883649, -1187929.5, -64022.434, 0.0, 9.997403, 10.000787 
1.4750272e+3, 1.9532026e+2, -1297208.6, -1050550.6, 62098.07, 0.014586482, 0.30305555, -1035799.1, -9917.236, 0.0, 9.997677, 10.00094 
1.475033e+3, 2.0532088e+2, -1169730.3, -1017893.75, 34478.0, 0.03911708, 0.31216773, -1010431.5, -82555.64, 0.0, 9.9981985, 10.000252 
1.4750391e+3, 2.1531942e+2, -962014.7, -856929.06, 30062.254, 0.12525688, 0.103092015, -848936.9, -19049.271, 0.0, 9.998925, 10.000328 
1.4750454e+3, 2.2531946e+2, -837003.9, -900843.4, 103108.92, 0.06482083, 0.15346043, -760986.94, -29098.607, 0.0, 9.999777, 9.998945 
1.4750515e+3, 2.353206e+2, -585779.75, -717023.3, 122152.79, -0.123768516, 0.3332786, -512738.22, 121143.03, 0.0, 10.00078, 9.999047 
1.4750583e+3, 2.4531977e+2, -506949.44, -758679.9, -10202.246, -0.08223129, 0.41065806, -506536.66, 29355.402, 0.0, 10.001186, 9.997899 
1.4750658e+3, 2.5531706e+2, -419801.8, -650084.5, -17630.465, 0.17132783, 0.30925363, -418459.84, 19459.871, 0.000000082863835, 10.001056, 9.99803 
1.4750722e+3, 2.6531494e+2, -253551.6, -562164.3, 59424.387, 0.16096555, 0.3205251, -242504.66, 97437.164, 0.0000048986644, 10.0017, 9.997653 
1.4750773e+3, 2.7531308e+2, 45214.55, -350339.5, 77345.734, -0.081036285, 0.32362077, 59800.69, 301762.06, 0.00003489947, 10.003012, 9.997797 
1.475082e+3, 2.8531072e+2, 157609.58, -278816.44, -107296.305, -0.10354925, 0.33268422, 182561.97, 326545.6, 0.00016199038, 10.00325, 9.997505 
1.4750864e+3, 2.9530808e+2, 156873.36, -216372.39, -73037.02, 0.06779726, 0.26273766, 170656.33, 216663.63, 0.00057622173, 10.002528, 9.997597 
1.475089e+3, 3.0530465e+2, 186204.88, -237324.5, 4355.3735, -0.024028111, 0.20340791, 186249.66, 186249.66, 0.0014704282, 10.002686, 9.997035 
1.4750919e+3, 3.1530142e+2, 422508.88, 92728.72, 68906.9, -0.19139573, 0.11279594, 436327.75, 436327.75, 0.0028072435, 10.003323, 9.999003 
1.4849862e+3, 1.2530433e+2, -2393246.5, -1854891.6, 55254.8, 0.18583913, 0.3582052, -1849279.0, -137231.89, 0.013700781, 9.994465, 10.001687 
1.4849891e+3, 1.3530424e+2, -2003861.4, -1676407.5, -26858.72, 0.06289283, 0.21214849, -1674219.1, -60170.363, 0.00813248, 9.996762, 10.001139 
1.4849931e+3, 1.4530593e+2, -1785330.1, -1379654.9, 90628.21, -0.09059943, 0.2162347, -1360329.0, 155700.13, 0.0035089266, 9.996994, 10.002378 
1.485002e+3, 1.5530907e+2, -1742568.9, -1282696.6, 22286.443, 0.10462923, 0.23445134, -1281619.1, 136373.08, 0.0008836724, 9.996513, 10.002596 
1.4850096e+3, 1.6531062e+2, -1705135.9, -1412273.8, -18454.549, 0.20951934, 0.22859207, -1411115.5, -91141.05, 0.00007901186, 9.996957, 10.000822 
1.4850155e+3, 1.7531063e+2, -1377960.4, -1189977.1, -23897.451, 0.17636554, 0.108562365, -1186986.8, 34988.594, 0.00000037325287, 9.998467, 10.000949 
1.4850205e+3, 1.8531194e+2, -1212412.3, -1065799.5, -23435.936, 0.10338466, 0.15802322, -1062144.4, 61818.62, 0.0, 9.998946, 10.000902 
1.4850251e+3, 1.9531438e+2, -1130515.5, -958146.56, -47043.008, -0.00475316, 0.26833874, -946143.44, 79796.445, 0.0, 9.998766, 10.00105 
1.4850314e+3, 2.0531511e+2, -1052327.1, -999015.25, -23492.037, 0.021192886, 0.30190378, -990140.75, -62207.78, 0.0, 9.999191, 9.999887 
1.485039e+3, 2.1531427e+2, -794897.0, -809881.25, -37976.523, 0.16180542, 0.1895951, -763680.6, 66260.25, 0.0, 10.000229, 10.0000105 
1.4850459e+3, 2.2531392e+2, -746904.25, -838021.9, 44891.8, 0.1149294, 0.20718873, -728503.06, 3441.4355, 0.0, 10.000298, 9.999128 
1.4850518e+3, 2.3531394e+2, -743125.4, -773691.9, 35451.523, -0.10998019, 0.25662187, -719803.06, -85857.99, 0.0, 9.9996, 9.999231 
1.4850593e+3, 2.4531294e+2, -654205.3, -838630.7, -26541.008, -0.059808064, 0.31408298, -650461.7, -114504.625, 0.0, 10.000228, 9.997811 
1.485068e+3, 2.5531095e+2, -273151.56, -585800.2, -24430.68, 0.23273511, 0.29634437, -271254.06, 166725.9, 0.00000011463164, 10.0021, 9.997967 
1.4850745e+3, 2.6530927e+2, -165043.69, -474682.9, 65407.82, 0.21943517, 0.33323956, -151793.98, 188205.17, 0.000005857849, 10.002136, 9.998036 
1.4850791e+3, 2.7530763e+2, -282209.28, -465343.25, 60528.668, -0.070745066, 0.32554495, -264011.8, -21995.145, 0.000039275426, 10.000595, 9.998167 
1.4850843e+3, 2.8530577e+2, -117563.13, -370534.44, -54075.984, -0.09309938, 0.34736112, -106488.5, 37546.016, 0.00017769578, 10.001196, 9.997858 
1.48509e+3, 2.9530373e+2, 355984.47, -83292.68, -62617.58, 0.120853096, 0.31300083, 364736.03, 410788.16, 0.0006295016, 10.003732, 9.997941 
1.4850934e+3, 3.0530098e+2, 447683.0, -75565.83, -19281.535, 0.06375805, 0.2839544, 448392.56, 448392.56, 0.0015966488, 10.004306, 9.997386 
1.4850959e+3, 3.1529668e+2, 410292.63, 136294.44, -51000.066, -0.0870154, 0.055037133, 419477.53, 419477.53, 0.0030274095, 10.003003, 9.999465 
1.4949806e+3, 1.2529853e+2, -2358972.0, -1801149.0, 95363.95, 0.10989913, 0.3124078, -1785296.4, -73193.57, 0.014485426, 9.994543, 10.002016 
1.4949858e+3, 1.3530096e+2, -1964732.1, -1581742.0, 52697.1, 0.025769776, 0.3522431, -1574623.5, 39456.805, 0.008627366, 9.996714, 10.001811 
1.4949924e+3, 1.4530285e+2, -1850845.3, -1547366.8, 44982.83, 0.08797893, 0.3956877, -1540839.6, -24778.178, 0.0037456865, 9.997108, 10.001178 
1.4949988e+3, 1.5530285e+2, -1838249.9, -1481442.9, 17129.352, 0.08952446, 0.23925397, -1480622.4, -62563.387, 0.0009542572, 9.996507, 10.001242 
1.4950055e+3, 1.653042e+2, -1676316.1, -1370278.1, 21412.268, 0.05186966, 0.26390675, -1368787.3, -48742.03, 0.00008722728, 9.997025, 10.001077 
1.4950126e+3, 1.753063e+2, -1367389.5, -1160929.6, 40922.47, 0.02425961, 0.3295571, -1153114.1, 68910.766, 0.0000004647829, 9.998439, 10.001159 
1.4950188e+3, 1.8530671e+2, -1227607.0, -1105057.8, -48424.73, -0.0057777273, 0.28957275, -1088232.9, 35786.76, 0.0, 9.99897, 10.000625 
1.495024e+3, 1.9530559e+2, -1167088.4, -1011121.4, -43459.348, -0.03474052, 0.073787525, -999829.25, 26198.715, 0.0, 9.998666, 10.000735 
1.4950304e+3, 2.0530646e+2, -1074727.9, -1023514.8, -431.4158, -0.022402057, 0.14363311, -1023511.2, -95491.98, 0.0, 9.999084, 9.999776 
1.4950383e+3, 2.1530898e+2, -827389.06, -837747.94, 8797.238, 0.039731514, 0.37532398, -822359.75, 7637.0303, 0.0, 10.000058, 9.999902 
1.4950457e+3, 2.2530833e+2, -761425.6, -830032.75, 2246.161, 0.036518823, 0.36178443, -761352.2, -29350.38, 0.0, 10.000124, 9.999271 
1.4950524e+3, 2.3530482e+2, -759941.3, -764864.7, 23769.275, -0.026823921, 0.040747747, -738506.6, -104474.52, 0.0, 9.999411, 9.999386 
1.4950599e+3, 2.4530312e+2, -655890.6, -797361.94, 31966.479, -0.04057427, 0.0029290125, -649002.94, -112954.07, 0.0, 10.0000305, 9.99819 
1.4950679e+3, 2.5530288e+2, -275441.78, -546882.94, 58702.74, -0.0039308313, 0.116831705, -263290.5, 174764.98, 0.00000015644366, 10.001907, 9.998328 
1.4950748e+3, 2.653024e+2, -163307.8, -426623.78, -6019.6426, 0.0065248357, 0.23586419, -163170.25, 176893.17, 0.000006865855, 10.001943, 9.998459 
1.4950806e+3, 2.7530158e+2, -279748.56, -419370.84, 22230.484, -0.0034367114, 0.26754597, -276294.5, -34220.715, 0.00004412461, 10.0004225, 9.998565 
1.4950866e+3, 2.8530043e+2, -125435.8, -351190.66, 27959.379, -0.009358543, 0.33301008, -122024.62, 22061.049, 0.00019465707, 10.001034, 9.998072 
1.495093e+3, 2.9529905e+2, 343628.97, -63727.43, 51639.43, 0.0046417755, 0.3337012, 350073.22, 396172.25, 0.00068026903, 10.00353, 9.998176 
1.4950973e+3, 3.0529726e+2, 392950.7, -128687.79, -77534.87, -0.0014686754, 0.4023962, 404231.3, 404231.3, 0.0016998705, 10.004059, 9.997134 
1.4951009e+3, 3.1529185e+2, 317452.56, 17883.385, -55112.242, 0.03241575, 0.088852815, 327269.9, 327269.9, 0.0031848669, 10.002688, 9.9988 
1.5049754e+3, 1.2529086e+2, -2292918.8, -1741468.6, 22483.516, 0.124841735, 0.27430642, -1740553.4, -28372.598, 0.015336173, 9.994885, 10.002255 
1.5049827e+3, 1.3529475e+2, -1960088.0, -1501331.4, -26263.402, 0.0722636, 0.37962154, -1499832.6, 114309.734, 0.0091627855, 9.99639, 10.00253 
1.5049906e+3, 1.4529695e+2, -1841635.9, -1582265.8, -47608.293, 0.19112799, 0.43841037, -1573803.3, -57682.44, 0.0040015904, 9.997374, 10.0008 
1.504996e+3, 1.5529661e+2, -1676612.9, -1441710.5, -37579.195, 0.09688182, 0.28794107, -1435845.1, -17720.85, 0.001031135, 9.997801, 10.000883 
1.5050024e+3, 1.6529782e+2, -1594141.1, -1328493.3, 45554.26, 0.01831573, 0.31611001, -1320898.5, -786.05994, 0.000096309515, 9.997557, 10.001119 
1.5050104e+3, 1.753e+2, -1556301.1, -1241413.9, 24467.607, 0.025594873, 0.38178363, -1239524.0, -17433.209, 0.000000575819, 9.997084, 10.001263 
1.5050171e+3, 1.8530037e+2, -1444019.5, -1224723.1, -31174.617, 0.012906779, 0.33774015, -1220377.5, -96292.42, 0.0, 9.997556, 10.000478 
1.5050225e+3, 1.9529907e+2, -1119107.8, -1000742.3, -39773.867, -0.053814262, 0.11846072, -988618.94, 37475.184, 0.0, 9.99905, 10.000614 
1.5050295e+3, 2.0529956e+2, -1011837.5, -1002938.4, 30677.61, -0.035496935, 0.15949512, -976389.3, -48300.816, 0.0, 9.999568, 9.999684 
1.5050381e+3, 2.1530147e+2, -936914.8, -904510.25, 10855.695, 0.061450955, 0.34445995, -901209.7, -71138.2, 0.0, 9.99936, 9.999788 
1.505046e+3, 2.2530085e+2, -816471.94, -860757.8, 14920.241, 0.08129203, 0.3416962, -811914.25, -79837.42, 0.0, 9.999801, 9.999198 
1.505053e+3, 2.352979e+2, -548704.8, -666823.75, -13617.685, 0.017502796, 0.08664192, -547155.2, 86947.2, 0.0, 10.000901, 9.999326 
1.5050605e+3, 2.4529654e+2, -469592.28, -656345.56, 29319.58, -0.02074527, 0.06187659, -465097.4, 71018.48, 0.0, 10.001091, 9.99864 
1.5050685e+3, 2.5529653e+2, -449887.47, -580117.1, 28992.436, -0.040186618, 0.15268232, -443724.66, -5605.2324, 0.00000020302433, 10.000493, 9.998773 
1.5050758e+3, 2.6529625e+2, -295884.47, -481463.25, -40201.605, -0.025010766, 0.2683596, -287549.97, 52574.64, 0.0000077496, 10.000996, 9.998535 
1.5050822e+3, 2.7529562e+2, 35358.45, -259192.8, -60651.887, 0.019432096, 0.30997226, 47358.563, 289491.34, 0.000048509926, 10.002537, 9.9986515 
1.5050888e+3, 2.8529418e+2, 114325.44, -233869.2, -17608.06, 0.03564335, 0.3423171, 115213.61, 259361.55, 0.00020995413, 10.002688, 9.9980755 
1.5050957e+3, 2.9529217e+2, 82107.3, -175374.78, -57347.543, 0.037983697, 0.27959797, 94302.4, 140470.78, 0.0007218459, 10.001708, 9.998259 
1.5051009e+3, 3.0529138e+2, 177364.75, -195568.08, -150323.81, 0.050154366, 0.42293456, 230412.38, 230412.38, 0.0017672527, 10.002392, 9.997492 
1.505105e+3, 3.152875e+2, 515685.72, 87642.305, -128895.92, 0.123054236, 0.23904128, 551502.9, 551502.9, 0.003260397, 10.004157, 9.99859 
1.5149705e+3, 1.2528221e+2, -2253064.5, -1702968.4, -46441.336, 0.07488062, 0.28349552, -1699075.3, 13197.224, 0.016257107, 9.995053, 10.002452 
1.5149796e+3, 1.3528599e+2, -1933080.5, -1425211.6, 62669.04, 0.093444765, 0.30912927, -1417592.8, 196638.23, 0.009740974, 9.996318, 10.003087 
1.5149872e+3, 1.4528859e+2, -1794760.4, -1519589.4, -50138.938, 0.05517353, 0.36672613, -1510738.3, 5465.679, 0.0042781597, 9.997499, 10.001178 
1.5149932e+3, 1.5529035e+2, -1642130.5, -1377829.4, -12316.045, 0.007127946, 0.38007697, -1377256.8, 40931.254, 0.0011151112, 9.997822, 10.001315 
1.5149999e+3, 1.6529156e+2, -1586412.8, -1332043.9, 7219.145, -0.020532448, 0.3914276, -1331839.1, -11663.29, 0.000106548556, 9.997633, 10.001057 
1.5150082e+3, 1.7529191e+2, -1564832.8, -1254377.9, 19368.676, 0.078077435, 0.27615812, -1253174.1, -31003.06, 0.0000007145684, 9.997057, 10.001188 
1.5150152e+3, 1.8529308e+2, -1437069.8, -1214715.8, 11037.974, 0.036752433, 0.31178358, -1214169.1, -90011.09, 0.0, 9.997571, 10.000542 
1.5150206e+3, 1.9529487e+2, -1129965.6, -1002589.75, 25181.203, -0.16458602, 0.39842045, -997792.3, 28345.762, 0.0, 9.998962, 10.000645 
1.5150283e+3, 2.0529447e+2, -1037255.2, -1029829.44, 6017.698, -0.1363599, 0.3568504, -1026471.4, -98331.36, 0.0, 9.999451, 9.999559 
1.5150383e+3, 2.15292e+2, -971923.56, -933524.5, 15904.435, 0.12049342, 0.11453126, -927792.7, -97629.95, 0.0, 9.999169, 9.999681 
1.5150465e+3, 2.2529165e+2, -871716.44, -929305.4, 42194.383, 0.12878226, 0.16326605, -849427.75, -117260.46, 0.0, 9.999598, 9.99883 
1.5150529e+3, 2.3529312e+2, -601496.4, -734333.75, 39931.73, -0.08292611, 0.3881453, -590416.8, 43739.79, 0.0, 10.000718, 9.998954 
1.515061e+3, 2.4529313e+2, -463004.75, -601226.0, -7862.3604, -0.121743, 0.49324083, -462558.97, 73599.71, 0.0, 10.000904, 9.999115 
1.5150698e+3, 2.5529176e+2, -440114.84, -524032.5, 22639.54, 0.0064972043, 0.40270993, -434396.72, 3776.2131, 0.00000026346208, 10.00033, 9.999243 
1.5150774e+3, 2.6529068e+2, -338237.56, -523124.34, 6229.742, 0.0014912564, 0.42319533, -338027.88, 2156.4358, 0.000008336701, 10.0008, 9.998343 
1.5150836e+3, 2.7528974e+2, -9897.027, -302102.5, 14088.176, -0.11827008, 0.4540888, -9219.362, 232974.36, 0.00005112129, 10.002329, 9.998455 
1.5150905e+3, 2.8528714e+2, 63230.66, -299931.63, -68909.33, -0.09341958, 0.39488044, 75866.42, 220086.38, 0.00022272031, 10.002506, 9.997709 
1.5150982e+3, 2.9528302e+2, 32592.14, -239255.27, -70000.16, 0.08012117, 0.15561178, 49558.188, 95819.23, 0.0007568992, 10.0015335, 9.997904 
1.5151037e+3, 3.0528304e+2, 213612.97, -59682.465, -93720.91, 0.082595885, 0.34750047, 242664.39, 242664.39, 0.0018093592, 10.002158, 9.998527 
1.5151079e+3, 3.1528372e+2, 486487.34, 116889.67, -17919.637, -0.047746994, 0.5091029, 487354.16, 487354.16, 0.0032749877, 10.003812, 9.9989395 
1.524966e+3, 1.2527566e+2, -1978472.5, -1596732.8, 98152.375, 0.037699245, 0.36934784, -1572974.5, 139365.1, 0.017244658, 9.99707, 10.002217 
1.5249759e+3, 1.3527825e+2, -1975017.8, -1496937.3, 74381.84, 0.11810424, 0.3225664, -1485632.0, 128677.1, 0.010359608, 9.996273, 10.002605 
1.5249833e+3, 1.4527997e+2, -1996133.3, -1589807.4, -28251.328, 0.004609922, 0.30815074, -1587852.5, -71562.586, 0.0045741852, 9.996013, 10.001407 
1.524991e+3, 1.5528256e+2, -1698417.1, -1365196.4, -33612.83, 0.045078147, 0.3688326, -1361839.5, 56424.766, 0.0012060112, 9.997256, 10.001674 
1.5249982e+3, 1.652839e+2, -1552560.8, -1344606.6, -22794.766, 0.049521014, 0.3890785, -1342137.4, -21886.287, 0.000118081814, 9.99803, 10.0007715 
1.5250058e+3, 1.7528388e+2, -1337182.4, -1169794.8, -56413.97, 0.062606275, 0.26708624, -1152556.9, 69694.016, 0.0000008766353, 9.998757, 10.000941 
1.5250134e+3, 1.8528497e+2, -1217808.3, -1111946.9, -26153.17, 0.025941363, 0.3107622, -1105838.3, 18400.715, 0.0, 9.99909, 10.000522 
1.5250205e+3, 1.95287e+2, -1081851.5, -983890.5, -46772.957, -0.08440944, 0.425292, -965145.1, 61071.59, 0.0, 9.999304, 10.000619 
1.5250286e+3, 2.0528665e+2, -1024639.56, -1034545.56, -68219.65, -0.049057245, 0.39450526, -961193.4, -32975.05, 0.0, 9.999566, 9.999475 
1.5250377e+3, 2.152841e+2, -870176.6, -892950.2, -80295.41, 0.1179512, 0.14889106, -800464.6, 29777.172, 0.0, 9.99989, 9.999613 
1.5250461e+3, 2.2528364e+2, -792793.56, -897233.1, 11476.391, 0.106395595, 0.19214778, -791547.3, -59299.668, 0.0, 10.000149, 9.998788 
1.5250535e+3, 2.3528498e+2, -653008.6, -761472.06, 10052.641, -0.07056375, 0.40804988, -652084.8, -17846.273, 0.0, 10.000366, 9.998937 
1.5250617e+3, 2.4528508e+2, -524913.8, -610433.4, -45812.13, -0.085437626, 0.51395583, -505006.63, 31232.826, 0.0, 10.000419, 9.9992695 
1.5250705e+3, 2.55284e+2, -417522.63, -490898.88, -67618.05, 0.045080584, 0.4371414, -377280.78, 60969.188, 0.0000003530132, 10.000413, 9.999415 
1.5250784e+3, 2.6528284e+2, -338061.38, -505325.13, -8359.953, 0.036135424, 0.43216026, -337644.56, 2616.7705, 0.000008619123, 10.000709, 9.998518 
1.5250854e+3, 2.7528152e+2, -154870.94, -346279.63, -5441.2754, -0.09951685, 0.40474036, -154716.39, 87557.734, 0.000051931653, 10.001224, 9.998679 
1.5250927e+3, 2.8527915e+2, -11791.141, -328775.63, -65442.5, -0.094797656, 0.35402438, 1188.2231, 145485.31, 0.00023518385, 10.001958, 9.997786 
1.5251e+3, 2.9527575e+2, 238227.05, -136471.64, -62472.766, 0.04311538, 0.18531875, 248368.52, 294698.56, 0.0007914771, 10.002914, 9.997968 
1.5251067e+3, 3.0527508e+2, 505477.6, 49376.836, -27356.93, 0.06010327, 0.31692308, 507112.63, 507112.63, 0.0018456099, 10.004289, 9.998261 
1.5251131e+3, 3.1527564e+2, 719515.7, 140604.58, -111260.516, 0.013873588, 0.49753994, 740162.4, 740162.4, 0.0032732806, 10.005763, 9.998181 
1.5349625e+3, 1.2527154e+2, -2021782.5, -1702148.9, 150200.13, -0.08577128, 0.5462201, -1642645.1, 69733.86, 0.018294634, 9.997144, 10.001449 
1.5349717e+3, 1.3527185e+2, -2086579.3, -1728189.8, 41720.96, 0.03640008, 0.43116394, -1723397.0, -109023.375, 0.011016667, 9.9962845, 10.001002 
1.5349786e+3, 1.4527142e+2, -1971412.8, -1567179.0, -6848.878, -0.10311929, 0.28429353, -1567063.0, -50687.957, 0.0048880493, 9.996127, 10.001514 
1.534989e+3, 1.5527357e+2, -1690927.6, -1330117.4, 21298.686, 0.097177655, 0.27520162, -1328864.4, 89486.32, 0.0013030368, 9.997185, 10.00195 
1.5349974e+3, 1.6527513e+2, -1581367.8, -1421269.6, -13657.984, 0.11427926, 0.33091435, -1420112.8, -99777.54, 0.00013086536, 9.998092, 10.00022 
1.535003e+3, 1.7527598e+2, -1382224.5, -1256784.3, -19782.455, -0.11754431, 0.35760212, -1253738.4, -31409.145, 0.0000010420176, 9.998733, 10.000357 
1.5350111e+3, 1.8527614e+2, -1223245.5, -1134606.5, -35186.82, -0.13721615, 0.34661373, -1122336.9, 1990.115, 0.0, 9.999131, 10.000348 
1.5350217e+3, 1.9527555e+2, -1098445.0, -1005231.9, -29779.477, 0.07658738, 0.20879719, -996530.3, 29799.025, 0.0, 9.999242, 10.0005045 
1.53503e+3, 2.052761e+2, -1046427.4, -1043850.1, -70121.52, 0.10141831, 0.2747195, -975005.4, -46682.516, 0.0, 9.999416, 9.999479 
1.5350361e+3, 2.1527764e+2, -903101.2, -912541.5, -56272.56, -0.05238778, 0.44192448, -851351.2, -21041.834, 0.0, 9.999685, 9.999575 
1.5350443e+3, 2.2527675e+2, -801066.9, -864485.44, 6645.9404, -0.10657909, 0.42673478, -800377.9, -68059.8, 0.0, 9.99993, 9.999119 
1.5350544e+3, 2.3527357e+2, -654964.8, -722661.5, 32630.543, -0.050767846, 0.15266812, -641797.56, -7450.054, 0.0, 10.000179, 9.999295 
1.535063e+3, 2.4527247e+2, -573549.4, -657880.8, -59170.344, -0.033329774, 0.13150115, -543057.9, -6700.0938, 0.0, 10.000195, 9.999048 
1.5350702e+3, 2.5527322e+2, -461346.44, -539599.2, -52948.254, -0.036842853, 0.25865215, -434636.72, 3714.2053, 0.0000004707298, 10.000239, 9.999163 
1.5350784e+3, 2.652727e+2, -322280.03, -435138.25, -4566.4272, -0.047370072, 0.30339232, -322095.56, 18260.766, 0.0000086272985, 10.000543, 9.999082 
1.5350874e+3, 2.7527097e+2, -137927.45, -275905.47, 24865.904, -0.058114227, 0.17643265, -133583.0, 108790.914, 0.000052741245, 10.001071, 9.999238 
1.5350947e+3, 2.8527012e+2, -5916.9697, -276208.13, -43092.215, -0.10664362, 0.2290597, 786.90155, 145167.7, 0.00024875673, 10.001775, 9.99824 
1.5351006e+3, 2.9527017e+2, 236517.8, -94962.695, -2328.8345, -0.19934534, 0.3541562, 236534.16, 282911.75, 0.00082809955, 10.002716, 9.998348 
1.5351091e+3, 3.0526733e+2, 354911.78, -205566.31, 15661.141, -0.14782138, 0.33943057, 355349.03, 355349.03, 0.0018913797, 10.004053, 9.996616 
1.5351199e+3, 3.152635e+2, 538287.7, -130145.93, -14491.519, 0.053715512, 0.2382534, 538601.75, 538601.75, 0.0032996018, 10.005337, 9.996509 
1.5449591e+3, 1.2526318e+2, -2288920.5, -1858410.9, 62905.965, -0.051266767, 0.53019464, -1849407.4, -136949.61, 0.019406972, 9.995433, 10.001183 
1.5449688e+3, 1.3526332e+2, -1920376.5, -1666187.1, -39700.996, 0.061970033, 0.4101044, -1660130.6, -45674.734, 0.0117135905, 9.997474, 10.000855 
1.5449768e+3, 1.4526293e+2, -1764795.5, -1517493.8, 7121.405, 0.029519694, 0.29606012, -1517288.9, -830.87036, 0.0052204016, 9.997767, 10.001066 
1.5449865e+3, 1.5526453e+2, -1565511.9, -1321039.8, -37821.348, 0.073260926, 0.27543342, -1315322.3, 103117.195, 0.0014059248, 9.9982395, 10.001518 
1.5449953e+3, 1.6526578e+2, -1553470.5, -1446289.5, -74343.26, 0.07706037, 0.34052813, -1408234.8, -87806.88, 0.00014487762, 9.998457, 9.999859 
1.5450022e+3, 1.7526677e+2, -1426654.9, -1321223.3, -93933.03, -0.061304074, 0.4110834, -1266224.8, -43802.46, 0.000001197513, 9.998595, 9.999979 
1.5450108e+3, 1.852666e+2, -1320915.0, -1190448.4, -80516.27, -0.052745916, 0.39311668, -1152056.1, -27632.516, 0.0, 9.99852, 10.000251 
1.545021e+3, 1.9526544e+2, -1206876.9, -1061586.8, -93660.35, 0.1184654, 0.20868592, -1015700.94, 10729.696, 0.0, 9.998535, 10.000452 
1.5450293e+3, 2.0526594e+2, -1088103.6, -1034381.44, -78992.03, 0.12206963, 0.2570249, -977808.4, -49384.203, 0.0, 9.999016, 9.999739 
1.545036e+3, 2.152679e+2, -840942.2, -851160.2, -73452.68, -0.040035248, 0.43986332, -772421.0, 57984.906, 0.0, 9.999988, 9.999851 
1.5450445e+3, 2.252673e+2, -730907.8, -807331.7, -988.88806, -0.078628264, 0.43251956, -730895.0, 1516.4236, 0.0, 10.000333, 9.999312 
1.5450549e+3, 2.3526436e+2, -642701.94, -690887.75, -20644.053, -0.0059558516, 0.16509229, -635067.2, -628.2875, 0.0, 10.000177, 9.999507 
1.5450634e+3, 2.4526323e+2, -538428.25, -618426.1, -70312.586, -0.013360943, 0.11921156, -497533.6, 38914.89, 0.000000000009610117, 10.000314, 9.999279 
1.5450703e+3, 2.5526363e+2, -376291.1, -476373.47, -50061.59, -0.09054918, 0.19347845, -355548.9, 82893.63, 0.0000005675007, 10.000704, 9.9993925 
1.5450788e+3, 2.652632e+2, -286124.88, -444264.06, 15357.749, -0.09265558, 0.24687281, -284647.22, 55800.31, 0.000008574752, 10.000921, 9.998835 
1.5450884e+3, 2.752618e+2, -159332.47, -320606.7, -45934.387, -0.044402864, 0.18398415, -147167.05, 95297.19, 0.00005426492, 10.001061, 9.998944 
1.5450966e+3, 2.8526118e+2, -17467.736, -234757.33, -104028.664, -0.06564842, 0.252316, 24305.734, 168773.92, 0.00026286932, 10.001521, 9.998618 
1.5451035e+3, 2.9526132e+2, 195454.19, -78791.6, -106538.125, -0.16383907, 0.35322642, 231977.66, 278437.94, 0.00086847367, 10.002294, 9.998644 
1.5451129e+3, 3.052574e+2, 200059.33, -339766.16, -4190.66, -0.12042233, 0.23979236, 200091.86, 200091.86, 0.0019581835, 10.003228, 9.996104 
1.5451248e+3, 3.152537e+2, 346779.38, -255289.7, -11864.236, 0.08387828, 0.21209697, 347013.06, 347013.06, 0.003383575, 10.004138, 9.996239 
1.5549536e+3, 1.2525028e+2, -2247149.3, -1795288.3, 50119.05, -0.20459694, 0.3176391, -1789795.9, -77217.19, 0.020587768, 9.995545, 10.001558 
1.5549663e+3, 1.3525262e+2, -1818723.1, -1442837.0, 4507.084, 0.034805883, 0.27440014, -1442782.9, 171773.63, 0.012455585, 9.997419, 10.002433 
1.5549776e+3, 1.4525448e+2, -1814769.5, -1640538.6, -4951.604, 0.27825227, 0.34147227, -1640398.0, -123858.82, 0.0055746003, 9.997838, 10.000191 
1.5549828e+3, 1.5525559e+2, -1643919.3, -1481264.1, -6238.75, -0.14310804, 0.38060722, -1481025.1, -62496.266, 0.001515748, 9.9982395, 10.000413 
1.5549913e+3, 1.6525613e+2, -1546298.6, -1457238.1, -83846.89, -0.19079839, 0.43806583, -1406830.3, -86304.195, 0.00016035176, 9.998555, 9.999744 
1.5550031e+3, 1.7525628e+2, -1437986.4, -1336072.8, -82232.484, 0.12970477, 0.4385269, -1290288.8, -67759.65, 0.0000013687348, 9.998557, 9.999899 
1.5550117e+3, 1.8525651e+2, -1321509.5, -1189494.3, -95680.43, 0.16487443, 0.46173427, -1139261.9, -14735.03, 0.0, 9.998511, 10.000261 
1.5550178e+3, 1.9525674e+2, -1225145.5, -1074263.1, -79808.94, -0.06671822, 0.41802806, -1039882.5, -13361.969, 0.0, 9.998433, 10.000413 
1.5550263e+3, 2.052562e+2, -1065750.4, -969976.0, -56518.652, -0.1047125, 0.34002438, -943785.25, -15263.3, 0.0, 9.998923, 10.000234 
1.555037e+3, 2.1525495e+2, -827948.75, -789195.3, -25427.63, 0.05130728, 0.15272357, -776602.94, 53927.48, 0.0, 9.999823, 10.000365 
1.5550464e+3, 2.2525537e+2, -763678.8, -827853.6, -19996.62, 0.063731626, 0.22242565, -757957.9, -25430.879, 0.0, 10.000125, 9.999271 
1.555055e+3, 2.3525721e+2, -671628.7, -716245.25, -12579.321, -0.04807653, 0.4376269, -668326.44, -33812.45, 0.0, 10.000021, 9.999412 
1.5550625e+3, 2.4525714e+2, -516175.88, -524564.06, -67368.21, -0.15243001, 0.46805483, -452871.34, 83642.04, 0.0, 10.000109, 10.000022 
1.5550697e+3, 2.5525534e+2, -351201.94, -382121.06, -23888.88, -0.22450367, 0.24294612, -338206.7, 100317.64, 0.0000005355393, 10.000525, 10.000125 
1.5550785e+3, 2.6525432e+2, -391251.25, -623914.7, 11037.135, -0.22284162, 0.2599088, -390728.84, -50193.99, 0.000008556659, 10.0007515, 9.997682 
1.5550886e+3, 2.7525395e+2, -264089.1, -498959.47, -20545.77, -0.15770935, 0.41102934, -262305.38, -19759.898, 0.000056489618, 10.0008955, 9.997795 
1.5550984e+3, 2.852522e+2, -35872.645, -228695.95, -85578.23, -0.08264834, 0.4197004, -3370.216, 141189.5, 0.00027893353, 10.001331, 9.998752 
1.5551078e+3, 2.952492e+2, 179971.7, -62751.06, -59413.92, 0.0071361964, 0.18351084, 193734.7, 240312.98, 0.0009152954, 10.002096, 9.998845 
1.5551174e+3, 3.0524525e+2, 191038.31, -298188.94, 15751.686, -0.009455071, 0.03444246, 191544.95, 191544.95, 0.0020518445, 10.002987, 9.996494 
1.5551274e+3, 3.1524548e+2, 356146.38, -118740.836, 67715.19, -0.12025233, 0.35175055, 365613.28, 365613.28, 0.0035355357, 10.0036745, 9.99738 
1.56495e+3, 1.2523831e+2, -2234765.0, -1808766.6, 28286.52, -0.11561544, 0.20228781, -1806896.5, -94202.81, 0.021849003, 9.99572, 10.001393 
1.5649627e+3, 1.3524222e+2, -1985696.4, -1488447.3, -70141.664, 0.017494245, 0.29805678, -1478742.5, 135916.5, 0.013250772, 9.996115, 10.002761 
1.5649754e+3, 1.4524476e+2, -1931717.9, -1684948.0, -74975.03, 0.3296675, 0.4055972, -1663954.6, -147319.02, 0.0059556314, 9.996994, 10.00029 
1.564981e+3, 1.552451e+2, -1706191.8, -1517773.9, -27827.475, -0.10558358, 0.36980274, -1513749.9, -95117.92, 0.0016345053, 9.997842, 10.000351 
1.5649897e+3, 1.652453e+2, -1609983.3, -1487068.4, -51114.133, -0.17644186, 0.3934991, -1468590.4, -147958.45, 0.00017771397, 9.998111, 9.9997635 
1.5650019e+3, 1.7524552e+2, -1464839.4, -1344914.5, -57841.297, 0.18918553, 0.39957672, -1321563.6, -98930.25, 0.0000016137079, 9.998341, 9.999952 
1.565011e+3, 1.8524602e+2, -1290127.0, -1177023.4, -35199.81, 0.23580386, 0.44493103, -1166963.4, -42334.66, 0.0, 9.998735, 10.000236 
1.5650167e+3, 1.952466e+2, -1078165.6, -1008362.25, -44776.9, -0.060052775, 0.43987426, -986491.6, 40128.242, 0.0, 9.999448, 10.000378 
1.5650254e+3, 2.0524606e+2, -990086.5, -929055.3, -19792.508, -0.09465082, 0.36239207, -923198.6, 5423.3374, 0.0, 9.9994545, 10.000239 
1.5650372e+3, 2.1524453e+2, -930159.75, -829328.94, -52772.453, 0.12048686, 0.14581507, -806760.44, 23872.725, 0.0, 9.999116, 10.000409 
1.565047e+3, 2.2524509e+2, -860650.5, -856415.6, -28433.586, 0.14128123, 0.21592076, -830020.75, -97392.234, 0.0, 9.999359, 9.999449 
1.5650551e+3, 2.3524739e+2, -642711.6, -680323.44, -21954.97, -0.019254915, 0.4572731, -632609.3, 2001.1694, 0.0, 10.000108, 9.999615 
1.565063e+3, 2.4524753e+2, -465068.13, -540712.25, -83462.41, -0.1366721, 0.51599115, -411257.88, 125351.19, 0.0, 10.000625, 9.999667 
1.5650705e+3, 2.5524572e+2, -310542.9, -396883.03, -147420.45, -0.21841575, 0.32435107, -200101.63, 238521.36, 0.00000039469393, 10.000951, 9.999815 
1.5650795e+3, 2.6524454e+2, -303727.13, -548577.1, -85033.234, -0.20903106, 0.32773298, -277093.3, 63540.734, 0.000008163994, 10.0012245, 9.997965 
1.5650901e+3, 2.7524385e+2, -168585.88, -423257.38, -42460.3, -0.12248588, 0.42215246, -161693.2, 80950.53, 0.000058543963, 10.001433, 9.998051 
1.5651004e+3, 2.852416e+2, 1980.4126, -274660.0, -35823.305, -0.01476482, 0.3967241, 6544.035, 151206.95, 0.00029613846, 10.001857, 9.998204 
1.565111e+3, 2.9523796e+2, 203100.16, -113775.81, -99449.55, 0.108989194, 0.16018139, 231725.81, 278416.9, 0.00096598663, 10.002506, 9.998318 
1.5651207e+3, 3.052343e+2, 177063.67, -229681.42, -25506.91, 0.059866298, 0.037240427, 178656.97, 178656.97, 0.0021639543, 10.002541, 9.997176 
1.5651299e+3, 3.152356e+2, 196455.13, -67832.26, 866.6587, -0.12487243, 0.3921557, 196457.97, 196457.97, 0.0037394469, 10.0019455, 9.998579 
1.5749462e+3, 1.2522733e+2, -2253858.5, -1880753.3, -154727.1, -0.1376125, 0.18227439, -1824937.6, -112135.21, 0.023204513, 9.995828, 10.000863 
1.5749578e+3, 1.3523276e+2, -2054457.4, -1630441.1, -27097.842, -0.11388433, 0.53381735, -1628716.4, -13959.114, 0.014108494, 9.996121, 10.001768 
1.57497e+3, 1.4523415e+2, -1834403.1, -1516894.1, -56467.438, 0.058193296, 0.5131818, -1507150.6, 9593.703, 0.0063687824, 9.997131, 10.001382 
1.574981e+3, 1.5523311e+2, -1645017.1, -1383448.0, 9061.674, 0.08970783, 0.24793836, -1383134.4, 35614.113, 0.00176415, 9.997815, 10.001286 
1.57499e+3, 1.6523328e+2, -1585994.9, -1448699.9, -61028.777, 0.0009219454, 0.2113831, -1425494.3, -104749.375, 0.00019721544, 9.998153, 10.000008 
1.5749988e+3, 1.752346e+2, -1453794.0, -1315125.5, -36591.227, 0.008173815, 0.29896322, -1306062.3, -83328.51, 0.0000019795527, 9.998315, 10.000168 
1.575008e+3, 1.8523528e+2, -1282026.1, -1174607.3, -21911.473, 0.03912099, 0.3523406, -1170309.6, -45582.074, 0.0, 9.998787, 10.000232 
1.5750173e+3, 1.9523528e+2, -1096034.0, -1023007.0, -10187.402, 0.03219451, 0.29182065, -1021612.5, 5114.166, 0.0, 9.9993515, 10.000325 
1.5750265e+3, 2.0523572e+2, -1041791.0, -1014668.94, -47347.996, 0.0277383, 0.3422024, -978978.25, -50255.703, 0.0, 9.99935, 9.999703 
1.5750359e+3, 2.1523651e+2, -992029.3, -922733.94, -54517.137, 0.058089647, 0.41240555, -892786.1, -62070.336, 0.0, 9.998962, 9.999845 
1.5750456e+3, 2.2523627e+2, -848104.75, -789616.75, -10364.063, 0.036673315, 0.40376475, -787834.56, -55117.03, 0.0, 9.999185, 9.9999895 
1.5750554e+3, 2.3523498e+2, -637251.75, -623117.5, 15732.811, -0.025151681, 0.23236424, -612937.44, 21790.43, 0.0, 9.999912, 10.000101 
1.5750642e+3, 2.4523455e+2, -597618.94, -767491.8, -84058.266, -0.093629554, 0.2815904, -563056.44, -26322.223, 0.0, 10.000411, 9.998213 
1.5750721e+3, 2.552348e+2, -434585.5, -617647.1, -122544.63, -0.16777156, 0.44129273, -373161.8, 65575.92, 0.00000029448665, 10.000787, 9.998376 
1.5750815e+3, 2.6523384e+2, -220902.27, -338821.13, -88364.44, -0.15315807, 0.45863613, -173633.22, 167112.13, 0.000007127328, 10.001055, 9.999492 
1.5750922e+3, 2.7523154e+2, -82354.24, -210697.67, -18081.697, -0.06085927, 0.23403953, -79855.45, 162903.34, 0.000059012113, 10.001289, 9.999581 
1.5751028e+3, 2.8522933e+2, -112928.68, -481823.97, -25237.885, -0.0029499088, 0.20555294, -111210.04, 33567.465, 0.00030982727, 10.001717, 9.996848 
1.575113e+3, 2.9522753e+2, 74015.32, -326607.72, -53286.426, 0.025662292, 0.28552362, 80981.75, 127780.19, 0.0010139171, 10.002272, 9.996965 
1.5751226e+3, 3.0522466e+2, 206990.17, -104020.195, -56042.13, -0.03927124, 0.25572258, 216780.42, 216780.42, 0.0022793359, 10.002291, 9.998144 
1.5751317e+3, 3.1522396e+2, 219054.2, 97487.984, 33486.02, -0.1855467, 0.30277961, 227667.78, 227667.78, 0.0039598485, 10.001482, 9.999913 
1.5849434e+3, 1.2521692e+2, -2020595.3, -1784936.0, -124066.016, -0.081302926, 0.24652612, -1731662.8, -18756.363, 0.024665277, 9.997516, 10.000691 
1.584955e+3, 1.3522115e+2, -1952547.3, -1607060.1, 19678.537, -0.04447655, 0.50453943, -1605942.9, 8927.721, 0.0150364665, 9.996937, 10.001529 
1.5849659e+3, 1.452225e+2, -1812588.3, -1491390.5, 29064.697, -0.052177582, 0.4838573, -1488781.6, 28076.426, 0.0068181083, 9.997221, 10.0015135 
1.5849799e+3, 1.552222e+2, -1561808.3, -1330161.0, -7091.5483, 0.16317554, 0.28465936, -1329944.1, 88912.87, 0.0019058621, 9.998325, 10.001408 
1.5849894e+3, 1.652227e+2, -1483000.1, -1336072.1, -104523.664, 0.117442556, 0.24535161, -1281777.9, 39071.367, 0.0002187055, 9.998597, 10.00056 
1.5849972e+3, 1.7522381e+2, -1398654.8, -1222650.8, -81908.664, 0.017284522, 0.2553062, -1190430.5, 32405.816, 0.000002466339, 9.998424, 10.000742 
1.5850069e+3, 1.8522438e+2, -1316697.0, -1208440.0, -12317.883, 0.041501407, 0.27777067, -1207056.1, -82225.66, 0.0, 9.998637, 10.000068 
1.5850173e+3, 1.9522434e+2, -1081764.1, -1030856.06, -36236.75, 0.09689428, 0.23299453, -1012026.8, 14804.802, 0.0, 9.999521, 10.000183 
1.585027e+3, 2.0522493e+2, -932846.9, -1011466.1, -65768.26, 0.09451474, 0.32419416, -895535.94, 33292.27, 0.0, 10.000288, 9.999289 
1.5850359e+3, 2.1522592e+2, -718766.5, -838719.94, -83694.08, 0.07045129, 0.45530707, -675777.6, 155044.0, 0.0, 10.001005, 9.999453 
1.5850455e+3, 2.2522545e+2, -618694.56, -688511.5, -42502.58, 0.027335506, 0.44772696, -598602.4, 134224.06, 0.0, 10.000822, 9.999901 
1.5850551e+3, 2.3522365e+2, -624335.0, -629565.75, -88741.19, -0.046617005, 0.24085405, -538170.7, 96670.875, 0.0, 10.000057, 10.000004 
1.5850645e+3, 2.4522303e+2, -660341.5, -785676.6, -114611.36, -0.069163494, 0.275922, -592383.7, -55534.285, 0.0, 9.999961, 9.998288 
1.5850739e+3, 2.5522348e+2, -467781.63, -629346.06, -72282.95, -0.053423144, 0.45135713, -440163.72, -1312.8331, 0.00000023115544, 10.000553, 9.998404 
1.5850839e+3, 2.6522234e+2, -214597.77, -350435.53, -20905.787, -0.03418516, 0.45772398, -211453.11, 129406.93, 0.0000061293663, 10.001164, 9.99935 
1.5850942e+3, 2.7521956e+2, 5285.399, -178407.45, -106728.43, -0.020953191, 0.2016973, 54246.375, 297124.03, 0.000060026516, 10.00195, 9.999471 
1.5851048e+3, 2.852178e+2, -32360.002, -433969.75, -109320.06, 0.0069113546, 0.2152696, -4530.948, 140362.28, 0.0003212461, 10.002235, 9.99692 
1.5851152e+3, 2.9521707e+2, 37641.69, -333527.7, -71131.1, 0.04788261, 0.3959015, 50806.367, 97711.984, 0.0010569163, 10.001959, 9.997065 
1.5851252e+3, 3.0521446e+2, 125309.7, -131218.0, -42820.965, 0.025929552, 0.37995008, 132268.83, 132268.83, 0.0023843483, 10.001655, 9.998295 
1.585134e+3, 3.152118e+2, 198975.75, 101949.03, -70631.86, -0.08333012, 0.22963671, 236150.22, 236150.22, 0.0041542365, 10.001257, 10.000089 
1.5949425e+3, 1.2520796e+2, -1988784.9, -1777589.5, 27017.893, 0.018033238, 0.44173315, -1774188.0, -61191.414, 0.026239868, 9.997723, 10.000657 
1.5949543e+3, 1.3520747e+2, -1928643.1, -1564220.3, 16196.886, 0.16516101, 0.18583155, -1563501.8, 51496.684, 0.016040104, 9.996957, 10.001816 
1.5949628e+3, 1.4520982e+2, -1856148.3, -1620439.1, 55497.668, -0.14573626, 0.30427054, -1608025.9, -91048.88, 0.0073062, 9.997365, 10.000566 
1.5949768e+3, 1.5521264e+2, -1608702.8, -1440906.0, 43833.83, 0.0037955416, 0.49525005, -1430145.4, -11190.449, 0.002060233, 9.99837, 10.00063 
1.5949878e+3, 1.6521382e+2, -1409937.4, -1207233.1, -129051.61, 0.05589353, 0.5206672, -1144492.1, 176450.1, 0.00024185247, 9.998692, 10.0014 
1.5949969e+3, 1.7521334e+2, -1345975.3, -1107765.6, -79322.62, 0.127686, 0.28631186, -1083768.9, 139170.52, 0.0000030340082, 9.998403, 10.001538 
1.5950066e+3, 1.8521337e+2, -1332909.6, -1251164.0, 5415.4087, 0.12626739, 0.23187202, -1250806.8, -125869.91, 0.0, 9.998668, 9.999762 
1.5950164e+3, 1.9521388e+2, -1116811.3, -1082538.1, 8988.1455, 0.029241566, 0.26821908, -1080324.0, -53389.49, 0.0, 9.999432, 9.99987 
1.5950266e+3, 2.0521379e+2, -966305.5, -1055141.1, -50598.777, -0.004787131, 0.32087022, -943394.44, -14456.21, 0.0, 10.000176, 9.999042 
1.5950368e+3, 2.1521299e+2, -767827.75, -888632.56, -48264.715, 0.05219192, 0.29391658, -750913.06, 80035.695, 0.0, 10.000792, 9.999209 
1.595046e+3, 2.252129e+2, -699702.56, -814370.5, -84362.45, -0.009600888, 0.37564567, -655035.5, 77917.12, 0.0, 10.000628, 9.999133 
1.595054e+3, 2.3521349e+2, -704998.2, -754908.3, -99244.8, -0.18686847, 0.48160046, -627619.06, 7331.376, 0.0, 9.99987, 9.999235 
1.5950637e+3, 2.4521309e+2, -592235.06, -596347.8, -99017.195, -0.18042515, 0.505446, -495252.88, 41700.84, 0.0, 9.999756, 9.999683 
1.5950753e+3, 2.5521174e+2, -402280.75, -441038.5, -36027.063, 0.014959104, 0.35722286, -380751.3, 58211.41, 0.00000009760233, 10.000343, 9.999788 
1.595086e+3, 2.6521006e+2, -370571.78, -636049.06, -3316.7166, 0.038326424, 0.3361912, -370530.38, -29552.395, 0.0000054247644, 10.000993, 9.997474 
1.5950955e+3, 2.75208e+2, -152881.73, -461227.97, -59332.64, -0.105122685, 0.33340886, -141858.88, 101140.75, 0.0000627863, 10.001749, 9.997626 
1.5951061e+3, 2.8520682e+2, 35102.973, -241473.8, -130500.13, -0.10401843, 0.4231922, 86956.54, 231968.06, 0.0003316825, 10.00201, 9.998352 
1.5951173e+3, 2.9520628e+2, 105118.51, -139547.36, -60024.184, 0.03530939, 0.478507, 119050.945, 166066.53, 0.0010853008, 10.001729, 9.99851 
1.5951277e+3, 3.0520356e+2, 30185.678, -263510.06, -71320.01, 0.103754826, 0.42112845, 46588.656, 46588.656, 0.0024493223, 10.001397, 9.9975 
1.5951361e+3, 3.1519914e+2, 52731.76, -93037.21, -36663.06, -0.044607017, 0.17718112, 61433.598, 61433.598, 0.00426671, 10.000826, 9.998942 
1.6049404e+3, 1.251967e+2, -2121095.0, -1810751.6, 107281.8, 0.10117337, 0.47306326, -1777276.5, -64170.434, 0.027939666, 9.996733, 10.000897 
1.6049518e+3, 1.3519551e+2, -1786748.6, -1477209.5, -59564.082, 0.1954529, 0.13532946, -1466143.4, 148969.6, 0.01712635, 9.997876, 10.00197 
1.6049613e+3, 1.4519753e+2, -1815688.3, -1590897.0, 46602.05, -0.036003135, 0.21397124, -1581618.8, -64524.53, 0.007836914, 9.997634, 10.000615 
1.6049744e+3, 1.5520103e+2, -1788630.8, -1507684.1, 71341.6, -0.011255117, 0.45633662, -1490606.3, -71540.18, 0.0022287087, 9.997068, 10.000781 
1.6049857e+3, 1.6520268e+2, -1611743.3, -1303606.8, -60405.14, 0.051472716, 0.51931345, -1292188.4, 28861.746, 0.00026665046, 9.997313, 10.001401 
1.6049959e+3, 1.7520249e+2, -1308236.0, -1089940.4, -99872.36, 0.17819208, 0.3170155, -1051143.1, 171903.42, 0.0000036433328, 9.998663, 10.00154 
1.605006e+3, 1.8520267e+2, -1266993.9, -1243270.9, -24335.316, 0.17701784, 0.2899418, -1228060.3, -103016.26, 0.0, 9.999212, 9.999554 
1.6050157e+3, 1.9520311e+2, -1148684.4, -1120050.8, -39061.88, 0.030383097, 0.3363371, -1092764.6, -65721.336, 0.0, 9.999283, 9.999689 
1.6050264e+3, 2.0520277e+2, -1079468.5, -1074708.9, -53058.094, 0.02138137, 0.3611388, -1023977.25, -94928.29, 0.0, 9.999274, 9.999335 
1.6050379e+3, 2.1520175e+2, -956508.8, -944939.5, -39190.152, 0.13980031, 0.28508225, -911109.4, -80049.15, 0.0, 9.99937, 9.999503 
1.605047e+3, 2.2520179e+2, -840181.2, -905431.8, -26898.896, 0.07824463, 0.37455326, -830522.2, -97459.12, 0.0, 9.999767, 9.998912 
1.6050543e+3, 2.3520277e+2, -622859.4, -728672.9, -27330.246, -0.1614526, 0.54207563, -616217.3, 18840.582, 0.0, 10.000508, 9.999083 
1.605064e+3, 2.4520235e+2, -420495.75, -502071.84, -18531.549, -0.17417637, 0.56101155, -416483.3, 120577.8, 0.0, 10.000877, 9.999804 
1.605076e+3, 2.552005e+2, -302427.06, -381746.1, -72513.305, 0.038963024, 0.35682186, -259436.38, 179636.55, 0.000000007673713, 10.000963, 9.999911 
1.6050872e+3, 2.6519886e+2, -332804.53, -609768.9, 20224.688, 0.071585625, 0.32886633, -331335.44, 9751.949, 0.0000049768487, 10.001214, 9.997559 
1.6050975e+3, 2.7519742e+2, -172768.63, -468389.66, 68202.7, -0.075365245, 0.3865649, -157792.28, 85311.85, 0.00006482946, 10.001579, 9.997683 
1.6051081e+3, 2.8519604e+2, 13177.947, -237187.0, 28113.21, -0.08182453, 0.45046186, 16295.919, 161413.69, 0.00033743004, 10.001765, 9.998509 
1.6051191e+3, 2.9519475e+2, 146651.58, -95631.68, -33591.816, 0.041164458, 0.41345698, 151222.73, 198351.34, 0.0010901192, 10.00191, 9.998725 
1.6051298e+3, 3.0519283e+2, 156027.4, -212184.89, -20879.854, 0.14867918, 0.42691085, 157207.63, 157207.63, 0.00245271, 10.002289, 9.9974165 
1.6051385e+3, 3.1518972e+2, 291228.72, -34114.43, -1067.6599, 0.025410868, 0.31980342, 291232.22, 291232.22, 0.0042672995, 10.002675, 9.998454 
1.6149373e+3, 1.2518239e+2, -2052482.1, -1728794.4, 93476.664, 0.049311426, 0.26192543, -1703739.0, 9502.629, 0.02978273, 9.996963, 10.001367 
1.6149472e+3, 1.3518582e+2, -1785082.3, -1483008.4, -30227.564, -0.08405335, 0.3942908, -1480013.3, 135195.34, 0.018308382, 9.997907, 10.001925 
1.614961e+3, 1.451861e+2, -1723838.9, -1426990.5, 7576.6914, 0.14247406, 0.24734178, -1426797.3, 90407.99, 0.008418617, 9.997734, 10.001701 
1.6149719e+3, 1.5518738e+2, -1716624.9, -1361938.6, 62510.336, 0.015268652, 0.16497955, -1351244.1, 67946.5, 0.0024150687, 9.997085, 10.001776 
1.6149826e+3, 1.651892e+2, -1645913.8, -1413152.3, -28698.846, -0.020273168, 0.23668164, -1409665.9, -88492.09, 0.0002938315, 9.99746, 10.000584 
1.6149938e+3, 1.7519128e+2, -1364012.5, -1213418.5, -41315.113, 0.0757505, 0.3463919, -1202828.5, 20328.78, 0.000004294035, 9.998678, 10.000693 
1.6150045e+3, 1.8519223e+2, -1274900.0, -1263405.1, -35767.848, 0.07683673, 0.44592214, -1232925.9, -107774.04, 0.0, 9.999233, 9.999401 
1.6150148e+3, 1.9519205e+2, -1170227.6, -1147381.0, -25921.291, -0.003950418, 0.44368088, -1130477.5, -103319.86, 0.0, 9.999213, 9.999534 
1.6150263e+3, 2.0519203e+2, -1043976.1, -971102.8, -66303.336, 0.046013873, 0.4674957, -931883.9, -2724.746, 0.0, 9.999145, 10.000108 
1.6150384e+3, 2.151922e+2, -927962.44, -848881.3, -25153.246, 0.23652606, 0.43116388, -841558.9, -10402.47, 0.0, 9.999213, 10.000234 
1.615048e+3, 2.25192e+2, -855054.9, -881321.25, -11929.901, 0.18555248, 0.44977158, -850445.4, -117287.12, 0.0, 9.999536, 9.9991865 
1.6150558e+3, 2.3519143e+2, -634883.56, -703646.3, 13024.802, -0.08557709, 0.42947757, -632499.1, 2665.8645, 0.0, 10.0003, 9.999352 
1.615065e+3, 2.4519068e+2, -524733.1, -678504.44, -30196.707, -0.17650326, 0.45932832, -519015.84, 18156.973, 0.0, 10.000694, 9.998683 
1.6150759e+3, 2.5518975e+2, -406686.5, -553322.0, -53285.867, -0.08861024, 0.4513272, -389368.28, 49813.227, 0.00000000987263, 10.000769, 9.998827 
1.6150875e+3, 2.6518872e+2, -240348.1, -362755.28, 20743.8, -0.053416796, 0.4470678, -236928.27, 104260.01, 0.000004852571, 10.000983, 9.99936 
1.6150993e+3, 2.7518746e+2, -78042.15, -222636.63, 99889.9, -0.06169009, 0.34136748, -27031.31, 216163.34, 0.00006465758, 10.001386, 9.999454 
1.6151103e+3, 2.851854e+2, -96599.82, -421450.2, 15961.485, -0.06371681, 0.30837792, -95817.445, 49396.125, 0.0003366383, 10.0015745, 9.997337 
1.6151202e+3, 2.9518265e+2, 37721.496, -272032.28, -6604.9033, -0.063141726, 0.23360854, 37862.27, 85105.58, 0.0010767062, 10.001691, 9.997622 
1.6151312e+3, 3.0518207e+2, 158213.23, -136789.08, -22405.469, 0.021797115, 0.39921263, 159905.22, 159905.22, 0.002407603, 10.002014, 9.998046 
1.6151398e+3, 3.1518376e+2, 225869.77, -37645.1, 57594.047, -0.13710631, 0.70688117, 237907.66, 237907.66, 0.0041738376, 10.002167, 9.998642 
1.6249359e+3, 1.2516987e+2, -2126196.8, -1768149.1, 160542.33, 0.236915, 0.120347105, -1706708.0, 6651.78, 0.03179242, 9.996478, 10.001299 
1.6249448e+3, 1.3517459e+2, -1784458.0, -1552175.9, 44187.746, -0.1153721, 0.43339035, -1544053.9, 71264.62, 0.019603958, 9.998193, 10.001297 
1.6249596e+3, 1.4517495e+2, -1632568.6, -1368294.4, -17077.936, 0.20361543, 0.31921998, -1367195.3, 150119.98, 0.009062119, 9.99832, 10.00182 
1.6249695e+3, 1.5517531e+2, -1645363.0, -1310422.5, -49127.29, 0.04309622, 0.13167593, -1303365.5, 115942.27, 0.002624408, 9.997513, 10.00192 
1.6249804e+3, 1.651769e+2, -1629937.6, -1430939.5, -51241.684, -0.008401161, 0.18563433, -1418520.0, -97226.34, 0.00032476612, 9.997695, 10.000339 
1.6249925e+3, 1.7517939e+2, -1324088.0, -1212095.5, -46966.23, 0.07588502, 0.35600632, -1195006.9, 28268.55, 0.000005034694, 9.999046, 10.000508 
1.625004e+3, 1.8518052e+2, -1211411.8, -1200368.4, -22336.736, 0.09808431, 0.46786714, -1182881.0, -57612.32, 0.0, 9.999536, 9.999694 
1.6250147e+3, 1.951804e+2, -1114871.3, -1077238.5, -1473.5022, 0.043744877, 0.44125676, -1077180.9, -49908.766, 0.0, 9.999432, 9.999904 
1.6250259e+3, 2.051807e+2, -996457.0, -942326.2, -21605.541, 0.09111329, 0.47350124, -934760.1, -5490.359, 0.0, 9.99943, 10.000173 
1.6250376e+3, 2.1518129e+2, -869872.3, -814476.9, -55190.637, 0.23948787, 0.4733973, -780423.75, 50839.453, 0.0, 9.999569, 10.000306 
1.625048e+3, 2.2518095e+2, -774679.3, -817493.2, -24947.68, 0.22055852, 0.46354905, -763213.1, -29947.428, 0.0, 9.999967, 9.999419 
1.6250573e+3, 2.351797e+2, -572704.2, -652679.2, -32856.46, 0.030004352, 0.35376513, -560937.0, 74340.375, 0.0, 10.000619, 9.999557 
1.6250668e+3, 2.4517882e+2, -500898.97, -680624.06, -42300.223, -0.06881314, 0.36935443, -491440.9, 45845.063, 0.0, 10.000919, 9.998553 
1.6250767e+3, 2.5517827e+2, -386997.25, -560078.94, -24526.268, -0.0993399, 0.41329518, -383588.9, 55702.887, 0.000000011745934, 10.000962, 9.998686 
1.6250883e+3, 2.6517743e+2, -196906.64, -313389.56, 66307.734, -0.06963689, 0.42168802, -166894.02, 174402.9, 0.0000048598445, 10.001165, 9.999606 
1.6251017e+3, 2.7517623e+2, -37082.125, -177129.02, -2044.4637, 0.022622457, 0.3004423, -37052.285, 206249.94, 0.00006306325, 10.001553, 9.999679 
1.6251129e+3, 2.851743e+2, -59943.723, -397270.16, -73134.76, 0.025343904, 0.2694062, -44770.13, 100549.1, 0.00033149842, 10.001823, 9.997372 
1.625122e+3, 2.951717e+2, 92225.24, -246479.2, -57264.996, -0.07357537, 0.21189672, 101645.09, 148992.33, 0.001055369, 10.002073, 9.997612 
1.6251332e+3, 3.0517048e+2, 204762.7, -125226.96, -20711.197, 0.011629063, 0.31566557, 206057.53, 206057.53, 0.0023387203, 10.002363, 9.997974 
1.6251428e+3, 3.1517223e+2, 274912.03, -43781.637, -68734.41, -0.06801694, 0.6488798, 289104.34, 289104.34, 0.0040219645, 10.002574, 9.99844 
1.634933e+3, 1.251602e+2, -2147351.8, -1846088.1, -16076.854, 0.24313658, 0.1256118, -1845232.6, -131782.95, 0.03398967, 9.99661, 10.000705 
1.6349445e+3, 1.3516177e+2, -1871859.0, -1736341.3, 119399.04, -0.0027709298, 0.24819401, -1666814.3, -51371.383, 0.02102759, 9.99821, 10.000016 
1.6349566e+3, 1.4516404e+2, -1659815.4, -1466484.8, -74131.9, 0.018365446, 0.42953932, -1441331.8, 76093.29, 0.009775217, 9.998486, 10.001068 
1.6349663e+3, 1.5516509e+2, -1692552.4, -1410754.8, -70295.52, -0.052311894, 0.37935278, -1394192.8, 25222.414, 0.002860367, 9.997523, 10.001226 
1.634978e+3, 1.6516602e+2, -1595293.3, -1376029.5, -16615.65, -0.04408285, 0.38437983, -1374777.5, -53370.348, 0.00036087315, 9.997759, 10.000691 
1.6349919e+3, 1.7516679e+2, -1303362.1, -1166885.3, 8565.202, 0.077847145, 0.35145062, -1166349.8, 57051.69, 0.000005927034, 9.999035, 10.000827 
1.6350041e+3, 1.8516745e+2, -1139443.9, -1068451.4, -43102.75, 0.12098462, 0.35667136, -1048110.1, 77284.94, 0.0, 9.9996, 10.000574 
1.6350147e+3, 1.9516808e+2, -1063532.1, -960128.56, 3487.5974, 0.076350115, 0.31776643, -960011.06, 67376.61, 0.0, 9.999377, 10.000741 
1.635025e+3, 2.0516859e+2, -1059149.0, -1040640.75, -29587.805, 0.04801645, 0.36290258, -1018893.6, -89510.695, 0.0, 9.999292, 9.999566 
1.6350356e+3, 2.1516892e+2, -935123.4, -915145.5, -35553.87, 0.050796434, 0.39964956, -888204.0, -56822.445, 0.0, 9.999412, 9.999695 
1.6350466e+3, 2.251686e+2, -802129.3, -821156.1, -9830.159, 0.053664047, 0.4164493, -797962.94, -64577.438, 0.0, 9.99974, 9.9995 
1.6350585e+3, 2.3516764e+2, -594476.75, -650473.25, 4394.696, 0.080808714, 0.32309237, -594133.94, 41260.477, 0.0, 10.00042, 9.999664 
1.635069e+3, 2.4516682e+2, -483413.03, -587107.56, -53235.37, 0.028224934, 0.2989518, -460949.16, 76451.06, 0.0, 10.000678, 9.999309 
1.6350777e+3, 2.5516608e+2, -358145.66, -460030.22, -7690.9316, -0.106884435, 0.25034937, -357568.34, 81835.4, 0.000000006263202, 10.000802, 9.999444 
1.6350895e+3, 2.6516512e+2, -309356.56, -516683.38, 67440.77, -0.09545092, 0.278132, -289349.6, 52062.043, 0.000005059976, 10.0010195, 9.99829 
1.6351038e+3, 2.7516395e+2, -149891.66, -373250.16, 34892.793, 0.06285468, 0.27878237, -144567.64, 98856.734, 0.000060994436, 10.001377, 9.998423 
1.6351151e+3, 2.8516284e+2, -25683.574, -265855.63, -76216.96, 0.041325964, 0.33886316, -3538.5227, 141895.7, 0.0003219481, 10.001582, 9.9983835 
1.6351236e+3, 2.951618e+2, 119586.016, -127183.49, -21749.14, -0.13812494, 0.3409657, 121488.22, 168930.03, 0.0010251402, 10.001827, 9.998541 
1.6351353e+3, 3.0515802e+2, 100453.11, -273174.44, -28667.322, -0.03332493, 0.19485722, 102639.87, 102639.87, 0.0022546845, 10.002074, 9.997095 
1.6351467e+3, 3.151554e+2, 185850.95, -127292.83, -25851.898, 0.0125603, 0.16437519, 187970.84, 187970.84, 0.003841826, 10.002154, 9.99806 
1.6449301e+3, 1.2515098e+2, -1749348.9, -1598978.5, -68306.805, 0.16119736, 0.25242355, -1572583.0, 140959.8, 0.036383986, 9.999134, 10.001212 
1.644944e+3, 1.351501e+2, -2032209.1, -1869587.4, 95946.445, 0.18187527, 0.18351783, -1825131.9, -209574.7, 0.022584815, 9.997383, 9.9994955 
1.6449538e+3, 1.4515193e+2, -1917829.8, -1624943.4, -2046.556, -0.022921508, 0.3655901, -1624929.1, -107386.09, 0.010560797, 9.996849, 10.000773 
1.6449639e+3, 1.5515377e+2, -1536737.6, -1362310.1, 12236.176, -0.090494245, 0.414, -1361456.0, 58071.04, 0.0031241647, 9.99868, 10.00101 
1.6449766e+3, 1.6515471e+2, -1395231.5, -1276523.6, 94415.94, -0.025919603, 0.4264671, -1224355.0, 97163.46, 0.0004029895, 9.999119, 10.000721 
1.644991e+3, 1.7515482e+2, -1391822.1, -1212207.6, 73717.52, 0.121543325, 0.32913706, -1185827.0, 37690.215, 0.0000070009137, 9.99843, 10.000818 
1.6450034e+3, 1.8515529e+2, -1300859.1, -1131836.0, 6503.4204, 0.15609498, 0.31143108, -1131586.1, -6074.4365, 0.0, 9.998451, 10.000674 
1.645014e+3, 1.9515613e+2, -1051663.4, -941584.4, -33315.742, 0.07451091, 0.28095847, -932286.56, 95215.59, 0.0, 9.999419, 10.0008335 
1.6450246e+3, 2.0515658e+2, -938894.06, -973076.7, -46395.063, 0.028876035, 0.31255314, -906542.3, 22955.432, 0.0, 10.00008, 9.999643 
1.645035e+3, 2.1515669e+2, -768606.5, -818266.3, -27355.463, 0.00751815, 0.31430802, -756492.6, 75005.58, 0.0, 10.000501, 9.999819 
1.6450465e+3, 2.2515666e+2, -671327.6, -774662.3, 42471.043, 0.029489433, 0.36148867, -656112.2, 77387.695, 0.0, 10.0007105, 9.999366 
1.6450593e+3, 2.3515639e+2, -557391.44, -649744.75, 15556.988, 0.09841379, 0.35461786, -554841.25, 80662.81, 0.0, 10.000746, 9.999525 
1.6450706e+3, 2.4515566e+2, -394732.0, -533792.56, -44342.645, 0.09366085, 0.34285736, -381795.75, 155713.63, 0.0, 10.001243, 9.999405 
1.6450801e+3, 2.5515443e+2, -150887.3, -356817.47, -78610.17, -0.0067762216, 0.24075888, -124309.47, 315207.1, 0.000000005166704, 10.002209, 9.999485 
1.6450919e+3, 2.6515326e+2, -131420.66, -457842.94, 12335.816, -0.015182381, 0.2593009, -130955.14, 210572.11, 0.000005473011, 10.002371, 9.998031 
1.6451052e+3, 2.751521e+2, -87610.71, -366154.06, 14446.525, 0.04875823, 0.28868392, -86863.45, 156678.31, 0.000058881178, 10.001928, 9.998189 
1.6451165e+3, 2.851512e+2, 32527.922, -215898.23, -46255.82, 0.018550364, 0.37094113, 40861.023, 186410.61, 0.0003079229, 10.00188, 9.998595 
1.645126e+3, 2.9515064e+2, 153538.44, -90586.41, -85372.22, -0.08083178, 0.40205675, 180431.22, 227982.23, 0.0009851714, 10.00198, 9.99872 
1.6451383e+3, 3.051461e+2, 193161.77, -268039.25, -33579.574, 0.03675131, 0.188498, 195593.84, 195593.84, 0.0021641322, 10.002837, 9.996782 
1.6451499e+3, 3.151424e+2, 491071.53, 45074.375, -80395.34, 0.039761353, 0.07905506, 505121.0, 505121.0, 0.0036697462, 10.004149, 9.998281 
1.6549271e+3, 1.2514149e+2, -1603129.5, -1345190.8, 3963.3691, -0.123310395, 0.42033172, -1345129.9, 368516.6, 0.03897044, 9.99933, 10.002931 
1.6549431e+3, 1.3513996e+2, -2018908.5, -1846866.6, 17540.244, 0.33296084, 0.265978, -1845096.6, -229438.66, 0.024272982, 9.997394, 9.999652 
1.6549505e+3, 1.451388e+2, -1893393.3, -1587675.6, 43000.53, -0.0667707, 0.13224709, -1581742.6, -64074.78, 0.0114189135, 9.996905, 10.001 
1.654962e+3, 1.5514143e+2, -1517742.6, -1328086.1, 90392.086, -0.18013883, 0.24025859, -1291906.3, 127736.01, 0.0034161112, 9.998706, 10.001233 
1.6549754e+3, 1.6514309e+2, -1391501.8, -1304603.9, 52459.78, -0.08463741, 0.3250527, -1279936.5, 41690.125, 0.00045137366, 9.999259, 10.000465 
1.6549896e+3, 1.7514369e+2, -1406577.5, -1241104.6, 56870.934, 0.10951341, 0.29672137, -1223443.8, 177.03903, 0.000008273259, 9.998424, 10.000619 
1.6550016e+3, 1.8514417e+2, -1349398.9, -1243012.5, 31034.143, 0.09662481, 0.32657096, -1234621.4, -109003.97, 0.0, 9.998484, 9.999903 
1.6550122e+3, 1.9514453e+2, -1112790.3, -1057117.5, 11812.904, -0.06517125, 0.3272932, -1054714.8, -27098.723, 0.0, 9.999358, 10.000076 
1.6550235e+3, 2.0514469e+2, -906210.7, -873459.3, -42677.785, -0.09351644, 0.3280651, -844123.3, 85491.016, 0.0, 9.999947, 10.00039 
1.6550356e+3, 2.1514457e+2, -742489.94, -721167.5, -1509.6843, 0.009578082, 0.23072009, -721061.1, 110552.01, 0.0, 10.000318, 10.000574 
1.6550475e+3, 2.2514495e+2, -725185.5, -839307.25, 28633.809, 0.02822865, 0.29789555, -718404.1, 15206.91, 0.0, 10.000505, 9.999021 
1.655059e+3, 2.3514573e+2, -609950.3, -715460.25, 32116.154, -0.022356635, 0.43348303, -600943.4, 34665.055, 0.0, 10.000558, 9.999167 
1.6550711e+3, 2.451452e+2, -473800.7, -644365.3, -15218.254, -0.006282324, 0.4916115, -472453.5, 65161.17, 0.0, 10.001016, 9.998751 
1.6550836e+3, 2.5514328e+2, -225810.4, -460926.06, -28410.8, 0.097330876, 0.38094047, -222426.03, 217204.28, 0.00000000856411, 10.002001, 9.998859 
1.6550952e+3, 2.651417e+2, -120494.13, -390949.72, -17787.623, 0.058420256, 0.35885212, -119329.27, 222315.36, 0.0000057188686, 10.00217, 9.998591 
1.6551057e+3, 2.7514043e+2, -68386.08, -290718.84, 16394.469, -0.13039798, 0.32047, -67183.68, 176473.69, 0.00005720022, 10.001766, 9.998788 
1.6551167e+3, 2.851393e+2, -37691.6, -309050.78, -58925.59, -0.17105857, 0.36853847, -25448.32, 120219.2, 0.0002952708, 10.001649, 9.998069 
1.6551286e+3, 2.9513797e+2, 90799.016, -183221.58, -56586.188, -0.042455707, 0.37830907, 102024.4, 149701.75, 0.0009504649, 10.001805, 9.998172 
1.6551416e+3, 3.0513427e+2, 147898.89, -282515.1, 2615.3594, 0.056300744, 0.2753904, 147914.78, 147914.78, 0.002096844, 10.002519, 9.996826 
1.6551521e+3, 3.1513223e+2, 466481.63, 95828.95, 23887.773, -0.21010512, 0.32193065, 468014.8, 468014.8, 0.0035557318, 10.003704, 9.998848 
1.664925e+3, 1.2512967e+2, -2032662.1, -1501624.5, 111115.58, -0.09431471, 0.3666648, -1479311.9, 234454.02, 0.041736465, 9.996132, 10.003374 
1.6649406e+3, 1.3513006e+2, -1894832.4, -1746270.6, -7851.9033, 0.32100528, 0.36361915, -1745856.8, -130100.94, 0.026087236, 9.998036, 10.000043 
1.6649488e+3, 1.4512846e+2, -1740727.9, -1559673.0, 74552.39, 0.004740616, 0.19060972, -1532926.0, -15157.208, 0.012349877, 9.998176, 10.000566 
1.664961e+3, 1.551297e+2, -1651480.8, -1430511.0, 55846.65, -0.11683606, 0.1962915, -1417198.6, 2558.5059, 0.003737191, 9.997976, 10.000866 
1.6649745e+3, 1.6513088e+2, -1564198.8, -1422040.1, -10827.635, -0.049237367, 0.2717748, -1421220.1, -99473.98, 0.00050616945, 9.998248, 10.0001335 
1.664988e+3, 1.7513174e+2, -1328775.8, -1241916.3, -45896.54, 0.07960355, 0.30108306, -1222158.8, 1579.583, 0.000009797576, 9.9991255, 10.000273 
1.6650002e+3, 1.8513213e+2, -1268708.3, -1200193.5, -17822.06, 0.07839823, 0.33971205, -1195835.0, -70099.52, 0.0, 9.999028, 9.9999275 
1.6650113e+3, 1.9513223e+2, -1250988.0, -1114953.6, 1059.9742, -0.02967781, 0.30977994, -1114945.4, -87209.78, 0.0, 9.998386, 10.000134 
1.6650233e+3, 2.0513251e+2, -1111992.5, -963470.44, -7369.0215, -0.045860875, 0.31277737, -963105.7, -33373.305, 0.0, 9.998494, 10.000474 
1.6650355e+3, 2.1513288e+2, -872968.06, -775745.2, -40105.063, 0.015578629, 0.2562098, -761336.9, 70389.83, 0.0, 9.999383, 10.000651 
1.6650477e+3, 2.2513324e+2, -782704.8, -871671.8, -10911.025, 0.03253657, 0.32313994, -781386.25, -47661.633, 0.0, 10.000137, 9.998961 
1.6650598e+3, 2.3513363e+2, -573051.9, -696983.9, -15590.319, 0.00054798817, 0.41917637, -571120.75, 64604.977, 0.0, 10.000814, 9.999151 
1.6650723e+3, 2.4513295e+2, -484915.94, -650442.8, -7725.51, 0.028466353, 0.46269557, -484556.13, 53176.85, 0.0, 10.000915, 9.998781 
1.665085e+3, 2.5513116e+2, -443600.5, -561615.8, 7549.4883, 0.117128536, 0.36445755, -443119.53, -3372.3875, 0.0000000057748837, 10.00047, 9.9989195 
1.6650967e+3, 2.6512966e+2, -317161.06, -479605.8, 55382.133, 0.0662413, 0.3464523, -300076.5, 41683.824, 0.0000055479773, 10.000788, 9.99865 
1.6651072e+3, 2.7512845e+2, -55559.848, -295103.84, 17459.885, -0.1456879, 0.3132067, -54293.92, 189478.72, 0.000055377644, 10.001862, 9.998734 
1.6651188e+3, 2.8512698e+2, 91731.93, -248789.53, -36974.04, -0.1616087, 0.33847463, 95700.35, 241486.31, 0.00028510438, 10.00255, 9.998031 
1.6651314e+3, 2.9512534e+2, 237144.17, -114344.95, -48398.867, 0.0137467105, 0.31675616, 243686.75, 291486.38, 0.0009269267, 10.002849, 9.99812 
1.6651447e+3, 3.0512235e+2, 224718.31, -237304.98, 81991.586, 0.11139596, 0.28333738, 238837.23, 238837.23, 0.0020627284, 10.003012, 9.996888 
1.6651556e+3, 3.1512073e+2, 348692.1, 80824.87, 35595.92, -0.16461082, 0.36199382, 353341.6, 353341.6, 0.0035151397, 10.00273, 9.999192 
1.6749229e+3, 1.2511674e+2, -2079879.5, -1614731.8, 135334.98, 0.01768037, 0.21186163, -1578221.6, 135667.48, 0.044670317, 9.996209, 10.002533 
1.674936e+3, 1.3512062e+2, -1841893.6, -1653161.8, 46961.008, 0.011807498, 0.49212512, -1642122.4, -26273.29, 0.028026333, 9.998098, 10.000658 
1.674948e+3, 1.4512102e+2, -1795535.8, -1697542.0, 42644.99, 0.06987379, 0.5341736, -1681582.8, -163737.4, 0.013357116, 9.998276, 9.999571 
1.6749603e+3, 1.5511869e+2, -1724857.1, -1584266.9, 61445.047, -0.0049719675, 0.28723282, -1561197.6, -141327.38, 0.004090086, 9.99798, 9.999811 
1.674973e+3, 1.651181e+2, -1582812.9, -1482978.6, 8245.446, -0.05004853, 0.26050863, -1482302.3, -160424.75, 0.0005678562, 9.998338, 9.999677 
1.6749859e+3, 1.7511898e+2, -1365835.1, -1312411.6, -6188.537, -0.06725574, 0.344059, -1311704.1, -87834.59, 0.000011659807, 9.9991, 9.999804 
1.6749984e+3, 1.8511936e+2, -1204171.1, -1078669.8, -56911.598, -0.028245635, 0.3618789, -1056705.8, 69158.57, 0.0, 9.999071, 10.000749 
1.675011e+3, 1.9511928e+2, -1205686.0, -1005756.5, -14442.009, 0.07662679, 0.23269565, -1004718.6, 23142.234, 0.0, 9.998317, 10.000923 
1.6750231e+3, 2.0512003e+2, -1161236.9, -1046716.56, 12490.954, 0.057754304, 0.27051476, -1045370.0, -115517.57, 0.0, 9.9984045, 9.999949 
1.6750342e+3, 2.151215e+2, -936715.6, -871352.25, 5251.473, -0.077588074, 0.38088146, -870933.06, -39093.246, 0.0, 9.999215, 10.000082 
1.675047e+3, 2.2512148e+2, -805803.7, -862516.3, 4812.162, -0.083447695, 0.4305347, -805398.3, -71557.27, 0.0, 9.999894, 9.999139 
1.6750614e+3, 2.3512007e+2, -589512.5, -687523.5, 19837.982, 0.058323823, 0.32799333, -585649.44, 50206.41, 0.0, 10.000627, 9.999307 
1.6750738e+3, 2.4511893e+2, -463801.34, -555672.06, -39339.984, 0.06939864, 0.2794104, -449257.84, 88606.58, 0.0, 10.000695, 9.9995365 
1.675084e+3, 2.551181e+2, -417770.72, -465475.47, 6390.978, -0.048810415, 0.19938347, -416929.38, 22937.365, 0.0000000017385277, 10.000285, 9.999668 
1.675096e+3, 2.651172e+2, -387831.84, -573490.25, 83855.97, -0.11565967, 0.22785951, -355564.72, -13690.374, 0.0000048816705, 10.00056, 9.998118 
1.6751096e+3, 2.7511603e+2, -118979.945, -387106.84, 78870.06, -0.11718707, 0.25487033, -97500.81, 146388.23, 0.000051551386, 10.001687, 9.998191 
1.6751224e+3, 2.8511432e+2, 66160.84, -240237.6, -36275.047, -0.10176774, 0.2755096, 70396.945, 216302.61, 0.0002714196, 10.002283, 9.998222 
1.675134e+3, 2.9511246e+2, 229550.28, -86013.63, -12890.503, -0.052265286, 0.20525257, 230075.97, 277996.63, 0.0008993855, 10.002638, 9.998426 
1.6751474e+3, 3.0511004e+2, 170965.73, -253600.84, 58449.79, 0.04610907, 0.20697828, 178865.5, 178865.5, 0.0020323566, 10.002631, 9.996949 
1.6751595e+3, 3.1510714e+2, 296361.22, 58791.094, 73380.57, -0.11069399, 0.15535237, 317199.22, 317199.22, 0.0035038108, 10.002384, 9.999194 
1.6849211e+3, 1.2510516e+2, -1826184.4, -1546050.8, 92882.74, 0.13176149, 0.26754883, -1518052.4, 195948.22, 0.04776628, 9.998193, 10.002055 
1.6849327e+3, 1.3510829e+2, -1952710.9, -1687460.5, -41709.086, -0.05616655, 0.45686644, -1681056.6, -65087.027, 0.030093629, 9.997284, 10.000803 
1.6849464e+3, 1.45109e+2, -1866268.8, -1738085.9, -1207.1952, 0.12441304, 0.5215826, -1738074.5, -220110.44, 0.0144471, 9.997805, 9.999529 
1.6849595e+3, 1.5510738e+2, -1558731.4, -1515691.0, 61055.168, 0.06987021, 0.3548591, -1472474.4, -52491.24, 0.004479329, 9.99916, 9.999721 
1.6849723e+3, 1.651068e+2, -1427140.8, -1402776.5, 80023.71, -0.016514018, 0.3335844, -1334013.0, -12023.011, 0.0006375465, 9.999389, 9.999721 
1.6849846e+3, 1.7510717e+2, -1361070.9, -1298751.9, 86790.016, -0.093291, 0.3545518, -1237697.4, -13711.663, 0.00001399049, 9.99909, 9.999894 
1.6849975e+3, 1.8510729e+2, -1196387.8, -1096453.6, 27057.344, -0.017630188, 0.3512231, -1089598.0, 36384.105, 0.0, 9.999229, 10.000545 
1.6850111e+3, 1.9510719e+2, -986769.3, -928620.4, -28436.576, 0.17000523, 0.24476701, -917025.94, 110953.12, 0.0, 9.999938, 10.000675 
1.6850232e+3, 2.0510757e+2, -916212.75, -961177.9, 4149.7476, 0.15103911, 0.27577063, -915833.0, 14140.96, 0.0, 10.0002365, 9.999651 
1.6850339e+3, 2.1510851e+2, -817070.1, -838862.3, -13303.228, -0.06512084, 0.3615805, -810770.25, 21195.629, 0.0, 10.00016, 9.999842 
1.685047e+3, 2.251082e+2, -735550.2, -809027.4, 30551.412, -0.078434065, 0.3779264, -724506.8, 9462.271, 0.0, 10.000266, 9.99935 
1.6850623e+3, 2.3510656e+2, -591636.94, -667588.2, 32256.162, 0.09631057, 0.23640765, -579786.75, 56197.22, 0.0, 10.000505, 9.999523 
1.6850749e+3, 2.4510556e+2, -399965.63, -532897.94, -39045.895, 0.08503346, 0.197923, -389345.25, 148645.88, 0.0, 10.001174, 9.999448 
1.6850844e+3, 2.551052e+2, -131141.5, -343621.0, -90769.25, -0.12274505, 0.17327179, -97645.99, 342345.06, 0.0000000018399801, 10.002309, 9.99953 
1.6850969e+3, 2.651044e+2, -129648.77, -440119.2, -7123.5986, -0.14824031, 0.21584617, -129485.414, 212512.81, 0.0000039092515, 10.002297, 9.998197 
1.6851121e+3, 2.7510303e+2, -172924.97, -389785.06, 2179.333, 0.004326428, 0.21411481, -172903.06, 71110.54, 0.000046409757, 10.0012665, 9.998351 
1.6851254e+3, 2.851013e+2, -85771.55, -317956.38, -44183.188, 0.0407417, 0.22306962, -77648.01, 68382.53, 0.00025645504, 10.001235, 9.998215 
1.6851366e+3, 2.9509956e+2, 150199.78, -123652.74, -75649.52, -0.026632544, 0.1697158, 169707.7, 217753.02, 0.000866263, 10.002071, 9.998458 
1.6851504e+3, 3.050977e+2, 250159.69, -213942.2, 19940.33, 0.0671845, 0.2184318, 251014.86, 251014.86, 0.0019892203, 10.003114, 9.997024 
1.6851637e+3, 3.1509367e+2, 515449.84, 109314.65, -23888.959, 0.010731352, 0.07417696, 516850.16, 516850.16, 0.003476969, 10.004048, 9.998805 
1.6949175e+3, 1.2509303e+2, -1806790.3, -1549032.4, -57136.56, -0.1288444, 0.32701945, -1536934.9, 177183.95, 0.051028147, 9.998353, 10.001969 
1.694931e+3, 1.3509288e+2, -1987738.8, -1749973.6, -47661.96, -0.00032341847, 0.23429355, -1740775.3, -124656.17, 0.032295942, 9.997238, 10.000397 
1.6949439e+3, 1.4509234e+2, -1785756.3, -1595303.5, 42308.855, 0.03519741, 0.14285868, -1586327.6, -68202.0, 0.015627254, 9.997899, 10.000467 
1.6949582e+3, 1.5509595e+2, -1496475.3, -1396010.1, 119736.914, -0.0014597266, 0.41725484, -1316395.8, 103698.164, 0.004910431, 9.999199, 10.000529 
1.6949715e+3, 1.6509713e+2, -1367145.1, -1300541.0, 49894.42, -0.08080764, 0.5000136, -1273855.8, 48226.277, 0.0007170378, 9.999478, 10.000379 
1.6949838e+3, 1.7509638e+2, -1318546.8, -1207053.1, 86742.45, -0.09980064, 0.34169716, -1159688.5, 64397.125, 0.000016975888, 9.999074, 10.000529 
1.6949973e+3, 1.8509603e+2, -1276469.4, -1277497.9, 39486.68, -0.013793506, 0.3223745, -1237493.6, -111405.586, 0.0, 9.999285, 9.999279 
1.695011e+3, 1.9509594e+2, -1086023.1, -1116895.9, 5132.7344, 0.1394609, 0.34378234, -1085192.1, -57101.65, 0.0, 9.99986, 9.99942 
1.6950233e+3, 2.0509525e+2, -948647.94, -989443.9, -12982.766, 0.11315041, 0.33472338, -944866.8, -14770.531, 0.0, 10.000067, 9.999541 
1.6950344e+3, 2.15094e+2, -847251.94, -868863.3, -5087.8965, -0.05840575, 0.2126885, -846114.0, -14008.94, 0.0, 10.00001, 9.999714 
1.6950473e+3, 2.2509329e+2, -738682.5, -763359.8, 26885.457, -0.08902232, 0.1762485, -721439.56, 12669.887, 0.0, 10.00005, 9.9997635 
1.695062e+3, 2.3509304e+2, -601071.8, -630285.25, 58143.51, 0.0109817125, 0.13416742, -555728.4, 80381.93, 0.0, 10.000265, 9.999891 
1.6950749e+3, 2.4509272e+2, -516067.06, -704473.94, -6314.691, -0.039825663, 0.19519775, -515855.66, 22258.768, 0.0, 10.000878, 9.998413 
1.695086e+3, 2.5509235e+2, -230343.13, -504415.34, -32575.977, -0.20728427, 0.27415836, -226524.38, 213597.13, 0.0000000033657745, 10.002117, 9.998519 
1.6950993e+3, 2.6509118e+2, -123508.32, -367524.75, -56449.484, -0.16574246, 0.3030268, -111082.35, 231050.42, 0.0000030031388, 10.002047, 9.998812 
1.6951147e+3, 2.7508932e+2, -155777.6, -311468.94, -18633.695, 0.098152585, 0.18268907, -153578.5, 90569.58, 0.000041455987, 10.001087, 9.998973 
1.6951276e+3, 2.850876e+2, -137298.9, -369080.47, -27950.691, 0.12628031, 0.17275012, -133975.95, 12187.644, 0.00024337543, 10.000996, 9.99798 
1.6951387e+3, 2.9508618e+2, 108975.695, -166467.53, -25601.998, -0.047806554, 0.17824414, 111335.15, 159513.08, 0.00083297, 10.001875, 9.998264 
1.6951533e+3, 3.0508476e+2, 191915.45, -239255.31, 43317.664, 0.020665182, 0.2810336, 196224.31, 196224.31, 0.0019296512, 10.002731, 9.997022 
1.6951676e+3, 3.150809e+2, 409893.53, 13040.292, 65776.08, -0.057327345, 0.14270821, 420511.44, 420511.44, 0.0034048194, 10.003548, 9.998362 
1.7049159e+3, 1.2508015e+2, -1806127.4, -1624251.0, -6259.527, -0.1275863, 0.2906202, -1624035.8, 90208.27, 0.054460447, 9.998693, 10.001266 
1.704929e+3, 1.3507925e+2, -1834509.0, -1728596.1, -67138.086, 0.035882305, 0.17963359, -1696042.9, -79789.336, 0.034638863, 9.998517, 9.999927 
1.7049412e+3, 1.4507942e+2, -1740134.5, -1536090.4, 65250.457, -0.0093567455, 0.16392659, -1517008.6, 1244.2661, 0.016903277, 9.998084, 10.000778 
1.7049567e+3, 1.5508272e+2, -1646142.6, -1435004.4, 67962.37, -0.01159653, 0.37861067, -1415019.8, 5201.867, 0.00538814, 9.998047, 10.000805 
1.7049706e+3, 1.6508384e+2, -1529886.6, -1358902.0, -34832.367, -0.037077554, 0.43141973, -1352078.4, -29868.94, 0.0008082668, 9.998266, 10.000561 
1.7049837e+3, 1.7508356e+2, -1335079.6, -1192227.6, -53834.73, -0.009209046, 0.3014553, -1174211.8, 49997.254, 0.000020835996, 9.998852, 10.000744 
1.7049971e+3, 1.8508346e+2, -1298277.4, -1308618.3, -35217.543, 0.050886966, 0.30827236, -1267852.8, -141643.16, 0.0, 9.999221, 9.999105 
1.7050102e+3, 1.9508332e+2, -1124463.9, -1156305.0, -10909.906, 0.09488057, 0.34192136, -1121084.5, -92870.97, 0.0, 9.999671, 9.999255 
1.7050229e+3, 2.0508239e+2, -942494.5, -976741.06, 31295.926, 0.06701228, 0.31203255, -923943.7, 6277.481, 0.0, 10.000069, 9.999618 
1.705035e+3, 2.1508084e+2, -768238.0, -823738.2, 29946.703, -0.027839404, 0.15247974, -755160.75, 77070.0, 0.0, 10.000531, 9.999765 
1.7050481e+3, 2.2508016e+2, -671570.25, -761613.25, 54372.6, -0.03416981, 0.13141868, -645999.1, 88235.625, 0.0, 10.000648, 9.99948 
1.7050627e+3, 2.3508026e+2, -600132.8, -656568.9, 4578.756, 0.038740363, 0.14827828, -599763.75, 36470.492, 0.0, 10.000395, 9.999638 
1.7050761e+3, 2.4507995e+2, -558619.44, -744226.2, 12926.335, 0.012443128, 0.23308305, -557723.5, -19484.166, 0.0, 10.000672, 9.998243 
1.7050888e+3, 2.5507927e+2, -333916.97, -564681.75, 24286.71, -0.11349799, 0.29810154, -331388.63, 108861.24, 0.0000000026261497, 10.001473, 9.998406 
1.705102e+3, 2.6507807e+2, -151395.28, -389457.0, -21609.104, -0.07437371, 0.32895663, -149449.7, 192812.39, 0.0000021613648, 10.001864, 9.998759 
1.705116e+3, 2.750764e+2, -49901.99, -270672.0, -62224.74, 0.10971063, 0.23573098, -33571.69, 210704.2, 0.000036656253, 10.001831, 9.998905 
1.7051291e+3, 2.8507465e+2, -2319.4595, -324803.78, -18661.523, 0.13017067, 0.23707275, -1243.1469, 145049.2, 0.00022921336, 10.002026, 9.997777 
1.7051412e+3, 2.950728e+2, 177128.95, -156261.22, -49436.36, -0.0010581784, 0.22222558, 184305.11, 232617.11, 0.0007930789, 10.00246, 9.998046 
1.7051566e+3, 3.0507132e+2, 239134.55, -174645.95, 61008.785, 0.07946433, 0.3127494, 247942.34, 247942.34, 0.0018420495, 10.002874, 9.997383 
1.7051707e+3, 3.1506824e+2, 324608.5, -37802.027, 30249.826, -0.059409913, 0.2181387, 327116.03, 327116.03, 0.0032654046, 10.003026, 9.99823 
1.7149174e+3, 1.2506798e+2, -1894317.0, -1814642.8, 114281.68, 0.08078499, 0.27873895, -1733453.9, -19091.592, 0.058051143, 9.998746, 9.999898 
1.714927e+3, 1.35068e+2, -1880283.3, -1823097.3, -67899.305, -0.039744694, 0.33570123, -1778016.1, -161648.48, 0.037118543, 9.998521, 9.999276 
1.7149383e+3, 1.450705e+2, -1742399.0, -1571711.3, 45732.445, -0.1636167, 0.6017882, -1560230.4, -41886.793, 0.018276531, 9.998202, 10.000481 
1.7149545e+3, 1.5506752e+2, -1670779.9, -1485504.6, 79948.67, -0.077147715, 0.22314459, -1455775.9, -35407.813, 0.005915651, 9.998041, 10.000462 
1.7149696e+3, 1.6506687e+2, -1539040.3, -1387152.4, -27461.992, -0.0012814978, 0.12596864, -1382339.6, -59966.797, 0.0009130136, 9.998311, 10.0003395 
1.7149836e+3, 1.7506884e+2, -1355245.5, -1224113.9, -23803.498, 0.07970418, 0.24241059, -1219926.6, 4427.726, 0.000025810483, 9.998819, 10.000533 
1.7149965e+3, 1.8506974e+2, -1232670.4, -1177473.5, -31510.885, 0.05307705, 0.31410754, -1163183.9, -36838.246, 0.0, 9.999237, 10.0 
1.7150086e+3, 1.9506939e+2, -1070218.4, -1027777.56, 17274.596, -0.06954979, 0.23495314, -1021635.25, 6712.2983, 0.0, 9.999602, 10.00017 
1.7150214e+3, 2.0506908e+2, -943681.25, -951171.0, 37220.48, -0.116595976, 0.21036255, -910017.75, 20329.783, 0.0, 9.999948, 9.999851 
1.7150351e+3, 2.1506892e+2, -782954.5, -804864.1, 57102.734, -0.07663445, 0.16628225, -735765.3, 96579.01, 0.0, 10.0003195, 9.999996 
1.7150491e+3, 2.2506861e+2, -778606.9, -925858.9, 34277.863, -0.018613046, 0.22056745, -771018.6, -36671.5, 0.0, 10.000391, 9.998482 
1.7150636e+3, 2.3506811e+2, -694753.75, -816223.56, 9461.455, 0.06728985, 0.28039998, -694021.2, -57664.645, 0.0, 10.000226, 9.998631 
1.7150778e+3, 2.4506715e+2, -545940.7, -657714.8, 29227.928, 0.085116126, 0.31361875, -538759.25, -392.24197, 0.0, 10.000423, 9.998952 
1.715092e+3, 2.5506574e+2, -317315.06, -482933.03, 68304.74, 0.04764841, 0.23473214, -292779.44, 147599.22, 0.0000000000058928205, 10.001267, 9.999067 
1.7151049e+3, 2.650647e+2, -235362.78, -503889.47, -37083.86, -0.0044803238, 0.28083426, -230335.56, 112054.0, 0.0000014626683, 10.001617, 9.998091 
1.7151165e+3, 2.7506405e+2, -128397.93, -381161.78, -49381.438, -0.06700921, 0.36175263, -119093.02, 125305.96, 0.000032258973, 10.00161, 9.998253 
1.7151295e+3, 2.8506225e+2, -64954.645, -388523.0, -15644.861, -0.07998045, 0.40437362, -64199.96, 82218.445, 0.00021422842, 10.001741, 9.997478 
1.7151436e+3, 2.9505926e+2, 130345.92, -203702.02, -6042.552, -0.032436863, 0.29771075, 130455.195, 178903.16, 0.0007459909, 10.002247, 9.997818 
1.7151599e+3, 3.050571e+2, 212452.22, -145412.05, 52111.01, 0.09012989, 0.3065337, 219886.03, 219886.03, 0.0017319232, 10.002528, 9.997746 
1.7151727e+3, 3.1505495e+2, 254320.95, -42445.6, 78481.41, -0.22634162, 0.270115, 273797.53, 273797.53, 0.0030783645, 10.002455, 9.998461 
1.7249161e+3, 1.2505487e+2, -2190502.0, -1897954.4, 66418.55, 0.20977658, 0.38504246, -1883581.3, -169087.8, 0.06177432, 9.996452, 10.00043 
1.7249256e+3, 1.350542e+2, -1878211.9, -1795083.6, -129046.64, -0.015153275, 0.33166805, -1701072.6, -84569.21, 0.039721623, 9.99841, 9.999514 
1.7249373e+3, 1.4505722e+2, -1654535.5, -1546726.1, 12837.54, -0.10052272, 0.64665705, -1545218.5, -26745.426, 0.019743169, 9.998858, 10.000348 
1.7249528e+3, 1.5505329e+2, -1621016.0, -1461245.9, 40766.563, -0.04781872, 0.17463806, -1451445.3, -30938.51, 0.006494274, 9.998351, 10.000499 
1.7249681e+3, 1.6505277e+2, -1567081.8, -1393217.1, 17488.543, 0.03646529, 0.087501206, -1391475.5, -68964.82, 0.001032908, 9.998089, 10.000414 
1.7249829e+3, 1.7505558e+2, -1398241.9, -1236864.6, 16335.354, 0.12780322, 0.2791512, -1235227.6, -10741.815, 0.00003215152, 9.998486, 10.000614 
1.7249963e+3, 1.8505661e+2, -1233038.6, -1149090.1, 29883.783, 0.100944564, 0.34877107, -1139538.9, -13063.163, 0.0, 9.999114, 10.000251 
1.7250085e+3, 1.9505598e+2, -957351.6, -942594.4, 4528.146, -0.062393896, 0.21679376, -941315.75, 87163.55, 0.0, 10.000252, 10.000437 
1.7250217e+3, 2.0505582e+2, -855981.94, -932757.7, -20218.22, -0.09979431, 0.20398551, -850983.06, 79495.02, 0.0, 10.000649, 9.999651 
1.725036e+3, 2.1505609e+2, -774128.7, -825790.25, -55360.49, -0.01444309, 0.22712907, -738869.25, 93603.24, 0.0, 10.000478, 9.999788 
1.7250504e+3, 2.2505566e+2, -739986.06, -927901.5, -33533.703, 0.04945157, 0.29186168, -734181.25, 295.55957, 0.0, 10.000769, 9.998269 
1.7250645e+3, 2.3505466e+2, -512787.63, -750797.6, -29926.504, 0.075897485, 0.3237531, -509082.44, 127407.586, 0.0, 10.001598, 9.998402 
1.7250788e+3, 2.4505302e+2, -355337.22, -577710.56, 8926.357, 0.090933874, 0.30525795, -354979.47, 183526.22, 0.0, 10.001773, 9.998847 
1.7250936e+3, 2.550508e+2, -323485.5, -492469.25, -32339.395, 0.090080515, 0.15276808, -317507.97, 123015.54, 0.0000000000049057277, 10.001256, 9.998998 
1.7251067e+3, 2.650497e+2, -293391.06, -537228.8, -113432.18, 0.0403523, 0.1980224, -248783.44, 93751.805, 0.0000011502509, 10.001252, 9.998033 
1.725118e+3, 2.7504963e+2, -115662.766, -385246.9, -112959.01, -0.058000628, 0.34825522, -74589.44, 169951.52, 0.000029351942, 10.001738, 9.998166 
1.7251311e+3, 2.850482e+2, -20192.365, -368032.53, -13616.985, -0.07718126, 0.43220127, -19660.113, 126897.79, 0.00020332959, 10.002064, 9.997456 
1.7251459e+3, 2.9504517e+2, 132562.05, -208426.64, -33974.38, -0.029683447, 0.32883102, 135914.14, 184501.73, 0.0007056686, 10.002306, 9.997747 
1.7251624e+3, 3.0504242e+2, 225583.58, -123342.086, 42024.08, 0.1310029, 0.27761137, 230573.53, 230573.53, 0.0016348903, 10.002512, 9.997931 
1.7251755e+3, 3.1504107e+2, 263471.47, -26890.715, -16877.691, -0.15220132, 0.3090685, 264449.22, 264449.22, 0.002911536, 10.002378, 9.998658 
1.7349105e+3, 1.2503988e+2, -2001139.1, -1532741.9, 23934.326, -0.06810706, 0.51361704, -1531522.1, 183125.1, 0.06561491, 9.996526, 10.002981 
1.7349242e+3, 1.3503768e+2, -1805922.3, -1637485.5, -62477.684, -0.027522234, 0.15518227, -1616841.1, -178.14827, 0.042436883, 9.998377, 10.000612 
1.7349382e+3, 1.4503913e+2, -1642285.0, -1534172.0, -27448.488, 0.05107132, 0.2702033, -1527602.4, -8956.49, 0.021297567, 9.998914, 10.000403 
1.7349516e+3, 1.5504003e+2, -1590371.6, -1399705.4, 28810.426, -0.043815583, 0.24186802, -1395447.1, 25189.92, 0.0071235094, 9.998365, 10.000911 
1.7349656e+3, 1.650417e+2, -1516972.4, -1324130.1, 16357.533, -0.06738763, 0.33084375, -1322752.5, -130.99841, 0.0011691477, 9.998221, 10.000832 
1.7349806e+3, 1.7504372e+2, -1371010.5, -1188962.9, 39645.37, 0.036093026, 0.4089404, -1180703.8, 43899.44, 0.00004011834, 9.998509, 10.0009365 
1.7349954e+3, 1.850441e+2, -1261271.4, -1212034.9, 56281.563, 0.066623844, 0.41854286, -1175222.9, -48623.09, 0.0, 9.999134, 9.999808 
1.7350097e+3, 1.9504298e+2, -1006707.0, -1016513.5, 54609.645, 0.008044921, 0.2811824, -956780.94, 71828.75, 0.0, 10.000131, 9.999986 
1.7350236e+3, 2.050425e+2, -921947.56, -1036302.1, -40753.375, -0.006439432, 0.28876224, -908910.3, 21703.605, 0.0, 10.000502, 9.999013 
1.7350373e+3, 2.1504244e+2, -840515.44, -931171.0, -49729.227, 0.0418554, 0.34060374, -818555.75, 14058.57, 0.0, 10.000334, 9.999134 
1.7350511e+3, 2.2504145e+2, -740774.7, -877923.25, -13848.619, 0.02370887, 0.35927236, -739390.25, -4767.81, 0.0, 10.000548, 9.998716 
1.7350651e+3, 2.3503968e+2, -507252.78, -694769.9, 14168.609, -0.04816879, 0.26594126, -506188.25, 130448.61, 0.0, 10.0014, 9.998883 
1.7350791e+3, 2.4503735e+2, -454561.22, -715796.94, -20792.787, -0.08983427, 0.19364566, -452916.6, 85740.805, 0.0, 10.001493, 9.998031 
1.7350933e+3, 2.5503442e+2, -412291.4, -623900.56, -33702.965, -0.0959701, 0.051371086, -407053.2, 33630.984, 0.000000000000012544113, 10.001038, 9.9981985 
1.735107e+3, 2.6503295e+2, -299918.22, -488394.56, -104546.586, -0.0689679, 0.08046335, -253405.47, 89293.86, 0.0000010511417, 10.000985, 9.998495 
1.7351206e+3, 2.750332e+2, -113707.24, -330832.94, -74902.73, 0.0013652178, 0.2066808, -90375.016, 154326.05, 0.000029114979, 10.00153, 9.998633 
1.7351341e+3, 2.8503236e+2, -61298.508, -394290.88, -22779.385, -0.013388805, 0.32946065, -59747.438, 86964.3, 0.00019954766, 10.001807, 9.997401 
1.7351475e+3, 2.9503006e+2, 83542.984, -242882.17, -2789.8132, -0.118199475, 0.2992569, 83566.83, 132301.77, 0.00068418466, 10.002019, 9.997649 
1.7351644e+3, 3.0502698e+2, 158702.16, -162155.47, 21226.746, 0.034666337, 0.22584155, 160100.34, 160100.34, 0.0015843388, 10.002106, 9.997844 
1.7351787e+3, 3.1502557e+2, 209299.72, 9380.101, 13134.423, -0.12457214, 0.23970301, 210158.94, 210158.94, 0.0028321175, 10.00179, 9.999163 
1.744907e+3, 1.2502463e+2, -1918075.0, -1475186.5, 85518.06, -0.06977988, 0.55686235, -1459247.3, 255550.25, 0.06957688, 9.997027, 10.003177 
1.7449227e+3, 1.35023e+2, -2055553.8, -1663340.3, -66741.79, 0.10117601, 0.18141194, -1652294.1, -35487.7, 0.045260757, 9.996275, 10.001449 
1.7449369e+3, 1.450236e+2, -1930650.5, -1622555.0, 18005.525, 0.15529007, 0.1443511, -1621506.4, -102708.875, 0.022935338, 9.996736, 10.000832 
1.74495e+3, 1.550267e+2, -1626947.9, -1373720.5, 34901.84, 0.002633872, 0.29271924, -1368998.1, 51769.938, 0.0078018596, 9.99793, 10.001287 
1.7449638e+3, 1.6502884e+2, -1486132.6, -1298995.3, 29531.508, -0.06216843, 0.40383944, -1294445.6, 28301.97, 0.0013223152, 9.998395, 10.000925 
1.7449789e+3, 1.750298e+2, -1341528.3, -1162337.5, 10348.514, 0.014475424, 0.36861852, -1161741.8, 62996.31, 0.000049909977, 9.998667, 10.001048 
1.7449944e+3, 1.8503016e+2, -1287241.1, -1228105.1, 76550.766, 0.072588325, 0.3737234, -1175610.4, -48875.57, 0.0000000000000006446772, 9.998978, 9.999763 
1.7450099e+3, 1.9503e+2, -1107603.8, -1072213.3, 77986.32, 0.06975624, 0.33324584, -1009939.8, 18797.553, 0.0, 9.999469, 9.99991 
1.7450246e+3, 2.0502941e+2, -992494.9, -1107627.0, 20374.146, 0.078409955, 0.35426787, -988995.75, -58252.0, 0.0, 10.0001745, 9.998674 
1.7450386e+3, 2.1502846e+2, -730460.2, -909777.06, 6814.975, 0.09851176, 0.3476325, -730201.56, 102552.39, 0.0, 10.001236, 9.998838 
1.7450522e+3, 2.2502707e+2, -592269.44, -811991.44, 52790.926, 0.046078153, 0.33968854, -580243.94, 154522.42, 0.0, 10.00157, 9.998694 
1.7450659e+3, 2.3502532e+2, -545607.5, -717455.6, 22279.082, -0.08396046, 0.25338578, -542766.1, 94013.98, 0.0, 10.001143, 9.998863 
1.7450799e+3, 2.4502335e+2, -541620.7, -744876.5, 2716.031, -0.11030885, 0.21487136, -541584.4, -2787.3196, 0.0, 10.000856, 9.998134 
1.7450945e+3, 2.550211e+2, -451627.8, -632326.6, 23240.836, -0.044259783, 0.13242921, -448686.53, -7868.496, 0.0, 10.000739, 9.998281 
1.7451088e+3, 2.6501954e+2, -309797.7, -524421.3, 17132.648, 0.011211563, 0.1584313, -308438.66, 34396.02, 0.0000010008785, 10.001043, 9.99822 
1.7451225e+3, 2.7501875e+2, -88489.62, -352392.06, -39807.992, 0.037335217, 0.21571405, -82615.586, 162230.42, 0.000030147008, 10.001835, 9.99834 
1.7451364e+3, 2.8501764e+2, 25512.598, -324859.13, 7573.099, 0.009810145, 0.31581876, 25676.209, 172534.6, 0.00019898178, 10.00227, 9.997658 
1.74515e+3, 2.950158e+2, 120722.17, -213582.95, 5762.9063, -0.07533754, 0.31168297, 120821.49, 169697.14, 0.00068108423, 10.002187, 9.997786 
1.745167e+3, 3.0501273e+2, 139995.25, -187143.78, 71948.45, 0.100965194, 0.24043666, 155119.8, 155119.8, 0.0015908227, 10.002024, 9.997727 
1.7451817e+3, 3.15011e+2, 281398.7, 78923.14, -37721.996, -0.00729573, 0.22982392, 288198.13, 288198.13, 0.0028692973, 10.002119, 9.999483 
1.7549044e+3, 1.2500821e+2, -2073243.6, -1789698.5, 10076.753, -0.1122299, 0.42449877, -1789340.9, -74387.31, 0.07366958, 9.997059, 10.000878 
1.7549205e+3, 1.3501036e+2, -2019856.1, -1582267.6, -74718.77, 0.23308754, 0.41095808, -1569861.1, 47071.004, 0.048192136, 9.99624, 10.002034 
1.7549331e+3, 1.4501123e+2, -1855804.5, -1493768.3, 58189.633, 0.06187753, 0.30947158, -1484645.4, 34277.0, 0.024652572, 9.996835, 10.001681 
1.754948e+3, 1.5501344e+2, -1600615.4, -1324981.4, 88259.74, -0.011232994, 0.33495712, -1299142.4, 121756.28, 0.008527423, 9.997943, 10.001627 
1.7549625e+3, 1.6501404e+2, -1500588.9, -1339203.8, 15322.56, -0.07635889, 0.29481298, -1337761.9, -14871.165, 0.0014925194, 9.998443, 10.000625 
1.7549771e+3, 1.7501372e+2, -1358925.0, -1184663.4, 30635.213, -0.04364837, 0.14769588, -1179434.5, 45456.88, 0.00006156021, 9.998618, 10.000912 
1.7549929e+3, 1.8501484e+2, -1258224.4, -1174064.6, 83008.5, -0.005334497, 0.21607685, -1123079.4, 3801.2473, 0.0000000010737394, 9.999001, 10.000124 
1.7550091e+3, 1.9501704e+2, -1094051.3, -1032102.5, 105932.28, 0.013072136, 0.3793096, -952709.0, 76152.96, 0.0, 9.9994135, 10.000216 
1.7550245e+3, 2.0501666e+2, -1017090.0, -1129340.9, 45602.004, 0.02339458, 0.40960622, -1000899.44, -70032.27, 0.0, 10.000047, 9.998587 
1.7550395e+3, 2.1501395e+2, -759597.3, -930119.6, 56065.375, 0.055765424, 0.23273279, -742815.44, 90078.375, 0.0, 10.001057, 9.998787 
1.7550536e+3, 2.2501229e+2, -661571.06, -898957.44, 24605.086, -0.00024018774, 0.22328773, -659047.6, 75863.38, 0.0, 10.001329, 9.998213 
1.7550665e+3, 2.3501155e+2, -608797.56, -805914.94, 20784.916, -0.1478763, 0.28771874, -606629.75, 30289.773, 0.0, 10.000957, 9.998347 
1.755081e+3, 2.4501097e+2, -518940.5, -641482.5, -10562.6875, -0.12127052, 0.37163293, -518036.7, 20888.447, 0.0, 10.000609, 9.998964 
1.755097e+3, 2.5501058e+2, -416170.44, -519341.44, 32261.5, 0.11147259, 0.39004683, -406912.94, 34014.367, 0.0, 10.000566, 9.99914 
1.7551114e+3, 2.6500887e+2, -415598.6, -703154.75, 31019.924, 0.13940914, 0.41659492, -412290.4, -69344.93, 0.00000094846536, 10.000857, 9.9970875 
1.7551236e+3, 2.7500603e+2, -193831.06, -519920.03, 8544.144, -0.06416344, 0.36911726, -193607.34, 51370.684, 0.000030605133, 10.001619, 9.997288 
1.7551373e+3, 2.8500393e+2, 21573.74, -272470.8, -5434.1167, -0.14649968, 0.3934845, 21674.133, 168673.06, 0.0002004244, 10.002008, 9.998143 
1.7551525e+3, 2.9500234e+2, 109709.13, -174416.08, 21607.535, -0.0692714, 0.36585256, 111342.98, 160353.81, 0.00069697236, 10.001929, 9.998175 
1.7551696e+3, 3.0499974e+2, 52477.742, -287187.6, 51428.023, 0.13120213, 0.3522765, 60093.594, 60093.594, 0.0016493249, 10.001677, 9.997202 
1.755184e+3, 3.1499743e+2, 172313.14, -9677.676, -1580.6598, -0.04154595, 0.30877823, 172326.86, 172326.86, 0.0029980193, 10.001558, 9.999125 
1.7649004e+3, 1.2499118e+2, -2483359.0, -2016025.4, 51965.58, -0.061006743, 0.21502374, -2010316.8, -295200.63, 0.07790593, 9.994347, 10.0006275 
1.7649171e+3, 1.3499501e+2, -1863883.6, -1458568.8, -5947.4873, 0.23083006, 0.32584798, -1458481.5, 158599.11, 0.05123237, 9.99704, 10.002541 
1.7649303e+3, 1.4499834e+2, -1667761.4, -1414763.6, 80282.81, 0.039425127, 0.44242895, -1391438.3, 127610.25, 0.026445003, 9.998163, 10.001608 
1.7649464e+3, 1.549992e+2, -1637258.3, -1361633.9, 33538.53, 0.04494415, 0.3512983, -1357611.5, 63428.098, 0.009296644, 9.997797, 10.001442 
1.7649612e+3, 1.6499928e+2, -1558948.5, -1334783.6, -3026.6326, -0.013999695, 0.25815463, -1334742.8, -11707.0, 0.0016790463, 9.997916, 10.000891 
1.7649756e+3, 1.7499937e+2, -1338912.5, -1149682.4, 16320.043, -0.052458104, 0.12147161, -1148285.1, 76744.57, 0.000074904594, 9.998634, 10.001139 
1.7649919e+3, 1.8500045e+2, -1267823.0, -1213827.6, 85142.46, -0.011441752, 0.1887773, -1151505.0, -24486.063, 0.000000009428086, 9.999086, 9.999817 
1.765009e+3, 1.9500224e+2, -1070974.1, -1049766.8, 34377.45, 0.0609005, 0.34445715, -1024394.8, 4611.5796, 0.0, 9.999706, 9.999959 
1.765025e+3, 2.0500208e+2, -1002314.0, -1100209.6, -14603.443, 0.07532055, 0.4008283, -1000182.0, -69171.0, 0.0, 10.000061, 9.99878 
1.76504e+3, 2.1500018e+2, -877957.44, -968135.0, -8088.7676, 0.047139205, 0.29117796, -877237.6, -44206.87, 0.0, 10.000169, 9.998954 
1.7650543e+3, 2.2499894e+2, -791883.0, -923083.5, -4556.907, 0.00010641584, 0.29788807, -791724.94, -56680.438, 0.0, 10.000274, 9.998547 
1.7650677e+3, 2.3499823e+2, -654815.9, -785917.44, 21669.096, -0.088250846, 0.33073574, -651327.2, -14274.381, 0.0, 10.000474, 9.998706 
1.7650823e+3, 2.4499795e+2, -466214.6, -611100.75, 30431.02, -0.04229719, 0.42317045, -460082.56, 78973.4, 0.0, 10.000914, 9.999045 
1.7650984e+3, 2.5499815e+2, -267339.6, -446223.03, -3356.823, 0.14728379, 0.4942743, -267276.63, 173777.22, 0.0, 10.001544, 9.999191 
1.765113e+3, 2.6499653e+2, -256863.11, -589926.7, 47217.64, 0.17566, 0.5120254, -250298.56, 92771.39, 0.0000007067664, 10.001812, 9.9973955 
1.765126e+3, 2.749931e+2, -155810.08, -468693.44, 88676.445, 0.010880447, 0.38176128, -132425.42, 112678.69, 0.000029110019, 10.001749, 9.997576 
1.76514e+3, 2.8499064e+2, 10285.462, -299396.63, 122137.445, -0.06774929, 0.36351386, 52658.273, 199786.16, 0.00020337792, 10.002031, 9.9979515 
1.7651552e+3, 2.9498905e+2, 218425.03, -152596.48, 54038.633, -0.021409748, 0.36411458, 226135.42, 275277.13, 0.00072556926, 10.002811, 9.997903 
1.7651719e+3, 3.049867e+2, 269147.1, -206794.81, 98509.28, 0.13972417, 0.4072762, 288730.5, 288730.5, 0.0017282332, 10.003254, 9.996995 
1.7651866e+3, 3.1498307e+2, 367746.84, 51196.23, -22778.398, 0.004129213, 0.26069278, 369377.53, 369377.53, 0.003136159, 10.003, 9.998872 
1.7748965e+3, 1.2497691e+2, -2344379.3, -1756338.3, 26359.047, 0.053237364, 0.24516411, -1755159.1, -39906.902, 0.08231803, 9.994444, 10.002377 
1.7749122e+3, 1.3497716e+2, -1832384.0, -1394487.1, 106101.17, 0.001286096, -0.06850314, -1370133.5, 247116.23, 0.054393712, 9.997028, 10.003019 
1.7749278e+3, 1.449847e+2, -1733848.8, -1563820.9, 50037.39, -0.05999553, 0.51179206, -1550188.4, -31010.299, 0.02831169, 9.998217, 10.00054 
1.7749445e+3, 1.5498395e+2, -1687859.9, -1466944.5, 31327.307, 0.048119683, 0.3352776, -1462588.0, -41397.188, 0.010105246, 9.997796, 10.000715 
1.7749596e+3, 1.6498467e+2, -1496823.3, -1217751.9, 10607.997, -0.0006211614, 0.29613513, -1217349.1, 105832.76, 0.0018804772, 9.997963, 10.001675 
1.7749739e+3, 1.749868e+2, -1297163.4, -1057385.0, 53022.25, -0.11278492, 0.29885715, -1046183.44, 178968.94, 0.00008970714, 9.998615, 10.00178 
1.7749906e+3, 1.8498705e+2, -1330261.4, -1355800.3, 92927.01, -0.07658374, 0.3022206, -1249230.6, -122081.484, 0.000000028818846, 9.999134, 9.998819 
1.7750093e+3, 1.9498551e+2, -1145998.4, -1192758.6, 68922.11, 0.09848549, 0.21953483, -1096598.8, -67427.4, 0.0, 9.999647, 9.999007 
1.7750256e+3, 2.0498554e+2, -991536.44, -1046642.6, -22002.09, 0.1064719, 0.3199071, -983829.56, -52652.96, 0.0, 9.999935, 9.999202 
1.7750396e+3, 2.1498707e+2, -880533.75, -927363.4, 6716.3857, -0.029479554, 0.5104996, -879589.56, -46423.78, 0.0, 9.999978, 9.999319 
1.775054e+3, 2.2498694e+2, -752879.56, -794039.25, -7170.212, -0.073660046, 0.5624532, -751666.25, -16498.64, 0.0, 10.000056, 9.99954 
1.7750692e+3, 2.3498516e+2, -601583.06, -644837.1, 42521.617, -0.013100016, 0.37955883, -575504.56, 61677.19, 0.0, 10.000327, 9.99975 
1.775084e+3, 2.4498408e+2, -544936.8, -716638.75, 40806.086, 0.0018003801, 0.3667321, -535732.4, 3459.5808, 0.0, 10.000671, 9.998433 
1.7750984e+3, 2.5498378e+2, -340250.3, -550494.06, 34373.914, -0.028649429, 0.4528359, -334773.03, 106423.96, 0.0, 10.001351, 9.998564 
1.7751133e+3, 2.649825e+2, -187534.98, -389794.88, 34620.926, 0.011931726, 0.45539612, -181773.05, 161434.52, 0.00000032366296, 10.001573, 9.998886 
1.775129e+3, 2.7498004e+2, -88038.39, -264913.56, 101838.53, 0.12375736, 0.27585876, -41597.168, 203627.05, 0.00002512301, 10.001501, 9.9990835 
1.7751437e+3, 2.8497773e+2, -104790.86, -482947.63, 129273.305, 0.08577848, 0.25554666, -64822.906, 82422.74, 0.00020098852, 10.0017805, 9.996818 
1.7751579e+3, 2.949757e+2, 114715.97, -315449.22, 100869.0, -0.07021652, 0.31179342, 137194.06, 186463.67, 0.0007424846, 10.0025835, 9.996894 
1.7751738e+3, 3.0497363e+2, 215616.13, -232351.84, 79757.15, -0.026672026, 0.42411488, 229392.58, 229392.58, 0.0017695264, 10.002897, 9.996985 
1.7751889e+3, 3.1496966e+2, 268651.72, 13366.948, 7552.522, -0.12106698, 0.25111398, 268874.97, 268874.97, 0.0031789197, 10.002344, 9.998894 
1.7848913e+3, 1.2496375e+2, -2212267.0, -1681646.4, -34426.094, 0.053331167, 0.3716639, -1679422.1, 35956.402, 0.08696164, 9.995338, 10.002457 
1.7849098e+3, 1.3496226e+2, -1678278.5, -1318084.0, 158712.66, 0.021548312, -0.11889183, -1258129.8, 359263.75, 0.057701517, 9.998123, 10.003037 
1.7849265e+3, 1.449704e+2, -1647801.4, -1520313.4, 37480.008, -0.030881278, 0.5203542, -1510111.1, 9205.35, 0.030258754, 9.998817, 10.000544 
1.7849429e+3, 1.549693e+2, -1654254.5, -1445639.0, 51393.95, 0.09822329, 0.30405632, -1433665.0, -12333.274, 0.0109521225, 9.997996, 10.000768 
1.7849581e+3, 1.6497006e+2, -1523214.9, -1272610.1, 96516.664, 0.06345043, 0.28113472, -1239747.5, 83575.74, 0.0020959692, 9.997957, 10.001304 
1.7849731e+3, 1.749721e+2, -1260666.3, -1080006.1, 28927.402, -0.07220951, 0.31366867, -1075487.3, 149809.25, 0.000105867584, 9.99905, 10.0014105 
1.7849901e+3, 1.8497197e+2, -1296327.1, -1352636.3, 63663.844, -0.035525646, 0.3042219, -1254870.1, -127572.76, 0.0000000562377, 9.999429, 9.998703 
1.7850092e+3, 1.9496994e+2, -1198268.3, -1227951.4, 84409.914, 0.1444074, 0.18241115, -1127405.1, -98081.85, 0.0, 9.999322, 9.998924 
1.7850257e+3, 2.0496997e+2, -1026853.1, -1012789.7, 49907.4, 0.15281816, 0.26243755, -969421.06, -38093.434, 0.0, 9.999463, 9.999672 
1.7850396e+3, 2.1497196e+2, -838614.1, -854623.06, 57905.625, -0.008046482, 0.4516462, -788162.4, 45149.508, 0.0, 10.00003, 9.999803 
1.7850544e+3, 2.2497246e+2, -680846.75, -715691.56, 46363.137, -0.05915308, 0.52629006, -648740.56, 86566.484, 0.0, 10.000374, 9.999928 
1.7850697e+3, 2.349716e+2, -550326.0, -577659.6, 19944.852, 0.00017883856, 0.3997436, -539814.75, 97497.43, 0.0, 10.000511, 10.000126 
1.7850849e+3, 2.4497026e+2, -546660.8, -730773.4, 42646.44, 0.02536524, 0.3535248, -537262.3, 2062.1655, 0.0, 10.000744, 9.998287 
1.7850998e+3, 2.5496846e+2, -384226.28, -588926.94, 40880.676, -0.002189118, 0.30377525, -376364.0, 64979.68, 0.0, 10.001146, 9.998386 
1.7851153e+3, 2.6496726e+2, -158579.28, -358330.44, 23202.469, 0.053785436, 0.31650093, -155919.58, 187433.92, 0.00000018370703, 10.001673, 9.999066 
1.7851314e+3, 2.749664e+2, 49790.86, -195756.83, -31637.084, 0.1636228, 0.28224486, 53801.566, 299157.34, 0.000020759246, 10.002376, 9.999169 
1.7851463e+3, 2.8496423e+2, 11728.292, -438707.6, 20979.498, 0.12968832, 0.284264, 12703.322, 160079.17, 0.0001926232, 10.002655, 9.996682 
1.7851608e+3, 2.9496124e+2, 108508.27, -331038.3, 15669.438, -0.018044494, 0.25942722, 109066.164, 158475.22, 0.00073848217, 10.002607, 9.996762 
1.785177e+3, 3.049591e+2, 241701.06, -173166.56, 59965.156, 0.016461415, 0.3467941, 250194.56, 250194.56, 0.0017535134, 10.002886, 9.997393 
1.785193e+3, 3.149555e+2, 391786.63, 51807.56, -74362.67, 0.03506651, 0.19377005, 407340.22, 407340.22, 0.0030964392, 10.00325, 9.998741 
1.7948832e+3, 1.2494888e+2, -2304092.3, -1911473.4, -325041.1, -0.37871966, 0.27625185, -1728060.4, -12537.58, 0.09190124, 9.995501, 10.000793 
1.7949097e+3, 1.3495058e+2, -1706495.1, -1393710.3, 260293.95, 0.16046669, 0.17824478, -1246439.1, 371070.78, 0.06119029, 9.9982, 10.002492 
1.7949261e+3, 1.4495549e+2, -1577068.3, -1387824.6, -12904.212, -0.010828244, 0.4760632, -1386948.8, 132513.77, 0.03230053, 9.998867, 10.001454 
1.794941e+3, 1.5495536e+2, -1602066.3, -1329527.4, 31721.375, 0.09518371, 0.27042413, -1325884.0, 95577.38, 0.011841973, 9.997971, 10.001579 
1.7949565e+3, 1.6495548e+2, -1617837.5, -1489226.0, 119986.695, 0.054796677, 0.22244327, -1417399.4, -93940.11, 0.0023264778, 9.998033, 9.999785 
1.7949727e+3, 1.749552e+2, -1358919.3, -1288383.0, 77195.68, -0.029538644, 0.16942747, -1238780.5, -13317.831, 0.00012352158, 9.999061, 9.999981 
1.7949902e+3, 1.8495513e+2, -1235009.1, -1235640.5, 44930.844, -0.014834571, 0.19707039, -1190392.9, -62928.535, 0.000000085167756, 9.999475, 9.999483 
1.7950083e+3, 1.9495547e+2, -1159797.5, -1130138.6, 87287.46, 0.09115164, 0.23885785, -1056429.9, -26967.508, 0.0, 9.999247, 9.999633 
1.7950247e+3, 2.0495543e+2, -1006170.5, -942585.7, 56682.47, 0.08475071, 0.24943204, -909388.44, 22074.924, 0.0, 9.999336, 10.000218 
1.79504e+3, 2.1495494e+2, -818774.2, -782941.9, 90102.625, 0.0016807351, 0.1335828, -708991.44, 124476.6, 0.0, 9.999885, 10.000373 
1.7950548e+3, 2.249555e+2, -736572.6, -778854.1, 39068.207, -0.075887226, 0.20105992, -713292.06, 22170.945, 0.0, 10.000149, 9.999604 
1.795069e+3, 2.3495737e+2, -604150.25, -640833.25, 36947.863, -0.1445105, 0.37880307, -581241.9, 56204.05, 0.0, 10.000306, 9.999787 
1.7950848e+3, 2.449563e+2, -569524.5, -721578.94, 48158.594, -0.090648346, 0.36733088, -555555.1, -16099.285, 0.0, 10.000498, 9.998471 
1.7951024e+3, 2.5495222e+2, -398877.6, -571205.06, 69593.19, 0.11264432, 0.06744229, -374283.03, 67210.72, 0.0, 10.000948, 9.9986 
1.7951185e+3, 2.6495078e+2, -274264.4, -541217.0, 37578.832, 0.16491356, 0.10584071, -269075.3, 74433.18, 0.00000013255313, 10.001426, 9.9979315 
1.7951325e+3, 2.749521e+2, -59925.918, -363379.72, 8191.1343, 0.021475926, 0.39479315, -59704.977, 185793.84, 0.0000188634, 10.002137, 9.998121 
1.7951474e+3, 2.8495044e+2, 15488.935, -372698.97, 2349.6113, -0.06573843, 0.46430272, 15503.155, 163019.0, 0.00018772867, 10.002394, 9.99727 
1.7951638e+3, 2.9494596e+2, 107528.61, -251933.48, 38639.746, -0.019533943, 0.23030004, 111635.2, 161192.66, 0.00073076796, 10.0022745, 9.997458 
1.7951809e+3, 3.0494314e+2, 206018.1, -160167.1, 56979.96, 0.087088555, 0.2049083, 214679.53, 214679.53, 0.0017122224, 10.00249, 9.997685 
1.795198e+3, 3.149408e+2, 323883.2, 33495.133, 5477.874, 0.15377349, 0.12402218, 323986.47, 323986.47, 0.0029518763, 10.002761, 9.99883 
1.8048798e+3, 1.24933176e+2, -2078482.0, -1980154.1, -460334.8, -0.3777627, 0.23725125, -1566365.4, 149310.1, 0.097200245, 9.997871, 9.999232 
1.804909e+3, 1.3493575e+2, -1739532.3, -1392924.8, 233890.19, 0.29446334, 0.21479677, -1275129.1, 342525.16, 0.06490086, 9.997886, 10.002657 
1.8049237e+3, 1.4493951e+2, -1743058.4, -1470592.4, -48356.434, -0.055991966, 0.3885887, -1462264.8, 57352.855, 0.034457777, 9.997737, 10.001414 
1.8049395e+3, 1.5493982e+2, -1470996.3, -1267492.8, -94198.67, 0.09848572, 0.22819619, -1230583.8, 191027.13, 0.0127833225, 9.998871, 10.001571 
1.8049552e+3, 1.649401e+2, -1477366.6, -1464634.1, 44434.57, 0.08504899, 0.21676582, -1426112.1, -102503.71, 0.0025744103, 9.999193, 9.999395 
1.804972e+3, 1.7493983e+2, -1410024.5, -1350267.6, 58088.133, 0.004145214, 0.19968013, -1314824.1, -89208.734, 0.00014305822, 9.998877, 9.99964 
1.8049896e+3, 1.849399e+2, -1269824.3, -1187928.9, 77440.39, 0.020134538, 0.22981468, -1141276.8, -13661.357, 0.00000010953618, 9.998949, 10.000064 
1.8050076e+3, 1.9494057e+2, -1059603.3, -1013308.6, 85289.83, 0.08561848, 0.24432819, -948080.8, 81525.18, 0.0, 9.999649, 10.000235 
1.805024e+3, 2.0494051e+2, -969559.44, -925230.44, 41702.32, 0.07679588, 0.22359219, -900168.4, 31436.682, 0.0, 9.999589, 10.000224 
1.8050395e+3, 2.1493968e+2, -975847.44, -853156.94, 9730.872, 0.015064521, 0.07478244, -852389.94, -18777.135, 0.0, 9.9987955, 10.000412 
1.8050547e+3, 2.2494008e+2, -887532.4, -877195.7, 1204.1621, -0.042534057, 0.1349626, -877057.25, -141446.95, 0.0, 9.999244, 9.999351 
1.8050699e+3, 2.3494177e+2, -511124.3, -628021.06, -20153.586, -0.11526862, 0.3279123, -507747.3, 129849.375, 0.0, 10.001091, 9.999487 
1.805086e+3, 2.4494088e+2, -372969.0, -616720.94, -29044.94, -0.05710505, 0.34141728, -369555.88, 170049.97, 0.0, 10.0017805, 9.998591 
1.8051036e+3, 2.5493726e+2, -351413.75, -542605.3, -40659.03, 0.14085402, 0.08272467, -343126.38, 98512.47, 0.0, 10.001217, 9.9986925 
1.8051198e+3, 2.6493576e+2, -293241.7, -586794.6, 12155.662, 0.17549123, 0.12814538, -292739.2, 50916.17, 0.00000007008213, 10.001459, 9.997598 
1.8051344e+3, 2.7493644e+2, -20798.64, -391963.8, 4963.9473, -0.01140863, 0.39388198, -20732.266, 224922.47, 0.000018211349, 10.002598, 9.997715 
1.8051499e+3, 2.849347e+2, 107073.36, -275102.16, -1071.3926, -0.063056596, 0.4564336, 107076.36, 254748.25, 0.00018396281, 10.00279, 9.997745 
1.8051668e+3, 2.9493064e+2, 133630.47, -191532.17, -15254.031, 0.072461635, 0.22428751, 134344.5, 184050.19, 0.00071764825, 10.002231, 9.997903 
1.805184e+3, 3.0492762e+2, 212452.7, -164226.53, 58938.855, 0.17371209, 0.15765978, 221459.48, 221459.48, 0.0016601158, 10.002587, 9.997598 
1.805202e+3, 3.1492642e+2, 412507.63, 6719.0747, -79067.86, 0.25702667, 0.22789222, 427369.66, 427369.66, 0.0028130368, 10.003573, 9.998305 
1.8148796e+3, 1.2491689e+2, -2180132.3, -2216690.5, -374521.9, -0.23779394, 0.3002573, -1823443.6, -107609.51, 0.10291468, 9.997947, 9.997517 
1.814907e+3, 1.3491751e+2, -1671966.1, -1256017.6, 209029.58, 0.28209034, -0.015387902, -1169124.6, 448704.3, 0.06887483, 9.997867, 10.003667 
1.8149194e+3, 1.449223e+2, -1787856.3, -1578043.6, -32591.184, -0.29497892, 0.24604446, -1573097.8, -53314.496, 0.036753505, 9.997794, 10.000644 
1.8149376e+3, 1.5492254e+2, -1520945.6, -1382405.1, -41181.484, -0.0056747417, 0.16557264, -1371088.3, 50693.57, 0.01378539, 9.99891, 10.000762 
1.814954e+3, 1.6492394e+2, -1412988.3, -1349323.0, 17172.145, 0.0059210057, 0.26430738, -1344986.6, -21215.908, 0.002842686, 9.9992695, 10.000148 
1.8149705e+3, 1.7492598e+2, -1363918.4, -1256402.8, 56098.56, -0.06554477, 0.4090242, -1232462.8, -6708.275, 0.00016504708, 9.998874, 10.000289 
1.8149883e+3, 1.8492635e+2, -1234569.6, -1121896.1, 89281.68, -0.044299986, 0.41351393, -1072662.9, 55086.805, 0.00000012908751, 9.998974, 10.000508 
1.8150069e+3, 1.949252e+2, -1029801.06, -944841.56, 121050.33, 0.025002927, 0.20038472, -859033.75, 170720.64, 0.0, 9.999612, 10.000727 
1.8150231e+3, 2.0492509e+2, -1026937.94, -1015484.6, 1197.9626, 0.0069187945, 0.17754653, -1015360.7, -83607.09, 0.0, 9.999469, 9.999658 
1.8150376e+3, 2.1492599e+2, -1041123.7, -951655.44, -9638.639, -0.060532164, 0.25861412, -950628.8, -116881.0, 0.0, 9.998634, 9.999812 
1.8150538e+3, 2.2492598e+2, -941759.6, -933270.6, 58413.676, -0.07303134, 0.3192385, -878947.44, -143196.6, 0.0, 9.998999, 9.999084 
1.815072e+3, 2.3492497e+2, -560341.6, -682239.6, 63002.094, -0.026646845, 0.26579523, -533631.94, 104131.336, 0.0, 10.000883, 9.999216 
1.8150885e+3, 2.4492402e+2, -417281.0, -648937.5, -60089.625, -0.014343529, 0.2961588, -402621.9, 137152.05, 0.0, 10.001524, 9.99849 
1.8151033e+3, 2.549233e+2, -378862.75, -554693.6, -48175.992, -0.016379045, 0.32769126, -366528.25, 75252.9, 0.0, 10.001027, 9.998693 
1.8151195e+3, 2.649219e+2, -312044.34, -569451.44, 44178.51, -0.029320952, 0.36575094, -304673.13, 39123.324, 0.0000000874347, 10.00121, 9.997839 
1.8151367e+3, 2.7491957e+2, -43885.53, -373886.66, 67194.664, -0.057584323, 0.2978998, -30727.996, 215093.7, 0.00001648955, 10.002329, 9.997958 
1.8151534e+3, 2.8491732e+2, 73434.72, -281934.78, -35564.04, -0.028699344, 0.29844472, 76958.89, 224799.86, 0.00017264257, 10.002508, 9.997836 
1.8151696e+3, 2.9491538e+2, 121682.484, -172809.89, -13362.82, 0.10168607, 0.25136697, 122287.586, 172140.23, 0.0006828003, 10.00204, 9.998119 
1.8151863e+3, 3.049125e+2, 107150.62, -310780.8, 78707.76, 0.098028705, 0.22682248, 121481.97, 121481.97, 0.0015894915, 10.002288, 9.996733 
1.8152031e+3, 3.1491032e+2, 261680.77, -107274.11, 42309.094, -0.04087606, 0.2684819, 266470.28, 266470.28, 0.002705981, 10.002798, 9.997851 
1.8248792e+3, 1.2489951e+2, -2119452.3, -2273199.3, -278695.28, -0.10538696, 0.30729604, -1907222.6, -191218.45, 0.10907774, 9.99873, 9.996739 
1.8249036e+3, 1.3490029e+2, -1790881.4, -1215259.1, 105178.89, 0.23341334, -0.08431335, -1196642.8, 421352.94, 0.07313931, 9.996538, 10.004625 
1.8249178e+3, 1.4490633e+2, -2012336.6, -1683913.5, 27363.73, -0.16820413, 0.24670695, -1681649.1, -161711.83, 0.039204508, 9.996278, 10.000634 
1.8249364e+3, 1.5490639e+2, -1619314.8, -1454366.6, 37968.824, 0.015299108, 0.1672188, -1446046.5, -24107.11, 0.014855209, 9.998359, 10.0005245 
1.8249528e+3, 1.6490741e+2, -1450600.5, -1377240.3, 34003.355, -0.024147365, 0.24839514, -1363903.8, -39971.32, 0.0031336718, 9.999049, 10.000059 
1.8249695e+3, 1.7490935e+2, -1419885.6, -1285776.3, -9747.807, -0.028085403, 0.3880571, -1285071.4, -59154.56, 0.00019006866, 9.998513, 10.000254 
1.8249875e+3, 1.8490978e+2, -1317853.5, -1147409.6, 42819.96, 0.031406563, 0.39538056, -1137256.9, -9345.31, 0.00000015151502, 9.998344, 10.000636 
1.8250062e+3, 1.949088e+2, -1152346.4, -988377.4, 22848.8, 0.043557152, 0.18701664, -985252.94, 44662.34, 0.0, 9.998724, 10.000852 
1.8250224e+3, 2.0490894e+2, -1057284.9, -1049174.1, -93010.26, -0.0077131083, 0.19194123, -960130.9, -28217.998, 0.0, 9.999349, 9.999471 
1.8250366e+3, 2.1491012e+2, -810164.6, -859346.7, -96297.17, -0.09693888, 0.31905425, -735368.2, 98537.04, 0.0, 10.000311, 9.999624 
1.8250534e+3, 2.2490992e+2, -725605.6, -819228.06, 43269.19, -0.07607041, 0.363136, -708671.1, 27238.77, 0.0, 10.0004015, 9.9992075 
1.8250728e+3, 2.3490828e+2, -738215.5, -748872.94, 54484.473, 0.035727143, 0.23199733, -688799.8, -50872.96, 0.0, 9.999565, 9.9994 
1.8250898e+3, 2.4490759e+2, -641729.8, -752826.2, -20165.232, 0.04953316, 0.27483442, -638182.8, -98247.516, 0.0, 9.999972, 9.998514 
1.8251044e+3, 2.5490794e+2, -282293.38, -505810.56, -30294.29, -0.035077315, 0.4086652, -278260.25, 163674.38, 0.0, 10.001685, 9.9987 
1.8251209e+3, 2.6490664e+2, -169534.6, -464861.16, 63540.42, -0.041736457, 0.44664115, -156443.94, 187504.27, 0.00000011582431, 10.002048, 9.998148 
1.8251391e+3, 2.749036e+2, -207657.69, -423992.2, 49458.926, 0.0122419875, 0.2842078, -196886.55, 49091.453, 0.000015405387, 10.001072, 9.998224 
1.8251562e+3, 2.8490108e+2, -48821.96, -343184.1, 9105.704, 0.060955137, 0.24465643, -48540.56, 99458.555, 0.00016033727, 10.001682, 9.997815 
1.8251723e+3, 2.9489934e+2, 388311.56, -59931.023, -21750.469, 0.09707052, 0.2319671, 389364.5, 439373.9, 0.00063978235, 10.003922, 9.998 
1.8251891e+3, 3.048967e+2, 351663.75, -223086.72, 59389.82, 0.08707747, 0.24932978, 357736.44, 357736.44, 0.0015186591, 10.004089, 9.996468 
1.8252063e+3, 3.1489477e+2, 194300.28, -163932.27, 10983.0205, 0.041194867, 0.36097425, 194636.69, 194636.69, 0.0026449559, 10.002344, 9.997734 
1.8348797e+3, 1.2488096e+2, -2085803.1, -2231549.0, -255162.9, -0.009435954, 0.22816476, -1893311.1, -177124.6, 0.11569034, 9.998827, 9.99699 
1.8348983e+3, 1.3488425e+2, -1714933.5, -1077929.8, 39996.168, 0.032046877, 0.012252707, -1075428.3, 542724.44, 0.07769921, 9.996559, 10.005647 
1.8349177e+3, 1.4489187e+2, -1960634.9, -1592068.8, 86133.17, 0.16611384, 0.4072116, -1572933.1, -52855.816, 0.04181763, 9.996339, 10.001236 
1.8349352e+3, 1.5489139e+2, -1597973.0, -1415334.4, 127205.39, 0.04526677, 0.23929012, -1350063.8, 72019.164, 0.015997248, 9.998371, 10.000794 
1.8349512e+3, 1.6489057e+2, -1501093.5, -1500910.1, -1806.3285, -0.121340975, 0.17123738, -1499193.1, -175100.17, 0.0034491862, 9.9991255, 9.999178 
1.8349688e+3, 1.7488977e+2, -1471435.0, -1403295.9, -22642.105, 0.01974251, 0.11813723, -1396458.1, -170353.69, 0.00021871291, 9.998544, 9.999439 
1.8349871e+3, 1.8488997e+2, -1335753.8, -1183956.8, 42738.395, 0.10853645, 0.15456766, -1172751.0, -44647.37, 0.00000018976193, 9.998351, 10.000377 
1.835005e+3, 1.9489118e+2, -1186280.5, -1042421.3, 46694.203, 0.035756562, 0.19708993, -1028594.2, 1496.2723, 0.0, 9.998654, 10.000513 
1.8350212e+3, 2.0489188e+2, -1058476.5, -1021879.44, -69474.88, -0.08883561, 0.26204336, -968333.75, -36249.42, 0.0, 9.999221, 9.99972 
1.835036e+3, 2.1489206e+2, -816639.4, -833309.2, -51841.758, -0.20464958, 0.26206803, -772466.75, 61618.496, 0.0, 10.000141, 9.999885 
1.835053e+3, 2.2489192e+2, -724198.0, -758552.4, 2899.4624, -0.1821722, 0.2770445, -723955.0, 12132.036, 0.0, 10.000154, 9.999746 
1.8350719e+3, 2.3489155e+2, -726331.94, -679053.75, 36586.867, -0.022311166, 0.21480064, -659133.6, -21044.408, 0.0, 9.999374, 9.999975 
1.8350898e+3, 2.4489135e+2, -668697.6, -750863.94, 32756.443, 0.022808464, 0.269956, -657237.4, -117145.0, 0.0, 9.999721, 9.998653 
1.8351063e+3, 2.5489125e+2, -311597.6, -510763.88, 49949.305, -0.02764491, 0.35287574, -299772.78, 142324.66, 0.0, 10.001453, 9.998778 
1.8351234e+3, 2.648903e+2, -198023.83, -472326.53, 16680.137, -0.012736802, 0.41879642, -197013.25, 147094.75, 0.000000090536304, 10.001816, 9.998211 
1.8351409e+3, 2.748884e+2, -220741.53, -411670.78, 31779.576, 0.070518896, 0.35547924, -215590.88, 30534.377, 0.00001528185, 10.000901, 9.998389 
1.835158e+3, 2.8488567e+2, -101516.734, -398077.47, 72981.32, 0.05156842, 0.29398996, -84529.62, 63619.418, 0.00015301339, 10.001442, 9.997556 
1.8351749e+3, 2.9488242e+2, 320782.06, -119817.66, 83022.24, -0.07345354, 0.154031, 335906.75, 386083.44, 0.0006073144, 10.003591, 9.99774 
1.8351924e+3, 3.0488038e+2, 272551.56, -282848.66, -22705.521, -0.03698841, 0.2605467, 273478.25, 273478.25, 0.0014668715, 10.003644, 9.996269 
1.8352093e+3, 3.1488037e+2, 113795.516, -206878.83, 51658.434, 0.06052508, 0.55597085, 121911.91, 121911.91, 0.0026203785, 10.001839, 9.997664 
1.8448798e+3, 1.24864504e+2, -2115799.0, -2182809.3, -9954.084, 0.16515858, 0.16314495, -2114351.5, -398006.16, 0.12272786, 9.998359, 9.99756 
1.8448946e+3, 1.348673e+2, -1620028.9, -1132359.5, -144.46729, -0.035954654, -0.0022961483, -1132359.4, 485958.16, 0.08254445, 9.997697, 10.0047 
1.8449156e+3, 1.4487469e+2, -1811828.1, -1533196.9, 43186.19, 0.2736728, 0.4256982, -1526656.8, -6411.5747, 0.04459436, 9.997395, 10.0011425 
1.8449336e+3, 1.5487413e+2, -1714127.8, -1473524.3, 31345.766, 0.0822506, 0.2544212, -1469507.5, -47255.598, 0.017215712, 9.997588, 10.000768 
1.8449499e+3, 1.6487345e+2, -1667638.4, -1550244.6, -79057.64, -0.101287186, 0.18632652, -1510476.1, -186215.44, 0.0037916328, 9.997878, 9.999437 
1.8449669e+3, 1.7487259e+2, -1451405.1, -1364882.0, -45083.63, -0.018481959, 0.10802208, -1345660.8, -119389.12, 0.00025177147, 9.99858, 9.999683 
1.844985e+3, 1.8487285e+2, -1294828.8, -1174304.8, 85954.46, 0.072454095, 0.14176857, -1129592.1, -1321.7064, 0.00000025167606, 9.998661, 10.000296 
1.8450038e+3, 1.9487432e+2, -1242690.3, -1076463.3, 84544.66, 0.070534624, 0.2134194, -1041020.2, -10764.264, 0.0, 9.998284, 10.000455 
1.8450207e+3, 2.0487507e+2, -1156332.5, -1037562.3, 33446.387, -0.022270335, 0.27146736, -1028791.3, -96541.9, 0.0, 9.998413, 10.000009 
1.8450359e+3, 2.1487512e+2, -924868.5, -850632.3, 31406.813, -0.18011963, 0.23286009, -839127.94, -4877.3594, 0.0, 9.999263, 10.000192 
1.845053e+3, 2.2487512e+2, -778309.56, -793571.8, 48369.516, -0.17586178, 0.25001377, -736972.94, -722.1824, 0.0, 9.999847, 9.999636 
1.8450715e+3, 2.3487495e+2, -611715.0, -638511.56, 5182.688, -0.035310935, 0.2215566, -610747.5, 27503.451, 0.0, 10.000231, 9.999826 
1.8450896e+3, 2.4487458e+2, -533083.4, -683610.5, 41071.83, 0.011083486, 0.2632701, -522606.06, 17649.904, 0.0, 10.000649, 9.99866 
1.8451072e+3, 2.5487402e+2, -355209.9, -534289.06, 22522.594, -0.04946682, 0.30098963, -352420.72, 89845.09, 0.0, 10.001148, 9.998767 
1.845125e+3, 2.6487318e+2, -252213.69, -483135.84, -39308.203, -0.004946435, 0.3691489, -245705.94, 98569.41, 0.00000009817215, 10.001393, 9.998334 
1.8451425e+3, 2.7487195e+2, -134746.34, -358273.03, -51832.457, 0.13001364, 0.36676982, -123312.09, 122973.125, 0.000013983738, 10.001453, 9.998482 
1.84516e+3, 2.8486943e+2, -86733.46, -382214.88, 78075.016, 0.10971873, 0.32158744, -67372.336, 80935.73, 0.00014297603, 10.001518, 9.997629 
1.8451771e+3, 2.948661e+2, 36484.598, -242512.34, 60689.406, -0.08791636, 0.17186767, 49114.453, 99453.76, 0.00057426473, 10.001576, 9.997877 
1.8451956e+3, 3.0486467e+2, 72454.6, -326597.6, -14598.289, 0.015865395, 0.30505714, 72987.93, 72987.93, 0.0014116708, 10.00203, 9.996758 
1.8452117e+3, 3.1486365e+2, 340693.0, -50434.426, 53505.496, 0.06315858, 0.46526358, 347880.38, 347880.38, 0.0025731076, 10.003179, 9.9981 
1.8548785e+3, 1.2485093e+2, -2022685.5, -2035139.0, 11192.429, 0.1295633, 0.16205464, -2016104.3, -299631.34, 0.13014582, 9.998519, 9.998509 
1.8548925e+3, 1.3484943e+2, -1836552.8, -1553775.9, -9244.446, -0.062519096, -0.14767846, -1553473.9, 65016.434, 0.08765755, 9.997723, 10.001544 
1.8549107e+3, 1.4485466e+2, -1857889.9, -1642705.8, 33160.47, 0.009939546, 0.2775874, -1637711.5, -117269.36, 0.04753598, 9.997456, 10.000364 
1.8549307e+3, 1.5485449e+2, -1737342.9, -1531539.1, 47160.324, 0.00917028, 0.19564681, -1521247.0, -98799.49, 0.01851746, 9.997626, 10.000355 
1.854948e+3, 1.6485587e+2, -1562016.4, -1345625.8, -69780.48, -0.10900057, 0.28216133, -1325075.0, -638.4869, 0.0041650403, 9.997939, 10.000812 
1.8549635e+3, 1.7485775e+2, -1362558.5, -1180730.0, -7795.44, -0.24823304, 0.3482483, -1180396.4, 46022.785, 0.00029041685, 9.998575, 10.000952 
1.8549813e+3, 1.8485838e+2, -1280034.8, -1148356.1, 57785.395, -0.20049007, 0.3477765, -1126594.3, 1818.1276, 0.0000003514084, 9.998684, 10.0004635 
1.8550019e+3, 1.9485815e+2, -1240405.8, -1055433.9, 76907.016, 0.037913967, 0.23510447, -1027635.44, 2776.5227, 0.0, 9.998211, 10.000637 
1.8550201e+3, 2.0485845e+2, -1156443.0, -1003252.44, 51639.02, 0.0636254, 0.22622001, -987471.2, -55062.832, 0.0, 9.998267, 10.000314 
1.855036e+3, 2.1485926e+2, -929951.56, -819463.3, 73468.86, -0.11402729, 0.2314212, -782785.8, 51616.043, 0.0, 9.999084, 10.00049 
1.855053e+3, 2.2485931e+2, -861328.0, -915836.56, 52234.594, -0.17585713, 0.27253383, -829665.0, -93262.18, 0.0, 9.999623, 9.99891 
1.8550712e+3, 2.348585e+2, -695084.06, -767993.94, 32851.844, -0.113409534, 0.2582336, -682465.5, -44053.387, 0.0, 10.00004, 9.999033 
1.8550892e+3, 2.4485745e+2, -584943.2, -731136.06, 47709.355, -0.12247994, 0.2850015, -570751.2, -30326.486, 0.0, 10.000393, 9.998456 
1.8551072e+3, 2.5485623e+2, -397482.63, -566719.06, 53525.656, -0.19371635, 0.26684532, -381974.72, 60465.203, 0.0, 10.000922, 9.998646 
1.8551254e+3, 2.6485524e+2, -281040.84, -480995.9, -51122.316, -0.12719242, 0.3166492, -268728.56, 75721.84, 0.00000008466028, 10.001131, 9.998475 
1.8551438e+3, 2.7485424e+2, -164233.56, -360543.84, -30074.469, 0.08615536, 0.32618454, -159729.53, 86728.36, 0.000011476472, 10.001214, 9.998577 
1.8551616e+3, 2.8485242e+2, -121095.234, -388272.88, 63149.387, 0.09406559, 0.34094325, -106921.34, 41554.402, 0.00012753508, 10.001231, 9.997732 
1.8551789e+3, 2.9485032e+2, 17626.049, -216518.16, 80691.125, -0.09231968, 0.29268533, 42740.215, 93238.64, 0.00053210376, 10.001301, 9.998189 
1.8551983e+3, 3.0484942e+2, 79507.29, -221596.0, 1572.7012, 0.049926866, 0.41352412, 79515.51, 79515.51, 0.0013358389, 10.001649, 9.997659 
1.855214e+3, 3.148464e+2, 302579.03, 29835.49, 147029.97, -0.0710738, 0.29605082, 366744.22, 366744.22, 0.0024655005, 10.002536, 9.998944 
1.8648769e+3, 1.2483614e+2, -1968846.9, -1795761.6, -9254.58, 0.14930086, 0.24337965, -1795268.1, -78651.48, 0.1378835, 9.998015, 10.0003605 
1.8648906e+3, 1.3483255e+2, -1886237.6, -1811805.5, -112438.586, -0.03851621, -0.08532972, -1730583.9, -111926.5, 0.09301642, 9.99844, 9.999365 
1.8649079e+3, 1.4483622e+2, -1763699.0, -1613038.0, 35277.73, -0.029408036, 0.30671692, -1605186.8, -84561.484, 0.050644647, 9.998182, 10.000211 
1.8649289e+3, 1.548352e+2, -1660265.4, -1493594.8, 57745.14, 0.038570255, 0.13532533, -1475543.4, -52906.41, 0.01991141, 9.998152, 10.0003605 
1.8649466e+3, 1.6483666e+2, -1516647.5, -1284315.6, -41939.945, -0.030172214, 0.21432918, -1276976.5, 47647.688, 0.0045744055, 9.998069, 10.001166 
1.8649617e+3, 1.7483991e+2, -1399407.1, -1151333.0, -74181.61, -0.25004572, 0.3760989, -1130842.9, 95750.94, 0.0003360051, 9.998126, 10.001355 
1.8649796e+3, 1.8484108e+2, -1327922.0, -1141356.6, -27874.205, -0.22405659, 0.39528152, -1137281.1, -8699.533, 0.00000050835786, 9.998232, 10.000728 
1.8650004e+3, 1.9484049e+2, -1158758.1, -987184.4, -24629.637, 0.047503017, 0.21789691, -983718.75, 46865.08, 0.0, 9.998647, 10.0009 
1.8650194e+3, 2.0484067e+2, -1093892.4, -1004518.1, -24652.19, 0.13239758, 0.19564451, -998169.25, -65587.48, 0.0, 9.998832, 10.000032 
1.865036e+3, 2.1484149e+2, -975405.0, -877025.56, -70590.47, -0.004090956, 0.23363085, -840176.7, -5599.944, 0.0, 9.998912, 10.000183 
1.8650533e+3, 2.2484165e+2, -895747.94, -919607.25, -56352.125, -0.07443891, 0.29730558, -850076.56, -113499.305, 0.0, 9.999331, 9.999034 
1.8650714e+3, 2.3484121e+2, -663919.25, -739703.06, -35378.01, -0.092748, 0.3107127, -649971.0, -11388.326, 0.0, 10.000196, 9.999165 
1.8650895e+3, 2.4484012e+2, -590185.2, -732811.94, 17781.576, -0.12452424, 0.32638046, -588001.75, -47406.79, 0.0, 10.000348, 9.998468 
1.8651076e+3, 2.5483835e+2, -569516.56, -651440.94, 11134.596, -0.18324783, 0.2551431, -568030.2, -125415.88, 0.0, 9.99975, 9.99863 
1.8651262e+3, 2.64837e+2, -401234.16, -517302.22, -28187.621, -0.11203388, 0.26518005, -394750.8, -50123.742, 0.000000065173005, 10.000201, 9.998678 
1.865145e+3, 2.7483606e+2, -62523.723, -289407.3, -35078.836, 0.07364369, 0.2609024, -57223.926, 189409.77, 0.000009433609, 10.001803, 9.998791 
1.8651631e+3, 2.848347e+2, 10548.981, -304676.53, 46465.84, 0.08025791, 0.2995862, 17255.596, 165903.17, 0.00011541226, 10.002052, 9.997898 
1.8651798e+3, 2.9483327e+2, -20244.936, -219909.86, 20725.217, -0.10197143, 0.3049227, -18116.35, 32549.031, 0.00049646525, 10.000971, 9.998312 
1.8652008e+3, 3.0483276e+2, 103308.88, -186972.53, 32943.7, 0.15085079, 0.44705787, 107000.67, 107000.67, 0.0012596898, 10.001691, 9.9978695 
1.8652171e+3, 3.148297e+2, 548342.1, 140859.55, 37081.29, -0.07870317, 0.30308643, 551689.06, 551689.06, 0.0023234626, 10.004196, 9.998917 
1.8748727e+3, 1.24818735e+2, -1781635.6, -1466058.9, 80779.19, -0.13486357, 0.23214167, -1446583.5, 270206.84, 0.14588223, 9.998092, 10.002893 
1.874889e+3, 1.3481665e+2, -1970168.8, -1995133.8, -105111.305, -0.0816993, 0.17577836, -1876801.4, -257982.14, 0.0986057, 9.99847, 9.998098 
1.874907e+3, 1.4481942e+2, -1710103.0, -1530168.6, 16056.705, 0.008259809, 0.5152013, -1528747.0, -7953.0283, 0.053927336, 9.998292, 10.000728 
1.8749274e+3, 1.5481618e+2, -1619329.9, -1419732.3, 69577.34, 0.060234215, 0.07085055, -1397872.5, 24948.076, 0.021407956, 9.998187, 10.000858 
1.8749456e+3, 1.6481586e+2, -1545475.0, -1360134.5, -52493.715, 0.005772064, -0.025252258, -1346299.5, -21476.467, 0.0050250688, 9.998137, 10.000614 
1.8749611e+3, 1.7481908e+2, -1436159.4, -1229929.8, -62371.086, -0.13804963, 0.18843986, -1212534.0, 14261.826, 0.00038988978, 9.998125, 10.000824 
1.8749788e+3, 1.8482085e+2, -1296477.4, -1082198.6, -29170.055, -0.14781101, 0.2761609, -1078298.6, 50480.484, 0.000000733184, 9.9982605, 10.001122 
1.8749988e+3, 1.9482124e+2, -1145022.9, -937592.6, -534.1054, -0.006211801, 0.16165267, -937591.25, 93180.9, 0.0, 9.998564, 10.00128 
1.8750177e+3, 2.0482156e+2, -1164260.8, -1133052.0, -38171.098, 0.054936647, 0.17604569, -1107418.9, -174648.34, 0.0, 9.998747, 9.999196 
1.8750355e+3, 2.1482186e+2, -1061881.1, -1019791.3, -57512.805, 0.037557516, 0.24682191, -979594.0, -144819.39, 0.0, 9.998749, 9.999284 
1.8750536e+3, 2.2482228e+2, -869653.0, -813264.44, -36788.395, -0.013132196, 0.3418419, -795108.94, -58336.0, 0.0, 9.999099, 9.999879 
1.8750718e+3, 2.3482297e+2, -629269.4, -619110.5, 8339.46, -0.08302957, 0.37509742, -614425.4, 24338.504, 0.0, 9.999989, 10.000088 
1.87509e+3, 2.4482231e+2, -611822.2, -724538.9, -15426.302, -0.12691599, 0.3794055, -609749.06, -68979.805, 0.0, 10.000111, 9.998646 
1.8751079e+3, 2.5482023e+2, -586549.4, -641854.25, 3611.43, -0.13697962, 0.25999635, -586314.56, -143524.38, 0.0, 9.999559, 9.998788 
1.8751267e+3, 2.6481855e+2, -421104.34, -509727.3, 18242.488, -0.09928395, 0.21816123, -417496.16, -72690.73, 0.00000004605578, 9.999978, 9.998846 
1.8751462e+3, 2.7481747e+2, -79977.29, -272955.28, 40097.973, -0.027767668, 0.18142712, -71977.18, 174835.47, 0.000008319171, 10.00157, 9.999022 
1.8751636e+3, 2.8481635e+2, -19638.47, -306222.78, -9061.019, -0.09709728, 0.22287025, -19352.271, 129471.46, 0.00010877432, 10.001784, 9.998022 
1.8751797e+3, 2.948149e+2, -61415.305, -240005.03, 4971.213, -0.24096003, 0.22159265, -61277.035, -10435.881, 0.00047256332, 10.000696, 9.998307 
1.8752025e+3, 3.0481455e+2, 22582.04, -264412.84, 105240.44, 0.12797056, 0.40190732, 57037.023, 57037.023, 0.0011932392, 10.001323, 9.997508 
1.8752223e+3, 3.1481275e+2, 393256.9, -3009.7512, 130774.64, -0.036110085, 0.4133667, 432523.72, 432523.72, 0.0021771474, 10.003479, 9.998254 
1.8848696e+3, 1.2479904e+2, -2015019.1, -1437439.5, -32053.03, -0.1298559, 0.17986196, -1435666.1, 281320.47, 0.15411249, 9.995785, 10.004273 
1.8848875e+3, 1.3479827e+2, -2110724.3, -2072781.3, -112017.875, -0.0070289318, 0.23988661, -1978139.8, -359137.6, 0.10442951, 9.997529, 9.998028 
1.8849055e+3, 1.4480035e+2, -1654897.8, -1506049.9, 4155.2593, 0.018571954, 0.5217713, -1505934.0, 15049.572, 0.057399224, 9.998716, 10.000676 
1.8849257e+3, 1.5479787e+2, -1585870.9, -1377633.5, -1305.5999, 0.06312672, 0.13855761, -1377625.3, 45377.195, 0.023018045, 9.99836, 10.001039 
1.8849438e+3, 1.6479748e+2, -1542612.0, -1354320.1, -73811.19, 0.03511669, 0.024310226, -1328835.3, -3830.3904, 0.005521801, 9.998128, 10.000662 
1.8849601e+3, 1.7479977e+2, -1390210.4, -1204099.5, -58864.668, -0.06701365, 0.13969246, -1187044.3, 39940.918, 0.0004532519, 9.998411, 10.0008745 
1.884978e+3, 1.8480156e+2, -1264711.8, -1086053.4, 9652.74, -0.07130347, 0.23250842, -1085533.4, 43435.47, 0.0000010252129, 9.998566, 10.00094 
1.8849975e+3, 1.9480266e+2, -1104308.3, -937808.56, -20657.576, 0.008009457, 0.20494805, -935283.9, 95673.13, 0.0, 9.998926, 10.001097 
1.8850166e+3, 2.0480306e+2, -1054591.0, -1083796.9, -23915.584, 0.051620174, 0.23741639, -1041172.56, -108217.586, 0.0, 9.999521, 9.999154 
1.8850352e+3, 2.1480277e+2, -797701.3, -893091.6, -6781.54, 0.04441247, 0.25383636, -797221.6, 37741.37, 0.0, 10.000568, 9.999272 
1.8850537e+3, 2.2480285e+2, -626983.94, -709262.2, 21160.605, 0.019446597, 0.3196581, -621860.8, 115103.21, 0.0, 10.0008335, 9.999744 
1.8850723e+3, 2.3480329e+2, -585153.4, -617423.2, -32430.496, -0.047521137, 0.34410834, -565065.75, 73892.27, 0.0, 10.000372, 9.999914 
1.8850906e+3, 2.4480283e+2, -550096.56, -641112.94, -73192.09, -0.0814725, 0.35555604, -509418.47, 31542.486, 0.0, 10.000327, 9.999104 
1.8851085e+3, 2.5480142e+2, -372275.75, -491821.0, -68183.805, -0.09253682, 0.26384047, -341374.25, 101599.18, 0.0, 10.000838, 9.9992 
1.8851277e+3, 2.6479998e+2, -275861.6, -457319.53, -1952.5067, -0.052339427, 0.2348904, -275840.6, 69145.52, 0.000000017635879, 10.001072, 9.998667 
1.8851474e+3, 2.747988e+2, -160954.19, -326274.13, -35987.55, -0.01575983, 0.20380293, -153459.98, 93536.26, 0.000007223604, 10.001106, 9.99886 
1.8851651e+3, 2.847975e+2, -76666.375, -359548.47, -107772.19, -0.1039893, 0.24794398, -40286.117, 108723.52, 0.00010058898, 10.001532, 9.997764 
1.8851814e+3, 2.9479554e+2, 189231.11, -160499.22, -156603.83, -0.22379535, 0.22300296, 249105.34, 300136.47, 0.0004433926, 10.002596, 9.997937 
1.885205e+3, 3.0479413e+2, 260930.05, -180155.25, -5817.1436, 0.1772813, 0.33496165, 261006.75, 261006.75, 0.0011172551, 10.003046, 9.997291 
1.8852252e+3, 3.1479242e+2, 227737.84, -33934.945, -118245.39, -0.00835962, 0.37206292, 273253.75, 273253.75, 0.002025033, 10.002119, 9.998704 
1.8948661e+3, 1.2477803e+2, -2014770.3, -1474065.9, -245240.25, -0.14068933, 0.17125838, -1379407.0, 337788.75, 0.16258536, 9.995964, 10.003996 
1.894886e+3, 1.347778e+2, -2027400.5, -1903327.5, -8198.39, 0.0512245, 0.14241159, -1902788.1, -283585.88, 0.110513955, 9.997521, 9.999209 
1.8949029e+3, 1.4477886e+2, -1691436.0, -1582430.6, -14188.919, -0.14703342, 0.3036592, -1580614.0, -59418.984, 0.06108175, 9.998732, 10.000134 
1.8949232e+3, 1.5478016e+2, -1605317.6, -1417518.3, -4438.643, -0.06294978, 0.33094454, -1417413.4, 5770.524, 0.024752133, 9.998363, 10.000759 
1.8949412e+3, 1.6478145e+2, -1474304.6, -1238001.8, -78013.98, -0.08832503, 0.36032772, -1214569.5, 110601.39, 0.0060684755, 9.998232, 10.001415 
1.894958e+3, 1.7478205e+2, -1339140.9, -1097412.8, -40779.645, -0.14057249, 0.23321581, -1090718.6, 136443.42, 0.0005270964, 9.998406, 10.00161 
1.8949765e+3, 1.8478312e+2, -1305398.3, -1180104.4, 9941.118, -0.11401144, 0.2499104, -1179320.5, -50168.84, 0.0000013718216, 9.998611, 10.00027 
1.8949963e+3, 1.9478494e+2, -1164951.4, -1043303.7, 108.73705, -0.025113001, 0.36229858, -1043303.56, -12167.032, 0.0, 9.998847, 10.000405 
1.8950157e+3, 2.0478538e+2, -1021272.56, -992775.9, 4630.798, -0.017599188, 0.39830723, -992042.25, -58909.227, 0.0, 9.9994135, 9.999839 
1.8950346e+3, 2.1478425e+2, -768717.9, -798765.5, 43723.527, -0.07677867, 0.26019928, -737509.0, 97632.914, 0.0, 10.000409, 10.000003 
1.8950535e+3, 2.2478321e+2, -739757.44, -886473.7, -7702.271, -0.1001758, 0.22938338, -739354.2, -2201.8262, 0.0, 10.000591, 9.998642 
1.8950723e+3, 2.3478234e+2, -696948.94, -797430.8, -34581.664, -0.10311246, 0.23438895, -686197.7, -47034.29, 0.0, 10.000155, 9.998776 
1.8950906e+3, 2.447819e+2, -549012.6, -587470.56, -67655.48, -0.12781034, 0.27970132, -497906.53, 43261.13, 0.0, 10.00009, 9.999595 
1.895109e+3, 2.5478193e+2, -362533.53, -425139.06, -36077.66, -0.148894, 0.27657226, -346071.66, 97092.49, 0.0, 10.000639, 9.999754 
1.8951285e+3, 2.6478118e+2, -346056.28, -552410.7, -13809.479, -0.09525249, 0.31702963, -345136.25, 34.705692, 0.0000000071100716, 10.00085, 9.998122 
1.8951488e+3, 2.7477986e+2, -233945.14, -420751.7, -20684.834, -0.011816957, 0.32363468, -231682.16, 15504.137, 0.0000064443307, 10.000871, 9.99832 
1.895167e+3, 2.84778e+2, -159584.78, -474177.9, -85504.5, -0.09742993, 0.3707911, -137847.19, 11359.102, 0.0000894982, 10.001269, 9.997108 
1.8951845e+3, 2.947749e+2, 81823.52, -311339.72, -87401.195, -0.21312709, 0.29777014, 100377.445, 151614.75, 0.00040206578, 10.002275, 9.997062 
1.8952075e+3, 3.0477142e+2, 177456.23, -250004.92, -43230.66, 0.07808679, 0.26737493, 181784.48, 181784.48, 0.0010244825, 10.002627, 9.996999 
1.8952256e+3, 3.1476855e+2, 184663.48, 54573.156, -144077.39, -0.2279557, 0.19295716, 277697.94, 277697.94, 0.0018685628, 10.0014305, 9.999616 
1.9048627e+3, 1.2475857e+2, -1937682.9, -1523295.5, -172851.83, -0.115249135, 0.23596899, -1460661.5, 256729.22, 0.1713416, 9.99696, 10.00307 
1.9048853e+3, 1.3475941e+2, -1961714.5, -1781300.1, 43722.258, 0.22949867, 0.2083612, -1771262.8, -151878.33, 0.11689223, 9.997634, 9.999964 
1.9049005e+3, 1.4475885e+2, -1880548.8, -1690941.9, 38898.688, -0.18897268, 0.1885845, -1683271.9, -161879.69, 0.06499328, 9.997462, 10.000024 
1.9049211e+3, 1.5476188e+2, -1611386.1, -1398572.0, 59949.45, -0.082656816, 0.3678296, -1382846.4, 40518.938, 0.026617203, 9.998172, 10.001011 
1.9049394e+3, 1.6476394e+2, -1479035.3, -1293857.1, -8150.072, -0.07850653, 0.4843747, -1293499.1, 31846.906, 0.0066676727, 9.998437, 10.000932 
1.9049567e+3, 1.7476363e+2, -1333909.9, -1149283.4, -88450.77, -0.12158449, 0.3157845, -1113748.0, 113600.125, 0.0006122247, 9.998689, 10.001108 
1.9049752e+3, 1.8476398e+2, -1277079.8, -1169003.1, -41865.758, -0.09132488, 0.28922227, -1154682.9, -25338.275, 0.0000017786746, 9.998833, 10.000238 
1.9049953e+3, 1.9476557e+2, -1117655.9, -1024922.1, -27594.518, -0.03045544, 0.38314646, -1017332.1, 13997.601, 0.0, 9.999196, 10.000372 
1.9050151e+3, 2.0476611e+2, -1007939.9, -967082.75, 17446.225, -0.015367682, 0.43048927, -960646.9, -27323.305, 0.0, 9.999453, 9.999982 
1.9050351e+3, 2.1476547e+2, -847866.1, -821302.1, -15097.794, -0.050166156, 0.325379, -814475.56, 20852.488, 0.0, 9.999818, 10.000124 
1.9050542e+3, 2.247642e+2, -820338.8, -950519.25, -62334.973, -0.060841754, 0.2751147, -795304.75, -57964.06, 0.0, 10.000124, 9.998439 
1.9050728e+3, 2.3476236e+2, -673977.94, -814276.44, -46518.535, -0.0717077, 0.20616332, -659955.4, -20594.68, 0.0, 10.000411, 9.998548 
1.9050913e+3, 2.4476172e+2, -462563.84, -551587.3, -18330.586, -0.09553442, 0.24756882, -458937.2, 82429.25, 0.0, 10.000725, 9.999522 
1.90511e+3, 2.547622e+2, -278181.03, -389611.4, -55946.742, -0.13324146, 0.29320467, -254939.14, 188419.5, 0.0, 10.001237, 9.999704 
1.9051297e+3, 2.6476154e+2, -268572.78, -532906.5, -33434.676, -0.074583456, 0.3497585, -264409.3, 80955.54, 0.000000016068412, 10.001452, 9.997965 
1.9051501e+3, 2.7475995e+2, -156880.69, -412422.78, -46811.668, 0.021389222, 0.35343182, -148575.39, 98807.77, 0.000006020835, 10.001478, 9.998101 
1.9051692e+3, 2.847579e+2, -72258.18, -437817.7, -13653.45, -0.027079923, 0.395478, -71748.94, 77655.89, 0.00007835106, 10.0018835, 9.997071 
1.9051878e+3, 2.9475477e+2, 156511.3, -275336.53, -10219.362, -0.11263897, 0.322237, 156753.0, 208188.4, 0.00035541714, 10.002799, 9.997053 
1.90521e+3, 3.047505e+2, 153561.39, -283917.75, 31993.791, 0.09359977, 0.22408564, 155888.78, 155888.78, 0.0009236989, 10.002569, 9.9967985 
1.9052276e+3, 3.1474724e+2, 176119.34, 92925.055, -177561.98, -0.120871745, 0.14712514, 316891.56, 316891.56, 0.0017173495, 10.001097, 10.000094 
1.914859e+3, 1.24739245e+2, -2054566.5, -1727282.6, -55807.5, -0.25059497, 0.21691349, -1718028.1, -442.5977, 0.18042894, 9.996962, 10.00133 
1.914885e+3, 1.3474277e+2, -1941511.3, -1747556.3, 33433.406, 0.4162318, 0.4097722, -1741954.9, -122402.96, 0.12358676, 9.997666, 10.000179 
1.9148979e+3, 1.4474009e+2, -1827158.1, -1610850.8, 44480.27, -0.25251603, 0.1610325, -1602061.1, -80483.77, 0.069141634, 9.997592, 10.000511 
1.9149192e+3, 1.547431e+2, -1549902.0, -1271862.5, 94295.55, -0.11537258, 0.25352702, -1242899.8, 180646.14, 0.028615344, 9.998166, 10.001906 
1.9149384e+3, 1.6474515e+2, -1587138.3, -1539373.8, -13326.578, -0.07488312, 0.40227666, -1535907.3, -210378.5, 0.0073205116, 9.998528, 9.999199 
1.9149557e+3, 1.7474468e+2, -1467219.0, -1419949.8, -71356.21, -0.11741836, 0.39988053, -1368415.9, -140873.9, 0.00070924795, 9.998669, 9.999255 
1.9149742e+3, 1.8474427e+2, -1234485.3, -1095212.1, -43909.938, -0.13100629, 0.37152445, -1082524.1, 47022.523, 0.0000023137907, 9.998882, 10.000729 
1.9149938e+3, 1.9474456e+2, -1086463.0, -944237.56, -5470.964, -0.10523946, 0.2791381, -944027.4, 87508.69, 0.0, 9.999124, 10.000964 
1.9150142e+3, 2.0474523e+2, -1059285.8, -1051738.1, 18044.148, -0.069288135, 0.3333143, -1037077.4, -103549.79, 0.0, 9.999346, 9.999454 
1.9150357e+3, 2.1474631e+2, -908975.94, -911614.0, 7242.7446, 0.009034243, 0.45161065, -902933.06, -67410.81, 0.0, 9.999651, 9.999584 
1.9150554e+3, 2.247457e+2, -808995.06, -869681.4, -60087.176, 0.015194464, 0.4628472, -772024.25, -34494.684, 0.0, 9.999873, 9.999118 
1.9150735e+3, 2.3474336e+2, -658046.3, -728052.3, -22648.467, -0.051284816, 0.27436808, -651358.06, -11808.466, 0.0, 10.00019, 9.999246 
1.915092e+3, 2.4474213e+2, -543156.75, -661461.9, -10146.019, -0.11986671, 0.25333107, -542292.9, -733.6915, 0.0, 10.000474, 9.99889 
1.9151111e+3, 2.5474215e+2, -353364.97, -494694.5, -23735.783, -0.16714562, 0.31737983, -349485.16, 94072.08, 0.0, 10.001024, 9.999081 
1.9151309e+3, 2.6474118e+2, -296946.97, -537374.44, -48272.93, -0.13330233, 0.36933744, -287616.8, 57949.18, 0.000000038925435, 10.001209, 9.998056 
1.9151512e+3, 2.7473924e+2, -185029.84, -414391.38, -31873.541, -0.048464827, 0.32143033, -180682.89, 66902.78, 0.0000054500297, 10.001245, 9.998196 
1.915171e+3, 2.8473723e+2, -81237.766, -398574.38, 1404.3829, -0.05880917, 0.3486363, -81231.555, 68373.54, 0.00006657065, 10.00163, 9.997465 
1.9151913e+3, 2.947349e+2, 137831.77, -237511.17, 41530.207, -0.06575071, 0.309831, 142372.0, 193999.45, 0.0003045757, 10.002478, 9.997466 
1.9152124e+3, 3.0473128e+2, 94983.06, -334110.3, -41297.387, 0.046118073, 0.26548648, 98921.516, 98921.516, 0.0008128508, 10.002254, 9.996601 
1.9152279e+3, 3.147303e+2, 108132.58, 116674.51, -173235.31, -0.25655305, 0.40733105, 285691.5, 285691.5, 0.0015544663, 10.000444, 10.000537 
1.9248572e+3, 1.247199e+2, -2179267.5, -1939411.4, -12797.643, -0.10776781, 0.3206674, -1938730.5, -220950.55, 0.18987963, 9.996746, 9.999994 
1.924882e+3, 1.3472566e+2, -1787197.3, -1512476.3, 11077.227, 0.333412, 0.58660954, -1512030.3, 107692.13, 0.13060497, 9.997945, 10.00178 
1.9248961e+3, 1.4472193e+2, -1766454.8, -1606366.9, 91489.71, -0.19509788, 0.15375169, -1564848.5, -43091.18, 0.07352615, 9.998134, 10.000272 
1.9249183e+3, 1.5472455e+2, -1607071.1, -1339405.4, 23574.92, 0.004422933, 0.24507417, -1337344.8, 86384.836, 0.030745408, 9.997968, 10.001516 
1.9249378e+3, 1.647262e+2, -1683648.0, -1612304.8, -55720.617, 0.052388, 0.38753983, -1581815.5, -256098.89, 0.008026891, 9.997994, 9.998946 
1.9249547e+3, 1.747261e+2, -1493236.8, -1461223.9, -17133.17, -0.083643496, 0.44706112, -1453783.5, -226056.95, 0.0008187495, 9.998616, 9.998998 
1.9249731e+3, 1.847256e+2, -1209677.4, -1091293.1, 84145.2, -0.11098097, 0.4221744, -1047606.1, 82125.12, 0.0000031359323, 9.99906, 10.000677 
1.9249937e+3, 1.9472487e+2, -1006206.25, -909466.06, 57013.734, -0.057295915, 0.22935812, -883068.3, 148659.22, 0.0, 9.999658, 10.000948 
1.9250144e+3, 2.047251e+2, -1049481.3, -1094393.8, 61889.652, -0.0061341566, 0.25402516, -1006099.75, -72375.89, 0.0, 9.99961, 9.99904 
1.9250351e+3, 2.1472637e+2, -1017022.0, -1011127.0, 36185.902, 0.038016554, 0.437684, -977768.75, -142048.4, 0.0, 9.999115, 9.999161 
1.9250552e+3, 2.247264e+2, -872411.44, -845093.25, 13025.82, 0.058341295, 0.50903785, -839877.94, -102155.41, 0.0, 9.999235, 9.999579 
1.9250743e+3, 2.3472491e+2, -633631.75, -659785.2, 7950.7354, 0.02639915, 0.36070755, -631404.4, 8327.424, 0.0, 10.000129, 9.999739 
1.9250935e+3, 2.4472338e+2, -559751.8, -753836.6, 24711.674, -0.029881505, 0.31731126, -556654.8, -14910.914, 0.0, 10.000702, 9.998157 
1.9251125e+3, 2.547219e+2, -406276.66, -615028.3, -23239.094, -0.121851444, 0.31612307, -403720.88, 40036.848, 0.0, 10.001042, 9.998267 
1.9251323e+3, 2.6472017e+2, -295018.63, -563148.6, -48309.953, -0.113202766, 0.345733, -286580.03, 59194.215, 0.000000047147957, 10.001352, 9.997807 
1.9251525e+3, 2.74718e+2, -135377.66, -417181.63, -89546.04, -0.052343298, 0.3005297, -109330.96, 138464.19, 0.0000044268, 10.001705, 9.997956 
1.925173e+3, 2.8471586e+2, -40881.656, -325502.3, -35784.754, -0.01943896, 0.301556, -36451.473, 113363.46, 0.000054025306, 10.001696, 9.997918 
1.9251943e+3, 2.9471385e+2, 30650.193, -243014.92, -32898.84, 0.047252502, 0.25746977, 34549.59, 86382.125, 0.0002523606, 10.001519, 9.997891 
1.925215e+3, 3.0471113e+2, 100282.89, -277135.88, -57695.35, 0.10276192, 0.2520617, 108905.68, 108905.68, 0.0006949365, 10.002051, 9.9970875 
1.9252308e+3, 3.1471136e+2, 505694.63, 249551.72, -194805.45, -0.13958782, 0.4874589, 610757.2, 610757.2, 0.0013689927, 10.003359, 10.000075 
1.934857e+3, 1.2469933e+2, -2214963.5, -2040610.1, -46693.297, 0.13883498, 0.42933166, -2028892.8, -310906.7, 0.1997211, 9.996853, 9.999257 
1.934875e+3, 1.3470791e+2, -1589844.6, -1140544.1, 39627.645, -0.1845193, 0.7244291, -1137075.8, 482821.88, 0.13795441, 9.997894, 10.004774 
1.9348949e+3, 1.447047e+2, -1819552.6, -1736813.6, 72642.48, -0.18859261, 0.20694253, -1694586.8, -172658.34, 0.07814733, 9.998211, 9.999344 
1.9349182e+3, 1.5470625e+2, -1721676.9, -1586738.1, 25594.764, 0.17560816, 0.35660297, -1582046.5, -158130.36, 0.033007, 9.998007, 9.99979 
1.9349374e+3, 1.6470695e+2, -1580231.3, -1416566.6, -49058.047, 0.16752043, 0.4322772, -1402988.1, -77076.85, 0.008786739, 9.998073, 10.000257 
1.934953e+3, 1.7470787e+2, -1394054.9, -1256263.6, 14390.459, -0.120649934, 0.45515126, -1254776.9, -26874.184, 0.00094156526, 9.998618, 10.000408 
1.934972e+3, 1.8470792e+2, -1234062.9, -1155594.4, 94111.15, -0.17723139, 0.43617293, -1092866.8, 37031.727, 0.0000044945964, 9.999116, 10.00021 
1.9349943e+3, 1.9470666e+2, -1056500.0, -1001846.8, 89499.89, 0.0047577, 0.2453379, -935594.7, 96307.97, 0.0, 9.999597, 10.000349 
1.9350147e+3, 2.047058e+2, -1090098.1, -1152053.8, 30205.307, 0.03918199, 0.21026538, -1077809.5, -143898.14, 0.0, 9.999491, 9.998704 
1.9350335e+3, 2.1470566e+2, -1070629.9, -1077509.4, 27098.82, -0.061128404, 0.28776568, -1046753.4, -210830.92, 0.0, 9.998923, 9.998799 
1.9350535e+3, 2.24706e+2, -897851.9, -832171.0, 34144.91, -0.064727776, 0.40062678, -817636.7, -79714.62, 0.0, 9.99896, 9.999798 
1.9350748e+3, 2.347069e+2, -648233.7, -639131.6, 53435.586, 0.03981065, 0.46456784, -590053.6, 49854.99, 0.0, 9.999914, 9.99998 
1.935095e+3, 2.4470544e+2, -657443.25, -901309.44, 23105.273, 0.024510683, 0.46066746, -655273.44, -113352.8, 0.0, 10.000459, 9.997267 
1.9351138e+3, 2.5470144e+2, -497621.0, -762269.2, 135.97562, -0.10382178, 0.29736632, -497620.94, -53660.406, 0.0, 10.000865, 9.997341 
1.9351335e+3, 2.6469833e+2, -379571.03, -678960.0, -48322.605, -0.14208436, 0.27110466, -371964.78, -25973.469, 0.00000001782158, 10.001105, 9.997127 
1.9351539e+3, 2.7469614e+2, -219111.56, -525039.44, -62297.117, -0.10364395, 0.29049528, -206912.25, 41100.324, 0.0000033385966, 10.001448, 9.997327 
1.9351746e+3, 2.846939e+2, -47601.613, -292619.13, -63320.754, -0.059759893, 0.29604876, -32204.92, 117827.49, 0.00004416703, 10.001476, 9.99826 
1.9351962e+3, 2.946917e+2, 32232.566, -179136.61, -22083.336, 0.062039994, 0.18871841, 34515.13, 86565.02, 0.00021030588, 10.001269, 9.998448 
1.9352172e+3, 3.046902e+2, 111202.984, -175281.08, -29104.238, 0.079867624, 0.22942682, 114129.81, 114129.81, 0.0005915153, 10.001717, 9.997946 
1.9352342e+3, 3.146894e+2, 297373.03, -5813.767, -47437.63, -0.17603993, 0.27746314, 304621.97, 304621.97, 0.0011871122, 10.002667, 9.998617 
1.9448546e+3, 1.24678835e+2, -2152309.3, -1995177.1, 77461.85, 0.19142456, 0.2736922, -1963412.0, -245226.42, 0.20999403, 9.997193, 9.999412 
1.9448721e+3, 1.3468798e+2, -1803601.1, -1269717.3, 34639.53, -0.17834951, 0.6802541, -1267479.3, 352614.38, 0.14565058, 9.996538, 10.004444 
1.9448943e+3, 1.4468516e+2, -1844992.8, -1746683.3, -17675.197, -0.044412468, 0.2058609, -1743602.0, -221480.19, 0.083007626, 9.998008, 9.999387 
1.9449171e+3, 1.5468736e+2, -1598268.0, -1562179.1, -4884.847, 0.21962745, 0.44500056, -1561529.6, -137424.45, 0.03539992, 9.998995, 9.999486 
1.944936e+3, 1.6468775e+2, -1403277.9, -1295707.1, -36546.746, 0.18349685, 0.49095106, -1284465.4, 41636.793, 0.009600047, 9.99913, 10.000583 
1.9449523e+3, 1.7468798e+2, -1281731.8, -1159280.8, -68630.57, -0.08074152, 0.4081598, -1128535.0, 99561.36, 0.0010784023, 9.999203, 10.0007925 
1.9449715e+3, 1.8468809e+2, -1280153.9, -1220350.8, -15435.733, -0.112184905, 0.39271188, -1216601.8, -86510.164, 0.0000066792873, 9.999016, 9.999802 
1.9449937e+3, 1.9468747e+2, -1207853.6, -1118611.6, -35746.18, 0.051478993, 0.31037143, -1106059.0, -73965.04, 0.0, 9.998796, 9.999914 
1.9450143e+3, 2.0468672e+2, -1133004.8, -1157062.0, -44766.363, 0.0720266, 0.3046709, -1098679.1, -164576.47, 0.0, 9.999144, 9.998833 
1.9450329e+3, 2.1468604e+2, -857712.56, -958634.25, -32734.975, -0.06771859, 0.31596836, -848024.6, -11907.601, 0.0, 10.000322, 9.9989395 
1.9450532e+3, 2.2468607e+2, -671362.94, -744176.9, -3116.5205, -0.058451597, 0.39955658, -671229.8, 66888.85, 0.0, 10.000582, 9.999626 
1.9450752e+3, 2.3468684e+2, -663463.56, -669307.9, -35748.082, 0.10013421, 0.47218475, -630518.44, 9588.085, 0.0, 9.999888, 9.999797 
1.9450961e+3, 2.4468544e+2, -651470.06, -885318.44, 21357.38, 0.101931326, 0.47895393, -649535.5, -107417.555, 0.0, 10.00047, 9.997364 
1.9451158e+3, 2.546816e+2, -231406.11, -627496.5, 45934.58, -0.08690003, 0.32182202, -226148.86, 218007.25, 0.0, 10.002666, 9.997398 
1.9451357e+3, 2.646784e+2, -85768.54, -578113.6, 8300.88, -0.13096792, 0.29987937, -85628.625, 260559.39, 0.000000002142629, 10.003276, 9.996781 
1.9451562e+3, 2.7467602e+2, -138506.1, -537557.1, -13785.934, -0.048326883, 0.34143937, -138030.39, 110181.45, 0.0000030022966, 10.002174, 9.996916 
1.9451767e+3, 2.8467324e+2, -30103.639, -312091.0, 23250.049, 0.0037552102, 0.33061162, -28199.516, 122038.17, 0.00003904193, 10.00172, 9.998016 
1.9451977e+3, 2.946705e+2, 154175.66, -134868.11, -22962.652, 0.044851165, 0.19316167, 155988.52, 208249.95, 0.00018459432, 10.002156, 9.998337 
1.9452193e+3, 3.0466992e+2, 277873.34, -62352.945, -16062.227, 0.094864435, 0.3120378, 278629.97, 278629.97, 0.00051477127, 10.002738, 9.998222 
1.9452374e+3, 3.1466883e+2, 362740.84, -88312.05, -106813.94, -0.15548365, 0.3333481, 386756.78, 386756.78, 0.0010271143, 10.003547, 9.997656 
1.9548479e+3, 1.2466194e+2, -2021920.4, -1804662.4, -193475.44, -0.2692833, 0.18434754, -1691406.3, 26937.693, 0.22070916, 9.99745, 10.00067 
1.9548734e+3, 1.3466577e+2, -2045467.6, -1735984.8, 94563.23, 0.26285228, 0.43746188, -1709378.1, -89067.59, 0.15369554, 9.996619, 10.000802 
1.9548942e+3, 1.4466333e+2, -1754117.1, -1589514.5, 26542.668, 0.09720242, 0.13811985, -1585340.3, -63002.414, 0.08810495, 9.998143, 10.000399 
1.9549143e+3, 1.5466784e+2, -1517948.1, -1407863.8, 37895.305, 0.011922332, 0.50255024, -1396080.0, 28216.822, 0.037922986, 9.999035, 10.000538 
1.9549333e+3, 1.6466865e+2, -1428965.6, -1376289.4, -53331.504, -0.06251134, 0.5657143, -1343146.9, -16857.81, 0.010466628, 9.999244, 9.999974 
1.9549519e+3, 1.7466652e+2, -1323485.3, -1257647.1, -56672.85, -0.06845859, 0.31191143, -1225026.4, 3280.6924, 0.0012294218, 9.999242, 10.000102 
1.9549714e+3, 1.8466607e+2, -1297845.0, -1270230.0, -34098.633, -0.054135866, 0.29448846, -1247249.5, -116938.52, 0.000009908067, 9.999078, 9.999426 
1.9549921e+3, 1.9466722e+2, -1244904.5, -1177942.0, -36393.316, -0.02527174, 0.4298897, -1161971.6, -129669.9, 0.0, 9.998726, 9.999541 
1.9550125e+3, 2.0466758e+2, -1114050.9, -1086052.4, -15748.47, -0.04326457, 0.5278666, -1078980.5, -144680.08, 0.0, 9.9990015, 9.999391 
1.9550331e+3, 2.1466735e+2, -840264.25, -879600.2, 21627.787, -0.09682579, 0.5221943, -830698.8, 5606.6113, 0.0, 10.000142, 9.999566 
1.9550541e+3, 2.2466648e+2, -740599.3, -836187.44, -35730.344, -0.057352584, 0.5066311, -728719.9, 9593.357, 0.0, 10.000349, 9.99911 
1.9550753e+3, 2.3466483e+2, -731776.44, -763438.5, -50107.867, 0.09816619, 0.39097416, -695058.25, -54733.297, 0.0, 9.999693, 9.999241 
1.9550963e+3, 2.4466336e+2, -626370.44, -771912.6, 89576.89, 0.05598086, 0.376119, -583730.75, -41394.67, 0.0, 10.000204, 9.998268 
1.9551176e+3, 2.5466222e+2, -197317.03, -499869.6, 141767.66, -0.18312398, 0.38888976, -141270.9, 303074.84, 0.0, 10.002432, 9.998378 
1.9551386e+3, 2.6466042e+2, -128651.734, -608575.25, -43702.49, -0.21575342, 0.45972937, -124704.586, 221658.64, 0.00000003752054, 10.003015, 9.996704 
1.955159e+3, 2.7465767e+2, -176358.42, -567866.6, -42619.85, -0.012302921, 0.47030815, -171772.52, 76620.11, 0.0000033251551, 10.001972, 9.996803 
1.9551788e+3, 2.8465402e+2, -142789.2, -478659.84, 19705.19, 0.010292012, 0.42821544, -141637.08, 8792.335, 0.000036409245, 10.00143, 9.997012 
1.9551985e+3, 2.9465044e+2, 49120.008, -281328.84, 16240.082, -0.12139434, 0.30141354, 49916.22, 102381.53, 0.00016708692, 10.001859, 9.997468 
1.9552211e+3, 3.0465046e+2, 199728.03, -150709.95, -10283.61, -0.03033041, 0.53965616, 200029.53, 200029.53, 0.00045041088, 10.002399, 9.997792 
1.9552413e+3, 3.1464887e+2, 261812.86, -165750.64, -16623.715, -0.17790154, 0.5552142, 262458.22, 262458.22, 0.0008724105, 10.003024, 9.997356 
1.9648452e+3, 1.2464378e+2, -2146778.3, -1836962.5, -283803.22, -0.23039185, 0.21753141, -1668542.8, 49977.07, 0.23177752, 9.996571, 10.000854 
1.9648731e+3, 1.3464628e+2, -1751181.1, -1725851.6, 150167.7, 0.45472994, 0.45353073, -1587815.5, 32686.121, 0.1620495, 9.999311, 9.999548 
1.9648927e+3, 1.4464271e+2, -1613665.3, -1542461.8, 94778.55, 0.09749934, 0.12257092, -1476818.9, 45722.28, 0.093428105, 9.999229, 10.0001955 
1.9649124e+3, 1.5464717e+2, -1631861.5, -1451612.3, -4247.8774, -0.023593761, 0.47593805, -1451512.1, -27011.467, 0.04057487, 9.998238, 10.000587 
1.964932e+3, 1.6464813e+2, -1601314.0, -1481953.3, -76363.836, -0.047886763, 0.55592674, -1444715.3, -118223.51, 0.011385711, 9.998152, 9.999779 
1.9649515e+3, 1.7464629e+2, -1353606.8, -1293699.9, -64037.625, -0.028590977, 0.35225344, -1252956.6, -24449.492, 0.0013940044, 9.999135, 9.999904 
1.9649711e+3, 1.8464583e+2, -1244314.6, -1264542.0, -17445.357, -0.016548658, 0.35220665, -1234263.3, -103751.65, 0.000014255441, 9.99951, 9.999266 
1.9649912e+3, 1.9464657e+2, -1139960.8, -1146822.6, -21998.354, -0.016219903, 0.4600555, -1121127.4, -88619.945, 0.0, 9.999506, 9.999387 
1.9650118e+3, 2.046468e+2, -1051416.5, -1043682.2, 36197.793, -0.01943301, 0.5444687, -1011145.56, -76638.5, 0.0, 9.999375, 9.999497 
1.9650333e+3, 2.146466e+2, -976040.7, -936151.94, 13900.664, -0.045432582, 0.5323358, -931785.7, -95276.63, 0.0, 9.999147, 9.999661 
1.9650547e+3, 2.246455e+2, -857030.5, -927135.7, -36958.527, 0.011913235, 0.50541955, -841145.7, -102627.39, 0.0, 9.999713, 9.998791 
1.9650759e+3, 2.3464325e+2, -508510.16, -698086.56, -64083.37, 0.12797399, 0.3674192, -488880.34, 151656.67, 0.0, 10.001397, 9.998874 
1.9650973e+3, 2.4464154e+2, -385014.6, -651353.4, 77081.89, 0.06534065, 0.34556037, -364314.88, 178236.33, 0.0, 10.00181, 9.99834 
1.9651188e+3, 2.546408e+2, -444644.9, -613830.56, 38311.42, -0.21108161, 0.39369005, -436373.78, 8183.4624, 0.0, 10.000693, 9.998446 
1.9651404e+3, 2.6463932e+2, -410097.56, -692894.44, -143420.67, -0.21707873, 0.47204635, -350093.4, -3521.6658, 0.00000006167767, 10.00087, 9.997156 
1.9651617e+3, 2.7463666e+2, -54751.816, -460313.13, -138415.53, 0.04880974, 0.45327458, -12014.95, 236584.34, 0.000003603985, 10.0026045, 9.997232 
1.9651817e+3, 2.8463346e+2, 106501.29, -370887.97, -8788.032, 0.07500372, 0.43730214, 106663.01, 257295.4, 0.00003430298, 10.003204, 9.996893 
1.9652005e+3, 2.9463065e+2, 142199.2, -263265.53, 11041.913, -0.13379116, 0.41613102, 142499.69, 195161.48, 0.00015136057, 10.00261, 9.997237 
1.9652241e+3, 3.0462968e+2, 245822.22, -164155.52, 71890.7, 0.015406708, 0.584423, 258062.97, 258062.97, 0.00039140965, 10.002866, 9.99748 
1.965244e+3, 3.1462714e+2, 394988.16, -58138.69, -42893.24, -0.21673228, 0.5444047, 399012.72, 399012.72, 0.0007268672, 10.003718, 9.997784 
1.9748452e+3, 1.2462339e+2, -2226457.0, -2042096.5, 48614.64, 0.029488567, 0.2262289, -2030062.6, -311339.2, 0.24301729, 9.996748, 9.999289 
1.9748709e+3, 1.346299e+2, -1680753.6, -1602649.4, 202338.77, 0.2711443, 0.7469812, -1435628.6, 185034.61, 0.17062773, 9.999418, 10.000486 
1.9748893e+3, 1.4462326e+2, -1691468.0, -1738344.5, 37387.734, -0.21140014, 0.14415723, -1670779.3, -148047.11, 0.09895461, 9.999363, 9.998773 
1.9749112e+3, 1.546252e+2, -1697901.5, -1601214.3, -35185.04, 0.0036836506, 0.35775524, -1589765.9, -165047.84, 0.04335473, 9.998284, 9.999545 
1.974932e+3, 1.6462597e+2, -1564496.1, -1423891.5, -52712.203, 0.10356054, 0.4557669, -1406324.8, -79612.72, 0.012356995, 9.99824, 10.0001335 
1.9749504e+3, 1.746272e+2, -1328489.1, -1242411.1, -19258.234, -0.05831131, 0.5268203, -1238299.0, -9601.363, 0.0015709848, 9.999144, 10.000252 
1.9749698e+3, 1.8462726e+2, -1231910.3, -1248286.6, -31193.246, -0.12778881, 0.5584593, -1207848.4, -77153.26, 0.000019593592, 9.999547, 9.999364 
1.9749907e+3, 1.9462547e+2, -1139656.9, -1130753.1, -12880.466, -0.04295572, 0.40281397, -1121576.9, -88865.33, 0.0, 9.999444, 9.999525 
1.9750117e+3, 2.0462425e+2, -1100096.8, -1112057.8, 19096.58, -0.00028737204, 0.35485166, -1086066.1, -151343.06, 0.0, 9.999235, 9.999096 
1.9750328e+3, 2.1462394e+2, -1032910.56, -1009220.0, 14767.865, -0.016050508, 0.37179074, -1002133.8, -165407.52, 0.0, 9.998957, 9.999249 
1.9750546e+3, 2.2462328e+2, -912928.7, -987486.06, 11102.566, 0.0072897696, 0.4204249, -911310.5, -172578.05, 0.0, 9.999461, 9.998503 
1.9750771e+3, 2.3462202e+2, -550136.7, -748625.3, 13533.873, 0.09101653, 0.40601832, -549218.1, 91525.414, 0.0, 10.001231, 9.99861 
1.9750987e+3, 2.4462004e+2, -475716.06, -786915.75, 26321.77, 0.000947228, 0.40728152, -473505.44, 69257.32, 0.0, 10.001577, 9.997525 
1.975119e+3, 2.5461742e+2, -524034.94, -742770.1, 8339.906, -0.27444622, 0.3530837, -523717.44, -78927.84, 0.0, 10.000536, 9.997639 
1.9751407e+3, 2.6461506e+2, -394535.03, -598670.0, -94344.81, -0.28107113, 0.3475199, -357610.75, -10797.792, 0.000000055759365, 10.000604, 9.997928 
1.9751643e+3, 2.7461317e+2, -28149.926, -343570.88, -57292.01, 0.022329096, 0.31027955, -18065.979, 230764.63, 0.0000036492006, 10.002351, 9.998145 
1.975185e+3, 2.846118e+2, 105383.84, -317005.03, -45917.51, 0.05781214, 0.3997881, 110317.86, 261162.1, 0.00003270768, 10.002945, 9.997397 
1.9752032e+3, 2.9461107e+2, 145806.2, -213826.22, 13583.957, -0.14812076, 0.53209317, 146318.56, 199171.38, 0.00013942833, 10.002422, 9.997669 
1.9752274e+3, 3.0460763e+2, 128569.25, -303335.03, 84342.98, 0.01702762, 0.47491425, 144455.56, 144455.56, 0.00034788318, 10.002441, 9.99672 
1.9752479e+3, 3.1460336e+2, 390261.28, 89345.22, 6999.6533, -0.24696137, 0.3107823, 390424.03, 390424.03, 0.0006198475, 10.003094, 9.999073 
1.9848435e+3, 1.2460031e+2, -2025319.9, -2030082.0, 25798.793, 0.118488684, 0.20823415, -2001792.5, -282837.75, 0.25424254, 9.998467, 9.998569 
1.9848686e+3, 1.3460922e+2, -1729413.1, -1516297.0, 25319.512, 0.1781604, 0.8614642, -1513330.3, 107539.52, 0.17932345, 9.998449, 10.001566 
1.9848879e+3, 1.4460275e+2, -1935164.1, -1860876.9, -98856.06, -0.19683647, 0.22408482, -1792416.6, -269480.66, 0.104643695, 9.99771, 9.998738 
1.9849099e+3, 1.5460466e+2, -1696067.5, -1596888.9, -95624.91, 0.03803159, 0.43303674, -1538759.9, -113838.35, 0.046255346, 9.998278, 9.999589 
1.9849311e+3, 1.646052e+2, -1478140.6, -1389665.5, -23408.826, 0.1606157, 0.5080639, -1383853.8, -56936.78, 0.013380272, 9.998873, 10.000054 
1.9849508e+3, 1.7460549e+2, -1259979.6, -1220483.5, -43227.89, 0.038212765, 0.49553022, -1192706.5, 36204.164, 0.0017591557, 9.999664, 10.00015 
1.9849703e+3, 1.8460532e+2, -1178705.9, -1228953.4, -89767.41, -0.03469138, 0.51211274, -1110612.8, 20297.006, 0.0000256483, 9.99993, 9.99931 
1.9849901e+3, 1.9460417e+2, -1081575.5, -1112356.1, -106870.16, -0.0460105, 0.4224302, -988993.2, 43926.535, 0.0, 9.999856, 9.99946 
1.9850111e+3, 2.0460281e+2, -1017448.2, -1113169.3, -51813.727, -0.006539383, 0.38145605, -994773.0, -59840.18, 0.0, 9.999982, 9.998729 
1.9850332e+3, 2.1460147e+2, -826308.3, -954933.1, -79190.79, 0.060356036, 0.33686298, -788604.75, 48342.16, 0.0, 10.000574, 9.998843 
1.9850554e+3, 2.2460048e+2, -721417.4, -901597.4, -30625.88, 0.078912064, 0.37918824, -716354.06, 22602.871, 0.0, 10.000801, 9.9984455 
1.9850774e+3, 2.3459984e+2, -647819.4, -802504.75, -34496.336, 0.028233664, 0.43283236, -640475.06, 487.65323, 0.0, 10.000589, 9.998546 
1.9850992e+3, 2.4459822e+2, -591087.4, -813621.75, 7963.7295, -0.06382385, 0.4631266, -590802.75, -47824.06, 0.0, 10.000703, 9.99774 
1.9851202e+3, 2.5459543e+2, -390274.56, -654778.06, 37428.344, -0.22962008, 0.37162834, -385080.3, 59926.523, 0.0, 10.001369, 9.99783 
1.9851425e+3, 2.6459306e+2, -207085.44, -466505.66, 19000.598, -0.20224738, 0.34062487, -205701.17, 141328.2, 0.00000004684117, 10.001727, 9.998285 
1.9851662e+3, 2.7459154e+2, -91654.93, -337113.75, -12439.819, 0.024708342, 0.30799115, -91026.09, 158016.44, 0.000003631824, 10.001765, 9.9984665 
1.9851871e+3, 2.8459033e+2, 8728.959, -338885.13, -33539.707, 0.037943326, 0.39194262, 11935.476, 162988.95, 0.000030883682, 10.002196, 9.997595 
1.9852057e+3, 2.9458916e+2, 246019.28, -153315.55, -44295.63, -0.16585638, 0.4683033, 250873.7, 303939.3, 0.00012822116, 10.003091, 9.997748 
1.9852303e+3, 3.0458552e+2, 308819.72, -223826.66, 85294.484, 0.009892105, 0.38824528, 322144.84, 322144.84, 0.00031412428, 10.003668, 9.996682 
1.9852532e+3, 3.1458163e+2, 495533.88, 158453.5, -51618.305, -0.040806994, 0.2695831, 503261.22, 503261.22, 0.00054947456, 10.003656, 9.999299 
1.9948392e+3, 1.24576695e+2, -1982096.0, -1981826.3, -129700.8, -0.23127028, 0.4141049, -1852260.3, -133067.47, 0.26535824, 9.998648, 9.998806 
1.9948661e+3, 1.3458388e+2, -1624557.4, -1357410.4, -8430.918, 0.045549907, 0.78307176, -1357144.6, 263980.2, 0.18805622, 9.998521, 10.002884 
1.9948882e+3, 1.4458093e+2, -1813452.8, -1636279.4, -106510.18, 0.014873828, 0.34613574, -1586330.8, -63175.74, 0.11045076, 9.997827, 10.000226 
1.9949079e+3, 1.5458544e+2, -1605836.6, -1416582.3, -63510.37, -0.022525754, 0.6949955, -1397245.1, 27866.658, 0.04926506, 9.998308, 10.000821 
1.9949286e+3, 1.6458577e+2, -1500476.1, -1456331.5, -4068.297, -0.0075873877, 0.7101448, -1455959.6, -128853.11, 0.014456319, 9.998957, 9.999558 
1.994952e+3, 1.745811e+2, -1295603.4, -1296945.4, -8358.314, 0.15974572, 0.25507855, -1287889.1, -58742.387, 0.0019582892, 9.999675, 9.999619 
1.9949724e+3, 1.8457982e+2, -1189334.5, -1257404.3, -101443.01, 0.1412069, 0.19759284, -1116369.1, 14788.281, 0.000032105352, 9.999964, 9.999098 
1.9949895e+3, 1.9458258e+2, -1106705.8, -1145254.5, -100799.74, -0.11910461, 0.5213884, -1023354.2, 9778.404, 0.0, 9.999784, 9.999264 
1.99501e+3, 2.045825e+2, -1067091.0, -1186684.9, -46059.613, -0.1619647, 0.638407, -1051408.4, -116272.68, 0.0, 9.999846, 9.998292 
1.9950342e+3, 2.1457908e+2, -879283.0, -1028601.44, -47279.184, 0.07770677, 0.4270435, -865571.9, -28400.234, 0.0, 10.000415, 9.998414 
1.9950564e+3, 2.2457708e+2, -747861.25, -903327.1, -45610.508, 0.09025467, 0.38459623, -735468.0, 3723.9324, 0.0, 10.0005665, 9.9985485 
1.9950762e+3, 2.3457679e+2, -663796.2, -795995.06, -27417.213, -0.16076517, 0.4592936, -658335.56, -17142.07, 0.0, 10.000411, 9.998678 
1.995098e+3, 2.4457596e+2, -557964.6, -681385.2, 19246.2, -0.26962057, 0.5083395, -555033.0, -11832.966, 0.0, 10.000424, 9.998785 
1.9951223e+3, 2.5457463e+2, -341112.4, -505200.66, 74589.266, -0.18068705, 0.4495123, -312274.63, 132935.98, 0.0, 10.0011635, 9.998957 
1.9951455e+3, 2.6457313e+2, -263195.25, -517000.97, 8527.52, -0.11077036, 0.45190832, -262909.03, 84314.35, 0.000000042002604, 10.001451, 9.998071 
1.9951673e+3, 2.7457154e+2, -145099.55, -391305.63, 3094.704, -0.0612629, 0.4394097, -145060.66, 104176.85, 0.0000035134383, 10.001538, 9.998197 
1.9951877e+3, 2.845688e+2, -61205.965, -422085.0, -17710.236, -0.1504497, 0.40672836, -60338.914, 90924.414, 0.00002820436, 10.001923, 9.997158 
1.9952072e+3, 2.945648e+2, 180869.55, -228839.84, 5407.93, -0.3363151, 0.2304344, 180940.92, 234243.28, 0.00011358975, 10.002825, 9.997357 
1.9952321e+3, 3.0456313e+2, 265696.1, -187773.8, 69796.48, -0.18805355, 0.34515277, 276195.8, 276195.8, 0.00027761437, 10.003159, 9.997162 
1.9952579e+3, 3.1456283e+2, 318586.88, -55727.05, -8049.0117, 0.0006994252, 0.5118116, 318759.88, 318759.88, 0.0004899251, 10.003046, 9.998093 
2.0048377e+3, 1.2455373e+2, -1967293.6, -1976348.8, -13579.732, -0.24775143, 0.49366805, -1957506.6, -238089.19, 0.27641812, 9.998752, 9.998776 
2.0048635e+3, 1.345585e+2, -1720146.6, -1380655.8, 14629.188, -0.025074922, 0.6008315, -1380026.5, 241346.77, 0.1968332, 9.997772, 10.00306 
2.0048875e+3, 1.4455846e+2, -1807341.8, -1564754.0, -75068.68, 0.18436636, 0.404079, -1543403.1, -20028.879, 0.11636926, 9.997587, 10.000821 
2.004907e+3, 1.5456206e+2, -1499544.0, -1322777.3, -100861.51, 0.055487163, 0.6170704, -1277053.8, 148283.88, 0.05238356, 9.998842, 10.001243 
2.0049277e+3, 1.645625e+2, -1461386.4, -1457210.4, -60661.652, 0.0015182086, 0.6296402, -1398600.8, -71269.625, 0.015589432, 9.999287, 9.999402 
2.0049512e+3, 1.7455879e+2, -1376109.3, -1357017.3, -56274.234, 0.16388081, 0.28337958, -1309485.1, -80120.96, 0.0021699998, 9.999184, 9.999453 
2.0049724e+3, 1.8455735e+2, -1274657.0, -1326232.6, -105507.17, 0.17256567, 0.22866042, -1191831.9, -60454.184, 0.00003871999, 9.999513, 9.998837 
2.0049901e+3, 1.9455881e+2, -979084.0, -1118294.1, -134113.98, -0.088956736, 0.45423192, -897588.4, 135777.48, 0.0, 10.000823, 9.998949 
2.0050107e+3, 2.045587e+2, -877444.1, -1087368.9, -69219.77, -0.117733456, 0.58344, -856674.75, 78695.26, 0.0, 10.001127, 9.998357 
2.005035e+3, 2.1455672e+2, -874902.5, -1017924.25, -52800.574, 0.13630424, 0.50970095, -857521.8, -20128.646, 0.0, 10.000409, 9.998497 
2.0050575e+3, 2.2455522e+2, -757392.7, -869207.2, 6235.32, 0.15733245, 0.49979246, -757046.06, -17637.563, 0.0, 10.0003605, 9.99887 
2.0050773e+3, 2.3455435e+2, -518022.22, -684529.9, 8795.188, -0.13469279, 0.48549026, -517558.94, 123855.17, 0.0, 10.001272, 9.999014 
2.0050992e+3, 2.4455327e+2, -398343.06, -596084.0, 34784.37, -0.23010966, 0.488251, -392402.66, 151019.73, 0.0, 10.001451, 9.998889 
2.0051238e+3, 2.5455204e+2, -403486.97, -525278.6, -7340.437, -0.104194075, 0.43004006, -403046.16, 42386.55, 0.0, 10.000678, 9.999055 
2.0051472e+3, 2.6455095e+2, -352141.47, -542549.06, -52115.9, -0.041856356, 0.46379063, -338810.34, 8630.687, 0.000000029896977, 10.000742, 9.998241 
2.0051688e+3, 2.745498e+2, -80640.73, -349839.6, -49560.004, -0.07505052, 0.4805299, -71806.55, 177643.83, 0.0000031274246, 10.001892, 9.998327 
2.00519e+3, 2.8454676e+2, 47738.63, -374814.88, -12988.226, -0.15661678, 0.40748957, 48137.477, 199616.9, 0.000025154262, 10.002683, 9.997125 
2.0052104e+3, 2.9454178e+2, 190011.02, -238647.03, -15626.691, -0.31073236, 0.15125881, 190579.94, 244108.48, 0.00009776422, 10.002945, 9.997236 
2.0052347e+3, 3.0454198e+2, 272782.7, -97318.36, 71621.03, -0.21544847, 0.4216309, 286159.16, 286159.16, 0.00024034745, 10.002817, 9.997964 
2.0052618e+3, 3.1454158e+2, 212950.8, -118318.734, -25456.965, 0.14518368, 0.51656806, 214895.67, 214895.67, 0.0004335503, 10.002336, 9.998037 
2.014839e+3, 1.2452966e+2, -1975533.1, -2022781.8, -60053.863, -0.051114168, 0.24722023, -1934624.0, -214978.6, 0.28771394, 9.998881, 9.998401 
2.0148607e+3, 1.3453296e+2, -1784270.4, -1491335.0, -16958.25, -0.11420049, 0.29592893, -1490356.6, 131259.23, 0.20582092, 9.997782, 10.002131 
2.0148852e+3, 1.445352e+2, -1819552.8, -1611820.9, -46268.113, 0.15670496, 0.3954011, -1601981.6, -78387.38, 0.12247417, 9.997669, 10.0004635 
2.0149072e+3, 1.545343e+2, -1520563.5, -1372347.1, -50397.85, 0.1547921, 0.19318105, -1356834.1, 68766.914, 0.055639356, 9.99887, 10.000868 
2.0149279e+3, 1.6453527e+2, -1422984.9, -1404719.0, -77086.83, 0.049417373, 0.26210618, -1336226.0, -8634.146, 0.016791714, 9.999402, 9.99971 
2.0149486e+3, 1.7453855e+2, -1356259.4, -1311182.0, -53651.445, -0.03939288, 0.58729017, -1275527.4, -45964.75, 0.0023981123, 9.99917, 9.999771 
2.0149699e+3, 1.84538e+2, -1292907.9, -1380736.1, -75189.6, -0.07179611, 0.62297994, -1249747.8, -118178.3, 0.000045425786, 9.999572, 9.998441 
2.0149913e+3, 1.9453287e+2, -1018373.9, -1185705.5, -79298.086, -0.06784912, 0.2319389, -986765.44, 46853.977, 0.0, 10.000762, 9.998516 
2.0150132e+3, 2.0453145e+2, -856908.2, -1014303.5, -104746.09, -0.010572514, 0.22383289, -804590.4, 131044.98, 0.0, 10.000995, 9.998925 
2.0150356e+3, 2.145344e+2, -864533.44, -951038.75, -69402.14, 0.13832039, 0.5898113, -826009.25, 11601.891, 0.0, 10.000217, 9.999048 
2.015058e+3, 2.2453481e+2, -767788.56, -837428.44, 27083.074, 0.14442286, 0.7253974, -758495.94, -18888.451, 0.0, 10.000117, 9.999212 
2.01508e+3, 2.3453224e+2, -513305.88, -641810.44, 54581.133, -0.0020291978, 0.5033662, -493252.44, 148374.75, 0.0, 10.001112, 9.999392 
2.0151024e+3, 2.4452981e+2, -494802.25, -734075.7, 129.82582, -0.09460452, 0.38994023, -494802.2, 48846.863, 0.0, 10.001189, 9.998066 
2.0151246e+3, 2.545276e+2, -491528.97, -667527.9, -25435.242, -0.109703176, 0.32337445, -487926.78, -42253.61, 0.0, 10.00051, 9.998159 
2.0151472e+3, 2.6452643e+2, -351936.53, -488431.3, -23807.19, -0.13910615, 0.37078133, -347903.3, -219.13802, 0.0000000091701935, 10.00051, 9.998726 
2.0151703e+3, 2.7452645e+2, -71933.83, -277587.44, 9306.407, -0.14064795, 0.44951168, -71513.55, 178166.4, 0.0000023642951, 10.001663, 9.998933 
2.0151928e+3, 2.8452435e+2, 4438.7896, -388129.8, -20365.586, -0.17107365, 0.43090767, 5492.4824, 157192.42, 0.000021595964, 10.00236, 9.997183 
2.0152143e+3, 2.9451975e+2, 160497.44, -257938.75, 9495.357, -0.2458678, 0.20335132, 160712.8, 214460.3, 0.000083873885, 10.002743, 9.997208 
2.015237e+3, 3.045214e+2, 261157.56, -19685.18, 32669.127, -0.2926088, 0.59248656, 264907.75, 264907.75, 0.00020823472, 10.002413, 9.9986725 
2.0152627e+3, 3.1451985e+2, 191136.08, 24123.24, 71021.15, -0.03770531, 0.47071403, 217253.22, 217253.22, 0.00038333618, 10.0016, 9.999332 
2.0248394e+3, 1.2450766e+2, -2111087.3, -2016044.0, -23147.293, 0.15438168, 0.31229585, -2010706.4, -290846.16, 0.29983783, 9.997669, 9.999013 
2.024858e+3, 1.3450938e+2, -1732342.5, -1514528.4, -61365.69, -0.1631334, 0.24838081, -1498429.4, 123414.695, 0.21537028, 9.9984045, 10.0016365 
2.0248833e+3, 1.445115e+2, -1624124.9, -1560106.3, -41477.11, 0.13243803, 0.37401113, -1539723.4, -15900.087, 0.12892798, 9.999187, 10.00009 
2.0249061e+3, 1.545098e+2, -1590600.4, -1461646.1, -88415.11, 0.18795682, 0.1409249, -1416695.1, 9144.384, 0.05909158, 9.99864, 10.000343 
2.0249273e+3, 1.6451038e+2, -1511520.5, -1430637.1, -95537.05, 0.09176539, 0.19609386, -1367334.6, -39499.625, 0.018083457, 9.998753, 9.999831 
2.0249477e+3, 1.745144e+2, -1165612.8, -1200764.1, -103664.37, -0.1108907, 0.5822514, -1078044.8, 151754.44, 0.0026487417, 10.000441, 9.999905 
2.0249693e+3, 1.8451437e+2, -1080584.4, -1274248.8, -110585.36, -0.1388209, 0.6617127, -1030428.1, 101373.586, 0.000052423693, 10.00101, 9.998474 
2.0249923e+3, 1.9450925e+2, -1054432.8, -1206389.5, -101366.375, -0.017458085, 0.26892886, -1003731.0, 30121.64, 0.0, 10.000513, 9.998493 
2.0250146e+3, 2.0450763e+2, -911022.94, -1017825.56, -112894.89, 0.075422965, 0.23222247, -839536.44, 96333.42, 0.0, 10.000531, 9.999111 
2.025036e+3, 2.1451019e+2, -684682.25, -845589.56, -132597.78, 0.11158646, 0.5382031, -610039.3, 227807.94, 0.0, 10.0013685, 9.999208 
2.0250583e+3, 2.2451043e+2, -595305.2, -760655.5, -43052.13, 0.11826173, 0.65059936, -584767.3, 155076.88, 0.0, 10.001327, 9.99915 
2.0250814e+3, 2.345081e+2, -635147.94, -705950.8, -66764.39, 0.074094824, 0.45990217, -594979.94, 46882.93, 0.0, 10.000306, 9.999329 
2.0251042e+3, 2.445061e+2, -619754.94, -801230.6, -77938.47, 0.02418617, 0.39424947, -590877.7, -46995.35, 0.0, 10.00038, 9.997982 
2.025126e+3, 2.5450432e+2, -305336.03, -592310.8, -68311.836, -0.06801969, 0.3862684, -289904.78, 155999.63, 0.0, 10.001856, 9.998023 
2.0251487e+3, 2.6450312e+2, -86217.71, -343132.8, -35988.54, -0.11895548, 0.42937094, -81271.67, 266645.16, 0.000000001074916, 10.002267, 9.998879 
2.0251718e+3, 2.7450272e+2, -110833.22, -272998.06, -62685.05, -0.122594506, 0.4511192, -89427.72, 160488.53, 0.0000018159459, 10.001325, 9.999118 
2.0251948e+3, 2.845011e+2, -94273.86, -378349.2, -42652.297, -0.1286238, 0.4504236, -88008.06, 63921.902, 0.000018189116, 10.001412, 9.997712 
2.0252174e+3, 2.9449797e+2, 185333.23, -167937.6, -11454.24, -0.18134123, 0.31369507, 185704.23, 239665.53, 0.000072171526, 10.002591, 9.997887 
2.0252411e+3, 3.0449805e+2, 356356.13, -60083.758, -11374.188, -0.15589082, 0.5365492, 356666.56, 356666.56, 0.00017992329, 10.003366, 9.997973 
2.0252645e+3, 3.144969e+2, 443462.53, 111537.04, -102374.11, -0.08071958, 0.5608037, 472497.44, 472497.44, 0.0003356384, 10.003409, 9.999095 
2.0348373e+3, 1.24486275e+2, -1971241.0, -1771513.3, 90792.945, 0.09533272, 0.49642053, -1736409.9, -16333.1, 0.3135409, 9.997826, 10.000634 
2.0348552e+3, 1.344879e+2, -1723795.8, -1529707.6, -2366.7966, -0.3260376, 0.46570104, -1529678.9, 92378.4, 0.22593072, 9.998526, 10.001451 
2.0348813e+3, 1.4448719e+2, -1622538.4, -1608285.8, -66341.19, -0.046007454, 0.3326755, -1548689.3, -24625.814, 0.13594478, 9.999404, 9.999657 
2.0349038e+3, 1.5448861e+2, -1629313.1, -1548608.0, -111613.69, 0.05364313, 0.47089273, -1470276.3, -44223.59, 0.06282382, 9.998671, 9.999724 
2.0349252e+3, 1.6448793e+2, -1511235.6, -1448389.5, -55961.8, -0.021638898, 0.44036666, -1415632.1, -87571.9, 0.019494196, 9.998825, 9.999676 
2.0349479e+3, 1.7448626e+2, -1159679.4, -1202336.9, -30735.021, -0.15887868, 0.26210204, -1143597.5, 86477.195, 0.0029308582, 10.000489, 9.999872 
2.0349705e+3, 1.8448631e+2, -1042375.7, -1208164.8, -134674.7, -0.16284326, 0.32667887, -967128.56, 164947.2, 0.00006041413, 10.001069, 9.998902 
2.0349929e+3, 1.944879e+2, -1034719.3, -1147648.4, -111459.02, -0.035260744, 0.56677985, -966238.44, 67827.46, 0.0, 10.000442, 9.998932 
2.0350146e+3, 2.0448726e+2, -945104.3, -1057396.5, -96420.76, -0.0062059886, 0.6141213, -889673.75, 46399.938, 0.0, 10.0004, 9.998903 
2.035036e+3, 2.1448404e+2, -722843.6, -885836.94, -90890.22, -0.051338263, 0.36257946, -682263.5, 155838.08, 0.0, 10.0012, 9.999016 
2.035058e+3, 2.2448216e+2, -665437.94, -839623.56, -87009.46, -0.063789316, 0.2919436, -629421.8, 110696.336, 0.0, 10.001051, 9.998735 
2.0350811e+3, 2.3448198e+2, -700416.06, -791423.4, -90499.766, -0.010168531, 0.36105365, -644624.2, -2503.5112, 0.0, 10.000099, 9.998837 
2.0351043e+3, 2.4448195e+2, -620135.94, -743651.44, -37018.363, -0.016489543, 0.49457735, -609891.06, -65767.23, 0.0, 10.000129, 9.9985 
2.035128e+3, 2.5448206e+2, -285958.44, -516902.6, -2247.353, -0.083836794, 0.61562544, -285936.6, 160191.33, 0.0, 10.001697, 9.998623 
2.035151e+3, 2.644809e+2, -149881.25, -404005.4, -78562.55, -0.1378929, 0.64246875, -127555.086, 220585.42, 0.000000023664393, 10.001979, 9.998591 
2.035173e+3, 2.7447817e+2, -163056.52, -336535.16, -83468.29, -0.1468422, 0.46015003, -129418.66, 120743.91, 0.0000019634658, 10.001131, 9.998774 
2.035196e+3, 2.8447658e+2, -78372.32, -266392.8, -18074.14, -0.17935239, 0.43865195, -76650.64, 75522.73, 0.000016146072, 10.001084, 9.998636 
2.0352197e+3, 2.944763e+2, 228861.4, -17465.545, 50359.527, -0.23732671, 0.4814212, 238759.28, 292930.7, 0.00006227005, 10.002318, 9.99906 
2.0352459e+3, 3.0447176e+2, 107898.76, -428223.38, -29564.97, -0.052508846, 0.28368968, 109524.21, 109524.21, 0.00015436458, 10.002768, 9.995711 
2.035268e+3, 3.1447e+2, 254181.81, -117089.61, 52865.598, -0.13673747, 0.47819155, 261562.66, 261562.66, 0.00029089712, 10.002757, 9.997808 
2.0448354e+3, 1.2446131e+2, -1811887.8, -1661182.5, 78315.65, 0.101681896, 0.45080194, -1627855.0, 92469.21, 0.3294151, 9.998683, 10.001254 
2.0448554e+3, 1.3446486e+2, -1846904.0, -1608420.6, -81764.58, -0.112740114, 0.65417516, -1583080.0, 39205.086, 0.23787552, 9.997873, 10.001117 
2.04488e+3, 1.4446115e+2, -1797374.9, -1708508.3, -117954.21, -0.050116308, 0.24931978, -1626895.9, -102574.74, 0.14372098, 9.998278, 9.999509 
2.0449029e+3, 1.5446432e+2, -1455798.6, -1474263.4, -161660.16, 0.041773044, 0.5729249, -1303107.4, 123187.02, 0.06692591, 9.99993, 9.999653 
2.0449251e+3, 1.6446407e+2, -1293287.5, -1335629.0, -55533.777, 0.0027757986, 0.58187234, -1255026.0, 73272.19, 0.021061258, 10.000294, 9.999743 
2.0449483e+3, 1.7446107e+2, -1274013.8, -1254517.4, -46566.805, -0.1086348, 0.26406854, -1216689.4, 13635.312, 0.003256253, 9.999687, 9.999901 
2.0449713e+3, 1.8446098e+2, -1265915.9, -1293191.9, -158908.97, -0.10220783, 0.30615544, -1120060.8, 12266.246, 0.00007088071, 9.999448, 9.999095 
2.0449932e+3, 1.9446385e+2, -1088132.3, -1147386.0, -176228.94, -0.026335463, 0.651931, -939057.1, 95248.58, 0.0, 9.999983, 9.999145 
2.0450148e+3, 2.0446353e+2, -950927.7, -1050626.9, -118331.23, -0.021718813, 0.7185973, -872374.5, 63935.445, 0.0, 10.000302, 9.99901 
2.0450364e+3, 2.1445963e+2, -811113.5, -909653.25, -109892.8, -0.09312273, 0.38672674, -739951.0, 98391.41, 0.0, 10.000521, 9.999182 
2.0450588e+3, 2.2445747e+2, -713269.9, -878556.3, -93801.08, -0.07353138, 0.28705612, -670898.94, 69462.09, 0.0, 10.000785, 9.998608 
2.045082e+3, 2.3445721e+2, -556609.3, -742663.7, -98686.63, 0.0386227, 0.36540675, -514015.3, 128350.23, 0.0, 10.001163, 9.99867 
2.0451055e+3, 2.4445722e+2, -414478.56, -636589.44, 18363.342, 0.037746888, 0.5080331, -412970.6, 131398.08, 0.0, 10.001494, 9.998582 
2.0451292e+3, 2.5445768e+2, -269373.13, -493791.1, -3402.5923, -0.120185316, 0.65468395, -269321.53, 177047.13, 0.0, 10.001756, 9.998744 
2.0451528e+3, 2.6445657e+2, -173263.11, -430116.97, -118525.66, -0.15317667, 0.68825215, -126927.9, 221452.56, 0.00000011200642, 10.001854, 9.998477 
2.0451756e+3, 2.7445358e+2, -83802.18, -316888.4, -141322.5, -0.034728646, 0.49278554, -17166.838, 233239.23, 0.000002326167, 10.0017395, 9.998616 
2.0451987e+3, 2.84452e+2, 29336.018, -192887.53, -27771.621, -0.057399847, 0.4703359, 32754.105, 185171.31, 0.000014696717, 10.001724, 9.998831 
2.0452215e+3, 2.9445198e+2, 149211.28, -32417.79, -60708.68, -0.25091895, 0.53234786, 167634.22, 222046.33, 0.00005375532, 10.001691, 9.999251 
2.0452496e+3, 3.0444762e+2, 47235.477, -479246.97, -61379.715, 0.09645212, 0.35147405, 54296.695, 54296.695, 0.00013253847, 10.002429, 9.995516 
2.045271e+3, 3.1444404e+2, 488440.28, 13568.291, 83843.07, -0.16307679, 0.39421415, 502808.8, 502808.8, 0.00025393235, 10.004217, 9.998017 
2.0548318e+3, 1.2443439e+2, -1831792.4, -1736705.3, 37295.87, -0.20478056, 0.33443442, -1723822.3, -3236.0688, 0.3476065, 9.998915, 10.000369 
2.0548582e+3, 1.3444038e+2, -1866443.4, -1651792.1, -92596.586, 0.34557617, 0.81933457, -1617368.3, 5158.6, 0.2513395, 9.99792, 10.0007305 
2.0548786e+3, 1.4443332e+2, -1774250.1, -1681992.8, -67193.56, -0.062119488, 0.10154868, -1646617.9, -122020.7, 0.15236652, 9.99837, 9.999644 
2.0549028e+3, 1.5443708e+2, -1411022.6, -1399842.5, -87960.836, 0.02675069, 0.44065288, -1317294.3, 109269.39, 0.071473114, 9.999994, 10.000138 
2.054926e+3, 1.644388e+2, -1262833.5, -1310961.6, -89980.42, 0.020696264, 0.6162382, -1193754.9, 134793.95, 0.022826005, 10.000451, 9.99985 
2.0549487e+3, 1.7443882e+2, -1269949.6, -1247234.3, -63894.68, -0.058707334, 0.5965554, -1193695.8, 36853.477, 0.0036400491, 9.999687, 9.999954 
2.0549712e+3, 1.8443832e+2, -1261657.1, -1302067.5, -152292.98, -0.10150682, 0.60059595, -1128234.9, 4321.246, 0.00008593674, 9.999509, 9.999013 
2.0549926e+3, 1.9443691e+2, -1089623.3, -1152030.0, -148055.69, -0.10770957, 0.52109134, -969518.5, 65055.37, 0.0, 9.999971, 9.999126 
2.0550144e+3, 2.0443626e+2, -941085.7, -1002476.8, -120351.695, -0.12057139, 0.5354341, -847576.8, 89003.695, 0.0, 10.000184, 9.999398 
2.0550369e+3, 2.1443672e+2, -809358.1, -865206.0, -90245.99, -0.121397495, 0.5994753, -742814.7, 95757.2, 0.0, 10.000339, 9.999576 
2.0550598e+3, 2.2443594e+2, -749575.5, -887769.7, -90500.77, -0.056147505, 0.61100525, -704809.5, 35767.44, 0.0, 10.000507, 9.998674 
2.055084e+3, 2.3443353e+2, -577021.94, -740794.0, -73522.086, 0.10653399, 0.4663077, -548858.8, 93741.195, 0.0, 10.000975, 9.998772 
2.0551074e+3, 2.4443176e+2, -483490.0, -708208.9, 15288.178, 0.042306315, 0.44143954, -482454.7, 62163.52, 0.0, 10.001199, 9.998228 
2.0551297e+3, 2.5443095e+2, -331912.8, -565214.75, 19271.916, -0.28295547, 0.49530667, -330331.56, 116297.25, 0.0, 10.001515, 9.998366 
2.0551533e+3, 2.6443e+2, -220028.47, -450710.28, -132311.98, -0.29873595, 0.56234634, -159841.64, 188796.95, 0.00000017468948, 10.00153, 9.998489 
2.0551787e+3, 2.7442878e+2, -110981.02, -330882.78, -130455.51, 0.08301652, 0.5446767, -50321.72, 200326.39, 0.0000023499456, 10.001551, 9.998613 
2.0552017e+3, 2.844271e+2, -77337.99, -330895.97, -41115.645, 0.057458118, 0.55140054, -70837.55, 81825.45, 0.000012296112, 10.001381, 9.998044 
2.0552221e+3, 2.9442495e+2, 53866.453, -173209.86, -41567.797, -0.3815868, 0.46161726, 61236.508, 115920.23, 0.000044415407, 10.001444, 9.998401 
2.0552522e+3, 3.044245e+2, 63344.15, -313024.06, -23814.775, 0.07315333, 0.65009844, 64845.047, 64845.047, 0.00011238554, 10.001893, 9.996899 
2.0552737e+3, 3.1441936e+2, 436209.34, 101513.27, 130414.305, -0.36631683, 0.37124082, 481024.56, 481024.56, 0.00022334591, 10.003415, 9.998991 
2.0648305e+3, 1.2440824e+2, -2026082.0, -1912261.4, 78421.91, -0.16952053, 0.27509782, -1872275.9, -151433.16, 0.36771804, 9.997935, 9.999618 
2.0648572e+3, 1.3441448e+2, -1597790.8, -1573159.0, -67281.516, 0.35608736, 0.80362016, -1517075.5, 105706.68, 0.26616043, 10.000012, 10.000397 
2.0648791e+3, 1.4440721e+2, -1588521.9, -1622310.1, -12991.993, 0.09442067, 0.09562966, -1584104.0, -59248.707, 0.1618756, 9.999751, 9.999396 
2.0649026e+3, 1.544106e+2, -1423714.1, -1413916.9, -87321.78, -0.001388445, 0.40517938, -1331356.4, 95469.79, 0.07651462, 9.999928, 10.000075 
2.0649253e+3, 1.6441299e+2, -1373093.9, -1352861.5, -145637.0, -0.033344105, 0.64398086, -1216989.8, 111816.0, 0.024829434, 9.999658, 9.999933 
2.0649485e+3, 1.7441386e+2, -1390090.4, -1297620.0, -142867.75, -0.011809104, 0.70428616, -1193692.3, 37106.41, 0.0041003036, 9.998846, 10.000002 
2.0649709e+3, 1.8441336e+2, -1360561.3, -1324310.4, -138681.16, -0.016898723, 0.69569975, -1202575.3, -69769.88, 0.000108260756, 9.998738, 9.999216 
2.0649926e+3, 1.9441134e+2, -1060901.5, -1107955.8, -134337.44, -0.08567903, 0.5303284, -948046.56, 86780.3, 0.0, 10.0000515, 9.999382 
2.0650147e+3, 2.0441055e+2, -904553.9, -994808.7, -135396.22, -0.10997822, 0.5226281, -806962.6, 129871.65, 0.0, 10.000477, 9.999301 
2.0650369e+3, 2.144113e+2, -882768.06, -916762.06, -171771.63, -0.10367722, 0.6285901, -727154.56, 111670.03, 0.0, 9.99991, 9.999422 
2.0650606e+3, 2.244108e+2, -786316.06, -906550.3, -129363.305, -0.027442532, 0.67892164, -703783.5, 37044.29, 0.0, 10.000242, 9.998683 
2.0650855e+3, 2.3440883e+2, -472599.5, -684670.2, -134218.1, 0.13084896, 0.57581896, -407585.2, 235261.14, 0.0, 10.001675, 9.998817 
2.0651093e+3, 2.4440695e+2, -385931.2, -643170.3, -66447.68, 0.1051227, 0.53165346, -369780.97, 175083.1, 0.0, 10.00179, 9.998389 
2.0651317e+3, 2.544051e+2, -498181.38, -624496.4, -53595.297, -0.16891824, 0.46654072, -478505.78, -31624.031, 0.0, 10.000284, 9.998549 
2.0651552e+3, 2.6440382e+2, -413266.63, -531834.4, -107945.77, -0.17065883, 0.48178223, -349396.66, -503.24893, 0.00000012472299, 10.000141, 9.998607 
2.0651808e+3, 2.7440313e+2, -67194.72, -293002.7, -118982.79, 0.1319881, 0.51087165, -16073.666, 234824.03, 0.0000018192295, 10.001779, 9.998766 
2.0652038e+3, 2.8440163e+2, 13534.891, -349244.06, -35587.23, 0.09211107, 0.5457871, 16992.9, 169905.47, 0.000008845643, 10.00226, 9.997503 
2.0652239e+3, 2.9439887e+2, -32343.656, -293095.63, -75507.75, -0.32825163, 0.46578142, -12056.711, 42885.164, 0.000033872344, 10.001191, 9.9977 
2.0652552e+3, 3.0439848e+2, 88985.42, -195008.13, 48716.24, 0.20813641, 0.65416193, 97109.79, 97109.79, 0.00009226449, 10.00156, 9.997909 
2.0652783e+3, 3.143936e+2, 460007.38, 177142.52, -10675.48, -0.21676667, 0.30151188, 460409.72, 460409.72, 0.00019358228, 10.003263, 9.999618 
2.0748323e+3, 1.24384575e+2, -2059406.0, -2024508.6, 27932.676, 0.11656853, 0.44202378, -2009022.6, -287945.0, 0.38886976, 9.998107, 9.998773 
2.0748512e+3, 1.3438699e+2, -1590724.8, -1591005.5, -48343.98, -0.2514049, 0.6013725, -1542520.9, 80531.57, 0.28190908, 10.000161, 10.000168 
2.0748809e+3, 1.4438273e+2, -1608024.1, -1695942.4, -43948.58, 0.25521293, 0.23661032, -1589823.1, -64726.71, 0.17213808, 9.999892, 9.998826 
2.0749012e+3, 1.5438482e+2, -1454774.5, -1485326.1, -73175.73, -0.16603196, 0.47132027, -1395297.1, 31785.717, 0.08207624, 9.999958, 9.999547 
2.0749226e+3, 1.6438651e+2, -1352467.9, -1332278.9, -184446.19, -0.30962393, 0.66075236, -1157651.3, 171419.25, 0.027111659, 9.999753, 10.000037 
2.074947e+3, 1.7438619e+2, -1378889.5, -1276959.5, -168252.1, -0.07201864, 0.5887671, -1152123.0, 78950.71, 0.0046569863, 9.998861, 10.0001335 
2.0749705e+3, 1.8438612e+2, -1319898.0, -1260962.8, -106707.4, 0.02183097, 0.5990132, -1179729.0, -46654.617, 0.00014131474, 9.998827, 9.999609 
2.0749934e+3, 1.9438696e+2, -1039816.44, -1053145.5, -78178.72, -0.057383895, 0.68040615, -968018.7, 67047.35, 0.0000000002137382, 10.0, 9.999786 
2.0750153e+3, 2.0438619e+2, -965512.06, -1093284.1, -165485.03, -0.12394138, 0.677798, -852009.5, 85063.93, 0.0, 10.000348, 9.99869 
2.0750366e+3, 2.1438316e+2, -952006.0, -1025452.5, -181499.36, -0.14797159, 0.4733268, -803552.0, 35550.426, 0.0, 9.999752, 9.998754 
2.07506e+3, 2.2438191e+2, -834618.94, -934000.7, -86171.695, -0.11229289, 0.48459738, -784837.5, -43722.85, 0.0, 9.999947, 9.998628 
2.0750862e+3, 2.3438305e+2, -512462.44, -707141.7, -66025.875, 0.011744486, 0.6932864, -492182.28, 150922.55, 0.0, 10.001432, 9.998775 
2.0751111e+3, 2.4438253e+2, -390207.1, -579853.5, -125034.56, 0.07408767, 0.7621016, -328106.5, 217001.94, 0.0, 10.001484, 9.998969 
2.0751345e+3, 2.5437996e+2, -480630.28, -548725.4, -99626.0, 0.09200946, 0.5626803, -409394.53, 37734.926, 0.0, 10.000117, 9.999148 
2.0751582e+3, 2.6437786e+2, -443251.44, -523019.2, -67750.914, 0.0718264, 0.4589582, -404516.56, -55370.355, 0.000000021824269, 9.999846, 9.998807 
2.0751815e+3, 2.7437645e+2, -82916.63, -268953.44, -43936.336, 0.002078082, 0.3900307, -73062.18, 178094.5, 0.00000084431264, 10.001548, 9.99904 
2.0752041e+3, 2.8437504e+2, -75297.14, -446982.97, -87919.74, -0.12557577, 0.4410987, -55549.52, 97620.96, 0.000005133315, 10.001899, 9.997002 
2.0752263e+3, 2.9437333e+2, -113057.73, -420756.38, -94370.6, -0.23996228, 0.52206033, -86420.414, -31229.264, 0.000023723636, 10.000999, 9.9969225 
2.0752577e+3, 3.0436975e+2, 30283.84, -169265.25, 91850.87, 0.2891299, 0.4215257, 66124.71, 66124.71, 0.00007269807, 10.000986, 9.998334 
2.075283e+3, 3.143677e+2, 324561.16, 129750.22, -11768.69, -0.12759075, 0.26685846, 325269.56, 325269.56, 0.00016061905, 10.002361, 9.999679 
2.0848343e+3, 1.2436065e+2, -1673227.8, -1758303.9, 158776.6, 0.3833984, 0.5500898, -1551389.8, 169925.39, 0.40993002, 10.000939, 9.999503 
2.0848496e+3, 1.3436055e+2, -1643764.6, -1648774.0, -62911.008, -0.41224578, 0.48108596, -1583308.5, 40005.77, 0.29801235, 9.999923, 9.99982 
2.084881e+3, 1.4435941e+2, -1716030.4, -1726345.1, -4462.889, 0.33008197, 0.43083927, -1714367.5, -189040.3, 0.18298064, 9.999093, 9.998987 
2.0849006e+3, 1.5436028e+2, -1670654.9, -1593121.8, -12835.99, -0.12644978, 0.54436815, -1591051.9, -163726.52, 0.088167645, 9.998487, 9.999511 
2.084922e+3, 1.6436113e+2, -1548650.0, -1456166.4, -76337.586, -0.2800708, 0.66684324, -1413157.3, -83836.59, 0.029713616, 9.998511, 9.999785 
2.0849463e+3, 1.7436e+2, -1238642.0, -1237342.6, -110939.516, -0.05582351, 0.5381864, -1127050.9, 104279.98, 0.005333032, 9.999921, 9.999915 
2.0849702e+3, 1.8435964e+2, -1124879.8, -1180683.6, -62468.23, 0.04986489, 0.5345021, -1084365.3, 48968.51, 0.00018960002, 10.000222, 9.999502 
2.0849931e+3, 1.943609e+2, -1117619.3, -1104785.3, -91810.234, -0.036504276, 0.67083126, -1019168.0, 16152.951, 0.000000020895914, 9.999533, 9.9996605 
2.0850156e+3, 2.043603e+2, -1094762.8, -1153139.8, -162522.48, -0.08542579, 0.6971438, -958828.44, -21501.852, 0.0, 9.999487, 9.998682 
2.0850374e+3, 2.1435727e+2, -830180.1, -960599.94, -153931.64, -0.090944305, 0.4917655, -728215.6, 111141.19, 0.0, 10.00059, 9.998781 
2.0850608e+3, 2.2435586e+2, -661171.2, -833778.94, 3527.6196, -0.069655605, 0.4759986, -661099.1, 80271.3, 0.0, 10.00104, 9.998801 
2.0850867e+3, 2.3435654e+2, -609290.0, -733758.8, 18102.38, -0.043859124, 0.6216613, -606710.7, 36651.9, 0.0, 10.000652, 9.99898 
2.0851119e+3, 2.4435611e+2, -503478.34, -619658.9, -55503.04, 0.04381882, 0.6763577, -481225.2, 64139.465, 0.0, 10.000624, 9.999117 
2.0851362e+3, 2.5435412e+2, -321005.88, -460443.97, -86455.87, 0.20575473, 0.5270678, -279660.22, 167720.3, 0.0, 10.001145, 9.999269 
2.0851599e+3, 2.643525e+2, -234643.42, -443808.88, -19588.904, 0.20871001, 0.47498652, -232824.67, 116569.52, 0.0, 10.001378, 9.9986105 
2.0851824e+3, 2.743514e+2, -144333.13, -325971.6, -56091.164, -0.04281143, 0.45521095, -128408.03, 122997.15, 0.000000115745564, 10.001259, 9.99878 
2.0852053e+3, 2.8434977e+2, -70288.84, -410092.28, -90683.33, -0.1716587, 0.4870349, -47602.766, 105818.38, 0.0000020138657, 10.001767, 9.997316 
2.0852295e+3, 2.9434752e+2, 201475.83, -217888.11, -68543.18, -0.10457437, 0.4884387, 212394.63, 267838.03, 0.000014504671, 10.002957, 9.997364 
2.08526e+3, 3.043447e+2, 308779.78, -76630.47, 173638.89, 0.32213417, 0.4458555, 375469.6, 375469.6, 0.000053403415, 10.002995, 9.998039 
2.0852856e+3, 3.143427e+2, 149096.1, -16474.74, -139618.69, -0.026553163, 0.3462961, 228627.66, 228627.66, 0.00012565745, 10.00128, 9.999244 
2.0948333e+3, 1.243348e+2, -1554616.4, -1517737.4, 295183.97, 0.11249632, 0.4239598, -1240417.5, 481154.16, 0.42994058, 10.001149, 10.0021 
2.0948516e+3, 1.3433497e+2, -1663329.9, -1695310.6, -97130.47, -0.25720346, 0.4314664, -1580882.4, 42686.523, 0.31401625, 9.999972, 9.999481 
2.0948789e+3, 1.4433728e+2, -1640817.3, -1596684.8, -39844.914, 0.15978083, 0.6946087, -1573203.9, -47656.914, 0.19429262, 9.999187, 9.999843 
2.0949006e+3, 1.5433705e+2, -1627912.5, -1520111.8, -29821.357, -0.0028312714, 0.6402735, -1512412.0, -84859.15, 0.094824284, 9.998546, 9.999989 
2.0949228e+3, 1.6433686e+2, -1572615.0, -1538874.1, -44068.97, -0.10064799, 0.668054, -1508556.9, -179000.48, 0.032688897, 9.998648, 9.999152 
2.0949465e+3, 1.743354e+2, -1274216.1, -1321353.8, -51209.52, -0.067710824, 0.56721425, -1241412.0, -9842.389, 0.0061590113, 9.999957, 9.999321 
2.0949695e+3, 1.84334e+2, -1155667.0, -1265537.6, -97466.82, -0.07754275, 0.5189521, -1098719.9, 34862.973, 0.00026052183, 10.00031, 9.998877 
2.094992e+3, 1.9433318e+2, -1170200.4, -1207150.1, -111670.484, -0.13511771, 0.51358336, -1075486.9, -39895.926, 0.00000016154512, 9.999501, 9.998973 
2.0950149e+3, 2.0433295e+2, -1081349.9, -1095886.5, -137245.0, -0.1355373, 0.58980525, -951180.9, -13587.244, 0.0, 9.999359, 9.999134 
2.0950386e+3, 2.1433344e+2, -820850.8, -895981.06, -103026.96, -0.041984525, 0.68340576, -748754.25, 90835.58, 0.0, 10.0004015, 9.999311 
2.0950624e+3, 2.2433238e+2, -670639.0, -790331.7, -17734.6, -0.04421123, 0.65134764, -668066.6, 73531.1, 0.0, 10.00077, 9.999228 
2.0950861e+3, 2.3432927e+2, -609853.06, -687490.94, 13649.909, -0.15522838, 0.37690008, -607523.1, 36097.453, 0.0, 10.000445, 9.999397 
2.0951109e+3, 2.4432757e+2, -566656.7, -677024.56, -47915.895, -0.13841085, 0.29393652, -548757.1, -3123.4255, 0.0, 10.00031, 9.998871 
2.0951362e+3, 2.543276e+2, -367769.3, -514988.4, -54389.27, 0.07420066, 0.3718975, -349855.3, 97779.85, 0.0, 10.000959, 9.998983 
2.0951603e+3, 2.6432762e+2, -324141.8, -563668.44, -34295.88, 0.08711675, 0.5234745, -319328.0, 30310.951, 0.0, 10.001106, 9.997911 
2.0951828e+3, 2.7432746e+2, -232343.77, -458767.94, -44420.957, -0.13621266, 0.6782436, -223940.89, 27705.693, 0.0, 10.001048, 9.997965 
2.095207e+3, 2.8432545e+2, -65036.188, -300626.94, -60863.63, -0.21138903, 0.6736496, -50241.477, 103425.47, 0.00000039293647, 10.001352, 9.998267 
2.0952332e+3, 2.943216e+2, 256232.14, -34889.23, -205.86014, -0.05835745, 0.39019278, 256232.28, 311930.53, 0.000007667558, 10.002662, 9.998764 
2.0952608e+3, 3.0432174e+2, 127603.86, -282936.0, 99099.45, 0.05706893, 0.6098699, 150273.48, 150273.48, 0.000037309004, 10.002322, 9.996922 
2.0952861e+3, 3.143174e+2, -2519.2664, -114233.21, -83263.37, -0.16503465, 0.42788267, 41887.36, 41887.36, 0.00009608347, 10.000444, 9.998935 
2.1048328e+3, 1.2430905e+2, -1739061.1, -1652989.0, 260072.86, 0.030937705, 0.60652703, -1432415.5, 289408.88, 0.44859928, 9.99969, 10.001477 
2.1048531e+3, 1.3430901e+2, -1624633.0, -1566565.8, -164083.42, -0.08918137, 0.45884013, -1428967.1, 194857.94, 0.3298663, 9.999785, 10.000804 
2.1048777e+3, 1.4431271e+2, -1529594.3, -1522681.1, -80873.57, 0.08234404, 0.7800868, -1445190.3, 80599.28, 0.20615475, 9.999921, 10.000056 
2.1049002e+3, 1.5431187e+2, -1439474.4, -1409200.0, -134536.83, 0.053171355, 0.64205694, -1288951.5, 138848.16, 0.10215144, 9.999819, 10.00017 
2.1049228e+3, 1.6431108e+2, -1422711.8, -1495682.8, -81539.09, -0.015008691, 0.6142364, -1369867.5, -40059.543, 0.036114734, 9.999802, 9.998882 
2.1049468e+3, 1.7431018e+2, -1233471.0, -1329386.8, -76439.94, -0.048300486, 0.5933857, -1191190.1, 40626.25, 0.007176738, 10.000363, 9.999059 
2.1049702e+3, 1.8430884e+2, -1130138.8, -1266080.3, -122181.39, -0.047292586, 0.5696449, -1058294.3, 75534.76, 0.0003661867, 10.000542, 9.998757 
2.1049927e+3, 1.9430685e+2, -1024150.25, -1145905.3, -119372.3, -0.06664224, 0.4600081, -951028.44, 84819.1, 0.00000091193453, 10.000557, 9.998876 
2.1050154e+3, 2.0430636e+2, -895278.2, -1012190.0, -81374.24, -0.059023187, 0.5138152, -853540.0, 84312.51, 0.0, 10.000617, 9.999123 
2.1050394e+3, 2.1430765e+2, -753778.25, -874132.2, -103697.11, -0.027846659, 0.6883369, -694062.1, 145779.05, 0.0, 10.000855, 9.999272 
2.1050632e+3, 2.2430685e+2, -671335.94, -773902.1, -64007.914, -0.03099987, 0.6832698, -640600.94, 101245.24, 0.0, 10.000716, 9.999353 
2.1050872e+3, 2.343033e+2, -608767.9, -667240.1, -82678.44, -0.10772057, 0.35043085, -550308.6, 93564.516, 0.0, 10.00039, 9.999545 
2.1051118e+3, 2.4430159e+2, -547501.5, -659702.1, -99616.836, -0.07507196, 0.25604907, -489274.4, 56612.53, 0.0, 10.000404, 9.99895 
2.105137e+3, 2.543022e+2, -388492.25, -514180.16, -99548.68, 0.07511085, 0.38990226, -333610.66, 114273.46, 0.0, 10.000791, 9.999066 
2.1051615e+3, 2.643024e+2, -290000.84, -526057.9, -25808.984, 0.093436874, 0.54834044, -287212.0, 62674.203, 0.0, 10.001221, 9.99813 
2.1051848e+3, 2.7430192e+2, -122348.73, -384050.16, 9063.886, -0.074539796, 0.6507723, -122035.18, 129860.7, 0.0, 10.001685, 9.99818 
2.1052097e+3, 2.8430024e+2, 53983.492, -230080.56, 51615.02, -0.098686844, 0.6629907, 63071.31, 216983.88, 0.00000006547354, 10.002144, 9.998354 
2.1052365e+3, 2.9429707e+2, 227705.58, -48854.277, -17907.299, 0.03774316, 0.45010158, 228860.27, 284798.6, 0.000004738257, 10.002501, 9.998734 
2.1052632e+3, 3.04296e+2, 189238.7, -250234.08, 40592.668, 0.08060543, 0.54961836, 192956.66, 192956.66, 0.00002905632, 10.0027075, 9.996963 
2.1052876e+3, 3.142925e+2, 380653.8, 153758.94, -74853.61, -0.1687573, 0.4522761, 403123.2, 403123.2, 0.00007990105, 10.002679, 9.999709 
2.1148318e+3, 1.2428036e+2, -1978545.9, -2235708.0, 127498.24, -0.13428755, 0.75719714, -1926050.0, -203947.14, 0.46656317, 9.999768, 9.996494 
2.1148536e+3, 1.3428292e+2, -1453841.8, -1264882.8, -120539.33, -0.058437977, 0.57881576, -1206208.4, 417871.9, 0.34608045, 9.999883, 10.00374 
2.1148765e+3, 1.4428525e+2, -1543442.8, -1598881.0, -94363.34, -0.080510125, 0.6465755, -1472811.5, 53247.543, 0.21890919, 10.00013, 9.999401 
2.1148992e+3, 1.542844e+2, -1427858.9, -1418536.9, -135951.38, -0.08315903, 0.53658235, -1287166.6, 140901.89, 0.110347085, 9.999963, 10.000039 
2.1149214e+3, 1.6428357e+2, -1387868.0, -1453921.9, -75993.54, -0.17357798, 0.49210992, -1338034.9, -7957.1724, 0.040102176, 9.999932, 9.9991045 
2.1149468e+3, 1.7428422e+2, -1222655.8, -1317748.9, -48559.844, -0.10805137, 0.6164919, -1202241.1, 29830.996, 0.008443992, 10.0004015, 9.999123 
2.1149714e+3, 1.8428388e+2, -1096221.6, -1210239.0, -134912.77, -0.0069219954, 0.67302716, -1006767.2, 127307.336, 0.00052604213, 10.000603, 9.99911 
2.1149947e+3, 1.9428177e+2, -1002484.94, -1090356.0, -113128.836, 0.062012, 0.5098268, -925059.6, 111032.78, 0.0000034897541, 10.000511, 9.999278 
2.115017e+3, 2.0428033e+2, -951180.4, -1089398.0, -84882.56, 0.004915876, 0.468532, -910831.06, 27273.984, 0.0, 10.000454, 9.998672 
2.1150391e+3, 2.1427988e+2, -822134.7, -963750.2, -87731.81, -0.15328714, 0.5211982, -780201.1, 59909.355, 0.0, 10.00065, 9.998748 
2.1150628e+3, 2.242793e+2, -733234.06, -832715.7, -82912.39, -0.17784414, 0.5762471, -686286.6, 55828.984, 0.0, 10.000418, 9.999092 
2.1150886e+3, 2.3427843e+2, -656066.94, -720476.1, -81969.39, -0.012604338, 0.537061, -600202.75, 43919.156, 0.0, 10.0001955, 9.999273 
2.1151137e+3, 2.4427785e+2, -568030.3, -633478.7, -96610.57, 0.069907166, 0.5550116, -498752.16, 47374.586, 0.0, 10.0001135, 9.999263 
2.1151382e+3, 2.5427765e+2, -390533.06, -477616.34, -75104.695, 0.090048365, 0.5637136, -347261.16, 100868.99, 0.0, 10.000621, 9.999392 
2.1151629e+3, 2.6427668e+2, -265834.75, -400043.84, -16679.984, 0.07363334, 0.5451444, -263792.75, 86345.664, 0.0, 10.000904, 9.999142 
2.1151875e+3, 2.742749e+2, -65840.64, -223965.45, 42217.246, 0.00829739, 0.40015352, -55275.15, 196877.06, 0.0, 10.001501, 9.999366 
2.1152127e+3, 2.842738e+2, -74268.49, -411485.3, 48228.59, -0.052280184, 0.4533509, -67506.46, 86655.11, 0.00000005479561, 10.001779, 9.997284 
2.115239e+3, 2.9427323e+2, 86050.39, -289513.9, 19296.047, 0.0132657625, 0.61997765, 87039.195, 143209.36, 0.0000044706885, 10.00225, 9.997209 
2.1152666e+3, 3.0426723e+2, 120122.74, -180147.11, 14729.049, 0.1021476, 0.28404874, 120843.516, 120843.516, 0.000027145721, 10.001861, 9.997818 
2.1152899e+3, 3.142678e+2, 313677.78, 239936.3, 106401.87, -0.2843489, 0.4448658, 389416.13, 389416.13, 0.00007500409, 10.001781, 10.000706 
2.1248327e+3, 1.242469e+2, -1821217.1, -1720391.9, 68608.74, 0.029828887, 0.1007674, -1685665.8, 36764.297, 0.48543465, 9.998797, 10.000712 
2.1248521e+3, 1.3425735e+2, -1613189.9, -1300902.4, -42397.28, -0.07495274, 0.5703331, -1295248.6, 329080.3, 0.3637423, 9.997947, 10.004363 
2.124876e+3, 1.4425871e+2, -1829361.0, -1761133.0, -10427.397, -0.036133073, 0.53028756, -1759575.0, -233258.28, 0.23315269, 9.998205, 9.999181 
2.1248981e+3, 1.5425864e+2, -1489850.5, -1456843.6, -66287.88, -0.12952082, 0.5081278, -1405035.6, 23283.951, 0.1197026, 9.999507, 9.99997 
2.124921e+3, 1.6425802e+2, -1381173.5, -1428092.8, -2772.1973, -0.20482509, 0.47707355, -1381010.3, -50683.566, 0.044803485, 9.999875, 9.999322 
2.124947e+3, 1.7425828e+2, -1336340.3, -1356804.1, 10545.637, -0.08373354, 0.54981124, -1331878.5, -99554.78, 0.01004214, 9.999551, 9.9992695 
2.1249722e+3, 1.8425813e+2, -1247881.4, -1290812.3, -56144.285, 0.055568483, 0.6204393, -1209239.0, -74914.72, 0.0007722133, 9.999583, 9.999045 
2.1249956e+3, 1.9425686e+2, -1005041.4, -1104057.5, -88876.21, 0.112268634, 0.54815465, -952814.4, 83521.31, 0.000010944595, 10.000528, 9.999182 
2.1250182e+3, 2.042553e+2, -893250.75, -1096732.0, -72065.055, 0.06510683, 0.5167396, -870313.7, 68036.62, 0.0, 10.001033, 9.998326 
2.12504e+3, 2.142534e+2, -769201.8, -974721.8, -90807.13, -0.12700225, 0.46190283, -734828.44, 105540.88, 0.0, 10.001205, 9.998383 
2.1250637e+3, 2.2425233e+2, -645182.8, -805214.9, -73010.72, -0.13536198, 0.4922215, -616879.3, 125500.43, 0.0, 10.001066, 9.998977 
2.1250893e+3, 2.3425233e+2, -620826.0, -713012.4, -77593.4, 0.041427426, 0.551034, -576667.75, 67711.12, 0.0, 10.000472, 9.999196 
2.1251145e+3, 2.4425225e+2, -515637.06, -605942.75, -39396.08, 0.12803021, 0.61936367, -500866.38, 45513.59, 0.0, 10.000474, 9.999274 
2.1251391e+3, 2.5425184e+2, -281961.06, -427004.13, -66520.41, 0.09389636, 0.6163077, -256073.56, 192311.81, 0.0, 10.001374, 9.999382 
2.1251643e+3, 2.642506e+2, -146236.63, -336716.16, -59307.742, 0.09351008, 0.5684349, -129280.04, 221115.94, 0.0, 10.00172, 9.999176 
2.1251895e+3, 2.7424824e+2, -107158.24, -240929.9, -116809.42, 0.06621388, 0.3742901, -39440.375, 212973.4, 0.0, 10.001238, 9.99937 
2.1252146e+3, 2.8424716e+2, -146640.6, -436679.38, -74451.06, 0.01193818, 0.4230938, -128645.92, 25776.496, 0.000000117451826, 10.001214, 9.997403 
2.125241e+3, 2.9424712e+2, 41582.973, -294881.66, -41822.133, 0.0072039403, 0.64127386, 46703.484, 103129.13, 0.0000050467984, 10.001867, 9.997362 
2.1252698e+3, 3.0424097e+2, 277763.4, -61431.484, 27359.512, 0.2198858, 0.25189486, 279956.06, 279956.06, 0.00002697455, 10.002662, 9.998306 
2.1252924e+3, 3.1424338e+2, 334741.5, 156944.56, -31454.045, -0.1782865, 0.5768276, 340142.0, 340142.0, 0.00007158717, 10.002224, 9.999988 
2.1348487e+3, 1.3423224e+2, -1728085.8, -1458917.4, -78189.84, -0.24741924, 0.47403786, -1437852.8, 186718.56, 0.38411817, 9.997966, 10.002717 
2.1348755e+3, 1.4423335e+2, -1804857.9, -1741855.4, 16261.59, 0.038179662, 0.47014228, -1737905.8, -211345.86, 0.24951555, 9.998333, 9.999248 
2.1348974e+3, 1.5423459e+2, -1473617.3, -1445009.5, -15077.071, -0.20460227, 0.57169276, -1438530.8, -9978.379, 0.13052814, 9.999592, 9.999993 
2.1349207e+3, 1.6423425e+2, -1348736.4, -1397201.5, -27723.328, -0.26258796, 0.55930686, -1336147.8, -5591.1934, 0.050404422, 10.000027, 9.999462 
2.1349467e+3, 1.7423227e+2, -1319363.0, -1324217.5, 3201.0798, -0.08296586, 0.38810647, -1317773.0, -85201.4, 0.012084308, 9.999563, 9.999485 
2.1349715e+3, 1.842315e+2, -1272711.8, -1362279.5, -32815.555, -0.0038505755, 0.40712112, -1261975.8, -127397.37, 0.001155736, 9.999665, 9.998517 
2.1349952e+3, 1.9423209e+2, -1052896.8, -1198642.5, -44750.855, -0.023424137, 0.581471, -1040253.0, -3675.6729, 0.000030850606, 10.000502, 9.9985485 
2.1350186e+3, 2.0423107e+2, -940275.1, -1154711.3, -75531.734, -0.042116776, 0.65194184, -916341.56, 22248.291, 0.0, 10.000865, 9.99801 
2.1350423e+3, 2.142279e+2, -818384.1, -1029233.6, -74419.17, -0.046070214, 0.50066733, -794764.0, 45856.723, 0.0, 10.001005, 9.998104 
2.135066e+3, 2.2422586e+2, -683911.06, -811023.6, -99061.79, -0.053656846, 0.4406517, -629770.1, 112869.31, 0.0, 10.000759, 9.999078 
2.135089e+3, 2.3422508e+2, -642463.8, -716570.06, -89302.83, -0.05235172, 0.4099703, -582832.25, 61811.63, 0.0, 10.000293, 9.999259 
2.1351135e+3, 2.442247e+2, -585131.06, -686583.7, -18710.865, -0.056942437, 0.4653853, -581790.25, -35142.656, 0.0, 10.000204, 9.998847 
2.1351397e+3, 2.542248e+2, -336456.9, -501656.94, -19290.299, -0.017435083, 0.5523522, -334234.28, 114416.21, 0.0, 10.001205, 9.998948 
2.1351653e+3, 2.642239e+2, -270147.34, -522389.38, -82855.82, 0.0022745393, 0.61282355, -245365.73, 105295.7, 0.0, 10.001425, 9.998037 
2.1351899e+3, 2.7422157e+2, -219441.44, -436740.22, -117782.25, -0.016436119, 0.53804636, -167849.3, 84835.0, 0.00000000014169585, 10.001071, 9.998107 
2.1352151e+3, 2.8421965e+2, -135483.03, -312709.22, -63727.156, -0.10897038, 0.5272846, -114947.45, 39753.23, 0.000000256191, 10.0008135, 9.998426 
2.135242e+3, 2.9421848e+2, 108311.99, -103788.96, 18833.283, -0.10666221, 0.4920762, 109971.3, 166678.45, 0.0000052967753, 10.001631, 9.998787 
2.135272e+3, 3.0421564e+2, 159619.47, -107575.625, 21589.732, 0.12724869, 0.34982634, 161352.72, 161352.72, 0.000025200057, 10.001884, 9.998327 
2.135294e+3, 3.1421626e+2, -257.14157, -256957.33, -16118.062, -0.32083455, 0.51241875, 750.9436, 750.9436, 0.00006359548, 10.001114, 9.997632 
2.1448472e+3, 1.3420583e+2, -1777275.5, -1510797.5, -83835.0, -0.16531113, 0.40650967, -1486616.9, 138216.16, 0.40760165, 9.997767, 10.002309 
2.1448736e+3, 1.4420855e+2, -1724555.4, -1681769.9, -52538.445, 0.011136367, 0.57407945, -1646435.8, -119631.42, 0.26811564, 9.998778, 9.999448 
2.1448965e+3, 1.5420902e+2, -1568701.3, -1474656.6, -77344.03, -0.19727498, 0.5819012, -1431162.6, -2359.2424, 0.14296411, 9.998867, 10.000142 
2.1449211e+3, 1.6420858e+2, -1443579.9, -1427344.0, -77497.664, -0.17664774, 0.5480664, -1357540.3, -26732.35, 0.057087187, 9.999333, 9.999578 
2.1449472e+3, 1.742069e+2, -1168756.0, -1232253.9, -76839.42, -0.03661562, 0.3882688, -1117364.8, 115455.06, 0.014719365, 10.000552, 9.999629 
2.1449716e+3, 1.8420613e+2, -1114488.0, -1299090.3, -93637.0, 0.005783089, 0.4067187, -1075307.6, 59519.543, 0.0017550356, 10.000825, 9.998391 
2.1449952e+3, 1.9420649e+2, -1080062.1, -1227066.6, -90605.77, -0.050576776, 0.5768071, -1036893.94, -64.415, 0.00008036648, 10.0004, 9.998396 
2.145019e+3, 2.0420559e+2, -1002067.9, -1170901.5, -56229.18, -0.030762536, 0.6611078, -985055.3, -46213.684, 0.000000018813253, 10.000376, 9.998137 
2.1450442e+3, 2.1420299e+2, -785085.2, -1000255.8, -40708.492, 0.050200608, 0.5508653, -777641.0, 63225.5, 0.0, 10.001154, 9.998242 
2.1450679e+3, 2.2420101e+2, -587719.3, -768172.7, -65667.17, 0.06459132, 0.49155113, -566352.9, 176531.34, 0.0, 10.001435, 9.99905 
2.1450898e+3, 2.3419967e+2, -515391.66, -656385.06, -94024.38, -0.04364968, 0.41317424, -468370.84, 176522.86, 0.0, 10.001186, 9.99924 
2.1451138e+3, 2.4419892e+2, -474156.5, -635618.25, 30920.443, -0.076222196, 0.4346265, -468437.7, 78462.5, 0.0, 10.000972, 9.9988365 
2.1451403e+3, 2.5419894e+2, -396988.9, -530894.5, 43539.74, -0.016245458, 0.51821464, -384076.9, 64825.793, 0.0, 10.000793, 9.998945 
2.145167e+3, 2.6419815e+2, -321897.1, -593632.5, 42679.246, 0.04511653, 0.605832, -315351.47, 35561.51, 0.0, 10.001247, 9.997641 
2.1451923e+3, 2.7419606e+2, -42957.543, -396170.3, 30129.002, 0.055409767, 0.5984287, -40405.977, 212529.83, 0.00000000016893417, 10.002474, 9.997708 
2.1452175e+3, 2.8419387e+2, 151554.11, -172625.66, 90055.52, -0.011509794, 0.57514036, 174891.11, 329846.53, 0.0000002738674, 10.002722, 9.998488 
2.1452436e+3, 2.9419166e+2, 133301.94, -59812.31, 53992.227, -0.09723474, 0.42862332, 147372.28, 204342.98, 0.0000047479944, 10.001666, 9.9990635 
2.1452737e+3, 3.0419126e+2, 185285.98, -76431.445, 69868.87, 0.14154042, 0.48977476, 202770.33, 202770.33, 0.000021563434, 10.001875, 9.998585 
2.1452978e+3, 3.1419018e+2, 239806.56, -166702.7, -88976.04, -0.10256983, 0.48604748, 258428.44, 258428.44, 0.000054127435, 10.002794, 9.997449 
2.154847e+3, 1.3417834e+2, -1707810.5, -1453769.5, -4105.435, -0.044387233, 0.41766915, -1453703.1, 171408.52, 0.43279883, 9.997907, 10.002917 
2.1548691e+3, 1.4418373e+2, -1652893.6, -1611368.3, -101600.805, -0.39912376, 0.78538835, -1528430.4, -1374.1879, 0.28823382, 9.999095, 9.999782 
2.1548952e+3, 1.5418187e+2, -1538778.8, -1440770.8, -65606.55, -0.23797068, 0.5307348, -1407887.0, 21186.28, 0.15688464, 9.998974, 10.000341 
2.1549216e+3, 1.6418111e+2, -1419307.8, -1420633.4, -44107.543, -0.11333948, 0.44939253, -1375858.1, -44778.414, 0.06501248, 9.999524, 9.99953 
2.1549478e+3, 1.7418206e+2, -1169640.1, -1237783.5, -30965.938, -0.06291248, 0.5596027, -1157670.9, 75398.48, 0.018139776, 10.000576, 9.999571 
2.1549724e+3, 1.8418182e+2, -1082576.8, -1255476.1, -121426.18, -0.06337072, 0.6249064, -1019969.9, 115102.25, 0.0026903055, 10.000915, 9.9986515 
2.1549954e+3, 1.9418004e+2, -1057601.9, -1173934.1, -99579.72, -0.08828252, 0.5434533, -1000444.94, 36647.67, 0.00019736934, 10.000376, 9.998768 
2.1550195e+3, 2.0417885e+2, -981372.06, -1101809.0, -42427.797, -0.061325356, 0.55295676, -967926.5, -28820.893, 0.0000007869328, 10.000258, 9.99867 
2.1550454e+3, 2.141785e+2, -770423.3, -935181.0, -3750.8123, 0.04740904, 0.6125213, -770337.94, 70770.266, 0.0, 10.000998, 9.998765 
2.1550696e+3, 2.2417761e+2, -642511.06, -822660.06, -82919.766, 0.058667965, 0.6463131, -610155.56, 132959.9, 0.0, 10.001175, 9.9988 
2.155091e+3, 2.3417589e+2, -558769.75, -709594.94, -91661.88, -0.04927012, 0.5538927, -515485.4, 129644.84, 0.0, 10.001019, 9.998957 
2.1551147e+3, 2.4417466e+2, -497015.2, -608406.7, 14109.083, -0.089341454, 0.5247548, -495255.9, 51884.4, 0.0, 10.000668, 9.99916 
2.1551415e+3, 2.5417405e+2, -395318.03, -491097.2, 47026.137, -0.0088266535, 0.50647813, -376089.28, 73055.02, 0.0, 10.000634, 9.999293 
2.1551685e+3, 2.6417297e+2, -353055.7, -584202.2, 76474.61, 0.056334738, 0.5374903, -330044.88, 21109.428, 0.0, 10.000939, 9.99785 
2.155196e+3, 2.7417114e+2, -59298.453, -381698.72, 87041.76, 0.15347013, 0.5348134, -37299.92, 215874.14, 0.0, 10.002263, 9.997912 
2.1552218e+3, 2.8416884e+2, 21218.676, -330035.97, 42363.375, 0.11084, 0.52980924, 26255.715, 181452.31, 0.000000100631844, 10.002272, 9.997607 
2.1552454e+3, 2.9416618e+2, 9427.952, -239801.16, 43535.72, -0.11449413, 0.4333285, 16813.951, 74034.63, 0.0000031808167, 10.001336, 9.997985 
2.1552737e+3, 3.041665e+2, 68907.38, -107070.21, 86497.77, -0.10217723, 0.6243243, 104303.73, 104303.73, 0.000016664693, 10.001031, 9.998748 
2.1553025e+3, 3.141656e+2, 178412.17, -106005.82, 47594.195, 0.009180344, 0.5634064, 186165.19, 186165.19, 0.00004561872, 10.00201, 9.998233 
2.1648462e+3, 1.3415425e+2, -1581908.1, -1505084.0, 106412.81, 0.016002499, 0.5443272, -1430362.6, 194989.48, 0.45757636, 9.999935, 10.001462 
2.1648674e+3, 1.441579e+2, -1716482.1, -1596040.0, -16726.791, -0.4451804, 0.8242503, -1593760.1, -66445.37, 0.3088363, 9.998502, 10.000168 
2.1648955e+3, 1.5415575e+2, -1381944.6, -1352232.9, 3563.0042, -0.17123628, 0.5053311, -1351811.6, 77519.805, 0.17204043, 10.000053, 10.000494 
2.1649224e+3, 1.6415508e+2, -1332294.4, -1386412.5, 13314.591, 0.0017328894, 0.4312184, -1329196.0, 2139.41, 0.07433442, 10.000121, 9.999495 
2.1649475e+3, 1.7415667e+2, -1309519.8, -1303957.5, 25175.414, -0.07377469, 0.60186607, -1281410.1, -48090.203, 0.022589553, 9.99956, 9.999631 
2.1649721e+3, 1.8415669e+2, -1256227.4, -1324317.9, -40507.516, -0.09175882, 0.684162, -1237358.3, -102037.84, 0.00413868, 9.999676, 9.99877 
2.1649966e+3, 1.9415458e+2, -944554.2, -1117073.8, -67407.5, -0.0402667, 0.56501436, -921340.1, 116003.14, 0.00045452762, 10.001145, 9.998796 
2.1650213e+3, 2.0415318e+2, -757358.0, -981051.44, -31033.615, 0.018316185, 0.5489804, -753132.44, 186224.88, 0.000007502901, 10.001725, 9.9987955 
2.1650463e+3, 2.1415281e+2, -701807.94, -886436.75, -43128.035, 0.028874706, 0.59499025, -692230.3, 149129.0, 0.0, 10.001403, 9.998906 
2.1650706e+3, 2.2415216e+2, -628712.3, -834431.8, -117911.33, 0.033248212, 0.65455925, -575100.94, 168263.67, 0.0, 10.001369, 9.998613 
2.165093e+3, 2.3415099e+2, -441794.97, -679479.44, -145955.94, 0.0025966489, 0.63887215, -372417.63, 272958.2, 0.0, 10.001941, 9.998713 
2.165117e+3, 2.4414961e+2, -307590.16, -551821.25, -57771.03, 0.007901374, 0.6239043, -294614.25, 252773.88, 0.0, 10.002096, 9.998869 
2.1651429e+3, 2.5414792e+2, -261500.75, -445827.0, -91905.805, 0.02273566, 0.52725434, -223507.34, 225894.53, 0.0, 10.001658, 9.999099 
2.1651697e+3, 2.6414663e+2, -255916.19, -502091.9, -30878.963, 0.073471144, 0.52856517, -252101.98, 99311.06, 0.0, 10.001439, 9.998178 
2.1651982e+3, 2.741454e+2, -141950.58, -379034.97, -26885.496, 0.18861149, 0.5527785, -138939.98, 114485.65, 0.0, 10.001518, 9.998282 
2.1652246e+3, 2.841431e+2, -44808.094, -366565.38, -45352.78, 0.18785806, 0.52612716, -38537.664, 116910.18, 0.0000000029805467, 10.001822, 9.997578 
2.1652474e+3, 2.9413992e+2, 117198.45, -197350.56, -24898.568, -0.08554847, 0.4017805, 119157.14, 176635.31, 0.000001345268, 10.002138, 9.997884 
2.1652749e+3, 3.0414087e+2, 160990.36, -140518.47, 80985.49, -0.08795639, 0.6859788, 181366.14, 181366.14, 0.000010778314, 10.00198, 9.998067 
2.1653049e+3, 3.141382e+2, 205093.84, -7989.3735, -92318.086, 0.065848336, 0.5372013, 239526.5, 239526.5, 0.00003608632, 10.001862, 9.998963 
2.174846e+3, 1.3413537e+2, -1760003.1, -1932627.6, -128364.695, -0.08459508, 0.9557922, -1691630.9, -66094.59, 0.48078975, 10.0004015, 9.997438 
2.1748681e+3, 1.4413185e+2, -1693426.1, -1606941.5, 57224.156, -0.30066594, 0.70413315, -1578458.6, -50886.258, 0.32934, 9.998773, 9.999957 
2.1748964e+3, 1.5413083e+2, -1396656.6, -1388872.3, 50244.68, -0.094043136, 0.5243673, -1342369.3, 87206.75, 0.18832743, 10.0000925, 10.000186 
2.1749228e+3, 1.6413032e+2, -1311920.6, -1383285.1, -17726.615, -0.016334146, 0.49634862, -1307760.0, 23816.736, 0.0852701, 10.0002985, 9.999428 
2.1749462e+3, 1.7413083e+2, -1275472.5, -1249944.1, 12842.123, -0.19382198, 0.5265261, -1244601.8, -11031.432, 0.028395085, 9.999633, 9.999958 
2.174971e+3, 1.8413076e+2, -1261986.0, -1358892.5, -3596.7788, -0.23354289, 0.5867879, -1261852.8, -126281.055, 0.006367479, 9.999768, 9.998487 
2.1749981e+3, 1.9412988e+2, -978666.6, -1180961.9, -5998.0537, -0.0179241, 0.63364214, -978488.94, 59094.48, 0.0009868387, 10.001112, 9.99837 
2.1750234e+3, 2.0412834e+2, -798565.44, -1038806.5, -48581.207, 0.040749058, 0.64025027, -789113.3, 150485.88, 0.000047582707, 10.001597, 9.998465 
2.1750467e+3, 2.1412587e+2, -745305.7, -933300.06, -48351.24, -0.10713784, 0.5005106, -733599.0, 108021.53, 0.00000000032497088, 10.001215, 9.998674 
2.1750703e+3, 2.241245e+2, -691148.1, -891989.0, -107291.45, -0.14773302, 0.5131939, -644613.75, 99019.16, 0.0, 10.001064, 9.998364 
2.1750952e+3, 2.3412462e+2, -493234.72, -735580.56, -113244.21, -0.0033404706, 0.6507069, -448554.9, 197079.1, 0.0, 10.001728, 9.9984255 
2.1751198e+3, 2.4412338e+2, -424508.75, -703330.4, -81507.71, 0.04263839, 0.7041727, -402430.0, 145217.5, 0.0, 10.00172, 9.998 
2.1751443e+3, 2.5412035e+2, -355593.44, -590542.2, -97597.07, -0.031177554, 0.5617275, -320341.22, 129336.16, 0.0, 10.001448, 9.998202 
2.1751702e+3, 2.6411888e+2, -277934.38, -463459.5, -39301.176, -0.05575602, 0.57176703, -269952.34, 81738.86, 0.0, 10.001096, 9.998601 
2.1751985e+3, 2.7411875e+2, -137235.44, -318993.22, -6071.888, 0.045103375, 0.6539197, -137032.81, 116657.34, 0.0, 10.001313, 9.998788 
2.1752252e+3, 2.841164e+2, -65756.78, -307770.66, -45272.62, 0.019380063, 0.5686728, -57565.074, 98145.93, 0.0, 10.001408, 9.998171 
2.1752486e+3, 2.941125e+2, 112745.78, -148210.02, -1954.4236, -0.19176191, 0.29729825, 112760.42, 170507.55, 0.00000028754212, 10.001888, 9.998337 
2.1752772e+3, 3.0411294e+2, -72997.67, -459830.0, 41531.215, -0.10509761, 0.61177844, -68589.02, -68589.02, 0.0000061263827, 10.001331, 9.996152 
2.1753056e+3, 3.141094e+2, 106521.48, 7692.2905, 58974.97, -0.09252829, 0.5379891, 134047.44, 134047.44, 0.000027574106, 10.000945, 9.999497 
2.1848704e+3, 1.4410388e+2, -1662781.1, -1772622.4, 13532.396, 0.030888643, 0.54948056, -1661138.5, -133294.94, 0.34983045, 9.999684, 9.998371 
2.184898e+3, 1.5410465e+2, -1438950.3, -1392528.8, -101071.01, 0.07877965, 0.56961465, -1312037.6, 117796.03, 0.2059314, 9.999676, 10.000443 
2.1849202e+3, 1.6410549e+2, -1617704.3, -1529055.3, -91978.766, -0.19425403, 0.65789044, -1471278.0, -139455.48, 0.09816949, 9.998196, 9.999436 
2.1849468e+3, 1.7410412e+2, -1170259.5, -1207536.8, -90014.19, -0.13339981, 0.5138289, -1096974.5, 136858.6, 0.036017943, 10.000462, 9.999849 
2.1849725e+3, 1.8410322e+2, -999041.9, -1241417.0, -116838.766, -0.13005497, 0.5006059, -951891.3, 183950.22, 0.009796201, 10.001592, 9.998427 
2.1849988e+3, 1.941031e+2, -995685.7, -1194936.5, -113347.53, -0.037275463, 0.62483865, -944404.25, 93441.48, 0.0020521113, 10.0009985, 9.998325 
2.1850245e+3, 2.0410189e+2, -944358.0, -1104816.4, -116384.25, 0.031546343, 0.66473573, -883229.44, 56628.55, 0.00020967671, 10.000599, 9.99849 
2.1850483e+3, 2.1409899e+2, -781417.8, -947989.1, -122341.75, -0.032773856, 0.48195422, -716703.44, 125179.51, 0.00000086887735, 10.0009575, 9.998704 
2.1850723e+3, 2.2409718e+2, -665479.4, -883399.0, -122914.9, -0.055626582, 0.44962826, -610182.3, 133717.11, 0.0, 10.001231, 9.998359 
2.1850964e+3, 2.3409687e+2, -516260.8, -737585.7, -126009.27, -0.016532406, 0.5465867, -459219.63, 186684.52, 0.0, 10.001544, 9.998499 
2.185121e+3, 2.4409586e+2, -442052.13, -717213.0, -61033.47, 0.033084046, 0.61817414, -429121.88, 118793.74, 0.0, 10.001607, 9.997966 
2.1851462e+3, 2.540938e+2, -382015.88, -616338.94, -41645.723, 0.056016542, 0.57940495, -374834.38, 75102.96, 0.0, 10.001287, 9.998117 
2.1851723e+3, 2.6409236e+2, -279412.38, -478348.28, 64544.5, 0.06272006, 0.59913915, -260306.02, 91645.34, 0.0, 10.001128, 9.998493 
2.1851994e+3, 2.7409092e+2, -132198.8, -332591.66, 27400.922, 0.017745126, 0.5722539, -128519.66, 125442.875, 0.0, 10.001409, 9.998662 
2.1852258e+3, 2.8408903e+2, 9265.906, -238390.84, -19854.014, -0.033622935, 0.5204275, 10847.452, 166826.63, 0.0, 10.001746, 9.998504 
2.1852513e+3, 2.940872e+2, 148823.84, -110560.46, -40389.3, -0.11609299, 0.43515655, 154967.44, 212963.98, 0.000000027227998, 10.002023, 9.998546 
2.1852805e+3, 3.0408615e+2, 23363.596, -428053.06, 61890.043, 0.09041037, 0.5925826, 31695.064, 31695.064, 0.0000044959556, 10.001969, 9.996113 
2.1853061e+3, 3.1408244e+2, 235309.8, 238477.22, 96166.64, -0.13090618, 0.52814883, 333073.2, 333073.2, 0.000025056477, 10.000959, 10.001153 
2.1948713e+3, 1.4407226e+2, -1757567.0, -1977076.5, 216400.25, 0.066772476, 0.37752548, -1624679.8, -96534.66, 0.371045, 9.999766, 9.996909 
2.1948992e+3, 1.540764e+2, -1350437.6, -1234921.0, -174081.1, 0.19701935, 0.63475555, -1109266.6, 320845.53, 0.22535217, 9.999787, 10.00177 
2.194914e+3, 1.6408058e+2, -1590526.3, -1489539.6, -68552.7, -0.6957263, 0.93836063, -1454891.6, -122818.5, 0.113554515, 9.998277, 9.999666 
2.194949e+3, 1.7407626e+2, -1218704.6, -1305780.0, 5117.7163, 0.0114628095, 0.5608197, -1218404.9, 15706.253, 0.046104282, 10.000448, 9.999166 
2.1949765e+3, 1.8407367e+2, -966874.94, -1192847.4, -130600.945, 0.07057276, 0.4051066, -907169.3, 228965.34, 0.015073848, 10.001676, 9.998727 
2.1949986e+3, 1.9407421e+2, -964681.44, -1126017.3, -133066.67, -0.20210513, 0.5529904, -889740.7, 148389.66, 0.004138987, 10.000985, 9.998808 
2.1950234e+3, 2.040738e+2, -944057.1, -1077409.9, -120336.44, -0.17277034, 0.636422, -873159.56, 66974.22, 0.00072646124, 10.000486, 9.998731 
2.195051e+3, 2.1407196e+2, -796286.56, -929415.06, -101799.65, 0.122713156, 0.534688, -741220.4, 100928.51, 0.000022642807, 10.0007515, 9.998922 
2.1950758e+3, 2.2407e+2, -694327.0, -867282.5, -120311.4, 0.14336452, 0.46077317, -632638.5, 111527.11, 0.000000000011542125, 10.000902, 9.998626 
2.1950969e+3, 2.3406771e+2, -520025.88, -706002.1, -104674.03, -0.14651416, 0.3261091, -473001.7, 173185.0, 0.0, 10.0013685, 9.998799 
2.1951209e+3, 2.4406697e+2, -449522.47, -641363.44, -81186.9, -0.18901081, 0.37678665, -419776.5, 128416.86, 0.0, 10.001229, 9.998661 
2.1951486e+3, 2.540681e+2, -360130.1, -528738.9, -44716.305, 0.15503532, 0.583884, -349005.03, 101178.234, 0.0, 10.00111, 9.998801 
2.1951756e+3, 2.6406664e+2, -393107.34, -623250.25, 59798.996, 0.23963761, 0.60810554, -378497.03, -26299.768, 0.0, 10.000757, 9.997662 
2.1952005e+3, 2.740616e+2, -228404.22, -474375.3, 53557.47, -0.031240951, 0.29688203, -217248.63, 36997.176, 0.0, 10.001181, 9.997779 
2.1952266e+3, 2.8406033e+2, -56534.84, -277344.72, -20456.658, -0.17039283, 0.3585364, -54655.652, 101602.836, 0.0, 10.0013485, 9.998418 
2.1952546e+3, 2.940638e+2, 96065.17, -149720.67, -8313.643, -0.007086355, 0.8093573, 96346.055, 154573.86, 0.000000020729713, 10.001726, 9.998416 
2.1952839e+3, 3.0405965e+2, 25499.836, -253268.52, 29722.758, 0.17777549, 0.60200554, 28633.697, 28633.697, 0.0000055230016, 10.001287, 9.997607 
2.195306e+3, 3.1405574e+2, 157701.14, 321934.94, 55354.336, -0.30500856, 0.32105145, 338849.8, 338849.8, 0.000029811183, 10.00001, 10.002132 
2.2048675e+3, 1.4404404e+2, -1707824.9, -1896457.8, 340054.94, -0.28534487, 0.36726677, -1449249.0, 79172.54, 0.39437363, 10.000113, 9.99742 
2.2048993e+3, 1.5404812e+2, -1446876.8, -1277196.6, -195136.53, 0.26610836, 0.66778207, -1149254.9, 281135.3, 0.24751917, 9.999069, 10.001851 
2.2049123e+3, 1.6405141e+2, -1341157.3, -1338206.0, -88133.78, -0.7483449, 0.8502477, -1251535.5, 80825.44, 0.13222682, 9.999857, 10.000006 
2.204949e+3, 1.7404848e+2, -1298633.9, -1354731.6, 34850.77, 0.012013451, 0.6091879, -1281946.6, -47560.37, 0.059555795, 9.999873, 9.999142 
2.204978e+3, 1.8404648e+2, -1224933.1, -1260135.3, -86435.21, 0.16938418, 0.49452624, -1154325.1, -17921.646, 0.023171267, 9.999641, 9.999245 
2.2049995e+3, 1.9404662e+2, -1059535.0, -1105771.0, -105473.34, -0.14857987, 0.54057384, -974675.8, 63725.31, 0.008108057, 10.000044, 9.999419 
2.2050239e+3, 2.0404644e+2, -940421.56, -1036846.6, -51043.324, -0.14031602, 0.5996768, -918421.06, 21980.195, 0.0021629941, 10.000334, 9.999093 
2.205052e+3, 2.1404561e+2, -777751.9, -887144.5, -40884.086, 0.16365658, 0.5689792, -764160.6, 78246.77, 0.00023583506, 10.000719, 9.999234 
2.2050771e+3, 2.2404407e+2, -703951.5, -838333.6, -50276.277, 0.22351275, 0.5072691, -687223.9, 57196.58, 0.0000019906881, 10.000687, 9.998932 
2.2050984e+3, 2.3404185e+2, -680154.2, -755681.8, -64247.715, -0.061181433, 0.35367212, -643393.7, 3046.395, 0.0, 10.000131, 9.999071 
2.2051226e+3, 2.4404103e+2, -569869.4, -680289.56, -15315.817, -0.09456474, 0.37644377, -567784.4, -19337.777, 0.0, 10.000313, 9.998838 
2.2051504e+3, 2.54042e+2, -264979.97, -450172.5, -40905.215, 0.17955714, 0.5450332, -256347.27, 194088.97, 0.0, 10.001683, 9.999038 
2.2051772e+3, 2.6404038e+2, -147078.72, -517192.72, 69063.85, 0.25972155, 0.5440258, -134611.27, 217839.78, 0.0, 10.002485, 9.997568 
2.2052029e+3, 2.7403525e+2, -53449.652, -416738.9, 97289.26, 0.0300778, 0.24734518, -29036.107, 225464.72, 0.0, 10.002463, 9.997577 
2.2052293e+3, 2.8403428e+2, 13693.436, -257122.67, 54337.254, -0.058936153, 0.34969845, 24189.041, 180700.08, 0.0, 10.001888, 9.998294 
2.2052564e+3, 2.940373e+2, -27350.072, -213427.08, 10548.242, 0.04662211, 0.7801293, -26754.03, 31730.063, 0.00000007580395, 10.000904, 9.998374 
2.2052847e+3, 3.0403233e+2, -6516.5557, -269632.97, 76723.484, 0.16085291, 0.47171345, 14221.183, 14221.183, 0.0000083740215, 10.00104, 9.997628 
2.2053088e+3, 3.14031e+2, 443840.1, 321641.75, -163729.61, -0.11578828, 0.4892396, 557499.3, 557499.3, 0.000042885644, 10.002532, 10.000911 
2.2148657e+3, 1.4402182e+2, -1497177.1, -1485856.3, -28978.701, -0.5802016, 0.79309183, -1461990.4, 66657.44, 0.4221777, 10.000088, 10.000339 
2.2148982e+3, 1.5401965e+2, -1542652.1, -1449585.0, -149330.66, 0.228125, 0.67722046, -1339705.6, 90963.48, 0.27423543, 9.999017, 10.000406 
2.2149149e+3, 1.6401751e+2, -1279856.8, -1250331.1, -86123.914, -0.54312426, 0.3823734, -1177713.9, 154976.19, 0.15564767, 10.00003, 10.000593 
2.2149463e+3, 1.740208e+2, -1239096.5, -1234784.8, 30975.986, -0.2615641, 0.6685477, -1205889.8, 28768.28, 0.07778218, 9.999893, 9.999959 
2.2149765e+3, 1.8402179e+2, -1175626.9, -1171333.4, -88560.64, 0.014393481, 0.78353685, -1084893.5, 51753.42, 0.035576556, 9.9997, 9.999835 
2.2150013e+3, 1.940202e+2, -1026107.5, -1013065.1, -82284.08, 0.013879131, 0.5930534, -937044.25, 101614.586, 0.0154146915, 9.999951, 10.0001 
2.2150256e+3, 2.0401958e+2, -927079.9, -977795.8, -43906.195, -0.0316303, 0.5432516, -901735.0, 38927.582, 0.005714695, 10.000193, 9.999568 
2.215051e+3, 2.1401976e+2, -772272.94, -838029.7, -16835.209, -0.0239421, 0.57374305, -768213.4, 74446.92, 0.0013616167, 10.000555, 9.99965 
2.2150762e+3, 2.2401954e+2, -742660.9, -838116.1, -78739.09, 0.017267756, 0.61481297, -698313.7, 46348.46, 0.00013056793, 10.000345, 9.999097 
2.2151005e+3, 2.3401901e+2, -696698.7, -743950.9, -75216.98, 0.11662174, 0.60951984, -641484.5, 5182.8994, 0.0000045921656, 9.999929, 9.9992485 
2.2151253e+3, 2.4401776e+2, -657390.2, -762581.5, 12133.287, 0.12857756, 0.60000116, -656008.8, -107330.984, 0.000000030624218, 9.9999075, 9.998459 
2.2151506e+3, 2.540153e+2, -329812.72, -520439.75, 19958.045, 0.028703544, 0.46041116, -327745.6, 122952.21, 0.0, 10.001421, 9.9986725 
2.2151773e+3, 2.6401305e+2, -175714.05, -476857.22, 56679.46, -0.018325478, 0.39557698, -165399.45, 187317.47, 0.0, 10.002075, 9.998037 
2.215206e+3, 2.7401158e+2, -56485.76, -353755.66, 101686.43, 0.07460595, 0.40356234, -25030.518, 229700.58, 0.0, 10.00218, 9.998137 
2.2152327e+3, 2.840105e+2, -93570.67, -359771.47, 1821.9755, 0.067579284, 0.4848204, -93558.2, 63182.555, 0.0, 10.001397, 9.997811 
2.2152561e+3, 2.940076e+2, -89693.805, -284036.03, -8559.007, -0.08812966, 0.36609483, -89317.586, -30550.807, 0.00000027397763, 10.0006695, 9.99799 
2.2152825e+3, 3.0400372e+2, -168746.75, -478615.8, 111876.484, -0.21757466, 0.22972608, -132576.44, -132576.44, 0.000015050563, 10.000539, 9.996408 
2.2153118e+3, 3.14007e+2, 3029.5913, -350737.88, 20943.22, -0.14122173, 0.85614264, 4265.126, 4265.126, 0.00007034586, 10.001545, 9.996741 
2.224868e+3, 1.4399117e+2, -1845191.9, -1200456.6, 1057.5637, -0.117592394, 0.7563641, -1200454.9, 328494.4, 0.45833316, 9.994418, 10.006679 
2.2248963e+3, 1.5399128e+2, -1435257.0, -1463907.9, -43278.1, 0.088014245, 0.5691126, -1403995.0, 26950.592, 0.30885017, 10.0000925, 9.999631 
2.224918e+3, 1.6398977e+2, -1203095.9, -1248976.4, 2606.0767, -0.25821686, 0.41441208, -1202948.4, 130011.914, 0.18666483, 10.000852, 10.000217 
2.224946e+3, 1.7399316e+2, -1160876.1, -1165654.4, 25645.465, -0.29811198, 0.6929808, -1137508.8, 97419.26, 0.103338934, 10.000357, 10.000246 
2.2249755e+3, 1.8399435e+2, -1164691.3, -1138708.4, -83790.07, -0.038235996, 0.79796094, -1066908.5, 70006.51, 0.054786276, 9.999635, 10.000116 
2.2250025e+3, 1.9399254e+2, -1005351.5, -976078.1, -115856.68, 0.1316043, 0.5598878, -873937.25, 164991.44, 0.028543482, 9.999958, 10.000365 
2.2250271e+3, 2.0399192e+2, -926415.5, -953316.8, -89178.51, 0.11567272, 0.48479655, -849679.0, 91253.69, 0.013685946, 10.000114, 9.999766 
2.2250511e+3, 2.1399279e+2, -839412.7, -854861.9, -111109.414, -0.0585733, 0.56981134, -735759.7, 107165.69, 0.005262215, 10.000042, 9.9997835 
2.2250757e+3, 2.2399315e+2, -740152.06, -845300.25, -164691.44, -0.046488795, 0.6656659, -619846.7, 125076.25, 0.001420654, 10.000374, 9.999043 
2.2251016e+3, 2.33993e+2, -504243.56, -654422.7, -194321.2, 0.1679854, 0.7058759, -371008.44, 275917.06, 0.0002619265, 10.001251, 9.999233 
2.2251269e+3, 2.4399163e+2, -423421.22, -652057.0, -77431.3, 0.23366658, 0.68653023, -399665.97, 149271.47, 0.000035642544, 10.001507, 9.998462 
2.2251521e+3, 2.539884e+2, -380836.94, -546253.1, -53030.547, 0.05413389, 0.47090426, -365296.0, 85667.66, 0.0000011567587, 10.001022, 9.998718 
2.2251785e+3, 2.6398617e+2, -385363.22, -558774.5, -9848.889, 0.0005853693, 0.39867052, -384805.63, -31823.078, 0.0, 10.000543, 9.998216 
2.2252075e+3, 2.7398586e+2, -289447.06, -436332.63, -29217.02, 0.103854716, 0.51009953, -283848.88, -28862.137, 0.0, 10.0004835, 9.998382 
2.225234e+3, 2.8398487e+2, -168862.67, -412618.44, -97542.414, 0.10399551, 0.593865, -134635.66, 22359.916, 0.0, 10.000936, 9.997688 
2.2252573e+3, 2.939804e+2, 182380.84, -168770.33, -111343.72, -0.122732766, 0.3464376, 214709.58, 273745.72, 0.00000073017384, 10.002618, 9.99784 
2.2252841e+3, 3.0397704e+2, 219873.44, -231640.47, 52757.594, -0.18113513, 0.23122035, 225956.02, 225956.02, 0.00002755439, 10.00292, 9.996986 
2.2253127e+3, 3.1397915e+2, -83851.27, -355990.16, 8149.052, -0.14974324, 0.73527825, -83607.47, -83607.47, 0.000118261974, 10.000732, 9.997145 
2.2348924e+3, 1.5396346e+2, -1473613.4, -1478013.3, -50143.715, -0.33788353, 0.40767014, -1425621.4, 5594.0195, 0.35698506, 9.99984, 9.9995985 
2.2349216e+3, 1.639677e+2, -1297699.5, -1459479.0, -7368.7754, -0.039440293, 0.9096486, -1297364.5, 35810.75, 0.23053116, 10.000815, 9.998659 
2.2349475e+3, 1.7396522e+2, -1197373.5, -1220595.4, 5225.6587, -0.20157728, 0.6599874, -1196251.8, 38947.313, 0.14104874, 10.000265, 9.999874 
2.2349744e+3, 1.8396391e+2, -1171451.0, -1148504.1, -90357.64, -0.17094894, 0.52215016, -1068894.4, 68315.92, 0.08532412, 9.9996195, 10.000063 
2.2350022e+3, 1.9396353e+2, -1025169.7, -1000550.1, -95092.62, 0.094239056, 0.43974954, -916973.8, 122237.516, 0.05187056, 9.999886, 10.000241 
2.2350278e+3, 2.0396364e+2, -966885.4, -994584.9, -100320.305, 0.1424182, 0.45365, -879463.3, 61746.535, 0.030293982, 9.999937, 9.999569 
2.2350512e+3, 2.1396449e+2, -874696.7, -885529.0, -106074.97, -0.053641316, 0.551724, -773899.7, 69304.72, 0.015773455, 9.999859, 9.999663 
2.2350754e+3, 2.2396469e+2, -812556.1, -909100.94, -143590.66, -0.13423409, 0.65095294, -709340.9, 35863.867, 0.0069356123, 10.000012, 9.99877 
2.235101e+3, 2.3396385e+2, -545445.8, -697738.9, -148160.4, -0.025338197, 0.636825, -455009.63, 192204.6, 0.002541045, 10.001065, 9.999019 
2.2351266e+3, 2.4396265e+2, -465758.28, -646866.56, -105041.766, 0.048974466, 0.63989604, -417626.38, 131598.4, 0.00075579167, 10.001124, 9.998671 
2.235154e+3, 2.5396124e+2, -387558.16, -501423.66, -63513.14, 0.12165885, 0.5604912, -359195.78, 92038.12, 0.00014769337, 10.000775, 9.999138 
2.2351804e+3, 2.6395968e+2, -482980.03, -647036.75, -38598.8, 0.10543177, 0.5515902, -474352.3, -121104.69, 0.000007045108, 10.000078, 9.997817 
2.235207e+3, 2.7395812e+2, -349899.56, -504857.0, -22165.354, -0.007998663, 0.568178, -346791.34, -91524.695, 0.00000000065814787, 10.000246, 9.998011 
2.2352329e+3, 2.8395718e+2, -243087.75, -448744.0, -68742.41, -0.13553207, 0.6655275, -222226.19, -64948.63, 0.0, 10.000468, 9.997643 
2.2352593e+3, 2.9395518e+2, 93576.87, -236573.84, -32280.684, -0.2295477, 0.6639312, 96703.516, 155998.67, 0.0000012574419, 10.002152, 9.997577 
2.2352888e+3, 3.0395126e+2, 191733.83, -88435.234, -35627.1, -0.057864446, 0.45402697, 196193.3, 196193.3, 0.000044073433, 10.002102, 9.998339 
2.2353125e+3, 3.1394964e+2, 19201.537, 126739.15, 38363.184, -0.27695212, 0.3909492, 139021.97, 139021.97, 0.00018419352, 9.999671, 10.000935 
2.2448938e+3, 1.5393573e+2, -1596419.6, -1502140.5, -83208.55, -0.16549215, 0.41351756, -1453646.4, -22159.988, 0.42759266, 9.998803, 9.999822 
2.244924e+3, 1.6394046e+2, -1252849.5, -1383149.8, -11856.675, 0.12965222, 0.8913125, -1251779.4, 81662.6, 0.29616648, 10.001082, 9.999065 
2.2449484e+3, 1.7393689e+2, -1274141.4, -1268345.0, -11009.805, -0.096791215, 0.5381907, -1259858.3, -24384.627, 0.19952731, 9.999736, 9.999786 
2.244974e+3, 1.8393534e+2, -1246972.0, -1187216.1, -29033.063, -0.13443181, 0.3819161, -1175433.4, -37946.47, 0.13536815, 9.999095, 10.000021 
2.2450016e+3, 1.9393674e+2, -966273.7, -977589.4, -40155.74, 0.051910046, 0.47931784, -931379.2, 108094.664, 0.09319166, 10.000323, 10.000222 
2.2450279e+3, 2.0393756e+2, -851588.8, -978705.6, -54245.93, 0.11769175, 0.5777852, -831587.1, 109880.08, 0.06306426, 10.000876, 9.999267 
2.2450517e+3, 2.1393712e+2, -817133.44, -896793.06, -99431.195, 0.0016273818, 0.58651656, -749851.25, 93622.68, 0.0400799, 10.0004015, 9.999354 
2.2450764e+3, 2.239363e+2, -756439.9, -877190.3, -81687.8, -0.056665346, 0.6054276, -715237.2, 30246.17, 0.023131557, 10.000358, 9.99884 
2.2451018e+3, 2.3393522e+2, -584577.94, -698628.2, -93070.74, -0.029519834, 0.5522013, -532451.7, 115042.77, 0.011994159, 10.000726, 9.999186 
2.2451279e+3, 2.4393418e+2, -472316.44, -686450.56, -57230.355, 0.0594724, 0.5819322, -457980.6, 91523.13, 0.0054928027, 10.001191, 9.998389 
2.2451556e+3, 2.5393364e+2, -271296.16, -472590.53, -84500.47, 0.18348245, 0.6180278, -240527.27, 210979.48, 0.002050329, 10.001683, 9.99891 
2.245182e+3, 2.6393226e+2, -258382.06, -552046.1, -61517.668, 0.17465635, 0.64572185, -246015.89, 107504.43, 0.0004876709, 10.00166, 9.997715 
2.2452073e+3, 2.7392974e+2, -120331.04, -392173.44, -32012.385, -0.053835627, 0.5755185, -116612.11, 138935.77, 0.000047167257, 10.001812, 9.998035 
2.2452334e+3, 2.8392902e+2, -82981.76, -345666.84, -30706.139, -0.16757655, 0.67560095, -79440.164, 78116.875, 0.00000034188096, 10.001439, 9.997894 
2.2452615e+3, 2.939286e+2, 950.9271, -278461.66, -14055.996, -0.15927026, 0.83853805, 1656.241, 61216.96, 0.0000013302117, 10.001457, 9.997654 
2.2452915e+3, 3.0392408e+2, 68807.13, -114734.914, -59807.234, 0.068506576, 0.5330396, 86575.266, 86575.266, 0.0000584347, 10.001048, 9.998677 
2.2453137e+3, 3.1392205e+2, 143569.98, 327786.13, -212132.17, -0.12787667, 0.42474648, 466944.03, 466944.03, 0.00025945, 9.999798, 10.00227 
2.2549246e+3, 1.639087e+2, -1241417.1, -1241033.9, -44171.33, -0.038243767, 0.45515713, -1197053.8, 136700.06, 0.39765337, 10.000544, 10.000696 
2.2549488e+3, 1.7390795e+2, -1272101.6, -1248598.1, -70499.43, -0.112468556, 0.3163618, -1188877.6, 46876.2, 0.29298013, 9.999678, 10.000015 
2.2549744e+3, 1.8390843e+2, -1309076.0, -1258671.0, -38381.51, -0.094778754, 0.3697237, -1237957.1, -100210.14, 0.21888196, 9.998856, 9.99963 
2.2550008e+3, 1.9391167e+2, -1005151.4, -1002299.6, 40.1707, -0.12082571, 0.65169334, -1002299.06, 37422.004, 0.16615056, 10.000081, 10.000158 
2.2550265e+3, 2.0391324e+2, -922516.0, -1060459.1, -71825.94, -0.152121, 0.8298487, -891908.25, 49800.754, 0.12546477, 10.000598, 9.998819 
2.255052e+3, 2.1391048e+2, -880335.75, -987750.7, -108238.875, -0.03948481, 0.649846, -813212.1, 30523.488, 0.0914258, 10.000233, 9.998792 
2.2550777e+3, 2.2390804e+2, -807048.9, -900280.06, -76218.47, 0.0077512464, 0.5346557, -764320.94, -18562.258, 0.062582165, 9.999997, 9.998857 
2.2551037e+3, 2.3390697e+2, -594416.25, -671309.2, -67909.7, 0.054383006, 0.4521966, -554825.1, 92942.695, 0.039919913, 10.000515, 9.999484 
2.2551297e+3, 2.4390608e+2, -627660.1, -854577.75, -59336.566, 0.076939836, 0.5220691, -613080.94, -63304.777, 0.023601582, 10.000551, 9.997528 
2.2551568e+3, 2.5390562e+2, -374888.1, -607062.75, -59063.836, 0.104995996, 0.6395183, -360726.4, 91055.336, 0.012405956, 10.001366, 9.998123 
2.2551824e+3, 2.6390368e+2, -340193.72, -600285.5, -85982.3, 0.027476853, 0.67243516, -314339.38, 39462.242, 0.005154125, 10.001169, 9.997611 
2.255208e+3, 2.7390063e+2, -162490.13, -373078.84, -18567.596, -0.18285339, 0.50592995, -160865.56, 94966.11, 0.0013586987, 10.001378, 9.9983635 
2.2552346e+3, 2.8390014e+2, -189667.45, -392756.72, -68729.98, -0.23437199, 0.61147135, -168594.3, -10757.288, 0.00015517221, 10.000734, 9.9978895 
2.2552642e+3, 2.93901e+2, -53637.78, -267124.63, 4172.945, -0.070958, 0.9004012, -53556.246, 6273.2334, 0.0000026982873, 10.001, 9.9979105 
2.2552915e+3, 3.038958e+2, -92700.805, -287970.22, -118612.305, -0.09904412, 0.52631694, -36707.99, -36707.99, 0.000065484004, 10.000409, 9.997773 
2.2553128e+3, 3.138931e+2, -69795.836, 83984.67, -101608.195, -0.2586013, 0.48381954, 134516.3, 134516.3, 0.00034262822, 9.999018, 10.000953 
2.2649477e+3, 1.7388411e+2, -1099601.9, -956427.2, -161423.83, -0.13419877, 0.87721837, -851429.1, 384566.53, 0.44342524, 9.999298, 10.00384 
2.264978e+3, 1.8388404e+2, -1116865.9, -1279796.5, 49589.824, 0.29558164, 0.4802439, -1102959.5, 35026.99, 0.3585124, 10.000651, 9.998659 
2.2650012e+3, 1.93884e+2, -1240234.9, -1254684.1, -60902.367, -0.013495747, 0.6104463, -1186130.1, -146137.11, 0.29413474, 9.999046, 9.998813 
2.2650258e+3, 2.0388345e+2, -1062857.8, -1060788.1, -101372.64, -0.20211278, 0.6132102, -960445.0, -18443.875, 0.24160613, 9.999172, 9.999546 
2.2650518e+3, 2.1388227e+2, -734044.06, -828835.56, -58231.94, -0.119262226, 0.5212538, -706357.75, 137652.3, 0.1940874, 10.000989, 9.999592 
2.2650784e+3, 2.238811e+2, -525050.6, -781968.75, 8295.355, -0.032928135, 0.49908552, -524783.06, 221236.72, 0.14888066, 10.002302, 9.99858 
2.2651042e+3, 2.3388037e+2, -441280.75, -642823.25, -64411.766, 0.014623125, 0.51837903, -422453.84, 225573.14, 0.108788945, 10.001954, 9.999003 
2.2651306e+3, 2.4387905e+2, -441393.97, -763358.7, -28459.072, 0.0735155, 0.5754817, -438897.78, 111142.945, 0.07581198, 10.001804, 9.99758 
2.2651587e+3, 2.5387767e+2, -267495.06, -560018.8, 8458.373, 0.15154423, 0.59324485, -267250.72, 184805.03, 0.048806984, 10.002073, 9.998174 
2.2651844e+3, 2.6387513e+2, -261457.5, -628981.4, -6543.235, 0.101321325, 0.5996599, -261341.05, 92740.67, 0.026684597, 10.001924, 9.997092 
2.2652102e+3, 2.738717e+2, -84358.66, -387510.2, -15051.711, -0.12518345, 0.44216722, -83613.16, 172502.25, 0.010897145, 10.002047, 9.997995 
2.2652361e+3, 2.838708e+2, -192919.47, -360847.47, -87546.65, -0.12517856, 0.51306826, -155580.67, 2544.262, 0.002788968, 10.000526, 9.998231 
2.2652663e+3, 2.938721e+2, 17769.129, -186838.16, 31003.143, 0.04737112, 0.8214576, 22363.709, 82476.39, 0.0003034348, 10.001313, 9.998315 
2.2652924e+3, 3.0386788e+2, 79181.43, -259732.47, -80780.805, -0.08966807, 0.50200886, 97450.87, 97450.87, 0.000074942734, 10.001879, 9.997272 
2.2653145e+3, 3.1386334e+2, 194281.4, -22130.596, -117569.38, -0.14325541, 0.5098379, 245859.95, 245859.95, 0.00045627946, 10.001706, 9.999035 
2.2750258e+3, 2.0385249e+2, -1134249.0, -1062622.1, -26851.447, -0.17001054, 0.4020068, -1053673.9, -111372.445, 0.4526298, 9.998568, 9.999771 
2.2750537e+3, 2.138559e+2, -827863.2, -730340.1, 3546.9546, -0.061683103, 0.5646909, -730211.3, 114052.15, 0.38963944, 9.99932, 10.001454 
2.2750832e+3, 2.2385658e+2, -1154211.0, -1235092.0, -29157.414, 0.18893154, 0.6327823, -1144795.8, -398539.72, 0.32267725, 9.998315, 9.997341 
2.275106e+3, 2.3385426e+2, -922195.3, -1029871.8, -57064.17, -0.04745726, 0.60169154, -897580.56, -249297.08, 0.25840095, 9.999138, 9.997625 
2.2751309e+3, 2.438516e+2, -607498.9, -862599.7, -17395.129, -0.17592344, 0.6138163, -606318.2, -56006.438, 0.20062341, 10.000699, 9.9973955 
2.2751619e+3, 2.538494e+2, -338742.56, -500450.78, 26616.318, 0.20837362, 0.4238733, -334474.3, 117857.73, 0.14660953, 10.001315, 9.998899 
2.275188e+3, 2.6384687e+2, -618704.1, -1007931.0, -44241.246, 0.20731618, 0.47509304, -613738.8, -259381.48, 0.09444842, 10.000383, 9.995192 
2.2752139e+3, 2.7384382e+2, -249209.89, -579846.2, -15346.538, -0.010826802, 0.44848567, -248499.11, 7891.431, 0.04983968, 10.001429, 9.996927 
2.2752377e+3, 2.838416e+2, -343245.7, -413369.94, -178584.03, -0.05809799, 0.43701333, -196314.38, -37900.45, 0.019500945, 9.999461, 9.998354 
2.2752671e+3, 2.9384196e+2, -57342.97, -181411.7, 67204.57, -0.019365836, 0.56635994, -27918.51, 32491.375, 0.004786881, 10.000678, 9.998622 
2.275293e+3, 3.0384016e+2, -142410.17, -438595.47, -144932.31, -0.2746319, 0.4635754, -83290.836, -83290.836, 0.0007184054, 10.000765, 9.996532 
2.275316e+3, 3.1383574e+2, -304654.13, -612814.75, 7867.316, -0.22037378, 0.62957925, -304453.4, -304453.4, 0.0007782504, 10.0000105, 9.995688 
2.2851372e+3, 2.4382392e+2, -561590.06, -1146734.6, 83642.86, 0.22075832, 0.7764638, -549868.6, 714.64813, 0.45869297, 10.001461, 9.995624 
2.2851619e+3, 2.5381634e+2, -463034.84, -479925.5, -326406.25, 0.13847686, 0.23550941, -144964.69, 307700.0, 0.36361384, 10.000314, 10.000241 
2.2851838e+3, 2.6382476e+2, -411803.44, -535698.06, -143662.58, -0.28308117, 1.1269922, -317301.4, 37282.957, 0.26167566, 10.000026, 9.998718 
2.2852173e+3, 2.738213e+2, 16097.355, -269414.97, 124682.63, 0.1706715, 0.8671624, 62880.316, 319495.84, 0.1640845, 10.00277, 9.998581 
2.2852412e+3, 2.8381613e+2, -127170.63, -426024.25, -47048.44, 0.26896453, 0.57379645, -119938.81, 38725.97, 0.0825175, 10.001359, 9.997412 
2.2852668e+3, 2.9381457e+2, 376945.56, -4267.478, 256579.1, -0.24589153, 0.55998, 505969.6, 566651.9, 0.030766618, 10.003718, 9.998497 
2.2852959e+3, 3.0381575e+2, 499354.03, 292959.94, -47614.813, -0.17377956, 0.6060225, 509809.1, 509809.1, 0.009050321, 10.003198, 10.0004635 
2.285315e+3, 3.138136e+2, -644779.94, -93907.8, 109042.06, -0.028531343, 0.5644444, -73108.82, -73108.82, 0.003966084, 9.994682, 10.001796 
2.2952187e+3, 2.7379563e+2, 9182.636, 68681.76, 89445.05, 0.0037394671, 0.84561646, 133194.88, 390067.9, 0.434636, 10.001613, 10.002981 
2.2952466e+3, 2.8379306e+2, -1093846.1, -1436552.1, -284090.78, 0.57536, 0.71566564, -933431.94, -774541.7, 0.25417706, 9.997145, 9.992421 
2.2952656e+3, 2.937937e+2, 137068.83, -194157.6, 423932.63, -0.8286706, 0.9213048, 426589.25, 487482.6, 0.12176558, 10.002766, 9.997634 
2.2953005e+3, 3.0379823e+2, -172512.56, 402751.47, -293013.56, -0.17807943, 1.1571823, 525715.5, 525715.5, 0.053999685, 9.996796, 10.004336 
2.295315e+3, 3.1379282e+2, -61863.02, 1524802.4, -472742.5, 0.33635888, -0.2367474, 1654975.1, 1654975.1, 0.031473186, 9.993046, 10.013884 
2.3052722e+3, 2.937741e+2, -171693.38, 458369.4, -121090.195, -0.5681181, 0.5782585, 480840.03, 541920.94, 0.36122057, 9.995076, 10.008326 
2.305312e+3, 3.0378056e+2, -470371.6, -31752.645, 283667.06, 0.7132793, 0.32195356, 107495.6, 107495.6, 0.21503207, 9.99563, 10.00201 
2.3053059e+3, 3.1378177e+2, 138598.81, -1056442.1, -46984.523, -0.7137874, 1.2638121, 140443.22, 140443.22, 0.16744383, 10.005311, 9.990758 
2.347157e+3, 2.7519676e+2, -645977.7, -692199.44, 449530.44, 0.21971206, -0.3299551, -218964.42, 24094.3, 0.45051968, 9.997532, 9.997324 
2.3467436e+3, 2.851933e+2, 327558.34, -292203.38, -471231.03, -0.5231862, 0.31506988, 581667.56, 726764.7, 0.35499445, 10.006194, 9.996069 
2.3463482e+3, 2.951883e+2, 653362.25, 534246.75, 347945.3, -1.0457445, -0.15233476, 946810.25, 993952.56, 0.27963617, 10.005169, 10.002664 
2.34599e+3, 3.051774e+2, -349968.8, 81740.336, -262589.6, 0.1847644, -0.2587552, 205807.06, 205807.06, 0.22596352, 9.997755, 10.002267 
2.3610441e+3, 1.7565762e+2, -1973510.1, -2139279.3, -439242.88, -1.7663975, -0.3736749, -1609400.0, -390842.5, 0.43641227, 9.99651, 9.994607 
2.3606734e+3, 1.8565163e+2, -714139.8, -679298.9, 187520.98, 0.6860993, -0.01746031, -508390.94, 612225.4, 0.37760058, 10.002395, 10.002821 
2.3602705e+3, 1.956525e+2, -1587038.6, -991572.5, 188876.58, -0.16080794, 0.36660233, -936716.06, 85877.17, 0.33353624, 9.994131, 10.002507 
2.3598681e+3, 2.0563756e+2, -1772415.0, -1028869.5, -109113.586, -1.3722681, -0.5921168, -1013188.06, -88451.67, 0.30097857, 9.99242, 10.002067 
2.3594907e+3, 2.1563621e+2, -1775073.9, -1035608.3, 214334.7, 0.026070653, -0.27885026, -977975.06, -151220.06, 0.27814484, 9.991687, 10.001887 
2.3591028e+3, 2.2563587e+2, -384940.47, -682640.2, 128623.32, 0.20608225, 0.41689196, -337066.56, 391690.9, 0.26104888, 10.00325, 9.998087 
2.3587073e+3, 2.3561881e+2, -419227.06, -662776.8, 134776.36, -0.6416341, -0.47592545, -359360.03, 271557.94, 0.24563138, 10.001908, 9.998257 
2.3583224e+3, 2.456089e+2, 87046.195, -430263.8, 253919.38, 0.07077904, -0.47084004, 190851.47, 723862.7, 0.23008795, 10.005984, 9.997302 
2.3579308e+3, 2.555999e+2, -557206.44, -559456.0, 350453.3, -0.08648726, -0.37763909, -207876.08, 227221.05, 0.2098318, 9.998829, 9.999247 
2.357531e+3, 2.6559484e+2, 142002.13, 395136.03, -138085.06, -0.39976966, -0.48199674, 455883.47, 793029.8, 0.17457722, 10.000513, 10.005276 
2.3571387e+3, 2.7558935e+2, -942928.5, -1038362.6, 58816.926, -0.6898287, -0.5107989, -914906.9, -675703.75, 0.12480152, 9.99665, 9.995436 
2.3567459e+3, 2.8557977e+2, 162967.6, -562294.2, -418641.66, -0.22075562, -0.19289777, 354197.72, 495502.25, 0.081913695, 10.004201, 9.994501 
2.3563628e+3, 2.9557368e+2, 148549.67, -142970.72, 147732.67, 0.47026208, -0.10277949, 210324.95, 253700.0, 0.05544011, 10.002094, 9.998033 
2.35597e+3, 3.055671e+2, -583514.3, -560470.6, -211987.33, -0.7250585, 0.39569786, -359692.25, -359692.25, 0.039922036, 9.9977, 9.997374 
2.3718293e+3, 1.5606655e+2, -1094900.5, -1427122.4, 553917.06, 0.04361647, 0.15133326, -682723.44, 727825.25, 0.40917477, 10.004147, 9.998442 
2.3714407e+3, 1.6606094e+2, -1484429.9, -1171262.3, -38257.086, -0.39160216, 0.2773297, -1166656.4, 145941.89, 0.3191415, 9.9970255, 10.002137 
2.3710598e+3, 1.7605561e+2, -1296810.1, -1103703.9, 41873.016, 0.7309246, 0.22345681, -1095015.1, 119634.18, 0.25440004, 9.9979725, 10.001389 
2.3706686e+3, 1.8604678e+2, -937150.3, -854614.3, 26054.244, 0.93997437, -0.012861013, -847077.9, 269654.44, 0.20803122, 10.000108, 10.001519 
2.3702708e+3, 1.9604065e+2, -548759.06, -689659.1, -37305.043, 0.5099873, -0.054673094, -539491.6, 479295.06, 0.17323056, 10.002638, 10.000878 
2.369874e+3, 2.060325e+2, -547111.8, -735894.4, -75126.37, 0.020085968, -0.12259676, -520864.4, 400003.34, 0.14628343, 10.002339, 9.99972 
2.3694816e+3, 2.1602394e+2, -637912.6, -700536.94, -214466.6, -0.018023947, -0.2575129, -452484.47, 370473.53, 0.1255341, 10.000583, 10.000114 
2.3690969e+3, 2.260179e+2, -758603.56, -679114.94, -79305.91, 0.4143475, -0.15393588, -630151.7, 94863.77, 0.10829949, 9.998846, 10.000276 
2.3687121e+3, 2.3601115e+2, -946350.9, -719587.44, -113735.5, 0.7305561, -0.09921585, -672372.8, -45298.098, 0.09199208, 9.9968405, 10.0002775 
2.3683159e+3, 2.4600624e+2, -850247.0, -541931.2, -211111.4, 0.33834532, 0.06179613, -434683.84, 94436.6, 0.07586676, 9.996519, 10.001033 
2.3679185e+3, 2.5600076e+2, -891472.4, -824824.0, -63059.258, -0.3552469, 0.32342082, -786825.2, -355650.53, 0.059159197, 9.996967, 9.998123 
2.3675215e+3, 2.6599205e+2, -181168.2, -144527.14, -250667.86, -0.57471645, 0.21694654, 88488.79, 421748.94, 0.040412202, 9.999916, 10.000767 
2.367132e+3, 2.7597934e+2, -301821.53, -613071.94, 45205.145, -0.53620934, -0.26709786, -295389.0, -60005.383, 0.021718558, 10.000651, 9.99635 
2.3667426e+3, 2.859679e+2, 20260.063, -555784.4, -110338.59, -0.16463266, -0.21013188, 40671.637, 178172.73, 0.00948949, 10.002981, 9.994863 
2.3663613e+3, 2.9596e+2, 280663.47, -73392.01, 390758.47, 0.6638933, -0.08832135, 532624.06, 572212.0, 0.00434517, 10.003043, 9.997822 
2.3659612e+3, 3.0595177e+2, 214177.89, -205797.44, 93128.21, -0.9254513, 0.3180215, 233902.39, 233902.39, 0.0025857412, 10.003022, 9.996897 
2.3822168e+3, 1.464615e+2, -1019777.94, -1429831.4, 90170.62, -0.059854504, -0.33522958, -1000825.4, 503841.94, 0.38968244, 10.00619, 9.997086 
2.3818149e+3, 1.5645562e+2, -1534349.8, -1769800.4, 26791.838, -1.052216, 0.0054934053, -1531339.6, -124609.62, 0.27836236, 9.999857, 9.996983 
2.3814236e+3, 1.6644765e+2, -1275859.4, -820064.3, 91484.93, -1.0959382, -0.16471647, -802387.44, 506416.6, 0.19862524, 9.997292, 10.004788 
2.381038e+3, 1.7644237e+2, -1152189.4, -857716.0, -11181.192, -0.5713805, -0.48487622, -857292.06, 353554.4, 0.1461588, 9.998293, 10.003044 
2.3806465e+3, 1.8643801e+2, -1153326.3, -1175349.6, 26615.85, -0.56439126, -0.23624751, -1135534.1, -22646.283, 0.11113541, 9.99948, 9.999136 
2.380254e+3, 1.9643249e+2, -988336.06, -1153239.5, -29113.107, -0.65901434, 0.0028741225, -983347.2, 31597.965, 0.08556882, 10.0002365, 9.998363 
2.379865e+3, 2.0642394e+2, -932200.3, -1223796.8, -72209.586, -0.3595667, 0.12484119, -915298.4, 1737.1963, 0.065839775, 10.00067, 9.996904 
2.3794739e+3, 2.1641275e+2, -986405.25, -1225288.0, -131251.6, -0.15597622, 0.024762213, -928383.3, -109229.44, 0.050802168, 9.99966, 9.996774 
2.3790815e+3, 2.2640544e+2, -742427.3, -491498.88, -24969.256, -0.31566885, 0.0463171, -489038.38, 232187.05, 0.038884565, 9.998315, 10.00177 
2.3786916e+3, 2.363999e+2, -1100227.0, -790682.6, -132238.75, -0.37220675, 0.084112965, -741882.9, -118608.62, 0.028499383, 9.995937, 10.000202 
2.3782991e+3, 2.4639286e+2, -766239.56, -397366.9, -190403.84, -0.3490045, -0.022144347, -316717.63, 208623.13, 0.019239577, 9.996815, 10.001783 
2.3779094e+3, 2.563834e+2, -966089.3, -815294.44, -59969.14, -0.27465132, -0.29949835, -794353.56, -366920.34, 0.011432521, 9.996448, 9.99839 
2.3775193e+3, 2.6637736e+2, -317265.9, -287000.75, -190275.84, -0.057511598, -0.113341354, -111256.68, 218234.86, 0.005416997, 9.999525, 9.999818 
2.3771316e+3, 2.7637106e+2, -338964.88, -497453.2, 7360.839, 0.066221364, 0.0010090378, -338623.75, -107071.71, 0.001679893, 9.999898, 9.997508 
2.3767366e+3, 2.8635994e+2, 216943.31, -71252.38, -55493.094, -0.3520571, -0.14480698, 227259.44, 360919.97, 0.00032890253, 10.002678, 9.998341 
2.3763472e+3, 2.9635307e+2, 43469.637, -120973.84, 312259.47, -0.4451459, -0.17541979, 284150.97, 319879.13, 0.000101582686, 10.001082, 9.998492 
2.3759644e+3, 3.0634257e+2, 240605.16, 314171.1, 211485.33, -0.35698545, -0.30596393, 492048.4, 492048.4, 0.0001437013, 10.001091, 10.001373 
2.392592e+3, 1.368665e+2, -2251538.8, -1939421.9, 132411.89, -0.8198166, 0.31087863, -1890816.8, -292119.22, 0.42782584, 9.995179, 9.999174 
2.3922056e+3, 1.468548e+2, -1865377.0, -1530403.5, -22851.344, -0.2785936, -0.1821855, -1528851.9, -28041.498, 0.2998544, 9.996346, 10.000952 
2.3918132e+3, 1.5684763e+2, -1570414.3, -1506305.6, 128399.836, -0.42622843, -0.22483799, -1406019.5, -3144.1333, 0.19614406, 9.998279, 9.999638 
2.3914224e+3, 1.6684036e+2, -1252767.1, -1147347.5, 73459.31, -0.39377093, -0.24058114, -1109643.9, 195301.0, 0.12585048, 9.9991865, 10.001045 
2.391033e+3, 1.7683314e+2, -1210501.1, -1150415.3, -81881.61, -0.2702674, -0.34796324, -1093239.0, 113775.72, 0.083471425, 9.999119, 10.000316 
2.3906411e+3, 1.8682656e+2, -1011163.6, -964716.3, -73015.29, -0.34369138, -0.31402987, -911320.3, 197758.17, 0.057587944, 9.999794, 10.00052 
2.3902485e+3, 1.9681999e+2, -911941.0, -984254.3, -24235.148, -0.539788, -0.28867412, -904570.1, 106572.64, 0.03970386, 10.000149, 9.999575 
2.3898572e+3, 2.068128e+2, -799663.2, -984087.8, -2967.2485, -0.47535136, -0.1678882, -799615.44, 113601.34, 0.026570952, 10.0008135, 9.998488 
2.3894666e+3, 2.1680467e+2, -586369.0, -881777.3, 92868.59, -0.31178227, -0.070030466, -559599.4, 255702.63, 0.017417854, 10.001748, 9.998131 
2.3890752e+3, 2.2679672e+2, -472116.28, -586673.06, 90217.98, -0.25043538, -0.026144408, -422529.8, 294852.2, 0.011141793, 10.00115, 9.999729 
2.3886846e+3, 2.3678795e+2, -597119.44, -710115.9, -14591.154, -0.24975714, -0.06778188, -595265.7, 24202.15, 0.0065593217, 10.000045, 9.998761 
2.388292e+3, 2.4677975e+2, -281864.66, -214508.08, -106164.49, -0.24702257, -0.18484287, -136808.08, 384740.16, 0.0032030866, 10.000321, 10.001334 
2.3879021e+3, 2.5677145e+2, -419565.38, -483007.84, 4081.928, -0.18914099, -0.3156225, -419303.8, 4325.889, 0.0011282732, 9.999882, 9.998976 
2.3875126e+3, 2.6676524e+2, -201222.81, -241729.77, -55930.58, -0.00688361, -0.14038233, -161991.56, 163696.94, 0.00023273825, 10.00038, 9.999696 
2.3871252e+3, 2.76759e+2, -178231.97, -183951.38, 89394.92, 0.08145859, -0.032139372, -91651.02, 136094.97, 0.000018051116, 9.999946, 9.999599 
2.3867308e+3, 2.8674904e+2, -14801.055, -13587.409, 154.96722, -0.35000244, -0.24739408, -13567.935, 116276.14, 0.000004039042, 10.00028, 9.999895 
2.3863406e+3, 2.96744e+2, -46825.426, -132142.55, 159144.66, -0.46429688, -0.11733507, 75278.805, 107173.555, 0.00001362104, 10.000146, 9.998897 
2.3859602e+3, 3.0673203e+2, 234401.02, 363908.0, -269393.16, -0.09388479, -0.3011505, 576220.7, 576220.7, 0.00005414364, 10.000666, 10.00201 
2.4029873e+3, 1.272619e+2, -2129921.5, -1921389.8, 1357.732, 0.08720509, 0.16341528, -1921380.9, -228558.95, 0.49043512, 9.996888, 9.999021 
2.4025866e+3, 1.3725202e+2, -1611380.4, -1679528.0, -94870.89, -0.42054167, -0.13159475, -1544649.9, 50271.168, 0.36336103, 9.999881, 9.998915 
2.4021968e+3, 1.4724496e+2, -1217973.1, -1061726.3, 48984.902, -0.19977565, -0.2664947, -1047639.1, 449344.28, 0.24041095, 10.000498, 10.002986 
2.4018107e+3, 1.5723953e+2, -1332096.4, -1250426.9, -5839.991, 0.21096167, -0.369104, -1250011.4, 149014.5, 0.14389461, 9.999452, 10.000886 
2.4014199e+3, 1.6723256e+2, -1396233.3, -1519379.1, 25068.877, 0.1829637, -0.2441462, -1391325.6, -90231.18, 0.08188297, 9.999669, 9.998056 
2.4010278e+3, 1.7722382e+2, -1305743.5, -1454538.8, -25650.86, 0.036508042, -0.19432274, -1301445.6, -98260.12, 0.047678713, 9.999601, 9.997965 
2.4006362e+3, 1.8721585e+2, -941034.44, -794958.4, -8250.065, -0.067898944, -0.279694, -794493.9, 310769.28, 0.028905774, 9.999756, 10.001684 
2.4002442e+3, 1.9720869e+2, -1014019.44, -929964.3, -56994.11, -0.20079207, -0.4259029, -901177.75, 106152.586, 0.017015342, 9.999079, 10.000456 
2.3998514e+3, 2.0720251e+2, -837797.75, -764967.8, -45340.332, -0.35602486, -0.3672057, -743229.56, 166160.55, 0.00915297, 9.999626, 10.000558 
2.3994598e+3, 2.1719654e+2, -851456.8, -925440.1, -31140.277, -0.3304919, -0.25073898, -840094.56, -28645.19, 0.0045936005, 9.9996605, 9.9988365 
2.3990698e+3, 2.2718762e+2, -782621.7, -1003419.7, -12140.777, -0.10913075, -0.21643093, -781956.1, -68416.07, 0.0022051786, 10.000209, 9.997297 
2.3986806e+3, 2.3717579e+2, -855822.94, -1092675.9, -25511.148, 0.123482846, -0.33674955, -853106.3, -237446.13, 0.0009056362, 9.9994545, 9.996424 
2.3982877e+3, 2.4716856e+2, -345411.13, -274038.84, -66206.08, 0.054837096, -0.26172832, -234513.66, 283219.9, 0.00023937336, 10.000192, 10.000888 
2.3978955e+3, 2.5716275e+2, -598932.8, -642174.44, -12050.886, -0.08138475, -0.13411419, -595801.2, -176009.72, 0.000025130046, 9.999033, 9.998303 
2.3975044e+3, 2.6715517e+2, -174888.86, -178727.28, -26485.332, -0.15202162, -0.08065417, -150253.3, 171607.67, 0.00000030344088, 10.000458, 10.00005 
2.3971145e+3, 2.771472e+2, -228012.25, -123283.18, 29639.707, -0.25134757, -0.2517531, -115476.66, 108455.4, 0.000000006555133, 9.999307, 10.000341 
2.3967251e+3, 2.87139e+2, -46460.246, 4308.426, 1433.8142, -0.20459983, -0.37548304, 4348.887, 130365.85, 0.00000087941476, 10.00003, 10.000098 
2.3963393e+3, 2.971342e+2, -635202.44, -767365.56, 141514.06, 0.091151066, -0.11138428, -545101.44, -517027.7, 0.0000072209577, 9.997751, 9.995657 
2.3959497e+3, 3.071245e+2, -280173.88, -318227.63, -18219.674, -0.5679101, 0.22500764, -272857.28, -272857.28, 0.00003484927, 9.999198, 9.997883 
2.4129733e+3, 1.2765062e+2, -2280336.5, -1718920.5, -45919.21, -0.2146727, -0.040649027, -1715189.4, -26180.773, 0.44509998, 9.994546, 10.001714 
2.4125828e+3, 1.376403e+2, -1405533.8, -1490017.3, 56543.91, -0.27465516, -0.54845375, -1377195.3, 213908.94, 0.31930807, 10.001329, 9.999839 
2.4121916e+3, 1.4763524e+2, -1134131.0, -1242642.5, -29230.97, -0.22263719, -0.34707633, -1126757.8, 366396.34, 0.20041417, 10.002352, 10.000347 
2.4118005e+3, 1.5763079e+2, -1285377.5, -1374404.5, -106208.4, -0.18553086, -0.104820564, -1214731.6, 180467.25, 0.110025235, 10.000524, 9.999392 
2.4114087e+3, 1.6762285e+2, -1130779.3, -1187437.5, -36541.59, -0.25313866, -0.14844729, -1112871.8, 184403.45, 0.054970514, 10.000637, 9.999921 
2.4110171e+3, 1.776135e+2, -1069797.1, -1206877.8, 25619.756, -0.39689252, -0.32586545, -1065165.4, 134199.92, 0.027314784, 10.000633, 9.999178 
2.4106267e+3, 1.8760686e+2, -941390.3, -975172.2, -6645.305, -0.2944064, -0.22514977, -940130.1, 161303.45, 0.013986388, 10.000484, 10.000067 
2.4102367e+3, 1.9760084e+2, -979760.9, -1020987.2, -83402.555, -0.1930134, -0.08936416, -914461.94, 89034.84, 0.006556314, 9.999726, 9.99952 
2.409845e+3, 2.0759335e+2, -832703.2, -776923.0, -133765.16, -0.2144888, -0.1237168, -668171.3, 237397.77, 0.002469395, 9.999705, 10.00046 
2.409453e+3, 2.1758525e+2, -761133.7, -810352.75, -129414.8, -0.29288027, -0.20607173, -654009.3, 153636.28, 0.00078321603, 9.999877, 9.999553 
2.4090622e+3, 2.275772e+2, -549562.8, -616975.9, -44232.855, -0.18254529, -0.27671745, -527657.5, 182064.28, 0.00023610769, 10.000524, 9.999837 
2.4086726e+3, 2.3756807e+2, -451313.2, -665925.94, 108850.87, -0.043904115, -0.36569723, -405769.4, 206039.7, 0.000047296035, 10.001135, 9.998558 
2.4082798e+3, 2.4756056e+2, -328011.53, -414672.1, 46690.89, -0.07614627, -0.2920662, -307642.9, 206241.83, 0.0000020598873, 10.000919, 9.999588 
2.4078873e+3, 2.575535e+2, -476699.66, -603446.9, 94037.9, -0.19340816, -0.16471675, -426674.22, -10717.263, 0.0, 9.999888, 9.998145 
2.4074984e+3, 2.6754445e+2, -221113.8, -343047.8, 72358.945, -0.097264335, -0.16149062, -187461.6, 130582.445, 0.0, 10.000728, 9.998799 
2.4071108e+3, 2.7753526e+2, 56643.04, -73054.61, -19194.096, -0.011988052, -0.30161723, 59423.965, 279554.4, 0.0, 10.0014925, 9.999667 
2.4067195e+3, 2.8752753e+2, 110847.34, -4664.4478, -177975.13, -0.12078631, -0.31384966, 240203.4, 362416.25, 0.0000001537889, 10.001306, 9.999519 
2.4063303e+3, 2.975229e+2, -125741.93, -502529.3, -10926.526, -0.12985763, 0.05795322, -125425.33, -101156.234, 0.000003139397, 10.000945, 9.995992 
2.4059461e+3, 3.0751133e+2, 113939.1, -157538.3, 107354.56, -0.29420134, 0.20717643, 151261.08, 151261.08, 0.000017282315, 10.001684, 9.997925 
2.4229626e+3, 1.2803768e+2, -1499576.4, -1357370.6, 122106.28, -0.21955945, -0.34996402, -1287174.0, 398040.53, 0.4141129, 9.999917, 10.003241 
2.4225779e+3, 1.3803126e+2, -1708910.5, -1600000.5, 29932.053, -0.029087935, -0.586403, -1592316.4, -5047.775, 0.28877336, 9.99837, 10.000238 
2.4221858e+3, 1.480263e+2, -1599921.4, -1629228.4, -66128.41, -0.1824888, -0.3034621, -1546842.4, -57520.77, 0.17287979, 9.999184, 9.998867 
2.421791e+3, 1.5802152e+2, -1379921.5, -1523012.6, -38611.832, -0.42524692, 0.06946837, -1370167.4, 21209.324, 0.08747846, 10.000088, 9.998618 
2.4213986e+3, 1.6801319e+2, -1056962.9, -966000.25, 42262.94, -0.56793714, -0.09290976, -949395.25, 344059.2, 0.038149297, 10.000309, 10.001638 
2.4210073e+3, 1.7800401e+2, -1152134.9, -1157668.9, 19412.752, -0.6277672, -0.4097569, -1135292.9, 60244.246, 0.01570925, 9.999702, 9.999938 
2.420618e+3, 1.8799822e+2, -1141339.3, -1231530.6, 1364.4838, -0.4446315, -0.1761936, -1141318.6, -43717.848, 0.0064830934, 9.999811, 9.9985895 
2.4202295e+3, 1.9799305e+2, -1197666.8, -1300529.1, -38496.246, -0.120631024, 0.19750543, -1184855.1, -185193.03, 0.0021827125, 9.999016, 9.997936 
2.4198379e+3, 2.0798394e+2, -889912.75, -873596.25, -30868.973, -0.10871585, 0.091144666, -849825.7, 51924.984, 0.00044835047, 9.999615, 9.999823 
2.4194461e+3, 2.1797357e+2, -850074.4, -824119.3, -42145.58, -0.18341489, -0.18339661, -792998.5, 10848.981, 0.000068581576, 9.999235, 9.99975 
2.4190542e+3, 2.2796752e+2, -458312.38, -189761.98, -11320.324, -0.2633059, -0.26850456, -189285.63, 516612.4, 0.0000096515805, 9.999686, 10.003104 
2.4186635e+3, 2.379622e+2, -660642.94, -577499.5, 21032.928, -0.25922787, -0.307999, -572481.6, 35459.035, 0.00000040342232, 9.999025, 10.000158 
2.4182707e+3, 2.4795397e+2, -491310.97, -656114.8, -42045.27, -0.3045222, -0.29361236, -481204.1, 28818.547, 0.0, 10.000572, 9.998068 
2.4178782e+3, 2.5794446e+2, -576727.9, -860546.25, 13917.947, -0.34485754, -0.28907213, -576047.0, -163926.16, 0.0, 10.000185, 9.996259 
2.4174932e+3, 2.6793396e+2, -330892.97, -606859.1, 92086.04, 0.04834466, -0.27394128, -302987.03, 11239.937, 0.0, 10.000991, 9.996802 
2.41711e+3, 2.7792346e+2, -424359.72, -690048.2, -25302.734, 0.51270306, -0.31098992, -421971.5, -205638.83, 0.0, 9.999945, 9.996178 
2.4167126e+3, 2.8791535e+2, -106605.85, -258434.75, -183132.84, -0.17910033, -0.13470958, 15723.595, 134143.23, 0.0000000009564638, 10.000659, 9.997991 
2.4163164e+3, 2.979095e+2, -565513.4, -693021.94, 48712.44, -0.9022606, 0.18668, -549033.56, -528547.7, 0.0000004799063, 9.99802, 9.996069 
2.4159454e+3, 3.0789724e+2, -25123.17, 97632.82, 28758.453, 0.11396464, -0.12307704, 104036.14, 104036.14, 0.0000055147566, 9.9995, 10.000679 
2.4329531e+3, 1.2843218e+2, -1499734.8, -1528893.6, 17088.416, -0.6580424, -0.04280448, -1491851.5, 189504.23, 0.39271495, 10.00118, 10.00053 
2.4325687e+3, 1.384263e+2, -1926221.0, -1781867.9, -48897.527, -0.064414985, 0.037785072, -1766864.0, -183451.5, 0.26710206, 9.997291, 9.999488 
2.4321772e+3, 1.4841858e+2, -1560292.1, -1375021.1, -7659.8936, -0.14821626, -0.08408659, -1374704.9, 110781.9, 0.15331793, 9.998371, 10.001151 
2.431784e+3, 1.5841083e+2, -1304558.4, -1321215.6, 70587.91, -0.45282376, -0.20988476, -1241809.4, 145752.4, 0.07196278, 9.99994, 10.000106 
2.4313925e+3, 1.6840446e+2, -1097852.3, -1064362.8, 64401.77, -0.4859107, -0.1707195, -1014564.5, 275055.34, 0.027363949, 10.000374, 10.000886 
2.4310017e+3, 1.783978e+2, -1170075.5, -1194733.1, 19253.387, -0.50084275, -0.1588345, -1159541.9, 32138.06, 0.009079448, 9.999707, 9.999655 
2.4306107e+3, 1.8839018e+2, -1102203.0, -1141845.0, 9755.2705, -0.4369693, -0.13113953, -1099932.4, -6174.4175, 0.002868925, 9.999769, 9.9992285 
2.4302198e+3, 1.9838229e+2, -1039554.06, -1139991.3, 52459.066, -0.36046425, -0.07490302, -1017151.3, -21310.166, 0.00059867656, 9.9996805, 9.998731 
2.4298291e+3, 2.0837362e+2, -786586.94, -819975.06, 95465.2, -0.2821084, -0.16017248, -706367.1, 191557.23, 0.000045539302, 10.000205, 9.999949 
2.4294385e+3, 2.1836469e+2, -673983.0, -743531.5, 99025.66, -0.25860637, -0.27739796, -603803.3, 196204.67, 0.0000022398012, 10.00038, 9.999753 
2.4290463e+3, 2.2835875e+2, -621707.4, -445917.9, -21673.607, -0.25558352, -0.23084697, -443285.13, 258779.19, 0.000000052409952, 9.999281, 10.001557 
2.428655e+3, 2.383534e+2, -845844.4, -711027.2, -70698.305, -0.2694726, -0.13705198, -680751.75, -76636.914, 0.0, 9.997879, 9.999795 
2.4282642e+3, 2.4834484e+2, -472944.88, -646493.44, -53115.043, -0.27966085, -0.13877498, -457979.38, 48221.51, 0.0, 10.000616, 9.99816 
2.4278742e+3, 2.5833508e+2, 45473.95, -477259.56, -4001.4805, -0.31436554, -0.16837499, 45504.58, 453804.4, 0.0, 10.003971, 9.997089 
2.4274875e+3, 2.6832435e+2, -3414.9985, -494738.9, 12522.564, -0.045717735, -0.18288817, -3096.038, 307311.75, 0.0, 10.00329, 9.996543 
2.427102e+3, 2.7831358e+2, -157899.83, -519000.3, 13674.719, 0.31578055, -0.18609038, -157382.72, 55133.418, 0.0, 10.001427, 9.996667 
2.4267063e+3, 2.8830463e+2, 197238.23, -68668.08, 25051.393, -0.23636769, -0.1156105, 199577.78, 314185.03, 0.0, 10.002377, 9.99854 
2.4263112e+3, 2.98297e+2, 336852.13, 16204.4795, 274008.03, -0.8886246, -0.023650078, 493993.47, 510679.2, 0.000000008678429, 10.002842, 9.99865 
2.4259391e+3, 3.0828977e+2, -131980.81, 160609.98, -86548.86, 0.32580808, 0.043280777, 184294.14, 184294.14, 0.0000009202062, 9.997819, 10.002131 
2.4433424e+3, 1.18826896e+2, -1895577.5, -1933079.8, 466389.6, 0.43361107, -0.38566175, -1447562.3, 327922.88, 0.4945417, 9.999883, 9.999476 
2.4429452e+3, 1.2882507e+2, -1896362.8, -1770676.3, -59287.785, -0.6815964, 0.15107466, -1747123.3, -69614.17, 0.3775347, 9.99815, 9.999693 
2.4425597e+3, 1.3881932e+2, -1702798.6, -1639441.1, 61933.777, 0.018966686, 0.33002582, -1601554.6, -21985.54, 0.25111946, 9.998673, 9.999792 
2.4421689e+3, 1.488105e+2, -1440820.3, -1215528.8, 95160.75, -0.09186363, 0.018077888, -1180713.9, 300937.4, 0.13882844, 9.998729, 10.002213 
2.4417768e+3, 1.5880094e+2, -1492170.4, -1338233.1, 37984.746, -0.32668096, -0.38290885, -1329370.5, 54367.934, 0.060861234, 9.998335, 10.000721 
2.4413864e+3, 1.6879581e+2, -1245413.1, -1182202.4, 28010.879, -0.3395887, -0.23172584, -1171576.1, 114207.734, 0.02025213, 9.999605, 10.000389 
2.440996e+3, 1.7879105e+2, -1132304.8, -1232878.6, 6569.823, -0.273157, 0.026941406, -1131877.5, 55949.137, 0.0052852775, 10.000222, 9.99917 
2.4406032e+3, 1.8878163e+2, -1013195.56, -1069337.9, -36138.15, -0.3831265, -0.13673611, -995506.94, 94412.22, 0.0012089658, 10.000258, 9.999515 
2.4402104e+3, 1.9877134e+2, -1067021.3, -1104948.8, -40458.06, -0.4594869, -0.3622804, -1041303.0, -49281.957, 0.00012403581, 9.999389, 9.999089 
2.4398203e+3, 2.0876391e+2, -827075.1, -770488.2, 21721.43, -0.3978594, -0.40162146, -763111.75, 130979.06, 0.000001917801, 9.9997835, 10.000393 
2.439431e+3, 2.187569e+2, -902610.7, -975414.75, 16491.967, -0.25592497, -0.3591492, -899049.06, -102892.46, 0.000000018702426, 9.999428, 9.998575 
2.4390386e+3, 2.2875032e+2, -694366.5, -780442.4, -96927.0, -0.21290705, -0.18316682, -631352.06, 66875.91, 0.0, 10.000087, 9.998835 
2.4386466e+3, 2.387435e+2, -808935.56, -925269.44, -56239.016, -0.16552165, 0.0014911656, -786193.8, -185890.45, 0.0, 9.999194, 9.997686 
2.4382585e+3, 2.487352e+2, -429222.97, -552102.1, 91529.86, -0.1637272, 0.03934137, -380424.0, 121963.94, 0.0, 10.000746, 9.998687 
2.4378718e+3, 2.5872627e+2, -334560.63, -690206.6, 52186.21, -0.18696119, 0.041929256, -327061.13, 77416.38, 0.0, 10.0016165, 9.996744 
2.437481e+3, 2.687157e+2, -206567.34, -559262.4, -37976.02, -0.26704988, 0.0291268, -202524.66, 104056.51, 0.0, 10.001851, 9.996747 
2.4370906e+3, 2.7870473e+2, -391251.84, -593283.56, 12382.707, -0.24470627, -0.033441395, -390495.72, -181807.25, 0.0, 9.999761, 9.996965 
2.4367012e+3, 2.8869456e+2, 124599.234, 74157.07, 96009.35, -0.24977855, -0.25592074, 198644.95, 309430.72, 0.0, 10.001215, 10.000035 
2.4363115e+3, 2.9868573e+2, -193934.27, -196107.61, 189848.94, -0.43192494, -0.41458178, -5168.8896, 7699.786, 0.0, 9.999178, 9.998946 
2.4359226e+3, 3.08683e+2, -534005.2, 81268.16, -47405.27, -0.3882959, -0.058174416, 84899.18, 84899.18, 0.00000009984614, 9.995084, 10.002683 
2.4533299e+3, 1.1921626e+2, -1877412.4, -1653855.1, 74585.53, -0.08003626, -0.10106713, -1631255.6, 140413.88, 0.48539782, 9.997702, 10.002232 
2.4529411e+3, 1.2921324e+2, -1679715.3, -1361523.4, 4337.0454, -0.12766598, -0.071567714, -1361464.3, 312234.28, 0.36593348, 9.99759, 10.003987 
2.4525501e+3, 1.392092e+2, -1539502.6, -1437212.1, 132986.78, -0.2006144, -0.08068185, -1345874.6, 229862.2, 0.23856215, 9.999319, 10.001182 
2.452159e+3, 1.4920236e+2, -1567954.4, -1513561.0, 101855.266, -0.27633008, -0.05623505, -1435334.0, 42471.105, 0.1275105, 9.999025, 9.999742 
2.451768e+3, 1.5919434e+2, -1640142.8, -1506933.0, 34135.53, -0.33175972, -0.09093441, -1498695.1, -118811.06, 0.052560914, 9.997784, 9.999789 
2.4513784e+3, 1.6918676e+2, -1177056.4, -1035230.3, 92723.52, -0.3801407, -0.22575594, -989411.56, 292538.53, 0.01541553, 9.999568, 10.00144 
2.4509886e+3, 1.7917922e+2, -1010514.1, -1180715.3, 57911.39, -0.45802313, -0.31356913, -992678.6, 191337.28, 0.0031067657, 10.001071, 9.999123 
2.4505967e+3, 1.891706e+2, -1037319.3, -1280783.1, -72623.58, -0.3927928, -0.264832, -1017302.0, 68802.96, 0.00048131414, 10.000942, 9.997737 
2.4502048e+3, 1.9916162e+2, -981998.44, -1109311.4, -107100.695, -0.33975494, -0.2096798, -921064.75, 67133.93, 0.000015932997, 10.000132, 9.998685 
2.4498138e+3, 2.0915481e+2, -721354.0, -616891.0, -59573.754, -0.32545516, -0.2396504, -589893.94, 300368.88, 0.0000000054715246, 10.000045, 10.001325 
2.4494234e+3, 2.1914826e+2, -730165.1, -800787.06, -26811.965, -0.33091033, -0.23699775, -721139.4, 71184.25, 0.0, 10.000146, 9.999437 
2.4490319e+3, 2.2914039e+2, -434493.0, -717926.1, -61398.766, -0.29408887, -0.17468813, -421764.16, 272642.28, 0.0, 10.002056, 9.998369 
2.4486409e+3, 2.3913212e+2, -126534.25, -570687.44, -7237.7646, -0.26660788, -0.07601848, -126416.336, 470078.22, 0.0, 10.003642, 9.998006 
2.4482527e+3, 2.4912433e+2, -281349.13, -467427.47, 80449.57, -0.18093818, 0.011061348, -251390.66, 247184.47, 0.0, 10.001592, 9.998926 
2.4478653e+3, 2.591164e+2, -618619.1, -667561.44, 57849.324, -0.15514395, 0.09416932, -580278.0, -179622.7, 0.0, 9.99882, 9.998286 
2.4474739e+3, 2.691068e+2, -472124.8, -500028.06, 50357.48, -0.26804146, 0.01850873, -433822.03, -131075.13, 0.0, 9.999076, 9.998557 
2.4470825e+3, 2.7909687e+2, -226348.23, -350060.72, 161792.19, -0.3508819, -0.08985573, -114991.01, 89850.35, 0.0, 10.000013, 9.998543 
2.4466945e+3, 2.890872e+2, -78350.41, -104877.67, 155205.11, -0.23457563, -0.2290172, 64156.79, 171091.72, 0.0, 9.999984, 9.999476 
2.4463074e+3, 2.9907826e+2, -105324.3, -157520.03, 78481.71, -0.16547598, -0.33048105, -48714.99, -39693.48, 0.0, 9.999522, 9.999108 
2.4459131e+3, 3.0907485e+2, 473544.2, 582060.25, -129282.06, -0.5302381, 0.06996375, 668008.44, 668008.44, 0.000000000000427524, 10.001577, 10.003106 
2.4633178e+3, 1.1960414e+2, -1831510.9, -1576740.6, 27389.865, -0.3458296, -0.1805191, -1573829.3, 194035.94, 0.47722325, 9.997366, 10.003352 
2.4629356e+3, 1.2960237e+2, -1527560.0, -1141609.0, 15247.34, 0.276071, -0.16747539, -1141007.6, 528872.94, 0.3557266, 9.998127, 10.006073 
2.4625406e+3, 1.3959888e+2, -1444230.8, -1343860.5, -59614.023, -0.36025214, -0.29159456, -1316120.1, 255791.78, 0.22774403, 9.999756, 10.001772 
2.4621499e+3, 1.4959294e+2, -1509067.6, -1637442.9, -104193.08, -0.36079997, -0.11762268, -1450877.8, 23095.947, 0.11809006, 10.000132, 9.998333 
2.4617605e+3, 1.5958613e+2, -1381267.8, -1451242.5, -17334.064, -0.1864877, 0.09279322, -1377209.3, -1165.2975, 0.04605504, 9.99983, 9.999195 
2.4613708e+3, 1.6957723e+2, -1098881.8, -947497.3, 40813.625, -0.3528702, -0.21122482, -937194.94, 340927.22, 0.012013259, 9.999882, 10.001892 
2.460981e+3, 1.7956796e+2, -1248785.5, -1345078.3, -82295.47, -0.5096841, -0.51719445, -1201587.1, -21383.96, 0.0018483637, 9.99966, 9.998676 
2.4605903e+3, 1.8955955e+2, -1223987.0, -1533746.1, -163446.44, -0.3409519, -0.35400847, -1153694.6, -71402.31, 0.00018026956, 10.00034, 9.9963 
2.4601997e+3, 1.9955161e+2, -1059624.1, -1230412.8, -104483.04, -0.104230784, -0.0732908, -1010078.1, -25698.768, 0.0000007906511, 10.00001, 9.99793 
2.4598074e+3, 2.0954531e+2, -732431.56, -577918.2, -91468.125, -0.20206127, -0.07457131, -535446.0, 350994.0, 0.0, 9.999811, 10.001736 
2.4594158e+3, 2.1953884e+2, -940579.94, -896507.94, -78238.74, -0.3067411, -0.103011414, -837261.2, -48760.43, 0.0, 9.998826, 9.999407 
2.4590257e+3, 2.2953004e+2, -619906.0, -757369.25, -33158.03, -0.34071943, -0.17269209, -612325.8, 78262.67, 0.0, 10.000802, 9.998601 
2.4586362e+3, 2.3952098e+2, -460437.53, -762787.6, -31580.441, -0.3074589, -0.17548586, -457174.16, 135505.92, 0.0, 10.001623, 9.997629 
2.458246e+3, 2.495135e+2, -416266.4, -547441.75, -38512.65, -0.2266785, -0.063145705, -405795.13, 88963.11, 0.0, 10.000764, 9.998749 
2.4578564e+3, 2.5950608e+2, -743047.0, -681666.1, -12868.907, -0.13284913, 0.060940567, -679077.25, -282242.63, 0.0, 9.997876, 9.998624 
2.4574666e+3, 2.694976e+2, -372980.38, -184850.89, 44795.117, -0.14453575, -0.109416045, -174729.36, 124182.39, 0.0, 9.9987335, 10.000818 
2.4570769e+3, 2.794895e+2, -452276.75, -453009.94, 126083.83, -0.17430948, -0.21748011, -326559.0, -125574.375, 0.0, 9.998605, 9.99849 
2.4566868e+3, 2.8948164e+2, -339077.16, -446129.75, 105918.914, -0.2806131, -0.07883262, -273927.94, -170861.27, 0.0, 9.999256, 9.997431 
2.4563006e+3, 2.994716e+2, -787596.44, -877444.1, 72136.8, -0.07308564, -0.016746797, -747538.7, -742367.56, 0.0, 9.996766, 9.995447 
2.4559098e+3, 3.09462e+2, -131050.4, 171147.84, 2839.2053, -0.31845906, -0.061620638, 171174.52, 171174.52, 0.0, 9.998402, 10.001627 
2.4733075e+3, 1.1999205e+2, -2078813.0, -1879569.5, -57245.754, -0.45913535, -0.52681035, -1864293.1, -100237.91, 0.46784633, 9.997397, 9.999971 
2.4729261e+3, 1.2999345e+2, -1663122.3, -1450624.9, 51951.05, 0.19329481, 0.13209642, -1438604.0, 227445.47, 0.34520847, 9.998457, 10.002515 
2.4725308e+3, 1.3998637e+2, -1523240.9, -1475167.0, -100435.836, -0.6686623, -0.056561712, -1395931.8, 172190.92, 0.21743059, 9.999645, 10.000649 
2.4721421e+3, 1.4997867e+2, -1290286.6, -1285688.9, -127634.12, -0.4760704, -0.2077525, -1160333.0, 309862.03, 0.109704144, 10.000719, 10.000577 
2.4717551e+3, 1.5997133e+2, -1199053.3, -1314680.3, -22618.07, -0.15043628, -0.2340544, -1194786.3, 177477.7, 0.040704507, 10.000953, 9.999594 
2.471365e+3, 1.6996554e+2, -1159976.0, -1184792.8, -40016.445, -0.2563761, -0.10093678, -1130488.3, 143833.39, 0.00953522, 10.000339, 10.000036 
2.4709743e+3, 1.7995903e+2, -1285082.6, -1322545.6, -176453.0, -0.44061765, 0.0077938116, -1126369.8, 50015.434, 0.0011160366, 9.999233, 9.99903 
2.4705835e+3, 1.8994853e+2, -1071698.4, -1178297.8, -160658.44, -0.3137564, -0.23309228, -955729.06, 122755.75, 0.00006263998, 10.000179, 9.998813 
2.4701926e+3, 1.9993833e+2, -901098.0, -1071761.6, -64082.72, -0.18310417, -0.37710705, -879714.7, 100868.48, 0.0000000031066179, 10.000724, 9.998674 
2.4698006e+3, 2.0993213e+2, -819995.7, -852510.9, -123742.875, -0.15978356, -0.22368197, -711447.0, 171201.31, 0.0, 10.000158, 9.999732 
2.469409e+3, 2.1992603e+2, -867075.25, -859436.06, -125326.33, -0.21296816, -0.048861418, -737871.1, 46840.523, 0.0, 9.999225, 9.999498 
2.4690193e+3, 2.2991773e+2, -631456.25, -599080.6, -24971.57, -0.27959046, -0.17479648, -585509.0, 101280.85, 0.0, 9.999923, 10.000161 
2.46863e+3, 2.399093e+2, -473950.63, -604682.5, -38393.41, -0.3576544, -0.25927642, -463509.2, 125360.914, 0.0, 10.000715, 9.999172 
2.4682376e+3, 2.4990207e+2, -441526.25, -520121.5, -80093.766, -0.38748175, -0.17821766, -391608.88, 99335.51, 0.0, 10.000305, 9.99922 
2.4678461e+3, 2.598948e+2, -448475.63, -517668.78, -12147.804, -0.37204942, -0.068518035, -446404.88, -53384.832, 0.0, 9.999637, 9.998933 
2.4674587e+3, 2.6988667e+2, -261050.02, -270931.8, -49169.164, -0.16464137, -0.11719188, -216574.13, 78524.73, 0.0, 9.999957, 9.999698 
2.4670705e+3, 2.7987924e+2, -169331.17, -307522.97, -124037.625, -0.08230908, -0.08029103, -96442.66, 100727.36, 0.0, 10.000385, 9.99865 
2.4666789e+3, 2.89871e+2, -118991.56, -344559.03, -115844.5, -0.3459082, 0.009115509, -70096.24, 29159.092, 0.0, 10.000616, 9.997572 
2.4662937e+3, 2.9985997e+2, -202421.19, -602252.0, -22833.543, -0.004188928, -0.01988441, -201121.44, -199752.97, 0.0, 10.000559, 9.995575 
2.4659045e+3, 3.0984804e+2, 13319.759, 91884.83, -64620.92, -0.08979391, -0.15419592, 128226.24, 128226.24, 0.0, 9.9995775, 10.000689 
2.4833022e+3, 1.2038308e+2, -1779509.6, -1967636.9, -170810.14, -0.17633677, -0.5704571, -1678575.6, 81643.3, 0.4557152, 10.000597, 9.998019 
2.4829163e+3, 1.3038254e+2, -1698433.9, -1721152.0, 122944.2, 0.04213137, 0.17340568, -1586325.1, 75912.25, 0.33319858, 9.9997225, 9.999436 
2.482522e+3, 1.4037351e+2, -1669238.0, -1581526.8, 5530.611, -0.7263951, 0.046402365, -1581179.4, -16845.797, 0.20679392, 9.998755, 10.000165 
2.4821347e+3, 1.5036501e+2, -1413499.8, -1214754.8, -98126.805, -0.47499645, -0.2690374, -1174471.4, 291938.28, 0.10179194, 9.999072, 10.0019655 
2.481749e+3, 1.6035715e+2, -1477887.8, -1434369.4, -94906.11, -0.026378782, -0.44973454, -1358760.0, 9719.92, 0.036105353, 9.998946, 9.999731 
2.4813586e+3, 1.7035353e+2, -1417992.3, -1450115.5, -70560.64, -0.13290685, -0.009565085, -1361688.4, -91164.34, 0.0076701324, 9.999232, 9.998733 
2.4809675e+3, 1.8034914e+2, -1298831.0, -1284033.1, -106262.516, -0.2634041, 0.41481525, -1184912.3, -12337.926, 0.000687035, 9.999008, 9.999378 
2.4805765e+3, 1.9033755e+2, -1038137.7, -884956.94, -128468.36, -0.2479517, -0.13640155, -811980.6, 262695.53, 0.000019881356, 9.999316, 10.001186 
2.4801853e+3, 2.0032567e+2, -1145730.6, -1190264.0, -108371.05, -0.15416239, -0.6283748, -1057362.4, -80580.17, 0.0, 9.999109, 9.998602 
2.4797937e+3, 2.1031928e+2, -1042773.5, -1181401.8, -131490.0, -0.07495218, -0.3619744, -963446.9, -84593.22, 0.0, 9.999654, 9.997638 
2.4794023e+3, 2.2031341e+2, -935886.2, -956798.8, -38121.117, -0.014359077, 0.0014044599, -906813.3, -125893.305, 0.0, 9.999074, 9.99888 
2.4790128e+3, 2.3030555e+2, -651091.6, -457990.03, 39500.484, -0.17385226, -0.18652517, -450222.38, 232767.53, 0.0, 9.999129, 10.001511 
2.4786225e+3, 2.4029757e+2, -789628.5, -686982.4, -37745.81, -0.34346482, -0.34327978, -674596.7, -89536.18, 0.0, 9.998368, 9.99972 
2.4782285e+3, 2.5029045e+2, -540843.56, -484150.16, -102588.52, -0.54499716, -0.33953136, -406064.06, 81067.82, 0.0, 9.999385, 9.999842 
2.4778359e+3, 2.6028314e+2, -680295.8, -798138.2, -1890.1455, -0.60372645, -0.23993845, -680265.5, -291058.06, 0.0, 9.998924, 9.997333 
2.4774504e+3, 2.702752e+2, -471197.1, -665314.3, -11162.019, -0.24462536, -0.0478375, -470557.38, -179263.84, 0.0, 9.999903, 9.996982 
2.4770637e+3, 2.8026715e+2, -434650.66, -606126.0, -80214.84, -0.0514592, 0.17702264, -402977.22, -209597.55, 0.0, 9.999415, 9.997057 
2.4766713e+3, 2.902566e+2, -174364.58, -216162.33, -88904.19, -0.4204368, -0.042643532, -103935.92, -8452.152, 0.0, 9.9997635, 9.998774 
2.476287e+3, 3.0024636e+2, -579979.56, -750813.3, -36956.777, 0.015515505, -0.10325532, -572327.44, -572327.44, 0.0, 9.998026, 9.995736 
2.4758995e+3, 3.1023878e+2, -340977.75, -93784.35, -139891.23, 0.110419445, 0.10178049, -30711.02, -30711.02, 0.0, 9.997394, 10.000426 
2.4932979e+3, 1.2077688e+2, -1715969.3, -1793066.0, -167998.69, -0.07673248, -0.15408178, -1582153.1, 174208.2, 0.4399176, 10.000728, 9.999351 
2.492906e+3, 1.3076854e+2, -1695621.1, -1771603.5, 110643.4, -0.30433625, -0.20155156, -1616628.3, 41823.73, 0.31901658, 10.000008, 9.998854 
2.4925151e+3, 1.40761e+2, -1857491.9, -1803174.0, 18903.56, -0.5761379, -0.10589769, -1797242.9, -236710.69, 0.19536594, 9.998093, 9.998939 
2.492127e+3, 1.5075359e+2, -1644424.6, -1470941.0, -80487.734, -0.39084104, -0.15569286, -1439351.0, 23250.93, 0.094030365, 9.998225, 10.000406 
2.4917392e+3, 1.6074602e+2, -1603294.8, -1480495.1, -98462.9, -0.1560146, -0.19556433, -1425856.6, -61183.34, 0.032013185, 9.99805, 9.999829 
2.4913494e+3, 1.7073952e+2, -1367848.1, -1260616.8, -14350.557, -0.24254353, -0.16248314, -1258729.4, 8010.811, 0.0062260167, 9.998868, 10.0001955 
2.490959e+3, 1.807333e+2, -1220412.4, -1157987.5, -38141.695, -0.36331132, -0.04205354, -1139915.0, 28889.498, 0.00043419475, 9.999146, 10.000172 
2.4905689e+3, 1.9072632e+2, -1078195.4, -914463.06, -109624.59, -0.19136435, -0.13256676, -859509.56, 211359.81, 0.0000058323185, 9.999036, 10.001142 
2.4901785e+3, 2.0071875e+2, -1140482.4, -1100436.1, -102743.09, -0.0495128, -0.19640748, -1015783.25, -42843.293, 0.000000000090419006, 9.998707, 9.999417 
2.4897869e+3, 2.1071127e+2, -876180.75, -970664.4, -29644.922, -0.03743724, -0.14322878, -867649.7, 7366.571, 0.0, 10.000134, 9.9988785 
2.489395e+3, 2.2070378e+2, -623783.1, -738024.1, 54400.625, -0.09385754, -0.038445268, -602022.9, 175069.78, 0.0, 10.000854, 9.999517 
2.4890041e+3, 2.3069566e+2, -750266.7, -598030.06, 47566.574, -0.1880555, -0.18043484, -584389.94, 94777.26, 0.0, 9.998793, 10.000741 
2.4886133e+3, 2.4068756e+2, -925780.75, -699480.7, -20907.16, -0.3167654, -0.2874472, -697565.4, -116324.54, 0.0, 9.997112, 10.000241 
2.4882214e+3, 2.506804e+2, -544234.6, -421001.9, -32444.834, -0.4365741, -0.33895302, -412981.75, 70327.48, 0.0, 9.998963, 10.000521 
2.48783e+3, 2.6067296e+2, -321375.75, -562223.75, 51945.676, -0.51022935, -0.30088693, -310649.88, 74732.73, 0.0, 10.00098, 9.997983 
2.4874438e+3, 2.7066463e+2, -130619.945, -530840.06, 140056.6, -0.30870795, -0.118516125, -86476.27, 200995.78, 0.0, 10.002237, 9.99685 
2.4870571e+3, 2.806558e+2, 86734.445, -349369.44, 115010.23, -0.18361577, 0.06677759, 115206.336, 304773.16, 0.0, 10.00278, 9.997239 
2.486666e+3, 2.9064465e+2, -24943.324, -208673.14, 6072.1167, -0.26831207, -0.12677833, -24742.863, 66935.93, 0.0, 10.000891, 9.998359 
2.4862815e+3, 3.0063504e+2, -237771.98, -448811.66, 58949.215, 0.22925594, -0.128604, -222422.27, -222422.27, 0.0, 9.999638, 9.997061 
2.4858919e+3, 3.1062853e+2, 401699.5, 279543.63, -31796.842, 0.053803872, 0.2114758, 409480.5, 409480.5, 0.0, 10.0020895, 10.000869 
2.5032893e+3, 1.2116654e+2, -1983697.3, -1812346.9, -195915.23, -0.13831909, -0.18414353, -1684192.6, 68354.22, 0.42027465, 9.997709, 10.000652 
2.502898e+3, 1.311567e+2, -1697948.4, -1770814.9, 85414.91, -0.34200463, -0.3887142, -1641521.1, 13125.74, 0.30251706, 9.999929, 9.998919 
2.5025094e+3, 1.4115025e+2, -1469711.1, -1671066.9, 23902.39, -0.34597677, -0.14546373, -1466912.8, 89800.85, 0.18302314, 10.0010195, 9.998484 
2.5021192e+3, 1.5114297e+2, -1440364.0, -1514582.8, -9625.245, -0.2764504, -0.08897655, -1439136.0, 19649.02, 0.08629053, 10.000131, 9.999217 
2.50173e+3, 1.6113542e+2, -1460600.4, -1401369.4, 39682.418, -0.15527499, -0.035077363, -1381469.5, -20610.627, 0.028287582, 9.998947, 9.999938 
2.5013402e+3, 1.7112656e+2, -1292897.1, -1135566.4, 47774.0, -0.2834306, -0.3209376, -1122195.9, 140748.72, 0.0050760456, 9.998909, 10.001063 
2.5009507e+3, 1.8111856e+2, -1307683.5, -1189061.1, -39441.426, -0.34049705, -0.4411648, -1177144.3, -12120.998, 0.00028139996, 9.998559, 10.000241 
2.5005612e+3, 1.9111554e+2, -1093826.0, -973436.75, -145040.23, -0.1003614, -0.106555134, -876596.1, 190462.22, 0.0000014559199, 9.999232, 10.000638 
2.5001714e+3, 2.011117e+2, -1027316.25, -985303.1, -99839.836, 0.13365228, 0.22998329, -904283.9, 64815.773, 0.0, 9.999304, 9.999918 
2.4997798e+3, 2.1110351e+2, -741882.06, -696935.7, -25897.178, 0.008140205, 0.042420976, -685120.3, 186055.8, 0.0, 10.000303, 10.000638 
2.499388e+3, 2.2109495e+2, -732384.5, -839217.3, -28622.459, -0.11685331, -0.067766964, -725199.25, 48057.1, 0.0, 10.000406, 9.999042 
2.4989957e+3, 2.3108637e+2, -758029.6, -750648.4, -82011.89, -0.18452922, -0.16154905, -672244.1, 3095.0361, 0.0, 9.999442, 9.999357 
2.498604e+3, 2.4107811e+2, -904474.56, -754226.2, -39234.8, -0.21452372, -0.17905365, -744597.75, -167179.81, 0.0, 9.997611, 9.999613 
2.4982148e+3, 2.5107086e+2, -562944.9, -367233.13, -3050.7583, -0.2415532, -0.29289335, -367185.56, 112297.516, 0.0, 9.998662, 10.000992 
2.4978256e+3, 2.6106346e+2, -551276.56, -651059.25, 62436.543, -0.28504968, -0.29222053, -521246.25, -139694.36, 0.0, 9.999422, 9.998101 
2.497438e+3, 2.7105433e+2, -219285.39, -481695.63, 145364.81, -0.37409502, -0.28822345, -154669.89, 128975.27, 0.0, 10.001297, 9.997617 
2.4970508e+3, 2.810449e+2, -216751.27, -593074.1, 42233.45, -0.34326333, -0.19177677, -212069.8, -26326.703, 0.0, 10.001262, 9.996265 
2.4966623e+3, 2.9103455e+2, -241097.45, -478529.7, -82929.195, 0.013302603, -0.21247216, -215000.7, -127148.805, 0.0, 10.000222, 9.9967785 
2.4962752e+3, 3.0102473e+2, -462185.2, -574463.3, 84224.266, 0.36571258, -0.11062315, -417105.06, -417105.06, 0.0, 9.998388, 9.996744 
2.4958818e+3, 3.1101677e+2, 37897.03, 119107.03, 144143.03, -0.5006146, -0.07662796, 228255.1, 228255.1, 0.0, 9.999914, 10.000668 
2.513281e+3, 1.2155707e+2, -2092969.9, -1725568.0, -172548.67, 0.019880548, -0.04900078, -1657239.0, 91489.38, 0.39734322, 9.996397, 10.001931 
2.5128937e+3, 1.3154756e+2, -1693863.8, -1725468.9, 196255.98, -0.064627334, -0.29437605, -1512775.1, 138043.19, 0.28406283, 10.000004, 9.999289 
2.512504e+3, 1.4154132e+2, -1347269.0, -1523117.0, 42557.4, -0.39331692, -0.067944996, -1337511.1, 215367.31, 0.16993596, 10.001718, 9.999172 
2.5121132e+3, 1.5153338e+2, -1263464.0, -1306040.8, 9278.577, -0.27346337, -0.18882272, -1261529.9, 193423.22, 0.078587286, 10.000911, 10.000343 
2.5117227e+3, 1.6152556e+2, -1426615.9, -1433326.0, 96393.95, -0.17280701, -0.20961139, -1333518.6, 23509.459, 0.024857625, 9.999413, 9.999478 
2.5113326e+3, 1.7151827e+2, -1358951.1, -1302244.5, 103601.87, -0.22934172, -0.21459629, -1223186.1, 35916.215, 0.0041356636, 9.999058, 9.999836 
2.5109425e+3, 1.8151079e+2, -1359380.1, -1314488.4, -25788.486, -0.30397835, -0.16075721, -1302745.6, -141566.27, 0.00018434241, 9.998628, 9.999337 
2.5105527e+3, 1.9150406e+2, -1073289.6, -1077437.0, -89678.28, -0.18490574, -0.08908314, -985661.06, 77590.8, 0.00000026313862, 9.999833, 9.999649 
2.5101623e+3, 2.0149754e+2, -764894.9, -798185.25, -88667.19, -0.10581077, 0.033872392, -691324.06, 273995.88, 0.0, 10.000814, 10.000473 
2.5097725e+3, 2.1149062e+2, -513574.0, -495191.66, -33503.375, -0.11324883, -0.09589449, -469641.6, 397741.16, 0.0, 10.001421, 10.001522 
2.5093818e+3, 2.2148342e+2, -504023.6, -703223.5, -95311.99, -0.1650631, -0.12935865, -465766.66, 303682.6, 0.0, 10.001766, 9.999348 
2.508989e+3, 2.3147595e+2, -477302.66, -683227.3, -147627.38, -0.20603153, -0.06416701, -400278.66, 271246.7, 0.0, 10.001566, 9.998841 
2.5085968e+3, 2.4146827e+2, -403909.63, -543652.9, -100359.54, -0.2556643, 0.020367015, -351494.38, 222107.39, 0.0, 10.001076, 9.999403 
2.5082067e+3, 2.5145942e+2, -437747.75, -403019.84, -102036.516, -0.25207582, -0.17473052, -316880.4, 158801.95, 0.0, 9.9998, 10.000264 
2.5078183e+3, 2.614509e+2, -545070.56, -557573.6, -35691.457, -0.2562466, -0.26466778, -515087.28, -137326.14, 0.0, 9.9989605, 9.998996 
2.5074327e+3, 2.7144292e+2, -288292.13, -400287.4, 65291.043, -0.2539834, -0.23740026, -258274.33, 21567.258, 0.0, 10.0002165, 9.998757 
2.5070462e+3, 2.814344e+2, -94096.336, -446157.3, -75793.16, -0.23848474, -0.16052769, -78472.62, 103456.7, 0.0, 10.001564, 9.9971695 
2.5066558e+3, 2.9142424e+2, 120088.52, -342541.16, -151941.48, -0.05258194, -0.15385544, 165527.67, 249562.8, 0.0, 10.002639, 9.9966545 
2.506267e+3, 3.014151e+2, 253446.39, -132841.22, 61946.934, 0.15823999, -0.012407567, 263137.38, 263137.38, 0.0, 10.002678, 9.9977665 
2.5058764e+3, 3.1140736e+2, 90958.96, 132724.1, 120951.65, -0.34522238, 0.02677162, 234582.64, 234582.64, 0.0, 9.999994, 10.000838 
2.5232723e+3, 1.2194821e+2, -1340225.5, -1388894.6, -96744.54, -0.049143013, 0.03861183, -1264802.0, 480099.1, 0.3720952, 10.002868, 10.002226 
2.5228882e+3, 1.3193797e+2, -1549452.5, -1690952.4, 162441.84, 0.0743021, -0.25653812, -1443022.0, 203971.4, 0.26429757, 10.001217, 9.998963 
2.522498e+3, 1.419318e+2, -1593663.8, -1555563.5, -26358.996, -0.31752503, -0.042593915, -1542091.3, 6958.171, 0.15642525, 9.99935, 10.000014 
2.5221065e+3, 1.5192355e+2, -1326966.5, -1257862.9, -133860.03, -0.24406676, -0.2844423, -1154167.4, 296957.7, 0.071005836, 10.00016, 10.001018 
2.5217155e+3, 1.619157e+2, -1300647.6, -1421467.6, -32714.033, -0.09796953, -0.33937964, -1292358.4, 60840.77, 0.021693112, 10.000528, 9.99903 
2.521326e+3, 1.7190982e+2, -1236324.4, -1340508.8, -939.479, -0.1187651, -0.12272724, -1236316.0, 18946.584, 0.00335279, 10.000435, 9.998892 
2.5209358e+3, 1.8190303e+2, -1244016.1, -1383547.0, -27708.828, -0.1408817, 0.09956388, -1238714.9, -81379.67, 0.00011963712, 9.999937, 9.998232 
2.5205445e+3, 1.9189261e+2, -1122807.5, -1210649.6, -45861.574, -0.225884, -0.12434146, -1103227.9, -43784.02, 0.00000002568285, 9.999916, 9.998685 
2.5201538e+3, 2.0188336e+2, -942043.25, -911529.1, -6114.6753, -0.2555111, -0.21087319, -910349.44, 51188.836, 0.0, 9.99971, 10.000232 
2.5197652e+3, 2.1187758e+2, -685103.9, -548868.2, -20607.188, -0.19747345, -0.26179427, -545819.4, 317771.0, 0.0, 10.0000925, 10.001793 
2.5193757e+3, 2.2187184e+2, -803623.25, -886495.9, -94135.56, -0.13699405, -0.15502936, -742207.9, 23436.256, 0.0, 9.999985, 9.998913 
2.518983e+3, 2.3186551e+2, -601920.44, -774633.56, -138542.0, -0.19396523, 0.030749347, -525024.6, 142687.4, 0.0, 10.00092, 9.998502 
2.51859e+3, 2.4185814e+2, -569843.8, -754490.75, -90643.15, -0.2497335, 0.22089055, -532784.9, 37002.992, 0.0, 10.000621, 9.998161 
2.5181988e+3, 2.518473e+2, -524861.7, -573481.56, -117190.17, -0.28823474, -0.076397754, -429486.56, 42403.0, 0.0, 9.999884, 9.999016 
2.51781e+3, 2.6183754e+2, -617189.0, -611740.4, 24902.84, -0.24783914, -0.1821786, -589413.25, -215431.77, 0.0, 9.998685, 9.998723 
2.5174275e+3, 2.718313e+2, -361149.47, -314226.8, 116927.17, -0.058793742, -0.095976226, -218430.45, 57615.285, 0.0, 9.999341, 9.999697 
2.5170422e+3, 2.8182387e+2, -341072.4, -516517.3, -53740.36, -0.033789363, 0.02440123, -325919.9, -147798.14, 0.0, 9.999836, 9.997475 
2.516648e+3, 2.918136e+2, 1809.7242, -300626.7, -107713.83, -0.3628665, -0.08712063, 36250.387, 116476.84, 0.0, 10.001568, 9.99739 
2.5162578e+3, 3.0180576e+2, 48930.883, -221958.86, 14300.417, -0.310582, 0.13608684, 49683.72, 49683.72, 0.0, 10.001415, 9.9977045 
2.515869e+3, 3.1179598e+2, -206858.86, -3400.124, 86187.82, -0.40320024, -0.088874884, 28201.695, 28201.695, 0.0, 9.998224, 10.000639 
2.5332627e+3, 1.2233657e+2, -1275181.0, -1374579.6, -32845.17, -0.77445793, -0.0665101, -1265308.3, 475788.47, 0.34545994, 10.00363, 10.001804 
2.5328812e+3, 1.3232693e+2, -1570875.5, -1728923.5, 63378.26, -0.046510685, -0.26978222, -1548600.0, 94581.14, 0.24384509, 10.001087, 9.998614 
2.5324884e+3, 1.4231959e+2, -1843723.6, -1727496.5, -47134.688, -0.4376926, -0.13241987, -1710784.5, -165535.95, 0.14280653, 9.997944, 9.999468 
2.532098e+3, 1.5231156e+2, -1393130.3, -1337028.8, -92856.58, -0.3869593, -0.29590788, -1268078.5, 179245.48, 0.06363834, 9.99995, 10.000496 
2.5317082e+3, 1.6230395e+2, -1183452.5, -1339467.9, -68739.516, -0.25975075, -0.29958066, -1157487.5, 191909.42, 0.0187796, 10.001236, 9.99925 
2.5313196e+3, 1.7229688e+2, -1029612.25, -1183045.8, -17308.84, -0.16255134, -0.25733334, -1027683.9, 223784.53, 0.0026956536, 10.001536, 9.999471 
2.5309297e+3, 1.8228976e+2, -1007034.4, -1167024.4, -58382.543, -0.15272248, -0.13563061, -987995.44, 165546.31, 0.00007576087, 10.001141, 9.999116 
2.5305375e+3, 1.9228142e+2, -1008931.4, -1074816.5, -35198.914, -0.22498922, -0.21603304, -993664.2, 61965.223, 0.00000000011876218, 10.000321, 9.999425 
2.5301462e+3, 2.0227382e+2, -974947.56, -941396.4, 29835.043, -0.2882477, -0.17239337, -923944.06, 33764.492, 0.0, 9.999515, 10.000109 
2.529757e+3, 2.1226873e+2, -813562.4, -717365.94, 15069.277, -0.26203537, -0.05414617, -715060.56, 144699.11, 0.0, 9.999623, 10.000874 
2.5293678e+3, 2.2226274e+2, -737022.94, -767425.7, -69740.78, -0.24362919, 0.06327452, -680846.06, 80972.19, 0.0, 9.999978, 9.999751 
2.528977e+3, 2.3225392e+2, -449655.53, -584190.5, -43073.824, -0.15692708, -0.08074609, -437046.4, 226856.92, 0.0, 10.001349, 9.999657 
2.5285858e+3, 2.422453e+2, -302063.63, -585520.2, -16750.033, -0.1446055, -0.09405385, -301077.25, 264909.8, 0.0, 10.002184, 9.998593 
2.528193e+3, 2.522368e+2, -249369.3, -499304.6, -17357.932, -0.25057527, -0.08318017, -248169.55, 219899.72, 0.0, 10.001946, 9.998566 
2.5278026e+3, 2.6222828e+2, -264686.84, -505427.84, 116896.734, -0.292489, -0.009325626, -217266.1, 152887.86, 0.0, 10.001265, 9.998234 
2.5274193e+3, 2.722198e+2, -460017.4, -499481.78, 114211.7, -0.07296847, 0.0017639771, -363845.88, -91602.76, 0.0, 9.999118, 9.998583 
2.527034e+3, 2.822116e+2, -500258.2, -435961.66, -41139.477, -0.031990435, 0.06518108, -415899.13, -241570.83, 0.0, 9.998006, 9.998897 
2.5266403e+3, 2.922033e+2, -53834.992, -143851.9, -29477.822, -0.4562609, 0.017801002, -45041.0, 31368.691, 0.0, 10.000308, 9.999112 
2.526251e+3, 3.0219558e+2, 120040.6, -159650.81, -15407.261, -0.43591565, 0.14156342, 120886.77, 120886.77, 0.0, 10.001635, 9.998094 
2.525864e+3, 3.1218663e+2, -51868.86, -10674.472, -41166.65, -0.110346876, 0.12587652, 14760.253, 14760.253, 0.0, 9.999394, 10.00015 
2.5432655e+3, 1.22728445e+2, -1255136.8, -1329341.9, -26981.25, -0.13029444, 0.2014173, -1246363.5, 490888.06, 0.31815657, 10.003449, 10.002169 
2.542875e+3, 1.3271664e+2, -1550458.4, -1752951.3, -103228.25, -0.026484832, -0.19464497, -1507112.6, 132249.84, 0.22319712, 10.001378, 9.998339 
2.54248e+3, 1.4270793e+2, -1586364.1, -1624153.6, -64760.297, -0.39774162, -0.17152229, -1537798.5, 3647.0088, 0.12934339, 9.999711, 9.99936 
2.5420904e+3, 1.527003e+2, -1403167.0, -1398508.8, -47466.41, -0.3941548, -0.26524687, -1353314.4, 90202.97, 0.05657354, 10.000029, 10.00007 
2.5417015e+3, 1.6269284e+2, -1339196.0, -1368478.1, -7472.27, -0.27293402, -0.23330542, -1337399.4, 8189.016, 0.016116831, 9.999929, 9.999675 
2.541313e+3, 1.7268471e+2, -1244085.0, -1231999.8, -9781.769, -0.17540921, -0.36661538, -1226544.8, 21122.846, 0.0021455006, 9.999786, 9.999979 
2.5409234e+3, 1.8267731e+2, -1203624.6, -1196522.9, -52013.688, -0.10632954, -0.32484502, -1147939.0, 1802.1289, 0.000046550977, 9.999499, 9.999722 
2.540531e+3, 1.9267115e+2, -1060354.4, -1025326.5, -70780.17, -0.13518323, -0.26720655, -969925.56, 81880.34, 0.0, 9.999646, 10.000112 
2.5401393e+3, 2.026654e+2, -1056738.4, -1054528.3, 36779.883, -0.16327831, -0.05206595, -1018836.8, -64969.395, 0.0, 9.999356, 9.999372 
2.539749e+3, 2.126603e+2, -927920.75, -897523.56, 13262.797, -0.2748074, 0.14915688, -892550.4, -36626.34, 0.0, 9.99945, 9.999686 
2.5393593e+3, 2.2265336e+2, -807306.94, -765676.0, -21167.979, -0.27516592, 0.24762428, -756803.7, 1190.0051, 0.0, 9.999433, 10.0000105 
2.5389713e+3, 2.3264167e+2, -515480.25, -481540.6, -42819.27, -0.086860076, -0.30759078, -452451.06, 207648.19, 0.0, 10.000435, 10.000761 
2.5385818e+3, 2.426322e+2, -510804.4, -708279.8, -76197.53, 0.026008463, -0.46110225, -484821.63, 77364.46, 0.0, 10.000981, 9.9982815 
2.538188e+3, 2.5262725e+2, -319095.8, -565061.4, -80598.914, -0.18787819, -0.10606607, -295037.94, 169199.11, 0.0, 10.00169, 9.998192 
2.5377965e+3, 2.6262018e+2, -447922.44, -792610.25, 38144.24, -0.31066075, 0.21201806, -443751.72, -77440.2, 0.0, 10.000997, 9.996353 
2.5374103e+3, 2.726081e+2, -646927.2, -800547.44, 40614.78, -0.1497225, 0.011934871, -636850.25, -368409.5, 0.0, 9.998857, 9.996604 
2.537024e+3, 2.8259876e+2, -577850.6, -404399.72, 29319.188, -0.10380171, 0.07366128, -399577.8, -229039.02, 0.0, 9.997293, 9.999436 
2.5366336e+3, 2.925937e+2, -75553.484, 71546.15, 76190.586, -0.44032052, 0.13659917, 103895.25, 176479.48, 0.0, 9.999324, 10.001017 
2.536245e+3, 3.0258483e+2, -181132.36, -385178.94, -46561.992, -0.4185254, 0.08426984, -171009.44, -171009.44, 0.0, 10.0001, 9.997226 
2.5358576e+3, 3.125746e+2, -311683.9, -76609.33, -97652.06, 0.046620272, -0.015782243, -41336.47, -41336.47, 0.0, 9.99757, 10.000519 
2.5532618e+3, 1.2311101e+2, -1441517.3, -1572895.9, 88856.734, -0.16967282, -0.5092464, -1396705.0, 336784.25, 0.29081753, 10.0026045, 10.000007 
2.5528684e+3, 1.3310729e+2, -1589331.8, -1885039.1, -130185.86, -0.13909328, 0.017943844, -1540185.3, 95352.164, 0.2027681, 10.001596, 9.997285 
2.5524753e+3, 1.4309795e+2, -1487825.5, -1496769.1, -75853.805, -0.21630508, 0.01722625, -1416311.8, 121322.06, 0.11625642, 10.00015, 10.000045 
2.5520843e+3, 1.5309064e+2, -1353935.9, -1269054.8, -12825.258, -0.2557822, -0.14933772, -1267159.3, 172537.42, 0.04988728, 9.999918, 10.001038 
2.551694e+3, 1.6308327e+2, -1416336.1, -1367067.3, 8751.76, -0.29271805, -0.1666023, -1365558.9, -23795.219, 0.013707004, 9.999261, 10.000003 
2.5513038e+3, 1.7307526e+2, -1353083.3, -1262715.5, 30935.13, -0.31455752, -0.29005498, -1253140.3, -9296.94, 0.0016894786, 9.998955, 10.000173 
2.5509137e+3, 1.8306823e+2, -1237269.1, -1134841.9, -17945.31, -0.2606928, -0.24586885, -1131788.9, 14124.26, 0.000027889511, 9.998923, 10.000416 
2.5505248e+3, 1.9306262e+2, -1002073.75, -938067.06, -6148.023, -0.019932391, -0.18235342, -937481.9, 110486.47, 0.0, 9.999769, 10.000659 
2.5501344e+3, 2.0305623e+2, -923339.6, -993192.94, 62075.2, 0.015718373, -0.05860782, -887039.9, 62992.184, 0.0, 10.000239, 9.999375 
2.5497416e+3, 2.130479e+2, -810549.8, -894757.06, 72725.9, -0.30958048, -0.12579803, -768619.06, 83496.984, 0.0, 10.000388, 9.999287 
2.5493506e+3, 2.2303963e+2, -729100.44, -827950.4, 12587.777, -0.46534345, -0.10237047, -727522.6, 26676.41, 0.0, 10.000364, 9.999133 
2.5489625e+3, 2.3303059e+2, -592381.0, -679019.1, -58134.207, -0.2692856, -0.23323832, -563200.9, 93085.78, 0.0, 10.000554, 9.999361 
2.548574e+3, 2.4302204e+2, -417194.34, -630321.0, -130335.16, -0.14868464, -0.23478591, -355403.88, 202965.02, 0.0, 10.001361, 9.998675 
2.548183e+3, 2.5301453e+2, -78046.92, -420464.34, -109229.39, -0.22922552, -0.15750782, -46170.723, 414270.94, 0.0, 10.003066, 9.998597 
2.5477922e+3, 2.6300645e+2, 17217.725, -412718.22, -60750.195, -0.26356655, -0.032045953, 25636.895, 388159.9, 0.0, 10.003409, 9.997842 
2.547404e+3, 2.729963e+2, -225266.42, -487324.3, 30873.05, -0.10861559, -0.1131501, -221678.39, 42950.84, 0.0, 10.001168, 9.9977 
2.5470152e+3, 2.829879e+2, -190531.36, -163603.47, 166638.5, -0.11990958, -0.03985578, -9885.884, 156830.64, 0.0, 9.99955, 10.00006 
2.5466248e+3, 2.9298252e+2, -120233.69, 7603.457, 134610.53, -0.49317348, 0.048042733, 92700.25, 161468.72, 0.0, 9.999023, 10.000806 
2.546238e+3, 3.0297366e+2, -143564.34, -154525.75, -57638.863, -0.34547493, -0.08008982, -91146.195, -91146.195, 0.0, 9.9992485, 9.999304 
2.5458473e+3, 3.1296295e+2, 115063.305, 158024.3, -59312.57, -0.16096571, -0.3379154, 199626.23, 199626.23, 0.0, 10.000067, 10.001048 
2.5632545e+3, 1.23503506e+2, -1932170.1, -2018587.8, -1798.9792, -0.31768867, -0.40037027, -1932132.8, -202496.88, 0.26403108, 9.999201, 9.998231 
2.5628614e+3, 1.334977e+2, -1682395.9, -2071818.0, -93328.23, -0.21330693, 0.051685046, -1661184.4, -29473.146, 0.18292536, 10.001364, 9.996151 
2.5624704e+3, 1.4348818e+2, -1266658.3, -1341756.0, 783.56494, -0.02002135, 0.09097628, -1266650.1, 267162.88, 0.1037245, 10.001532, 10.000563 
2.5620782e+3, 1.5348111e+2, -1289176.3, -1217197.6, -37088.055, -0.107859984, -0.09641454, -1201507.6, 234364.98, 0.043632858, 10.000211, 10.001286 
2.5616866e+3, 1.6347404e+2, -1409728.8, -1316182.5, 9632.279, -0.19403857, -0.11868333, -1315201.0, 22735.014, 0.011545959, 9.999147, 10.000375 
2.5612947e+3, 1.7346662e+2, -1358989.4, -1254719.4, 12189.555, -0.34405762, -0.21036348, -1253313.4, -13302.529, 0.0013158798, 9.998912, 10.000222 
2.560905e+3, 1.8345977e+2, -1196087.0, -1101178.6, 11040.153, -0.29724985, -0.15148611, -1099911.3, 42167.313, 0.000016496271, 9.999215, 10.000501 
2.560518e+3, 1.934537e+2, -909630.25, -909272.1, -48567.6, 0.086498804, -0.1450986, -860883.25, 183252.02, 0.0, 10.000498, 10.000527 
2.5601286e+3, 2.0344618e+2, -873675.7, -969215.44, -10092.443, 0.18737654, -0.12345414, -872621.25, 73584.98, 0.0, 10.000671, 9.999322 
2.5597343e+3, 2.1343534e+2, -951799.3, -981951.2, -5703.997, -0.2972837, -0.45165968, -950756.4, -102446.516, 0.0, 9.999601, 9.99906 
2.5593424e+3, 2.2342642e+2, -1005619.1, -1137179.8, 2922.9854, -0.55320877, -0.40597135, -1005554.2, -255155.44, 0.0, 9.999304, 9.997487 
2.5589538e+3, 2.3342046e+2, -841348.4, -1018129.2, -20465.988, -0.4465201, -0.07418286, -839009.94, -186543.83, 0.0, 9.999846, 9.997344 
2.558566e+3, 2.4341255e+2, -590045.8, -717722.0, -440.64853, -0.31949645, 0.12194766, -590044.25, -35496.863, 0.0, 10.000295, 9.998547 
2.5581777e+3, 2.5340065e+2, -340112.13, -508176.34, -12597.273, -0.25564376, -0.29881802, -339173.13, 117485.68, 0.0, 10.00121, 9.998849 
2.557789e+3, 2.633913e+2, -199495.84, -329095.4, -98039.625, -0.13967521, -0.36793372, -146776.34, 211970.73, 0.0, 10.001255, 9.999377 
2.5573984e+3, 2.7338514e+2, -223134.34, -266690.13, -67629.75, -0.0063656243, -0.29198274, -173862.53, 86944.945, 0.0, 10.000342, 9.999559 
2.5570074e+3, 2.833779e+2, -362630.28, -351241.5, 100226.055, -0.12882003, -0.16931054, -256548.2, -93667.41, 0.0, 9.998955, 9.998999 
2.5566152e+3, 2.9336938e+2, -394916.03, -312156.63, 94842.32, -0.6095751, -0.2816767, -250060.03, -185090.39, 0.0, 9.998063, 9.998999 
2.55623e+3, 3.0336228e+2, -171862.89, 9127.301, -61321.855, -0.29308215, -0.19067506, 27947.035, 27947.035, 0.0, 9.998493, 10.000685 
2.555839e+3, 3.1336048e+2, 123295.53, 428050.25, -7774.7446, -0.2571851, 0.1389359, 428248.47, 428248.47, 0.0, 9.999314, 10.003118 
2.5732478e+3, 1.2389486e+2, -2022598.1, -1877108.0, 108300.89, -0.18462816, -0.31142294, -1819388.8, -93586.44, 0.23823552, 9.997913, 9.999756 
2.5728545e+3, 1.3388589e+2, -1662283.9, -1935956.9, 17002.002, -0.33006394, -0.29839802, -1661231.6, -33335.195, 0.16394834, 10.001028, 9.997191 
2.572462e+3, 1.4387666e+2, -1324025.0, -1433702.9, 4456.428, -0.37054446, -0.25881636, -1323844.1, 206148.1, 0.09188186, 10.001444, 9.999865 
2.572071e+3, 1.5387057e+2, -1375560.6, -1372756.8, -41037.598, -0.1600742, -0.23214121, -1333097.1, 98956.79, 0.03784501, 10.00013, 10.000202 
2.5716797e+3, 1.6386473e+2, -1387859.9, -1253289.5, 299.0277, -0.0785077, -0.088833444, -1253288.8, 80822.44, 0.009625426, 9.999116, 10.000795 
2.5712878e+3, 1.7385851e+2, -1298019.4, -1174702.4, 50399.625, -0.23854794, -0.10759833, -1156724.8, 79445.67, 0.0010124295, 9.999116, 10.000666 
2.570897e+3, 1.8385099e+2, -1207570.9, -1257742.8, 60864.55, -0.3542221, -0.07350678, -1166825.3, -28581.48, 0.000009793076, 9.99978, 9.999143 
2.5705084e+3, 1.9384147e+2, -866939.44, -1077547.0, 4846.081, -0.30647168, -0.2276809, -866827.94, 173510.1, 0.0, 10.001572, 9.998855 
2.570119e+3, 2.038331e+2, -666495.4, -834489.9, -121164.875, -0.25812382, -0.22093853, -603059.7, 339360.22, 0.0, 10.001881, 9.999683 
2.569728e+3, 2.1382557e+2, -817788.94, -871849.56, -91927.7, -0.25526682, -0.25298762, -748999.94, 95492.26, 0.0, 10.000241, 9.999544 
2.5693372e+3, 2.2381772e+2, -827475.7, -875464.8, 15716.846, -0.3222089, -0.20338632, -822786.5, -76218.77, 0.0, 9.999667, 9.999131 
2.5689474e+3, 2.338097e+2, -617205.3, -760574.9, 118001.42, -0.4031235, -0.20558214, -550821.1, 97825.67, 0.0, 10.000594, 9.998803 
2.5685585e+3, 2.4380125e+2, -530173.0, -677628.8, 125450.06, -0.39817566, -0.14001082, -458389.7, 92340.13, 0.0, 10.000577, 9.998697 
2.5681704e+3, 2.5379133e+2, -636998.3, -697329.4, 102735.49, -0.27492344, -0.28453624, -560091.25, -107265.37, 0.0, 9.9992695, 9.998519 
2.5677815e+3, 2.6378244e+2, -543152.94, -541985.1, -19996.91, -0.15766914, -0.26684725, -522563.6, -167650.03, 0.0, 9.998989, 9.999022 
2.567391e+3, 2.7377513e+2, -253912.72, -364781.66, -97412.8, -0.05269384, -0.21294071, -197265.81, 59723.74, 0.0, 10.000347, 9.998924 
2.5669992e+3, 2.8376746e+2, -70991.15, -123700.21, -32244.064, -0.21052293, -0.1463976, -55701.46, 103364.48, 0.0, 10.000473, 9.999856 
2.566606e+3, 2.9375917e+2, -247204.98, -188345.6, 52402.0, -0.6618861, -0.27329615, -157674.73, -96528.02, 0.0, 9.998708, 9.999589 
2.566221e+3, 3.0375186e+2, -183873.23, -47080.824, 47790.77, -0.33277488, -0.2153302, -32038.44, -32038.44, 0.0, 9.998446, 10.000382 
2.5658292e+3, 3.1374404e+2, 268118.13, 280160.34, -145981.53, -0.58475834, -0.3554096, 420244.88, 420244.88, 0.0, 10.000922, 10.0014305 
2.5832435e+3, 1.2428563e+2, -1556500.6, -1606970.1, 82018.0, 0.1746101, -0.111724876, -1495923.0, 226056.03, 0.21373183, 10.000937, 10.000417 
2.5828472e+3, 1.3427524e+2, -1597638.6, -1675567.9, -26501.367, -0.3909056, -0.48008522, -1589480.4, 34594.395, 0.14603193, 10.000345, 9.999378 
2.5824535e+3, 1.4426647e+2, -1551562.1, -1604097.1, -22449.771, -0.52014285, -0.500037, -1543275.6, -17113.29, 0.080827504, 10.000011, 9.999319 
2.582064e+3, 1.5426125e+2, -1377853.0, -1504618.5, -101790.81, -0.12745088, -0.28223735, -1321324.4, 106899.88, 0.032553293, 10.000694, 9.999017 
2.5816733e+3, 1.6425572e+2, -1103097.0, -1136663.0, -9291.022, 0.0490042, -0.036285188, -1100696.9, 229585.81, 0.007938516, 10.001137, 10.000619 
2.5812814e+3, 1.7424977e+2, -1011048.75, -1057946.1, -60118.574, -0.11185535, -0.035378784, -969967.7, 262369.53, 0.00076767127, 10.001167, 10.000472 
2.5808898e+3, 1.8424155e+2, -1132429.9, -1351661.6, 31182.865, -0.3220516, -0.015758809, -1128080.9, 6336.247, 0.000005913737, 10.000921, 9.997921 
2.5804994e+3, 1.942296e+2, -1206374.5, -1391391.9, 39014.027, -0.58753633, -0.3006189, -1198484.3, -161946.31, 0.0, 9.999984, 9.997429 
2.5801095e+3, 2.0422104e+2, -954936.3, -963018.8, -91474.49, -0.54096925, -0.23277977, -867413.9, 71210.46, 0.0, 9.9998865, 9.99974 
2.5797218e+3, 2.1421656e+2, -847897.0, -871607.56, -114743.53, -0.11604923, -0.004820462, -744397.94, 96271.11, 0.0, 9.999994, 9.999649 
2.5793326e+3, 2.2420952e+2, -688291.56, -616057.2, 46866.94, 0.0033844975, 0.050027736, -593005.44, 149728.3, 0.0, 9.999968, 10.000724 
2.5789416e+3, 2.341987e+2, -601382.9, -549182.25, 51151.227, -0.27636558, -0.42898425, -517857.22, 126972.11, 0.0, 9.999988, 10.000507 
2.5785518e+3, 2.4419019e+2, -664077.56, -786894.9, -17230.953, -0.37957996, -0.44951978, -661705.9, -114797.49, 0.0, 9.999986, 9.998186 
2.5781623e+3, 2.5418383e+2, -686791.44, -812706.56, -20967.016, -0.26097652, -0.20808709, -683391.9, -234417.53, 0.0, 9.999439, 9.997608 
2.5777727e+3, 2.6417577e+2, -655396.2, -787645.6, -16061.559, -0.18076131, 0.022675894, -653473.5, -302412.75, 0.0, 9.999136, 9.997256 
2.577383e+3, 2.7416557e+2, -526726.6, -710390.06, -39249.695, -0.16088559, -0.06626316, -518690.44, -265517.0, 0.0, 9.999521, 9.996921 
2.5769913e+3, 2.8415757e+2, -126175.78, 26798.664, -40695.76, -0.30651316, 0.010290106, 36951.156, 192204.23, 0.0, 9.999451, 10.00134 
2.576597e+3, 2.941512e+2, -237549.4, 5222.5166, 19964.223, -0.6996893, -0.13882382, 6853.3096, 64155.98, 0.0, 9.998077, 10.001191 
2.5762108e+3, 3.04143e+2, -391793.88, -329773.3, 143709.9, -0.447023, -0.17267144, -213766.0, -213766.0, 0.0, 9.9979725, 9.998612 
2.5758287e+3, 3.141359e+2, 77892.016, 272053.53, 2888.573, -0.004284214, -0.07068134, 272096.5, 272096.5, 0.0, 9.999493, 10.002015 
2.5932345e+3, 1.24675475e+2, -1468747.0, -1372459.9, -100459.836, -0.27010366, 0.11633415, -1309203.4, 408969.66, 0.19077115, 10.000764, 10.00243 
2.5928393e+3, 1.3466766e+2, -1503138.5, -1333540.3, -48029.14, -0.45647565, -0.29868475, -1320883.3, 299350.56, 0.12932457, 9.999702, 10.0023155 
2.5924468e+3, 1.446596e+2, -1694029.1, -1725565.3, 14155.794, -0.45846465, -0.37019974, -1688607.1, -166297.75, 0.07062259, 9.9993, 9.99882 
2.592057e+3, 1.5465368e+2, -1392224.4, -1590676.4, -7424.0005, -0.24178214, -0.14471056, -1391947.0, 32430.13, 0.027766839, 10.000947, 9.99829 
2.591666e+3, 1.6464633e+2, -1081432.9, -1324130.4, 6359.7925, -0.18251048, 0.043199014, -1081266.4, 245189.73, 0.0064744665, 10.002157, 9.998824 
2.5912753e+3, 1.7463727e+2, -933295.7, -1243564.0, -55133.36, -0.25950906, -0.06439096, -923789.94, 304758.1, 0.0005723583, 10.002623, 9.998517 
2.590885e+3, 1.8462904e+2, -866860.7, -1000211.4, -87297.9, -0.29184398, -0.040584434, -823688.3, 306940.3, 0.0000035552432, 10.001769, 9.999934 
2.5904945e+3, 1.9462067e+2, -1162378.6, -1140886.0, 25196.572, -0.3146634, -0.16543354, -1124239.8, -91531.83, 0.0, 9.999236, 9.9995365 
2.5901046e+3, 2.0461309e+2, -1081264.4, -1016422.06, 33359.88, -0.2761374, -0.11134601, -1002324.25, -67542.28, 0.0, 9.998966, 9.999825 
2.5897157e+3, 2.1460672e+2, -663585.9, -811707.56, 28233.557, -0.103521995, -0.010682705, -658386.75, 178459.44, 0.0, 10.001314, 9.999463 
2.5893256e+3, 2.2459881e+2, -515959.47, -750928.0, 26602.318, -0.10082653, 0.058478452, -512985.3, 225938.55, 0.0, 10.002029, 9.998817 
2.588935e+3, 2.3458847e+2, -581393.4, -779831.25, -72718.22, -0.33080706, -0.14378606, -557598.75, 83423.81, 0.0, 10.001054, 9.998444 
2.5885454e+3, 2.4457917e+2, -430093.06, -592312.06, -186703.33, -0.37104675, -0.19424698, -307642.03, 235468.31, 0.0, 10.001127, 9.999003 
2.5881574e+3, 2.5457096e+2, -194121.9, -476714.8, -135329.19, -0.17893852, -0.21934056, -139768.98, 305418.56, 0.0, 10.0022745, 9.998589 
2.587767e+3, 2.6456335e+2, -105644.63, -339595.25, -124433.03, -0.14719002, -0.094192326, -51837.035, 295427.84, 0.0, 10.002059, 9.998949 
2.5873744e+3, 2.7455577e+2, -309685.7, -442832.7, -15052.96, -0.25493708, -0.023687521, -308005.1, -58656.492, 0.0, 10.000202, 9.998475 
2.5869828e+3, 2.845488e+2, -117448.766, 53145.7, 23869.33, -0.33470193, 0.05638826, 56422.52, 207839.9, 0.0, 9.99932, 10.001607 
2.586591e+3, 2.9454207e+2, -10824.591, 110535.695, -37429.12, -0.47306138, -0.08598476, 121150.85, 174622.63, 0.0, 9.999512, 10.001271 
2.5862038e+3, 3.0453372e+2, -146030.14, -284786.13, 79190.04, -0.32811862, -0.116648026, -110125.805, -110125.805, 0.0, 9.999833, 9.998098 
2.585815e+3, 3.145251e+2, -396220.75, -710904.3, -115897.52, -0.61734754, -0.057303406, -358143.3, -358143.3, 0.0, 9.99929, 9.995429 
2.603225e+3, 1.2506542e+2, -1830224.4, -1547976.1, 53006.227, -0.41812876, -0.026960947, -1538349.9, 176004.11, 0.16949552, 9.997939, 10.002291 
2.6028323e+3, 1.3506009e+2, -1330016.9, -1215025.4, -69200.93, -0.39815545, -0.18763858, -1182551.5, 433840.28, 0.11391175, 10.000857, 10.002652 
2.60244e+3, 1.4505275e+2, -1345353.9, -1585218.3, -7358.388, -0.3724629, -0.19750725, -1345128.4, 173330.47, 0.061296463, 10.0019245, 9.998488 
2.60205e+3, 1.5504529e+2, -1284719.9, -1599439.6, -15506.252, -0.28558704, -0.101986215, -1283957.8, 136580.1, 0.023481611, 10.001952, 9.997746 
2.6016596e+3, 1.6503628e+2, -1233202.8, -1568904.8, 43429.496, -0.27224177, 0.018735824, -1227675.4, 94959.17, 0.005220199, 10.001825, 9.997347 
2.6012698e+3, 1.7502531e+2, -1281311.6, -1612791.3, 1796.7256, -0.27139932, -0.10548909, -1281301.9, -56550.383, 0.00041937284, 10.001084, 9.996762 
2.6008797e+3, 1.8501747e+2, -915044.6, -812116.8, -77927.92, -0.16253488, -0.046548445, -770192.9, 356636.3, 0.0000020172258, 10.0005455, 10.001798 
2.6004896e+3, 1.9501217e+2, -1020106.7, -888073.94, -80613.19, 0.046629634, -0.055294268, -849895.06, 178977.92, 0.0, 9.99944, 10.001161 
2.6000994e+3, 2.0500532e+2, -1000661.94, -1006768.2, 77763.58, 0.06901115, 0.003203227, -925891.56, 5045.5405, 0.0, 9.9997225, 9.999502 
2.5997093e+3, 2.1499683e+2, -797779.56, -935177.7, 67211.39, -0.0690767, -0.094702564, -770369.7, 62653.09, 0.0, 10.00075, 9.998854 
2.599319e+3, 2.2498824e+2, -789482.94, -1181872.0, 33884.313, -0.21881391, 0.07483302, -786578.4, -51465.75, 0.0, 10.001481, 9.996109 
2.598928e+3, 2.3497884e+2, -870486.9, -1246451.3, -8512.324, -0.36019918, 0.22349371, -870294.25, -233081.02, 0.0, 10.000541, 9.995467 
2.5985396e+3, 2.4496849e+2, -501093.63, -498714.28, -8713.23, -0.3043363, 0.18043892, -491109.9, 48202.73, 0.0, 10.000184, 10.000079 
2.598153e+3, 2.5495684e+2, -484878.84, -520884.8, -6778.0337, -0.043104526, -0.30808955, -483645.2, -42230.227, 0.0, 9.999939, 9.999404 
2.5977618e+3, 2.6494956e+2, -250713.58, -144400.52, -133261.19, -0.0768104, -0.29550356, -54085.24, 289396.25, 0.0, 10.000042, 10.001223 
2.597366e+3, 2.7494594e+2, -323743.84, -219621.13, -78234.95, -0.3646395, -0.07913284, -177708.6, 67810.17, 0.0, 9.999213, 10.000465 
2.596975e+3, 2.8494006e+2, -292209.97, -185950.14, 9366.44, -0.3114034, 0.07844799, -185130.84, -37554.3, 0.0, 9.998892, 10.000143 
2.5965872e+3, 2.9493174e+2, -309655.16, -254954.8, -52591.156, -0.053057548, -0.08905357, -223027.14, -173372.31, 0.0, 9.99855, 9.999192 
2.596197e+3, 3.0492264e+2, -258927.05, -339519.44, 58053.832, -0.2220999, -0.079334445, -228554.78, -228554.78, 0.0, 9.999237, 9.997925 
2.595809e+3, 3.1491452e+2, -170331.84, 64163.543, 94207.945, -0.4347121, -0.0141186165, 97322.49, 97322.49, 0.0, 9.9981785, 10.001229 
2.613218e+3, 1.25457e+2, -2218685.3, -2005734.4, 209548.69, -0.17885089, -0.36629218, -1877161.6, -166663.42, 0.14988421, 9.996662, 9.999496 
2.6128265e+3, 1.3545214e+2, -1550475.4, -1734083.5, 81156.17, -0.38870943, -0.106850564, -1519746.5, 92806.29, 0.09979623, 10.00113, 9.998597 
2.612435e+3, 1.454442e+2, -1204900.3, -1420162.9, -30524.045, -0.44819742, -0.01976862, -1200655.6, 313974.8, 0.05285716, 10.002551, 9.999343 
2.6120448e+3, 1.5543346e+2, -1217558.3, -1519279.9, 695.68945, -0.33395007, -0.3129654, -1217556.6, 199174.6, 0.019694533, 10.002211, 9.998187 
2.6116544e+3, 1.6542448e+2, -1228498.0, -1501523.9, 18173.125, -0.2618613, -0.23594965, -1227293.6, 91530.15, 0.004163879, 10.001599, 9.997892 
2.6112637e+3, 1.7541637e+2, -1348235.1, -1590662.0, 44280.754, -0.23820409, -0.11449994, -1340400.3, -119485.3, 0.00030229846, 10.000404, 9.997225 
2.6108727e+3, 1.8540892e+2, -1011876.7, -947364.94, -20815.188, -0.15456103, 0.0021991427, -941231.8, 181758.64, 0.0000010444409, 10.000221, 10.001032 
2.610482e+3, 1.9540192e+2, -909195.9, -940031.1, -47317.563, -0.039810594, -0.07341115, -874847.5, 150206.25, 0.0, 10.000564, 10.000287 
2.610092e+3, 2.0539473e+2, -754429.2, -855633.56, 78140.43, -0.071509615, -0.029075751, -711937.3, 215185.1, 0.0, 10.001218, 9.999833 
2.609702e+3, 2.1538688e+2, -602116.2, -826012.0, 96749.555, -0.26837233, -0.068462916, -566101.9, 263098.66, 0.0, 10.001939, 9.999047 
2.609313e+3, 2.253786e+2, -520355.72, -833616.7, 76556.984, -0.28914094, 0.017684374, -502647.22, 228637.25, 0.0, 10.002283, 9.998153 
2.6089242e+3, 2.353697e+2, -501349.44, -861448.8, 189633.47, -0.1686606, 0.06267775, -419905.8, 213470.23, 0.0, 10.002032, 9.997442 
2.6085344e+3, 2.453603e+2, -469930.88, -475215.9, 166720.44, -0.114141, 0.029448828, -305832.0, 229633.1, 0.0, 10.000297, 10.000205 
2.6081437e+3, 2.5535002e+2, -829373.3, -689890.56, 161278.48, -0.10980214, -0.26430294, -583920.2, -146364.23, 0.0, 9.99746, 9.999477 
2.6077515e+3, 2.6534197e+2, -651144.25, -410714.72, 75763.234, -0.21258643, -0.28517824, -388832.13, -49201.4, 0.0, 9.9975, 10.0006485 
2.6073578e+3, 2.7533606e+2, -235507.63, -235786.1, 12763.618, -0.39960745, -0.19999456, -222882.47, 18807.115, 0.0, 9.999933, 10.00004 
2.6069677e+3, 2.853289e+2, -88844.84, -214220.2, -16266.011, -0.30333456, -0.10280691, -86768.89, 56992.52, 0.0, 10.000744, 9.999086 
2.60658e+3, 2.9532033e+2, -147476.0, -300178.16, -36439.816, -0.025747957, -0.13720727, -139225.97, -93379.32, 0.0, 10.000081, 9.998179 
2.6061887e+3, 3.0531186e+2, -108851.516, -232244.38, 109424.336, -0.32226908, -0.036652714, -44928.938, -44928.938, 0.0, 9.999954, 9.998361 
2.605805e+3, 3.1530654e+2, -43864.484, -157095.58, 13166.404, -0.024580607, 0.29983008, -42353.668, -42353.668, 0.0, 10.000037, 9.9988365 
2.6232105e+3, 1.2584788e+2, -1632209.4, -1887282.6, 74044.31, -0.110350415, -0.523525, -1612273.5, 94387.64, 0.13183987, 10.001528, 9.997938 
2.6228207e+3, 1.3584334e+2, -1665802.3, -1975205.0, 69455.78, -0.3289974, -0.060657788, -1650925.9, -42203.34, 0.08692974, 10.001044, 9.996984 
2.6224303e+3, 1.4583485e+2, -1310940.6, -1441514.4, -17585.281, -0.38606542, 0.02377996, -1308613.8, 202193.05, 0.045284748, 10.001528, 9.99973 
2.6220405e+3, 1.5582293e+2, -1170870.0, -1452223.1, -36170.613, -0.24924631, -0.42259753, -1166294.3, 246619.02, 0.01638905, 10.002279, 9.998652 
2.6216495e+3, 1.6581433e+2, -1101238.1, -1375417.9, -17589.512, -0.17466244, -0.36524788, -1100114.4, 214884.72, 0.0032885466, 10.002211, 9.998464 
2.621258e+3, 1.758081e+2, -1209748.1, -1475831.0, -4002.547, -0.12343951, -0.10965362, -1209688.0, 7382.828, 0.00021471751, 10.001145, 9.997672 
2.6208663e+3, 1.8580058e+2, -972410.2, -1053888.1, 1209.5775, -0.106670596, 0.02502959, -972392.25, 146756.2, 0.00000047553752, 10.001012, 9.999928 
2.6204744e+3, 1.9579205e+2, -988160.0, -1120589.0, -38959.49, -0.089160144, -0.09899388, -977548.75, 43681.793, 0.0, 10.000667, 9.999001 
2.620084e+3, 2.057844e+2, -850665.5, -882364.6, 115901.375, -0.20604816, -0.046817016, -749535.0, 173769.72, 0.0, 10.0005045, 9.99998 
2.6196945e+3, 2.1577711e+2, -953879.2, -987578.1, 107284.625, -0.41004735, -0.058408555, -862128.94, -36753.094, 0.0, 9.999547, 9.999087 
2.619307e+3, 2.2576933e+2, -670400.5, -603067.3, 67015.4, -0.27688262, -0.05939029, -561737.2, 165713.11, 0.0, 10.000072, 10.000757 
2.6189214e+3, 2.3576099e+2, -656320.44, -680845.2, 98128.055, 0.12361916, -0.24115759, -569691.56, 59837.688, 0.0, 10.00001, 9.999622 
2.618529e+3, 2.4575332e+2, -567393.56, -570115.9, 9252.107, 0.08008574, -0.18934402, -559403.06, -27803.074, 0.0, 9.999947, 9.99967 
2.618132e+3, 2.557457e+2, -800677.9, -783998.9, 9929.23, -0.2626405, -0.18561342, -779371.6, -345702.75, 0.0, 9.998239, 9.998423 
2.6177397e+3, 2.6573646e+2, -659536.25, -623648.4, 122438.12, -0.3953027, -0.18347396, -517846.28, -182088.11, 0.0, 9.998416, 9.998703 
2.6173505e+3, 2.7572608e+2, -522212.0, -634363.0, 62057.75, -0.37154603, -0.38404128, -494647.63, -256785.77, 0.0, 9.9991865, 9.997629 
2.6169604e+3, 2.8571695e+2, -281902.0, -389811.78, -49751.223, -0.3618093, -0.3231872, -262465.38, -122510.805, 0.0, 9.999917, 9.998221 
2.6165694e+3, 2.9570824e+2, -396222.8, -562707.25, -35255.438, -0.33310533, -0.31342146, -389064.72, -347020.6, 0.0, 9.999109, 9.996821 
2.61618e+3, 3.0570242e+2, -225837.28, -248807.08, 125574.94, -0.44305804, 0.10479782, -111223.14, -111223.14, 0.0, 9.999109, 9.998619 
2.6157954e+3, 3.1569278e+2, -406667.44, -492853.56, 47168.855, -0.3358898, -0.029257892, -385870.63, -385870.63, 0.0, 9.998483, 9.997239 
2.633202e+3, 1.2624033e+2, -1501860.5, -1623708.3, -43713.098, -0.5382186, -0.027414031, -1487800.6, 215028.38, 0.11528824, 10.001727, 9.999686 
2.6328143e+3, 1.362312e+2, -1644757.1, -1805914.1, 43009.848, -0.3847102, -0.22537354, -1633997.0, -29074.57, 0.07524984, 10.000526, 9.998387 
2.6324254e+3, 1.4622368e+2, -1395297.3, -1462398.6, 39052.777, -0.3167438, -0.11503658, -1377362.3, 129633.27, 0.038529176, 10.000882, 9.999857 
2.6320362e+3, 1.5621634e+2, -1151491.9, -1414421.1, 33178.117, -0.22450113, -0.12374703, -1147369.9, 261693.31, 0.013527696, 10.002321, 9.998872 
2.631645e+3, 1.6620797e+2, -968575.2, -1210183.4, -45102.918, -0.16203834, -0.10320913, -960430.06, 350715.1, 0.0025719018, 10.002683, 9.999379 
2.6312524e+3, 1.7619924e+2, -1046302.4, -1305716.4, 7952.828, -0.14792098, -0.18080047, -1046058.8, 167174.95, 0.00015054179, 10.001848, 9.998505 
2.63086e+3, 1.8619117e+2, -915108.06, -1117300.0, 4859.987, -0.18150896, -0.096396774, -914991.3, 200324.22, 0.0000001940375, 10.001777, 9.999136 
2.6304668e+3, 1.9618315e+2, -898120.0, -1143906.6, 1375.7086, -0.29044363, -0.081975594, -898112.3, 119283.79, 0.0, 10.001495, 9.998466 
2.630076e+3, 2.0617504e+2, -859815.3, -842356.5, 83140.5, -0.3226994, -0.07279319, -767488.4, 151985.02, 0.0, 10.000257, 10.0003605 
2.629687e+3, 2.1616688e+2, -1070390.1, -992311.06, 118989.555, -0.36044702, -0.19006312, -906120.44, -84571.21, 0.0, 9.998467, 9.999581 
2.6292986e+3, 2.2615935e+2, -894113.8, -727210.2, 93028.41, -0.29501197, -0.18307868, -685688.06, 37934.63, 0.0, 9.998549, 10.000657 
2.628911e+3, 2.3615216e+2, -679414.94, -676050.44, 48877.21, -0.16761996, -0.2256011, -628826.5, -3132.07, 0.0, 9.999687, 9.999832 
2.6285198e+3, 2.461448e+2, -357566.84, -474490.72, -91954.67, -0.17975949, -0.16942126, -307063.38, 220699.33, 0.0, 10.001311, 9.999704 
2.6281255e+3, 2.5613728e+2, -75907.9, -411174.22, -66614.22, -0.32888907, -0.15684435, -63157.22, 366672.44, 0.0, 10.003002, 9.998711 
2.627734e+3, 2.6612797e+2, -143394.17, -511088.5, -15788.534, -0.36286354, -0.12633842, -142717.47, 189205.22, 0.0, 10.002432, 9.997597 
2.627344e+3, 2.7611735e+2, -412359.47, -661495.25, -39908.297, -0.30654812, -0.21282105, -406122.8, -172089.47, 0.0, 10.000123, 9.9970455 
2.6269534e+3, 2.861076e+2, -239367.81, -244207.5, -56036.734, -0.28482115, -0.26137546, -185698.7, -49569.016, 0.0, 9.999538, 9.999451 
2.626562e+3, 2.9609853e+2, -135103.45, -259621.88, 51031.35, -0.29668647, -0.3780479, -116861.69, -78644.62, 0.0, 9.999993, 9.998525 
2.6261714e+3, 3.0609474e+2, -132063.94, -143569.4, 226086.22, -0.48141816, 0.13095574, 88342.73, 88342.73, 0.0, 9.999351, 9.999312 
2.625791e+3, 3.16086e+2, -273871.16, 84264.305, -30537.14, 0.21055762, 0.09273522, 86849.45, 86849.45, 0.0, 9.996918, 10.002068 
2.6431948e+3, 1.2663117e+2, -1722692.0, -1640561.5, 12244.201, -0.6352373, 0.17769961, -1638774.9, 60231.945, 0.10017185, 9.999453, 10.000722 
2.642808e+3, 1.3661987e+2, -1479305.1, -1589697.4, -8004.318, -0.33833453, -0.32005695, -1478727.8, 122384.64, 0.06469282, 10.001118, 9.999608 
2.6424202e+3, 1.4661317e+2, -1321977.9, -1422484.0, 41550.586, -0.18828535, -0.19996811, -1307024.9, 196151.86, 0.032530583, 10.001367, 9.999904 
2.642032e+3, 1.5660848e+2, -1366664.9, -1509901.4, -3934.5469, -0.08873407, 0.05509295, -1366556.9, 38666.477, 0.011066901, 10.000769, 9.998967 
2.64164e+3, 1.6660042e+2, -1191364.9, -1233016.3, -102668.86, -0.07356719, 0.04477906, -1107430.9, 199870.25, 0.0019930317, 10.00076, 10.00015 
2.6412466e+3, 1.7659034e+2, -1275738.0, -1386877.6, -89117.29, -0.0990219, -0.23883852, -1226284.5, -16886.488, 0.00010503105, 10.000109, 9.998819 
2.6408532e+3, 1.8658201e+2, -1144776.5, -1248777.9, -17125.2, -0.20540251, -0.18739875, -1142029.3, -30548.328, 0.00000008640195, 10.000428, 9.998808 
2.6404598e+3, 1.9657461e+2, -1077888.9, -1279876.5, -17634.049, -0.34937, -0.07773647, -1076361.0, -62804.15, 0.0, 10.000575, 9.997945 
2.6400688e+3, 2.0656608e+2, -803988.1, -795456.4, 39495.723, -0.31657147, -0.10608504, -759996.8, 155639.97, 0.0, 10.000555, 10.000557 
2.6396796e+3, 2.1655697e+2, -1011696.8, -996690.25, 43674.01, -0.15602434, -0.34315392, -959879.7, -142160.84, 0.0, 9.999023, 9.999313 
2.63929e+3, 2.2654969e+2, -847948.94, -798681.8, 115258.61, -0.27941102, -0.25744703, -705453.75, 14339.042, 0.0, 9.999304, 9.999777 
2.6388997e+3, 2.365434e+2, -840242.06, -879327.8, 52419.742, -0.52533066, -0.1433069, -803840.75, -181978.4, 0.0, 9.999171, 9.998689 
2.6385102e+3, 2.4653587e+2, -471090.88, -500364.0, -46113.234, -0.47934338, -0.07221841, -437347.1, 86585.74, 0.0, 10.000488, 9.999895 
2.638121e+3, 2.5652745e+2, -413955.34, -620588.5, -38406.7, -0.28317374, -0.18130933, -407047.66, 18958.703, 0.0, 10.000967, 9.99825 
2.6377296e+3, 2.665186e+2, -406875.88, -710975.75, -85646.53, -0.225863, -0.047309585, -384413.63, -56314.883, 0.0, 10.001066, 9.996825 
2.6373374e+3, 2.7650917e+2, -648108.1, -863738.94, -75854.36, -0.21622802, 0.045936346, -624097.7, -393893.84, 0.0, 9.999013, 9.996175 
2.636947e+3, 2.8649953e+2, -183451.39, 2692.4065, -10960.661, -0.13491799, -0.064384885, 3335.5781, 135630.47, 0.0, 9.999078, 10.001327 
2.6365566e+3, 2.964901e+2, -195240.73, -120863.15, 55887.406, -0.083891645, -0.42568433, -90922.16, -56546.445, 0.0, 9.998973, 9.999949 
2.636162e+3, 3.0648783e+2, -130616.69, -14307.735, 151011.33, -0.61878884, 0.088481545, 89359.8, 89359.8, 0.0, 9.998953, 10.000304 
2.6357746e+3, 3.164741e+2, -438350.4, -92685.586, 46765.48, -0.4043149, -0.5790336, -86470.375, -86470.375, 0.0, 9.996415, 10.001017 
2.653188e+3, 1.2701942e+2, -1954498.1, -1757065.9, 97609.31, -0.54349303, 0.01788331, -1716956.8, -21756.924, 0.086430125, 9.998074, 10.000478 
2.652802e+3, 1.3701056e+2, -1511547.1, -1640014.6, 101443.01, -0.38670662, -0.22937182, -1455711.5, 141568.39, 0.055199515, 10.001052, 9.999293 
2.6524144e+3, 1.4700267e+2, -1335647.0, -1413141.4, 15158.253, -0.19464399, -0.22562073, -1332787.5, 166567.45, 0.027235242, 10.001231, 10.000017 
2.6520264e+3, 1.5699507e+2, -1485332.1, -1558347.4, -2918.658, 0.005284492, -0.26515222, -1485215.6, -83786.17, 0.0089680515, 9.999914, 9.999045 
2.6516333e+3, 1.669885e+2, -1328306.8, -1266009.6, -113724.53, -0.03176094, -0.14716886, -1179245.0, 124250.055, 0.0015322798, 9.999742, 10.000381 
2.651238e+3, 1.7698179e+2, -1349807.8, -1376150.6, -90116.78, -0.2110771, -0.11137041, -1271904.9, -66342.7, 0.00007382683, 9.999388, 9.999237 
2.650846e+3, 1.8697368e+2, -1138781.1, -1136162.1, 7254.374, -0.22120343, -0.11906685, -1130100.0, -22459.43, 0.000000036839044, 9.999967, 9.999814 
2.650455e+3, 1.9696501e+2, -988441.0, -1137396.0, 49423.137, -0.21095017, -0.22191809, -973534.25, 36188.977, 0.0, 10.000704, 9.998869 
2.6500645e+3, 2.0695649e+2, -720922.06, -821848.1, 53611.027, -0.14321263, -0.2550648, -697759.94, 214043.98, 0.0, 10.001392, 9.999971 
2.6496744e+3, 2.16948e+2, -650400.06, -879074.44, 61927.527, -0.08693586, -0.35777256, -634706.44, 179177.42, 0.0, 10.001673, 9.998857 
2.649284e+3, 2.2694045e+2, -606486.44, -805634.5, 92497.17, -0.24093583, -0.21968718, -570153.5, 145809.38, 0.0, 10.001422, 9.998734 
2.6488933e+3, 2.3693344e+2, -595387.8, -812805.7, 39372.5, -0.5165795, -0.062505536, -588477.44, 29563.389, 0.0, 10.000941, 9.998325 
2.648504e+3, 2.469251e+2, -426765.56, -395463.34, -60300.246, -0.40743473, -0.11113395, -348816.16, 171301.86, 0.0, 10.000341, 10.000731 
2.6481155e+3, 2.569161e+2, -529761.44, -558545.75, -24625.586, -0.1379954, -0.33040732, -515630.72, -93435.61, 0.0, 9.999529, 9.999404 
2.6477233e+3, 2.6690802e+2, -493582.72, -602356.6, -20385.703, -0.17546722, -0.23891583, -489887.7, -165610.08, 0.0, 9.999725, 9.99825 
2.6473293e+3, 2.7690032e+2, -322781.25, -522832.0, 79311.46, -0.29090175, -0.081408285, -295153.25, -68789.586, 0.0, 10.000315, 9.997921 
2.6469398e+3, 2.8689143e+2, 23214.363, 29021.348, 123801.875, -0.119862914, -0.15619321, 149953.77, 278402.25, 0.0, 10.000649, 10.000832 
2.6465508e+3, 2.9688227e+2, 71473.83, 14222.478, 75043.48, 0.03786685, -0.40770766, 123165.98, 153694.1, 0.0, 10.000597, 10.000138 
2.6461557e+3, 3.0687854e+2, -23854.809, 74608.24, 28939.031, -0.42125097, -0.06933759, 82483.73, 82483.73, 0.0, 9.999383, 10.000763 
2.645764e+3, 3.1686518e+2, -109168.3, 72381.17, 103013.96, -0.52752286, -0.7150946, 118908.766, 118908.766, 0.0, 9.998402, 10.001262 
2.6631832e+3, 1.2740807e+2, -1465251.8, -1521150.6, 105028.36, -0.24659102, -0.11826887, -1384517.6, 306871.06, 0.07399981, 10.001424, 10.000568 
2.6627958e+3, 1.3740112e+2, -1562735.3, -1680948.1, 71194.77, -0.3281877, -0.16947885, -1529309.1, 64139.473, 0.046711504, 10.00065, 9.99923 
2.6624084e+3, 1.4739253e+2, -1414083.9, -1434913.1, -30554.49, -0.15563796, -0.24545254, -1392217.9, 103312.7, 0.022592498, 10.000595, 10.000198 
2.6620203e+3, 1.5738332e+2, -1436947.1, -1526621.6, -67454.72, 0.15853801, -0.45461303, -1400787.4, -3166.4604, 0.0071954923, 10.000184, 9.999171 
2.6616263e+3, 1.6737747e+2, -1202481.8, -1217282.0, -124515.69, 0.05105699, -0.27017266, -1085146.5, 214534.75, 0.001170623, 10.0006275, 10.000313 
2.6612306e+3, 1.77373e+2, -1170286.0, -1275262.9, -120318.43, -0.18627329, -0.012863067, -1091505.4, 110223.5, 0.00005271245, 10.000597, 9.999346 
2.6608393e+3, 1.873649e+2, -965298.44, -956047.5, -9789.648, -0.15242545, -0.08733459, -949845.6, 153958.9, 0.000000014947995, 10.000733, 10.000696 
2.6604503e+3, 1.9735539e+2, -1080938.6, -1148262.8, -5207.182, 0.035151973, -0.36216962, -1080538.3, -74647.43, 0.0, 9.9999695, 9.999158 
2.66006e+3, 2.0734711e+2, -867039.0, -960541.6, 12822.567, 0.05456019, -0.35737208, -865312.5, 42658.457, 0.0, 10.0008, 9.999236 
2.6596695e+3, 2.1733926e+2, -876484.75, -1110590.6, -2960.7742, 0.024103323, -0.33248487, -876447.3, -66398.125, 0.0, 10.000775, 9.997654 
2.6592785e+3, 2.273314e+2, -738027.0, -943362.2, 73274.086, -0.15071104, -0.14730203, -714560.9, -2428.4424, 0.0, 10.000954, 9.997943 
2.658888e+3, 2.3732346e+2, -852350.56, -1015765.06, 51639.098, -0.33740038, -0.021523796, -837400.3, -223181.73, 0.0, 9.99964, 9.997526 
2.6584986e+3, 2.473143e+2, -478501.9, -333980.53, -53360.535, -0.2126179, -0.16740152, -316413.88, 199888.1, 0.0, 9.999704, 10.001431 
2.6581088e+3, 2.5730464e+2, -659298.2, -558741.25, -47547.563, 0.024108406, -0.5343639, -539819.3, -121435.22, 0.0, 9.99851, 9.999866 
2.6577154e+3, 2.6729771e+2, -440351.1, -324086.34, -5051.9697, -0.16036372, -0.48300558, -323867.25, -3416.3083, 0.0, 9.999184, 10.000334 
2.6573205e+3, 2.7729174e+2, -429731.66, -464497.56, 81462.945, -0.43718016, -0.37608686, -363817.7, -141303.44, 0.0, 9.99928, 9.998773 
2.6569322e+3, 2.8728366e+2, -161258.6, -211542.02, 104810.33, -0.18830198, -0.32466346, -78616.67, 45976.25, 0.0, 10.0002165, 9.999299 
2.6565444e+3, 2.9727504e+2, -229810.05, -331782.25, 58320.02, 0.08883295, -0.3849221, -203331.28, -176656.6, 0.0, 9.999577, 9.998207 
2.6561517e+3, 3.072674e+2, -123571.24, -14132.335, -46073.453, -0.0067895707, -0.34494215, 2681.2917, 2681.2917, 0.0, 9.999015, 10.00025 
2.655757e+3, 3.1726038e+2, -343348.66, -164414.28, 328346.16, -0.3558854, -0.34524015, 86435.39, 86435.39, 0.0, 9.9975395, 9.99999 
2.6731816e+3, 1.2779619e+2, -1456261.0, -1413179.1, -359.83786, 0.022822179, -0.13924554, -1413176.1, 274406.38, 0.062782034, 10.001124, 10.001454 
2.672789e+3, 1.3778958e+2, -1641198.0, -1666688.4, 43448.93, -0.3731289, -0.2486145, -1608663.5, -19024.994, 0.039146993, 9.999913, 9.999676 
2.6724002e+3, 1.4778262e+2, -1474940.6, -1431433.6, -17286.975, -0.25204515, -0.19754815, -1425401.3, 66305.3, 0.018543638, 10.000086, 10.000435 
2.6720127e+3, 1.5777536e+2, -1415057.4, -1499906.3, -29751.303, 0.06096668, -0.23180187, -1405665.0, -11884.679, 0.005710664, 10.000272, 9.999309 
2.67162e+3, 1.6776787e+2, -1127258.4, -1189154.9, -88673.57, 0.024406157, -0.21373235, -1064287.5, 231567.98, 0.0008890518, 10.001196, 10.000214 
2.671225e+3, 1.7776053e+2, -991081.6, -1182685.9, -79445.45, -0.17490944, -0.23039363, -962426.44, 235502.44, 0.000037964888, 10.00179, 9.999391 
2.6708332e+3, 1.877531e+2, -859031.7, -892779.44, -57321.754, -0.14590779, -0.24318773, -816151.8, 283847.56, 0.0000000057994387, 10.001425, 10.000792 
2.6704428e+3, 1.9774549e+2, -1035468.9, -1116911.5, -39893.61, -0.05443804, -0.33078483, -1019183.8, -17113.63, 0.0, 10.000198, 9.999266 
2.6700526e+3, 2.0773752e+2, -888048.06, -1036278.3, 9305.721, -0.03021682, -0.26305783, -887466.1, 16684.684, 0.0, 10.000902, 9.998691 
2.669663e+3, 2.1772937e+2, -650461.25, -950847.1, -13927.504, -0.081162564, -0.21623188, -649816.9, 156418.08, 0.0, 10.002011, 9.998176 
2.6692727e+3, 2.277219e+2, -509407.25, -599589.0, 52008.742, -0.15048176, -0.14957884, -485664.3, 222643.36, 0.0, 10.0014305, 10.000119 
2.6688823e+3, 2.3771456e+2, -639167.25, -732953.94, 130288.66, -0.24133773, -0.13711622, -547589.94, 62787.85, 0.0, 10.000221, 9.999211 
2.6684904e+3, 2.4770579e+2, -504659.63, -471076.7, 21407.414, -0.25446606, -0.23058334, -460660.97, 51799.38, 0.0, 9.999974, 10.000394 
2.6680982e+3, 2.5769666e+2, -456157.16, -478516.28, -22786.49, -0.26653904, -0.42954838, -441955.5, -27410.43, 0.0, 9.999855, 9.999799 
2.6677066e+3, 2.6769027e+2, -264427.4, -174266.34, -26501.205, -0.24764888, -0.36258698, -167053.78, 149553.42, 0.0, 9.999982, 10.001039 
2.6673153e+3, 2.7768472e+2, -226145.89, -254771.69, 6767.2505, -0.20447092, -0.26936302, -224626.72, -5963.601, 0.0, 10.00007, 9.999853 
2.666926e+3, 2.8767687e+2, -116543.01, -187933.67, 48565.773, -0.09533883, -0.24280167, -91965.695, 28772.828, 0.0, 10.000462, 9.999382 
2.6665363e+3, 2.9766822e+2, -20256.006, -222807.03, 52614.45, -0.06398019, -0.2827136, -7404.354, 15417.175, 0.0, 10.000854, 9.998377 
2.666146e+3, 3.0765685e+2, 182961.28, -28186.395, -75496.75, 0.12994932, -0.5292577, 207178.02, 207178.02, 0.0, 10.001704, 9.998916 
2.66575e+3, 3.176549e+2, 314575.0, 180794.5, 333897.94, -0.38137197, 0.124494545, 588216.9, 588216.9, 0.0, 10.00167, 10.000445 
2.6831788e+3, 1.2818614e+2, -1102302.6, -1294899.3, 99134.266, 0.24963534, -0.20173322, -1060394.8, 623359.4, 0.05267765, 10.00372, 10.001142 
2.6827824e+3, 1.3817915e+2, -1638387.9, -1648617.6, 23953.207, -0.2870988, -0.3024336, -1619009.5, -33192.008, 0.03242507, 9.999828, 9.9998455 
2.6823926e+3, 1.4817302e+2, -1472931.8, -1397377.8, 65615.82, -0.24939987, -0.19957054, -1359441.3, 128438.03, 0.015032841, 9.999925, 10.000737 
2.6820058e+3, 1.5816692e+2, -1317803.3, -1423438.1, 25241.475, 0.0653363, -0.14293759, -1312081.6, 77861.06, 0.0044764117, 10.000815, 9.999564 
2.6816136e+3, 1.6815875e+2, -1107234.3, -1170631.5, -65.58234, 0.035164744, -0.20037656, -1107234.3, 184789.88, 0.00066900725, 10.001327, 10.000275 
2.68122e+3, 1.7814994e+2, -1118989.8, -1262434.1, -12559.87, -0.09479144, -0.35609585, -1117898.4, 76212.47, 0.000027210404, 10.001015, 9.999227 
2.680827e+3, 1.8814279e+2, -966196.1, -985429.7, -47958.254, -0.12271839, -0.30372113, -926899.94, 169281.1, 0.000000001728097, 10.0008955, 10.000416 
2.6804352e+3, 1.9813646e+2, -1147918.0, -1233663.6, -51273.617, -0.070375204, -0.22009021, -1123954.8, -125711.195, 0.0, 9.999743, 9.998684 
2.6800457e+3, 2.0812833e+2, -914316.6, -1092597.5, 77959.68, -0.08643214, -0.13141629, -885035.25, 15293.439, 0.0, 10.000929, 9.998284 
2.679657e+3, 2.1811976e+2, -754027.94, -981996.44, 38233.516, -0.10257183, -0.091593854, -747786.56, 54632.12, 0.0, 10.001265, 9.998335 
2.679267e+3, 2.2811267e+2, -400489.72, -284400.63, 4144.725, -0.10697277, -0.15721029, -284252.84, 420226.47, 0.0, 10.001065, 10.002455 
2.678876e+3, 2.3810615e+2, -776246.5, -712677.9, 30648.78, -0.09707963, -0.28981096, -700308.06, -93777.05, 0.0, 9.999002, 9.999931 
2.6784816e+3, 2.480982e+2, -690615.1, -707082.0, -2708.9932, -0.35575497, -0.25916308, -690180.94, -181570.97, 0.0, 9.999479, 9.998913 
2.6780865e+3, 2.5809e+2, -706639.3, -766567.56, -8255.383, -0.6488617, -0.2427114, -705522.94, -294827.63, 0.0, 9.998985, 9.998202 
2.677698e+3, 2.680839e+2, -299634.75, -193012.77, -17337.986, -0.32022846, -0.099015824, -190264.27, 122492.36, 0.0, 9.999825, 10.00095 
2.677312e+3, 2.780783e+2, -384362.94, -379225.47, -6420.691, 0.19925116, -0.014834934, -374878.75, -160066.78, 0.0, 9.99927, 9.999385 
2.6769203e+3, 2.8807026e+2, -129081.21, -125075.22, 25918.926, 0.025742637, -0.042440332, -101082.01, 15805.352, 0.0, 10.0001335, 9.999941 
2.676526e+3, 2.9806128e+2, -239792.72, -395082.66, 29193.137, -0.3767733, -0.17816925, -234486.0, -215514.55, 0.0, 9.999744, 9.997716 
2.67614e+3, 3.0804673e+2, -39004.355, -344022.75, -62380.45, 0.14065307, -0.60938996, -26739.844, -26739.844, 0.0, 10.001239, 9.996897 
2.6757458e+3, 3.180388e+2, 131147.58, 283480.9, 208962.86, -0.27138224, -0.43228376, 429725.66, 429725.66, 0.0, 9.999873, 10.001943 
2.6931736e+3, 1.2857907e+2, -1340009.3, -1661995.8, -70342.555, 0.014980386, -0.27566803, -1325312.8, 354576.63, 0.0436191, 10.00328, 9.998589 
2.6927754e+3, 1.3857056e+2, -1858797.8, -1911069.6, -31702.326, -0.25926894, -0.33250058, -1843846.9, -261867.89, 0.026486209, 9.999055, 9.998383 
2.692386e+3, 1.4856274e+2, -1480425.0, -1338006.3, 154754.06, -0.19285803, -0.38763085, -1238864.3, 245191.97, 0.012009438, 9.99963, 10.0012865 
2.6919994e+3, 1.5855539e+2, -1251553.8, -1329163.0, 103278.74, 0.0147412745, -0.50235647, -1180030.3, 206098.1, 0.003455713, 10.001003, 10.000114 
2.6916066e+3, 1.685509e+2, -1041588.8, -1065221.9, 42634.344, -0.058077447, -0.26482716, -1009163.75, 279013.16, 0.00049606664, 10.001431, 10.00094 
2.6912123e+3, 1.7854658e+2, -1129470.1, -1290461.0, 56812.17, -0.26565075, -0.01174983, -1111440.8, 78783.625, 0.00001910138, 10.001005, 9.999039 
2.6908192e+3, 1.8853778e+2, -1072669.8, -1220133.1, -17546.465, -0.23409222, -0.008437764, -1070610.6, 21705.09, 0.0000000002885943, 10.000908, 9.9988 
2.6904273e+3, 1.9852841e+2, -1075019.3, -1277456.4, 1411.2133, -0.16492297, -0.07198568, -1075009.5, -80597.28, 0.0, 10.000511, 9.998017 
2.6900396e+3, 2.0851971e+2, -747576.56, -915130.1, 174371.13, -0.11688482, -0.072047494, -637900.9, 258598.33, 0.0, 10.001587, 9.999208 
2.6896524e+3, 2.1851136e+2, -501636.8, -778684.0, 133412.75, -0.109690055, -0.082479216, -447838.4, 350743.53, 0.0, 10.002569, 9.9991045 
2.6892608e+3, 2.2850384e+2, -378235.94, -360086.13, -40169.895, -0.10393377, -0.16120632, -327978.8, 372668.75, 0.0, 10.001525, 10.001746 
2.688868e+3, 2.3849684e+2, -603630.5, -577846.7, -68256.94, -0.13150239, -0.2784753, -521274.84, 81430.87, 0.0, 9.99987, 10.000458 
2.6884744e+3, 2.4848928e+2, -510647.63, -494128.03, -8595.816, -0.3361159, -0.30721667, -490466.72, 14310.195, 0.0, 10.00007, 10.00015 
2.68808e+3, 2.5848144e+2, -386029.72, -529600.6, 68482.945, -0.5867403, -0.33409095, -358602.94, 48250.84, 0.0, 10.000692, 9.999034 
2.6876917e+3, 2.6847425e+2, -180533.05, -289317.13, 25872.592, -0.27678156, -0.23186469, -174693.16, 134233.38, 0.0, 10.001195, 9.999688 
2.6873052e+3, 2.784673e+2, -113494.5, -333588.9, -8123.2295, 0.17667294, -0.13720189, -113195.09, 97802.09, 0.0, 10.001357, 9.998721 
2.6869127e+3, 2.8845856e+2, 22769.205, -140894.7, -37165.89, -0.063599885, -0.17066385, 30813.678, 143896.23, 0.0, 10.001395, 9.999274 
2.6865187e+3, 2.9844955e+2, 24410.686, -229221.52, -92304.586, -0.47650647, -0.2540339, 54446.297, 69616.02, 0.0, 10.00123, 9.998159 
2.686134e+3, 3.084392e+2, 68234.4, -132629.38, -46696.613, 0.14942876, -0.38274807, 78559.625, 78559.625, 0.0, 10.001144, 9.998453 
2.685738e+3, 3.1843072e+2, 136322.38, 203367.22, 136036.89, -0.34446517, -0.33833373, 309951.16, 309951.16, 0.0, 10.000034, 10.001357 
2.703168e+3, 1.2897156e+2, -1595903.1, -1961154.8, -239622.34, -0.050864693, -0.38959458, -1477246.6, 198789.02, 0.03554995, 10.002124, 9.997119 
2.7027696e+3, 1.3896242e+2, -1491954.6, -1827343.3, -89396.62, -0.0827, -0.34101292, -1469614.4, 108524.125, 0.021269772, 10.0019, 9.99764 
2.70238e+3, 1.4895374e+2, -1231501.5, -1204773.0, 169476.05, -0.05144441, -0.47987875, -1048135.1, 432088.3, 0.009415533, 10.001225, 10.001482 
2.7019933e+3, 1.5894568e+2, -1333618.4, -1351891.9, 54430.04, 0.06766537, -0.6768213, -1287563.6, 94736.49, 0.0026134893, 10.000338, 10.000291 
2.7016e+3, 1.6894323e+2, -1054938.6, -1040373.8, -64573.566, -0.11512443, -0.2710769, -982673.3, 301657.0, 0.0003600524, 10.001192, 10.001219 
2.701205e+3, 1.7894158e+2, -1105728.1, -1322273.4, -93992.195, -0.3318274, 0.2223247, -1070621.9, 115733.08, 0.000012952271, 10.001385, 9.998626 
2.7008122e+3, 1.8893176e+2, -1117757.0, -1377590.9, -111170.016, -0.27264655, 0.20137532, -1076685.0, 11774.739, 0.000000000007316074, 10.00124, 9.997538 
2.7004206e+3, 1.989202e+2, -1201666.0, -1417537.9, 2975.8994, -0.13172886, 0.036917266, -1201625.0, -211044.36, 0.0, 10.000012, 9.997313 
2.7000338e+3, 2.0891143e+2, -897281.8, -867726.4, 207643.11, -0.08136425, -0.032577578, -674335.8, 218328.66, 0.0, 10.000083, 10.000249 
2.6996472e+3, 2.1890347e+2, -991659.56, -1025695.75, 125707.086, -0.03318712, -0.09243477, -881823.9, -87085.72, 0.0, 9.9993515, 9.998938 
2.6992548e+3, 2.2889549e+2, -710110.7, -660284.3, -80132.8, -0.07774113, -0.14272329, -601281.3, 95530.23, 0.0, 9.999992, 10.000335 
2.6988605e+3, 2.388878e+2, -768801.1, -747327.44, -75381.92, -0.1325867, -0.20939511, -681921.56, -83040.33, 0.0, 9.999218, 9.99959 
2.6984677e+3, 2.488802e+2, -410280.4, -251603.78, -15656.004, -0.2364251, -0.34555176, -250073.81, 250873.03, 0.0, 9.999991, 10.001816 
2.698076e+3, 2.588726e+2, -594701.7, -634584.7, 19521.162, -0.3204323, -0.5065384, -586737.3, -183724.3, 0.0, 9.999422, 9.998891 
2.6976863e+3, 2.6886374e+2, -375578.5, -559917.3, -938.6282, -0.20347948, -0.46803078, -375573.72, -70472.016, 0.0, 10.00075, 9.997972 
2.6972967e+3, 2.7885473e+2, -369624.28, -660231.56, -1800.5951, -0.04708604, -0.42407382, -369613.13, -162418.42, 0.0, 10.000644, 9.996786 
2.696905e+3, 2.8884503e+2, -146111.03, -343720.56, -28820.314, -0.22857171, -0.42161372, -141993.53, -32698.953, 0.0, 10.000947, 9.998025 
2.6965123e+3, 2.9883608e+2, -185760.72, -315455.75, -67073.23, -0.4784751, -0.39864317, -157312.9, -145926.7, 0.0, 9.999879, 9.998196 
2.696126e+3, 3.0883458e+2, 211173.17, 344202.4, -36203.094, -0.005057154, 0.08686589, 353416.66, 353416.66, 0.0, 10.000478, 10.002011 
2.69573e+3, 3.188268e+2, -382308.78, -559331.4, -36699.434, -0.45426857, -0.029015414, -375002.03, -375002.03, 0.0, 9.998907, 9.996631 
2.713163e+3, 1.2936264e+2, -1706346.0, -1917683.4, -258233.75, -0.065557875, -0.42613038, -1532997.6, 139210.16, 0.028414978, 10.001044, 9.997901 
2.7127662e+3, 1.393545e+2, -1443015.8, -1805552.1, -47014.766, 0.05578164, -0.35969713, -1437017.9, 137282.94, 0.016713178, 10.002315, 9.997562 
2.7123752e+3, 1.4934771e+2, -1265003.9, -1323965.9, 125079.375, 0.009500959, -0.24990056, -1165978.1, 310391.38, 0.0071980846, 10.001498, 10.000482 
2.7119854e+3, 1.5934092e+2, -1479791.8, -1544125.4, 33533.52, -0.07221662, -0.2202197, -1465491.3, -87055.34, 0.0019202423, 9.999887, 9.999174 
2.711593e+3, 1.693334e+2, -1141412.9, -1209921.8, -48848.01, -0.20364489, -0.2066703, -1116005.9, 164506.34, 0.00025324232, 10.00116, 10.0000725 
2.7111998e+3, 1.793263e+2, -1013551.75, -1291249.5, -149362.52, -0.36227342, -0.16196235, -948468.9, 234117.13, 0.000008369746, 10.002044, 9.99853 
2.710807e+3, 1.8931839e+2, -985584.0, -1180439.4, -181165.13, -0.20359868, -0.07968572, -877310.56, 207359.06, 0.0, 10.001553, 9.998755 
2.7104148e+3, 1.9931029e+2, -1047785.94, -1172074.9, -2937.1106, -0.044658974, -0.023516467, -1047716.56, -60961.676, 0.0, 10.000283, 9.99888 
2.7100265e+3, 2.09303e+2, -956142.2, -776859.2, 193130.5, -0.033756107, -0.061512314, -653580.5, 235243.17, 0.0, 9.999105, 10.001388 
2.709638e+3, 2.1929598e+2, -1146681.6, -1018135.75, 141323.3, -0.08991066, -0.1155256, -927156.4, -136267.77, 0.0, 9.997857, 9.99973 
2.7092463e+3, 2.29288e+2, -867809.1, -832129.5, 13250.956, -0.10801034, -0.114522085, -827746.7, -134781.02, 0.0, 9.999258, 9.999555 
2.7088535e+3, 2.3927993e+2, -534937.25, -692975.0, -1178.3915, -0.14897561, -0.11949314, -534928.5, 60115.082, 0.0, 10.000981, 9.999122 
2.7084613e+3, 2.492718e+2, -366757.38, -356813.63, -59723.348, -0.22470614, -0.20697689, -301855.56, 195261.9, 0.0, 10.000773, 10.000744 
2.708069e+3, 2.5926375e+2, -486850.28, -594822.0, -83858.484, -0.29602128, -0.30862793, -441102.9, -41913.21, 0.0, 10.000121, 9.998824 
2.7076805e+3, 2.6925477e+2, -238626.36, -480797.3, -36584.66, -0.1857147, -0.30426955, -233220.22, 68057.42, 0.0, 10.001529, 9.998168 
2.7072918e+3, 2.792455e+2, 15584.641, -399103.94, -24416.336, -0.05926396, -0.307074, 17017.295, 220387.69, 0.0, 10.002869, 9.997505 
2.706899e+3, 2.892355e+2, -48926.324, -269112.84, -44010.695, -0.21341538, -0.35650474, -40455.4, 65015.53, 0.0, 10.001457, 9.998325 
2.706505e+3, 2.9922646e+2, -168855.27, -204271.19, -5928.451, -0.450884, -0.35817602, -167889.22, -160326.67, 0.0, 9.999432, 9.999198 
2.7061167e+3, 3.092261e+2, 84772.89, 345837.66, -62772.117, -0.1496673, 0.18795918, 360146.7, 360146.7, 0.0, 9.999225, 10.002697 
2.7057242e+3, 3.192172e+2, -208941.38, -607773.6, -109776.9, -0.2256532, -0.032618977, -180722.36, -180722.36, 0.0, 10.000497, 9.9955845 
2.7231577e+3, 1.2975511e+2, -1446592.6, -1741603.4, -171305.06, 0.017097801, -0.4094936, -1368037.6, 300331.66, 0.022191128, 10.002472, 9.998516 
2.7227622e+3, 1.3974744e+2, -1327058.8, -1730301.6, -69428.88, 0.15240495, -0.30503094, -1315439.6, 255016.78, 0.012784308, 10.002941, 9.997825 
2.7223697e+3, 1.4974168e+2, -1180823.4, -1359901.0, 91308.5, 0.027124071, -0.06316155, -1142477.8, 330037.97, 0.00532732, 10.002374, 9.9998455 
2.721978e+3, 1.597355e+2, -1338778.1, -1551068.0, 86325.66, -0.09009326, 0.11294833, -1308106.1, 66471.15, 0.0013580795, 10.001195, 9.998512 
2.7215865e+3, 1.6972423e+2, -1221652.5, -1328326.9, 94657.38, -0.21558796, -0.18021974, -1166339.5, 110347.66, 0.00016970174, 10.000988, 9.99935 
2.7211946e+3, 1.7971286e+2, -1256792.8, -1413527.0, -2035.7279, -0.27934733, -0.47734505, -1256766.4, -77967.99, 0.0000049540654, 10.00042, 9.998482 
2.7208018e+3, 1.897065e+2, -987905.9, -1035957.0, -80974.15, -0.09844533, -0.32876837, -927468.2, 153395.42, 0.0, 10.000922, 10.000025 
2.720409e+3, 1.9970107e+2, -1008804.56, -1061952.0, 55001.375, 0.13339114, -0.114641, -974293.8, 8626.261, 0.0, 10.000237, 9.999625 
2.720019e+3, 2.0969509e+2, -794627.56, -624345.8, 147901.77, 0.05214733, -0.09275526, -538829.44, 346147.47, 0.0, 10.000013, 10.001935 
2.7196288e+3, 2.196889e+2, -1062928.5, -1023852.25, 76977.79, -0.05647948, -0.10080631, -963971.75, -176936.52, 0.0, 9.998712, 9.999276 
2.7192384e+3, 2.2968066e+2, -804000.4, -872581.25, 29616.504, -0.08821923, -0.0807729, -792981.1, -103862.94, 0.0, 10.000069, 9.998868 
2.718847e+3, 2.3967229e+2, -764006.4, -970119.56, -2885.682, -0.09344182, -0.03472239, -763966.0, -172763.06, 0.0, 10.000261, 9.997537 
2.718454e+3, 2.496636e+2, -520128.44, -628431.94, -85412.33, -0.22327346, -0.025537902, -473148.22, 20139.717, 0.0, 10.000665, 9.998886 
2.7180615e+3, 2.596551e+2, -642734.94, -807666.5, -46644.035, -0.31983757, -0.0058336672, -630457.56, -235087.47, 0.0, 9.999737, 9.9975605 
2.7176747e+3, 2.6964658e+2, -275030.8, -401648.6, 37118.242, -0.16517743, 0.005362302, -264951.8, 32499.047, 0.0, 10.000966, 9.998958 
2.7172878e+3, 2.7963787e+2, -249998.06, -501775.44, -37073.168, 0.029517695, -0.0064511457, -244652.67, -45118.992, 0.0, 10.00103, 9.997688 
2.7168933e+3, 2.8962794e+2, -145484.6, -224769.38, -135331.97, -0.14839526, -0.1439062, -44108.324, 57521.47, 0.0, 10.000455, 9.999076 
2.716497e+3, 2.9961875e+2, -393673.03, -368817.84, -61153.215, -0.4800682, -0.22226949, -318842.22, -315123.28, 0.0, 9.998247, 9.998612 
2.7161074e+3, 3.096142e+2, -76254.67, 120720.1, -82432.04, -0.24505864, -0.015687434, 150664.83, 150664.83, 0.0, 9.9988575, 10.001249 
2.71572e+3, 3.1960434e+2, -164187.13, -315230.03, 209495.7, -0.02540718, -0.28684542, -17016.104, -17016.104, 0.0, 9.999842, 9.997832 
2.7331516e+3, 1.3014992e+2, -1553291.9, -1805475.0, -207456.8, -0.14811748, -0.10515095, -1436613.1, 227899.83, 0.016854065, 10.001897, 9.998282 
2.732754e+3, 1.4014168e+2, -1396427.6, -1740535.1, -58139.074, -0.2712152, -0.093521796, -1386870.1, 179731.7, 0.009467284, 10.0024185, 9.997978 
2.7323624e+3, 1.5013437e+2, -1125917.1, -1249482.9, 102765.55, -0.22748736, -0.06960172, -1067792.1, 400881.22, 0.0037924994, 10.002425, 10.000559 
2.731972e+3, 1.6012703e+2, -1221465.4, -1392246.3, 109836.945, -0.18798698, -0.076553896, -1167731.1, 203012.63, 0.0009170214, 10.00159, 9.999392 
2.7315792e+3, 1.701186e+2, -1174433.8, -1184484.1, 155792.78, -0.30548435, -0.17562988, -1023585.2, 249238.78, 0.0001065257, 10.000819, 10.000406 
2.7311862e+3, 1.801102e+2, -1273514.9, -1312846.8, 118746.16, -0.42562157, -0.25927898, -1172817.3, 2086.8325, 0.0000025959862, 9.999833, 9.999446 
2.7307943e+3, 1.9010273e+2, -980531.25, -991242.6, 73860.54, -0.16947334, -0.2626977, -911832.5, 165143.5, 0.0, 10.000744, 10.000455 
2.7304026e+3, 2.0009552e+2, -917406.06, -1121886.9, 170535.42, 0.06572239, -0.2099624, -820811.25, 158235.06, 0.0, 10.001268, 9.998715 
2.7300125e+3, 2.1008782e+2, -752558.1, -932187.2, 175258.97, 0.0040254225, -0.11007583, -645440.25, 235684.55, 0.0, 10.001674, 9.999035 
2.7296224e+3, 2.2008018e+2, -647142.5, -945511.44, 30910.84, -0.124125965, -0.0070560193, -643973.8, 139228.69, 0.0, 10.002014, 9.998223 
2.729232e+3, 2.3007108e+2, -493031.72, -702641.9, -6471.932, -0.12529087, -0.06613933, -492832.06, 192460.88, 0.0, 10.002031, 9.999114 
2.728841e+3, 2.4006212e+2, -509415.13, -815140.1, -28350.205, -0.13779089, -0.09701516, -506808.4, 80573.56, 0.0, 10.001779, 9.997874 
2.7284476e+3, 2.5005355e+2, -344390.6, -612765.0, -64677.813, -0.26639876, -0.03510366, -329616.66, 159850.66, 0.0, 10.002051, 9.99838 
2.7280548e+3, 2.6004505e+2, -268002.72, -584343.2, 348.79984, -0.3855153, 0.032096796, -268002.34, 123548.805, 0.0, 10.00202, 9.99801 
2.727667e+3, 2.7003598e+2, -274290.66, -381460.2, 56659.42, -0.2543148, -0.01706094, -249890.69, 43744.742, 0.0, 10.000799, 9.999229 
2.7272797e+3, 2.8002688e+2, -404275.53, -471166.75, -38400.305, -0.06928721, -0.08721256, -386797.75, -191077.77, 0.0, 9.999356, 9.998739 
2.726886e+3, 2.900183e+2, -272300.03, -209219.75, -145520.31, -0.09168966, -0.1606493, -91860.8, 5940.309, 0.0, 9.999095, 9.999903 
2.7264905e+3, 3.0001003e+2, -276727.2, -333557.03, -45309.563, -0.2601986, -0.18962683, -251659.75, -251659.75, 0.0, 9.99901, 9.998504 
2.7261e+3, 3.1000152e+2, -28540.818, -120676.62, -82160.55, -0.1930377, -0.19768322, 19585.797, 19585.797, 0.0, 10.000194, 9.999005 
2.7257133e+3, 3.1999245e+2, 200654.1, 205148.31, 219640.48, -0.059734117, -0.26506737, 422553.2, 422553.2, 0.0, 10.0006075, 10.001105 
2.7431458e+3, 1.3054423e+2, -1613693.8, -1764296.9, -82220.82, -0.13696666, 0.032863542, -1577502.8, 83154.01, 0.012358498, 10.001072, 9.998962 
2.7427468e+3, 1.4053568e+2, -1446323.6, -1700733.3, 30377.844, -0.4324085, -0.0036980936, -1442746.6, 119997.1, 0.0067449147, 10.001747, 9.998563 
2.7423558e+3, 1.5052752e+2, -1263888.8, -1288361.4, 105299.59, -0.32212082, -0.09899374, -1170116.9, 294706.38, 0.0025850076, 10.00131, 10.000822 
2.741966e+3, 1.6051975e+2, -1330452.9, -1378728.0, 61206.67, -0.14084527, -0.18278523, -1288796.3, 78101.86, 0.0005889778, 10.000525, 9.999985 
2.7415726e+3, 1.7051373e+2, -1058502.1, -1053320.6, 71051.16, -0.30064905, -0.13204478, -984813.0, 284140.84, 0.00006228534, 10.001235, 10.001118 
2.741179e+3, 1.8050762e+2, -1067069.9, -1214728.6, 27891.945, -0.41750556, -0.040890742, -1061976.9, 109033.09, 0.0000011486238, 10.001276, 9.999416 
2.7407876e+3, 1.9049893e+2, -814047.9, -921993.6, -46569.574, -0.17360608, -0.17976093, -796734.0, 276356.25, 0.0, 10.001991, 10.000286 
2.7403966e+3, 2.0049006e+2, -953242.25, -1336803.1, 33858.594, 0.0753052, -0.25681725, -950276.3, 24897.893, 0.0, 10.001941, 9.996903 
2.7400064e+3, 2.1048033e+2, -871048.94, -1321982.3, 109134.05, -0.028065711, -0.12078108, -846025.2, 31250.793, 0.0, 10.002268, 9.996082 
2.7396163e+3, 2.204707e+2, -843806.94, -1207819.4, 46278.313, -0.12640557, 0.040052585, -838015.56, -58638.664, 0.0, 10.001435, 9.996698 
2.7392262e+3, 2.3046096e+2, -602469.3, -710110.6, -20098.809, -0.12722126, -0.09380587, -598838.94, 82633.04, 0.0, 10.001166, 9.999441 
2.738835e+3, 2.4045162e+2, -785485.4, -1000511.4, -33344.355, -0.13098125, -0.17201392, -780433.3, -196870.81, 0.0, 10.000169, 9.997374 
2.7384418e+3, 2.5044325e+2, -415054.66, -655559.56, -46274.69, -0.29097617, -0.09904318, -406458.38, 79187.62, 0.0, 10.001675, 9.998223 
2.7380487e+3, 2.604349e+2, -383544.66, -706738.44, -7016.1577, -0.43677157, 0.0067403745, -383392.4, 4335.728, 0.0, 10.001642, 9.997314 
2.7376592e+3, 2.7042466e+2, -326163.47, -413425.63, 8667.9, -0.38467738, -0.1679265, -325310.8, -35488.13, 0.0, 10.000548, 9.999078 
2.7372697e+3, 2.8041476e+2, -559983.3, -553909.94, -71462.13, -0.24861996, -0.30904707, -485419.97, -293506.97, 0.0, 9.998469, 9.998562 
2.7368784e+3, 2.9040793e+2, -206991.77, -83367.01, -157518.55, 0.0062034694, -0.2892941, 24033.086, 118008.55, 0.0, 9.999262, 10.000639 
2.7364856e+3, 3.004008e+2, -449391.53, -612729.06, -38869.95, 0.09464655, -0.21400115, -440613.28, -440613.28, 0.0, 9.998821, 9.9966545 
2.736093e+3, 3.1038848e+2, -293694.56, -558898.7, -36549.51, -0.17296503, -0.3730032, -288749.66, -288749.66, 0.0, 9.999878, 9.996062 
2.7357042e+3, 3.203793e+2, 243201.73, 646143.3, 178677.44, -0.32804334, -0.35552028, 713960.6, 713960.6, 0.0, 9.999335, 10.004676 
2.7531397e+3, 1.309365e+2, -1630759.3, -1533082.1, -61866.1, -0.1453639, -0.12781847, -1503100.5, 153709.8, 0.008685325, 10.000031, 10.001025 
2.7527422e+3, 1.409292e+2, -1565599.4, -1753704.4, 89654.27, -0.3482669, -0.20435323, -1529714.3, 29162.375, 0.004592608, 10.000964, 9.998552 
2.7523506e+3, 1.5092227e+2, -1455354.6, -1521616.0, 118179.375, -0.21556662, -0.080755696, -1365749.9, 95201.23, 0.0016782222, 10.000636, 9.999536 
2.75196e+3, 1.6091521e+2, -1458910.8, -1506669.5, 89036.98, -0.08222072, 0.019825637, -1390606.6, -27580.877, 0.0003582281, 9.999956, 9.999371 
2.751568e+3, 1.7090808e+2, -1049036.1, -1077567.5, 115450.92, -0.16332982, -0.0048811315, -946972.8, 318120.88, 0.000033741435, 10.001439, 10.000844 
2.7511758e+3, 1.809006e+2, -976822.8, -1311041.3, 10267.577, -0.2765402, 0.00909975, -976507.7, 190656.69, 0.00000040337267, 10.002474, 9.998176 
2.7507833e+3, 1.9089036e+2, -791034.75, -1157824.6, -111045.04, -0.171853, -0.09021194, -760035.9, 309226.47, 0.0, 10.003173, 9.998114 
2.7503908e+3, 2.0088015e+2, -720998.75, -1228021.1, -85159.83, -0.09835677, -0.14329188, -707077.5, 264281.97, 0.0, 10.003478, 9.996929 
2.7500007e+3, 2.1086943e+2, -597461.56, -1047802.0, 67485.695, -0.1888344, -0.22141203, -587565.94, 285897.13, 0.0, 10.003428, 9.997458 
2.7496105e+3, 2.2085913e+2, -592481.1, -1011499.94, 45554.707, -0.2631826, -0.23803377, -587585.7, 187977.92, 0.0, 10.002771, 9.997414 
2.74922e+3, 2.3085035e+2, -636364.8, -800279.2, -36885.5, -0.10007487, -0.22303294, -628447.0, 49203.996, 0.0, 10.001184, 9.998858 
2.7488294e+3, 2.408419e+2, -724654.0, -893402.06, -179.32654, -0.020730255, -0.1768661, -724653.8, -144918.94, 0.0, 10.000149, 9.998138 
2.7484372e+3, 2.5083354e+2, -260071.38, -499015.47, 62442.688, -0.23349987, -0.15343207, -244737.42, 237079.48, 0.0, 10.002333, 9.999018 
2.748045e+3, 2.6082507e+2, 14889.057, -429006.28, 30427.584, -0.4328248, -0.1168497, 16965.06, 400864.22, 0.0, 10.0039015, 9.998149 
2.7476534e+3, 2.7081493e+2, -158203.0, -363148.94, -26650.041, -0.34240785, -0.25676394, -154794.27, 131199.03, 0.0, 10.001729, 9.998904 
2.7472624e+3, 2.8080514e+2, -350559.4, -455662.13, -44234.195, -0.1949553, -0.3565066, -334420.8, -146337.27, 0.0, 9.999825, 9.998595 
2.7468723e+3, 2.907976e+2, 157396.56, -3139.8804, -133662.66, 0.057367653, -0.32110423, 233040.8, 323195.56, 0.0, 10.002125, 9.999853 
2.74648e+3, 3.007896e+2, 304968.22, -248035.97, -116854.62, 0.088892296, -0.2599187, 328646.75, 328646.75, 0.0, 10.003871, 9.996769 
2.7460837e+3, 3.107771e+2, 33228.586, -410019.22, -29877.783, -0.47387677, -0.4256756, 35233.477, 35233.477, 0.0, 10.001989, 9.996161 
2.745697e+3, 3.2076874e+2, 58741.848, 565815.0, 113351.45, -0.21161464, -0.31005636, 590000.1, 590000.1, 0.0, 9.997796, 10.00491 
2.7631325e+3, 1.313299e+2, -1354625.5, -1255350.4, -36280.203, -0.14246272, -0.23105292, -1243505.1, 409448.66, 0.005822727, 10.001229, 10.002401 
2.762738e+3, 1.413232e+2, -1391577.6, -1661411.1, -16414.447, -0.16892941, -0.3110316, -1390582.8, 164425.48, 0.002969682, 10.002111, 9.998649 
2.762345e+3, 1.5131648e+2, -1267334.9, -1524648.6, 44236.387, -0.09143089, -0.109986745, -1259942.4, 197140.66, 0.0010279784, 10.002342, 9.998694 
2.761954e+3, 1.6130958e+2, -1212741.4, -1486681.9, 101602.12, 0.030484192, 0.09718331, -1179171.8, 179988.03, 0.0002033788, 10.002025, 9.998547 
2.7615634e+3, 1.7130163e+2, -1002431.4, -1139473.6, 102203.734, -0.018392056, 0.05988461, -947904.75, 313334.6, 0.000016580547, 10.002092, 10.000127 
2.7611724e+3, 1.8129309e+2, -1151530.6, -1539990.8, -7601.191, -0.07539569, 0.053559233, -1151381.9, 11941.35, 0.00000009587778, 10.00195, 9.996849 
2.760779e+3, 1.9128169e+2, -961504.94, -1421232.9, -54725.63, -0.11196486, -0.010385567, -955080.25, 110354.414, 0.0, 10.002812, 9.996482 
2.7603862e+3, 2.0127027e+2, -822596.94, -1276298.6, 53402.395, -0.15454105, -0.052763943, -816396.06, 151148.34, 0.0, 10.002821, 9.996913 
2.7599955e+3, 2.1125884e+2, -639434.5, -874193.56, 100043.414, -0.27456546, -0.3346558, -602584.9, 267062.22, 0.0, 10.002398, 9.999101 
2.759605e+3, 2.2124834e+2, -857228.0, -1127335.6, 10816.119, -0.2915277, -0.49055776, -856795.6, -85052.65, 0.0, 10.001047, 9.997411 
2.7592143e+3, 2.3124048e+2, -712827.0, -910100.6, -60994.563, -0.022830445, -0.34799638, -695491.56, -21668.643, 0.0, 10.001074, 9.998118 
2.7588236e+3, 2.4123286e+2, -779437.56, -938061.7, 89353.586, 0.16072775, -0.1485547, -739273.8, -163373.53, 0.0, 9.999995, 9.997868 
2.758433e+3, 2.512243e+2, -417720.84, -482707.06, 175253.56, -0.1353557, -0.22752628, -271973.63, 206009.03, 0.0, 10.000932, 9.999759 
2.7580416e+3, 2.6121557e+2, -437716.94, -689048.1, 18940.582, -0.36838016, -0.2605921, -436297.56, -56231.42, 0.0, 10.00108, 9.997717 
2.7576488e+3, 2.7120608e+2, -346152.44, -482813.16, -125737.375, -0.20560198, -0.31562802, -271378.2, 10777.105, 0.0, 10.000718, 9.998527 
2.7572566e+3, 2.8119662e+2, -557745.56, -734596.3, -21709.205, -0.0110331625, -0.3061953, -555119.6, -370874.94, 0.0, 9.999298, 9.996921 
2.7568668e+3, 2.91187e+2, -73884.92, -317366.16, -18704.824, 0.045031272, -0.3252935, -72456.36, 13882.426, 0.0, 10.001476, 9.997981 
2.756474e+3, 3.0117762e+2, 50311.02, -365726.0, -114278.31, -0.15509066, -0.2665913, 79634.52, 79634.52, 0.0, 10.002237, 9.996718 
2.7560735e+3, 3.1116715e+2, 9678.735, -194210.88, -112616.984, -0.9294572, -0.41006425, 59639.586, 59639.586, 0.0, 10.000983, 9.998074 
2.7556893e+3, 3.2115847e+2, -441704.84, -74953.82, -107856.93, -0.013227074, -0.3857158, -45586.07, -45586.07, 0.0, 9.996378, 10.001095 
2.7731237e+3, 1.3172463e+2, -1509455.6, -1405068.6, -70913.766, -0.50285155, -0.05840138, -1369211.4, 279876.66, 0.0036892197, 10.000617, 10.001591 
2.7727324e+3, 1.4171582e+2, -1447487.3, -1688307.0, -206.33577, -0.20061648, -0.32746923, -1447487.1, 103673.32, 0.0018042208, 10.001801, 9.998578 
2.77234e+3, 1.5170789e+2, -1177083.1, -1408632.8, 74228.14, -0.17952187, -0.31377062, -1155331.1, 297907.63, 0.00058557204, 10.002688, 9.999295 
2.7719483e+3, 1.6170006e+2, -1159749.6, -1570185.1, 99065.11, -0.15373522, -0.20492877, -1137089.8, 218229.86, 0.00010501939, 10.00286, 9.997564 
2.7715573e+3, 1.7169227e+2, -1070050.8, -1360327.6, 83713.11, -0.1705922, -0.071886964, -1047639.06, 209766.8, 0.0000068884756, 10.002428, 9.998453 
2.7711663e+3, 1.8168426e+2, -1107452.6, -1422859.0, -15305.285, -0.18798925, 0.06819437, -1106711.6, 52779.293, 0.00000000965895, 10.001852, 9.997687 
2.7707747e+3, 1.9167432e+2, -827297.44, -1133750.4, 60118.574, -0.09171993, -0.024035754, -815925.6, 245659.95, 0.0, 10.002756, 9.998491 
2.7703828e+3, 2.0166416e+2, -777646.0, -1213564.9, 154984.02, -0.08688283, -0.06914574, -728161.3, 235520.64, 0.0, 10.002948, 9.997264 
2.769991e+3, 2.1165362e+2, -787628.5, -1062434.9, 140615.1, -0.2224095, -0.15927348, -728430.0, 137352.28, 0.0, 10.001892, 9.99805 
2.769599e+3, 2.2164352e+2, -780938.5, -1015916.7, 25764.432, -0.30572778, -0.21258795, -778146.7, -10268.839, 0.0, 10.00118, 9.998127 
2.7692077e+3, 2.3163444e+2, -480227.9, -692260.1, 41895.72, -0.11571718, -0.2626407, -472249.88, 197714.42, 0.0, 10.002129, 9.99916 
2.7688164e+3, 2.4162608e+2, -398563.06, -669485.6, 165235.69, -0.005781998, -0.21965194, -320359.7, 251685.42, 0.0, 10.002177, 9.998662 
2.768425e+3, 2.5161856e+2, -639241.4, -634505.5, 197374.8, -0.1924822, -0.15139164, -439484.44, 34634.93, 0.0, 9.999526, 9.999437 
2.7680337e+3, 2.616102e+2, -889890.4, -898636.8, 69579.15, -0.32490984, -0.107927516, -824547.1, -448346.66, 0.0, 9.997835, 9.997865 
2.7676424e+3, 2.7159882e+2, -388107.28, -550636.2, -19419.656, -0.14272739, -0.29677346, -385819.16, -107512.69, 0.0, 10.000526, 9.998212 
2.767251e+3, 2.8158796e+2, -64847.754, -475955.28, 77856.48, 0.035251193, -0.40112647, -50597.1, 129812.016, 0.0, 10.002461, 9.997187 
2.7668607e+3, 2.9157847e+2, -82725.13, -376968.6, 118427.89, 0.035257697, -0.35791716, -40981.914, 41521.53, 0.0, 10.001461, 9.997647 
2.7664673e+3, 3.0156943e+2, -180977.98, -388292.7, 39161.36, -0.18076949, -0.24659382, -173827.13, -173827.13, 0.0, 10.000104, 9.997604 
2.766068e+3, 3.1156075e+2, -183084.02, -189899.16, -22357.02, -0.7317673, -0.26782593, -163876.38, -163876.38, 0.0, 9.999106, 9.999038 
2.7656808e+3, 3.2155138e+2, -103562.02, -62059.727, -76822.375, 0.08357045, -0.30915302, -3235.202, -3235.202, 0.0, 9.999143, 9.99988 
2.7831164e+3, 1.3211796e+2, -1532443.5, -1507133.6, 39308.242, -0.52540356, -0.037987616, -1478493.5, 166738.52, 0.0021709546, 10.000738, 10.000872 
2.782728e+3, 1.4210847e+2, -1127752.8, -1535121.4, -17151.547, -0.1428305, -0.30685523, -1127031.9, 420279.97, 0.0010072378, 10.003853, 9.998711 
2.782335e+3, 1.5209945e+2, -1098064.6, -1344797.1, -19027.32, -0.20285964, -0.44057664, -1096605.9, 352789.53, 0.00030058212, 10.002976, 9.99968 
2.7819425e+3, 1.6209081e+2, -1331773.3, -1700194.1, 17960.725, -0.20472485, -0.42332035, -1330899.8, 20580.82, 0.000046417692, 10.001876, 9.997157 
2.7815512e+3, 1.720832e+2, -1241655.0, -1551364.6, 60524.75, -0.22359441, -0.19750834, -1230247.3, 23322.162, 0.0000020738605, 10.00172, 9.997496 
2.7811605e+3, 1.8207568e+2, -1132127.1, -1341964.1, 66457.71, -0.19032976, 0.038775437, -1112850.1, 42803.305, 0.00000000000031198744, 10.001293, 9.99851 
2.7807704e+3, 1.9206735e+2, -820760.6, -920760.7, 56885.824, -0.026660262, -0.07289511, -795024.3, 262706.28, 0.0, 10.001934, 10.000328 
2.7803794e+3, 2.0205885e+2, -983855.6, -1350536.3, 88960.6, 0.06868225, -0.065474704, -963412.56, -3601.6763, 0.0, 10.001773, 9.996876 
2.779986e+3, 2.1204929e+2, -942410.5, -1262589.9, 95759.03, -0.11394702, 0.029140564, -915956.6, -54048.33, 0.0, 10.001435, 9.996886 
2.779593e+3, 2.2203963e+2, -901413.8, -1066296.9, 85904.63, -0.22526242, 0.10296729, -864791.44, -100787.305, 0.0, 10.000361, 9.998164 
2.779201e+3, 2.3202918e+2, -585624.94, -627503.4, 56962.75, -0.19381693, -0.19068566, -545874.7, 120224.09, 0.0, 10.000949, 10.000143 
2.778809e+3, 2.4202006e+2, -707782.8, -869049.94, 67287.76, -0.16573304, -0.27701342, -683395.4, -115212.06, 0.0, 10.000374, 9.998148 
2.7784166e+3, 2.5201383e+2, -713154.4, -737123.2, 47091.637, -0.22828689, -0.035996743, -676546.1, -206298.53, 0.0, 9.999423, 9.998754 
2.778025e+3, 2.6200593e+2, -929176.44, -997597.56, 87605.95, -0.23317531, 0.13349506, -869338.25, -497012.44, 0.0, 9.998075, 9.997013 
2.7776355e+3, 2.71992e+2, -436606.38, -599775.25, 85663.72, -0.10721334, -0.3037509, -399893.3, -125438.75, 0.0, 10.000412, 9.997871 
2.777246e+3, 2.8197947e+2, -260968.0, -586872.94, 90000.805, 0.022318695, -0.5445261, -237765.55, -61193.227, 0.0, 10.0013275, 9.996941 
2.7768546e+3, 2.919711e+2, -174161.31, -360541.3, 81399.484, 0.032605093, -0.44693938, -143616.7, -64959.844, 0.0, 10.000736, 9.998033 
2.7764606e+3, 3.019637e+2, -338007.63, -462778.47, 3381.069, -0.09630547, -0.18917447, -337916.06, -337916.06, 0.0, 9.99921, 9.9974785 
2.776065e+3, 3.1195688e+2, -269608.75, -190956.23, -55540.566, -0.15738031, -0.082051694, -162228.77, -162228.77, 0.0, 9.998497, 9.999276 
2.7756697e+3, 3.2194704e+2, -210064.63, -2623.0857, -6461.771, -0.22372696, -0.19492364, -2421.9976, -2421.9976, 0.0, 9.998159, 10.000735 
2.793113e+3, 1.3250864e+2, -1674948.5, -1653237.0, 229148.38, -0.26425523, -0.21639562, -1434687.4, 206706.92, 0.0011673695, 10.000198, 10.0000925 
2.7927247e+3, 1.4250246e+2, -1201114.0, -1677121.4, -10859.696, -0.2167694, -0.06861992, -1200866.4, 342583.6, 0.00050489604, 10.003876, 9.997697 
2.79233e+3, 1.524919e+2, -1190063.1, -1434654.4, -76546.125, -0.24052906, -0.30721062, -1168082.9, 277469.38, 0.00013439951, 10.0026, 9.999216 
2.7919373e+3, 1.6248235e+2, -1345860.5, -1565146.8, -18923.71, -0.2047375, -0.3929415, -1344239.5, 3407.0732, 0.000016423304, 10.001198, 9.998397 
2.791546e+3, 1.7247505e+2, -1179364.9, -1318230.6, 104911.766, -0.17231421, -0.3073797, -1122990.8, 126733.34, 0.0000003300107, 10.00129, 9.999294 
2.7911547e+3, 1.8246785e+2, -1145561.5, -1347206.9, 119275.086, -0.17886388, -0.14703453, -1090205.5, 61594.414, 0.0, 10.001168, 9.998545 
2.7907637e+3, 1.9245958e+2, -938202.6, -1077465.8, 85617.875, -0.11630892, -0.16042116, -897475.8, 156405.39, 0.0, 10.001518, 9.999484 
2.7903724e+3, 2.0245141e+2, -919134.4, -1158144.8, 44713.805, -0.09123198, -0.110573746, -911043.25, 44917.57, 0.0, 10.001521, 9.998305 
2.78998e+3, 2.1244259e+2, -798423.56, -987317.44, 141779.69, -0.15023789, -0.10994707, -722512.94, 135533.5, 0.0, 10.001526, 9.998746 
2.7895868e+3, 2.2243346e+2, -791940.7, -1076798.9, 147941.45, -0.21819824, -0.06765745, -729009.8, 31126.26, 0.0, 10.001303, 9.997648 
2.7891937e+3, 2.3242323e+2, -771661.4, -932701.94, 50808.59, -0.2607783, -0.15488337, -756971.2, -94734.36, 0.0, 10.000502, 9.998291 
2.7888012e+3, 2.4241371e+2, -736432.1, -897090.5, 8065.645, -0.251646, -0.15895449, -736028.2, -171698.08, 0.0, 10.000148, 9.998088 
2.788411e+3, 2.5240538e+2, -434147.13, -608251.7, 24445.447, -0.09478371, -0.111534566, -430779.94, 35632.36, 0.0, 10.001242, 9.998828 
2.7880204e+3, 2.6239675e+2, -271182.47, -550487.7, 96885.4, -0.033581924, -0.06342438, -240865.58, 127630.2, 0.0, 10.001916, 9.998248 
2.787629e+3, 2.723859e+2, -133154.22, -370537.03, 146622.73, -0.15353267, -0.26940218, -63203.438, 207392.95, 0.0, 10.001999, 9.998737 
2.7872387e+3, 2.823755e+2, -119611.414, -409993.6, 137893.86, -0.16509235, -0.36979848, -64564.727, 108129.46, 0.0, 10.001754, 9.997951 
2.7868477e+3, 2.9236707e+2, -31239.205, -247319.81, 111275.055, -0.02825385, -0.29979447, 15816.731, 90596.586, 0.0, 10.001449, 9.998487 
2.786454e+3, 3.02359e+2, 49491.46, -196695.63, 50789.215, -0.08884762, -0.16552716, 59557.84, 59557.84, 0.0, 10.001366, 9.998311 
2.7860573e+3, 3.1235132e+2, 275280.66, 76572.77, -8719.3, -0.20315802, -0.13667256, 275662.53, 275662.53, 0.0, 10.002016, 9.999523 
2.7856618e+3, 3.2234183e+2, 362938.22, 206545.6, 69314.05, -0.3127462, -0.17886183, 389236.4, 389236.4, 0.0, 10.002146, 10.000335 
2.80311e+3, 1.3289842e+2, -1486054.3, -1561087.9, 183716.55, 0.057911254, -0.37907526, -1336063.0, 301506.0, 0.0005664125, 10.001345, 10.000214 
2.8027192e+3, 1.4289474e+2, -1714146.9, -1903749.9, -68038.82, -0.22448027, 0.005340455, -1692258.1, -152652.8, 0.00022570654, 10.000254, 9.997868 
2.8023246e+3, 1.528843e+2, -1390895.6, -1526020.4, -83353.695, -0.19844343, -0.23463197, -1351161.6, 90546.37, 0.00005282333, 10.001182, 9.999261 
2.8019318e+3, 1.6287477e+2, -1249709.1, -1421191.5, 46377.703, -0.09500591, -0.34807295, -1237969.9, 105832.4, 0.000004777361, 10.00146, 9.999216 
2.8015408e+3, 1.7286758e+2, -1053123.4, -1137355.0, 43754.285, -0.07018943, -0.36855924, -1034508.8, 211364.86, 0.00000002399446, 10.001612, 10.00036 
2.8011495e+3, 1.8286026e+2, -1155078.0, -1410798.1, 35783.156, -0.07719382, -0.27585173, -1150165.3, -2217.9363, 0.0, 10.001403, 9.997985 
2.8007573e+3, 1.9285181e+2, -1029150.8, -1223681.1, 18175.164, -0.13818142, -0.23672111, -1027467.25, 22566.592, 0.0, 10.001372, 9.998546 
2.800365e+3, 2.028436e+2, -953392.5, -1071788.6, 10690.429, -0.1506781, -0.1634826, -952434.94, -320.15967, 0.0, 10.000843, 9.999235 
2.7999735e+3, 2.1283531e+2, -808762.5, -788341.0, 24645.154, -0.11991188, -0.30727148, -771875.1, 82315.18, 0.0, 10.000554, 10.000583 
2.799581e+3, 2.2282684e+2, -1104267.6, -1357492.8, 38807.2, -0.1307955, -0.27434233, -1098453.8, -342181.8, 0.0, 9.999866, 9.996373 
2.7991864e+3, 2.3281723e+2, -969440.94, -1246034.9, -835.51917, -0.25493452, -0.13004756, -969438.44, -311063.28, 0.0, 10.000198, 9.996262 
2.798794e+3, 2.4280725e+2, -826502.7, -1001870.5, 81993.22, -0.21647127, -0.02005723, -794139.25, -233661.05, 0.0, 9.999904, 9.997461 
2.7984068e+3, 2.5279596e+2, -544847.75, -631654.06, 82542.4, 0.12875518, -0.29645568, -494992.78, -32407.303, 0.0, 10.00046, 9.998999 
2.798017e+3, 2.6278672e+2, -470517.94, -574020.6, 123736.72, 0.21985418, -0.34135172, -388146.28, -23473.193, 0.0, 10.000336, 9.998835 
2.7976227e+3, 2.727806e+2, -218885.73, -274206.53, 134859.47, -0.23253816, -0.20490584, -108879.24, 157850.78, 0.0, 10.00091, 9.999896 
2.79723e+3, 2.8277373e+2, -304220.97, -496023.0, 96071.32, -0.42755374, -0.018529722, -264377.0, -95580.85, 0.0, 10.00059, 9.997892 
2.796841e+3, 2.9276434e+2, -160595.92, -278038.9, 64345.027, -0.11499016, -0.089996696, -132205.44, -61314.18, 0.0, 10.000531, 9.9986925 
2.7964467e+3, 3.0275473e+2, -157678.45, -284306.56, 18705.748, -0.19544522, -0.12692314, -154973.02, -154973.02, 0.0, 10.000073, 9.9982605 
2.796046e+3, 3.1274435e+2, 81145.01, 15114.231, -5780.8984, -0.7607897, -0.41532642, 81647.3, 81647.3, 0.0, 10.000727, 9.999627 
2.795658e+3, 3.2273644e+2, 18813.53, -109366.4, 131575.03, -0.16804382, -0.2680459, 101077.63, 101077.63, 0.0, 10.000786, 9.998674 
2.8131056e+3, 1.3328555e+2, -1476113.5, -1312382.1, -28714.664, 0.13345098, -0.45523432, -1307492.3, 326283.78, 0.00024939553, 10.000477, 10.002302 
2.8127092e+3, 1.432823e+2, -1790138.9, -1645906.3, -85209.0, -0.4289583, -0.2795444, -1606392.3, -70584.625, 0.00009135431, 9.9985485, 10.000434 
2.8123182e+3, 1.532767e+2, -1351570.5, -1227783.6, 24138.361, -0.20303911, -0.29045808, -1223243.1, 214614.94, 0.000018191195, 10.000291, 10.001731 
2.8119272e+3, 1.632698e+2, -1329876.1, -1568457.9, 93558.02, -0.04499837, -0.23143432, -1297564.3, 42362.3, 0.000001253609, 10.001395, 9.998238 
2.811535e+3, 1.7326142e+2, -1168469.9, -1392918.9, 64005.49, -0.1296894, -0.18756706, -1151500.5, 90517.62, 0.0000000065346386, 10.0017, 9.998566 
2.8111428e+3, 1.8325293e+2, -1117878.8, -1361097.8, -33284.527, -0.1864371, -0.107878275, -1113406.1, 30700.943, 0.0, 10.001565, 9.998218 
2.8107515e+3, 1.9324325e+2, -991816.4, -1162301.8, 5699.132, -0.14408375, -0.22462013, -991626.06, 54575.484, 0.0, 10.0014515, 9.998926 
2.8103596e+3, 2.0323464e+2, -922166.3, -1056183.8, -47965.895, -0.10359075, -0.215061, -906768.1, 41517.293, 0.0, 10.001029, 9.999244 
2.8099668e+3, 2.1322729e+2, -877248.7, -875743.1, -67383.914, -0.0862874, -0.21986844, -809107.8, 41247.98, 0.0, 10.000249, 10.000149 
2.809574e+3, 2.2321942e+2, -938003.8, -1078488.4, -43889.35, -0.11610166, -0.17574154, -925419.44, -172988.1, 0.0, 10.000101, 9.998179 
2.8091806e+3, 2.3320997e+2, -631350.75, -868000.0, 66093.875, -0.18796788, -0.20534377, -614142.7, 40382.13, 0.0, 10.001506, 9.998262 
2.8087887e+3, 2.4320035e+2, -489426.13, -808234.0, 155291.38, -0.17482527, -0.18453214, -426287.88, 130332.01, 0.0, 10.002008, 9.997777 
2.8083992e+3, 2.5319004e+2, -527449.44, -696211.9, 128581.7, 0.028516082, -0.29156366, -458033.9, 686.23676, 0.0, 10.000802, 9.998418 
2.8080085e+3, 2.63181e+2, -490434.34, -587910.7, 156074.55, 0.056153413, -0.2747732, -375665.1, -14857.011, 0.0, 10.00009, 9.9989 
2.8076154e+3, 2.731741e+2, -293135.7, -353453.88, 121702.73, -0.27794877, -0.1675731, -197910.88, 64965.492, 0.0, 10.000429, 9.999659 
2.8072235e+3, 2.8316694e+2, -298192.25, -454082.84, 16563.646, -0.38168663, -0.021077262, -296451.78, -131503.77, 0.0, 10.00033, 9.998341 
2.8068343e+3, 2.9315814e+2, -248056.63, -332901.1, -28817.03, -0.028137159, -0.019097399, -239194.69, -172157.3, 0.0, 9.999833, 9.99872 
2.8064394e+3, 3.031489e+2, -236850.27, -279511.2, -83702.54, -0.121602915, -0.041365948, -171803.05, -171803.05, 0.0, 9.999259, 9.998692 
2.806038e+3, 3.1313848e+2, -137606.02, -95953.67, -124166.45, -0.8038258, -0.3165285, 9121.065, 9121.065, 0.0, 9.99913, 9.9996805 
2.805653e+3, 3.2313e+2, -194877.84, -138797.81, 26019.172, 0.051442657, -0.2730772, -128585.51, -128585.51, 0.0, 9.998744, 9.999547 
2.8230992e+3, 1.3367589e+2, -1521462.6, -1375691.5, 126459.2, 0.20572259, -0.521892, -1302617.4, 327333.44, 0.00010704309, 10.000327, 10.001955 
2.822701e+3, 1.4367223e+2, -1444479.1, -1286993.5, -19432.76, -0.40998432, -0.38255024, -1284631.0, 247359.17, 0.000035101017, 10.000091, 10.002162 
2.8223112e+3, 1.5366909e+2, -1117504.0, -914441.4, -4149.657, -0.17957635, -0.3244695, -914356.6, 519654.3, 0.0000055355054, 10.001058, 10.003521 
2.8219214e+3, 1.6366388e+2, -1357694.5, -1669575.4, 38245.656, -0.007087812, -0.16490112, -1353073.0, -17011.219, 0.0000002527922, 10.001612, 9.997454 
2.8215286e+3, 1.736549e+2, -1274000.0, -1584457.4, 57064.87, -0.15506658, -0.062876195, -1263843.3, -25677.697, 0.0, 10.0016365, 9.997308 
2.8211364e+3, 1.8364583e+2, -1141778.5, -1337764.0, 40277.688, -0.20941484, 0.027876083, -1133823.8, 6439.181, 0.0, 10.001236, 9.998549 
2.8207457e+3, 1.9363557e+2, -1071894.6, -1155836.9, 59090.848, -0.067610174, -0.20327409, -1041386.06, 974.0815, 0.0, 10.000665, 9.999379 
2.820354e+3, 2.0362668e+2, -1116949.1, -1218374.1, 21740.732, 0.03082476, -0.20739502, -1112485.4, -168039.03, 0.0, 10.000087, 9.998536 
2.81996e+3, 2.136197e+2, -927255.44, -991404.75, -32121.988, -0.015586235, -0.10590912, -913936.2, -67417.84, 0.0, 10.000396, 9.999239 
2.819567e+3, 2.2361217e+2, -786749.4, -823106.94, 42681.047, -0.060722698, -0.031093324, -758537.0, -9946.129, 0.0, 10.000427, 9.999752 
2.8191757e+3, 2.3360272e+2, -568106.94, -552942.5, 59700.22, -0.06488741, -0.31397146, -500344.94, 150329.31, 0.0, 10.00082, 10.000709 
2.8187835e+3, 2.4359389e+2, -719353.2, -965076.2, 56740.246, -0.10368493, -0.33898818, -706883.94, -154127.92, 0.0, 10.000739, 9.997285 
2.8183904e+3, 2.5358516e+2, -657502.75, -842956.44, 34457.383, -0.15024914, -0.23904566, -651307.5, -196464.1, 0.0, 10.000352, 9.997603 
2.8179985e+3, 2.6357648e+2, -646369.3, -773327.06, 146938.64, -0.19959994, -0.092148334, -549784.0, -192852.34, 0.0, 9.999658, 9.997773 
2.8176084e+3, 2.735669e+2, -477324.78, -522436.63, 125105.05, -0.27055198, -0.20035416, -372758.56, -113729.01, 0.0, 9.999661, 9.998799 
2.817218e+3, 2.835583e+2, -520387.03, -607573.3, -3758.8203, -0.21947537, -0.113744855, -520225.28, -359107.84, 0.0, 9.999176, 9.997787 
2.8168276e+3, 2.935504e+2, -398694.72, -399657.1, -36446.633, 0.11133125, -0.041956052, -362726.1, -299527.7, 0.0, 9.998922, 9.998641 
2.8164327e+3, 3.035424e+2, -395457.06, -408378.1, -79813.13, 0.021101711, 0.09549137, -321843.4, -321843.4, 0.0, 9.998507, 9.998151 
2.8160322e+3, 3.1353348e+2, -298481.28, -195614.63, -116841.555, -0.5290157, -0.03597545, -119386.94, -119386.94, 0.0, 9.9982195, 9.999404 
2.815644e+3, 3.23521e+2, -134569.86, 322961.7, 63203.48, 0.0079372525, -0.55216736, 331532.06, 331532.06, 0.0, 9.99756, 10.003192 
2.8330907e+3, 1.3407387e+2, -2069306.0, -2269222.5, 121434.914, 0.035395052, -0.252382, -2011980.8, -385930.75, 0.000050582996, 9.999363, 9.996258 
2.8326964e+3, 1.4406732e+2, -1534837.3, -1421263.3, 15575.875, -0.2150718, -0.05591837, -1419165.9, 108965.57, 0.000015386415, 9.99993, 10.001284 
2.8323025e+3, 1.540604e+2, -1202408.8, -1023863.75, 41219.027, -0.44046822, -0.32634735, -1014807.3, 415374.56, 0.0000020566958, 10.000818, 10.002864 
2.8319114e+3, 1.6405351e+2, -1313592.6, -1515724.3, 7681.926, -0.46343794, -0.3391451, -1313301.1, 18942.984, 0.00000005936716, 10.001369, 9.998605 
2.831521e+3, 1.740457e+2, -1188832.1, -1399845.8, 101406.22, -0.36754507, -0.25930664, -1148000.6, 86332.34, 0.0, 10.001594, 9.998592 
2.83113e+3, 1.8403861e+2, -1047888.1, -1149670.3, 54434.563, -0.25390908, -0.100708574, -1024260.56, 112148.69, 0.0, 10.001226, 9.999864 
2.8307387e+3, 1.9403158e+2, -1066240.9, -1044829.4, 118929.55, -0.07133177, -0.10002863, -936124.7, 102351.12, 0.0, 10.000202, 10.0003805 
2.8303465e+3, 2.0402375e+2, -1127735.0, -1243607.1, 129148.99, -0.021540398, -0.03971007, -1044122.3, -103569.13, 0.0, 10.000081, 9.998377 
2.8299525e+3, 2.1401434e+2, -797645.8, -1012515.94, 129613.31, -0.19140735, -0.08453497, -736730.4, 105919.484, 0.0, 10.001605, 9.998538 
2.8295597e+3, 2.2400564e+2, -595564.94, -847783.2, 85555.56, -0.23335315, -0.03208376, -569282.25, 175454.69, 0.0, 10.00219, 9.998749 
2.8291693e+3, 2.3399709e+2, -617422.25, -752423.0, 2030.802, -0.09239527, -0.061807655, -617391.7, 29426.35, 0.0, 10.001148, 9.99922 
2.8287774e+3, 2.4398807e+2, -626976.1, -803252.25, -50807.18, -0.057848714, -0.080339395, -613380.75, -64478.5, 0.0, 10.000778, 9.998403 
2.8283843e+3, 2.5397786e+2, -413349.22, -630732.6, 3952.6912, -0.13067017, -0.22108322, -413277.38, 37720.094, 0.0, 10.001494, 9.998558 
2.827992e+3, 2.6396868e+2, -388637.03, -611604.75, 106894.34, -0.18570971, -0.19911274, -345670.1, 7417.634, 0.0, 10.001209, 9.998141 
2.827601e+3, 2.7396014e+2, -495602.8, -577361.94, 89977.92, -0.22920623, -0.1534395, -437653.4, -182475.11, 0.0, 9.999681, 9.99843 
2.8272104e+3, 2.8395194e+2, -441972.16, -408444.94, 28307.527, -0.13054828, -0.0797877, -392309.7, -235048.14, 0.0, 9.998891, 9.999341 
2.8268197e+3, 2.9394382e+2, -255835.86, -229584.2, 62444.836, 0.1543264, -0.110920675, -178900.58, -119562.21, 0.0, 9.999315, 9.999682 
2.8264248e+3, 3.039356e+2, -161778.98, -265508.22, 74120.88, 0.057486106, -0.06292821, -123178.99, -123178.99, 0.0, 9.999831, 9.998539 
2.826026e+3, 3.1392682e+2, 30022.533, -111928.75, 28820.135, -0.33129436, -0.10750281, 35650.688, 35650.688, 0.0, 10.000604, 9.998899 
2.8256357e+3, 3.2391578e+2, 136645.72, 390838.28, 2945.5432, 0.05119196, -0.42400366, 390872.4, 390872.4, 0.0, 9.999414, 10.002877 
2.8430843e+3, 1.3447008e+2, -1579948.1, -2346382.5, -43807.977, 0.025662951, -0.049326055, -1577452.3, 44719.383, 0.000026717651, 10.00387, 9.993647 
2.8426915e+3, 1.4446156e+2, -1352234.6, -1398000.0, 65373.93, 0.01739018, 0.13206112, -1305854.3, 218421.89, 0.000008259606, 10.00139, 10.000754 
2.842295e+3, 1.5445206e+2, -1288502.1, -1182346.8, 26429.947, -0.51830417, -0.29948455, -1176130.4, 250220.28, 0.0000013335809, 10.000652, 10.001874 
2.8419027e+3, 1.6444409e+2, -1381063.9, -1409549.3, 7261.447, -0.6793408, -0.42323825, -1379319.5, -50898.758, 0.000000073245815, 10.00033, 9.99982 
2.8415138e+3, 1.7443708e+2, -1247273.9, -1286837.0, 47457.06, -0.46469662, -0.40065855, -1215640.6, 14855.322, 0.0, 10.000578, 9.999862 
2.8411236e+3, 1.8443145e+2, -1093309.1, -1084243.9, -37876.27, -0.24190678, -0.20387152, -1050630.0, 81924.75, 0.0, 10.000582, 10.000589 
2.8407317e+3, 1.944269e+2, -980558.06, -951808.5, -69643.74, -0.030529601, -0.044296145, -895071.5, 139527.5, 0.0, 10.000592, 10.000805 
2.8403392e+3, 2.0441979e+2, -1041866.06, -1242723.6, 47049.605, -0.027019253, 0.07332876, -1031391.25, -94721.11, 0.0, 10.0008745, 9.997997 
2.8399453e+3, 2.1440868e+2, -835898.9, -1084481.8, 68865.68, -0.29956204, -0.13622706, -818095.8, 20687.055, 0.0, 10.00163, 9.998012 
2.839553e+3, 2.2439937e+2, -808619.7, -1156295.5, 33650.523, -0.3409211, -0.033118255, -805392.75, -64513.574, 0.0, 10.001677, 9.996875 
2.8391626e+3, 2.3439166e+2, -795399.5, -1085111.9, -3787.3484, -0.09668393, 0.199637, -795350.0, -152389.42, 0.0, 10.001033, 9.996999 
2.8387713e+3, 2.4438226e+2, -587478.56, -671736.4, 43930.01, 0.0047505987, 0.23418106, -568741.3, -23691.01, 0.0, 10.000656, 9.999357 
2.838379e+3, 2.543699e+2, -448321.22, -510070.78, 38946.113, -0.022046272, -0.26965103, -429496.38, 17662.172, 0.0, 10.0007715, 9.999719 
2.837987e+3, 2.643605e+2, -541703.94, -690877.3, 66154.51, -0.07096577, -0.3219658, -516593.1, -167344.88, 0.0, 10.00032, 9.997974 
2.837594e+3, 2.7435377e+2, -584846.56, -652734.5, 42418.25, -0.15445553, -0.10963106, -564462.8, -313139.9, 0.0, 9.999329, 9.998036 
2.837202e+3, 2.843465e+2, -382307.16, -210250.45, 42897.887, -0.1003479, 0.017189864, -200148.13, -46754.19, 0.0, 9.9986925, 10.000753 
2.8368112e+3, 2.9433775e+2, -239628.77, -53287.13, 53934.03, 0.12546076, -0.27350202, -38802.566, 16665.24, 0.0, 9.998815, 10.001102 
2.8364164e+3, 3.0432883e+2, -306171.03, -354746.03, 69252.35, 0.0019915893, -0.35149646, -257070.72, -257070.72, 0.0, 9.999115, 9.9981985 
2.83602e+3, 3.1431887e+2, -201309.14, -281622.6, 47518.89, -0.2507744, -0.5134127, -179251.66, -179251.66, 0.0, 9.999465, 9.998204 
2.8356266e+3, 3.2431483e+2, -298714.3, -185003.7, -81259.71, -0.06676743, 0.008482588, -142684.08, -142684.08, 0.0, 9.998315, 9.999303 
2.8530794e+3, 1.3486207e+2, -1284298.4, -1714589.1, -271285.6, -0.19933979, -0.00051727274, -1153202.0, 465137.66, 0.000013313982, 10.003854, 9.997978 
2.852686e+3, 1.4485359e+2, -1479176.8, -1589624.8, 29778.287, 0.033041257, 0.021173472, -1471659.8, 48772.26, 0.0000038169696, 10.001137, 9.999536 
2.852291e+3, 1.5484539e+2, -1493930.6, -1495065.9, 20833.521, -0.27471468, -0.111852564, -1473657.0, -51149.504, 0.0000005153316, 10.00019, 9.999942 
2.8518978e+3, 1.6483793e+2, -1383119.9, -1295856.9, -238.27086, -0.4441187, -0.13198963, -1295856.3, 28719.117, 0.00000002542409, 9.99984, 10.000823 
2.851506e+3, 1.7483081e+2, -1272585.1, -1194592.6, 72786.266, -0.547253, -0.21950544, -1151014.4, 75626.71, 0.0, 9.999969, 10.000779 
2.851115e+3, 1.8482344e+2, -1188606.8, -1263101.6, -56650.92, -0.46056876, -0.18513624, -1158055.3, -29342.26, 0.0, 10.0005, 9.999389 
2.8507245e+3, 1.9481549e+2, -974282.2, -1105148.3, -99033.78, -0.1644914, -0.2201031, -921017.4, 109776.04, 0.0, 10.001279, 9.999424 
2.8503332e+3, 2.048078e+2, -810706.2, -1009959.5, -33545.586, -0.075489424, -0.1521205, -805210.2, 127659.45, 0.0, 10.001914, 9.999089 
2.849941e+3, 2.1479924e+2, -652446.9, -878648.94, 32388.74, -0.22292984, -0.21125436, -647900.6, 187052.25, 0.0, 10.002324, 9.999101 
2.8495485e+3, 2.2479098e+2, -542601.56, -829698.2, 1174.953, -0.27353707, -0.15507095, -542596.75, 194437.72, 0.0, 10.002608, 9.998667 
2.849156e+3, 2.3478264e+2, -453740.16, -752197.44, 95083.58, -0.23306428, -0.11573462, -426022.25, 213095.88, 0.0, 10.002557, 9.998576 
2.8487638e+3, 2.4477409e+2, -372002.94, -582989.75, 136373.16, -0.1729588, -0.069129154, -305082.63, 236118.77, 0.0, 10.002109, 9.999299 
2.848372e+3, 2.5476462e+2, -400659.13, -526556.56, 103086.19, -0.11126355, -0.21033669, -342821.63, 100468.34, 0.0, 10.00116, 9.999461 
2.8479794e+3, 2.6475582e+2, -430241.3, -576221.3, 104820.625, -0.12442945, -0.20892955, -375501.5, -30126.215, 0.0, 10.00072, 9.998611 
2.8475863e+3, 2.7474782e+2, -261716.13, -437166.84, 111263.12, -0.23209763, -0.12809928, -207754.44, 39703.68, 0.0, 10.001171, 9.998677 
2.847194e+3, 2.847397e+2, -71613.38, -152404.92, 47687.477, -0.16413696, -0.09026976, -49511.848, 100026.33, 0.0, 10.001094, 10.000044 
2.846803e+3, 2.9473084e+2, -66628.836, -75351.14, -68612.266, 0.06653713, -0.26310763, -2239.262, 49380.527, 0.0, 10.000346, 10.000258 
2.8464088e+3, 3.0472258e+2, -60663.613, -136809.78, -67721.09, 0.0062981523, -0.2982362, -21046.89, -21046.89, 0.0, 10.000221, 9.999229 
2.846014e+3, 3.1471455e+2, 69201.38, -66923.98, -33778.51, -0.11898442, -0.33981764, 77122.37, 77122.37, 0.0, 10.0007925, 9.999128 
2.845618e+3, 3.2471025e+2, 176280.39, -248984.06, -168319.39, -0.2062641, 0.24799126, 234837.92, 234837.92, 0.0, 10.002517, 9.996993 
2.8630728e+3, 1.3525419e+2, -1598008.4, -1542471.9, -254503.47, -0.31925946, -0.050734956, -1314226.3, 300274.13, 0.0000059672334, 10.000199, 10.000959 
2.8626812e+3, 1.452459e+2, -1433693.9, -1685654.9, 23878.379, 0.17804554, -0.08815055, -1431450.9, 85133.2, 0.0000015122073, 10.001917, 9.99852 
2.8622863e+3, 1.5523888e+2, -1360106.1, -1581839.4, 33792.234, -0.053314198, 0.030672735, -1355070.5, 63588.07, 0.0000000966577, 10.001709, 9.998632 
2.861893e+3, 1.6523173e+2, -1147932.4, -1133944.9, 53543.28, -0.21903059, 0.089182556, -1086940.5, 233785.67, 0.00000000026919006, 10.001219, 10.00129 
2.861499e+3, 1.7522435e+2, -1181273.3, -1115382.6, 31999.355, -0.47536898, -0.07027445, -1102400.3, 120388.31, 0.0, 10.000417, 10.00112 
2.8611073e+3, 1.8521555e+2, -1267043.6, -1410859.8, -31244.904, -0.5097415, -0.14487943, -1260548.8, -135676.19, 0.0, 10.000519, 9.998356 
2.8607172e+3, 1.9520485e+2, -1076339.4, -1282771.6, -50581.695, -0.23889773, -0.3430418, -1064611.8, -37629.8, 0.0, 10.0012245, 9.998211 
2.8603274e+3, 2.0519674e+2, -842535.6, -926602.6, 38828.09, -0.06721348, -0.2917953, -827346.44, 101714.57, 0.0, 10.001255, 9.999994 
2.8599373e+3, 2.1519023e+2, -884762.9, -913869.6, 38669.516, -0.026643272, -0.24743101, -857998.8, -26878.934, 0.0, 10.000364, 9.999839 
2.8595445e+3, 2.2518247e+2, -772326.5, -726789.2, -13327.875, -0.12551574, -0.2684599, -723175.2, 10015.658, 0.0, 10.000175, 10.000497 
2.8591493e+3, 2.351731e+2, -687953.06, -668963.25, 6152.4243, -0.32251054, -0.55732954, -667144.25, -31866.26, 0.0, 10.000236, 10.0002 
2.8587562e+3, 2.4516612e+2, -697436.6, -809437.8, 49535.613, -0.34354052, -0.4049722, -678672.0, -141324.16, 0.0, 10.000344, 9.998487 
2.8583643e+3, 2.5516042e+2, -641096.75, -764929.94, 28049.092, -0.19726458, -0.12816548, -635039.75, -195629.5, 0.0, 10.000166, 9.998225 
2.8579718e+3, 2.651524e+2, -503065.7, -573686.56, 98240.42, -0.1992869, 0.0016651278, -433982.6, -92492.04, 0.0, 10.000142, 9.998869 
2.857579e+3, 2.7514178e+2, -425753.88, -506746.88, 91225.31, -0.32056656, -0.2508141, -366440.44, -122848.15, 0.0, 10.000053, 9.998728 
2.8571865e+3, 2.8513244e+2, -390626.2, -547471.8, 4890.3633, -0.24758369, -0.22214568, -390473.88, -244786.25, 0.0, 10.00012, 9.997728 
2.8567946e+3, 2.951234e+2, -343938.94, -498343.2, -80157.1, -0.01063315, -0.20374022, -309851.7, -262066.88, 0.0, 9.999828, 9.997557 
2.8564012e+3, 3.0511683e+2, -31309.133, 51397.813, -31406.73, -0.009415835, -0.0029167524, 61972.1, 61972.1, 0.0, 9.999842, 10.000628 
2.856008e+3, 3.1511265e+2, -82033.445, -33395.195, -6648.0635, -0.03311594, 0.15143614, -32502.883, -32502.883, 0.0, 9.999471, 9.999923 
2.8556108e+3, 3.2509992e+2, -44379.03, -377963.03, -885.10986, -0.45142624, -0.15184066, -44376.684, -44376.684, 0.0, 10.001375, 9.996548 
2.873063e+3, 1.35647e+2, -1790111.6, -1564758.5, -87880.17, -0.53827316, -0.07019189, -1534540.3, 76106.45, 0.0000021514043, 9.998641, 10.0015335 
2.872677e+3, 1.4563866e+2, -1449090.6, -1649148.5, 36830.18, 0.3291155, -0.16014367, -1442525.8, 70202.52, 0.00000043033984, 10.001657, 9.998873 
2.8722784e+3, 1.556321e+2, -1355028.0, -1571737.4, 92226.83, -0.3334865, -0.019261962, -1321092.4, 93706.64, 0.000000019645139, 10.001727, 9.99869 
2.8718856e+3, 1.6562471e+2, -1196094.3, -1292007.0, 32296.604, -0.36224467, 0.07913351, -1186232.9, 130640.58, 0.0, 10.001485, 10.000069 
2.871496e+3, 1.7561673e+2, -1264717.4, -1308815.1, 22846.62, -0.13458438, 0.00015644687, -1255015.4, -36065.344, 0.0, 10.000491, 9.999763 
2.871104e+3, 1.8560874e+2, -1169267.1, -1269970.1, -10637.49, -0.20605604, 0.028004324, -1168155.8, -47127.453, 0.0, 10.000737, 9.999234 
2.8707096e+3, 1.9559991e+2, -983965.5, -1165752.4, 55612.5, -0.41425598, -0.0454675, -968302.06, 54814.92, 0.0, 10.001474, 9.998928 
2.8703186e+3, 2.0559207e+2, -856093.6, -902828.8, 32519.371, -0.33200166, -0.013020516, -839416.8, 85775.96, 0.0, 10.001049, 10.000238 
2.869929e+3, 2.1558465e+2, -1018539.56, -966956.4, 44784.49, -0.104659215, -0.043716792, -941067.6, -113806.12, 0.0, 9.999353, 9.999969 
2.8695363e+3, 2.255764e+2, -1000016.7, -862870.0, -26045.965, -0.11192542, -0.11035818, -858090.1, -128752.07, 0.0, 9.998661, 10.000318 
2.8691414e+3, 2.3556721e+2, -916450.5, -793460.5, -52034.31, -0.30216014, -0.33654293, -774399.94, -142976.45, 0.0, 9.998639, 10.000151 
2.868749e+3, 2.455601e+2, -767515.1, -749720.4, -10264.1875, -0.2848339, -0.25733942, -745034.06, -211541.66, 0.0, 9.999361, 9.9994135 
2.8683582e+3, 2.5555414e+2, -487929.2, -606730.06, 22292.271, -0.12708981, -0.053186953, -483883.9, -48330.688, 0.0, 10.000723, 9.999091 
2.8679657e+3, 2.6554576e+2, -383537.63, -494640.2, 40350.87, -0.14599988, -0.030147709, -370429.3, -32793.977, 0.0, 10.000745, 9.999168 
2.8675714e+3, 2.7553487e+2, -459718.97, -506129.8, 27325.563, -0.30704513, -0.2930345, -447075.0, -207336.69, 0.0, 9.999614, 9.998986 
2.8671783e+3, 2.855262e+2, -326377.2, -463239.5, 62069.26, -0.3278813, -0.24949145, -302421.03, -160593.42, 0.0, 10.000256, 9.99826 
2.8667864e+3, 2.955186e+2, 114842.914, -231090.8, 97678.26, -0.2712096, -0.082384564, 140517.89, 184429.42, 0.0, 10.002657, 9.998064 
2.866394e+3, 3.0551192e+2, 367597.16, 203295.7, 60976.977, -0.14858294, 0.108704805, 387754.47, 387754.47, 0.0, 10.002634, 10.000374 
2.866003e+3, 3.1550673e+2, 107542.89, 46303.44, -23024.938, 0.16274767, 0.24634516, 115233.94, 115233.94, 0.0, 10.000675, 9.999948 
2.8656045e+3, 3.2549283e+2, 79357.31, -204796.47, 107776.555, -0.49144438, -0.2053304, 115610.53, 115610.53, 0.0, 10.001524, 9.997735 
2.8830564e+3, 1.3603868e+2, -1385089.1, -1425989.9, 66749.91, -0.4361614, -0.24982761, -1335727.1, 271072.4, 0.00000033823923, 10.001568, 10.001093 
2.8826714e+3, 1.4603142e+2, -1330438.3, -1529504.3, 6119.8877, 0.32298142, -0.22585583, -1330250.4, 178621.45, 0.000000039050374, 10.002186, 9.999447 
2.8822714e+3, 1.5602499e+2, -1363677.8, -1551809.0, 47671.617, -0.4243119, -0.10131218, -1352287.6, 58653.668, 0.0000000006124831, 10.001545, 9.998934 
2.8818795e+3, 1.6601752e+2, -1313963.4, -1477011.0, 30853.197, -0.3658573, 0.035598155, -1308320.4, 4700.4795, 0.0, 10.00122, 9.998905 
2.881492e+3, 1.7600907e+2, -1302129.1, -1460806.4, 17426.895, 0.14809974, 0.021600917, -1300237.8, -85128.32, 0.0, 10.000776, 9.998582 
2.881099e+3, 1.8600193e+2, -1142333.1, -1153416.9, 62813.97, 0.023455694, 0.14015904, -1084817.1, 32364.314, 0.0, 10.00055, 10.000109 
2.8807026e+3, 1.9599515e+2, -1111179.4, -1153210.1, 71745.48, -0.46881703, 0.17887722, -1057434.8, -38187.363, 0.0, 10.000329, 9.999573 
2.8803104e+3, 2.0598774e+2, -1014551.06, -989690.6, 17785.79, -0.47062638, 0.2354216, -980421.9, -59102.715, 0.0, 10.000108, 10.000072 
2.8799203e+3, 2.1597946e+2, -1049517.1, -1029457.75, -4570.111, -0.11681302, 0.1311912, -1028465.56, -205067.05, 0.0, 9.999464, 9.999459 
2.879528e+3, 2.2597103e+2, -956124.25, -893480.56, 9923.794, -0.054288436, 0.1027974, -891946.06, -166466.98, 0.0, 9.999284, 9.999787 
2.8791335e+3, 2.3596229e+2, -949272.06, -903861.94, -10005.92, -0.1727003, -0.03034142, -901754.94, -274192.56, 0.0, 9.998925, 9.999247 
2.8787422e+3, 2.4595456e+2, -669837.9, -594824.1, 86499.05, -0.12802137, -0.004483122, -538050.3, -8415.896, 0.0, 9.999641, 10.000336 
2.878353e+3, 2.5594717e+2, -520101.75, -563792.6, 60964.008, 0.03475439, -0.053912897, -477187.38, -45484.55, 0.0, 10.000354, 9.9995575 
2.8779596e+3, 2.659384e+2, -470527.22, -528449.4, -9258.786, -0.03656893, -0.08401826, -469083.2, -135297.52, 0.0, 10.000243, 9.999129 
2.8775638e+3, 2.7592808e+2, -648044.25, -636383.06, -21871.982, -0.23245877, -0.31966108, -619577.9, -383692.8, 0.0, 9.998617, 9.998542 
2.87717e+3, 2.859208e+2, -357248.72, -311793.28, 135080.77, -0.42461836, -0.18743205, -197541.56, -59583.582, 0.0, 9.999419, 9.999663 
2.876778e+3, 2.9591504e+2, -99013.66, -254216.95, 150915.64, -0.6115688, -0.010767503, -6916.909, 33102.348, 0.0, 10.000955, 9.998702 
2.8763872e+3, 3.0590686e+2, 50287.113, -127611.375, -45933.477, -0.30135137, 0.08943393, 61447.07, 61447.07, 0.0, 10.00138, 9.998663 
2.8759992e+3, 3.158972e+2, -295608.13, -411610.25, -80512.51, 0.49176663, -0.05451857, -254380.23, -254380.23, 0.0, 9.99919, 9.997499 
2.8755984e+3, 3.258894e+2, -43519.117, -14612.014, 284253.75, -0.5364322, 0.0067895306, 255555.39, 255555.39, 0.0, 9.999966, 9.999628 
2.8930536e+3, 1.3642901e+2, -1607548.3, -1804318.6, 48444.99, -0.22021064, -0.51590073, -1596267.8, 6690.448, 0.0000000028010363, 10.001285, 9.998618 
2.8926605e+3, 1.464233e+2, -1346289.9, -1434557.1, -38148.816, -0.247831, -0.28425476, -1332087.3, 172935.22, 0.0, 10.00168, 10.000313 
2.8922677e+3, 1.5641673e+2, -1408461.4, -1499665.1, 47236.742, -0.23713657, -0.26164153, -1388406.3, 18686.813, 0.0, 10.000931, 9.999581 
2.8918743e+3, 1.6640934e+2, -1354834.0, -1509086.4, 35111.035, -0.27533886, -0.14675513, -1347218.1, -38045.063, 0.0, 10.00098, 9.998797 
2.8914803e+3, 1.7640115e+2, -1278223.9, -1461142.9, 64377.066, -0.40565622, -0.114020824, -1257838.6, -46577.313, 0.0, 10.000964, 9.998496 
2.8910884e+3, 1.8639334e+2, -1081757.5, -1074393.5, 64094.305, -0.38350624, -0.083832994, -1013875.56, 99462.375, 0.0, 10.000703, 10.000591 
2.890697e+3, 1.963857e+2, -1153978.5, -1130606.6, 95849.9, -0.33046436, -0.15471701, -1045732.94, -30324.512, 0.0, 9.999778, 10.000019 
2.8903055e+3, 2.0637856e+2, -1032266.56, -1011382.2, 51189.25, -0.23135547, -0.085830696, -969580.94, -52103.93, 0.0, 9.999984, 9.999993 
2.889914e+3, 2.163713e+2, -841948.1, -914205.3, 70121.14, -0.11263577, -0.071290776, -799195.5, 20353.197, 0.0, 10.000737, 9.999658 
2.8895208e+3, 2.2636367e+2, -631348.7, -689333.7, 59335.97, -0.105643675, -0.054456625, -594300.9, 127321.016, 0.0, 10.001245, 10.000262 
2.8891268e+3, 2.363557e+2, -545047.0, -653867.3, 99494.85, -0.20554323, -0.12633729, -486056.56, 137641.1, 0.0, 10.001343, 9.999828 
2.8887352e+3, 2.4634752e+2, -416227.56, -565108.75, 178948.88, -0.18653218, -0.132341, -296853.56, 228922.42, 0.0, 10.001678, 9.999599 
2.8883454e+3, 2.5633883e+2, -287629.4, -500943.22, 102546.04, -0.12832509, -0.20673041, -246328.94, 181530.03, 0.0, 10.002019, 9.999233 
2.887952e+3, 2.663304e+2, -319201.53, -464696.38, -67473.54, -0.16016488, -0.19752094, -292727.66, 37213.97, 0.0, 10.001261, 9.999095 
2.8875557e+3, 2.7632156e+2, -415719.7, -499229.0, -62173.563, -0.2755911, -0.2370155, -382581.06, -150552.27, 0.0, 10.000005, 9.998835 
2.8871626e+3, 2.8631413e+2, -370001.4, -267034.06, 103136.695, -0.36657703, -0.17512049, -203245.23, -69143.97, 0.0, 9.99898, 10.000228 
2.886772e+3, 2.9630738e+2, -445911.06, -346284.88, 83218.836, -0.45076534, -0.13183558, -299109.72, -262943.28, 0.0, 9.998119, 9.999468 
2.8863803e+3, 3.0629763e+2, -254276.72, -381640.28, -69368.06, -0.24399601, -0.18283507, -223792.17, -223792.17, 0.0, 9.999683, 9.9977865 
2.8859913e+3, 3.16286e+2, 199065.14, -200081.92, -82963.3, 0.34230092, -0.38559732, 215622.36, 215622.36, 0.0, 10.002583, 9.997386 
2.8855947e+3, 3.262839e+2, 248725.89, 259495.02, 136205.9, -0.2706567, 0.24938197, 390422.75, 390422.75, 0.0, 10.001079, 10.0011835 
2.903049e+3, 1.3682209e+2, -1567734.8, -1882482.8, 95640.695, -0.10743296, -0.6310231, -1540952.0, 58145.844, 0.00000000011876347, 10.001851, 9.997887 
2.9026505e+3, 1.4681566e+2, -1486610.4, -1454146.8, 88345.31, -0.58560133, -0.4443162, -1380554.5, 120616.086, 0.0, 10.000461, 10.000814 
2.902263e+3, 1.5681005e+2, -1442233.9, -1472022.4, 103471.93, 0.02006398, -0.36072356, -1352589.8, 50641.824, 0.0, 10.000471, 10.000019 
2.9018688e+3, 1.6680272e+2, -1403967.8, -1524603.1, 116511.25, -0.13294712, -0.2504568, -1333086.8, -27775.74, 0.0, 10.000669, 9.998816 
2.9014704e+3, 1.7679429e+2, -1352986.8, -1498053.6, 130305.11, -0.7282492, -0.23760566, -1276387.6, -68985.45, 0.0, 10.000483, 9.998475 
2.901079e+3, 1.8678579e+2, -1041141.94, -1061061.9, 113061.164, -0.6212664, -0.27051044, -937602.9, 171881.02, 0.0, 10.000998, 10.000525 
2.900692e+3, 1.9677709e+2, -953515.44, -1043891.4, 80023.42, -0.08981839, -0.45909303, -906802.94, 104759.17, 0.0, 10.001216, 9.999884 
2.9003006e+3, 2.0676987e+2, -900061.75, -955777.44, 76293.586, 0.022236738, -0.3969006, -846699.1, 66931.44, 0.0, 10.000958, 9.999868 
2.8999072e+3, 2.1676311e+2, -966835.7, -995574.7, 76470.2, -0.047282085, -0.33218342, -903396.6, -87699.4, 0.0, 10.000025, 9.999416 
2.8995138e+3, 2.267563e+2, -768498.6, -692561.6, 63737.15, -0.124933116, -0.25962135, -656341.0, 61421.32, 0.0, 10.000141, 10.000715 
2.8991202e+3, 2.3674902e+2, -801585.94, -800707.1, 63505.984, -0.197115, -0.32155412, -737639.06, -117808.24, 0.0, 9.999759, 9.999558 
2.8987285e+3, 2.467403e+2, -703137.06, -805365.94, 180624.42, -0.26533282, -0.31396344, -566534.0, -44617.54, 0.0, 10.00029, 9.998525 
2.8983375e+3, 2.567305e+2, -674243.44, -833207.94, 104992.87, -0.31591538, -0.42207354, -622040.75, -198026.63, 0.0, 10.000138, 9.997789 
2.8979436e+3, 2.6672256e+2, -476280.53, -560548.1, -70987.555, -0.32982847, -0.28200498, -435864.4, -109769.33, 0.0, 10.000362, 9.99882 
2.8975475e+3, 2.7671525e+2, -549415.2, -633661.0, -67586.086, -0.31884947, -0.17586853, -511900.06, -283728.94, 0.0, 9.999484, 9.998142 
2.897156e+3, 2.8670672e+2, -370755.56, -232997.98, 72897.18, -0.22207487, -0.19453427, -201585.77, -71334.7, 0.0, 9.998981, 10.000413 
2.896766e+3, 2.9669753e+2, -552894.44, -447061.06, 66342.24, -0.07057654, -0.4189702, -415116.28, -382781.56, 0.0, 9.997761, 9.9988985 
2.8963706e+3, 3.0668885e+2, -220793.64, -387141.88, 56204.402, -0.43668237, -0.33811995, -203584.14, -203584.14, 0.0, 10.000219, 9.997314 
2.8959748e+3, 3.166792e+2, 69145.79, -503411.2, 34717.246, -0.8417493, -0.2843281, 71243.2, 71243.2, 0.0, 10.002972, 9.994978 
2.8955913e+3, 3.2667136e+2, -160873.4, 76933.336, -90731.2, -0.04164177, -0.21080296, 107596.55, 107596.55, 0.0, 9.998612, 10.000794 
2.9130432e+3, 1.3722034e+2, -1497922.4, -1485574.1, -129296.77, -0.14945844, -0.38497654, -1362304.1, 232895.7, 0.0000000000007792345, 10.000834, 10.001093 
2.912643e+3, 1.4721005e+2, -1653130.1, -1578228.5, 137640.95, -0.6376016, -0.68250287, -1473034.3, 24268.88, 0.0, 9.99954, 10.00039 
2.9122555e+3, 1.5720814e+2, -1556786.1, -1585889.0, 162908.44, -0.08904662, -0.18344204, -1407780.5, -8451.737, 0.0, 9.999944, 9.9994955 
2.911863e+3, 1.6720079e+2, -1425295.6, -1486499.6, 138315.2, -0.052645933, -0.081742, -1314237.5, -12830.817, 0.0, 10.000315, 9.999238 
2.9114673e+3, 1.7719096e+2, -1397918.6, -1514692.3, 192913.97, -0.38821054, -0.24045399, -1254749.4, -51240.72, 0.0, 10.000124, 9.998543 
2.911075e+3, 1.8718235e+2, -1064022.5, -1218880.5, 181021.5, -0.42187387, -0.21092595, -944565.6, 161028.6, 0.0, 10.001434, 9.999243 
2.9106852e+3, 1.9717418e+2, -797745.5, -1071777.9, 124876.3, -0.29460996, -0.21111393, -749376.9, 258295.97, 0.0, 10.00267, 9.99901 
2.9102927e+3, 2.071656e+2, -696308.94, -835808.1, 11176.291, -0.21128662, -0.26828855, -695419.2, 214333.17, 0.0, 10.002192, 10.000124 
2.909899e+3, 2.171568e+2, -863636.44, -916513.25, 49480.332, -0.22087651, -0.41699225, -833974.1, -22140.781, 0.0, 10.00052, 9.999749 
2.9095057e+3, 2.2714964e+2, -843745.4, -794158.56, 32223.258, -0.21222498, -0.36094978, -778294.25, -64391.926, 0.0, 9.999833, 10.000204 
2.909112e+3, 2.3714279e+2, -837808.06, -823311.25, 36954.266, -0.23985295, -0.3121061, -792901.25, -176931.53, 0.0, 9.999404, 9.999615 
2.9087213e+3, 2.471344e+2, -780171.8, -755836.8, 166874.69, -0.22941768, -0.32946813, -600686.6, -82634.07, 0.0, 9.999281, 9.999388 
2.9083312e+3, 2.571252e+2, -707288.8, -732089.4, 158843.34, -0.232811, -0.43669456, -560362.44, -140219.0, 0.0, 9.999262, 9.998944 
2.907937e+3, 2.6711768e+2, -502864.0, -558434.6, 40581.24, -0.24202481, -0.31508723, -481467.38, -159247.55, 0.0, 9.99996, 9.999098 
2.907541e+3, 2.771107e+2, -296967.25, -461991.63, 70410.73, -0.27390593, -0.1669179, -271008.56, -46717.402, 0.0, 10.000862, 9.998694 
2.90715e+3, 2.8710026e+2, -60648.258, -200597.1, 184062.53, -0.08335523, -0.33932617, 66292.12, 192684.19, 0.0, 10.001532, 9.999436 
2.906759e+3, 2.9709095e+2, -1586.1034, -151252.84, 135991.11, -0.04793771, -0.45750242, 78801.7, 107281.72, 0.0, 10.00122, 9.999297 
2.9230365e+3, 1.3761783e+2, -1534895.3, -1366818.6, -122034.55, -0.08611499, -0.25530973, -1302685.1, 288622.75, 0.0, 9.999956, 10.002316 
2.9226366e+3, 1.4760524e+2, -1344109.1, -1500408.0, 75398.54, -0.54655266, -0.79963076, -1313666.4, 179763.45, 0.0, 10.001946, 9.999757 
2.9222476e+3, 1.5760484e+2, -1523822.8, -1619411.9, 79388.05, -0.12009763, -0.08907035, -1478952.4, -83512.414, 0.0, 10.000353, 9.999074 
2.9218566e+3, 1.6759732e+2, -1365556.6, -1440870.1, 71491.41, 0.028979894, -0.008395548, -1322410.8, -24893.275, 0.0, 10.000602, 9.999458 
2.9214638e+3, 1.775867e+2, -1294493.4, -1468132.1, 106471.734, 0.00047403708, -0.2682634, -1243930.6, -44306.133, 0.0, 10.000847, 9.99854 
2.9210708e+3, 1.8757859e+2, -1269654.9, -1408256.5, 176947.78, -0.20546043, -0.1551242, -1148921.1, -47213.4, 0.0, 10.000485, 9.99836 
2.9206786e+3, 1.9757101e+2, -1324563.1, -1435706.4, 141780.13, -0.38689333, -0.010124094, -1227852.8, -224067.34, 0.0, 9.999521, 9.998046 
2.9202852e+3, 2.075614e+2, -935587.0, -937120.2, 8960.072, -0.38153598, -0.13841021, -927360.75, -21487.406, 0.0, 10.00055, 10.000212 
2.919891e+3, 2.1755086e+2, -846948.6, -949238.3, 1610.0288, -0.297876, -0.47443622, -846923.3, -38956.34, 0.0, 10.000873, 9.999358 
2.9194972e+3, 2.275432e+2, -830780.5, -869420.0, 11629.803, -0.25811872, -0.41366896, -827550.2, -117507.8, 0.0, 10.000325, 9.999426 
2.9191038e+3, 2.3753658e+2, -999344.3, -966111.4, 16864.906, -0.21762732, -0.2881981, -959052.3, -346940.9, 0.0, 9.99867, 9.998968 
2.918714e+3, 2.4752897e+2, -741366.4, -597545.25, 163629.19, -0.13051282, -0.28192657, -490722.38, 23464.248, 0.0, 9.999042, 10.000556 
2.918325e+3, 2.575208e+2, -714316.44, -662357.1, 126823.06, -0.015070749, -0.42544055, -558880.06, -142613.89, 0.0, 9.9990015, 9.999536 
2.9179308e+3, 2.6751393e+2, -481543.22, -466421.72, 36170.777, -0.07132204, -0.3044192, -437029.94, -118696.29, 0.0, 9.999957, 9.99962 
2.917535e+3, 2.7750725e+2, -433379.47, -548990.9, 81726.484, -0.20043889, -0.20858932, -391081.63, -170681.92, 0.0, 10.000162, 9.99839 
2.917145e+3, 2.8749457e+2, -253858.98, -470673.3, 184578.33, 0.007052888, -0.50337166, -148207.11, -25680.934, 0.0, 10.0011, 9.997718 
2.9167485e+3, 2.9748884e+2, -256232.61, -251731.38, 86696.05, -0.4376538, -0.18641683, -167256.73, -142670.33, 0.0, 9.999538, 9.999391 
2.9330292e+3, 1.3801555e+2, -1797290.5, -1711274.6, 191101.94, -0.11231033, -0.024597552, -1558400.9, 29012.53, 0.0, 9.999184, 10.000302 
2.932633e+3, 1.4799993e+2, -1366907.9, -1578780.1, -42215.406, -0.40789542, -0.77073276, -1358806.4, 130758.266, 0.0, 10.002069, 9.999167 
2.9322392e+3, 1.5799594e+2, -1620868.3, -1730162.5, 13641.548, -0.29599085, -0.35666847, -1619191.4, -227585.44, 0.0, 9.99995, 9.998519 
2.9318482e+3, 1.6798861e+2, -1379246.8, -1458431.8, 62840.816, -0.17422526, -0.2384286, -1344565.9, -50886.22, 0.0, 10.0005665, 9.999347 
2.931456e+3, 1.7797966e+2, -1212941.8, -1394934.9, 74363.31, -0.21569364, -0.3242683, -1186421.1, 9347.914, 0.0, 10.001229, 9.998869 
2.9310632e+3, 1.8797159e+2, -1275000.6, -1283922.5, 59320.105, -0.2604775, -0.2984094, -1219974.0, -122125.586, 0.0, 9.99988, 9.99951 
2.9306707e+3, 1.979637e+2, -1557571.5, -1446765.1, 132878.6, -0.29850024, -0.2844764, -1358202.3, -358276.56, 0.0, 9.997448, 9.998975 
2.9302788e+3, 2.0795539e+2, -1094539.1, -1072048.4, 123649.414, -0.25513157, -0.28678173, -959134.0, -57129.188, 0.0, 9.999685, 9.999716 
2.9298866e+3, 2.1794659e+2, -594797.56, -876279.3, 68778.96, -0.25780168, -0.3813899, -578890.6, 225197.0, 0.0, 10.00271, 9.999003 
2.9294914e+3, 2.2793828e+2, -619889.56, -849900.44, -65692.836, -0.24565361, -0.32668388, -602449.5, 103723.25, 0.0, 10.001998, 9.998817 
2.9290953e+3, 2.3793028e+2, -809640.25, -874978.0, -7674.1123, -0.27727714, -0.26530242, -808751.0, -200493.94, 0.0, 9.99981, 9.999104 
2.9287055e+3, 2.4792306e+2, -560454.6, -505622.7, 169704.88, -0.19727963, -0.24091737, -361133.53, 149195.9, 0.0, 10.000123, 10.000741 
2.9283175e+3, 2.5791582e+2, -346763.2, -441599.22, 86884.125, -0.106855236, -0.28597623, -295199.78, 117200.6, 0.0, 10.001169, 10.000068 
2.9279232e+3, 2.6790887e+2, -232323.64, -364049.84, -48019.285, -0.18842374, -0.20089541, -216677.23, 97791.984, 0.0, 10.001607, 9.99958 
2.9275274e+3, 2.7790174e+2, -112088.48, -357699.78, -47142.766, -0.35805842, -0.14688277, -103350.72, 113189.25, 0.0, 10.001992, 9.998894 
2.9271364e+3, 2.878902e+2, -242812.16, -506296.4, 52175.582, -0.21224658, -0.34674808, -232856.44, -114200.99, 0.0, 10.001117, 9.997606 
2.92674e+3, 2.9788524e+2, -122092.945, -46314.555, -98493.055, -0.53212136, 0.077531315, 21325.738, 42033.46, 0.0, 9.999502, 10.00094 
2.943023e+3, 1.3840957e+2, -1620388.3, -1719114.8, 224372.36, 0.01192242, -0.049503986, -1440013.3, 143542.53, 0.0, 10.000653, 9.999597 
2.942627e+3, 1.4839527e+2, -1618668.5, -1707917.6, -55797.816, -0.3483637, -0.6333421, -1591845.6, -106153.47, 0.0, 10.000355, 9.999127 
2.9422322e+3, 1.5838814e+2, -1326220.5, -1599754.6, 19355.625, -0.3132245, -0.524616, -1324857.6, 62903.867, 0.0, 10.002022, 9.998424 
2.941841e+3, 1.6838071e+2, -1204312.9, -1404970.4, 100877.06, -0.25190583, -0.3894521, -1162367.1, 127467.664, 0.0, 10.001954, 9.999018 
2.941449e+3, 1.7837276e+2, -1229391.4, -1409584.1, 49658.523, -0.28474897, -0.3540632, -1216612.5, -24699.18, 0.0, 10.001177, 9.998759 
2.9410556e+3, 1.8836425e+2, -1084941.6, -1117669.8, -67298.42, -0.25795522, -0.41803855, -1032046.25, 61947.402, 0.0, 10.000878, 10.000171 
2.940663e+3, 1.9835564e+2, -1193394.1, -1237649.0, -19745.885, -0.09680219, -0.5498916, -1185864.8, -189790.42, 0.0, 9.999859, 9.999238 
2.9402727e+3, 2.0834875e+2, -1034606.3, -1074549.6, 121182.6, -0.086174406, -0.43111497, -931760.6, -33617.63, 0.0, 10.000287, 9.999371 
2.9398823e+3, 2.1834192e+2, -1006784.4, -1183212.6, 36666.332, -0.11365387, -0.29442352, -999467.6, -199254.92, 0.0, 10.000391, 9.998019 
2.9394862e+3, 2.2833318e+2, -758627.06, -961117.8, -145730.47, -0.17992611, -0.22746041, -682423.9, 19881.37, 0.0, 10.001359, 9.998281 
2.939088e+3, 2.3832388e+2, -727820.6, -907563.0, -34933.234, -0.239437, -0.26724425, -721270.0, -116865.92, 0.0, 10.000821, 9.998332 
2.9386976e+3, 2.48317e+2, -556296.9, -494655.38, 222109.89, -0.26375842, -0.18703145, -301238.03, 205236.23, 0.0, 10.0002985, 10.000634 
2.938309e+3, 2.5831085e+2, -693364.5, -660298.2, 142419.81, -0.24527866, -0.12727153, -533455.1, -124919.234, 0.0, 9.999194, 9.999471 
2.9379156e+3, 2.6830328e+2, -382195.0, -475827.9, 22061.98, -0.3710101, -0.056682, -377257.13, -66644.55, 0.0, 10.000816, 9.999189 
2.9375198e+3, 2.7829513e+2, -262088.97, -482324.88, 3211.3523, -0.5456041, -0.07342755, -262042.16, -49346.97, 0.0, 10.001337, 9.998327 
2.937126e+3, 2.8828648e+2, -302374.8, -441635.3, 45485.23, -0.60766906, -0.016108193, -288834.9, -174053.47, 0.0, 10.000503, 9.99826 
2.9367378e+3, 2.9827443e+2, -305852.44, 43931.977, -175770.52, 0.06597152, -0.37912992, 116996.53, 133895.64, 0.0, 9.997822, 10.0022545 
2.9530165e+3, 1.3879961e+2, -1564087.3, -1393561.9, -211540.6, -0.064289615, -0.24900444, -1250747.5, 328989.75, 0.0, 9.999792, 10.002256 
2.9526168e+3, 1.4879367e+2, -1668078.5, -1630417.0, 41805.7, -0.6416686, -0.16105156, -1603396.8, -121608.66, 0.0, 9.999612, 10.000005 
2.952228e+3, 1.5878442e+2, -1270562.4, -1562890.0, 83288.23, -0.29219794, -0.3310341, -1248497.8, 135381.14, 0.0, 10.002351, 9.998534 
2.9518372e+3, 1.6877551e+2, -1214626.4, -1505515.0, 43300.598, -0.12538058, -0.29237404, -1208317.6, 77648.95, 0.0, 10.002276, 9.9981785 
2.951444e+3, 1.7876665e+2, -1319070.4, -1561975.6, 8846.988, -0.20813362, -0.25473085, -1318748.6, -130694.69, 0.0, 10.000999, 9.997812 
2.9510498e+3, 1.887566e+2, -1068533.0, -1292335.0, -108492.59, -0.2628488, -0.34268615, -1024573.5, 65577.6, 0.0, 10.00173, 9.998582 
2.950656e+3, 1.9874653e+2, -876266.2, -1134956.8, -112306.73, -0.27417484, -0.47835433, -834313.5, 157934.44, 0.0, 10.002174, 9.998853 
2.9502648e+3, 2.0873947e+2, -813528.6, -835305.2, -25822.594, -0.24947973, -0.45932385, -796392.6, 97921.75, 0.0, 10.001117, 10.000668 
2.9498735e+3, 2.18733e+2, -1030747.3, -1052368.3, -29073.1, -0.27758464, -0.40302736, -1010539.9, -214163.53, 0.0, 9.999502, 9.999383 
2.94948e+3, 2.2872567e+2, -642706.4, -838506.25, -86639.914, -0.20218249, -0.28799787, -609874.25, 88582.03, 0.0, 10.001809, 9.9989395 
2.9490852e+3, 2.3871802e+2, -89157.4, -473412.84, -14901.487, -0.1539773, -0.22047988, -88580.38, 511960.7, 0.0, 10.00455, 9.999541 
2.948692e+3, 2.4871196e+2, -271523.44, -289538.88, 128976.96, -0.2339243, -0.14899184, -151240.05, 351361.75, 0.0, 10.001819, 10.00138 
2.9483e+3, 2.5870606e+2, -729815.7, -568778.94, 163610.11, -0.32959118, -0.11237606, -466947.4, -62288.246, 0.0, 9.998296, 10.000593 
2.947909e+3, 2.6869833e+2, -347568.03, -395801.97, 218850.19, -0.35354826, -0.13252228, -151509.98, 155227.17, 0.0, 10.000656, 9.999886 
2.9475167e+3, 2.7869028e+2, 200274.13, -156622.97, 151906.7, -0.44136602, -0.1642285, 256174.73, 464993.56, 0.0, 10.003908, 9.999379 
2.9471207e+3, 2.8868404e+2, -168433.75, -302679.72, 62425.363, -0.45287955, 0.06372771, -143892.02, -33011.055, 0.0, 10.000901, 9.999107 
2.946731e+3, 2.9867148e+2, -120006.34, 168566.17, 94425.99, 0.30398452, -0.37554488, 196717.7, 209720.03, 0.0, 9.998596, 10.002819 
2.9630077e+3, 1.3919131e+2, -1486942.6, -1157819.6, -396453.2, -0.096232675, -0.26297823, -893131.0, 682768.5, 0.0, 9.999449, 10.004057 
2.962608e+3, 1.4918764e+2, -1571110.8, -1549659.6, 26921.695, -0.74437875, -0.013978563, -1531405.6, -53478.44, 0.0, 10.000136, 10.00033 
2.9622233e+3, 1.5917814e+2, -1589053.4, -1688675.3, -19627.553, -0.1284036, -0.24039252, -1585325.9, -205304.03, 0.0, 9.999998, 9.998829 
2.961833e+3, 1.6916883e+2, -1362838.6, -1571254.8, -12479.455, 0.023843832, -0.2736158, -1362094.1, -79982.26, 0.0, 10.001157, 9.998303 
2.9614392e+3, 1.7915945e+2, -1238177.8, -1579157.1, 78479.01, -0.04609342, -0.28628233, -1220982.4, -36779.645, 0.0, 10.0017805, 9.997334 
2.9610443e+3, 1.8914905e+2, -1082221.8, -1432310.3, 50988.008, -0.25047573, -0.30982527, -1074946.9, 11359.498, 0.0, 10.002281, 9.997317 
2.96065e+3, 1.9913827e+2, -978557.75, -1262354.3, 55944.57, -0.33228415, -0.38512555, -967927.6, 20485.469, 0.0, 10.001867, 9.998115 
2.9602572e+3, 2.0913059e+2, -781804.6, -698845.56, 40733.984, -0.35152492, -0.46304196, -682189.0, 208293.38, 0.0, 10.000916, 10.0016575 
2.9598644e+3, 2.191237e+2, -1070537.9, -989477.8, 26726.48, -0.34085143, -0.5486006, -981459.0, -188915.2, 0.0, 9.998995, 10.000017 
2.9594737e+3, 2.2911768e+2, -763438.1, -798583.7, 72764.29, -0.21200123, -0.3824858, -706154.75, -11543.393, 0.0, 10.000624, 9.999755 
2.9590827e+3, 2.3911203e+2, -457127.2, -586081.3, 32576.729, -0.032890804, -0.2051236, -449364.84, 147312.6, 0.0, 10.001822, 10.000087 
2.9586866e+3, 2.4910672e+2, -322171.56, -212076.08, -8108.7344, -0.18201554, -0.14462242, -211482.06, 287246.78, 0.0, 10.00111, 10.00222 
2.9582906e+3, 2.5910106e+2, -686259.56, -512133.13, 118873.88, -0.33293128, -0.16894035, -451849.8, -51068.594, 0.0, 9.998569, 10.000813 
2.9579028e+3, 2.6909345e+2, -360477.22, -296943.78, 333683.53, -0.26856413, -0.25924715, 6481.7134, 309338.0, 0.0, 10.000214, 10.0007105 
2.9575145e+3, 2.7908581e+2, -137430.14, -286723.28, 127021.664, -0.22690503, -0.34196246, -64745.06, 140187.47, 0.0, 10.001612, 9.999539 
2.9571176e+3, 2.8908202e+2, -221403.3, -231503.58, -149286.67, -0.04729509, 0.046895843, -77081.37, 29889.268, 0.0, 10.000294, 9.999802 
2.9567167e+3, 2.990731e+2, -284444.6, 3652.6482, 378682.2, -0.26794842, -0.114640936, 264758.56, 273814.22, 0.0, 9.998057, 10.001898 
2.9729983e+3, 1.395836e+2, -1585253.6, -1234889.0, -292038.22, -0.28504804, -0.1295761, -1069520.1, 502531.4, 0.0, 9.998998, 10.003714 
2.972602e+3, 1.4957212e+2, -1716846.8, -1759885.0, -49194.727, -0.6156867, -0.5679498, -1684670.5, -210512.22, 0.0, 9.999768, 9.999045 
2.9722163e+3, 1.5956584e+2, -1708140.8, -1651343.3, -68083.6, -0.07634448, -0.38786668, -1605973.0, -229749.53, 0.0, 9.998792, 9.999658 
2.9718256e+3, 1.6955855e+2, -1189385.5, -1090223.8, 49345.29, -0.030020602, -0.5129282, -1069853.1, 208434.58, 0.0, 10.000639, 10.001856 
2.971433e+3, 1.7955074e+2, -987518.1, -1217171.5, 144448.48, -0.22975153, -0.6729028, -917816.94, 262539.9, 0.0, 10.002431, 9.999516 
2.9710388e+3, 1.8954387e+2, -928004.9, -1281991.6, 112548.79, -0.3267803, -0.4482384, -895251.06, 187177.61, 0.0, 10.002935, 9.99807 
2.9706448e+3, 1.9953638e+2, -891809.0, -1200624.8, 137261.63, -0.3713081, -0.24634193, -839619.3, 144888.3, 0.0, 10.002288, 9.998363 
2.9702514e+3, 2.0952646e+2, -850639.94, -903714.3, 69525.016, -0.30882746, -0.43378034, -802759.7, 83843.07, 0.0, 10.001145, 10.000163 
2.9698575e+3, 2.1951693e+2, -942477.9, -947696.2, 45174.473, -0.3136035, -0.6448189, -899837.25, -111144.23, 0.0, 9.9998255, 9.999951 
2.9694644e+3, 2.295107e+2, -773673.56, -723885.5, 137160.6, -0.43520406, -0.549922, -609378.1, 81379.08, 0.0, 10.000049, 10.000629 
2.9690713e+3, 2.3950514e+2, -592912.9, -595207.06, 86659.516, -0.56422263, -0.4203432, -507392.88, 85423.31, 0.0, 10.000508, 10.000698 
2.9686773e+3, 2.4949951e+2, -317262.7, -307089.16, -16776.814, -0.49842492, -0.34594688, -294644.9, 200227.95, 0.0, 10.001433, 10.00147 
2.9682836e+3, 2.5949365e+2, -128677.52, -212677.23, 47871.156, -0.42301455, -0.31890053, -106993.51, 289936.8, 0.0, 10.002079, 10.0012245 
2.9678953e+3, 2.694866e+2, -227658.03, -147727.69, 243663.55, -0.3492171, -0.42778456, 59226.43, 358224.3, 0.0, 10.000562, 10.001672 
2.9675063e+3, 2.7947956e+2, -433069.0, -363421.53, 38101.992, -0.3328991, -0.5159837, -346626.94, -145560.95, 0.0, 9.999067, 10.000321 
2.9671115e+3, 2.8947592e+2, -78408.6, -222447.28, -245128.45, 0.025141861, -0.10281283, 105061.28, 208165.23, 0.0, 10.001381, 9.99944 
2.966708e+3, 2.9946575e+2, 152394.38, 224382.39, 66498.25, -0.42656472, -0.32944563, 264003.1, 269205.97, 0.0, 10.000815, 10.002163 
2.9829898e+3, 1.3997303e+2, -1314505.8, -1230809.5, -137063.77, -0.37818524, -0.32064852, -1129347.8, 438883.8, 0.0, 10.0013, 10.002658 
2.982597e+3, 1.4996077e+2, -1547784.3, -1729018.9, -35574.098, -0.3894762, -0.7552231, -1541051.5, -70703.11, 0.0, 10.001084, 9.998652 
2.982208e+3, 1.5995683e+2, -1615075.1, -1495525.6, 66504.39, -0.012489489, -0.33825177, -1465880.9, -93489.0, 0.0, 9.9989195, 10.000708 
2.981818e+3, 1.6995077e+2, -1173294.5, -796181.25, 131808.89, -0.07522707, -0.53861755, -754678.8, 519761.56, 0.0, 9.9995575, 10.004415 
2.981427e+3, 1.7994396e+2, -1215048.5, -1200316.3, 88043.11, -0.25433356, -0.81757176, -1119331.6, 57164.61, 0.0, 10.000327, 10.000675 
2.9810342e+3, 1.8993893e+2, -1139695.8, -1317810.6, -20428.068, -0.27272108, -0.48560935, -1137382.9, -58830.94, 0.0, 10.00119, 9.998693 
2.9806405e+3, 1.999338e+2, -1088286.1, -1318157.0, -38675.008, -0.22084975, -0.12691891, -1081953.6, -101343.06, 0.0, 10.001057, 9.998159 
2.980246e+3, 2.0992209e+2, -1017512.6, -1191374.4, -83877.5, -0.1748992, -0.3880183, -983644.44, -100917.37, 0.0, 10.00083, 9.998372 
2.9798514e+3, 2.1991082e+2, -1055710.5, -1060869.9, -17416.842, -0.11776841, -0.65280676, -1040683.4, -255845.83, 0.0, 9.999367, 9.9994 
2.9794553e+3, 2.2990488e+2, -721482.2, -562225.8, 126325.73, -0.56816757, -0.6143047, -492526.06, 194365.98, 0.0, 9.999945, 10.00175 
2.9790592e+3, 2.3989886e+2, -757017.7, -732312.7, 98944.08, -1.0014752, -0.5946707, -644953.0, -56004.734, 0.0, 9.999742, 10.000114 
2.9786676e+3, 2.4989238e+2, -571166.94, -545929.6, 11433.006, -0.7861122, -0.51839536, -541520.56, -50503.992, 0.0, 10.000348, 10.000301 
2.9782772e+3, 2.5988597e+2, -515742.3, -501735.22, 53630.84, -0.4421877, -0.43078995, -454652.56, -61568.91, 0.0, 10.000002, 10.000225 
2.977887e+3, 2.6987892e+2, -295043.88, -67302.63, 146852.38, -0.44689795, -0.586108, 4654.9893, 299803.88, 0.0, 9.999757, 10.002569 
2.9774958e+3, 2.7987233e+2, -618703.94, -505786.72, -7227.695, -0.5175501, -0.7100568, -505325.94, -308115.6, 0.0, 9.998204, 9.999737 
2.977104e+3, 2.8986815e+2, -303927.4, -426707.53, -152322.02, -0.08620768, -0.28340232, -201089.78, -101833.96, 0.0, 10.000426, 9.99844 
2.976705e+3, 2.9985195e+2, -90894.02, 197298.92, -391229.75, -0.036336105, -1.0730004, 470125.13, 471542.16, 0.0, 9.999077, 10.002733 
2.9929844e+3, 1.4036052e+2, -1476039.1, -1424009.0, 67446.62, -0.47522357, -0.6913171, -1377734.1, 186697.05, 0.0, 10.00082, 10.00156 
2.992593e+3, 1.503579e+2, -1495670.6, -1483889.1, -131796.86, -0.17248479, -0.28410012, -1357851.4, 108603.84, 0.0, 10.00058, 10.000567 
2.9921973e+3, 1.6035537e+2, -1742426.9, -1549857.0, 81923.92, -0.30879337, 0.14181732, -1519720.8, -151237.63, 0.0, 9.998034, 10.000764 
2.9918092e+3, 1.7034867e+2, -1449874.4, -1093979.4, 134245.27, -0.13353999, -0.008197383, -1049020.9, 221524.3, 0.0, 9.998376, 10.002946 
2.9914212e+3, 1.8034127e+2, -1468417.1, -1372615.9, 32020.377, -0.116610445, -0.22209199, -1362899.0, -190284.86, 0.0, 9.998829, 10.000199 
2.9910293e+3, 1.9033086e+2, -1287247.0, -1377942.4, -69428.71, -0.06631918, -0.42395085, -1249668.5, -174946.77, 0.0, 10.000166, 9.998759 
2.990637e+3, 2.003213e+2, -1214292.8, -1372973.9, -153898.63, 0.057616778, -0.49359784, -1120486.9, -143665.66, 0.0, 10.000133, 9.998223 
2.9902425e+3, 2.1031567e+2, -1020331.44, -1145717.1, -178573.22, 0.14148225, -0.18250808, -893765.75, -14887.929, 0.0, 10.000582, 9.998816 
2.9898468e+3, 2.2030932e+2, -738529.7, -752156.3, -66570.63, 0.08115575, -0.008606795, -678424.6, 102514.914, 0.0, 10.000783, 10.000849 
2.9894537e+3, 2.3030283e+2, -443264.47, -244424.95, 95348.31, -0.08218594, -0.18403395, -206092.8, 476902.28, 0.0, 10.000952, 10.003503 
2.9890612e+3, 2.4029747e+2, -454608.75, -470226.53, 64286.113, -0.21217449, -0.25404957, -397659.0, 187381.95, 0.0, 10.001206, 10.001234 
2.988668e+3, 2.502921e+2, -602032.94, -643859.44, -18437.643, -0.058120426, -0.03158645, -595065.94, -107967.46, 0.0, 10.0004, 9.999668 
2.9882747e+3, 2.6028502e+2, -671575.5, -652236.5, 64343.188, 0.055540774, 0.07843342, -596840.3, -207667.25, 0.0, 9.999118, 9.999682 
2.9878834e+3, 2.7027348e+2, -456885.25, -322417.97, 85145.44, -0.070745625, -0.3713352, -281161.5, 10123.835, 0.0, 9.999387, 10.001056 
2.9874903e+3, 2.8026438e+2, -316508.22, -270037.34, -158679.11, -0.28856984, -0.6277428, -132901.52, 60470.992, 0.0, 9.999748, 10.000694 
2.987095e+3, 2.9026598e+2, -360365.72, -205390.14, -167143.02, -0.13392231, 0.18155046, -98646.71, -3289.5332, 0.0, 9.998806, 10.000909 
2.9866987e+3, 3.002548e+2, 47943.57, -60449.625, -197703.16, 0.08118224, -0.17133151, 198744.08, 198744.08, 0.0, 10.001099, 10.000205 
3.0029836e+3, 1.4076221e+2, -1208971.4, -1515073.6, 439461.66, -0.09327672, -0.13656715, -896671.9, 663810.4, 0.0, 10.003278, 9.999866 
3.0025887e+3, 1.5074852e+2, -1473156.0, -1596125.0, -53251.18, 0.14002728, -0.6973284, -1453301.5, 9317.536, 0.0, 10.001188, 9.99949 
3.0021843e+3, 1.6074027e+2, -1820848.5, -1752424.8, 13222.357, -0.66769695, -0.7411483, -1749958.5, -385253.6, 0.0, 9.998037, 9.999364 
3.0017948e+3, 1.7073566e+2, -1046392.06, -1105077.8, 148207.36, -0.7563217, -0.5534159, -924650.7, 342102.78, 0.0, 10.00191, 10.001107 
3.00141e+3, 1.8073106e+2, -507472.1, -975721.94, 97143.34, -0.6015282, -0.37738204, -488118.6, 680683.1, 0.0, 10.005552, 9.999702 
3.001022e+3, 1.9072753e+2, -382760.94, -828398.3, 88454.75, -0.24769463, -0.010676131, -365845.56, 704994.44, 0.0, 10.005773, 9.999794 
3.0006307e+3, 2.0071702e+2, -348729.47, -987472.8, 148163.34, -0.05009551, -0.19986364, -316034.88, 656911.75, 0.0, 10.006086, 9.997997 
3.0002323e+3, 2.1070684e+2, -296715.13, -639368.56, 189975.14, -0.2902622, -0.43251163, -212222.78, 662823.44, 0.0, 10.004885, 10.000118 
2.999834e+3, 2.207001e+2, -432622.03, -660052.3, 252132.47, -0.59219605, -0.3277853, -269747.38, 507363.63, 0.0, 10.003095, 10.000327 
2.9994425e+3, 2.3069537e+2, -767405.0, -436227.94, 112277.15, -0.48459265, -0.30171773, -401752.2, 277397.66, 0.0, 9.998903, 10.003041 
2.9990524e+3, 2.4069034e+2, -1393711.8, -1007684.94, -150476.6, -0.3361396, -0.35173243, -955958.94, -374766.63, 0.0, 9.995146, 10.000394 
2.9986566e+3, 2.5067917e+2, -472278.94, -637167.9, -178628.92, -0.47631872, -0.71382886, -357986.56, 125319.445, 0.0, 10.001625, 9.9989605 
2.998261e+3, 2.6067138e+2, 225779.22, -386169.0, -13191.499, -0.61145294, -0.6466524, 226063.45, 611450.8, 0.0, 10.006077, 9.998061 
2.9978746e+3, 2.7066714e+2, 168041.7, -203637.63, 299238.53, -0.1723499, -0.24665393, 334452.06, 621882.94, 0.0, 10.004624, 9.999163 
2.997483e+3, 2.80659e+2, 157302.02, 24466.49, 204592.66, -0.2836724, -0.2756711, 305987.66, 495498.8, 0.0, 10.002812, 10.001148 
2.9970807e+3, 2.90656e+2, 180609.9, 486443.3, 21802.809, -0.6465538, -0.22986485, 487989.8, 579524.9, 0.0, 10.000873, 10.004478 
2.99669e+3, 3.0064848e+2, -173426.83, -797413.7, 308583.1, -0.15448421, -0.33495045, -46599.77, -46599.77, 0.0, 10.002581, 9.994239 
