coord_x,coord_y,stress_xx,stress_yy,tau_xy,velocity_x,velocity_y,stress_1,eps,damage,lx,ly
5.000257e+0, 1.24973275e+2, -1716793.1, -1698401.8, -5556.931, 0.031274516, 0.23441884, -1696853.1, 18423.043, 0.0027102246, 9.999691, 10.000256 
5.000368e+0, 1.3497457e+2, -1554330.9, -1644851.6, -17145.383, 0.0045516803, 0.29279032, -1551192.3, 66065.35, 0.0016001622, 10.000541, 9.999525 
5.00051e+0, 1.4497036e+2, -1392946.1, -1486143.6, -23395.258, 0.0018388329, -0.08246209, -1387402.9, 131890.56, 0.00071385584, 10.000869, 9.999769 
5.000621e+0, 1.5497087e+2, -1314834.9, -1397499.1, -49871.594, 0.02025807, -0.09382968, -1291394.1, 129889.08, 0.00020880907, 10.000736, 9.99977 
5.000636e+0, 1.6497146e+2, -1216114.0, -1375657.0, -32721.42, 0.005039093, 0.027792286, -1209663.9, 113611.94, 0.00003056022, 10.00108, 9.999083 
5.000512e+0, 1.7497097e+2, -1015771.6, -1246167.5, -69350.31, -0.046402525, 0.0037709512, -996507.56, 228774.83, 0.0000010193884, 10.001859, 9.998924 
5.000465e+0, 1.8497014e+2, -979716.44, -1262328.4, -68640.375, -0.048987776, 0.0740637, -963927.3, 163366.06, 0.0, 10.001811, 9.99816 
5.0004816e+0, 1.9496873e+2, -1019214.0, -1248223.4, -26539.697, -0.0034255204, 0.05322231, -1016178.56, 13132.603, 0.0, 10.00094, 9.998011 
5.00055e+0, 2.0496811e+2, -841242.2, -921557.06, 19448.07, 0.016725892, 0.11323391, -836780.7, 94536.41, 0.0, 10.000674, 9.999699 
5.00062e+0, 2.1496764e+2, -695195.3, -814371.1, -38746.39, 0.0041718013, 0.026805112, -683705.8, 149611.42, 0.0, 10.001061, 9.999578 
5.000524e+0, 2.2496697e+2, -666641.75, -843905.7, -48816.527, -0.0015537344, 0.05407745, -654087.4, 81234.5, 0.0, 10.000995, 9.998736 
5.000304e+0, 2.3496577e+2, -654221.3, -797171.5, -40048.75, 0.0033187359, -0.010343675, -643766.0, -6431.2437, 0.0, 10.000446, 9.99865 
5.0002444e+0, 2.4496517e+2, -535860.56, -625848.0, -123.17851, 0.0048299767, 0.04152176, -535860.44, 3480.9575, 0.0, 10.000309, 9.999218 
5.000334e+0, 2.5496447e+2, -412880.8, -539391.2, -12905.258, -0.00041263326, -0.015032938, -411577.78, 29770.617, 0.000000000017365094, 10.000577, 9.999013 
5.0002724e+0, 2.6496324e+2, -289312.66, -382563.3, -10699.741, -0.0050640176, -0.049187265, -288100.72, 55257.46, 0.000000288742, 10.000557, 9.99942 
5.000077e+0, 2.749615e+2, -245559.47, -316868.63, -35290.53, -0.007956631, -0.23369078, -231047.63, 14322.723, 0.0000033591298, 10.00021, 9.999364 
4.999968e+0, 2.8496167e+2, -234479.58, -314035.56, -29198.822, -0.000011130633, -0.12550913, -224913.27, -77545.9, 0.000018802597, 9.999845, 9.998879 
4.9998575e+0, 2.9496184e+2, -160350.25, -204831.2, -40891.754, 0.0013003364, -0.07055076, -136042.11, -86674.195, 0.000081046455, 9.999557, 9.999103 
4.9999627e+0, 3.0496177e+2, 4443.416, -2705.9817, -38658.145, -0.005046978, -0.053511333, 39691.785, 39691.785, 0.0003038914, 9.999925, 9.999977 
5.000615e+0, 3.1496322e+2, 68558.99, -36710.54, -95861.836, 0.022901967, 0.05064914, 125285.6, 125285.6, 0.00078894256, 10.000542, 9.999474 
1.5000753e+1, 1.2497085e+2, -1754586.1, -1667275.0, -23513.543, 0.09719888, 0.05509194, -1661345.4, 53949.836, 0.0026043395, 9.999295, 10.000683 
1.50012e+1, 1.3497175e+2, -1554987.1, -1583804.1, 30830.47, 0.028599126, 0.09593258, -1535364.4, 81916.85, 0.0015429672, 10.000334, 10.000072 
1.5001518e+1, 1.4496875e+2, -1439733.1, -1514943.8, -43839.242, 0.005757562, -0.18175994, -1419580.0, 99727.06, 0.0006869522, 10.000607, 9.999714 
1.5001844e+1, 1.5497051e+2, -1356082.4, -1426266.5, -36301.477, 0.060646523, -0.01920081, -1340684.4, 80603.08, 0.0001968844, 10.000526, 9.999687 
1.5001921e+1, 1.6497055e+2, -1284244.4, -1453243.9, -18766.117, 0.019354276, 0.07299333, -1282185.6, 41102.08, 0.000026649353, 10.000842, 9.998678 
1.5001576e+1, 1.7496827e+2, -1072936.9, -1309858.0, -24265.154, -0.13394597, -0.04919472, -1070477.1, 154836.64, 0.00000066228677, 10.001648, 9.998607 
1.5001363e+1, 1.8496756e+2, -906518.44, -1038290.1, -116846.81, -0.1465687, -0.038625482, -838262.1, 289059.22, 0.0, 10.001545, 9.999834 
1.5001433e+1, 1.949683e+2, -941740.06, -1019008.9, -42481.04, -0.0070228376, 0.023148268, -922952.75, 106358.64, 0.0, 10.000685, 9.999718 
1.5001626e+1, 2.0496778e+2, -949808.56, -1081092.4, 20583.799, 0.048903864, 0.05820907, -946656.9, -15341.529, 0.0, 10.000429, 9.998731 
1.5001833e+1, 2.1496585e+2, -800632.94, -967124.94, -7007.8887, 0.010821611, -0.04056825, -800338.5, 32997.18, 0.0, 10.000811, 9.998659 
1.5001565e+1, 2.2496477e+2, -649456.6, -741489.7, -87253.86, -0.00078113767, -0.05543976, -596828.56, 138517.9, 0.0, 10.000748, 9.999571 
1.5000887e+1, 2.349644e+2, -637458.4, -693830.75, -44088.496, 0.010936041, -0.07592788, -613316.25, 24032.934, 0.0, 10.00019, 9.999494 
1.5000743e+1, 2.449645e+2, -560281.4, -619824.4, -5833.9395, 0.016975546, -0.004424805, -559715.1, -20366.709, 0.0, 10.000099, 9.999374 
1.500099e+1, 2.5496477e+2, -434882.97, -513943.6, 11759.293, 0.00093423494, 0.054417286, -433171.0, 8175.996, 0.0, 10.000306, 9.999331 
1.5000825e+1, 2.6496458e+2, -329016.16, -406638.34, -38480.6, -0.012467644, 0.105071336, -313173.28, 30176.021, 0.00000013049092, 10.000346, 9.999368 
1.5000246e+1, 2.7496392e+2, -296619.53, -352979.5, -36423.1, -0.020780565, 0.07529513, -278747.88, -33392.523, 0.0000024373799, 9.999944, 9.999257 
1.4999868e+1, 2.8496322e+2, -257673.61, -306084.66, -54089.477, -0.0008565829, 0.096207164, -222620.55, -75259.77, 0.000015368285, 9.999642, 9.999047 
1.4999555e+1, 2.9496142e+2, -197491.44, -202219.69, -25312.49, 0.0024936968, -0.026908059, -174432.9, -125056.875, 0.000069496324, 9.999239, 9.99929 
1.4999981e+1, 3.0495977e+2, -98484.99, -134049.16, -26669.082, 0.0023734851, -0.12495544, -84213.33, -84213.33, 0.00026841622, 9.999665, 9.999225 
1.500182e+1, 3.1495973e+2, -19272.32, -75317.086, -23668.55, 0.0768744, -0.03407181, -10614.2705, -10614.2705, 0.0007052667, 10.000018, 9.999488 
2.5000897e+1, 1.2496965e+2, -1614196.1, -1636002.4, 41294.598, 0.14415966, 0.020005822, -1582389.5, 132913.17, 0.0024837567, 10.000454, 10.000308 
2.5002158e+1, 1.3497028e+2, -1591448.9, -1644663.8, -6332.82, 0.10909649, 0.05207331, -1590705.6, 26589.674, 0.0014731403, 10.000312, 9.999644 
2.5002667e+1, 1.4496809e+2, -1477078.4, -1536295.6, -59858.586, 0.08366633, -0.118325636, -1439905.9, 79409.375, 0.00065158884, 10.000404, 9.999641 
2.500272e+1, 1.5496954e+2, -1314905.8, -1419729.4, -73556.63, 0.088878185, 0.011058459, -1276998.3, 144300.97, 0.0001815959, 10.000891, 9.999543 
2.5002635e+1, 1.6496953e+2, -1281808.4, -1422656.6, 21076.875, 0.0219074, 0.0948628, -1278722.0, 44577.64, 0.000022322774, 10.000743, 9.998922 
2.500241e+1, 1.7496754e+2, -1297381.8, -1383849.1, 48811.38, -0.12109738, -0.03977733, -1275410.4, -50089.098, 0.00000035252413, 9.999983, 9.998881 
2.500244e+1, 1.8496694e+2, -1080525.3, -1103973.0, -21534.969, -0.11919899, -0.04050924, -1067729.6, 59597.023, 0.0, 10.000267, 9.999989 
2.500287e+1, 1.9496761e+2, -814946.3, -936178.3, -76279.805, 0.04033575, -0.0136059355, -778130.75, 251185.94, 0.0, 10.001467, 9.999891 
2.500293e+1, 2.0496723e+2, -815013.7, -1017696.5, -10038.144, 0.098133616, 0.025110086, -814517.75, 116801.94, 0.0, 10.00137, 9.998706 
2.5002542e+1, 2.1496549e+2, -934172.5, -1038700.7, 18153.95, 0.053962495, -0.05723518, -931109.3, -97770.64, 0.0, 9.999933, 9.998586 
2.5002083e+1, 2.2496471e+2, -785457.8, -782864.1, 26331.22, 0.036341812, -0.049033463, -757797.8, -22450.793, 0.0, 9.999712, 9.999764 
2.500163e+1, 2.3496461e+2, -554335.2, -637009.0, 8201.871, 0.050065216, -0.07566327, -553529.4, 83817.33, 0.0, 10.000683, 9.999631 
2.5001422e+1, 2.4496476e+2, -466043.0, -572898.2, 46730.406, 0.05006046, -0.0030839627, -448490.03, 90854.695, 0.0, 10.000769, 9.99935 
2.5001398e+1, 2.5496486e+2, -484240.0, -539817.7, 31415.398, 0.03749674, 0.028163543, -470086.66, -28742.51, 0.0, 9.999992, 9.999284 
2.5001046e+1, 2.6496464e+2, -458591.28, -500005.0, 12485.934, 0.021539416, 0.09487416, -455118.16, -111770.58, 0.00000003137998, 9.999614, 9.999064 
2.5000355e+1, 2.749641e+2, -358242.5, -418005.78, -20305.273, 0.01914035, 0.09842887, -351996.38, -106640.664, 0.0000016497497, 9.999689, 9.998923 
2.5000077e+1, 2.8496343e+2, -203350.67, -271022.0, 10204.898, 0.049161848, 0.13796566, -201845.25, -54483.918, 0.000012071121, 9.99999, 9.999106 
2.5000247e+1, 2.9496202e+2, -37441.11, -129453.56, 10625.222, 0.104867116, 0.033639368, -36230.09, 13141.187, 0.00005739791, 10.00039, 9.999218 
2.5000554e+1, 3.0495942e+2, -48618.81, -178163.28, 68870.44, 0.07860739, -0.116503686, -18846.984, -18846.984, 0.00023072664, 10.000325, 9.9986 
2.500193e+1, 3.1495804e+2, -48897.426, -69095.71, 41741.51, 0.1275647, -0.13660963, -16050.713, -16050.713, 0.000617959, 9.99977, 9.999617 
3.500024e+1, 1.2496945e+2, -1713960.5, -1792360.4, -19401.287, -0.0445682, 0.044880003, -1709422.0, 5878.5073, 0.0023583595, 10.000253, 9.999329 
3.5002768e+1, 1.3497014e+2, -1666602.3, -1775758.3, -493.01266, 0.09961422, 0.19379993, -1666600.1, -49300.7, 0.0013953737, 10.000226, 9.998779 
3.50035e+1, 1.4496823e+2, -1485906.6, -1517846.8, -60524.49, 0.0800986, 0.084170215, -1439280.8, 80038.69, 0.0006105934, 10.000254, 9.999838 
3.5002804e+1, 1.5496796e+2, -1310280.9, -1383266.0, -38726.008, -0.032230444, 0.023415146, -1293562.4, 127756.805, 0.00016453842, 10.0007925, 9.999833 
3.5002467e+1, 1.6496831e+2, -1209056.3, -1245075.1, -26141.441, -0.108038895, 0.061519988, -1195321.1, 127991.55, 0.000017966355, 10.000623, 10.000207 
3.5002637e+1, 1.7496857e+2, -1223107.1, -1210845.1, 37652.86, -0.13528414, 0.03562127, -1178827.4, 46479.457, 0.00000014192928, 9.9999, 10.000114 
3.500333e+1, 1.8496805e+2, -1174040.5, -1258062.0, 7890.191, -0.091704726, 0.033487774, -1173305.9, -45994.523, 0.0, 10.000105, 9.999003 
3.5004416e+1, 1.9496667e+2, -906205.1, -1087682.4, -15164.692, 0.012554452, -0.038109846, -904946.6, 124380.74, 0.0, 10.001311, 9.998922 
3.5004112e+1, 2.0496634e+2, -754479.06, -850794.06, -82142.055, 0.04896176, -0.0094598485, -707418.6, 223912.4, 0.0, 10.001201, 9.999933 
3.5002393e+1, 2.1496662e+2, -873061.4, -867927.5, -19798.477, 0.013371363, -0.0046827313, -850530.25, -17204.137, 0.0, 9.999751, 9.999845 
3.5001713e+1, 2.2496675e+2, -824766.8, -810795.8, 51188.383, -0.003950713, 0.037969436, -766118.5, -30794.469, 0.0, 9.999496, 9.999672 
3.500211e+1, 2.3496658e+2, -591281.3, -657667.06, 61202.066, -0.004726818, 0.019829882, -554850.5, 82475.31, 0.0, 10.000459, 9.999589 
3.500197e+1, 2.4496603e+2, -489044.22, -584399.44, 3227.057, -0.0034737282, 0.024117066, -488935.16, 50394.707, 0.0, 10.00061, 9.9993515 
3.5001206e+1, 2.5496477e+2, -512556.88, -552020.44, 19259.854, -0.015280193, -0.069198154, -504715.4, -63376.254, 0.0, 9.999799, 9.999293 
3.5000566e+1, 2.6496354e+2, -494506.34, -550550.75, 1153.397, -0.019572668, -0.09253785, -494482.6, -151130.52, 0.0000000045955626, 9.999509, 9.998766 
3.4999934e+1, 2.7496216e+2, -398143.56, -464569.53, 2155.4968, -0.028505478, -0.13978615, -398073.7, -152703.8, 0.0000011896407, 9.999534, 9.998676 
3.5000274e+1, 2.8496242e+2, -200082.69, -240070.86, 11098.282, 0.0340784, -0.013229659, -197208.98, -49840.49, 0.000009641755, 9.999895, 9.999366 
3.5001522e+1, 2.9496366e+2, -56843.52, -131429.5, 39780.95, 0.14950345, 0.13720636, -39608.62, 9745.082, 0.0000464018, 10.000233, 9.999284 
3.5001117e+1, 3.0496055e+2, -62926.92, -196434.34, 36044.61, 0.07044126, -0.05789118, -53817.125, -53817.125, 0.00019513248, 10.000257, 9.998503 
3.5000116e+1, 3.1495872e+2, -36130.223, -21327.016, 73727.375, -0.10928315, -0.12771796, 45369.355, 45369.355, 0.00053834624, 9.999656, 10.0 
4.5001212e+1, 1.24967754e+2, -1663274.9, -1744750.4, -10732.315, 0.04660419, -0.015674762, -1661884.9, 53430.688, 0.0022337737, 10.000532, 9.999497 
4.500325e+1, 1.3496889e+2, -1606547.8, -1735178.5, 10410.066, 0.13044044, 0.16646881, -1605710.6, 11600.118, 0.0013153872, 10.000602, 9.998865 
4.5003903e+1, 1.4496806e+2, -1444775.8, -1487506.3, 41211.31, 0.10411327, 0.15564044, -1419720.6, 99600.55, 0.00056916923, 10.000467, 9.99996 
4.500337e+1, 1.5496714e+2, -1373058.9, -1404454.3, 16305.811, -0.0136266, 0.02437343, -1366122.6, 55205.746, 0.00014812649, 10.000303, 9.999943 
4.5003214e+1, 1.6496745e+2, -1234493.0, -1212968.4, 7528.9053, -0.06289602, 0.034311518, -1210596.3, 112725.17, 0.000013959289, 10.00027, 10.000594 
4.5003602e+1, 1.7496823e+2, -1127125.5, -1120587.9, -27821.615, -0.039598104, 0.023075791, -1095843.6, 129464.27, 0.000000037538413, 10.000375, 10.000505 
4.500418e+1, 1.8496785e+2, -1158067.6, -1255983.1, 4676.089, -0.01012585, 0.019335557, -1157844.9, -30534.125, 0.0, 10.0002365, 9.998966 
4.5004818e+1, 1.9496629e+2, -1140455.4, -1207952.1, 24764.447, 0.014292282, -0.06612374, -1132344.1, -103014.164, 0.0, 9.999726, 9.998871 
4.5004418e+1, 2.0496617e+2, -907785.75, -881834.25, -27375.992, 0.03476568, -0.031083308, -864514.56, 66817.0, 0.0, 9.99995, 10.00033 
4.5002967e+1, 2.1496719e+2, -688294.0, -732595.4, -59445.56, 0.057022337, 0.0044799573, -647006.3, 186311.98, 0.0, 10.000815, 10.000263 
4.500239e+1, 2.2496744e+2, -652207.94, -762039.25, 20706.096, 0.0612548, 0.052980017, -648433.94, 86880.81, 0.0, 10.000821, 9.999378 
4.5002735e+1, 2.3496674e+2, -692295.9, -742623.4, -12814.62, 0.052545477, 0.013256332, -689220.9, -51898.17, 0.0, 9.999921, 9.999279 
4.5002615e+1, 2.4496593e+2, -613616.4, -645110.9, -52966.758, 0.055986345, 0.00887789, -574105.56, -34775.914, 0.0, 9.99976, 9.999342 
4.5001927e+1, 2.549646e+2, -434541.2, -522284.78, -69285.99, 0.060953006, -0.09112924, -396405.16, 44934.7, 0.0, 10.000355, 9.999233 
4.5000985e+1, 2.6496324e+2, -349636.0, -463147.53, -41382.133, 0.036799937, -0.13286248, -336151.5, 7201.989, 0.000000013083459, 10.000433, 9.998917 
4.499992e+1, 2.7496174e+2, -303937.97, -404492.5, -35002.668, 0.0011844379, -0.20625785, -292953.56, -47582.613, 0.0000010541644, 10.000114, 9.998815 
4.5000526e+1, 2.8496212e+2, -179379.42, -240869.92, 25530.98, 0.0723422, -0.061637968, -170160.92, -22792.959, 0.000008106713, 10.000092, 9.999269 
4.5002568e+1, 2.94964e+2, -45828.51, -140069.72, -7705.6494, 0.23788352, 0.15958218, -45202.613, 4146.7646, 0.000037622078, 10.000378, 9.999155 
4.5001915e+1, 3.0496004e+2, -13820.166, -168877.33, 9570.784, 0.12370781, -0.11215252, -13231.65, -13231.65, 0.00016443121, 10.000572, 9.998531 
4.5000222e+1, 3.149598e+2, 90517.234, 39146.563, 3083.354, -0.090586394, -0.03532183, 90701.64, 90701.64, 0.00047154687, 10.000525, 9.999987 
5.500222e+1, 1.24964826e+2, -1581988.5, -1592856.8, -64514.594, -0.007516403, -0.15780596, -1522679.6, 192665.25, 0.0021078985, 10.000575, 10.00053 
5.5003005e+1, 1.3496646e+2, -1524720.4, -1584944.6, 28627.945, -0.010348898, -0.028863555, -1513283.8, 104046.375, 0.0012334009, 10.0006695, 9.9998665 
5.5003434e+1, 1.4496753e+2, -1441108.6, -1478948.1, 10070.769, -0.049751032, 0.09339188, -1438595.3, 80725.766, 0.00052778376, 10.000458, 10.000025 
5.500389e+1, 1.549672e+2, -1373078.6, -1405043.9, 26314.816, -0.039269935, 0.01927808, -1358273.1, 63052.773, 0.00013278752, 10.0002985, 9.999944 
5.500417e+1, 1.6496709e+2, -1288905.3, -1303949.5, -4987.104, -0.036936283, 0.017298182, -1287402.1, 35922.906, 0.0000106646075, 10.000181, 10.000005 
5.500466e+1, 1.7496657e+2, -1171628.1, -1199742.4, -8558.649, -0.015276822, -0.07258178, -1169227.6, 56097.332, 0.000000007551507, 10.000324, 9.999977 
5.500451e+1, 1.8496639e+2, -1108699.0, -1128981.1, -32164.514, -0.039934758, -0.07908926, -1085114.8, 42209.6, 0.0, 10.000129, 9.999891 
5.5003566e+1, 1.9496645e+2, -1088654.5, -1078040.9, 19143.406, -0.123477384, -0.09325069, -1063482.4, -34157.73, 0.0, 9.999632, 9.999808 
5.5003303e+1, 2.0496681e+2, -958430.5, -946381.75, -8694.009, -0.10475282, -0.038751684, -941828.8, -10508.24, 0.0, 9.999786, 9.999961 
5.5003715e+1, 2.1496724e+2, -736927.94, -797689.0, -11434.504, 0.01344342, -0.023364166, -734847.4, 98467.63, 0.0, 10.000666, 9.9998865 
5.50036e+1, 2.2496678e+2, -705998.2, -840095.44, -26768.117, 0.06539737, -0.004403325, -700852.3, 34466.996, 0.0, 10.00068, 9.99891 
5.5003047e+1, 2.349652e+2, -747480.4, -823177.06, -30198.438, 0.055815417, -0.081692524, -736909.25, -99573.47, 0.0, 9.999775, 9.998796 
5.5002785e+1, 2.4496447e+2, -633776.6, -661444.06, -42827.54, 0.06009026, -0.05163502, -602604.0, -63260.04, 0.0, 9.999654, 9.999279 
5.5002916e+1, 2.5496432e+2, -464777.88, -536972.94, -31210.861, 0.083773136, -0.031859107, -453155.9, -11809.663, 0.0, 10.000165, 9.999214 
5.50019e+1, 2.6496378e+2, -315736.97, -383185.22, -68695.96, 0.045827925, -0.017490251, -272933.63, 70417.34, 0.000000016276152, 10.000378, 9.9995 
5.4999894e+1, 2.749627e+2, -278338.38, -329890.44, -29572.96, -0.052982513, -0.10460657, -264884.78, -19525.258, 0.00000094951764, 10.00001, 9.999387 
5.5000216e+1, 2.8496262e+2, -217992.42, -307695.9, 22015.84, -0.0066870665, -0.018209236, -212880.42, -65519.977, 0.0000068871877, 10.00004, 9.998828 
5.5002767e+1, 2.9496297e+2, -87024.49, -202369.7, 20232.441, 0.17152102, 0.09857126, -83578.516, -34219.7, 0.00003070153, 10.000271, 9.998778 
5.500245e+1, 3.049579e+2, -672.42804, -122683.52, -1198.1903, 0.08343375, -0.29069462, -660.66254, -660.66254, 0.00013855331, 10.0005045, 9.998883 
5.500128e+1, 3.1496105e+2, 41608.31, -26118.037, 45921.504, -0.115705915, 0.11087682, 64802.117, 64802.117, 0.0004144919, 10.000382, 9.999604 
6.500362e+1, 1.24966264e+2, -1458930.6, -1506800.5, 135517.72, 0.06453183, -0.12744506, -1345250.4, 370080.88, 0.0019834668, 10.001268, 10.000812 
6.5003234e+1, 1.3496679e+2, -1588031.0, -1597465.8, 115026.16, -0.010048832, -0.11783966, -1477625.5, 139698.11, 0.001149572, 10.000128, 10.000063 
6.50035e+1, 1.4496838e+2, -1579288.9, -1572097.1, 124886.07, -0.034059647, 0.056313973, -1450755.1, 68553.55, 0.00048384682, 9.99965, 9.999764 
6.5004736e+1, 1.5496817e+2, -1413908.1, -1450543.6, 75199.36, 0.03702481, 0.02181094, -1354827.8, 66486.45, 0.00011744106, 10.00016, 9.999678 
6.500533e+1, 1.6496775e+2, -1264042.5, -1343242.1, 72260.32, 0.05510592, 0.023676528, -1221242.8, 102075.305, 0.000008467286, 10.000565, 9.999556 
6.5005517e+1, 1.7496644e+2, -1150718.0, -1246030.4, 43186.402, 0.029795099, -0.09499778, -1134061.0, 91265.73, 0.000000004638606, 10.000708, 9.999483 
6.5005034e+1, 1.8496619e+2, -1020760.56, -1052624.5, 6023.3, -0.010420608, -0.09842335, -1019660.0, 107666.75, 0.0, 10.000594, 10.000186 
6.5003777e+1, 1.949668e+2, -991488.75, -998395.75, -24132.824, -0.08042015, -0.08735039, -970563.6, 58755.965, 0.0, 10.000162, 10.000099 
6.500366e+1, 2.0496702e+2, -938229.06, -979684.9, -10319.862, -0.052650902, -0.041494537, -935802.2, -4485.7993, 0.0, 10.000103, 9.9995775 
6.500466e+1, 2.1496667e+2, -821642.1, -879243.7, -39234.945, 0.07267772, -0.066599615, -801771.94, 31547.219, 0.0, 10.000263, 9.999514 
6.5004545e+1, 2.2496583e+2, -732007.8, -842318.75, -38271.76, 0.11462101, -0.07214217, -720030.2, 15296.971, 0.0, 10.0004425, 9.999014 
6.500335e+1, 2.349643e+2, -617526.56, -746783.9, -28281.787, 0.078943215, -0.1594739, -611609.3, 25733.014, 0.0, 10.000592, 9.998928 
6.5002894e+1, 2.4496377e+2, -514424.66, -629377.3, 26509.93, 0.07191895, -0.105645455, -508605.63, 30743.56, 0.0, 10.000567, 9.999081 
6.500326e+1, 2.5496402e+2, -450284.78, -554492.5, -4121.3223, 0.10503283, -0.019706473, -450122.06, -8772.346, 0.0, 10.000351, 9.999028 
6.500249e+1, 2.6496357e+2, -330299.72, -390154.9, -48460.273, 0.08126902, 0.015225336, -303270.7, 40083.594, 0.00000000394634, 10.000286, 9.9995 
6.5000635e+1, 2.749623e+2, -203718.95, -286782.22, -84718.25, 0.006666555, -0.09116444, -150899.88, 94463.63, 0.0000007712445, 10.000514, 9.999427 
6.5000516e+1, 2.849621e+2, -210337.64, -335994.8, -23767.984, 0.022741314, -0.0073729814, -205992.2, -58626.34, 0.000006042053, 10.000225, 9.9985485 
6.5002203e+1, 2.949624e+2, -234734.92, -289883.38, -44129.875, 0.14887536, 0.12999329, -210272.77, -160906.6, 0.000026519589, 9.999343, 9.998617 
6.500217e+1, 3.0495706e+2, -128547.6, -156444.88, 1822.5916, 0.0708129, -0.2957099, -128429.04, -128429.04, 0.00012024143, 9.999491, 9.999149 
6.5002793e+1, 3.1496072e+2, 35354.816, -32463.3, -23236.71, 0.020859577, 0.14533864, 42552.56, 42552.56, 0.00036921015, 10.000319, 9.999623 
7.500447e+1, 1.24971814e+2, -1470850.5, -1534303.6, 29704.389, -0.06963167, 0.07842598, -1459115.4, 256161.88, 0.0018629195, 10.001292, 10.000604 
7.5003266e+1, 1.3496982e+2, -1622674.3, -1675991.4, 78671.305, -0.067196324, -0.114699066, -1566267.5, 51024.637, 0.0010666472, 10.00016, 9.999506 
7.5003266e+1, 1.449706e+2, -1631364.1, -1667810.5, 125209.38, -0.07270505, 0.04065912, -1523058.8, -3774.8088, 0.0004391749, 9.999597, 9.999135 
7.500539e+1, 1.549699e+2, -1455680.4, -1546676.3, 112148.016, 0.038601883, 0.019100662, -1380152.5, 41142.19, 0.00010226521, 10.000187, 9.999013 
7.5006175e+1, 1.6496925e+2, -1298977.9, -1399775.3, 59711.836, 0.042140547, 0.049881954, -1271238.6, 52063.285, 0.000007138289, 10.000499, 9.999198 
7.5005704e+1, 1.7496787e+2, -1183203.1, -1304858.4, 62400.59, -0.06307986, -0.044095367, -1156888.1, 68425.35, 0.00000003688298, 10.000667, 9.999101 
7.500527e+1, 1.8496718e+2, -1061739.4, -1118062.5, -24752.313, -0.08395957, -0.049365625, -1052407.6, 74910.69, 0.0, 10.000503, 9.999786 
7.500494e+1, 1.9496717e+2, -1025552.75, -1056946.0, -25567.785, -0.019291652, -0.063077435, -1011247.8, 18068.85, 0.0, 10.000106, 9.999727 
7.500502e+1, 2.049667e+2, -981972.3, -1041437.06, -17375.953, 0.03826225, -0.051103886, -977267.25, -45947.35, 0.0, 9.99998, 9.999211 
7.5005364e+1, 2.1496545e+2, -866703.94, -943513.0, -18188.852, 0.07892544, -0.13152479, -862614.44, -29283.15, 0.0, 10.000132, 9.999138 
7.500473e+1, 2.249646e+2, -702210.5, -749709.75, -45778.043, 0.055920325, -0.15411237, -674388.1, 60950.19, 0.0, 10.000309, 9.999714 
7.5003207e+1, 2.3496394e+2, -591773.6, -658662.5, -5424.153, -0.031748094, -0.22502846, -591336.6, 46006.188, 0.0, 10.000435, 9.999613 
7.5002426e+1, 2.4496384e+2, -554376.06, -687648.3, 4724.916, -0.06373643, -0.14738171, -554208.75, -14863.525, 0.0, 10.000462, 9.998727 
7.50025e+1, 2.549639e+2, -498924.2, -622496.8, 3292.775, -0.04213837, -0.046151493, -498836.5, -57487.438, 0.0, 10.000202, 9.998633 
7.500212e+1, 2.6496282e+2, -389998.94, -486467.94, -53818.445, -0.017272426, -0.020885183, -365963.16, -22601.621, 0.00000000015133415, 10.000177, 9.998887 
7.500153e+1, 2.749606e+2, -269907.16, -390292.2, -57697.336, 0.0056112576, -0.16676283, -246720.28, -1337.4192, 0.00000065427645, 10.000372, 9.998783 
7.5001025e+1, 2.849606e+2, -215764.98, -340113.4, -70844.22, 0.0123509215, -0.025635641, -183681.38, -36297.176, 0.0000058927376, 10.000188, 9.998542 
7.500038e+1, 2.9496226e+2, -248151.02, -292960.94, -56425.492, -0.013049186, 0.24612695, -209845.03, -160473.3, 0.000025865007, 9.999219, 9.998666 
7.5000495e+1, 3.0495745e+2, -133508.53, -143778.05, 31107.809, -0.082171485, -0.13258474, -107114.55, -107114.55, 0.00011203884, 9.999407, 9.999265 
7.5003684e+1, 3.149586e+2, 43972.277, 30190.918, 31381.861, 0.0041316566, 0.039802328, 69211.07, 69211.07, 0.00034091447, 10.000133, 10.0001335 
8.500565e+1, 1.2497489e+2, -1747234.1, -1696391.1, -6893.9487, 0.026198799, 0.15766042, -1695472.9, 19774.459, 0.0017451695, 9.999532, 10.000327 
8.500442e+1, 1.3497162e+2, -1433540.3, -1641664.0, -19452.791, -0.02789205, -0.10753148, -1431737.6, 185537.23, 0.0009891815, 10.001722, 9.998977 
8.5004395e+1, 1.4497174e+2, -1236407.0, -1506384.0, 61669.633, -0.045659218, 0.01965952, -1222987.1, 296285.22, 0.000399723, 10.002408, 9.998901 
8.500674e+1, 1.5497054e+2, -1248448.6, -1474524.9, 44892.48, 0.08976778, -0.02625883, -1239860.5, 181426.0, 0.00008899464, 10.001725, 9.998772 
8.5007346e+1, 1.6496992e+2, -1189692.9, -1349547.0, 52117.98, 0.08183314, 0.021683112, -1174201.9, 149091.5, 0.000006071428, 10.001274, 9.999161 
8.5006326e+1, 1.7496905e+2, -1147501.0, -1286062.6, 45312.367, -0.06831137, -0.017579835, -1133998.8, 91302.54, 0.000000076650345, 10.000924, 9.999094 
8.500595e+1, 1.8496828e+2, -1047889.2, -1171464.3, -5595.7915, -0.07178087, -0.0049812454, -1047636.3, 79672.06, 0.0, 10.000845, 9.999261 
8.500634e+1, 1.9496766e+2, -946035.5, -1078652.8, -45186.52, 0.0808903, -0.024400273, -932102.9, 97211.266, 0.0, 10.0009, 9.999198 
8.500625e+1, 2.0496678e+2, -861825.9, -959008.06, 4321.946, 0.13640773, -0.036359098, -861634.06, 69686.984, 0.0, 10.000704, 9.99943 
8.500551e+1, 2.1496537e+2, -841114.1, -909282.2, 13869.616, 0.086254105, -0.15212324, -838400.25, -5068.165, 0.0, 10.000213, 9.999339 
8.500472e+1, 2.249648e+2, -727327.6, -768421.9, 21324.16, 0.038294796, -0.15144768, -718262.2, 17074.043, 0.0, 10.000186, 9.999634 
8.5003954e+1, 2.34965e+2, -576290.0, -655311.06, -28908.768, 0.0020603072, -0.12834835, -566843.4, 70490.99, 0.0, 10.000588, 9.999548 
8.500326e+1, 2.4496485e+2, -546263.06, -674561.6, -28982.762, -0.017139804, -0.053259786, -540019.7, -682.6861, 0.0, 10.000473, 9.998801 
8.500271e+1, 2.5496414e+2, -542634.4, -631309.4, -28135.8, -0.012564471, -0.03893332, -534460.56, -93114.17, 0.0, 9.999865, 9.99872 
8.5002303e+1, 2.6496282e+2, -433226.75, -540219.3, 10868.368, 0.0033525245, -0.03257438, -432133.9, -88773.164, 0.0000000019213902, 9.999978, 9.998631 
8.500232e+1, 2.7496073e+2, -255390.06, -413933.94, 3557.0608, 0.048325676, -0.14084406, -255310.3, -9928.746, 0.0000006294421, 10.000564, 9.998545 
8.5001636e+1, 2.849604e+2, -149104.14, -313104.22, 628.3283, 0.04180695, -0.021382235, -149101.73, -1715.3904, 0.0000062489003, 10.000664, 9.998497 
8.500014e+1, 2.9496133e+2, -52130.52, -203282.34, -18497.39, -0.012993291, 0.18390469, -49899.8, -519.82416, 0.000027811611, 10.0005865, 9.99862 
8.5000277e+1, 3.049574e+2, -22091.598, -110288.484, 101271.31, -0.07117634, -0.09494237, 44266.066, 44266.066, 0.00011222166, 10.0002365, 9.99911 
8.5003966e+1, 3.1495732e+2, -70285.62, 52240.88, 26107.512, 0.09531359, -0.035030756, 57571.832, 57571.832, 0.00032900518, 9.999018, 10.000811 
9.5006126e+1, 1.249757e+2, -1781715.6, -1756571.6, 20816.926, 0.035561536, 0.12483717, -1744824.9, -29585.164, 0.0016362383, 9.999485, 9.999932 
9.500605e+1, 1.3497218e+2, -1461935.0, -1724680.1, 76146.91, -0.08367654, -0.10721021, -1441461.9, 175810.27, 0.0009229167, 10.001814, 9.998364 
9.5006394e+1, 1.4497182e+2, -1227222.5, -1480807.6, 19788.137, -0.13403222, -0.009395915, -1225687.8, 293586.3, 0.00036888671, 10.002383, 9.999087 
9.5008296e+1, 1.5497023e+2, -1238585.1, -1455965.9, 37214.1, 0.029017188, -0.10968856, -1232390.9, 188897.56, 0.00007923838, 10.001729, 9.998897 
9.500846e+1, 1.6496988e+2, -1181273.3, -1318115.6, 25397.143, 0.027676841, -0.05314593, -1176711.8, 146579.4, 0.0000051224774, 10.001209, 9.999411 
9.500684e+1, 1.7497e+2, -1130076.1, -1248681.6, 49537.293, -0.15052444, -0.018381989, -1112108.1, 113181.57, 0.00000007826353, 10.000913, 9.999358 
9.500656e+1, 1.8496947e+2, -1107952.0, -1277105.5, -18298.094, -0.12989028, 0.03846002, -1105995.3, 21301.459, 0.0, 10.000759, 9.998576 
9.500754e+1, 1.9496827e+2, -1006331.8, -1185581.5, -27079.281, 0.071577966, 0.024161385, -1002330.3, 26981.793, 0.0, 10.000816, 9.998504 
9.5006907e+1, 2.0496735e+2, -831413.3, -867131.5, -28664.512, 0.09784382, 0.0072829593, -815499.6, 115819.836, 0.0, 10.000573, 10.000125 
9.50046e+1, 2.1496636e+2, -811389.9, -817513.3, 12185.44, -0.061160762, -0.13856049, -801887.4, 31435.018, 0.0, 10.000078, 10.000037 
9.500396e+1, 2.2496635e+2, -810565.06, -910210.56, 23853.932, -0.090712756, -0.07035722, -805149.1, -69827.2, 0.0, 10.000052, 9.998722 
9.5005065e+1, 2.3496719e+2, -659297.0, -801989.7, -436.02493, 0.018600691, 0.10720603, -659295.7, -21975.873, 0.0, 10.000466, 9.998603 
9.500492e+1, 2.4496669e+2, -525344.56, -605994.3, -66672.86, 0.06667344, 0.16569315, -487750.47, 51575.78, 0.0, 10.0003605, 9.999329 
9.5003474e+1, 2.549646e+2, -518440.0, -563049.6, -31544.264, 0.03849104, -0.015190976, -502111.34, -60767.688, 0.0, 9.99977, 9.999242 
9.5002604e+1, 2.6496327e+2, -436546.66, -520439.94, 18260.06, 0.0028932083, -0.04250448, -432744.53, -89389.89, 0.0000000017799018, 9.999881, 9.998804 
9.5002425e+1, 2.7496254e+2, -266176.94, -399853.1, 39066.652, -0.03409121, -0.029299412, -255597.13, -10236.11, 0.0000005677249, 10.000415, 9.998708 
9.500182e+1, 2.8496143e+2, -167044.66, -336868.53, -19073.063, -0.042458825, 0.011637427, -164928.89, -17556.832, 0.0000064583187, 10.000604, 9.998362 
9.5000917e+1, 2.9495957e+2, -90595.71, -252363.22, 3804.6736, -0.03846485, -0.057019394, -90506.27, -41114.64, 0.000029725905, 10.000447, 9.998351 
9.500103e+1, 3.0495685e+2, -52012.86, -156219.69, 50432.516, -0.053332347, -0.18143405, -31602.797, -31602.797, 0.0001135958, 10.00017, 9.998817 
9.500266e+1, 3.149571e+2, -40205.566, 148886.0, 39882.984, -0.01587468, -0.06666812, 156953.84, 156953.84, 0.00032168903, 9.998867, 10.001546 
1.050069e+2, 1.2497531e+2, -1552344.3, -1662613.3, 16890.623, 0.10465269, 0.075846076, -1549815.0, 165428.36, 0.0015480418, 10.001116, 9.999801 
1.0500822e+2, 1.3497242e+2, -1548760.3, -1775543.5, 51155.723, -0.0045931297, -0.07791594, -1537755.0, 79516.6, 0.00087241904, 10.001261, 9.998284 
1.0500893e+2, 1.449721e+2, -1376926.1, -1522828.0, -3274.265, -0.049891837, 0.013304178, -1376852.8, 142420.56, 0.0003471946, 10.001244, 9.999336 
1.0500983e+2, 1.5497065e+2, -1302636.8, -1471948.5, -18659.635, 0.048811194, -0.089548945, -1300604.6, 120680.2, 0.000073446034, 10.001224, 9.999034 
1.05009444e+2, 1.6497025e+2, -1217639.5, -1338754.6, -5543.71, 0.026905231, -0.043713097, -1217386.3, 105901.37, 0.000004420773, 10.000978, 9.999375 
1.0500792e+2, 1.7497024e+2, -1195834.6, -1288287.4, -35247.73, -0.103967644, -0.016816823, -1183929.4, 41358.516, 0.000000050630582, 10.000501, 9.999284 
1.0500755e+2, 1.8496968e+2, -1148875.5, -1273794.8, -34385.824, -0.080579095, 0.030435702, -1140035.9, -12740.831, 0.0, 10.000395, 9.998764 
1.0500825e+2, 1.9496852e+2, -1045431.2, -1180534.5, -13885.81, 0.08956453, 0.001826338, -1044018.75, -14709.56, 0.0, 10.000466, 9.998693 
1.0500753e+2, 2.0496784e+2, -827048.75, -890748.25, 6410.0615, 0.10571236, 0.010110994, -826410.06, 104904.72, 0.0, 10.000718, 9.999894 
1.0500541e+2, 2.1496731e+2, -692115.6, -782936.4, -54750.453, -0.023284897, -0.06536856, -666394.3, 166920.42, 0.0, 10.001001, 9.999827 
1.0500483e+2, 2.2496706e+2, -700086.1, -882228.56, -20901.31, -0.04205911, -0.0026639756, -697718.44, 37598.7, 0.0, 10.000907, 9.998522 
1.0500588e+2, 2.3496693e+2, -680216.94, -833969.6, -19121.596, 0.06541377, 0.103766106, -677874.56, -40551.188, 0.0, 10.000416, 9.998419 
1.0500566e+2, 2.4496594e+2, -533698.94, -621287.7, -55648.336, 0.11337524, 0.1293828, -506678.88, 32655.074, 0.0, 10.000356, 9.9992285 
1.05004296e+2, 2.5496382e+2, -393704.7, -510923.47, -97675.67, 0.106536254, -0.04277733, -338403.6, 102947.71, 0.0, 10.000679, 9.999157 
1.0500344e+2, 2.6496267e+2, -305656.28, -439672.94, -34176.32, 0.06613422, -0.055857185, -297444.0, 45916.17, 0.00000000014537505, 10.000725, 9.998944 
1.050033e+2, 2.7496234e+2, -235964.98, -369608.34, -46761.44, 0.013463659, -0.017023655, -221228.3, 24134.074, 0.00000042821608, 10.000577, 9.998829 
1.05002634e+2, 2.8496104e+2, -188068.38, -343040.38, -86605.875, -0.0040079337, -0.0010834174, -149344.83, -1970.3496, 0.0000059800022, 10.000424, 9.998415 
1.0500155e+2, 2.9495856e+2, -144575.89, -280234.28, -87897.07, 0.011409825, -0.13945146, -101379.43, -51979.938, 0.000029321069, 10.000074, 9.998346 
1.0500143e+2, 3.0495667e+2, -144772.77, -210897.88, -9618.0205, 0.012434727, -0.1756395, -143402.2, -143402.2, 0.000109980174, 9.999586, 9.99872 
1.05001815e+2, 3.149569e+2, -21594.174, 141877.34, -50486.88, 0.019636547, -0.060220104, 156212.7, 156212.7, 0.0003078243, 9.999062, 10.00141 
1.15006976e+2, 1.2497358e+2, -1538082.5, -1650659.4, -35651.547, -0.08915978, 0.0057730447, -1527742.0, 187517.72, 0.0014882531, 10.00118, 9.999857 
1.1501043e+2, 1.3497223e+2, -1515503.0, -1715848.8, 66555.98, 0.047910683, -0.029103428, -1495408.3, 121866.055, 0.000840427, 10.001295, 9.998677 
1.1501158e+2, 1.4497246e+2, -1371499.6, -1492455.6, -22649.738, 0.046180665, 0.080685884, -1367397.5, 151874.3, 0.00033535642, 10.001159, 9.999587 
1.1501062e+2, 1.549717e+2, -1286299.5, -1435346.1, 366.4707, -0.03786721, 0.024932038, -1286298.6, 134978.22, 0.0000716502, 10.001224, 9.99928 
1.1500977e+2, 1.6497102e+2, -1248277.0, -1395535.8, -37854.195, -0.07846662, 0.048613913, -1239116.1, 84166.734, 0.0000041980056, 10.000941, 9.999009 
1.1500919e+2, 1.7496973e+2, -1221919.1, -1337194.1, -37628.664, -0.06737761, -0.020732742, -1210723.5, 14572.829, 0.000000024917117, 10.000478, 9.998959 
1.1500861e+2, 1.849689e+2, -1099528.3, -1139349.4, -46648.93, -0.04780362, -0.03220621, -1068718.5, 58585.145, 0.0, 10.000262, 9.999753 
1.15007944e+2, 1.9496837e+2, -988076.44, -1041183.06, 3749.366, -0.029044898, -0.096254304, -987813.06, 41493.26, 0.0, 10.0003805, 9.999693 
1.15007594e+2, 2.0496821e+2, -930544.0, -1073780.6, 607.2694, 0.007822715, -0.02516421, -930541.4, 766.1362, 0.0, 10.000581, 9.998704 
1.15007475e+2, 2.149681e+2, -796764.8, -967248.7, -31676.62, 0.050427046, 0.058362164, -791069.44, 42241.16, 0.0, 10.000855, 9.998634 
1.1500691e+2, 2.2496684e+2, -686003.6, -816807.4, -54860.473, 0.0469304, 0.05530078, -666041.1, 69281.36, 0.0, 10.000756, 9.999039 
1.150059e+2, 2.3496419e+2, -664848.8, -767686.06, -21371.73, -0.0074530463, -0.14759146, -660584.2, -23238.584, 0.0, 10.00026, 9.998951 
1.1500511e+2, 2.449626e+2, -605737.75, -739474.94, -58108.04, -0.0108247595, -0.17028715, -584017.7, -44657.22, 0.0, 10.00023, 9.998475 
1.1500461e+2, 2.5496185e+2, -469303.9, -632257.9, -73075.71, 0.035825007, -0.12913348, -441334.28, 35.421288, 0.0, 10.000528, 9.998396 
1.1500437e+2, 2.649611e+2, -310179.63, -431656.75, -52427.223, 0.05467798, -0.0710058, -290682.38, 52695.094, 0.0, 10.000647, 9.9990425 
1.1500447e+2, 2.749601e+2, -247310.11, -365990.7, -31336.29, 0.036193065, -0.10522998, -239544.27, 5841.611, 0.0000002594802, 10.000448, 9.998925 
1.15003526e+2, 2.8495923e+2, -187378.8, -316660.28, -111635.016, 0.008123967, -0.06610865, -123020.305, 24373.9, 0.000005001763, 10.000329, 9.99864 
1.1500155e+2, 2.9495823e+2, -160050.45, -272077.34, -87675.266, -0.038362455, -0.066834725, -112023.25, -62618.973, 0.000026475647, 9.999908, 9.998484 
1.1500104e+2, 3.0495673e+2, -149203.8, -198555.81, -33488.24, -0.018584104, -0.07287967, -132282.11, -132282.11, 0.000100772006, 9.999512, 9.998836 
1.1500046e+2, 3.1495646e+2, -110367.82, -7137.8984, -6240.8687, -0.100624375, -0.030768923, -6761.969, -6761.969, 0.00028477798, 9.998918, 10.000454 
1.2500909e+2, 1.24973245e+2, -1458491.8, -1616836.6, 26484.633, -0.009524218, -0.0011927034, -1454179.4, 261082.88, 0.0014562852, 10.001755, 9.999805 
1.2501131e+2, 1.3497235e+2, -1625220.3, -1743168.6, 67469.4, 0.067894004, -0.013177501, -1594583.8, 22689.229, 0.0008261713, 10.00042, 9.998918 
1.2501219e+2, 1.4497253e+2, -1528105.9, -1536745.0, 57237.844, 0.067935444, 0.06636543, -1475024.9, 44246.004, 0.00033346904, 9.999949, 9.999863 
1.2501186e+2, 1.5497206e+2, -1335895.8, -1428402.0, 42101.246, -0.003105601, 0.008437165, -1319604.0, 101669.01, 0.00007407354, 10.000751, 9.999548 
1.2501113e+2, 1.6497141e+2, -1234146.4, -1394851.5, 17045.924, -0.03348757, 0.024516514, -1232358.3, 90920.15, 0.000004716059, 10.001046, 9.998976 
1.2501013e+2, 1.7497008e+2, -1193524.1, -1331035.8, 11290.816, -0.019828307, -0.042611174, -1192603.3, 32688.97, 0.000000012759114, 10.000678, 9.99892 
1.2500937e+2, 1.8496923e+2, -1041930.75, -1104669.5, 34349.594, -0.00377004, -0.055622898, -1026782.06, 100517.18, 0.0, 10.000623, 9.999813 
1.2500887e+2, 1.9496885e+2, -918662.2, -1003192.56, -16985.855, 0.014346637, -0.109493755, -915376.7, 113923.06, 0.0, 10.000833, 9.999738 
1.2500869e+2, 2.0496851e+2, -889480.5, -1100936.0, 4199.694, 0.044892155, -0.040560834, -889397.1, 41906.27, 0.0, 10.001065, 9.998281 
1.2500879e+2, 2.149679e+2, -774768.44, -1004215.56, -439.8605, 0.08763279, 0.038400136, -774767.56, 58545.223, 0.0, 10.001212, 9.998204 
1.2500803e+2, 2.2496642e+2, -633843.2, -757788.2, -3446.7131, 0.08182099, 0.018337682, -633747.44, 101579.12, 0.0, 10.000969, 9.9993305 
1.2500648e+2, 2.3496386e+2, -635389.06, -714487.1, -19021.236, 0.0332292, -0.2042361, -631052.7, 6293.4336, 0.0, 10.0003195, 9.999267 
1.2500566e+2, 2.4496256e+2, -589434.7, -736581.56, 32391.494, 0.025110647, -0.21569546, -582619.94, -43262.082, 0.0, 10.000368, 9.9984255 
1.2500574e+2, 2.5496218e+2, -383966.4, -599723.5, 40573.023, 0.07583143, -0.12728436, -376588.94, 64775.56, 0.0, 10.001144, 9.998327 
1.2500551e+2, 2.6496133e+2, -256416.78, -440787.1, 63787.836, 0.08686464, -0.06007532, -236499.34, 106875.09, 0.0, 10.001167, 9.998725 
1.2500508e+2, 2.749597e+2, -274293.16, -411091.34, 21259.574, 0.06555119, -0.12719919, -271065.4, -25675.205, 0.00000012209664, 10.000422, 9.998617 
1.2500389e+2, 2.8495887e+2, -179582.7, -309977.63, -25827.27, 0.019750396, -0.068296805, -174653.45, -27254.893, 0.000003888246, 10.000382, 9.998656 
1.2500209e+2, 2.9495877e+2, 12233.64, -178309.47, -50137.375, -0.019133158, 0.01567766, 24620.924, 74020.695, 0.00002250982, 10.001057, 9.998568 
1.2500153e+2, 3.04957e+2, 33380.523, -122582.56, -2867.62, 0.03208919, -0.020915696, 33433.234, 33433.234, 0.000088219014, 10.000769, 9.998781 
1.2500009e+2, 3.1495667e+2, -131287.81, -131699.03, -30745.271, -0.027618894, 0.023178628, -100747.47, -100747.47, 0.00025421134, 9.999265, 9.999436 
1.350123e+2, 1.2497409e+2, -1479674.8, -1650299.6, -84724.77, 0.05452671, 0.037906475, -1444752.0, 270501.03, 0.0014504807, 10.001709, 9.999598 
1.3501029e+2, 1.3497283e+2, -1605923.1, -1709930.8, 28253.758, -0.11819685, -0.032505102, -1598743.5, 18523.596, 0.0008289551, 10.000457, 9.999123 
1.3501029e+2, 1.4497252e+2, -1511241.1, -1509523.6, 66549.34, -0.16693076, -0.021927832, -1443827.5, 75441.56, 0.0003411424, 9.9999695, 10.000045 
1.350131e+2, 1.5497164e+2, -1327797.6, -1403235.1, 87576.35, 0.007375879, -0.13769397, -1270162.8, 151110.92, 0.00008049032, 10.000709, 9.999746 
1.3501301e+2, 1.6497138e+2, -1230733.4, -1354214.4, -14010.362, 0.017091269, -0.11064658, -1229163.6, 94110.805, 0.0000062176173, 10.000914, 9.999312 
1.350101e+2, 1.7497127e+2, -1181022.4, -1289471.9, 14835.9795, -0.12996304, -0.08666252, -1179029.5, 46246.195, 0.000000017143847, 10.000627, 9.999224 
1.3500921e+2, 1.8497086e+2, -1113285.4, -1240515.4, 28212.107, -0.120394744, -0.028692527, -1107310.3, 19970.053, 0.0, 10.000554, 9.998918 
1.3501044e+2, 1.9496998e+2, -991281.9, -1137943.8, 8611.368, 0.046459157, -0.045226555, -990778.0, 38511.563, 0.0, 10.000755, 9.99885 
1.3501033e+2, 2.0496869e+2, -884453.1, -1063583.5, -6673.2295, 0.07075461, -0.040460285, -884204.9, 47097.652, 0.0, 10.000944, 9.998599 
1.3500878e+2, 2.1496668e+2, -774719.56, -966706.1, 22567.121, -0.06874707, -0.13623802, -772102.56, 61219.203, 0.0, 10.001049, 9.998541 
1.3500772e+2, 2.2496586e+2, -651046.4, -764914.56, -43218.77, -0.080517896, -0.109097295, -636500.7, 98828.05, 0.0, 10.000834, 9.99935 
1.3500705e+2, 2.3496595e+2, -654061.25, -720885.8, -27823.508, 0.023122434, -0.071505, -643993.4, -6667.977, 0.0, 10.000171, 9.999295 
1.3500686e+2, 2.4496569e+2, -558937.56, -649898.06, 46883.37, 0.07549626, -0.012514437, -539099.3, 227.82997, 0.0, 10.000265, 9.999069 
1.3500719e+2, 2.549648e+2, -360873.34, -516736.94, 87059.18, 0.07212092, -0.041819863, -321960.53, 119375.71, 0.0, 10.000992, 9.998968 
1.3500643e+2, 2.649634e+2, -325487.28, -562649.7, 20089.414, 0.028066153, -0.023164492, -323797.6, 19554.076, 0.0, 10.001078, 9.997928 
1.3500455e+2, 2.7496102e+2, -350772.25, -533819.8, 8142.649, -0.06665048, -0.08584697, -350410.75, -105033.95, 0.000000046518082, 10.000271, 9.997842 
1.3500328e+2, 2.8495988e+2, -192997.19, -329288.72, -15269.266, -0.11499369, -0.015100987, -191307.45, -43918.39, 0.0000029362805, 10.000338, 9.998547 
1.3500267e+2, 2.949599e+2, -4455.8647, -189520.95, -6473.205, -0.110687286, 0.08857951, -4229.721, 45158.633, 0.000019015239, 10.000942, 9.99855 
1.3500236e+2, 3.0495733e+2, 9472.802, -147246.22, -69597.67, 0.009919406, -0.023796314, 35918.105, 35918.105, 0.000075927965, 10.000677, 9.998648 
1.349998e+2, 3.149574e+2, -236645.67, -313237.06, -13957.009, -0.059397478, 0.08820154, -234181.61, -234181.61, 0.0002226974, 9.999108, 9.998264 
1.4501345e+2, 1.2497404e+2, -1770336.4, -1785255.8, -89509.01, 0.120358236, 0.028532814, -1687976.8, 27278.324, 0.0014659849, 9.99971, 9.99963 
1.4501104e+2, 1.3497347e+2, -1568040.0, -1645614.5, -22859.572, -0.08112044, -0.0132408235, -1561805.0, 55456.586, 0.0008466132, 10.000535, 9.999513 
1.450109e+2, 1.4497359e+2, -1437302.1, -1482109.3, 62766.17, -0.11822162, 0.024330098, -1393061.0, 126198.04, 0.00035647568, 10.000504, 9.999983 
1.4501344e+2, 1.5497251e+2, -1474549.0, -1478931.0, 33838.39, 0.032749273, -0.10676876, -1442830.8, -21564.414, 0.00008921642, 9.999713, 9.999712 
1.4501362e+2, 1.6497211e+2, -1390444.8, -1409717.6, -34419.586, 0.056857903, -0.10060832, -1364338.1, -41070.14, 0.000008328298, 9.999734, 9.999495 
1.4501156e+2, 1.7497206e+2, -1176913.9, -1266523.9, -51253.387, -0.032424442, -0.08990795, -1153642.5, 71624.58, 0.0000000715251, 10.000566, 9.999408 
1.4501083e+2, 1.8497169e+2, -1091472.4, -1260169.8, -5913.6333, -0.02015422, -0.023440156, -1091265.4, 36006.043, 0.0, 10.000835, 9.998659 
1.4501132e+2, 1.9497076e+2, -1052184.3, -1200847.5, -11087.852, 0.08409205, -0.013666286, -1051361.9, -22078.799, 0.0, 10.000471, 9.998573 
1.4501113e+2, 2.0496944e+2, -893092.8, -1009344.2, 52114.414, 0.07878262, -0.024981929, -873151.2, 58144.59, 0.0, 10.000633, 9.999118 
1.4501013e+2, 2.1496747e+2, -711914.0, -879562.1, 61174.23, -0.038485005, -0.17047206, -691965.44, 141346.22, 0.0, 10.00124, 9.999045 
1.4500909e+2, 2.2496666e+2, -588220.25, -781926.2, -12595.332, -0.05113633, -0.14311585, -587404.75, 147913.36, 0.0, 10.001484, 9.99892 
1.4500798e+2, 2.3496677e+2, -506578.16, -704978.7, -67719.87, 0.04608609, -0.058543213, -485667.3, 151650.33, 0.0, 10.001415, 9.998817 
1.4500763e+2, 2.4496649e+2, -438237.56, -594170.3, 12301.633, 0.09181965, 0.026528701, -437273.06, 102047.805, 0.0, 10.00109, 9.999064 
1.4500803e+2, 2.5496566e+2, -426754.44, -547984.7, -27145.164, 0.089415774, 0.0024399026, -420953.8, 20375.658, 0.0, 10.000532, 9.998979 
1.4500733e+2, 2.649641e+2, -382779.44, -568889.7, -54959.34, 0.04362803, -0.00056117837, -367761.5, -24416.387, 0.0, 10.00059, 9.998123 
1.4500546e+2, 2.7496156e+2, -184238.95, -437199.84, -25339.742, -0.042421628, -0.10187536, -181725.58, 63645.008, 0.00000002138944, 10.001325, 9.9980135 
1.4500417e+2, 2.849603e+2, -82343.03, -301036.28, 10677.636, -0.09368138, -0.039338786, -81822.94, 65560.48, 0.0000023054517, 10.001202, 9.998323 
1.4500344e+2, 2.949604e+2, -110621.445, -251586.31, -28487.541, -0.08405888, 0.09609472, -105082.086, -55699.74, 0.000016570593, 10.000272, 9.998433 
1.4500284e+2, 3.0495688e+2, -34245.707, -138106.31, -55404.254, 0.024943925, -0.12483364, -10239.275, -10239.275, 0.0000664134, 10.000272, 9.99889 
1.4500076e+2, 3.1495765e+2, 36554.723, -165470.92, 4873.7534, 0.05314383, 0.041929502, 36672.23, 36672.23, 0.0001967113, 10.000934, 9.998391 
1.5501179e+2, 1.24973565e+2, -1743453.3, -1757001.5, -117479.3, -0.105491936, 0.011437418, -1632552.9, 82710.875, 0.0014879738, 9.999807, 9.999792 
1.5501301e+2, 1.3497432e+2, -1534710.8, -1578947.3, 15417.717, 0.024781544, 0.059979048, -1529867.5, 87388.22, 0.0008684092, 10.000539, 9.99998 
1.5501347e+2, 1.4497574e+2, -1457396.0, -1507792.8, 12604.548, 0.045022484, 0.2123226, -1454419.3, 64821.656, 0.00037251608, 10.0004425, 9.99983 
1.550123e+2, 1.5497474e+2, -1493213.5, -1502859.9, 20199.82, -0.096413, 0.10603969, -1477269.0, -56019.145, 0.00009664872, 9.999662, 9.999563 
1.5501249e+2, 1.649738e+2, -1400777.3, -1417076.0, -18165.75, -0.06728352, 0.06504508, -1389016.6, -65759.805, 0.000009881803, 9.999667, 9.999482 
1.5501417e+2, 1.749726e+2, -1189022.0, -1273098.1, -1760.2379, 0.13526992, -0.039055694, -1188985.1, 36279.902, 0.00000020107916, 10.000484, 9.999405 
1.5501374e+2, 1.8497178e+2, -1084705.9, -1222688.1, -35841.426, 0.15388332, -0.029827105, -1075951.4, 51320.74, 0.0, 10.000732, 9.998966 
1.5501104e+2, 1.9497116e+2, -1046766.2, -1163435.6, -7771.5215, -0.024135038, -0.021679021, -1046250.75, -16970.293, 0.0, 10.000368, 9.998876 
1.5501061e+2, 2.0497072e+2, -864205.4, -919177.06, 61143.547, -0.06905723, 0.0072115366, -824653.9, 106629.266, 0.0, 10.000498, 9.999807 
1.5501226e+2, 2.1497028e+2, -686759.94, -787202.2, 99293.164, 0.017043963, -0.05410316, -625709.8, 207571.98, 0.0, 10.00107, 9.99976 
1.5501168e+2, 2.2496887e+2, -678003.1, -940129.3, -31055.732, 0.0291949, -0.07222478, -674374.0, 60920.227, 0.0, 10.001355, 9.9979 
1.5500887e+2, 2.3496623e+2, -600732.0, -865963.8, -53347.59, -0.039913457, -0.16073042, -590404.06, 46919.266, 0.0, 10.00126, 9.997789 
1.5500748e+2, 2.4496494e+2, -497111.53, -691161.5, -24333.633, -0.06330349, -0.09668854, -494106.66, 45232.42, 0.0, 10.000981, 9.99845 
1.5500769e+2, 2.549647e+2, -494175.8, -653414.8, -30403.664, -0.03119135, 0.0001925226, -488568.28, -47223.824, 0.0, 10.000376, 9.998336 
1.5500769e+2, 2.6496357e+2, -314130.47, -404874.34, -41394.16, -0.012501548, 0.011398844, -298085.06, 45269.35, 0.0, 10.000501, 9.9992895 
1.5500739e+2, 2.749612e+2, -127954.02, -286931.56, 22230.105, -0.015897209, -0.18422373, -124904.06, 120467.82, 0.000000019825112, 10.001179, 9.999116 
1.5500605e+2, 2.8496006e+2, -117851.44, -361033.06, -36740.12, -0.060243305, -0.14602262, -112421.93, 34959.965, 0.0000019865888, 10.001139, 9.997943 
1.5500385e+2, 2.949601e+2, -149283.86, -305524.8, -43500.0, -0.11728651, 0.021045668, -137989.25, -88605.42, 0.000014949104, 10.000148, 9.998128 
1.5500249e+2, 3.049556e+2, -3401.883, -48095.535, -42722.766, -0.06816557, -0.31951392, 22465.555, 22465.555, 0.000059797247, 10.000186, 9.999533 
1.5500191e+2, 3.1495735e+2, 106732.07, 28799.809, 104087.45, 0.0037954298, -0.116752915, 178908.0, 178908.0, 0.00017773658, 10.000748, 9.999801 
1.6501266e+2, 1.249742e+2, -1667637.1, -1691092.8, -39966.133, -0.003018962, 0.069612704, -1637713.6, 77545.17, 0.0014964563, 10.000206, 10.000042 
1.6501364e+2, 1.3497397e+2, -1548980.1, -1567615.5, 26074.332, 0.056214854, -0.0050135055, -1530608.6, 86648.67, 0.0008776996, 10.000336, 10.000165 
1.6501403e+2, 1.4497563e+2, -1520478.1, -1538557.0, 17378.986, 0.0871303, 0.16397616, -1509928.3, 9311.332, 0.00037921302, 10.000038, 9.9998045 
1.650123e+2, 1.5497509e+2, -1488424.4, -1505551.8, -3652.2947, -0.05362015, 0.10609422, -1487678.1, -66432.41, 0.00009882513, 9.999722, 9.9995165 
1.6501279e+2, 1.6497421e+2, -1356157.8, -1393827.1, 48340.004, -0.007562972, 0.0742871, -1323112.8, 140.14777, 0.000009884257, 9.99995, 9.999505 
1.6501553e+2, 1.7497288e+2, -1162952.6, -1257806.3, 33896.438, 0.22568725, -0.048974253, -1152084.8, 73177.72, 0.0000002904704, 10.000636, 9.999437 
1.6501512e+2, 1.84972e+2, -1066470.5, -1189646.1, -9343.49, 0.22785641, -0.058072727, -1065765.9, 61503.855, 0.0, 10.00077, 9.999153 
1.6501151e+2, 1.9497135e+2, -1031055.0, -1132708.6, -19248.2, -0.0057982816, -0.07405182, -1027532.44, 1744.5255, 0.0, 10.00038, 9.9990635 
1.6501102e+2, 2.0497121e+2, -898889.2, -928288.25, 81294.21, -0.055551615, -0.028970124, -830976.25, 100300.77, 0.0, 10.000252, 9.999856 
1.6501363e+2, 2.149714e+2, -778971.1, -826739.06, 38247.355, 0.08843888, -0.029583158, -757762.94, 75508.055, 0.0, 10.000424, 9.999799 
1.6501349e+2, 2.2497013e+2, -749579.3, -965513.56, -49956.33, 0.109008014, -0.038013928, -738582.0, -3299.4792, 0.0, 10.00082, 9.997984 
1.6501047e+2, 2.349673e+2, -573444.0, -836992.0, -20623.1, -0.0012395228, -0.15615292, -571840.0, 65473.023, 0.0, 10.0013895, 9.99792 
1.6500884e+2, 2.449657e+2, -439097.38, -694085.3, 70451.73, -0.042378817, -0.11408052, -420926.8, 118405.016, 0.0, 10.001526, 9.998162 
1.6500874e+2, 2.5496513e+2, -381285.13, -622284.25, 55157.9, 0.0010558027, -0.022609102, -369260.94, 72079.95, 0.0, 10.001273, 9.998102 
1.6500868e+2, 2.6496404e+2, -247589.31, -369574.3, 69097.27, 0.0264312, 0.0014875686, -216416.11, 126934.88, 0.0, 10.000921, 9.999336 
1.6500875e+2, 2.7496207e+2, -220889.53, -316547.97, 16328.7705, 0.048300255, -0.16864674, -218179.03, 27186.37, 0.000000024295247, 10.000479, 9.999237 
1.6500765e+2, 2.8496104e+2, -203088.8, -391391.4, -35140.188, 0.027703593, -0.123192914, -196744.81, -49371.438, 0.0000019697127, 10.000505, 9.998044 
1.6500565e+2, 2.9496115e+2, 9212.253, -211971.88, -35967.9, 0.011069912, 0.0349788, 14914.188, 64288.438, 0.000013995548, 10.001148, 9.9983015 
1.6500305e+2, 3.0495632e+2, 137034.75, 26951.295, -202.62386, -0.060709227, -0.34960082, 137035.13, 137035.13, 0.000055183133, 10.00108, 9.9996395 
1.6500252e+2, 3.1495827e+2, 33219.543, 31978.82, 66230.81, 0.04402101, -0.13078383, 98832.9, 98832.9, 0.00016346599, 10.000034, 10.000182 
1.7501496e+2, 1.2497594e+2, -1646425.6, -1645501.5, -87500.12, 0.12460067, 0.1996805, -1558462.3, 156777.8, 0.0014785845, 10.000192, 10.000359 
1.7501225e+2, 1.3497259e+2, -1559477.1, -1572214.4, 38805.78, -0.15297455, -0.19565237, -1526520.9, 90744.06, 0.00086354057, 10.000281, 10.000144 
1.7501214e+2, 1.4497346e+2, -1526930.1, -1545575.0, -13126.015, -0.14851122, -0.10205964, -1520152.9, -899.80084, 0.00037008742, 9.999992, 9.999789 
1.7501298e+2, 1.5497348e+2, -1488092.5, -1499089.1, 2534.7622, 0.0013931284, -0.10740358, -1487536.3, -66282.14, 0.000094032526, 9.999694, 9.999576 
1.7501402e+2, 1.6497338e+2, -1353841.5, -1381582.4, 57746.75, 0.083869696, -0.06929999, -1308322.8, 14932.714, 0.000008393363, 9.999907, 9.999618 
1.7501518e+2, 1.7497297e+2, -1164078.8, -1245472.4, 75818.805, 0.08860537, -0.10919213, -1118724.9, 106533.805, 0.00000020811186, 10.000574, 9.999552 
1.7501456e+2, 1.8497244e+2, -1070380.0, -1180242.6, -37602.19, 0.057712086, -0.095657736, -1058742.8, 68520.08, 0.0, 10.000686, 9.999262 
1.7501216e+2, 1.9497152e+2, -1039660.44, -1121697.9, -18258.637, -0.0145493625, -0.1527383, -1035780.25, -6509.2954, 0.0, 10.0002575, 9.999197 
1.7501189e+2, 2.0497099e+2, -962718.1, -1033474.2, 69808.086, -0.024249677, -0.11685134, -919835.25, 11440.885, 0.0, 10.000124, 9.999198 
1.7501375e+2, 2.1497071e+2, -849346.75, -936883.06, 60763.1, 0.026905717, -0.10261691, -818229.6, 15050.864, 0.0, 10.00027, 9.999116 
1.7501393e+2, 2.249704e+2, -683169.7, -794349.6, -43389.934, 0.04175714, -0.04269294, -668240.7, 67042.836, 0.0, 10.000674, 9.9992285 
1.750123e+2, 2.349699e+2, -508396.38, -667586.9, 15770.976, 0.010057349, -0.051753942, -506849.0, 130438.42, 0.0, 10.001237, 9.999157 
1.7501123e+2, 2.449688e+2, -453505.9, -701425.4, 46189.43, 0.011291302, -0.023163078, -445180.03, 94118.8, 0.0, 10.001429, 9.998156 
1.7501068e+2, 2.549669e+2, -408062.44, -639480.7, 60371.8, 0.034242656, -0.0627018, -393259.66, 48059.73, 0.0, 10.00111, 9.998062 
1.7501004e+2, 2.6496544e+2, -320518.88, -512438.88, 35353.023, 0.035146404, -0.026149806, -314213.75, 29122.02, 0.0, 10.0008745, 9.99838 
1.7500913e+2, 2.7496403e+2, -302639.88, -462497.7, 13797.134, -0.000042225714, -0.04759789, -301457.8, -56106.086, 0.000000035492793, 10.000369, 9.998291 
1.750084e+2, 2.8496337e+2, -161381.77, -294247.0, -27764.8, 0.017166793, 0.046663955, -155813.16, -8455.734, 0.0000021240596, 10.000468, 9.998722 
1.7500812e+2, 2.9496363e+2, 35820.086, -123143.46, 7687.653, 0.10107229, 0.15011288, 36191.004, 85543.625, 0.000013429294, 10.001021, 9.998961 
1.7500407e+2, 3.0495912e+2, 110853.46, -26110.25, -46857.816, -0.099476054, -0.2177894, 125350.03, 125350.03, 0.000050919698, 10.001066, 9.999285 
1.7500159e+2, 3.1496102e+2, -27113.48, -55312.68, 86503.17, -0.12860498, 0.034267355, 46431.64, 46431.64, 0.00014908816, 9.999895, 9.999639 
1.8501613e+2, 1.2497636e+2, -1553872.1, -1589176.5, -8817.535, 0.20688142, 0.12194697, -1551792.5, 163438.63, 0.0014297328, 10.000783, 10.000453 
1.8501273e+2, 1.3497314e+2, -1553881.4, -1601548.1, 36227.7, -0.12944077, -0.22844577, -1534350.3, 82905.5, 0.00082590414, 10.0004635, 9.999846 
1.8501279e+2, 1.4497387e+2, -1482016.3, -1522483.8, 22951.559, -0.08783846, -0.13443287, -1471653.0, 47592.613, 0.00034715154, 10.000286, 9.999798 
1.8501386e+2, 1.5497337e+2, -1372712.9, -1438793.9, 6758.7397, 0.09268625, -0.19919552, -1372028.6, 49222.277, 0.0000844504, 10.000453, 9.999624 
1.8501465e+2, 1.649735e+2, -1297565.0, -1344901.3, 98437.63, 0.14492232, -0.14513578, -1219990.1, 103260.52, 0.000006352812, 10.0002985, 9.999658 
1.8501514e+2, 1.7497396e+2, -1255014.4, -1284376.6, 80219.18, 0.06751778, -0.10039088, -1188144.0, 37103.52, 0.000000056960435, 9.999953, 9.999571 
1.8501465e+2, 1.8497376e+2, -1123332.6, -1189838.1, -2947.3938, 0.029083356, -0.06351128, -1123202.3, 4047.078, 0.0, 10.000269, 9.999397 
1.8501316e+2, 1.949727e+2, -899983.0, -1038522.1, -14429.864, 0.021982497, -0.14592305, -898496.0, 130761.71, 0.0, 10.001159, 9.999338 
1.8501303e+2, 2.0497194e+2, -826205.1, -994710.25, 96575.38, 0.03444185, -0.13055271, -782296.44, 148969.25, 0.0, 10.0011635, 9.998968 
1.850142e+2, 2.1497127e+2, -868133.56, -972993.4, 90306.195, 0.05644685, -0.13003442, -816140.75, 17134.738, 0.0, 10.000237, 9.998892 
1.8501458e+2, 2.2497116e+2, -721513.0, -772120.56, 42949.45, 0.06778832, -0.059378896, -696967.6, 38309.465, 0.0, 10.000236, 9.999598 
1.8501402e+2, 2.349714e+2, -493351.38, -621992.2, 6496.5366, 0.07094429, -0.029327892, -493024.13, 144248.6, 0.0, 10.001168, 9.999509 
1.8501326e+2, 2.4497046e+2, -419271.94, -680363.2, 2064.7253, 0.06975809, -0.0026162683, -419255.63, 120026.02, 0.0, 10.001633, 9.998205 
1.8501231e+2, 2.5496814e+2, -330669.94, -596772.06, -7065.215, 0.07120932, -0.092709795, -330482.47, 110823.305, 0.0, 10.001598, 9.998125 
1.850111e+2, 2.649668e+2, -252913.64, -486532.44, 24335.242, 0.036875416, -0.044065688, -250405.66, 92916.15, 0.0, 10.001397, 9.998297 
1.8500954e+2, 2.7496606e+2, -189317.03, -417086.53, 35440.934, -0.026342746, 0.017939176, -183929.83, 61403.02, 0.000000044067633, 10.001198, 9.998206 
1.8500915e+2, 2.8496534e+2, -73747.79, -234677.42, 52362.12, 0.027925188, 0.09772682, -58210.633, 89128.875, 0.000002141611, 10.000975, 9.998897 
1.8501005e+2, 2.9496473e+2, -12257.525, -131556.97, 12269.637, 0.22116326, 0.102461316, -11008.698, 38332.05, 0.000012353572, 10.00061, 9.99911 
1.8500528e+2, 3.0496103e+2, 56845.2, -103228.77, -35587.29, -0.06342608, -0.16936982, 64400.305, 64400.305, 0.00004451732, 10.000903, 9.998835 
1.8500291e+2, 3.1496194e+2, 180452.92, -80551.97, 25012.807, -0.06534979, 0.029562637, 182828.34, 182828.34, 0.00012893318, 10.001794, 9.998584 
1.9501533e+2, 1.2497564e+2, -1581120.0, -1622123.5, -75373.35, -0.03474561, -0.13547757, -1523509.9, 191719.89, 0.0013506947, 10.000698, 10.000265 
1.9501469e+2, 1.3497564e+2, -1606335.3, -1693776.4, 32612.082, -0.018001769, -0.10207611, -1595511.9, 21718.234, 0.00077082973, 10.000414, 9.999232 
1.9501537e+2, 1.4497691e+2, -1483900.6, -1509789.4, 9936.684, 0.09672234, 0.07060896, -1480526.5, 38690.574, 0.0003170448, 10.000213, 9.999921 
1.9501446e+2, 1.5497497e+2, -1371039.6, -1422096.8, 26352.768, 0.06857544, -0.15325369, -1359877.9, 61356.055, 0.000073711046, 10.000402, 9.99976 
1.9501424e+2, 1.6497476e+2, -1309995.8, -1360354.3, 71918.375, 0.037786376, -0.13421601, -1258976.3, 64260.242, 0.0000047225935, 10.000239, 9.99959 
1.9501498e+2, 1.7497593e+2, -1267976.1, -1296077.0, 85674.14, 0.019475443, -0.013370401, -1195207.9, 30020.438, 0.0000000036456946, 9.999884, 9.999529 
1.9501498e+2, 1.8497598e+2, -1128070.6, -1177584.0, 14901.528, 0.0015313706, 0.04597625, -1123931.9, 3296.8071, 0.0, 10.000169, 9.9995365 
1.9501406e+2, 1.9497481e+2, -907981.8, -1029442.94, 34777.25, -0.0354139, -0.0601685, -898729.06, 130509.1, 0.0, 10.001044, 9.99946 
1.9501391e+2, 2.0497398e+2, -835649.7, -972933.7, 49106.234, -0.02277557, -0.06870783, -819892.94, 111353.016, 0.0, 10.000992, 9.999195 
1.9501457e+2, 2.1497318e+2, -876126.56, -949946.94, 70483.89, 0.036601692, -0.10429415, -833473.3, -218.00833, 0.0, 10.00007, 9.999128 
1.9501498e+2, 2.2497252e+2, -784676.5, -862867.56, 61675.61, 0.058568027, -0.07270658, -750749.1, -15486.901, 0.0, 10.000071, 9.99905 
1.9501515e+2, 2.3497185e+2, -558143.75, -711304.56, 56110.813, 0.036716443, -0.07963734, -539787.44, 97481.1, 0.0, 10.000983, 9.99898 
1.9501457e+2, 2.4497072e+2, -427978.75, -667422.1, -13396.227, 0.007103018, -0.053247917, -427231.63, 112048.55, 0.0, 10.0015, 9.998358 
1.9501314e+2, 2.5496894e+2, -345414.94, -585758.06, 6659.7563, -0.04009638, -0.10557877, -345230.56, 96068.41, 0.0, 10.001424, 9.998283 
1.9501144e+2, 2.6496828e+2, -209910.56, -385028.6, 2091.559, -0.10255804, -0.033930637, -209885.58, 133421.45, 0.0, 10.001335, 9.999031 
1.9500953e+2, 2.7496824e+2, -154086.14, -325190.56, 47624.867, -0.18061902, 0.02763703, -141723.55, 103585.2, 0.000000036761158, 10.001105, 9.998892 
1.9500946e+2, 2.8496683e+2, -111225.195, -296150.03, 26647.945, -0.072623104, 0.025779318, -107461.77, 39859.113, 0.0000018181237, 10.000909, 9.998504 
1.95011e+2, 2.9496458e+2, -65116.79, -201797.42, 17791.951, 0.21379256, -0.097141385, -62838.75, -13500.406, 0.000010151812, 10.000452, 9.998699 
1.9500625e+2, 3.0496213e+2, 14311.869, -174387.52, -13515.289, -0.09053114, -0.19654688, 15274.965, 15274.965, 0.00003534469, 10.000846, 9.9983635 
1.9500563e+2, 3.1496146e+2, 68577.78, -267557.22, 68602.625, -0.044697914, -0.114643835, 82039.91, 82039.91, 0.000103030594, 10.001636, 9.9973545 
2.050163e+2, 1.2497654e+2, -1655689.1, -1667590.3, -13488.01, 0.034898467, -0.25841865, -1646897.4, 68316.8, 0.0012481128, 10.000238, 10.000179 
2.0501533e+2, 1.3497727e+2, -1565677.4, -1715798.9, 57139.4, 0.0010535208, -0.11799226, -1546403.5, 70806.625, 0.0007037624, 10.0008545, 9.99889 
2.0501634e+2, 1.449781e+2, -1395255.6, -1464724.0, 73980.38, 0.15401557, 0.031316347, -1348261.3, 170941.13, 0.00028324383, 10.000824, 9.999938 
2.0501502e+2, 1.5497646e+2, -1360473.0, -1414946.9, 38393.023, 0.09092963, -0.16016774, -1340636.9, 80579.375, 0.000063005726, 10.000475, 9.999776 
2.0501462e+2, 1.649761e+2, -1291421.5, -1367995.8, 106427.05, 0.05255574, -0.15000123, -1216604.1, 106615.984, 0.0000035155435, 10.000434, 9.99945 
2.0501547e+2, 1.749766e+2, -1180840.8, -1275290.6, 79952.5, 0.055004027, -0.07738828, -1135207.8, 90010.88, 0.0000000004928599, 10.000563, 9.999355 
2.0501547e+2, 1.849766e+2, -1089598.0, -1160857.6, 46115.895, 0.029437747, -0.015474237, -1066951.3, 60268.78, 0.0, 10.000432, 9.999519 
2.0501447e+2, 1.94976e+2, -1053006.5, -1102837.1, 23268.715, -0.038765803, -0.06386166, -1043830.7, -14605.553, 0.0, 10.000051, 9.999432 
2.050145e+2, 2.049754e+2, -955870.94, -1040349.1, 39146.13, -0.0152419405, -0.04547633, -940520.44, -9289.2295, 0.0, 10.000203, 9.999114 
2.0501572e+2, 2.1497451e+2, -774279.2, -909519.44, 10320.333, 0.1161352, -0.08109807, -773496.1, 59745.016, 0.0, 10.000809, 9.999049 
2.0501627e+2, 2.2497365e+2, -657213.7, -819122.5, 54477.42, 0.13944168, -0.05772901, -640590.4, 94660.305, 0.0, 10.001017, 9.998891 
2.0501617e+2, 2.3497261e+2, -596629.3, -750457.3, 47853.555, 0.057529476, -0.08629181, -582957.9, 54304.285, 0.0, 10.000796, 9.998802 
2.0501551e+2, 2.4497159e+2, -515006.88, -646996.9, 18472.637, 0.00269484, -0.06884233, -512470.28, 26802.135, 0.0, 10.000645, 9.998903 
2.0501424e+2, 2.549704e+2, -426713.56, -563315.2, 36072.984, -0.022145558, -0.114780724, -417772.8, 23510.305, 0.0, 10.000615, 9.998821 
2.0501263e+2, 2.6496992e+2, -313364.53, -424038.56, 48554.063, -0.06937454, -0.05624266, -295083.06, 48204.81, 0.0, 10.000572, 9.999131 
2.0501079e+2, 2.749696e+2, -237661.27, -351234.03, 13221.631, -0.12482337, -0.03371825, -236142.38, 9149.172, 0.00000002096579, 10.000475, 9.999009 
2.0501062e+2, 2.84968e+2, -142856.53, -339730.75, 26355.99, -0.033160962, -0.04799987, -139389.27, 7917.236, 0.0000012828043, 10.000823, 9.998246 
2.0501181e+2, 2.9496577e+2, 99909.984, -152840.4, -1191.37, 0.20018844, -0.14483745, 99915.6, 149241.77, 0.000007381431, 10.001711, 9.998435 
2.050072e+2, 3.0496436e+2, 168894.78, -59266.984, 26339.752, -0.11012141, -0.14493886, 171896.05, 171896.05, 0.00002618385, 10.001734, 9.99874 
2.0500827e+2, 3.1496355e+2, -72322.4, -313905.66, 61506.594, 0.123955175, -0.11343242, -57564.48, -57564.48, 0.000078949044, 10.000604, 9.997529 
2.150179e+2, 1.2497906e+2, -1665385.0, -1673038.9, -41363.668, 0.09525483, -0.24356817, -1627671.6, 87512.58, 0.0011286415, 10.000167, 10.00018 
2.1501434e+2, 1.3497807e+2, -1560454.0, -1714751.4, 93623.69, -0.22246817, -0.27443272, -1516287.8, 100907.125, 0.00062779407, 10.00089, 9.99888 
2.1501525e+2, 1.4497764e+2, -1418233.4, -1502755.5, 41332.53, -0.08247191, -0.2384194, -1401381.3, 117818.414, 0.00024660726, 10.000776, 9.9997 
2.1501507e+2, 1.5497798e+2, -1373518.5, -1446404.4, 42367.2, 0.008875822, -0.21325292, -1354077.0, 67119.47, 0.000052325075, 10.000483, 9.999557 
2.1501529e+2, 1.6497752e+2, -1323583.4, -1416342.0, 95759.93, 0.04339233, -0.187568, -1263562.5, 59639.305, 0.000002586899, 10.000355, 9.999153 
2.150161e+2, 1.749759e+2, -1212836.6, -1320156.9, 101994.97, 0.02756624, -0.30176905, -1151247.5, 73971.41, 0.000000000052014764, 10.000476, 9.999082 
2.1501562e+2, 1.8497555e+2, -1121113.5, -1198803.4, 18416.008, -0.03184606, -0.25155875, -1116969.1, 10254.838, 0.0, 10.000307, 9.999321 
2.1501394e+2, 1.9497621e+2, -1074970.0, -1131915.0, 26178.738, -0.13555674, -0.1581297, -1064764.1, -35545.04, 0.0, 9.999971, 9.99927 
2.150144e+2, 2.0497617e+2, -997512.56, -1098864.4, 46884.78, -0.07711248, -0.05939004, -979150.56, -47928.86, 0.0, 10.000083, 9.99877 
2.1501715e+2, 2.1497516e+2, -820005.6, -968337.75, 46142.46, 0.14599405, -0.07275149, -806823.4, 26410.764, 0.0, 10.000652, 9.998719 
2.150179e+2, 2.2497444e+2, -669982.06, -799804.5, 31748.523, 0.17315325, -0.031148748, -662633.75, 72609.95, 0.0, 10.000827, 9.99911 
2.150166e+2, 2.3497377e+2, -610135.4, -729663.94, 56785.273, -0.009275868, -0.046685155, -587459.75, 49793.043, 0.0, 10.000591, 9.999038 
2.1501568e+2, 2.4497317e+2, -470660.06, -530378.9, 2429.044, -0.07494369, -0.039573733, -470561.4, 68695.836, 0.0, 10.000537, 9.999759 
2.1501519e+2, 2.5497255e+2, -387129.22, -445775.72, 51248.566, -0.024708292, -0.114359364, -357407.84, 83850.2, 0.0, 10.000464, 9.999701 
2.1501423e+2, 2.649717e+2, -364515.88, -508376.34, 28909.217, 0.000029321616, -0.10832138, -358923.84, -15659.307, 0.0, 10.000478, 9.998593 
2.1501277e+2, 2.7497008e+2, -298880.22, -442993.75, 25785.143, -0.008752409, -0.16497701, -294405.63, -49123.33, 0.00000000626477, 10.000322, 9.99845 
2.1501215e+2, 2.849688e+2, -149465.28, -340793.44, 43583.47, 0.0025201582, -0.123999715, -140004.98, 7292.3994, 0.00000075455597, 10.000772, 9.998262 
2.1501218e+2, 2.9496837e+2, 79594.36, -172355.55, 49490.438, 0.024052184, -0.035692517, 88967.08, 138270.86, 0.0000049684672, 10.001617, 9.998346 
2.1500783e+2, 3.0496773e+2, 242400.36, 93897.03, -25907.031, -0.2524306, -0.0019401025, 246790.19, 246790.19, 0.000019575336, 10.001726, 9.999801 
2.1501008e+2, 3.149681e+2, 1465.7208, -134859.27, 12651.334, 0.17109388, 0.034095768, 2629.8584, 2629.8584, 0.00006230811, 10.000493, 9.998817 
2.2501893e+2, 1.249809e+2, -1678975.3, -1669992.9, -59900.88, 0.20779625, -0.17956911, -1614415.0, 100751.836, 0.0009987325, 10.000008, 10.00028 
2.2501439e+2, 1.3497943e+2, -1657846.9, -1722762.0, 16768.707, -0.25147727, -0.29532295, -1653771.1, -36591.016, 0.0005469882, 10.000065, 9.999211 
2.2501563e+2, 1.4497836e+2, -1524263.4, -1590505.9, 5659.2124, -0.0842497, -0.32528025, -1523783.4, -4592.106, 0.00020906689, 10.000205, 9.999381 
2.2501576e+2, 1.5497936e+2, -1377156.4, -1486530.1, -33370.324, 0.031512134, -0.19651514, -1367779.0, 53404.527, 0.000042237294, 10.000627, 9.999218 
2.2501594e+2, 1.6497913e+2, -1287380.9, -1389264.6, 52083.625, 0.0702069, -0.13629483, -1265468.3, 57718.703, 0.0000020119714, 10.000572, 9.999218 
2.250163e+2, 1.7497718e+2, -1277873.1, -1344944.4, 47394.113, 0.03196537, -0.29168972, -1253349.8, -28143.824, 0.0, 10.000012, 9.99912 
2.2501607e+2, 1.8497646e+2, -1136725.3, -1218720.1, 27315.389, -0.007096091, -0.27554542, -1128458.9, -1245.0641, 0.0, 10.000253, 9.999215 
2.250153e+2, 1.949768e+2, -911471.7, -1064836.5, 7499.608, -0.046140816, -0.20036334, -911105.9, 118105.83, 0.0, 10.00116, 9.999163 
2.2501583e+2, 2.049766e+2, -807435.9, -992708.4, 63992.645, 0.003570127, -0.116124734, -787482.0, 143732.84, 0.0, 10.001317, 9.998919 
2.2501768e+2, 2.1497555e+2, -817911.1, -954810.44, 73274.89, 0.14583844, -0.14587535, -786088.3, 47138.098, 0.0, 10.0006, 9.998852 
2.2501816e+2, 2.2497508e+2, -756003.94, -828640.25, 97294.555, 0.15798521, -0.09250815, -688470.1, 46763.47, 0.0, 10.00017, 9.999235 
2.2501731e+2, 2.3497497e+2, -690486.4, -753286.75, 81764.37, 0.042264022, -0.06635, -634300.1, 2938.4023, 0.0, 9.999976, 9.999174 
2.2501679e+2, 2.4497475e+2, -510528.78, -529200.2, 46081.2, 0.00793453, -0.037917204, -472847.13, 66392.51, 0.0, 10.000167, 9.999949 
2.2501653e+2, 2.5497422e+2, -328386.5, -402385.84, 12784.235, 0.059673693, -0.12143827, -326240.13, 114998.98, 0.0, 10.000778, 9.99986 
2.2501563e+2, 2.6497313e+2, -292117.47, -481596.47, 1333.6451, 0.07238976, -0.1413536, -292108.1, 51139.35, 0.0, 10.001015, 9.998515 
2.2501406e+2, 2.7497116e+2, -202895.75, -404208.47, 1487.0203, 0.06146894, -0.23081154, -202884.77, 42383.973, 0.00000000006385136, 10.00101, 9.998384 
2.2501332e+2, 2.849701e+2, -127042.734, -307060.1, 87225.836, 0.049657296, -0.17085433, -91712.24, 55569.37, 0.00000032397858, 10.000825, 9.998467 
2.250131e+2, 2.949705e+2, -88560.5, -235134.16, 73911.82, 0.028272906, -0.020814111, -57761.227, -8480.118, 0.000003287384, 10.000396, 9.998492 
2.2500919e+2, 3.049692e+2, 127959.164, 44904.59, 4961.4307, -0.23330888, -0.06781962, 128254.5, 128254.5, 0.00001601569, 10.000913, 9.999847 
2.2501153e+2, 3.1497043e+2, 259917.58, 10843.141, -128377.71, 0.20065768, 0.041365944, 314238.84, 314238.84, 0.000054019332, 10.002161, 9.999014 
2.3501866e+2, 1.2498202e+2, -1675437.0, -1653794.5, -87452.625, 0.098968424, -0.08249586, -1576496.1, 138666.36, 0.0008678289, 9.999979, 10.000408 
2.3501498e+2, 1.3498124e+2, -1610539.6, -1635766.4, 22479.428, -0.23732705, -0.17711666, -1597376.6, 19790.574, 0.00046623294, 10.000096, 9.999805 
2.3501685e+2, 1.4498004e+2, -1564751.1, -1641652.9, 3163.6458, -0.01948802, -0.23826185, -1564621.1, -45441.855, 0.00017258529, 10.000075, 9.999093 
2.3501658e+2, 1.5498057e+2, -1407052.1, -1538595.9, 1453.3522, 0.013395192, -0.11909973, -1407036.1, 14141.367, 0.000033446406, 10.000587, 9.998882 
2.3501611e+2, 1.6498078e+2, -1280951.5, -1351722.0, 14355.97, -0.0064013815, -0.010538359, -1278150.3, 45026.54, 0.0000017722703, 10.000472, 9.999526 
2.3501572e+2, 1.7498022e+2, -1259832.3, -1295435.1, 41472.727, -0.06528776, -0.061078805, -1232501.9, -7320.2227, 0.0000000001389195, 9.999955, 9.999493 
2.3501638e+2, 1.8497923e+2, -1161735.5, -1240306.0, 46181.047, -0.03380204, -0.08613901, -1140390.6, -13200.467, 0.0, 10.000128, 9.999127 
2.3501806e+2, 1.9497766e+2, -931289.9, -1086470.9, 55078.08, 0.081281304, -0.19114472, -913728.5, 115475.13, 0.0, 10.001073, 9.999059 
2.3501821e+2, 2.0497659e+2, -787115.2, -906534.5, 22524.977, 0.0843927, -0.22317797, -783007.8, 148204.1, 0.0, 10.001135, 9.999594 
2.3501685e+2, 2.1497566e+2, -796865.25, -867973.0, 64358.074, -0.027652623, -0.3102524, -758893.3, 74325.055, 0.0, 10.000414, 9.999536 
2.3501669e+2, 2.249756e+2, -785060.6, -845942.44, 77814.48, -0.034186274, -0.24892513, -731944.75, 3275.4082, 0.0, 9.99999, 9.999204 
2.3501784e+2, 2.3497619e+2, -715031.5, -769714.56, 91211.09, 0.06314878, -0.14413634, -647152.1, -9933.019, 0.0, 9.999825, 9.999138 
2.3501822e+2, 2.4497616e+2, -559066.94, -604930.9, 53927.523, 0.10048732, -0.07107192, -523398.13, 15822.576, 0.0, 10.000056, 9.999483 
2.350178e+2, 2.5497535e+2, -384883.16, -479242.6, 51153.91, 0.07300957, -0.13920186, -362473.75, 78753.125, 0.0, 10.000605, 9.999414 
2.3501639e+2, 2.6497433e+2, -280307.75, -433977.3, -14397.445, 0.015586579, -0.15003291, -278970.47, 64265.2, 0.0, 10.000918, 9.998891 
2.3501419e+2, 2.7497274e+2, -195632.03, -358315.6, 19845.002, -0.061410952, -0.23063165, -193246.23, 52004.62, 0.0, 10.0008745, 9.99877 
2.3501356e+2, 2.8497204e+2, -106163.586, -249671.89, 57638.496, -0.043045364, -0.17932121, -85880.49, 61377.992, 0.00000009734078, 10.000765, 9.99889 
2.3501408e+2, 2.949722e+2, -79945.42, -192306.42, 75801.56, 0.039290134, -0.0937702, -41774.848, 7483.39, 0.0000024854203, 10.0002775, 9.998851 
2.3501077e+2, 3.0496866e+2, 69775.85, -66457.74, 43816.273, -0.20119531, -0.3390409, 82651.42, 82651.42, 0.000014818684, 10.000877, 9.9991 
2.350118e+2, 3.1497103e+2, 192454.75, -108384.125, -72622.71, -0.06342199, -0.042178817, 209068.45, 209068.45, 0.00005156838, 10.002064, 9.998249 
2.450181e+2, 1.2498238e+2, -1678787.4, -1675808.1, 21915.756, 0.05607029, -0.11142845, -1655331.5, 59828.29, 0.00074233726, 10.000079, 10.000197 
2.4501587e+2, 1.3498297e+2, -1604799.9, -1622056.4, 9664.439, -0.1429759, -0.07665833, -1600472.5, 16679.69, 0.00038816038, 10.000113, 9.9998865 
2.450184e+2, 1.4498198e+2, -1525836.3, -1604671.3, 45926.13, 0.13095069, -0.12863004, -1504731.5, 14430.367, 0.00013769997, 10.000249, 9.999258 
2.450172e+2, 1.5498154e+2, -1377319.8, -1506216.0, 45479.277, 0.020732017, -0.1289463, -1362888.8, 58279.363, 0.000025817635, 10.000727, 9.999025 
2.4501635e+2, 1.6498145e+2, -1254523.4, -1362677.6, 54213.01, -0.0330377, -0.044713255, -1232027.8, 91142.22, 0.0000016011192, 10.000735, 9.999347 
2.4501637e+2, 1.7498142e+2, -1250095.9, -1310032.0, 12295.117, 0.0090976255, -0.023166036, -1247671.8, -22500.656, 0.0000000006420841, 10.0001, 9.999337 
2.450174e+2, 1.8498051e+2, -1168123.4, -1221491.6, 84995.445, 0.07094687, -0.03971719, -1105721.8, 21456.545, 0.0, 10.000002, 9.999309 
2.4501935e+2, 1.9497856e+2, -1023992.94, -1110188.3, 85997.9, 0.14600118, -0.20357458, -970897.8, 58296.047, 0.0, 10.000362, 9.999226 
2.4501917e+2, 2.0497748e+2, -884265.75, -958505.56, 21753.102, 0.10800395, -0.24144962, -878361.44, 52840.535, 0.0, 10.000494, 9.999537 
2.450171e+2, 2.1497706e+2, -827732.7, -886060.8, -25713.947, -0.02525129, -0.2739778, -818015.5, 15189.462, 0.0, 10.000232, 9.999488 
2.4501671e+2, 2.2497684e+2, -743459.75, -827039.3, 9659.524, -0.038719635, -0.22432627, -742357.9, -7150.1675, 0.0, 10.000285, 9.999188 
2.450181e+2, 2.3497662e+2, -599550.5, -712364.1, -372.1671, 0.07602294, -0.19917811, -599549.25, 37662.86, 0.0, 10.000625, 9.999141 
2.4501877e+2, 2.4497633e+2, -504733.3, -617720.5, 89.182365, 0.13147025, -0.13653518, -504733.22, 34483.66, 0.0, 10.000592, 9.999146 
2.450187e+2, 2.5497577e+2, -473562.63, -557446.25, -23426.053, 0.13478181, -0.14584173, -467463.88, -26239.953, 0.0, 10.000155, 9.999097 
2.4501729e+2, 2.649751e+2, -377525.66, -430458.13, -52361.78, 0.06617239, -0.12956305, -345321.47, -2091.1694, 0.0, 10.000017, 9.999357 
2.4501471e+2, 2.749741e+2, -261353.75, -333478.13, -42099.57, -0.05082693, -0.20012626, -241982.6, 3255.599, 0.0, 10.000182, 9.999273 
2.4501401e+2, 2.8497365e+2, -161672.44, -277013.47, 14459.321, -0.046382573, -0.14501694, -159887.42, -12645.472, 0.00000009803459, 10.000376, 9.9989 
2.4501464e+2, 2.9497352e+2, -27608.03, -162718.73, -29586.732, 0.060499176, -0.09339768, -21413.125, 27831.033, 0.0000023443192, 10.000613, 9.998897 
2.4501227e+2, 3.0496946e+2, 102567.19, -69147.35, 27584.873, -0.14131185, -0.3845202, 106889.71, 106889.71, 0.000014153015, 10.001189, 9.998931 
2.4501371e+2, 3.1497195e+2, 146915.45, -125371.82, -131143.33, -0.0453233, -0.057708554, 199805.31, 199805.31, 0.00004937861, 10.001773, 9.998256 
2.5501612e+2, 1.24982e+2, -1727988.5, -1765881.1, 8789.919, -0.22682992, -0.2671015, -1726048.9, -10890.805, 0.00062344765, 10.000027, 9.999608 
2.5501674e+2, 1.3498443e+2, -1623976.0, -1661573.6, 21487.473, -0.10341244, -0.014076497, -1614224.8, 2911.9373, 0.0003143659, 10.000114, 9.999616 
2.5502e+2, 1.4498407e+2, -1500033.1, -1529629.4, 42539.574, 0.22165415, -0.017455433, -1469791.3, 49348.92, 0.00010539114, 10.000163, 9.999808 
2.5501698e+2, 1.5498209e+2, -1344245.9, -1424068.0, 78077.58, -0.11267007, -0.22936177, -1296470.0, 124686.805, 0.000019009012, 10.000673, 9.999609 
2.5501615e+2, 1.6498111e+2, -1311478.3, -1457033.6, 13840.914, -0.15812801, -0.23736155, -1310173.9, 12993.112, 0.0000013062046, 10.000635, 9.998745 
2.550178e+2, 1.7498086e+2, -1302145.3, -1404022.5, 6838.663, 0.10536873, -0.1717971, -1301688.3, -76515.164, 0.000000000635992, 10.000042, 9.998717 
2.5501865e+2, 1.8498039e+2, -1152189.4, -1165266.8, 85643.63, 0.16249761, -0.13520959, -1072835.1, 54342.41, 0.0, 9.999896, 9.999746 
2.5501865e+2, 1.9497935e+2, -1003379.6, -1047890.9, 116452.84, 0.0044513755, -0.2549419, -907074.8, 122108.74, 0.0, 10.000269, 9.999699 
2.5501838e+2, 2.0497915e+2, -973892.0, -1100956.9, -847.24347, -0.04911374, -0.18613452, -973886.3, -42700.168, 0.0, 10.000312, 9.998646 
2.5501797e+2, 2.1497957e+2, -911396.6, -1024475.44, -20969.738, 0.005433285, -0.046599947, -907633.2, -74445.7, 0.0, 10.000081, 9.99861 
2.550177e+2, 2.2497867e+2, -762210.3, -829179.7, 6725.705, 0.0018392799, -0.023884075, -761541.5, -26344.096, 0.0, 10.000128, 9.999249 
2.550176e+2, 2.3497617e+2, -619998.06, -715093.44, 28345.838, -0.064879276, -0.2368524, -612189.94, 25028.764, 0.0, 10.000451, 9.999206 
2.5501803e+2, 2.4497515e+2, -538430.94, -656728.0, -32086.867, -0.02955471, -0.24050833, -530288.2, 8940.973, 0.0, 10.000466, 9.998936 
2.5501883e+2, 2.5497535e+2, -514113.16, -603283.1, -26695.648, 0.09847403, -0.14946593, -506732.0, -65500.48, 0.0, 9.9999895, 9.998862 
2.550178e+2, 2.6497537e+2, -353283.66, -351504.56, -62212.62, 0.08255409, -0.081528254, -290175.13, 53056.94, 0.0, 9.999905, 9.9999485 
2.5501516e+2, 2.74975e+2, -239633.34, -256026.77, -20355.324, -0.061446518, -0.14875756, -225886.38, 19346.31, 0.0, 10.000041, 9.999874 
2.5501418e+2, 2.8497484e+2, -201308.92, -337677.38, 6861.254, -0.099469624, -0.07748392, -200964.56, -53730.93, 0.00000013920514, 10.000293, 9.998518 
2.550142e+2, 2.949744e+2, -79468.97, -225854.92, -4331.541, -0.08189516, -0.018893443, -79340.91, -30101.275, 0.0000022917138, 10.000434, 9.998544 
2.550132e+2, 3.049714e+2, 121948.64, -15077.266, 40802.59, -0.19886918, -0.20738173, 133178.25, 133178.25, 0.0000129202135, 10.00113, 9.999327 
2.550162e+2, 3.149725e+2, 167621.88, -60477.918, -67687.95, -0.047496516, -0.052950554, 186195.64, 186195.64, 0.000045825393, 10.001677, 9.998749 
2.6501623e+2, 1.2498188e+2, -1720157.9, -1762934.6, 42787.723, -0.2010751, -0.32826653, -1693710.6, 21444.117, 0.00051409315, 10.000027, 9.999644 
2.6501712e+2, 1.3498381e+2, -1538683.4, -1622667.8, -11028.297, -0.08497135, -0.13560785, -1537259.4, 79878.57, 0.0002486299, 10.000659, 9.999638 
2.6502046e+2, 1.4498392e+2, -1463699.1, -1517262.0, 29015.096, 0.2492269, -0.08959949, -1450994.9, 68142.73, 0.00007773356, 10.000441, 9.99976 
2.6501757e+2, 1.5498228e+2, -1450977.0, -1486477.3, -17456.139, -0.07179765, -0.2613492, -1443831.6, -22678.85, 0.000013419433, 9.999968, 9.999534 
2.6501697e+2, 1.6498134e+2, -1354346.6, -1461432.4, -34778.59, -0.11258068, -0.2691292, -1344042.9, -20879.602, 0.0000010267595, 10.00028, 9.998875 
2.6501867e+2, 1.7498094e+2, -1109248.6, -1296018.5, -20156.648, 0.13639861, -0.23658876, -1107098.0, 118072.555, 0.0000000012219834, 10.001306, 9.998837 
2.650194e+2, 1.8498084e+2, -942307.7, -1048664.1, 81088.21, 0.18551032, -0.17592612, -898515.7, 228656.14, 0.0, 10.001273, 9.999888 
2.6501903e+2, 1.949808e+2, -1030138.8, -1045375.2, 52072.332, 0.038697813, -0.2057604, -985130.3, 44039.22, 0.0, 10.000023, 9.999841 
2.6501882e+2, 2.0498072e+2, -1046200.44, -1154223.1, 9606.955, -0.005674202, -0.12539086, -1045352.7, -114180.81, 0.0, 9.99988, 9.998499 
2.6501876e+2, 2.1498035e+2, -833049.2, -1005993.2, 15674.479, 0.05763782, -0.04547321, -831640.0, 1540.8793, 0.0, 10.000696, 9.998448 
2.650186e+2, 2.2497918e+2, -663467.6, -799685.6, 79389.96, 0.051661864, -0.034609318, -626974.5, 108219.44, 0.0, 10.000867, 9.999104 
2.6501837e+2, 2.3497695e+2, -646808.75, -748465.44, 49019.313, -0.019719243, -0.20468378, -627022.56, 10190.44, 0.0, 10.000339, 9.99904 
2.6501843e+2, 2.44976e+2, -571656.25, -661235.4, 22180.236, -0.015158491, -0.19496395, -566465.1, -27242.426, 0.0, 10.000205, 9.999025 
2.6501864e+2, 2.5497612e+2, -431289.9, -549717.44, 23313.248, 0.06578906, -0.11958261, -426865.8, 14359.41, 0.0, 10.000514, 9.998969 
2.6501778e+2, 2.6497608e+2, -279495.16, -338092.25, 1592.8286, 0.07118926, -0.05371538, -279451.9, 63774.62, 0.0, 10.000503, 9.999755 
2.6501614e+2, 2.7497584e+2, -229960.02, -266781.9, -50245.215, 0.035965845, -0.09252939, -194858.88, 50367.957, 0.0, 10.000192, 9.999722 
2.6501545e+2, 2.849754e+2, -180366.1, -337233.56, 13976.274, -0.00029021988, -0.036410246, -179130.6, -31900.45, 0.00000017298198, 10.000473, 9.99843 
2.6501498e+2, 2.9497415e+2, 55180.496, -166058.92, -4140.103, -0.08285827, -0.049157556, 55257.94, 104500.91, 0.000002277503, 10.001368, 9.998508 
2.650147e+2, 3.0497193e+2, 196497.33, -1924.1377, 47928.945, -0.1746968, -0.15391523, 207468.05, 207468.05, 0.000011809922, 10.001717, 9.999155 
2.650184e+2, 3.1497192e+2, 95479.3, -32368.79, -143854.89, 0.058286794, -0.086362585, 188973.53, 188973.53, 0.000042458643, 10.000867, 9.999349 
2.7501783e+2, 1.2498188e+2, -1674051.8, -1663789.4, 48432.58, -0.1314998, -0.31158468, -1620216.9, 94933.97, 0.00042131313, 10.000002, 10.000342 
2.7501634e+2, 1.3498119e+2, -1505207.3, -1557464.1, 18462.19, -0.27244166, -0.4259155, -1499342.8, 117812.21, 0.0001952308, 10.000677, 10.000075 
2.7501917e+2, 1.4498162e+2, -1517548.4, -1619421.0, -12985.681, 0.028689524, -0.33391207, -1515919.3, 3233.8682, 0.000056360343, 10.000399, 9.999081 
2.7501866e+2, 1.5498227e+2, -1503715.6, -1583546.9, -16734.418, 0.0009779312, -0.2119125, -1500349.6, -79195.086, 0.000009372096, 9.999921, 9.998889 
2.7501842e+2, 1.649823e+2, -1301615.5, -1337707.9, -10155.722, -0.031353667, -0.13410975, -1298954.1, 24203.617, 0.0000008660051, 10.0002165, 9.999755 
2.7501848e+2, 1.7498152e+2, -1057858.8, -1176938.3, 34577.4, -0.052657835, -0.22449234, -1048546.7, 176617.72, 0.000000004874734, 10.001253, 9.999682 
2.7501908e+2, 1.8498172e+2, -978964.8, -1092579.9, 17849.896, -0.0040534334, -0.16371965, -976226.44, 150936.02, 0.0, 10.00114, 9.999648 
2.7502006e+2, 1.9498274e+2, -1062468.6, -1085993.6, 22149.76, 0.10008581, -0.064644, -1049151.9, -19998.85, 0.0, 9.999914, 9.999611 
2.7502003e+2, 2.049821e+2, -1025882.8, -1077078.3, 25066.621, 0.09827796, -0.056288086, -1015653.5, -84494.086, 0.0, 9.999734, 9.999096 
2.7501908e+2, 2.149794e+2, -817624.7, -929299.7, 63213.785, -0.015259309, -0.27367744, -789118.75, 44066.613, 0.0, 10.000507, 9.999063 
2.7501902e+2, 2.2497836e+2, -723064.6, -877266.44, 45195.926, -0.023222804, -0.25715333, -710794.25, 24402.838, 0.0, 10.0006695, 9.998669 
2.7501985e+2, 2.3497881e+2, -703787.6, -825978.25, 43724.758, 0.06540409, -0.11557774, -689753.1, -52556.54, 0.0, 10.000158, 9.998598 
2.7501944e+2, 2.4497879e+2, -562290.2, -611053.56, 20022.61, 0.0371435, -0.011810592, -555122.4, -15923.74, 0.0, 10.000073, 9.999432 
2.7501768e+2, 2.5497797e+2, -423694.53, -503156.4, 51370.46, -0.11830513, -0.07150898, -398483.4, 42723.035, 0.0, 10.000372, 9.999362 
2.7501687e+2, 2.649772e+2, -365229.16, -489336.72, -29452.26, -0.10360984, -0.053285882, -358594.44, -15379.898, 0.0, 10.000399, 9.998762 
2.750172e+2, 2.749763e+2, -325292.9, -429162.75, -47484.37, 0.09052419, -0.050384663, -306857.38, -61634.215, 0.00000000009324417, 10.000042, 9.998676 
2.7501738e+2, 2.8497502e+2, -171443.72, -303629.9, 30153.99, 0.10862416, -0.039132368, -164890.0, -17655.254, 0.00000023612336, 10.000409, 9.998689 
2.750165e+2, 2.9497266e+2, 59955.273, -134624.34, 51006.08, -0.11984457, -0.19322388, 72515.03, 121770.92, 0.0000024951785, 10.001264, 9.998777 
2.7501625e+2, 3.049711e+2, 143979.17, -82858.54, 10573.778, -0.22368626, -0.21660507, 144470.98, 144470.98, 0.0000116764495, 10.001631, 9.998622 
2.7501923e+2, 3.149705e+2, 107131.234, 54232.613, -112381.48, -0.02018848, -0.15553412, 196133.9, 196133.9, 0.000040637482, 10.0006275, 10.000048 
2.8501958e+2, 1.24982e+2, -1610632.8, -1605605.5, 101699.76, 0.043544665, -0.2729248, -1506388.3, 208762.0, 0.00034670465, 10.000362, 10.000546 
2.850166e+2, 1.3498048e+2, -1658963.1, -1631407.8, -55652.17, -0.2471838, -0.465944, -1587853.1, 29308.707, 0.00015383656, 9.99966, 10.000039 
2.8501847e+2, 1.4498097e+2, -1621960.1, -1642714.8, -18586.668, -0.027413808, -0.37814853, -1611050.0, -91890.74, 0.00004093297, 9.999567, 9.999322 
2.8501904e+2, 1.5498269e+2, -1412987.1, -1506754.8, 12632.395, 0.034211617, -0.1761068, -1411315.1, 9835.342, 0.0000066741927, 10.000398, 9.999187 
2.8501937e+2, 1.6498303e+2, -1237992.8, -1294768.1, 65440.508, 0.03211343, -0.087939456, -1195048.0, 128102.38, 0.00000074756446, 10.000603, 9.999874 
2.8501952e+2, 1.749818e+2, -1202719.4, -1238903.3, 20580.088, -0.014953194, -0.23060317, -1193409.5, 31751.475, 0.000000006090155, 10.000212, 9.999774 
2.8501984e+2, 1.8498182e+2, -1120101.0, -1167438.1, -11129.284, 0.014616805, -0.18867925, -1117615.0, 9545.855, 0.0, 10.000199, 9.999585 
2.8502026e+2, 1.9498292e+2, -980806.0, -1055422.4, -23459.555, 0.11281863, -0.07671531, -974043.2, 55108.633, 0.0, 10.000504, 9.999537 
2.8502044e+2, 2.0498237e+2, -859295.6, -971576.8, 32568.137, 0.12204736, -0.06527474, -850532.8, 80624.34, 0.0, 10.000791, 9.999298 
2.850203e+2, 2.1497992e+2, -740632.8, -868786.94, 5083.419, 0.047048494, -0.27793288, -740431.5, 92748.484, 0.0, 10.000949, 9.999259 
2.8502023e+2, 2.2497916e+2, -717521.8, -859676.0, -17317.57, 0.04232757, -0.24889418, -715442.56, 19746.492, 0.0, 10.000656, 9.99879 
2.850202e+2, 2.3497999e+2, -734328.06, -823020.4, -7664.304, 0.107160255, -0.08075451, -733670.6, -96484.98, 0.0, 9.999892, 9.998737 
2.8501967e+2, 2.4497989e+2, -577868.1, -626792.06, 52873.457, 0.06408536, 0.0111928, -544072.1, -4884.1196, 0.0, 9.999981, 9.999371 
2.8501856e+2, 2.549787e+2, -350722.34, -472061.4, 18244.738, -0.08104558, -0.085024096, -348038.4, 93159.51, 0.0, 10.000896, 9.999317 
2.8501794e+2, 2.6497748e+2, -258938.64, -490415.22, -56095.77, -0.073682696, -0.08196025, -246060.89, 97148.57, 0.0, 10.001344, 9.998305 
2.8501812e+2, 2.7497602e+2, -176086.56, -409151.84, -63801.582, 0.1284106, -0.0915923, -159764.02, 85460.56, 0.0000000018932573, 10.001264, 9.998237 
2.850185e+2, 2.8497446e+2, -112835.73, -264146.53, 79454.234, 0.16994512, -0.09463095, -78779.164, 68460.055, 0.00000028816427, 10.0007715, 9.998786 
2.850182e+2, 2.949724e+2, -102624.34, -193282.64, 55005.664, -0.00026419086, -0.22832564, -76676.88, -27420.197, 0.0000027347362, 10.000089, 9.998927 
2.8501824e+2, 3.0497098e+2, -11455.942, -187314.47, 52598.797, -0.12149937, -0.23422843, 3075.463, 3075.463, 0.000012525966, 10.000656, 9.998382 
2.8502047e+2, 3.149698e+2, 256381.75, 142698.8, -96406.64, 0.017927533, -0.20508677, 311456.28, 311456.28, 0.00004059471, 10.00157, 10.000198 
2.9502028e+2, 1.2498249e+2, -1629577.0, -1660143.6, 41454.0, -0.010729408, -0.18810058, -1600678.8, 114471.664, 0.00028489743, 10.000412, 10.000152 
2.9501748e+2, 1.3498163e+2, -1702114.1, -1726395.3, -74136.93, -0.16448756, -0.2594602, -1639130.3, -21971.117, 0.000121053716, 9.99968, 9.999378 
2.95018e+2, 1.4498185e+2, -1537897.5, -1467433.9, -10703.261, -0.080940396, -0.22692071, -1465844.0, 53313.25, 0.000029834508, 9.999551, 10.000538 
2.9501817e+2, 1.549834e+2, -1331764.0, -1332271.5, 57632.99, -0.13495329, -0.16364397, -1274384.1, 146757.61, 0.000004731658, 10.000371, 10.000401 
2.9501924e+2, 1.649835e+2, -1297713.1, -1394900.4, 36441.703, -0.077389404, -0.12798943, -1285566.8, 37574.96, 0.00000054097734, 10.000516, 9.999218 
2.950212e+2, 1.7498194e+2, -1257514.8, -1331821.0, 25285.262, 0.09478372, -0.24174275, -1249726.9, -24568.227, 0.0000000012704189, 10.00014, 9.99916 
2.9502124e+2, 1.8498133e+2, -1125172.6, -1157519.3, -16368.266, 0.09989735, -0.23966534, -1118335.1, 8830.312, 0.0, 10.000104, 9.999704 
2.9501927e+2, 1.949813e+2, -988032.94, -1046334.06, 3004.0757, -0.07646184, -0.24808888, -987878.56, 41287.17, 0.0, 10.0004, 9.999651 
2.9501957e+2, 2.049815e+2, -900304.25, -1019468.7, 24284.701, -0.072886124, -0.15683639, -895545.3, 35619.984, 0.0, 10.0006275, 9.99905 
2.95022e+2, 2.1498175e+2, -785564.3, -919570.4, 28675.15, 0.09255529, -0.07342808, -779686.1, 53479.984, 0.0, 10.000763, 9.999001 
2.9502186e+2, 2.2498144e+2, -699453.56, -774867.44, -62511.625, 0.10701847, -0.019886158, -664156.94, 71013.7, 0.0, 10.00046, 9.999462 
2.95019e+2, 2.349804e+2, -714500.7, -738108.56, -20154.22, -0.032439657, -0.10518667, -702948.1, -65767.23, 0.0, 9.999711, 9.999404 
2.9501876e+2, 2.4497937e+2, -628115.1, -705172.9, 69895.79, -0.057029527, -0.116812184, -586832.4, -47642.004, 0.0, 9.9998665, 9.99889 
2.9502085e+2, 2.5497812e+2, -406945.34, -555294.1, 66810.12, 0.0203644, -0.16705279, -381292.72, 59908.23, 0.0, 10.00075, 9.998821 
2.9502058e+2, 2.6497677e+2, -260443.4, -471162.66, -72668.98, 0.020679653, -0.1591632, -237813.08, 105400.35, 0.0, 10.00125, 9.998479 
2.9501832e+2, 2.74975e+2, -184771.4, -391609.97, -52164.688, -0.017993113, -0.21939805, -172360.2, 72870.71, 0.0000000016821552, 10.001116, 9.998426 
2.950183e+2, 2.849739e+2, -123170.016, -276032.25, 37812.434, 0.035076667, -0.18620645, -114328.06, 32913.383, 0.00000022409213, 10.000724, 9.998732 
2.9501978e+2, 2.9497322e+2, -126562.87, -228817.89, 57366.44, 0.0976548, -0.16468245, -100846.836, -51600.81, 0.0000026534976, 10.000008, 9.998735 
2.9502022e+2, 3.0497134e+2, -9515.417, -162636.69, 86479.61, -0.022026423, -0.21673515, 29423.963, 29423.963, 0.00001292508, 10.000581, 9.998577 
2.9502106e+2, 3.149697e+2, 212515.6, 79894.664, -11142.685, -0.16473365, -0.2646373, 213445.28, 213445.28, 0.000040888393, 10.00145, 9.999819 
3.050205e+2, 1.24982096e+2, -1819648.3, -1747369.3, 62632.125, 0.052736986, -0.15470998, -1711198.0, 3961.5815, 0.00023189843, 9.9991, 10.000193 
3.0501834e+2, 1.3498242e+2, -1603609.4, -1673747.5, -69595.27, -0.06685977, -0.10920988, -1560746.8, 56410.164, 0.000094942065, 10.000326, 9.999433 
3.0501807e+2, 1.4498216e+2, -1418723.1, -1393476.6, 8443.253, -0.055428717, -0.1331151, -1390913.3, 128245.49, 0.000021738364, 10.000323, 10.000661 
3.0501834e+2, 1.5498276e+2, -1455716.9, -1380812.4, -50027.03, -0.09478462, -0.17698027, -1355771.6, 65378.96, 0.0000030875526, 9.999472, 10.000496 
3.0501953e+2, 1.6498281e+2, -1434091.4, -1435991.1, -35180.37, -0.032991804, -0.16244543, -1399848.0, -76698.234, 0.0000002653173, 9.99944, 9.999464 
3.0502158e+2, 1.7498213e+2, -1240378.3, -1295415.9, -10338.662, 0.13120256, -0.21241058, -1238500.3, -13342.323, 0.0, 10.000115, 9.99943 
3.0502176e+2, 1.8498169e+2, -1056746.8, -1127064.5, 10881.204, 0.12693715, -0.20754908, -1055101.4, 72061.45, 0.0, 10.000589, 9.999678 
3.0501994e+2, 1.9498107e+2, -935722.75, -1034812.9, -16412.26, -0.057275202, -0.2709339, -933075.1, 96093.44, 0.0, 10.000797, 9.999551 
3.050202e+2, 2.0498115e+2, -888247.2, -1004750.5, 28770.547, -0.06330853, -0.18841204, -881529.6, 49639.29, 0.0, 10.000666, 9.999136 
3.050226e+2, 2.1498185e+2, -866171.06, -954626.9, 25567.092, 0.110521756, -0.06584713, -859312.94, -26147.94, 0.0, 10.000177, 9.999047 
3.0502233e+2, 2.2498155e+2, -721724.9, -811199.44, -43590.75, 0.12545337, -0.0051649665, -703999.56, 31170.201, 0.0, 10.000405, 9.999247 
3.0501965e+2, 2.3498003e+2, -492669.38, -657984.56, -98298.35, -0.011165897, -0.11888862, -446894.72, 190290.44, 0.0, 10.001336, 9.999182 
3.0501956e+2, 2.4497883e+2, -428623.28, -598602.44, 5854.5522, -0.022769345, -0.13718453, -428421.84, 110774.07, 0.0, 10.001234, 9.99895 
3.0502188e+2, 2.5497773e+2, -469859.88, -572713.94, 11430.728, 0.084945, -0.17855318, -468604.8, -27400.32, 0.0, 10.000294, 9.998909 
3.0502188e+2, 2.6497647e+2, -392283.34, -533318.56, -63791.0, 0.080107816, -0.16637357, -367711.38, -24495.71, 0.0, 10.000341, 9.998489 
3.0501974e+2, 2.7497482e+2, -133760.48, -364089.44, -87346.02, 0.006305018, -0.21718602, -104383.664, 140848.58, 0.00000000014964384, 10.001464, 9.998441 
3.050195e+2, 2.8497374e+2, 393.14578, -244463.4, -23342.479, 0.048602667, -0.16617738, 2598.5493, 149841.42, 0.00000013461268, 10.001713, 9.998465 
3.0502063e+2, 2.9497325e+2, -7364.803, -197235.61, -49427.156, 0.14697298, -0.10375459, 4731.4453, 53978.41, 0.0000024184974, 10.000971, 9.99847 
3.050216e+2, 3.049713e+2, 56377.074, -135065.08, 60579.82, 0.048063405, -0.14424735, 73936.35, 73936.35, 0.00001259153, 10.001026, 9.998578 
3.0502307e+2, 3.1496978e+2, 132834.77, -60403.742, -123288.03, -0.085148886, -0.17995581, 192852.73, 192852.73, 0.000039642433, 10.001309, 9.998956 
3.1501952e+2, 1.2498104e+2, -1781085.4, -1665244.1, 42108.97, -0.035573117, -0.14109501, -1651554.9, 63620.543, 0.0001887222, 9.9991, 10.0007515 
3.1501853e+2, 1.34983e+2, -1560933.3, -1566119.5, -14024.04, -0.1158776, -0.0060925, -1549264.6, 67889.05, 0.00007509751, 10.000269, 10.000192 
3.150181e+2, 1.4498203e+2, -1501422.4, -1558926.4, -43564.68, -0.13292675, -0.08528809, -1477977.0, 41185.68, 0.00001598166, 10.000285, 9.999544 
3.1501913e+2, 1.5498067e+2, -1538891.3, -1547166.0, -66573.35, -0.0043180618, -0.21483614, -1476326.9, -55149.313, 0.00000170519, 9.999447, 9.999363 
3.1502002e+2, 1.6498087e+2, -1360395.4, -1267502.6, -32560.36, 0.035296194, -0.18525058, -1257226.5, 65948.73, 0.000000057148895, 9.999368, 10.00066 
3.150203e+2, 1.7498237e+2, -1164512.8, -1122137.5, 27193.32, -0.0453017, -0.14181153, -1108852.1, 116306.875, 0.0, 10.000049, 10.000651 
3.1502086e+2, 1.8498293e+2, -1090696.1, -1170113.8, 2667.0342, -0.0534033, -0.0861162, -1090606.6, 36546.2, 0.0, 10.000468, 9.999442 
3.150218e+2, 1.9498219e+2, -966192.1, -1069561.6, 7050.7305, 0.015211599, -0.13903277, -965713.44, 63446.625, 0.0, 10.00068, 9.999366 
3.15022e+2, 2.0498145e+2, -889112.0, -962329.0, -5967.7656, 0.020116473, -0.14964393, -888628.75, 42537.824, 0.0, 10.0004835, 9.999516 
3.1502149e+2, 2.1498044e+2, -867459.75, -910135.8, 24186.58, -0.04661794, -0.23530443, -856544.06, -23369.191, 0.0, 9.999983, 9.999445 
3.1502134e+2, 2.2497968e+2, -816200.56, -971928.4, -23426.027, -0.046870008, -0.18775879, -812752.94, -77568.57, 0.0, 10.000249, 9.998225 
3.1502154e+2, 2.3497896e+2, -589841.1, -818767.44, -46527.363, 0.014742155, -0.11508182, -580746.2, 56450.96, 0.0, 10.001157, 9.99817 
3.150215e+2, 2.4497825e+2, -405650.94, -530643.0, -44770.94, 0.017829781, -0.05962163, -391269.2, 147935.72, 0.0, 10.001139, 9.999465 
3.1502125e+2, 2.549774e+2, -456858.97, -508640.53, -10457.752, -0.040634163, -0.1250574, -454826.7, -13617.436, 0.0, 10.00013, 9.999432 
3.1502143e+2, 2.6497662e+2, -412159.38, -553844.0, -37304.816, -0.033102848, -0.089356445, -402937.44, -59721.73, 0.0, 10.000252, 9.998393 
3.1502202e+2, 2.7497548e+2, -157999.97, -389573.44, -28613.645, 0.051814545, -0.083665445, -154516.81, 90712.04, 0.00000000001473293, 10.001348, 9.998327 
3.150217e+2, 2.8497395e+2, -45482.0, -323142.28, -67247.53, 0.06062719, -0.043412786, -30052.496, 117192.1, 0.000000108201135, 10.001645, 9.997952 
3.1502014e+2, 2.9497218e+2, -64733.414, -286543.8, -56516.492, -0.043943837, -0.059716284, -51163.406, -1901.0441, 0.0000023186144, 10.000835, 9.997926 
3.1502184e+2, 3.0497068e+2, 46702.453, -144356.81, 64650.438, -0.06252129, -0.023217136, 66522.68, 66522.68, 0.000012381474, 10.000978, 9.998535 
3.1502584e+2, 3.1496987e+2, 39363.734, -240152.44, -88509.88, -0.017202338, 0.012312404, 65033.344, 65033.344, 0.000038038284, 10.00124, 9.997755 
3.2501885e+2, 1.2498085e+2, -1676362.3, -1611980.6, 97008.445, -0.031304188, -0.08553715, -1541961.4, 173219.83, 0.0001575099, 9.999781, 10.000795 
3.2501912e+2, 1.3498238e+2, -1685695.0, -1597886.4, -31630.684, -0.014453912, -0.024089796, -1587678.9, 29483.336, 0.00006189271, 9.999253, 10.000477 
3.250185e+2, 1.4498131e+2, -1660262.3, -1661879.3, -6527.7993, -0.060167704, -0.11454092, -1654493.1, -135321.06, 0.000012633238, 9.999294, 9.999328 
3.2501963e+2, 1.5498024e+2, -1417824.4, -1510634.6, 8053.3667, 0.062209047, -0.19252962, -1417130.8, 4054.3174, 0.0000008198343, 10.000358, 9.999182 
3.2502022e+2, 1.6498075e+2, -1217284.5, -1169144.0, 63272.188, 0.08646181, -0.13654894, -1125518.3, 197662.23, 0.000000004124255, 10.000262, 10.000886 
3.250199e+2, 1.749826e+2, -1301396.6, -1169006.4, 9030.318, -0.028413313, -0.0760285, -1168393.3, 56767.54, 0.0, 9.999038, 10.000814 
3.2502076e+2, 1.8498315e+2, -1264224.3, -1236055.6, 30854.47, -0.03845786, -0.03407867, -1216222.9, -89069.52, 0.0, 9.999198, 9.9995985 
3.250229e+2, 1.9498226e+2, -958485.56, -1043578.44, 29866.86, 0.06800542, -0.1223782, -949049.06, 80110.91, 0.0, 10.000654, 9.999547 
3.2502332e+2, 2.0498134e+2, -779932.7, -929588.7, -5837.145, 0.07307714, -0.15367882, -779705.4, 151461.98, 0.0, 10.001296, 9.999353 
3.2502204e+2, 2.1498019e+2, -735865.0, -864287.94, -45763.52, -0.028348336, -0.2397923, -721225.94, 111952.0, 0.0, 10.000955, 9.999296 
3.2502183e+2, 2.2497933e+2, -733833.94, -936748.0, -10466.87, -0.044959012, -0.19253905, -733295.44, 1892.7772, 0.0, 10.00084, 9.998173 
3.2502264e+2, 2.349785e+2, -618617.0, -838139.2, 8772.052, 0.027909484, -0.12753534, -618267.06, 18933.846, 0.0, 10.000987, 9.998109 
3.2502273e+2, 2.4497762e+2, -448520.66, -594621.75, 7981.6953, 0.040710688, -0.0667883, -448085.88, 91124.58, 0.0, 10.001004, 9.999102 
3.2502207e+2, 2.549766e+2, -353632.22, -498167.5, -46988.46, -0.003215278, -0.11900544, -339699.38, 101518.82, 0.0, 10.000978, 9.999101 
3.2502252e+2, 2.6497576e+2, -278133.53, -475293.22, -19137.213, 0.017592458, -0.07832183, -276293.16, 66932.05, 0.0, 10.001114, 9.998522 
3.2502404e+2, 2.7497467e+2, -132696.69, -360376.44, -25392.834, 0.123947546, -0.07705123, -129899.03, 115337.1, 0.00000000010851988, 10.001452, 9.998475 
3.2502365e+2, 2.8497288e+2, -60683.746, -376174.97, -55880.82, 0.100015886, -0.049579524, -51078.395, 96176.23, 0.00000014604628, 10.001718, 9.997565 
3.2502133e+2, 2.949706e+2, 62819.758, -263346.0, -66483.89, -0.04872338, -0.07952673, 75850.85, 125129.64, 0.0000023415487, 10.001871, 9.997589 
3.250238e+2, 3.0496943e+2, 153961.08, -58636.105, 108011.6, 0.021021768, -0.012981055, 199207.52, 199207.52, 0.000012312151, 10.001614, 9.998794 
3.2502782e+2, 3.1496915e+2, -56757.83, -295106.22, -97485.484, 0.10172568, 0.046656456, -21964.79, -21964.79, 0.000036624067, 10.000671, 9.997621 
3.3501738e+2, 1.2498148e+2, -1722441.9, -1688210.0, -14230.822, -0.23242486, 0.020490846, -1683066.8, 32110.605, 0.00013854062, 9.999713, 10.000297 
3.3501968e+2, 1.3498071e+2, -1704919.4, -1620902.1, -48952.29, 0.077462904, -0.13251875, -1598404.5, 18776.506, 0.000055370125, 9.99921, 10.000322 
3.3501887e+2, 1.4498013e+2, -1613633.9, -1550647.8, 10393.828, 0.0040012524, -0.20438649, -1548976.9, -29791.438, 0.000011804474, 9.999233, 10.00012 
3.3501926e+2, 1.5498172e+2, -1362868.0, -1385008.4, 64786.21, -0.046655137, -0.0995804, -1308213.0, 112958.055, 0.00000057438905, 10.000314, 10.000064 
3.3501968e+2, 1.6498263e+2, -1288208.9, -1304511.8, 984.8588, -0.030082785, -0.006371739, -1288149.6, 35013.93, 0.00000000201948, 10.000204, 9.99999 
3.3501998e+2, 1.7498273e+2, -1370060.4, -1305991.8, -19890.084, 0.033943992, -0.028193858, -1300319.1, -75154.9, 0.0, 9.999007, 9.999892 
3.3502096e+2, 1.849823e+2, -1248190.4, -1171302.6, 66792.04, 0.025019772, -0.06345459, -1132680.9, -5515.376, 0.0, 9.9990635, 10.000109 
3.3502278e+2, 1.9498105e+2, -938918.9, -975237.3, 99222.17, -0.04736464, -0.23847924, -856207.9, 172962.17, 0.0, 10.000537, 10.000072 
3.3502367e+2, 2.0498069e+2, -852664.1, -1038655.3, -34740.336, -0.045305245, -0.20679015, -846387.0, 84785.41, 0.0, 10.0011215, 9.998689 
3.3502376e+2, 2.1498096e+2, -811026.1, -971840.3, -42299.977, 0.019706309, -0.085303925, -800578.5, 32596.441, 0.0, 10.000749, 9.998657 
3.3502334e+2, 2.2498032e+2, -700343.06, -822980.9, -21624.145, -0.0037737605, -0.0256151, -696641.9, 38540.535, 0.0, 10.000655, 9.999042 
3.3502254e+2, 2.3497859e+2, -586288.94, -721137.1, 26406.023, -0.10975982, -0.14133753, -581302.5, 55894.527, 0.0, 10.000781, 9.999007 
3.3502278e+2, 2.4497698e+2, -535472.6, -756425.0, -8632.53, -0.08756997, -0.14738606, -535135.9, 4076.5464, 0.0, 10.000915, 9.998035 
3.3502397e+2, 2.5497535e+2, -452813.72, -666487.25, -33488.027, 0.053906504, -0.15598518, -447688.22, -6457.652, 0.0, 10.000817, 9.99802 
3.350248e+2, 2.6497397e+2, -270286.78, -439918.8, -22926.785, 0.106406756, -0.12659006, -267242.72, 76000.375, 0.0, 10.001037, 9.998797 
3.350253e+2, 2.7497247e+2, -135369.3, -328918.0, 3243.3506, 0.065123074, -0.1953023, -135314.97, 109939.38, 0.000000000044508567, 10.001298, 9.998763 
3.3502498e+2, 2.8497064e+2, -74285.69, -396685.84, -66130.66, 0.027181067, -0.18293495, -61248.203, 86024.164, 0.00000018851506, 10.001669, 9.997455 
3.3502373e+2, 2.9496878e+2, 41623.94, -292762.47, -41289.113, -0.041123305, -0.16039671, 46646.76, 95941.586, 0.0000023038672, 10.001787, 9.99744 
3.35027e+2, 3.049673e+2, 169544.75, -12377.338, 62264.027, 0.14583787, -0.123012654, 188814.02, 188814.02, 0.000011796056, 10.001564, 9.999132 
3.3502793e+2, 3.1496707e+2, -29987.088, -200963.56, -79283.9, -0.029105918, -0.09435145, 1118.7379, 1118.7379, 0.000034748333, 10.0005, 9.998358 
3.450175e+2, 1.2498176e+2, -1816313.4, -1757546.8, 46247.254, -0.14786655, 0.022815041, -1732137.9, -16963.648, 0.00012841672, 9.999175, 10.000078 
3.4501985e+2, 1.3498081e+2, -1516282.6, -1548151.3, -534.60156, 0.12168487, -0.13612962, -1516273.8, 100907.195, 0.00005393956, 10.000551, 10.000197 
3.4501886e+2, 1.4498076e+2, -1403574.5, -1402515.1, 74469.8, 0.031301044, -0.16943151, -1328573.1, 190607.2, 0.00001321429, 10.000489, 10.000519 
3.4501895e+2, 1.5498282e+2, -1491216.0, -1410803.9, 47427.703, -0.047137573, -0.053713735, -1388833.5, 32326.83, 0.00000089811203, 9.999283, 10.00038 
3.450197e+2, 1.6498354e+2, -1438121.5, -1457524.9, 13092.502, -0.007255526, 0.039916176, -1431527.9, -108372.73, 0.0000000015154811, 9.999501, 9.999287 
3.450208e+2, 1.749828e+2, -1114972.8, -1258133.3, -19661.64, 0.1222208, 0.003256315, -1112321.6, 112844.414, 0.0, 10.001081, 9.999222 
3.4502184e+2, 1.8498188e+2, -927317.9, -1019408.5, 83681.336, 0.10716542, -0.045866493, -877850.1, 249322.23, 0.0, 10.001278, 10.000088 
3.45023e+2, 1.9498041e+2, -1018826.8, -1019893.4, 45707.676, -0.03865058, -0.24017729, -973649.3, 55528.895, 0.0, 10.000007, 10.000027 
3.4502405e+2, 2.0498009e+2, -1054612.4, -1133065.6, -53491.46, -0.045296725, -0.20274271, -1027506.0, -96326.086, 0.0, 9.999725, 9.998708 
3.4502485e+2, 2.1498068e+2, -867618.5, -998712.4, -44276.027, 0.08258655, -0.04970789, -854065.7, -20885.87, 0.0, 10.000359, 9.998655 
3.450247e+2, 2.2498015e+2, -674169.4, -794555.44, 4506.022, 0.07143877, 0.010309011, -674000.94, 61185.113, 0.0, 10.00076, 9.999194 
3.4502372e+2, 2.349782e+2, -556807.0, -690029.44, -30634.766, -0.06780552, -0.13941985, -550100.1, 87100.914, 0.0, 10.000897, 9.999175 
3.450239e+2, 2.4497654e+2, -517259.94, -761563.4, -31597.424, -0.06799487, -0.15420546, -513239.38, 25977.068, 0.0, 10.001111, 9.997903 
3.450252e+2, 2.549748e+2, -371587.75, -650084.8, -19966.588, 0.07449318, -0.15109666, -370163.56, 71072.13, 0.0, 10.001459, 9.997836 
3.450262e+2, 2.649731e+2, -222299.39, -426926.9, 34604.363, 0.12989332, -0.13853528, -216605.89, 126645.58, 0.0, 10.001417, 9.998704 
3.4502676e+2, 2.749711e+2, -185556.64, -360637.78, 1169.0349, 0.1087864, -0.2464583, -185548.83, 59718.535, 0.0, 10.000999, 9.99869 
3.450266e+2, 2.8496954e+2, -132124.63, -377169.28, -14292.184, 0.060001895, -0.22409385, -131293.86, 15988.554, 0.00000016974016, 10.0011, 9.997845 
3.4502566e+2, 2.9496866e+2, 72481.61, -233775.92, 13181.533, -0.01791271, -0.14230187, 73047.91, 122342.83, 0.0000020169734, 10.001828, 9.997815 
3.4502935e+2, 3.0496684e+2, 204871.23, -4354.469, 112777.36, 0.22803058, -0.15786652, 254084.84, 254084.84, 0.0000103175025, 10.001815, 9.999082 
3.4502873e+2, 3.1496623e+2, 29399.238, -126209.65, -70183.38, 0.0092376685, -0.167307, 56376.656, 56376.656, 0.000031962787, 10.000691, 9.998776 
3.5501817e+2, 1.2498162e+2, -1825122.1, -1762084.4, -4862.2583, -0.08856096, -0.085505895, -1761711.5, -46539.074, 0.00012227354, 9.999122, 10.00007 
3.5501906e+2, 1.3498266e+2, -1511114.5, -1533369.0, 65892.54, -0.048006363, -0.046684615, -1455416.3, 161745.86, 0.00005490219, 10.000554, 10.000288 
3.5501796e+2, 1.4498332e+2, -1421150.4, -1438033.5, 9975.389, -0.15662658, -0.00658411, -1416524.1, 102631.49, 0.000015641235, 10.000476, 10.00029 
3.550182e+2, 1.5498348e+2, -1510540.1, -1457787.4, 16763.432, -0.093516074, -0.04895035, -1452911.1, -31757.557, 0.0000017221555, 9.999304, 10.000054 
3.5501963e+2, 1.649834e+2, -1476366.5, -1517695.3, 53067.34, 0.0003453052, 0.0034004347, -1440082.1, -116926.1, 0.000000007086625, 9.99942, 9.998909 
3.5502186e+2, 1.7498286e+2, -1147376.5, -1313080.4, 56444.01, 0.083517134, 0.019992022, -1129976.9, 95188.56, 0.0, 10.001025, 9.998872 
3.5502294e+2, 1.8498196e+2, -989749.8, -1116786.0, 23331.625, 0.058134962, 0.017394675, -985600.25, 141573.39, 0.0, 10.001142, 9.999484 
3.5502326e+2, 1.9498049e+2, -1078810.6, -1115749.3, 15183.11, -0.04893232, -0.11499469, -1073370.9, -44188.41, 0.0, 9.999882, 9.999429 
3.5502395e+2, 2.0497972e+2, -1034072.06, -1051852.0, -45443.035, -0.05551262, -0.12406316, -996657.6, -65469.79, 0.0, 9.999556, 9.999351 
3.5502496e+2, 2.1497941e+2, -846095.8, -916008.44, -4651.4775, 0.026716111, -0.12599531, -845787.7, -12595.61, 0.0, 10.000191, 9.999307 
3.550255e+2, 2.2497877e+2, -735993.75, -884704.0, -3129.1055, 0.048553474, -0.08049165, -735927.94, -729.1424, 0.0, 10.000599, 9.998651 
3.5502568e+2, 2.3497751e+2, -623883.4, -784999.7, -9788.625, 0.006735286, -0.10805435, -623290.9, 13920.124, 0.0, 10.00071, 9.998612 
3.5502556e+2, 2.4497634e+2, -492144.75, -673974.56, -31680.701, -0.04224844, -0.07642318, -486783.06, 52438.586, 0.0, 10.000965, 9.99857 
3.5502532e+2, 2.5497502e+2, -348901.88, -564734.56, 9134.371, -0.09207624, -0.103452966, -348516.0, 92717.76, 0.0, 10.001302, 9.998494 
3.5502616e+2, 2.6497325e+2, -262070.6, -492013.5, 4950.199, -0.043657746, -0.11050929, -261964.08, 81285.84, 0.0, 10.001338, 9.998297 
3.5502797e+2, 2.7497074e+2, -234917.89, -435185.8, 4737.7935, 0.096840315, -0.22785491, -234805.88, 10467.901, 0.0, 10.000876, 9.998237 
3.55028e+2, 2.849696e+2, -86591.75, -267212.1, -790.9244, 0.055468258, -0.17735977, -86588.29, 60696.54, 0.00000011654808, 10.001037, 9.998631 
3.5502654e+2, 2.9497007e+2, 110492.67, -127461.84, 60214.805, -0.15817496, -0.039856058, 124862.375, 174143.17, 0.0000016052002, 10.001716, 9.998599 
3.5503042e+2, 3.0496782e+2, 192705.02, -31437.176, 58965.098, 0.12008697, -0.12862647, 207270.47, 207270.47, 0.000008325357, 10.001807, 9.998907 
3.5502893e+2, 3.1496766e+2, 18720.41, -122514.46, -8676.068, -0.12391149, -0.078056164, 19251.385, 19251.385, 0.000028551576, 10.000571, 9.998867 
3.6501852e+2, 1.2498124e+2, -1761496.5, -1718951.3, -67312.516, 0.03867671, -0.11826476, -1669629.9, 45545.273, 0.000118926524, 9.999481, 10.00021 
3.6501858e+2, 1.3498254e+2, -1707956.5, -1629088.0, -20456.19, -0.06723742, -0.050516117, -1624098.0, -6935.4004, 0.000056465244, 9.9992, 10.000288 
3.6501846e+2, 1.449832e+2, -1585551.0, -1557625.8, -64226.184, -0.09491905, 0.006817036, -1505862.0, 13294.043, 0.00001794202, 9.99951, 9.999944 
3.65019e+2, 1.5498252e+2, -1348010.6, -1413567.0, -93942.43, 0.0035716274, -0.08515204, -1281292.1, 139869.97, 0.000002788093, 10.000565, 9.999754 
3.650204e+2, 1.649821e+2, -1233305.8, -1380734.6, 29811.44, 0.06454153, -0.06070562, -1227505.8, 95661.664, 0.00000008230677, 10.0010195, 9.999073 
3.6502212e+2, 1.7498171e+2, -1172280.8, -1303807.8, 32552.998, 0.030643202, -0.042991858, -1164664.9, 60509.05, 0.0, 10.00078, 9.999045 
3.650233e+2, 1.8498127e+2, -1095940.8, -1197669.9, 5631.533, 0.01744767, 0.0048518046, -1095629.9, 31548.818, 0.0, 10.00054, 9.999222 
3.650242e+2, 1.9498049e+2, -1051571.5, -1131965.3, -5451.2036, 0.051925253, -0.031210933, -1051203.5, -22019.104, 0.0, 10.000198, 9.999167 
3.6502486e+2, 2.049796e+2, -944863.8, -1000897.8, 4842.533, 0.060532656, -0.042829707, -944448.44, -13256.654, 0.0, 10.0001335, 9.999425 
3.6502522e+2, 2.1497832e+2, -826344.06, -897542.06, -31285.666, 0.037300933, -0.15099792, -814550.25, 18653.28, 0.0, 10.000288, 9.999389 
3.6502594e+2, 2.2497752e+2, -754336.8, -882706.8, -7910.4063, 0.04582665, -0.13016067, -753851.25, -18640.215, 0.0, 10.000429, 9.998747 
3.650271e+2, 2.3497698e+2, -640697.8, -781472.3, 3222.3865, 0.0993717, -0.09435441, -640624.06, -3407.3066, 0.0, 10.00055, 9.998711 
3.650273e+2, 2.4497612e+2, -496002.88, -647813.5, 29571.918, 0.056111798, -0.049361844, -490445.84, 48778.496, 0.0, 10.000797, 9.998845 
3.650266e+2, 2.549748e+2, -353919.56, -528262.7, 12798.497, -0.07711747, -0.1031995, -352985.03, 88250.52, 0.0, 10.001105, 9.998838 
3.6502725e+2, 2.6497328e+2, -278909.1, -509675.6, 14675.44, -0.05582597, -0.10056987, -277979.56, 65270.258, 0.0, 10.001273, 9.998196 
3.6502928e+2, 2.7497113e+2, -176921.84, -417748.28, 5804.7817, 0.12747571, -0.17167954, -176782.02, 68489.87, 0.0, 10.001325, 9.998136 
3.6502948e+2, 2.8497005e+2, -30501.719, -237019.55, 45530.207, 0.09167187, -0.11594175, -20909.39, 126373.03, 0.000000055764154, 10.00138, 9.998689 
3.6502808e+2, 2.949702e+2, 60774.637, -145803.38, 19576.453, -0.14583847, -0.013688207, 62613.44, 111892.586, 0.0000011855267, 10.001346, 9.998656 
3.6503205e+2, 3.0496746e+2, 114496.86, -106772.3, -15393.297, 0.1332086, -0.13851088, 115562.62, 115562.62, 0.0000067298934, 10.001463, 9.99854 
3.6503056e+2, 3.149671e+2, 171507.69, -24311.902, -95017.945, -0.047074728, -0.07157707, 210033.72, 210033.72, 0.00002565761, 10.00154, 9.99907 
3.750174e+2, 1.24980785e+2, -1735974.1, -1664084.9, -148486.55, -0.10458621, -0.028303623, -1547254.3, 167926.63, 0.0001191897, 9.99947, 10.000585 
3.7501788e+2, 1.3498047e+2, -1704611.8, -1623507.5, -22246.15, -0.09975453, -0.13258316, -1617806.4, -624.4927, 0.00005856906, 9.999205, 10.000318 
3.7501985e+2, 1.4498046e+2, -1622343.3, -1613532.0, -45793.414, 0.043805353, -0.12688193, -1571932.8, -52751.742, 0.000020069963, 9.999426, 9.9995985 
3.750208e+2, 1.5497994e+2, -1369285.8, -1458853.6, -35786.28, 0.089065455, -0.16778931, -1356743.9, 64442.18, 0.0000038584762, 10.0005665, 9.999444 
3.750215e+2, 1.649796e+2, -1201178.9, -1296832.3, 6603.0654, 0.037239634, -0.15115878, -1200725.3, 122463.93, 0.00000020238203, 10.000948, 9.99968 
3.7502116e+2, 1.7497943e+2, -1141262.8, -1227633.1, 40684.184, -0.18107858, -0.17423846, -1125117.0, 100073.6, 0.0, 10.000722, 9.999598 
3.7502238e+2, 1.8497977e+2, -1105446.1, -1185591.6, -22473.184, -0.16231103, -0.08187667, -1099574.8, 27613.451, 0.0, 10.000405, 9.999367 
3.750254e+2, 1.9498034e+2, -1060415.4, -1118217.6, -1525.3054, 0.11783774, 0.00044357427, -1060375.1, -31190.291, 0.0, 10.000064, 9.999323 
3.7502635e+2, 2.0497963e+2, -1005618.7, -1090068.9, -4075.0654, 0.16522685, 0.027328515, -1005422.5, -74229.984, 0.0, 9.999972, 9.998893 
3.7502503e+2, 2.149774e+2, -892575.4, -987666.8, -11134.721, -0.03970803, -0.11970302, -891288.94, -58075.137, 0.0, 10.000088, 9.998866 
3.7502545e+2, 2.249764e+2, -728594.75, -791442.4, -21169.957, -0.07151914, -0.12755157, -722128.94, 13093.29, 0.0, 10.000257, 9.99946 
3.7502766e+2, 2.349764e+2, -612961.8, -688852.44, 21920.82, 0.06730095, -0.11225603, -607085.06, 30135.08, 0.0, 10.000389, 9.999428 
3.7502873e+2, 2.4497579e+2, -516352.88, -660443.5, 26377.375, 0.08761672, -0.07953685, -511676.03, 27549.271, 0.0, 10.000671, 9.99882 
3.7502846e+2, 2.5497425e+2, -381113.47, -550106.5, 41389.867, -0.034728315, -0.14863978, -371520.78, 69719.875, 0.0, 10.000951, 9.998766 
3.7502897e+2, 2.6497313e+2, -276403.22, -486060.25, 2528.8315, -0.047219325, -0.11149123, -276372.72, 66879.484, 0.0, 10.001192, 9.998399 
3.750302e+2, 2.749721e+2, -174214.44, -390533.88, 25824.26, 0.04727346, -0.089546315, -171174.27, 74088.89, 0.0, 10.001226, 9.998374 
3.7503043e+2, 2.8497085e+2, -73372.67, -316334.88, 31231.266, 0.012760942, -0.03874518, -69422.32, 77852.734, 0.00000003400916, 10.001333, 9.99817 
3.7502965e+2, 2.9496926e+2, -411.48486, -247828.53, 36882.19, -0.166054, -0.056833226, 4969.4756, 54257.965, 0.000000899484, 10.001225, 9.998019 
3.750336e+2, 3.049658e+2, 56192.723, -207939.67, -18952.479, 0.11165164, -0.18391669, 57545.703, 57545.703, 0.000005766145, 10.001388, 9.997878 
3.7503272e+2, 3.1496412e+2, 158756.55, -22177.61, 17753.795, -0.061839923, -0.1866342, 160482.14, 160482.14, 0.000023929499, 10.00142, 9.999142 
3.850176e+2, 1.2497914e+2, -1715159.1, -1665770.4, -78677.15, -0.026383981, -0.063311055, -1608003.3, 107192.734, 0.00012316402, 9.999681, 10.000466 
3.8501766e+2, 1.3497879e+2, -1559658.5, -1593278.9, -53486.51, -0.084850766, -0.13881807, -1520402.8, 96795.516, 0.000061385945, 10.0003605, 9.999975 
3.8502103e+2, 1.4497855e+2, -1448648.8, -1518626.6, -26704.43, 0.17370908, -0.14319038, -1439622.3, 79577.86, 0.000022093489, 10.000584, 9.999681 
3.850217e+2, 1.5497836e+2, -1380513.1, -1452795.0, -33888.348, 0.13529277, -0.16209403, -1367110.3, 54091.703, 0.000004863891, 10.00046, 9.999526 
3.8502216e+2, 1.6497807e+2, -1283982.3, -1322319.9, 9263.331, 0.050420508, -0.15203117, -1281861.3, 41342.434, 0.00000029520132, 10.000285, 9.999847 
3.8502166e+2, 1.7497775e+2, -1235275.5, -1250448.1, -13145.006, -0.15371652, -0.20690148, -1227684.8, -2479.9446, 0.0, 9.999965, 9.999817 
3.850228e+2, 1.8497805e+2, -1154068.8, -1215105.1, -49919.598, -0.13525955, -0.12757316, -1126077.8, 1124.891, 0.0, 10.000086, 9.999321 
3.8502586e+2, 1.9497854e+2, -987041.56, -1093270.6, -78592.72, 0.13979657, -0.049865846, -945298.5, 83903.23, 0.0, 10.000591, 9.999248 
3.8502687e+2, 2.0497808e+2, -896864.56, -1028846.06, -40858.367, 0.19693446, 0.00032553615, -885239.7, 45967.94, 0.0, 10.00068, 9.998973 
3.8502577e+2, 2.1497644e+2, -855904.8, -965248.75, -29948.955, 0.023657074, -0.09388168, -848239.3, -15016.696, 0.0, 10.000305, 9.998924 
3.8502616e+2, 2.2497553e+2, -736587.0, -782131.06, 4652.9785, -0.010352008, -0.103311054, -736116.44, -886.52454, 0.0, 10.000145, 9.999573 
3.8502818e+2, 2.3497513e+2, -626758.75, -680819.2, -29686.596, 0.09811161, -0.13965106, -613640.2, 23591.328, 0.0, 10.0002365, 9.999552 
3.8502938e+2, 2.4497461e+2, -572814.94, -663389.56, -11091.7705, 0.12028274, -0.11636504, -571476.4, -32240.639, 0.0, 10.000196, 9.999008 
3.850297e+2, 2.5497356e+2, -498990.16, -591987.25, -11865.204, 0.046078913, -0.15675245, -497500.2, -56253.69, 0.0, 10.000071, 9.9988985 
3.8503036e+2, 2.649727e+2, -361940.47, -505738.5, 7611.2764, 0.018133344, -0.11292108, -361538.72, -18283.2, 0.0, 10.00051, 9.998598 
3.8503155e+2, 2.749718e+2, -111897.66, -333939.72, -1648.9456, 0.05594948, -0.0983678, -111885.414, 133378.8, 0.0, 10.001549, 9.998605 
3.8503218e+2, 2.849704e+2, 7279.3555, -319196.97, 16354.923, 0.025599478, -0.051546652, 8096.6143, 155373.58, 0.000000026095549, 10.002079, 9.997784 
3.85032e+2, 2.9496822e+2, 88293.664, -247075.48, 1728.2067, -0.08091527, -0.090499535, 88302.57, 137599.06, 0.00000066980994, 10.002027, 9.997632 
3.8503528e+2, 3.0496398e+2, 86205.42, -253306.63, -4466.8457, 0.13307591, -0.24910304, 86264.18, 86264.18, 0.000005131084, 10.001837, 9.9973545 
3.8503507e+2, 3.1496206e+2, 147597.92, 12473.887, 22461.16, 0.062172905, -0.22829488, 151233.73, 151233.73, 0.000023471404, 10.001173, 9.999498 
3.950184e+2, 1.2497669e+2, -1781638.4, -1776206.0, -67278.09, 0.003304601, -0.20602784, -1711589.3, 3627.612, 0.0001272644, 9.9996, 9.999741 
3.950175e+2, 1.3497756e+2, -1623061.4, -1706381.9, -12914.123, -0.1739069, -0.07915714, -1621105.8, -3894.731, 0.00006380605, 10.000309, 9.999218 
3.9502153e+2, 1.4497751e+2, -1439602.3, -1482737.0, -50708.25, 0.11780671, -0.039433956, -1406065.4, 113147.42, 0.000023677207, 10.000497, 9.999974 
3.9502096e+2, 1.5497763e+2, -1357674.6, -1405509.5, -22688.795, -0.025540782, -0.06374052, -1348625.0, 72586.06, 0.000005569423, 10.000454, 9.999855 
3.950219e+2, 1.649773e+2, -1302551.4, -1339416.1, -22686.67, -0.039170943, -0.07081194, -1291752.9, 31459.877, 0.00000035120044, 10.000202, 9.999769 
3.950233e+2, 1.7497659e+2, -1254129.9, -1265887.6, -7784.867, -0.0234551, -0.15291448, -1250253.4, -25036.283, 0.0, 9.999869, 9.999757 
3.9502424e+2, 1.84976e+2, -1192582.8, -1264774.3, -45828.83, -0.03387996, -0.14629719, -1170341.8, -43118.58, 0.0, 9.999949, 9.999049 
3.9502504e+2, 1.9497518e+2, -1025053.9, -1137702.6, -44441.2, -0.031843204, -0.16793916, -1009632.5, 19601.463, 0.0, 10.000447, 9.99901 
3.9502606e+2, 2.0497505e+2, -871693.0, -933497.25, -70962.66, 0.01861974, -0.11067862, -825195.9, 106039.72, 0.0, 10.000497, 9.999717 
3.9502695e+2, 2.1497539e+2, -836328.06, -870015.75, -25233.75, 0.084913254, -0.08366373, -822832.9, 10397.243, 0.0, 10.000078, 9.999683 
3.950277e+2, 2.2497487e+2, -794161.7, -860410.75, -4633.189, 0.09887196, -0.070259444, -793839.25, -58605.098, 0.0, 9.999964, 9.999125 
3.9502826e+2, 2.3497316e+2, -684151.06, -759527.6, -8136.7153, 0.050678335, -0.1881996, -683282.75, -46031.887, 0.0, 10.000064, 9.999095 
3.9502895e+2, 2.4497256e+2, -562022.3, -614064.7, -30464.445, 0.023001734, -0.16805756, -547978.75, -8722.501, 0.0, 10.000078, 9.999411 
3.9502975e+2, 2.5497273e+2, -489040.25, -538145.2, -1161.4142, 0.011379911, -0.1282985, -489012.78, -47759.332, 0.0, 9.999923, 9.999344 
3.9503106e+2, 2.6497197e+2, -361554.25, -485364.97, 32163.69, 0.0075304983, -0.10061412, -353697.3, -10438.25, 0.0, 10.000419, 9.998787 
3.950329e+2, 2.749701e+2, -118293.65, -321212.28, 54569.29, 0.0018175559, -0.19761662, -104549.67, 140725.58, 0.0, 10.001424, 9.99876 
3.9503422e+2, 2.849686e+2, -23293.592, -355153.7, -200.00876, -0.010821965, -0.15995997, -23293.473, 123995.52, 0.000000010243951, 10.001975, 9.9975815 
3.950347e+2, 2.9496714e+2, 53392.99, -279550.8, 20241.777, -0.05791037, -0.10873393, 54619.1, 103922.58, 0.0000005130985, 10.001866, 9.997484 
3.9503667e+2, 3.0496207e+2, 60139.31, -301844.4, -38298.758, 0.055693034, -0.32793078, 64147.04, 64147.04, 0.0000059963604, 10.001807, 9.997038 
3.9503667e+2, 3.1496036e+2, 172750.67, 96930.09, 63161.434, 0.03497229, -0.24537386, 208505.55, 208505.55, 0.000027747768, 10.001039, 10.000143 
4.050202e+2, 1.2497603e+2, -1484334.5, -1678101.8, 14184.97, 0.13693978, -0.17269678, -1483301.5, 231921.67, 0.0001282802, 10.001804, 9.999363 
4.0501752e+2, 1.3497645e+2, -1730104.8, -1791333.5, -26700.854, -0.15612157, -0.06758583, -1720096.8, -102874.48, 0.00006493345, 9.999707, 9.998928 
4.0502182e+2, 1.4497593e+2, -1649408.4, -1588685.8, 33326.285, 0.1845469, -0.057054434, -1573964.3, -54735.984, 0.00002457309, 9.999071, 9.999938 
4.050212e+2, 1.5497616e+2, -1431612.0, -1446618.6, -2309.7458, -0.013198487, -0.06632, -1431264.5, -10039.669, 0.000005781208, 9.999955, 9.999821 
4.0502226e+2, 1.6497597e+2, -1278780.4, -1348328.8, -1530.4769, -0.021277258, -0.04913294, -1278746.6, 44479.348, 0.0000003430959, 10.000455, 9.999577 
4.0502396e+2, 1.7497535e+2, -1162169.9, -1245109.8, -32017.783, 0.031976417, -0.10421107, -1151248.0, 73983.35, 0.0, 10.000592, 9.999546 
4.0502492e+2, 1.8497461e+2, -1093712.4, -1193742.3, -18105.557, 0.021186428, -0.11237279, -1090536.1, 36702.156, 0.0, 10.000549, 9.999241 
4.0502554e+2, 1.9497335e+2, -1038811.44, -1124356.6, -8556.271, -0.009111233, -0.1951258, -1037964.06, -8713.6455, 0.0, 10.000278, 9.999185 
4.0502656e+2, 2.0497309e+2, -898265.5, -942174.75, -24766.727, 0.036526974, -0.16079085, -887123.4, 44128.71, 0.0, 10.000298, 9.999743 
4.0502775e+2, 2.149736e+2, -757500.56, -831733.75, -67574.7, 0.13824005, -0.120277055, -717519.94, 115725.66, 0.0, 10.000616, 9.999681 
4.0502852e+2, 2.2497317e+2, -690780.7, -845029.94, -32994.977, 0.15159632, -0.08097735, -684019.25, 51230.563, 0.0, 10.000826, 9.9988165 
4.0502894e+2, 2.349715e+2, -585270.7, -753611.75, -54141.023, 0.077283464, -0.16291127, -569361.6, 67906.19, 0.0, 10.000909, 9.998736 
4.050295e+2, 2.4497075e+2, -457750.66, -566743.06, -66105.03, 0.04245224, -0.13773361, -426574.75, 112700.04, 0.0, 10.000803, 9.999387 
4.0503028e+2, 2.5497076e+2, -397476.7, -487277.03, -96441.55, 0.048732437, -0.112711065, -335995.47, 105276.695, 0.0, 10.000549, 9.99938 
4.0503186e+2, 2.649698e+2, -354948.66, -478836.5, -27476.803, 0.052777678, -0.11496985, -349128.1, -5849.1597, 0.0, 10.000434, 9.998818 
4.050343e+2, 2.7496746e+2, -266103.47, -393426.53, -44430.49, 0.061288454, -0.2641822, -252132.16, -6833.628, 0.0, 10.000392, 9.99876 
4.0503603e+2, 2.8496602e+2, -207448.69, -435373.25, -62878.836, 0.054062724, -0.22397988, -191252.8, -43941.1, 0.0000000008315615, 10.000659, 9.997667 
4.050371e+2, 2.9496512e+2, -14320.636, -293068.16, -52744.28, 0.03854894, -0.12733313, -4674.249, 44647.637, 0.0000007104038, 10.001309, 9.997655 
4.0503803e+2, 3.0496e+2, 50603.293, -288112.1, -73288.57, 0.032615863, -0.36919206, 65780.805, 65780.805, 0.000009515816, 10.001658, 9.997206 
4.050385e+2, 3.1495908e+2, 210934.19, 118684.08, 7500.7065, 0.1230174, -0.2245209, 211540.08, 211540.08, 0.000039448827, 10.001242, 10.000207 
4.1502202e+2, 1.2497689e+2, -1471812.1, -1662174.5, -25405.693, 0.0489453, 0.021599166, -1468479.8, 246737.97, 0.00012596608, 10.00183, 9.999459 
4.1501716e+2, 1.3497543e+2, -1698246.9, -1749010.9, -94957.9, -0.20830199, -0.09261422, -1625337.3, -8105.5127, 0.00006410072, 9.999782, 9.999188 
4.150215e+2, 1.4497377e+2, -1677128.8, -1633512.0, 49565.844, 0.19883262, -0.19697784, -1601169.0, -81921.914, 0.00002430965, 9.999034, 9.999644 
4.15022e+2, 1.5497404e+2, -1461804.4, -1491125.5, 50199.047, 0.033410497, -0.17091742, -1424168.9, -2926.3984, 0.0000053776803, 9.999891, 9.999541 
4.150229e+2, 1.6497412e+2, -1321779.5, -1414158.1, -11340.755, -0.041302513, -0.090023264, -1320407.6, 2834.996, 0.0000002359893, 10.000352, 9.999172 
4.150232e+2, 1.7497416e+2, -1200817.3, -1306581.1, -9974.93, -0.1446897, -0.043658745, -1199884.8, 25361.438, 0.0, 10.000512, 9.999161 
4.150243e+2, 1.849739e+2, -1062254.3, -1103662.5, -44895.45, -0.12645549, -0.018515138, -1033518.9, 93728.92, 0.0, 10.000445, 9.999906 
4.1502675e+2, 1.9497293e+2, -1011212.9, -1034749.8, -4447.035, 0.052804705, -0.13889036, -1010400.7, 18850.586, 0.0, 10.000148, 9.999854 
4.1502792e+2, 2.0497206e+2, -971476.0, -1063538.0, -27960.986, 0.11268426, -0.16041185, -963649.1, -32391.53, 0.0, 10.000153, 9.998989 
4.150276e+2, 2.1497107e+2, -838043.9, -949000.06, -41775.78, 0.032601606, -0.19615535, -824073.9, 9194.928, 0.0, 10.0004015, 9.99898 
4.1502818e+2, 2.2497052e+2, -734380.2, -889287.5, -44734.71, 0.00736514, -0.124428555, -722389.7, 12886.565, 0.0, 10.000628, 9.998609 
4.1502964e+2, 2.3497008e+2, -624901.56, -793297.06, -35224.83, 0.027507992, -0.06400049, -617830.2, 19452.709, 0.0, 10.00073, 9.9985485 
4.1503045e+2, 2.4496919e+2, -501873.16, -630420.4, -88572.41, 0.022989515, -0.025375985, -456711.1, 82580.21, 0.0, 10.00068, 9.999007 
4.1503063e+2, 2.5496757e+2, -443935.63, -552759.3, -88614.82, -0.005948374, -0.12568136, -394360.78, 46943.188, 0.0, 10.000411, 9.998997 
4.1503227e+2, 2.649659e+2, -372801.25, -492040.38, -41978.395, 0.015569484, -0.17763482, -359505.28, -16188.114, 0.0, 10.000341, 9.998769 
4.1503522e+2, 2.749639e+2, -289549.84, -408055.16, -30671.633, 0.07299116, -0.2893947, -282082.0, -36748.816, 0.0, 10.00026, 9.998715 
4.150373e+2, 2.849628e+2, -180011.5, -381966.84, -56344.54, 0.07350741, -0.23239721, -165355.27, -18011.674, 0.00000000001177225, 10.000654, 9.998047 
4.1503862e+2, 2.9496226e+2, -919.22375, -240954.92, -9687.761, 0.0074892864, -0.13625216, -528.8638, 48822.434, 0.0000013022876, 10.001191, 9.998078 
4.1503873e+2, 3.0495787e+2, 99591.27, -170099.23, -93409.72, -0.098451614, -0.37226963, 128784.484, 128784.484, 0.000014575742, 10.001602, 9.998034 
4.150398e+2, 3.1495887e+2, 167700.0, 69632.77, 6851.7695, 0.048093572, -0.11134086, 168176.4, 168176.4, 0.000055427667, 10.001089, 9.999931 
4.2502353e+2, 1.2497556e+2, -1696049.6, -1792213.5, 71706.14, 0.107752904, -0.0012267906, -1657797.1, 57432.766, 0.00012015749, 10.000371, 9.999272 
4.250178e+2, 1.3497438e+2, -1518115.8, -1672003.1, -164811.69, -0.17225215, -0.08376226, -1413171.5, 204070.58, 0.00006079175, 10.001054, 9.999099 
4.250216e+2, 1.4497267e+2, -1349856.4, -1508527.6, 44608.45, 0.19419187, -0.17355792, -1338175.3, 181083.19, 0.00002257458, 10.001419, 9.999349 
4.2502263e+2, 1.5497242e+2, -1281771.5, -1433437.9, -135.51149, 0.054814663, -0.17523219, -1281771.4, 139487.9, 0.0000044461326, 10.001262, 9.999269 
4.2502367e+2, 1.6497232e+2, -1292421.3, -1413535.9, -46956.97, -0.0024246608, -0.08998349, -1276348.6, 46912.953, 0.00000009724189, 10.000628, 9.999041 
4.2502367e+2, 1.7497234e+2, -1358837.9, -1395524.1, -56763.465, -0.08575411, -0.029495092, -1317527.3, -92261.44, 0.0, 9.999495, 9.9990425 
4.250248e+2, 1.8497208e+2, -1185832.1, -1142187.4, -34852.598, -0.06752736, -0.008485588, -1122889.0, 4377.589, 0.0, 9.999483, 10.000115 
4.250274e+2, 1.9497113e+2, -937224.06, -978176.1, -57261.367, 0.090400994, -0.14913277, -896887.8, 132379.7, 0.0, 10.000541, 10.000061 
4.2502868e+2, 2.0497015e+2, -866274.7, -1061026.9, -65913.38, 0.13570975, -0.17169388, -846063.94, 85210.85, 0.0, 10.001095, 9.9985485 
4.2502844e+2, 2.1496885e+2, -769919.3, -971321.94, -89316.65, 0.050177395, -0.19054356, -736016.7, 97274.66, 0.0, 10.001104, 9.998493 
4.25029e+2, 2.2496808e+2, -675512.0, -840049.5, -48382.473, 0.020887801, -0.12428901, -662339.6, 72961.22, 0.0, 10.00095, 9.998784 
4.250303e+2, 2.349677e+2, -631490.8, -773065.3, -45322.676, 0.039072014, -0.07756401, -618224.6, 19080.268, 0.0, 10.000595, 9.998746 
4.250313e+2, 2.4496657e+2, -536722.3, -696080.8, -48293.504, 0.05015893, -0.050709303, -523229.44, 16085.744, 0.0, 10.000646, 9.998579 
4.2503202e+2, 2.5496432e+2, -369200.03, -570155.9, -83791.59, 0.063533135, -0.16725191, -338846.6, 102488.64, 0.0, 10.001139, 9.998537 
4.2503354e+2, 2.649625e+2, -250927.7, -459808.72, -25292.973, 0.07152224, -0.19801114, -247908.67, 95442.69, 0.0, 10.001295, 9.998542 
4.2503583e+2, 2.7496082e+2, -184877.52, -381715.88, -57320.977, 0.07840051, -0.25142774, -169401.89, 75963.91, 0.0, 10.001091, 9.998504 
4.250379e+2, 2.8495994e+2, -165580.97, -305404.53, -51485.098, 0.08524411, -0.19176401, -148668.95, -1294.6259, 0.0000000012455732, 10.000492, 9.998629 
4.2503992e+2, 2.9495952e+2, -201329.48, -272873.38, -27610.416, 0.11370914, -0.14129317, -191913.3, -142533.3, 0.0000019825331, 9.99955, 9.998642 
4.2504e+2, 3.049564e+2, -82064.77, -201077.45, -46942.67, -0.039319348, -0.30155602, -65777.85, -65777.85, 0.000019679212, 10.000123, 9.998531 
4.2504144e+2, 3.1495765e+2, 286732.25, 112235.79, -80392.95, 0.07850476, -0.06921795, 318123.3, 318123.3, 0.00007104561, 10.001964, 9.999808 
4.350241e+2, 1.2497209e+2, -1735873.5, -1853356.1, 134045.97, 0.047810495, -0.24290964, -1648263.0, 66996.08, 0.00011272219, 10.000312, 9.998874 
4.350191e+2, 1.3497333e+2, -1547705.8, -1727450.1, -120394.07, -0.19078544, -0.044725016, -1487339.0, 129913.96, 0.00005585788, 10.001046, 9.99872 
4.350215e+2, 1.449725e+2, -1384216.6, -1568306.6, 25513.893, -0.0045155156, -0.0037916193, -1380746.0, 138517.7, 0.000019900395, 10.00136, 9.998971 
4.3502256e+2, 1.5497123e+2, -1304326.8, -1483853.6, 10349.433, -0.12246184, -0.07361454, -1303732.0, 117543.54, 0.0000034951138, 10.001265, 9.998927 
4.3502405e+2, 1.649704e+2, -1294121.0, -1393412.1, -106861.82, -0.06386679, -0.0537176, -1225935.6, 97348.266, 0.000000032016867, 10.000537, 9.999218 
4.3502498e+2, 1.7496987e+2, -1359276.3, -1375039.8, -83425.3, 0.055464357, -0.067410626, -1283361.3, -58070.61, 0.0, 9.999409, 9.999219 
4.350258e+2, 1.8496917e+2, -1221874.8, -1185854.9, -9924.473, 0.05233824, -0.085346945, -1183301.4, -56007.04, 0.0, 9.99935, 9.999882 
4.3502697e+2, 1.9496809e+2, -973470.1, -1019324.8, -1180.9165, -0.04010124, -0.21692173, -973439.75, 55857.734, 0.0, 10.0004, 9.999847 
4.3502834e+2, 2.0496744e+2, -905740.06, -1103500.9, -81710.85, -0.037513334, -0.18725109, -876347.3, 54955.51, 0.0, 10.000921, 9.99834 
4.3502975e+2, 2.1496688e+2, -811658.2, -1017232.8, -73850.984, 0.040558577, -0.11232769, -787878.56, 45434.973, 0.0, 10.000928, 9.998262 
4.3503052e+2, 2.2496597e+2, -665690.0, -777193.44, -76227.055, 0.04547978, -0.074087046, -627002.2, 108320.445, 0.0, 10.000769, 9.999303 
4.3503052e+2, 2.3496439e+2, -620574.06, -707282.25, -42585.547, -0.030649507, -0.199057, -603157.25, 34176.03, 0.0, 10.00041, 9.999286 
4.3503165e+2, 2.4496287e+2, -596478.0, -787496.25, -45151.56, -0.008421883, -0.20875378, -586343.1, -46996.71, 0.0, 10.000513, 9.998009 
4.3503392e+2, 2.5496116e+2, -433307.66, -663815.8, -49446.652, 0.10408834, -0.22017589, -423148.5, 18216.201, 0.0, 10.0009775, 9.997965 
4.3503526e+2, 2.6495978e+2, -287257.25, -521406.38, -45867.695, 0.08024475, -0.158586, -278592.8, 64787.03, 0.0, 10.001227, 9.998156 
4.350356e+2, 2.749583e+2, -224744.2, -441400.06, -46597.51, -0.09245862, -0.15401873, -215147.3, 30248.078, 0.0, 10.000982, 9.998149 
4.350372e+2, 2.8495747e+2, -127814.62, -207934.42, -99338.805, -0.068274744, -0.10948991, -60762.453, 86641.32, 0.000000012355592, 10.000423, 9.999326 
4.3504068e+2, 2.9495704e+2, -174687.69, -190172.56, -43164.17, 0.19127198, -0.1278826, -138577.06, -89170.734, 0.0000027662056, 9.999443, 9.999258 
4.350415e+2, 3.0495572e+2, -79825.78, -193731.53, 11728.651, 0.06125455, -0.14300227, -78630.65, -78630.65, 0.000024180765, 10.000105, 9.998593 
4.3504247e+2, 3.1495515e+2, 250222.11, 75154.59, -23022.365, -0.09358112, -0.10173573, 253199.05, 253199.05, 0.00008333817, 10.001805, 9.999628 
4.450247e+2, 1.2496981e+2, -1651258.9, -1807534.8, 165748.05, 0.064863734, -0.2622875, -1546153.9, 169127.28, 0.00010688196, 10.00091, 9.998887 
4.450216e+2, 1.3497113e+2, -1554425.5, -1719329.8, -172243.34, -0.024659136, -0.06152836, -1445916.6, 171358.1, 0.000051033883, 10.000978, 9.998808 
4.450224e+2, 1.4497077e+2, -1445457.3, -1581586.8, 30772.49, -0.012892441, 0.015705232, -1438824.3, 80457.02, 0.000017295639, 10.000861, 9.999123 
4.450233e+2, 1.5497002e+2, -1422902.1, -1524439.4, 11029.26, -0.12127331, -0.020261588, -1421717.9, -429.09802, 0.0000027656245, 10.000368, 9.999083 
4.4502485e+2, 1.649692e+2, -1288607.5, -1377130.4, -44531.65, -0.025893273, -0.016062902, -1270082.5, 53213.7, 0.000000035556127, 10.000487, 9.99937 
4.45026e+2, 1.7496815e+2, -1081890.4, -1227337.8, -52832.41, 0.138806, -0.095816724, -1064725.3, 160580.02, 0.0, 10.001232, 9.999367 
4.450268e+2, 1.8496726e+2, -978355.75, -1109748.5, 57546.07, 0.13351329, -0.11990612, -956716.2, 170594.89, 0.0, 10.001231, 9.999481 
4.4502768e+2, 1.9496621e+2, -1000572.94, -1077587.6, 17096.318, 0.0005956774, -0.20678183, -996948.3, 32368.867, 0.0, 10.000429, 9.999422 
4.4502896e+2, 2.0496556e+2, -990751.8, -1109439.1, -19289.99, -0.023418682, -0.1678355, -987695.4, -56372.42, 0.0, 10.000213, 9.99863 
4.450305e+2, 2.1496505e+2, -844014.75, -996408.75, -6024.254, 0.051726114, -0.11732469, -843776.94, -10445.916, 0.0, 10.000566, 9.998569 
4.4503143e+2, 2.2496404e+2, -675052.6, -800752.7, 1492.176, 0.06981964, -0.09660955, -675034.94, 60305.348, 0.0, 10.000784, 9.999132 
4.450317e+2, 2.3496221e+2, -573803.56, -708445.56, -48008.332, 0.035428785, -0.22816035, -558438.94, 78915.15, 0.0, 10.000826, 9.999079 
4.4503295e+2, 2.4496067e+2, -525484.7, -760503.9, -8924.049, 0.052269403, -0.2293591, -525146.3, 14221.596, 0.0, 10.00103, 9.997949 
4.4503516e+2, 2.549592e+2, -381136.06, -643412.0, -5775.4536, 0.1220537, -0.2106944, -381008.94, 60374.99, 0.0, 10.001359, 9.997922 
4.450363e+2, 2.6495785e+2, -309970.8, -536485.3, 26035.234, 0.07896469, -0.13837406, -307016.88, 36381.94, 0.0, 10.0011, 9.998102 
4.450362e+2, 2.749563e+2, -321401.5, -496281.5, 14416.094, -0.08855738, -0.13890797, -320221.1, -74804.56, 0.0, 10.000357, 9.998069 
4.4503748e+2, 2.8495532e+2, -152580.88, -233376.13, -18679.068, -0.06903536, -0.094735496, -148471.47, -1044.996, 0.00000003062236, 10.000293, 9.999226 
4.4504088e+2, 2.9495484e+2, 3639.0242, -110342.414, -58718.59, 0.21615212, -0.108940326, 28476.264, 77905.805, 0.0000032986038, 10.000702, 9.9992 
4.4504252e+2, 3.04954e+2, -37665.516, -199794.03, 31514.244, 0.15027875, -0.06530034, -31755.287, -31755.287, 0.000027227657, 10.000498, 9.998354 
4.4504386e+2, 3.1495225e+2, -36899.84, -57155.89, -113246.94, -0.018467523, -0.117966615, 66671.06, 66671.06, 0.000091368296, 9.999807, 9.99967 
4.550243e+2, 1.2496859e+2, -1631530.6, -1763187.9, 143661.03, -0.15138732, -0.08373575, -1539334.3, 175963.11, 0.000102696926, 10.000893, 9.999199 
4.5502466e+2, 1.3496779e+2, -1515186.8, -1654412.8, -152105.0, 0.14151691, -0.13857035, -1417521.8, 199785.44, 0.000047349753, 10.001034, 9.999231 
4.5502377e+2, 1.4496739e+2, -1403072.9, -1480810.3, 1769.351, -0.010206677, -0.12290359, -1403032.6, 116279.72, 0.000015080613, 10.000815, 9.999832 
4.550244e+2, 1.5496874e+2, -1382110.1, -1426957.4, 11039.845, -0.091617696, -0.015913136, -1379539.9, 41759.75, 0.0000021144335, 10.000322, 9.99977 
4.5502558e+2, 1.6496871e+2, -1286651.8, -1355760.0, -34992.563, -0.0379643, 0.024601182, -1272028.0, 51270.234, 0.00000004449902, 10.000407, 9.999554 
4.550264e+2, 1.7496723e+2, -1076314.6, -1207722.4, -7350.9575, 0.01853585, -0.11822262, -1075904.8, 149404.7, 0.0, 10.001194, 9.99952 
4.5502737e+2, 1.8496634e+2, -1039654.2, -1212800.3, 11224.052, 0.032748997, -0.119039856, -1038929.6, 88387.51, 0.0, 10.001128, 9.99882 
4.55029e+2, 1.9496557e+2, -1071617.6, -1186488.3, 560.44727, 0.054571144, -0.11147731, -1071614.9, -42288.902, 0.0, 10.000269, 9.998747 
4.5503e+2, 2.0496467e+2, -961519.2, -1011703.3, -22779.715, 0.027866999, -0.10154834, -952721.3, -21387.27, 0.0, 10.000046, 9.999383 
4.550302e+2, 2.1496339e+2, -819558.4, -894682.2, 22411.564, -0.06599236, -0.20492105, -813380.44, 19963.01, 0.0, 10.000347, 9.999371 
4.5503137e+2, 2.2496232e+2, -763162.56, -942541.1, -11407.473, -0.042385, -0.18640928, -762440.0, -27086.615, 0.0, 10.000599, 9.998255 
4.5503336e+2, 2.3496115e+2, -657906.4, -845985.94, -29660.447, 0.08495177, -0.16630903, -653339.75, -15972.3955, 0.0, 10.00066, 9.998218 
4.5503467e+2, 2.4495994e+2, -515318.72, -701869.5, -10206.846, 0.09142071, -0.11179513, -514761.9, 24617.588, 0.0, 10.000876, 9.998428 
4.5503536e+2, 2.5495836e+2, -368633.56, -579257.5, 24452.686, -0.024079226, -0.14646277, -365831.97, 75561.02, 0.0, 10.001194, 9.998446 
4.5503628e+2, 2.6495665e+2, -315663.66, -521405.53, -13630.75, -0.06353475, -0.14655514, -314764.53, 28644.76, 0.0, 10.00099, 9.998251 
4.5503724e+2, 2.7495465e+2, -334307.94, -491768.47, 7453.6265, -0.057755176, -0.21376641, -333955.9, -88525.36, 0.0, 10.000225, 9.998157 
4.5503822e+2, 2.8495356e+2, -219353.58, -361382.8, -16886.416, -0.059025396, -0.14171374, -217373.5, -69931.2, 0.000000022691747, 10.000236, 9.998378 
4.5504e+2, 2.9495287e+2, -58742.04, -229590.58, -25519.799, 0.011544836, -0.089794725, -55011.58, -5561.879, 0.0000033720132, 10.000635, 9.998423 
4.5504254e+2, 3.0495107e+2, -78489.65, -270556.03, -1648.025, 0.066008605, -0.080030605, -78475.51, -78475.51, 0.000028360193, 10.000454, 9.997878 
4.5504478e+2, 3.1494853e+2, -35995.695, -26076.738, -110287.305, 0.014302903, -0.1722844, 79362.54, 79362.54, 0.00009465621, 9.999686, 9.999935 
4.650249e+2, 1.24966554e+2, -1749543.4, -1782967.6, 162606.58, -0.11156642, 0.012946626, -1602792.4, 112529.14, 0.00009773488, 9.999883, 9.999553 
4.6502683e+2, 1.3496536e+2, -1457761.0, -1583681.5, -144721.16, 0.2633157, -0.12915288, -1362897.9, 254434.14, 0.000043477085, 10.001199, 9.999651 
4.6502405e+2, 1.4496478e+2, -1332183.1, -1440726.5, -29603.293, -0.07652045, -0.15659669, -1324634.3, 194703.2, 0.000012657647, 10.00128, 9.999884 
4.6502516e+2, 1.5496622e+2, -1418641.6, -1436843.8, -111786.08, -0.018526254, -0.044901814, -1315586.8, 105737.03, 0.0000014631825, 10.000048, 9.999834 
4.6502647e+2, 1.6496643e+2, -1365893.6, -1359609.8, -80730.82, 0.055885386, -0.0005611289, -1281959.8, 41359.97, 0.000000030371112, 9.999724, 9.999851 
4.6502715e+2, 1.7496517e+2, -1181330.5, -1223100.8, -77441.02, 0.02578347, -0.14975575, -1122007.8, 103319.75, 0.0, 10.000324, 9.999831 
4.6502823e+2, 1.8496455e+2, -1122906.8, -1267229.4, -45648.934, 0.04267442, -0.13414378, -1109680.3, 17653.086, 0.0, 10.000593, 9.99872 
4.650302e+2, 1.9496417e+2, -1046723.3, -1189115.3, -43498.547, 0.14844432, -0.07884801, -1034486.75, -5145.543, 0.0, 10.000469, 9.9986515 
4.6503115e+2, 2.0496348e+2, -880089.3, -944141.4, -2382.4038, 0.1288188, -0.05772285, -880000.9, 51346.96, 0.0, 10.000471, 9.999646 
4.6503097e+2, 2.1496217e+2, -762698.8, -843461.1, -30351.07, -0.029829461, -0.18555056, -752564.4, 80791.414, 0.0, 10.000624, 9.999596 
4.6503207e+2, 2.2496113e+2, -755825.3, -949336.8, -30462.996, -0.027356679, -0.17124075, -751143.0, -15777.41, 0.0, 10.000718, 9.998132 
4.650345e+2, 2.3496005e+2, -646314.0, -853677.9, -26996.44, 0.1356118, -0.12769511, -642857.0, -5476.9673, 0.0, 10.00082, 9.998075 
4.6503592e+2, 2.4495903e+2, -501392.34, -658429.6, 45465.35, 0.14429654, -0.065271996, -489179.1, 50211.195, 0.0, 10.000808, 9.998752 
4.6503654e+2, 2.5495774e+2, -423457.75, -569734.4, 35905.348, 0.009986161, -0.10813002, -415119.66, 26279.896, 0.0, 10.000662, 9.998759 
4.650374e+2, 2.6495597e+2, -368376.44, -568554.0, -7877.5767, -0.025253985, -0.12223853, -368066.9, -24650.877, 0.0, 10.000696, 9.998087 
4.6503842e+2, 2.7495354e+2, -261663.2, -474412.88, -35844.676, 0.019669553, -0.20854196, -255786.33, -10344.876, 0.0, 10.000791, 9.998014 
4.6503907e+2, 2.8495222e+2, -184529.84, -386796.56, -991.73114, -0.008227162, -0.1361836, -184524.98, -37068.613, 0.00000001636591, 10.000662, 9.997993 
4.6504027e+2, 2.949513e+2, -112959.914, -283764.28, -23161.332, -0.0066142487, -0.073069364, -109874.92, -60408.273, 0.0000038591365, 10.000397, 9.998153 
4.650432e+2, 3.04949e+2, -81374.24, -257274.13, 60122.895, 0.10165953, -0.11213703, -62788.02, -62788.02, 0.000029778155, 10.00033, 9.998066 
4.6504554e+2, 3.1494698e+2, 59720.06, 32486.926, -55709.96, 0.11079007, -0.15210629, 103453.39, 103453.39, 0.00009717631, 10.000269, 10.000084 
4.750256e+2, 1.2496358e+2, -1734670.1, -1710492.9, 76340.0, -0.117068134, 0.030871663, -1645290.3, 70064.27, 0.00009217974, 9.999742, 10.000101 
4.7502765e+2, 1.349638e+2, -1420796.6, -1494165.0, -75038.266, 0.18318829, -0.03120886, -1373955.6, 243394.1, 0.00003847725, 10.001171, 10.000263 
4.7502267e+2, 1.4496294e+2, -1378133.8, -1532278.3, -93406.93, -0.39471528, -0.084874175, -1334106.9, 185249.84, 0.000009911169, 10.001245, 9.999282 
4.7502518e+2, 1.5496242e+2, -1453469.5, -1517942.0, -142487.73, -0.06482905, -0.11162221, -1339617.0, 81744.98, 0.0000009593812, 10.000072, 9.999274 
4.7502714e+2, 1.6496223e+2, -1345384.9, -1300338.1, -73853.42, 0.11307702, -0.09987573, -1245649.9, 77711.66, 0.000000014696447, 9.999656, 10.000295 
4.7502774e+2, 1.7496198e+2, -1162589.9, -1165973.4, -36402.113, 0.018786445, -0.18775497, -1127840.3, 97519.37, 0.0, 10.000249, 10.000264 
4.7502884e+2, 1.8496202e+2, -1102469.0, -1200384.8, -63912.492, 0.008604047, -0.15338299, -1070918.0, 56440.992, 0.0, 10.0004835, 9.999236 
4.7503084e+2, 1.9496205e+2, -1026241.94, -1122647.6, -30812.654, 0.134269, -0.10672511, -1017235.25, 12127.126, 0.0, 10.0003605, 9.999166 
4.7503203e+2, 2.0496199e+2, -920768.06, -991380.6, -11321.883, 0.14057778, -0.034076724, -918997.2, 12366.835, 0.0, 10.000317, 9.999392 
4.750323e+2, 2.1496151e+2, -809862.5, -891937.94, -7657.739, 0.0074527017, -0.056499578, -809154.1, 24212.963, 0.0, 10.000421, 9.999355 
4.750331e+2, 2.249605e+2, -738721.1, -882167.8, -41553.008, -0.030157344, -0.05248265, -727553.6, 7822.5464, 0.0, 10.0005665, 9.998674 
4.7503465e+2, 2.3495878e+2, -632182.5, -784719.06, -7252.3345, 0.03532633, -0.12787451, -631838.44, 5554.7773, 0.0, 10.000642, 9.998637 
4.750363e+2, 2.4495775e+2, -511490.22, -649639.06, 26370.674, 0.06500015, -0.10279716, -506627.6, 32774.477, 0.0, 10.000671, 9.998881 
4.750381e+2, 2.5495705e+2, -438020.6, -570197.1, 47826.574, 0.06387585, -0.1005612, -422530.44, 18875.334, 0.0, 10.000519, 9.99883 
4.7503918e+2, 2.649556e+2, -412129.53, -630600.0, -20104.145, 0.049732607, -0.065846205, -410294.9, -66874.63, 0.0, 10.00058, 9.997711 
4.750392e+2, 2.7495307e+2, -302580.56, -529717.94, -14514.289, -0.013840135, -0.12818445, -301656.84, -56207.66, 0.0, 10.000672, 9.997686 
4.7503957e+2, 2.849512e+2, -192632.08, -397663.78, -27675.23, -0.06148431, -0.0876163, -188962.17, -41492.76, 0.0000000367379, 10.000627, 9.99794 
4.75041e+2, 2.9494977e+2, -133569.92, -302452.84, -17159.729, -0.015227892, -0.0753253, -131844.02, -82360.39, 0.000004901276, 10.000272, 9.998095 
4.7504395e+2, 3.0494744e+2, -34159.84, -128368.89, 42881.33, 0.1183311, -0.16135554, -17564.719, -17564.719, 0.000032907166, 10.000217, 9.998996 
4.7504508e+2, 3.1494778e+2, 52340.33, 44780.957, -4789.9634, -0.04046174, -0.0538936, 54662.266, 54662.266, 0.00010232853, 10.000171, 10.000202 
4.8502597e+2, 1.24960735e+2, -1819080.1, -1713991.3, 76636.38, 0.004558094, 0.010170014, -1673616.1, 41768.914, 0.00008688649, 9.998998, 10.000447 
4.8502883e+2, 1.3496214e+2, -1560974.5, -1520781.3, -34296.09, 0.2615411, 0.03269433, -1501127.4, 116240.586, 0.000032757685, 10.000019, 10.000653 
4.850231e+2, 1.4496161e+2, -1462627.8, -1561328.5, -46767.21, -0.43254623, -0.012195545, -1443988.3, 75382.67, 0.000007215262, 10.000628, 9.999371 
4.850263e+2, 1.5495999e+2, -1299087.0, -1438861.9, -89283.7, 0.0015468734, -0.1561725, -1255590.9, 165794.48, 0.00000059770906, 10.00111, 9.999314 
4.850281e+2, 1.6495968e+2, -1165913.4, -1219447.4, 28455.541, 0.1886874, -0.15698464, -1153613.9, 169772.45, 0.0000000048834687, 10.000926, 10.000228 
4.8502782e+2, 1.7496036e+2, -1193178.9, -1182222.8, -14.691263, 0.020105375, -0.15055239, -1182222.6, 43154.57, 0.0, 10.000073, 10.000217 
4.8502883e+2, 1.8496056e+2, -1141724.8, -1180921.1, -2768.143, -0.006973791, -0.114583656, -1141530.1, -14155.667, 0.0, 10.000063, 9.999556 
4.8503155e+2, 1.9496003e+2, -929248.9, -1031869.6, -10120.025, 0.15038532, -0.16177593, -928260.44, 101120.24, 0.0, 10.000862, 9.999524 
4.8503295e+2, 2.0496005e+2, -824705.4, -960317.0, 16512.115, 0.17235522, -0.09146948, -822723.8, 108657.54, 0.0, 10.001029, 9.999276 
4.8503315e+2, 2.1496032e+2, -822276.56, -907910.6, 5213.8794, 0.062788546, -0.027141994, -821960.25, 11419.417, 0.0, 10.000372, 9.999278 
4.8503402e+2, 2.2495963e+2, -759842.9, -841413.0, 19031.592, 0.03272461, -0.013670075, -755621.0, -20235.37, 0.0, 10.000195, 9.999141 
4.8503563e+2, 2.3495762e+2, -622161.6, -732474.8, 14681.736, 0.08513855, -0.15841915, -620241.06, 17161.068, 0.0, 10.000487, 9.999081 
4.8503727e+2, 2.449563e+2, -526656.9, -681611.0, 54299.08, 0.10706163, -0.17378804, -509523.78, 29889.469, 0.0, 10.000674, 9.99866 
4.8503903e+2, 2.549554e+2, -429507.0, -589774.9, 14241.265, 0.10533032, -0.16588897, -428251.38, 13169.559, 0.0, 10.000693, 9.99861 
4.850401e+2, 2.6495436e+2, -408608.2, -606878.6, -15908.636, 0.09436711, -0.09264327, -407339.84, -63906.86, 0.0, 10.000507, 9.997908 
4.8504022e+2, 2.7495262e+2, -370233.94, -544161.4, -2236.6433, 0.056862485, -0.091808915, -370205.2, -124750.97, 0.0, 10.000116, 9.997862 
4.850405e+2, 2.8495073e+2, -242730.47, -408142.9, 56723.047, -0.0034852608, -0.06715438, -225148.0, -77673.89, 0.00000008825205, 10.000219, 9.998065 
4.8504156e+2, 2.949488e+2, -48907.895, -250442.11, 39189.906, -0.0015777344, -0.11574976, -41555.35, 7936.832, 0.0000056092463, 10.000802, 9.998197 
4.8504463e+2, 3.0494678e+2, 39798.992, -67665.24, 95483.92, 0.16065867, -0.18801068, 95631.1, 95631.1, 0.000035389916, 10.000614, 9.999212 
4.8504552e+2, 3.149477e+2, -44008.023, -26548.656, -50207.53, 0.033440232, -0.04354361, 15682.465, 15682.465, 0.00010599746, 9.999608, 9.99998 
4.9502468e+2, 1.2495793e+2, -1805740.5, -1692566.1, -95298.29, -0.113554776, -0.051469225, -1638320.8, 77093.08, 0.00007926606, 9.999026, 10.000579 
4.950299e+2, 1.3496041e+2, -1541843.6, -1484796.3, 17320.244, 0.3295128, 0.055338226, -1479949.4, 137437.63, 0.000026309035, 10.000032, 10.000893 
4.950249e+2, 1.4496082e+2, -1427061.6, -1470065.0, -46310.465, -0.36384156, 0.057728972, -1397504.6, 121875.27, 0.0000047383246, 10.000556, 10.000031 
4.9502802e+2, 1.5495905e+2, -1260563.0, -1347472.1, -53951.79, 0.020188741, -0.16713877, -1234742.0, 186651.27, 0.0000002991547, 10.001065, 9.999961 
4.9502876e+2, 1.6495891e+2, -1210374.0, -1297564.6, -20460.969, 0.12854312, -0.15731607, -1205811.1, 117581.84, 0.0000000005507737, 10.000861, 9.999725 
4.9502704e+2, 1.749602e+2, -1238229.0, -1261111.3, -18561.375, -0.103109114, -0.03812557, -1227866.0, -2484.8145, 0.0, 10.000008, 9.99971 
4.9502796e+2, 1.8496002e+2, -1145354.5, -1159281.4, 12543.425, -0.13669309, -0.022858249, -1137971.3, -10590.105, 0.0, 9.999944, 9.999758 
4.950317e+2, 1.9495802e+2, -933745.06, -1011787.3, 34126.19, 0.04421516, -0.23722337, -920927.56, 108469.35, 0.0, 10.000734, 9.999723 
4.950334e+2, 2.0495768e+2, -840817.3, -955630.8, -24852.547, 0.08747967, -0.22196035, -835668.56, 95731.3, 0.0, 10.000857, 9.999394 
4.950331e+2, 2.1495871e+2, -838240.06, -906909.44, -2962.8813, -0.011198253, -0.09251399, -838112.44, -4719.7646, 0.0, 10.000211, 9.999368 
4.9503428e+2, 2.249584e+2, -766821.0, -810832.8, 16238.569, 0.007811345, -0.057676356, -761478.25, -26083.848, 0.0, 10.00001, 9.999434 
4.95037e+2, 2.3495649e+2, -628500.94, -700441.75, 44335.17, 0.13824654, -0.23023824, -607379.5, 30028.129, 0.0, 10.000294, 9.9993925 
4.9503845e+2, 2.449547e+2, -591322.94, -778172.06, 40305.855, 0.12616912, -0.27517045, -582999.2, -43575.645, 0.0, 10.000522, 9.99807 
4.950388e+2, 2.5495273e+2, -489596.0, -685056.44, 33011.965, -0.023209024, -0.31423563, -484171.06, -42725.242, 0.0, 10.000566, 9.998018 
4.9503967e+2, 2.6495197e+2, -373485.5, -506946.3, -47300.7, -0.033072054, -0.2158584, -358421.63, -14965.688, 0.0, 10.000401, 9.99864 
4.9504086e+2, 2.7495214e+2, -347014.9, -451937.75, 847.6645, 0.07525065, -0.10122904, -347008.03, -101551.06, 0.0, 9.999938, 9.998575 
4.9504122e+2, 2.84951e+2, -235353.97, -368203.28, 66727.54, 0.013434977, -0.056236625, -207625.56, -60157.055, 0.00000018947561, 10.00012, 9.998383 
4.9504143e+2, 2.9494843e+2, -41923.273, -215518.55, 82179.57, -0.14089522, -0.19433263, -9191.368, 40300.42, 0.000005650319, 10.000723, 9.998469 
4.950449e+2, 3.04947e+2, 7702.748, -138596.1, 48195.855, 0.09092296, -0.19644445, 22152.861, 22152.861, 0.00003451672, 10.000617, 9.998728 
4.950458e+2, 3.149468e+2, -100247.87, -120494.22, -30741.906, 0.019127587, -0.12564854, -78005.266, -78005.266, 0.00010176044, 9.999501, 9.999384 
5.050242e+2, 1.24957845e+2, -1767230.6, -1668049.6, -33499.516, -0.061907217, -0.009227684, -1657795.0, 57618.758, 0.000066640154, 9.999288, 10.000607 
5.050303e+2, 1.3495901e+2, -1527991.3, -1484697.0, 131501.7, 0.37539658, -0.028656645, -1373072.6, 244326.47, 0.0000195532, 10.000152, 10.000834 
5.050268e+2, 1.4495963e+2, -1444861.1, -1459009.9, 55839.594, -0.20289996, -0.01012555, -1395649.6, 123740.3, 0.0000028130235, 10.0003605, 10.000198 
5.0502896e+2, 1.5495907e+2, -1362730.9, -1372798.5, -28168.75, 0.061367948, -0.13140565, -1339149.8, 82242.47, 0.00000011765629, 10.000281, 10.000158 
5.050293e+2, 1.6495907e+2, -1280347.9, -1375393.9, 13943.693, 0.118617825, -0.09805864, -1278344.5, 45046.68, 0.000000000026416515, 10.00055, 9.999351 
5.0502783e+2, 1.7495938e+2, -1102825.0, -1240004.4, -4358.0938, -0.07004361, -0.037347026, -1102686.6, 122703.25, 0.0, 10.001103, 9.999337 
5.0502867e+2, 1.8495879e+2, -987824.7, -1089304.0, 61603.87, -0.10174354, -0.042992987, -958754.9, 168639.19, 0.0, 10.001043, 9.999718 
5.050321e+2, 1.9495699e+2, -996354.8, -1045642.56, 36476.86, 0.043919362, -0.23088196, -976977.3, 52429.477, 0.0, 10.00032, 9.999695 
5.050338e+2, 2.0495652e+2, -961536.8, -1005827.56, -20692.229, 0.09373734, -0.22898884, -953374.0, -21963.877, 0.0, 10.000016, 9.999437 
5.0503373e+2, 2.149571e+2, -865430.6, -913821.25, -41493.496, 0.05221245, -0.14749263, -841593.44, -8186.7085, 0.0, 10.000025, 9.999395 
5.050349e+2, 2.2495678e+2, -733000.3, -802421.3, 19068.305, 0.07334338, -0.11000297, -728107.56, 7301.3164, 0.0, 10.000265, 9.999378 
5.0503755e+2, 2.3495537e+2, -590779.9, -682172.8, -13804.116, 0.16379946, -0.22807044, -588740.4, 48678.086, 0.0, 10.000572, 9.999376 
5.0503904e+2, 2.449539e+2, -577379.44, -766898.2, 11036.829, 0.13803743, -0.24314381, -576738.9, -37306.41, 0.0, 10.000591, 9.998113 
5.050396e+2, 2.5495204e+2, -515506.28, -689095.94, 22370.379, 0.015066298, -0.2759778, -512669.78, -71215.39, 0.0, 10.000355, 9.998087 
5.050404e+2, 2.6495126e+2, -351440.9, -477253.16, -16928.256, 0.0073763044, -0.19351336, -349203.0, -5738.535, 0.0, 10.000455, 9.998833 
5.0504136e+2, 2.7495128e+2, -211559.08, -365741.38, -48847.473, 0.10377265, -0.11363346, -197386.2, 48079.344, 0.00000000061010413, 10.000763, 9.998777 
5.050419e+2, 2.8495032e+2, -143881.9, -305667.56, 31116.543, 0.053455755, -0.0692817, -138103.6, 9371.239, 0.00000027597625, 10.000665, 9.998558 
5.0504243e+2, 2.949483e+2, -119760.875, -238083.61, -2034.662, -0.07135929, -0.16826469, -119725.9, -70232.57, 0.0000049916057, 10.000124, 9.9986105 
5.0504625e+2, 3.0494705e+2, -69190.72, -200806.53, -4020.6375, 0.20071855, -0.14313544, -69068.01, -69068.01, 0.000030276777, 10.000203, 9.998498 
5.050461e+2, 3.1494612e+2, 62073.13, -51662.875, -103346.0, 0.057944495, -0.13331398, 123164.3, 123164.3, 0.000090633286, 10.00066, 9.999298 
5.1502305e+2, 1.2496054e+2, -1771524.1, -1687515.8, -174086.19, -0.18737362, 0.1439057, -1550438.0, 164946.73, 0.000052165007, 9.999321, 10.000458 
5.1502955e+2, 1.3495806e+2, -1549182.0, -1536936.9, 178219.97, 0.24351324, -0.21258377, -1364734.4, 252668.83, 0.000013925394, 10.000181, 10.000463 
5.150284e+2, 1.449581e+2, -1473474.8, -1513095.3, 30466.018, -0.12998411, -0.21169847, -1456944.6, 62455.516, 0.000001645238, 10.000332, 9.9998455 
5.1502883e+2, 1.5495995e+2, -1392106.9, -1426259.6, -14059.058, -0.023734072, -0.057632796, -1387064.0, 34318.664, 0.00000003629146, 10.000246, 9.999812 
5.150292e+2, 1.6496006e+2, -1311088.8, -1416384.4, 20507.385, 0.014544834, 0.014546426, -1307235.8, 16146.442, 0.0, 10.000456, 9.99911 
5.150296e+2, 1.74958e+2, -1132955.3, -1282143.8, 33416.41, -0.042308275, -0.13985746, -1125812.4, 99590.62, 0.0, 10.001024, 9.99908 
5.1503056e+2, 1.8495706e+2, -1020971.75, -1135154.9, 19158.596, -0.055296306, -0.15590133, -1017842.94, 109568.36, 0.0, 10.000937, 9.999452 
5.1503235e+2, 1.9495693e+2, -1025303.6, -1090660.3, 26044.49, -0.0074908365, -0.15384202, -1016194.56, 13215.454, 0.0, 10.000242, 9.999426 
5.1503366e+2, 2.0495644e+2, -1000752.25, -1046273.25, -35801.55, 0.04890876, -0.12966393, -981088.8, -49675.61, 0.0, 9.999841, 9.999245 
5.150347e+2, 2.1495531e+2, -900001.1, -948043.94, -25853.096, 0.11024092, -0.20528059, -888732.2, -55308.51, 0.0, 9.999857, 9.999242 
5.1503575e+2, 2.2495463e+2, -781040.56, -868770.2, 13123.106, 0.1006316, -0.179865, -779119.56, -43689.094, 0.0, 10.0001135, 9.9990015 
5.150369e+2, 2.3495415e+2, -639597.8, -751047.6, 13963.824, 0.0045163217, -0.16431715, -637874.9, -438.92386, 0.0, 10.000424, 9.9989805 
5.1503843e+2, 2.449538e+2, -541301.44, -665169.8, -12981.874, -0.013164297, -0.08546678, -539955.5, -514.79517, 0.0, 10.000479, 9.998862 
5.1504064e+2, 2.549533e+2, -486636.44, -592179.06, 30829.479, 0.05331288, -0.06128423, -478290.9, -36843.39, 0.0, 10.000187, 9.998835 
5.1504177e+2, 2.649522e+2, -394350.38, -538099.56, -21282.568, 0.06539025, -0.030240642, -391265.6, -47806.516, 0.0, 10.000339, 9.998472 
5.1504153e+2, 2.7494994e+2, -251593.67, -427110.63, -14169.175, -0.0020404158, -0.13255022, -250457.19, -4976.6323, 0.0000000018853024, 10.000661, 9.998413 
5.1504207e+2, 2.8494868e+2, -148853.33, -304673.38, -5408.336, -0.036349077, -0.10307, -148665.84, -1172.4872, 0.00000034894228, 10.00062, 9.998583 
5.15044e+2, 2.9494834e+2, -139343.27, -253660.25, -545.87164, 0.015758185, -0.044479277, -139340.66, -89842.7, 0.000004315403, 10.000009, 9.99856 
5.15048e+2, 3.0494693e+2, -77475.016, -194507.16, 4892.7207, 0.32331005, -0.03425261, -77270.82, -77270.82, 0.000026122347, 10.000127, 9.998572 
5.150456e+2, 3.14945e+2, 64565.07, -3229.464, 680.1994, -0.1402803, -0.121711664, 64571.895, 64571.895, 0.000081293096, 10.0005, 9.999703 
5.2502334e+2, 1.2496033e+2, -1812540.3, -1705088.5, -208331.64, -0.065987565, 0.06948276, -1543666.6, 171716.77, 0.000041919076, 9.999022, 10.000481 
5.250284e+2, 1.3495843e+2, -1564839.5, -1565663.0, 146487.94, 0.12640443, -0.20856468, -1418762.8, 198634.08, 0.000010470756, 10.000167, 10.00027 
5.2503014e+2, 1.4495836e+2, -1456967.9, -1549033.0, 16314.573, 0.0020530669, -0.18948923, -1454162.4, 65233.61, 0.0000009776196, 10.000629, 9.999455 
5.250294e+2, 1.5495954e+2, -1324920.4, -1436580.6, -66969.77, -0.006244286, -0.06388369, -1293561.3, 127825.29, 0.000000005050013, 10.000881, 9.9994335 
5.2502954e+2, 1.649594e+2, -1256102.4, -1379209.1, 12400.873, 0.0035857093, -0.0039322204, -1254865.6, 68523.68, 0.0, 10.000795, 9.999202 
5.2503085e+2, 1.7495747e+2, -1220125.4, -1316158.5, 12792.101, 0.02134062, -0.15279807, -1218450.6, 6957.6587, 0.0, 10.000383, 9.999162 
5.25032e+2, 1.8495674e+2, -1099363.0, -1194517.5, 37019.184, 0.024797978, -0.13930698, -1086657.5, 40757.656, 0.0, 10.000505, 9.999257 
5.250332e+2, 1.9495697e+2, -925258.5, -1062168.8, 13385.837, 0.02416185, -0.075383976, -923962.0, 105450.25, 0.0, 10.001044, 9.999233 
5.250344e+2, 2.0495619e+2, -799045.5, -984190.5, -13341.636, 0.069772266, -0.0538315, -798089.0, 133329.67, 0.0, 10.001363, 9.998941 
5.250357e+2, 2.1495412e+2, -697576.44, -887800.0, -41500.008, 0.16050288, -0.19383074, -688916.8, 144520.6, 0.0, 10.001394, 9.9989195 
5.250366e+2, 2.2495316e+2, -670404.56, -838547.44, 15969.72, 0.1349263, -0.16843037, -668901.25, 66546.2, 0.0, 10.0009985, 9.998765 
5.2503693e+2, 2.3495297e+2, -688080.7, -803873.75, -7299.7754, -0.010709154, -0.09675819, -687622.3, -50170.254, 0.0, 10.000223, 9.998711 
5.2503854e+2, 2.4495281e+2, -584558.8, -657400.25, -8974.017, -0.027063586, 0.0017773361, -583469.5, -44014.242, 0.0, 10.000049, 9.999135 
5.250414e+2, 2.5495252e+2, -431246.13, -535485.5, -32463.137, 0.1036613, 0.01846111, -421962.9, 19495.805, 0.0, 10.000436, 9.999111 
5.2504265e+2, 2.6495126e+2, -353588.38, -505254.0, -47452.33, 0.11991691, 0.01592415, -339965.4, 3504.6606, 0.0, 10.00057, 9.998573 
5.250422e+2, 2.749487e+2, -278127.72, -417273.22, -40395.902, 0.024110666, -0.1342478, -267250.5, -21757.408, 0.00000000009174081, 10.000422, 9.998569 
5.250427e+2, 2.8494737e+2, -173855.44, -332089.5, 8359.149, -0.014897025, -0.11312287, -173415.06, -25908.873, 0.00000033351301, 10.000518, 9.998437 
5.2504456e+2, 2.9494712e+2, -30783.785, -215540.77, -38600.14, 0.05250466, -0.030189583, -23043.563, 26467.375, 0.0000041082662, 10.000817, 9.998425 
5.250491e+2, 3.049459e+2, 45436.45, -115232.875, 14564.22, 0.3944934, -0.0029539815, 46745.98, 46745.98, 0.000024723933, 10.000868, 9.998777 
5.2504665e+2, 3.1494412e+2, 35012.12, -4433.8696, -6196.249, -0.049979433, -0.090776324, 35962.54, 35962.54, 0.00007789345, 10.000226, 9.999841 
5.3502345e+2, 1.2495718e+2, -1784351.4, -1657493.0, -223284.27, -0.04967406, -0.2367719, -1488803.4, 226606.98, 0.000035694404, 9.999078, 10.000776 
5.3502643e+2, 1.3496016e+2, -1574392.5, -1580143.3, 195474.55, -0.12285305, -0.016148657, -1381772.3, 235607.48, 0.000008273398, 10.000143, 10.000188 
5.350313e+2, 1.4496046e+2, -1496638.0, -1614693.8, 7099.3955, 0.015464992, 0.06556988, -1496212.6, 23164.2, 0.00000061502607, 10.000557, 9.999034 
5.350303e+2, 1.5495801e+2, -1362384.3, -1505371.1, -40827.43, -0.040333692, -0.13733144, -1351547.9, 69854.83, 0.00000000036285042, 10.000842, 9.998978 
5.3503007e+2, 1.6495712e+2, -1240997.9, -1333984.3, -21814.305, -0.057862017, -0.14455019, -1236134.6, 87277.555, 0.0, 10.000733, 9.999544 
5.350312e+2, 1.7495765e+2, -1202338.3, -1270467.4, 13720.354, -0.018890869, -0.08174014, -1199678.9, 25727.895, 0.0, 10.00034, 9.9995 
5.350325e+2, 1.8495774e+2, -1125144.5, -1228422.8, 42483.727, -0.00468399, 0.0060368543, -1109914.6, 17491.68, 0.0, 10.000419, 9.999064 
5.3503424e+2, 1.9495702e+2, -956772.8, -1105740.1, 49885.617, -0.006329129, -0.0072005135, -941610.56, 87803.914, 0.0, 10.000938, 9.998989 
5.350355e+2, 2.0495577e+2, -853876.94, -1048968.1, -26696.951, 0.011526203, -0.0038788246, -850289.56, 81137.234, 0.0, 10.0011635, 9.998586 
5.350364e+2, 2.1495374e+2, -752144.56, -954882.4, -26293.666, 0.05709589, -0.103826165, -748789.94, 84655.87, 0.0, 10.0012, 9.9985485 
5.35037e+2, 2.2495253e+2, -709454.1, -884223.3, -28207.846, 0.044549357, -0.07268805, -705014.2, 30444.111, 0.0, 10.000837, 9.998533 
5.350373e+2, 2.3495187e+2, -728634.06, -844449.2, -19055.258, -0.032333102, -0.02898321, -725579.44, -88112.52, 0.0, 10.000031, 9.998524 
5.3503877e+2, 2.4495097e+2, -621178.1, -699896.5, -8158.669, -0.037143953, 0.013988379, -620341.44, -80864.97, 0.0, 9.999912, 9.998905 
5.3504133e+2, 2.5494948e+2, -467402.56, -580861.6, 1460.6118, 0.018029435, -0.060613375, -467383.75, -25894.072, 0.0, 10.000311, 9.998859 
5.3504264e+2, 2.6494843e+2, -322296.53, -420660.94, -69915.47, 0.035237204, -0.062305126, -285997.38, 57500.363, 0.0, 10.000485, 9.999196 
5.350428e+2, 2.7494735e+2, -252710.39, -339341.8, -27746.26, 0.009963835, -0.12526421, -244585.78, 918.6261, 0.0, 10.000299, 9.999173 
5.350434e+2, 2.849461e+2, -200780.86, -372518.75, 6731.3066, -0.03995776, -0.1145262, -200517.44, -53001.49, 0.00000019037492, 10.000457, 9.998186 
5.3504413e+2, 2.9494452e+2, -65306.19, -262789.47, -2512.631, -0.12099617, -0.13540836, -65274.23, -15740.539, 0.0000040138116, 10.00071, 9.998155 
5.35049e+2, 3.0494386e+2, 59557.094, -84161.61, -17587.592, 0.26487145, -0.052839626, 61678.074, 61678.074, 0.000024880646, 10.000853, 9.998997 
5.35048e+2, 3.1494346e+2, 23102.092, -33917.473, 86880.41, -0.01837736, -0.028468885, 86030.88, 86030.88, 0.00007745561, 10.000226, 9.999644 
5.450245e+2, 1.2495626e+2, -1574818.9, -1622764.9, -113130.98, 0.08262637, -0.3282803, -1483148.8, 232266.89, 0.00003031358, 10.000791, 10.000227 
5.450254e+2, 1.3495952e+2, -1607051.5, -1661165.3, 134017.98, -0.2227966, -0.0133679, -1497386.4, 119998.43, 0.000006366235, 10.000207, 9.999609 
5.4503274e+2, 1.449594e+2, -1620978.6, -1684307.5, -8855.34, 0.14909643, 0.06334102, -1619763.6, -100376.62, 0.00000037085837, 9.999747, 9.998956 
5.4503125e+2, 1.549566e+2, -1460841.0, -1557344.6, -67398.266, 0.010973651, -0.16805634, -1426202.8, -4786.5264, 0.00000000007720086, 10.000183, 9.998943 
5.450308e+2, 1.6495565e+2, -1264100.6, -1357690.5, -24216.588, -0.053336415, -0.17287411, -1258205.8, 65220.75, 0.0, 10.000657, 9.999402 
5.4503185e+2, 1.749565e+2, -1105542.8, -1236502.0, -63201.406, -0.009731995, -0.061324943, -1080016.9, 145401.97, 0.0, 10.001092, 9.999358 
5.4503334e+2, 1.8495664e+2, -1043726.7, -1182510.6, -16725.326, 0.015401592, 0.033435933, -1041739.56, 85678.67, 0.0, 10.000929, 9.999146 
5.45035e+2, 1.9495574e+2, -1057244.4, -1140311.4, -17892.648, 0.028281894, -0.008419702, -1053554.1, -24126.604, 0.0, 10.000178, 9.999121 
5.4503626e+2, 2.0495456e+2, -999097.9, -1129077.0, -20681.512, 0.032481726, 0.00019780184, -995886.5, -64447.26, 0.0, 10.000198, 9.998514 
5.4503715e+2, 2.1495281e+2, -809698.2, -986709.8, -26473.273, 0.044667725, -0.06254719, -805823.75, 27632.6, 0.0, 10.000827, 9.998512 
5.45038e+2, 2.2495155e+2, -645984.6, -866092.0, -5436.1006, 0.044875026, -0.02959496, -645850.44, 89618.99, 0.0, 10.001318, 9.9984255 
5.450387e+2, 2.3495045e+2, -498641.88, -749816.25, -23634.408, 0.032001417, -0.018019168, -496437.34, 141044.63, 0.0, 10.0016775, 9.998384 
5.450399e+2, 2.4494915e+2, -407610.28, -597964.0, 27937.176, 0.028494695, -0.0081358235, -403594.8, 135899.61, 0.0, 10.001379, 9.998901 
5.450417e+2, 2.5494733e+2, -454691.97, -575098.06, 19135.363, 0.03163234, -0.11717611, -451724.06, -10214.751, 0.0, 10.0004, 9.998858 
5.450431e+2, 2.6494625e+2, -379974.78, -480867.28, -21070.713, 0.04514463, -0.10392295, -375751.13, -32233.518, 0.0, 10.000235, 9.998899 
5.450441e+2, 2.749455e+2, -178003.89, -333040.75, -82098.17, 0.08700374, -0.10950816, -142609.89, 102913.586, 0.0, 10.000944, 9.998904 
5.450447e+2, 2.8494403e+2, -107079.83, -337241.2, -52812.066, 0.021682099, -0.10165777, -95540.3, 51997.195, 0.00000011177434, 10.001152, 9.998096 
5.4504466e+2, 2.949418e+2, -53096.17, -260296.77, -82275.64, -0.13481613, -0.17594421, -24400.201, 25159.67, 0.0000045059896, 10.000837, 9.998099 
5.4504937e+2, 3.0494106e+2, 32218.018, -138745.17, -82997.195, 0.2259111, -0.07639053, 65881.87, 65881.87, 0.000026381855, 10.000848, 9.998611 
5.450499e+2, 3.1494042e+2, 80623.97, -2642.2043, -21474.615, 0.13896477, -0.04612462, 85836.086, 85836.086, 0.00007890932, 10.000632, 9.999638 
5.5502564e+2, 1.2495791e+2, -1660911.6, -1795345.0, -77238.2, 0.03306535, -0.15890653, -1625737.8, 89658.195, 0.000026661766, 10.000774, 9.999045 
5.55025e+2, 1.3495655e+2, -1691393.9, -1833333.4, 115024.53, -0.3212352, -0.18553975, -1627206.9, -9795.38, 0.0000052899522, 10.00019, 9.998444 
5.5503386e+2, 1.4495516e+2, -1608211.6, -1637365.0, -16943.139, 0.24808294, -0.19908035, -1600437.6, -81010.586, 0.00000021782215, 9.999672, 9.999309 
5.550317e+2, 1.5495528e+2, -1443578.4, -1511277.4, -30632.373, 0.00029814424, -0.16559976, -1431775.5, -10348.443, 0.00000000000011946363, 10.000142, 9.999281 
5.5503094e+2, 1.6495503e+2, -1317733.0, -1459021.6, -24231.473, -0.13346882, -0.084487654, -1313692.8, 9738.822, 0.0, 10.000613, 9.998729 
5.550325e+2, 1.74954e+2, -1165734.8, -1344857.5, -32119.865, -0.09256517, -0.09263797, -1160149.4, 65295.33, 0.0, 10.001019, 9.998653 
5.5503386e+2, 1.8495342e+2, -1030372.7, -1125741.1, -60695.188, -0.04858881, -0.05599886, -1000870.8, 126580.016, 0.0, 10.000804, 9.9995985 
5.550352e+2, 1.9495304e+2, -1042687.06, -1086481.0, -29173.605, -0.014448947, -0.086776145, -1028106.94, 1345.2919, 0.0, 10.000069, 9.999551 
5.550363e+2, 2.0495246e+2, -1003100.94, -1097346.6, -12302.971, -0.009598506, -0.05404776, -1001521.4, -70064.22, 0.0, 10.000032, 9.998809 
5.550376e+2, 2.1495135e+2, -818370.0, -960396.56, 14022.15, -0.025555942, -0.082733236, -816998.9, 16470.078, 0.0, 10.000631, 9.998788 
5.5503905e+2, 2.2495016e+2, -680094.1, -890853.8, -6379.801, -0.0056690197, -0.05219917, -679901.2, 55580.47, 0.0, 10.001122, 9.998351 
5.550407e+2, 2.3494865e+2, -535301.2, -775008.56, 6465.392, 0.03811512, -0.07373578, -535126.94, 102370.914, 0.0, 10.00146, 9.998316 
5.5504173e+2, 2.4494736e+2, -414218.47, -578582.5, -22029.504, 0.03666185, -0.06771415, -411317.1, 128191.96, 0.0, 10.001228, 9.999115 
5.5504197e+2, 2.5494596e+2, -459711.16, -551237.25, 1802.7329, -0.015845349, -0.15447852, -459675.66, -18157.637, 0.0, 10.000244, 9.999103 
5.550433e+2, 2.6494467e+2, -478705.38, -660662.06, -9382.859, 0.008950984, -0.120079406, -478222.8, -134692.31, 0.0, 10.0001335, 9.997709 
5.550456e+2, 2.7494296e+2, -284236.16, -526527.75, -36850.86, 0.103456944, -0.09496327, -278755.38, -33204.027, 0.0, 10.000827, 9.997633 
5.550464e+2, 2.84941e+2, -109176.0, -328035.22, -81238.875, 0.04298975, -0.076959416, -82316.97, 65255.047, 0.00000024371042, 10.001089, 9.998194 
5.550455e+2, 2.9493874e+2, -58901.81, -256630.8, -74060.0, -0.18256143, -0.1668663, -34238.688, 15353.355, 0.0000058589785, 10.000756, 9.998172 
5.5504936e+2, 3.0493748e+2, -43336.62, -274177.34, -99388.04, 0.113749206, -0.078680344, -6442.0396, -6442.0396, 0.000029984647, 10.000768, 9.997712 
5.5505127e+2, 3.1493494e+2, 63334.266, -6359.1245, 70259.04, 0.13140734, -0.14759493, 106913.484, 106913.484, 0.00008416486, 10.000484, 9.99969 
5.650279e+2, 1.2495743e+2, -1485190.9, -1780533.0, -33069.645, 0.12405682, -0.058770727, -1481533.4, 233867.72, 0.000022362967, 10.002275, 9.998407 
5.650256e+2, 1.3495435e+2, -1567399.4, -1819798.0, 3096.2747, -0.3090598, -0.21817023, -1567361.4, 50073.05, 0.000004259607, 10.001252, 9.997999 
5.650345e+2, 1.449526e+2, -1472923.0, -1550745.5, -25360.969, 0.31586835, -0.25513446, -1465387.9, 54065.668, 0.00000013010742, 10.000475, 9.999532 
5.650321e+2, 1.5495415e+2, -1392920.8, -1455715.5, -75323.984, 0.027645689, -0.105446525, -1342712.4, 78726.72, 0.0, 10.000345, 9.999572 
5.6503147e+2, 1.6495417e+2, -1372590.5, -1495510.3, -7775.6924, -0.115485504, -0.007794316, -1372100.5, -48660.64, 0.0, 10.0002575, 9.99866 
5.650335e+2, 1.7495215e+2, -1272426.4, -1400287.8, 1088.0454, -0.04518582, -0.11186957, -1272417.1, -46955.824, 0.0, 10.000289, 9.998623 
5.650349e+2, 1.8495102e+2, -1102255.6, -1179151.6, -14321.521, 0.004084883, -0.12011625, -1099675.0, 27797.215, 0.0, 10.000402, 9.999411 
5.6503564e+2, 1.9495061e+2, -1001214.3, -1081648.4, -57531.617, 0.019083973, -0.14068915, -971236.6, 58237.715, 0.0, 10.000435, 9.999389 
5.6503683e+2, 2.0495023e+2, -926922.75, -1029094.9, -8694.899, 0.022621244, -0.09561083, -926188.06, 5289.4756, 0.0, 10.000433, 9.999076 
5.650386e+2, 2.1494962e+2, -840123.6, -935275.44, -14979.153, 0.03787586, -0.09967194, -837821.25, -4336.9966, 0.0, 10.000347, 9.999086 
5.6504035e+2, 2.2494864e+2, -783302.94, -930436.75, 2364.5479, 0.05518633, -0.06926165, -783264.94, -47770.23, 0.0, 10.000374, 9.998443 
5.65042e+2, 2.3494695e+2, -674601.4, -829376.1, -1403.3584, 0.08066853, -0.11793274, -674588.7, -37076.49, 0.0, 10.000452, 9.998426 
5.650428e+2, 2.4494575e+2, -514013.1, -645667.2, -26390.24, 0.05674818, -0.09656053, -508920.16, 30602.834, 0.0, 10.000653, 9.998909 
5.650426e+2, 2.5494474e+2, -357615.2, -526198.9, -72490.445, -0.010671145, -0.12582728, -330731.6, 110798.91, 0.0, 10.001067, 9.998864 
5.650439e+2, 2.6494336e+2, -333509.7, -599726.5, -7180.811, 0.019345812, -0.08229351, -333316.13, 10228.466, 0.0, 10.00116, 9.997636 
5.6504685e+2, 2.7494133e+2, -278232.94, -525907.8, 21491.992, 0.15507591, -0.08700126, -276381.78, -30813.523, 0.0, 10.000883, 9.997605 
5.6504816e+2, 2.849393e+2, -115917.19, -359174.84, 50550.563, 0.11461163, -0.060824607, -105830.68, 41758.258, 0.00000046127252, 10.001133, 9.99797 
5.6504756e+2, 2.9493728e+2, 94330.15, -213998.3, 3756.3772, -0.100766174, -0.10542222, 94375.91, 143982.42, 0.000007820285, 10.001922, 9.997913 
5.6504995e+2, 3.0493513e+2, 46404.8, -255189.89, -16790.926, 0.06835977, -0.0843035, 47336.74, 47336.74, 0.00003595913, 10.001473, 9.997511 
5.650515e+2, 3.1493282e+2, -91723.13, -60986.06, 170124.55, 0.18428342, -0.11590165, 94462.72, 94462.72, 0.000094486146, 9.999333, 9.9998665 
5.7503086e+2, 1.2495454e+2, -1492089.1, -1779423.0, 28155.627, 0.1162955, -0.05718329, -1489356.1, 226077.66, 0.000015098279, 10.00222, 9.998431 
5.750268e+2, 1.3495266e+2, -1558531.4, -1795490.5, -31443.328, -0.36272034, -0.11873838, -1554430.0, 63025.785, 0.0000026568694, 10.001224, 9.998178 
5.750342e+2, 1.4495158e+2, -1463147.5, -1515172.4, -56607.367, 0.19061664, -0.11063742, -1426861.9, 92606.12, 0.000000050157187, 10.000416, 9.999803 
5.7503206e+2, 1.5495312e+2, -1384455.3, -1425645.5, -63782.375, -0.048642933, 0.015365085, -1338025.4, 83427.34, 0.0, 10.000294, 9.999807 
5.750319e+2, 1.6495302e+2, -1337686.1, -1402876.1, -26170.566, -0.14226283, 0.054398153, -1328480.0, -5028.0566, 0.0, 10.000171, 9.999334 
5.7503444e+2, 1.7495094e+2, -1236319.0, -1310538.1, 17665.05, -0.0200165, -0.123564616, -1232329.0, -6860.1465, 0.0, 10.000221, 9.999271 
5.750359e+2, 1.8494953e+2, -1169183.0, -1292495.9, -27506.672, 0.029214846, -0.15533915, -1163325.5, -35843.89, 0.0, 10.0002985, 9.998681 
5.75036e+2, 1.9494843e+2, -1073484.6, -1197706.5, -40659.87, -0.020610018, -0.16658631, -1061359.5, -31865.873, 0.0, 10.000292, 9.99866 
5.750373e+2, 2.0494789e+2, -936746.7, -1005300.1, -29016.768, -0.00079749123, -0.114750005, -926113.9, 5385.847, 0.0, 10.000239, 9.999332 
5.7503974e+2, 2.1494767e+2, -853687.56, -915104.06, -2395.5195, 0.08560983, -0.105324775, -853594.3, -20092.63, 0.0, 10.000139, 9.999326 
5.750413e+2, 2.2494695e+2, -783192.2, -891665.9, -10909.915, 0.08640523, -0.07760763, -782105.8, -46597.086, 0.0, 10.0002, 9.998793 
5.7504195e+2, 2.3494537e+2, -677102.75, -791388.06, 18769.484, -0.00302621, -0.1498804, -674099.1, -36574.77, 0.0, 10.000262, 9.998779 
5.7504255e+2, 2.4494433e+2, -581189.56, -762594.56, -27814.477, -0.061447773, -0.09548627, -577020.6, -37484.316, 0.0, 10.00054, 9.998169 
5.750431e+2, 2.549435e+2, -432134.53, -646194.56, -37586.37, -0.10340681, -0.034475286, -425726.63, 15821.338, 0.0, 10.000906, 9.998123 
5.750447e+2, 2.6494226e+2, -266438.2, -444490.34, -33708.637, -0.05545047, 0.007037617, -260270.17, 83290.1, 0.0, 10.0010805, 9.998748 
5.750474e+2, 2.7494037e+2, -209561.53, -366795.63, 25723.28, 0.07948282, -0.092812315, -205460.22, 40115.793, 0.0, 10.00079, 9.9987545 
5.7504934e+2, 2.8493887e+2, -157682.48, -422768.88, 63232.113, 0.08110791, -0.05490504, -143372.02, 4217.479, 0.0000006054728, 10.00104, 9.997577 
5.7505023e+2, 2.949374e+2, 43806.438, -288993.78, 55980.816, -0.06999815, -0.0032689797, 52970.695, 102574.84, 0.000009307056, 10.001798, 9.997457 
5.7505053e+2, 3.0493405e+2, 69362.625, -189705.6, -103552.984, -0.050394394, -0.096889034, 105666.7, 105666.7, 0.000040671366, 10.001404, 9.997997 
5.7505e+2, 3.1493327e+2, -91420.06, -38402.914, 146031.7, 0.015751142, -0.027582707, 83506.71, 83506.71, 0.000103750725, 9.999237, 10.000074 
5.850328e+2, 1.2495162e+2, -1601291.0, -1787685.1, 130950.6, 0.16090058, -0.06043702, -1533759.3, 181706.48, 0.000008007214, 10.001239, 9.998869 
5.85028e+2, 1.349508e+2, -1706090.6, -1799182.8, -69738.23, -0.27893502, -0.07373456, -1668791.9, -51316.465, 0.0000012151539, 9.9999075, 9.998795 
5.850336e+2, 1.4495012e+2, -1618128.4, -1589803.3, 13379.579, 0.15447004, -0.054605484, -1584482.8, -65000.125, 0.000000012980553, 9.999393, 9.999755 
5.8503264e+2, 1.5495089e+2, -1393661.4, -1430800.5, -57082.047, -0.0078413915, -0.006388652, -1352204.4, 69270.26, 0.0, 10.00026, 9.999759 
5.8503276e+2, 1.6495048e+2, -1259434.5, -1356318.3, -29281.686, -0.08138766, -0.00044756854, -1251272.1, 72203.984, 0.0, 10.000659, 9.999426 
5.8503497e+2, 1.7494872e+2, -1178145.0, -1269361.6, -57526.73, 0.00609307, -0.15391466, -1150340.5, 75148.586, 0.0, 10.000555, 9.9994 
5.850366e+2, 1.8494752e+2, -1136151.0, -1274354.4, -63605.883, 0.05896304, -0.17172214, -1111333.8, 16165.417, 0.0, 10.000505, 9.998716 
5.850371e+2, 1.949465e+2, -1048934.6, -1187372.9, -52867.137, 0.06048515, -0.17683166, -1031054.8, -1544.0927, 0.0, 10.000451, 9.998671 
5.8503824e+2, 2.0494592e+2, -898003.2, -1000703.1, 10088.219, 0.06657567, -0.12423728, -897021.56, 34495.934, 0.0, 10.000559, 9.9992075 
5.850401e+2, 2.1494552e+2, -760450.1, -888875.5, -21333.41, 0.08217099, -0.122072965, -756999.06, 76522.95, 0.0, 10.000841, 9.999173 
5.850415e+2, 2.2494498e+2, -683217.75, -796128.06, -23077.271, 0.06892443, -0.08975041, -678683.2, 56844.207, 0.0, 10.00069, 9.999218 
5.850423e+2, 2.3494396e+2, -674307.3, -747233.2, -23021.322, 0.025810437, -0.1462006, -667648.0, -30111.09, 0.0, 10.00009, 9.999176 
5.8504325e+2, 2.4494305e+2, -650925.2, -804627.44, 21707.006, -0.016365696, -0.092394345, -647918.4, -108370.68, 0.0, 10.000103, 9.998081 
5.8504426e+2, 2.5494203e+2, -442279.44, -658518.2, 25891.79, -0.064826004, -0.044230714, -439222.44, 2339.948, 0.0, 10.000877, 9.998039 
5.8504575e+2, 2.6494074e+2, -271657.3, -435970.28, 18436.047, -0.042440105, -0.008340439, -269614.2, 73961.16, 0.0, 10.001019, 9.998828 
5.850479e+2, 2.74939e+2, -237713.45, -366307.1, -33139.34, 0.073278256, -0.10342784, -229675.66, 15913.077, 0.0, 10.000568, 9.998851 
5.8505017e+2, 2.849376e+2, -209303.2, -422747.44, 56439.145, 0.09940265, -0.06868297, -195298.4, -47698.25, 0.00000055145284, 10.000584, 9.9977865 
5.8505255e+2, 2.9493615e+2, -62615.684, -313268.44, 59474.074, 0.036354244, -0.036094278, -49219.793, 394.23697, 0.000008783807, 10.000954, 9.997689 
5.8505166e+2, 3.0493277e+2, 34456.836, -220338.2, -118104.77, -0.06131744, -0.14116457, 80779.97, 80779.97, 0.000039667964, 10.001224, 9.997868 
5.850506e+2, 3.149325e+2, 107484.87, -25321.031, 6007.1816, 0.081175275, -0.005612655, 107756.04, 107756.04, 0.00010388018, 10.000967, 9.999322 
5.950335e+2, 1.2494856e+2, -1522788.8, -1618906.6, 105395.48, 0.017239342, -0.07066735, -1455012.1, 260486.05, 0.0000033727015, 10.001237, 10.000017 
5.9502906e+2, 1.3494882e+2, -1633125.3, -1644174.0, -113153.05, -0.20339271, -0.08399896, -1525361.9, 92131.04, 0.00000044999516, 9.999904, 9.999858 
5.9503233e+2, 1.4494824e+2, -1648651.9, -1644287.4, 21625.19, 0.043778986, -0.09090902, -1624734.6, -105237.78, 0.000000014541682, 9.999355, 9.999396 
5.950333e+2, 1.5494736e+2, -1428573.0, -1493504.0, -8644.164, -0.010960737, -0.16900714, -1427441.9, -5936.7524, 0.0, 10.0002165, 9.9993515 
5.950338e+2, 1.6494659e+2, -1301339.8, -1421683.6, -49733.313, -0.08007385, -0.15849617, -1283447.3, 40064.76, 0.0, 10.000579, 9.999009 
5.950348e+2, 1.7494555e+2, -1216785.1, -1330482.9, -44958.26, -0.10884525, -0.1987723, -1201156.1, 24365.004, 0.0, 10.000483, 9.99901 
5.950363e+2, 1.8494503e+2, -1100447.6, -1173843.0, -83981.75, -0.04705072, -0.16724263, -1045495.7, 82029.1, 0.0, 10.000393, 9.999461 
5.950383e+2, 1.9494474e+2, -1019431.2, -1088588.8, -39357.367, 0.09907398, -0.17714205, -1001620.1, 27905.84, 0.0, 10.000295, 9.999421 
5.9503925e+2, 2.0494425e+2, -955865.3, -1079494.5, 5676.272, 0.07522664, -0.12788707, -955605.2, -24073.875, 0.0, 10.0003805, 9.998754 
5.950393e+2, 2.1494326e+2, -822277.0, -968785.9, 5994.708, -0.11510441, -0.1403168, -822032.1, 11512.234, 0.0, 10.000638, 9.99872 
5.9504044e+2, 2.2494282e+2, -673549.75, -741098.56, -62863.297, -0.13094348, -0.09588918, -635962.4, 99587.055, 0.0, 10.00053, 9.99968 
5.950426e+2, 2.3494267e+2, -671865.2, -697003.8, -28514.129, 0.019023405, -0.11131756, -653272.94, -15723.15, 0.0, 9.99989, 9.999622 
5.950443e+2, 2.4494192e+2, -631758.44, -734592.0, 36166.4, 0.04414401, -0.09157584, -620312.75, -80755.74, 0.0, 9.999968, 9.9986315 
5.950455e+2, 2.5494036e+2, -423756.8, -585829.3, 69580.09, -0.06303651, -0.15158188, -397983.6, 43590.04, 0.0, 10.000728, 9.998613 
5.950467e+2, 2.6493883e+2, -349144.34, -574927.0, -16196.418, -0.08691571, -0.121889405, -347988.44, -4399.3716, 0.0, 10.000926, 9.997921 
5.9504783e+2, 2.7493715e+2, -322488.53, -515158.8, -31189.172, -0.025937386, -0.11855961, -317565.47, -71959.32, 0.0, 10.000451, 9.997889 
5.950504e+2, 2.8493547e+2, -165814.11, -310678.28, 57225.27, 0.024727637, -0.10454753, -145936.17, 1684.8142, 0.0000003359344, 10.000497, 9.998595 
5.95054e+2, 2.9493344e+2, -20481.133, -191248.28, 94154.8, 0.03615957, -0.21221818, 21239.502, 70876.586, 0.000006914508, 10.0008135, 9.9985895 
5.9505266e+2, 3.049311e+2, -26048.297, -335058.1, -136488.58, -0.113348976, -0.22534235, 25604.26, 25604.26, 0.000035638073, 10.001165, 9.997112 
5.950521e+2, 3.1493083e+2, -17640.627, -259527.34, 8913.531, 0.056546148, -0.011130956, -17312.607, -17312.607, 0.00009897654, 10.0008545, 9.997764 
6.050336e+2, 1.2494626e+2, -1702190.0, -1679505.8, 203177.67, -0.01750781, -0.07248023, -1487353.9, 228167.05, 0.0000011596172, 9.99989, 10.000262 
6.0503113e+2, 1.3494687e+2, -1479903.3, -1536659.0, -162448.53, -0.021279933, -0.07092717, -1343372.6, 274139.4, 0.00000014603442, 10.000835, 10.000134 
6.050321e+2, 1.449464e+2, -1443084.4, -1563993.4, 5522.1304, 0.023005635, -0.07535384, -1442832.8, 76682.29, 0.0000000031309833, 10.000816, 9.9992695 
6.050336e+2, 1.5494508e+2, -1430578.0, -1509242.6, -45839.523, 0.008348104, -0.17994681, -1409509.3, 12018.422, 0.0, 10.000249, 9.999248 
6.050345e+2, 1.6494432e+2, -1367482.5, -1447662.1, -25118.58, -0.03076035, -0.16341558, -1360263.4, -36728.715, 0.0, 10.000077, 9.999091 
6.050356e+2, 1.7494382e+2, -1248208.1, -1337687.3, -14930.905, -0.05328948, -0.16002807, -1245782.4, -20242.994, 0.0, 10.00022, 9.9991 
6.0503685e+2, 1.849435e+2, -1106736.1, -1140280.9, -26765.621, -0.00773035, -0.12892252, -1091922.0, 35618.906, 0.0, 10.000209, 9.999771 
6.050384e+2, 1.9494307e+2, -1032590.4, -1057835.0, -49223.316, 0.104019694, -0.18222481, -994396.75, 35145.07, 0.0, 10.000056, 9.9997425 
6.0503936e+2, 2.0494257e+2, -993217.3, -1063796.4, 48987.668, 0.07663278, -0.16816016, -968131.8, -36585.91, 0.0, 9.999978, 9.999066 
6.050398e+2, 2.1494153e+2, -910252.7, -978898.4, 74133.58, -0.08566823, -0.21108161, -862881.94, -29324.64, 0.0, 9.999889, 9.999023 
6.050409e+2, 2.2494125e+2, -767598.56, -808427.25, 33252.668, -0.104551345, -0.15493649, -748993.9, -13432.335, 0.0, 10.000005, 9.999451 
6.050426e+2, 2.3494147e+2, -617546.75, -688801.8, -18883.168, 0.016637906, -0.11289432, -612851.9, 24709.648, 0.0, 10.000371, 9.999425 
6.050444e+2, 2.4494092e+2, -541758.2, -662741.2, 60232.766, 0.044194683, -0.07591231, -516884.53, 22683.053, 0.0, 10.000475, 9.99888 
6.050464e+2, 2.5493935e+2, -465434.63, -578319.0, 41082.832, -0.019205336, -0.15661447, -452066.22, -10483.759, 0.0, 10.000332, 9.99886 
6.050478e+2, 2.6493782e+2, -408519.97, -609313.5, -4272.381, -0.03430981, -0.14218006, -408429.13, -64831.285, 0.0, 10.00054, 9.99787 
6.050489e+2, 2.749359e+2, -234383.95, -478740.63, 9005.314, 0.015908994, -0.15102556, -234052.53, 11564.501, 0.0, 10.001069, 9.997843 
6.050513e+2, 2.849343e+2, -116303.82, -253462.13, 129336.51, 0.063420236, -0.14225721, -38489.56, 109142.54, 0.00000016006682, 10.00069, 9.998903 
6.0505456e+2, 2.949328e+2, -199040.95, -239831.02, 96745.11, 0.095426165, -0.229541, -120564.484, -70919.664, 0.0000052467194, 9.999423, 9.998934 
6.050529e+2, 3.0493158e+2, -207115.28, -349355.22, -31436.53, -0.11350205, -0.17786895, -200477.25, -200477.25, 0.000031333126, 9.999624, 9.997753 
6.050533e+2, 3.1493092e+2, 16338.345, -177024.02, 112275.57, 0.106205486, -0.055456135, 67822.8, 67822.8, 0.00009226463, 10.000787, 9.998385 
6.1503243e+2, 1.249447e+2, -1733856.9, -1736630.8, 155881.38, -0.19985859, -0.05442508, -1579356.3, 136177.7, 0.000000319301, 9.999868, 9.999871 
6.150336e+2, 1.3494495e+2, -1524456.9, -1624728.9, -114866.85, 0.10861081, -0.032418154, -1449261.3, 168271.72, 0.000000018009526, 10.000825, 9.999533 
6.150324e+2, 1.4494453e+2, -1439967.4, -1557542.8, -42658.35, -0.08387145, -0.0002950236, -1426120.9, 93416.59, 0.0, 10.000812, 9.999314 
6.1503315e+2, 1.5494393e+2, -1424315.0, -1501583.1, -54419.773, -0.09748657, -0.042413022, -1396210.0, 25332.885, 0.0, 10.000257, 9.999301 
6.1503446e+2, 1.6494368e+2, -1331115.3, -1357861.9, -37632.367, -0.07632099, -0.012453435, -1304550.6, 18993.58, 0.0, 10.000016, 9.999738 
6.1503696e+2, 1.7494345e+2, -1214183.5, -1255767.8, 7475.909, 0.028070373, -0.043494012, -1212880.3, 12664.152, 0.0, 10.000162, 9.999694 
6.1503786e+2, 1.8494289e+2, -1136432.9, -1170019.6, -46308.875, 0.031147314, -0.05968695, -1103966.4, 23581.303, 0.0, 10.0000725, 9.999629 
6.15037e+2, 1.9494167e+2, -1059511.6, -1090586.6, -36158.832, -0.066594936, -0.17923975, -1035693.4, -6136.4785, 0.0, 9.999952, 9.999571 
6.150381e+2, 2.0494096e+2, -940780.0, -916731.0, 30438.703, -0.0725835, -0.22797005, -896027.8, 35532.027, 0.0, 9.999818, 10.000149 
6.15041e+2, 2.1494041e+2, -866703.9, -838862.1, 86152.78, 0.02211953, -0.33217648, -765512.8, 68047.35, 0.0, 9.999677, 10.000087 
6.150422e+2, 2.2494031e+2, -861056.5, -959158.44, 34471.63, 0.0017269579, -0.26633656, -850155.06, -114591.84, 0.0, 9.999819, 9.998505 
6.1504173e+2, 2.3494035e+2, -712672.56, -840500.7, 12858.29, -0.13734013, -0.14598069, -711392.0, -73820.18, 0.0, 10.000175, 9.998477 
6.1504316e+2, 2.4494001e+2, -561913.9, -675932.75, 36861.645, -0.16438071, -0.041133277, -551034.75, -11455.261, 0.0, 10.000348, 9.998852 
6.150464e+2, 2.54939e+2, -489865.06, -597806.94, 51991.074, -0.090137504, -0.067853175, -468896.44, -27307.33, 0.0, 10.00019, 9.998798 
6.1504877e+2, 2.649375e+2, -370043.1, -506578.63, 318.33084, -0.02888571, -0.079018496, -370042.38, -26440.324, 0.0, 10.000441, 9.998622 
6.150505e+2, 2.7493525e+2, -201900.25, -377961.56, 46873.313, 0.026888972, -0.20639123, -190198.75, 55423.086, 0.0, 10.000926, 9.998601 
6.150523e+2, 2.8493413e+2, -139013.58, -284025.28, 63706.41, 0.06291474, -0.17558415, -115002.05, 32631.248, 0.00000012615395, 10.000615, 9.998729 
6.150538e+2, 2.949343e+2, -227078.97, -270622.38, 71626.164, 0.02630744, -0.08322159, -173988.7, -124352.66, 0.000004351736, 9.9993105, 9.998771 
6.1505187e+2, 3.049342e+2, -79489.84, -79260.484, 3593.673, -0.21350493, -0.004703595, -75779.664, -75779.664, 0.000027327982, 9.999593, 9.999637 
6.150531e+2, 3.1493288e+2, 189387.47, 212158.69, 161684.31, -0.07494924, -0.13114516, 362857.78, 362857.78, 0.00008384043, 10.000661, 10.001125 
6.250328e+2, 1.2494256e+2, -1806586.1, -1761894.4, 156245.75, -0.10125924, -0.10184426, -1626404.6, 89148.06, 0.00000004128188, 9.999313, 9.999979 
6.25035e+2, 1.3494325e+2, -1604756.1, -1656259.8, -59981.516, 0.20842828, -0.03980981, -1565232.0, 52316.7, 0.000000000001578113, 10.000219, 9.999626 
6.250322e+2, 1.4494282e+2, -1474158.4, -1550468.5, 50786.164, -0.15669508, -0.023614865, -1448791.4, 70761.86, 0.0, 10.000467, 9.9995365 
6.250341e+2, 1.549424e+2, -1353294.0, -1432939.9, 24794.195, -0.03412033, -0.07130377, -1346206.3, 75349.086, 0.0, 10.000617, 9.999586 
6.250357e+2, 1.6494234e+2, -1257557.8, -1298927.1, 64816.68, 0.033145357, -0.04713795, -1210205.3, 113348.87, 0.0, 10.000459, 9.999906 
6.2503755e+2, 1.7494228e+2, -1242385.1, -1242578.0, 30146.678, 0.09426384, -0.07813049, -1212334.8, 13218.343, 0.0, 9.999902, 9.999886 
6.250381e+2, 1.8494183e+2, -1168713.8, -1227076.8, 4146.201, 0.06327398, -0.07513941, -1168420.8, -40864.08, 0.0, 9.999994, 9.999292 
6.250373e+2, 1.949406e+2, -980841.94, -1087593.6, -26034.826, -0.0669432, -0.16507477, -974831.0, 54737.33, 0.0, 10.000622, 9.999275 
6.2503827e+2, 2.0493996e+2, -821016.44, -849476.56, 3282.2954, -0.07055338, -0.19814321, -820642.8, 110928.766, 0.0, 10.000581, 10.000255 
6.250412e+2, 2.1493958e+2, -832703.8, -803769.25, -44360.094, 0.071024716, -0.2977769, -771576.94, 61992.945, 0.0, 9.9998255, 10.0002575 
6.2504244e+2, 2.2493951e+2, -861572.44, -949004.94, -26763.842, 0.04689331, -0.24178362, -854030.4, -118458.625, 0.0, 9.999763, 9.998609 
6.25042e+2, 2.3493944e+2, -672684.56, -814802.75, 1866.067, -0.1347524, -0.13962445, -672660.06, -35079.516, 0.0, 10.000406, 9.998556 
6.250435e+2, 2.449391e+2, -512028.03, -642439.4, 76533.47, -0.17236616, -0.04153241, -476689.44, 62898.555, 0.0, 10.000635, 9.998951 
6.250468e+2, 2.5493824e+2, -436205.4, -558228.44, 65850.0, -0.06890237, -0.059633788, -407447.06, 34149.387, 0.0, 10.000496, 9.998922 
6.250494e+2, 2.6493713e+2, -338119.38, -445136.84, 52629.1, 0.003216003, -0.06526667, -316574.75, 27031.283, 0.0, 10.000447, 9.999043 
6.250514e+2, 2.7493528e+2, -245999.0, -355752.06, 39333.563, 0.06364703, -0.19153942, -233358.39, 12262.72, 0.0, 10.00042, 9.999003 
6.2505287e+2, 2.8493455e+2, -209218.53, -329344.4, 42499.477, 0.08525798, -0.13878559, -195703.2, -48073.27, 0.000000116905284, 10.00019, 9.998622 
6.250533e+2, 2.949349e+2, -177222.11, -269186.03, 15789.22, 0.038657602, -0.007973535, -174586.78, -124954.016, 0.000004287332, 9.999729, 9.998593 
6.250518e+2, 3.0493435e+2, -2101.9153, 392.36264, -3549.7778, -0.1846488, 0.016561849, 2907.7068, 2907.7068, 0.000025852014, 9.999964, 9.9999895 
6.250545e+2, 3.149334e+2, 223796.72, 297836.4, -54868.223, 0.024721924, -0.11701466, 327005.63, 327005.63, 0.00007870898, 10.000619, 10.001719 
6.350338e+2, 1.2493989e+2, -1756278.3, -1672280.9, 17813.441, -0.01689191, -0.19983643, -1668659.4, 46917.33, 0.000000010756334, 9.9993725, 10.00057 
6.350348e+2, 1.3494162e+2, -1555833.6, -1562195.6, -24141.053, 0.12869568, -0.09786802, -1534664.9, 82896.21, 0.0, 10.000238, 10.000273 
6.3503104e+2, 1.4494124e+2, -1439601.0, -1460239.5, 31802.83, -0.35297492, -0.1419749, -1416485.1, 103077.74, 0.0, 10.000397, 10.000186 
6.3503605e+2, 1.5494062e+2, -1313732.0, -1349567.0, 51465.34, 0.05645309, -0.2715754, -1277154.4, 144409.42, 0.0, 10.0006075, 10.000167 
6.350378e+2, 1.6494033e+2, -1294265.5, -1367652.5, 26477.406, 0.15567388, -0.27531135, -1285710.0, 37854.414, 0.0, 10.000416, 9.999458 
6.35037e+2, 1.749402e+2, -1276609.0, -1311996.9, 25645.484, 0.0065993313, -0.26861593, -1263145.8, -37579.05, 0.0, 9.999877, 9.999432 
6.350372e+2, 1.8494013e+2, -1213894.6, -1293978.5, 11020.034, -0.05751249, -0.1851944, -1212405.9, -84835.914, 0.0, 9.9998865, 9.998881 
6.350384e+2, 1.9493967e+2, -1030527.0, -1160980.0, 11831.283, -0.051079463, -0.15535638, -1029462.6, 115.58365, 0.0, 10.000492, 9.998834 
6.3503927e+2, 2.0493938e+2, -907446.8, -984733.9, -41026.004, -0.059103724, -0.08844384, -889730.3, 41852.492, 0.0, 10.00039, 9.999414 
6.3503975e+2, 2.1493894e+2, -920058.56, -937800.25, -55126.84, -0.08504964, -0.1124735, -873093.4, -39506.68, 0.0, 9.9996195, 9.999435 
6.350409e+2, 2.2493884e+2, -811059.75, -796151.2, -17928.613, -0.10562774, -0.07642222, -784188.94, -48601.785, 0.0, 9.999562, 9.99975 
6.350428e+2, 2.3493868e+2, -624598.6, -664588.4, 44279.836, -0.12547939, -0.10158754, -596008.5, 41579.617, 0.0, 10.000193, 9.999688 
6.3504493e+2, 2.449382e+2, -522680.63, -630173.4, 57273.543, -0.12464471, -0.081854634, -497884.44, 41708.633, 0.0, 10.00049, 9.999104 
6.350473e+2, 2.5493714e+2, -449384.56, -548135.5, 76261.26, -0.10877627, -0.13299374, -407910.06, 33694.496, 0.0, 10.000335, 9.99907 
6.3504946e+2, 2.6493663e+2, -348894.72, -437431.84, 34164.965, -0.074356414, -0.09291763, -337244.13, 6365.854, 0.0, 10.000328, 9.999148 
6.350513e+2, 2.7493614e+2, -260766.38, -350712.78, 57185.215, -0.025288086, -0.09727257, -232988.38, 12625.516, 0.0, 10.000273, 9.9991045 
6.3505244e+2, 2.849355e+2, -223953.4, -339732.97, 7114.388, -0.012355098, -0.03544141, -223517.89, -75896.305, 0.0000001448745, 10.000109, 9.99859 
6.3505256e+2, 2.9493475e+2, -208582.22, -294237.0, 21787.42, -0.057328016, -0.0074395775, -203358.83, -153725.44, 0.000005079309, 9.99958, 9.998486 
6.3505197e+2, 3.0493236e+2, -94307.59, -198169.95, 13857.321, -0.2035914, -0.09400233, -92490.54, -92490.54, 0.000027855136, 9.999962, 9.998642 
6.350565e+2, 3.149323e+2, 84347.52, 33805.953, 5748.4863, 0.0770771, -0.015267481, 84993.09, 84993.09, 0.00008149468, 10.000493, 9.999972 
6.45034e+2, 1.2493955e+2, -1764620.5, -1692827.5, 81012.875, 0.081323385, -0.18670875, -1640114.5, 75464.23, 0.0000000047013002, 9.999387, 10.000422 
6.4503545e+2, 1.3494074e+2, -1537277.9, -1543691.6, 36542.47, 0.18454087, -0.14157699, -1503801.9, 113765.55, 0.0, 10.000361, 10.00032 
6.4503187e+2, 1.4494033e+2, -1409889.0, -1433142.8, 55405.51, -0.31225044, -0.1973595, -1364903.5, 154665.86, 0.0, 10.000553, 10.000288 
6.450369e+2, 1.5494029e+2, -1363911.8, -1361418.8, -5973.077, 0.106983036, -0.27943778, -1356563.5, 65001.664, 0.0, 10.000208, 10.000275 
6.450383e+2, 1.6494003e+2, -1330363.9, -1410110.1, -2727.0012, 0.18715227, -0.27453735, -1330270.8, -6704.525, 0.0, 10.0002775, 9.999238 
6.4503706e+2, 1.7493938e+2, -1159099.4, -1277351.0, -15102.06, -0.01015874, -0.29829103, -1157201.1, 68373.055, 0.0, 10.000784, 9.999231 
6.450374e+2, 1.849392e+2, -1052918.9, -1219974.8, 34150.617, -0.071382, -0.2116228, -1046207.25, 81371.484, 0.0, 10.001006, 9.99885 
6.4503944e+2, 1.9493917e+2, -986761.56, -1139794.6, 29111.848, -0.0051602065, -0.13766775, -981410.6, 48172.94, 0.0, 10.000811, 9.998818 
6.450402e+2, 2.0493893e+2, -897480.44, -1026732.75, 15355.258, -0.001596986, -0.043831624, -895681.3, 35907.453, 0.0, 10.00067, 9.998981 
6.4504004e+2, 2.1493813e+2, -823272.94, -943806.7, -5673.609, -0.054189578, -0.05939327, -823006.44, 10591.547, 0.0, 10.000514, 9.998957 
6.45041e+2, 2.2493774e+2, -658232.8, -686160.3, 77263.63, -0.08472883, -0.046784412, -593681.25, 141919.16, 0.0, 10.00042, 10.000103 
6.450433e+2, 2.349374e+2, -570863.06, -594480.8, 47923.754, -0.084440425, -0.13218215, -533314.7, 104284.375, 0.0, 10.000352, 10.0000925 
6.450455e+2, 2.4493682e+2, -575826.3, -656787.44, 42009.992, -0.08440019, -0.13999237, -557967.25, -18363.93, 0.0, 10.000153, 9.999084 
6.450476e+2, 2.5493577e+2, -521172.75, -581372.4, 18022.205, -0.073925056, -0.18848948, -516189.84, -74573.82, 0.0, 9.999853, 9.999071 
6.450495e+2, 2.649355e+2, -417742.7, -444908.44, 19046.732, -0.062084228, -0.13106032, -407931.7, -64311.996, 0.0, 9.999739, 9.99939 
6.4505124e+2, 2.7493563e+2, -307754.9, -346338.2, 13905.034, -0.02223042, -0.09136382, -303265.94, -57647.86, 0.000000000000000000046744374, 9.999831, 9.999355 
6.450526e+2, 2.8493512e+2, -204303.34, -345085.8, 3794.5789, -0.003707192, -0.029964423, -204201.14, -56576.16, 0.00000034821963, 10.000297, 9.998465 
6.45053e+2, 2.9493362e+2, -7534.9824, -220780.67, -24651.04, -0.026236475, -0.0626377, -4722.4365, 44920.484, 0.0000068469953, 10.001042, 9.99829 
6.4505285e+2, 3.0493096e+2, 26061.758, -194211.16, 29350.887, -0.14834177, -0.13490053, 29905.621, 29905.621, 0.00003364889, 10.001053, 9.998121 
6.450577e+2, 3.1493115e+2, -25086.332, -115507.62, -11415.982, 0.17947298, 0.0152719105, -23667.297, -23667.297, 0.000093661416, 10.000166, 9.999091 
6.550319e+2, 1.2494137e+2, -1815733.9, -1796190.1, -36260.277, -0.14088808, -0.08256547, -1768408.1, -52847.27, 0.000000001405694, 9.999378, 9.999713 
6.550365e+2, 1.3494071e+2, -1563132.8, -1604111.9, 82381.29, 0.21075344, -0.17534536, -1498731.3, 118835.7, 0.0, 10.000392, 9.999885 
6.5503407e+2, 1.4494018e+2, -1454533.5, -1516889.0, 21202.24, -0.19226004, -0.19523996, -1448007.4, 71564.664, 0.0, 10.000511, 9.999741 
6.550361e+2, 1.5494145e+2, -1408051.6, -1446068.0, -2768.7544, -0.034937266, -0.089700446, -1407851.0, 13708.448, 0.0, 10.000171, 9.99972 
6.550368e+2, 1.6494134e+2, -1333604.1, -1400155.9, -3765.979, -0.027986191, -0.046136457, -1333391.6, -9831.242, 0.0, 10.000204, 9.999337 
6.550371e+2, 1.7493968e+2, -1159816.3, -1267825.8, 20828.412, -0.11427019, -0.18154709, -1155939.0, 69637.734, 0.0, 10.000736, 9.999316 
6.550383e+2, 1.8493907e+2, -1044848.06, -1176367.3, 9549.009, -0.1219878, -0.15932408, -1044158.4, 83424.8, 0.0, 10.000894, 9.999202 
6.5503985e+2, 1.9493917e+2, -977304.8, -1090528.4, 39709.06, -0.07458227, -0.10987972, -964766.7, 64816.797, 0.0, 10.000687, 9.999215 
6.550409e+2, 2.0493862e+2, -928460.56, -1054314.8, -7011.144, -0.03217965, -0.06283638, -928071.2, 3518.5027, 0.0, 10.00051, 9.998875 
6.550415e+2, 2.1493703e+2, -860072.94, -971279.75, 4903.7563, 0.0090223085, -0.14476238, -859857.1, -26251.59, 0.0, 10.000307, 9.998869 
6.550423e+2, 2.2493616e+2, -716529.6, -754057.7, 59649.0, -0.02914073, -0.1565935, -672762.94, 62849.066, 0.0, 10.000198, 9.999736 
6.550432e+2, 2.3493567e+2, -628094.1, -662168.3, 60942.207, -0.1659381, -0.21802962, -581852.4, 55760.13, 0.0, 10.000139, 9.999724 
6.5504485e+2, 2.4493508e+2, -611144.44, -695288.9, 12830.825, -0.19489846, -0.20158207, -609231.4, -69613.625, 0.0, 10.000003, 9.99889 
6.550473e+2, 2.54934e+2, -558748.8, -618257.8, 25176.371, -0.12687154, -0.2341412, -549526.7, -107895.36, 0.0, 9.99968, 9.998897 
6.550492e+2, 2.6493376e+2, -406469.56, -401406.47, 5831.2676, -0.100483, -0.18320045, -397580.97, -53945.99, 0.0, 9.999645, 9.999735 
6.550507e+2, 2.7493402e+2, -300545.75, -307698.06, 38901.01, -0.10362665, -0.16569504, -265056.88, -19424.908, 0.0000000002377775, 9.99972, 9.999679 
6.5505254e+2, 2.849335e+2, -233769.88, -377855.56, 15758.792, -0.07182716, -0.11111073, -232066.45, -84427.81, 0.0000008000927, 10.000187, 9.998284 
6.550544e+2, 2.949317e+2, -45606.65, -257942.33, 23680.549, -0.04534301, -0.1626089, -42997.75, 6661.818, 0.000010270006, 10.000873, 9.99811 
6.550541e+2, 3.0493045e+2, 32640.922, -173947.13, -11879.089, -0.17659307, -0.09300185, 33321.742, 33321.742, 0.00004390313, 10.001016, 9.998285 
6.550572e+2, 3.1492987e+2, -46135.508, -131163.38, -9902.181, 0.0341046, -0.032477975, -44997.547, -44997.547, 0.00011355634, 10.000047, 9.999044 
6.650325e+2, 1.24942005e+2, -1702337.3, -1762546.6, -50539.805, -0.04267907, -0.062447608, -1673615.4, 41939.797, 0.00000000035571668, 10.000258, 9.999505 
6.65037e+2, 1.3494094e+2, -1488862.3, -1597307.0, 90581.945, 0.20620894, -0.18168463, -1437514.0, 180050.9, 0.0, 10.001004, 9.999649 
6.650358e+2, 1.449403e+2, -1423526.1, -1549319.6, 37815.805, -0.079268515, -0.17829081, -1413033.3, 106538.445, 0.0, 10.000935, 9.999309 
6.6503644e+2, 1.5494126e+2, -1375417.3, -1477774.5, -15157.993, -0.026554706, -0.06414981, -1373219.6, 48344.23, 0.0, 10.000611, 9.99928 
6.6503686e+2, 1.6494109e+2, -1287356.6, -1379386.3, 50269.496, -0.048832435, -0.004367932, -1265221.8, 58344.43, 0.0, 10.0005245, 9.999328 
6.650381e+2, 1.7493953e+2, -1190008.8, -1285678.1, 29941.518, -0.074794196, -0.12665261, -1181410.6, 44170.13, 0.0, 10.000527, 9.999298 
6.650394e+2, 1.8493885e+2, -1101109.1, -1195180.8, 24334.94, -0.064489275, -0.11758235, -1095186.9, 32400.57, 0.0, 10.000492, 9.99926 
6.650407e+2, 1.9493859e+2, -1010091.4, -1104179.6, -4567.386, -0.040526077, -0.10641476, -1009870.2, 19719.764, 0.0, 10.000449, 9.999237 
6.6504157e+2, 2.0493785e+2, -915646.4, -1029147.0, -20284.627, -0.005130628, -0.087447464, -912130.06, 19466.434, 0.0, 10.000516, 9.999053 
6.650423e+2, 2.1493629e+2, -806255.4, -926502.25, -22455.965, 0.053943176, -0.18349919, -802198.6, 31411.764, 0.0, 10.000599, 9.999042 
6.6504306e+2, 2.249352e+2, -711089.7, -815384.1, 61778.574, 0.017133031, -0.19505633, -682391.8, 53227.66, 0.0, 10.000526, 9.999163 
6.650438e+2, 2.3493436e+2, -650663.6, -740457.44, 15682.384, -0.1246825, -0.23043984, -648003.56, -10376.966, 0.0, 10.000287, 9.999123 
6.650454e+2, 2.4493381e+2, -557269.44, -627448.56, 11848.916, -0.14116392, -0.19770399, -555322.9, -15691.379, 0.0, 10.000158, 9.99929 
6.6504806e+2, 2.5493324e+2, -476834.78, -540015.94, 29436.035, -0.02593201, -0.22200617, -465246.13, -23608.553, 0.0, 10.000039, 9.999276 
6.650498e+2, 2.6493302e+2, -383660.03, -418672.94, 49316.457, -0.0075137545, -0.1771459, -348834.97, -5194.101, 0.0, 9.999917, 9.999486 
6.6505075e+2, 2.749329e+2, -302832.8, -331975.1, 2419.1536, -0.070123255, -0.17289771, -302633.38, -56989.844, 0.0000000023427176, 9.999818, 9.999454 
6.6505265e+2, 2.8493235e+2, -270908.38, -365977.75, 30319.12, -0.05049154, -0.12266162, -262062.25, -114411.52, 0.0000014418595, 9.999792, 9.998563 
6.6505533e+2, 2.949308e+2, -192279.08, -288317.7, 35101.906, 0.03984226, -0.17969464, -180817.33, -131149.77, 0.000014823799, 9.999698, 9.998464 
6.6505533e+2, 3.0493015e+2, -89488.086, -226036.13, 36517.582, -0.08827564, -0.07097638, -80335.52, -80335.52, 0.000057815294, 10.00014, 9.998347 
6.6505754e+2, 3.1492904e+2, 88433.04, -15056.65, -62190.62, 0.045566425, -0.06856417, 117590.625, 117590.625, 0.00014076945, 10.000735, 9.99951 
6.750347e+2, 1.24941625e+2, -1699394.9, -1753428.5, -109839.22, 0.06738857, -0.13316908, -1613298.6, 102261.7, 0.0000000023126079, 10.000257, 9.999565 
6.750365e+2, 1.3494138e+2, -1493948.1, -1603437.0, 127080.875, 0.018216155, -0.16823971, -1410321.8, 207240.0, 0.0, 10.000997, 9.999607 
6.750365e+2, 1.4494072e+2, -1452592.9, -1595674.8, 2969.9434, -0.1498105, -0.14913164, -1452531.3, 67036.86, 0.0, 10.000875, 9.999019 
6.7503726e+2, 1.5493989e+2, -1391099.3, -1510497.9, -8314.448, -0.043089174, -0.18292119, -1390523.0, 31053.773, 0.0, 10.000616, 9.999051 
6.7503804e+2, 1.6493948e+2, -1300710.6, -1398673.6, 33019.867, -0.022392746, -0.1320317, -1290620.1, 32961.063, 0.0, 10.000482, 9.99922 
6.7503935e+2, 1.7493917e+2, -1205829.5, -1302721.9, 46366.945, -0.03585986, -0.12218932, -1187216.5, 38367.96, 0.0, 10.000461, 9.999212 
6.750405e+2, 1.8493861e+2, -1135168.5, -1242398.4, 2123.2307, -0.042507548, -0.08124569, -1135126.5, -7535.9824, 0.0, 10.000387, 9.998992 
6.750412e+2, 1.9493754e+2, -1053445.4, -1153934.8, 9573.519, -0.060503535, -0.11950867, -1052541.5, -22939.822, 0.0, 10.000282, 9.998978 
6.750418e+2, 2.0493677e+2, -915447.5, -990034.7, -32962.85, -0.06600017, -0.10825024, -902968.0, 28639.87, 0.0, 10.000336, 9.999414 
6.75042e+2, 2.1493594e+2, -807806.7, -883275.9, -4080.6948, -0.064972885, -0.17025279, -807586.7, 26025.6, 0.0, 10.000396, 9.999436 
6.7504287e+2, 2.2493495e+2, -796310.3, -945301.2, 36386.3, -0.076126665, -0.15397042, -787899.0, -52276.79, 0.0, 10.000325, 9.998368 
6.750444e+2, 2.3493342e+2, -738264.5, -869546.2, 26065.094, -0.11107786, -0.17665781, -733278.75, -95637.48, 0.0, 10.000064, 9.9983425 
6.750467e+2, 2.4493307e+2, -520093.72, -507168.2, -5248.2134, -0.060583528, -0.13129726, -505305.63, 34338.27, 0.0, 9.999978, 10.000202 
6.7504936e+2, 2.549335e+2, -440278.8, -423617.88, 42629.867, 0.06766201, -0.14499274, -388512.16, 53121.61, 0.0, 9.999862, 10.00016 
6.750508e+2, 2.649333e+2, -462024.6, -547435.25, 27517.355, 0.06820602, -0.10240368, -453926.88, -110290.79, 0.0, 9.999777, 9.998669 
6.750509e+2, 2.7493212e+2, -378861.8, -460776.75, 18138.479, -0.06932497, -0.12079429, -375025.1, -129371.375, 0.0000000015372758, 9.999691, 9.998635 
6.750526e+2, 2.8493154e+2, -224090.5, -252098.73, 11857.124, -0.07041297, -0.0742341, -219745.05, -72083.125, 0.0000017821444, 9.999725, 9.999373 
6.750555e+2, 2.9493102e+2, -156000.17, -177902.5, 56107.777, 0.033447742, -0.105737604, -109784.82, -60119.723, 0.000019076204, 9.99955, 9.999291 
6.7505604e+2, 3.0493003e+2, -111598.266, -250177.75, 49999.203, -0.069399476, -0.07161701, -95442.19, -95442.19, 0.000073988194, 10.000052, 9.998221 
6.750576e+2, 3.1492832e+2, 137461.11, 123868.484, -16076.579, -0.10207631, -0.11142062, 148118.9, 148118.9, 0.00017626988, 10.000586, 10.000531 
6.850358e+2, 1.2494186e+2, -1647391.6, -1753265.0, -75656.9, 0.14943293, -0.11414714, -1607990.5, 107569.73, 0.0000000036242784, 10.000682, 9.999384 
6.85037e+2, 1.3494162e+2, -1532120.1, -1656233.1, 69061.76, -0.0074954764, -0.112339504, -1501329.8, 116233.09, 0.0, 10.000902, 9.999281 
6.850385e+2, 1.4494096e+2, -1447558.8, -1591335.1, -25082.61, -0.019047098, -0.076007135, -1443308.6, 76260.22, 0.0, 10.000897, 9.999041 
6.850386e+2, 1.5493944e+2, -1329893.1, -1481739.6, -49409.816, 0.017404223, -0.18098639, -1315231.3, 106351.73, 0.0, 10.001026, 9.9990635 
6.850389e+2, 1.6493873e+2, -1220042.5, -1380511.6, 33823.285, -0.0024028874, -0.1523362, -1213204.8, 110385.0, 0.0, 10.001119, 9.999043 
6.8504006e+2, 1.7493859e+2, -1124706.3, -1289560.5, 6105.6855, -0.040380407, -0.10690652, -1124480.4, 101111.46, 0.0, 10.001122, 9.998995 
6.8504107e+2, 1.8493794e+2, -1055413.5, -1204423.9, -5972.0645, -0.038092572, -0.06031654, -1055174.5, 72423.86, 0.0, 10.000924, 9.998993 
6.850419e+2, 1.9493647e+2, -1034791.1, -1143572.0, -8312.216, -0.015454988, -0.14545053, -1034159.7, -4546.778, 0.0, 10.00039, 9.998994 
6.8504244e+2, 2.049358e+2, -935170.06, -988038.6, -3379.4197, -0.01856855, -0.12816992, -934954.94, -3337.1501, 0.0, 10.000188, 9.999473 
6.850425e+2, 2.1493565e+2, -802020.56, -877454.0, -33595.16, -0.049780972, -0.12790999, -789228.0, 44388.55, 0.0, 10.000429, 9.999451 
6.8504345e+2, 2.2493473e+2, -765787.56, -953409.44, 38580.14, -0.05779856, -0.0934924, -758164.2, -22537.867, 0.0, 10.000615, 9.998175 
6.850454e+2, 2.349328e+2, -661125.0, -855507.4, 39133.2, -0.04139983, -0.13750611, -653542.44, -15892.441, 0.0, 10.000674, 9.998149 
6.8504757e+2, 2.4493214e+2, -451033.03, -478687.28, 22567.355, 0.015189374, -0.11131254, -438393.66, 101261.68, 0.0, 10.000485, 10.000142 
6.8504965e+2, 2.5493246e+2, -404621.3, -408779.06, -33189.26, 0.108088136, -0.13163203, -373445.88, 68199.125, 0.0, 10.000141, 10.0001135 
6.850509e+2, 2.6493207e+2, -423897.7, -547917.2, -13707.783, 0.09237189, -0.09680425, -422400.66, -78752.04, 0.0, 10.000107, 9.998508 
6.850513e+2, 2.749306e+2, -311285.63, -447267.34, -9692.085, -0.0102296565, -0.12881953, -310598.3, -64928.89, 0.00000000039754933, 10.000218, 9.998478 
6.8505305e+2, 2.8493023e+2, -139001.14, -181905.3, 18897.58, -0.016691778, -0.0664876, -131864.58, 15810.702, 0.000001935021, 10.000182, 9.999633 
6.8505555e+2, 2.9493046e+2, -40501.555, -90751.05, -15663.773, 0.06415075, -0.0514117, -36018.758, 13652.072, 0.000022833043, 10.000191, 9.999584 
6.8505687e+2, 3.0492866e+2, -63227.996, -218175.88, 18664.654, 0.00898232, -0.11246046, -61011.402, -61011.402, 0.00009092674, 10.000366, 9.998287 
6.8505865e+2, 3.1492713e+2, 72727.24, 106499.01, -102545.64, -0.0143977, -0.13258308, 193539.73, 193539.73, 0.00021663251, 10.000068, 10.000677 
6.950349e+2, 1.2494276e+2, -1663632.4, -1785422.6, -73165.82, -0.095321305, -0.00080065744, -1629335.9, 86218.68, 0.00000000017840025, 10.0007, 9.999138 
6.9503814e+2, 1.3494179e+2, -1572161.1, -1740788.4, 88718.06, -0.022424387, -0.009651305, -1534083.3, 83483.414, 0.0, 10.000918, 9.998687 
6.950416e+2, 1.44941e+2, -1428440.6, -1548454.4, -40063.367, 0.1518692, 0.02579965, -1416295.6, 103278.65, 0.0, 10.000876, 9.999349 
6.9504e+2, 1.5493976e+2, -1311444.6, -1446557.1, -26400.266, 0.009430254, -0.081879795, -1306469.4, 115114.336, 0.0, 10.001027, 9.999311 
6.95039e+2, 1.6493873e+2, -1251490.6, -1427623.1, 18081.568, -0.14173819, -0.080477566, -1249653.5, 73939.07, 0.0, 10.001051, 9.998746 
6.950396e+2, 1.7493787e+2, -1157531.5, -1339769.4, 27393.203, -0.23254232, -0.07379515, -1153502.9, 72098.79, 0.0, 10.001046, 9.998686 
6.950407e+2, 1.8493694e+2, -1051896.6, -1165639.6, -40005.53, -0.19659308, -0.05977538, -1039235.3, 88374.76, 0.0, 10.000794, 9.999315 
6.9504225e+2, 1.9493546e+2, -1035118.94, -1108987.8, -12985.695, -0.053540196, -0.17955117, -1032902.6, -3280.4207, 0.0, 10.000252, 9.999289 
6.95043e+2, 2.0493498e+2, -978764.0, -1047564.06, -12603.003, -0.0068915826, -0.14162941, -976528.0, -44902.098, 0.0, 10.000044, 9.999136 
6.9504315e+2, 2.1493527e+2, -857312.1, -941851.9, -9229.59, -0.05407566, -0.060867928, -856316.2, -22692.422, 0.0, 10.000212, 9.999111 
6.950443e+2, 2.2493456e+2, -768974.0, -911872.06, 24489.4, -0.067872934, -0.009693106, -764893.6, -29262.19, 0.0, 10.000406, 9.998559 
6.950461e+2, 2.3493245e+2, -663047.9, -812646.44, 55923.855, -0.06216525, -0.11324451, -644453.3, -6800.5396, 0.0, 10.000478, 9.998531 
6.950476e+2, 2.4493106e+2, -537750.2, -629257.7, -4709.428, -0.056931946, -0.13026704, -537508.44, 2156.5376, 0.0, 10.000351, 9.999174 
6.950485e+2, 2.5493002e+2, -489314.72, -557229.56, -27142.076, -0.05667289, -0.19283596, -479800.3, -38128.684, 0.0, 10.000011, 9.999159 
6.9504976e+2, 2.6492923e+2, -409483.56, -487868.1, -22650.33, -0.06450115, -0.17246605, -403409.16, -59730.332, 0.0, 9.999985, 9.998975 
6.950513e+2, 2.7492836e+2, -302464.47, -392411.03, 13150.387, -0.071128234, -0.19135956, -300581.28, -54891.38, 0.0000000054780975, 10.000068, 9.998923 
6.950532e+2, 2.8492844e+2, -172088.48, -231915.8, 1415.0834, -0.052906606, -0.09030899, -172055.03, -24364.73, 0.000002364329, 10.000101, 9.999326 
6.95055e+2, 2.9492906e+2, -78732.48, -139486.1, 8858.952, -0.053308725, -0.01064217, -77467.05, -27782.975, 0.000027093956, 10.000061, 9.999309 
6.950575e+2, 3.0492607e+2, -54865.77, -190222.05, 1821.8439, 0.0012382743, -0.19360529, -54841.25, -54841.25, 0.00010798756, 10.000314, 9.998503 
6.9505996e+2, 3.149256e+2, -784.2859, -14639.284, -61097.06, 0.02229752, -0.12540533, 53776.758, 53776.758, 0.00025661878, 9.99993, 9.999907 
7.050361e+2, 1.2494165e+2, -1614525.0, -1744855.5, -64644.06, -0.038570262, 0.004748981, -1587900.4, 127666.74, 0.0, 10.0009365, 9.999323 
7.0503885e+2, 1.3494077e+2, -1628455.6, -1770243.6, 32152.635, -0.01138296, 0.009334041, -1621505.1, -3926.9995, 0.0, 10.000518, 9.998685 
7.0504284e+2, 1.4493999e+2, -1520434.6, -1582163.1, -23675.62, 0.23214461, 0.037918538, -1512399.8, 7186.4004, 0.0, 10.000202, 9.999434 
7.050408e+2, 1.5493922e+2, -1357003.8, -1452164.6, -60201.484, 0.019858407, -0.030824631, -1327850.1, 93741.586, 0.0, 10.000663, 9.999431 
7.0503986e+2, 1.6493839e+2, -1261407.8, -1417045.4, 20830.463, -0.14620402, -0.024145992, -1258668.0, 64930.766, 0.0, 10.000931, 9.998864 
7.050409e+2, 1.7493722e+2, -1179139.1, -1329483.6, 24469.375, -0.1844055, -0.06128196, -1175256.9, 50352.965, 0.0, 10.000827, 9.998844 
7.0504194e+2, 1.8493627e+2, -1064025.5, -1181607.1, -18568.352, -0.14482632, -0.054501787, -1061162.9, 66455.13, 0.0, 10.00075, 9.999232 
7.050428e+2, 1.94935e+2, -974874.5, -1090589.4, -54091.51, -0.038318176, -0.14025687, -953527.3, 76100.805, 0.0, 10.000698, 9.99921 
7.050435e+2, 2.0493433e+2, -902434.2, -1053046.0, -19303.277, 0.014419723, -0.10096639, -899999.5, 31635.154, 0.0, 10.000721, 9.998789 
7.0504427e+2, 2.1493399e+2, -806953.3, -956026.44, -46293.23, 0.01643924, -0.048100613, -793747.3, 39892.668, 0.0, 10.0007, 9.998791 
7.0504534e+2, 2.2493325e+2, -710998.6, -827518.1, 17530.338, 0.004251023, -0.00849467, -708418.3, 27228.74, 0.0, 10.000578, 9.999043 
7.050468e+2, 2.3493172e+2, -635900.6, -745019.8, 21954.54, -0.04103625, -0.103515044, -631649.06, 6010.596, 0.0, 10.000436, 9.999011 
7.0504797e+2, 2.4493042e+2, -569925.6, -685979.9, 8968.648, -0.049771965, -0.11788808, -569236.6, -29566.133, 0.0, 10.000304, 9.998812 
7.0504904e+2, 2.54929e+2, -493960.13, -598740.6, -114.56152, -0.008472176, -0.17821649, -493960.0, -52277.227, 0.0, 10.000152, 9.998811 
7.050504e+2, 2.6492795e+2, -367630.88, -456681.16, 60801.855, -0.00020425674, -0.1743002, -336794.53, 6897.9854, 0.0, 10.000227, 9.999076 
7.050521e+2, 2.7492687e+2, -227646.38, -340636.7, 31637.05, -0.013462492, -0.22603595, -219391.2, 26311.703, 0.000000016182126, 10.000523, 9.999054 
7.050537e+2, 2.8492665e+2, -163066.66, -281411.6, 17078.326, -0.015676111, -0.13557224, -160651.39, -12945.661, 0.0000030357212, 10.000377, 9.998866 
7.0505506e+2, 2.94927e+2, -178105.28, -238401.94, -21371.92, -0.019131592, -0.033115007, -171298.5, -121594.27, 0.000031540207, 9.999582, 9.998872 
7.0505816e+2, 3.049244e+2, -126939.46, -159723.53, 38838.008, 0.08668514, -0.18433921, -101175.95, -101175.95, 0.00012311795, 9.999533, 9.999082 
7.0506036e+2, 3.1492472e+2, 1105.3124, -24437.309, -59754.023, 0.08816983, -0.10298173, 49437.6, 49437.6, 0.0002906225, 9.999998, 9.999792 
7.1503866e+2, 1.24938615e+2, -1552889.8, -1617205.9, -75305.805, 0.038574472, -0.06962881, -1503163.1, 212434.47, 0.0, 10.000944, 10.000189 
7.150386e+2, 1.3493845e+2, -1575071.3, -1671634.6, 23177.973, -0.13053177, -0.06784831, -1569796.0, 47802.777, 0.0, 10.000561, 9.999345 
7.1504176e+2, 1.4493787e+2, -1528805.0, -1596432.9, -29504.332, 0.05062528, -0.045674894, -1517742.6, 1862.3326, 0.0, 10.000197, 9.999331 
7.150407e+2, 1.5493795e+2, -1368370.4, -1469864.3, -24201.377, -0.10251471, -0.020275244, -1362895.0, 58710.7, 0.0, 10.000636, 9.99932 
7.1504104e+2, 1.6493765e+2, -1236703.6, -1342872.6, -508.14713, -0.1567104, 0.018934948, -1236701.3, 86906.97, 0.0, 10.000842, 9.999412 
7.1504354e+2, 1.7493655e+2, -1153632.5, -1258601.5, 35246.73, -0.043703448, -0.067733414, -1142895.5, 82721.195, 0.0, 10.00076, 9.999359 
7.1504414e+2, 1.8493582e+2, -1109463.6, -1254662.0, -38688.15, -0.029181294, -0.041586418, -1099798.5, 27824.545, 0.0, 10.000657, 9.998779 
7.15043e+2, 1.9493513e+2, -1032044.5, -1169294.1, -39016.09, -0.12024581, -0.023297288, -1021728.7, 7901.588, 0.0, 10.000532, 9.998752 
7.150434e+2, 2.0493396e+2, -953044.06, -1110189.9, -35547.367, -0.10112745, 0.0043222266, -945377.1, -13734.404, 0.0, 10.0005245, 9.998487 
7.150453e+2, 2.1493192e+2, -866204.6, -1018133.0, -32019.271, 0.023138553, -0.08482284, -859732.25, -26068.273, 0.0, 10.000455, 9.998477 
7.150464e+2, 2.2493094e+2, -697895.7, -760192.0, -5547.2656, 0.020285236, -0.080099344, -697405.56, 38266.37, 0.0, 10.000399, 9.999598 
7.1504664e+2, 2.3493066e+2, -628038.44, -678999.2, 32697.656, -0.124813266, -0.1031345, -612065.4, 25604.533, 0.0, 10.00022, 9.999572 
7.15048e+2, 2.4493027e+2, -583600.2, -669632.3, -13664.765, -0.10144109, -0.065151446, -581481.94, -41810.83, 0.0, 10.0001135, 9.999019 
7.150505e+2, 2.5492945e+2, -507085.66, -582006.06, 11461.354, 0.09099225, -0.0863775, -505371.5, -63692.9, 0.0, 9.999972, 9.999011 
7.150523e+2, 2.649282e+2, -393607.38, -498179.34, 54120.41, 0.13295802, -0.09733497, -370641.5, -26951.74, 0.0, 10.000164, 9.998826 
7.1505326e+2, 2.7492604e+2, -263991.06, -387524.1, 62376.92, 0.010259286, -0.23229155, -237973.86, 7735.021, 0.000000020828322, 10.000394, 9.998799 
7.150543e+2, 2.849248e+2, -217381.83, -368148.4, -27802.533, -0.037257645, -0.20539695, -212418.23, -64695.938, 0.0000037854625, 10.0002775, 9.998312 
7.1505505e+2, 2.9492432e+2, -241150.6, -333563.47, -25102.531, -0.029597599, -0.12807979, -234772.13, -185040.52, 0.000035842306, 9.999447, 9.998277 
7.150581e+2, 3.0492386e+2, -67923.305, -37810.21, 44947.12, 0.08959857, -0.076901644, -5464.8237, -5464.8237, 0.000135526, 9.999521, 9.999934 
7.150592e+2, 3.1492433e+2, 1750.0472, 9627.368, 19268.209, -0.11504322, -0.069755666, 25355.352, 25355.352, 0.00031586387, 9.999843, 10.000113 
7.250403e+2, 1.24936566e+2, -1572276.0, -1631613.0, 54044.703, 0.13743702, -0.119995, -1540291.8, 175325.45, 0.0, 10.000789, 10.000196 
7.25039e+2, 1.3493703e+2, -1582799.5, -1652402.4, -9623.798, -0.12352644, -0.06632628, -1581493.4, 36119.1, 0.0, 10.000426, 9.999539 
7.250416e+2, 1.4493638e+2, -1536454.8, -1601306.8, -13901.269, 0.03357854, -0.05971725, -1533600.6, -13981.006, 0.0, 10.000138, 9.999347 
7.2504145e+2, 1.549366e+2, -1432812.3, -1494999.4, -32673.637, -0.052870832, -0.020051477, -1418801.8, 2817.5725, 0.0, 10.000163, 9.999388 
7.250422e+2, 1.6493645e+2, -1318171.3, -1359934.3, 8912.752, -0.071411185, 0.019502979, -1316348.8, 7271.862, 0.0, 10.000144, 9.99966 
7.2504455e+2, 1.7493552e+2, -1238971.0, -1269759.5, -8349.872, 0.03380493, -0.07545659, -1236852.4, -11225.154, 0.0, 10.000024, 9.999652 
7.250452e+2, 1.8493506e+2, -1154417.6, -1263853.5, -24453.691, 0.041943327, -0.042685993, -1149202.0, -21571.246, 0.0, 10.000292, 9.998888 
7.2504413e+2, 1.9493471e+2, -969362.9, -1126561.1, -16932.203, -0.070355296, -0.0022197147, -967559.75, 62075.047, 0.0, 10.000902, 9.998867 
7.2504437e+2, 2.0493351e+2, -876422.0, -1088082.9, 31946.518, -0.07625564, 0.0236264, -871705.4, 59941.96, 0.0, 10.00114, 9.998342 
7.2504604e+2, 2.1493098e+2, -801458.94, -1005332.6, 14684.231, 0.032689188, -0.09421736, -800406.7, 33266.156, 0.0, 10.000987, 9.99831 
7.250472e+2, 2.2492978e+2, -657180.5, -758750.94, 49321.195, 0.050137907, -0.095903836, -637172.25, 98510.984, 0.0, 10.00075, 9.99945 
7.250479e+2, 2.3492956e+2, -610619.75, -688446.56, 1382.7446, -0.016404089, -0.095815726, -610595.2, 27086.021, 0.0, 10.000406, 9.999429 
7.2504926e+2, 2.4492915e+2, -553898.7, -653906.8, -30362.139, 0.008504294, -0.053502645, -545402.6, -5719.7583, 0.0, 10.000329, 9.999011 
7.25051e+2, 2.5492817e+2, -411371.84, -539942.25, -55633.46, 0.11376943, -0.088965915, -390641.34, 51050.445, 0.0, 10.000645, 9.998975 
7.250527e+2, 2.6492703e+2, -338908.3, -478008.03, 12196.992, 0.14706482, -0.08337031, -337846.94, 5855.4746, 0.0, 10.000582, 9.998758 
7.2505456e+2, 2.749253e+2, -297301.78, -412335.63, -3465.924, 0.12530535, -0.16799372, -297197.47, -51478.67, 0.000000011844985, 10.000196, 9.998729 
7.2505546e+2, 2.849239e+2, -210605.69, -348865.2, -21205.475, 0.06958937, -0.15788795, -207426.42, -59692.89, 0.000004675658, 10.00028, 9.998432 
7.250551e+2, 2.9492268e+2, -28621.654, -214835.16, -12252.157, -0.02328763, -0.1674453, -27818.969, 21929.445, 0.000040333267, 10.000856, 9.998403 
7.250581e+2, 3.0492282e+2, 54485.49, 11777.459, 71123.35, 0.10504021, -0.05485885, 107391.32, 107391.32, 0.00014552829, 10.000407, 9.999859 
7.2505885e+2, 3.1492355e+2, -158461.22, -52276.848, -59062.867, -0.056773826, -0.012587914, -25951.135, -25951.135, 0.00033116215, 9.998673, 10.0002575 
7.3504066e+2, 1.2493566e+2, -1626108.6, -1736455.0, 31515.871, 0.013058922, -0.12323372, -1617741.9, 97882.984, 0.0, 10.000772, 9.9994755 
7.350396e+2, 1.349365e+2, -1619051.4, -1729624.0, -17313.621, -0.14085722, 0.016822347, -1616403.8, 1215.7017, 0.0, 10.0004225, 9.999015 
7.3504186e+2, 1.4493532e+2, -1538853.3, -1581538.5, -35006.074, 0.0051907934, -0.01566519, -1519196.8, 435.43893, 0.0, 10.000047, 9.999515 
7.350427e+2, 1.5493496e+2, -1429927.3, -1484824.8, -11655.366, 0.010135465, -0.050685305, -1427555.1, -5920.2188, 0.0, 10.000147, 9.999463 
7.350431e+2, 1.649347e+2, -1316401.8, -1350730.8, -14731.829, -0.038754825, -0.027253347, -1310946.8, 12689.908, 0.0, 10.000121, 9.999732 
7.3504376e+2, 1.7493425e+2, -1247512.9, -1266267.3, 6176.658, -0.08570608, -0.0815365, -1245661.4, -20021.447, 0.0, 9.999929, 9.999725 
7.3504466e+2, 1.8493411e+2, -1133943.0, -1182613.9, -17520.813, -0.07659583, -0.051418822, -1128291.9, -652.0811, 0.0, 10.0001335, 9.9995165 
7.3504573e+2, 1.9493386e+2, -949580.7, -1046542.94, 20057.396, -0.035252534, -0.06294843, -945595.44, 84044.54, 0.0, 10.000747, 9.999483 
7.350461e+2, 2.0493308e+2, -900062.9, -1102924.3, 8526.448, -0.04465708, -0.024752384, -899705.1, 31942.123, 0.0, 10.000984, 9.998318 
7.3504585e+2, 2.1493134e+2, -833756.2, -1019847.8, 25931.375, -0.11137464, -0.06583163, -830210.25, 3455.172, 0.0, 10.000761, 9.998317 
7.3504716e+2, 2.2492991e+2, -750793.75, -896964.25, 19386.623, -0.04941009, -0.045997396, -748266.25, -12586.683, 0.0, 10.000512, 9.998611 
7.350501e+2, 2.3492852e+2, -703049.8, -825954.56, 6742.982, 0.13539015, -0.08366159, -702680.94, -64988.09, 0.0, 10.000182, 9.998587 
7.3505116e+2, 2.4492711e+2, -586880.56, -696084.6, -33848.06, 0.12995388, -0.08511416, -577240.3, -37534.895, 0.0, 10.000208, 9.998782 
7.3504996e+2, 2.549253e+2, -456320.44, -587073.1, -26810.066, -0.0804619, -0.17902437, -451036.72, -9315.568, 0.0, 10.000445, 9.998747 
7.350514e+2, 2.649247e+2, -355483.06, -478230.0, -15036.15, -0.07758133, -0.112152986, -353668.0, -9939.896, 0.0, 10.000437, 9.998823 
7.350555e+2, 2.749248e+2, -313969.88, -414650.8, 7175.1816, 0.15511376, -0.020090466, -313461.1, -67730.22, 0.000000051096855, 10.000063, 9.9987755 
7.3505676e+2, 2.849241e+2, -154590.78, -234147.5, -15468.433, 0.13037737, 0.012868225, -151689.05, -3950.563, 0.0000058850314, 10.000273, 9.999228 
7.350549e+2, 2.949222e+2, 7735.0073, -116972.516, 32764.662, -0.17865753, -0.144552, 15819.266, 65573.36, 0.000044056193, 10.000751, 9.999129 
7.350576e+2, 3.0492148e+2, -25579.072, -146015.94, -1841.8873, -0.016987108, -0.10284826, -25550.91, -25550.91, 0.00015023243, 10.00037, 9.998792 
7.35058e+2, 3.149216e+2, -188601.05, -78781.086, -18683.78, -0.097685255, -0.013830857, -75689.44, -75689.44, 0.0003329124, 9.998523, 10.000146 
7.45041e+2, 1.2493445e+2, -1696773.9, -1780988.3, 31480.334, 0.01277635, -0.053256467, -1686307.1, 29332.178, 0.0, 10.000361, 9.999341 
7.450411e+2, 1.3493544e+2, -1520352.9, -1652915.6, -54528.35, -0.046569705, 0.07792125, -1500805.6, 116826.445, 0.0, 10.001007, 9.999238 
7.450428e+2, 1.4493425e+2, -1400867.9, -1486819.8, -15186.977, 0.06523095, 0.020586764, -1398263.4, 121380.414, 0.0, 10.000869, 9.999761 
7.4504364e+2, 1.5493368e+2, -1404993.6, -1438304.1, -26131.764, 0.098157525, -0.065006696, -1390660.6, 30986.379, 0.0, 10.000182, 9.999747 
7.450438e+2, 1.649335e+2, -1350964.1, -1368153.6, 23699.615, 0.04194558, -0.04790612, -1334348.9, -10701.457, 0.0, 9.999893, 9.999721 
7.4504393e+2, 1.7493334e+2, -1231233.9, -1258360.5, 2430.7595, -0.052170537, -0.072394416, -1231017.9, -5368.9243, 0.0, 10.000032, 9.999732 
7.45045e+2, 1.8493319e+2, -1108364.8, -1161253.9, 10382.617, -0.05292577, -0.050319877, -1106399.6, 21249.611, 0.0, 10.000262, 9.999609 
7.4504685e+2, 1.9493254e+2, -970070.7, -1049465.5, -22249.389, 0.024713064, -0.10910964, -964260.75, 65391.99, 0.0, 10.0005665, 9.999557 
7.4504757e+2, 2.0493186e+2, -917228.75, -1071906.8, -29044.625, 0.027190419, -0.082950376, -911954.75, 19703.29, 0.0, 10.0006895, 9.998658 
7.4504703e+2, 2.1493077e+2, -829285.1, -983304.94, -22347.625, -0.050395362, -0.09293721, -826108.06, 7560.4204, 0.0, 10.000634, 9.998624 
7.4504817e+2, 2.2492954e+2, -738748.25, -921302.1, 41464.69, -0.0046675885, -0.057923935, -729771.5, 5909.7485, 0.0, 10.000726, 9.998336 
7.4505085e+2, 2.3492779e+2, -616455.56, -819486.6, 33866.07, 0.16076401, -0.101430014, -610955.6, 26744.316, 0.0, 10.000908, 9.998287 
7.450518e+2, 2.449262e+2, -488712.8, -643855.0, 62973.25, 0.15354355, -0.1101723, -466369.4, 73345.68, 0.0, 10.000859, 9.998833 
7.45051e+2, 2.5492436e+2, -405067.63, -553495.75, 56005.793, -0.026482228, -0.2145866, -386306.53, 55423.816, 0.0, 10.000755, 9.99883 
7.4505216e+2, 2.649239e+2, -353395.03, -476882.75, 90664.625, -0.030362783, -0.13709012, -305446.7, 38289.46, 0.0, 10.000451, 9.998825 
7.4505544e+2, 2.7492446e+2, -336374.2, -416805.4, 72501.695, 0.16369253, -0.002268015, -293681.47, -47945.477, 0.00000017449423, 9.999895, 9.998829 
7.450566e+2, 2.8492406e+2, -224209.28, -264761.88, 88241.984, 0.1275651, 0.060308542, -153944.0, -6203.1274, 0.0000070145306, 9.999782, 9.999256 
7.450557e+2, 2.949223e+2, -71109.96, -147527.17, 40590.47, -0.13879392, -0.08631424, -53573.758, -3819.412, 0.00004543542, 10.000166, 9.999206 
7.450584e+2, 3.0492085e+2, -69896.15, -198664.78, -5811.4077, 0.04381279, -0.10916649, -69634.414, -69634.414, 0.00014809403, 10.000199, 9.998508 
7.450583e+2, 3.149202e+2, -54130.887, -23657.81, 19994.377, 0.04675447, -0.067786954, -13756.186, -13756.186, 0.00032280377, 9.999502, 10.000037 
7.550407e+2, 1.2493277e+2, -1670409.5, -1713120.4, 12715.621, -0.13132966, 0.052086916, -1666910.5, 48751.664, 0.0, 10.00031, 9.999831 
7.550431e+2, 1.3493377e+2, -1459002.9, -1529554.3, -15869.193, 0.009925353, 0.09917772, -1455597.8, 162053.27, 0.0, 10.001016, 10.000089 
7.5504404e+2, 1.4493316e+2, -1380480.4, -1432809.3, -63303.316, 0.057669573, 0.040707722, -1338147.4, 181507.47, 0.0, 10.000826, 10.00015 
7.5504375e+2, 1.5493296e+2, -1387779.0, -1386053.9, -36564.977, 0.05145501, -0.0420199, -1350341.3, 71312.48, 0.0, 10.000116, 10.00014 
7.550438e+2, 1.6493294e+2, -1361325.5, -1375714.5, 8725.566, 0.01641167, -0.03198267, -1357210.9, -33558.2, 0.0, 9.999828, 9.9997 
7.550447e+2, 1.7493285e+2, -1244306.6, -1271977.6, 24415.816, -0.019897116, -0.04316235, -1230078.8, -4424.793, 0.0, 9.999976, 9.999664 
7.5504583e+2, 1.8493229e+2, -1147260.6, -1221831.0, 2089.7925, -0.03348665, -0.036009636, -1147202.1, -19543.158, 0.0, 10.000172, 9.999241 
7.5504714e+2, 1.949308e+2, -1016592.94, -1108714.9, 6647.27, -0.03605382, -0.14317414, -1016115.75, 13556.437, 0.0, 10.000408, 9.999227 
7.550483e+2, 2.0492989e+2, -902424.56, -996039.94, -47719.32, 0.0006274868, -0.15241733, -882388.44, 49290.527, 0.0, 10.00049, 9.99928 
7.5504917e+2, 2.149293e+2, -817850.25, -903120.7, -8059.232, 0.07070205, -0.17624636, -817095.25, 16586.713, 0.0, 10.000404, 9.999283 
7.550497e+2, 2.2492866e+2, -747354.25, -894930.0, 32727.67, 0.048577953, -0.12851323, -740421.94, -4734.04, 0.0, 10.00053, 9.998614 
7.5504965e+2, 2.349276e+2, -631772.2, -797092.06, 57771.996, -0.077384315, -0.12919898, -613584.4, 24116.455, 0.0, 10.000676, 9.998553 
7.5505084e+2, 2.449266e+2, -491031.25, -612536.1, 43301.79, -0.05958142, -0.10542312, -477178.72, 62531.34, 0.0, 10.000699, 9.999125 
7.5505346e+2, 2.549252e+2, -405784.44, -522811.47, 68969.57, 0.107180096, -0.19742815, -373851.1, 67869.15, 0.0, 10.000615, 9.999108 
7.550546e+2, 2.649245e+2, -365166.63, -481240.34, 54138.44, 0.1307737, -0.15714282, -343835.7, -108.39814, 0.0, 10.000367, 9.998836 
7.5505406e+2, 2.7492422e+2, -358443.78, -430667.2, 71219.73, 0.0020222582, -0.10504706, -314703.72, -68969.516, 0.0000002213921, 9.999755, 9.998804 
7.5505483e+2, 2.8492388e+2, -287356.34, -378345.9, 88009.61, -0.069174245, 0.00043778474, -233778.1, -86037.945, 0.000006961638, 9.999699, 9.998521 
7.550567e+2, 2.9492298e+2, -133991.11, -256593.89, 80090.09, -0.097627476, 0.014832352, -94434.766, -44685.15, 0.00004401986, 10.000061, 9.998515 
7.550596e+2, 3.0492073e+2, -49275.824, -127823.58, -40632.797, 0.108942315, -0.081336714, -32038.982, -32038.982, 0.0001416952, 10.0001, 9.999026 
7.550581e+2, 3.149202e+2, -82190.766, -39831.184, 88085.266, -0.0014734921, -0.0837765, 29584.814, 29584.814, 0.0003069929, 9.99934, 9.999991 
7.650421e+2, 1.2493182e+2, -1495260.4, -1624865.3, 143249.55, -0.061659902, 0.0661169, -1402837.5, 312834.34, 0.00000000032551553, 10.0014305, 9.999917 
7.6504415e+2, 1.3493226e+2, -1582526.3, -1560297.3, 17206.334, 0.08167274, 0.027213715, -1550927.9, 66737.23, 0.0, 10.000017, 10.000363 
7.6504415e+2, 1.4493217e+2, -1586282.6, -1526090.8, 4711.4893, 0.06302157, -0.0001526133, -1525724.3, -6060.7124, 0.0, 9.999354, 10.000239 
7.65044e+2, 1.549324e+2, -1388561.3, -1377241.0, -23235.814, 0.07505386, -0.05033194, -1358985.9, 62672.633, 0.0, 10.000037, 10.000259 
7.6504433e+2, 1.6493253e+2, -1282650.4, -1352600.1, 55241.45, 0.066536, -0.021306079, -1252242.9, 71413.3, 0.0, 10.000443, 9.999553 
7.650457e+2, 1.7493233e+2, -1171821.4, -1253689.8, 29008.19, 0.06406757, -0.031449687, -1162585.0, 63074.496, 0.0, 10.000555, 9.999505 
7.6504695e+2, 1.8493189e+2, -1108230.0, -1190801.9, 47097.195, 0.059670996, -0.012955787, -1086884.8, 40779.754, 0.0, 10.000398, 9.999335 
7.6504797e+2, 1.949307e+2, -1074788.6, -1131359.5, 48930.91, 0.037703026, -0.0971245, -1046555.94, -16880.35, 0.0, 9.999974, 9.999283 
7.650492e+2, 2.0493e+2, -937117.4, -987681.56, 47359.656, 0.067836635, -0.10164151, -908714.06, 22966.635, 0.0, 10.000156, 9.999499 
7.650505e+2, 2.1492931e+2, -720726.94, -840024.4, 25043.09, 0.14230433, -0.1545059, -715683.06, 118000.805, 0.0, 10.000978, 9.999454 
7.6505095e+2, 2.2492869e+2, -672530.9, -842356.5, 47318.32, 0.10570007, -0.12006626, -660236.6, 75452.71, 0.0, 10.000996, 9.998747 
7.6505023e+2, 2.3492786e+2, -686383.3, -803186.06, 26037.47, -0.049698457, -0.111372985, -680842.0, -43142.12, 0.0, 10.000238, 9.998709 
7.650513e+2, 2.4492718e+2, -574667.56, -633502.4, 51288.992, -0.038869586, -0.07209811, -544958.44, -5252.5195, 0.0, 10.000037, 9.999302 
7.650542e+2, 2.5492635e+2, -436020.75, -517944.84, 38499.07, 0.1453375, -0.124464065, -420768.3, 20942.426, 0.0, 10.000325, 9.999283 
7.6505524e+2, 2.6492548e+2, -368210.47, -495220.7, 28264.107, 0.16667771, -0.105303645, -362204.75, -18486.057, 0.0, 10.000404, 9.998721 
7.650543e+2, 2.7492422e+2, -294951.4, -414277.9, -903.3779, 0.02751856, -0.13608244, -294944.56, -49211.645, 0.00000016204108, 10.000255, 9.998679 
7.650552e+2, 2.8492343e+2, -225774.81, -370955.56, 91803.91, -0.02110001, -0.05634451, -181329.63, -33587.094, 0.000006290961, 10.000223, 9.998308 
7.65058e+2, 2.949228e+2, -124170.91, -264476.47, 84921.05, 0.022380477, 0.000021912396, -84173.8, -34423.215, 0.000041719115, 10.000219, 9.998359 
7.6506007e+2, 3.049208e+2, -272.1532, -95386.625, -17193.047, 0.14893658, -0.06764831, 2740.2808, 2740.2808, 0.00013461517, 10.000373, 9.999136 
7.6505846e+2, 3.149198e+2, 9256.274, -11391.983, 50335.813, 0.079425864, -0.12249285, 50315.816, 50315.816, 0.00029005748, 10.000009, 9.9998865 
7.750442e+2, 1.2493144e+2, -1519046.9, -1653938.6, -5728.9985, -0.093209796, -0.02263389, -1518804.0, 196865.97, 0.0000000023621072, 10.001358, 9.99975 
7.750438e+2, 1.3493085e+2, -1609086.8, -1606149.9, -30347.568, 0.0023401391, -0.12873858, -1577235.3, 40439.383, 0.0, 9.999988, 10.000064 
7.7504236e+2, 1.4493115e+2, -1584828.1, -1521792.6, 5390.4463, -0.09611634, -0.10376868, -1521335.0, -1664.7605, 0.0, 9.999342, 10.000277 
7.750438e+2, 1.5493205e+2, -1390503.6, -1380732.3, 22673.914, 0.009608237, -0.085538074, -1362423.6, 59236.434, 0.0, 10.000032, 10.000238 
7.75045e+2, 1.6493243e+2, -1308782.1, -1390692.6, 40275.344, 0.04790767, -0.018057168, -1292296.8, 31360.023, 0.0, 10.0003805, 9.999323 
7.750465e+2, 1.749319e+2, -1195281.3, -1284035.9, 52927.543, 0.05409887, -0.0385458, -1170588.5, 55076.12, 0.0, 10.000483, 9.9993305 
7.7504784e+2, 1.8493202e+2, -1089353.4, -1126862.8, 16244.174, 0.07635169, 0.02034443, -1083296.5, 44368.527, 0.0, 10.000279, 9.999841 
7.750489e+2, 1.9493242e+2, -1059272.6, -1066589.9, 50442.266, 0.09735166, 0.044139203, -1012356.44, 17304.895, 0.0, 9.999829, 9.999803 
7.7504975e+2, 2.0493223e+2, -981073.4, -1030986.8, 61315.36, 0.07894803, 0.07466944, -939830.3, -8167.8477, 0.0, 9.999956, 9.999297 
7.750506e+2, 2.1493098e+2, -770594.75, -885227.3, 71104.77, 0.02401356, -0.011442379, -736581.7, 97090.64, 0.0, 10.000738, 9.999253 
7.750515e+2, 2.2492984e+2, -709861.2, -868607.1, 1202.1532, 0.02901513, -0.015451639, -709852.1, 25831.03, 0.0, 10.000772, 9.998679 
7.750522e+2, 2.3492841e+2, -719333.3, -825617.44, 14655.346, 0.08935989, -0.05897698, -717349.5, -79651.11, 0.0, 10.000038, 9.998655 
7.750527e+2, 2.4492782e+2, -594109.56, -629534.5, 45163.6, 0.0666789, -0.014420673, -563309.3, -23605.592, 0.0, 9.999856, 9.999414 
7.750529e+2, 2.549278e+2, -456928.6, -513688.28, 67056.71, -0.04919881, 0.007306923, -412493.47, 29207.857, 0.0, 10.000129, 9.999403 
7.7505386e+2, 2.6492682e+2, -405098.53, -546085.56, 6672.8237, -0.0450065, 0.021667395, -404783.4, -61073.777, 0.0, 10.000294, 9.998428 
7.7505535e+2, 2.7492422e+2, -332595.22, -463805.03, 11927.909, 0.073690355, -0.111802, -331519.72, -85785.555, 0.00000014054619, 10.000129, 9.998404 
7.75057e+2, 2.8492254e+2, -221542.83, -333296.97, 76827.29, 0.105633795, -0.12644456, -182421.58, -34671.457, 0.0000059856334, 10.000107, 9.998617 
7.75059e+2, 2.9492155e+2, -119541.92, -233983.47, 108829.76, 0.04673221, -0.13908997, -53806.88, -4047.3948, 0.0000396548, 10.000125, 9.998613 
7.750595e+2, 3.0492097e+2, -24979.047, -122971.33, -39461.69, 0.028909504, -0.06831396, -11063.766, -11063.766, 0.00012692052, 10.000288, 9.998986 
7.7505827e+2, 3.149197e+2, -39847.543, -70666.8, 101276.0, -0.025408283, -0.1277294, 47184.45, 47184.45, 0.00027215088, 9.999827, 9.999573 
7.850451e+2, 1.24932386e+2, -1763435.0, -1764189.1, 47397.2, -0.026509142, -0.045726445, -1716413.4, -755.653, 0.0000000040597263, 9.999691, 9.999777 
7.850447e+2, 1.349317e+2, -1586385.0, -1611173.5, -4299.162, 0.10591615, -0.14428751, -1585660.6, 32002.895, 0.0, 10.000242, 9.999888 
7.8504294e+2, 1.4493194e+2, -1436017.9, -1490390.4, 98623.97, -0.01724852, -0.098994106, -1360901.8, 158758.61, 0.0, 10.000552, 9.9999 
7.850443e+2, 1.5493226e+2, -1293751.9, -1377143.9, 46739.156, 0.032801315, -0.09786276, -1272813.1, 148843.53, 0.0, 10.0009, 9.999837 
7.8504556e+2, 1.6493227e+2, -1239533.5, -1364000.6, 71162.195, 0.060277246, -0.045284998, -1207231.0, 116426.51, 0.0, 10.000883, 9.999258 
7.8504723e+2, 1.749316e+2, -1216487.9, -1301273.8, 54452.66, 0.09326078, -0.07352918, -1189871.8, 35794.76, 0.0, 10.000373, 9.999259 
7.850486e+2, 1.8493183e+2, -1084922.4, -1120242.5, 43461.117, 0.13222882, -0.0012456797, -1055670.3, 71995.63, 0.0, 10.000297, 9.999873 
7.8504956e+2, 1.9493261e+2, -954302.7, -1009010.75, 9011.26, 0.15962261, 0.05647003, -952856.6, 76802.64, 0.0, 10.00054, 9.999844 
7.850504e+2, 2.0493262e+2, -884949.94, -993312.6, 58970.68, 0.12511034, 0.10901598, -859049.1, 72610.555, 0.0, 10.00064, 9.999234 
7.850512e+2, 2.1493141e+2, -818823.7, -913378.4, 47283.16, 0.036743842, 0.034396432, -799236.6, 34434.25, 0.0, 10.00043, 9.999211 
7.850521e+2, 2.2493029e+2, -730172.44, -848957.2, 10925.683, 0.04253129, 0.019548072, -729175.9, 6505.4473, 0.0, 10.000503, 9.9989395 
7.85053e+2, 2.3492885e+2, -588743.94, -736615.5, 14254.34, 0.1387304, -0.05026909, -587382.4, 50312.15, 0.0, 10.000821, 9.998891 
7.8505355e+2, 2.4492814e+2, -471734.47, -625877.56, 78924.59, 0.11995176, -0.0058071967, -438492.3, 101209.234, 0.0, 10.000938, 9.998913 
7.850537e+2, 2.5492778e+2, -388987.7, -541221.25, 20385.213, -0.0182886, 0.033315074, -386305.22, 55400.168, 0.0, 10.000842, 9.998873 
7.850545e+2, 2.6492652e+2, -330473.72, -509340.66, -24574.799, -0.023083547, 0.048049107, -327158.8, 16557.877, 0.0, 10.000813, 9.998426 
7.850562e+2, 2.749238e+2, -225715.2, -411642.66, -35119.082, 0.11706248, -0.09953893, -219302.84, 26437.557, 0.0000001311964, 10.000865, 9.998402 
7.8505796e+2, 2.849219e+2, -111879.19, -258755.8, 69438.2, 0.16720518, -0.14272894, -84248.95, 63507.547, 0.0000058891046, 10.000759, 9.998825 
7.8506e+2, 2.9492086e+2, -71743.805, -194282.69, 54272.25, 0.14122385, -0.17482767, -51163.254, -1398.2781, 0.000037489564, 10.000369, 9.998781 
7.8505975e+2, 3.0492046e+2, -20103.547, -168866.14, -54618.633, 0.028021688, -0.07131059, -2203.9014, -2203.9014, 0.00011865352, 10.000511, 9.998564 
7.850588e+2, 3.1491944e+2, 96162.836, -4636.14, -13146.508, 0.013643515, -0.07794532, 97849.23, 97849.23, 0.00025448482, 10.00075, 9.999573 
7.950439e+2, 1.2493519e+2, -1742213.9, -1742211.6, -18185.479, -0.21010357, 0.026311455, -1724027.3, -8397.682, 0.0000000034592607, 9.999778, 9.99989 
7.9504657e+2, 1.3493484e+2, -1583444.8, -1621005.0, 26880.242, 0.21489298, -0.028165687, -1569434.0, 48197.375, 0.0, 10.000304, 9.999792 
7.950455e+2, 1.4493454e+2, -1499935.1, -1613132.9, 86518.92, 0.12489602, 0.008680664, -1453146.6, 66487.05, 0.0, 10.000518, 9.999069 
7.9504514e+2, 1.5493305e+2, -1350776.5, -1490809.1, 79779.195, -0.014502896, -0.09481448, -1314646.8, 107001.56, 0.0, 10.000887, 9.999058 
7.950458e+2, 1.649321e+2, -1238040.5, -1357040.3, 34093.93, -0.053214792, -0.10288825, -1228964.6, 94693.15, 0.0, 10.0008545, 9.999327 
7.950474e+2, 1.7493142e+2, -1212075.5, -1293230.0, 51589.953, 0.030173488, -0.13640516, -1187017.1, 38647.457, 0.0, 10.000364, 9.999323 
7.950487e+2, 1.849313e+2, -1138957.6, -1200916.1, 35887.633, 0.076250225, -0.07905203, -1122527.6, 5139.6055, 0.0, 10.000169, 9.999377 
7.9504955e+2, 1.9493127e+2, -1004124.25, -1083258.9, 34516.086, 0.06615331, -0.05790584, -991185.06, 38484.688, 0.0, 10.000419, 9.999387 
7.950507e+2, 2.0493118e+2, -901424.5, -985941.56, 33051.38, 0.055770658, 0.0013910072, -890034.4, 41638.047, 0.0, 10.000461, 9.99937 
7.950519e+2, 2.1493056e+2, -839617.56, -909353.0, 55869.42, 0.03277062, -0.032341093, -808628.25, 25051.723, 0.0, 10.000224, 9.999336 
7.9505247e+2, 2.2493002e+2, -726355.1, -787003.8, 8394.762, 0.0026737724, -0.019966789, -725214.56, 10469.311, 0.0, 10.00027, 9.999477 
7.950523e+2, 2.3492925e+2, -578058.1, -670608.7, 44855.43, -0.044394378, -0.07732027, -559886.44, 77800.875, 0.0, 10.0006275, 9.999438 
7.9505336e+2, 2.4492814e+2, -576219.9, -800489.25, 58626.918, -0.023215026, -0.044440974, -561818.75, -22119.979, 0.0, 10.00076, 9.9978 
7.950557e+2, 2.5492626e+2, -496825.1, -720120.0, 34421.68, 0.06615852, -0.04556798, -491639.3, -49916.7, 0.0, 10.000652, 9.997735 
7.950566e+2, 2.6492465e+2, -324155.7, -474740.66, -37087.77, 0.072681054, -0.02292031, -315516.88, 28222.207, 0.0, 10.0007105, 9.998715 
7.950562e+2, 2.7492294e+2, -223627.56, -383742.78, -8883.319, -0.00089556613, -0.097920544, -223136.22, 22615.195, 0.000000103459534, 10.000757, 9.998648 
7.950576e+2, 2.849217e+2, -115466.586, -249124.4, 41236.805, 0.020815423, -0.092826225, -103767.94, 43992.418, 0.0000054454867, 10.000687, 9.998926 
7.950606e+2, 2.9492074e+2, -85892.45, -192174.27, 66481.23, 0.10837785, -0.12513849, -53923.38, -4155.9976, 0.00003447301, 10.00023, 9.998866 
7.9506004e+2, 3.0491948e+2, -83780.48, -277629.75, -49237.31, -0.02723527, -0.08150407, -71991.28, -71991.28, 0.0001104858, 10.000408, 9.997863 
7.950591e+2, 3.149171e+2, 75907.984, -9814.937, 23293.686, -0.11402057, -0.1550173, 81828.7, 81828.7, 0.000240168, 10.000587, 9.999614 
8.050444e+2, 1.2493527e+2, -1844458.9, -1755506.0, -72661.68, -0.071887374, -0.024067396, -1714789.3, 838.1049, 0.0000000057252847, 9.998927, 10.000226 
8.050473e+2, 1.349354e+2, -1515034.3, -1582161.1, -50087.863, 0.25017133, -0.037461128, -1488304.3, 129319.96, 0.0, 10.000734, 9.999875 
8.050467e+2, 1.4493494e+2, -1410496.3, -1604725.1, 38210.223, 0.17104626, -0.0016731872, -1403249.6, 116378.4, 0.0, 10.001294, 9.998751 
8.0504656e+2, 1.549329e+2, -1365917.6, -1541583.1, 19721.393, 0.042170916, -0.12189083, -1363730.8, 57917.87, 0.0, 10.000966, 9.998677 
8.05047e+2, 1.6493188e+2, -1230017.9, -1343801.3, 21504.648, -0.008495888, -0.120245926, -1226089.3, 97569.86, 0.0, 10.000893, 9.999398 
8.0504817e+2, 1.7493169e+2, -1092482.3, -1231476.0, 1262.3136, 0.039940048, -0.110212676, -1092470.9, 133190.56, 0.0, 10.001183, 9.999357 
8.0504924e+2, 1.8493131e+2, -1019730.25, -1162917.6, 23991.918, 0.080449104, -0.068763465, -1015817.2, 111849.03, 0.0, 10.001089, 9.999189 
8.0505025e+2, 1.9493034e+2, -1012637.94, -1115962.1, 5182.3545, 0.09750265, -0.11532342, -1012378.6, 17298.852, 0.0, 10.000491, 9.999135 
8.0505115e+2, 2.0493011e+2, -917735.0, -985573.94, 45540.277, 0.07717459, -0.05958556, -894870.25, 36811.74, 0.0, 10.000311, 9.999447 
8.050519e+2, 2.1493022e+2, -804629.6, -883739.6, 26082.457, 0.016539128, -0.028366452, -796804.4, 36879.277, 0.0, 10.000432, 9.99941 
8.0505276e+2, 2.2492996e+2, -677113.25, -768643.75, -533.27637, -0.006404435, 0.009801831, -677110.1, 58575.29, 0.0, 10.0006275, 9.999426 
8.0505335e+2, 2.3492903e+2, -555842.9, -664776.56, -40298.25, -0.0004263481, -0.060335055, -542555.9, 95134.59, 0.0, 10.000808, 9.999385 
8.050546e+2, 2.449278e+2, -554156.5, -803784.2, 11027.715, 0.03057686, -0.030933812, -553670.3, -13966.975, 0.0, 10.000953, 9.997692 
8.050567e+2, 2.5492582e+2, -450515.94, -709643.1, 27076.66, 0.098685294, -0.030602658, -447716.9, -5988.4136, 0.0, 10.001009, 9.997644 
8.0505776e+2, 2.6492432e+2, -286417.8, -449914.03, 17132.22, 0.11186911, 0.003291749, -284641.88, 59102.453, 0.0, 10.000929, 9.998789 
8.050577e+2, 2.7492285e+2, -219974.7, -370141.25, -3353.0564, 0.08176248, -0.056240708, -219899.88, 25854.508, 0.00000004701224, 10.000712, 9.998769 
8.0505884e+2, 2.8492177e+2, -135274.72, -275331.06, 66862.42, 0.08891033, -0.0393406, -108480.734, 39281.566, 0.000004093495, 10.00062, 9.99878 
8.0506104e+2, 2.9492065e+2, -21205.766, -173627.42, 34018.73, 0.1183781, -0.073312305, -13957.835, 35813.05, 0.000029631305, 10.000739, 9.998746 
8.0506057e+2, 3.049187e+2, 12762.996, -231417.0, -11120.503, -0.040545624, -0.08803647, 13268.402, 13268.402, 0.00010221737, 10.001066, 9.99788 
8.050614e+2, 3.1491685e+2, 147307.11, 29247.322, 22974.32, 0.04945643, -0.10897709, 151620.3, 151620.3, 0.00023173698, 10.00106, 9.999669 
8.150455e+2, 1.24932945e+2, -1800609.0, -1682789.0, -76524.21, 0.049839266, -0.17269392, -1645126.0, 70522.02, 0.000000004999778, 9.999002, 10.000689 
8.1504625e+2, 1.3493355e+2, -1487733.6, -1533988.8, 29014.344, 0.038275033, -0.17029606, -1473757.1, 143882.7, 0.0, 10.000779, 10.000178 
8.150462e+2, 1.4493337e+2, -1405107.4, -1601493.0, 2887.1467, -0.057987344, -0.12051025, -1405064.9, 114576.14, 0.0, 10.00132, 9.998768 
8.15048e+2, 1.5493198e+2, -1361636.4, -1532178.6, 23564.396, 0.041866645, -0.17886972, -1358440.4, 63216.242, 0.0, 10.000962, 9.998745 
8.1504875e+2, 1.6493176e+2, -1242033.4, -1354818.6, 13780.48, 0.039432857, -0.09933089, -1240374.1, 83286.55, 0.0, 10.000833, 9.999348 
8.1504893e+2, 1.7493239e+2, -1100240.4, -1234189.1, 30391.88, -0.036201507, -0.006901801, -1093667.3, 131989.14, 0.0, 10.00113, 9.999357 
8.150498e+2, 1.849319e+2, -1035218.06, -1173990.6, -13851.407, -0.008991511, 0.024798824, -1033849.0, 93813.19, 0.0, 10.000987, 9.999167 
8.15051e+2, 1.949299e+2, -1030813.0, -1128805.5, 1019.1613, 0.09539813, -0.12442227, -1030802.4, -1120.2769, 0.0, 10.000375, 9.999104 
8.1505144e+2, 2.0492953e+2, -954404.8, -1014588.9, 32752.715, 0.051248915, -0.07540676, -940019.06, -8331.624, 0.0, 10.00011, 9.999347 
8.15051e+2, 2.1493046e+2, -841053.56, -907676.7, 49176.594, -0.15233284, 0.046688512, -814968.2, 18713.246, 0.0, 10.00021, 9.999352 
8.1505245e+2, 2.2493015e+2, -755366.6, -871767.5, -12075.968, -0.13010176, 0.11123745, -754127.0, -18441.424, 0.0, 10.0003805, 9.998836 
8.150556e+2, 2.3492816e+2, -633061.25, -767538.5, -16039.9375, 0.1088128, -0.004813005, -631174.56, 6529.56, 0.0, 10.000567, 9.998791 
8.150569e+2, 2.4492706e+2, -522496.72, -693315.25, -3752.8928, 0.13375545, 0.026668184, -522414.3, 17301.047, 0.0, 10.000759, 9.998546 
8.1505644e+2, 2.5492656e+2, -418143.6, -601304.75, 46948.89, -0.061888374, 0.085758485, -406810.63, 34912.035, 0.0, 10.000831, 9.998476 
8.1505746e+2, 2.6492554e+2, -308006.28, -464395.53, -7152.8633, -0.041203238, 0.13015163, -307679.8, 36052.79, 0.0, 10.000806, 9.998746 
8.150599e+2, 2.7492356e+2, -256003.0, -393224.13, 9331.801, 0.19750203, 0.02449116, -255371.28, -9621.788, 0.000000004527389, 10.000502, 9.998709 
8.150611e+2, 2.8492197e+2, -177121.75, -341553.84, 54630.383, 0.21209584, 0.018663393, -160626.31, -12863.371, 0.0000024308686, 10.000524, 9.998374 
8.150609e+2, 2.9492062e+2, -76824.35, -256095.44, 64764.33, -0.015000182, 0.0013044792, -55875.316, -6100.317, 0.00002455122, 10.000599, 9.998247 
8.150607e+2, 3.0491808e+2, 56871.906, -130030.62, -21816.84, -0.16764776, -0.08140084, 59384.766, 59384.766, 0.00009685274, 10.001033, 9.998587 
8.1506425e+2, 3.1491777e+2, 127424.0, 50176.688, 43307.652, 0.15162988, -0.019378092, 146829.13, 146829.13, 0.00023260372, 10.0008135, 9.999927 
8.250468e+2, 1.2493226e+2, -1685065.6, -1670352.8, 36265.223, 0.25120896, -0.20986621, -1640705.4, 74947.88, 0.0000000017683296, 9.9999695, 10.000309 
8.2504636e+2, 1.3493273e+2, -1548735.9, -1625897.0, 30211.344, -0.0037624897, -0.1714482, -1538314.5, 79334.125, 0.0, 10.000612, 9.999637 
8.2504684e+2, 1.4493245e+2, -1458518.6, -1570314.8, -11672.798, -0.08528644, -0.1305029, -1457312.9, 62338.523, 0.0, 10.000716, 9.999266 
8.2504934e+2, 1.5493187e+2, -1370950.3, -1482739.0, -991.95135, 0.104535766, -0.15521519, -1370941.5, 50715.617, 0.0, 10.000677, 9.999211 
8.250502e+2, 1.649317e+2, -1284902.1, -1401406.1, 42947.6, 0.11849563, -0.0834873, -1270781.6, 52878.7, 0.0, 10.000626, 9.999134 
8.250498e+2, 1.7493165e+2, -1222728.3, -1325823.6, 9092.61, -0.016337505, -0.03777597, -1221932.5, 3731.491, 0.0, 10.000398, 9.999094 
8.250505e+2, 1.849312e+2, -1089101.8, -1196691.1, -6821.0874, -0.008326097, 0.007935122, -1088671.0, 38998.805, 0.0, 10.00059, 9.999207 
8.2505196e+2, 1.9492993e+2, -908174.3, -1066722.4, -23084.26, 0.1176915, -0.07098922, -904881.7, 124800.39, 0.0, 10.001194, 9.999135 
8.2505244e+2, 2.049294e+2, -808390.3, -967753.94, 32499.002, 0.09022437, -0.029928263, -802017.6, 129670.73, 0.0, 10.001216, 9.999125 
8.25052e+2, 2.149293e+2, -801846.75, -918614.25, -908.0882, -0.08657289, 0.012511723, -801839.7, 31852.03, 0.0, 10.000603, 9.99909 
8.250534e+2, 2.2492869e+2, -705613.6, -868011.5, 14836.501, -0.07717441, 0.06972805, -704269.3, 31429.943, 0.0, 10.000787, 9.998685 
8.250568e+2, 2.3492713e+2, -470408.28, -710002.06, 9025.691, 0.12240803, 0.014988215, -470068.75, 167646.56, 0.0, 10.001749, 9.998635 
8.2505816e+2, 2.4492617e+2, -366018.44, -582551.2, 12519.625, 0.14178383, 0.050750762, -365296.97, 174428.23, 0.0, 10.001694, 9.998851 
8.2505745e+2, 2.5492546e+2, -416835.84, -561476.8, -14463.759, -0.026698856, 0.05784683, -415403.7, 26328.365, 0.0, 10.0006895, 9.99881 
8.250585e+2, 2.649245e+2, -345030.38, -499705.0, -30204.947, 0.009278726, 0.10003326, -339341.2, 4400.1445, 0.0, 10.000631, 9.998585 
8.2506144e+2, 2.7492285e+2, -122347.3, -344167.44, -58046.875, 0.2658017, 0.04101043, -108075.56, 137682.08, 0.0, 10.001494, 9.99856 
8.2506275e+2, 2.8492132e+2, -500.5828, -265861.5, 20148.424, 0.2750497, 0.05268291, 1020.5349, 148792.48, 0.000001518397, 10.00178, 9.99829 
8.2506233e+2, 2.9491958e+2, 39675.016, -208257.33, 16872.367, 0.040656146, 0.004048503, 40817.95, 90605.86, 0.000022026383, 10.001413, 9.998189 
8.250624e+2, 3.0491737e+2, 106081.11, -101024.03, -24517.541, -0.10063728, -0.04720468, 108943.98, 108943.98, 0.00009707927, 10.001361, 9.998615 
8.250658e+2, 3.1491685e+2, 201929.3, 57663.16, -103895.89, 0.20988378, -0.014064535, 256277.6, 256277.6, 0.00024343749, 10.001428, 9.999677 
8.3504707e+2, 1.24933705e+2, -1779984.8, -1853930.4, 8375.403, 0.20377353, -0.08637532, -1779048.0, -63410.008, 0.000000000051048894, 9.999923, 9.999069 
8.350472e+2, 1.3493304e+2, -1623405.6, -1783598.9, 69372.24, -0.028763624, -0.041674376, -1597540.1, 20109.316, 0.0, 10.000637, 9.998536 
8.35048e+2, 1.4493218e+2, -1405953.5, -1461451.1, -36064.34, -0.08789776, -0.042479817, -1388198.1, 131460.23, 0.0, 10.000711, 10.000016 
8.350499e+2, 1.5493256e+2, -1314383.4, -1363854.6, 14458.807, 0.055198155, -0.055633046, -1310467.5, 111182.96, 0.0, 10.000668, 10.00003 
8.3505064e+2, 1.6493174e+2, -1324395.9, -1461451.0, 15433.453, 0.06875858, -0.07231394, -1322679.5, 978.61804, 0.0, 10.000533, 9.99877 
8.350504e+2, 1.7492959e+2, -1255572.0, -1380688.6, 19548.46, -0.037146322, -0.19521405, -1252588.9, -26906.162, 0.0, 10.000349, 9.998738 
8.3505094e+2, 1.8492931e+2, -1100826.9, -1198710.0, -2069.904, -0.052271735, -0.11538471, -1100783.1, 26904.617, 0.0, 10.000494, 9.999242 
8.3505243e+2, 1.9493042e+2, -924710.44, -1061044.0, 16995.188, 0.011280386, 0.034957428, -922623.75, 107053.836, 0.0, 10.001031, 9.999249 
8.350535e+2, 2.0492971e+2, -867241.2, -1044853.7, -8003.9214, 0.047299504, 0.07293238, -866881.2, 64803.81, 0.0, 10.001013, 9.998697 
8.350543e+2, 2.1492678e+2, -861900.44, -993251.8, -5326.1484, 0.049186077, -0.12684675, -861684.8, -27970.809, 0.0, 10.000388, 9.998678 
8.3505523e+2, 2.2492567e+2, -717832.1, -843848.4, 33332.723, 0.0021401558, -0.11231716, -709558.44, 26167.195, 0.0, 10.000568, 9.998958 
8.3505654e+2, 2.3492607e+2, -484383.2, -687678.44, 63651.53, -0.10727222, 0.00020257295, -466098.5, 171624.67, 0.0, 10.001522, 9.998899 
8.350578e+2, 2.4492523e+2, -408977.2, -631322.44, -40818.22, -0.09352101, 0.047364425, -401720.6, 138010.9, 0.0, 10.001512, 9.998607 
8.350592e+2, 2.5492266e+2, -459150.5, -614155.9, -32578.008, 0.044986334, -0.106376074, -452581.8, -10826.515, 0.0, 10.000529, 9.9985285 
8.3506054e+2, 2.6492134e+2, -380293.28, -545793.4, -13748.476, 0.11931782, -0.075028695, -379158.94, -35389.387, 0.0, 10.00051, 9.998328 
8.350619e+2, 2.7492088e+2, -163596.63, -396199.44, -3497.1018, 0.12030266, 0.009535715, -163544.05, 82233.75, 0.0, 10.001346, 9.998278 
8.3506334e+2, 2.8491983e+2, 7941.5854, -223843.83, -9089.355, 0.11994561, 0.070056304, 8297.474, 156086.28, 0.0000012583888, 10.001679, 9.998627 
8.350649e+2, 2.949178e+2, 32994.625, -176279.89, 25937.098, 0.10689264, -0.042772613, 36161.305, 85968.76, 0.000022671806, 10.00122, 9.998506 
8.35065e+2, 3.049166e+2, 54077.617, -186258.1, -26700.982, -0.0048531634, 0.021930939, 57008.324, 57008.324, 0.0001036696, 10.001267, 9.998073 
8.350651e+2, 3.1491685e+2, 116920.625, -66451.164, -65056.6, -0.08717684, 0.18898395, 137656.55, 137656.55, 0.00026239955, 10.001218, 9.9989195 
8.4504735e+2, 1.2493313e+2, -1716552.8, -1808868.6, -36120.684, 0.24354851, -0.0030860438, -1704099.5, 11546.628, 0.0, 10.000281, 9.999206 
8.450481e+2, 1.3493192e+2, -1584375.4, -1737121.8, 53580.11, 0.0108899195, -0.043209117, -1567455.0, 50205.918, 0.0, 10.00078, 9.998787 
8.450495e+2, 1.4493088e+2, -1393086.9, -1442737.0, -3549.2456, -0.0019035354, -0.07814922, -1392834.5, 126836.19, 0.0, 10.000752, 10.000122 
8.450509e+2, 1.5493172e+2, -1316275.6, -1357940.5, -45003.92, 0.092853956, -0.053819228, -1287516.3, 134142.84, 0.0, 10.000625, 10.000095 
8.450516e+2, 1.649312e+2, -1258948.4, -1410018.9, -545.73364, 0.10028653, -0.0522546, -1258946.4, 64717.56, 0.0, 10.000916, 9.99893 
8.450518e+2, 1.7492914e+2, -1078101.1, -1277862.1, 2969.3018, 0.022431914, -0.18062504, -1078057.0, 147630.38, 0.0, 10.0015135, 9.998876 
8.450524e+2, 1.849287e+2, -949806.4, -1130557.9, 17880.12, -0.0030717666, -0.121114805, -948054.6, 179638.75, 0.0, 10.001551, 9.999196 
8.450533e+2, 1.949294e+2, -945815.25, -1084481.6, -5041.753, 0.0151602905, -0.004187044, -945632.2, 84054.53, 0.0, 10.000931, 9.999142 
8.4505445e+2, 2.0492862e+2, -883198.75, -1037984.0, 14581.208, 0.056467585, 0.025041895, -881837.2, 49856.75, 0.0, 10.000853, 9.998819 
8.4505564e+2, 2.149259e+2, -734516.94, -923072.0, 17852.305, 0.12113761, -0.16120638, -732841.6, 100877.586, 0.0, 10.001231, 9.9987545 
8.450568e+2, 2.2492471e+2, -656573.4, -831476.94, 102807.1, 0.07729318, -0.14986153, -609054.4, 126677.07, 0.0, 10.001076, 9.998786 
8.4505755e+2, 2.3492488e+2, -673002.06, -792972.75, 60319.836, -0.081316605, -0.04525184, -647918.44, -10185.964, 0.0, 10.000315, 9.998744 
8.45059e+2, 2.4492395e+2, -564356.44, -709239.5, -20660.883, -0.06716074, 0.002431634, -561467.7, -21725.639, 0.0, 10.000453, 9.998587 
8.450609e+2, 2.5492144e+2, -323808.56, -545924.25, -29609.92, 0.13093321, -0.14380175, -319929.06, 121835.89, 0.0, 10.001454, 9.998548 
8.4506214e+2, 2.6492003e+2, -228925.8, -489479.72, 42311.742, 0.18121785, -0.11365111, -222226.95, 121553.055, 0.0, 10.001611, 9.998183 
8.450626e+2, 2.749194e+2, -231604.19, -446647.8, 25306.078, 0.08845423, -0.028152274, -228666.33, 17124.324, 0.0000000050987805, 10.000936, 9.9981365 
8.450641e+2, 2.8491858e+2, -119251.42, -271702.47, 48506.91, 0.083672665, 0.050767582, -105126.234, 42674.26, 0.0000017149706, 10.000741, 9.998745 
8.4506655e+2, 2.9491702e+2, 7213.077, -162050.05, 27765.484, 0.1767332, -0.028074533, 11651.282, 61465.453, 0.0000255943, 10.00094, 9.998722 
8.4506726e+2, 3.0491608e+2, 45305.203, -211744.13, 33782.914, 0.108869426, 0.05284201, 49671.0, 49671.0, 0.000114914044, 10.00128, 9.997902 
8.4506637e+2, 3.1491554e+2, 141282.19, -47091.316, -30654.182, -0.07388235, 0.15948099, 146145.03, 146145.03, 0.00028702893, 10.0013075, 9.9990225 
8.5504663e+2, 1.2493044e+2, -1628336.9, -1615161.3, -53518.844, 0.059914075, 0.011821912, -1567826.4, 147852.02, 0.0, 10.000252, 10.000545 
8.550486e+2, 1.3492948e+2, -1474614.3, -1495019.6, 82556.01, -0.058805894, -0.16653788, -1401632.9, 216048.67, 0.0, 10.000746, 10.00045 
8.550508e+2, 1.4492878e+2, -1433680.9, -1526691.4, -30264.133, -0.00037575958, -0.22479141, -1424700.5, 94985.77, 0.0, 10.000738, 9.999562 
8.5505164e+2, 1.5492949e+2, -1354414.5, -1436379.1, -27420.469, 0.064756416, -0.1541687, -1346087.3, 75594.32, 0.0, 10.000624, 9.9995575 
8.5505253e+2, 1.6493012e+2, -1230523.6, -1340073.5, 1729.9491, 0.06801777, -0.034908842, -1230496.3, 93181.23, 0.0, 10.000865, 9.999435 
8.5505354e+2, 1.749302e+2, -1045877.2, -1197479.1, 41651.426, 0.007725637, -0.0053718276, -1035187.56, 190490.72, 0.0, 10.001458, 9.999452 
8.5505414e+2, 1.8492936e+2, -975381.7, -1161906.8, -22789.457, -0.021099972, -0.008547037, -972637.6, 155049.13, 0.0, 10.001441, 9.9990425 
8.550542e+2, 1.9492716e+2, -967947.2, -1109680.3, -12246.047, -0.030034, -0.16758624, -966896.9, 62810.188, 0.0, 10.000832, 9.999019 
8.5505474e+2, 2.0492637e+2, -873213.8, -976625.3, 9995.563, -0.023158042, -0.15491426, -872256.5, 59456.27, 0.0, 10.000676, 9.99933 
8.5505587e+2, 2.149266e+2, -729413.5, -855478.3, 49833.66, -0.011444905, -0.101441205, -712093.7, 121614.484, 0.0, 10.000992, 9.999332 
8.550574e+2, 2.2492576e+2, -735231.9, -942746.4, 56476.76, 0.010966252, -0.054184023, -720857.06, 14860.363, 0.0, 10.000846, 9.9981365 
8.5505944e+2, 2.3492351e+2, -746900.0, -902240.94, 50807.066, 0.043289047, -0.12621678, -731758.56, -94014.8, 0.0, 10.000119, 9.99809 
8.5506105e+2, 2.4492234e+2, -579709.6, -694167.1, -266.8711, 0.06866338, -0.079968005, -579709.0, -39952.26, 0.0, 10.000259, 9.99878 
8.550623e+2, 2.549217e+2, -341351.5, -531743.06, 25254.24, 0.087613516, -0.05924338, -338058.63, 103702.66, 0.0, 10.001241, 9.998746 
8.55063e+2, 2.6492047e+2, -250932.08, -501566.4, -1389.6263, 0.07667457, -0.019833773, -250924.38, 92849.48, 0.0, 10.001462, 9.9981785 
8.550632e+2, 2.7491838e+2, -253970.14, -460570.97, 21980.893, 0.017386869, -0.0817003, -251657.42, -5859.913, 0.0000001292932, 10.000797, 9.998111 
8.5506445e+2, 2.8491753e+2, -131707.75, -280668.7, 42373.938, 0.011377357, -0.00038883416, -120497.555, 27309.307, 0.0000031613251, 10.000661, 9.998722 
8.550668e+2, 2.9491726e+2, -11623.518, -180427.3, 57097.508, 0.054085217, 0.050590646, 5875.5464, 55684.453, 0.000030116835, 10.000835, 9.998652 
8.5506856e+2, 3.0491558e+2, 44440.016, -173468.67, 24703.146, 0.07867533, 0.046897456, 47205.387, 47205.387, 0.00012742863, 10.001142, 9.9982195 
8.55069e+2, 3.1491286e+2, 142151.06, 15535.571, 47709.465, -0.031875283, -0.08899094, 158115.4, 158115.4, 0.00031382052, 10.001072, 9.99956 
8.650472e+2, 1.24928236e+2, -1508322.5, -1555168.4, 72363.58, 0.076308705, -0.031714667, -1455685.4, 260016.08, 0.00000000000000000000885557, 10.001049, 10.00058 
8.6504936e+2, 1.3492809e+2, -1500633.5, -1502274.5, 25180.682, -0.029240096, -0.139527, -1476260.0, 141436.81, 0.0, 10.000505, 10.000534 
8.6505175e+2, 1.4492771e+2, -1505803.8, -1550318.1, -69132.375, 0.064411856, -0.17838657, -1455434.0, 64264.77, 0.0, 10.000187, 9.999669 
8.650523e+2, 1.54928e+2, -1370846.4, -1446885.0, -61444.8, 0.087081596, -0.15411407, -1336609.6, 85088.89, 0.0, 10.000489, 9.999571 
8.6505324e+2, 1.6492864e+2, -1247822.4, -1330668.9, 27159.348, 0.071762465, -0.038519572, -1239712.6, 83981.3, 0.0, 10.000674, 9.999587 
8.6505467e+2, 1.7492932e+2, -1132147.3, -1230034.8, -709.69434, 0.020238865, 0.035321757, -1132142.1, 93546.266, 0.0, 10.000811, 9.999543 
8.6505556e+2, 1.849285e+2, -1056298.1, -1202558.5, -67777.56, 0.013526065, 0.03364015, -1029719.6, 97976.55, 0.0, 10.00093, 9.998991 
8.650557e+2, 1.9492589e+2, -945096.4, -1107334.3, -86070.414, 0.035802912, -0.1599569, -907942.75, 121777.91, 0.0, 10.001053, 9.998916 
8.6505616e+2, 2.0492505e+2, -799327.8, -948328.5, -34479.61, 0.0296677, -0.14524232, -791735.9, 139991.67, 0.0, 10.001215, 9.999262 
8.650569e+2, 2.1492562e+2, -693202.1, -852986.0, -77713.016, -0.016788144, -0.050779108, -661639.9, 172080.63, 0.0, 10.001288, 9.999212 
8.650584e+2, 2.2492477e+2, -663703.94, -901941.94, -56091.797, 0.009554195, 0.0021471719, -651158.06, 84571.44, 0.0, 10.001334, 9.998175 
8.650608e+2, 2.3492223e+2, -561240.44, -807782.25, -50026.484, 0.11228388, -0.10189594, -551476.2, 86281.4, 0.0, 10.0013895, 9.998119 
8.6506253e+2, 2.4492097e+2, -426116.88, -619140.56, -22471.123, 0.1502981, -0.06465543, -423535.4, 116235.42, 0.0, 10.00132, 9.998778 
8.650637e+2, 2.549206e+2, -353869.4, -539729.75, -47748.266, 0.120309226, -0.016280793, -342320.3, 99453.12, 0.0, 10.00117, 9.998725 
8.6506444e+2, 2.6491937e+2, -269109.72, -493007.28, -58492.703, 0.09276445, 0.017142683, -254749.66, 89035.92, 0.0000000005766255, 10.001276, 9.998319 
8.6506486e+2, 2.7491692e+2, -115734.3, -378608.97, -68852.15, 0.071048744, -0.09101317, -98792.42, 147018.64, 0.000000514823, 10.001689, 9.9982395 
8.65066e+2, 2.8491586e+2, 11778.528, -241484.95, -12955.983, 0.048305176, -0.025679003, 12439.581, 160261.73, 0.0000054394536, 10.001785, 9.99846 
8.650677e+2, 2.9491565e+2, 69404.88, -165067.55, -52364.445, 0.04640648, 0.060574606, 80567.91, 130391.76, 0.000035908153, 10.001508, 9.99844 
8.6506975e+2, 3.049133e+2, 96395.984, -153510.38, -58761.79, 0.08642583, 0.0042319796, 109523.375, 109523.375, 0.00014009468, 10.001498, 9.998191 
8.650712e+2, 3.149108e+2, 156527.6, 27360.688, -100546.734, 0.09575118, -0.108409226, 211445.89, 211445.89, 0.00033844914, 10.001183, 9.999574 
8.750481e+2, 1.2492679e+2, -1598386.5, -1739691.0, 14622.212, -0.0274868, -0.097860254, -1596889.3, 118823.73, 0.0000000055054987, 10.00104, 9.999311 
8.7505007e+2, 1.3492778e+2, -1591852.4, -1676795.3, 17904.113, -0.048671022, 0.02591796, -1588232.9, 29473.295, 0.0, 10.0004635, 9.999341 
8.7505203e+2, 1.4492775e+2, -1470393.5, -1474536.3, -80290.57, 0.029803112, 0.058128934, -1392147.6, 127559.266, 0.0, 10.000171, 10.000199 
8.750523e+2, 1.5492742e+2, -1332052.6, -1356336.8, -32851.313, -0.00360416, -0.043181177, -1309171.3, 112536.84, 0.0, 10.00046, 10.000198 
8.750531e+2, 1.6492715e+2, -1267618.8, -1367870.8, 13144.266, -0.04815326, -0.042001527, -1265924.1, 57786.16, 0.0, 10.000639, 9.999356 
8.7505484e+2, 1.7492682e+2, -1154137.9, -1268343.8, 20651.953, -0.08498915, -0.042516317, -1150518.0, 75196.48, 0.0, 10.000773, 9.999299 
8.7505627e+2, 1.8492647e+2, -1074641.6, -1220101.9, -79124.82, -0.043704316, 0.01999459, -1039898.9, 87819.734, 0.0, 10.00084, 9.998916 
8.750574e+2, 1.9492556e+2, -968323.2, -1119648.1, -61632.254, 0.0641722, 0.0023938627, -946398.0, 83329.945, 0.0, 10.000904, 9.9989 
8.7505805e+2, 2.049246e+2, -874675.3, -1062673.9, -47207.344, 0.0680005, 0.037081104, -863487.1, 68251.3, 0.0, 10.001027, 9.998571 
8.750582e+2, 2.1492322e+2, -773052.56, -969935.25, -59122.715, -0.04504821, 0.008914248, -756662.75, 77090.555, 0.0, 10.001075, 9.998514 
8.750592e+2, 2.2492215e+2, -653597.44, -830824.44, -71763.2, -0.06750443, 0.0455442, -628183.3, 107580.76, 0.0, 10.001112, 9.998773 
8.750612e+2, 2.3492101e+2, -553276.56, -734839.25, -28726.21, -0.010460096, 0.02058916, -548840.06, 88934.14, 0.0, 10.0011425, 9.99874 
8.750631e+2, 2.4491982e+2, -465966.03, -661926.94, -45060.926, 0.040873773, 0.04069141, -456100.97, 83684.21, 0.0, 10.001137, 9.998576 
8.750647e+2, 2.5491822e+2, -394793.94, -582588.25, -33222.754, 0.07356736, -0.011686619, -389089.75, 52710.543, 0.0, 10.000988, 9.998517 
8.75066e+2, 2.649168e+2, -268475.06, -476218.44, -59579.676, 0.08503559, 0.0059512686, -252600.92, 91213.03, 0.0000000691861, 10.001195, 9.998479 
8.75067e+2, 2.7491513e+2, -125387.26, -363800.88, -33545.742, 0.079402655, -0.047624007, -120757.16, 125073.766, 0.000001269736, 10.001533, 9.998417 
8.750681e+2, 2.8491372e+2, -34296.63, -316277.47, -39780.242, 0.05263693, -0.0014955077, -28792.113, 119052.34, 0.000008255043, 10.001689, 9.997998 
8.7506914e+2, 2.94912e+2, 21950.709, -239456.6, -37524.793, -0.010915318, -0.014254685, 27230.713, 77090.9, 0.000042714033, 10.001396, 9.997988 
8.750707e+2, 3.0490923e+2, 57206.848, -210253.48, -77579.67, -0.00808175, -0.0778786, 78080.57, 78080.57, 0.00015288098, 10.001395, 9.997847 
8.75072e+2, 3.1490716e+2, 84139.055, -98869.98, -40020.547, -0.022813424, -0.10866623, 92508.06, 92508.06, 0.00035815634, 10.001061, 9.998773 
8.8504976e+2, 1.2492575e+2, -1579990.6, -1768925.8, 21920.451, 0.03725234, -0.082816735, -1577480.8, 138243.45, 0.00000006865043, 10.00134, 9.99897 
8.8505137e+2, 1.3492654e+2, -1508069.3, -1686534.9, 5132.705, 0.018911315, 0.06546602, -1507921.8, 109799.95, 0.0, 10.00125, 9.998903 
8.850531e+2, 1.4492655e+2, -1367393.6, -1422233.0, -22676.064, 0.09088796, 0.12407962, -1359231.9, 160491.11, 0.0, 10.000906, 10.000185 
8.850529e+2, 1.5492621e+2, -1282664.4, -1334018.1, -62831.77, 0.0059818844, 0.026469411, -1240465.4, 181257.92, 0.0, 10.00083, 10.000156 
8.850538e+2, 1.6492566e+2, -1243242.6, -1345861.4, 6570.9346, -0.034976974, -0.002806418, -1242823.6, 80903.445, 0.0, 10.00077, 9.999443 
8.85056e+2, 1.7492482e+2, -1159911.0, -1262683.1, 1864.077, -0.031170996, -0.060910687, -1159877.3, 65857.71, 0.0, 10.000699, 9.999377 
8.850576e+2, 1.8492448e+2, -1076059.0, -1215141.5, -43620.12, 0.016689597, -0.003786327, -1063510.6, 64227.8, 0.0, 10.0008, 9.998969 
8.850586e+2, 1.9492412e+2, -941354.94, -1103506.3, -54323.22, 0.09462387, 0.027784102, -924838.2, 104904.7, 0.0, 10.00107, 9.998933 
8.850592e+2, 2.049232e+2, -877781.0, -1083833.5, 6541.5264, 0.08785881, 0.0753786, -877573.56, 54179.88, 0.0, 10.001094, 9.998394 
8.8505954e+2, 2.1492144e+2, -815447.4, -1011511.1, 2519.6626, -0.002275716, 0.028678255, -815415.0, 18358.08, 0.0, 10.000879, 9.998326 
8.850606e+2, 2.2492023e+2, -680963.06, -812220.4, 35686.74, -0.016896227, 0.046075035, -671887.9, 63896.645, 0.0, 10.000775, 9.999056 
8.850626e+2, 2.349192e+2, -586679.2, -724693.94, 14246.487, 0.039306723, 0.0014434955, -585223.94, 52567.4, 0.0, 10.000781, 9.998985 
8.850643e+2, 2.44918e+2, -499687.78, -699633.44, 30161.813, 0.06963652, 0.019166859, -495236.94, 44564.832, 0.0, 10.0009985, 9.998376 
8.8506573e+2, 2.549162e+2, -325288.53, -572733.75, 5445.62, 0.061102934, -0.037868887, -325168.75, 116651.48, 0.00000000006372724, 10.001545, 9.998316 
8.8506716e+2, 2.649148e+2, -250633.77, -485446.97, -12628.143, 0.078857675, 0.0016362112, -249956.6, 93878.01, 0.00000025387644, 10.001401, 9.998311 
8.850686e+2, 2.749135e+2, -265011.38, -447650.97, -50725.348, 0.13646673, 0.0011716872, -251868.9, -6019.9165, 0.0000021793016, 10.000645, 9.998265 
8.8506997e+2, 2.84912e+2, -208793.22, -386649.22, 2411.3662, 0.13960598, 0.03874599, -208760.53, -60897.19, 0.000011106664, 10.000452, 9.998087 
8.8507116e+2, 2.9490983e+2, -43564.707, -261408.94, 4722.784, 0.086097546, -0.02825363, -43462.367, 6420.075, 0.000049522223, 10.000916, 9.998056 
8.850721e+2, 3.0490738e+2, 16401.611, -230425.64, 19611.988, 0.02202068, -0.06229796, 17950.191, 17950.191, 0.00016467013, 10.00111, 9.997851 
8.850735e+2, 3.1490603e+2, -13428.767, -170862.34, 23500.645, 0.054579698, -0.013382652, -9995.612, -9995.612, 0.00037312726, 10.0005, 9.998555 
8.95051e+2, 1.2492506e+2, -1555805.6, -1698617.0, -23643.29, -0.04813723, 0.012167745, -1551993.1, 163742.28, 0.00000033567557, 10.001276, 9.999471 
8.95053e+2, 1.3492474e+2, -1481831.3, -1626018.9, 10026.294, 0.018474407, 0.01023866, -1481137.4, 136602.63, 0.00000000007521531, 10.001237, 9.999317 
8.950542e+2, 1.449245e+2, -1415815.8, -1515990.1, -48001.953, 0.06282088, 0.05343938, -1396527.8, 123215.23, 0.0, 10.000877, 9.999557 
8.9505374e+2, 1.5492462e+2, -1335364.1, -1433833.3, -44205.586, -0.035580304, 0.06850728, -1318430.9, 103310.82, 0.0, 10.0007925, 9.999489 
8.950549e+2, 1.649243e+2, -1227640.4, -1302146.0, -15576.779, -0.049112026, 0.082949325, -1224514.9, 99228.414, 0.0, 10.000722, 9.999763 
8.950578e+2, 1.7492333e+2, -1147648.9, -1214750.6, 18268.855, 0.040522333, -0.027694497, -1142997.5, 82752.49, 0.0, 10.000611, 9.999743 
8.950591e+2, 1.849226e+2, -1083619.1, -1204216.9, -51561.797, 0.05026051, -0.034750212, -1064579.6, 63175.67, 0.0, 10.000676, 9.999106 
8.950587e+2, 1.9492176e+2, -959340.25, -1095914.3, -29150.371, -0.030328419, -0.06395325, -953378.6, 76384.766, 0.0, 10.000882, 9.999071 
8.9505917e+2, 2.0492111e+2, -878442.6, -1046074.8, -19159.084, -0.059006557, -0.014368571, -876280.8, 55489.73, 0.0, 10.000918, 9.998741 
8.950603e+2, 2.1492027e+2, -822076.1, -970580.44, 14798.082, -0.038090225, -0.004899778, -820615.9, 13164.299, 0.0, 10.00065, 9.9987135 
8.950621e+2, 2.2491904e+2, -720216.1, -846666.1, 19798.975, 0.023621932, -0.0033043725, -717188.56, 18602.602, 0.0, 10.000561, 9.998931 
8.950644e+2, 2.3491701e+2, -625058.5, -751773.56, 31202.021, 0.10861152, -0.13791034, -617792.06, 20015.045, 0.0, 10.000554, 9.99891 
8.9506584e+2, 2.4491568e+2, -537478.3, -737642.3, 31374.434, 0.08647429, -0.119979516, -532675.8, 7143.3916, 0.0, 10.000823, 9.998204 
8.950664e+2, 2.5491464e+2, -372984.97, -616673.75, 43556.6, -0.059123486, -0.081002206, -365433.72, 76398.27, 0.0000000002378373, 10.00131, 9.998132 
8.950675e+2, 2.6491362e+2, -301679.9, -560875.8, -56360.36, -0.060792506, 0.022286434, -289955.13, 53890.39, 0.00000030747992, 10.00127, 9.997854 
8.9506906e+2, 2.749121e+2, -323424.6, -533508.75, -55148.637, 0.085357524, 0.055201583, -309827.7, -63963.184, 0.0000026197797, 10.000501, 9.997744 
8.950709e+2, 2.8491056e+2, -178541.34, -315744.16, 2112.9895, 0.1524269, 0.09075109, -178508.81, -30629.107, 0.000013171274, 10.000401, 9.998606 
8.9507306e+2, 2.9490876e+2, -21528.014, -189643.3, 42836.895, 0.13639893, 0.004876967, -11242.205, 38650.86, 0.000055655084, 10.000789, 9.998615 
8.950735e+2, 3.0490756e+2, 18633.992, -180374.83, -15158.617, 0.024163159, 0.046499, 19782.01, 19782.01, 0.00017580122, 10.000942, 9.998264 
8.95074e+2, 3.1490612e+2, -22690.826, -116320.62, 35862.746, -0.013081029, 0.042500373, -10533.093, -10533.093, 0.00038747952, 10.000219, 9.999045 
9.0505284e+2, 1.2492427e+2, -1562197.1, -1679166.5, 66762.21, 0.033212062, 0.037393954, -1531925.8, 183818.02, 0.0000010657902, 10.001085, 9.99971 
9.050545e+2, 1.3492371e+2, -1482172.6, -1613446.5, 16028.173, 0.06348099, -0.0034887998, -1480244.0, 137504.94, 0.000000007369457, 10.001159, 9.999444 
9.0505546e+2, 1.449232e+2, -1420960.8, -1573224.6, -2342.6855, 0.106825, 0.027868278, -1420924.8, 98829.33, 0.0, 10.00104, 9.999095 
9.050551e+2, 1.5492272e+2, -1334755.3, -1487631.6, -25314.34, 0.021939639, 0.025922665, -1330672.5, 91086.99, 0.0, 10.000995, 9.999037 
9.050563e+2, 1.6492227e+2, -1216809.3, -1317928.0, 32019.67, 0.025214043, 0.058870528, -1207522.9, 116240.52, 0.0, 10.000889, 9.999582 
9.0505934e+2, 1.7492142e+2, -1141781.6, -1230765.0, -15707.541, 0.13724673, -0.0185991, -1139090.3, 86679.55, 0.0, 10.000732, 9.999575 
9.0506047e+2, 1.8492074e+2, -1060985.4, -1163310.8, -55044.22, 0.13354784, -0.029368928, -1036998.3, 90776.22, 0.0, 10.000688, 9.999388 
9.050597e+2, 1.9491981e+2, -954829.25, -1069957.8, -52688.47, -0.004781934, -0.093716644, -934356.9, 95424.78, 0.0, 10.000767, 9.999324 
9.050601e+2, 2.049193e+2, -857483.0, -1009476.7, -12786.956, -0.045052506, -0.053446073, -856414.75, 75371.65, 0.0, 10.000962, 9.998957 
9.0506166e+2, 2.1491876e+2, -708869.4, -895800.8, -32872.04, 0.009491356, -0.034657933, -703257.25, 130535.76, 0.0, 10.001337, 9.998894 
9.050637e+2, 2.2491758e+2, -601826.94, -813049.2, -5756.333, 0.08757685, -0.024927909, -601670.2, 134133.7, 0.0, 10.0015, 9.998704 
9.05066e+2, 2.3491539e+2, -497299.22, -717990.44, -37432.95, 0.17805117, -0.14759326, -491122.8, 146699.69, 0.0, 10.001565, 9.998654 
9.050673e+2, 2.4491407e+2, -445508.94, -663548.94, 5834.675, 0.13355465, -0.12938869, -445352.94, 94481.72, 0.0, 10.001334, 9.998461 
9.0506744e+2, 2.5491327e+2, -426298.22, -611646.06, 13067.843, -0.05099224, -0.089782014, -425381.4, 16462.033, 0.0, 10.000819, 9.998397 
9.050685e+2, 2.6491222e+2, -330137.1, -579479.3, -11298.9, -0.06328543, 0.0031658027, -329626.13, 14230.124, 0.0000002007212, 10.001115, 9.997799 
9.050706e+2, 2.7491042e+2, -67374.88, -412167.94, -17494.268, 0.11264736, 0.011264373, -66489.52, 179388.44, 0.0000025589381, 10.002284, 9.997711 
9.0507245e+2, 2.8490874e+2, 90833.016, -194736.02, 55954.51, 0.18058331, 0.039576057, 101405.35, 249300.42, 0.000014749117, 10.002283, 9.998543 
9.05074e+2, 2.9490712e+2, 7296.611, -176501.38, 13198.921, 0.14893161, -0.020653568, 8239.615, 58147.82, 0.00006245814, 10.001003, 9.998606 
9.050745e+2, 3.0490646e+2, -16837.451, -173736.17, -26105.646, 0.060101453, 0.060603492, -12607.874, -12607.874, 0.00018874744, 10.00058, 9.998502 
9.050758e+2, 3.1490496e+2, 60499.902, -32979.023, -77688.555, 0.14600968, 0.034888763, 104425.15, 104425.15, 0.0004049675, 10.000554, 9.999495 
9.150539e+2, 1.2492367e+2, -1562260.4, -1671809.6, 14161.448, -0.049625427, 0.013002422, -1560459.4, 155286.95, 0.000002613721, 10.0010805, 9.999753 
9.150554e+2, 1.349234e+2, -1492428.1, -1626686.5, 31000.3, -0.0038481196, 0.008326562, -1485615.9, 132133.39, 0.00000007607973, 10.001135, 9.999358 
9.150564e+2, 1.4492239e+2, -1447097.4, -1613923.1, -27685.986, 0.041849203, 0.009071642, -1442622.6, 77136.33, 0.0, 10.000984, 9.998841 
9.150564e+2, 1.5492068e+2, -1354330.6, -1521472.0, -9175.735, 0.012858704, -0.092698276, -1353828.4, 67947.04, 0.0, 10.000973, 9.998811 
9.1505754e+2, 1.6491982e+2, -1269572.3, -1425468.3, 5497.9736, 0.026261354, -0.05313439, -1269378.6, 54406.387, 0.0, 10.0008745, 9.998853 
9.1506004e+2, 1.7491941e+2, -1199829.9, -1342480.5, -3430.3474, 0.103252724, -0.013141137, -1199747.4, 26044.5, 0.0, 10.000691, 9.99883 
9.150613e+2, 1.8491903e+2, -1044090.5, -1105393.0, -68017.83, 0.10757658, 0.021603368, -1000136.7, 127658.086, 0.0, 10.0005865, 9.999835 
9.150611e+2, 1.9491836e+2, -950531.06, -1018056.94, -30099.172, 0.023782402, -0.062185798, -939062.44, 90734.17, 0.0, 10.000588, 9.999764 
9.1506165e+2, 2.049179e+2, -888901.3, -1030249.8, -14601.929, -0.01878773, -0.036680955, -887408.6, 44391.152, 0.0, 10.00077, 9.998905 
9.15063e+2, 2.1491715e+2, -748476.6, -921082.44, -3152.0955, -0.012122305, -0.034243684, -748419.1, 85389.88, 0.0, 10.0011, 9.998829 
9.150648e+2, 2.2491606e+2, -652616.25, -880433.75, -22318.928, 0.025177965, 0.0045665195, -650450.25, 85370.484, 0.0, 10.00132, 9.998336 
9.150671e+2, 2.3491432e+2, -555338.25, -788161.1, -15408.114, 0.09554183, -0.035879813, -554323.0, 83514.77, 0.0, 10.001346, 9.998278 
9.150682e+2, 2.4491322e+2, -425364.7, -580970.06, -29596.324, 0.06333712, -0.0091860825, -419925.53, 119921.4, 0.0, 10.001152, 9.999118 
9.150684e+2, 2.549123e+2, -407103.0, -531527.7, 11838.971, -0.076450005, -0.052408878, -405986.53, 35866.56, 0.0, 10.000639, 9.999037 
9.150698e+2, 2.6491085e+2, -324667.56, -536740.75, 14778.059, -0.08030076, -0.04609557, -323642.72, 20223.086, 0.00000011562638, 10.000985, 9.998154 
9.1507274e+2, 2.7490854e+2, -64696.98, -368587.78, 47127.96, 0.057532232, -0.12475313, -57556.086, 188333.31, 0.0000025826089, 10.002122, 9.998091 
9.1507405e+2, 2.849067e+2, 30444.139, -288116.63, -9405.307, 0.07179147, -0.10621363, 30721.582, 178630.5, 0.000017159802, 10.002155, 9.997957 
9.150735e+2, 2.949051e+2, -61545.53, -286995.8, -9811.311, -0.048595827, -0.104199864, -61119.363, -11192.847, 0.00007135739, 10.00087, 9.997909 
9.1507447e+2, 3.0490404e+2, -36078.805, -185849.72, -35941.367, -0.03000038, -0.017815467, -27900.35, -27900.35, 0.00020564985, 10.000468, 9.998463 
9.150778e+2, 3.1490248e+2, 68090.29, 46298.95, -43035.734, 0.21174313, -0.05707818, 101588.2, 101588.2, 0.00042848263, 10.00031, 10.000136 
9.2505527e+2, 1.2492219e+2, -1611736.3, -1717867.9, 8846.884, 0.0063082655, -0.039898884, -1611003.9, 104754.12, 0.0000053718704, 10.000828, 9.999571 
9.250566e+2, 1.3492215e+2, -1578193.5, -1687070.1, -43290.777, 0.04437774, -0.005530191, -1563078.9, 54681.137, 0.00000033393198, 10.000619, 9.999215 
9.2505777e+2, 1.4492117e+2, -1458368.6, -1588934.6, -17810.727, 0.100274846, -0.0071653672, -1455982.6, 63787.227, 0.0, 10.000792, 9.9991045 
9.250584e+2, 1.5491965e+2, -1214887.8, -1428104.5, -5260.04, 0.08459769, -0.1130927, -1214758.0, 207025.56, 0.0, 10.001827, 9.999036 
9.2505944e+2, 1.6491885e+2, -1141134.3, -1390199.3, 44447.707, 0.08624726, -0.06809924, -1133439.9, 190352.9, 0.0, 10.001871, 9.998607 
9.250608e+2, 1.749185e+2, -1182941.6, -1365792.0, 32092.451, 0.10470908, 0.0038518514, -1177472.6, 48327.832, 0.0, 10.00094, 9.998552 
9.250618e+2, 1.8491803e+2, -1043842.9, -1114215.5, 25522.438, 0.111150324, 0.04971671, -1035561.1, 92243.414, 0.0, 10.000642, 9.999742 
9.250625e+2, 1.9491704e+2, -905869.2, -1003207.56, -17374.959, 0.09833509, -0.058606997, -902860.7, 126948.39, 0.0, 10.000936, 9.999691 
9.250634e+2, 2.0491625e+2, -858670.8, -1048116.5, 7465.9824, 0.06507713, -0.04654646, -858377.06, 73438.47, 0.0, 10.001117, 9.998625 
9.2506444e+2, 2.1491529e+2, -742632.3, -947620.1, -25090.025, 0.017999265, -0.03634669, -739606.06, 94221.73, 0.0, 10.00126, 9.998578 
9.250661e+2, 2.2491428e+2, -643126.7, -879347.2, -11077.24, 0.027776448, 0.025500534, -642608.4, 93231.17, 0.0, 10.001397, 9.998302 
9.250684e+2, 2.3491296e+2, -532759.1, -786063.2, -20059.373, 0.09223318, 0.030958496, -531180.44, 106673.164, 0.0, 10.00152, 9.998214 
9.2506963e+2, 2.4491173e+2, -416979.78, -579804.56, -36560.363, 0.09162575, 0.049997333, -409147.34, 130716.91, 0.0, 10.001224, 9.999099 
9.250698e+2, 2.549102e+2, -417618.3, -535831.7, -83833.9, 0.021650981, -0.04810351, -374149.56, 67725.664, 0.0, 10.000573, 9.9990425 
9.2507124e+2, 2.649087e+2, -374414.8, -518019.63, -17317.041, 0.0019831886, -0.0692831, -372356.1, -28468.762, 0.00000007319143, 10.000426, 9.998562 
9.2507404e+2, 2.749068e+2, -229341.22, -400738.5, -12653.911, 0.053428303, -0.15204526, -228412.03, 17493.03, 0.0000027897247, 10.000761, 9.998532 
9.250752e+2, 2.849053e+2, -147598.48, -373718.84, -56834.656, 0.043663148, -0.11879894, -134117.05, 13803.765, 0.000020180585, 10.000927, 9.997957 
9.250746e+2, 2.94904e+2, -50405.613, -285186.8, -55981.367, -0.01624662, -0.08689977, -37740.586, 12196.648, 0.00008285034, 10.000943, 9.997884 
9.250758e+2, 3.049025e+2, 58104.555, -152644.13, 4808.149, 0.04023121, -0.04235761, 58214.195, 58214.195, 0.0002292469, 10.001129, 9.99838 
9.2507863e+2, 3.1490105e+2, 192968.06, 110299.54, -75794.52, 0.23727399, -0.063781835, 237966.48, 237966.48, 0.0004645645, 10.001107, 10.000204 
9.3505573e+2, 1.24919705e+2, -1641702.3, -1755570.3, -50714.65, -0.11575038, -0.1410345, -1622390.3, 93389.92, 0.000009857008, 10.000751, 9.999339 
9.350576e+2, 1.3492022e+2, -1582437.9, -1700118.0, -38789.97, 0.043104224, -0.041752283, -1570802.4, 46976.355, 0.0000009955157, 10.000658, 9.999096 
9.350591e+2, 1.4491974e+2, -1412269.8, -1500202.4, 105.33313, 0.107879266, -0.013541335, -1412269.6, 107514.82, 0.00000000002439963, 10.000818, 9.999703 
9.350607e+2, 1.549196e+2, -1176176.1, -1334821.0, 51347.68, 0.086558126, -0.044111036, -1161007.1, 260777.02, 0.0, 10.001774, 9.999701 
9.350614e+2, 1.6491932e+2, -1134055.3, -1360436.3, -12232.94, 0.055595454, 0.0038852189, -1133396.1, 190391.05, 0.0, 10.001798, 9.998852 
9.350611e+2, 1.7491868e+2, -1169666.5, -1333860.5, 14934.904, -0.0010235916, 0.026009606, -1168319.1, 57476.164, 0.0, 10.000915, 9.998789 
9.350617e+2, 1.8491775e+2, -1107428.0, -1225697.1, 21357.684, -0.0033612726, 0.049827952, -1103689.4, 24114.39, 0.0, 10.000556, 9.999022 
9.3506336e+2, 1.949159e+2, -979174.44, -1121421.4, 9705.515, 0.058499962, -0.07054251, -978515.25, 51303.203, 0.0, 10.000793, 9.998951 
9.350646e+2, 2.0491447e+2, -908758.3, -1115489.0, -5153.4556, 0.05142852, -0.067836605, -908629.9, 23202.81, 0.0, 10.000954, 9.998241 
9.3506545e+2, 2.1491316e+2, -802109.0, -1024438.8, -751.6639, -0.037841126, -0.05109281, -802106.44, 31742.646, 0.0, 10.001051, 9.998155 
9.3506706e+2, 2.2491224e+2, -661303.75, -867194.56, -22482.941, -0.045522403, 0.032850534, -658877.25, 76982.945, 0.0, 10.001179, 9.998493 
9.350695e+2, 2.3491132e+2, -550861.56, -771940.9, 1344.2023, 0.024520617, 0.054392997, -550853.4, 87016.6, 0.0, 10.001295, 9.998422 
9.3507093e+2, 2.4490967e+2, -494092.3, -694589.2, -78578.02, 0.06690708, 0.05469271, -466966.28, 72919.414, 0.0, 10.001031, 9.998403 
9.3507135e+2, 2.5490692e+2, -495033.7, -656162.6, -88094.77, 0.0861885, -0.09231544, -456219.25, -14308.282, 0.0, 10.000392, 9.998309 
9.350724e+2, 2.6490563e+2, -359835.9, -446152.47, -18722.768, 0.047438893, -0.085377306, -355949.75, -12027.711, 0.00000003612581, 10.000258, 9.999131 
9.3507403e+2, 2.749053e+2, -221460.08, -337430.34, 22945.727, -0.055939235, -0.06449034, -217085.13, 28838.436, 0.0000027030533, 10.000572, 9.999051 
9.350755e+2, 2.8490478e+2, -122883.16, -301336.6, -71894.55, -0.0546565, 0.011833899, -97522.65, 50406.35, 0.000022488803, 10.000824, 9.998508 
9.350767e+2, 2.949039e+2, -27519.84, -214578.47, -30451.156, 0.052018788, 0.026134575, -22687.549, 27252.4, 0.00009525127, 10.0008335, 9.998425 
9.3507797e+2, 3.049018e+2, 34440.133, -176140.88, -6390.1807, 0.105858, -0.009657069, 34633.867, 34633.867, 0.00025879213, 10.001036, 9.998258 
9.350774e+2, 3.1490093e+2, 137285.28, 49770.137, -13374.671, -0.06612471, 0.036350887, 139283.66, 139283.66, 0.0005142612, 10.000893, 9.999884 
9.450575e+2, 1.2491802e+2, -1630125.9, -1723740.8, -35722.305, 0.012624179, -0.12098824, -1618052.0, 97746.805, 0.000016753027, 10.000691, 9.999596 
9.4505876e+2, 1.3491851e+2, -1476148.1, -1625872.3, -57790.113, 0.07961583, -0.045587216, -1456437.3, 161358.81, 0.000002343361, 10.001276, 9.999308 
9.450601e+2, 1.4491822e+2, -1388559.8, -1486761.1, 12008.077, 0.12672141, -0.014392261, -1387112.8, 132687.14, 0.0000000053592455, 10.000955, 9.999736 
9.4506174e+2, 1.5491861e+2, -1423200.1, -1462055.8, -23729.29, 0.11208294, 0.008751975, -1411960.1, 9835.381, 0.0, 10.000083, 9.999661 
9.4506264e+2, 1.6491826e+2, -1345981.8, -1433974.6, -66371.29, 0.08790526, 0.0419173, -1310348.8, 13449.563, 0.0, 10.000226, 9.999098 
9.450625e+2, 1.7491692e+2, -1075455.3, -1261123.4, -78056.72, 0.033008486, -0.033083133, -1047000.3, 178810.63, 0.0, 10.001451, 9.9990225 
9.450632e+2, 1.8491583e+2, -954945.1, -1190076.4, -37104.89, 0.035827607, -0.018579936, -949228.75, 178592.06, 0.0, 10.001786, 9.998658 
9.4506484e+2, 1.949145e+2, -934875.44, -1139743.9, -55082.496, 0.108664915, -0.05032791, -921004.7, 108828.43, 0.0, 10.001288, 9.998573 
9.450661e+2, 2.0491299e+2, -872012.75, -1106341.4, 1072.2273, 0.098083735, -0.033112243, -872007.9, 59840.645, 0.0, 10.001229, 9.998173 
9.450669e+2, 2.1491104e+2, -743292.3, -1002072.94, -4496.8887, 0.0023655698, -0.076285556, -743214.2, 90655.336, 0.0, 10.001475, 9.998099 
9.450686e+2, 2.2490998e+2, -632382.7, -830509.1, 9125.215, -0.011397468, -0.014378819, -631963.3, 103917.96, 0.0, 10.001305, 9.998673 
9.4507086e+2, 2.3490942e+2, -609925.5, -778414.44, -5104.764, 0.06107544, 0.028281102, -609771.0, 28116.396, 0.0, 10.0008135, 9.998601 
9.450721e+2, 2.44908e+2, -544330.94, -735912.6, -29496.568, 0.10919578, 0.053211935, -539892.4, 8.887506, 0.0, 10.000753, 9.998249 
9.450727e+2, 2.5490543e+2, -397429.56, -619864.8, -30959.486, 0.15073843, -0.06412248, -393200.9, 48725.26, 0.0, 10.00111, 9.998199 
9.450736e+2, 2.6490414e+2, -261082.67, -403636.2, 67295.44, 0.11756984, -0.052450053, -234333.66, 109604.3, 0.000000027783642, 10.000944, 9.999102 
9.4507504e+2, 2.7490366e+2, -287293.78, -375061.66, 24853.281, 0.015688065, -0.042051118, -280744.75, -34803.598, 0.000002329391, 10.000128, 9.999019 
9.450764e+2, 2.8490317e+2, -197497.77, -293521.75, -31871.11, 0.0010046242, 0.023277603, -187882.34, -39937.227, 0.000023981273, 10.000136, 9.998895 
9.450779e+2, 2.9490247e+2, 12995.211, -151708.11, -44936.21, 0.089585714, 0.02147355, 24457.51, 74409.625, 0.00010679835, 10.00093, 9.998818 
9.450792e+2, 3.0490032e+2, 71428.04, -171879.83, -2306.2297, 0.12587526, -0.031797126, 71449.9, 71449.9, 0.00028981623, 10.001375, 9.998124 
9.450784e+2, 3.148999e+2, 145201.48, 435.29984, -64289.99, -0.061767004, 0.07718603, 169630.14, 169630.14, 0.00057081727, 10.001193, 9.999402 
9.550595e+2, 1.24917276e+2, -1599281.4, -1640970.1, -68511.77, 0.061663732, 0.025679965, -1548513.3, 167299.05, 0.00002677623, 10.000645, 10.000163 
9.5505965e+2, 1.3491713e+2, -1447792.4, -1545824.6, -22838.63, 0.006552396, -0.022727005, -1442732.8, 175078.38, 0.0000047533053, 10.00121, 9.999869 
9.550602e+2, 1.4491652e+2, -1439404.0, -1577827.0, -45127.24, -0.007219282, -0.021827316, -1425991.6, 93825.18, 0.000000046136613, 10.000884, 9.999149 
9.550611e+2, 1.5491685e+2, -1459899.1, -1545618.5, -39117.832, -0.0021332146, 0.053012695, -1444731.6, -22916.012, 0.0, 10.000116, 9.999071 
9.550626e+2, 1.6491593e+2, -1333140.5, -1409986.3, -38551.418, 0.021104945, 0.05353441, -1317134.3, 6689.6143, 0.0, 10.000231, 9.999263 
9.5506465e+2, 1.7491333e+2, -1069796.1, -1238736.8, -14993.519, 0.063710295, -0.16866842, -1068475.8, 157370.22, 0.0, 10.001399, 9.999202 
9.550658e+2, 1.8491238e+2, -968606.5, -1200251.1, -72182.734, 0.08645137, -0.14848784, -947954.8, 179899.89, 0.0, 10.001695, 9.998639 
9.5506626e+2, 1.9491275e+2, -951096.94, -1149772.8, -56805.22, 0.0897459, -0.008009027, -936002.1, 93851.46, 0.0, 10.001177, 9.998562 
9.5506734e+2, 2.0491175e+2, -877957.7, -1077944.9, -8385.112, 0.06493383, 0.04725916, -877606.75, 54256.78, 0.0, 10.001056, 9.998453 
9.550687e+2, 2.1490897e+2, -760781.5, -980316.2, 21102.764, -0.0002792974, -0.10839576, -758771.44, 75117.2, 0.0, 10.001226, 9.99837 
9.5507026e+2, 2.2490755e+2, -656423.9, -826103.94, -26478.729, -0.004352011, -0.10211252, -652387.9, 83513.99, 0.0, 10.001068, 9.9988165 
9.5507187e+2, 2.3490717e+2, -635836.06, -779059.9, -3362.0208, 0.0520218, -0.053856384, -635757.2, 2149.3528, 0.0, 10.000583, 9.99871 
9.550728e+2, 2.4490668e+2, -545387.4, -685765.3, -31256.8, 0.07267667, 0.034635212, -538742.25, 1169.4546, 0.0, 10.000539, 9.998689 
9.5507324e+2, 2.549057e+2, -397227.8, -575364.06, 2902.373, 0.05668086, 0.030586392, -397180.56, 44740.875, 0.0, 10.000926, 9.998588 
9.550744e+2, 2.6490423e+2, -329325.8, -508016.22, 18579.238, 0.069952756, 0.040416773, -327414.5, 16520.717, 0.000000030362223, 10.00079, 9.998455 
9.550763e+2, 2.7490184e+2, -355105.34, -478688.0, 15760.917, 0.095784515, -0.08122916, -353126.97, -107169.04, 0.000002140531, 9.999975, 9.998376 
9.550774e+2, 2.8490043e+2, -199816.22, -271210.78, -19613.105, 0.050200053, -0.08621283, -194783.05, -46813.15, 0.000025889522, 10.000021, 9.999103 
9.5507765e+2, 2.9489985e+2, 6996.531, -131929.86, 10752.137, -0.07272438, -0.09742433, 7823.761, 57796.758, 0.00011778403, 10.000793, 9.999016 
9.550792e+2, 3.048983e+2, 40015.754, -206301.28, -14559.609, -0.040420566, -0.09283918, 40873.375, 40873.375, 0.00031950467, 10.001247, 9.997949 
9.5508003e+2, 3.148981e+2, 70178.37, -108591.36, 3725.3596, -0.09385279, 0.05498487, 70255.97, 70255.97, 0.00062882464, 10.0009985, 9.998743 
9.650609e+2, 1.249164e+2, -1581976.1, -1677165.6, 36009.14, 0.1457187, 0.07413349, -1569889.0, 145932.89, 0.000040530904, 10.000904, 9.99982 
9.65061e+2, 1.3491571e+2, -1470046.9, -1588189.5, -32890.152, 0.045336552, 0.00095971796, -1461507.6, 156318.47, 0.000008656152, 10.001164, 9.999625 
9.650617e+2, 1.4491473e+2, -1398118.0, -1556589.5, -37605.285, 0.051410094, -0.021005841, -1389647.1, 130188.09, 0.00000019058375, 10.001203, 9.999115 
9.650622e+2, 1.5491487e+2, -1263772.1, -1453891.3, -37436.65, 0.03318684, 0.040643644, -1256666.0, 165169.27, 0.0, 10.001517, 9.9990015 
9.650635e+2, 1.6491398e+2, -1184174.0, -1333203.9, 28241.293, 0.048201982, 0.045152534, -1179001.8, 144841.38, 0.0, 10.001256, 9.999288 
9.650658e+2, 1.7491165e+2, -1211763.9, -1307270.9, 1042.5751, 0.101735115, -0.1502266, -1211752.5, 14110.252, 0.0, 10.000438, 9.99919 
9.6506727e+2, 1.8491085e+2, -1130050.3, -1273944.4, -22442.639, 0.12962887, -0.11791532, -1126631.3, 1239.131, 0.0, 10.000538, 9.998711 
9.650679e+2, 1.9491124e+2, -893152.44, -1118405.8, -31947.674, 0.12446703, 0.019656023, -888709.0, 141160.5, 0.0, 10.0015335, 9.998624 
9.650691e+2, 2.0491031e+2, -750911.25, -995091.2, 37383.848, 0.10708962, 0.07071229, -745316.0, 186562.36, 0.0, 10.001868, 9.998614 
9.6507084e+2, 2.1490763e+2, -699244.06, -931900.7, 16481.398, 0.08395372, -0.09069958, -698082.3, 135818.8, 0.0, 10.001589, 9.998516 
9.6507204e+2, 2.2490603e+2, -648814.9, -846255.6, -27373.512, 0.070554845, -0.100550085, -645090.06, 90825.48, 0.0, 10.001208, 9.998619 
9.6507263e+2, 2.3490514e+2, -627318.4, -791718.94, -63553.54, 0.077008806, -0.084882796, -605615.1, 32310.02, 0.0, 10.000703, 9.998564 
9.6507335e+2, 2.449045e+2, -526976.3, -662407.25, -49126.93, 0.08057486, -0.012673525, -511032.75, 28898.87, 0.0, 10.00058, 9.998848 
9.6507436e+2, 2.5490388e+2, -401005.7, -563648.56, -70269.086, 0.09315424, 0.008046671, -374851.9, 67085.63, 0.0, 10.000826, 9.998736 
9.650758e+2, 2.6490253e+2, -288544.34, -507604.4, -26593.42, 0.11954468, 0.032397788, -285362.2, 58587.977, 0.000000012060779, 10.00116, 9.998275 
9.650776e+2, 2.7489993e+2, -139868.64, -397113.88, -38074.973, 0.15450412, -0.08720784, -134351.47, 111623.36, 0.0000023356135, 10.001554, 9.998172 
9.6507835e+2, 2.8489816e+2, -18805.941, -207037.52, -25382.744, 0.08945202, -0.108963355, -15443.191, 132547.47, 0.000028869204, 10.001369, 9.998876 
9.6507823e+2, 2.9489714e+2, -44557.902, -180808.1, -78101.6, -0.06537167, -0.14524938, -9044.739, 40954.04, 0.00012892728, 10.000562, 9.998774 
9.6508e+2, 3.0489597e+2, -8676.795, -185563.25, -45182.98, -0.039663643, -0.11035562, 2196.1704, 2196.1704, 0.00034703137, 10.000681, 9.998377 
9.6508193e+2, 3.1489575e+2, 109477.25, -65374.87, -31240.191, 0.009491162, -0.009619469, 114891.195, 114891.195, 0.0006841425, 10.00113, 9.998985 
9.750607e+2, 1.2491506e+2, -1653568.3, -1813343.6, -19473.426, -0.048933666, 0.007806139, -1651229.1, 64601.805, 0.000058506626, 10.000856, 9.998904 
9.7506243e+2, 1.349144e+2, -1522242.1, -1700308.3, -12569.916, 0.033200983, 0.02020995, -1521359.3, 96480.45, 0.00001444443, 10.001188, 9.998839 
9.7506404e+2, 1.4491315e+2, -1375737.4, -1511271.1, -44459.76, 0.112636596, -0.006589223, -1362454.8, 157397.28, 0.0000005546723, 10.001205, 9.999429 
9.750645e+2, 1.5491281e+2, -1245883.8, -1407054.3, -5012.612, 0.07321335, -0.026616044, -1245728.0, 176125.36, 0.0, 10.00148, 9.999339 
9.75065e+2, 1.6491245e+2, -1201535.1, -1361497.3, -24118.17, 0.030454814, 0.02149823, -1197977.9, 125877.84, 0.0, 10.001214, 9.99912 
9.7506565e+2, 1.749118e+2, -1225556.5, -1334401.9, -14833.858, 0.007816139, 0.014273814, -1223571.0, 2290.723, 0.0, 10.000423, 9.999017 
9.750671e+2, 1.8491115e+2, -1133405.6, -1256720.6, -486.18927, 0.022532532, 0.062946394, -1133403.8, -5535.2813, 0.0, 10.000437, 9.998875 
9.750692e+2, 1.9491008e+2, -903130.5, -1101428.3, 23894.637, 0.06715027, 0.033177193, -900291.9, 129587.91, 0.0, 10.001377, 9.99881 
9.7507113e+2, 2.0490885e+2, -783449.0, -1020181.25, 8259.794, 0.092505075, 0.04800575, -783161.1, 148730.22, 0.0, 10.001674, 9.998543 
9.750729e+2, 2.1490704e+2, -734724.25, -958430.4, 22584.225, 0.1004172, -0.018005472, -732467.06, 101440.055, 0.0, 10.001379, 9.99844 
9.750734e+2, 2.249053e+2, -714170.25, -929040.25, -66617.266, 0.06186684, -0.012375031, -695192.7, 40730.484, 0.0, 10.000981, 9.998158 
9.750726e+2, 2.3490328e+2, -700631.44, -879078.0, -67175.125, -0.021707706, -0.06577131, -678170.8, -40227.285, 0.0, 10.000433, 9.99809 
9.7507334e+2, 2.4490163e+2, -561645.7, -693307.9, -57585.527, -0.0077108983, -0.06388329, -540013.5, -54.12853, 0.0, 10.000396, 9.99873 
9.750756e+2, 2.5490004e+2, -430571.25, -587743.5, -40655.813, 0.10264922, -0.12970874, -420677.6, 21296.512, 0.0, 10.000663, 9.9986515 
9.750773e+2, 2.6489896e+2, -290484.88, -481971.06, -28684.02, 0.11955248, -0.08717861, -286280.4, 57703.125, 0.0000000034767167, 10.001029, 9.998513 
9.750783e+2, 2.74898e+2, -142920.0, -371580.66, 571.8912, 0.033907186, -0.068566136, -142918.56, 103073.38, 0.0000028342504, 10.001412, 9.998416 
9.7507894e+2, 2.8489652e+2, -85782.8, -318944.94, -70041.55, -0.034592226, -0.040185083, -66360.32, 81646.21, 0.000032313746, 10.001256, 9.998162 
9.75079e+2, 2.9489422e+2, -115870.47, -298572.7, -78295.79, -0.09621691, -0.12862594, -86908.414, -36878.07, 0.0001399921, 10.000435, 9.998026 
9.7508085e+2, 3.0489305e+2, 39152.945, -52402.55, -40151.777, -0.054102205, -0.10369515, 54266.637, 54266.637, 0.00037284024, 10.000543, 9.999353 
9.7508276e+2, 3.148924e+2, 148291.55, 71319.04, 57208.223, -0.10084971, -0.14791366, 178754.34, 178754.34, 0.00073526404, 10.000902, 10.000023 
9.850622e+2, 1.2491329e+2, -1577214.4, -1788221.9, -27971.38, -0.0023471517, -0.03521041, -1573569.5, 142276.61, 0.00008108169, 10.001439, 9.998789 
9.8506397e+2, 1.349129e+2, -1497783.6, -1711315.6, -32714.328, 0.06837543, 0.019778911, -1492884.0, 124969.164, 0.000022462764, 10.001438, 9.998649 
9.8506594e+2, 1.449115e+2, -1379264.9, -1539024.1, -16450.48, 0.19156054, -0.0012090917, -1377588.6, 142278.66, 0.0000013019285, 10.00127, 9.999213 
9.850668e+2, 1.5491053e+2, -1278933.6, -1450396.5, -60295.863, 0.16767655, -0.06504277, -1259853.5, 162020.75, 0.0, 10.001347, 9.999112 
9.8506695e+2, 1.6490997e+2, -1179069.3, -1380481.4, -72136.49, 0.10294129, -0.011323849, -1155898.9, 167980.13, 0.0, 10.001502, 9.998846 
9.8506665e+2, 1.7490964e+2, -1037250.4, -1270154.6, -106735.78, 0.002710818, 0.0406341, -995735.3, 230147.98, 0.0, 10.001848, 9.998761 
9.8506784e+2, 1.8490885e+2, -939064.9, -1145240.6, -54190.07, 0.004390599, 0.08106371, -925689.56, 202201.6, 0.0, 10.001712, 9.999017 
9.8507065e+2, 1.949072e+2, -959253.56, -1114693.6, -72377.48, 0.098953106, -0.019932628, -930771.44, 99135.41, 0.0, 10.000948, 9.998922 
9.850726e+2, 2.0490614e+2, -904633.56, -1066335.8, -48942.973, 0.13295177, 0.0018101136, -890973.75, 40942.992, 0.0, 10.000764, 9.998675 
9.8507404e+2, 2.1490532e+2, -769200.0, -959647.06, -52258.79, 0.101059966, 0.021081764, -755802.6, 78121.875, 0.0, 10.00107, 9.998585 
9.850744e+2, 2.249038e+2, -683831.7, -903966.75, -89987.63, 0.06651199, 0.03440012, -651728.06, 84210.4, 0.0, 10.001128, 9.998264 
9.850738e+2, 2.3490122e+2, -624219.75, -831585.7, -79056.21, 0.0358728, -0.08520413, -597518.5, 40443.78, 0.0, 10.0009, 9.998196 
9.850746e+2, 2.4489933e+2, -494648.47, -680618.06, 11166.86, 0.054049354, -0.102929346, -493980.3, 45999.527, 0.0, 10.00097, 9.998524 
9.8507667e+2, 2.5489768e+2, -341457.16, -569641.5, -21326.541, 0.113441214, -0.15244317, -339481.03, 102514.82, 0.0, 10.00139, 9.998418 
9.850783e+2, 2.6489657e+2, -246710.56, -448848.3, -3482.7, 0.11370534, -0.106005274, -246650.58, 97355.35, 0.00000001775074, 10.001284, 9.998623 
9.850796e+2, 2.7489573e+2, -247539.08, -410665.44, -25169.373, 0.07045813, -0.083485164, -243743.89, 2269.0715, 0.000003544514, 10.000644, 9.998526 
9.850803e+2, 2.8489435e+2, -179344.89, -393382.63, -45514.39, 0.014523767, -0.037620574, -170068.45, -22041.428, 0.00003520851, 10.000719, 9.997937 
9.850803e+2, 2.9489207e+2, 11673.42, -265308.94, -54501.27, -0.045713972, -0.10069449, 22011.658, 72063.59, 0.00014922032, 10.0014105, 9.997806 
9.85082e+2, 3.0489084e+2, 155902.67, -6638.4805, 2615.5044, -0.023969112, -0.06127275, 155944.75, 155944.75, 0.00039592202, 10.001412, 9.999234 
9.8508435e+2, 3.148895e+2, 64126.688, 39830.285, -45431.83, 0.0129908, -0.16276646, 99006.45, 99006.45, 0.0007798097, 10.000301, 10.00009 
9.9506396e+2, 1.24911144e+2, -1546807.9, -1718559.9, -88484.89, -0.052905027, -0.053996097, -1509378.3, 206488.48, 0.000108580556, 10.001426, 9.999262 
9.950652e+2, 1.3491128e+2, -1472595.6, -1647259.4, -20951.084, 0.011310165, 0.0048316, -1470117.6, 147748.22, 0.000033028722, 10.001403, 9.999094 
9.950671e+2, 1.4490981e+2, -1431647.4, -1648857.4, -40021.38, 0.13079159, -0.0072162882, -1424508.1, 95372.52, 0.0000026281716, 10.0012665, 9.998469 
9.950685e+2, 1.5490808e+2, -1324369.3, -1549264.5, -41516.758, 0.16262145, -0.07256058, -1316949.9, 104947.85, 0.00000000019976186, 10.001363, 9.998429 
9.9506885e+2, 1.6490671e+2, -1212492.1, -1437749.1, -77511.26, 0.10195121, -0.048956905, -1188397.6, 135513.97, 0.0, 10.001458, 9.99847 
9.950684e+2, 1.7490529e+2, -1068612.8, -1325904.3, -74820.64, -0.052023876, -0.068522476, -1048436.94, 177489.23, 0.0, 10.001809, 9.998397 
9.950692e+2, 1.8490398e+2, -954569.56, -1152440.3, -101638.2, -0.06653747, -0.061956387, -911665.1, 216273.44, 0.0, 10.001607, 9.999019 
9.950716e+2, 1.9490246e+2, -976075.94, -1118126.6, -83265.53, 0.0694874, -0.1488152, -937658.4, 92293.45, 0.0, 10.0008135, 9.998963 
9.950732e+2, 2.0490208e+2, -911982.25, -1028459.1, -56766.4, 0.07904025, -0.08023873, -888893.3, 43062.402, 0.0, 10.0005455, 9.999035 
9.950739e+2, 2.1490246e+2, -777793.56, -918815.06, -23948.248, -0.049340174, 0.02143507, -773837.7, 60116.074, 0.0, 10.000828, 9.998975 
9.9507475e+2, 2.2490163e+2, -670977.75, -815748.5, -115349.04, -0.04296375, 0.04576901, -607182.94, 128777.49, 0.0, 10.00087, 9.998993 
9.9507564e+2, 2.3489912e+2, -609631.4, -741546.3, -69131.5, 0.09932876, -0.13762614, -580040.1, 57939.77, 0.0, 10.000653, 9.998929 
9.950764e+2, 2.4489765e+2, -548755.8, -751846.5, 9634.287, 0.11062956, -0.13200614, -548299.8, -8306.986, 0.0, 10.000786, 9.998124 
9.95077e+2, 2.5489676e+2, -397705.7, -639621.94, 13834.754, -0.02050532, -0.06377992, -396917.06, 45086.316, 0.0, 10.0011835, 9.998037 
9.9507844e+2, 2.6489544e+2, -282697.84, -479125.75, -43851.75, -0.03127364, -0.01710085, -273352.72, 70664.11, 0.000000028595345, 10.001102, 9.998499 
9.9508077e+2, 2.7489316e+2, -280517.75, -442660.8, -27546.162, 0.08621525, -0.12558258, -275965.78, -29928.01, 0.000003781716, 10.000497, 9.998374 
9.950819e+2, 2.848916e+2, -174754.5, -358353.78, -35901.02, 0.06941294, -0.10052396, -167984.08, -19931.191, 0.000036350866, 10.000606, 9.998232 
9.950818e+2, 2.9489067e+2, 18826.049, -222160.31, -1908.5774, -0.088901125, -0.06070859, 18841.164, 68904.61, 0.00015456251, 10.0012865, 9.99816 
9.9508303e+2, 3.0488953e+2, 44331.18, -207269.02, -46388.863, -0.09715128, 0.028834715, 52611.62, 52611.62, 0.00041193186, 10.00129, 9.9979105 
9.950852e+2, 3.1488657e+2, -35614.086, -108497.414, -29040.158, -0.0128748845, -0.100178875, -25458.266, -25458.266, 0.0008105773, 10.000066, 9.999176 
1.0050669e+3, 1.2490907e+2, -1541512.0, -1710659.4, -69057.51, 0.11804506, -0.043242823, -1516899.4, 198988.53, 0.00014134821, 10.001438, 9.999314 
1.0050672e+3, 1.3490897e+2, -1405713.4, -1609881.9, -84785.13, 0.06501074, -0.012212559, -1375096.0, 242792.1, 0.000046426092, 10.0018425, 9.999136 
1.0050689e+3, 1.4490749e+2, -1356209.6, -1614624.3, -46584.03, 0.1554775, -0.025201283, -1348068.4, 171834.42, 0.00000474816, 10.001834, 9.99841 
1.0050699e+3, 1.549059e+2, -1252083.8, -1524084.5, -49999.23, 0.1547017, -0.06555834, -1243184.0, 178735.44, 0.000000004412824, 10.00192, 9.998329 
1.0050706e+3, 1.6490452e+2, -1157364.1, -1400002.3, -13178.274, 0.12203767, -0.041531257, -1156650.5, 167282.75, 0.0, 10.001762, 9.998597 
1.0050709e+3, 1.7490299e+2, -1134317.9, -1343262.1, -7210.4624, 0.054991737, -0.08719756, -1134069.3, 91878.586, 0.0, 10.001276, 9.998545 
1.00507155e+3, 1.8490165e+2, -1032374.8, -1205716.9, 10377.073, 0.03847669, -0.08389732, -1031755.8, 96204.555, 0.0, 10.00115, 9.998865 
1.0050727e+3, 1.9490016e+2, -892376.7, -1096139.0, -21655.49, 0.07724689, -0.15237805, -890100.56, 139873.47, 0.0, 10.001474, 9.998789 
1.0050738e+3, 2.0489967e+2, -798617.06, -955681.94, 24502.86, 0.06230024, -0.09393199, -794883.25, 137095.69, 0.0, 10.001235, 9.9992075 
1.0050747e+3, 2.1489982e+2, -836398.5, -934361.06, 4668.0586, -0.015784588, -0.031581365, -836176.56, -2197.9973, 0.0, 10.000344, 9.999117 
1.0050759e+3, 2.2489919e+2, -725311.4, -813981.25, -50079.465, 0.016839132, -0.00561427, -702761.8, 33221.215, 0.0, 10.000394, 9.999234 
1.0050772e+3, 2.3489727e+2, -474235.63, -652620.06, -82532.91, 0.16211516, -0.15015507, -441908.6, 196088.11, 0.0, 10.001483, 9.9991455 
1.005078e+3, 2.4489592e+2, -408538.47, -713539.2, 1407.0214, 0.15010153, -0.1300674, -408532.0, 131476.94, 0.0, 10.001875, 9.997865 
1.0050783e+3, 2.5489482e+2, -364245.53, -645772.8, -21817.44, -0.018494958, -0.06011069, -362564.8, 79457.7, 0.0, 10.001534, 9.997814 
1.0050797e+3, 2.6489326e+2, -245624.58, -492554.28, -51608.254, -0.024816342, -0.01108442, -235272.45, 108766.61, 0.000000017098808, 10.001476, 9.99823 
1.0050821e+3, 2.748907e+2, -143746.16, -401643.8, -81107.48, 0.13944411, -0.12558208, -120359.09, 125704.86, 0.000003428396, 10.0015335, 9.998154 
1.00508325e+3, 2.8488916e+2, -51586.754, -255649.2, -36397.375, 0.12378396, -0.106709205, -45289.13, 102789.09, 0.00003625069, 10.001279, 9.998598 
1.0050829e+3, 2.9488853e+2, -48940.26, -214113.69, -43392.72, -0.06010845, -0.0745171, -38234.46, 11849.149, 0.00015744341, 10.000642, 9.998521 
1.0050841e+3, 3.0488732e+2, -58443.215, -312756.53, -27350.873, -0.08008725, 0.016110055, -55534.945, -55534.945, 0.00042211023, 10.000787, 9.997459 
1.0050871e+3, 3.148844e+2, 141762.11, -48883.207, -9280.046, 0.12233911, -0.056877743, 142212.78, 142212.78, 0.0008305699, 10.001334, 9.999019 
1.0150699e+3, 1.2490718e+2, -1567274.5, -1750552.3, -124318.625, 0.19319956, -0.004340922, -1504469.9, 211438.52, 0.0001798155, 10.001399, 9.999049 
1.0150695e+3, 1.3490607e+2, -1426385.8, -1655682.8, -54731.93, 0.06258089, -0.044181507, -1413991.4, 203927.33, 0.000062927356, 10.001856, 9.99881 
1.0150703e+3, 1.4490454e+2, -1332115.8, -1554081.8, -68241.836, 0.06447201, -0.06796763, -1312813.8, 207119.83, 0.000007860604, 10.001795, 9.998838 
1.0150706e+3, 1.5490402e+2, -1226858.0, -1465236.4, -27822.092, -0.008235399, -0.044117585, -1223653.9, 198285.19, 0.000000028517778, 10.001901, 9.998735 
1.0150717e+3, 1.649035e+2, -1115756.3, -1307234.1, -50331.047, 0.018512217, 0.013897904, -1103332.6, 220610.67, 0.0, 10.001733, 9.9992485 
1.01507366e+3, 1.7490275e+2, -1089766.1, -1248587.6, -8943.449, 0.17190398, -0.021876516, -1089264.1, 136684.45, 0.0, 10.001263, 9.999202 
1.01507425e+3, 1.8490183e+2, -1072277.6, -1264961.8, 2556.3298, 0.16210929, 0.0098179905, -1072243.6, 55713.254, 0.0, 10.00105, 9.998507 
1.0150736e+3, 1.9490035e+2, -938617.2, -1157701.8, 6773.4214, -0.021942366, -0.024868894, -938407.94, 91565.02, 0.0, 10.001328, 9.998433 
1.0150741e+3, 2.0489901e+2, -826601.25, -975414.4, -27264.357, -0.061772283, -0.029172923, -821763.4, 110222.1, 0.0, 10.001068, 9.999152 
1.015076e+3, 2.1489754e+2, -867842.7, -951096.75, -13347.62, 0.048083823, -0.12828724, -865755.1, -31757.332, 0.0, 10.000141, 9.999094 
1.0150773e+3, 2.2489661e+2, -785201.94, -883770.06, -30283.816, 0.09513214, -0.11027898, -776641.1, -40636.164, 0.0, 10.000159, 9.998866 
1.0150781e+3, 2.3489581e+2, -532447.8, -718589.9, -25748.018, 0.07377957, -0.11071266, -528951.9, 109059.54, 0.0, 10.001249, 9.998802 
1.015079e+3, 2.4489431e+2, -449492.8, -748765.56, -31218.637, 0.033074412, -0.07997229, -446270.94, 93755.49, 0.0, 10.001661, 9.997727 
1.01508e+3, 2.5489172e+2, -399376.72, -679072.94, -16368.572, -0.03532948, -0.14510489, -398422.03, 43631.684, 0.0, 10.001359, 9.997674 
1.0150815e+3, 2.6488987e+2, -290294.88, -546295.2, -63324.625, -0.01785793, -0.10262548, -275487.28, 68586.6, 0.000000011022683, 10.001312, 9.997937 
1.0150835e+3, 2.7488837e+2, -187129.69, -450825.3, -53593.523, 0.07731898, -0.0827182, -176653.53, 69437.24, 0.0000031084232, 10.001361, 9.997897 
1.015084e+3, 2.8488702e+2, -46130.117, -213238.75, -76193.75, 0.038081836, -0.052926775, -16605.652, 131497.17, 0.000035475467, 10.001148, 9.998949 
1.0150831e+3, 2.9488555e+2, -51335.844, -178688.02, -43125.902, -0.14762953, -0.13993901, -38106.227, 12006.685, 0.00015874387, 10.000475, 9.99884 
1.0150845e+3, 3.0488423e+2, -47228.773, -259063.34, -16234.372, -0.14123435, -0.09666259, -45991.84, -45991.84, 0.00042931808, 10.000665, 9.997882 
1.0150888e+3, 3.1488279e+2, 136813.05, 23561.91, 61774.906, 0.087151095, -0.06766789, 163988.4, 163988.4, 0.00084597926, 10.001005, 9.999662 
1.0250721e+3, 1.2490556e+2, -1563961.3, -1716158.4, -60512.645, 0.30359513, 0.021325646, -1542834.4, 173092.13, 0.00022439056, 10.001259, 9.999364 
1.0250713e+3, 1.3490458e+2, -1440723.3, -1628835.1, 2684.5466, 0.09458782, -0.030635724, -1440684.9, 177249.23, 0.0000828242, 10.001618, 9.999115 
1.02507204e+3, 1.4490335e+2, -1334593.6, -1540743.1, 39813.266, 0.06893662, -0.048112463, -1327171.8, 192773.22, 0.000012107546, 10.001676, 9.999018 
1.0250725e+3, 1.549029e+2, -1237935.3, -1450724.6, 25395.166, 0.006265969, -0.03685939, -1234946.4, 187002.7, 0.00000009714164, 10.001712, 9.998941 
1.02507345e+3, 1.6490231e+2, -1137667.4, -1331702.1, -5335.481, 0.041096836, 0.010367014, -1137520.8, 186433.44, 0.0, 10.001677, 9.999085 
1.0250753e+3, 1.7490134e+2, -1033440.25, -1235486.3, -66573.06, 0.18845117, -0.02812207, -1013477.2, 212485.28, 0.0, 10.001746, 9.99904 
1.0250759e+3, 1.8490055e+2, -966940.56, -1199713.9, -24702.273, 0.19323477, 0.016295727, -964348.0, 163622.1, 0.0, 10.001695, 9.998648 
1.0250753e+3, 1.9489957e+2, -912246.75, -1130162.8, -13796.428, 0.029609876, 0.017815039, -911376.75, 118604.4, 0.0, 10.001435, 9.99858 
1.02507584e+3, 2.0489821e+2, -782287.94, -953891.3, -11349.602, -0.007538477, 0.004826717, -781540.5, 150452.73, 0.0, 10.001394, 9.999142 
1.0250772e+3, 2.148961e+2, -663336.0, -857012.4, -35888.9, 0.08888907, -0.14976504, -656899.6, 177110.67, 0.0, 10.001584, 9.999045 
1.0250785e+3, 2.2489497e+2, -580207.44, -843258.7, 16697.63, 0.12851194, -0.12450935, -579151.75, 156868.89, 0.0, 10.001812, 9.998345 
1.0250799e+3, 2.3489445e+2, -462696.25, -743902.44, -22688.47, 0.100313805, -0.043323115, -460877.47, 177150.36, 0.0, 10.001986, 9.99827 
1.0250809e+3, 2.4489295e+2, -419399.22, -693429.4, -29153.85, 0.062340733, -0.0036943047, -416331.9, 123711.93, 0.0, 10.001718, 9.99806 
1.0250816e+3, 2.5489002e+2, -437163.5, -662837.06, -20941.545, 0.0109243225, -0.13446642, -435236.7, 6836.2676, 0.0, 10.000958, 9.997973 
1.0250828e+3, 2.648884e+2, -344471.13, -529869.9, 37008.53, 0.012455516, -0.10186827, -337356.66, 6733.106, 0.00000001218603, 10.00077, 9.998306 
1.0250846e+3, 2.7488774e+2, -191277.08, -407534.13, 55058.37, 0.08021079, -0.03521351, -178066.39, 68031.14, 0.0000027111198, 10.001157, 9.998285 
1.0250853e+3, 2.8488642e+2, -42918.496, -251522.6, 47668.184, 0.057206087, -0.005512193, -32541.982, 115567.25, 0.00003356842, 10.001334, 9.998606 
1.0250847e+3, 2.9488403e+2, 24511.637, -181206.7, -13299.6455, -0.056776643, -0.14449744, 25367.893, 75496.54, 0.00015737157, 10.001162, 9.998501 
1.0250858e+3, 3.048822e+2, 6272.593, -208013.63, 36617.6, -0.078669176, -0.1455219, 12357.106, 12357.106, 0.00043278775, 10.000941, 9.998081 
1.0250895e+3, 3.1488147e+2, 48814.65, 6173.362, 22537.396, 0.106926896, -0.07373163, 58518.254, 58518.254, 0.00085735595, 10.000284, 9.999877 
1.0350725e+3, 1.2490388e+2, -1497333.4, -1583664.6, -116345.38, 0.1206425, 0.008745134, -1416404.3, 299541.28, 0.00027553758, 10.001284, 10.00026 
1.03507236e+3, 1.3490444e+2, -1384271.4, -1511728.6, 23783.248, 0.0038186074, 0.028223181, -1379978.1, 237956.66, 0.000106410545, 10.0016165, 9.999922 
1.0350734e+3, 1.4490384e+2, -1330550.6, -1531482.4, 15184.425, -0.007822354, 0.032233834, -1329409.6, 190528.1, 0.000017580353, 10.0016775, 9.999079 
1.035075e+3, 1.5490252e+2, -1231348.9, -1437739.1, 42979.15, 0.039789256, -0.05248322, -1222756.5, 199193.48, 0.00000023822265, 10.001711, 9.999034 
1.0350754e+3, 1.6490093e+2, -1220481.6, -1487903.8, -25897.207, 0.021402536, -0.05939588, -1217996.8, 105969.5, 0.0, 10.001618, 9.998036 
1.0350752e+3, 1.7489879e+2, -1117808.0, -1394126.0, -46504.082, -0.028654164, -0.109873675, -1110191.4, 115798.125, 0.0, 10.001681, 9.997978 
1.0350759e+3, 1.8489791e+2, -935672.1, -1112131.8, -54992.613, -0.008509644, -0.052317064, -919937.1, 208061.55, 0.0, 10.001598, 9.999295 
1.03507765e+3, 1.9489793e+2, -884725.0, -1044021.6, -10693.761, 0.08307413, -0.018761823, -884010.3, 145987.3, 0.0, 10.0013075, 9.999234 
1.03507824e+3, 2.0489727e+2, -819356.5, -983154.5, -24400.479, 0.07626649, 0.008590944, -815798.94, 116203.36, 0.0, 10.001184, 9.9990425 
1.0350779e+3, 2.1489541e+2, -693330.75, -881390.56, -10031.022, -0.023729518, -0.11040087, -692797.2, 141220.14, 0.0, 10.001411, 9.998963 
1.0350791e+3, 2.2489415e+2, -656960.2, -949169.56, 6294.8354, -0.021630127, -0.065260634, -656824.7, 79206.35, 0.0, 10.00159, 9.997723 
1.03508204e+3, 2.3489316e+2, -539960.7, -850190.25, 2155.1968, 0.08660206, 0.030329466, -539945.75, 98100.414, 0.0, 10.001755, 9.997648 
1.03508316e+3, 2.4489179e+2, -410420.38, -617721.75, -69921.625, 0.08276896, 0.08613766, -389041.1, 151020.27, 0.0, 10.001477, 9.998695 
1.0350824e+3, 2.5488973e+2, -419013.16, -576709.06, -27851.111, -0.033743292, -0.0278274, -414238.84, 27841.145, 0.0, 10.000757, 9.998657 
1.035083e+3, 2.6488888e+2, -297436.2, -397104.13, 34244.43, -0.06663227, -0.0036207302, -286804.44, 57281.887, 0.00000000560088, 10.00062, 9.9992895 
1.0350852e+3, 2.7488875e+2, -149624.31, -276860.03, 89784.086, -0.011944362, 0.020235427, -103203.93, 142880.8, 0.0000022721786, 10.000978, 9.999264 
1.0350868e+3, 2.8488725e+2, -132259.88, -405511.34, 23195.768, 0.028838305, 0.03383041, -130304.82, 17793.375, 0.000031172072, 10.001198, 9.997615 
1.03508726e+3, 2.9488415e+2, -74946.875, -343363.56, 8279.808, 0.034590364, -0.07964247, -74691.71, -24562.385, 0.00015322318, 10.000973, 9.9974785 
1.0350874e+3, 3.0488133e+2, -22159.594, -230985.63, 3278.0483, -0.045620445, -0.12225156, -22108.15, -22108.15, 0.00043103905, 10.000797, 9.997987 
1.03508785e+3, 3.1488043e+2, -9431.531, -35435.473, 50477.168, -0.1521193, -0.05891574, 29691.309, 29691.309, 0.00086192216, 9.999976, 9.999726 
1.0450739e+3, 1.2490307e+2, -1622785.8, -1654116.3, -2478.7961, 0.1792942, 0.0011732207, -1622590.9, 93360.61, 0.0003338259, 10.000443, 10.000189 
1.0450746e+3, 1.349033e+2, -1420898.3, -1538875.5, 23731.213, 0.083870776, -0.0074656876, -1416303.8, 201640.8, 0.00013404706, 10.001377, 9.999855 
1.0450753e+3, 1.4490283e+2, -1368893.3, -1556502.5, -1250.6329, 0.046192456, 0.015943265, -1368884.9, 151062.22, 0.000024406929, 10.001465, 9.998991 
1.045077e+3, 1.5490174e+2, -1329011.8, -1486511.1, -33087.95, 0.11731484, -0.035177156, -1322342.9, 99615.586, 0.0000004785213, 10.001082, 9.998982 
1.0450774e+3, 1.6490023e+2, -1271521.9, -1510375.4, -7917.076, 0.08934099, -0.035628125, -1271259.8, 52714.887, 0.0, 10.001236, 9.998085 
1.045077e+3, 1.748979e+2, -1065843.4, -1364780.9, 20148.455, -0.014267952, -0.11198855, -1064491.5, 161507.63, 0.0, 10.001999, 9.998041 
1.0450777e+3, 1.8489686e+2, -891472.1, -1094965.4, 28121.191, -0.0009749524, -0.07110596, -887657.5, 240352.19, 0.0, 10.001937, 9.9992485 
1.0450792e+3, 1.9489674e+2, -919390.75, -1065290.4, -22253.36, 0.13024056, -0.041389998, -916072.06, 113938.266, 0.0, 10.001098, 9.999187 
1.04508e+3, 2.048962e+2, -858897.6, -1012547.4, 8317.953, 0.14198741, 0.006592602, -858448.6, 73565.59, 0.0, 10.000967, 9.998935 
1.0450798e+3, 2.1489482e+2, -689969.75, -885673.0, -14587.26, 0.032653507, -0.05880512, -688888.44, 145137.08, 0.0, 10.001484, 9.998884 
1.045081e+3, 2.2489348e+2, -656929.1, -938891.3, 39224.094, 0.021194868, -0.02001325, -651574.3, 84465.266, 0.0, 10.00154, 9.997827 
1.0450836e+3, 2.348918e+2, -626787.4, -882767.1, 50754.84, 0.10959648, -0.0012622887, -617091.1, 20969.328, 0.0, 10.001103, 9.997752 
1.0450844e+3, 2.4489051e+2, -481008.0, -630098.75, 17160.557, 0.09059322, 0.04669804, -479058.28, 61016.12, 0.0, 10.000876, 9.998917 
1.0450831e+3, 2.5488937e+2, -387406.44, -534103.2, -7924.904, -0.031057734, 0.0019339981, -386979.56, 55104.48, 0.0, 10.000851, 9.998912 
1.0450838e+3, 2.6488864e+2, -277625.6, -414722.3, 45930.723, -0.058094285, 0.03856974, -263660.25, 80428.97, 0.0000000009945924, 10.000844, 9.999083 
1.0450863e+3, 2.748878e+2, -198756.31, -332373.16, -21343.58, 0.019531565, 0.013160526, -195429.77, 50665.77, 0.0000020282196, 10.000724, 9.999033 
1.0450882e+3, 2.8488624e+2, -209201.06, -447122.9, -66642.58, 0.07796974, 0.03297928, -191806.08, -43695.363, 0.00002862313, 10.000698, 9.997562 
1.04508884e+3, 2.948838e+2, -109056.87, -356457.53, -55580.977, 0.117578946, -0.012525988, -97143.71, -47007.137, 0.00014660136, 10.000742, 9.997487 
1.0450886e+3, 3.0488104e+2, -26327.918, -215433.48, 8492.016, 0.021010833, -0.057697825, -25947.34, -25947.34, 0.00042212423, 10.000682, 9.998152 
1.04508825e+3, 3.1488025e+2, 11723.771, -19626.549, -3779.2583, -0.10066833, 0.0063462663, 12172.923, 12172.923, 0.00085377786, 10.00006, 9.999808 
1.0550749e+3, 1.2490296e+2, -1680098.4, -1775279.0, -19582.08, 0.16438827, -0.03404544, -1676227.1, 39719.395, 0.00039971265, 10.000465, 9.99934 
1.05507724e+3, 1.3490129e+2, -1486022.3, -1664897.0, 74932.3, 0.1776141, -0.14288956, -1458781.1, 159180.42, 0.00016604259, 10.001346, 9.999003 
1.05507754e+3, 1.4490056e+2, -1397564.0, -1607120.1, -39525.336, 0.057940144, -0.08723529, -1390356.8, 129613.516, 0.000032768716, 10.001428, 9.998662 
1.0550783e+3, 1.549007e+2, -1357997.6, -1542045.5, -30587.594, 0.09009053, 0.014287278, -1353047.3, 68926.34, 0.0000008393984, 10.001058, 9.998617 
1.0550791e+3, 1.6490026e+2, -1194518.1, -1339278.5, 949.1442, 0.084893934, 0.08329025, -1194511.9, 129466.73, 0.0, 10.001189, 9.999277 
1.0550803e+3, 1.7489877e+2, -988706.5, -1194640.4, 65801.66, 0.07589323, -0.030174633, -969476.7, 256513.17, 0.0, 10.001955, 9.9992285 
1.0550806e+3, 1.8489748e+2, -964163.25, -1218379.3, -24607.758, 0.05776784, -0.03541383, -961803.2, 166198.89, 0.0, 10.001816, 9.998461 
1.0550796e+3, 1.9489604e+2, -991501.44, -1189161.0, -36130.977, 0.02763348, -0.060848314, -985104.0, 44914.707, 0.0, 10.000979, 9.998397 
1.0550802e+3, 2.0489515e+2, -897211.9, -1048574.3, 8301.999, 0.050238885, -0.000761837, -896757.9, 35270.03, 0.0, 10.000781, 9.998779 
1.0550825e+3, 2.1489437e+2, -732037.1, -925608.0, 21547.346, 0.12533069, 0.009099317, -729667.56, 104366.47, 0.0, 10.001272, 9.998717 
1.0550837e+3, 2.2489293e+2, -643105.94, -850656.44, 7215.7944, 0.11868136, 0.011571048, -642855.4, 93191.47, 0.0, 10.00129, 9.998546 
1.05508424e+3, 2.348904e+2, -607551.56, -787843.8, 52125.836, 0.029367216, -0.13245223, -593565.94, 44504.96, 0.0, 10.000872, 9.998509 
1.055084e+3, 2.4488917e+2, -525591.7, -673529.75, -2920.6858, -0.055108473, -0.10832317, -525534.06, 14548.541, 0.0, 10.000668, 9.998717 
1.0550833e+3, 2.5488898e+2, -431573.66, -579649.8, 6168.8013, -0.1314095, -0.03799834, -431317.13, 10767.666, 0.0, 10.000655, 9.998691 
1.0550843e+3, 2.6488772e+2, -398262.72, -625744.75, 24509.7, -0.10502084, 0.026454855, -395651.94, -51553.453, 0.000000000012280949, 10.000677, 9.997708 
1.0550874e+3, 2.7488503e+2, -319587.94, -543307.9, -1526.6289, 0.017408393, -0.05021856, -319577.5, -73449.97, 0.0000016155456, 10.000553, 9.997662 
1.0550889e+3, 2.8488362e+2, -172509.95, -336520.5, -78420.04, 0.056548372, 0.011663481, -141049.08, 7094.058, 0.000025306648, 10.000554, 9.998392 
1.055089e+3, 2.9488298e+2, -74756.93, -248395.48, -24161.115, 0.015913734, 0.0656426, -71457.695, -21308.275, 0.00013793015, 10.0005865, 9.998309 
1.055089e+3, 3.0488116e+2, -14531.998, -164300.16, -21397.271, -0.04708416, 0.052023023, -11534.959, -11534.959, 0.00040720604, 10.000563, 9.998559 
1.0550894e+3, 3.1488088e+2, -16697.688, -13529.534, 24911.475, -0.08151125, 0.122124076, 9848.177, 9848.177, 0.0008331317, 9.999783, 9.999985 
1.0650768e+3, 1.24902494e+2, -1493636.6, -1738662.4, 3911.462, 0.23782828, -0.040255368, -1493574.3, 222375.45, 0.00047318285, 10.002003, 9.998845 
1.0650795e+3, 1.3490047e+2, -1486045.1, -1709283.6, 40201.1, 0.27353382, -0.13950638, -1479026.3, 138945.02, 0.00020250746, 10.001566, 9.998584 
1.0650788e+3, 1.4489971e+2, -1419673.9, -1596741.3, -6322.3667, 0.07877473, -0.07556736, -1419448.4, 100533.08, 0.000042863663, 10.001175, 9.998868 
1.06507935e+3, 1.548999e+2, -1315693.1, -1495095.9, -889.7318, 0.09967077, 0.010362394, -1315688.6, 106294.5, 0.0000013547858, 10.00123, 9.998859 
1.0650805e+3, 1.6489983e+2, -1165162.5, -1276499.9, 85817.72, 0.11509943, 0.08247927, -1118539.0, 205444.69, 0.0, 10.00117, 9.999728 
1.06508255e+3, 1.7489909e+2, -1097472.4, -1195748.1, 54987.23, 0.16100268, 0.0022377311, -1072866.6, 153120.34, 0.0, 10.000981, 9.9997015 
1.0650828e+3, 1.8489803e+2, -1064467.9, -1284439.1, -12039.304, 0.1406828, 0.0041907905, -1063810.9, 64185.805, 0.0, 10.001189, 9.998312 
1.06508106e+3, 1.9489633e+2, -874093.3, -1150010.3, -12160.371, 0.04237109, -0.032808907, -873558.4, 156458.11, 0.0, 10.00185, 9.998247 
1.0650815e+3, 2.0489518e+2, -733715.5, -983285.3, 94063.75, 0.055986717, 0.015128334, -702233.75, 229794.95, 0.0, 10.001958, 9.998658 
1.0650845e+3, 2.1489428e+2, -700863.1, -922640.94, 70770.305, 0.19327733, 0.024417149, -680204.4, 153832.17, 0.0, 10.001538, 9.998607 
1.0650857e+3, 2.2489285e+2, -639426.4, -823361.8, 62526.39, 0.19210042, 0.019586604, -620184.3, 115864.445, 0.0, 10.00119, 9.998786 
1.0650852e+3, 2.3489048e+2, -590744.8, -749076.9, 40032.563, 0.054480694, -0.13328472, -581198.56, 56870.758, 0.0, 10.0008545, 9.998779 
1.0650849e+3, 2.4488923e+2, -517580.72, -706763.94, 14389.388, -0.0308523, -0.1090362, -516492.5, 23588.555, 0.0, 10.000879, 9.998386 
1.06508486e+3, 2.5488874e+2, -366251.88, -593397.7, -21551.219, -0.06323004, -0.030459432, -364225.2, 77862.875, 0.0, 10.001277, 9.998309 
1.06508605e+3, 2.6488715e+2, -293520.34, -588113.2, 60082.664, -0.030516075, 0.026512103, -281737.66, 62368.152, 0.0, 10.001463, 9.997576 
1.0650887e+3, 2.7488425e+2, -215611.97, -498629.75, 75817.88, 0.075435825, -0.062593035, -196580.78, 49556.066, 0.00000091217555, 10.001321, 9.997582 
1.06509e+3, 2.8488287e+2, -71295.11, -260065.7, 64360.285, 0.08532291, -0.0030160563, -51440.176, 96711.15, 0.000020761427, 10.001115, 9.998656 
1.0650896e+3, 2.9488257e+2, -17372.744, -190871.28, 37097.09, 0.009583131, 0.056898203, -9773.565, 40380.668, 0.00012637535, 10.000825, 9.998596 
1.0650895e+3, 3.04881e+2, -17142.688, -155091.31, 33516.582, -0.03466733, 0.05023635, -9430.514, -9430.514, 0.00038601994, 10.000502, 9.998642 
1.0650901e+3, 3.1488106e+2, -9148.619, -9464.662, -11801.308, 0.029262267, 0.13851924, 2495.7249, 2495.7249, 0.0008001297, 9.999835, 9.999972 
1.0750786e+3, 1.2490143e+2, -1512797.4, -1769536.6, -16274.389, 0.13968453, -0.048364013, -1511769.9, 204193.61, 0.00055371417, 10.001985, 9.998631 
1.0750807e+3, 1.3490082e+2, -1502237.6, -1732207.8, 30602.898, 0.20113799, 0.006021386, -1498234.8, 119739.07, 0.00024334127, 10.001532, 9.998437 
1.075079e+3, 1.449002e+2, -1362588.4, -1482480.5, -33239.29, -0.07448999, 0.05291287, -1353989.6, 165991.45, 0.00005483326, 10.001176, 9.999658 
1.0750798e+3, 1.5489933e+2, -1256777.4, -1377773.8, 17268.85, -0.014605695, -0.049718067, -1254361.0, 167626.4, 0.000002073113, 10.00124, 9.999666 
1.07508115e+3, 1.6489899e+2, -1191956.3, -1317319.8, 56664.773, 0.03398299, -0.0311749, -1170140.0, 153849.33, 0.0000000000166348, 10.001116, 9.999469 
1.0750834e+3, 1.7489888e+2, -1123779.1, -1234449.8, 66116.01, 0.10812875, -0.026429351, -1092897.8, 133092.31, 0.0, 10.000917, 9.999461 
1.075084e+3, 1.8489857e+2, -1052264.6, -1230574.0, -5915.205, 0.105183005, 0.042472027, -1052068.6, 75924.555, 0.0, 10.001071, 9.998736 
1.075083e+3, 1.9489758e+2, -865523.5, -1094195.5, 28114.416, 0.020967452, 0.032096874, -862117.6, 167886.36, 0.0, 10.001693, 9.998702 
1.0750835e+3, 2.0489632e+2, -770606.25, -1018669.9, 56734.793, 0.018093616, 0.052763127, -758246.25, 173770.4, 0.0, 10.001775, 9.998509 
1.0750853e+3, 2.1489444e+2, -738900.4, -954402.7, 71235.555, 0.09874709, -0.023114812, -717481.8, 116552.56, 0.0, 10.001328, 9.998494 
1.0750863e+3, 2.2489315e+2, -687739.06, -861624.7, 33965.758, 0.1083911, 0.000035367964, -681339.94, 54706.05, 0.0, 10.000931, 9.998646 
1.0750863e+3, 2.3489209e+2, -638293.3, -788095.6, 48336.355, 0.042091317, -0.009223132, -624050.8, 14004.182, 0.0, 10.000603, 9.998632 
1.0750865e+3, 2.4489072e+2, -592385.1, -805606.2, 14426.961, 0.01696203, 0.03855541, -591413.4, -51343.87, 0.0, 10.000642, 9.997815 
1.0750873e+3, 2.5488865e+2, -429541.7, -680705.4, 13670.365, 0.029702397, 0.010573565, -428799.84, 13293.759, 0.0, 10.00109, 9.997792 
1.0750885e+3, 2.6488695e+2, -255981.47, -463174.7, 37830.65, 0.037888378, 0.03338975, -249290.2, 94820.52, 0.000000000031670343, 10.0012665, 9.99853 
1.0750901e+3, 2.7488524e+2, -176814.23, -377774.3, 95178.0, 0.038901813, -0.031840418, -138892.36, 107232.49, 0.00000057346807, 10.001148, 9.998502 
1.07509054e+3, 2.848839e+2, -103063.36, -299083.38, 33793.72, 0.0030565348, -0.0019730106, -97400.914, 50735.902, 0.000016841232, 10.000996, 9.998443 
1.07508995e+3, 2.948826e+2, -55401.273, -229439.06, 51169.246, -0.07184244, -0.02167135, -41471.766, 8678.012, 0.000114238224, 10.00065, 9.998416 
1.0750897e+3, 3.0488062e+2, -54328.113, -205646.63, 3003.776, -0.09756502, -0.04868553, -54268.508, -54268.508, 0.0003625103, 10.000391, 9.998346 
1.0750896e+3, 3.1488043e+2, -76570.19, -101114.82, 25347.773, -0.08269297, 0.04425049, -60680.13, -60680.13, 0.00076317973, 9.999627, 9.999446 
1.0850806e+3, 1.2490122e+2, -1499359.8, -1751798.9, 44929.234, 0.1592575, 0.029676069, -1491601.6, 224370.05, 0.00064071716, 10.001985, 9.998778 
1.0850819e+3, 1.3490102e+2, -1645108.4, -1782212.6, -2284.2637, 0.23266149, 0.107281454, -1645070.3, -27093.275, 0.00028839763, 10.00044, 9.998638 
1.0850798e+3, 1.4490023e+2, -1540207.0, -1541220.9, 32753.865, -0.0385165, 0.11746569, -1507956.1, 12028.322, 0.00006873226, 9.999882, 9.999853 
1.0850812e+3, 1.5489903e+2, -1296156.0, -1374141.5, -10884.947, 0.01868209, -0.036449112, -1294665.3, 127327.09, 0.0000030594845, 10.0008955, 9.999844 
1.0850825e+3, 1.6489862e+2, -1203135.8, -1333908.5, 11892.665, 0.067272104, -0.031412903, -1202063.0, 121931.664, 0.000000000186287, 10.001083, 9.999368 
1.0850841e+3, 1.7489871e+2, -1196324.4, -1283483.3, -7052.639, 0.12611188, 0.0029879534, -1195757.4, 30237.094, 0.0, 10.000472, 9.999337 
1.0850848e+3, 1.8489845e+2, -1093577.4, -1206460.4, 6087.328, 0.11679622, 0.06255787, -1093250.1, 34746.313, 0.0, 10.000593, 9.999142 
1.0850846e+3, 1.9489743e+2, -873869.44, -1050960.4, 2173.827, 0.031798594, 0.010832089, -873842.75, 156161.88, 0.0, 10.001445, 9.99912 
1.08508535e+3, 2.0489624e+2, -789625.25, -1044657.9, 23366.586, 0.033280592, 0.0266004, -787502.0, 144514.06, 0.0, 10.001734, 9.99834 
1.0850868e+3, 2.1489447e+2, -739462.7, -975954.0, -6801.075, 0.12179875, -0.020514818, -739267.25, 94767.89, 0.0, 10.0014305, 9.99829 
1.0850875e+3, 2.2489332e+2, -642667.25, -839116.44, -2351.1052, 0.1394515, 0.026634945, -642639.1, 93407.49, 0.0, 10.001236, 9.998661 
1.0850874e+3, 2.3489246e+2, -561510.2, -751758.2, -19420.525, 0.08447265, 0.039449, -559548.0, 78505.79, 0.0, 10.001126, 9.998641 
1.0850879e+3, 2.4489103e+2, -512648.6, -769692.8, 27813.576, 0.064057946, 0.08323909, -509673.44, 30395.0, 0.0, 10.001181, 9.997824 
1.08508885e+3, 2.548887e+2, -403773.1, -666687.25, 35177.426, 0.081997745, 0.031745464, -399147.8, 42946.668, 0.0, 10.00126, 9.997819 
1.0850901e+3, 2.6488703e+2, -266355.06, -437275.97, 70166.43, 0.0824941, 0.043163944, -241240.58, 102870.08, 0.000000020287489, 10.001063, 9.998797 
1.08509116e+3, 2.748856e+2, -239720.33, -379708.4, 33151.113, 0.06719046, -0.021116143, -232266.56, 13854.625, 0.0000009682407, 10.000586, 9.998755 
1.08509146e+3, 2.848844e+2, -183927.64, -340064.63, 1235.089, 0.025017908, 0.0107595, -183917.88, -35786.574, 0.000016002106, 10.000461, 9.998414 
1.0850909e+3, 2.9488316e+2, -66649.19, -228965.52, -15919.27, -0.023811692, -0.0030856123, -65102.63, -14958.933, 0.00010691048, 10.000564, 9.998453 
1.0850907e+3, 3.0488095e+2, 29508.313, -144187.86, 3062.3308, -0.04378091, -0.06465228, 29562.285, 29562.285, 0.00034615427, 10.000888, 9.998546 
1.0850905e+3, 3.1488034e+2, 147261.61, 13939.015, -8978.993, -0.02908286, -0.01883598, 147863.61, 147863.61, 0.00073994894, 10.001157, 9.99951 
1.0950826e+3, 1.24901935e+2, -1452242.1, -1647758.4, 2821.7385, 0.077699594, 0.19348809, -1452201.4, 263772.56, 0.000734217, 10.001953, 9.999513 
1.0950824e+3, 1.3490133e+2, -1593058.5, -1687796.8, -49670.477, 0.21095029, 0.16543508, -1571791.0, 46187.17, 0.00033773432, 10.000482, 9.999273 
1.0950807e+3, 1.4489995e+2, -1577538.8, -1616516.9, 45255.31, 0.009703594, 0.11156013, -1547754.4, -27764.352, 0.0000845864, 9.999877, 9.999337 
1.0950826e+3, 1.54899e+2, -1342316.4, -1454039.6, 46245.992, 0.046247836, 0.036783066, -1325657.5, 96340.46, 0.0000043925156, 10.000837, 9.999319 
1.0950839e+3, 1.6489871e+2, -1202555.5, -1329370.4, -31770.29, 0.060111035, 0.07948751, -1195041.5, 128958.19, 0.0000000006358386, 10.00106, 9.999414 
1.0950845e+3, 1.7489858e+2, -1193241.1, -1277917.1, -11865.633, 0.07534032, 0.08580491, -1191609.8, 34390.508, 0.0, 10.0004635, 9.999385 
1.095085e+3, 1.848978e+2, -1077446.6, -1155690.6, 16236.403, 0.031609286, 0.073772825, -1074211.1, 53793.63, 0.0, 10.000521, 9.999523 
1.09508544e+3, 1.9489604e+2, -866897.56, -1000449.2, 53117.633, -0.06581755, -0.092856266, -848347.56, 181668.97, 0.0, 10.001293, 9.999537 
1.09508656e+3, 2.0489499e+2, -838315.8, -1102671.8, -6968.3394, -0.03997796, -0.07058951, -838132.25, 93894.59, 0.0, 10.001541, 9.998037 
1.0950885e+3, 2.1489428e+2, -791163.06, -1035024.6, -1044.5216, 0.11552039, 0.02030579, -791158.6, 42880.84, 0.0, 10.001218, 9.99799 
1.0950891e+3, 2.2489323e+2, -678005.56, -854947.3, -26210.334, 0.14186616, 0.091533706, -674204.7, 61846.785, 0.0, 10.000991, 9.998669 
1.0950883e+3, 2.3489138e+2, -594732.0, -763911.4, -5809.404, 0.03159612, 0.001788813, -594532.7, 43534.37, 0.0, 10.000882, 9.998673 
1.0950883e+3, 2.4489008e+2, -506152.94, -696174.25, 12982.9795, -0.034808975, 0.022651445, -505270.0, 34809.004, 0.0, 10.000932, 9.998444 
1.0950891e+3, 2.5488895e+2, -396087.16, -593127.8, 58977.35, -0.048897687, 0.026636135, -379783.34, 62307.215, 0.0, 10.00102, 9.998435 
1.0950902e+3, 2.6488757e+2, -330691.1, -519916.06, 38055.4, -0.0341054, 0.062110405, -323324.5, 20779.563, 0.00000010014453, 10.000846, 9.998333 
1.0950914e+3, 2.7488545e+2, -293524.44, -457449.47, 40605.54, 0.004603011, -0.024762174, -284017.47, -37892.53, 0.0000018117424, 10.000435, 9.998297 
1.0950919e+3, 2.8488424e+2, -198497.22, -336989.28, -12121.182, -0.0024867475, 0.025983319, -197444.34, -49308.105, 0.000017402066, 10.00032, 9.998499 
1.0950919e+3, 2.9488382e+2, -85923.16, -231972.92, 11630.757, -0.034743022, 0.078132965, -85002.734, -34863.055, 0.00010435712, 10.000402, 9.998509 
1.0950919e+3, 3.0488172e+2, 46874.418, -68877.48, -3299.5237, -0.03994186, -0.00224873, 46968.395, 46968.395, 0.00033796718, 10.000733, 9.999131 
1.0950914e+3, 3.1488043e+2, 137199.88, 53694.777, 54409.895, -0.11937942, -0.0830131, 164030.95, 164030.95, 0.00073108607, 10.0008955, 9.99991 
1.1050847e+3, 1.24901794e+2, -1613313.6, -1692297.9, 147171.95, 0.16925426, 0.19799574, -1500427.3, 215548.08, 0.00083503575, 10.000742, 9.999744 
1.10508375e+3, 1.3490109e+2, -1364122.3, -1553160.5, -53924.758, 0.226641, 0.13328123, -1349821.6, 268158.2, 0.0003918232, 10.001965, 9.999459 
1.10508285e+3, 1.4489992e+2, -1285023.6, -1511411.3, 87423.03, 0.15553714, 0.10136469, -1255194.4, 264796.06, 0.000102570426, 10.002003, 9.999056 
1.1050841e+3, 1.5489952e+2, -1317244.3, -1476437.4, 71810.97, 0.10688303, 0.110742874, -1289638.1, 132356.78, 0.0000061708192, 10.001123, 9.999044 
1.10508494e+3, 1.6489905e+2, -1252767.9, -1362318.4, 37868.418, 0.086974986, 0.15231685, -1240952.3, 83046.7, 0.0000000015512864, 10.000768, 9.999316 
1.1050857e+3, 1.7489806e+2, -1093036.6, -1232925.6, 5605.2544, 0.12466437, 0.08104101, -1092812.4, 133194.4, 0.0, 10.001192, 9.999325 
1.1050862e+3, 1.8489708e+2, -987953.9, -1118683.1, 56785.15, 0.082770556, 0.052634425, -966732.8, 161280.44, 0.0, 10.00117, 9.999457 
1.1050864e+3, 1.9489567e+2, -963181.5, -1053698.6, 20174.406, -0.04729838, -0.07288142, -958888.6, 71133.91, 0.0, 10.000663, 9.999472 
1.1050878e+3, 2.0489483e+2, -953816.3, -1137281.4, 1022.8917, -0.01917291, -0.037679385, -953810.6, -21779.771, 0.0, 10.000639, 9.998247 
1.1050902e+3, 2.1489413e+2, -780227.3, -1006810.4, 8494.003, 0.17169595, 0.037070394, -779909.4, 54132.477, 0.0, 10.001172, 9.998215 
1.1050907e+3, 2.2489305e+2, -627347.56, -830576.75, 30957.28, 0.19412565, 0.093669504, -622736.56, 113317.375, 0.0, 10.001351, 9.998649 
1.1050893e+3, 2.3489115e+2, -552230.7, -742721.4, 11479.6875, 0.0397233, -0.0015443562, -551541.4, 86529.555, 0.0, 10.001189, 9.998657 
1.1050891e+3, 2.4488991e+2, -488822.8, -662584.06, 49555.125, -0.03750809, 0.0169044, -475683.7, 64398.234, 0.0, 10.000953, 9.99865 
1.1050901e+3, 2.54889e+2, -435468.56, -589189.1, 18649.055, -0.026203154, 0.023212789, -433238.47, 8851.72, 0.0, 10.000646, 9.998632 
1.1050912e+3, 2.648877e+2, -373987.13, -581632.56, 27173.59, -0.0032624737, 0.06821997, -370489.94, -26385.871, 0.00000018749917, 10.000718, 9.997983 
1.10509254e+3, 2.7488548e+2, -219534.61, -457838.25, -3227.1204, 0.036699526, 0.011358356, -219490.9, 26637.172, 0.0000025365616, 10.001109, 9.9979725 
1.1050928e+3, 2.8488415e+2, -71337.984, -252112.63, -11631.453, 0.02062272, 0.056590106, -70592.664, 77547.88, 0.000019295574, 10.001086, 9.998728 
1.1050924e+3, 2.9488358e+2, -55764.95, -196661.98, -21518.87, -0.022592993, 0.07685195, -52551.703, -2408.551, 0.00010487227, 10.000514, 9.998712 
1.1050928e+3, 3.048815e+2, 9055.179, -107185.52, 5040.2, -0.0054082866, -0.0042706225, 9273.3125, 9273.3125, 0.00033641586, 10.0005045, 9.998985 
1.1050933e+3, 3.148803e+2, 73856.15, 13451.842, -51232.1, 0.015031217, -0.07386965, 103125.83, 103125.83, 0.0007307893, 10.000494, 9.999811 
1.1150853e+3, 1.2490141e+2, -1635102.0, -1746196.3, 132359.98, 0.06996966, 0.05792838, -1547105.9, 168864.5, 0.000944546, 10.000781, 9.999362 
1.1150851e+3, 1.349004e+2, -1397742.8, -1624960.6, 5952.786, 0.13061972, 0.016513152, -1397586.9, 220394.5, 0.00045159098, 10.001964, 9.998976 
1.11508615e+3, 1.4490011e+2, -1275320.0, -1488141.5, 27304.03, 0.22649117, 0.08952707, -1271872.9, 248112.83, 0.00012308804, 10.001995, 9.999217 
1.1150851e+3, 1.5490076e+2, -1311427.0, -1460040.0, 53570.664, 0.049645443, 0.189556, -1294129.6, 127851.695, 0.000008505592, 10.00111, 9.999164 
1.1150852e+3, 1.6489984e+2, -1274614.0, -1402650.0, 29729.938, -0.0074224276, 0.19522642, -1268047.4, 55942.8, 0.0000000033697685, 10.000735, 9.999065 
1.1150873e+3, 1.7489724e+2, -1113364.4, -1268979.4, 39278.96, 0.12392318, -0.01047128, -1104012.0, 122001.21, 0.0, 10.00115, 9.99911 
1.115088e+3, 1.8489622e+2, -1036800.8, -1200619.6, 18718.184, 0.11301677, -0.007193044, -1034689.25, 93333.125, 0.0, 10.001085, 9.998937 
1.1150873e+3, 1.9489634e+2, -1023991.75, -1144751.4, 17682.611, -0.064902484, 0.074851304, -1021455.8, 8566.282, 0.0, 10.000518, 9.998915 
1.1150884e+3, 2.048958e+2, -927645.06, -1043372.94, -2545.7285, -0.05561195, 0.13562477, -927589.1, 4437.851, 0.0, 10.000469, 9.998969 
1.1150913e+3, 2.1489409e+2, -765056.9, -917537.94, 46368.57, 0.14564615, 0.02760081, -752063.6, 81978.195, 0.0, 10.000926, 9.998943 
1.1150919e+3, 2.2489287e+2, -663108.75, -851289.6, 6961.8765, 0.15263508, 0.035660826, -662851.56, 73201.74, 0.0, 10.001123, 9.998618 
1.1150901e+3, 2.3489182e+2, -593063.44, -766903.75, 23693.943, -0.031049026, 0.031690385, -589891.9, 48172.473, 0.0, 10.000931, 9.998617 
1.1150899e+3, 2.448906e+2, -542222.8, -719393.5, 22047.21, -0.089909576, 0.06728749, -539520.5, 556.21484, 0.0, 10.000717, 9.998374 
1.1150912e+3, 2.548888e+2, -483989.0, -646169.06, 28192.504, -0.013500841, 0.0089091845, -479227.94, -37133.55, 0.0, 10.000453, 9.998335 
1.1150924e+3, 2.6488724e+2, -417024.03, -633207.75, 24330.074, 0.013961151, 0.060797747, -414319.66, -70208.21, 0.00000020790911, 10.000552, 9.997707 
1.1150935e+3, 2.7488554e+2, -258665.84, -505400.4, 36452.566, -0.0031681492, 0.07713055, -253393.03, -7261.064, 0.0000030041283, 10.000953, 9.997724 
1.1150934e+3, 2.8488412e+2, -78436.06, -216877.52, -48597.824, -0.05703966, 0.10961119, -63079.855, 85064.234, 0.000021785861, 10.000885, 9.999061 
1.1150919e+3, 2.9488257e+2, -60504.742, -160628.78, -10507.528, -0.16225088, -0.00068016996, -59413.91, -9261.344, 0.00010887074, 10.000322, 9.999049 
1.1150928e+3, 3.0488038e+2, -73106.54, -240624.72, -3139.5215, -0.09358112, -0.06890706, -73047.72, -73047.72, 0.00034133886, 10.000352, 9.99814 
1.11509494e+3, 3.1487966e+2, -25409.1, -139874.2, 21864.72, 0.04954905, -0.0035167793, -21374.768, -21374.768, 0.0007375019, 10.000261, 9.998874 
1.12508714e+3, 1.249003e+2, -1694362.6, -1769002.5, 55084.73, 0.21698838, -0.011661628, -1665146.0, 50831.79, 0.0010643419, 10.000343, 9.999435 
1.125086e+3, 1.3489963e+2, -1495122.6, -1656566.4, -38303.895, 0.0865364, -0.029117169, -1486495.6, 131490.66, 0.00051804923, 10.001238, 9.999114 
1.1250885e+3, 1.4489971e+2, -1364838.6, -1536713.4, -4392.888, 0.29643402, 0.07534402, -1364726.4, 155261.58, 0.00014661087, 10.001401, 9.9991665 
1.1250862e+3, 1.549e+2, -1310900.1, -1462332.4, -38967.145, 0.058202658, 0.1396866, -1301461.3, 120526.68, 0.00001150662, 10.001129, 9.999129 
1.12508595e+3, 1.6489924e+2, -1240544.8, -1363749.8, 20475.172, -0.0030492784, 0.15462199, -1237231.3, 86764.32, 0.0000000061074554, 10.000879, 9.99926 
1.1250885e+3, 1.748973e+2, -1151913.0, -1263257.6, 24022.295, 0.16059327, -0.0072069233, -1146951.4, 79060.96, 0.0, 10.000791, 9.999318 
1.1250896e+3, 1.8489665e+2, -1086034.8, -1236130.3, 57298.117, 0.18578352, 0.029191278, -1066661.9, 61356.586, 0.0, 10.000805, 9.998829 
1.1250891e+3, 1.9489682e+2, -965119.56, -1136814.8, 51122.67, 0.047133207, 0.1275498, -951050.5, 78968.99, 0.0, 10.00098, 9.998763 
1.1250898e+3, 2.0489612e+2, -841273.0, -962552.0, 82987.57, 0.028315036, 0.16489282, -799130.75, 132894.55, 0.0, 10.000919, 9.999296 
1.12509206e+3, 2.1489412e+2, -765014.7, -874907.2, 58624.445, 0.13697627, -0.004331669, -739612.2, 94427.94, 0.0, 10.000767, 9.999303 
1.1250924e+3, 2.248929e+2, -753399.6, -917822.6, 21658.072, 0.13254853, -0.00564124, -750594.6, -14543.121, 0.0, 10.000581, 9.998438 
1.1250912e+3, 2.3489222e+2, -671315.75, -825480.1, -9585.478, 0.016179472, 0.047378357, -670722.0, -32660.3, 0.0, 10.000459, 9.998451 
1.1250913e+3, 2.448911e+2, -549362.8, -720812.5, 43056.89, -0.008274362, 0.10319593, -539157.25, 916.8957, 0.0, 10.000673, 9.998384 
1.1250928e+3, 2.5488925e+2, -366966.28, -585308.6, 34389.465, 0.06596043, 0.040780462, -361677.94, 80414.16, 0.0, 10.001265, 9.998361 
1.125094e+3, 2.6488772e+2, -263792.6, -547561.75, 92772.12, 0.07219959, 0.0906057, -236154.63, 107953.83, 0.00000016860811, 10.001563, 9.997804 
1.1250948e+3, 2.748861e+2, -165686.36, -448273.0, 87641.05, 0.01210685, 0.10791427, -140712.56, 105414.87, 0.0000038179373, 10.001552, 9.997816 
1.12509474e+3, 2.848846e+2, -22674.18, -212787.63, 9644.394, -0.025001507, 0.13327657, -22186.174, 125954.66, 0.000026510976, 10.001348, 9.998864 
1.1250936e+3, 2.948828e+2, -13205.238, -151373.9, -37293.047, -0.035428133, 0.011637581, -3782.1423, 46370.44, 0.00011807009, 10.000711, 9.998913 
1.1250942e+3, 3.0488068e+2, 1962.912, -184708.81, 67414.72, 0.01040894, -0.049772337, 23763.178, 23763.178, 0.0003550206, 10.000809, 9.998303 
1.1250957e+3, 3.148805e+2, 139975.42, -46509.953, 99846.39, 0.06392138, 0.058459956, 183347.17, 183347.17, 0.0007557848, 10.001337, 9.999009 
1.13508694e+3, 1.24897964e+2, -1657411.4, -1692989.1, -65449.86, 0.06267725, -0.06598118, -1607376.0, 108626.266, 0.0011953667, 10.000362, 9.999941 
1.13508604e+3, 1.3489884e+2, -1439597.6, -1533340.5, 8693.058, -0.08152904, -0.011993094, -1438798.4, 179195.61, 0.00059164723, 10.001216, 9.999966 
1.13508925e+3, 1.4489898e+2, -1377963.6, -1562309.5, -34766.313, 0.17987534, 0.06420013, -1371624.9, 148369.2, 0.00017336896, 10.001392, 9.998998 
1.135087e+3, 1.5489757e+2, -1323527.9, -1487101.1, -27173.148, -0.016357753, -0.02136231, -1319132.0, 102879.11, 0.000015247707, 10.00112, 9.998967 
1.13508664e+3, 1.648975e+2, -1203389.4, -1281518.1, -4175.296, -0.06664862, 0.038745005, -1203166.9, 120845.734, 0.000000009421829, 10.000857, 9.999833 
1.1350889e+3, 1.7489833e+2, -1116116.0, -1184681.0, 35855.195, 0.08321801, 0.09844024, -1100791.1, 125211.695, 0.0, 10.000773, 9.999864 
1.13509044e+3, 1.8489836e+2, -1073391.8, -1193560.3, 41855.203, 0.15454215, 0.1587596, -1060250.5, 67751.445, 0.0, 10.00073, 9.999161 
1.1350913e+3, 1.9489717e+2, -965878.1, -1095832.4, 75208.55, 0.13605517, 0.08641441, -931465.3, 98548.766, 0.0, 10.000796, 9.999134 
1.1350917e+3, 2.0489591e+2, -881375.06, -1002913.9, 55943.016, 0.08419167, 0.057350636, -859545.8, 72478.65, 0.0, 10.000732, 9.999111 
1.1350918e+3, 2.1489424e+2, -814074.6, -919619.75, 67190.49, 0.013363794, -0.058771018, -781410.0, 52626.516, 0.0, 10.000524, 9.999114 
1.1350919e+3, 2.2489317e+2, -807150.7, -979218.9, -4874.7803, -0.005419044, -0.018575812, -807012.7, -70964.625, 0.0, 10.000358, 9.998124 
1.135092e+3, 2.3489231e+2, -730805.44, -892458.4, 4082.403, 0.028030565, 0.043843433, -730702.44, -92639.17, 0.0, 10.000211, 9.998114 
1.13509275e+3, 2.4489148e+2, -562644.6, -697963.44, 46920.055, 0.04510059, 0.13112192, -547967.6, -7893.4272, 0.0, 10.000456, 9.998645 
1.1350944e+3, 2.5489035e+2, -375052.94, -556515.94, 75481.97, 0.06693419, 0.11629396, -347760.13, 94323.47, 0.0, 10.001063, 9.998657 
1.13509536e+3, 2.6488912e+2, -259628.6, -497785.4, 76737.8, 0.029916868, 0.15651011, -237044.17, 107051.14, 0.00000020663475, 10.001384, 9.998237 
1.13509595e+3, 2.7488717e+2, -163408.22, -406720.5, 112532.2, -0.07359684, 0.09827864, -119342.56, 126772.72, 0.0000055002247, 10.001386, 9.998188 
1.1350962e+3, 2.8488544e+2, -98030.484, -324412.6, -32975.223, -0.042296838, 0.11843248, -93325.06, 54807.13, 0.000033703815, 10.001167, 9.9981785 
1.1350967e+3, 2.9488385e+2, -87037.81, -263252.13, -36880.52, 0.15915151, 0.089814976, -79630.34, -29483.238, 0.00013271971, 10.000531, 9.998233 
1.13509655e+3, 3.0488208e+2, 52768.938, -31859.734, 73182.58, 0.1326515, 0.038977116, 94989.76, 94989.76, 0.00037893685, 10.000615, 9.999445 
1.1350944e+3, 3.1488255e+2, 181108.77, 109882.45, 171872.95, -0.28867048, 0.094193615, 321019.44, 321019.44, 0.00079122034, 10.001037, 10.000229 
1.145089e+3, 1.2489822e+2, -1545861.0, -1625093.3, -12278.834, 0.22828425, 0.007215112, -1544001.8, 172001.14, 0.0013373722, 10.001045, 10.000089 
1.1450872e+3, 1.3489911e+2, -1526430.3, -1541102.1, 56210.92, -0.03522112, 0.029375112, -1477078.6, 140913.78, 0.000672049, 10.0004425, 10.000297 
1.1450897e+3, 1.4489917e+2, -1501982.0, -1573810.0, 63199.9, 0.14970775, 0.056983385, -1465204.6, 54787.113, 0.0002032588, 10.000359, 9.999407 
1.1450885e+3, 1.5489784e+2, -1305440.1, -1432906.0, 59761.37, 0.032223437, -0.054790374, -1281804.3, 140201.73, 0.000019742625, 10.001069, 9.999359 
1.1450884e+3, 1.6489778e+2, -1180085.0, -1310924.8, 94380.58, 0.0052422644, 0.006714317, -1130668.3, 193338.98, 0.000000013934886, 10.00119, 9.999476 
1.1450899e+3, 1.7489861e+2, -1135486.8, -1229368.9, 32848.06, 0.10733654, 0.10023453, -1125135.1, 100863.766, 0.0, 10.0008, 9.999542 
1.1450912e+3, 1.8489844e+2, -1086278.5, -1196062.9, 45962.973, 0.17507045, 0.15532862, -1069576.4, 58424.246, 0.0, 10.00063, 9.999186 
1.1450924e+3, 1.9489686e+2, -978790.44, -1088161.8, 13151.1875, 0.18712546, 0.040164236, -977231.3, 52784.938, 0.0, 10.000679, 9.999225 
1.1450928e+3, 2.0489569e+2, -871489.75, -1009662.2, 23707.736, 0.12909183, 0.01742817, -867535.1, 64491.29, 0.0, 10.000814, 9.999041 
1.1450924e+3, 2.1489453e+2, -736230.5, -889102.94, 14019.316, 0.011378677, -0.04321852, -734955.5, 99079.15, 0.0, 10.001053, 9.999082 
1.1450928e+3, 2.2489375e+2, -656258.0, -896258.44, 6034.514, -0.0018067607, 0.024705663, -656106.4, 79937.44, 0.0, 10.001377, 9.998188 
1.1450935e+3, 2.3489298e+2, -483732.5, -757973.25, 539.28796, 0.08637946, 0.08759597, -483731.44, 154326.52, 0.0, 10.001864, 9.998228 
1.1450943e+3, 2.44892e+2, -366492.1, -616305.56, 76031.914, 0.103806324, 0.15816392, -345171.1, 194899.03, 0.0, 10.00184, 9.998547 
1.1450953e+3, 2.5489056e+2, -341445.3, -543180.3, 41971.242, 0.06259359, 0.11776695, -333061.53, 109020.92, 0.0, 10.001311, 9.998624 
1.14509635e+3, 2.6488933e+2, -296275.8, -461562.3, 63173.25, 0.024092538, 0.13742681, -274896.16, 69196.59, 0.00000038376965, 10.000884, 9.998731 
1.1450974e+3, 2.748879e+2, -251139.27, -387144.97, 67373.0, -0.008509171, 0.07361716, -223415.89, 22690.033, 0.0000075917305, 10.000513, 9.998743 
1.1450979e+3, 2.848864e+2, -158174.52, -386060.6, 5045.4375, 0.03481356, 0.104532175, -158062.86, -9942.276, 0.000041535674, 10.000892, 9.997894 
1.1450983e+3, 2.9488483e+2, 97503.72, -204063.52, -12137.678, 0.20283142, 0.11019081, 97991.45, 148129.22, 0.00014998692, 10.001936, 9.997961 
1.1450979e+3, 3.048829e+2, 234984.88, 51994.965, 84956.62, 0.1640944, 0.05998167, 268345.66, 268345.66, 0.00040888134, 10.001845, 9.999441 
1.1450953e+3, 3.1488326e+2, 39995.836, 54964.594, 25459.193, -0.22055598, 0.10031055, 74016.73, 74016.73, 0.0008408799, 10.000014, 10.000334 
1.1550909e+3, 1.24900535e+2, -1539878.8, -1608607.5, -128381.445, 0.23541887, 0.14799538, -1441342.0, 274642.44, 0.001489488, 10.001029, 10.000206 
1.155089e+3, 1.3490066e+2, -1532756.9, -1551129.9, 49439.3, 0.062615, 0.100290164, -1491657.9, 126321.67, 0.00075867696, 10.000437, 10.000219 
1.1550894e+3, 1.4490019e+2, -1447231.8, -1469318.5, 65906.14, 0.023774184, 0.042816263, -1391450.1, 128531.08, 0.0002361324, 10.000376, 10.000131 
1.1550901e+3, 1.5490057e+2, -1244690.8, -1316479.0, 101296.04, 0.041617453, 0.023277503, -1173117.3, 248857.89, 0.000024990082, 10.001093, 10.000156 
1.1550903e+3, 1.6489999e+2, -1260800.6, -1470315.8, 58205.523, 0.043069303, 0.047013327, -1245716.5, 78263.78, 0.000000023716384, 10.001166, 9.998387 
1.15509085e+3, 1.7489822e+2, -1225538.9, -1397987.5, 36913.74, 0.08683131, -0.007093444, -1217969.5, 8029.8633, 0.0, 10.000732, 9.998409 
1.15509145e+3, 1.8489704e+2, -1127247.1, -1262869.0, 27005.676, 0.09477121, 0.024860632, -1122067.5, 5945.3906, 0.0, 10.000551, 9.998764 
1.15509205e+3, 1.9489597e+2, -1026409.0, -1156774.4, 28733.146, 0.046914298, -0.0034540265, -1020357.0, 9668.518, 0.0, 10.000545, 9.998818 
1.15509264e+3, 2.0489545e+2, -879473.94, -985165.0, 7422.738, 0.005910005, 0.047426336, -878955.2, 53075.914, 0.0, 10.000635, 9.999295 
1.1550935e+3, 2.148951e+2, -755223.9, -872479.6, 40413.434, -0.01714373, 0.042792723, -742644.5, 91388.98, 0.0, 10.000804, 9.999317 
1.15509436e+3, 2.2489476e+2, -667542.2, -861691.6, 5404.666, -0.0021854774, 0.124061614, -667391.9, 68645.86, 0.0, 10.001127, 9.998545 
1.1550953e+3, 2.3489413e+2, -494493.16, -726384.06, 36419.844, 0.052123155, 0.16590095, -488907.75, 149139.28, 0.0, 10.001634, 9.998558 
1.15509585e+3, 2.448926e+2, -424149.38, -682612.75, 33360.516, 0.02742388, 0.18512098, -419912.9, 120149.91, 0.0, 10.001607, 9.998202 
1.1550955e+3, 2.5488982e+2, -398827.5, -615692.2, 39149.223, -0.0902328, 0.043796517, -391976.56, 50112.258, 0.0, 10.0011, 9.99823 
1.15509644e+3, 2.6488838e+2, -283331.2, -387815.75, 32899.93, -0.08834937, 0.029464822, -273834.8, 70266.22, 0.0000005356376, 10.000687, 9.999329 
1.15509875e+3, 2.7488798e+2, -228725.98, -300725.9, 75667.27, 0.036422905, 0.0100721335, -180931.34, 65170.594, 0.000008957139, 10.000339, 9.999421 
1.1550993e+3, 2.8488737e+2, -171346.14, -370797.25, 26360.824, 0.04292911, 0.081144735, -167920.94, -19813.867, 0.000047577858, 10.0007105, 9.998084 
1.1550978e+3, 2.9488587e+2, 84009.484, -203304.86, 57353.67, -0.08398369, 0.07649206, 95035.3, 145158.42, 0.00016516355, 10.001795, 9.998042 
1.1550978e+3, 3.048832e+2, 110727.695, -146838.63, 6281.1616, -0.06052909, 0.014648732, 110880.78, 110880.78, 0.00043860512, 10.001615, 9.99817 
1.1550974e+3, 3.148822e+2, -84924.86, -139283.02, 16893.799, -0.091530874, 0.044423718, -80102.336, -80102.336, 0.0008954558, 9.99974, 9.999124 
1.1650911e+3, 1.2490172e+2, -1588366.3, -1647701.0, -64203.074, 0.1772645, 0.14938587, -1547307.5, 168664.19, 0.0016512593, 10.000762, 10.000058 
1.1650906e+3, 1.3490124e+2, -1597142.0, -1638000.5, -7756.8965, 0.20619135, 0.09469124, -1595719.0, 22254.727, 0.0008513687, 10.000247, 9.999714 
1.1650896e+3, 1.4490041e+2, -1495574.4, -1491439.4, 56399.305, 0.036161847, 0.027874736, -1437069.8, 82909.625, 0.00027198074, 10.00006, 10.0001135 
1.1650912e+3, 1.5490131e+2, -1334089.8, -1361771.0, -8181.3784, 0.08546538, 0.059947852, -1331852.5, 90115.46, 0.00003101119, 10.000497, 10.000122 
1.1650918e+3, 1.6490068e+2, -1283433.5, -1468399.4, -22837.904, 0.0970192, 0.072972886, -1280655.4, 43317.445, 0.00000004774233, 10.000943, 9.998514 
1.16509214e+3, 1.7489824e+2, -1115071.9, -1337054.8, 7012.4746, 0.12031605, -0.058069997, -1114850.5, 111146.44, 0.0, 10.001427, 9.998513 
1.1650925e+3, 1.8489683e+2, -1011773.44, -1235432.3, 84394.45, 0.11773062, -0.041153725, -983502.06, 144510.55, 0.0, 10.001454, 9.998518 
1.1650929e+3, 1.9489612e+2, -957094.7, -1150351.5, 64217.61, 0.05734391, -0.008165659, -937701.75, 92321.26, 0.0, 10.001131, 9.998584 
1.1650935e+3, 2.0489581e+2, -855547.1, -971556.9, 80915.695, 0.028255321, 0.077205874, -813993.4, 118034.305, 0.0, 10.000827, 9.999277 
1.16509475e+3, 2.1489555e+2, -792169.0, -884394.5, 44612.566, 0.039255053, 0.07962807, -774120.5, 59909.78, 0.0, 10.000566, 9.999331 
1.16509594e+3, 2.24895e+2, -713828.06, -892183.75, 51003.266, 0.058378335, 0.14176342, -700273.1, 35762.918, 0.0, 10.000821, 9.998497 
1.1650973e+3, 2.3489377e+2, -504135.03, -736846.25, 23506.645, 0.093597755, 0.12954164, -501784.3, 136264.83, 0.0, 10.001572, 9.998529 
1.16509765e+3, 2.4489212e+2, -418084.72, -687376.5, 11696.451, 0.05667301, 0.13894786, -417577.63, 122488.2, 0.0, 10.001677, 9.998134 
1.1650968e+3, 2.5488967e+2, -396514.53, -622938.5, -1409.1794, -0.062311005, 0.0379786, -396505.78, 45584.113, 0.0, 10.001142, 9.998161 
1.16509765e+3, 2.648883e+2, -254676.13, -384500.5, 26932.195, -0.04027984, 0.037781794, -249310.75, 94791.75, 0.00000056359414, 10.00094, 9.999223 
1.1651003e+3, 2.7488774e+2, -140331.98, -270267.94, -27101.184, 0.138144, 0.01782765, -134905.97, 111199.62, 0.00000928475, 10.001019, 9.999299 
1.16510056e+3, 2.8488725e+2, -110520.43, -288677.66, -41022.78, 0.114558056, 0.08615602, -101528.32, 46580.58, 0.000050789153, 10.000875, 9.998574 
1.16509855e+3, 2.9488638e+2, -89709.19, -226376.08, -33572.492, -0.11235761, 0.09131627, -81907.414, -31789.889, 0.00017624088, 10.000346, 9.998573 
1.1650986e+3, 3.048837e+2, -65032.992, -273179.8, -18273.395, -0.06563397, 0.015069332, -63440.93, -63440.93, 0.00046429865, 10.000564, 9.997823 
1.1650995e+3, 3.148818e+2, 82995.664, -75031.19, -1740.9249, 0.09147385, -0.00214754, 83014.836, 83014.836, 0.0009436127, 10.000953, 9.999 
1.1750912e+3, 1.2490212e+2, -1636370.0, -1715706.1, -19041.242, 0.025047049, 0.03665081, -1632036.6, 83924.555, 0.0018234614, 10.000662, 9.999632 
1.1750918e+3, 1.3490093e+2, -1659001.9, -1770790.4, -13372.738, 0.26442006, 0.007801598, -1657424.4, -39450.38, 0.0009506097, 10.000279, 9.998786 
1.1750897e+3, 1.4489996e+2, -1548769.8, -1599588.9, 53069.633, 0.0054342113, 0.010607826, -1515340.3, 4644.1904, 0.00031097958, 10.0000515, 9.9993725 
1.17509134e+3, 1.5490025e+2, -1390879.9, -1478756.9, 28468.521, 0.0102936905, 0.057708975, -1382463.4, 39519.266, 0.00003785508, 10.000488, 9.999323 
1.1750923e+3, 1.6489986e+2, -1204552.4, -1296780.4, -25669.246, 0.009098531, 0.0769551, -1197889.4, 126095.25, 0.00000010132158, 10.000908, 9.999706 
1.17509335e+3, 1.7489858e+2, -1036111.6, -1156436.4, 43156.906, 0.063810594, -0.06761928, -1022233.3, 203759.23, 0.0, 10.001355, 9.999785 
1.1750941e+3, 1.848979e+2, -1025061.1, -1240361.9, 51039.64, 0.088834524, -0.04332548, -1013574.44, 114424.5, 0.0, 10.001358, 9.998531 
1.1750945e+3, 1.9489741e+2, -977232.5, -1163403.8, 72787.38, 0.068214566, 0.014856234, -952153.25, 77854.79, 0.0, 10.001001, 9.998561 
1.17509484e+3, 2.0489687e+2, -910223.7, -1044437.5, 50054.34, 0.04146454, 0.09720031, -893612.2, 38403.477, 0.0, 10.000655, 9.9988575 
1.17509544e+3, 2.1489589e+2, -851218.44, -962249.25, 51488.34, 0.029215898, 0.068923295, -831017.2, 3008.0798, 0.0, 10.000364, 9.998898 
1.1750967e+3, 2.2489437e+2, -772050.0, -951221.8, 57944.508, 0.032632146, 0.071704395, -754943.8, -18903.582, 0.0, 10.000563, 9.998214 
1.17509864e+3, 2.3489204e+2, -563169.25, -791096.06, 71124.96, 0.049476072, -0.023294708, -542795.7, 95267.78, 0.0, 10.001291, 9.998285 
1.1750994e+3, 2.4489069e+2, -446064.88, -688558.1, -25663.475, 0.03555399, 0.022136634, -443378.63, 96699.4, 0.0, 10.001423, 9.998255 
1.1750988e+3, 2.5489002e+2, -409346.2, -606406.5, -3201.5107, -0.008913707, 0.08294211, -409294.2, 32792.535, 0.0, 10.000952, 9.998366 
1.1750996e+3, 2.6488897e+2, -342957.22, -526819.1, 10231.269, 0.035271827, 0.15096244, -342389.63, 1708.6941, 0.0000005132723, 10.000759, 9.998339 
1.1751017e+3, 2.7488706e+2, -225070.42, -413836.25, -675.19464, 0.1383795, 0.08186033, -225068.02, 21049.654, 0.000009286575, 10.000874, 9.998386 
1.1751017e+3, 2.8488615e+2, -90083.57, -202083.83, -75773.984, 0.099204026, 0.120735236, -51862.09, 96263.63, 0.000051726838, 10.000691, 9.999257 
1.17509976e+3, 2.9488605e+2, -48622.926, -113488.91, -28249.318, -0.0730211, 0.12726794, -38045.188, 12079.331, 0.00018255804, 10.000217, 9.999414 
1.1751001e+3, 3.04884e+2, -48560.215, -185444.98, -14355.608, -0.011037043, 0.029823722, -47070.895, -47070.895, 0.00048000744, 10.000359, 9.998515 
1.1751004e+3, 3.148821e+2, 111847.65, 64510.44, 59710.688, 0.027124247, -0.050469812, 152409.64, 152409.64, 0.0009690781, 10.000633, 10.000102 
1.1850912e+3, 1.2490166e+2, -1707838.9, -1791802.9, 35866.457, 0.00157306, -0.03753413, -1694604.1, 21356.299, 0.0020081834, 10.000314, 9.999292 
1.1850926e+3, 1.3490067e+2, -1505420.6, -1733380.3, -61134.742, 0.27957913, -0.021743298, -1490060.4, 127914.25, 0.0010574218, 10.001468, 9.998484 
1.1850913e+3, 1.4490008e+2, -1373558.0, -1543728.6, 68647.414, 0.095334716, 0.045219127, -1349318.3, 170665.2, 0.00035351914, 10.001351, 9.999144 
1.18509226e+3, 1.548995e+2, -1442357.6, -1523177.9, 41707.574, 0.085724056, 0.025256364, -1424694.5, -2704.0088, 0.00004562391, 10.000218, 9.999156 
1.18509315e+3, 1.6489919e+2, -1335479.0, -1327778.5, 53949.473, 0.06093448, 0.049401853, -1277542.1, 46449.926, 0.00000019883093, 9.999883, 9.999986 
1.1850941e+3, 1.7489888e+2, -1139017.9, -1168549.0, 12117.096, 0.054052997, -0.030293703, -1134682.5, 91308.29, 0.0, 10.000496, 10.000107 
1.18509494e+3, 1.8489857e+2, -1088935.1, -1242636.9, 1333.1938, 0.080930464, 0.0025092503, -1088923.5, 39069.496, 0.0, 10.000794, 9.998791 
1.1850958e+3, 1.948979e+2, -992310.75, -1138202.8, -349.08624, 0.12670223, 0.015375486, -992309.94, 37692.754, 0.0, 10.000758, 9.998852 
1.1850962e+3, 2.0489717e+2, -856410.4, -1036827.56, 53553.293, 0.10581532, 0.07320171, -841711.6, 90299.625, 0.0, 10.001084, 9.998724 
1.1850964e+3, 2.1489602e+2, -649815.4, -873348.5, 46489.555, 0.035560198, 0.044117987, -640532.2, 193490.03, 0.0, 10.001787, 9.998827 
1.1850978e+3, 2.248945e+2, -592101.8, -850183.6, 105632.94, 0.032205027, 0.040903196, -554379.8, 181657.33, 0.0, 10.0017395, 9.998336 
1.1851001e+3, 2.3489213e+2, -618112.44, -805094.6, 104458.52, 0.09015856, -0.06956465, -571417.3, 66642.8, 0.0, 10.000856, 9.998397 
1.1851012e+3, 2.4489094e+2, -532533.75, -722808.4, 66090.45, 0.10898522, -0.017130723, -511830.44, 28242.686, 0.0, 10.000808, 9.998316 
1.185101e+3, 2.548906e+2, -307617.28, -560956.9, 45807.625, 0.088151045, 0.07614467, -299588.97, 142490.47, 0.0, 10.001659, 9.99835 
1.1851016e+3, 2.648895e+2, -194419.33, -464819.06, 102391.07, 0.11123439, 0.14584637, -160022.81, 184069.19, 0.0000005059796, 10.001843, 9.998229 
1.18510276e+3, 2.7488717e+2, -168791.31, -405285.4, 100554.695, 0.15232481, 0.050076235, -131817.19, 114298.25, 0.000009353779, 10.0013485, 9.998213 
1.18510254e+3, 2.8488612e+2, -58303.688, -189745.27, 61259.99, 0.11612958, 0.08480991, -34180.12, 113945.41, 0.000051580555, 10.000953, 9.9992 
1.1851012e+3, 2.9488623e+2, 4943.7676, -97498.87, 8183.0034, 0.03852615, 0.124919794, 5593.2983, 55716.445, 0.00018437536, 10.00065, 9.999308 
1.1851016e+3, 3.0488458e+2, 32663.01, -132232.14, 30361.553, 0.092511244, 0.069280654, 38075.703, 38075.703, 0.00048100852, 10.000826, 9.998668 
1.18510135e+3, 3.1488305e+2, 191959.86, 129192.17, -13947.599, 0.041512482, 0.0045502908, 194919.58, 194919.58, 0.0009626293, 10.00103, 10.00037 
1.1950913e+3, 1.24899186e+2, -1726558.3, -1831144.1, 52072.1, -0.1139853, -0.19866714, -1705053.9, 10926.697, 0.0022081332, 10.00032, 9.999009 
1.1950925e+3, 1.3490035e+2, -1470870.0, -1664231.4, -5987.934, 0.07692836, -0.01860644, -1470684.8, 147292.25, 0.0011730703, 10.001468, 9.998957 
1.1950934e+3, 1.449006e+2, -1358774.6, -1504594.9, 3144.5867, 0.11796432, 0.09715243, -1358706.9, 161270.8, 0.00040013902, 10.001322, 9.999425 
1.1950938e+3, 1.548991e+2, -1419981.1, -1482185.8, 16871.453, 0.168324, -0.040393375, -1415699.8, 6291.029, 0.00005450229, 10.0002365, 9.999431 
1.1950938e+3, 1.6489874e+2, -1374616.0, -1412251.1, 53342.21, 0.0993818, -0.01013344, -1336869.5, -12875.146, 0.00000035173326, 9.999887, 9.999411 
1.19509384e+3, 1.7489924e+2, -1189225.6, -1263942.1, 51947.77, -0.05237349, 0.051952165, -1162597.9, 63393.133, 0.0, 10.000449, 9.999481 
1.1950947e+3, 1.8489896e+2, -1070818.5, -1184136.0, -20098.818, -0.059410773, 0.0987104, -1067359.3, 60634.742, 0.0, 10.000708, 9.999232 
1.19509645e+3, 1.9489758e+2, -979493.0, -1082681.9, 15780.811, 0.08187563, -0.005592741, -977133.56, 52873.223, 0.0, 10.000629, 9.999296 
1.1950973e+3, 2.0489675e+2, -866309.94, -1010094.3, 58114.742, 0.0721298, 0.004575685, -845758.56, 86255.82, 0.0, 10.000889, 9.998997 
1.1950973e+3, 2.1489611e+2, -669903.06, -854935.25, 91115.47, -0.08578466, -0.00020380122, -632568.25, 201451.7, 0.0, 10.001531, 9.999076 
1.1950985e+3, 2.2489536e+2, -602735.06, -808403.7, 52184.49, -0.089213505, 0.041784696, -590251.94, 145774.97, 0.0, 10.001464, 9.998754 
1.1951009e+3, 2.348941e+2, -621506.3, -754408.8, 85176.48, 0.07023278, -0.0042555532, -579926.06, 58112.46, 0.0, 10.000612, 9.998857 
1.1951024e+3, 2.4489295e+2, -571355.94, -747364.25, 77255.86, 0.12742227, 0.032652784, -542256.75, -2206.1665, 0.0, 10.000567, 9.998268 
1.1951026e+3, 2.5489154e+2, -343149.9, -576300.44, 97974.52, 0.069413766, 0.024667097, -307446.47, 134620.06, 0.0, 10.001418, 9.998357 
1.195103e+3, 2.6489002e+2, -197469.97, -419149.47, 66003.31, 0.038321704, 0.02935559, -179306.28, 164775.52, 0.0000006389743, 10.001615, 9.998658 
1.1951033e+3, 2.74888e+2, -158706.45, -341023.13, 102113.68, 0.03327952, -0.08133305, -112981.46, 133118.28, 0.000009301616, 10.001168, 9.99874 
1.195103e+3, 2.8488714e+2, -140355.55, -326624.34, 33333.082, 0.030846788, -0.013086503, -134570.22, 13538.519, 0.00005191434, 10.0008, 9.998339 
1.19510226e+3, 2.9488698e+2, -81660.29, -243086.98, 23828.18, 0.038685575, 0.079062626, -78216.484, -28102.838, 0.00018470343, 10.000489, 9.99839 
1.19510256e+3, 3.048856e+2, -45849.688, -232510.17, 29558.074, 0.08174141, 0.13078116, -41280.93, -41280.93, 0.00047307427, 10.000577, 9.998087 
1.1951009e+3, 3.1488448e+2, 101950.44, 26495.55, 46175.504, -0.17212468, 0.15777221, 123851.32, 123851.32, 0.0009340255, 10.000687, 9.999816 
1.2050931e+3, 1.2489875e+2, -1805729.1, -1856613.5, 63762.813, 0.08896589, -0.11679965, -1762520.0, -46530.953, 0.0024257244, 9.999737, 9.999123 
1.2050927e+3, 1.3490008e+2, -1602236.6, -1658318.5, -18093.56, 0.01599422, 0.03078649, -1596905.8, 21076.63, 0.0012988481, 10.000296, 9.999549 
1.20509475e+3, 1.4490041e+2, -1464838.0, -1533672.1, -8028.6367, 0.16775282, 0.11034119, -1463914.0, 56067.14, 0.00045139206, 10.000483, 9.999635 
1.2050944e+3, 1.5489909e+2, -1337890.1, -1415882.1, -48062.863, 0.19891553, -0.032655127, -1314993.3, 106997.86, 0.00006471426, 10.000675, 9.999676 
1.2050942e+3, 1.6489883e+2, -1296343.8, -1391786.8, 65808.78, 0.13448112, 0.005993477, -1262774.9, 61218.844, 0.00000057087306, 10.000516, 9.999236 
1.2050946e+3, 1.7489935e+2, -1240219.3, -1302737.1, 56739.992, -0.0056018336, 0.08905394, -1206697.4, 19294.635, 0.0, 10.000184, 9.9993305 
1.2050956e+3, 1.8489899e+2, -1137643.9, -1210518.0, 29288.629, -0.010363715, 0.13156319, -1127331.8, 664.4806, 0.0, 10.000238, 9.999266 
1.2050974e+3, 1.9489731e+2, -958357.3, -1061882.4, -697.12994, 0.117884606, -0.009349549, -958352.56, 71658.03, 0.0, 10.000747, 9.999368 
1.2050984e+3, 2.0489651e+2, -868336.06, -987499.56, 58166.273, 0.11055423, -0.011285902, -844651.4, 87365.484, 0.0, 10.000741, 9.999229 
1.2050985e+3, 2.1489623e+2, -852023.0, -921787.44, 49031.0, -0.035754997, -0.0063168276, -826732.06, 7286.627, 0.0, 10.000144, 9.999298 
1.20509975e+3, 2.2489575e+2, -766439.8, -874124.4, 40887.02, -0.049894642, 0.048310965, -752674.8, -16652.213, 0.0, 10.000284, 9.998876 
1.2051019e+3, 2.3489478e+2, -520377.84, -696228.25, 14877.26, 0.08059683, 0.02193686, -519128.1, 118903.91, 0.0, 10.001263, 9.998952 
1.20510355e+3, 2.448937e+2, -431820.25, -669242.3, 31595.654, 0.14257567, 0.056912445, -427687.5, 112355.97, 0.0, 10.001493, 9.99834 
1.20510414e+3, 2.548921e+2, -414324.03, -606232.75, 16122.682, 0.10923976, 0.02296087, -412978.94, 29082.346, 0.00000000020898414, 10.0009165, 9.998382 
1.2051045e+3, 2.648907e+2, -316072.78, -471363.72, 190.06227, 0.077221796, 0.034578186, -316072.53, 28003.188, 0.00000074892756, 10.000753, 9.998721 
1.2051044e+3, 2.748892e+2, -182580.9, -347495.13, -30695.908, 0.052014485, -0.031865615, -177052.72, 69036.63, 0.000009032264, 10.000953, 9.998803 
1.205104e+3, 2.8488818e+2, -105944.07, -331897.34, -54799.42, 0.050850302, 0.028383886, -93355.195, 54744.453, 0.000052136886, 10.001129, 9.998151 
1.20510325e+3, 2.948873e+2, -801.39874, -224119.89, -63434.22, 0.072798245, 0.072892636, 15959.321, 66070.4, 0.0001849306, 10.001151, 9.9982 
1.2051036e+3, 3.0488575e+2, 13789.714, -236666.47, 24685.34, 0.121290244, 0.13191013, 16199.552, 16199.552, 0.0004665325, 10.001124, 9.997796 
1.2051019e+3, 3.1488433e+2, 49599.15, -26174.633, -16536.982, -0.11318308, 0.15731692, 53050.96, 53050.96, 0.00090609305, 10.000476, 9.999546 
1.2150931e+3, 1.2489972e+2, -1748388.1, -1726201.9, -80576.63, 0.038331486, 0.13674764, -1655958.4, 60033.68, 0.0026624324, 9.999712, 10.000021 
1.2150926e+3, 1.3490002e+2, -1560608.6, -1572496.6, 11900.061, -0.03871934, 0.12551829, -1553250.6, 64738.773, 0.0014356553, 10.000304, 10.000135 
1.21509485e+3, 1.4489958e+2, -1445004.8, -1493537.4, -24805.28, 0.08588772, 0.08379705, -1434570.1, 85422.51, 0.0005075534, 10.000494, 9.999902 
1.2150939e+3, 1.5489943e+2, -1327763.5, -1390987.0, -18899.467, 0.034347888, 0.034827825, -1322544.8, 99446.266, 0.000076397075, 10.000657, 9.999857 
1.2150939e+3, 1.6489941e+2, -1285205.5, -1363179.4, 33565.566, 0.0030628545, 0.079265304, -1272747.0, 51243.355, 0.0000008702971, 10.000497, 9.999436 
1.2150957e+3, 1.7489927e+2, -1235845.9, -1280034.8, 62105.598, 0.04550682, 0.075255476, -1192021.6, 33972.05, 0.0, 10.000126, 9.999515 
1.215097e+3, 1.8489861e+2, -1168228.3, -1253162.8, 28585.047, 0.0714801, 0.09243316, -1159503.9, -31503.707, 0.0, 10.000153, 9.999016 
1.2150981e+3, 1.9489709e+2, -998746.6, -1113996.8, 38193.78, 0.08097101, -0.0061997892, -987238.4, 42775.652, 0.0, 10.000611, 9.999077 
1.215099e+3, 2.0489644e+2, -884317.0, -974625.1, 15531.286, 0.069173194, 0.01506743, -881720.56, 50298.465, 0.0, 10.000545, 9.999409 
1.2150996e+3, 2.1489647e+2, -873413.1, -904684.94, 42410.33, 0.029472398, 0.029253833, -843848.1, -9830.884, 0.0, 9.999882, 9.999537 
1.2151008e+3, 2.2489592e+2, -816979.56, -922800.1, 56030.734, 0.00072586426, 0.07056471, -792825.3, -56803.0, 0.0, 10.000035, 9.998665 
1.2151025e+3, 2.3489435e+2, -568264.9, -739085.44, 71561.734, -0.013898811, 0.0064796777, -542248.06, 95790.125, 0.0, 10.001019, 9.998774 
1.2151039e+3, 2.4489327e+2, -472123.13, -686200.6, -5405.966, 0.0049777087, 0.046550814, -471986.72, 68063.95, 0.0, 10.001208, 9.998359 
1.215105e+3, 2.5489226e+2, -443350.13, -616704.4, 12293.64, 0.06252932, 0.067336865, -442482.66, -419.34164, 0.00000000018849695, 10.000703, 9.998408 
1.2151056e+3, 2.6489156e+2, -368800.44, -529975.94, -10215.174, 0.08156113, 0.16396105, -368155.6, -24082.705, 0.00000061447383, 10.00053, 9.99843 
1.2151057e+3, 2.748907e+2, -228553.28, -400362.2, 87.35427, 0.05215504, 0.18944304, -228553.23, 17530.553, 0.000008322687, 10.000759, 9.998538 
1.2151051e+3, 2.848893e+2, -125947.516, -304380.2, -69566.56, 0.00992943, 0.20987155, -102030.914, 46066.348, 0.000050710027, 10.000853, 9.998465 
1.2151039e+3, 2.948872e+2, -2314.149, -182203.05, -34108.68, -0.029232854, 0.09976083, 3936.027, 54051.676, 0.00018357177, 10.000967, 9.9985695 
1.21510446e+3, 3.0488497e+2, -21524.303, -269683.56, -11778.788, 0.06498497, 0.07623824, -20966.48, -20966.48, 0.00046227945, 10.000952, 9.997657 
1.2151033e+3, 3.1488234e+2, 1726.0574, -51291.207, 2469.7622, -0.09324431, -0.008196634, 1840.8605, 1840.8605, 0.0008888424, 10.000162, 9.999526 
1.2250936e+3, 1.2490059e+2, -1688349.1, -1673657.0, 71323.19, 0.11819442, 0.20969863, -1609302.5, 106684.875, 0.0029179724, 9.999992, 10.000252 
1.225094e+3, 1.3490015e+2, -1543886.3, -1582353.0, 85436.29, 0.06542434, 0.1365863, -1475545.3, 142444.77, 0.0015834377, 10.000482, 9.999989 
1.22509524e+3, 1.4489932e+2, -1462166.5, -1492318.4, 34678.633, 0.09591518, 0.061399654, -1439428.5, 80567.43, 0.00056846405, 10.000358, 9.999967 
1.2250939e+3, 1.5489985e+2, -1418729.8, -1413611.3, -20466.771, 0.022220606, 0.06755366, -1395544.4, 26443.965, 0.00008951281, 9.999982, 10.000006 
1.2250943e+3, 1.6489993e+2, -1347462.3, -1403185.6, 78251.625, 0.025567623, 0.11483102, -1292260.3, 31726.268, 0.0000012652538, 10.000064, 9.999402 
1.22509696e+3, 1.748992e+2, -1152308.5, -1239560.0, 56343.77, 0.14423749, 0.05686837, -1124675.4, 101318.54, 0.0, 10.0006695, 9.999548 
1.2250985e+3, 1.8489854e+2, -1058086.0, -1198406.0, 64186.176, 0.17530541, 0.06748649, -1033155.06, 94845.08, 0.0, 10.000871, 9.999063 
1.225099e+3, 1.948975e+2, -985902.9, -1105778.6, 57500.734, 0.10807091, 0.016219076, -962781.25, 67228.31, 0.0, 10.000669, 9.999124 
1.2250997e+3, 2.048969e+2, -874992.9, -989301.06, 64394.582, 0.08137551, 0.0493527, -846046.75, 85968.016, 0.0, 10.000718, 9.999213 
1.2251006e+3, 2.1489647e+2, -720274.2, -851313.3, 22546.555, 0.09029859, 0.038580477, -716503.4, 117514.984, 0.0, 10.001053, 9.999326 
1.225102e+3, 2.248957e+2, -672081.2, -856477.75, 78623.3, 0.08308245, 0.07015233, -643109.56, 92916.22, 0.0, 10.00103, 9.998643 
1.2251039e+3, 2.3489416e+2, -633983.75, -778476.0, 63052.09, 0.04972034, 0.008866993, -610338.94, 27702.488, 0.0, 10.00058, 9.998724 
1.2251051e+3, 2.4489301e+2, -562242.8, -724841.1, 20270.904, 0.04518831, 0.04572494, -559753.75, -19699.613, 0.0, 10.000546, 9.998427 
1.22510575e+3, 2.5489202e+2, -398375.72, -586385.75, 6579.988, 0.070357256, 0.060223985, -398145.72, 43921.09, 0.0, 10.000964, 9.998502 
1.2251064e+3, 2.6489156e+2, -295899.63, -468445.2, 37951.633, 0.10342764, 0.16632594, -287921.03, 56153.066, 0.0000003685213, 10.000952, 9.998631 
1.22510694e+3, 2.748912e+2, -263706.22, -392313.66, 35811.29, 0.12537746, 0.22625668, -254406.83, -8326.798, 0.0000073761885, 10.0004635, 9.998712 
1.2251064e+3, 2.8488994e+2, -154514.64, -311974.78, 29930.893, 0.08691669, 0.24183668, -149017.14, -924.6206, 0.000049087277, 10.000587, 9.998547 
1.2251052e+3, 2.9488748e+2, 29897.508, -166040.56, 11421.686, 0.014872138, 0.090406284, 30561.057, 80674.91, 0.00018153466, 10.001149, 9.998607 
1.2251062e+3, 3.0488545e+2, 110441.26, -191922.42, 61504.395, 0.112340175, 0.078588575, 122473.2, 122473.2, 0.00045750884, 10.001809, 9.997758 
1.22510575e+3, 3.148827e+2, 282774.28, 65405.24, 3519.2874, 0.0525984, -0.025230704, 282831.25, 282831.25, 0.0008772591, 10.0021305, 9.999379 
1.235094e+3, 1.2490185e+2, -1708159.0, -1737702.3, 77128.96, 0.06571916, 0.14310724, -1644399.9, 71571.06, 0.0031899144, 10.000071, 9.999779 
1.23509556e+3, 1.3490042e+2, -1599319.5, -1708074.6, 111250.49, 0.14271984, 0.051477794, -1529868.3, 88116.22, 0.0017411282, 10.000506, 9.999117 
1.2350952e+3, 1.4489952e+2, -1468078.1, -1518857.4, -5207.462, -0.0050729336, 0.022825515, -1467549.5, 52442.844, 0.0006337289, 10.000406, 9.999771 
1.2350942e+3, 1.549002e+2, -1422946.4, -1436607.3, -22743.078, 0.012724704, 0.064432085, -1406030.1, 15954.558, 0.00010392506, 10.000021, 9.999843 
1.235095e+3, 1.649002e+2, -1345460.6, -1403748.5, 72806.836, 0.049517203, 0.112541325, -1296181.3, 27802.324, 0.0000017603737, 10.000083, 9.999387 
1.2350979e+3, 1.7489915e+2, -1157242.8, -1249249.9, 93810.67, 0.1369168, 0.023015458, -1098762.9, 127230.13, 0.0, 10.000656, 9.999491 
1.23509936e+3, 1.848987e+2, -1047923.75, -1161245.0, 37286.227, 0.14068484, 0.04419438, -1036756.0, 91240.67, 0.0, 10.000799, 9.9993515 
1.23509936e+3, 1.9489859e+2, -981593.06, -1066385.9, 67171.44, 0.046940375, 0.053968333, -944557.4, 85439.56, 0.0, 10.000534, 9.999456 
1.2350999e+3, 2.0489793e+2, -944985.06, -1087382.6, 54358.39, 0.0023853136, 0.0900304, -926606.5, 5397.32, 0.0, 10.000515, 9.998639 
1.2351012e+3, 2.1489628e+2, -796668.0, -956542.0, 53666.94, 0.012783379, 0.016483659, -780323.8, 53697.637, 0.0, 10.000821, 9.998717 
1.235103e+3, 2.2489513e+2, -699790.7, -862303.4, 45306.492, 0.053249553, 0.040580813, -688013.3, 48019.563, 0.0, 10.000799, 9.998719 
1.2351055e+3, 2.3489422e+2, -660935.3, -783966.7, 67940.63, 0.12213119, 0.03182696, -630798.9, 7242.3223, 0.0, 10.000355, 9.998798 
1.23510644e+3, 2.4489306e+2, -588698.4, -720763.94, 19498.574, 0.09552584, 0.05862248, -585879.75, -45826.836, 0.0, 10.000295, 9.998575 
1.2351061e+3, 2.548914e+2, -418369.47, -576261.94, 44308.164, -0.016994786, -0.011915976, -406785.47, 35285.887, 0.0, 10.000736, 9.998684 
1.2351066e+3, 2.648907e+2, -300167.8, -413331.97, 3875.1487, -0.010242662, 0.03425735, -300035.25, 44044.008, 0.00000016286783, 10.000681, 9.99914 
1.2351076e+3, 2.748906e+2, -258203.88, -334558.06, 40323.348, 0.118694276, 0.06956866, -240852.03, 5227.9927, 0.000006622681, 10.000267, 9.999203 
1.2351076e+3, 2.8488982e+2, -191970.47, -336597.06, 37384.777, 0.12257441, 0.11635157, -182878.39, -34790.523, 0.000048750662, 10.000367, 9.998483 
1.2351068e+3, 2.94888e+2, -1878.2189, -186520.45, 60181.445, 0.011511136, 0.03335464, 16004.998, 66111.47, 0.00018217463, 10.00095, 9.998565 
1.235108e+3, 3.0488706e+2, 92388.75, -180900.23, 66238.35, 0.08006469, 0.12334181, 107596.94, 107596.94, 0.00045752534, 10.001601, 9.997936 
1.2351083e+3, 3.148853e+2, 215253.63, 3597.185, 57330.605, 0.014913552, 0.096979246, 229784.9, 229784.9, 0.00087459444, 10.001805, 9.999107 
1.2450934e+3, 1.2490125e+2, -1821469.8, -1760450.1, 18724.08, 0.054249037, 0.12674746, -1755162.8, -39188.21, 0.003475539, 9.999193, 10.000029 
1.2450957e+3, 1.3490003e+2, -1739624.4, -1757651.9, 8384.57, 0.16618653, 0.03912499, -1736327.6, -118341.78, 0.0019075654, 9.999466, 9.999284 
1.2450954e+3, 1.4489943e+2, -1558648.9, -1583815.0, -23277.574, 0.019867567, 0.041347194, -1544771.0, -24779.36, 0.0007030745, 9.999879, 9.999574 
1.2450954e+3, 1.548998e+2, -1315653.4, -1413773.0, -84938.24, 0.09755011, 0.07440712, -1266624.6, 155363.86, 0.00011956255, 10.000865, 9.999597 
1.2450962e+3, 1.648996e+2, -1212789.8, -1332627.5, 36600.57, 0.12414596, 0.110156745, -1202495.6, 121494.56, 0.0000023468863, 10.000988, 9.999422 
1.2450981e+3, 1.7489849e+2, -1198977.9, -1264170.4, 19530.021, 0.122879006, 0.012283306, -1193575.0, 32424.695, 0.0, 10.00037, 9.999513 
1.2450996e+3, 1.8489818e+2, -1137436.5, -1186692.4, -7106.6055, 0.12032588, 0.03978542, -1136431.8, -8430.059, 0.0, 10.000125, 9.99949 
1.2451002e+3, 1.9489835e+2, -1006895.75, -1065419.9, -24962.2, 0.09865463, 0.061852224, -997695.1, 32304.393, 0.0, 10.000305, 9.999567 
1.2451011e+3, 2.0489775e+2, -932252.4, -1082125.5, 27141.123, 0.07636475, 0.098558985, -927488.7, 4517.4185, 0.0, 10.000603, 9.998633 
1.2451024e+3, 2.1489596e+2, -779473.9, -945912.75, 30205.516, 0.06168662, 0.012450523, -774161.7, 59863.594, 0.0, 10.000928, 9.998736 
1.2451044e+3, 2.24895e+2, -616820.25, -794573.75, 71444.016, 0.08864932, 0.04056444, -591664.9, 144370.05, 0.0, 10.001287, 9.99893 
1.2451067e+3, 2.348945e+2, -454325.44, -653490.56, 62844.504, 0.15286875, 0.053539604, -436153.53, 201884.88, 0.0, 10.00168, 9.999034 
1.24510765e+3, 2.4489349e+2, -396126.7, -638013.94, 49633.64, 0.13494815, 0.08558419, -386338.3, 153710.63, 0.0, 10.001664, 9.998477 
1.2451074e+3, 2.5489166e+2, -361723.22, -555091.3, 16918.246, 0.03222032, 0.009992151, -360254.16, 81815.38, 0.0, 10.001171, 9.998603 
1.24510765e+3, 2.648908e+2, -256057.86, -382238.38, -19905.92, 0.03408458, 0.034005426, -252992.03, 91086.87, 0.000000050542315, 10.000902, 9.999261 
1.2451084e+3, 2.7489045e+2, -173489.22, -285585.3, -46816.977, 0.14386325, 0.032927055, -156508.42, 89572.02, 0.0000061370592, 10.00077, 9.999321 
1.2451086e+3, 2.848897e+2, -118600.04, -302485.84, 7646.6978, 0.1664377, 0.07880296, -118282.6, 29805.238, 0.000049451548, 10.000893, 9.998459 
1.2451086e+3, 2.948882e+2, 43198.81, -160682.66, -13419.192, 0.106246166, 0.029699212, 44078.25, 94183.28, 0.00018750013, 10.001271, 9.998573 
1.2451103e+3, 3.0488762e+2, 143866.58, -120781.32, 44415.094, 0.15869096, 0.14100765, 151121.73, 151121.73, 0.000470274, 10.001781, 9.99828 
1.2451109e+3, 3.148866e+2, 271974.44, 17699.373, -30493.336, 0.08850519, 0.1612524, 275580.16, 275580.16, 0.0008945071, 10.00225, 9.999005 
1.2550935e+3, 1.24898314e+2, -1742367.6, -1619480.6, 38526.81, 0.06317554, 0.09862836, -1608400.9, 107602.14, 0.0037739007, 9.99928, 10.000961 
1.255094e+3, 1.3489929e+2, -1645097.0, -1571746.1, 30262.01, 0.008156163, 0.10383367, -1560872.9, 57118.484, 0.0020822603, 9.999507, 10.000544 
1.2550959e+3, 1.4489931e+2, -1567149.4, -1610007.0, -8819.401, 0.0132324705, 0.114705, -1565405.5, -45414.184, 0.0007764397, 9.99991, 9.999378 
1.2550968e+3, 1.5489891e+2, -1329912.9, -1443476.0, -30039.121, 0.11201722, 0.08931354, -1322456.6, 99541.06, 0.00013646827, 10.000864, 9.9993925 
1.2550972e+3, 1.648983e+2, -1218426.3, -1346044.4, -8889.513, 0.09742183, 0.100684434, -1217810.0, 106194.4, 0.0000030208696, 10.000988, 9.999335 
1.2550974e+3, 1.7489737e+2, -1203595.4, -1271698.3, 12371.424, -0.02503805, 0.026851397, -1201417.6, 24594.563, 0.0, 10.000355, 9.999471 
1.2550986e+3, 1.8489702e+2, -1143138.9, -1186566.1, -21212.105, -0.020427695, 0.048769645, -1134497.3, -6482.36, 0.0, 10.000069, 9.999522 
1.2551011e+3, 1.9489679e+2, -1017820.25, -1067393.4, -822.48004, 0.117715806, 0.02917588, -1017806.6, 12210.461, 0.0, 10.00021, 9.9996 
1.2551028e+3, 2.048964e+2, -924530.2, -1020679.9, 19176.295, 0.15466279, 0.061651472, -920846.7, 11174.317, 0.0, 10.000407, 9.999153 
1.255104e+3, 2.148956e+2, -778798.3, -887775.25, 60620.965, 0.08254761, 0.022275934, -751776.7, 82252.62, 0.0, 10.00068, 9.999261 
1.2551053e+3, 2.2489521e+2, -638626.1, -769473.94, 66720.01, 0.02955579, 0.065827444, -610605.7, 125427.14, 0.0, 10.000993, 9.999239 
1.2551072e+3, 2.3489487e+2, -470138.7, -626735.0, 96725.85, 0.0035332462, 0.06269322, -423992.1, 214042.66, 0.0, 10.001426, 9.999339 
1.2551086e+3, 2.4489416e+2, -456866.66, -701648.4, 12405.315, 0.015117936, 0.12337311, -456239.56, 83803.86, 0.0, 10.001394, 9.998171 
1.2551093e+3, 2.548927e+2, -421450.25, -627930.7, 16526.602, 0.06659186, 0.11704308, -420135.84, 21926.975, 0.0, 10.000941, 9.998217 
1.2551093e+3, 2.6489162e+2, -305713.8, -428280.63, -44490.875, 0.076103866, 0.15441434, -291266.8, 52808.066, 0.00000007625481, 10.000663, 9.999058 
1.2551084e+3, 2.7489063e+2, -215890.89, -325269.94, -29149.135, 0.041776042, 0.10600611, -208607.7, 37474.473, 0.0000061507535, 10.000564, 9.999147 
1.2551089e+3, 2.8488958e+2, -152609.97, -327396.1, 6060.6323, 0.054668732, 0.13178326, -152400.08, -4307.867, 0.000051588533, 10.000698, 9.998377 
1.2551107e+3, 2.9488796e+2, 13302.7705, -184815.4, 24054.898, 0.13424735, 0.07634158, 16181.61, 66291.34, 0.00020006, 10.001109, 9.998481 
1.2551127e+3, 3.0488703e+2, 154617.67, -68299.33, 47814.934, 0.18845418, 0.13067813, 164440.92, 164440.92, 0.0005036429, 10.001647, 9.998703 
1.2551123e+3, 3.1488663e+2, 220979.6, -14527.018, 32131.416, -0.0783542, 0.16437358, 225284.75, 225284.75, 0.0009532298, 10.001928, 9.998939 
1.265094e+3, 1.2489479e+2, -1691370.6, -1594359.4, 74227.9, 0.18597063, -0.0147611005, -1554193.9, 161841.0, 0.004085261, 9.999634, 10.000985 
1.2650935e+3, 1.3489681e+2, -1649736.5, -1530638.3, -47522.254, 0.032512, 0.07567669, -1514000.4, 104013.68, 0.0022650692, 9.999324, 10.000906 
1.2650967e+3, 1.448974e+2, -1643764.6, -1593136.4, -26948.424, 0.15236153, 0.09985105, -1581477.3, -61468.438, 0.00085386867, 9.999157, 9.999859 
1.2650971e+3, 1.5489726e+2, -1487869.0, -1464910.6, -42023.58, 0.13316013, 0.056260325, -1432826.6, -10814.324, 0.00015477135, 9.999562, 9.999871 
1.2650977e+3, 1.6489707e+2, -1363183.6, -1393268.9, 29552.123, 0.10030987, 0.07679919, -1345065.9, -21051.037, 0.0000038088367, 9.999916, 9.999515 
1.2650982e+3, 1.7489663e+2, -1179081.9, -1242685.3, 28723.021, 0.018576242, 0.035656944, -1168030.8, 57987.426, 0.0, 10.000459, 9.999619 
1.2650995e+3, 1.848964e+2, -1061553.5, -1156914.9, 36128.75, 0.033464566, 0.06547224, -1049411.6, 78609.02, 0.0, 10.000665, 9.999443 
1.2651016e+3, 1.9489594e+2, -984746.56, -1060277.8, 8121.2656, 0.14375354, 0.034970477, -983883.25, 46143.137, 0.0, 10.000489, 9.9995165 
1.2651035e+3, 2.0489566e+2, -882925.3, -981120.2, 63157.004, 0.1830375, 0.07287441, -852026.7, 80003.1, 0.0, 10.000603, 9.999326 
1.2651052e+3, 2.148952e+2, -722691.8, -841834.2, 38429.434, 0.13686223, 0.048635945, -711371.94, 122662.2, 0.0, 10.0009775, 9.999428 
1.2651066e+3, 2.248948e+2, -657279.6, -777447.4, 42219.98, 0.085912116, 0.08183038, -643929.2, 92108.41, 0.0, 10.000841, 9.999269 
1.2651081e+3, 2.3489417e+2, -653819.25, -712161.4, 15530.889, 0.037092607, 0.046434596, -649942.5, -11899.42, 0.0, 10.000136, 9.999383 
1.2651095e+3, 2.448937e+2, -588470.94, -723379.9, -3308.6719, 0.04688855, 0.110760525, -588389.8, -48340.863, 0.0, 10.000293, 9.998567 
1.2651108e+3, 2.5489312e+2, -330569.1, -542031.56, 20729.408, 0.12033635, 0.15257362, -328556.2, 113502.734, 0.0, 10.001365, 9.99862 
1.265111e+3, 2.6489207e+2, -171459.89, -415705.06, -1978.4775, 0.128448, 0.19612312, -171443.86, 172627.05, 0.00000015326442, 10.001821, 9.998581 
1.2651095e+3, 2.7489018e+2, -100541.09, -317839.84, -55176.72, 0.060144313, 0.10973003, -87333.35, 158754.83, 0.0000068361555, 10.00158, 9.998695 
1.26511e+3, 2.8488895e+2, -37400.54, -255234.48, 29999.41, 0.07161258, 0.12881686, -33344.633, 114755.37, 0.000055437977, 10.001397, 9.9985485 
1.2651125e+3, 2.9488784e+2, 76011.05, -139435.4, 27821.158, 0.19160883, 0.11213544, 79545.68, 129656.3, 0.00021969865, 10.001449, 9.998646 
1.2651148e+3, 3.0488637e+2, 192714.27, -58498.59, 89982.89, 0.22361864, 0.11262078, 221619.64, 221619.64, 0.00055763865, 10.00197, 9.998605 
1.2651148e+3, 3.1488606e+2, 295604.72, -3812.9563, -49570.383, -0.030795963, 0.17242901, 303598.0, 303598.0, 0.001054668, 10.002578, 9.998692 
1.2750915e+3, 1.2489182e+2, -1721892.9, -1681786.9, -127084.27, -0.11703406, -0.102943175, -1573183.3, 142875.73, 0.0044096503, 9.999735, 10.00033 
1.2750936e+3, 1.3489275e+2, -1697693.1, -1633573.6, -48621.074, 0.07078171, -0.053366095, -1607393.9, 10658.615, 0.0024558255, 9.999329, 10.000196 
1.2750971e+3, 1.4489381e+2, -1557374.9, -1429629.6, -33126.08, 0.2322404, -0.0022535066, -1421550.6, 98492.64, 0.00093550276, 9.999215, 10.000955 
1.2750961e+3, 1.5489504e+2, -1404020.0, -1302121.8, -7977.2813, 0.02412719, -0.022106217, -1301501.0, 120529.62, 0.00017466526, 9.999601, 10.000971 
1.275097e+3, 1.648959e+2, -1326151.8, -1331673.3, 28365.87, -0.016517408, 0.028009037, -1300412.6, 23609.188, 0.0000047674703, 9.99997, 9.999916 
1.2751e+3, 1.7489617e+2, -1150835.3, -1187483.0, 66630.54, 0.10763876, 0.017243773, -1100054.9, 125963.91, 0.0, 10.00046, 10.000001 
1.2751015e+3, 1.8489626e+2, -1095687.8, -1203250.3, 11649.749, 0.120032564, 0.07459041, -1094440.5, 33579.06, 0.0, 10.0005665, 9.999167 
1.2751013e+3, 1.948958e+2, -1019217.8, -1106349.6, 20700.219, 0.028579421, 0.06771297, -1014550.0, 15477.485, 0.0, 10.000379, 9.999251 
1.2751026e+3, 2.0489542e+2, -922931.5, -1020624.4, 57667.938, 0.013194423, 0.1180568, -896203.0, 35830.074, 0.0, 10.000419, 9.999145 
1.2751058e+3, 2.1489479e+2, -772871.1, -887540.6, 69577.33, 0.08138758, 0.09477149, -740048.94, 93990.62, 0.0, 10.000727, 9.999237 
1.275108e+3, 2.248939e+2, -709653.25, -824807.2, -2389.238, 0.110388175, 0.097133085, -709603.7, 26444.818, 0.0, 10.00058, 9.999068 
1.2751092e+3, 2.3489237e+2, -705922.7, -762680.25, 8552.022, 0.09773888, -0.006779024, -704662.06, -66598.555, 0.0, 9.999888, 9.999156 
1.2751104e+3, 2.448921e+2, -554036.1, -589774.4, 19532.104, 0.071659625, 0.039252087, -545432.44, -5366.582, 0.0, 10.000034, 9.999603 
1.2751117e+3, 2.5489292e+2, -289049.06, -396463.2, 80912.99, 0.037891258, 0.11185296, -245640.94, 196416.42, 0.0, 10.001114, 9.999737 
1.2751122e+3, 2.6489216e+2, -265912.53, -553584.75, -28266.922, 0.032794893, 0.16539675, -263161.3, 80904.77, 0.00000020123079, 10.001572, 9.997753 
1.2751113e+3, 2.7488917e+2, -192014.02, -460483.6, -42898.285, 0.04748922, 0.04620257, -185325.98, 60772.145, 0.0000077157165, 10.001377, 9.997812 
1.2751117e+3, 2.8488776e+2, -35363.13, -213003.14, 11734.487, 0.06474394, 0.07980832, -34591.33, 113520.11, 0.000060411407, 10.001232, 9.998915 
1.2751132e+3, 2.948878e+2, 68508.3, -96729.72, 56267.105, 0.09555256, 0.13715218, 85848.72, 135955.88, 0.00024271311, 10.001204, 9.999053 
1.2751159e+3, 3.0488572e+2, 100314.2, -202979.75, 101110.984, 0.10247213, 0.0977859, 130931.42, 130931.42, 0.0006225909, 10.001768, 9.997709 
1.2751178e+3, 3.1488547e+2, 193194.8, -121376.125, 22727.748, -0.052961588, 0.24412313, 194828.39, 194828.39, 0.0011840137, 10.002194, 9.998056 
1.2850927e+3, 1.2489129e+2, -1717564.8, -1725423.9, -35767.176, 0.035556603, -0.073848985, -1685512.0, 30549.676, 0.0047468157, 9.999921, 9.999939 
1.2850934e+3, 1.3489124e+2, -1643629.1, -1662365.1, 35798.523, 0.11219469, -0.079660304, -1615993.1, 2072.9768, 0.0026545508, 9.999904, 9.999718 
1.2850957e+3, 1.4489193e+2, -1524555.8, -1410268.5, 73776.83, 0.17091122, -0.04282041, -1374093.3, 145967.53, 0.0010215283, 9.999454, 10.00097 
1.285096e+3, 1.548936e+2, -1435191.9, -1307448.4, -21206.66, 0.082330294, -0.021785803, -1304019.9, 118024.0, 0.00019628371, 9.999361, 10.001044 
1.2850976e+3, 1.6489455e+2, -1368749.8, -1330922.5, 21719.842, 0.08621587, 0.023206618, -1321035.5, 2998.3967, 0.0000059623408, 9.999567, 10.000132 
1.2851006e+3, 1.7489466e+2, -1185614.0, -1176154.8, 7887.864, 0.14919847, -0.023322236, -1171687.3, 54344.805, 0.0, 10.000099, 10.000256 
1.2851018e+3, 1.848949e+2, -1120846.6, -1192630.6, -20228.676, 0.13078906, 0.028998706, -1115538.8, 12492.28, 0.0, 10.000317, 9.99935 
1.2851016e+3, 1.9489488e+2, -1004857.94, -1077107.3, -17151.996, 0.027275098, 0.048192997, -1000992.8, 29041.791, 0.0, 10.000404, 9.999432 
1.2851031e+3, 2.0489475e+2, -891773.75, -1006732.0, 91778.88, 0.018822381, 0.115986325, -840960.6, 91077.58, 0.0, 10.000635, 9.999141 
1.285107e+3, 2.1489415e+2, -734378.8, -863966.6, 83517.43, 0.10838937, 0.09569988, -693468.4, 140576.72, 0.0, 10.000979, 9.999274 
1.285109e+3, 2.2489333e+2, -636016.4, -796577.75, 31788.133, 0.14800127, 0.10551, -629952.0, 106102.21, 0.0, 10.001114, 9.999002 
1.2851098e+3, 2.348919e+2, -546593.5, -690804.6, 13261.343, 0.13403879, 0.020574983, -545384.2, 92684.766, 0.0, 10.001011, 9.999103 
1.285111e+3, 2.4489151e+2, -443398.47, -547130.06, 58161.01, 0.110399455, 0.05911205, -417336.3, 122736.37, 0.0, 10.000843, 9.9995 
1.285113e+3, 2.548919e+2, -380538.44, -451822.03, -7761.622, 0.08223912, 0.098963164, -379703.13, 62364.527, 0.0, 10.000539, 9.999628 
1.2851137e+3, 2.6489088e+2, -357525.5, -610147.06, -94058.41, 0.071515106, 0.14040829, -326351.7, 17726.62, 0.00000014147287, 10.000992, 9.997646 
1.2851134e+3, 2.7488798e+2, -55286.63, -406949.28, -95865.37, 0.07740935, 0.04424376, -30851.076, 215258.73, 0.000007879153, 10.002368, 9.997706 
1.2851138e+3, 2.848865e+2, 155020.75, -171579.89, -40744.72, 0.09861461, 0.10206932, 160027.08, 308151.25, 0.00006527563, 10.002769, 9.998458 
1.2851152e+3, 2.948862e+2, 156176.19, -104237.95, -108093.98, 0.14258398, 0.1686808, 195197.33, 245321.56, 0.000269289, 10.002025, 9.998604 
1.2851179e+3, 3.04883e+2, 139475.5, -207035.92, 17246.914, 0.123583995, 0.05185458, 140331.83, 140331.83, 0.0006978728, 10.002098, 9.9975395 
1.2851211e+3, 3.1488234e+2, 319270.16, -33234.133, -80222.72, 0.0415276, 0.1727384, 336668.5, 336668.5, 0.0013327466, 10.00287, 9.99836 
1.2950951e+3, 1.2489273e+2, -1732255.6, -1745732.5, -13406.964, 0.19980612, 0.001943203, -1723988.9, -7941.2876, 0.0050962004, 9.999896, 9.99981 
1.295093e+3, 1.3489243e+2, -1669397.6, -1704880.5, 43556.08, 0.042448483, -0.0005392226, -1640108.4, -22055.025, 0.0028611089, 9.999868, 9.999445 
1.2950921e+3, 1.4489181e+2, -1601020.3, -1569785.5, 42404.15, -0.18502353, -0.022650264, -1540214.3, -20152.602, 0.00111182, 9.999463, 9.9998665 
1.2950964e+3, 1.5489295e+2, -1513358.9, -1468940.4, -3851.8628, 0.1537003, 0.05553019, -1468608.9, -46556.887, 0.000219555, 9.999361, 9.999937 
1.2950991e+3, 1.6489309e+2, -1357794.9, -1314637.9, 19186.549, 0.23390284, 0.07080772, -1307341.6, 16708.5, 0.0000074533, 9.999587, 10.000233 
1.2950996e+3, 1.748922e+2, -1181808.0, -1167232.1, 44276.09, 0.0005109379, -0.08918412, -1129648.1, 96408.43, 0.0, 10.000087, 10.000324 
1.2951003e+3, 1.848924e+2, -1087560.9, -1118458.5, -37492.29, -0.08957146, -0.07084812, -1062459.3, 65594.78, 0.0, 10.000288, 9.999875 
1.295102e+3, 1.9489326e+2, -980062.9, -1007770.6, 1290.9347, -0.0030211587, -0.0188819, -980002.9, 50044.21, 0.0, 10.000314, 9.999954 
1.2951043e+3, 2.0489363e+2, -906081.06, -990284.75, 83582.86, 0.047923245, 0.0633264, -854595.2, 77450.086, 0.0, 10.000443, 9.999339 
1.2951078e+3, 2.1489322e+2, -756995.44, -851182.1, 111655.11, 0.06324556, 0.03928501, -682908.56, 151143.06, 0.0, 10.000726, 9.99948 
1.2951095e+3, 2.24893e+2, -676723.0, -811898.3, 8588.073, 0.045045163, 0.09877949, -676179.56, 59876.17, 0.0, 10.000817, 9.999041 
1.2951098e+3, 2.3489273e+2, -580819.4, -700591.56, 29194.29, -0.0036310873, 0.12173925, -574082.25, 63977.85, 0.0, 10.000746, 9.999163 
1.2951112e+3, 2.448919e+2, -575733.3, -747276.56, 28012.785, 0.011300536, 0.17385921, -571274.75, -31204.916, 0.0, 10.000539, 9.998266 
1.2951139e+3, 2.5489002e+2, -510527.1, -652280.1, 1286.8048, 0.09943423, 0.111983314, -510515.4, -68425.86, 0.0, 10.000261, 9.998375 
1.2951152e+3, 2.6488838e+2, -351069.56, -556278.75, -62674.0, 0.09388868, 0.13011934, -333442.16, 10664.423, 0.000000052302592, 10.000798, 9.998118 
1.2951152e+3, 2.748868e+2, -52629.684, -347236.4, -23029.611, -0.009017941, 0.11360491, -50840.31, 195281.81, 0.000007172051, 10.002125, 9.998237 
1.2951161e+3, 2.8488523e+2, 23848.928, -384270.13, -85139.1, 0.009232337, 0.19846927, 40897.875, 189036.03, 0.00006969282, 10.002509, 9.997124 
1.2951177e+3, 2.9488307e+2, 21505.89, -325274.06, -107777.26, 0.15588035, 0.21563083, 52272.773, 102433.4, 0.0003009035, 10.001778, 9.997203 
1.2951204e+3, 3.0487838e+2, 153676.88, -145202.1, 31459.451, 0.122431695, -0.0033916906, 156952.34, 156952.34, 0.00078697875, 10.001955, 9.998036 
1.2951238e+3, 3.148772e+2, 352033.63, 127756.05, 5768.58, -0.049686156, 0.004148044, 352181.9, 352181.9, 0.0015033553, 10.002478, 9.999653 
1.305094e+3, 1.2489148e+2, -1875555.3, -1752826.3, -52226.4, 0.19004309, 0.03721152, -1733610.4, -17547.355, 0.0054552136, 9.99867, 10.000344 
1.3050927e+3, 1.3489166e+2, -1724942.5, -1696714.0, -104210.57, 0.058761433, 0.054907784, -1605666.3, 12396.257, 0.003073975, 9.999364, 9.999736 
1.305092e+3, 1.4489098e+2, -1562629.8, -1581773.3, 7931.2593, -0.14706339, 0.023931202, -1559770.8, -39700.438, 0.0012055306, 9.999833, 9.99961 
1.3050967e+3, 1.5489149e+2, -1308396.1, -1396008.3, -12787.869, 0.18439957, 0.06119969, -1306567.8, 115498.7, 0.000244213, 10.00087, 9.999709 
1.3050994e+3, 1.6489145e+2, -1191238.4, -1255329.9, 47723.94, 0.2645801, 0.07989001, -1165799.3, 158267.64, 0.000009295233, 10.000863, 10.000012 
1.3050994e+3, 1.7489067e+2, -1205882.8, -1198710.3, 7202.3975, 0.001240093, -0.04336136, -1194250.6, 31822.701, 0.0, 10.000042, 10.000119 
1.3051005e+3, 1.848908e+2, -1116860.5, -1105141.1, -38913.04, -0.08255763, -0.03376837, -1071649.1, 56422.113, 0.0, 9.999946, 10.000147 
1.3051029e+3, 1.9489154e+2, -923920.3, -946108.5, -53873.91, 0.044381063, -0.022759018, -880010.06, 150053.45, 0.0, 10.000546, 10.000272 
1.3051054e+3, 2.0489189e+2, -870862.7, -962023.0, 38426.12, 0.0980445, 0.037925642, -856826.4, 75234.48, 0.0, 10.000628, 9.999449 
1.3051082e+3, 2.1489161e+2, -831465.44, -873995.7, 19152.621, 0.069445245, 0.016867382, -824111.9, 9954.232, 0.0, 10.000164, 9.999597 
1.30511e+3, 2.2489163e+2, -759769.75, -865838.4, -44027.36, 0.046177905, 0.09944851, -743876.25, -7807.536, 0.0, 10.000288, 9.998926 
1.3051109e+3, 2.3489164e+2, -561965.44, -705771.0, -73692.71, 0.032877512, 0.15930982, -530908.9, 107162.91, 0.0, 10.000916, 9.999047 
1.3051125e+3, 2.448906e+2, -480934.88, -726909.2, -21210.426, 0.05922156, 0.20619248, -479119.3, 60964.38, 0.0, 10.001281, 9.998058 
1.3051149e+3, 2.548881e+2, -354924.22, -605012.1, -9159.804, 0.12773854, 0.10345365, -354589.2, 87519.58, 0.0, 10.001428, 9.998154 
1.3051167e+3, 2.6488623e+2, -228198.7, -482603.53, 18640.883, 0.12889777, 0.10939188, -226840.1, 117286.55, 0.000000026393016, 10.001579, 9.998253 
1.3051176e+3, 2.7488482e+2, -100794.29, -361055.38, -12713.898, 0.048756912, 0.09751175, -100174.69, 145965.3, 0.0000066700077, 10.00173, 9.998345 
1.3051188e+3, 2.8488317e+2, -54959.426, -460760.6, -36484.113, 0.06270321, 0.18589197, -51705.367, 96451.92, 0.00007506801, 10.002134, 9.996766 
1.3051203e+3, 2.9488084e+2, 168593.6, -296251.66, -32502.156, 0.18059663, 0.2176718, 170855.14, 221038.67, 0.00033561388, 10.002959, 9.996825 
1.3051227e+3, 3.048762e+2, 256712.67, -123787.586, 145877.06, 0.12817913, 0.039640248, 306202.47, 306202.47, 0.0008838964, 10.0028, 9.997777 
1.3051271e+3, 3.1487435e+2, 237134.94, 103386.49, -5720.503, 0.08189235, 0.01378154, 237379.17, 237379.17, 0.0016900786, 10.001548, 9.99995 
1.3150905e+3, 1.24887355e+2, -1780346.5, -1573898.5, -25440.371, -0.10691681, -0.008891485, -1570809.6, 145300.22, 0.005819013, 9.998735, 10.00155 
1.3150916e+3, 1.3488889e+2, -1667536.8, -1587038.5, -67029.14, -0.01423308, 0.070056625, -1549102.6, 68991.17, 0.0032902497, 9.99939, 10.000483 
1.3150947e+3, 1.4488944e+2, -1511083.1, -1476520.3, 14869.454, 0.08664655, 0.09008516, -1471003.6, 49083.215, 0.0013013786, 9.999853, 10.00032 
1.3150966e+3, 1.5488943e+2, -1266487.1, -1302252.4, 38675.773, 0.04291724, 0.0092033, -1241759.9, 180325.73, 0.00026992275, 10.000844, 10.000367 
1.3150986e+3, 1.6488963e+2, -1230665.0, -1347120.8, -5271.3374, 0.040010378, 0.050901942, -1230426.9, 93657.2, 0.00001153221, 10.00089, 9.999376 
1.3151e+3, 1.748899e+2, -1248655.9, -1289195.9, -7145.705, 0.011402253, 0.09310483, -1247433.3, -21349.016, 0.0, 10.000039, 9.999501 
1.3151015e+3, 1.8489003e+2, -1120897.8, -1093873.6, -38099.926, -0.00056042464, 0.12644334, -1066960.6, 61122.504, 0.0, 9.99987, 10.000257 
1.3151033e+3, 1.9488963e+2, -935434.06, -939646.4, -16365.939, 0.022144016, 0.015328832, -921039.3, 109045.24, 0.0, 10.00042, 10.000377 
1.3151054e+3, 2.0488955e+2, -899861.9, -979863.6, 5622.7935, 0.020332918, 0.026954856, -899468.6, 32616.21, 0.0, 10.000449, 9.999412 
1.3151078e+3, 2.148894e+2, -865798.06, -901300.06, 21628.656, -0.009654901, 0.024095798, -855568.75, -21480.91, 0.0, 9.999965, 9.999508 
1.3151102e+3, 2.2488919e+2, -818378.94, -919486.25, -38363.5, 0.004285362, 0.10174917, -805470.56, -69377.47, 0.0, 10.00001, 9.998688 
1.3151127e+3, 2.3488861e+2, -621143.7, -762929.9, -28482.287, 0.08432723, 0.12704521, -615636.06, 22467.734, 0.0, 10.000643, 9.998785 
1.3151145e+3, 2.448877e+2, -469516.9, -636826.25, -35431.152, 0.090726055, 0.16417204, -462322.97, 77790.445, 0.0, 10.000995, 9.998815 
1.3151155e+3, 2.5488624e+2, -338718.4, -511157.06, 16305.201, 0.019062638, 0.08736818, -337190.2, 104933.72, 0.0, 10.0011635, 9.998928 
1.3151176e+3, 2.6488453e+2, -283396.2, -536672.5, 6591.9478, 0.021960398, 0.0777428, -283224.75, 60914.24, 0.000000066602475, 10.001326, 9.997998 
1.3151202e+3, 2.7488214e+2, -158532.78, -417123.5, 18165.246, 0.093281515, -0.004744229, -157262.95, 88899.98, 0.0000067822207, 10.001474, 9.998074 
1.3151217e+3, 2.8488058e+2, -42801.01, -398158.0, -22566.992, 0.099076994, 0.08232588, -41373.625, 106805.91, 0.000081610815, 10.001959, 9.997289 
1.3151222e+3, 2.9487956e+2, 161966.69, -241310.95, 23258.127, 0.04316892, 0.18552913, 163303.61, 213495.75, 0.00036944333, 10.002662, 9.99735 
1.3151243e+3, 3.0487648e+2, 146198.69, -305978.28, 87412.375, -0.023720145, 0.19343072, 162508.48, 162508.48, 0.0009769672, 10.002598, 9.996618 
1.3151297e+3, 3.148735e+2, 126024.81, -24623.184, 18004.14, 0.12333072, 0.16949199, 128146.63, 128146.63, 0.0018700527, 10.00113, 9.999262 
1.3250905e+3, 1.2488529e+2, -1831091.1, -1581444.3, 96554.68, 0.04747432, 0.026785886, -1548458.6, 167673.83, 0.006183249, 9.998265, 10.001747 
1.3250911e+3, 1.3488673e+2, -1659634.4, -1530531.6, 3323.1155, 0.01469504, 0.05560856, -1530446.1, 87668.73, 0.0035072896, 9.999225, 10.000943 
1.3250959e+3, 1.4488778e+2, -1565049.0, -1511326.3, 88598.46, 0.2485749, 0.101633966, -1445606.8, 74495.57, 0.0013982238, 9.999512, 10.000247 
1.325097e+3, 1.548873e+2, -1412667.8, -1380187.9, 26055.152, 0.043920923, -0.02021782, -1365725.9, 56380.047, 0.00029637254, 9.999866, 10.000304 
1.3250987e+3, 1.6488747e+2, -1338305.6, -1373179.6, -11816.375, 0.020027924, 0.009313764, -1334679.1, -10574.335, 0.000014169166, 10.000049, 9.99959 
1.3251008e+3, 1.748881e+2, -1215575.8, -1257290.8, 7742.7964, 0.09231212, 0.07023389, -1214185.0, 11915.395, 0.0, 10.000183, 9.999654 
1.3251026e+3, 1.8488827e+2, -1077783.4, -1105734.6, 54271.98, 0.10740594, 0.11556743, -1035716.44, 92382.664, 0.0, 10.000312, 9.999958 
1.3251044e+3, 1.9488764e+2, -937538.1, -975561.6, 8098.535, 0.076192245, 0.007924719, -935885.1, 94219.05, 0.0, 10.00055, 10.000063 
1.3251062e+3, 2.048874e+2, -856809.9, -957408.5, 28267.209, 0.036578625, 0.019672444, -849411.25, 82694.81, 0.0, 10.00076, 9.999408 
1.325108e+3, 2.1488729e+2, -718770.7, -828925.1, 13695.015, -0.021480579, 0.02318674, -717093.56, 117014.1, 0.0, 10.00099, 9.999506 
1.3251106e+3, 2.2488688e+2, -683813.94, -868576.94, 9031.822, 0.0138281, 0.08923238, -683373.5, 52740.832, 0.0, 10.001013, 9.998553 
1.325114e+3, 2.3488595e+2, -601905.94, -761363.3, -12823.527, 0.16391286, 0.09263715, -600881.25, 37247.297, 0.0, 10.000835, 9.998697 
1.3251162e+3, 2.4488507e+2, -477410.34, -608371.06, 3945.0688, 0.18570665, 0.1261561, -477291.6, 62845.75, 0.0, 10.000799, 9.999102 
1.3251169e+3, 2.5488397e+2, -357318.5, -483111.28, -17323.24, 0.06488064, 0.058253326, -354976.47, 87167.1, 0.0, 10.000882, 9.999247 
1.325119e+3, 2.648825e+2, -302668.94, -549692.44, 9197.138, 0.05080892, 0.05802177, -302327.0, 41829.355, 0.0000000978673, 10.00122, 9.9979515 
1.3251221e+3, 2.7488023e+2, -98785.7, -390387.13, -6190.7627, 0.14308904, -0.010759813, -98654.33, 147525.73, 0.000006920427, 10.001902, 9.998046 
1.3251242e+3, 2.8487858e+2, 30370.336, -332605.3, -2775.2444, 0.14361545, 0.053372614, 30391.553, 178589.19, 0.000086783395, 10.002363, 9.997539 
1.325125e+3, 2.9487723e+2, 191773.17, -199606.27, -30005.646, 0.051412188, 0.10650084, 194060.22, 244272.53, 0.0003950438, 10.002758, 9.99759 
1.3251269e+3, 3.0487496e+2, 139369.28, -353773.44, 48460.484, -0.017185668, 0.20526059, 144086.31, 144086.31, 0.0010503886, 10.002766, 9.996199 
1.3251324e+3, 3.1487188e+2, 269433.13, 6233.179, -24735.86, 0.25068295, 0.21478096, 271737.66, 271737.66, 0.002014152, 10.002271, 9.9989195 
1.3350888e+3, 1.24884784e+2, -1876460.8, -1676862.9, -71451.58, -0.03290703, 0.08941814, -1653921.6, 62214.5, 0.0065457188, 9.99827, 10.001088 
1.3350905e+3, 1.3488527e+2, -1652055.5, -1514404.3, 42181.61, 0.008388472, 0.012352305, -1502506.6, 115618.85, 0.0037237175, 9.999226, 10.001053 
1.3350952e+3, 1.4488582e+2, -1599444.5, -1600236.9, 77251.71, 0.1633756, 0.03505151, -1522588.0, -2469.8022, 0.0014951822, 9.999572, 9.999617 
1.3350971e+3, 1.5488519e+2, -1456086.0, -1475137.9, 58735.887, 0.030045971, -0.033321448, -1406108.6, 16018.06, 0.00032323142, 9.999872, 9.999655 
1.3350993e+3, 1.648851e+2, -1279278.0, -1245638.6, -27640.557, 0.039485488, -0.040599454, -1230102.5, 94024.734, 0.000017128494, 10.000026, 10.000477 
1.3351014e+3, 1.7488544e+2, -1157191.0, -1125086.1, 29223.893, 0.10166811, -0.10584429, -1107796.1, 118324.484, 0.00000000003443261, 10.000137, 10.00058 
1.3351032e+3, 1.8488577e+2, -1136796.1, -1218277.4, 42825.81, 0.092745654, -0.05435106, -1118428.0, 9689.051, 0.0, 10.000261, 9.999217 
1.3351052e+3, 1.9488566e+2, -1006724.3, -1093355.8, 32762.102, 0.06353857, -0.03328306, -995729.75, 34391.4, 0.0, 10.00043, 9.999317 
1.335107e+3, 2.0488553e+2, -883451.2, -968530.2, 15686.733, 0.0035427155, 0.02563103, -880651.0, 51472.676, 0.0, 10.000569, 9.999426 
1.3351084e+3, 2.1488516e+2, -753790.56, -845065.5, 40410.895, -0.10852518, 0.00088621, -738470.5, 95656.414, 0.0, 10.000743, 9.99952 
1.335111e+3, 2.2488458e+2, -724620.6, -893886.06, -12034.295, -0.08189447, 0.05225303, -723769.25, 12364.465, 0.0, 10.000753, 9.998501 
1.3351147e+3, 2.3488355e+2, -642104.2, -790110.3, 873.3928, 0.12063233, 0.049310844, -642099.06, -3952.2122, 0.0, 10.000593, 9.998615 
1.3351174e+3, 2.4488263e+2, -523473.72, -645597.4, -10697.108, 0.18322466, 0.086720586, -522543.8, 17612.951, 0.0, 10.000556, 9.998958 
1.3351184e+3, 2.548814e+2, -402960.38, -523005.9, 4796.863, 0.09630335, 0.018471496, -402769.0, 39398.492, 0.0, 10.00065, 9.999081 
1.3351205e+3, 2.648803e+2, -328465.94, -552720.0, 14809.3, 0.05185203, 0.063502066, -327492.2, 16685.83, 0.00000008871969, 10.000999, 9.998037 
1.3351235e+3, 2.7487907e+2, -131054.36, -390379.1, 40534.3, 0.048565377, 0.082088634, -124866.23, 121325.36, 0.000006673535, 10.001624, 9.998176 
1.3351259e+3, 2.84877e+2, -9150.742, -364246.34, -9044.238, 0.035913654, 0.106832586, -8920.536, 139291.95, 0.00008871381, 10.002143, 9.997429 
1.3351278e+3, 2.9487392e+2, 143066.48, -237069.94, 10501.521, 0.023565803, -0.0032326933, 143356.38, 193599.77, 0.00040777776, 10.002484, 9.997468 
1.3351296e+3, 3.0487195e+2, 134243.52, -316255.3, 18985.674, -0.038827937, 0.11285071, 135042.22, 135042.22, 0.0010944825, 10.002562, 9.996549 
1.3351344e+3, 3.1486923e+2, 195284.63, -40611.113, 48273.113, 0.14724341, 0.12114817, 204780.83, 204780.83, 0.0021082137, 10.001816, 9.998816 
1.3450877e+3, 1.24883674e+2, -1898103.6, -1733280.1, -33525.73, 0.05862209, 0.11266053, -1726721.9, -10577.545, 0.0069055543, 9.998349, 10.000644 
1.3450913e+3, 1.3488325e+2, -1613264.8, -1530066.6, 21021.73, 0.1455756, -0.022802627, -1525056.8, 93086.46, 0.0039389143, 9.99967, 10.000718 
1.3450946e+3, 1.448835e+2, -1579977.5, -1570401.0, 58143.832, 0.1655494, -0.02143073, -1516848.6, 3290.9163, 0.0015916337, 9.999629, 9.999791 
1.3450965e+3, 1.5488365e+2, -1561651.9, -1505976.6, 60663.355, 0.042407613, -0.030828344, -1467068.6, -44927.64, 0.0003501717, 9.999072, 9.999827 
1.3450992e+3, 1.6488382e+2, -1365428.4, -1295073.6, 46664.094, 0.06787512, -0.01754067, -1271813.1, 52326.016, 0.000020254476, 9.999448, 10.000429 
1.3451022e+3, 1.748838e+2, -1072740.1, -1088357.3, -8372.367, 0.14068474, -0.10895745, -1069100.0, 157035.97, 0.0000000014653116, 10.000732, 10.000551 
1.3451043e+3, 1.8488398e+2, -1013208.0, -1182163.0, -4704.259, 0.13122344, -0.061526436, -1013077.1, 115057.03, 0.0, 10.001201, 9.999013 
1.3451058e+3, 1.9488396e+2, -946913.56, -1087965.8, -10791.4375, 0.06859204, -0.01087422, -946092.75, 84044.88, 0.0, 10.000939, 9.999109 
1.3451079e+3, 2.0488359e+2, -866920.9, -990722.4, 25156.13, 0.02666488, 0.047595054, -862004.5, 70138.234, 0.0, 10.000798, 9.99916 
1.34511e+3, 2.1488264e+2, -760037.0, -870982.4, -13057.543, -0.020234413, -0.012842259, -758520.94, 75630.625, 0.0, 10.000792, 9.999308 
1.3451126e+3, 2.2488192e+2, -679004.2, -829362.7, -26080.861, 0.0025368906, 0.01295117, -674608.75, 61549.7, 0.0, 10.000884, 9.998886 
1.3451155e+3, 2.3488109e+2, -532912.25, -690313.1, -12391.898, 0.12067574, -0.005460709, -531942.6, 106223.65, 0.0, 10.001146, 9.999034 
1.345118e+3, 2.448801e+2, -455619.25, -677831.0, 14274.448, 0.17380787, 0.033539098, -454706.06, 85471.12, 0.0, 10.001311, 9.99838 
1.3451199e+3, 2.548786e+2, -340276.0, -556071.3, -41406.82, 0.15191644, -0.000517065, -332603.66, 109590.73, 0.0, 10.00137, 9.998512 
1.345122e+3, 2.6487768e+2, -239586.0, -475490.8, 9403.851, 0.09843627, 0.07356579, -239211.73, 104992.875, 0.000000062099474, 10.001468, 9.9983425 
1.3451247e+3, 2.7487683e+2, -100686.83, -343713.88, 6105.1104, 0.017314365, 0.10510243, -100533.56, 145678.67, 0.0000065347235, 10.001675, 9.998477 
1.3451278e+3, 2.848747e+2, -27886.316, -382003.72, 11371.696, 0.031280324, 0.1073926, -27521.516, 120712.055, 0.00008986311, 10.002035, 9.997362 
1.3451314e+3, 2.9487127e+2, 162921.45, -221513.61, -15904.105, 0.14448597, -0.030631265, 163578.28, 213846.67, 0.00041373618, 10.002603, 9.997511 
1.3451333e+3, 3.0486974e+2, 227092.9, -202693.1, 16853.535, 0.05880922, 0.093036346, 227752.78, 227752.78, 0.0011153643, 10.002859, 9.9972 
1.3451362e+3, 3.148677e+2, 328079.4, 47825.94, 15027.253, 0.12801753, 0.10039068, 328882.88, 328882.88, 0.0021561384, 10.002609, 9.999031 
1.3550867e+3, 1.2488181e+2, -1901456.3, -1740303.0, 100528.56, 0.026427126, 0.045075037, -1692044.1, 24114.605, 0.0072628423, 9.998375, 10.00058 
1.3550928e+3, 1.3488087e+2, -1675591.5, -1652434.4, 75480.695, 0.2891345, -0.056938626, -1587649.4, 30517.117, 0.004152666, 9.999655, 9.999883 
1.3550939e+3, 1.4488089e+2, -1530675.8, -1456131.5, 10046.465, 0.077385485, -0.07134516, -1454801.3, 65364.555, 0.0016872559, 9.99958, 10.000597 
1.3550949e+3, 1.5488261e+2, -1497688.1, -1377438.4, 57528.047, -0.0630644, -0.012711391, -1354349.8, 67799.414, 0.0003769789, 9.999087, 10.000701 
1.355098e+3, 1.6488346e+2, -1426273.4, -1427052.1, 71292.25, -0.040161133, 0.06763868, -1355369.4, -31227.412, 0.000023370363, 9.999468, 9.9995165 
1.3551027e+3, 1.7488305e+2, -1149683.3, -1233026.1, 56050.504, 0.082688615, 0.03171315, -1121510.8, 104637.33, 0.0000000068048798, 10.000664, 9.999593 
1.3551052e+3, 1.8488285e+2, -1009911.7, -1147067.6, -34055.87, 0.06978767, 0.07543764, -1001921.1, 126229.87, 0.0, 10.001086, 9.999306 
1.3551058e+3, 1.9488256e+2, -944854.44, -1053778.3, -1274.5331, -0.05159129, 0.06769159, -944839.5, 85313.984, 0.0, 10.00081, 9.999406 
1.3551082e+3, 2.0488161e+2, -931981.8, -1084910.9, 4924.103, -0.04475581, 0.08155629, -931823.44, 339.4964, 0.0, 10.000624, 9.998596 
1.3551123e+3, 2.148797e+2, -836606.56, -974431.75, 2311.233, 0.101816155, -0.018415978, -836567.8, -2385.5896, 0.0, 10.000548, 9.998715 
1.3551149e+3, 2.2487877e+2, -663188.2, -726844.06, -40118.535, 0.123453066, -0.02253306, -643805.6, 92383.85, 0.0, 10.000589, 9.999728 
1.3551159e+3, 2.3487858e+2, -511705.06, -581993.7, 13666.2, 0.01908573, -0.06659111, -509141.44, 129045.305, 0.0, 10.000876, 9.999904 
1.3551179e+3, 2.4487764e+2, -565258.3, -844291.9, -4015.9885, 0.007948211, -0.015801633, -565200.5, -25003.273, 0.0, 10.001047, 9.997365 
1.3551208e+3, 2.548756e+2, -447518.56, -721039.56, -19024.514, 0.08379264, -0.004905338, -446201.7, -3977.2202, 0.0, 10.001125, 9.997497 
1.3551232e+3, 2.6487437e+2, -240736.11, -427925.5, -927.1322, 0.04223196, 0.06945089, -240731.53, 103506.66, 0.000000036385206, 10.001247, 9.998779 
1.3551253e+3, 2.7487355e+2, -109580.44, -300419.2, 37780.93, -0.108393796, 0.060675148, -102373.03, 143868.94, 0.0000068750182, 10.001414, 9.9989 
1.3551293e+3, 2.848718e+2, -64055.48, -403605.3, 12782.592, -0.050612252, 0.08076991, -63574.95, 84683.93, 0.00009120505, 10.001807, 9.997322 
1.3551353e+3, 2.9486892e+2, 112305.266, -253098.63, 30581.496, 0.21967405, 0.0041676657, 114847.016, 165137.27, 0.00041573873, 10.002284, 9.99745 
1.355137e+3, 3.0486795e+2, 246765.2, -83833.586, -9566.29, 0.111668035, 0.1383218, 247041.78, 247041.78, 0.001116627, 10.002555, 9.998151 
1.355137e+3, 3.1486666e+2, 272683.03, 54150.586, 72010.17, -0.13888592, 0.12632032, 294277.7, 294277.7, 0.0021578383, 10.002127, 9.999294 
1.3650846e+3, 1.2487903e+2, -1746685.9, -1667273.9, 144162.64, -0.03551349, -0.027003838, -1557449.1, 158733.63, 0.0076198755, 9.999407, 10.000598 
1.365092e+3, 1.348786e+2, -1831808.3, -1754483.8, 40351.637, 0.30657253, -0.065324165, -1737262.0, -119073.61, 0.004366158, 9.998639, 9.999694 
1.3650934e+3, 1.4487888e+2, -1675911.6, -1509650.5, 33391.152, 0.14606704, -0.051618952, -1503195.0, 16991.13, 0.0017823466, 9.9985075, 10.000742 
1.3650946e+3, 1.5488057e+2, -1377375.6, -1302735.0, -4621.405, -0.029890075, -0.010316664, -1302450.0, 119718.63, 0.0004035849, 9.999846, 10.000842 
1.365098e+3, 1.6488141e+2, -1321787.8, -1407350.3, 42948.15, -0.025310814, 0.07515756, -1303949.1, 20212.88, 0.000026350568, 10.000318, 9.999243 
1.365103e+3, 1.7488107e+2, -1268787.3, -1317830.4, 34837.633, 0.07970948, 0.073038585, -1250706.4, -24537.217, 0.000000016360648, 9.999972, 9.999343 
1.3651057e+3, 1.8488067e+2, -1147553.6, -1219593.3, -5601.2217, 0.06990097, 0.11497111, -1147120.8, -18946.486, 0.0, 10.000194, 9.999224 
1.3651069e+3, 1.9487993e+2, -910374.06, -1036267.9, -40439.625, -0.043968465, 0.066788144, -898503.3, 131676.8, 0.0, 10.0010805, 9.999374 
1.3651095e+3, 2.0487888e+2, -821477.56, -1020951.6, -9384.92, -0.0012310978, 0.06380911, -821037.0, 111152.59, 0.0, 10.001318, 9.998715 
1.365114e+3, 2.148772e+2, -780654.06, -934816.25, 5671.4634, 0.20574835, -0.023014378, -780445.7, 53759.965, 0.0, 10.000864, 9.998849 
1.3651164e+3, 2.248763e+2, -656569.0, -763110.0, 10542.494, 0.21894951, -0.014288382, -655535.8, 80677.17, 0.0, 10.000798, 9.99938 
1.3651168e+3, 2.348759e+2, -503909.16, -624930.06, -67562.445, 0.020785384, -0.0425243, -473721.22, 164493.17, 0.0, 10.001109, 9.999509 
1.3651188e+3, 2.4487488e+2, -493813.6, -783228.56, -51517.668, -0.020098992, 0.008697495, -484916.66, 55308.953, 0.0, 10.001431, 9.997592 
1.3651223e+3, 2.5487286e+2, -325032.06, -634168.6, -18144.947, 0.0895059, -0.00087252836, -323970.7, 118279.445, 0.0, 10.00185, 9.997739 
1.3651252e+3, 2.648713e+2, -160062.1, -441462.6, 47298.617, 0.08032025, 0.050218288, -152324.75, 191941.63, 0.000000033203506, 10.002038, 9.9983015 
1.3651276e+3, 2.7486983e+2, -42431.426, -316281.9, -24004.164, -0.05393436, 0.024852082, -40343.28, 205934.06, 0.0000069323874, 10.002092, 9.998457 
1.3651314e+3, 2.848679e+2, -56984.383, -387819.25, -37457.18, -0.00872389, 0.046242233, -52796.49, 95499.11, 0.00008948749, 10.001829, 9.99741 
1.3651371e+3, 2.948654e+2, -5771.1157, -291988.34, -51724.375, 0.23610157, -0.0069037625, 3289.5398, 53612.113, 0.00040625827, 10.001403, 9.9976015 
1.3651392e+3, 3.0486408e+2, 159779.72, -126992.64, -48909.79, 0.12773086, 0.08269135, 167891.94, 167891.94, 0.0010895476, 10.001964, 9.998158 
1.3651396e+3, 3.1486282e+2, 413035.3, 75204.086, -98040.4, -0.11856431, 0.094652504, 439425.63, 439425.63, 0.002106843, 10.003244, 9.998953 
1.3750857e+3, 1.2487522e+2, -1760308.4, -1692666.5, 32411.576, 0.028626231, -0.1176892, -1679643.4, 36574.11, 0.0079810945, 9.99941, 10.000405 
1.375088e+3, 1.3487637e+2, -1787415.3, -1669662.1, 17295.861, 0.0066809407, -0.05573113, -1667174.1, -48964.555, 0.0045821774, 9.998667, 10.000256 
1.3750932e+3, 1.4487757e+2, -1704212.6, -1580217.3, 51531.03, 0.20314589, 0.04321707, -1561597.5, -41398.04, 0.0018779465, 9.998553, 10.000241 
1.3750952e+3, 1.5487757e+2, -1416803.3, -1385532.5, 64727.883, -0.000009955093, -0.027826138, -1334578.4, 87620.38, 0.00043006244, 9.999843, 10.00028 
1.3750985e+3, 1.6487774e+2, -1300541.0, -1359579.6, 8341.111, -0.053688362, 0.0053755036, -1299385.3, 24812.854, 0.000029160963, 10.000296, 9.999585 
1.3751023e+3, 1.7487799e+2, -1243812.4, -1263636.3, 40524.24, -0.011621779, 0.022779208, -1212005.5, 14192.363, 0.000000027808229, 9.9999485, 9.999734 
1.3751054e+3, 1.8487756e+2, -1185814.6, -1286442.5, 7444.427, -0.023858516, 0.061350696, -1185266.9, -57063.67, 0.0, 10.000149, 9.998782 
1.375108e+3, 1.9487593e+2, -968068.3, -1121464.6, 6930.0713, -0.05210644, -0.025191585, -967755.8, 62463.273, 0.0, 10.000933, 9.998863 
1.375111e+3, 2.048752e+2, -786240.6, -901810.6, -44959.184, -0.0034667216, -0.012676454, -770810.6, 161413.84, 0.0, 10.001122, 9.999627 
1.3751143e+3, 2.1487519e+2, -753471.94, -820941.56, 6704.677, 0.1384915, -0.025428165, -752812.1, 81408.99, 0.0, 10.000616, 9.999753 
1.3751167e+3, 2.2487463e+2, -808732.3, -1007557.9, 3645.4824, 0.13282877, 0.04732842, -808665.5, -72437.766, 0.0, 10.000501, 9.997844 
1.3751177e+3, 2.3487315e+2, -658990.56, -874201.2, -35115.355, -0.027397664, 0.067427985, -653405.8, -15157.745, 0.0, 10.000811, 9.997933 
1.3751201e+3, 2.4487181e+2, -439406.4, -610480.1, -58529.41, -0.06481217, 0.10488504, -421298.47, 118963.37, 0.0, 10.001164, 9.998911 
1.3751237e+3, 2.5487047e+2, -265170.34, -454119.1, 14315.707, 0.028667523, 0.024293143, -264091.88, 178178.75, 0.0, 10.001609, 9.999093 
1.3751273e+3, 2.6486856e+2, -283112.16, -651143.9, 30529.85, 0.05763751, 0.039810568, -280596.78, 63691.367, 0.000000022673568, 10.001833, 9.99696 
1.3751306e+3, 2.748656e+2, -175710.05, -533360.94, -999.673, 0.020274768, -0.0039051755, -175707.25, 70612.164, 0.0000066245593, 10.001842, 9.997085 
1.3751338e+3, 2.8486305e+2, -61738.113, -362045.38, -73520.64, -0.00068748934, 0.011076477, -44705.027, 103639.29, 0.00008473701, 10.001661, 9.99767 
1.3751367e+3, 2.9486084e+2, -21647.438, -267745.44, -41026.645, 0.015937515, -0.041449364, -14988.143, 35375.406, 0.0003829078, 10.001151, 9.997892 
1.3751394e+3, 3.0485818e+2, 59373.645, -284896.16, -10289.258, -0.07264458, -0.052882075, 59680.89, 59680.89, 0.0010286879, 10.001753, 9.997162 
1.375143e+3, 3.1485593e+2, 262909.4, -97188.76, 24913.264, -0.16947198, -0.040406045, 264624.88, 264624.88, 0.0019990886, 10.002686, 9.998008 
1.3850865e+3, 1.2487336e+2, -1929258.4, -1788466.0, 37110.195, 0.25289184, -0.036679763, -1779283.4, -63046.156, 0.008351057, 9.99832, 10.00028 
1.3850872e+3, 1.3487414e+2, -1588715.4, -1562080.9, -11949.917, 0.0106751155, -0.01775129, -1557505.4, 60727.105, 0.004803759, 9.9999895, 10.000369 
1.3850926e+3, 1.448749e+2, -1506586.5, -1498292.9, 57779.17, 0.22689976, 0.040525313, -1444511.9, 75713.81, 0.0019753822, 9.999969, 10.000125 
1.3850951e+3, 1.5487464e+2, -1514167.5, -1441512.6, 59864.457, 0.05255252, -0.048523523, -1407815.5, 14411.106, 0.00045665295, 9.999224, 10.000193 
1.3850987e+3, 1.6487466e+2, -1440409.4, -1423824.6, 58718.332, -0.016232686, -0.024297256, -1372816.0, -48589.234, 0.00003186285, 9.999359, 9.999578 
1.3851021e+3, 1.7487489e+2, -1163204.3, -1221937.6, 19431.643, -0.03861461, -0.010999941, -1157357.4, 68869.63, 0.000000039188958, 10.000512, 9.999737 
1.3851057e+3, 1.8487443e+2, -1080921.1, -1227903.3, 20388.848, -0.028302964, 0.02110829, -1078145.3, 50086.805, 0.0, 10.000798, 9.998897 
1.3851094e+3, 1.9487298e+2, -1030263.25, -1131132.9, 37734.48, 0.028225143, -0.064501844, -1017709.5, 12535.614, 0.0, 10.000394, 9.999071 
1.3851127e+3, 2.0487224e+2, -901157.1, -1014129.4, -221.10785, 0.07680744, -0.038230546, -901156.7, 31094.57, 0.0, 10.00059, 9.9991045 
1.3851152e+3, 2.1487202e+2, -650992.7, -824847.5, -94205.46, 0.122735724, -0.020524938, -609736.44, 224516.42, 0.0, 10.001563, 9.99926 
1.3851175e+3, 2.248712e+2, -630920.8, -945430.1, -75736.695, 0.10107049, 0.05984093, -613633.0, 122630.24, 0.0, 10.001798, 9.997654 
1.385119e+3, 2.3486945e+2, -583000.75, -859317.94, -47718.113, 0.001954777, 0.07161529, -574992.25, 63293.82, 0.0, 10.0014, 9.997764 
1.3851216e+3, 2.448681e+2, -401295.44, -595983.2, -4350.3677, -0.020880012, 0.1166362, -401198.28, 139101.4, 0.0, 10.001441, 9.998873 
1.3851255e+3, 2.5486696e+2, -204519.8, -431755.94, -78106.27, 0.023350513, 0.059972852, -180262.36, 262043.69, 0.0, 10.002034, 9.999045 
1.3851295e+3, 2.6486483e+2, -233440.92, -633517.5, -54064.605, 0.077489555, 0.060204707, -226263.63, 118061.68, 0.0000000049794013, 10.002199, 9.996911 
1.3851337e+3, 2.7486137e+2, -150631.61, -528836.6, -29325.105, 0.1382604, -0.030485667, -148371.31, 97990.6, 0.0000064670485, 10.00202, 9.997044 
1.3851365e+3, 2.8485882e+2, 34012.977, -312331.6, -11766.582, 0.09912582, -0.011495253, 34412.27, 182798.53, 0.00007994395, 10.002296, 9.997723 
1.3851383e+3, 2.9485705e+2, 293619.9, -99310.61, -41281.914, -0.03338489, -0.02148831, 297910.22, 348310.3, 0.00035497686, 10.003242, 9.998047 
1.3851415e+3, 3.0485392e+2, 272922.4, -222271.36, 34971.758, -0.10510651, -0.0731855, 275380.0, 275380.0, 0.0009532209, 10.003385, 9.996806 
1.3851467e+3, 3.148511e+2, 215930.64, -130253.96, 54565.95, -0.040637385, -0.08296787, 224327.69, 224327.69, 0.0018633218, 10.002366, 9.997935 
1.3950844e+3, 1.2487191e+2, -1920782.6, -1772112.1, -98043.55, 0.12026935, 0.07484963, -1723409.8, -7152.9185, 0.008733579, 9.998341, 10.000375 
1.3950892e+3, 1.3487183e+2, -1611020.6, -1605292.9, 50946.51, 0.17728746, 0.032903165, -1557129.9, 61127.65, 0.005033633, 9.999983, 10.00007 
1.3950911e+3, 1.4487097e+2, -1485212.1, -1460054.8, -882.087, 0.038337585, -0.0666546, -1460023.9, 60239.945, 0.002076125, 9.999994, 10.000374 
1.3950938e+3, 1.5487175e+2, -1495530.9, -1400684.5, 48934.254, -0.041015375, -0.08004335, -1379964.3, 42287.85, 0.00048381835, 9.999215, 10.000476 
1.3950978e+3, 1.64872e+2, -1468899.5, -1485669.6, 75825.01, -0.08068331, -0.028353192, -1400997.4, -76747.54, 0.000034571214, 9.999372, 9.999149 
1.395102e+3, 1.7487144e+2, -1213736.1, -1303419.6, 75270.7, -0.12824722, -0.04273802, -1170962.4, 55297.195, 0.00000005013657, 10.000414, 9.999228 
1.3951062e+3, 1.8487126e+2, -1024238.8, -1096553.6, -19218.8, -0.10089121, -0.0024490973, -1019448.44, 108812.766, 0.0, 10.000738, 9.9998255 
1.3951103e+3, 1.9487117e+2, -987508.1, -1009706.3, 37307.52, 0.046258092, -0.044463318, -959683.7, 70573.22, 0.0, 10.000248, 9.999979 
1.3951136e+3, 2.0487006e+2, -1059326.5, -1303397.5, 15343.351, 0.08455943, -0.007493228, -1058365.8, -126096.69, 0.0, 10.00042, 9.997198 
1.395116e+3, 2.1486762e+2, -828608.7, -1131208.5, -41086.086, 0.011198052, -0.017999332, -823129.4, 11171.692, 0.0, 10.001298, 9.997282 
1.3951182e+3, 2.24866e+2, -580587.25, -787799.06, -106136.72, -0.03575589, 0.023117319, -535871.94, 200447.81, 0.0, 10.0015545, 9.998855 
1.3951203e+3, 2.3486501e+2, -530932.7, -696868.25, -40933.145, -0.036255952, -0.015874207, -521384.66, 116942.07, 0.0, 10.001158, 9.998997 
1.3951232e+3, 2.4486393e+2, -537531.25, -816375.56, -764.63074, -0.047924258, 0.060202517, -537529.1, 2808.194, 0.0, 10.001176, 9.997487 
1.3951269e+3, 2.548623e+2, -352310.38, -664451.06, -35065.805, -0.0622614, 0.10313161, -348419.6, 93936.29, 0.0, 10.001726, 9.997592 
1.3951312e+3, 2.6486018e+2, -190611.42, -489566.13, -77337.8, 0.0029974107, 0.118516795, -171789.6, 172587.61, 0.0000000011462398, 10.001957, 9.998019 
1.3951363e+3, 2.7485725e+2, -108105.836, -380890.78, -13325.81, 0.15922512, -0.034332234, -107456.41, 138946.95, 0.0000063015364, 10.001759, 9.998188 
1.3951395e+3, 2.8485534e+2, -18947.947, -361565.8, 4396.961, 0.12701519, 0.0045744223, -18891.53, 129528.44, 0.000075522126, 10.002041, 9.997503 
1.3951413e+3, 2.9485407e+2, 224296.22, -165603.72, 21965.094, -0.09379944, 0.065862425, 225529.72, 275961.6, 0.00033167924, 10.002916, 9.9977455 
1.3951449e+3, 3.0485123e+2, 253354.36, -199544.34, -20026.988, -0.13827418, 0.048346285, 254238.22, 254238.22, 0.0008929241, 10.003115, 9.997091 
1.3951497e+3, 3.1484884e+2, 190074.4, -45008.715, 71125.734, -0.031461753, 0.044228412, 209918.77, 209918.77, 0.0017527872, 10.001803, 9.998782 
1.4050837e+3, 1.2486842e+2, -1702181.0, -1676045.1, -46289.35, 0.14361721, 0.06323356, -1641014.5, 75278.04, 0.009133226, 9.999865, 10.000295 
1.4050895e+3, 1.3486828e+2, -1722700.0, -1695045.0, -19975.695, 0.2542006, 0.04383219, -1684577.9, -66284.16, 0.005275387, 9.999353, 9.999756 
1.40509e+3, 1.4486736e+2, -1596527.1, -1538608.3, -44152.535, -0.025462376, -0.039643064, -1514765.3, 5536.1924, 0.0021822979, 9.999343, 10.000151 
1.4050941e+3, 1.5486814e+2, -1317164.1, -1342820.8, -78055.5, 0.005022781, -0.027415752, -1250889.9, 171401.34, 0.00051218417, 10.000563, 10.000226 
1.4050983e+3, 1.6486827e+2, -1305702.8, -1398154.8, -19279.701, -0.0046196673, 0.022002002, -1301843.4, 22446.352, 0.000037386584, 10.00044, 9.999238 
1.4051023e+3, 1.7486757e+2, -1369263.0, -1357262.1, -14172.104, -0.08760753, -0.025453717, -1347872.5, -121573.72, 0.00000006103049, 9.999254, 9.999413 
1.4051063e+3, 1.8486743e+2, -1251271.3, -1186118.6, -54086.57, -0.060686983, 0.0013584716, -1155555.6, -27256.809, 0.0, 9.99911, 9.999987 
1.405111e+3, 1.948676e+2, -977430.6, -982606.94, -95748.766, 0.09914532, -0.03470062, -884235.0, 146057.31, 0.0, 10.000227, 10.00017 
1.4051147e+3, 2.0486665e+2, -1003549.75, -1266227.1, -29960.373, 0.13334899, 0.0033207037, -1000175.9, -67873.125, 0.0, 10.000754, 9.997301 
1.405117e+3, 2.1486427e+2, -879396.7, -1135906.3, 29512.787, 0.019980535, -0.011363404, -876044.9, -41711.242, 0.0, 10.000866, 9.997459 
1.4051194e+3, 2.2486265e+2, -667645.5, -846184.8, 13059.287, -0.028692083, 0.030293876, -666695.3, 69656.69, 0.0, 10.001052, 9.998688 
1.4051218e+3, 2.3486155e+2, -509461.6, -694480.94, -64939.344, -0.0011566445, -0.0047615166, -488944.0, 149416.0, 0.0, 10.001362, 9.998901 
1.405125e+3, 2.4486004e+2, -518009.8, -851140.94, 9011.729, 0.013853248, 0.049454823, -517766.2, 22609.0, 0.0, 10.001493, 9.997101 
1.405129e+3, 2.548577e+2, -412879.2, -729307.44, 17575.178, 0.004940492, 0.057102673, -411906.03, 30495.22, 0.0, 10.001472, 9.997265 
1.4051335e+3, 2.648556e+2, -209668.73, -467569.97, 22308.139, 0.050278038, 0.08061769, -207753.33, 136669.08, 0.0000000047036606, 10.001698, 9.998291 
1.4051381e+3, 2.7485365e+2, -17124.451, -298004.03, -26822.129, 0.15909143, 0.00043558623, -14586.056, 231853.08, 0.000006310061, 10.002242, 9.998513 
1.4051417e+3, 2.8485218e+2, 43070.14, -327484.78, 15954.389, 0.13128881, 0.058278248, 43755.797, 192208.11, 0.00007178299, 10.0024395, 9.997544 
1.4051443e+3, 2.9485044e+2, 113316.414, -220007.05, 17732.219, -0.035515632, 0.07371715, 114257.086, 164725.89, 0.0003184308, 10.002149, 9.997746 
1.4051482e+3, 3.0484793e+2, 134353.7, -227247.75, 8618.386, -0.050798036, 0.07797038, 134559.0, 134559.0, 0.00086333806, 10.002154, 9.997367 
1.4051521e+3, 3.1484568e+2, 337996.25, 98099.18, 14739.537, 0.01642054, 0.05417326, 338898.47, 338898.47, 0.0016972373, 10.002474, 9.999459 
1.4150828e+3, 1.2486362e+2, -1708011.5, -1696368.6, 113751.4, -0.005075877, -0.022845956, -1588289.9, 128047.49, 0.009556688, 9.999895, 10.000151 
1.4150874e+3, 1.3486363e+2, -1748014.5, -1741412.5, -33696.465, 0.08228764, 0.009216533, -1710855.8, -92515.336, 0.0055341963, 9.99933, 9.999453 
1.4150886e+3, 1.4486404e+2, -1638171.9, -1636854.6, -27064.191, -0.15152307, 0.105163984, -1610441.0, -90102.05, 0.0022969088, 9.999391, 9.999454 
1.4150955e+3, 1.5486377e+2, -1380236.5, -1468460.6, -16231.232, 0.04894703, 0.098010845, -1377345.1, 44998.72, 0.0005425403, 10.00054, 9.999376 
1.4150998e+3, 1.6486365e+2, -1244796.6, -1278841.5, -87717.055, 0.05202844, 0.12590735, -1172465.6, 151878.75, 0.000040406845, 10.000465, 10.000051 
1.415102e+3, 1.7486352e+2, -1322734.9, -1242572.5, -41212.45, -0.06795961, 0.0550948, -1225164.9, 1177.0383, 0.00000007226826, 9.999176, 10.000243 
1.4151059e+3, 1.8486317e+2, -1300238.9, -1273568.8, -33277.24, -0.06851284, 0.045943495, -1251054.1, -122711.13, 0.0, 9.999053, 9.999411 
1.4151111e+3, 1.9486222e+2, -1043460.44, -1089232.3, -38204.832, 0.048097428, -0.036629405, -1021811.3, 8540.197, 0.0, 10.000095, 9.999502 
1.4151151e+3, 2.0486192e+2, -876077.7, -964693.4, -50292.414, 0.072815195, -0.004428645, -853359.3, 78993.84, 0.0, 10.000588, 9.999452 
1.4151181e+3, 2.1486205e+2, -768781.9, -845585.0, 48847.793, 0.017375026, 0.012534689, -745048.25, 89302.414, 0.0, 10.000596, 9.999588 
1.4151208e+3, 2.2486113e+2, -808572.5, -1073019.1, 1792.2379, -0.021303214, 0.08538795, -808560.4, -72199.086, 0.0, 10.0007715, 9.997263 
1.4151232e+3, 2.348589e+2, -659446.2, -939559.7, -37053.848, -0.031382594, 0.09007605, -654627.5, -16239.61, 0.0, 10.001084, 9.997351 
1.4151268e+3, 2.4485639e+2, -501590.44, -768187.3, -7701.7686, -0.0050909496, 0.091407664, -501368.13, 39045.33, 0.0, 10.001275, 9.997775 
1.4151315e+3, 2.5485316e+2, -392268.78, -642289.1, 36447.305, 0.0647749, -0.06557149, -387063.94, 55377.652, 0.0, 10.001276, 9.997957 
1.4151356e+3, 2.6485115e+2, -283932.6, -571851.8, 21956.385, 0.06543266, -0.03499263, -282267.84, 62192.773, 0.000000079284355, 10.001483, 9.997678 
1.415139e+3, 2.7485034e+2, -104416.92, -417810.47, 18084.389, -0.010681106, 0.06252991, -103376.81, 143094.9, 0.000007370644, 10.001976, 9.997822 
1.4151426e+3, 2.848489e+2, 41439.707, -278557.34, -11664.993, -0.05729247, 0.14023629, 41864.37, 190350.64, 0.00007207351, 10.002212, 9.997988 
1.4151469e+3, 2.9484612e+2, 98281.1, -185100.58, 34068.02, -0.034124, -0.0012462963, 102319.2, 152830.67, 0.00031949472, 10.001855, 9.998132 
1.415151e+3, 3.0484387e+2, 94090.945, -233668.2, 9083.296, -0.0204157, 0.007699238, 94342.484, 94342.484, 0.00086619053, 10.001851, 9.997448 
1.4151533e+3, 3.1484172e+2, 270831.44, 98181.62, 76160.49, -0.18122175, -0.027238782, 299625.66, 299625.66, 0.0016971829, 10.001921, 9.9997 
1.4250815e+3, 1.2485826e+2, -1938528.6, -1784256.4, 113700.76, -0.035610136, -0.0345868, -1723995.9, -7605.2573, 0.010011913, 9.998253, 10.000331 
1.4250861e+3, 1.3485907e+2, -1734719.3, -1673499.0, -83263.29, 0.033987246, 0.034824442, -1615397.5, 2988.4893, 0.0058154534, 9.999197, 9.999975 
1.4250895e+3, 1.4486006e+2, -1589478.5, -1607129.0, 39389.406, 0.0034776598, 0.15855543, -1557937.8, -37558.496, 0.002423067, 9.999703, 9.999498 
1.4250956e+3, 1.5485951e+2, -1560343.4, -1553224.0, 63515.402, 0.097661085, 0.118907, -1493168.6, -70780.92, 0.00057589856, 9.999297, 9.999382 
1.4250997e+3, 1.6485932e+2, -1397823.6, -1326999.8, 23312.197, 0.06770921, 0.12880918, -1320015.1, 4373.036, 0.00004378684, 9.999298, 10.000275 
1.4251025e+3, 1.7485943e+2, -1164610.4, -1138303.4, -12884.0, 0.033444423, 0.05348953, -1133044.5, 93336.97, 0.00000008454083, 10.000126, 10.000495 
1.4251067e+3, 1.8485895e+2, -1132478.3, -1245945.4, 43951.47, 0.054401983, 0.040738013, -1117445.3, 10938.83, 0.0, 10.0004225, 9.998946 
1.4251116e+3, 1.9485767e+2, -1042464.8, -1134671.8, 16778.578, 0.087711476, -0.031166041, -1039506.56, -9108.071, 0.0, 10.000303, 9.999089 
1.4251156e+3, 2.0485741e+2, -902627.7, -929881.75, -26127.568, 0.090530485, 0.00425905, -886787.0, 45612.98, 0.0, 10.000195, 9.99988 
1.425119e+3, 2.1485783e+2, -788680.3, -807117.2, -92139.64, 0.07898695, 0.007808457, -705299.06, 129092.99, 0.0, 10.000225, 10.000038 
1.4251223e+3, 2.2485715e+2, -807796.94, -1074220.8, -86439.02, 0.055176087, 0.080127284, -782209.9, -45809.99, 0.0, 10.000776, 9.997264 
1.425125e+3, 2.3485512e+2, -522392.6, -872121.94, -51499.805, 0.008863908, 0.105643705, -514966.63, 123459.22, 0.0, 10.002007, 9.997385 
1.4251287e+3, 2.4485266e+2, -310459.4, -649495.2, 23359.338, 0.021430576, 0.10081874, -308857.53, 231593.11, 0.0, 10.002478, 9.998012 
1.4251335e+3, 2.548494e+2, -221959.3, -533372.3, -6733.914, 0.0942834, -0.08318981, -221813.75, 220663.92, 0.00000000006254562, 10.00232, 9.998208 
1.4251375e+3, 2.6484737e+2, -194979.67, -555302.94, 24375.469, 0.08846271, -0.057387542, -193338.19, 151158.69, 0.00000036239143, 10.002203, 9.99744 
1.425141e+3, 2.748466e+2, -92748.87, -433475.63, 13585.85, -0.0045742076, 0.067977734, -92208.016, 154300.58, 0.000010087366, 10.002143, 9.997629 
1.425145e+3, 2.8484508e+2, 29683.49, -295284.22, 15790.969, -0.03257893, 0.15027523, 30449.008, 178974.31, 0.00007872079, 10.002173, 9.997901 
1.4251496e+3, 2.9484215e+2, 190851.97, -145337.94, -36748.64, 0.04134771, 0.0022614182, 194822.06, 245375.48, 0.00033532444, 10.002511, 9.998088 
1.4251539e+3, 3.048403e+2, 198153.1, -192487.63, -40159.402, 0.07301671, 0.05473694, 202238.9, 202238.9, 0.00089838944, 10.002561, 9.997417 
1.4251554e+3, 3.1483755e+2, 270749.9, 72733.945, -50787.66, -0.15043649, -0.033192143, 283016.22, 283016.22, 0.0017503061, 10.001987, 9.999518 
1.4350806e+3, 1.2485257e+2, -1892174.9, -1719138.1, -60392.758, -0.04011589, 0.030069014, -1700144.9, 16305.346, 0.010506618, 9.998351, 10.00074 
1.4350848e+3, 1.3485485e+2, -1654167.6, -1504914.6, -13621.654, -0.043032937, 0.13391635, -1503681.6, 114746.516, 0.006123269, 9.999186, 10.001136 
1.4350924e+3, 1.4485554e+2, -1514065.3, -1465456.5, 5335.7456, 0.25516596, 0.113777325, -1464877.8, 55543.79, 0.002563054, 9.999759, 10.000452 
1.4350945e+3, 1.5485556e+2, -1507326.4, -1432914.5, 64701.855, -0.0011974332, 0.04510188, -1395483.9, 26937.111, 0.0006133788, 9.999249, 10.0002365 
1.4350976e+3, 1.6485547e+2, -1423923.6, -1379250.0, 27835.758, -0.123423375, 0.03913691, -1365897.0, -41477.0, 0.000047750204, 9.99929, 9.999921 
1.4351036e+3, 1.7485508e+2, -1198234.0, -1200977.4, 31964.59, 0.07219898, -0.043897077, -1167611.8, 58808.63, 0.00000010052836, 10.00009, 10.000088 
1.4351085e+3, 1.8485472e+2, -1156326.9, -1279027.4, 16081.775, 0.15141508, -0.013888827, -1154254.1, -25830.72, 0.0, 10.000356, 9.998749 
1.4351119e+3, 1.9485404e+2, -1081280.4, -1180052.5, 28298.174, 0.06744124, -0.005747144, -1073747.5, -43314.617, 0.0, 10.000152, 9.998851 
1.4351155e+3, 2.0485315e+2, -1009096.3, -1112417.9, -46772.477, 0.020128485, 0.034749866, -991068.5, -58625.58, 0.0, 10.000024, 9.998709 
1.4351194e+3, 2.1485174e+2, -913003.7, -1008589.75, -72416.62, 0.053307623, -0.02671241, -874030.7, -39573.727, 0.0, 9.999975, 9.9987755 
1.4351232e+3, 2.2485085e+2, -753817.2, -892242.9, -58447.875, 0.041014645, 0.025079388, -732439.9, 4026.2588, 0.0, 10.000487, 9.998645 
1.435127e+3, 2.3485033e+2, -470182.03, -686977.4, 14249.809, -0.019739928, 0.05739847, -469249.4, 169222.95, 0.0, 10.001691, 9.998801 
1.4351307e+3, 2.4484886e+2, -363886.9, -695962.6, -3573.3953, -0.05314046, 0.08894065, -363848.44, 176638.16, 0.0, 10.002193, 9.997833 
1.4351347e+3, 2.548462e+2, -284298.72, -590327.4, 6844.5815, -0.045050573, -0.014145002, -284145.72, 158365.72, 0.000000006122379, 10.002011, 9.997966 
1.4351389e+3, 2.6484415e+2, -210452.0, -536638.06, 5226.908, -0.025512883, 0.010260056, -210368.27, 134163.2, 0.0000008787704, 10.001976, 9.9976845 
1.4351435e+3, 2.748425e+2, -110690.37, -418741.63, 33758.574, 0.016396845, 0.024377761, -107034.24, 139515.13, 0.000014147242, 10.001915, 9.997849 
1.4351481e+3, 2.848407e+2, -50493.895, -411253.72, 9587.393, 0.031184457, 0.10144379, -50239.285, 98330.19, 0.000090681104, 10.001954, 9.997208 
1.4351523e+3, 2.9483828e+2, 86533.33, -293363.34, 4012.3376, 0.019890968, 0.07594521, 86575.695, 137172.39, 0.0003649261, 10.002206, 9.997224 
1.4351566e+3, 3.0483705e+2, 164807.53, -191137.28, -76082.6, 0.050081998, 0.23273169, 180388.06, 180388.06, 0.000963626, 10.002285, 9.997546 
1.4351575e+3, 3.148334e+2, 169178.44, -16974.107, -20913.775, -0.19579385, 0.03665973, 171499.13, 171499.13, 0.0018674937, 10.001481, 9.999144 
1.4450806e+3, 1.2484749e+2, -1740900.9, -1642915.8, 1770.4963, 0.095436655, 0.039826628, -1642883.8, 73617.17, 0.011047917, 9.999334, 10.000801 
1.4450842e+3, 1.3485019e+2, -1718187.8, -1505138.3, 17594.336, 0.024326239, 0.14680961, -1503695.1, 114778.15, 0.00646129, 9.998585, 10.001427 
1.4450915e+3, 1.4485034e+2, -1701189.8, -1514642.1, 6053.693, 0.27730575, 0.04564112, -1514445.9, 6024.8345, 0.0027186894, 9.998321, 10.000791 
1.4450939e+3, 1.5485097e+2, -1551633.6, -1408795.8, -25873.717, 0.045852948, -0.0026737086, -1404253.4, 18210.297, 0.0006559602, 9.998755, 10.000638 
1.4450975e+3, 1.6485125e+2, -1457687.9, -1423370.4, -1439.6891, -0.05344788, 0.021138376, -1423310.0, -98850.055, 0.000052490832, 9.99919, 9.999668 
1.445104e+3, 1.7485097e+2, -1219576.0, -1233528.0, -22037.408, 0.121605895, -0.02763525, -1203436.8, 23024.752, 0.00000012546444, 10.000057, 9.999874 
1.4451092e+3, 1.8485071e+2, -1144124.9, -1274064.3, -19981.475, 0.2053012, 0.022220295, -1141121.6, -12656.771, 0.0, 10.00043, 9.9987545 
1.445113e+3, 1.9485016e+2, -1047616.75, -1155986.1, -28419.52, 0.1433888, 0.041500714, -1040616.06, -10143.331, 0.0, 10.000348, 9.998918 
1.4451164e+3, 2.0484911e+2, -965116.44, -1117114.4, -13930.741, 0.09296483, 0.07347911, -963850.25, -31365.432, 0.0, 10.000456, 9.998466 
1.44512e+3, 2.148472e+2, -799596.6, -970998.8, -10089.879, 0.08282464, -0.009777446, -799004.75, 35499.184, 0.0, 10.000856, 9.998601 
1.4451241e+3, 2.2484617e+2, -657860.56, -817920.94, 55433.33, 0.071510404, 0.021778002, -640537.3, 95977.086, 0.0, 10.001009, 9.998913 
1.4451289e+3, 2.348457e+2, -560912.44, -698297.1, 11201.924, 0.05141233, 0.029817514, -560005.0, 78513.91, 0.0, 10.00091, 9.999104 
1.4451328e+3, 2.4484473e+2, -533178.06, -762684.25, -15539.092, 0.005924131, 0.088583395, -532130.75, 8398.049, 0.0, 10.000974, 9.997957 
1.4451359e+3, 2.5484297e+2, -366535.97, -617824.56, -19133.133, -0.065587595, 0.064150915, -365087.53, 77459.69, 0.000000012932129, 10.001374, 9.99809 
1.4451407e+3, 2.6484117e+2, -214780.31, -519831.84, 36755.06, -0.043109905, 0.09691107, -210414.25, 134150.97, 0.0000016431604, 10.001867, 9.997851 
1.4451464e+3, 2.7483904e+2, 8119.5425, -338407.3, 15616.62, 0.07954876, 0.048936993, 8821.899, 255407.34, 0.000019343763, 10.002632, 9.99805 
1.445151e+3, 2.8483698e+2, 79071.63, -351388.66, 41893.29, 0.095373325, 0.08672396, 83110.87, 231718.05, 0.000107424436, 10.002869, 9.9971695 
1.4451545e+3, 2.9483467e+2, 126773.9, -268496.16, 50625.816, 0.012493523, 0.07958336, 133154.98, 183787.22, 0.00041044338, 10.00248, 9.997245 
1.4451589e+3, 3.048337e+2, 232957.52, -170928.31, 55279.547, 0.042378645, 0.26367295, 240386.92, 240386.92, 0.0010681947, 10.002797, 9.99745 
1.445161e+3, 3.1483057e+2, 464506.5, 69006.77, -8039.215, -0.10759161, 0.12581676, 464669.84, 464669.84, 0.0020588713, 10.003768, 9.998626 
1.4550802e+3, 1.24843374e+2, -1745503.6, -1675261.8, -70428.34, 0.021454819, -0.009106744, -1631683.1, 84856.09, 0.011640448, 9.999435, 10.000531 
1.4550841e+3, 1.3484523e+2, -1773709.8, -1603782.6, 11265.084, 0.113999285, 0.066091366, -1603039.1, 15480.37, 0.0068325973, 9.998518, 10.000782 
1.4550863e+3, 1.448447e+2, -1724791.1, -1568908.8, 2478.951, -0.13624017, -0.041534614, -1568869.4, -48344.72, 0.0028915813, 9.998342, 10.000406 
1.4550933e+3, 1.5484568e+2, -1567318.1, -1436688.3, 5965.356, 0.07262361, -0.03392145, -1436416.4, -13900.415, 0.00070428615, 9.998737, 10.000453 
1.4550987e+3, 1.6484667e+2, -1453796.8, -1425127.6, 4196.284, 0.116193786, 0.071468174, -1424526.0, -100018.54, 0.000058062662, 9.99923, 9.999639 
1.4551036e+3, 1.7484717e+2, -1234653.3, -1247961.6, 28521.658, 0.043376617, 0.104554184, -1212019.9, 14484.163, 0.00000016567238, 9.999989, 9.999809 
1.4551088e+3, 1.8484698e+2, -1132051.8, -1238743.9, -42482.14, 0.06385949, 0.15268566, -1117203.0, 11304.233, 0.0, 10.000379, 9.999028 
1.4551137e+3, 1.94846e+2, -1049676.5, -1131970.4, -14502.366, 0.17113988, 0.10539038, -1047195.6, -16677.14, 0.0, 10.000216, 9.999157 
1.4551176e+3, 2.0484516e+2, -951408.7, -1038395.4, -19671.357, 0.15298547, 0.1169147, -947167.0, -14640.356, 0.0, 10.000251, 9.9991 
1.4551204e+3, 2.1484412e+2, -795891.56, -897340.56, 22293.836, 0.023356043, 0.050910216, -791208.56, 43326.477, 0.0, 10.000581, 9.999237 
1.4551246e+3, 2.2484289e+2, -742365.2, -929385.06, 31591.164, -0.0065344283, 0.06181199, -737173.0, -625.83203, 0.0, 10.000733, 9.99828 
1.4551303e+3, 2.3484127e+2, -657747.8, -822781.4, 27462.271, 0.0707533, 0.024884773, -653297.94, -14732.685, 0.0, 10.000589, 9.998401 
1.4551345e+3, 2.4484035e+2, -543796.5, -724656.0, -16781.232, 0.0326184, 0.10391518, -542252.6, -1675.9401, 0.0, 10.000706, 9.998351 
1.4551371e+3, 2.5483984e+2, -372391.47, -576092.25, 17176.299, -0.11449965, 0.16496505, -370953.3, 71630.58, 0.000000017460069, 10.001139, 9.998494 
1.4551419e+3, 2.6483852e+2, -243913.3, -527093.6, 47322.09, -0.12444309, 0.22294895, -236214.64, 108382.26, 0.000002726617, 10.0016365, 9.9979105 
1.4551488e+3, 2.748361e+2, -33619.344, -355357.22, 65778.22, 0.02009082, 0.13304998, -20690.73, 225928.05, 0.000025176965, 10.002339, 9.998068 
1.4551534e+3, 2.848337e+2, 89124.55, -261832.28, 7584.219, 0.009742299, 0.10769846, 89288.37, 237928.25, 0.00012773158, 10.002578, 9.997924 
1.4551558e+3, 2.9483128e+2, 144232.38, -169222.77, 60793.254, -0.15321788, 0.004341563, 155609.98, 206271.67, 0.00046832126, 10.002205, 9.998063 
1.4551604e+3, 3.0483022e+2, 163475.3, -253439.17, 74970.44, -0.1133686, 0.1619764, 176546.8, 176546.8, 0.0012042039, 10.002533, 9.997009 
1.4551646e+3, 3.1482854e+2, 313743.78, -133607.52, 71512.26, -0.18154491, 0.22055516, 324897.44, 324897.44, 0.0023127608, 10.003288, 9.997466 
1.4650786e+3, 1.2483855e+2, -1979942.5, -1821993.3, -20169.127, 0.011983859, -0.0028956227, -1819458.4, -102872.52, 0.012283002, 9.997996, 10.000207 
1.4650835e+3, 1.3483967e+2, -1782922.3, -1606188.1, -90890.24, 0.21678966, -0.003993155, -1567788.5, 50785.93, 0.00723705, 9.998458, 10.00079 
1.4650849e+3, 1.4484034e+2, -1765597.9, -1601034.9, 27605.36, -0.09522993, 0.019694822, -1596527.5, -75959.516, 0.0030819494, 9.998091, 10.000322 
1.4650926e+3, 1.54841e+2, -1562664.5, -1422829.0, 12175.629, 0.14229552, -0.0143019, -1421776.8, 785.55536, 0.0007585455, 9.998701, 10.000574 
1.4650989e+3, 1.648418e+2, -1445708.1, -1425865.4, 73723.734, 0.20872071, 0.064226516, -1361398.5, -36842.652, 0.00006440502, 9.999291, 9.999604 
1.4651038e+3, 1.7484218e+2, -1228524.6, -1251545.0, 59232.047, 0.06413258, 0.09088583, -1179694.9, 46859.355, 0.00000022299002, 10.000035, 9.999766 
1.465109e+3, 1.8484215e+2, -1147083.4, -1215222.9, -8361.687, 0.07711406, 0.14587034, -1146072.3, -17515.846, 0.0, 10.000184, 9.999259 
1.4651147e+3, 1.9484162e+2, -1056283.6, -1101399.0, -22494.002, 0.25099704, 0.11513749, -1046985.0, -16421.6, 0.0, 10.000051, 9.999428 
1.4651187e+3, 2.0484115e+2, -940857.7, -1019164.7, 18553.648, 0.237281, 0.14341307, -936684.1, -4115.8755, 0.0, 10.000252, 9.999238 
1.4651212e+3, 2.1484047e+2, -731740.4, -845208.7, -5594.7656, 0.029588612, 0.09927429, -731465.2, 103108.25, 0.0, 10.000931, 9.999425 
1.4651255e+3, 2.2483946e+2, -670444.9, -906196.75, 20606.52, -0.015460302, 0.1270895, -668657.25, 67926.59, 0.0, 10.001277, 9.998173 
1.4651315e+3, 2.3483782e+2, -546654.94, -781433.94, 15523.498, 0.11046543, 0.09605799, -545633.0, 92969.734, 0.0, 10.001388, 9.9983015 
1.465136e+3, 2.4483669e+2, -435521.66, -685737.9, 26862.652, 0.09538609, 0.16647625, -432670.22, 107946.09, 0.0, 10.001513, 9.998231 
1.465139e+3, 2.548359e+2, -288309.03, -540572.2, -16060.579, -0.07751163, 0.21332349, -287290.63, 155335.42, 0.000000044837254, 10.001758, 9.99843 
1.4651439e+3, 2.6483446e+2, -205366.92, -500832.72, 32550.645, -0.0950465, 0.25787193, -201823.4, 142816.73, 0.0000038968087, 10.001864, 9.997986 
1.4651512e+3, 2.74832e+2, -96867.38, -379638.5, 20312.348, 0.05541808, 0.16241492, -95415.734, 151246.13, 0.000030518888, 10.001855, 9.998146 
1.4651561e+3, 2.8482968e+2, 36868.52, -278939.13, -24303.857, 0.043615635, 0.13347977, 38727.945, 187409.88, 0.00014669458, 10.002176, 9.998004 
1.4651583e+3, 2.9482752e+2, 250637.69, -105059.88, -82440.68, -0.13215636, 0.053748183, 268816.06, 319516.03, 0.0005255453, 10.0028925, 9.998168 
1.4651635e+3, 3.048257e+2, 305675.5, -209876.73, -24482.613, -0.09600325, 0.13793723, 306835.53, 306835.53, 0.0013467413, 10.003636, 9.9967575 
1.4651692e+3, 3.148239e+2, 407570.2, -129268.5, -84256.766, -0.07419045, 0.21691361, 420483.66, 420483.66, 0.0025879922, 10.00411, 9.99709 
1.475077e+3, 1.2483297e+2, -1995002.8, -1865065.9, 172922.14, -0.046317372, 0.08100836, -1745310.3, -28668.809, 0.012969953, 9.99807, 9.999856 
1.4750813e+3, 1.3483338e+2, -1742736.3, -1513242.3, -95383.05, 0.115696646, -0.060869545, -1478775.4, 139864.16, 0.0076708426, 9.998428, 10.001435 
1.4750868e+3, 1.448372e+2, -1715434.0, -1527931.0, 11735.158, 0.22462785, 0.22396858, -1527199.4, -6597.721, 0.0032881629, 9.998204, 10.000778 
1.4750913e+3, 1.5483698e+2, -1535899.8, -1363282.8, 50131.61, 0.107417084, 0.059577394, -1349779.8, 72821.87, 0.00081847684, 9.998679, 10.0009985 
1.4750971e+3, 1.6483672e+2, -1439046.4, -1420729.4, 79835.51, 0.049630113, 0.009334564, -1349528.8, -24924.994, 0.000071419374, 9.999323, 9.999623 
1.4751038e+3, 1.7483623e+2, -1242131.0, -1259914.6, 102523.94, 0.030913165, -0.052919935, -1148114.0, 78496.08, 0.0000002932695, 9.999956, 9.999742 
1.4751098e+3, 1.848364e+2, -1139122.8, -1196453.4, -35537.625, 0.085890435, 0.017055668, -1122130.4, 6480.367, 0.0, 10.000159, 9.999406 
1.4751148e+3, 1.9483694e+2, -1061516.9, -1087263.5, -10911.26, 0.23338133, 0.076968625, -1057514.8, -26906.41, 0.0, 9.999934, 9.999586 
1.4751188e+3, 2.0483701e+2, -979603.3, -1061225.3, 20149.531, 0.1838766, 0.16080563, -974900.1, -42289.9, 0.0, 10.000085, 9.999025 
1.4751215e+3, 2.1483637e+2, -788236.06, -900571.7, 34528.12, -0.05913973, 0.14315496, -778472.0, 56146.094, 0.0, 10.0006695, 9.999167 
1.4751261e+3, 2.2483592e+2, -681711.5, -873927.7, 4167.043, -0.11243391, 0.22275761, -681621.2, 55002.977, 0.0, 10.001021, 9.998527 
1.4751323e+3, 2.3483528e+2, -553641.4, -743799.8, 37120.96, 0.02878262, 0.25342914, -546651.9, 91979.86, 0.0, 10.001155, 9.998679 
1.4751372e+3, 2.4483375e+2, -511223.28, -787022.75, 13502.705, 0.028793667, 0.29326177, -510563.8, 30084.057, 0.0, 10.001273, 9.997649 
1.4751406e+3, 2.5483105e+2, -371862.53, -652454.5, 10273.411, -0.10893701, 0.20677033, -371486.9, 71188.51, 0.000000082863835, 10.001492, 9.997791 
1.4751458e+3, 2.648289e+2, -233191.23, -497180.88, 17570.93, -0.11403633, 0.20401996, -232026.88, 112669.53, 0.0000048986644, 10.001597, 9.9981365 
1.475153e+3, 2.748269e+2, -122699.25, -370054.7, 47693.836, 0.02365484, 0.13240896, -113821.77, 132892.33, 0.00003489947, 10.001588, 9.998333 
1.4751582e+3, 2.8482503e+2, -62050.344, -424214.9, -17501.227, 0.01782896, 0.1809432, -61206.582, 87524.836, 0.00016199093, 10.001914, 9.997132 
1.4751618e+3, 2.948232e+2, 145607.38, -253073.86, -30653.664, -0.12747447, 0.21837813, 147950.48, 198699.22, 0.0005774686, 10.002589, 9.997294 
1.4751676e+3, 3.0481982e+2, 262154.9, -226685.9, -20652.977, -0.09241026, 0.189886, 263025.94, 263025.94, 0.0014808617, 10.003318, 9.996793 
1.4751735e+3, 3.1481636e+2, 358388.72, -103290.836, -8975.412, -0.12332052, 0.08789507, 358563.13, 358563.13, 0.0028432787, 10.003566, 9.997527 
1.485077e+3, 1.2482742e+2, -2102459.3, -1942240.9, 238471.78, 0.20744872, 0.14654799, -1770782.5, -54086.137, 0.013700781, 9.997424, 9.999647 
1.485079e+3, 1.3482666e+2, -1608065.4, -1431790.0, -116378.13, 0.021155009, -0.12266061, -1373941.0, 244766.06, 0.00813248, 9.99923, 10.001634 
1.4850876e+3, 1.4483199e+2, -1528310.3, -1430601.1, -18056.24, 0.42807713, 0.2969709, -1427371.1, 93284.77, 0.0035089266, 9.999502, 10.000804 
1.4850907e+3, 1.5483156e+2, -1459539.1, -1321630.4, -55354.26, 0.1646989, 0.11126763, -1302160.8, 120497.984, 0.0008836724, 9.999207, 10.001016 
1.4850959e+3, 1.6483139e+2, -1482999.9, -1376579.9, 23124.78, 0.044823237, 0.04523615, -1371772.1, -47112.688, 0.00007901186, 9.998791, 10.000169 
1.4851032e+3, 1.748314e+2, -1391911.9, -1265550.5, 43332.16, 0.053909536, -0.020500695, -1252118.8, -25459.525, 0.00000037325287, 9.998676, 10.000315 
1.4851095e+3, 1.8483177e+2, -1277017.3, -1242234.9, -19730.736, 0.114154525, 0.031707086, -1233324.9, -104668.24, 0.0, 9.999108, 9.999606 
1.4851147e+3, 1.9483231e+2, -982209.06, -1023559.3, -29484.574, 0.21252018, 0.06924829, -966873.06, 63780.73, 0.0, 10.000363, 9.99982 
1.485119e+3, 2.048324e+2, -866449.8, -1029459.44, 31409.52, 0.15862119, 0.15473843, -860607.06, 72048.7, 0.0, 10.000971, 9.998815 
1.4851223e+3, 2.1483183e+2, -763490.56, -910156.8, 7496.5713, -0.046656266, 0.16618544, -763108.4, 71556.11, 0.0, 10.000929, 9.99898 
1.4851275e+3, 2.2483128e+2, -659751.75, -860145.25, 11770.436, -0.0731559, 0.24483286, -659062.75, 77609.01, 0.0, 10.001176, 9.998535 
1.4851342e+3, 2.3483056e+2, -442194.47, -686898.4, -20481.111, 0.06540288, 0.268203, -440492.1, 198187.33, 0.0, 10.001921, 9.998694 
1.4851394e+3, 2.4482884e+2, -366155.0, -714189.9, -15343.073, 0.07838848, 0.28629094, -365479.9, 175216.63, 0.0, 10.002251, 9.9976845 
1.485143e+3, 2.548259e+2, -277442.66, -600071.44, -11256.204, -0.033262182, 0.17411174, -277050.4, 165675.05, 0.00000011463164, 10.002112, 9.997851 
1.4851482e+3, 2.6482382e+2, -180641.48, -482770.56, 41987.035, -0.049377862, 0.18236765, -174915.06, 169830.95, 0.000005857849, 10.002024, 9.99802 
1.4851546e+3, 2.748223e+2, -66811.95, -357038.6, -1398.4994, 0.023612417, 0.17420402, -66805.21, 179955.7, 0.000039275426, 10.002048, 9.998196 
1.4851604e+3, 2.8482053e+2, 3659.6516, -392893.84, 20768.18, 0.031369757, 0.23952048, 4744.3496, 153522.45, 0.00017769585, 10.002362, 9.997135 
1.4851655e+3, 2.9481834e+2, 200168.33, -229936.13, 30260.92, -0.012562582, 0.24650356, 202286.97, 253085.72, 0.00063044037, 10.002957, 9.997293 
1.4851716e+3, 3.0481458e+2, 265283.97, -204053.28, 102001.72, -0.0014221603, 0.16952008, 286493.66, 286493.66, 0.0016053733, 10.003213, 9.997021 
1.4851768e+3, 3.1481144e+2, 309908.53, -48556.63, 29733.17, -0.0966258, 0.08137385, 312358.03, 312358.03, 0.0030593355, 10.00287, 9.998246 
1.4950752e+3, 1.24821156e+2, -2046311.0, -1863549.6, -94669.52, 0.17553799, 0.124302655, -1823352.4, -106594.664, 0.014485426, 9.997574, 10.000114 
1.4950761e+3, 1.3482022e+2, -1632766.9, -1464493.0, -36676.477, -0.22960925, -0.14447576, -1456846.6, 161924.38, 0.008627366, 9.999167, 10.001428 
1.4950867e+3, 1.4482506e+2, -1533781.1, -1483892.8, -59925.234, 0.32616937, 0.253595, -1443927.5, 76799.6, 0.0037456865, 9.999656, 10.000375 
1.4950903e+3, 1.5482496e+2, -1499112.1, -1407746.8, -50370.48, 0.15247828, 0.15507694, -1385428.8, 37302.395, 0.0009542572, 9.99921, 10.000432 
1.495095e+3, 1.6482596e+2, -1396986.8, -1218947.9, -5720.347, 0.013187299, 0.18495889, -1218764.3, 105957.13, 0.00008722728, 9.99887, 10.001213 
1.4951017e+3, 1.7482762e+2, -1324646.4, -1115906.8, 53435.65, -0.006749431, 0.17750473, -1103022.9, 123679.29, 0.0000004647829, 9.998634, 10.00136 
1.4951079e+3, 1.8482831e+2, -1257883.0, -1202794.0, 3785.9717, -0.000927331, 0.19293278, -1202535.1, -73841.19, 0.0, 9.999103, 9.999885 
1.4951137e+3, 1.948278e+2, -988214.94, -1002032.1, 30877.102, 0.030221263, 0.10061187, -963483.0, 67216.07, 0.0, 10.000218, 10.000038 
1.4951187e+3, 2.0482741e+2, -903682.4, -1066002.5, 9189.396, 0.0036760923, 0.13576886, -903163.8, 29540.389, 0.0, 10.000791, 9.998652 
1.4951234e+3, 2.1482688e+2, -811544.94, -952639.3, 21331.783, -0.06277605, 0.16764049, -808390.4, 26321.83, 0.0, 10.000687, 9.998801 
1.4951293e+3, 2.248257e+2, -724880.0, -937548.56, 18166.186, -0.043030728, 0.21062243, -723339.4, 13386.023, 0.0, 10.000916, 9.9981365 
1.4951363e+3, 2.3482363e+2, -509491.4, -762882.94, 25769.666, 0.06647867, 0.13628066, -506897.22, 131848.69, 0.0, 10.001644, 9.998307 
1.495142e+3, 2.44822e+2, -366526.2, -645683.94, -34410.234, 0.08024027, 0.15308848, -362347.2, 178414.5, 0.0, 10.00195, 9.998299 
1.4951459e+3, 2.5482047e+2, -272299.8, -530902.25, 5807.8813, 0.0016376722, 0.11593933, -272169.44, 170606.69, 0.00000015644366, 10.001854, 9.998455 
1.4951505e+3, 2.6481918e+2, -262443.66, -583710.06, 23536.584, -0.05784914, 0.20174503, -260728.47, 84061.36, 0.000006865855, 10.001737, 9.99746 
1.4951557e+3, 2.74818e+2, -149662.75, -461447.72, 21547.246, -0.103486605, 0.2833452, -148180.69, 98624.02, 0.00004412461, 10.001773, 9.997606 
1.495162e+3, 2.8481597e+2, 26216.055, -286677.8, 24065.445, -0.08709231, 0.31470728, 28056.166, 176880.25, 0.00019465707, 10.002099, 9.9979925 
1.4951693e+3, 2.9481286e+2, 220082.66, -119896.26, 83879.88, 0.022986036, 0.134632, 239651.23, 290502.03, 0.00068079715, 10.002654, 9.9981985 
1.495175e+3, 3.048099e+2, 223064.42, -203138.17, 73413.93, -0.01548657, 0.08333743, 235355.61, 235355.61, 0.0017061009, 10.002853, 9.99719 
1.495178e+3, 3.1480888e+2, 276105.1, 1313.5261, 71425.83, -0.3269678, 0.18735386, 293561.66, 293561.66, 0.003210883, 10.002366, 9.998829 
1.5050733e+3, 1.24815635e+2, -1955091.3, -1757203.6, -120147.72, 0.24201111, 0.113607034, -1700502.5, 16311.488, 0.015336173, 9.997936, 10.00068 
1.5050752e+3, 1.3481563e+2, -1769610.4, -1550979.3, 34965.098, -0.16602318, -0.048331134, -1545523.5, 73293.43, 0.0091627855, 9.998302, 10.001258 
1.505085e+3, 1.4481878e+2, -1703769.8, -1576740.1, 24794.486, 0.25575364, 0.19722039, -1572072.1, -51283.086, 0.0040015904, 9.998563, 10.0002575 
1.5050894e+3, 1.5481919e+2, -1520053.6, -1422842.9, 20498.037, 0.15933898, 0.15824495, -1418697.5, 4091.183, 0.001031135, 9.999106, 10.000373 
1.5050942e+3, 1.6482042e+2, -1358481.8, -1222184.4, 76329.305, 0.054674968, 0.22163002, -1188008.1, 136769.36, 0.000096309515, 9.999197, 10.001047 
1.5051009e+3, 1.7482197e+2, -1245019.1, -1089162.0, 8950.742, 0.0324704, 0.21735643, -1088649.6, 138110.34, 0.000000575819, 9.9992075, 10.00127 
1.5051074e+3, 1.8482268e+2, -1211557.9, -1162440.8, -12061.236, 0.036761258, 0.22989179, -1159638.9, -30887.137, 0.0, 9.999362, 10.00002 
1.5051135e+3, 1.9482227e+2, -1010447.25, -994456.8, -27917.736, 0.021747924, 0.1336369, -973412.0, 57343.063, 0.0, 9.999991, 10.000189 
1.5051192e+3, 2.0482184e+2, -935962.44, -1074319.1, -28886.08, -0.004535974, 0.15347071, -930173.75, 2586.057, 0.0, 10.000552, 9.998706 
1.5051246e+3, 2.1482119e+2, -735954.5, -911859.2, -43002.27, -0.037490252, 0.16878863, -726004.8, 108763.79, 0.0, 10.001192, 9.998837 
1.5051307e+3, 2.2481987e+2, -648780.4, -870225.9, 17676.117, -0.0005351503, 0.18759236, -647378.3, 89403.586, 0.0, 10.001324, 9.998393 
1.5051378e+3, 2.3481771e+2, -598358.75, -776703.1, 30716.307, 0.09630992, 0.0790461, -593216.75, 45585.035, 0.0, 10.000914, 9.99856 
1.5051436e+3, 2.448163e+2, -481931.34, -691083.7, 19167.29, 0.11414075, 0.09965574, -480189.3, 60626.09, 0.0, 10.001127, 9.998377 
1.5051481e+3, 2.5481537e+2, -232321.47, -501331.3, -23743.52, 0.036269937, 0.11869612, -230241.89, 212582.81, 0.00000020302433, 10.002096, 9.998533 
1.5051529e+3, 2.6481414e+2, -118510.41, -506970.8, 25444.17, -0.031462796, 0.19986972, -116850.9, 227986.92, 0.0000077496, 10.002683, 9.9975395 
1.5051581e+3, 2.748123e+2, 17745.6, -375967.25, 36895.867, -0.089506134, 0.21129373, 21173.365, 268030.5, 0.000048509926, 10.00287, 9.997683 
1.5051644e+3, 2.8481027e+2, 114561.67, -244419.75, 74548.28, -0.068068184, 0.23868519, 129427.24, 278304.56, 0.00020995413, 10.002725, 9.9979725 
1.5051718e+3, 2.9480794e+2, 180311.94, -132498.11, 7110.0264, 0.051885802, 0.13766089, 180473.47, 231373.16, 0.00072207913, 10.002395, 9.998206 
1.5051779e+3, 3.0480576e+2, 224696.42, -177815.31, 17555.72, 0.015714545, 0.14684962, 225460.67, 225460.67, 0.0017713133, 10.002733, 9.99744 
1.505182e+3, 3.1480396e+2, 434437.56, 124930.984, -40554.42, -0.21201001, 0.16296448, 439663.16, 439663.16, 0.0032800343, 10.003229, 9.999289 
1.5150711e+3, 1.2481116e+2, -1873218.1, -1645361.1, -107160.86, 0.11178339, 0.10182095, -1602882.6, 113979.24, 0.016257107, 9.998169, 10.001354 
1.5150765e+3, 1.3481319e+2, -1811958.6, -1615350.5, 78569.66, 0.071597695, 0.17059506, -1587809.9, 31032.104, 0.009740974, 9.998227, 10.000843 
1.5150817e+3, 1.448136e+2, -1669001.6, -1546214.6, 17733.418, -0.000039262522, 0.16051485, -1543704.8, -22866.78, 0.0042781597, 9.998717, 10.0004 
1.5150875e+3, 1.5481429e+2, -1500083.9, -1390197.8, 55857.58, 0.027459353, 0.12781243, -1366790.3, 56040.96, 0.0011151112, 9.999136, 10.0005865 
1.5150934e+3, 1.6481479e+2, -1426303.6, -1389849.4, 50693.43, -0.0049306564, 0.16694348, -1354205.8, -29378.408, 0.000106548556, 9.999301, 9.999847 
1.5151004e+3, 1.7481467e+2, -1336217.5, -1274999.8, 24197.328, 0.030890808, 0.11183011, -1266590.5, -39759.367, 0.0000007145684, 9.999182, 10.000011 
1.5151075e+3, 1.8481508e+2, -1207191.3, -1152216.3, -9893.544, 0.05728949, 0.15615508, -1150489.9, -21661.514, 0.0, 9.999357, 10.0000925 
1.515114e+3, 1.9481581e+2, -1024826.94, -992254.2, 11215.604, 0.03808094, 0.16717733, -988765.94, 42054.98, 0.0, 9.999859, 10.000265 
1.5151198e+3, 2.0481583e+2, -950558.7, -1062427.5, -25493.4, -0.028457975, 0.21981412, -945023.06, -12201.891, 0.0, 10.000363, 9.998882 
1.5151252e+3, 2.1481489e+2, -760361.94, -900227.3, -775.11584, -0.118368946, 0.18375482, -760357.6, 74474.266, 0.0, 10.000918, 9.999051 
1.5151313e+3, 2.2481395e+2, -635291.06, -771465.9, -15231.858, -0.10987247, 0.18678893, -633608.1, 103231.84, 0.0, 10.001016, 9.999222 
1.5151381e+3, 2.3481281e+2, -577794.94, -675684.94, 34552.59, 0.012631199, 0.098918885, -566827.56, 72020.01, 0.0, 10.000664, 9.999374 
1.5151441e+3, 2.4481174e+2, -555433.8, -786617.6, 33663.484, 0.017388003, 0.13906026, -550631.7, -9774.022, 0.0, 10.000871, 9.997849 
1.5151492e+3, 2.548105e+2, -306803.72, -596683.9, 32351.395, -0.0887098, 0.17755263, -303237.13, 139635.63, 0.00000026346208, 10.001831, 9.998011 
1.5151548e+3, 2.6480848e+2, -111277.37, -416480.9, 17593.06, -0.13285063, 0.16863537, -110266.586, 234625.44, 0.000008336701, 10.002368, 9.998312 
1.5151611e+3, 2.7480537e+2, 28065.504, -281337.44, 69599.11, -0.099440716, -0.027241107, 43000.65, 289918.22, 0.00005112129, 10.002569, 9.998475 
1.5151672e+3, 2.848037e+2, -2115.4893, -417561.84, 42078.594, -0.09964094, 0.04459027, 2103.6052, 151039.3, 0.00022272031, 10.002422, 9.996925 
1.5151732e+3, 2.9480335e+2, 58730.184, -317864.6, 22517.81, -0.11548219, 0.24759313, 60071.816, 111019.23, 0.0007570034, 10.002102, 9.997071 
1.5151799e+3, 3.0480167e+2, 200016.89, -137784.81, 21635.1, -0.0893398, 0.34808025, 201396.92, 201396.92, 0.0018118907, 10.002374, 9.997874 
1.515187e+3, 3.1479675e+2, 386321.94, 169035.19, 52033.51, -0.08326521, -0.0057024662, 398139.66, 398139.66, 0.0032889545, 10.002655, 9.999849 
1.5250684e+3, 1.2480538e+2, -1904049.8, -1671258.6, -49666.367, 0.05103976, 0.043772224, -1661105.1, 55813.51, 0.017244658, 9.998049, 10.001206 
1.525076e+3, 1.348082e+2, -1729476.0, -1612010.5, 7430.8696, 0.19970694, 0.21948054, -1611542.3, 7348.0205, 0.010359608, 9.998977, 10.000485 
1.5250804e+3, 1.448071e+2, -1619213.9, -1536096.5, -10685.205, -0.009001252, 0.08995321, -1534744.9, -13844.68, 0.0045741852, 9.99914, 10.000253 
1.5250869e+3, 1.5480806e+2, -1423504.9, -1350321.4, -37580.75, 0.034934986, 0.084429786, -1334460.6, 88428.76, 0.0012060112, 9.999642, 10.00061 
1.5250933e+3, 1.6480836e+2, -1416823.8, -1413665.4, 1533.3578, 0.042716842, 0.115633704, -1413043.4, -88155.86, 0.000118081814, 9.99953, 9.999562 
1.5251e+3, 1.7480794e+2, -1332734.1, -1298571.8, 4207.6807, 0.073133424, 0.061551496, -1298061.1, -71165.63, 0.0000008766353, 9.999345, 9.999763 
1.5251072e+3, 1.8480839e+2, -1198858.6, -1144714.3, 63719.62, 0.109790035, 0.122285135, -1102554.3, 26338.83, 0.0, 9.999389, 10.000145 
1.5251146e+3, 1.9480956e+2, -1005895.44, -979738.5, 44470.297, 0.113852896, 0.17324144, -946463.4, 84418.336, 0.0, 9.999957, 10.000323 
1.5251209e+3, 2.048097e+2, -941752.2, -1029178.8, 38425.08, 0.04854324, 0.2212612, -927264.6, 5615.9253, 0.0, 10.000273, 9.999162 
1.525126e+3, 2.1480855e+2, -815961.75, -895834.44, 33598.17, -0.09375762, 0.13619304, -803708.56, 31183.244, 0.0, 10.000378, 9.999349 
1.5251319e+3, 2.248078e+2, -669877.3, -793255.8, 25368.002, -0.106860094, 0.14339955, -664865.0, 72033.19, 0.0, 10.000786, 9.999191 
1.5251392e+3, 2.3480725e+2, -451597.06, -616221.25, -24960.8, 0.012340342, 0.11879447, -447895.66, 191005.75, 0.0, 10.00153, 9.999367 
1.5251456e+3, 2.4480638e+2, -392123.6, -674598.44, 16335.845, 0.034673627, 0.16596298, -391182.0, 149727.56, 0.0, 10.001867, 9.998124 
1.5251514e+3, 2.54805e+2, -287870.75, -552209.2, 35493.816, -0.04676449, 0.16083206, -283187.8, 159737.19, 0.0000003530132, 10.0018215, 9.998307 
1.5251574e+3, 2.64803e+2, -162682.92, -448002.22, 53292.18, -0.088213906, 0.14066297, -153053.92, 191889.6, 0.000008619123, 10.002012, 9.998274 
1.5251635e+3, 2.7480018e+2, 7866.6978, -285927.25, 680.4001, -0.09477672, -0.025248598, 7868.2734, 254835.19, 0.000051931653, 10.002414, 9.998506 
1.5251696e+3, 2.8479847e+2, 22434.785, -416911.22, 1936.4822, -0.094182864, 0.04473531, 22443.32, 171428.77, 0.00023518385, 10.002623, 9.996856 
1.5251757e+3, 2.9479772e+2, 119437.18, -305829.78, 13677.684, -0.06832574, 0.2224989, 119876.63, 170877.69, 0.000791527, 10.002554, 9.996975 
1.5251832e+3, 3.047964e+2, 225720.88, -110992.65, 99333.87, 0.0024235672, 0.35785478, 252841.02, 252841.02, 0.0018473582, 10.002469, 9.998027 
1.5251908e+3, 3.1479162e+2, 298980.2, 96530.08, 23166.396, 0.069862336, 0.005758509, 301597.28, 301597.28, 0.0032843088, 10.002156, 9.999602 
1.5350674e+3, 1.24799855e+2, -1963700.3, -1832948.6, 6008.555, 0.047348253, 0.08497381, -1832673.0, -115704.21, 0.018294634, 9.998202, 10.000019 
1.535074e+3, 1.3480087e+2, -1751294.4, -1662153.0, 44379.93, 0.04618763, 0.113134004, -1643825.9, -24866.207, 0.011016667, 9.9990015, 10.000129 
1.5350804e+3, 1.4479963e+2, -1614663.6, -1573415.1, -23625.22, 0.029562777, 0.011666934, -1562678.5, -41706.313, 0.0048880493, 9.999329, 9.999913 
1.5350868e+3, 1.548008e+2, -1446795.9, -1382915.5, -6388.491, 0.024735603, 0.04746199, -1382282.9, 40677.688, 0.0013030368, 9.999584, 10.000416 
1.5350932e+3, 1.648014e+2, -1364039.6, -1328356.3, -31330.879, 0.03243275, 0.09139661, -1310143.1, 14812.249, 0.00013086536, 9.999619, 10.000112 
1.5350991e+3, 1.7480178e+2, -1298262.4, -1220975.6, 9923.238, 0.017922735, 0.06481114, -1219721.9, 7231.3506, 0.0000010420176, 9.999318, 10.000308 
1.5351063e+3, 1.8480262e+2, -1198606.8, -1149663.3, 59051.63, 0.031168154, 0.13891743, -1110213.5, 18732.543, 0.0, 9.999404, 10.000106 
1.5351148e+3, 1.9480346e+2, -1019838.56, -986475.0, 78873.91, 0.10649736, 0.1548498, -922538.06, 108399.99, 0.0, 9.999855, 10.000329 
1.5351216e+3, 2.0480338e+2, -943679.56, -985052.94, 22511.436, 0.062439337, 0.15934412, -933793.3, -854.94574, 0.0, 10.000068, 9.999559 
1.5351264e+3, 2.1480216e+2, -831154.1, -862229.94, 52564.613, -0.112434044, 0.027460586, -791879.06, 43069.91, 0.0, 10.000103, 9.999705 
1.5351325e+3, 2.2480144e+2, -773904.9, -938218.06, 33069.707, -0.16004418, 0.062742315, -767499.0, -30542.342, 0.0, 10.000476, 9.998345 
1.5351404e+3, 2.3480101e+2, -549045.4, -757020.94, 22990.05, -0.04995491, 0.13223267, -546534.4, 92429.375, 0.0, 10.001258, 9.998533 
1.5351474e+3, 2.4480015e+2, -374269.9, -556394.2, -1883.2719, -0.00043931766, 0.17466728, -374250.44, 166721.55, 0.0, 10.001532, 9.999091 
1.535154e+3, 2.547987e+2, -262037.92, -432694.2, 53435.375, 0.006938213, 0.063558474, -246687.22, 196295.58, 0.0000004707298, 10.0015545, 9.999252 
1.53516e+3, 2.647976e+2, -253414.63, -576486.1, 45963.4, -0.07355975, 0.12241904, -247002.67, 97990.664, 0.0000086272985, 10.00175, 9.997518 
1.5351649e+3, 2.7479655e+2, -81731.94, -418595.94, 32327.342, -0.24664319, 0.21038988, -78657.68, 168348.94, 0.000052741245, 10.002182, 9.997706 
1.5351713e+3, 2.8479436e+2, 39295.773, -317833.8, -18989.46, -0.22868662, 0.23360094, 40302.652, 189331.84, 0.00024875673, 10.002343, 9.997674 
1.5351795e+3, 2.94791e+2, 134628.2, -203556.73, 41052.96, 0.005264562, 0.061381474, 139540.36, 190601.6, 0.00082812813, 10.002253, 9.99782 
1.5351868e+3, 3.0479e+2, 160038.56, -175558.8, 69510.5, 0.09704174, 0.1969505, 173866.17, 173866.17, 0.0018930162, 10.002167, 9.997724 
1.5351918e+3, 3.1478822e+2, 147144.08, -85980.305, 75572.74, -0.09180644, 0.16709834, 169499.08, 169499.08, 0.0033105733, 10.001608, 9.998597 
1.5450668e+3, 1.2479286e+2, -1928911.3, -1838716.8, 10212.649, 0.18125103, 0.079055555, -1837574.9, -120538.18, 0.019406972, 9.998533, 9.999817 
1.545073e+3, 1.3479406e+2, -1674402.5, -1604346.1, -1369.0457, 0.05140595, 0.09682063, -1604319.4, 14705.8125, 0.0117135905, 9.999388, 10.000353 
1.5450804e+3, 1.4479297e+2, -1703490.3, -1637171.8, -3439.7212, 0.12070622, 0.010075744, -1636993.8, -115957.45, 0.0052204016, 9.998822, 9.999723 
1.5450865e+3, 1.5479387e+2, -1553028.8, -1448126.1, -13421.914, 0.086128354, 0.03469021, -1446436.0, -23407.684, 0.0014059248, 9.9989, 10.000311 
1.5450929e+3, 1.647945e+2, -1412713.9, -1341969.0, -3679.6895, 0.07861442, 0.08211993, -1341778.1, -16755.178, 0.00014487762, 9.999255, 10.000183 
1.5450987e+3, 1.7479523e+2, -1170825.4, -1153290.5, -38302.72, 0.016539907, 0.07866256, -1122764.6, 104252.04, 0.000001197513, 10.000159, 10.000366 
1.545106e+3, 1.8479595e+2, -1095144.9, -1103350.4, 19086.066, 0.028594898, 0.14209287, -1079725.6, 49284.74, 0.0, 10.000156, 10.000046 
1.5451148e+3, 1.9479638e+2, -1072399.9, -1011174.9, 795.7566, 0.13586292, 0.12355435, -1011164.56, 19842.07, 0.0, 9.999521, 10.000304 
1.5451218e+3, 2.0479642e+2, -1004141.6, -989708.94, -10893.893, 0.11033937, 0.13090993, -983858.06, -50852.04, 0.0, 9.999562, 9.99977 
1.5451269e+3, 2.1479589e+2, -768937.4, -808682.4, -32205.506, -0.07503114, 0.049923494, -750966.6, 84043.266, 0.0, 10.000435, 9.999917 
1.5451334e+3, 2.2479533e+2, -708298.1, -888981.8, 12179.687, -0.12810104, 0.084874414, -707480.8, 29535.055, 0.0, 10.000878, 9.998472 
1.5451415e+3, 2.3479457e+2, -579794.7, -751896.0, 26658.068, -0.0427985, 0.107785545, -575760.0, 63265.742, 0.0, 10.000997, 9.998677 
1.545149e+3, 2.4479361e+2, -411006.72, -586925.56, 28343.906, 0.01702163, 0.13762856, -406552.75, 134482.22, 0.000000000009610117, 10.001315, 9.9990015 
1.545156e+3, 2.547923e+2, -223500.33, -424958.66, -26733.426, 0.054391947, 0.052848373, -220013.17, 223031.5, 0.0000005675007, 10.001845, 9.999183 
1.5451623e+3, 2.6479134e+2, -194178.75, -549314.4, -8622.707, -0.010105238, 0.13123597, -193969.52, 151084.97, 0.000008574752, 10.002191, 9.997489 
1.5451674e+3, 2.7479032e+2, -55944.47, -420008.53, -8598.458, -0.20171827, 0.23379068, -55741.504, 191327.02, 0.00005426492, 10.00241, 9.9976 
1.5451741e+3, 2.8478807e+2, 106744.84, -227153.94, -20251.299, -0.18518783, 0.23214829, 107968.62, 257059.06, 0.00026286932, 10.002591, 9.998144 
1.5451822e+3, 2.9478464e+2, 241589.73, -96563.75, -40694.113, 0.04001591, 0.006084409, 246418.0, 297537.7, 0.0008685198, 10.00278, 9.998273 
1.5451898e+3, 3.047833e+2, 308817.63, -116264.1, 27133.564, 0.1443194, 0.09371532, 310542.6, 310542.6, 0.001960017, 10.003229, 9.997628 
1.5451956e+3, 3.147823e+2, 402491.75, -45617.848, -39914.69, 0.01972509, 0.16065758, 406019.3, 406019.3, 0.0033962065, 10.003699, 9.997877 
1.5550634e+3, 1.2478401e+2, -1828761.5, -1671288.8, -75524.484, -0.10757191, 0.008887386, -1640922.6, 76203.18, 0.020587768, 9.998717, 10.000884 
1.5550727e+3, 1.3478799e+2, -1618908.1, -1470687.0, 1190.9944, 0.030252358, 0.21700111, -1470677.5, 148406.7, 0.012455585, 9.999319, 10.001317 
1.5550794e+3, 1.4478698e+2, -1679532.5, -1616021.6, -36632.184, 0.077478245, 0.081491224, -1599296.9, -78203.17, 0.0055746003, 9.998929, 9.999824 
1.5550856e+3, 1.5478744e+2, -1553457.0, -1449709.5, 8178.363, 0.060635194, 0.05623652, -1449068.8, -25977.285, 0.001515748, 9.99891, 10.000295 
1.555092e+3, 1.6478798e+2, -1418045.6, -1381083.3, 9562.811, 0.008414674, 0.112826124, -1378755.8, -53668.234, 0.00016035176, 9.999366, 9.9998665 
1.5550984e+3, 1.7478831e+2, -1202715.1, -1207487.6, 8456.756, -0.068007655, 0.10983987, -1196314.4, 30770.47, 0.0000013687348, 10.000109, 10.000021 
1.5551056e+3, 1.8478853e+2, -1106518.5, -1113928.1, -25300.01, -0.056957968, 0.1408426, -1084653.5, 44430.46, 0.0, 10.000107, 9.999993 
1.5551138e+3, 1.9478846e+2, -1105961.4, -1037892.6, -6389.3296, 0.052550126, 0.08015162, -1037298.06, -6211.8716, 0.0, 9.9993515, 10.000198 
1.555121e+3, 2.0478891e+2, -1024390.06, -1002295.6, 540.06415, 0.030535582, 0.13741894, -1002282.44, -69199.72, 0.0, 9.999416, 9.999764 
1.5551272e+3, 2.147898e+2, -798742.44, -822485.25, 19101.75, -0.11839665, 0.19818063, -788123.7, 46950.563, 0.0, 10.000214, 9.999939 
1.5551342e+3, 2.2478957e+2, -685255.56, -772627.0, -1204.6857, -0.17775844, 0.21790977, -685238.94, 51835.945, 0.0, 10.000583, 9.9994135 
1.555142e+3, 2.3478785e+2, -552868.75, -641886.9, 48184.2, -0.117572084, 0.050831676, -531782.25, 107306.086, 0.0, 10.000756, 9.999555 
1.5551496e+3, 2.4478664e+2, -522506.34, -752983.44, 32297.164, -0.086226955, 0.059930522, -518066.03, 23033.598, 0.0, 10.001029, 9.998 
1.5551572e+3, 2.547858e+2, -329069.16, -589836.0, 12775.615, -0.056243528, 0.12312909, -328444.75, 114665.484, 0.0000005355393, 10.001608, 9.998167 
1.5551643e+3, 2.6478422e+2, -197522.73, -492250.88, -13958.188, -0.06478921, 0.16303083, -196863.16, 148263.67, 0.000008556659, 10.001921, 9.998006 
1.555171e+3, 2.7478158e+2, -60978.25, -362656.03, 26387.484, -0.11046277, 0.046033006, -58687.555, 188464.03, 0.000056489618, 10.002126, 9.998122 
1.5551774e+3, 2.847797e+2, 58200.125, -256204.44, -29189.85, -0.13639973, 0.055371847, 60887.195, 210055.64, 0.00027893353, 10.002285, 9.99809 
1.5551835e+3, 2.947784e+2, 196745.22, -114446.5, -8894.392, -0.14062396, 0.045387585, 196999.22, 248177.25, 0.0009153457, 10.002465, 9.998296 
1.5551916e+3, 3.047763e+2, 251005.73, -153797.95, 26301.768, -0.0338116, 0.05601966, 252707.52, 252707.52, 0.0020539248, 10.002896, 9.9975195 
1.5552004e+3, 3.1477362e+2, 270849.06, -158913.23, 24944.176, 0.07918871, -0.0368258, 272292.03, 272292.03, 0.0035508792, 10.003057, 9.997387 
1.5650621e+3, 1.2477668e+2, -1897698.8, -1711284.0, 17523.514, -0.08103418, 0.006376516, -1709651.0, 7546.712, 0.021849003, 9.9982815, 10.000825 
1.5650715e+3, 1.3478076e+2, -1730612.5, -1490515.3, -16493.172, 0.058847178, 0.21132268, -1489387.6, 129766.945, 0.013250772, 9.998406, 10.00163 
1.5650785e+3, 1.4477956e+2, -1690446.8, -1604665.0, -15213.678, 0.124651104, 0.024178965, -1602046.8, -80881.05, 0.0059556314, 9.998793, 9.999959 
1.5650849e+3, 1.5478048e+2, -1461382.4, -1408995.9, -15544.99, 0.086375184, 0.046183094, -1404730.5, 18428.738, 0.0016345053, 9.9995575, 10.000254 
1.5650913e+3, 1.6478115e+2, -1370970.3, -1367986.8, 33588.77, -0.0005012449, 0.12155334, -1335856.6, -10702.82, 0.00017771397, 9.999718, 9.999801 
1.5650983e+3, 1.747812e+2, -1247523.1, -1235331.5, 25451.72, -0.06047797, 0.095264785, -1215255.8, 11897.907, 0.0000016137079, 9.9998, 9.999991 
1.5651058e+3, 1.8478125e+2, -1175300.1, -1183250.3, 4664.1504, -0.024865348, 0.124099165, -1173147.0, -43991.945, 0.0, 9.999777, 9.999683 
1.5651134e+3, 1.9478117e+2, -1050953.0, -1051340.4, -29438.188, 0.0702489, 0.09257479, -1021707.9, 9451.248, 0.0, 9.99987, 9.999867 
1.5651207e+3, 2.0478164e+2, -945382.75, -943626.7, 42834.367, 0.054383494, 0.16220051, -901661.4, 31494.775, 0.0, 9.999926, 9.999894 
1.5651278e+3, 2.1478263e+2, -771466.3, -782120.25, 30165.285, -0.07907937, 0.216191, -746161.25, 88985.01, 0.0, 10.00034, 10.000126 
1.5651351e+3, 2.247825e+2, -666639.5, -736367.0, 8274.915, -0.12345736, 0.22414392, -665670.94, 71473.93, 0.0, 10.000562, 9.99969 
1.5651429e+3, 2.3478103e+2, -560101.4, -604924.1, -16524.56, -0.07004635, 0.049501374, -554667.94, 84486.414, 0.0, 10.000521, 9.999921 
1.5651509e+3, 2.4477991e+2, -527751.25, -759463.06, 41870.66, -0.044316825, 0.049694717, -520417.25, 20747.055, 0.0, 10.000993, 9.997979 
1.5651588e+3, 2.5477895e+2, -269676.7, -561012.5, 60182.7, -0.050020147, 0.10454037, -257734.0, 185443.06, 0.00000039469393, 10.002012, 9.998165 
1.5651666e+3, 2.647773e+2, -111489.56, -408926.44, 60825.55, -0.036701158, 0.12253867, -99531.55, 245661.75, 0.000008163994, 10.002327, 9.998385 
1.565174e+3, 2.7477476e+2, -78165.32, -326820.97, 44717.91, -0.0090157455, -0.025784474, -70367.82, 176847.34, 0.000058543963, 10.001815, 9.99852 
1.5651804e+3, 2.8477308e+2, -29364.61, -335773.13, 37419.35, -0.033895865, 0.0022152828, -24861.059, 124369.1, 0.00029613846, 10.001834, 9.997786 
1.5651861e+3, 2.9477218e+2, 184736.44, -157749.58, -10810.236, -0.115373395, 0.0711602, 185077.33, 236316.53, 0.00096601876, 10.002523, 9.997994 
1.5651944e+3, 3.0476946e+2, 303390.63, -77886.234, 73478.61, -0.01591716, 0.012077178, 317061.06, 317061.06, 0.0021664368, 10.003016, 9.997986 
1.5652046e+3, 3.1476754e+2, 312873.97, -97140.37, 30244.178, 0.20706484, -0.0418911, 315092.88, 315092.88, 0.0037575373, 10.003097, 9.997818 
1.5750615e+3, 1.24770425e+2, -1946688.6, -1851753.8, -24069.48, -0.05338796, 0.043223105, -1846000.0, -128743.01, 0.023204513, 9.998426, 9.9998 
1.5750693e+3, 1.3477252e+2, -1745123.1, -1523125.4, 6594.248, -0.05283214, 0.09912753, -1522929.6, 96304.86, 0.014108494, 9.998424, 10.0013895 
1.5750776e+3, 1.4477111e+2, -1646809.3, -1556926.9, -10065.431, 0.09392977, -0.12642464, -1555813.5, -34565.418, 0.0063687824, 9.998969, 10.000207 
1.5750843e+3, 1.5477301e+2, -1479715.3, -1436201.6, 22488.98, 0.034604583, 0.011241169, -1426667.6, -3436.0293, 0.00176415, 9.999518, 10.000087 
1.5750904e+3, 1.6477402e+2, -1341638.3, -1321333.0, 11522.724, -0.115971535, 0.11518756, -1316128.3, 9094.179, 0.00019721544, 9.99977, 10.000095 
1.575098e+3, 1.7477395e+2, -1229278.4, -1189978.5, 45173.797, -0.113148995, 0.039197817, -1160366.0, 66856.76, 0.0000019795527, 9.999768, 10.000316 
1.5751058e+3, 1.8477425e+2, -1205079.0, -1249303.3, -12576.43, -0.0417997, 0.09924794, -1201752.8, -72530.44, 0.0, 9.999784, 9.999229 
1.5751132e+3, 1.9477473e+2, -1109280.8, -1137028.0, -12072.329, 0.041722808, 0.17676277, -1104763.6, -73540.33, 0.0, 9.99972, 9.9993515 
1.5751205e+3, 2.0477478e+2, -960607.25, -936398.56, 36810.02, 0.00929672, 0.22248216, -909753.8, 23470.758, 0.0, 9.999746, 10.000033 
1.575128e+3, 2.1477419e+2, -801309.5, -786651.0, 59909.71, -0.10831733, 0.10474616, -733623.9, 101603.91, 0.0, 10.000091, 10.000219 
1.5751359e+3, 2.2477397e+2, -715148.5, -775171.06, -8457.652, -0.13376594, 0.10494822, -713979.5, 23247.645, 0.0, 10.000296, 9.99955 
1.5751441e+3, 2.3477401e+2, -610619.0, -649937.9, -2856.1123, -0.048383776, 0.09850551, -610412.56, 28811.652, 0.0, 10.000262, 9.999738 
1.5751523e+3, 2.4477333e+2, -511623.6, -652786.5, 60762.336, -0.025796965, 0.10912626, -489071.8, 52157.656, 0.0, 10.000678, 9.998859 
1.575161e+3, 2.547717e+2, -250765.95, -456121.13, 114936.83, -0.06447301, 0.0022234889, -199322.94, 243922.56, 0.00000029448665, 10.00173, 9.999017 
1.5751688e+3, 2.647706e+2, -144955.06, -410658.28, 22519.723, -0.071434826, 0.025155026, -143059.9, 202194.77, 0.000007127328, 10.002032, 9.99852 
1.5751757e+3, 2.7476966e+2, -99280.26, -316139.63, 44892.03, -0.051792137, 0.021514153, -90354.54, 156906.16, 0.000059012113, 10.001585, 9.998705 
1.5751824e+3, 2.8476804e+2, -107183.9, -449020.72, 41293.324, -0.054413334, 0.078531444, -102266.47, 47010.62, 0.00030982727, 10.001619, 9.997111 
1.5751895e+3, 2.9476595e+2, 85250.414, -286628.97, 44439.2, -0.065243706, 0.08976991, 90487.11, 141789.64, 0.0010139579, 10.0021925, 9.997267 
1.575198e+3, 3.0476275e+2, 317994.72, 37187.906, 61472.11, 0.0029551042, -0.023217509, 330862.1, 330862.1, 0.002282277, 10.002676, 9.998923 
1.5752071e+3, 3.147637e+2, 319170.16, 65711.38, 89161.05, 0.07853951, 0.09758205, 347392.47, 347392.47, 0.0039791334, 10.002495, 9.999201 
1.5850604e+3, 1.2476386e+2, -2001978.9, -1893479.1, 29547.484, 0.022736304, 0.08621435, -1885954.4, -168632.52, 0.024665277, 9.998116, 9.999643 
1.5850678e+3, 1.3476518e+2, -1690935.5, -1531959.8, 13490.563, -0.038985867, 0.09501824, -1530823.1, 88484.98, 0.0150364665, 9.99893, 10.00108 
1.5850766e+3, 1.4476408e+2, -1585329.8, -1519065.6, -9812.746, 0.084416926, -0.093521655, -1517643.0, 3675.9868, 0.0068181083, 9.999348, 10.000288 
1.5850839e+3, 1.5476605e+2, -1563029.9, -1478194.5, -14022.142, 0.077353664, 0.0549826, -1475937.0, -52635.79, 0.0019058621, 9.998932, 10.000087 
1.5850902e+3, 1.6476694e+2, -1482816.0, -1382707.6, 20937.455, -0.06542552, 0.14390555, -1378505.0, -53212.004, 0.0002187055, 9.998792, 10.000137 
1.5850976e+3, 1.7476654e+2, -1268828.0, -1197120.9, -7436.304, -0.103561796, 0.029621249, -1196357.8, 30938.479, 0.000002466339, 9.999468, 10.000404 
1.5851057e+3, 1.8476692e+2, -1181752.1, -1218852.4, -24521.885, -0.0316367, 0.08459263, -1169554.5, -40259.992, 0.0, 9.999873, 9.9993925 
1.5851133e+3, 1.9476785e+2, -1003902.8, -1065667.4, -10182.531, 0.05205369, 0.1904954, -1002267.44, 29022.24, 0.0, 10.000353, 9.999534 
1.5851207e+3, 2.047678e+2, -892344.9, -939110.75, 79646.71, 0.034526832, 0.2292712, -832719.6, 100571.9, 0.0, 10.000334, 9.999748 
1.5851285e+3, 2.1476647e+2, -838864.6, -839020.3, 43044.86, -0.05915253, 0.067254744, -795897.56, 39404.82, 0.0, 9.999929, 9.999953 
1.5851367e+3, 2.247661e+2, -758099.06, -795164.2, 16640.516, -0.062106814, 0.06382938, -751724.56, -14420.447, 0.0, 10.000036, 9.999534 
1.5851451e+3, 2.3476659e+2, -505552.94, -605576.8, -5108.9946, 0.014868223, 0.11188845, -505292.66, 134004.89, 0.0, 10.001013, 9.999695 
1.5851538e+3, 2.447662e+2, -420979.84, -573454.8, 61782.113, 0.03915073, 0.14136097, -399088.94, 142211.44, 0.0, 10.001168, 9.999158 
1.5851626e+3, 2.5476485e+2, -409718.1, -503156.28, 30978.771, -0.0074192174, 0.0373956, -400380.47, 42933.313, 0.00000023115544, 10.000516, 9.999284 
1.5851705e+3, 2.647639e+2, -314984.94, -475112.78, -33181.55, -0.029064557, 0.055073176, -308381.4, 36940.31, 0.0000061293663, 10.000799, 9.99866 
1.5851776e+3, 2.7476296e+2, 15597.369, -241283.47, -54734.93, -0.038049094, 0.0417646, 26773.762, 274101.06, 0.000060026516, 10.002307, 9.998857 
1.5851851e+3, 2.8476152e+2, 89931.61, -367021.97, -18604.068, -0.0131223565, 0.1104202, 90687.8, 240029.95, 0.0003212461, 10.003036, 9.996978 
1.5851931e+3, 2.9475948e+2, 174438.67, -259021.16, -25574.648, 0.053065773, 0.14679019, 175942.39, 227308.94, 0.0010570007, 10.002857, 9.997128 
1.5852016e+3, 3.0475572e+2, 370348.34, -21137.81, 16006.838, 0.08404852, 0.014800921, 371001.72, 371001.72, 0.0023875397, 10.003363, 9.998215 
1.5852106e+3, 3.1475592e+2, 579470.8, 176467.05, -166219.69, 0.10206924, 0.14657062, 639181.44, 639181.44, 0.004173247, 10.004329, 9.999103 
1.5950589e+3, 1.2475719e+2, -1917305.8, -1787127.6, 2729.6606, -0.026818179, 0.0971586, -1787070.5, -69679.945, 0.026239868, 9.998369, 10.00027 
1.5950677e+3, 1.3475908e+2, -1737968.8, -1629291.8, 84388.36, 0.010879502, 0.20600057, -1583260.6, 36111.3, 0.016040104, 9.998941, 10.000397 
1.5950745e+3, 1.4475822e+2, -1566406.1, -1528905.8, -45408.055, -0.11738433, 0.09889389, -1498528.9, 22851.61, 0.0073062, 9.999538, 10.000137 
1.595083e+3, 1.5475984e+2, -1541827.8, -1450812.1, -16988.564, 0.05153254, 0.19215465, -1447744.5, -24378.799, 0.002060233, 9.998993, 10.000251 
1.5950899e+3, 1.647603e+2, -1482278.9, -1408371.3, 18783.373, -0.01610682, 0.24110995, -1403871.5, -78510.0, 0.00024185247, 9.9989, 9.999911 
1.5950967e+3, 1.7475916e+2, -1297894.6, -1247070.4, 32270.076, -0.15951721, 0.08269714, -1231407.8, -4035.142, 0.0000030340082, 9.999425, 10.000082 
1.5951048e+3, 1.8475924e+2, -1126777.1, -1103300.8, -26359.402, -0.16165099, 0.08471562, -1086184.1, 43187.438, 0.0, 9.999862, 10.000192 
1.595113e+3, 1.9476052e+2, -970995.3, -958785.2, 24336.613, -0.045745987, 0.14112225, -939799.56, 91558.72, 0.0, 10.000197, 10.000339 
1.5951209e+3, 2.047608e+2, -956547.44, -1033936.7, 47236.703, -0.029259693, 0.20187485, -934179.94, -824.1821, 0.0, 10.000167, 9.999175 
1.5951285e+3, 2.1475974e+2, -923397.06, -946992.94, 43220.934, -0.075960405, 0.12375935, -890392.75, -55025.133, 0.0, 9.999647, 9.999346 
1.5951368e+3, 2.2475912e+2, -795226.5, -813853.2, 34191.805, -0.07460762, 0.12680867, -769102.3, -31729.086, 0.0, 9.999769, 9.9995365 
1.595146e+3, 2.3475884e+2, -547344.94, -629357.5, 53725.88, -0.021777032, 0.09268124, -520764.34, 118608.97, 0.0, 10.000734, 9.999668 
1.5951549e+3, 2.4475865e+2, -492558.78, -651617.94, 25586.424, -0.013690354, 0.16239995, -488544.22, 52831.125, 0.0, 10.000869, 9.99876 
1.595163e+3, 2.5475833e+2, -478535.38, -574043.6, 24758.486, -0.02921906, 0.1982454, -472498.8, -29116.783, 0.00000009760233, 10.000226, 9.998924 
1.5951714e+3, 2.647571e+2, -351497.47, -493922.47, 5667.585, -0.06284225, 0.20747286, -351272.3, -5878.13, 0.0000054247644, 10.000544, 9.998656 
1.5951794e+3, 2.747548e+2, -26529.75, -265581.44, 25007.787, -0.11717648, 0.0458478, -23941.645, 223471.73, 0.0000627863, 10.002027, 9.998826 
1.5951878e+3, 2.8475335e+2, 60423.98, -344561.44, -44163.895, -0.08148434, 0.10565386, 65184.13, 214609.75, 0.0003316825, 10.0026865, 9.997296 
1.5951963e+3, 2.9475245e+2, 153439.64, -226321.58, -4552.4087, 0.05163313, 0.21491438, 153494.2, 204929.13, 0.0010854213, 10.002542, 9.997501 
1.5952048e+3, 3.047481e+2, 150965.05, -391875.7, 32659.066, 0.036426913, 0.1268412, 152922.86, 152922.86, 0.002452569, 10.003017, 9.995827 
1.5952142e+3, 3.1474474e+2, 366946.13, -104935.82, -69405.92, -0.035144854, 0.14164694, 376942.8, 376942.8, 0.0042847013, 10.003677, 9.997466 
1.6050579e+3, 1.2474973e+2, -1912542.1, -1685210.6, 23155.422, 0.055779852, 0.113107115, -1682876.0, 34589.49, 0.027939666, 9.99801, 10.001154 
1.6050668e+3, 1.3475107e+2, -1780376.3, -1660867.6, 53988.98, 0.042279676, 0.18066075, -1640090.1, -20639.404, 0.01712635, 9.998732, 10.000275 
1.6050737e+3, 1.4475065e+2, -1699223.4, -1601569.1, -24945.432, -0.09690113, 0.13623339, -1595566.0, -74111.586, 0.007836914, 9.998702, 10.000023 
1.6050823e+3, 1.547519e+2, -1457536.4, -1399657.4, -54684.055, 0.063180566, 0.18615161, -1366727.4, 56715.938, 0.0022287087, 9.999553, 10.000318 
1.6050898e+3, 1.6475229e+2, -1400707.5, -1374340.9, 15330.8545, 0.06514316, 0.2250661, -1367304.6, -41864.363, 0.00026665046, 9.999495, 9.999848 
1.6050969e+3, 1.7475137e+2, -1369433.1, -1285456.1, 9712.772, -0.061490044, 0.096109144, -1284347.4, -56897.797, 0.0000036433328, 9.998957, 10.000037 
1.6051048e+3, 1.847515e+2, -1234000.6, -1130492.3, 412.8402, -0.092561245, 0.09510243, -1130490.6, -1043.3373, 0.0, 9.999012, 10.000414 
1.6051129e+3, 1.947525e+2, -967136.8, -927537.9, -25871.686, -0.057639048, 0.09553199, -914758.75, 116676.13, 0.0, 10.000073, 10.000616 
1.605121e+3, 2.0475279e+2, -919489.5, -1025139.9, -9284.06, -0.031893753, 0.14807664, -918679.9, 14751.801, 0.0, 10.000479, 9.9990835 
1.6051291e+3, 2.1475221e+2, -819824.94, -901093.0, -16936.514, -0.013886913, 0.12996587, -816436.56, 19002.912, 0.0, 10.0004015, 9.999287 
1.6051377e+3, 2.2475152e+2, -704976.25, -791800.9, 56485.273, 0.0064836293, 0.13739158, -677148.0, 60298.16, 0.0, 10.000469, 9.999348 
1.6051471e+3, 2.3475061e+2, -546997.5, -636353.7, 27764.668, 0.018438496, 0.05477476, -539073.25, 100378.96, 0.0, 10.000778, 9.999577 
1.6051558e+3, 2.4475019e+2, -493048.16, -682327.5, 1539.4829, 0.009422455, 0.1178626, -493035.66, 48421.46, 0.0, 10.001001, 9.998492 
1.605164e+3, 2.5474998e+2, -347240.63, -541535.7, -25579.943, -0.0076330425, 0.20025352, -343929.34, 99534.69, 0.000000007673713, 10.001249, 9.998661 
1.6051728e+3, 2.647488e+2, -204023.36, -425556.34, 35593.99, -0.024380943, 0.2263256, -198444.89, 147031.89, 0.0000049768487, 10.001557, 9.998648 
1.605182e+3, 2.747466e+2, -45784.64, -281787.4, 2986.9453, -0.047872666, 0.084897846, -45746.844, 201748.52, 0.00006482946, 10.001904, 9.998798 
1.6051911e+3, 2.8474486e+2, 89928.87, -332385.06, -35184.113, -0.016776199, 0.118763685, 92840.08, 242349.77, 0.00033743004, 10.002848, 9.997327 
1.6051999e+3, 2.9474333e+2, 447719.0, -78653.77, -66487.55, 0.062145665, 0.1653341, 455987.34, 507510.4, 0.0010902435, 10.004519, 9.99758 
1.6052085e+3, 3.0473927e+2, 344062.38, -343502.16, 29006.205, 0.036577087, 0.11716457, 345283.88, 345283.88, 0.0024558213, 10.004543, 9.995422 
1.6052184e+3, 3.14735e+2, 217656.97, -189874.75, -21880.643, 0.09497725, 0.08708987, 218828.38, 218828.38, 0.004284109, 10.002658, 9.997389 
1.6150568e+3, 1.24741875e+2, -1804848.4, -1544819.3, 72940.13, 0.06545128, 0.17837588, -1525756.5, 191786.11, 0.02978273, 9.99833, 10.002003 
1.6150643e+3, 1.3474154e+2, -1738523.5, -1590902.5, 58779.586, -0.11435832, 0.0412397, -1570357.1, 49183.785, 0.018308382, 9.998794, 10.000737 
1.6150735e+3, 1.4474195e+2, -1684258.4, -1601664.0, -20259.295, -0.053387407, 0.060231432, -1596962.4, -75427.31, 0.008418617, 9.998825, 9.999969 
1.6150813e+3, 1.5474233e+2, -1465081.6, -1421535.6, -5269.4097, -0.035300944, 0.038978115, -1420907.1, 2626.1724, 0.0024150687, 9.999578, 10.000156 
1.6150892e+3, 1.647428e+2, -1366477.8, -1344172.8, -28420.205, -0.00055189704, 0.088955805, -1324795.1, 734.7628, 0.0002938315, 9.999656, 9.999981 
1.6150974e+3, 1.747432e+2, -1358671.5, -1267068.4, 1941.5924, 0.051260807, 0.07538266, -1267027.3, -39500.51, 0.000004294035, 9.998958, 10.00017 
1.6151051e+3, 1.8474366e+2, -1254121.3, -1171909.6, 18784.139, 0.0040792697, 0.11330762, -1167821.0, -38298.81, 0.0, 9.999012, 10.000127 
1.6151127e+3, 1.9474384e+2, -1005952.1, -983209.56, 29264.275, -0.12512083, 0.06172397, -963184.94, 68334.18, 0.0, 9.999963, 10.00029 
1.6151208e+3, 2.047439e+2, -926615.8, -991563.9, -33800.344, -0.14156951, 0.09350053, -912217.4, 21300.377, 0.0, 10.000273, 9.999411 
1.6151297e+3, 2.1474382e+2, -833661.2, -874366.44, -5371.448, -0.009627202, 0.08872077, -832964.3, 2554.522, 0.0, 10.000168, 9.999581 
1.6151386e+3, 2.2474322e+2, -774865.9, -860023.56, 48586.45, 0.03168382, 0.10665154, -752841.3, -15317.663, 0.0, 10.000152, 9.999026 
1.6151477e+3, 2.3474184e+2, -614591.0, -706090.75, 58021.7, -0.01914695, 0.007944846, -586452.0, 53082.742, 0.0, 10.000486, 9.999234 
1.6151564e+3, 2.4474074e+2, -542973.2, -729547.1, -8648.429, -0.06628892, 0.030233487, -542573.1, -1026.7449, 0.0, 10.000743, 9.998297 
1.6151647e+3, 2.5473988e+2, -399501.2, -589728.3, 5829.2256, -0.092190176, 0.05379436, -399322.72, 44236.84, 0.00000000987263, 10.000984, 9.998457 
1.615174e+3, 2.6473907e+2, -264881.88, -475361.75, 28840.498, -0.08013756, 0.13902809, -261001.61, 84567.03, 0.000004852571, 10.001237, 9.998452 
1.6151845e+3, 2.7473807e+2, -95154.93, -322573.72, 40006.97, -0.009519314, 0.13375549, -88322.28, 159253.89, 0.00006465758, 10.001655, 9.998625 
1.6151944e+3, 2.8473595e+2, 21465.14, -404163.2, 4647.896, -0.008401305, 0.15395333, 21515.89, 171111.03, 0.0003366383, 10.002545, 9.996981 
1.6152033e+3, 2.9473257e+2, 367596.6, -153841.27, 24191.398, -0.09328216, 0.038555387, 368716.5, 420343.53, 0.0010768002, 10.004123, 9.997255 
1.615212e+3, 3.0472907e+2, 367061.2, -187354.27, -60748.668, -0.10519835, 0.0019788428, 373639.53, 373639.53, 0.0024103972, 10.004104, 9.996685 
1.6152221e+3, 3.1472653e+2, 217437.13, -26605.182, -17664.227, 0.125737, 0.008434801, 218709.06, 218709.06, 0.004189569, 10.00202, 9.998781 
1.6250561e+3, 1.2473302e+2, -1910958.6, -1583415.1, 70682.01, 0.20735191, 0.19382131, -1568813.3, 148815.95, 0.03179242, 9.997562, 10.002069 
1.6250634e+3, 1.3473228e+2, -1783181.0, -1600876.9, -4652.286, -0.048346557, -0.0076047718, -1600758.3, 18873.309, 0.019603958, 9.998416, 10.000838 
1.6250734e+3, 1.4473356e+2, -1724447.3, -1602499.3, -38412.92, 0.08621314, 0.086982846, -1591408.1, -69791.516, 0.009062119, 9.998499, 10.000103 
1.6250804e+3, 1.5473337e+2, -1532793.3, -1430769.1, -29919.553, -0.03604507, -0.009562363, -1422642.3, 977.53546, 0.002624408, 9.999028, 10.000348 
1.6250885e+3, 1.647338e+2, -1426537.6, -1376108.0, -42650.836, -0.02145112, 0.028265988, -1351776.0, -26159.322, 0.00032476612, 9.999262, 9.999953 
1.6250971e+3, 1.7473492e+2, -1295002.6, -1231769.5, -64750.12, 0.120405905, 0.086282365, -1191329.3, 36277.38, 0.000005034694, 9.999388, 10.000197 
1.6251053e+3, 1.847354e+2, -1238402.5, -1199626.4, 12126.58, 0.10934344, 0.14203732, -1196146.3, -66544.02, 0.0, 9.999275, 9.999817 
1.6251127e+3, 1.9473495e+2, -1132157.4, -1067095.1, -11043.929, -0.07298954, 0.05676217, -1065271.6, -33665.824, 0.0, 9.999227, 10.000061 
1.625121e+3, 2.0473483e+2, -1004888.06, -1006298.9, -42543.832, -0.10137266, 0.068075456, -963043.8, -29438.033, 0.0, 9.999617, 9.999635 
1.6251305e+3, 2.1473485e+2, -757073.56, -814100.06, -52436.508, 0.043931156, 0.052955605, -725899.4, 109704.766, 0.0, 10.000565, 9.999818 
1.6251399e+3, 2.2473426e+2, -650088.25, -821956.56, 27596.678, 0.09205632, 0.07197255, -645765.8, 91842.76, 0.0, 10.001096, 9.998834 
1.6251488e+3, 2.3473282e+2, -526879.5, -688822.56, 6342.0273, 0.016440058, -0.01059185, -526631.56, 112990.26, 0.0, 10.001185, 9.999019 
1.6251577e+3, 2.4473158e+2, -452287.44, -686087.9, -15488.757, -0.03157774, 0.009378132, -451265.8, 90368.85, 0.0, 10.001366, 9.998293 
1.6251661e+3, 2.547305e+2, -297205.0, -542961.6, -31623.582, -0.06507716, 0.013197033, -293200.97, 150447.27, 0.000000011745934, 10.001686, 9.998445 
1.6251759e+3, 2.6472938e+2, -165697.56, -476407.9, 37124.824, -0.051129177, 0.09055073, -161323.33, 184336.8, 0.0000048598445, 10.002128, 9.998021 
1.625187e+3, 2.7472797e+2, 33455.535, -312515.28, -13954.82, 0.026117722, 0.09367131, 34017.492, 281690.97, 0.00006306325, 10.002753, 9.998166 
1.6251975e+3, 2.847258e+2, 43634.195, -348429.53, -4815.9873, 0.06473554, 0.11304594, 43693.348, 193387.33, 0.00033149842, 10.002525, 9.997356 
1.6252072e+3, 2.9472274e+2, 1889.8224, -289759.16, 1454.6152, 0.0342141, -0.0014143806, 1897.0771, 53619.977, 0.0010554205, 10.001441, 9.997603 
1.6252157e+3, 3.047202e+2, 115980.16, -223503.39, -22570.004, -0.017084863, -0.0020252464, 117474.11, 117474.11, 0.002341055, 10.001975, 9.9974785 
1.625225e+3, 3.1471837e+2, 571080.25, 185129.3, -90112.18, 0.12985851, 0.0024336341, 591083.06, 591083.06, 0.004036234, 10.004212, 9.999221 
1.6350523e+3, 1.2472276e+2, -1912492.6, -1628078.5, -120857.48, -0.032412887, 0.09663366, -1583659.3, 134070.27, 0.03398967, 9.997739, 10.001675 
1.6350633e+3, 1.3472317e+2, -1799503.5, -1639767.9, 32629.783, 0.06838665, 0.02463586, -1633359.6, -13636.138, 0.02102759, 9.998446, 10.00055 
1.6350731e+3, 1.4472538e+2, -1666154.0, -1535890.5, -54860.76, 0.14971, 0.21257865, -1515864.5, 5835.7793, 0.009775217, 9.998706, 10.000476 
1.6350792e+3, 1.5472506e+2, -1492195.0, -1358098.0, 1994.973, -0.10217514, 0.056382462, -1358068.4, 65634.04, 0.002860367, 9.999067, 10.000837 
1.6350865e+3, 1.6472533e+2, -1420856.9, -1384812.9, -60465.047, -0.1741359, 0.05305206, -1339741.1, -14041.16, 0.00036087315, 9.999341, 9.99986 
1.6350958e+3, 1.7472641e+2, -1311110.8, -1263557.4, -49232.797, 0.011147554, 0.1262431, -1232660.5, -4969.9604, 0.000005927034, 9.999376, 9.999986 
1.6351044e+3, 1.8472664e+2, -1249150.3, -1229217.4, -12213.757, 0.061255157, 0.17982283, -1223419.8, -93731.58, 0.0, 9.999304, 9.999601 
1.6351125e+3, 1.9472568e+2, -1162567.5, -1107848.6, 2114.4836, -0.045187168, 0.06451161, -1107767.0, -76070.88, 0.0, 9.999126, 9.999834 
1.6351213e+3, 2.0472525e+2, -1019566.8, -993600.6, -25118.533, -0.07224208, 0.04854481, -978308.25, -44609.887, 0.0, 9.99943, 9.999815 
1.635131e+3, 2.147252e+2, -778413.9, -805566.44, 3124.083, 0.005838923, 0.0069156857, -778059.06, 57637.375, 0.0, 10.000331, 9.999993 
1.6351405e+3, 2.2472467e+2, -715279.6, -875507.7, 15014.003, 0.01607761, 0.03476679, -713884.9, 23816.04, 0.0, 10.00075, 9.998628 
1.63515e+3, 2.3472357e+2, -580856.2, -735457.06, 26753.684, -0.01863746, 0.0015852232, -576357.4, 63356.023, 0.0, 10.000911, 9.998825 
1.6351593e+3, 2.4472263e+2, -496988.16, -700356.44, -23987.688, -0.04835589, 0.05806388, -494197.06, 47525.848, 0.0, 10.001035, 9.998351 
1.6351679e+3, 2.5472173e+2, -325647.25, -541871.3, 38.518833, -0.07819029, 0.07461389, -325647.22, 118083.766, 0.000000006263202, 10.001444, 9.998562 
1.6351779e+3, 2.647198e+2, -252057.88, -604885.25, 42077.41, -0.09985488, 0.10108266, -247109.22, 98640.95, 0.000005059976, 10.00189, 9.997261 
1.6351889e+3, 2.7471656e+2, -57691.176, -441234.38, 39484.836, -0.089991026, -0.015993861, -53668.5, 194115.7, 0.000060994436, 10.00248, 9.9974165 
1.6352e+3, 2.8471446e+2, 50987.72, -250183.31, -61333.383, 0.014537751, 0.0074700695, 62999.19, 212804.5, 0.0003219481, 10.002186, 9.998187 
1.635211e+3, 2.947136e+2, 14268.237, -186496.1, -8119.436, 0.23292457, 0.026820423, 14596.073, 66409.21, 0.0010251604, 10.001131, 9.998454 
1.6352192e+3, 3.0471233e+2, 78079.94, -210755.8, 36526.285, 0.09252999, 0.10272204, 82627.48, 82627.48, 0.0022564982, 10.0015955, 9.997745 
1.6352269e+3, 3.1471023e+2, 455832.63, 103370.195, 74609.48, -0.16511881, 0.044826012, 470975.4, 470975.4, 0.0038541702, 10.003555, 9.998962 
1.6450508e+3, 1.2471399e+2, -1709918.1, -1586037.5, -4886.7153, -0.016950443, 0.06938422, -1585845.1, 131968.5, 0.036383986, 9.999395, 10.001171 
1.6450623e+3, 1.3471396e+2, -1824960.9, -1713178.8, 32282.672, 0.11893079, 0.0073559117, -1704525.5, -84710.89, 0.022584815, 9.998536, 10.000013 
1.6450714e+3, 1.447165e+2, -1771324.5, -1573333.0, -3319.365, 0.15315385, 0.24905099, -1573277.4, -51488.043, 0.010560797, 9.997923, 10.000601 
1.6450787e+3, 1.5471648e+2, -1549128.9, -1368323.8, -5070.0054, -0.0295288, 0.10407167, -1368181.8, 55606.41, 0.0031241647, 9.998594, 10.000995 
1.6450866e+3, 1.647166e+2, -1481444.5, -1427845.9, -54508.457, -0.08690292, 0.084228046, -1393905.0, -68118.7, 0.0004029895, 9.999002, 9.999725 
1.6450952e+3, 1.7471704e+2, -1310357.6, -1282517.8, -77643.51, 0.015333647, 0.112124085, -1217556.3, 10226.1, 0.0000070009137, 9.999475, 9.999813 
1.6451038e+3, 1.8471694e+2, -1190675.8, -1198203.1, -7277.1577, 0.06219051, 0.14096439, -1186246.6, -56464.05, 0.0, 9.9997, 9.999612 
1.6451125e+3, 1.9471599e+2, -1046440.75, -1049559.4, -14278.962, 0.017862674, 0.023793815, -1033636.25, -1846.6454, 0.0, 9.99992, 9.99984 
1.6451219e+3, 2.0471556e+2, -934720.1, -972803.8, 10191.838, 0.017070876, 0.017232854, -932164.2, 1627.8596, 0.0, 10.000106, 9.999621 
1.6451317e+3, 2.1471557e+2, -784712.75, -821937.0, -26625.473, 0.05155821, -0.0013263011, -770839.06, 64951.63, 0.0, 10.000368, 9.999843 
1.6451415e+3, 2.2471516e+2, -708363.5, -895024.2, 6044.8228, 0.04635009, 0.051583443, -708167.94, 29627.422, 0.0, 10.000879, 9.99845 
1.6451514e+3, 2.3471406e+2, -486251.22, -714514.94, -15895.004, 0.0019388519, 0.04360219, -485149.7, 154658.8, 0.0, 10.001652, 9.998634 
1.645161e+3, 2.44713e+2, -336725.78, -609948.5, -34341.13, -0.013747694, 0.09086651, -332475.6, 209343.28, 0.0, 10.002078, 9.998468 
1.6451702e+3, 2.5471166e+2, -209707.84, -479822.22, -50542.555, -0.0329748, 0.05697502, -200560.33, 243268.58, 0.000000005166704, 10.002202, 9.998629 
1.6451803e+3, 2.6470965e+2, -207628.4, -563681.9, 52623.402, -0.039037067, 0.06294901, -200013.7, 145834.61, 0.000005473011, 10.002137, 9.997407 
1.6451915e+3, 2.747067e+2, -112847.49, -444966.16, 58940.574, -0.041804973, -0.03565806, -102697.59, 145182.33, 0.000058881178, 10.00204, 9.997581 
1.6452023e+3, 2.8470492e+2, 82668.3, -222401.2, -4552.724, 0.05004014, 0.005362888, 82736.23, 232634.66, 0.0003079229, 10.002338, 9.998327 
1.645213e+3, 2.9470438e+2, 274331.5, -48243.12, -53531.016, 0.2567245, 0.0499503, 282982.9, 334886.3, 0.0009851817, 10.002857, 9.998585 
1.6452216e+3, 3.0470315e+2, 341876.7, -62251.375, 66973.61, 0.113648854, 0.11463526, 352686.66, 352686.66, 0.002165473, 10.003283, 9.997968 
1.6452307e+3, 3.147016e+2, 411380.63, 66536.67, 6840.858, -0.117863424, 0.09023331, 411516.28, 411516.28, 0.0036801414, 10.0033245, 9.998811 
1.6550525e+3, 1.24707274e+2, -1737731.1, -1691866.4, 132156.05, 0.11285169, 0.17031567, -1580667.8, 137208.36, 0.03897044, 9.999614, 10.000338 
1.6550596e+3, 1.347051e+2, -1870997.6, -1811938.4, 779.53406, -0.030678581, -0.01813531, -1811928.1, -192027.4, 0.024272982, 9.998546, 9.999337 
1.6550674e+3, 1.447071e+2, -1760888.1, -1572460.1, -7627.838, -0.09590142, 0.20005469, -1572151.8, -50269.41, 0.0114189135, 9.998014, 10.00056 
1.6550782e+3, 1.5470769e+2, -1559420.3, -1397245.0, 35095.5, 0.026891006, 0.13916472, -1389975.9, 33900.0, 0.0034161112, 9.998633, 10.000777 
1.6550875e+3, 1.6470774e+2, -1474495.0, -1445132.9, -59474.145, 0.06254692, 0.13434124, -1398554.6, -72680.04, 0.00045137366, 9.999127, 9.99955 
1.6550948e+3, 1.747069e+2, -1320598.4, -1294666.9, -46061.05, -0.005431389, 0.04309215, -1259781.5, -31900.13, 0.000008273259, 9.99944, 9.9997425 
1.655103e+3, 1.8470632e+2, -1176787.0, -1176226.5, -15052.577, -0.042594105, 0.018120872, -1161451.6, -31566.541, 0.0, 9.999716, 9.999762 
1.6551124e+3, 1.9470584e+2, -1051665.9, -1038510.25, 6485.3965, -0.023673322, -0.06366355, -1035850.75, -3964.3176, 0.0, 9.999816, 9.999972 
1.655122e+3, 2.0470577e+2, -1000512.25, -1066139.0, 3279.3042, -0.0035913151, -0.0136833405, -1000348.8, -66462.18, 0.0, 9.999922, 9.999067 
1.6551322e+3, 2.1470591e+2, -857013.6, -916733.94, -948.7971, 0.03999526, 0.03249748, -856998.56, -21110.895, 0.0, 10.000133, 9.999304 
1.6551423e+3, 2.2470549e+2, -760596.4, -935624.4, 14373.125, 0.017917832, 0.117107615, -759423.94, -21529.857, 0.0, 10.0005865, 9.998315 
1.6551524e+3, 2.3470421e+2, -534130.6, -750098.2, 35050.156, -0.0701762, 0.10397155, -528584.6, 111323.47, 0.0, 10.001377, 9.998526 
1.6551624e+3, 2.4470264e+2, -382940.47, -627418.06, -40978.676, -0.11106671, 0.104248255, -376254.6, 165668.08, 0.0, 10.001744, 9.998507 
1.6551723e+3, 2.5470042e+2, -251501.44, -492528.44, -26420.12, -0.07162271, -0.028908014, -248639.38, 195301.19, 0.00000000856411, 10.001903, 9.998674 
1.6551828e+3, 2.646989e+2, -195750.52, -478912.34, 29299.889, -0.027802778, -0.012859657, -192750.53, 153203.95, 0.0000057188686, 10.001864, 9.998126 
1.6551945e+3, 2.74698e+2, -89265.44, -343912.06, 79003.16, 0.011335918, 0.019647948, -66746.42, 181218.13, 0.00005720022, 10.001803, 9.998394 
1.6552044e+3, 2.8469685e+2, -2621.8398, -319008.22, -8920.972, -0.006191639, 0.10009301, -2370.4998, 147606.33, 0.0002952708, 10.001989, 9.997832 
1.6552131e+3, 2.9469496e+2, 193635.53, -149894.6, -2031.4775, -0.05814419, 0.058117967, 193647.53, 245643.14, 0.00095047243, 10.002561, 9.998034 
1.6552225e+3, 3.046925e+2, 272649.25, -95937.43, 48718.7, -0.15706377, 0.032614823, 278980.03, 278980.03, 0.0020977922, 10.00284, 9.997935 
1.655235e+3, 3.1469166e+2, 300127.13, -21442.063, 79459.5, -0.072925374, 0.07737392, 318689.94, 318689.94, 0.003564112, 10.002709, 9.9985 
1.6650525e+3, 1.2469793e+2, -1927305.1, -1816583.8, 84568.28, 0.23232739, 0.19013819, -1770867.3, -52898.65, 0.041736465, 9.998439, 10.000027 
1.6650578e+3, 1.3469651e+2, -1791227.6, -1714971.9, -72938.164, -0.06517562, 0.027261835, -1670797.1, -50812.023, 0.026087236, 9.99883, 9.999866 
1.6650663e+3, 1.4469792e+2, -1741220.0, -1591048.9, 25908.156, -0.012050926, 0.17402555, -1586704.8, -64731.684, 0.012349877, 9.998294, 10.000281 
1.6650772e+3, 1.5469845e+2, -1554727.3, -1418802.3, 34203.043, 0.060765695, 0.12865943, -1410680.9, 13287.562, 0.003737191, 9.998782, 10.0005455 
1.665087e+3, 1.6469868e+2, -1457577.0, -1405287.0, -13002.272, 0.10655752, 0.14020127, -1402232.4, -76267.164, 0.00050616945, 9.999122, 9.999818 
1.6650946e+3, 1.7469792e+2, -1298613.3, -1257466.1, -10297.605, 0.04244821, 0.028389253, -1255032.9, -27063.236, 0.000009797576, 9.9994545, 9.999996 
1.6651031e+3, 1.8469736e+2, -1201669.0, -1217715.8, 57796.395, 0.0097112795, 0.008713389, -1151341.8, -21368.984, 0.0, 9.999699, 9.999472 
1.6651127e+3, 1.9469705e+2, -989352.0, -1036811.8, 11575.8955, 0.0049206717, -0.029261306, -986679.06, 45294.89, 0.0, 10.000385, 9.999693 
1.6651227e+3, 2.0469677e+2, -897145.94, -1073122.6, 23064.416, 0.023165165, 0.037371073, -894173.2, 39804.492, 0.0, 10.000882, 9.998559 
1.6651331e+3, 2.1469638e+2, -726280.7, -912354.56, -12604.556, 0.06382167, 0.0851024, -725430.7, 110555.02, 0.0, 10.001281, 9.998784 
1.6651434e+3, 2.2469568e+2, -620809.7, -826268.3, 55291.195, 0.039192405, 0.15471205, -606875.3, 131118.83, 0.0, 10.001378, 9.998664 
1.6651537e+3, 2.3469456e+2, -529732.1, -700167.8, 68329.914, -0.072536916, 0.11305986, -505720.6, 134283.23, 0.0, 10.00121, 9.998925 
1.6651641e+3, 2.4469298e+2, -451607.8, -684401.3, 35333.65, -0.090477936, 0.10015844, -446363.0, 95654.45, 0.0, 10.001346, 9.998334 
1.6651747e+3, 2.5469065e+2, -274945.3, -526449.44, 1554.7372, -0.0034520072, -0.019301903, -274935.72, 169102.25, 0.0000000057748837, 10.001815, 9.998507 
1.6651857e+3, 2.646892e+2, -152333.83, -438542.5, 60183.82, 0.0631554, 0.007208362, -140193.38, 205858.14, 0.0000055479773, 10.00208, 9.998297 
1.665197e+3, 2.7468866e+2, -24569.883, -308553.47, 18325.23, 0.07886809, 0.06159111, -23392.254, 224665.64, 0.000055377644, 10.002202, 9.998461 
1.665207e+3, 2.846874e+2, 43625.92, -325880.06, -32450.018, 0.039470017, 0.14726108, 46454.04, 196524.67, 0.00028510438, 10.002432, 9.997552 
1.6652156e+3, 2.9468527e+2, 195360.4, -175216.06, -70430.016, -0.06852598, 0.11095989, 208294.56, 260386.39, 0.000926934, 10.0027275, 9.997748 
1.6652252e+3, 3.0468193e+2, 295141.34, -118091.945, 20350.607, -0.16007, 0.016722903, 296141.13, 296141.13, 0.00206355, 10.00311, 9.997661 
1.6652387e+3, 3.1468096e+2, 347676.78, -11339.281, -49304.24, 0.032254234, 0.082241505, 354324.7, 354324.7, 0.0035217702, 10.003079, 9.99839 
1.67505e+3, 1.2468534e+2, -1874040.1, -1752801.1, -101815.22, 0.03461077, 0.035485987, -1694925.6, 23171.467, 0.044670317, 9.998625, 10.000385 
1.6750564e+3, 1.3468829e+2, -1669116.3, -1484838.8, -73239.82, -0.13684003, 0.13308005, -1459276.1, 160791.33, 0.028026333, 9.998906, 10.001441 
1.6750674e+3, 1.4468901e+2, -1758487.8, -1652437.0, 8039.8984, 0.20892721, 0.1618984, -1651830.9, -129769.98, 0.013357116, 9.998398, 9.999812 
1.6750751e+3, 1.5468882e+2, -1573675.0, -1463952.8, 71679.46, -0.072870724, 0.07853546, -1428549.4, -4484.626, 0.004090086, 9.998799, 10.000232 
1.6750844e+3, 1.6468929e+2, -1392468.9, -1297024.8, -20355.332, -0.12697612, 0.09443315, -1292864.9, 33194.21, 0.0005678562, 9.9992285, 10.000515 
1.675094e+3, 1.7469011e+2, -1257257.4, -1163183.9, 13109.472, 0.021417443, 0.07423522, -1161391.3, 66655.44, 0.000011659807, 9.999419, 10.000662 
1.6751036e+3, 1.8469024e+2, -1250596.5, -1324448.8, 61057.047, 0.04261419, 0.12603334, -1216167.9, -86124.01, 0.0, 9.99971, 9.998742 
1.6751128e+3, 1.9468953e+2, -1061728.9, -1158209.4, 50984.016, -0.03900816, 0.1244311, -1039780.2, -7727.5405, 0.0, 10.000257, 9.998929 
1.675123e+3, 2.0468847e+2, -950880.9, -1149824.3, 20167.885, -0.06246136, 0.17469232, -948857.0, -14791.187, 0.0, 10.000723, 9.998115 
1.6751339e+3, 2.1468687e+2, -794548.1, -999820.8, 21842.422, -0.023374204, 0.14736903, -792249.7, 43835.824, 0.0, 10.001036, 9.998308 
1.6751441e+3, 2.2468576e+2, -621004.56, -745154.0, 33924.53, -0.05989834, 0.16429418, -612339.3, 125756.164, 0.0, 10.001027, 9.999388 
1.6751544e+3, 2.3468508e+2, -517240.56, -612887.0, 77179.39, -0.15083519, 0.09059958, -474268.84, 165827.06, 0.0, 10.000947, 9.999649 
1.6751653e+3, 2.44684e+2, -521338.16, -754288.25, 31583.953, -0.12678821, 0.1060459, -517131.88, 24971.92, 0.0, 10.001027, 9.998003 
1.675177e+3, 2.5468233e+2, -339069.0, -593687.4, 41711.695, 0.022086356, 0.08538201, -332409.94, 111711.51, 0.0000000017385277, 10.001534, 9.998174 
1.6751881e+3, 2.646806e+2, -232499.52, -533722.75, 46224.945, 0.062071297, 0.12347768, -225565.58, 120573.89, 0.0000048816705, 10.001765, 9.997801 
1.6751987e+3, 2.746785e+2, -96059.945, -405752.44, 48572.867, 0.004934671, 0.072890475, -88620.38, 159540.97, 0.000051551386, 10.001966, 9.997915 
1.6752093e+3, 2.8467658e+2, -34417.176, -399132.9, -36853.605, -0.017930282, 0.13779683, -30730.479, 119450.09, 0.0002714196, 10.002059, 9.997227 
1.6752195e+3, 2.94675e+2, 136282.47, -228769.27, -26841.898, 0.016119225, 0.17946373, 138245.56, 190441.56, 0.0008994481, 10.002413, 9.99754 
1.675229e+3, 3.046709e+2, 184858.23, -221855.44, 1564.3478, -0.11241906, 0.04151844, 184864.27, 184864.27, 0.002033432, 10.002602, 9.99718 
1.6752407e+3, 3.14669e+2, 269637.53, -41328.445, 19360.17, -0.14619103, 0.06314987, 270838.25, 270838.25, 0.0035096947, 10.002536, 9.998433 
1.6850494e+3, 1.2467638e+2, -1979259.9, -1797060.3, 91969.836, 0.17609349, 0.05335469, -1758708.8, -40521.88, 0.04776628, 9.997915, 10.000388 
1.685055e+3, 1.3467972e+2, -1749304.6, -1514676.0, -77691.05, -0.12135051, 0.17238969, -1491283.0, 128870.875, 0.030093629, 9.99834, 10.001491 
1.6850656e+3, 1.4468046e+2, -1791791.5, -1675291.0, 17550.729, 0.21829559, 0.20193736, -1672704.4, -150557.23, 0.0144471, 9.998184, 9.999766 
1.6850743e+3, 1.5468024e+2, -1603713.3, -1478454.3, 74882.49, -0.0070598144, 0.1170889, -1443462.9, -19311.88, 0.004479329, 9.998595, 10.0002365 
1.6850838e+3, 1.646806e+2, -1453199.6, -1356878.4, 2711.4277, -0.0669069, 0.13798396, -1356802.1, -30655.525, 0.0006375465, 9.9989395, 10.000245 
1.6850935e+3, 1.7468145e+2, -1243091.5, -1179975.8, -64964.848, 0.009829972, 0.14393213, -1139309.5, 88825.34, 0.00001399049, 9.999623, 10.000439 
1.6851033e+3, 1.846816e+2, -1201377.3, -1309064.0, 4221.693, 0.04052029, 0.20711003, -1201212.0, -71079.32, 0.0, 10.000076, 9.99867 
1.6851138e+3, 1.9468075e+2, -1028406.56, -1153166.5, 15100.362, 0.011921152, 0.20093237, -1026604.9, 5538.032, 0.0, 10.000516, 9.998843 
1.6851243e+3, 2.0467946e+2, -948339.56, -1142247.9, 45517.91, 0.000109659675, 0.22840294, -938186.4, -4028.4597, 0.0, 10.000712, 9.998171 
1.6851346e+3, 2.1467762e+2, -841800.4, -1011975.75, 43143.984, -0.0062477244, 0.17081201, -831487.25, 4691.11, 0.0, 10.000671, 9.998397 
1.6851452e+3, 2.2467634e+2, -644554.75, -763363.44, 89043.75, -0.029179953, 0.16783363, -596918.56, 141270.33, 0.0, 10.000873, 9.999361 
1.6851561e+3, 2.3467548e+2, -465386.78, -596269.8, 46918.633, -0.0801998, 0.086306356, -450305.3, 189884.98, 0.0, 10.001319, 9.999612 
1.6851676e+3, 2.4467441e+2, -409497.06, -711669.06, 30948.232, -0.044282697, 0.1121491, -406359.94, 135838.23, 0.0, 10.001846, 9.997884 
1.6851793e+3, 2.5467294e+2, -201735.94, -548726.25, 9851.901, 0.06478272, 0.12202817, -201456.44, 242758.39, 0.0000000018399801, 10.002552, 9.99799 
1.6851905e+3, 2.6467106e+2, -108944.984, -514052.75, 42074.367, 0.08904882, 0.16838121, -104621.3, 241614.22, 0.0000039092515, 10.002777, 9.997453 
1.6852011e+3, 2.7466846e+2, -32007.248, -399037.53, 12343.439, 0.021455672, 0.1042543, -31592.6, 216669.89, 0.000046409757, 10.002551, 9.997658 
1.685212e+3, 2.846663e+2, 67981.94, -360868.03, 9057.156, 0.018133802, 0.16135307, 68173.14, 218457.13, 0.00025645504, 10.002779, 9.997171 
1.685223e+3, 2.9466474e+2, 276047.13, -167041.27, -12747.88, 0.09190686, 0.21270922, 276413.56, 328712.1, 0.0008664291, 10.003375, 9.997523 
1.6852328e+3, 3.0466056e+2, 286487.2, -195278.45, 50948.273, -0.02763943, 0.07663316, 291816.2, 291816.2, 0.0019907402, 10.0033455, 9.997039 
1.685244e+3, 3.146581e+2, 252579.77, -29976.455, 9152.228, -0.03667409, 0.0767399, 252875.89, 252875.89, 0.0034830796, 10.002264, 9.998695 
1.6950475e+3, 1.2467115e+2, -1986246.9, -1845790.4, 221507.2, 0.09369827, 0.2545868, -1683645.1, 34592.21, 0.051028147, 9.998065, 9.999988 
1.695053e+3, 1.346706e+2, -1849270.8, -1719451.3, -71450.22, -0.20046431, 0.13468751, -1687829.1, -67582.83, 0.032295942, 9.998337, 10.000064 
1.6950607e+3, 1.446721e+2, -1740012.1, -1603867.4, 4985.2764, -0.16117096, 0.28403008, -1603685.1, -81451.836, 0.015627254, 9.998327, 10.000193 
1.6950744e+3, 1.5467274e+2, -1578392.1, -1442944.9, 102134.79, 0.107310265, 0.26037842, -1388120.5, 36105.93, 0.004910431, 9.998665, 10.000449 
1.695085e+3, 1.6467267e+2, -1508329.4, -1499484.3, 5535.227, 0.101527914, 0.27701682, -1496821.8, -170594.64, 0.0007170378, 9.999056, 9.999209 
1.695092e+3, 1.7467207e+2, -1320640.9, -1336511.5, -23782.21, -0.13017681, 0.2429017, -1303505.0, -75271.87, 0.000016975888, 9.999603, 9.9993725 
1.6951019e+3, 1.8467149e+2, -1157536.4, -1227315.8, -168.73749, -0.16764016, 0.2640035, -1157536.0, -27297.514, 0.0, 10.000108, 9.999218 
1.6951145e+3, 1.9467072e+2, -1003486.44, -1074548.3, 42113.957, -0.0004079015, 0.20322478, -983917.1, 48327.824, 0.0, 10.0004, 9.999437 
1.6951257e+3, 2.0466977e+2, -946500.06, -1087363.0, 22835.057, 0.041730884, 0.21106565, -942890.75, -8637.2295, 0.0, 10.000486, 9.998663 
1.6951354e+3, 2.1466851e+2, -839089.1, -960982.75, 57951.53, -0.036414858, 0.16701089, -815935.44, 20330.117, 0.0, 10.000461, 9.9988575 
1.6951461e+3, 2.2466724e+2, -737424.3, -874642.9, 86362.41, -0.059783004, 0.169083, -695735.4, 42540.887, 0.0, 10.000536, 9.998752 
1.6951583e+3, 2.346657e+2, -559422.25, -712316.3, 85791.016, -0.012157702, 0.08321926, -520959.56, 119328.086, 0.0, 10.000992, 9.998964 
1.6951701e+3, 2.4466413e+2, -470525.0, -747217.4, 42108.42, -0.008316983, 0.094489545, -464258.66, 78042.88, 0.0, 10.001457, 9.99783 
1.6951813e+3, 2.5466242e+2, -244712.1, -574259.7, 57565.27, -0.017984064, 0.0862176, -234946.03, 209373.34, 0.0000000033657745, 10.002279, 9.997949 
1.6951925e+3, 2.6466048e+2, -176671.61, -572364.75, 18971.816, -0.036806263, 0.14454369, -175764.06, 170575.86, 0.0000030031388, 10.002433, 9.9972105 
1.6952033e+3, 2.746583e+2, -89497.99, -451950.38, 28206.719, -0.031024534, 0.14006142, -87316.03, 161047.84, 0.000041455987, 10.002273, 9.997422 
1.6952145e+3, 2.8465626e+2, 28341.371, -357526.84, 8487.275, -0.028873755, 0.2053676, 28527.96, 178912.34, 0.00024337543, 10.002413, 9.997373 
1.6952257e+3, 2.9465404e+2, 247273.14, -161599.14, 36154.605, -0.021658724, 0.17833926, 250445.5, 302849.34, 0.0008331997, 10.003074, 9.997717 
1.6952355e+3, 3.0465052e+2, 210819.03, -222413.03, -3818.7559, -0.11401104, 0.092265986, 210852.69, 210852.69, 0.0019314516, 10.00283, 9.997079 
1.6952473e+3, 3.1464878e+2, 204721.03, 37164.438, 34535.316, 0.002278195, 0.1439483, 211560.02, 211560.02, 0.0034112176, 10.001585, 9.99946 
1.7050442e+3, 1.2466268e+2, -2148712.5, -1838974.3, 181210.92, 0.03851931, 0.32268164, -1755470.0, -37150.156, 0.054460447, 9.996591, 10.0007515 
1.7050512e+3, 1.3466018e+2, -2043365.0, -1841321.3, -129973.99, -0.13243563, 0.046980627, -1777726.5, -157379.53, 0.034638863, 9.9971285, 9.999823 
1.7050593e+3, 1.4466238e+2, -1758107.0, -1603722.4, 20765.629, -0.1008815, 0.2705606, -1600978.1, -78651.43, 0.016903277, 9.9981985, 10.00025 
1.7050734e+3, 1.5466315e+2, -1505177.9, -1409573.3, 56230.895, 0.12120495, 0.26109242, -1383572.0, 40746.78, 0.00538814, 9.999194, 10.000411 
1.7050843e+3, 1.6466275e+2, -1450508.6, -1509590.4, -393.9214, 0.102764465, 0.26600304, -1450506.0, -124182.83, 0.0008082668, 9.999619, 9.998865 
1.7050922e+3, 1.7466147e+2, -1312802.9, -1366802.1, -11434.318, -0.08773696, 0.19638968, -1310481.5, -82144.2, 0.000020835996, 9.999803, 9.999075 
1.7051025e+3, 1.8466075e+2, -1187567.3, -1224214.4, 59459.383, -0.09974974, 0.21134196, -1143672.1, -13327.485, 0.0, 9.999829, 9.999385 
1.7051148e+3, 1.9466037e+2, -1052919.6, -1082685.5, 38053.09, 0.03205887, 0.17712483, -1026942.6, 5404.37, 0.0, 9.999986, 9.999598 
1.7051262e+3, 2.0465979e+2, -950606.06, -1052716.5, 35612.766, 0.07066458, 0.19891892, -939412.56, -5061.5645, 0.0, 10.000314, 9.998965 
1.7051363e+3, 2.1465898e+2, -738927.6, -877553.25, 20128.883, -0.008574193, 0.16587049, -736064.0, 100292.89, 0.0, 10.001022, 9.999143 
1.7051475e+3, 2.246577e+2, -647628.56, -899657.06, 70188.38, -0.018624015, 0.18167749, -629399.94, 108968.44, 0.0, 10.001435, 9.998145 
1.70516e+3, 2.3465572e+2, -537680.56, -767702.4, 31074.451, 0.04663347, 0.11045498, -533556.56, 106831.28, 0.0, 10.001425, 9.998366 
1.7051722e+3, 2.4465393e+2, -429048.88, -715587.5, 49228.688, 0.06711946, 0.12646136, -420827.06, 121577.77, 0.0, 10.001694, 9.997941 
1.705184e+3, 2.5465223e+2, -227155.03, -541473.94, 41740.652, 0.0236079, 0.10750073, -221706.45, 222714.25, 0.0000000026261497, 10.002317, 9.998147 
1.7051952e+3, 2.6465037e+2, -127993.43, -538590.25, 31754.076, 0.0020870212, 0.1538551, -125552.195, 220887.61, 0.0000021613648, 10.0027075, 9.997323 
1.7052062e+3, 2.746482e+2, -11854.136, -408564.47, 23522.84, 0.007843164, 0.1459601, -10464.225, 237998.86, 0.000036656253, 10.002759, 9.997503 
1.7052174e+3, 2.84646e+2, 100635.625, -305196.88, 75106.32, 0.018242015, 0.18907751, 114089.35, 264574.13, 0.00022921336, 10.002844, 9.997513 
1.7052287e+3, 2.9464346e+2, 235901.89, -150246.84, 46245.25, 0.006853501, 0.11818865, 241363.0, 293870.75, 0.00079328316, 10.002956, 9.997832 
1.7052387e+3, 3.0464065e+2, 266509.88, -209867.72, 15060.03, -0.08789456, 0.10568567, 266985.53, 266985.53, 0.0018438259, 10.003257, 9.996948 
1.7052504e+3, 3.1463927e+2, 461701.3, 160423.48, -66508.31, 0.09566614, 0.20660338, 475730.06, 475730.06, 0.0032717832, 10.003376, 9.999412 
1.715041e+3, 1.2465052e+2, -1972132.8, -1538189.0, 27872.922, -0.03289659, 0.20495354, -1536406.0, 182032.97, 0.058051143, 9.996777, 10.002825 
1.7150493e+3, 1.3464902e+2, -1988635.8, -1726993.0, -62729.6, -0.06513354, -0.0467839, -1712730.9, -92280.305, 0.037118543, 9.997133, 10.000604 
1.7150612e+3, 1.4465149e+2, -1742464.0, -1624273.8, 44431.344, 0.19483086, 0.17471628, -1609434.0, -87008.31, 0.018276531, 9.998407, 10.000013 
1.7150706e+3, 1.5465139e+2, -1524769.9, -1457476.8, 109624.58, -0.11736859, 0.10811409, -1376451.4, 47977.117, 0.005915651, 9.999217, 10.000074 
1.715081e+3, 1.6465098e+2, -1418272.4, -1456427.0, -17101.457, -0.22797191, 0.11316603, -1411729.4, -85295.38, 0.0009130136, 9.999679, 9.999198 
1.715093e+3, 1.746499e+2, -1292085.0, -1313416.1, 8588.925, -0.009320815, 0.02155215, -1289056.6, -60611.2, 0.000025810483, 9.9997635, 9.999456 
1.7151044e+3, 1.8464951e+2, -1201102.0, -1254136.1, 47120.105, 0.0637948, 0.061565656, -1173550.1, -43099.938, 0.0, 9.999833, 9.999179 
1.7151146e+3, 1.9464979e+2, -1081494.5, -1120615.0, 59485.11, -0.031843804, 0.11535064, -1038436.25, -5987.7656, 0.0, 9.999893, 9.999381 
1.7151253e+3, 2.046496e+2, -973486.9, -1058446.0, 43246.707, -0.08673863, 0.18529482, -955346.4, -20896.863, 0.0, 10.000135, 9.999014 
1.7151369e+3, 2.1464881e+2, -774675.75, -885684.1, 61475.29, -0.07056581, 0.14918914, -747355.25, 89098.945, 0.0, 10.000742, 9.999222 
1.7151487e+3, 2.2464752e+2, -737210.25, -1008571.75, 53630.066, -0.061145723, 0.18461807, -726995.7, 11471.559, 0.0, 10.001096, 9.997568 
1.7151608e+3, 2.3464546e+2, -617853.75, -879386.25, 48537.285, -0.044217587, 0.17168821, -609136.4, 31354.822, 0.0, 10.001179, 9.9977255 
1.7151733e+3, 2.4464375e+2, -460918.75, -695185.8, 53696.88, -0.014819388, 0.21201523, -449197.25, 93311.44, 0.0, 10.001333, 9.998247 
1.7151867e+3, 2.546422e+2, -250447.44, -520133.78, 84896.16, 0.040218778, 0.1726098, -225948.08, 218573.02, 0.0000000000058928205, 10.002017, 9.99844 
1.7151985e+3, 2.6464027e+2, -147861.55, -502319.56, 16182.937, 0.030082941, 0.17960556, -147124.23, 199414.61, 0.0000014626683, 10.002375, 9.997732 
1.7152089e+3, 2.7463788e+2, -22337.195, -364992.03, 45219.4, -0.030413726, 0.10692721, -16470.15, 232092.5, 0.000032258973, 10.002473, 9.997941 
1.71522e+3, 2.8463542e+2, 39809.94, -344275.72, 58103.152, -0.04425241, 0.10560404, 48407.15, 198993.66, 0.00021422842, 10.002466, 9.997429 
1.715232e+3, 2.9463276e+2, 188420.5, -179722.5, 82574.35, -0.019029668, 0.018100193, 206093.5, 258705.92, 0.00074612966, 10.002648, 9.997781 
1.7152417e+3, 3.046306e+2, 152021.69, -324670.03, 723.2355, -0.14955929, 0.103207186, 152022.8, 152022.8, 0.001733619, 10.002768, 9.996382 
1.715253e+3, 3.146289e+2, 301157.03, 7477.3525, -1034.644, -0.08174226, 0.22191024, 301160.7, 301160.7, 0.0030849238, 10.002648, 9.99869 
1.7250383e+3, 1.2463845e+2, -2032615.6, -1492723.4, 27486.678, 0.072495885, 0.12962085, -1491327.6, 227227.88, 0.06177432, 9.996019, 10.003514 
1.7250489e+3, 1.3463831e+2, -1719616.6, -1583363.9, -66944.164, 0.10185021, -0.0285963, -1555977.3, 64575.617, 0.039721623, 9.998906, 10.000728 
1.72506e+3, 1.4464027e+2, -1637512.5, -1598221.5, -21241.277, 0.2223746, 0.1510116, -1588933.6, -66400.45, 0.019743169, 9.999214, 9.999817 
1.7250688e+3, 1.5463965e+2, -1715040.9, -1547799.0, 14434.649, -0.13390037, 0.03854284, -1546562.3, -122019.5, 0.006494274, 9.997873, 10.000128 
1.72508e+3, 1.6463986e+2, -1655904.1, -1492997.5, 143.00122, -0.19680385, 0.071147524, -1492997.4, -166455.02, 0.001032908, 9.997702, 9.99991 
1.7250931e+3, 1.7464007e+2, -1280944.4, -1225892.3, 19080.021, 0.053300597, 0.03541872, -1219926.1, 8613.65, 0.00003215152, 9.999473, 10.0002 
1.725105e+3, 1.8464005e+2, -1137717.6, -1252797.1, 75601.66, 0.1323309, 0.08483014, -1100249.9, 30290.91, 0.0, 10.000394, 9.998916 
1.725115e+3, 1.9463994e+2, -975300.06, -1098194.9, 45660.387, -0.0098293945, 0.13001058, -960192.56, 72351.37, 0.0, 10.000756, 9.999115 
1.725126e+3, 2.046393e+2, -871131.06, -1050511.6, 53235.887, -0.06930348, 0.18457599, -856521.75, 78028.336, 0.0, 10.00101, 9.998659 
1.7251381e+3, 2.1463773e+2, -707136.9, -897672.75, 10988.295, -0.040094398, 0.10992782, -706505.3, 130057.34, 0.0, 10.00138, 9.998847 
1.7251505e+3, 2.2463624e+2, -655668.75, -941129.0, 33334.586, -0.0037881357, 0.13802786, -651827.8, 86749.46, 0.0, 10.001571, 9.997781 
1.7251627e+3, 2.3463485e+2, -533026.2, -813437.5, 44930.31, 0.018539358, 0.16827588, -526002.94, 114591.49, 0.0, 10.001679, 9.99792 
1.7251754e+3, 2.4463327e+2, -378175.13, -643820.75, 122673.984, 0.048843104, 0.20785676, -330191.94, 212417.95, 0.0, 10.001825, 9.998366 
1.7251888e+3, 2.5463146e+2, -250695.64, -502373.75, 110225.71, 0.07619686, 0.12547028, -209246.98, 235377.4, 0.0000000000049057277, 10.001925, 9.998602 
1.725201e+3, 2.6462966e+2, -174404.8, -495034.03, 59195.965, 0.06880956, 0.13150454, -163824.89, 182815.89, 0.0000011502509, 10.002128, 9.997891 
1.7252117e+3, 2.7462777e+2, -17819.979, -351626.5, 24295.473, 0.029711427, 0.10127888, -16060.947, 232599.97, 0.000029351942, 10.002462, 9.998039 
1.7252232e+3, 2.846258e+2, 94544.484, -315358.66, 73671.96, 0.032385953, 0.13898882, 107383.42, 258065.42, 0.00020332959, 10.002862, 9.997415 
1.7252354e+3, 2.946234e+2, 300369.06, -127988.36, 37628.266, 0.051174678, 0.08912272, 303649.3, 356355.72, 0.00070578046, 10.003464, 9.997719 
1.7252454e+3, 3.046215e+2, 363284.0, -214995.88, 23082.71, -0.0919948, 0.19519933, 364203.9, 364203.9, 0.0016366786, 10.004129, 9.996514 
1.725257e+3, 3.1461895e+2, 552567.25, 74400.14, -14697.729, 0.004079113, 0.23496498, 553018.56, 553018.56, 0.002919125, 10.004517, 9.998315 
1.7350334e+3, 1.2462585e+2, -2100974.5, -1652710.3, 54841.754, -0.120886296, 0.0064561917, -1646098.3, 72577.21, 0.06561491, 9.996155, 10.002271 
1.7350498e+3, 1.3462786e+2, -1764758.3, -1679465.0, 20896.814, 0.2572074, 0.087051, -1674620.5, -53965.098, 0.042436883, 9.998919, 10.000049 
1.7350553e+3, 1.4462838e+2, -1630521.6, -1610653.0, -96616.85, -0.24097261, 0.1845547, -1523461.0, -808.551, 0.021297567, 9.99933, 9.999672 
1.7350675e+3, 1.5462792e+2, -1682143.9, -1489999.9, -23840.605, -0.09893159, 0.052560724, -1487086.0, -62424.574, 0.0071235094, 9.997918, 10.000501 
1.7350803e+3, 1.6462949e+2, -1551580.6, -1316469.4, 40068.816, 0.010382584, 0.14262399, -1309828.3, 16819.254, 0.0011691477, 9.997858, 10.00105 
1.7350923e+3, 1.7463195e+2, -1206577.6, -1075533.5, 97776.305, -0.029334731, 0.22604233, -1023355.4, 205265.73, 0.00004011834, 9.99948, 10.001232 
1.7351039e+3, 1.8463238e+2, -1164460.9, -1307622.5, 66513.99, -0.06967955, 0.28519315, -1138328.3, -7711.6, 0.0, 10.000388, 9.998543 
1.7351156e+3, 1.9463074e+2, -1028006.94, -1171081.6, 70701.414, -0.055008415, 0.21614847, -998964.56, 33669.83, 0.0, 10.000593, 9.998695 
1.7351276e+3, 2.0462874e+2, -953651.7, -1172136.8, 48646.734, -0.056658637, 0.19188845, -943309.8, -8655.797, 0.0, 10.000791, 9.997928 
1.7351395e+3, 2.1462588e+2, -791412.94, -1025263.3, 42007.715, -0.06992107, 0.06001829, -784095.9, 52584.375, 0.0, 10.001172, 9.998068 
1.7351522e+3, 2.246241e+2, -642035.7, -842407.1, 21456.748, -0.038178675, 0.058673535, -639763.75, 98932.51, 0.0, 10.001269, 9.998601 
1.7351653e+3, 2.3462357e+2, -507319.1, -699935.5, 67295.56, 0.07637929, 0.08322423, -486137.03, 154563.28, 0.0, 10.001412, 9.998829 
1.735178e+3, 2.446223e+2, -429106.2, -660135.1, 110390.26, 0.0835221, 0.10194243, -384840.78, 157870.0, 0.0, 10.001453, 9.99843 
1.73519e+3, 2.5462008e+2, -290341.56, -514012.6, 135537.1, -0.023924148, -0.023275414, -226457.17, 218272.72, 0.000000000000012544113, 10.001631, 9.998661 
1.7352022e+3, 2.646186e+2, -244951.14, -551179.5, 52944.31, -0.055756163, 0.016881686, -236055.9, 110689.82, 0.0000010511417, 10.001748, 9.9976845 
1.7352144e+3, 2.746179e+2, -80164.78, -402787.9, 61684.414, 0.022778189, 0.12532586, -68773.17, 179984.69, 0.000029114979, 10.002144, 9.9978285 
1.7352268e+3, 2.846168e+2, 21598.006, -386092.8, 72585.34, 0.05536296, 0.27624077, 34135.55, 184908.8, 0.00019954766, 10.00251, 9.997101 
1.735239e+3, 2.9461476e+2, 221194.73, -201379.38, 88224.49, 0.016361702, 0.2857441, 238874.45, 291670.13, 0.0006844002, 10.003074, 9.997402 
1.7352495e+3, 3.0461273e+2, 332023.47, -153856.22, 12563.132, -0.15091942, 0.36433727, 332348.1, 332348.1, 0.0015865881, 10.003618, 9.997161 
1.735262e+3, 3.1460837e+2, 440783.7, 53233.73, 64395.71, -0.034304045, 0.12888373, 451203.6, 451203.6, 0.0028417592, 10.003672, 9.99854 
1.745031e+3, 1.24614e+2, -2058673.8, -1689052.8, 31029.967, 0.025455426, 0.051270243, -1686465.9, 32325.643, 0.06957688, 9.996741, 10.001713 
1.7450477e+3, 1.3461608e+2, -1985830.0, -1731547.6, 29983.645, 0.2598245, 0.10260239, -1728060.0, -107288.06, 0.045260757, 9.997184, 10.000527 
1.7450525e+3, 1.4461651e+2, -1782369.9, -1653713.3, -19998.941, -0.38241208, 0.15230131, -1650676.1, -127906.18, 0.022935338, 9.998174, 9.999914 
1.7450665e+3, 1.5461712e+2, -1542385.1, -1396730.5, -16891.553, -0.022785293, 0.09905924, -1394797.3, 29971.076, 0.0078018596, 9.998779, 10.000702 
1.7450798e+3, 1.6461883e+2, -1443937.6, -1290288.4, 68168.71, 0.1351363, 0.20342892, -1264404.6, 62348.645, 0.0013223152, 9.998713, 10.000825 
1.7450912e+3, 1.7462088e+2, -1344134.6, -1162695.4, -669.09045, -0.03216909, 0.26872516, -1162692.9, 66039.21, 0.000049909977, 9.998632, 10.00105 
1.7451032e+3, 1.8462119e+2, -1361640.0, -1360951.8, -23814.797, -0.09250901, 0.30870408, -1337478.5, -206750.27, 0.0000000000000006446772, 9.998876, 9.998888 
1.745116e+3, 1.9461954e+2, -1123617.6, -1175476.0, -1044.4404, -0.027639972, 0.19934006, -1123596.6, -90852.89, 0.0, 9.999769, 9.999041 
1.7451286e+3, 2.0461753e+2, -984399.0, -1202772.5, 65838.8, 0.0014066488, 0.1631121, -966084.8, -31321.969, 0.0, 10.000634, 9.997801 
1.7451413e+3, 2.146149e+2, -732133.1, -1005928.7, 66748.9, -0.022192204, 0.067724764, -716727.25, 120060.95, 0.0, 10.001621, 9.997985 
1.7451541e+3, 2.2461309e+2, -536723.3, -807192.4, 45187.76, 0.010450913, 0.07244489, -529373.44, 209431.73, 0.0, 10.002028, 9.998498 
1.745167e+3, 2.346122e+2, -462928.63, -686992.5, -11606.09, 0.10371854, 0.074583225, -462329.06, 178483.47, 0.0, 10.00175, 9.998761 
1.7451797e+3, 2.4461105e+2, -393775.06, -630461.8, 31443.047, 0.11781162, 0.10304828, -389669.2, 153153.11, 0.0, 10.001681, 9.998511 
1.7451921e+3, 2.546093e+2, -257740.8, -489621.97, 14538.889, 0.021289963, 0.021594195, -256832.78, 188004.88, 0.0, 10.001854, 9.998713 
1.7452045e+3, 2.646079e+2, -181583.5, -502518.1, -14522.784, -0.00887517, 0.062605545, -180927.67, 165924.44, 0.0000010008785, 10.002077, 9.997866 
1.7452167e+3, 2.7460694e+2, -24253.756, -356976.84, -19550.594, 0.024294933, 0.12362244, -23108.916, 225756.86, 0.000030147008, 10.002417, 9.998016 
1.7452297e+3, 2.8460574e+2, 119518.42, -334518.5, 79828.7, 0.073978506, 0.2546983, 133144.94, 284025.53, 0.00019899277, 10.003123, 9.997182 
1.7452434e+3, 2.9460382e+2, 372899.72, -137684.47, 67533.11, 0.10917263, 0.27277333, 381681.03, 434582.5, 0.00068156485, 10.004092, 9.997383 
1.745254e+3, 3.046014e+2, 413084.34, -103505.14, 2966.5935, -0.06100346, 0.31032768, 413101.38, 413101.38, 0.0015937911, 10.004106, 9.997291 
1.7452657e+3, 3.145974e+2, 395017.34, 2311.125, -82670.77, 0.015410017, 0.10366541, 411711.2, 411711.2, 0.0028815179, 10.00343, 9.99832 
1.75503e+3, 1.2460203e+2, -1995738.5, -1607289.3, -112993.45, 0.15264322, 0.19773623, -1576812.5, 142099.72, 0.07366958, 9.996909, 10.0022545 
1.7550412e+3, 1.3460273e+2, -1864256.6, -1485038.1, 77422.805, -0.15750909, -0.008150418, -1469840.3, 151064.25, 0.048192136, 9.997184, 10.002266 
1.7550515e+3, 1.446053e+2, -1710749.8, -1538936.4, -5019.8457, -0.36262426, 0.09866846, -1538789.8, -15909.778, 0.024652572, 9.998311, 10.000643 
1.7550656e+3, 1.5460727e+2, -1538737.3, -1403782.0, 16258.567, -0.037857775, 0.18442446, -1401850.9, 23012.658, 0.008527423, 9.998828, 10.000641 
1.7550775e+3, 1.6460761e+2, -1535506.8, -1498487.3, 32766.846, -0.014180673, 0.2339332, -1479363.5, -152500.86, 0.0014925194, 9.998798, 9.999352 
1.7550893e+3, 1.7460689e+2, -1446338.4, -1364559.8, 12454.194, -0.10420723, 0.1602422, -1362705.1, -133832.47, 0.00006156021, 9.998599, 9.999677 
1.7551023e+3, 1.8460666e+2, -1288556.4, -1208836.5, -10433.91, -0.108137146, 0.1653101, -1207493.5, -76619.55, 0.0000000010737394, 9.998873, 9.999932 
1.7551157e+3, 1.9460642e+2, -1064166.6, -1031498.1, 45409.098, -0.07336996, 0.09090699, -999574.8, 33296.438, 0.0, 9.99968, 10.000073 
1.7551291e+3, 2.0460568e+2, -981856.56, -1156423.6, 83002.984, -0.06773428, 0.10811032, -948691.3, -13814.858, 0.0, 10.000457, 9.998201 
1.7551431e+3, 2.1460444e+2, -740750.44, -964025.56, 116955.04, -0.03665618, 0.10651339, -690704.9, 146185.03, 0.0, 10.001359, 9.998401 
1.755156e+3, 2.2460291e+2, -652569.06, -968434.56, 18469.467, -0.027201032, 0.16445856, -651492.8, 87413.96, 0.0, 10.001688, 9.997555 
1.7551675e+3, 2.3460083e+2, -569383.9, -853242.6, -3734.816, -0.045614235, 0.14583927, -569334.75, 71595.11, 0.0, 10.001507, 9.997741 
1.7551802e+3, 2.4459946e+2, -448011.22, -666891.44, 23958.652, -0.037161723, 0.20942162, -445419.4, 97524.9, 0.0, 10.001355, 9.998417 
1.7551945e+3, 2.5459877e+2, -301075.63, -515190.28, 41154.9, 0.04212852, 0.23653133, -293437.72, 151512.34, 0.0, 10.001578, 9.998667 
1.7552072e+3, 2.6459724e+2, -198253.44, -464707.6, -23901.082, 0.019760137, 0.24510325, -196126.47, 150837.05, 0.00000094846536, 10.0017605, 9.9982815 
1.7552179e+3, 2.7459475e+2, -32847.89, -303584.3, 14544.664, -0.123416156, 0.10603046, -32068.754, 216916.39, 0.000030605133, 10.002117, 9.998525 
1.7552315e+3, 2.8459278e+2, 93464.68, -304310.13, 96531.26, -0.10548377, 0.10760446, 115653.016, 266656.1, 0.00020047408, 10.002762, 9.9975605 
1.7552479e+3, 2.9459083e+2, 326682.84, -123690.766, 126747.336, 0.11803682, 0.08304729, 359902.66, 412924.44, 0.00069770816, 10.003634, 9.997691 
1.7552584e+3, 3.0458796e+2, 287022.78, -241579.2, -54809.832, -0.059950043, 0.098086685, 292646.1, 292646.1, 0.001653074, 10.003582, 9.996585 
1.7552678e+3, 3.145865e+2, 204272.8, -196577.14, -27864.215, -0.18858966, 0.18972687, 206200.44, 206200.44, 0.0030124856, 10.002636, 9.997308 
1.7650262e+3, 1.245891e+2, -2141154.5, -1671063.8, -51419.69, 0.1493196, 0.15662919, -1665505.1, 53537.305, 0.07790593, 9.995866, 10.002289 
1.7650379e+3, 1.345903e+2, -2084322.3, -1542812.4, 93681.94, -0.08291724, -0.031531423, -1527063.4, 93966.14, 0.05123237, 9.995453, 10.002691 
1.7650498e+3, 1.4459464e+2, -1935167.6, -1602839.4, 7269.8716, -0.26266566, 0.20167913, -1602680.5, -79693.98, 0.026445003, 9.996585, 10.001043 
1.7650642e+3, 1.5459596e+2, -1509966.1, -1352136.5, -2545.4067, -0.041488405, 0.1955072, -1352095.5, 72878.02, 0.009296644, 9.998897, 10.000961 
1.7650762e+3, 1.6459583e+2, -1424729.5, -1499688.5, 42755.004, -0.04422243, 0.20414811, -1405352.1, -78375.55, 0.0016790463, 9.999809, 9.998846 
1.765089e+3, 1.745946e+2, -1363056.4, -1389187.1, 44407.74, -0.039151184, 0.13268307, -1329832.0, -100839.29, 0.000074904594, 9.999448, 9.999092 
1.7651026e+3, 1.845941e+2, -1209208.4, -1179185.3, 86888.56, 0.0063431445, 0.14410168, -1106021.0, 24976.447, 0.000000009428086, 9.999443, 9.999873 
1.7651162e+3, 1.94594e+2, -974760.9, -988406.0, 29240.148, -0.008998585, 0.08863, -951557.9, 81435.98, 0.0, 10.000291, 10.000089 
1.76513e+3, 2.0459366e+2, -927025.25, -1081319.9, 42554.094, -0.020299112, 0.12630738, -916067.2, 18928.137, 0.0, 10.000635, 9.998628 
1.7651443e+3, 2.1459307e+2, -840268.7, -963047.6, 44909.32, 0.0032849652, 0.15184058, -825595.56, 11406.649, 0.0, 10.000476, 9.998829 
1.7651576e+3, 2.2459182e+2, -760393.94, -1018562.9, 18854.49, 0.011183569, 0.2160659, -759024.25, -20007.78, 0.0, 10.00096, 9.99755 
1.7651695e+3, 2.3458965e+2, -450054.1, -793990.1, 23991.443, -0.026798794, 0.19063762, -448388.63, 192652.45, 0.0, 10.002343, 9.997734 
1.7651825e+3, 2.44588e+2, -263079.44, -631898.7, 76970.85, -0.0074632294, 0.24846697, -247660.6, 295398.2, 0.0, 10.002814, 9.997977 
1.7651966e+3, 2.5458685e+2, -248672.28, -545606.8, 34270.586, 0.08032889, 0.2788535, -244768.28, 200301.17, 0.0, 10.002141, 9.998205 
1.7652096e+3, 2.6458493e+2, -143784.33, -429641.3, 12379.904, 0.076831415, 0.27005857, -143249.19, 203836.64, 0.0000007067664, 10.002117, 9.99834 
1.7652209e+3, 2.7458206e+2, 83659.99, -237151.92, -24005.768, -0.058544915, 0.08213007, 85446.35, 334555.66, 0.000029110019, 10.002888, 9.998603 
1.7652346e+3, 2.8458002e+2, 143907.75, -251065.9, 57313.305, -0.051912162, 0.06510309, 152056.19, 303182.9, 0.0002034409, 10.003009, 9.997802 
1.765251e+3, 2.9457855e+2, 175141.03, -175595.45, 17170.85, 0.13072753, 0.08011126, 175979.66, 229120.61, 0.0007263894, 10.002522, 9.997866 
1.7652619e+3, 3.0457532e+2, 248558.52, -249634.83, -70430.3, -0.038973402, 0.04479972, 258323.92, 258323.92, 0.0017327985, 10.00324, 9.996702 
1.7652728e+3, 3.145739e+2, 566210.25, -7826.2715, -67385.12, -0.059563473, 0.1420003, 574014.4, 574014.4, 0.0031529672, 10.005006, 9.99749 
1.7750204e+3, 1.2457834e+2, -2153328.3, -1771428.5, -172139.45, -0.12261579, 0.18366496, -1705291.1, 13860.41, 0.08231803, 9.996143, 10.001476 
1.7750391e+3, 1.3457958e+2, -2149990.0, -1689309.3, 119451.05, 0.4310742, 0.07564465, -1660178.5, -39039.14, 0.054393712, 9.995508, 10.001627 
1.7750464e+3, 1.44584e+2, -1917176.8, -1596140.5, 71936.67, -0.33409178, 0.39750403, -1580758.3, -57663.887, 0.02831169, 9.996711, 10.001033 
1.775062e+3, 1.5458316e+2, -1460875.4, -1259490.4, 96591.83, -0.20339687, 0.11891123, -1220651.6, 204446.94, 0.010105246, 9.9989195, 10.0016 
1.775076e+3, 1.645835e+2, -1389318.0, -1438289.8, 10722.053, -0.11704889, 0.1149401, -1387073.3, -59979.09, 0.0018804772, 9.999862, 9.999241 
1.7750894e+3, 1.7458391e+2, -1351631.3, -1361808.8, 44229.406, 0.016637051, 0.18558362, -1312198.9, -83105.86, 0.00008970714, 9.999437, 9.999282 
1.775103e+3, 1.8458337e+2, -1284265.8, -1340901.3, 97051.58, 0.06273435, 0.2384239, -1211485.0, -80385.06, 0.000000028818846, 9.999469, 9.998751 
1.775117e+3, 1.9458207e+2, -1067121.3, -1156904.8, 76848.81, 0.0135874925, 0.17464593, -1023012.94, 10100.245, 0.0, 10.000188, 9.998983 
1.775131e+3, 2.0458132e+2, -928534.44, -1036496.94, 18032.385, -0.03064913, 0.20652135, -925602.2, 9518.524, 0.0, 10.000436, 9.999025 
1.7751445e+3, 2.145808e+2, -851416.7, -923285.75, 52376.96, -0.042223427, 0.19499539, -823832.44, 13292.758, 0.0, 10.000215, 9.999221 
1.7751585e+3, 2.2457989e+2, -755433.75, -940087.2, 51547.047, -0.038890686, 0.23806357, -742018.7, -2884.5403, 0.0, 10.000656, 9.998238 
1.7751727e+3, 2.345784e+2, -428626.4, -703093.5, 93680.3, 0.0071180356, 0.20284027, -399700.25, 241448.72, 0.0, 10.002125, 9.998469 
1.7751859e+3, 2.4457633e+2, -362672.97, -755603.2, 34336.8, 0.022213234, 0.21422696, -359694.97, 183474.2, 0.0, 10.002467, 9.997289 
1.7751983e+3, 2.5457358e+2, -342293.6, -674965.5, 27552.379, 0.00049978594, 0.15784477, -340027.1, 105168.57, 0.0, 10.00187, 9.997444 
1.7752112e+3, 2.6457113e+2, -221350.5, -510008.4, 24379.781, -0.0012828798, 0.15152034, -219305.89, 127912.234, 0.00000032366296, 10.00178, 9.997948 
1.7752251e+3, 2.7456892e+2, 3361.6094, -316896.28, 29426.492, 0.037857227, 0.06747286, 6042.9756, 255280.11, 0.00002512301, 10.002536, 9.998214 
1.7752388e+3, 2.8456748e+2, 75300.484, -306058.9, 14931.037, 0.019615129, 0.14367926, 75884.17, 227135.16, 0.00020101898, 10.002626, 9.997609 
1.775252e+3, 2.9456693e+2, 115100.51, -215415.95, 24727.102, -0.046608075, 0.25250047, 116940.195, 170199.86, 0.0007432089, 10.002164, 9.99776 
1.7752638e+3, 3.045634e+2, 226665.33, -177860.5, -27448.53, -0.2116948, 0.15661742, 228519.31, 228519.31, 0.0017748435, 10.002754, 9.997422 
1.7752796e+3, 3.1456164e+2, 513764.47, 126905.04, 83190.8, 0.065043844, 0.14469984, 530895.3, 530895.3, 0.0031990055, 10.004041, 9.998848 
1.785017e+3, 1.2456775e+2, -2095338.5, -1771360.3, -139773.53, -0.094542526, 0.3671697, -1719393.5, -135.50691, 0.08696164, 9.996722, 10.001153 
1.785037e+3, 1.3456635e+2, -1798264.3, -1578942.9, 15809.588, 0.56921566, 0.045809932, -1577809.0, 43461.496, 0.057701517, 9.998227, 10.001062 
1.7850442e+3, 1.4457123e+2, -1847951.8, -1569749.3, 69476.875, -0.23749925, 0.45403594, -1553363.5, -30143.643, 0.030258754, 9.997225, 10.000962 
1.7850603e+3, 1.5456973e+2, -1731431.8, -1377936.5, 27317.588, -0.14450587, 0.098289795, -1375837.9, 49392.16, 0.0109521225, 9.99701, 10.001695 
1.7850752e+3, 1.6457003e+2, -1674697.3, -1550461.8, -57298.25, -0.060191985, 0.069964215, -1528071.0, -200845.86, 0.0020959692, 9.997801, 9.999455 
1.7850894e+3, 1.7457063e+2, -1274542.6, -1300015.0, -69966.86, 0.061905064, 0.1401933, -1216162.3, 13058.054, 0.000105867584, 9.999875, 9.999486 
1.7851034e+3, 1.8457012e+2, -1142327.8, -1318667.9, 21310.172, 0.11359594, 0.20827174, -1139789.1, -8561.629, 0.0000000562377, 10.000643, 9.9983425 
1.7851175e+3, 1.9456887e+2, -1083569.0, -1207809.8, 23884.988, 0.055729643, 0.18930818, -1079135.4, -45892.105, 0.0, 10.000256, 9.998599 
1.7851315e+3, 2.0456806e+2, -960802.5, -1030196.56, 12849.781, 0.016865019, 0.22696424, -958499.5, -23247.268, 0.0, 10.000125, 9.999217 
1.7851451e+3, 2.1456735e+2, -791328.9, -869132.56, -6303.256, -0.0046775937, 0.17319967, -790821.56, 46435.402, 0.0, 10.000515, 9.99945 
1.7851596e+3, 2.245665e+2, -696766.8, -901120.0, 36639.152, 0.001285027, 0.20809302, -690396.25, 48868.48, 0.0, 10.001021, 9.998333 
1.7851746e+3, 2.3456548e+2, -485252.75, -721391.4, -5087.1123, 0.037945453, 0.21570666, -485143.22, 156132.67, 0.0, 10.00171, 9.998547 
1.7851885e+3, 2.4456342e+2, -408800.28, -762460.44, -81217.7, 0.05995298, 0.21911849, -391040.56, 152255.34, 0.0, 10.002102, 9.997405 
1.7852005e+3, 2.5456005e+2, -288046.8, -635770.8, -67381.84, 0.04228943, 0.0898712, -275446.2, 169880.66, 0.0, 10.002206, 9.997539 
1.7852138e+3, 2.6455757e+2, -143457.98, -495860.0, 26022.14, 0.06082632, 0.08314671, -141546.83, 205802.67, 0.00000018370703, 10.002381, 9.997774 
1.7852281e+3, 2.745557e+2, 10838.962, -346313.03, 9571.054, 0.09686936, 0.06645508, 11095.266, 260460.63, 0.000020759246, 10.002675, 9.997976 
1.785242e+3, 2.845543e+2, 82823.7, -322275.03, 23261.02, 0.08114963, 0.16398908, 84154.99, 235535.45, 0.00019262578, 10.002777, 9.997415 
1.785255e+3, 2.9455337e+2, 185998.97, -207263.22, -28105.928, 0.015963363, 0.25837696, 187997.52, 241391.48, 0.00073903677, 10.002755, 9.99753 
1.7852671e+3, 3.0455e+2, 303651.2, -105707.54, -1127.3032, -0.149793, 0.17204717, 303654.28, 303654.28, 0.0017591724, 10.003141, 9.9977255 
1.7852838e+3, 3.145483e+2, 502109.38, 154298.58, -19326.893, 0.115493745, 0.15728915, 503180.03, 503180.03, 0.0031190799, 10.00376, 9.9992 
1.7950153e+3, 1.245544e+2, -2057873.5, -1741156.8, 123299.22, -0.024029477, 0.39974317, -1698816.1, 20574.336, 0.09190124, 9.996931, 10.001269 
1.795031e+3, 1.3455033e+2, -1769970.9, -1568729.1, 5596.5522, 0.09227016, -0.15253825, -1568573.6, 52851.875, 0.06119029, 9.998389, 10.001081 
1.7950429e+3, 1.4455652e+2, -1853629.5, -1590958.9, 17179.678, -0.13295218, 0.37657776, -1589840.0, -66478.62, 0.03230053, 9.997278, 10.000787 
1.7950591e+3, 1.5455577e+2, -1768462.8, -1451900.9, 36594.57, -0.0049664243, 0.14345245, -1447725.6, -22358.736, 0.011841973, 9.997015, 10.001176 
1.7950736e+3, 1.6455531e+2, -1652903.9, -1538513.4, -3367.9143, -0.054196876, 0.07143738, -1538414.3, -211044.39, 0.0023264778, 9.997928, 9.999486 
1.7950886e+3, 1.7455465e+2, -1258763.1, -1273901.6, 17924.512, -0.035648238, 0.0004361664, -1246875.3, -17499.549, 0.00012352158, 9.999889, 9.999668 
1.7951033e+3, 1.8455434e+2, -1116351.6, -1264708.1, -12461.796, -0.0108809415, 0.058198705, -1115312.1, 16068.188, 0.000000085167756, 10.00065, 9.998704 
1.7951173e+3, 1.9455445e+2, -1081385.4, -1175727.9, 19690.65, -0.028368799, 0.1435543, -1077440.6, -44056.68, 0.0, 10.000139, 9.998873 
1.7951313e+3, 2.0455404e+2, -987225.56, -1040824.1, 5887.875, -0.055451717, 0.20671217, -986586.4, -51197.66, 0.0, 9.999927, 9.999244 
1.7951456e+3, 2.1455285e+2, -819587.6, -880007.5, 23758.803, -0.030992258, 0.10318179, -811364.25, 26032.012, 0.0, 10.000299, 9.999486 
1.7951605e+3, 2.2455174e+2, -787230.2, -1011794.75, 43718.44, -0.037075907, 0.13863784, -779019.25, -39611.58, 0.0, 10.000693, 9.997731 
1.7951755e+3, 2.3455077e+2, -575800.75, -835459.4, 39771.445, -0.069323584, 0.21433139, -569845.6, 71577.06, 0.0, 10.001394, 9.997912 
1.7951897e+3, 2.4454904e+2, -413882.13, -682887.75, -89429.41, -0.05383162, 0.24593157, -386865.2, 156575.33, 0.0, 10.001714, 9.998139 
1.7952031e+3, 2.545462e+2, -275177.94, -537770.5, -44683.285, 0.051932186, 0.085338324, -267782.8, 177680.39, 0.0, 10.001908, 9.99835 
1.7952166e+3, 2.6454392e+2, -195006.42, -524134.72, 18952.057, 0.07497535, 0.06451629, -193918.7, 153563.17, 0.00000013255313, 10.002038, 9.997747 
1.7952299e+3, 2.7454242e+2, -35247.01, -364421.72, 38868.33, -0.033420525, 0.07578255, -30719.775, 218775.38, 0.0000188634, 10.0023575, 9.997995 
1.7952438e+3, 2.8454062e+2, 4179.893, -402288.53, 473.91736, -0.05226837, 0.1480474, 4180.446, 155694.45, 0.00018772876, 10.002415, 9.997043 
1.795259e+3, 2.9453823e+2, 101745.13, -279139.28, 3110.7107, 0.1015865, 0.13413481, 101770.54, 155311.33, 0.00073121197, 10.002335, 9.997227 
1.7952712e+3, 3.045352e+2, 199823.0, -216420.11, -1067.9922, -0.100933865, 0.12846826, 199825.73, 199825.73, 0.0017175064, 10.0026655, 9.997205 
1.7952842e+3, 3.1453434e+2, 391583.34, 99440.734, 87946.44, -0.28521672, 0.21897879, 416015.4, 416015.4, 0.002974606, 10.003051, 9.999139 
1.8050133e+3, 1.24538906e+2, -2148925.0, -1833054.0, 209432.34, 0.11168644, 0.3731377, -1728681.4, -9140.463, 0.097200245, 9.996575, 10.000781 
1.8050274e+3, 1.3453518e+2, -1934932.5, -1591701.5, -84680.805, -0.027597263, -0.17660256, -1571946.4, 49626.55, 0.06490086, 9.997041, 10.001567 
1.8050416e+3, 1.4454128e+2, -1811563.9, -1613493.8, -27666.973, -0.006142213, 0.32951528, -1609701.8, -86191.31, 0.034457777, 9.997724, 10.000425 
1.8050578e+3, 1.5454064e+2, -1554622.5, -1402742.0, -34435.77, 0.08651022, 0.15466489, -1395299.1, 30217.1, 0.0127833225, 9.998697, 10.00071 
1.8050724e+3, 1.6454016e+2, -1486327.3, -1437895.4, 415.02347, -0.006836678, 0.09492978, -1437891.8, -110371.35, 0.0025744103, 9.998984, 9.99967 
1.805088e+3, 1.7453995e+2, -1381840.0, -1299814.3, -6833.8887, -0.016272876, 0.04549758, -1299248.9, -69727.44, 0.00014305822, 9.998911, 9.99995 
1.8051033e+3, 1.845399e+2, -1340813.6, -1347701.5, -41700.223, 0.013753919, 0.10226564, -1302415.4, -170892.34, 0.00000010953618, 9.99899, 9.9989395 
1.8051171e+3, 1.9453983e+2, -1172097.4, -1190697.9, -52507.26, -0.023077331, 0.14548884, -1128073.1, -94545.414, 0.0, 9.9994, 9.999127 
1.8051313e+3, 2.0453933e+2, -979514.8, -1044196.9, -9617.45, -0.041903168, 0.18936561, -978115.06, -42582.25, 0.0, 9.999999, 9.999203 
1.8051465e+3, 2.1453825e+2, -723802.56, -837053.7, -29122.01, -0.0036880507, 0.10237852, -716752.8, 120786.12, 0.0, 10.000972, 9.999463 
1.8051617e+3, 2.2453727e+2, -711612.4, -952256.25, 19739.287, 0.009514481, 0.14136808, -710004.0, 29545.225, 0.0, 10.001123, 9.997921 
1.8051767e+3, 2.3453633e+2, -701634.2, -875320.06, 37287.133, -0.030391816, 0.203688, -693967.75, -52402.81, 0.0, 10.000453, 9.998082 
1.8051912e+3, 2.4453501e+2, -548076.6, -699371.25, -18017.45, -0.010039868, 0.24826978, -545960.56, -2381.8467, 0.0, 10.00056, 9.998609 
1.805205e+3, 2.5453296e+2, -299438.66, -503052.22, -31285.186, 0.08716716, 0.12717043, -294740.1, 150852.84, 0.0, 10.001506, 9.998815 
1.805219e+3, 2.6453087e+2, -178954.25, -540859.75, 43177.113, 0.11718384, 0.1115289, -173874.31, 173735.98, 0.00000007008213, 10.002273, 9.997509 
1.8052328e+3, 2.745287e+2, 25866.492, -377112.63, -5329.578, 0.0130215725, 0.09250469, 25936.967, 275568.6, 0.000018211349, 10.002949, 9.997631 
1.805247e+3, 2.8452635e+2, 150842.52, -339117.75, -17011.42, -0.0031081527, 0.13325305, 151432.45, 303088.4, 0.00018396454, 10.003442, 9.996987 
1.8052623e+3, 2.9452357e+2, 334018.94, -177441.69, -44566.813, 0.12093637, 0.09438203, 337873.25, 391558.22, 0.0007180549, 10.003955, 9.997157 
1.8052751e+3, 3.0452082e+2, 394415.47, -154148.58, 9906.807, -0.023838714, 0.12861648, 394594.3, 394594.3, 0.0016647228, 10.0041685, 9.996894 
1.8052888e+3, 3.1451982e+2, 441789.7, 60261.434, -2293.955, -0.13696991, 0.2712489, 441803.5, 441803.5, 0.0028336896, 10.003579, 9.998658 
1.8150097e+3, 1.2452111e+2, -2220414.0, -2047304.6, 105425.04, -0.002917088, 0.30052865, -1997454.9, -277744.28, 0.10291468, 9.996814, 9.999219 
1.815026e+3, 1.345205e+2, -1867715.9, -1463845.0, -43137.12, 0.07933079, -0.028101733, -1459289.0, 162427.14, 0.06887483, 9.997051, 10.0025 
1.8150394e+3, 1.4452511e+2, -1811863.1, -1640909.8, -20003.305, -0.055014316, 0.29289562, -1638600.4, -114929.84, 0.036753505, 9.997833, 10.000187 
1.8150558e+3, 1.5452415e+2, -1566475.9, -1443196.1, 14051.406, -0.02808269, 0.11644601, -1441614.9, -15934.679, 0.01378539, 9.998755, 10.000407 
1.815071e+3, 1.6452451e+2, -1444071.0, -1373152.8, -24300.246, -0.108033635, 0.13255732, -1365625.3, -37948.043, 0.002842686, 9.999081, 10.000067 
1.8150873e+3, 1.745265e+2, -1360167.6, -1259466.6, 4188.768, -0.016651608, 0.2707395, -1259292.6, -29634.63, 0.00016504708, 9.998918, 10.000228 
1.8151028e+3, 1.8452685e+2, -1330396.4, -1325514.3, -47845.734, 0.020915488, 0.34564054, -1280047.4, -148391.83, 0.00000012908751, 9.998985, 9.999096 
1.8151164e+3, 1.9452506e+2, -1164678.1, -1165910.1, -24802.213, -0.06929203, 0.19996838, -1140484.3, -106809.97, 0.0, 9.9993515, 9.999325 
1.8151309e+3, 2.045239e+2, -1015456.2, -1075268.6, 8858.394, -0.11481855, 0.17311299, -1014171.8, -78487.05, 0.0, 9.999819, 9.999073 
1.8151471e+3, 2.1452338e+2, -774424.4, -879709.7, 24977.957, -0.055912193, 0.15533067, -768799.1, 68887.09, 0.0, 10.000702, 9.999299 
1.8151629e+3, 2.2452283e+2, -707822.7, -856775.06, -19377.314, -0.020271696, 0.20535623, -705343.1, 34348.38, 0.0, 10.000747, 9.998756 
1.8151778e+3, 2.3452212e+2, -681370.0, -770171.5, 28328.555, 0.001265696, 0.20276546, -673102.56, -31400.07, 0.0, 10.000177, 9.998938 
1.815192e+3, 2.4452122e+2, -586886.8, -706147.0, 502.45743, -0.0017670724, 0.24047086, -586884.7, -43172.75, 0.0, 10.000243, 9.998708 
1.815206e+3, 2.5452012e+2, -324170.9, -494523.28, 22197.21, -0.0009303573, 0.19421455, -321326.06, 124392.57, 0.0, 10.001253, 9.998985 
1.8152209e+3, 2.6451808e+2, -278915.8, -667265.0, 49458.316, 0.020422645, 0.20742103, -272716.0, 75021.19, 0.0000000874347, 10.001921, 9.996811 
1.8152365e+3, 2.7451465e+2, -80174.56, -508941.16, 42678.953, 0.06288394, 0.12737553, -75967.625, 173805.81, 0.00001648955, 10.002585, 9.996889 
1.815251e+3, 2.845117e+2, 94094.945, -372097.56, -19131.654, 0.00807291, 0.15418105, 94878.75, 246682.4, 0.00017264318, 10.00306, 9.99695 
1.8152642e+3, 2.945094e+2, 294111.88, -183324.98, 4491.302, -0.11897532, 0.14219794, 294154.13, 347979.97, 0.000683164, 10.0036125, 9.997283 
1.8152784e+3, 3.045067e+2, 286759.7, -265036.72, -31231.898, -0.15742226, 0.19747391, 288521.8, 288521.8, 0.0015936061, 10.003702, 9.996352 
1.8152948e+3, 3.145027e+2, 282699.13, -46150.258, 26784.596, 0.034497626, 0.080164224, 284866.44, 284866.44, 0.002724428, 10.002697, 9.998308 
1.8250075e+3, 1.2450235e+2, -2336453.5, -2157716.0, 70966.33, 0.13008872, 0.22017819, -2132966.5, -413074.0, 0.10907774, 9.996237, 9.998736 
1.8250227e+3, 1.3450491e+2, -1675543.1, -1260759.5, -79858.664, 0.034209877, 0.092009634, -1245915.5, 375952.53, 0.07313931, 9.997777, 10.0036745 
1.8250386e+3, 1.445087e+2, -1816918.9, -1635532.0, 2775.4927, 0.09600941, 0.26249287, -1635489.6, -111658.555, 0.039204508, 9.997799, 10.000229 
1.8250547e+3, 1.5450811e+2, -1591870.8, -1468238.6, 16253.917, -0.00043712446, 0.13664053, -1466137.5, -40299.965, 0.014855209, 9.998665, 10.000268 
1.8250698e+3, 1.6450836e+2, -1467930.0, -1394189.6, -41651.36, -0.1092716, 0.15670812, -1375433.8, -47597.434, 0.0031336718, 9.998957, 9.999976 
1.8250863e+3, 1.745103e+2, -1414661.0, -1291233.9, -81319.375, 0.014375358, 0.2945961, -1250862.3, -21042.795, 0.00019006866, 9.998582, 10.000169 
1.8251021e+3, 1.8451078e+2, -1327560.8, -1288866.8, -66364.26, 0.084911294, 0.37415943, -1239086.9, -107271.4, 0.00000015151502, 9.998854, 9.999408 
1.8251164e+3, 1.9450925e+2, -1017429.0, -1052972.6, -65720.58, -0.018575039, 0.21944162, -967119.75, 66710.44, 0.0, 10.000214, 9.999671 
1.8251315e+3, 2.0450824e+2, -903927.9, -1012177.25, -20991.197, -0.059357602, 0.18600425, -899999.9, 35838.67, 0.0, 10.000549, 9.999134 
1.8251477e+3, 2.1450767e+2, -917623.25, -939891.6, -23863.229, -0.007344599, 0.15511605, -902424.5, -64583.223, 0.0, 9.999693, 9.999351 
1.8251634e+3, 2.2450718e+2, -854724.06, -878362.8, -35408.324, 0.030640732, 0.18614921, -829214.56, -89369.33, 0.0, 9.999494, 9.99923 
1.825178e+3, 2.3450668e+2, -654678.56, -695238.44, -46215.09, 0.029445937, 0.14973992, -624489.56, 17362.059, 0.0, 10.000082, 9.999506 
1.825193e+3, 2.4450615e+2, -489201.5, -677127.8, -20476.836, 0.03866123, 0.20093776, -486996.2, 56860.996, 0.0, 10.000987, 9.998543 
1.8252082e+3, 2.5450554e+2, -192078.22, -454714.5, -56830.473, 0.06571946, 0.22918262, -180308.42, 265553.44, 0.0, 10.002257, 9.998766 
1.8252237e+3, 2.6450372e+2, -149037.2, -592167.6, -23249.305, 0.103271835, 0.26597723, -147820.75, 200059.81, 0.00000011582431, 10.002772, 9.996912 
1.8252394e+3, 2.7450004e+2, -94939.91, -508888.22, -21185.82, 0.11607114, 0.1578103, -93858.44, 156061.39, 0.000015405387, 10.002448, 9.996963 
1.825254e+3, 2.8449717e+2, 59371.164, -348961.72, 28018.576, 0.045529347, 0.17531587, 61284.746, 213233.56, 0.00016033741, 10.002668, 9.997289 
1.8252675e+3, 2.9449555e+2, 308873.25, -149576.64, 16608.844, -0.12735204, 0.20714694, 309474.2, 363437.66, 0.00064014964, 10.003592, 9.99753 
1.825283e+3, 3.044929e+2, 386111.13, -228170.83, 23062.313, -0.09271383, 0.26297837, 386975.75, 386975.75, 0.0015227208, 10.004415, 9.996271 
1.8252999e+3, 3.1448814e+2, 604147.6, 65471.215, -39064.984, 0.19411781, 0.0958481, 606965.9, 606965.9, 0.0026626869, 10.005026, 9.998008 
1.8350057e+3, 1.2448238e+2, -2270216.0, -2051543.5, 59120.465, 0.2459728, 0.10507284, -2036583.1, -316493.9, 0.11569034, 9.996374, 9.999392 
1.8350175e+3, 1.344885e+2, -1551615.9, -1041910.4, -55423.81, -0.3218782, 0.19450128, -1035953.4, 586074.3, 0.07769921, 9.997877, 10.005274 
1.8350384e+3, 1.444921e+2, -1779354.6, -1590421.1, -6554.7705, 0.22754072, 0.24035585, -1590194.0, -66202.58, 0.04181763, 9.997932, 10.000473 
1.8350539e+3, 1.5449245e+2, -1590725.0, -1479978.9, 65013.98, 0.014633866, 0.21036342, -1449952.9, -23963.805, 0.015997248, 9.998711, 10.000169 
1.8350686e+3, 1.6449168e+2, -1490137.3, -1465119.0, -72824.75, -0.17891781, 0.16416046, -1403736.9, -75737.99, 0.0034491862, 9.99906, 9.999443 
1.8350844e+3, 1.7449118e+2, -1435932.4, -1351583.0, -84786.57, -0.062580824, 0.1047225, -1299061.0, -69053.88, 0.00021871291, 9.998635, 9.999734 
1.8351008e+3, 1.8449152e+2, -1298991.0, -1226786.4, -38402.79, 0.015466291, 0.16759813, -1210180.5, -78175.35, 0.00000018976193, 9.998848, 9.999835 
1.8351169e+3, 1.9449219e+2, -1006269.0, -1004540.25, -1354.8351, -0.017916732, 0.19236217, -1003797.56, 30199.75, 0.0, 10.0001, 10.000061 
1.8351325e+3, 2.0449209e+2, -912670.4, -981655.44, -66875.23, -0.045384284, 0.21501242, -871916.44, 64080.234, 0.0, 10.000339, 9.999447 
1.8351477e+3, 2.1449111e+2, -927699.94, -909623.2, -44402.277, -0.008640105, 0.113533825, -873348.7, -35344.273, 0.0, 9.999472, 9.999665 
1.8351626e+3, 2.244904e+2, -885637.4, -872941.06, -31762.236, -0.01662346, 0.09802692, -846898.8, -106889.06, 0.0, 9.999191, 9.999417 
1.8351772e+3, 2.3448987e+2, -675636.8, -682750.44, -7278.692, -0.07746772, 0.037426032, -671092.4, -29078.854, 0.0, 9.999839, 9.999716 
1.8351933e+3, 2.4448963e+2, -569280.5, -762111.6, 7279.203, -0.046227675, 0.12635039, -569006.1, -24989.828, 0.0, 10.000634, 9.998134 
1.8352114e+3, 2.5448954e+2, -277112.4, -553161.0, 10473.819, 0.13189581, 0.25367653, -276715.56, 169304.34, 0.0, 10.001926, 9.998251 
1.8352276e+3, 2.6448807e+2, -158951.02, -536453.56, -48006.17, 0.16241246, 0.33142903, -152941.83, 195094.83, 0.000000090536304, 10.002433, 9.997464 
1.835241e+3, 2.7448478e+2, -80989.15, -420804.75, -9078.553, 0.011083967, 0.18880065, -80746.77, 169324.31, 0.00001528185, 10.002189, 9.997693 
1.8352558e+3, 2.8448245e+2, 38584.324, -306804.9, 33127.504, -0.088355236, 0.19686508, 41732.996, 193826.98, 0.00015301355, 10.002297, 9.997757 
1.8352717e+3, 2.9448164e+2, 281352.9, -107244.44, 78051.43, -0.11112752, 0.25846204, 296443.84, 350544.72, 0.0006077412, 10.003178, 9.99801 
1.835288e+3, 3.0447942e+2, 295872.22, -289413.47, 21023.781, -0.074680716, 0.3439697, 296626.44, 296626.44, 0.0014712461, 10.003877, 9.996107 
1.8353021e+3, 3.1447625e+2, 455228.9, -72881.79, 18143.06, -0.15164062, 0.32715255, 455851.47, 455851.47, 0.0026389663, 10.00432, 9.997376 
1.8450046e+3, 1.2446311e+2, -2120678.5, -2032099.4, 139202.78, 0.4400368, -0.022875624, -1930310.3, -210032.61, 0.12272786, 9.997661, 9.998904 
1.8450154e+3, 1.3447115e+2, -1555260.8, -1002462.4, -54558.668, -0.28275117, 0.22609219, -997129.1, 625069.1, 0.08254445, 9.997704, 10.005661 
1.845037e+3, 1.4447442e+2, -1699477.9, -1524088.6, -52630.785, 0.29923972, 0.20722736, -1509507.4, 14657.834, 0.04459436, 9.998343, 10.000742 
1.8450525e+3, 1.5447526e+2, -1688558.5, -1489152.1, 9337.133, 0.06187228, 0.19393168, -1488715.9, -62559.22, 0.017215712, 9.997882, 10.000503 
1.8450674e+3, 1.6447479e+2, -1670663.9, -1542030.4, -44255.67, -0.12413554, 0.15798697, -1528275.4, -200112.45, 0.0037916328, 9.997799, 9.999526 
1.8450834e+3, 1.7447425e+2, -1387948.8, -1317405.5, -53304.7, -0.04955704, 0.089069664, -1288759.4, -58586.895, 0.00025177147, 9.998939, 9.999822 
1.8451e+3, 1.8447472e+2, -1229847.1, -1178688.5, 33096.223, 0.041731976, 0.15411629, -1162438.9, -30268.953, 0.00000025167606, 9.999258, 9.999965 
1.8451172e+3, 1.9447574e+2, -1180955.9, -1075172.4, 17591.432, 0.06193186, 0.20020597, -1072323.6, -38164.867, 0.0, 9.9988365, 10.000182 
1.845133e+3, 2.0447592e+2, -1111019.9, -1075743.6, -49077.684, 0.041250184, 0.24218215, -1041230.8, -105074.14, 0.0, 9.998978, 9.999462 
1.8451473e+3, 2.1447514e+2, -837344.0, -865263.0, -83583.65, -0.013117848, 0.16531381, -766562.2, 71602.22, 0.0, 10.000105, 9.999673 
1.8451625e+3, 2.2447453e+2, -655994.9, -780838.94, -47638.3, -0.014817705, 0.16724513, -639893.56, 100275.63, 0.0, 10.000855, 9.999238 
1.8451786e+3, 2.3447378e+2, -490952.4, -617964.9, -83890.17, 0.009149597, 0.105189815, -449241.72, 192931.77, 0.0, 10.0012, 9.999494 
1.8451953e+3, 2.4447294e+2, -458036.63, -701011.25, -31450.994, 0.06320227, 0.13787584, -454031.6, 90149.46, 0.0, 10.001388, 9.998174 
1.8452132e+3, 2.5447184e+2, -340808.94, -579841.4, -32659.059, 0.14429766, 0.1624254, -336427.06, 109766.74, 0.0, 10.001471, 9.998282 
1.8452293e+3, 2.6447058e+2, -222593.58, -500242.44, -50636.414, 0.14586313, 0.22878486, -213647.0, 134560.7, 0.00000009817215, 10.001712, 9.998059 
1.8452433e+3, 2.74469e+2, -40857.695, -336414.94, -55688.457, 0.025796233, 0.20499876, -30713.154, 219511.08, 0.000013983738, 10.002186, 9.998273 
1.8452586e+3, 2.8446734e+2, 79875.25, -287045.3, 19941.223, -0.033072885, 0.24850157, 80955.83, 233196.8, 0.00014297613, 10.002578, 9.997765 
1.8452753e+3, 2.9446584e+2, 244400.72, -123675.49, -29671.41, -0.037331823, 0.2534956, 246777.25, 301032.56, 0.0005747027, 10.00291, 9.998035 
1.8452923e+3, 3.0446303e+2, 306575.25, -269709.25, -18511.32, 0.010749749, 0.26632255, 307169.25, 307169.25, 0.0014161514, 10.003874, 9.996254 
1.845307e+3, 3.1446037e+2, 651734.2, 26026.893, -141379.23, -0.14463237, 0.30673274, 682195.94, 682195.94, 0.0025925785, 10.005621, 9.997439 
1.8549995e+3, 1.2444754e+2, -2207037.8, -2297061.8, -89391.46, 0.07533718, 0.10513758, -2151965.3, -431536.8, 0.13014582, 9.997958, 9.996979 
1.8550162e+3, 1.3445282e+2, -1621683.5, -1148387.6, 6371.9966, -0.016575133, 0.15706615, -1148301.9, 474078.56, 0.08765755, 9.997715, 10.004588 
1.8550344e+3, 1.4445569e+2, -1651146.6, -1467321.0, -73303.805, 0.14278515, 0.15206486, -1441669.4, 82682.66, 0.04753598, 9.998517, 10.001075 
1.85505e+3, 1.5445654e+2, -1624843.3, -1384198.0, 2159.8086, -0.012662654, 0.08016145, -1384178.6, 42161.266, 0.01851746, 9.997986, 10.001184 
1.8550655e+3, 1.6445765e+2, -1611922.6, -1441264.5, -33610.76, -0.15032469, 0.12955353, -1434883.5, -106554.35, 0.0041650403, 9.997891, 10.00017 
1.8550822e+3, 1.7445937e+2, -1353629.3, -1242513.6, 4346.699, -0.08597257, 0.23026091, -1242343.8, -12026.755, 0.00029041685, 9.998915, 10.00035 
1.8550994e+3, 1.8446021e+2, -1240429.5, -1198036.9, -873.777, -0.006090263, 0.31340513, -1198018.9, -65707.305, 0.0000003514084, 9.9992485, 9.999839 
1.8551165e+3, 1.9445987e+2, -1204130.6, -1101266.8, 11497.994, 0.07765823, 0.23879968, -1099997.1, -65681.91, 0.0, 9.998738, 10.000052 
1.8551321e+3, 2.0445967e+2, -1163509.1, -1140309.6, -28814.967, 0.02760854, 0.26912668, -1120847.3, -184528.52, 0.0, 9.998788, 9.999109 
1.8551463e+3, 2.1445966e+2, -898119.4, -936493.75, -25493.154, -0.14753994, 0.30103683, -885399.7, -47077.58, 0.0, 9.999869, 9.999295 
1.8551625e+3, 2.2445934e+2, -734382.2, -870832.4, -48405.676, -0.13025473, 0.37317482, -718954.56, 21371.117, 0.0, 10.000534, 9.998778 
1.8551813e+3, 2.344584e+2, -563333.25, -710791.06, -51950.887, 0.13234699, 0.3418391, -546868.8, 95462.86, 0.0, 10.000947, 9.998982 
1.8551983e+3, 2.4445623e+2, -485491.25, -680775.75, -41785.79, 0.17827597, 0.25847405, -476925.88, 67423.71, 0.0, 10.001054, 9.998471 
1.8552132e+3, 2.544525e+2, -352243.22, -537155.3, -10282.763, -0.02182897, -0.024607515, -351673.16, 94709.6, 0.0, 10.001191, 9.998704 
1.8552288e+3, 2.644512e+2, -233398.3, -440033.66, -53480.164, -0.09391294, -0.013691264, -220377.38, 128016.555, 0.00000008466028, 10.001362, 9.998638 
1.8552457e+3, 2.7445263e+2, -46918.38, -276631.9, -14663.734, 0.0015933703, 0.20338312, -45986.105, 204394.42, 0.000011476472, 10.001887, 9.998821 
1.8552619e+3, 2.844518e+2, -24015.15, -417907.63, 8682.899, 0.004760945, 0.33794418, -23823.838, 128565.87, 0.00012753624, 10.002206, 9.997051 
1.855278e+3, 2.9444844e+2, 152582.11, -227843.1, 8132.5693, -0.091530696, 0.21562278, 152755.89, 207180.52, 0.0005324824, 10.002542, 9.997497 
1.8552957e+3, 3.0444407e+2, 238545.23, -288785.22, 16700.113, -0.078006, 0.09065983, 239073.58, 239073.58, 0.0013398622, 10.003352, 9.996368 
1.8553142e+3, 3.1444252e+2, 565660.06, 66590.44, -49819.457, -0.05202436, 0.22992224, 570584.7, 570584.7, 0.0024846054, 10.004718, 9.998132 
1.8649964e+3, 1.24433056e+2, -2202730.5, -2261770.8, -31826.209, -0.02862688, 0.2217885, -2188841.8, -468270.13, 0.1378835, 9.997909, 9.997205 
1.8650153e+3, 1.3443607e+2, -1607979.3, -1268911.5, 74721.87, 0.11584953, 0.14764577, -1253175.0, 369371.97, 0.09301642, 9.9984455, 10.003324 
1.8650323e+3, 1.444385e+2, -1734766.8, -1504693.5, 17617.193, 0.13396215, 0.16951033, -1503352.4, 21170.553, 0.050644647, 9.9979515, 10.001066 
1.8650484e+3, 1.5443939e+2, -1514616.6, -1317299.6, 7953.358, -0.003844057, 0.08550333, -1316979.6, 109529.81, 0.01991141, 9.998686, 10.001314 
1.8650642e+3, 1.644406e+2, -1476329.3, -1381606.6, -27636.465, -0.098039776, 0.14090106, -1374133.0, -45636.254, 0.0045744055, 9.99883, 10.000123 
1.8650813e+3, 1.7444226e+2, -1416526.3, -1271140.0, -63068.043, -0.04109363, 0.23395146, -1247594.6, -17110.053, 0.0003360051, 9.998483, 10.000347 
1.8650985e+3, 1.8444309e+2, -1344876.1, -1251621.5, -53438.676, 0.03354358, 0.31562847, -1227327.8, -94848.59, 0.00000050835786, 9.998543, 9.999813 
1.8651155e+3, 1.9444282e+2, -1094304.5, -1051952.3, -66703.03, 0.07479759, 0.25066808, -1003144.6, 31338.209, 0.0, 9.999498, 10.000034 
1.8651317e+3, 2.0444278e+2, -974631.2, -1040275.6, -37532.555, 0.054667834, 0.28946155, -957593.7, -21108.514, 0.0, 10.000031, 9.999202 
1.865147e+3, 2.1444277e+2, -838511.6, -898554.9, -31569.03, -0.055377856, 0.31347382, -824968.4, 13519.476, 0.0, 10.000217, 9.999392 
1.8651639e+3, 2.2444238e+2, -723386.75, -865632.5, 8157.508, -0.033054247, 0.37364042, -722920.44, 17571.56, 0.0, 10.000626, 9.998773 
1.8651822e+3, 2.3444143e+2, -496900.47, -678291.6, -2758.2742, 0.12692054, 0.34790447, -496858.53, 145640.2, 0.0, 10.001425, 9.998979 
1.8651994e+3, 2.4443947e+2, -382113.44, -623181.56, 22245.213, 0.1678203, 0.28322652, -380077.88, 164436.83, 0.0, 10.001721, 9.998554 
1.865215e+3, 2.544361e+2, -321756.0, -515726.47, 79.23218, 0.045471884, 0.031280257, -321755.97, 124787.69, 0.0, 10.00137, 9.99877 
1.8652311e+3, 2.6443446e+2, -186306.05, -421169.4, -5313.5034, -0.011598193, 0.0071148886, -186185.9, 162371.61, 0.000000065173005, 10.001698, 9.998611 
1.8652476e+3, 2.7443486e+2, 101874.875, -211568.11, -55078.02, -0.008634362, 0.13032869, 111271.45, 361824.97, 0.000009433609, 10.0029335, 9.998772 
1.8652646e+3, 2.8443393e+2, 146862.53, -358386.38, -27951.71, 0.0035705792, 0.2638998, 148404.2, 300968.25, 0.00011541344, 10.003488, 9.996828 
1.8652816e+3, 2.9443118e+2, 235708.63, -218733.02, -54604.98, -0.0019162262, 0.23979294, 242177.78, 296771.53, 0.0004967766, 10.00325, 9.99721 
1.8652995e+3, 3.044263e+2, 252598.48, -240720.83, 54630.516, -0.013650423, 0.056722194, 258575.88, 258575.88, 0.0012631787, 10.003255, 9.9967375 
1.8653187e+3, 3.1442502e+2, 454084.2, 71933.68, -118190.79, 0.008336715, 0.18251354, 487683.84, 487683.84, 0.0023412898, 10.003638, 9.9986925 
1.8749952e+3, 1.24419205e+2, -1993262.6, -1847340.6, -27728.895, -0.018758593, 0.1921854, -1842249.1, -121537.7, 0.14588223, 9.998021, 9.999985 
1.8750131e+3, 1.344211e+2, -1722698.6, -1506158.9, 58328.594, -0.008330547, 0.1867069, -1491446.6, 131249.36, 0.0986057, 9.998529, 10.001505 
1.8750301e+3, 1.444229e+2, -1742026.9, -1550647.3, 16472.08, 0.047383156, 0.2545148, -1549239.9, -24561.832, 0.053927336, 9.998078, 10.000686 
1.875047e+3, 1.5442362e+2, -1536305.0, -1370351.5, 53556.195, -0.06324907, 0.19570889, -1354568.9, 72097.79, 0.021407956, 9.998714, 10.0009365 
1.8750632e+3, 1.6442364e+2, -1498788.0, -1451724.1, -53563.234, -0.13713752, 0.17668594, -1416751.6, -88086.15, 0.0050250688, 9.998934, 9.999596 
1.87508e+3, 1.7442304e+2, -1455240.6, -1355366.4, -61838.51, -0.06271864, 0.10372402, -1325819.4, -95145.52, 0.00038988978, 9.998488, 9.999778 
1.8750967e+3, 1.8442328e+2, -1338536.6, -1235753.9, -41965.258, -0.042407073, 0.15271239, -1220796.5, -88123.1, 0.000000733184, 9.998534, 9.9999275 
1.8751137e+3, 1.944246e+2, -1105150.4, -1045304.56, -16498.338, -0.0837146, 0.23646297, -1041057.7, -6395.792, 0.0, 9.999378, 10.000138 
1.8751311e+3, 2.0442514e+2, -956395.56, -968696.3, -49299.04, -0.049804173, 0.30260566, -912864.7, 23792.105, 0.0, 9.999877, 9.999772 
1.8751492e+3, 2.1442461e+2, -832011.75, -831753.44, -12161.672, 0.10552837, 0.21470252, -819720.25, 18940.494, 0.0, 9.999988, 9.999963 
1.8751661e+3, 2.2442386e+2, -755544.94, -855866.6, 16595.36, 0.08594963, 0.19884661, -752871.0, -12204.184, 0.0, 10.000286, 9.999007 
1.8751813e+3, 2.3442283e+2, -521379.38, -661041.75, 41412.094, -0.13505992, 0.13729826, -510023.38, 132652.34, 0.0, 10.001132, 9.999234 
1.8751985e+3, 2.4442232e+2, -443759.22, -668554.25, -8192.509, -0.12715106, 0.20986636, -443461.03, 101218.914, 0.0, 10.00136, 9.998424 
1.8752179e+3, 2.5442222e+2, -373671.3, -555535.7, 5186.5454, 0.17657319, 0.29803702, -373523.5, 73157.12, 0.0, 10.001085, 9.998634 
1.8752353e+3, 2.6442015e+2, -283193.03, -552418.44, 20321.951, 0.190457, 0.27488977, -281667.7, 67032.39, 0.00000004605578, 10.001381, 9.997871 
1.8752494e+3, 2.7441588e+2, 3757.4429, -341831.78, 15494.54, -0.15463178, 0.0059907907, 4450.752, 255191.7, 0.000008319171, 10.002609, 9.998039 
1.8752661e+3, 2.8441387e+2, 89236.2, -381318.63, -51663.42, -0.24200357, 0.0662783, 94841.69, 247603.53, 0.00010877433, 10.003071, 9.996875 
1.8752857e+3, 2.9441386e+2, 168886.38, -252281.67, -30001.84, 0.036891464, 0.31043237, 171012.81, 225778.38, 0.00047285456, 10.00281, 9.9971895 
1.8753028e+3, 3.0440915e+2, 211073.83, -202655.7, 42740.094, -0.054899957, 0.12548923, 215442.94, 215442.94, 0.0011966277, 10.002741, 9.997241 
1.8753219e+3, 3.1440687e+2, 354361.94, 77795.95, -39510.43, -0.11252551, 0.09183229, 359895.7, 359895.7, 0.002193649, 10.00278, 9.999126 
1.8849947e+3, 1.2440484e+2, -2004186.4, -1673585.5, -70253.516, 0.18514287, 0.26329288, -1659275.8, 61580.793, 0.15411249, 9.997044, 10.001757 
1.885011e+3, 1.3440563e+2, -1923431.4, -1719441.9, 1300.7555, -0.008400179, 0.2502647, -1719433.5, -96583.67, 0.10442951, 9.997654, 10.000386 
1.8850288e+3, 1.4440647e+2, -1653573.0, -1534429.4, 26351.268, 0.093409374, 0.2878944, -1528861.4, -4020.428, 0.057399224, 9.998839, 10.0004015 
1.8850459e+3, 1.5440714e+2, -1567098.4, -1404893.1, 27562.021, -0.011012979, 0.2480616, -1400337.8, 26493.47, 0.023018045, 9.998649, 10.0006895 
1.8850626e+3, 1.6440706e+2, -1553186.8, -1475881.9, -21791.19, -0.06550409, 0.23065315, -1470162.5, -141332.08, 0.005521801, 9.998547, 9.999616 
1.8850794e+3, 1.7440602e+2, -1327660.4, -1287734.6, -15412.571, 0.0057773474, 0.10798275, -1282477.1, -51636.688, 0.0004532519, 9.999329, 9.99984 
1.8850963e+3, 1.8440579e+2, -1213754.5, -1209567.9, 58676.895, 0.020703122, 0.11892991, -1152947.0, -20104.014, 0.0000010252129, 9.999528, 9.99962 
1.885113e+3, 1.9440648e+2, -1127223.0, -1087188.3, 28993.965, -0.075349174, 0.16412094, -1071972.9, -37135.684, 0.0, 9.999354, 9.999849 
1.8851309e+3, 2.0440677e+2, -1010830.0, -1013158.06, -6599.351, -0.035473622, 0.22721875, -1005292.8, -68458.54, 0.0, 9.999584, 9.99961 
1.8851501e+3, 2.1440634e+2, -758283.1, -815759.06, -58182.76, 0.16409187, 0.17105697, -722128.06, 116709.19, 0.0, 10.000565, 9.999804 
1.8851674e+3, 2.2440562e+2, -670879.6, -817666.3, -44211.195, 0.17033882, 0.16716951, -658592.1, 82251.875, 0.0, 10.000906, 9.99895 
1.8851826e+3, 2.3440439e+2, -600736.2, -710379.1, -74808.945, -0.099218994, 0.097036034, -562811.94, 80044.375, 0.0, 10.000648, 9.999122 
1.8851997e+3, 2.4440409e+2, -492057.84, -662119.6, -89833.07, -0.10617975, 0.18700005, -453394.63, 91464.6, 0.0, 10.0009165, 9.998668 
1.8852194e+3, 2.5440478e+2, -239802.56, -467016.8, -95771.555, 0.18471715, 0.3301521, -204820.42, 242031.94, 0.0, 10.0019045, 9.998842 
1.8852372e+3, 2.6440305e+2, -175117.92, -535971.3, -16897.629, 0.22202225, 0.34424356, -174328.38, 174541.36, 0.000000017635879, 10.002308, 9.997519 
1.8852521e+3, 2.743986e+2, -98289.71, -421541.47, -34623.207, -0.10158611, 0.09347894, -94622.84, 156292.02, 0.000007223604, 10.002085, 9.997714 
1.8852693e+3, 2.8439653e+2, 1294.4115, -362714.66, -32548.383, -0.17456648, 0.13857917, 4181.8667, 157118.38, 0.00010058898, 10.002221, 9.997407 
1.8852891e+3, 2.943964e+2, 232927.77, -165103.33, -26744.734, 0.09984599, 0.3130848, 234716.77, 289655.38, 0.00044370364, 10.002991, 9.997707 
1.8853055e+3, 3.0439246e+2, 398557.72, -59461.805, 118768.15, -0.0905694, 0.15841413, 427523.44, 427523.44, 0.0011208182, 10.003742, 9.997784 
1.8853262e+3, 3.143909e+2, 521492.84, 146626.39, -56359.17, -0.0014297273, 0.146024, 529782.8, 529782.8, 0.0020397787, 10.003929, 9.999078 
1.8949933e+3, 1.24389246e+2, -1930694.3, -1624650.9, -91912.87, 0.23491427, 0.38108248, -1599168.8, 121845.07, 0.16258536, 9.997394, 10.002035 
1.8950082e+3, 1.3438988e+2, -1924337.1, -1729005.0, 87117.72, -0.09225629, 0.37327605, -1695796.5, -72790.086, 0.110513955, 9.997673, 10.000327 
1.8950282e+3, 1.4438917e+2, -1641665.6, -1528249.0, 17209.836, 0.0753398, 0.25520772, -1525695.0, -683.0643, 0.06108175, 9.998926, 10.000399 
1.8950452e+3, 1.5438984e+2, -1582272.8, -1442804.3, 31523.064, 0.008538426, 0.24042311, -1436010.4, -9006.6045, 0.024752133, 9.998676, 10.000414 
1.8950616e+3, 1.6439065e+2, -1481802.5, -1368471.8, -19108.428, -0.08387873, 0.29823104, -1365336.6, -36343.33, 0.0060684755, 9.998712, 10.000275 
1.8950792e+3, 1.7439096e+2, -1272646.8, -1179914.3, 23677.086, 0.019349879, 0.2354807, -1174218.6, 56768.0, 0.0005270964, 9.999351, 10.000571 
1.8950966e+3, 1.8439034e+2, -1245108.1, -1281091.9, 34006.484, 0.049452066, 0.19027661, -1224627.4, -91636.695, 0.0000013718216, 9.999567, 9.999104 
1.8951128e+3, 1.9438861e+2, -1185993.1, -1184916.8, 30502.555, -0.05810394, 0.054900527, -1154947.6, -119940.62, 0.0, 9.999258, 9.99922 
1.8951303e+3, 2.0438781e+2, -1097413.6, -1158619.0, 10374.065, -0.09450794, 0.0856903, -1095703.1, -158687.19, 0.0, 9.999422, 9.998698 
1.8951492e+3, 2.1438807e+2, -852938.4, -962280.25, -3238.7974, -0.0030110583, 0.1867589, -852842.5, -13826.018, 0.0, 10.00034, 9.998911 
1.8951675e+3, 2.243876e+2, -750783.94, -902606.25, -69023.164, 0.054383017, 0.27411175, -724095.4, 16928.447, 0.0, 10.000558, 9.998533 
1.895185e+3, 2.343862e+2, -665283.7, -783310.44, -62789.316, 0.060913924, 0.22116156, -638128.1, 4911.2256, 0.0, 10.000387, 9.998742 
1.8952022e+3, 2.4438505e+2, -511894.2, -634482.3, -72357.16, 0.022995047, 0.22868684, -478359.34, 66690.73, 0.0, 10.000604, 9.999016 
1.8952192e+3, 2.5438407e+2, -252433.61, -426723.28, -42070.758, -0.050419908, 0.16157205, -242809.8, 204246.48, 0.0, 10.001616, 9.999259 
1.895237e+3, 2.6438314e+2, -227074.5, -565403.6, -42490.465, -0.0665806, 0.23722164, -221819.78, 127246.75, 0.0000000071100716, 10.001966, 9.997481 
1.8952553e+3, 2.743825e+2, -147978.63, -446331.03, -23758.322, -0.028982958, 0.36880815, -146098.55, 104981.19, 0.0000064443307, 10.001757, 9.997697 
1.8952733e+3, 2.8438133e+2, 11732.814, -254559.8, -32447.117, -0.029508397, 0.4581144, 15629.4, 168722.39, 0.0000894982, 10.001838, 9.998337 
1.8952914e+3, 2.9437846e+2, 225929.61, -76549.67, 32204.47, -0.0023399978, 0.25794682, 229320.34, 284435.75, 0.00040238924, 10.002541, 9.998537 
1.8953067e+3, 3.043761e+2, 347516.44, -25762.8, 108356.766, -0.38138193, 0.19756365, 376690.5, 376690.5, 0.0010279405, 10.003176, 9.998268 
1.8953305e+3, 3.1437683e+2, 306426.03, -47872.21, 68815.43, -0.018325057, 0.35447514, 319322.63, 319322.63, 0.0018812018, 10.002933, 9.998182 
1.9049905e+3, 1.2436995e+2, -1869557.1, -1567278.9, -84302.08, 0.21323293, 0.2778426, -1545357.6, 175845.34, 0.1713416, 9.997748, 10.002289 
1.9050048e+3, 1.3437259e+2, -1855756.5, -1685911.6, 15011.193, -0.19795686, 0.44445732, -1684595.1, -61419.664, 0.11689223, 9.998173, 10.000342 
1.905028e+3, 1.4437075e+2, -1799380.5, -1616073.8, -45935.617, 0.23283076, 0.22504044, -1605206.9, -80014.62, 0.06499328, 9.997843, 10.00035 
1.9050443e+3, 1.5437144e+2, -1592129.9, -1427415.4, -39686.05, 0.08093637, 0.19380726, -1418352.3, 8831.712, 0.026617203, 9.99846, 10.00066 
1.9050607e+3, 1.6437286e+2, -1460911.9, -1357583.3, -34100.7, -0.03392797, 0.29940292, -1347344.0, -18175.928, 0.0066676727, 9.998866, 10.000278 
1.905079e+3, 1.7437361e+2, -1239897.1, -1161025.0, -77647.555, 0.06899686, 0.28297988, -1113373.0, 117784.78, 0.0006122247, 9.999581, 10.000581 
1.9050968e+3, 1.8437293e+2, -1199358.6, -1269258.6, -78082.09, 0.11248879, 0.23763603, -1148761.5, -15599.113, 0.0000017786746, 9.999942, 9.99901 
1.905113e+3, 1.9437084e+2, -1039887.3, -1128074.6, -81129.336, -0.003455095, 0.08449115, -991643.44, 43538.297, 0.0, 10.00033, 9.999107 
1.9051304e+3, 2.0436986e+2, -959787.75, -1086184.4, -6880.07, -0.037052654, 0.10496625, -959414.4, -22222.293, 0.0, 10.000385, 9.998704 
1.9051497e+3, 2.1437003e+2, -856091.25, -962004.75, 4988.584, 0.025162518, 0.19566883, -855856.8, -16663.465, 0.0, 10.000347, 9.998888 
1.9051681e+3, 2.243694e+2, -745016.94, -929933.8, 9579.602, 0.07510103, 0.28175977, -744521.94, -3319.9563, 0.0, 10.000692, 9.998297 
1.905186e+3, 2.343678e+2, -505764.06, -742025.1, -6754.998, 0.07666269, 0.2332368, -505571.06, 137648.77, 0.0, 10.001594, 9.998463 
1.9052035e+3, 2.4436632e+2, -345500.22, -583846.6, 2315.1646, 0.038443096, 0.23441027, -345477.72, 199756.45, 0.0, 10.0019, 9.998727 
1.9052206e+3, 2.5436467e+2, -264846.38, -461442.53, -53901.62, -0.06284308, 0.13184953, -251037.81, 196209.56, 0.0, 10.001665, 9.998989 
1.9052388e+3, 2.6436365e+2, -244975.97, -553639.5, -41523.582, -0.06232531, 0.20271982, -239487.52, 109770.98, 0.000000016068412, 10.001735, 9.997679 
1.9052577e+3, 2.7436364e+2, -52172.414, -389602.84, -51078.79, 0.020108702, 0.37855238, -44609.816, 206655.4, 0.000006020835, 10.002305, 9.9978485 
1.9052762e+3, 2.8436258e+2, 126364.164, -168314.27, -29121.723, 0.069944456, 0.4593942, 129214.56, 282491.2, 0.00007835106, 10.002475, 9.998631 
1.9052948e+3, 2.9435962e+2, 212856.11, -41337.973, -65540.04, 0.11361796, 0.22027853, 228759.61, 284059.06, 0.00035568743, 10.002277, 9.998898 
1.90531e+3, 3.0435845e+2, 247539.31, -64987.145, 30606.05, -0.2987759, 0.25357822, 250508.39, 250508.39, 0.0009266064, 10.0024605, 9.998346 
1.9053349e+3, 3.143574e+2, 292014.72, -120264.45, -113102.89, 0.13802329, 0.24452907, 321004.44, 321004.44, 0.0017278214, 10.003035, 9.99768 
1.914987e+3, 1.2434759e+2, -1900605.6, -1638241.0, -58966.71, -0.019535596, 0.0032820662, -1625597.4, 95820.6, 0.18042894, 9.997841, 10.001652 
1.9150013e+3, 1.3435307e+2, -1858800.6, -1699176.9, 9650.153, -0.41914222, 0.41280153, -1698595.5, -75231.5, 0.12358676, 9.998212, 10.000228 
1.9150275e+3, 1.4435093e+2, -1763468.3, -1592598.3, -58978.22, 0.33284536, 0.20362964, -1574218.1, -48834.117, 0.069141634, 9.9980545, 10.000413 
1.9150427e+3, 1.5435195e+2, -1525764.1, -1298381.1, -7548.9404, 0.03592273, 0.11927353, -1298130.8, 129241.4, 0.028615344, 9.998485, 10.001557 
1.9150594e+3, 1.643538e+2, -1483462.3, -1436566.4, -28347.28, -0.09902522, 0.24430177, -1423226.1, -93872.86, 0.0073205116, 9.999, 9.99967 
1.9150785e+3, 1.7435412e+2, -1299937.3, -1281520.9, -40187.785, 0.008190805, 0.26361537, -1249499.9, -18148.168, 0.00070924795, 9.999565, 9.999757 
1.9150965e+3, 1.8435371e+2, -1178733.9, -1235861.3, -86244.2, 0.027770368, 0.2818611, -1116446.4, 16909.924, 0.0000023137907, 9.999972, 9.999231 
1.9151133e+3, 1.943532e+2, -1031524.8, -1085003.4, -53758.83, -0.046317548, 0.25195527, -998222.44, 37138.24, 0.0, 10.000216, 9.999461 
1.9151312e+3, 2.0435272e+2, -936019.6, -999337.94, -25378.303, -0.042449273, 0.2713585, -927103.44, 10260.774, 0.0, 10.000215, 9.999384 
1.9151509e+3, 2.1435201e+2, -837491.4, -873372.1, 15172.178, 0.094476745, 0.20064805, -831936.0, 7433.547, 0.0, 10.000124, 9.999604 
1.915169e+3, 2.2435088e+2, -797998.1, -956690.75, 25445.35, 0.059881303, 0.19905268, -794017.94, -52637.93, 0.0, 10.000334, 9.998288 
1.9151853e+3, 2.3434933e+2, -557550.5, -771904.06, 42042.902, -0.17209227, 0.16222632, -549599.25, 93797.62, 0.0, 10.001275, 9.998407 
1.9152032e+3, 2.4434784e+2, -463442.75, -744423.94, -21782.557, -0.22534512, 0.21278742, -461764.13, 83648.35, 0.0, 10.001533, 9.997805 
1.9152229e+3, 2.5434646e+2, -371981.84, -617354.56, -43374.9, -0.030238371, 0.23184662, -364540.1, 82886.945, 0.0, 10.001384, 9.998053 
1.9152416e+3, 2.6434472e+2, -273761.16, -536918.9, -42362.26, 0.023337694, 0.26649266, -267109.94, 82334.805, 0.000000038925435, 10.001397, 9.997964 
1.9152589e+3, 2.743424e+2, -75213.516, -360705.16, -9522.051, -0.112476625, 0.17105335, -74896.28, 176572.06, 0.0000054500297, 10.001985, 9.998199 
1.9152777e+3, 2.8434068e+2, 44292.984, -254026.55, -56889.547, -0.07370738, 0.18939419, 54773.613, 208258.36, 0.00006657065, 10.002111, 9.9982195 
1.9152986e+3, 2.9433978e+2, 119699.695, -135971.34, -46396.06, 0.23138249, 0.20027418, 127858.71, 183350.56, 0.00030471265, 10.001865, 9.998445 
1.9153148e+3, 3.0433965e+2, 148262.7, -169681.81, 19241.094, -0.113463536, 0.3850133, 149422.88, 149422.88, 0.00081498816, 10.002022, 9.997831 
1.9153358e+3, 3.1433496e+2, 152968.13, -180447.3, 18705.31, -0.13047194, 0.038017377, 154014.25, 154014.25, 0.0015623597, 10.00212, 9.997667 
1.9249862e+3, 1.24329455e+2, -1938889.9, -1595741.9, 26566.826, 0.17184547, 0.17567188, -1593697.3, 127895.125, 0.18987963, 9.997249, 10.002311 
1.9250013e+3, 1.3433261e+2, -1965207.0, -1715128.5, -28945.338, -0.17474656, 0.28742337, -1711821.9, -88261.02, 0.13060497, 9.997295, 10.000577 
1.9250244e+3, 1.4433153e+2, -1927614.6, -1674418.5, 14412.769, 0.28916946, 0.1797534, -1673600.8, -148029.64, 0.07352615, 9.9969845, 10.000342 
1.9250412e+3, 1.54333e+2, -1573894.5, -1292982.5, -15437.108, 0.069910124, 0.119709216, -1292136.6, 135419.06, 0.030745408, 9.998063, 10.0017805 
1.9250591e+3, 1.643345e+2, -1552583.5, -1478314.0, -28705.857, -0.0072860057, 0.2008107, -1468512.5, -138971.42, 0.008026891, 9.998571, 9.999583 
1.9250777e+3, 1.7433439e+2, -1405583.0, -1346799.1, -24341.68, 0.029029336, 0.1887983, -1338028.1, -106484.52, 0.0008187495, 9.9989, 9.999635 
1.925096e+3, 1.8433414e+2, -1280653.1, -1288703.3, -5039.436, 0.050385773, 0.22757846, -1278228.6, -144681.48, 0.0000031359323, 9.999259, 9.999213 
1.925114e+3, 1.9433413e+2, -1028830.06, -1080661.3, -25236.89, 0.015184318, 0.2435381, -1018572.25, 16974.916, 0.0, 10.000188, 9.999499 
1.9251323e+3, 2.0433386e+2, -899075.6, -1001697.0, -32132.455, 0.038718734, 0.28352812, -889844.75, 47704.754, 0.0, 10.000549, 9.99921 
1.9251513e+3, 2.1433295e+2, -792185.5, -871327.25, -88031.26, 0.12167839, 0.21434018, -735240.25, 104317.38, 0.0, 10.000524, 9.999426 
1.9251695e+3, 2.2433192e+2, -750205.75, -903871.3, -48490.96, 0.08102578, 0.2187274, -736183.44, 5383.7773, 0.0, 10.000565, 9.99853 
1.9251865e+3, 2.3433055e+2, -608413.56, -764342.3, -44676.48, -0.14629377, 0.1797944, -596520.06, 47059.97, 0.0, 10.000803, 9.998685 
1.9252048e+3, 2.4432899e+2, -524712.1, -808878.0, -51274.668, -0.17977227, 0.21974625, -515743.25, 29852.75, 0.0, 10.001235, 9.99751 
1.9252248e+3, 2.5432724e+2, -297983.6, -630814.06, -64786.332, 0.004575416, 0.2390473, -285817.5, 161797.95, 0.0, 10.002064, 9.997651 
1.925244e+3, 2.6432523e+2, -124526.64, -429664.38, -15040.527, 0.08103196, 0.25199732, -123787.08, 225847.81, 0.000000047147957, 10.002284, 9.998268 
1.9252616e+3, 2.7432257e+2, -79265.31, -323482.13, -25874.887, -0.025198508, 0.09362776, -76553.95, 175103.6, 0.0000044268, 10.001794, 9.9985485 
1.9252805e+3, 2.8432053e+2, -797.7961, -361267.88, -20188.945, 0.0001454681, 0.09643329, 329.4068, 154006.27, 0.000054025306, 10.002193, 9.997428 
1.925301e+3, 2.9431942e+2, 373869.78, -124002.4, -90387.734, 0.19653769, 0.18133657, 389771.6, 445462.03, 0.00025237876, 10.004068, 9.997468 
1.9253184e+3, 3.0431807e+2, 519961.06, 559.73975, -11967.718, -0.06808856, 0.30113408, 520236.66, 520236.66, 0.00069601834, 10.004603, 9.997762 
1.9253397e+3, 3.1431538e+2, 358014.53, -23360.338, -60342.598, 0.024665542, 0.1645664, 367334.4, 367334.4, 0.0013738653, 10.003176, 9.998283 
1.9349822e+3, 1.2431026e+2, -1768119.8, -1349560.5, -48015.387, -0.04323939, 0.26208943, -1344123.0, 377654.75, 0.1997211, 9.997423, 10.004362 
1.9350034e+3, 1.3431148e+2, -1910172.0, -1594501.8, -46851.92, 0.2737888, 0.08884737, -1587694.8, 36068.645, 0.13795441, 9.997255, 10.001458 
1.9350182e+3, 1.4431271e+2, -1910693.9, -1694889.9, 28855.338, -0.104230106, 0.16517721, -1691098.3, -165346.97, 0.07814733, 9.997206, 10.000102 
1.9350395e+3, 1.5431462e+2, -1602727.9, -1372552.6, 34862.01, 0.04775006, 0.20361929, -1367388.4, 60346.12, 0.033007, 9.998139, 10.001191 
1.9350587e+3, 1.6431488e+2, -1501081.6, -1399809.9, -37287.617, 0.037913848, 0.17244437, -1387562.0, -57830.08, 0.008786739, 9.998685, 10.0000725 
1.9350767e+3, 1.7431432e+2, -1359160.0, -1255848.0, -1045.9916, -0.01153891, 0.053586204, -1255837.4, -24102.584, 0.00094156526, 9.998918, 10.000256 
1.9350953e+3, 1.8431412e+2, -1280234.9, -1301430.0, 8928.872, -0.012268475, 0.06773013, -1276974.9, -143239.08, 0.0000044945964, 9.999312, 9.999103 
1.9351147e+3, 1.9431388e+2, -1061988.5, -1127379.9, 21502.008, 0.03538166, 0.08274351, -1055551.8, -19812.47, 0.0, 10.000083, 9.999236 
1.9351332e+3, 2.0431347e+2, -992399.75, -1153776.5, -51396.51, 0.0207547, 0.1700907, -977420.9, -39674.645, 0.0, 10.000365, 9.998258 
1.9351506e+3, 2.1431296e+2, -902401.8, -1039428.75, -74877.46, -0.030405547, 0.24272805, -869422.75, -29666.246, 0.0, 10.000266, 9.998395 
1.9351691e+3, 2.243123e+2, -778022.5, -873349.6, -56214.684, -0.048670433, 0.32299763, -751984.6, -10220.058, 0.0, 10.00019, 9.998917 
1.9351888e+3, 2.3431137e+2, -611459.06, -707469.6, -19673.58, -0.016465643, 0.2754913, -607584.2, 36186.26, 0.0, 10.000535, 9.999199 
1.9352078e+3, 2.4430971e+2, -559417.9, -801452.9, -41332.86, -0.0362845, 0.26629958, -552554.0, -6768.8286, 0.0, 10.000889, 9.997733 
1.935226e+3, 2.5430697e+2, -325944.53, -621186.1, -18463.848, -0.095996045, 0.16648208, -324794.3, 123018.45, 0.0, 10.001779, 9.997854 
1.9352452e+3, 2.6430497e+2, -167820.45, -424894.84, -51864.805, -0.056101345, 0.16103521, -157751.13, 192079.34, 0.00000001782158, 10.00189, 9.998486 
1.935265e+3, 2.7430388e+2, -112998.62, -305127.8, -29627.502, 0.107587315, 0.1353398, -108533.63, 143302.06, 0.0000033385966, 10.001445, 9.998827 
1.9352838e+3, 2.8430206e+2, -143288.19, -578042.0, 10827.5625, 0.06960803, 0.2014438, -143018.7, 10835.178, 0.00004416703, 10.00184, 9.996118 
1.9353017e+3, 2.942987e+2, 217702.95, -343067.8, 2938.0183, -0.18341714, 0.19508508, 217718.34, 273611.97, 0.00021030588, 10.00363, 9.996169 
1.9353205e+3, 3.042943e+2, 442793.2, -32600.746, -82263.79, -0.37987664, 0.073695265, 456625.9, 456625.9, 0.00059174973, 10.004058, 9.997797 
1.935344e+3, 3.1429633e+2, 291318.97, 76175.0, -31781.207, 0.07139356, 0.39038968, 295915.5, 295915.5, 0.0011892852, 10.002232, 9.999385 
1.9449762e+3, 1.24290176e+2, -2101691.8, -1471611.4, -106666.9, -0.25351533, 0.15674768, -1454043.5, 267930.22, 0.20999403, 9.995071, 10.004499 
1.9450022e+3, 1.3429137e+2, -1954980.1, -1630832.5, -28268.9, 0.4553306, 0.006288795, -1628385.8, -4425.366, 0.14565058, 9.997, 10.001314 
1.9450144e+3, 1.442942e+2, -1667635.1, -1599811.6, 21637.27, -0.27702263, 0.24873018, -1593496.9, -67563.82, 0.083007626, 9.998935, 9.999947 
1.945038e+3, 1.5429541e+2, -1598596.8, -1414951.4, -16677.973, 0.08847782, 0.25341058, -1413449.0, 14474.678, 0.03539992, 9.998346, 10.000804 
1.945058e+3, 1.6429497e+2, -1602419.1, -1441490.5, -42185.945, 0.15141684, 0.17174332, -1431102.4, -101174.46, 0.009600047, 9.99796, 10.000139 
1.945076e+3, 1.7429478e+2, -1332301.8, -1227036.8, -70860.96, 0.029110292, 0.07892847, -1191400.0, 40526.582, 0.0010784023, 9.999039, 10.000392 
1.9450949e+3, 1.8429472e+2, -1249425.9, -1316644.4, -63068.63, 0.020170588, 0.10977245, -1211570.3, -77643.73, 0.0000066792873, 9.999677, 9.998822 
1.9451147e+3, 1.9429383e+2, -1088853.4, -1172155.5, -91803.66, 0.046871804, 0.09425937, -1029694.1, 6243.1455, 0.0, 10.000076, 9.998923 
1.9451334e+3, 2.0429301e+2, -1007535.44, -1172582.0, -124007.125, 0.02227606, 0.16493797, -941102.8, -3154.1978, 0.0, 10.0003195, 9.998153 
1.9451506e+3, 2.1429236e+2, -851127.3, -1023997.8, -114133.95, -0.05992624, 0.23616464, -794392.7, 45567.543, 0.0, 10.000658, 9.998316 
1.9451696e+3, 2.2429173e+2, -662199.75, -809424.44, -29263.635, -0.045408275, 0.3196966, -656596.3, 85371.2, 0.0, 10.000922, 9.999006 
1.9451903e+3, 2.34291e+2, -501416.75, -649403.94, -50525.383, 0.05890538, 0.2843876, -485811.97, 158158.8, 0.0, 10.001235, 9.999277 
1.9452101e+3, 2.4428941e+2, -476500.1, -740364.94, -48036.04, 0.080007255, 0.2713028, -468027.3, 77956.74, 0.0, 10.001395, 9.997905 
1.9452284e+3, 2.5428653e+2, -345717.25, -614731.7, -68094.81, -0.032220397, 0.14353515, -329462.75, 118549.54, 0.0, 10.001588, 9.997987 
1.9452474e+3, 2.6428437e+2, -178436.66, -489859.9, -107571.484, -0.019814624, 0.1392663, -144892.55, 205139.88, 0.000000002142629, 10.00205, 9.9979725 
1.945267e+3, 2.7428332e+2, 60202.453, -295917.38, -181465.05, 0.11189447, 0.18018956, 136376.48, 388416.5, 0.0000030022966, 10.002909, 9.998212 
1.9452861e+3, 2.8428143e+2, 47780.883, -467906.03, -70953.08, 0.07517212, 0.26911193, 57365.152, 211424.17, 0.00003904193, 10.003058, 9.996297 
1.9453046e+3, 2.9427806e+2, 57253.902, -391566.06, -17916.977, -0.18654652, 0.23937716, 57968.016, 114064.16, 0.00018459432, 10.002368, 9.996462 
1.9453242e+3, 3.0427223e+2, 173749.84, -186226.69, -32332.484, -0.29034168, -0.026450941, 176630.84, 176630.84, 0.0005147773, 10.0023365, 9.997548 
1.9453472e+3, 3.1427476e+2, 454169.22, 137584.42, -123718.125, 0.13489081, 0.3880921, 496781.44, 496781.44, 0.0010277403, 10.0033655, 9.999281 
1.954974e+3, 1.2427287e+2, -2173605.3, -1682306.6, -458616.25, -0.08820226, 0.18839853, -1407694.1, 314450.16, 0.22070916, 9.995476, 10.002869 
1.9549973e+3, 1.3427246e+2, -2018226.0, -1801099.8, 114441.81, 0.227893, 0.034274425, -1751919.8, -127769.88, 0.15369554, 9.997145, 10.000087 
1.9550124e+3, 1.4427619e+2, -1644561.1, -1599086.9, 8807.825, -0.43021813, 0.42857903, -1597440.5, -71325.82, 0.08810495, 9.999141, 9.99985 
1.955036e+3, 1.5427537e+2, -1608926.5, -1450929.6, -29417.525, 0.033153843, 0.25583667, -1445630.1, -17507.09, 0.037922986, 9.998405, 10.000529 
1.9550563e+3, 1.6427481e+2, -1603398.4, -1484182.4, -33566.543, 0.12519822, 0.1926028, -1475381.1, -145252.48, 0.010466628, 9.998128, 9.99977 
1.9550753e+3, 1.742759e+2, -1355116.9, -1290339.5, -17572.098, 0.015950639, 0.26979864, -1285879.8, -53761.777, 0.0012294218, 9.999096, 9.999935 
1.9550946e+3, 1.8427587e+2, -1273889.1, -1380369.1, -62538.383, -0.038889874, 0.3536687, -1244997.9, -110878.414, 0.000009908067, 9.999739, 9.998349 
1.9551137e+3, 1.9427387e+2, -1138447.6, -1249302.4, -65730.95, -0.092286386, 0.27607825, -1107894.0, -71752.52, 0.0, 9.999969, 9.998445 
1.9551325e+3, 2.0427217e+2, -993827.8, -1094153.9, -129635.945, -0.1382281, 0.25330845, -904987.94, 33171.227, 0.0, 10.000101, 9.998796 
1.955151e+3, 2.14271e+2, -837187.7, -930145.0, -87020.0, -0.12095365, 0.19463065, -785011.7, 55158.434, 0.0, 10.000388, 9.9990835 
1.9551703e+3, 2.2427012e+2, -723992.4, -858376.0, -32877.344, -0.09867671, 0.21648052, -716380.0, 25797.145, 0.0, 10.000569, 9.998845 
1.9551907e+3, 2.3426948e+2, -560476.44, -703146.56, -23428.088, -0.055718567, 0.2138912, -556727.75, 87452.875, 0.0, 10.000949, 9.999042 
1.9552109e+3, 2.4426818e+2, -536226.8, -777037.4, -55256.746, -0.023109948, 0.24495704, -524152.88, 22038.914, 0.0, 10.0010195, 9.997832 
1.9552308e+3, 2.542658e+2, -385595.78, -634592.44, -41560.1, 0.031422563, 0.16636252, -378842.16, 69372.77, 0.0, 10.001327, 9.997968 
1.9552499e+3, 2.6426345e+2, -314071.5, -697270.44, -95315.2, -0.0076361015, 0.204015, -291672.5, 58566.824, 0.00000003752054, 10.001722, 9.99671 
1.9552676e+3, 2.7426112e+2, -78265.695, -513874.63, -126895.14, -0.15473674, 0.24296084, -43996.434, 208270.61, 0.0000033251551, 10.002615, 9.996852 
1.955287e+3, 2.8425905e+2, 72348.695, -309582.7, -110453.65, -0.18606831, 0.3310387, 101991.03, 256278.47, 0.000036409245, 10.0026045, 9.997599 
1.9553088e+3, 2.9425764e+2, 111264.39, -172465.39, -13521.832, -0.035743013, 0.33675033, 111907.35, 168203.45, 0.00016708692, 10.001933, 9.998163 
1.955329e+3, 3.0425206e+2, 54129.918, -330866.06, -29687.207, -0.08899588, 0.031252693, 56405.66, 56405.66, 0.00045041234, 10.001866, 9.996797 
1.9553499e+3, 3.142507e+2, 282905.75, -41630.49, -48158.42, -0.0016021251, 0.14657265, 289901.28, 289901.28, 0.00087258307, 10.002661, 9.9983635 
1.9649729e+3, 1.24254555e+2, -1876894.8, -1654385.6, -370851.44, 0.13722932, 0.21813439, -1378460.3, 343862.13, 0.23177752, 9.998219, 10.001686 
1.9649935e+3, 1.3425364e+2, -1953176.6, -1867404.9, 98138.23, 0.10306717, 0.12770216, -1803191.3, -178856.31, 0.1620495, 9.998115, 9.999111 
1.9650127e+3, 1.4425524e+2, -1906254.0, -1736580.8, 5972.88, -0.215154, 0.36637938, -1736370.8, -210049.98, 0.093428105, 9.997426, 9.999704 
1.9650349e+3, 1.5425472e+2, -1573783.6, -1441814.8, -68537.53, 0.06061345, 0.2305295, -1412660.6, 15663.983, 0.04057487, 9.998701, 10.000423 
1.9650549e+3, 1.6425411e+2, -1447597.1, -1482551.1, -22386.877, 0.12319048, 0.19228049, -1436673.1, -106341.7, 0.011385711, 9.999515, 9.999109 
1.9650748e+3, 1.7425483e+2, -1267983.9, -1325967.0, -56244.73, 0.028160306, 0.3047119, -1233698.4, -1370.7653, 0.0013940044, 10.000035, 9.999233 
1.9650947e+3, 1.8425485e+2, -1205105.5, -1314928.8, -78856.086, -0.016282368, 0.41696665, -1163925.6, -29595.72, 0.000014255441, 10.000062, 9.998647 
1.9651137e+3, 1.9425333e+2, -1120251.0, -1198215.4, -52077.707, -0.07248895, 0.3458257, -1094181.6, -57835.777, 0.0, 9.999902, 9.998829 
1.9651328e+3, 2.0425189e+2, -995276.44, -1059404.3, -51284.914, -0.083721995, 0.31321377, -966857.0, -28497.479, 0.0, 9.999924, 9.99912 
1.965152e+3, 2.1425064e+2, -826844.44, -896415.44, -70420.07, -0.039684407, 0.21705957, -783086.9, 57282.656, 0.0, 10.000294, 9.9993725 
1.9651717e+3, 2.2424948e+2, -733370.6, -880176.56, -956.75507, -0.009807423, 0.20296282, -733364.44, 9014.436, 0.0, 10.000598, 9.99868 
1.9651915e+3, 2.3424824e+2, -553134.56, -725052.06, -31421.982, -0.05140154, 0.16315185, -547571.5, 96817.67, 0.0, 10.001107, 9.998816 
1.9652121e+3, 2.4424681e+2, -406147.03, -702996.7, -18433.02, -0.027454494, 0.19022705, -405006.8, 141394.73, 0.0, 10.001819, 9.99798 
1.9652331e+3, 2.542453e+2, -170848.08, -518378.56, -24817.586, 0.060052842, 0.19000572, -169084.78, 279330.56, 0.0, 10.002715, 9.998122 
1.9652528e+3, 2.642432e+2, -147080.5, -641165.5, -14640.113, 0.04590896, 0.2531921, -146647.08, 203791.03, 0.00000006167767, 10.002996, 9.996473 
1.9652702e+3, 2.7423993e+2, -106204.78, -560249.56, -22625.006, -0.13434511, 0.23245019, -105080.164, 147396.14, 0.000003603985, 10.00258, 9.996538 
1.9652899e+3, 2.8423756e+2, 79055.65, -256347.81, 34561.848, -0.14052723, 0.28144836, 82580.06, 237080.25, 0.00003430298, 10.002443, 9.99804 
1.965312e+3, 2.942369e+2, 272288.38, -50899.824, 3172.9277, 0.072995886, 0.32957432, 272319.53, 328818.75, 0.00015136057, 10.002845, 9.998573 
1.9653326e+3, 3.0423275e+2, 234607.13, -291051.25, 16273.58, 0.029960092, 0.16446286, 235110.45, 235110.45, 0.00039140973, 10.003291, 9.996404 
1.9653527e+3, 3.1422853e+2, 366625.22, -45276.047, -128720.36, 0.0044542225, 0.057173304, 403542.03, 403542.03, 0.00072701665, 10.003369, 9.998037 
1.9749704e+3, 1.242341e+2, -1852182.5, -1709906.6, 160913.6, -0.05717945, 0.12365, -1605107.6, 117411.45, 0.24301729, 9.998612, 10.000838 
1.9749907e+3, 1.3423485e+2, -1977162.0, -1966708.0, 47641.41, -0.048076857, 0.29037145, -1924007.8, -299492.2, 0.17062773, 9.998301, 9.998352 
1.9750142e+3, 1.4423122e+2, -1884696.4, -1730259.8, 15065.809, 0.13040647, 0.04274258, -1728803.8, -202251.1, 0.09895461, 9.99758, 9.9996805 
1.9750336e+3, 1.5423344e+2, -1562500.0, -1431443.5, -9069.571, 0.021616673, 0.17976, -1430818.9, -2289.9563, 0.04335473, 9.998756, 10.000468 
1.9750534e+3, 1.642328e+2, -1480323.9, -1587912.3, -19330.475, -0.031351913, 0.175593, -1476956.1, -146419.17, 0.012356995, 9.999684, 9.998303 
1.9750743e+3, 1.7423159e+2, -1329562.0, -1456889.9, -25917.984, -0.07312439, 0.18714152, -1324488.5, -91932.766, 0.0015709848, 10.000056, 9.998323 
1.9750944e+3, 1.8423155e+2, -1122727.5, -1160433.1, -103086.836, -0.097001344, 0.29815763, -1036783.75, 97775.27, 0.000019593592, 10.000121, 9.999687 
1.9751142e+3, 1.9423205e+2, -1046695.8, -1024426.2, -45320.92, -0.05613954, 0.30728203, -988892.25, 47659.703, 0.0, 9.999809, 10.00007 
1.9751339e+3, 2.0423196e+2, -1027141.2, -1074075.0, -52739.953, -0.013435938, 0.34331465, -992882.9, -54331.35, 0.0, 9.999704, 9.999122 
1.9751534e+3, 2.142314e+2, -870431.44, -926707.06, -42970.6, 0.039810844, 0.32055882, -847205.75, -6648.2637, 0.0, 10.000038, 9.999285 
1.9751729e+3, 2.2423e+2, -810530.4, -958808.4, -1059.8774, 0.019437531, 0.30494285, -810522.8, -67952.23, 0.0, 10.00024, 9.998315 
1.9751927e+3, 2.342272e+2, -612517.3, -795149.9, 7849.7236, -0.06920473, 0.14021647, -612180.56, 32416.17, 0.0, 10.000872, 9.998448 
1.9752133e+3, 2.4422538e+2, -440502.8, -693728.8, -4760.3047, -0.116097435, 0.13549879, -440413.34, 106199.336, 0.0, 10.001465, 9.998217 
1.9752344e+3, 2.5422516e+2, -186861.64, -489077.44, 23891.959, -0.08753964, 0.22970702, -184984.5, 263628.8, 0.0, 10.002442, 9.998453 
1.975255e+3, 2.642235e+2, -173891.1, -603266.5, -46865.125, -0.05997367, 0.29646963, -168835.42, 181794.5, 0.000000055759365, 10.002592, 9.996925 
1.9752744e+3, 2.742197e+2, -115240.25, -500863.56, -17900.258, -0.0087790275, 0.16472834, -114411.12, 138258.45, 0.0000036492006, 10.00225, 9.997095 
1.9752939e+3, 2.842169e+2, -13385.313, -369608.34, 22787.467, -0.008055851, 0.16797018, -11933.524, 142763.83, 0.00003270768, 10.002089, 9.997442 
1.975314e+3, 2.9421577e+2, 185213.06, -169861.11, 49987.36, -0.0415256, 0.2235096, 192116.1, 248822.55, 0.00013942833, 10.002574, 9.997888 
1.9753341e+3, 3.0421424e+2, 100627.695, -432263.3, -1919.7286, -0.18572189, 0.3937038, 100634.61, 100634.61, 0.00034788318, 10.002735, 9.9956875 
1.9753572e+3, 3.142082e+2, 270043.72, -32509.348, -81710.3, 0.055476192, 0.14552163, 290700.78, 290700.78, 0.0006200004, 10.002516, 9.998501 
1.9849698e+3, 1.24209024e+2, -2016614.4, -1750420.1, 242800.17, 0.103891805, -0.108796306, -1606629.6, 116138.71, 0.25424254, 9.997272, 10.001258 
1.9849889e+3, 1.3421288e+2, -1878686.0, -1838850.6, -127178.68, -0.04368106, 0.30997103, -1730039.4, -105307.836, 0.17932345, 9.998605, 9.999103 
1.985014e+3, 1.4420956e+2, -1801768.1, -1693746.9, -30258.057, 0.3169575, 0.053280484, -1685848.8, -159084.78, 0.104643695, 9.998172, 9.999654 
1.9850327e+3, 1.5421149e+2, -1564627.6, -1444441.0, -75483.9, 0.068079896, 0.17202865, -1408051.1, 20692.414, 0.046255346, 9.998793, 10.000379 
1.9850528e+3, 1.6421083e+2, -1542014.9, -1589316.9, -44279.477, -0.028984316, 0.15617566, -1515465.9, -184714.5, 0.013380272, 9.999151, 9.998543 
1.985074e+3, 1.742096e+2, -1423064.4, -1474154.3, 2570.846, -0.04877559, 0.14176893, -1422935.3, -190166.58, 0.0017591557, 9.9993, 9.998568 
1.9850945e+3, 1.842096e+2, -1243911.4, -1183283.9, -35661.39, -0.036251895, 0.22630897, -1166793.1, -32022.67, 0.0000256483, 9.999132, 10.000003 
1.985114e+3, 1.9421008e+2, -1137997.9, -1034524.75, -76431.6, 0.012202049, 0.20156083, -993965.8, 42796.566, 0.0, 9.999008, 10.000392 
1.985134e+3, 2.042102e+2, -1082435.4, -1119496.8, -56476.01, 0.06397441, 0.24678326, -1041527.7, -102766.87, 0.0, 9.999404, 9.998962 
1.985154e+3, 2.1421021e+2, -766980.44, -898833.94, -88008.82, 0.077431604, 0.30619752, -722944.06, 117819.79, 0.0, 10.000854, 9.999082 
1.9851741e+3, 2.2420922e+2, -616960.7, -874117.7, -36408.633, 0.05679642, 0.34340104, -611905.3, 130869.984, 0.0, 10.0015955, 9.998243 
1.9851942e+3, 2.3420657e+2, -547946.06, -773930.9, -39970.996, -0.017970625, 0.20637262, -541084.56, 103716.03, 0.0, 10.001351, 9.998362 
1.9852151e+3, 2.4420486e+2, -484643.16, -681365.0, -1387.3324, -0.051255513, 0.20392804, -484633.38, 62182.64, 0.0, 10.001067, 9.998466 
1.9852363e+3, 2.5420433e+2, -387374.22, -558374.1, -14845.952, -0.07659266, 0.2445778, -386094.88, 62724.125, 0.0, 10.000969, 9.998675 
1.985257e+3, 2.6420265e+2, -313777.34, -585547.94, -53122.285, -0.04266818, 0.26822475, -303762.7, 47070.73, 0.00000004684117, 10.001266, 9.997684 
1.9852771e+3, 2.7419955e+2, -76097.66, -396382.56, -50613.94, 0.05338881, 0.13080823, -68289.586, 184573.42, 0.000003631824, 10.002156, 9.997853 
1.9852972e+3, 2.8419706e+2, 79458.38, -361178.53, 48666.105, 0.09155542, 0.14006013, 84769.29, 239656.53, 0.000030883682, 10.002906, 9.997093 
1.9853178e+3, 2.941952e+2, 264055.13, -189990.0, 28068.18, 0.030554408, 0.18097022, 265783.7, 322689.94, 0.00012822116, 10.003407, 9.997328 
1.9853376e+3, 3.041934e+2, 284082.25, -315932.9, 48691.184, -0.14769374, 0.34518433, 288007.84, 288007.84, 0.0003141248, 10.003834, 9.995961 
1.9853616e+3, 3.14189e+2, 500533.34, 85536.87, -69857.04, 0.18361707, 0.22766416, 511976.94, 511976.94, 0.00054966006, 10.00399, 9.998624 
1.994968e+3, 1.24186955e+2, -1867758.5, -1562308.9, 13785.151, 0.09387848, 0.3273439, -1561688.0, 161306.95, 0.26535824, 9.997564, 10.002607 
1.9949877e+3, 1.3418716e+2, -1704053.4, -1516420.8, -99657.17, -0.051910013, 0.15236135, -1473368.3, 151619.77, 0.18805622, 9.998684, 10.001483 
1.995011e+3, 1.4419022e+2, -1767334.6, -1671444.4, -55002.047, 0.14585543, 0.39613077, -1646424.0, -119468.52, 0.11045076, 9.9983835, 9.999707 
1.9950317e+3, 1.541887e+2, -1576185.0, -1470434.8, -41344.652, 0.059130136, 0.19707488, -1456189.4, -27219.285, 0.04926506, 9.998819, 10.000179 
1.9950524e+3, 1.6418791e+2, -1430573.4, -1385652.4, -52950.48, -0.046436246, 0.119555235, -1350595.6, -19618.584, 0.014456319, 9.999268, 9.999885 
1.9950737e+3, 1.7418876e+2, -1321188.1, -1260325.9, 14794.603, -0.03503334, 0.16825874, -1256920.1, -23952.531, 0.0019582892, 9.999297, 10.000031 
1.9950944e+3, 1.8418881e+2, -1265799.3, -1239523.0, -58667.184, -0.01093665, 0.19765969, -1192540.9, -57574.984, 0.000032105352, 9.999178, 9.999597 
1.9951133e+3, 1.941874e+2, -1191232.4, -1119754.6, -71960.88, 0.0026425782, 0.03718223, -1075146.6, -38168.855, 0.0, 9.998907, 9.999851 
1.995133e+3, 2.0418675e+2, -1135844.3, -1191577.4, -27713.244, -0.02360709, 0.052350547, -1124409.8, -185424.14, 0.0, 9.999229, 9.998552 
1.9951537e+3, 2.1418704e+2, -824883.44, -971343.9, -19348.936, -0.06349077, 0.17738001, -822370.4, 18618.566, 0.0, 10.000646, 9.998683 
1.9951746e+3, 2.24187e+2, -655905.9, -875754.56, -54231.08, -0.08103493, 0.32185566, -643256.3, 99737.22, 0.0, 10.001251, 9.998399 
1.9951956e+3, 2.3418638e+2, -571090.5, -761904.75, -30668.842, -0.04271273, 0.3631479, -566282.4, 78718.35, 0.0, 10.001086, 9.998571 
1.9952166e+3, 2.4418506e+2, -537747.8, -700724.0, -23823.516, -0.036103714, 0.3833491, -534336.75, 12676.315, 0.0, 10.000671, 9.998526 
1.9952376e+3, 2.5418276e+2, -420291.9, -563169.94, -176.4032, -0.047203645, 0.23647216, -420291.7, 28740.943, 0.0, 10.000696, 9.998773 
1.9952582e+3, 2.6418075e+2, -314354.4, -498858.38, -40721.91, -0.07611618, 0.18141548, -305766.4, 45282.3, 0.000000042002604, 10.000893, 9.998457 
1.9952781e+3, 2.741793e+2, -59741.875, -289641.9, -894.2364, -0.094338335, 0.1241278, -59738.395, 193319.78, 0.0000035134383, 10.001859, 9.998722 
1.995299e+3, 2.8417757e+2, -17390.496, -470542.22, 40503.332, -0.05925146, 0.18647228, -13798.721, 141274.97, 0.00002820436, 10.002505, 9.996537 
1.995322e+3, 2.941748e+2, 161440.38, -310129.28, 65744.32, 0.071750574, 0.18779388, 170434.64, 227537.94, 0.00011358975, 10.002999, 9.996697 
1.9953422e+3, 3.041703e+2, 250839.19, -220385.92, 28505.639, -0.11998359, 0.068181776, 252557.3, 252557.3, 0.00027761882, 10.003162, 9.996925 
1.9953638e+3, 3.1417078e+2, 335158.84, -57420.098, 43862.695, -0.056982324, 0.31087917, 339999.9, 339999.9, 0.0004902181, 10.003191, 9.997993 
2.0049651e+3, 1.2416574e+2, -1927989.6, -1535923.6, 76082.516, 0.100535356, 0.6309023, -1521677.1, 201526.98, 0.27641812, 9.996863, 10.003217 
2.0049869e+3, 1.341615e+2, -1716075.3, -1476982.0, -43956.902, 0.012014286, -0.061240643, -1469156.8, 156083.4, 0.1968332, 9.998341, 10.001953 
2.005009e+3, 1.4416866e+2, -1688675.8, -1628822.6, -68931.305, 0.10582306, 0.5622869, -1583601.9, -56434.29, 0.11636926, 9.9989, 9.999745 
2.0050314e+3, 1.5416592e+2, -1492946.5, -1439309.1, -53271.33, 0.12166515, 0.24144678, -1406486.6, 22708.695, 0.05238356, 9.999395, 10.00013 
2.0050523e+3, 1.6416495e+2, -1415217.4, -1340597.4, -82602.305, 0.033416595, 0.13026199, -1287269.8, 43934.38, 0.015589432, 9.999168, 10.000261 
2.0050727e+3, 1.7416626e+2, -1393224.3, -1251262.1, -124803.9, -0.012358983, 0.17669292, -1178666.3, 54521.91, 0.0021699998, 9.998557, 10.000473 
2.0050932e+3, 1.8416654e+2, -1377470.8, -1265832.4, -162644.23, 0.023746872, 0.1939808, -1149695.4, -14512.197, 0.00003871999, 9.998324, 9.999814 
2.0051128e+3, 1.941655e+2, -1116167.9, -1064859.8, -154543.44, 0.043344524, 0.057028558, -933855.56, 103336.086, 0.0, 9.999371, 9.999999 
2.005133e+3, 2.041648e+2, -993689.5, -1128726.8, -19204.896, 0.015951982, 0.06539258, -991011.3, -51811.465, 0.0, 10.000255, 9.998485 
2.0051545e+3, 2.1416436e+2, -753314.06, -948879.5, -16821.129, -0.069600016, 0.12952097, -751877.8, 89331.85, 0.0, 10.001195, 9.998577 
2.005176e+3, 2.2416416e+2, -628162.7, -844170.06, -72812.3, -0.06897578, 0.2588608, -605911.1, 137304.64, 0.0, 10.0013895, 9.99854 
2.005197e+3, 2.3416425e+2, -610396.9, -758213.4, -99911.766, 0.0044542113, 0.3604513, -560028.06, 85188.516, 0.0, 10.000762, 9.99874 
2.005218e+3, 2.4416326e+2, -548481.7, -702726.3, -45484.543, 0.05403796, 0.40310714, -536068.0, 11158.064, 0.0, 10.000551, 9.998581 
2.0052391e+3, 2.541606e+2, -395944.84, -546785.94, -58247.668, 0.044794768, 0.21961443, -376070.84, 73178.18, 0.0, 10.000833, 9.9988165 
2.00526e+3, 2.6415864e+2, -252314.95, -474318.38, -65383.242, 0.012703113, 0.16450955, -234489.84, 116775.56, 0.000000029896977, 10.001322, 9.998426 
2.0052803e+3, 2.7415738e+2, -12166.583, -282040.4, -120306.164, -0.0601192, 0.13588136, 33676.88, 286951.47, 0.0000031274246, 10.00221, 9.998629 
2.0053019e+3, 2.8415582e+2, 39659.25, -414209.16, -70310.836, -0.026084106, 0.21164207, 50301.87, 205590.45, 0.000025154262, 10.002766, 9.996803 
2.0053248e+3, 2.941533e+2, 153368.25, -292058.94, -49110.332, 0.08832335, 0.22119994, 158718.63, 216033.77, 0.00009776422, 10.002839, 9.996903 
2.0053457e+3, 3.041484e+2, 333450.44, -84322.99, -3597.8296, -0.059003506, 0.010324285, 333481.4, 333481.4, 0.00024035286, 10.003287, 9.997824 
2.0053688e+3, 3.1414953e+2, 433979.66, -75430.29, -57543.152, 0.08058723, 0.2530447, 440398.84, 440398.84, 0.000433908, 10.004098, 9.997477 
2.0149612e+3, 1.2414169e+2, -1941014.9, -1575043.9, -43077.02, -0.06784269, 0.3441435, -1570041.8, 153389.69, 0.28771394, 9.996988, 10.002783 
2.0149854e+3, 1.3413617e+2, -1832326.3, -1706882.4, 7300.4688, -0.0037099286, -0.32893035, -1706458.9, -80974.195, 0.20582092, 9.998428, 10.000089 
2.0150077e+3, 1.441446e+2, -1659590.4, -1618501.9, -74978.45, 0.014623007, 0.5319434, -1561304.1, -33901.008, 0.12247417, 9.999107, 9.99972 
2.015031e+3, 1.5414311e+2, -1471408.8, -1399804.9, -28588.744, 0.108579464, 0.3122038, -1389790.9, 39628.87, 0.055639356, 9.999414, 10.000399 
2.0150517e+3, 1.641421e+2, -1429133.5, -1395620.3, -121883.945, 0.013737365, 0.20433117, -1289346.4, 42084.2, 0.016791714, 9.999282, 9.999832 
2.0150708e+3, 1.7414221e+2, -1428723.3, -1319881.0, -136234.47, -0.101710625, 0.18099709, -1227600.1, 5828.632, 0.0023981123, 9.998544, 10.000008 
2.0150909e+3, 1.8414292e+2, -1313678.5, -1156545.4, -152883.69, -0.10947714, 0.2301081, -1063222.0, 72198.39, 0.000045425786, 9.998409, 10.000529 
2.0151119e+3, 1.9414428e+2, -1074414.6, -960000.1, -106791.85, -0.011415649, 0.25665697, -896058.0, 141346.88, 0.0, 9.9992895, 10.00076 
2.0151334e+3, 2.0414428e+2, -1005952.0, -1110888.5, -1482.7772, -0.0059591956, 0.28373492, -1005931.0, -66527.16, 0.0, 10.000062, 9.998703 
2.0151557e+3, 2.1414214e+2, -783955.06, -949996.0, 32883.418, -0.08071417, 0.16369164, -777679.9, 63746.27, 0.0, 10.000925, 9.998701 
2.0151773e+3, 2.2414063e+2, -685598.2, -880881.0, -107766.01, -0.097759545, 0.15957294, -637818.25, 105624.13, 0.0, 10.001022, 9.99847 
2.0151977e+3, 2.3414004e+2, -642160.9, -781287.75, -107188.91, -0.010372363, 0.19869654, -583941.1, 61508.297, 0.0, 10.000559, 9.998686 
2.0152186e+3, 2.441392e+2, -602142.9, -731884.4, -51229.637, 0.033133015, 0.25791258, -584353.56, -36895.832, 0.0, 10.00021, 9.998542 
2.0152403e+3, 2.5413778e+2, -437426.44, -569009.3, -32922.617, 0.047873117, 0.19943592, -429648.78, 19820.629, 0.0, 10.000568, 9.998789 
2.0152617e+3, 2.6413602e+2, -362980.16, -618064.56, -52740.332, 0.018308586, 0.20761989, -352505.84, -1019.5309, 0.0000000091701935, 10.000954, 9.997619 
2.0152833e+3, 2.7413392e+2, -118794.29, -424550.72, -64242.754, -0.016903551, 0.17466043, -105844.64, 147665.17, 0.0000023642951, 10.001881, 9.997804 
2.0153049e+3, 2.8413227e+2, 18732.848, -349783.13, -86855.48, -0.052100603, 0.252314, 38177.78, 193704.75, 0.000021595964, 10.002312, 9.99746 
2.0153262e+3, 2.9413056e+2, 158925.31, -206289.25, -21893.697, -0.0984919, 0.26128325, 160233.11, 217775.7, 0.000083873885, 10.002501, 9.9976635 
2.0153476e+3, 3.0412713e+2, 270872.34, -68168.516, -3052.951, -0.23195519, 0.13752192, 270899.8, 270899.8, 0.00020823602, 10.002696, 9.998198 
2.0153733e+3, 3.1412768e+2, 263565.4, -157514.94, 88177.6, 0.059780207, 0.2647853, 281284.88, 281284.88, 0.00038362973, 10.003018, 9.997388 
2.02496e+3, 1.2412037e+2, -1576023.0, -1432823.1, -76744.75, -0.01950914, 0.29710162, -1399464.5, 324170.72, 0.29983783, 9.999938, 10.002752 
2.024984e+3, 1.34114e+2, -1966447.6, -1961263.9, 46397.03, 0.047411617, -0.3251706, -1917386.4, -291686.44, 0.21537028, 9.998335, 9.998375 
2.025007e+3, 1.4412066e+2, -1679084.6, -1643655.6, 14384.405, 0.053671785, 0.4564548, -1638551.0, -110913.555, 0.12892798, 9.999042, 9.999577 
2.0250303e+3, 1.541196e+2, -1456067.1, -1389858.8, -7825.3535, 0.101916336, 0.27679127, -1388946.4, 40703.39, 0.05909158, 9.999527, 10.000405 
2.025051e+3, 1.6411875e+2, -1429172.8, -1379948.3, -91381.93, 0.02887937, 0.18247032, -1309922.1, 21736.807, 0.018083457, 9.99926, 9.999924 
2.0250699e+3, 1.7411923e+2, -1312444.8, -1247039.6, -92642.734, -0.078374594, 0.1850044, -1181496.9, 52156.977, 0.0026487417, 9.999326, 10.000104 
2.02509e+3, 1.8412012e+2, -1213840.9, -1157195.9, -65214.05, -0.06451174, 0.26577717, -1114419.6, 21225.17, 0.000052423693, 9.999294, 10.000095 
2.0251118e+3, 1.9412097e+2, -1074729.3, -1021338.6, -137144.33, 0.033683974, 0.2909232, -908315.6, 129320.336, 0.0, 9.999529, 10.000226 
2.0251338e+3, 2.0412078e+2, -1036402.9, -1089007.1, -45381.73, 0.056270033, 0.30946356, -1010252.1, -70615.17, 0.0, 9.999704, 9.999014 
2.0251565e+3, 2.1411894e+2, -879888.0, -955870.3, -29760.002, -0.052742403, 0.18375413, -869619.6, -27965.91, 0.0, 10.000093, 9.999052 
2.0251784e+3, 2.241174e+2, -746498.3, -903080.44, -140725.45, -0.06334322, 0.15350488, -663751.6, 79916.836, 0.0, 10.000569, 9.998529 
2.025199e+3, 2.3411636e+2, -525536.75, -720718.9, -162628.6, 0.03488041, 0.14364697, -433464.75, 212214.7, 0.0, 10.00134, 9.998717 
2.0252201e+3, 2.4411541e+2, -403824.22, -622733.1, -79123.32, 0.10408901, 0.18531929, -378220.25, 169467.92, 0.0, 10.00152, 9.998653 
2.0252414e+3, 2.5411427e+2, -366860.94, -527511.06, -82805.87, 0.096186414, 0.14932613, -331821.7, 117874.984, 0.0, 10.00102, 9.998859 
2.0252632e+3, 2.641128e+2, -372046.84, -638755.06, -17054.094, 0.07765608, 0.18840486, -370960.78, -19248.94, 0.000000001074916, 10.000973, 9.997462 
2.0252852e+3, 2.74111e+2, -183376.19, -474649.25, -24359.184, 0.019025944, 0.21148741, -181353.08, 72382.08, 0.0000018159459, 10.001545, 9.997608 
2.025307e+3, 2.8410944e+2, -23151.87, -364080.94, -27403.945, -0.022380177, 0.3056215, -20963.186, 134790.03, 0.000018189116, 10.0019655, 9.997538 
2.0253284e+3, 2.9410762e+2, 106315.81, -205321.45, -57465.05, -0.08733816, 0.29135013, 116574.51, 174344.55, 0.000072171526, 10.002034, 9.997883 
2.0253518e+3, 3.0410457e+2, 269166.88, -80887.72, -349.50778, -0.06279925, 0.18819897, 269167.22, 269167.22, 0.00017993047, 10.002663, 9.998165 
2.025376e+3, 3.1410474e+2, 383505.97, -14543.419, -68368.37, 0.049737494, 0.30981, 394921.44, 394921.44, 0.00033599298, 10.003389, 9.998226 
2.0349613e+3, 1.2409909e+2, -1541649.4, -1421116.0, -202535.97, -0.019416189, 0.20442489, -1270070.4, 453771.06, 0.3135409, 10.000273, 10.002791 
2.0349826e+3, 1.3409497e+2, -2035887.8, -2146859.5, 50819.887, 0.014217719, -0.04321278, -2016131.8, -390245.66, 0.22593072, 9.998503, 9.997028 
2.0350063e+3, 1.4409667e+2, -1656113.5, -1657822.8, 34083.902, -0.008047943, 0.32544178, -1622873.5, -95001.086, 0.13594478, 9.999301, 9.999354 
2.0350288e+3, 1.5409537e+2, -1458952.5, -1415220.9, 12108.694, -0.03868883, 0.13600826, -1412092.0, 17793.389, 0.06282382, 9.999614, 10.000174 
2.0350495e+3, 1.6409479e+2, -1374233.3, -1297644.6, -117937.8, -0.11501519, 0.05646576, -1211939.9, 119950.4, 0.019494196, 9.999395, 10.00043 
2.0350695e+3, 1.7409718e+2, -1258695.4, -1148589.9, -78731.36, -0.087914705, 0.18774183, -1107572.6, 126292.38, 0.0029308582, 9.999376, 10.000753 
2.03509e+3, 1.84098e+2, -1311894.5, -1374125.0, -73490.75, -0.034401212, 0.2938791, -1263203.5, -127346.06, 0.00006041413, 9.999352, 9.998581 
2.0351116e+3, 1.9409573e+2, -1208810.8, -1277767.4, -116979.39, 0.03888556, 0.17810029, -1121334.4, -83450.8, 0.0, 9.999438, 9.998509 
2.0351334e+3, 2.0409444e+2, -1039244.6, -1051062.0, -49657.39, 0.0051195878, 0.16430311, -995145.6, -55248.008, 0.0, 9.999521, 9.999362 
2.0351562e+3, 2.1409467e+2, -874962.4, -888089.6, -713.81586, -0.12175741, 0.18893689, -874923.7, -33030.63, 0.0, 9.99985, 9.999634 
2.0351784e+3, 2.2409435e+2, -790227.6, -898911.56, -125242.18, -0.15171942, 0.2403741, -708046.1, 35848.71, 0.0, 10.000176, 9.998739 
2.0352001e+3, 2.3409311e+2, -564376.75, -724633.06, -113469.836, -0.0025979606, 0.19259523, -505595.16, 140312.03, 0.0, 10.001021, 9.998837 
2.0352216e+3, 2.4409175e+2, -447536.88, -627115.06, -110153.984, 0.065349065, 0.18099372, -395213.4, 152705.47, 0.0, 10.001149, 9.998803 
2.0352422e+3, 2.5409016e+2, -384603.03, -516730.34, -87868.51, 0.04803594, 0.0777322, -340733.63, 109196.89, 0.0, 10.000811, 9.999038 
2.0352635e+3, 2.6408893e+2, -411563.38, -634500.5, -16772.418, -0.01419072, 0.123209246, -410308.6, -58366.08, 0.000000023664393, 10.000619, 9.997652 
2.0352858e+3, 2.740882e+2, -207703.45, -463955.3, 14947.057, -0.104442775, 0.22268039, -206834.55, 47121.188, 0.0000019634658, 10.001278, 9.997808 
2.035308e+3, 2.8408685e+2, -125966.195, -463302.8, -47224.1, -0.14499092, 0.34889874, -119479.96, 36492.906, 0.000016146072, 10.001498, 9.997072 
2.035331e+3, 2.9408443e+2, 24499.895, -287150.4, -27933.113, -0.079352885, 0.32142553, 26983.734, 84981.76, 0.00006227005, 10.00165, 9.997509 
2.0353566e+3, 3.0408052e+2, 113703.13, -231499.23, 5769.197, 0.10293328, 0.18751587, 113799.52, 113799.52, 0.00015437642, 10.001959, 9.997448 
2.0353778e+3, 3.1407884e+2, 378361.3, 199541.22, -7490.438, -0.17715262, 0.16944085, 378674.5, 378674.5, 0.00029131802, 10.002487, 10.0001 
2.0449628e+3, 1.2407635e+2, -1623595.3, -1547143.5, -134104.47, 0.13432755, 0.111295745, -1445923.3, 278141.66, 0.3294151, 10.000022, 10.001723 
2.0449816e+3, 1.340737e+2, -1820022.6, -2085106.4, -28077.125, 0.0007460208, 0.09063691, -1817081.4, -190985.44, 0.23787552, 10.000217, 9.996626 
2.0450066e+3, 1.4407341e+2, -1608056.9, -1619472.5, 55688.83, 0.107788675, 0.2761643, -1557784.1, -29682.557, 0.14372098, 9.999563, 9.999494 
2.045028e+3, 1.540727e+2, -1581007.4, -1458960.0, -3730.3855, -0.015267151, 0.1347292, -1458846.1, -28739.117, 0.06692591, 9.99871, 10.000304 
2.0450488e+3, 1.640723e+2, -1513889.6, -1394796.1, -80234.03, -0.078872606, 0.073866285, -1354426.4, -22316.807, 0.021061258, 9.998541, 10.00018 
2.0450696e+3, 1.7407411e+2, -1172831.8, -1144929.0, -134309.42, -0.02941489, 0.177589, -1023848.3, 210242.0, 0.003256253, 10.000113, 10.00044 
2.0450908e+3, 1.8407448e+2, -1119433.3, -1316602.4, -127204.766, 0.03968778, 0.27168956, -1057083.1, 79004.24, 0.00007088071, 10.000833, 9.998265 
2.0451118e+3, 1.9407193e+2, -1025145.1, -1220214.4, -101725.73, 0.06498659, 0.15939294, -981750.2, 56365.79, 0.0, 10.000848, 9.998221 
2.0451336e+3, 2.0407048e+2, -900246.0, -1004207.3, 30998.836, 0.042102452, 0.15447615, -891704.6, 48427.03, 0.0, 10.000543, 9.999202 
2.0451567e+3, 2.1407077e+2, -842049.4, -878799.56, -1164.0065, -0.052806865, 0.19705966, -842012.56, 114.29206, 0.0, 10.000113, 9.999567 
2.0451792e+3, 2.2407056e+2, -818675.8, -896610.1, -107827.69, -0.06080363, 0.25336435, -742990.2, 1137.3457, 0.0, 9.999898, 9.998903 
2.045201e+3, 2.3406918e+2, -686649.8, -761764.1, -122221.94, 0.03786467, 0.17663187, -596344.75, 49795.598, 0.0, 10.000082, 9.999042 
2.0452224e+3, 2.440678e+2, -543589.5, -699189.8, -100752.28, 0.08290127, 0.16191754, -494095.2, 54057.258, 0.0, 10.000591, 9.998585 
2.0452431e+3, 2.5406644e+2, -287652.0, -496797.5, -144040.81, 0.020925144, 0.11156131, -214226.94, 235936.56, 0.0, 10.00159, 9.998796 
2.0452648e+3, 2.6406512e+2, -212135.14, -537256.25, -70376.59, -0.01174909, 0.1592567, -197555.08, 154621.83, 0.00000011200642, 10.001948, 9.997686 
2.045288e+3, 2.7406383e+2, -173064.97, -446429.3, -90531.36, -0.0102463905, 0.20189787, -145802.19, 108392.37, 0.000002326167, 10.0014925, 9.997828 
2.0453106e+3, 2.8406224e+2, -97801.06, -406943.4, -87774.625, -0.0337811, 0.28408727, -74617.82, 81595.016, 0.000014696717, 10.001486, 9.99747 
2.0453323e+3, 2.9406014e+2, 104780.59, -196710.4, -60070.1, -0.09902597, 0.25734445, 116308.39, 174541.39, 0.00005375532, 10.0019865, 9.997968 
2.0453592e+3, 3.0405757e+2, 183222.23, -220565.42, 84214.3, 0.16670823, 0.23744293, 200082.06, 200082.06, 0.00013254509, 10.00252, 9.997246 
2.0453817e+3, 3.1405464e+2, 436980.0, 184723.14, -124026.2, -0.050356306, 0.14396386, 487743.84, 487743.84, 0.00025431596, 10.003004, 9.999763 
2.0549627e+3, 1.24054015e+2, -1714838.6, -1784513.0, 147289.2, 0.017589064, 0.25272313, -1598322.8, 125964.67, 0.3476065, 10.000394, 9.999503 
2.0549802e+3, 1.3405031e+2, -1741208.1, -1947357.9, -22754.473, -0.19413097, 0.11110186, -1738726.4, -112397.91, 0.2513395, 10.000319, 9.997524 
2.0550074e+3, 1.4405067e+2, -1540079.9, -1528635.5, 5370.5586, 0.15466696, 0.28110963, -1526510.0, 1816.692, 0.15236652, 9.999779, 10.000013 
2.0550273e+3, 1.540517e+2, -1535601.3, -1387506.9, -24425.459, 0.004746647, 0.27143785, -1383582.4, 46731.875, 0.071473114, 9.998791, 10.000781 
2.055048e+3, 1.6405131e+2, -1564529.6, -1547262.4, -53269.637, -0.06421817, 0.23829266, -1501931.3, -169614.44, 0.022826005, 9.998732, 9.999049 
2.0550701e+3, 1.7405008e+2, -1258979.3, -1329928.6, -66633.47, -0.045037173, 0.16285497, -1218965.8, 15363.6045, 0.0036400491, 10.000133, 9.999161 
2.0550913e+3, 1.8404941e+2, -1056473.1, -1205122.1, -140581.03, -0.04355649, 0.19468915, -971778.25, 164557.34, 0.00008593674, 10.000902, 9.999004 
2.0551121e+3, 1.9404922e+2, -959180.06, -1072439.4, -92450.445, -0.033221032, 0.21597551, -907393.8, 130942.76, 0.0, 10.000788, 9.999271 
2.0551337e+3, 2.0404854e+2, -974091.5, -1111103.8, -1060.8099, -0.027757632, 0.25783345, -974083.3, -33740.516, 0.0, 10.000344, 9.998563 
2.0551574e+3, 2.1404712e+2, -933594.4, -1014567.9, -3137.8865, -0.0025780865, 0.20555943, -933472.94, -91116.05, 0.0, 9.999876, 9.998749 
2.0551799e+3, 2.2404581e+2, -866831.75, -909381.9, -119948.36, 0.0029805643, 0.19269785, -766286.3, -21917.174, 0.0, 9.99953, 9.99899 
2.0552012e+3, 2.340445e+2, -707597.4, -746219.56, -100493.69, 0.01003201, 0.10303551, -624576.1, 21803.834, 0.0, 9.999832, 9.999269 
2.0552221e+3, 2.4404348e+2, -641258.0, -813004.75, -82694.23, -0.031481337, 0.13668667, -607914.9, -59524.99, 0.0, 10.000218, 9.997978 
2.0552434e+3, 2.540428e+2, -385915.53, -621227.2, -87409.125, -0.120026946, 0.22152692, -356999.7, 93399.25, 0.0, 10.001261, 9.998096 
2.055266e+3, 2.6404116e+2, -293174.2, -596649.0, -98225.22, -0.101262845, 0.28101256, -264156.4, 88260.85, 0.00000017468948, 10.001491, 9.997493 
2.0552911e+3, 2.740379e+2, -227799.58, -496694.1, -85630.9, 0.121127054, 0.14535096, -202845.72, 51605.746, 0.0000023499456, 10.001213, 9.997622 
2.0553134e+3, 2.8403556e+2, -112492.21, -315953.6, -85372.29, 0.060873035, 0.12559634, -81416.43, 75056.98, 0.000012296112, 10.00099, 9.998322 
2.0553322e+3, 2.9403454e+2, 118626.88, -80246.14, -15389.52, -0.3290825, 0.09029886, 119810.734, 178288.11, 0.000044415407, 10.001617, 9.998938 
2.0553592e+3, 3.040345e+2, 78782.914, -271359.0, 71143.05, -0.12057934, 0.27012298, 92685.95, 92685.95, 0.00011238728, 10.001849, 9.997198 
2.0553863e+3, 3.140314e+2, 88098.2, -290330.97, -159349.17, 0.027849533, 0.16487549, 146258.48, 146258.48, 0.00022372513, 10.001983, 9.996969 
2.0649643e+3, 1.2402844e+2, -1797119.3, -1863294.4, 213613.88, 0.1988295, 0.30879387, -1614045.6, 110497.76, 0.36771804, 9.99995, 9.999151 
2.0649803e+3, 1.3402542e+2, -1665177.1, -1710685.5, -129591.63, -0.20393746, 0.052949205, -1556357.3, 70218.0, 0.26616043, 10.000041, 9.999335 
2.065006e+3, 1.4402853e+2, -1798932.4, -1677393.9, -41044.797, 0.14810461, 0.4024035, -1664831.1, -136285.6, 0.1618756, 9.998081, 9.999818 
2.0650274e+3, 1.540287e+2, -1440692.0, -1364725.4, -122672.76, 0.08149162, 0.3265772, -1274290.1, 156252.22, 0.07651462, 9.999543, 10.000613 
2.0650485e+3, 1.6402799e+2, -1343269.0, -1455730.5, -95163.8, 0.048422102, 0.27439788, -1288964.5, 43583.598, 0.024829434, 10.000356, 9.998873 
2.0650703e+3, 1.7402619e+2, -1279954.8, -1364006.5, -67539.01, -0.019467467, 0.16769618, -1242433.9, -7869.0063, 0.0041003036, 10.00012, 9.998911 
2.0650917e+3, 1.8402511e+2, -1177937.4, -1256679.3, -96359.28, -0.0351187, 0.17016481, -1113216.1, 23357.947, 0.000108260756, 10.000057, 9.999037 
2.065113e+3, 1.9402514e+2, -915172.7, -1035109.56, -147930.89, -0.0063996976, 0.20211485, -815517.3, 223054.5, 0.0, 10.001033, 9.999395 
2.0651352e+3, 2.0402452e+2, -841415.1, -1061836.6, -80977.92, 0.03944924, 0.24862222, -814863.94, 125713.0, 0.0, 10.001311, 9.998435 
2.0651585e+3, 2.1402285e+2, -804440.8, -974166.25, -72655.34, 0.06731554, 0.19132848, -777587.44, 65006.42, 0.0, 10.000858, 9.998559 
2.0651807e+3, 2.2402138e+2, -708816.3, -861594.1, -113353.82, 0.072688475, 0.1873847, -648514.5, 96093.945, 0.0, 10.000725, 9.99875 
2.0652017e+3, 2.340201e+2, -539428.44, -693848.3, -157551.34, 0.027483566, 0.1243884, -441185.22, 205435.48, 0.0, 10.001105, 9.999016 
2.0652232e+3, 2.4401921e+2, -508474.25, -739414.1, -111642.51, -0.0033341672, 0.18162604, -463328.66, 85301.85, 0.0, 10.00109, 9.998062 
2.0652449e+3, 2.5401863e+2, -478012.3, -649049.2, -98403.13, -0.048402708, 0.26586968, -433159.8, 17479.107, 0.0, 10.000561, 9.998236 
2.0652679e+3, 2.64017e+2, -419254.72, -627788.0, -29943.145, -0.014289631, 0.305783, -415040.38, -62383.92, 0.00000012472299, 10.00048, 9.997781 
2.0652923e+3, 2.740139e+2, -213692.5, -445595.4, -19690.49, 0.12239275, 0.15996017, -212032.48, 42654.316, 0.0000018192295, 10.001128, 9.998013 
2.065315e+3, 2.8401187e+2, -15499.482, -269727.13, 20235.162, 0.09154398, 0.1437374, -13898.948, 142805.58, 0.000008845643, 10.001635, 9.998348 
2.0653352e+3, 2.9401073e+2, 131722.36, -87339.76, -39751.285, -0.19936055, 0.11132369, 138712.63, 197422.05, 0.000033872344, 10.0017605, 9.998828 
2.0653611e+3, 3.040097e+2, 150047.36, -161732.36, 67881.54, -0.09782899, 0.16343586, 164185.6, 164185.6, 0.00009226976, 10.001931, 9.997957 
2.0653892e+3, 3.1400812e+2, 78037.38, -277633.75, -266700.2, 0.17160209, 0.13597502, 220755.22, 220755.22, 0.0001939828, 10.001778, 9.99719 
2.0749654e+3, 1.2400195e+2, -1676513.0, -1694493.9, 27544.26, 0.16168025, 0.4408569, -1656529.1, 68280.79, 0.38886976, 10.000274, 10.000101 
2.0749804e+3, 1.3399865e+2, -1515483.5, -1433823.8, -163950.23, -0.2328567, -0.14241691, -1305695.8, 321144.66, 0.28190908, 10.0001745, 10.001645 
2.0750022e+3, 1.440071e+2, -1828321.5, -1783771.6, -58139.297, -0.123769045, 0.6731143, -1743786.1, -215029.42, 0.17213808, 9.998273, 9.998999 
2.0750271e+3, 1.540037e+2, -1473018.6, -1445804.8, -55476.285, 0.05592051, 0.31042567, -1402291.0, 28499.984, 0.08207624, 9.999607, 9.999975 
2.0750496e+3, 1.6400218e+2, -1266692.1, -1333626.4, -111129.89, 0.05485117, 0.1737056, -1184099.3, 148705.11, 0.027111659, 10.000521, 9.999642 
2.0750701e+3, 1.7400242e+2, -1220712.3, -1247718.8, -69081.086, -0.08967826, 0.19318515, -1163827.1, 70970.24, 0.0046569863, 10.000156, 9.999689 
2.0750916e+3, 1.8400164e+2, -1210896.9, -1351351.0, -84089.266, -0.121092364, 0.21273662, -1171566.4, -34764.05, 0.00014131474, 10.000167, 9.998335 
2.0751145e+3, 1.9399968e+2, -986091.44, -1167349.8, -102481.89, 0.0068243174, 0.12997183, -939913.5, 98908.33, 0.0000000002137382, 10.000962, 9.998524 
2.0751369e+3, 2.0399836e+2, -846736.9, -1031047.3, -113227.72, 0.050512638, 0.13831678, -792902.0, 147932.61, 0.0, 10.001122, 9.998739 
2.075159e+3, 2.139978e+2, -804520.56, -924844.6, -74019.625, 0.01379993, 0.14994764, -769297.2, 73542.09, 0.0, 10.000637, 9.999004 
2.0751807e+3, 2.2399704e+2, -810154.8, -979641.7, -112169.4, -0.027089758, 0.21683364, -754315.8, -9467.913, 0.0, 10.00034, 9.998117 
2.0752022e+3, 2.3399583e+2, -638499.8, -823013.06, -124659.83, -0.04855329, 0.2324332, -575671.44, 71192.055, 0.0, 10.000793, 9.998271 
2.075224e+3, 2.4399479e+2, -526876.4, -677806.7, -140981.34, -0.03381446, 0.2867231, -442433.03, 106442.695, 0.0, 10.000665, 9.998687 
2.0752469e+3, 2.5399375e+2, -460562.8, -554488.0, -100847.266, 0.068915516, 0.24778478, -396279.5, 54605.805, 0.0, 10.000314, 9.9990015 
2.0752692e+3, 2.6399255e+2, -432465.8, -555257.75, -30381.027, 0.039240018, 0.25782034, -425360.16, -72464.33, 0.000000021824269, 10.000067, 9.998472 
2.075291e+3, 2.7399135e+2, -206346.16, -355212.38, 21977.764, -0.14065513, 0.22410199, -203169.28, 51736.9, 0.00000084431264, 10.000822, 9.998776 
2.0753145e+3, 2.8399023e+2, -149991.22, -429216.6, 2031.5363, -0.15688089, 0.2977158, -149976.44, 6938.8237, 0.000005133315, 10.001142, 9.9974785 
2.0753402e+3, 2.9398823e+2, -12276.173, -301079.7, -8017.132, 0.06823746, 0.27982402, -12053.79, 46879.723, 0.000023723636, 10.001379, 9.997545 
2.0753637e+3, 3.039832e+2, 107094.43, -45266.813, 40216.36, -0.06109676, -0.04112904, 117058.12, 117058.12, 0.00007270888, 10.001116, 9.999116 
2.0753895e+3, 3.1398568e+2, 83286.31, 9696.891, -191204.5, -0.07015852, 0.15696368, 241204.25, 241204.25, 0.00016093491, 10.000698, 9.999633 
2.0849633e+3, 1.2397952e+2, -1869410.6, -1692477.3, 159238.47, 0.072313115, 0.53799015, -1598781.3, 126250.66, 0.40993002, 9.998301, 10.001367 
2.0849805e+3, 1.3397534e+2, -1616072.1, -1536912.3, -131726.66, -0.20052947, -0.09427718, -1438947.8, 188121.94, 0.29801235, 9.999662, 10.000998 
2.0850027e+3, 1.4398274e+2, -1503023.1, -1610500.8, -43205.438, 0.013235727, 0.64167774, -1487808.5, 41187.332, 0.18298064, 10.000545, 9.999083 
2.0850267e+3, 1.5397891e+2, -1496979.8, -1467463.6, -18789.8, 0.08228801, 0.24280669, -1458329.1, -27295.414, 0.088167645, 9.999492, 9.999874 
2.0850496e+3, 1.639778e+2, -1463750.3, -1420256.6, -31621.797, 0.08920315, 0.15028775, -1403625.5, -70582.41, 0.029713616, 9.999089, 9.999748 
2.0850708e+3, 1.7397879e+2, -1151136.5, -1196361.1, -68174.6, -0.024459735, 0.22494152, -1101922.0, 133107.39, 0.005333032, 10.0005245, 9.999891 
2.0850928e+3, 1.8397807e+2, -1106488.6, -1316466.5, -68590.09, -0.03753314, 0.24650514, -1086069.1, 50964.85, 0.00018960002, 10.000952, 9.998209 
2.0851158e+3, 1.9397542e+2, -1051249.0, -1221172.5, -65515.746, 0.037728287, 0.11606131, -1028922.3, 10137.871, 0.000000020895914, 10.000627, 9.998316 
2.085138e+3, 2.0397387e+2, -951632.4, -1063554.3, -43951.105, 0.07990109, 0.11211105, -936436.25, 4638.688, 0.0, 10.000376, 9.998852 
2.0851599e+3, 2.1397378e+2, -795334.94, -899802.6, -64915.945, 0.051933706, 0.15277374, -764247.4, 78827.93, 0.0, 10.000645, 9.99915 
2.0851819e+3, 2.2397318e+2, -760371.8, -969390.1, -62996.766, 0.0419104, 0.23566674, -742853.25, 2229.0112, 0.0, 10.000721, 9.998014 
2.0852034e+3, 2.3397182e+2, -676353.9, -855118.94, -62067.168, 0.021910068, 0.24815018, -656917.4, -9817.62, 0.0, 10.00057, 9.998166 
2.0852256e+3, 2.4397063e+2, -536388.44, -663511.94, -43144.664, 0.052746285, 0.2824366, -523128.56, 25984.727, 0.0, 10.000515, 9.998855 
2.0852478e+3, 2.539694e+2, -388822.66, -501813.88, -76756.016, 0.12894966, 0.21161352, -350012.25, 101111.34, 0.0, 10.000727, 9.999164 
2.0852703e+3, 2.6396847e+2, -273301.3, -460979.97, 10010.491, 0.09780948, 0.23057607, -272768.88, 80362.19, 0.0, 10.00108, 9.998634 
2.0852922e+3, 2.7396795e+2, -83352.28, -282217.7, -12546.18, -0.11068676, 0.25382465, -82563.88, 172570.58, 0.000000115745564, 10.001602, 9.998901 
2.0853165e+3, 2.8396675e+2, -67127.51, -381346.16, -23855.357, -0.07588001, 0.3053794, -65326.734, 91818.15, 0.0000020138657, 10.001646, 9.997571 
2.0853426e+3, 2.9396403e+2, -80587.06, -311013.63, -11081.27, 0.23333548, 0.21518484, -80055.39, -20885.002, 0.000014504671, 10.000825, 9.99774 
2.0853648e+3, 3.0396086e+2, 103331.59, 49263.19, 156521.5, -0.03487339, 0.01797459, 235136.39, 235136.39, 0.000053405533, 10.000606, 10.000043 
2.0853908e+3, 3.1396344e+2, 179424.58, 77672.9, -172739.42, 0.0061992966, 0.15931797, 308624.44, 308624.44, 0.000125829, 10.001127, 9.99995 
2.094961e+3, 1.2395793e+2, -1691573.1, -1476546.6, -19010.994, -0.13688198, 0.27342272, -1474878.8, 250361.84, 0.42994058, 9.998463, 10.00361 
2.0949802e+3, 1.3395579e+2, -1813138.4, -1984246.1, -75907.68, -0.24606457, 0.22967333, -1784318.1, -157057.58, 0.31401625, 9.999801, 9.997513 
2.0950072e+3, 1.4395526e+2, -1426219.4, -1483322.5, -77081.34, 0.31454575, 0.3027095, -1372571.6, 156693.08, 0.19429262, 10.000773, 9.99993 
2.0950256e+3, 1.5395424e+2, -1457371.5, -1407109.9, -51184.797, -0.01001178, 0.12800118, -1375219.3, 56052.445, 0.094824284, 9.999579, 10.000276 
2.0950478e+3, 1.6395478e+2, -1469586.0, -1479706.3, -13222.01, -0.060250536, 0.21027745, -1460489.0, -127223.984, 0.032688897, 9.999287, 9.9992485 
2.0950723e+3, 1.739553e+2, -1169670.8, -1243323.1, -6194.6963, 0.032951847, 0.27857342, -1169153.3, 66107.23, 0.0061590113, 10.000557, 9.999554 
2.0950948e+3, 1.839545e+2, -1063370.8, -1250135.5, -94771.016, 0.012509755, 0.28843948, -1023704.94, 113562.99, 0.00026052183, 10.001048, 9.998619 
2.0951155e+3, 1.9395241e+2, -1031275.44, -1165849.1, -68640.336, -0.060206342, 0.17030925, -1002442.5, 36843.863, 0.00000016154512, 10.000566, 9.998725 
2.0951374e+3, 2.0395106e+2, -996049.4, -1113067.6, -52160.35, -0.0617957, 0.17240019, -976174.7, -34876.39, 0.0, 10.000191, 9.998602 
2.0951606e+3, 2.139506e+2, -855608.75, -963956.9, -42708.855, 0.04232685, 0.20909032, -840798.2, 2505.2625, 0.0, 10.00039, 9.998829 
2.0951833e+3, 2.2394967e+2, -785666.2, -937431.8, -81727.836, 0.086146206, 0.255014, -750024.9, -4711.4663, 0.0, 10.000356, 9.998409 
2.0952049e+3, 2.3394796e+2, -681755.8, -803665.2, -52057.457, 0.07618186, 0.18564259, -662551.56, -15220.523, 0.0, 10.000301, 9.99865 
2.0952263e+3, 2.439466e+2, -616740.4, -737629.0, -52694.332, 0.043843996, 0.1885003, -596996.1, -47651.21, 0.0, 10.000117, 9.998537 
2.0952475e+3, 2.5394547e+2, -448412.7, -575248.3, -52250.28, -0.00021945398, 0.1636584, -429660.5, 21694.877, 0.0, 10.000504, 9.998769 
2.0952703e+3, 2.6394454e+2, -358058.03, -543995.06, 10433.536, -0.03810117, 0.21929832, -357474.4, -4110.4585, 0.0, 10.000696, 9.998243 
2.0952953e+3, 2.7394363e+2, -166128.31, -375597.2, 26417.82, 0.017978908, 0.24454236, -162847.92, 92524.72, 0.0, 10.001274, 9.998413 
2.0953204e+3, 2.8394145e+2, -97949.945, -306694.03, -70870.984, 0.095135905, 0.19457571, -76162.49, 81229.8, 0.00000039293647, 10.001064, 9.998362 
2.0953427e+3, 2.939382e+2, -45934.4, -150999.13, -14519.071, 0.12648326, -0.05602324, -43964.906, 15455.23, 0.000007667558, 10.000446, 9.9990225 
2.0953628e+3, 3.0394074e+2, 9906.47, 61372.66, 141341.84, -0.33098218, 0.21417664, 179304.83, 179304.83, 0.000037309022, 9.999784, 10.000494 
2.0953932e+3, 3.1394064e+2, -55837.242, -127440.445, 73388.85, 0.077935725, 0.07134889, -9982.988, -9982.988, 0.0000961441, 10.000007, 9.999041 
2.1049617e+3, 1.2393533e+2, -1647489.0, -1343774.4, -112385.46, 0.13887626, 0.38171002, -1306710.8, 418750.56, 0.44859928, 9.998092, 10.005534 
2.1049805e+3, 1.339329e+2, -1993146.9, -2125130.3, -90550.766, -0.13248809, 0.30660784, -1947092.4, -319608.38, 0.3298663, 9.998782, 9.997048 
2.1050088e+3, 1.4393021e+2, -1543138.1, -1565140.9, -67820.984, 0.4823812, 0.20383729, -1485432.0, 44077.516, 0.20615475, 9.999953, 9.999705 
2.1050256e+3, 1.5393054e+2, -1401900.5, -1376431.4, -127227.836, 0.020513004, 0.16224244, -1261302.4, 170201.05, 0.10215144, 10.000009, 10.000304 
2.1050468e+3, 1.6393113e+2, -1442079.9, -1461619.0, -10893.33, -0.08228041, 0.24662471, -1437216.9, -103720.52, 0.036114734, 9.999476, 9.999258 
2.1050727e+3, 1.7393126e+2, -1319796.9, -1308550.1, 4802.482, 0.07769591, 0.26667872, -1306778.5, -71282.336, 0.007176738, 9.999496, 9.999601 
2.1050961e+3, 1.8393071e+2, -1231840.4, -1302874.8, -61400.68, 0.11783585, 0.2846752, -1196424.4, -58923.2, 0.0003661867, 9.99977, 9.998871 
2.1051167e+3, 1.9392909e+2, -967515.56, -1103520.4, -80232.74, 0.0015148565, 0.1904489, -930343.75, 109170.766, 0.00000091193453, 10.000873, 9.999 
2.1051385e+3, 2.0392784e+2, -843256.6, -1068677.4, -51540.758, -0.015171694, 0.19405064, -832031.2, 109494.74, 0.0, 10.001308, 9.998397 
2.1051614e+3, 2.1392682e+2, -785370.7, -972200.8, -66211.805, 0.06248948, 0.20496744, -764285.2, 79252.29, 0.0, 10.000982, 9.998528 
2.105184e+3, 2.2392581e+2, -702504.75, -848361.3, -68028.03, 0.11653131, 0.24318172, -675701.7, 69846.23, 0.0, 10.000739, 9.998822 
2.1052055e+3, 2.3392466e+2, -539560.44, -679966.44, -75968.73, 0.09720512, 0.1822934, -506324.03, 141234.28, 0.0, 10.00106, 9.99912 
2.1052276e+3, 2.4392338e+2, -437784.34, -686496.3, -43130.12, 0.09729345, 0.18710089, -430517.3, 119052.91, 0.0, 10.001469, 9.998254 
2.1052495e+3, 2.5392193e+2, -278609.9, -536670.3, -71940.23, 0.06904472, 0.17084368, -259909.98, 191675.19, 0.0, 10.00185, 9.998394 
2.1052724e+3, 2.6392072e+2, -211255.75, -494296.47, 13330.665, 0.060891766, 0.22446401, -210629.28, 142968.53, 0.0, 10.00177, 9.998078 
2.1052971e+3, 2.739193e+2, -215674.89, -422058.72, 9699.885, 0.08384775, 0.22368328, -215220.02, 40391.86, 0.0, 10.001011, 9.998233 
2.1053216e+3, 2.8391728e+2, -109415.555, -253958.8, -42674.563, 0.16284777, 0.17668834, -97756.81, 59873.67, 0.00000006547354, 10.000776, 9.998834 
2.1053442e+3, 2.939148e+2, 110608.68, -26466.47, -86323.65, 0.19713643, -0.03617036, 152294.38, 211945.14, 0.000004738257, 10.001355, 9.999418 
2.105365e+3, 3.0391783e+2, 178321.7, 42069.0, 25603.625, -0.1334237, 0.3031779, 182974.1, 182974.1, 0.00002905632, 10.001344, 9.999614 
2.1053936e+3, 3.1391543e+2, 34198.66, 1416.4423, -180048.16, 0.10347309, 0.029000185, 198600.27, 198600.27, 0.00007991688, 10.00023, 9.999816 
2.1149604e+3, 1.2390657e+2, -1654628.8, -1402229.1, 39381.945, 0.06515912, 0.36063823, -1396227.1, 329517.38, 0.46656317, 9.998356, 10.004825 
2.1149802e+3, 1.3390607e+2, -1776923.1, -1700625.1, -33105.574, -0.09223204, 0.09611813, -1688263.5, -60517.254, 0.34608045, 9.998888, 9.999902 
2.1150078e+3, 1.4390756e+2, -1581585.9, -1727629.0, -56244.438, 0.28934628, 0.33968246, -1562436.0, -32705.396, 0.21890919, 10.000259, 9.998413 
2.1150261e+3, 1.5390791e+2, -1400557.8, -1409874.1, -125946.1, 0.019114494, 0.35232744, -1279183.8, 152544.44, 0.110347085, 10.000176, 9.999982 
2.115046e+3, 1.6390672e+2, -1373225.8, -1366693.9, -38605.23, -0.18204422, 0.24250585, -1331216.6, 2522.3184, 0.040102176, 9.999675, 9.999818 
2.1150716e+3, 1.7390658e+2, -1285752.9, -1250582.0, 15460.17, -0.03238742, 0.19351865, -1244752.4, -9015.533, 0.008443992, 9.999539, 9.999983 
2.1150962e+3, 1.8390654e+2, -1218945.6, -1288856.4, -45312.24, 0.07901348, 0.23766619, -1196672.6, -58937.73, 0.00052604213, 9.999823, 9.9989395 
2.1151187e+3, 1.9390538e+2, -978628.7, -1099808.5, -31053.71, 0.07586343, 0.18304235, -971134.3, 68611.41, 0.0000034897541, 10.000763, 9.999072 
2.1151406e+3, 2.0390403e+2, -892765.56, -1112188.6, -77080.98, 0.022481356, 0.18000033, -868394.7, 73364.77, 0.0, 10.001057, 9.998218 
2.1151616e+3, 2.1390252e+2, -842229.4, -1020526.4, -67498.164, -0.032415595, 0.16011345, -819559.06, 24217.45, 0.0, 10.000708, 9.99832 
2.1151833e+3, 2.239017e+2, -741241.3, -839915.9, -74033.38, -0.06813678, 0.2166195, -701611.7, 44173.207, 0.0, 10.000352, 9.999068 
2.1152055e+3, 2.3390162e+2, -554820.4, -654702.75, -48009.5, -0.048115358, 0.23472771, -535486.5, 112296.99, 0.0, 10.000809, 9.999414 
2.1152283e+3, 2.4390076e+2, -521820.1, -762949.2, -43875.19, 0.006181494, 0.2729574, -514084.8, 35706.914, 0.0, 10.001052, 9.997922 
2.1152525e+3, 2.5389856e+2, -345916.84, -614988.2, -42357.113, 0.17191221, 0.21572764, -339406.5, 112409.07, 0.0, 10.001591, 9.997973 
2.1152756e+3, 2.6389667e+2, -286045.75, -537740.2, -23301.115, 0.17260754, 0.23163624, -283906.78, 69928.76, 0.0, 10.001304, 9.997995 
2.1152969e+3, 2.7389494e+2, -246296.4, -424120.56, 5730.6187, -0.06486802, 0.18911617, -246111.92, 9740.548, 0.0, 10.000747, 9.998341 
2.1153201e+3, 2.8389362e+2, -192528.44, -315791.3, -42977.113, -0.12181697, 0.21199672, -179023.56, -21158.652, 0.00000005479561, 10.0003, 9.998639 
2.1153462e+3, 2.938931e+2, 19897.342, -137237.88, -29363.555, 0.2142781, 0.20573112, 25205.162, 85074.5, 0.0000044706885, 10.001002, 9.998834 
2.1153702e+3, 3.0389187e+2, -135844.47, -365770.38, -38537.355, 0.1833686, 0.28667998, -129557.23, -129557.23, 0.000027145721, 10.000365, 9.997248 
2.115391e+3, 3.138881e+2, -41175.633, 112513.305, -93143.24, -0.23884763, 0.057000704, 156419.55, 156419.55, 0.00007500438, 9.999159, 10.001062 
2.1249597e+3, 1.2388149e+2, -1940344.1, -1995193.9, 303846.03, 0.099347994, 0.27000847, -1662687.9, 63294.47, 0.48543465, 9.999067, 9.998684 
2.12498e+3, 1.3387999e+2, -1535105.1, -1529852.5, -42112.965, -0.06529525, -0.054307804, -1490284.0, 137716.2, 0.3637423, 10.000594, 10.000608 
2.1250074e+3, 1.4388451e+2, -1802932.9, -1854417.0, -46509.117, 0.30853915, 0.4686367, -1775517.1, -245558.84, 0.23315269, 9.998814, 9.998241 
2.125027e+3, 1.5388374e+2, -1370792.1, -1411301.6, -114111.81, 0.09482809, 0.38615674, -1275151.4, 156815.5, 0.1197026, 10.000429, 9.999874 
2.1250468e+3, 1.6388182e+2, -1188524.8, -1271157.1, -54168.85, -0.098596185, 0.20174573, -1161713.9, 172270.75, 0.044803485, 10.000938, 9.999906 
2.125071e+3, 1.7388187e+2, -1211490.3, -1214233.6, -63034.734, -0.040300015, 0.17153786, -1149812.3, 86167.27, 0.01004214, 10.000041, 10.000004 
2.1250954e+3, 1.8388216e+2, -1245136.5, -1276937.9, -58006.313, 0.07400685, 0.24003723, -1200891.0, -62917.164, 0.0007722133, 9.999531, 9.999162 
2.1251196e+3, 1.9388133e+2, -1015668.9, -1097246.4, -54034.668, 0.13040844, 0.19504042, -988756.3, 51225.402, 0.000010944595, 10.000393, 9.999285 
2.1251424e+3, 2.0388024e+2, -916476.8, -1101782.6, -93720.484, 0.12366542, 0.20033304, -877341.7, 64651.44, 0.0, 10.000825, 9.998385 
2.1251628e+3, 2.1387887e+2, -795763.94, -973508.9, -97620.13, 0.0006829989, 0.1789409, -752621.25, 91387.26, 0.0, 10.000957, 9.998494 
2.1251841e+3, 2.2387797e+2, -657077.3, -815364.06, -59492.496, -0.04235232, 0.21927135, -637210.44, 108807.55, 0.0, 10.000985, 9.998936 
2.1252063e+3, 2.3387748e+2, -557636.25, -674264.2, -92609.46, -0.03435269, 0.21654437, -506510.6, 141509.84, 0.0, 10.000865, 9.999255 
2.1252292e+3, 2.4387668e+2, -542235.8, -739520.75, -57858.508, 0.027587015, 0.25654155, -526519.44, 23508.637, 0.0, 10.000795, 9.998198 
2.1252534e+3, 2.5387508e+2, -427792.03, -622817.6, -45565.836, 0.15395953, 0.23897325, -417671.22, 34374.87, 0.0, 10.00091, 9.998249 
2.1252769e+3, 2.6387352e+2, -319371.25, -533464.6, 14348.553, 0.19926901, 0.26481363, -318413.9, 35649.203, 0.0, 10.001005, 9.9981575 
2.1252985e+3, 2.738716e+2, -211598.05, -392128.06, -781.3179, 0.0317815, 0.19861935, -211594.67, 44487.406, 0.0, 10.000953, 9.998446 
2.1253213e+3, 2.838706e+2, -115819.99, -306904.88, 3094.5972, -0.027858257, 0.25410047, -115769.89, 42322.25, 0.000000117451826, 10.0009, 9.998443 
2.1253462e+3, 2.9387054e+2, -27360.35, -188655.95, -32111.738, 0.14897339, 0.33178878, -21202.44, 38890.418, 0.0000050467984, 10.000777, 9.998604 
2.1253715e+3, 3.0386734e+2, -39977.52, -413600.25, 72899.25, 0.2822312, 0.25935376, -26257.623, -26257.623, 0.00002697455, 10.001316, 9.996532 
2.1253933e+3, 3.1386557e+2, 324755.28, 255030.92, -44857.582, -0.04050042, 0.33258379, 346704.84, 346704.84, 0.00007158717, 10.00168, 10.000916 
2.13498e+3, 1.3385598e+2, -1631841.1, -1732725.5, -161800.72, -0.16030774, 0.028318837, -1512802.1, 115431.086, 0.38411817, 10.000693, 9.998928 
2.1350068e+3, 1.4386052e+2, -1723695.3, -1740013.3, -62245.355, 0.28509322, 0.5626411, -1669076.4, -138878.36, 0.24951555, 9.999017, 9.998925 
2.1350278e+3, 1.5385786e+2, -1339338.4, -1374959.6, -45300.164, 0.088011414, 0.26284653, -1308473.4, 123748.16, 0.13052814, 10.000558, 10.000055 
2.1350491e+3, 1.6385643e+2, -1180281.9, -1303240.9, -93512.086, -0.044173855, 0.12884039, -1129849.6, 204383.42, 0.050404422, 10.001163, 9.999574 
2.135071e+3, 1.738571e+2, -1231492.3, -1264727.6, -89445.9, -0.08995292, 0.19704142, -1157133.5, 79090.914, 0.012084308, 10.000082, 9.999636 
2.135094e+3, 1.8385744e+2, -1211499.9, -1230572.1, -49104.055, -0.095981084, 0.2784249, -1171014.5, -32795.64, 0.001155736, 9.999628, 9.999433 
2.1351194e+3, 1.9385692e+2, -1003407.2, -1056679.6, -8714.668, 0.022944191, 0.23104173, -1002017.8, 38204.742, 0.000030850606, 10.000323, 9.9995985 
2.1351431e+3, 2.0385635e+2, -921938.7, -1054397.0, -101214.04, 0.071236774, 0.25178295, -867210.9, 75016.94, 0.0, 10.000577, 9.998829 
2.1351643e+3, 2.1385564e+2, -802210.25, -921747.8, -79231.17, 0.031103207, 0.24920332, -762732.44, 81503.95, 0.0, 10.000681, 9.9989805 
2.1351857e+3, 2.2385451e+2, -752824.25, -909614.4, -74302.055, -0.008492459, 0.25889975, -723207.4, 23040.576, 0.0, 10.000553, 9.998489 
2.1352078e+3, 2.3385236e+2, -639658.4, -784949.8, -81487.29, -0.012397285, 0.14475818, -603136.44, 45131.42, 0.0, 10.000615, 9.998614 
2.1352297e+3, 2.4385116e+2, -556336.75, -680766.06, -68592.484, -0.05743026, 0.15716706, -525946.94, 24332.348, 0.0, 10.000422, 9.998777 
2.1352519e+3, 2.5385132e+2, -404939.25, -523763.94, -23785.322, -0.1089252, 0.23505904, -400354.97, 51923.742, 0.0, 10.000685, 9.999034 
2.1352756e+3, 2.6385075e+2, -373885.88, -546471.75, -1824.1532, -0.048983227, 0.30960414, -373866.63, -19581.188, 0.0, 10.000593, 9.99826 
2.1353015e+3, 2.738487e+2, -254914.95, -422259.5, 15414.472, 0.19679177, 0.23008609, -253506.95, 2799.3337, 0.00000000014169585, 10.000695, 9.998365 
2.1353245e+3, 2.838474e+2, -227132.53, -401473.2, -22376.059, 0.15180185, 0.27577358, -224306.45, -65986.35, 0.000000256191, 10.000351, 9.998035 
2.1353443e+3, 2.9384682e+2, -89244.67, -238961.31, -91.196915, -0.16278857, 0.32534063, -89244.62, -28919.416, 0.0000052967753, 10.000441, 9.998413 
2.1353689e+3, 3.038429e+2, -136076.77, -376647.94, 78086.086, -0.17079173, 0.15416719, -112953.64, -112953.64, 0.000025200057, 10.000389, 9.997192 
2.1353967e+3, 3.1384328e+2, 13351.721, -25682.625, 5406.972, 0.054901235, 0.37870914, 14086.842, 14086.842, 0.00006359548, 10.000234, 9.999624 
2.1449812e+3, 1.3383396e+2, -1863689.9, -1862584.3, -7018.3096, 0.0055448073, 0.18596078, -1856097.0, -227647.53, 0.40760165, 9.998845, 9.998724 
2.145006e+3, 1.4383599e+2, -1546163.9, -1611653.8, 49990.727, 0.27739486, 0.46003303, -1519148.5, 11289.64, 0.26811564, 10.000085, 9.999292 
2.1450281e+3, 1.5383418e+2, -1447518.3, -1400804.4, 56930.035, 0.11612271, 0.21114685, -1362626.1, 69825.55, 0.14296411, 9.999639, 10.000308 
2.1450505e+3, 1.6383354e+2, -1445721.0, -1475913.0, 22899.758, 0.07912215, 0.16361673, -1433389.1, -98933.71, 0.057087187, 9.9995, 9.999165 
2.1450718e+3, 1.7383346e+2, -1181280.3, -1285556.1, -10480.908, -0.039723564, 0.19980727, -1180237.3, 56218.496, 0.014719365, 10.00066, 9.999198 
2.1450943e+3, 1.838332e+2, -1042795.75, -1147890.0, 40971.723, -0.071193196, 0.24150519, -1028710.44, 109746.76, 0.0017550356, 10.000783, 9.999442 
2.1451199e+3, 1.9383267e+2, -1040145.6, -1062489.9, 36553.23, 0.07367151, 0.18435265, -1013095.3, 27363.59, 0.00008036648, 10.0000305, 9.999689 
2.1451437e+3, 2.0383225e+2, -1058365.1, -1117203.1, -34894.07, 0.16206512, 0.21245472, -1042143.44, -99681.5, 0.000000018813253, 9.99962, 9.998867 
2.1451654e+3, 2.1383177e+2, -873575.7, -956997.0, -70087.42, 0.09617345, 0.23006718, -833726.4, 10742.461, 0.0, 10.000168, 9.999002 
2.1451868e+3, 2.2383071e+2, -742093.2, -896545.4, -46789.56, 0.05968199, 0.24420859, -729024.56, 17455.703, 0.0, 10.000601, 9.998559 
2.1452087e+3, 2.3382851e+2, -570854.0, -740116.25, -39788.195, 0.026833868, 0.12402125, -561967.6, 86533.28, 0.0, 10.0010605, 9.998706 
2.1452308e+3, 2.4382743e+2, -418227.6, -596040.8, 8402.922, -0.017434722, 0.1350019, -417831.4, 132679.83, 0.0, 10.001284, 9.99895 
2.1452527e+3, 2.538279e+2, -325015.75, -465051.34, -19393.68, -0.109545104, 0.2281081, -322379.53, 130127.445, 0.0, 10.001144, 9.999215 
2.1452767e+3, 2.6382735e+2, -298993.1, -517714.4, 4249.0425, -0.042724505, 0.2976834, -298910.56, 55602.43, 0.0, 10.001099, 9.998233 
2.1453024e+3, 2.7382517e+2, -186460.47, -392873.0, -18911.066, 0.21720526, 0.20675376, -184742.19, 71794.164, 0.00000000016893417, 10.001166, 9.998349 
2.145326e+3, 2.8382385e+2, -97312.586, -364182.44, -7772.9917, 0.24203202, 0.26345375, -97086.375, 61463.773, 0.0000002738674, 10.001307, 9.997845 
2.1453463e+3, 2.9382318e+2, 65619.53, -170783.05, -26385.24, -0.06310294, 0.33142218, 68528.63, 129085.37, 0.0000047479944, 10.001538, 9.998347 
2.1453705e+3, 3.0381992e+2, 111528.44, -132812.8, 94995.89, -0.07553377, 0.15356855, 144115.3, 144115.3, 0.000021563434, 10.001439, 9.998406 
2.1453983e+3, 3.1382063e+2, -59724.06, -119070.375, -103776.82, 0.23595084, 0.31380028, 18538.527, 18538.527, 0.000054127682, 9.999884, 9.999166 
2.1549822e+3, 1.3381328e+2, -1751452.6, -1681135.8, 81112.2, 0.110503435, 0.39101952, -1627890.0, 765.40515, 0.43279883, 9.999092, 9.999839 
2.1550038e+3, 1.4381078e+2, -1483657.9, -1554756.3, -2383.625, -0.051271647, 0.12802486, -1483578.0, 47102.004, 0.28823382, 10.00052, 9.999474 
2.1550274e+3, 1.538127e+2, -1415322.1, -1373134.0, 40654.984, 0.021505486, 0.2326436, -1348426.4, 84230.96, 0.15688464, 9.999786, 10.000449 
2.1550503e+3, 1.6381304e+2, -1453417.8, -1547970.3, 39614.176, 0.043845046, 0.29580653, -1439014.8, -104362.18, 0.06501248, 9.999746, 9.998548 
2.1550727e+3, 1.7381085e+2, -1222092.8, -1373043.1, 35502.16, -0.050092615, 0.18599513, -1214159.9, 22515.72, 0.018139776, 10.000677, 9.998581 
2.1550956e+3, 1.8380925e+2, -1040865.5, -1168769.6, -246.01067, -0.05942494, 0.13881573, -1040865.0, 97825.09, 0.0026903055, 10.000881, 9.999257 
2.1551208e+3, 1.9380857e+2, -1052570.8, -1075029.8, 15573.037, 0.12509206, 0.07278757, -1044600.7, -3909.3704, 0.00019736934, 9.999978, 9.999626 
2.1551442e+3, 2.0380794e+2, -1108383.3, -1182462.3, -38961.664, 0.18141496, 0.09884994, -1091664.6, -148969.08, 0.0000007869328, 9.99945, 9.998505 
2.1551651e+3, 2.1380718e+2, -933355.5, -1034229.3, -38543.363, 0.047091693, 0.12881987, -920314.3, -75607.36, 0.0, 9.999958, 9.998576 
2.1551865e+3, 2.2380647e+2, -766000.06, -858859.56, -44129.426, -0.05259999, 0.1821434, -748374.2, -1658.1971, 0.0, 10.000223, 9.998999 
2.1552092e+3, 2.3380573e+2, -566773.0, -670202.56, -6636.91, -0.06419228, 0.14468595, -566348.9, 82373.66, 0.0, 10.000792, 9.999314 
2.155232e+3, 2.4380514e+2, -504734.5, -667778.8, -10303.981, -0.06092067, 0.1837123, -504085.88, 46641.734, 0.0, 10.000834, 9.998668 
2.1552551e+3, 2.5380456e+2, -390675.2, -545372.7, -11260.261, -0.004231064, 0.21129757, -389859.88, 62873.563, 0.0, 10.000902, 9.998779 
2.1552783e+3, 2.6380318e+2, -371804.16, -571056.94, -6132.9956, -0.014808163, 0.22713064, -371615.56, -16867.816, 0.0, 10.000688, 9.998059 
2.1553013e+3, 2.7380064e+2, -230899.77, -425976.53, 2213.6353, -0.04707061, 0.10829786, -230874.64, 25900.406, 0.0, 10.000904, 9.99825 
2.1553254e+3, 2.8379935e+2, -193601.64, -422164.84, -16521.744, 0.01647862, 0.18217874, -192413.55, -33624.418, 0.000000100631844, 10.000741, 9.997698 
2.1553509e+3, 2.937994e+2, -18195.4, -236448.28, 19452.656, 0.21517536, 0.33496878, -16475.164, 44314.85, 0.0000031808167, 10.0010805, 9.998112 
2.1553743e+3, 3.0379698e+2, 45329.094, -19582.268, 22113.168, 0.08862033, 0.19909142, 52146.348, 52146.348, 0.000016664693, 10.000427, 9.999637 
2.1553965e+3, 3.1379873e+2, -243117.34, -271376.1, 12925.568, -0.017360304, 0.28952196, -238097.06, -238097.06, 0.000045618737, 9.998942, 9.998554 
2.1649812e+3, 1.337888e+2, -1881726.6, -1592736.8, 102637.64, 0.22150432, 0.35628822, -1559993.9, 68904.62, 0.45757636, 9.997437, 10.001662 
2.1650034e+3, 1.437867e+2, -1575354.0, -1565851.1, -69517.37, -0.10049656, 0.058540452, -1500923.0, 29991.287, 0.3088363, 9.999616, 9.999893 
2.1650274e+3, 1.5378965e+2, -1349164.8, -1356296.3, -73292.27, 0.028634248, 0.25549406, -1279351.5, 153532.3, 0.17204043, 10.000406, 10.000287 
2.165051e+3, 1.6379032e+2, -1374690.9, -1510061.1, -59445.266, 0.116694085, 0.36719042, -1352292.6, -17415.762, 0.07433442, 10.00025, 9.998579 
2.1650738e+3, 1.7378795e+2, -1235869.5, -1362236.1, -14672.703, 0.01435142, 0.22002575, -1234188.3, 2712.9185, 0.022589553, 10.000461, 9.998786 
2.165097e+3, 1.8378624e+2, -1108710.1, -1220619.5, -16252.51, 0.010371083, 0.16200732, -1106397.5, 32519.055, 0.00413868, 10.000541, 9.999057 
2.1651213e+3, 1.9378546e+2, -922046.25, -1050285.4, -57988.99, 0.13653897, 0.122772306, -899713.3, 141206.05, 0.00045452762, 10.001064, 9.999278 
2.1651445e+3, 2.0378451e+2, -866728.5, -1060100.0, -78322.74, 0.19507766, 0.13501006, -838985.2, 103941.41, 0.000007502901, 10.001067, 9.998562 
2.1651655e+3, 2.1378326e+2, -818841.06, -963342.0, -67975.63, 0.075906545, 0.105572514, -791890.6, 53050.95, 0.0, 10.000687, 9.998704 
2.1651873e+3, 2.2378267e+2, -737705.06, -839576.6, -29699.89, -0.0008741216, 0.16157028, -729678.7, 17270.516, 0.0, 10.000394, 9.999045 
2.16521e+3, 2.3378287e+2, -616072.8, -696300.4, -59583.78, -0.03832096, 0.21613336, -584358.06, 64589.32, 0.0, 10.000441, 9.999312 
2.1652332e+3, 2.4378225e+2, -551764.4, -705783.3, -58640.7, 0.00044564618, 0.2585367, -531979.25, 18973.771, 0.0, 10.000553, 9.998552 
2.1652569e+3, 2.5378016e+2, -410151.4, -556688.44, -68949.38, 0.090294436, 0.14835437, -382810.3, 70161.92, 0.0, 10.0008, 9.998741 
2.16528e+3, 2.637787e+2, -304661.2, -519004.6, -11052.482, 0.093128815, 0.14581898, -304092.78, 50893.977, 0.0, 10.001055, 9.998243 
2.1653025e+3, 2.7377772e+2, -151208.7, -364379.38, -13811.405, -0.024136703, 0.17264001, -150317.58, 106680.875, 0.0, 10.001363, 9.998449 
2.1653266e+3, 2.837765e+2, -95028.99, -382694.34, 7121.088, 0.053289663, 0.23766941, -94852.82, 64159.695, 0.0000000029805467, 10.001423, 9.997654 
2.1653523e+3, 2.937748e+2, -40833.01, -254956.98, -4286.9863, 0.2825129, 0.2414827, -40747.215, 20283.98, 0.000001345268, 10.000965, 9.998035 
2.1653758e+3, 3.0377457e+2, 170943.92, 112706.664, 22503.307, 0.21627799, 0.28806257, 178626.02, 178626.02, 0.000010778314, 10.000969, 10.000284 
2.1653977e+3, 3.1377453e+2, 180825.63, -80327.84, -123029.27, 0.05694254, 0.15722388, 229654.83, 229654.83, 0.00003608632, 10.001919, 9.998431 
2.1749797e+3, 1.3376245e+2, -1703966.3, -1409026.6, 18244.098, 0.21595587, 0.31072718, -1407902.4, 221256.9, 0.48078975, 9.997836, 10.003604 
2.1750039e+3, 1.4376445e+2, -1524565.0, -1546956.1, -4133.6406, -0.112969056, 0.24316356, -1523826.4, 7308.1494, 0.32934, 10.000012, 9.999776 
2.1750279e+3, 1.5376519e+2, -1391709.9, -1463269.1, -55321.035, -0.0073937736, 0.29598033, -1361606.3, 71523.15, 0.18832743, 10.000489, 9.999426 
2.1750513e+3, 1.6376528e+2, -1304525.4, -1405254.0, -69119.53, 0.06135227, 0.3796647, -1269367.4, 65761.83, 0.0852701, 10.000453, 9.999207 
2.1750745e+3, 1.7376485e+2, -1144976.6, -1187485.5, 6823.9277, -0.0045949137, 0.31140077, -1143908.0, 93223.305, 0.028395085, 10.000537, 9.999949 
2.1750975e+3, 1.8376419e+2, -1128496.8, -1287962.1, -16329.352, -0.065597825, 0.31018618, -1126841.8, 12294.412, 0.006367479, 10.000651, 9.998538 
2.1751212e+3, 1.9376309e+2, -985634.8, -1166950.4, -29828.498, -0.032776065, 0.31214923, -980853.75, 60291.76, 0.0009868387, 10.001, 9.998501 
2.1751441e+3, 2.0376168e+2, -867740.5, -1019802.9, -103270.53, -0.008286216, 0.30706048, -815531.5, 127626.24, 0.000047582707, 10.000873, 9.9989395 
2.1751663e+3, 2.1375984e+2, -809239.2, -886614.06, -72913.68, 0.036085635, 0.1558242, -765385.0, 79789.414, 0.00000000032497088, 10.000438, 9.999352 
2.1751882e+3, 2.2375907e+2, -830035.06, -928978.44, -43885.41, 0.018797293, 0.17394, -813375.25, -66193.16, 0.0, 9.999965, 9.998635 
2.1752104e+3, 2.3375964e+2, -694982.44, -795387.4, -43618.926, -0.047199447, 0.3195879, -678680.06, -29501.484, 0.0, 10.000175, 9.998751 
2.1752334e+3, 2.4375845e+2, -619692.75, -737514.1, -67480.37, -0.060456336, 0.33540425, -589026.3, -37836.24, 0.0, 10.000097, 9.998545 
2.1752574e+3, 2.5375456e+2, -442177.0, -558192.9, -45011.25, 0.037326086, 0.029229172, -426761.94, 26462.738, 0.0, 10.000524, 9.998858 
2.1752812e+3, 2.637536e+2, -351820.1, -494120.75, -16771.193, 0.07519836, 0.05303042, -349870.22, 5362.3022, 0.0, 10.000554, 9.998643 
2.1753055e+3, 2.737562e+2, -172556.08, -327993.53, 17330.648, 0.1027692, 0.38921282, -170647.23, 86561.95, 0.0, 10.0010395, 9.998842 
2.1753289e+3, 2.837548e+2, -187386.52, -436892.38, -25291.771, 0.07220218, 0.42080307, -184848.58, -25623.424, 0.0, 10.000855, 9.997544 
2.1753503e+3, 2.9374906e+2, -115100.45, -319160.84, -2113.8494, -0.054207962, 0.019466083, -115078.555, -53794.71, 0.00000028754212, 10.000582, 9.997774 
2.1753752e+3, 3.0375126e+2, 12476.246, -8083.6597, 13695.309, -0.0070157, 0.3612315, 19320.514, 19320.514, 0.0000061263827, 10.000142, 9.999818 
2.1754013e+3, 3.1375068e+2, 31800.129, -104645.58, 55170.504, 0.17335436, 0.17660485, 51316.332, 51316.332, 0.000027574106, 10.0007515, 9.998796 
2.1850055e+3, 1.4374134e+2, -1671275.9, -1754528.5, 50846.332, 0.11852093, 0.3163457, -1647189.9, -115827.375, 0.34983045, 9.999475, 9.998598 
2.1850279e+3, 1.5374209e+2, -1392358.6, -1466549.9, -80422.43, -0.024806455, 0.4243594, -1340888.8, 92467.8, 0.2059314, 10.000501, 9.999442 
2.1850513e+3, 1.6373935e+2, -1496692.4, -1485258.9, 3809.1833, 0.09618373, 0.21145983, -1484106.1, -148722.47, 0.09816949, 9.999066, 9.999309 
2.1850757e+3, 1.7374061e+2, -1152076.6, -1185448.4, -11440.795, 0.076927945, 0.31086728, -1148531.0, 88838.44, 0.036017943, 10.000529, 9.9999485 
2.1850987e+3, 1.8374065e+2, -1060535.6, -1252176.5, -73538.06, -0.0040224013, 0.37669042, -1035569.44, 103798.19, 0.009796201, 10.001061, 9.998604 
2.1851216e+3, 1.9373897e+2, -1090054.3, -1207700.3, -54119.785, -0.03101328, 0.30773127, -1068945.4, -27562.361, 0.0020521113, 10.000193, 9.998617 
2.1851443e+3, 2.0373753e+2, -1043783.75, -1104733.1, -51777.6, 0.020811798, 0.29257604, -1014178.3, -70782.25, 0.00020967671, 9.9996805, 9.998931 
2.1851669e+3, 2.1373639e+2, -806126.4, -890335.7, -99960.15, 0.08358139, 0.21693288, -739765.2, 105641.22, 0.00000086887735, 10.00048, 9.999314 
2.1851894e+3, 2.2373556e+2, -690497.44, -895407.9, -63113.305, 0.09923683, 0.24643975, -672618.3, 74796.555, 0.0, 10.001044, 9.998357 
2.185212e+3, 2.3373505e+2, -536325.7, -746338.2, -71795.766, 0.026216213, 0.31712964, -514127.6, 135293.88, 0.0, 10.001398, 9.998495 
2.1852349e+3, 2.4373364e+2, -417026.38, -630923.25, -63197.55, 0.01797418, 0.31892547, -399749.63, 151685.64, 0.0, 10.001445, 9.998628 
2.1852583e+3, 2.5373074e+2, -348807.16, -504531.63, -77303.56, 0.059029724, 0.10405665, -316949.9, 136510.77, 0.0, 10.001105, 9.998954 
2.1852823e+3, 2.6373014e+2, -316896.34, -461478.75, -33168.41, 0.12329212, 0.14740285, -309650.38, 45814.414, 0.0, 10.000695, 9.998816 
2.1853068e+3, 2.7373177e+2, -254402.58, -349290.9, -50597.477, 0.18446806, 0.383862, -232484.98, 24963.615, 0.0, 10.000383, 9.999026 
2.1853301e+3, 2.8373015e+2, -229613.69, -401491.22, -57643.86, 0.15274239, 0.35526684, -212071.6, -52606.39, 0.0, 10.000284, 9.998084 
2.1853504e+3, 2.9372486e+2, -105722.76, -276365.3, -42058.285, -0.07569134, -0.04095511, -95919.805, -34400.555, 0.000000027227998, 10.000446, 9.998153 
2.185376e+3, 3.0372772e+2, 64663.023, -87614.266, 62959.066, 0.050081193, 0.38737547, 87321.836, 87321.836, 0.0000044959556, 10.000865, 9.998967 
2.1854028e+3, 3.1372604e+2, 198096.75, 123735.76, -94526.586, 0.23492554, 0.20907634, 262492.16, 262492.16, 0.000025056477, 10.001113, 10.000268 
2.1950074e+3, 1.4371443e+2, -1677552.8, -1807266.3, 157648.27, 0.21846803, 0.19154775, -1571941.4, -40314.06, 0.371045, 9.999677, 9.998126 
2.1950273e+3, 1.5371971e+2, -1298792.6, -1299700.6, -123977.445, -0.18573777, 0.64154637, -1175268.4, 258303.73, 0.22535217, 10.000681, 10.000724 
2.1950501e+3, 1.6371243e+2, -1491560.3, -1513972.4, -6632.426, -0.016334197, -0.1244985, -1489744.5, -154103.19, 0.113554515, 9.999245, 9.999023 
2.195077e+3, 1.7371489e+2, -1244884.8, -1377223.1, 55216.79, 0.1189344, 0.21820919, -1224872.4, 12746.233, 0.046104282, 10.000518, 9.998624 
2.1951003e+3, 1.8371518e+2, -996696.2, -1131045.9, -102913.7, -0.0069409977, 0.35208103, -940973.94, 198641.19, 0.015073848, 10.0011215, 9.999412 
2.1951222e+3, 1.9371317e+2, -1017249.0, -1039693.2, -82708.234, -0.009191058, 0.13893601, -945005.0, 96626.13, 0.004138987, 10.00013, 9.999802 
2.1951447e+3, 2.0371224e+2, -1104280.5, -1187734.5, -52654.355, 0.04282862, 0.12350926, -1078824.0, -135184.1, 0.00072646124, 9.999503, 9.998443 
2.1951675e+3, 2.1371269e+2, -898309.1, -1018601.6, -60475.285, 0.059917018, 0.28155386, -873162.75, -27523.04, 0.000022642807, 10.000219, 9.99855 
2.1951902e+3, 2.2371201e+2, -762973.25, -947674.56, -60670.49, 0.03531626, 0.37347677, -744827.06, 2821.856, 0.000000000011542125, 10.000619, 9.9982 
2.1952136e+3, 2.3370919e+2, -576885.1, -768874.3, -43261.707, 0.028632652, 0.21114022, -567587.1, 82088.68, 0.0, 10.001132, 9.998465 
2.1952365e+3, 2.4370782e+2, -491997.53, -665159.9, -87662.06, 0.0022817363, 0.22049423, -455367.75, 96320.9, 0.0, 10.0009365, 9.9986315 
2.195259e+3, 2.5370845e+2, -387096.75, -523864.72, -75257.66, -0.0031689422, 0.35503465, -353794.53, 99888.195, 0.0, 10.000846, 9.998945 
2.1952823e+3, 2.637078e+2, -407359.63, -530005.2, -61802.184, 0.0034207646, 0.40523204, -381619.25, -25931.18, 0.0, 10.000206, 9.998565 
2.1953061e+3, 2.7370444e+2, -316827.16, -396806.5, -41279.484, 0.06456107, 0.1560554, -299343.63, -41626.445, 0.0, 10.000055, 9.998838 
2.1953295e+3, 2.8370237e+2, -244545.58, -305799.28, -70547.68, 0.047384825, 0.046343043, -198263.53, -38527.695, 0.0, 9.99977, 9.998977 
2.195352e+3, 2.9370221e+2, -100676.35, -175611.48, -8716.937, 0.0055493964, 0.06590759, -99675.7, -37937.645, 0.000000020729713, 10.000075, 9.999014 
2.1953768e+3, 3.0370328e+2, -159692.77, -353556.53, 66256.87, -0.017049424, 0.34528008, -139211.86, -139211.86, 0.0000055230016, 10.000055, 9.997498 
2.1954012e+3, 3.1369895e+2, 51445.547, 124602.39, -52963.043, -0.11689773, 0.026409974, 152390.61, 152390.61, 0.000029811183, 9.999901, 10.000806 
2.2050066e+3, 1.4368853e+2, -1569994.8, -1598335.0, 289008.34, 0.17109846, 0.031606324, -1294809.4, 237072.58, 0.39437363, 10.000195, 9.999794 
2.2050281e+3, 1.5369473e+2, -1404647.0, -1364159.8, -162668.0, -0.1341773, 0.6425825, -1220480.6, 213335.19, 0.24751917, 9.999972, 10.000617 
2.2050506e+3, 1.6368765e+2, -1217362.3, -1343070.5, -93657.39, 0.06029701, -0.12636533, -1167423.0, 168459.03, 0.13222682, 10.001087, 9.9993725 
2.2050771e+3, 1.7368942e+2, -1340608.1, -1436209.0, 35740.27, 0.141447, 0.14564076, -1328724.0, -90858.87, 0.059555795, 9.99983, 9.998595 
2.2051011e+3, 1.8368974e+2, -1281658.1, -1235952.3, -47807.535, 0.070434816, 0.27254906, -1205816.4, -65954.875, 0.023171267, 9.998993, 9.999729 
2.2051229e+3, 1.9368874e+2, -977097.9, -979265.3, -113618.875, 0.045334984, 0.12227671, -864557.56, 177311.64, 0.008108057, 10.000226, 10.000198 
2.2051452e+3, 2.0368831e+2, -906364.25, -1104355.0, -69987.03, 0.09215534, 0.14309472, -884123.2, 59750.727, 0.0021629941, 10.000911, 9.998345 
2.2051685e+3, 2.136883e+2, -780895.56, -987972.56, -61695.945, 0.11003443, 0.27568373, -763907.7, 81971.12, 0.00023583506, 10.001113, 9.998341 
2.2051917e+3, 2.2368726e+2, -690546.9, -876179.94, -17722.326, 0.1114301, 0.33079046, -688870.1, 59020.996, 0.0000019906881, 10.000956, 9.998536 
2.2052146e+3, 2.3368484e+2, -651355.1, -764221.4, -9449.311, 0.063775666, 0.17249511, -650569.5, -657.35144, 0.0, 10.000429, 9.998854 
2.2052373e+3, 2.4368365e+2, -618330.4, -742131.06, -8705.167, 0.05213819, 0.18609382, -617721.25, -65798.45, 0.0, 10.00012, 9.9985075 
2.2052598e+3, 2.5368428e+2, -477139.28, -575011.94, -43215.777, 0.034636643, 0.33788982, -460788.78, -6870.595, 0.0, 10.000317, 9.99883 
2.2052827e+3, 2.6368347e+2, -360285.34, -505287.94, -2731.2493, 0.05287983, 0.3767875, -360233.9, -4307.774, 0.0, 10.000503, 9.998601 
2.2053069e+3, 2.7367985e+2, -203216.17, -350594.88, 8520.37, 0.086351074, 0.10031415, -202725.22, 55233.26, 0.0, 10.000821, 9.998808 
2.2053306e+3, 2.8367844e+2, -68433.305, -200053.19, 273.54004, 0.120569006, 0.050363768, -68432.734, 91537.805, 0.0, 10.000895, 9.999157 
2.2053535e+3, 2.936792e+2, 48510.84, -80130.06, -58001.355, 0.10290532, 0.15864216, 70800.305, 132764.34, 0.00000007580395, 10.001005, 9.999226 
2.2053774e+3, 3.0367887e+2, -37627.992, -325941.6, 87276.086, 0.021363162, 0.28408602, -13266.846, -13266.846, 0.0000083740215, 10.000979, 9.997273 
2.2054031e+3, 3.1367594e+2, 182709.31, 204941.39, -94170.195, 0.07266605, 0.17070223, 288649.34, 288649.34, 0.000042885644, 10.000659, 10.001003 
2.215006e+3, 1.4367047e+2, -1339119.1, -1174812.6, 117068.47, -0.016324518, 0.53991705, -1113947.8, 418111.38, 0.4221777, 10.000174, 10.004002 
2.2150293e+3, 1.5366675e+2, -1506155.1, -1594212.1, -82603.94, -0.034933146, 0.40792966, -1456578.5, -22486.613, 0.27423543, 9.999965, 9.99878 
2.215053e+3, 1.6366464e+2, -1127512.1, -1194912.5, -124563.914, 0.111049935, 0.2086447, -1032170.2, 303938.88, 0.15564767, 10.001333, 10.0004015 
2.215076e+3, 1.7366415e+2, -1234097.0, -1220871.5, -15087.167, -0.013597102, 0.101369515, -1211011.5, 27098.213, 0.07778218, 9.999867, 10.000053 
2.2151001e+3, 1.836643e+2, -1291448.4, -1270940.9, -38162.105, 0.006918157, 0.14183709, -1241679.0, -101572.4, 0.035576556, 9.999051, 9.999464 
2.2151227e+3, 1.9366544e+2, -1029327.9, -1053469.0, -57045.96, -0.0070880936, 0.25216827, -983089.44, 59009.074, 0.0154146915, 10.000088, 9.999747 
2.2151455e+3, 2.0366548e+2, -921039.3, -1085379.0, -68526.88, -0.035487674, 0.3317354, -896214.7, 47885.773, 0.005714695, 10.000693, 9.998579 
2.2151697e+3, 2.1366315e+2, -792447.1, -955735.9, -41843.83, 0.072079994, 0.1978684, -782348.9, 63775.457, 0.0013616167, 10.000872, 9.998674 
2.2151926e+3, 2.236616e+2, -717963.5, -826502.25, -51206.008, 0.09123726, 0.16179995, -697619.06, 50519.492, 0.00013056793, 10.0005, 9.999097 
2.2152147e+3, 2.3366167e+2, -646248.4, -686525.4, -16160.643, -0.011999359, 0.18317637, -640565.9, 9568.573, 0.0000045921656, 10.000139, 9.999525 
2.2152369e+3, 2.4366082e+2, -718775.1, -822345.94, -28269.873, -0.056923654, 0.20985857, -711561.25, -159420.53, 0.000000030624218, 9.999595, 9.998198 
2.2152603e+3, 2.536582e+2, -551703.0, -654081.1, -22779.178, 0.023291811, 0.07310791, -546863.44, -92695.734, 0.0, 10.0000105, 9.998423 
2.2152837e+3, 2.6365682e+2, -421998.44, -515620.84, -12892.088, 0.053913344, 0.07353664, -420255.6, -64073.125, 0.0, 10.000019, 9.9987545 
2.2153078e+3, 2.7365756e+2, -236653.19, -333012.47, 31748.059, 0.08069831, 0.19783325, -227133.45, 31042.94, 0.0, 10.000471, 9.999083 
2.2153315e+3, 2.8365794e+2, -223325.13, -370041.03, -20028.375, 0.08501916, 0.34842727, -220640.16, -60465.99, 0.0, 10.000266, 9.998279 
2.215354e+3, 2.936555e+2, -68858.664, -224424.86, -27947.201, 0.032666076, 0.22053164, -63990.348, -1790.3134, 0.00000027397763, 10.000599, 9.998416 
2.215377e+3, 3.0365407e+2, -79787.64, -242172.73, 55213.73, -0.1707421, 0.23112755, -62792.684, -62792.684, 0.000015050563, 10.000294, 9.99815 
2.215405e+3, 3.136548e+2, -64536.36, -16924.795, 70894.98, 0.11911267, 0.38073105, 34054.535, 34054.535, 0.00007034586, 9.999491, 10.000005 
2.2250056e+3, 1.4363989e+2, -1567349.9, -1319401.0, 50148.97, 0.0052899714, 0.22860542, -1309642.3, 222713.58, 0.45833316, 9.997856, 10.00351 
2.2250316e+3, 1.5363987e+2, -1398120.0, -1599322.1, -253.33446, 0.1532698, 0.15332122, -1398119.6, 36234.984, 0.30885017, 10.001092, 9.998176 
2.2250535e+3, 1.6364078e+2, -1293580.3, -1302816.9, -32425.338, 0.10236837, 0.32530865, -1265446.0, 70898.11, 0.18666483, 10.000097, 10.000136 
2.2250757e+3, 1.736398e+2, -1128724.1, -1109427.6, -38921.707, -0.025052272, 0.12564169, -1078976.1, 159372.94, 0.103338934, 10.000402, 10.000641 
2.2251001e+3, 1.8363997e+2, -1169925.8, -1226884.5, -39305.44, 0.09676068, 0.13357738, -1149866.5, -9520.533, 0.054786276, 9.9999275, 9.999353 
2.225123e+3, 1.93641e+2, -1105310.1, -1118283.5, -59358.43, 0.03745785, 0.2565804, -1052085.0, -9745.983, 0.028543482, 9.999655, 9.999506 
2.2251457e+3, 2.0364091e+2, -1050501.9, -1113774.0, -28719.104, -0.010201512, 0.32010567, -1039410.56, -95068.64, 0.013685946, 9.999647, 9.998894 
2.22517e+3, 2.1363889e+2, -846382.44, -937962.3, -30818.764, 0.06769365, 0.18110217, -836977.1, 9384.54, 0.005262215, 10.000319, 9.999071 
2.2251934e+3, 2.2363771e+2, -709772.4, -829055.44, -51600.617, 0.11941416, 0.16063419, -690548.56, 57823.496, 0.001420654, 10.000553, 9.9990635 
2.2252151e+3, 2.3363802e+2, -655295.44, -699658.44, -96662.9, 0.04400541, 0.21565682, -578301.7, 72064.836, 0.0002619265, 10.000084, 9.999473 
2.2252373e+3, 2.4363713e+2, -656166.2, -779131.56, -66558.59, 0.03105827, 0.23629688, -627038.94, -74665.19, 0.000035642544, 9.999962, 9.9983225 
2.225261e+3, 2.5363415e+2, -420718.4, -575879.5, -39572.887, 0.07651644, 0.04850836, -411208.47, 43194.63, 0.0000011567587, 10.000795, 9.998609 
2.2252844e+3, 2.6363274e+2, -303658.8, -482811.75, -17377.318, 0.10790217, 0.048182253, -301988.8, 54429.645, 0.0, 10.000928, 9.99855 
2.2253081e+3, 2.7363414e+2, -276093.66, -370293.47, -59535.4, 0.091519095, 0.27062848, -247280.03, 11128.692, 0.0, 10.000322, 9.998897 
2.2253318e+3, 2.8363472e+2, -260603.81, -378626.03, -56733.473, 0.10959854, 0.44900203, -237755.3, -77349.57, 0.0, 9.999942, 9.998401 
2.2253548e+3, 2.936315e+2, -56827.082, -201114.19, -25227.621, 0.06452555, 0.24126124, -52543.38, 9895.309, 0.00000073017384, 10.000606, 9.998579 
2.2253792e+3, 3.0363077e+2, 108977.14, -102170.64, 92215.42, -0.02508486, 0.27160507, 143580.03, 143580.03, 0.00002755439, 10.001353, 9.998629 
2.2254053e+3, 3.1362963e+2, 268364.8, 147004.64, -67186.34, 0.119348645, 0.2555594, 298216.94, 298216.94, 0.000118261974, 10.001681, 10.000134 
2.2350344e+3, 1.5361466e+2, -1419702.8, -1535814.5, -108649.4, 0.27598917, -0.023391899, -1354571.1, 80027.414, 0.35698506, 10.000824, 9.998758 
2.2350515e+3, 1.6361535e+2, -1405137.8, -1549908.8, -60361.84, -0.2198427, 0.16684587, -1383272.4, -46678.72, 0.23053116, 10.000103, 9.9983835 
2.2350764e+3, 1.7361608e+2, -1166270.6, -1162247.3, -28058.584, -0.045133863, 0.19543228, -1136128.3, 102457.79, 0.14104874, 10.000303, 10.000301 
2.2351009e+3, 1.8361656e+2, -1174790.5, -1231315.4, -68774.86, 0.10229373, 0.2353919, -1128697.4, 11883.321, 0.08532412, 9.99991, 9.999332 
2.2351228e+3, 1.936154e+2, -1126110.4, -1134558.0, -62233.676, 0.03052445, 0.1469899, -1067957.4, -25366.514, 0.05187056, 9.999539, 9.999454 
2.2351453e+3, 2.036148e+2, -1065700.9, -1085059.6, -25219.582, -0.058754947, 0.15134615, -1048367.0, -103770.76, 0.030293982, 9.999391, 9.999213 
2.2351694e+3, 2.1361525e+2, -852400.0, -888560.25, 3922.087, -0.042221315, 0.2146418, -851979.5, -5386.243, 0.015773455, 10.0000515, 9.999537 
2.2351928e+3, 2.2361517e+2, -826734.2, -947011.6, -75819.04, -0.011372986, 0.30319452, -790098.94, -41503.977, 0.0069356123, 10.00003, 9.998495 
2.2352156e+3, 2.336139e+2, -738230.75, -813934.56, -97281.914, 0.061950166, 0.25942123, -671696.2, -21088.133, 0.002541045, 9.999837, 9.998797 
2.2352381e+3, 2.4361266e+2, -704439.5, -761930.9, -60670.773, 0.07022441, 0.27251098, -666049.06, -113429.16, 0.00075579167, 9.9994755, 9.998665 
2.2352616e+3, 2.5361192e+2, -422521.8, -496225.16, 6295.322, 0.036655057, 0.23471823, -421987.97, 32637.773, 0.00014769337, 10.000446, 9.999315 
2.2352844e+3, 2.63611e+2, -459609.97, -652964.4, -61227.88, -0.026146643, 0.28154108, -441852.34, -85216.266, 0.000007045108, 10.000295, 9.997671 
2.2353074e+3, 2.7360955e+2, -390976.7, -532198.4, -65834.12, -0.043636832, 0.31336573, -365047.28, -106391.91, 0.00000000065814787, 9.999999, 9.997926 
2.2353305e+3, 2.8360862e+2, -301116.4, -312053.06, -70629.29, -0.058129665, 0.35147777, -235744.06, -75076.61, 0.0, 9.999344, 9.99912 
2.235355e+3, 2.9360706e+2, -90046.94, -126945.3, 22759.348, -0.022547014, 0.20678428, -79198.336, -16517.18, 0.0000012574419, 10.000043, 9.999328 
2.235382e+3, 3.0360797e+2, -93516.53, -288067.1, 79627.62, 0.07102022, 0.4033565, -65081.68, -65081.68, 0.000044073433, 10.000397, 9.997789 
2.2354053e+3, 3.1360382e+2, 107406.055, 141988.4, 47653.37, -0.1251657, 0.15302281, 175390.7, 175390.7, 0.00018419352, 10.000376, 10.000692 
2.2450337e+3, 1.5359588e+2, -1417188.8, -1446307.1, -192384.33, 0.07431859, 0.5400353, -1238813.5, 195974.47, 0.42759266, 10.000596, 9.999735 
2.245053e+3, 1.6359223e+2, -1319592.6, -1487995.4, 11316.0205, -0.07505734, 0.17285433, -1318835.6, 17986.617, 0.29616648, 10.000656, 9.998556 
2.2450772e+3, 1.735934e+2, -1220756.1, -1276478.9, -14093.318, 0.023675602, 0.31127125, -1217394.4, 21417.617, 0.19952731, 10.000292, 9.999449 
2.2451009e+3, 1.8359347e+2, -1190459.9, -1213982.9, -47358.62, 0.14342076, 0.3535336, -1153424.0, -12613.342, 0.13536815, 9.9997, 9.9995365 
2.2451231e+3, 1.9359162e+2, -1010110.2, -1035492.06, -36289.92, 0.07179226, 0.1571468, -984356.1, 58468.05, 0.09319166, 10.000169, 9.999853 
2.2451457e+3, 2.0359094e+2, -939936.4, -1025692.1, 43657.676, 0.022681685, 0.12661251, -921621.9, 23206.842, 0.06306426, 10.000224, 9.999247 
2.2451699e+3, 2.1359175e+2, -894959.56, -916933.3, 4258.903, 0.040363044, 0.23957025, -894162.94, -47340.438, 0.0400799, 9.999772, 9.999494 
2.2451936e+3, 2.2359157e+2, -843746.5, -959603.06, -43636.71, 0.07711184, 0.3255421, -829149.94, -80324.03, 0.023131557, 9.999893, 9.998498 
2.2452164e+3, 2.3358986e+2, -600378.75, -741811.75, -56629.445, 0.11633931, 0.23363623, -580498.8, 70345.08, 0.011994159, 10.000751, 9.998871 
2.2452387e+3, 2.4358857e+2, -473305.7, -667868.4, 12784.824, 0.14280483, 0.24717012, -472469.2, 80388.17, 0.0054928027, 10.001064, 9.998581 
2.2452624e+3, 2.535885e+2, -428950.38, -504438.25, 1980.9742, 0.07829182, 0.28642303, -428898.44, 25960.078, 0.002050329, 10.000396, 9.999301 
2.2452852e+3, 2.6358777e+2, -490273.72, -648794.2, -32202.248, 0.038056955, 0.35207167, -483981.8, -127114.66, 0.0004876709, 9.999979, 9.997865 
2.2453082e+3, 2.7358577e+2, -216835.55, -406950.22, 34915.016, 0.0012083155, 0.29354125, -210626.14, 48263.39, 0.000047167257, 10.000996, 9.9983225 
2.2453313e+3, 2.8358454e+2, -51392.53, -208367.81, 65871.97, 0.018233217, 0.28022462, -27413.467, 133489.23, 0.00000034188096, 10.001112, 9.99899 
2.2453561e+3, 2.9358307e+2, 85932.72, -94398.97, 29941.064, 0.052365687, 0.19955187, 90773.96, 153689.86, 0.0000013302117, 10.001425, 9.998916 
2.2453839e+3, 3.0358347e+2, 21533.434, -309833.2, 103721.76, 0.19627851, 0.38165614, 51321.76, 51321.76, 0.0000584347, 10.001455, 9.99714 
2.245407e+3, 3.1358e+2, 265200.7, 285024.16, -61836.44, -0.013136637, 0.30558637, 337738.2, 337738.2, 0.00025945, 10.001064, 10.001347 
2.255057e+3, 1.6357242e+2, -1315160.0, -1377364.9, -15957.4375, 0.12301043, 0.44086424, -1311305.4, 25714.662, 0.39765337, 10.000296, 9.99947 
2.2550784e+3, 1.7357145e+2, -1313624.0, -1473460.6, -49227.49, 0.029124662, 0.46277282, -1299679.3, -60649.25, 0.29298013, 10.000255, 9.998096 
2.2551002e+3, 1.8357034e+2, -1232866.8, -1229289.0, -91017.69, -0.022792913, 0.46738908, -1140042.6, 996.39886, 0.21888196, 9.999398, 9.999559 
2.2551228e+3, 1.9356912e+2, -1009031.0, -962691.7, -18817.504, -0.0043468657, 0.25378814, -956012.9, 87031.93, 0.16615056, 9.999848, 10.000578 
2.2551462e+3, 2.0356886e+2, -1022016.7, -1104994.3, 17619.98, -0.014672561, 0.22007294, -1018430.2, -73386.375, 0.12546477, 9.999832, 9.998866 
2.255171e+3, 2.135682e+2, -978581.8, -1023660.25, -1510.7642, 0.12696935, 0.23059769, -978531.2, -131479.64, 0.0914258, 9.999499, 9.998868 
2.2551946e+3, 2.2356693e+2, -914868.0, -979924.9, -30458.447, 0.13732897, 0.23975565, -902833.94, -153769.42, 0.062582165, 9.999349, 9.998618 
2.255217e+3, 2.3356569e+2, -607214.75, -681884.8, -12936.916, 0.07924414, 0.13953032, -605036.9, 46039.5, 0.039919913, 10.000431, 9.9994335 
2.255239e+3, 2.4356468e+2, -638600.94, -817032.5, -33388.215, 0.011478131, 0.17818806, -632557.94, -79469.695, 0.023601582, 10.000258, 9.997928 
2.2552624e+3, 2.53564e+2, -535424.06, -625152.6, -15867.122, 0.02789611, 0.20940569, -532700.9, -77600.21, 0.012405956, 9.999992, 9.998646 
2.2552854e+3, 2.6356298e+2, -526876.56, -568003.5, -42330.047, 0.0449297, 0.2624164, -500379.53, -143266.8, 0.005154125, 9.999342, 9.998712 
2.2553095e+3, 2.735624e+2, -189738.48, -212663.36, 78583.93, 0.022766367, 0.18243541, -121785.42, 137329.06, 0.0013586987, 10.000438, 9.9999075 
2.2553328e+3, 2.8356194e+2, -286566.34, -480124.3, 21396.025, 0.02279438, 0.22007467, -284229.4, -123112.555, 0.00015517221, 10.000228, 9.997528 
2.2553584e+3, 2.9355973e+2, -102005.96, -350954.63, 65575.65, 0.08803046, 0.23409344, -85789.055, -22648.006, 0.0000026982873, 10.000928, 9.997352 
2.2553837e+3, 3.035577e+2, -153329.02, -489908.78, 55882.18, -0.026751244, 0.27599207, -144293.48, -144293.48, 0.000065484004, 10.000737, 9.996222 
2.2554067e+3, 3.1355458e+2, 90123.305, 212135.17, 139377.44, -0.21489523, 0.34313414, 303273.22, 303273.22, 0.00034262822, 9.999912, 10.001374 
2.2650792e+3, 1.7354238e+2, -1151776.0, -1277249.1, -212723.28, 0.069440335, 0.1407426, -992730.94, 246586.8, 0.44342524, 10.000884, 9.999814 
2.2651033e+3, 1.8354611e+2, -1116265.8, -1340632.5, -4543.069, 0.25384027, 0.30095014, -1116173.8, 25104.9, 0.3585124, 10.0008135, 9.998167 
2.2651243e+3, 1.9354455e+2, -1261097.8, -1227868.1, -163363.4, 0.20168024, 0.25463244, -1080276.8, -36987.41, 0.29413474, 9.99873, 9.99913 
2.265146e+3, 2.0354323e+2, -1213498.8, -1136395.8, -120922.76, 0.09282145, 0.15867674, -1048027.8, -102728.73, 0.24160613, 9.998095, 9.999561 
2.2651683e+3, 2.1354264e+2, -991914.0, -951753.2, -73575.59, -0.060066886, 0.11200361, -895567.0, -48262.52, 0.1940874, 9.99898, 9.999667 
2.2651917e+3, 2.23542e+2, -767306.44, -883289.4, 15442.461, -0.11605207, 0.12545219, -765285.56, -15975.698, 0.14888066, 10.000191, 9.998902 
2.2652155e+3, 2.335417e+2, -533668.7, -642790.8, -34160.61, -0.10393334, 0.13660292, -523856.97, 127455.18, 0.108788945, 10.001039, 9.999423 
2.265239e+3, 2.4354109e+2, -483808.84, -763930.44, -81140.11, -0.05518729, 0.23226885, -462003.2, 91316.805, 0.07581198, 10.001376, 9.997786 
2.2652635e+3, 2.53541e+2, -380144.9, -590713.94, -78911.07, 0.0656588, 0.34629947, -353855.16, 101472.195, 0.048806984, 10.001137, 9.99841 
2.2652858e+3, 2.635399e+2, -323630.63, -517348.53, -79206.51, 0.08704079, 0.43477643, -295368.34, 61972.367, 0.026684597, 10.000845, 9.9983835 
2.2653095e+3, 2.7353802e+2, -137567.61, -218830.05, -116498.21, -0.032573923, 0.25307247, -54818.406, 204537.27, 0.010897145, 10.0008335, 9.999733 
2.2653325e+3, 2.83537e+2, -335481.06, -491327.5, -164638.61, 0.024593487, 0.2401618, -231256.27, -69892.234, 0.002788968, 9.999784, 9.9977 
2.2653614e+3, 2.935362e+2, 248314.02, -152019.1, 46143.13, 0.19097532, 0.39675307, 253563.7, 316937.03, 0.0003034348, 10.003227, 9.9976225 
2.2653872e+3, 3.0353302e+2, 354802.9, -317634.47, 29410.78, 0.05546574, 0.28849825, 356086.8, 356086.8, 0.000074942734, 10.00458, 9.995579 
2.2654092e+3, 3.135269e+2, 193117.0, -28084.996, -9247.005, -0.060945593, 0.32167372, 193502.89, 193502.89, 0.00045627946, 10.001696, 9.998994 
2.2751458e+3, 2.0351718e+2, -895003.0, -1013568.2, 35019.0, 0.15634413, 0.30753168, -885432.44, 60131.066, 0.4526298, 10.000857, 9.999023 
2.2751677e+3, 2.135195e+2, -543838.2, -587022.75, -68510.375, -0.05802516, 0.34132096, -493598.03, 353939.34, 0.38963944, 10.002494, 10.001505 
2.275197e+3, 2.2352098e+2, -643580.5, -864122.56, -205487.52, 0.3161501, 0.42428395, -520646.03, 228874.58, 0.32267725, 10.00185, 9.998371 
2.2752173e+3, 2.3351783e+2, -686916.9, -783996.9, -74373.85, -0.076751396, 0.18138614, -646644.7, 4906.48, 0.25840095, 10.000217, 9.998762 
2.2752388e+3, 2.4351625e+2, -794356.5, -1027642.3, -69924.18, -0.33765548, 0.2666366, -775003.25, -221435.77, 0.20062341, 9.99971, 9.9967375 
2.2752649e+3, 2.535189e+2, -508974.38, -642169.2, -66678.914, 0.045816652, 0.60522896, -481331.2, -25787.033, 0.14660953, 10.000223, 9.998435 
2.2752859e+3, 2.6351875e+2, -762094.56, -1021475.5, -127752.83, -0.06531716, 0.89783514, -709740.0, -352191.06, 0.09444842, 9.999132, 9.995702 
2.275308e+3, 2.7351356e+2, -361158.56, -526873.2, -124355.805, -0.3010844, 0.5421649, -294584.63, -34981.902, 0.04983968, 10.0001955, 9.997868 
2.2753303e+3, 2.835105e+2, -491471.53, -474471.66, -206655.77, -0.23572989, 0.3933917, -276141.1, -114507.02, 0.019500945, 9.998385, 9.998453 
2.2753638e+3, 2.9351246e+2, 201758.27, 8464.715, 188536.5, 0.08951204, 0.61387193, 316976.1, 380588.56, 0.004786881, 10.002195, 9.999184 
2.2753917e+3, 3.035089e+2, 29599.846, -613979.3, -120560.86, -0.024371615, 0.39971173, 51443.0, 51443.0, 0.0007184054, 10.003066, 9.994216 
2.2754112e+3, 3.134984e+2, -468332.1, -898373.8, 27003.541, -0.09769806, 0.16684645, -466643.1, -466643.1, 0.0007782504, 9.99977, 9.9938345 
2.2852404e+3, 2.4349245e+2, -678293.1, -446680.44, 247912.55, -0.17502512, 0.23919377, -288859.78, 264938.03, 0.45869297, 9.997043, 10.003746 
2.2852695e+3, 2.5349027e+2, -483677.1, -912159.75, -314200.5, 0.39490256, 0.54043245, -317627.34, 138197.8, 0.36361384, 10.001994, 9.996008 
2.2852871e+3, 2.634729e+2, 356.55618, -504523.8, -283895.56, -0.21362807, -0.83256274, 127814.71, 485814.5, 0.26167566, 10.004587, 9.9969225 
2.285315e+3, 2.734802e+2, -17042.53, -387282.97, -237341.1, 0.26232365, 0.082280345, 98836.07, 358765.4, 0.1640845, 10.002947, 9.99773 
2.2853334e+3, 2.8348258e+2, -636376.5, -512215.38, -280514.63, 0.32157618, 0.5403749, -286993.9, -125087.29, 0.0825175, 9.997077, 9.998904 
2.2853638e+3, 2.9348138e+2, -449.74207, 71565.72, 276038.7, 0.017088642, 0.32654107, 313935.25, 377853.94, 0.030766664, 9.999883, 10.000892 
2.285395e+3, 3.034825e+2, 362529.8, 180484.81, -35996.676, 0.084874004, 0.23926426, 369389.16, 369389.16, 0.009050835, 10.002407, 10.000104 
2.2854118e+3, 3.1348303e+2, -97224.16, 71493.24, 170705.16, 0.034781817, 0.5577461, 177546.31, 177546.31, 0.0039691073, 9.998849, 10.000931 
2.2953057e+3, 2.7345696e+2, 560709.6, 79329.46, 504842.8, -1.0347154, 0.698089, 879303.0, 1139452.4, 0.43464345, 10.010427, 9.998777 
2.2953391e+3, 2.8345257e+2, -1689570.1, -1593404.8, -438360.66, 1.0484602, 0.5581466, -1200497.6, -1038307.7, 0.25423735, 9.992447, 9.99361 
2.2953618e+3, 2.9344776e+2, -54521.242, 182117.39, 512162.47, -0.27011135, -0.37398788, 589449.94, 653695.44, 0.12196193, 9.999153, 10.002167 
2.2953975e+3, 3.0345833e+2, -351541.06, 327961.3, -130929.7, -0.08550902, 0.24370877, 352316.5, 352316.5, 0.05443847, 9.995508, 10.004401 
2.2954136e+3, 3.134781e+2, 410362.8, 1943716.4, -226803.83, 0.113631725, 0.883643, 1976560.3, 1976560.3, 0.032286525, 9.995554, 10.015594 
2.3053735e+3, 2.9343644e+2, 374339.53, -163811.39, -423305.5, 0.06602062, -0.032888927, 606850.7, 671203.75, 0.36464748, 10.006032, 9.997341 
2.3053972e+3, 3.0345201e+2, -905886.3, -745386.44, 104880.68, -0.35954815, 1.1763089, -693575.75, -693575.75, 0.22003622, 9.994607, 9.997551 
2.3054197e+3, 3.1342983e+2, 553294.25, -881262.2, 11951.749, 0.21373607, -0.58406794, 553393.9, 553393.9, 0.17387988, 10.008743, 9.990576 
2.3452292e+3, 2.8759915e+2, -298657.72, 179530.17, -812575.8, 0.09257442, 0.6415847, 787457.7, 909013.94, 0.47867444, 9.997368, 10.0060625 
2.3587829e+3, 1.7798285e+2, -429422.44, -1026332.2, -538083.4, 0.34183565, 1.03269, -112565.164, 1083218.8, 0.43663538, 10.009769, 9.997277 
2.3584607e+3, 1.8795635e+2, -956534.94, -1114990.4, -524614.0, -0.29272524, -1.0403675, -505199.88, 592837.3, 0.37774757, 10.002137, 9.999125 
2.3581518e+3, 1.9796611e+2, -979918.94, -1243828.1, -130433.95, 0.85072744, 0.28463027, -926333.7, 73597.93, 0.33363855, 10.000739, 9.99737 
2.3578174e+3, 2.0795201e+2, -670384.4, -794292.7, -272706.28, -0.2517341, -0.4864739, -452683.3, 449385.5, 0.3010985, 10.00194, 9.999485 
2.3574927e+3, 2.1794806e+2, -919631.5, -1156722.5, -26748.023, 0.1368429, -0.45329967, -916651.3, -112540.914, 0.27833992, 9.999395, 9.997444 
2.3571663e+3, 2.2794837e+2, 23126.115, -632507.06, -107928.46, -0.035271883, 0.37393194, 40435.98, 746549.75, 0.2613125, 10.007542, 9.996524 
2.3568419e+3, 2.3793809e+2, -447152.66, -763802.44, -337863.94, -0.25943953, -0.06315335, -232357.17, 375864.22, 0.24582523, 10.001523, 9.998115 
2.3565318e+3, 2.4793652e+2, -256324.63, -190438.5, -92721.17, 0.5499315, 0.17183273, -124982.055, 385255.53, 0.23021871, 10.000405, 10.002103 
2.3562098e+3, 2.579329e+2, -1195524.0, -802467.6, -386479.75, -0.063138984, 0.0247085, -565417.75, -153145.83, 0.21018556, 9.993504, 10.000119 
2.3558784e+3, 2.6793164e+2, 126674.52, 173875.16, -400879.66, -0.1901997, 0.15735926, 551848.56, 866134.94, 0.17676377, 10.00125, 10.003101 
2.3555627e+3, 2.779283e+2, -260499.13, -887294.8, 244066.64, 0.50104785, 0.2751135, -176673.19, 39650.688, 0.13597408, 10.001709, 9.99421 
2.3552312e+3, 2.879215e+2, 716975.06, 481951.84, 10217.184, 0.05485236, 0.29111996, 717418.4, 835803.3, 0.12722558, 10.004897, 10.001976 
2.3549047e+3, 2.9791972e+2, -873028.0, -231395.38, 692306.6, -1.0101424, -0.18261732, 210816.19, 231210.25, 0.18627366, 9.992784, 10.002409 
2.354612e+3, 3.079164e+2, -286783.88, -658334.3, -257656.45, 0.6009034, 0.38857797, -154912.63, -154912.63, 0.31064346, 10.001071, 9.995189 
2.36942e+3, 1.5829977e+2, -1015251.9, -422935.5, 307050.0, 0.19563748, -0.07004244, -292491.56, 1096182.4, 0.40918154, 9.997588, 10.01188 
2.369101e+3, 1.6829911e+2, -1542318.1, -1747072.5, 137249.69, 0.21135275, 0.19707777, -1473468.6, -182794.34, 0.31914514, 9.999225, 9.996605 
2.3687771e+3, 1.782918e+2, -1191429.9, -1517089.1, 335389.63, -0.17068753, 0.21703255, -981432.9, 211320.36, 0.25440264, 10.001031, 9.996971 
2.3684593e+3, 1.882877e+2, -817670.94, -555101.9, 278353.72, 0.09166985, 0.24893366, -378626.1, 716165.1, 0.20803185, 9.999757, 10.0042 
2.3681441e+3, 1.9828911e+2, -1084263.5, -821713.25, 88497.234, 0.7144765, 0.46322408, -794669.4, 202102.47, 0.17323136, 9.9976, 10.002174 
2.3678169e+3, 2.0828655e+2, -842558.1, -745272.1, -18395.057, 0.33932257, 0.60315007, -741910.1, 156885.02, 0.14628568, 9.9992895, 10.001001 
2.367489e+3, 2.182823e+2, -499316.13, -790887.9, -56644.64, 0.13312137, 0.5724151, -488698.22, 312139.1, 0.12553912, 10.002272, 9.99853 
2.3671667e+3, 2.2827238e+2, -358506.25, -949078.3, 114008.18, 0.23290199, 0.42852432, -337261.53, 365681.94, 0.108313076, 10.003888, 9.99589 
2.3668432e+3, 2.382584e+2, -187916.9, -750657.0, 149749.0, 0.16789, -0.06629342, -150549.03, 454542.22, 0.092006706, 10.003953, 9.996658 
2.3665224e+3, 2.4825701e+2, -50737.887, 162503.06, 196766.34, 0.29384708, 0.18608518, 279679.2, 786784.1, 0.07587349, 10.000754, 10.004088 
2.3662083e+3, 2.582581e+2, -800457.7, -600405.2, 234015.8, 0.798873, 0.551957, -445934.6, -36843.605, 0.059167173, 9.996698, 9.999769 
2.3658806e+3, 2.682539e+2, 56524.72, 430460.47, -62753.277, 0.4781035, 0.37373513, 440710.66, 751840.0, 0.040480375, 9.999646, 10.00485 
2.3655547e+3, 2.7824727e+2, 17374.186, -206809.6, 64875.87, -0.08451742, -0.18976198, 34794.727, 247985.7, 0.022792934, 10.001771, 9.998554 
2.3652308e+3, 2.8824311e+2, 277385.1, -68514.49, -257971.95, 0.10408259, 0.05261641, 415017.28, 530243.9, 0.018051371, 10.00327, 9.9979725 
2.3649116e+3, 2.982429e+2, -235135.53, -137860.78, 222646.45, 0.47135434, 0.25172317, 41398.836, 58623.145, 0.03863387, 9.998505, 9.999614 
2.364596e+3, 3.0823597e+2, -604109.0, 154181.8, 154075.14, -0.19885884, -0.12903908, 184292.3, 184292.3, 0.08556605, 9.9943285, 10.003523 
2.3797427e+3, 1.4863001e+2, -1002540.9, -1444199.4, 154693.33, 0.28402242, 0.13517024, -953748.94, 529687.9, 0.38968349, 10.0064, 9.996669 
2.379408e+3, 1.586193e+2, -1733394.3, -1798130.5, -124600.375, -0.5081752, -0.32151926, -1637026.4, -251499.11, 0.27836236, 9.998195, 9.997538 
2.3790914e+3, 1.6861647e+2, -1202511.4, -788198.8, 167230.23, -0.21962845, -0.31309742, -729122.75, 558427.06, 0.19862524, 9.997979, 10.004574 
2.3787776e+3, 1.7861761e+2, -1230158.3, -1112608.0, 188395.61, 0.13176532, -0.22589658, -974032.1, 215504.88, 0.1461588, 9.998837, 10.0007515 
2.378454e+3, 1.8861404e+2, -1239087.6, -1218223.5, 93935.11, -0.0126821315, -0.012817123, -1134143.0, -42568.34, 0.11113541, 9.998946, 9.998999 
2.3781306e+3, 1.9860777e+2, -1454696.6, -1372451.1, -13341.865, -0.056053456, -0.12453797, -1370340.9, -376701.7, 0.08556882, 9.996963, 9.998401 
2.3778108e+3, 2.08603e+2, -983673.56, -821493.8, 12390.262, 0.19831353, -0.10635566, -820552.7, 75133.42, 0.065839775, 9.998513, 10.000642 
2.3774883e+3, 2.1859767e+2, -954201.25, -1095721.8, -6565.168, 0.19193788, -0.22986196, -953897.3, -156158.9, 0.050802168, 9.999316, 9.9978075 
2.3771656e+3, 2.2859329e+2, -646235.5, -879533.1, 79905.99, 0.12736017, 0.04922811, -621491.56, 78300.03, 0.03888462, 10.00088, 9.997735 
2.3768455e+3, 2.3858842e+2, -651297.2, -921351.6, 68164.45, 0.29966646, 0.2855363, -635067.2, -33216.28, 0.028499532, 10.000389, 9.997154 
2.3765181e+3, 2.4858363e+2, -271541.03, -18818.242, -23609.838, 0.13002107, 0.20078363, -16631.488, 487260.9, 0.019239584, 9.999649, 10.002964 
2.3761931e+3, 2.5857767e+2, -1040986.9, -843009.1, 106079.09, -0.08547935, -0.08537094, -796906.4, -390964.6, 0.01143259, 9.995801, 9.998485 
2.3758723e+3, 2.6857367e+2, -347265.94, -275058.13, -44557.703, 0.08589084, 0.072150454, -253813.27, 54169.066, 0.005417436, 9.999301, 9.999873 
2.3755544e+3, 2.7856866e+2, -289689.63, -559841.7, -55157.75, 0.12237926, 0.048692346, -278861.88, -68826.69, 0.0017240121, 10.000568, 9.996718 
2.3752287e+3, 2.8855944e+2, 300058.03, -67290.03, -354289.7, -0.014695209, -0.11312621, 515454.56, 627580.56, 0.0009965353, 10.003394, 9.997965 
2.3749086e+3, 2.9855636e+2, 19420.895, -132732.8, -4644.4814, 0.1658366, -0.08504771, 19562.535, 33717.59, 0.0037784507, 10.000687, 9.99867 
2.374594e+3, 3.0855367e+2, -37074.68, 366115.3, 91062.16, -0.24945806, 0.2263187, 385728.06, 385728.06, 0.011109938, 9.9983835, 10.003086 
2.3900564e+3, 1.3895547e+2, -2599721.5, -2568444.0, 332522.38, 0.0548693, 0.116318755, -2251193.0, -672958.75, 0.42782918, 9.994679, 9.994993 
2.3897363e+3, 1.4895311e+2, -1972147.1, -1736043.3, -418617.06, 0.16474362, 0.49137583, -1419151.0, 61112.688, 0.29985446, 9.996304, 9.999586 
2.389404e+3, 1.5894277e+2, -1264948.3, -1440480.9, -95086.336, -0.49073988, -0.038514957, -1223314.6, 159047.11, 0.19614406, 10.000844, 9.998878 
2.3890872e+3, 1.6893856e+2, -953042.7, -839987.94, 8350.548, -0.20321189, -0.103569165, -839374.44, 445025.1, 0.12585048, 10.000676, 10.002649 
2.3887734e+3, 1.7893626e+2, -1180091.6, -1104987.5, -190378.89, 0.26646027, -0.14340007, -948492.44, 237926.5, 0.083471425, 9.999105, 10.000662 
2.3884507e+3, 1.8893173e+2, -936267.3, -981072.9, -229783.58, 0.13917188, -0.13071814, -727797.0, 360665.97, 0.057587944, 10.000609, 9.999937 
2.388126e+3, 1.9892582e+2, -644622.25, -925055.9, -174411.67, -0.09884815, -0.24528494, -561053.06, 429468.63, 0.03970386, 10.002203, 9.999014 
2.3878044e+3, 2.0892087e+2, -586008.06, -679220.2, -186971.45, 0.010733497, -0.2560735, -439921.5, 452650.2, 0.026570952, 10.001372, 10.000309 
2.3874834e+3, 2.189161e+2, -760723.1, -868318.7, -181758.02, 0.18759216, -0.2782947, -624968.3, 169651.75, 0.017417854, 10.000001, 9.999061 
2.3871626e+3, 2.2891416e+2, -631810.75, -609904.3, -78552.37, 0.29178149, 0.032383353, -541545.2, 155099.66, 0.011141793, 9.999843, 10.000107 
2.3868422e+3, 2.3891157e+2, -585982.8, -727409.2, -37248.543, 0.4137623, 0.31192672, -576772.25, 21903.938, 0.0065593217, 10.000147, 9.998566 
2.3865137e+3, 2.4890453e+2, -57481.055, -155574.63, -190490.83, 0.08108898, 0.08594673, 90175.85, 590917.4, 0.0032030866, 10.002068, 10.000827 
2.3861866e+3, 2.5889635e+2, -59170.37, -454608.97, -104000.85, -0.27425325, -0.24670477, -33486.227, 369329.2, 0.0011282732, 10.002856, 9.997729 
2.385868e+3, 2.6889277e+2, -85120.3, -330189.13, -66020.21, 0.034871172, 0.06305348, -68466.52, 236386.06, 0.00023273825, 10.001816, 9.998305 
2.3855527e+3, 2.7888852e+2, -478593.25, -596439.8, 35064.94, 0.4030743, 0.25207016, -468949.03, -262050.73, 0.000018977813, 9.998908, 9.997268 
2.385226e+3, 2.8887802e+2, -128992.09, -210139.03, -122399.49, 0.046836928, -0.11633423, -40616.57, 68385.75, 0.000039610317, 10.000131, 9.998515 
2.3849048e+3, 2.988733e+2, -270758.0, -506514.66, 105572.74, 0.23889518, -0.10241928, -230393.16, -219344.66, 0.00031053094, 9.999661, 9.996536 
2.3845915e+3, 3.0886942e+2, -165003.97, 186690.67, -216685.3, 0.21556562, 0.28132123, 289903.9, 289903.9, 0.0010092406, 9.998239, 10.001654 
2.4003693e+3, 1.2925819e+2, -888761.44, -1024837.06, 22717.348, 0.020191519, -0.57001996, -885069.06, 788193.56, 0.4904386, 10.008433, 10.003573 
2.4000554e+3, 1.3926439e+2, -1916727.6, -1551495.6, -134740.25, 0.6758706, -0.08379104, -1507167.8, 68042.07, 0.36336115, 9.99645, 10.001503 
2.3997305e+3, 1.4926626e+2, -1485810.3, -1059425.4, -58280.137, 0.38690603, 0.20006956, -1051603.0, 425593.2, 0.24041095, 9.997487, 10.004246 
2.3994026e+3, 1.5926588e+2, -1398891.4, -1352762.0, -30386.02, -0.23750596, 0.20874475, -1337678.4, 41524.65, 0.14389461, 9.99929, 10.000081 
2.3990843e+3, 1.6926037e+2, -1282734.1, -1340641.1, 22089.38, -0.07090371, 0.20615159, -1275269.9, 5986.018, 0.08188297, 9.999972, 9.999038 
2.398768e+3, 1.7925303e+2, -1413290.6, -1433399.1, -92867.14, 0.28548306, 0.0062208655, -1329935.1, -146609.63, 0.047678713, 9.998531, 9.998606 
2.398447e+3, 1.8924896e+2, -916790.6, -733801.75, -53254.832, 0.21688588, -0.02564182, -719431.6, 365929.06, 0.028905774, 9.999795, 10.001972 
2.3981243e+3, 1.9924572e+2, -975981.75, -1051571.1, -104001.7, 0.033778463, -0.05654736, -903120.3, 84268.22, 0.017015342, 9.999903, 9.999191 
2.3978008e+3, 2.0924084e+2, -793597.1, -819888.44, -187273.94, 0.042421024, -0.029375391, -619008.06, 270431.84, 0.00915297, 10.000297, 9.999763 
2.3974785e+3, 2.1923555e+2, -954073.2, -946436.8, -183281.28, 0.20470758, -0.070668854, -766933.94, 24562.125, 0.0045936005, 9.998798, 9.999083 
2.3971573e+3, 2.2923389e+2, -543520.75, -303365.6, -80983.62, 0.2908816, 0.08219876, -278608.88, 414902.06, 0.0022051786, 9.999432, 10.002366 
2.396836e+3, 2.3923117e+2, -815722.56, -830672.6, -60744.95, 0.25620997, 0.13453512, -761994.44, -166458.77, 0.0009056362, 9.998656, 9.998574 
2.3965107e+3, 2.4922405e+2, -362717.0, -516761.2, -163859.44, 0.08100324, 0.024715777, -258680.22, 238927.92, 0.00023937336, 10.001128, 9.998673 
2.3961867e+3, 2.5921586e+2, -403993.72, -758721.25, -134074.39, -0.08934492, -0.15276712, -359020.25, 40670.83, 0.000025130046, 10.001176, 9.996458 
2.3958662e+3, 2.692129e+2, -7396.313, -135227.14, -134831.5, 0.14526768, 0.16944419, 77901.92, 379622.16, 0.00000030344088, 10.001762, 9.999645 
2.3955473e+3, 2.7921063e+2, -442948.63, -417079.56, -31039.018, 0.3415548, 0.36835098, -396387.88, -192646.14, 0.0000000068303647, 9.998511, 9.998718 
2.3952222e+3, 2.8920215e+2, -103150.85, -98360.5, -26677.46, 0.06911671, 0.0805977, -73970.91, 31852.035, 0.0000039429096, 9.999988, 9.999322 
2.3948994e+3, 2.9919568e+2, -522758.1, -883356.6, 167459.69, -0.18461059, 0.0066532535, -456987.1, -449102.22, 0.00006190627, 9.999069, 9.994228 
2.3945893e+3, 3.0918518e+2, -119947.29, -32406.023, 118971.42, 0.19645813, -0.07725055, 50591.117, 50591.117, 0.0002690841, 9.9992895, 9.999697 
2.4103689e+3, 1.2959293e+2, -1450505.8, -1422814.0, 57980.9, -0.011327005, 0.113822885, -1377048.8, 292937.6, 0.44510007, 10.00118, 10.001895 
2.4100454e+3, 1.3959041e+2, -1527470.8, -1529170.0, 51822.824, 0.18110767, 0.10696384, -1476490.6, 95527.94, 0.31930807, 9.999678, 10.000247 
2.4097238e+3, 1.4958745e+2, -1250609.1, -1129350.6, 49109.09, 0.2144165, 0.12818523, -1111956.8, 362091.78, 0.20041417, 10.000379, 10.002156 
2.4094018e+3, 1.5958346e+2, -1209008.1, -1274717.4, -21176.328, 0.07149965, -0.007815111, -1202774.9, 173312.7, 0.110025235, 10.000655, 10.000049 
2.4090818e+3, 1.6957933e+2, -1058424.9, -1121549.6, 44606.426, 0.080195054, 0.055852402, -1035343.7, 242783.98, 0.054970514, 10.001023, 10.000154 
2.408762e+3, 1.7957464e+2, -1005200.06, -1077903.6, 82734.68, 0.10568451, 0.053146716, -951183.25, 228989.27, 0.027314784, 10.000539, 10.000126 
2.4084404e+3, 1.8957105e+2, -788565.06, -633090.56, 116078.45, 0.0296556, 0.002517195, -571123.5, 511078.38, 0.013986388, 10.000355, 10.002449 
2.4081187e+3, 1.9956736e+2, -923295.94, -978013.44, 66021.53, -0.08050072, -0.06286993, -879189.0, 105044.02, 0.006556314, 9.9999075, 9.999733 
2.4077971e+3, 2.0956272e+2, -667767.4, -842408.1, -29191.172, 0.054982558, 0.04054466, -663017.3, 223267.75, 0.002469395, 10.001459, 9.9990835 
2.4074754e+3, 2.1955757e+2, -343651.28, -699647.4, -30905.564, 0.20802732, 0.12793705, -340988.16, 447354.5, 0.00078321603, 10.003001, 9.998801 
2.4071528e+3, 2.2955287e+2, -202316.55, -298230.97, -105909.164, 0.20132294, 0.07769831, -134012.64, 556374.0, 0.00023610769, 10.002218, 10.00115 
2.4068306e+3, 2.3954777e+2, -481651.8, -665032.6, -180464.64, 0.15949686, -0.006633125, -370920.34, 221513.03, 0.000047296035, 10.00071, 9.998774 
2.4065065e+3, 2.495423e+2, -522676.16, -556125.3, -199836.05, 0.10556654, 0.015553081, -338866.06, 155623.92, 0.0000020598873, 9.9998255, 9.99906 
2.4061838e+3, 2.5953636e+2, -637927.1, -719696.5, -45113.715, 0.08231399, 0.01904217, -617928.3, -221376.34, 0.0, 9.998846, 9.997852 
2.4058633e+3, 2.6953194e+2, -74416.57, -142978.98, -58050.254, 0.1896836, 0.14771903, -41280.918, 257312.69, 0.0, 10.001162, 9.999908 
2.4055432e+3, 2.7952823e+2, 193799.63, -40976.14, -108064.06, 0.3126148, 0.21052466, 235966.61, 436593.72, 0.0, 10.002472, 9.999405 
2.4052192e+3, 2.8952155e+2, 211571.39, 89630.016, -187818.28, 0.17271118, 0.030033508, 348067.5, 450757.63, 0.00000028208012, 10.001885, 9.999739 
2.4048977e+3, 2.995166e+2, -472724.22, -773801.06, 112228.8, 0.14974362, 0.098502815, -435493.84, -430757.3, 0.000017512673, 9.998937, 9.99507 
2.4045874e+3, 3.0950347e+2, 80283.89, 83237.77, 108240.32, 0.39622456, -0.28892854, 190011.23, 190011.23, 0.0001005609, 10.000622, 9.999881 
2.4203674e+3, 1.2991762e+2, -1880898.8, -1788148.6, -121475.375, 0.2663565, -0.037353925, -1704497.1, -37692.24, 0.41411307, 9.998273, 9.999289 
2.4200362e+3, 1.3991731e+2, -1821037.6, -2064207.9, -123152.03, -0.23839177, 0.34715044, -1769563.9, -200745.56, 0.28877336, 9.99936, 9.996525 
2.4197185e+3, 1.4990951e+2, -1382581.9, -1415996.6, 53182.715, 0.12032288, 0.1328678, -1343544.0, 127347.49, 0.17287979, 10.000449, 9.999637 
2.4194019e+3, 1.5990074e+2, -1378609.5, -1529115.3, 13526.282, 0.47170576, -0.25746265, -1377403.5, -4430.546, 0.08747846, 10.000114, 9.998523 
2.4190794e+3, 1.6989854e+2, -1019965.9, -897759.44, 46479.434, 0.23994406, -0.10864961, -882090.6, 392903.88, 0.038149297, 10.0004635, 10.001909 
2.418756e+3, 1.7989741e+2, -1197041.0, -1107724.9, 27991.063, -0.032192808, 0.06671116, -1099677.6, 77327.734, 0.01570925, 9.999065, 10.000551 
2.4184339e+3, 1.8989386e+2, -859665.5, -656199.9, 42009.68, -0.15826543, -0.025922826, -647867.3, 431166.63, 0.0064830934, 9.9999075, 10.002403 
2.4181126e+3, 1.9988936e+2, -1159780.9, -1227802.6, -372.59055, -0.18240213, -0.16547449, -1159778.9, -178705.78, 0.0021827125, 9.998989, 9.99843 
2.4177927e+3, 2.0988493e+2, -836509.6, -1031623.94, -9200.471, 0.001212702, 0.043014586, -836076.75, 47048.594, 0.00044835047, 10.000821, 9.998046 
2.4174729e+3, 2.1987994e+2, -832362.75, -1181472.1, -56165.06, 0.16647282, 0.23905297, -823549.4, -38365.31, 0.000068581576, 10.000869, 9.996484 
2.4171486e+3, 2.2987197e+2, -516952.78, -699081.3, -157683.64, 0.08146766, 0.08515173, -425926.88, 261335.66, 0.0000096515805, 10.001395, 9.998668 
2.416825e+3, 2.3986386e+2, -776336.2, -926896.9, -223606.47, 0.020969609, -0.11259557, -615678.0, -26337.322, 0.00000040342232, 9.999406, 9.99756 
2.4165007e+3, 2.498612e+2, -415906.66, -313551.94, -227711.3, 0.054154545, 0.082158536, -131337.88, 360028.75, 0.0, 9.999846, 10.000657 
2.416178e+3, 2.5985837e+2, -745046.25, -737205.2, -64749.336, 0.05232323, 0.23373029, -676257.8, -282863.75, 0.0, 9.998074, 9.998114 
2.4158584e+3, 2.6985076e+2, -203282.25, -259884.88, 26558.646, 0.07072342, 0.045053635, -192772.16, 102693.45, 0.0, 10.000655, 9.999274 
2.415539e+3, 2.7984276e+2, -143661.52, -410493.06, -105058.48, 0.0415429, -0.22042216, -107262.54, 90278.3, 0.0, 10.001138, 9.997507 
2.4152166e+3, 2.8983694e+2, 127302.414, 43468.47, -241144.2, 0.16224077, -0.2391987, 330145.66, 429742.0, 0.0000000009564638, 10.001485, 9.999544 
2.4148975e+3, 2.9983374e+2, -516523.34, -597686.56, 125665.24, 0.342249, -0.064830735, -425049.6, -423422.66, 0.0000015325257, 9.997913, 9.996765 
2.4145795e+3, 3.0983004e+2, 189719.77, 292895.8, 181880.86, -0.30781284, 0.1505826, 430363.28, 430363.28, 0.000021924814, 10.000627, 10.001379 
2.4303596e+3, 1.3023621e+2, -1806809.0, -1748895.5, -191347.7, 0.026340926, -0.14731354, -1584326.0, 79361.19, 0.3927152, 9.998677, 9.9996605 
2.4300374e+3, 1.4023475e+2, -1415733.5, -1607362.4, -103145.35, 0.17712109, 0.15475908, -1370766.6, 194940.39, 0.26710206, 10.001388, 9.998804 
2.4297167e+3, 1.5022963e+2, -1067887.4, -1124836.9, 29570.467, 0.23692606, 0.034074605, -1055310.6, 412440.84, 0.15331793, 10.00212, 10.001301 
2.4293965e+3, 1.6022383e+2, -1128136.1, -1294378.1, 77135.79, 0.24820808, -0.15238334, -1097859.5, 271942.75, 0.07196278, 10.001349, 9.999623 
2.4290738e+3, 1.7022042e+2, -1035787.44, -1031533.75, 22286.682, 0.08588178, -0.059362303, -1011272.7, 260565.27, 0.027363949, 10.000827, 10.00079 
2.4287507e+3, 1.8021709e+2, -1093838.5, -1123149.5, -36895.9, -0.11840479, 0.018871818, -1068794.0, 105078.805, 0.009079448, 9.999928, 10.000028 
2.4284305e+3, 1.9021346e+2, -784876.2, -725450.4, -65005.7, -0.09328456, 0.0064288005, -683688.8, 392215.66, 0.002868925, 10.000788, 10.001533 
2.4281104e+3, 2.0020929e+2, -773294.1, -991969.2, -122851.1, -0.042533617, -0.022618515, -718171.6, 259770.06, 0.00059867656, 10.001284, 9.99898 
2.4277896e+3, 2.1020336e+2, -723214.4, -922347.25, -99392.266, 0.055442102, -0.027420636, -682095.7, 197908.47, 0.000045539302, 10.001183, 9.998712 
2.427469e+3, 2.2019733e+2, -751170.8, -1016195.1, -67291.48, 0.13664776, 0.009841379, -735063.94, 47004.65, 0.0000022398012, 10.000745, 9.997698 
2.4271455e+3, 2.3019144e+2, -455801.72, -645252.8, -65469.203, 0.09811927, 0.024762044, -435378.9, 248749.34, 0.000000052409952, 10.001642, 9.998963 
2.426822e+3, 2.4018526e+2, -290125.06, -623194.75, -43471.676, 0.07051567, 0.02305199, -284544.72, 301644.9, 0.0, 10.002367, 9.998218 
2.4264975e+3, 2.5018033e+2, -32667.43, -236848.0, -150656.64, 0.052371703, 0.067088865, 47230.883, 535468.25, 0.0, 10.002818, 9.999823 
2.4261741e+3, 2.6017556e+2, -55050.1, -353932.9, -106971.37, 0.06372925, 0.11133372, -20710.092, 369573.03, 0.0, 10.002429, 9.998664 
2.4258545e+3, 2.7016905e+2, -152256.31, -233176.47, -31497.217, 0.07449685, -0.0010378715, -141441.7, 150904.25, 0.0, 10.000851, 9.999405 
2.4255359e+3, 2.801621e+2, -406028.7, -492236.0, -80111.36, 0.14861268, -0.14434254, -358161.2, -163748.7, 0.0, 9.9990015, 9.998003 
2.425214e+3, 2.9015595e+2, 188312.83, 39720.3, -178977.97, 0.23281005, -0.18217827, 307802.66, 404274.78, 0.0, 10.001847, 9.99945 
2.4248947e+3, 3.001517e+2, 234335.36, -67406.766, 111969.75, 0.43352133, -0.11830587, 271345.38, 271345.38, 0.000000086511356, 10.002182, 9.998404 
2.4245769e+3, 3.1015283e+2, -313475.25, 87772.89, -323657.63, -0.037478995, 0.48827264, 267943.1, 267943.1, 0.0000026170453, 9.996809, 10.001897 
2.4406804e+3, 1.2056279e+2, -2196742.5, -2340174.8, -80745.164, 0.3201446, 0.13258494, -2160463.3, -401985.25, 0.49458465, 9.998266, 9.996188 
2.4403527e+3, 1.3055538e+2, -1548846.8, -1561032.8, -20968.469, -0.13069336, -0.11238611, -1533104.0, 127458.98, 0.3775347, 10.000844, 10.000069 
2.4400395e+3, 1.4055133e+2, -1578364.0, -1579368.0, -486.75656, 0.7841245, -0.108576484, -1578166.8, -15563.684, 0.25111946, 9.999524, 9.999755 
2.4397151e+3, 1.5054984e+2, -1105754.8, -980127.5, 26787.74, 0.38601062, -0.037085395, -974654.0, 489956.25, 0.13882844, 10.001099, 10.002805 
2.4393906e+3, 1.6054764e+2, -1292479.4, -1434419.6, -35949.2, 0.012190608, 0.031924155, -1283893.9, 82731.8, 0.060861234, 10.000549, 9.998953 
2.4390681e+3, 1.7054197e+2, -1158580.5, -1263776.4, -70074.83, -0.057075493, -0.0027193904, -1123559.8, 145125.73, 0.02025213, 10.000826, 9.999093 
2.4387464e+3, 1.80536e+2, -1300992.0, -1439404.4, -71776.4, -0.07173845, -0.02834726, -1270491.9, -99743.12, 0.0052852775, 9.999556, 9.998039 
2.4384278e+3, 1.905325e+2, -913559.2, -916478.44, -51107.715, 0.05897436, 0.08277024, -863890.25, 208891.92, 0.0012089658, 10.000569, 10.00029 
2.438109e+3, 2.005287e+2, -1018040.06, -1146739.3, -125068.14, 0.22824931, 0.18543805, -941737.94, 33079.758, 0.00012403581, 9.999961, 9.998507 
2.4377866e+3, 2.1052109e+2, -762813.6, -772824.9, -129215.46, 0.16014665, -0.115223125, -638506.9, 238383.23, 0.000001917801, 10.000387, 9.999996 
2.4374643e+3, 2.2051378e+2, -973172.2, -1069131.0, -92421.33, 0.11242712, -0.3321131, -917018.4, -138057.77, 0.000000018702426, 9.999152, 9.998041 
2.4371423e+3, 2.305119e+2, -454378.22, -511043.97, -70843.51, 0.13053638, -0.040109117, -406411.97, 274569.72, 0.0, 10.001136, 10.000068 
2.4368201e+3, 2.4050902e+2, -599806.3, -903619.5, -91326.74, 0.12513117, 0.20316626, -574466.8, 8545.8125, 0.0, 10.000919, 9.996976 
2.4364948e+3, 2.5049952e+2, -306252.22, -604739.4, -167024.95, 0.03694879, -0.038352165, -231507.02, 253598.8, 0.0, 10.002113, 9.997578 
2.4361707e+3, 2.6049048e+2, -400786.44, -709393.0, -149383.7, -0.051180918, -0.22223575, -340322.4, 46872.44, 0.0, 10.001011, 9.996888 
2.4358507e+3, 2.7048808e+2, -198828.69, -222120.52, -103449.92, 0.071664155, 0.08446331, -106371.23, 182849.56, 0.0, 10.000477, 9.99963 
2.4355318e+3, 2.804854e+2, -549516.1, -566368.1, -86125.664, 0.24019398, 0.32874265, -471405.28, -280155.7, 0.0, 9.99814, 9.99792 
2.4352112e+3, 2.9047796e+2, 83202.484, -18289.143, -50207.098, 0.20199597, 0.12564729, 103842.17, 197164.95, 0.0, 10.001264, 9.999306 
2.4348901e+3, 3.0047086e+2, -102883.54, -350588.7, 29568.484, -0.008160796, -0.03147834, -99402.87, -99402.87, 0.0, 10.000489, 9.99728 
2.4345742e+3, 3.1046575e+2, -515167.44, -75672.164, -157452.33, 0.21741256, -0.0702005, -25086.191, -25086.191, 0.00000012758136, 9.995842, 10.001166 
2.450677e+3, 1.2088119e+2, -1599463.3, -1955547.3, 133629.11, 0.042167433, -0.35773045, -1554894.3, 200471.36, 0.48542795, 10.003056, 9.996866 
2.4503519e+3, 1.3088273e+2, -1285899.5, -1420558.0, -33274.246, -0.038994912, 0.28602597, -1278126.1, 379228.66, 0.3659335, 10.003323, 10.0005045 
2.4500322e+3, 1.408736e+2, -1513277.8, -1618082.0, 83564.91, 0.44041666, -0.19304986, -1467043.8, 92397.51, 0.23856215, 10.000295, 9.999211 
2.4497095e+3, 1.5087046e+2, -1192048.4, -1247414.4, 72308.164, 0.14401571, -0.07590413, -1142305.1, 319164.5, 0.1275105, 10.001371, 10.000589 
2.449387e+3, 1.6086699e+2, -1128063.3, -1420800.9, -86249.484, -0.115494885, 0.06204105, -1104541.5, 258960.33, 0.052560914, 10.001892, 9.998428 
2.4490651e+3, 1.7086074e+2, -969391.7, -1216697.5, -132214.06, -0.0647251, 0.012185661, -912018.06, 353547.7, 0.01541553, 10.002163, 9.998859 
2.4487436e+3, 1.808544e+2, -942929.6, -1208799.4, -89465.875, -0.014902133, -0.023175143, -915627.75, 252002.1, 0.0031067657, 10.0016365, 9.998658 
2.4484248e+3, 1.9084983e+2, -768589.5, -871617.0, -33915.406, 0.12084866, -0.013398931, -758427.3, 311244.1, 0.00048131414, 10.001531, 10.00023 
2.4481057e+3, 2.0084514e+2, -814159.06, -988964.9, -78149.88, 0.24279475, 0.017468067, -784315.75, 187398.83, 0.000015932997, 10.000967, 9.999113 
2.4477825e+3, 2.1083972e+2, -726608.56, -755095.94, -161207.84, 0.15490282, -0.06258147, -579016.4, 294752.75, 0.0000000054715246, 10.000562, 10.000077 
2.4474593e+3, 2.2083418e+2, -760709.56, -918202.3, -133134.34, 0.054779537, -0.09512146, -684776.44, 91048.69, 0.0, 10.000244, 9.99858 
2.447138e+3, 2.3083034e+2, -440081.53, -584884.06, -177973.48, 0.03558324, 0.041585356, -320346.1, 357520.6, 0.0, 10.001461, 9.999468 
2.4468164e+3, 2.4082617e+2, -335662.28, -701849.8, -300850.44, 0.025781045, 0.19301364, -166571.02, 413339.28, 0.0, 10.002203, 9.997798 
2.4464917e+3, 2.5081816e+2, -330968.25, -554729.4, -278595.78, 0.036018755, 0.02893614, -142627.44, 339358.6, 0.0, 10.001478, 9.998337 
2.4461679e+3, 2.608104e+2, -397857.94, -603128.7, -117216.79, 0.041592073, -0.08672858, -344692.8, 39367.01, 0.0, 10.000419, 9.997951 
2.4458474e+3, 2.7080634e+2, -124825.87, -213165.64, -94340.55, 0.14610958, 0.054150537, -64827.06, 221273.67, 0.0, 10.000989, 9.999501 
2.4455278e+3, 2.8080288e+2, -55851.75, -273362.53, -76721.64, 0.31352758, 0.23756702, -31513.393, 156623.58, 0.0, 10.00111, 9.998531 
2.4452071e+3, 2.907973e+2, -99963.01, -108011.24, -66464.695, 0.21204315, 0.20711116, -37400.72, 52794.004, 0.0, 9.999799, 9.999472 
2.4448863e+3, 3.007912e+2, -458070.2, -476608.88, 11800.432, 0.06379411, 0.14900182, -452333.8, -452333.8, 0.0, 9.997651, 9.997823 
2.44457e+3, 3.10783e+2, 257795.02, 384606.8, -127130.21, 0.3682087, -0.13335139, 463265.7, 463265.7, 0.000000000000427524, 10.000575, 10.002107 
2.4606758e+3, 1.2120475e+2, -1888253.1, -1951144.8, 248798.8, 0.10515655, -0.17099673, -1668920.8, 83280.43, 0.47724345, 9.999391, 9.998771 
2.4603517e+3, 1.3120952e+2, -1435790.4, -1442927.6, -189313.23, 0.18307322, 0.66163665, -1250012.1, 404139.94, 0.3557266, 10.001426, 10.001098 
2.4600244e+3, 1.411963e+2, -1575019.4, -1829100.8, -54220.883, 0.07672677, -0.20872617, -1563932.4, -7655.9624, 0.22774403, 10.000626, 9.997534 
2.4597041e+3, 1.5119082e+2, -1381872.5, -1600818.0, 36734.734, -0.039994538, -0.11385428, -1375873.6, 82459.46, 0.11809006, 10.00128, 9.997914 
2.4593845e+3, 1.6118562e+2, -1411125.3, -1735156.5, -108065.9, -0.055727605, 0.08812327, -1378391.5, -18004.838, 0.04605504, 10.000745, 9.996779 
2.459063e+3, 1.7117952e+2, -1052248.6, -1251752.9, -142900.97, 0.015447375, 0.05298811, -977727.5, 284719.03, 0.012013259, 10.001667, 9.998804 
2.4587417e+3, 1.8117344e+2, -1115455.1, -1324325.9, -115244.164, 0.107515536, 0.043831345, -1064365.8, 100138.84, 0.0018483637, 10.000737, 9.998266 
2.4584216e+3, 1.9116694e+2, -900841.94, -914103.1, -66400.03, 0.16703737, -0.17872179, -840742.25, 225819.23, 0.00018026956, 10.000616, 10.000321 
2.4581014e+3, 2.0116116e+2, -1198866.6, -1273524.3, -125211.71, 0.21131662, -0.24750802, -1105537.8, -136923.97, 0.0000007906511, 9.998917, 9.998134 
2.4577774e+3, 2.1115889e+2, -899402.75, -912205.0, -183671.45, 0.10214629, 0.035925727, -722020.9, 148623.06, 0.0, 9.999812, 9.999343 
2.4574539e+3, 2.211555e+2, -1092613.0, -1253889.1, -119441.45, -0.014942332, 0.31426564, -1029137.4, -256451.9, 0.0, 9.998956, 9.996866 
2.4571328e+3, 2.3114765e+2, -697161.25, -836547.75, -109428.375, -0.12035585, 0.1673878, -637117.4, 37650.293, 0.0, 10.000523, 9.998075 
2.4568118e+3, 2.4114065e+2, -637091.75, -820516.1, -282060.13, -0.15896317, 0.12540412, -432208.2, 144630.53, 0.0, 10.000216, 9.997895 
2.4564879e+3, 2.5113738e+2, -271486.56, -278286.28, -309261.44, 0.0010690485, 0.22688085, 34393.7, 513257.66, 0.0, 10.000882, 10.000484 
2.4561645e+3, 2.6113296e+2, -574018.75, -679966.56, -143917.75, 0.12816767, 0.2807691, -473635.03, -92734.9, 0.0, 9.999296, 9.997939 
2.4558443e+3, 2.7112335e+2, -229668.73, -310170.1, -69049.59, 0.20515992, -0.13199219, -189994.67, 92996.05, 0.0, 10.000571, 9.998985 
2.4555239e+3, 2.8111574e+2, -302916.5, -471812.78, -97818.516, 0.22908278, -0.2958219, -258136.34, -73072.18, 0.0, 9.99991, 9.997723 
2.4552011e+3, 2.911149e+2, -209051.14, -161413.52, -123510.91, 0.09317323, 0.124008164, -59445.688, 27634.1, 0.0, 9.9991665, 9.999362 
2.4548821e+3, 3.0111128e+2, -826796.94, -774750.2, 20038.73, 0.18323293, 0.38620415, -767928.94, -767928.94, 0.0, 9.99582, 9.996625 
2.4545644e+3, 3.1110287e+2, 70893.9, 408945.4, 146138.4, -0.014214558, 0.031281997, 463361.22, 463361.22, 0.0, 9.999074, 10.002888 
2.4706684e+3, 1.21524535e+2, -1872153.4, -1800685.4, 155028.11, -0.20232736, 0.03729333, -1677326.3, 71746.89, 0.46785307, 9.998586, 10.000239 
2.4703501e+3, 1.3152783e+2, -1444071.3, -1439854.5, -208987.17, 0.37903205, 0.70807374, -1232965.1, 418072.47, 0.34520847, 10.00115, 10.001256 
2.47002e+3, 1.415155e+2, -1357222.3, -1689253.8, -129469.484, -0.16303077, -0.07997317, -1312706.4, 240448.64, 0.21743059, 10.002341, 9.997737 
2.4697009e+3, 1.5150975e+2, -1264638.9, -1551457.1, -40797.39, -0.10440842, -0.0032050475, -1258948.8, 196265.64, 0.109704144, 10.002189, 9.997825 
2.4693826e+3, 1.6150458e+2, -1207673.4, -1516697.6, -81590.58, 0.03097411, 0.18296008, -1187454.3, 169813.5, 0.040704507, 10.001606, 9.997868 
2.4690618e+3, 1.7149898e+2, -881468.3, -1118187.3, -102234.67, 0.13775903, 0.15500556, -843428.0, 415893.38, 0.00953522, 10.002533, 9.999381 
2.46874e+3, 1.814932e+2, -837973.06, -1113230.9, -118577.42, 0.17066817, 0.14621973, -793936.56, 367438.6, 0.0011160366, 10.002209, 9.999025 
2.4684165e+3, 1.9148658e+2, -977886.4, -974735.1, -133361.97, 0.107648075, -0.0604106, -842939.5, 220493.39, 0.00006263998, 10.0001335, 10.000174 
2.4680938e+3, 2.0148067e+2, -1217573.6, -1200913.0, -116599.34, 0.050234355, -0.1348782, -1092346.8, -126860.86, 0.0000000031066179, 9.998328, 9.998935 
2.4677722e+3, 2.1147722e+2, -814698.25, -862515.8, -106793.086, 0.07678151, 0.02469604, -729170.3, 138354.11, 0.0, 10.000227, 9.999551 
2.4674506e+3, 2.2147322e+2, -641831.44, -910196.44, -30458.906, 0.06637708, 0.21780837, -638417.8, 131150.97, 0.0, 10.001327, 9.998149 
2.4671298e+3, 2.3146637e+2, -677812.9, -765174.25, 40494.355, 0.03321408, 0.11869329, -661930.2, 9708.843, 0.0, 10.000191, 9.998849 
2.4668086e+3, 2.4145971e+2, -656742.1, -742403.44, -29019.723, 0.007373792, 0.07715105, -647836.8, -74131.52, 0.0, 9.999552, 9.998785 
2.4664842e+3, 2.5145507e+2, -170609.88, -258631.7, -158909.4, 0.007943218, 0.07688488, -49729.43, 426015.28, 0.0, 10.001585, 10.000329 
2.4661604e+3, 2.6145005e+2, -22243.188, -368122.13, -113022.766, 0.053098418, 0.09262422, 11414.067, 389202.66, 0.0, 10.002709, 9.998468 
2.4658406e+3, 2.7144217e+2, -105072.29, -279583.34, -83061.87, 0.21499586, -0.12997448, -71858.73, 208006.1, 0.0, 10.001409, 9.998854 
2.46552e+3, 2.814356e+2, -235442.34, -368393.63, -88731.46, 0.2701816, -0.18276209, -191047.42, -9117.891, 0.0, 9.999973, 9.998406 
2.4651961e+3, 2.9143295e+2, 94423.51, -21090.39, -135542.95, 0.062424276, 0.069281444, 184002.1, 267961.9, 0.0, 10.001171, 9.999432 
2.4648787e+3, 3.014278e+2, -30873.826, -367703.34, 78182.91, 0.3823121, 0.20879675, -13611.184, -13611.184, 0.0, 10.001038, 9.996939 
2.4645583e+3, 3.1141907e+2, -31769.283, 302048.72, 32812.28, -0.12709664, -0.0955023, 305243.38, 305243.38, 0.0, 9.998331, 10.002621 
2.480665e+3, 1.2184394e+2, -2023117.6, -1766690.1, 143474.36, 0.030239908, 0.20677435, -1702488.6, 43456.887, 0.45571712, 9.997054, 10.001135 
2.4803476e+3, 1.318442e+2, -1583849.0, -1565680.8, -174135.45, 0.5242416, 0.5809641, -1400392.6, 247548.14, 0.33319858, 10.00028, 10.00044 
2.4800174e+3, 1.4183392e+2, -1508222.6, -1803805.6, -139309.13, -0.1812838, 0.069457866, -1452914.8, 97125.73, 0.20679392, 10.001334, 9.997375 
2.4796985e+3, 1.5182856e+2, -1326127.9, -1538666.0, -78388.98, -0.07765063, 0.12354822, -1300344.1, 151752.13, 0.10179194, 10.001553, 9.99823 
2.4793808e+3, 1.6182353e+2, -1402842.4, -1572330.0, -97886.914, 0.19955084, 0.2834724, -1358112.8, -3965.303, 0.036105353, 10.000203, 9.9981365 
2.4790606e+3, 1.7181845e+2, -1045379.56, -1116388.9, -103133.29, 0.2921959, 0.22605756, -971810.6, 284384.7, 0.0076701324, 10.001227, 9.999949 
2.4787383e+3, 1.818131e+2, -1116089.6, -1317254.8, -196041.75, 0.2874065, 0.250028, -996333.4, 161911.13, 0.000687035, 10.000769, 9.99827 
2.4784109e+3, 1.9180721e+2, -978699.8, -1021717.3, -249556.67, 0.036881626, 0.13501331, -749726.75, 310569.72, 0.000019881356, 10.000485, 9.999597 
2.4780859e+3, 2.018012e+2, -1204217.5, -1227772.5, -141001.77, -0.08053656, 0.09356196, -1074502.3, -112151.805, 0.0, 9.998718, 9.998493 
2.4777673e+3, 2.1179536e+2, -879241.06, -834442.3, -74970.75, 0.07225359, -0.048790894, -778596.25, 85809.38, 0.0, 9.999685, 9.999883 
2.4774483e+3, 2.2179024e+2, -926202.75, -977926.5, -94033.98, 0.22558336, -0.023431014, -854539.1, -88084.74, 0.0, 9.999215, 9.99864 
2.4771276e+3, 2.3178625e+2, -710727.9, -610904.4, -59891.254, 0.2916361, -0.005151995, -582853.7, 85638.2, 0.0, 9.999287, 10.0002985 
2.4768059e+3, 2.4178095e+2, -981982.1, -1015002.25, -59634.715, 0.26772803, 0.0133904945, -936614.25, -366072.03, 0.0, 9.997998, 9.997621 
2.4764802e+3, 2.517717e+2, -424145.2, -547776.06, -97825.94, -0.032584883, -0.33288804, -370240.88, 102388.97, 0.0, 10.000724, 9.998664 
2.4761558e+3, 2.617643e+2, -387797.3, -687896.8, -142067.03, -0.20107123, -0.40332863, -331212.2, 43489.35, 0.0, 10.001002, 9.997068 
2.4758357e+3, 2.7176306e+2, -265170.78, -375135.7, -141446.2, 0.07714647, 0.065314874, -168396.53, 108324.22, 0.0, 10.000548, 9.99857 
2.4755149e+3, 2.817602e+2, -472401.0, -560795.0, -107999.79, 0.18042754, 0.43005782, -399904.7, -221151.17, 0.0, 9.998784, 9.997657 
2.475192e+3, 2.917501e+2, -5042.845, -36581.74, -82006.91, -0.014890507, -0.09337525, 62697.04, 143545.11, 0.0, 10.000499, 9.999585 
2.4748765e+3, 3.017417e+2, -370091.72, -649196.6, 6711.0903, 0.4236169, -0.26785204, -369930.44, -369930.44, 0.0, 9.999342, 9.995817 
2.4745534e+3, 3.117375e+2, -378399.2, -28686.676, -58221.492, -0.19066261, -0.05387491, -19248.46, -19248.46, 0.0, 9.9967165, 10.001138 
2.4906582e+3, 1.2215843e+2, -1731667.6, -1425892.5, 43547.2, -0.08977505, -0.19576928, -1419811.6, 323041.28, 0.43991777, 9.997197, 10.004931 
2.490341e+3, 1.3215762e+2, -1636854.9, -1733623.8, -106073.586, 0.28615862, 0.15892945, -1568651.8, 76209.4, 0.31901658, 10.000412, 9.9989 
2.4900176e+3, 1.421508e+2, -1422992.8, -1707381.1, -126539.836, 0.07081676, 0.095828235, -1374841.3, 172089.67, 0.19536594, 10.001685, 9.997915 
2.4896963e+3, 1.5214573e+2, -1276399.9, -1430515.8, -89055.95, 0.029932408, 0.12917848, -1235691.6, 213292.69, 0.094030365, 10.001419, 9.999119 
2.4893765e+3, 1.6214062e+2, -1286878.9, -1418127.8, -96994.12, 0.11261662, 0.20359054, -1235394.8, 115641.96, 0.032013185, 10.000486, 9.999084 
2.4890557e+3, 1.721358e+2, -1105686.9, -1129338.4, -97716.57, 0.18678066, 0.15904327, -1019083.06, 234000.05, 0.0062260167, 10.000639, 10.000186 
2.4887337e+3, 1.8213075e+2, -1061766.1, -1268795.9, -176065.44, 0.17701356, 0.19879837, -961040.06, 194091.19, 0.00043419475, 10.000899, 9.998559 
2.4884087e+3, 1.9212478e+2, -665067.1, -942817.75, -238993.88, 0.092308685, 0.13268176, -527528.94, 529658.25, 0.0000058323185, 10.0027895, 9.999085 
2.4880847e+3, 2.0211875e+2, -539101.94, -892798.9, -193487.39, 0.043045554, 0.13434693, -453819.22, 505424.53, 0.000000000090419006, 10.003099, 9.998703 
2.4877636e+3, 2.1211264e+2, -731768.75, -803188.44, -187466.44, 0.1435713, -0.0037501922, -576641.3, 284660.47, 0.0, 10.000706, 9.999687 
2.4874426e+3, 2.2210711e+2, -914622.4, -861117.4, -199303.64, 0.19117263, -0.03400827, -686778.75, 76574.63, 0.0, 9.998699, 9.999689 
2.4871208e+3, 2.3210335e+2, -686398.3, -556312.7, -199569.88, 0.15805605, -0.03834423, -411453.8, 253932.48, 0.0, 9.999193, 10.000769 
2.4867988e+3, 2.420988e+2, -654332.25, -748218.7, -187607.73, 0.12766588, 0.003126583, -507883.8, 59544.008, 0.0, 9.999657, 9.998644 
2.4864763e+3, 2.5209135e+2, -493465.38, -575899.9, -164404.63, 0.019364344, -0.20125377, -365190.0, 104310.266, 0.0, 10.00008, 9.998834 
2.4861534e+3, 2.6208463e+2, -444650.78, -632031.44, -184458.61, -0.03657552, -0.22525848, -331452.6, 40113.566, 0.0, 10.00006, 9.997945 
2.4858308e+3, 2.7208188e+2, -363894.38, -406451.38, -174933.67, 0.08561768, 0.06063409, -208949.83, 64646.734, 0.0, 9.999588, 9.998921 
2.4855092e+3, 2.820779e+2, -351880.7, -465846.3, -25882.51, 0.15290925, 0.30035597, -346278.0, -170639.92, 0.0, 9.999261, 9.998131 
2.4851885e+3, 2.920678e+2, 63045.203, -43956.836, -37961.21, 0.0406909, -0.19289726, 75144.586, 152878.66, 0.0, 10.00096, 9.999385 
2.4848731e+3, 3.0206034e+2, -17048.34, -369538.84, -18665.635, 0.4800839, -0.2883308, -16062.684, -16062.684, 0.0, 10.001247, 9.996804 
2.4845478e+3, 3.120586e+2, -232144.73, 13403.99, -165390.5, -0.016305704, 0.19055942, 96609.14, 96609.14, 0.0, 9.997617, 10.001095 
2.500648e+3, 1.22474365e+2, -1611454.8, -1309100.1, 45081.023, -0.44179332, -0.45753768, -1302521.6, 437225.13, 0.42027465, 9.998403, 10.005581 
2.5003356e+3, 1.3247226e+2, -1628596.0, -1841600.8, -40171.75, 0.20124061, -0.14947204, -1621271.6, 20498.57, 0.30251706, 10.001035, 9.997759 
2.500018e+3, 1.424682e+2, -1463273.8, -1734656.0, -99981.2, 0.40529874, 0.15973093, -1430417.1, 113397.88, 0.18302314, 10.001364, 9.997861 
2.4996941e+3, 1.524627e+2, -1296611.8, -1373447.5, -110809.31, 0.16486797, 0.059782095, -1217749.5, 228122.92, 0.08629053, 10.000949, 9.999754 
2.4993716e+3, 1.6245764e+2, -1435767.5, -1502977.3, -120793.46, 0.07846942, 0.10578848, -1343991.5, 3933.2334, 0.028287582, 9.999588, 9.998886 
2.49905e+3, 1.7245303e+2, -1140301.0, -1165793.9, -109871.13, 0.06444181, 0.04149082, -1042439.44, 207531.19, 0.0050760456, 10.000465, 9.999994 
2.4987288e+3, 1.8244798e+2, -1269510.3, -1446863.5, -126718.914, 0.09149535, 0.12445733, -1203522.0, -51501.156, 0.00028139996, 10.000002, 9.99772 
2.4984072e+3, 1.92442e+2, -998119.44, -1121444.9, -141700.52, 0.20108578, 0.06829879, -905246.3, 148833.98, 0.0000014559199, 10.000782, 9.998757 
2.4980849e+3, 2.0243596e+2, -1026671.94, -1223345.1, -179654.86, 0.29378387, 0.13189451, -920201.4, 35938.934, 0.0, 10.000336, 9.997742 
2.49776e+3, 2.124301e+2, -910178.94, -912114.0, -198842.06, 0.2235724, 0.043095443, -712302.06, 145896.25, 0.0, 9.9998, 9.999304 
2.4974354e+3, 2.2242464e+2, -1071788.9, -1011752.5, -150490.78, 0.09451328, 0.08142901, -888315.3, -128064.664, 0.0, 9.9981165, 9.998926 
2.4971116e+3, 2.3241952e+2, -749967.75, -588924.75, -120700.8, -0.17421722, -0.05488257, -524351.8, 137944.05, 0.0, 9.998897, 10.000641 
2.4967898e+3, 2.424155e+2, -856581.75, -819792.25, -143912.11, -0.26225042, 0.038715098, -693104.06, -128771.36, 0.0, 9.998265, 9.998812 
2.4964719e+3, 2.5241324e+2, -548556.56, -476673.4, -125847.82, 0.07489845, 0.24325606, -381735.38, 84621.84, 0.0, 9.999284, 9.999856 
2.4961516e+3, 2.6240894e+2, -605691.75, -645540.4, -204503.17, 0.2511162, 0.37580758, -420144.6, -51745.508, 0.0, 9.99882, 9.998423 
2.4958259e+3, 2.7239898e+2, -363655.38, -308175.13, -176390.2, 0.11033182, -0.16391201, -157357.08, 113131.22, 0.0, 9.999212, 9.999769 
2.4955027e+3, 2.82391e+2, -556486.25, -640475.56, -4622.4893, 0.013097038, -0.34203917, -556232.6, -383669.84, 0.0, 9.998327, 9.997348 
2.4951848e+3, 2.923874e+2, -106708.67, -215819.42, 50394.49, 0.0049713943, -0.138658, -86994.984, -12389.161, 0.0, 10.000274, 9.998489 
2.4948671e+3, 3.0238444e+2, -129584.29, -275391.8, -128813.57, 0.16027908, 0.23026913, -54474.9, -54474.9, 0.0, 9.999999, 9.99802 
2.494542e+3, 3.1238195e+2, -388481.3, 62545.09, -142075.73, -0.07383408, 0.4052491, 103568.414, 103568.414, 0.0, 9.996274, 10.001996 
2.510646e+3, 1.2280162e+2, -1642082.1, -1695050.3, -39029.125, -0.35479206, 0.4522877, -1621399.8, 115144.54, 0.39734322, 10.000549, 9.999986 
2.510334e+3, 1.3278908e+2, -1406864.3, -1608483.1, 41556.727, 0.26350582, -0.2878669, -1398634.6, 240032.42, 0.28406283, 10.002551, 9.998762 
2.5100142e+3, 1.4278652e+2, -1268498.6, -1550071.1, -53658.906, 0.20549917, 0.103936344, -1258619.5, 282073.44, 0.16993596, 10.002534, 9.99856 
2.5096902e+3, 1.5278088e+2, -1228405.6, -1329216.3, -96913.23, 0.11717874, -0.018315459, -1169573.4, 273176.34, 0.078587286, 10.001294, 9.9999485 
2.5093672e+3, 1.6277587e+2, -1314059.9, -1393358.1, -57073.97, 0.04823219, 0.016286118, -1284214.4, 60585.867, 0.024857625, 10.000102, 9.999411 
2.5090462e+3, 1.7277196e+2, -1015179.0, -1099194.8, -20319.861, 0.03287153, 0.041602466, -1010522.56, 236318.7, 0.0041356636, 10.001203, 10.00015 
2.5087246e+3, 1.8276776e+2, -998088.9, -1082045.6, -110096.78, 0.055099066, 0.13459535, -922239.06, 226645.05, 0.00018434241, 10.000742, 9.999901 
2.5084025e+3, 1.9276318e+2, -1179034.0, -1014581.9, -38662.457, 0.27483773, 0.06579395, -1005945.9, 44983.305, 0.00000026313862, 9.998574, 10.000641 
2.5080794e+3, 2.027583e+2, -1314519.9, -1239443.3, 57367.086, 0.3441898, 0.12024333, -1208424.3, -255446.4, 0.0, 9.9977255, 9.998922 
2.5077543e+3, 2.1275286e+2, -792075.9, -859182.56, 75608.84, 0.1304658, 0.104110904, -742909.7, 112123.51, 0.0, 10.0005245, 9.999396 
2.5074303e+3, 2.2274715e+2, -419767.28, -702311.0, 99215.336, -0.052097473, 0.14453527, -388408.25, 368680.75, 0.0, 10.002369, 9.999077 
2.5071076e+3, 2.3274052e+2, -394335.3, -503257.94, 72369.375, -0.16348208, -0.05314763, -358224.22, 300924.16, 0.0, 10.001489, 10.000068 
2.506786e+3, 2.4273552e+2, -479998.8, -605988.1, 61871.72, -0.17262079, -0.0054225177, -454696.03, 106499.016, 0.0, 10.000611, 9.99917 
2.5064674e+3, 2.527331e+2, -370613.44, -413565.47, 19567.705, 0.10480497, 0.23063424, -363035.8, 100187.81, 0.0, 10.00048, 9.99979 
2.506147e+3, 2.6272875e+2, -346881.0, -510658.94, -106313.98, 0.29420832, 0.3847849, -294574.34, 70693.87, 0.0, 10.000462, 9.99857 
2.505822e+3, 2.7271867e+2, -157494.45, -272263.13, -207210.36, 0.20092131, -0.096657306, 130.73845, 267492.0, 0.0, 10.000856, 9.999259 
2.5054985e+3, 2.8271052e+2, -162042.6, -353325.38, -32598.674, 0.093559526, -0.28386006, -156639.69, 12797.719, 0.0, 10.000476, 9.998306 
2.5051793e+3, 2.9270777e+2, -217327.34, -229178.36, 81109.88, -0.03535174, -0.056006134, -141926.81, -70458.61, 0.0, 9.999107, 9.999062 
2.504861e+3, 3.0270594e+2, -304232.72, -278398.78, -41282.906, 0.101116695, 0.3806634, -248059.22, -248059.22, 0.0, 9.998285, 9.998853 
2.5045392e+3, 3.1270275e+2, 56890.62, 281748.63, -251893.05, 0.37110624, 0.43084374, 445164.5, 445164.5, 0.0, 9.999097, 10.002173 
2.5206482e+3, 1.23121254e+2, -1711399.5, -2183738.5, -88401.26, 0.19319046, 0.53621125, -1695396.9, 38020.31, 0.3720952, 10.0019455, 9.995688 
2.5203314e+3, 1.3310699e+2, -1392914.4, -1555278.4, 70054.49, 0.2319851, -0.40735006, -1366867.0, 268687.1, 0.26429757, 10.002437, 9.999226 
2.520011e+3, 1.43106e+2, -1462122.6, -1638807.5, -118539.13, 0.15082586, 0.10260229, -1402627.6, 134933.05, 0.15642525, 10.001066, 9.998571 
2.5196865e+3, 1.530999e+2, -1270137.8, -1341401.8, -176298.83, 0.114060536, -0.104669, -1125906.1, 313713.1, 0.071005836, 10.001179, 9.999796 
2.5193632e+3, 1.630949e+2, -1372859.0, -1436174.1, -41386.938, 0.12460257, -0.0404097, -1352410.1, -10741.438, 0.021693112, 9.999963, 9.999139 
2.5190425e+3, 1.7309166e+2, -1270070.5, -1163244.3, 7326.3486, 0.07037559, 0.017519046, -1162744.1, 80959.96, 0.00335279, 9.999469, 10.000465 
2.5187206e+3, 1.8308884e+2, -1258876.8, -1068009.1, -170773.44, 0.13521558, 0.18841518, -967812.7, 177921.3, 0.00011963712, 9.998443, 10.001068 
2.5183967e+3, 1.9308588e+2, -1069709.3, -737638.1, -183618.98, 0.35072663, 0.046359897, -656118.2, 391643.7, 0.00000002568285, 9.998404, 10.002566 
2.5180724e+3, 2.0308253e+2, -1309307.1, -1255954.8, 31940.44, 0.3781065, 0.13312106, -1241015.9, -291221.4, 0.0, 9.997914, 9.9986925 
2.5177482e+3, 2.1307743e+2, -909584.6, -925091.94, 92415.68, -0.02606721, 0.11253786, -824597.94, 27249.52, 0.0, 9.999777, 9.99927 
2.5174257e+3, 2.2307166e+2, -840716.75, -1018011.4, 38339.8, -0.2090206, 0.19486031, -832781.0, -78877.336, 0.0, 10.000172, 9.997889 
2.5171053e+3, 2.3306416e+2, -628587.2, -701987.4, 594.24176, -0.012828179, -0.04839268, -628582.4, 27388.242, 0.0, 10.000406, 9.999157 
2.516784e+3, 2.4305747e+2, -797939.9, -909454.44, 7655.1304, 0.102608815, -0.047021426, -797416.8, -239383.23, 0.0, 9.999241, 9.997717 
2.5164625e+3, 2.530517e+2, -579615.4, -600245.1, 5727.3164, 0.05066345, -0.09614692, -578132.0, -118035.484, 0.0, 9.999543, 9.998915 
2.5161403e+3, 2.6304635e+2, -712224.6, -925313.7, -124014.86, 0.054744024, 0.106513806, -655271.7, -293116.44, 0.0, 9.999146, 9.996309 
2.515818e+3, 2.7304056e+2, -388113.0, -585064.06, -178235.84, 0.20836416, 0.21025302, -282957.88, -18739.38, 0.0, 10.000298, 9.997295 
2.5154954e+3, 2.830343e+2, -216670.0, -229936.33, -80164.55, 0.15877275, 0.27852082, -142864.66, 23414.695, 0.0, 9.999646, 9.999501 
2.5151727e+3, 2.9302818e+2, -130677.77, 87993.516, 62086.793, -0.19801591, -0.072602995, 104391.93, 172719.34, 0.0, 9.998676, 10.001388 
2.5148532e+3, 3.0302462e+2, -443057.06, -435112.75, -34891.465, -0.10210989, 0.09370421, -403968.06, -403968.06, 0.0, 9.99785, 9.997952 
2.5145325e+3, 3.1301734e+2, -138539.89, 702.83044, -58610.184, 0.038948767, -0.13831472, 22088.543, 22088.543, 0.0, 9.99869, 10.000402 
2.5306484e+3, 1.2343636e+2, -1328453.6, -1631869.1, 87570.28, 0.11280993, -0.12011436, -1304993.5, 425332.63, 0.34545994, 10.004346, 9.9987 
2.5303277e+3, 1.3342884e+2, -1448348.4, -1757471.0, 38868.85, 0.048826154, -0.2341005, -1443535.9, 188866.3, 0.24384509, 10.002543, 9.997671 
2.5300086e+3, 1.4342618e+2, -1535089.1, -1644974.8, -115250.33, 0.22916095, 0.20173004, -1462355.3, 72072.88, 0.14280653, 10.000275, 9.9989195 
2.5296834e+3, 1.5341933e+2, -1107321.6, -1231115.8, -124561.98, 0.07956413, -0.08208882, -1030125.44, 406365.9, 0.06363834, 10.002132, 10.000161 
2.5293592e+3, 1.634142e+2, -1004844.6, -1107923.4, -104650.305, 0.020445457, -0.10814855, -939730.7, 398807.66, 0.0187796, 10.001733, 10.000612 
2.5290355e+3, 1.7341138e+2, -1332848.1, -1087185.9, -45269.07, -0.026575143, -0.0990251, -1079109.5, 161455.02, 0.0026956536, 9.998376, 10.0016 
2.5287122e+3, 1.8340847e+2, -1530594.6, -1301558.3, -112284.734, -0.017720234, 0.039830428, -1255694.8, -113099.6, 0.00007576087, 9.996943, 10.000184 
2.52839e+3, 1.934046e+2, -944608.2, -899193.5, -237824.83, 0.1909366, 0.017620811, -682994.44, 361645.9, 0.00000000011876218, 10.000098, 10.000685 
2.5280675e+3, 2.0340084e+2, -689242.56, -854710.3, -168541.58, 0.257748, 0.12304568, -584223.5, 362457.4, 0.0, 10.001598, 9.999688 
2.5277445e+3, 2.133964e+2, -712997.56, -743315.56, -95539.27, 0.029305464, 0.0901171, -631422.1, 217300.28, 0.0, 10.000574, 10.000196 
2.527422e+3, 2.2339146e+2, -787233.2, -860725.5, -105610.23, -0.1029088, 0.14026271, -712158.94, 38608.977, 0.0, 9.999871, 9.999119 
2.5271013e+3, 2.3338515e+2, -551480.8, -633138.7, -99905.15, 0.019464986, -0.0094878785, -484383.66, 168441.16, 0.0, 10.000643, 9.999596 
2.52678e+3, 2.4337882e+2, -541534.75, -750691.94, -67151.39, 0.12476112, -0.012339747, -521831.4, 33054.277, 0.0, 10.000676, 9.998142 
2.526458e+3, 2.5337237e+2, -591574.56, -650916.75, -74883.14, 0.12974267, -0.07739855, -540698.4, -83743.52, 0.0, 9.999529, 9.998612 
2.5261354e+3, 2.6336667e+2, -584690.0, -805464.06, -49312.605, 0.104181744, 0.08316827, -574176.1, -215158.89, 0.0, 9.999588, 9.99697 
2.5258133e+3, 2.7336138e+2, -140016.6, -474549.7, -10869.214, 0.12135788, 0.25209925, -139663.81, 121412.11, 0.0, 10.001829, 9.997406 
2.5254914e+3, 2.833557e+2, 207194.08, 39544.23, 46773.906, 0.11773719, 0.36603418, 219360.9, 382491.97, 0.0, 10.002229, 10.00009 
2.5251684e+3, 2.9334894e+2, 51864.645, 183227.58, -54828.664, -0.076763555, -0.040048987, 203104.5, 268286.94, 0.0, 9.999849, 10.001495 
2.524849e+3, 3.0334342e+2, -303681.5, -412759.25, -73271.12, 0.074898675, -0.046013888, -266879.56, -266879.56, 0.0, 9.9989805, 9.99756 
2.5245294e+3, 3.133366e+2, 77416.234, 35455.203, -95368.62, 0.254016, -0.1330775, 154084.86, 154084.86, 0.0, 10.000431, 9.999849 
2.5406525e+3, 1.23758934e+2, -1541976.3, -1697836.8, 135140.23, 0.55321, 0.044514813, -1463906.5, 263255.53, 0.31815657, 10.002016, 9.999127 
2.5403258e+3, 1.3375147e+2, -1583666.8, -1953487.4, -47210.15, 0.09690424, -0.026025886, -1577735.1, 51507.766, 0.22319712, 10.001901, 9.996568 
2.540005e+3, 1.4374669e+2, -1469067.9, -1594346.4, -1317.373, 0.3311623, 0.26348355, -1469054.0, 62238.258, 0.12934339, 10.000748, 9.999002 
2.5396806e+3, 1.5373965e+2, -1273633.8, -1297491.4, -16456.895, 0.11225786, -0.07519565, -1265237.0, 168118.23, 0.05657354, 10.0008745, 10.000295 
2.5393555e+3, 1.6373463e+2, -1242265.4, -1138903.3, -142082.64, 0.015624848, -0.10497853, -1039394.4, 296003.4, 0.016116831, 9.999853, 10.001232 
2.539028e+3, 1.7373194e+2, -1208487.6, -922494.5, -187099.13, -0.11864068, -0.22044814, -830004.1, 407413.1, 0.0021455006, 9.998853, 10.002451 
2.538703e+3, 1.8372843e+2, -1597718.0, -1646103.6, -60114.945, -0.14752682, -0.06207022, -1557110.4, -417656.34, 0.000046550977, 9.997926, 9.997331 
2.538383e+3, 1.9372265e+2, -1223203.1, -1368602.9, -96727.45, 0.017895594, -0.008288191, -1174901.0, -133373.23, 0.0, 9.999714, 9.997632 
2.538063e+3, 2.0371784e+2, -928267.0, -932013.3, -126121.445, 0.16499048, 0.17662615, -804004.8, 139577.81, 0.0, 9.999993, 9.999847 
2.537741e+3, 2.1371366e+2, -847856.94, -665700.5, -119681.984, 0.15995815, 0.020930836, -606382.5, 239233.64, 0.0, 9.999217, 10.001304 
2.5374192e+3, 2.2370955e+2, -983285.9, -890378.6, -101019.125, 0.1049383, 0.081202425, -825644.1, -77993.26, 0.0, 9.998391, 9.9995985 
2.5370958e+3, 2.3370473e+2, -704804.7, -595384.75, -71940.414, -0.072328724, -0.03987689, -559714.4, 89981.47, 0.0, 9.999257, 10.000465 
2.536774e+3, 2.4370015e+2, -840515.3, -931664.3, -125450.39, -0.04843745, 0.1094869, -752617.56, -200876.05, 0.0, 9.998981, 9.997651 
2.536453e+3, 2.5369456e+2, -732872.25, -737101.4, -110647.05, 0.20954464, 0.11660762, -624319.56, -170517.95, 0.0, 9.99876, 9.998334 
2.5361317e+3, 2.636886e+2, -664325.06, -722461.1, 2434.9565, 0.21335752, 0.23385331, -664223.25, -308359.94, 0.0, 9.998674, 9.997932 
2.535808e+3, 2.7368167e+2, -165200.75, -298492.22, 93935.23, -0.12757388, 0.0427501, -116670.625, 141259.75, 0.0, 10.000955, 9.9990015 
2.5354862e+3, 2.836761e+2, -94955.57, -337235.06, -44572.863, -0.20061733, 0.1736057, -87015.58, 72966.87, 0.0, 10.001253, 9.997954 
2.5351655e+3, 2.9367045e+2, -193944.2, -197700.11, -115391.32, 0.09608717, 0.0879655, -80415.555, -18384.432, 0.0, 9.9993725, 9.999087 
2.534846e+3, 3.0366248e+2, -405764.47, -425782.75, -26647.518, 0.32894322, -0.025591232, -387308.3, -387308.3, 0.0, 9.998269, 9.997774 
2.5345263e+3, 3.1365612e+2, 138961.16, 316179.8, 86029.4, 0.20048083, -0.16206926, 351072.2, 351072.2, 0.0, 9.999852, 10.0020485 
2.5506502e+3, 1.240791e+2, -1614545.9, -1798290.9, 403459.75, 0.4494518, -0.04344926, -1292630.6, 431396.1, 0.29081753, 10.0016165, 9.998975 
2.5503227e+3, 1.3407487e+2, -1342368.4, -1604404.4, 71412.34, 0.0019635921, 0.043478105, -1324170.3, 301904.25, 0.2027681, 10.002926, 9.998574 
2.5499994e+3, 1.4407021e+2, -1162636.4, -1349754.0, 39290.195, -0.06152778, 0.21048784, -1154721.3, 373400.2, 0.11625642, 10.0025835, 9.999984 
2.5496772e+3, 1.5406474e+2, -1332305.6, -1299200.9, 44571.055, 0.18603963, 0.011083309, -1268207.9, 161961.0, 0.04988728, 10.000175, 10.000666 
2.5493523e+3, 1.6405942e+2, -1447623.4, -1404853.8, -31155.156, 0.19165291, 0.0073362906, -1388450.3, -56233.16, 0.013707004, 9.9991045, 9.999769 
2.549024e+3, 1.7405386e+2, -1015631.1, -1083339.4, -136538.78, -0.11661763, -0.13513266, -908812.06, 325458.3, 0.0016894786, 10.001201, 10.000265 
2.548699e+3, 1.84049e+2, -934993.5, -1213699.9, -63831.395, -0.18375881, -0.033761453, -921069.94, 215250.42, 0.000027889511, 10.001887, 9.998411 
2.54838e+3, 1.9404419e+2, -995437.0, -1172089.1, 27047.951, 0.1227343, 0.050646156, -991388.4, 46987.973, 0.0, 10.000791, 9.99852 
2.5480592e+3, 2.0403929e+2, -957257.6, -962910.56, 33529.266, 0.26294082, 0.19182852, -926435.9, 13993.276, 0.0, 9.999761, 9.999775 
2.547736e+3, 2.1403359e+2, -877800.5, -801857.8, -38807.402, 0.16537434, 0.017133942, -785535.2, 56947.555, 0.0, 9.99937, 10.00036 
2.547413e+3, 2.2402889e+2, -864276.56, -775124.8, -59358.895, 0.08564819, 0.05096626, -745468.0, -942.2133, 0.0, 9.998885, 10.000178 
2.5470906e+3, 2.3402488e+2, -796797.4, -644925.94, -77973.2, -0.004102282, 0.03760482, -612022.06, 34540.254, 0.0, 9.998553, 10.000519 
2.5467688e+3, 2.4402046e+2, -725836.4, -773014.56, -101349.12, 0.0051103393, 0.15416694, -645367.4, -96762.98, 0.0, 9.999119, 9.998768 
2.5464475e+3, 2.5401452e+2, -388135.9, -536556.3, -79143.25, 0.16288431, 0.09724056, -353852.75, 96810.85, 0.0, 10.000723, 9.998904 
2.5461262e+3, 2.6400846e+2, -268235.53, -368186.84, 42573.668, 0.16850945, 0.11479254, -252559.97, 100162.016, 0.0, 10.00065, 9.999423 
2.5458035e+3, 2.7400193e+2, -437670.88, -342304.03, 34192.055, -0.07958258, -0.0940327, -331312.03, -76530.63, 0.0, 9.998651, 9.999853 
2.545482e+3, 2.839965e+2, -477658.16, -560138.06, -28257.852, -0.11412327, 0.013980388, -468905.72, -312073.34, 0.0, 9.998623, 9.997763 
2.5451615e+3, 2.939912e+2, 67019.16, -186547.73, -61170.97, 0.1676235, 0.07608422, 81004.78, 139889.58, 0.0, 10.001533, 9.998205 
2.5448427e+3, 3.0398333e+2, 236307.55, 54691.2, 91059.53, 0.47064736, -0.04553541, 274099.38, 274099.38, 0.0, 10.001752, 9.999492 
2.544518e+3, 3.1397474e+2, -365048.9, -86639.59, 33157.773, -0.03894801, -0.49630475, -82745.08, -82745.08, 0.0, 9.996842, 10.000839 
2.5606441e+3, 1.2440342e+2, -1688804.3, -1632143.9, -109945.08, 0.15476184, 0.17516984, -1546937.6, 173914.38, 0.26403108, 9.999844, 10.000712 
2.5603193e+3, 1.3439864e+2, -1481077.6, -1553877.4, 46630.62, -0.12248626, 0.04711166, -1458322.1, 164579.92, 0.18292536, 10.001235, 9.99977 
2.5599948e+3, 1.443948e+2, -1388432.5, -1428777.4, -84364.836, -0.26900998, 0.23716944, -1321861.9, 203077.28, 0.1037245, 10.000777, 10.000173 
2.5596735e+3, 1.5439042e+2, -1316461.3, -1294387.3, -153478.9, 0.3046683, 0.07855036, -1151549.0, 275428.16, 0.043632858, 10.00037, 10.000564 
2.559349e+3, 1.6438465e+2, -1481298.5, -1680383.1, -40542.113, 0.4278152, 0.14175609, -1473359.0, -144325.27, 0.011545959, 10.0001545, 9.997304 
2.5590208e+3, 1.743762e+2, -1197089.6, -1482763.1, -73914.516, -0.055687282, -0.057899624, -1179098.3, 52024.37, 0.0013158798, 10.0014305, 9.997353 
2.5586966e+3, 1.843704e+2, -922518.5, -1041387.25, -77888.586, -0.12763278, 0.051097356, -883978.0, 249203.27, 0.000016496271, 10.001458, 9.9997425 
2.5583777e+3, 1.9436686e+2, -976412.9, -989438.4, -65212.44, 0.31396413, 0.060158625, -917388.75, 117823.266, 0.0, 10.000315, 9.999973 
2.5580555e+3, 2.0436205e+2, -1162502.9, -1215707.9, -48638.28, 0.44252014, 0.21450995, -1133667.4, -196407.33, 0.0, 9.999198, 9.998265 
2.5577295e+3, 2.1435483e+2, -1125244.9, -1116068.3, -94784.23, 0.104537964, 0.017832832, -1025761.3, -186424.42, 0.0, 9.998691, 9.998485 
2.557406e+3, 2.2434954e+2, -1024978.25, -933395.5, -105430.2, 0.003468341, 0.14117797, -864241.75, -122852.05, 0.0, 9.998266, 9.999333 
2.5570852e+3, 2.3434542e+2, -965792.94, -800634.06, -107120.98, 0.12274581, 0.12983589, -747957.25, -104532.164, 0.0, 9.997812, 9.99976 
2.5567642e+3, 2.4434043e+2, -855799.56, -741958.3, -71057.88, 0.13543025, 0.19894913, -707834.0, -162365.17, 0.0, 9.997972, 9.999475 
2.5564414e+3, 2.543332e+2, -509197.16, -497906.7, -24489.643, -0.03240325, -0.123989835, -478420.03, -30885.95, 0.0, 9.999608, 9.999661 
2.55612e+3, 2.6432744e+2, -461685.34, -451338.97, -60853.01, -0.047896627, -0.108827405, -395439.66, -45854.54, 0.0, 9.999471, 9.9993305 
2.5557992e+3, 2.7432215e+2, -539732.3, -410094.88, -28683.686, 0.09850049, -0.21940085, -404031.84, -152401.4, 0.0, 9.99815, 9.999582 
2.5554782e+3, 2.8431666e+2, -532222.75, -548987.3, 29524.4, 0.10370578, -0.111169405, -509913.78, -356229.84, 0.0, 9.998203, 9.9979925 
2.5551566e+3, 2.9431087e+2, 5970.194, -214794.83, 59942.195, -0.035987508, -0.14730471, 21195.666, 76943.2, 0.0, 10.0011635, 9.998153 
2.5548375e+3, 3.0430484e+2, 201535.25, 87961.16, -99984.195, 0.20618838, -0.095397376, 259733.45, 259733.45, 0.0, 10.001484, 9.999748 
2.5545123e+3, 3.1430307e+2, -581874.1, -453548.13, -57804.13, 0.03968505, 0.06907839, -431350.2, -431350.2, 0.0, 9.996682, 9.998306 
2.570642e+3, 1.2472133e+2, -1580856.9, -1508826.3, 154871.47, 0.2571763, -0.17090076, -1385837.6, 331905.06, 0.23823552, 10.000115, 10.001687 
2.570316e+3, 1.3472119e+2, -1578686.1, -1541544.1, -8441.459, -0.044700354, 0.12926193, -1539715.6, 80026.414, 0.16394834, 9.999965, 10.000509 
2.569992e+3, 1.4471652e+2, -1578418.5, -1587655.1, -118510.76, -0.09100302, 0.21649122, -1464436.0, 57351.766, 0.09188186, 9.999603, 9.999636 
2.5696686e+3, 1.5471064e+2, -1184231.6, -1340280.6, -185336.45, 0.16306925, 0.029270418, -1061165.5, 362681.66, 0.03784501, 10.001669, 9.999684 
2.5693443e+3, 1.6470554e+2, -1007594.0, -1318499.3, -96980.15, 0.1994779, 0.13852708, -979823.6, 346075.1, 0.009625426, 10.002794, 9.99854 
2.5690183e+3, 1.7470016e+2, -889063.44, -1244916.5, -7340.2314, -0.09609865, 0.1755277, -888912.06, 339042.03, 0.0010124295, 10.0030575, 9.998253 
2.568694e+3, 1.8469436e+2, -778631.5, -1036804.75, -78326.945, -0.1429382, 0.27099887, -756726.5, 373284.13, 0.000009793076, 10.002615, 9.999255 
2.5683728e+3, 1.9468787e+2, -834070.44, -1026192.9, -140523.66, 0.1764388, 0.11541576, -759912.25, 272158.38, 0.0, 10.001597, 9.999163 
2.56805e+3, 2.0468205e+2, -900999.3, -1146268.1, -135372.23, 0.27898815, 0.21469742, -840973.3, 93156.5, 0.0, 10.001103, 9.997866 
2.5677255e+3, 2.1467619e+2, -765663.0, -1053170.3, -151659.67, 0.12988032, 0.26636463, -700453.1, 135743.33, 0.0, 10.00147, 9.997652 
2.567402e+3, 2.2467026e+2, -530334.44, -650444.6, -157570.5, 0.058140334, 0.33079347, -421762.5, 316491.9, 0.0, 10.001295, 9.999857 
2.56708e+3, 2.3466368e+2, -590691.4, -643924.9, -155019.77, 0.115939304, 0.09663192, -460019.9, 180288.44, 0.0, 10.000265, 9.999734 
2.566758e+3, 2.4465795e+2, -543581.06, -529216.44, -62661.918, 0.09617053, 0.062589854, -473326.56, 69030.35, 0.0, 9.999752, 10.000079 
2.5664362e+3, 2.5465226e+2, -425157.97, -437385.1, -89173.875, -0.05751295, -0.103039056, -341888.34, 102519.164, 0.0, 9.999987, 9.999917 
2.566115e+3, 2.6464698e+2, -361078.22, -360248.6, -179308.78, -0.026656851, -0.08922058, -181354.13, 165099.67, 0.0, 9.999856, 9.99978 
2.565795e+3, 2.7464125e+2, -320121.28, -301632.53, -188669.13, 0.28513625, -0.24194987, -121981.445, 126522.336, 0.0, 9.999512, 9.999671 
2.5654742e+3, 2.8463635e+2, -378156.63, -368854.88, -29662.666, 0.3198711, -0.14050578, -343480.7, -192929.27, 0.0, 9.998751, 9.998943 
2.565152e+3, 2.9463187e+2, -498306.84, -406554.63, -5985.5176, 0.041311715, -0.098859794, -406165.78, -353563.88, 0.0, 9.997382, 9.998667 
2.5648302e+3, 3.0462533e+2, -258851.14, -148909.27, -140453.14, 0.008753535, -0.12132768, -53052.86, -53052.86, 0.0, 9.998253, 9.99971 
2.564509e+3, 3.146229e+2, 213091.02, 221624.36, -50672.86, 0.2765384, 0.03139344, 268209.84, 268209.84, 0.0, 10.000617, 10.001125 
2.5806367e+3, 1.2504515e+2, -1737137.4, -1621801.0, -3654.869, 0.15303229, 0.22843711, -1621685.3, 92888.82, 0.21373183, 9.999116, 10.001017 
2.580313e+3, 1.3504347e+2, -1535412.0, -1465119.3, -83948.95, 0.15298748, 0.21374632, -1409256.3, 207328.23, 0.14603193, 10.000085, 10.001004 
2.5799894e+3, 1.4503773e+2, -1608885.9, -1690491.4, -77131.99, 0.19205695, 0.20975216, -1562429.3, -43786.92, 0.080827504, 9.999905, 9.998706 
2.5796643e+3, 1.5503044e+2, -1433929.8, -1616393.1, -147308.92, 0.058080755, -0.031124424, -1351889.6, 68832.2, 0.032553293, 10.000701, 9.998178 
2.5793397e+3, 1.6502637e+2, -1121444.4, -1210369.0, -87022.23, -0.014130437, 0.19325386, -1068183.9, 254580.27, 0.007938516, 10.001404, 9.999875 
2.579016e+3, 1.7502432e+2, -1051889.6, -1193369.6, -62033.64, -0.09413158, 0.3780247, -1028542.9, 196238.16, 0.00076767127, 10.001475, 9.999303 
2.5786918e+3, 1.8501851e+2, -1074072.0, -1347471.9, -159958.16, -0.10533318, 0.49731022, -1000359.3, 126477.32, 0.000005913737, 10.00149, 9.997583 
2.5783673e+3, 1.9500847e+2, -1128456.9, -1373211.8, -202312.66, -0.019878356, 0.11544647, -1014388.5, 14546.445, 0.0, 10.000661, 9.997146 
2.5780442e+3, 2.050019e+2, -1066435.9, -1313827.5, -104945.234, 0.095983915, 0.29255342, -1027915.25, -96910.86, 0.0, 10.000451, 9.996981 
2.5777224e+3, 2.1499759e+2, -1012354.5, -1278559.0, -106407.89, 0.18929973, 0.5299142, -975048.9, -141991.83, 0.0, 10.000312, 9.996631 
2.5773993e+3, 2.2499092e+2, -745616.25, -707435.56, -165705.13, 0.1567439, 0.5624761, -559724.7, 175394.39, 0.0, 9.999871, 10.000068 
2.577074e+3, 2.3498099e+2, -827073.6, -751114.5, -165756.72, -0.0008538843, -0.052888654, -619041.9, 18157.527, 0.0, 9.998837, 9.999618 
2.5767514e+3, 2.4497515e+2, -756461.4, -669109.3, -45312.563, -0.05899972, -0.06092816, -649850.25, -110602.08, 0.0, 9.998635, 9.999586 
2.5764313e+3, 2.5497204e+2, -657108.6, -624157.75, -50192.406, -0.06600446, 0.042000804, -587805.94, -146527.73, 0.0, 9.998856, 9.999136 
2.576111e+3, 2.6496726e+2, -519568.0, -427653.6, -196484.25, 0.048288923, 0.14914855, -271823.47, 71499.625, 0.0, 9.998833, 9.999791 
2.5757903e+3, 2.7496034e+2, -480939.56, -406623.5, -172462.5, 0.31227437, -0.1580883, -267361.5, -21974.336, 0.0, 9.998625, 9.999356 
2.5754693e+3, 2.8495625e+2, -386237.78, -221475.05, -67307.195, 0.39544055, -0.01649241, -197475.27, -50049.656, 0.0, 9.998159, 10.000202 
2.575147e+3, 2.9495347e+2, -498935.84, -295760.4, 8565.416, 0.17828485, 0.05429155, -295399.97, -245946.33, 0.0, 9.996989, 9.999605 
2.5748208e+3, 3.0494678e+2, -322375.72, -200780.55, -23042.637, -0.3145461, -0.016283875, -196560.38, -196560.38, 0.0, 9.998001, 9.999446 
2.5745025e+3, 3.1494036e+2, 228023.45, 360210.94, -4139.3945, -0.11316105, -0.24560606, 360340.44, 360340.44, 0.0, 10.0002985, 10.002203 
2.590632e+3, 1.2536682e+2, -1674087.4, -1560541.9, 25548.947, 0.0850876, 0.09429242, -1555057.9, 156361.89, 0.19077115, 9.999366, 10.00144 
2.590309e+3, 1.353645e+2, -1450728.5, -1500554.6, -18950.252, 0.121888064, 0.15606017, -1444340.3, 169098.88, 0.12932457, 10.001028, 10.000314 
2.5899854e+3, 1.4535896e+2, -1453448.1, -1629387.3, -87699.516, 0.13005465, 0.21328263, -1417200.8, 98295.33, 0.07062259, 10.000995, 9.998652 
2.5896606e+3, 1.5535375e+2, -1435166.1, -1631066.9, -94276.44, 0.063315846, 0.24215125, -1397166.8, 20388.043, 0.027766839, 10.000622, 9.9981575 
2.589336e+3, 1.6534822e+2, -1230296.3, -1304875.9, -69365.58, -0.011590468, 0.32890886, -1188832.6, 130777.586, 0.0064744665, 10.000677, 9.999642 
2.5890136e+3, 1.7534213e+2, -1140719.1, -1282782.8, -91896.74, -0.022134488, 0.18201874, -1095602.3, 126062.83, 0.0005723583, 10.00086, 9.999066 
2.5886893e+3, 1.8533601e+2, -1056998.0, -1276017.1, -211829.44, -0.032921094, 0.23994246, -928045.7, 195677.16, 0.0000035552432, 10.001227, 9.99825 
2.5883633e+3, 1.953287e+2, -934955.75, -1243342.5, -167770.83, -0.05332023, 0.12954648, -861283.7, 164511.02, 0.0, 10.001634, 9.997654 
2.58804e+3, 2.0532241e+2, -788115.2, -1045584.9, -34091.35, 0.0058226874, 0.2394648, -783677.6, 144181.39, 0.0, 10.001671, 9.998287 
2.5877187e+3, 2.1531689e+2, -759244.44, -1056948.6, 22904.82, 0.17149688, 0.31695145, -757492.5, 72426.02, 0.0, 10.001431, 9.997701 
2.5873953e+3, 2.2531027e+2, -631643.94, -709826.7, -46122.145, 0.20936915, 0.3265102, -610275.56, 121705.16, 0.0, 10.000783, 9.999641 
2.58707e+3, 2.353019e+2, -698106.44, -771440.06, -83501.555, 0.12958431, -0.016413808, -643575.9, -9523.815, 0.0, 9.999931, 9.999004 
2.586747e+3, 2.4529609e+2, -597459.6, -575711.9, 49059.176, 0.0472687, 0.001094416, -536335.94, -231.56253, 0.0, 9.999559, 9.999826 
2.586426e+3, 2.5529215e+2, -558552.06, -578327.06, 25621.094, -0.008222391, 0.07006647, -540976.8, -102832.34, 0.0, 9.999438, 9.999213 
2.586105e+3, 2.6528743e+2, -437873.1, -339516.6, -92764.31, 0.05163777, 0.1537063, -283700.94, 56488.715, 0.0, 9.999038, 10.000357 
2.5857833e+3, 2.752814e+2, -513013.97, -404904.53, -84201.586, 0.28709367, -0.039280627, -358900.2, -116655.04, 0.0, 9.998173, 9.999673 
2.5854635e+3, 2.8527725e+2, -226909.39, -28599.813, 50205.156, 0.42783225, 0.02759919, -16614.016, 127669.45, 0.0, 9.998648, 10.001335 
2.585142e+3, 2.9527393e+2, -34180.168, -18356.74, 22590.35, 0.34408134, -0.015713898, -2332.7249, 43982.176, 0.0, 9.999804, 10.0002165 
2.5848156e+3, 3.0526927e+2, -376.96567, -123527.14, -284.3672, -0.26849005, 0.12608199, -376.30902, -376.30902, 0.0, 10.00055, 9.998765 
2.584505e+3, 3.1525996e+2, -195883.11, -220572.14, -114389.766, 0.6348925, -0.26077273, -93173.7, -93173.7, 0.0, 9.998888, 9.998962 
2.600629e+3, 1.256903e+2, -1769674.0, -1838027.6, 54348.594, 0.2331286, 0.06927328, -1739649.4, -31402.113, 0.16949552, 9.999938, 9.998982 
2.6003054e+3, 1.3568531e+2, -1446380.4, -1712709.4, -23626.67, 0.11975156, -0.002293755, -1444300.6, 165994.4, 0.11391175, 10.002102, 9.998209 
2.5999814e+3, 1.4568077e+2, -1319916.9, -1542534.8, -80594.734, 0.1151207, 0.25413144, -1293802.4, 218540.05, 0.061296463, 10.00205, 9.998632 
2.5996572e+3, 1.5567729e+2, -1439436.4, -1704150.5, -102717.26, 0.1525979, 0.43725812, -1404254.6, 10127.832, 0.023481611, 10.001037, 9.9973955 
2.5993335e+3, 1.6566996e+2, -1268083.3, -1407134.3, -29271.83, 0.14265467, 0.43187726, -1262172.5, 54281.87, 0.005220199, 10.000877, 9.998829 
2.599011e+3, 1.7565927e+2, -1313053.0, -1499836.0, -74367.72, 0.14524862, -0.103241794, -1287060.5, -68506.2, 0.00041937284, 10.000354, 9.997821 
2.5986862e+3, 1.8565299e+2, -1102684.5, -1206928.6, -164469.16, 0.09063153, -0.03957541, -982275.94, 138337.16, 0.0000020172258, 10.000617, 9.998964 
2.5983602e+3, 1.9564913e+2, -1114331.6, -1290709.1, -153652.52, -0.030311579, 0.09558073, -1025358.44, -2708.514, 0.0, 10.000344, 9.997906 
2.5980362e+3, 2.0564328e+2, -884380.56, -926636.5, -58894.566, -0.0008430339, 0.16773626, -842938.9, 81766.836, 0.0, 10.000479, 9.999608 
2.5977147e+3, 2.1563543e+2, -987580.25, -1061389.8, -26801.47, 0.15259661, -0.1514206, -978874.94, -152094.48, 0.0, 9.9995985, 9.998489 
2.597391e+3, 2.2562985e+2, -871495.75, -955310.94, -109754.84, 0.24616788, -0.00951721, -795919.9, -67085.17, 0.0, 9.999825, 9.998369 
2.5970665e+3, 2.3562492e+2, -940275.2, -1064562.9, -113824.766, 0.30823737, 0.08416443, -872735.06, -241851.83, 0.0, 9.999153, 9.997324 
2.596743e+3, 2.4561922e+2, -729521.94, -653888.06, 33565.926, 0.22205444, 0.2050933, -641140.3, -108200.305, 0.0, 9.99884, 9.999594 
2.596421e+3, 2.5561234e+2, -810547.75, -751765.3, 21215.678, -0.009471394, -0.03744051, -744908.1, -309899.13, 0.0, 9.998019, 9.99869 
2.596098e+3, 2.656075e+2, -583170.94, -382998.25, -146809.98, -0.057144884, 0.056411594, -305403.84, 31650.082, 0.0, 9.99807, 10.000479 
2.5957748e+3, 2.7560326e+2, -620694.9, -476651.97, -95848.82, 0.082056716, -0.0009169928, -428781.44, -189690.97, 0.0, 9.997593, 9.999454 
2.595456e+3, 2.855985e+2, -317754.34, -96065.35, 63434.73, 0.27886334, 0.028864611, -79197.41, 61937.5, 0.0, 9.998231, 10.001049 
2.5951374e+3, 2.9559314e+2, -191703.6, -170678.13, 53149.97, 0.3246334, -0.20243622, -127011.19, -83824.6, 0.0, 9.999167, 9.999455 
2.5948152e+3, 3.0558985e+2, -193716.23, -432702.94, -59958.69, 0.07842657, 0.20976628, -179517.0, -179517.0, 0.0, 10.000305, 9.996694 
2.594491e+3, 3.155812e+2, -234339.02, -197117.38, -17625.709, -0.35380933, 0.06468483, -190095.64, -190095.64, 0.0, 9.998579, 9.999233 
2.6106235e+3, 1.2601389e+2, -1542509.5, -1637566.0, 36720.637, -0.07116611, 0.19960563, -1529976.6, 175096.28, 0.14988421, 10.001197, 9.999872 
2.6103044e+3, 1.360075e+2, -1198474.5, -1582840.3, 59303.777, 0.12743445, 0.01592921, -1189532.5, 417599.13, 0.09979623, 10.003817, 9.998363 
2.6099807e+3, 1.4600153e+2, -1050848.5, -1368318.0, -86820.35, 0.15630554, 0.09574615, -1028656.5, 480532.75, 0.05285716, 10.003712, 9.999113 
2.6096547e+3, 1.559953e+2, -1175162.8, -1549596.9, -70912.47, 0.11593767, 0.015497809, -1162182.9, 249068.6, 0.019694533, 10.002627, 9.997755 
2.6093307e+3, 1.6598928e+2, -1078516.9, -1344725.1, 6421.2163, 0.12523453, 0.13001446, -1078362.0, 234951.97, 0.004163879, 10.002206, 9.99864 
2.609008e+3, 1.7598264e+2, -1113147.1, -1428026.6, -8090.436, 0.16349998, 0.058977097, -1112939.4, 102443.99, 0.00030229846, 10.001712, 9.99769 
2.6086828e+3, 1.8597628e+2, -960363.94, -1127106.5, -100898.016, 0.092401564, 0.11515799, -912849.06, 204594.53, 0.0000010444409, 10.001407, 9.9992 
2.6083556e+3, 1.9596998e+2, -995811.9, -1217598.0, -97444.11, -0.06959123, 0.035558585, -959081.7, 60418.316, 0.0, 10.000897, 9.998209 
2.608032e+3, 2.0596354e+2, -883151.7, -993799.0, -73003.76, -0.0010631925, 0.054606132, -846877.0, 74686.28, 0.0, 10.000634, 9.999113 
2.6077107e+3, 2.1595638e+2, -897979.6, -1063336.4, -121703.72, 0.22344854, -0.1145504, -833527.06, -9890.269, 0.0, 10.000237, 9.998205 
2.607387e+3, 2.2595105e+2, -578572.0, -720441.2, -140715.44, 0.23417217, -0.0007809839, -491923.13, 233764.23, 0.0, 10.001286, 9.999344 
2.6070616e+3, 2.3594667e+2, -305852.25, -679379.6, -77472.76, 0.13978545, 0.103773564, -290421.22, 337304.94, 0.0, 10.002967, 9.998201 
2.606738e+3, 2.4594122e+2, -357309.8, -539740.4, -6093.254, 0.1412531, 0.23145404, -357106.5, 172676.23, 0.0, 10.001589, 9.999063 
2.6064163e+3, 2.5593442e+2, -792789.25, -816969.0, -60931.656, 0.175436, 0.105092935, -742759.6, -310902.8, 0.0, 9.998292, 9.998159 
2.606093e+3, 2.6592863e+2, -516364.22, -328819.38, -107908.05, 0.1319009, 0.10083313, -279632.3, 54278.52, 0.0, 9.9983225, 10.000779 
2.6057696e+3, 2.7592334e+2, -216289.89, -272708.8, -103596.15, 0.119712934, -0.042200573, -137131.13, 98822.6, 0.0, 10.00022, 9.999624 
2.60545e+3, 2.8591835e+2, -74321.234, -127610.78, 11116.561, 0.21690527, 0.02217716, -72095.23, 65906.83, 0.0, 10.000504, 9.99973 
2.6051316e+3, 2.959134e+2, -278729.56, -376236.72, -97884.37, 0.28748208, -0.004789123, -218129.3, -178073.47, 0.0, 9.999179, 9.998055 
2.6048124e+3, 3.0590886e+2, -287477.97, -500044.03, -121095.766, 0.29598653, 0.33241284, -232639.1, -232639.1, 0.0, 9.999552, 9.996645 
2.6044914e+3, 3.158955e+2, 192945.5, 490727.8, 17886.73, 0.24918252, -0.26301283, 491798.34, 491798.34, 0.0, 9.999352, 10.003561 
2.6206192e+3, 1.2633517e+2, -1497882.9, -1530083.6, 69374.7, -0.21223043, 0.18595573, -1442764.8, 259155.55, 0.13183987, 10.001349, 10.000525 
2.6203036e+3, 1.3633002e+2, -1577543.5, -1744704.5, 27010.803, 0.23770659, 0.03194446, -1573287.4, 30676.977, 0.08692974, 10.000965, 9.998522 
2.6199803e+3, 1.463224e+2, -1320948.9, -1505386.8, -145684.95, 0.27944165, -0.06525149, -1240748.4, 265285.9, 0.045284748, 10.001759, 9.999096 
2.6196525e+3, 1.5631309e+2, -1229347.1, -1603323.6, -160003.1, 0.13213922, -0.47833154, -1170234.6, 237887.56, 0.01638905, 10.002417, 9.997503 
2.619328e+3, 1.6630918e+2, -1071196.0, -1370885.1, -56272.26, 0.122569725, -0.13210744, -1060978.3, 249190.1, 0.0032885466, 10.002519, 9.998256 
2.619005e+3, 1.7630768e+2, -1261355.8, -1568536.1, -96413.375, 0.19467178, 0.32914788, -1233602.4, -21405.443, 0.00021471751, 10.001096, 9.997005 
2.6186794e+3, 1.8630101e+2, -1020928.1, -1153738.8, -160212.69, 0.12392186, 0.36883476, -913904.0, 200356.64, 0.00000047553752, 10.001055, 9.999151 
2.618352e+3, 1.9629115e+2, -1172420.1, -1377972.8, -142103.75, -0.054667324, -0.08415995, -1099821.3, -83474.59, 0.0, 10.000132, 9.997456 
2.618028e+3, 2.0628422e+2, -1033664.4, -1217785.1, -98015.71, 0.027039157, 0.00080966885, -991254.7, -72835.61, 0.0, 10.000384, 9.997642 
2.6177067e+3, 2.1627852e+2, -1149227.5, -1348278.8, -131957.05, 0.28307953, 0.094074495, -1083471.5, -262983.4, 0.0, 9.999361, 9.996645 
2.617382e+3, 2.2627325e+2, -582875.06, -514553.75, -84233.555, 0.15312009, 0.18685775, -457817.53, 264717.9, 0.0, 10.000546, 10.0010395 
2.6170558e+3, 2.3626806e+2, -553094.25, -680917.56, -52920.586, -0.23182876, 0.013945946, -534028.25, 90543.82, 0.0, 10.000946, 9.999113 
2.616732e+3, 2.462632e+2, -629706.0, -800313.25, -147380.28, -0.094931155, 0.2268914, -544722.7, -18098.371, 0.0, 10.000429, 9.9977665 
2.6164114e+3, 2.5625795e+2, -1066556.6, -1118896.8, -159541.45, 0.34794322, 0.36642852, -931053.1, -502362.0, 0.0, 9.99729, 9.996528 
2.616089e+3, 2.6625088e+2, -580172.4, -355024.75, -45621.69, 0.39188555, 0.2998864, -346131.7, -15374.3, 0.0, 9.997965, 10.000708 
2.6157656e+3, 2.7624238e+2, -368717.72, -426213.7, -21722.957, 0.16244914, -0.19020842, -361433.3, -128606.87, 0.0, 9.999607, 9.998829 
2.6154444e+3, 2.8623778e+2, -293388.88, -464005.2, -40873.08, 0.050288804, 0.06354461, -284102.7, -149226.52, 0.0, 10.000132, 9.997546 
2.6151237e+3, 2.9623488e+2, -506622.3, -720995.7, -96768.88, -0.010689245, 0.43943036, -469402.6, -432482.34, 0.0, 9.998712, 9.995907 
2.6148063e+3, 3.062275e+2, -260863.98, -288959.53, -103406.12, 0.17991151, 0.49499807, -170555.8, -170555.8, 0.0, 9.998948, 9.998376 
2.6144812e+3, 3.1621793e+2, 13410.72, 260677.83, -9335.087, -0.40395075, 0.09978372, 261029.75, 261029.75, 0.0, 9.998831, 10.002241 
2.6306203e+3, 1.2665263e+2, -1336349.5, -1404195.6, -87824.2, 0.02463615, -0.097675554, -1276124.5, 422678.3, 0.11528824, 10.002195, 10.001124 
2.6302987e+3, 1.3664974e+2, -1743672.6, -1763405.1, -48954.926, 0.15536085, -0.07999581, -1703599.6, -102773.09, 0.07524984, 9.99935, 9.999244 
2.6299748e+3, 1.4664358e+2, -1493869.4, -1612721.1, -72902.58, 0.10215924, -0.05840418, -1459240.9, 43643.07, 0.038529176, 10.000525, 9.998991 
2.6296502e+3, 1.5663514e+2, -1007580.06, -1499120.0, -96655.08, -0.010815917, -0.3489114, -989257.1, 415707.66, 0.013527696, 10.003839, 9.99759 
2.629326e+3, 1.6663021e+2, -883596.44, -1368020.0, -173889.22, 0.034189135, -0.07470152, -827640.5, 479381.56, 0.0025719018, 10.004064, 9.997599 
2.629002e+3, 1.7662708e+2, -1097234.5, -1512134.0, -202150.56, 0.14665332, 0.31235117, -1015028.9, 194038.25, 0.00015054179, 10.00216, 9.996935 
2.6286763e+3, 1.8662041e+2, -821668.2, -969635.5, -230179.72, 0.12352957, 0.2878038, -653874.5, 457255.47, 0.0000001940375, 10.001922, 10.000028 
2.6283488e+3, 1.9661129e+2, -840030.56, -1123451.4, -173422.75, -0.019473145, -0.16254155, -757782.75, 255424.89, 0.0, 10.001807, 9.99845 
2.6280242e+3, 2.0660536e+2, -788322.1, -1127631.9, -87453.766, -0.009610742, -0.014341414, -767108.1, 148163.16, 0.0, 10.002073, 9.997521 
2.6277015e+3, 2.166009e+2, -657972.7, -1094623.3, -61088.977, 0.10062953, 0.2584661, -649587.1, 167742.83, 0.0, 10.002471, 9.996962 
2.6273778e+3, 2.265947e+2, -379306.16, -447212.2, -68602.12, 0.06047628, 0.24570766, -336714.7, 382671.94, 0.0, 10.001926, 10.000896 
2.6270533e+3, 2.3658761e+2, -562108.9, -683420.25, -133802.67, -0.08577953, -0.07050802, -475855.53, 145585.78, 0.0, 10.000673, 9.999292 
2.6267293e+3, 2.4658188e+2, -612020.94, -827788.56, -247396.38, 0.050613597, 0.045971107, -450008.7, 73492.15, 0.0, 10.000562, 9.997582 
2.626406e+3, 2.565767e+2, -539630.5, -859044.25, -200107.4, 0.37803343, 0.23564117, -443311.47, -17746.016, 0.0, 10.000718, 9.996717 
2.6260838e+3, 2.6657033e+2, -199139.27, -259948.2, -26828.715, 0.37455076, 0.2664666, -188994.86, 138631.69, 0.0, 10.000877, 9.999987 
2.6257613e+3, 2.7656293e+2, -232556.66, -412971.06, -88827.79, 0.16920573, -0.011473679, -196163.25, 33525.906, 0.0, 10.000629, 9.998468 
2.6254392e+3, 2.8655717e+2, -233198.08, -441327.2, -80069.914, 0.0032518872, 0.12744012, -205959.08, -74209.74, 0.0, 10.000452, 9.9976015 
2.6251173e+3, 2.965525e+2, -316925.13, -565917.3, -18488.232, -0.102789596, 0.35658023, -315559.8, -281752.53, 0.0, 9.999645, 9.996567 
2.6248002e+3, 3.0654544e+2, -75882.54, -54738.773, 58543.8, 0.1862296, 0.33042467, -5819.973, -5819.973, 0.0, 9.999527, 9.999733 
2.624483e+3, 3.165402e+2, -167196.5, 149501.25, 78169.62, 0.44395152, 0.30712464, 167744.72, 167744.72, 0.0, 9.997573, 10.00212 
2.6406205e+3, 1.2697123e+2, -1745057.1, -1565874.8, -148904.94, 0.33740488, -0.24885724, -1481686.6, 213989.38, 0.10017185, 9.9990425, 10.001383 
2.6402932e+3, 1.3696963e+2, -1587002.3, -1685815.9, -179739.78, 0.13459775, -0.1560472, -1450002.5, 147687.13, 0.06469282, 10.000567, 9.999194 
2.6399696e+3, 1.46965e+2, -1359385.3, -1556368.5, -10913.694, -0.0015058531, 0.010550818, -1358782.4, 140951.7, 0.032530583, 10.001643, 9.998755 
2.6396483e+3, 1.5695776e+2, -1308764.1, -1732591.9, -72078.88, -0.084284775, -0.15203127, -1296841.4, 104963.73, 0.011066901, 10.002227, 9.996714 
2.6393244e+3, 1.6695137e+2, -1106000.9, -1521359.1, -204800.95, -0.0039029643, 0.026970042, -1022005.5, 281870.63, 0.0019930317, 10.0028, 9.997105 
2.638999e+3, 1.7694539e+2, -1257151.5, -1678978.0, -183805.14, 0.14395025, 0.17204332, -1188299.3, 17647.855, 0.00010503105, 10.001519, 9.996094 
2.6386732e+3, 1.8693902e+2, -859938.94, -863107.4, -172830.05, 0.14068143, 0.14707223, -688685.9, 419320.8, 0.00000008640195, 10.001374, 10.000886 
2.6383463e+3, 1.9693197e+2, -1051705.1, -1202657.4, -191532.56, 0.057773877, -0.1943487, -921313.9, 88750.97, 0.0, 10.0004635, 9.998486 
2.6380205e+3, 2.0692733e+2, -900674.75, -1144107.9, -79607.29, -0.05313116, 0.055997133, -876953.25, 35162.445, 0.0, 10.001203, 9.997797 
2.637696e+3, 2.1692355e+2, -1005135.25, -1305087.3, -57939.336, -0.14837575, 0.35157388, -994332.6, -180166.98, 0.0, 10.000361, 9.996531 
2.6373738e+3, 2.2691606e+2, -662453.5, -700959.0, -103485.67, 0.004935375, 0.2797921, -576444.9, 139791.9, 0.0, 10.000595, 9.999732 
2.6370522e+3, 2.3690666e+2, -943252.56, -1041150.5, -152640.0, 0.26191682, -0.18185495, -831905.0, -213586.25, 0.0, 9.998916, 9.997665 
2.636727e+3, 2.4689926e+2, -682211.25, -816239.25, -227901.16, 0.2955731, -0.18147409, -511675.66, 8715.566, 0.0, 10.000004, 9.997882 
2.6364002e+3, 2.5689268e+2, -714809.1, -978596.44, -162424.61, 0.20447217, -0.18222876, -637471.6, -215010.22, 0.0, 9.999775, 9.99634 
2.636077e+3, 2.6688835e+2, -378113.5, -488862.72, -30691.78, 0.12822458, 0.13337478, -370176.72, -45669.453, 0.0, 10.000394, 9.998597 
2.635756e+3, 2.7688462e+2, -498408.16, -696821.94, -76583.414, 0.02761111, 0.34452957, -472287.38, -245742.78, 0.0, 9.999587, 9.997016 
2.6354343e+3, 2.8687617e+2, -230670.23, -262451.84, -108487.664, -0.047206685, 0.18602046, -136915.75, -8291.436, 0.0, 9.999803, 9.999108 
2.6351118e+3, 2.968658e+2, -340134.3, -428271.53, -25299.021, -0.21343912, -0.3229067, -333388.72, -302667.16, 0.0, 9.998921, 9.997855 
2.6347944e+3, 3.068629e+2, -18704.844, 109014.35, 33650.84, 0.100655556, -0.08236243, 117338.05, 117338.05, 0.0, 9.999417, 10.000863 
2.6344737e+3, 3.1686324e+2, -470805.1, -465623.66, 101180.375, 0.097594716, 0.36588657, -367000.84, -367000.84, 0.0, 9.997578, 9.997871 
2.650611e+3, 1.2729414e+2, -2032444.9, -1812537.8, -32045.547, -0.036607623, -0.000059530783, -1807963.1, -115445.484, 0.08643013, 9.99745, 10.000378 
2.6502916e+3, 1.3728972e+2, -1274283.1, -1599006.1, -52610.12, 0.16842045, -0.048247673, -1265972.3, 328588.38, 0.055199515, 10.002942, 9.998699 
2.649969e+3, 1.4728452e+2, -1067242.8, -1351749.4, -66651.24, 0.06081041, 0.029173465, -1052402.5, 444208.0, 0.027235242, 10.003319, 9.999424 
2.6496452e+3, 1.5727785e+2, -1325009.1, -1604963.4, -78812.35, -0.13445055, -0.124524884, -1304346.9, 94327.586, 0.0089680515, 10.001385, 9.998029 
2.649321e+3, 1.6727223e+2, -1077081.6, -1237323.1, -127735.1, -0.052689962, -0.06534683, -1006419.1, 294310.63, 0.0015322798, 10.001837, 9.9995165 
2.6489964e+3, 1.7726673e+2, -971561.6, -1348210.6, -34431.727, 0.09127968, -0.06363592, -968439.9, 234345.4, 0.00007382683, 10.002524, 9.9979105 
2.6486698e+3, 1.8726073e+2, -891414.06, -1125488.9, -102756.83, 0.117822334, 0.020403335, -852705.75, 252141.03, 0.000000036839044, 10.002133, 9.998781 
2.6483425e+3, 1.9725443e+2, -1011939.25, -1287197.0, -189329.11, 0.050897423, -0.009369803, -915501.4, 91408.664, 0.0, 10.001027, 9.997681 
2.6480168e+3, 2.0724869e+2, -859343.2, -979496.3, -93666.33, -0.02443155, 0.07260393, -808142.75, 100825.305, 0.0, 10.000724, 9.999205 
2.647692e+3, 2.1724328e+2, -913788.2, -1105086.4, -25963.059, -0.13202097, 0.09429, -910327.1, -99303.51, 0.0, 10.000164, 9.998034 
2.6473695e+3, 2.272374e+2, -738037.2, -810911.3, -34920.563, 0.0300928, 0.1578076, -724005.44, -10922.829, 0.0, 10.000274, 9.999194 
2.6470482e+3, 2.372308e+2, -659743.2, -901165.3, -46880.81, 0.31829458, 0.07011188, -650959.2, -35812.215, 0.0, 10.000663, 9.997845 
2.646723e+3, 2.472233e+2, -334176.0, -581261.0, -48361.24, 0.30556014, 0.016313644, -325047.66, 192171.08, 0.0, 10.00197, 9.998615 
2.6463968e+3, 2.5721535e+2, -124342.86, -637508.1, -2014.0039, 0.15905137, -0.13480484, -124334.95, 294959.94, 0.0, 10.003389, 9.996999 
2.646073e+3, 2.6720938e+2, -160076.61, -545461.25, 65851.664, 0.070287086, 0.08088191, -149135.02, 172222.22, 0.0, 10.0024605, 9.9972515 
2.6457518e+3, 2.7720436e+2, -441917.6, -730214.06, 8765.112, 0.09500127, 0.32846686, -441651.34, -218238.9, 0.0, 10.000067, 9.996592 
2.64543e+3, 2.8719586e+2, -225649.33, -187972.7, -4580.5586, 0.03912775, 0.13986129, -187423.81, -61932.504, 0.0, 9.999415, 9.999831 
2.6451063e+3, 2.9718572e+2, -301920.84, -330925.56, 10104.059, -0.14737037, -0.38229963, -298748.06, -271166.8, 0.0, 9.998712, 9.998635 
2.6447898e+3, 3.0718312e+2, -93901.875, 6235.4453, -44643.57, 0.19483972, -0.11794613, 23248.22, 23248.22, 0.0, 9.999085, 10.000351 
2.6444677e+3, 3.171814e+2, -274875.16, -357086.97, -178274.11, 0.10474292, 0.17021184, -133029.28, -133029.28, 0.0, 9.998681, 9.998129 
2.6606035e+3, 1.2761691e+2, -1702717.3, -1750807.9, 114223.46, -0.19611722, 0.26210126, -1610035.6, 79326.555, 0.073999934, 10.000269, 9.999361 
2.660291e+3, 1.376103e+2, -1656528.0, -1929465.9, 31827.373, 0.32391387, 0.04971588, -1652865.8, -61439.047, 0.04671151, 10.00087, 9.997389 
2.659968e+3, 1.4760463e+2, -1306801.1, -1367365.6, -95124.04, 0.20055258, 0.08568057, -1237255.5, 256225.7, 0.022592498, 10.001364, 10.000204 
2.659642e+3, 1.5759873e+2, -1429926.6, -1555212.1, -138583.19, -0.070849076, -0.07514423, -1340485.9, 55051.14, 0.0071954923, 10.000378, 9.998847 
2.6593176e+3, 1.6759379e+2, -1045561.56, -950457.8, -129106.125, -0.026367212, -0.13729724, -860424.9, 437151.88, 0.001170623, 10.000971, 10.00187 
2.658994e+3, 1.775892e+2, -1242816.0, -1384612.4, -115556.61, 0.13803717, -0.28901872, -1178141.8, 21470.22, 0.00005271245, 10.000425, 9.998634 
2.6586667e+3, 1.8758346e+2, -1190773.6, -1559580.6, -164340.4, 0.13720593, -0.05928344, -1128170.1, -26492.975, 0.000000014947995, 10.001408, 9.9961195 
2.6583388e+3, 1.9757739e+2, -1277760.3, -1659827.9, -165361.38, 0.10543766, 0.18425791, -1216131.6, -212379.77, 0.0, 10.000394, 9.99542 
2.658013e+3, 2.0757005e+2, -759629.44, -730307.1, -81181.57, 0.05571911, 0.07595609, -662473.5, 243346.66, 0.0, 10.000778, 10.000756 
2.6576883e+3, 2.1756233e+2, -1064343.4, -1128551.1, -64861.535, -0.0059173885, -0.3032247, -1024075.44, -216189.58, 0.0, 9.999146, 9.998281 
2.6573646e+3, 2.2755936e+2, -833213.1, -880048.94, -41496.242, 0.06234874, 0.047213294, -808983.0, -99062.0, 0.0, 9.999893, 9.998794 
2.657042e+3, 2.375577e+2, -966195.25, -1119496.4, -35403.4, 0.18231358, 0.46233273, -958414.1, -346465.72, 0.0, 9.999038, 9.997079 
2.6567188e+3, 2.4755105e+2, -422795.03, -541330.4, -19570.404, 0.17999254, 0.46931708, -419647.5, 94362.86, 0.0, 10.001123, 9.999242 
2.6563942e+3, 2.5754222e+2, -422749.13, -830226.75, 5216.6714, 0.07425325, 0.15317915, -422682.34, -6593.5522, 0.0, 10.001713, 9.996444 
2.6560706e+3, 2.675326e+2, -391272.47, -795005.25, -28855.637, 0.060690373, 0.09546409, -389220.5, -71034.766, 0.0, 10.00166, 9.995827 
2.6557478e+3, 2.775228e+2, -675806.7, -992144.9, -28770.076, 0.11720434, -0.018266607, -673211.4, -452923.25, 0.0, 9.999273, 9.995128 
2.6554254e+3, 2.8751704e+2, -264751.0, -184932.06, -16065.358, 0.09081361, 0.0992971, -181819.89, -59475.586, 0.0, 9.999213, 9.9998665 
2.6551014e+3, 2.9751274e+2, -491812.63, -559242.75, 21448.617, -0.14712858, 0.15979193, -485568.38, -461185.16, 0.0, 9.998147, 9.997304 
2.6547852e+3, 3.0750525e+2, -370861.0, -475874.22, -55962.5, 0.31314155, 0.17350233, -346629.47, -346629.47, 0.0, 9.998772, 9.997135 
2.6544604e+3, 3.1749594e+2, -163421.05, 83599.86, -285438.63, -0.10202258, -0.08538462, 271103.94, 271103.94, 0.0, 9.99788, 10.0015135 
2.6706046e+3, 1.2793562e+2, -1215202.4, -1347882.1, -85905.23, -0.04274186, 0.187591, -1173003.4, 513241.84, 0.062782116, 10.002967, 10.00103 
2.6702866e+3, 1.3793077e+2, -1748310.0, -1820150.9, 4114.3345, 0.29251593, 0.05178804, -1748075.1, -159789.69, 0.039146993, 9.999485, 9.998861 
2.6699632e+3, 1.4792642e+2, -1545928.1, -1489997.9, -25331.18, 0.18790762, 0.17189105, -1480230.9, 10100.255, 0.018543638, 9.99973, 10.000142 
2.669639e+3, 1.5792198e+2, -1337332.4, -1473142.3, -81560.61, -0.04491472, 0.19083637, -1299109.0, 93271.08, 0.005710664, 10.000759, 9.999249 
2.669314e+3, 1.6791682e+2, -1045048.3, -961890.75, -185575.5, 0.011420262, 0.08560547, -813293.2, 481129.7, 0.0008890518, 10.000883, 10.001872 
2.6689896e+3, 1.7791155e+2, -1217659.0, -1280524.0, -208951.25, 0.13085444, -0.13254339, -1037789.3, 158673.81, 0.000037964888, 10.000036, 9.999554 
2.6686636e+3, 1.8790646e+2, -1036999.9, -1261195.6, -136582.16, 0.16114302, -0.007617434, -972404.2, 126111.02, 0.0000000057994387, 10.001355, 9.998251 
2.668337e+3, 1.9790117e+2, -809400.75, -1258763.6, -3476.4412, 0.15738927, 0.13834545, -809373.9, 191200.77, 0.0, 10.00268, 9.997105 
2.6680112e+3, 2.078934e+2, -531036.1, -800205.25, -4690.4805, 0.1277604, 0.042598333, -530954.44, 371693.47, 0.0, 10.00309, 9.9992 
2.667686e+3, 2.1788469e+2, -528622.94, -931053.4, -119702.195, 0.07577065, -0.2547989, -495709.6, 309017.0, 0.0, 10.002896, 9.997887 
2.6673618e+3, 2.2788018e+2, -539454.94, -714329.25, -120068.914, 0.14239849, -0.06570607, -478359.94, 228413.31, 0.0, 10.00165, 9.999167 
2.667038e+3, 2.3787715e+2, -751008.2, -968804.6, -64667.77, 0.25685093, 0.21424034, -733254.4, -124445.57, 0.0, 10.000125, 9.997641 
2.6667154e+3, 2.4787073e+2, -470729.72, -644937.2, -29151.965, 0.21528572, 0.26108438, -465980.88, 44889.695, 0.0, 10.00103, 9.998614 
2.666392e+3, 2.5786287e+2, -284799.2, -746944.44, -107591.25, 0.10500368, 0.10941189, -260978.83, 151964.78, 0.0, 10.002443, 9.99669 
2.6660675e+3, 2.6785368e+2, -203396.9, -668760.0, -152906.13, 0.05061437, 0.050106905, -157652.55, 157384.44, 0.0, 10.002647, 9.996292 
2.6657435e+3, 2.778439e+2, -213764.64, -672404.44, -72571.67, 0.109544255, -0.08487626, -202555.4, 14583.278, 0.0, 10.001886, 9.996106 
2.6654208e+3, 2.8783947e+2, 29969.1, -44959.207, -4443.1763, 0.11530298, 0.12155475, 30231.654, 149415.7, 0.0, 10.001101, 10.000014 
2.6650968e+3, 2.978368e+2, -291193.75, -473459.0, 24849.154, 0.007678008, 0.3736279, -287866.66, -266656.3, 0.0, 9.999406, 9.997353 
2.6647782e+3, 3.0782738e+2, -473686.75, -672684.44, 72790.9, 0.24853694, 0.28231928, -449903.25, -449903.25, 0.0, 9.998688, 9.995846 
2.6644525e+3, 3.178165e+2, -83686.61, 466858.28, -215459.63, -0.1703992, -0.008719269, 541153.8, 541153.8, 0.0, 9.996817, 10.004702 
2.6806065e+3, 1.2825571e+2, -974536.8, -1091184.9, -16944.414, 0.2676076, 0.1717043, -972125.3, 710986.6, 0.05267765, 10.004142, 10.002268 
2.680282e+3, 1.3825223e+2, -1566254.6, -1667943.3, -19082.463, 0.34621358, 0.025753886, -1562791.6, 22341.982, 0.03242507, 10.000583, 9.999316 
2.6799586e+3, 1.4824903e+2, -1458128.5, -1480814.4, 104170.35, 0.1987328, 0.24575205, -1364685.4, 122486.89, 0.015032841, 10.000519, 9.999751 
2.679636e+3, 1.5824556e+2, -1460887.8, -1621370.8, 12704.581, 0.06309149, 0.38868433, -1459888.1, -70669.81, 0.0044764117, 10.000398, 9.998365 
2.6793107e+3, 1.6824023e+2, -1110548.6, -1038825.25, -136077.11, 0.0972013, 0.32830974, -933963.7, 357302.56, 0.00066900725, 10.000813, 10.0013075 
2.6789853e+3, 1.7823449e+2, -1304946.3, -1308539.9, -159438.6, 0.19051483, 0.1056007, -1147294.4, 46018.47, 0.000027210404, 9.999529, 9.999584 
2.6786602e+3, 1.8823008e+2, -877211.5, -834099.0, -77401.93, 0.2046999, 0.08856377, -775307.7, 320041.22, 0.000000001728097, 10.001071, 10.001268 
2.6783353e+3, 1.9822592e+2, -997149.94, -1263780.9, -35935.863, 0.22524624, 0.06821773, -992391.5, 4992.774, 0.0, 10.0011835, 9.997758 
2.67801e+3, 2.082178e+2, -841016.44, -1251594.6, -47284.098, 0.20530778, 0.067890376, -835641.3, 63823.32, 0.0, 10.002335, 9.996422 
2.6776844e+3, 2.182085e+2, -967178.44, -1390127.1, -132508.36, 0.16552654, -0.030468103, -929093.44, -127536.01, 0.0, 10.001074, 9.995607 
2.677359e+3, 2.2820057e+2, -547700.6, -652522.6, -179477.2, 0.25160158, -0.17249161, -413138.4, 290491.7, 0.0, 10.001379, 9.99968 
2.6770344e+3, 2.3819335e+2, -960298.9, -1166976.1, -93458.945, 0.37595445, -0.3628866, -924305.4, -318610.63, 0.0, 9.999251, 9.996679 
2.676712e+3, 2.481866e+2, -627470.3, -868223.9, 32795.27, 0.27887335, -0.24227884, -623082.94, -115319.63, 0.0, 10.000755, 9.997103 
2.6763895e+3, 2.5818005e+2, -609009.6, -1033665.8, -55130.125, 0.076133, -0.14622127, -601969.25, -192136.9, 0.0, 10.000923, 9.995415 
2.6760644e+3, 2.681738e+2, -215068.75, -506727.56, -168614.39, -0.04718562, 0.026346996, -137969.86, 173928.36, 0.0, 10.001939, 9.997698 
2.6757386e+3, 2.7816746e+2, -342340.25, -666704.6, -92044.32, -0.10601484, 0.08302077, -318041.28, -104075.42, 0.0, 10.000796, 9.996666 
2.675416e+3, 2.8816247e+2, -36913.246, -55148.105, -68873.89, 0.020087564, 0.18405326, 23444.072, 139461.25, 0.0, 10.000617, 10.000133 
2.6750925e+3, 2.9815808e+2, -412449.78, -548212.9, -23872.11, 0.050532266, 0.2329692, -408374.53, -390312.44, 0.0, 9.9987335, 9.997154 
2.674769e+3, 3.081504e+2, -469837.25, -617026.7, 32055.762, -0.089127734, 0.27996027, -463158.97, -463158.97, 0.0, 9.998541, 9.996278 
2.6744473e+3, 3.181405e+2, -266828.8, 281516.22, -227825.4, -0.016756728, 0.050392404, 363819.5, 363819.5, 0.0, 9.996107, 10.003748 
2.690606e+3, 1.2858225e+2, -865950.0, -1271422.5, -78184.69, 0.052085, 0.12295403, -851396.5, 828507.6, 0.043619167, 10.005859, 10.000088 
2.6902783e+3, 1.3857679e+2, -1389661.9, -1683303.3, -26778.803, 0.18571225, -0.008387995, -1387239.8, 194715.4, 0.02648621, 10.002143, 9.99849 
2.689955e+3, 1.4857265e+2, -1255919.9, -1352237.6, 196377.83, 0.13444942, 0.12795177, -1101882.0, 382117.53, 0.012009438, 10.001667, 10.000152 
2.6896337e+3, 1.5856862e+2, -1230535.8, -1473198.9, 119601.445, 0.10990598, 0.20372052, -1181497.5, 204547.02, 0.003455713, 10.001639, 9.99883 
2.6893085e+3, 1.6856383e+2, -998039.0, -1081735.1, -34782.273, 0.20203571, 0.23403223, -985471.4, 302619.44, 0.00049606664, 10.001816, 10.000618 
2.6889825e+3, 1.7855884e+2, -1043050.75, -1243032.3, -37862.492, 0.24523142, 0.18125664, -1036122.3, 154014.03, 0.00001910138, 10.001401, 9.999187 
2.6886564e+3, 1.8855268e+2, -775494.75, -885280.2, -50444.242, 0.17149334, 0.06677795, -755836.6, 336353.03, 0.0000000002885943, 10.002032, 10.000529 
2.688331e+3, 1.9854671e+2, -816187.0, -1165721.6, -125980.96, 0.0750247, -0.059017185, -775513.4, 218727.48, 0.0, 10.002215, 9.997969 
2.6880068e+3, 2.0853992e+2, -774222.44, -1161568.1, -87800.85, 0.15398997, 0.023817804, -755249.7, 141060.02, 0.0, 10.002419, 9.997049 
2.6876828e+3, 2.185326e+2, -708375.5, -1196989.5, -49928.75, 0.25470656, 0.086281694, -703325.75, 95059.81, 0.0, 10.002399, 9.99632 
2.687357e+3, 2.2852434e+2, -287402.16, -621380.75, -111928.42, 0.287258, -0.043666914, -253360.63, 447101.2, 0.0, 10.003433, 9.998996 
2.6870316e+3, 2.3851609e+2, -183374.36, -764550.06, -81701.97, 0.32126904, -0.2504247, -172107.1, 430428.47, 0.0, 10.004299, 9.997062 
2.6867086e+3, 2.4850827e+2, -224656.16, -695794.1, 73533.734, 0.20203935, -0.2422974, -213445.97, 291167.38, 0.0, 10.003469, 9.997073 
2.686386e+3, 2.585007e+2, -365075.16, -820474.56, 32454.297, 0.045514077, -0.20844023, -362773.94, 43916.96, 0.0, 10.002021, 9.996395 
2.686061e+3, 2.684954e+2, -183548.52, -342693.25, -68614.27, -0.040768515, -0.055239465, -158051.0, 150693.8, 0.0, 10.001421, 9.999128 
2.6857352e+3, 2.7849057e+2, -294637.2, -522443.84, -2193.5269, -0.05786912, 0.059382435, -294616.06, -83821.85, 0.0, 10.000496, 9.997811 
2.685411e+3, 2.8848472e+2, -115701.266, -179614.17, -21608.064, -0.02794858, 0.090212174, -109081.516, 3774.1343, 0.0, 10.000379, 9.999409 
2.6850867e+3, 2.9847893e+2, -254549.47, -459949.1, -49017.13, 0.0009814044, 0.08807474, -243451.52, -228535.2, 0.0, 9.999665, 9.9973135 
2.6847622e+3, 3.0847374e+2, -221196.6, -351819.28, 37108.395, -0.15246676, 0.28074905, -211390.67, -211390.67, 0.0, 9.999541, 9.997642 
2.6844442e+3, 3.1846488e+2, -40500.92, 335462.16, -285739.97, 0.45423633, 0.064422846, 489510.44, 489510.44, 0.0, 9.997824, 10.003288 
2.7006048e+3, 1.2890917e+2, -1872363.0, -1986495.9, -283904.06, -0.045599055, 0.12613486, -1639846.9, 36847.766, 0.03555016, 9.999847, 9.997883 
2.7002755e+3, 1.3890204e+2, -1503179.6, -1905502.5, -151829.28, 0.18058652, 0.003924194, -1452313.1, 126457.85, 0.021269776, 10.002135, 9.996964 
2.6999518e+3, 1.4889683e+2, -1176405.3, -1237946.1, 160601.16, 0.16303359, 0.014730257, -1043653.4, 437166.88, 0.009415533, 10.001959, 10.000779 
2.6996315e+3, 1.5889192e+2, -1515650.8, -1645160.6, 80365.9, 0.23536775, -0.03883772, -1477197.8, -94332.23, 0.0026134893, 9.999943, 9.998451 
2.699306e+3, 1.6888782e+2, -1115391.5, -1198537.3, -53351.11, 0.30488855, 0.09567292, -1089328.3, 195580.1, 0.0003600524, 10.001392, 9.999942 
2.6989794e+3, 1.7888357e+2, -1213904.1, -1497893.0, -24311.574, 0.32247955, 0.19908334, -1211837.9, -24884.902, 0.000012952271, 10.001136, 9.997522 
2.698653e+3, 1.8887532e+2, -912335.3, -1134981.5, -13548.996, 0.13887751, 0.029800365, -911513.8, 177515.39, 0.000000000007316074, 10.002082, 9.998698 
2.698327e+3, 1.9886683e+2, -1091388.9, -1423084.0, -94502.484, -0.062008772, -0.17916161, -1066354.0, -75247.33, 0.0, 10.000994, 9.996782 
2.6980034e+3, 2.0886174e+2, -800590.7, -985947.94, -87807.266, 0.09794825, -0.022207305, -765600.06, 127559.33, 0.0, 10.001534, 9.998634 
2.6976806e+3, 2.1885717e+2, -1039409.5, -1356995.8, -39449.766, 0.31862813, 0.17508267, -1034582.5, -239373.63, 0.0, 10.000311, 9.996186 
2.697355e+3, 2.2885013e+2, -546284.25, -866225.4, -61030.95, 0.26838702, 0.22543825, -535037.5, 162239.89, 0.0, 10.002387, 9.997694 
2.697029e+3, 2.3884256e+2, -564063.3, -1092531.1, -42732.688, 0.14064302, 0.20298848, -560630.2, 38719.242, 0.0, 10.002462, 9.995658 
2.6967055e+3, 2.4883318e+2, -330184.03, -678091.2, 28240.605, 0.03346075, 0.041905235, -327906.6, 173531.9, 0.0, 10.002559, 9.99757 
2.6963824e+3, 2.5882387e+2, -658807.75, -929412.9, -7274.756, -0.070865475, -0.16569032, -658612.4, -255085.64, 0.0, 10.000035, 9.99656 
2.6960576e+3, 2.6881832e+2, -229652.16, -211622.81, -84980.31, -0.013034645, -0.1527741, -135180.38, 170397.02, 0.0, 10.000586, 10.000349 
2.6957318e+3, 2.788137e+2, -457993.72, -610830.06, -6137.456, 0.023267655, -0.13798359, -457747.66, -250127.72, 0.0, 9.999571, 9.9976225 
2.6954055e+3, 2.8880692e+2, -283256.1, -410833.53, -26158.947, -0.13045883, -0.097810335, -278100.7, -168408.44, 0.0, 10.000039, 9.997927 
2.6950783e+3, 2.9880017e+2, -408482.6, -598425.2, -37291.324, -0.37839127, -0.06307462, -401423.53, -389657.63, 0.0, 9.999009, 9.996668 
2.6947573e+3, 3.0879787e+2, -121796.51, -70480.72, 36333.83, -0.113714755, 0.28004104, -51658.57, -51658.57, 0.0, 9.99929, 9.999686 
2.694437e+3, 3.1878936e+2, -216202.06, 66100.266, -324315.7, 0.3613795, -0.044013835, 278650.0, 278650.0, 0.0, 9.997535, 10.001584 
2.7105984e+3, 1.2923174e+2, -2281980.8, -2067192.1, -200700.06, -0.049545307, 0.1545252, -1946959.4, -273421.63, 0.028415078, 9.996418, 9.9990425 
2.7102762e+3, 1.392269e+2, -1164120.6, -1573616.1, -60050.69, 0.33869067, 0.17190664, -1155496.1, 420094.9, 0.016713178, 10.003693, 9.998513 
2.7099502e+3, 1.4922208e+2, -955870.6, -995044.6, 59828.64, 0.18652134, 0.073781975, -912504.4, 565127.75, 0.0071980846, 10.0027685, 10.002126 
2.7096248e+3, 1.5921701e+2, -1450421.9, -1495057.5, 75348.11, -0.004986077, -0.09936113, -1394155.9, -14481.727, 0.0019202423, 9.999758, 9.999603 
2.7093002e+3, 1.6921307e+2, -1072022.0, -1182561.5, 67721.06, 0.046856612, 0.029444378, -1039879.6, 241835.48, 0.00025324232, 10.001683, 9.999944 
2.708976e+3, 1.7920908e+2, -864447.2, -1346931.0, 58105.41, 0.08994689, 0.19238198, -857548.25, 326210.16, 0.000008369746, 10.003502, 9.9974375 
2.7086502e+3, 1.8920085e+2, -865217.75, -1277190.5, 18692.367, 0.06664132, 0.14159745, -864371.4, 221468.39, 0.0, 10.003059, 9.99729 
2.7083248e+3, 1.9919215e+2, -969149.6, -1383480.8, -42895.234, 0.017320422, 0.052288402, -964755.4, 23169.256, 0.0, 10.001762, 9.996726 
2.7080005e+3, 2.0918526e+2, -767407.6, -938898.06, -66704.914, 0.1619081, 0.025659056, -744516.8, 145474.42, 0.0, 10.001444, 9.999101 
2.707677e+3, 2.1917929e+2, -840716.5, -1135132.5, -33662.18, 0.30957133, 0.044337977, -836916.75, -44867.21, 0.0, 10.000961, 9.997441 
2.707352e+3, 2.2917347e+2, -553427.75, -854944.56, 33655.113, 0.234302, 0.17969415, -549716.9, 144392.16, 0.0, 10.002141, 9.997975 
2.7070272e+3, 2.391673e+2, -367369.75, -901121.1, 60559.27, 0.10953689, 0.29655147, -360584.97, 235586.67, 0.0, 10.003239, 9.996622 
2.7067026e+3, 2.4915877e+2, -440595.7, -688218.9, 60197.727, 0.07313401, 0.18332729, -426737.1, 71515.54, 0.0, 10.001519, 9.998049 
2.7063787e+3, 2.5915006e+2, -713934.75, -852727.1, 48147.88, 0.0757313, 0.019092541, -698867.6, -298533.3, 0.0, 9.999094, 9.997547 
2.7060533e+3, 2.6914394e+2, -358321.4, -304157.3, -38909.918, 0.039055236, -0.03604869, -283832.4, 18558.566, 0.0, 9.999701, 10.000198 
2.7057275e+3, 2.7913833e+2, -293730.22, -464667.5, -60798.938, 0.055404715, -0.09555027, -274311.28, -69868.03, 0.0, 10.000253, 9.998326 
2.7054006e+3, 2.8913218e+2, -182341.75, -279593.7, 12123.523, -0.10201751, -0.06738836, -180853.2, -74348.59, 0.0, 10.000303, 9.998747 
2.7050734e+3, 2.9912594e+2, -285952.28, -422148.3, 131978.92, -0.32403708, -0.032401644, -205538.42, -196970.23, 0.0, 9.999234, 9.997794 
2.7047527e+3, 3.0912143e+2, -78240.62, 37118.5, 141018.95, 0.02096784, 0.029771531, 131797.98, 131797.98, 0.0, 9.999162, 10.000503 
2.704431e+3, 3.1911445e+2, -146308.08, -17626.617, -316190.25, 0.49170506, -0.1627712, 240702.77, 240702.77, 0.0, 9.99847, 10.00055 
2.7205932e+3, 1.2955391e+2, -1706073.4, -1598427.4, 140122.61, 0.15717776, 0.14712219, -1502146.3, 168236.75, 0.02219124, 9.999741, 10.00061 
2.7202767e+3, 1.3955157e+2, -1671866.5, -1723671.4, 79349.43, 0.60968596, 0.26645446, -1614298.8, -41888.68, 0.01278431, 9.9998045, 9.999355 
2.7199477e+3, 1.4954756e+2, -1129625.6, -954806.2, -25424.377, 0.23496594, 0.13551085, -951183.75, 523257.03, 0.00532732, 10.001167, 10.003118 
2.719618e+3, 1.5954286e+2, -1364584.4, -1433904.0, 295.09775, -0.16761518, -0.08409879, -1364583.1, 11894.005, 0.0013580795, 10.000434, 9.999672 
2.7192947e+3, 1.6953859e+2, -1065034.3, -1192683.1, 49937.496, -0.16508494, -0.006605327, -1047819.7, 230700.7, 0.00016970174, 10.001916, 9.999716 
2.7189723e+3, 1.7953438e+2, -1203655.6, -1649032.6, -32540.9, -0.083504274, 0.17379303, -1201290.6, -20725.059, 0.0000049540654, 10.0018835, 9.996137 
2.7186477e+3, 1.8952678e+2, -1008622.0, -1478138.5, -106172.56, 0.041923307, 0.27161753, -985729.25, 96917.07, 0.0, 10.0027, 9.996032 
2.7183232e+3, 1.9951843e+2, -1177685.3, -1620398.0, -106814.19, 0.19878688, 0.33247468, -1153261.4, -168528.1, 0.0, 10.001095, 9.995368 
2.7179977e+3, 2.0950939e+2, -807012.0, -931255.2, -117068.516, 0.27040315, 0.09050109, -736603.9, 150212.36, 0.0, 10.001284, 9.999116 
2.7176723e+3, 2.1950097e+2, -1096907.1, -1292895.5, -51012.715, 0.31131548, -0.1353311, -1084424.4, -295531.9, 0.0, 9.999515, 9.997033 
2.7173486e+3, 2.2949597e+2, -628091.06, -787603.1, 66763.37, 0.2191649, 0.004839547, -603835.7, 87109.945, 0.0, 10.001314, 9.998773 
2.717025e+3, 2.3949158e+2, -737777.3, -1068097.5, 34897.39, 0.09583997, 0.22786397, -734130.75, -141136.64, 0.0, 10.000853, 9.996568 
2.7166998e+3, 2.4948516e+2, -536385.94, -682593.06, -33745.176, 0.17860883, 0.26361543, -528973.25, -33916.625, 0.0, 10.000782, 9.9983635 
2.7163747e+3, 2.5947836e+2, -907779.44, -1054094.9, 10833.353, 0.2442262, 0.2752557, -906981.7, -509859.47, 0.0, 9.998337, 9.996541 
2.7160478e+3, 2.6947144e+2, -506513.94, -504521.56, 3264.676, 0.042043116, 0.23192842, -502104.47, -202912.38, 0.0, 9.999369, 9.998945 
2.715721e+3, 2.7946475e+2, -471890.8, -564114.2, -45012.15, -0.15427919, 0.17104603, -453563.53, -252305.03, 0.0, 9.999202, 9.998142 
2.7153963e+3, 2.8946033e+2, -79742.875, 42835.633, -15859.523, -0.0860837, 0.17422567, 44854.336, 148146.86, 0.0, 9.9998865, 10.001128 
2.71507e+3, 2.9945558e+2, -326002.4, -356310.0, 104582.805, -0.15732372, 0.14751737, -235481.23, -230151.98, 0.0, 9.998687, 9.998486 
2.7147487e+3, 3.0944312e+2, -179471.95, -82918.88, 108899.15, 0.15380646, -0.5849279, -12075.11, -12075.11, 0.0, 9.998833, 9.999784 
2.7144244e+3, 3.1944314e+2, -270589.5, -224277.78, -155961.77, 0.3236727, -0.0004844121, -89762.24, -89762.24, 0.0, 9.998365, 9.999128 
2.7305922e+3, 1.2987646e+2, -1130481.5, -1174437.0, -76040.89, 0.15349707, -0.10157162, -1073306.0, 593903.56, 0.016854309, 10.003032, 10.001982 
2.7302685e+3, 1.3987428e+2, -1954366.0, -1830584.9, 68200.14, 0.36307862, -0.056707736, -1800379.4, -231146.88, 0.009467287, 9.997652, 9.999673 
2.7299422e+3, 1.4987136e+2, -1382042.6, -1249335.8, 83086.84, 0.10296743, 0.04007324, -1209358.6, 261902.7, 0.0037924994, 10.000164, 10.001558 
2.7296162e+3, 1.5986751e+2, -1077381.6, -1443127.6, -16622.998, -0.15480007, 0.06377891, -1076627.8, 296670.84, 0.0009170214, 10.002957, 9.998385 
2.729293e+3, 1.6986026e+2, -1012823.1, -1361171.8, -72216.16, -0.11961639, 0.010324383, -998445.4, 276924.72, 0.0001065257, 10.002972, 9.998103 
2.7289703e+3, 1.7985314e+2, -1139381.3, -1599387.4, -178881.83, -0.055078097, 0.017372865, -1078008.0, 99433.23, 0.0000025959862, 10.002117, 9.996383 
2.7286464e+3, 1.8984619e+2, -833007.44, -1273052.4, -179060.23, 0.10623247, 0.10150958, -769353.25, 310160.06, 0.0, 10.003262, 9.997247 
2.728322e+3, 1.9983923e+2, -679164.94, -1241165.8, -158435.3, 0.25332576, 0.19104855, -637577.44, 344008.1, 0.0, 10.003792, 9.996685 
2.727995e+3, 2.0983136e+2, -540964.56, -847689.94, -187648.42, 0.23730566, 0.06779522, -451980.3, 431680.13, 0.0, 10.003194, 9.998841 
2.727668e+3, 2.1982387e+2, -624958.06, -979029.0, -116898.92, 0.18787055, -0.03919443, -589845.2, 195885.83, 0.0, 10.002218, 9.997903 
2.727344e+3, 2.2981893e+2, -603947.2, -696328.6, -13841.397, 0.11486047, 0.031818576, -601917.9, 85863.64, 0.0, 10.001017, 9.999575 
2.7270204e+3, 2.398146e+2, -735560.7, -896888.06, -38852.836, 0.076542206, 0.17415275, -726691.25, -136864.95, 0.0, 9.999979, 9.998186 
2.7266964e+3, 2.4980843e+2, -255303.58, -439864.72, -44965.12, 0.1969817, 0.13226937, -244931.5, 246952.11, 0.0, 10.002127, 9.999454 
2.7263722e+3, 2.598022e+2, -8673.99, -502529.75, -11752.256, 0.3194676, 0.11270048, -8394.48, 385547.56, 0.0, 10.003877, 9.997668 
2.7260435e+3, 2.6979616e+2, -235513.5, -420238.6, -14056.767, 0.0810319, 0.17308721, -234449.97, 61556.258, 0.0, 10.001337, 9.998621 
2.725716e+3, 2.7979025e+2, -566865.0, -549892.5, 27399.152, -0.093309164, 0.2261637, -529695.44, -331626.94, 0.0, 9.998155, 9.998774 
2.7253926e+3, 2.8978577e+2, -23411.047, 128408.24, -5147.356, 0.06643743, 0.17656994, 128582.56, 228684.11, 0.0, 9.999893, 10.001761 
2.725068e+3, 2.9978108e+2, 120978.336, -69807.22, -17408.299, 0.14419074, 0.097296245, 122553.75, 124688.65, 0.0, 10.001351, 9.9991865 
2.7247435e+3, 3.0976823e+2, 230546.83, 60802.473, -40727.793, 0.14973584, -0.6784327, 239813.06, 239813.06, 0.0, 10.00174, 9.999465 
2.7244172e+3, 3.1977257e+2, -275.4471, -183893.17, -293592.22, 0.18731925, 0.40764123, 215527.89, 215527.89, 0.0, 10.000397, 9.998515 
2.740591e+3, 1.3019967e+2, -1622768.5, -1310186.5, -224722.25, 0.27078155, -0.27941364, -1192749.5, 471281.3, 0.012358647, 9.99932, 10.002722 
2.74026e+3, 1.4019717e+2, -1861376.8, -1881491.9, -79158.37, 0.20005633, -0.3090809, -1791639.6, -225584.69, 0.0067449408, 9.998816, 9.998703 
2.7399367e+3, 1.5019491e+2, -1360380.5, -1443434.6, 107293.73, 0.014393624, -0.033977196, -1286857.8, 181227.89, 0.0025850076, 10.001212, 9.99968 
2.7396157e+3, 1.6019157e+2, -1360386.5, -1811844.1, -23034.502, -0.03127069, 0.22708707, -1359214.3, 10912.694, 0.0005889778, 10.002099, 9.996245 
2.7392924e+3, 1.7018133e+2, -1121110.8, -1586890.4, -76640.22, 0.01998213, 0.015350061, -1108824.3, 163402.06, 0.00006228534, 10.00303, 9.9965 
2.738969e+3, 1.8017104e+2, -1218974.1, -1692775.4, -101215.73, 0.084171176, -0.14524367, -1198257.8, -23931.967, 0.0000011486238, 10.001947, 9.99579 
2.7386454e+3, 1.9016476e+2, -884730.06, -1099702.8, -89790.38, 0.21319431, -0.13664387, -852160.6, 224226.67, 0.0, 10.002202, 9.998855 
2.7383214e+3, 2.0015928e+2, -1075075.0, -1411607.9, -127019.375, 0.3155949, -0.023987353, -1032515.56, -54073.53, 0.0, 10.001143, 9.996753 
2.7379918e+3, 2.1015315e+2, -758455.1, -1013674.94, -183750.27, 0.16829889, 0.030076712, -662349.94, 218156.31, 0.0, 10.002011, 9.998229 
2.737663e+3, 2.2014724e+2, -914168.9, -1179410.9, -107145.54, -0.005468973, 0.14427406, -876295.0, -93727.51, 0.0, 10.000626, 9.997266 
2.7373382e+3, 2.3014197e+2, -638291.5, -633819.5, -52774.09, -0.021254677, 0.11355746, -583234.06, 101383.32, 0.0, 10.000572, 10.000151 
2.7370146e+3, 2.401368e+2, -922237.9, -961967.94, -17680.88, -0.008529576, 0.1260567, -915509.06, -328844.28, 0.0, 9.998721, 9.998321 
2.7366927e+3, 2.5012994e+2, -296479.4, -302652.4, 35372.51, 0.12416569, -0.13427071, -264058.97, 224664.56, 0.0, 10.001274, 10.000737 
2.73637e+3, 2.601236e+2, -302007.2, -621022.94, -61312.35, 0.19698432, -0.2742311, -290629.22, 100149.45, 0.0, 10.001916, 9.997754 
2.7360395e+3, 2.7011943e+2, -325432.47, -431921.8, -156989.39, 0.07018947, -0.09250197, -212904.2, 79921.6, 0.0, 10.000661, 9.998814 
2.73571e+3, 2.80115e+2, -729850.7, -720235.5, 2504.4077, -0.027821667, 0.12012365, -719622.3, -524747.5, 0.0, 9.997588, 9.99784 
2.7353898e+3, 2.9010874e+2, -120930.93, -14439.582, 87257.49, 0.26837203, -0.054452375, 34534.957, 131465.69, 0.0, 9.9997635, 10.000795 
2.7350676e+3, 3.0010304e+2, -27838.729, -243943.6, 14150.323, 0.34842518, -0.13119489, -26916.117, -26916.117, 0.0, 10.000897, 9.998189 
2.7347362e+3, 3.1009877e+2, 190528.05, 59965.28, -40600.563, -0.27445102, -0.06947308, 202123.61, 202123.61, 0.0, 10.00152, 9.999487 
2.7344128e+3, 3.2009292e+2, -164524.66, -401951.66, -367141.1, 0.0964057, 0.022635847, 102618.664, 102618.664, 0.0, 10.000007, 9.997147 
2.750582e+3, 1.3052426e+2, -1982977.0, -1758061.9, -164495.27, -0.064273745, -0.27943718, -1671257.3, -10402.628, 0.00868548, 9.997833, 10.000441 
2.7502564e+3, 1.4052224e+2, -1506245.5, -1827812.8, -48476.07, 0.12109036, -0.04670223, -1499096.6, 63780.504, 0.0045926278, 10.001641, 9.997739 
2.7499345e+3, 1.5051766e+2, -1181865.4, -1439963.8, 101328.11, 0.014584618, 0.06992054, -1146838.1, 318089.13, 0.0016782226, 10.002661, 9.999095 
2.749614e+3, 1.6051222e+2, -1194982.9, -1619345.3, -4499.546, -0.036208194, 0.16244724, -1194935.3, 172049.61, 0.0003582281, 10.002669, 9.997307 
2.7492914e+3, 1.7050418e+2, -887184.94, -1280048.6, 27830.043, 0.013093386, 0.024083374, -885223.3, 383837.5, 0.000033741435, 10.003783, 9.9982605 
2.7489674e+3, 1.8049607e+2, -828263.5, -1357457.8, 14394.766, 0.035342343, -0.057675462, -827872.25, 343264.9, 0.00000040337267, 10.003892, 9.997162 
2.748642e+3, 1.9048892e+2, -955945.25, -1151383.8, -43671.785, 0.13710196, -0.13933787, -946630.5, 126575.27, 0.0, 10.001639, 9.998828 
2.7483156e+3, 2.0048265e+2, -1252552.8, -1426978.9, -63437.746, 0.21112001, -0.101595625, -1231921.1, -256653.61, 0.0, 9.999478, 9.997471 
2.747988e+3, 2.1047728e+2, -836010.9, -1019240.1, -35136.766, 0.13289176, 0.007346787, -829504.0, 47821.734, 0.0, 10.001182, 9.9986515 
2.747661e+3, 2.2047198e+2, -541742.5, -935066.1, 25743.686, 0.042817924, 0.1490658, -540064.7, 239317.84, 0.0, 10.0027275, 9.997988 
2.7473357e+3, 2.3046573e+2, -353088.97, -552755.94, 19605.297, 0.027610477, 0.08177205, -351182.13, 330259.06, 0.0, 10.002613, 9.999835 
2.7470112e+3, 2.4045956e+2, -395968.4, -658934.9, 28057.242, 0.039948225, 0.027736913, -393008.16, 190489.48, 0.0, 10.001957, 9.998889 
2.7466887e+3, 2.5045264e+2, -393702.06, -400202.56, 3282.7761, 0.11667009, -0.18672916, -392332.72, 93227.305, 0.0, 10.000697, 10.0004425 
2.7463654e+3, 2.604466e+2, -542421.3, -617250.3, -166891.64, 0.17604244, -0.28284067, -408801.72, -21186.865, 0.0, 9.999602, 9.998944 
2.7460346e+3, 2.7044338e+2, -183672.17, -250794.9, -268220.72, 0.02291612, -0.10296011, 53078.723, 342727.38, 0.0, 10.0010195, 9.9999485 
2.745705e+3, 2.804397e+2, -70718.45, -332508.0, -60958.652, -0.02801581, 0.08489001, -57220.016, 134467.55, 0.0, 10.001703, 9.998525 
2.7453852e+3, 2.9043177e+2, -89908.41, -89815.984, 21066.057, 0.3116858, -0.19294319, -68796.086, 24965.533, 0.0, 10.000333, 10.000026 
2.7450636e+3, 3.0042514e+2, -359488.3, -380043.47, -21682.07, 0.45463488, -0.29338112, -345771.28, -345771.28, 0.0, 9.99842, 9.99848 
2.7447313e+3, 3.1042612e+2, 22276.965, 45760.395, -48206.59, -0.33388212, 0.2480112, 83634.63, 83634.63, 0.0, 9.999965, 10.000191 
2.7444112e+3, 3.2041368e+2, 210570.61, -150361.45, -267422.2, 0.3738993, -0.3733669, 352722.94, 352722.94, 0.0, 10.0021715, 9.997815 
2.7605745e+3, 1.308499e+2, -1707347.0, -1801231.5, -79230.14, -0.20318256, -0.09671502, -1662197.0, -4525.6646, 0.0058229626, 10.0006895, 9.9986515 
2.760254e+3, 1.4084764e+2, -1527870.9, -2003188.1, -1784.176, 0.1755785, 0.26564154, -1527864.3, 31833.025, 0.0029696852, 10.002365, 9.9961405 
2.7599332e+3, 1.5084016e+2, -1215455.1, -1471713.4, 119777.85, 0.08965512, 0.12917136, -1168188.1, 293582.5, 0.0010279784, 10.00268, 9.998777 
2.7596122e+3, 1.6083269e+2, -1376039.3, -1648234.5, 39103.723, 0.036873214, 0.03438694, -1370533.0, -6690.221, 0.0002033788, 10.001258, 9.997777 
2.7592894e+3, 1.7082775e+2, -1020968.8, -1130099.6, 28303.176, 0.025423212, 0.02274521, -1014065.1, 251821.94, 0.000016580547, 10.001976, 10.00014 
2.758966e+3, 1.8082267e+2, -1201811.0, -1491139.1, -91255.92, 0.02609866, 0.09233239, -1175433.3, -7500.637, 0.00000009587778, 10.001278, 9.997473 
2.7586374e+3, 1.9081445e+2, -1082564.9, -1242132.1, -186891.39, 0.07634341, -0.10809656, -959139.6, 110871.46, 0.0, 10.001024, 9.998459 
2.7583092e+3, 2.0080695e+2, -1296824.4, -1492688.3, -58179.484, 0.12000851, -0.14276505, -1280846.3, -308761.72, 0.0, 9.999487, 9.9970045 
2.7579844e+3, 2.1080226e+2, -822799.6, -930262.94, 18493.715, 0.15219969, -0.042386703, -819706.0, 54430.0, 0.0, 10.0010395, 9.99928 
2.75766e+3, 2.207975e+2, -864440.6, -1144717.5, 23360.836, 0.19340554, 0.122623384, -862506.9, -86319.62, 0.0, 10.000984, 9.99732 
2.757334e+3, 2.3079003e+2, -556313.3, -738411.0, -6958.1846, 0.13425799, -0.02176582, -556047.9, 122209.94, 0.0, 10.001762, 9.998894 
2.7570084e+3, 2.4078295e+2, -772727.75, -1025476.25, -21281.057, 0.06645339, -0.044028558, -770948.44, -190623.58, 0.0, 10.000375, 9.99707 
2.756684e+3, 2.5077638e+2, -630392.3, -669256.2, -36878.93, 0.10650973, -0.12169999, -608139.06, -125747.12, 0.0, 9.999837, 9.998947 
2.7563593e+3, 2.607706e+2, -793546.7, -773732.9, -138201.16, 0.08727896, -0.076132305, -645084.0, -260633.72, 0.0, 9.998171, 9.998542 
2.7560294e+3, 2.7076787e+2, -198430.83, -88062.99, -201005.2, -0.11834673, 0.022631004, 65195.78, 351669.44, 0.0, 10.000349, 10.001344 
2.7557e+3, 2.8076422e+2, -252381.7, -452265.34, -94711.6, -0.22932665, 0.13233766, -214633.1, -26127.64, 0.0, 10.000727, 9.998155 
2.7553782e+3, 2.907547e+2, -237100.4, -273901.22, -61251.4, 0.08250464, -0.24394491, -191545.3, -100950.37, 0.0, 9.999855, 9.99898 
2.7550554e+3, 3.0074716e+2, -445771.06, -406364.13, -49507.992, 0.24454863, -0.36122012, -372782.8, -372782.8, 0.0, 9.997863, 9.998552 
2.7547306e+3, 3.1074932e+2, 55245.594, 213320.2, 2374.0488, 0.073917806, 0.17099017, 213355.86, 213355.86, 0.0, 9.999594, 10.0015135 
2.7544075e+3, 3.2074007e+2, 345330.63, 187639.05, 163589.73, 0.10145676, -0.2963899, 448084.0, 448084.0, 0.0, 10.002089, 10.000131 
2.7705744e+3, 1.3117489e+2, -1168190.8, -1365610.6, -160405.94, -0.17132804, 0.29135633, -1078556.0, 575940.7, 0.0036893375, 10.003568, 10.000283 
2.7702534e+3, 1.4116831e+2, -1152073.0, -1670500.5, 8767.085, 0.11758976, 0.09732588, -1151924.8, 404627.72, 0.001804221, 10.00427, 9.997494 
2.7699313e+3, 1.5116115e+2, -1132502.6, -1391940.3, 111409.67, 0.060428787, -0.061096605, -1091227.1, 367391.38, 0.00058557204, 10.003038, 9.99916 
2.7696094e+3, 1.6115418e+2, -1350194.0, -1631865.3, 24211.537, 0.039179556, -0.1253971, -1348128.1, 12556.086, 0.00010501939, 10.001287, 9.997894 
2.7692866e+3, 1.7114913e+2, -1283800.5, -1346135.4, -25291.146, 0.117975734, -0.078780904, -1274830.1, -12096.436, 0.0000068884756, 10.000386, 9.999512 
2.7689633e+3, 1.8114439e+2, -1347255.3, -1423494.8, -179101.81, 0.16986714, 0.03626584, -1202261.4, -37481.72, 0.00000000965895, 9.999582, 9.99878 
2.7686346e+3, 1.9113801e+2, -907010.3, -976897.06, -169515.2, 0.15850078, -0.124170676, -768874.4, 297965.2, 0.0, 10.001353, 10.000185 
2.768306e+3, 2.0113192e+2, -748784.25, -1094887.1, -20968.166, 0.12299079, -0.1651761, -747518.56, 221379.56, 0.0, 10.002559, 9.998289 
2.7679807e+3, 2.1112698e+2, -630117.8, -870039.0, 25075.484, 0.10269134, -0.06323368, -627525.06, 243426.77, 0.0, 10.002394, 9.999127 
2.7676558e+3, 2.2112188e+2, -680824.1, -1022092.94, -19961.748, 0.1041059, 0.08146119, -679660.5, 93346.08, 0.0, 10.001967, 9.997709 
2.7673307e+3, 2.3111431e+2, -517715.7, -794198.75, -37759.996, 0.12003253, -0.018368242, -512651.47, 162429.8, 0.0, 10.00216, 9.998418 
2.7670056e+3, 2.411073e+2, -458328.22, -755317.2, -45972.895, 0.13862908, -0.023865908, -451374.56, 125775.36, 0.0, 10.001856, 9.998257 
2.76668e+3, 2.5110254e+2, -494386.5, -501901.94, 13088.792, 0.19113465, 0.014573093, -484526.7, -5329.6787, 0.0, 10.000225, 9.999959 
2.766354e+3, 2.6109785e+2, -634348.56, -626956.25, 57891.902, 0.2012601, 0.10377535, -572642.6, -191399.61, 0.0, 9.998865, 9.999207 
2.766025e+3, 2.7109265e+2, -215329.28, -168641.56, -45299.22, -0.052360877, 0.033468153, -141025.1, 142263.84, 0.0, 10.000445, 10.000796 
2.765697e+3, 2.8108704e+2, -125869.92, -402994.8, -56795.676, -0.18700378, 0.0057786903, -114681.58, 70657.24, 0.0, 10.001501, 9.998143 
2.765373e+3, 2.9107818e+2, -25254.53, -262118.05, -77565.26, 0.00998305, -0.25016746, -2114.9258, 85308.28, 0.0, 10.001452, 9.998387 
2.765049e+3, 3.010709e+2, -63211.06, -227537.34, -11115.977, 0.16122249, -0.29089534, -62462.52, -62462.52, 0.0, 10.000421, 9.998533 
2.7647272e+3, 3.1107083e+2, 36515.176, 181189.38, -83111.62, 0.3011118, 0.039860517, 219034.83, 219034.83, 0.0, 9.999532, 10.001297 
2.7644014e+3, 3.210635e+2, -196624.33, 124129.086, 45218.96, -0.04594809, -0.28590754, 130382.04, 130382.04, 0.0, 9.99745, 10.001894 
2.7805752e+3, 1.3149898e+2, -1190052.9, -1232435.9, -20517.604, 0.018365568, 0.5767655, -1181747.8, 469578.4, 0.0021714207, 10.002936, 10.001438 
2.7802527e+3, 1.414883e+2, -1521561.0, -1835439.6, -30396.703, 0.17697112, -0.14166656, -1518644.5, 34768.12, 0.0010072395, 10.001657, 9.997657 
2.7799293e+3, 1.5148233e+2, -1091892.8, -1338720.4, 16532.773, 0.077109315, -0.24236079, -1090790.3, 364674.28, 0.00030058212, 10.003123, 9.99953 
2.779607e+3, 1.6147639e+2, -1244762.3, -1637248.9, -54060.27, 0.10742001, -0.20649554, -1237452.3, 120066.88, 0.000046417692, 10.002362, 9.997326 
2.7792838e+3, 1.7147052e+2, -1279041.1, -1424932.4, -55566.746, 0.27690277, -0.1999284, -1260287.6, -706.60297, 0.0000020738605, 10.000884, 9.998691 
2.7789596e+3, 1.8146557e+2, -1434922.4, -1406073.5, -80240.24, 0.3701113, -0.043021403, -1338971.5, -177338.58, 0.00000000000031198744, 9.99886, 9.999203 
2.7786317e+3, 1.9146173e+2, -876937.6, -733783.9, -113194.91, 0.2806577, -0.15618989, -671434.1, 392233.63, 0.0, 10.000705, 10.002096 
2.7783042e+3, 2.014577e+2, -968687.94, -1220714.1, -51652.67, 0.19186527, -0.114315145, -958512.56, 7193.3604, 0.0, 10.001305, 9.997977 
2.7779773e+3, 2.1145172e+2, -794327.06, -1014210.8, -34303.125, 0.03841893, -0.09322625, -789099.8, 78669.07, 0.0, 10.001699, 9.998404 
2.7776513e+3, 2.214458e+2, -973703.75, -1275887.3, -35283.086, -0.049512804, 0.061747562, -969638.75, -199806.78, 0.0, 10.00055, 9.996616 
2.7773273e+3, 2.3143858e+2, -681340.75, -894451.25, -25410.828, 0.07883543, -0.004682114, -678352.7, -6444.8643, 0.0, 10.001234, 9.998112 
2.777003e+3, 2.4143271e+2, -643525.0, -736015.06, -76369.32, 0.2048568, 0.09478015, -600490.3, -26522.625, 0.0, 10.0002985, 9.999094 
2.7766764e+3, 2.514304e+2, -433901.03, -230102.1, -64045.59, 0.3124174, 0.16430478, -211646.5, 264336.63, 0.0, 9.999731, 10.002028 
2.7763495e+3, 2.6142684e+2, -847475.8, -825578.9, 44829.55, 0.33079544, 0.27065465, -790380.2, -412368.8, 0.0, 9.997984, 9.998204 
2.7760217e+3, 2.7141735e+2, -445437.6, -498492.88, 19375.627, 0.07269868, -0.09022672, -439115.1, -159014.13, 0.0, 9.9999075, 9.998728 
2.7756947e+3, 2.8140867e+2, -360576.28, -623445.56, -55021.574, -0.13113348, -0.2541208, -349524.28, -167340.48, 0.0, 10.000514, 9.997062 
2.7753693e+3, 2.914024e+2, -122426.914, -288942.72, -78354.07, -0.025249848, -0.2536305, -91355.3, -7111.0483, 0.0, 10.000871, 9.998406 
2.7750432e+3, 3.0139664e+2, -280028.53, -495993.03, -46884.973, -0.038163815, -0.087408714, -270289.2, -270289.2, 0.0, 9.999801, 9.996958 
2.7747196e+3, 3.1139016e+2, -219291.56, -183055.19, -114596.05, 0.066357166, -0.21111785, -85153.89, -85153.89, 0.0, 9.998919, 9.999079 
2.7743968e+3, 3.2138416e+2, -447659.38, -88582.2, -84957.945, 0.16432004, -0.1957284, -69495.625, -69495.625, 0.0, 9.9962635, 10.001008 
2.7905756e+3, 1.3181949e+2, -1329974.8, -1640817.6, -163935.95, 0.09953526, 0.19580726, -1259496.1, 388673.72, 0.0011689387, 10.003248, 9.998597 
2.7902508e+3, 1.4180903e+2, -1664845.4, -1970426.4, -23419.063, 0.26163143, -0.23252074, -1663061.0, -112793.016, 0.0005049565, 10.000865, 9.997149 
2.7899283e+3, 1.5180482e+2, -987234.9, -1271082.8, 102200.445, 0.0508086, -0.15614763, -954266.44, 498042.66, 0.00013439951, 10.003697, 9.999763 
2.789606e+3, 1.6180053e+2, -707482.7, -1170594.1, -118279.0, -0.020061279, -0.024409749, -679023.06, 675326.94, 0.000016423304, 10.005067, 9.999247 
2.789279e+3, 1.7179519e+2, -911781.44, -1013579.6, -90157.54, 0.07850525, -0.15661356, -859147.44, 397251.63, 0.0000003300107, 10.002284, 10.000879 
2.7889523e+3, 1.8179066e+2, -1270544.3, -1305946.0, 11975.485, 0.13985121, -0.112167135, -1266873.8, -108431.08, 0.0, 9.999752, 9.9995165 
2.7886268e+3, 1.9178699e+2, -940908.06, -952701.2, -40787.6, 0.20383017, -0.03503189, -905593.0, 154890.72, 0.0, 10.000895, 10.000625 
2.7883014e+3, 2.017829e+2, -874678.6, -1119032.0, -109385.35, 0.21821319, 0.09585244, -832866.6, 129661.164, 0.0, 10.00164, 9.998502 
2.7879748e+3, 2.117763e+2, -712046.5, -925957.9, -69402.72, 0.09230156, 0.02494357, -691502.2, 173091.78, 0.0, 10.0019865, 9.998889 
2.7876487e+3, 2.2176991e+2, -622471.06, -940429.06, -25821.826, 0.02777836, 0.049488842, -620387.7, 146270.2, 0.0, 10.00208, 9.998218 
2.787325e+3, 2.3176391e+2, -494373.8, -680567.0, 36541.336, 0.16987976, 0.00895996, -487459.2, 181258.28, 0.0, 10.001819, 9.999368 
2.7870002e+3, 2.4175858e+2, -402483.84, -570127.6, 826.99384, 0.30384898, 0.07310843, -402479.75, 168289.31, 0.0, 10.00163, 9.999612 
2.7866727e+3, 2.5175405e+2, -67763.625, -144301.53, -129437.734, 0.3456528, 0.009877737, 28943.87, 501750.94, 0.0, 10.002526, 10.001326 
2.7863455e+3, 2.6174933e+2, -137508.44, -464412.75, -111616.305, 0.34334642, 0.030598246, -103034.336, 271813.56, 0.0, 10.00265, 9.998471 
2.786018e+3, 2.7174163e+2, -290298.47, -461281.38, -68570.25, 0.15212627, -0.1165449, -266196.75, 10726.1, 0.0, 10.000976, 9.998544 
2.7856913e+3, 2.8173405e+2, -506624.78, -675024.44, -29625.594, 0.047101278, -0.15553476, -501564.97, -322567.1, 0.0, 9.999365, 9.997255 
2.785366e+3, 2.9172745e+2, -210481.19, -356013.56, -90132.26, 0.09464887, -0.14578654, -167408.08, -86343.73, 0.0, 10.000332, 9.998207 
2.7850392e+3, 3.0172116e+2, -169012.95, -483304.47, -78155.05, 0.03260689, -0.010334408, -150650.86, -150650.86, 0.0, 10.00059, 9.996698 
2.7847126e+3, 3.1171378e+2, -164214.2, -289830.66, -114589.805, -0.035135936, -0.11723247, -96348.42, -96348.42, 0.0, 9.999697, 9.998056 
2.7843922e+3, 3.2170808e+2, -138925.0, 101039.38, -54121.668, 0.47027162, 0.015834255, 112681.2, 112681.2, 0.0, 9.998069, 10.001482 
2.8005758e+3, 1.3214073e+2, -1710731.5, -2080485.0, -238972.61, 0.3044593, -0.09563147, -1593470.4, 51537.957, 0.0005685035, 10.0018425, 9.996175 
2.800249e+3, 1.4213152e+2, -1559626.6, -2015454.1, 142605.44, 0.42304027, -0.25254747, -1518689.1, 28417.625, 0.00022583413, 10.002147, 9.996141 
2.799927e+3, 1.521285e+2, -1190282.8, -1367647.5, 296793.44, 0.07181772, -0.052776128, -969205.7, 479937.1, 0.00005282333, 10.002404, 9.999649 
2.7996042e+3, 1.6212529e+2, -1150324.1, -1222973.9, -70792.13, -0.09783402, 0.16262017, -1107081.3, 244094.58, 0.000004777361, 10.001517, 10.000491 
2.7992737e+3, 1.7212069e+2, -948766.75, -772927.5, -203071.48, -0.10955, -0.13656108, -639560.25, 613649.25, 0.00000002399446, 10.0010395, 10.003043 
2.798945e+3, 1.8211667e+2, -1364452.8, -1489789.9, -32445.412, -0.059199397, -0.13052706, -1356551.8, -201307.97, 0.0, 9.999872, 9.998135 
2.798622e+3, 1.9211267e+2, -1121278.4, -1276543.6, -5959.1694, 0.1349201, 0.08740373, -1121050.0, -63753.49, 0.0, 10.000827, 9.998363 
2.7982986e+3, 2.0210817e+2, -1066576.6, -1280110.9, -46657.117, 0.28132027, 0.36099997, -1056827.3, -97476.41, 0.0, 10.000725, 9.997809 
2.797973e+3, 2.1210073e+2, -793309.9, -876738.06, -35104.066, 0.22840303, 0.117692046, -780504.56, 80917.305, 0.0, 10.001112, 9.999616 
2.7976474e+3, 2.2209433e+2, -820099.56, -896849.6, -14631.671, 0.20733039, 0.065178744, -817404.8, -53923.86, 0.0, 10.000361, 9.999271 
2.797323e+3, 2.3208989e+2, -542192.56, -496884.06, 7975.9937, 0.32079187, -0.015802233, -495521.0, 169996.58, 0.0, 10.000778, 10.001077 
2.7969974e+3, 2.420846e+2, -736022.44, -905158.4, -9688.472, 0.38506293, 0.014531187, -735469.25, -167905.3, 0.0, 10.000251, 9.99793 
2.7966696e+3, 2.5207523e+2, -429864.1, -586503.8, -88895.19, 0.29203513, -0.34173992, -389708.8, 79945.02, 0.0, 10.001306, 9.998825 
2.7963412e+3, 2.6206827e+2, -435731.4, -643147.9, -143822.56, 0.18350738, -0.3582057, -362125.44, 9596.157, 0.0, 10.000913, 9.998038 
2.7960137e+3, 2.720662e+2, -345786.03, -363956.44, -122311.8, 0.1293296, -0.05902751, -232222.48, 41523.137, 0.0, 10.000187, 9.999549 
2.795687e+3, 2.820625e+2, -632783.8, -796350.06, -39956.902, 0.124642946, 0.26036435, -623544.8, -447758.44, 0.0, 9.998885, 9.996618 
2.795363e+3, 2.9205248e+2, -317879.88, -484865.72, -46046.297, 0.2237338, -0.029500153, -306024.3, -228133.88, 0.0, 10.000007, 9.997461 
2.795036e+3, 3.020448e+2, -289454.6, -546997.2, -134348.95, 0.09533261, 0.022264548, -232129.97, -232129.97, 0.0, 9.999954, 9.996495 
2.794706e+3, 3.120429e+2, -245225.69, -277452.38, -140999.27, -0.19180986, 0.41981533, -119422.03, -119422.03, 0.0, 9.999044, 9.998382 
2.7943844e+3, 3.2203326e+2, -153196.73, 201516.64, 70399.17, 0.19862252, 0.085996635, 214977.77, 214977.77, 0.0, 9.997755, 10.002216 
2.8105724e+3, 1.3246448e+2, -1467823.9, -1590075.6, -143877.17, 0.17922026, -0.17219576, -1372626.4, 269211.9, 0.00025074946, 10.001711, 9.999711 
2.810248e+3, 1.4245924e+2, -1080810.0, -1552211.8, 191397.67, 0.37903184, -0.19763747, -1012886.2, 531003.75, 0.00009142473, 10.004354, 9.998301 
2.809924e+3, 1.5245683e+2, -1340441.3, -1366046.0, 348600.5, 0.053169116, -0.004973483, -1004408.1, 441511.97, 0.000018191195, 10.00096, 10.000425 
2.809599e+3, 1.6245313e+2, -1604207.4, -1518767.8, 50366.38, -0.11933728, 0.1561732, -1495444.0, -147484.14, 0.000001253609, 9.998654, 9.99986 
2.8092703e+3, 1.724469e+2, -1146627.0, -1082605.3, -114718.77, -0.044237923, -0.09874373, -995514.94, 254500.86, 0.0000000065346386, 10.000505, 10.001227 
2.8089422e+3, 1.8244144e+2, -1054647.8, -1294934.1, -55007.746, -0.010294804, -0.12418002, -1042653.75, 109413.27, 0.0, 10.001733, 9.998572 
2.808617e+3, 1.9243643e+2, -887733.3, -1114927.3, 58697.75, -0.034586877, -0.035473358, -873464.4, 180659.02, 0.0, 10.002112, 9.998893 
2.808293e+3, 2.0243156e+2, -800676.3, -1040381.0, 46813.734, 0.04933547, 0.13666874, -791858.1, 164318.56, 0.0, 10.001983, 9.998852 
2.8079703e+3, 2.124256e+2, -701382.6, -804996.94, 51437.84, 0.31112847, 0.037137587, -680184.06, 178049.7, 0.0, 10.001502, 9.999988 
2.8076458e+3, 2.2241998e+2, -685514.5, -818310.6, 44102.42, 0.4430662, 0.04306426, -672202.3, 88083.97, 0.0, 10.001123, 9.999461 
2.8073195e+3, 2.324146e+2, -449267.6, -528125.44, -19162.47, 0.3348509, -0.048367057, -444857.72, 217476.38, 0.0, 10.00162, 10.000496 
2.8069925e+3, 2.4240895e+2, -487510.03, -739023.25, -95440.67, 0.2580128, -0.048500136, -455394.38, 108991.164, 0.0, 10.001609, 9.998444 
2.8066644e+3, 2.5240123e+2, -511928.34, -626977.1, -75333.55, 0.21328142, -0.22969277, -474667.72, -8207.253, 0.0, 10.000584, 9.998966 
2.8063366e+3, 2.6239488e+2, -502574.34, -638849.7, -15966.88, 0.16309366, -0.20236392, -500728.56, -132204.3, 0.0, 10.000139, 9.998504 
2.8060097e+3, 2.723913e+2, -121169.54, -269775.88, -64626.652, 0.17102252, -0.016799515, -96996.49, 173568.11, 0.0, 10.001605, 9.999605 
2.805684e+3, 2.823871e+2, -67648.69, -414962.53, 14799.25, 0.2228463, 0.21595502, -67019.22, 105591.734, 0.0, 10.002126, 9.997749 
2.8053588e+3, 2.923787e+2, -106161.01, -323869.63, 70985.5, 0.27024862, 0.040925305, -85060.7, -10362.035, 0.0, 10.001007, 9.998199 
2.8050315e+3, 3.0237174e+2, -197420.08, -414234.28, 95866.89, 0.14258397, 0.117610276, -161111.73, -161111.73, 0.0, 10.000156, 9.99729 
2.804702e+3, 3.123693e+2, 186485.8, -45062.31, 36100.887, -0.11305423, 0.45514393, 191983.77, 191983.77, 0.0, 10.001832, 9.998658 
2.8043786e+3, 3.2235822e+2, 152922.6, 197397.17, 19639.91, 0.21016692, 0.021359328, 204828.44, 204828.44, 0.0, 10.0004, 10.000958 
2.8205693e+3, 1.3278891e+2, -1337474.1, -1148205.9, 136916.1, 0.21095775, -0.23867796, -1076401.9, 562259.1, 0.000107460386, 10.00126, 10.002835 
2.820247e+3, 1.4278786e+2, -1398016.9, -1553887.8, 81138.52, 0.39627752, -0.07196031, -1363447.3, 177218.3, 0.00003510944, 10.001714, 9.999475 
2.8199202e+3, 1.527854e+2, -1374877.9, -1283424.3, 123915.31, 0.10712969, -0.009150457, -1197068.0, 245626.45, 0.0000055355054, 10.000456, 10.001168 
2.8195938e+3, 1.6278125e+2, -1664886.1, -1750157.1, 11914.822, -0.006626409, 0.1348529, -1663252.5, -318512.53, 0.0000002527922, 9.999243, 9.9979725 
2.8192672e+3, 1.727734e+2, -1204995.8, -1378237.0, -72611.84, 0.12232861, -0.06806632, -1178587.1, 68233.31, 0.0, 10.001408, 9.998747 
2.8189403e+3, 1.8276657e+2, -1020333.94, -1265987.0, -5432.7505, 0.114772394, -0.06655868, -1020213.9, 128674.875, 0.0, 10.002037, 9.998595 
2.8186128e+3, 1.927603e+2, -960234.1, -1028308.8, 55243.164, -0.1701357, -0.23014493, -929384.25, 121563.71, 0.0, 10.00117, 9.999922 
2.8182876e+3, 2.0275512e+2, -1096535.1, -1173042.1, 13363.081, -0.17945553, -0.14035591, -1094268.3, -141271.06, 0.0, 10.000097, 9.9987755 
2.8179672e+3, 2.1275084e+2, -842773.75, -860428.8, 5556.124, 0.41748378, -0.11988464, -841170.8, 13867.922, 0.0, 10.000645, 9.999941 
2.8176442e+3, 2.227461e+2, -923299.9, -1102262.3, 36861.625, 0.6756613, 0.050218448, -916004.7, -158919.47, 0.0, 10.000386, 9.997812 
2.817315e+3, 2.3273861e+2, -719506.1, -817276.2, 5664.3174, 0.25944367, -0.13699073, -719179.06, -60019.29, 0.0, 10.000626, 9.998911 
2.816986e+3, 2.4273315e+2, -683577.94, -777365.0, -116782.41, -0.02072034, -0.022165751, -604625.8, -43412.1, 0.0, 10.000196, 9.998801 
2.8166583e+3, 2.5273022e+2, -529202.2, -469203.16, -107794.23, 0.06953984, 0.105225876, -387311.78, 75930.04, 0.0, 9.999869, 10.000345 
2.8163317e+3, 2.6272577e+2, -682837.4, -784872.75, 5670.239, 0.12912828, 0.27872705, -682523.2, -317236.44, 0.0, 9.999344, 9.997811 
2.8160062e+3, 2.727164e+2, -323421.7, -446592.3, 17635.209, 0.16089441, -0.07604761, -320946.47, -53561.93, 0.0, 10.000702, 9.998758 
2.8156805e+3, 2.8270963e+2, -158958.11, -331065.22, -17084.734, 0.1492902, -0.0718629, -157278.53, 12176.367, 0.0, 10.0011215, 9.998745 
2.8153533e+3, 2.9270682e+2, -57226.387, -54476.77, 39595.12, 0.09713629, 0.08345906, -16232.595, 55250.066, 0.0, 10.000411, 10.00028 
2.8150257e+3, 3.0270192e+2, -241457.64, -408592.06, 117026.41, -0.04016166, 0.23967767, -181224.1, -181224.1, 0.0, 9.999826, 9.997471 
2.8147012e+3, 3.1269157e+2, 74857.94, -122122.164, 122356.92, 0.074651875, -0.21996668, 133439.55, 133439.55, 0.0, 10.001209, 9.998423 
2.8143743e+3, 3.2268506e+2, -313377.47, -584898.0, -92572.51, 0.086169705, 0.008997205, -284819.38, -284819.38, 0.0, 9.999792, 9.9958105 
2.8305677e+3, 1.3311684e+2, -1542901.4, -1624875.1, 107363.04, 0.2437341, -0.27472794, -1468967.6, 166474.73, 0.000050640916, 10.001252, 9.999669 
2.8302416e+3, 1.4311524e+2, -1539064.3, -1622569.8, 20935.268, 0.17934866, 0.07482947, -1534109.6, 3354.8171, 0.00001538915, 10.000677, 9.99952 
2.829916e+3, 1.531102e+2, -1370983.0, -1312661.4, 57380.89, 0.068800114, -0.10143701, -1277456.8, 162057.14, 0.0000020566958, 10.0005, 10.001001 
2.8295904e+3, 1.6310534e+2, -1360706.9, -1555352.8, 2852.309, 0.008694235, -0.0436787, -1360665.0, -19100.957, 0.00000005936716, 10.001012, 9.998489 
2.8292638e+3, 1.7310016e+2, -887481.5, -1250903.8, 35016.184, -0.081270516, 0.036684617, -884138.4, 359484.06, 0.0, 10.003569, 9.998636 
2.828937e+3, 1.830949e+2, -674223.7, -1072551.6, -37286.16, -0.119713195, 0.18801455, -670763.56, 474914.78, 0.0, 10.004204, 9.998919 
2.8286102e+3, 1.9308849e+2, -991159.06, -1084802.4, -51577.484, -0.06416537, 0.057070408, -968320.8, 79418.52, 0.0, 10.001042, 9.999641 
2.8282848e+3, 2.0308264e+2, -1121759.0, -1118430.6, -7053.1543, 0.06048242, 0.059305858, -1112848.0, -163054.33, 0.0, 9.99948, 9.999521 
2.8279632e+3, 2.1307698e+2, -675737.1, -773637.7, 39539.78, 0.35413387, -0.046232518, -661762.7, 190082.69, 0.0, 10.001605, 10.000151 
2.8276393e+3, 2.2307153e+2, -496220.4, -800839.9, 22521.508, 0.48642033, -0.0048226654, -494564.3, 259332.28, 0.0, 10.002761, 9.998793 
2.8273106e+3, 2.3306482e+2, -568802.4, -754961.7, 42831.133, 0.20406091, -0.10720849, -559420.7, 96543.15, 0.0, 10.001503, 9.999016 
2.826982e+3, 2.4305938e+2, -507906.97, -603486.8, -4017.029, 0.012329197, -0.025482712, -507738.44, 50279.535, 0.0, 10.000922, 9.999674 
2.826655e+3, 2.5305548e+2, -175738.27, -304454.88, -55067.684, 0.08490153, 0.025180586, -155394.5, 304661.6, 0.0, 10.002183, 10.000427 
2.826328e+3, 2.6305124e+2, -208189.33, -432017.4, 10046.155, 0.16114774, 0.16168194, -207739.33, 154360.53, 0.0, 10.001968, 9.998984 
2.826001e+3, 2.730442e+2, -565117.56, -520248.06, 46845.723, 0.16661093, 0.0023706334, -490742.1, -226566.97, 0.0, 9.99878, 9.999201 
2.8256747e+3, 2.8303838e+2, -648163.0, -497475.66, 139560.63, 0.17805468, 0.050038703, -414219.72, -247983.27, 0.0, 9.997389, 9.999395 
2.8253487e+3, 2.93035e+2, -52928.777, -71263.414, 49900.98, 0.097981945, 0.1704819, -11360.038, 56909.49, 0.0, 10.000432, 10.000158 
2.8250214e+3, 3.0302992e+2, 150990.86, -138243.06, 49049.65, -0.06586835, 0.26419494, 159082.55, 159082.55, 0.0, 10.002057, 9.99829 
2.8246972e+3, 3.1301883e+2, 72154.29, -134770.75, 56551.414, 0.08395346, -0.3080896, 86600.87, 86600.87, 0.0, 10.00109, 9.998442 
2.8243703e+3, 3.2301405e+2, -279863.16, -752034.1, -153330.02, 0.18194953, 0.14732356, -234441.19, -234441.19, 0.0, 10.000685, 9.994288 
2.8405654e+3, 1.3344501e+2, -1845385.9, -2128568.3, 10533.168, 0.3893688, -0.21634914, -1844994.8, -212770.16, 0.000026719768, 10.000729, 9.99648 
2.8402364e+3, 1.4344208e+2, -1510631.4, -1666592.4, 18083.395, 0.048608605, 0.2059481, -1508562.1, 25707.543, 0.000008259606, 10.001187, 9.998935 
2.8399116e+3, 1.534348e+2, -1245350.9, -1279006.9, 32682.246, 0.09856773, -0.19463709, -1225418.6, 210917.77, 0.0000013335809, 10.001531, 10.000701 
2.839587e+3, 1.6342962e+2, -1300528.1, -1480223.3, 75729.23, 0.065050155, -0.16215679, -1272870.4, 65517.2, 0.000000073245815, 10.001384, 9.998754 
2.8392598e+3, 1.7342702e+2, -1100722.5, -1321565.6, 108875.43, -0.27258605, 0.111505866, -1056073.9, 184348.63, 0.0, 10.002076, 9.99882 
2.8389335e+3, 1.8342364e+2, -1045701.5, -1311834.6, -91863.49, -0.3186505, 0.47225526, -1017072.06, 125390.19, 0.0, 10.002052, 9.998241 
2.838608e+3, 1.934171e+2, -1076712.8, -1233224.8, -148411.2, 0.15376642, 0.36578238, -987189.44, 57337.977, 0.0, 10.001021, 9.998572 
2.838283e+3, 2.0341067e+2, -1014293.9, -1035831.1, 70953.53, 0.38737926, 0.36818784, -953296.44, -6708.112, 0.0, 10.00023, 9.999669 
2.8379583e+3, 2.1340322e+2, -826466.2, -820812.2, 120622.07, 0.22159186, 0.011200369, -702984.0, 145669.97, 0.0, 10.000599, 10.000254 
2.8376332e+3, 2.2339728e+2, -772283.06, -848479.25, -1804.1888, 0.13282125, -0.022835804, -772240.4, -21533.291, 0.0, 10.000653, 9.999431 
2.8373063e+3, 2.3339239e+2, -742032.1, -760422.1, 6062.7397, 0.15819505, -0.06663357, -740213.25, -87459.06, 0.0, 10.000099, 9.999616 
2.836979e+3, 2.4338686e+2, -726438.94, -762874.0, 34764.41, 0.14091639, 0.0048061362, -705408.0, -150599.66, 0.0, 9.999802, 9.999098 
2.8366524e+3, 2.5337863e+2, -476402.53, -549174.6, 7393.571, 0.14133838, -0.3417998, -475658.97, -18769.02, 0.0, 10.000687, 9.999447 
2.8363243e+3, 2.633741e+2, -362261.44, -366482.8, -93028.91, 0.12547684, -0.2116484, -271319.28, 87617.9, 0.0, 10.000481, 10.000086 
2.835994e+3, 2.7337426e+2, -555905.2, -356464.16, -71760.02, 0.1115386, 0.16344157, -333328.3, -72386.836, 0.0, 9.998274, 10.000528 
2.835667e+3, 2.8337154e+2, -757756.4, -677367.94, 200609.22, 0.12277552, 0.49914238, -512965.9, -349992.22, 0.0, 9.997309, 9.998159 
2.8353447e+3, 2.9336262e+2, -271363.94, -400605.5, 181228.44, 0.114143, 0.20928639, -143579.95, -78513.59, 0.0, 10.000001, 9.99809 
2.835018e+3, 3.0335626e+2, 120863.305, -59741.133, 19930.559, -0.15389946, 0.27477032, 123036.586, 123036.586, 0.0, 10.0016165, 9.998984 
2.8346893e+3, 3.1335247e+2, 5653.456, -59245.555, 32215.184, -0.35309735, 0.3122776, 18929.092, 18929.092, 0.0, 10.000298, 9.999311 
2.834367e+3, 3.2334343e+2, -138851.14, -321635.44, 24887.232, 0.18696554, 0.106181495, -135523.19, -135523.19, 0.0, 10.000276, 9.997349 
2.8505626e+3, 1.3377105e+2, -1636905.5, -1813233.4, -81586.56, 0.40435526, -0.04366942, -1604947.6, 24092.477, 0.000013315561, 10.001053, 9.998598 
2.850233e+3, 1.4376585e+2, -1232684.6, -1406662.4, 26450.559, -0.054357905, 0.025388742, -1228752.1, 302349.22, 0.0000038169696, 10.002447, 10.000161 
2.849909e+3, 1.5376246e+2, -987775.44, -1155667.8, 92287.1, 0.022103552, -0.001960388, -946966.4, 486164.53, 0.0000005153316, 10.003162, 10.000832 
2.8495848e+3, 1.6375825e+2, -979751.3, -1209490.5, 56779.273, 0.05414978, 0.075932585, -966484.56, 368685.44, 0.00000002542409, 10.002994, 9.999863 
2.849258e+3, 1.7375301e+2, -1175051.4, -1268693.0, 120737.73, -0.16267784, 0.02028831, -1092374.0, 144849.19, 0.0, 10.001079, 9.999708 
2.848931e+3, 1.8374784e+2, -1177692.1, -1307457.3, -3433.2688, -0.21370248, 0.12483585, -1177601.4, -38326.082, 0.0, 10.000745, 9.998926 
2.8486046e+3, 1.9374126e+2, -736716.25, -1049823.4, 11874.645, 0.057133846, 0.025564134, -736266.56, 305073.88, 0.0, 10.00311, 9.998871 
2.8482792e+3, 2.0373553e+2, -507226.03, -803463.2, 127973.54, 0.22586355, 0.081390165, -459599.0, 483798.6, 0.0, 10.003638, 9.999668 
2.847954e+3, 2.1372987e+2, -806733.4, -871248.75, 127524.93, 0.19043954, -0.0107472185, -707449.56, 138005.22, 0.0, 10.000813, 9.999873 
2.8476283e+3, 2.2372533e+2, -855632.5, -739089.4, 53189.62, 0.15063651, 0.0556552, -718464.1, 29034.61, 0.0, 9.999384, 10.000796 
2.8473008e+3, 2.3372167e+2, -597152.25, -559624.44, 79206.266, 0.07601238, 0.06311896, -496989.84, 152541.98, 0.0, 10.0004, 10.000895 
2.8469738e+3, 2.4371679e+2, -569553.25, -654346.94, 97395.26, 0.10336074, 0.10396036, -505727.1, 45851.81, 0.0, 10.000573, 9.999532 
2.846648e+3, 2.5370884e+2, -703894.56, -674066.2, 88420.6, 0.23845449, -0.16234781, -599310.8, -145651.89, 0.0, 9.999019, 9.999455 
2.8463197e+3, 2.637035e+2, -568270.1, -482581.75, 32162.555, 0.23154679, -0.106433235, -471853.06, -116139.54, 0.0, 9.9990635, 10.000004 
2.845989e+3, 2.7370223e+2, 68596.42, -88267.44, -79822.14, 0.046945166, 0.2104818, 102071.336, 359800.4, 0.0, 10.002613, 10.000326 
2.845662e+3, 2.8369874e+2, 175293.64, -234841.9, 126218.91, 0.024125053, 0.46338233, 211024.55, 370791.63, 0.0, 10.003673, 9.9981785 
2.8453404e+3, 2.936893e+2, -238487.9, -424579.38, 151086.94, 0.1554304, 0.18250792, -154094.16, -92230.484, 0.0, 10.000324, 9.99781 
2.8450143e+3, 3.0368268e+2, -226210.14, -142319.72, 89304.73, -0.03661179, 0.19822313, -85600.17, -85600.17, 0.0, 9.998735, 9.999862 
2.8446847e+3, 3.1368098e+2, 52563.684, 29353.213, 26065.73, -0.3356584, 0.38664642, 69490.95, 69490.95, 0.0, 10.000252, 9.9999895 
2.8443635e+3, 3.2367253e+2, 85021.5, -25170.174, -68066.24, 0.28414303, 0.110868946, 117496.0, 117496.0, 0.0, 10.000811, 9.999202 
2.8605604e+3, 1.3409683e+2, -1452330.4, -1493008.1, 88899.46, 0.5108994, 0.0879087, -1381472.9, 244384.28, 0.0000059672575, 10.001527, 10.000475 
2.8602302e+3, 1.4409061e+2, -1398788.9, -1418291.9, 78670.7, -0.037062492, -0.07210747, -1329267.6, 198654.86, 0.0000015122073, 10.001141, 10.000648 
2.859907e+3, 1.5409066e+2, -1248067.3, -1276944.1, 106737.86, 0.028042387, 0.1957376, -1154795.6, 275123.8, 0.0000000966577, 10.001452, 10.000773 
2.8595832e+3, 1.6408715e+2, -1150377.8, -1199779.3, 13026.365, 0.122650094, 0.31448165, -1147153.4, 184796.19, 0.00000000026919006, 10.0015335, 10.000609 
2.859256e+3, 1.7407878e+2, -1175074.8, -1202134.5, 27210.076, 0.079802044, -0.16099072, -1158216.4, 75808.37, 0.0, 10.000883, 10.000236 
2.8589284e+3, 1.8407181e+2, -1164127.9, -1232718.1, 39268.527, -0.024642134, -0.28082955, -1146286.9, -10198.407, 0.0, 10.000708, 9.999413 
2.8586012e+3, 1.9406535e+2, -1001390.4, -1140367.0, 57472.277, -0.09318099, -0.44715467, -980702.8, 57447.34, 0.0, 10.001298, 9.999082 
2.8582752e+3, 2.0406084e+2, -895774.5, -1068361.5, 48650.098, 0.0034825467, -0.24411185, -883005.44, 57193.887, 0.0, 10.001403, 9.998892 
2.8579503e+3, 2.1405731e+2, -1101114.9, -1156456.3, 21649.916, 0.27893248, -0.06393346, -1093651.8, -251404.53, 0.0, 9.99947, 9.998564 
2.8576237e+3, 2.2405444e+2, -944119.9, -692676.4, 78480.7, 0.294727, 0.21224001, -670191.56, 74089.7, 0.0, 9.998533, 10.001443 
2.857295e+3, 2.3405148e+2, -757864.2, -558423.06, 94361.64, -0.026817773, 0.15400761, -520854.47, 125451.305, 0.0, 9.999136, 10.001428 
2.8569674e+3, 2.4404834e+2, -758276.44, -698336.25, 11185.002, -0.068126544, 0.32980865, -696317.1, -147981.66, 0.0, 9.999306, 9.999697 
2.856642e+3, 2.5404322e+2, -853336.25, -757430.94, 7538.773, 0.29368135, 0.2747811, -756841.94, -306452.66, 0.0, 9.998202, 9.999178 
2.856315e+3, 2.6403698e+2, -743675.94, -768743.8, 113107.2, 0.32144013, 0.3405948, -642410.3, -289958.5, 0.0, 9.998817, 9.99811 
2.8559852e+3, 2.7402836e+2, -220690.4, -494849.13, 64128.93, -0.11116561, 0.08374976, -206431.5, 48103.703, 0.0, 10.001818, 9.997905 
2.8556585e+3, 2.8402153e+2, 54276.17, -230321.8, 20900.53, -0.2158153, 0.126222, 55802.89, 212403.53, 0.0, 10.002754, 9.998572 
2.8553352e+3, 2.9401535e+2, -322049.38, -397143.94, 43089.164, 0.07462416, 0.06741919, -302443.56, -243783.72, 0.0, 9.999584, 9.998304 
2.8550097e+3, 3.040088e+2, -270296.13, -111057.35, 100005.695, 0.08846103, 0.04569561, -62847.22, -62847.22, 0.0, 9.998359, 10.000192 
2.8546834e+3, 3.1400225e+2, -126401.4, -86168.9, 103288.82, -0.05069726, -0.2893907, -1055.6674, -1055.6674, 0.0, 9.999285, 9.999618 
2.8543583e+3, 3.2400164e+2, 89505.0, 118830.16, 36583.063, 0.1003824, 0.18817416, 143579.66, 143579.66, 0.0, 10.000398, 10.000351 
2.870556e+3, 1.3442421e+2, -1427720.6, -1683690.0, -12913.033, 0.23016582, 0.025343101, -1427070.9, 195578.1, 0.0000021514043, 10.002332, 9.998887 
2.870228e+3, 1.4442053e+2, -1430801.6, -1412602.9, 98248.36, 0.10879924, 0.22216697, -1323033.4, 201656.38, 0.00000043033984, 10.000698, 10.00095 
2.8699034e+3, 1.5441634e+2, -1413761.3, -1369682.8, 148485.55, 0.055584725, 0.0855462, -1241609.8, 185115.9, 0.000000019645139, 10.000238, 10.000774 
2.8695798e+3, 1.6441184e+2, -1224515.5, -1207682.0, 33130.81, 0.14039841, 0.08899033, -1181915.5, 146851.2, 0.0, 10.000838, 10.000915 
2.8692535e+3, 1.7440654e+2, -998389.25, -1102509.8, 50367.965, 0.105542615, -0.051771354, -978011.94, 252805.75, 0.0, 10.001936, 10.000452 
2.8689253e+3, 1.8440169e+2, -877940.9, -992870.6, -31185.846, -0.017199049, -0.03513341, -870024.06, 262838.75, 0.0, 10.002027, 10.000515 
2.868596e+3, 1.9439632e+2, -1106950.8, -1110648.6, 33044.67, -0.1712724, -0.14530686, -1075703.3, -40791.566, 0.0, 9.999971, 10.000049 
2.8682694e+3, 2.0439185e+2, -1170227.0, -1143797.6, 54246.86, -0.0908764, -0.017880363, -1101179.1, -164219.7, 0.0, 9.999257, 9.999404 
2.8679448e+3, 2.1438767e+2, -982336.25, -1073471.8, 64284.137, 0.2146989, 0.11872566, -949107.6, -110093.375, 0.0, 10.000091, 9.998859 
2.8676185e+3, 2.2438356e+2, -677241.2, -621297.06, 108073.16, 0.2673666, 0.269431, -537634.7, 203424.89, 0.0, 10.000386, 10.001129 
2.8672898e+3, 2.3437923e+2, -707116.9, -600139.5, 58330.664, 0.0026128408, 0.1724117, -574485.9, 68610.24, 0.0, 9.999545, 10.001028 
2.8669623e+3, 2.4437506e+2, -671114.6, -660246.25, -46447.99, -0.03826602, 0.24994984, -618915.6, -73780.84, 0.0, 9.999756, 9.999794 
2.8666368e+3, 2.5437e+2, -337724.13, -503905.56, -91361.1, 0.22051655, 0.23869476, -297320.22, 149866.8, 0.0, 10.001567, 9.99935 
2.8663102e+3, 2.6436397e+2, -202869.67, -500837.38, 75172.54, 0.2369189, 0.28748015, -184979.02, 164267.69, 0.0, 10.002336, 9.998322 
2.865982e+3, 2.7435523e+2, -266581.06, -539984.1, 103172.7, -0.08758938, 0.052965093, -232016.95, 19313.225, 0.0, 10.001402, 9.997866 
2.8656554e+3, 2.843478e+2, -260931.63, -341681.44, 35889.457, -0.14690329, 0.018787563, -247286.3, -93886.12, 0.0, 10.000344, 9.998971 
2.8653303e+3, 2.943418e+2, -298968.4, -358525.3, -17773.723, 0.11613997, -0.020039149, -294067.44, -238611.13, 0.0, 9.999522, 9.998626 
2.8650045e+3, 3.0433604e+2, -68057.52, 29769.854, 142843.34, 0.16094959, -0.013413125, 131842.16, 131842.16, 0.0, 9.999511, 10.000627 
2.8646797e+3, 3.1432974e+2, 7762.661, -20222.506, 98749.08, 0.09600633, -0.30645275, 93505.59, 93505.59, 0.0, 10.000087, 9.999725 
2.8643543e+3, 3.243294e+2, 112298.2, 184476.28, -48678.37, 0.12928657, 0.16502562, 208984.3, 208984.3, 0.0, 10.0002165, 10.000902 
2.880552e+3, 1.3475232e+2, -1559511.6, -1850367.5, -91701.48, 0.11738645, 0.020346474, -1533013.8, 86418.81, 0.00000033823923, 10.002047, 9.997792 
2.880226e+3, 1.447508e+2, -1318666.9, -1346488.8, 136039.4, 0.3199791, 0.49793172, -1195829.0, 325622.72, 0.000000039050374, 10.001545, 10.000932 
2.8799e+3, 1.547419e+2, -1439347.3, -1442724.1, 138700.38, 0.1736852, -0.09704634, -1302325.1, 121206.555, 0.0000000006124831, 10.000405, 10.000181 
2.8795758e+3, 1.6473672e+2, -1354043.8, -1288355.4, 91703.14, 0.19272925, -0.119377196, -1223792.1, 101789.625, 0.0, 10.000149, 10.000607 
2.8792503e+3, 1.747349e+2, -1319260.1, -1331681.9, 91567.44, 0.14257303, 0.0773213, -1233693.3, -6086.8237, 0.0, 10.000141, 9.99969 
2.878922e+3, 1.8473263e+2, -1059764.6, -955926.5, -76990.06, -0.012294314, 0.3423399, -914985.1, 214644.52, 0.0, 10.000466, 10.001427 
2.8785908e+3, 1.9472882e+2, -1127788.9, -1054383.6, -60665.324, -0.15980378, 0.26052362, -1020182.3, 11479.523, 0.0, 9.999728, 10.000497 
2.878263e+3, 2.0472454e+2, -1131336.9, -1103367.9, 64715.414, -0.11989295, 0.38365504, -1051143.3, -117436.89, 0.0, 9.999602, 9.999459 
2.8779387e+3, 2.147187e+2, -1077652.5, -1147509.6, 67568.164, 0.11255015, 0.31054473, -1036518.8, -200744.48, 0.0, 9.999734, 9.998473 
2.8776127e+3, 2.2471273e+2, -820520.5, -779916.2, 55321.25, 0.18451217, 0.33036327, -741289.44, -3454.0652, 0.0, 9.999989, 10.00016 
2.8772852e+3, 2.3470606e+2, -946250.6, -905623.7, 13342.555, 0.107130885, 0.08546455, -901633.7, -261740.28, 0.0, 9.998913, 9.99919 
2.876958e+3, 2.4469978e+2, -759622.75, -742460.1, 10899.159, 0.049794853, 0.07785905, -737169.5, -195218.27, 0.0, 9.999441, 9.999366 
2.876631e+3, 2.5469294e+2, -579017.0, -714536.56, -11467.79, 0.016703952, -0.095843606, -578053.44, -134034.66, 0.0, 10.00044, 9.998445 
2.8763047e+3, 2.6468784e+2, -315311.13, -415944.44, 45747.297, -0.0017322395, 0.0381844, -297623.5, 48444.613, 0.0, 10.001117, 9.999439 
2.8759792e+3, 2.746833e+2, -467238.06, -556977.1, 83498.766, -0.018929442, 0.08370752, -417316.66, -169205.7, 0.0, 9.999813, 9.998484 
2.8756526e+3, 2.8467706e+2, -385080.13, -415302.56, -6984.0923, 0.021860698, 0.13686629, -383544.22, -233373.25, 0.0, 9.99961, 9.9987955 
2.875325e+3, 2.9466838e+2, -457537.97, -531439.9, -17139.08, 0.106283866, -0.16268745, -453756.63, -401500.3, 0.0, 9.998909, 9.997741 
2.8749982e+3, 3.046643e+2, -145026.2, -3332.583, 139134.4, 0.050932214, 0.055190057, 81954.055, 81954.055, 0.0, 9.999121, 10.000558 
2.8746745e+3, 3.1466392e+2, -266088.72, -273972.13, 132898.14, 0.006310351, 0.36798686, -137073.83, -137073.83, 0.0, 9.998854, 9.998573 
2.87435e+3, 3.2465324e+2, -142100.17, 11178.414, 55850.188, 0.08168011, -0.18785334, 29369.627, 29369.627, 0.0, 9.999008, 10.0001545 
2.8905514e+3, 1.3508032e+2, -1329979.3, -1518108.5, -92622.62, 0.18638511, -0.057129767, -1292032.1, 324183.88, 0.0000000032251708, 10.002478, 9.9999485 
2.890222e+3, 1.4507683e+2, -1183370.4, -1358831.3, 121787.95, 0.12396742, 0.16379754, -1121004.4, 397244.13, 0.0, 10.002721, 10.000317 
2.8898966e+3, 1.5506941e+2, -1395821.5, -1520248.4, 138825.38, 0.13358118, -0.16565822, -1305906.8, 114410.84, 0.0, 10.000978, 9.99944 
2.8895712e+3, 1.6506474e+2, -1331373.8, -1252273.9, 96307.06, 0.15845564, -0.12259815, -1187712.0, 134652.13, 0.0, 10.00007, 10.000947 
2.8892443e+3, 1.7506279e+2, -1390332.6, -1337083.6, 129620.12, 0.009351737, 0.07431926, -1231381.9, -6992.659, 0.0, 9.9993515, 10.000107 
2.8889164e+3, 1.8505925e+2, -1083457.4, -974942.4, -15178.979, -0.07882335, 0.18678845, -972859.1, 153564.3, 0.0, 10.000177, 10.001501 
2.8885877e+3, 1.9505398e+2, -795934.1, -880801.4, -19246.215, -0.09875059, 0.0072017224, -791773.44, 236695.06, 0.0, 10.001778, 10.000766 
2.88826e+3, 2.0504947e+2, -674649.7, -893614.44, 38636.383, -0.08464689, 0.083373226, -668032.25, 262482.53, 0.0, 10.002592, 9.999518 
2.8879336e+3, 2.1504481e+2, -651082.56, -917381.3, 54077.53, -0.070033334, 0.1537339, -640519.94, 192050.89, 0.0, 10.002348, 9.998855 
2.8876078e+3, 2.2503933e+2, -454959.06, -654919.4, 28308.842, 0.031956147, 0.2115738, -451028.56, 283599.25, 0.0, 10.00263, 9.999793 
2.8872824e+3, 2.350327e+2, -327750.6, -627662.56, 9245.319, 0.18634045, 0.059556566, -327465.88, 309222.8, 0.0, 10.003074, 9.999162 
2.8869554e+3, 2.4502674e+2, -269976.75, -522317.03, 32883.62, 0.17407213, 0.07476247, -265761.94, 272984.56, 0.0, 10.002815, 9.99929 
2.886627e+3, 2.5502035e+2, -372193.16, -620118.4, 5879.785, -0.018272894, 0.006386122, -372053.8, 68757.78, 0.0, 10.001727, 9.998538 
2.8862998e+3, 2.6501533e+2, -430557.0, -371485.94, -3976.5364, -0.029865272, 0.092457615, -371219.44, -28358.742, 0.0, 9.999833, 10.00038 
2.885974e+3, 2.7501133e+2, -753632.1, -586762.2, -14338.476, 0.1099135, 0.15020832, -585539.1, -340641.66, 0.0, 9.99728, 9.999537 
2.885647e+3, 2.8500548e+2, -614292.0, -477936.75, 55187.273, 0.14804815, 0.15509734, -458399.94, -311447.94, 0.0, 9.997641, 9.999397 
2.8853196e+3, 2.94997e+2, -155194.03, -311701.75, 88024.7, 0.09100157, -0.15102653, -115668.37, -66636.1, 0.0, 10.000482, 9.998568 
2.8849936e+3, 3.0499202e+2, 184199.14, 41328.406, 222293.5, 0.06541446, -0.014227134, 346253.4, 346253.4, 0.0, 10.001831, 9.999622 
2.884672e+3, 3.14991e+2, -20781.541, -234575.45, 109150.69, 0.24523753, 0.39428234, 25098.566, 25098.566, 0.0, 10.000746, 9.99807 
2.884347e+3, 3.2498023e+2, 267859.16, 187274.4, -24276.346, 0.23976533, -0.054135468, 274607.38, 274607.38, 0.0, 10.001704, 10.000369 
2.9005498e+3, 1.3540815e+2, -1524702.4, -1448215.1, -32636.965, 0.28947774, -0.12800434, -1436182.1, 176819.81, 0.000000008553674, 10.000521, 10.0013685 
2.9002187e+3, 1.4540239e+2, -1267250.6, -1483042.4, 10234.53, 0.037970264, -0.18545684, -1266766.3, 248285.44, 0.0, 10.002618, 9.999482 
2.899893e+3, 1.5539737e+2, -1422143.1, -1644167.3, 37390.363, 0.17171769, -0.21295127, -1416015.5, 1085.7413, 0.0, 10.001407, 9.998341 
2.8995663e+3, 1.6539356e+2, -1208996.3, -1158611.1, 58836.703, 0.17393143, -0.045416445, -1119800.4, 199339.39, 0.0, 10.000928, 10.001103 
2.8992382e+3, 1.753904e+2, -1374617.5, -1356266.0, 80192.5, -0.05099721, -0.0066242935, -1284726.0, -63553.15, 0.0, 9.999695, 9.9997835 
2.8989112e+3, 1.8538518e+2, -1152641.4, -1047117.06, 30480.559, -0.10802077, -0.033673048, -1038945.56, 84275.484, 0.0, 9.999979, 10.001034 
2.8985858e+3, 1.953776e+2, -1085483.3, -1097792.6, 21576.396, 0.03864898, -0.4391623, -1069200.9, -43913.816, 0.0, 10.000251, 9.999939 
2.8982577e+3, 2.0537287e+2, -894854.4, -998124.2, 33791.766, -0.02631012, -0.35326913, -884779.9, 42555.023, 0.0, 10.001199, 9.9993925 
2.897929e+3, 2.1536967e+2, -918431.3, -1110314.3, 53124.19, -0.23565577, -0.15254286, -904705.4, -75329.36, 0.0, 10.00092, 9.998164 
2.8976035e+3, 2.253655e+2, -644016.56, -755461.2, 68806.93, -0.12529851, 0.07426491, -611198.7, 120222.984, 0.0, 10.001571, 9.999511 
2.8972808e+3, 2.353599e+2, -663918.8, -887998.75, 51374.44, 0.2492979, 0.02822966, -652701.8, -19224.822, 0.0, 10.001321, 9.998173 
2.8969538e+3, 2.453552e+2, -487275.16, -624741.5, 11285.411, 0.2675034, 0.22468086, -486354.8, 49172.105, 0.0, 10.001508, 9.999096 
2.8966236e+3, 2.5535038e+2, -686887.25, -830468.2, -7408.444, -0.0077974997, 0.29537636, -686506.0, -248924.56, 0.0, 9.999998, 9.997844 
2.8962946e+3, 2.653449e+2, -512222.66, -369532.78, -72304.05, -0.018117959, 0.34887683, -339300.28, 336.45218, 0.0, 9.999218, 10.000634 
2.895967e+3, 2.7533868e+2, -837590.94, -650634.56, -67856.9, 0.17538665, 0.13648114, -628602.0, -386907.7, 0.0, 9.996902, 9.999268 
2.8956398e+3, 2.853332e+2, -537876.9, -262832.16, 148624.03, 0.11368199, 0.10642566, -197866.25, -54125.07, 0.0, 9.997558, 10.000863 
2.8953132e+3, 2.953273e+2, -227111.67, -266452.0, 225026.45, -0.15700513, -0.08812505, -20897.318, 24891.438, 0.0, 9.9997835, 9.999172 
2.8949887e+3, 3.0532047e+2, 121190.43, -178886.58, 199321.02, -0.14896262, -0.11248437, 220632.23, 220632.23, 0.0, 10.002427, 9.9976 
2.894667e+3, 3.153141e+2, -269857.44, -857371.9, 149114.23, 0.080352515, -0.03197308, -234178.23, -234178.23, 0.0, 10.001389, 9.993361 
2.8943443e+3, 3.2530507e+2, -189653.0, -96850.15, 108217.914, 0.1575792, -0.18442048, -25505.197, -25505.197, 0.0, 9.999349, 9.99916 
2.910542e+3, 1.3573855e+2, -1699680.1, -1629189.0, 68532.09, -0.067392, 0.2512265, -1587370.3, 22401.395, 0.000000011355019, 9.999522, 10.000709 
2.910221e+3, 1.4572923e+2, -1187185.4, -1398587.6, -56888.35, 0.44281903, -0.15198211, -1172848.9, 339008.0, 0.0, 10.002833, 10.0000305 
2.9098898e+3, 1.5572663e+2, -1135146.3, -1431466.0, 13631.907, 0.065182365, 0.025368635, -1134520.4, 279364.16, 0.0, 10.002917, 9.999127 
2.9095623e+3, 1.6572273e+2, -950201.0, -1040791.1, -1583.4806, 0.004550595, 0.13395675, -950173.4, 365748.16, 0.0, 10.002651, 10.001105 
2.909235e+3, 1.7571767e+2, -1071134.4, -1192757.4, 21368.736, -0.030012418, 0.0023881502, -1067489.3, 150478.6, 0.0, 10.001541, 10.000062 
2.9089075e+3, 1.8571235e+2, -1003994.5, -990553.4, -25508.873, -0.048924197, -0.052288976, -970894.6, 149121.66, 0.0, 10.000924, 10.001033 
2.9085803e+3, 1.9570665e+2, -1114410.5, -1087190.4, -5726.47, -0.044668715, -0.24025278, -1086034.8, -63966.79, 0.0, 9.99979, 10.000289 
2.908254e+3, 2.057021e+2, -946703.94, -954788.2, 52853.945, -0.0044633346, -0.19305748, -897737.75, 26374.938, 0.0, 10.000409, 10.000121 
2.907928e+3, 2.1569818e+2, -707229.9, -893733.75, 94602.664, -0.012027194, -0.10182276, -667645.1, 158510.11, 0.0, 10.001705, 9.999325 
2.9076022e+3, 2.2569337e+2, -548036.3, -672550.06, 89678.79, 0.041091606, -0.018936515, -501122.7, 227080.64, 0.0, 10.001913, 9.999978 
2.9072762e+3, 2.3568743e+2, -625740.3, -781361.0, 105066.586, 0.13932125, -0.112099886, -572808.8, 57451.32, 0.0, 10.001005, 9.999119 
2.9069486e+3, 2.4568278e+2, -527996.8, -599072.3, 111586.51, 0.14179085, 0.020808278, -446425.72, 85882.914, 0.0, 10.000785, 9.9997225 
2.9066196e+3, 2.5567874e+2, -474131.9, -616463.75, 126640.58, 0.052769084, 0.14701575, -400031.1, 34323.137, 0.0, 10.000739, 9.999021 
2.9062906e+3, 2.6567343e+2, -227208.84, -339351.4, 89265.695, 0.036421224, 0.21133764, -177864.98, 158544.97, 0.0, 10.0014515, 9.999823 
2.9059613e+3, 2.756668e+2, -29790.498, -306139.13, 18579.865, 0.08220174, 0.059181776, -28546.906, 209929.1, 0.0, 10.002477, 9.9989805 
2.9056355e+3, 2.8566223e+2, -16935.664, -41606.73, 152563.5, 0.23967502, 0.15046318, 123790.19, 264305.7, 0.0, 10.001214, 10.000631 
2.90531e+3, 2.956579e+2, -590263.75, -326359.63, 62372.355, 0.19079116, 0.14767277, -312360.8, -269812.84, 0.0, 9.996566, 10.000329 
2.920537e+3, 1.3606791e+2, -1379048.0, -1531832.6, 254906.94, -0.14968039, 0.5489732, -1189332.5, 417217.84, 0.00000000463828, 10.002127, 10.000029 
2.9202226e+3, 1.4605746e+2, -1314415.3, -1381358.4, 18050.912, 0.8654132, 0.0037359074, -1309858.3, 198790.77, 0.0, 10.001729, 10.000598 
2.919887e+3, 1.5605642e+2, -1403823.3, -1530295.5, 47233.684, 0.016975814, 0.27528974, -1388130.1, 22533.229, 0.0, 10.001033, 9.999322 
2.919558e+3, 1.6605188e+2, -1153325.5, -1165624.4, 14566.469, -0.12045105, 0.31604606, -1143663.6, 169040.44, 0.0, 10.00139, 10.000856 
2.9192325e+3, 1.7604463e+2, -1242709.0, -1332786.0, 24163.35, 0.09766162, -0.019977437, -1236636.5, -21869.941, 0.0, 10.000711, 9.999491 
2.918904e+3, 1.8604027e+2, -1053753.0, -992131.9, -14104.494, 0.044431195, 0.023510903, -989056.94, 127749.88, 0.0, 10.000651, 10.001054 
2.9185742e+3, 1.960371e+2, -1267218.9, -1236058.9, -8030.8125, -0.102484, 0.07330929, -1234110.9, -215271.83, 0.0, 9.9991455, 9.999564 
2.9182497e+3, 2.060329e+2, -964700.2, -864912.94, 132419.89, 0.047938768, 0.14326695, -773298.94, 147580.1, 0.0, 10.000027, 10.000863 
2.9179284e+3, 2.1602768e+2, -899166.1, -952917.8, 146430.75, 0.3711583, 0.006714293, -777165.25, 45762.637, 0.0, 10.000392, 9.999529 
2.9176012e+3, 2.2602162e+2, -644584.06, -641508.4, 54379.688, 0.27372625, -0.090998664, -588644.75, 136338.2, 0.0, 10.001045, 10.000548 
2.9172698e+3, 2.3601462e+2, -859934.2, -876027.06, 67537.34, -0.08826705, -0.3723107, -799965.6, -172919.61, 0.0, 9.999487, 9.999154 
2.916942e+3, 2.460098e+2, -587450.4, -495880.66, 92764.664, -0.10103185, -0.33401364, -438217.28, 90874.766, 0.0, 9.999961, 10.000751 
2.9166156e+3, 2.5600612e+2, -679141.5, -679180.5, 115878.805, 0.08855624, -0.30456856, -563282.2, -132152.47, 0.0, 9.999308, 9.99925 
2.9162866e+3, 2.660017e+2, -452548.0, -571442.7, 112668.59, 0.025590537, -0.11001002, -384605.4, -51426.574, 0.0, 10.000651, 9.998492 
2.9159552e+3, 2.7599603e+2, -355581.16, -659795.8, 78024.305, -0.268861, -0.060283717, -336736.94, -101495.02, 0.0, 10.001226, 9.997112 
2.9156336e+3, 2.859927e+2, -236653.72, -349237.66, 32875.05, 0.41112775, 0.32410404, -227757.08, -90481.36, 0.0, 10.000694, 9.9987 
2.9153046e+3, 2.9598442e+2, -614030.4, -91973.71, -224922.52, 0.43963113, 0.010751477, -8435.759, 30917.344, 0.0, 9.995496, 10.002417 
2.930537e+3, 1.3638958e+2, -1060263.5, -1316227.6, -20830.203, -0.16098034, -0.097769044, -1058579.4, 544812.0, 0.0, 10.003898, 10.000724 
2.9302174e+3, 1.463875e+2, -1389571.6, -1384722.8, 12003.611, 0.70047146, 0.15448852, -1374901.3, 130510.44, 0.0, 10.000927, 10.00104 
2.929882e+3, 1.5638496e+2, -1525248.3, -1529498.3, 63478.57, -0.07727124, 0.26743808, -1463859.1, -56415.61, 0.0, 9.999775, 10.000004 
2.9295543e+3, 1.6638032e+2, -1228416.5, -1147032.8, 88759.586, -0.109271854, 0.23274483, -1090082.0, 219403.3, 0.0, 10.000493, 10.0014925 
2.929229e+3, 1.76374e+2, -1069627.1, -1155205.1, 137821.73, 0.06877388, -0.03736815, -968104.9, 243431.81, 0.0, 10.001333, 10.00047 
2.9289e+3, 1.863696e+2, -967943.7, -1034777.25, 22587.451, 0.02306677, 0.0024793437, -961025.94, 152552.8, 0.0, 10.001495, 10.000403 
2.92857e+3, 1.9636598e+2, -1055081.8, -1138023.3, 25925.043, -0.11850446, 0.107878864, -1047645.2, -32027.053, 0.0, 10.000456, 9.999656 
2.9282457e+3, 2.063617e+2, -758412.8, -718041.5, 203956.67, 0.039522555, 0.13399452, -533274.0, 384385.16, 0.0, 10.00108, 10.001451 
2.9279247e+3, 2.163567e+2, -604289.5, -719963.94, 204117.98, 0.32193413, -0.007939398, -449972.78, 369731.44, 0.0, 10.0017805, 10.000547 
2.9275975e+3, 2.2635184e+2, -472918.3, -547588.3, 59798.742, 0.27529925, -0.035537515, -439756.56, 281992.9, 0.0, 10.00193, 10.0009165 
2.927266e+3, 2.3634678e+2, -496769.06, -614143.06, 67791.266, -0.022060651, -0.118406706, -465791.0, 158006.13, 0.0, 10.001333, 10.00018 
2.926938e+3, 2.4634193e+2, -435702.4, -477373.22, 58930.62, -0.045951843, -0.11218596, -394032.34, 131811.58, 0.0, 10.001096, 10.000398 
2.9266113e+3, 2.5633702e+2, -408784.2, -533399.06, -24500.607, 0.13092807, -0.14982323, -404140.2, 23752.102, 0.0, 10.00088, 9.999575 
2.926283e+3, 2.6633155e+2, -372523.03, -433609.3, 49836.098, 0.08946165, -0.13578236, -344615.2, -14669.393, 0.0, 10.0005865, 9.999566 
2.925952e+3, 2.7632537e+2, -370669.9, -530048.3, 108434.1, -0.14868824, -0.22069436, -315791.94, -83784.72, 0.0, 10.000303, 9.998527 
2.9256278e+3, 2.8632286e+2, -379410.0, -511172.88, 102353.34, 0.32291675, 0.23714541, -323568.1, -189533.45, 0.0, 9.999932, 9.9980755 
2.9252926e+3, 2.963104e+2, 22042.273, 319913.2, -208248.58, 0.01090798, -0.38846728, 427003.6, 463163.25, 0.0, 9.999156, 10.003577 
2.940536e+3, 1.3671401e+2, -1501943.9, -1453485.5, -131920.73, -0.052365366, -0.49599802, -1343587.4, 256619.45, 0.0, 10.000624, 10.001341 
2.9402116e+3, 1.4671797e+2, -1435744.0, -1362285.6, 70706.05, 0.5635941, 0.30642566, -1319338.1, 182831.05, 0.0, 10.000593, 10.001281 
2.9398775e+3, 1.5671335e+2, -1471323.1, -1499064.8, 73480.805, -0.027092094, 0.18164013, -1410415.5, -6192.6475, 0.0, 10.000286, 9.999926 
2.9395506e+3, 1.6670884e+2, -1135605.8, -1031479.5, 117747.6, -0.032836065, 0.13169897, -954798.44, 351464.94, 0.0, 10.000986, 10.0019655 
2.9392257e+3, 1.7670397e+2, -1209053.0, -1233520.9, 89944.54, 0.095718965, -0.06761543, -1130514.1, 77786.71, 0.0, 10.000575, 10.000228 
2.9388964e+3, 1.8669929e+2, -1089353.0, -1191927.8, -53451.0, 0.027661553, -0.008015969, -1066563.4, 43783.563, 0.0, 10.001201, 9.999421 
2.938566e+3, 1.9669439e+2, -1182574.0, -1309454.5, -2862.378, -0.035383537, 0.046749234, -1182509.5, -170109.38, 0.0, 10.000222, 9.998555 
2.938241e+3, 2.0668992e+2, -818508.2, -684689.56, 213320.97, 0.026559712, 0.045854405, -528030.8, 386412.13, 0.0, 10.000558, 10.001849 
2.9379195e+3, 2.1668538e+2, -1017708.25, -972541.2, 187943.69, 0.16393344, -0.09057065, -805829.06, 10654.343, 0.0, 9.999309, 9.999983 
2.9375932e+3, 2.2668296e+2, -695942.2, -605260.75, 33963.83, 0.21902494, 0.11044286, -593950.6, 124558.984, 0.0, 10.000386, 10.001129 
2.937264e+3, 2.3668136e+2, -779813.6, -813444.3, 52698.64, 0.18272541, 0.3171916, -741312.6, -120781.52, 0.0, 9.999872, 9.99943 
2.9369354e+3, 2.4667639e+2, -639248.8, -706738.5, 52430.09, 0.111700565, 0.4072231, -610642.8, -88060.914, 0.0, 10.000481, 9.999015 
2.9366064e+3, 2.566696e+2, -729767.9, -819617.06, 965.776, 0.071448766, 0.2989832, -729757.5, -305108.78, 0.0, 9.999459, 9.998243 
2.9362792e+3, 2.6666227e+2, -295320.22, -117923.28, 52464.8, 0.15331358, 0.025481721, -103568.49, 223143.06, 0.0, 10.000006, 10.002 
2.935951e+3, 2.7665442e+2, -462949.6, -375411.22, 109504.23, 0.18006869, -0.48459595, -301252.8, -72477.484, 0.0, 9.998964, 10.000211 
2.9356173e+3, 2.866526e+2, -432382.88, -482220.3, 65716.984, -0.21406636, -0.06444617, -387018.84, -256223.27, 0.0, 9.999521, 9.998394 
2.9352865e+3, 2.9664615e+2, -220655.53, -15730.175, 106594.76, -0.097696535, -0.08300617, 29661.953, 62529.938, 0.0, 9.998712, 10.001397 
2.9505312e+3, 1.3705064e+2, -1698040.6, -1460893.6, -85258.09, -0.0876377, 0.012384789, -1433423.9, 163493.38, 0.0, 9.99874, 10.002267 
2.950206e+3, 1.470507e+2, -1470891.1, -1493469.6, 133611.8, 0.39541164, 0.44781613, -1348092.5, 150816.34, 0.0, 10.000775, 10.000343 
2.9498744e+3, 1.570419e+2, -1314972.8, -1516772.9, 111936.81, -0.027418036, 0.03049708, -1265172.3, 135823.81, 0.0, 10.001619, 9.999227 
2.949548e+3, 1.6703607e+2, -1115540.4, -1246077.5, 50609.06, 0.026904453, -0.012910867, -1098218.0, 204835.2, 0.0, 10.001917, 10.000138 
2.9492217e+3, 1.7703158e+2, -1165052.8, -1326238.9, -31904.574, 0.032515775, 0.023773959, -1158967.4, 46128.855, 0.0, 10.001162, 9.999387 
2.9488927e+3, 1.8702705e+2, -885825.1, -993645.06, -124474.984, -0.03662506, 0.06424643, -804087.4, 303053.7, 0.0, 10.001997, 10.000476 
2.9485628e+3, 1.9702248e+2, -711563.0, -946827.5, -25899.97, -0.10149073, 0.06515113, -708745.44, 300442.1, 0.0, 10.002697, 9.999906 
2.9482374e+3, 2.0701833e+2, -687929.2, -617850.56, 107510.15, 0.008244144, 0.036636896, -539813.9, 371411.5, 0.0, 10.001267, 10.002052 
2.9479134e+3, 2.1701406e+2, -1082870.9, -918866.3, 91063.13, 0.14171584, -0.068567395, -878325.25, -65062.992, 0.0, 9.998293, 10.0008955 
2.947588e+3, 2.2701135e+2, -841334.25, -668138.06, 56229.008, 0.21284164, 0.05645282, -651484.4, 63806.72, 0.0, 9.999223, 10.001322 
2.947261e+3, 2.3700942e+2, -431630.63, -559450.0, 28130.705, 0.23745033, 0.23036581, -425713.47, 191602.61, 0.0, 10.00169, 10.000357 
2.946932e+3, 2.4700518e+2, -304439.75, -473908.78, 58830.426, 0.15967646, 0.31193358, -286019.25, 233339.97, 0.0, 10.002258, 9.999892 
2.9466027e+3, 2.5699928e+2, -249402.92, -457666.06, 100959.78, 0.08918377, 0.24991448, -208495.67, 212920.38, 0.0, 10.001977, 9.999605 
2.9462746e+3, 2.6699328e+2, -153406.17, -32091.352, 88451.836, 0.19523562, 0.048014905, 14503.506, 337971.25, 0.0, 10.000796, 10.002249 
2.9459462e+3, 2.7698702e+2, -395892.25, -267774.16, 10865.842, 0.28244695, -0.30344045, -266859.13, -41341.227, 0.0, 9.998938, 10.001005 
2.945612e+3, 2.8698343e+2, -347324.72, -337441.4, 30654.648, -0.1330541, -0.16424426, -311332.66, -183780.27, 0.0, 9.999449, 9.999538 
2.9452887e+3, 2.9698125e+2, 46488.797, 60499.258, 198561.33, 0.64172536, 0.18414031, 252178.89, 281757.56, 0.0, 10.000435, 10.001188 
2.9605272e+3, 1.3738585e+2, -1651393.0, -1370856.5, -37344.715, 0.11296007, 0.44354564, -1365970.4, 227669.53, 0.00000000001490612, 9.998916, 10.002774 
2.960201e+3, 1.4738113e+2, -1397748.6, -1583239.4, 71331.22, 0.28625175, 0.4393348, -1373490.4, 122180.06, 0.0, 10.001914, 9.999147 
2.959872e+3, 1.5736908e+2, -1548149.4, -1808003.3, 43197.086, 0.077434346, -0.18186817, -1541156.6, -143373.44, 0.0, 10.000878, 9.99756 
2.9595456e+3, 1.6736265e+2, -1332373.5, -1536058.6, 29382.71, 0.123543024, -0.13835728, -1328219.5, -28369.201, 0.0, 10.001339, 9.998366 
2.9592183e+3, 1.7735851e+2, -1349356.4, -1559230.5, 57064.402, 0.06941436, 0.09997337, -1334844.3, -132945.66, 0.0, 10.000662, 9.9979925 
2.9588887e+3, 1.8735453e+2, -908140.6, -837134.4, -13939.062, -0.07932603, 0.15006387, -834496.06, 269442.2, 0.0, 10.001312, 10.001784 
2.9585597e+3, 1.9735031e+2, -1037673.2, -1062839.8, 15947.027, -0.11680076, 0.068608224, -1029942.8, -23965.406, 0.0, 10.000441, 10.0001545 
2.9582334e+3, 2.0734665e+2, -790511.9, -649582.6, 29681.95, 0.019338885, 0.060013868, -643586.25, 264422.13, 0.0, 10.00069, 10.002003 
2.9579073e+3, 2.173428e+2, -1067005.6, -964398.8, 44876.773, 0.19503263, -0.020266749, -947540.94, -137500.6, 0.0, 9.9988575, 10.000232 
2.9575822e+3, 2.273383e+2, -768273.0, -630396.25, 140846.66, 0.20975903, -0.06564552, -542521.75, 169562.73, 0.0, 9.999825, 10.001233 
2.957257e+3, 2.3733418e+2, -749673.6, -735820.1, 81162.375, 0.18507284, -0.12126333, -661289.44, -47161.836, 0.0, 9.999753, 10.00006 
2.9569286e+3, 2.473311e+2, -353083.94, -255382.5, 24454.338, 0.1218866, -0.06276261, -249603.5, 266552.72, 0.0, 10.001011, 10.001919 
2.9565993e+3, 2.5732788e+2, -499503.06, -491441.1, 70282.22, 0.06715758, -0.07301491, -425074.34, -6889.7515, 0.0, 10.000053, 10.000241 
2.9562694e+3, 2.6732507e+2, -395160.75, -298828.53, 8754.814, 0.10990001, 0.08218663, -298039.34, 22173.75, 0.0, 9.999924, 10.000744 
2.9559377e+3, 2.7732214e+2, -668431.9, -563829.6, -43458.145, 0.041534163, 0.20751654, -548130.6, -325887.3, 0.0, 9.997933, 9.999413 
2.955612e+3, 2.8731516e+2, -262653.44, -74152.97, 78503.64, 0.41786742, -0.088585995, -45741.36, 78564.195, 0.0, 9.999223, 10.001376 
2.955281e+3, 2.9730782e+2, -53887.33, 96419.41, 58593.87, 0.21433905, -0.44874057, 116561.734, 142928.86, 0.0, 9.999534, 10.0018425 
2.9705247e+3, 1.3771155e+2, -1485273.1, -1309708.3, 157997.64, 0.27224684, 0.2430588, -1216745.0, 373695.75, 0.00000010737005, 9.999998, 10.002725 
2.970197e+3, 1.4770196e+2, -1324133.9, -1690821.1, -67286.68, 0.12484394, -0.16505197, -1312176.8, 180346.6, 0.0, 10.002921, 9.997973 
2.9698676e+3, 1.5769382e+2, -1466293.8, -1750015.9, -84729.414, -0.027439214, -0.28251964, -1442916.6, -48312.023, 0.0, 10.001216, 9.997837 
2.9695424e+3, 1.6769119e+2, -1075140.1, -1096099.0, 63865.594, 0.15331927, -0.06288562, -1020899.9, 275730.2, 0.0, 10.001623, 10.001319 
2.969217e+3, 1.7769003e+2, -944109.94, -1135746.4, 174326.78, 0.19641002, 0.22503877, -841003.6, 357637.97, 0.0, 10.002295, 10.000155 
2.968886e+3, 1.8768565e+2, -949017.9, -987855.94, 23471.78, 0.0027516433, 0.23921405, -937973.44, 162712.42, 0.0, 10.001428, 10.000764 
2.968554e+3, 1.9767986e+2, -1195129.0, -1171024.4, 18612.55, -0.22450112, 0.10888636, -1160902.6, -158159.1, 0.0, 9.999285, 10.00002 
2.9682282e+3, 2.0767497e+2, -675379.25, -667457.7, 108297.39, -0.122014485, 0.034498822, -563048.7, 341740.22, 0.0, 10.001679, 10.001459 
2.9679042e+3, 2.1767078e+2, -111509.24, -491971.9, 61971.445, 0.053197347, -0.014631425, -101669.54, 705156.8, 0.0, 10.0051775, 10.0005045 
2.9675782e+3, 2.2766669e+2, -195129.83, -401225.78, 39097.83, 0.085766874, 0.0052334275, -187962.0, 520904.03, 0.0, 10.003789, 10.001013 
2.9672506e+3, 2.3766252e+2, -610877.2, -605586.3, -17256.727, 0.026918875, -0.015498693, -590773.44, 20134.418, 0.0, 10.0002575, 10.00075 
2.9669225e+3, 2.4765916e+2, -537070.6, -262908.9, -68980.63, 0.029401204, -0.05289603, -246531.33, 266407.63, 0.0, 9.999258, 10.002755 
2.966594e+3, 2.5765628e+2, -537644.3, -384183.0, -122656.055, 0.082527734, -0.10211381, -316234.34, 98729.97, 0.0, 9.999052, 10.001489 
2.9662642e+3, 2.6765397e+2, -376071.7, -292732.22, -118009.41, 0.12769121, 0.046438128, -209251.7, 107737.21, 0.0, 9.99988, 10.000917 
2.9659325e+3, 2.7765152e+2, -180181.77, -271287.44, -78129.48, 0.0715476, 0.23242994, -135295.25, 83721.12, 0.0, 10.000851, 10.000084 
2.9656085e+3, 2.876463e+2, -25660.77, 88335.98, -13475.043, 0.58926785, 0.06416869, 89907.15, 210969.6, 0.0, 10.000554, 10.00191 
2.9652688e+3, 2.9763976e+2, -124277.234, 142561.2, -276402.94, -0.4120145, -0.24757145, 316061.0, 339177.0, 0.0, 9.998597, 10.002646 
2.9805228e+3, 1.3803561e+2, -1481548.9, -1320169.8, 182651.3, 0.51325804, 0.083330065, -1201178.8, 386079.8, 0.00000019973128, 10.000201, 10.00256 
2.9801947e+3, 1.4802441e+2, -1592329.9, -1870617.9, -220232.38, 0.114629745, -0.44691995, -1470967.9, 18394.54, 0.000000000008976791, 10.001435, 9.997442 
2.9798645e+3, 1.580201e+2, -1492395.0, -1710929.8, -136004.02, 0.027509999, -0.16788882, -1427201.9, -35789.348, 0.0, 10.000934, 9.998262 
2.9795396e+3, 1.6802035e+2, -979114.3, -671691.94, 8687.435, 0.22582993, 0.09212163, -671446.6, 621957.5, 0.0, 10.000799, 10.004601 
2.9792157e+3, 1.7802136e+2, -1335495.9, -1200530.4, 34055.28, 0.37717178, 0.29297838, -1192424.3, 2960.5532, 0.0, 9.999221, 10.001195 
2.9788834e+3, 1.8801637e+2, -1237019.9, -1275350.9, -141019.69, 0.1446414, 0.28703243, -1113869.3, -16434.205, 0.0, 10.000229, 9.999345 
2.9785487e+3, 1.9800946e+2, -1271384.1, -1359744.5, -18296.916, -0.19897811, 0.1582053, -1267745.3, -268237.53, 0.0, 9.999567, 9.998575 
2.978224e+3, 2.0800294e+2, -755372.75, -802082.7, 234821.75, -0.24382982, -0.0049816, -542747.44, 358824.84, 0.0, 10.00157, 10.000588 
2.977903e+3, 2.1799822e+2, -648542.94, -860019.94, 137042.34, -0.06564651, -0.04041978, -581188.3, 222429.34, 0.0, 10.002095, 9.9994545 
2.977575e+3, 2.2799608e+2, -500041.13, -547223.2, -45248.527, -0.025815569, 0.18894546, -472603.06, 233035.34, 0.0, 10.001902, 10.000838 
2.9772443e+3, 2.3799305e+2, -918449.56, -840004.0, -45551.824, -0.12104414, 0.32088235, -819115.25, -211447.03, 0.0, 9.998716, 9.999853 
2.9769155e+3, 2.4798843e+2, -622861.06, -270624.25, -31518.709, -0.07188951, 0.16479558, -267826.13, 241886.9, 0.0, 9.998742, 10.002889 
2.976588e+3, 2.5798404e+2, -824789.9, -586688.5, -68689.914, 0.06620799, -0.005718278, -568293.3, -156538.0, 0.0, 9.997527, 10.000821 
2.9762596e+3, 2.679804e+2, -363616.16, -124936.4, -52795.383, 0.17181182, -0.074644625, -113779.69, 200009.7, 0.0, 9.999451, 10.002215 
2.9759294e+3, 2.7797675e+2, -355739.25, -341138.06, -33894.184, 0.1312125, -0.13995641, -313767.13, -97943.15, 0.0, 9.999785, 10.000095 
2.975601e+3, 2.879772e+2, -228432.34, -116398.54, -68563.266, 0.32193112, 0.31541216, -83878.36, 33943.793, 0.0, 9.99981, 10.00083 
2.9752684e+3, 2.979749e+2, -236280.13, 166970.69, -132737.5, 0.08239917, 0.5032566, 206741.31, 226586.78, 0.0, 9.997792, 10.0031395 
2.9905206e+3, 1.383572e+2, -1512179.8, -1346499.5, -136237.81, 0.5252685, 0.31949568, -1269893.0, 314223.56, 0.000000019519112, 9.999981, 10.002594 
2.990194e+3, 1.4835837e+2, -1569031.5, -1495307.3, -288517.1, 0.453073, 0.81806314, -1241307.0, 244790.86, 0.0, 10.000019, 10.000809 
2.989865e+3, 1.5835226e+2, -1324890.9, -1417344.1, -149529.6, 0.34708765, 0.63010406, -1214605.5, 173554.56, 0.0, 10.001089, 10.00025 
2.989534e+3, 1.6834435e+2, -1278535.8, -963197.94, -212790.08, 0.1426586, 0.10406871, -856029.0, 434203.1, 0.0, 9.999357, 10.003321 
2.9892027e+3, 1.7833717e+2, -1642839.0, -1247428.1, -241333.45, -0.277133, -0.42803362, -1133157.1, 59137.387, 0.0, 9.996604, 10.002151 
2.988877e+3, 1.883327e+2, -1103519.4, -906063.5, -179954.81, 0.00030359873, -0.5980215, -799533.2, 294803.28, 0.0, 9.9997635, 10.002186 
2.9885533e+3, 1.9832978e+2, -656928.44, -810070.4, -14358.725, 0.49890962, -0.559161, -655593.75, 340771.53, 0.0, 10.002583, 10.000949 
2.9882276e+3, 2.08331e+2, -619463.94, -635551.9, 212656.05, 0.39252427, -0.061822537, -414699.75, 483652.22, 0.0, 10.00201, 10.001595 
2.9879e+3, 2.1833071e+2, -799275.4, -742056.94, 161591.02, 0.03264517, 0.27498627, -606562.06, 193791.27, 0.0, 10.000047, 10.001308 
2.987572e+3, 2.2832309e+2, -614087.4, -424451.4, 80834.55, 0.0900416, -0.18534292, -394671.34, 307755.34, 0.0, 10.000197, 10.002599 
2.9872447e+3, 2.3831634e+2, -385607.6, -408964.8, 159249.64, 0.33055606, -0.55808324, -237608.89, 366882.78, 0.0, 10.001425, 10.001601 
2.986916e+3, 2.4831574e+2, -247546.28, -172660.17, 152843.08, 0.44385192, -0.28474, -52740.62, 453757.53, 0.0, 10.001588, 10.002279 
2.9865867e+3, 2.5831482e+2, -310823.1, -285910.06, 129625.45, 0.49288628, -0.029841227, -168144.0, 240363.58, 0.0, 10.000643, 10.001475 
2.9862568e+3, 2.6830944e+2, 40713.926, 124852.19, 196902.27, 0.34595168, -0.26807687, 284129.3, 594687.06, 0.0, 10.001908, 10.002882 
2.985925e+3, 2.783041e+2, 210501.31, 7010.4775, 98822.234, 0.04693738, -0.5118697, 250593.7, 463200.97, 0.0, 10.003147, 10.001039 
2.9855907e+3, 2.8830054e+2, -266323.4, -212910.5, -10536.737, -0.15106663, -0.4201203, -210907.08, -96258.91, 0.0, 9.999773, 10.000446 
2.9852644e+3, 2.9829842e+2, -468073.75, 100113.164, 134171.94, 0.51704437, -0.09122281, 130203.09, 146877.55, 0.0, 9.995712, 10.0040045 
3.0005103e+3, 1.3867562e+2, -1632428.8, -1305658.0, 208747.03, -0.049987726, -0.20871434, -1203958.3, 377039.22, 0.000000013810121, 9.998559, 10.0035925 
3.000187e+3, 1.486787e+2, -1379237.1, -1246056.8, 322231.5, 0.36250526, 0.3883325, -983606.8, 499353.03, 0.0, 10.000685, 10.002072 
2.9998648e+3, 1.5866846e+2, -1040457.8, -1330785.3, 41130.46, 0.63950115, -0.32538524, -1034743.4, 350315.7, 0.0, 10.003183, 9.999761 
2.9995334e+3, 1.6866769e+2, -1243745.4, -1195593.4, -128764.62, 0.65433854, -0.020463632, -1088673.3, 198392.47, 0.0, 10.000682, 10.000899 
2.9991996e+3, 1.786653e+2, -1639389.0, -1404168.9, -10330.285, 0.2278031, 0.11347609, -1403716.1, -214628.64, 0.0, 9.997217, 10.000748 
2.9988697e+3, 1.8866733e+2, -1285724.8, -739456.7, -65797.336, -0.15106274, 0.40896282, -731643.25, 359419.5, 0.0, 9.99738, 10.004343 
2.9985443e+3, 1.98664e+2, -1164426.3, -1062108.8, -176108.7, -0.16321714, 0.24323069, -929878.56, 63211.133, 0.0, 9.999101, 10.000834 
2.9982203e+3, 2.086568e+2, -938477.56, -654835.9, -92150.77, 0.042193692, -0.25990194, -627526.9, 267628.97, 0.0, 9.999337, 10.002549 
2.9978922e+3, 2.1865387e+2, -1135214.6, -880020.75, -192648.69, -0.28677022, -0.28677496, -776545.2, 20635.197, 0.0, 9.997675, 10.001425 
2.9975623e+3, 2.2865318e+2, -836198.2, -271387.06, -146691.72, -0.34047052, -0.30371422, -235561.02, 463622.56, 0.0, 9.997679, 10.004645 
2.9972413e+3, 2.3865648e+2, -716317.0, -598875.7, -8880.694, 0.3593487, 0.10947278, -598207.94, 2940.1128, 0.0, 9.999343, 10.001194 
2.99691e+3, 2.4865058e+2, -116527.55, -251619.05, -75651.22, 0.22682428, -0.15027757, -82655.67, 420549.9, 0.0, 10.003178, 10.000758 
2.9965773e+3, 2.586464e+2, -1193572.0, -850718.94, 47107.504, -0.030981123, -0.18382381, -844364.25, -439117.1, 0.0, 9.99532, 10.000014 
2.9962546e+3, 2.6864153e+2, 180265.94, 186692.56, 236608.61, 0.48010448, -0.38804373, 420109.7, 727401.94, 0.0, 10.003128, 10.002441 
2.9959264e+3, 2.7864164e+2, -329590.0, -385434.22, -47523.016, 0.33756116, -0.067491226, -302393.3, -93104.375, 0.0, 10.000113, 9.999686 
2.9955813e+3, 2.8864035e+2, -304513.94, -284124.94, 152890.16, -0.4487646, 0.25637326, -141089.78, -29783.4, 0.0, 10.000053, 9.99956 
2.9952553e+3, 2.986266e+2, -404273.5, 88428.88, -118909.11, 0.524894, -0.49899164, 115625.29, 129069.76, 0.0, 9.99666, 10.0032425 
