coord_x,coord_y,stress_xx,stress_yy,tau_xy,velocity_x,velocity_y,stress_1,eps,damage,lx,ly
4.999238e+0, 1.2576178e+2, -2011544.4, -1543039.0, 40919.25, 0.09401192, 0.2734932, -1539492.0, 168091.8, 0.002661235, 9.996543, 10.002845 
4.997797e+0, 1.3576551e+2, -1969290.6, -1589416.6, -16559.307, -0.056441218, 0.42564914, -1588696.3, 20850.404, 0.0015827751, 9.9966955, 10.001771 
4.9978638e+0, 1.4576901e+2, -1854038.9, -1547012.6, -39246.22, -0.06970567, 0.63688403, -1542075.4, -30563.389, 0.0007101352, 9.997096, 10.001191 
4.9991083e+0, 1.5576917e+2, -1682151.4, -1421406.4, -60089.297, 0.02754962, 0.5041687, -1408225.0, 5285.8013, 0.00020845665, 9.997638, 10.001118 
4.999577e+0, 1.65769e+2, -1578926.5, -1432953.0, -59961.32, 0.048644945, 0.43129733, -1411481.1, -95970.76, 0.000030560015, 9.998157, 10.000118 
4.999478e+0, 1.757683e+2, -1417948.0, -1319983.5, -61044.066, 0.013739669, 0.32734504, -1290699.3, -73185.94, 0.0000010193884, 9.998656, 9.999978 
4.999593e+0, 1.8576832e+2, -1378896.9, -1411090.3, -42129.223, 0.01029379, 0.41103423, -1349894.0, -230377.36, 0.0, 9.99895, 9.998539 
4.9998504e+0, 1.9576886e+2, -1254872.5, -1288664.6, -8012.6426, 0.030019227, 0.590314, -1253068.9, -231548.6, 0.0, 9.999076, 9.998648 
4.999898e+0, 2.0576867e+2, -961324.5, -874597.06, -10378.751, 0.015364895, 0.60405916, -873372.3, 50148.44, 0.0, 9.999463, 10.000628 
4.9997887e+0, 2.157679e+2, -792327.9, -767770.6, -69002.28, -0.025504278, 0.43973547, -709963.06, 115556.555, 0.0, 10.000061, 10.000401 
4.9998564e+0, 2.2576736e+2, -798450.3, -1011615.3, -67351.32, -0.04597667, 0.4894546, -778953.4, -51427.7, 0.0, 10.000605, 9.99779 
5.0000614e+0, 2.3576692e+2, -628326.3, -882721.8, -32176.303, -0.050829425, 0.64286464, -624319.75, 5218.431, 0.0, 10.001116, 9.997758 
5.000399e+0, 2.4576455e+2, -494409.3, -738675.5, -9381.698, -0.022811795, 0.6181591, -494049.53, 37513.977, 0.0, 10.001233, 9.998021 
5.000858e+0, 2.557606e+2, -420910.47, -655910.4, 10487.466, 0.030775381, 0.40251544, -420443.38, 13156.057, 0.0, 10.00108, 9.99799 
5.000764e+0, 2.6575893e+2, -251960.13, -467772.63, 21971.404, 0.008896072, 0.41204223, -249745.97, 85869.516, 0.000000019594776, 10.001328, 9.998486 
5.000253e+0, 2.7575904e+2, -80511.45, -344093.13, -11302.245, -0.06972949, 0.5482674, -80027.71, 157588.08, 0.00000061394036, 10.001876, 9.998398 
5.000601e+0, 2.857584e+2, -26533.906, -374906.06, -34025.7, -0.043234717, 0.6992976, -23241.709, 116381.65, 0.000004739669, 10.00204, 9.997432 
5.0015664e+0, 2.9575664e+2, 46498.816, -300016.25, -37219.285, 0.05986944, 0.75849515, 50451.465, 92093.875, 0.00003407196, 10.001909, 9.997338 
5.0014627e+0, 3.0575147e+2, 34807.49, -382470.72, -43305.355, 0.048402883, 0.55661297, 39254.35, 39254.35, 0.00018243087, 10.00193, 9.9964285 
5.0005174e+0, 3.1574404e+2, 378079.72, 304455.78, -74838.914, -0.052256748, 0.13713984, 424670.28, 424670.28, 0.0005320596, 10.002018, 10.001112 
1.4997669e+1, 1.2576681e+2, -2119324.5, -1742985.9, 32199.75, 0.2771955, 0.68041456, -1740250.8, -32711.316, 0.0025654268, 9.996456, 10.001517 
1.4993384e+1, 1.3576514e+2, -2066019.0, -1779347.5, -6991.2773, -0.17056708, 0.44198492, -1779177.1, -169622.77, 0.001528762, 9.996662, 10.000489 
1.4993602e+1, 1.4576676e+2, -1888411.0, -1604020.8, -21627.084, -0.20696339, 0.5448329, -1602385.5, -90847.414, 0.0006838554, 9.99704, 10.0008335 
1.4997314e+1, 1.5576802e+2, -1712856.0, -1470904.6, -34925.992, 0.08187376, 0.570993, -1465963.9, -52437.1, 0.00019662829, 9.997584, 10.000809 
1.4998752e+1, 1.6576889e+2, -1578232.9, -1416477.4, -45118.39, 0.14838257, 0.6074839, -1404743.6, -89225.82, 0.00002664921, 9.9980955, 10.000268 
1.4998451e+1, 1.7576928e+2, -1410767.6, -1294195.6, -39447.195, 0.042204656, 0.6122827, -1282101.8, -64589.324, 0.00000066228677, 9.998612, 10.000184 
1.4998755e+1, 1.8576875e+2, -1317614.1, -1263935.8, -40242.727, 0.029489497, 0.5738727, -1242403.3, -122886.016, 0.0, 9.998875, 9.999586 
1.4999542e+1, 1.9576755e+2, -1204129.1, -1166771.3, 3141.1309, 0.08963923, 0.4829322, -1166509.0, -144979.33, 0.0, 9.999012, 9.999518 
1.4999686e+1, 2.057667e+2, -1070510.8, -1082967.8, 9468.185, 0.045328066, 0.46399465, -1065406.1, -141868.63, 0.0, 9.999394, 9.999233 
1.4999354e+1, 2.1576613e+2, -890913.2, -953006.75, -41713.176, -0.07726315, 0.4729575, -869961.0, -44419.05, 0.0, 9.999988, 9.999166 
1.4999557e+1, 2.2576565e+2, -731752.44, -852108.7, -51902.44, -0.13849507, 0.52238566, -712461.9, 15086.325, 0.0, 10.000525, 9.998926 
1.5000162e+1, 2.3576523e+2, -562205.7, -725513.4, -10554.513, -0.15321751, 0.57829547, -561526.4, 68029.29, 0.0, 10.001042, 9.998875 
1.5001208e+1, 2.4576429e+2, -458496.4, -651990.3, -18945.896, -0.067618355, 0.61082196, -456658.78, 74906.83, 0.0, 10.001182, 9.998648 
1.5002576e+1, 2.5576288e+2, -390134.7, -576444.06, 10055.245, 0.092496336, 0.59282464, -389593.56, 43984.453, 0.0, 10.001017, 9.998571 
1.5002292e+1, 2.6576084e+2, -306931.6, -569536.94, 38611.723, 0.026357478, 0.57484657, -301372.1, 34226.082, 0.0000000045160005, 10.001281, 9.997815 
1.5000771e+1, 2.757584e+2, -136329.42, -446353.06, 10404.006, -0.20842117, 0.53965616, -135980.67, 101643.08, 0.00000044568839, 10.00182, 9.997728 
1.5001781e+1, 2.857562e+2, -34064.184, -375419.38, -42051.03, -0.13096292, 0.5642258, -28960.293, 110686.1, 0.000003862279, 10.001984, 9.997458 
1.5004702e+1, 2.9575384e+2, 40467.055, -298061.0, -35449.504, 0.17956984, 0.56934464, 44139.367, 85809.734, 0.000030142082, 10.00185, 9.997384 
1.5004377e+1, 3.0575007e+2, -15549.58, -471795.56, -41819.258, 0.14384188, 0.53351533, -11748.124, -11748.124, 0.0001696507, 10.001882, 9.995842 
1.5001519e+1, 3.1574628e+2, 300537.25, 175896.48, -58205.145, -0.15935758, 0.5599068, 323490.97, 323490.97, 0.00050278765, 10.001896, 10.000289 
2.4993414e+1, 1.257674e+2, -2111080.5, -1771431.5, -60498.84, 0.19855118, 0.8324989, -1760977.1, -53440.21, 0.0024531346, 9.996669, 10.001211 
2.4991721e+1, 1.3576445e+2, -1816740.5, -1697691.4, -32254.863, -0.094843395, 0.49821213, -1689514.0, -79950.94, 0.001461298, 9.998545, 10.000143 
2.4992216e+1, 1.4576517e+2, -1674353.6, -1538447.6, -44542.195, -0.12879461, 0.5423112, -1525150.4, -13594.578, 0.0006489441, 9.998677, 10.000485 
2.4994627e+1, 1.55766e+2, -1740119.5, -1518348.9, -57108.1, 0.058623645, 0.55881506, -1504507.0, -90958.164, 0.0001814002, 9.997549, 10.000494 
2.4996403e+1, 1.6576713e+2, -1640103.9, -1393491.1, -10138.558, 0.13844062, 0.61253136, -1393075.1, -77538.23, 0.000022322774, 9.997456, 10.000722 
2.4997707e+1, 1.7576835e+2, -1453911.3, -1262497.5, 15694.305, 0.1341595, 0.64710903, -1261219.3, -43696.445, 0.00000035252413, 9.998106, 10.000635 
2.4998465e+1, 1.8576802e+2, -1296284.4, -1211366.1, 4056.5044, 0.11735195, 0.5895433, -1211172.9, -91649.08, 0.0, 9.998832, 9.999967 
2.4998869e+1, 1.9576661e+2, -1095512.4, -1077997.1, -5617.032, 0.093692064, 0.43711627, -1076350.6, -54815.008, 0.0, 9.999599, 9.999839 
2.4999076e+1, 2.0576575e+2, -1039028.7, -1140966.9, 18087.162, 0.02013807, 0.43658766, -1035914.56, -112369.81, 0.0, 9.999923, 9.998581 
2.4999124e+1, 2.1576522e+2, -948427.0, -1045595.0, 20522.193, -0.09084391, 0.512624, -944270.44, -118717.7, 0.0, 9.999869, 9.998589 
2.4999914e+1, 2.2576445e+2, -806015.94, -843299.94, 16943.11, -0.11747471, 0.5381543, -799466.8, -71905.09, 0.0, 9.999808, 9.999333 
2.5001255e+1, 2.3576352e+2, -723835.0, -763161.7, 3248.1357, -0.08156026, 0.49777362, -723568.56, -93997.4, 0.0, 9.999744, 9.999242 
2.5002208e+1, 2.4576317e+2, -565608.7, -684404.06, -26504.6, -0.04351531, 0.5638936, -559963.44, -28388.25, 0.0, 10.000371, 9.998805 
2.5002846e+1, 2.5576317e+2, -303679.44, -521586.34, -39363.117, -0.007419285, 0.6680959, -296786.84, 136789.14, 0.0, 10.001557, 9.998679 
2.5003207e+1, 2.6576117e+2, -235640.08, -564706.1, -11456.873, -0.03975992, 0.6627132, -235241.69, 100355.57, 0.00000000030772893, 10.001903, 9.997543 
2.5003362e+1, 2.7575776e+2, -179965.22, -492103.28, -9676.663, -0.12018, 0.5535753, -179665.52, 57967.586, 0.00000033210142, 10.001634, 9.997497 
2.5004685e+1, 2.8575525e+2, 4575.0254, -324330.2, -12002.817, -0.041879226, 0.54164463, 5012.4653, 144670.86, 0.0000031221457, 10.002101, 9.997756 
2.5006875e+1, 2.9575315e+2, 241641.08, -166302.05, 8888.052, 0.1524737, 0.5401157, 241834.64, 283513.16, 0.000025684236, 10.003089, 9.997691 
2.500675e+1, 3.057501e+2, 171166.03, -371408.13, 26732.563, 0.13331428, 0.55771106, 172479.97, 172479.97, 0.0001534223, 10.003122, 9.995938 
2.500479e+1, 3.1574818e+2, 348328.3, 157959.38, 51793.563, -0.042013593, 0.7604756, 361507.38, 361507.38, 0.00046499635, 10.002405, 9.99992 
3.498639e+1, 1.2576348e+2, -2069457.0, -1668656.9, -6883.647, -0.19297239, 0.71049553, -1668538.8, 39037.992, 0.0023328552, 9.996606, 10.001947 
3.4992713e+1, 1.3576347e+2, -1767560.6, -1591255.6, 32906.664, 0.13842262, 0.59919286, -1585314.0, 24258.723, 0.001385082, 9.998537, 10.000874 
3.4993604e+1, 1.4576413e+2, -1697706.1, -1579249.4, -91910.945, 0.12830591, 0.6176565, -1529136.0, -17570.572, 0.00060841354, 9.998644, 10.000222 
3.4990907e+1, 1.5576312e+2, -1757692.6, -1545240.0, -90203.74, -0.08145713, 0.47669622, -1512108.0, -98531.38, 0.00016439817, 9.997516, 10.000323 
3.4992436e+1, 1.6576375e+2, -1584258.8, -1271577.6, 10629.6455, -0.01745263, 0.4407944, -1271216.6, 44350.73, 0.000017966355, 9.997426, 10.001576 
3.4997123e+1, 1.7576534e+2, -1401763.5, -1151428.9, 44038.332, 0.2537608, 0.43096966, -1143907.8, 73637.66, 0.00000014192928, 9.998093, 10.001405 
3.4998634e+1, 1.8576601e+2, -1314681.4, -1239726.5, 29759.277, 0.2395862, 0.4456545, -1229348.3, -109811.19, 0.0, 9.998792, 9.999791 
3.4997737e+1, 1.9576603e+2, -1113590.1, -1104398.0, 25297.959, 0.008237925, 0.4570036, -1083282.0, -61743.547, 0.0, 9.999551, 9.999682 
3.4997952e+1, 2.0576577e+2, -1035478.1, -1115276.0, 10843.6455, -0.09377461, 0.5117957, -1034030.8, -110487.34, 0.0, 9.99985, 9.998791 
3.4998974e+1, 2.1576516e+2, -944338.75, -1020535.3, 22890.64, -0.10225125, 0.56193876, -937990.9, -112438.5, 0.0, 9.999804, 9.99879 
3.5000825e+1, 2.2576377e+2, -829415.94, -875105.94, 10389.063, -0.018666364, 0.52634096, -827164.56, -99597.98, 0.0, 9.999742, 9.999147 
3.5003236e+1, 2.3576185e+2, -746125.94, -793776.94, 8553.34, 0.13215484, 0.41020602, -744637.1, -115053.01, 0.0, 9.999683, 9.999061 
3.50033e+1, 2.4576126e+2, -590029.06, -727014.7, 13747.94, 0.016725238, 0.47458017, -588662.94, -57071.055, 0.0, 10.000336, 9.998531 
3.50016e+1, 2.5576153e+2, -328572.78, -560347.6, 4592.8003, -0.29941773, 0.63611704, -328481.8, 105111.484, 0.0, 10.001503, 9.99844 
3.500343e+1, 2.6575994e+2, -224015.42, -534295.4, -26169.771, -0.2186907, 0.6714932, -221823.69, 113788.81, 0.00000000006499392, 10.001877, 9.997764 
3.5007885e+1, 2.75757e+2, -166135.92, -453226.7, -12504.826, 0.15668474, 0.5922009, -165592.28, 72051.94, 0.00000028362408, 10.001591, 9.997785 
3.5009181e+1, 2.8575546e+2, 46213.406, -228647.64, 20724.734, 0.18621117, 0.62463707, 47767.28, 187427.11, 0.0000026203563, 10.0020685, 9.9984255 
3.500798e+1, 2.9575455e+2, 282348.16, -72841.89, 46072.68, -0.057605714, 0.6764444, 288227.06, 329894.03, 0.000020827198, 10.003053, 9.998351 
3.5008466e+1, 3.0575147e+2, 231178.98, -243221.25, -2773.188, -0.017764302, 0.6150733, 231195.2, 231195.2, 0.0001336939, 10.003109, 9.996824 
3.501016e+1, 3.157498e+2, 354048.5, 174880.73, 36569.21, 0.22995447, 0.7555453, 361225.03, 361225.03, 0.000419702, 10.002379, 10.000051 
4.4982296e+1, 1.2575981e+2, -2024139.8, -1589590.1, 51889.27, -0.2550417, 0.54898494, -1583480.0, 124126.97, 0.0022111118, 9.996672, 10.00246 
4.4990256e+1, 1.3576145e+2, -2310622.0, -1800805.9, 58416.17, 0.2427107, 0.5542969, -1794198.0, -184610.83, 0.0013064536, 9.994593, 10.00134 
4.4991755e+1, 1.4576247e+2, -2172391.5, -1798820.3, -18915.715, 0.24992551, 0.58295643, -1797864.9, -286288.03, 0.00056747237, 9.995348, 10.000312 
4.4989064e+1, 1.5576145e+2, -1654753.8, -1492340.3, -5599.0923, -0.04560826, 0.43481204, -1492147.4, -78558.83, 0.00014805637, 9.998196, 10.000369 
4.4990537e+1, 1.657619e+2, -1375778.1, -1197022.3, 37808.86, -0.022350438, 0.3929257, -1189354.3, 126227.96, 0.000013959289, 9.998969, 10.001348 
4.4995102e+1, 1.757632e+2, -1392195.8, -1169925.8, -17242.775, 0.23723075, 0.3767409, -1168596.0, 48968.96, 0.000000037538413, 9.998253, 10.001205 
4.4996983e+1, 1.857641e+2, -1371339.6, -1259589.5, -20980.81, 0.21959868, 0.42099366, -1255780.3, -136224.7, 0.0, 9.998372, 9.999861 
4.499679e+1, 1.9576482e+2, -1180984.5, -1127882.8, -15816.656, -0.01225344, 0.49704114, -1123528.8, -101978.1, 0.0, 9.999054, 9.999762 
4.4997573e+1, 2.0576471e+2, -1095250.8, -1117109.0, -38069.164, -0.08562122, 0.5508433, -1066573.0, -143018.84, 0.0, 9.99932, 9.999035 
4.4999135e+1, 2.1576385e+2, -1007583.8, -1026208.94, -30480.861, -0.034797046, 0.55117524, -985024.6, -159459.78, 0.0, 9.999255, 9.999018 
4.5000952e+1, 2.2576253e+2, -841037.94, -873033.0, -7976.9326, 0.030026745, 0.508214, -839159.44, -111581.69, 0.0, 9.999638, 9.9992075 
4.500291e+1, 2.3576088e+2, -640458.94, -737058.3, 1804.762, 0.099913836, 0.41296938, -640425.25, -10833.382, 0.0, 10.000389, 9.999108 
4.5003468e+1, 2.4576013e+2, -533061.3, -708518.75, 42383.76, -0.01801351, 0.4653967, -523359.5, 8241.759, 0.0, 10.000773, 9.998446 
4.500298e+1, 2.5575995e+2, -419543.16, -613094.4, 38736.7, -0.27830568, 0.5919261, -412078.44, 21529.658, 0.0, 10.000915, 9.9983635 
4.500517e+1, 2.6575857e+2, -319907.38, -549608.06, 302.30066, -0.18951225, 0.6388966, -319907.0, 15718.506, 0.00000000016705606, 10.001088, 9.99804 
4.5009387e+1, 2.7575648e+2, -183176.78, -433264.4, 10811.123, 0.16357175, 0.6116652, -182710.28, 54939.355, 0.00000025695456, 10.001351, 9.998042 
4.5010892e+1, 2.857554e+2, -25312.553, -250684.06, 49267.734, 0.18146333, 0.67743194, -15012.986, 124647.47, 0.0000021581377, 10.00153, 9.998534 
4.5010257e+1, 2.9575485e+2, 91683.6, -149570.19, 19883.748, -0.062156048, 0.75529706, 93311.41, 134975.89, 0.000016077325, 10.001679, 9.9984865 
4.5011258e+1, 3.057514e+2, 86447.92, -231579.84, -74691.766, 0.023071835, 0.6127025, 103116.35, 103116.35, 0.00011232623, 10.001758, 9.997562 
4.501343e+1, 3.1574973e+2, 246257.05, 116617.2, -59650.645, 0.36233413, 0.68456775, 269526.97, 269526.97, 0.00037058155, 10.001665, 9.999999 
5.498064e+1, 1.2575656e+2, -1999820.3, -1557936.3, -42124.92, -0.12248529, 0.3603536, -1553956.4, 153669.66, 0.0020867882, 9.996738, 10.002648 
5.498411e+1, 1.357585e+2, -2290738.3, -1769445.3, -3196.485, 0.15203436, 0.3719062, -1769425.8, -159820.06, 0.0012253985, 9.994629, 10.001539 
5.498647e+1, 1.4576025e+2, -2141896.8, -1739767.5, 86055.24, 0.16968077, 0.4447657, -1722125.8, -210536.48, 0.00052635156, 9.995363, 10.00071 
5.4988897e+1, 1.5576102e+2, -1633354.1, -1451802.3, 96825.1, 0.10136544, 0.43565506, -1409855.3, 3728.8733, 0.00013276051, 9.998215, 10.000637 
5.499048e+1, 1.6576166e+2, -1471110.9, -1393793.8, 4717.966, 0.06061921, 0.4721807, -1393506.9, -77926.17, 0.0000106646075, 9.998965, 9.999999 
5.499148e+1, 1.7576191e+2, -1480188.8, -1348336.3, -37046.184, 0.036699027, 0.48583648, -1338640.5, -121058.83, 0.000000007551507, 9.998237, 9.999988 
5.499334e+1, 1.8576233e+2, -1352935.3, -1214126.0, 554.26385, 0.0063809776, 0.5208836, -1214123.8, -94544.98, 0.0, 9.998341, 10.000188 
5.499581e+1, 1.9576299e+2, -1160258.9, -1080706.8, 11120.021, -0.029414572, 0.5573936, -1079181.5, -57609.277, 0.0, 9.99904, 10.000091 
5.499781e+1, 2.057626e+2, -1079283.4, -1076728.9, -45184.19, -0.0065057366, 0.5518374, -1032803.9, -109227.2, 0.0, 9.999287, 9.999329 
5.499945e+1, 2.1576132e+2, -993434.56, -988048.9, -27746.96, 0.058954634, 0.48229373, -962864.4, -137274.22, 0.0, 9.999218, 9.999296 
5.5000126e+1, 2.2576074e+2, -822277.8, -828355.5, 16126.877, -0.03090834, 0.48203182, -808906.0, -81310.77, 0.0, 9.99961, 9.999528 
5.5000114e+1, 2.3576063e+2, -625107.75, -697141.94, 32030.326, -0.23100352, 0.5080924, -612925.5, 16668.482, 0.0, 10.000354, 9.999398 
5.50025e+1, 2.4575984e+2, -531599.25, -699220.1, 43960.867, -0.20541608, 0.5382937, -520769.6, 10833.422, 0.0, 10.000748, 9.998521 
5.500672e+1, 2.5575843e+2, -420388.16, -601568.4, 47358.035, -0.008300996, 0.5336611, -408756.2, 24864.213, 0.0, 10.000861, 9.998466 
5.500823e+1, 2.6575714e+2, -300325.78, -506250.7, 5446.5615, -0.0051328223, 0.5671532, -300181.8, 35454.203, 0.00000000012003064, 10.001073, 9.998346 
5.500774e+1, 2.7575603e+2, -170438.0, -399755.5, 23892.107, -0.1480963, 0.6094229, -167975.19, 69674.26, 0.00000017731924, 10.00132, 9.998288 
5.500972e+1, 2.8575507e+2, -60573.46, -322557.03, 50013.16, -0.10133393, 0.69940656, -51350.54, 88309.805, 0.0000014062957, 10.001522, 9.998045 
5.501355e+1, 2.9575396e+2, 58678.094, -209780.88, 30340.8, 0.08548309, 0.772844, 62064.445, 103736.25, 0.00001153016, 10.001642, 9.998093 
5.501493e+1, 3.0574983e+2, 128946.58, -138033.39, -79764.9, 0.20211552, 0.5441642, 150962.27, 150962.27, 0.000091940805, 10.0017395, 9.99821 
5.501417e+1, 3.1574795e+2, 229143.63, 86406.59, -51377.887, 0.24396822, 0.5305718, 245713.45, 245713.45, 0.00032222702, 10.001644, 9.999797 
6.49782e+1, 1.2575357e+2, -2191669.8, -1691410.8, -86304.16, 0.02379415, 0.27431813, -1676940.1, 30708.393, 0.0019618457, 9.9956045, 10.002279 
6.4980125e+1, 1.3575535e+2, -1755576.3, -1536787.0, -94946.805, 0.10672352, 0.30123013, -1501329.8, 108303.125, 0.0011414166, 9.998403, 10.001317 
6.4982855e+1, 1.4575712e+2, -1622716.4, -1439609.6, 5759.923, 0.10926174, 0.36119127, -1439428.6, 72187.92, 0.0004823892, 9.998712, 10.001155 
6.498716e+1, 1.5575877e+2, -1747245.9, -1463808.4, 10370.257, 0.15798216, 0.39791608, -1463429.5, -49828.516, 0.00011742101, 9.99725, 10.001019 
6.498884e+1, 1.6575982e+2, -1734171.4, -1558010.3, -45149.836, 0.08545488, 0.4737957, -1547112.5, -231517.58, 0.000008467286, 9.997318, 9.999666 
6.498858e+1, 1.7576005e+2, -1465355.0, -1376428.6, -17493.227, -0.08572333, 0.51913124, -1373111.1, -155511.72, 0.000000004638606, 9.998487, 9.999676 
6.4991105e+1, 1.8576035e+2, -1264134.9, -1153878.4, 55352.3, -0.07389888, 0.548537, -1130885.0, -11286.036, 0.0, 9.998875, 10.000343 
6.4995706e+1, 1.9576079e+2, -1200164.9, -1083266.9, 44806.547, 0.07655685, 0.5476137, -1068068.6, -46474.984, 0.0, 9.998685, 10.000248 
6.499789e+1, 2.0576037e+2, -1123540.3, -1076407.5, -17485.588, 0.09482534, 0.52226067, -1070629.0, -147031.48, 0.0, 9.998893, 9.999519 
6.49982e+1, 2.1575928e+2, -957722.56, -950994.75, -14487.366, 0.006858562, 0.45077163, -939485.9, -113877.42, 0.0, 9.999381, 9.999471 
6.4998925e+1, 2.2575894e+2, -811591.75, -832781.0, 24697.396, -0.11430958, 0.47400132, -795312.44, -67700.95, 0.0, 9.9997225, 9.999448 
6.499999e+1, 2.357592e+2, -687938.1, -734992.56, -432.64572, -0.25554648, 0.5443611, -687934.1, -58325.723, 0.0, 9.9999485, 9.999341 
6.5003103e+1, 2.4575828e+2, -630414.3, -739470.06, -8551.395, -0.18008883, 0.5631815, -629747.8, -98129.61, 0.0, 10.000024, 9.998604 
6.5007764e+1, 2.557565e+2, -534484.75, -645690.94, -10628.82, 0.055773854, 0.5123774, -533478.0, -99840.11, 0.0, 10.000025, 9.998573 
6.500944e+1, 2.6575512e+2, -367766.34, -516262.9, -32361.666, 0.03864562, 0.522103, -361020.28, -25367.879, 0.00000000000043891748, 10.000512, 9.998548 
6.500889e+1, 2.7575412e+2, -148236.28, -369675.5, -30258.008, -0.16508162, 0.5534388, -144176.19, 93486.61, 0.00000007111923, 10.00139, 9.998457 
6.5011215e+1, 2.857529e+2, -29821.508, -327593.66, -1736.6765, -0.1143246, 0.61883783, -29811.38, 109864.555, 0.0000006300397, 10.001816, 9.99787 
6.501569e+1, 2.9575133e+2, 86996.59, -209424.34, -5318.567, 0.12742981, 0.663283, 87091.99, 128784.88, 0.000007787418, 10.001893, 9.997973 
6.501731e+1, 3.057475e+2, 238629.75, -48066.152, -103513.945, 0.24049065, 0.4504653, 272097.44, 272097.44, 0.0000752456, 10.002329, 9.99854 
6.5016466e+1, 3.1574637e+2, 401046.94, 118226.44, -116228.9, 0.24424623, 0.4819515, 442683.16, 442683.16, 0.00028007472, 10.003035, 9.999348 
7.497456e+1, 1.2575075e+2, -2244079.8, -1808345.0, 4624.4175, 0.07114983, 0.29226184, -1808295.9, -100620.15, 0.001839182, 9.995644, 10.001453 
7.497812e+1, 1.3575196e+2, -1796822.0, -1632748.1, 592.0819, 0.04958304, 0.3412856, -1632746.0, -23076.846, 0.0010576415, 9.998446, 10.000637 
7.49807e+1, 1.4575309e+2, -1581937.3, -1359958.5, -53660.05, 0.0066865315, 0.3364259, -1347667.5, 163991.05, 0.00043753645, 9.998735, 10.00169 
7.4983656e+1, 1.5575475e+2, -1710651.8, -1388948.4, -32483.379, 0.06913847, 0.3225661, -1385701.3, 27937.682, 0.00010224, 9.997255, 10.001531 
7.498539e+1, 1.657564e+2, -1688582.9, -1460225.8, -2707.368, -0.005201248, 0.4022225, -1460193.6, -144569.14, 0.000007138289, 9.997304, 10.000344 
7.498623e+1, 1.7575765e+2, -1419944.1, -1284356.5, 27360.234, -0.18353662, 0.47924286, -1279043.6, -61425.277, 0.00000003688298, 9.998497, 10.000302 
7.4990135e+1, 1.8575817e+2, -1265485.3, -1156371.9, 44219.38, -0.07172457, 0.50221074, -1140701.9, -21086.273, 0.0, 9.998872, 10.000329 
7.499632e+1, 1.9575825e+2, -1204684.4, -1088296.6, 43516.45, 0.25697958, 0.46763328, -1073825.4, -52210.72, 0.0, 9.998667, 10.000223 
7.499758e+1, 2.0575812e+2, -1123341.9, -1069001.9, -1788.1359, 0.16329882, 0.46666846, -1068943.0, -145327.06, 0.0, 9.998862, 9.999583 
7.499518e+1, 2.1575771e+2, -961383.8, -951253.9, 8065.09, -0.24652882, 0.45636332, -946795.25, -121175.54, 0.0, 9.999347, 9.999486 
7.499714e+1, 2.2575717e+2, -853118.9, -911020.25, 29308.68, -0.27759188, 0.48587772, -840873.2, -113246.85, 0.0, 9.999688, 9.998925 
7.500235e+1, 2.3575652e+2, -729721.3, -810394.44, 12340.461, -0.02420081, 0.516321, -727875.9, -98240.54, 0.0, 9.999898, 9.998847 
7.500507e+1, 2.4575551e+2, -628175.7, -726005.6, -12029.738, 0.0029945988, 0.54138875, -626718.2, -95071.61, 0.0, 9.9999895, 9.998709 
7.500599e+1, 2.557542e+2, -533293.94, -636037.3, -4247.751, -0.13467532, 0.52821547, -533118.6, -99458.71, 0.0, 9.999991, 9.998655 
7.500864e+1, 2.6575258e+2, -363523.16, -503173.94, -2015.5392, -0.10353781, 0.50452816, -363494.06, -27819.86, 0.0, 10.000494, 9.998646 
7.501261e+1, 2.7575076e+2, -148482.13, -359474.06, 6672.647, 0.05467021, 0.44426635, -148271.31, 89417.84, 0.000000009748358, 10.001345, 9.9985485 
7.501513e+1, 2.8574893e+2, -21414.469, -306554.75, -2158.6934, 0.08256718, 0.4363335, -21398.127, 118308.57, 0.00000018216522, 10.001801, 9.998021 
7.5016516e+1, 2.9574695e+2, 90688.86, -192811.66, 3285.6602, 0.008666579, 0.42374682, 90726.94, 132454.36, 0.000005368871, 10.001852, 9.998108 
7.501833e+1, 3.0574438e+2, 234349.2, -53197.543, -77411.17, 0.09697135, 0.331, 253864.75, 253864.75, 0.00006268461, 10.0023155, 9.998508 
7.502006e+1, 3.157449e+2, 341269.03, 14511.687, -78483.15, 0.27754384, 0.5322504, 359142.13, 359142.13, 0.00024571895, 10.002949, 9.998673 
8.49705e+1, 1.2574778e+2, -2020730.8, -1718311.6, 55353.266, 0.025223345, 0.29040146, -1708498.5, -792.08826, 0.0017199421, 9.997238, 10.001305 
8.497492e+1, 1.3574974e+2, -2056469.0, -1759329.9, 90026.57, -0.023144696, 0.41625953, -1734182.1, -124489.37, 0.0009794245, 9.996679, 10.000615 
8.497781e+1, 1.4575054e+2, -1844357.9, -1479323.5, -2196.4966, -0.060983177, 0.37600505, -1479310.3, 32374.615, 0.0003977733, 9.996899, 10.00176 
8.4980845e+1, 1.5575169e+2, -1632645.5, -1339684.6, -17468.092, 0.04121977, 0.30538127, -1338646.8, 75022.055, 0.000088897265, 9.997739, 10.001636 
8.4983194e+1, 1.657532e+2, -1545180.4, -1355743.6, 24352.428, 0.0069144624, 0.34612453, -1352663.1, -37008.85, 0.000006071428, 9.998138, 10.000659 
8.498511e+1, 1.7575449e+2, -1444879.8, -1263815.8, 18071.393, -0.12710436, 0.39649844, -1262029.8, -44384.234, 0.000000076650345, 9.998185, 10.000594 
8.4988874e+1, 1.857551e+2, -1358115.0, -1218482.1, 609.294, -0.0538219, 0.42443016, -1218479.5, -98837.67, 0.0, 9.998316, 10.000172 
8.4994036e+1, 1.957554e+2, -1237699.8, -1116374.8, -15494.187, 0.17347875, 0.42830682, -1114427.3, -92786.945, 0.0, 9.998499, 10.00011 
8.4995687e+1, 2.0575556e+2, -1086119.9, -1019699.8, -27510.582, 0.08504503, 0.44783112, -1009785.2, -86146.516, 0.0, 9.998978, 9.999872 
8.499473e+1, 2.1575554e+2, -901540.7, -895448.6, -12379.073, -0.23702094, 0.44872642, -885746.3, -60108.91, 0.0, 9.999639, 9.999734 
8.499758e+1, 2.2575486e+2, -848483.6, -940694.2, 14760.19, -0.20761347, 0.46795303, -846178.56, -118532.42, 0.0, 9.999859, 9.998638 
8.5003245e+1, 2.3575367e+2, -761841.9, -853389.56, 7016.133, 0.083575144, 0.475944, -761307.25, -131645.14, 0.0, 9.999799, 9.998596 
8.500559e+1, 2.4575269e+2, -598810.4, -695211.9, 9941.629, 0.05181252, 0.5062656, -597795.75, -66122.6, 0.0, 10.000118, 9.998858 
8.500551e+1, 2.5575182e+2, -413911.22, -562658.5, 14840.85, -0.21635504, 0.52137524, -412444.97, 21235.715, 0.0, 10.000749, 9.998792 
8.500873e+1, 2.6575002e+2, -309638.63, -501230.1, 15210.908, -0.16469875, 0.48390138, -308438.53, 27257.57, 0.0, 10.000966, 9.998436 
8.5014445e+1, 2.757475e+2, -227024.47, -417889.88, -11685.371, 0.12997945, 0.37764147, -226311.72, 11405.901, 0.0, 10.000887, 9.998374 
8.501712e+1, 2.857456e+2, -177485.95, -362718.75, -38356.73, 0.16376604, 0.36359388, -169857.48, -30122.348, 0.000000023853914, 10.000639, 9.998199 
8.501748e+1, 2.9574415e+2, -122887.016, -279248.84, -33081.246, 0.0008137574, 0.38317356, -116176.09, -74425.91, 0.0000039776505, 10.000312, 9.998257 
8.5019666e+1, 3.057421e+2, 79141.38, -166302.64, -62407.73, 0.048061687, 0.35832924, 94098.05, 94098.05, 0.000053629374, 10.001414, 9.998167 
8.5022813e+1, 3.1574214e+2, 375049.97, -43614.42, -109458.01, 0.23600864, 0.5419591, 401940.16, 401940.16, 0.00021910039, 10.003499, 9.998004 
9.496576e+1, 1.2574467e+2, -1978609.5, -1632520.6, 18990.72, -0.20006038, 0.2726503, -1631481.6, 76258.91, 0.0016117445, 9.997247, 10.001889 
9.4970304e+1, 1.3574858e+2, -2009987.3, -1669039.9, 72602.86, -0.16458099, 0.5254083, -1654223.4, -44518.867, 0.00091292575, 9.996701, 10.001225 
9.4973993e+1, 1.4574939e+2, -1867418.5, -1526778.4, 28629.672, -0.14518127, 0.4750437, -1524389.0, -12692.892, 0.00036647206, 9.9969, 10.00143 
9.497854e+1, 1.5574965e+2, -1653972.4, -1386360.8, 17627.082, 0.021771984, 0.3468471, -1385204.8, 28485.97, 0.00007896108, 9.997752, 10.001307 
9.498213e+1, 1.6575024e+2, -1549076.1, -1364408.1, 22343.438, 0.07374608, 0.3137744, -1361743.3, -46059.37, 0.000005121987, 9.998138, 10.0006 
9.4985026e+1, 1.7575052e+2, -1449018.3, -1275129.9, 23433.514, 0.033389892, 0.27098522, -1272027.4, -54346.246, 0.00000007826353, 9.998193, 10.000514 
9.498713e+1, 1.8575113e+2, -1383790.4, -1267614.1, 4451.109, -0.06996012, 0.31944764, -1267443.9, -147766.48, 0.0, 9.998299, 9.999843 
9.4988656e+1, 1.9575219e+2, -1258566.3, -1154261.9, -1860.788, -0.22661681, 0.42775196, -1154228.8, -132557.75, 0.0, 9.998479, 9.999858 
9.499201e+1, 2.057527e+2, -1056767.1, -950747.3, -6643.4287, -0.1919472, 0.46932408, -950332.6, -26667.105, 0.0, 9.998943, 10.0003605 
9.4996667e+1, 2.157527e+2, -875761.4, -834142.1, 15203.713, -0.01765716, 0.4235295, -829179.8, -3517.7722, 0.0, 9.999604, 10.000172 
9.5000076e+1, 2.2575192e+2, -859642.9, -955450.75, 8729.54, 0.04360867, 0.4180605, -858853.94, -131182.67, 0.0, 9.999824, 9.998553 
9.500253e+1, 2.357506e+2, -771559.44, -864490.56, 9837.663, 0.02157498, 0.4176789, -770529.44, -140839.64, 0.0, 9.999758, 9.998541 
9.500451e+1, 2.457498e+2, -588138.3, -664377.5, 29179.563, -0.07841369, 0.4577948, -578252.2, -46553.88, 0.0, 10.000085, 9.999083 
9.500613e+1, 2.5574934e+2, -408957.28, -542527.7, 40832.426, -0.2387989, 0.49188828, -397463.84, 36236.086, 0.0, 10.000708, 9.998948 
9.500951e+1, 2.6574737e+2, -352104.97, -587028.56, 9097.731, -0.19338663, 0.45975664, -351753.16, -16034.893, 0.0, 10.000954, 9.997853 
9.5014244e+1, 2.7574423e+2, -268163.13, -495414.3, -10700.612, 0.010018921, 0.34756804, -267660.38, -29911.205, 0.0, 10.000851, 9.997859 
9.5017076e+1, 2.857429e+2, -160582.9, -326823.16, -55812.62, 0.082232, 0.40159947, -143583.08, -3821.5435, 0.000000004406078, 10.000637, 9.998443 
9.501838e+1, 2.9574293e+2, -118315.26, -259311.36, -32500.629, 0.04714933, 0.54068834, -111184.28, -69423.36, 0.0000031202694, 10.000267, 9.998413 
9.502111e+1, 3.0574077e+2, 32323.227, -262861.75, 16862.25, 0.03896363, 0.5347537, 33283.348, 33283.348, 0.00004667503, 10.001408, 9.997507 
9.50243e+1, 3.157381e+2, 313846.28, -155597.23, -22595.361, 0.0057794377, 0.51520073, 314931.34, 314931.34, 0.0001974869, 10.003433, 9.997268 
1.04962215e+2, 1.2574272e+2, -2038476.4, -1625526.5, 10722.155, -0.24519566, 0.3911213, -1625248.4, 82515.36, 0.0015258539, 9.996671, 10.002217 
1.04967535e+2, 1.357458e+2, -1882770.4, -1564439.8, 35785.266, -0.14174409, 0.5167269, -1560466.6, 49264.52, 0.00086255383, 9.997375, 10.001625 
1.04971476e+2, 1.4574634e+2, -1768694.1, -1507047.5, 8427.832, -0.12403073, 0.43489528, -1506776.4, 4948.508, 0.00034425873, 9.997698, 10.001181 
1.04976e+2, 1.5574738e+2, -1677750.6, -1429711.1, -6774.123, -0.002567634, 0.41592506, -1429526.3, -15811.409, 0.00007295785, 9.9977255, 10.001026 
1.0497994e+2, 1.6574802e+2, -1567140.1, -1370849.0, 5287.8975, 0.050073247, 0.40101177, -1370706.6, -54998.766, 0.0000044141693, 9.9980135, 10.000611 
1.049835e+2, 1.7574783e+2, -1399763.9, -1247934.9, 2327.8052, 0.047583435, 0.3075734, -1247899.1, -30190.969, 0.000000050630582, 9.99853, 10.000531 
1.0498558e+2, 1.8574819e+2, -1275276.4, -1194458.8, 14304.063, -0.085196935, 0.31960887, -1192001.8, -72296.69, 0.0, 9.998947, 10.000029 
1.0498659e+2, 1.9574916e+2, -1139219.6, -1080497.8, 36884.074, -0.31511435, 0.40005273, -1062715.3, -41017.984, 0.0, 9.999219, 10.000007 
1.0499055e+2, 2.057495e+2, -1036812.75, -955225.75, 27295.521, -0.23942775, 0.42291057, -946936.1, -23242.492, 0.0, 9.9991455, 10.000231 
1.04996696e+2, 2.1574922e+2, -996907.44, -901330.25, -3918.4744, 0.06673985, 0.36158603, -901169.9, -75475.8, 0.0, 9.9988165, 10.000086 
1.0500021e+2, 2.2574867e+2, -913404.94, -957379.3, 4541.0337, 0.10144722, 0.37044224, -912940.9, -185239.69, 0.0, 9.9993515, 9.998772 
1.0500181e+2, 2.3574795e+2, -643002.56, -779378.1, 20182.268, -0.06273093, 0.41008332, -640078.5, -10365.673, 0.0, 10.000546, 9.998745 
1.05004415e+2, 2.4574722e+2, -519938.53, -645770.6, 18103.023, -0.11991071, 0.45422602, -517385.9, 14334.573, 0.0, 10.000612, 9.998957 
1.050078e+2, 2.5574642e+2, -545313.9, -622737.4, -3580.6323, -0.09637946, 0.46320385, -545148.6, -111422.65, 0.0, 9.999833, 9.998818 
1.0501117e+2, 2.657443e+2, -462832.4, -662716.56, 4731.7134, -0.087702215, 0.43539375, -462720.47, -126973.95, 0.0, 10.000293, 9.997648 
1.05014585e+2, 2.7574125e+2, -152821.63, -461622.5, 2386.1775, -0.08203067, 0.35223657, -152803.19, 84974.75, 0.0, 10.001736, 9.997664 
1.0501755e+2, 2.857398e+2, 68236.695, -224730.5, -70585.96, -0.011266058, 0.40773353, 84356.37, 224147.58, 0.0000000012345152, 10.002245, 9.998374 
1.0502006e+2, 2.957395e+2, 138641.83, -140328.44, -79567.08, 0.10316147, 0.5240112, 159740.08, 201531.94, 0.0000025058646, 10.002051, 9.998375 
1.0502321e+2, 3.0573758e+2, 105973.336, -241131.75, 43131.297, 0.08552666, 0.5446998, 111252.54, 111252.54, 0.000040625986, 10.001974, 9.997389 
1.0502601e+2, 3.1573433e+2, 110922.73, -247010.77, 24767.844, -0.08971179, 0.48420525, 112628.45, 112628.45, 0.00017793833, 10.002011, 9.99733 
1.14959456e+2, 1.2574178e+2, -2032512.4, -1622833.4, 18248.045, -0.21830441, 0.63365287, -1622022.1, 85755.086, 0.0014675308, 9.996709, 10.00222 
1.1496642e+2, 1.3574128e+2, -1867234.4, -1536552.0, 61492.266, -0.0035735832, 0.38437092, -1525487.4, 84285.95, 0.0008305489, 9.997395, 10.001806 
1.1497015e+2, 1.4574139e+2, -1785149.4, -1538376.9, 5128.062, -0.038262993, 0.26108295, -1538270.4, -26499.238, 0.00033210375, 9.9976845, 10.000973 
1.1497296e+2, 1.5574497e+2, -1689570.0, -1455353.4, 1037.0922, -0.091785826, 0.51312506, -1455348.9, -41607.836, 0.00007103606, 9.997734, 10.000842 
1.1497645e+2, 1.6574663e+2, -1562603.9, -1366980.3, 21761.502, -0.11412475, 0.60911244, -1364588.6, -48862.62, 0.0000041839003, 9.998028, 10.000637 
1.14980415e+2, 1.7574635e+2, -1389056.1, -1230624.4, 25281.777, -0.12687051, 0.50196815, -1226687.9, -8960.448, 0.000000024917117, 9.9985485, 10.000645 
1.1498413e+2, 1.8574622e+2, -1230040.0, -1092115.3, 22102.838, -0.13655342, 0.42099342, -1088659.8, 31065.625, 0.0, 9.998913, 10.00075 
1.1498765e+2, 1.9574632e+2, -1099474.9, -992892.9, 48312.51, -0.1441163, 0.34535924, -974253.1, 47466.42, 0.0, 9.999199, 10.000618 
1.14991166e+2, 2.0574594e+2, -1095107.5, -1068484.4, 10197.531, -0.10204184, 0.31028947, -1065027.3, -141304.6, 0.0, 9.999112, 9.999471 
1.14994645e+2, 2.157451e+2, -1048197.9, -997974.6, -8938.031, -0.029200956, 0.26512435, -996431.4, -170697.8, 0.0, 9.998775, 9.999443 
1.14997864e+2, 2.2574507e+2, -881498.75, -883228.6, 45900.145, -0.07750179, 0.3283782, -836455.4, -108719.41, 0.0, 9.999315, 9.999298 
1.15000896e+2, 2.357457e+2, -617111.9, -716720.4, 63887.684, -0.21922484, 0.4494516, -585909.3, 43822.375, 0.0, 10.000506, 9.999195 
1.1500518e+2, 2.4574488e+2, -560622.7, -720912.25, -15939.126, -0.115796186, 0.4916252, -559053.06, -27312.895, 0.0, 10.000573, 9.998461 
1.1501038e+2, 2.557429e+2, -580724.9, -688037.9, -25156.586, 0.16864303, 0.43568185, -575120.3, -141361.22, 0.0, 9.999798, 9.998387 
1.15013584e+2, 2.6574078e+2, -449891.53, -634578.56, 55567.703, 0.11423046, 0.41345015, -434461.7, -98681.01, 0.0, 10.000287, 9.997847 
1.1501533e+2, 2.7573854e+2, -148891.44, -446646.44, 57246.03, -0.19373518, 0.39292398, -138264.64, 99539.375, 0.0, 10.001703, 9.9977865 
1.1501836e+2, 2.857363e+2, 35846.91, -285800.13, -82060.75, -0.16386944, 0.3840908, 55573.027, 195397.22, 0.00000000007947066, 10.002222, 9.997965 
1.15022376e+2, 2.9573396e+2, 109050.84, -191713.16, -82082.85, 0.1192901, 0.3407707, 129994.09, 171836.9, 0.000001910546, 10.002012, 9.99804 
1.150258e+2, 3.057325e+2, 138230.08, -174894.03, 43084.2, 0.13478966, 0.39802516, 144050.06, 144050.06, 0.000034739915, 10.001979, 9.997838 
1.15027525e+2, 3.1573078e+2, 163669.64, -125916.625, 36976.754, -0.16601816, 0.44378754, 168316.58, 168316.58, 0.00015856141, 10.001963, 9.998182 
1.2495681e+2, 1.2573771e+2, -2018878.6, -1639453.9, -5719.741, -0.16039504, 0.62097603, -1639367.6, 68448.375, 0.0014351123, 9.996922, 10.001996 
1.2496386e+2, 1.3573682e+2, -1910254.0, -1565387.6, 8270.61, 0.018075176, 0.3443836, -1565189.4, 44627.03, 0.00081633194, 9.997142, 10.001729 
1.2496745e+2, 1.4573681e+2, -1843305.0, -1544903.0, -46867.207, -0.04848239, 0.20302874, -1537715.3, -25899.746, 0.00033045214, 9.997201, 10.001156 
1.24970004e+2, 1.5574078e+2, -1758740.0, -1469762.9, -34115.484, -0.12965511, 0.4781929, -1465790.0, -52008.668, 0.00007352079, 9.99718, 10.001008 
1.2497374e+2, 1.6574275e+2, -1611911.6, -1350286.4, 38295.234, -0.16022691, 0.57784235, -1344796.1, -29033.701, 0.0000047035833, 9.997521, 10.000994 
1.24978304e+2, 1.7574275e+2, -1431221.0, -1217932.4, 55845.617, -0.16795322, 0.46455914, -1204195.1, 13564.655, 0.000000012759114, 9.998111, 10.000948 
1.2498293e+2, 1.8574274e+2, -1306771.4, -1127632.9, 23968.854, -0.117467485, 0.38209257, -1124481.3, -4724.8535, 0.0, 9.998384, 10.000759 
1.24987625e+2, 1.9574295e+2, -1219806.1, -1053163.0, -9326.332, -0.023185112, 0.3169278, -1052642.8, -30892.117, 0.0, 9.99839, 10.000593 
1.2499083e+2, 2.0574263e+2, -1154003.1, -1135280.4, -42760.06, -0.033008866, 0.30800104, -1100869.0, -177114.52, 0.0, 9.998874, 9.999125 
1.2499291e+2, 2.1574184e+2, -939290.56, -981289.2, -39563.652, -0.123177305, 0.30308375, -915498.7, -89732.13, 0.0, 9.999673, 9.999125 
1.2499677e+2, 2.2574171e+2, -747175.25, -792842.1, 39492.15, -0.15693152, 0.358203, -724390.75, 3378.6155, 0.0, 10.000121, 9.999531 
1.2500197e+2, 2.357421e+2, -631081.3, -699956.8, 25034.582, -0.1485718, 0.4328025, -622943.4, 6821.704, 0.0, 10.000305, 9.999408 
1.2500662e+2, 2.4574116e+2, -538899.06, -707953.2, -60783.973, -0.034398023, 0.45025033, -519313.13, 12461.324, 0.0, 10.000716, 9.998478 
1.2501082e+2, 2.5573915e+2, -351942.06, -574650.6, -36286.59, 0.15710278, 0.39022946, -346178.9, 87615.78, 0.0, 10.001354, 9.998418 
1.2501442e+2, 2.657375e+2, -260419.77, -492955.66, 95717.99, 0.11724486, 0.39182258, -226088.34, 109722.62, 0.0, 10.001374, 9.998294 
1.2501761e+2, 2.7573615e+2, -232358.78, -438680.25, 108612.74, -0.09393134, 0.41375285, -185723.44, 52100.42, 0.0, 10.000936, 9.998204 
1.2502082e+2, 2.8573352e+2, -92182.914, -377065.75, -3908.7048, -0.09897495, 0.35988352, -92129.3, 47718.09, 0.00000000021645001, 10.001467, 9.997701 
1.2502405e+2, 2.9572988e+2, 195952.44, -173619.39, -552.09424, 0.052780963, 0.21199699, 195953.27, 237832.45, 0.0000014014497, 10.002713, 9.997826 
1.250277e+2, 3.0572847e+2, 261830.8, -114836.67, 86749.59, 0.08790856, 0.28135994, 280849.63, 280849.63, 0.000028974657, 10.002815, 9.997857 
1.2503001e+2, 3.157278e+2, 197182.34, -62161.156, 32006.89, -0.11018638, 0.43173409, 201074.08, 201074.08, 0.0001384936, 10.0019865, 9.998615 
1.3495392e+2, 1.257305e+2, -2059589.9, -1717053.6, -13891.846, -0.16703, 0.35306004, -1716491.1, -8611.23, 0.0014283952, 9.9969, 10.001471 
1.3495965e+2, 1.3573253e+2, -1924892.5, -1598366.1, 19748.996, -0.12974896, 0.40152177, -1597176.0, 12683.16, 0.000819765, 9.997164, 10.001484 
1.349632e+2, 1.4573273e+2, -1806375.3, -1474968.9, -51450.09, -0.20697425, 0.2638778, -1467165.0, 44691.71, 0.00033887546, 9.997222, 10.001629 
1.34967e+2, 1.5573488e+2, -1723263.4, -1396004.8, -28945.611, -0.16104825, 0.31010836, -1393464.3, 20371.055, 0.0000801792, 9.997178, 10.001514 
1.3497165e+2, 1.6573642e+2, -1571942.4, -1261397.5, 56572.395, -0.13195625, 0.3096854, -1251412.6, 64404.195, 0.0000062149566, 9.997497, 10.001617 
1.3497695e+2, 1.7573698e+2, -1393487.8, -1139151.4, 81950.36, -0.12638658, 0.19243735, -1115033.0, 102772.586, 0.000000017143847, 9.998115, 10.001483 
1.3498181e+2, 1.857378e+2, -1358395.0, -1234270.9, 20112.586, -0.08082433, 0.20694101, -1231093.3, -111295.51, 0.0, 9.998375, 10.000034 
1.3498633e+2, 1.9573902e+2, -1265184.3, -1146842.4, -2943.0845, -0.005190318, 0.31084567, -1146769.3, -124978.74, 0.0, 9.998384, 9.999954 
1.3498938e+2, 2.0573951e+2, -1156498.3, -1132750.9, -15931.671, -0.07574718, 0.41223145, -1124755.0, -200965.66, 0.0, 9.998839, 9.99916 
1.3499132e+2, 2.1573943e+2, -944391.8, -980018.0, -6360.21, -0.26127663, 0.4746892, -943290.4, -117497.055, 0.0, 9.999624, 9.999156 
1.3499677e+2, 2.257386e+2, -756363.5, -805689.4, 41492.098, -0.18123983, 0.46196756, -732757.9, -4956.472, 0.0, 10.000091, 9.999458 
1.3500483e+2, 2.3573717e+2, -635509.0, -703781.44, 35591.777, 0.09725795, 0.3592279, -620329.4, 9483.646, 0.0, 10.000279, 9.999393 
1.3500856e+2, 2.4573603e+2, -507786.1, -634972.4, -40570.926, 0.076720566, 0.33047205, -495946.56, 35876.727, 0.0, 10.000683, 9.998995 
1.35009e+2, 2.5573513e+2, -320399.13, -500023.5, -11172.483, -0.16966139, 0.32656574, -319706.88, 114125.91, 0.0, 10.001315, 9.998948 
1.3501354e+2, 2.657345e+2, -217594.4, -397006.25, 75865.305, -0.11812885, 0.37048444, -189815.45, 146021.7, 0.0, 10.001348, 9.998964 
1.3502124e+2, 2.7573404e+2, -195274.11, -350290.06, 100924.3, 0.16345407, 0.41600332, -145529.58, 92308.47, 0.0, 10.000888, 9.998835 
1.3502474e+2, 2.857314e+2, -98460.19, -382979.5, 38850.54, 0.13385646, 0.33646646, -93250.62, 46610.88, 0.000000004047862, 10.001442, 9.99767 
1.3502498e+2, 2.957272e+2, 185057.83, -186310.86, 45117.27, -0.13614039, 0.13305584, 190460.48, 232362.27, 0.0000011638989, 10.00267, 9.99776 
1.3502876e+2, 3.057254e+2, 227250.48, -174224.13, 55054.83, -0.095996834, 0.19048442, 234663.38, 234663.38, 0.00002372901, 10.002772, 9.997467 
1.350332e+2, 3.157254e+2, 189432.38, -64103.57, 15945.133, -0.011572579, 0.4449239, 190431.25, 190431.25, 0.000118264084, 10.001935, 9.998626 
1.4495051e+2, 1.2572543e+2, -2234684.3, -1831947.3, 26601.008, -0.13642442, 0.27647558, -1830197.9, -122271.41, 0.0014440229, 9.995825, 10.0012045 
1.449563e+2, 1.3572846e+2, -2036843.0, -1660855.5, 65280.75, -0.1422867, 0.4344227, -1649843.6, -39943.93, 0.00083842565, 9.996417, 10.001421 
1.4496012e+2, 1.4572893e+2, -1800580.9, -1441747.9, 1436.9061, -0.23172136, 0.3092221, -1441742.1, 70153.26, 0.00035495815, 9.997132, 10.001901 
1.4496437e+2, 1.5573083e+2, -1596326.4, -1311379.1, -2769.0784, -0.17602187, 0.3073806, -1311352.3, 102521.94, 0.00008912459, 9.997947, 10.001729 
1.4496952e+2, 1.6573228e+2, -1483883.1, -1217820.0, 48585.137, -0.12058027, 0.28691542, -1209225.6, 106630.27, 0.000008328298, 9.998097, 10.001623 
1.449753e+2, 1.7573287e+2, -1458891.1, -1175160.6, 17178.63, -0.078718364, 0.17050268, -1174124.3, 43720.406, 0.0000000715251, 9.99768, 10.001445 
1.4498015e+2, 1.8573368e+2, -1444607.5, -1306990.8, -29087.844, -0.058309544, 0.20033275, -1301095.0, -181256.61, 0.0, 9.997919, 9.999754 
1.4498429e+2, 1.9573481e+2, -1238960.8, -1160927.9, -28321.432, -0.059282456, 0.32651752, -1151732.5, -129898.22, 0.0, 9.998671, 9.999724 
1.4498818e+2, 2.0573561e+2, -1058129.5, -1009893.2, 13249.234, -0.09460983, 0.4313026, -1006493.56, -82664.76, 0.0, 9.999192, 9.999831 
1.4499186e+2, 2.157361e+2, -920217.0, -903816.44, 59090.945, -0.15892431, 0.4851945, -852359.5, -26536.328, 0.0, 9.999512, 9.999734 
1.4499745e+2, 2.25735e+2, -894829.0, -897291.4, 100844.44, -0.07636048, 0.43187895, -795208.25, -67375.61, 0.0, 9.999258, 9.999228 
1.4500447e+2, 2.3573269e+2, -892841.5, -849304.8, 74925.36, 0.11819259, 0.26675427, -793049.6, -163196.1, 0.0, 9.998612, 9.999197 
1.4500833e+2, 2.4573186e+2, -726828.0, -708367.3, 31471.76, 0.071487606, 0.26060364, -684800.25, -152938.4, 0.0, 9.999034, 9.9992895 
1.4500986e+2, 2.5573215e+2, -457119.94, -530813.0, 32651.47, -0.15815552, 0.34737402, -444734.5, -10874.254, 0.0, 10.000232, 9.999255 
1.4501487e+2, 2.6573154e+2, -292709.66, -419771.88, 57143.082, -0.08761383, 0.37106517, -270791.75, 65072.434, 0.0, 10.00077, 9.999086 
1.4502256e+2, 2.7573016e+2, -196375.23, -334567.44, 36323.746, 0.21491614, 0.3149758, -187409.27, 50463.496, 0.0, 10.000808, 9.998982 
1.4502633e+2, 2.8572828e+2, -168327.31, -366990.47, 13013.443, 0.18851182, 0.27637583, -167478.48, -27588.703, 0.000000009906891, 10.00074, 9.998122 
1.4502703e+2, 2.957261e+2, -85163.086, -263440.72, 47072.414, -0.0904003, 0.23011579, -73497.44, -31585.318, 0.0000010384059, 10.000587, 9.998229 
1.4503112e+2, 3.05724e+2, 19080.28, -247578.33, 96272.766, -0.054016184, 0.22095683, 50205.066, 50205.066, 0.000019000812, 10.001221, 9.997709 
1.4503545e+2, 3.1572297e+2, 276034.75, 24089.688, 92239.016, 0.005706127, 0.35094503, 306193.94, 306193.94, 0.0000984148, 10.00232, 9.999048 
1.5494625e+2, 1.2572262e+2, -2231891.3, -1834197.8, 32276.38, -0.17057486, 0.39659807, -1831595.3, -123640.52, 0.0014662774, 9.995857, 10.001174 
1.5495363e+2, 1.3572472e+2, -2025344.9, -1638803.0, 91421.02, -0.062887244, 0.44762412, -1618271.5, -8333.914, 0.0008607167, 9.996421, 10.0015745 
1.5495795e+2, 1.4572547e+2, -1797575.9, -1435370.3, 28342.787, -0.17340356, 0.34271148, -1433165.8, 78764.9, 0.00037131715, 9.997131, 10.001946 
1.5496199e+2, 1.5572868e+2, -1595809.3, -1312381.0, 29724.336, -0.22234719, 0.46995878, -1309297.3, 104600.195, 0.00009663115, 9.997958, 10.001715 
1.5496717e+2, 1.6573039e+2, -1530655.6, -1310779.9, 28904.166, -0.17603129, 0.5098748, -1307043.6, 8835.268, 0.000009881803, 9.998081, 10.000993 
1.549732e+2, 1.7573047e+2, -1499737.1, -1256948.0, 8541.669, -0.06928003, 0.4048031, -1256647.8, -38771.344, 0.00000020107916, 9.997669, 10.000888 
1.5497778e+2, 1.8573038e+2, -1437294.8, -1291473.6, -4884.1563, -0.099596664, 0.36520922, -1291310.3, -171432.03, 0.0, 9.997915, 9.999864 
1.5498136e+2, 1.9573034e+2, -1229849.6, -1134562.1, 2875.3557, -0.23142083, 0.36303762, -1134475.5, -112593.77, 0.0, 9.998644, 9.999916 
1.5498707e+2, 2.0573092e+2, -972106.25, -826125.56, 21470.541, -0.13618861, 0.36827573, -823033.2, 100839.69, 0.0, 9.999165, 10.001109 
1.5499434e+2, 2.1573186e+2, -841784.1, -732794.44, 71235.83, 0.12583919, 0.33820543, -697599.6, 128256.195, 0.0, 9.999476, 10.000924 
1.5499867e+2, 2.2573096e+2, -931265.4, -965366.06, 71570.25, 0.10839715, 0.2725508, -874742.5, -146880.06, 0.0, 9.999224, 9.998779 
1.5500076e+2, 2.3572864e+2, -925334.4, -912596.7, 60148.418, -0.123334296, 0.1516364, -858480.9, -228593.75, 0.0, 9.998589, 9.998777 
1.5500581e+2, 2.457286e+2, -725287.94, -698758.0, 72401.5, -0.09397451, 0.23904715, -638416.3, -106525.99, 0.0, 9.999006, 9.999369 
1.5501319e+2, 2.5573018e+2, -459244.88, -528612.3, 78528.07, 0.1401129, 0.44959426, -408082.1, 25795.693, 0.0, 10.000199, 9.9992895 
1.5501823e+2, 2.6572856e+2, -324277.75, -478899.75, 54286.367, 0.15967295, 0.39465475, -307121.8, 28770.854, 0.0, 10.000748, 9.998688 
1.5502149e+2, 2.7572453e+2, -225637.47, -384803.47, 40811.195, 0.016704908, 0.10635654, -215783.3, 22145.41, 0.0, 10.000763, 9.998659 
1.550255e+2, 2.8572407e+2, -103605.87, -227780.8, 3243.2798, 0.020777183, 0.1752798, -103521.21, 36411.62, 0.000000005626964, 10.000719, 9.999087 
1.5502998e+2, 2.957265e+2, -20164.014, -123193.85, 51987.465, 0.13330457, 0.49514613, 1509.0674, 43420.08, 0.00000082513446, 10.000559, 9.999208 
1.550346e+2, 3.057242e+2, 74698.04, -120120.76, 135015.05, 0.16180655, 0.37281528, 143774.83, 143774.83, 0.000014599608, 10.001183, 9.998594 
1.5503639e+2, 3.1572074e+2, 323026.28, 141532.13, 146024.69, -0.15289383, 0.16902539, 404204.3, 404204.3, 0.00007959566, 10.00225, 9.999881 
1.6494264e+2, 1.2571837e+2, -2189135.0, -1783446.6, 38453.754, -0.122020066, 0.396917, -1779833.9, -71837.92, 0.0014745225, 9.996016, 10.001448 
1.6495116e+2, 1.3572092e+2, -1979777.1, -1568429.5, 114726.984, 0.046834808, 0.44712746, -1538595.4, 71377.09, 0.00086981576, 9.996532, 10.002 
1.6495575e+2, 1.4572173e+2, -1903541.3, -1517842.3, 46235.645, -0.0728324, 0.34384638, -1512377.3, -412.56638, 0.00037795518, 9.9965515, 10.001655 
1.6495945e+2, 1.5572444e+2, -1869238.1, -1481437.4, 16239.491, -0.18396963, 0.44938764, -1480758.6, -66820.79, 0.000098805474, 9.996239, 10.001383 
1.6496468e+2, 1.6572604e+2, -1736641.6, -1468378.4, 25485.182, -0.17319182, 0.52109504, -1465978.8, -150055.69, 0.000009884257, 9.996906, 10.00048 
1.6497105e+2, 1.7572638e+2, -1438419.6, -1276103.1, 6423.523, -0.07958602, 0.49367532, -1275849.4, -57928.066, 0.0000002904704, 9.998293, 10.000458 
1.6497594e+2, 1.8572627e+2, -1301584.1, -1171950.6, 6833.5933, -0.10877238, 0.445867, -1171591.4, -51668.582, 0.0, 9.998627, 10.000337 
1.6497974e+2, 1.9572595e+2, -1270901.8, -1105354.0, 33289.78, -0.22875202, 0.3698812, -1098910.6, -76985.32, 0.0, 9.998155, 10.00035 
1.6498587e+2, 2.057263e+2, -1099197.1, -885746.8, 28998.031, -0.12544876, 0.33172038, -881877.5, 42039.72, 0.0, 9.998287, 10.001122 
1.6499367e+2, 2.1572709e+2, -923058.3, -769367.6, -27676.666, 0.14305462, 0.28771377, -764535.56, 61366.117, 0.0, 9.998906, 10.000951 
1.6499814e+2, 2.257266e+2, -882136.8, -907739.9, -50204.26, 0.1251661, 0.24578328, -843127.7, -115223.27, 0.0, 9.999422, 9.999073 
1.6500004e+2, 2.3572521e+2, -725273.44, -782607.1, -13282.741, -0.114417315, 0.18716657, -722345.7, -92425.46, 0.0, 9.999833, 9.999063 
1.650055e+2, 2.457253e+2, -604735.6, -628580.4, 50555.77, -0.060403302, 0.2719813, -564715.44, -32793.824, 0.0, 9.999782, 9.999476 
1.6501373e+2, 2.5572655e+2, -567537.1, -566639.5, 50383.52, 0.21849646, 0.43501526, -516702.8, -82790.64, 0.0, 9.999393, 9.999415 
1.6501884e+2, 2.6572514e+2, -455943.63, -516701.63, 66639.97, 0.20217577, 0.3786746, -413084.88, -77159.24, 0.0, 9.999721, 9.99893 
1.6502166e+2, 2.757216e+2, -233821.13, -363400.7, 93660.16, -0.030692445, 0.12017478, -184725.27, 53231.99, 0.0, 10.000588, 9.998891 
1.6502567e+2, 2.8572136e+2, -70541.32, -225663.13, 23936.617, -0.044987317, 0.20724632, -66931.69, 73028.59, 0.00000000009995645, 10.00101, 9.9989605 
1.6503057e+2, 2.9572392e+2, 58666.223, -96251.805, -20655.44, 0.10914307, 0.54838383, 61372.95, 103311.93, 0.00000049216277, 10.001149, 9.999111 
1.650361e+2, 3.0572125e+2, 91281.06, -65262.098, 29712.08, 0.20416446, 0.37393653, 96730.734, 96730.734, 0.000010365808, 10.001079, 9.999026 
1.6503893e+2, 3.1571808e+2, 120520.54, 66842.945, -6568.428, -0.044707473, 0.15354598, 121312.62, 121312.62, 0.000061981555, 10.000747, 10.000091 
1.7493942e+2, 1.2571271e+2, -2145336.3, -1690266.6, 41582.07, -0.0683643, 0.2774592, -1686498.3, 21552.227, 0.0014574766, 9.996009, 10.002089 
1.749488e+2, 1.3571714e+2, -1932576.8, -1467795.5, 131447.4, 0.14708857, 0.43855417, -1433195.8, 176807.81, 0.00085594517, 9.996529, 10.002689 
1.7495348e+2, 1.457177e+2, -1945744.5, -1609227.0, 29177.225, 0.033333294, 0.30951124, -1606716.0, -94718.53, 0.0003688444, 9.996562, 10.001026 
1.7495656e+2, 1.5571801e+2, -1913924.3, -1570646.3, 12553.688, -0.10848906, 0.24041566, -1570187.8, -156191.9, 0.00009401229, 9.996225, 10.000777 
1.7496184e+2, 1.6571923e+2, -1764477.5, -1522994.4, 74655.02, -0.16077113, 0.32210612, -1501778.6, -185791.02, 0.000008393363, 9.996891, 10.0001135 
1.749687e+2, 1.757207e+2, -1459142.6, -1319216.6, 57156.625, -0.1560115, 0.44405648, -1298837.5, -80859.09, 0.00000020811186, 9.998295, 10.000159 
1.7497444e+2, 1.8572143e+2, -1243502.1, -1053016.4, -14277.712, -0.13318247, 0.44853476, -1051952.1, 68019.234, 0.0, 9.998625, 10.001158 
1.749793e+2, 1.9572167e+2, -1226208.0, -1008787.75, 22674.105, -0.1003622, 0.34673086, -1006448.3, 15516.511, 0.0, 9.998134, 10.001025 
1.7498443e+2, 2.0572181e+2, -1194126.6, -1075686.8, 47759.883, -0.10871163, 0.32613093, -1058827.8, -134866.4, 0.0, 9.998254, 9.999836 
1.7498975e+2, 2.157218e+2, -1005799.1, -935438.7, -94.38361, -0.1499954, 0.328663, -935438.56, -109477.625, 0.0, 9.99888, 9.999824 
1.7499568e+2, 2.2572201e+2, -815606.06, -760673.94, -37049.61, -0.07219219, 0.35499993, -742019.94, -14062.027, 0.0, 9.999385, 10.0001 
1.7500208e+2, 2.3572236e+2, -661994.75, -646622.44, 5650.9, 0.09771, 0.36778498, -644768.7, -14815.488, 0.0, 9.999808, 10.00001 
1.7500725e+2, 2.4572203e+2, -599980.56, -612848.06, 31063.54, 0.123695135, 0.3579698, -574691.5, -42735.62, 0.0, 9.999758, 9.999593 
1.7501141e+2, 2.557212e+2, -561725.56, -545575.0, 42108.92, 0.03718271, 0.3021487, -510774.03, -76810.266, 0.0, 9.999354, 9.999578 
1.7501673e+2, 2.6572114e+2, -392776.0, -381083.1, 95648.83, 0.008316908, 0.32262212, -291102.22, 44861.246, 0.0, 9.999704, 9.999867 
1.7502292e+2, 2.7572143e+2, -185073.47, -252942.83, 128933.445, 0.026265575, 0.35482937, -85683.75, 152274.78, 0.0, 10.000549, 9.999669 
1.7502668e+2, 2.857203e+2, -159535.13, -409238.5, 22295.254, -0.055304144, 0.3782568, -157560.08, -17588.111, 0.0, 10.001003, 9.997704 
1.7502859e+2, 2.9571828e+2, -30262.264, -275118.22, -11262.025, -0.21414995, 0.395617, -29745.363, 12250.534, 0.00000022526268, 10.001122, 9.997896 
1.7503554e+2, 3.0571508e+2, 94099.76, -56837.605, 15869.573, 0.028009567, 0.21993256, 95750.24, 95750.24, 0.0000067412816, 10.001073, 9.999084 
1.7504266e+2, 3.1571501e+2, 84494.77, 8596.692, 535.09924, 0.22867079, 0.3049058, 84498.55, 84498.55, 0.000045960638, 10.000687, 9.999715 
1.8493573e+2, 1.2570724e+2, -2159997.0, -1660006.9, -12319.113, -0.021454765, 0.27507672, -1659703.5, 48401.465, 0.0014119628, 9.995742, 10.002421 
1.8494461e+2, 1.3571176e+2, -1988779.3, -1450136.5, 44423.51, 0.10716668, 0.399807, -1446497.4, 163557.23, 0.0008198644, 9.995935, 10.0030985 
1.849499e+2, 1.4571258e+2, -1932205.9, -1607702.6, -32132.41, 0.016422957, 0.28062883, -1604551.5, -92506.23, 0.0003462985, 9.99667, 10.000981 
1.8495442e+2, 1.5571283e+2, -1673758.4, -1456670.3, -14138.087, -0.02443658, 0.20860194, -1455753.4, -41708.168, 0.000084445885, 9.997876, 10.000765 
1.849601e+2, 1.6571407e+2, -1598420.0, -1399313.9, 98338.73, -0.06986607, 0.27335247, -1358933.8, -42897.27, 0.000006352812, 9.99786, 10.000491 
1.8496656e+2, 1.757157e+2, -1633416.5, -1364804.0, 128139.63, -0.12996869, 0.37580392, -1313481.8, -95457.2, 0.000000056960435, 9.996939, 10.000502 
1.8497257e+2, 1.8571691e+2, -1500363.6, -1169683.9, 46388.652, -0.09046407, 0.41079703, -1163299.6, -43286.746, 0.0, 9.996831, 10.00122 
1.849782e+2, 1.9571798e+2, -1341261.0, -1060191.9, 19778.904, 0.019593338, 0.382603, -1058806.9, -36807.098, 0.0, 9.997327, 10.0010605 
1.849833e+2, 2.0571803e+2, -1258136.8, -1136894.9, 94807.2, -0.02859811, 0.36612207, -1084984.5, -160986.2, 0.0, 9.997949, 9.999559 
1.84988e+2, 2.1571732e+2, -1053106.4, -982932.25, 113881.17, -0.19967681, 0.32561392, -898855.5, -72849.7, 0.0, 9.998664, 9.999598 
1.8499437e+2, 2.2571756e+2, -870741.6, -766350.44, 62436.316, -0.11443291, 0.35396588, -737166.2, -9163.166, 0.0, 9.998899, 10.000305 
1.8500209e+2, 2.3571853e+2, -799651.94, -689935.1, 37014.45, 0.17140658, 0.40925446, -678615.6, -48623.086, 0.0, 9.998753, 10.000227 
1.8500726e+2, 2.4571806e+2, -652049.06, -612840.56, 57473.17, 0.17537855, 0.36420843, -571720.1, -39725.094, 0.0, 9.999293, 9.999816 
1.8501054e+2, 2.5571653e+2, -397178.0, -439415.56, 66797.35, -0.033224717, 0.21325792, -348240.44, 85766.586, 0.0, 10.00037, 9.999815 
1.8501605e+2, 2.6571694e+2, -314800.22, -319715.38, 81123.625, -0.0476748, 0.26096854, -236096.97, 99904.75, 0.0, 10.00014, 10.000076 
1.8502328e+2, 2.757187e+2, -406438.4, -335448.63, 56048.074, 0.092659324, 0.41507417, -304601.44, -66616.68, 0.0, 9.998931, 9.999877 
1.8502758e+2, 2.8571728e+2, -359175.9, -505457.3, 35512.87, 0.0057865414, 0.4072594, -351010.25, -211010.1, 0.0, 9.999625, 9.997707 
1.850296e+2, 2.957139e+2, 58394.527, -237528.03, 81627.06, -0.25355798, 0.28206208, 79417.02, 121453.37, 0.000000073239775, 10.001752, 9.99785 
1.85037e+2, 3.0571103e+2, 228290.03, -13842.36, 85511.39, 0.0207565, 0.15409857, 255444.02, 255444.02, 0.000003933053, 10.002079, 9.998904 
1.8504444e+2, 3.1571215e+2, 93945.21, -54180.17, 46586.535, 0.32700768, 0.37605828, 107378.734, 107378.734, 0.000032239117, 10.001019, 9.999142 
1.9493131e+2, 1.2570196e+2, -2160550.0, -1658447.1, -26351.637, -0.06280302, 0.38759273, -1657068.0, 51091.86, 0.0013384911, 9.995736, 10.002434 
1.9493842e+2, 1.3570474e+2, -1984656.6, -1431098.8, 54976.86, -0.11489933, 0.32755247, -1425691.5, 184434.6, 0.0007672974, 9.995901, 10.003241 
1.9494489e+2, 1.4570644e+2, -1895737.8, -1530269.1, 8283.753, -0.16491745, 0.2620023, -1530081.5, -17973.688, 0.00031672008, 9.996656, 10.001523 
1.9495288e+2, 1.55709e+2, -1633763.4, -1372178.4, 29123.61, 0.023067132, 0.36329052, -1368975.1, 45109.95, 0.000073711046, 9.99787, 10.001347 
1.949593e+2, 1.6571067e+2, -1520908.8, -1238494.1, 60400.426, 0.055786595, 0.38598967, -1226118.5, 89949.97, 0.0000047225935, 9.997854, 10.001599 
1.9496451e+2, 1.7571144e+2, -1565311.1, -1221838.9, 102692.01, -0.040433582, 0.2879175, -1193477.6, 24581.65, 0.0000000036456946, 9.996928, 10.001488 
1.9497022e+2, 1.8571283e+2, -1555753.6, -1280120.8, 60791.49, -0.019738836, 0.33597764, -1267308.6, -147261.86, 0.0, 9.996807, 10.000478 
1.949763e+2, 1.9571482e+2, -1386636.9, -1152250.6, 43272.74, 0.08726089, 0.4746967, -1144516.8, -122486.14, 0.0, 9.997315, 10.000437 
1.9498232e+2, 2.0571494e+2, -1210591.4, -1030005.56, 118711.81, 0.06735596, 0.4525829, -971149.9, -47121.727, 0.0, 9.997913, 10.000309 
1.9498827e+2, 2.1571356e+2, -1013050.2, -892083.94, 143477.86, -0.050836112, 0.27090064, -796861.9, 29174.943, 0.0, 9.998631, 10.000237 
1.949941e+2, 2.2571324e+2, -919107.5, -857955.4, 51899.695, -0.04081649, 0.24531314, -828294.6, -100254.78, 0.0, 9.998863, 9.999693 
1.9499986e+2, 2.3571375e+2, -842482.2, -769797.56, 38656.55, 0.065174125, 0.31474406, -753082.4, -123044.375, 0.0, 9.998714, 9.999697 
1.9500549e+2, 2.4571343e+2, -633083.1, -567914.2, 94333.695, 0.05774086, 0.2915121, -500695.88, 31343.164, 0.0, 9.999268, 10.000137 
1.9501099e+2, 2.5571245e+2, -383536.22, -404378.63, 105037.48, -0.037033107, 0.16512091, -288404.25, 145638.11, 0.0, 10.00034, 10.000071 
1.9501671e+2, 2.6571256e+2, -350289.8, -390242.44, 30863.863, -0.0071545234, 0.19701348, -333501.6, 2538.567, 0.0, 10.00013, 9.999597 
1.950226e+2, 2.7571332e+2, -434781.5, -390371.06, 23635.275, 0.11883529, 0.3026832, -380146.38, -142110.9, 0.0, 9.998913, 9.999512 
1.9502817e+2, 2.857124e+2, -272434.88, -324771.0, 112576.53, 0.09032455, 0.29190943, -183025.06, -42980.004, 0.0, 9.999623, 9.998949 
1.9503343e+2, 2.9571068e+2, 126728.086, -86185.46, 158363.17, -0.058473814, 0.2097467, 211090.44, 253151.14, 0.000000013907536, 10.00171, 9.998911 
1.9504035e+2, 3.0570903e+2, 198444.31, -68003.1, 40972.14, 0.13596874, 0.17761904, 204602.34, 204602.34, 0.0000021091166, 10.002054, 9.998539 
1.9504404e+2, 3.1570968e+2, 43297.453, -150409.3, 25744.455, 0.16254492, 0.38131285, 46660.61, 46660.61, 0.000021823846, 10.000989, 9.99849 
2.049276e+2, 1.2569624e+2, -2097934.3, -1673692.6, -21861.125, -0.035609387, 0.45483705, -1672569.0, 35647.16, 0.0012408808, 9.996371, 10.002023 
2.0493485e+2, 1.3569799e+2, -1936618.0, -1445760.3, 16171.128, -0.08213618, 0.33335528, -1445228.0, 164967.33, 0.0007023467, 9.996389, 10.0029125 
2.0494156e+2, 1.4570026e+2, -1883752.0, -1428488.4, -6221.1646, -0.1443904, 0.29274616, -1428403.4, 83768.29, 0.0002832004, 9.996337, 10.002372 
2.0494977e+2, 1.5570389e+2, -1800280.5, -1360444.4, 24156.592, 0.0034978539, 0.4197662, -1359121.6, 55014.215, 0.000063005726, 9.996332, 10.00217 
2.0495658e+2, 1.6570589e+2, -1646917.1, -1245341.9, 21280.266, 0.053944424, 0.4096606, -1244217.4, 71896.61, 0.0000035155435, 9.996754, 10.002083 
2.049623e+2, 1.7570646e+2, -1454048.0, -1120355.4, 8988.482, 0.019764697, 0.24731782, -1120113.4, 97991.02, 0.0000000004928599, 9.997486, 10.001918 
2.049681e+2, 1.857078e+2, -1354707.0, -1193101.8, 8860.003, 0.019076515, 0.27390924, -1192617.5, -72525.305, 0.0, 9.998235, 10.000382 
2.0497395e+2, 1.9570975e+2, -1143763.3, -1043135.44, 27295.428, 0.03872929, 0.41844776, -1036208.4, -14131.093, 0.0, 9.999016, 10.000364 
2.0498064e+2, 2.0571011e+2, -1029031.06, -903164.7, 92949.51, 0.056722745, 0.4042551, -853847.3, 70225.336, 0.0, 9.998988, 10.000666 
2.0498794e+2, 2.1570921e+2, -1039358.94, -871657.2, 82546.07, 0.073930025, 0.23607877, -837844.0, -11767.838, 0.0, 9.998305, 10.000538 
2.0499368e+2, 2.2570904e+2, -983104.94, -932791.94, 11268.699, 0.045534912, 0.23318647, -930383.4, -202304.23, 0.0, 9.99862, 9.99929 
2.0499822e+2, 2.3570941e+2, -722874.7, -753362.25, 2734.4153, -0.017153712, 0.3283616, -722631.4, -92549.766, 0.0, 9.999717, 9.999325 
2.0500447e+2, 2.4570903e+2, -537400.8, -505168.75, 57678.125, 0.0025927762, 0.30985448, -461397.47, 70685.73, 0.0, 9.999852, 10.00029 
2.05012e+2, 2.557081e+2, -527750.56, -461455.78, 49129.246, 0.0842115, 0.17102316, -435337.4, -1253.1603, 0.0, 9.999297, 10.000183 
2.0501782e+2, 2.6570782e+2, -396469.8, -456715.2, -20229.027, 0.10064827, 0.18121837, -390307.66, -54222.023, 0.0, 9.999994, 9.999211 
2.0502241e+2, 2.7570796e+2, -59578.285, -246357.53, -28985.281, 0.07497006, 0.25917944, -55183.613, 182905.17, 0.0, 10.001645, 9.999187 
2.0502849e+2, 2.8570718e+2, 24801.021, -144495.31, 36220.266, 0.068472326, 0.26434314, 32224.674, 172320.95, 0.0, 10.001515, 9.999274 
2.050356e+2, 2.9570627e+2, -97488.23, -162855.28, 8437.446, 0.07374364, 0.22990811, -96416.7, -54314.242, 0.0000000026409164, 10.000045, 9.999182 
2.050426e+2, 3.0570522e+2, -6748.949, -183281.23, -107017.89, 0.2278732, 0.2553428, 43706.723, 43706.723, 0.000001406237, 10.000723, 9.998387 
2.0504488e+2, 3.1570476e+2, 321802.34, -29003.803, -117686.19, 0.052831322, 0.36097112, 357624.94, 357624.94, 0.000015573223, 10.002981, 9.998352 
2.149243e+2, 1.2569006e+2, -2160108.3, -1799179.1, -38241.008, -0.024844034, 0.47763738, -1795171.9, -86897.72, 0.0011227193, 9.996357, 10.001171 
2.1493386e+2, 1.3569167e+2, -1986690.6, -1550708.8, 19132.822, 0.16994119, 0.43050477, -1549870.8, 60390.313, 0.0006268979, 9.996398, 10.002188 
2.1493979e+2, 1.4569414e+2, -1805607.1, -1269015.4, -10202.652, 0.033088487, 0.38664097, -1268821.5, 243413.95, 0.0002465844, 9.996344, 10.003467 
2.149449e+2, 1.5569751e+2, -1727302.8, -1208706.9, 30688.457, -0.12915756, 0.37600017, -1206897.1, 207300.47, 0.000052325075, 9.996329, 10.003213 
2.1495172e+2, 1.6569968e+2, -1662774.8, -1271699.6, 44345.027, -0.117653064, 0.3425539, -1266734.3, 49438.914, 0.000002586899, 9.996726, 10.001916 
2.149598e+2, 1.7570078e+2, -1464691.3, -1136495.6, 40341.727, 0.011751012, 0.25041482, -1131609.6, 86550.47, 0.000000000052014764, 9.997465, 10.001814 
2.1496606e+2, 1.857018e+2, -1321801.8, -1120516.9, 34918.387, -0.017947834, 0.22156468, -1114631.4, 5517.966, 0.0, 9.998213, 10.000895 
2.1497102e+2, 1.9570273e+2, -1110647.5, -972538.06, 58176.992, -0.16672277, 0.21343762, -951298.1, 70842.055, 0.0, 9.999006, 10.000855 
2.1497813e+2, 2.0570356e+2, -1035114.94, -909804.3, 62799.945, -0.101379454, 0.22423844, -883749.3, 40382.402, 0.0, 9.998963, 10.00063 
2.149869e+2, 2.1570426e+2, -1046650.9, -878709.56, 64661.336, 0.12750484, 0.22049698, -856698.3, -30574.637, 0.0, 9.99827, 10.0005045 
2.1499297e+2, 2.2570491e+2, -1003879.44, -966963.0, 48518.75, 0.10205028, 0.3127206, -933510.0, -205388.6, 0.0, 9.99858, 9.999077 
2.1499702e+2, 2.3570548e+2, -742520.75, -785243.44, 45475.15, -0.1172685, 0.44710156, -713639.75, -83515.99, 0.0, 9.999678, 9.999125 
2.1500409e+2, 2.4570486e+2, -541402.7, -509676.28, 32108.732, -0.031145703, 0.4165834, -489725.9, 42401.86, 0.0, 9.999838, 10.000266 
2.1501341e+2, 2.557034e+2, -536443.44, -468861.72, 37186.367, 0.28740254, 0.23050785, -452406.72, -18273.877, 0.0, 9.999252, 10.0001545 
2.1501929e+2, 2.6570272e+2, -419997.1, -500664.5, 39365.44, 0.2387491, 0.2145314, -403970.8, -67832.82, 0.0, 9.999973, 9.998917 
2.1502256e+2, 2.7570248e+2, -87354.14, -297337.97, 30246.383, -0.08593034, 0.28730902, -83084.234, 155060.34, 0.0, 10.001615, 9.998851 
2.1502839e+2, 2.8570163e+2, -14160.363, -221851.88, -25071.729, -0.102915175, 0.32530206, -11176.664, 128977.16, 0.0, 10.001503, 9.998749 
2.1503602e+2, 2.9570058e+2, -134749.11, -238492.61, -34912.117, 0.10140816, 0.33346683, -124094.59, -81932.73, 0.000000034055795, 10.000035, 9.998669 
2.1504374e+2, 3.0569962e+2, -6963.6826, -182563.44, -23762.979, 0.26082104, 0.38740033, -3804.7917, -3804.7917, 0.0000015569075, 10.000717, 9.998395 
2.1504669e+2, 3.156976e+2, 332722.38, 1419.8473, -13069.764, -0.087896846, 0.33353397, 333237.16, 333237.16, 0.000013189906, 10.002945, 9.998582 
2.2492191e+2, 1.2568313e+2, -1881782.3, -1706224.5, 10199.82, 0.0026388548, 0.32043937, -1705633.9, 2701.4785, 0.0009915447, 9.998435, 10.000809 
2.2493061e+2, 1.3568544e+2, -2012076.5, -1609835.8, 93570.88, 0.20717601, 0.3840127, -1589134.4, 21184.574, 0.000545711, 9.996431, 10.0017605 
2.2493622e+2, 1.456883e+2, -1884615.1, -1316007.4, 79747.875, 0.07048148, 0.40274385, -1305034.4, 207256.81, 0.00020902291, 9.995837, 10.003393 
2.2494122e+2, 1.5569107e+2, -1735503.6, -1222746.0, 25763.094, -0.12537211, 0.3404056, -1221454.9, 192804.72, 0.000042237294, 9.996314, 10.003129 
2.2494823e+2, 1.6569321e+2, -1671657.1, -1294395.1, 19594.195, -0.13858895, 0.31671458, -1293380.3, 22856.2, 0.0000020119714, 9.996743, 10.001753 
2.2495665e+2, 1.7569472e+2, -1526377.9, -1182591.6, 7052.0903, -0.028457802, 0.28179356, -1182447.0, 35773.92, 0.0, 9.9971075, 10.001673 
2.2496377e+2, 1.8569577e+2, -1383138.4, -1103304.1, 8575.959, -0.03431385, 0.2414202, -1103041.5, 17167.857, 0.0, 9.997592, 10.00131 
2.2496995e+2, 1.956965e+2, -1212739.1, -977635.0, 12831.322, -0.12852201, 0.17063138, -976936.8, 45263.598, 0.0, 9.998125, 10.001243 
2.2497706e+2, 2.0569767e+2, -1090398.5, -929580.2, -3496.0044, -0.08220377, 0.1965085, -929504.25, -5315.779, 0.0, 9.998553, 10.000694 
2.249849e+2, 2.1569914e+2, -945944.9, -820201.0, 1261.5316, 0.070182316, 0.26108393, -820188.4, 5986.325, 0.0, 9.99892, 10.000593 
2.2499175e+2, 2.257e+2, -842164.8, -855359.4, 56570.434, 0.0772741, 0.3543593, -791808.25, -63638.406, 0.0, 9.999543, 9.99938 
2.2499792e+2, 2.3570035e+2, -632507.7, -703264.94, 79486.9, -0.023706283, 0.43623337, -580881.6, 49290.793, 0.0, 10.000308, 9.999383 
2.250049e+2, 2.456996e+2, -490304.1, -534185.4, 24599.084, 0.040459584, 0.40174055, -479282.53, 52895.48, 0.0, 10.000393, 9.999832 
2.2501242e+2, 2.5569803e+2, -458082.38, -480542.34, -3739.1528, 0.22834507, 0.24662182, -457476.25, -23290.1, 0.0, 9.999997, 9.999718 
2.2501893e+2, 2.6569703e+2, -379501.3, -539779.2, 50872.95, 0.18238075, 0.2492242, -364717.63, -28522.258, 0.0, 10.000509, 9.998389 
2.2502474e+2, 2.756964e+2, -108096.125, -365181.38, 11658.242, -0.03186253, 0.33600095, -107568.53, 130637.73, 0.0, 10.001723, 9.998332 
2.2503069e+2, 2.8569487e+2, 63174.574, -227939.22, -113833.9, -0.056778982, 0.34838164, 102401.24, 242623.5, 0.00000000075483947, 10.002207, 9.998373 
2.2503656e+2, 2.956928e+2, 138545.23, -150747.4, -117753.38, 0.05041813, 0.29425997, 180415.44, 222655.13, 0.0000002669958, 10.002094, 9.998284 
2.250448e+2, 3.0569187e+2, 184697.97, -108320.46, -26676.934, 0.23012759, 0.37775356, 187106.88, 187106.88, 0.0000027230408, 10.002098, 9.998242 
2.2504994e+2, 3.1568977e+2, 255530.14, -3992.8247, -30666.842, -0.0183883, 0.32451433, 259104.69, 259104.69, 0.000014136897, 10.002251, 9.998889 
2.3492017e+2, 1.2567553e+2, -1872264.9, -1691086.4, -85379.57, -0.038227905, -0.017615583, -1657192.4, 51206.473, 0.0008595536, 9.998462, 10.000897 
2.3492494e+2, 1.356792e+2, -2020920.0, -1631859.8, 23020.701, -0.013194397, 0.18752511, -1630502.4, -20132.3, 0.00046458573, 9.996444, 10.001605 
2.3493065e+2, 1.4568256e+2, -1974967.9, -1496962.5, 93180.38, -0.078914955, 0.33126447, -1479440.5, 32900.074, 0.00017252294, 9.995811, 10.002163 
2.349386e+2, 1.5568458e+2, -1813940.9, -1387764.0, 46279.08, -0.03145839, 0.31511816, -1382796.5, 31525.014, 0.000033446406, 9.996324, 10.00199 
2.3494595e+2, 1.6568647e+2, -1688219.5, -1324628.3, 27919.316, -0.050903056, 0.3328868, -1322496.9, -6193.22, 0.0000017722703, 9.996726, 10.001555 
2.3495276e+2, 1.7568825e+2, -1535701.3, -1199771.1, 25055.324, -0.13815117, 0.33946806, -1197912.6, 20374.635, 0.0000000001389195, 9.997098, 10.00156 
2.3496108e+2, 1.8568973e+2, -1369615.3, -1067588.6, 24557.37, -0.07234874, 0.33280653, -1065604.9, 54667.55, 0.0, 9.997559, 10.001574 
2.3497058e+2, 1.9569099e+2, -1196032.5, -940041.06, 34042.113, 0.111771606, 0.2920981, -935591.44, 86667.01, 0.0, 9.998111, 10.001509 
2.3497723e+2, 2.0569241e+2, -1081378.3, -901900.75, 5962.116, 0.07127522, 0.31675214, -901702.94, 22540.803, 0.0, 9.998515, 10.000903 
2.3498179e+2, 2.1569385e+2, -934281.0, -787030.3, 21101.813, -0.14305496, 0.35745215, -784066.0, 42163.023, 0.0, 9.998879, 10.000842 
2.3498991e+2, 2.2569431e+2, -793639.06, -742958.8, 82618.65, -0.070405215, 0.35765085, -681881.56, 46342.79, 0.0, 9.999496, 10.0001745 
2.350008e+2, 2.3569404e+2, -589990.06, -605793.25, 109240.93, 0.22332257, 0.29890794, -488365.34, 141862.19, 0.0, 10.00027, 10.000072 
2.3500673e+2, 2.4569316e+2, -550131.06, -653196.0, 4905.8086, 0.17363487, 0.26418766, -549898.1, -17663.572, 0.0, 10.000372, 9.999025 
2.3500888e+2, 2.5569186e+2, -521640.38, -602452.0, -10918.533, -0.13617252, 0.21903773, -520191.16, -85946.55, 0.0, 9.999955, 9.9989 
2.3501667e+2, 2.6569074e+2, -435687.75, -651373.3, 92920.73, -0.10441513, 0.28589392, -401177.72, -64919.797, 0.0, 10.000491, 9.99763 
2.3502879e+2, 2.7568963e+2, -165007.06, -469688.6, 59412.023, 0.18955034, 0.39983675, -153831.78, 84442.555, 0.0, 10.001668, 9.997639 
2.3503515e+2, 2.8568688e+2, 44118.78, -263169.22, -121138.92, 0.15708253, 0.33625457, 86130.39, 226431.75, 0.00000003119879, 10.002187, 9.998142 
2.3503698e+2, 2.9568297e+2, 117965.695, -189796.52, -117112.16, -0.1287678, 0.11585253, 157461.56, 199797.1, 0.00000087505157, 10.002072, 9.998031 
2.350456e+2, 3.0568197e+2, 161869.4, -147487.45, -23543.535, 0.08941863, 0.22800264, 163650.92, 163650.92, 0.0000050395365, 10.002069, 9.997984 
2.3505425e+2, 3.1568125e+2, 274520.06, 52203.934, 1454.6506, 0.16573708, 0.33384418, 274529.56, 274529.56, 0.00001767749, 10.002185, 9.999305 
2.4491766e+2, 1.2567104e+2, -2170087.5, -1809105.8, -123899.26, -0.025015997, 0.0061436063, -1770672.0, -62228.45, 0.0007335385, 9.996304, 10.001137 
2.4492097e+2, 1.3567449e+2, -1769417.1, -1515272.9, -13475.993, -0.13748196, 0.18700457, -1514560.3, 95854.305, 0.00038622954, 9.998187, 10.001571 
2.449268e+2, 1.4567733e+2, -1667605.4, -1451691.9, 73944.76, -0.17050827, 0.32835552, -1428795.6, 83594.375, 0.00013762695, 9.998365, 10.001241 
2.4493574e+2, 1.5567824e+2, -1739253.1, -1447549.4, 43657.42, 0.006157013, 0.2938319, -1441155.6, -26772.775, 0.000025817635, 9.997258, 10.001127 
2.4494323e+2, 1.6567978e+2, -1660116.0, -1315326.5, 69374.77, -0.0020899174, 0.31697798, -1301891.1, 14478.338, 0.0000016011192, 9.996939, 10.001514 
2.4494962e+2, 1.7568173e+2, -1531253.3, -1206426.4, 66762.88, -0.16020586, 0.34849373, -1193239.8, 25112.01, 0.0000000006420841, 9.997165, 10.001483 
2.4495846e+2, 1.856833e+2, -1418398.6, -1110520.8, 59149.992, -0.07428159, 0.3632954, -1099547.9, 20788.627, 0.0, 9.997312, 10.001394 
2.4496917e+2, 1.9568454e+2, -1312464.1, -1015627.5, 29536.193, 0.19852322, 0.33660704, -1012717.06, 9606.116, 0.0, 9.997397, 10.00133 
2.4497627e+2, 2.056856e+2, -1123728.9, -924718.56, 1698.7585, 0.13871247, 0.33748713, -924704.06, -392.7143, 0.0, 9.998236, 10.000881 
2.449807e+2, 2.1568654e+2, -837254.25, -741759.5, -12385.677, -0.1705054, 0.32911694, -740179.25, 86121.46, 0.0, 9.9995575, 10.000827 
2.449892e+2, 2.2568688e+2, -762507.2, -720061.3, -12272.674, -0.09724007, 0.31377238, -716768.3, 11528.065, 0.0, 9.999675, 10.000246 
2.450008e+2, 2.3568673e+2, -789774.44, -696492.1, -43961.57, 0.26770437, 0.262642, -679039.44, -48742.156, 0.0, 9.9988785, 10.000118 
2.4500692e+2, 2.4568605e+2, -670575.94, -753536.4, -113482.125, 0.18838465, 0.26353312, -591230.7, -58926.613, 0.0, 9.999731, 9.998645 
2.4500886e+2, 2.556849e+2, -266326.47, -519490.0, -107623.3, -0.22877945, 0.27381608, -226758.55, 207556.94, 0.0, 10.001881, 9.998545 
2.450173e+2, 2.6568344e+2, -227058.47, -562863.56, 9665.207, -0.16087697, 0.327094, -226780.52, 109551.78, 0.0, 10.001965, 9.997533 
2.4503076e+2, 2.7568164e+2, -346000.8, -567014.25, 19441.92, 0.28361133, 0.37982783, -344303.6, -105950.04, 0.0, 10.000464, 9.997552 
2.450374e+2, 2.8567892e+2, -182323.9, -381882.4, -93018.55, 0.24204953, 0.33029458, -145690.73, -5310.981, 0.00000009380251, 10.000679, 9.998051 
2.4503864e+2, 2.9567558e+2, 136057.16, -188950.1, -93850.68, -0.17451157, 0.17679584, 161211.14, 203620.45, 0.0000015673739, 10.002241, 9.997951 
2.4504736e+2, 3.0567396e+2, 176692.55, -176501.92, -27652.707, 0.050939932, 0.24313332, 178844.45, 178844.45, 0.000007492646, 10.002328, 9.997663 
2.4505664e+2, 3.156723e+2, 148906.16, 20071.955, -12370.909, 0.2410348, 0.28970277, 150083.27, 150083.27, 0.000021673697, 10.001218, 9.999542 
2.5491405e+2, 1.2566988e+2, -2142657.5, -1749202.8, -72801.13, -0.03701292, 0.4121196, -1736164.4, -27696.361, 0.0006147494, 9.996288, 10.001557 
2.5491866e+2, 1.3567144e+2, -1757081.3, -1495160.6, 52342.9, -0.19861712, 0.3867099, -1485087.8, 125364.08, 0.00031221876, 9.998211, 10.0016985 
2.549246e+2, 1.4567262e+2, -1711347.1, -1546706.5, 28221.041, -0.23784514, 0.39587003, -1542003.4, -29564.318, 0.00010529937, 9.998382, 10.00058 
2.5493237e+2, 1.5567201e+2, -1777911.5, -1530881.4, 9483.341, -0.066340245, 0.268303, -1530517.9, -116073.65, 0.000019009012, 9.99727, 10.000549 
2.5493988e+2, 1.65673e+2, -1659249.9, -1307128.3, 74816.39, -0.042362664, 0.2608755, -1291891.1, 24543.436, 0.0000013062046, 9.996913, 10.001583 
2.5494716e+2, 1.7567526e+2, -1528753.9, -1200437.4, 78601.79, -0.13611104, 0.3160587, -1182589.6, 35823.688, 0.000000000635992, 9.997165, 10.001523 
2.549558e+2, 1.8567659e+2, -1465812.8, -1205046.3, 59417.723, -0.08204086, 0.33887112, -1192145.6, -71745.164, 0.0, 9.9972925, 10.000756 
2.5496557e+2, 1.9567709e+2, -1356995.9, -1104409.4, 40507.215, 0.08553665, 0.30002668, -1098072.3, -75677.305, 0.0, 9.997379, 10.0007305 
2.54974e+2, 2.0567721e+2, -1152131.4, -972898.5, 48839.914, 0.08103169, 0.25059304, -960454.0, -36062.008, 0.0, 9.99819, 10.000573 
2.549815e+2, 2.1567707e+2, -862914.7, -791346.7, 36139.938, -0.05765253, 0.16517982, -776272.1, 50118.813, 0.0, 9.999537, 10.000498 
2.5498945e+2, 2.2567753e+2, -811332.4, -812993.75, -47377.99, -0.04927073, 0.2125689, -764777.8, -36390.617, 0.0, 9.9996395, 9.999624 
2.5499776e+2, 2.3567843e+2, -835095.6, -782135.9, -62547.113, 0.06863133, 0.32543054, -740694.25, -110312.195, 0.0, 9.99884, 9.99955 
2.5500527e+2, 2.4567822e+2, -671869.9, -749495.0, -35614.36, 0.04127646, 0.39792797, -658006.06, -125619.375, 0.0, 9.999705, 9.998683 
2.5501215e+2, 2.556771e+2, -267812.38, -512138.66, -32874.277, -0.095521055, 0.40621632, -263466.44, 170932.8, 0.0, 10.001834, 9.998617 
2.550207e+2, 2.6567507e+2, -191566.28, -482516.38, -50753.8, -0.026079884, 0.3735602, -182966.88, 153451.97, 0.0, 10.001937, 9.998099 
2.5503054e+2, 2.7567235e+2, -315624.84, -493815.5, -24299.258, 0.20211817, 0.27506912, -312370.7, -73926.4, 0.0, 10.000418, 9.998081 
2.5503722e+2, 2.8567094e+2, -184465.4, -379292.94, -39802.855, 0.14466739, 0.32936656, -176647.48, -36189.598, 0.00000013915765, 10.000652, 9.998078 
2.5504136e+2, 2.9567054e+2, 129834.51, -189295.77, -38037.824, -0.13929868, 0.46838677, 134305.67, 176768.22, 0.0000020008988, 10.002187, 9.997973 
2.5504997e+2, 3.0566758e+2, 147530.44, -229793.44, -71916.4, 0.06753382, 0.41743803, 160772.67, 160772.67, 0.000009108913, 10.002302, 9.997308 
2.550569e+2, 3.1566265e+2, 147270.22, 20437.434, -26259.25, 0.11777475, 0.17722085, 152491.92, 152491.92, 0.000024996654, 10.001203, 9.999553 
2.6491007e+2, 1.256661e+2, -2102281.5, -1767090.6, 19720.3, -0.082184225, 0.51926327, -1765934.4, -57427.5, 0.0005062773, 9.99673, 10.001209 
2.649174e+2, 1.3566613e+2, -1835595.1, -1599899.1, 71004.31, -0.12993951, 0.39973137, -1580161.8, 30344.139, 0.0002464049, 9.997953, 10.001102 
2.6492378e+2, 1.4566658e+2, -1719047.6, -1565240.5, -22751.102, -0.15856303, 0.37010437, -1561945.8, -49445.94, 0.00007758306, 9.998396, 10.000446 
2.649297e+2, 1.5566584e+2, -1630372.0, -1475421.3, -11104.523, -0.1109591, 0.24293718, -1474629.5, -60125.063, 0.000013419433, 9.998349, 10.000411 
2.6493725e+2, 1.6566665e+2, -1467992.0, -1261795.0, 86238.47, -0.06836483, 0.24463981, -1230482.3, 86014.15, 0.0000010267595, 9.998422, 10.001173 
2.6494598e+2, 1.756687e+2, -1353237.3, -1159619.4, 48090.85, -0.035630934, 0.31974876, -1148332.5, 70145.53, 0.0000000012219834, 9.998556, 10.001134 
2.6495457e+2, 1.8566972e+2, -1205625.1, -1105875.0, 48948.234, -0.027032416, 0.34294084, -1085868.4, 34599.785, 0.0, 9.999189, 10.0005245 
2.6496306e+2, 1.9566986e+2, -967459.2, -945625.3, 50559.098, -0.03559819, 0.29251912, -904817.94, 117647.67, 0.0, 10.000176, 10.000475 
2.6497224e+2, 2.0566967e+2, -908118.44, -904640.1, 62237.22, -0.005952124, 0.24723436, -844117.8, 80348.63, 0.0, 10.000088, 10.000123 
2.649819e+2, 2.1566923e+2, -952274.75, -882941.1, 29691.637, 0.053803243, 0.17975909, -871963.9, -45494.06, 0.0, 9.999142, 10.000055 
2.6498976e+2, 2.2566941e+2, -862918.9, -854572.1, -33933.305, 0.03513988, 0.22614077, -824556.56, -96087.22, 0.0, 9.999354, 9.999477 
2.649963e+2, 2.3567009e+2, -610404.44, -691265.3, -23089.121, -0.041749258, 0.33321673, -604276.0, 26189.623, 0.0, 10.000455, 9.999397 
2.6500466e+2, 2.4566984e+2, -552208.06, -707721.25, 41166.56, -0.03212757, 0.41742516, -541983.0, -9511.914, 0.0, 10.000592, 9.998545 
2.6501447e+2, 2.5566885e+2, -543611.06, -651314.44, 23001.838, 0.04800334, 0.44997218, -538904.3, -104420.44, 0.0, 9.999976, 9.998551 
2.6502275e+2, 2.6566687e+2, -439996.06, -535209.9, -36503.8, 0.088241786, 0.39264724, -427611.78, -91110.25, 0.0, 9.999948, 9.998692 
2.6502994e+2, 2.7566418e+2, -282913.34, -415069.3, -13343.718, 0.10579726, 0.24018426, -281579.5, -43056.953, 0.0, 10.00038, 9.998635 
2.65037e+2, 2.8566307e+2, -187005.05, -396929.9, 24054.969, 0.058902886, 0.30265096, -184283.89, -43750.902, 0.00000017298198, 10.000703, 9.997934 
2.6504385e+2, 2.9566303e+2, -62590.215, -295038.13, 2334.0562, -0.04146566, 0.4938653, -62566.78, -20030.83, 0.0000022405377, 10.000919, 9.997857 
2.6505268e+2, 3.056594e+2, 49996.313, -321360.84, -50938.504, 0.1371072, 0.40083927, 56856.73, 56856.73, 0.00001010162, 10.001809, 9.996923 
2.650582e+2, 3.1565472e+2, 414332.2, 114759.33, -6084.2974, 0.03580579, 0.22501142, 414455.72, 414455.72, 0.00002797797, 10.003165, 9.999264 
2.7490532e+2, 1.2565942e+2, -2186973.3, -1938910.5, 50277.273, -0.2546279, 0.30263424, -1929107.8, -220545.25, 0.00041453895, 9.996711, 10.000038 
2.7491692e+2, 1.3565849e+2, -1922042.9, -1782122.8, 111620.72, 0.01794298, 0.22042787, -1720349.8, -109772.016, 0.00019313562, 9.997967, 9.999842 
2.7492413e+2, 1.4565916e+2, -1693193.1, -1511467.1, -31826.914, 0.027912116, 0.2537551, -1506054.4, 6517.8687, 0.000056136425, 9.998394, 10.000819 
2.7492768e+2, 1.5565977e+2, -1607054.5, -1428635.3, -8219.986, -0.16197057, 0.2226557, -1428257.3, -13694.021, 0.000009372096, 9.998358, 10.00073 
2.7493528e+2, 1.6566074e+2, -1529674.3, -1388292.1, 86642.42, -0.121084765, 0.27225372, -1347161.4, -30606.72, 0.0000008660051, 9.998417, 10.000304 
2.7494594e+2, 1.7566195e+2, -1412360.0, -1279380.4, 58728.813, 0.09436485, 0.3511197, -1257157.4, -38610.785, 0.000000004874734, 9.998546, 10.000315 
2.7495456e+2, 1.8566263e+2, -1201053.9, -1087586.9, 82903.805, 0.044743855, 0.37101284, -1043862.75, 76677.484, 0.0, 9.999154, 10.000665 
2.7496162e+2, 1.956629e+2, -961411.5, -929683.56, 87563.93, -0.21100052, 0.31820917, -856558.1, 165976.6, 0.0, 10.000165, 10.000587 
2.7497086e+2, 2.0566308e+2, -955842.75, -997815.8, 22309.89, -0.16165589, 0.33880585, -946199.8, -21666.207, 0.0, 10.00006, 9.999498 
2.749818e+2, 2.1566306e+2, -997248.0, -967111.5, 3953.7976, 0.118640676, 0.3726725, -966601.4, -140064.19, 0.0, 9.9991, 9.999498 
2.7499002e+2, 2.2566248e+2, -852042.3, -819336.5, 3655.0186, 0.11557321, 0.3553535, -818933.0, -90390.14, 0.0, 9.9993, 9.999746 
2.749962e+2, 2.3566158e+2, -599424.6, -659088.44, 18116.654, -0.105151445, 0.27672997, -594354.5, 36194.87, 0.0, 10.000415, 9.999638 
2.7500495e+2, 2.4566083e+2, -575958.94, -749555.0, 14110.061, -0.07143194, 0.31433278, -574819.5, -42261.36, 0.0, 10.000563, 9.99827 
2.7501562e+2, 2.5566012e+2, -564822.25, -687395.4, 6161.141, 0.15368068, 0.40086466, -564513.3, -129943.43, 0.0, 9.999938, 9.998323 
2.7502334e+2, 2.6565883e+2, -401480.88, -445550.2, -25243.55, 0.13953047, 0.3871383, -390007.88, -53427.527, 0.0, 9.999911, 9.999323 
2.750288e+2, 2.7565706e+2, -248334.25, -337063.56, 7301.3936, -0.055541504, 0.26833242, -247737.45, -9147.887, 0.00000000009324417, 10.000353, 9.999184 
2.7503663e+2, 2.8565514e+2, -206789.05, -438176.75, 28335.72, -0.06185031, 0.24447238, -203369.6, -62763.25, 0.00000023612336, 10.000703, 9.997649 
2.7504596e+2, 2.9565302e+2, -85365.21, -337170.38, 18451.873, 0.061817635, 0.2516034, -84020.266, -41390.184, 0.0000024950837, 10.000887, 9.997586 
2.750552e+2, 3.056495e+2, 19058.412, -369766.53, -2952.0085, 0.19901812, 0.19477083, 19080.822, 19080.822, 0.000010927285, 10.00176, 9.996603 
2.750602e+2, 3.1564844e+2, 358031.53, 24168.318, 68887.945, -0.10673709, 0.41768917, 371687.06, 371687.06, 0.000030095847, 10.003062, 9.998684 
2.849024e+2, 1.2565164e+2, -2136555.3, -1853764.9, -96548.63, -0.21789724, 0.22947183, -1823946.0, -115306.39, 0.0003410361, 9.996801, 10.000575 
2.849148e+2, 1.3565183e+2, -2010972.6, -1790691.4, 73263.95, 0.046632566, 0.22440307, -1768549.9, -157906.31, 0.00015204525, 9.997215, 10.000143 
2.849226e+2, 1.456529e+2, -1762276.8, -1537455.1, -30621.557, 0.06541765, 0.28131163, -1533359.0, -20725.082, 0.000040681283, 9.997888, 10.000881 
2.8492603e+2, 1.5565379e+2, -1539017.0, -1392979.4, -41103.043, -0.18054616, 0.27279842, -1382205.5, 32417.066, 0.0000066741927, 9.998808, 10.000757 
2.8493392e+2, 1.656545e+2, -1450586.6, -1407003.8, 51810.066, -0.13203989, 0.32193238, -1372588.9, -55971.754, 0.00000074756446, 9.999215, 9.999788 
2.849453e+2, 1.7565493e+2, -1347135.3, -1305825.1, 40206.45, 0.14302061, 0.37532425, -1281278.5, -62661.07, 0.000000006090155, 9.999242, 9.999801 
2.84954e+2, 1.8565518e+2, -1259919.8, -1135378.9, 73356.266, 0.093235716, 0.38699177, -1101427.0, 19188.615, 0.0, 9.9988365, 10.000488 
2.8496072e+2, 1.9565536e+2, -1276952.4, -1100404.1, 44477.754, -0.21165206, 0.3425601, -1089832.0, -67220.76, 0.0, 9.998079, 10.000421 
2.849698e+2, 2.056558e+2, -1200518.6, -1110356.4, -212.7816, -0.18373568, 0.39232698, -1110355.9, -185748.14, 0.0, 9.998347, 9.999551 
2.849808e+2, 2.1565631e+2, -954481.2, -942157.2, 25002.285, 0.097643785, 0.47544917, -922568.75, -95962.61, 0.0, 9.999374, 9.999536 
2.8498948e+2, 2.2565544e+2, -776086.3, -817593.44, 55072.63, 0.10012982, 0.4433575, -737986.6, -9371.802, 0.0, 9.999976, 9.999432 
2.849964e+2, 2.356535e+2, -646172.4, -711997.1, 16001.678, -0.110689275, 0.29404533, -642488.6, -11857.148, 0.0, 10.000224, 9.999367 
2.8500542e+2, 2.4565256e+2, -580366.9, -714659.25, -5871.7285, -0.06625915, 0.30644304, -580110.6, -47469.86, 0.0, 10.000373, 9.998599 
2.85016e+2, 2.5565237e+2, -465689.53, -608527.9, 23666.352, 0.17467844, 0.414221, -461870.47, -27225.994, 0.0, 10.000489, 9.998599 
2.8502375e+2, 2.65651e+2, -306390.25, -456938.8, -2874.4204, 0.14890447, 0.40622792, -306335.38, 30320.678, 0.0, 10.000804, 9.9988165 
2.850294e+2, 2.7564865e+2, -152386.27, -338780.34, -65192.652, -0.06981542, 0.2786116, -131847.78, 106826.03, 0.0000000018932573, 10.001218, 9.998755 
2.8503776e+2, 2.8564668e+2, -92947.87, -358308.5, -60913.72, -0.05040364, 0.25383493, -79633.164, 61058.957, 0.00000028816427, 10.001373, 9.997882 
2.8504783e+2, 2.95645e+2, 42.243614, -258629.13, -37217.082, 0.14267553, 0.2822855, 5290.476, 48001.05, 0.0000027347362, 10.001322, 9.997915 
2.8505698e+2, 3.056417e+2, 21380.28, -289810.88, 32615.754, 0.22478601, 0.19734752, 24761.969, 24761.969, 0.000011893844, 10.001416, 9.997328 
2.850619e+2, 3.1564185e+2, 130074.37, -54805.65, 173400.9, -0.14954773, 0.46662176, 234136.34, 234136.34, 0.000031796684, 10.001364, 9.9989605 
2.94901e+2, 1.2564297e+2, -1982233.0, -1538779.5, -98214.71, -0.06805971, 0.31772983, -1518000.8, 190735.97, 0.00028049768, 9.996818, 10.002733 
2.949107e+2, 1.3564613e+2, -1880012.0, -1521793.4, 89441.88, -0.09223892, 0.41117164, -1500702.8, 110000.21, 0.000119661214, 9.997225, 10.001986 
2.9491895e+2, 1.4564772e+2, -1781560.6, -1575158.1, -2451.604, -0.10370122, 0.44613355, -1575129.1, -62443.51, 0.000029635712, 9.997875, 10.000631 
2.9492456e+2, 1.5564792e+2, -1559197.6, -1431412.6, -5602.882, -0.22181796, 0.39507225, -1431167.4, -16485.045, 0.0000047316526, 9.998793, 10.000501 
2.9493308e+2, 1.6564791e+2, -1466599.5, -1436962.0, 48849.113, -0.14908002, 0.3954422, -1400733.4, -84049.35, 0.00000054097734, 9.9992, 9.99959 
2.949439e+2, 1.7564766e+2, -1360713.8, -1334200.3, 43879.773, 0.06779843, 0.39795294, -1301618.4, -82928.13, 0.0000000012704189, 9.999245, 9.999601 
2.9495278e+2, 1.856474e+2, -1298115.4, -1209927.4, 39445.973, 0.07340416, 0.39346576, -1194858.4, -74164.29, 0.0, 9.998816, 9.999987 
2.9496017e+2, 1.956471e+2, -1311995.1, -1166881.5, 23361.666, -0.08249551, 0.3550426, -1163213.3, -140517.19, 0.0, 9.998052, 9.999978 
2.9496893e+2, 2.0564768e+2, -1156586.5, -1006446.25, 36008.086, -0.11555035, 0.399616, -998257.1, -73567.06, 0.0, 9.998294, 10.00029 
2.9497874e+2, 2.1564889e+2, -915798.5, -851294.9, 67296.21, -0.05665775, 0.4808203, -808921.25, 17756.38, 0.0, 9.999329, 10.000181 
2.9498798e+2, 2.2564821e+2, -847142.8, -950265.6, 59793.582, -0.055809278, 0.48142785, -819749.5, -91063.4, 0.0, 9.999915, 9.998549 
2.9499686e+2, 2.3564592e+2, -709355.3, -829574.75, 29940.063, -0.09723089, 0.38755977, -702311.6, -71599.945, 0.0, 10.000168, 9.998586 
2.9500604e+2, 2.4564512e+2, -518439.34, -580786.25, -5653.7026, -0.052907914, 0.4017212, -517930.8, 14787.144, 0.0, 10.000348, 9.999534 
2.9501548e+2, 2.5564548e+2, -415231.9, -500275.34, 33301.72, 0.062652014, 0.4745878, -403743.44, 30965.662, 0.0, 10.00047, 9.999356 
2.950239e+2, 2.6564324e+2, -420561.84, -692168.9, 9230.794, 0.07062082, 0.43187928, -420248.5, -83517.98, 0.0, 10.000794, 9.997208 
2.9503152e+2, 2.7563888e+2, -259015.47, -554233.1, -47113.758, 0.0030174442, 0.26256847, -251678.9, -12902.607, 0.0000000016821552, 10.001184, 9.997295 
2.9504013e+2, 2.8563762e+2, -43385.324, -246214.64, -68059.61, 0.04276107, 0.33408776, -22664.633, 118125.74, 0.00000022409213, 10.001339, 9.998668 
2.950493e+2, 2.956388e+2, 56837.46, -139072.86, -30581.213, 0.14396179, 0.57238066, 61500.156, 104279.0, 0.0000026529046, 10.001309, 9.998747 
2.950579e+2, 3.05636e+2, 144491.63, -27202.08, 27938.2, 0.16085075, 0.39967403, 148923.38, 148923.38, 0.000012290724, 10.001393, 9.999137 
2.9506287e+2, 3.156347e+2, 204754.23, 108320.13, 191469.0, -0.2180416, 0.3489543, 353984.06, 353984.06, 0.000033071607, 10.001328, 10.000095 
3.0489868e+2, 1.2563434e+2, -1851998.1, -1433312.9, -12696.398, -0.013103359, 0.34079713, -1432928.3, 275897.6, 0.00022859985, 9.997523, 10.003125 
3.0490732e+2, 1.3563852e+2, -1725254.3, -1414267.9, 29434.02, -0.19662292, 0.50613856, -1411506.5, 199273.8, 0.00009393993, 9.998132, 10.002294 
3.0491635e+2, 1.4563997e+2, -1730703.8, -1514991.3, -93351.86, -0.15787296, 0.49509072, -1480202.8, 32560.31, 0.000021636553, 9.998081, 10.000941 
3.0492353e+2, 1.5563989e+2, -1711242.3, -1473475.0, -67273.516, -0.14188258, 0.3874991, -1455760.5, -40998.797, 0.0000030875526, 9.99762, 10.000775 
3.0493212e+2, 1.6563982e+2, -1641165.3, -1516447.9, 34440.05, -0.10140499, 0.3662668, -1507569.4, -190806.42, 0.0000002653173, 9.997974, 9.999636 
3.0494183e+2, 1.7563964e+2, -1397048.1, -1344751.9, 40666.586, -0.046711046, 0.37152192, -1322552.4, -103784.98, 0.0, 9.998967, 9.9996605 
3.0495107e+2, 1.8563943e+2, -1207825.1, -1188489.9, 37226.133, -0.009157649, 0.37720767, -1159696.5, -38925.85, 0.0, 9.999528, 9.999795 
3.0496e+2, 1.9563912e+2, -1080922.4, -1077178.5, 39126.766, 0.01620598, 0.35615438, -1039878.94, -17105.48, 0.0, 9.999728, 9.999789 
3.0496895e+2, 2.0563921e+2, -921452.4, -916126.44, 66056.836, -0.025250062, 0.37327135, -852678.9, 72092.89, 0.0, 10.0000105, 10.000084 
3.049779e+2, 2.1563962e+2, -781794.6, -811354.4, 15389.997, -0.118798934, 0.39386943, -775236.9, 51529.79, 0.0, 10.000352, 9.999967 
3.0498755e+2, 2.256391e+2, -785892.44, -936432.8, -6570.724, -0.11098359, 0.4298552, -785606.2, -56832.19, 0.0, 10.000399, 9.998411 
3.0499774e+2, 2.356378e+2, -714785.9, -845664.06, 11457.709, -0.024335999, 0.44695625, -713790.4, -82998.7, 0.0, 10.000195, 9.998459 
3.0500695e+2, 2.4563688e+2, -484032.16, -576645.0, -12958.257, -0.0068015754, 0.46078417, -482253.22, 50546.12, 0.0, 10.000641, 9.999419 
3.0501544e+2, 2.5563625e+2, -249677.13, -430913.7, -59047.39, -0.044331543, 0.44324479, -232136.88, 202662.47, 0.0, 10.001657, 9.999256 
3.050244e+2, 2.6563388e+2, -313891.25, -666714.94, -76483.49, 0.00065546134, 0.4032705, -298025.0, 38797.605, 0.0, 10.001642, 9.996974 
3.0503368e+2, 2.7563006e+2, -324787.53, -611321.56, -36392.773, 0.123053975, 0.3128646, -320237.53, -81372.875, 0.00000000014964384, 10.00085, 9.997063 
3.0504224e+2, 2.8562883e+2, -99760.37, -281787.3, -16666.15, 0.14161505, 0.40206966, -98247.016, 42631.9, 0.00000013461268, 10.000995, 9.99858 
3.0505002e+2, 2.9562968e+2, 128235.48, -111135.45, -53122.49, 0.060636085, 0.61742085, 139495.08, 182364.97, 0.0000024042524, 10.001846, 9.998668 
3.050589e+2, 3.0562693e+2, 259665.38, 39625.605, -105650.8, 0.08871532, 0.4461375, 302178.97, 302178.97, 0.000011913728, 10.002128, 9.999248 
3.050662e+2, 3.1562495e+2, 247773.02, 92577.484, -77931.49, -0.032656487, 0.31762344, 280151.3, 280151.3, 0.0000326923, 10.001763, 9.999788 
3.1489506e+2, 1.2562574e+2, -1949113.6, -1633725.9, 8753.313, -0.1487891, 0.29370356, -1633483.1, 75423.65, 0.00018624985, 9.997531, 10.00174 
3.1490442e+2, 1.3562915e+2, -1811034.9, -1593203.6, 51233.785, -0.30969134, 0.5185949, -1581755.1, 29118.873, 0.00007443096, 9.998146, 10.001057 
3.1491467e+2, 1.4562972e+2, -1676153.8, -1400475.1, -118259.94, -0.14485855, 0.43728706, -1356696.5, 156169.22, 0.000015949841, 9.998074, 10.001731 
3.1492284e+2, 1.5562956e+2, -1659116.9, -1364375.4, -79065.99, 0.01631908, 0.24191092, -1344505.1, 70356.74, 0.00000170519, 9.997613, 10.00153 
3.1493092e+2, 1.6563006e+2, -1620465.4, -1467187.8, 66083.71, -0.031090075, 0.2231687, -1442630.9, -125775.375, 0.000000057148895, 9.997947, 9.999988 
3.149389e+2, 1.7563087e+2, -1376339.9, -1297953.9, 79210.805, -0.24741004, 0.29329988, -1248770.1, -29921.229, 0.0, 9.998952, 9.9999895 
3.1494874e+2, 1.856313e+2, -1199998.4, -1170642.4, 40876.914, -0.20606196, 0.34195974, -1141888.0, -21043.059, 0.0, 9.999517, 9.999925 
3.149601e+2, 1.956314e+2, -1078932.6, -1067802.6, 51403.832, 0.038244277, 0.34612063, -1021663.44, 1179.63, 0.0, 9.999703, 9.9998665 
3.1496975e+2, 2.056304e+2, -1011277.06, -1089854.9, 73471.125, 0.04513327, 0.31259206, -967249.56, -42396.477, 0.0, 9.999959, 9.998915 
3.1497818e+2, 2.1562846e+2, -863534.75, -969915.0, 31032.547, -0.13671361, 0.21819414, -855144.0, -28270.94, 0.0, 10.000306, 9.9988985 
3.1498802e+2, 2.2562817e+2, -746825.6, -845926.9, -18069.69, -0.11692983, 0.29301745, -743633.7, -14755.606, 0.0, 10.000358, 9.999054 
3.149989e+2, 2.3562913e+2, -682746.56, -771009.8, 11269.25, 0.062091224, 0.47073743, -681330.44, -50458.637, 0.0, 10.000156, 9.998992 
3.15008e+2, 2.4562778e+2, -564284.5, -740378.9, 19804.047, 0.022374045, 0.47744855, -562084.75, -29199.172, 0.0, 10.000628, 9.9983 
3.1501573e+2, 2.5562468e+2, -324024.66, -573149.94, -23209.73, -0.19040701, 0.32357427, -321880.78, 113034.03, 0.0, 10.001605, 9.998304 
3.1502515e+2, 2.656229e+2, -235355.78, -499407.2, -109919.98, -0.09682241, 0.33013487, -195587.47, 141343.98, 0.0, 10.001623, 9.998135 
3.1503582e+2, 2.7562213e+2, -255764.4, -462068.84, -57226.305, 0.23958685, 0.42590332, -240953.78, -2014.3999, 0.00000000001473293, 10.000821, 9.998103 
3.150439e+2, 2.8562024e+2, -169556.63, -422792.0, 9791.547, 0.19509193, 0.452127, -169178.58, -28220.154, 0.000000108201135, 10.0009775, 9.997621 
3.150497e+2, 2.9561764e+2, 50896.87, -262006.27, -18515.295, -0.16690533, 0.41668832, 51988.66, 94972.84, 0.0000022594174, 10.001799, 9.997658 
3.1505984e+2, 3.0561447e+2, 149637.56, -177948.9, -118471.38, -0.039313234, 0.33241972, 187992.03, 187992.03, 0.000011524727, 10.0020895, 9.9977665 
3.1507152e+2, 3.1561264e+2, 125788.8, -145486.1, -76480.93, 0.2971337, 0.36412886, 145865.34, 145865.34, 0.00003194629, 10.001706, 9.998176 
3.248924e+2, 1.2561756e+2, -1952289.5, -1700734.6, 4973.0366, -0.17471796, 0.31212553, -1700636.3, 8347.108, 0.00015560584, 9.997774, 10.001167 
3.2490197e+2, 1.3561973e+2, -2033372.6, -1745766.3, 91611.28, -0.2984138, 0.4586343, -1719064.4, -108100.7, 0.000061447354, 9.996813, 10.000652 
3.2491282e+2, 1.4561981e+2, -1841096.6, -1504060.6, -56510.824, -0.08458122, 0.3572165, -1494837.9, 18124.129, 0.000012624197, 9.997036, 10.001523 
3.2492113e+2, 1.5562038e+2, -1562789.6, -1333403.8, -97674.664, 0.052949663, 0.25242442, -1297448.6, 117504.86, 0.0000008198343, 9.998342, 10.0013895 
3.249296e+2, 1.6562119e+2, -1437397.9, -1323491.9, 35320.746, -0.0023663184, 0.2465393, -1313428.5, 3514.3074, 0.000000004124255, 9.99897, 10.000479 
3.249382e+2, 1.7562202e+2, -1333581.3, -1231298.9, 48782.906, -0.21420635, 0.2688579, -1211763.4, 7168.834, 0.0, 9.999044, 10.000405 
3.249482e+2, 1.8562229e+2, -1265283.6, -1245502.6, -10875.997, -0.19879538, 0.3053856, -1240692.5, -119763.34, 0.0, 9.999266, 9.999525 
3.2495925e+2, 1.9562215e+2, -1120798.4, -1131519.5, -50896.098, -0.0064163785, 0.3263292, -1074981.3, -52049.254, 0.0, 9.999611, 9.99947 
3.2496923e+2, 2.0562093e+2, -1057640.9, -1128534.9, -1252.0416, 0.013020536, 0.29697788, -1057618.8, -132674.17, 0.0, 9.999706, 9.998774 
3.249784e+2, 2.1561886e+2, -982706.4, -1040571.7, 27114.84, -0.101818405, 0.20068848, -971986.6, -145021.95, 0.0, 9.999545, 9.998782 
3.2498848e+2, 2.2561833e+2, -794085.7, -850154.94, 9874.24, -0.07870028, 0.24926974, -792397.6, -63427.227, 0.0, 9.99995, 9.999224 
3.2499927e+2, 2.3561898e+2, -572749.44, -704912.0, -3870.6597, 0.052495304, 0.37865016, -572636.2, 58329.086, 0.0, 10.000847, 9.999117 
3.250087e+2, 2.4561748e+2, -567623.94, -805280.4, 15535.899, 0.016348373, 0.39377937, -566612.6, -33630.418, 0.0, 10.0008745, 9.997739 
3.2501704e+2, 2.556143e+2, -553192.56, -738141.2, 7368.8716, -0.15105972, 0.2908302, -552899.44, -117883.19, 0.0, 10.000263, 9.997818 
3.250267e+2, 2.6561287e+2, -339769.66, -489600.22, -80262.74, -0.048971146, 0.32342815, -304892.38, 32137.37, 0.0, 10.000652, 9.998666 
3.2503742e+2, 2.7561268e+2, -75378.41, -323259.28, -83564.75, 0.26889858, 0.4239583, -49838.746, 189190.0, 0.00000000010851988, 10.001841, 9.998564 
3.2504547e+2, 2.8561017e+2, -47237.863, -415022.5, -8748.629, 0.20622154, 0.39505935, -47029.875, 94022.28, 0.00000014601811, 10.002033, 9.9971695 
3.250513e+2, 2.9560614e+2, -32693.893, -352354.7, -8215.268, -0.16434106, 0.25900728, -32482.9, 10609.359, 0.000002235968, 10.001438, 9.997211 
3.2506165e+2, 3.0560344e+2, 54092.098, -276091.34, -36616.832, -0.040451184, 0.2661103, 58104.098, 58104.098, 0.000011294619, 10.001662, 9.997299 
3.250742e+2, 3.1560206e+2, 213316.03, -132689.2, 57136.105, 0.36210042, 0.3854293, 222506.83, 222506.83, 0.000031418378, 10.002446, 9.997902 
3.3489043e+2, 1.2560976e+2, -1929341.1, -1651165.5, -30981.824, -0.17939253, 0.3996857, -1647756.8, 61299.652, 0.00013659472, 9.997774, 10.001503 
3.3489984e+2, 1.356101e+2, -2001688.4, -1677607.4, 57730.38, -0.20111875, 0.31097206, -1667630.6, -56579.79, 0.000054929977, 9.996806, 10.001121 
3.3491057e+2, 1.456101e+2, -1928460.4, -1675995.6, -12343.253, -0.020420665, 0.23966898, -1675393.5, -162340.39, 0.000011796083, 9.997, 10.000357 
3.3491817e+2, 1.5561248e+2, -1634814.0, -1484236.8, -46501.32, -0.0887778, 0.43247914, -1471033.9, -55998.66, 0.00000057438905, 9.998348, 10.000348 
3.3492804e+2, 1.6561337e+2, -1396537.8, -1236901.6, 33678.47, -0.068508305, 0.4500915, -1230087.4, 86936.15, 0.00000000201948, 9.998963, 10.001078 
3.349397e+2, 1.7561305e+2, -1299083.9, -1158552.1, 55494.39, 0.018944623, 0.2989918, -1139280.8, 79736.47, 0.0, 9.999036, 10.000912 
3.3494928e+2, 1.8561234e+2, -1338769.4, -1389018.3, -2396.3113, -0.025809346, 0.26447192, -1338655.4, -217631.48, 0.0, 9.999225, 9.998561 
3.3495733e+2, 1.9561133e+2, -1183193.3, -1257526.9, -34540.625, -0.17078808, 0.29361892, -1169621.3, -146580.2, 0.0, 9.999595, 9.998613 
3.349672e+2, 2.0561084e+2, -999584.75, -998507.2, -10774.333, -0.16961162, 0.32968712, -988258.2, -63212.094, 0.0, 9.999667, 9.999683 
3.3497852e+2, 2.1561073e+2, -931140.1, -919647.56, 27550.62, -0.054116607, 0.33842623, -897250.4, -70208.43, 0.0, 9.999487, 9.999639 
3.3498895e+2, 2.256095e+2, -822986.0, -899161.3, 39406.063, -0.03761675, 0.29240838, -806269.4, -77217.87, 0.0, 9.999903, 9.998911 
3.349987e+2, 2.3560736e+2, -599527.94, -749616.1, 29729.742, -0.09831364, 0.17559378, -593853.5, 37218.574, 0.0, 10.000798, 9.998835 
3.350088e+2, 2.4560599e+2, -568017.2, -802713.94, -11592.987, -0.07082409, 0.21409845, -567445.94, -34356.805, 0.0, 10.000858, 9.997764 
3.3501917e+2, 2.556052e+2, -556884.44, -740337.6, -7700.5747, 0.025582986, 0.34454775, -556561.75, -121458.26, 0.0, 10.000239, 9.997814 
3.3502895e+2, 2.6560375e+2, -351358.0, -510346.5, -39622.184, 0.10153038, 0.38303253, -342030.78, -4913.1196, 0.0, 10.000638, 9.998529 
3.350383e+2, 2.7560166e+2, -88641.95, -339944.13, -39057.137, 0.16025436, 0.30737978, -82711.68, 156421.28, 0.000000000044508567, 10.001794, 9.99847 
3.3504683e+2, 2.8559867e+2, -43961.348, -406523.88, -34877.723, 0.12682894, 0.22762977, -40636.67, 100523.35, 0.00000018850986, 10.002024, 9.997233 
3.3505458e+2, 2.9559523e+2, -33161.285, -350862.75, -22251.496, 0.0046420535, 0.14700927, -31610.385, 11583.429, 0.0000021997091, 10.001424, 9.997232 
3.350641e+2, 3.0559373e+2, 85152.03, -206000.73, -10951.364, 0.0287378, 0.24923103, 85563.375, 85563.375, 0.000010789971, 10.001643, 9.997786 
3.3507395e+2, 3.1559297e+2, 264773.34, 1890.9193, 91129.78, 0.07152307, 0.380127, 293274.1, 293274.1, 0.000030295108, 10.002335, 9.998878 
3.448875e+2, 1.2560025e+2, -1976918.9, -1651658.1, -72794.93, -0.22148353, 0.37719414, -1636109.6, 73038.47, 0.00012625929, 9.997354, 10.001704 
3.4489682e+2, 1.3560085e+2, -1974407.5, -1622628.5, -28074.414, -0.17905353, 0.27249724, -1620402.1, -9264.068, 0.000053424294, 9.99681, 10.001502 
3.4490806e+2, 1.4560078e+2, -1928831.9, -1706050.1, 18571.867, 0.024076767, 0.1933002, -1704512.5, -191372.13, 0.0000131995685, 9.997128, 10.000088 
3.4491625e+2, 1.5560324e+2, -1660129.3, -1528824.3, 36887.504, -0.10928994, 0.4193267, -1519171.0, -104048.22, 0.00000089811203, 9.998314, 10.000057 
3.449268e+2, 1.6560392e+2, -1463079.4, -1307872.8, 64522.516, -0.06743316, 0.44803497, -1284553.3, 32561.002, 0.0000000015154811, 9.998669, 10.000733 
3.4493914e+2, 1.7560318e+2, -1424828.9, -1253926.4, 9175.213, 0.100165114, 0.28852457, -1253435.3, -34322.293, 0.0, 9.998329, 10.000594 
3.4494874e+2, 1.8560211e+2, -1464471.1, -1481263.0, -23034.193, 0.037287038, 0.24778964, -1448350.4, -327226.53, 0.0, 9.998494, 9.998282 
3.4495637e+2, 1.9560075e+2, -1282191.1, -1332991.0, -11557.05, -0.19685075, 0.27081305, -1279685.4, -256540.52, 0.0, 9.999031, 9.998369 
3.4496653e+2, 2.0560037e+2, -984605.1, -960574.0, 7229.881, -0.20070949, 0.3141148, -958566.56, -33418.29, 0.0, 9.99963, 9.999967 
3.4497863e+2, 2.1560067e+2, -800602.5, -829200.06, -9293.653, -0.026765104, 0.33547524, -797847.6, 29290.91, 0.0, 10.000257, 9.999891 
3.4498918e+2, 2.2559936e+2, -823340.75, -924728.9, -15625.335, -0.009282497, 0.28284305, -820987.25, -91838.61, 0.0, 10.000017, 9.998676 
3.4499845e+2, 2.3559684e+2, -862565.06, -895395.25, -26951.773, -0.112142615, 0.14934218, -847423.06, -216248.88, 0.0, 9.999086, 9.998652 
3.450088e+2, 2.4559568e+2, -748078.44, -847351.25, -30638.76, -0.08235475, 0.19896221, -739383.8, -206194.86, 0.0, 9.999446, 9.998137 
3.4501997e+2, 2.5559556e+2, -448425.9, -652437.1, -8971.692, 0.0534122, 0.36117187, -448032.13, -12836.074, 0.0, 10.000826, 9.99814 
3.4502986e+2, 2.6559404e+2, -294648.4, -497422.94, -25275.496, 0.10578934, 0.3840403, -291545.34, 45665.563, 0.0, 10.001089, 9.9984 
3.450388e+2, 2.755913e+2, -286009.3, -444729.2, -32898.5, 0.100148655, 0.25884578, -279460.53, -40227.715, 0.0, 10.000487, 9.998378 
3.4504813e+2, 2.8558853e+2, -148387.83, -429347.0, -5663.0864, 0.10226468, 0.19212174, -148273.73, -7016.223, 0.00000016974016, 10.001196, 9.997472 
3.450576e+2, 2.9558584e+2, 203082.14, -214405.2, 9330.509, 0.09373275, 0.1663173, 203290.56, 246573.31, 0.0000019719364, 10.002951, 9.997434 
3.4506682e+2, 3.0558428e+2, 227083.52, -145969.44, -23688.07, 0.0886469, 0.25581983, 228581.64, 228581.64, 0.0000096256135, 10.002638, 9.997724 
3.4507498e+2, 3.1558287e+2, 43168.902, -52762.297, 16498.5, 0.03782769, 0.32010287, 45927.06, 45927.06, 0.00002817607, 10.000558, 9.999365 
3.5488337e+2, 1.2558891e+2, -1969354.4, -1643064.4, -82856.055, -0.39927918, 0.23721914, -1623230.1, 86029.66, 0.00012021515, 9.99738, 10.001751 
3.5489255e+2, 1.3559207e+2, -1947787.1, -1572573.6, -45507.69, -0.29840037, 0.35596344, -1567133.1, 44091.05, 0.000054251253, 9.996834, 10.001833 
3.5490498e+2, 1.4559203e+2, -1884780.3, -1619196.5, 57157.977, -0.01085139, 0.23051806, -1607417.6, -94195.19, 0.000015580335, 9.997145, 10.000679 
3.5491538e+2, 1.5559255e+2, -1623911.1, -1459397.4, 81925.96, -0.045994986, 0.20786798, -1425559.3, -10342.025, 0.0000017221554, 9.998335, 10.000527 
3.5492587e+2, 1.6559267e+2, -1556129.5, -1493435.4, 46143.508, -0.041058715, 0.22601771, -1468998.4, -151782.2, 0.000000007086625, 9.998638, 9.999473 
3.5493633e+2, 1.7559236e+2, -1508181.8, -1425058.5, 2036.8604, -0.022256244, 0.2344237, -1425008.6, -205788.77, 0.0, 9.998319, 9.999424 
3.5494637e+2, 1.8559156e+2, -1443971.5, -1427624.0, -6200.2905, -0.05682468, 0.2549298, -1425538.4, -304308.88, 0.0, 9.998449, 9.998672 
3.5495624e+2, 1.9559044e+2, -1261993.4, -1282066.3, 12905.926, -0.12056622, 0.26156804, -1255680.8, -232436.95, 0.0, 9.998995, 9.998735 
3.5496706e+2, 2.055895e+2, -1014920.3, -1013963.7, 27587.635, -0.11482568, 0.25204834, -986850.2, -61598.984, 0.0, 9.999588, 9.9996195 
3.5497865e+2, 2.1558869e+2, -829151.9, -880428.94, 15214.59, -0.061663855, 0.19381157, -824977.4, 2276.8237, 0.0, 10.00022, 9.999557 
3.54989e+2, 2.2558798e+2, -840070.06, -951375.2, -53813.242, -0.03651047, 0.22571774, -818307.7, -89046.58, 0.0, 9.999981, 9.998511 
3.549984e+2, 2.3558737e+2, -874345.44, -915433.44, -52667.07, -0.03425249, 0.30184072, -838357.4, -207086.06, 0.0, 9.999064, 9.998528 
3.5500854e+2, 2.4558648e+2, -702887.5, -747686.75, 17217.201, -0.060491182, 0.3474799, -697035.1, -163752.84, 0.0, 9.999422, 9.998834 
3.550192e+2, 2.5558534e+2, -407814.75, -559096.7, 41920.844, -0.111785874, 0.33736685, -396975.0, 38319.367, 0.0, 10.000789, 9.998799 
3.5502923e+2, 2.6558375e+2, -309139.9, -521081.0, -50253.51, -0.07538643, 0.3278994, -297828.03, 39481.48, 0.0, 10.001062, 9.998248 
3.5503876e+2, 2.7558166e+2, -299588.5, -469493.2, -45002.72, 0.037485145, 0.2834545, -288404.75, -49076.918, 0.0, 10.000474, 9.998213 
3.5504925e+2, 2.8557968e+2, -120063.84, -370654.22, 56142.527, 0.08333467, 0.28658235, -108060.57, 33284.48, 0.00000011654808, 10.001195, 9.997875 
3.5506037e+2, 2.955779e+2, 224003.84, -163562.77, 72742.31, 0.06046257, 0.30434027, 237207.05, 280567.28, 0.0000016005947, 10.002914, 9.997802 
3.5506964e+2, 3.0557507e+2, 184987.13, -220817.97, -100280.734, 0.09955313, 0.27807727, 208415.45, 208415.45, 0.00000802472, 10.002594, 9.997229 
3.550769e+2, 3.1557205e+2, 39299.285, -44622.77, -52301.29, 0.14466964, 0.22929741, 64391.613, 64391.613, 0.000025457135, 10.0005045, 9.999441 
3.6488143e+2, 1.2557967e+2, -2092459.9, -1755159.4, 41590.94, -0.2959714, 0.22362667, -1750106.6, -40757.67, 0.00011678404, 9.996761, 10.001282 
3.6489064e+2, 1.3558218e+2, -1673027.6, -1459057.9, -5618.0303, -0.26640666, 0.30056292, -1458910.5, 152409.02, 0.000055597222, 9.998804, 10.001657 
3.6490342e+2, 1.4558227e+2, -1547372.9, -1420726.5, 65281.613, 0.015131878, 0.17746203, -1393101.8, 120213.305, 0.000017763748, 9.9993105, 10.000996 
3.6491424e+2, 1.555831e+2, -1555147.1, -1397511.6, 61988.723, -0.0047424776, 0.15629832, -1376055.6, 39248.695, 0.000002786188, 9.998683, 10.000787 
3.649248e+2, 1.6558316e+2, -1581277.8, -1585223.0, 45600.305, -0.020224346, 0.19369555, -1537607.4, -220301.78, 0.00000008230677, 9.998811, 9.99876 
3.649349e+2, 1.7558248e+2, -1378809.3, -1432529.1, 32676.69, -0.05355713, 0.23746398, -1363370.0, -144052.19, 0.0, 9.999513, 9.9987955 
3.6494544e+2, 1.8558174e+2, -1205427.0, -1244177.3, 61351.074, -0.058457553, 0.25922188, -1160464.4, -39138.223, 0.0, 9.999789, 9.999286 
3.649564e+2, 1.9558088e+2, -1123570.0, -1154208.1, 91612.984, -0.032638963, 0.2327709, -1046004.06, -22672.088, 0.0, 9.999679, 9.999285 
3.6496744e+2, 2.055798e+2, -1046453.5, -1083867.0, 115477.76, -0.0357923, 0.20783477, -948177.1, -22836.346, 0.0, 9.999614, 9.999126 
3.6497843e+2, 2.1557851e+2, -960492.2, -996107.94, 79508.695, -0.06727577, 0.15293401, -896821.5, -69468.92, 0.0, 9.999552, 9.999085 
3.6498877e+2, 2.2557786e+2, -863004.9, -956298.8, 4002.6982, -0.045726642, 0.2105645, -862833.44, -133472.92, 0.0, 9.999795, 9.998567 
3.649986e+2, 2.3557773e+2, -695535.0, -824665.75, 15679.966, 0.021050027, 0.3288447, -693658.3, -62292.55, 0.0, 10.00027, 9.99857 
3.650089e+2, 2.4557672e+2, -597300.2, -688432.8, 95691.26, -0.0006182657, 0.3560796, -536880.2, -3503.616, 0.0, 10.000108, 9.998911 
3.6501944e+2, 2.55575e+2, -600629.6, -641226.5, 66985.664, -0.09544799, 0.28168786, -550934.44, -115542.64, 0.0, 9.999424, 9.998889 
3.6502954e+2, 2.6557332e+2, -468310.22, -615112.44, -32830.184, -0.09709438, 0.26885414, -461302.72, -123894.93, 0.0, 10.000041, 9.998098 
3.650393e+2, 2.7557158e+2, -131694.72, -403427.16, -35818.234, -0.01660652, 0.27408087, -127052.67, 112372.54, 0.0, 10.001683, 9.998089 
3.650503e+2, 2.8556997e+2, -25059.549, -274154.97, 63942.37, 0.05115708, 0.29151192, -9604.547, 131835.0, 0.000000055764154, 10.001621, 9.998338 
3.6506224e+2, 2.9556853e+2, -145305.39, -289639.9, 70903.32, 0.10031964, 0.29468518, -116302.53, -72852.086, 0.0000011854916, 10.00016, 9.998261 
3.6507162e+2, 3.0556527e+2, -141504.05, -382967.84, -85330.32, 0.1548348, 0.20730636, -114393.27, -114393.27, 0.0000066145303, 10.000364, 9.997192 
3.6507842e+2, 3.1556326e+2, 244706.69, 68471.984, -27650.576, 0.18569157, 0.2635112, 248943.13, 248943.13, 0.00002317202, 10.001849, 9.9995775 
3.7488127e+2, 1.2557271e+2, -2164025.3, -1903366.5, 136266.95, -0.015800266, 0.35507876, -1845137.1, -135723.6, 0.000116595606, 9.99676, 10.000264 
3.7489107e+2, 1.3557121e+2, -1713913.5, -1557827.0, 68790.08, -0.11896872, 0.10443164, -1531837.4, 79586.46, 0.000057458026, 9.99886, 10.000951 
3.7490332e+2, 1.4557141e+2, -1543556.4, -1413197.5, 34695.457, 0.058154143, 0.023374079, -1404538.4, 108881.04, 0.000019792478, 9.999315, 10.001042 
3.7491268e+2, 1.555749e+2, -1549241.9, -1391953.0, 45799.88, -0.041515827, 0.26120996, -1379588.8, 35795.477, 0.000003853391, 9.998709, 10.000813 
3.7492332e+2, 1.6557543e+2, -1597150.1, -1615116.6, 69526.8, -0.059180513, 0.35382542, -1536028.6, -218646.36, 0.00000020238203, 9.998797, 9.99856 
3.7493473e+2, 1.755736e+2, -1386225.4, -1452573.4, 61889.08, -0.036419474, 0.30401313, -1349179.9, -129773.58, 0.0, 9.999528, 9.998652 
3.749458e+2, 1.8557255e+2, -1146734.0, -1118099.1, 53023.195, -0.012425463, 0.255416, -1077494.4, 43920.008, 0.0, 9.999772, 10.000157 
3.7495676e+2, 1.9557205e+2, -1073264.5, -1042939.9, 92370.68, 0.02132896, 0.1759941, -964495.4, 58914.67, 0.0, 9.999651, 10.00006 
3.7496743e+2, 2.0557122e+2, -1102160.9, -1190467.6, 110000.05, -0.0044282563, 0.17653705, -1027783.5, -102366.21, 0.0, 9.999574, 9.998415 
3.7497786e+2, 2.1557008e+2, -1010895.0, -1090803.8, 84284.8, -0.08851465, 0.21057738, -957574.1, -130140.12, 0.0, 9.999508, 9.998457 
3.7498832e+2, 2.2556898e+2, -853198.94, -923059.0, 17578.715, -0.077963755, 0.23775414, -849025.06, -119577.98, 0.0, 9.999739, 9.998822 
3.7499887e+2, 2.3556784e+2, -684563.1, -793403.56, 34791.617, 0.011903988, 0.22678073, -674392.2, -42934.324, 0.0, 10.00023, 9.998804 
3.7500966e+2, 2.4556638e+2, -638970.25, -765659.6, 67523.45, 0.055333328, 0.22335379, -609730.0, -76258.42, 0.0, 10.00007, 9.9984 
3.7502047e+2, 2.555646e+2, -638784.6, -717671.1, 51384.184, 0.05573119, 0.19429255, -613450.5, -177962.25, 0.0, 9.99941, 9.998372 
3.750306e+2, 2.6556283e+2, -482034.63, -639158.75, 24883.447, -0.0023850505, 0.2071393, -478188.06, -140681.84, 0.0, 10.000026, 9.99794 
3.7504014e+2, 2.7556106e+2, -144548.9, -419468.28, 24942.555, -0.10897664, 0.22301513, -142304.28, 97221.19, 0.0, 10.001638, 9.998 
3.7505108e+2, 2.8555936e+2, 4983.14, -205000.39, 5570.9985, -0.04243568, 0.21033373, 5130.8384, 146671.66, 0.00000003400916, 10.001591, 9.99883 
3.7506312e+2, 2.9555765e+2, -113661.0, -222586.27, 26583.863, 0.16043167, 0.14208674, -107519.34, -63965.93, 0.0000008994765, 10.000147, 9.998733 
3.750725e+2, 3.0555478e+2, -115759.09, -320548.5, -32277.543, 0.19746317, 0.04644775, -110792.19, -110792.19, 0.000005653272, 10.000336, 9.997632 
3.7507924e+2, 3.1555638e+2, 254770.95, 103632.16, 28287.457, 0.058969915, 0.41938645, 259891.78, 259891.78, 0.000021689997, 10.001795, 9.999843 
3.8487947e+2, 1.2556356e+2, -1907199.9, -1786479.5, 147532.5, 0.045119666, 0.34747317, -1687437.1, 22063.281, 0.00011972094, 9.998561, 10.000194 
3.848901e+2, 1.3556184e+2, -1818565.9, -1608582.5, 92698.15, -0.065390214, 0.07034987, -1573516.4, 37995.344, 0.000060093465, 9.998145, 10.000949 
3.849023e+2, 1.4556207e+2, -1720929.6, -1580554.4, 36031.137, 0.074052416, 0.031012643, -1571846.3, -58337.66, 0.000021868578, 9.998439, 10.000321 
3.8491148e+2, 1.5556504e+2, -1506409.1, -1440589.8, -23376.61, -0.060994532, 0.2868555, -1433132.3, -17649.654, 0.000004862859, 9.999308, 10.000187 
3.8492236e+2, 1.6556537e+2, -1434912.0, -1475507.4, 22492.404, -0.07247809, 0.36072305, -1424912.8, -107431.22, 0.00000029520132, 9.999634, 9.999123 
3.849343e+2, 1.7556366e+2, -1354299.8, -1377065.5, 68279.42, -0.02572365, 0.26428464, -1296460.9, -76960.89, 0.0, 9.999482, 9.999195 
3.849456e+2, 1.8556269e+2, -1165131.9, -1130983.8, 49939.8, -0.0020341391, 0.20053025, -1095279.9, 26226.002, 0.0, 9.999665, 10.000119 
3.849566e+2, 1.9556217e+2, -1014865.75, -1021650.9, 7074.9478, 0.02261569, 0.12361539, -1010412.0, 13091.4, 0.0, 10.000077, 10.000002 
3.8496733e+2, 2.0556153e+2, -1061003.3, -1180114.8, 12491.528, 0.011076293, 0.15324803, -1059707.4, -134197.58, 0.0, 9.999894, 9.998331 
3.849777e+2, 2.1556084e+2, -1058337.6, -1123689.6, 27180.066, -0.039291166, 0.23705836, -1048510.94, -220987.55, 0.0, 9.99922, 9.998371 
3.8498846e+2, 2.2555956e+2, -874332.6, -925774.8, 24484.56, -0.026331117, 0.24684359, -864542.2, -135004.28, 0.0, 9.99956, 9.998891 
3.8499963e+2, 2.355578e+2, -609220.06, -747618.0, 14443.116, 0.041102335, 0.1676539, -607728.8, 23824.547, 0.0, 10.000715, 9.998881 
3.8501042e+2, 2.455563e+2, -496924.1, -696302.1, 21589.465, 0.0808902, 0.15527576, -494613.1, 38953.633, 0.0, 10.001039, 9.998407 
3.8502088e+2, 2.5555494e+2, -457177.63, -634951.6, 40269.77, 0.09218433, 0.16794197, -448481.06, -12901.993, 0.0, 10.000671, 9.998335 
3.8503125e+2, 2.6555306e+2, -428882.7, -627367.3, 86056.42, 0.040434964, 0.17821057, -396767.7, -59169.426, 0.0, 10.000446, 9.997817 
3.8504156e+2, 2.7555078e+2, -347480.22, -531129.5, 74236.38, -0.05860904, 0.15475774, -321225.22, -81602.31, 0.0, 10.000308, 9.99787 
3.8505223e+2, 2.855492e+2, -202206.25, -340098.8, -16760.559, -0.017844008, 0.1750087, -200198.28, -58559.453, 0.000000026095549, 10.000325, 9.998506 
3.8506308e+2, 2.9554805e+2, -91049.51, -244140.11, -58491.207, 0.12940165, 0.19853173, -71259.95, -27611.8, 0.0000006696504, 10.000454, 9.998427 
3.8507298e+2, 3.0554453e+2, 23759.494, -252933.4, -77113.625, 0.16667454, 0.050289366, 43799.44, 43799.44, 0.000004955279, 10.0012865, 9.997639 
3.850816e+2, 3.1554607e+2, 330654.84, 85477.87, -77203.05, 0.0806009, 0.419036, 352939.56, 352939.56, 0.000021234744, 10.002554, 9.999353 
3.9487576e+2, 1.2555212e+2, -1850676.8, -1667492.4, 149229.77, -0.20741221, 0.192218, -1583988.5, 125622.305, 0.0001233599, 9.998565, 10.001006 
3.9488736e+2, 1.3555402e+2, -1768052.8, -1505196.3, 80560.13, -0.16267362, 0.19159487, -1482471.0, 129112.31, 0.00006261113, 9.998154, 10.001655 
3.9490017e+2, 1.4555426e+2, -1836057.5, -1812763.8, 65277.99, 0.004836794, 0.2033671, -1758101.8, -244519.53, 0.000023583854, 9.99841, 9.998743 
3.9491037e+2, 1.5555343e+2, -1599068.9, -1640321.5, 12220.066, -0.11457946, 0.23564328, -1595720.8, -180120.86, 0.000005569423, 9.999334, 9.998806 
3.9492175e+2, 1.6555281e+2, -1336030.8, -1270005.0, 8691.956, -0.110292636, 0.20487398, -1268880.0, 48725.332, 0.00000035120044, 9.999632, 10.000535 
3.9493352e+2, 1.7555253e+2, -1264576.0, -1189363.1, 66998.445, -0.06312715, 0.110379025, -1150138.4, 69460.76, 0.0, 9.999475, 10.000489 
3.9494473e+2, 1.8555205e+2, -1242547.4, -1281239.8, 62367.523, -0.06432722, 0.08605932, -1196594.4, -74992.91, 0.0, 9.99962, 9.999111 
3.9495578e+2, 1.9555122e+2, -1084065.4, -1155625.5, 24380.293, -0.077746466, 0.08074618, -1076548.8, -52936.66, 0.0, 10.000038, 9.999101 
3.9496684e+2, 2.0555076e+2, -1029507.75, -1102923.5, -19145.29, -0.0345718, 0.1393958, -1024815.0, -99196.32, 0.0, 9.999845, 9.998885 
3.9497775e+2, 2.1555063e+2, -1030587.3, -1050477.6, 9100.753, 0.038601313, 0.22528003, -1027051.7, -199429.95, 0.0, 9.999158, 9.9989 
3.9498907e+2, 2.2554952e+2, -889417.7, -947266.4, 63953.27, 0.07143214, 0.23222946, -848152.06, -118518.484, 0.0, 9.999515, 9.998769 
3.950007e+2, 2.355475e+2, -620491.44, -762604.56, 59980.96, 0.06733145, 0.14232475, -598560.06, 33093.02, 0.0, 10.000677, 9.998799 
3.9501104e+2, 2.4554639e+2, -466370.2, -623567.3, 3904.1582, 0.03134302, 0.14629962, -466273.28, 67389.45, 0.0, 10.001002, 9.998923 
3.9502043e+2, 2.5554594e+2, -427167.75, -562786.25, 32394.492, -0.030713303, 0.19721961, -419827.16, 15837.666, 0.0, 10.0006275, 9.998852 
3.9503127e+2, 2.6554397e+2, -440737.8, -644139.94, 78762.93, -0.0095014125, 0.17812598, -413804.88, -76120.81, 0.0, 10.000413, 9.997721 
3.9504346e+2, 2.755407e+2, -360866.66, -555515.1, 75540.76, 0.08653985, 0.06848631, -334990.2, -95272.3, 0.0, 10.00029, 9.997715 
3.9505363e+2, 2.8553942e+2, -279369.03, -496539.94, -15431.461, 0.07422783, 0.18548316, -278278.0, -136544.4, 0.000000010243951, 10.000313, 9.9974375 
3.9506197e+2, 2.9553974e+2, -166835.78, -394989.94, -43510.43, -0.03800072, 0.45795515, -158819.72, -115084.8, 0.00000051187845, 10.000425, 9.997408 
3.950729e+2, 3.055345e+2, -7797.1665, -311576.78, -28202.295, 0.020678854, 0.21085972, -5201.1074, -5201.1074, 0.0000058094397, 10.001264, 9.997244 
3.9508513e+2, 3.1553257e+2, 233833.6, -97298.05, -25044.873, 0.15392694, 0.27593803, 235717.13, 235717.13, 0.000025375839, 10.002485, 9.998125 
4.048751e+2, 1.2554085e+2, -1721041.4, -1616018.1, 83797.766, -0.16783863, 0.169251, -1569638.3, 140082.2, 0.00012458346, 9.999482, 10.000924 
4.048861e+2, 1.355431e+2, -1649927.3, -1464766.8, -102909.836, -0.14153667, 0.21671379, -1418921.8, 192768.5, 0.00006386204, 9.999033, 10.00151 
4.048987e+2, 1.4554341e+2, -1761004.6, -1795780.4, -41854.094, -0.010362498, 0.25301224, -1733070.3, -219381.27, 0.000024485202, 9.99901, 9.998569 
4.0491e+2, 1.5554155e+2, -1605624.1, -1658484.8, 371.8984, -0.08048403, 0.19837426, -1605621.6, -189904.5, 0.000005781208, 9.999354, 9.998672 
4.0492165e+2, 1.6554077e+2, -1308363.0, -1207220.1, -10318.578, -0.07636141, 0.13597083, -1206178.1, 111544.5, 0.0000003430959, 9.999621, 10.000964 
4.0493295e+2, 1.7554106e+2, -1192724.9, -1110799.3, -40956.723, -0.080518775, 0.05468002, -1093836.3, 125872.01, 0.0, 9.999786, 10.000873 
4.04944e+2, 1.8554111e+2, -1253175.1, -1306073.8, -37115.547, -0.096664704, 0.076863766, -1234048.9, -112342.76, 0.0, 9.999628, 9.99894 
4.0495518e+2, 1.955408e+2, -1218614.5, -1235387.6, -16035.085, -0.095792755, 0.140438, -1208905.3, -185189.42, 0.0, 9.999175, 9.998975 
4.0496668e+2, 2.0554024e+2, -989880.3, -1022321.9, -7928.2505, -0.03198267, 0.16528778, -988046.44, -62323.64, 0.0, 9.999855, 9.9994335 
4.0497836e+2, 2.1553944e+2, -662061.5, -818405.1, 9301.185, 0.07363505, 0.13217965, -661510.06, 166217.53, 0.0, 10.001451, 9.999393 
4.0498963e+2, 2.2553854e+2, -639056.1, -830088.94, 49308.64, 0.089620374, 0.14055692, -627079.6, 102656.57, 0.0, 10.001256, 9.998728 
4.050004e+2, 2.3553751e+2, -778469.06, -848553.25, 43564.426, 0.027343195, 0.15310349, -757602.25, -125853.92, 0.0, 9.999634, 9.998711 
4.0501088e+2, 2.4553643e+2, -677263.94, -762294.4, -9118.604, -0.01882933, 0.1827031, -676297.06, -142537.33, 0.0, 9.999711, 9.998594 
4.050211e+2, 2.5553533e+2, -365009.88, -560391.3, -56647.824, -0.050990958, 0.20028605, -349773.84, 85996.28, 0.0, 10.001184, 9.998594 
4.050322e+2, 2.6553336e+2, -249522.77, -520523.44, -44313.29, -0.015302106, 0.17547004, -242460.81, 95328.56, 0.0, 10.001585, 9.998007 
4.0504408e+2, 2.7553055e+2, -224180.77, -461866.78, -22068.387, 0.081119105, 0.081136204, -222149.16, 17667.793, 0.0, 10.001104, 9.997967 
4.0505436e+2, 2.8552938e+2, -130860.4, -456363.3, -25880.682, 0.06382479, 0.21425249, -128815.48, 13015.653, 0.0000000008315615, 10.001468, 9.997155 
4.0506333e+2, 2.955295e+2, 122397.94, -279436.63, -6661.4175, -0.046101052, 0.4955661, 122508.336, 166343.45, 0.00000071034475, 10.002517, 9.99719 
4.0507492e+2, 3.0552423e+2, 156132.58, -223636.13, 46547.52, 0.0478316, 0.24593714, 161754.6, 161754.6, 0.000009258835, 10.002345, 9.997329 
4.0508753e+2, 3.1552148e+2, -2152.3364, -280943.34, 65429.523, 0.22308327, 0.22417982, 12439.591, 12439.591, 0.000036115405, 10.001145, 9.997514 
4.1487733e+2, 1.2552963e+2, -1784940.1, -1754240.9, 80125.89, 0.07883632, 0.27485114, -1688007.6, 21822.797, 0.00012201354, 9.999507, 9.99996 
4.1488624e+2, 1.35529e+2, -1712470.4, -1610714.5, -118252.4, -0.049164455, 0.14450815, -1532859.4, 78974.16, 0.00006271878, 9.999093, 10.00048 
4.148977e+2, 1.455294e+2, -1668724.1, -1605283.1, -33614.527, -0.02439399, 0.17083302, -1590785.4, -76955.12, 0.000024127196, 9.99902, 9.999869 
4.1491032e+2, 1.5552945e+2, -1521657.8, -1481958.0, 18366.697, 0.00008663282, 0.17650296, -1474764.3, -58930.742, 0.0000053776757, 9.999348, 9.999886 
4.1492206e+2, 1.655293e+2, -1360095.5, -1308134.5, -7868.2827, -0.009690567, 0.15468499, -1306969.1, 10863.908, 0.0000002359893, 9.999592, 10.000286 
4.1493243e+2, 1.755292e+2, -1233619.5, -1198028.5, -31630.592, -0.12323136, 0.10150865, -1179531.1, 40296.266, 0.0, 9.999794, 10.000272 
4.149432e+2, 1.8552983e+2, -1204550.3, -1202766.1, -59156.64, -0.15104331, 0.17288706, -1144494.8, -22674.08, 0.0, 9.999618, 9.999654 
4.149546e+2, 1.9553095e+2, -1173259.8, -1133286.9, -25470.092, -0.08071713, 0.3062346, -1120897.6, -97083.336, 0.0, 9.999143, 9.999688 
4.149667e+2, 2.0553002e+2, -959654.7, -952114.06, 49052.64, -0.02197427, 0.2347003, -906687.06, 19134.299, 0.0, 9.999817, 9.999936 
4.1497934e+2, 2.1552737e+2, -634953.06, -749262.94, 67871.82, 0.01695431, -0.036531717, -603376.5, 224463.28, 0.0, 10.001395, 9.999893 
4.1498986e+2, 2.2552674e+2, -646624.5, -837863.25, -15108.394, -0.021928307, -0.023555994, -645438.25, 84406.95, 0.0, 10.001219, 9.998695 
4.149986e+2, 2.3552772e+2, -788311.9, -861741.6, -6917.89, -0.1264097, 0.19253854, -787665.8, -155825.7, 0.0, 9.999601, 9.998637 
4.150097e+2, 2.4552639e+2, -763022.75, -934554.2, 43519.19, -0.11873758, 0.26039755, -752613.25, -218755.14, 0.0, 9.999687, 9.997421 
4.150227e+2, 2.555231e+2, -445458.06, -721022.56, -202.96677, -0.017792067, 0.17392525, -445457.9, -9562.453, 0.0, 10.001153, 9.997508 
4.150338e+2, 2.6552114e+2, -201727.13, -415205.47, -65926.07, -0.024661886, 0.16841754, -183009.14, 154905.52, 0.0, 10.001564, 9.998736 
4.1504323e+2, 2.755203e+2, -180015.86, -360616.13, -31538.951, -0.12456129, 0.19692019, -174666.53, 65253.117, 0.0, 10.001065, 9.998679 
4.1505435e+2, 2.8551903e+2, -97176.79, -386043.56, 9918.282, -0.09683055, 0.26068753, -96836.65, 45094.67, 0.00000000001177225, 10.001462, 9.997643 
4.1506684e+2, 2.9551739e+2, 151054.55, -211099.81, 33585.01, 0.040127724, 0.31473017, 154142.78, 198091.98, 0.0000013013552, 10.002475, 9.997682 
4.1507882e+2, 3.0551368e+2, 196854.53, -134065.17, -429.81165, 0.19128795, 0.16393411, 196855.1, 196855.1, 0.000013961503, 10.002326, 9.997952 
4.150886e+2, 3.155129e+2, -9528.224, -280323.6, 28468.027, 0.18829624, 0.28131703, -6567.817, -6567.817, 0.00004972542, 10.001082, 9.997546 
4.2487684e+2, 1.2551609e+2, -1969982.9, -1824400.0, 36384.594, 0.15178083, 0.25571814, -1815813.1, -105848.336, 0.000114420596, 9.998148, 10.000137 
4.2488593e+2, 1.3551559e+2, -1721836.8, -1617868.6, -114299.66, 0.018194132, 0.14372993, -1544286.9, 67682.016, 0.00005866896, 9.999042, 10.000456 
4.2489657e+2, 1.4551677e+2, -1566656.0, -1477450.3, -16791.791, -0.054720446, 0.21169372, -1474394.1, 39562.81, 0.00002226237, 9.999374, 10.000579 
4.24909e+2, 1.5551761e+2, -1525724.3, -1410424.6, -22866.16, -0.04253264, 0.2253618, -1406055.5, 9893.085, 0.0000044458184, 9.9990015, 10.000545 
4.2492118e+2, 1.6551752e+2, -1454194.3, -1382657.3, -28369.734, -0.028655399, 0.19424783, -1372772.4, -54825.4, 0.00000009724189, 9.999072, 10.000025 
4.2493227e+2, 1.7551683e+2, -1282601.5, -1245727.4, -29481.672, -0.10328245, 0.10812322, -1229392.4, -9442.839, 0.0, 9.999562, 10.000055 
4.2494333e+2, 1.8551727e+2, -1134238.6, -1130380.0, -68945.19, -0.111993775, 0.1512883, -1063337.1, 58607.563, 0.0, 9.999938, 9.999993 
4.2495465e+2, 1.955185e+2, -1000347.2, -1014843.6, -70463.45, -0.0355288, 0.26174492, -936760.1, 87174.88, 0.0, 10.000181, 9.999997 
4.249667e+2, 2.0551787e+2, -965078.25, -959328.56, -8569.38, -0.0010007074, 0.208188, -953164.6, -27225.639, 0.0, 9.999803, 9.999889 
4.2497915e+2, 2.1551569e+2, -999941.7, -930529.3, -41762.9, -0.0145197315, -0.010335026, -910933.94, -82979.22, 0.0, 9.998912, 9.999845 
4.2498982e+2, 2.2551501e+2, -902168.06, -951296.75, -144336.98, -0.05653999, -0.0035140854, -780320.06, -50358.844, 0.0, 9.999426, 9.99878 
4.2499897e+2, 2.3551556e+2, -560756.44, -740083.06, -137793.4, -0.12274144, 0.16078784, -486022.28, 145937.9, 0.0, 10.001114, 9.998744 
4.2501038e+2, 2.4551451e+2, -499846.0, -764876.3, -4455.9736, -0.09758039, 0.23348935, -499771.1, 34203.516, 0.0, 10.001305, 9.99781 
4.2502362e+2, 2.5551212e+2, -545724.75, -730334.2, 62331.816, 0.004995706, 0.19915825, -526649.8, -90647.59, 0.0, 10.000293, 9.997861 
4.25035e+2, 2.655103e+2, -427070.38, -547046.8, 11054.798, 0.015597801, 0.19636464, -426060.25, -88039.71, 0.0, 10.000116, 9.998531 
4.2504486e+2, 2.7550882e+2, -254217.23, -413873.94, -33007.617, -0.043751307, 0.18673155, -247662.31, -7630.557, 0.0, 10.000635, 9.998521 
4.2505595e+2, 2.855071e+2, -206946.73, -415725.97, -16171.615, -0.036895838, 0.19839858, -205701.55, -63653.72, 0.0000000012455732, 10.000609, 9.99785 
4.2506802e+2, 2.9550505e+2, -172297.39, -340168.66, -24476.127, 0.031687055, 0.19290231, -168801.5, -124732.84, 0.0000019618685, 10.000134, 9.997926 
4.2508024e+2, 3.055028e+2, -54314.242, -180277.84, -74133.984, 0.20851882, 0.14604948, -20020.377, -20020.377, 0.000018429422, 10.0002775, 9.998626 
4.250902e+2, 3.1550288e+2, 1718.1011, -219179.28, -60666.72, 0.25218126, 0.27869132, 17282.76, 17282.76, 0.00006268099, 10.000928, 9.998042 
4.3487316e+2, 1.2550013e+2, -1877247.6, -1625183.5, 77492.195, -0.052728485, 0.10835874, -1603265.9, 106858.87, 0.00010246441, 9.998129, 10.001509 
4.3488514e+2, 1.355029e+2, -1647783.4, -1468178.4, -75943.84, 0.021870563, 0.2147211, -1440371.5, 171724.52, 0.000052240124, 9.999054, 10.001479 
4.3489516e+2, 1.455055e+2, -1566781.5, -1471231.1, -30173.691, -0.14224234, 0.3748284, -1462500.4, 51568.375, 0.000019361623, 9.999349, 10.000633 
4.349059e+2, 1.55506e+2, -1518971.5, -1399811.6, -31032.69, -0.2656903, 0.34656516, -1392214.3, 23848.027, 0.0000034941986, 9.999013, 10.000612 
4.3491873e+2, 1.6550536e+2, -1444184.1, -1357886.6, -14967.257, -0.19073573, 0.24817337, -1355364.5, -37299.117, 0.000000032016867, 9.999055, 10.000203 
4.3493235e+2, 1.7550397e+2, -1272007.8, -1221472.5, -6876.3813, -0.061840683, 0.073406234, -1220553.5, -478.725, 0.0, 9.999549, 10.00023 
4.3494427e+2, 1.8550341e+2, -1145345.0, -1142543.5, -63552.418, -0.018958166, 0.010245268, -1080376.4, 41701.945, 0.0, 9.999894, 9.999931 
4.349553e+2, 1.9550337e+2, -1012284.9, -1030503.06, -59685.86, -0.0023742516, 0.0014635029, -961017.0, 63061.434, 0.0, 10.000144, 9.9999075 
4.3496647e+2, 2.0550373e+2, -1018480.5, -1055630.9, -47104.26, -0.0132106235, 0.084076405, -986421.2, -60344.953, 0.0, 9.9997425, 9.999255 
4.3497762e+2, 2.1550441e+2, -1050045.6, -1020759.4, -67232.734, -0.06504201, 0.21327569, -966593.6, -138521.36, 0.0, 9.998857, 9.999249 
4.3498927e+2, 2.2550343e+2, -899366.75, -932130.7, -85345.03, -0.05955574, 0.21040125, -828845.7, -98762.016, 0.0, 9.999369, 9.9989395 
4.3500137e+2, 2.3550104e+2, -550485.1, -706040.7, -76335.61, -0.0024386402, 0.065088786, -519283.53, 112824.74, 0.0, 10.001061, 9.999002 
4.350128e+2, 2.4550083e+2, -367873.3, -483737.8, -47526.977, 0.0050715734, 0.108882114, -350872.53, 183236.63, 0.0, 10.001274, 9.999756 
4.350236e+2, 2.5550243e+2, -424389.88, -471162.44, 30099.299, -0.033300266, 0.27868444, -409659.4, 26431.385, 0.0, 10.000261, 9.999656 
4.3503565e+2, 2.655007e+2, -506093.16, -710758.8, 27307.932, 0.06081099, 0.25847134, -502512.2, -164404.84, 0.0, 10.000113, 9.997411 
4.350487e+2, 2.7549613e+2, -330146.38, -570762.1, -10389.062, 0.26638374, 0.047720384, -329698.63, -89545.14, 0.0, 10.000627, 9.99745 
4.3505892e+2, 2.854935e+2, -212267.02, -425628.78, -37267.676, 0.19202434, 0.026254522, -205944.84, -63763.984, 0.000000012355592, 10.0006075, 9.997783 
4.350668e+2, 2.954925e+2, -179041.52, -348910.63, -33406.223, -0.115152314, 0.13232782, -172708.03, -128515.1, 0.0000026583295, 10.0001135, 9.997877 
4.3507913e+2, 3.054917e+2, -5248.846, -79748.45, -53885.703, 0.05928514, 0.19345981, 23008.73, 23008.73, 0.000022356537, 10.00028, 9.999315 
4.3509194e+2, 3.1549117e+2, 59989.547, -89074.67, -23108.83, 0.31517592, 0.19869684, 63489.824, 63489.824, 0.000073377385, 10.000897, 9.998945 
4.4487134e+2, 1.2548707e+2, -1725927.0, -1548036.5, 217430.42, -0.09460542, 0.1158488, -1402062.1, 308190.56, 0.000089493355, 9.999162, 10.001537 
4.4488388e+2, 1.3549009e+2, -1646177.5, -1490710.9, -59145.848, -0.009723512, 0.26927987, -1470767.8, 141454.61, 0.000044922584, 9.99918, 10.00126 
4.4489372e+2, 1.454923e+2, -1568624.0, -1494174.0, -77702.086, -0.22220899, 0.40845838, -1445240.4, 68958.82, 0.00001621496, 9.999432, 10.000437 
4.4490552e+2, 1.5549195e+2, -1438024.0, -1378200.8, -111267.0, -0.23164302, 0.31514668, -1292895.0, 123305.17, 0.0000027558995, 9.99965, 10.000453 
4.449185e+2, 1.654913e+2, -1389211.5, -1324868.8, -98522.44, -0.13061024, 0.21938416, -1253398.1, 64805.836, 0.000000035556127, 9.9993925, 10.000272 
4.449314e+2, 1.754906e+2, -1388131.5, -1268300.9, -104804.75, -0.06654756, 0.10767122, -1207493.9, 12714.259, 0.0, 9.998714, 10.000311 
4.4494346e+2, 1.8549041e+2, -1267464.4, -1169692.4, -118005.414, -0.038945355, 0.06539766, -1090847.8, 31360.344, 0.0, 9.998913, 10.000219 
4.4495532e+2, 1.9549052e+2, -1042359.06, -1014065.3, -99429.734, 0.009003161, 0.040400885, -927781.06, 96424.8, 0.0, 9.999801, 10.000187 
4.4496647e+2, 2.0549092e+2, -962256.4, -1040887.25, -82264.18, -0.007622939, 0.12043913, -910395.6, 15808.006, 0.0, 10.000184, 9.999143 
4.4497675e+2, 2.1549156e+2, -873274.5, -946352.9, -69031.76, -0.098313384, 0.25822613, -831708.0, -3506.3726, 0.0, 10.000116, 9.999153 
4.4498885e+2, 2.2549075e+2, -765647.4, -819560.56, -2554.4182, -0.06891154, 0.2540937, -765526.6, -35315.754, 0.0, 10.000078, 9.999369 
4.4500256e+2, 2.3548871e+2, -666785.5, -717294.1, 17259.02, 0.06459986, 0.09970991, -661451.3, -29221.285, 0.0, 10.000065, 9.999407 
4.4501403e+2, 2.4548848e+2, -525884.7, -536235.75, -56511.832, 0.06586943, 0.10888469, -474311.88, 59918.043, 0.0, 10.000088, 9.999965 
4.4502366e+2, 2.554897e+2, -423607.88, -446882.78, -115858.55, -0.048813805, 0.22224039, -318803.78, 117410.45, 0.0, 10.000165, 9.9998665 
4.4503567e+2, 2.6548845e+2, -423400.5, -648674.25, -78534.055, 0.029084513, 0.22875006, -398725.1, -60498.383, 0.0, 10.0005865, 9.997605 
4.4504967e+2, 2.7548504e+2, -217216.1, -496031.6, -27244.287, 0.27025953, 0.11612988, -214578.88, 25684.117, 0.0, 10.001317, 9.997629 
4.4506013e+2, 2.8548262e+2, -105515.42, -365273.25, -38889.516, 0.21866862, 0.09941899, -99818.06, 42471.34, 0.00000003060041, 10.001297, 9.997865 
4.4506755e+2, 2.954809e+2, -99339.79, -299166.78, -31190.215, -0.070394196, 0.12730962, -94584.586, -50276.46, 0.000003132682, 10.000615, 9.997973 
4.4507998e+2, 3.0548048e+2, 89431.86, -32177.898, -8938.092, 0.09018915, 0.21720311, 90085.28, 90085.28, 0.000025258936, 10.000924, 9.9993305 
4.450926e+2, 3.1547987e+2, 253864.58, 45494.746, -35093.496, 0.23612712, 0.2193588, 259616.25, 259616.25, 0.00008019797, 10.002029, 9.999335 
4.5487115e+2, 1.254771e+2, -1824378.5, -1748658.1, 206359.16, -0.055044685, 0.28600025, -1576714.9, 133631.53, 0.00007906838, 9.999157, 10.000159 
4.5488197e+2, 1.3547705e+2, -1755079.6, -1721911.8, -51415.457, -0.13193478, 0.29494336, -1684471.9, -72122.77, 0.00003857364, 9.999202, 9.999663 
4.54892e+2, 1.4547688e+2, -1598067.4, -1555821.9, -69318.164, -0.34886748, 0.2974565, -1504479.6, 9870.851, 0.000013268856, 9.999434, 10.000011 
4.549078e+2, 1.5547536e+2, -1465374.6, -1437045.5, -97305.96, 0.018361313, 0.12766486, -1352878.5, 63484.484, 0.0000020825275, 9.99966, 10.000044 
4.5492047e+2, 1.654753e+2, -1390888.4, -1327638.3, -130803.3, 0.11276936, 0.11078175, -1224691.3, 93671.79, 0.00000004449902, 9.999389, 10.000256 
4.5492932e+2, 1.7547663e+2, -1387257.4, -1268214.1, -124656.484, -0.15732138, 0.20446675, -1189597.9, 30753.072, 0.0, 9.998716, 10.000313 
4.5494065e+2, 1.8547826e+2, -1229092.3, -1078838.9, -87288.695, -0.21920621, 0.3101663, -1038799.0, 83535.805, 0.0, 9.998868, 10.000863 
4.5495462e+2, 1.9547997e+2, -1004680.75, -926267.25, -62431.93, -0.053649325, 0.38406253, -891752.1, 132564.9, 0.0, 9.999762, 10.000806 
4.5496646e+2, 2.0547949e+2, -941580.3, -984638.4, -90623.25, -0.033619016, 0.32370335, -869963.9, 56357.0, 0.0, 10.000127, 9.9995575 
4.5497638e+2, 2.1547715e+2, -851669.1, -885287.3, -67006.65, -0.15743467, 0.12312764, -799395.4, 28947.482, 0.0, 10.000047, 9.999606 
4.5498842e+2, 2.2547698e+2, -726045.25, -722720.44, -5773.637, -0.1298281, 0.12286741, -718374.6, 11968.503, 0.0, 10.000013, 10.000065 
4.5500237e+2, 2.3547855e+2, -629324.5, -632753.7, 22469.229, 0.030886456, 0.2597429, -608504.56, 23821.229, 0.0, 10.000033, 10.000002 
4.55014e+2, 2.4547742e+2, -636973.94, -760358.9, -57800.363, 0.038258, 0.23141328, -614127.4, -79790.61, 0.0, 10.00006, 9.998439 
4.550236e+2, 2.55474e+2, -525610.1, -648853.7, -107819.67, -0.081227474, 0.0319647, -463045.25, -26673.21, 0.0, 10.000122, 9.998502 
4.550349e+2, 2.6547354e+2, -325284.3, -437712.47, -52504.89, -0.112713575, 0.108203374, -304577.75, 33800.582, 0.0, 10.000557, 9.999067 
4.550477e+2, 2.754755e+2, -125256.55, -295683.53, 3860.4238, -0.07102877, 0.38543406, -125169.15, 115191.73, 0.0, 10.001277, 9.999024 
4.5505935e+2, 2.8547427e+2, -90757.5, -327874.16, -68163.16, 0.0031544978, 0.40958866, -72559.5, 69814.6, 0.000000022691747, 10.001266, 9.998139 
4.5507017e+2, 2.954703e+2, -84697.07, -264614.88, -48651.242, 0.11489984, 0.18325894, -72384.05, -27970.26, 0.0000032965943, 10.000591, 9.998225 
4.5508268e+2, 3.054691e+2, 40669.535, -127773.22, 33928.96, 0.25567383, 0.21602732, 47246.918, 47246.918, 0.000026467469, 10.000907, 9.99868 
4.5509192e+2, 3.1546897e+2, 240549.28, 36543.93, 31688.209, -0.054299127, 0.3283547, 245358.08, 245358.08, 0.00008171888, 10.00196, 9.999305 
4.6487218e+2, 1.2546499e+2, -1503036.3, -1673964.1, 113250.36, 0.01426037, 0.31117958, -1446620.9, 263839.88, 0.000072079085, 10.001693, 9.999457 
4.648822e+2, 1.3546348e+2, -1710782.8, -1792606.0, -78787.82, -0.05483495, 0.25696135, -1662917.8, -50438.203, 0.000033639506, 9.999886, 9.998859 
4.648912e+2, 1.4546241e+2, -1611289.4, -1581740.4, -3320.6602, -0.36786288, 0.21601756, -1581371.8, -66880.72, 0.000010536622, 9.999417, 9.999844 
4.649078e+2, 1.554611e+2, -1452260.4, -1447210.8, -24704.893, 0.050136767, 0.083389096, -1424902.0, -8399.717, 0.0000014175026, 9.999811, 9.999903 
4.6492064e+2, 1.6546139e+2, -1294303.5, -1270993.4, -53577.72, 0.16313085, 0.10388151, -1227817.6, 90681.68, 0.000000030371112, 10.000024, 10.000333 
4.649291e+2, 1.7546311e+2, -1174504.1, -1156525.9, -48059.17, -0.11933145, 0.22567005, -1116622.4, 103861.43, 0.0, 10.000148, 10.000387 
4.649401e+2, 1.8546472e+2, -1092173.8, -1040436.9, -18604.068, -0.21182124, 0.33921942, -1034441.75, 88026.76, 0.0, 9.999928, 10.000614 
4.6495378e+2, 1.9546618e+2, -1072979.3, -986614.56, -67245.445, -0.094361484, 0.41071323, -949880.25, 74574.47, 0.0, 9.99941, 10.000565 
4.6496612e+2, 2.054656e+2, -1023895.2, -987739.06, -120578.05, -0.038569458, 0.3378861, -883891.4, 42567.805, 0.0, 9.9994, 9.9998865 
4.6497726e+2, 2.154634e+2, -865342.06, -857675.8, -115322.195, -0.056397915, 0.11529486, -746123.06, 82355.805, 0.0, 9.999804, 9.999912 
4.649892e+2, 2.2546351e+2, -754835.0, -736895.56, -88756.54, -0.042221203, 0.1311899, -656656.6, 73819.45, 0.0, 9.999818, 10.000061 
4.6500185e+2, 2.3546551e+2, -702928.2, -668341.9, -121304.89, 0.0050096177, 0.3115681, -563103.7, 69351.62, 0.0, 9.999533, 9.999997 
4.6501347e+2, 2.4546435e+2, -685580.3, -790858.8, -139133.89, 0.0033821166, 0.283786, -589460.94, -54993.34, 0.0, 9.999756, 9.998379 
4.6502423e+2, 2.554605e+2, -483654.47, -630023.7, -88065.76, -0.041301288, 0.04684064, -442333.3, -5825.3335, 0.0, 10.000415, 9.998489 
4.6503544e+2, 2.6546028e+2, -328143.5, -351332.4, -21813.623, -0.09248104, 0.106995255, -315034.4, 23476.6, 0.0, 10.000147, 9.999863 
4.6504706e+2, 2.7546307e+2, -389716.22, -334284.97, -21475.531, -0.14659122, 0.3847249, -326938.44, -86455.016, 0.0, 9.999074, 9.999821 
4.650591e+2, 2.854625e+2, -341127.9, -395031.1, -79093.66, -0.04639734, 0.4097725, -284519.97, -142031.25, 0.00000001636591, 9.999315, 9.998619 
4.6507153e+2, 2.9545903e+2, -37294.86, -186919.2, -54436.5, 0.19158775, 0.19013867, -19585.717, 24936.137, 0.0000038137496, 10.000685, 9.998713 
4.650842e+2, 3.054576e+2, 44813.844, -131548.0, 61023.633, 0.32027933, 0.175003, 63869.85, 63869.85, 0.000027236774, 10.000951, 9.998638 
4.650919e+2, 3.1545725e+2, -5230.9595, -54974.35, 102554.17, -0.15219, 0.2713845, 75424.4, 75424.4, 0.00008037478, 10.000156, 9.999541 
4.7487414e+2, 1.254505e+2, -1492710.9, -1657442.1, 7492.226, 0.010414922, 0.18328689, -1492370.8, 218227.02, 0.00006757851, 10.00172, 9.999551 
4.7488457e+2, 1.3544936e+2, -1706160.9, -1781689.1, -136101.63, 0.18472572, 0.158229, -1602681.4, 9932.193, 0.000029630666, 9.999883, 9.998933 
4.7489125e+2, 1.4544892e+2, -1600373.3, -1560400.9, 13657.51, -0.32081065, 0.16957243, -1556180.1, -41560.03, 0.00000816001, 9.999419, 9.999993 
4.749053e+2, 1.5544927e+2, -1439607.4, -1424623.1, -4619.592, -0.19518891, 0.18715128, -1423313.4, -6696.008, 0.0000009257674, 9.999824, 10.000054 
4.7491878e+2, 1.6544965e+2, -1280798.3, -1242309.9, -52709.883, -0.0369756, 0.19826369, -1205441.0, 113171.734, 0.000000014696447, 10.00002, 10.000532 
4.7493058e+2, 1.7545e+2, -1165063.0, -1137580.1, -38915.44, 0.0039200317, 0.16835628, -1110051.3, 110555.53, 0.0, 10.000152, 10.000515 
4.749416e+2, 1.8544978e+2, -1173063.1, -1204859.3, -42316.883, -0.061016746, 0.14955965, -1143756.5, -21147.13, 0.0, 9.999911, 9.999496 
4.749526e+2, 1.9544901e+2, -1148946.3, -1141187.5, -81418.33, -0.15914984, 0.112289496, -1063556.1, -38936.438, 0.0, 9.999392, 9.999516 
4.7496533e+2, 2.0544922e+2, -1013422.9, -957061.94, -108646.5, -0.06893515, 0.15425625, -873000.7, 53618.51, 0.0, 9.99936, 10.000118 
4.749793e+2, 2.1545027e+2, -859131.1, -835072.75, -97357.2, 0.15844443, 0.23655373, -749004.44, 79605.36, 0.0, 9.999761, 10.00009 
4.74991e+2, 2.2545038e+2, -808937.94, -840815.25, -103117.53, 0.1472623, 0.2791619, -720534.5, 10075.381, 0.0, 9.999779, 9.999369 
4.7500092e+2, 2.3544966e+2, -753450.94, -760029.2, -126085.336, -0.053122148, 0.2585833, -630611.9, 2006.687, 0.0, 9.999473, 9.999399 
4.7501248e+2, 2.4544926e+2, -592259.8, -591044.0, -116855.15, -0.08309774, 0.2640389, -474795.16, 59827.5, 0.0, 9.999726, 9.999764 
4.750254e+2, 2.5544912e+2, -396257.7, -443595.0, -60878.082, 0.023938907, 0.25912103, -354609.06, 82014.305, 0.0, 10.000387, 9.999786 
4.7503704e+2, 2.6544866e+2, -319083.5, -325484.2, -64931.26, 0.043103762, 0.22219136, -257273.75, 81351.77, 0.0, 10.00012, 10.000051 
4.7504765e+2, 2.7544782e+2, -379311.7, -304580.88, -53430.89, -0.00852588, 0.121563055, -276746.34, -36116.34, 0.0, 9.999042, 10.000039 
4.7505924e+2, 2.854473e+2, -293783.6, -299280.03, -30616.557, 0.023120672, 0.10928346, -265792.16, -123159.7, 0.0000000367379, 9.999321, 9.999275 
4.750716e+2, 2.9544708e+2, 3436.206, -98876.05, -335.8483, 0.1181201, 0.1429554, 3437.3086, 48070.605, 0.000004802636, 10.000658, 9.999335 
4.7508442e+2, 3.0544582e+2, 79300.58, -48062.8, 28591.82, 0.23911084, 0.09268541, 85424.69, 85424.69, 0.000029242266, 10.0009, 9.999233 
4.7509226e+2, 3.1544474e+2, 29078.105, 20157.568, 107405.08, -0.16199768, 0.049748123, 132115.48, 132115.48, 0.000080926366, 10.000134, 10.000068 
4.848745e+2, 1.2543622e+2, -1777069.3, -1760251.3, -72478.375, -0.017311372, 0.11864249, -1695695.8, 15042.278, 0.00006360682, 9.999623, 9.999848 
4.8488522e+2, 1.3543563e+2, -1621841.9, -1704259.0, -174649.83, 0.24423197, 0.11456031, -1483604.9, 129142.74, 0.000025765483, 10.000292, 9.999265 
4.8489115e+2, 1.4543568e+2, -1430453.9, -1452645.6, 20171.668, -0.3214793, 0.14490873, -1418527.8, 96221.71, 0.000006126259, 10.000485, 10.000216 
4.8490533e+2, 1.5543702e+2, -1397429.5, -1379418.6, -6904.346, -0.17819446, 0.24287327, -1377076.5, 39660.52, 0.0000005794279, 10.000017, 10.000268 
4.8491868e+2, 1.6543758e+2, -1346794.5, -1288124.0, -57754.6, -0.025444038, 0.2672578, -1252681.5, 66049.04, 0.0000000048834687, 9.999622, 10.000412 
4.849301e+2, 1.7543736e+2, -1293392.1, -1213480.5, -71613.47, -0.0170057, 0.19125359, -1171430.5, 49299.547, 0.0, 9.999327, 10.000392 
4.8494127e+2, 1.8543637e+2, -1239362.8, -1267898.6, -35828.27, -0.068574764, 0.115407765, -1215066.0, -92325.84, 0.0, 9.999587, 9.999219 
4.8495287e+2, 1.9543467e+2, -1034306.4, -1111678.1, -16750.496, -0.113806926, 0.010638417, -1030835.7, -6076.263, 0.0, 10.000295, 9.999278 
4.8496553e+2, 2.0543526e+2, -874229.56, -876770.75, -19995.588, -0.025223723, 0.09455219, -855464.25, 71291.695, 0.0, 10.000265, 10.000232 
4.8497897e+2, 2.154377e+2, -868683.56, -825690.25, -21715.615, 0.15790695, 0.30386153, -816630.8, 12103.331, 0.0, 9.999637, 10.000214 
4.849906e+2, 2.2543785e+2, -823155.8, -826309.0, 18636.094, 0.1418163, 0.33474106, -806029.75, -75296.05, 0.0, 9.999591, 9.9995575 
4.8500085e+2, 2.3543604e+2, -654000.7, -687621.4, 55929.363, -0.030764004, 0.18480764, -612410.0, 20341.807, 0.0, 10.0000515, 9.999613 
4.8501253e+2, 2.4543612e+2, -543336.8, -508891.25, 63395.598, -0.05019609, 0.19761269, -460420.63, 74329.9, 0.0, 9.999811, 10.000286 
4.8502535e+2, 2.5543773e+2, -566174.9, -469920.66, 46385.934, 0.056258358, 0.31676072, -451205.63, -14472.214, 0.0, 9.998983, 10.000279 
4.8503742e+2, 2.6543728e+2, -466207.16, -424030.88, 8194.818, 0.11377974, 0.27052116, -422494.56, -83759.28, 0.0, 9.999231, 9.999803 
4.8504883e+2, 2.7543494e+2, -195557.66, -242522.92, -18152.473, 0.14113382, 0.04543366, -189359.55, 51395.105, 0.0, 10.000412, 9.999809 
4.8505986e+2, 2.854343e+2, -94283.65, -178830.08, -10018.518, 0.090112105, 0.020036045, -93112.695, 49645.906, 0.00000008825205, 10.000594, 9.999482 
4.8507035e+2, 2.9543525e+2, -87564.56, -120096.914, -25939.736, -0.032737378, 0.15014885, -73212.8, -28464.506, 0.0000054540624, 9.999944, 9.999526 
4.850833e+2, 3.054342e+2, -94225.94, -92416.45, -40973.938, 0.112252966, 0.09538462, -52337.273, -52337.273, 0.000030858784, 9.999542, 9.999574 
4.850933e+2, 3.1543326e+2, -83841.7, -19745.162, 24056.977, -0.020944819, 0.031374864, -11720.626, -11720.626, 0.00008250138, 9.999303, 10.000187 
4.9487278e+2, 1.2542215e+2, -1742827.9, -1687131.4, -102272.695, -0.17671451, 0.12121954, -1608983.3, 101897.68, 0.00005696404, 9.999616, 10.000354 
4.948839e+2, 1.354223e+2, -1581011.9, -1619952.6, -143863.95, 0.06826752, 0.13242029, -1455306.6, 157575.1, 0.00002106699, 10.000292, 9.9998455 
4.9489075e+2, 1.4542262e+2, -1406875.6, -1406899.9, 1196.9164, -0.4228716, 0.14520673, -1405690.8, 109188.42, 0.000004231548, 10.000498, 10.000524 
4.9490786e+2, 1.554244e+2, -1379659.0, -1341115.0, -20697.145, 0.06136224, 0.25527722, -1332106.6, 84754.305, 0.00000029436407, 10.000013, 10.000533 
4.9492025e+2, 1.6542523e+2, -1377230.3, -1347607.9, -74303.43, 0.15849346, 0.31655723, -1286653.9, 32198.95, 0.0000000005507737, 9.999605, 10.000012 
4.9492744e+2, 1.7542519e+2, -1321584.8, -1266096.0, -78148.9, -0.22479528, 0.29752854, -1210912.6, 9941.134, 0.0, 9.999301, 10.000043 
4.9493885e+2, 1.8542452e+2, -1202196.9, -1180520.3, -12576.673, -0.2798607, 0.2369246, -1174756.1, -51895.31, 0.0, 9.999544, 9.999839 
4.949544e+2, 1.9542322e+2, -996863.9, -1027771.5, 10699.092, 0.0011360383, 0.111410044, -993521.6, 31351.943, 0.0, 10.000265, 9.99987 
4.949667e+2, 2.0542373e+2, -877158.7, -874565.56, -47733.902, 0.05301931, 0.15753923, -828110.6, 98758.84, 0.0, 10.000225, 10.000269 
4.9497604e+2, 2.1542571e+2, -869288.2, -819195.06, -39369.582, -0.104787424, 0.3193659, -797580.1, 31271.488, 0.0, 9.999596, 10.000282 
4.9498776e+2, 2.254259e+2, -755294.2, -673908.7, 32685.266, -0.10975132, 0.294566, -662407.3, 68440.57, 0.0, 9.999542, 10.000627 
4.9500155e+2, 2.3542458e+2, -589486.75, -543127.94, 74971.86, 0.022815526, 0.08630581, -487834.0, 145021.92, 0.0, 10.000008, 10.000627 
4.9501354e+2, 2.4542482e+2, -567100.5, -555367.3, 28185.977, 0.05676388, 0.08292154, -532443.9, 2408.0227, 0.0, 9.999797, 9.999975 
4.9502397e+2, 2.554263e+2, -594164.0, -521240.16, 21696.725, 0.0052150125, 0.21961778, -515273.1, -78434.45, 0.0, 9.998952, 9.999944 
4.9503633e+2, 2.654261e+2, -516336.75, -521607.06, 48331.59, 0.07592812, 0.24916358, -470568.53, -131727.33, 0.0, 9.999204, 9.9991455 
4.9505046e+2, 2.7542436e+2, -247189.45, -338455.6, 28774.064, 0.24989362, 0.14799681, -238875.1, 1983.1583, 0.0, 10.000365, 9.999171 
4.950607e+2, 2.854235e+2, -117460.01, -219749.98, -37780.477, 0.106903255, 0.1448733, -105019.03, 37847.77, 0.00000018947561, 10.000565, 9.999217 
4.9506766e+2, 2.9542348e+2, -107155.84, -156012.89, -42805.867, -0.30849758, 0.20898241, -82298.516, -37431.35, 0.000005346717, 9.999924, 9.9992895 
4.9508083e+2, 3.054226e+2, -88636.66, -81452.57, -51675.79, -0.10014946, 0.17501359, -33244.133, -33244.133, 0.000029419843, 9.999542, 9.999652 
4.9509463e+2, 3.154227e+2, -112002.734, -71246.76, 47659.2, 0.15748857, 0.20831248, -39791.734, -39791.734, 0.000078988014, 9.999275, 9.999846 
5.048716e+2, 1.254103e+2, -1901388.0, -1739495.3, 13698.608, -0.19101988, 0.19325612, -1738344.4, -27343.041, 0.000046012723, 9.998443, 10.000555 
5.048848e+2, 1.3541071e+2, -1575312.9, -1582922.0, -8763.139, 0.14367072, 0.19874015, -1569564.0, 43434.543, 0.000015500982, 10.000179, 10.00016 
5.0489175e+2, 1.4541072e+2, -1391625.1, -1405269.9, 53548.805, -0.37431931, 0.17030655, -1344465.9, 170531.84, 0.0000026245805, 10.000631, 10.000468 
5.049081e+2, 1.5541205e+2, -1424819.0, -1371123.4, -10765.447, 0.10383094, 0.2409072, -1369045.4, 47937.145, 0.00000011750303, 9.999737, 10.00046 
5.0492e+2, 1.6541249e+2, -1385773.9, -1365121.4, -27317.584, 0.17915587, 0.2745681, -1346243.5, -27265.662, 0.000000000026416515, 9.999602, 9.999892 
5.0492704e+2, 1.7541212e+2, -1207177.6, -1223116.1, -18875.445, -0.23128942, 0.23443313, -1194658.1, 26324.908, 0.0, 10.000135, 9.999936 
5.0493866e+2, 1.8541223e+2, -1103206.1, -1096700.9, 52686.8, -0.27118066, 0.24168932, -1047166.4, 75816.625, 0.0, 10.000071, 10.000161 
5.049548e+2, 1.9541276e+2, -1085873.0, -1034066.2, 45166.91, 0.055713087, 0.26556012, -1007902.0, 17076.604, 0.0, 9.999505, 10.000189 
5.049668e+2, 2.0541306e+2, -1031914.44, -951731.06, -37175.895, 0.092986085, 0.27692798, -937147.44, -10171.757, 0.0, 9.99917, 10.000246 
5.049751e+2, 2.1541312e+2, -956686.56, -860194.3, -39691.336, -0.13025808, 0.24732088, -845965.7, -16990.957, 0.0, 9.999001, 10.000282 
5.0498694e+2, 2.2541325e+2, -778785.9, -658704.94, 39826.99, -0.12994695, 0.20444177, -646696.5, 84274.09, 0.0, 9.999262, 10.000869 
5.050019e+2, 2.354134e+2, -593371.5, -522671.63, 9557.02, 0.06717443, 0.12196864, -521402.5, 111561.56, 0.0, 9.999877, 10.000834 
5.05014e+2, 2.4541365e+2, -536143.3, -569471.94, -91499.17, 0.10584721, 0.1231265, -459803.34, 75157.2, 0.0, 10.000142, 9.999711 
5.0502354e+2, 2.5541386e+2, -436920.38, -471818.16, -99833.37, 0.011206381, 0.16069652, -353022.5, 83938.14, 0.0, 10.0001545, 9.9997015 
5.0503576e+2, 2.6541373e+2, -409317.03, -468662.66, -7193.008, 0.06367068, 0.20749494, -408457.66, -69494.08, 0.0, 9.999934, 9.999157 
5.050502e+2, 2.7541322e+2, -377276.63, -402178.03, 8394.526, 0.23739904, 0.22899497, -374711.06, -133741.3, 0.00000000061010413, 9.999479, 9.999158 
5.050608e+2, 2.854123e+2, -326291.75, -347200.84, -51006.152, 0.12894587, 0.23569266, -284679.75, -141700.63, 0.00000027554938, 9.999242, 9.99898 
5.050681e+2, 2.9541123e+2, -233122.47, -241454.69, -62196.688, -0.21347114, 0.21563514, -174952.52, -129962.555, 0.000004532087, 9.999169, 9.999067 
5.050806e+2, 3.054106e+2, -77642.79, -70931.82, -38516.383, -0.07678672, 0.21236724, -35625.035, -35625.035, 0.0000250645, 9.999597, 9.999703 
5.0509346e+2, 3.1541094e+2, 33685.742, -27209.695, 56578.99, 0.06390745, 0.26950872, 67489.445, 67489.445, 0.0000692816, 10.000378, 9.999629 
5.1487064e+2, 1.2540074e+2, -1908854.6, -1754318.4, 11960.429, -0.15740742, 0.344862, -1753398.1, -42300.047, 0.00003362694, 9.998443, 10.00045 
5.1488805e+2, 1.3540098e+2, -1567737.9, -1572222.6, 63943.984, 0.43722665, 0.3238899, -1505997.0, 107099.46, 0.0000102900585, 10.0002, 10.000223 
5.148941e+2, 1.454001e+2, -1421405.4, -1472958.0, 19187.303, -0.21824655, 0.22632468, -1415048.0, 100055.695, 0.0000014940234, 10.000654, 9.999993 
5.1490587e+2, 1.5539993e+2, -1457861.3, -1437063.0, -37259.414, -0.107999496, 0.19582492, -1408778.8, 8323.274, 0.00000003629146, 9.999728, 10.00001 
5.149178e+2, 1.6539933e+2, -1378855.1, -1344729.4, -9379.76, -0.016553003, 0.13634144, -1342321.3, -23214.865, 0.0, 9.9995775, 10.000043 
5.149288e+2, 1.7539817e+2, -1196691.5, -1202654.5, 4842.5586, -0.079039015, 0.0020222052, -1193986.3, 27131.422, 0.0, 10.00014, 10.000073 
5.149407e+2, 1.8539962e+2, -1103030.4, -1093420.3, 26366.568, -0.08892145, 0.13528824, -1071424.5, 51681.31, 0.0, 10.000059, 10.000187 
5.1495385e+2, 1.9540331e+2, -1090284.1, -1037174.56, 29100.803, 0.0011852151, 0.47214636, -1024333.75, 740.4503, 0.0, 9.999473, 10.000186 
5.149656e+2, 2.0540318e+2, -1048412.44, -972312.2, -47574.207, 0.046073075, 0.44870293, -949443.4, -22368.195, 0.0, 9.999111, 10.000132 
5.1497585e+2, 2.153998e+2, -969342.9, -879349.25, -41876.52, 0.039583568, 0.08104696, -862877.75, -33773.24, 0.0, 9.998965, 10.000167 
5.14988e+2, 2.2539973e+2, -828377.3, -749146.75, 57301.992, 0.04158934, 0.055585615, -719099.4, 12003.865, 0.0, 9.99921, 10.000273 
5.150018e+2, 2.3540251e+2, -640418.06, -610412.06, 34562.02, 0.05533076, 0.29311013, -587737.2, 45339.12, 0.0, 9.999836, 10.000252 
5.1501364e+2, 2.454026e+2, -554926.0, -601756.4, -95081.95, 0.04831935, 0.32027122, -480418.5, 54657.727, 0.0, 10.0001135, 9.999504 
5.1502395e+2, 2.5540042e+2, -451192.13, -495609.06, -94149.72, 0.022214586, 0.13592225, -376667.03, 60432.387, 0.0, 10.000128, 9.999553 
5.1503545e+2, 2.6540014e+2, -369107.7, -379367.1, -27945.053, 0.028171629, 0.14544286, -345825.44, -6722.9385, 0.0, 9.999913, 9.99978 
5.1504797e+2, 2.754014e+2, -341337.53, -319974.13, -2678.7512, 0.057414122, 0.2865548, -319643.34, -78553.64, 0.0000000018853024, 9.99945, 9.999737 
5.1505995e+2, 2.854007e+2, -341100.1, -377937.0, -58233.39, 0.10515279, 0.2928041, -298441.8, -155345.69, 0.00000034744536, 9.99924, 9.998771 
5.1507133e+2, 2.9539844e+2, -246337.19, -272353.6, -57123.363, 0.17639177, 0.17395793, -200759.63, -155642.61, 0.0000038784074, 9.999181, 9.998851 
5.150823e+2, 3.0539808e+2, -74477.414, -65312.75, -11507.886, 0.11753053, 0.20966685, -57508.43, -57508.43, 0.000021208403, 9.999604, 9.999738 
5.1508975e+2, 3.153981e+2, 17444.447, -41030.766, 113202.43, -0.37378785, 0.22735542, 105124.02, 105124.02, 0.00006028198, 10.000303, 9.999564 
5.2487034e+2, 1.2539008e+2, -1738469.3, -1695682.1, 32509.959, -0.087805375, 0.3226247, -1678158.0, 33044.176, 0.000024083258, 9.999707, 10.000247 
5.2488875e+2, 1.353908e+2, -1718231.9, -1651104.5, 117830.23, 0.5426135, 0.35504135, -1562150.9, 51045.254, 0.000006343457, 9.999179, 10.000183 
5.2489483e+2, 1.4538991e+2, -1595095.5, -1576730.5, 69739.94, -0.15174916, 0.26749378, -1515571.1, -367.01038, 0.00000066930806, 9.999555, 9.999808 
5.2490556e+2, 1.5538913e+2, -1356241.5, -1408561.3, 20950.383, -0.14006008, 0.1947201, -1348886.4, 68322.73, 0.000000004981165, 10.000513, 9.999826 
5.2491766e+2, 1.6538846e+2, -1234589.6, -1277177.9, 59830.73, -0.03198082, 0.13721734, -1192376.6, 126837.81, 0.0, 10.000569, 10.000035 
5.249299e+2, 1.7538776e+2, -1229507.1, -1218883.6, 54389.758, 0.023834975, 0.04997981, -1169546.9, 51674.2, 0.0, 9.999913, 10.000076 
5.249414e+2, 1.8538895e+2, -1139853.8, -1122883.4, 71806.45, -0.010538359, 0.16310994, -1059062.5, 64148.793, 0.0, 9.999854, 10.000087 
5.24953e+2, 1.9539173e+2, -982037.44, -993630.75, 56929.652, -0.0708732, 0.41995132, -930610.06, 94577.8, 0.0, 10.000258, 10.000103 
5.249647e+2, 2.0539157e+2, -868524.44, -912755.56, -18456.535, -0.019826898, 0.40711358, -861834.75, 65355.023, 0.0, 10.000464, 9.999892 
5.249763e+2, 2.1538882e+2, -765795.44, -809570.56, -32643.232, 0.11656687, 0.13308114, -748381.06, 80832.914, 0.0, 10.0004835, 9.999918 
5.249886e+2, 2.2538869e+2, -750144.9, -737301.0, 75780.33, 0.14783433, 0.123351336, -667671.0, 63543.68, 0.0, 9.999862, 10.000038 
5.2500135e+2, 2.3539068e+2, -824302.3, -722477.0, 71797.38, 0.09408917, 0.30684912, -685372.8, -52176.535, 0.0, 9.998684, 10.000034 
5.2501315e+2, 2.4539092e+2, -788900.0, -689242.8, -2581.5906, 0.07787454, 0.34508896, -689176.0, -153980.64, 0.0, 9.998398, 9.999728 
5.2502406e+2, 2.5538963e+2, -619485.8, -554271.56, 18967.771, 0.08885066, 0.23081137, -549156.0, -111946.51, 0.0, 9.998878, 9.999751 
5.250352e+2, 2.6538938e+2, -487881.03, -444934.7, 62909.01, 0.05547482, 0.23346075, -399935.0, -60722.766, 0.0, 9.99913, 9.999707 
5.250466e+2, 2.753898e+2, -383830.38, -345629.13, 33698.8, -0.010406946, 0.29540053, -325994.2, -84787.13, 0.00000000009174081, 9.99918, 9.99969 
5.2505904e+2, 2.8538883e+2, -220856.44, -281353.78, 16625.17, 0.06496915, 0.26061332, -216588.77, -73374.31, 0.00000033351301, 9.999909, 9.999109 
5.2507234e+2, 2.953868e+2, 68466.414, -90312.164, 42548.61, 0.25888875, 0.13116008, 79149.56, 124380.71, 0.000003888586, 10.001214, 9.999122 
5.25083e+2, 3.0538693e+2, 66454.56, -40853.707, 51838.867, 0.17885822, 0.22614144, 87406.29, 87406.29, 0.000020489533, 10.000757, 9.999352 
5.2508944e+2, 3.1538624e+2, -223098.55, -178961.63, 134337.72, -0.34423518, 0.2092554, -64891.77, -64891.77, 0.000057556197, 9.99873, 9.999382 
5.348703e+2, 1.2537812e+2, -1756394.9, -1733345.8, -66446.625, -0.09419354, 0.10770038, -1677431.8, 33883.777, 0.000017799504, 9.999727, 9.999971 
5.3488666e+2, 1.3538015e+2, -1737537.1, -1680714.3, 104508.234, 0.40797067, 0.29289958, -1600824.4, 12473.336, 0.0000036805177, 9.999142, 9.999998 
5.348937e+2, 1.4538014e+2, -1588375.6, -1562482.1, 106292.78, -0.23375073, 0.29843953, -1468350.5, 46948.23, 0.00000019448485, 9.999546, 9.999912 
5.349073e+2, 1.5537964e+2, -1348300.3, -1396275.4, 59840.664, -0.0346563, 0.24003124, -1307818.4, 109485.555, 0.00000000000050979853, 10.000527, 9.999907 
5.3491956e+2, 1.6537996e+2, -1244905.8, -1299728.0, 28804.613, 0.089732856, 0.28675017, -1232554.1, 86747.31, 0.0, 10.000576, 9.999877 
5.3493e+2, 1.7538092e+2, -1241827.1, -1245144.8, 35067.258, 0.034329865, 0.38248572, -1208379.5, 12913.641, 0.0, 9.999915, 9.999897 
5.349406e+2, 1.8538022e+2, -1157497.4, -1153011.8, 84106.17, -0.085787445, 0.32515737, -1071118.5, 52181.273, 0.0, 9.999829, 9.999889 
5.349519e+2, 1.9537799e+2, -1000097.4, -1028100.8, 76683.55, -0.21311407, 0.101148084, -936147.75, 89172.32, 0.0, 10.000241, 9.999877 
5.3496385e+2, 2.0537814e+2, -901052.75, -970850.1, -21393.467, -0.15573779, 0.1504125, -895017.3, 32302.516, 0.0, 10.000425, 9.999509 
5.3497624e+2, 2.1538033e+2, -797186.3, -866037.6, -28795.203, 0.05365903, 0.40484202, -786731.1, 42571.082, 0.0, 10.000444, 9.999549 
5.3498846e+2, 2.2538017e+2, -750505.5, -730174.6, 27125.066, 0.14227779, 0.40910122, -711372.75, 19931.44, 0.0, 9.999825, 10.000108 
5.3500056e+2, 2.3537794e+2, -819894.2, -707228.25, 34309.082, 0.13582148, 0.16121562, -697602.75, -64278.92, 0.0, 9.998655, 10.000154 
5.350123e+2, 2.453785e+2, -751085.56, -603358.06, 11512.102, 0.14612763, 0.19314197, -602466.4, -67147.81, 0.0, 9.998369, 10.00033 
5.350238e+2, 2.553814e+2, -584592.4, -476914.75, 39754.242, 0.16626799, 0.4385996, -463828.1, -26536.156, 0.0, 9.998857, 10.000292 
5.350349e+2, 2.6538128e+2, -539349.8, -548202.9, 61805.543, 0.10442309, 0.46608013, -481812.5, -142518.83, 0.0, 9.999116, 9.999006 
5.350458e+2, 2.7537838e+2, -430164.84, -437041.34, 43496.242, -0.024278395, 0.2615439, -389971.16, -148649.88, 0.0, 9.999159, 9.999074 
5.3505796e+2, 2.853767e+2, -163201.45, -161824.11, 61039.313, -0.04689312, 0.14395453, -101469.586, 41864.457, 0.00000019037492, 9.999909, 9.999931 
5.350712e+2, 2.953762e+2, 113713.65, 15511.18, 91424.74, 0.009313774, 0.08850776, 168388.2, 213720.95, 0.000003945089, 10.001163, 9.999873 
5.350828e+2, 3.053771e+2, 354.74908, -167029.23, -25827.86, 0.07850977, 0.2656014, 4249.445, 4249.445, 0.000021599248, 10.000714, 9.998504 
5.350922e+2, 3.153752e+2, -247133.36, -218602.63, 75020.414, 0.028456489, 0.21110907, -156503.33, -156503.33, 0.000060066017, 9.998699, 9.999116 
5.4487103e+2, 1.2536868e+2, -1710125.4, -1718044.4, -142383.36, -0.0049255663, 0.18577875, -1571646.5, 139763.81, 0.000013143151, 10.00008, 9.999912 
5.44886e+2, 1.3536899e+2, -1466692.0, -1547764.6, 92242.87, 0.34457955, 0.19856729, -1406471.5, 206934.83, 0.000002162896, 10.000992, 10.000019 
5.4489374e+2, 1.4536902e+2, -1348799.9, -1434356.8, 118381.82, -0.25715727, 0.20259619, -1265704.4, 249702.19, 0.000000029643958, 10.001135, 10.000028 
5.449086e+2, 1.5536971e+2, -1319220.8, -1366840.0, 59058.78, 0.037313618, 0.2521432, -1279352.8, 138048.77, 0.0, 10.000661, 10.000042 
5.449208e+2, 1.6537061e+2, -1251313.9, -1330443.6, 20775.283, 0.1541051, 0.3626342, -1246191.1, 73204.195, 0.0, 10.000664, 9.999619 
5.449303e+2, 1.753716e+2, -1095213.5, -1201586.5, 9303.08, 0.02184304, 0.48673946, -1094406.1, 126982.766, 0.0, 10.001049, 9.999645 
5.4494077e+2, 1.8537034e+2, -1071865.9, -1128387.3, 54297.117, -0.07522801, 0.39449537, -1038915.06, 84485.57, 0.0, 10.000476, 9.999755 
5.449527e+2, 1.9536719e+2, -1172133.0, -1122073.0, 45837.574, -0.09986223, 0.08846786, -1094876.6, -69448.55, 0.0, 9.999101, 9.999784 
5.449645e+2, 2.053673e+2, -1104982.3, -1048160.75, 15656.304, -0.05763556, 0.12784873, -1044132.44, -116705.05, 0.0, 9.998932, 9.9997015 
5.449761e+2, 2.1537015e+2, -881955.25, -884775.0, 43861.965, 0.034181956, 0.43015796, -839480.5, -10077.146, 0.0, 9.99977, 9.999744 
5.4498804e+2, 2.2537017e+2, -697483.7, -717013.7, 87268.65, 0.09879624, 0.4466733, -619435.44, 111968.22, 0.0, 10.000244, 9.999993 
5.450002e+2, 2.3536764e+2, -571552.4, -603101.94, 70124.26, 0.1451519, 0.1828089, -515450.5, 117975.24, 0.0, 10.000423, 10.000018 
5.45012e+2, 2.4536791e+2, -457273.38, -497092.06, 38444.99, 0.17092021, 0.20981315, -433888.38, 101535.125, 0.0, 10.000528, 10.000025 
5.4502356e+2, 2.553706e+2, -352359.84, -397048.03, -9502.936, 0.17343281, 0.4596223, -350423.0, 86977.64, 0.0, 10.000588, 10.000008 
5.450349e+2, 2.6537037e+2, -333425.84, -442919.28, 8244.003, 0.12380773, 0.48942396, -332808.63, 6594.838, 0.0, 10.0005045, 9.99906 
5.4504603e+2, 2.7536753e+2, -260220.77, -349530.9, 35216.586, 0.033208057, 0.2864813, -248005.08, -6575.1313, 0.0, 10.000299, 9.999128 
5.450579e+2, 2.8536618e+2, -192617.22, -155771.8, 65045.953, -0.02068446, 0.19154526, -106589.984, 36850.09, 0.00000011177434, 9.999624, 10.000107 
5.4507035e+2, 2.9536626e+2, -250860.39, -137778.25, 39070.547, -0.04697522, 0.17406161, -125592.31, -80157.09, 0.0000044340386, 9.9985695, 10.000064 
5.450822e+2, 3.0536732e+2, -273634.97, -247461.64, -59005.52, 0.055674188, 0.33535364, -200108.97, -200108.97, 0.000024114986, 9.998611, 9.99896 
5.4509306e+2, 3.153654e+2, -72705.73, -32211.787, 111066.414, 0.22220843, 0.23398076, 60438.047, 60438.047, 0.00006615612, 9.999456, 10.00003 
5.548723e+2, 1.2536202e+2, -1691932.4, -1674665.0, -186231.4, 0.08034767, 0.59130174, -1496867.3, 214617.0, 0.000010165176, 10.000071, 10.000207 
5.5488676e+2, 1.3535732e+2, -1446426.6, -1505812.9, 128428.08, 0.3112467, 0.07467951, -1344303.8, 269218.56, 0.0000015959415, 10.000999, 10.0003 
5.548949e+2, 1.453565e+2, -1334531.0, -1412265.5, 93640.89, -0.2686218, -0.02654648, -1272011.5, 243516.39, 0.000000016896806, 10.001163, 10.000167 
5.549092e+2, 1.5535943e+2, -1309810.8, -1349560.3, 46966.793, 0.028009538, 0.23255229, -1278686.6, 138814.92, 0.0, 10.000668, 10.000159 
5.5492115e+2, 1.6536048e+2, -1275637.4, -1382206.8, 31073.043, 0.11077991, 0.36929876, -1267239.0, 52256.688, 0.0, 10.000668, 9.99926 
5.549307e+2, 1.7535971e+2, -1121132.1, -1254018.3, 25428.342, -0.058382325, 0.35352236, -1116432.5, 105076.73, 0.0, 10.001042, 9.999289 
5.5494195e+2, 1.8535937e+2, -1077874.8, -1134957.0, -2537.159, -0.017221684, 0.3712404, -1077762.3, 45751.785, 0.0, 10.000451, 9.999722 
5.549552e+2, 1.9535936e+2, -1179183.8, -1130826.5, 1040.7888, 0.23251937, 0.38760906, -1130804.1, -105292.36, 0.0, 9.999072, 9.999743 
5.5496645e+2, 2.0535901e+2, -1051759.0, -928419.0, 43790.813, 0.23291346, 0.34069046, -914452.9, 13059.924, 0.0, 9.998894, 10.000541 
5.549758e+2, 2.153583e+2, -833657.9, -774695.4, 79089.414, 0.013594349, 0.20409293, -719771.2, 109746.24, 0.0, 9.999725, 10.000524 
5.5498713e+2, 2.2535859e+2, -729627.9, -769899.5, 89969.47, -0.028819712, 0.22842716, -657568.5, 73945.06, 0.0, 10.000189, 9.999656 
5.5500007e+2, 2.3535973e+2, -606580.06, -662851.44, 81933.99, 0.08345879, 0.36425412, -548085.56, 85417.07, 0.0, 10.000369, 9.999634 
5.5501205e+2, 2.4535923e+2, -546214.4, -675596.8, 37728.48, 0.110629424, 0.39447048, -536016.44, -506.06512, 0.0, 10.0005, 9.998814 
5.550232e+2, 2.553572e+2, -436487.2, -564536.6, -2120.7236, 0.06833296, 0.29760164, -436452.1, 1082.9575, 0.0, 10.000556, 9.998874 
5.55035e+2, 2.6535663e+2, -282343.88, -330190.7, -2565.3057, 0.07246855, 0.3030676, -282206.72, 57334.934, 0.0, 10.000479, 9.999844 
5.550472e+2, 2.753572e+2, -217261.86, -250967.88, 31127.328, 0.11744689, 0.36533585, -198718.05, 42815.496, 0.0, 10.000261, 9.999823 
5.550589e+2, 2.853572e+2, -224263.86, -223719.52, 22396.621, 0.102253884, 0.39845923, -201593.42, -58060.117, 0.00000024371042, 9.999626, 9.999644 
5.5506986e+2, 2.953568e+2, -272609.03, -191035.19, 8175.5073, 0.030940529, 0.37999815, -190223.89, -144684.44, 0.0000057652805, 9.998593, 9.999694 
5.550809e+2, 3.0535752e+2, -155192.3, 2218.8794, -28813.299, 0.048629295, 0.433393, 7327.227, 7327.227, 0.000028463612, 9.998601, 10.000674 
5.550921e+2, 3.1535652e+2, 71314.16, 275613.47, 145862.03, 0.15123779, 0.25078598, 351537.63, 351537.63, 0.00007494189, 9.999422, 10.002157 
5.6487226e+2, 1.253524e+2, -1689348.6, -1689251.5, -118334.15, 0.08286847, 0.5870767, -1570965.9, 140613.02, 0.000007999431, 10.0001335, 10.000083 
5.648876e+2, 1.3534792e+2, -1597982.1, -1600461.4, 189910.22, 0.34702232, 0.10869822, -1409307.5, 204308.4, 0.00000128022, 10.000026, 10.000129 
5.648966e+2, 1.453471e+2, -1491363.1, -1499496.9, 123824.0, -0.15683424, 0.022637522, -1371539.3, 144082.73, 0.000000037787355, 10.000144, 10.000057 
5.649099e+2, 1.553496e+2, -1331289.6, -1368713.5, 46044.637, 0.029022353, 0.2477127, -1300300.0, 117299.88, 0.0, 10.000564, 10.000078 
5.6492126e+2, 1.6535039e+2, -1293359.8, -1364776.5, 53995.04, 0.073044404, 0.35338184, -1264333.6, 55262.254, 0.0, 10.000436, 9.999493 
5.6493115e+2, 1.753496e+2, -1274213.8, -1302071.6, 83834.23, -0.04914295, 0.31107304, -1203159.1, 18449.867, 0.0, 9.999879, 9.999519 
5.649426e+2, 1.8534958e+2, -1086160.1, -1151730.1, 90372.305, 0.003966251, 0.3555912, -1022809.8, 100800.62, 0.0, 10.000456, 9.9995985 
5.6495565e+2, 1.9535019e+2, -757779.94, -938317.25, 81940.5, 0.22350836, 0.44372633, -726136.0, 299465.9, 0.0, 10.002019, 9.999637 
5.649667e+2, 2.0534953e+2, -648386.8, -789148.94, 61916.84, 0.22546749, 0.39577687, -625027.9, 302578.7, 0.0, 10.001905, 10.000045 
5.6497616e+2, 2.1534775e+2, -778463.8, -799074.8, -10172.158, 0.044191934, 0.19998005, -774289.1, 55333.74, 0.0, 10.00033, 10.000061 
5.649874e+2, 2.2534785e+2, -736925.75, -779058.8, 12252.365, -0.007907473, 0.22848386, -733621.8, -2000.5665, 0.0, 10.000158, 9.999607 
5.6500053e+2, 2.353495e+2, -487135.8, -607146.0, 18741.709, 0.05982987, 0.420372, -484277.06, 149327.58, 0.0, 10.001199, 9.999612 
5.6501245e+2, 2.4534875e+2, -524462.6, -695240.25, -19463.867, 0.09228986, 0.44297644, -522272.38, 13342.492, 0.0, 10.000796, 9.998527 
5.650233e+2, 2.553458e+2, -654092.6, -698787.06, 604.3577, 0.09585202, 0.27850777, -654084.44, -216434.67, 0.0, 9.999195, 9.998603 
5.650348e+2, 2.6534522e+2, -477776.84, -389808.22, 65461.266, 0.08447949, 0.28339356, -354926.84, -15270.534, 0.0, 9.998994, 10.000145 
5.6504685e+2, 2.7534667e+2, -227401.77, -218615.38, 56991.957, 0.06390699, 0.40420032, -165847.55, 75790.97, 0.0, 10.000046, 10.000138 
5.6505865e+2, 2.8534693e+2, -159587.22, -242268.9, 239.81718, 0.08373802, 0.46440977, -159586.52, -15949.056, 0.00000046127252, 10.000283, 9.9992 
5.650701e+2, 2.9534614e+2, -129494.82, -167950.67, -21179.268, 0.13630104, 0.4511069, -120117.25, -74466.97, 0.000007729108, 9.999779, 9.999281 
5.650804e+2, 3.053462e+2, -14859.198, 81503.77, -69289.555, 0.09597739, 0.455945, 117717.19, 117717.19, 0.000034443015, 9.999496, 10.000798 
5.650904e+2, 3.153458e+2, 67009.914, 296952.88, -36197.805, 0.052970346, 0.3200893, 302516.53, 302516.53, 0.00008580813, 9.999276, 10.002383 
5.748707e+2, 1.2533961e+2, -1724142.4, -1766060.5, -177974.39, -0.11550336, 0.14630173, -1565897.1, 145798.39, 0.0000055281434, 10.000155, 9.99954 
5.748883e+2, 1.3534096e+2, -1646711.5, -1697432.9, 187823.05, 0.40382499, 0.31444007, -1482544.8, 131140.69, 0.00000085256136, 10.000009, 9.99947 
5.7489884e+2, 1.453411e+2, -1519038.6, -1556105.9, 133885.19, 0.038119722, 0.37537456, -1402410.3, 113276.04, 0.00000002938157, 10.000138, 9.999673 
5.749102e+2, 1.5534021e+2, -1357863.8, -1420204.9, 65998.49, -0.0030507417, 0.3020676, -1316045.3, 101651.195, 0.0, 10.00055, 9.999732 
5.749211e+2, 1.6534036e+2, -1232884.6, -1240400.1, 27188.762, -0.0049205353, 0.314947, -1209195.1, 110500.91, 0.0, 10.000433, 10.000349 
5.749317e+2, 1.753413e+2, -1217566.6, -1185165.8, 69973.78, 0.0061749807, 0.3600743, -1129541.5, 92146.27, 0.0, 9.999877, 10.000323 
5.749426e+2, 1.8534105e+2, -1098509.1, -1172132.6, 146838.69, -0.059557162, 0.34938553, -983938.25, 139750.53, 0.0, 10.000438, 9.999465 
5.7495373e+2, 1.953397e+2, -776831.4, -969794.0, 142533.02, -0.17992802, 0.25634074, -701195.56, 324503.03, 0.0, 10.0019865, 9.999437 
5.7496524e+2, 2.0533887e+2, -781738.4, -1058372.4, -2858.0176, -0.12719864, 0.29596132, -781708.9, 145999.9, 0.0, 10.001869, 9.998214 
5.7497686e+2, 2.1533844e+2, -909153.44, -1060908.6, -63232.62, 0.079252355, 0.420113, -886259.7, -56539.84, 0.0, 10.000286, 9.998287 
5.7498896e+2, 2.2533782e+2, -720154.75, -732186.8, 47995.797, 0.119326256, 0.44499782, -677799.44, 53927.742, 0.0, 10.000108, 9.999953 
5.750015e+2, 2.3533699e+2, -471024.47, -561911.1, 60348.605, 0.023381192, 0.35611373, -440922.78, 192808.63, 0.0, 10.001149, 9.9999485 
5.7501304e+2, 2.4533649e+2, -481555.25, -606318.6, -84789.39, 0.062415138, 0.35447207, -438671.97, 97065.53, 0.0, 10.000791, 9.999143 
5.750238e+2, 2.553362e+2, -617582.2, -616548.6, -52895.516, 0.21213162, 0.3995614, -564167.4, -126421.586, 0.0, 9.999166, 9.999183 
5.750343e+2, 2.6533607e+2, -487140.66, -410434.9, 102025.67, 0.12212766, 0.42740294, -339791.53, -43.74929, 0.0, 9.998993, 10.000008 
5.7504463e+2, 2.7533594e+2, -239046.47, -241380.1, 99079.945, -0.17624201, 0.40128213, -141126.47, 100618.87, 0.0, 10.000029, 9.999995 
5.7505697e+2, 2.8533527e+2, -193456.23, -303018.44, -24228.568, -0.12669362, 0.39586627, -188337.48, -44584.727, 0.0000006054728, 10.000243, 9.998801 
5.750708e+2, 2.9533413e+2, -162965.98, -233473.52, -32089.943, 0.22090654, 0.39129397, -150548.03, -104780.07, 0.000009214798, 9.999761, 9.99884 
5.7508063e+2, 3.0533332e+2, -112396.57, -121354.8, -77064.23, 0.15858784, 0.39819062, -39681.402, -39681.402, 0.00003883035, 9.999498, 9.999405 
5.7508785e+2, 3.1533298e+2, -40996.754, 75340.82, -41559.254, -0.15984243, 0.41022173, 88661.75, 88661.75, 0.00009398202, 9.999266, 10.000866 
5.848711e+2, 1.2532866e+2, -1710348.5, -1749848.1, -296185.2, -0.090796776, 0.045391914, -1433255.4, 278549.0, 0.0000029888902, 10.000211, 9.999622 
5.848876e+2, 1.3533196e+2, -1426270.5, -1588691.5, 132172.56, 0.2663309, 0.40693074, -1352352.9, 261425.34, 0.00000032572908, 10.001512, 9.99949 
5.848993e+2, 1.4533238e+2, -1328208.5, -1469711.6, 97011.1, 0.008328561, 0.5017779, -1278889.5, 236887.02, 0.0000000021906112, 10.001481, 9.999614 
5.849105e+2, 1.5533051e+2, -1369943.6, -1431137.3, 43995.32, -0.01777967, 0.3317204, -1346951.6, 70842.664, 0.0, 10.000488, 9.999681 
5.849213e+2, 1.6533023e+2, -1267268.0, -1281072.1, -6181.2114, -0.011785712, 0.31509593, -1264904.8, 54892.387, 0.0, 10.0002985, 10.0001335 
5.849322e+2, 1.753313e+2, -1092570.5, -1146087.3, -53519.12, 0.022982627, 0.39547583, -1059493.3, 162294.33, 0.0, 10.000828, 10.000132 
5.8494323e+2, 1.8533082e+2, -1043758.9, -1134357.8, 21210.318, -0.048620433, 0.3670709, -1039039.2, 84750.73, 0.0, 10.00076, 9.999574 
5.8495444e+2, 1.95329e+2, -1040358.1, -1084836.9, 26761.254, -0.20885642, 0.21507415, -1027801.56, -1998.5758, 0.0, 10.000125, 9.999547 
5.84966e+2, 2.053281e+2, -997301.56, -1202830.9, -58303.598, -0.16071615, 0.26208264, -981914.3, -54100.79, 0.0, 10.000563, 9.997851 
5.849779e+2, 2.1532796e+2, -681957.4, -987533.0, -14847.638, 0.06989099, 0.4473117, -681237.6, 148585.17, 0.0, 10.002005, 9.997959 
5.8498967e+2, 2.2532701e+2, -532263.25, -654563.44, 118160.73, 0.11488902, 0.46188402, -460367.13, 271466.7, 0.0, 10.001457, 9.999841 
5.850014e+2, 2.3532532e+2, -769084.3, -717499.4, 88696.89, 0.0044277, 0.29713732, -650920.94, -17073.79, 0.0, 9.999151, 9.999847 
5.850126e+2, 2.4532525e+2, -678715.7, -643850.6, -34225.5, 0.020511568, 0.319142, -622873.8, -87025.41, 0.0, 9.9991865, 9.9996605 
5.8502334e+2, 2.5532663e+2, -263159.47, -391594.0, -16122.831, 0.14122659, 0.47648984, -261166.42, 176673.05, 0.0, 10.001364, 9.999671 
5.850341e+2, 2.6532653e+2, -181901.73, -312896.6, 104462.22, 0.085643284, 0.50765175, -124101.68, 215739.58, 0.0, 10.001306, 9.99956 
5.850448e+2, 2.7532503e+2, -373004.6, -355037.28, 70016.71, -0.11946967, 0.38913763, -293430.25, -51576.594, 0.0, 9.999323, 9.999554 
5.8505726e+2, 2.85324e+2, -335853.2, -342843.47, 4979.371, -0.061333526, 0.35833016, -333264.72, -189400.9, 0.00000055145284, 9.999142, 9.999057 
5.8507097e+2, 2.9532352e+2, -36941.773, -149094.3, 35231.137, 0.22621591, 0.39015532, -26792.813, 19077.73, 0.000008696917, 10.000529, 9.999044 
5.8508074e+2, 3.0532238e+2, 24867.389, -198574.16, -986.05975, 0.14608821, 0.4247445, 24871.738, 24871.738, 0.000037738446, 10.001063, 9.998115 
5.850882e+2, 3.153214e+2, 65573.914, -48333.027, 12314.126, -0.12013002, 0.49458602, 66889.945, 66889.945, 0.000093645554, 10.000751, 9.999295 
5.948733e+2, 1.2531967e+2, -1651422.6, -1625232.1, -277874.53, 0.07740384, 0.31127182, -1360144.5, 351760.1, 0.000001124367, 10.000213, 10.000471 
5.948854e+2, 1.3532081e+2, -1375444.9, -1482494.6, 177085.38, -0.11376084, 0.3810374, -1243972.0, 369923.1, 0.000000025767086, 10.001515, 10.000216 
5.9489775e+2, 1.4532088e+2, -1305551.4, -1427451.3, 51719.74, -0.31124467, 0.3894033, -1286564.9, 229328.47, 0.0, 10.001495, 9.999898 
5.949106e+2, 1.5532045e+2, -1352216.9, -1396333.1, 11876.662, -0.06858662, 0.33618987, -1349222.8, 68671.12, 0.0, 10.000494, 9.99992 
5.9492195e+2, 1.6532005e+2, -1363210.1, -1473578.5, 8008.913, 0.009650223, 0.36364827, -1362632.0, -42733.31, 0.0, 10.000272, 9.998826 
5.949325e+2, 1.7531954e+2, -1179857.6, -1329334.3, -31267.943, -0.0407975, 0.41833323, -1173580.5, 48328.617, 0.0, 10.000834, 9.998874 
5.949445e+2, 1.8531886e+2, -1020186.2, -1078746.4, -8764.76, -0.012010715, 0.41061163, -1018902.5, 105012.086, 0.0, 10.000735, 9.999965 
5.949577e+2, 1.9531804e+2, -1017551.0, -1028887.7, 7769.216, 0.09253348, 0.31956574, -1013602.1, 12313.719, 0.0, 10.000086, 9.99995 
5.949691e+2, 2.0531721e+2, -920044.2, -1031589.06, -8120.869, 0.08092957, 0.290218, -919456.06, 8465.338, 0.0, 10.000518, 9.999047 
5.94979e+2, 2.1531631e+2, -610714.75, -828653.0, 40368.656, -0.029420335, 0.28463507, -603477.6, 226453.72, 0.0, 10.001959, 9.999074 
5.9498936e+2, 2.2531544e+2, -577265.4, -742146.06, 26236.193, -0.069503404, 0.2813617, -573191.25, 158749.83, 0.0, 10.001428, 9.999254 
5.9500015e+2, 2.3531446e+2, -814573.8, -802999.8, 10167.436, -0.045726728, 0.24756914, -797087.9, -163136.06, 0.0, 9.999109, 9.999282 
5.9501094e+2, 2.4531503e+2, -649776.06, -580500.1, 43000.016, -0.08030595, 0.33742404, -559922.25, -23974.34, 0.0, 9.999169, 10.000106 
5.950217e+2, 2.55317e+2, -238388.4, -331806.72, 64409.93, -0.16319734, 0.51039255, -205533.86, 232397.13, 0.0, 10.001327, 10.0001 
5.950339e+2, 2.653166e+2, -238235.3, -425712.6, 25832.027, -0.06987607, 0.52922493, -234741.1, 105195.33, 0.0, 10.001287, 9.998795 
5.950472e+2, 2.753139e+2, -425357.25, -460210.1, 4318.499, 0.17399305, 0.3665434, -424830.13, -182866.47, 0.0, 9.999308, 9.998838 
5.950594e+2, 2.8531304e+2, -273987.44, -216819.81, 51566.434, 0.22632957, 0.34465465, -186444.89, -42473.56, 0.0000003359344, 9.999148, 9.99992 
5.950704e+2, 2.953141e+2, 14232.111, -34766.26, 87593.39, 0.1062389, 0.4417375, 80687.92, 126647.03, 0.00000683328, 10.000492, 9.999848 
5.950806e+2, 3.053133e+2, -67857.664, -378654.78, -15030.971, 0.01866581, 0.5301239, -67132.42, -67132.42, 0.0000338567, 10.001015, 9.9969015 
5.950911e+2, 3.1531104e+2, -50756.543, -279280.78, -3413.507, 0.06858369, 0.59781003, -50705.566, -50705.566, 0.00008915562, 10.000713, 9.997725 
6.048722e+2, 1.2530997e+2, -1946916.5, -1755089.6, -144104.97, 0.065722674, 0.4251042, -1677897.3, 34108.01, 0.00000033090242, 9.998103, 10.000616 
6.048845e+2, 1.3531072e+2, -1554383.5, -1551577.1, 243723.4, -0.29128882, 0.44276133, -1309252.9, 304746.56, 0.000000000013925105, 10.000211, 10.000371 
6.0489845e+2, 1.453107e+2, -1414101.5, -1456065.0, 13091.951, -0.34536386, 0.42494735, -1410352.0, 105645.28, 0.0, 10.000653, 10.000107 
6.0491127e+2, 1.5531056e+2, -1407456.5, -1400860.5, -39150.9, -0.026886152, 0.38194346, -1364869.0, 53123.25, 0.0, 10.000024, 10.000114 
6.0492253e+2, 1.653098e+2, -1386531.0, -1541375.4, 56433.152, 0.039430577, 0.387738, -1368146.8, -48146.785, 0.0, 10.000355, 9.998321 
6.049331e+2, 1.7530833e+2, -1125251.3, -1357183.5, 68447.0, -0.08827733, 0.39693317, -1106558.0, 115462.19, 0.0, 10.001447, 9.998385 
6.0494494e+2, 1.853076e+2, -941721.0, -1045236.3, 46604.547, -0.05599488, 0.40817845, -923830.7, 200196.55, 0.0, 10.001285, 9.999934 
6.049579e+2, 1.9530748e+2, -1029819.2, -1032136.5, 26378.947, 0.11581922, 0.3887788, -1004573.44, 21449.416, 0.0, 9.999991, 9.99997 
6.049693e+2, 2.0530686e+2, -1012915.44, -997646.9, 50309.09, 0.099771805, 0.3423479, -954396.1, -26371.541, 0.0, 9.999537, 9.999758 
6.049794e+2, 2.1530572e+2, -882030.25, -884791.5, 53810.793, -0.07411184, 0.24057092, -829582.4, 450.19727, 0.0, 9.999766, 9.999749 
6.0498995e+2, 2.2530481e+2, -781107.1, -886548.56, -21617.422, -0.09333119, 0.22444594, -776847.25, -44805.477, 0.0, 10.000227, 9.998839 
6.050008e+2, 2.35304e+2, -579874.94, -732150.3, -30112.023, 0.023035984, 0.24851052, -574136.6, 59916.613, 0.0, 10.000908, 9.9988985 
6.050114e+2, 2.4530433e+2, -439742.84, -494064.3, 45911.836, -0.021433705, 0.3397548, -413559.38, 122492.86, 0.0, 10.000686, 9.999964 
6.050217e+2, 2.5530568e+2, -487995.94, -467498.53, 10954.245, -0.20479858, 0.46339402, -462746.2, -24705.727, 0.0, 9.9996805, 9.999959 
6.05034e+2, 2.653051e+2, -471571.63, -524135.06, -50294.734, -0.097596884, 0.4689946, -441105.75, -101059.35, 0.0, 9.999616, 9.998932 
6.0504794e+2, 2.7530274e+2, -258498.11, -367400.22, -10969.254, 0.26412526, 0.32529554, -257404.22, -15334.167, 0.0, 10.000385, 9.998966 
6.0505956e+2, 2.85302e+2, -86221.24, -148007.45, 76121.17, 0.26569712, 0.3197022, -34963.164, 109113.52, 0.00000016006682, 10.000537, 9.999723 
6.050692e+2, 2.9530305e+2, -49240.16, -89965.836, 22147.467, -0.045730267, 0.43676555, -39517.195, 6548.1406, 0.0000051844427, 10.000156, 9.999633 
6.050803e+2, 3.0530253e+2, -111166.85, -368944.53, -53010.016, -0.08312105, 0.5548532, -100691.445, -100691.445, 0.000029848581, 10.000582, 9.997179 
6.0509384e+2, 3.1529993e+2, 95364.555, -197069.08, 34692.11, 0.22450352, 0.5585035, 99423.82, 99423.82, 0.00008365637, 10.001664, 9.997841 
6.148676e+2, 1.2529957e+2, -1983391.4, -1823063.9, -69845.734, -0.22886379, 0.38671234, -1796904.4, -84798.74, 0.000000091949275, 9.998079, 10.000154 
6.148846e+2, 1.3530184e+2, -1592067.3, -1621259.1, 317882.16, -0.3052003, 0.60599804, -1288446.1, 325643.34, 0.0, 10.000181, 9.999905 
6.1490136e+2, 1.4530192e+2, -1405676.4, -1439653.9, -21114.879, -0.12833941, 0.61662734, -1395564.4, 120522.98, 0.0, 10.000648, 10.000225 
6.149123e+2, 1.5530081e+2, -1393711.8, -1380212.1, -56494.523, 0.061855543, 0.46260646, -1330065.6, 88024.54, 0.0, 10.000048, 10.000249 
6.149229e+2, 1.652994e+2, -1366656.9, -1493007.5, 95075.45, 0.023495438, 0.3795099, -1315681.1, 4420.3, 0.0, 10.000332, 9.998662 
6.1493397e+2, 1.7529759e+2, -1102587.0, -1313181.6, 112021.3, -0.15929918, 0.32248166, -1054143.4, 167978.31, 0.0, 10.001457, 9.998685 
6.149447e+2, 1.8529698e+2, -977513.9, -1108911.4, -6068.2896, -0.22269171, 0.35242778, -977234.25, 146894.03, 0.0, 10.001244, 9.999514 
6.1495495e+2, 1.9529739e+2, -1064574.0, -1097664.5, -15819.814, -0.19039904, 0.42795646, -1058227.9, -32104.559, 0.0, 9.999962, 9.999536 
6.149664e+2, 2.052971e+2, -1003486.7, -966717.06, 54522.625, -0.15497595, 0.42527014, -927563.06, 559.5367, 0.0, 9.99949, 9.999991 
6.1497897e+2, 2.1529616e+2, -873762.2, -856673.8, 66339.87, -0.10672743, 0.31845668, -798330.2, 31796.098, 0.0, 9.999716, 9.999967 
6.149912e+2, 2.2529514e+2, -803524.44, -920086.7, 1361.6367, 0.0027776407, 0.29099, -803508.56, -71372.836, 0.0, 10.000173, 9.998634 
6.150032e+2, 2.3529397e+2, -600992.56, -767168.06, -881.667, 0.16524163, 0.2995843, -600987.94, 33163.21, 0.0, 10.000869, 9.998676 
6.1501384e+2, 2.4529316e+2, -497562.25, -609589.8, 2663.8027, 0.14759423, 0.32466665, -497498.94, 38662.633, 0.0, 10.000664, 9.999182 
6.150233e+2, 2.5529256e+2, -544176.06, -578960.06, -21768.873, -0.028809119, 0.33519506, -533704.75, -95536.66, 0.0, 9.999656, 9.999207 
6.150343e+2, 2.6529208e+2, -401773.16, -375203.66, -25213.41, -0.039476555, 0.33005336, -359989.28, -19818.133, 0.0, 9.9995985, 9.999961 
6.1504674e+2, 2.7529156e+2, -195446.47, -226800.67, 21487.625, 0.09943005, 0.26947552, -184524.89, 57647.285, 0.0, 10.000348, 9.999946 
6.150577e+2, 2.8529096e+2, -176512.98, -335637.7, 56689.336, 0.012292309, 0.292105, -158382.7, -14204.009, 0.00000012615395, 10.00053, 9.998441 
6.1506706e+2, 2.9529038e+2, -137290.48, -267042.72, 14892.365, -0.28608406, 0.37392378, -135603.16, -89414.734, 0.000004328694, 10.000132, 9.998428 
6.150797e+2, 3.0529025e+2, 1523.889, -127576.93, -15038.573, -0.21280326, 0.5027573, 3252.5415, 3252.5415, 0.000026339554, 10.000553, 9.998853 
6.150959e+2, 3.1528822e+2, 207400.38, 56871.676, 78900.79, 0.24579482, 0.39822724, 241177.56, 241177.56, 0.00007734693, 10.001586, 9.999619 
6.2486655e+2, 1.252886e+2, -1344648.6, -1566828.9, -124261.57, -0.37114787, 0.38161716, -1289059.5, 423152.8, 0.000000014013729, 10.002688, 9.999695 
6.2488467e+2, 1.3529044e+2, -1720306.4, -1723716.3, 226668.69, -0.28534698, 0.5983583, -1495336.3, 118865.35, 0.0, 9.999482, 9.999539 
6.2490267e+2, 1.4529037e+2, -1643345.9, -1527564.5, -42978.285, 0.023781154, 0.6012943, -1513354.8, 2846.8604, 0.0, 9.998913, 10.000455 
6.249126e+2, 1.5528966e+2, -1216918.0, -1266996.0, -76922.87, 0.03136695, 0.46344984, -1161061.5, 257139.69, 0.0, 10.001157, 10.000485 
6.249229e+2, 1.652886e+2, -1192821.1, -1354602.8, 49665.313, -0.05031461, 0.3784445, -1178791.1, 141416.69, 0.0, 10.00128, 9.99916 
6.2493455e+2, 1.7528711e+2, -1371891.6, -1385295.6, 70590.52, -0.13538846, 0.30237612, -1307685.8, -85463.76, 0.0, 9.999367, 9.999194 
6.249453e+2, 1.8528663e+2, -1260237.1, -1270010.1, -1956.2909, -0.18601938, 0.33027935, -1259860.1, -135633.02, 0.0, 9.999402, 9.999298 
6.2495506e+2, 1.9528691e+2, -909013.06, -1047279.5, -2873.7046, -0.23101312, 0.416199, -908953.4, 117271.95, 0.0, 10.00113, 9.999321 
6.249665e+2, 2.0528644e+2, -745542.1, -868268.6, 42099.465, -0.18355171, 0.4173013, -732488.9, 195738.56, 0.0, 10.001371, 9.99976 
6.2497956e+2, 2.152852e+2, -809496.75, -846310.7, 10246.972, -0.03766233, 0.30456468, -806836.75, 23397.273, 0.0, 10.000256, 9.999773 
6.2499195e+2, 2.252844e+2, -803776.3, -910615.44, -9690.751, 0.06337001, 0.30208826, -802904.44, -70663.26, 0.0, 10.000124, 9.998726 
6.2500364e+2, 2.352839e+2, -598108.3, -759147.8, 763.14404, 0.12428398, 0.36811617, -598104.7, 36145.13, 0.0, 10.000855, 9.998741 
6.2501425e+2, 2.4528253e+2, -520223.06, -669808.06, -23648.36, 0.11589053, 0.36124063, -516573.47, 19691.12, 0.0, 10.000712, 9.998748 
6.250237e+2, 2.5528038e+2, -551480.9, -628555.2, -28260.5, 0.046713565, 0.25664848, -542229.25, -103943.73, 0.0, 9.999804, 9.998794 
6.250347e+2, 2.6527965e+2, -372647.63, -385486.97, 6844.5537, 0.023524877, 0.25830686, -369683.28, -29392.297, 0.0, 9.999903, 9.999743 
6.250468e+2, 2.752801e+2, -132490.28, -221956.06, -51571.676, 0.04626564, 0.3133102, -108954.08, 133329.8, 0.0, 10.000887, 9.999721 
6.250579e+2, 2.8527907e+2, -158348.05, -358725.16, -70016.11, -0.033868205, 0.32062477, -136307.3, 7986.965, 0.000000116905284, 10.000789, 9.998159 
6.250677e+2, 2.9527673e+2, -213204.39, -336875.7, -48418.555, -0.21633115, 0.25778311, -196503.39, -150183.61, 0.000004282829, 9.9997425, 9.998141 
6.2508065e+2, 3.0527645e+2, -66979.49, -97600.95, -9056.374, -0.13454089, 0.35899186, -64501.566, -64501.566, 0.000025214384, 9.99981, 9.999414 
6.2509644e+2, 3.1527498e+2, 165118.13, 133870.6, -18192.795, 0.18441808, 0.25066003, 173475.19, 173475.19, 0.00007395699, 10.000852, 10.000507 
6.3486886e+2, 1.2527713e+2, -1359497.5, -1619260.4, -229122.4, -0.44214964, 0.41649672, -1226004.1, 486320.88, 0.0000000049225286, 10.002782, 9.999294 
6.3488436e+2, 1.3527639e+2, -1740403.5, -1763858.1, 104045.56, -0.27177483, 0.40827757, -1647426.5, -33089.55, 0.0, 9.999476, 9.999268 
6.349021e+2, 1.4527592e+2, -1626039.5, -1485096.3, 33585.555, 0.06583778, 0.36859456, -1477502.3, 38839.156, 0.0, 9.998882, 10.000763 
6.349119e+2, 1.5527697e+2, -1191526.3, -1220162.1, 10044.885, -0.16934057, 0.37489742, -1188354.1, 229972.47, 0.0, 10.001176, 10.0008 
6.3492244e+2, 1.6527729e+2, -1147098.1, -1251440.3, -28963.979, -0.2347959, 0.3750002, -1139597.3, 180722.6, 0.0, 10.001251, 9.999879 
6.349349e+2, 1.7527685e+2, -1325855.6, -1287640.9, 4816.057, -0.056751374, 0.33299288, -1287043.3, -64721.723, 0.0, 9.999354, 9.999873 
6.349468e+2, 1.8527645e+2, -1264695.0, -1271165.4, 60135.1, 0.012619093, 0.3372126, -1207708.1, -83383.7, 0.0, 9.999369, 9.999305 
6.3495815e+2, 1.95276e+2, -913633.94, -1050622.5, 63413.055, -0.046333387, 0.34822366, -888786.5, 137542.81, 0.0, 10.001103, 9.99931 
6.3496953e+2, 2.0527479e+2, -802605.75, -974133.5, -5784.6587, -0.021175519, 0.3130249, -802410.9, 125928.836, 0.0, 10.00132, 9.999058 
6.3498116e+2, 2.1527281e+2, -864517.9, -946314.7, -26801.578, 0.08712654, 0.19535002, -856518.44, -26162.31, 0.0, 10.0001955, 9.999114 
6.3499194e+2, 2.2527255e+2, -786384.25, -860041.8, 13795.895, 0.042421848, 0.25946555, -783885.06, -51526.6, 0.0, 10.000062, 9.999102 
6.350019e+2, 2.3527373e+2, -577106.8, -707132.75, 31906.45, -0.14490648, 0.4542488, -569699.44, 64649.78, 0.0, 10.000818, 9.999117 
6.3501227e+2, 2.4527255e+2, -529665.7, -684011.3, -61441.27, -0.16171627, 0.45027262, -508194.34, 28166.508, 0.0, 10.000689, 9.998663 
6.3502294e+2, 2.5526917e+2, -563122.3, -647178.2, -56987.875, -0.023793321, 0.23301765, -534340.9, -95948.695, 0.0, 9.999778, 9.998681 
6.350349e+2, 2.6526782e+2, -478370.44, -599632.1, 40767.086, 0.04700308, 0.25443393, -465939.28, -125533.27, 0.0, 9.999883, 9.998282 
6.350479e+2, 2.752683e+2, -238014.31, -428891.63, -10404.428, 0.057699025, 0.45681384, -237448.86, 4956.0117, 0.0, 10.000838, 9.9983225 
6.350599e+2, 2.8526634e+2, -109858.31, -256311.0, -115122.016, 0.07669707, 0.40402773, -46647.215, 97775.88, 0.0000001448745, 10.000779, 9.998872 
6.350707e+2, 2.9526225e+2, -170613.84, -241061.16, -80804.46, 0.10040143, 0.09819653, -117689.52, -71231.22, 0.0000050785306, 9.999719, 9.998811 
6.350828e+2, 3.052614e+2, -103957.71, -177997.39, 29726.484, 0.08572072, 0.14106832, -93499.84, -93499.84, 0.000027373664, 9.999821, 9.998859 
6.350951e+2, 3.1526047e+2, 149409.94, 128940.0, 33155.016, -0.05894973, 0.13621517, 173873.81, 173873.81, 0.00007720963, 10.000745, 10.000521 
6.448699e+2, 1.252654e+2, -1918544.0, -1826650.5, -208091.34, -0.39635974, 0.4268231, -1659493.8, 52949.07, 0.0000000021351345, 9.998667, 9.999856 
6.44884e+2, 1.3526496e+2, -1573724.6, -1608301.9, 140439.64, -0.29124844, 0.37808698, -1449513.4, 164933.16, 0.0, 10.00031, 9.999924 
6.4490175e+2, 1.452647e+2, -1456486.9, -1452114.3, 139851.0, 0.08113702, 0.3473629, -1314432.5, 202016.33, 0.0, 10.000249, 10.000334 
6.4491135e+2, 1.5526573e+2, -1533361.6, -1429060.5, 53856.316, -0.22259167, 0.39641595, -1406243.1, 12194.906, 0.0, 9.999016, 10.000409 
6.4492214e+2, 1.6526623e+2, -1435788.4, -1345027.3, -48557.574, -0.27654162, 0.4124514, -1323945.5, -3514.923, 0.0, 9.999068, 10.00029 
6.449351e+2, 1.7526616e+2, -1168728.4, -1168162.9, -44813.07, -0.010527497, 0.36734188, -1123631.6, 98795.26, 0.0, 10.000238, 10.00027 
6.449475e+2, 1.8526576e+2, -1091086.9, -1193019.3, 44043.82, 0.08954458, 0.35644707, -1074692.8, 49735.99, 0.0, 10.000584, 9.999256 
6.4495933e+2, 1.9526497e+2, -1052145.3, -1121986.1, 32654.9, 0.011788128, 0.33720085, -1039255.9, -12819.038, 0.0, 10.0001745, 9.999266 
6.449706e+2, 2.0526375e+2, -975674.4, -1062626.5, -42161.45, 0.009144144, 0.3036522, -958588.44, -30140.668, 0.0, 10.000152, 9.999013 
6.4498144e+2, 2.1526207e+2, -829050.0, -939469.9, -23613.854, 0.08412977, 0.22215661, -824212.06, 6250.1533, 0.0, 10.000472, 9.999035 
6.44992e+2, 2.2526155e+2, -689160.4, -797569.44, 67422.11, 0.020943897, 0.25933695, -656855.56, 75610.29, 0.0, 10.000659, 9.999246 
6.4500237e+2, 2.3526204e+2, -582948.56, -694287.7, 55044.074, -0.16984443, 0.3698663, -560330.5, 74129.93, 0.0, 10.000712, 9.999255 
6.4501303e+2, 2.4526085e+2, -500854.56, -700023.56, -67942.56, -0.1643672, 0.37198925, -479885.06, 56586.523, 0.0, 10.001017, 9.998396 
6.45024e+2, 2.5525808e+2, -321529.94, -560800.0, -83570.34, 0.016515562, 0.24364617, -295231.63, 143266.73, 0.0, 10.001566, 9.998415 
6.450356e+2, 2.6525655e+2, -304525.84, -560000.06, 64967.17, 0.06596299, 0.27785972, -288953.84, 51561.344, 0.0, 10.001264, 9.99789 
6.4504784e+2, 2.7525604e+2, -352021.1, -526754.1, 86050.76, 0.002739689, 0.42236635, -316759.53, -74235.56, 0.000000000000000000046744374, 10.0002365, 9.997941 
6.450602e+2, 2.8525406e+2, -170680.73, -270502.84, 7754.713, 0.060001004, 0.37810877, -170081.89, -25539.713, 0.00000034821963, 10.000302, 9.998999 
6.4507246e+2, 2.952507e+2, 71863.19, -112007.12, -10943.759, 0.22417383, 0.13005781, 72512.26, 119081.62, 0.000006846114, 10.001326, 9.998923 
6.450843e+2, 3.0524924e+2, 57469.973, -124209.31, 97478.414, 0.20338014, 0.111622825, 99874.02, 99874.02, 0.000033104992, 10.001033, 9.998642 
6.4509445e+2, 3.152474e+2, 3342.2087, 77946.27, 105352.86, -0.1324273, 0.035323296, 152405.89, 152405.89, 0.000088752815, 9.999647, 10.000696 
6.548697e+2, 1.252534e+2, -1816903.1, -1598935.5, -113882.164, -0.3069089, 0.3973181, -1550291.1, 162275.28, 0.0000000012982254, 9.998599, 10.001449 
6.548833e+2, 1.352563e+2, -1460809.0, -1373669.1, 198431.33, -0.39823747, 0.5153081, -1214080.6, 400448.47, 0.0, 10.000319, 10.001525 
6.5490156e+2, 1.4525676e+2, -1534898.9, -1620720.9, 83156.09, 0.022823056, 0.5411401, -1484234.8, 32288.104, 0.0, 10.000271, 9.999168 
6.549111e+2, 1.5525599e+2, -1614688.6, -1596178.6, 13955.603, -0.16992763, 0.526377, -1588688.1, -170152.84, 0.0, 9.999005, 9.9992695 
6.549219e+2, 1.6525547e+2, -1435146.0, -1336633.1, -7876.0117, -0.22174656, 0.4938578, -1336007.5, -15467.975, 0.0, 9.999039, 10.00036 
6.5493506e+2, 1.7525512e+2, -1163500.3, -1159990.8, 2346.2437, -0.048931565, 0.4113711, -1158815.6, 63721.875, 0.0, 10.000248, 10.00032 
6.549473e+2, 1.8525459e+2, -1098934.1, -1204745.5, 21327.68, -0.0052603744, 0.3880301, -1094797.0, 29743.29, 0.0, 10.0005665, 9.999184 
6.549584e+2, 1.9525383e+2, -1061716.5, -1128237.9, 21619.021, -0.107816696, 0.38047314, -1055307.9, -28759.959, 0.0, 10.000123, 9.999246 
6.549693e+2, 2.0525336e+2, -943530.3, -985334.2, -34590.336, -0.14035033, 0.39350492, -924017.1, 4534.089, 0.0, 10.000102, 9.999569 
6.549802e+2, 2.15253e+2, -797287.56, -862409.2, -6550.7803, -0.09917655, 0.38662916, -796635.1, 33916.918, 0.0, 10.000425, 9.999585 
6.5499204e+2, 2.2525148e+2, -709001.25, -823231.6, 64054.355, -0.04823987, 0.30433324, -680296.25, 52266.43, 0.0, 10.000597, 9.999097 
6.550049e+2, 2.3524885e+2, -602191.06, -718542.06, 61758.793, 0.00625874, 0.11785554, -575522.4, 59060.89, 0.0, 10.00065, 9.999115 
6.550165e+2, 2.4524745e+2, -537577.06, -767070.1, -51551.46, 0.06323153, 0.12786756, -526528.8, 10067.954, 0.0, 10.000976, 9.997955 
6.5502673e+2, 2.5524715e+2, -354031.34, -621662.75, -59948.777, 0.124846175, 0.28580287, -341216.56, 97387.84, 0.0, 10.001539, 9.998008 
6.5503675e+2, 2.6524583e+2, -254228.16, -456915.94, 21391.674, 0.041957896, 0.32764822, -251995.08, 88623.52, 0.0, 10.001266, 9.9986 
6.550465e+2, 2.7524355e+2, -307906.66, -429999.16, 54355.37, -0.16975385, 0.22837026, -287214.6, -44574.81, 0.0000000002377775, 10.000213, 9.998619 
6.550586e+2, 2.8524238e+2, -203352.38, -334189.06, 42614.184, -0.14052297, 0.2529256, -190696.86, -46046.1, 0.0000008000927, 10.000286, 9.998567 
6.550727e+2, 2.9524213e+2, 35224.637, -173603.77, 30019.313, 0.10685093, 0.35485977, 39454.277, 86107.375, 0.0000102621225, 10.001269, 9.998525 
6.5508515e+2, 3.0523986e+2, 66422.78, -106817.04, 40927.613, 0.16802593, 0.27211648, 75605.16, 75605.16, 0.000043104363, 10.001038, 9.998762 
6.550944e+2, 3.1523564e+2, 20063.623, 123621.46, 75820.44, -0.13929173, -0.04684992, 163656.45, 163656.45, 0.000108066146, 9.999609, 10.001029 
6.6487056e+2, 1.2524253e+2, -1466873.9, -1479780.8, 29796.955, -0.20254195, 0.3989671, -1442839.5, 269830.84, 0.00000000035571668, 10.001194, 10.001022 
6.6488326e+2, 1.3524528e+2, -1480479.1, -1426723.3, 117096.195, -0.43558988, 0.5371646, -1333459.9, 281176.06, 0.0, 10.000351, 10.001155 
6.6490144e+2, 1.4524537e+2, -1617361.5, -1663296.6, -55363.813, 0.0117846485, 0.54595983, -1580390.3, -63757.055, 0.0, 9.999733, 9.999126 
6.6491103e+2, 1.5524384e+2, -1505448.0, -1549199.5, -46130.605, -0.10652087, 0.461983, -1476269.0, -57617.727, 0.0, 9.99979, 9.9992075 
6.6492176e+2, 1.6524331e+2, -1318458.9, -1293873.3, 22623.34, -0.17320907, 0.43510494, -1280418.6, 40237.605, 0.0, 9.999896, 10.000239 
6.6493464e+2, 1.7524359e+2, -1211100.9, -1190386.0, 7656.729, -0.09380648, 0.42656812, -1187863.1, 34786.973, 0.0, 9.999961, 10.000243 
6.649469e+2, 1.852432e+2, -1168703.5, -1194606.9, 15519.047, -0.060447566, 0.4017073, -1161441.6, -36790.746, 0.0, 9.999903, 9.999574 
6.649583e+2, 1.9524214e+2, -1093855.9, -1104643.4, 39990.63, -0.10305422, 0.32449117, -1058896.9, -32237.871, 0.0, 9.999725, 9.999605 
6.6496956e+2, 2.0524183e+2, -927143.2, -972469.94, 24282.383, -0.12641495, 0.33416447, -916591.1, 12069.206, 0.0, 10.000196, 9.999611 
6.649807e+2, 2.1524209e+2, -671732.75, -796994.0, 823.909, -0.122283526, 0.38611394, -671727.3, 158929.39, 0.0, 10.001273, 9.999622 
6.6499305e+2, 2.2524065e+2, -575088.44, -755477.5, 33349.215, -0.054799717, 0.30792916, -569120.5, 163546.69, 0.0, 10.001506, 9.999123 
6.650062e+2, 2.3523763e+2, -558851.06, -697100.3, 35712.883, 0.06178463, 0.08025462, -550170.7, 84520.38, 0.0, 10.00094, 9.999125 
6.650178e+2, 2.4523613e+2, -531438.94, -765365.0, -12695.842, 0.1010149, 0.08205425, -530751.94, 5953.3384, 0.0, 10.001022, 9.997946 
6.650278e+2, 2.55236e+2, -329815.63, -612017.06, -1673.827, 0.07005487, 0.25970492, -329805.72, 108905.61, 0.0, 10.001711, 9.997994 
6.65038e+2, 2.6523456e+2, -162740.16, -432086.47, 22847.754, 0.0014128252, 0.29712436, -160815.8, 179911.2, 0.0, 10.001973, 9.99843 
6.650482e+2, 2.752319e+2, -82736.23, -338737.9, -17327.01, -0.10047288, 0.17495705, -81568.805, 161183.4, 0.0000000023427176, 10.001834, 9.998463 
6.650597e+2, 2.8523082e+2, -92452.805, -305488.47, -20812.828, -0.09750478, 0.22978179, -90438.51, 54324.723, 0.0000014418595, 10.001154, 9.998346 
6.6507226e+2, 2.9523104e+2, -160010.67, -286902.7, -29178.814, 0.0022990352, 0.4028188, -153622.6, -106859.9, 0.000014782389, 10.000011, 9.99835 
6.650851e+2, 3.052287e+2, -117059.84, -209134.52, -21171.79, 0.12046889, 0.32375354, -112424.89, -112424.89, 0.000056755354, 9.999846, 9.998632 
6.6509604e+2, 3.1522542e+2, 132239.48, 149435.34, -11514.716, 0.03495266, 0.1166761, 155207.98, 155207.98, 0.00013493579, 10.000508, 10.000774 
6.748724e+2, 1.2523289e+2, -1640375.8, -1845669.8, 35093.816, -0.16866502, 0.42543066, -1634542.4, 78211.15, 0.0000000023126079, 10.001232, 9.9984865 
6.7488354e+2, 1.3523187e+2, -1650736.0, -1774096.9, 81904.9, -0.45095518, 0.43276438, -1609884.1, 4883.405, 0.0, 10.0003395, 9.99877 
6.749011e+2, 1.4523053e+2, -1543080.1, -1510667.8, -62563.652, -0.003588064, 0.36110106, -1462245.4, 54534.42, 0.0, 9.999735, 10.000176 
6.749111e+2, 1.5522934e+2, -1428530.9, -1397204.4, -38167.316, -0.09564601, 0.20470677, -1371611.4, 47174.832, 0.0, 9.999819, 10.000239 
6.749217e+2, 1.6522975e+2, -1334292.0, -1328223.6, 20175.225, -0.18671241, 0.23519987, -1310855.8, 9924.809, 0.0, 9.999903, 10.000001 
6.749338e+2, 1.7523164e+2, -1226286.6, -1220741.0, 15269.306, -0.18749863, 0.40980434, -1207994.8, 14769.211, 0.0, 9.999956, 10.000039 
6.749463e+2, 1.8523169e+2, -1113553.8, -1076540.5, 3296.2576, -0.123291485, 0.3979312, -1076249.3, 48510.848, 0.0, 9.999885, 10.000394 
6.7495894e+2, 1.9522998e+2, -1045986.56, -994043.8, 38916.64, -0.025741616, 0.17421614, -973228.25, 53541.02, 0.0, 9.999679, 10.000387 
6.749711e+2, 2.0522927e+2, -970652.44, -1051860.8, 60186.324, 0.0012431358, 0.13218231, -938654.3, -9880.097, 0.0, 10.000146, 9.999092 
6.749831e+2, 2.1522938e+2, -711930.94, -870463.7, 44607.895, -0.025442563, 0.22145107, -700241.2, 130534.97, 0.0, 10.001228, 9.999141 
6.7499477e+2, 2.2522911e+2, -568411.94, -729310.94, 8584.837, -0.039954413, 0.27290216, -567955.2, 164823.73, 0.0, 10.001453, 9.999327 
6.7500615e+2, 2.3522839e+2, -551488.4, -670872.1, 21672.725, -0.047323894, 0.25681248, -547675.75, 87107.68, 0.0, 10.000896, 9.999325 
6.750169e+2, 2.45227e+2, -509055.53, -712798.44, 9307.665, -0.100330696, 0.23640636, -508631.2, 28165.043, 0.0, 10.000997, 9.998316 
6.7502695e+2, 2.552248e+2, -312394.84, -567422.94, 27162.133, -0.19236074, 0.17285858, -309534.0, 129283.99, 0.0, 10.001672, 9.998318 
6.75039e+2, 2.6522282e+2, -239982.56, -585127.8, 13940.8125, -0.10028209, 0.19301426, -239420.39, 101419.234, 0.0, 10.001944, 9.997393 
6.750527e+2, 2.7522102e+2, -157166.25, -487406.47, -17755.813, 0.15440887, 0.25795996, -156214.33, 86647.24, 0.0000000015372758, 10.001811, 9.997452 
6.750633e+2, 2.8521937e+2, -88159.234, -303015.66, -68058.32, 0.13213575, 0.30344635, -68415.3, 76464.7, 0.0000017821444, 10.001179, 9.998352 
6.75071e+2, 2.9521772e+2, -162296.1, -289989.44, -65731.34, -0.14294872, 0.29023504, -134507.58, -87611.2, 0.000018938657, 10.000001, 9.998335 
6.750838e+2, 3.052158e+2, -146774.08, -266742.88, 1711.7202, 0.00087534584, 0.27798903, -146749.67, -146749.67, 0.00007225524, 9.999832, 9.998239 
6.750992e+2, 3.1521645e+2, 67307.22, 25134.186, 37588.78, 0.2672132, 0.5014287, 89320.09, 89320.09, 0.00016863653, 10.000466, 9.999936 
6.848749e+2, 1.252216e+2, -1688969.9, -1954802.1, -45630.49, -0.0350116, 0.4045518, -1681355.5, 31502.018, 0.0000000036242784, 10.001244, 9.997748 
6.8488353e+2, 1.352195e+2, -1761151.1, -1901380.6, 74370.03, -0.4542999, 0.37680978, -1729055.4, -114168.43, 0.0, 9.999909, 9.998101 
6.849001e+2, 1.4521809e+2, -1581756.4, -1492250.3, 28521.56, -0.05567333, 0.3139839, -1483934.4, 32966.36, 0.0, 9.999303, 10.000514 
6.849107e+2, 1.5521722e+2, -1428986.3, -1362571.9, -8751.162, -0.10019243, 0.15307294, -1361438.0, 57463.54, 0.0, 9.999655, 10.000563 
6.849217e+2, 1.6521768e+2, -1359261.0, -1344746.6, 30141.396, -0.16447775, 0.17569876, -1321001.0, -106.627426, 0.0, 9.999753, 9.999964 
6.8493384e+2, 1.7521939e+2, -1278017.4, -1252247.0, 29799.479, -0.16232346, 0.34103665, -1232666.3, -9786.347, 0.0, 9.999625, 9.999987 
6.849464e+2, 1.8521954e+2, -1093831.5, -1060588.3, 16688.691, -0.103406675, 0.33631662, -1053655.9, 71219.69, 0.0, 9.999995, 10.000448 
6.849592e+2, 1.9521807e+2, -876072.25, -903453.2, -13779.532, -0.022823386, 0.13254912, -870338.44, 156543.63, 0.0, 10.0008135, 10.000457 
6.849716e+2, 2.0521739e+2, -884603.3, -1001980.3, 3658.2031, 0.00412022, 0.0852503, -884489.4, 44397.566, 0.0, 10.000703, 9.999163 
6.849837e+2, 2.1521734e+2, -923563.3, -964641.25, 23399.217, -0.011151427, 0.1503037, -912967.5, -82076.45, 0.0, 9.999739, 9.999212 
6.849953e+2, 2.2521743e+2, -807994.7, -852272.3, 13263.339, -0.05032375, 0.23787877, -804325.7, -71433.52, 0.0, 9.999833, 9.999269 
6.850063e+2, 2.3521757e+2, -554644.4, -677845.3, -3437.0918, -0.11589475, 0.31235403, -554548.56, 80342.87, 0.0, 10.000889, 9.999286 
6.850174e+2, 2.4521637e+2, -433196.5, -646103.4, -16160.4795, -0.16548699, 0.30100515, -431976.84, 104925.69, 0.0, 10.001385, 9.9985895 
6.850284e+2, 2.5521383e+2, -333237.8, -547395.44, -11607.598, -0.19871522, 0.17601365, -332610.5, 106314.875, 0.0, 10.0014, 9.998586 
6.8504083e+2, 2.652119e+2, -318810.38, -642012.5, 2777.4207, -0.08409497, 0.19777128, -318786.5, 22159.996, 0.0, 10.001487, 9.99722 
6.850545e+2, 2.7521047e+2, -190170.83, -522721.28, 23382.264, 0.167511, 0.31701845, -188534.83, 54432.13, 0.00000000039754933, 10.001666, 9.997281 
6.8506515e+2, 2.8520846e+2, -10390.809, -299171.6, -19756.25, 0.16400297, 0.3492215, -9045.499, 135944.17, 0.0000019350068, 10.00186, 9.998051 
6.850728e+2, 2.952058e+2, 122808.195, -183458.36, -48405.414, -0.069044694, 0.2666913, 130276.55, 177291.83, 0.000022513892, 10.002097, 9.998056 
6.8508494e+2, 3.0520394e+2, 131389.47, -132509.83, 43872.74, 0.042714708, 0.2685287, 138492.06, 138492.06, 0.000087464054, 10.001725, 9.998252 
6.8509936e+2, 3.1520563e+2, 56562.375, -27394.627, 105304.59, 0.24064967, 0.59257805, 127947.24, 127947.24, 0.00020410729, 10.000583, 9.99952 
6.948779e+2, 1.2520856e+2, -1605102.0, -1775520.1, -76781.74, 0.117053755, 0.33322152, -1575611.4, 137371.88, 0.00000000017840025, 10.001238, 9.99897 
6.9488317e+2, 1.352083e+2, -1684809.9, -1738160.8, 25891.031, -0.492947, 0.3723072, -1674311.1, -59318.23, 0.0, 9.9999, 9.999217 
6.948981e+2, 1.452082e+2, -1609093.1, -1549979.4, 36505.535, -0.1913977, 0.40404227, -1532565.4, -15570.619, 0.0, 9.999307, 10.000116 
6.949099e+2, 1.5520754e+2, -1451787.5, -1418969.3, 11744.692, -0.17073652, 0.30841568, -1415199.3, 3797.2012, 0.0, 9.999689, 10.000163 
6.9492155e+2, 1.6520716e+2, -1351381.8, -1329200.1, 20066.273, -0.16018738, 0.26059014, -1317363.6, 3633.3572, 0.0, 9.999759, 10.000065 
6.949345e+2, 1.7520699e+2, -1273968.1, -1240166.6, 30359.662, -0.062627085, 0.22436489, -1222320.5, 676.5842, 0.0, 9.99961, 10.000076 
6.9494706e+2, 1.852068e+2, -1146027.3, -1163498.6, 44381.414, -0.046592303, 0.21729067, -1109530.0, 15466.702, 0.0, 9.99997, 9.999753 
6.949589e+2, 1.9520651e+2, -927444.06, -1003961.2, 20315.377, -0.1388448, 0.19926947, -922384.8, 104612.09, 0.0, 10.000787, 9.99978 
6.9497067e+2, 2.0520626e+2, -843703.8, -908181.0, -38112.094, -0.1657337, 0.19660221, -826023.9, 102974.45, 0.0, 10.000666, 9.9998255 
6.9498235e+2, 2.1520598e+2, -886610.94, -875992.75, -7790.76, -0.12452322, 0.17330234, -871874.06, -40872.484, 0.0, 9.999687, 9.9998455 
6.949944e+2, 2.2520564e+2, -837771.0, -901952.2, 48854.594, -0.13000244, 0.20308499, -811410.1, -78403.26, 0.0, 9.999782, 9.998951 
6.950066e+2, 2.3520516e+2, -584787.2, -726747.3, 40239.45, -0.18658046, 0.24682887, -574174.5, 60840.625, 0.0, 10.000833, 9.998975 
6.950192e+2, 2.4520433e+2, -424197.7, -617133.56, -19907.834, -0.13908759, 0.27796975, -422164.94, 114858.77, 0.0, 10.001342, 9.99881 
6.9503194e+2, 2.5520316e+2, -321341.84, -515140.28, -6867.078, 0.004139636, 0.26579347, -321098.8, 117934.4, 0.0, 10.0013685, 9.998823 
6.950434e+2, 2.6520187e+2, -275345.0, -549233.6, 6593.121, 0.011916364, 0.30551136, -275186.38, 65861.36, 0.0, 10.001477, 9.997861 
6.950536e+2, 2.7520034e+2, -154088.1, -439398.1, 35609.695, -0.101035446, 0.35669956, -149710.78, 93357.31, 0.0000000054780975, 10.00163, 9.99787 
6.95065e+2, 2.8519815e+2, -54964.15, -387591.38, -14884.346, -0.046321943, 0.3731876, -54299.438, 90792.766, 0.000002355568, 10.001842, 9.997452 
6.950771e+2, 2.9519528e+2, 81332.93, -266910.9, -32433.799, 0.15051556, 0.32486513, 84327.91, 131448.13, 0.000026314181, 10.002084, 9.997489 
6.950883e+2, 3.0519292e+2, 158326.2, -73152.66, -153.07655, 0.1890473, 0.28609166, 158326.3, 158326.3, 0.00010198075, 10.001719, 9.998659 
6.950966e+2, 3.1519303e+2, 47766.75, -37927.684, 82832.33, -0.118779115, 0.41403, 98177.66, 98177.66, 0.00023747227, 10.000559, 9.999457 
7.04878e+2, 1.251958e+2, -1850236.5, -1828679.5, -1471.06, 0.10516919, 0.23203826, -1828579.6, -115475.03, 0.0, 9.999261, 9.999568 
7.0488423e+2, 1.3519606e+2, -1628769.0, -1655888.1, -352.16876, -0.38258502, 0.2722328, -1628764.4, -13657.05, 0.0, 10.000039, 9.999718 
7.0489836e+2, 1.4519687e+2, -1518922.8, -1507274.3, 23360.406, -0.12611698, 0.3719578, -1489023.0, 28077.998, 0.0, 9.999929, 10.000109 
7.049087e+2, 1.5519716e+2, -1499927.4, -1438058.8, 21122.203, -0.22635995, 0.3689649, -1431535.4, -12438.783, 0.0, 9.999359, 10.00018 
7.049206e+2, 1.6519666e+2, -1349633.0, -1343172.6, 69975.984, -0.23371266, 0.31532782, -1276352.4, 44746.594, 0.0, 9.999837, 9.999928 
7.049349e+2, 1.7519534e+2, -1057583.3, -1149909.1, 51712.707, -0.061449364, 0.17979088, -1034426.5, 188681.94, 0.0, 10.001161, 9.999945 
7.049478e+2, 1.8519484e+2, -1003700.44, -1136682.0, 49628.773, -0.020620637, 0.16476078, -987221.1, 137891.19, 0.0, 10.001129, 9.999378 
7.049593e+2, 1.9519489e+2, -1087525.6, -1123935.4, 40741.203, -0.13320114, 0.22008215, -1061107.0, -33994.52, 0.0, 9.999865, 9.999405 
7.0497084e+2, 2.0519488e+2, -952723.44, -941179.9, -4976.118, -0.17263374, 0.24961936, -939330.94, -10218.462, 0.0, 9.999833, 10.000003 
7.049825e+2, 2.1519473e+2, -694463.56, -763004.2, -19836.4, -0.13635977, 0.22390673, -689136.7, 141976.11, 0.0, 10.000923, 10.000027 
7.0499486e+2, 2.2519428e+2, -609672.9, -785775.3, 54230.793, -0.13174863, 0.22855756, -594312.3, 138806.53, 0.0, 10.001324, 9.999002 
7.050078e+2, 2.3519337e+2, -544562.75, -701010.7, 65992.11, -0.16041757, 0.2265529, -520444.44, 114686.93, 0.0, 10.001086, 9.999027 
7.050208e+2, 2.4519266e+2, -416387.2, -586550.0, 26265.057, -0.099761136, 0.25303945, -412425.34, 124713.875, 0.0, 10.001281, 9.999046 
7.050339e+2, 2.5519204e+2, -228240.92, -442450.88, 32492.068, 0.04159688, 0.27014035, -223420.88, 215722.77, 0.0, 10.001888, 9.99907 
7.0504504e+2, 2.6519123e+2, -204638.33, -462544.5, 22720.436, 0.018297426, 0.32060894, -202652.05, 138500.98, 0.0, 10.001739, 9.998331 
7.050544e+2, 2.7519011e+2, -231111.03, -422849.66, 31817.732, -0.14617632, 0.3658231, -225968.98, 17199.1, 0.000000016182126, 10.000872, 9.998347 
7.050661e+2, 2.8518802e+2, -132925.0, -426562.1, 57645.2, -0.085815616, 0.37001917, -122013.85, 23176.477, 0.0000029996863, 10.00131, 9.99744 
7.050799e+2, 2.9518497e+2, 207796.52, -206224.23, 72976.08, 0.17337699, 0.30471444, 220282.86, 267502.38, 0.000030264622, 10.002954, 9.997489 
7.0509064e+2, 3.051827e+2, 314443.38, -27719.695, 25940.021, 0.1981559, 0.285751, 316398.78, 316398.78, 0.00011479558, 10.002918, 9.998398 
7.0509726e+2, 3.1518164e+2, 121715.33, -48987.49, 51744.008, -0.14157781, 0.32762778, 136175.27, 136175.27, 0.0002649436, 10.001264, 9.999047 
7.148747e+2, 1.2518328e+2, -1852250.0, -1828389.9, 47597.492, -0.17281805, 0.094003774, -1791250.1, -78028.24, 0.0, 9.9992485, 9.999572 
7.1488655e+2, 1.3518266e+2, -1632982.6, -1672822.4, 29379.771, -0.16634347, 0.05956838, -1617406.4, -2175.091, 0.0, 10.000073, 9.999585 
7.149007e+2, 1.4518408e+2, -1487634.5, -1448315.5, -7601.282, 0.098936535, 0.20588489, -1446897.3, 70322.58, 0.0, 9.999958, 10.000498 
7.1490735e+2, 1.55186e+2, -1472230.4, -1383663.6, 6511.4004, -0.31286892, 0.32897684, -1383187.4, 36014.734, 0.0, 9.999367, 10.000552 
7.1491855e+2, 1.6518612e+2, -1377735.6, -1395617.6, 117542.84, -0.4331382, 0.3356636, -1268794.1, 52406.164, 0.0, 9.999815, 9.999578 
7.1493477e+2, 1.7518453e+2, -1080716.9, -1201605.0, 106041.41, -0.20471391, 0.20930257, -1019102.44, 204110.92, 0.0, 10.001178, 9.999583 
7.1494853e+2, 1.8518366e+2, -1008766.75, -1145883.5, -2361.0232, -0.07258295, 0.17797068, -1008726.06, 116496.08, 0.0, 10.001122, 9.999318 
7.1496004e+2, 1.9518328e+2, -1099177.8, -1135049.9, 211.15587, -0.052470516, 0.19444454, -1099176.5, -71948.18, 0.0, 9.99981, 9.999352 
7.1497184e+2, 2.0518331e+2, -984740.44, -993333.1, 31827.969, -0.0594042, 0.24830966, -956920.1, -27691.537, 0.0, 9.999775, 9.999671 
7.14984e+2, 2.1518365e+2, -727534.5, -815285.8, 22962.27, -0.089967415, 0.30203936, -721889.06, 109335.38, 0.0, 10.000857, 9.999697 
7.1499664e+2, 2.2518332e+2, -586697.75, -724433.56, 40180.902, -0.094314046, 0.31495363, -575833.0, 157395.0, 0.0, 10.001263, 9.999455 
7.1500975e+2, 2.3518229e+2, -518619.25, -637251.0, 62195.87, -0.07944235, 0.25500554, -491989.22, 143250.44, 0.0, 10.001041, 9.999488 
7.1502227e+2, 2.4518138e+2, -404947.75, -552969.44, 44463.137, -0.092425905, 0.22675712, -392618.72, 144630.1, 0.0, 10.001239, 9.999298 
7.150342e+2, 2.5518048e+2, -217811.45, -410149.56, 56939.656, -0.12997346, 0.19362478, -202219.11, 237037.53, 0.0, 10.001845, 9.999313 
7.150456e+2, 2.6517996e+2, -183594.23, -413642.4, -14926.828, -0.108934455, 0.24730816, -182629.75, 158632.56, 0.0, 10.001715, 9.998678 
7.1505654e+2, 2.7517974e+2, -211537.05, -373369.28, 6011.509, -0.031705953, 0.34304845, -211314.05, 31953.113, 0.000000020828322, 10.0008335, 9.998705 
7.1506834e+2, 2.85178e+2, -94994.125, -345954.06, 114866.23, -0.007940268, 0.3372999, -50358.035, 94926.54, 0.0000037479972, 10.001302, 9.998001 
7.150808e+2, 2.951749e+2, 237466.69, -134708.53, 137889.13, -0.039086968, 0.21216969, 282986.53, 330300.06, 0.000034324887, 10.002913, 9.998 
7.15092e+2, 3.0517322e+2, 251984.63, -152464.75, -40726.027, 0.026806768, 0.27268314, 256044.78, 256044.78, 0.00012562028, 10.002897, 9.997548 
7.1510047e+2, 3.1517163e+2, 65062.1, -155529.36, 7759.9805, 0.031167349, 0.34119123, 65334.746, 65334.746, 0.00028501154, 10.001224, 9.998328 
7.2487473e+2, 1.2517227e+2, -1575889.9, -1632970.5, -4404.0034, -0.16189286, 0.19136855, -1575552.1, 137781.8, 0.0, 10.000849, 10.000158 
7.2488606e+2, 1.3517113e+2, -1774046.8, -1688732.9, -18055.684, -0.1572424, 0.06000866, -1685069.0, -69725.664, 0.0, 9.998888, 10.000047 
7.248998e+2, 1.4517225e+2, -1666249.0, -1545479.8, 464.9251, 0.08231587, 0.15958485, -1545478.0, -28145.143, 0.0, 9.998778, 10.000403 
7.249078e+2, 1.551739e+2, -1317069.1, -1316642.0, -30085.045, -0.25381786, 0.26273298, -1286769.8, 132549.77, 0.0, 10.000465, 10.000483 
7.249194e+2, 1.6517435e+2, -1244324.8, -1296981.0, 79751.73, -0.36256835, 0.2901946, -1186667.6, 134647.28, 0.0, 10.000575, 9.999893 
7.2493505e+2, 1.7517366e+2, -1344734.8, -1292337.5, 109051.72, -0.19100252, 0.2203719, -1206381.6, 16937.357, 0.0, 9.9992075, 9.999909 
7.2494864e+2, 1.8517314e+2, -1246441.8, -1245347.3, 47423.477, -0.08763575, 0.2030436, -1198467.9, -73144.055, 0.0, 9.999421, 9.999458 
7.249603e+2, 1.9517264e+2, -901298.75, -1025242.2, 57763.28, -0.06895885, 0.19325201, -878552.75, 148778.44, 0.0, 10.001103, 9.999486 
7.249725e+2, 2.0517237e+2, -743964.5, -911194.75, 108838.875, -0.06022509, 0.22567314, -690330.25, 239004.44, 0.0, 10.0015745, 9.999368 
7.249852e+2, 2.1517219e+2, -743016.25, -859531.25, 93846.664, -0.055077147, 0.2591287, -690815.0, 140521.08, 0.0, 10.000899, 9.999377 
7.24998e+2, 2.2517179e+2, -749980.56, -803112.94, 78631.93, -0.030325284, 0.27936906, -693548.3, 39792.195, 0.0, 10.000141, 9.9994545 
7.250109e+2, 2.3517114e+2, -767627.0, -757594.1, 55818.445, 0.0107771, 0.25855568, -706567.2, -71219.23, 0.0, 9.999334, 9.999483 
7.250231e+2, 2.4517046e+2, -677126.7, -675822.56, 67281.0, -0.04004503, 0.24890685, -609190.44, -71835.195, 0.0, 9.999336, 9.99937 
7.250346e+2, 2.5516963e+2, -466586.1, -522982.16, 59670.434, -0.18057199, 0.21636727, -428786.5, 10576.858, 0.0, 10.000103, 9.999378 
7.250466e+2, 2.6516902e+2, -315070.28, -476708.7, -53261.188, -0.13723862, 0.25567225, -299098.47, 42271.676, 0.0, 10.0008135, 9.998677 
7.250588e+2, 2.751685e+2, -117214.72, -326152.22, -69289.92, 0.08189757, 0.32216486, -96324.73, 147052.3, 0.000000011844985, 10.001479, 9.998718 
7.2507054e+2, 2.85167e+2, -56145.74, -267386.66, 53763.508, 0.08554513, 0.31255674, -43249.547, 102141.89, 0.0000046664522, 10.001318, 9.9985285 
7.250817e+2, 2.951646e+2, -92132.234, -236538.53, 66610.06, -0.11466137, 0.20279929, -66099.98, -18686.719, 0.00003902921, 10.000403, 9.9985075 
7.250932e+2, 3.051633e+2, -321.1745, -279463.44, -72775.69, -0.051669575, 0.28137302, 17512.908, 17512.908, 0.00013569239, 10.001185, 9.997502 
7.25104e+2, 3.1516093e+2, 411305.75, 39140.33, 19228.322, 0.15225968, 0.27609074, 412296.56, 412296.56, 0.0002996597, 10.003456, 9.998602 
7.348783e+2, 1.2516294e+2, -1483084.1, -1444883.9, -74916.44, 0.08346917, 0.5427883, -1386671.1, 326768.6, 0.0, 10.000878, 10.001429 
7.348826e+2, 1.3516162e+2, -1701746.8, -1537087.1, -89685.54, -0.4030671, 0.2853653, -1497672.5, 117769.46, 0.0, 9.998879, 10.001091 
7.348956e+2, 1.4516146e+2, -1713699.8, -1632401.8, 61470.46, -0.23186752, 0.23217319, -1599355.8, -81915.91, 0.0, 9.998736, 9.999822 
7.3490995e+2, 1.5516083e+2, -1355326.9, -1401057.4, 39404.5, -0.097983874, 0.16674154, -1332634.0, 86814.6, 0.0, 10.00049, 9.999889 
7.349232e+2, 1.6516127e+2, -1170966.0, -1148898.8, 21670.373, -0.059941463, 0.1726071, -1135614.8, 185828.44, 0.0, 10.000592, 10.000901 
7.3493564e+2, 1.7516269e+2, -1277986.3, -1147884.5, 63456.348, -0.053977318, 0.21297906, -1122060.0, 101364.836, 0.0, 9.999181, 10.000915 
7.34948e+2, 1.8516332e+2, -1228292.6, -1196945.0, 108517.734, -0.10516313, 0.24161088, -1102975.0, 22442.023, 0.0, 9.999377, 9.99981 
7.349599e+2, 1.9516306e+2, -885764.8, -978855.25, 125319.58, -0.22935516, 0.2219368, -798625.9, 228794.31, 0.0, 10.00105, 9.999826 
7.3497254e+2, 2.0516214e+2, -767823.9, -952294.7, 79531.36, -0.22112313, 0.18663633, -738270.1, 191159.66, 0.0, 10.001534, 9.999106 
7.349859e+2, 2.1516046e+2, -764912.5, -896218.2, 73023.555, -0.081625514, 0.09538454, -732367.94, 99078.85, 0.0, 10.000862, 9.999142 
7.3499864e+2, 2.251598e+2, -791403.94, -878986.0, 43044.266, 0.015023022, 0.12563242, -773790.9, -40335.816, 0.0, 10.000096, 9.998957 
7.350108e+2, 2.3515996e+2, -809254.3, -833626.2, 30567.107, 0.06667254, 0.23335175, -788533.6, -153077.39, 0.0, 9.999289, 9.998984 
7.3502296e+2, 2.451599e+2, -686276.06, -688589.5, 92513.73, 0.007926869, 0.3159719, -594911.8, -57453.082, 0.0, 9.9993105, 9.999294 
7.350351e+2, 2.5515956e+2, -478661.28, -536436.5, 93287.586, -0.15386137, 0.33777547, -409890.97, 29572.412, 0.0, 10.000054, 9.999309 
7.350478e+2, 2.6515844e+2, -347304.9, -533923.5, -31118.975, -0.10494305, 0.3497733, -342252.56, -776.8691, 0.0, 10.000772, 9.998305 
7.3506105e+2, 2.7515647e+2, -146488.19, -382487.97, -39552.035, 0.14754316, 0.3097713, -140035.92, 103460.94, 0.000000051096855, 10.001458, 9.9983425 
7.350725e+2, 2.85155e+2, -16782.602, -185117.19, 14948.628, 0.14228848, 0.29438868, -15465.424, 130045.35, 0.0000058850314, 10.001317, 9.999091 
7.350822e+2, 2.951541e+2, -59425.92, -158382.47, 40879.098, -0.11488795, 0.277106, -44723.2, 2794.5764, 0.000043358832, 10.000361, 9.999062 
7.3509413e+2, 3.05153e+2, 40894.484, -187618.4, 12555.844, -0.09189655, 0.31625035, 41582.305, 41582.305, 0.00014281429, 10.001161, 9.998144 
7.351075e+2, 3.1514966e+2, 480455.34, 203706.48, 117109.85, 0.12787509, 0.14887434, 523360.25, 523360.25, 0.00030710292, 10.00338, 9.999764 
7.448785e+2, 1.2515208e+2, -1802646.6, -1621206.3, 70626.64, 0.12284231, 0.5443473, -1596955.6, 116590.48, 0.0, 9.998777, 10.001231 
7.44882e+2, 1.3515092e+2, -1630382.6, -1534930.5, -76113.78, -0.38250205, 0.33503014, -1492817.4, 122730.64, 0.0, 9.999518, 10.0007925 
7.448944e+2, 1.4515042e+2, -1612813.1, -1610061.5, 93571.47, -0.2548443, 0.27375188, -1517855.8, -306.43317, 0.0, 9.9995365, 9.99959 
7.4491024e+2, 1.5514912e+2, -1592267.9, -1542266.5, 88424.83, -0.046339583, 0.16652982, -1475376.0, -55812.246, 0.0, 9.998978, 9.999649 
7.4492365e+2, 1.6514926e+2, -1382598.4, -1260929.9, 20672.75, 0.0064500896, 0.15698335, -1257513.4, 64047.938, 0.0, 9.999181, 10.0008135 
7.449355e+2, 1.7515062e+2, -1144014.3, -1091457.4, -28555.27, -0.03402348, 0.19946359, -1078929.1, 144614.88, 0.0, 10.000132, 10.000845 
7.4494797e+2, 1.8515144e+2, -1071274.5, -1105605.9, 9810.316, -0.089084245, 0.24420913, -1068668.9, 56865.34, 0.0, 10.000386, 9.999951 
7.449609e+2, 1.9515161e+2, -1030988.0, -1034885.6, 1584.7985, -0.17898823, 0.2536152, -1030425.0, -2892.016, 0.0, 9.999984, 9.999959 
7.449736e+2, 2.0515084e+2, -1026540.56, -1079678.9, -70038.89, -0.17788891, 0.22863385, -978200.6, -48659.15, 0.0, 9.999769, 9.999081 
7.449861e+2, 2.1514913e+2, -925317.6, -975184.7, -67733.41, -0.08521694, 0.13791741, -878074.4, -46514.375, 0.0, 9.999771, 9.999125 
7.449987e+2, 2.251484e+2, -677387.8, -801543.44, -22823.744, -0.020108847, 0.15183151, -673325.0, 60242.89, 0.0, 10.000783, 9.999159 
7.450112e+2, 2.3514846e+2, -298161.66, -566555.4, 7728.6475, 0.010136375, 0.22881246, -297939.28, 337627.88, 0.0, 10.002703, 9.999177 
7.450236e+2, 2.4514817e+2, -233436.23, -518623.66, 49496.098, -0.018116293, 0.3007217, -225090.11, 312481.3, 0.0, 10.002627, 9.998865 
7.45036e+2, 2.5514752e+2, -407343.03, -549151.4, 13455.534, -0.097864695, 0.33571327, -406077.6, 33503.63, 0.0, 10.000747, 9.998889 
7.4504864e+2, 2.6514614e+2, -400362.53, -537648.56, -42078.344, -0.06764051, 0.33332488, -388491.9, -46896.113, 0.0, 10.00031, 9.998505 
7.450616e+2, 2.75144e+2, -163552.6, -368386.4, -15195.561, 0.072692856, 0.25872096, -162431.45, 81184.63, 0.00000017449423, 10.001245, 9.998543 
7.4507326e+2, 2.851428e+2, 11300.915, -187919.1, -11301.419, 0.07223439, 0.26497522, 11939.976, 157568.05, 0.0000070142673, 10.00158, 9.998945 
7.450836e+2, 2.951424e+2, 77639.05, -108483.23, -46844.34, -0.06558373, 0.31786802, 88764.125, 136396.67, 0.000045203302, 10.001372, 9.998919 
7.4509597e+2, 3.0514112e+2, 105715.016, -156960.58, -38314.39, -0.042853754, 0.338402, 111189.53, 111189.53, 0.00014394909, 10.001606, 9.998145 
7.4511e+2, 3.1513768e+2, 324898.7, 168110.78, 1166.843, 0.109465696, 0.16497374, 324907.38, 324907.38, 0.00030552503, 10.002137, 10.000121 
7.548748e+2, 1.2513967e+2, -1933562.3, -1873216.3, 89632.46, -0.14071871, 0.18073851, -1808814.5, -95161.766, 0.0, 9.998703, 9.999534 
7.548841e+2, 1.3513893e+2, -1754079.3, -1791767.9, -45554.195, -0.12891078, 0.19224499, -1723625.6, -107963.57, 0.0, 9.999525, 9.999024 
7.5489646e+2, 1.4513905e+2, -1600136.8, -1588168.3, 66057.11, -0.014657803, 0.27502787, -1527824.9, -10162.95, 0.0, 9.999552, 9.999736 
7.5490826e+2, 1.5513894e+2, -1585377.9, -1522735.0, 74133.14, -0.14982577, 0.27256027, -1473578.1, -53914.754, 0.0, 9.998954, 9.999797 
7.5492066e+2, 1.6513841e+2, -1469956.4, -1437264.9, 52426.87, -0.22045319, 0.24922654, -1398694.6, -77026.55, 0.0, 9.99916, 9.999614 
7.549343e+2, 1.7513748e+2, -1230616.4, -1268380.6, 11383.336, -0.17695002, 0.18356636, -1227450.5, -3774.6616, 0.0, 10.00012, 9.999637 
7.5494856e+2, 1.8513753e+2, -1077138.4, -1112775.0, -10793.78, -0.0854109, 0.21339919, -1074124.0, 51551.492, 0.0, 10.000365, 9.999912 
7.5496316e+2, 1.9513832e+2, -1042325.1, -1044608.6, -9155.2295, 0.03805562, 0.29008445, -1034240.75, -6571.291, 0.0, 9.999928, 9.999918 
7.5497544e+2, 2.0513858e+2, -1019755.94, -1056531.3, -75741.94, 0.026649224, 0.3601576, -960201.6, -30532.426, 0.0, 9.999727, 9.999261 
7.5498575e+2, 2.1513824e+2, -920689.25, -951117.75, -63186.6, -0.106018774, 0.3874892, -870911.0, -39235.59, 0.0, 9.999709, 9.999319 
7.5499797e+2, 2.2513767e+2, -625603.5, -675167.1, 46224.387, -0.17958567, 0.36219364, -597936.94, 135741.56, 0.0, 10.000704, 10.000064 
7.550119e+2, 2.3513672e+2, -244953.25, -441707.28, 83520.586, -0.20189665, 0.2497545, -214280.95, 421398.84, 0.0, 10.0026455, 10.000061 
7.550249e+2, 2.4513538e+2, -295384.06, -640401.1, -26676.78, -0.16417526, 0.21420355, -293333.6, 244358.66, 0.0, 10.002598, 9.998043 
7.550372e+2, 2.551335e+2, -465686.5, -668377.94, -52594.03, -0.06501613, 0.21063942, -452852.16, -13135.401, 0.0, 10.000735, 9.998077 
7.5504893e+2, 2.6513216e+2, -346636.8, -421069.63, -9726.22, -0.077131025, 0.20763192, -345386.88, -3656.485, 0.0, 10.000294, 9.9993105 
7.550603e+2, 2.7513123e+2, -116444.53, -258652.31, 26220.996, -0.19035968, 0.16938457, -111763.836, 131970.7, 0.0000002213921, 10.001197, 9.999318 
7.550726e+2, 2.8513044e+2, -53203.223, -319305.38, -22538.23, -0.16779433, 0.22674923, -51307.79, 94435.29, 0.000006955663, 10.001564, 9.998054 
7.550855e+2, 2.9512975e+2, 13594.126, -238649.39, -49451.13, -0.020821307, 0.33792755, 22942.334, 70698.945, 0.000043838252, 10.001352, 9.998037 
7.5509846e+2, 3.0512768e+2, 59929.113, -241564.63, -18335.893, 0.037043914, 0.35519135, 61040.152, 61040.152, 0.0001394824, 10.001571, 9.997575 
7.551113e+2, 3.151248e+2, 291813.47, 113360.34, 36047.84, -0.004765354, 0.29360756, 298820.1, 298820.1, 0.0002957357, 10.002082, 9.999768 
7.6487327e+2, 1.2512791e+2, -1802860.6, -1832854.5, -28973.459, -0.20523107, 0.08915479, -1785232.9, -71469.02, 0.0, 9.999674, 9.999345 
7.6488477e+2, 1.3512723e+2, -1664620.0, -1782121.1, -67412.32, -0.047600158, 0.13366207, -1633950.0, -18174.408, 0.0, 10.000269, 9.9987335 
7.6489705e+2, 1.451275e+2, -1475413.1, -1536449.0, 68222.61, 0.04316019, 0.24653707, -1431193.8, 86581.47, 0.0, 10.000444, 9.99966 
7.6490784e+2, 1.5512793e+2, -1372763.1, -1430296.5, 48691.17, -0.160157, 0.30551586, -1344975.9, 74794.875, 0.0, 10.000453, 9.99971 
7.6492006e+2, 1.6512716e+2, -1336312.1, -1432496.6, 79970.19, -0.2553146, 0.28947103, -1291087.3, 30690.414, 0.0, 10.000334, 9.9990835 
7.6493406e+2, 1.7512521e+2, -1273350.0, -1346651.3, 80758.43, -0.20886952, 0.1771078, -1221314.6, 2480.9377, 0.0, 10.000076, 9.999123 
7.649484e+2, 1.8512452e+2, -1163468.1, -1206531.8, 58537.355, -0.10760701, 0.1790382, -1122628.1, 3175.4058, 0.0, 9.999998, 9.999446 
7.649631e+2, 1.9512478e+2, -1046911.2, -1096749.6, 20683.54, 0.03192336, 0.24782152, -1039445.6, -11641.872, 0.0, 10.000111, 9.999473 
7.649756e+2, 2.0512515e+2, -876144.94, -945486.75, -24895.719, 0.028317915, 0.33334008, -868132.5, 61668.918, 0.0, 10.000534, 9.999637 
7.649862e+2, 2.1512556e+2, -673054.9, -792921.56, -7307.5327, -0.10683256, 0.3993996, -672611.06, 159186.64, 0.0, 10.001236, 9.999674 
7.649987e+2, 2.2512484e+2, -608446.1, -715134.25, 68178.15, -0.19440961, 0.36263654, -575223.2, 158578.81, 0.0, 10.001035, 9.999628 
7.6501274e+2, 2.3512292e+2, -668721.44, -693878.44, -7281.815, -0.24255039, 0.19858041, -666765.7, -30950.977, 0.0, 9.999947, 9.999626 
7.6502585e+2, 2.4512155e+2, -671555.3, -790334.1, -149649.7, -0.18965675, 0.1672727, -569941.2, -32113.07, 0.0, 9.999877, 9.998325 
7.650381e+2, 2.551206e+2, -443168.63, -623921.1, -99630.76, -0.04167156, 0.2273723, -399030.34, 40812.57, 0.0, 10.000755, 9.998369 
7.6505e+2, 2.651194e+2, -201685.5, -339011.5, -35.372486, -0.05046364, 0.22006002, -201685.48, 140168.34, 0.0, 10.001241, 9.999417 
7.6506144e+2, 2.751178e+2, -88773.12, -232845.4, -27751.266, -0.19993539, 0.10849278, -83612.51, 160249.89, 0.00000016204108, 10.001336, 9.999427 
7.6507384e+2, 2.8511688e+2, -95239.88, -376028.84, -90321.39, -0.18387996, 0.15908317, -68695.56, 77176.97, 0.0000062859385, 10.0014305, 9.997731 
7.650869e+2, 2.9511642e+2, 11080.495, -272402.06, -83578.67, -0.016688611, 0.3271121, 33887.035, 81772.08, 0.000041485197, 10.001482, 9.997742 
7.6510006e+2, 3.0511385e+2, 77684.06, -214869.8, 19575.66, 0.043095205, 0.30252576, 78988.12, 78988.12, 0.00013263787, 10.001613, 9.997738 
7.651134e+2, 3.1511146e+2, 231549.58, 94592.914, 107135.35, 0.030222429, 0.26732966, 290221.8, 290221.8, 0.0002807991, 10.0016365, 9.999844 
7.748737e+2, 1.2511705e+2, -1708632.8, -1631664.3, -27333.912, -0.16743106, 0.28654197, -1622944.9, 90933.03, 0.00000000003061157, 9.999655, 10.000731 
7.748837e+2, 1.3511598e+2, -1576034.6, -1597969.9, -44538.008, -0.19711623, 0.16584215, -1541133.8, 74753.79, 0.0, 10.000269, 9.999996 
7.748957e+2, 1.4511578e+2, -1495481.9, -1581012.9, 61696.316, -0.1430653, 0.18605047, -1463178.6, 54710.16, 0.0, 10.000453, 9.9993515 
7.7490884e+2, 1.551161e+2, -1390641.9, -1474818.3, 54347.66, -0.11678658, 0.2659804, -1363990.9, 55894.44, 0.0, 10.000479, 9.999395 
7.7492166e+2, 1.651155e+2, -1323426.9, -1405893.6, 65345.176, -0.14005378, 0.27515483, -1287393.4, 34496.215, 0.0, 10.000336, 9.999262 
7.7493465e+2, 1.7511392e+2, -1263154.1, -1323546.1, 76751.17, -0.17075038, 0.17853893, -1210872.6, 13029.897, 0.0, 10.000065, 9.999286 
7.749476e+2, 1.8511246e+2, -1230450.6, -1337655.4, 59012.336, -0.20419452, 0.1425525, -1204330.5, -78413.11, 0.0, 9.999964, 9.998564 
7.749605e+2, 1.9511099e+2, -1113932.1, -1225271.0, 30461.959, -0.24650781, 0.1267343, -1106142.8, -78207.43, 0.0, 10.000061, 9.998615 
7.749737e+2, 2.0511061e+2, -848162.8, -869990.3, -3744.342, -0.22277766, 0.14915007, -847538.3, 82399.43, 0.0, 10.000463, 10.000188 
7.749873e+2, 2.1511115e+2, -645272.3, -721521.7, 22682.887, -0.13453442, 0.17336592, -639034.75, 192891.5, 0.0, 10.001181, 10.000189 
7.750006e+2, 2.2510996e+2, -744139.6, -982653.25, 21682.828, -0.11582762, 0.15854542, -742184.5, -8246.789, 0.0, 10.000973, 9.997822 
7.750136e+2, 2.3510699e+2, -798621.0, -954373.1, -41944.637, -0.1598024, 0.06828023, -788043.5, -152071.02, 0.0, 9.999903, 9.997861 
7.750263e+2, 2.4510664e+2, -580404.06, -589454.9, -121085.695, -0.14212325, 0.1549928, -463759.25, 74220.125, 0.0, 9.999831, 9.999725 
7.750387e+2, 2.5510874e+2, -351494.44, -426507.63, -61747.96, -0.06620399, 0.3803181, -316754.53, 123205.445, 0.0, 10.000725, 9.999741 
7.7505153e+2, 2.651078e+2, -250186.34, -435086.75, 389.9112, -0.027475893, 0.36447373, -250185.53, 91781.15, 0.0, 10.001217, 9.998771 
7.7506477e+2, 2.751038e+2, -136686.75, -327570.75, -19402.893, -0.015724927, 0.076251715, -134734.45, 109265.48, 0.00000014054619, 10.001308, 9.998795 
7.7507687e+2, 2.8510204e+2, -79937.56, -335735.38, -92626.33, -0.03908944, 0.0611047, -49919.508, 96097.34, 0.000005985507, 10.001399, 9.998019 
7.750877e+2, 2.951023e+2, 30652.523, -232505.45, -75422.41, -0.10074357, 0.27018097, 50736.22, 98755.52, 0.000039454848, 10.001485, 9.998014 
7.7510065e+2, 3.0509958e+2, 134955.22, -95413.6, 20096.822, -0.06683164, 0.17443977, 136695.27, 136695.27, 0.00012495591, 10.00161, 9.998559 
7.7511597e+2, 3.150976e+2, 258120.13, 154352.44, 121554.59, 0.09103087, 0.10015916, 338400.78, 338400.78, 0.00026321306, 10.001608, 10.000273 
7.848726e+2, 1.2510425e+2, -1899751.9, -1672140.5, -60026.82, -0.15344326, 0.3786454, -1657280.1, 56729.906, 0.0000000009851104, 9.998121, 10.001195 
7.8488255e+2, 1.351041e+2, -1773834.1, -1645556.3, -156138.06, -0.24968837, 0.30780786, -1540896.8, 75112.58, 0.0, 9.9987135, 10.000415 
7.848948e+2, 1.4510365e+2, -1647134.3, -1635683.3, -61098.527, -0.22035466, 0.2722165, -1580042.5, -62031.16, 0.0, 9.999335, 9.999515 
7.849093e+2, 1.5510297e+2, -1449788.1, -1484780.9, -42400.15, -0.09072238, 0.23634043, -1421416.3, -1400.911, 0.0, 10.0, 9.999556 
7.8492266e+2, 1.6510238e+2, -1334668.4, -1410965.0, -31592.418, -0.060399618, 0.23895949, -1323285.1, -1266.2666, 0.0, 10.00026, 9.999259 
7.8493553e+2, 1.7510174e+2, -1253423.5, -1316382.5, -44593.53, -0.087966315, 0.23799199, -1230317.8, -6294.473, 0.0, 10.000132, 9.999294 
7.8494805e+2, 1.8510039e+2, -1201510.5, -1319883.8, -12088.549, -0.15624744, 0.20927, -1200288.6, -74252.28, 0.0, 10.00014, 9.998604 
7.849603e+2, 1.9509819e+2, -1092422.6, -1209161.4, 19429.678, -0.2708454, 0.116149895, -1089273.8, -61214.9, 0.0, 10.000187, 9.998665 
7.849737e+2, 2.0509717e+2, -913923.44, -955310.44, 96.29449, -0.25614747, 0.096225806, -913923.25, 16142.978, 0.0, 10.000241, 9.999707 
7.8498816e+2, 2.1509714e+2, -820271.06, -858948.4, -61287.06, -0.114873454, 0.11307838, -775343.94, 56716.31, 0.0, 10.000213, 9.999709 
7.8500164e+2, 2.2509582e+2, -846219.7, -1037518.44, -52986.563, -0.06492966, 0.11098903, -832523.8, -98450.1, 0.0, 10.000293, 9.997772 
7.8501433e+2, 2.3509316e+2, -721728.3, -922336.1, 6383.468, -0.101142205, 0.055523824, -721525.4, -85418.484, 0.0, 10.000454, 9.997813 
7.8502697e+2, 2.450929e+2, -423243.72, -516678.53, -6881.794, -0.11190219, 0.15491992, -422739.56, 115373.62, 0.0, 10.000927, 9.999692 
7.8503954e+2, 2.5509483e+2, -210753.77, -363570.88, -65955.68, -0.099532984, 0.36778307, -186224.63, 253870.02, 0.0, 10.001711, 9.999695 
7.850526e+2, 2.65094e+2, -213845.4, -440145.03, -78516.26, -0.05462089, 0.37652102, -189272.0, 152828.83, 0.0, 10.001558, 9.998573 
7.8506607e+2, 2.7509046e+2, -263490.3, -408075.5, -72056.734, 0.026043227, 0.15121862, -233712.38, 10419.378, 0.0000001311964, 10.000522, 9.998619 
7.850784e+2, 2.8508836e+2, -130262.22, -348074.3, -71706.8, 0.007200681, 0.103715785, -108775.04, 37376.363, 0.000005888669, 10.001005, 9.998124 
7.8508985e+2, 2.950875e+2, 242200.95, -117637.64, -80146.055, -0.10197014, 0.19369641, 259244.45, 307405.75, 0.000037310834, 10.00289, 9.998124 
7.851025e+2, 3.050847e+2, 343323.75, 21072.693, -72470.28, -0.10343116, 0.08179592, 358871.3, 358871.3, 0.00011684081, 10.002958, 9.998717 
7.8511715e+2, 3.1508386e+2, 177955.8, 80053.37, -39538.57, 0.072475106, 0.10384833, 191929.3, 191929.3, 0.00024566453, 10.001193, 9.999973 
7.948698e+2, 1.2508968e+2, -1936065.4, -1744063.8, -60003.324, -0.28016454, 0.36715525, -1726854.3, -12695.299, 0.0000000034592607, 9.998115, 10.000703 
7.9488146e+2, 1.3509174e+2, -1803797.4, -1708579.6, -132542.83, -0.2474159, 0.5634863, -1615354.5, 785.81854, 0.0, 9.998722, 9.999977 
7.9489416e+2, 1.4509119e+2, -1604999.6, -1546312.1, -42454.926, -0.23025905, 0.5093015, -1524047.0, -5904.381, 0.0, 9.999328, 10.000131 
7.9490894e+2, 1.5508851e+2, -1406235.3, -1394588.3, -11970.889, -0.13640444, 0.21204226, -1387099.5, 33061.69, 0.0, 9.999999, 10.0001745 
7.9492295e+2, 1.6508776e+2, -1351379.0, -1441665.8, -41678.168, -0.070162386, 0.17628847, -1335081.4, -12915.485, 0.0, 10.000242, 9.999059 
7.9493666e+2, 1.7508873e+2, -1265371.4, -1343542.3, -45573.17, -0.00097372354, 0.3548387, -1244418.6, -20260.494, 0.0, 10.000136, 9.999108 
7.9494977e+2, 1.850883e+2, -1138373.8, -1178880.5, -14817.804, -0.005772427, 0.37907112, -1133531.9, -7371.57, 0.0, 10.000098, 9.99959 
7.949624e+2, 1.9508637e+2, -1029992.44, -1072319.8, 26462.459, -0.09325937, 0.21534322, -1017271.56, 10902.197, 0.0, 10.000155, 9.999619 
7.9497534e+2, 2.0508486e+2, -1029163.3, -1180518.1, -6747.725, -0.12081588, 0.17409737, -1028863.06, -98676.664, 0.0, 10.000182, 9.998191 
7.949887e+2, 2.1508351e+2, -932147.6, -1079386.0, -57762.707, -0.0876009, 0.20992179, -912191.6, -79991.65, 0.0, 10.000159, 9.998222 
7.950018e+2, 2.2508238e+2, -738490.6, -795346.6, -51884.234, -0.08573459, 0.21401481, -707756.8, 26453.56, 0.0, 10.0002165, 9.999471 
7.950148e+2, 2.3508139e+2, -612227.3, -683811.25, 17220.432, -0.113044634, 0.15841453, -608300.2, 27917.87, 0.0, 10.000403, 9.9994755 
7.950277e+2, 2.4508029e+2, -531609.2, -734489.6, 16847.412, -0.14891775, 0.16600044, -530219.7, 8010.022, 0.0, 10.000895, 9.998214 
7.950405e+2, 2.5507888e+2, -320605.38, -581543.7, -33442.12, -0.18850394, 0.19261372, -316387.6, 123859.31, 0.0, 10.001663, 9.998223 
7.9505306e+2, 2.6507807e+2, -198081.19, -399353.25, -122977.78, -0.1792088, 0.25706607, -139811.13, 202445.06, 0.0, 10.001525, 9.998868 
7.950652e+2, 2.750777e+2, -247141.48, -370438.6, -104648.78, -0.1188732, 0.32300356, -187332.6, 56925.977, 0.000000103459534, 10.000506, 9.998885 
7.9507864e+2, 2.8507572e+2, -139243.47, -366135.78, -3385.3457, -0.08497795, 0.28374448, -139192.97, 7083.464, 0.000005445095, 10.000999, 9.998003 
7.9509306e+2, 2.9507205e+2, 226701.63, -138434.27, -2409.6301, -0.08113952, 0.102568835, 226717.52, 275028.0, 0.000034263594, 10.002834, 9.998012 
7.9510534e+2, 3.0506933e+2, 306117.56, -43761.473, -140829.34, -0.124671765, 0.020128835, 355759.28, 355759.28, 0.000108508386, 10.0029125, 9.99829 
7.9511666e+2, 3.1507036e+2, 104309.83, -64817.574, -98609.7, -0.11943471, 0.28077096, 149649.53, 149649.53, 0.00023086925, 10.001165, 9.998988 
8.048671e+2, 1.25075e+2, -2053639.5, -1792758.1, -35423.547, -0.3078855, 0.3826118, -1788033.8, -73729.04, 0.0000000057252847, 9.9972725, 10.000787 
8.048812e+2, 1.3507669e+2, -1698457.5, -1644991.3, -65750.93, -0.16721326, 0.5318685, -1600746.6, 15541.491, 0.0, 9.999377, 10.000113 
8.048945e+2, 1.4507622e+2, -1496677.6, -1488956.9, -15468.496, -0.15757382, 0.4750739, -1476874.4, 41415.52, 0.0, 10.000053, 10.000172 
8.049088e+2, 1.550745e+2, -1479439.1, -1427517.6, -44581.938, -0.11759166, 0.2714699, -1401888.6, 18412.033, 0.0, 9.999493, 10.000191 
8.049229e+2, 1.6507387e+2, -1434610.6, -1457157.9, -62500.055, -0.07099309, 0.23716885, -1382375.5, -60071.5, 0.0, 9.999563, 9.999285 
8.049368e+2, 1.750742e+2, -1243009.8, -1308082.8, -42799.457, 0.00328498, 0.3318451, -1221783.6, 2517.3743, 0.0, 10.000188, 9.99933 
8.049503e+2, 1.850739e+2, -1070863.8, -1143214.8, -33976.723, 0.018304087, 0.3556367, -1057409.8, 68891.836, 0.0, 10.00056, 9.999606 
8.0496335e+2, 1.950728e+2, -958647.8, -1038712.06, -75447.3, -0.033227812, 0.27430147, -913269.94, 115037.46, 0.0, 10.000656, 9.999607 
8.0497646e+2, 2.0507115e+2, -929040.0, -1144476.6, -78775.0, -0.06233665, 0.22954364, -903308.94, 27012.225, 0.0, 10.000926, 9.998079 
8.0498964e+2, 2.1506883e+2, -774345.75, -1014859.0, -35304.19, -0.06438998, 0.17710094, -769270.6, 63073.625, 0.0, 10.001296, 9.9981165 
8.0500257e+2, 2.2506775e+2, -582975.2, -706598.4, -41369.234, -0.08116403, 0.18508959, -570408.75, 163944.66, 0.0, 10.001221, 9.999597 
8.050152e+2, 2.3506783e+2, -563921.4, -645964.0, -98371.85, -0.115553945, 0.22259896, -498360.5, 137989.2, 0.0, 10.000674, 9.999605 
8.0502826e+2, 2.4506636e+2, -609265.0, -797362.1, -75584.42, -0.14793028, 0.19846436, -582656.44, -44293.06, 0.0, 10.000467, 9.997992 
8.0504173e+2, 2.550632e+2, -491535.56, -688084.9, -42493.727, -0.173495, 0.07165512, -482741.9, -42346.176, 0.0, 10.000592, 9.998011 
8.0505425e+2, 2.6506194e+2, -292031.7, -467176.63, -117596.2, -0.174561, 0.1158918, -232982.86, 109426.54, 0.0, 10.0009775, 9.998667 
8.05066e+2, 2.7506247e+2, -97068.82, -319641.03, -146561.64, -0.14808668, 0.28976998, -24330.707, 220075.22, 0.00000004701224, 10.001628, 9.998693 
8.0507976e+2, 2.850609e+2, -41458.473, -296169.53, -12657.604, -0.09622025, 0.29160106, -40831.01, 105589.336, 0.0000040934947, 10.001571, 9.998209 
8.050954e+2, 2.9505718e+2, -41946.93, -241807.58, 1391.3904, -0.025648942, 0.08437783, -41937.242, 6516.159, 0.000029452855, 10.00088, 9.998239 
8.051077e+2, 3.0505493e+2, 52262.613, -196099.08, -136766.2, -0.09566731, 0.04930462, 112813.67, 112813.67, 0.000100260084, 10.001297, 9.998026 
8.0511785e+2, 3.150555e+2, 280541.5, -29555.672, -100740.62, -0.18211254, 0.28524283, 310394.9, 310394.9, 0.00022208261, 10.0026, 9.998537 
8.1486434e+2, 1.2506038e+2, -2008474.4, -1696708.9, 19543.031, -0.33466527, 0.432386, -1695488.5, 18956.748, 0.000000004999778, 9.997271, 10.001443 
8.148818e+2, 1.3505894e+2, -1646187.6, -1535138.3, 16659.922, -0.06015368, 0.19105953, -1532692.8, 83759.97, 0.0, 9.999377, 10.000862 
8.148958e+2, 1.4505874e+2, -1541819.8, -1583639.1, -41628.69, -0.051601075, 0.15684168, -1516144.4, 2308.2217, 0.0, 10.000054, 9.999524 
8.149088e+2, 1.5506098e+2, -1521476.5, -1518569.5, -58871.074, -0.08004538, 0.4133874, -1461134.0, -40701.094, 0.0, 9.999504, 9.999563 
8.149221e+2, 1.650608e+2, -1392082.9, -1364156.6, -43989.41, -0.111359775, 0.42423466, -1331967.5, -9535.023, 0.0, 9.999546, 9.9999275 
8.149358e+2, 1.7505819e+2, -1200064.4, -1216667.9, -14952.808, -0.12667517, 0.15825054, -1191263.4, 33188.523, 0.0, 10.000177, 9.999962 
8.1494945e+2, 1.8505715e+2, -1146855.9, -1291799.0, -32759.367, -0.13515604, 0.127714, -1139795.6, -13335.475, 0.0, 10.00052, 9.998608 
8.149631e+2, 1.9505748e+2, -1032285.1, -1185633.8, -65417.22, -0.14236481, 0.28904834, -1008170.75, 20288.617, 0.0, 10.000627, 9.998614 
8.1497675e+2, 2.0505615e+2, -850900.0, -965461.56, -69889.516, -0.13050975, 0.2622831, -817816.9, 112653.08, 0.0, 10.000856, 9.999339 
8.149907e+2, 2.1505313e+2, -694588.7, -837571.06, -17275.27, -0.09345164, 0.014604117, -692531.1, 139961.61, 0.0, 10.001245, 9.999359 
8.1500363e+2, 2.2505198e+2, -691166.1, -916407.75, -67326.53, -0.10342351, 0.024838986, -672576.0, 61926.48, 0.0, 10.001158, 9.998188 
8.1501555e+2, 2.350525e+2, -670395.25, -855358.56, -113558.68, -0.15974696, 0.2465437, -616424.06, 20077.32, 0.0, 10.00062, 9.998196 
8.1502867e+2, 2.450511e+2, -542392.75, -650759.1, -76368.46, -0.1612372, 0.2499186, -502938.53, 35575.52, 0.0, 10.00043, 9.999018 
8.1504315e+2, 2.5504777e+2, -423540.25, -544070.9, -33107.547, -0.10151816, 0.0025505472, -415045.0, 25496.148, 0.0, 10.000571, 9.999015 
8.150562e+2, 2.650457e+2, -343541.7, -565741.25, -96569.58, -0.09024827, -0.04834235, -307438.06, 35122.32, 0.0, 10.000947, 9.998002 
8.15068e+2, 2.750449e+2, -153774.81, -423188.38, -115483.484, -0.1181514, 0.057993483, -111048.92, 133524.13, 0.000000004527389, 10.001569, 9.998011 
8.150816e+2, 2.8504398e+2, -6217.3213, -220751.14, -44611.414, -0.08220859, 0.13251157, 2689.64, 149272.36, 0.0000024308686, 10.001556, 9.998735 
8.150968e+2, 2.950429e+2, -8885.939, -173135.22, -19633.64, 0.013823417, 0.13793932, -6571.6284, 42019.0, 0.000024457544, 10.000872, 9.998719 
8.151094e+2, 3.050415e+2, 43170.207, -206575.34, -87608.81, -0.06386056, 0.1684892, 70837.63, 70837.63, 0.00009519151, 10.001269, 9.99796 
8.151203e+2, 3.1503937e+2, 267165.6, -44421.293, -40783.207, -0.22359188, 0.14357008, 272415.2, 272415.2, 0.00022313076, 10.002545, 9.99846 
8.248637e+2, 1.2504505e+2, -1594241.0, -1538730.1, 62812.22, -0.26654696, 0.39054403, -1497814.4, 216777.58, 0.0000000017683296, 10.000276, 10.001077 
8.24882e+2, 1.3504337e+2, -1625982.9, -1556923.0, -25005.117, 0.011554648, 0.15075752, -1548819.9, 67782.77, 0.0, 9.999645, 10.000582 
8.2489616e+2, 1.4504305e+2, -1611226.5, -1626036.5, -112335.836, 0.0053767255, 0.12499809, -1506051.9, 12552.595, 0.0, 9.999617, 9.999445 
8.2490903e+2, 1.5504555e+2, -1417585.3, -1477540.5, -97694.21, -0.042527545, 0.41503802, -1345372.8, 75210.58, 0.0, 10.000257, 9.99948 
8.249222e+2, 1.6504525e+2, -1275523.0, -1328245.3, -79174.82, -0.09970928, 0.42521453, -1218436.3, 104148.555, 0.0, 10.000435, 9.999742 
8.2493573e+2, 1.7504212e+2, -1216933.4, -1247600.3, -123627.984, -0.1443221, 0.12879448, -1107691.5, 116917.43, 0.0, 10.000158, 9.999757 
8.2494944e+2, 1.85041e+2, -1214053.1, -1293641.0, -124106.82, -0.14949696, 0.08667215, -1123516.5, 3101.6008, 0.0, 9.999928, 9.9988785 
8.249634e+2, 1.9504166e+2, -1149333.8, -1209323.9, -71406.29, -0.12149032, 0.2552176, -1101878.5, -73264.58, 0.0, 9.999694, 9.998896 
8.249774e+2, 2.050408e+2, -977676.8, -992070.4, -35586.57, -0.097511284, 0.2442606, -948566.56, -17946.938, 0.0, 9.999832, 9.999651 
8.249917e+2, 2.1503839e+2, -812171.44, -858904.56, -62848.754, -0.06889057, 0.02650959, -768486.06, 64149.547, 0.0, 10.000288, 9.999673 
8.250048e+2, 2.250371e+2, -789340.25, -1014467.5, -121129.24, -0.07647468, 0.03003642, -736547.06, -1900.0874, 0.0, 10.000699, 9.997739 
8.2501674e+2, 2.3503673e+2, -645952.25, -891586.06, -106089.22, -0.11936516, 0.20799008, -606476.44, 30179.26, 0.0, 10.001, 9.997763 
8.2502997e+2, 2.4503513e+2, -481707.34, -614386.4, -63878.48, -0.096758805, 0.20942596, -455952.38, 82718.01, 0.0, 10.000824, 9.999074 
8.250445e+2, 2.5503227e+2, -468900.13, -553189.25, -102296.96, -0.0026987959, 0.003265035, -400406.4, 40285.152, 0.0, 10.000226, 9.999108 
8.250576e+2, 2.650304e+2, -420450.4, -593101.8, -127070.28, -0.010803432, -0.039905146, -353156.5, -10448.231, 0.0, 10.000367, 9.998099 
8.2506937e+2, 2.750294e+2, -201657.67, -433296.8, -96091.625, -0.11156705, 0.036694974, -166985.47, 77736.79, 0.0, 10.001181, 9.998128 
8.250827e+2, 2.8502837e+2, -48313.203, -254801.88, -57665.43, -0.10799847, 0.10124814, -33300.637, 113432.59, 0.000001518397, 10.00133, 9.9986105 
8.2509756e+2, 2.9502726e+2, -28266.832, -194076.84, -88983.055, 0.0041974825, 0.114409655, 10447.338, 59189.91, 0.000022006743, 10.000793, 9.998611 
8.251107e+2, 3.0502602e+2, 43232.88, -213140.89, -93300.77, -0.063611634, 0.17273158, 73592.234, 73592.234, 0.00009542949, 10.001292, 9.997901 
8.2512295e+2, 3.1502303e+2, 309237.3, 2632.8044, -67857.1, -0.21743302, 0.061329745, 323584.0, 323584.0, 0.0002328845, 10.002717, 9.998696 
8.348648e+2, 1.2502897e+2, -1687546.3, -1738773.0, 15150.26, -0.21128452, 0.24585731, -1683401.0, 31343.781, 0.000000000051048894, 10.000307, 9.999684 
8.348816e+2, 1.3503015e+2, -1710688.4, -1743209.5, -44877.563, -0.0019563844, 0.4218318, -1679216.4, -62480.316, 0.0, 9.999686, 9.999284 
8.348954e+2, 1.4502935e+2, -1579347.4, -1561744.6, -94003.61, -0.0430273, 0.39147693, -1476131.3, 42612.504, 0.0, 9.999626, 9.99988 
8.3490926e+2, 1.5502821e+2, -1385593.1, -1410966.6, -69000.98, -0.060058106, 0.27113262, -1328122.3, 92629.81, 0.0, 10.000256, 9.999936 
8.349229e+2, 1.6502711e+2, -1350473.6, -1479355.6, -93783.836, -0.08105816, 0.23121874, -1301125.1, 21636.21, 0.0, 10.000416, 9.998716 
8.3493656e+2, 1.7502607e+2, -1287138.0, -1396217.4, -127566.555, -0.08796739, 0.24585712, -1202941.3, 21830.48, 0.0, 10.000169, 9.9987335 
8.349503e+2, 1.8502551e+2, -1110617.9, -1074935.5, -138413.63, -0.066991426, 0.23695566, -953217.94, 173556.7, 0.0, 9.99991, 10.000389 
8.3496416e+2, 1.9502528e+2, -1045050.8, -988513.44, -75953.85, -0.021117868, 0.16245507, -935738.3, 93033.53, 0.0, 9.999667, 10.000426 
8.3497816e+2, 2.0502502e+2, -1029781.0, -1085809.9, -22939.035, -0.012284677, 0.16461754, -1021587.6, -90816.8, 0.0, 9.999771, 9.999036 
8.349924e+2, 2.150246e+2, -862101.94, -951545.2, -40276.797, -0.03539531, 0.20721692, -846638.5, -13865.663, 0.0, 10.000238, 9.999059 
8.3500594e+2, 2.2502317e+2, -763944.7, -945482.9, -116041.914, -0.042996284, 0.20146184, -707388.44, 27397.76, 0.0, 10.000628, 9.998248 
8.3501863e+2, 2.3502058e+2, -614312.75, -820155.0, -90341.6, -0.042736933, 0.10777396, -580287.3, 56524.805, 0.0, 10.000967, 9.998273 
8.350318e+2, 2.4501847e+2, -549383.7, -747836.3, -91609.43, -0.0022924857, 0.07523736, -513561.34, 25270.848, 0.0, 10.0007925, 9.998174 
8.350456e+2, 2.5501665e+2, -537160.06, -690894.94, -119186.2, 0.08085165, 0.06512953, -472203.8, -31356.1, 0.0, 10.0002, 9.998179 
8.3505833e+2, 2.6501587e+2, -361617.1, -461246.53, -99095.24, 0.020563819, 0.12917177, -300520.25, 42334.242, 0.0, 10.000329, 9.999022 
8.3507e+2, 2.7501595e+2, -144822.88, -303821.16, -60085.9, -0.1794883, 0.22425805, -124670.48, 120183.51, 0.0, 10.00113, 9.999044 
8.3508307e+2, 2.8501412e+2, -105519.375, -363062.38, -81583.41, -0.22015078, 0.19783667, -81850.88, 65020.836, 0.0000012583888, 10.001289, 9.997885 
8.350974e+2, 2.9501027e+2, -84807.96, -306060.2, -102294.19, -0.103066094, 0.010283855, -44761.46, 4147.754, 0.000022643984, 10.000769, 9.997855 
8.3511126e+2, 3.050086e+2, 39134.797, -214674.4, -38888.32, -0.14064024, 0.061336417, 44959.543, 44959.543, 0.000101563375, 10.001266, 9.997905 
8.351254e+2, 3.1500643e+2, 331806.44, 60840.19, 2875.1401, -0.27131325, 0.0394097, 331836.94, 331836.94, 0.0002494841, 10.002669, 9.999122 
8.4486485e+2, 1.2501356e+2, -1862495.4, -1841132.8, -15803.177, -0.17207372, 0.20726682, -1832739.6, -117847.37, 0.0, 9.999191, 9.999524 
8.4488124e+2, 1.3501528e+2, -1714874.0, -1753183.9, 10054.5, -0.0059050154, 0.44758353, -1712395.5, -95516.375, 0.0, 9.999706, 9.999206 
8.448951e+2, 1.4501414e+2, -1537419.6, -1578045.9, 8324.454, -0.05341039, 0.4025972, -1535780.1, -16889.504, 0.0, 10.000078, 9.999546 
8.449098e+2, 1.5501183e+2, -1382769.9, -1447829.6, -35605.805, -0.03846475, 0.19980858, -1367071.5, 53838.87, 0.0, 10.000444, 9.999591 
8.449236e+2, 1.6501072e+2, -1309237.0, -1446247.9, -61978.11, -0.053824816, 0.16935658, -1285361.3, 37559.14, 0.0, 10.000637, 9.998839 
8.44937e+2, 1.7501079e+2, -1221903.0, -1350436.8, -17807.596, -0.0794622, 0.28312913, -1219481.5, 5439.5337, 0.0, 10.000558, 9.998859 
8.449507e+2, 1.850104e+2, -1015404.1, -1050184.3, -35470.887, -0.05638773, 0.29308394, -993289.8, 133633.27, 0.0, 10.000651, 10.000203 
8.4496474e+2, 1.9500943e+2, -886060.1, -934556.56, -111544.48, 0.01168716, 0.16369382, -796158.7, 232768.92, 0.0, 10.000857, 10.000225 
8.449788e+2, 2.0500904e+2, -897770.3, -1025518.56, -94901.07, 0.03570873, 0.16639873, -847249.9, 83678.3, 0.0, 10.000689, 9.999011 
8.449931e+2, 2.1500908e+2, -891033.2, -971224.75, -78639.68, 0.0230785, 0.25908038, -842857.44, -9930.924, 0.0, 10.000061, 9.999013 
8.4500676e+2, 2.2500762e+2, -828314.5, -947445.4, -110718.445, 0.01601564, 0.24152207, -762155.56, -27215.691, 0.0, 10.0000725, 9.998492 
8.450199e+2, 2.3500463e+2, -637506.56, -802667.5, -118877.87, 0.011251701, 0.08242377, -575340.75, 61627.875, 0.0, 10.000702, 9.998512 
8.450329e+2, 2.450027e+2, -497821.13, -699726.1, -109266.62, 0.015308449, 0.04619504, -450010.06, 88976.0, 0.0, 10.001041, 9.998386 
8.450457e+2, 2.5500163e+2, -401216.38, -599393.9, -63082.184, 0.0292777, 0.08885063, -382840.5, 58153.184, 0.0, 10.001024, 9.998406 
8.4505856e+2, 2.6500088e+2, -336438.28, -469370.13, -20938.547, -0.0070519447, 0.15190436, -333218.2, 9781.569, 0.0, 10.000589, 9.998839 
8.4507143e+2, 2.7500027e+2, -358146.38, -424171.38, -71617.305, -0.081882566, 0.19766127, -312299.1, -67293.72, 0.0000000050987805, 9.999747, 9.99888 
8.450848e+2, 2.8499815e+2, -322290.8, -497426.9, -94252.484, -0.09946853, 0.16167513, -281205.47, -134178.72, 0.0000017148438, 9.999928, 9.997618 
8.450987e+2, 2.949943e+2, -63123.605, -320722.16, -90432.0, -0.054449078, 0.00029675674, -34546.895, 14518.722, 0.000025402682, 10.001032, 9.997623 
8.451128e+2, 3.049925e+2, 49741.496, -218378.88, 4794.061, -0.115208015, 0.051357023, 49827.188, 49827.188, 0.00011168263, 10.001366, 9.997841 
8.451276e+2, 3.1499034e+2, 93428.3, -12915.7, 27613.64, -0.2187829, 0.039209735, 100171.02, 100171.02, 0.00027089723, 10.000843, 9.999503 
8.5486346e+2, 1.24999076e+2, -1795397.4, -1695326.1, -19623.191, -0.25192985, 0.29131714, -1691615.8, 23416.756, 0.0, 9.999169, 10.000533 
8.548807e+2, 1.3499877e+2, -1641655.4, -1593641.4, 30802.697, -0.03637068, 0.22113217, -1578595.3, 38436.02, 0.0, 9.999682, 10.000307 
8.5489523e+2, 1.4499737e+2, -1612931.1, -1735596.0, 19263.717, -0.05974789, 0.1480307, -1609977.1, -90932.49, 0.0, 10.000074, 9.99847 
8.5491043e+2, 1.5499644e+2, -1456069.5, -1607780.3, -12124.851, -0.02761568, 0.19432563, -1455106.6, -34049.3, 0.0, 10.000472, 9.998482 
8.5492426e+2, 1.6499613e+2, -1223211.8, -1267374.4, -68518.61, -0.06536656, 0.2394154, -1173304.3, 149756.61, 0.0, 10.000634, 10.000069 
8.5493684e+2, 1.7499629e+2, -1131677.5, -1165310.3, -15753.932, -0.16431734, 0.2335304, -1125451.0, 99605.69, 0.0, 10.000563, 10.00013 
8.549503e+2, 1.8499567e+2, -1153796.1, -1331158.4, -29984.775, -0.16475041, 0.2516267, -1148864.1, -21801.293, 0.0, 10.000623, 9.998289 
8.549649e+2, 1.9499412e+2, -1021266.06, -1216373.3, -98010.19, -0.06956085, 0.25819907, -980534.75, 48546.043, 0.0, 10.0008545, 9.998294 
8.5497934e+2, 2.0499292e+2, -866216.3, -951247.3, -123653.38, 0.0054161977, 0.24914421, -777973.56, 153117.8, 0.0, 10.000649, 9.999541 
8.549936e+2, 2.1499188e+2, -856254.2, -890700.6, -97136.39, 0.059940394, 0.17932893, -774825.9, 58270.086, 0.0, 10.00002, 9.999587 
8.5500735e+2, 2.2499052e+2, -844551.3, -964105.8, -91382.78, 0.055418633, 0.14457093, -795130.9, -60023.395, 0.0, 9.999998, 9.998416 
8.550206e+2, 2.3498878e+2, -647627.2, -816841.75, -88782.79, -0.005081538, 0.11913113, -609593.6, 27532.588, 0.0, 10.000667, 9.998434 
8.55033e+2, 2.4498776e+2, -413117.47, -511524.3, -114699.87, -0.088223636, 0.11335567, -337512.88, 201619.95, 0.0, 10.000992, 9.999702 
8.5504454e+2, 2.5498727e+2, -314132.53, -408492.06, -60394.945, -0.19376044, 0.079601, -284673.7, 156455.61, 0.0, 10.000978, 9.999742 
8.550581e+2, 2.6498547e+2, -429314.16, -651613.44, -57977.207, -0.11955727, 0.03633824, -415101.94, -71958.234, 0.0, 10.0005455, 9.99761 
8.550734e+2, 2.749824e+2, -450632.44, -609485.44, -97430.555, 0.13005371, -0.043251198, -404355.8, -159179.19, 0.0000001292932, 9.99972, 9.9976225 
8.550878e+2, 2.8498045e+2, -307877.72, -464050.0, -54491.78, 0.19843927, -0.010391992, -290744.1, -143545.56, 0.000003149254, 9.999912, 9.997855 
8.5510135e+2, 2.9497933e+2, -49967.72, -290631.44, -42082.02, 0.087620765, 0.084000185, -42821.53, 6390.5117, 0.000029420804, 10.001011, 9.997846 
8.55115e+2, 3.049777e+2, 29858.195, -238363.7, -16622.385, -0.04123277, 0.1442972, 30884.4, 30884.4, 0.00012215794, 10.001294, 9.99773 
8.5512936e+2, 3.1497428e+2, 95551.16, 23763.37, 22255.125, -0.14942421, 0.018284725, 101890.69, 101890.69, 0.00029314935, 10.000724, 9.999806 
8.648636e+2, 1.249826e+2, -1747950.6, -1665086.1, -36157.617, -0.16719337, 0.25487515, -1651527.4, 63663.816, 0.00000000000000000000885557, 9.999456, 10.000596 
8.648815e+2, 1.3498197e+2, -1452856.1, -1487384.8, -64046.145, 0.023768093, 0.13385916, -1403788.3, 213403.88, 0.0, 10.000894, 10.000455 
8.6489606e+2, 1.4498088e+2, -1437814.1, -1634368.1, -96697.66, -0.034367334, 0.07512059, -1398218.6, 120983.88, 0.0, 10.001211, 9.998613 
8.649106e+2, 1.5498072e+2, -1448141.0, -1588612.3, -47685.516, -0.060794353, 0.18512249, -1433482.9, -12273.965, 0.0, 10.000466, 9.998615 
8.649242e+2, 1.649807e+2, -1319584.8, -1311279.4, -91561.29, -0.099339455, 0.2517628, -1223776.6, 99433.73, 0.0, 9.999959, 10.000092 
8.649371e+2, 1.7498073e+2, -1257037.9, -1224824.3, -141039.86, -0.14226624, 0.23154426, -1098974.5, 126233.58, 0.0, 9.999694, 10.000139 
8.649509e+2, 1.8497998e+2, -1261793.3, -1386908.5, -101939.15, -0.13416548, 0.2380259, -1204747.1, -77531.92, 0.0, 9.999903, 9.99825 
8.649655e+2, 1.9497834e+2, -1073247.4, -1244149.6, -35619.56, -0.07354437, 0.23976748, -1066120.8, -36887.83, 0.0, 10.000522, 9.998257 
8.649798e+2, 2.0497689e+2, -853724.8, -978575.25, -38315.72, -0.014871081, 0.22181629, -842903.9, 88342.65, 0.0, 10.00088, 9.999239 
8.649938e+2, 2.1497546e+2, -749354.5, -873499.56, -86854.984, 0.040742982, 0.14368685, -704671.3, 128585.945, 0.0, 10.00091, 9.999274 
8.650075e+2, 2.249743e+2, -707801.0, -863017.5, -72841.13, 0.03612395, 0.12965667, -678972.06, 56295.406, 0.0, 10.000777, 9.998738 
8.650209e+2, 2.3497333e+2, -659902.4, -786791.75, -48740.188, -0.025497578, 0.14670244, -643341.9, -6063.895, 0.0, 10.000427, 9.9987545 
8.650334e+2, 2.4497259e+2, -512528.94, -553709.94, -101901.055, -0.10683635, 0.15013635, -429158.9, 110122.945, 0.0, 10.000289, 9.999747 
8.650451e+2, 2.5497192e+2, -398576.6, -444396.94, -152718.47, -0.2105582, 0.09555313, -267059.4, 174221.16, 0.0, 10.000384, 9.999779 
8.650588e+2, 2.6496992e+2, -369137.47, -627770.0, -143054.64, -0.117846265, 0.029964695, -305613.56, 37683.92, 0.0000000005766255, 10.000975, 9.997565 
8.6507463e+2, 2.7496645e+2, -118150.67, -456372.47, -103708.53, 0.17590465, -0.08087845, -88883.25, 156450.48, 0.000000514823, 10.002023, 9.997565 
8.6508906e+2, 2.849648e+2, -18733.164, -316187.03, -21811.045, 0.23682196, -0.019501667, -17142.36, 130210.11, 0.0000053955687, 10.001856, 9.997937 
8.651019e+2, 2.9496473e+2, -118435.21, -310292.53, -29927.668, 0.07183268, 0.16603555, -113875.2, -64519.543, 0.00003455936, 10.000487, 9.997961 
8.651154e+2, 3.0496275e+2, -176508.73, -279244.97, 10738.186, -0.03671728, 0.16404049, -175398.36, -175398.36, 0.000132535, 9.999606, 9.998265 
8.6513025e+2, 3.149595e+2, -99396.914, 13982.911, 84762.51, -0.037868235, -0.0054434026, 59265.684, 59265.684, 0.00031326473, 9.99901, 10.000561 
8.748648e+2, 1.2496411e+2, -1812298.1, -1794015.3, 1564.8179, -0.014448446, 0.08376092, -1793882.3, -78513.445, 0.0000000055054987, 9.999439, 9.999715 
8.7488353e+2, 1.3496497e+2, -1505747.3, -1595508.5, -6294.6895, 0.1277933, 0.18344499, -1505308.0, 112053.484, 0.0, 10.000892, 9.999708 
8.7489754e+2, 1.4496477e+2, -1344917.9, -1447090.9, -130485.73, -0.024284849, 0.1914647, -1255874.6, 263489.13, 0.0, 10.001231, 9.99989 
8.7490994e+2, 1.5496467e+2, -1354477.6, -1392537.6, -71671.45, -0.18478277, 0.17465347, -1299352.9, 122011.72, 0.0, 10.00046, 9.999963 
8.749233e+2, 1.6496447e+2, -1403862.4, -1484999.1, -106553.78, -0.1994901, 0.21051127, -1330415.4, -7046.938, 0.0, 9.99995, 9.998906 
8.7493783e+2, 1.749641e+2, -1341582.6, -1402729.3, -146764.72, -0.054420646, 0.2731516, -1222240.5, 3134.9436, 0.0, 9.999701, 9.998917 
8.749522e+2, 1.8496338e+2, -1138699.3, -1122799.4, -83253.625, -0.0027210144, 0.25497308, -1047116.94, 80262.99, 0.0, 9.999866, 10.00008 
8.7496644e+2, 1.9496207e+2, -946219.06, -973863.1, -6948.2827, -0.04601832, 0.101091385, -944570.9, 84813.08, 0.0, 10.000488, 10.00013 
8.749803e+2, 2.049609e+2, -944561.56, -1151496.0, -42014.758, -0.06748465, 0.07439004, -936356.44, -4962.582, 0.0, 10.000814, 9.998085 
8.7499374e+2, 2.149598e+2, -837968.94, -1048159.6, -81518.54, -0.072807826, 0.14611396, -810059.4, 23351.031, 0.0, 10.000867, 9.998096 
8.750072e+2, 2.2495899e+2, -665823.5, -763292.94, -91289.79, -0.080829725, 0.19207607, -611074.4, 124345.48, 0.0, 10.000722, 9.999451 
8.7502074e+2, 2.349583e+2, -615122.94, -681872.75, -57841.98, -0.089210816, 0.16679327, -581717.75, 55705.91, 0.0, 10.000373, 9.999502 
8.75034e+2, 2.4495721e+2, -605616.7, -735154.94, -102816.74, -0.085627615, 0.15666316, -548869.06, -9436.56, 0.0, 10.0002365, 9.998527 
8.7504685e+2, 2.549556e+2, -492219.66, -628280.25, -143152.02, -0.07392806, 0.12948297, -401755.1, 39692.402, 0.0, 10.000339, 9.998538 
8.750606e+2, 2.6495403e+2, -297426.1, -472727.75, -105745.68, -0.043997467, 0.11948557, -247727.66, 95734.2, 0.0000000691861, 10.000945, 9.998646 
8.7507516e+2, 2.7495244e+2, -49378.02, -299476.38, -57763.83, 0.008642045, 0.08446372, -36681.21, 208795.78, 0.000001269736, 10.001962, 9.9986725 
8.7508845e+2, 2.8495133e+2, -25531.752, -323751.13, -78005.56, -0.022868183, 0.14156237, -6360.2246, 141127.77, 0.000008177336, 10.001822, 9.997904 
8.751003e+2, 2.9495028e+2, -123258.4, -318992.4, -75735.59, -0.13974395, 0.23967282, -97376.34, -47878.734, 0.000040999803, 10.000471, 9.997916 
8.75114e+2, 3.049476e+2, -96639.57, -102323.805, -8593.502, -0.14255762, 0.10348499, -90430.39, -90430.39, 0.00014405875, 9.999569, 9.999493 
8.7513e+2, 3.1494555e+2, -20765.307, 185052.6, 80795.75, 0.010710697, -0.06499908, 212980.2, 212980.2, 0.00033067827, 9.9989805, 10.00175 
8.848654e+2, 1.24948055e+2, -1661500.5, -1757294.5, 105956.61, 0.05056732, 0.04081693, -1593118.0, 122405.44, 0.00000006865043, 10.000621, 9.999407 
8.8488346e+2, 1.349489e+2, -1671351.3, -1704286.1, 125800.57, 0.08982629, 0.16636868, -1560944.9, 56572.832, 0.0, 9.999872, 9.999461 
8.848976e+2, 1.4494894e+2, -1582564.0, -1539794.0, -29177.55, -0.050605357, 0.20074964, -1525003.8, -5485.525, 0.0, 9.999506, 10.000087 
8.8491064e+2, 1.5494908e+2, -1439706.3, -1413602.5, -66345.57, -0.12093415, 0.18635198, -1359037.3, 62479.36, 0.0, 9.999783, 10.000146 
8.849242e+2, 1.6494866e+2, -1359643.6, -1489635.0, -79089.56, -0.11770724, 0.20478158, -1322269.4, 1252.9242, 0.0, 10.000377, 9.998667 
8.8493854e+2, 1.7494774e+2, -1134431.3, -1329702.3, -58725.152, -0.028849179, 0.23794323, -1118131.1, 107403.7, 0.0, 10.001247, 9.9986725 
8.849528e+2, 1.8494692e+2, -944942.0, -994876.9, -29963.164, 0.015438146, 0.20832923, -930907.3, 196632.33, 0.0, 10.00104, 10.000395 
8.84967e+2, 1.9494607e+2, -1040563.9, -983548.44, -81584.35, 0.010532063, 0.06707246, -925634.56, 103903.92, 0.0, 9.999688, 10.000449 
8.849807e+2, 2.0494518e+2, -1154218.8, -1241405.1, -92990.03, -0.03043184, 0.0494821, -1095110.9, -163565.25, 0.0, 9.999325, 9.998185 
8.8499373e+2, 2.1494424e+2, -968453.5, -1099793.1, -44813.58, -0.10678093, 0.12856382, -954620.0, -121058.06, 0.0, 9.999922, 9.998198 
8.8500726e+2, 2.2494374e+2, -758526.2, -790488.1, -44927.86, -0.10960578, 0.19161595, -726821.7, 8747.419, 0.0, 10.000015, 9.9996 
8.8502115e+2, 2.3494352e+2, -718916.7, -715749.0, -68139.89, -0.0376145, 0.19705608, -649174.5, -11606.215, 0.0, 9.999595, 9.999644 
8.850347e+2, 2.4494237e+2, -699804.7, -790598.8, -58463.574, -0.004342137, 0.17862837, -671182.25, -131604.14, 0.0, 9.999629, 9.998441 
8.8504773e+2, 2.549401e+2, -521797.38, -653494.06, -22791.953, -0.012448239, 0.09574804, -517964.47, -76364.26, 0.00000000006372724, 10.000171, 9.998449 
8.8506126e+2, 2.6493874e+2, -394523.78, -500692.28, 30866.975, -0.029044695, 0.10364155, -386201.94, -42588.777, 0.00000025387644, 10.000208, 9.998804 
8.850754e+2, 2.7493834e+2, -355967.8, -427164.1, -2875.9148, -0.04976366, 0.16852678, -355851.84, -110234.22, 0.0000021793016, 9.9997835, 9.998838 
8.850887e+2, 2.849373e+2, -259035.25, -382171.84, -50481.02, -0.082386255, 0.20543873, -240985.78, -93360.016, 0.00001103343, 9.999999, 9.998375 
8.851011e+2, 2.949354e+2, -35425.42, -218724.66, -19677.977, -0.12597275, 0.16613527, -33336.707, 16303.229, 0.00004783983, 10.000839, 9.998418 
8.851146e+2, 3.0493203e+2, 7442.3457, -110798.69, -18720.54, -0.08278248, -0.037513353, 10335.489, 10335.489, 0.00015538944, 10.0005245, 9.998986 
8.851299e+2, 3.1493106e+2, -91237.055, 62995.563, -69727.98, 0.11752628, -0.040824164, 89845.19, 89845.19, 0.00034428985, 9.998876, 10.000971 
8.948649e+2, 1.2493452e+2, -1643494.8, -1714262.3, 57713.52, -0.08947615, 0.13016878, -1611181.8, 104472.484, 0.00000033567557, 10.000614, 9.999698 
8.9488125e+2, 1.3493405e+2, -1657348.6, -1663773.9, 98144.83, -0.13326977, 0.09652027, -1562363.9, 55294.332, 0.00000000007521531, 9.999839, 9.999751 
8.948961e+2, 1.4493369e+2, -1646398.1, -1673033.0, -23992.031, -0.1605076, 0.11806091, -1632275.3, -112611.91, 0.0, 9.9995, 9.99918 
8.949126e+2, 1.5493403e+2, -1506221.6, -1553010.9, -48185.473, 0.082707904, 0.22212566, -1476051.8, -54388.227, 0.0, 9.9997835, 9.999191 
8.9492685e+2, 1.6493341e+2, -1313822.0, -1395896.8, -50010.75, 0.09611104, 0.2375766, -1290166.8, 33503.918, 0.0, 10.00038, 9.999309 
8.9493906e+2, 1.7493166e+2, -1085631.0, -1230822.5, -19400.973, -0.10843292, 0.11753881, -1083083.3, 142602.52, 0.0, 10.001253, 9.99935 
8.9495254e+2, 1.8493065e+2, -1035164.1, -1175370.6, -84932.66, -0.12503769, 0.09400327, -995140.06, 132553.95, 0.0, 10.001012, 9.99917 
8.9496714e+2, 1.9493033e+2, -1133813.3, -1169455.4, -128064.22, 0.04789893, 0.13182922, -1022336.06, 7360.2993, 0.0, 9.999653, 9.99919 
8.949809e+2, 2.0492977e+2, -1067716.8, -1048878.0, -76834.375, 0.054121442, 0.14370331, -980887.75, -49185.965, 0.0, 9.999269, 9.999536 
8.949937e+2, 2.1492888e+2, -881764.75, -903047.6, -17344.508, -0.11098257, 0.08834734, -872057.44, -38346.063, 0.0, 9.999852, 9.99958 
8.9500743e+2, 2.2492866e+2, -799583.3, -862761.9, -65617.875, -0.10013095, 0.13313061, -758346.9, -22632.672, 0.0, 9.999953, 9.999136 
8.950221e+2, 2.34929e+2, -757808.25, -788561.9, -79311.67, 0.08358329, 0.23987885, -692396.5, -54685.168, 0.0, 9.999556, 9.999164 
8.950354e+2, 2.44928e+2, -632288.6, -644514.75, -43498.85, 0.09568353, 0.21244107, -594475.4, -54756.71, 0.0, 9.999604, 9.999455 
8.950474e+2, 2.5492546e+2, -458202.6, -508737.16, 2021.5499, -0.06919969, 0.00028382795, -458121.84, -16383.587, 0.0000000002378373, 10.000118, 9.99947 
8.950607e+2, 2.649242e+2, -450159.16, -611976.2, 10281.731, -0.11985386, -0.0019661332, -449508.47, -105758.23, 0.00000030747992, 10.000187, 9.998052 
8.9507526e+2, 2.749241e+2, -415864.16, -545475.75, -12593.729, -0.05188396, 0.17446904, -414651.84, -168896.27, 0.0000026197797, 9.999753, 9.998044 
8.950897e+2, 2.8492275e+2, -196942.52, -248514.73, -22442.6, 0.0021458885, 0.17581561, -188543.92, -40777.98, 0.000013141425, 9.999976, 9.999302 
8.951038e+2, 2.9491994e+2, 27447.697, -84584.01, 17102.74, 0.049194634, -0.050220188, 30000.432, 79783.81, 0.00005419451, 10.000815, 9.999354 
8.951169e+2, 3.04916e+2, -148668.86, -420287.8, -83236.08, 0.08590667, -0.25719994, -125190.984, -125190.984, 0.0001662128, 10.000473, 9.996878 
8.951296e+2, 3.149156e+2, -280137.5, -318964.88, -115948.0, 0.17848335, 0.008943522, -181989.16, -181989.16, 0.0003568497, 9.998837, 9.99836 
9.04866e+2, 1.2492004e+2, -1631825.5, -1709490.0, 23504.246, -0.040413033, 0.17444059, -1625266.1, 90530.18, 0.0000010657902, 10.0006895, 9.999705 
9.0488124e+2, 1.3491935e+2, -1489651.3, -1579464.8, 27348.172, -0.16866991, 0.11597507, -1481979.1, 135822.28, 0.000000007369457, 10.000972, 9.999786 
9.0489614e+2, 1.4491864e+2, -1467942.1, -1616953.3, -62122.004, -0.17352584, 0.11592011, -1445441.4, 74367.92, 0.0, 10.000861, 9.998903 
9.049134e+2, 1.5491822e+2, -1436560.8, -1549860.6, -49924.83, 0.16508289, 0.1709021, -1417701.1, 4116.4546, 0.0, 10.0004, 9.998915 
9.049279e+2, 1.6491756e+2, -1325249.8, -1353481.6, -4690.5537, 0.18753104, 0.17602494, -1324490.9, -666.566, 0.0, 10.000094, 9.999739 
9.049397e+2, 1.7491652e+2, -1243324.5, -1254408.6, -2439.902, -0.102445565, 0.08308115, -1242811.3, -16980.38, 0.0, 9.999953, 9.999808 
9.0495276e+2, 1.8491589e+2, -1234442.8, -1320078.4, -77783.77, -0.1420971, 0.093956806, -1188470.4, -60633.65, 0.0, 9.999848, 9.998738 
9.049672e+2, 1.9491556e+2, -1145428.9, -1226394.5, -66636.086, 0.075503856, 0.17690934, -1107942.3, -78098.91, 0.0, 9.999781, 9.998744 
9.049809e+2, 2.0491506e+2, -992401.3, -968248.3, 21093.307, 0.11130391, 0.1956013, -956019.06, -24169.87, 0.0, 9.999594, 9.999929 
9.049939e+2, 2.1491422e+2, -937686.7, -887762.44, -7430.181, -0.042054936, 0.105996445, -886680.1, -52824.69, 0.0, 9.999281, 9.999961 
9.0500754e+2, 2.249138e+2, -862746.7, -874415.94, -59564.973, -0.053564936, 0.10321971, -808731.25, -72872.945, 0.0, 9.999443, 9.999302 
9.0502185e+2, 2.3491368e+2, -659361.0, -723221.94, -36204.676, 0.076170586, 0.15015982, -643017.94, -5159.045, 0.0, 10.000156, 9.999323 
9.050351e+2, 2.44913e+2, -486046.22, -567424.1, 2749.3174, 0.057003908, 0.142655, -485953.44, 53910.3, 0.0, 10.000579, 9.999514 
9.050473e+2, 2.5491163e+2, -370544.66, -459234.94, -34866.92, -0.118260026, 0.041216522, -358478.84, 83395.21, 0.0, 10.00069, 9.999531 
9.0506077e+2, 2.649105e+2, -363244.75, -544236.6, -37527.28, -0.15022612, 0.039857816, -355772.28, -11887.825, 0.0000002007212, 10.000673, 9.998283 
9.050756e+2, 2.7490953e+2, -280653.4, -453251.03, 3188.29, -0.025996981, 0.102820106, -280594.53, -34698.566, 0.0000025589381, 10.000564, 9.998288 
9.0509003e+2, 2.8490818e+2, -218698.19, -299098.0, 2038.174, 0.046966378, 0.10960538, -218646.55, -70739.22, 0.000014744336, 10.0, 9.998946 
9.051039e+2, 2.9490638e+2, -269850.16, -261144.45, -66432.555, 0.07527849, 0.02118133, -198922.3, -149002.92, 0.00006127167, 9.998932, 9.9990425 
9.0511674e+2, 3.049027e+2, -311922.75, -463231.66, -113652.94, 0.08750791, -0.15618245, -251046.67, -251046.67, 0.00017929857, 9.999189, 9.997207 
9.051294e+2, 3.1490198e+2, -29402.553, -209245.86, 17554.25, 0.18556726, 0.043854967, -27705.127, -27705.127, 0.00037394426, 10.000606, 9.998263 
9.1486824e+2, 1.2490492e+2, -1644306.1, -1741279.8, 22390.209, 0.09238832, 0.19486274, -1639386.0, 76560.91, 0.000002613721, 10.000718, 9.999471 
9.1488343e+2, 1.3490485e+2, -1504094.0, -1613192.9, 41695.777, -0.058262233, 0.22138889, -1489983.6, 127962.89, 0.00000007607973, 10.000983, 9.99955 
9.1489744e+2, 1.449038e+2, -1442556.8, -1567403.0, -84427.69, -0.13936505, 0.18366975, -1399981.4, 119975.07, 0.0, 10.000873, 9.999238 
9.1491306e+2, 1.5490167e+2, -1408001.6, -1495414.9, -61139.96, 0.07559601, 0.028270558, -1376552.6, 45425.56, 0.0, 10.000418, 9.999279 
9.149273e+2, 1.6490121e+2, -1310837.1, -1322698.8, -16380.122, 0.10495443, 0.024738045, -1299347.1, 24635.178, 0.0, 10.000092, 9.99995 
9.149402e+2, 1.7490244e+2, -1232419.3, -1227935.3, -2953.6177, -0.056912597, 0.13858968, -1226469.1, -500.15182, 0.0, 9.999934, 10.0 
9.149533e+2, 1.8490271e+2, -1210267.3, -1262164.5, -84381.02, -0.07874527, 0.21003716, -1147935.3, -19968.113, 0.0, 9.999814, 9.999153 
9.1496676e+2, 1.9490187e+2, -1122047.9, -1169159.5, -62569.594, 0.04381735, 0.20046408, -1078746.9, -48768.402, 0.0, 9.999744, 9.999155 
9.1498035e+2, 2.0490116e+2, -1043412.9, -1063742.0, 5451.6787, 0.08869996, 0.20909095, -1042043.2, -110056.67, 0.0, 9.999547, 9.999297 
9.149942e+2, 2.1490039e+2, -992721.5, -985334.9, -13928.988, 0.05183219, 0.1902153, -974617.9, -140625.11, 0.0, 9.99921, 9.999325 
9.1500753e+2, 2.2489923e+2, -817679.56, -769588.4, -39306.316, -0.013403881, 0.108766854, -747556.06, -11555.423, 0.0, 9.99939, 10.000049 
9.150203e+2, 2.3489758e+2, -614037.5, -616855.7, -4310.44, -0.10583071, -0.074108, -610911.7, 27099.139, 0.0, 10.000102, 10.000079 
9.1503346e+2, 2.4489741e+2, -552669.1, -696346.2, 3367.743, -0.17235705, -0.026072044, -552590.25, -12577.78, 0.0, 10.000536, 9.998651 
9.1504717e+2, 2.548986e+2, -440004.72, -593211.56, -24575.135, -0.20894974, 0.2182933, -436159.25, 5847.789, 0.0, 10.000641, 9.998638 
9.150614e+2, 2.6489773e+2, -285696.28, -374361.0, -45402.688, -0.16398461, 0.22776352, -266571.88, 77443.48, 0.00000011562638, 10.000636, 9.999467 
9.150763e+2, 2.7489454e+2, -200803.11, -280917.47, 4823.9087, -0.027975164, -0.04926051, -200513.7, 45525.543, 0.0000025826089, 10.000531, 9.999489 
9.1508967e+2, 2.8489348e+2, -332697.75, -531622.9, -43005.68, -0.00059127796, 0.0033822323, -323798.47, -175748.27, 0.000017158924, 9.999981, 9.997359 
9.151013e+2, 2.948945e+2, -385419.84, -502194.66, -98767.43, -0.09023369, 0.36065415, -329072.38, -279023.53, 0.000070174305, 9.998927, 9.997395 
9.15114e+2, 3.0489203e+2, -133055.97, -77521.04, -62634.645, -0.111587144, 0.2538644, -36774.78, -36774.78, 0.00019601652, 9.999141, 9.999871 
9.151288e+2, 3.148901e+2, 120981.555, 121641.41, 83380.7, 0.043594413, 0.056088854, 204692.84, 204692.84, 0.00039683623, 10.000537, 10.000565 
9.2486995e+2, 1.248897e+2, -1488880.5, -1685357.6, 18619.506, 0.14087819, 0.20004353, -1487131.5, 228965.08, 0.0000053718704, 10.001854, 9.999305 
9.248853e+2, 1.3488916e+2, -1620968.5, -1685877.4, 25515.135, 0.07107196, 0.19250634, -1612139.6, 5962.6265, 0.00000033393198, 10.000246, 9.999407 
9.248986e+2, 1.4488856e+2, -1596303.6, -1563162.6, -49824.98, -0.037683178, 0.1728601, -1527225.0, -7117.1147, 0.0, 9.999488, 9.999934 
9.2491233e+2, 1.5488756e+2, -1453200.8, -1436578.1, -13350.225, -0.0043915496, 0.060447183, -1429163.5, -7046.643, 0.0, 9.999769, 9.999992 
9.249262e+2, 1.6488755e+2, -1351815.8, -1340344.4, 43841.234, 0.0026847885, 0.06310801, -1301865.3, 22250.969, 0.0, 9.999801, 9.999968 
9.249403e+2, 1.7488852e+2, -1287718.8, -1256038.6, 32377.451, -0.016296003, 0.15255566, -1235834.3, -9728.407, 0.0, 9.999559, 9.9999895 
9.249538e+2, 1.848886e+2, -1196189.4, -1258191.8, -38905.34, -0.01435894, 0.20729235, -1177444.1, -49338.055, 0.0, 9.9999275, 9.999124 
9.2496663e+2, 1.9488762e+2, -956101.7, -1089115.0, -64182.445, 0.0050336006, 0.184926, -930182.56, 99936.37, 0.0, 10.0008955, 9.999143 
9.249801e+2, 2.0488693e+2, -847099.75, -989370.1, -24129.938, 0.040125083, 0.20512344, -843118.56, 89008.46, 0.0, 10.000982, 9.999117 
9.249943e+2, 2.1488635e+2, -865457.0, -944988.75, -17679.076, 0.09416589, 0.22343458, -861704.25, -27572.277, 0.0, 10.000171, 9.999142 
9.250073e+2, 2.2488537e+2, -796021.8, -751693.4, -14490.911, 0.022835353, 0.16605173, -747376.7, -11238.351, 0.0, 9.99951, 10.000111 
9.2501897e+2, 2.3488392e+2, -768069.6, -685284.2, -43705.977, -0.18245393, -0.0026829035, -666480.8, -28334.248, 0.0, 9.999017, 10.000134 
9.2503244e+2, 2.4488364e+2, -850580.4, -847585.25, -33287.867, -0.22555897, 0.034043666, -815761.25, -275611.25, 0.0, 9.998527, 9.998583 
9.2504764e+2, 2.548844e+2, -813189.06, -776997.06, -11019.155, -0.09699081, 0.23994982, -773906.1, -331756.28, 0.0, 9.998104, 9.998596 
9.250622e+2, 2.648835e+2, -587682.9, -476586.4, 2595.3384, -0.032747086, 0.23261681, -476525.8, -132368.28, 0.00000007319143, 9.998373, 9.999857 
9.2507625e+2, 2.748808e+2, -344058.25, -302954.38, -14933.586, -0.025860457, -0.03677393, -298101.72, -51927.074, 0.0000027897247, 9.999349, 9.999904 
9.250894e+2, 2.848799e+2, -302543.06, -521111.72, -47049.305, -0.030695599, 0.012180444, -292845.44, -144661.78, 0.000020132902, 10.000201, 9.997327 
9.251017e+2, 2.948808e+2, -99537.02, -370078.1, 2960.373, -0.045673825, 0.36217192, -99504.63, -49319.85, 0.00008107723, 10.00091, 9.99735 
9.251143e+2, 3.048788e+2, 136263.55, 60998.5, 35077.918, -0.085617326, 0.29816452, 150076.8, 150076.8, 0.00021777536, 10.000935, 9.999964 
9.251286e+2, 3.1487668e+2, 40158.516, 55462.313, -32541.234, -0.006331857, 0.07665711, 81239.195, 81239.195, 0.000428338, 10.000079, 10.000335 
9.3487054e+2, 1.2487416e+2, -1496353.8, -1692763.6, -54488.54, -0.01006873, 0.15344669, -1482250.1, 233997.31, 0.000009857008, 10.001829, 9.999263 
9.3488663e+2, 1.3487238e+2, -1620775.0, -1690200.5, -32691.217, 0.17512499, 0.026579956, -1607804.6, 10463.229, 0.0000009955157, 10.00027, 9.999364 
9.3489945e+2, 1.4487314e+2, -1522547.5, -1414700.8, -45935.89, 0.085505724, 0.09410638, -1397787.5, 122473.97, 0.00000000002439963, 9.999502, 10.00095 
9.34911e+2, 1.5487604e+2, -1385557.6, -1290423.9, 4628.444, -0.12548323, 0.27075657, -1290199.3, 132032.92, 0.0, 9.999741, 10.001012 
9.3492436e+2, 1.6487667e+2, -1367592.4, -1365846.9, 29638.693, -0.16949274, 0.29333112, -1337068.0, -12843.1875, 0.0, 9.999772, 9.999805 
9.3493986e+2, 1.7487486e+2, -1300637.9, -1281874.8, 28839.44, -0.025425658, 0.12358864, -1260929.3, -34688.582, 0.0, 9.9995575, 9.999813 
9.3495405e+2, 1.8487366e+2, -1236502.1, -1335689.9, -6755.1274, 0.0056371097, 0.08436654, -1236044.3, -107791.055, 0.0, 9.999901, 9.998608 
9.349666e+2, 1.9487289e+2, -999255.8, -1169242.3, -22564.762, -0.09094928, 0.13546021, -996311.5, 33952.617, 0.0, 10.000855, 9.998613 
9.3498e+2, 2.0487238e+2, -829203.3, -946170.56, -61174.59, -0.08064509, 0.18818404, -803054.44, 129216.0, 0.0, 10.000953, 9.99943 
9.3499404e+2, 2.1487212e+2, -851143.44, -904374.4, -43886.12, 0.042805128, 0.20540096, -826432.75, 7840.0435, 0.0, 10.00012, 9.999448 
9.3500674e+2, 2.2487226e+2, -850044.75, -848957.44, -37824.55, 0.008627926, 0.27653906, -811672.6, -75401.69, 0.0, 9.999447, 9.999472 
9.35018e+2, 2.348727e+2, -822564.75, -785948.7, -56973.645, -0.18968208, 0.36163282, -744413.75, -106147.664, 0.0, 9.998962, 9.99947 
9.3503183e+2, 2.4487166e+2, -803375.2, -743337.9, -54239.22, -0.14599997, 0.32067508, -711364.5, -171088.47, 0.0, 9.998498, 9.999311 
9.3504846e+2, 2.5486892e+2, -765671.2, -675408.1, -22360.77, 0.16527781, 0.105287366, -670172.4, -227869.86, 0.0, 9.998085, 9.999307 
9.3506294e+2, 2.6486784e+2, -613013.7, -523907.38, 35187.28, 0.19724484, 0.056768417, -511687.94, -167377.05, 0.00000003612581, 9.998351, 9.999541 
9.3507534e+2, 2.748683e+2, -373229.47, -355727.6, 28413.225, -0.06038474, 0.13854899, -334748.22, -88446.49, 0.0000027028154, 9.999314, 9.9995575 
9.350892e+2, 2.848675e+2, -204861.2, -309463.03, -22704.45, -0.08284637, 0.1411587, -200145.66, -51838.684, 0.000022320448, 10.000164, 9.998797 
9.3510455e+2, 2.9486534e+2, 4238.8564, -155825.25, 37406.777, 0.14138487, 0.031929206, 12549.3, 62876.527, 0.000092742026, 10.000911, 9.998823 
9.351172e+2, 3.04863e+2, -32676.19, -282847.06, 371.7954, 0.10018979, -0.01898024, -32675.637, -32675.637, 0.0002446386, 10.000911, 9.997611 
9.351282e+2, 3.148621e+2, -153532.52, -326476.34, -53760.637, -0.0722606, 0.11944096, -138183.03, -138183.03, 0.00047061927, 10.000004, 9.997742 
9.448718e+2, 1.2485986e+2, -1644520.9, -1714129.6, -2144.0955, -0.0008120191, 0.1357598, -1644454.9, 71934.66, 0.000016753027, 10.000591, 9.999722 
9.448863e+2, 1.3485898e+2, -1638369.6, -1651336.8, 30608.633, 0.14106213, 0.057087976, -1613565.5, 4835.6406, 0.000002343361, 9.999952, 9.999785 
9.448989e+2, 1.4486022e+2, -1488717.1, -1392273.5, 60205.77, 0.07429831, 0.14972095, -1363358.6, 157031.19, 0.0000000053592455, 9.99971, 10.0009985 
9.4491124e+2, 1.5486296e+2, -1346723.4, -1270025.6, 24752.799, -0.08380605, 0.30444992, -1262730.9, 159631.05, 0.0, 9.999995, 10.00103 
9.449247e+2, 1.6486354e+2, -1323592.4, -1348672.0, 14185.421, -0.12534282, 0.3241895, -1317198.9, 7156.2666, 0.0, 10.000088, 9.999774 
9.449395e+2, 1.7486182e+2, -1242033.3, -1255630.0, 14049.363, -0.03238044, 0.16472091, -1233223.8, -6853.2217, 0.0, 9.999967, 9.999794 
9.449538e+2, 1.8486053e+2, -1218125.5, -1296707.1, 46931.504, -0.005640419, 0.10520238, -1196209.0, -67826.46, 0.0, 9.999904, 9.998866 
9.449673e+2, 1.9485953e+2, -1116035.6, -1198911.0, 82905.51, -0.055208705, 0.10744182, -1064788.9, -34396.125, 0.0, 9.999935, 9.998853 
9.4498056e+2, 2.048589e+2, -987849.94, -1037028.44, 34174.758, -0.058655754, 0.13958365, -970337.56, -37937.887, 0.0, 9.99993, 9.999296 
9.449935e+2, 2.1485864e+2, -896350.4, -938579.75, 4251.9834, -0.0091832895, 0.1707409, -895926.5, -61523.1, 0.0, 9.99987, 9.999328 
9.45006e+2, 2.2485873e+2, -827066.1, -869974.0, 20847.371, -0.016427236, 0.2578948, -818605.44, -82202.04, 0.0, 9.999744, 9.999186 
9.4501835e+2, 2.3485908e+2, -754399.6, -780944.56, 20117.303, -0.07710457, 0.36063352, -743571.0, -105170.08, 0.0, 9.9995575, 9.999212 
9.450322e+2, 2.44858e+2, -619999.5, -635969.94, 39342.74, -0.021326775, 0.3216518, -587839.8, -47428.793, 0.0, 9.999674, 9.999482 
9.450475e+2, 2.5485536e+2, -457617.8, -503413.16, 22554.262, 0.16185641, 0.09743899, -448375.22, -5940.119, 0.0, 10.000103, 9.999512 
9.450619e+2, 2.6485437e+2, -369392.94, -433837.2, 81231.984, 0.17305103, 0.058663316, -314225.7, 30216.93, 0.000000027783642, 10.000137, 9.9993 
9.450756e+2, 2.7485493e+2, -325781.6, -359246.9, 72006.62, 0.013673188, 0.17108408, -268589.06, -22154.6, 0.000002328807, 9.999754, 9.999323 
9.450902e+2, 2.8485394e+2, -223304.52, -296545.34, 5175.626, 0.01414867, 0.16044524, -222940.58, -74499.08, 0.000023776485, 9.999944, 9.998994 
9.4510573e+2, 2.9485142e+2, -21165.688, -143397.64, -38849.324, 0.18076496, -0.0037001797, -9863.209, 40601.0, 0.00010394975, 10.000642, 9.999033 
9.451183e+2, 3.048495e+2, -16013.506, -293777.03, -74453.07, 0.11595465, -0.016420793, 2684.5627, 2684.5627, 0.00027361658, 10.001107, 9.997448 
9.451293e+2, 3.148484e+2, 10988.51, -274162.6, 15177.905, -0.02386456, 0.11879339, 11794.117, 11794.117, 0.00052026927, 10.001232, 9.997528 
9.548731e+2, 1.2484724e+2, -1585294.9, -1587018.0, -29966.623, 0.052390337, 0.17245999, -1556177.5, 160341.34, 0.00002677623, 10.000585, 10.000588 
9.548842e+2, 1.3484922e+2, -1582953.3, -1529593.0, 11619.327, -0.084146805, 0.29065254, -1527172.6, 91326.73, 0.0000047533053, 9.999925, 10.00063 
9.5489675e+2, 1.4484987e+2, -1563402.9, -1538857.1, 66651.0, -0.12771255, 0.32882556, -1483358.5, 37133.76, 0.000000046136613, 9.999672, 10.000012 
9.5491284e+2, 1.5484829e+2, -1413625.9, -1416061.0, 41955.68, 0.066080116, 0.15556534, -1372870.1, 49636.094, 0.0, 10.000025, 10.000015 
9.54927e+2, 1.6484818e+2, -1311098.5, -1326666.6, 4238.2676, 0.08447364, 0.15076385, -1310019.4, 14487.288, 0.0, 10.000104, 9.999916 
9.5493907e+2, 1.7484953e+2, -1235162.3, -1237247.0, 14284.751, -0.08193349, 0.28140393, -1221881.9, 4612.22, 0.0, 9.999949, 9.999928 
9.549529e+2, 1.8484941e+2, -1146490.5, -1145109.3, 43060.547, -0.09377338, 0.28055796, -1102733.8, 25758.885, 0.0, 9.999887, 9.999918 
9.549686e+2, 1.9484766e+2, -1045222.5, -1044821.3, 89689.46, 0.061435442, 0.1011699, -955332.25, 75171.89, 0.0, 9.999904, 9.999927 
9.549818e+2, 2.0484653e+2, -1035493.44, -1126908.6, 26703.975, 0.061689533, 0.057879712, -1028264.44, -95750.42, 0.0, 9.999889, 9.998701 
9.549924e+2, 2.1484594e+2, -951689.6, -1037185.5, 6790.173, -0.107372075, 0.12075363, -951153.7, -116630.22, 0.0, 9.999799, 9.998688 
9.5500505e+2, 2.2484484e+2, -827135.8, -856827.6, 7648.159, -0.09830683, 0.115481295, -825281.56, -88746.32, 0.0, 9.999685, 9.999304 
9.550199e+2, 2.3484306e+2, -755665.2, -772236.75, 17838.176, 0.107677616, -0.005551865, -744282.3, -105731.32, 0.0, 9.999501, 9.999304 
9.5503306e+2, 2.4484268e+2, -649956.3, -685825.3, 51062.227, 0.096463725, 0.036101207, -613770.6, -73215.55, 0.0, 9.999626, 9.999159 
9.550446e+2, 2.548437e+2, -486374.4, -556348.44, 43511.957, -0.1425993, 0.21093287, -465527.9, -22980.232, 0.0, 10.000073, 9.999162 
9.550591e+2, 2.6484308e+2, -385815.47, -459196.25, 64502.707, -0.1343851, 0.23417689, -348298.16, -3744.9727, 0.000000030362223, 10.000104, 9.999142 
9.5507663e+2, 2.748405e+2, -342072.78, -387450.3, 64191.043, 0.1394963, 0.055243365, -296678.72, -50105.027, 0.000002140531, 9.999729, 9.999144 
9.550921e+2, 2.8483918e+2, -299829.44, -445220.28, 27002.088, 0.20146874, 0.06536529, -294976.56, -146388.64, 0.000025776937, 9.999902, 9.99799 
9.5510507e+2, 2.948391e+2, -98968.164, -297003.5, -5818.291, 0.03931424, 0.24753472, -98797.37, -48202.07, 0.00011520068, 10.000603, 9.997996 
9.551177e+2, 3.048383e+2, 109763.234, -14509.738, -67789.09, -0.065603204, 0.29959878, 139584.9, 139584.9, 0.0003025404, 10.001038, 9.999398 
9.5513135e+2, 3.148356e+2, 153403.64, 33798.418, 30849.734, 0.041904468, 0.07718736, 160891.89, 160891.89, 0.00057311467, 10.001188, 9.999661 
9.6487355e+2, 1.2483513e+2, -1786850.3, -1712444.5, 52706.23, 0.10151628, 0.19062488, -1685133.8, 31502.701, 0.000040530904, 9.999309, 10.000349 
9.6488357e+2, 1.3483705e+2, -1491038.9, -1508580.5, -14085.001, -0.16399011, 0.32519758, -1483217.1, 135402.22, 0.000008656152, 10.000654, 10.000424 
9.648964e+2, 1.4483744e+2, -1401345.6, -1485297.6, 23503.563, -0.18642665, 0.35788277, -1395213.4, 125401.7, 0.00000019058375, 10.000891, 9.999793 
9.649135e+2, 1.548352e+2, -1435012.9, -1448762.1, 45694.832, 0.1318589, 0.1396194, -1395678.4, 26955.79, 0.0, 9.999985, 9.999805 
9.649278e+2, 1.6483465e+2, -1380285.6, -1362566.3, 54616.996, 0.17879215, 0.10439152, -1316095.0, 8543.032, 0.0, 9.999643, 9.99989 
9.6493924e+2, 1.748358e+2, -1236333.6, -1243582.8, 42342.406, -0.064208165, 0.21736318, -1197461.0, 29166.375, 0.0, 9.999959, 9.999884 
9.6495265e+2, 1.8483612e+2, -1110627.8, -1085615.6, 41126.453, -0.11135124, 0.24344692, -1055135.8, 73485.63, 0.0, 9.999951, 10.000299 
9.649682e+2, 1.9483547e+2, -1066225.6, -1011670.8, 24471.555, 0.053504866, 0.13636233, -1002302.44, 28319.205, 0.0, 9.999575, 10.000315 
9.649815e+2, 2.0483446e+2, -1106508.8, -1180283.5, -28605.604, 0.062742844, 0.09512083, -1096716.9, -164086.39, 0.0, 9.999499, 9.998516 
9.649923e+2, 2.1483296e+2, -965102.44, -1064854.8, -26166.797, -0.09820157, 0.084763944, -958655.1, -124005.6, 0.0, 9.999806, 9.998488 
9.65005e+2, 2.248316e+2, -759260.9, -799931.3, 2542.904, -0.08307533, 0.051453542, -759102.5, -22438.744, 0.0, 10.000044, 9.999526 
9.650199e+2, 2.3483026e+2, -632802.56, -683007.56, 11204.542, 0.12822081, -0.04639298, -630415.5, 8257.954, 0.0, 10.000217, 9.99957 
9.650331e+2, 2.4483006e+2, -565716.2, -674071.7, 71074.95, 0.10563162, 0.011029579, -530524.6, 10150.814, 0.0, 10.000325, 9.998906 
9.650447e+2, 2.5483096e+2, -457960.6, -570999.1, 60047.05, -0.15733492, 0.20010692, -432017.28, 10652.824, 0.0, 10.000396, 9.998905 
9.650592e+2, 2.6483017e+2, -349995.53, -482368.75, 72700.53, -0.14947799, 0.2404277, -317866.16, 26812.24, 0.000000012060779, 10.00052, 9.998785 
9.650769e+2, 2.7482748e+2, -232199.38, -375164.44, 47868.3, 0.14491403, 0.08191184, -217652.11, 29050.328, 0.0000023356135, 10.000656, 9.998782 
9.6509236e+2, 2.8482583e+2, -252297.45, -454837.9, 41880.977, 0.217385, 0.09590895, -243979.02, -95257.87, 0.000028836348, 10.000366, 9.9977 
9.6510535e+2, 2.948254e+2, -262875.97, -410976.75, 49970.117, 0.06217766, 0.2707071, -247592.88, -196859.33, 0.00012695143, 9.999632, 9.997683 
9.651184e+2, 3.0482498e+2, 1324.8345, -14417.99, 3618.6777, -0.040181335, 0.35657898, 2116.791, 2116.791, 0.00033048782, 10.000063, 9.999867 
9.651331e+2, 3.1482258e+2, 244519.4, 150656.42, -30110.023, 0.081060074, 0.11529898, 253347.92, 253347.92, 0.00062489236, 10.001512, 10.000301 
9.7487235e+2, 1.2482337e+2, -1882401.5, -1900734.9, 96168.734, 0.03377614, 0.17397286, -1794963.5, -78219.62, 0.000058506626, 9.999265, 9.999075 
9.748845e+2, 1.3482244e+2, -1573241.9, -1688960.9, 40143.785, -0.14838374, 0.15162483, -1560679.5, 58081.598, 0.00001444443, 10.000693, 9.999166 
9.7489774e+2, 1.4482293e+2, -1357077.8, -1402937.8, -15840.207, -0.1489423, 0.22987117, -1352138.5, 168619.73, 0.0000005546723, 10.000929, 10.000344 
9.7491294e+2, 1.5482375e+2, -1396051.3, -1365928.1, 16124.288, 0.07167297, 0.26067522, -1358925.1, 63819.867, 0.0, 9.999974, 10.000382 
9.749269e+2, 1.6482306e+2, -1397414.9, -1392027.6, 60046.965, 0.113630064, 0.19093846, -1334613.9, -9865.769, 0.0, 9.999617, 9.999701 
9.749397e+2, 1.7482068e+2, -1249525.1, -1271597.5, 58521.383, -0.021325633, -0.027256818, -1201008.4, 25761.146, 0.0, 9.999961, 9.999691 
9.7495276e+2, 1.8482065e+2, -1133153.6, -1130804.3, 22849.525, -0.10008672, -0.01180934, -1109099.3, 19669.23, 0.0, 9.999942, 9.999995 
9.749661e+2, 1.9482301e+2, -1094040.3, -1061072.9, 15109.784, -0.12215997, 0.21441865, -1055195.5, -24450.795, 0.0, 9.999537, 9.999994 
9.7497946e+2, 2.0482278e+2, -1094324.6, -1149644.4, -23419.385, -0.10152615, 0.2564212, -1085741.8, -152993.63, 0.0, 9.99947, 9.998743 
9.749929e+2, 2.1481967e+2, -956094.94, -1036151.25, -10408.271, -0.029816544, 0.06155547, -954763.9, -119981.98, 0.0, 9.999758, 9.998713 
9.750058e+2, 2.2481893e+2, -739967.9, -749016.7, 3756.2761, -0.01811965, 0.061015844, -738611.8, -1822.7462, 0.0, 9.999998, 9.999895 
9.750183e+2, 2.3482065e+2, -619027.3, -637899.56, 21945.35, -0.064905114, 0.23053233, -604575.4, 34193.293, 0.0, 10.000147, 9.999914 
9.750321e+2, 2.4482015e+2, -582374.8, -701521.25, 67526.484, -0.038381577, 0.25048575, -551899.2, -11127.06, 0.0, 10.000292, 9.998734 
9.7504735e+2, 2.5481716e+2, -476129.5, -601486.06, 67037.18, 0.06572906, 0.06896107, -447033.3, -4231.0967, 0.0, 10.000359, 9.998715 
9.750621e+2, 2.6481572e+2, -395112.75, -563161.4, 73726.29, 0.07552892, 0.0763523, -367353.13, -22534.766, 0.0000000034767167, 10.000469, 9.998251 
9.7507614e+2, 2.748157e+2, -277281.53, -456645.63, 59094.387, -0.010200273, 0.24242055, -259562.38, -12741.22, 0.0000028342504, 10.000607, 9.998244 
9.7509086e+2, 2.848139e+2, -231622.53, -404785.78, 11690.599, 0.027579376, 0.24945883, -230836.84, -81995.38, 0.000032308424, 10.000337, 9.998059 
9.751063e+2, 2.9481024e+2, -237800.77, -359573.53, 30466.234, 0.18736114, 0.066829264, -230603.78, -179724.11, 0.00013865711, 9.999632, 9.998037 
9.7512025e+2, 3.0480954e+2, -76519.695, -163600.05, 54862.0, 0.13165388, 0.15751736, -50019.984, -50019.984, 0.0003574127, 10.000015, 9.998863 
9.7513396e+2, 3.1480935e+2, 176387.08, 31377.527, 36882.887, 0.0012621277, 0.23312002, 185229.03, 185229.03, 0.0006733306, 10.001422, 9.999518 
9.8487204e+2, 1.2480989e+2, -1905072.0, -1912177.6, -7870.7715, 0.0886089, 0.1759392, -1899989.4, -183113.83, 0.00008108169, 9.999109, 9.999071 
9.8488486e+2, 1.3480847e+2, -1859300.4, -1828790.4, 9292.167, -0.078879386, 0.10383273, -1826183.1, -207285.75, 0.000022462764, 9.998733, 9.999153 
9.848984e+2, 1.4480902e+2, -1624061.1, -1503507.4, -17715.148, -0.08503247, 0.17909166, -1500958.1, 19935.477, 0.0000013019285, 9.998976, 10.000591 
9.849126e+2, 1.5481055e+2, -1368011.5, -1324903.5, -22282.924, 0.037209485, 0.25245446, -1315455.8, 107417.76, 0.0, 10.000047, 10.000627 
9.849264e+2, 1.6481017e+2, -1260213.4, -1327980.3, 31337.71, 0.05744852, 0.20156501, -1247943.4, 76930.23, 0.0, 10.000568, 9.999682 
9.8493993e+2, 1.7480768e+2, -1182173.0, -1238914.6, 33052.98, -0.013689361, -0.02506238, -1166984.6, 59911.387, 0.0, 10.000433, 9.999684 
9.8495317e+2, 1.8480732e+2, -1117612.4, -1157582.1, -5166.472, -0.06135114, -0.028139353, -1116955.3, 11943.731, 0.0, 10.000197, 9.999686 
9.8496604e+2, 1.9480908e+2, -1068452.0, -1083405.1, -22743.527, -0.0946094, 0.16891132, -1051987.6, -21104.975, 0.0, 9.999863, 9.999684 
9.849795e+2, 2.0480908e+2, -975927.7, -1042308.44, -8772.022, -0.070697345, 0.2278251, -974788.0, -41904.13, 0.0, 10.000058, 9.9992 
9.849936e+2, 2.148071e+2, -770638.7, -891423.6, 14039.437, 0.019849679, 0.09816323, -769028.25, 65876.52, 0.0, 10.0007925, 9.9992075 
9.8500663e+2, 2.2480659e+2, -652718.06, -753624.1, -12030.751, 0.026517542, 0.11630553, -651303.5, 85605.9, 0.0, 10.000797, 9.999481 
9.850185e+2, 2.3480757e+2, -669478.2, -708111.0, -60938.977, -0.047993522, 0.25454807, -624867.44, 14030.221, 0.0, 9.999999, 9.999503 
9.850325e+2, 2.4480659e+2, -670826.75, -737708.6, -8692.202, 0.0033364207, 0.24462725, -669715.56, -128809.82, 0.0, 9.999666, 9.998784 
9.850487e+2, 2.5480342e+2, -539662.3, -626129.8, -2557.5447, 0.18760452, 0.036562633, -539586.75, -96650.44, 0.0, 9.999897, 9.998768 
9.8506325e+2, 2.6480192e+2, -491129.78, -640820.3, 24149.24, 0.17903903, 0.05143848, -487330.28, -142377.14, 0.00000001775074, 9.999937, 9.99798 
9.850761e+2, 2.748021e+2, -418817.63, -555506.4, 18135.846, -0.023260225, 0.26606438, -416452.3, -169495.78, 0.000003544514, 9.999762, 9.997977 
9.85091e+2, 2.8480032e+2, -221205.13, -374536.8, -3659.7625, 0.0021404044, 0.27860564, -221117.83, -72141.05, 0.000035208486, 10.000299, 9.998288 
9.8510766e+2, 2.9479647e+2, 63827.184, -189387.3, -3876.1895, 0.2634142, 0.053721514, 63886.508, 114901.22, 0.00014828902, 10.001596, 9.998261 
9.851218e+2, 3.0479574e+2, 127354.24, -94671.25, 42743.637, 0.21203747, 0.14157633, 135298.84, 135298.84, 0.00038101713, 10.0015335, 9.998608 
9.851344e+2, 3.147956e+2, -42419.684, -83473.83, 59130.598, -0.016441187, 0.2532392, -354.51843, -354.51843, 0.0007157471, 9.999932, 9.999461 
9.948723e+2, 1.2479475e+2, -1817673.3, -1727202.5, -31328.643, 0.17132209, 0.20000191, -1717413.1, -382.01974, 0.000108580556, 9.999105, 10.0003395 
9.9488467e+2, 1.3479523e+2, -1774325.0, -1638750.3, -4673.6094, 0.015062948, 0.18541127, -1638589.4, -19562.148, 0.000033028722, 9.998682, 10.000479 
9.9489796e+2, 1.4479584e+2, -1637333.9, -1521077.0, 15384.459, -0.033472802, 0.20509094, -1519075.6, 1944.5728, 0.0000026281716, 9.998925, 10.0005 
9.9491215e+2, 1.5479559e+2, -1368246.5, -1334093.0, 24232.656, -0.022251265, 0.11203674, -1321524.5, 101495.29, 0.00000000019976186, 10.000076, 10.000552 
9.949261e+2, 1.6479596e+2, -1247810.9, -1303551.8, 21400.193, -0.03897944, 0.13160487, -1240542.6, 84472.125, 0.0, 10.000576, 9.999845 
9.949398e+2, 1.7479685e+2, -1170899.3, -1215565.6, 31306.107, -0.080809094, 0.22555715, -1154776.8, 72229.48, 0.0, 10.000431, 9.9998455 
9.9495375e+2, 1.8479614e+2, -1142525.6, -1203776.1, -23601.686, -0.038454555, 0.19610964, -1134486.4, -5473.856, 0.0, 10.000174, 9.999381 
9.949679e+2, 1.9479364e+2, -1092645.5, -1128887.5, -31651.7, 0.09485634, -0.003072582, -1074294.6, -43258.8, 0.0, 9.99984, 9.999384 
9.9498147e+2, 2.0479335e+2, -934128.1, -942870.75, 11993.925, 0.11482266, 0.0067853914, -925733.75, 7303.9126, 0.0, 10.000008, 9.999907 
9.949944e+2, 2.1479532e+2, -731691.6, -791617.0, 45234.535, 0.011783615, 0.20085298, -707396.4, 127621.34, 0.0, 10.000713, 9.999931 
9.950074e+2, 2.2479469e+2, -742658.3, -923175.4, -46018.324, 0.013824701, 0.22665696, -731604.0, 5419.8145, 0.0, 10.000725, 9.998351 
9.950204e+2, 2.3479119e+2, -760807.44, -883218.2, -86574.58, 0.13146302, 0.03192713, -715988.06, -76928.81, 0.0, 9.999938, 9.99833 
9.95034e+2, 2.4478948e+2, -657340.6, -703523.7, -6161.6787, 0.18229473, -0.0035276264, -656532.7, -115456.98, 0.0, 9.999638, 9.999033 
9.9504846e+2, 2.5478962e+2, -525401.7, -589403.8, 11415.255, 0.16602162, 0.09593535, -523426.66, -80354.06, 0.0, 9.999863, 9.999039 
9.950627e+2, 2.6478878e+2, -496928.7, -648307.1, 14213.7, 0.11949364, 0.1654164, -495605.63, -150523.14, 0.000000028595345, 9.999916, 9.997938 
9.950766e+2, 2.7478677e+2, -429268.53, -568341.0, 17670.682, 0.042117063, 0.16151196, -427058.4, -179950.72, 0.000003781716, 9.9997225, 9.997908 
9.9509215e+2, 2.8478515e+2, -218259.5, -359225.72, 40466.38, 0.08415816, 0.18972613, -207469.03, -58342.16, 0.000036350866, 10.0002575, 9.998414 
9.9510926e+2, 2.9478404e+2, 71396.81, -166608.81, 52509.902, 0.25341737, 0.220451, 82466.9, 133606.23, 0.00015374523, 10.001566, 9.998432 
9.951229e+2, 3.0478355e+2, 149794.0, -38211.98, -16881.916, 0.16741745, 0.30264243, 151297.88, 151297.88, 0.0003968945, 10.0014925, 9.999014 
9.95134e+2, 3.1478128e+2, -15013.229, 2237.023, 9621.715, -0.0760581, 0.15839586, 6533.592, 6533.592, 0.00074672233, 9.999817, 10.0001 
1.0048706e+3, 1.24781005e+2, -1661043.1, -1587777.1, 75336.82, 0.057884306, 0.2320147, -1540638.9, 176529.55, 0.00014134821, 9.999913, 10.000905 
1.00488424e+3, 1.3478178e+2, -1607369.6, -1491798.1, 23313.428, 0.07362788, 0.18806703, -1487272.5, 131884.47, 0.000046426092, 9.999548, 10.001068 
1.0048985e+3, 1.447824e+2, -1561351.9, -1506638.8, 71438.64, 0.09823336, 0.18841211, -1457497.9, 63650.996, 0.00000474816, 9.99956, 10.000283 
1.00491226e+3, 1.5478192e+2, -1401477.5, -1378650.9, 53203.88, -0.012135191, 0.09829128, -1335649.9, 87503.54, 0.000000004412824, 9.999985, 10.000287 
1.0049261e+3, 1.647825e+2, -1330998.6, -1341146.8, 6415.1553, -0.058099493, 0.1499526, -1327893.4, -2744.8293, 0.0, 9.999987, 9.999876 
1.0049402e+3, 1.7478408e+2, -1297042.9, -1271308.1, -2197.5212, -0.03564872, 0.30914295, -1271121.9, -43987.1, 0.0, 9.999544, 9.999891 
1.0049543e+3, 1.847836e+2, -1190154.4, -1177231.4, -6627.4824, 0.03521175, 0.27848622, -1174436.9, -45298.652, 0.0, 9.999632, 9.9998255 
1.0049686e+3, 1.9478081e+2, -1005766.2, -1036826.7, 32846.758, 0.1601315, 0.005473197, -984963.25, 46197.797, 0.0, 10.000222, 9.999831 
1.0049821e+3, 2.0478036e+2, -894450.9, -933068.44, 85088.21, 0.15818886, -0.020257851, -826508.06, 106654.836, 0.0, 10.000318, 9.999824 
1.00499466e+3, 2.1478228e+2, -864831.3, -866490.06, 47260.887, 0.019040674, 0.1783331, -818392.5, 16750.803, 0.0, 9.999843, 9.999835 
1.00500785e+3, 2.2478148e+2, -861415.75, -1011840.5, -35078.62, 0.021953976, 0.20366983, -853637.7, -116485.63, 0.0, 10.000047, 9.998069 
1.0050213e+3, 2.347776e+2, -625329.1, -850653.9, -21174.463, 0.18090244, 0.0015153988, -623356.56, 15836.045, 0.0, 10.001005, 9.99804 
1.005035e+3, 2.4477573e+2, -430320.25, -637914.0, 74779.49, 0.23037347, -0.016755022, -406188.38, 135023.8, 0.0, 10.001375, 9.998651 
1.005049e+3, 2.5477594e+2, -370509.56, -553020.75, 34621.68, 0.17011383, 0.12858528, -364162.7, 79046.984, 0.0, 10.001099, 9.998691 
1.0050632e+3, 2.6477507e+2, -335576.94, -549784.7, 26151.895, 0.13299838, 0.20046066, -332430.34, 12789.535, 0.000000017098808, 10.000951, 9.99811 
1.0050777e+3, 2.7477276e+2, -239134.33, -455766.63, 36680.902, 0.12050128, 0.15180413, -233091.94, 14153.611, 0.000003428396, 10.000948, 9.998086 
1.0050929e+3, 2.847712e+2, -210936.48, -387971.63, 73740.89, 0.13720478, 0.18839926, -184245.2, -34981.504, 0.00003625069, 10.000442, 9.998128 
1.0051091e+3, 2.9477042e+2, -274569.66, -368780.53, 41709.027, 0.19193545, 0.2853354, -258757.95, -207484.28, 0.00015665985, 9.999331, 9.998123 
1.0051228e+3, 3.047696e+2, -178336.75, -198748.6, -70005.06, 0.11877856, 0.35172036, -117797.57, -117797.57, 0.0004073917, 9.999239, 9.998999 
1.0051348e+3, 3.1476635e+2, 56918.426, 55604.74, -91877.44, 0.018377047, 0.108116396, 148141.36, 148141.36, 0.00076893705, 10.000219, 10.000275 
1.01486646e+3, 1.2476883e+2, -1676859.9, -1617093.5, 55375.773, -0.36807683, 0.2658805, -1584052.4, 133233.13, 0.0001798155, 9.999893, 10.000714 
1.0148836e+3, 1.3476829e+2, -1607928.0, -1508224.6, 16603.703, 0.04022427, 0.10463762, -1505532.3, 113752.82, 0.000062927356, 9.999605, 10.00093 
1.01489976e+3, 1.4476885e+2, -1591543.5, -1574703.9, 80370.984, 0.25807327, 0.12698618, -1502312.9, 18965.438, 0.000007860604, 9.999582, 9.999807 
1.0149127e+3, 1.5476967e+2, -1439610.0, -1453870.0, 72895.11, 0.024791805, 0.21694317, -1373497.0, 49775.99, 0.000000028517778, 9.999968, 9.999779 
1.01492636e+3, 1.6476989e+2, -1338624.8, -1353973.4, -15802.803, -0.04401393, 0.26412535, -1328731.4, -3457.6438, 0.0, 9.99997, 9.999797 
1.014941e+3, 1.7476939e+2, -1297508.8, -1277991.6, -14349.917, 0.082821794, 0.22069971, -1270396.5, -43115.293, 0.0, 9.999563, 9.999838 
1.0149549e+3, 1.8476969e+2, -1110377.5, -1006495.1, 9334.467, 0.11870306, 0.21159348, -1005663.06, 123612.75, 0.0, 9.999609, 10.001008 
1.0149678e+3, 1.9477068e+2, -927613.1, -864329.6, 59097.973, 0.05338344, 0.19621643, -828935.8, 202321.9, 0.0, 10.0001745, 10.0010395 
1.014981e+3, 2.047702e+2, -962759.25, -1062398.4, 63060.91, 0.010116418, 0.14981708, -932213.0, 1045.6654, 0.0, 10.000265, 9.998961 
1.0149944e+3, 2.1476804e+2, -935490.56, -1002729.9, 33019.93, -0.005962276, 0.029326234, -921987.0, -86705.586, 0.0, 9.999798, 9.998922 
1.0150077e+3, 2.2476691e+2, -834037.9, -937362.9, -6230.261, 0.007803331, 0.042882834, -833663.56, -96369.1, 0.0, 9.999973, 9.998613 
1.0150211e+3, 2.3476681e+2, -595017.1, -772296.7, 19828.34, 0.05531273, 0.16036199, -592826.44, 46471.5, 0.0, 10.000938, 9.9986105 
1.01503514e+3, 2.4476542e+2, -509162.53, -786305.0, 59309.367, 0.10321585, 0.20797521, -497003.56, 44311.098, 0.0, 10.001312, 9.99766 
1.01505e+3, 2.5476244e+2, -448664.2, -707388.25, 28619.1, 0.15315002, 0.13532546, -445536.25, -2189.1707, 0.0, 10.001062, 9.997648 
1.01506464e+3, 2.6476067e+2, -312573.8, -493948.84, 22339.871, 0.17466451, 0.15489392, -309862.75, 35502.984, 0.000000011022683, 10.000915, 9.998511 
1.01507924e+3, 2.7476007e+2, -208903.73, -389657.13, 44997.957, 0.16764337, 0.2309631, -198321.2, 49049.23, 0.0000031084232, 10.00093, 9.998549 
1.0150933e+3, 2.847585e+2, -264147.2, -496067.28, 29519.016, 0.11988728, 0.2773432, -260448.95, -111062.01, 0.000035475463, 10.000433, 9.997388 
1.0151069e+3, 2.9475585e+2, -339330.63, -489326.38, 7782.9736, 0.031933002, 0.26382118, -338927.84, -287511.56, 0.000157892, 9.999274, 9.99732 
1.0151211e+3, 3.0475408e+2, -215252.4, -262283.94, -32478.504, 0.017897006, 0.30008146, -198670.23, -198670.23, 0.00041497825, 9.999186, 9.998587 
1.0151367e+3, 3.1475094e+2, 28812.965, 17163.678, -37415.367, 0.16286564, 0.10584144, 60854.35, 60854.35, 0.00078677625, 10.000147, 10.000039 
1.0248659e+3, 1.24754764e+2, -1912787.9, -1739576.4, 11079.582, -0.3402392, 0.20235214, -1738870.5, -21449.963, 0.00022439056, 9.998296, 10.00065 
1.0248827e+3, 1.3475479e+2, -1649112.5, -1535515.6, -37609.23, 0.00003389509, 0.103491984, -1524192.8, 95222.22, 0.0000828242, 9.999342, 10.000875 
1.0248994e+3, 1.447553e+2, -1563637.6, -1570340.4, 47585.48, 0.2553867, 0.12830673, -1519285.6, 2122.6082, 0.000012107546, 9.999802, 9.999734 
1.0249128e+3, 1.5475565e+2, -1479235.9, -1480688.3, 63979.965, 0.05376415, 0.17481223, -1415978.0, 7429.1074, 0.00000009714164, 9.999722, 9.999714 
1.0249266e+3, 1.6475561e+2, -1378364.1, -1360471.3, -287.4488, 0.0036008067, 0.19625442, -1360466.6, -35056.89, 0.0, 9.999648, 9.999906 
1.0249411e+3, 1.7475522e+2, -1283554.0, -1259371.5, 903.9347, 0.13575576, 0.151098, -1259337.8, -31921.168, 0.0, 9.999608, 9.999947 
1.02495484e+3, 1.8475571e+2, -1113958.4, -1041027.56, 8590.39, 0.15341136, 0.17093341, -1040029.4, 89381.19, 0.0, 9.999727, 10.000712 
1.02496766e+3, 1.9475701e+2, -969495.4, -914696.0, -63735.92, 0.03513928, 0.21722507, -872719.8, 158672.11, 0.0, 10.000028, 10.000757 
1.024981e+3, 2.047565e+2, -963289.2, -1061642.9, -100025.38, -0.0066244104, 0.1797718, -901005.56, 32389.12, 0.0, 10.000254, 9.998976 
1.02499485e+3, 2.1475391e+2, -852168.4, -960883.25, -71719.2, 0.040159546, 0.017272893, -816534.9, 18886.725, 0.0, 10.000361, 9.998942 
1.0250084e+3, 2.2475311e+2, -713314.1, -832879.94, -39424.848, 0.054365113, 0.04304342, -701484.8, 35946.37, 0.0, 10.000598, 9.999031 
1.0250218e+3, 2.3475419e+2, -573047.94, -713304.4, -33624.91, 0.034867283, 0.23831293, -565403.44, 74019.305, 0.0, 10.000887, 9.99904 
1.0250361e+3, 2.447531e+2, -546326.25, -811506.1, 16272.72, 0.07930141, 0.2991845, -545331.44, -3894.8967, 0.0, 10.0011, 9.997584 
1.02505155e+3, 2.547495e+2, -438266.97, -712755.25, 40860.316, 0.19379218, 0.17095126, -432313.63, 11162.358, 0.0, 10.001185, 9.99755 
1.0250663e+3, 2.6474747e+2, -238455.98, -472154.94, 75138.55, 0.21755189, 0.17596784, -216382.45, 129114.64, 0.00000001218603, 10.001466, 9.998403 
1.02508046e+3, 2.747471e+2, -75674.47, -335137.63, 48051.0, 0.14786234, 0.2834277, -67061.625, 180437.31, 0.0000027111198, 10.001882, 9.998468 
1.02509424e+3, 2.847453e+2, -53696.45, -359664.25, 11451.368, 0.10590081, 0.29731968, -53268.46, 96247.016, 0.00003356216, 10.001739, 9.997692 
1.02510765e+3, 2.9474187e+2, -72270.02, -324729.8, 53831.477, 0.100148864, 0.17556055, -61270.863, -9721.924, 0.00015613875, 10.000962, 9.997634 
1.0251218e+3, 3.0473986e+2, -51072.316, -270485.28, 114352.234, 0.10282004, 0.20902966, -2311.3074, -2311.3074, 0.0004183757, 10.000697, 9.997802 
1.0251376e+3, 3.1473717e+2, 83972.92, -38822.367, 60427.56, 0.19659492, 0.14054012, 108721.44, 108721.44, 0.000800343, 10.0008745, 9.999309 
1.0348684e+3, 1.24738745e+2, -1910013.4, -1732154.9, 30807.3, 0.063561946, 0.035957124, -1726969.8, -9395.3955, 0.00027553758, 9.998298, 10.000696 
1.03488125e+3, 1.3474138e+2, -1654317.5, -1533978.5, 3593.4653, -0.091392055, 0.19235983, -1533871.3, 85674.305, 0.000106410545, 9.999298, 10.000905 
1.0348971e+3, 1.4474192e+2, -1536480.5, -1513095.8, 38644.504, 0.026012834, 0.20340818, -1484413.5, 37123.88, 0.000017580353, 9.999794, 10.000133 
1.0349123e+3, 1.5473983e+2, -1443898.0, -1414139.0, 66560.81, 0.02702358, -0.037701514, -1360814.8, 62740.785, 0.00000023822265, 9.999747, 10.00016 
1.0349268e+3, 1.647397e+2, -1357519.0, -1319395.9, -7930.425, 0.03870531, -0.06491343, -1317812.0, 7744.6177, 0.0, 9.999657, 10.000183 
1.0349403e+3, 1.7474166e+2, -1268510.6, -1226489.9, 3731.432, 0.080499865, 0.10035776, -1226161.0, 1378.674, 0.0, 9.999597, 10.00018 
1.0349541e+3, 1.847418e+2, -1244810.5, -1304634.9, 13664.476, 0.08958179, 0.16215554, -1241837.1, -112296.04, 0.0, 9.999695, 9.998917 
1.0349681e+3, 1.9473982e+2, -1103720.8, -1186771.9, -50289.9, 0.06372753, 0.06342119, -1080027.9, -48464.027, 0.0, 9.999997, 9.998905 
1.03498206e+3, 2.0473917e+2, -909111.7, -937274.06, -103191.06, 0.0701342, 0.0644926, -819045.5, 114526.12, 0.0, 10.000201, 9.999854 
1.03499606e+3, 2.1473986e+2, -791750.8, -826419.8, -62506.652, 0.11316305, 0.13392116, -744219.56, 91344.54, 0.0, 10.000317, 9.999887 
1.0350098e+3, 2.247401e+2, -704713.9, -797076.9, -34375.75, 0.115219355, 0.20158243, -693324.4, 44237.594, 0.0, 10.000523, 9.999312 
1.0350231e+3, 2.347398e+2, -561042.5, -678397.3, -17983.375, 0.06988092, 0.22897178, -558348.56, 81218.11, 0.0, 10.00084, 9.999302 
1.03503756e+3, 2.4473885e+2, -501849.6, -702822.7, 15283.956, 0.10942437, 0.25287402, -500693.9, 40883.82, 0.0, 10.001031, 9.998364 
1.03505336e+3, 2.5473705e+2, -384222.72, -598199.8, 50666.137, 0.25129908, 0.228631, -372832.2, 70764.72, 0.0, 10.001168, 9.998347 
1.0350679e+3, 2.6473543e+2, -285570.06, -557935.06, 86208.05, 0.22478347, 0.26031157, -260577.2, 85037.0, 0.00000000560088, 10.001421, 9.997833 
1.0350811e+3, 2.747339e+2, -134001.22, -434224.06, 70746.125, 0.013918269, 0.3104675, -118165.51, 129465.07, 0.0000022721786, 10.00179, 9.997829 
1.03509545e+3, 2.847316e+2, 24435.709, -179789.16, -19205.965, 0.04253811, 0.24693011, 26226.201, 175875.97, 0.00003115889, 10.001662, 9.998963 
1.0351111e+3, 2.9472852e+2, 21833.111, -128282.8, 34301.72, 0.33710128, 0.025826558, 29299.725, 80971.32, 0.00015172908, 10.000956, 9.998987 
1.0351249e+3, 3.047269e+2, -132799.42, -440795.66, 117667.086, 0.32260758, 0.085395075, -92991.02, -92991.02, 0.0004166064, 10.000708, 9.996623 
1.03513695e+3, 3.1472507e+2, -15579.447, -215051.34, 82562.14, 0.026463272, 0.2280214, 14159.567, 14159.567, 0.00080601213, 10.000763, 9.998143 
1.0448697e+3, 1.2472467e+2, -1628873.3, -1646770.8, 60468.066, 0.26780793, 0.04151858, -1576695.4, 141013.56, 0.0003338259, 10.000437, 10.000257 
1.04488075e+3, 1.347262e+2, -1569397.8, -1542861.3, -8710.636, -0.09594874, 0.1341699, -1540257.5, 79434.6, 0.00013404706, 10.000084, 10.000471 
1.0448964e+3, 1.4472644e+2, -1524794.3, -1478498.8, 3469.8525, -0.01081953, 0.12223468, -1478240.1, 43447.5, 0.000024406929, 9.999755, 10.000388 
1.0449121e+3, 1.5472522e+2, -1453517.8, -1386623.4, 2791.7024, 0.03426144, -0.056068547, -1386507.1, 37189.88, 0.0000004785213, 9.999549, 10.0004425 
1.04492664e+3, 1.6472527e+2, -1369111.6, -1337578.8, -71750.78, 0.059040956, -0.07184625, -1279882.5, 45813.21, 0.0, 9.999636, 10.000065 
1.04494005e+3, 1.7472667e+2, -1201866.9, -1204984.4, -96805.83, 0.07396307, 0.048299745, -1106607.3, 121076.76, 0.0, 10.00011, 10.000071 
1.044954e+3, 1.8472677e+2, -1165221.4, -1272997.5, -32099.027, 0.08564032, 0.115561664, -1156385.6, -26699.072, 0.0, 10.000266, 9.99886 
1.0449684e+3, 1.9472545e+2, -1102244.9, -1192712.9, 30631.883, 0.09575862, 0.08663091, -1092849.0, -61143.793, 0.0, 10.000031, 9.998852 
1.0449827e+3, 2.0472506e+2, -952451.8, -953732.9, 26998.148, 0.12617342, 0.114673056, -926086.6, 7624.692, 0.0, 9.999891, 9.9998865 
1.0449968e+3, 2.1472551e+2, -861272.94, -853582.5, -12799.976, 0.18297103, 0.15724108, -844062.6, -8357.342, 0.0, 9.999823, 9.999933 
1.0450106e+3, 2.247255e+2, -791441.0, -826718.7, -10187.403, 0.1824912, 0.19016355, -788710.44, -51004.91, 0.0, 9.999873, 9.999421 
1.04502395e+3, 2.3472488e+2, -669268.6, -718255.6, -17876.203, 0.11589873, 0.1779237, -663439.0, -23725.807, 0.0, 10.000044, 9.999412 
1.0450385e+3, 2.4472426e+2, -566513.06, -686170.56, 9691.718, 0.13108855, 0.20662332, -565733.1, -24012.896, 0.0, 10.000361, 9.99881 
1.0450542e+3, 2.5472352e+2, -407412.63, -556198.94, 11543.151, 0.24552386, 0.23851281, -406522.4, 37204.953, 0.0, 10.000778, 9.998825 
1.0450689e+3, 2.6472208e+2, -398420.88, -602075.5, 45251.758, 0.22161242, 0.25973818, -388818.75, -43076.664, 0.0000000009945924, 10.000605, 9.99792 
1.04508206e+3, 2.7471966e+2, -430113.28, -568694.44, 68665.79, 0.047853902, 0.21762942, -401852.97, -154085.66, 0.0000020282196, 9.999719, 9.997902 
1.0450967e+3, 2.8471735e+2, -215656.11, -308822.38, -1965.5928, 0.082413465, 0.15267098, -215614.66, -65826.96, 0.000028619394, 10.000058, 9.998853 
1.0451125e+3, 2.9471517e+2, 127215.336, -88373.6, -66321.93, 0.35450378, 0.032085415, 145984.08, 197786.08, 0.00014518836, 10.001723, 9.998891 
1.0451265e+3, 3.0471396e+2, 121239.945, -311646.56, -10311.828, 0.33963454, 0.131902, 121485.445, 121485.445, 0.00040815427, 10.00242, 9.996687 
1.04513854e+3, 3.14712e+2, 163466.5, -116015.56, 28910.697, 0.06577401, 0.25606918, 166425.8, 166425.8, 0.00079748995, 10.001915, 9.998281 
1.05486915e+3, 1.24712765e+2, -1691171.6, -1769699.3, 18659.928, 0.13876432, 0.2319225, -1686963.1, 30858.37, 0.00039971265, 10.000427, 9.999406 
1.0548814e+3, 1.3470933e+2, -1634473.8, -1676372.1, -17204.393, -0.059689615, -0.07986344, -1628314.6, -8460.784, 0.00016604259, 10.000087, 9.999549 
1.05489746e+3, 1.4470889e+2, -1516149.8, -1467481.6, -11598.103, 0.10133637, -0.11662288, -1464859.0, 56999.234, 0.000032768716, 9.99978, 10.000454 
1.0549116e+3, 1.5471199e+2, -1450120.1, -1380284.9, -1768.4915, 0.030560765, 0.12963, -1380240.0, 43589.43, 0.0000008393984, 9.999545, 10.000492 
1.0549259e+3, 1.6471258e+2, -1408537.5, -1412509.5, -59456.848, 0.009169478, 0.18874064, -1351033.5, -25208.13, 0.0, 9.99961, 9.99956 
1.05494015e+3, 1.7471026e+2, -1235717.4, -1278946.4, -74905.59, 0.0703153, -0.01034678, -1179370.1, 48479.676, 0.0, 10.000124, 9.999557 
1.05495445e+3, 1.8471067e+2, -1047839.6, -1022909.44, -46804.242, 0.09848836, 0.026900448, -986938.9, 142908.25, 0.0, 10.00024, 10.000589 
1.0549684e+3, 1.9471402e+2, -982914.56, -936310.94, 26892.75, 0.08238639, 0.2879286, -924029.1, 107785.7, 0.0, 9.999993, 10.00063 
1.05498254e+3, 2.0471428e+2, -1016968.75, -1078425.5, 18503.344, 0.1161091, 0.33133426, -1011827.8, -78015.45, 0.0, 9.999848, 9.999053 
1.0549969e+3, 2.1471095e+2, -931427.2, -990312.3, -11487.891, 0.20829946, 0.08566505, -929265.4, -93420.87, 0.0, 9.99978, 9.999018 
1.05501086e+3, 2.2470932e+2, -807124.8, -844815.8, -9222.835, 0.21545279, 0.009827985, -804989.06, -67127.61, 0.0, 9.999809, 9.999329 
1.0550243e+3, 2.347095e+2, -678620.5, -729564.7, -5875.4546, 0.12812257, 0.08122535, -677951.7, -38089.395, 0.0, 10.000004, 9.999354 
1.0550386e+3, 2.447094e+2, -563104.94, -668819.4, 19819.742, 0.09909353, 0.15849544, -559511.2, -17647.414, 0.0, 10.000318, 9.998949 
1.0550539e+3, 2.5470892e+2, -403418.47, -540792.4, 32163.768, 0.13553604, 0.20143358, -396260.8, 47605.965, 0.0, 10.000744, 9.998949 
1.055069e+3, 2.6470736e+2, -355821.16, -500514.47, 10959.824, 0.16753674, 0.17071038, -354995.72, -9114.693, 0.000000000012280949, 10.000552, 9.99864 
1.05508335e+3, 2.7470446e+2, -380753.47, -460904.5, 43502.22, 0.19424622, 0.0062974324, -361680.94, -113771.734, 0.0000016155456, 9.999697, 9.998652 
1.0550978e+3, 2.847026e+2, -316378.13, -517850.5, 54031.234, 0.17801864, 0.01772442, -302802.66, -152873.66, 0.00002530106, 10.000057, 9.997419 
1.055112e+3, 2.9470187e+2, 12930.201, -315344.28, 5634.4307, 0.119571924, 0.19031163, 13026.881, 64966.563, 0.00013660942, 10.0016775, 9.997356 
1.05512686e+3, 3.0470094e+2, 200134.53, -134913.42, -25547.857, 0.11477115, 0.34005404, 202071.39, 202071.39, 0.00039392404, 10.002364, 9.997928 
1.05514206e+3, 3.1469798e+2, 252784.81, 82314.74, 26988.473, 0.20327991, 0.2328949, 256955.53, 256955.53, 0.00077736063, 10.0018635, 9.99967 
1.0648689e+3, 1.24698065e+2, -1682751.3, -1763424.5, -55106.21, 0.07612007, 0.20558994, -1654796.3, 63168.758, 0.00047318285, 10.000462, 9.999439 
1.06488146e+3, 1.34695e+2, -1698033.8, -1706842.1, -19982.25, -0.026208509, -0.07063166, -1681976.1, -61982.094, 0.00020250746, 9.999642, 9.999555 
1.0648979e+3, 1.4469457e+2, -1628254.4, -1554928.4, 36686.66, 0.2047559, -0.09088936, -1539725.4, -17726.045, 0.000042863663, 9.999162, 10.000147 
1.0649115e+3, 1.5469751e+2, -1523178.3, -1449393.5, 5342.0054, 0.08008638, 0.1699659, -1449008.8, -25034.256, 0.0000013547858, 9.999196, 10.000182 
1.0649254e+3, 1.6469814e+2, -1429478.9, -1386436.1, -7244.363, 0.02786887, 0.2326439, -1385249.5, -59279.52, 0.0, 9.999307, 9.99989 
1.0649402e+3, 1.7469616e+2, -1306319.3, -1272630.9, 32548.076, 0.08986424, 0.035086192, -1252826.8, -24838.338, 0.0, 9.999471, 9.999917 
1.0649546e+3, 1.8469639e+2, -1136065.4, -1073085.1, 25015.072, 0.12293943, 0.040507678, -1064358.5, 65627.14, 0.0, 9.999665, 10.000523 
1.0649685e+3, 1.9469896e+2, -1005745.5, -956854.44, -53023.73, 0.10908994, 0.23004319, -922912.5, 109048.35, 0.0, 9.999876, 10.000546 
1.0649824e+3, 2.046992e+2, -964810.25, -1014004.1, -80535.29, 0.11127749, 0.259128, -905199.44, 28758.48, 0.0, 10.000043, 9.999401 
1.0649962e+3, 2.146968e+2, -851501.75, -911080.1, -26162.514, 0.1371115, 0.07130137, -841644.06, -5663.944, 0.0, 10.00016, 9.999377 
1.06501035e+3, 2.2469549e+2, -731299.2, -839651.25, 39966.41, 0.15665731, 0.023896145, -718152.44, 19841.668, 0.0, 10.000462, 9.999053 
1.0650252e+3, 2.3469535e+2, -565834.56, -706850.5, 17966.781, 0.17310204, 0.09096399, -563581.44, 76418.625, 0.0, 10.00092, 9.999069 
1.0650397e+3, 2.4469493e+2, -431232.94, -568841.4, 41972.1, 0.1464571, 0.13637248, -419441.4, 122563.2, 0.0, 10.001079, 9.999264 
1.0650541e+3, 2.546941e+2, -356187.53, -480176.56, 54328.27, 0.06761255, 0.11332276, -335751.0, 108257.8, 0.0, 10.000912, 9.99928 
1.065069e+3, 2.6469284e+2, -274075.44, -469659.53, 14621.075, 0.09339263, 0.09949425, -272988.47, 73031.85, 0.0, 10.001145, 9.9985695 
1.06508456e+3, 2.746911e+2, -86073.44, -325953.78, -24772.434, 0.24616696, 0.05323205, -83541.9, 164498.73, 0.00000091217555, 10.001753, 9.998589 
1.0650994e+3, 2.8468955e+2, -23287.154, -357398.5, 51635.65, 0.24322551, 0.09131831, -15489.064, 134569.34, 0.00002073869, 10.001994, 9.997587 
1.06511325e+3, 2.9468814e+2, 50245.277, -275542.38, 115244.21, 0.06785734, 0.18120535, 86889.984, 138964.27, 0.00012474366, 10.001839, 9.997552 
1.06512815e+3, 3.0468702e+2, 133079.58, -188435.28, 86523.43, 0.040232215, 0.30975702, 154885.17, 154885.17, 0.00037297295, 10.001979, 9.997748 
1.0651443e+3, 3.1468433e+2, 320339.66, 100555.71, 9037.528, 0.20969094, 0.24462089, 320710.66, 320710.66, 0.00074707123, 10.002377, 9.999546 
1.0748687e+3, 1.2468045e+2, -1608991.6, -1607858.3, -125427.695, -0.02376112, -0.054397702, -1482996.0, 235144.81, 0.00055371417, 10.000465, 10.000497 
1.07488096e+3, 1.346834e+2, -1634079.1, -1565747.1, -48655.07, -0.04633988, 0.17345591, -1540460.4, 79650.07, 0.00024334127, 9.999613, 10.000533 
1.0748976e+3, 1.4468375e+2, -1677677.3, -1657461.4, 30570.38, 0.24705686, 0.21334566, -1635371.1, -113262.85, 0.00005483326, 9.999155, 9.99945 
1.07491136e+3, 1.5468174e+2, -1572902.5, -1555986.6, 12290.641, 0.13603336, 0.053708848, -1549524.9, -125392.78, 0.000002073113, 9.9992075, 9.999447 
1.0749253e+3, 1.6468193e+2, -1347833.5, -1216142.1, -6963.974, 0.072832376, 0.05404221, -1215774.9, 110354.77, 0.0000000000166348, 9.999304, 10.00106 
1.0749398e+3, 1.7468448e+2, -1219023.6, -1094412.9, 43815.613, 0.09242838, 0.18358155, -1080548.9, 147549.66, 0.0, 9.999477, 10.001138 
1.0749542e+3, 1.8468413e+2, -1274284.8, -1351294.9, 27190.914, 0.11387167, 0.15951788, -1265651.9, -135550.92, 0.0, 9.999633, 9.998628 
1.0749687e+3, 1.9468036e+2, -1149726.8, -1247524.8, -41852.926, 0.12993193, -0.085214846, -1134261.3, -102118.95, 0.0, 9.999843, 9.998566 
1.07498206e+3, 2.0467988e+2, -865769.94, -801393.75, -83086.4, 0.070208, -0.09925018, -744478.4, 189669.13, 0.0, 10.000006, 10.000881 
1.0749943e+3, 2.1468303e+2, -746138.06, -681403.94, -16992.203, -0.07507843, 0.10881463, -677214.75, 158897.38, 0.0, 10.000106, 10.000982 
1.075009e+3, 2.2468403e+2, -771970.1, -907553.9, 51556.273, -0.03674431, 0.2297136, -754592.8, -16489.506, 0.0, 10.000392, 9.998621 
1.0750265e+3, 2.346825e+2, -610635.44, -784326.44, 40389.266, 0.2108024, 0.20725594, -601702.9, 38422.824, 0.0, 10.0008545, 9.998569 
1.07504174e+3, 2.4468087e+2, -409720.34, -511329.63, 32587.232, 0.23242936, 0.13688251, -400167.4, 141975.11, 0.0, 10.0010195, 9.999689 
1.0750544e+3, 2.5467902e+2, -326301.1, -413000.47, 54620.348, -0.003422499, -0.032587666, -299918.6, 144235.36, 0.0, 10.000884, 9.999758 
1.0750689e+3, 2.6467854e+2, -337973.53, -592082.44, 31886.59, -0.036049955, 0.041866764, -334033.38, 12126.967, 0.000000000031670343, 10.001101, 9.997752 
1.07508555e+3, 2.7467945e+2, -156538.97, -459646.3, 5703.045, 0.16390935, 0.3517074, -156431.7, 91730.086, 0.00000057346807, 10.001696, 9.997702 
1.07510135e+3, 2.846781e+2, 90064.32, -110968.35, 42493.402, 0.23005097, 0.3746042, 98677.375, 248853.27, 0.00001665899, 10.001948, 9.999302 
1.07511595e+3, 2.946741e+2, 173557.98, -13878.231, 118251.74, 0.14245203, 0.023458645, 230725.78, 282930.84, 0.000111651505, 10.001812, 9.999365 
1.0751305e+3, 3.0467227e+2, 25313.184, -405434.03, 101142.375, 0.06445532, 0.05817031, 47879.844, 47879.844, 0.00034802765, 10.001953, 9.996271 
1.0751448e+3, 3.1467104e+2, 185437.17, -151589.36, 44024.07, 0.0048271394, 0.30154073, 191092.89, 191092.89, 0.0007106943, 10.002256, 9.997875 
1.0848682e+3, 1.2466644e+2, -1795557.0, -1688733.4, -54374.547, -0.05034511, -0.040895164, -1665925.6, 52355.336, 0.00064071716, 9.999146, 10.000583 
1.0848812e+3, 1.3466974e+2, -1444056.0, -1471709.9, -39062.605, -0.042200774, 0.22178046, -1416445.4, 203802.78, 0.00028839763, 10.000908, 10.000558 
1.0848978e+3, 1.4467025e+2, -1362694.5, -1468785.0, 13255.831, 0.25879577, 0.26016027, -1361063.3, 161180.48, 0.00006873226, 10.001174, 9.999767 
1.08491056e+3, 1.5466817e+2, -1469471.5, -1469960.6, 58030.996, 0.11031552, 0.06328993, -1411684.5, 12580.825, 0.0000030594845, 9.999771, 9.999762 
1.0849244e+3, 1.6466823e+2, -1335570.5, -1239149.4, 82631.39, 0.048042245, 0.045474846, -1191692.8, 134570.14, 0.000000000186287, 9.999515, 10.000795 
1.0849399e+3, 1.7467059e+2, -1078038.8, -1060318.5, 8598.834, 0.10896062, 0.18644023, -1056831.9, 171402.22, 0.0, 10.000594, 10.0008335 
1.0849546e+3, 1.8466991e+2, -1120847.3, -1284304.4, -25466.451, 0.13115922, 0.14822674, -1116971.5, 13268.068, 0.0, 10.000714, 9.998567 
1.08496815e+3, 1.9466567e+2, -1174805.9, -1266231.4, 39616.55, 0.102135845, -0.13698325, -1160028.0, -127743.36, 0.0, 9.999703, 9.998505 
1.0849818e+3, 2.0466506e+2, -913608.75, -821678.1, 66812.414, 0.058093827, -0.15976167, -786546.5, 147743.9, 0.0, 9.999666, 10.0009 
1.08499534e+3, 2.1466847e+2, -653637.7, -635911.44, 1841.011, -0.003789927, 0.06891462, -635722.25, 200530.84, 0.0, 10.000737, 10.000987 
1.08501025e+3, 2.2466965e+2, -682211.44, -856017.75, 10210.993, 0.028168295, 0.20294963, -681613.6, 56629.023, 0.0, 10.000979, 9.998691 
1.0850266e+3, 2.3466821e+2, -689418.25, -815013.25, 27080.955, 0.16673669, 0.18625532, -683827.8, -43564.367, 0.0, 10.000283, 9.998634 
1.08504154e+3, 2.4466677e+2, -558381.6, -601729.3, 37529.75, 0.16406022, 0.13856313, -536716.8, 5562.7236, 0.0, 10.000077, 9.999525 
1.085055e+3, 2.5466523e+2, -409439.84, -472720.25, 2951.4275, 0.0039480682, 0.017901689, -409302.5, 34988.246, 0.0, 10.0004015, 9.99958 
1.0850699e+3, 2.6466483e+2, -390836.03, -559872.75, 16407.764, -0.016106147, 0.0866786, -389258.13, -42962.176, 0.000000020287489, 10.000491, 9.998263 
1.0850862e+3, 2.7466556e+2, -325376.3, -479569.38, 80796.2, 0.12171022, 0.32313624, -290795.16, -42499.6, 0.0000009638229, 10.0002775, 9.998242 
1.0851022e+3, 2.846643e+2, -95610.766, -186335.17, 135770.61, 0.18666653, 0.3207245, 2175.1663, 152482.72, 0.000015514439, 10.000615, 9.999424 
1.0851179e+3, 2.946608e+2, 140250.11, -11794.263, 73409.516, 0.17959844, 0.0058376393, 169908.23, 222241.75, 0.000103128805, 10.001521, 9.999511 
1.0851326e+3, 3.0465922e+2, 7094.433, -336664.34, 49439.684, 0.10610125, 0.024747021, 14063.602, 14063.602, 0.00032888475, 10.001506, 9.996955 
1.0851455e+3, 3.1465775e+2, -43186.39, -183430.08, 137796.66, -0.04806778, 0.17419338, 41304.152, 41304.152, 0.0006833059, 10.000371, 9.998551 
1.0948671e+3, 1.24656424e+2, -1863658.0, -1818322.1, -27030.97, -0.08904883, 0.26214975, -1805712.5, -87330.67, 0.000734217, 9.9991045, 9.999708 
1.094882e+3, 1.3465422e+2, -1514500.8, -1617183.8, 33541.254, -0.06633068, 0.070664935, -1504515.5, 115889.81, 0.00033773432, 10.000908, 9.999558 
1.0948984e+3, 1.4465412e+2, -1267896.6, -1278834.3, -40653.664, 0.18157446, 0.040041488, -1232345.6, 290059.4, 0.0000845864, 10.001201, 10.00106 
1.09490894e+3, 1.546569e+2, -1374205.3, -1273307.9, 11659.707, -0.043292813, 0.19358915, -1271978.0, 152394.89, 0.0000043925156, 9.999776, 10.00111 
1.0949227e+3, 1.6465718e+2, -1456758.6, -1493835.4, 116081.45, -0.09143483, 0.21345784, -1357744.5, -31376.523, 0.0000000006358386, 9.999524, 9.999046 
1.0949405e+3, 1.7465448e+2, -1202256.4, -1327747.0, 55775.57, 0.097258255, 0.031781416, -1181050.0, 47345.297, 0.0, 10.000627, 9.998986 
1.0949554e+3, 1.846537e+2, -999134.2, -1027337.6, -66873.555, 0.13101286, -0.0053297803, -944891.7, 185510.36, 0.0, 10.000701, 10.000335 
1.0949668e+3, 1.9465503e+2, -1047943.1, -993012.44, 7219.787, -0.0154885305, 0.07568302, -992079.4, 40306.92, 0.0, 9.999661, 10.000399 
1.09498136e+3, 2.0465495e+2, -1023898.75, -1041469.75, 98366.34, 0.03211062, 0.07927106, -933926.3, 459.02414, 0.0, 9.999623, 9.999415 
1.09499924e+3, 2.1465322e+2, -772858.8, -870519.6, 46599.766, 0.30623883, -0.045678116, -754191.44, 82210.62, 0.0, 10.000679, 9.999407 
1.09501414e+3, 2.2465242e+2, -656941.06, -788802.7, -19287.516, 0.3070332, -0.05328121, -654177.75, 84233.52, 0.0, 10.000915, 9.999183 
1.0950252e+3, 2.346525e+2, -657384.5, -737399.1, 7439.2124, -0.0066578384, 0.0256383, -656698.75, -16285.52, 0.0, 10.000233, 9.999192 
1.0950391e+3, 2.4465261e+2, -616012.56, -711236.2, 43167.008, -0.107210435, 0.1416462, -599357.1, -56941.473, 0.0, 10.000032, 9.998794 
1.09505594e+3, 2.5465274e+2, -468743.22, -587126.75, 21661.049, 0.044338018, 0.25985605, -464904.3, -20485.275, 0.0, 10.000362, 9.998814 
1.0950718e+3, 2.6465183e+2, -276526.9, -308346.1, 5923.0024, 0.109178655, 0.23328696, -275460.16, 70966.58, 0.00000010014453, 10.000432, 10.000019 
1.095086e+3, 2.7464953e+2, -198198.53, -209858.02, 80532.87, 0.0662349, -0.01834385, -123284.67, 125156.62, 0.0000018004142, 10.000252, 10.000108 
1.0951017e+3, 2.8464812e+2, -194665.89, -389524.06, 161972.45, 0.06882261, -0.06355348, -103077.77, 47375.8, 0.000016749296, 10.000599, 9.99804 
1.0951191e+3, 2.9464796e+2, 26003.117, -239664.81, 115288.06, 0.1331806, 0.10187107, 69056.05, 121518.21, 0.00009990713, 10.001471, 9.997976 
1.09513424e+3, 3.046476e+2, 187763.28, 55069.613, 6744.0967, 0.113092914, 0.1933827, 188105.17, 188105.17, 0.00031833493, 10.001442, 9.999672 
1.0951461e+3, 3.1464446e+2, 149408.55, 216622.61, 104437.805, -0.053296596, -0.10900307, 292727.4, 292727.4, 0.00066799513, 10.000366, 10.001307 
1.1048668e+3, 1.2464405e+2, -1695411.5, -1726463.5, -10178.084, -0.08123305, 0.2939284, -1692372.6, 26129.172, 0.00083503575, 10.0002, 9.999813 
1.104882e+3, 1.346416e+2, -1851528.3, -1773692.6, 141468.11, -0.038358994, 0.07093095, -1665886.8, -45359.04, 0.0003918232, 9.998551, 9.999627 
1.1048983e+3, 1.4464134e+2, -1650848.9, -1511668.8, 72713.62, 0.1764482, 0.03966586, -1480610.6, 41918.62, 0.000102570426, 9.998781, 10.000625 
1.10490896e+3, 1.5464374e+2, -1196841.6, -1237258.5, -23077.033, -0.08256025, 0.20015207, -1186375.5, 238126.08, 0.0000061708192, 10.001206, 10.000665 
1.1049226e+3, 1.6464354e+2, -1175574.5, -1390275.3, 43897.246, -0.1504539, 0.20969231, -1166946.1, 159556.08, 0.0000000015512864, 10.001595, 9.998759 
1.10494e+3, 1.7464033e+2, -1354985.9, -1428560.6, 90139.0, 0.04001872, 0.0044090706, -1294416.4, -65880.914, 0.0, 9.999706, 9.998732 
1.1049551e+3, 1.8463987e+2, -1156378.4, -1073483.6, 11741.526, 0.096465394, -0.0013271976, -1071852.6, 58686.996, 0.0, 9.999488, 10.000607 
1.10496715e+3, 1.9464242e+2, -806101.56, -843461.44, -44348.063, -0.012675587, 0.17209198, -776659.9, 255851.69, 0.0, 10.001177, 10.000697 
1.10498205e+3, 2.046425e+2, -797911.7, -980154.2, 14342.038, 0.058547262, 0.19641158, -796789.9, 137719.67, 0.0, 10.001387, 9.998986 
1.105e+3, 2.1463966e+2, -913785.25, -988851.75, 34931.996, 0.3426044, 0.009418824, -900044.8, -63506.84, 0.0, 9.999936, 9.998952 
1.1050147e+3, 2.2463825e+2, -809588.75, -843704.56, 29911.979, 0.3320186, -0.04209779, -792212.7, -53660.617, 0.0, 9.999788, 9.999343 
1.1050258e+3, 2.3463833e+2, -515724.63, -648390.9, 16930.79, -0.019092778, 0.016010446, -513598.03, 126952.945, 0.0, 10.001121, 9.99937 
1.1050396e+3, 2.4463825e+2, -467610.3, -684980.9, 31235.049, -0.115243606, 0.1227384, -463211.0, 79344.1, 0.0, 10.001251, 9.998387 
1.10505655e+3, 2.5463796e+2, -551128.2, -674104.9, 20254.525, 0.0849945, 0.24411051, -547878.06, -103312.41, 0.0, 10.000005, 9.998387 
1.1050723e+3, 2.6463705e+2, -328638.94, -260112.45, 17841.205, 0.15319084, 0.20950173, -255745.67, 90827.37, 0.00000018749917, 9.999758, 10.000675 
1.1050864e+3, 2.7463534e+2, -98198.43, -86650.914, -4609.366, 0.06831649, -0.049652256, -85036.67, 163541.11, 0.0000025324416, 10.000616, 10.000782 
1.10510215e+3, 2.846344e+2, -218885.05, -405647.9, 68997.54, 0.06386378, -0.08494292, -196159.84, -45574.832, 0.000018771152, 10.000459, 9.997992 
1.10511966e+3, 2.9463437e+2, -324238.2, -415596.28, 112085.84, 0.16340882, 0.10660946, -248880.81, -196286.56, 0.0001004618, 9.999102, 9.997905 
1.10513516e+3, 3.0463412e+2, -33289.527, -38480.59, 28246.13, 0.14823198, 0.20609118, -7519.9263, -7519.9263, 0.00031494282, 9.999846, 9.99981 
1.1051477e+3, 3.1463084e+2, 515408.8, 407445.2, -90752.766, -0.04201768, -0.13020797, 567021.0, 567021.0, 0.0006609386, 10.002828, 10.0014305 
1.1148668e+3, 1.2462919e+2, -1619426.6, -1557831.3, -108949.914, -0.12295789, 0.02277232, -1475409.8, 243232.33, 0.000944546, 10.0001745, 10.000976 
1.1148811e+3, 1.3463217e+2, -1780177.3, -1610740.3, 86711.4, 0.01086361, 0.23314391, -1574231.4, 46380.867, 0.00045159098, 9.9985, 10.000766 
1.1148974e+3, 1.4463222e+2, -1803387.0, -1830209.0, 155256.84, 0.2030336, 0.27732137, -1660963.0, -138349.84, 0.00012308804, 9.998782, 9.998443 
1.11491054e+3, 1.5462878e+2, -1356385.3, -1573628.9, 73943.78, -0.056978982, 0.0834784, -1333605.5, 91044.914, 0.000008505592, 10.001223, 9.998351 
1.1149241e+3, 1.6462733e+2, -1088510.0, -1215027.8, -29625.176, -0.17988351, 0.029985132, -1081916.6, 244748.7, 0.0000000033697685, 10.0016165, 9.999953 
1.1149385e+3, 1.746282e+2, -1262759.4, -1236826.0, 22532.916, -0.101988524, 0.10284816, -1223795.3, 4859.0947, 0.0, 9.999702, 10.000052 
1.11495346e+3, 1.8462847e+2, -1244694.6, -1252571.1, 65061.2, -0.019290922, 0.1615259, -1183452.6, -52800.99, 0.0, 9.99947, 9.999385 
1.11496925e+3, 1.9462794e+2, -903122.5, -1038552.3, 22671.695, 0.0610272, 0.15743025, -899427.94, 133231.66, 0.0, 10.001148, 9.999371 
1.1149838e+3, 2.0462774e+2, -761228.8, -898278.56, -45415.7, 0.09004007, 0.1937562, -747545.1, 187117.53, 0.0, 10.00136, 9.99956 
1.1149972e+3, 2.1462776e+2, -877748.56, -900576.25, -15152.285, 0.060316764, 0.22557224, -870192.25, -33531.043, 0.0, 9.999876, 9.999587 
1.1150119e+3, 2.2462714e+2, -829507.94, -872763.56, 70877.05, 0.055093743, 0.22969162, -777032.3, -38367.133, 0.0, 9.999736, 9.999168 
1.115028e+3, 2.3462571e+2, -537005.5, -680493.1, 72317.15, 0.085376926, 0.15791479, -506882.06, 133794.17, 0.0, 10.001066, 9.999178 
1.11504294e+3, 2.446237e+2, -484400.56, -707981.8, -16164.026, 0.094230704, 0.08673115, -483238.03, 59459.12, 0.0, 10.001197, 9.998257 
1.1150565e+3, 2.546209e+2, -564330.44, -698368.75, -18712.66, 0.078701645, -0.030896919, -561767.06, -117036.445, 0.0, 9.999987, 9.998232 
1.11507125e+3, 2.646205e+2, -361628.97, -324112.34, 42888.465, 0.07087803, 0.017749682, -296059.4, 50675.457, 0.00000020790911, 9.999736, 10.000247 
1.1150871e+3, 2.7462292e+2, -134396.92, -152156.53, 36901.715, 0.07615099, 0.2111497, -105321.65, 143384.16, 0.0000030041272, 10.00057, 10.000354 
1.1151033e+3, 2.8462297e+2, -142389.03, -236554.77, 19046.867, 0.12043802, 0.24047165, -138682.34, 12019.918, 0.000021469468, 10.000415, 9.999173 
1.1151194e+3, 2.9462022e+2, -232061.6, -233046.52, 70238.64, 0.21461858, 0.031976357, -162313.69, -109584.98, 0.00010445724, 9.999137, 9.999142 
1.11513525e+3, 3.0461895e+2, -191525.31, -369956.88, 131705.56, 0.1694008, 0.07931394, -121663.09, -121663.09, 0.00031704624, 9.999863, 9.997526 
1.11515015e+3, 3.1461665e+2, 318606.8, 29564.71, 37376.152, -0.11521695, 0.083432525, 323361.72, 323361.72, 0.00065944524, 10.002695, 9.998897 
1.1248666e+3, 1.2461576e+2, -1858037.6, -1706504.9, -140178.95, -0.08740704, -0.06907395, -1622926.8, 95842.11, 0.0010643419, 9.998657, 10.0007 
1.12488076e+3, 1.3461868e+2, -1487675.6, -1500321.1, -44252.535, 0.019740826, 0.16221417, -1449296.5, 171443.63, 0.00051804923, 10.000631, 10.000498 
1.12489685e+3, 1.4461873e+2, -1483285.1, -1681709.8, 76183.93, 0.15344167, 0.2224052, -1457409.3, 65332.34, 0.00014661087, 10.001005, 9.998389 
1.12491116e+3, 1.5461507e+2, -1602345.6, -1696496.6, 152484.3, -0.028863966, 0.012722075, -1489835.5, -65054.145, 0.00001150662, 9.999555, 9.998314 
1.1249248e+3, 1.6461408e+2, -1419038.3, -1335297.1, 83618.32, -0.13499567, -0.011967092, -1283652.1, 43140.34, 0.0000000061074554, 9.999181, 10.000301 
1.1249382e+3, 1.7461605e+2, -1174361.0, -1152359.3, 52440.082, -0.11630947, 0.13517715, -1109778.6, 118991.91, 0.0, 10.000128, 10.000427 
1.12495326e+3, 1.846162e+2, -1169627.5, -1287087.4, 124678.11, -0.03687846, 0.18983743, -1090539.4, 40230.254, 0.0, 10.000287, 9.998757 
1.12496994e+3, 1.9461407e+2, -1180314.0, -1247406.3, 122549.83, 0.10008608, 0.09429853, -1086801.9, -54007.754, 0.0, 9.999562, 9.998708 
1.1249845e+3, 2.046133e+2, -977964.9, -993862.56, 56195.46, 0.10299619, 0.10578887, -929158.9, 5643.9194, 0.0, 9.999837, 9.999635 
1.1249966e+3, 2.1461396e+2, -660486.06, -782495.56, 30610.496, -0.048222154, 0.189762, -653237.0, 183557.36, 0.0, 10.00131, 9.999702 
1.12501144e+3, 2.246136e+2, -558473.25, -770296.06, 112275.266, -0.046298776, 0.22570862, -510037.78, 228758.44, 0.0, 10.001716, 9.998923 
1.1250294e+3, 2.3461206e+2, -575741.0, -724438.25, 97954.92, 0.13809094, 0.16854182, -527114.44, 113695.7, 0.0, 10.000915, 9.998948 
1.1250447e+3, 2.4461001e+2, -571611.9, -722712.56, -1721.3387, 0.18960077, 0.09438272, -571592.3, -28760.844, 0.0, 10.0004835, 9.998496 
1.1250569e+3, 2.546073e+2, -475278.72, -626863.7, 13697.573, 0.08567304, -0.04103839, -474050.9, -29188.713, 0.0, 10.000478, 9.998485 
1.12507105e+3, 2.646069e+2, -307066.5, -371702.56, 128723.21, 0.04789158, 0.022772579, -206666.34, 140200.89, 0.00000016860811, 10.000433, 9.999582 
1.12508774e+3, 2.7460903e+2, -213686.73, -265201.6, 90655.52, 0.09059849, 0.2583219, -145200.5, 103643.45, 0.0000038179373, 10.000355, 9.999676 
1.1251039e+3, 2.8460857e+2, -71824.484, -221442.94, 16011.474, 0.11599015, 0.28011975, -70130.195, 80715.64, 0.000026281929, 10.000977, 9.999011 
1.12511925e+3, 2.946051e+2, 227381.34, -25841.54, -47844.11, 0.12902954, 0.017053792, 236119.52, 288996.2, 0.00011318937, 10.0023575, 9.999014 
1.12513565e+3, 3.046038e+2, 53800.715, -272856.22, 36220.633, 0.13094708, 0.07282237, 57768.758, 57768.758, 0.0003258272, 10.001645, 9.997328 
1.1251521e+3, 3.1460196e+2, -334799.56, -328677.7, 84507.625, 0.04042427, 0.14852999, -247175.6, -247175.6, 0.0006650931, 9.998374, 9.998526 
1.1348657e+3, 1.2460389e+2, -1978999.9, -1941768.3, -92384.086, -0.05825232, 0.028368296, -1866143.0, -147262.27, 0.0011953667, 9.998617, 9.999091 
1.1348805e+3, 1.3460104e+2, -1607475.9, -1741749.0, 33383.195, -0.073630646, -0.1533437, -1599634.0, 21278.207, 0.00059164723, 10.000614, 9.998843 
1.1348961e+3, 1.4460075e+2, -1328742.9, -1366877.8, 18185.54, -0.03448064, -0.14330123, -1321461.1, 201454.56, 0.00017336896, 10.001025, 10.0005455 
1.13491066e+3, 1.5460281e+2, -1440619.3, -1362319.3, 103281.914, -0.04207926, -0.0116437655, -1291016.1, 133876.9, 0.000015247707, 9.999555, 10.00061 
1.1349248e+3, 1.6460401e+2, -1456834.6, -1410556.6, 111928.16, -0.06486781, 0.09092692, -1319400.6, 7480.1436, 0.000000009421829, 9.999166, 9.99979 
1.1349391e+3, 1.7460404e+2, -1217851.3, -1243627.0, 94059.34, -0.050443623, 0.103106625, -1135800.9, 93081.445, 0.0, 10.000132, 9.999798 
1.13495395e+3, 1.8460308e+2, -1170228.0, -1291365.6, 93458.734, -0.0030160854, 0.08148196, -1119427.6, 11465.225, 0.0, 10.0002985, 9.998722 
1.1349692e+3, 1.9460085e+2, -1185843.9, -1251715.5, 99598.25, 0.062082615, -0.02403295, -1113876.9, -80962.52, 0.0, 9.999529, 9.998694 
1.134984e+3, 2.0459926e+2, -1016720.6, -1066136.1, 101942.81, 0.05464512, -0.07005437, -936534.1, -1604.9739, 0.0, 9.999799, 9.999159 
1.1349983e+3, 2.1459836e+2, -703716.75, -858111.9, 88877.69, -0.025281241, -0.09386794, -663191.3, 173745.38, 0.0, 10.001246, 9.999216 
1.13501355e+3, 2.2459774e+2, -591350.9, -820346.56, 77293.055, -0.016365636, -0.04511037, -567704.0, 171240.31, 0.0, 10.001641, 9.998613 
1.13503e+3, 2.3459737e+2, -609122.75, -777844.44, 72302.57, 0.09534702, 0.045167375, -582378.2, 58574.574, 0.0, 10.000847, 9.998613 
1.1350447e+3, 2.4459715e+2, -535356.6, -638341.56, -9134.057, 0.12625667, 0.14349969, -534552.8, 8405.643, 0.0, 10.000442, 9.999097 
1.1350571e+3, 2.5459707e+2, -433575.03, -531636.8, 17993.32, 0.06551598, 0.20856355, -430377.7, 14583.426, 0.0, 10.000438, 9.99916 
1.1350715e+3, 2.6459607e+2, -373653.6, -502292.7, 122946.71, 0.042832848, 0.2169747, -299218.3, 47752.676, 0.00000020663475, 10.0004, 9.998704 
1.135088e+3, 2.7459374e+2, -285290.53, -410224.47, 96432.125, 0.06427698, 0.10413923, -232860.69, 16130.673, 0.0000055002247, 10.000338, 9.998692 
1.1351038e+3, 2.8459135e+2, -178320.69, -436823.75, 60590.38, 0.0045020757, 0.052433293, -164823.66, -13809.086, 0.00003348498, 10.000952, 9.997542 
1.1351191e+3, 2.9458892e+2, 111953.46, -246816.33, 13886.174, -0.13668689, 0.046649393, 112490.125, 165529.39, 0.00012691141, 10.002274, 9.997538 
1.1351359e+3, 3.0458844e+2, 167411.98, -15565.239, -79701.37, -0.013697945, 0.17077786, 197259.58, 197259.58, 0.00034269877, 10.001556, 9.999135 
1.1351533e+3, 3.1458697e+2, -219667.17, -77528.82, -24127.156, 0.30843544, 0.08791368, -73545.03, -73545.03, 0.00068300014, 9.998333, 10.000262 
1.1448645e+3, 1.2459075e+2, -1847263.4, -1867923.3, -86817.78, -0.07375508, 0.06305846, -1770163.1, -51153.08, 0.0013373722, 9.999451, 9.999213 
1.14488035e+3, 1.3458744e+2, -1758104.6, -1794937.9, 162535.28, -0.08632981, -0.180938, -1612946.0, 8099.1787, 0.000672049, 9.999471, 9.999047 
1.1448955e+3, 1.4458732e+2, -1530764.0, -1415944.4, 106104.414, -0.1175516, -0.18649122, -1352714.1, 170331.08, 0.0002032588, 9.999437, 10.00097 
1.1449103e+3, 1.5458988e+2, -1448300.9, -1319568.5, 27010.523, -0.026039505, -0.046136025, -1314130.9, 110884.195, 0.000019742625, 9.999309, 10.001019 
1.1449245e+3, 1.645909e+2, -1466379.1, -1494080.8, 19161.646, -0.014939593, 0.051655702, -1456586.5, -129581.93, 0.000000013934886, 9.999438, 9.999085 
1.1449391e+3, 1.7458999e+2, -1307127.6, -1372022.1, -16173.736, -0.044602428, 0.044868976, -1303320.0, -74301.57, 0.0, 9.999881, 9.99904 
1.1449541e+3, 1.8458879e+2, -1157069.1, -1259886.8, -33813.563, -0.0119065335, 0.031002594, -1146945.6, -15913.854, 0.0, 10.000295, 9.998933 
1.1449694e+3, 1.9458719e+2, -991219.25, -1125142.6, -21598.271, 0.07018396, -0.036867008, -987822.2, 45222.72, 0.0, 10.000743, 9.998967 
1.1449845e+3, 2.045856e+2, -922540.25, -1072123.6, 21508.578, 0.09240665, -0.075119585, -919509.0, 15550.514, 0.0, 10.000665, 9.998705 
1.14499964e+3, 2.1458396e+2, -926425.75, -1018309.2, 53.67255, 0.05880882, -0.12255796, -926425.7, -89349.234, 0.0, 9.999949, 9.998744 
1.1450148e+3, 2.2458304e+2, -856890.25, -930477.0, -5200.517, 0.04565389, -0.08729472, -856524.5, -117436.305, 0.0, 9.999731, 9.998781 
1.14503e+3, 2.3458284e+2, -706583.9, -803930.25, 15806.071, 0.052409016, 0.00034893324, -704081.75, -62987.04, 0.0, 10.0000725, 9.998815 
1.1450446e+3, 2.4458314e+2, -502820.2, -583003.94, -24063.357, 0.06785471, 0.12468926, -496153.06, 46941.195, 0.0, 10.000503, 9.999442 
1.1450582e+3, 2.5458398e+2, -309648.1, -427889.9, -31057.344, 0.09836361, 0.24461564, -301986.97, 143099.47, 0.0, 10.001114, 9.9995365 
1.1450731e+3, 2.6458284e+2, -268217.1, -527101.06, 65336.848, 0.110168904, 0.2537108, -252662.08, 94435.44, 0.00000038376965, 10.001444, 9.998033 
1.1450891e+3, 2.745793e+2, -173273.88, -436356.1, 47353.703, 0.09718002, 0.085605815, -165009.98, 84122.16, 0.0000075917305, 10.001444, 9.997982 
1.1451048e+3, 2.845762e+2, -208226.66, -442973.1, 85780.95, 0.02307352, 0.002847402, -180221.6, -29059.41, 0.00004126663, 10.000713, 9.997613 
1.14512e+3, 2.9457384e+2, -344507.8, -452866.16, 143605.3, -0.10745623, -0.010702581, -245201.27, -192016.03, 0.00014267156, 9.999079, 9.997659 
1.1451365e+3, 3.0457386e+2, -182613.6, -101435.41, 55669.582, 0.031747814, 0.11981746, -73129.09, -73129.09, 0.00036406744, 9.998788, 9.999882 
1.1451532e+3, 3.1457347e+2, 61622.62, 124897.31, 455.3496, 0.3777219, 0.06416318, 124900.586, 124900.586, 0.00071071996, 9.999982, 10.000857 
1.15486264e+3, 1.2457606e+2, -1712631.4, -1573367.8, -81388.05, -0.22435637, 0.0089395195, -1535889.4, 183270.13, 0.001489488, 9.999395, 10.001255 
1.15488015e+3, 1.3457832e+2, -1602085.9, -1468138.4, 170349.4, -0.06386213, 0.0962444, -1352070.1, 269064.38, 0.00075867696, 9.999464, 10.001287 
1.15489475e+3, 1.4457887e+2, -1634619.5, -1635968.8, 99303.11, -0.13589472, 0.11393451, -1535988.8, -12862.937, 0.0002361324, 9.999446, 9.999461 
1.1549096e+3, 1.5457635e+2, -1559972.9, -1555596.3, 27998.277, -0.03373845, -0.09202957, -1529700.9, -104553.92, 0.000024990082, 9.999319, 9.999397 
1.15492396e+3, 1.6457464e+2, -1528974.4, -1621754.8, 27398.402, -0.041886207, -0.14182289, -1521487.6, -194322.84, 0.000000023716384, 9.999433, 9.998212 
1.1549383e+3, 1.745739e+2, -1369754.3, -1496571.5, 4000.0862, -0.13869505, -0.045139506, -1369628.1, -140449.42, 0.0, 9.999863, 9.998191 
1.1549536e+3, 1.8457346e+2, -1129411.8, -1202201.6, -23079.195, -0.10418437, 0.041880872, -1122711.0, 8474.416, 0.0, 10.000289, 9.999334 
1.1549703e+3, 1.9457322e+2, -962649.25, -1060480.3, -1007.61914, 0.07436575, 0.06410517, -962638.9, 70545.78, 0.0, 10.000713, 9.999429 
1.15498595e+3, 2.045724e+2, -956868.56, -1135242.0, -13607.531, 0.16601768, 0.09675584, -955836.5, -20643.096, 0.0, 10.000629, 9.998288 
1.1550006e+3, 2.1457078e+2, -967273.56, -1090078.0, -22376.719, 0.15774441, 0.09570731, -963323.3, -126109.3, 0.0, 9.999888, 9.9982815 
1.15501516e+3, 2.245695e+2, -821529.0, -842088.25, 436.26025, 0.09566518, 0.09133689, -821519.75, -82291.73, 0.0, 9.999667, 9.999418 
1.1550293e+3, 2.3456857e+2, -666235.44, -706185.9, 34002.723, -0.033308346, 0.035391808, -646774.7, -5539.568, 0.0, 10.000014, 9.999512 
1.1550442e+3, 2.445681e+2, -505751.97, -576238.94, -9027.822, -0.027458342, 0.040770344, -504614.1, 38624.234, 0.0, 10.000446, 9.999516 
1.1550598e+3, 2.5456813e+2, -316144.78, -428365.34, -4420.768, 0.13907358, 0.07422651, -315970.9, 129266.375, 0.0, 10.001057, 9.99956 
1.1550756e+3, 2.6456735e+2, -306605.38, -597085.8, 60446.113, 0.20556897, 0.14057454, -294529.2, 52716.832, 0.0000005356376, 10.001401, 9.997573 
1.15509115e+3, 2.745655e+2, -214515.48, -504553.88, 53740.35, 0.14495398, 0.19009441, -204878.31, 44389.473, 0.000008957139, 10.0013685, 9.997551 
1.1551066e+3, 2.845631e+2, -105415.79, -211001.97, 23808.523, 0.12065559, 0.11711855, -100295.53, 50994.723, 0.000047151985, 10.000637, 9.999242 
1.15512185e+3, 2.9456002e+2, -225114.4, -208090.55, 91996.09, 0.15144783, -0.13766645, -124213.44, -70899.836, 0.00015594735, 9.999088, 9.999337 
1.1551371e+3, 3.0456018e+2, -208398.75, -153304.22, 93551.11, 0.21077213, -0.0581438, -83328.86, -83328.86, 0.0003853337, 9.998788, 9.999522 
1.15515135e+3, 3.1456122e+2, 7776.975, 35288.477, 58193.754, 0.17105913, 0.072558336, 81330.164, 81330.164, 0.00074189703, 9.999892, 10.00028 
1.1648613e+3, 1.2456186e+2, -1859733.1, -1649387.4, 19411.037, -0.2422049, -0.04477927, -1647611.1, 71683.72, 0.0016512593, 9.9984045, 10.001203 
1.1648797e+3, 1.3456522e+2, -1656671.3, -1489184.1, 51523.883, -0.026935961, 0.14768092, -1474603.3, 146657.89, 0.0008513687, 9.999066, 10.001331 
1.164894e+3, 1.4456606e+2, -1625535.0, -1667902.4, -58751.723, -0.16925193, 0.20701876, -1584264.6, -61013.34, 0.00027198074, 9.999673, 9.999128 
1.1649091e+3, 1.5456277e+2, -1466561.1, -1549808.6, -47576.367, -0.053289365, -0.03754627, -1444970.6, -19690.1, 0.00003101119, 10.0001335, 9.9990425 
1.1649238e+3, 1.6456038e+2, -1408488.8, -1572288.9, 42153.242, -0.034490366, -0.13232432, -1398277.4, -70973.03, 0.00000004774233, 10.000299, 9.998133 
1.1649386e+3, 1.7455909e+2, -1329062.6, -1483504.9, 65886.086, -0.092949785, -0.085866414, -1304774.8, -75453.28, 0.0, 10.0001745, 9.998131 
1.1649544e+3, 1.8455839e+2, -1170619.3, -1244493.8, 61588.195, -0.0489663, -0.011393404, -1135741.0, -4411.0195, 0.0, 10.000094, 9.999141 
1.1649709e+3, 1.9455832e+2, -1067964.3, -1133462.3, 26107.621, 0.101256825, 0.045994267, -1058831.3, -25501.63, 0.0, 10.000078, 9.999237 
1.1649864e+3, 2.0455778e+2, -990769.06, -1163352.1, 6272.589, 0.16419502, 0.12323662, -990541.4, -55203.934, 0.0, 10.000455, 9.998171 
1.16500095e+3, 2.1455665e+2, -764255.94, -1000922.0, 7520.0547, 0.13017724, 0.18186806, -764017.25, 73337.914, 0.0, 10.001329, 9.998192 
1.1650154e+3, 2.2455546e+2, -572772.0, -695098.44, 23870.12, 0.0822616, 0.17724745, -568279.1, 171088.7, 0.0, 10.001266, 9.999655 
1.1650299e+3, 2.3455401e+2, -635465.44, -662104.1, 11817.382, 0.021600626, 0.044593155, -630978.75, 10397.396, 0.0, 10.000107, 9.999767 
1.1650449e+3, 2.4455285e+2, -602281.06, -670312.56, -9413.184, 0.037444703, -0.009721006, -601002.6, -57618.32, 0.0, 9.999984, 9.999095 
1.1650609e+3, 2.545521e+2, -344074.03, -495307.25, -51481.91, 0.13920784, -0.0077897464, -328212.44, 117179.875, 0.0, 10.001081, 9.999098 
1.1650764e+3, 2.6455137e+2, -330482.7, -553635.44, -18830.379, 0.17445517, 0.06256294, -328904.88, 18496.016, 0.00000056359414, 10.001008, 9.998055 
1.1650914e+3, 2.7455047e+2, -440857.0, -554593.56, 29808.936, 0.12900174, 0.15698862, -433518.0, -184106.38, 0.0000092835935, 9.999569, 9.998072 
1.1651068e+3, 2.8454867e+2, -241777.14, -237031.48, 29670.59, 0.14818643, 0.10134293, -209639.0, -58211.543, 0.000049926817, 9.999521, 9.999604 
1.1651229e+3, 2.9454592e+2, 95691.89, -8713.001, -13981.508, 0.25545162, -0.15753561, 97531.81, 150980.08, 0.00016435768, 10.001111, 9.999729 
1.165138e+3, 3.0454606e+2, 166604.31, 1180.5042, -47860.117, 0.28750592, -0.09217662, 179453.11, 179453.11, 0.00040264626, 10.001469, 9.999299 
1.1651506e+3, 3.1454688e+2, 9248.047, -17851.484, -85000.8, 0.10688535, 0.049565077, 81772.27, 81772.27, 0.0007699058, 10.000114, 9.999824 
1.1748606e+3, 1.24548174e+2, -2029790.9, -1991591.8, 86708.88, -0.1838382, -0.1166329, -1921903.8, -202488.61, 0.0018234614, 9.998366, 9.998872 
1.174879e+3, 1.3454805e+2, -1818938.9, -1824480.3, 79573.125, -0.016949203, -0.04379931, -1742088.3, -120662.26, 0.0009506097, 9.999057, 9.999036 
1.17489286e+3, 1.445487e+2, -1568542.8, -1545433.4, -45730.76, -0.27272663, 0.07591783, -1509820.1, 13603.185, 0.00031097958, 9.999652, 9.999979 
1.1749086e+3, 1.5454923e+2, -1396386.8, -1407690.9, -23342.377, -0.13533953, 0.11471999, -1378021.9, 47393.242, 0.00003785508, 10.000147, 10.000011 
1.1749242e+3, 1.6454832e+2, -1357931.9, -1471672.5, 32033.646, -0.045083757, 0.08564073, -1349530.5, -22109.182, 0.00000010132158, 10.000317, 9.998814 
1.1749403e+3, 1.7454568e+2, -1282457.0, -1383306.8, 65627.664, 0.055379327, -0.07305019, -1250119.3, -20674.178, 0.0, 10.000156, 9.998827 
1.17495604e+3, 1.8454371e+2, -1228598.4, -1358175.4, 54690.395, 0.113558635, -0.12592626, -1208601.4, -77136.96, 0.0, 10.000069, 9.998371 
1.1749711e+3, 1.9454248e+2, -1133849.1, -1259354.6, 31206.691, 0.102218054, -0.10155029, -1126518.0, -93038.414, 0.0, 10.000033, 9.998394 
1.17498584e+3, 2.045418e+2, -983573.3, -1140627.8, 30310.686, 0.038314458, -0.00067676255, -977926.5, -42435.434, 0.0, 10.000419, 9.998347 
1.1750004e+3, 2.1454175e+2, -757851.94, -973941.25, 44850.26, -0.07162496, 0.1416483, -748912.9, 88585.99, 0.0, 10.0012665, 9.998409 
1.1750155e+3, 2.2454093e+2, -593830.8, -724503.7, -24215.418, -0.03677023, 0.17332266, -589487.75, 150019.64, 0.0, 10.001202, 9.999484 
1.1750315e+3, 2.3453918e+2, -657779.56, -691228.0, -26521.877, 0.16743915, 0.02787492, -643149.2, -1631.8889, 0.0, 10.000033, 9.999602 
1.1750468e+3, 2.4453753e+2, -675157.0, -810770.44, 23059.139, 0.2089311, -0.02275439, -671343.4, -127811.91, 0.0, 9.999931, 9.998159 
1.1750613e+3, 2.5453594e+2, -414614.84, -634623.56, -2614.1008, 0.058540404, -0.009773429, -414583.78, 30967.717, 0.0, 10.001045, 9.99816 
1.17507555e+3, 2.645349e+2, -244033.7, -362272.16, -73750.82, -0.015574209, 0.014392052, -208631.69, 138930.39, 0.0000005132723, 10.000958, 9.999393 
1.1750897e+3, 2.745343e+2, -344528.0, -348222.84, -16823.162, -0.0019687787, -0.006852508, -329451.13, -79888.11, 0.000009280944, 9.999542, 9.999501 
1.1751055e+3, 2.845331e+2, -309883.06, -374056.22, 80692.67, 0.05343897, -0.028551612, -255131.53, -103559.06, 0.000050485156, 9.9995, 9.998674 
1.1751233e+3, 2.945314e+2, 22722.035, -153766.61, 53012.816, 0.16630735, -0.084831685, 37421.477, 91012.3, 0.00016787817, 10.001072, 9.998756 
1.17513895e+3, 3.045312e+2, 158702.48, 6399.7666, -94293.59, 0.22782037, -0.009649669, 203754.72, 203754.72, 0.00041124245, 10.001385, 9.9993725 
1.17515065e+3, 3.1453094e+2, -8387.468, -43398.227, -120155.13, 0.0748672, 0.014575995, 95530.766, 95530.766, 0.00078260904, 10.000079, 9.999659 
1.1848601e+3, 1.2453148e+2, -1673453.6, -1865796.4, -93154.234, -0.19844566, -0.17018676, -1635734.6, 83838.81, 0.0020081834, 10.001017, 9.998459 
1.1848786e+3, 1.345304e+2, -1788358.4, -1847967.9, -34551.402, 0.016305685, -0.15604748, -1772532.8, -150938.36, 0.0010574218, 9.999439, 9.998692 
1.18489206e+3, 1.4453086e+2, -1671937.6, -1578308.3, -56945.758, -0.266476, -0.04256061, -1551404.4, -27809.36, 0.00035351914, 9.998876, 10.000123 
1.18490785e+3, 1.545325e+2, -1479107.5, -1426049.4, -112111.23, -0.17715414, 0.08724372, -1337371.1, 88207.234, 0.00004562391, 9.999495, 10.000195 
1.1849238e+3, 1.6453229e+2, -1421369.4, -1450522.1, -113690.375, -0.07237425, 0.09597431, -1321324.8, 6253.2676, 0.00000019883093, 9.999656, 9.999282 
1.18494056e+3, 1.7452984e+2, -1370539.0, -1368981.0, -104757.05, 0.10811128, -0.09287937, -1265000.1, -35402.49, 0.0, 9.999307, 9.999334 
1.1849564e+3, 1.8452795e+2, -1311463.5, -1388148.9, -58682.07, 0.17386927, -0.16586944, -1279708.0, -148093.2, 0.0, 9.999464, 9.998453 
1.18497096e+3, 1.9452675e+2, -1092119.8, -1228720.5, -27930.078, 0.08051417, -0.14615077, -1086629.8, -52999.8, 0.0, 10.000283, 9.99848 
1.1849857e+3, 2.0452613e+2, -979752.7, -1095651.0, 10232.747, -0.0009127809, -0.063538715, -978856.2, -43216.004, 0.0, 10.000256, 9.998738 
1.18500076e+3, 2.1452603e+2, -1025117.3, -1056889.9, 29637.912, -0.052702375, 0.035299633, -1007376.5, -169730.22, 0.0, 9.999229, 9.998825 
1.18501626e+3, 2.2452535e+2, -889425.44, -896431.94, -15624.906, 0.004218714, 0.07059718, -876915.9, -137262.39, 0.0, 9.999305, 9.999212 
1.185032e+3, 2.3452394e+2, -575568.9, -684569.9, -40948.598, 0.18165368, -0.010992767, -561899.75, 79762.18, 0.0, 10.00074, 9.999305 
1.1850471e+3, 2.4452235e+2, -539169.06, -770671.25, 34030.7, 0.20311493, -0.03016564, -534270.25, 9406.7705, 0.0, 10.000982, 9.997926 
1.18506156e+3, 2.5452045e+2, -604256.6, -750453.0, 48749.637, 0.041892167, -0.024305254, -589492.0, -143790.98, 0.0, 9.999862, 9.99793 
1.18507594e+3, 2.6451904e+2, -381574.72, -409594.34, -26230.291, -0.02238791, -0.03116202, -365847.3, -18132.482, 0.0000005059796, 9.999925, 9.99957 
1.1850905e+3, 2.7451813e+2, -68470.39, -193405.48, -74737.87, 0.02512371, -0.10256281, -33531.863, 216185.6, 0.000009346627, 10.001343, 9.999698 
1.1851062e+3, 2.8451723e+2, -65663.63, -320803.38, 1425.0546, 0.07352094, -0.07781833, -65655.68, 86069.31, 0.000050141156, 10.001462, 9.998091 
1.18512355e+3, 2.9451647e+2, -173941.72, -318128.78, -8569.358, 0.13794285, 0.025569757, -173434.2, -119696.49, 0.0001672216, 10.000024, 9.998129 
1.1851394e+3, 3.0451542e+2, -5867.808, -74790.7, -122376.06, 0.20300096, 0.04788395, 86806.47, 86806.47, 0.00040719565, 10.000248, 9.999366 
1.1851522e+3, 3.1451327e+2, 301319.34, 82436.586, -179609.78, 0.12347459, -0.11696544, 402204.13, 402204.13, 0.0007697525, 10.002288, 9.999467 
1.19486e+3, 1.2451163e+2, -1554527.4, -1617571.8, -93889.56, -0.3347709, -0.21459642, -1487009.6, 232762.03, 0.0022081332, 10.001017, 10.000157 
1.1948781e+3, 1.3451242e+2, -1666192.9, -1595906.8, -91003.2, 0.01929367, -0.1889475, -1533496.6, 88268.6, 0.0011730703, 9.999444, 10.000418 
1.1948917e+3, 1.4451271e+2, -1717246.8, -1672555.5, -42299.844, -0.19888674, -0.15321358, -1647061.8, -123296.85, 0.00040013902, 9.998875, 9.99948 
1.1949071e+3, 1.5451257e+2, -1531972.5, -1535917.6, -84111.4, -0.21779606, -0.12411441, -1449810.5, -24040.367, 0.00005450229, 9.999489, 9.999449 
1.1949226e+3, 1.6451219e+2, -1401184.1, -1405893.5, -133185.58, -0.1646177, -0.107143834, -1270332.4, 57442.535, 0.00000035173326, 9.999645, 9.999592 
1.1949391e+3, 1.7451152e+2, -1350489.0, -1321855.0, -113889.4, 0.017755674, -0.15237829, -1221386.3, 8393.136, 0.0, 9.999283, 9.99967 
1.1949551e+3, 1.8451118e+2, -1247696.3, -1254646.0, -36267.063, 0.07752227, -0.13315773, -1214738.0, -82956.99, 0.0, 9.999457, 9.999373 
1.19497046e+3, 1.9451123e+2, -1032513.1, -1096702.0, 7829.6104, -0.012403645, -0.080243476, -1031571.9, 2207.7913, 0.0, 10.000243, 9.999409 
1.1949861e+3, 2.0451078e+2, -939959.94, -1003311.6, -33444.664, -0.00057447987, -0.061569076, -925571.6, 10212.585, 0.0, 10.000216, 9.999391 
1.195002e+3, 2.1450958e+2, -991259.6, -969024.8, -5219.836, 0.13764937, -0.13592921, -967860.4, -130063.65, 0.0, 9.999158, 9.999461 
1.1950171e+3, 2.2450876e+2, -925805.8, -957213.4, 27774.883, 0.15347688, -0.12970547, -909602.6, -169797.36, 0.0, 9.999239, 9.998828 
1.19503126e+3, 2.3450834e+2, -615698.7, -753807.5, 18276.342, 0.023656253, -0.06999239, -613321.06, 28488.232, 0.0, 10.000679, 9.998859 
1.1950459e+3, 2.4450734e+2, -515989.97, -713214.7, -10482.34, -0.024541814, -0.025706291, -515434.4, 28386.045, 0.0, 10.000939, 9.998343 
1.1950613e+3, 2.545056e+2, -579230.1, -686434.4, 12165.785, 0.0298318, -0.047496032, -577866.9, -132026.19, 0.0, 9.999809, 9.998395 
1.19507715e+3, 2.645038e+2, -457877.44, -557386.44, 18223.91, 0.09472079, -0.06895743, -454644.94, -106786.055, 0.0000006389743, 9.999875, 9.998582 
1.19509324e+3, 2.7450192e+2, -148826.84, -347942.9, -13690.038, 0.16264129, -0.1372153, -147890.02, 101985.414, 0.000009277396, 10.001288, 9.998664 
1.1951087e+3, 2.8450102e+2, -90881.914, -362621.94, -52278.527, 0.1689378, -0.048704572, -81171.35, 70713.94, 0.000049688064, 10.001413, 9.9978285 
1.1951234e+3, 2.9450122e+2, -194318.9, -356665.06, -51825.305, 0.11221656, 0.17490822, -179185.55, -125297.414, 0.00016438575, 10.000001, 9.997878 
1.1951393e+3, 3.0449882e+2, -31483.443, -110286.9, -49251.06, 0.15631543, 0.08822072, -7812.4917, -7812.4917, 0.00039412428, 10.000182, 9.999147 
1.19515516e+3, 3.1449392e+2, 260519.06, 35491.3, -85604.23, 0.15997705, -0.33545074, 289382.2, 289382.2, 0.0007360574, 10.002136, 9.999209 
1.2048606e+3, 1.2449418e+2, -1713853.3, -1672515.6, 119442.29, -0.30775863, -0.2411651, -1571967.0, 147976.52, 0.0024257244, 9.999828, 10.000357 
1.20487705e+3, 1.3449554e+2, -1645360.8, -1568623.1, -81056.125, -0.023495516, -0.17251901, -1517313.3, 104616.6, 0.0012988481, 9.999503, 10.000582 
1.2048912e+3, 1.4449571e+2, -1671844.6, -1661695.4, -15628.253, -0.15030871, -0.15320243, -1650338.5, -126408.33, 0.00045139206, 9.999235, 9.99938 
1.204907e+3, 1.5449506e+2, -1599271.5, -1576070.5, -22180.418, -0.15391706, -0.1659573, -1562640.1, -136699.14, 0.00006471426, 9.999068, 9.999372 
1.20492235e+3, 1.644947e+2, -1450287.6, -1433719.8, -45029.844, -0.13581838, -0.14340039, -1396218.1, -68271.35, 0.00000057087306, 9.999326, 9.999555 
1.204938e+3, 1.7449465e+2, -1222801.3, -1261640.3, -67969.18, -0.05710524, -0.12219087, -1171531.8, 58414.72, 0.0, 10.000169, 9.999653 
1.204954e+3, 1.8449464e+2, -1087688.9, -1138946.3, -17253.78, -0.010835615, -0.08659189, -1082422.3, 49522.336, 0.0, 10.000382, 9.999724 
1.2049705e+3, 1.9449455e+2, -1063342.5, -1067134.5, -23486.867, -0.0058932477, -0.085640915, -1041675.25, -7733.503, 0.0, 9.999835, 9.999806 
1.2049866e+3, 2.0449391e+2, -1004056.8, -1051525.3, -113076.97, 0.050599277, -0.09826072, -912250.06, 23696.533, 0.0, 9.99985, 9.999233 
1.2050022e+3, 2.1449254e+2, -795538.06, -895324.75, -162392.7, 0.17256075, -0.17375429, -675546.94, 162414.58, 0.0, 10.0005865, 9.99928 
1.2050171e+3, 2.2449172e+2, -717475.6, -834868.06, -114221.79, 0.1640594, -0.1665382, -647751.2, 92219.38, 0.0, 10.000568, 9.999035 
1.2050311e+3, 2.344915e+2, -748387.9, -791045.75, -83919.805, -0.0002069688, -0.10614979, -683128.94, -41155.91, 0.0, 9.999651, 9.999103 
1.2050459e+3, 2.4449095e+2, -675962.3, -731303.56, -84218.03, -0.043383315, -0.05546594, -614985.6, -71006.25, 0.0, 9.999586, 9.998867 
1.2050617e+3, 2.5448987e+2, -433206.97, -557224.6, -67654.5, 0.052059673, -0.064170234, -403443.13, 42548.28, 0.00000000020898414, 10.000549, 9.998928 
1.2050779e+3, 2.644884e+2, -360571.84, -550903.44, -8943.043, 0.14793491, -0.06619818, -360152.56, -12145.526, 0.00000074892756, 10.000731, 9.998205 
1.2050946e+3, 2.7448636e+2, -361288.5, -495794.47, -7545.72, 0.23848008, -0.10557833, -360866.53, -110838.87, 0.000008958339, 10.000032, 9.998246 
1.2051099e+3, 2.8448513e+2, -276638.84, -414494.63, -16489.098, 0.22105591, -0.04458229, -274694.0, -122653.56, 0.000049074697, 9.999978, 9.998162 
1.20512344e+3, 2.9448476e+2, -74290.42, -255291.72, 8919.203, 0.083531916, 0.084002264, -73851.98, -19806.904, 0.00016160097, 10.000648, 9.99826 
1.2051393e+3, 3.0448192e+2, 46837.4, -128480.95, 80334.72, 0.09732384, -0.039067186, 78080.695, 78080.695, 0.0003810888, 10.00096, 9.998646 
1.2051564e+3, 3.1447843e+2, -4555.419, -144293.97, -5273.838, 0.16049781, -0.2705369, -4356.663, -4356.663, 0.00070004223, 10.000555, 9.998724 
1.2148621e+3, 1.2447938e+2, -1817475.8, -1874198.6, 140994.9, -0.16970852, -0.2539256, -1702018.0, 18068.068, 0.0026624324, 9.999784, 9.998985 
1.21487536e+3, 1.3448003e+2, -1755881.1, -1794665.9, -88269.625, -0.15010777, -0.1031655, -1684898.8, -62812.574, 0.0014356553, 9.999494, 9.999033 
1.2148905e+3, 1.4448005e+2, -1636258.1, -1589579.6, -27677.508, -0.16225512, -0.040659837, -1576714.4, -52624.766, 0.0005075534, 9.99924, 9.999873 
1.2149073e+3, 1.5448008e+2, -1558701.0, -1493232.1, -20793.355, -0.034495864, -0.043683637, -1487186.3, -61096.23, 0.000076397075, 9.999069, 9.999943 
1.2149228e+3, 1.6447988e+2, -1478816.6, -1493121.6, -21795.834, -0.035857346, -0.013237325, -1463029.8, -134937.36, 0.0000008702971, 9.999328, 9.999144 
1.21493734e+3, 1.7447935e+2, -1256875.8, -1331438.9, -31974.705, -0.15423094, 0.0047047753, -1245042.1, -14944.4, 0.0, 10.000161, 9.99918 
1.2149532e+3, 1.8447836e+2, -1097243.3, -1159186.5, -41896.008, -0.13389786, -0.026323115, -1076113.9, 55991.27, 0.0, 10.000383, 9.999584 
1.21497095e+3, 1.9447675e+2, -1077553.8, -1090350.0, -38918.688, 0.04519471, -0.1660809, -1044510.8, -10395.088, 0.0, 9.9998045, 9.999664 
1.214987e+3, 2.0447558e+2, -1079859.0, -1197906.0, -94930.266, 0.09591878, -0.17620572, -1027099.06, -90971.875, 0.0, 9.9998045, 9.998249 
1.2150011e+3, 2.1447495e+2, -877924.06, -1050096.3, -129908.97, 0.003469547, -0.07594255, -808166.8, 29973.3, 0.0, 10.000515, 9.998251 
1.215016e+3, 2.2447425e+2, -672014.75, -726358.1, -153503.42, -0.011075734, -0.03777891, -543296.75, 196852.1, 0.0, 10.000505, 9.999811 
1.2150315e+3, 2.3447348e+2, -694219.3, -666320.5, -111966.805, 0.0647517, -0.12128994, -567437.5, 74715.22, 0.0, 9.999595, 9.999989 
1.215047e+3, 2.4447319e+2, -641462.5, -642438.75, -55906.605, 0.09098206, -0.12272929, -586041.9, -41888.094, 0.0, 9.999515, 9.99951 
1.2150625e+3, 2.5447333e+2, -396990.56, -470469.6, -25221.324, 0.06680522, -0.073935, -389166.56, 56986.01, 0.00000000018849695, 10.000502, 9.999545 
1.2150782e+3, 2.644728e+2, -351331.78, -524673.5, -36937.707, 0.098349944, -0.022941757, -343788.88, 4369.9663, 0.00000061447383, 10.000698, 9.998403 
1.2150943e+3, 2.744714e+2, -355993.88, -474380.22, -25848.865, 0.19798036, -0.015243617, -350596.06, -100421.55, 0.00000822272, 9.999983, 9.99842 
1.2151094e+3, 2.8446954e+2, -229973.13, -299783.16, 2415.259, 0.16995803, -0.06510473, -229889.67, -77698.85, 0.000047693058, 9.999903, 9.998986 
1.2151233e+3, 2.94467e+2, -17906.822, -131085.64, 44166.727, -0.0011983243, -0.24047677, -2711.4087, 51497.887, 0.00015870755, 10.000615, 9.999128 
1.2151392e+3, 3.0446464e+2, -17122.268, -249125.13, 64174.46, -0.016506368, -0.3272537, -554.1198, -554.1198, 0.00037049488, 10.000912, 9.99784 
1.2151559e+3, 3.1446645e+2, -67755.99, -252100.47, -5806.0596, 0.02868218, 0.06285312, -67573.31, -67573.31, 0.0006721225, 10.000459, 9.998029 
1.22486256e+3, 1.2446545e+2, -1811334.5, -1902237.1, 108722.836, -0.09610779, -0.11030108, -1738944.9, -18719.44, 0.0029179724, 9.999934, 9.9987335 
1.22487515e+3, 1.3446474e+2, -1673959.4, -1792757.9, -54000.016, -0.15970771, -0.05848237, -1653082.4, -30844.227, 0.0015834377, 10.000213, 9.998703 
1.2248915e+3, 1.4446412e+2, -1475412.0, -1534384.1, 45223.297, -0.038017325, -0.033389788, -1450911.3, 73335.56, 0.00056846405, 10.000441, 9.999672 
1.2249071e+3, 1.5446427e+2, -1338491.4, -1408247.4, -22145.318, -0.035345882, -0.0077550495, -1332054.9, 94190.0, 0.00008951281, 10.0006695, 9.999752 
1.2249225e+3, 1.6446406e+2, -1281285.4, -1388975.8, -14527.535, -0.06691399, 0.024418112, -1279360.0, 48886.344, 0.0000012652538, 10.000638, 9.99923 
1.22493796e+3, 1.7446332e+2, -1230179.8, -1303974.8, 12380.735, -0.101506956, 0.0118200695, -1228158.0, 2094.6313, 0.0, 10.00028, 9.9993105 
1.2249541e+3, 1.8446203e+2, -1175367.9, -1243874.6, 6892.289, -0.07221762, -0.036750715, -1174681.4, -42417.98, 0.0, 10.000057, 9.999159 
1.2249706e+3, 1.9445997e+2, -1072753.1, -1133697.8, -31551.875, 0.023747025, -0.17617881, -1059361.1, -25080.541, 0.0, 10.00005, 9.999243 
1.22498624e+3, 2.0445879e+2, -1052900.5, -1163031.9, -28574.72, 0.03780787, -0.17624849, -1045927.9, -109635.16, 0.0, 9.99989, 9.998451 
1.2250008e+3, 2.1445861e+2, -1007276.7, -1084751.0, 25108.605, -0.034395643, -0.05209458, -999850.94, -161551.67, 0.0, 9.999508, 9.998499 
1.2250159e+3, 2.2445793e+2, -809382.1, -810252.8, 22143.406, -0.024054088, -0.018696386, -787669.8, -47362.33, 0.0, 9.999643, 9.999644 
1.2250316e+3, 2.3445658e+2, -588253.44, -635748.8, -33318.363, 0.07750426, -0.14243624, -571085.75, 71232.234, 0.0, 10.000414, 9.9998 
1.2250471e+3, 2.4445623e+2, -495806.25, -555539.1, -20008.627, 0.106928006, -0.14722958, -489723.4, 54596.473, 0.0, 10.000433, 9.999672 
1.2250624e+3, 2.54457e+2, -518644.34, -504756.7, -32443.936, 0.05555903, -0.056519706, -478521.8, -32209.729, 0.0, 9.999563, 9.999762 
1.2250779e+3, 2.644567e+2, -528956.06, -565961.8, -51978.46, 0.06495988, -0.010104424, -492285.44, -143970.23, 0.0000003685213, 9.999289, 9.998799 
1.2250936e+3, 2.744551e+2, -368889.94, -435205.0, -36861.2, 0.14636488, -0.06151923, -352467.53, -102135.445, 0.000007319039, 9.9997015, 9.998824 
1.225109e+3, 2.844535e+2, -202269.28, -277599.1, 8510.563, 0.13526991, -0.1109531, -201319.75, -48973.86, 0.000046575948, 10.000052, 9.999064 
1.2251239e+3, 2.9445168e+2, -58718.934, -144304.67, -18177.541, 0.018765116, -0.22074494, -55018.227, -660.05255, 0.0001562628, 10.000309, 9.999185 
1.2251402e+3, 3.044495e+2, -84933.11, -237489.58, -11828.329, 0.031949267, -0.3089922, -84021.45, -84021.45, 0.00036177837, 10.000253, 9.998241 
1.2251566e+3, 3.144518e+2, -143810.39, -208711.08, -15110.926, 0.098180436, 0.08622005, -140464.58, -140464.58, 0.0006523365, 9.99957, 9.998766 
1.2348615e+3, 1.2445241e+2, -1735274.3, -1744590.0, 73985.414, -0.2232664, 0.2002202, -1665800.3, 54561.203, 0.0031899144, 9.999938, 9.99981 
1.234876e+3, 1.3444978e+2, -1598316.0, -1642075.8, -39439.42, -0.09774849, -0.0428753, -1575093.9, 47291.117, 0.0017411282, 10.000238, 9.999723 
1.2348942e+3, 1.4444804e+2, -1537191.5, -1672053.9, 49626.566, 0.1769657, -0.14154686, -1520898.4, 3502.5942, 0.0006337289, 10.000476, 9.9987135 
1.23490624e+3, 1.5444766e+2, -1407266.4, -1562287.4, -8650.333, -0.20502786, -0.059921682, -1406785.1, 19620.03, 0.00010392506, 10.000709, 9.998682 
1.23492114e+3, 1.6444714e+2, -1230720.9, -1286205.5, -34496.848, -0.27927345, -0.03349509, -1214195.1, 114213.75, 0.0000017603737, 10.000649, 9.999928 
1.2349399e+3, 1.7444657e+2, -1176780.4, -1191486.0, 2234.0515, 0.05340097, -0.11014713, -1176448.5, 53962.207, 0.0, 10.00027, 10.000089 
1.2349563e+3, 1.8444563e+2, -1230319.6, -1355265.6, -276.4089, 0.13259652, -0.12744167, -1230319.0, -97899.87, 0.0, 10.000045, 9.998402 
1.2349695e+3, 1.944442e+2, -1135530.4, -1259399.3, -26318.666, -0.11107219, -0.11724578, -1130170.4, -95734.18, 0.0, 10.000025, 9.998396 
1.2349841e+3, 2.0444348e+2, -956202.75, -953606.1, -51235.816, -0.16793314, -0.09541356, -903652.2, 32791.227, 0.0, 9.999854, 9.999905 
1.2350007e+3, 2.1444358e+2, -904140.4, -860036.75, 14755.128, 0.01148971, -0.10366956, -855555.6, -17116.727, 0.0, 9.999457, 10.000067 
1.2350166e+3, 2.2444277e+2, -899621.6, -978538.44, 42865.586, 0.07450737, -0.112868056, -880818.4, -140372.0, 0.0, 9.999564, 9.998527 
1.23503126e+3, 2.3444079e+2, -689856.9, -830547.06, 2427.5432, -0.0064948592, -0.17092188, -689815.0, -47345.89, 0.0, 10.000346, 9.998495 
1.235046e+3, 2.4444008e+2, -523064.75, -601838.5, -55406.258, -0.046516486, -0.12842053, -494472.38, 50005.54, 0.0, 10.000388, 9.999374 
1.23506114e+3, 2.5444084e+2, -541000.5, -541851.5, -59149.76, -0.030173026, -0.014346614, -482274.72, -35804.836, 0.0, 9.9995165, 9.999532 
1.23507656e+3, 2.6444012e+2, -499596.6, -488625.5, -43301.46, 0.0003618168, -0.028121948, -450463.5, -101987.37, 0.00000016286783, 9.999221, 9.999363 
1.2350924e+3, 2.7443752e+2, -334700.75, -352565.13, -13549.182, 0.040558852, -0.23862523, -327404.44, -76904.34, 0.0000066111284, 9.999653, 9.9994135 
1.2351085e+3, 2.8443697e+2, -253530.89, -373553.9, 14920.015, 0.06480233, -0.18463351, -251704.0, -99197.85, 0.000046430763, 10.000005, 9.998428 
1.235125e+3, 2.944386e+2, -117111.37, -254184.48, 1559.4554, 0.08352694, 0.11881188, -117093.63, -62600.29, 0.00015647624, 10.000254, 9.998459 
1.235142e+3, 3.044364e+2, 9866.615, -25401.092, -33936.64, 0.17945987, -0.004076569, 30477.35, 30477.35, 0.00036044128, 10.000185, 9.999731 
1.2351579e+3, 3.1443462e+2, -8038.3545, 92311.89, -24793.592, 0.24920414, -0.17877012, 98103.414, 98103.414, 0.00064742, 9.999492, 10.00087 
1.2448623e+3, 1.2443606e+2, -1667803.5, -1703240.5, 76888.125, -0.13827188, 0.14275078, -1606618.6, 113901.69, 0.003475539, 10.000375, 9.999877 
1.2448759e+3, 1.3443379e+2, -1540731.8, -1608848.5, -78775.96, -0.15608603, -0.067489296, -1488966.9, 133573.03, 0.0019075654, 10.00061, 9.999774 
1.2448952e+3, 1.4443204e+2, -1489613.5, -1635380.5, 15839.798, 0.22546987, -0.17548765, -1487912.1, 36642.574, 0.0007030745, 10.000747, 9.998836 
1.2449072e+3, 1.5443109e+2, -1380674.4, -1532794.9, 38204.4, -0.17708232, -0.16223545, -1371618.6, 54942.926, 0.00011956255, 10.00083, 9.998824 
1.244922e+3, 1.6443028e+2, -1245542.0, -1344916.3, 13628.43, -0.25652876, -0.15055017, -1243706.8, 84861.41, 0.0000023468863, 10.000768, 9.999473 
1.2449405e+3, 1.7442973e+2, -1179681.1, -1247814.5, -60477.34, 0.08023358, -0.17488082, -1144335.6, 86238.055, 0.0, 10.000488, 9.999598 
1.2449567e+3, 1.8442914e+2, -1162025.4, -1289280.3, -53996.098, 0.15153582, -0.14651315, -1142202.0, -9621.668, 0.0, 10.000365, 9.998699 
1.2449696e+3, 1.9442837e+2, -1052451.4, -1182592.3, 3887.878, -0.10839442, -0.10737565, -1052335.3, -17745.645, 0.0, 10.000425, 9.998732 
1.24498434e+3, 2.0442772e+2, -852573.6, -907772.1, -16559.004, -0.1651706, -0.0946049, -847987.2, 88608.14, 0.0, 10.000577, 9.999874 
1.2450011e+3, 2.1442722e+2, -707481.56, -766900.2, -88063.06, 0.03722749, -0.15937379, -644251.4, 194345.3, 0.0, 10.00082, 10.000051 
1.2450168e+3, 2.2442642e+2, -725769.75, -892243.06, -65451.355, 0.09385599, -0.16695042, -703118.6, 37485.344, 0.0, 10.00074, 9.998556 
1.2450313e+3, 2.3442519e+2, -699528.1, -829291.56, -17190.783, -0.028908556, -0.15623587, -697289.4, -54669.723, 0.0, 10.000247, 9.998552 
1.2450459e+3, 2.4442445e+2, -595484.0, -655462.2, -25558.305, -0.08321858, -0.10891175, -586070.44, -41442.066, 0.0, 9.999976, 9.999204 
1.24506064e+3, 2.544243e+2, -484704.56, -534107.8, -39865.016, -0.04794181, -0.0671699, -462508.53, -15879.63, 0.0, 9.999992, 9.999354 
1.2450761e+3, 2.6442325e+2, -427101.38, -475652.78, -23567.906, 0.01105567, -0.09581656, -417542.84, -68903.91, 0.000000050542315, 9.9998045, 9.99917 
1.2450924e+3, 2.744211e+2, -390396.47, -402474.53, -64828.754, 0.09306064, -0.24677518, -331326.06, -80665.44, 0.000006130949, 9.999358, 9.999217 
1.2451084e+3, 2.8442085e+2, -381481.94, -391479.28, -22035.545, 0.12184964, -0.1679981, -363885.22, -211220.84, 0.0000467863, 9.998945, 9.998816 
1.2451245e+3, 2.944226e+2, -327185.3, -306813.47, 32908.12, 0.09698096, 0.110402055, -282550.9, -227901.28, 0.00016088788, 9.998608, 9.998886 
1.2451413e+3, 3.044205e+2, -195940.73, -144124.17, 3288.726, 0.17723893, -0.015612763, -143916.28, -143916.28, 0.00037296483, 9.998849, 9.999557 
1.2451579e+3, 3.1441864e+2, 44515.082, 144196.86, -142510.11, 0.2811221, -0.18256146, 245330.28, 245330.28, 0.00066910626, 9.999741, 10.001105 
1.2548642e+3, 1.2441642e+2, -1732950.0, -1850870.4, -12988.222, -0.021185065, -0.2887764, -1731536.4, -10835.314, 0.0037739007, 10.000415, 9.998847 
1.2548743e+3, 1.3441674e+2, -1607992.4, -1755796.6, -65230.63, -0.37404177, -0.14292556, -1583321.9, 39381.438, 0.0020822603, 10.000629, 9.99876 
1.2548946e+3, 1.444162e+2, -1400015.5, -1451460.6, 13032.273, 0.05849793, -0.13406016, -1396902.5, 127804.78, 0.0007764397, 10.000755, 10.000092 
1.2549101e+3, 1.5441467e+2, -1278753.1, -1326823.0, 48152.887, 0.008018343, -0.32010925, -1248970.0, 177743.02, 0.00013646827, 10.000848, 10.000231 
1.2549251e+3, 1.6441353e+2, -1364336.3, -1591507.8, -1278.1614, -0.033466138, -0.33769757, -1364329.1, -35604.98, 0.0000030208696, 10.000767, 9.99778 
1.2549399e+3, 1.7441294e+2, -1310772.8, -1521480.0, -66967.086, -0.058344014, -0.17961219, -1291290.5, -60549.785, 0.0, 10.000489, 9.997721 
1.254955e+3, 1.844126e+2, -1064338.0, -1083409.5, -59161.805, -0.060531687, -0.09268045, -1013948.44, 118798.5, 0.0, 10.000353, 10.000117 
1.254971e+3, 1.9441248e+2, -942002.1, -947209.3, 10143.053, -0.02367557, -0.15043767, -934133.9, 100606.945, 0.0, 10.000398, 10.0003605 
1.2549867e+3, 2.0441154e+2, -967021.2, -1132378.4, -14819.673, 0.002312974, -0.18308838, -965703.56, -28955.293, 0.0, 10.000523, 9.998361 
1.2550017e+3, 2.1440952e+2, -835951.5, -1021398.94, -73997.85, 0.0027585668, -0.22541338, -810043.94, 28728.662, 0.0, 10.000766, 9.998332 
1.2550166e+3, 2.2440884e+2, -652057.56, -722997.7, -88951.445, -0.01176456, -0.18803595, -591764.94, 149016.13, 0.0, 10.000671, 9.99975 
1.2550315e+3, 2.3440978e+2, -611247.56, -632474.3, -30873.473, -0.037346315, -0.09710826, -589214.1, 53555.496, 0.0, 10.000186, 9.999934 
1.2550463e+3, 2.4440944e+2, -608386.06, -666387.25, -31866.652, -0.047232434, -0.08232138, -594299.3, -49528.44, 0.0, 9.9999075, 9.999162 
1.2550607e+3, 2.544074e+2, -504363.88, -563258.0, -32533.383, -0.04036263, -0.21661955, -489929.84, -43140.38, 0.0, 9.999941, 9.99918 
1.2550764e+3, 2.64406e+2, -502108.4, -618275.0, -43607.87, 0.052010152, -0.22128266, -487560.34, -138755.6, 0.00000007625481, 9.999749, 9.998217 
1.2550934e+3, 2.744056e+2, -470832.34, -551064.8, -72586.555, 0.24917403, -0.096312754, -428014.16, -177199.45, 0.0000061180435, 9.999282, 9.998233 
1.2551087e+3, 2.8440505e+2, -291659.28, -198724.1, -37753.984, 0.24994618, -0.057957232, -185320.16, -32499.64, 0.00004818149, 9.998911, 10.000157 
1.2551224e+3, 2.9440394e+2, -226960.4, -97055.34, 30424.139, 0.019119395, -0.22089916, -90282.99, -35457.574, 0.00017152917, 9.998593, 10.000337 
1.2551384e+3, 3.04402e+2, -325234.0, -406127.88, 33441.664, -0.014534569, -0.31967837, -313199.5, -313199.5, 0.00040416623, 9.998819, 9.997771 
1.255156e+3, 3.144034e+2, -87028.72, -99185.13, -93280.81, 0.10233805, 0.032763354, 371.70313, 371.70313, 0.0007265205, 9.99961, 9.999496 
1.2648655e+3, 1.2440078e+2, -1691379.6, -1858664.4, -6068.9785, 0.048898958, -0.3943906, -1691159.8, 29689.965, 0.004085261, 10.000818, 9.998602 
1.2648754e+3, 1.3440154e+2, -1481380.0, -1710598.0, 66131.1, -0.37421486, -0.18137462, -1463669.1, 159179.11, 0.0022650692, 10.00159, 9.998593 
1.2648956e+3, 1.4440109e+2, -1300240.5, -1427383.0, 101333.414, 0.06803231, -0.14863935, -1244188.3, 280664.28, 0.00085386867, 10.001548, 9.999874 
1.264911e+3, 1.5439916e+2, -1356849.3, -1385514.1, -1382.0399, 0.04472482, -0.35361117, -1356782.9, 70080.64, 0.00015477135, 10.000413, 10.0000305 
1.264926e+3, 1.6439807e+2, -1406373.5, -1591699.5, 2043.1683, 0.0069392654, -0.3602377, -1406351.0, -77477.0, 0.0000038088367, 10.000396, 9.997953 
1.2649411e+3, 1.7439817e+2, -1090923.8, -1390078.9, 86904.44, -0.050222203, -0.15516417, -1067510.5, 163372.5, 0.0, 10.001899, 9.997938 
1.2649563e+3, 1.8439776e+2, -834222.75, -1012987.6, 79616.14, -0.054355823, -0.07240008, -803905.75, 328984.03, 0.0, 10.002108, 9.999758 
1.264972e+3, 1.9439657e+2, -939838.2, -988762.4, -18854.72, 0.012451884, -0.19564918, -933415.1, 101479.875, 0.0, 10.0006075, 9.999972 
1.264987e+3, 2.043953e+2, -1068000.6, -1205104.3, -31508.725, 0.028937455, -0.22874244, -1061106.1, -124199.67, 0.0, 9.999936, 9.998137 
1.2650019e+3, 2.1439384e+2, -922173.56, -1088162.5, 12608.219, -0.026152296, -0.19533847, -921221.3, -82294.805, 0.0, 10.00028, 9.998102 
1.2650166e+3, 2.2439317e+2, -711180.06, -744132.75, 1097.6599, -0.055385258, -0.14721012, -711143.56, 29791.283, 0.0, 10.000233, 9.999817 
1.2650312e+3, 2.3439354e+2, -681926.3, -654353.3, -51647.965, -0.04444562, -0.12293337, -614683.5, 28244.41, 0.0, 9.999657, 10.000037 
1.2650461e+3, 2.4439302e+2, -654834.1, -676599.1, -61760.883, -0.026551021, -0.13779822, -603004.3, -58073.88, 0.0, 9.999535, 9.9992695 
1.2650612e+3, 2.5439125e+2, -489880.53, -544517.7, -53923.25, -0.0018556307, -0.25540224, -456750.63, -9804.34, 0.0, 9.999984, 9.999288 
1.2650767e+3, 2.643902e+2, -427473.97, -560198.0, -23315.344, 0.07652992, -0.24258097, -423497.34, -74539.38, 0.00000015326442, 10.000164, 9.99842 
1.2650926e+3, 2.743901e+2, -355271.06, -468819.6, 21388.5, 0.22299017, -0.10687759, -351375.84, -100412.02, 0.000006713193, 9.999959, 9.998471 
1.265108e+3, 2.8438956e+2, -181806.66, -142402.27, 69306.92, 0.24974072, -0.083973, -90051.53, 62917.953, 0.000050966704, 9.999656, 10.000181 
1.2651226e+3, 2.9438815e+2, -119984.5, -44127.54, 15538.418, 0.13672282, -0.27632543, -41068.07, 13909.891, 0.00018813205, 9.999328, 10.000341 
1.2651382e+3, 3.0438662e+2, -286977.2, -384653.88, 56584.063, 0.08022742, -0.33327827, -261069.69, -261069.69, 0.00045240793, 9.999068, 9.997802 
1.2651545e+3, 3.1438807e+2, -187658.78, -116966.89, 48009.906, 0.035805315, 0.016312936, -92694.99, -92694.99, 0.0008183063, 9.998779, 9.999777 
1.2748645e+3, 1.2438958e+2, -1648537.1, -1768703.4, -68981.43, -0.14815907, -0.14410779, -1617141.1, 103820.914, 0.0044096503, 10.00082, 9.999217 
1.274879e+3, 1.3438848e+2, -1438751.3, -1623277.0, 102743.27, -0.18553042, -0.1786607, -1392925.0, 230047.55, 0.0024558255, 10.001593, 9.999194 
1.2748988e+3, 1.4438677e+2, -1418351.3, -1676659.1, 58226.234, 0.20708951, -0.22309111, -1405832.9, 119156.52, 0.00093550276, 10.001565, 9.998154 
1.27491e+3, 1.5438455e+2, -1492216.0, -1669157.0, -39143.96, -0.113432676, -0.2656938, -1483943.1, -56930.58, 0.00017466526, 10.000417, 9.998088 
1.2749246e+3, 1.6438395e+2, -1257358.4, -1284146.3, 45511.992, -0.1893489, -0.21999618, -1223310.4, 105707.516, 0.0000047674703, 10.0004, 10.000064 
1.2749441e+3, 1.7438549e+2, -919542.25, -1041537.8, 148815.56, 0.057269976, -0.108162165, -819708.44, 411291.38, 0.0, 10.001924, 10.000322 
1.2749602e+3, 1.8438463e+2, -985533.7, -1328214.1, 25623.51, 0.12263912, -0.09382994, -983628.3, 149380.16, 0.0, 10.002111, 9.997592 
1.274972e+3, 1.9438072e+2, -1113705.5, -1349804.4, -70436.69, -0.04780968, -0.2447295, -1094288.6, -59237.406, 0.0, 10.000601, 9.997499 
1.2749855e+3, 2.0437907e+2, -1002911.5, -1057073.6, -30296.807, -0.13085903, -0.23235853, -989356.6, -52286.895, 0.0, 9.999883, 9.99918 
1.2750016e+3, 2.1438025e+2, -842691.7, -904149.8, 30045.408, -0.09638074, -0.064296864, -830444.0, 8613.881, 0.0, 10.0002, 9.999403 
1.2750167e+3, 2.2437957e+2, -795482.0, -899779.3, -24050.367, -0.08070243, -0.039493047, -790203.3, -49138.84, 0.0, 10.00015, 9.998788 
1.2750305e+3, 2.343765e+2, -774678.4, -833987.1, -65810.65, -0.09271109, -0.23895009, -732149.5, -89054.945, 0.0, 9.999598, 9.998833 
1.2750454e+3, 2.4437514e+2, -649505.25, -650228.5, -52403.887, -0.0636866, -0.28332937, -597461.75, -52354.117, 0.0, 9.99947, 9.999481 
1.2750614e+3, 2.543759e+2, -476535.56, -499283.4, -30230.107, 0.020114698, -0.18288156, -455610.47, -8511.227, 0.0, 9.999909, 9.999633 
1.2750766e+3, 2.6437587e+2, -343469.66, -372473.7, -34204.313, 0.039531637, -0.14997065, -320820.03, 28277.982, 0.00000020123079, 10.000102, 9.99974 
1.2750903e+3, 2.743747e+2, -268840.94, -276569.3, 21953.904, -0.026684508, -0.2615013, -250413.73, 693.48346, 0.0000075115454, 9.999904, 9.999819 
1.2751059e+3, 2.843743e+2, -277058.66, -331364.7, 49668.598, 0.07012202, -0.23129615, -247605.52, -94494.01, 0.000055155855, 9.999618, 9.998898 
1.2751245e+3, 2.943749e+2, -233482.95, -261184.08, 12305.149, 0.38567153, -0.08160972, -228806.39, -173696.25, 0.00020861672, 9.999247, 9.998889 
1.2751406e+3, 3.043741e+2, -176695.78, -142875.89, 43539.805, 0.39688098, -0.068395294, -113077.58, -113077.58, 0.00051069446, 9.999012, 9.999488 
1.2751529e+3, 3.143728e+2, -61929.242, 164332.22, 50103.875, -0.02163955, -0.18461606, 174930.88, 174930.88, 0.0009331976, 9.998701, 10.001744 
1.2848662e+3, 1.243765e+2, -1516039.0, -1700724.5, -88079.34, -0.09719419, -0.08638348, -1480768.5, 240320.92, 0.0047468157, 10.001693, 9.999279 
1.2848818e+3, 1.343747e+2, -1429841.8, -1615987.6, 70777.23, -0.06470152, -0.18788868, -1405987.4, 217117.3, 0.0026545508, 10.001647, 9.999216 
1.2849005e+3, 1.4437261e+2, -1426435.6, -1722305.5, 33149.74, 0.20994107, -0.25383884, -1422767.0, 102358.06, 0.0010215283, 10.001693, 9.997779 
1.284911e+3, 1.5437067e+2, -1278132.8, -1606543.0, 35999.25, -0.12907274, -0.23027226, -1274232.9, 152914.23, 0.00019628371, 10.002071, 9.997714 
1.2849255e+3, 1.6436975e+2, -1075635.1, -1189922.3, 137789.7, -0.19274151, -0.19867063, -983609.7, 345545.44, 0.0000059623408, 10.001615, 10.000131 
1.2849455e+3, 1.7437027e+2, -1190911.1, -1160130.3, 60108.78, 0.09271631, -0.19811869, -1113472.9, 117671.43, 0.0, 10.00001, 10.000431 
1.2849617e+3, 1.8436925e+2, -1346004.4, -1522161.5, -76482.54, 0.17371143, -0.1972319, -1317432.1, -184277.97, 0.0, 9.999726, 9.997409 
1.2849733e+3, 1.9436628e+2, -1038721.3, -1335549.3, -12410.629, -0.009749096, -0.23561002, -1038203.3, -3012.967, 0.0, 10.001217, 9.997298 
1.2849864e+3, 2.0436473e+2, -774423.9, -953675.0, 72382.19, -0.09882698, -0.19904508, -748845.6, 188363.0, 0.0, 10.00148, 9.999123 
1.285002e+3, 2.1436493e+2, -865842.94, -919995.2, 19469.12, -0.06297946, -0.12387226, -859570.0, -20365.162, 0.0, 10.000062, 9.999363 
1.2850168e+3, 2.24364e+2, -926402.4, -985837.94, -37892.164, -0.032228343, -0.111176506, -907964.56, -166750.88, 0.0, 9.999352, 9.99858 
1.2850308e+3, 2.3436166e+2, -793688.6, -866427.4, -20789.254, -0.012833538, -0.21655972, -788166.2, -144927.66, 0.0, 9.999572, 9.99862 
1.2850456e+3, 2.443604e+2, -653973.6, -678449.1, 36908.273, 0.0049393764, -0.22887266, -627327.1, -82075.18, 0.0, 9.999547, 9.999252 
1.2850611e+3, 2.5436047e+2, -599170.2, -583105.6, 5954.971, 0.024431493, -0.1725341, -581138.94, -133887.92, 0.0, 9.999175, 9.999412 
1.285076e+3, 2.6436022e+2, -456091.38, -398741.44, -41521.754, 0.02734647, -0.16007978, -376955.44, -27704.035, 0.00000014147287, 9.999212, 9.999984 
1.2850904e+3, 2.7435946e+2, -262107.0, -242195.81, -82523.19, 0.007058988, -0.25646356, -169029.88, 82224.58, 0.00000765521, 9.999817, 10.000095 
1.2851061e+3, 2.84359e+2, -249621.05, -355139.34, -71586.11, 0.100443184, -0.23306228, -213452.7, -60193.438, 0.00005963982, 9.999965, 9.998574 
1.2851234e+3, 2.943589e+2, -228894.77, -297904.47, -49695.344, 0.35389605, -0.11620222, -202899.94, -147633.34, 0.00023270557, 9.999446, 9.998542 
1.2851395e+3, 3.0435857e+2, -87967.31, -39889.555, 21454.533, 0.36614427, -0.061665133, -31707.87, -31707.87, 0.0005779569, 9.999371, 10.00002 
1.285153e+3, 3.1435767e+2, 152903.7, 323407.88, -93132.82, 0.06927871, -0.19999774, 364416.0, 364416.0, 0.0010646739, 9.999935, 10.002247 
1.2948695e+3, 1.2436134e+2, -1547145.5, -1763957.6, -125062.05, 0.036015116, -0.2511997, -1490045.1, 231188.03, 0.0050962004, 10.001693, 9.998843 
1.2948836e+3, 1.343602e+2, -1480666.4, -1715474.9, 72276.484, -0.055382486, -0.22197199, -1460202.4, 163042.61, 0.0028611089, 10.001626, 9.998541 
1.2949003e+3, 1.443586e+2, -1354112.8, -1573118.4, 37905.92, 0.015034326, -0.2479829, -1347737.5, 177521.94, 0.00111182, 10.001695, 9.998803 
1.2949139e+3, 1.5435764e+2, -1191131.1, -1434890.9, 57332.56, -0.04939755, -0.24336123, -1178319.9, 248945.97, 0.000219555, 10.0021, 9.998883 
1.2949286e+3, 1.6435559e+2, -1212672.9, -1476072.6, 74422.195, -0.048899133, -0.29683462, -1193099.8, 136184.92, 0.0000074533, 10.001622, 9.998159 
1.2949447e+3, 1.7435253e+2, -1349148.4, -1486362.6, 1446.3257, 0.014518101, -0.435926, -1349133.1, -117816.625, 0.0, 9.999998, 9.998196 
1.2949604e+3, 1.843516e+2, -1224960.5, -1264191.3, -33646.69, 0.055676285, -0.38950244, -1205629.0, -72301.984, 0.0, 9.999696, 9.999196 
1.2949754e+3, 1.9435324e+2, -894738.2, -1033752.4, 50699.523, 0.08194667, -0.17102069, -878212.25, 157099.72, 0.0, 10.0012, 9.99938 
1.2949899e+3, 2.0435223e+2, -862053.44, -1126384.3, 21477.926, 0.077558726, -0.1375183, -860319.7, 77003.37, 0.0, 10.001442, 9.997953 
1.295003e+3, 2.1434785e+2, -973472.1, -1130190.3, -28946.275, 0.02998938, -0.38226905, -968296.56, -128929.266, 0.0, 10.000004, 9.997949 
1.2950172e+3, 2.2434646e+2, -899839.25, -912825.6, -38999.504, 0.044654753, -0.3633189, -866796.06, -125413.62, 0.0, 9.999276, 9.999117 
1.295032e+3, 2.3434894e+2, -754022.06, -768595.7, -4876.2856, 0.14328915, -0.058087967, -752541.0, -109180.77, 0.0, 9.999502, 9.999326 
1.2950464e+3, 2.4434875e+2, -709483.06, -776161.94, 18625.914, 0.12673235, 0.028380932, -704632.94, -159269.3, 0.0, 9.999475, 9.998614 
1.2950596e+3, 2.5434503e+2, -660451.44, -697261.5, -57.94626, -0.035694487, -0.2220832, -660451.4, -213050.1, 0.0, 9.999121, 9.998652 
1.295075e+3, 2.6434332e+2, -522858.63, -529213.9, -25478.033, -0.007636457, -0.27086866, -500360.8, -150942.92, 0.000000052184554, 9.99917, 9.999111 
1.2950929e+3, 2.7434438e+2, -331075.53, -367962.7, -49280.83, 0.26013947, -0.099836215, -296900.06, -45493.94, 0.000006761853, 9.999738, 9.999271 
1.2951079e+3, 2.843437e+2, -218212.17, -273449.13, -91486.195, 0.28190702, -0.08862616, -150266.5, 3146.153, 0.000062792315, 9.999889, 9.999173 
1.2951195e+3, 2.9434046e+2, -191063.84, -209821.7, -58284.008, -0.0015914253, -0.35241237, -141408.97, -85963.984, 0.00025879944, 9.999401, 9.999172 
1.2951347e+3, 3.0434027e+2, -138315.6, -131988.25, 35617.855, -0.054647457, -0.2853148, -99393.836, -99393.836, 0.0006519277, 9.999327, 9.999404 
1.2951545e+3, 3.143424e+2, 55005.38, 168867.98, -55200.97, 0.20695347, -0.050650522, 191235.61, 191235.61, 0.0012067992, 9.99974, 10.00127 
1.3048707e+3, 1.2434536e+2, -1659232.4, -1772783.0, -224124.28, 0.047866315, -0.31812817, -1484804.1, 236586.05, 0.0054552136, 10.000728, 9.999247 
1.3048859e+3, 1.3434486e+2, -1513972.0, -1706868.0, 3183.1855, 0.025640244, -0.24361438, -1513919.5, 109474.39, 0.003073975, 10.001303, 9.998749 
1.3049015e+3, 1.4434363e+2, -1369152.6, -1559674.6, -11233.076, -0.0112889875, -0.2555159, -1368492.6, 156911.39, 0.0012055306, 10.0014925, 9.998996 
1.3049164e+3, 1.5434246e+2, -1291634.1, -1460141.9, -75510.08, 0.02311309, -0.2901634, -1262748.8, 164663.2, 0.000244213, 10.001311, 9.999088 
1.304931e+3, 1.643403e+2, -1307546.9, -1567477.3, -67284.83, 0.045319684, -0.3461901, -1291162.5, 38270.18, 0.000009295233, 10.001178, 9.997745 
1.3049453e+3, 1.7433718e+2, -1208198.1, -1469007.6, -22986.27, 0.02144524, -0.44333094, -1206187.8, 25279.098, 0.0, 10.001194, 9.997739 
1.3049604e+3, 1.8433632e+2, -999028.6, -1092547.4, 26639.15, 0.04261247, -0.39024308, -991972.75, 141503.64, 0.0, 10.000972, 9.99976 
1.3049766e+3, 1.9433825e+2, -970275.0, -997842.1, -7661.986, 0.12560855, -0.20923148, -968288.56, 67167.39, 0.0, 10.000372, 10.000024 
1.3049912e+3, 2.0433746e+2, -1034845.1, -1208586.6, -76022.97, 0.14047651, -0.18692435, -1006277.5, -68814.03, 0.0, 10.000252, 9.997962 
1.3050038e+3, 2.1433331e+2, -861109.3, -1075869.0, -35985.88, 0.06751157, -0.40568355, -855239.8, -15734.011, 0.0, 10.000785, 9.997941 
1.3050175e+3, 2.243318e+2, -669986.56, -820245.7, 10154.281, 0.07842025, -0.39287356, -669303.44, 72219.18, 0.0, 10.000926, 9.99896 
1.3050327e+3, 2.343336e+2, -621927.6, -723038.94, -31528.545, 0.20300607, -0.13889194, -612902.06, 30605.084, 0.0, 10.000484, 9.999165 
1.305047e+3, 2.4433325e+2, -612990.8, -745471.6, -18348.996, 0.20590526, -0.05356549, -610496.4, -64983.855, 0.0, 10.000206, 9.998474 
1.3050602e+3, 2.5433004e+2, -516776.4, -644654.9, -6351.1123, 0.055777065, -0.23568964, -516461.75, -68916.2, 0.0, 10.000173, 9.998511 
1.3050751e+3, 2.6432842e+2, -435560.63, -512247.88, 33310.99, 0.06968085, -0.2606283, -423111.97, -73550.07, 0.000000019202236, 9.9998865, 9.9988785 
1.3050927e+3, 2.7432877e+2, -407204.94, -431934.25, 39248.895, 0.28731558, -0.13777605, -378419.16, -126862.195, 0.0000058574187, 9.999334, 9.999024 
1.3051075e+3, 2.8432757e+2, -304426.75, -338206.6, 15257.91, 0.27694276, -0.15312512, -298555.44, -144987.39, 0.00006594774, 9.999401, 9.99896 
1.3051191e+3, 2.9432437e+2, -68150.14, -170902.31, -31069.443, -0.015936831, -0.392339, -59486.137, -3886.4717, 0.00028478247, 10.000337, 9.998984 
1.3051343e+3, 3.043242e+2, -55644.0, -142977.64, 19566.656, -0.070836395, -0.2945616, -51460.586, -51460.586, 0.00072544854, 10.00009, 9.998975 
1.305154e+3, 3.1432545e+2, -220197.05, -58000.582, -79932.38, 0.253755, -0.10508062, -25229.99, -25229.99, 0.0013484193, 9.998227, 10.000453 
1.3148695e+3, 1.2432854e+2, -1569553.8, -1587187.5, -166123.81, -0.18014535, -0.29891917, -1412013.0, 309547.56, 0.005819013, 10.000721, 10.000529 
1.3148883e+3, 1.3432878e+2, -1439438.0, -1555809.6, 26443.305, 0.13651785, -0.25193316, -1433711.1, 189839.36, 0.0032902497, 10.00131, 9.999788 
1.3149041e+3, 1.4432774e+2, -1410064.9, -1642453.4, -25217.566, 0.08467442, -0.2751013, -1407359.9, 118197.664, 0.0013013786, 10.00149, 9.998428 
1.314918e+3, 1.5432514e+2, -1349247.8, -1575531.0, -79810.03, 0.04341071, -0.37560415, -1323931.3, 103654.39, 0.00026992275, 10.001295, 9.998305 
1.3149324e+3, 1.6432384e+2, -1228921.1, -1404949.3, -74579.19, 0.045509562, -0.3543547, -1201572.6, 128027.09, 0.00001153221, 10.001173, 9.998866 
1.3149472e+3, 1.7432429e+2, -1111976.3, -1275953.3, -16716.465, 0.07534923, -0.22307323, -1110289.5, 121305.25, 0.0, 10.001214, 9.999056 
1.314962e+3, 1.8432356e+2, -1050901.1, -1196231.0, -381.90768, 0.08888328, -0.1977282, -1050900.1, 82701.12, 0.0, 10.000957, 9.999054 
1.3149767e+3, 1.9432124e+2, -1036047.06, -1127997.9, -27632.797, 0.078274176, -0.3549334, -1028381.94, 7240.8306, 0.0, 10.000341, 9.999146 
1.3149907e+3, 2.0432034e+2, -957882.8, -1035950.44, -66180.67, 0.04854449, -0.3540652, -920082.25, 17548.367, 0.0, 10.000196, 9.999173 
1.3150041e+3, 2.1432127e+2, -774520.6, -882646.2, -9930.66, 0.0023453168, -0.20004012, -773616.1, 66004.69, 0.0, 10.000722, 9.9993 
1.3150178e+3, 2.2432e+2, -738373.4, -943552.3, -9486.553, 0.016992453, -0.19942473, -737935.7, 3698.5085, 0.0, 10.000848, 9.998151 
1.3150324e+3, 2.3431574e+2, -702683.25, -875020.4, -40228.64, 0.114396416, -0.45336887, -693755.2, -50076.61, 0.0, 10.000416, 9.998156 
1.3150471e+3, 2.4431397e+2, -602341.1, -707480.94, -25902.6, 0.19200005, -0.46710882, -596306.06, -50608.01, 0.0, 10.000136, 9.998769 
1.3150623e+3, 2.543156e+2, -497049.78, -587265.44, 824.46826, 0.24800049, -0.20726189, -497042.25, -49358.74, 0.0, 10.000101, 9.99894 
1.3150766e+3, 2.6431543e+2, -418305.4, -463203.28, 8839.52, 0.2066482, -0.12751995, -416627.78, -66943.73, 0.000000054232096, 9.999827, 9.999245 
1.3150896e+3, 2.7431262e+2, -393172.2, -388145.38, 27864.951, 0.04338513, -0.35537437, -362680.72, -110973.836, 0.0000056747863, 9.999277, 9.999351 
1.3151047e+3, 2.8431076e+2, -374652.8, -482340.84, 42668.895, 0.040504746, -0.40731934, -359795.94, -206071.16, 0.00007077781, 9.999384, 9.997983 
1.3151222e+3, 2.9431045e+2, -152135.84, -329713.4, 16581.67, 0.24199684, -0.25188518, -150600.77, -94867.88, 0.0003102898, 10.000262, 9.997936 
1.3151376e+3, 3.043102e+2, -80492.03, -176663.67, -43662.145, 0.2426341, -0.10005619, -63626.88, -63626.88, 0.0007935088, 10.000023, 9.99877 
1.3151509e+3, 3.1430718e+2, -283348.7, -157411.13, -128945.164, 0.1037689, -0.31597728, -76881.05, -76881.05, 0.00147785, 9.998115, 9.999816 
1.3248703e+3, 1.24313876e+2, -1388858.9, -1519674.9, 26283.904, -0.2192677, -0.21205133, -1383775.4, 337930.03, 0.006183249, 10.002032, 10.000373 
1.32489e+3, 1.3431235e+2, -1394227.6, -1551990.3, 49843.336, 0.15641485, -0.32358664, -1379799.6, 243911.92, 0.0035072896, 10.001716, 9.999608 
1.3249052e+3, 1.4431155e+2, -1430012.4, -1609746.0, -22419.87, 0.060160093, -0.33154216, -1427257.9, 98458.41, 0.0013982238, 10.001176, 9.998799 
1.3249186e+3, 1.5431055e+2, -1404027.5, -1556415.4, 551.235, 0.005701862, -0.31420165, -1404025.5, 23704.613, 0.00029637254, 10.000723, 9.998713 
1.324933e+3, 1.6430993e+2, -1272905.8, -1389388.1, 61370.313, 0.025514476, -0.26090813, -1246539.9, 83197.086, 0.000014169166, 10.000714, 9.999189 
1.3249487e+3, 1.7430986e+2, -1087107.9, -1231208.3, 33899.824, 0.09710021, -0.21438345, -1079531.3, 152203.56, 0.0, 10.001245, 9.999345 
1.3249633e+3, 1.8430856e+2, -1035063.2, -1236022.6, -2245.752, 0.11068676, -0.23958513, -1035038.1, 98707.76, 0.0, 10.001278, 9.998623 
1.3249768e+3, 1.9430576e+2, -1018420.2, -1172715.0, -14319.305, 0.050568484, -0.39826185, -1017102.5, 18671.088, 0.0, 10.000698, 9.998664 
1.3249905e+3, 2.0430495e+2, -918246.0, -956089.44, -25274.059, 0.011405099, -0.38726237, -905595.44, 32185.15, 0.0, 10.000204, 9.999719 
1.3250041e+3, 2.1430677e+2, -868678.8, -858590.25, -37595.27, 0.0039259745, -0.2067728, -825702.4, 14058.072, 0.0, 9.999774, 9.999923 
1.3250184e+3, 2.2430576e+2, -905323.2, -1038200.1, -32444.537, 0.045938626, -0.20408252, -897824.4, -156053.83, 0.0, 9.999777, 9.998012 
1.325033e+3, 2.3430109e+2, -715925.1, -897683.5, -17301.639, 0.15232313, -0.48233852, -714292.9, -70472.6, 0.0, 10.000413, 9.997994 
1.3250479e+3, 2.4429932e+2, -474206.4, -611211.75, 43287.3, 0.23022215, -0.50170016, -461675.7, 84163.89, 0.0, 10.000864, 9.999079 
1.3250631e+3, 2.543015e+2, -336338.72, -466980.66, 51435.406, 0.2692083, -0.22557376, -318518.66, 129299.516, 0.0, 10.001027, 9.999316 
1.3250773e+3, 2.6430127e+2, -271111.5, -441832.6, 26012.598, 0.23427568, -0.14953054, -267235.97, 82582.875, 0.00000008813443, 10.00105, 9.998808 
1.3250904e+3, 2.7429765e+2, -186313.17, -343877.4, -30557.719, 0.10759066, -0.40563717, -180594.42, 71256.69, 0.000005758402, 10.000927, 9.998869 
1.3251053e+3, 2.8429568e+2, -207221.42, -390541.66, 16153.864, 0.11305057, -0.44743773, -205808.84, -51938.51, 0.000075127005, 10.000494, 9.998076 
1.3251224e+3, 2.9429612e+2, -206105.83, -335605.34, 61486.324, 0.2741026, -0.2328687, -181563.38, -125693.79, 0.00033054428, 9.999807, 9.998112 
1.3251376e+3, 3.0429557e+2, -111725.56, -213830.03, 50775.934, 0.25181282, -0.11420056, -90774.15, -90774.15, 0.00084821245, 9.99991, 9.998568 
1.325151e+3, 3.142916e+2, 102479.75, -37237.406, -63909.1, 0.16946024, -0.3973609, 127302.72, 127302.72, 0.0015816313, 10.001031, 9.999246 
1.3348736e+3, 1.24301635e+2, -1502306.9, -1753354.1, 75421.414, -0.12807077, -0.05419485, -1481390.9, 240430.95, 0.0065457188, 10.002036, 9.998755 
1.3348906e+3, 1.3429569e+2, -1498045.6, -1764994.6, 32969.46, 0.035179537, -0.46039292, -1494034.0, 129842.05, 0.0037237175, 10.001709, 9.998145 
1.3349044e+3, 1.4429498e+2, -1333021.4, -1407642.4, -46896.895, -0.13830575, -0.4432123, -1310403.6, 215477.22, 0.0014951822, 10.001165, 10.000196 
1.334918e+3, 1.5429881e+2, -1285536.1, -1313727.4, -7830.4146, -0.13892713, -0.10676689, -1283507.1, 144336.47, 0.00032323142, 10.000727, 10.0003805 
1.334933e+3, 1.6429879e+2, -1315290.5, -1473165.1, 73281.65, -0.06539965, -0.059867132, -1286518.5, 43323.902, 0.000017128494, 10.000696, 9.998626 
1.3349493e+3, 1.742939e+2, -1142341.1, -1341245.8, 58150.89, 0.04301496, -0.41873237, -1126588.1, 105298.24, 0.00000000003443261, 10.001227, 9.998597 
1.3349642e+3, 1.8429136e+2, -1046367.44, -1260170.0, -27865.348, 0.06315826, -0.5207803, -1042795.4, 91114.8, 0.0, 10.001275, 9.998462 
1.3349771e+3, 1.9429182e+2, -1025690.2, -1186390.4, -30109.506, -0.003990892, -0.34436586, -1020234.0, 15674.439, 0.0, 10.000686, 9.998578 
1.3349904e+3, 2.0429142e+2, -934736.6, -979467.6, -49166.383, -0.018586798, -0.28268194, -903087.8, 34824.51, 0.0, 10.000157, 9.999579 
1.3350043e+3, 2.1428989e+2, -892192.4, -890929.0, -49070.03, 0.029415375, -0.4214709, -842486.6, -2562.6199, 0.0, 9.999699, 9.999741 
1.3350189e+3, 2.2428912e+2, -878260.56, -965677.8, -16436.822, 0.117027074, -0.40845287, -875272.2, -133340.27, 0.0, 9.9997015, 9.998548 
1.3350348e+3, 2.342895e+2, -683084.0, -816568.3, 14631.715, 0.26768583, -0.23936728, -681499.0, -37565.16, 0.0, 10.00035, 9.998585 
1.3350493e+3, 2.4428912e+2, -459912.88, -565827.1, 44395.484, 0.26472607, -0.1691192, -443765.63, 102173.59, 0.0, 10.000797, 9.999422 
1.3350622e+3, 2.542877e+2, -324871.47, -430101.0, 62942.574, 0.06739133, -0.28321907, -295449.16, 152500.61, 0.0, 10.000968, 9.999598 
1.335077e+3, 2.6428595e+2, -363116.72, -622942.5, 16492.43, 0.096241914, -0.3172235, -362074.03, -12107.69, 0.00000008397673, 10.001003, 9.997587 
1.3350944e+3, 2.7428383e+2, -291148.94, -542124.0, -25313.84, 0.42073792, -0.2968665, -288621.2, -36630.555, 0.0000056271715, 10.000844, 9.997548 
1.3351092e+3, 2.8428227e+2, -136668.0, -234831.52, -13782.615, 0.43162218, -0.27637455, -134769.56, 19236.422, 0.000076498116, 10.000448, 9.999169 
1.33512e+3, 2.9428145e+2, -126831.81, -155709.0, 45709.73, 0.04051, -0.31166214, -93334.484, -37325.168, 0.00034050437, 9.999737, 9.999386 
1.3351342e+3, 3.042804e+2, -129947.01, -234097.36, 89989.0, -0.08813606, -0.30584213, -78051.78, -78051.78, 0.000882415, 9.9998455, 9.998452 
1.335154e+3, 3.1427848e+2, 40192.58, -121722.96, 2937.337, 0.34552872, -0.3617894, 40245.848, 40245.848, 0.0016524311, 10.000852, 9.998746 
1.3448761e+3, 1.2428662e+2, -1581170.5, -1786258.9, 37478.45, -0.042421766, -0.061890103, -1574536.3, 147431.52, 0.0069055543, 10.001473, 9.998796 
1.3448906e+3, 1.3428138e+2, -1646284.5, -1799951.6, 60228.26, -0.07610492, -0.4303575, -1625492.0, -1476.2806, 0.0039389143, 10.000524, 9.998485 
1.3449042e+3, 1.4428097e+2, -1508907.6, -1500490.4, 37437.89, -0.21428694, -0.39869136, -1467025.3, 58992.64, 0.0015916337, 9.999993, 10.000121 
1.3449188e+3, 1.5428406e+2, -1334163.0, -1347698.6, -67827.195, -0.11587833, -0.12825364, -1272766.8, 155220.39, 0.0003501717, 10.000452, 10.000271 
1.3449341e+3, 1.642836e+2, -1333134.3, -1487385.9, -24214.156, -0.015255108, -0.11499826, -1329422.5, 567.1178, 0.000020254476, 10.0006075, 9.998566 
1.3449499e+3, 1.7427869e+2, -1280289.6, -1413991.1, 1259.0231, 0.015541457, -0.4698619, -1280277.8, -48243.914, 0.0000000014653116, 10.000312, 9.998538 
1.3449645e+3, 1.8427652e+2, -1143026.8, -1262541.6, -30079.016, 0.0027839558, -0.5485071, -1135883.5, -1829.564, 0.0, 10.000424, 9.998854 
1.3449775e+3, 1.9427793e+2, -934929.8, -1095152.4, -8304.297, -0.047791738, -0.3178998, -934500.56, 101541.93, 0.0, 10.001111, 9.998998 
1.3449912e+3, 2.0427747e+2, -773563.5, -973028.06, -19133.89, -0.024867339, -0.25446287, -771744.6, 166303.23, 0.0, 10.001574, 9.998942 
1.3450056e+3, 2.1427457e+2, -645115.6, -844792.6, -73442.43, 0.08780219, -0.46191487, -621012.56, 219062.84, 0.0, 10.001721, 9.999074 
1.3450201e+3, 2.2427374e+2, -576026.25, -746899.8, -41790.086, 0.17421518, -0.45096785, -566353.3, 175730.64, 0.0, 10.001453, 9.999208 
1.3450348e+3, 2.3427574e+2, -583276.3, -680912.0, -7373.87, 0.23225951, -0.19643672, -582722.56, 61344.16, 0.0, 10.000654, 9.999371 
1.3450493e+3, 2.4427564e+2, -582824.75, -672914.7, 19277.78, 0.21843964, -0.11901287, -578872.94, -32804.594, 0.0, 10.000171, 9.998987 
1.3450631e+3, 2.5427273e+2, -482096.1, -563183.1, -35895.813, 0.112547435, -0.33063993, -468489.03, -20393.223, 0.0, 10.000147, 9.99908 
1.3450782e+3, 2.6427072e+2, -431940.9, -606085.75, -41952.8, 0.15712199, -0.38255444, -422361.16, -72245.64, 0.00000006157407, 10.000322, 9.998026 
1.345095e+3, 2.7426997e+2, -255551.58, -463781.34, 34946.492, 0.3969461, -0.27828756, -249843.11, 2281.8667, 0.0000055913592, 10.00083, 9.998084 
1.3451093e+3, 2.8426886e+2, -68194.89, -190820.16, 72467.92, 0.40412533, -0.24618544, -34582.086, 119552.48, 0.00007685254, 10.000872, 9.9992695 
1.3451207e+3, 2.9426733e+2, -22256.682, -88342.555, 25566.336, 0.10585637, -0.36135447, -13520.758, 42622.953, 0.00034429008, 10.000384, 9.999534 
1.3451347e+3, 3.0426568e+2, -77198.54, -178974.81, 83871.91, -0.027575113, -0.43768197, -29984.19, -29984.19, 0.00089966063, 10.000052, 9.998746 
1.3451542e+3, 3.14265e+2, -87726.08, -144986.45, 26287.29, 0.3355964, -0.40109327, -77488.42, -77488.42, 0.0016932157, 9.999803, 9.999087 
1.3548782e+3, 1.2426847e+2, -1469067.3, -1538192.8, 18813.262, -0.00014923232, -0.28912377, -1464278.8, 257868.2, 0.0072628423, 10.001427, 10.000525 
1.3548897e+3, 1.3426962e+2, -1493087.5, -1473260.4, 25226.25, -0.22454813, -0.24344821, -1456069.6, 168059.58, 0.004152666, 10.000498, 10.00074 
1.3549043e+3, 1.4426984e+2, -1631147.3, -1752023.1, 45327.55, -0.21553773, -0.1866601, -1616038.4, -89914.07, 0.0016872559, 9.999978, 9.998405 
1.3549207e+3, 1.5426634e+2, -1471085.6, -1636906.5, -43737.67, 0.025958665, -0.37593216, -1460256.4, -32096.65, 0.0003769789, 10.000465, 9.998283 
1.3549362e+3, 1.6426425e+2, -1298703.5, -1419184.1, -40967.918, 0.12816156, -0.4414447, -1286092.8, 44086.98, 0.000023370363, 10.000616, 9.999034 
1.3549498e+3, 1.7426416e+2, -1236079.8, -1319663.4, -4615.181, -0.024417661, -0.38032213, -1235825.6, -3647.6523, 0.0000000068048798, 10.000295, 9.999198 
1.3549636e+3, 1.8426414e+2, -1085033.3, -1138504.0, -13252.778, -0.12775712, -0.31808764, -1081928.8, 52247.477, 0.0, 10.000406, 9.999714 
1.354978e+3, 1.9426419e+2, -876554.75, -970760.06, 22466.92, -0.1377784, -0.31121176, -871470.94, 164704.06, 0.0, 10.00109, 9.999865 
1.3549925e+3, 2.0426314e+2, -853019.5, -1131302.3, -19428.326, -0.058244657, -0.30348164, -851669.6, 86517.35, 0.0, 10.00154, 9.997874 
1.3550079e+3, 2.1426076e+2, -739469.8, -1028620.5, -62184.76, 0.13491835, -0.33689272, -726663.56, 113551.89, 0.0, 10.001662, 9.997846 
1.3550216e+3, 2.2425956e+2, -530974.5, -632259.56, -76952.96, 0.17055066, -0.33505252, -489495.22, 252732.3, 0.0, 10.001367, 10.000035 
1.3550334e+3, 2.3425995e+2, -525872.1, -545935.44, -32278.574, 0.0013602613, -0.33923286, -502102.28, 142115.66, 0.0, 10.000585, 10.000332 
1.3550478e+3, 2.4425907e+2, -674623.75, -848646.5, 10244.912, 0.041754227, -0.33656418, -674022.7, -127796.836, 0.0, 10.000104, 9.997815 
1.3550659e+3, 2.5425658e+2, -586283.7, -764441.44, -28735.355, 0.3567686, -0.37167224, -581763.6, -133507.2, 0.0, 10.00008, 9.997732 
1.3550808e+3, 2.6425543e+2, -299054.4, -317861.34, -29665.53, 0.37125275, -0.3572041, -277337.63, 72930.38, 0.000000036385206, 10.000267, 10.000033 
1.355092e+3, 2.7425608e+2, -109310.516, -139879.08, 60793.195, 0.00034092512, -0.33932966, -61909.695, 190345.28, 0.000005925218, 10.000743, 10.000353 
1.3551062e+3, 2.842555e+2, -135661.97, -317573.44, 49648.082, -0.023020681, -0.33623478, -122993.97, 31262.29, 0.00007723303, 10.000814, 9.998424 
1.3551241e+3, 2.9425344e+2, -115267.984, -261631.9, 16447.223, 0.40109545, -0.3958939, -113442.54, -57166.62, 0.00034439715, 10.000296, 9.998388 
1.3551389e+3, 3.0425104e+2, -37379.867, -71251.53, 69242.836, 0.36938044, -0.5187295, 16968.191, 16968.191, 0.0009018357, 9.999962, 9.99952 
1.3551514e+3, 3.1425107e+2, -38440.53, -2024.4672, 43068.258, 0.05593524, -0.50629336, 26526.533, 26526.533, 0.0017008643, 9.999648, 10.000137 
1.3648795e+3, 1.2425281e+2, -1592913.0, -1577641.5, 35096.746, 0.018059429, -0.31771868, -1549359.5, 172942.72, 0.0076198755, 10.000453, 10.000732 
1.3648893e+3, 1.3425581e+2, -1574286.6, -1464109.3, -113720.58, -0.27578554, -0.13323888, -1392836.8, 231431.13, 0.004366158, 9.999709, 10.00119 
1.3649051e+3, 1.4425598e+2, -1655268.4, -1766298.1, -24173.592, -0.12614289, -0.10460341, -1650233.6, -123970.52, 0.0017823466, 9.999834, 9.998373 
1.364922e+3, 1.5425108e+2, -1315289.0, -1570434.0, 31165.518, 0.05897335, -0.42511243, -1311537.4, 116771.99, 0.0004035849, 10.001578, 9.998202 
1.3649376e+3, 1.6424863e+2, -1102592.8, -1317739.4, 38793.664, 0.13269159, -0.5259175, -1095811.5, 234520.39, 0.000026350568, 10.001925, 9.999098 
1.3649504e+3, 1.7424962e+2, -1214947.5, -1298476.5, 12383.293, -0.009114944, -0.36682853, -1213150.4, 19170.402, 0.000000016360648, 10.000392, 9.999292 
1.364964e+3, 1.8424998e+2, -1188616.6, -1183187.4, 17998.107, -0.0996812, -0.27454913, -1167700.4, -33384.617, 0.0, 9.999674, 9.99976 
1.3649787e+3, 1.9424945e+2, -1017551.2, -1029027.2, -13092.184, -0.099864975, -0.33181795, -1008994.8, 27324.863, 0.0, 10.000087, 9.999944 
1.3649936e+3, 2.042485e+2, -1012576.2, -1171642.9, -47910.72, -0.039636213, -0.33404586, -999260.25, -60930.293, 0.0, 10.000295, 9.998194 
1.3650084e+3, 2.1424714e+2, -926831.8, -1079947.3, 12714.356, 0.092368685, -0.2993688, -925783.2, -85435.69, 0.0, 10.000215, 9.998187 
1.3650219e+3, 2.2424589e+2, -699131.3, -779394.44, 22569.955, 0.11483868, -0.2931948, -693220.0, 49140.465, 0.0, 10.000499, 9.999441 
1.3650341e+3, 2.3424484e+2, -482850.1, -598404.56, -68488.17, -0.00008436358, -0.3762454, -451023.53, 193343.69, 0.0, 10.0012, 9.999675 
1.3650489e+3, 2.4424362e+2, -477636.47, -715839.9, -38432.71, 0.07501061, -0.38748783, -471589.13, 74789.63, 0.0, 10.001299, 9.998145 
1.3650665e+3, 2.542422e+2, -476941.3, -663405.4, 37906.88, 0.39364776, -0.35538527, -469529.7, -21133.326, 0.0, 10.000626, 9.998157 
1.3650812e+3, 2.6424128e+2, -285279.1, -325336.72, 75979.58, 0.37199324, -0.33874878, -226732.78, 123672.234, 0.000000033203506, 10.000426, 9.999905 
1.3650918e+3, 2.7424097e+2, -98373.75, -151136.52, -24031.873, -0.09198998, -0.39907077, -89068.89, 163332.84, 0.000006027052, 10.000891, 10.000204 
1.365106e+3, 2.8424034e+2, -157012.33, -309829.75, -131314.4, -0.10249837, -0.40135536, -81494.21, 72910.37, 0.00007556622, 10.000607, 9.998572 
1.3651247e+3, 2.9423928e+2, -227920.52, -288341.84, -87957.19, 0.47478613, -0.37699312, -165130.36, -108715.06, 0.00033622416, 9.999419, 9.998618 
1.3651393e+3, 3.0423695e+2, -106377.086, -137407.61, 60207.227, 0.4612365, -0.49569938, -59718.133, -59718.133, 0.0008816842, 9.999616, 9.999243 
1.365152e+3, 3.1423673e+2, 247818.77, 131292.55, -68424.77, 0.055341087, -0.46878785, 279425.22, 279425.22, 0.001665559, 10.001594, 10.000141 
1.3748792e+3, 1.242395e+2, -1700175.5, -1775616.1, -52713.793, -0.06641545, -0.17464018, -1673076.3, 49358.57, 0.0079810945, 10.000372, 9.999394 
1.3748889e+3, 1.3424005e+2, -1674893.6, -1665180.6, -141661.2, -0.2842428, -0.09413191, -1528292.6, 96138.36, 0.0045821774, 9.999682, 9.999817 
1.3749063e+3, 1.4423935e+2, -1537631.6, -1521944.6, 23245.57, 0.003505727, -0.1573973, -1505255.0, 21179.91, 0.0018779465, 9.99983, 10.000054 
1.3749225e+3, 1.5423824e+2, -1181882.4, -1295396.3, 105219.96, -0.06511114, -0.28831428, -1119087.6, 309348.75, 0.00043006244, 10.001584, 10.000091 
1.3749376e+3, 1.6423686e+2, -1126275.8, -1368041.0, -16398.156, -0.058834307, -0.36571237, -1125168.6, 205275.9, 0.000029160963, 10.001925, 9.9987545 
1.374951e+3, 1.7423524e+2, -1250901.5, -1373471.8, -41669.95, 0.008812726, -0.4159204, -1238076.9, -5616.551, 0.000000027808229, 10.000386, 9.998784 
1.3749652e+3, 1.8423411e+2, -1237120.0, -1284031.0, 21155.924, 0.03641626, -0.41522637, -1228988.5, -94516.82, 0.0, 9.999674, 9.999068 
1.3749802e+3, 1.9423363e+2, -1072500.0, -1139343.6, 6489.2876, 0.024295537, -0.39309323, -1071875.9, -35398.77, 0.0, 10.000064, 9.999203 
1.3749942e+3, 2.0423347e+2, -899691.5, -927441.56, -56440.234, -0.018379003, -0.35373023, -855445.9, 83031.63, 0.0, 10.000251, 9.999892 
1.3750067e+3, 2.1423376e+2, -803332.3, -810287.3, 15123.397, -0.09713565, -0.34392262, -791291.75, 49179.5, 0.0, 10.000152, 10.0000725 
1.3750209e+3, 2.2423281e+2, -849521.25, -1069180.8, 42216.86, -0.049635854, -0.32053435, -841686.9, -99204.69, 0.0, 10.000404, 9.997497 
1.3750371e+3, 2.3423034e+2, -654847.94, -936160.3, -33902.094, 0.17189449, -0.31704134, -650819.94, -6304.8423, 0.0, 10.001118, 9.997395 
1.3750522e+3, 2.4422914e+2, -364580.44, -465029.97, -66810.68, 0.26392147, -0.28439924, -331221.75, 215306.88, 0.0, 10.001226, 9.999904 
1.3750651e+3, 2.542296e+2, -337100.9, -360931.44, 17623.39, 0.18470898, -0.2760701, -327742.75, 120773.516, 0.0, 10.0005665, 10.000265 
1.3750792e+3, 2.6422828e+2, -444834.75, -644411.3, 84355.51, 0.1120575, -0.31269243, -413957.22, -63430.98, 0.000000022673568, 10.000376, 9.997737 
1.3750942e+3, 2.742246e+2, -291165.1, -528292.3, 1680.0656, 0.058481835, -0.45641622, -291153.2, -38587.543, 0.0000059199137, 10.0008, 9.997654 
1.375109e+3, 2.8422323e+2, -84720.19, -147835.52, -175469.69, 0.10848238, -0.44351885, 62007.035, 216586.89, 0.000072404306, 10.000549, 9.999716 
1.3751224e+3, 2.942249e+2, -135177.8, -81234.66, -121234.24, 0.28420317, -0.29447398, 15992.033, 72553.414, 0.00031917673, 9.9993515, 10.00008 
1.3751365e+3, 3.042233e+2, -204849.83, -328222.94, 123076.37, 0.1957489, -0.3590305, -128866.41, -128866.41, 0.0008366534, 9.999564, 9.9979515 
1.3751553e+3, 3.1422162e+2, 149000.56, -23566.377, 34788.28, 0.20586933, -0.32565215, 155749.67, 155749.67, 0.0015845374, 10.0014, 9.999158 
1.3848798e+3, 1.2422635e+2, -1989063.9, -1964728.1, 51567.566, 0.045914512, -0.16438022, -1923912.4, -201353.56, 0.008351057, 9.99858, 9.998972 
1.3848898e+3, 1.3422531e+2, -1455696.0, -1635864.9, 62589.848, -0.26341665, -0.17473651, -1436086.8, 188485.84, 0.004803759, 10.001517, 9.999137 
1.384908e+3, 1.4422403e+2, -1181031.0, -1318409.9, 173057.2, 0.074264824, -0.2731977, -1063529.6, 463053.6, 0.0019753822, 10.002144, 10.00034 
1.3849235e+3, 1.5422483e+2, -1407057.0, -1364074.1, 122641.79, -0.03374068, -0.24888344, -1261055.0, 167511.53, 0.00045665295, 9.999869, 10.000444 
1.3849384e+3, 1.6422425e+2, -1508780.5, -1558573.0, -22669.855, -0.048326176, -0.26187566, -1500005.6, -169437.94, 0.00003186285, 9.999339, 9.99869 
1.384952e+3, 1.7422196e+2, -1131790.3, -1326356.1, -27709.4, 0.028370425, -0.36898333, -1127920.9, 104670.34, 0.000000039188958, 10.001258, 9.998685 
1.3849662e+3, 1.8422022e+2, -955715.7, -1188348.0, 51010.496, 0.07727501, -0.40765607, -945021.94, 189587.14, 0.0, 10.001777, 9.998714 
1.3849811e+3, 1.9421935e+2, -1045104.3, -1163817.8, 50680.973, 0.08803482, -0.38945267, -1026411.2, 10206.534, 0.0, 10.0004225, 9.99886 
1.384995e+3, 2.042189e+2, -927418.25, -930297.4, -7962.073, 0.051154617, -0.36681986, -920766.6, 17853.52, 0.0, 10.000011, 9.999987 
1.3850078e+3, 2.1421893e+2, -681885.4, -732954.25, -77187.625, -0.041353233, -0.39375746, -626118.3, 214496.42, 0.0, 10.000905, 10.000238 
1.385022e+3, 2.2421816e+2, -763721.4, -1031162.25, -61224.516, -0.0038200703, -0.362716, -750371.75, -7747.7715, 0.0, 10.001001, 9.997476 
1.385038e+3, 2.342163e+2, -807306.0, -1013514.2, 14607.595, 0.21076594, -0.29268223, -806276.4, -161624.23, 0.0, 10.00008, 9.997367 
1.3850528e+3, 2.4421519e+2, -540871.9, -569175.56, 38253.87, 0.27684286, -0.24138534, -514236.03, 32429.633, 0.0, 10.000104, 9.999726 
1.3850656e+3, 2.542151e+2, -213801.22, -317697.4, -59942.44, 0.14086802, -0.2714885, -186429.08, 262230.03, 0.0, 10.001496, 10.000108 
1.3850798e+3, 2.6421356e+2, -273509.34, -574048.56, -38636.33, 0.08580981, -0.3142388, -268621.88, 82049.77, 0.0000000049794013, 10.001609, 9.997624 
1.3850956e+3, 2.7421016e+2, -406298.84, -594449.2, 42940.836, 0.15127358, -0.42236683, -396961.97, -144252.34, 0.0000059839426, 10.00005, 9.997561 
1.3851099e+3, 2.8420883e+2, -227192.89, -266934.66, -50396.324, 0.19937804, -0.38065624, -192891.44, -38166.438, 0.00006977907, 9.99979, 9.999261 
1.3851218e+3, 2.9421023e+2, 128272.35, -4.4371347, -150833.6, 0.19702546, -0.21191238, 228037.9, 284748.97, 0.0002993371, 10.001369, 9.999657 
1.3851358e+3, 3.0420855e+2, 71750.66, -235335.89, 60004.363, 0.07267377, -0.24285589, 83059.016, 83059.016, 0.00078111177, 10.001648, 9.99758 
1.3851567e+3, 3.1420627e+2, -12705.671, -91058.1, 50322.21, 0.26326916, -0.24029581, 11891.9375, 11891.9375, 0.0014819879, 10.000236, 9.999254 
1.3948806e+3, 1.2421312e+2, -1958509.0, -1873493.0, 58864.914, 0.25322735, -0.32558072, -1843392.4, -120716.055, 0.008733579, 9.998479, 9.999637 
1.3948913e+3, 1.3421161e+2, -1453115.5, -1632113.1, 180076.52, -0.25863817, -0.38971496, -1341523.3, 283168.34, 0.005033633, 10.001523, 9.999162 
1.3949099e+3, 1.4421012e+2, -1258692.0, -1480943.6, 90461.61, 0.034327168, -0.4598739, -1226527.0, 300179.75, 0.002076125, 10.00215, 9.99922 
1.3949247e+3, 1.5421098e+2, -1497128.6, -1544089.4, 41770.574, 0.092493385, -0.30542946, -1472691.3, -43992.797, 0.00048381835, 9.999839, 9.999222 
1.3949393e+3, 1.6421086e+2, -1497128.1, -1534671.1, 30973.854, 0.10526421, -0.21579283, -1479681.5, -148980.86, 0.000034571214, 9.999332, 9.998861 
1.3949531e+3, 1.7420967e+2, -1113969.5, -1288105.8, 50355.277, 0.010330143, -0.24184011, -1100456.8, 132257.9, 0.00000005013657, 10.001246, 9.998958 
1.394967e+3, 1.8420832e+2, -952410.2, -1183423.4, 1620.8228, -0.02644084, -0.25662673, -952398.8, 182329.1, 0.0, 10.001782, 9.998745 
1.3949811e+3, 1.9420664e+2, -1047036.3, -1164592.8, 3188.4297, 0.036922377, -0.3200532, -1046949.9, -10208.798, 0.0, 10.000401, 9.998868 
1.3949959e+3, 2.0420474e+2, -1035482.4, -1143730.5, 13036.326, 0.115417756, -0.3750426, -1033934.56, -95176.734, 0.0, 9.999967, 9.998543 
1.3950112e+3, 2.1420267e+2, -804359.94, -971352.25, -38111.152, 0.20713781, -0.45552084, -796073.4, 44704.883, 0.0, 10.000835, 9.998636 
1.3950251e+3, 2.2420187e+2, -640967.25, -763626.56, -97198.586, 0.1992276, -0.4238608, -587366.94, 155419.6, 0.0, 10.00094, 9.999343 
1.3950369e+3, 2.3420279e+2, -663153.75, -700195.6, -13724.412, 0.07051305, -0.29810077, -658622.9, -13844.642, 0.0, 10.000014, 9.999551 
1.3950509e+3, 2.4420193e+2, -693557.6, -872216.9, 77636.0, 0.060726408, -0.24599516, -664535.5, -117746.72, 0.0, 10.000042, 9.997676 
1.395068e+3, 2.5419873e+2, -401507.22, -684548.25, 503.57578, 0.20953587, -0.3435836, -401506.34, 47318.24, 0.0, 10.0014, 9.997635 
1.395083e+3, 2.6419705e+2, -151186.95, -305531.2, -92682.82, 0.2430743, -0.35003003, -107753.766, 243088.38, 0.0000000011462398, 10.001541, 9.999503 
1.3950956e+3, 2.741976e+2, -257715.38, -270163.88, -7888.0244, 0.13900578, -0.2908044, -253891.63, -1057.4768, 0.000005942459, 9.999979, 9.9998255 
1.3951088e+3, 2.8419715e+2, -372267.6, -559111.6, -4985.143, 0.10866512, -0.19260761, -372134.7, -217295.1, 0.000067021225, 9.999748, 9.997275 
1.3951229e+3, 2.9419523e+2, -52838.71, -361550.72, -80675.875, 0.15200025, -0.12090387, -33027.063, 23838.002, 0.0002811343, 10.001301, 9.99721 
1.395137e+3, 3.0419257e+2, 107993.336, -144934.5, 12937.1455, 0.026906496, -0.1450762, 108653.34, 108653.34, 0.00073367514, 10.001586, 9.998227 
1.3951558e+3, 3.1419048e+2, 40173.66, 56828.234, 30798.55, 0.14169331, -0.21256965, 80405.41, 80405.41, 0.0013956741, 10.000076, 10.00035 
1.4048804e+3, 1.24198824e+2, -1587711.1, -1665177.1, -93508.9, 0.27985778, -0.3841574, -1525230.6, 197581.78, 0.009133226, 10.000894, 9.999906 
1.4048934e+3, 1.341971e+2, -1552006.9, -1687845.1, 70992.49, -0.17642272, -0.46590135, -1521676.5, 103151.29, 0.005275387, 10.000873, 9.99909 
1.4049117e+3, 1.4419577e+2, -1470902.9, -1642672.1, -77766.25, 0.06512624, -0.49075657, -1440926.6, 85915.5, 0.0021822979, 10.000944, 9.998686 
1.4049256e+3, 1.5419577e+2, -1320694.9, -1524910.1, -98980.46, 0.11936804, -0.36566138, -1280594.6, 148252.2, 0.00051218417, 10.001329, 9.998635 
1.4049399e+3, 1.6419564e+2, -1192939.1, -1345766.3, -7284.4673, 0.12789412, -0.26173043, -1192592.8, 138258.4, 0.000037386584, 10.001244, 9.999235 
1.4049543e+3, 1.741955e+2, -1173793.8, -1264594.8, 16649.494, 0.041568328, -0.23020111, -1170837.1, 62016.082, 0.00000006103049, 10.000609, 9.999426 
1.4049688e+3, 1.8419452e+2, -1099581.5, -1260445.8, -34681.4, 0.014129048, -0.22855875, -1092422.9, 42439.152, 0.0, 10.000808, 9.998683 
1.4049828e+3, 1.9419241e+2, -784897.94, -1046634.06, -56521.11, 0.07759088, -0.3257602, -773213.94, 263666.1, 0.0, 10.002245, 9.998784 
1.4049973e+3, 2.041903e+2, -693359.06, -1019278.56, -13788.236, 0.14996289, -0.3827891, -692776.75, 246123.5, 0.0, 10.002488, 9.998185 
1.4050125e+3, 2.1418834e+2, -785452.1, -1002141.56, 13960.706, 0.22704566, -0.41522023, -784556.4, 56365.293, 0.0, 10.001142, 9.998277 
1.4050259e+3, 2.2418757e+2, -658424.44, -714884.56, -26189.67, 0.20658052, -0.38486558, -648146.9, 94782.0, 0.0, 10.00059, 9.99984 
1.4050373e+3, 2.3418833e+2, -450674.3, -527926.25, -76071.54, 0.06180991, -0.3306384, -403984.13, 240932.89, 0.0, 10.001188, 10.000161 
1.4050514e+3, 2.4418737e+2, -563042.44, -854495.2, 30033.143, 0.051711008, -0.30541858, -559979.8, -13052.205, 0.0, 10.001127, 9.997277 
1.4050688e+3, 2.54184e+2, -609129.5, -836415.1, 87677.12, 0.21051916, -0.36852056, -579238.5, -130270.1, 0.0, 10.000189, 9.997178 
1.4050841e+3, 2.6418254e+2, -356197.84, -416458.4, 11124.536, 0.2670746, -0.33024982, -354209.78, -3222.832, 0.0000000047036606, 10.000188, 9.999391 
1.405097e+3, 2.7418372e+2, -30514.719, -166328.45, -94647.234, 0.20027526, -0.19757143, 18066.361, 271039.9, 0.0000060153247, 10.001569, 9.99977 
1.4051104e+3, 2.84183e+2, -54531.72, -424878.56, -95098.95, 0.16668917, -0.11622116, -31539.322, 123441.805, 0.00006434686, 10.002018, 9.997102 
1.405124e+3, 2.9417953e+2, -78715.266, -391630.16, -23862.168, 0.1516225, -0.17635494, -76906.055, -19887.412, 0.000270618, 10.001201, 9.997051 
1.4051381e+3, 3.0417684e+2, -20839.086, -211895.3, 113735.234, 0.011245498, -0.19405955, 32163.35, 32163.35, 0.000709568, 10.0007105, 9.998201 
1.4051564e+3, 3.141749e+2, 152137.44, 121878.984, 51812.574, 0.16421252, -0.25087875, 190984.47, 190984.47, 0.0013524415, 10.000802, 10.000446 
1.414879e+3, 1.2418376e+2, -1600220.9, -1678301.8, -174086.25, 0.020076025, -0.32594395, -1460851.3, 262113.5, 0.009556688, 10.000854, 9.999833 
1.4148954e+3, 1.3418184e+2, -1574391.5, -1717679.9, 74439.07, -0.07663386, -0.40733674, -1542720.4, 82260.625, 0.0055341963, 10.000814, 9.998908 
1.4149132e+3, 1.4418101e+2, -1467441.1, -1639222.8, -74052.23, 0.10276165, -0.37306488, -1439925.8, 87063.77, 0.0022969088, 10.000946, 9.998716 
1.4149258e+3, 1.5417929e+2, -1315372.0, -1517235.3, -79812.31, -0.0046973084, -0.4261566, -1287628.9, 141382.19, 0.0005425403, 10.001339, 9.998687 
1.4149396e+3, 1.6417874e+2, -1149397.4, -1258097.8, -37167.402, -0.032636732, -0.39420715, -1137904.1, 193113.55, 0.000040406845, 10.001256, 9.999832 
1.4149554e+3, 1.7417957e+2, -1131808.3, -1169030.1, -2609.4158, 0.07173642, -0.32934514, -1131626.3, 101379.75, 0.00000007226826, 10.000574, 10.000099 
1.4149709e+3, 1.8417901e+2, -1112681.9, -1285733.1, 6428.6367, 0.14422095, -0.31619638, -1112443.4, 22566.79, 0.0, 10.000795, 9.998517 
1.414986e+3, 1.9417669e+2, -808462.0, -1089001.3, 3319.7039, 0.16000214, -0.40901697, -808422.7, 228612.19, 0.0, 10.002214, 9.99851 
1.4149995e+3, 2.0417552e+2, -643366.2, -910270.6, -65208.785, 0.10878829, -0.38965803, -628286.6, 310761.3, 0.0, 10.002461, 9.998947 
1.4150113e+3, 2.1417594e+2, -735844.44, -883309.4, -32381.467, -0.019918388, -0.27060992, -729047.2, 111997.79, 0.0, 10.001067, 9.999132 
1.4150243e+3, 2.2417518e+2, -730737.44, -843666.7, -16462.379, -0.027708892, -0.24626249, -728386.56, 14664.647, 0.0, 10.000499, 9.998999 
1.4150393e+3, 2.3417294e+2, -538510.5, -687807.3, -45927.31, 0.13380478, -0.39214757, -525513.6, 119555.234, 0.0, 10.001095, 9.999108 
1.4150539e+3, 2.4417144e+2, -479660.3, -673637.9, -5746.7705, 0.18748467, -0.41822192, -479490.22, 67592.414, 0.0, 10.001083, 9.998542 
1.4150679e+3, 2.5417098e+2, -510707.66, -623839.6, 58617.414, 0.09573665, -0.34294817, -485813.75, -36722.75, 0.0, 10.000146, 9.998661 
1.4150828e+3, 2.6417002e+2, -508473.72, -720563.1, 51642.242, 0.1092986, -0.23872016, -496567.6, -145461.88, 0.000000079284355, 10.000135, 9.997327 
1.4150995e+3, 2.741684e+2, -212981.5, -527465.56, -31133.877, 0.28097314, -0.14538133, -209928.89, 43199.555, 0.0000071917057, 10.001492, 9.997328 
1.415114e+3, 2.841662e+2, 53462.957, -192538.08, -121256.07, 0.3129378, -0.15423045, 103182.336, 258333.22, 0.00006590789, 10.001971, 9.998725 
1.4151253e+3, 2.941631e+2, 51656.223, -113180.37, -44585.813, 0.14185138, -0.37406746, 62943.156, 120116.18, 0.00027570056, 10.001148, 9.998999 
1.4151382e+3, 3.041614e+2, -83996.586, -316939.47, 109885.82, -0.035368282, -0.36842868, -40341.543, -40341.543, 0.00071893854, 10.000617, 9.997511 
1.4151579e+3, 3.1415942e+2, 43669.277, -61097.49, 82377.49, 0.22082189, -0.33937883, 88907.97, 88907.97, 0.0013634532, 10.000636, 9.999257 
1.4248796e+3, 1.2416852e+2, -1545928.5, -1633811.6, -175098.45, -0.025984513, -0.29221004, -1409342.1, 313776.16, 0.010011913, 10.001149, 10.000002 
1.4248975e+3, 1.3416699e+2, -1494730.1, -1624433.0, 126458.1, 0.045004282, -0.3840669, -1417464.1, 207664.8, 0.0058154534, 10.001122, 9.999409 
1.4249142e+3, 1.4416693e+2, -1446347.1, -1626834.5, 34609.2, 0.102305315, -0.3005636, -1439938.3, 87191.05, 0.002423067, 10.001106, 9.998714 
1.4249271e+3, 1.5416487e+2, -1322587.9, -1525898.1, 7247.0645, 0.00066354807, -0.38444978, -1322329.9, 106824.57, 0.00057589856, 10.001318, 9.998633 
1.424941e+3, 1.6416387e+2, -1159048.4, -1256737.4, 9079.278, -0.01983814, -0.39587036, -1158211.6, 172953.3, 0.00004378684, 10.001161, 9.999885 
1.4249563e+3, 1.7416432e+2, -1121633.9, -1153871.6, -16966.408, 0.10499145, -0.37742814, -1114350.3, 118805.17, 0.00000008454083, 10.000605, 10.000184 
1.424972e+3, 1.841639e+2, -1165985.8, -1279088.1, 43733.563, 0.18612659, -0.36993322, -1151048.0, -15890.296, 0.0, 10.000295, 9.9988 
1.4249876e+3, 1.9416241e+2, -1048187.7, -1167921.5, 76579.32, 0.18857375, -0.4118582, -1010851.5, 26323.188, 0.0, 10.000415, 9.998831 
1.425001e+3, 2.0416181e+2, -907556.0, -1025194.0, -21128.518, 0.1198467, -0.35732645, -903876.3, 35306.523, 0.0, 10.0006, 9.999053 
1.4250119e+3, 2.1416241e+2, -748792.94, -876071.06, -64415.21, -0.03479366, -0.2295987, -721882.3, 119296.55, 0.0, 10.000921, 9.999247 
1.4250247e+3, 2.2416143e+2, -678931.6, -852160.8, -25182.89, -0.04155573, -0.22108111, -675344.94, 67842.375, 0.0, 10.000988, 9.998708 
1.4250404e+3, 2.3415844e+2, -610688.2, -757734.1, -11366.981, 0.14856295, -0.41162065, -609814.7, 35396.676, 0.0, 10.000736, 9.998805 
1.4250551e+3, 2.4415663e+2, -520982.38, -688037.8, 19077.918, 0.20107363, -0.45379275, -518831.34, 28396.152, 0.0, 10.000799, 9.998576 
1.4250682e+3, 2.5415647e+2, -313097.4, -516817.7, -38886.957, 0.06120211, -0.35465583, -305926.9, 143305.73, 0.00000000006254562, 10.001468, 9.9987545 
1.4250828e+3, 2.6415548e+2, -335849.56, -654163.44, -18105.316, 0.039690007, -0.24741317, -334823.06, 16423.96, 0.00000036239143, 10.001393, 9.997177 
1.4250994e+3, 2.7415353e+2, -397289.94, -628521.8, 54726.016, 0.1920651, -0.17736788, -384991.9, -131718.86, 0.000010031926, 10.000281, 9.997211 
1.4251144e+3, 2.8415105e+2, -225371.9, -322773.6, 17363.488, 0.2615549, -0.20654765, -222369.16, -67071.69, 0.000074052536, 10.000043, 9.998759 
1.425127e+3, 2.9414806e+2, 52563.797, -101994.38, -66565.32, 0.20197392, -0.42442754, 77279.805, 134598.27, 0.00029689216, 10.001125, 9.999079 
1.4251402e+3, 3.0414692e+2, 16626.365, -275191.1, 25884.926, 0.063116185, -0.3667057, 18904.635, 18904.635, 0.00075968413, 10.001316, 9.997466 
1.4251584e+3, 3.1414485e+2, -51524.645, -153643.52, 52097.73, 0.23282515, -0.3426275, -29637.252, -29637.252, 0.0014267517, 10.000157, 9.998859 
1.4348815e+3, 1.2415319e+2, -1524006.4, -1576115.9, -167622.17, 0.015589428, -0.2855591, -1380426.1, 342846.53, 0.010506618, 10.001094, 10.000425 
1.4348996e+3, 1.3415287e+2, -1414272.9, -1445359.5, 129676.47, 0.13648567, -0.38184473, -1299211.5, 326057.25, 0.006123269, 10.001079, 10.000658 
1.4349146e+3, 1.4415382e+2, -1444754.9, -1634769.3, 34251.66, 0.009836816, -0.26105702, -1438769.3, 88488.984, 0.002563054, 10.0011425, 9.998651 
1.4349294e+3, 1.5415257e+2, -1335399.3, -1547282.5, 21844.588, 0.08742594, -0.246696, -1333170.6, 96105.85, 0.0006133788, 10.001294, 9.998502 
1.4349435e+3, 1.6415124e+2, -1195291.9, -1332001.1, -16812.402, 0.10888292, -0.2630364, -1193254.8, 138036.75, 0.000047750204, 10.001153, 9.999375 
1.434957e+3, 1.7414984e+2, -1163056.5, -1239036.9, -33269.902, 0.09049245, -0.37387297, -1150547.8, 82753.29, 0.00000010052836, 10.000595, 9.999607 
1.4349712e+3, 1.841492e+2, -1111860.3, -1165540.3, 37975.83, 0.094532795, -0.39001048, -1092197.0, 43107.504, 0.0, 10.000287, 9.999585 
1.4349873e+3, 1.9414961e+2, -988553.8, -1038039.7, 86171.914, 0.11501934, -0.33264133, -923642.94, 113656.336, 0.0, 10.000384, 9.999741 
1.435002e+3, 2.0414925e+2, -948335.8, -1102876.3, -16793.213, 0.12243882, -0.2817126, -946532.06, -7227.96, 0.0, 10.000566, 9.998536 
1.4350145e+3, 2.1414782e+2, -808824.94, -985100.94, -46166.074, 0.1241875, -0.2908076, -797466.2, 43856.746, 0.0, 10.00085, 9.998536 
1.4350273e+3, 2.2414635e+2, -670264.25, -814938.4, -38634.06, 0.10695492, -0.30548352, -660593.75, 82743.46, 0.0, 10.000908, 9.9990015 
1.4350402e+3, 2.3414493e+2, -595136.6, -706121.6, -15011.649, 0.06311664, -0.3771012, -593142.06, 52202.008, 0.0, 10.000654, 9.9992 
1.4350544e+3, 2.44143e+2, -612261.2, -865320.5, 33555.15, 0.04198629, -0.4000573, -607887.44, -60525.633, 0.0, 10.000738, 9.997392 
1.4350697e+3, 2.5414044e+2, -420913.38, -725208.9, -6008.2866, 0.053975623, -0.40509635, -420794.8, 28599.166, 0.000000006122379, 10.001398, 9.99736 
1.435084e+3, 2.6413894e+2, -216560.44, -395637.16, -58282.54, 0.008506706, -0.35460457, -199262.6, 152148.97, 0.0000008787704, 10.001342, 9.9989805 
1.4350969e+3, 2.7413902e+2, -256645.02, -327267.28, 20855.44, -0.10840323, -0.2874112, -250946.1, 2462.329, 0.000014099222, 10.000234, 9.9993105 
1.4351115e+3, 2.8413755e+2, -337082.88, -544260.3, 45353.344, -0.03993912, -0.26251632, -327589.56, -172167.7, 0.0000867421, 9.999997, 9.997259 
1.4351289e+3, 2.9413408e+2, -88648.1, -388061.88, -14254.825, 0.27150846, -0.3446662, -87970.98, -30513.133, 0.00032959942, 10.001086, 9.997139 
1.4351435e+3, 3.04133e+2, 59577.89, -169447.95, -11950.265, 0.24371439, -0.20732331, 60199.754, 60199.754, 0.00082783273, 10.001259, 9.998214 
1.4351577e+3, 3.1413117e+2, -48862.633, -110859.25, 37881.906, 0.11361018, -0.25257567, -30912.662, -30912.662, 0.0015416822, 10.000003, 9.9992285 
1.4448833e+3, 1.2413885e+2, -1396400.6, -1602998.8, 11367.183, 0.0390963, -0.34989047, -1395777.0, 327632.78, 0.011047917, 10.002361, 9.999628 
1.4449014e+3, 1.3413943e+2, -1444011.9, -1514825.3, 105511.21, 0.21510994, -0.31207198, -1368125.0, 257277.6, 0.00646129, 10.001099, 10.00017 
1.4449146e+3, 1.4414015e+2, -1543754.4, -1611894.1, -1945.1875, -0.034021687, -0.21525845, -1543698.9, -16303.248, 0.0027186894, 10.000171, 9.999265 
1.4449301e+3, 1.5413916e+2, -1485492.0, -1536241.9, 36333.477, 0.106334336, -0.24682681, -1466549.8, -37142.72, 0.0006559602, 9.999914, 9.999236 
1.4449444e+3, 1.6413808e+2, -1323826.8, -1413358.9, 76690.414, 0.13326232, -0.26887545, -1279793.0, 51625.426, 0.000052490832, 10.000375, 9.999183 
1.4449577e+3, 1.7413703e+2, -968363.06, -1174837.5, 70356.164, 0.0448416, -0.31954572, -946668.7, 286759.03, 0.00000012546444, 10.0020685, 9.999333 
1.4449722e+3, 1.8413626e+2, -795848.8, -1021317.9, 97943.49, 0.039894167, -0.32892397, -759244.8, 376188.56, 0.0, 10.002482, 9.999522 
1.4449881e+3, 1.9413602e+2, -878658.44, -987935.25, 58908.766, 0.12362634, -0.3342348, -852950.1, 184482.94, 0.0, 10.001147, 9.999718 
1.4450029e+3, 2.0413531e+2, -933145.0, -1089402.4, -15503.4375, 0.15457259, -0.3178145, -931621.6, 7818.4453, 0.0, 10.000652, 9.998584 
1.4450157e+3, 2.1413407e+2, -724742.8, -933317.44, 1662.0813, 0.12493244, -0.3154587, -724729.6, 116726.87, 0.0, 10.001391, 9.998625 
1.4450286e+3, 2.2413273e+2, -541472.94, -790933.8, 16092.683, 0.0876121, -0.30552524, -540439.1, 203031.33, 0.0, 10.001954, 9.998664 
1.4450414e+3, 2.3413137e+2, -384692.97, -644350.56, -30183.268, 0.038652442, -0.3358608, -381230.56, 264249.53, 0.0, 10.00227, 9.998845 
1.4450553e+3, 2.4412946e+2, -445254.44, -791429.94, 27019.3, 0.016379992, -0.33320582, -443158.25, 104340.43, 0.0, 10.001914, 9.99733 
1.4450705e+3, 2.5412688e+2, -521922.84, -779457.94, 73263.58, 0.021395048, -0.33879808, -502539.7, -53010.273, 0.000000012932129, 10.000715, 9.997322 
1.4450847e+3, 2.641251e+2, -361215.1, -445700.16, 35634.055, -0.006601538, -0.320111, -348192.66, 3354.8787, 0.0000016431604, 10.000258, 9.999156 
1.4450978e+3, 2.7412474e+2, -135679.77, -245009.2, -37785.145, -0.068192594, -0.31984317, -123891.88, 129654.875, 0.000019264668, 10.00096, 9.999521 
1.4451127e+3, 2.8412324e+2, -142681.69, -476708.94, -5906.3306, 0.011543022, -0.3029453, -142577.28, 12983.283, 0.000103277154, 10.001444, 9.997024 
1.4451303e+3, 2.9412022e+2, -35617.844, -385011.28, 42483.496, 0.27460268, -0.3165644, -30526.379, 27067.584, 0.00037424423, 10.001553, 9.996924 
1.4451447e+3, 3.041191e+2, 103709.625, -114023.516, 63297.367, 0.24267007, -0.18463838, 120773.54, 120773.54, 0.0009255103, 10.001404, 9.99854 
1.445158e+3, 3.141173e+2, 77941.305, -60469.15, 46770.94, 0.122678556, -0.2642514, 92263.82, 92263.82, 0.0017119541, 10.000921, 9.999137 
1.4548853e+3, 1.24125615e+2, -1541417.8, -1907119.4, 32906.883, -0.033407442, -0.5085471, -1538480.3, 185048.13, 0.011640448, 10.002373, 9.997524 
1.4549029e+3, 1.3412687e+2, -1610830.0, -1846436.0, 62686.027, 0.2386957, -0.17463587, -1595189.8, 30338.486, 0.0068325973, 10.001037, 9.997915 
1.4549144e+3, 1.4412609e+2, -1464182.5, -1439908.3, -21902.535, -0.093062066, -0.16077846, -1427004.8, 100535.086, 0.0028915813, 10.000137, 10.000463 
1.454929e+3, 1.541248e+2, -1382584.0, -1312866.8, 31153.854, -0.009037748, -0.37917617, -1300974.0, 128570.484, 0.00070428615, 9.999875, 10.000785 
1.4549436e+3, 1.6412455e+2, -1310230.9, -1393268.9, 126083.48, -0.00641214, -0.40821198, -1219006.3, 112537.83, 0.000058062662, 10.000398, 9.999317 
1.4549586e+3, 1.7412587e+2, -967873.4, -1174395.0, 141712.73, -0.07745067, -0.22049625, -895790.9, 337744.16, 0.00000016567238, 10.002063, 9.999345 
1.4549741e+3, 1.8412516e+2, -860021.9, -1152886.8, 50339.965, -0.03129724, -0.18609488, -851610.6, 283932.78, 0.0, 10.002477, 9.998621 
1.4549898e+3, 1.9412167e+2, -956586.8, -1141002.5, 13034.25, 0.1597504, -0.41345122, -955670.1, 81905.47, 0.0, 10.001111, 9.998685 
1.4550036e+3, 2.0412004e+2, -896629.4, -1003520.94, -1125.5342, 0.16577405, -0.46150687, -896617.5, 42973.082, 0.0, 10.000607, 9.999196 
1.4550151e+3, 2.1412106e+2, -678602.7, -822869.5, 34798.773, -0.07919006, -0.30870673, -670647.5, 170932.98, 0.0, 10.001325, 9.999418 
1.4550282e+3, 2.2412051e+2, -615070.06, -924388.8, 23020.74, -0.15090428, -0.22451046, -613366.2, 130221.7, 0.0, 10.001873, 9.997786 
1.4550437e+3, 2.341178e+2, -477100.9, -810337.9, -10434.457, 0.02124996, -0.2814174, -476774.5, 168844.6, 0.0, 10.002164, 9.997756 
1.4550579e+3, 2.4411602e+2, -379033.28, -643900.2, -17898.818, 0.06579245, -0.25504297, -377829.22, 169809.4, 0.0, 10.001862, 9.998371 
1.4550702e+3, 2.5411564e+2, -440306.9, -599119.6, 34349.84, -0.07878151, -0.16439578, -433195.75, 16444.865, 0.000000017460069, 10.000663, 9.998588 
1.4550845e+3, 2.64114e+2, -467676.3, -651625.75, 52012.39, -0.05453358, -0.14445135, -453988.2, -102332.25, 0.000002726617, 10.000193, 9.997775 
1.4551018e+3, 2.7411062e+2, -263272.38, -492343.6, -2837.9282, 0.23829767, -0.27875417, -263237.22, -9547.992, 0.000025068905, 10.000886, 9.997858 
1.4551176e+3, 2.8410798e+2, -77419.195, -324725.84, -2505.4553, 0.34734055, -0.3313278, -77393.81, 78320.555, 0.00012317942, 10.001371, 9.998104 
1.4551309e+3, 2.9410642e+2, 48792.54, -194984.47, 54880.86, 0.17451914, -0.33260792, 60577.953, 118305.46, 0.0004300027, 10.001477, 9.998273 
1.455144e+3, 3.041052e+2, 82358.3, -128595.45, 43046.727, 0.025772376, -0.28459972, 90804.164, 90804.164, 0.0010507762, 10.001287, 9.998488 
1.4551595e+3, 3.141034e+2, 6435.6504, -177211.66, 46850.367, 0.15543306, -0.34202912, 17697.11, 17697.11, 0.0019355183, 10.000789, 9.998395 
1.4648868e+3, 1.24112874e+2, -1593598.3, -1918484.3, -51134.863, -0.08731826, -0.46509945, -1585740.1, 137913.08, 0.012283002, 10.001934, 9.997666 
1.4649037e+3, 1.3411337e+2, -1786627.5, -1974409.8, 16761.594, 0.2826201, -0.17095174, -1785143.1, -159482.1, 0.00723705, 10.000013, 9.997535 
1.464915e+3, 1.4411157e+2, -1550870.0, -1456246.5, 80293.5, -0.0141839525, -0.24476886, -1410362.5, 117319.09, 0.0030819494, 9.999431, 10.000694 
1.4649293e+3, 1.5411079e+2, -1179263.8, -1184237.9, 31564.771, -0.01749148, -0.44282135, -1150088.3, 279591.2, 0.0007585455, 10.001126, 10.001074 
1.4649442e+3, 1.6411091e+2, -1150020.4, -1316349.8, 63772.855, -0.033676077, -0.4494025, -1128383.6, 203291.5, 0.00006440502, 10.001506, 9.999307 
1.4649601e+3, 1.7411238e+2, -1234987.4, -1308744.8, 58420.44, -0.049281865, -0.24239309, -1202779.3, 30887.8, 0.00000022299002, 10.000258, 9.999288 
1.4649758e+3, 1.84112e+2, -1185544.9, -1295115.6, 8867.794, 0.0032373997, -0.17636502, -1184831.9, -49158.023, 0.0, 10.0001955, 9.998735 
1.464991e+3, 1.9410916e+2, -834888.44, -1064390.1, 44603.715, 0.13938195, -0.35392034, -826524.5, 211175.63, 0.0, 10.001881, 9.998835 
1.4650047e+3, 2.0410751e+2, -679329.0, -893120.2, 48576.258, 0.14019407, -0.4124804, -668809.44, 270905.0, 0.0, 10.00207, 9.999252 
1.4650163e+3, 2.1410769e+2, -835204.25, -892026.06, 16742.793, -0.04706503, -0.35087183, -830637.9, 11072.522, 0.0, 10.000219, 9.999479 
1.4650293e+3, 2.2410697e+2, -968431.25, -1118269.4, 49498.523, -0.110079914, -0.2778018, -953556.3, -209836.81, 0.0, 9.999553, 9.997574 
1.4650448e+3, 2.3410499e+2, -717500.0, -951012.06, 68528.0, 0.0019468568, -0.23924671, -698874.9, -53128.4, 0.0, 10.000618, 9.997535 
1.465059e+3, 2.4410328e+2, -475462.5, -686241.5, 29389.633, 0.0365288, -0.19312304, -471441.3, 76324.45, 0.0, 10.001194, 9.998398 
1.4650714e+3, 2.541021e+2, -358758.44, -548217.25, -23928.766, -0.045441877, -0.18654421, -355782.97, 93989.88, 0.000000044837254, 10.001188, 9.998673 
1.4650857e+3, 2.6410004e+2, -383584.44, -676877.94, 8460.739, 0.0023943237, -0.18552624, -383340.56, -31548.86, 0.0000038968087, 10.001056, 9.9971895 
1.4651027e+3, 2.7409685e+2, -332615.47, -597348.6, 19678.492, 0.24673004, -0.23930915, -331160.72, -77334.78, 0.000030358568, 10.000712, 9.997228 
1.4651182e+3, 2.840942e+2, -210974.33, -357572.2, 35541.023, 0.32157516, -0.2688326, -202812.23, -46960.35, 0.00014195647, 10.000319, 9.998386 
1.4651312e+3, 2.9409248e+2, -145137.22, -244571.16, 2128.4048, 0.14219812, -0.32082692, -145091.69, -87226.055, 0.00048668167, 9.99997, 9.9986515 
1.4651446e+3, 3.0409095e+2, -72047.77, -151562.11, -17080.662, 0.02461364, -0.34411797, -68533.92, -68533.92, 0.0011867037, 10.000001, 9.998941 
1.4651607e+3, 3.1409088e+2, -37467.51, -160936.52, 18316.736, 0.22226402, -0.2766921, -34807.516, -34807.516, 0.0021867163, 10.000318, 9.998728 
1.4748879e+3, 1.2410077e+2, -1418251.1, -1542157.1, -61785.563, -0.20984602, -0.20318373, -1392707.6, 331075.78, 0.012969953, 10.0019, 10.000275 
1.4749038e+3, 1.3409911e+2, -1683541.6, -1750116.4, -54471.37, 0.27152327, -0.28862467, -1652991.9, -27193.39, 0.0076708426, 9.999971, 9.99909 
1.474916e+3, 1.4409672e+2, -1600604.4, -1563175.0, 123162.23, 0.13264322, -0.47323927, -1457313.6, 70505.91, 0.0032881629, 9.99944, 9.999959 
1.4749311e+3, 1.5409732e+2, -1254556.0, -1329531.5, 101948.34, 0.040532865, -0.43265352, -1183421.5, 246388.22, 0.00081847684, 10.001084, 10.000094 
1.4749463e+3, 1.6409737e+2, -1165260.0, -1354923.9, 17063.902, 0.000520577, -0.38128376, -1163737.0, 168072.58, 0.000071419374, 10.001524, 9.999037 
1.4749616e+3, 1.7409661e+2, -1249419.0, -1335423.1, 14532.638, 0.07468001, -0.37917235, -1247029.6, -13206.492, 0.0000002932695, 10.000241, 9.999113 
1.474977e+3, 1.840968e+2, -1104268.9, -1128198.1, 56417.594, 0.09248751, -0.29898468, -1058561.3, 77263.25, 0.0, 10.0001955, 9.999886 
1.4749917e+3, 1.940984e+2, -747352.4, -878861.25, 114270.125, 0.012747925, -0.15959565, -681268.6, 356538.7, 0.0, 10.001859, 10.000123 
1.4750057e+3, 2.0409775e+2, -716335.3, -963006.8, -18157.064, 0.021380333, -0.1697206, -715006.0, 224805.67, 0.0, 10.002039, 9.998787 
1.4750186e+3, 2.14094e+2, -894063.56, -996815.94, -49286.25, 0.16515014, -0.43690863, -874245.3, -32399.576, 0.0, 10.000146, 9.998795 
1.4750317e+3, 2.2409207e+2, -948794.5, -1062326.5, 74207.12, 0.1602407, -0.46265817, -912131.0, -168265.89, 0.0, 9.999481, 9.997994 
1.4750448e+3, 2.3409289e+2, -687650.3, -873161.9, 115991.25, -0.06513485, -0.2004011, -631888.06, 13974.1875, 0.0, 10.000547, 9.998105 
1.4750588e+3, 2.440913e+2, -547827.6, -828021.8, 27311.33, -0.12242213, -0.13328536, -545190.3, 2689.4785, 0.0, 10.001149, 9.99745 
1.4750738e+3, 2.5408632e+2, -447534.75, -720103.56, -16293.739, 0.06905604, -0.3962316, -446564.2, 3361.896, 0.000000082863835, 10.001128, 9.997528 
1.4750879e+3, 2.6408333e+2, -378612.63, -651069.6, -5218.444, 0.10459004, -0.43462145, -378512.72, -26557.674, 0.0000048986644, 10.000991, 9.997394 
1.4751002e+3, 2.740833e+2, -317000.47, -550698.8, 16804.84, -0.078125365, -0.20675695, -315798.25, -61840.44, 0.00003468843, 10.000651, 9.997573 
1.4751144e+3, 2.840818e+2, -260801.47, -449682.78, 18372.326, -0.09844261, -0.11410018, -259031.02, -103056.875, 0.00015714212, 10.000263, 9.997783 
1.4751309e+3, 2.9407817e+2, -201009.1, -353081.97, -240.158, 0.10887672, -0.285018, -201008.72, -142998.64, 0.0005383698, 9.999931, 9.997929 
1.4751461e+3, 3.0407608e+2, -16229.836, -10346.774, -5786.725, 0.16741943, -0.37270617, -6796.8657, -6796.8657, 0.0013175347, 9.9999075, 9.999948 
1.4751613e+3, 3.1407955e+2, 34247.664, 37065.813, 42200.85, 0.22464828, -0.07389373, 77881.11, 77881.11, 0.0024270895, 10.000124, 10.000172 
1.4848883e+3, 1.2408707e+2, -1965742.0, -1643069.8, 107757.46, -0.12060742, -0.20512585, -1610393.0, 113526.805, 0.013700781, 9.997399, 10.001758 
1.4849027e+3, 1.3408522e+2, -1449210.9, -1523517.8, 6640.523, 0.11263501, -0.41232926, -1448622.1, 177307.64, 0.00813248, 10.001087, 10.000122 
1.484916e+3, 1.4408402e+2, -1242733.6, -1447215.3, 148442.22, 0.06020578, -0.50939107, -1164729.4, 363208.56, 0.0035089266, 10.002162, 9.999437 
1.4849323e+3, 1.5408494e+2, -1439912.1, -1490353.1, 134858.66, 0.09846159, -0.37573034, -1327936.0, 101995.46, 0.0008836724, 10.000122, 9.99945 
1.484948e+3, 1.6408484e+2, -1465793.1, -1472609.5, 101213.17, 0.12189078, -0.31247514, -1367930.8, -35996.004, 0.00007901186, 9.99937, 9.999257 
1.4849629e+3, 1.7408323e+2, -1172459.6, -1263050.6, 122870.234, 0.15123068, -0.4254154, -1086801.8, 147151.02, 0.00000037325287, 10.000628, 9.999419 
1.4849776e+3, 1.8408325e+2, -1028817.6, -1070279.1, 162377.05, 0.13217331, -0.3884122, -885853.4, 250100.72, 0.0, 10.000624, 10.000075 
1.4849922e+3, 1.9408575e+2, -1159691.6, -1055922.9, 125374.03, 0.01510868, -0.1784159, -972121.44, 65808.29, 0.0, 9.998939, 10.000312 
1.485006e+3, 2.0408548e+2, -1159279.8, -1200140.5, -17936.275, 0.010415429, -0.14935902, -1152523.5, -212591.88, 0.0, 9.999104, 9.99857 
1.4850196e+3, 2.1408142e+2, -657082.75, -908840.3, -29628.951, 0.17396729, -0.42233616, -653642.75, 188327.0, 0.0, 10.001886, 9.998556 
1.4850332e+3, 2.2407933e+2, -411722.1, -762163.0, 104919.945, 0.19593349, -0.46973205, -382711.28, 361278.5, 0.0, 10.002995, 9.998358 
1.4850466e+3, 2.340802e+2, -477304.34, -724288.94, 120540.484, 0.0020444342, -0.24414101, -428226.8, 217755.61, 0.0, 10.001788, 9.998526 
1.4850606e+3, 2.4407852e+2, -559845.44, -880471.44, 62868.223, -0.054565623, -0.18949218, -547958.94, 40.8419, 0.0, 10.001262, 9.997041 
1.4850755e+3, 2.5407326e+2, -395781.44, -747716.5, 54868.293, 0.084863506, -0.43022153, -387425.6, 62625.97, 0.00000011463164, 10.001706, 9.997063 
1.485089e+3, 2.6406997e+2, -231242.5, -573979.6, 88181.5, 0.0858281, -0.47473827, -209885.45, 142198.94, 0.000005857849, 10.001984, 9.997443 
1.4851013e+3, 2.740697e+2, -96547.21, -431179.22, 75646.92, -0.10274067, -0.2793095, -80241.05, 173846.67, 0.000039061, 10.002122, 9.997681 
1.4851151e+3, 2.8406835e+2, -71703.445, -402690.38, 64024.9, -0.11937087, -0.15959047, -59750.37, 96352.66, 0.00017263576, 10.001768, 9.997374 
1.4851312e+3, 2.9406533e+2, -125369.164, -366141.5, 45751.938, 0.09650149, -0.22864845, -116968.414, -58831.605, 0.000590196, 10.000672, 9.997479 
1.4851463e+3, 3.040627e+2, -20423.014, -28968.203, 48704.063, 0.18951781, -0.3372131, 24195.504, 24195.504, 0.0014390951, 9.999921, 9.999839 
1.485162e+3, 3.140658e+2, -19639.2, 45771.996, -16043.341, 0.32969576, -0.06398956, 49495.027, 49495.027, 0.0026355411, 9.999588, 10.000508 
1.4948882e+3, 1.24072365e+2, -1946691.5, -1588970.1, 238945.13, 0.09440602, -0.4314054, -1469358.1, 254698.17, 0.014485426, 9.997345, 10.00216 
1.4949003e+3, 1.34072e+2, -1428136.1, -1464187.6, 146926.36, -0.24713513, -0.5314431, -1298133.9, 327917.72, 0.008627366, 10.001032, 10.000554 
1.4949149e+3, 1.4407371e+2, -1259374.3, -1493156.8, 77613.555, -0.29150277, -0.34575364, -1235953.6, 292080.9, 0.0037456865, 10.002193, 9.999114 
1.4949325e+3, 1.5407386e+2, -1466368.6, -1540143.8, 63015.574, 0.0867509, -0.25591543, -1430238.0, -195.86841, 0.0009542572, 10.000096, 9.999123 
1.4949489e+3, 1.6407354e+2, -1413341.3, -1370309.4, 130653.516, 0.26488116, -0.22996402, -1259412.0, 72636.484, 0.00008722728, 9.999391, 9.999953 
1.4949633e+3, 1.7407233e+2, -1123750.4, -1153930.9, 175574.89, 0.13857606, -0.3796826, -962618.44, 271436.5, 0.0000004647829, 10.000597, 10.000185 
1.4949778e+3, 1.8407145e+2, -1083700.8, -1186938.6, 101798.4, 0.068195425, -0.43644685, -1021181.94, 114879.55, 0.0, 10.000627, 9.999276 
1.494992e+3, 1.9407128e+2, -1230191.5, -1198274.5, 65905.73, 0.086138666, -0.40155175, -1146422.8, -108356.125, 0.0, 9.998916, 9.999347 
1.4950058e+3, 2.0407078e+2, -1159434.1, -1193347.1, 65757.51, 0.052380614, -0.3460488, -1108482.0, -168408.23, 0.0, 9.999068, 9.998636 
1.4950193e+3, 2.1406995e+2, -654940.0, -887861.5, 81620.02, -0.061824247, -0.31208587, -629186.4, 212896.34, 0.0, 10.001815, 9.998734 
1.4950338e+3, 2.240687e+2, -402375.03, -730624.3, 66127.41, -0.050281532, -0.29797757, -389554.13, 354539.75, 0.0, 10.0029335, 9.998608 
1.4950499e+3, 2.3406689e+2, -472340.6, -695904.6, 79417.5, 0.14693213, -0.3653309, -447000.9, 199106.52, 0.0, 10.001706, 9.998762 
1.4950643e+3, 2.4406493e+2, -562401.25, -866603.56, 69345.95, 0.17686713, -0.357624, -547338.94, 787.1831, 0.0, 10.001177, 9.997177 
1.495076e+3, 2.540628e+2, -397486.63, -735205.25, 79305.42, -0.042460315, -0.3011206, -379790.8, 70360.664, 0.00000015644366, 10.001634, 9.997186 
1.4950894e+3, 2.640599e+2, -251827.16, -599229.06, 89553.9, -0.09511229, -0.30679289, -230100.56, 122080.93, 0.000006865855, 10.001906, 9.997308 
1.4951058e+3, 2.7405614e+2, -121014.555, -464893.88, 88654.66, 0.10766436, -0.44528106, -99504.234, 154711.86, 0.000043953176, 10.002047, 9.997487 
1.4951201e+3, 2.8405383e+2, -102350.086, -448307.88, 24018.002, 0.18117979, -0.3954316, -100690.6, 55549.035, 0.00018936973, 10.001687, 9.9971 
1.4951314e+3, 2.9405355e+2, -152697.14, -412567.6, 16015.49, 0.05129017, -0.16588509, -151713.84, -93464.68, 0.0006395796, 10.000619, 9.9971895 
1.4951448e+3, 3.0405053e+2, -120090.65, -204873.81, 32613.977, 0.043571394, -0.24053134, -108996.555, -108996.555, 0.0015392303, 9.99981, 9.998671 
1.4951627e+3, 3.140497e+2, -89798.84, -67275.73, -8087.3174, 0.41894493, -0.24357274, -64672.676, -64672.676, 0.0027906613, 9.999467, 9.999779 
1.5048866e+3, 1.240578e+2, -1610372.5, -1438048.5, 140775.25, 0.09714833, -0.44908664, -1359160.3, 365037.38, 0.015336173, 9.99971, 10.00206 
1.5048997e+3, 1.3405795e+2, -1752077.9, -1560486.0, 51720.563, -0.26150724, -0.5577935, -1547415.6, 78772.96, 0.0091627855, 9.998534, 10.001096 
1.5049163e+3, 1.4406112e+2, -1817229.5, -1717629.9, -28918.201, -0.16791315, -0.26886833, -1709842.5, -181685.17, 0.0040015904, 9.998182, 9.999497 
1.5049325e+3, 1.5406086e+2, -1497343.6, -1511071.6, -8300.873, 0.102666214, -0.2619121, -1493436.5, -63267.066, 0.001031135, 9.999691, 9.999518 
1.5049484e+3, 1.6406053e+2, -1231307.0, -1246752.1, 119236.04, 0.22747159, -0.2718512, -1119543.8, 212630.97, 0.000096309515, 10.000474, 10.000282 
1.5049636e+3, 1.7405996e+2, -1143339.4, -1127149.5, 121388.63, 0.11561446, -0.3910744, -1013586.2, 220586.0, 0.000000575819, 10.000292, 10.000519 
1.5049781e+3, 1.8405907e+2, -1120936.3, -1247598.0, 28640.113, 0.05293702, -0.44938907, -1114761.3, 21417.033, 0.0, 10.000568, 9.99888 
1.504992e+3, 1.9405799e+2, -861941.3, -1069552.8, 15377.072, 0.06969086, -0.45851812, -860808.56, 177385.72, 0.0, 10.001663, 9.998902 
1.5050064e+3, 2.0405728e+2, -743600.2, -994087.6, 87455.96, 0.056727886, -0.3970679, -716087.44, 224117.52, 0.0, 10.001944, 9.998615 
1.5050213e+3, 2.1405725e+2, -752379.06, -932410.4, 81738.0, -0.01111445, -0.28541157, -720805.6, 121401.33, 0.0, 10.001141, 9.998753 
1.5050362e+3, 2.2405608e+2, -746032.6, -896359.0, 3784.5535, 0.011650966, -0.26210248, -745937.44, -1719.9188, 0.0, 10.000589, 9.998593 
1.5050511e+3, 2.340534e+2, -662363.56, -787083.0, -19967.373, 0.16503146, -0.4152083, -659244.8, -13005.677, 0.0, 10.00041, 9.998757 
1.505065e+3, 2.4405144e+2, -647669.6, -873420.56, 16618.537, 0.16049002, -0.41953903, -646452.8, -98195.27, 0.0, 10.000461, 9.997464 
1.5050767e+3, 2.5405064e+2, -481786.8, -737667.94, 28515.047, -0.07926924, -0.26214102, -478647.63, -28377.78, 0.00000020302433, 10.000906, 9.997507 
1.5050907e+3, 2.640483e+2, -369704.72, -621299.7, 47954.434, -0.10692344, -0.24429366, -360874.44, -8580.328, 0.0000077496, 10.000948, 9.997617 
1.5051076e+3, 2.7404392e+2, -338589.9, -536335.7, 70552.88, 0.17657153, -0.47169143, -315998.56, -61665.055, 0.0000483451, 10.000397, 9.997796 
1.505122e+3, 2.8404146e+2, -254762.75, -490655.22, 63697.836, 0.27208358, -0.46897626, -238661.5, -82304.11, 0.00020450291, 10.000504, 9.997379 
1.5051329e+3, 2.9404175e+2, 13063.037, -296868.03, 76539.04, 0.084474385, -0.20822711, 30934.248, 89293.336, 0.00068072864, 10.001622, 9.997491 
1.5051453e+3, 3.0403873e+2, 96544.7, -166615.13, 108298.2, 0.033680063, -0.27840254, 135381.27, 135381.27, 0.0016085604, 10.001548, 9.998113 
1.5051623e+3, 3.1403637e+2, -99487.695, -100121.12, 94752.5, 0.42697018, -0.36671385, -5051.375, -5051.375, 0.0028770326, 9.999485, 9.999564 
1.5148835e+3, 1.24043666e+2, -1646689.6, -1529909.5, 26486.021, -0.22270444, -0.24213094, -1524183.1, 200158.19, 0.016257107, 9.999775, 10.001395 
1.514901e+3, 1.3404325e+2, -1716397.1, -1466514.8, 7248.233, -0.00080205704, -0.477815, -1466304.8, 160034.0, 0.009740974, 9.99845, 10.001784 
1.51492e+3, 1.4404643e+2, -1748528.0, -1577198.4, 5624.0366, 0.3757344, -0.26510394, -1577013.9, -48709.09, 0.0042781597, 9.998176, 10.00047 
1.514932e+3, 1.5404592e+2, -1426231.9, -1353094.4, 55364.004, 0.096066214, -0.38775685, -1323312.3, 106999.98, 0.0011151112, 9.999652, 10.000619 
1.5149462e+3, 1.6404589e+2, -1226205.6, -1245879.5, 109841.445, -0.048891176, -0.42983362, -1125761.6, 206550.38, 0.000106548556, 10.000506, 10.000277 
1.514963e+3, 1.7404622e+2, -1151815.4, -1141002.4, 118052.234, 0.027624553, -0.45263967, -1028232.9, 206070.64, 0.0000007145684, 10.000276, 10.00043 
1.5149787e+3, 1.840462e+2, -1118011.6, -1243679.3, 60092.473, 0.035108984, -0.4218926, -1093901.8, 42401.65, 0.0, 10.000574, 9.998907 
1.5149921e+3, 1.9404592e+2, -866004.06, -1069452.3, 61460.26, -0.08080447, -0.3514275, -848878.9, 189433.67, 0.0, 10.001629, 9.9989195 
1.5150075e+3, 2.0404506e+2, -759715.3, -1021253.2, 55897.098, -0.028287938, -0.29841796, -748269.6, 192055.27, 0.0, 10.001909, 9.998448 
1.5150252e+3, 2.1404341e+2, -775012.3, -964111.06, 55404.402, 0.2739484, -0.3329506, -759975.06, 82366.734, 0.0, 10.00107, 9.998572 
1.5150401e+3, 2.240416e+2, -777540.25, -938880.2, -10386.488, 0.32531184, -0.3518245, -776874.4, -32514.596, 0.0, 10.000493, 9.998348 
1.5150502e+3, 2.3403974e+2, -690201.9, -829645.44, -19633.367, 0.010134305, -0.39601183, -687490.25, -41112.73, 0.0, 10.000345, 9.998497 
1.5150625e+3, 2.4403809e+2, -627979.06, -821364.5, 25668.213, -0.14996812, -0.37352142, -624630.1, -76236.29, 0.0, 10.000406, 9.997852 
1.5150778e+3, 2.540368e+2, -457965.97, -676150.56, 52066.11, -0.0779901, -0.3074068, -446178.13, 4228.6943, 0.00000026346208, 10.000849, 9.997962 
1.5150927e+3, 2.6403508e+2, -329394.5, -519299.0, 28716.879, -0.0072938586, -0.28659895, -325147.03, 27276.256, 0.0000083363275, 10.000874, 9.998351 
1.5151069e+3, 2.740329e+2, -296170.34, -427240.53, 58285.33, 0.059821196, -0.3744546, -274001.22, -19558.922, 0.000050820046, 10.000316, 9.99858 
1.5151212e+3, 2.840311e+2, -210802.64, -387872.25, 95458.07, 0.11063409, -0.38221994, -169142.77, -12685.022, 0.000217125, 10.000442, 9.99812 
1.5151352e+3, 2.9402992e+2, 59960.652, -194103.89, 128642.07, 0.13148865, -0.34440094, 113721.02, 172188.53, 0.00071596226, 10.001588, 9.998218 
1.5151475e+3, 3.0402702e+2, 80808.85, -161914.8, 38264.137, 0.10217181, -0.44039682, 86698.11, 86698.11, 0.0016557103, 10.001419, 9.998193 
1.5151604e+3, 3.140252e+2, -97420.94, -44511.64, 33907.574, 0.26464102, -0.48603824, -27959.637, -27959.637, 0.0029081663, 9.999308, 10.00001 
1.5248826e+3, 1.24029264e+2, -1765685.8, -1695352.6, 116066.22, -0.26897314, -0.25588697, -1609242.4, 115236.65, 0.017244658, 9.999449, 10.000388 
1.5249006e+3, 1.3402921e+2, -1515487.0, -1390998.6, 65147.793, 0.05189921, -0.44177565, -1363139.6, 263337.25, 0.010359608, 9.999911, 10.001606 
1.5249205e+3, 1.4403172e+2, -1476821.4, -1415280.9, 59595.93, 0.52602524, -0.29690793, -1378980.4, 149469.61, 0.0045741852, 9.999927, 10.000732 
1.524932e+3, 1.5403114e+2, -1402812.1, -1307554.1, 44485.684, 0.109660216, -0.46189708, -1290010.3, 140443.88, 0.0012060112, 9.999657, 10.000934 
1.5249455e+3, 1.6403116e+2, -1393329.6, -1316015.8, 56522.92, -0.10558465, -0.5179185, -1286194.9, 46257.066, 0.000118081814, 9.999341, 10.00035 
1.5249628e+3, 1.7403202e+2, -1287133.5, -1201267.3, 54972.516, 0.009808526, -0.48966444, -1174449.3, 59991.75, 0.0000008766353, 9.999339, 10.000467 
1.5249789e+3, 1.8403237e+2, -1273453.5, -1297147.4, 43974.906, 0.058831576, -0.43036073, -1239757.8, -103319.29, 0.0, 9.999413, 9.999101 
1.5249935e+3, 1.940323e+2, -1125518.4, -1175020.9, 51276.58, -0.030265866, -0.35814697, -1093331.9, -54886.65, 0.0, 9.99975, 9.9991045 
1.525009e+3, 2.040317e+2, -1024841.25, -1107137.4, 44592.418, 0.027344326, -0.30670398, -1005312.75, -64857.992, 0.0, 9.999905, 9.998823 
1.525026e+3, 2.1403047e+2, -928585.6, -992706.2, 71345.016, 0.3010133, -0.33843577, -882428.44, -39961.56, 0.0, 9.999818, 9.998979 
1.5250403e+3, 2.2402892e+2, -843433.0, -998558.3, 69847.89, 0.32755107, -0.34429353, -816618.0, -72134.47, 0.0, 10.0001545, 9.998103 
1.5250507e+3, 2.3402706e+2, -604093.3, -823584.25, 47658.81, -0.0067448574, -0.35803202, -594191.6, 52313.188, 0.0, 10.001088, 9.99818 
1.5250632e+3, 2.4402541e+2, -412116.94, -625588.3, 101123.24, -0.1533711, -0.35428345, -371820.6, 176699.97, 0.0, 10.001499, 9.998668 
1.5250792e+3, 2.540242e+2, -348626.1, -517972.9, 150737.55, -0.032034673, -0.3742185, -260408.22, 190118.58, 0.0000003530132, 10.001146, 9.998903 
1.525094e+3, 2.640228e+2, -315394.2, -520876.06, 122100.58, 0.03457066, -0.36979568, -258559.9, 93977.914, 0.00000861748, 10.001006, 9.998277 
1.5251072e+3, 2.7402124e+2, -183981.17, -391487.8, 68503.41, 0.027023736, -0.3782984, -163406.42, 91147.734, 0.000051570143, 10.001172, 9.998408 
1.5251216e+3, 2.840195e+2, -49310.832, -266361.03, 95652.69, 0.07713574, -0.389669, -13173.796, 143395.94, 0.00022934856, 10.001373, 9.998507 
1.5251373e+3, 2.9401758e+2, 91993.8, -134751.8, 95732.77, 0.19087324, -0.46158108, 127006.16, 185589.34, 0.00074981863, 10.001613, 9.998624 
1.5251496e+3, 3.0401516e+2, 111405.39, -181364.0, -65671.68, 0.15029898, -0.5186115, 125461.49, 125461.49, 0.001694506, 10.001761, 9.997904 
1.5251599e+3, 3.1401372e+2, 224253.47, 67503.16, -127083.61, 0.1882134, -0.48686454, 295186.4, 295186.4, 0.002917839, 10.001679, 9.999652 
1.5348832e+3, 1.24014676e+2, -1871643.0, -1914618.9, 46850.414, -0.17200173, -0.50862795, -1841587.9, -116978.234, 0.018294634, 9.999434, 9.998885 
1.5348984e+3, 1.3401622e+2, -1593701.1, -1543913.8, 87995.74, -0.1745634, -0.42617735, -1477358.3, 149240.78, 0.011016667, 9.999883, 10.000555 
1.5349177e+3, 1.4401735e+2, -1500065.1, -1483080.6, 39108.074, 0.2192255, -0.33962947, -1451553.4, 77035.99, 0.0048880493, 10.000001, 10.000239 
1.5349314e+3, 1.5401669e+2, -1442028.8, -1368210.9, 35945.953, 0.08360698, -0.46788883, -1353599.1, 76993.945, 0.0013030368, 9.999584, 10.000547 
1.5349461e+3, 1.6401659e+2, -1388798.1, -1312033.6, 45965.965, 0.003360992, -0.51566464, -1290532.1, 42060.188, 0.00013086536, 9.999349, 10.000381 
1.5349622e+3, 1.7401746e+2, -1285652.8, -1191169.3, 59846.707, 0.017538574, -0.49367908, -1162165.3, 72417.89, 0.0000010420176, 9.99931, 10.000551 
1.5349786e+3, 1.8401772e+2, -1245957.0, -1247576.9, 49389.348, 0.069296055, -0.461988, -1197370.9, -60788.945, 0.0, 9.999435, 9.999433 
1.5349953e+3, 1.9401723e+2, -1101210.0, -1120021.5, 68172.055, 0.171605, -0.473297, -1041797.9, -3206.2908, 0.0, 9.999727, 9.999494 
1.5350103e+3, 2.040173e+2, -967291.2, -976230.5, 37385.16, 0.17300794, -0.41673547, -934109.44, 6484.149, 0.0, 9.999855, 9.999745 
1.535023e+3, 2.1401845e+2, -869860.3, -855977.6, 73861.555, 0.022191845, -0.30809388, -788731.94, 53850.574, 0.0, 9.999754, 9.999947 
1.535037e+3, 2.24018e+2, -874037.3, -1043538.6, 95804.1, -0.029731706, -0.2439034, -830877.5, -86288.09, 0.0, 10.00007, 9.997838 
1.5350527e+3, 2.3401529e+2, -640220.1, -884702.2, 89522.7, 0.067771465, -0.3045864, -610944.9, 35676.76, 0.0, 10.00102, 9.997796 
1.5350674e+3, 2.4401334e+2, -345327.53, -458409.56, 88848.03, 0.093400896, -0.3644883, -296555.4, 252083.25, 0.0, 10.001384, 9.999867 
1.5350808e+3, 2.5401273e+2, -264465.28, -323693.2, 144355.84, 0.008541101, -0.46207446, -146717.11, 303913.8, 0.0000004707298, 10.001068, 10.000273 
1.5350945e+3, 2.640114e+2, -383385.78, -648596.3, 118809.19, -0.029178342, -0.48720524, -337946.72, 14691.889, 0.000008627056, 10.000942, 9.997435 
1.5351084e+3, 2.7400902e+2, -267050.34, -551663.1, 79985.875, 0.015360482, -0.46877187, -246111.98, 8556.356, 0.00005249565, 10.001118, 9.997336 
1.5351233e+3, 2.8400663e+2, -66294.375, -283178.47, 100948.27, 0.10395565, -0.4826674, -26580.32, 130113.23, 0.0002422958, 10.00129, 9.998434 
1.5351392e+3, 2.9400462e+2, 85372.75, -128938.81, 115966.7, 0.21194868, -0.5752955, 136111.36, 194819.39, 0.0007832617, 10.001527, 9.998704 
1.5351513e+3, 3.0400306e+2, 41021.28, -290219.03, -72794.05, 0.13606627, -0.5218191, 56312.73, 56312.73, 0.0017341964, 10.001616, 9.997219 
1.5351608e+3, 3.1400204e+2, 124737.21, -85999.305, -102834.87, 0.078930624, -0.3724234, 166601.69, 166601.69, 0.0029379996, 10.001482, 9.998675 
1.5448841e+3, 1.24000624e+2, -1815565.3, -1905666.3, -51098.504, -0.04575614, -0.6243861, -1792493.8, -67752.04, 0.019406972, 9.99991, 9.998713 
1.5448985e+3, 1.340027e+2, -1568486.8, -1575218.3, 87294.67, -0.17789559, -0.4487559, -1484493.0, 142234.56, 0.0117135905, 10.00024, 10.00017 
1.5449166e+3, 1.4400275e+2, -1486032.1, -1486410.4, 71011.52, 0.121294804, -0.44690213, -1415209.5, 113519.78, 0.0052204016, 10.000149, 10.00014 
1.5449311e+3, 1.5400282e+2, -1408367.1, -1366529.3, 74334.336, 0.08775275, -0.49228656, -1310226.4, 120499.336, 0.0014059248, 9.999862, 10.000433 
1.5449461e+3, 1.6400295e+2, -1354176.6, -1331864.4, 116342.26, 0.06013076, -0.49497998, -1226144.6, 106579.03, 0.00014487762, 9.999754, 10.000038 
1.5449622e+3, 1.7400338e+2, -1191561.3, -1190391.5, 85154.875, 0.04819461, -0.482656, -1105819.5, 128902.07, 0.000001197513, 10.000135, 10.000157 
1.5449783e+3, 1.840035e+2, -1120231.5, -1131077.3, 62244.84, 0.07529172, -0.4650408, -1063173.8, 73548.69, 0.0, 10.000071, 9.999925 
1.5449946e+3, 1.9400345e+2, -1087836.3, -1044854.06, 85228.68, 0.14577012, -0.4899755, -978448.6, 60276.637, 0.0, 9.999534, 10.000101 
1.5450095e+3, 2.0400386e+2, -993294.0, -967969.25, 66188.86, 0.11344679, -0.4424546, -913242.44, 27480.693, 0.0, 9.999599, 9.999923 
1.5450223e+3, 2.140052e+2, -742896.75, -781316.94, 28663.123, -0.068875864, -0.3240248, -727601.75, 115109.75, 0.0, 10.000582, 10.000058 
1.5450367e+3, 2.2400518e+2, -723827.7, -912899.44, 39482.703, -0.094425604, -0.24612363, -715914.0, 28800.6, 0.0, 10.000856, 9.998351 
1.5450533e+3, 2.3400328e+2, -739224.9, -867942.5, 87480.23, 0.0995602, -0.28185606, -694979.56, -48241.977, 0.0, 10.000077, 9.99836 
1.5450688e+3, 2.4400161e+2, -538222.6, -543423.3, 107435.74, 0.17455114, -0.3468754, -433355.75, 115395.336, 0.000000000009610117, 10.000016, 9.999947 
1.5450825e+3, 2.5400048e+2, -280513.7, -329303.0, 55716.14, 0.072309986, -0.4991187, -244085.75, 206662.94, 0.0000005675007, 10.00095, 10.000295 
1.5450959e+3, 2.6399902e+2, -300083.72, -608695.4, 6875.485, -0.0042429273, -0.5356566, -299930.63, 52827.293, 0.000008574752, 10.001521, 9.997426 
1.5451092e+3, 2.739971e+2, -203940.17, -528102.56, 30214.094, -0.042354252, -0.4702814, -201148.06, 53636.1, 0.000054083343, 10.001574, 9.997284 
1.5451239e+3, 2.839949e+2, -71543.75, -304211.97, 88378.5, 0.03344553, -0.45452678, -41780.688, 115028.06, 0.0002552126, 10.001347, 9.99825 
1.5451404e+3, 2.939927e+2, -48806.496, -218678.47, 65287.72, 0.22998935, -0.5429287, -26613.55, 32213.41, 0.0008167423, 10.00072, 9.998469 
1.5451528e+3, 3.039914e+2, -54857.418, -310121.56, -65881.73, 0.18026067, -0.46276507, -38856.805, -38856.805, 0.0017831527, 10.000829, 9.997467 
1.545162e+3, 3.1399035e+2, 163472.69, -95939.164, -40265.707, 0.057808615, -0.3363044, 169578.97, 169578.97, 0.0029899941, 10.00183, 9.998461 
1.554885e+3, 1.2398775e+2, -1725680.6, -1725647.0, -103613.79, 0.012189006, -0.54323035, -1622050.0, 102819.49, 0.020587768, 9.999943, 9.999943 
1.5549004e+3, 1.3398886e+2, -1555056.8, -1523015.1, 101725.32, -0.012409663, -0.49852738, -1436056.9, 190803.45, 0.012455585, 10.000154, 10.000568 
1.5549174e+3, 1.4398809e+2, -1462671.8, -1446212.5, 55398.574, 0.15863058, -0.6156992, -1398435.6, 130432.336, 0.0055746003, 10.000164, 10.000419 
1.5549308e+3, 1.5398982e+2, -1395136.3, -1338751.4, 71787.96, 0.059942037, -0.51741546, -1289818.5, 141030.42, 0.001515748, 9.999862, 10.000624 
1.5549456e+3, 1.6399054e+2, -1399362.4, -1438982.5, 120274.01, 0.003585146, -0.43618977, -1297277.9, 35565.06, 0.00016035176, 9.999802, 9.999286 
1.5549625e+3, 1.7398988e+2, -1254215.8, -1312634.3, 101772.73, 0.061515946, -0.44770813, -1177543.6, 57311.844, 0.0000013687348, 10.000104, 9.999334 
1.554978e+3, 1.8398987e+2, -1075938.5, -1039627.5, 39139.336, 0.027118308, -0.42828032, -1014637.8, 122220.72, 0.0, 10.000069, 10.000554 
1.5549912e+3, 1.9399107e+2, -1037817.1, -933374.9, 70147.42, -0.16226746, -0.4050838, -898144.8, 140700.55, 0.0, 9.999501, 10.000881 
1.5550059e+3, 2.0399143e+2, -1039211.1, -1059826.9, 90352.86, -0.20296153, -0.377637, -958580.06, -17737.262, 0.0, 9.999573, 9.999312 
1.5550235e+3, 2.139907e+2, -803423.06, -895075.6, 70880.8, -0.01812944, -0.39085755, -764844.75, 78009.64, 0.0, 10.00052, 9.999312 
1.5550394e+3, 2.2399041e+2, -650216.44, -738191.3, 12484.357, 0.07671839, -0.3544672, -648479.1, 96380.586, 0.0, 10.000762, 9.999597 
1.5550528e+3, 2.3399095e+2, -645001.56, -659315.6, 64769.598, 0.036727406, -0.29142115, -586994.75, 59858.78, 0.0, 10.000019, 9.999821 
1.5550674e+3, 2.4399015e+2, -619751.8, -695573.2, 131365.77, 0.038746234, -0.3055225, -520935.8, 27922.957, 0.0, 9.999941, 9.998941 
1.5550838e+3, 2.5398746e+2, -379059.03, -516522.38, 96950.65, 0.10878975, -0.48810825, -328948.5, 121931.305, 0.0000005355393, 10.0008745, 9.999046 
1.5550981e+3, 2.6398566e+2, -262993.7, -510719.06, 11416.9795, 0.051008005, -0.5247563, -262468.63, 90427.14, 0.000008556659, 10.001429, 9.998143 
1.5551093e+3, 2.7398533e+2, -149874.5, -397160.66, 42071.133, -0.19031322, -0.3930311, -142912.88, 111989.43, 0.00005618316, 10.001497, 9.998215 
1.5551233e+3, 2.839841e+2, -108932.49, -366905.7, 62258.477, -0.17533, -0.3127443, -94693.19, 62223.438, 0.0002694524, 10.001274, 9.99786 
1.5551409e+3, 2.9398176e+2, -84952.016, -285938.22, 51625.1, 0.18658116, -0.36932784, -72467.18, -13526.651, 0.0008545011, 10.000681, 9.998028 
1.5551542e+3, 3.0398014e+2, -7308.43, -178111.23, -35450.473, 0.21774396, -0.34081513, -242.8901, -242.8901, 0.0018516757, 10.0007105, 9.998422 
1.5551637e+3, 3.1397855e+2, 177403.1, -13032.715, 20740.947, 0.016807752, -0.38123503, 179635.88, 179635.88, 0.003092014, 10.001638, 9.999101 
1.5648846e+3, 1.2397485e+2, -1609409.1, -1624553.9, -74935.375, -0.04174099, -0.53090495, -1541664.5, 183333.08, 0.021849003, 10.000538, 10.000369 
1.5649015e+3, 1.3397585e+2, -1704578.6, -1625569.5, 82568.29, 0.13170609, -0.47337168, -1573542.0, 53446.93, 0.013250772, 9.999228, 10.00032 
1.5649174e+3, 1.4397486e+2, -1677884.5, -1572804.4, 39762.59, 0.21554197, -0.5911786, -1559454.1, -30455.604, 0.0059556314, 9.998809, 10.00019 
1.5649307e+3, 1.53976e+2, -1388523.1, -1366293.4, 7775.951, 0.048100505, -0.5249021, -1363843.4, 67141.96, 0.0016345053, 10.000045, 10.000343 
1.5649451e+3, 1.6397646e+2, -1334232.8, -1397723.0, 46553.13, -0.04291535, -0.45939124, -1309631.1, 23350.656, 0.00017771397, 10.000211, 9.999374 
1.564962e+3, 1.7397611e+2, -1404194.9, -1368673.1, 90061.35, 0.043234505, -0.4505835, -1294638.0, -59647.74, 0.0000016137079, 9.999006, 9.99948 
1.5649773e+3, 1.8397634e+2, -1290786.0, -1144347.6, 76202.195, 0.0229842, -0.4152621, -1111888.9, 25101.77, 0.0, 9.9986, 10.000542 
1.5649903e+3, 1.9397758e+2, -1044684.75, -942423.5, 38571.707, -0.1855289, -0.38335088, -929506.3, 109471.07, 0.0, 9.999472, 10.000836 
1.5650055e+3, 2.0397785e+2, -1027544.2, -1031314.5, 55347.84, -0.21048401, -0.37161857, -974049.44, -33074.027, 0.0, 9.9995575, 9.999508 
1.5650235e+3, 2.1397687e+2, -1068582.3, -994054.44, 98474.58, 0.032005653, -0.43632406, -926029.06, -83041.09, 0.0, 9.99858, 9.999559 
1.5650398e+3, 2.2397657e+2, -909625.44, -812965.7, 84443.484, 0.14557484, -0.4350835, -763999.75, -19008.334, 0.0, 9.998765, 10.000046 
1.5650535e+3, 2.3397747e+2, -521087.63, -548143.8, 55923.156, 0.066059895, -0.38413823, -477079.56, 169900.2, 0.0, 10.000643, 10.000286 
1.5650682e+3, 2.4397694e+2, -431856.4, -679918.9, 88572.22, 0.040872157, -0.36654422, -403477.72, 145506.31, 0.0, 10.001547, 9.998277 
1.5650845e+3, 2.5397447e+2, -409515.16, -619572.6, 73956.91, 0.08387541, -0.44723547, -386089.0, 64920.855, 0.00000039469393, 10.0010395, 9.998259 
1.565099e+3, 2.639729e+2, -309166.72, -452794.78, 10532.544, 0.050871298, -0.44815233, -308398.44, 44627.39, 0.000008163994, 10.000776, 9.998855 
1.5651114e+3, 2.7397278e+2, -180749.55, -317669.2, 22956.13, -0.093645945, -0.37963146, -177003.2, 78022.62, 0.000058034057, 10.000882, 9.999061 
1.5651253e+3, 2.8397176e+2, -115297.88, -356313.88, 66321.1, -0.09663074, -0.32570934, -98253.47, 58782.18, 0.00028458447, 10.001176, 9.997981 
1.565141e+3, 2.9396975e+2, 75512.35, -206396.4, 74971.37, 0.080825366, -0.34950164, 94210.234, 153267.88, 0.0008964698, 10.0017805, 9.998045 
1.5651545e+3, 3.039678e+2, 276390.38, -58314.027, 22813.55, 0.092097774, -0.35092562, 277938.2, 277938.2, 0.0019394822, 10.002712, 9.998285 
1.5651673e+3, 3.1396613e+2, 484435.06, 69454.914, -25623.01, 0.103555016, -0.37818912, 486011.2, 486011.2, 0.003246145, 10.003991, 9.998557 
1.5748823e+3, 1.2396236e+2, -1640456.8, -1683755.3, -127650.6, -0.34856987, -0.55993456, -1532632.6, 192489.4, 0.023204513, 10.000516, 9.999972 
1.5749015e+3, 1.3396426e+2, -1772607.9, -1757151.6, 36774.99, 0.19223122, -0.3296387, -1727301.6, -100193.59, 0.014108494, 9.999199, 9.99942 
1.5749167e+3, 1.4396346e+2, -1726276.3, -1688884.9, 67355.73, 0.23697464, -0.33924395, -1637678.4, -108560.945, 0.0063687824, 9.998862, 9.999376 
1.5749304e+3, 1.5396145e+2, -1445601.9, -1479836.8, 58282.332, 0.00876703, -0.5077467, -1401975.3, 29159.146, 0.00176415, 10.000023, 9.999576 
1.5749444e+3, 1.6396075e+2, -1265021.6, -1258555.6, 3950.163, -0.13710697, -0.55886465, -1256684.1, 76455.336, 0.00019721544, 10.000224, 10.000325 
1.5749599e+3, 1.739622e+2, -1330059.3, -1207741.4, 49909.273, -0.058327872, -0.48353615, -1189961.4, 45163.254, 0.0000019795527, 9.998977, 10.000597 
1.574976e+3, 1.8396303e+2, -1335661.6, -1240903.0, 96367.35, 0.009514789, -0.42088488, -1180897.6, -43779.93, 0.0, 9.99861, 9.999877 
1.5749921e+3, 1.9396308e+2, -1110572.5, -1070842.9, 76033.09, 0.0282201, -0.4240682, -1012122.44, 26998.434, 0.0, 9.999437, 9.999972 
1.5750076e+3, 2.0396322e+2, -962131.94, -888432.4, 21323.37, 0.033426374, -0.42098737, -882707.6, 58412.563, 0.0, 9.999521, 10.000508 
1.5750222e+3, 2.1396373e+2, -995034.75, -824753.8, 66274.19, 0.02906062, -0.45560724, -802000.06, 41111.746, 0.0, 9.998508, 10.000755 
1.5750378e+3, 2.2396363e+2, -944009.44, -867248.8, 139615.13, 0.058826823, -0.48544478, -760834.7, -15724.744, 0.0, 9.998688, 9.999712 
1.575055e+3, 2.3396277e+2, -570348.0, -629008.7, 132453.03, 0.13519624, -0.5620384, -464016.72, 183099.89, 0.0, 10.000549, 9.999777 
1.5750706e+3, 2.4396197e+2, -476071.8, -745482.2, 73600.74, 0.11787155, -0.5235044, -457276.0, 91850.29, 0.0, 10.001431, 9.997881 
1.5750843e+3, 2.5396153e+2, -447195.06, -682103.56, 60341.01, -0.04206929, -0.3676665, -432601.8, 18536.695, 0.00000029448665, 10.000973, 9.997859 
1.575099e+3, 2.6396072e+2, -274908.22, -367917.8, 9560.798, -0.047070567, -0.29771963, -273935.6, 79212.92, 0.000007127328, 10.000713, 9.999471 
1.5751152e+3, 2.739594e+2, -135845.97, -205776.38, 35453.793, 0.18076052, -0.42435658, -121016.23, 134138.55, 0.000058357444, 10.000804, 9.999866 
1.5751293e+3, 2.8395802e+2, -91608.695, -296259.7, 83453.15, 0.1943124, -0.47963837, -61892.773, 95272.34, 0.0002965317, 10.001116, 9.998427 
1.5751408e+3, 2.939567e+2, 95946.87, -154528.55, 108903.055, -0.13892467, -0.4723268, 136674.1, 195852.9, 0.0009377398, 10.001733, 9.998426 
1.5751539e+3, 3.0395427e+2, 177806.94, -235300.23, 66293.55, -0.24982826, -0.48747823, 188184.72, 188184.72, 0.0020369852, 10.002606, 9.997112 
1.5751725e+3, 3.1395334e+2, 354254.5, -144711.95, 44549.85, 0.1894804, -0.31541377, 358200.88, 358200.88, 0.00343096, 10.003774, 9.997171 
1.5848829e+3, 1.23950034e+2, -1838887.3, -1813251.8, -112652.92, -0.29373708, -0.52075344, -1712689.8, 12555.093, 0.024665277, 9.999308, 9.999644 
1.584901e+3, 1.3395149e+2, -1607398.3, -1729391.6, 20591.201, 0.16192046, -0.28725693, -1604016.5, 23220.145, 0.0150364665, 10.000565, 9.998953 
1.5849146e+3, 1.4395083e+2, -1475518.0, -1582476.3, 105483.875, 0.06274918, -0.25089368, -1410731.0, 118514.38, 0.0068181083, 10.000657, 9.999237 
1.5849301e+3, 1.5394841e+2, -1532782.3, -1535538.4, 136163.33, 0.010758746, -0.44970718, -1397990.0, 33276.54, 0.0019058621, 9.999483, 9.999452 
1.5849449e+3, 1.6394739e+2, -1440337.3, -1326127.0, 78579.56, -0.05089719, -0.5333913, -1286094.4, 47179.074, 0.0002187055, 9.998952, 10.000468 
1.5849595e+3, 1.739485e+2, -1248185.9, -1148090.6, 39384.637, -0.02613416, -0.50998724, -1134452.1, 100806.96, 0.000002466339, 9.999452, 10.000774 
1.5849751e+3, 1.8394919e+2, -1212517.0, -1199512.9, 94666.05, 0.028134426, -0.46261093, -1111125.9, 26126.465, 0.0, 9.999539, 9.99971 
1.5849918e+3, 1.9394945e+2, -1163395.6, -1115021.9, 115653.7, 0.0771551, -0.42386568, -1021053.0, 18201.035, 0.0, 9.99916, 9.999799 
1.5850075e+3, 2.039496e+2, -985078.2, -900147.06, 59406.543, 0.08479041, -0.4119386, -869588.9, 71664.39, 0.0, 9.999372, 10.000503 
1.5850219e+3, 2.1394968e+2, -705330.94, -686923.4, 2843.647, 0.049114335, -0.489636, -686494.06, 156753.8, 0.0, 10.000496, 10.000754 
1.5850376e+3, 2.2394943e+2, -625763.6, -728006.7, 66182.1, 0.06497001, -0.5271108, -593258.1, 151989.16, 0.0, 10.000938, 9.999582 
1.5850554e+3, 2.3394899e+2, -583977.7, -651871.7, 75105.8, 0.14328185, -0.54351336, -535503.3, 111747.95, 0.0, 10.000525, 9.999633 
1.5850717e+3, 2.4394847e+2, -624061.5, -777822.9, 31791.078, 0.1388589, -0.4852733, -617747.75, -68488.984, 0.0, 10.000262, 9.998213 
1.5850854e+3, 2.5394794e+2, -528175.75, -680784.1, 57993.72, 0.0024160189, -0.37343445, -508638.38, -57368.16, 0.00000023115544, 10.000243, 9.998215 
1.5850998e+3, 2.639469e+2, -328051.16, -368637.28, 44623.684, -0.006061618, -0.3562017, -299323.0, 53958.227, 0.0000061293663, 10.000245, 9.999681 
1.5851156e+3, 2.7394533e+2, -186883.05, -208161.11, 17445.926, 0.17637685, -0.5292204, -177088.05, 78200.91, 0.00005923624, 10.0003605, 10.000056 
1.5851304e+3, 2.839442e+2, -113971.51, -325546.3, 62864.22, 0.18884894, -0.560507, -96702.484, 60594.605, 0.00030706255, 10.001052, 9.99825 
1.5851434e+3, 2.9394373e+2, 197985.66, -130060.32, 26925.207, -0.08819425, -0.44651204, 200180.92, 259486.03, 0.0009776513, 10.002546, 9.998198 
1.5851574e+3, 3.0394074e+2, 233007.2, -215885.89, -27156.154, -0.19064146, -0.5043336, 234644.08, 234644.08, 0.0021345343, 10.002995, 9.997077 
1.5851746e+3, 3.139394e+2, 64013.36, -267120.16, 19308.674, 0.14688389, -0.36736432, 65135.46, 65135.46, 0.0036136475, 10.001685, 9.99735 
1.5948859e+3, 1.2393804e+2, -1861714.0, -1868977.8, -1430.8218, 0.055909276, -0.41123003, -1861442.3, -136077.8, 0.026239868, 9.999333, 9.999251 
1.5948999e+3, 1.3393764e+2, -1612767.0, -1736008.4, 69103.82, -0.004956664, -0.3567506, -1581800.1, 45573.813, 0.016040104, 10.000549, 9.998913 
1.594911e+3, 1.4393702e+2, -1434563.9, -1512621.0, 61974.875, -0.37446907, -0.33557504, -1400352.4, 129029.73, 0.0073062, 10.00071, 9.999698 
1.5949295e+3, 1.5393709e+2, -1499412.8, -1463688.0, 97612.69, 0.00028391453, -0.33806044, -1382316.9, 49062.3, 0.002060233, 9.999469, 9.999954 
1.5949462e+3, 1.6393654e+2, -1487126.4, -1425655.3, 86206.6, 0.1655381, -0.36913112, -1364869.0, -31487.215, 0.00024185247, 9.9989605, 9.999783 
1.5949604e+3, 1.7393509e+2, -1309229.8, -1268799.6, 62956.28, 0.10123739, -0.52180314, -1222892.5, 12500.411, 0.0000030340082, 9.99943, 9.999955 
1.5949748e+3, 1.839349e+2, -1184295.1, -1145794.3, 77677.914, 0.030588452, -0.5346712, -1085017.0, 52376.664, 0.0, 9.999555, 10.000073 
1.5949894e+3, 1.9393685e+2, -1136165.0, -1050457.5, 107536.03, -0.084769934, -0.3743862, -977550.94, 61824.92, 0.0, 9.9991255, 10.000258 
1.5950051e+3, 2.0393702e+2, -1062987.9, -1056352.6, 90772.06, -0.10539664, -0.33626866, -968837.56, -27463.11, 0.0, 9.999344, 9.999443 
1.5950222e+3, 2.1393466e+2, -802973.6, -869535.4, 48918.59, 0.038100738, -0.5386511, -777088.25, 66307.99, 0.0, 10.000414, 9.9995365 
1.595039e+3, 2.2393402e+2, -634428.44, -728499.9, 51726.117, 0.10351632, -0.55159974, -611550.3, 133852.25, 0.0, 10.000854, 9.999623 
1.595055e+3, 2.3393618e+2, -582258.94, -632414.0, 67338.875, 0.04293069, -0.32794505, -535479.6, 111903.83, 0.0, 10.000451, 9.999805 
1.5950711e+3, 2.4393639e+2, -568644.25, -642699.7, 27620.908, 0.04666789, -0.2502573, -559477.06, -10095.481, 0.0, 10.000176, 9.999181 
1.5950873e+3, 2.539337e+2, -464245.0, -529026.9, 63431.188, 0.15980788, -0.4628239, -425413.13, 25992.36, 0.00000009760233, 10.000166, 9.999292 
1.5951015e+3, 2.6393148e+2, -353001.3, -410378.13, 43660.535, 0.12218425, -0.6074624, -329447.34, 23976.055, 0.0000054247644, 10.000192, 9.999425 
1.595113e+3, 2.7393055e+2, -221730.56, -271865.03, 29807.738, -0.14282957, -0.6821044, -207850.81, 47577.293, 0.000061938634, 10.000318, 9.99964 
1.595128e+3, 2.8393018e+2, -182960.25, -453293.2, 109745.055, -0.16036661, -0.5718671, -144017.69, 13414.816, 0.0003177167, 10.000984, 9.997409 
1.5951486e+3, 2.9393047e+2, 125964.945, -261886.38, 92687.6, 0.1665287, -0.292407, 146976.84, 206415.98, 0.0010084098, 10.002465, 9.997337 
1.5951642e+3, 3.0392691e+2, 280437.66, -81437.3, -68803.78, 0.19468632, -0.40280727, 293077.9, 293077.9, 0.0022063714, 10.002861, 9.998057 
1.5951738e+3, 3.1392428e+2, 158620.78, -28619.727, -7214.9644, -0.1175219, -0.51811415, 158898.39, 158898.39, 0.0037438306, 10.001538, 9.999046 
1.6048867e+3, 1.2392512e+2, -1661003.4, -1777206.5, 57285.71, 0.14403062, -0.37255853, -1637511.8, 87980.88, 0.027939666, 10.000745, 9.999201 
1.6048996e+3, 1.3392381e+2, -1881925.3, -1864885.3, 35809.332, 0.011076543, -0.40665504, -1836596.4, -209086.47, 0.01712635, 9.998692, 9.998919 
1.6049102e+3, 1.4392304e+2, -1823882.3, -1678269.1, 58298.926, -0.38360128, -0.4101517, -1657804.3, -128285.14, 0.007836914, 9.997953, 9.99988 
1.6049291e+3, 1.5392415e+2, -1468900.0, -1429292.1, 55617.707, 0.007846544, -0.32923016, -1390057.6, 41449.1, 0.0022287087, 9.999587, 10.0001335 
1.604946e+3, 1.6392413e+2, -1301720.1, -1352004.5, 57216.242, 0.18907022, -0.31176662, -1264365.6, 69139.12, 0.00026665046, 10.000314, 9.999633 
1.6049601e+3, 1.7392252e+2, -1236223.9, -1254285.0, 70276.67, 0.105359666, -0.45872748, -1174400.0, 61117.434, 0.0000036433328, 10.000018, 9.999775 
1.6049744e+3, 1.8392193e+2, -1137322.8, -1129816.5, 99994.266, 0.027521973, -0.49907422, -1033504.94, 104016.19, 0.0, 9.999907, 10.00001 
1.6049893e+3, 1.9392303e+2, -979693.25, -982428.25, 77571.61, -0.07022162, -0.42125773, -903477.06, 136032.55, 0.0, 10.000221, 10.000198 
1.6050051e+3, 2.0392284e+2, -945896.1, -1034536.6, 92294.3, -0.08188465, -0.4017763, -887832.2, 53679.082, 0.0, 10.000306, 9.999127 
1.6050225e+3, 2.13921e+2, -863301.75, -934781.1, 106543.375, 0.040760122, -0.51614976, -786663.44, 56866.42, 0.0, 10.000165, 9.999205 
1.6050392e+3, 2.2392039e+2, -783470.9, -826519.1, 117288.125, 0.09197293, -0.4954531, -685748.25, 59788.79, 0.0, 9.999952, 9.999377 
1.6050549e+3, 2.3392189e+2, -709348.8, -715097.8, 85300.375, 0.020459201, -0.31530225, -626874.56, 20650.05, 0.0, 9.999686, 9.999593 
1.605071e+3, 2.439217e+2, -577924.94, -596779.4, 47112.266, 0.037001155, -0.28681675, -539306.0, 10219.215, 0.0, 9.999892, 9.999642 
1.6050881e+3, 2.5391912e+2, -332553.72, -403697.75, 40074.234, 0.19470485, -0.5354996, -314541.1, 137002.4, 0.000000007673713, 10.000808, 9.999851 
1.6051029e+3, 2.639172e+2, -190691.42, -396002.66, -6115.3154, 0.17063646, -0.6599189, -190509.44, 163049.17, 0.0000049766613, 10.001591, 9.998848 
1.6051142e+3, 2.7391654e+2, -8091.438, -254511.52, -62640.297, -0.12922668, -0.6307786, 6917.627, 262483.5, 0.00006397672, 10.0021515, 9.99888 
1.6051294e+3, 2.8391612e+2, -8053.965, -380085.72, 42667.39, -0.18541086, -0.479524, -3223.2732, 154350.75, 0.0003242289, 10.00223, 9.9973135 
1.60515e+3, 2.93916e+2, 1697.482, -321843.28, 75217.8, 0.100935794, -0.24076767, 18329.38, 77913.47, 0.0010201149, 10.001614, 9.9973345 
1.6051665e+3, 3.039121e+2, 185730.75, -97292.914, -60401.387, 0.18400311, -0.3947875, 198082.25, 198082.25, 0.0022306554, 10.002077, 9.998319 
1.6051784e+3, 3.1390917e+2, 581783.0, 249547.67, -94684.65, 0.06319615, -0.56609213, 606872.7, 606872.7, 0.0037873564, 10.004106, 9.999738 
1.6148852e+3, 1.2391119e+2, -1620870.8, -1716832.8, 43119.723, -0.11102346, -0.42483428, -1604342.1, 121287.74, 0.02978273, 10.000839, 9.999577 
1.6149e+3, 1.3391043e+2, -1881425.9, -1855861.8, -43898.355, 0.16025451, -0.4124844, -1822922.4, -195282.14, 0.018308382, 9.998652, 9.999003 
1.614912e+3, 1.4390913e+2, -1834259.6, -1700557.6, 101660.805, -0.013063937, -0.46749938, -1645737.0, -116082.6, 0.008418617, 9.997952, 9.999729 
1.6149285e+3, 1.5390964e+2, -1487022.6, -1461714.6, 122982.09, -0.008711689, -0.42176548, -1350737.3, 80911.836, 0.0024150687, 9.999573, 9.999917 
1.614944e+3, 1.6391015e+2, -1259888.8, -1286991.5, 45101.19, -0.039524633, -0.3581723, -1226347.0, 107295.37, 0.0002938315, 10.000393, 10.000046 
1.6149585e+3, 1.7391092e+2, -1203829.4, -1187809.3, 63456.484, -0.06510256, -0.3174978, -1131859.3, 103772.26, 0.000004294035, 10.000014, 10.000236 
1.6149738e+3, 1.8391037e+2, -1172391.1, -1205975.3, 104445.07, -0.0344725, -0.35388908, -1083396.9, 54237.133, 0.0, 9.999922, 9.999478 
1.614991e+3, 1.9390799e+2, -1028239.4, -1078606.1, 94833.95, 0.06827413, -0.56008047, -955302.0, 84353.07, 0.0, 10.000204, 9.999545 
1.6150074e+3, 2.0390707e+2, -924082.8, -978486.2, 80143.39, 0.09624571, -0.5955859, -866650.6, 75012.55, 0.0, 10.0002575, 9.9995365 
1.6150226e+3, 2.1390866e+2, -835145.7, -861975.8, 105184.5, 0.018009491, -0.4208816, -742524.25, 101124.58, 0.0, 10.000103, 9.999733 
1.6150384e+3, 2.2390854e+2, -838649.9, -918917.4, 101561.51, -0.0137253385, -0.35373324, -769579.9, -23929.064, 0.0, 9.999861, 9.998787 
1.6150548e+3, 2.3390603e+2, -770345.1, -824043.4, 81062.266, 0.020448647, -0.5036811, -711801.25, -64125.4, 0.0, 9.999613, 9.998879 
1.615071e+3, 2.439044e+2, -588486.75, -603354.5, 71747.04, 0.046879306, -0.5780024, -523789.47, 25900.088, 0.0, 9.999822, 9.999632 
1.6150877e+3, 2.539043e+2, -338266.9, -398572.94, 82313.9, 0.06180461, -0.589766, -280757.03, 170927.06, 0.00000000987263, 10.000731, 9.999923 
1.6151038e+3, 2.6390386e+2, -278646.8, -555611.44, 12400.027, 0.09187233, -0.52456504, -278092.75, 75595.445, 0.000004852554, 10.00149, 9.997801 
1.6151193e+3, 2.73903e+2, -102423.6, -428294.7, -32426.842, 0.14848016, -0.39760533, -99228.195, 156476.81, 0.00006378427, 10.002064, 9.9977255 
1.615134e+3, 2.839018e+2, 24543.297, -300592.78, 18597.158, 0.043796737, -0.28388882, 25603.56, 183325.92, 0.0003243143, 10.0021715, 9.9978895 
1.6151473e+3, 2.9390022e+2, 51579.063, -209213.06, 62823.914, -0.32760024, -0.27667803, 65924.07, 125663.57, 0.0010147488, 10.001569, 9.998132 
1.6151641e+3, 3.0389613e+2, 134070.39, -174534.95, 1170.2115, -0.26170492, -0.4726568, 134074.83, 134074.83, 0.002213579, 10.00197, 9.997828 
1.6151877e+3, 3.1389388e+2, 529041.6, 213775.6, -2938.0637, 0.55878067, -0.5161838, 529069.0, 529069.0, 0.003751188, 10.003836, 9.999597 
1.624884e+3, 1.2389755e+2, -1946188.6, -1827172.4, 47927.746, -0.18182959, -0.38711447, -1810271.9, -84506.94, 0.03179242, 9.998391, 9.999989 
1.6248986e+3, 1.3389692e+2, -1646440.5, -1736307.4, -110828.94, 0.09482693, -0.3690394, -1571782.8, 55990.56, 0.019603958, 10.000238, 9.999062 
1.6249123e+3, 1.438956e+2, -1461896.8, -1537518.4, 63490.566, 0.10450378, -0.4219622, -1425810.9, 103976.25, 0.009062119, 10.000594, 9.999571 
1.6249284e+3, 1.538953e+2, -1501328.9, -1482583.9, 85417.94, 0.014884236, -0.4380277, -1406025.8, 25763.576, 0.002624408, 9.99955, 9.999773 
1.6249436e+3, 1.6389556e+2, -1432870.8, -1373463.3, 2674.9268, -0.071513295, -0.39098167, -1373343.0, -39557.44, 0.00032476612, 9.999229, 10.000006 
1.624958e+3, 1.7389673e+2, -1196187.5, -1185439.3, -28438.033, -0.11016763, -0.3093602, -1161872.0, 73899.99, 0.000005034694, 10.000081, 10.000212 
1.6249736e+3, 1.8389627e+2, -1140576.9, -1188908.3, -397.05307, -0.058685023, -0.33382642, -1140573.6, -2800.1465, 0.0, 10.000136, 9.9994955 
1.624991e+3, 1.9389366e+2, -1196925.8, -1150127.6, 28543.385, 0.108976886, -0.56782687, -1136618.1, -96823.15, 0.0, 9.99902, 9.99962 
1.6250075e+3, 2.0389275e+2, -1101273.5, -1041830.94, 85333.02, 0.16193758, -0.61712503, -981191.4, -39389.8, 0.0, 9.998945, 9.999733 
1.625023e+3, 2.1389458e+2, -763627.4, -805139.9, 80756.266, 0.042387042, -0.4375996, -701002.56, 142781.39, 0.0, 10.000492, 9.999941 
1.625039e+3, 2.2389439e+2, -607525.1, -825008.44, 61144.707, -0.010388562, -0.38126302, -591513.3, 154272.75, 0.0, 10.0015135, 9.998638 
1.6250552e+3, 2.338914e+2, -476532.88, -707478.3, 64074.79, 0.024107184, -0.55817586, -459946.78, 187868.77, 0.0, 10.00173, 9.998667 
1.6250718e+3, 2.4388942e+2, -368853.7, -570645.44, 72048.89, 0.045097236, -0.62689584, -345769.66, 204063.94, 0.0, 10.001644, 9.998975 
1.6250882e+3, 2.5388914e+2, -328440.8, -476284.0, 9162.925, 0.028898938, -0.5898815, -327875.1, 123957.56, 0.000000011745934, 10.001141, 9.999193 
1.6251047e+3, 2.6388833e+2, -360166.78, -628117.7, -43585.6, 0.06714337, -0.5023011, -353255.3, 586.26, 0.0000048598445, 10.001069, 9.997509 
1.6251215e+3, 2.738871e+2, -173926.25, -488765.7, -31534.154, 0.19186567, -0.39079484, -170798.88, 85064.15, 0.000062331186, 10.001679, 9.997497 
1.625137e+3, 2.838856e+2, 85542.96, -226708.14, 48680.1, 0.11383142, -0.31356442, 92956.21, 250838.58, 0.0003208773, 10.00241, 9.998278 
1.62515e+3, 2.938839e+2, 336548.22, -23896.9, 40450.438, -0.29232132, -0.3599285, 341031.94, 400929.13, 0.0010017914, 10.003321, 9.998562 
1.6251668e+3, 3.0388048e+2, 314763.75, -97524.45, -4879.803, -0.24748148, -0.50523114, 314821.5, 314821.5, 0.002173294, 10.003238, 9.997764 
1.6251904e+3, 3.138785e+2, 219921.66, 57341.184, 2033.1759, 0.5615475, -0.5049179, 219947.08, 219947.08, 0.0036599205, 10.001673, 9.999595 
1.634883e+3, 1.2388477e+2, -1921663.8, -1776135.9, 105051.39, -0.1594563, -0.2225431, -1721109.5, 4782.702, 0.03398967, 9.998391, 10.000337 
1.6348958e+3, 1.3388337e+2, -1653126.5, -1755865.8, -44623.05, -0.23626809, -0.26333863, -1636451.6, -8543.939, 0.02102759, 10.00026, 9.998913 
1.6349111e+3, 1.4388248e+2, -1450074.0, -1536834.3, 19404.494, -0.10459455, -0.26540726, -1445931.9, 83985.0, 0.009775217, 10.000689, 9.99953 
1.6349281e+3, 1.5388136e+2, -1507940.5, -1492509.0, 49652.297, 0.015731303, -0.3632601, -1449976.5, -18050.69, 0.002860367, 9.999531, 9.999714 
1.6349441e+3, 1.6388047e+2, -1470775.0, -1451612.6, 21600.934, 0.04215208, -0.40548828, -1437563.3, -103629.695, 0.00036087315, 9.999228, 9.999471 
1.6349587e+3, 1.7387992e+2, -1241263.0, -1274008.8, 6376.416, -0.06945452, -0.4305073, -1240065.3, -4126.067, 0.000005927034, 10.000065, 9.999611 
1.6349734e+3, 1.8387964e+2, -1090544.3, -1093744.6, -40521.453, -0.09744199, -0.43384317, -1051591.4, 86348.25, 0.0, 10.000166, 10.000139 
1.6349891e+3, 1.9388e+2, -1142747.3, -1034713.5, -8636.445, 0.0028650793, -0.4493558, -1034027.44, 5902.1587, 0.0, 9.999003, 10.0004225 
1.6350056e+3, 2.0387976e+2, -1108173.8, -1048031.8, 126671.16, 0.06462238, -0.47586548, -947911.2, -5983.7114, 0.0, 9.998908, 9.999711 
1.6350238e+3, 2.138787e+2, -783107.8, -829234.1, 145244.58, 0.06361708, -0.57259977, -659106.75, 184829.2, 0.0, 10.00042, 9.999812 
1.6350411e+3, 2.2387798e+2, -607470.94, -799786.7, 70524.31, 0.037580367, -0.5746873, -584381.06, 161561.55, 0.0, 10.001402, 9.998867 
1.6350567e+3, 2.3387794e+2, -469217.28, -672461.0, 77713.016, -0.01645574, -0.4841772, -442908.25, 205036.19, 0.0, 10.001643, 9.998949 
1.6350728e+3, 2.4387662e+2, -479204.3, -774831.4, 51151.855, -0.018494898, -0.44240287, -470603.8, 79354.625, 0.0, 10.001538, 9.997623 
1.6350897e+3, 2.538735e+2, -445053.6, -703777.25, -2119.3125, 0.044226035, -0.5321916, -445036.25, 6952.9116, 0.000000006263202, 10.001082, 9.997658 
1.6351058e+3, 2.638708e+2, -335824.75, -569464.9, -27304.607, 0.04217974, -0.56838006, -332676.2, 21340.543, 0.000005059976, 10.001026, 9.997935 
1.635121e+3, 2.7386892e+2, -137564.34, -397046.03, 3402.418, -0.046678197, -0.58922046, -137519.75, 118518.49, 0.000060572125, 10.001605, 9.998165 
1.6351381e+3, 2.8386742e+2, 75812.09, -225079.4, 78360.2, -0.032409515, -0.553788, 94996.08, 253050.34, 0.00031406162, 10.002317, 9.998333 
1.6351576e+3, 2.9386684e+2, 318593.16, -33431.56, 85610.875, 0.119976476, -0.48356944, 338309.13, 398367.63, 0.0009813922, 10.003209, 9.998548 
1.6351742e+3, 3.038651e+2, 320744.44, -53985.86, -59886.938, 0.1475894, -0.4773874, 330082.47, 330082.47, 0.0021163202, 10.003109, 9.998123 
1.6351867e+3, 3.1386298e+2, 221791.05, 100512.48, -39388.383, 0.0014343795, -0.5413956, 233460.6, 233460.6, 0.0035357173, 10.001526, 9.99995 
1.6448815e+3, 1.2386761e+2, -1950116.4, -1717084.3, -82666.3, -0.12300898, -0.23242061, -1690737.8, 35324.324, 0.036383986, 9.997895, 10.00099 
1.6448939e+3, 1.3386637e+2, -1900176.1, -1763352.6, -126864.62, -0.33837584, -0.35180593, -1687629.8, -59556.746, 0.022584815, 9.998101, 9.999898 
1.6449107e+3, 1.4386706e+2, -1758408.0, -1647716.8, -34751.156, -0.08818837, -0.2640128, -1637711.1, -107646.28, 0.010560797, 9.998405, 9.999873 
1.6449274e+3, 1.5386619e+2, -1529800.4, -1475742.1, 2472.6177, 0.009558822, -0.36135456, -1475629.3, -43557.215, 0.0031241647, 9.999249, 9.999972 
1.6449437e+3, 1.6386534e+2, -1404467.0, -1439238.3, 33020.727, 0.05096849, -0.40519884, -1384534.6, -50454.086, 0.0004029895, 9.999757, 9.999308 
1.644959e+3, 1.738645e+2, -1281427.9, -1317686.5, 40236.387, -0.019084107, -0.4388711, -1255425.1, -19333.98, 0.0000070009137, 9.999885, 9.999407 
1.644974e+3, 1.8386419e+2, -1060149.8, -1066568.1, -17697.146, -0.05348597, -0.43528238, -1045373.2, 92719.69, 0.0, 10.000339, 10.00023 
1.6449888e+3, 1.9386499e+2, -775754.3, -848654.9, -53340.62, -0.038442332, -0.41961268, -747599.3, 292479.22, 0.0, 10.001483, 10.000505 
1.6450052e+3, 2.038647e+2, -711673.4, -853601.5, 66616.87, 0.0014287333, -0.45480567, -685304.5, 256771.06, 0.0, 10.001611, 9.999744 
1.6450241e+3, 2.1386303e+2, -813098.5, -838403.44, 86895.07, 0.07048817, -0.61627084, -737939.56, 106147.555, 0.0, 10.000195, 9.99985 
1.6450419e+3, 2.2386208e+2, -843078.9, -932467.06, 41856.28, 0.06453612, -0.6360781, -826539.75, -80444.414, 0.0, 9.999874, 9.99869 
1.6450578e+3, 2.3386231e+2, -536114.2, -728952.2, 3927.1208, -0.059218314, -0.49813217, -536034.25, 112062.66, 0.0, 10.001288, 9.998733 
1.645074e+3, 2.4386124e+2, -384749.66, -707905.5, -18811.45, -0.07948901, -0.42601052, -383658.28, 166451.53, 0.0, 10.002104, 9.997804 
1.645091e+3, 2.538585e+2, -292089.97, -604944.4, 41372.117, 0.042322177, -0.49840912, -286711.38, 165425.61, 0.000000005166704, 10.002034, 9.997875 
1.6451074e+3, 2.6385593e+2, -172025.44, -489818.56, 109787.375, 0.056537706, -0.5368424, -137786.34, 216376.42, 0.000005473011, 10.0021515, 9.997937 
1.6451226e+3, 2.738536e+2, 11736.289, -329900.72, 74427.43, -0.09473969, -0.59652984, 27246.537, 283432.84, 0.000058693688, 10.002654, 9.998119 
1.64514e+3, 2.838515e+2, 100721.305, -234257.52, 107830.66, -0.07651832, -0.6090638, 132430.67, 290637.72, 0.00030246936, 10.002597, 9.998128 
1.6451608e+3, 2.938502e+2, 75894.01, -174011.58, 82062.61, 0.1914125, -0.58445984, 100431.93, 160650.2, 0.0009508184, 10.0016575, 9.99832 
1.6451773e+3, 3.0384907e+2, 151155.14, -123460.21, -54462.555, 0.21386532, -0.51659125, 161561.95, 161561.95, 0.0020491271, 10.001863, 9.998249 
1.6451882e+3, 3.138478e+2, 522799.06, 227913.92, -88178.79, -0.10436847, -0.5054298, 547155.25, 547155.25, 0.0034089144, 10.00367, 9.999792 
1.6548787e+3, 1.23846084e+2, -1855753.1, -1545844.3, -166685.11, -0.2194327, -0.40197062, -1473213.9, 253060.69, 0.03897044, 9.997982, 10.00217 
1.6548929e+3, 1.3384598e+2, -1758427.1, -1459769.5, -116172.77, -0.26073703, -0.6277139, -1419902.1, 208365.86, 0.024272982, 9.998038, 10.002047 
1.6549112e+3, 1.4384933e+2, -1715843.1, -1551911.6, -14592.663, 0.11134759, -0.42270938, -1550622.8, -20391.584, 0.0114189135, 9.998376, 10.000544 
1.6549261e+3, 1.538499e+2, -1499336.4, -1408146.6, 39605.414, -0.05559506, -0.42492765, -1393347.1, 38879.996, 0.0034161112, 9.999235, 10.0004425 
1.6549419e+3, 1.6385037e+2, -1375347.9, -1397658.9, 34308.297, -0.118287824, -0.3738347, -1350427.0, -16202.096, 0.00045137366, 9.999825, 9.999565 
1.6549592e+3, 1.7385061e+2, -1265485.8, -1282978.3, 49408.8, -0.00643878, -0.32693672, -1224055.0, 12171.203, 0.000008273259, 9.999873, 9.999651 
1.6549754e+3, 1.8385004e+2, -1099064.9, -1150968.8, 16728.729, 0.029404446, -0.33963075, -1094140.4, 44091.97, 0.0, 10.000349, 9.999649 
1.6549902e+3, 1.938486e+2, -828993.5, -950678.6, -4757.315, -0.059755392, -0.47643656, -828807.8, 211434.02, 0.0, 10.001447, 9.999824 
1.6550061e+3, 2.0384766e+2, -713360.44, -844026.1, 20101.482, -0.0823208, -0.5421132, -710337.94, 231907.05, 0.0, 10.0015545, 9.999838 
1.655024e+3, 2.1384765e+2, -808084.94, -813354.7, 38070.98, 0.014526614, -0.5584002, -772557.75, 71679.19, 0.0, 10.000133, 10.000052 
1.6550414e+3, 2.2384669e+2, -894054.94, -1024192.44, 77627.05, 0.010055035, -0.56227726, -857832.5, -111588.34, 0.0, 9.999807, 9.998096 
1.6550581e+3, 2.338445e+2, -597158.9, -835911.3, 66111.375, -0.15729265, -0.59852475, -580074.9, 68197.914, 0.0, 10.001202, 9.998042 
1.6550751e+3, 2.4384332e+2, -285475.56, -479251.75, -17845.33, -0.19742662, -0.57021946, -283845.84, 266441.44, 0.0, 10.002002, 9.999426 
1.6550925e+3, 2.5384402e+2, -170028.39, -331110.53, 44657.977, -0.021709818, -0.4939625, -158476.03, 293801.44, 0.00000000856411, 10.00195, 9.999794 
1.6551097e+3, 2.638434e+2, -216522.2, -568494.25, 120856.305, 0.062520735, -0.41975075, -179019.77, 175262.77, 0.0000057188686, 10.002086, 9.997433 
1.655126e+3, 2.7384087e+2, -54942.277, -449911.47, 101818.61, -0.012523119, -0.41943765, -30239.576, 226070.02, 0.000057056757, 10.002572, 9.997336 
1.6551428e+3, 2.838377e+2, 57993.17, -307590.9, 74094.68, -0.07852912, -0.4755298, 72439.445, 230781.19, 0.00029092102, 10.002518, 9.997668 
1.6551594e+3, 2.9383385e+2, 40851.836, -236936.06, 57703.156, -0.113723435, -0.6678054, 52361.29, 112739.375, 0.00092205656, 10.001605, 9.997916 
1.6551761e+3, 3.0383214e+2, 117196.89, -156094.58, -1939.2277, -0.089336954, -0.6270962, 117210.65, 117210.65, 0.0019985014, 10.001723, 9.99808 
1.6551942e+3, 3.1383297e+2, 430841.4, 106594.53, -3429.4436, 0.116457164, -0.39087114, 430877.66, 430877.66, 0.003328062, 10.003397, 9.999072 
1.6648766e+3, 1.23829864e+2, -1872231.8, -1635913.1, 80175.945, -0.21792747, -0.43446612, -1611279.5, 115150.37, 0.041736465, 9.99818, 10.001454 
1.6648921e+3, 1.3382968e+2, -1602634.4, -1358575.4, 40468.277, -0.17905426, -0.6901264, -1352040.3, 276384.0, 0.026087236, 9.998964, 10.002319 
1.6649112e+3, 1.438329e+2, -1598473.5, -1504542.1, 43451.402, 0.23007536, -0.508474, -1487525.0, 42864.11, 0.012349877, 9.99922, 10.000464 
1.6649254e+3, 1.5383354e+2, -1563079.4, -1440727.5, 46853.438, -0.024072928, -0.4986354, -1424846.8, 7538.293, 0.003737191, 9.998813, 10.000418 
1.6649409e+3, 1.6383436e+2, -1523774.9, -1415763.1, 33914.867, -0.13329503, -0.4318762, -1405997.1, -71617.97, 0.00050616945, 9.998597, 10.000018 
1.6649584e+3, 1.7383532e+2, -1379862.0, -1281634.9, 55501.703, -0.010196271, -0.36445573, -1256636.5, -20265.025, 0.000009797576, 9.998848, 10.000148 
1.6649753e+3, 1.8383507e+2, -1278499.5, -1278900.6, 82793.04, 0.033009876, -0.35554388, -1195906.8, -57532.59, 0.0, 9.999297, 9.999274 
1.6649908e+3, 1.9383334e+2, -1031833.8, -1096103.6, 71810.94, -0.06873122, -0.47739935, -985295.56, 55093.805, 0.0, 10.00027, 9.99938 
1.6650072e+3, 2.0383206e+2, -802345.2, -944239.56, 51466.402, -0.10054324, -0.53167605, -785643.7, 156754.25, 0.0, 10.001192, 9.999323 
1.6650246e+3, 2.1383165e+2, -566836.25, -756871.6, 368.62784, -0.016158804, -0.5356158, -566835.5, 277559.13, 0.0, 10.002042, 9.999525 
1.665042e+3, 2.2383031e+2, -565004.9, -853643.2, 52405.332, -0.015521633, -0.55273956, -555784.7, 190620.81, 0.0, 10.002023, 9.998194 
1.665059e+3, 2.3382777e+2, -659753.3, -846562.3, 91380.38, -0.16246355, -0.63923264, -622487.3, 25948.525, 0.0, 10.000689, 9.998211 
1.6650765e+3, 2.4382675e+2, -509441.1, -565686.44, 25687.623, -0.18064567, -0.6153456, -499475.2, 50973.48, 0.0, 10.0003605, 9.999633 
1.6650945e+3, 2.5382823e+2, -194798.2, -321160.7, -43732.145, 0.0015094684, -0.4798285, -181139.55, 271293.25, 0.0000000057748837, 10.001671, 10.000006 
1.6651122e+3, 2.6382807e+2, -175265.61, -515366.25, -22598.197, 0.09792121, -0.38209388, -173770.63, 180662.98, 0.0000055479773, 10.002238, 9.997718 
1.6651286e+3, 2.7382565e+2, -159642.69, -471406.13, 19433.621, 0.036044095, -0.39953065, -158435.97, 98022.016, 0.000055266635, 10.001723, 9.997599 
1.6651449e+3, 2.8382254e+2, -82261.086, -416511.56, 50479.06, -0.062014457, -0.4484756, -74804.02, 83684.984, 0.00028143296, 10.001724, 9.997304 
1.6651605e+3, 2.9381868e+2, 153851.78, -230449.31, 13851.64, -0.21025988, -0.5938426, 154350.4, 214876.86, 0.00090243336, 10.00259, 9.997485 
1.6651776e+3, 3.038163e+2, 302102.6, -125032.73, -12663.377, -0.18775639, -0.57852495, 302477.72, 302477.72, 0.0019766411, 10.003233, 9.997573 
1.6651987e+3, 3.1381595e+2, 352988.78, -33001.33, -62734.21, 0.22783183, -0.4004248, 362928.88, 362928.88, 0.0033124597, 10.003278, 9.998185 
1.674875e+3, 1.2381875e+2, -2055862.9, -1997791.8, 27612.922, -0.23421769, -0.3661171, -1986758.1, -260228.53, 0.044670317, 9.998131, 9.998953 
1.6748914e+3, 1.3381778e+2, -1732077.3, -1617283.0, 75867.42, -0.14693137, -0.52149117, -1579547.0, 48991.984, 0.028026333, 9.998952, 10.000506 
1.6749103e+3, 1.438179e+2, -1640338.3, -1604215.8, 28717.61, 0.1981479, -0.51538426, -1588351.9, -57814.418, 0.013357116, 9.999268, 9.999755 
1.6749251e+3, 1.538172e+2, -1605636.6, -1527478.9, 39188.695, 0.05621356, -0.5836907, -1511214.1, -78668.81, 0.004090086, 9.998796, 9.999835 
1.6749406e+3, 1.638172e+2, -1480193.0, -1327316.4, 34451.04, -0.04474237, -0.59221953, -1319911.5, 14632.977, 0.0005678562, 9.998607, 10.000621 
1.6749568e+3, 1.7381868e+2, -1334302.5, -1176431.5, 67908.28, -0.073655516, -0.5452669, -1151240.4, 85285.875, 0.000011659807, 9.998808, 10.000888 
1.6749734e+3, 1.8381943e+2, -1282530.6, -1293740.4, 111271.43, -0.10084388, -0.47285578, -1176723.0, -38205.64, 0.0, 9.999314, 9.99917 
1.6749908e+3, 1.9381924e+2, -1050975.1, -1132267.9, 113634.7, -0.11822231, -0.4198097, -970936.06, 69585.18, 0.0, 10.000251, 9.9991455 
1.6750084e+3, 2.038179e+2, -882159.8, -1105368.4, 78357.6, -0.11111382, -0.41862747, -857399.06, 85135.59, 0.0, 10.001169, 9.998227 
1.6750263e+3, 2.13815e+2, -664515.56, -943684.25, 37995.36, -0.06604501, -0.54944086, -659436.75, 185123.8, 0.0, 10.001966, 9.9982815 
1.6750436e+3, 2.2381282e+2, -530994.2, -759284.2, 7496.217, -0.066205755, -0.61084074, -530748.3, 215831.67, 0.0, 10.001919, 9.99889 
1.6750601e+3, 2.3381205e+2, -603109.6, -714264.9, 45833.977, -0.12235784, -0.616522, -586648.2, 61938.85, 0.0, 10.000625, 9.999149 
1.6750778e+3, 2.4381141e+2, -600271.5, -738999.56, 57876.996, -0.09437905, -0.5545285, -579296.6, -28701.803, 0.0, 10.00029, 9.998477 
1.6750969e+3, 2.5381124e+2, -308436.44, -535272.2, 13569.505, 0.059146035, -0.44251332, -307627.6, 144974.03, 0.0000000017385277, 10.001577, 9.998578 
1.6751146e+3, 2.6381016e+2, -119573.12, -380184.47, -38640.504, 0.10859525, -0.40289295, -113964.63, 240649.11, 0.0000048816705, 10.002147, 9.998695 
1.6751301e+3, 2.7380785e+2, -77734.65, -288993.9, 8886.577, 0.004011824, -0.5347337, -77361.5, 179270.53, 0.00005151775, 10.001666, 9.998884 
1.6751465e+3, 2.8380582e+2, -116331.22, -470178.2, 73793.336, -0.08869995, -0.53256905, -101558.66, 57091.715, 0.00026894332, 10.001648, 9.996973 
1.6751637e+3, 2.9380453e+2, 104194.35, -313585.38, 61492.766, -0.17343774, -0.36902854, 113057.414, 173722.38, 0.0008798074, 10.002495, 9.9969635 
1.6751812e+3, 3.0380133e+2, 215949.5, -259962.92, -9054.538, -0.16122116, -0.3712108, 216121.7, 216121.7, 0.0019595742, 10.003059, 9.996723 
1.675201e+3, 3.1379682e+2, 256051.92, -187775.52, -29293.469, 0.12963085, -0.5175607, 257976.98, 257976.98, 0.0033249364, 10.003103, 9.997191 
1.6848733e+3, 1.2380435e+2, -2224145.5, -2078070.6, -98572.98, -0.15479141, -0.42801094, -2028425.1, -301758.6, 0.04776628, 9.996995, 9.998937 
1.6848905e+3, 1.338051e+2, -1849251.3, -1669472.3, 98924.95, -0.10084677, -0.41286942, -1625697.0, 2963.007, 0.030093629, 9.9981575, 10.000507 
1.6849086e+3, 1.4380403e+2, -1710868.0, -1726815.0, 105445.92, 0.110095076, -0.49321553, -1613094.5, -82423.375, 0.0144471, 9.999167, 9.9989605 
1.6849244e+3, 1.5380242e+2, -1533906.0, -1591634.3, 69243.516, 0.053499125, -0.5618615, -1487751.5, -55062.31, 0.004479329, 9.999719, 9.998947 
1.6849403e+3, 1.6380148e+2, -1281837.9, -1296073.3, 39423.688, -0.008564567, -0.5899852, -1248894.5, 85803.34, 0.0006375465, 10.000243, 10.000052 
1.6849567e+3, 1.7380193e+2, -1044226.3, -1087955.5, -24740.766, -0.07254837, -0.59689903, -1033073.25, 203614.94, 0.00001399049, 10.0010195, 10.00043 
1.6849737e+3, 1.8380217e+2, -987704.06, -1163838.0, -28924.799, -0.1042867, -0.5451644, -983075.7, 155607.9, 0.0, 10.001399, 9.999052 
1.6849917e+3, 1.9380218e+2, -910908.75, -1076483.4, -25891.197, -0.09808225, -0.46109888, -906954.56, 133731.25, 0.0, 10.001253, 9.999049 
1.6850097e+3, 2.0380092e+2, -873071.6, -1100813.5, -7405.295, -0.08408922, -0.44459823, -872831.06, 69868.414, 0.0, 10.001236, 9.998228 
1.685028e+3, 2.1379805e+2, -738701.25, -970162.56, 33659.676, -0.05929109, -0.5750195, -733905.7, 110821.414, 0.0, 10.001434, 9.998346 
1.6850457e+3, 2.2379625e+2, -523515.4, -730354.9, 26832.281, -0.04237772, -0.6149674, -520091.25, 226652.08, 0.0, 10.001852, 9.999131 
1.6850625e+3, 2.337963e+2, -295751.13, -534282.44, 3382.736, -0.039306838, -0.5632267, -295703.16, 353036.63, 0.0, 10.002599, 9.999442 
1.68508e+3, 2.4379547e+2, -290017.47, -653551.3, 31489.592, -0.013792737, -0.5112197, -287309.97, 263438.47, 0.0, 10.0027, 9.997897 
1.6850981e+3, 2.5379342e+2, -327810.94, -627112.06, 27376.63, 0.028919134, -0.5172878, -325327.44, 127447.48, 0.0000000018399801, 10.001791, 9.997848 
1.6851157e+3, 2.6379168e+2, -175542.38, -370437.63, -448.19812, 0.032748777, -0.5145175, -175541.34, 179252.52, 0.0000039092515, 10.001604, 9.99902 
1.6851321e+3, 2.7379072e+2, 100831.375, -145924.75, -26618.521, -0.019711442, -0.5632855, 103670.164, 360469.2, 0.000046398793, 10.002661, 9.999376 
1.6851492e+3, 2.837893e+2, 102248.734, -364016.9, 24282.068, -0.03971591, -0.52307135, 103509.88, 262320.2, 0.000254962, 10.003149, 9.996978 
1.6851676e+3, 2.9378766e+2, 138209.55, -297829.06, 29667.584, -0.032559313, -0.39306277, 140218.83, 201046.38, 0.0008516298, 10.00274, 9.99695 
1.6851854e+3, 3.0378357e+2, 166784.02, -317531.97, 23556.86, -0.034720078, -0.46905395, 167927.11, 167927.11, 0.0019299267, 10.002845, 9.996446 
1.685204e+3, 3.1377882e+2, 330799.53, -183208.44, 29311.393, 0.096445635, -0.60315216, 332465.63, 332465.63, 0.003322302, 10.003705, 9.996963 
1.694871e+3, 1.2378646e+2, -2030410.0, -1688389.5, -65348.89, -0.109522164, -0.64465785, -1676328.8, 50514.418, 0.051028147, 9.997025, 10.00162 
1.6948888e+3, 1.337916e+2, -1730930.0, -1413543.1, 147617.92, -0.09691731, -0.37243974, -1355500.1, 273287.34, 0.032295942, 9.998082, 10.002359 
1.694906e+3, 1.437912e+2, -1772085.5, -1853785.3, 126676.18, -0.0841916, -0.4549246, -1679835.5, -149044.95, 0.015627254, 9.999163, 9.998095 
1.6949226e+3, 1.5378942e+2, -1627785.6, -1785851.6, 94577.65, -0.093992464, -0.41171336, -1583566.3, -150751.75, 0.004910431, 9.999715, 9.997619 
1.6949399e+3, 1.6378729e+2, -1389096.9, -1530025.5, 60288.375, -0.097293384, -0.4115287, -1366825.5, -31987.14, 0.0007170378, 10.000286, 9.998427 
1.694958e+3, 1.7378509e+2, -1162478.8, -1336280.1, 8667.777, -0.05251274, -0.51404524, -1162047.5, 74809.47, 0.000016975888, 10.001025, 9.998727 
1.694976e+3, 1.8378325e+2, -995940.2, -1186300.5, -37056.715, -0.03226756, -0.5694971, -988980.9, 149892.27, 0.0, 10.001419, 9.998889 
1.6949934e+3, 1.9378215e+2, -914362.3, -1075486.5, -28052.615, -0.05915718, -0.59909815, -909617.9, 131265.45, 0.0, 10.001219, 9.999074 
1.6950113e+3, 2.037812e+2, -805432.3, -946230.5, -8194.614, -0.07020252, -0.600347, -804957.0, 137934.88, 0.0, 10.001175, 9.99932 
1.6950296e+3, 2.137808e+2, -662474.75, -798672.1, 46358.336, -0.048798528, -0.6061544, -648193.06, 196701.48, 0.0, 10.001371, 9.999558 
1.6950479e+3, 2.2378048e+2, -544448.6, -754353.56, 46602.504, -0.015649302, -0.55966413, -534567.25, 212328.94, 0.0, 10.001768, 9.999004 
1.695066e+3, 2.3378047e+2, -334818.63, -591794.94, 40994.793, 0.031602595, -0.48435408, -328437.3, 320457.16, 0.0, 10.002493, 9.999099 
1.6950831e+3, 2.4377877e+2, -314631.3, -674289.75, 1155.7604, 0.0051445696, -0.49817744, -314627.6, 236283.31, 0.0, 10.002571, 9.997817 
1.6950984e+3, 2.5377464e+2, -342855.3, -640086.94, 354.02136, -0.13316417, -0.7043648, -342854.9, 110098.734, 0.0000000033657745, 10.001716, 9.997794 
1.6951153e+3, 2.6377258e+2, -211996.34, -424597.7, 27484.44, -0.18957901, -0.71847486, -208500.72, 146474.4, 0.0000030031388, 10.00151, 9.998692 
1.695134e+3, 2.737741e+2, 57192.13, -209085.14, 22896.775, -0.09559717, -0.4870398, 59146.64, 316106.78, 0.000041424442, 10.002547, 9.998993 
1.6951533e+3, 2.8377298e+2, 106369.11, -329537.9, 8689.725, 0.023197254, -0.40931094, 106542.266, 265511.6, 0.00024197955, 10.003033, 9.997274 
1.6951723e+3, 2.9376787e+2, 155043.25, -245474.86, 22623.814, 0.15642102, -0.65827936, 156317.14, 217332.88, 0.00082078995, 10.002659, 9.997354 
1.6951899e+3, 3.0376276e+2, 159974.16, -290319.47, 45872.34, 0.12242738, -0.8720732, 164599.75, 164599.75, 0.0018795029, 10.002685, 9.996699 
1.6952069e+3, 3.1376216e+2, 332801.34, -96164.86, 93138.44, -0.00016482, -0.6163775, 352151.0, 352151.0, 0.00326918, 10.003384, 9.997697 
1.7048688e+3, 1.2376925e+2, -2008968.3, -1635402.6, -62093.477, -0.017382858, -0.6612863, -1625352.0, 101659.41, 0.054460447, 9.996945, 10.002057 
1.7048874e+3, 1.3377365e+2, -1681199.8, -1431988.1, -64536.28, -0.04892356, -0.43060693, -1416267.4, 212695.67, 0.034638863, 9.998581, 10.001997 
1.7049047e+3, 1.4377336e+2, -1659162.5, -1731995.0, -155588.25, -0.15648496, -0.5061421, -1535785.6, -4821.175, 0.016903277, 9.999668, 9.998682 
1.7049222e+3, 1.5377273e+2, -1544079.4, -1664357.9, -60102.22, -0.11427288, -0.41759813, -1519195.1, -86219.67, 0.00538814, 9.99995, 9.998334 
1.7049402e+3, 1.6377093e+2, -1441321.9, -1589796.3, 47921.77, -0.06981167, -0.40924552, -1427198.1, -92203.086, 0.0008082668, 10.000074, 9.998121 
1.7049591e+3, 1.7376792e+2, -1318461.5, -1457807.1, 83750.555, 0.0063512153, -0.55026615, -1279191.9, -42169.688, 0.000020835996, 10.000157, 9.998312 
1.7049775e+3, 1.8376559e+2, -1150601.9, -1294322.1, 95430.01, 0.027905293, -0.6180022, -1103001.6, 36042.184, 0.0, 10.000502, 9.998596 
1.7049949e+3, 1.9376445e+2, -907622.94, -1100388.3, 71968.82, -0.04877259, -0.62441546, -883717.94, 157337.53, 0.0, 10.001388, 9.998824 
1.7050125e+3, 2.0376366e+2, -744609.4, -923268.5, 33143.5, -0.08676115, -0.5954815, -738659.0, 204404.38, 0.0, 10.001624, 9.999251 
1.7050305e+3, 2.1376362e+2, -730989.75, -838595.06, -22242.908, -0.06700445, -0.5584144, -726573.25, 118489.81, 0.0, 10.000933, 9.999493 
1.7050491e+3, 2.2376321e+2, -690579.5, -843042.7, -32891.03, -0.020535143, -0.5093881, -683786.56, 63280.063, 0.0, 10.000852, 9.998833 
1.7050683e+3, 2.3376235e+2, -454064.53, -666237.8, -39856.586, 0.069439486, -0.5003287, -446824.56, 202249.81, 0.0, 10.001757, 9.998932 
1.7050861e+3, 2.4376062e+2, -326757.66, -639841.4, -88419.52, 0.071766034, -0.5229021, -303512.53, 247578.36, 0.0, 10.002314, 9.998182 
1.7051011e+3, 2.5375766e+2, -216593.22, -524320.25, -70012.64, -0.07199758, -0.6574528, -201413.1, 251706.55, 0.0000000026261497, 10.002351, 9.9982815 
1.7051175e+3, 2.6375574e+2, -146967.47, -431932.38, 10425.062, -0.1336323, -0.66857076, -146586.58, 208552.0, 0.0000021613648, 10.002126, 9.998348 
1.7051363e+3, 2.7375588e+2, -122840.51, -350097.2, -13900.184, -0.06587524, -0.52254516, -121993.46, 135144.9, 0.000036573332, 10.001539, 9.998518 
1.7051557e+3, 2.8375447e+2, -52960.297, -360948.63, -863.0065, 0.037742656, -0.4669009, -52957.875, 106193.914, 0.00022739316, 10.001752, 9.997674 
1.7051755e+3, 2.9375046e+2, 279429.0, -128589.766, 5581.7515, 0.16980103, -0.6547608, 279505.34, 340692.84, 0.0007810647, 10.003269, 9.997866 
1.7051932e+3, 3.0374613e+2, 339327.34, -125979.625, 28706.678, 0.1457814, -0.84696484, 341091.7, 341091.7, 0.0017958801, 10.00358, 9.99739 
1.7052102e+3, 3.137461e+2, 221995.77, -44229.043, 83948.29, 0.05838512, -0.61317724, 246256.27, 246256.27, 0.0031408968, 10.002142, 9.998647 
1.7148665e+3, 1.2375297e+2, -2151923.3, -1910167.1, 50350.598, 0.011665339, -0.46682853, -1900099.9, -172930.73, 0.058051143, 9.99688, 10.000159 
1.7148864e+3, 1.3375145e+2, -1881333.6, -1829752.1, -1397.689, -0.027122803, -0.5601337, -1829714.3, -200529.48, 0.037118543, 9.998545, 9.99923 
1.7149043e+3, 1.4375052e+2, -1501315.4, -1426921.6, -144793.67, -0.17959447, -0.6347106, -1314623.4, 216569.8, 0.018276531, 9.999744, 10.000765 
1.7149228e+3, 1.537521e+2, -1353416.9, -1268173.3, -45998.36, -0.06065692, -0.5950027, -1248085.8, 185088.52, 0.005915651, 9.999936, 10.001073 
1.7149414e+3, 1.637523e+2, -1365168.4, -1428414.4, 42300.23, 0.024295375, -0.59085685, -1343977.4, -8808.468, 0.0009130136, 10.000065, 9.9992285 
1.7149599e+3, 1.7375052e+2, -1265093.8, -1337470.1, 91117.63, 0.056586783, -0.69894165, -1203241.1, 33941.8, 0.000025810483, 10.000121, 9.999152 
1.714978e+3, 1.8374924e+2, -1178467.6, -1352198.6, 120936.95, 0.017864766, -0.6883011, -1116432.6, 22762.566, 0.0, 10.000497, 9.998202 
1.7149957e+3, 1.9374911e+2, -950038.0, -1185314.4, 112519.15, -0.1228711, -0.5405856, -904890.1, 136311.6, 0.0, 10.001369, 9.998252 
1.7150131e+3, 2.0374824e+2, -835038.5, -1105624.0, 9160.642, -0.20145814, -0.43167374, -834728.7, 108485.41, 0.0, 10.001599, 9.998012 
1.7150305e+3, 2.1374647e+2, -837022.9, -1039569.4, -43321.336, -0.16642258, -0.43730816, -828146.2, 17087.004, 0.0, 10.00085, 9.998152 
1.7150491e+3, 2.2374433e+2, -724049.1, -890717.3, -9675.454, -0.097270034, -0.47273833, -723489.3, 23766.066, 0.0, 10.000752, 9.998556 
1.7150697e+3, 2.3374197e+2, -474822.47, -689718.75, 1252.1003, 0.020125913, -0.59973437, -474815.2, 174463.97, 0.0, 10.00167, 9.998816 
1.715089e+3, 2.4374096e+2, -281965.22, -524645.6, -87874.94, 0.10860273, -0.58015984, -253487.38, 297801.44, 0.0, 10.002216, 9.99902 
1.7151058e+3, 2.5374225e+2, -163850.2, -392735.4, -61160.613, 0.1526967, -0.3909272, -148532.53, 304742.34, 0.0000000000058928205, 10.0022545, 9.999231 
1.7151225e+3, 2.6374096e+2, -189088.48, -498230.8, -14506.915, 0.1345135, -0.3712524, -188409.22, 166876.95, 0.0000014626683, 10.002035, 9.997938 
1.7151389e+3, 2.7373612e+2, -176160.17, -440392.22, -27408.367, 0.0129787875, -0.6629771, -173347.1, 83986.9, 0.000032081512, 10.001455, 9.997938 
1.7151566e+3, 2.837337e+2, -34202.137, -304412.84, 42786.063, -0.055957597, -0.6935188, -27589.094, 131769.13, 0.00021176567, 10.00167, 9.998104 
1.7151766e+3, 2.937352e+2, 298138.1, -54773.64, 76096.33, -0.052322004, -0.3954905, 313847.06, 375191.53, 0.0007336498, 10.0031185, 9.998445 
1.7151952e+3, 3.0373353e+2, 378840.13, 5743.6484, -19752.742, -0.02784579, -0.3983279, 379882.97, 379882.97, 0.0016880672, 10.003375, 9.998393 
1.7152137e+3, 3.1372982e+2, 278089.53, 127365.1, 58614.914, 0.16409503, -0.63413745, 298200.72, 298200.72, 0.0029604107, 10.001933, 9.999922 
1.7248641e+3, 1.23733416e+2, -1901016.6, -1759236.1, 32642.412, 0.025316866, -0.44429663, -1752081.9, -24720.48, 0.06177432, 9.998479, 10.000422 
1.7248847e+3, 1.3373111e+2, -1903567.4, -1783332.4, 142629.45, -0.030217258, -0.66771144, -1688668.5, -59286.367, 0.039721623, 9.998155, 9.99973 
1.7249037e+3, 1.4373134e+2, -1723993.3, -1516220.9, 84206.97, -0.12802133, -0.6618867, -1486379.3, 44999.008, 0.019743169, 9.998128, 10.00092 
1.7249227e+3, 1.537328e+2, -1490496.5, -1317885.0, -26877.582, -0.021723827, -0.6501693, -1313796.6, 119565.26, 0.006494274, 9.998903, 10.001236 
1.7249416e+3, 1.6373336e+2, -1371783.5, -1392787.5, -53783.06, 0.045665782, -0.632965, -1327486.8, 7867.0093, 0.001032908, 9.999856, 9.999574 
1.7249604e+3, 1.7373246e+2, -1073368.4, -1200728.4, -55352.46, 0.039943613, -0.6903822, -1052673.9, 184684.69, 0.00003215152, 10.001249, 9.999543 
1.7249787e+3, 1.837316e+2, -1014966.25, -1271774.8, -48926.19, -0.009584279, -0.6606424, -1005960.8, 133405.83, 0.0, 10.001609, 9.998219 
1.7249963e+3, 1.9373123e+2, -1073451.6, -1245050.8, -32738.617, -0.1384729, -0.5343611, -1067417.8, -26041.895, 0.0, 10.0005245, 9.998246 
1.725014e+3, 2.0373009e+2, -1005941.94, -1176741.4, -44970.0, -0.1952458, -0.4563785, -994825.25, -51435.027, 0.0, 10.000376, 9.99812 
1.7250322e+3, 2.1372788e+2, -683322.4, -951110.06, 4558.7695, -0.12910749, -0.5163871, -683244.8, 162166.66, 0.0, 10.001837, 9.99829 
1.7250511e+3, 2.2372557e+2, -505565.5, -828468.8, 98339.945, -0.06097014, -0.55834186, -477973.84, 269461.28, 0.0, 10.002452, 9.9981575 
1.725071e+3, 2.3372349e+2, -491886.94, -751641.1, 69771.766, -0.009888689, -0.6103488, -474332.16, 175127.08, 0.0, 10.001792, 9.998327 
1.7250901e+3, 2.4372278e+2, -383433.13, -531203.4, -43777.957, 0.07328266, -0.5511615, -371437.38, 180030.31, 0.0, 10.001346, 9.999389 
1.7251079e+3, 2.537244e+2, -271249.75, -388653.28, -65408.273, 0.20095669, -0.37415773, -242064.44, 211384.8, 0.0000000000049057277, 10.001285, 9.9997225 
1.7251253e+3, 2.6372328e+2, -217000.19, -530396.06, 2103.1426, 0.23432271, -0.3591108, -216986.08, 138472.67, 0.0000011502509, 10.001925, 9.9977665 
1.7251422e+3, 2.737182e+2, 134815.55, -321244.84, 4189.687, 0.10951116, -0.6509327, 134854.03, 392364.03, 0.000029088935, 10.0037155, 9.997667 
1.7251599e+3, 2.8371572e+2, 298413.25, -110779.15, 56777.863, 0.008566884, -0.68367213, 306145.4, 465680.4, 0.0002003837, 10.003821, 9.998391 
1.7251785e+3, 2.937176e+2, 57354.742, -130361.54, 43748.39, -0.07143092, -0.38449708, 67049.836, 128566.875, 0.0006934616, 10.001301, 9.99879 
1.7251974e+3, 3.0371657e+2, 66224.88, -165203.16, -18495.246, -0.02641947, -0.33052215, 67693.664, 67693.664, 0.0015933388, 10.00129, 9.998239 
1.7252177e+3, 3.1371287e+2, 750024.7, 314673.13, -37359.79, 0.22090226, -0.5449805, 753207.5, 753207.5, 0.0027992886, 10.005318, 9.999612 
1.7348619e+3, 1.23710655e+2, -1714028.0, -1407161.4, 42987.633, -0.10134463, -0.58599097, -1401253.3, 326334.44, 0.06561491, 9.998541, 10.002962 
1.7348821e+3, 1.3371275e+2, -1643064.8, -1241683.9, 125439.72, -0.12257797, -0.75725675, -1205706.3, 423847.47, 0.042436883, 9.998083, 10.003603 
1.7349026e+3, 1.4371592e+2, -1856460.3, -1782133.8, 104394.84, -0.06330296, -0.5933247, -1708484.6, -176965.98, 0.021297567, 9.998095, 9.999104 
1.7349212e+3, 1.53715e+2, -1674477.0, -1689445.1, 8614.062, -0.06699406, -0.5697207, -1670549.9, -237013.25, 0.0071235094, 9.998869, 9.998693 
1.7349403e+3, 1.6371426e+2, -1394580.9, -1454404.3, -10510.915, -0.078279175, -0.5199929, -1392787.9, -57239.656, 0.0011691477, 9.999901, 9.999134 
1.7349604e+3, 1.7371377e+2, -1082988.1, -1224579.3, 595.0412, -0.09152184, -0.51979774, -1082985.6, 154563.69, 0.00004011834, 10.001252, 9.999385 
1.7349795e+3, 1.8371262e+2, -984259.44, -1209434.1, -88623.164, -0.11022474, -0.5313427, -953563.94, 185995.06, 0.0, 10.001617, 9.998641 
1.7349969e+3, 1.9371076e+2, -1048639.1, -1178931.3, -71359.88, -0.14261806, -0.60221, -1017160.9, 24417.506, 0.0, 10.000463, 9.99873 
1.7350154e+3, 2.0370908e+2, -909501.75, -968238.9, -8622.267, -0.12192877, -0.6678705, -908262.2, 35330.656, 0.0, 10.000334, 9.999574 
1.7350353e+3, 2.1370794e+2, -583238.9, -725616.1, 65499.105, -0.014152487, -0.7824862, -557690.94, 287906.16, 0.0, 10.001758, 9.999877 
1.7350544e+3, 2.2370699e+2, -557566.06, -915166.56, 77067.51, 0.015795238, -0.7542925, -541664.1, 205941.25, 0.0, 10.002359, 9.997606 
1.7350723e+3, 2.3370674e+2, -565698.7, -882787.5, 50189.95, -0.07474518, -0.5409754, -557944.06, 91672.42, 0.0, 10.001697, 9.997472 
1.73509e+3, 2.4370588e+2, -408517.63, -556118.0, -53143.457, -0.08487666, -0.44159314, -391374.44, 160254.75, 0.0, 10.001229, 9.999275 
1.7351076e+3, 2.5370422e+2, -282063.63, -390588.44, -59336.727, 0.028492063, -0.5917776, -255919.22, 197723.06, 0.000000000000012544113, 10.001201, 9.999748 
1.7351262e+3, 2.6370272e+2, -227906.98, -530073.4, 55310.63, 0.11314295, -0.620837, -218100.8, 137555.53, 0.0000010511417, 10.001826, 9.997815 
1.7351465e+3, 2.7370194e+2, 115380.695, -324327.94, 79731.17, 0.15501893, -0.48683894, 129391.68, 387059.56, 0.000028849088, 10.003562, 9.997715 
1.7351653e+3, 2.837004e+2, 283107.0, -116640.74, -26702.61, 0.14472093, -0.43151027, 284882.8, 444566.5, 0.00019663657, 10.0036955, 9.998417 
1.735181e+3, 2.9369754e+2, 48693.08, -136499.9, -44570.426, 0.040277023, -0.60901606, 58861.527, 120568.664, 0.00067244127, 10.001244, 9.998778 
1.7351997e+3, 3.0369538e+2, -36138.695, -347292.7, 94306.734, 0.06288191, -0.61802906, -9787.237, -9787.237, 0.0015435342, 10.001174, 9.997032 
1.7352219e+3, 3.1369433e+2, 559334.56, 30889.588, 138616.66, 0.09004021, -0.43485418, 593487.8, 593487.8, 0.0027222822, 10.004869, 9.99785 
1.7448613e+3, 1.23691745e+2, -1682256.8, -1456272.3, 211654.81, -0.019648148, -0.59007066, -1329337.4, 398433.53, 0.06957688, 9.999108, 10.002353 
1.7448793e+3, 1.3369437e+2, -1665048.9, -1279589.8, -32536.121, -0.19153096, -0.68011516, -1276862.8, 352873.13, 0.045260757, 9.998036, 10.0033655 
1.7449011e+3, 1.4369749e+2, -1877934.5, -1802937.3, -94982.914, -0.011986738, -0.4995476, -1738318.8, -206616.17, 0.022935338, 9.998, 9.999003 
1.7449205e+3, 1.5369596e+2, -1545648.5, -1629326.4, -10898.421, -0.073619045, -0.53436357, -1544252.4, -110527.98, 0.0078018596, 9.999772, 9.998664 
1.7449401e+3, 1.6369471e+2, -1330588.6, -1452788.9, 61386.13, -0.10938094, -0.52327764, -1305077.8, 30662.416, 0.0013223152, 10.000468, 9.998874 
1.7449605e+3, 1.7369397e+2, -1335914.1, -1379111.6, 46440.4, -0.10823672, -0.51805276, -1306295.5, -68550.21, 0.000049909977, 9.999658, 9.999094 
1.7449799e+3, 1.8369283e+2, -1285805.1, -1304124.1, -54081.938, -0.09719273, -0.5300353, -1240112.6, -100357.75, 0.0000000000000006446772, 9.999331, 9.999088 
1.7449977e+3, 1.9369134e+2, -1094583.6, -1138032.4, -46711.64, -0.076283455, -0.61849123, -1064791.8, -23023.63, 0.0, 9.999872, 9.999292 
1.7450164e+3, 2.0368992e+2, -905564.6, -976930.75, 24661.88, -0.038117222, -0.6881094, -897871.56, 45907.586, 0.0, 10.00041, 9.999472 
1.745037e+3, 2.1368872e+2, -692145.56, -797525.9, -42390.168, 0.017381547, -0.7886117, -677210.44, 168574.45, 0.0, 10.001097, 9.999697 
1.7450562e+3, 2.236879e+2, -652948.75, -884700.8, -107783.03, 0.019502789, -0.7675222, -610570.44, 137220.28, 0.0, 10.001364, 9.998304 
1.7450738e+3, 2.3368803e+2, -613165.75, -813978.06, -30053.6, -0.06322836, -0.59451133, -608764.4, 41028.57, 0.0, 10.000966, 9.998303 
1.7450914e+3, 2.4368697e+2, -462800.03, -687559.25, -35818.39, -0.082940914, -0.52052855, -457229.9, 94576.516, 0.0, 10.001311, 9.998327 
1.7451091e+3, 2.5368413e+2, -115558.56, -448169.3, -137782.67, -0.01425311, -0.6692772, -65897.41, 387939.28, 0.0, 10.002936, 9.998515 
1.7451282e+3, 2.636824e+2, -10466.338, -394346.34, -87291.766, 0.06442924, -0.66640455, 8450.997, 364307.22, 0.0000010008785, 10.003187, 9.998094 
1.7451487e+3, 2.736829e+2, -176695.31, -409417.5, -49931.69, 0.13505246, -0.45011953, -166434.61, 91418.87, 0.00002996529, 10.00131, 9.998218 
1.7451677e+3, 2.8368166e+2, -86220.484, -301144.44, -115141.95, 0.1538836, -0.38811457, -36184.063, 123680.82, 0.00019663884, 10.0012045, 9.9983425 
1.7451842e+3, 2.9367736e+2, 442172.38, 25742.498, -163617.31, 0.09862655, -0.6889511, 498766.97, 560668.75, 0.0006699009, 10.004065, 9.998541 
1.745204e+3, 3.0367446e+2, 476604.7, -119135.086, 16671.863, 0.18924576, -0.7490589, 477070.88, 477070.88, 0.00154873, 10.004768, 9.996878 
1.7452258e+3, 3.1367418e+2, 110628.08, -228589.23, 92330.03, 0.153408, -0.4777136, 134130.61, 134130.61, 0.0027554093, 10.001937, 9.99748 
1.7548627e+3, 1.2367673e+2, -1967102.3, -2014778.8, 123210.04, 0.17150421, -0.47381154, -1865445.6, -137535.48, 0.07366958, 9.999015, 9.998405 
1.7548764e+3, 1.3367614e+2, -1995690.5, -1940255.3, -70889.39, -0.30623218, -0.42293128, -1891857.4, -261930.17, 0.048192136, 9.998003, 9.998733 
1.7548989e+3, 1.4367625e+2, -1762178.8, -1563233.6, -52615.35, -0.05049084, -0.3506469, -1550175.4, -18246.4, 0.024652572, 9.997997, 10.000653 
1.75492e+3, 1.5367569e+2, -1369550.6, -1260059.3, 61581.844, -0.095331386, -0.5400739, -1232407.0, 201517.92, 0.008527423, 9.999751, 10.001221 
1.7549407e+3, 1.6367464e+2, -1337083.8, -1466978.0, 33836.777, -0.103771105, -0.64991564, -1328798.0, 7131.5933, 0.0014925194, 10.000471, 9.998776 
1.7549609e+3, 1.7367297e+2, -1374445.3, -1450115.4, 20383.674, -0.06326553, -0.69066745, -1369303.8, -131356.88, 0.00006156021, 9.999621, 9.998625 
1.7549801e+3, 1.836722e+2, -1251720.4, -1231412.4, -44207.293, -0.030663075, -0.6602122, -1196208.0, -56253.49, 0.0000000010737394, 9.999321, 9.999592 
1.7549984e+3, 1.9367312e+2, -1057061.1, -1051365.5, -20041.346, -0.0018448913, -0.57485765, -1033970.6, 7973.344, 0.0, 9.999834, 9.999905 
1.7550173e+3, 2.036726e+2, -1027463.5, -1223324.0, 41850.69, -0.010988834, -0.51326334, -1018895.8, -74946.87, 0.0, 10.000376, 9.997798 
1.7550372e+3, 2.1367012e+2, -843641.1, -1095575.5, -13091.441, -0.08013291, -0.54526496, -842962.7, 3013.161, 0.0, 10.001021, 9.997689 
1.7550567e+3, 2.2366819e+2, -531821.3, -615124.75, -122197.45, -0.09661884, -0.60395706, -444371.97, 303620.16, 0.0, 10.001283, 10.000196 
1.755075e+3, 2.3366746e+2, -452267.1, -460279.94, -38209.277, -0.034872506, -0.7627586, -417854.75, 232133.22, 0.0, 10.00088, 10.000774 
1.7550935e+3, 2.4366613e+2, -605639.4, -959190.94, 9550.538, -0.0009939689, -0.7784168, -605381.56, -53382.305, 0.0, 10.0012, 9.996519 
1.7551124e+3, 2.536641e+2, -302749.56, -809459.44, -69725.39, 0.009988921, -0.60748845, -293330.16, 160703.13, 0.0, 10.002821, 9.996089 
1.755131e+3, 2.6366225e+2, 7489.2856, -339826.3, -144657.5, 0.02401868, -0.49327713, 59846.586, 415905.34, 0.00000094846536, 10.003105, 9.998511 
1.7551488e+3, 2.736612e+2, -124934.9, -282622.56, -111235.26, 0.00025954083, -0.51931024, -67434.93, 190630.44, 0.000030532858, 10.001233, 9.999124 
1.7551674e+3, 2.836596e+2, -111574.06, -339877.78, -34845.957, -0.019689737, -0.53748, -106373.97, 53703.8, 0.00019885889, 10.001137, 9.998112 
1.7551878e+3, 2.9365695e+2, 380279.06, -59119.758, -42436.684, 0.031245619, -0.634053, 384340.0, 446442.03, 0.00068665395, 10.003878, 9.998045 
1.7552094e+3, 3.0365396e+2, 485424.03, -42318.652, -68425.1, 0.25300407, -0.69946253, 494151.47, 494151.47, 0.0016055047, 10.004524, 9.997519 
1.7552295e+3, 3.1365326e+2, 99018.18, -185065.27, -24057.045, 0.2953504, -0.5623937, 101041.0, 101041.0, 0.0028769057, 10.001677, 9.997892 
1.7648628e+3, 1.23658106e+2, -2017613.5, -2117658.5, -115654.26, 0.2955426, -0.47495642, -1941627.4, -213536.9, 0.07790593, 9.998987, 9.997712 
1.7648754e+3, 1.3365604e+2, -1714035.6, -1984894.4, -21218.342, -0.32474363, -0.41226408, -1712383.5, -82256.84, 0.05123237, 10.000706, 9.997121 
1.7648986e+3, 1.4365527e+2, -1328631.0, -1360789.5, 84347.91, -0.026197115, -0.3395878, -1258843.4, 273295.7, 0.026445003, 10.001032, 10.000609 
1.7649196e+3, 1.5365508e+2, -1365843.3, -1243815.1, 7186.5464, -0.114749886, -0.50479347, -1243393.4, 190736.47, 0.009296644, 9.999722, 10.001346 
1.7649402e+3, 1.6365443e+2, -1489386.0, -1464700.0, -100226.11, -0.13354574, -0.60795724, -1376059.8, -39931.277, 0.0016790463, 9.9991045, 9.999448 
1.7649606e+3, 1.7365316e+2, -1325682.0, -1343986.5, -41287.88, -0.03954805, -0.6852517, -1292544.1, -54403.953, 0.000074904594, 9.999596, 9.999364 
1.7649806e+3, 1.836525e+2, -1137740.4, -1210021.9, -35713.527, 0.03484382, -0.67151785, -1123071.6, 17074.244, 0.000000009428086, 10.000248, 9.999296 
1.7649996e+3, 1.9365317e+2, -855268.75, -1002886.6, -100017.83, 0.06662314, -0.5655184, -804774.3, 237364.72, 0.0, 10.0014305, 9.999473 
1.7650189e+3, 2.0365256e+2, -827058.06, -1132665.9, -52946.31, 0.045640644, -0.48663786, -818145.1, 126000.95, 0.0, 10.001782, 9.997743 
1.7650382e+3, 2.1365021e+2, -879348.8, -1111504.9, 24525.443, -0.059667442, -0.5009097, -876786.2, -30613.975, 0.0, 10.000775, 9.997698 
1.7650574e+3, 2.2364818e+2, -673994.06, -686923.56, -43016.17, -0.08929732, -0.5695817, -636959.56, 111229.914, 0.0, 10.00033, 10.0001545 
1.7650762e+3, 2.3364687e+2, -447079.56, -462345.56, -156971.22, -0.011481804, -0.7810552, -297555.88, 352633.94, 0.0, 10.000943, 10.000725 
1.7650951e+3, 2.436453e+2, -559480.75, -898353.4, -113092.49, 0.030444348, -0.83132076, -525205.06, 26996.574, 0.0, 10.001354, 9.996866 
1.7651147e+3, 2.5364357e+2, -476608.0, -847973.25, 4829.3613, 0.021569684, -0.6647396, -476545.22, -22315.67, 0.0, 10.001432, 9.996496 
1.7651334e+3, 2.6364174e+2, -151785.02, -413568.7, 10842.488, 0.015151387, -0.57285386, -151336.72, 204916.31, 0.0000007067664, 10.002008, 9.998528 
1.7651506e+3, 2.736401e+2, 195543.13, -135893.5, -39571.645, -0.040492255, -0.65471274, 200202.27, 458467.84, 0.00002910251, 10.003462, 9.999061 
1.7651694e+3, 2.8363842e+2, 222605.92, -239465.28, 21609.258, -0.06359053, -0.65364856, 223614.3, 383895.16, 0.00020251243, 10.003693, 9.997568 
1.7651908e+3, 2.9363674e+2, 81425.24, -277910.03, -21758.908, 0.04821143, -0.5902872, 82738.016, 145039.27, 0.000716697, 10.002141, 9.997375 
1.7652132e+3, 3.0363363e+2, 177225.72, -124693.36, -61517.11, 0.2974811, -0.65278333, 189278.88, 189278.88, 0.0016844932, 10.002106, 9.998122 
1.765232e+3, 3.1363243e+2, 541525.5, 130514.99, -80006.55, 0.25217342, -0.64379466, 556550.2, 556550.2, 0.003009792, 10.004255, 9.998839 
1.774861e+3, 1.236361e+2, -1825401.5, -1714035.3, -187599.22, 0.19684398, -0.558917, -1574029.6, 154280.73, 0.08231803, 9.998972, 10.00055 
1.7748764e+3, 1.3363396e+2, -1595642.5, -1741490.1, 45174.566, -0.31142864, -0.6649921, -1582783.9, 47551.02, 0.054393712, 10.000725, 9.998788 
1.7749e+3, 1.4363438e+2, -1447212.5, -1613800.1, 36168.535, 0.0009310175, -0.49686927, -1439698.6, 92635.195, 0.02831169, 10.001053, 9.998833 
1.7749186e+3, 1.5363412e+2, -1537266.0, -1591965.6, -36783.008, -0.19769515, -0.43237376, -1518779.1, -84440.5, 0.010105246, 9.999692, 9.998958 
1.7749381e+3, 1.6363414e+2, -1397651.5, -1270207.5, -97811.24, -0.26930538, -0.39112782, -1217192.5, 119144.17, 0.0018804772, 9.999088, 10.000792 
1.7749599e+3, 1.7363457e+2, -1197133.3, -1066349.9, -19644.68, -0.08971644, -0.48727402, -1063462.8, 174862.03, 0.00008970714, 9.999556, 10.001285 
1.774981e+3, 1.836338e+2, -1210519.5, -1366465.5, -2336.059, 0.04064665, -0.54909235, -1210484.5, -70156.2, 0.000000028818846, 10.000265, 9.998216 
1.7750013e+3, 1.9363147e+2, -967631.44, -1231121.5, -49901.9, 0.07368441, -0.58964026, -958497.25, 83856.23, 0.0, 10.001407, 9.997919 
1.775021e+3, 2.0362969e+2, -721741.3, -911725.75, -86180.64, 0.068942614, -0.6056046, -688473.56, 255897.52, 0.0, 10.001773, 9.999262 
1.7750399e+3, 2.13629e+2, -755479.94, -830931.8, -9858.07, 0.020494398, -0.6505894, -754213.2, 92160.67, 0.0, 10.00068, 9.999665 
1.7750587e+3, 2.2362787e+2, -825811.94, -983134.06, -33338.676, -0.018937165, -0.6549795, -819038.6, -70656.01, 0.0, 10.0002365, 9.998171 
1.7750768e+3, 2.3362623e+2, -634853.44, -841416.1, -125922.2, -0.042099155, -0.6487169, -575274.56, 75123.98, 0.0, 10.000887, 9.998153 
1.7750958e+3, 2.436244e+2, -405752.22, -561899.75, -112224.05, -0.04660338, -0.680551, -347115.53, 205298.72, 0.0, 10.00128, 9.99921 
1.7751157e+3, 2.536226e+2, -274030.84, -403882.47, 13235.153, -0.022247197, -0.8301647, -272695.6, 181730.45, 0.0, 10.001337, 9.999588 
1.7751352e+3, 2.6362085e+2, -196076.44, -480211.44, 51832.836, -0.0130482605, -0.89089465, -186916.23, 169524.1, 0.00000032366296, 10.001898, 9.998126 
1.775154e+3, 2.7361953e+2, 102537.4, -284390.44, 22179.496, -0.05910456, -0.8451188, 103804.625, 362259.78, 0.00002512301, 10.003284, 9.99812 
1.7751731e+3, 2.8361815e+2, 135071.81, -395496.66, -29779.762, -0.06329162, -0.7153749, 136738.06, 297212.16, 0.00020058491, 10.003567, 9.996566 
1.7751934e+3, 2.9361665e+2, -664.04047, -427766.9, -68898.28, 0.07560218, -0.5409881, 10175.23, 72675.414, 0.0007353367, 10.002048, 9.996396 
1.7752148e+3, 3.0361328e+2, 198646.16, -40894.55, 2927.107, 0.2400268, -0.600924, 198681.92, 198681.92, 0.0017276168, 10.00195, 9.998765 
1.7752333e+3, 3.1361333e+2, 587317.6, 336662.84, -5344.5786, -0.0556013, -0.5604503, 587431.56, 587431.56, 0.0030498388, 10.003836, 10.000436 
1.7848592e+3, 1.23615704e+2, -1645824.4, -1500184.4, -163421.1, 0.07934492, -0.5300966, -1394093.1, 334420.3, 0.08696164, 9.99967, 10.0017605 
1.7848772e+3, 1.3361289e+2, -1598339.5, -1675688.9, 43969.65, -0.2879939, -0.7598194, -1578456.0, 52082.313, 0.057701517, 10.00043, 9.999382 
1.7849006e+3, 1.436139e+2, -1539720.6, -1704820.9, -26331.283, -0.018204123, -0.5501222, -1535622.9, -3094.0579, 0.030258754, 10.000597, 9.998429 
1.784919e+3, 1.5361293e+2, -1497246.6, -1646628.3, 11350.523, -0.13551486, -0.4938522, -1496389.1, -61845.72, 0.0109521225, 10.00028, 9.998302 
1.7849384e+3, 1.636126e+2, -1265651.9, -1236411.9, 27839.037, -0.20177376, -0.4417621, -1219587.4, 116959.914, 0.0020959692, 10.000125, 10.000517 
1.7849597e+3, 1.7361322e+2, -1085753.5, -1038087.5, -62348.36, -0.09492801, -0.49815875, -995172.25, 243362.3, 0.000105867584, 10.000432, 10.001056 
1.784981e+3, 1.8361257e+2, -1123611.8, -1295651.3, -71356.31, 0.004737328, -0.5466129, -1097867.8, 42669.383, 0.0000000562377, 10.000747, 9.99847 
1.7850024e+3, 1.9361022e+2, -978119.1, -1197154.8, 12430.93, 0.049104486, -0.6221683, -977415.9, 65145.0, 0.0, 10.001167, 9.998266 
1.7850226e+3, 2.0360844e+2, -803168.0, -946301.4, -33671.703, 0.07953257, -0.6582956, -795642.5, 148935.05, 0.0, 10.0012, 9.999304 
1.7850412e+3, 2.1360785e+2, -749605.94, -830904.7, -126220.8, 0.09419927, -0.69442445, -657650.44, 188930.03, 0.0, 10.000729, 9.999648 
1.7850599e+3, 2.2360684e+2, -745218.9, -970479.56, -108584.15, 0.066601165, -0.6712234, -701400.8, 47188.4, 0.0, 10.000911, 9.997932 
1.7850783e+3, 2.3360553e+2, -464679.06, -788446.4, -40751.906, -0.040923342, -0.6031583, -459628.5, 190975.81, 0.0, 10.002192, 9.997886 
1.7850973e+3, 2.4360402e+2, -165673.23, -370876.7, -22134.535, -0.0820944, -0.6175133, -163312.81, 389303.78, 0.0, 10.002605, 9.999882 
1.7851171e+3, 2.5360247e+2, -185266.34, -274799.75, -81443.83, -0.018271673, -0.82195663, -137096.75, 317524.34, 0.0, 10.001563, 10.000371 
1.7851372e+3, 2.6360077e+2, -322645.9, -573586.9, -70431.71, 0.034665175, -0.9064073, -304229.38, 52403.33, 0.00000018370703, 10.001163, 9.997837 
1.7851575e+3, 2.735991e+2, -114818.195, -448043.78, -75727.93, 0.030309584, -0.85278845, -98415.85, 160238.5, 0.000020759246, 10.002016, 9.997617 
1.785177e+3, 2.8359762e+2, 35977.81, -368700.66, -98243.14, 0.017335704, -0.72969824, 58567.188, 219241.84, 0.00019242667, 10.002602, 9.997198 
1.7851956e+3, 2.9359683e+2, 185708.38, -245075.63, -37991.855, 0.048038963, -0.55697805, 189033.3, 251723.19, 0.000732247, 10.002951, 9.997204 
1.7852163e+3, 3.0359372e+2, 358013.5, -27068.672, 142040.95, 0.13250695, -0.6155316, 404737.34, 404737.34, 0.0017117219, 10.003314, 9.998205 
1.7852375e+3, 3.1359297e+2, 492995.6, 234199.77, -56323.81, 0.0075084316, -0.5722456, 504722.44, 504722.44, 0.0029630733, 10.0034075, 9.999942 
1.7948565e+3, 1.2359693e+2, -1689410.0, -1584673.8, -219510.44, -0.19809662, -0.41358382, -1411371.3, 317328.72, 0.09190124, 9.999674, 10.001165 
1.7948775e+3, 1.3359304e+2, -1642936.0, -1764309.9, 77455.36, -0.32380158, -0.6884411, -1605224.6, 25510.217, 0.06119029, 10.000398, 9.998789 
1.7949e+3, 1.4359401e+2, -1481362.9, -1573918.1, -45414.676, -0.15428218, -0.48988128, -1462801.4, 69921.305, 0.03230053, 10.000571, 9.999342 
1.794921e+3, 1.5359166e+2, -1424520.3, -1483895.3, 6315.6675, 0.017328849, -0.6832211, -1423855.9, 10887.085, 0.011841973, 10.0002365, 9.999436 
1.7949408e+3, 1.6358986e+2, -1395684.8, -1512937.4, 30428.777, 0.014716525, -0.76104885, -1388258.4, -51498.676, 0.0023264778, 10.00014, 9.998619 
1.79496e+3, 1.7358908e+2, -1251987.4, -1386632.4, -46554.35, -0.103913166, -0.71914655, -1237458.6, 1311.144, 0.00012352158, 10.000437, 9.998668 
1.7949806e+3, 1.8358877e+2, -1013844.3, -1065996.8, -61793.93, -0.1365959, -0.66462576, -972850.0, 167922.63, 0.000000085167756, 10.000745, 10.000045 
1.7950024e+3, 1.9358943e+2, -834030.94, -884309.25, 33309.07, -0.059845354, -0.6525527, -817439.2, 225321.84, 0.0, 10.001111, 10.000441 
1.7950234e+3, 2.0358893e+2, -906981.2, -1153821.0, -53945.125, 0.015211236, -0.6264187, -895706.8, 49057.836, 0.0, 10.001159, 9.9979 
1.7950423e+3, 2.1358676e+2, -895849.75, -1125377.0, -138023.39, 0.1101008, -0.62435544, -831110.9, 15680.22, 0.0, 10.000684, 9.997651 
1.7950614e+3, 2.2358508e+2, -661593.56, -778503.1, -72717.586, 0.11120964, -0.6138981, -626748.75, 122060.3, 0.0, 10.000836, 9.999285 
1.7950805e+3, 2.3358461e+2, -350576.22, -521805.8, 15914.663, -0.05925767, -0.64739245, -349109.63, 301699.1, 0.0, 10.0020685, 9.999773 
1.7950995e+3, 2.4358395e+2, -250149.27, -516300.75, -55240.5, -0.13283937, -0.644533, -239139.38, 313671.16, 0.0, 10.002474, 9.998948 
1.7951186e+3, 2.535832e+2, -295696.56, -483186.9, -114526.086, -0.022828199, -0.6331838, -241440.45, 213373.58, 0.0, 10.001481, 9.998975 
1.795139e+3, 2.6358154e+2, -349472.53, -619200.1, -51651.4, 0.09096588, -0.62099606, -339919.88, 16909.78, 0.00000013255313, 10.001109, 9.997555 
1.7951609e+3, 2.735787e+2, -136258.08, -464259.75, -33904.824, 0.1590866, -0.6769964, -132790.08, 126072.445, 0.0000188634, 10.001903, 9.997557 
1.7951806e+3, 2.835769e+2, 161965.45, -82382.11, -91023.195, 0.10232821, -0.67387444, 192145.39, 353026.53, 0.00018750537, 10.002483, 9.999228 
1.7951971e+3, 2.9357728e+2, 335463.94, 102769.91, -14118.234, -0.102229364, -0.62412894, 336317.4, 399188.84, 0.0007238546, 10.0028, 9.999663 
1.7952172e+3, 3.0357486e+2, 197053.89, -319142.06, 138464.47, -0.115889214, -0.66875035, 231850.05, 231850.05, 0.0016668775, 10.003124, 9.996293 
1.7952435e+3, 3.135711e+2, 305782.84, -85005.49, -44678.605, 0.2590616, -0.6809339, 310825.84, 310825.84, 0.002811778, 10.003135, 9.997858 
1.8048558e+3, 1.23576865e+2, -1748016.1, -1627370.0, -287631.28, -0.21810396, -0.31785235, -1393804.3, 335095.66, 0.097200245, 9.999348, 10.001042 
1.8048787e+3, 1.3357264e+2, -1792252.8, -1849781.6, 39391.96, -0.18086748, -0.61656106, -1772241.0, -141303.73, 0.06490086, 9.999414, 9.998679 
1.8048994e+3, 1.435733e+2, -1562368.3, -1564339.9, -57430.133, -0.22206832, -0.4634533, -1505915.5, 27011.227, 0.034457777, 9.999795, 9.999779 
1.8049219e+3, 1.5357126e+2, -1240906.0, -1339144.6, -62783.645, 0.03271054, -0.6762231, -1210310.3, 224630.88, 0.0127833225, 10.001269, 9.999939 
1.8049423e+3, 1.635694e+2, -1182998.5, -1463542.6, -34071.16, 0.074156016, -0.7665008, -1178920.0, 158037.81, 0.0025744103, 10.001847, 9.998132 
1.8049614e+3, 1.7356819e+2, -1212585.6, -1433971.1, 2739.2195, -0.044271737, -0.7062579, -1212551.8, 26422.896, 0.00014305822, 10.001017, 9.998053 
1.8049814e+3, 1.8356772e+2, -1042366.0, -1069768.3, 44171.0, -0.096005924, -0.6379479, -1009820.0, 131160.61, 0.00000010953618, 10.000487, 10.000149 
1.8050028e+3, 1.9356865e+2, -899710.8, -887055.25, -13737.103, -0.10306577, -0.6244107, -878258.6, 164707.69, 0.0, 10.000534, 10.000699 
1.8050234e+3, 2.0356837e+2, -923274.25, -1152161.4, -116944.64, -0.069437355, -0.5937185, -874092.1, 70875.25, 0.0, 10.001002, 9.997991 
1.8050432e+3, 2.1356632e+2, -663556.6, -1004033.7, -60402.617, 0.06436144, -0.58543974, -653158.44, 193833.45, 0.0, 10.002241, 9.99773 
1.805063e+3, 2.2356461e+2, -402870.28, -643958.6, 47391.4, 0.10586045, -0.589104, -393889.0, 355120.5, 0.0, 10.002579, 9.999364 
1.8050824e+3, 2.3356372e+2, -441740.1, -562432.44, -9121.858, -0.031950552, -0.6682315, -441054.56, 209958.02, 0.0, 10.00142, 9.999809 
1.8051018e+3, 2.4356271e+2, -460820.94, -674608.8, -122521.32, -0.08356009, -0.6802619, -405117.88, 147900.61, 0.0, 10.001272, 9.998443 
1.8051213e+3, 2.535617e+2, -127081.97, -472830.34, -141500.19, 0.021992866, -0.6328849, -76555.65, 378471.4, 0.0, 10.002933, 9.998358 
1.8051416e+3, 2.6356015e+2, 38025.29, -384076.38, -29199.865, 0.11233616, -0.5926025, 40035.68, 397077.97, 0.00000007008213, 10.003579, 9.997974 
1.8051627e+3, 2.7355802e+2, -6673.157, -339918.25, 14230.675, 0.129898, -0.6287863, -6066.564, 252999.06, 0.000018211342, 10.002533, 9.998108 
1.8051828e+3, 2.83556e+2, 99691.08, -125908.79, -47893.2, 0.1079301, -0.67196274, 109437.4, 270521.22, 0.00018362651, 10.002101, 9.999116 
1.8052012e+3, 2.9355484e+2, 334229.84, 74908.87, -171893.19, 0.03148276, -0.7478315, 419881.03, 482967.8, 0.0007096767, 10.002884, 9.999447 
1.805221e+3, 3.0355257e+2, 225338.72, -293000.78, -68204.336, -0.053670727, -0.7738317, 234162.98, 234162.98, 0.0016118336, 10.003258, 9.996409 
1.8052469e+3, 3.1354916e+2, 268398.63, -131122.45, -103883.12, 0.2970765, -0.74633926, 293795.75, 293795.75, 0.0026686986, 10.002933, 9.997678 
1.8148567e+3, 1.2355524e+2, -1733953.3, -1590192.9, -262583.94, -0.07858344, -0.27096453, -1389828.5, 339287.44, 0.10291468, 9.999303, 10.00134 
1.8148808e+3, 1.335517e+2, -1769659.1, -1788403.6, 42186.465, 0.082139954, -0.5414714, -1735816.4, -104671.14, 0.06887483, 9.999361, 9.999123 
1.8148987e+3, 1.4355172e+2, -1563372.0, -1568134.9, -20244.508, -0.289104, -0.4766611, -1545369.3, -12228.217, 0.036753505, 9.999789, 9.99976 
1.8149213e+3, 1.5355168e+2, -1245142.6, -1354624.6, -359.34122, -0.15266483, -0.47680554, -1245141.4, 189997.28, 0.01378539, 10.001287, 9.99983 
1.8149425e+3, 1.6355133e+2, -1115759.9, -1326618.0, -61211.895, -0.10535024, -0.45125484, -1099278.5, 237862.34, 0.002842686, 10.001863, 9.999063 
1.8149634e+3, 1.7355059e+2, -1139098.6, -1278083.4, -23852.078, 0.03687902, -0.45151982, -1135119.1, 104029.516, 0.00016504708, 10.000997, 9.999134 
1.8149838e+3, 1.835494e+2, -1133641.0, -1256036.8, 37309.867, 0.07320305, -0.46118113, -1123164.6, 17996.295, 0.00000012908751, 10.000474, 9.998877 
1.815003e+3, 1.9354782e+2, -1017362.9, -1130057.5, -6235.2124, -0.13948683, -0.5345958, -1017018.94, 26157.844, 0.0, 10.000528, 9.999033 
1.815023e+3, 2.0354663e+2, -817789.56, -930330.5, -81322.836, -0.23212135, -0.5667983, -775167.3, 170019.53, 0.0, 10.000989, 9.99952 
1.8150441e+3, 2.1354634e+2, -529867.44, -708228.7, -7462.0615, -0.089230865, -0.58680063, -529555.8, 317628.66, 0.0, 10.002159, 9.999803 
1.8150645e+3, 2.2354524e+2, -502277.56, -821930.44, 10582.6875, -0.00059289864, -0.5981245, -501927.6, 247264.45, 0.0, 10.002453, 9.998205 
1.8150839e+3, 2.3354295e+2, -574044.5, -819663.3, -44889.023, -0.018017512, -0.65071535, -566097.75, 85117.25, 0.0, 10.001346, 9.998078 
1.815104e+3, 2.435404e+2, -486315.66, -712406.8, -77529.3, -0.0041180495, -0.70602405, -462284.28, 90954.8, 0.0, 10.001201, 9.998219 
1.8151248e+3, 2.5353792e+2, -135131.39, -467018.53, -67657.695, 0.06417629, -0.81151897, -121868.836, 333391.34, 0.0, 10.002836, 9.998443 
1.8151447e+3, 2.6353654e+2, 88610.22, -252601.06, -59428.316, 0.043930545, -0.8049758, 98664.51, 455935.66, 0.0000000874347, 10.003457, 9.9989395 
1.8151629e+3, 2.7353695e+2, 47867.324, -191442.94, -17153.744, -0.1111119, -0.69887185, 49090.65, 308355.5, 0.00001648955, 10.002391, 9.99919 
1.8151836e+3, 2.8353494e+2, -73506.02, -464476.38, -31629.846, -0.046616204, -0.7019955, -70963.67, 90319.266, 0.00017232615, 10.001997, 9.996845 
1.8152075e+3, 2.935297e+2, 136553.11, -320938.34, -123676.39, 0.3464926, -0.9215731, 167846.72, 231180.42, 0.00067456526, 10.002812, 9.99676 
1.815227e+3, 3.0352712e+2, 318447.72, -61565.4, -78169.516, 0.19996211, -0.90123856, 333899.13, 333899.13, 0.0015401024, 10.003104, 9.998069 
1.8152459e+3, 3.135248e+2, 335155.72, 108111.85, -55001.754, -0.11277119, -1.0013233, 347778.22, 347778.22, 0.0025581955, 10.002551, 9.999477 
1.8248561e+3, 1.2353201e+2, -1582690.5, -1540242.0, -98340.98, -0.12087678, -0.4758383, -1460861.0, 268474.38, 0.10907774, 10.000452, 10.001124 
1.8248823e+3, 1.335304e+2, -1455190.4, -1628754.8, 93375.86, 0.19441353, -0.56338567, -1414496.3, 216851.2, 0.07313931, 10.001577, 9.999176 
1.8248995e+3, 1.4353019e+2, -1338679.1, -1516871.9, 7801.556, -0.27960575, -0.50076044, -1338338.1, 195009.97, 0.039204508, 10.001658, 9.999208 
1.8249221e+3, 1.5352973e+2, -1395070.4, -1497530.5, -26666.002, -0.1749807, -0.4797973, -1388545.9, 46808.063, 0.014855209, 10.000564, 9.999184 
1.824943e+3, 1.6352934e+2, -1340921.8, -1370601.8, -124827.19, -0.15236741, -0.444245, -1230055.5, 107302.23, 0.0031336718, 10.000026, 9.999649 
1.8249635e+3, 1.7352943e+2, -1154355.4, -1193126.9, -120818.95, -0.013811787, -0.4417395, -1051376.8, 187977.48, 0.00019006866, 10.000491, 9.999961 
1.8249841e+3, 1.8352857e+2, -1105054.6, -1276193.9, -21867.014, 0.051541664, -0.4527012, -1102304.8, 39057.508, 0.00000015151502, 10.000829, 9.998563 
1.8250042e+3, 1.9352642e+2, -983290.0, -1170869.4, 10699.218, -0.1014217, -0.5311724, -982681.7, 60705.117, 0.0, 10.001027, 9.9985075 
1.8250245e+3, 2.03525e+2, -775241.44, -862510.8, -29593.994, -0.16781427, -0.57177603, -766152.4, 179247.6, 0.0, 10.00109, 9.999926 
1.8250456e+3, 2.135251e+2, -671049.25, -711719.2, -76647.125, -0.070089564, -0.6095894, -612085.44, 235306.17, 0.0, 10.000927, 10.000363 
1.8250664e+3, 2.2352424e+2, -697805.2, -935602.56, -99779.125, 0.005713611, -0.62120813, -661485.44, 87910.52, 0.0, 10.0011835, 9.998039 
1.8250862e+3, 2.3352192e+2, -474164.53, -801398.44, -67772.93, 0.03295879, -0.6498508, -460683.56, 190736.84, 0.0, 10.002161, 9.99781 
1.8251063e+3, 2.4351941e+2, -262029.08, -579907.5, 9037.475, 0.043996908, -0.69625634, -261772.34, 291672.44, 0.0, 10.002643, 9.998428 
1.8251266e+3, 2.5351703e+2, -203892.5, -466693.4, 27450.332, 0.004920513, -0.8195035, -201055.84, 254408.19, 0.0, 10.002223, 9.9987335 
1.8251462e+3, 2.6351565e+2, -156084.31, -367778.34, -17227.588, -0.040307473, -0.8304144, -154691.5, 202782.53, 0.00000011582431, 10.001776, 9.998956 
1.8251653e+3, 2.7351582e+2, -93264.375, -271065.47, -83383.05, -0.06677257, -0.7449985, -60279.566, 199190.2, 0.000015405387, 10.00145, 9.999107 
1.8251865e+3, 2.8351364e+2, -89862.46, -475293.1, 4537.0845, 0.06480497, -0.75655884, -89809.06, 71679.98, 0.00016006886, 10.001909, 9.996812 
1.8252106e+3, 2.9350868e+2, 264613.78, -260804.56, 89532.59, 0.3471695, -0.93974584, 279451.34, 342989.2, 0.0006307873, 10.0037, 9.99675 
1.8252295e+3, 3.035066e+2, 467064.5, 72426.66, 138993.11, 0.11465386, -0.8960435, 511103.9, 511103.9, 0.0014636228, 10.003877, 9.998611 
1.825249e+3, 3.1350464e+2, 240178.6, 33097.09, 28519.094, -0.01446256, -1.0033114, 244034.42, 244034.42, 0.0024808757, 10.001962, 9.999283 
1.8348536e+3, 1.2350686e+2, -1636855.1, -1642426.6, 5847.5313, -0.43556994, -0.97560775, -1633163.6, 96396.55, 0.11569034, 10.000414, 10.000356 
1.8348831e+3, 1.3350883e+2, -1472513.8, -1664140.5, 132101.23, 0.092363395, -0.68271744, -1405137.3, 226404.92, 0.07769921, 10.001586, 9.998931 
1.8349014e+3, 1.4350891e+2, -1416404.9, -1686734.8, -28871.58, -0.268541, -0.5274547, -1413355.8, 120189.65, 0.04181763, 10.001672, 9.998033 
1.8349236e+3, 1.535054e+2, -1486624.6, -1685771.9, -61326.684, -0.09595902, -0.68541324, -1469254.4, -33667.75, 0.015997248, 10.0005455, 9.997902 
1.8349434e+3, 1.6350335e+2, -1324295.4, -1334143.9, -123148.8, -0.12318818, -0.7530409, -1205972.5, 131637.1, 0.0034491862, 10.000018, 9.999905 
1.8349618e+3, 1.7350453e+2, -1115056.4, -1114607.6, -99599.09, -0.24930759, -0.6918814, -1015232.7, 224360.48, 0.00021871291, 10.000499, 10.000499 
1.8349823e+3, 1.8350498e+2, -1064236.6, -1189893.9, -18995.879, -0.23317641, -0.6276649, -1061427.8, 80159.15, 0.00000018976193, 10.000823, 9.999157 
1.8350059e+3, 1.9350436e+2, -946299.5, -1085816.9, 24718.773, -0.042773094, -0.6153113, -942049.44, 101547.31, 0.0, 10.000991, 9.999108 
1.8350282e+3, 2.0350352e+2, -829840.06, -969153.94, -38170.207, 0.07201, -0.6039463, -820067.44, 125539.07, 0.0, 10.001056, 9.999214 
1.835048e+3, 2.1350266e+2, -747748.5, -854923.06, -78135.35, 0.063680045, -0.64297444, -706590.2, 141022.47, 0.0, 10.000859, 9.999413 
1.8350682e+3, 2.2350162e+2, -658475.25, -830666.06, -71694.43, 0.060544077, -0.6509102, -632532.7, 117088.195, 0.0, 10.00108, 9.998813 
1.8350889e+3, 2.3350045e+2, -410761.78, -645915.9, -21500.846, 0.072540715, -0.6704922, -408812.06, 242818.64, 0.0, 10.002058, 9.998929 
1.8351087e+3, 2.4349946e+2, -235732.5, -496202.53, -4140.3413, 0.010068243, -0.6600358, -235666.7, 317971.7, 0.0, 10.002512, 9.999071 
1.8351269e+3, 2.5349894e+2, -183890.77, -399038.44, 19250.004, -0.20066316, -0.6510574, -182181.97, 273457.72, 0.0, 10.002114, 9.999253 
1.8351465e+3, 2.634975e+2, -238081.78, -521569.38, -34150.598, -0.21008039, -0.6505712, -234025.83, 123625.35, 0.000000090536304, 10.001695, 9.997941 
1.8351693e+3, 2.7349454e+2, -189462.56, -453891.47, -82137.58, 0.1795461, -0.7546946, -166025.98, 93653.91, 0.00001528185, 10.001379, 9.997885 
1.8351914e+3, 2.8349206e+2, 31741.584, -209266.27, 51833.313, 0.352148, -0.80991244, 42416.5, 204118.55, 0.00015262203, 10.001842, 9.998675 
1.8352108e+3, 2.9349127e+2, 410028.97, 85216.74, 163543.61, -0.0032987094, -0.8140878, 478105.53, 541809.4, 0.00059531454, 10.003521, 9.999208 
1.8352288e+3, 3.0349064e+2, 383766.63, -48420.465, 69416.16, -0.36360094, -0.7433612, 394642.28, 394642.28, 0.0013981345, 10.0036545, 9.997882 
1.8352541e+3, 3.1348947e+2, 42801.69, -319070.38, 37454.855, 0.2874946, -0.65011907, 46637.72, 46637.72, 0.0024225295, 10.001735, 9.996958 
1.8448538e+3, 1.23483315e+2, -1758577.6, -1750309.0, -100355.25, -0.42576948, -1.0198766, -1654003.0, 75782.195, 0.12272786, 9.999762, 9.999892 
1.844883e+3, 1.3348542e+2, -1771314.5, -1742090.0, -27295.867, 0.05211288, -0.7698867, -1725741.3, -93975.23, 0.08254445, 9.99916, 9.999529 
1.844902e+3, 1.4348555e+2, -1761229.6, -1805060.5, -104726.18, -0.23362231, -0.6570937, -1676150.4, -142382.19, 0.04459436, 9.999042, 9.998494 
1.8449242e+3, 1.5348305e+2, -1536744.9, -1649833.1, -16205.521, -0.05457706, -0.76797265, -1534468.4, -98668.914, 0.017215712, 9.999936, 9.998448 
1.8449442e+3, 1.6348149e+2, -1275746.3, -1323212.1, 13686.695, -0.06556847, -0.81248623, -1272082.5, 65735.36, 0.0037916328, 10.000415, 9.9997835 
1.8449625e+3, 1.734821e+2, -1148696.5, -1157143.6, -29233.848, -0.21714327, -0.7855244, -1123382.6, 116425.71, 0.00025177147, 10.000391, 10.000256 
1.8449828e+3, 1.8348244e+2, -1125258.6, -1200683.3, 6799.8374, -0.22971003, -0.72668034, -1124650.5, 17153.545, 0.00000025167606, 10.000324, 9.999317 
1.8450062e+3, 1.9348243e+2, -1037691.56, -1105415.3, 8418.282, -0.07072649, -0.67512053, -1036660.8, 7146.689, 0.0, 10.00025, 9.9993305 
1.8450285e+3, 2.0348193e+2, -934143.1, -1037808.56, -37939.24, 0.04612964, -0.63362473, -921741.75, 24072.549, 0.0, 10.000418, 9.999053 
1.8450493e+3, 2.1348096e+2, -722250.2, -873070.5, -35795.938, 0.09087179, -0.65951407, -714185.56, 133637.94, 0.0, 10.001158, 9.999152 
1.84507e+3, 2.2348002e+2, -553453.75, -723061.94, 10089.59, 0.109747544, -0.66270715, -552855.7, 196975.64, 0.0, 10.001572, 9.999306 
1.8450904e+3, 2.3347941e+2, -454311.84, -599315.9, 11628.36, 0.06510879, -0.68701583, -453385.25, 198448.78, 0.0, 10.001475, 9.999525 
1.8451105e+3, 2.434787e+2, -424597.34, -600813.2, -31284.586, -0.0030586042, -0.6762557, -419208.03, 134630.39, 0.0, 10.001289, 9.998933 
1.845129e+3, 2.5347796e+2, -356968.4, -512146.53, -89606.055, -0.13884835, -0.6618043, -316027.72, 139815.9, 0.0, 10.001059, 9.99898 
1.845149e+3, 2.6347637e+2, -266202.44, -511961.6, -97667.555, -0.11767878, -0.67190003, -232115.97, 125741.29, 0.00000009817215, 10.001402, 9.998148 
1.8451715e+3, 2.734736e+2, 29185.002, -315163.53, -41551.633, 0.20661803, -0.7853652, 34127.973, 294010.2, 0.000013983738, 10.002744, 9.998176 
1.8451937e+3, 2.834715e+2, 189441.5, -124023.25, 92228.984, 0.33753425, -0.8207958, 214564.08, 376463.9, 0.0001420209, 10.002899, 9.998747 
1.8452129e+3, 2.9347104e+2, 43681.156, -87432.87, 1658.3672, -0.01432332, -0.7934425, 43702.13, 107602.836, 0.0005568976, 10.000977, 9.999253 
1.8452315e+3, 3.034697e+2, -16666.96, -188812.7, -118416.76, -0.29965758, -0.8167655, 43653.707, 43653.707, 0.0013248264, 10.000654, 9.998379 
1.8452574e+3, 3.134694e+2, 372573.06, -118645.44, 273.76266, 0.3516256, -0.6782805, 372573.22, 372573.22, 0.0023356052, 10.003788, 9.997359 
1.8548563e+3, 1.2346177e+2, -1767909.9, -1784808.4, -67898.586, -0.17355244, -0.5613187, -1707936.9, 22070.406, 0.13014582, 9.999796, 9.999615 
1.8548818e+3, 1.3346006e+2, -1682288.0, -1554921.6, -48769.27, 0.015977217, -0.83521897, -1538392.6, 93627.8, 0.08765755, 9.99911, 10.000895 
1.8549012e+3, 1.4345992e+2, -1617611.6, -1502044.5, -83816.76, -0.2416674, -0.9110428, -1458023.4, 75995.75, 0.04753598, 9.999013, 10.000609 
1.8549235e+3, 1.5346262e+2, -1369139.6, -1304698.8, 22467.672, -0.1122906, -0.7369486, -1297638.8, 138354.23, 0.01851746, 9.999943, 10.0008335 
1.8549448e+3, 1.634638e+2, -1306693.6, -1392729.0, 12907.325, -0.05523526, -0.6240097, -1304799.0, 33182.984, 0.0041650403, 10.000436, 9.999293 
1.8549654e+3, 1.7346218e+2, -1221629.9, -1311746.6, -22799.322, 0.030133415, -0.7223177, -1216190.1, 23809.041, 0.00029041685, 10.000397, 9.999192 
1.8549857e+3, 1.8346085e+2, -1148027.4, -1251141.6, -935.5697, 0.009693336, -0.75529015, -1148018.9, -6004.797, 0.0000003514084, 10.000334, 9.99897 
1.8550049e+3, 1.9346054e+2, -1052689.6, -1135661.1, 9527.335, -0.24161471, -0.71025085, -1051609.8, -7590.2876, 0.0, 10.000239, 9.999131 
1.8550256e+3, 2.0346014e+2, -915779.06, -992144.94, -20157.865, -0.3076645, -0.6619568, -910784.75, 35239.582, 0.0, 10.000384, 9.999384 
1.8550493e+3, 2.1345983e+2, -702195.1, -811386.56, -820.7969, -0.028575415, -0.6658986, -702188.94, 145836.72, 0.0, 10.001073, 9.999617 
1.8550715e+3, 2.2345935e+2, -552430.44, -702076.3, 7264.9653, 0.1030043, -0.6589793, -552078.56, 197949.64, 0.0, 10.001484, 9.9994955 
1.855091e+3, 2.3345882e+2, -457729.9, -590023.94, 15166.62, -0.04121464, -0.6894284, -456013.4, 196016.84, 0.0, 10.001399, 9.99963 
1.8551113e+3, 2.4345726e+2, -505404.38, -750412.3, -43822.5, -0.064229004, -0.72466713, -497802.1, 56241.83, 0.0, 10.001205, 9.997948 
1.8551329e+3, 2.5345415e+2, -448393.6, -682584.1, -89948.88, 0.1300758, -0.837011, -417833.53, 38242.26, 0.0, 10.000977, 9.997848 
1.8551533e+3, 2.6345217e+2, -182596.69, -320523.4, -61064.35, 0.17877768, -0.8756299, -159447.08, 198645.77, 0.00000008466028, 10.001323, 9.999503 
1.855172e+3, 2.7345273e+2, 133640.81, -62828.125, 18036.012, -0.015688377, -0.83507395, 135282.81, 395361.75, 0.000011475633, 10.002597, 9.999979 
1.855193e+3, 2.834518e+2, 49569.45, -384038.22, 27634.578, -0.024203598, -0.7872687, 51323.555, 213408.14, 0.00012583715, 10.002756, 9.997036 
1.8552163e+3, 2.934481e+2, -128813.93, -431020.06, -62933.316, 0.21761689, -0.8573633, -116232.12, -52105.645, 0.0005095329, 10.00091, 9.996928 
1.855237e+3, 3.0344406e+2, 68123.62, 9114.906, -42430.254, 0.18213433, -1.0703601, 90299.37, 90299.37, 0.0012346595, 10.000574, 9.999767 
1.85526e+3, 3.134467e+2, 519836.3, 282241.5, 169137.58, 0.20524727, -0.85384065, 607727.9, 607727.9, 0.0022029516, 10.00341, 10.000289 
1.8648584e+3, 1.2343854e+2, -1725693.9, -1831147.0, 116239.68, 0.021099975, -0.46570837, -1650781.3, 79457.52, 0.1378835, 10.000431, 9.999005 
1.8648809e+3, 1.3343686e+2, -1548554.4, -1439715.6, -1995.6991, -0.007621817, -0.78744304, -1439679.0, 192572.97, 0.09301642, 9.999826, 10.001419 
1.864901e+3, 1.4343716e+2, -1520207.6, -1345437.1, -55400.395, -0.16727963, -0.8898754, -1329355.5, 204889.22, 0.050644647, 9.999205, 10.001626 
1.8649231e+3, 1.5344098e+2, -1427271.4, -1203008.0, -50510.15, -0.10235121, -0.7201926, -1192156.8, 244046.45, 0.01991141, 9.998988, 10.001997 
1.8649447e+3, 1.6344285e+2, -1486385.6, -1481560.9, -86338.88, -0.048975423, -0.60326535, -1397600.6, -59417.36, 0.0045744055, 9.999209, 9.999274 
1.8649663e+3, 1.7344101e+2, -1268051.0, -1356607.5, -74300.29, 0.09080999, -0.7038648, -1225835.9, 14368.851, 0.0003360051, 10.000188, 9.998976 
1.864987e+3, 1.8343942e+2, -1075028.6, -1202708.4, -7270.1284, 0.09023878, -0.75321656, -1074616.0, 67606.484, 0.00000050835786, 10.000781, 9.999088 
1.8650058e+3, 1.9343898e+2, -958213.9, -1069921.9, 20364.656, -0.2062533, -0.73955715, -954617.2, 89609.766, 0.0, 10.000808, 9.9993105 
1.865026e+3, 2.0343846e+2, -842430.94, -940926.9, 24220.686, -0.30600375, -0.7201879, -836797.2, 109433.96, 0.0, 10.000831, 9.999514 
1.8650499e+3, 2.1343789e+2, -720807.2, -806591.94, 8796.525, -0.057765137, -0.76453125, -719914.5, 128319.35, 0.0, 10.000888, 9.999732 
1.8650725e+3, 2.2343719e+2, -650890.25, -805246.56, -18060.162, 0.079925425, -0.76327163, -648805.3, 101433.67, 0.0, 10.001049, 9.998998 
1.8650928e+3, 2.3343672e+2, -484724.66, -669630.44, -75671.8, 0.002686585, -0.7280578, -457704.72, 194540.1, 0.0, 10.001504, 9.999032 
1.8651134e+3, 2.4343525e+2, -404233.78, -703093.25, -128692.43, 0.0067062583, -0.72012126, -356455.53, 197804.75, 0.0, 10.001899, 9.997941 
1.8651344e+3, 2.534322e+2, -272222.5, -589197.5, -96062.15, 0.14151941, -0.83249813, -245382.66, 210908.02, 0.0, 10.002141, 9.997929 
1.8651548e+3, 2.634301e+2, -91247.5, -273751.88, -34606.367, 0.16074327, -0.8931944, -84905.82, 273402.8, 0.000000065173005, 10.001948, 9.999519 
1.8651739e+3, 2.7343005e+2, -83457.305, -172753.36, -101947.12, -0.011962702, -0.9082716, -16809.951, 243489.89, 0.000009431519, 10.00111, 9.9999485 
1.865195e+3, 2.8342906e+2, -171323.88, -501784.63, -106831.87, -0.013080046, -0.8611218, -139795.2, 22511.111, 0.00011328213, 10.001293, 9.996925 
1.8652186e+3, 2.9342622e+2, 219103.52, -280642.8, -71144.57, 0.23955071, -0.8298087, 229034.4, 293376.03, 0.00047182312, 10.00339, 9.996752 
1.8652402e+3, 3.03422e+2, 494388.94, 159982.56, -5068.185, 0.28424886, -1.0279511, 494465.75, 494465.75, 0.0011563048, 10.003733, 9.999282 
1.8652615e+3, 3.1342345e+2, 211125.47, 160519.14, -1695.2635, 0.13997574, -0.8819988, 211182.19, 211182.19, 0.0020674597, 10.001137, 10.000547 
1.8748592e+3, 1.2341382e+2, -1787152.4, -1971454.9, 107408.445, 0.03160104, -0.7303421, -1737781.9, -7304.5396, 0.14588223, 10.000424, 9.99802 
1.8748802e+3, 1.3341603e+2, -1574431.5, -1491984.0, -22297.11, -0.06896016, -0.62409145, -1486340.4, 146118.45, 0.0986057, 9.999821, 10.001034 
1.8749012e+3, 1.4341746e+2, -1528365.5, -1367150.5, -68874.46, -0.07653216, -0.5840887, -1341733.1, 192710.13, 0.053927336, 9.999225, 10.001465 
1.8749224e+3, 1.5341806e+2, -1435312.3, -1222660.9, -48936.2, -0.08557198, -0.72448266, -1211940.0, 224491.13, 0.021407956, 9.998989, 10.001865 
1.8749435e+3, 1.6341853e+2, -1456430.4, -1417067.8, -62302.145, -0.1064111, -0.75864077, -1371412.3, -32989.21, 0.0050250688, 9.999201, 9.999722 
1.8749648e+3, 1.7341849e+2, -1229768.0, -1274712.8, -32145.178, -0.08830565, -0.73366165, -1213019.0, 27406.69, 0.00038988978, 10.000171, 9.99955 
1.8749864e+3, 1.8341808e+2, -1033878.6, -1114383.8, -7773.9834, -0.058576617, -0.72477376, -1033134.8, 109295.2, 0.000000733184, 10.000772, 9.9997 
1.8750085e+3, 1.9341771e+2, -922130.2, -986664.2, 26516.354, -0.018445212, -0.7623643, -912632.6, 131797.69, 0.0, 10.000775, 9.999899 
1.8750301e+3, 2.0341676e+2, -850506.9, -956158.2, 19578.707, -0.008538501, -0.81468225, -846995.4, 99440.52, 0.0, 10.0008135, 9.999423 
1.875051e+3, 2.1341507e+2, -747180.06, -848368.6, 15282.732, -0.056581892, -0.9474665, -744922.3, 103525.875, 0.0, 10.000822, 9.999483 
1.8750726e+3, 2.2341359e+2, -747515.06, -984201.0, -7896.1797, -0.0281525, -0.9606302, -747251.94, 3211.295, 0.0, 10.000951, 9.997819 
1.8750958e+3, 2.33413e+2, -593828.94, -870384.4, -49342.14, 0.14293848, -0.80514234, -585289.2, 67189.52, 0.0, 10.001396, 9.997703 
1.875117e+3, 2.4341242e+2, -356205.1, -576343.9, -120000.54, 0.15311335, -0.6705955, -303439.0, 251050.44, 0.0, 10.001779, 9.998873 
1.8751338e+3, 2.53412e+2, -193332.44, -400490.03, -78494.766, -0.14314017, -0.65206814, -166949.72, 289540.16, 0.0, 10.002038, 9.999275 
1.875153e+3, 2.6341e+2, -192756.1, -469661.78, -66668.17, -0.21103044, -0.7228662, -177541.0, 180964.34, 0.00000004605578, 10.001873, 9.998218 
1.8751766e+3, 2.734057e+2, -219674.67, -436434.47, -122270.516, 0.13484798, -0.9887066, -164664.61, 95878.266, 0.000008317367, 10.001031, 9.998177 
1.8751994e+3, 2.8340355e+2, -90321.1, -323735.7, -48951.832, 0.2680647, -1.0079939, -80470.61, 82091.36, 0.00010640216, 10.001242, 9.998179 
1.8752198e+3, 2.9340506e+2, 313432.56, -41208.082, 21812.21, 0.022213273, -0.71335053, 314769.06, 379318.53, 0.00044870467, 10.003209, 9.998486 
1.8752408e+3, 3.0340296e+2, 318631.8, -159358.86, -87146.76, -0.03642341, -0.7066059, 334024.63, 334024.63, 0.001099917, 10.003536, 9.99718 
1.8752632e+3, 3.1339815e+2, 28411.438, -149528.23, -102554.66, 0.18163787, -0.9239176, 75210.11, 75210.11, 0.0019558533, 10.000873, 9.998529 
1.8848594e+3, 1.2339203e+2, -1967915.1, -2072090.5, 170973.13, 0.07392674, -0.78704184, -1841271.4, -110583.24, 0.15411249, 9.999232, 9.997908 
1.8848796e+3, 1.3339515e+2, -1593806.1, -1461112.4, 77093.44, -0.09478925, -0.63035244, -1425747.4, 206912.64, 0.10442951, 9.999477, 10.001441 
1.8849014e+3, 1.4339633e+2, -1524604.3, -1447663.6, 62938.16, -0.005277197, -0.6065621, -1412369.6, 122277.51, 0.057399224, 9.999624, 10.000697 
1.8849222e+3, 1.5339589e+2, -1418657.6, -1310518.1, 17424.81, -0.02882951, -0.76012313, -1307779.8, 128867.21, 0.023018045, 9.999539, 10.000979 
1.8849431e+3, 1.6339594e+2, -1378517.6, -1351025.0, 6113.885, -0.071362026, -0.79818153, -1349726.8, -11082.861, 0.005521801, 9.999613, 9.999978 
1.8849643e+3, 1.7339616e+2, -1203966.4, -1211070.1, 23108.932, -0.16478811, -0.79179555, -1184138.0, 56504.125, 0.0004532519, 10.000122, 10.000018 
1.8849862e+3, 1.8339598e+2, -1065413.3, -1142302.4, 17002.107, -0.14546913, -0.7826301, -1061821.5, 80821.81, 0.0000010252129, 10.0006, 9.999592 
1.8850103e+3, 1.9339569e+2, -892076.4, -996408.5, -19208.285, 0.07142925, -0.79379904, -888652.4, 155991.44, 0.0, 10.001073, 9.999688 
1.8850327e+3, 2.033948e+2, -795149.3, -944176.1, -60378.15, 0.15744238, -0.82301754, -773757.7, 172892.1, 0.0, 10.001267, 9.999282 
1.8850523e+3, 2.1339303e+2, -704681.25, -837522.4, -72785.43, -0.0069843475, -0.9479933, -672565.5, 176098.08, 0.0, 10.001175, 9.99938 
1.8850735e+3, 2.2339162e+2, -705722.7, -939281.2, -28633.342, -0.037154928, -0.95901054, -702263.56, 48414.887, 0.0, 10.001142, 9.998028 
1.8850973e+3, 2.3339108e+2, -596271.94, -844100.7, 38523.348, 0.16992916, -0.8237235, -590421.9, 62270.844, 0.0, 10.001253, 9.997954 
1.8851186e+3, 2.4339059e+2, -411416.3, -583506.7, 20907.457, 0.18299508, -0.7023083, -408912.66, 145789.28, 0.0, 10.001327, 9.999038 
1.8851353e+3, 2.5339037e+2, -271875.44, -428061.5, -38703.902, -0.16180642, -0.67531866, -262810.5, 193889.84, 0.0, 10.00145, 9.999374 
1.8851548e+3, 2.633885e+2, -205738.98, -544139.7, -39750.84, -0.2302374, -0.7115501, -201132.3, 157583.53, 0.000000017635879, 10.002086, 9.997598 
1.8851791e+3, 2.7338427e+2, 118562.34, -352125.63, -37648.043, 0.15077873, -0.8987824, 121554.6, 382311.22, 0.000007212163, 10.003711, 9.997454 
1.885202e+3, 2.8338167e+2, 296808.63, -129509.6, 43890.527, 0.2709774, -0.92403007, 301280.34, 464061.7, 0.00009812263, 10.003895, 9.998222 
1.885222e+3, 2.9338196e+2, 111873.11, -132427.34, -22466.348, -0.0059188497, -0.7686333, 113921.97, 178699.69, 0.00042172684, 10.001787, 9.998547 
1.8852434e+3, 3.0338043e+2, 441.94485, -329602.47, -119990.67, -0.030402567, -0.6978712, 39454.27, 39454.27, 0.0010390888, 10.001392, 9.997061 
1.8852656e+3, 3.1337684e+2, 423653.78, 42912.64, -42870.813, 0.19715545, -0.7852711, 428421.25, 428421.25, 0.0018470694, 10.003552, 9.998575 
1.8948579e+3, 1.2337292e+2, -1905473.8, -1946734.0, 113812.586, -0.023499172, -0.6819813, -1810436.6, -79563.3, 0.16258536, 9.999252, 9.998756 
1.8948786e+3, 1.3337423e+2, -1530877.8, -1323095.0, 93455.84, -0.15842178, -0.81883055, -1287245.9, 345609.56, 0.110513955, 9.999429, 10.002546 
1.894901e+3, 1.4337373e+2, -1622283.8, -1634274.0, 59897.223, -0.021057257, -0.96737915, -1568082.4, -33226.387, 0.06108175, 9.999572, 9.999398 
1.8949224e+3, 1.5337452e+2, -1545839.4, -1565261.9, 22295.246, 0.01937441, -0.827612, -1531232.3, -94381.9, 0.024752133, 9.999513, 9.999224 
1.8949436e+3, 1.63375e+2, -1367049.8, -1337482.1, 18486.854, -0.007294012, -0.72481245, -1328594.8, 10251.56, 0.0060684755, 9.999649, 10.000057 
1.8949643e+3, 1.7337394e+2, -1176049.4, -1156793.4, 47607.54, -0.18712729, -0.88334835, -1117850.0, 123004.66, 0.0005270964, 10.000127, 10.000395 
1.894986e+3, 1.8337297e+2, -1120576.3, -1251142.3, 31245.229, -0.22610642, -0.94237167, -1113484.4, 29379.432, 0.0000013718216, 10.000584, 9.998848 
1.8950108e+3, 1.9337302e+2, -966667.6, -1139316.4, 2929.787, 0.006080368, -0.8244867, -966617.94, 78248.24, 0.0, 10.001027, 9.998725 
1.8950339e+3, 2.0337263e+2, -813146.94, -980646.56, -65900.34, 0.12845142, -0.7378526, -790328.06, 156543.88, 0.0, 10.001252, 9.999045 
1.8950541e+3, 2.1337171e+2, -720094.9, -854790.44, -70761.8, 0.0434208, -0.77084297, -689754.6, 159126.3, 0.0, 10.001102, 9.999302 
1.8950751e+3, 2.2337095e+2, -613374.5, -722314.56, -30443.545, 0.0031592343, -0.77611136, -605444.25, 145443.58, 0.0, 10.001031, 9.999572 
1.8950973e+3, 2.3337087e+2, -484843.6, -584535.1, 49433.33, 0.027492091, -0.77658343, -464487.84, 188400.03, 0.0, 10.001139, 9.999786 
1.8951187e+3, 2.4336986e+2, -466655.34, -679828.7, 16828.63, 0.03084295, -0.78872156, -465335.0, 89562.29, 0.0, 10.001234, 9.998426 
1.8951386e+3, 2.5336742e+2, -362236.16, -592253.44, -26649.484, 0.022872394, -0.8799912, -359188.94, 97732.375, 0.0, 10.001348, 9.998297 
1.8951596e+3, 2.6336563e+2, -221912.58, -555022.94, 8870.163, 0.034257885, -0.84387094, -221676.56, 137263.53, 0.0000000071100716, 10.001986, 9.997574 
1.8951814e+3, 2.733654e+2, 111829.375, -327624.16, 32581.281, -0.007190652, -0.64571065, 114231.83, 375176.47, 0.0000064261117, 10.003557, 9.997693 
1.8952027e+3, 2.8336313e+2, 205506.45, -299070.38, -24757.043, -0.052110124, -0.61009884, 206718.25, 369686.0, 0.00008727804, 10.003788, 9.997118 
1.8952246e+3, 2.9335693e+2, -8488.306, -358701.28, -82877.836, 0.061306063, -0.96822375, 10134.443, 75160.19, 0.00038336485, 10.001673, 9.997054 
1.8952468e+3, 3.033547e+2, 89590.336, -105241.836, -57261.33, 0.16901678, -0.9453074, 105173.164, 105173.164, 0.0009603228, 10.001249, 9.998658 
1.8952683e+3, 3.1335902e+2, 436382.16, 191069.22, 34297.9, 0.10163495, -0.45704308, 441087.2, 441087.2, 0.0017272044, 10.003095, 9.999793 
1.9048578e+3, 1.2335271e+2, -1851488.3, -1960660.3, 56729.37, 0.01722247, -0.6479683, -1827347.8, -96277.91, 0.1713416, 9.999795, 9.998403 
1.904879e+3, 1.3335422e+2, -1474557.4, -1314335.9, -18272.898, -0.07026331, -0.74780494, -1312278.4, 320770.72, 0.11689223, 9.999967, 10.002365 
1.9049013e+3, 1.433517e+2, -1562371.5, -1622067.5, -81710.03, 0.03892301, -1.0807422, -1505228.5, 29839.924, 0.06499328, 10.000054, 9.999254 
1.9049218e+3, 1.5335259e+2, -1497914.0, -1552730.1, -16376.834, 0.009433996, -0.92383385, -1493394.0, -56333.04, 0.026617203, 9.9998665, 9.999145 
1.9049431e+3, 1.6335316e+2, -1376002.0, -1391212.1, 72745.45, -0.022612942, -0.7877009, -1310465.1, 28591.275, 0.0066676727, 9.999801, 9.999616 
1.9049655e+3, 1.7335245e+2, -1172597.5, -1206936.0, 33679.703, -0.082380496, -0.8610048, -1151963.3, 89101.3, 0.0006122247, 10.000385, 9.999917 
1.9049881e+3, 1.8335152e+2, -1121507.4, -1264944.8, -7510.277, -0.08351601, -0.88523394, -1121115.1, 21960.03, 0.0000017786746, 10.000641, 9.998723 
1.9050115e+3, 1.9335087e+2, -1063119.9, -1191936.5, 17417.78, 0.015086302, -0.83248276, -1060806.4, -15722.832, 0.0, 10.000398, 9.998667 
1.905034e+3, 2.0335028e+2, -968034.1, -1060507.1, -2424.4817, 0.08601745, -0.75834835, -967970.6, -20879.45, 0.0, 10.000229, 9.998979 
1.9050553e+3, 2.1335001e+2, -843979.44, -925708.2, -18334.92, 0.101321936, -0.7168184, -840054.7, 9041.166, 0.0, 10.000302, 9.999196 
1.9050767e+3, 2.2334953e+2, -686456.7, -737970.0, -3729.628, 0.08781717, -0.69495267, -686188.06, 64912.64, 0.0, 10.000439, 9.999752 
1.9050978e+3, 2.3334908e+2, -531891.94, -586166.44, -50684.94, -0.0017213682, -0.7535442, -501536.66, 151565.28, 0.0, 10.000714, 9.999988 
1.9051191e+3, 2.4334794e+2, -487120.0, -680758.9, -112230.97, -0.020680076, -0.79246134, -435717.34, 119394.125, 0.0, 10.001074, 9.9984865 
1.9051409e+3, 2.5334564e+2, -304646.5, -557195.25, -94493.44, 0.09615433, -0.8774018, -273205.22, 183929.9, 0.0, 10.00172, 9.998347 
1.9051628e+3, 2.6334393e+2, -203162.61, -554499.3, 17096.957, 0.1427454, -0.83415943, -202332.6, 156821.38, 0.000000016068412, 10.002156, 9.997488 
1.9051841e+3, 2.7334392e+2, -79514.95, -442171.5, 4586.125, -0.023148235, -0.6008726, -79456.96, 181701.13, 0.000006012962, 10.002313, 9.997515 
1.9052052e+3, 2.8334168e+2, 36677.68, -375376.75, -66544.875, -0.114577174, -0.5503209, 47157.816, 210338.53, 0.000076659555, 10.002611, 9.997159 
1.9052272e+3, 2.9333535e+2, 253881.14, -217153.27, -55331.55, 0.06923677, -0.92820936, 260293.55, 325530.78, 0.00034009607, 10.003424, 9.997175 
1.9052492e+3, 3.0333224e+2, 412038.13, 25409.42, 37791.066, 0.1764941, -0.9982133, 415697.38, 415697.38, 0.0008709652, 10.003576, 9.998443 
1.9052719e+3, 3.1333527e+2, 248965.17, -439.883, -89479.375, 0.20944342, -0.5984479, 277746.44, 277746.44, 0.0016019944, 10.0022, 9.998924 
1.9148579e+3, 1.2333077e+2, -1972368.6, -2181212.8, 1591.5878, 0.027528001, -0.74921685, -1972356.5, -241073.0, 0.18042894, 9.99969, 9.996925 
1.914881e+3, 1.3333502e+2, -1577948.0, -1522938.6, -4729.735, 0.11503596, -0.42319232, -1522534.9, 110707.34, 0.12358676, 9.999949, 10.0007515 
1.9149023e+3, 1.4333007e+2, -1481400.9, -1465632.3, -88440.81, 0.118437134, -0.9506268, -1384725.0, 150561.52, 0.069141634, 10.000111, 10.000339 
1.9149205e+3, 1.5333e+2, -1386111.6, -1316877.3, -19872.352, -0.122345336, -1.047648, -1311578.9, 125700.81, 0.028615344, 9.9998455, 10.0008 
1.9149414e+3, 1.6333051e+2, -1435555.4, -1518105.0, 81663.766, -0.19162168, -0.97980124, -1385328.4, -46054.94, 0.0073205116, 9.999816, 9.998734 
1.9149676e+3, 1.7333181e+2, -1273269.3, -1413059.1, 60821.57, 0.094477914, -0.7166196, -1250511.3, -9240.395, 0.00070924795, 10.000375, 9.998506 
1.9149919e+3, 1.8333167e+2, -1083830.3, -1191907.4, -16282.355, 0.22540428, -0.60112274, -1081430.6, 61846.61, 0.0000023137907, 10.000658, 9.99922 
1.9150123e+3, 1.9332926e+2, -1008784.25, -1071341.1, 13336.261, 0.04867382, -0.8042227, -1006059.8, 39235.313, 0.0, 10.0003605, 9.999516 
1.9150333e+3, 2.0332764e+2, -971242.9, -1060431.1, -6889.6655, -0.027301444, -0.8828984, -970713.8, -23405.621, 0.0, 10.000193, 9.998999 
1.9150558e+3, 2.1332794e+2, -862164.6, -948594.3, -10613.755, 0.10812403, -0.7739489, -860880.3, -11571.602, 0.0, 10.000236, 9.999071 
1.9150779e+3, 2.2332747e+2, -778287.7, -907151.56, 2075.6592, 0.15622528, -0.69961625, -778254.3, -26937.955, 0.0, 10.000343, 9.998639 
1.9150989e+3, 2.3332585e+2, -638744.06, -782923.94, -31179.07, 0.030790046, -0.7430874, -632290.44, 21043.387, 0.0, 10.000609, 9.998688 
1.9151202e+3, 2.4332473e+2, -459023.84, -597106.44, -93870.2, -0.04033673, -0.72978276, -411539.1, 143806.36, 0.0, 10.00096, 9.999116 
1.9151418e+3, 2.5332475e+2, -249699.58, -412012.63, -63355.613, 0.0020674095, -0.68205816, -227898.27, 229445.6, 0.0, 10.0015955, 9.999401 
1.915164e+3, 2.633234e+2, -227308.42, -585814.0, 16939.691, 0.03855429, -0.65933627, -226509.78, 132847.53, 0.000000038925435, 10.002064, 9.997324 
1.915187e+3, 2.7331993e+2, -127117.17, -517243.22, 18399.373, 0.022000996, -0.732856, -126251.33, 135144.08, 0.000005437274, 10.002212, 9.997048 
1.915209e+3, 2.8331748e+2, 90905.34, -243062.3, -48054.89, -0.020161035, -0.71073896, 97682.48, 261101.19, 0.00006527873, 10.002522, 9.998113 
1.9152296e+3, 2.9331672e+2, 319958.06, -38796.85, -12440.898, -0.04139977, -0.6616238, 320388.97, 385806.78, 0.00029241332, 10.003255, 9.998482 
1.9152504e+3, 3.0331266e+2, 271359.06, -239990.73, -11146.032, -0.07718018, -0.8325964, 271601.9, 271601.9, 0.0007691183, 10.00345, 9.996676 
1.9152735e+3, 3.1330884e+2, 34923.33, -383661.75, -93076.19, 0.13834582, -0.8848493, 54686.555, 54686.555, 0.0014565451, 10.001959, 9.996393 
1.9248578e+3, 1.2330756e+2, -2037634.5, -2161167.5, -69209.39, 0.09459977, -0.85347587, -2006637.6, -275127.47, 0.18987963, 9.998994, 9.997415 
1.9248818e+3, 1.3331304e+2, -1620577.4, -1557843.6, 16174.913, 0.2166942, -0.39361852, -1553918.8, 79538.7, 0.13060497, 9.999673, 10.000626 
1.9249022e+3, 1.4330728e+2, -1504021.9, -1472389.5, -43400.39, 0.1102322, -0.99668074, -1442013.3, 93497.57, 0.07352615, 9.999928, 10.000373 
1.9249202e+3, 1.5330838e+2, -1439271.6, -1333075.4, -108645.36, -0.109976776, -0.9832865, -1265247.0, 172246.84, 0.030745408, 9.9994545, 10.000873 
1.9249412e+3, 1.6330923e+2, -1513575.9, -1593239.9, -15459.266, -0.16358583, -0.87102574, -1510681.1, -171195.77, 0.008026891, 9.999459, 9.998382 
1.9249682e+3, 1.7330946e+2, -1279743.3, -1465927.3, 27472.385, 0.10738311, -0.6720269, -1275774.3, -34280.43, 0.0008187495, 10.000552, 9.998056 
1.924993e+3, 1.833088e+2, -1017546.1, -1125077.4, -44552.51, 0.23867506, -0.59455323, -1001485.75, 142018.86, 0.0000031359323, 10.000962, 9.9995365 
1.9250128e+3, 1.9330683e+2, -986586.3, -1007696.25, -57327.668, 0.07712096, -0.79840803, -938850.06, 106665.6, 0.0, 10.0002775, 9.999995 
1.9250336e+3, 2.0330529e+2, -989981.2, -1096140.0, -54709.516, 0.00006935195, -0.8908592, -966833.6, -19306.777, 0.0, 10.000182, 9.998759 
1.9250564e+3, 2.133049e+2, -731573.75, -929126.5, -84472.32, 0.08921667, -0.81118095, -700379.56, 149155.3, 0.0, 10.001329, 9.998675 
1.9250786e+3, 2.2330403e+2, -586961.56, -847415.25, -76830.414, 0.13465932, -0.73975086, -565986.75, 185560.55, 0.0, 10.001808, 9.998341 
1.9251001e+3, 2.3330244e+2, -595652.9, -793782.25, -56416.805, 0.07805402, -0.75279945, -580714.6, 72851.32, 0.0, 10.00104, 9.998405 
1.9251217e+3, 2.4330142e+2, -497818.53, -601590.25, -52481.406, 0.03332231, -0.71722883, -475904.38, 79672.734, 0.0, 10.000632, 9.999245 
1.925143e+3, 2.533019e+2, -316136.56, -427702.0, -85599.05, 0.0055865683, -0.64026713, -269748.3, 187822.05, 0.0, 10.001051, 9.999567 
1.9251654e+3, 2.6330063e+2, -265804.63, -558412.5, -10305.074, 0.0075778635, -0.635552, -265442.16, 94139.54, 0.000000047147957, 10.00161, 9.997729 
1.9251892e+3, 2.7329648e+2, -54243.7, -428386.97, 32212.809, 0.019282175, -0.8221412, -51490.516, 210133.25, 0.0000043683804, 10.002487, 9.997524 
1.9252118e+3, 2.83294e+2, 147613.31, -221698.38, -17391.04, 0.0090613905, -0.83106285, 148430.47, 312077.2, 0.000052619915, 10.002961, 9.998036 
1.9252329e+3, 2.932946e+2, 236934.38, -106263.57, -104415.94, -0.015596012, -0.61977047, 266205.75, 331840.28, 0.00024219825, 10.002796, 9.998238 
1.9252533e+3, 3.0329037e+2, 209044.38, -321800.3, -109652.6, -0.11348488, -0.7730714, 230802.67, 230802.67, 0.0006583253, 10.003236, 9.996224 
1.9252762e+3, 3.1328633e+2, 479811.88, -213083.5, -51751.24, 0.04809745, -0.7968045, 483655.78, 483655.78, 0.0012843859, 10.005154, 9.996057 
1.9348572e+3, 1.2328321e+2, -1850500.8, -1779785.1, -44618.38, 0.099756695, -0.935103, -1758213.4, -26464.732, 0.1997211, 9.999021, 10.000017 
1.9348809e+3, 1.3328823e+2, -1540603.0, -1381684.6, 42702.805, 0.14761005, -0.66609144, -1370936.9, 262758.13, 0.13795441, 9.999618, 10.002064 
1.9349004e+3, 1.4328355e+2, -1574756.1, -1613688.6, -59076.063, -0.08029364, -1.2096727, -1532021.8, 3717.4944, 0.07814733, 9.999906, 9.999379 
1.9349208e+3, 1.5328786e+2, -1552116.8, -1568655.3, -121994.41, -0.011458963, -0.719756, -1438111.6, -409.2456, 0.033007, 9.999457, 9.999231 
1.9349425e+3, 1.6328935e+2, -1497026.9, -1563860.6, 8418.028, -0.0020440216, -0.45431015, -1495982.9, -156290.6, 0.008786739, 9.999478, 9.998575 
1.9349669e+3, 1.7328537e+2, -1245824.6, -1392140.5, 73787.195, -0.092655405, -0.72464454, -1215075.6, 26658.133, 0.00094156526, 10.000536, 9.998572 
1.9349904e+3, 1.8328282e+2, -1005240.1, -1100267.4, -63100.43, -0.10532515, -0.87052214, -973765.06, 169993.25, 0.0000044945964, 10.000965, 9.999704 
1.935013e+3, 1.9328365e+2, -981723.3, -990812.6, -77527.76, 0.040464293, -0.8112355, -908607.1, 137137.63, 0.0, 10.000252, 10.000121 
1.935035e+3, 2.0328325e+2, -1029666.9, -1175837.1, -27569.271, 0.10311241, -0.77444446, -1024639.9, -76893.31, 0.0, 10.000163, 9.998226 
1.9350567e+3, 2.1328084e+2, -792146.0, -1037363.94, -33570.58, -0.005687694, -0.82868135, -787633.2, 62141.465, 0.0, 10.001249, 9.997975 
1.9350788e+3, 2.2327903e+2, -576950.25, -795912.5, -98513.64, -0.038600624, -0.82757777, -539152.5, 212643.23, 0.0, 10.001678, 9.9987545 
1.9351013e+3, 2.3327874e+2, -565819.4, -701733.06, -79721.11, 0.07883486, -0.7762235, -529021.3, 124778.3, 0.0, 10.000919, 9.99909 
1.9351234e+3, 2.4327813e+2, -535305.75, -660309.56, -51611.477, 0.12875472, -0.7250607, -516750.66, 39055.047, 0.0, 10.000543, 9.99889 
1.9351445e+3, 2.532772e+2, -368024.06, -515283.63, -62425.44, 0.04660911, -0.73211896, -345122.6, 112691.18, 0.0, 10.000969, 9.999005 
1.9351669e+3, 2.6327568e+2, -220384.23, -439423.06, 12904.293, -0.020815719, -0.75322765, -219626.63, 140199.89, 0.00000001782158, 10.001507, 9.998595 
1.9351907e+3, 2.7327347e+2, 4158.744, -262080.55, 72923.17, -0.08526267, -0.86352545, 22823.91, 284668.63, 0.0000032439186, 10.002313, 9.998741 
1.935214e+3, 2.832713e+2, 57923.05, -387134.94, -31260.39, -0.091464326, -0.87066495, 60108.02, 223971.94, 0.000042492127, 10.002851, 9.9969635 
1.9352363e+3, 2.9326928e+2, 112575.164, -343663.3, -102380.41, 0.04651333, -0.77024204, 134496.19, 200381.55, 0.00020128557, 10.002705, 9.996654 
1.9352575e+3, 3.0326575e+2, 228265.58, -249042.5, -60588.723, -0.0396399, -0.78037137, 235836.53, 235836.53, 0.00056116504, 10.003099, 9.996788 
1.935278e+3, 3.1326562e+2, 538961.7, 27346.525, 102985.914, -0.30874836, -0.53005856, 558914.2, 558914.2, 0.0011166048, 10.004696, 9.997906 
1.9448556e+3, 1.2326047e+2, -1864321.3, -1697850.1, 55436.926, 0.06733996, -0.9432811, -1681078.6, 50893.45, 0.20999403, 9.998497, 10.000914 
1.9448794e+3, 1.3326557e+2, -1828902.6, -1505333.6, -4512.1177, 0.16320898, -0.6739795, -1505270.8, 128647.18, 0.14565058, 9.997515, 10.002097 
1.9448993e+3, 1.4326183e+2, -1895664.4, -1826657.5, -100590.81, -0.070311464, -1.1043255, -1754817.1, -218862.95, 0.083007626, 9.997936, 9.998876 
1.9449213e+3, 1.5326488e+2, -1387638.8, -1560546.3, -100690.46, 0.025375055, -0.67807835, -1341379.3, 96553.37, 0.03539992, 10.000911, 9.998593 
1.9449435e+3, 1.6326575e+2, -1102433.6, -1326881.6, 31163.139, 0.028237408, -0.45531595, -1098187.1, 241741.78, 0.009600047, 10.001988, 9.999003 
1.9449665e+3, 1.7326234e+2, -1317457.8, -1351114.4, 89020.945, -0.13659157, -0.73071796, -1243688.5, -1727.9254, 0.0010784023, 9.999706, 9.999256 
1.9449896e+3, 1.8326017e+2, -1366705.9, -1326894.5, -15903.24, -0.16611984, -0.8619918, -1321321.8, -177341.34, 0.0000066792873, 9.998717, 9.999225 
1.9450133e+3, 1.9326079e+2, -1008182.1, -1085403.9, -97940.375, 0.045551967, -0.7512565, -941516.6, 104457.2, 0.0, 10.000434, 9.999378 
1.9450362e+3, 2.0326039e+2, -854512.25, -1075948.3, -68653.24, 0.13863693, -0.6760605, -834954.6, 113023.586, 0.0, 10.0013075, 9.998353 
1.9450575e+3, 2.1325824e+2, -873147.44, -1045845.56, -17376.523, -0.016966395, -0.73087883, -871416.44, -21414.773, 0.0, 10.000559, 9.998247 
1.9450793e+3, 2.232566e+2, -782541.4, -869515.1, -43359.39, -0.07652497, -0.73871887, -764618.56, -12599.296, 0.0, 10.00015, 9.998986 
1.9451016e+3, 2.332563e+2, -612170.9, -700791.7, -67238.38, 0.047764633, -0.7107237, -575955.44, 78066.58, 0.0, 10.000493, 9.999308 
1.945124e+3, 2.4325547e+2, -492182.4, -676223.25, -17170.164, 0.11870529, -0.6817522, -490594.22, 65435.86, 0.0, 10.001009, 9.998555 
1.9451462e+3, 2.5325373e+2, -255221.5, -515950.1, -31940.275, 0.06621044, -0.7239094, -251365.72, 206681.63, 0.0, 10.001977, 9.998516 
1.9451691e+3, 2.6325202e+2, -112293.73, -377344.88, 7480.366, 0.021421572, -0.74260217, -112082.78, 247979.92, 0.000000002142629, 10.002207, 9.998681 
1.9451927e+3, 2.7325076e+2, -155337.03, -325255.03, -22689.068, -0.047712807, -0.7698438, -152359.53, 109710.55, 0.0000029419668, 10.001135, 9.998886 
1.945216e+3, 2.8324863e+2, -191190.95, -507621.5, -82954.14, -0.07592152, -0.7796951, -170762.83, -6674.338, 0.000037529444, 10.001147, 9.996956 
1.9452392e+3, 2.932453e+2, 211133.83, -294472.1, -67570.64, 0.027514677, -0.80281514, 220008.39, 286131.6, 0.00017698373, 10.003369, 9.996674 
1.9452617e+3, 3.0324203e+2, 367964.8, -156205.03, -3231.2725, 0.043705836, -0.7985528, 367984.75, 367984.75, 0.00049046276, 10.003952, 9.99701 
1.9452803e+3, 3.1324226e+2, 93056.9, -143925.03, 85729.17, -0.36403567, -0.52836394, 120817.77, 120817.77, 0.0009707168, 10.001392, 9.998332 
1.9548523e+3, 1.2324e+2, -1916776.3, -1806279.8, 45317.566, -0.14901018, -0.81511414, -1790071.4, -57897.805, 0.22070916, 9.998528, 10.000071 
1.9548777e+3, 1.3324502e+2, -1929756.4, -1698094.0, -38673.47, 0.21154195, -0.41246518, -1691808.4, -57681.957, 0.15369554, 9.997524, 10.000625 
1.954899e+3, 1.432421e+2, -1888481.4, -1815593.5, -17821.973, 0.07987377, -0.6794882, -1811469.3, -275312.66, 0.08810495, 9.997953, 9.99894 
1.9549215e+3, 1.5323928e+2, -1365094.9, -1512107.0, 16699.287, -0.060313337, -0.8704614, -1363221.9, 74964.164, 0.037922986, 10.000903, 9.998926 
1.9549438e+3, 1.6323826e+2, -1049350.6, -1223037.9, -28072.377, -0.14915371, -0.8857099, -1044926.1, 295270.66, 0.010466628, 10.002018, 9.999708 
1.954967e+3, 1.732404e+2, -1258656.1, -1234562.3, 3078.627, -0.0744788, -0.6905801, -1234175.1, 7999.2827, 0.0012294218, 9.999724, 10.000049 
1.9549902e+3, 1.8324079e+2, -1445726.5, -1492728.6, 20251.879, -0.0015208105, -0.564783, -1438204.4, -294032.6, 0.000009908067, 9.998728, 9.99808 
1.9550137e+3, 1.9323821e+2, -1121910.4, -1317954.0, -24225.082, 0.044524737, -0.6156965, -1118961.3, -72757.98, 0.0, 10.000416, 9.997792 
1.9550367e+3, 2.0323655e+2, -815207.44, -978344.8, -86848.73, 0.05105889, -0.60281336, -777628.5, 170594.92, 0.0, 10.001242, 9.999054 
1.9550583e+3, 2.1323699e+2, -800021.6, -870893.8, -40598.65, -0.0010315506, -0.5173336, -781569.25, 68648.04, 0.0, 10.000465, 9.999491 
1.9550799e+3, 2.2323664e+2, -789860.5, -863525.56, -39874.203, -0.04375614, -0.47478154, -772410.56, -20191.254, 0.0, 10.000053, 9.999075 
1.9551009e+3, 2.332351e+2, -640410.2, -733047.8, -47449.844, -0.070670076, -0.55390465, -620419.7, 33813.875, 0.0, 10.000387, 9.999133 
1.9551231e+3, 2.4323331e+2, -537649.0, -744869.75, 9659.581, -0.06690172, -0.59443325, -537199.7, 19051.723, 0.0, 10.000896, 9.998137 
1.9551477e+3, 2.5323138e+2, -304646.13, -587638.4, 12317.418, 0.008604213, -0.61184585, -304111.0, 154160.86, 0.0, 10.001857, 9.998075 
1.955172e+3, 2.6322964e+2, -172958.3, -486374.7, -27060.182, 0.07302352, -0.57588875, -170639.11, 189649.75, 0.00000003752054, 10.00212, 9.99798 
1.9551949e+3, 2.732283e+2, -216254.56, -438582.7, -54650.223, 0.055946287, -0.53890306, -203547.34, 58752.395, 0.0000033154865, 10.001079, 9.998135 
1.9552177e+3, 2.8322592e+2, -147655.0, -397401.38, -28477.563, -0.03510799, -0.5622874, -144448.97, 19871.281, 0.00003554113, 10.001061, 9.997754 
1.9552411e+3, 2.9322264e+2, 277821.97, -112220.88, 28525.725, -0.12875913, -0.7007547, 279897.16, 346245.84, 0.00016173386, 10.003194, 9.998004 
1.955266e+3, 3.0321932e+2, 337951.66, -191021.45, -85309.23, 0.05245373, -0.7751888, 351369.4, 351369.4, 0.0004325806, 10.003817, 9.996844 
1.955284e+3, 3.1321588e+2, -3467.6013, -299866.34, -18387.602, -0.13924813, -0.82056427, -2331.2517, -2331.2517, 0.0008294885, 10.00124, 9.997316 
1.964851e+3, 1.2321672e+2, -2114136.3, -1934293.1, -74438.43, -0.06833979, -0.7641676, -1907480.1, -175078.8, 0.23177752, 9.997326, 9.99977 
1.9648755e+3, 1.3322061e+2, -1688829.8, -1639688.9, -101002.84, 0.15373254, -0.42681718, -1560310.8, 74057.49, 0.1620495, 9.999457, 10.000148 
1.9648978e+3, 1.4321843e+2, -1537114.0, -1615328.9, -20835.01, 0.06574932, -0.599657, -1531910.3, 4482.6714, 0.093428105, 10.000254, 9.999196 
1.9649206e+3, 1.5321556e+2, -1619328.4, -1585520.0, 10664.373, -0.124070205, -0.83691245, -1582437.3, -144014.8, 0.04057487, 9.998935, 9.999359 
1.9649436e+3, 1.6321473e+2, -1533783.1, -1440471.1, -71919.08, -0.19554295, -0.86577666, -1401400.0, -60969.0, 0.011385711, 9.998608, 9.99985 
1.9649675e+3, 1.7321748e+2, -1164447.5, -1177269.3, -111598.836, -0.014009145, -0.61790913, -1059075.5, 183326.73, 0.0013940044, 10.000337, 10.000143 
1.9649911e+3, 1.8321803e+2, -1083704.6, -1327548.0, -59446.355, 0.09420798, -0.4791061, -1069984.3, 74413.695, 0.000014255441, 10.0012455, 9.998008 
1.965014e+3, 1.9321479e+2, -1113037.1, -1327429.4, -1123.7742, 0.03002595, -0.58659035, -1113031.3, -66594.96, 0.0, 10.000536, 9.997672 
1.9650367e+3, 2.0321277e+2, -941344.56, -1015906.94, -21434.027, -0.010745422, -0.61031926, -935622.25, 12837.069, 0.0, 10.0002575, 9.999279 
1.9650589e+3, 2.1321349e+2, -719776.1, -798271.06, -56170.27, 0.009532489, -0.5286216, -690500.1, 159948.86, 0.0, 10.0008545, 9.999808 
1.9650808e+3, 2.2321333e+2, -633862.25, -812333.44, -88050.39, 0.0021272798, -0.475375, -597734.94, 154713.47, 0.0, 10.001233, 9.998859 
1.9651015e+3, 2.3321159e+2, -534234.2, -726094.75, -120227.68, -0.09468326, -0.5387059, -476355.1, 178110.72, 0.0, 10.001289, 9.998755 
1.9651237e+3, 2.4320966e+2, -480575.25, -721621.1, -39127.57, -0.11750728, -0.56882924, -474382.97, 82102.555, 0.0, 10.001296, 9.998105 
1.9651492e+3, 2.5320792e+2, -389632.5, -629705.44, -14213.736, 0.012053161, -0.5685984, -388793.9, 69709.805, 0.0, 10.001264, 9.998076 
1.9651744e+3, 2.632061e+2, -246628.63, -524125.88, -12203.1455, 0.12577166, -0.542207, -246093.02, 114428.72, 0.00000006167767, 10.001634, 9.997953 
1.9651975e+3, 2.7320406e+2, 30913.125, -324611.22, -10970.205, 0.11968205, -0.5657628, 31251.305, 293790.28, 0.000003603985, 10.002801, 9.998086 
1.9652201e+3, 2.8320163e+2, 133338.92, -261035.25, 49792.64, 0.0027491704, -0.59215754, 139528.45, 304089.3, 0.00003406456, 10.002992, 9.997761 
1.9652429e+3, 2.9319948e+2, 69093.734, -212453.0, 12652.417, -0.17819306, -0.61276823, 69661.18, 136241.52, 0.0001486936, 10.00175, 9.998018 
1.965269e+3, 3.0319652e+2, 155360.92, -240291.03, -124152.91, 0.05800435, -0.67213356, 191092.34, 191092.34, 0.00038063264, 10.00241, 9.997182 
1.9652875e+3, 3.1319213e+2, 604082.0, -22636.127, -133311.2, -0.1380438, -0.8292573, 631260.44, 631260.44, 0.00069814175, 10.005452, 9.997217 
1.9748515e+3, 1.2318991e+2, -2085122.0, -1877317.3, -50172.234, 0.22885533, -0.8637554, -1865837.9, -133175.64, 0.24301729, 9.997348, 10.000148 
1.974873e+3, 1.3319212e+2, -1653223.9, -1579806.3, -22125.115, -0.06709178, -0.7361821, -1573654.1, 60991.023, 0.17062773, 9.999463, 10.00058 
1.9748956e+3, 1.4319073e+2, -1505761.0, -1552218.0, -55211.38, -0.1939195, -0.8733414, -1469090.8, 67573.24, 0.09895461, 10.000289, 9.999631 
1.9749188e+3, 1.5319373e+2, -1582987.0, -1516799.4, -37951.934, -0.2181266, -0.5719377, -1499539.0, -60897.066, 0.04335473, 9.998952, 9.999829 
1.9749427e+3, 1.631952e+2, -1556954.8, -1491089.5, -32042.375, -0.16741526, -0.38324603, -1478073.6, -137442.0, 0.012356995, 9.99862, 9.999497 
1.9749682e+3, 1.7319356e+2, -1204710.8, -1261281.9, -38432.246, -0.0009501694, -0.51424265, -1185277.3, 57367.87, 0.0015709848, 10.0003395, 9.999566 
1.9749922e+3, 1.8319179e+2, -1015861.56, -1185499.9, -74669.88, 0.06660546, -0.6123585, -987676.8, 156983.73, 0.000019593592, 10.001242, 9.998984 
1.9750138e+3, 1.9319037e+2, -1025484.4, -1136487.6, -21999.738, -0.05838393, -0.66792464, -1021283.25, 25390.816, 0.0, 10.000497, 9.999001 
1.975036e+3, 2.0318894e+2, -967565.4, -1054695.3, -9165.295, -0.11713469, -0.7012741, -966611.75, -17924.717, 0.0, 10.000195, 9.999042 
1.9750595e+3, 2.1318784e+2, -776061.5, -893788.94, -25469.648, -0.036281932, -0.74257714, -770787.56, 79908.23, 0.0, 10.000765, 9.999195 
1.9750822e+3, 2.2318672e+2, -690617.3, -905734.3, -86490.516, -0.003256104, -0.7250246, -660156.06, 92550.305, 0.0, 10.001126, 9.998269 
1.975103e+3, 2.3318583e+2, -587236.44, -814789.9, -110309.91, -0.07612218, -0.6506486, -542541.0, 112177.086, 0.0, 10.001201, 9.998186 
1.9751254e+3, 2.4318466e+2, -473649.13, -690034.25, -43602.117, -0.09354745, -0.5802767, -465193.6, 91537.54, 0.0, 10.001217, 9.9983635 
1.9751507e+3, 2.5318334e+2, -367684.28, -566506.8, -7756.095, 0.017342921, -0.5805313, -367382.16, 91361.04, 0.0, 10.001191, 9.998545 
1.9751757e+3, 2.6318124e+2, -227394.1, -456093.4, 17357.08, 0.1033392, -0.630733, -226084.28, 134677.67, 0.000000055759365, 10.0015135, 9.998476 
1.9752e+3, 2.7317822e+2, 48253.17, -248714.55, 39785.797, 0.08698959, -0.8156823, 53491.027, 316278.16, 0.0000036492006, 10.002645, 9.998673 
1.9752228e+3, 2.831762e+2, 58876.188, -388892.78, 3257.2615, -0.025481435, -0.80237216, 58899.883, 223706.63, 0.00003270161, 10.002865, 9.99695 
1.9752446e+3, 2.931759e+2, -21104.338, -378278.97, -15857.093, -0.20112741, -0.5302684, -20401.729, 46416.406, 0.00013867494, 10.001655, 9.996926 
1.9752707e+3, 3.0317348e+2, 152410.02, -193344.56, -28776.002, -0.0398323, -0.49004096, 154788.58, 154788.58, 0.0003432824, 10.002199, 9.997601 
1.9752924e+3, 3.1317088e+2, 597009.1, 73392.95, -106608.85, -0.19415934, -0.54922384, 617882.7, 617882.7, 0.00060457416, 10.005031, 9.998054 
1.98485e+3, 1.23163715e+2, -2003163.9, -1735154.8, -121822.49, 0.33410773, -0.83808047, -1688057.4, 44867.734, 0.25424254, 9.997433, 10.001179 
1.9848698e+3, 1.3316604e+2, -1991416.5, -1693105.5, -54906.047, -0.18503578, -0.7343768, -1683320.6, -48415.19, 0.17932345, 9.996978, 10.000917 
1.9848943e+3, 1.431651e+2, -1933631.8, -1719147.5, -100232.734, -0.19481555, -0.8606776, -1679599.0, -142679.13, 0.104643695, 9.997145, 9.99999 
1.984918e+3, 1.5316966e+2, -1538681.3, -1451627.1, -98756.3, -0.19922127, -0.44009742, -1387231.0, 51652.434, 0.046255346, 9.99908, 10.000223 
1.9849423e+3, 1.631716e+2, -1337354.9, -1369231.8, -68756.22, -0.13766243, -0.23490153, -1282713.9, 58154.76, 0.013380272, 10.00007, 9.99963 
1.9849676e+3, 1.731686e+2, -1372425.5, -1335754.3, -38563.85, -0.025213314, -0.5097761, -1311389.0, -68494.4, 0.0017591557, 9.999164, 9.9996195 
1.9849916e+3, 1.8316656e+2, -1320841.0, -1235122.6, -52449.52, 0.015103681, -0.67298335, -1210248.1, -65337.43, 0.0000256483, 9.998721, 9.999858 
1.9850135e+3, 1.9316688e+2, -1103529.4, -1055893.1, -31015.895, -0.08311742, -0.6595201, -1040605.1, 6298.5713, 0.0, 9.999443, 10.000062 
1.985036e+3, 2.0316635e+2, -998147.6, -1092974.4, -782.8618, -0.12934335, -0.65929985, -998141.2, -49234.793, 0.0, 10.000087, 9.99883 
1.9850597e+3, 2.1316434e+2, -831652.1, -977483.94, -18059.732, -0.07897534, -0.74399716, -829448.94, 21476.895, 0.0, 10.000629, 9.998685 
1.9850829e+3, 2.231625e+2, -701996.06, -943129.25, -61005.605, -0.033460952, -0.7574358, -687440.56, 65504.0, 0.0, 10.001183, 9.997986 
1.9851053e+3, 2.3316132e+2, -520168.78, -805102.9, -72294.27, -0.0030829746, -0.68723446, -502875.63, 152083.06, 0.0, 10.001766, 9.997974 
1.9851282e+3, 2.4316008e+2, -352514.44, -634357.8, -1276.105, 0.026408605, -0.6124559, -352508.66, 204463.77, 0.0, 10.002082, 9.998319 
1.9851522e+3, 2.531588e+2, -249804.53, -513131.44, -13129.414, 0.032844126, -0.604849, -249151.52, 209832.98, 0.0, 10.002023, 9.99851 
1.9851765e+3, 2.6315683e+2, -193245.53, -426182.7, -4720.675, 0.030592108, -0.64231545, -193149.89, 167852.56, 0.00000004684117, 10.001691, 9.998597 
1.9852006e+3, 2.731543e+2, -219967.16, -370286.25, -32879.613, -0.008968212, -0.78703207, -213089.97, 49934.582, 0.000003631824, 10.000756, 9.998754 
1.9852245e+3, 2.831528e+2, -242695.19, -466541.38, -36032.355, -0.032254234, -0.7508588, -237038.05, -71997.9, 0.000030883682, 10.000512, 9.997544 
1.985248e+3, 2.9315287e+2, 40819.746, -274413.25, 53634.46, -0.01614378, -0.5075112, 49695.336, 116742.24, 0.00012816787, 10.00177, 9.9975815 
1.9852732e+3, 3.031514e+2, 172044.08, -143764.52, 147253.8, 0.017151183, -0.42552587, 230050.52, 230050.52, 0.00031299857, 10.002134, 9.99798 
1.9852962e+3, 3.1314924e+2, -36559.492, -180273.05, -64741.77, -0.088733196, -0.46658933, -11695.572, -11695.572, 0.0005436533, 10.000398, 9.998563 
1.9948453e+3, 1.2313809e+2, -1890388.0, -1541114.0, -231517.77, 0.10256988, -0.6873312, -1425753.5, 307437.0, 0.26535824, 9.997458, 10.003014 
1.9948663e+3, 1.3314247e+2, -1977993.8, -1666421.4, -74074.93, -0.2545433, -0.4105299, -1649707.0, -14557.977, 0.18805622, 9.996971, 10.001108 
1.9948937e+3, 1.4314163e+2, -1908415.6, -1669116.3, -51947.05, 0.01467647, -0.5523755, -1658326.1, -121165.766, 0.11045076, 9.997154, 10.000329 
1.994918e+3, 1.5314329e+2, -1517754.3, -1409579.8, -17802.549, -0.119918406, -0.44885364, -1406725.4, 32422.564, 0.04926506, 9.99908, 10.000512 
1.9949421e+3, 1.631437e+2, -1292435.0, -1278994.3, -89369.11, -0.16766846, -0.4386335, -1196093.1, 145051.47, 0.014456319, 10.000083, 10.000249 
1.9949657e+3, 1.731424e+2, -1325331.6, -1238654.9, -72238.54, -0.13386546, -0.6093578, -1197751.8, 45400.34, 0.0019582892, 9.999161, 10.00029 
1.994989e+3, 1.8314219e+2, -1265554.6, -1120245.1, -40542.895, -0.11470344, -0.6654942, -1109698.6, 35451.25, 0.000032105352, 9.998724, 10.000644 
1.9950129e+3, 1.931442e+2, -1050510.9, -937032.9, 1411.2456, -0.09236542, -0.56139445, -937015.3, 110111.45, 0.0, 9.999412, 10.000891 
1.9950365e+3, 2.0314476e+2, -1016772.8, -1122513.8, 14701.003, -0.09677658, -0.49287137, -1014767.0, -65647.36, 0.0, 10.000045, 9.998649 
1.9950594e+3, 2.1314277e+2, -871745.9, -1042619.9, 8166.4365, -0.16874038, -0.5398096, -871356.44, -20215.32, 0.0, 10.00055, 9.998277 
1.995083e+3, 2.2314048e+2, -712236.7, -945103.5, -40395.887, -0.15008822, -0.5752573, -705428.2, 47736.44, 0.0, 10.001097, 9.9980135 
1.9951078e+3, 2.3313797e+2, -525624.06, -794755.44, -40613.332, 0.06753556, -0.64824057, -519628.88, 135559.78, 0.0, 10.00167, 9.998092 
1.9951317e+3, 2.4313568e+2, -402128.3, -705865.2, -4325.497, 0.16692053, -0.66841125, -402066.72, 155144.72, 0.0, 10.001946, 9.997893 
1.995154e+3, 2.531342e+2, -300039.7, -594236.75, -8562.677, 0.00655138, -0.631865, -299790.7, 159437.28, 0.0, 10.001926, 9.997995 
1.9951767e+3, 2.6313287e+2, -235141.27, -489553.13, -37997.543, -0.14467879, -0.56094855, -229587.39, 131655.55, 0.000000042002604, 10.00159, 9.998212 
1.9951995e+3, 2.7313203e+2, -258904.86, -428915.78, -58695.59, -0.22475736, -0.50068533, -240609.31, 22644.395, 0.0000035134383, 10.000671, 9.998387 
1.9952244e+3, 2.8313094e+2, -138301.36, -224759.1, -12580.86, -0.10175732, -0.468007, -136507.88, 28756.842, 0.00002820436, 10.000403, 9.999257 
1.9952531e+3, 2.9313016e+2, 177086.92, 35205.844, 109802.02, 0.2879961, -0.5376213, 236871.47, 304140.97, 0.00011358975, 10.001655, 9.999762 
1.9952767e+3, 3.0313036e+2, 147097.08, -137672.88, 87056.93, 0.1404855, -0.42413238, 171602.45, 171602.45, 0.00027749003, 10.001898, 9.998128 
1.9952974e+3, 3.1312746e+2, -56445.72, -174159.31, -104724.625, -0.033421345, -0.5282482, 4828.119, 4828.119, 0.0004881666, 10.000222, 9.998671 
2.0048423e+3, 1.2311459e+2, -1920364.0, -1472086.4, -142831.11, 0.08941841, -0.532957, -1430445.3, 302985.38, 0.27641812, 9.996686, 10.003982 
2.0048638e+3, 1.331184e+2, -1922504.9, -1667213.9, 45659.527, -0.2187058, -0.29525882, -1659293.3, -23901.424, 0.1968332, 9.997468, 10.000857 
2.004892e+3, 1.4311768e+2, -1789578.9, -1586915.1, 81764.27, 0.10035538, -0.42684114, -1558041.3, -20641.746, 0.11636926, 9.997866, 10.0005455 
2.0049165e+3, 1.5311801e+2, -1650567.6, -1453385.1, 111538.734, -0.11167539, -0.47653073, -1403110.3, 36286.137, 0.05238356, 9.998075, 10.000701 
2.0049411e+3, 1.6311784e+2, -1539476.8, -1360554.9, -8938.23, -0.19615766, -0.5481782, -1360109.4, -18712.88, 0.015589432, 9.998216, 10.0005865 
2.0049645e+3, 1.7311785e+2, -1422110.6, -1241673.6, -34012.656, -0.12589028, -0.6311541, -1235475.1, 7916.9478, 0.0021699998, 9.998309, 10.000677 
2.0049882e+3, 1.831184e+2, -1280185.8, -1133242.9, 9269.766, -0.07393202, -0.62804, -1132660.5, 12722.247, 0.00003871999, 9.998658, 10.000583 
2.0050128e+3, 1.9312015e+2, -1029707.4, -948693.94, -22924.031, -0.04937666, -0.5357595, -942657.1, 104706.27, 0.0, 9.999652, 10.000693 
2.0050369e+3, 2.0312053e+2, -985913.0, -1109847.3, -60610.63, -0.05229735, -0.47357354, -961199.25, -11840.28, 0.0, 10.000277, 9.998621 
2.0050603e+3, 2.1311854e+2, -909222.4, -1058552.5, -53296.137, -0.12778819, -0.5164813, -892152.2, -40771.598, 0.0, 10.00029, 9.998292 
2.0050842e+3, 2.231165e+2, -778567.4, -926421.56, -55202.027, -0.11451884, -0.5467281, -760231.4, -6829.693, 0.0, 10.000432, 9.998461 
2.0051092e+3, 2.3311464e+2, -583678.44, -761518.4, -36342.074, 0.07889307, -0.6070443, -576538.5, 78879.93, 0.0, 10.001016, 9.998633 
2.0051335e+3, 2.4311268e+2, -470430.2, -733613.25, 23767.936, 0.17226179, -0.6278598, -468300.97, 89136.195, 0.0, 10.001428, 9.997965 
2.0051558e+3, 2.53111e+2, -389270.28, -643294.0, 40848.63, 0.019896664, -0.60719895, -382863.2, 76592.78, 0.0, 10.001321, 9.997958 
2.005178e+3, 2.631097e+2, -299325.72, -550689.1, 41632.66, -0.13042414, -0.52328706, -292609.66, 68861.76, 0.000000029896977, 10.001288, 9.997926 
2.0052008e+3, 2.7310893e+2, -135568.98, -415778.1, 6252.447, -0.20194142, -0.4217286, -135429.55, 128053.375, 0.0000031274246, 10.001709, 9.997977 
2.005226e+3, 2.8310734e+2, 75478.27, -135230.34, 29033.236, -0.04789039, -0.41089723, 79405.52, 244904.64, 0.000025154262, 10.001931, 9.999135 
2.0052545e+3, 2.9310542e+2, 79043.17, -29280.438, -39464.74, 0.30881774, -0.5726537, 91896.04, 159408.38, 0.00009776422, 10.001068, 9.999597 
2.0052767e+3, 3.031056e+2, -16983.256, -141912.88, -141421.1, 0.031372268, -0.48012027, 75153.93, 75153.93, 0.00024027855, 10.00044, 9.998808 
2.0052996e+3, 3.1310233e+2, 254987.88, 79663.26, -202148.13, 0.098213464, -0.7047923, 387662.9, 387662.9, 0.00043247704, 10.001898, 9.999623 
2.0148402e+3, 1.2309323e+2, -1922988.3, -1475769.5, -158191.53, 0.18098, -0.39156696, -1425470.6, 308174.44, 0.28771394, 9.996684, 10.004001 
2.0148621e+3, 1.3309376e+2, -1972329.9, -1769258.5, 77717.55, -0.13237907, -0.4031866, -1742928.9, -107294.34, 0.20582092, 9.997463, 10.000164 
2.014889e+3, 1.4309306e+2, -1782073.6, -1573915.8, 83604.75, -0.013305014, -0.4999547, -1544494.9, -6856.3955, 0.12247417, 9.99787, 10.000633 
2.0149134e+3, 1.530938e+2, -1644353.5, -1438329.5, 124424.18, -0.23720281, -0.5229351, -1379808.8, 59820.426, 0.055639356, 9.998058, 10.000821 
2.0149384e+3, 1.6309415e+2, -1532968.3, -1345678.4, -6730.5645, -0.28720775, -0.5557393, -1345436.9, -3813.2524, 0.016791714, 9.998212, 10.0006895 
2.0149638e+3, 1.7309487e+2, -1417267.1, -1228204.1, -23910.559, -0.043605473, -0.57246566, -1225227.1, 18387.418, 0.0023981123, 9.998295, 10.000777 
2.0149885e+3, 1.830952e+2, -1344501.6, -1267130.9, 33821.5, 0.083437905, -0.562532, -1254431.0, -108821.29, 0.000045425786, 9.998655, 9.999667 
2.015013e+3, 1.9309478e+2, -1119236.5, -1125485.8, 19830.662, -0.014158655, -0.5716296, -1102285.8, -54672.64, 0.0, 9.999615, 9.999498 
2.0150374e+3, 2.030937e+2, -985215.4, -1097713.8, -58403.52, -0.06356848, -0.5889167, -960378.56, -10754.793, 0.0, 10.000232, 9.998725 
2.0150618e+3, 2.1309172e+2, -899089.7, -1012745.56, -47135.715, -0.006459855, -0.6648117, -882085.44, -30441.137, 0.0, 10.000188, 9.998654 
2.015086e+3, 2.2309048e+2, -740056.1, -822377.3, -41295.31, 0.014391336, -0.6641393, -722911.5, 30745.355, 0.0, 10.000321, 9.99923 
2.0151092e+3, 2.3309112e+2, -531300.0, -639356.3, -7261.655, -0.015847884, -0.5636591, -530814.2, 124835.6, 0.0, 10.000948, 9.999509 
2.015133e+3, 2.4309088e+2, -450006.06, -660078.0, 21560.459, -0.016644927, -0.4896965, -447816.06, 109835.6, 0.0, 10.001305, 9.998524 
2.015157e+3, 2.5308904e+2, -372331.72, -581268.7, 40915.67, 0.017666178, -0.5307821, -364605.03, 95065.07, 0.0, 10.001219, 9.998426 
2.0151807e+3, 2.6308703e+2, -331144.4, -596635.06, 44220.375, -0.0026353493, -0.53323287, -323972.75, 37717.793, 0.0000000091701935, 10.001196, 9.997659 
2.0152044e+3, 2.730849e+2, -173910.13, -477668.78, 33285.395, -0.0188603, -0.527362, -170305.55, 93407.555, 0.0000023642951, 10.001633, 9.99759 
2.015229e+3, 2.830822e+2, -82045.57, -432203.66, 456.16833, 0.038974185, -0.5306136, -82044.98, 83696.18, 0.000021595964, 10.001809, 9.99715 
2.0152526e+3, 2.930788e+2, -93554.84, -379739.9, -70112.37, 0.00091970485, -0.6106188, -77301.164, -9526.258, 0.0000838711, 10.001029, 9.997209 
2.0152731e+3, 3.0307683e+2, 23353.375, -16201.379, -128862.68, -0.38681617, -0.62337506, 133947.53, 133947.53, 0.00020805722, 10.000276, 9.9997425 
2.0153016e+3, 3.1307617e+2, 334405.66, 341040.94, 30893.248, 0.06488938, -0.76697737, 368794.2, 368794.2, 0.0003820047, 10.001518, 10.001583 
2.0248374e+3, 1.2307049e+2, -1925520.6, -1535732.1, -94393.56, 0.23553546, -0.37371927, -1514076.4, 219789.66, 0.29983783, 9.99696, 10.003292 
2.0248622e+3, 1.3306914e+2, -1756140.1, -1755007.8, 113928.305, 0.02833451, -0.49211586, -1641644.3, -5769.4883, 0.21537028, 9.999343, 9.999348 
2.0248875e+3, 1.430685e+2, -1472159.8, -1453087.5, 30625.16, -0.038659263, -0.53041595, -1430548.1, 107330.09, 0.12892798, 10.000153, 10.000449 
2.0249118e+3, 1.5306927e+2, -1670190.6, -1459036.8, 28565.44, -0.19965109, -0.5388948, -1455240.6, -15372.589, 0.05909158, 9.9979315, 10.000713 
2.0249367e+3, 1.6306971e+2, -1730380.1, -1452507.1, -47419.82, -0.2090663, -0.5522335, -1444637.6, -102775.97, 0.018083457, 9.996906, 10.000586 
2.0249629e+3, 1.7307055e+2, -1364755.8, -1213658.5, -73315.02, 0.033672255, -0.54489833, -1183932.8, 59919.477, 0.0026487417, 9.99871, 10.000676 
2.0249885e+3, 1.8307066e+2, -1183281.5, -1225196.4, -12339.378, 0.15703242, -0.53922576, -1179918.6, -34068.25, 0.000052423693, 9.9999075, 9.999351 
2.0250131e+3, 1.930692e+2, -1105011.5, -1161821.5, 18602.213, 0.028018633, -0.6168241, -1099462.4, -51597.78, 0.0, 9.999885, 9.99912 
2.0250376e+3, 2.0306784e+2, -994258.3, -1044341.4, -9595.867, -0.03649463, -0.6605855, -992482.7, -42605.23, 0.0, 9.99992, 9.999238 
2.0250621e+3, 2.1306707e+2, -841222.2, -905311.25, 13136.557, 0.009887798, -0.6884968, -838634.06, 13250.508, 0.0, 10.000233, 9.999368 
2.0250863e+3, 2.2306655e+2, -726159.5, -828983.7, 29793.246, 0.022305455, -0.65548885, -718150.75, 35738.816, 0.0, 10.000482, 9.999104 
2.0251098e+3, 2.3306689e+2, -587127.6, -700680.1, -29447.559, -0.030574674, -0.55427295, -579945.25, 75942.26, 0.0, 10.000723, 9.999191 
2.025134e+3, 2.430664e+2, -497404.3, -696380.2, -72565.266, -0.027274549, -0.47924802, -473751.8, 84141.21, 0.0, 10.001043, 9.998397 
2.0251587e+3, 2.530644e+2, -328460.44, -572498.1, -106346.36, 0.03643379, -0.5261208, -288620.88, 171292.03, 0.0, 10.001577, 9.998312 
2.0251827e+3, 2.6306212e+2, -197181.52, -518420.63, -100971.88, 0.039962888, -0.5527849, -168080.33, 193855.13, 0.000000001074916, 10.002048, 9.99779 
2.0252064e+3, 2.7305993e+2, -69666.21, -408574.22, -85815.19, -0.007547433, -0.5687998, -49175.74, 214781.9, 0.0000018159459, 10.002267, 9.997761 
2.0252305e+3, 2.8305736e+2, -15577.53, -463252.97, -59553.688, -0.004282257, -0.53897595, -7790.6265, 158192.97, 0.000018189116, 10.002522, 9.9966 
2.0252535e+3, 2.9305393e+2, 85763.27, -369741.4, -48715.0, -0.10005152, -0.55569434, 90914.945, 158934.4, 0.000072167386, 10.002591, 9.996523 
2.0252745e+3, 3.030498e+2, 177341.78, -27017.262, -78115.48, -0.320924, -0.7116615, 203780.61, 203780.61, 0.00017965614, 10.001658, 9.999017 
2.0253018e+3, 3.1305128e+2, -26880.416, 139140.75, -31846.291, 0.07402291, -0.5644184, 145039.9, 145039.9, 0.00033365883, 9.9991045, 10.001377 
2.0348334e+3, 1.23046465e+2, -2033239.1, -1697102.3, 5096.783, 0.09514008, -0.49075335, -1697025.0, 37067.293, 0.3135409, 9.996964, 10.001685 
2.0348632e+3, 1.3304457e+2, -1818169.4, -1892915.3, 209106.16, 0.1784118, -0.5541921, -1643122.6, -7010.6113, 0.22593072, 9.999378, 9.998388 
2.034888e+3, 1.4304394e+2, -1491745.4, -1507325.0, -24829.438, -0.044183, -0.51797146, -1473512.5, 64607.047, 0.13594478, 10.000222, 9.999991 
2.0349114e+3, 1.530443e+2, -1695601.4, -1512117.6, -56844.45, -0.04520808, -0.52698654, -1495934.3, -55819.523, 0.06282382, 9.997932, 10.000348 
2.0349355e+3, 1.6304441e+2, -1746664.1, -1491449.8, -15900.429, -0.027426206, -0.5414552, -1490462.9, -148350.64, 0.019494196, 9.996923, 10.000311 
2.0349619e+3, 1.7304483e+2, -1382401.8, -1253041.4, 2098.5063, 0.047436748, -0.55024207, -1253007.3, -8901.109, 0.0029308582, 9.998712, 10.000406 
2.0349878e+3, 1.8304466e+2, -1163262.4, -1183249.3, -2741.9746, 0.08103415, -0.56973505, -1162893.1, -16786.697, 0.00006041413, 9.999908, 9.999639 
2.035013e+3, 1.930433e+2, -1080592.4, -1103938.6, 22502.357, 0.030121075, -0.6728583, -1066915.6, -18796.87, 0.0, 9.999855, 9.999534 
2.0350376e+3, 2.0304282e+2, -932435.6, -908352.4, -5543.484, -0.040434312, -0.6925664, -907137.7, 42984.17, 0.0, 9.9998865, 10.000187 
2.035061e+3, 2.1304446e+2, -776851.0, -755316.2, 29820.535, -0.13279328, -0.58543855, -734378.7, 117723.96, 0.0, 10.000158, 10.000438 
2.0350851e+3, 2.230446e+2, -810712.6, -975115.0, 35503.453, -0.15611339, -0.51521504, -803373.1, -49272.42, 0.0, 10.000362, 9.998154 
2.0351109e+3, 2.3304182e+2, -706344.75, -926899.4, -10120.831, -0.016204335, -0.5798367, -705881.3, -49748.832, 0.0, 10.000635, 9.997679 
2.035136e+3, 2.4303919e+2, -570082.75, -824525.6, -57793.223, 0.06744067, -0.5962753, -557571.06, 590.96027, 0.0, 10.000945, 9.997565 
2.0351602e+3, 2.5303707e+2, -382424.38, -671312.5, -76903.96, 0.02308598, -0.58938414, -363227.66, 96956.48, 0.0, 10.001511, 9.99767 
2.0351839e+3, 2.63035e+2, -194975.58, -473331.47, -90828.29, -0.07264107, -0.5743482, -167960.02, 194245.47, 0.000000023664393, 10.001887, 9.998171 
2.0352067e+3, 2.7303374e+2, -44272.668, -324697.7, -65249.727, -0.21824731, -0.5584653, -29833.717, 234384.36, 0.0000019634658, 10.002138, 9.998396 
2.035231e+3, 2.8303257e+2, 8227.066, -369242.47, -62083.09, -0.23878749, -0.46037036, 18175.771, 184405.42, 0.000016146072, 10.002337, 9.997334 
2.0352565e+3, 2.9303053e+2, 133801.55, -249358.8, -36046.113, -0.06464028, -0.41593865, 137163.13, 205412.19, 0.000062268045, 10.002487, 9.997407 
2.0352803e+3, 3.0302417e+2, -36883.293, -395402.66, -168755.63, 0.067694716, -0.7472648, 30053.072, 30053.072, 0.00015400637, 10.001361, 9.996613 
2.0353013e+3, 3.1302518e+2, -193291.92, -141638.16, -48427.94, 0.10289965, -0.3539218, -112580.67, -112580.67, 0.00028777335, 9.99887, 9.9995365 
2.044831e+3, 1.2302045e+2, -1675354.6, -1654949.1, -41883.977, 0.020415993, -0.593074, -1622043.1, 112299.72, 0.3294151, 10.000122, 10.000612 
2.044863e+3, 1.3301899e+2, -1773878.3, -1875167.4, 148271.78, 0.20637964, -0.6021367, -1667840.4, -31479.34, 0.23787552, 9.999677, 9.99838 
2.0448872e+3, 1.4301935e+2, -1624512.3, -1573970.1, -74009.9, -0.07949873, -0.46334335, -1521035.8, 17324.402, 0.14372098, 9.999272, 9.999973 
2.044911e+3, 1.530193e+2, -1442748.1, -1396907.6, -97864.016, 0.037702397, -0.5154171, -1319315.6, 121043.836, 0.06692591, 9.9997015, 10.000323 
2.0449352e+3, 1.630191e+2, -1292641.0, -1293260.1, 33953.195, 0.08900376, -0.5498233, -1258996.0, 83363.984, 0.021061258, 10.000149, 10.0001135 
2.0449616e+3, 1.7301922e+2, -1103595.0, -1146922.9, 55563.094, 0.04672959, -0.56823283, -1065621.9, 178735.92, 0.003256253, 10.000759, 10.000142 
2.0449875e+3, 1.830191e+2, -1030905.6, -1102834.1, -2766.662, 0.032278422, -0.5704976, -1030799.4, 115558.695, 0.00007088071, 10.000754, 9.999783 
2.0450129e+3, 1.9301873e+2, -1104987.5, -1082192.3, -11501.124, 0.04600843, -0.60057783, -1077397.9, -29036.691, 0.0, 9.999559, 9.999819 
2.0450374e+3, 2.0301871e+2, -1064948.3, -970455.0, -25534.258, 0.0115608815, -0.5927188, -963996.5, -13636.563, 0.0, 9.998968, 10.00021 
2.0450611e+3, 2.1301964e+2, -827221.44, -778324.44, -74567.56, -0.110175565, -0.55182844, -724299.7, 128047.016, 0.0, 9.9998255, 10.000435 
2.0450857e+3, 2.230192e+2, -766352.44, -979339.44, -86275.055, -0.14825572, -0.5297399, -735790.25, 18559.701, 0.0, 10.00076, 9.997937 
2.045112e+3, 2.3301606e+2, -561458.2, -884809.5, -54704.945, -0.022903243, -0.6060862, -552453.9, 103931.91, 0.0, 10.001738, 9.997437 
2.0451374e+3, 2.4301347e+2, -371636.56, -679199.2, -22500.627, 0.047062386, -0.62140596, -369999.2, 188415.33, 0.0, 10.002085, 9.998016 
2.045161e+3, 2.5301224e+2, -393142.25, -605306.8, 32547.992, -0.018517964, -0.58707786, -388261.38, 72165.03, 0.0, 10.001133, 9.9983015 
2.0451847e+3, 2.6301062e+2, -387499.06, -588997.2, 86160.72, -0.09661895, -0.5580396, -355681.0, 6761.908, 0.00000011200642, 10.000659, 9.997971 
2.0452087e+3, 2.7300885e+2, -225515.1, -456560.66, 28817.48, -0.18567567, -0.5541536, -221975.03, 42487.313, 0.000002326167, 10.001097, 9.997985 
2.0452331e+3, 2.8300753e+2, -120512.086, -387360.78, -22202.912, -0.1850861, -0.4615469, -118677.33, 47798.77, 0.000014696717, 10.001245, 9.997738 
2.0452584e+3, 2.9300624e+2, -74761.625, -278044.84, -40563.652, -0.02188512, -0.39466333, -66966.375, 1520.236, 0.000053738604, 10.000748, 9.998044 
2.0452829e+3, 3.0300117e+2, -86886.195, -409850.47, -101496.016, 0.21753988, -0.6486048, -57638.36, -57638.36, 0.00013193817, 10.000964, 9.996705 
2.0453015e+3, 3.1300172e+2, 221502.61, -48092.99, 116554.07, 0.073604256, -0.2738213, 264904.97, 264904.97, 0.0002497408, 10.002135, 9.998625 
2.0548306e+3, 1.22992314e+2, -1693357.0, -1701221.4, -37084.51, -0.08111509, -0.6825992, -1659996.8, 74622.63, 0.3476065, 10.000193, 10.000115 
2.0548609e+3, 1.3299236e+2, -1703241.3, -1724832.9, 119997.58, 0.027621936, -0.63777864, -1593554.9, 43067.34, 0.2513395, 9.999703, 9.999441 
2.054885e+3, 1.4299475e+2, -1596781.3, -1516564.0, -68487.484, -0.2402963, -0.37401468, -1477304.9, 61295.504, 0.15236652, 9.999263, 10.000415 
2.0549102e+3, 1.5299433e+2, -1414445.3, -1345020.6, -71918.305, -0.030154914, -0.4979335, -1299875.6, 140725.66, 0.071473114, 9.999717, 10.0006895 
2.0549352e+3, 1.6299383e+2, -1301184.3, -1320798.1, 48956.617, 0.070651755, -0.5773121, -1261062.0, 81542.51, 0.022826005, 10.000187, 9.999909 
2.0549616e+3, 1.7299365e+2, -1128298.5, -1198041.9, 82620.77, -0.019660454, -0.58916, -1073491.8, 171115.78, 0.0036400491, 10.000756, 9.999796 
2.0549875e+3, 1.829939e+2, -1022040.6, -1090835.6, -39869.41, -0.05924648, -0.5374439, -1003781.1, 142825.3, 0.00008593674, 10.000773, 9.999859 
2.0550121e+3, 1.9299534e+2, -1095281.6, -1063662.0, -53102.69, 0.013622019, -0.40101677, -1024065.6, 24527.766, 0.0, 9.999558, 9.999951 
2.0550372e+3, 2.0299533e+2, -1129663.3, -1099608.3, -12947.682, 0.052343875, -0.36540198, -1094799.6, -144206.4, 0.0, 9.998948, 9.9993305 
2.0550625e+3, 2.1299241e+2, -919563.44, -954614.94, -34673.25, 0.023837108, -0.59545326, -898238.4, -45620.02, 0.0, 9.999756, 9.999259 
2.0550877e+3, 2.2299008e+2, -749690.25, -911977.0, -53112.77, -0.026395086, -0.7132747, -733853.1, 20786.625, 0.0, 10.000626, 9.998463 
2.0551127e+3, 2.3298939e+2, -511768.22, -754359.8, -10569.777, -0.10531021, -0.6364792, -511308.56, 145340.61, 0.0, 10.001618, 9.998392 
2.0551378e+3, 2.4298905e+2, -283734.53, -449725.4, -49473.03, -0.1543742, -0.55282533, -270107.9, 288544.97, 0.0, 10.001894, 9.99968 
2.0551611e+3, 2.5298953e+2, -281436.47, -348935.25, 1498.769, -0.14101347, -0.5273154, -281403.22, 179240.42, 0.0, 10.001035, 10.000109 
2.0551856e+3, 2.6298854e+2, -454482.06, -703790.7, 85825.16, -0.101879135, -0.5134155, -427793.53, -65141.34, 0.00000017468948, 10.000557, 9.997231 
2.0552117e+3, 2.729849e+2, -328748.1, -662545.56, 55843.82, 0.0026426113, -0.5642629, -319653.3, -54959.582, 0.0000023499456, 10.001047, 9.996599 
2.0552368e+3, 2.8298202e+2, -155834.53, -412071.1, -41728.62, 0.0383795, -0.54023534, -149210.19, 17515.22, 0.000012296112, 10.001056, 9.997651 
2.055259e+3, 2.9298094e+2, -61275.97, -232206.45, -45512.867, -0.05040626, -0.4913708, -49912.863, 18821.246, 0.00004437096, 10.000672, 9.998392 
2.0552824e+3, 3.0297977e+2, 17336.543, -115330.086, -78100.125, 0.05610155, -0.4718811, 53471.457, 53471.457, 0.00011165042, 10.000663, 9.99886 
2.055302e+3, 3.129799e+2, 136999.89, -134037.31, 69565.53, -0.122479275, -0.3668983, 153812.03, 153812.03, 0.0002193155, 10.001763, 9.998209 
2.0648311e+3, 1.22967236e+2, -1646563.5, -1682341.4, -6633.183, -0.060974143, -0.53617877, -1645373.3, 89495.82, 0.36771804, 10.000756, 10.000044 
2.0648606e+3, 1.3296619e+2, -1630794.5, -1638984.5, 89927.94, 0.02824315, -0.6506569, -1544868.4, 92011.59, 0.26616043, 10.000045, 9.999916 
2.0648845e+3, 1.4296846e+2, -1556717.5, -1489737.8, -76585.47, -0.23272464, -0.43085298, -1439639.9, 99217.48, 0.1618756, 9.999507, 10.000518 
2.0649092e+3, 1.5296842e+2, -1443277.3, -1355276.9, -114800.25, -0.07678606, -0.5246767, -1276333.5, 164520.86, 0.07651462, 9.999511, 10.00073 
2.0649345e+3, 1.6296814e+2, -1455380.3, -1403647.8, -5909.624, 0.020961516, -0.5808566, -1402981.3, -60126.258, 0.024829434, 9.999144, 9.999843 
2.0649615e+3, 1.7296787e+2, -1523779.9, -1395125.9, 35291.094, 0.02513962, -0.598152, -1386081.0, -141222.05, 0.0041003036, 9.998057, 9.999745 
2.0649877e+3, 1.8296805e+2, -1424225.3, -1270138.3, -36248.555, 0.029719815, -0.55504143, -1262036.9, -115178.68, 0.000108260756, 9.997961, 9.999978 
2.065012e+3, 1.9296938e+2, -981231.56, -989073.06, -53832.62, 0.011838731, -0.44569618, -931177.06, 117668.62, 0.0, 10.000262, 10.00012 
2.0650369e+3, 2.0296928e+2, -778059.5, -972611.56, -7685.112, 0.023674052, -0.41119087, -777756.4, 173090.38, 0.0, 10.001545, 9.99895 
2.065063e+3, 2.1296653e+2, -830069.06, -966863.5, 4771.003, 0.08122096, -0.57774305, -829902.9, 22970.527, 0.0, 10.00061, 9.998761 
2.0650886e+3, 2.229644e+2, -829740.8, -885781.3, 41399.93, 0.057561662, -0.66698384, -807770.2, -52876.65, 0.0, 9.999795, 9.999046 
2.065113e+3, 2.3296398e+2, -778036.25, -784995.75, 67950.91, -0.13062815, -0.64621264, -713476.06, -56579.61, 0.0, 9.999381, 9.999255 
2.0651375e+3, 2.4296388e+2, -635350.75, -619916.8, -19309.133, -0.21779989, -0.5906036, -606839.7, -47943.914, 0.0, 9.999482, 9.999674 
2.065162e+3, 2.529645e+2, -368445.06, -415286.47, -127423.836, -0.11159727, -0.5319561, -262307.44, 198580.02, 0.0, 10.000545, 9.999889 
2.0651872e+3, 2.6296374e+2, -305216.84, -571176.7, -76776.125, -0.017141456, -0.5027509, -284644.72, 78249.484, 0.00000012472299, 10.001308, 9.997785 
2.0652133e+3, 2.7296034e+2, -217072.77, -522238.66, 26098.502, 0.04478015, -0.6023951, -214856.84, 50073.457, 0.0000018192295, 10.001438, 9.997376 
2.0652382e+3, 2.8295758e+2, -53076.418, -332146.53, 36228.332, 0.05751516, -0.6246615, -48450.023, 118508.71, 0.000008845643, 10.001617, 9.997939 
2.06526e+3, 2.9295662e+2, 73390.71, -163346.48, -9370.478, -0.05394096, -0.5714829, 73761.03, 142728.38, 0.000033808126, 10.001598, 9.998417 
2.0652829e+3, 3.029562e+2, 150153.03, -979.40045, -83125.19, 0.02773044, -0.4975394, 186925.81, 186925.81, 0.00009162271, 10.001304, 9.999371 
2.0653045e+3, 3.1295374e+2, -20098.672, -139426.83, -124795.41, 0.033030827, -0.7202164, 58561.85, 58561.85, 0.0001905405, 10.000357, 9.998866 
2.074832e+3, 1.2294505e+2, -1629629.9, -1649734.4, -65414.08, -0.09676083, -0.1783313, -1573500.3, 161593.72, 0.38886976, 10.000798, 10.000414 
2.0748618e+3, 1.3294043e+2, -1628987.5, -1645607.3, 71837.15, 0.11990236, -0.64576113, -1564981.1, 72153.805, 0.28190908, 10.000085, 9.99983 
2.0748852e+3, 1.4294039e+2, -1572189.6, -1528567.1, -91379.88, -0.12658246, -0.6394825, -1456431.5, 82700.83, 0.17213808, 9.999548, 10.000218 
2.074908e+3, 1.5294135e+2, -1461460.3, -1398071.5, -109430.516, -0.16814537, -0.5983474, -1315837.9, 125282.36, 0.08207624, 9.999531, 10.000415 
2.0749322e+3, 1.6294184e+2, -1442560.9, -1376090.8, -47485.74, -0.14246537, -0.5659922, -1351365.0, -8251.736, 0.027111659, 9.999141, 10.000032 
2.0749606e+3, 1.7294177e+2, -1506528.4, -1354486.0, -4236.987, 0.12187375, -0.58945507, -1354368.0, -109255.26, 0.0046569863, 9.998039, 10.000033 
2.074988e+3, 1.8294142e+2, -1409605.9, -1244093.9, 21753.402, 0.23857464, -0.625529, -1241282.6, -94167.87, 0.00014131474, 9.997977, 10.00015 
2.0750122e+3, 1.9294068e+2, -976909.7, -971923.3, 41170.42, -0.006440647, -0.73629594, -933170.6, 115948.93, 0.0000000002137382, 10.000226, 10.0002575 
2.0750369e+3, 2.0294048e+2, -771211.94, -950399.2, -22989.477, -0.13936284, -0.72845125, -768309.44, 182812.19, 0.0, 10.001509, 9.999118 
2.075063e+3, 2.1294183e+2, -830462.4, -950461.7, -26381.43, 0.005886392, -0.5024259, -824918.6, 28194.846, 0.0, 10.000532, 9.998913 
2.0750883e+3, 2.2294198e+2, -800665.1, -797645.5, 19029.922, 0.044199355, -0.39953667, -780065.56, -24952.266, 0.0, 9.999684, 9.999699 
2.0751123e+3, 2.329397e+2, -739152.9, -685943.1, 60116.008, -0.15512057, -0.6370877, -646807.94, 10321.36, 0.0, 9.999306, 9.99997 
2.0751372e+3, 2.4293777e+2, -761958.9, -857856.94, 5799.0547, -0.22059293, -0.74360436, -761609.44, -202463.81, 0.0, 9.999378, 9.998089 
2.0751639e+3, 2.529371e+2, -529571.44, -734212.2, -77417.25, 0.0014903315, -0.6012527, -503584.03, -42426.02, 0.0, 10.000476, 9.997731 
2.0751897e+3, 2.6293623e+2, -212066.72, -338231.56, -69680.33, 0.084088385, -0.5216238, -181155.84, 182012.64, 0.000000021824269, 10.001147, 9.999458 
2.0752133e+3, 2.7293488e+2, -45974.543, -134041.23, 40359.598, -0.10650171, -0.67444485, -30276.553, 234897.95, 0.00000084431264, 10.001304, 10.000106 
2.0752373e+3, 2.8293365e+2, -47976.195, -263349.7, 25189.223, -0.197868, -0.74171954, -45069.395, 122112.69, 0.000005133315, 10.001376, 9.998522 
2.0752612e+3, 2.92933e+2, 31978.113, -227361.02, -2285.9531, -0.11584352, -0.65374625, 31998.262, 101188.96, 0.000023674193, 10.001487, 9.998034 
2.0752841e+3, 3.029303e+2, 4319.5522, -198199.84, -126755.82, 0.002277964, -0.7161261, 65295.992, 65295.992, 0.00007214658, 10.000901, 9.998185 
2.0753077e+3, 3.129256e+2, 32959.41, 59990.703, -86075.98, 0.28643215, -1.0870038, 133605.69, 133605.69, 0.0001581692, 10.000035, 10.000364 
2.0848325e+3, 1.2291931e+2, -1819995.6, -1670871.8, -106207.53, -0.010122801, -0.17181577, -1615666.5, 119682.75, 0.40993002, 9.998694, 10.001362 
2.0848611e+3, 1.3291532e+2, -1883054.1, -1753520.8, 65188.496, 0.14553118, -0.59580046, -1726394.8, -89011.85, 0.29801235, 9.998194, 9.999913 
2.0848848e+3, 1.429155e+2, -1764946.9, -1594090.9, -37059.22, -0.05320905, -0.5829525, -1586398.9, -47021.668, 0.18298064, 9.998112, 10.000373 
2.0849077e+3, 1.5291613e+2, -1440988.5, -1382496.0, -20904.54, -0.13626316, -0.5840404, -1375793.1, 65573.914, 0.088167645, 9.999626, 10.000463 
2.0849322e+3, 1.6291621e+2, -1226601.0, -1300138.3, 25859.184, -0.13182554, -0.586906, -1218418.1, 124944.96, 0.029713616, 10.000772, 9.999778 
2.0849602e+3, 1.729157e+2, -1085637.4, -1187398.6, 1476.8684, 0.12658416, -0.6232645, -1085616.0, 159750.33, 0.005333032, 10.001093, 9.999708 
2.0849873e+3, 1.8291497e+2, -1011818.9, -1080928.1, 24064.078, 0.25612333, -0.6666464, -1004265.3, 143106.31, 0.00018960002, 10.00082, 9.999906 
2.0850125e+3, 1.92914e+2, -1088833.1, -1050022.9, 15178.466, 0.047578808, -0.7818656, -1044791.8, 4587.6626, 0.000000020895914, 9.999544, 10.000056 
2.0850375e+3, 2.029138e+2, -1138815.3, -1111689.9, -70173.766, -0.07915854, -0.76632863, -1053780.1, -102398.2, 0.0, 9.998928, 9.999255 
2.0850632e+3, 2.1291551e+2, -885882.7, -951260.94, -85973.266, -0.000802568, -0.52131337, -826593.6, 26776.9, 0.0, 10.000048, 9.999138 
2.0850883e+3, 2.2291607e+2, -623640.9, -688320.3, -52208.58, 0.011517629, -0.4025782, -594567.3, 160799.3, 0.0, 10.000785, 9.99993 
2.0851123e+3, 2.3291421e+2, -526878.8, -557220.5, -58245.246, -0.13247232, -0.61942685, -481861.06, 175516.53, 0.0, 10.000639, 10.000221 
2.0851375e+3, 2.4291244e+2, -579878.8, -760276.9, -41977.754, -0.16782779, -0.7292007, -570589.1, -11197.468, 0.0, 10.000581, 9.998178 
2.0851645e+3, 2.5291112e+2, -472201.66, -701313.5, 25363.535, 0.01764579, -0.6569201, -469427.4, -8017.4297, 0.0, 10.000845, 9.997774 
2.0851907e+3, 2.6290995e+2, -273206.34, -349725.75, 60128.664, 0.10359511, -0.61977386, -240197.11, 123226.19, 0.0, 10.000651, 9.999617 
2.0852144e+3, 2.729091e+2, -302296.72, -240652.73, -26702.414, -0.037461005, -0.73401594, -230694.66, 34730.047, 0.000000115745564, 9.999475, 10.000253 
2.0852385e+3, 2.8290865e+2, -351548.3, -350922.5, -111060.734, -0.09219071, -0.75052696, -240174.23, -72749.13, 0.0000020138657, 9.999025, 9.999055 
2.085263e+3, 2.9290888e+2, -147997.83, -238553.92, -109629.914, -0.013984284, -0.63539654, -74663.82, -5238.7188, 0.000014488007, 9.999928, 9.998706 
2.0852864e+3, 3.0290627e+2, 54574.457, -215859.77, -116887.26, 0.12109771, -0.7168637, 98092.625, 98092.625, 0.000052987816, 10.001376, 9.997856 
2.0853093e+3, 3.1290266e+2, 529084.8, 200121.84, -72689.984, 0.28056803, -0.9136618, 544431.0, 544431.0, 0.0001235067, 10.003809, 9.999535 
2.0948322e+3, 1.22889966e+2, -1726120.5, -1535159.5, -98790.74, 0.049626395, -0.5214075, -1493249.5, 242386.16, 0.42994058, 9.998662, 10.002921 
2.0948584e+3, 1.3289082e+2, -1864822.4, -1713437.9, 39810.11, 0.021173118, -0.50414336, -1703607.3, -65983.336, 0.31401625, 9.998188, 10.000192 
2.0948826e+3, 1.4289394e+2, -1720369.8, -1512907.3, -3218.0989, -0.10834789, -0.24257508, -1512857.4, 26733.42, 0.19429262, 9.998122, 10.000978 
2.0949085e+3, 1.5289281e+2, -1403330.3, -1313954.4, 37846.207, -0.049592774, -0.47249416, -1300081.8, 141512.84, 0.094824284, 9.999662, 10.000972 
2.0949343e+3, 1.6289112e+2, -1266145.9, -1397195.3, 42709.086, -0.015119949, -0.653128, -1253455.8, 90150.02, 0.032688897, 10.000833, 9.999077 
2.0949599e+3, 1.728896e+2, -1151392.5, -1329327.0, 15359.892, -0.0136728035, -0.6941698, -1150076.3, 95543.73, 0.0061590113, 10.001112, 9.998725 
2.0949861e+3, 1.8288869e+2, -1054298.0, -1174101.3, -18714.588, 0.015551441, -0.6689166, -1051442.6, 96186.586, 0.00026052183, 10.000843, 9.999255 
2.095013e+3, 1.9288927e+2, -1131410.3, -1134795.4, -31828.928, 0.116842166, -0.57212853, -1101228.9, -51603.11, 0.00000016154512, 9.99953, 9.999481 
2.095039e+3, 2.0288911e+2, -1136297.3, -1102273.9, -53044.383, 0.14608425, -0.5217684, -1063580.1, -111950.92, 0.0, 9.99891, 9.999325 
2.0950635e+3, 2.1288753e+2, -883301.9, -924831.1, -36342.49, 0.011766657, -0.62941384, -862210.25, -8564.797, 0.0, 9.999957, 9.999361 
2.095088e+3, 2.2288655e+2, -653189.0, -718557.5, -51308.605, -0.09614736, -0.6715634, -625038.75, 130615.61, 0.0, 10.00065, 9.999787 
2.0951132e+3, 2.3288743e+2, -559908.44, -597374.25, -55658.277, -0.12232986, -0.59310937, -519915.13, 137726.66, 0.0, 10.00052, 10.000003 
2.0951387e+3, 2.4288769e+2, -484838.06, -528501.75, -38069.33, -0.13549553, -0.55293757, -462784.78, 96850.695, 0.0, 10.000434, 9.99984 
2.0951644e+3, 2.5288627e+2, -337262.78, -399710.5, 41406.74, -0.1109833, -0.69900954, -316626.75, 145019.17, 0.0, 10.000751, 9.999893 
2.09519e+3, 2.628845e+2, -384109.78, -544834.2, 18327.719, -0.034211114, -0.8018336, -382046.34, -18383.893, 0.0, 10.000507, 9.9983425 
2.0952158e+3, 2.7288282e+2, -470895.97, -576745.75, -61123.66, 0.16140664, -0.7895514, -442968.22, -177285.53, 0.0, 9.999415, 9.997973 
2.0952412e+3, 2.8288254e+2, -352986.63, -305756.7, -96956.41, 0.25453618, -0.6597805, -229580.83, -61892.832, 0.00000039293647, 9.99883, 9.999455 
2.095265e+3, 2.928843e+2, -52977.582, -17479.031, -60497.332, 0.18200271, -0.51187456, 27819.008, 97489.125, 0.000007661527, 9.9998255, 10.000276 
2.0952891e+3, 3.0288267e+2, 18986.936, -178710.63, -50680.35, 0.22527261, -0.6308374, 31221.814, 31221.814, 0.000036947218, 10.000944, 9.998301 
2.0953102e+3, 3.128823e+2, 264104.84, -213325.72, 100316.92, -0.03294552, -0.4564432, 284326.75, 284326.75, 0.00009412645, 10.003268, 9.996935 
2.1048325e+3, 1.22866176e+2, -1588402.0, -1363203.8, 48369.156, 0.18339781, -0.576985, -1353254.4, 382606.13, 0.44859928, 9.999329, 10.004797 
2.104857e+3, 1.3286562e+2, -1735983.9, -1819100.4, 124953.4, -0.0007742631, -0.59566146, -1645859.0, -7995.985, 0.3298663, 9.999787, 9.998704 
2.1048811e+3, 1.4286779e+2, -1447734.4, -1453074.5, -14498.055, -0.15968229, -0.30978578, -1435662.6, 104179.02, 0.20615475, 10.000449, 10.000377 
2.1049087e+3, 1.5286711e+2, -1396597.1, -1339233.3, -47221.27, 0.016742196, -0.4650548, -1312665.8, 129178.6, 0.10215144, 9.999853, 10.000692 
2.1049353e+3, 1.6286546e+2, -1476662.0, -1468085.3, -56418.18, 0.0965932, -0.63387257, -1415792.8, -71936.266, 0.036114734, 9.999225, 9.999364 
2.1049598e+3, 1.7286384e+2, -1407816.9, -1400296.1, 11847.305, -0.03867235, -0.73216105, -1391626.8, -145758.13, 0.007176738, 9.99911, 9.999204 
2.1049851e+3, 1.828631e+2, -1279907.6, -1317328.9, 63914.945, -0.07931901, -0.7096265, -1232020.9, -84145.7, 0.0003661867, 9.999453, 9.99894 
2.1050127e+3, 1.9286399e+2, -964897.1, -1114814.3, 43959.99, 0.07295345, -0.5270109, -952957.6, 96914.79, 0.00000091193453, 10.000952, 9.998929 
2.105039e+3, 2.0286372e+2, -767650.8, -932234.25, 15898.828, 0.14794342, -0.45078894, -766129.06, 185749.31, 0.0, 10.001453, 9.999272 
2.1050635e+3, 2.1286121e+2, -908183.7, -927406.5, 7440.062, 0.03267272, -0.66138184, -905640.5, -51739.504, 0.0, 9.999737, 9.999454 
2.1050881e+3, 2.2285977e+2, -944974.94, -849658.1, 17834.021, -0.050888307, -0.756845, -846430.6, -90518.23, 0.0, 9.998622, 9.999852 
2.1051133e+3, 2.3286097e+2, -757458.25, -685619.94, 23251.87, -0.07902091, -0.6550812, -678750.8, -20853.186, 0.0, 9.999142, 10.000048 
2.1051386e+3, 2.4286157e+2, -613385.6, -569742.7, 14836.847, -0.10350657, -0.5894432, -565176.5, -5288.034, 0.0, 9.999464, 10.000027 
2.1051638e+3, 2.528607e+2, -551327.2, -477108.28, -55745.71, -0.13046119, -0.70153517, -447249.84, 14644.401, 0.0, 9.999186, 10.0001135 
2.1051897e+3, 2.6285937e+2, -529802.1, -590249.06, -106600.44, -0.049247723, -0.77518725, -449223.47, -85316.945, 0.0, 9.99938, 9.998585 
2.1052162e+3, 2.72858e+2, -301172.8, -465336.53, -30655.184, 0.21518561, -0.759636, -295635.2, -29710.934, 0.0, 10.000446, 9.998246 
2.105242e+3, 2.8285775e+2, -81697.28, -209184.89, 46255.996, 0.34862635, -0.6323066, -66682.66, 101247.03, 0.00000006547354, 10.000848, 9.999143 
2.1052654e+3, 2.9285878e+2, -62298.016, -77644.23, -58396.195, 0.25267473, -0.5070283, -11072.968, 58847.46, 0.0000047361223, 10.000021, 9.999763 
2.1052906e+3, 3.0285716e+2, -46077.75, -150050.44, -73544.87, 0.33394617, -0.6175871, -8000.632, -8000.632, 0.00002876755, 10.000195, 9.998874 
2.1053122e+3, 3.1285644e+2, 26095.547, -230999.47, 66118.086, -0.042387955, -0.55105203, 42102.742, 42102.742, 0.00007804994, 10.001174, 9.997838 
2.114833e+3, 1.2284753e+2, -1505519.8, -1205829.8, 76937.625, 0.2488098, -0.4098645, -1187232.1, 548794.8, 0.46656317, 9.999422, 10.006934 
2.114857e+3, 1.3283981e+2, -1961057.4, -2308261.5, 169483.95, -0.0061530164, -0.86856425, -1892043.5, -253944.97, 0.34608045, 9.999879, 9.995305 
2.1148807e+3, 1.4283648e+2, -1545766.1, -1711859.3, -24049.89, -0.28984037, -0.83446836, -1542353.9, -2218.9858, 0.21890919, 10.00056, 9.998395 
2.1149084e+3, 1.5283878e+2, -1459830.0, -1483432.5, -76814.51, -0.009022029, -0.57621783, -1393915.5, 48203.348, 0.110347085, 9.999925, 9.999604 
2.114935e+3, 1.6283925e+2, -1379241.3, -1275700.0, -71126.164, 0.12273375, -0.5207983, -1239498.4, 104616.96, 0.040102176, 9.999261, 10.00069 
2.1149595e+3, 1.7283843e+2, -1268372.9, -1114130.1, 11613.458, 0.0011007518, -0.72897327, -1113260.6, 132851.63, 0.008443992, 9.999114, 10.001176 
2.1149847e+3, 1.8283802e+2, -1279465.8, -1316245.6, 102684.836, -0.09034138, -0.79424304, -1193537.1, -45426.008, 0.00052604213, 9.999455, 9.998943 
2.1150115e+3, 1.9283804e+2, -1006414.75, -1198194.5, 108210.39, -0.13724956, -0.64934826, -957721.25, 92399.055, 0.0000034897541, 10.00094, 9.99836 
2.1150379e+3, 2.0283757e+2, -787161.25, -960637.1, -27591.88, -0.135498, -0.55402726, -782878.44, 169252.02, 0.0, 10.001401, 9.9991045 
2.1150629e+3, 2.1283652e+2, -925055.94, -945196.6, -54733.1, 0.0058058603, -0.6096972, -879474.5, -25337.064, 0.0, 9.999664, 9.999367 
2.115088e+3, 2.2283553e+2, -944809.94, -827248.3, 17714.438, 0.071533084, -0.66463196, -824637.06, -68494.16, 0.0, 9.998527, 10.0000515 
2.1151128e+3, 2.3283465e+2, -751319.3, -653973.75, 51382.67, -0.053167846, -0.79378444, -631870.7, 26275.898, 0.0, 9.99906, 10.000305 
2.1151379e+3, 2.4283397e+2, -716498.56, -754044.06, 5920.809, -0.14245059, -0.8273057, -715587.0, -155435.08, 0.0, 9.999338, 9.998819 
2.1151635e+3, 2.5283414e+2, -675642.0, -723186.94, -58210.445, -0.10110753, -0.6750038, -636536.94, -174380.27, 0.0, 9.999131, 9.99845 
2.1151894e+3, 2.6283437e+2, -432022.3, -356410.63, -77088.7, -0.024917495, -0.5571483, -308356.4, 55801.04, 0.0, 9.999254, 10.000247 
2.1152155e+3, 2.7283448e+2, -127252.74, -85700.1, 17322.09, 0.078246, -0.6474218, -79426.28, 186725.34, 0.0, 10.000361, 10.0008955 
2.1152405e+3, 2.828337e+2, -187917.84, -379463.66, 17627.482, 0.10234235, -0.6993708, -186309.14, -18152.074, 0.00000005479561, 10.000641, 9.998068 
2.1152644e+3, 2.9283196e+2, -248356.34, -451630.84, -67209.164, 0.12294997, -0.63943887, -228144.5, -157964.7, 0.0000044705935, 9.999953, 9.9972315 
2.1152905e+3, 3.0282962e+2, -84054.39, -98929.46, -45828.516, 0.27546307, -0.67146873, -45063.81, -45063.81, 0.0000269908, 9.999689, 9.999441 
2.1153155e+3, 3.1282595e+2, 195945.48, 245187.48, 55958.277, 0.10332011, -1.0923576, 281701.75, 281701.75, 0.0000736709, 10.0006895, 10.001324 
2.1248277e+3, 1.22814186e+2, -1681059.3, -989493.3, -143484.56, 0.024166327, -0.7922542, -960905.25, 775449.9, 0.48543465, 9.9945345, 10.012433 
2.1248552e+3, 1.3281249e+2, -2146682.3, -2265336.8, -87215.93, -0.05778577, -0.9140476, -2100528.0, -462165.4, 0.3637423, 9.998068, 9.996454 
2.124882e+3, 1.4280887e+2, -1694204.3, -1810359.0, -32139.822, -0.14547275, -0.9595868, -1685904.3, -145504.36, 0.23315269, 9.999652, 9.998159 
2.1249084e+3, 1.5281111e+2, -1536033.9, -1561066.3, -70669.76, 0.0011190258, -0.6660208, -1476780.5, -34394.125, 0.1197026, 9.999557, 9.999238 
2.124934e+3, 1.6281186e+2, -1314753.8, -1218497.5, -29692.45, 0.08104942, -0.5723135, -1210075.1, 134306.19, 0.044803485, 9.999589, 10.000943 
2.1249595e+3, 1.7281164e+2, -1035007.2, -960208.0, -64337.344, 0.028655393, -0.7535016, -923189.7, 323182.3, 0.01004214, 10.000559, 10.001546 
2.1249852e+3, 1.8281157e+2, -1090084.0, -1201367.9, -53731.918, -0.024794765, -0.8162991, -1068375.3, 79992.13, 0.0007722133, 10.000631, 9.999169 
2.1250117e+3, 1.9281134e+2, -1308111.8, -1322483.6, -10981.852, -0.10842108, -0.7150435, -1302173.8, -251794.98, 0.000010944595, 9.998766, 9.998558 
2.1250376e+3, 2.0281093e+2, -1250349.1, -1140731.6, -75345.76, -0.12789123, -0.6415958, -1102368.6, -149981.22, 0.0, 9.9980545, 9.999472 
2.1250628e+3, 2.1281032e+2, -818556.06, -849172.3, -76469.93, -0.014744049, -0.69015586, -755877.06, 98509.9, 0.0, 10.000213, 9.999756 
2.1250877e+3, 2.2280957e+2, -557321.56, -673998.1, -4843.643, 0.05988782, -0.73390573, -557120.9, 199268.47, 0.0, 10.001321, 9.9997635 
2.1251129e+3, 2.328086e+2, -659606.5, -661047.94, -37500.375, 0.0014755764, -0.8263948, -622819.9, 35577.953, 0.0, 9.999908, 9.99985 
2.1251382e+3, 2.4280772e+2, -755691.06, -763530.56, -50240.348, -0.036015842, -0.8579589, -709217.8, -148810.3, 0.0, 9.999031, 9.998899 
2.1251635e+3, 2.5280738e+2, -600928.06, -661248.75, 9565.436, -0.01211607, -0.7747359, -599447.56, -137032.78, 0.0, 9.999533, 9.998682 
2.1251895e+3, 2.6280764e+2, -345396.16, -321190.06, 46101.246, 0.031286042, -0.66724396, -285629.63, 78784.56, 0.0, 9.999889, 10.000177 
2.1252151e+3, 2.7280855e+2, -236225.14, -150815.67, -66144.375, 0.054999057, -0.6585201, -114788.125, 151614.2, 0.0, 9.99969, 10.000761 
2.1252403e+3, 2.8280792e+2, -296038.53, -430809.9, -153108.11, 0.0533169, -0.69001704, -196143.23, -27735.389, 0.000000117451826, 9.999878, 9.998093 
2.1252644e+3, 2.9280517e+2, -107630.55, -373122.53, -107626.01, 0.08816264, -0.73320806, -69482.26, 957.19434, 0.0000050467984, 10.000884, 9.997315 
2.1252905e+3, 3.0280337e+2, 195247.56, 30651.332, 42061.23, 0.24093755, -0.71787107, 205373.08, 205373.08, 0.000026928557, 10.001569, 9.999459 
2.1253179e+3, 3.1280127e+2, 174869.11, 252898.47, -56840.258, 0.30663452, -0.97909534, 282825.5, 282825.5, 0.00007094617, 10.000418, 10.001529 
2.1348521e+3, 1.3278316e+2, -1723767.9, -1477312.8, -23946.678, -0.21207336, -0.7187416, -1475007.6, 163653.4, 0.38411817, 9.998032, 10.00256 
2.1348855e+3, 1.4278524e+2, -1576377.3, -1575601.0, -14974.663, 0.2009711, -0.637269, -1561009.5, -20375.283, 0.24951555, 9.999689, 9.99975 
2.134908e+3, 1.5278421e+2, -1505686.3, -1504001.6, -73533.54, -0.0006244999, -0.71864253, -1431305.6, 11340.333, 0.13052814, 9.999581, 9.999623 
2.1349321e+3, 1.6278303e+2, -1367649.8, -1340947.8, -11042.868, -0.093347244, -0.8098728, -1336972.6, 7684.6167, 0.050404422, 9.999646, 10.00004 
2.1349597e+3, 1.7278326e+2, -1121596.0, -1150168.3, -24529.12, -0.013207623, -0.8212868, -1107496.0, 139154.11, 0.012084308, 10.000598, 10.000212 
2.1349868e+3, 1.8278359e+2, -1056671.3, -1139266.5, -106515.18, 0.04868016, -0.7774775, -983728.0, 164917.08, 0.001155736, 10.000662, 9.999582 
2.1350127e+3, 1.9278386e+2, -1243435.0, -1188869.4, -80236.97, 0.10531765, -0.7128383, -1131403.6, -80755.68, 0.000030850606, 9.998765, 9.9994755 
2.1350381e+3, 2.0278361e+2, -1196878.8, -1018403.25, -32061.764, 0.0973911, -0.71231097, -1012818.4, -60167.492, 0.0, 9.998006, 10.000336 
2.1350622e+3, 2.1278241e+2, -771747.7, -730996.44, 13854.88, -0.06964228, -0.9045032, -726732.2, 127919.51, 0.0, 10.000123, 10.000612 
2.1350871e+3, 2.2278184e+2, -627656.8, -785361.75, -31769.135, -0.1418324, -0.9582542, -621497.56, 135154.63, 0.0, 10.001177, 9.999064 
2.135113e+3, 2.3278274e+2, -756040.3, -842652.94, -85906.24, 0.02996722, -0.75429684, -703142.06, -44489.977, 0.0, 9.999826, 9.998644 
2.135139e+3, 2.4278258e+2, -681843.9, -585601.9, -50729.797, 0.13594805, -0.6858667, -563800.44, -3143.5474, 0.0, 9.998928, 10.00017 
2.1351643e+3, 2.5278026e+2, -471990.72, -378734.4, 35962.95, 0.08440604, -0.99377996, -366476.94, 96193.66, 0.0, 9.999466, 10.000654 
2.1351898e+3, 2.62779e+2, -484057.47, -576510.7, 38292.125, 0.049851634, -1.0944178, -470257.53, -105578.34, 0.0, 9.999762, 9.99848 
2.1352154e+3, 2.7278015e+2, -445768.3, -571344.44, -63231.652, 0.077707134, -0.7953736, -419446.44, -152768.84, 0.00000000014169585, 9.999624, 9.997907 
2.1352404e+3, 2.8278002e+2, -262610.9, -307795.6, -127476.984, 0.07326524, -0.6314805, -155739.75, 12945.417, 0.000000256191, 9.999664, 9.999028 
2.1352653e+3, 2.92778e+2, 31253.99, -60811.695, -46659.945, 0.08187251, -0.80953765, 50766.348, 121470.05, 0.0000052967753, 10.000763, 9.999524 
2.1352904e+3, 3.027769e+2, 91682.61, -48005.484, 19938.15, 0.037060395, -0.85267574, 94472.72, 94472.72, 0.000025183504, 10.00105, 9.999137 
2.135318e+3, 3.1277838e+2, -115728.46, -187736.38, 21256.361, 0.265, -0.632588, -109921.92, -109921.92, 0.0000632292, 9.99978, 9.998782 
2.1448511e+3, 1.3275646e+2, -1499667.8, -1343980.5, 155411.86, -0.1850549, -0.5673961, -1248006.8, 390919.72, 0.40760165, 9.99986, 10.003279 
2.144886e+3, 1.4275856e+2, -1667433.6, -1538987.9, -57187.508, 0.33919513, -0.5589758, -1517216.6, 23682.762, 0.26811564, 9.998699, 10.0005245 
2.1449077e+3, 1.527573e+2, -1537739.9, -1439580.8, -95208.555, 0.045236275, -0.7403371, -1381546.0, 61361.867, 0.14296411, 9.998995, 10.000397 
2.1449314e+3, 1.6275622e+2, -1433735.3, -1400053.3, 21462.66, -0.08597841, -0.8601865, -1389613.0, -44697.137, 0.057087187, 9.999327, 9.9997835 
2.14496e+3, 1.7275633e+2, -1323584.5, -1308235.3, 56459.297, 0.010711648, -0.83001477, -1258931.4, -12017.147, 0.014719365, 9.999484, 9.999653 
2.1449873e+3, 1.8275668e+2, -1184918.5, -1173253.1, -25023.98, 0.09271385, -0.7608534, -1153391.1, -4479.764, 0.0017550356, 9.999682, 9.999814 
2.1450128e+3, 1.9275743e+2, -988875.0, -1017374.94, -51337.36, 0.1532063, -0.68962926, -949846.6, 101059.97, 0.00008036648, 10.000319, 9.999903 
2.1450377e+3, 2.0275733e+2, -820509.3, -804242.4, 5337.316, 0.1436751, -0.7113392, -802647.5, 150257.92, 0.000000018813253, 10.000441, 10.000638 
2.1450622e+3, 2.1275555e+2, -825764.25, -726554.5, 6608.062, -0.067421705, -0.9906003, -726116.3, 128793.91, 0.0, 9.999619, 10.000885 
2.1450871e+3, 2.2275485e+2, -929006.5, -937773.6, -76652.484, -0.1499327, -1.0684274, -856612.3, -99700.555, 0.0, 9.999143, 9.998999 
2.145113e+3, 2.3275682e+2, -809217.6, -885994.1, -78510.27, 0.06469686, -0.7387851, -760212.94, -101307.61, 0.0, 9.999545, 9.998481 
2.145139e+3, 2.4275745e+2, -525954.44, -489660.53, 9834.217, 0.20528093, -0.59093326, -487167.13, 73737.61, 0.0, 9.999912, 10.000354 
2.1451646e+3, 2.5275493e+2, -347388.56, -286473.72, -23152.242, 0.14043017, -0.9443857, -278673.03, 184244.22, 0.0, 10.000183, 10.000942 
2.1451902e+3, 2.6275313e+2, -420468.7, -573433.7, -62252.918, 0.09561292, -1.1064523, -398335.78, -33407.008, 0.0, 10.000303, 9.998246 
2.1452153e+3, 2.7275327e+2, -401536.84, -589125.1, -21880.934, 0.09735145, -0.87274957, -399018.4, -132081.23, 0.00000000016893417, 10.000105, 9.997548 
2.1452403e+3, 2.82753e+2, -180839.39, -243226.92, 43354.875, 0.09088514, -0.71467704, -158622.52, 10323.758, 0.0000002738674, 10.000093, 9.999277 
2.1452656e+3, 2.927521e+2, -5500.0293, -14722.008, 737.6901, 0.085621834, -0.81879485, -5441.3926, 65512.797, 0.0000047479944, 10.000243, 10.000085 
2.1452917e+3, 3.0275226e+2, 24718.344, -61111.95, -13777.716, 0.12544255, -0.790817, 26875.752, 26875.752, 0.00002151286, 10.000424, 9.999389 
2.1453184e+3, 3.1275204e+2, 21123.582, -59224.48, 46148.06, 0.28283098, -0.7484523, 42134.484, 42134.484, 0.00005359827, 10.000441, 9.999339 
2.1548523e+3, 1.327331e+2, -1778542.9, -1900766.9, 229105.83, -0.08102453, -0.41674343, -1602538.5, 36612.723, 0.43279883, 9.999903, 9.998114 
2.1548828e+3, 1.4272839e+2, -1672649.9, -1569178.1, -93355.4, 0.13438703, -0.77179193, -1514181.5, 27018.412, 0.28823382, 9.998781, 10.000289 
2.1549073e+3, 1.527304e+2, -1451610.3, -1291830.4, -69805.36, 0.073774576, -0.73171073, -1265629.9, 177542.7, 0.15688464, 9.999042, 10.001539 
2.1549322e+3, 1.6273168e+2, -1401617.9, -1344962.6, 25740.102, 0.033370625, -0.6969529, -1335014.9, 10140.357, 0.06501248, 9.999377, 10.000139 
2.1549599e+3, 1.7273094e+2, -1310667.4, -1280944.9, 65003.746, 0.04676484, -0.77159446, -1229125.3, 18038.676, 0.018139776, 9.999483, 9.999838 
2.1549866e+3, 1.8273072e+2, -1181111.8, -1173794.9, -10349.893, 0.037677668, -0.76856935, -1166475.8, -17308.254, 0.0026903055, 9.999713, 9.9998 
2.1550113e+3, 1.9273196e+2, -990207.8, -1019616.4, -21536.32, -0.018386956, -0.6466283, -978834.75, 72320.78, 0.00019736934, 10.000319, 9.999886 
2.1550362e+3, 2.0273203e+2, -846099.9, -853391.2, -17325.67, -0.06147237, -0.6385946, -832040.5, 121110.82, 0.0000007869328, 10.000419, 10.000312 
2.155062e+3, 2.1272951e+2, -862207.25, -790157.1, -20348.508, -0.06585809, -0.95335704, -784807.5, 70356.58, 0.0, 9.999557, 10.000481 
2.1550874e+3, 2.2272839e+2, -908383.7, -870052.9, -73279.1, -0.039738283, -1.0694069, -813474.4, -56304.273, 0.0, 9.999037, 9.999512 
2.1551125e+3, 2.3273075e+2, -765411.94, -776610.75, -55897.44, 0.052013613, -0.77827656, -714834.2, -55674.832, 0.0, 9.999467, 9.9992695 
2.1551383e+3, 2.4273211e+2, -604424.4, -618957.6, 17344.807, 0.109568864, -0.57476777, -592885.5, -31732.355, 0.0, 9.99978, 9.999523 
2.1551645e+3, 2.5273106e+2, -453718.25, -487608.88, -5937.406, 0.104748, -0.6522758, -452708.16, 10449.511, 0.0, 10.000101, 9.999599 
2.1551904e+3, 2.6272967e+2, -364045.78, -422890.5, -68665.57, 0.08585144, -0.7373581, -318764.47, 46402.02, 0.0, 10.000163, 9.999345 
2.1552151e+3, 2.7272746e+2, -284392.3, -329835.84, -20578.855, 0.05396734, -0.9107163, -276458.44, -9272.618, 0.0, 10.00003, 9.999368 
2.1552397e+3, 2.8272608e+2, -238992.17, -309469.6, 41329.33, 0.011227133, -0.9605134, -219918.1, -50718.945, 0.000000100631844, 9.999889, 9.998905 
2.1552657e+3, 2.927271e+2, -111807.3, -204999.23, 22776.963, 0.02545286, -0.77254695, -106538.305, -35343.99, 0.0000031808088, 10.000107, 9.998847 
2.1552937e+3, 3.0272815e+2, -9895.181, -492.60126, -23186.15, 0.2463368, -0.5915631, 18464.082, 18464.082, 0.000016571294, 9.999904, 10.000027 
2.155317e+3, 3.127245e+2, 116325.77, 232409.27, 124201.52, 0.094763264, -1.0532557, 311461.88, 311461.88, 0.00004498312, 10.000034, 10.001542 
2.1648538e+3, 1.3270602e+2, -1839617.3, -1998912.4, 32268.473, 0.0932393, -0.4655765, -1833328.9, -193913.64, 0.45757636, 9.999662, 9.997487 
2.1648802e+3, 1.427014e+2, -1696774.8, -1523462.1, 12731.302, 0.01266781, -0.8019402, -1522531.9, 18932.295, 0.3088363, 9.998366, 10.0007925 
2.1649063e+3, 1.5270412e+2, -1376651.5, -1209927.9, 1566.4575, 0.075183675, -0.74859214, -1209913.1, 233515.83, 0.17204043, 9.99938, 10.002061 
2.1649326e+3, 1.6270599e+2, -1355469.0, -1311565.6, 49366.79, 0.12580983, -0.6898858, -1279490.0, 65915.31, 0.07433442, 9.999625, 10.000273 
2.1649598e+3, 1.727057e+2, -1355784.8, -1294951.6, 73575.664, 0.116242185, -0.73172605, -1245753.3, 1657.9238, 0.022589553, 9.999122, 9.999921 
2.1649863e+3, 1.8270549e+2, -1293289.3, -1220401.1, 31712.098, 0.082714275, -0.7345476, -1208535.5, -59121.098, 0.00413868, 9.998908, 9.999866 
2.1650112e+3, 1.9270587e+2, -1073961.8, -1062780.6, 17780.11, -0.028309371, -0.6990866, -1049732.9, 1675.3528, 0.00045452762, 9.999745, 9.999867 
2.1650364e+3, 2.0270549e+2, -907128.2, -914759.44, -9398.093, -0.06735828, -0.7244664, -900800.7, 52606.85, 0.000007502901, 10.000137, 10.000023 
2.1650624e+3, 2.1270359e+2, -867181.9, -832802.44, -31367.973, 0.039430432, -0.939964, -814222.94, 41194.492, 0.0, 9.999702, 10.000115 
2.1650882e+3, 2.2270267e+2, -815902.6, -800012.8, -43127.742, 0.09983137, -1.0228944, -764104.3, -6681.385, 0.0, 9.99957, 9.999732 
2.1651123e+3, 2.327042e+2, -597122.94, -652654.9, -54992.047, 0.027181132, -0.84856266, -563284.7, 96131.85, 0.0, 10.000439, 9.99965 
2.1651372e+3, 2.4270524e+2, -469584.66, -577876.4, -395.31345, 0.0070069823, -0.69192713, -469583.2, 91828.92, 0.0, 10.000788, 9.99933 
2.1651644e+3, 2.5270507e+2, -504980.5, -539031.44, 29663.1, 0.09851497, -0.65337837, -487804.13, -24392.854, 0.0, 9.999878, 9.999344 
2.1651907e+3, 2.6270413e+2, -460628.16, -429444.75, 16933.84, 0.14936359, -0.69297934, -422017.84, -56601.605, 0.0, 9.999342, 9.999687 
2.1652153e+3, 2.727014e+2, -269233.63, -261507.83, -30173.78, 0.089512914, -0.96425176, -234950.67, 32485.139, 0.0, 9.99989, 9.999894 
2.1652402e+3, 2.8269973e+2, -194546.66, -338622.66, -18822.83, 0.046886917, -1.0652345, -192128.14, -22678.816, 0.0000000029805467, 10.000396, 9.998469 
2.1652658e+3, 2.9270044e+2, -101885.305, -261920.14, -40959.42, 0.04120477, -0.83364785, -92011.336, -20562.28, 0.0000013452404, 10.000472, 9.998265 
2.1652944e+3, 3.0270088e+2, 88645.09, 45640.344, -48877.883, 0.3035078, -0.6919932, 120541.22, 120541.22, 0.000010696579, 10.000547, 10.000047 
2.1653177e+3, 3.1269827e+2, 188623.44, 231692.77, -68471.11, 0.10100633, -1.0454512, 281935.78, 281935.78, 0.000035608504, 10.000687, 10.001214 
2.174855e+3, 1.3267505e+2, -1566270.6, -1501215.3, -86925.24, 0.21877739, -0.72654235, -1440931.0, 198788.81, 0.48078975, 10.00009, 10.001531 
2.174878e+3, 1.4267801e+2, -1615206.8, -1414096.5, 42437.81, -0.0801419, -0.6240396, -1405508.1, 136179.63, 0.32934, 9.998416, 10.0019 
2.1749051e+3, 1.5267839e+2, -1393523.5, -1242834.1, 35730.027, -0.0028340474, -0.8002089, -1234791.4, 208886.08, 0.18832743, 9.999359, 10.001828 
2.174932e+3, 1.626789e+2, -1354155.3, -1325646.8, 35520.65, 0.09602868, -0.8537348, -1301627.0, 44041.875, 0.0852701, 9.999692, 10.000137 
2.1749595e+3, 1.7268051e+2, -1347986.5, -1287504.8, 60615.03, 0.15435837, -0.7108939, -1250005.8, -2349.5024, 0.028395085, 9.99916, 9.999948 
2.1749862e+3, 1.82681e+2, -1288024.0, -1220703.0, 46313.96, 0.15922417, -0.64902043, -1197109.5, -47457.22, 0.006367479, 9.998953, 9.999843 
2.175012e+3, 1.9267905e+2, -1076829.6, -1070080.6, 53586.46, 0.073206715, -0.8435896, -1019762.5, 31903.621, 0.0009868387, 9.999747, 9.999817 
2.1750379e+3, 2.0267758e+2, -928042.1, -955838.94, -19897.729, 0.049912788, -0.9628679, -917669.44, 36006.082, 0.000047582707, 10.00012, 9.999751 
2.175064e+3, 2.1267763e+2, -901945.06, -887296.25, -43830.367, 0.1964564, -0.9533327, -850182.5, 5489.3594, 0.00000000032497088, 9.999622, 9.999782 
2.1750888e+3, 2.2267748e+2, -844703.2, -827622.44, -24153.816, 0.21255946, -0.93280375, -810543.6, -52871.805, 0.0, 9.999435, 9.999603 
2.1751118e+3, 2.3267704e+2, -619695.56, -671158.06, -13514.549, -0.062846996, -0.9515894, -616362.4, 43316.53, 0.0, 10.000322, 9.999575 
2.1751362e+3, 2.4267681e+2, -462952.53, -519093.47, -25128.025, -0.18610454, -0.93721366, -453348.5, 108334.07, 0.0, 10.000606, 9.999816 
2.1751638e+3, 2.5267696e+2, -477560.34, -450999.63, -1808.5743, 0.06210781, -0.93343383, -450877.03, 12801.511, 0.0, 9.999749, 10.000007 
2.1751909e+3, 2.626765e+2, -512376.3, -499023.63, 17675.314, 0.20622407, -0.9486977, -486805.78, -121126.44, 0.0, 9.999186, 9.99928 
2.1752156e+3, 2.7267498e+2, -335186.38, -380261.72, 1207.6917, 0.12994055, -1.0328594, -335154.03, -67465.125, 0.0, 9.999818, 9.99911 
2.175241e+3, 2.8267354e+2, -260164.33, -425064.8, -16429.656, 0.06664067, -1.0386857, -258543.33, -88842.766, 0.0, 10.0002, 9.997959 
2.1752663e+3, 2.9267165e+2, -135702.61, -317875.3, -28961.344, 0.027512595, -1.0289308, -131209.23, -59486.797, 0.00000028754212, 10.000403, 9.997916 
2.1752937e+3, 3.026693e+2, -12704.282, -57766.945, -54827.1, 0.14563121, -1.1310364, 24040.621, 24040.621, 0.0000061160813, 10.000154, 9.999495 
2.1753204e+3, 3.1267363e+2, -104942.07, -232909.28, -82331.72, 0.27178353, -0.7033672, -64654.805, -64654.805, 0.00002746077, 10.000081, 9.998313 
2.1848765e+3, 1.4265437e+2, -1606884.6, -1426882.0, 16062.468, -0.05597706, -0.6277812, -1425460.0, 116452.68, 0.34983045, 9.998508, 10.001755 
2.1849053e+3, 1.526518e+2, -1438535.1, -1374992.3, 70438.52, 0.07204207, -0.96998376, -1329491.4, 114444.98, 0.2059314, 9.999607, 10.000632 
2.1849316e+3, 1.626543e+2, -1350879.9, -1327997.9, 4207.8955, 0.08859583, -0.75294787, -1327248.6, 18662.98, 0.09816949, 9.999746, 10.00009 
2.184959e+3, 1.7265522e+2, -1282530.0, -1237173.1, 21183.887, 0.17247319, -0.6881704, -1228818.3, 19085.654, 0.036017943, 9.999563, 10.000096 
2.1849859e+3, 1.8265517e+2, -1210802.4, -1168396.5, 46413.47, 0.20759414, -0.6945026, -1138572.3, 11331.28, 0.009796201, 9.999417, 9.999978 
2.1850123e+3, 1.9265321e+2, -1146081.1, -1085992.3, 62261.76, 0.1599333, -0.90341204, -1046905.0, 5011.089, 0.0020521113, 9.999203, 9.999964 
2.1850383e+3, 2.0265193e+2, -1087648.1, -1052903.0, 2820.4856, 0.15422302, -1.0066577, -1052675.5, -98751.41, 0.00020967671, 9.999118, 9.999572 
2.1850637e+3, 2.1265242e+2, -922409.56, -926085.06, -36188.01, 0.22734885, -0.92421967, -888012.7, -32092.91, 0.00000086887735, 9.999611, 9.999521 
2.1850884e+3, 2.226525e+2, -797143.5, -812548.3, 4238.861, 0.21197556, -0.8638905, -796054.1, -38134.67, 0.0, 9.999779, 9.999554 
2.1851121e+3, 2.3265167e+2, -769964.25, -732482.9, 16470.49, -0.006077899, -0.92338073, -726273.8, -66347.01, 0.0, 9.999252, 9.999667 
2.1851367e+3, 2.4265102e+2, -721125.0, -652063.94, -11906.068, -0.09378473, -0.9542351, -650068.94, -88136.72, 0.0, 9.998863, 9.999745 
2.1851636e+3, 2.526506e+2, -615508.1, -537034.06, -64127.754, 0.10508163, -0.9912981, -501091.9, -37157.18, 0.0, 9.99887, 9.999851 
2.1851902e+3, 2.6264995e+2, -498119.94, -521970.6, -17918.338, 0.21871349, -1.0068837, -488521.3, -122582.81, 0.0, 9.999391, 9.999038 
2.1852161e+3, 2.7264878e+2, -161422.83, -329853.53, -7347.152, 0.12833281, -1.0238478, -161102.94, 106843.06, 0.0, 10.001136, 9.998835 
2.1852419e+3, 2.826473e+2, -16157.79, -294153.9, -29322.566, 0.06693963, -1.0241686, -13098.561, 156858.88, 0.0, 10.001795, 9.998101 
2.1852666e+3, 2.9264474e+2, -117681.69, -280219.34, -28004.24, 0.018807724, -1.0969781, -112992.04, -41009.684, 0.000000027227998, 10.000395, 9.998184 
2.1852933e+3, 3.0264255e+2, -37553.734, -43271.504, 22671.244, 0.11612564, -1.2218454, -17561.83, -17561.83, 0.0000044959556, 9.999811, 9.999793 
2.1853203e+3, 3.1264737e+2, -128660.72, -199863.16, 4238.888, 0.2955699, -0.75076663, -128409.25, -128409.25, 0.000025056414, 9.999657, 9.998772 
2.1948746e+3, 1.4263026e+2, -1712975.6, -1569967.3, -258178.44, -0.14076032, -0.7901096, -1373574.1, 168566.84, 0.371045, 9.998506, 10.000777 
2.1949065e+3, 1.5262404e+2, -1580714.0, -1668120.9, 130266.95, 0.24011569, -1.2626818, -1487014.9, -42805.973, 0.22535217, 9.999618, 9.998475 
2.1949312e+3, 1.6263233e+2, -1346419.6, -1327135.5, -14870.797, 0.0327988, -0.3497305, -1319054.5, 27077.64, 0.113554515, 9.999786, 10.000081 
2.1949582e+3, 1.7262965e+2, -1268824.6, -1206803.4, 21794.68, 0.122930825, -0.66381335, -1199910.6, 48245.035, 0.046104282, 9.999555, 10.000317 
2.1949849e+3, 1.8262765e+2, -1186703.1, -1122846.9, 41613.863, 0.16140088, -0.8889113, -1102323.9, 47847.387, 0.015073848, 9.999432, 10.000291 
2.1950117e+3, 1.9262825e+2, -1122426.6, -1033801.44, 60159.645, 0.17503707, -0.87815076, -1003396.0, 48763.27, 0.004138987, 9.999194, 10.000326 
2.1950379e+3, 2.0262845e+2, -1103251.6, -1079785.5, 10268.432, 0.16397384, -0.8486497, -1075926.8, -121772.94, 0.00072646124, 9.999094, 9.999396 
2.1950617e+3, 2.1262786e+2, -956583.0, -977370.3, -13452.049, 0.07059399, -0.846798, -949977.06, -93814.68, 0.000022642807, 9.99953, 9.999203 
2.1950865e+3, 2.2262754e+2, -810975.2, -812540.4, -11696.624, 0.029478943, -0.8097095, -800035.0, -41867.816, 0.000000000011542125, 9.999652, 9.999614 
2.1951129e+3, 2.3262784e+2, -765491.8, -709792.75, 520.7526, 0.13186076, -0.7775942, -709787.9, -49625.33, 0.0, 9.999189, 9.999852 
2.1951386e+3, 2.4262752e+2, -792406.1, -761899.56, -23809.643, 0.19176477, -0.76025045, -748876.3, -186711.98, 0.0, 9.998711, 9.999058 
2.195163e+3, 2.5262582e+2, -692634.06, -682127.3, -57630.367, 0.16250667, -0.83712524, -629511.4, -165330.16, 0.0, 9.998814, 9.998878 
2.1951884e+3, 2.626242e+2, -540158.25, -564709.8, 31069.447, 0.10247546, -0.878612, -519027.38, -152831.48, 0.0, 9.999217, 9.998816 
2.1952161e+3, 2.7262244e+2, -179896.72, -328859.44, 67739.65, 0.017079629, -0.9613286, -153699.72, 114510.195, 0.0, 10.000979, 9.998907 
2.1952426e+3, 2.8262052e+2, -3655.9453, -212436.69, -66662.516, -0.059122108, -1.0384363, 15813.445, 186038.34, 0.0, 10.001569, 9.998766 
2.1952663e+3, 2.926194e+2, -96498.24, -198332.19, -62946.508, -0.059910204, -1.0458797, -66453.484, 5777.705, 0.000000020729713, 10.000236, 9.998821 
2.195292e+3, 3.026196e+2, -22271.63, 81643.13, 21375.6, -0.002823704, -0.9932746, 85868.36, 85868.36, 0.0000055230016, 9.999452, 10.000793 
2.1953179e+3, 3.1261712e+2, -58578.227, 55873.133, 91863.86, 0.07878331, -1.4012597, 106877.516, 106877.516, 0.000029811183, 9.999243, 10.000693 
2.2048743e+3, 1.4260599e+2, -1710811.1, -1576367.3, -313948.8, -0.014990309, -0.80730283, -1322524.4, 219852.9, 0.39437363, 9.998635, 10.000831 
2.2049081e+3, 1.5260011e+2, -1517063.1, -1689549.8, 149395.47, 0.41237682, -1.1801186, -1430804.5, 13638.254, 0.24751917, 10.000288, 9.998017 
2.2049299e+3, 1.6260722e+2, -1311572.6, -1336508.8, 33132.3, -0.07085636, -0.36265722, -1288640.1, 57737.71, 0.13222682, 10.000156, 9.999855 
2.2049578e+3, 1.7260408e+2, -1253967.1, -1257945.1, 25512.773, 0.12639822, -0.6764242, -1230365.9, 18039.805, 0.059555795, 9.999861, 9.999837 
2.2049849e+3, 1.8260172e+2, -1176663.4, -1127752.9, 17932.059, 0.22731799, -0.9083, -1121882.9, 28542.098, 0.023171267, 9.999529, 10.000218 
2.2050112e+3, 1.9260243e+2, -1083565.3, -1013809.75, -2854.9116, 0.19258656, -0.8855622, -1013693.06, 38718.62, 0.008108057, 9.999439, 10.0003605 
2.2050372e+3, 2.026028e+2, -1023641.6, -1031736.5, -24358.033, 0.16681033, -0.84310275, -1002997.06, -48592.56, 0.0021629941, 9.999598, 9.999489 
2.205062e+3, 2.1260229e+2, -793468.7, -888845.25, -18244.293, 0.09550719, -0.8412106, -790097.94, 66314.56, 0.00023583506, 10.000596, 9.999303 
2.2050871e+3, 2.226018e+2, -599074.9, -730317.06, -28206.002, 0.07444532, -0.81763834, -593269.75, 165149.38, 0.0000019906881, 10.001192, 9.999436 
2.205113e+3, 2.3260173e+2, -551221.2, -641189.56, -76947.84, 0.15371121, -0.79532063, -507073.2, 153345.33, 0.0, 10.000793, 9.999562 
2.2051384e+3, 2.4260114e+2, -523052.66, -630126.94, -71391.31, 0.2159155, -0.78379405, -487354.47, 75068.6, 0.0, 10.000538, 9.999087 
2.2051634e+3, 2.5259987e+2, -375328.38, -499269.88, -37603.523, 0.20124324, -0.8346007, -364811.88, 99622.914, 0.0, 10.000899, 9.9991045 
2.205189e+3, 2.6259884e+2, -321972.47, -467365.1, 112800.336, 0.16047299, -0.835228, -260472.39, 105971.97, 0.0, 10.000736, 9.998761 
2.2052166e+3, 2.7259746e+2, -427407.44, -463522.84, 132221.98, 0.050409373, -0.8591675, -312015.78, -43558.645, 0.0, 9.999336, 9.998781 
2.205243e+3, 2.8259584e+2, -399648.28, -309264.47, -8091.091, -0.02822519, -0.9393558, -308545.84, -138075.89, 0.0, 9.998459, 9.999596 
2.2052664e+3, 2.9259437e+2, -163805.64, -119746.375, -15391.92, -0.033068296, -1.0788957, -114901.93, -42426.75, 0.00000007580395, 9.999298, 9.999817 
2.2052923e+3, 3.0259505e+2, 38323.31, -20316.006, 76476.5, 0.048121553, -0.99519324, 90907.84, 90907.84, 0.0000083740215, 10.000389, 9.99967 
2.2053191e+3, 3.1259182e+2, 300660.22, 227964.33, -121579.71, 0.15932463, -1.3114072, 391209.1, 391209.1, 0.000042885644, 10.001674, 10.000726 
2.2148779e+3, 1.425819e+2, -1579530.6, -1407588.5, 23205.705, 0.43449417, -0.6119685, -1404511.8, 138106.52, 0.4221777, 9.998569, 10.002094 
2.21491e+3, 1.5258004e+2, -1453171.1, -1521841.0, 150515.8, 0.5470883, -0.69278026, -1333123.8, 111514.14, 0.27423543, 10.000277, 9.999286 
2.2149277e+3, 1.6257848e+2, -1333080.4, -1381255.1, 12821.494, -0.31849727, -0.8113096, -1329880.5, 16773.182, 0.15564767, 10.00014, 9.999535 
2.2149575e+3, 1.7257844e+2, -1332103.0, -1416119.0, 17836.086, 0.114542946, -0.7229592, -1328473.4, -79818.33, 0.07778218, 9.999841, 9.998756 
2.2149856e+3, 1.8257736e+2, -1205667.8, -1203126.0, 7386.646, 0.3306979, -0.7348059, -1196901.8, -46237.445, 0.035576556, 9.999585, 9.999675 
2.2150105e+3, 1.9257568e+2, -1111371.0, -1066517.0, -3631.6152, 0.15914264, -0.9139909, -1066224.9, -13550.808, 0.0154146915, 9.999419, 10.000005 
2.2150362e+3, 2.0257482e+2, -1002028.9, -981010.6, -393.1343, 0.08772508, -0.9897952, -981003.3, -26325.256, 0.005714695, 9.999571, 9.999848 
2.2150642e+3, 2.1257553e+2, -765429.56, -811839.0, 26721.844, 0.23617627, -0.91852146, -753243.4, 103428.61, 0.0013616167, 10.000516, 9.999868 
2.2150904e+3, 2.2257538e+2, -661306.3, -820730.0, -35640.05, 0.2606806, -0.8736939, -653701.5, 104972.875, 0.00013056793, 10.001026, 9.998896 
2.2151126e+3, 2.3257333e+2, -624759.1, -767885.25, -86395.12, 0.011104021, -0.9709194, -584137.56, 76557.336, 0.0000045921656, 10.000679, 9.998747 
2.215136e+3, 2.4257195e+2, -512448.2, -551851.94, -73121.91, -0.09549709, -1.0112976, -456420.44, 106287.3, 0.000000030624218, 10.000312, 9.999726 
2.215164e+3, 2.5257263e+2, -312829.8, -335784.4, -18495.16, 0.16285995, -0.981911, -302540.16, 162157.33, 0.0, 10.000756, 10.000296 
2.2151911e+3, 2.625734e+2, -343706.72, -461646.8, 60918.98, 0.30255154, -0.8813221, -317891.22, 48797.344, 0.0, 10.000534, 9.998891 
2.215217e+3, 2.725738e+2, -466152.28, -509910.28, 79770.11, 0.15237921, -0.71626204, -405315.13, -136625.6, 0.0, 9.999199, 9.998523 
2.2152422e+3, 2.8257298e+2, -386515.97, -217449.9, -6195.282, 0.028598184, -0.72385764, -217223.19, -46526.85, 0.0, 9.998201, 10.000338 
2.2152661e+3, 2.9256925e+2, -111361.23, 12540.567, 27198.61, 0.01891125, -1.1966873, 18248.21, 90966.086, 0.00000027397763, 9.999215, 10.000752 
2.2152936e+3, 3.025684e+2, -203602.64, -449909.38, 113543.15, 0.11353345, -1.200254, -159248.4, -159248.4, 0.000015050563, 10.000123, 9.996823 
2.2153206e+3, 3.125701e+2, 35505.117, -160699.3, -105537.234, 0.11247257, -0.673195, 81493.68, 81493.68, 0.00007034586, 10.001038, 9.998339 
2.2248696e+3, 1.4255026e+2, -1784208.8, -1967316.0, 154073.4, -0.30742374, -1.0129839, -1696540.0, -153617.36, 0.45833316, 9.999504, 9.997116 
2.2249082e+3, 1.5255448e+2, -1627582.3, -1416177.1, 140877.11, 0.4728306, -0.7181118, -1345756.5, 99123.82, 0.30885017, 9.99803, 10.001217 
2.2249277e+3, 1.6255236e+2, -1350747.3, -1449164.0, 35382.316, -0.3353196, -0.98549044, -1339347.3, 7552.6543, 0.18666483, 10.000265, 9.999 
2.2249587e+3, 1.725521e+2, -1240739.4, -1484435.3, -5334.6177, 0.19597653, -0.8197636, -1240622.6, 8283.837, 0.103338934, 10.000982, 9.997727 
2.2249873e+3, 1.8255088e+2, -1048052.06, -1193214.5, -10099.302, 0.47340035, -0.7590096, -1047352.75, 103567.555, 0.054786276, 10.001008, 9.999062 
2.225011e+3, 1.9254869e+2, -900248.9, -1017817.8, -34255.113, 0.19675271, -0.93808657, -890996.44, 161941.34, 0.028543482, 10.001117, 9.999528 
2.2250359e+3, 2.0254764e+2, -786839.9, -875316.44, -30282.902, 0.060817644, -1.0064166, -777467.75, 177477.73, 0.013685946, 10.001051, 9.9998665 
2.2250645e+3, 2.125492e+2, -783970.9, -802042.06, -49255.543, 0.23589076, -0.86519116, -742929.0, 114002.445, 0.005262215, 10.000306, 10.000042 
2.225091e+3, 2.2254947e+2, -823356.6, -865314.7, -102963.93, 0.2851661, -0.79962724, -739256.2, 19673.08, 0.001420654, 9.999751, 9.99921 
2.2251126e+3, 2.3254691e+2, -744820.7, -782872.56, -81455.805, 0.0076758326, -0.98562735, -680198.4, -19245.11, 0.0002619265, 9.999659, 9.999144 
2.2251357e+3, 2.4254529e+2, -592599.0, -566790.4, 3037.3606, -0.107310586, -1.0792114, -566437.75, -3470.9204, 0.000035642544, 9.999639, 9.99996 
2.225164e+3, 2.5254664e+2, -424930.34, -365498.0, -4817.323, 0.15682735, -1.0039824, -365110.03, 99839.04, 0.0000011567587, 9.999846, 10.000552 
2.2251911e+3, 2.6254758e+2, -475810.9, -528063.94, -3529.895, 0.30457553, -0.90131974, -475573.53, -108635.03, 0.0, 9.999637, 9.998865 
2.2252159e+3, 2.7254713e+2, -475057.28, -522677.53, -10998.319, 0.13360578, -0.80597234, -472639.84, -203690.78, 0.0, 9.999196, 9.998427 
2.2252409e+3, 2.825464e+2, -215575.31, -137254.22, -36488.125, 0.053483944, -0.8075434, -122889.71, 48067.25, 0.0, 9.999361, 10.000344 
2.2252673e+3, 2.9254362e+2, 124868.7, 120621.61, -71023.54, 0.13552256, -1.1710396, 193800.44, 266770.4, 0.00000073017384, 10.000859, 10.000707 
2.2252955e+3, 3.0254254e+2, -74558.46, -422657.66, 14028.915, 0.23728244, -1.2015702, -73993.984, -73993.984, 0.00002755439, 10.001131, 9.996537 
2.2253203e+3, 3.125427e+2, -161394.72, -286758.94, -44572.04, 0.0508721, -0.76585466, -147163.16, -147163.16, 0.000118261974, 9.999758, 9.998105 
2.2349024e+3, 1.5252334e+2, -1464181.4, -1123506.9, 141144.44, 0.08006882, -1.2275907, -1072628.1, 372542.78, 0.35698506, 9.99778, 10.004328 
2.23493e+3, 1.6252874e+2, -1424959.3, -1586484.9, 90891.45, -0.17812791, -0.8933811, -1384133.0, -37015.918, 0.23053116, 10.000173, 9.998102 
2.2349612e+3, 1.7252485e+2, -1329622.0, -1654973.8, 13075.969, 0.32152757, -0.97928107, -1329097.3, -79935.25, 0.14104874, 10.000905, 9.996595 
2.2349896e+3, 1.8252191e+2, -1102237.8, -1296898.4, -15618.167, 0.56660473, -1.0013356, -1100992.6, 50203.848, 0.08532412, 10.000961, 9.998369 
2.2350127e+3, 1.9252127e+2, -944832.94, -1096492.5, -23993.553, 0.2489041, -0.9694404, -941127.5, 112077.12, 0.05187056, 10.001073, 9.999004 
2.2350366e+3, 2.0252138e+2, -823166.2, -927985.94, -50543.56, 0.0121671725, -0.8763992, -802765.06, 152440.81, 0.030293982, 10.000975, 9.999538 
2.235063e+3, 2.1252316e+2, -816945.5, -846253.1, -71386.35, 0.042852066, -0.68607897, -758724.44, 98467.305, 0.015773455, 10.000203, 9.999791 
2.2350886e+3, 2.2252385e+2, -779608.1, -721877.9, -116554.875, 0.06953757, -0.6023665, -630667.06, 128518.6, 0.0069356123, 9.999537, 10.000294 
2.2351128e+3, 2.3252207e+2, -645190.7, -557785.8, -77797.6, 0.06870114, -0.86733836, -512256.16, 148940.9, 0.002541045, 9.999578, 10.000725 
2.2351372e+3, 2.4252087e+2, -633643.2, -605191.9, -394.9472, 0.07713917, -1.0052285, -605186.4, -41983.23, 0.00075579167, 9.999451, 9.99978 
2.2351636e+3, 2.5252193e+2, -488906.03, -462791.22, 6809.222, 0.11211599, -0.909984, -461122.4, 4067.0842, 0.00014769337, 9.999693, 9.999955 
2.2351888e+3, 2.625215e+2, -555932.7, -609685.6, -33553.26, 0.0711452, -0.88683736, -539818.9, -172626.16, 0.000007045108, 9.999299, 9.998453 
2.2352134e+3, 2.7251765e+2, -514086.06, -561475.25, -18887.29, -0.059951216, -1.1139507, -507479.47, -238244.4, 0.00000000065814787, 9.999028, 9.998228 
2.2352394e+3, 2.8251594e+2, -301455.16, -254134.3, -8888.897, -0.047282644, -1.181856, -252519.67, -81266.5, 0.0, 9.9991255, 9.999639 
2.2352692e+3, 2.925176e+2, 9492.843, -56216.625, -8345.355, 0.22286639, -1.0122567, 10536.169, 83766.14, 0.0000012574419, 10.000612, 9.999597 
2.2352968e+3, 3.0251673e+2, -36846.105, -216210.86, -36598.49, 0.2218003, -1.0240092, -29665.805, -29665.805, 0.000044073433, 10.000629, 9.998172 
2.2353198e+3, 3.125139e+2, -201483.08, -219416.84, 70412.414, 0.0048935143, -1.108296, -139468.89, -139468.89, 0.00018419352, 9.999177, 9.998826 
2.2448999e+3, 1.5249476e+2, -1606268.4, -1376118.0, 140474.8, 0.018955262, -1.2110546, -1309601.8, 135846.36, 0.42759266, 9.998019, 10.001709 
2.2449335e+3, 1.6249862e+2, -1094629.4, -1360695.8, -218322.1, 0.04445986, -0.87578803, -972001.9, 375411.75, 0.29616648, 10.003061, 9.998529 
2.2449619e+3, 1.7249599e+2, -1046263.3, -1357014.6, -230480.72, 0.24245937, -0.9539779, -923676.8, 325769.4, 0.19952731, 10.00266, 9.997914 
2.2449885e+3, 1.8249415e+2, -1018345.06, -1211002.8, -150775.1, 0.36515602, -0.9623786, -935753.9, 215715.92, 0.13536815, 10.001474, 9.998772 
2.2450127e+3, 1.9249432e+2, -1156426.4, -1185322.3, -139442.02, 0.23069897, -0.8655172, -1030685.8, 22785.107, 0.09319166, 9.999498, 9.999175 
2.2450374e+3, 2.0249474e+2, -1176171.8, -1056219.8, -76009.32, 0.11592432, -0.7714808, -1019373.56, -63904.68, 0.06306426, 9.998298, 9.999972 
2.245063e+3, 2.1249509e+2, -993939.3, -885158.3, -53594.34, 0.08942154, -0.76239586, -863189.9, -5724.151, 0.0400799, 9.998756, 10.000242 
2.2450884e+3, 2.2249529e+2, -766186.1, -670167.0, -52176.316, 0.092049986, -0.76910675, -647273.2, 112189.51, 0.023131557, 9.999402, 10.00074 
2.2451136e+3, 2.3249575e+2, -571239.75, -469786.2, -104850.33, 0.17135267, -0.8555878, -404036.4, 257417.39, 0.011994159, 9.999854, 10.001212 
2.2451384e+3, 2.4249594e+2, -575690.6, -608212.75, -89619.2, 0.23242603, -0.8725478, -500869.16, 62579.098, 0.0054928027, 9.999969, 9.999515 
2.2451636e+3, 2.524959e+2, -598375.25, -554652.5, -90438.48, 0.17844516, -0.8470952, -483470.7, -18024.896, 0.002050329, 9.999107, 9.999608 
2.2451878e+3, 2.624944e+2, -690401.56, -649720.2, -87570.36, 0.108723246, -0.9142317, -580159.2, -212699.77, 0.0004876709, 9.998245, 9.998699 
2.245213e+3, 2.724905e+2, -480900.16, -479521.2, -5653.157, 0.027477046, -1.1929879, -474515.63, -205015.47, 0.000047167257, 9.998964, 9.998833 
2.2452395e+3, 2.8249e+2, -301082.53, -303862.06, 73042.55, 0.027590092, -1.1658432, -229416.52, -57909.54, 0.00000034188096, 9.99935, 9.999186 
2.2452688e+3, 2.924936e+2, -61288.766, -193599.22, 61255.69, 0.13200927, -0.702043, -37284.277, 36187.055, 0.0000013302117, 10.0005665, 9.998678 
2.245298e+3, 3.0249074e+2, 173408.64, -12296.866, -3908.893, 0.25484177, -0.9203642, 173490.88, 173490.88, 0.0000584347, 10.001587, 9.999124 
2.2453223e+3, 3.1248936e+2, 74855.49, -93244.78, -34147.273, 0.23535223, -0.9536958, 81527.25, 81527.25, 0.00025944764, 10.001052, 9.99879 
2.2549382e+3, 1.6246176e+2, -1124343.6, -1284387.5, -159339.95, 0.1547655, -0.9288198, -1026060.4, 321732.0, 0.39765337, 10.002669, 9.999379 
2.2549617e+3, 1.7246512e+2, -877718.4, -921717.9, -219375.14, -0.100087926, -0.76480556, -679242.6, 570520.4, 0.29298013, 10.002576, 10.001758 
2.2549848e+3, 1.8246734e+2, -987511.1, -1060508.3, -206619.13, -0.19739293, -0.65782374, -814191.7, 337551.3, 0.21888196, 10.001239, 10.000124 
2.2550108e+3, 1.9246745e+2, -1141333.1, -1108748.0, -204499.19, 0.07164133, -0.65013665, -919893.4, 133847.2, 0.16615056, 9.999347, 9.999858 
2.2550374e+3, 2.0246723e+2, -1119150.1, -911991.75, -77652.06, 0.26098362, -0.71583456, -886116.4, 69622.9, 0.12546477, 9.998158, 10.00108 
2.2550637e+3, 2.1246468e+2, -923580.25, -737665.06, -25357.188, 0.28363755, -1.115155, -734268.6, 123487.66, 0.0914258, 9.998697, 10.001359 
2.2550896e+3, 2.2246376e+2, -803494.25, -716780.75, -33108.605, 0.25748628, -1.29306, -705584.9, 54175.734, 0.062582165, 9.999263, 10.000496 
2.2551145e+3, 2.3246811e+2, -630198.5, -568964.5, -78259.65, 0.2693185, -0.9408812, -515545.94, 146176.63, 0.039919913, 9.999734, 10.00061 
2.2551389e+3, 2.4247062e+2, -675053.9, -710170.4, -123485.74, 0.26429942, -0.6580014, -567884.4, -4183.7275, 0.023601582, 9.99954, 9.999008 
2.2551638e+3, 2.524686e+2, -635690.06, -590362.56, -122155.5, 0.27577132, -0.81851196, -488786.16, -23068.635, 0.012405956, 9.998946, 9.999429 
2.255188e+3, 2.6246592e+2, -672828.75, -561034.0, -104422.055, 0.30922642, -1.0056808, -498489.47, -130747.71, 0.005154125, 9.9980345, 9.999405 
2.2552146e+3, 2.724655e+2, -422677.47, -300376.6, 23041.398, 0.28727734, -1.074019, -296179.63, -26432.783, 0.0013586987, 9.998726, 10.000171 
2.25524e+3, 2.824682e+2, -413451.34, -414002.34, 75135.74, 0.12620786, -0.7884225, -338590.6, -166868.36, 0.00015517221, 9.998861, 9.998644 
2.2552663e+3, 2.924714e+2, -178739.9, -345927.78, 116492.28, -0.18204108, -0.25732097, -118951.836, -45255.734, 0.0000026982873, 10.000236, 9.997757 
2.2552991e+3, 3.024643e+2, 134006.39, 1491.5524, -6721.4976, 0.15942825, -0.8854165, 134346.45, 134346.45, 0.000065484004, 10.001221, 9.9993725 
2.255325e+3, 3.1246555e+2, -69305.12, -313583.75, 22888.523, 0.35662955, -0.64671856, -67179.01, -67179.01, 0.00034262595, 10.000741, 9.997429 
2.2649604e+3, 1.7243566e+2, -1410154.8, -1265177.5, 336014.6, -0.23917434, -1.1500973, -993921.4, 256120.89, 0.44342524, 9.998311, 10.001487 
2.2649917e+3, 1.8244196e+2, -699590.06, -972774.2, 54081.336, 0.19321148, -0.691899, -689273.4, 462712.88, 0.3585124, 10.004862, 9.99941 
2.2650135e+3, 1.9244078e+2, -886387.2, -1003634.4, -57063.934, 0.27904752, -0.74459946, -863199.94, 190795.61, 0.29413474, 10.001696, 9.999452 
2.2650361e+3, 2.0243953e+2, -923805.0, -852841.25, 56615.914, 0.28310266, -0.8931488, -821507.5, 134496.1, 0.24160613, 9.99956, 10.000989 
2.2650622e+3, 2.1243794e+2, -806712.7, -720017.7, 31950.436, 0.22340289, -1.1773112, -709515.06, 148496.4, 0.1940874, 9.999628, 10.001195 
2.2650886e+3, 2.2243764e+2, -717676.44, -699909.6, -19589.217, 0.1986675, -1.2843466, -687283.7, 72727.32, 0.14888066, 9.999937, 10.000352 
2.2651128e+3, 2.3244144e+2, -721544.6, -634791.2, -73066.42, 0.16766389, -0.9567049, -593195.9, 68785.35, 0.108788945, 9.999173, 10.000456 
2.2651374e+3, 2.424437e+2, -672144.75, -644189.7, -12929.574, 0.18540423, -0.71526366, -639126.6, -75163.13, 0.07581198, 9.99919, 9.999664 
2.2651646e+3, 2.524421e+2, -304309.53, -373121.78, 38980.367, 0.37994432, -0.9026494, -286722.84, 179251.61, 0.048806984, 10.0009165, 10.000063 
2.2651897e+3, 2.624396e+2, -201383.94, -422665.25, 34436.19, 0.48606208, -1.0630614, -196148.77, 171846.78, 0.026684597, 10.001634, 9.998639 
2.2652148e+3, 2.724388e+2, -94201.43, -247238.6, 3200.021, 0.30347162, -1.0841815, -94134.55, 175870.4, 0.010897145, 10.001367, 9.999296 
2.2652388e+3, 2.8244084e+2, -358726.88, -408298.38, -45960.61, 0.113704585, -0.80373025, -331294.7, -159306.64, 0.002788968, 9.99929, 9.998493 
2.2652674e+3, 2.924433e+2, -308510.88, -370833.66, 123492.48, -0.046827056, -0.35498604, -212308.9, -138338.94, 0.0003034348, 9.9991865, 9.998093 
2.265301e+3, 3.0243632e+2, 48718.156, -17771.943, 94723.88, 0.27702188, -1.0393361, 115861.586, 115861.586, 0.000074942734, 10.000593, 9.999533 
2.265327e+3, 3.1243572e+2, 417044.25, -162683.44, -3736.835, 0.29294124, -0.85273373, 417068.34, 417068.34, 0.00045627917, 10.004357, 9.996775 
2.2750376e+3, 2.0241195e+2, -1043786.94, -1087391.0, 73225.11, 0.4155775, -1.248935, -989187.06, -32928.66, 0.4526298, 9.99956, 9.999126 
2.2750644e+3, 2.1241446e+2, -1007901.2, -966987.9, 155534.56, 0.4652186, -0.98314995, -830570.5, 27664.725, 0.38963944, 9.998945, 9.999649 
2.2750913e+3, 2.2241631e+2, -1166744.9, -952591.44, 85324.78, 0.43846643, -0.7851647, -922753.06, -162533.45, 0.32267725, 9.997002, 9.999936 
2.2751108e+3, 2.3241435e+2, -1018029.6, -750638.75, -41177.992, 0.03258239, -1.0564768, -744441.0, -82197.266, 0.25840095, 9.9970455, 10.000609 
2.275134e+3, 2.4241371e+2, -672737.06, -531466.56, 33834.9, -0.12784149, -1.1643469, -523781.06, 40470.402, 0.20062341, 9.998681, 10.000728 
2.2751662e+3, 2.5241613e+2, -282675.56, -227159.28, 95048.2, 0.41450152, -1.1346625, -155898.86, 310320.88, 0.14660953, 10.000555, 10.001459 
2.2751918e+3, 2.624159e+2, -532048.06, -880195.2, -3592.5903, 0.51521784, -1.0430154, -532011.0, -163793.73, 0.09444842, 10.000643, 9.995942 
2.2752136e+3, 2.7241132e+2, -351538.13, -689823.25, -21422.953, 0.035529032, -1.1686051, -350186.84, -79920.56, 0.04983968, 10.000993, 9.9964 
2.2752361e+3, 2.824086e+2, -441095.6, -444474.1, -146050.8, -0.104244195, -1.1754433, -296724.28, -124426.945, 0.019500945, 9.998751, 9.998478 
2.2752705e+3, 2.9241022e+2, -260566.05, -203767.3, 118691.016, 0.35706583, -0.9469387, -110125.37, -35841.06, 0.004786881, 9.998933, 9.999341 
2.2753026e+3, 3.024079e+2, -29907.623, -70416.41, 154324.95, 0.33658266, -1.2555764, 105486.4, 105486.4, 0.0007184054, 10.000197, 9.999322 
2.2753264e+3, 3.1240195e+2, 242086.02, -313234.88, 47500.684, -0.21873051, -1.4902812, 246119.8, 246119.8, 0.000778247, 10.003626, 9.996003 
2.2851405e+3, 2.4238867e+2, -470543.06, -1097805.9, 329487.63, 0.2946007, -1.120236, -329282.44, 235203.72, 0.45869297, 10.003813, 9.994893 
2.2851631e+3, 2.5239143e+2, -221757.31, -482819.63, -313463.53, -0.08647057, -0.6660146, -12733.229, 453730.97, 0.36361384, 10.003339, 9.998724 
2.2851877e+3, 2.6238468e+2, -464593.25, -719199.0, -430285.2, -0.0024635938, -1.084942, -143174.2, 225358.03, 0.26167566, 10.000715, 9.997281 
2.285217e+3, 2.7238348e+2, 89925.34, -232124.13, -96275.14, 0.17744079, -1.068677, 116511.56, 387053.53, 0.1640845, 10.003428, 9.998523 
2.285241e+3, 2.8238133e+2, 47503.21, -224558.2, -107897.48, 0.32913098, -1.1203524, 85099.164, 257661.55, 0.0825175, 10.0022955, 9.998325 
2.2852698e+3, 2.9237992e+2, 404274.72, 17291.715, 157084.89, 0.13213451, -1.1366762, 460011.28, 534589.6, 0.030766595, 10.003954, 9.998518 
2.2852989e+3, 3.0238092e+2, 450845.06, 110229.61, 70892.336, -0.22769476, -1.0314063, 465010.75, 465010.75, 0.0090491865, 10.003627, 9.998975 
2.2853349e+3, 3.123765e+2, 215427.03, 88974.266, -50138.906, 0.35157987, -1.1321181, 232894.42, 232894.42, 0.003959013, 10.001615, 9.999743 
2.295226e+3, 2.7235177e+2, -286459.75, 72727.24, -104915.05, 0.73924214, -1.1720556, 101126.51, 371992.13, 0.4346357, 9.997141, 10.005389 
2.295251e+3, 2.82359e+2, -735159.0, -715898.75, -386140.9, 1.0695367, -0.71187854, -339267.9, -166485.05, 0.25416973, 9.997324, 9.997262 
2.2952652e+3, 2.9235443e+2, 1258.5101, -431843.9, 196479.83, -0.7385705, -0.9302931, 77108.99, 151940.25, 0.12169165, 10.002458, 9.996046 
2.2952905e+3, 3.023568e+2, -122871.11, -329921.03, -43941.727, -1.4785986, -0.43924814, -113931.44, -113931.44, 0.0537081, 10.000498, 9.997362 
2.295352e+3, 3.123589e+2, 515935.44, 950501.8, -30022.676, 1.8702247, -0.027853856, 952566.2, 952566.2, 0.030771257, 10.000778, 10.0061865 
2.3052676e+3, 2.923226e+2, 188686.11, 226535.0, -632692.5, -1.0700336, -0.7434924, 840586.0, 915739.1, 0.35937858, 10.001822, 10.002948 
2.3053306e+3, 3.0231926e+2, -1062720.1, -344348.72, 56738.656, 2.646691, -1.5932316, -339894.97, -339894.97, 0.21126677, 9.99194, 10.001451 
2.3053285e+3, 3.1231374e+2, 125271.41, -512571.4, 554369.3, -0.778377, -1.4090272, 445909.38, 445909.38, 0.16128777, 10.003335, 9.995268 
2.3517178e+3, 2.78698e+2, 148919.72, 42920.293, -184852.78, -0.43295786, 0.82442737, 288220.6, 496982.63, 0.44748327, 10.003261, 10.001114 
2.3514007e+3, 2.8867027e+2, 43874.582, -1003975.4, -540649.8, 1.0469863, -1.0761447, 272810.56, 383845.9, 0.34852687, 10.005927, 9.99096 
2.3510669e+3, 2.9867563e+2, -653014.1, -277144.03, 1040629.25, -1.0070292, 0.0831511, 592384.3, 605377.75, 0.26918775, 9.995859, 10.000923 
2.3507695e+3, 3.0867466e+2, 179602.14, 311001.56, -470161.34, 1.0341966, 0.6615518, 720031.4, 720031.4, 0.21303646, 10.001664, 10.001892 
2.3649453e+3, 1.7905469e+2, -2073735.4, -1696982.1, -107020.1, 0.65675724, 0.33898485, -1668704.5, -483430.72, 0.43640557, 9.993806, 9.999057 
2.3646177e+3, 1.8904041e+2, -1125207.8, -1242472.0, 431075.03, -0.42618346, -0.45786968, -748795.75, 338622.53, 0.3775988, 10.000707, 9.9987135 
2.3643096e+3, 1.9904137e+2, -829131.5, -1030260.94, 314845.94, 0.25975144, 0.1960579, -599179.6, 390233.75, 0.33353588, 10.002082, 9.998723 
2.3639834e+3, 2.0903303e+2, -1165349.5, -1118248.0, -126679.555, 0.5956459, 0.04447608, -1012948.6, -121456.914, 0.30097756, 9.998163, 9.998849 
2.3636426e+3, 2.1902572e+2, -1918824.1, -1276838.1, -318297.44, -0.017512096, -0.13282189, -1145780.5, -352221.97, 0.27814138, 9.9915085, 10.000401 
2.363326e+3, 2.2902523e+2, -1823335.6, -1100292.0, -100554.4, 0.7815038, 0.21976215, -1086568.3, -390996.72, 0.2610385, 9.991167, 10.001086 
2.3629968e+3, 2.3902535e+2, -1247821.8, -559082.5, -330888.38, 0.05026689, 0.48611856, -425877.44, 171703.14, 0.24561283, 9.993404, 10.003384 
2.3626709e+3, 2.4902146e+2, -1044033.9, -402218.94, 12199.741, -0.46681464, 0.2066614, -401987.13, 97624.164, 0.23007582, 9.9940405, 10.003383 
2.362362e+3, 2.5901756e+2, -955331.44, -570919.56, 405800.56, 0.38920087, 0.11012504, -314107.44, 87532.04, 0.20982032, 9.995147, 10.000976 
2.3620407e+3, 2.6901242e+2, -521825.22, -557305.2, -5860.701, 0.5864171, 0.12109527, -520882.2, -217187.97, 0.17452951, 9.998445, 9.998765 
2.361726e+3, 2.7900246e+2, -703113.75, -942722.5, 44518.004, 0.7535803, -0.020133434, -695109.94, -489312.22, 0.12459212, 9.998366, 9.995338 
2.3613904e+3, 2.8900224e+2, 639985.94, 711561.7, -488123.75, -0.01508165, 0.33463424, 1165207.8, 1272997.1, 0.081343494, 10.00297, 10.004364 
2.3610593e+3, 2.990073e+2, -117481.805, 404404.03, 328347.78, -0.9627954, 0.53441125, 562869.6, 572596.8, 0.054219607, 9.997155, 10.004361 
2.3607619e+3, 3.0898723e+2, 44963.996, -461458.28, 27573.39, 0.5200037, -0.6025317, 46460.87, 46460.87, 0.037951782, 10.002515, 9.995701 
2.3755918e+3, 1.593804e+2, -1333874.9, -1826481.0, 172675.67, 0.16448553, 0.04146076, -1279375.6, 98707.125, 0.4091553, 10.002285, 9.995502 
2.3752588e+3, 1.6938198e+2, -1033460.2, -970807.75, -265841.06, -0.72566265, 0.6338311, -734453.56, 545611.8, 0.3191398, 10.000925, 10.002262 
2.3749484e+3, 1.7937365e+2, -648098.44, -820963.4, -46490.125, 1.0932243, 0.06807001, -636388.6, 545754.56, 0.25440004, 10.003908, 10.001077 
2.3746262e+3, 1.8937069e+2, -914136.9, -1028514.06, 199758.23, 0.76024884, 0.29958525, -763542.2, 320637.13, 0.20803122, 10.001305, 9.9995575 
2.3743e+3, 1.9936958e+2, -1172988.0, -1061091.8, 9559.702, -0.03255724, 0.7206797, -1060280.9, -74082.63, 0.17323056, 9.998192, 10.00002 
2.3739682e+3, 2.0936294e+2, -685718.3, -724412.4, -208538.4, -0.4212493, 0.53264827, -495631.4, 392631.78, 0.14628343, 10.000853, 10.000569 
2.3736358e+3, 2.1935523e+2, 9910.877, -306352.6, -53848.043, -0.58459467, 0.20265454, 18827.81, 809165.06, 0.1255341, 10.005365, 10.000857 
2.3733206e+3, 2.2935022e+2, 218409.78, -243178.39, 168676.86, 0.21643527, 0.18744987, 273478.94, 965864.6, 0.10829949, 10.006503, 9.999981 
2.3730087e+3, 2.3934533e+2, 403750.25, -2571.9558, 72851.09, 1.2285882, 0.23989864, 416417.13, 1010851.4, 0.09199208, 10.006616, 10.000925 
2.3726843e+3, 2.4934295e+2, 353843.94, 241299.7, -90563.08, 1.1097432, 0.2668927, 404193.7, 900651.0, 0.07586676, 10.00437, 10.003033 
2.3723604e+3, 2.593395e+2, -179204.06, -303194.28, -135798.72, 0.727539, 0.2890636, -91918.62, 306571.1, 0.05915913, 10.001334, 9.9996395 
2.3720369e+3, 2.6933357e+2, -127704.39, -254208.34, -149105.1, 0.71427524, 0.21623641, -28989.89, 271556.6, 0.040411502, 10.000989, 9.999492 
2.3717184e+3, 2.7932578e+2, -534363.25, -604477.94, 302904.3, 0.6820426, 0.09836964, -264494.3, -61873.367, 0.021716056, 9.998631, 9.997408 
2.3713867e+3, 2.8931975e+2, -127587.27, 26834.893, -210375.45, 0.09658125, 0.0721361, 173720.63, 278392.1, 0.009480261, 9.999198, 10.000734 
2.3710594e+3, 2.9931644e+2, -74675.164, 290709.34, 189512.52, -0.3360833, -0.120301425, 371249.78, 377944.28, 0.0043091197, 9.998386, 10.00256 
2.3707558e+3, 3.0930883e+2, 129239.9, 1830.3694, 231423.97, 0.27935734, -0.21094051, 305567.13, 305567.13, 0.0024647734, 10.001485, 9.999059 
2.385901e+3, 1.4970544e+2, -1173272.1, -1183461.0, 295707.8, -0.1127422, 0.28075433, -882614.8, 590285.5, 0.3896784, 10.002033, 10.001872 
2.3855874e+3, 1.596965e+2, -1831457.9, -1356446.1, 212184.44, 0.24684869, -0.33178174, -1275469.3, 99514.59, 0.2783623, 9.995386, 10.002244 
2.3852642e+3, 1.6969372e+2, -1346047.1, -975423.8, -12874.39, 0.3623165, -0.3862733, -974977.1, 302031.53, 0.19862524, 9.997521, 10.003363 
2.3849383e+3, 1.7969294e+2, -949722.94, -932359.0, -40623.234, 0.29026306, -0.27319154, -899500.4, 279514.66, 0.1461588, 10.000843, 10.00121 
2.3846135e+3, 1.8969014e+2, -1170066.8, -1170733.0, 116833.56, -0.09511175, -0.020639548, -1053565.8, 27482.549, 0.11113541, 9.999293, 9.999353 
2.3842902e+3, 1.9968665e+2, -1334805.4, -1110670.1, -13414.498, -0.3222578, 0.15742753, -1109870.1, -126780.27, 0.08556882, 9.996995, 10.000255 
2.38397e+3, 2.0968351e+2, -911869.25, -694353.0, -135513.69, 0.24274361, 0.21544741, -629351.8, 255771.03, 0.065839775, 9.998537, 10.001765 
2.383648e+3, 2.196799e+2, -584828.5, -598494.9, -87761.16, 0.73952353, 0.20498519, -503634.94, 283523.5, 0.050802168, 10.000675, 10.000702 
2.3833191e+3, 2.2967322e+2, -653359.25, -664693.9, 47073.664, 0.1560538, 0.015976086, -611613.0, 77604.78, 0.038884565, 9.999868, 9.99988 
2.3829904e+3, 2.3966566e+2, -825574.3, -839954.06, -25343.861, -0.53225, -0.15065728, -806420.25, -215134.13, 0.028499383, 9.998639, 9.998597 
2.3826653e+3, 2.4966231e+2, -691204.94, -681161.9, -123240.69, -0.5236752, 0.12151947, -562840.44, -69516.266, 0.019239577, 9.99868, 9.999012 
2.3823456e+3, 2.5965858e+2, -729557.4, -666182.4, -35733.83, -0.27939782, 0.4365007, -650110.0, -254743.56, 0.011432521, 9.997918, 9.998763 
2.3820277e+3, 2.6965535e+2, 43644.406, 249891.27, -156886.27, 0.19314249, 0.41605976, 334511.66, 631903.6, 0.005416997, 10.000419, 10.003183 
2.3817112e+3, 2.7965042e+2, -127359.87, -160984.14, -5392.2334, 0.49817604, 0.1676513, -126516.29, 72915.66, 0.001679893, 10.000341, 9.999653 
2.3813826e+3, 2.896377e+2, -49591.656, -301235.9, -327449.47, 0.18935665, -0.3787621, 175377.27, 276929.2, 0.00032890108, 10.001267, 9.997519 
2.3810601e+3, 2.9963106e+2, -146563.27, -12147.563, 95198.29, 0.26410353, -0.5614919, 37176.164, 40788.43, 0.00010134281, 9.998917, 10.000319 
2.3807508e+3, 3.096344e+2, 25993.46, 316617.75, 322674.56, -0.014280211, 0.320424, 525190.5, 525190.5, 0.00013857817, 9.999026, 10.002536 
2.3962317e+3, 1.4003347e+2, -2263279.8, -1395888.6, -327851.06, 0.13623174, 0.31360075, -1285913.1, 281776.03, 0.42781976, 9.992065, 10.005915 
2.3958999e+3, 1.5003134e+2, -1088091.5, -1016565.2, 47296.492, 0.049585808, 0.16290635, -993032.8, 476669.3, 0.2998544, 10.001709, 10.003302 
2.3955752e+3, 1.6002752e+2, -1783639.3, -1429751.0, 132146.08, -0.0336377, 0.043631878, -1385851.8, -14119.48, 0.19614406, 9.996149, 10.001188 
2.3952554e+3, 1.7002444e+2, -1444797.8, -1319917.3, 95392.81, 0.18965004, 0.21761243, -1268346.3, 5420.578, 0.12585048, 9.998312, 10.00018 
2.3949355e+3, 1.8002108e+2, -915492.4, -1005375.06, -23442.06, 0.4051077, 0.35781398, -909745.9, 266059.3, 0.083471425, 10.001368, 10.000301 
2.3946115e+3, 1.9001397e+2, -1010906.06, -979802.06, 4609.9053, 0.26957032, 0.109207675, -979133.2, 98742.51, 0.057587944, 9.999839, 10.000459 
2.3942871e+3, 2.0000722e+2, -1156901.9, -972097.9, -25803.021, 0.11690313, -0.11289324, -968562.75, 11380.152, 0.03970386, 9.997976, 10.000727 
2.3939632e+3, 2.1000578e+2, -869788.3, -724938.2, -89840.94, 0.22276394, 0.13650621, -681964.9, 199995.19, 0.026570952, 9.999083, 10.001208 
2.3936394e+3, 2.2000402e+2, -631059.75, -656416.0, -79035.47, 0.36743858, 0.38957766, -563692.0, 220287.13, 0.017417854, 10.000501, 10.000314 
2.3933147e+3, 2.2999768e+2, -726171.2, -704470.5, -52774.676, 0.31121477, 0.25446692, -661442.3, 24594.092, 0.011141793, 9.99941, 9.999808 
2.3929904e+3, 2.399896e+2, -894087.2, -892043.3, -67285.13, 0.18913363, 0.059717286, -825772.4, -237661.88, 0.0065593217, 9.998283, 9.998376 
2.3926648e+3, 2.4998182e+2, -775488.3, -761194.7, -101732.27, 0.118654616, -0.073284745, -666358.5, -176170.22, 0.0032030866, 9.998314, 9.998594 
2.3923422e+3, 2.5997457e+2, -774467.56, -733513.8, 92070.66, 0.10909973, -0.082988776, -659670.44, -267408.72, 0.0011282732, 9.997864, 9.998277 
2.3920222e+3, 2.6997206e+2, -219258.22, -109707.92, 7020.843, 0.1415869, 0.154269, -109259.805, 185025.61, 0.00023273825, 9.999708, 10.000981 
2.3917039e+3, 2.7996892e+2, -117253.46, -158016.48, -56302.074, 0.17010939, 0.24321768, -77757.35, 118557.53, 0.000018051116, 10.000499, 9.999528 
2.3913808e+3, 2.899593e+2, -127308.55, -337434.78, -334329.3, 0.41143098, -0.005417661, 118077.125, 216487.61, 0.000004039042, 10.00076, 9.997481 
2.3910622e+3, 2.9995486e+2, -10591.845, -131344.8, 59891.47, 0.99507135, 0.16337307, 14074.65, 14528.808, 0.000013542408, 10.0006075, 9.998676 
2.3907414e+3, 3.099466e+2, 58215.684, 369312.3, 28334.873, -0.260782, 0.0019199661, 371872.03, 371872.03, 0.000052300038, 9.999053, 10.002889 
2.406547e+3, 1.3037407e+2, -1265730.8, -1926361.9, -61927.645, -0.13319123, 0.4661681, -1259975.8, 402366.56, 0.4904266, 10.008072, 9.99383 
2.4062249e+3, 1.4035936e+2, -1940709.6, -1963048.9, 44853.46, 0.32265413, -0.0024055827, -1905656.0, -341169.06, 0.36336082, 9.998092, 9.997847 
2.4058962e+3, 1.5035465e+2, -1491596.4, -1312460.3, -30615.434, 0.16557765, -0.06747256, -1307372.4, 159154.58, 0.24041095, 9.998694, 10.001655 
2.4055679e+3, 1.6035165e+2, -1304879.0, -1290664.9, -31265.639, -0.07425461, 0.0052759806, -1265708.8, 102842.49, 0.14389461, 9.999982, 10.000326 
2.40525e+3, 1.703491e+2, -1138327.4, -1235475.8, 164575.0, 0.19923967, 0.2795094, -1015307.9, 255273.63, 0.08188297, 10.000822, 9.999597 
2.4049327e+3, 1.8034537e+2, -1043894.94, -1139029.4, 87781.09, 0.5170941, 0.45890635, -991621.44, 181003.39, 0.047678713, 10.000725, 9.999614 
2.4046066e+3, 1.9033736e+2, -1225508.5, -1107690.9, -48466.03, 0.37160748, 0.1624758, -1090316.0, -15610.283, 0.028905774, 9.998526, 10.000152 
2.4042803e+3, 2.0032988e+2, -1391011.1, -1128349.3, -89500.38, 0.18055157, -0.1048305, -1100752.1, -123971.77, 0.017015342, 9.996634, 10.000287 
2.4039568e+3, 2.1032819e+2, -826769.8, -712729.1, -37235.023, 0.16551356, 0.13328636, -701648.3, 177149.31, 0.00915297, 9.999455, 10.001092 
2.4036337e+3, 2.2032627e+2, -469945.25, -637442.9, -91276.46, 0.21859832, 0.3888881, -429818.1, 350998.84, 0.0045936005, 10.001887, 9.99977 
2.4033101e+3, 2.303204e+2, -623762.25, -684151.9, -122267.31, 0.37709594, 0.3290284, -528016.5, 154855.9, 0.0022051786, 10.000254, 9.999541 
2.402987e+3, 2.4031255e+2, -865008.8, -883051.56, -67743.59, 0.5296005, 0.16322069, -805688.56, -220742.17, 0.0009056362, 9.998524, 9.998334 
2.4026626e+3, 2.5030357e+2, -324592.2, -484131.5, -43237.773, 0.48694044, -0.12626705, -313627.6, 173404.77, 0.00023937336, 10.00124, 9.999043 
2.4023399e+3, 2.6029503e+2, -155769.27, -495291.38, 125979.61, 0.38397512, -0.31868678, -114130.984, 274983.94, 0.000025130046, 10.002391, 9.997735 
2.4020173e+3, 2.7029157e+2, -159100.95, -317080.28, 91474.31, 0.12258981, 0.00028269846, -117231.54, 173920.36, 0.00000030344088, 10.001156, 9.998863 
2.4016967e+3, 2.802887e+2, -443413.5, -379949.16, -18171.82, -0.051862292, 0.26728484, -375114.3, -181930.61, 0.000000006555133, 9.998501, 9.99901 
2.4013785e+3, 2.9028302e+2, -103730.42, -270495.84, -167966.83, 0.594056, 0.36390123, 411.62717, 95657.625, 0.00000087941476, 10.000663, 9.998003 
2.4010612e+3, 3.002788e+2, -89851.0, -380948.3, 197067.2, 1.1915462, 0.64502686, 9589.922, 9589.922, 0.0000071974287, 10.00095, 9.996825 
2.4007337e+3, 3.102621e+2, -237381.89, 86961.77, 278638.8, -0.5310016, -0.19131172, 247186.11, 247186.11, 0.00003374468, 9.997545, 10.001696 
2.416551e+3, 1.306915e+2, -1167381.8, -1252262.1, -298870.06, 0.09490851, -0.0024952746, -907953.6, 751273.1, 0.44509977, 10.004588, 10.002463 
2.416219e+3, 1.4068675e+2, -1714403.5, -1700351.6, -75844.44, 0.43238175, -0.0938474, -1631208.4, -69943.5, 0.31930807, 9.998919, 9.999303 
2.4158907e+3, 1.5067846e+2, -1635202.6, -1773710.1, 20615.725, 0.2276321, -0.22648378, -1632199.4, -168853.05, 0.20041417, 9.99959, 9.997728 
2.4155642e+3, 1.606707e+2, -1234180.9, -1302445.5, 25125.799, 0.016721489, -0.3174259, -1225930.1, 139492.61, 0.110025235, 10.000743, 9.999828 
2.4152479e+3, 1.7066844e+2, -927460.4, -916165.8, 174572.38, 0.3554739, -0.16722256, -747149.4, 520295.88, 0.054970514, 10.001327, 10.001618 
2.4149297e+3, 1.8066582e+2, -977215.9, -1137679.6, 39844.336, 0.61344945, -0.0028185686, -967866.94, 201606.58, 0.027314784, 10.0012865, 9.999347 
2.4145979e+3, 1.9066024e+2, -1331515.0, -1405856.6, -154314.95, 0.14403649, 0.121308304, -1209957.3, -138417.45, 0.013986388, 9.998833, 9.997974 
2.4142678e+3, 2.0065418e+2, -1357114.6, -1174177.1, -47513.957, -0.24428242, 0.18462834, -1162572.6, -188964.61, 0.006556314, 9.9971, 9.999754 
2.4139516e+3, 2.1064903e+2, -713735.4, -619359.9, 83856.0, 0.17645472, 0.059242696, -570326.44, 305326.38, 0.002469395, 10.00006, 10.001447 
2.4136345e+3, 2.2064407e+2, -323542.47, -538664.94, -72283.875, 0.5370436, -0.009321138, -301510.6, 476185.78, 0.00078321603, 10.002728, 10.000046 
2.4133042e+3, 2.3063986e+2, -547495.6, -651055.56, -208122.38, 0.24644458, 0.09691401, -384808.6, 294932.06, 0.00023610769, 10.00076, 9.99953 
2.4129756e+3, 2.4063483e+2, -737558.9, -733747.6, -2046.6566, -0.0139253, 0.19001429, -732856.8, -151064.45, 0.000047296035, 9.999004, 9.99912 
2.4126565e+3, 2.506289e+2, -160848.27, -323042.66, 115839.36, 0.16382132, 0.13664033, -100539.98, 383306.25, 0.0000020598873, 10.002013, 9.9997835 
2.4123386e+3, 2.606223e+2, 112381.13, -320826.75, 131450.2, 0.37157476, 0.07379542, 149147.31, 535054.6, 0.0, 10.0040455, 9.998117 
2.4120176e+3, 2.7061486e+2, -253023.86, -480634.75, 17465.932, 0.52145904, 0.07564567, -251691.39, 36289.625, 0.0, 10.001061, 9.997764 
2.4116956e+3, 2.8060824e+2, -507816.56, -412896.72, 12312.898, 0.52795607, 0.0716647, -411325.5, -221277.19, 0.0, 9.998021, 9.999026 
2.4113694e+3, 2.9060227e+2, -54110.867, -143702.3, -45888.258, 0.1500898, 0.07095054, -34778.676, 57332.418, 0.0000001537889, 10.000524, 9.998965 
2.411047e+3, 3.0059847e+2, 184822.88, -202046.53, 170911.86, 0.07347199, 0.3479806, 249511.89, 249511.89, 0.000003139397, 10.0026045, 9.997251 
2.410735e+3, 3.1058767e+2, -345301.3, -36556.3, 160426.14, 0.4105084, 0.105111204, 31708.604, 31708.604, 0.000017109696, 9.997144, 10.001014 
2.426544e+3, 1.310138e+2, -2255725.5, -1503683.0, -166072.11, 0.16959855, -0.33273497, -1468642.3, 187424.94, 0.4141129, 9.993255, 10.004822 
2.4262139e+3, 1.4101562e+2, -1299711.3, -1481105.6, -54039.85, 0.36691082, 0.033389255, -1284832.5, 273208.75, 0.28877336, 10.002544, 9.999219 
2.425887e+3, 1.5100569e+2, -1278660.1, -1753955.6, 94468.68, 0.22595714, -0.13885152, -1260572.0, 199567.48, 0.17287979, 10.003048, 9.996209 
2.4255615e+3, 1.6099562e+2, -1120201.0, -1379862.0, 162912.38, 0.10652644, -0.31392884, -1041713.44, 320526.7, 0.08747846, 10.002132, 9.998647 
2.4252431e+3, 1.709917e+2, -1166073.1, -1086569.5, 151248.94, 0.33372632, -0.24855694, -969935.7, 294342.9, 0.038149297, 9.99987, 10.001045 
2.424923e+3, 1.8098845e+2, -1430640.9, -1384136.5, -91357.375, 0.49598294, -0.11253608, -1313118.8, -146806.5, 0.01570925, 9.998291, 9.999077 
2.4245915e+3, 1.9098434e+2, -991430.1, -1240725.0, -112448.42, 0.04023481, 0.14842314, -948203.7, 120159.96, 0.0064830934, 10.001161, 9.997989 
2.424262e+3, 2.0097919e+2, -613608.1, -904467.44, 122352.24, -0.2948689, 0.32876495, -568985.56, 401437.9, 0.0021827125, 10.002631, 9.998938 
2.4239467e+3, 2.1097116e+2, -772707.56, -765564.7, 175252.69, 0.18056884, 0.024292575, -593847.06, 278648.72, 0.00044835047, 10.000188, 10.000367 
2.4236307e+3, 2.2096376e+2, -1026298.0, -923632.75, -116504.37, 0.5816206, -0.213348, -847653.56, -73091.11, 0.000068581576, 9.998155, 9.999598 
2.4232984e+3, 2.3096113e+2, -649419.9, -664686.0, -265256.6, 0.14226635, 0.037122965, -391686.56, 284906.38, 0.0000096515805, 10.000005, 9.999764 
2.4229683e+3, 2.4095799e+2, -459406.66, -586174.25, -16666.635, -0.23790677, 0.2816677, -457252.06, 121375.68, 0.00000040342232, 10.000914, 9.999208 
2.4226516e+3, 2.509528e+2, -427077.0, -429695.9, 99515.98, 0.049121644, 0.28234607, -328861.88, 151810.97, 0.0, 10.000141, 9.999933 
2.4223365e+3, 2.6094675e+2, -600479.44, -693770.94, -16124.25, 0.40193284, 0.24511358, -597771.2, -215044.02, 0.0, 9.999301, 9.997856 
2.4220164e+3, 2.7093762e+2, -134142.33, -477593.6, -113809.18, 0.75628966, 0.095420085, -99852.86, 184964.67, 0.0, 10.0021515, 9.997238 
2.4216937e+3, 2.8092876e+2, 125208.87, -224400.23, -54551.65, 0.83833236, -0.06285297, 133523.17, 320428.72, 0.0, 10.002885, 9.997994 
2.4213603e+3, 2.9092142e+2, -24444.809, -153578.48, -46447.477, -0.31137225, -0.14498869, -9473.954, 79504.41, 0.0000000009564638, 10.000834, 9.99876 
2.4210356e+3, 3.009168e+2, -379633.66, -403342.0, 44459.742, -0.82885873, 0.0059368643, -345474.9, -345474.9, 0.0000004799063, 9.998409, 9.997923 
2.4207331e+3, 3.109153e+2, -13859.305, 39701.793, -211546.4, 0.8543214, 0.5537793, 226156.05, 226156.05, 0.0000055147566, 9.999651, 10.000398 
2.4365298e+3, 1.3134283e+2, -2066907.3, -1558665.4, 181059.61, -0.1435577, -0.21897794, -1500760.6, 152083.94, 0.39271495, 9.99535, 10.003192 
2.4362092e+3, 1.413445e+2, -1289107.4, -1499726.8, 51601.5, 0.122384116, 0.2852175, -1277144.6, 277681.28, 0.26710206, 10.00268, 9.998957 
2.4358843e+3, 1.513347e+2, -1214731.3, -1658796.1, 52273.156, 0.15398781, 0.08999451, -1208660.9, 248259.89, 0.15331793, 10.003223, 9.99679 
2.435559e+3, 1.6132464e+2, -1170698.4, -1560496.4, 108114.0, 0.13353139, -0.07691997, -1142720.3, 216299.78, 0.07196278, 10.00238, 9.997264 
2.4352358e+3, 1.7131825e+2, -1321003.5, -1495397.8, 57060.42, 0.11763061, 0.011090364, -1303993.0, -42905.36, 0.027363949, 10.000205, 9.998049 
2.4349128e+3, 1.8131292e+2, -1310864.1, -1253913.5, -46838.434, 0.11164871, 0.13103867, -1227573.9, -64429.53, 0.009079448, 9.998798, 9.999713 
2.4345887e+3, 1.9130972e+2, -728437.94, -811218.44, 12835.152, 0.11877147, 0.25750506, -726493.5, 338682.94, 0.002868925, 10.001671, 10.000688 
2.4342641e+3, 2.0130503e+2, -521286.28, -931829.1, 114472.52, 0.10235084, 0.3308889, -491525.1, 475698.53, 0.00059867656, 10.003547, 9.998309 
2.4339417e+3, 2.1129534e+2, -962509.06, -1193213.6, 48187.418, 0.122009024, 0.11566513, -952848.6, -83528.56, 0.000045539302, 10.000304, 9.997385 
2.4336192e+3, 2.2128671e+2, -1124522.1, -1041315.2, -102466.98, 0.17333849, -0.013049165, -972327.8, -200922.64, 0.0000022398012, 9.997762, 9.998969 
2.4332939e+3, 2.3128444e+2, -587604.6, -582976.5, -153072.83, 0.22011413, 0.2514933, -432200.22, 241227.28, 0.000000052409952, 10.000191, 10.000239 
2.4329703e+3, 2.4128084e+2, -335422.03, -538245.8, -21957.414, 0.28305838, 0.42576045, -333072.2, 242389.81, 0.0, 10.001811, 9.999095 
2.4326506e+3, 2.512712e+2, -632496.94, -654206.25, -11887.304, 0.49588308, 0.0717471, -627254.0, -149702.17, 0.0, 9.999266, 9.9988165 
2.4323316e+3, 2.6126227e+2, -801949.5, -768188.6, 25618.45, 0.60316926, -0.17060353, -754389.2, -374753.22, 0.0, 9.997788, 9.998064 
2.43201e+3, 2.7125746e+2, -3228.472, -365123.34, 33875.977, 0.36819094, 0.062189654, -84.74484, 281603.88, 0.0, 10.002782, 9.997734 
2.4316877e+3, 2.8125203e+2, 620968.75, 18510.457, -120139.086, 0.21966027, 0.23195381, 644042.5, 827788.25, 0.0, 10.006219, 9.998069 
2.4313608e+3, 2.912433e+2, 70410.28, -162934.28, -230165.77, 0.106466286, 0.04695543, 211785.88, 297614.13, 0.0, 10.001657, 9.998328 
2.4310376e+3, 3.012361e+2, -425146.13, -338411.84, 79728.35, 0.13668463, -0.046108786, -291019.3, -291019.3, 0.000000008678429, 9.997697, 9.998717 
2.4307247e+3, 3.1123525e+2, 269370.34, 172679.98, -252641.4, 0.41039678, 0.50384337, 478250.63, 478250.63, 0.0000009202062, 10.001526, 10.000459 
2.4468546e+3, 1.2167879e+2, -1673353.1, -2150586.5, -131355.89, 0.7032432, 0.124610625, -1639587.3, 107956.305, 0.49454167, 10.0029955, 9.995587 
2.4465235e+3, 1.3167183e+2, -1489390.3, -1576267.4, 138211.83, -0.17147043, 0.017306747, -1387951.6, 261670.16, 0.3775347, 10.001646, 9.999821 
2.4462053e+3, 1.4166844e+2, -1706976.0, -1843566.5, -13342.511, 0.13142025, 0.26523322, -1705684.9, -154027.83, 0.25111946, 9.999628, 9.997953 
2.445881e+3, 1.5166008e+2, -1497628.6, -1788724.4, -77308.945, 0.16316918, 0.19308001, -1478371.0, -24632.26, 0.13882844, 10.000847, 9.997049 
2.4455564e+3, 1.6165122e+2, -1311637.8, -1675744.0, -48892.836, 0.17595106, 0.12783477, -1305186.6, 50639.082, 0.060861234, 10.001572, 9.996832 
2.4452308e+3, 1.7164335e+2, -1150992.6, -1510458.4, 9474.647, 0.019062445, 0.12616456, -1150743.0, 107163.586, 0.02025213, 10.001882, 9.997099 
2.4449062e+3, 1.8163638e+2, -948975.1, -1122242.1, 19810.668, -0.05680213, 0.16350904, -946738.94, 213238.77, 0.0052852775, 10.001509, 9.999308 
2.4445853e+3, 1.9163275e+2, -893557.9, -869917.06, -55206.52, 0.1801601, 0.23805909, -825279.7, 236732.14, 0.0012089658, 10.000481, 10.000841 
2.4442634e+3, 2.0162807e+2, -1055710.9, -1228189.6, -112200.31, 0.34705004, 0.28840798, -1000436.5, -36379.594, 0.00012403581, 10.000094, 9.997922 
2.443937e+3, 2.1161908e+2, -766452.4, -1163391.5, -33218.62, 0.09155532, 0.17980134, -763691.6, 102456.87, 0.000001917801, 10.001998, 9.996734 
2.4436116e+3, 2.2161068e+2, -447033.16, -763311.06, 4187.744, -0.0553221, 0.12720586, -446977.72, 321255.4, 0.000000018702426, 10.002674, 9.998493 
2.4432898e+3, 2.3160706e+2, -353203.0, -481773.88, -35339.78, 0.22178689, 0.27953532, -344129.6, 326135.0, 0.0, 10.001865, 10.000116 
2.4429688e+3, 2.416021e+2, -512898.13, -700464.75, -12992.127, 0.51836157, 0.3341151, -512002.5, 60307.32, 0.0, 10.0009365, 9.998407 
2.4426477e+3, 2.5159118e+2, -383871.8, -608405.56, -447.93625, 0.6994815, -0.07840369, -383870.94, 90543.766, 0.0, 10.001324, 9.99812 
2.4423261e+3, 2.6158175e+2, -377710.6, -595592.0, 189818.27, 0.66074926, -0.32018316, -267792.75, 108714.49, 0.0, 10.000842, 9.997793 
2.4420036e+3, 2.7157944e+2, -264695.75, -448498.75, 286646.3, 0.0041111074, 0.1469294, -55579.008, 222959.13, 0.0, 10.000787, 9.99813 
2.441682e+3, 2.8157583e+2, -204039.75, -375898.94, -61785.688, -0.30543414, 0.46775144, -184132.83, -3553.8552, 0.0, 10.000539, 9.998108 
2.4413611e+3, 2.9156616e+2, -95239.02, -234934.42, -242471.03, 0.5232412, 0.17105407, 87244.22, 169912.13, 0.0, 10.000524, 9.998362 
2.4410386e+3, 3.0155742e+2, -259574.97, -279255.9, 231545.02, 0.83342373, -0.05859443, -37661.41, -37661.41, 0.0, 9.998939, 9.998536 
2.4407129e+3, 3.1155202e+2, 67547.63, 103530.3, 251581.58, -0.43858728, 0.00247096, 337763.03, 337763.03, 0.00000009975268, 10.000147, 10.000592 
2.456843e+3, 1.22003786e+2, -1703983.0, -2128311.0, -55618.99, -0.27272436, -0.1336565, -1696813.9, 47543.703, 0.48539782, 10.002171, 9.9960785 
2.456522e+3, 1.319984e+2, -1638650.0, -2016347.6, 40667.89, 0.0027505045, 0.18076317, -1634320.8, 12101.836, 0.36593348, 10.00157, 9.996465 
2.4562009e+3, 1.41989e+2, -1715344.3, -1947762.4, -18800.723, 0.19161652, 0.08577766, -1713833.3, -165313.0, 0.23856215, 10.000023, 9.997028 
2.4558772e+3, 1.51983e+2, -1448627.3, -1742160.3, -35123.63, 0.1927345, 0.24855049, -1444482.9, 6098.991, 0.1275105, 10.001094, 9.997241 
2.4555533e+3, 1.6197598e+2, -1194956.6, -1514873.3, -18407.51, 0.17686234, 0.3266331, -1193900.9, 158750.16, 0.052560914, 10.001962, 9.997737 
2.4552278e+3, 1.7196676e+2, -1040186.94, -1354320.5, 17533.252, 0.023000838, 0.10006298, -1039211.4, 215525.8, 0.01541553, 10.002189, 9.998027 
2.4549031e+3, 1.8195814e+2, -975145.2, -1289758.5, -8104.9087, -0.051746912, -0.036430072, -974936.56, 181883.22, 0.0031067657, 10.00197, 9.997936 
2.4545808e+3, 1.9195235e+2, -1054108.0, -1247405.6, -106250.06, 0.20220587, 0.07249633, -1007125.1, 51756.63, 0.00048131414, 10.000652, 9.998174 
2.4542588e+3, 2.0194687e+2, -946625.94, -1034691.94, -66205.32, 0.3611545, 0.18226105, -911147.6, 49791.086, 0.000015932997, 10.000216, 9.99918 
2.453935e+3, 2.1194161e+2, -491968.38, -709261.5, 57916.93, 0.15479375, 0.18813035, -477495.28, 385492.4, 0.0000000054715246, 10.002478, 9.999622 
2.4536109e+3, 2.219353e+2, -236196.75, -599329.0, 6692.4956, -0.013190636, 0.14063175, -236073.45, 528972.9, 0.0, 10.003828, 9.999066 
2.4532849e+3, 2.3192705e+2, -379056.47, -616394.44, -87744.01, 0.039035432, -0.08500178, -350140.44, 316980.47, 0.0, 10.002178, 9.999065 
2.4529612e+3, 2.4191977e+2, -505569.25, -678574.3, 7854.5664, 0.15276967, -0.18117385, -505213.38, 63975.46, 0.0, 10.000871, 9.998592 
2.4526408e+3, 2.5191554e+2, -249989.6, -497980.38, 65437.277, 0.35032526, 0.04342566, -233781.94, 237453.2, 0.0, 10.002023, 9.998559 
2.452321e+3, 2.6191086e+2, -115008.37, -398303.5, 181466.11, 0.42169765, 0.24060111, -26451.705, 346834.53, 0.0, 10.002286, 9.998466 
2.452e+3, 2.719052e+2, -405581.75, -482256.06, 227915.19, 0.1415186, 0.33243915, -212801.9, 62546.242, 0.0, 9.999613, 9.998489 
2.4516785e+3, 2.8189892e+2, -519844.47, -451285.88, -26001.95, 0.00908216, 0.34758785, -442539.9, -265127.3, 0.0, 9.997996, 9.998817 
2.4513538e+3, 2.9189032e+2, -118869.2, -198201.22, -153777.39, 0.3158559, 0.110097915, 275.61346, 79763.75, 0.0, 10.000103, 9.998827 
2.4510305e+3, 3.0188218e+2, -5280.5527, -334050.7, 233528.11, 0.44585, -0.019605108, 115917.695, 115917.695, 0.0, 10.001377, 9.99699 
2.4507107e+3, 3.118764e+2, -33230.684, -89978.07, 262681.63, -0.18335763, 0.2488428, 202605.19, 202605.19, 0.000000000000427524, 10.000102, 9.999242 
2.4668372e+3, 1.2232246e+2, -2420520.0, -2272191.5, -63602.906, -0.22376642, -0.057575025, -2248653.8, -507406.97, 0.47722325, 9.996031, 9.998055 
2.4665178e+3, 1.3231912e+2, -1964822.9, -2029622.9, -252031.17, 0.10024923, 0.28003442, -1743117.6, -99833.92, 0.3557266, 9.9986515, 9.997785 
2.4661963e+3, 1.4230861e+2, -1824465.5, -1922532.5, -103989.16, 0.30184987, -0.03959656, -1758529.3, -213141.84, 0.22774403, 9.998944, 9.997728 
2.4658728e+3, 1.523036e+2, -1578776.6, -1732349.1, -60287.844, 0.22040996, 0.14579268, -1557937.3, -110499.31, 0.11809006, 9.999905, 9.997871 
2.4655493e+3, 1.6229776e+2, -1407467.4, -1588253.1, -79374.69, 0.19441423, 0.2782252, -1377563.9, -28068.305, 0.04605504, 10.000306, 9.99804 
2.4652246e+3, 1.722894e+2, -1401244.3, -1505359.4, -101224.234, 0.12820679, 0.10456335, -1339475.9, -87901.914, 0.012013259, 9.999597, 9.998248 
2.4648999e+3, 1.8228105e+2, -1398914.4, -1534568.0, -110427.445, 0.09551946, -0.020271743, -1337146.9, -183492.48, 0.0018483637, 9.999262, 9.997562 
2.4645764e+3, 1.9227387e+2, -1067588.3, -1330428.9, -50234.938, 0.19261046, -0.000023110408, -1058314.4, -2583.801, 0.00018026956, 10.000909, 9.997475 
2.4642536e+3, 2.0226781e+2, -746025.56, -888447.75, 83807.12, 0.2661894, 0.089612976, -707261.0, 250532.84, 0.0000007906511, 10.0014305, 9.999597 
2.4639314e+3, 2.1226478e+2, -695923.1, -680282.94, 85359.69, 0.13698995, 0.21679826, -602385.9, 257434.61, 0.0, 10.000573, 10.000731 
2.4636081e+3, 2.2225964e+2, -802818.3, -904075.75, -110839.74, 0.012685586, 0.21510315, -731591.75, 30274.104, 0.0, 10.000106, 9.998773 
2.4632806e+3, 2.3224898e+2, -538432.06, -750116.5, -167229.86, -0.06466833, -0.21701819, -446364.22, 217598.58, 0.0, 10.001401, 9.998484 
2.4629551e+3, 2.4224065e+2, -383453.06, -660698.8, -1188.8418, -0.06757162, -0.3821805, -383447.97, 182593.0, 0.0, 10.001932, 9.998199 
2.4626355e+3, 2.5223964e+2, -152125.84, -454201.63, 57259.59, 0.08281997, 0.16308393, -141636.31, 326422.06, 0.0, 10.0027, 9.998545 
2.4623165e+3, 2.6223698e+2, -127691.12, -415951.88, 46277.65, 0.2130083, 0.55393285, -120443.87, 249648.06, 0.0, 10.002265, 9.998368 
2.4619965e+3, 2.7222872e+2, -267567.72, -389975.03, 52935.055, 0.30741462, 0.3548332, -247851.63, 24326.004, 0.0, 10.00048, 9.998692 
2.4616753e+3, 2.8222105e+2, -286125.72, -358813.28, -78691.59, 0.3152355, 0.21585216, -235790.56, -61536.418, 0.0, 9.99971, 9.998642 
2.4613464e+3, 2.9221404e+2, 405255.28, 27113.563, -172315.0, -0.039629743, 0.13784677, 471997.34, 548310.5, 0.0, 10.003805, 9.998614 
2.4610244e+3, 3.0220503e+2, 253238.92, -536975.4, 63759.547, 0.013187248, 0.042601645, 258350.39, 258350.39, 0.0, 10.004583, 9.99407 
2.4607104e+3, 3.1219777e+2, -174969.42, -396973.22, 196822.05, 0.18567508, 0.43618053, -60005.973, -60005.973, 0.0, 10.000221, 9.997054 
2.4768318e+3, 1.2263899e+2, -2024973.3, -1778016.3, 341411.13, -0.01115927, 0.2887879, -1538440.3, 199722.45, 0.46784618, 9.99748, 10.001525 
2.4765117e+3, 1.32637e+2, -1691618.9, -1543244.3, -195621.69, 0.114840955, 0.39943966, -1408214.9, 231958.56, 0.34520847, 9.999022, 10.001491 
2.4761914e+3, 1.4262708e+2, -1657772.9, -1652796.3, -90722.48, 0.3861602, -0.15291803, -1564528.0, -22265.783, 0.21743059, 9.99925, 9.999435 
2.4758679e+3, 1.52622e+2, -1461080.8, -1554307.0, -29191.334, 0.21638322, -0.084714785, -1452694.6, -8386.035, 0.109704144, 10.0001955, 9.998947 
2.4755447e+3, 1.6261683e+2, -1350198.1, -1546272.0, -89046.89, 0.17151977, 0.04785733, -1315794.3, 30564.648, 0.040704507, 10.000639, 9.998165 
2.4752212e+3, 1.7261104e+2, -1376584.4, -1531341.8, -128240.836, 0.3203761, 0.16087866, -1304186.0, -55765.56, 0.00953522, 9.999902, 9.997934 
2.4748969e+3, 1.8260461e+2, -1234409.0, -1297299.0, -58332.15, 0.33664572, 0.20192534, -1199586.1, -49099.965, 0.0011160366, 9.999689, 9.998985 
2.4745718e+3, 1.9259727e+2, -895879.56, -1051583.6, 22865.158, 0.12994632, 0.03839709, -892591.25, 159965.9, 0.00006263998, 10.001223, 9.999246 
2.4742475e+3, 2.025911e+2, -710735.9, -911313.06, 82369.42, -0.0027096453, 0.025199248, -681245.7, 273372.66, 0.0000000031066179, 10.001846, 9.999232 
2.4739258e+3, 2.1258801e+2, -801253.0, -893635.56, 35097.113, 0.026526181, 0.28390917, -789431.9, 67220.58, 0.0, 10.000524, 9.999315 
2.473603e+3, 2.2258323e+2, -810350.94, -880157.94, -87265.664, 0.030570868, 0.40783763, -751267.44, 7432.317, 0.0, 9.999903, 9.999044 
2.4732776e+3, 2.3257463e+2, -493992.47, -674148.0, -113499.31, 0.018208804, 0.13993709, -439169.94, 221607.89, 0.0, 10.001437, 9.999012 
2.4729536e+3, 2.4256648e+2, -274799.8, -620712.4, 30936.424, 0.034472287, -0.022135623, -272054.84, 290798.2, 0.0, 10.002688, 9.998119 
2.4726337e+3, 2.5256035e+2, -141318.5, -523159.03, 54769.727, 0.11194568, 0.07107239, -133617.84, 331296.03, 0.0, 10.003069, 9.997907 
2.472314e+3, 2.6255417e+2, -42034.0, -363491.2, -13842.496, 0.20816582, 0.15362829, -41439.02, 325537.78, 0.0, 10.002776, 9.998479 
2.4719931e+3, 2.7254725e+2, -154163.34, -341315.53, -42906.945, 0.3642363, 0.08595283, -144795.31, 124254.234, 0.0, 10.001247, 9.998676 
2.4716717e+3, 2.8254116e+2, -97745.35, -395136.63, -13143.336, 0.36539045, 0.16164567, -97165.61, 73946.64, 0.0, 10.001522, 9.997519 
2.4713467e+3, 2.9253536e+2, 641836.2, -56781.027, -91918.02, -0.0697813, 0.36323807, 653727.56, 726894.94, 0.0, 10.006224, 9.996911 
2.4710281e+3, 3.0252504e+2, 817189.2, -173104.86, -100922.36, 0.17300604, 0.22318804, 827369.7, 827369.7, 0.0, 10.008, 9.994956 
2.4707058e+3, 3.1251025e+2, 249380.16, -26047.346, -42998.25, 0.08220052, -0.25793043, 255936.73, 255936.73, 0.0, 10.002299, 9.998671 
2.4868281e+3, 1.22954056e+2, -1940992.3, -1726936.0, 231046.02, 0.27819484, 0.48888037, -1579332.4, 155748.92, 0.45571506, 9.997893, 10.001533 
2.4865046e+3, 1.3295141e+2, -1544384.9, -1320649.3, -232082.31, -0.008970735, 0.33447623, -1174880.5, 462214.66, 0.33319858, 9.999213, 10.003517 
2.4861836e+3, 1.4294522e+2, -1472025.5, -1436607.8, -207315.92, 0.15215184, -0.034128077, -1246245.8, 292899.4, 0.20679392, 10.000125, 10.000793 
2.4858618e+3, 1.529404e+2, -1423083.6, -1405528.4, -178080.84, 0.114732705, -0.08208485, -1236009.0, 205177.53, 0.10179194, 9.999942, 10.000191 
2.4855398e+3, 1.6293566e+2, -1412321.0, -1463029.3, -227289.44, 0.18154162, -0.036851756, -1208976.0, 134254.73, 0.036105353, 9.999754, 9.999172 
2.4852163e+3, 1.7293118e+2, -1212469.3, -1343621.9, -177384.27, 0.32290754, 0.09595246, -1088928.0, 156350.66, 0.0076701324, 10.000583, 9.99889 
2.4848923e+3, 1.8292597e+2, -1024830.56, -1191873.4, -54077.5, 0.3588139, 0.19834659, -1008852.2, 138481.23, 0.000687035, 10.00113, 9.99901 
2.4845679e+3, 1.9291936e+2, -845883.9, -1019042.8, -92709.016, 0.12522916, 0.087017715, -805613.2, 243785.64, 0.000019881356, 10.001571, 9.999277 
2.484244e+3, 2.0291322e+2, -820773.1, -1008345.9, -158257.1, -0.036536574, 0.06704517, -730599.75, 220860.34, 0.0, 10.001318, 9.998808 
2.4839206e+3, 2.1290894e+2, -848551.6, -967229.9, -126395.16, -0.03278137, 0.23153935, -768259.56, 85246.65, 0.0, 10.000474, 9.998796 
2.4835977e+3, 2.2290409e+2, -782243.1, -875241.56, -116184.42, 0.016365698, 0.37173143, -703598.44, 51957.105, 0.0, 10.000172, 9.998933 
2.483275e+3, 2.3289773e+2, -381066.47, -593953.56, -124097.234, 0.098591134, 0.297674, -324015.8, 333598.2, 0.0, 10.002124, 9.999221 
2.4829526e+3, 2.4289021e+2, -269860.13, -654564.06, -28811.732, 0.1476794, 0.18819459, -267714.28, 291968.84, 0.0, 10.002906, 9.997788 
2.4826317e+3, 2.5288063e+2, -286692.6, -623033.2, 28396.314, 0.11568671, -0.046823867, -284312.03, 177459.98, 0.0, 10.002201, 9.99764 
2.482311e+3, 2.6287216e+2, -265638.66, -522339.34, -41414.977, 0.17241788, -0.16326453, -259122.34, 104731.36, 0.0, 10.001499, 9.998003 
2.4819897e+3, 2.7286646e+2, -21263.197, -313968.3, -95474.75, 0.3543998, -0.08306091, 7125.478, 273041.0, 0.0, 10.002359, 9.998313 
2.4816681e+3, 2.828611e+2, -68463.04, -497734.75, 71549.164, 0.32287666, 0.12816757, -56851.605, 111121.14, 0.0, 10.002242, 9.99647 
2.4813472e+3, 2.9285547e+2, 3829.9634, -443294.88, 166023.13, -0.05233484, 0.42540884, 58734.48, 128766.0, 0.0, 10.002219, 9.996159 
2.4810313e+3, 3.0284584e+2, 37108.375, -402420.13, -26214.57, 0.34657308, 0.360441, 38666.355, 38666.355, 0.0, 10.002035, 9.99625 
2.4807028e+3, 3.128279e+2, 407352.88, 276624.63, -177088.19, -0.011390918, -0.651276, 530755.0, 530755.0, 0.0, 10.002391, 10.00073 
2.4968243e+3, 1.2326513e+2, -1777780.0, -1671371.3, 107788.36, 0.4907955, 0.32578033, -1604371.5, 127661.26, 0.43991756, 9.999101, 10.0012 
2.4964966e+3, 1.332641e+2, -1425710.8, -1159530.3, -136007.92, -0.2508341, 0.22266936, -1102328.1, 531704.75, 0.31901658, 9.999584, 10.004863 
2.4961743e+3, 1.4326304e+2, -1391710.4, -1270550.0, -161274.55, -0.33576775, 0.24358486, -1158853.0, 377181.75, 0.19536594, 10.000018, 10.002141 
2.4958552e+3, 1.5325846e+2, -1323877.3, -1212749.0, -154689.08, -0.04349501, 0.08512975, -1103947.4, 334126.2, 0.094030365, 9.999932, 10.001603 
2.4955344e+3, 1.6325375e+2, -1226432.8, -1144939.5, -184791.3, 0.15364735, -0.022696296, -996455.8, 343658.28, 0.032013185, 10.000036, 10.001245 
2.49521e+3, 1.7324941e+2, -1015743.44, -1001882.4, -130207.6, 0.12775649, -0.093220375, -878421.0, 363731.6, 0.0062260167, 10.000857, 10.001108 
2.4948865e+3, 1.8324468e+2, -1038986.7, -1307708.4, -18571.24, 0.12894773, -0.032065418, -1037709.3, 106491.4, 0.00043419475, 10.001486, 9.998037 
2.4945657e+3, 1.9323932e+2, -925603.1, -1268937.1, -77813.9, 0.22173294, 0.16906974, -908790.56, 137474.1, 0.0000058323185, 10.001901, 9.997416 
2.4942426e+3, 2.0323305e+2, -708577.6, -876667.56, -198677.36, 0.18559907, 0.22555745, -576899.94, 371431.5, 0.000000000090419006, 10.001728, 9.99951 
2.493916e+3, 2.1322575e+2, -740808.5, -793191.7, -171250.6, -0.033554938, -0.0151928635, -593758.2, 256639.86, 0.0, 10.000659, 9.9999 
2.4935924e+3, 2.2321947e+2, -698919.6, -808880.7, -67707.54, -0.08725322, -0.089932896, -666681.06, 85775.305, 0.0, 10.000607, 9.999166 
2.4932732e+3, 2.3321506e+2, -332852.94, -596026.25, -65890.82, 0.18168952, 0.049475532, -317277.63, 337221.72, 0.0, 10.002545, 9.999009 
2.4929523e+3, 2.4320933e+2, -133087.31, -484708.9, -65864.195, 0.28793916, 0.10158642, -121154.86, 435397.88, 0.0, 10.003374, 9.998714 
2.4926284e+3, 2.5320128e+2, -240717.97, -497176.0, -29560.441, 0.10208781, -0.08354698, -237354.81, 221270.3, 0.0, 10.002017, 9.998603 
2.4923061e+3, 2.6319352e+2, -280056.03, -588795.4, -4747.797, 0.04891397, -0.1574086, -279983.03, 80716.64, 0.0, 10.001605, 9.997497 
2.4919866e+3, 2.7318707e+2, 36637.688, -402402.13, -45030.473, 0.24850145, -0.046801165, 41208.684, 303980.22, 0.0, 10.0032215, 9.997305 
2.4916662e+3, 2.8318104e+2, 249345.56, -64421.74, 20037.295, 0.32666403, 0.057402425, 250619.97, 415454.97, 0.0, 10.003156, 9.999016 
2.4913447e+3, 2.931754e+2, -108709.99, -144006.48, 148247.84, 0.19565856, 0.057102762, 22936.383, 89822.42, 0.0, 9.999863, 9.999373 
2.491028e+3, 3.031687e+2, -400268.0, -637497.2, 181842.28, 0.56781214, 0.11074471, -301774.25, -301774.25, 0.0, 9.999134, 9.996011 
2.490701e+3, 3.131575e+2, 400801.4, 92421.234, -48862.023, 0.044021104, -0.063395046, 408358.28, 408358.28, 0.0, 10.003125, 9.999082 
2.5068206e+3, 1.2358531e+2, -1464795.9, -1496008.5, 110401.63, 0.50740457, 0.1888533, -1368903.0, 359984.34, 0.42027465, 10.002184, 10.001609 
2.5064915e+3, 1.33583e+2, -1561311.5, -1336457.9, 5891.68, -0.18144198, 0.1301846, -1336303.6, 294600.1, 0.30251706, 9.998981, 10.003288 
2.5061694e+3, 1.435816e+2, -1765275.4, -1407331.6, -25867.08, -0.15674129, 0.22391503, -1405472.0, 127438.97, 0.18302314, 9.997095, 10.002366 
2.5058493e+3, 1.5357764e+2, -1552557.8, -1248445.5, -15975.538, -0.019899802, 0.06516106, -1247608.5, 187333.89, 0.08629053, 9.9979315, 10.002288 
2.505528e+3, 1.6357318e+2, -1428177.6, -1259227.1, -94099.86, 0.10144862, -0.041949153, -1217247.4, 119733.016, 0.028287582, 9.998728, 10.001058 
2.5052044e+3, 1.7356823e+2, -1179191.8, -1097615.0, -188433.77, 0.056175593, -0.16235623, -945605.6, 293420.22, 0.0050760456, 9.999842, 10.000921 
2.5048822e+3, 1.8356332e+2, -1170142.1, -1387306.9, -132446.94, 0.07290507, -0.11071675, -1107457.6, 33618.656, 0.00028139996, 10.000704, 9.99786 
2.5045624e+3, 1.9355865e+2, -955185.1, -1281145.0, -46486.582, 0.21989132, 0.14632618, -948685.06, 94450.055, 0.0000014559199, 10.001771, 9.997369 
2.50424e+3, 2.0355287e+2, -652190.25, -842692.3, -150685.56, 0.23739937, 0.2538938, -569174.94, 376023.06, 0.0, 10.002097, 9.9995775 
2.5039122e+3, 2.1354528e+2, -596137.0, -695319.44, -195201.1, -0.022941515, -0.042272393, -444326.28, 402939.78, 0.0, 10.001546, 10.000153 
2.503588e+3, 2.2353855e+2, -678437.3, -821992.1, -61988.83, -0.102686815, -0.17002966, -655374.75, 93952.46, 0.0, 10.000878, 9.998958 
2.50327e+3, 2.3353375e+2, -545701.94, -708970.2, -25135.51, 0.14912039, -0.06629542, -541919.94, 109453.695, 0.0, 10.001134, 9.998917 
2.5029495e+3, 2.4352837e+2, -407732.94, -587151.06, -92085.45, 0.2553658, 0.010723006, -368882.88, 184541.16, 0.0, 10.001373, 9.998984 
2.502625e+3, 2.5352177e+2, -168660.11, -394608.97, -104287.445, 0.061736785, -0.0879816, -127884.44, 327598.2, 0.0, 10.002268, 9.999169 
2.5023022e+3, 2.63515e+2, -205832.42, -591229.1, -38406.99, -0.033039697, -0.089219354, -202042.22, 155506.14, 0.0, 10.002309, 9.997147 
2.501983e+3, 2.7350798e+2, -182186.61, -550408.44, 15856.148, 0.10953362, -0.006021246, -181505.08, 78120.81, 0.0, 10.001915, 9.996922 
2.5016636e+3, 2.835015e+2, 110252.66, 51654.58, -42453.348, 0.2762261, 0.0075674793, 132535.78, 294228.25, 0.0, 10.001436, 10.000653 
2.5013423e+3, 2.9349613e+2, 257093.38, 277226.2, -75020.02, 0.41338918, -0.1931498, 342852.16, 406588.38, 0.0, 10.001359, 10.001541 
2.5010228e+3, 3.0349123e+2, -116707.88, -578072.3, 67375.05, 0.52449566, -0.06128968, -107070.15, -107070.15, 0.0, 10.001438, 9.995309 
2.500699e+3, 3.1348643e+2, 180160.34, -281451.16, 54876.91, -0.0058692456, 0.47202635, 186594.48, 186594.48, 0.0, 10.002779, 9.996672 
2.5168154e+3, 1.2391063e+2, -1545408.0, -1547689.1, -77573.83, 0.2633584, 0.17891908, -1468966.4, 256721.4, 0.3973432, 10.0012665, 10.001331 
2.5164878e+3, 1.3390422e+2, -1680907.1, -1633740.9, -76379.27, 0.07640859, 0.007695819, -1577386.8, 50361.48, 0.28406283, 9.999495, 10.000204 
2.516167e+3, 1.438999e+2, -1617010.5, -1342537.6, 12052.892, 0.36330172, -0.013890606, -1342009.4, 187776.33, 0.16993596, 9.998094, 10.002395 
2.5158435e+3, 1.5389727e+2, -1435889.8, -1152915.3, 29329.693, 0.08445618, -0.06964095, -1149907.3, 281894.56, 0.078587286, 9.998533, 10.002693 
2.515521e+3, 1.6389316e+2, -1486248.1, -1496569.8, -48895.37, -0.017678997, -0.07562453, -1442242.0, -108403.08, 0.024857625, 9.999218, 9.999174 
2.5152e+3, 1.7388691e+2, -1279483.3, -1394093.6, -137904.81, 0.10715195, -0.096014746, -1187451.1, 48455.066, 0.0041356636, 10.000196, 9.998725 
2.5148788e+3, 1.8388112e+2, -981310.3, -1100091.1, -85919.17, 0.12893, -0.07806316, -936253.0, 201714.9, 0.00018434241, 10.00114, 9.999617 
2.5145578e+3, 1.9387637e+2, -751820.9, -935997.1, 3441.592, 0.0646049, -0.040775876, -751756.6, 288261.88, 0.00000026313862, 10.002079, 9.9995985 
2.514235e+3, 2.0387219e+2, -617778.56, -854239.44, -154113.6, 0.033211622, 0.11493916, -541768.4, 400295.38, 0.0, 10.00245, 9.999322 
2.5139093e+3, 2.1386881e+2, -610394.0, -803238.6, -212088.0, 0.03961895, 0.33429873, -473838.66, 370261.4, 0.0, 10.001869, 9.99927 
2.513585e+3, 2.2386314e+2, -576990.8, -735989.7, -63263.813, -0.011749233, 0.35576308, -554890.7, 191263.64, 0.0, 10.001365, 9.999327 
2.5132632e+3, 2.3385456e+2, -534696.75, -662850.06, -33020.56, -0.09947659, 0.048164506, -526688.9, 121542.48, 0.0, 10.000994, 9.999315 
2.5129423e+3, 2.4384725e+2, -427667.38, -624544.06, -45309.2, -0.09009839, -0.07714385, -417740.47, 132558.9, 0.0, 10.001322, 9.998754 
2.5126222e+3, 2.5384158e+2, -134855.28, -441685.34, -69615.164, 0.027625196, -0.026604258, -119799.42, 332556.22, 0.0, 10.002725, 9.998647 
2.5123012e+3, 2.6383582e+2, -10999.014, -331678.97, -97003.31, 0.08930956, 0.0455307, 16060.452, 370473.25, 0.0, 10.002903, 9.998654 
2.5119793e+3, 2.7383e+2, -155098.1, -355602.6, -34225.54, 0.1078911, 0.08793425, -149416.88, 107055.32, 0.0, 10.00129, 9.998583 
2.511658e+3, 2.8382358e+2, -74426.06, -246700.05, -2243.2805, 0.1420423, 0.10270802, -74396.86, 84140.305, 0.0, 10.001039, 9.998803 
2.511337e+3, 2.9381675e+2, 265286.0, -25517.225, -124030.336, 0.16493227, 0.012942072, 310999.94, 371605.3, 0.0, 10.002682, 9.998844 
2.5110185e+3, 3.038117e+2, 291784.6, -212375.28, -62616.92, 0.31299934, 0.21030633, 299445.25, 299445.25, 0.0, 10.003478, 9.996848 
2.5107008e+3, 3.1380862e+2, 375827.66, -5074.514, -4759.9033, 0.37001783, 0.7121907, 375887.16, 375887.16, 0.0, 10.003273, 9.998358 
2.526811e+3, 1.24232866e+2, -1930189.1, -1727138.5, -111570.43, 0.42335388, 0.01276789, -1677815.0, 44708.984, 0.37209463, 9.99801, 10.000983 
2.526484e+3, 1.3422753e+2, -1415466.6, -1545289.0, -6947.2207, 0.14185843, -0.029416073, -1415096.0, 209480.06, 0.26429734, 10.00203, 9.999675 
2.526163e+3, 1.4422233e+2, -1044326.5, -1194156.6, 68735.35, 0.36136892, -0.045159604, -1017571.44, 509052.63, 0.15642525, 10.003334, 10.001017 
2.5258392e+3, 1.5421882e+2, -1093482.3, -1138452.6, -12729.01, 0.11255058, -0.045002416, -1090129.3, 338522.25, 0.071005836, 10.00184, 10.001152 
2.5255167e+3, 1.642138e+2, -1316231.8, -1520295.0, -74993.69, 0.04900155, -0.016113175, -1291635.9, 39063.39, 0.021693112, 10.000882, 9.998212 
2.525196e+3, 1.7420667e+2, -1234012.9, -1452380.5, -60033.184, 0.17572278, -0.05146279, -1218596.9, 14178.989, 0.00335279, 10.000907, 9.997976 
2.524875e+3, 1.8420058e+2, -1035241.1, -1051600.0, 15130.168, 0.18352419, -0.046868484, -1026221.0, 108618.21, 0.00011963712, 10.000445, 10.000299 
2.5245535e+3, 1.9419593e+2, -1000910.9, -958506.4, 7380.721, 0.009117421, -0.09354026, -957258.44, 79625.414, 0.00000002568285, 9.999924, 10.000496 
2.5242308e+3, 2.0419204e+2, -986853.2, -1100784.1, -193364.6, -0.04350699, 0.061562, -842237.56, 96687.16, 0.0, 10.000216, 9.998707 
2.523906e+3, 2.1418938e+2, -670135.2, -910071.44, -215792.31, 0.050487958, 0.40354013, -543205.2, 297753.75, 0.0, 10.001791, 9.998571 
2.5235817e+3, 2.2418395e+2, -556685.8, -732070.2, -101205.125, 0.026968762, 0.48877823, -510466.13, 232546.75, 0.0, 10.001557, 9.999254 
2.5232577e+3, 2.3417455e+2, -730074.1, -739789.8, -93190.51, -0.18972008, 0.07215324, -641614.94, 3480.6418, 0.0, 9.999611, 9.999444 
2.5229362e+3, 2.4416685e+2, -820512.94, -867851.9, -28675.248, -0.22908418, -0.07593727, -807000.25, -259832.45, 0.0, 9.998909, 9.998234 
2.5226188e+3, 2.5416166e+2, -542509.06, -687640.25, -16402.818, -0.014088256, 0.053519513, -540678.3, -91453.92, 0.0, 10.000179, 9.998168 
2.5222987e+3, 2.6415634e+2, -293862.88, -401208.9, -157990.52, 0.11225159, 0.16682497, -180677.28, 170601.48, 0.0, 10.000692, 9.999236 
2.521975e+3, 2.74151e+2, -218756.3, -281176.88, -174679.06, 0.09355729, 0.15643413, -72521.234, 180807.34, 0.0, 10.000414, 9.999502 
2.5216526e+3, 2.8414452e+2, -284856.9, -543387.06, -50491.543, 0.008658331, 0.17947152, -275345.72, -119951.94, 0.0, 10.00047, 9.997028 
2.5213313e+3, 2.941366e+2, -60561.824, -416184.1, -24097.244, -0.16269565, 0.17293368, -58936.402, -1457.3972, 0.0, 10.001471, 9.996736 
2.521015e+3, 3.0413166e+2, 123974.67, -159553.11, 15676.15, 0.13536082, 0.44747522, 124838.766, 124838.766, 0.0, 10.001786, 9.998023 
2.520698e+3, 3.1412596e+2, 202995.66, 91799.85, 70882.1, 0.25095037, 0.5109599, 237483.27, 237483.27, 0.0, 10.001418, 9.999886 
2.5368065e+3, 1.24554545e+2, -1847163.3, -1663115.5, 92614.85, 0.5768697, -0.12213728, -1624579.4, 94789.6, 0.34545884, 9.998356, 10.001411 
2.53648e+3, 1.3455196e+2, -1368911.1, -1429033.5, 90956.05, 0.03553117, 0.006442682, -1303177.4, 318217.66, 0.24384478, 10.001815, 10.000819 
2.5361574e+3, 1.4454694e+2, -1219103.6, -1506626.5, 24551.977, -0.033094384, 0.06139269, -1217022.1, 306422.22, 0.14280652, 10.003041, 9.998594 
2.5358358e+3, 1.5454113e+2, -1228712.8, -1482731.5, -56614.223, 0.095435485, 0.10646774, -1216666.1, 208834.61, 0.06363834, 10.0021105, 9.998505 
2.5355142e+3, 1.6453454e+2, -1217417.8, -1431976.0, -67495.17, 0.18965805, 0.11086365, -1197951.5, 129613.53, 0.0187796, 10.001388, 9.99857 
2.5351927e+3, 1.7452694e+2, -1144869.4, -1346550.9, -50628.02, 0.21672851, -0.023765622, -1132873.6, 96766.19, 0.0026956536, 10.001212, 9.998564 
2.5348708e+3, 1.8452106e+2, -996613.75, -1047424.94, -3596.1987, 0.17745882, -0.025200171, -996360.5, 135336.53, 0.00007576087, 10.000776, 10.000155 
2.534549e+3, 1.9451714e+2, -1006091.9, -1004202.0, -14430.535, 0.07536118, 0.04825358, -990685.5, 43047.84, 0.00000000011876218, 10.000059, 10.000118 
2.5342262e+3, 2.045116e+2, -952621.6, -1084124.0, -134639.6, 0.0022994042, 0.065724306, -868536.06, 67252.805, 0.0, 10.000427, 9.99871 
2.5339022e+3, 2.1450453e+2, -618380.5, -885710.06, -146543.05, -0.015509141, -0.022869335, -553699.25, 284164.16, 0.0, 10.002123, 9.998573 
2.5335786e+3, 2.244984e+2, -492217.0, -695101.94, -172167.36, 0.010174601, -0.01438554, -393829.1, 346095.25, 0.0, 10.001943, 9.999324 
2.533255e+3, 2.3449302e+2, -748308.94, -768031.2, -183149.19, 0.09216868, -0.0029105574, -574755.6, 67216.56, 0.0, 9.999525, 9.999311 
2.5329328e+3, 2.444875e+2, -841016.2, -850205.8, 6907.5396, 0.071312726, 0.066430524, -837314.9, -293288.97, 0.0, 9.998602, 9.998514 
2.5326127e+3, 2.5448218e+2, -614511.94, -699982.75, 27121.297, -0.043151516, 0.174726, -606632.4, -160548.81, 0.0, 9.999566, 9.998388 
2.532292e+3, 2.6447573e+2, -426722.4, -575487.4, -153220.33, -0.055262662, 0.20985839, -330783.94, 17366.256, 0.0, 10.000227, 9.998267 
2.5319698e+3, 2.7446795e+2, -313431.03, -474667.47, -210896.94, 0.068231516, 0.084989406, -168268.8, 81958.05, 0.0, 10.000347, 9.998224 
2.5316486e+3, 2.8446153e+2, -143623.36, -257961.44, -58092.695, 0.056399975, 0.0899981, -119287.42, 33000.773, 0.0, 10.000507, 9.998955 
2.531327e+3, 2.944565e+2, -5215.8555, -165562.97, 27665.047, -0.16363476, 0.17847313, -576.9483, 53756.836, 0.0, 10.00088, 9.998745 
2.53101e+3, 3.0444983e+2, -26334.97, -302863.84, 70030.88, 0.0003636817, 0.2173117, -9611.09, -9611.09, 0.0, 10.001042, 9.997411 
2.5306916e+3, 3.1444043e+2, 58334.156, -67629.91, 45149.867, 0.036833048, 0.030682873, 72845.65, 72845.65, 0.0, 10.000744, 9.99917 
2.546796e+3, 1.2487668e+2, -2060610.3, -1825157.0, 185444.83, 0.24248186, -0.04221736, -1723226.3, -7016.1646, 0.31815624, 9.997349, 10.000462 
2.5464773e+3, 1.3487302e+2, -1814662.3, -1724582.1, -32881.82, 0.24311797, 0.049036793, -1713856.4, -95604.414, 0.22319707, 9.998688, 9.999849 
2.546155e+3, 1.4486751e+2, -1569588.4, -1717793.4, -140520.19, 0.056509178, 0.09304408, -1484829.0, 35479.707, 0.12934339, 10.000384, 9.998444 
2.545833e+3, 1.5486267e+2, -1144966.5, -1474935.0, -87218.32, 0.090464644, 0.2376189, -1123331.3, 299024.66, 0.05657354, 10.002819, 9.998265 
2.545511e+3, 1.6485567e+2, -964787.0, -1351375.5, -85525.914, 0.15555592, 0.23552209, -946711.06, 377712.47, 0.016116831, 10.003348, 9.998169 
2.5451887e+3, 1.7484662e+2, -995919.4, -1321456.8, -135964.81, 0.15389717, -0.021904208, -946603.0, 279907.0, 0.0021455006, 10.002451, 9.998124 
2.5448662e+3, 1.8484034e+2, -898534.56, -1071059.6, -115454.28, 0.11930439, -0.020326216, -840675.9, 287893.72, 0.000046550977, 10.001777, 9.999506 
2.5445443e+3, 1.9483684e+2, -839047.94, -986723.44, -139681.83, 0.04747269, 0.1363001, -754888.75, 275713.03, 0.0, 10.00151, 9.999524 
2.5442216e+3, 2.048309e+2, -908284.75, -1070554.3, -219521.06, -0.012942183, 0.14067543, -755384.56, 177276.16, 0.0, 10.000804, 9.998621 
2.543898e+3, 2.1482225e+2, -930444.56, -1036814.94, -215274.86, -0.077197164, -0.12361965, -761882.3, 72866.87, 0.0, 10.000022, 9.998544 
2.5435746e+3, 2.2481562e+2, -804172.56, -867574.7, -301674.16, 0.007896807, -0.15585975, -532538.44, 204275.69, 0.0, 9.99995, 9.999092 
2.5432512e+3, 2.348115e+2, -628437.94, -732592.5, -302712.84, 0.24126376, -0.01701365, -373355.47, 265495.63, 0.0, 10.0005, 9.999071 
2.542929e+3, 2.4480686e+2, -590614.0, -736595.2, -49750.41, 0.22532073, 0.15570329, -575271.5, -34374.176, 0.0, 10.000396, 9.998423 
2.5426072e+3, 2.5480163e+2, -547551.9, -658175.4, -33283.605, -0.09551869, 0.2466814, -538309.9, -95355.63, 0.0, 10.0000105, 9.998456 
2.542286e+3, 2.6479426e+2, -545536.9, -723010.4, -207124.23, -0.16630603, 0.22213988, -408941.3, -63911.883, 0.0, 9.999821, 9.997451 
2.5419652e+3, 2.747846e+2, -429469.16, -625124.3, -187817.3, 0.073254324, -0.02446967, -315529.03, -68404.305, 0.0, 9.999984, 9.997362 
2.541645e+3, 2.847785e+2, -51389.49, -76506.58, -34306.844, 0.1210751, 0.0037546484, -27414.807, 121764.39, 0.0, 10.000568, 10.0001745 
2.5413236e+3, 2.9477596e+2, 241959.8, 120855.305, -33439.773, -0.13732548, 0.18047534, 250579.75, 301771.8, 0.0, 10.00189, 10.0002165 
2.5410044e+3, 3.0476654e+2, -11736.94, -396026.63, -54689.21, -0.16201313, -0.09371137, -4105.532, -4105.532, 0.0, 10.001593, 9.996508 
2.540685e+3, 3.1475437e+2, -59079.81, -56596.27, -12828.859, -0.20161425, -0.49520853, -44949.223, -44949.223, 0.0, 9.999654, 9.999776 
2.5567874e+3, 1.2519957e+2, -2027143.8, -2111572.8, 163886.94, 0.046717104, 0.23891772, -1900121.8, -187077.1, 0.2908175, 9.998887, 9.997755 
2.556475e+3, 1.3519141e+2, -1838965.0, -1952777.0, 39212.473, 0.6232284, 0.091906, -1826763.0, -211624.42, 0.2027681, 9.999443, 9.997928 
2.5561535e+3, 1.4518535e+2, -1401126.0, -1432543.6, -34896.48, 0.3471773, 0.08741767, -1378565.6, 138636.6, 0.11625642, 10.000729, 10.000288 
2.5558305e+3, 1.5518361e+2, -1015577.06, -1219108.0, 9576.264, 0.03693622, 0.36039537, -1015127.44, 404087.7, 0.04988728, 10.002871, 10.0000515 
2.5555074e+3, 1.6517673e+2, -1014362.8, -1502298.6, -108528.055, -0.060458083, 0.34367627, -991312.56, 329967.34, 0.013707004, 10.003518, 9.997066 
2.555185e+3, 1.7516516e+2, -1025678.1, -1457816.3, -148129.64, -0.0004667638, -0.038135406, -979777.3, 243614.53, 0.0016894786, 10.002742, 9.997065 
2.5548622e+3, 1.8515779e+2, -874321.1, -1119551.3, -112028.84, -0.019564936, -0.065325946, -830849.06, 294614.38, 0.000027889511, 10.002194, 9.998966 
2.5545397e+3, 1.9515437e+2, -822675.5, -1052388.3, -140244.44, -0.089805126, 0.17290029, -756257.25, 271239.6, 0.0, 10.001927, 9.998878 
2.5542167e+3, 2.0514984e+2, -823813.25, -987508.4, -261326.08, -0.11326013, 0.33426505, -631817.1, 297726.3, 0.0, 10.001178, 9.999016 
2.5538924e+3, 2.1514408e+2, -911628.56, -995272.56, -251871.61, -0.095950775, 0.33895662, -698130.4, 133473.89, 0.0, 9.999974, 9.998866 
2.5535688e+3, 2.2513725e+2, -798795.44, -863924.25, -256124.83, -0.015579573, 0.2689866, -573173.2, 160496.58, 0.0, 9.999966, 9.999112 
2.5532457e+3, 2.3512988e+2, -551717.94, -707863.1, -259423.55, 0.13815875, 0.10605645, -358873.75, 276861.3, 0.0, 10.001071, 9.998968 
2.552924e+3, 2.4512342e+2, -461273.5, -676559.06, -74307.445, 0.10434588, 0.10173099, -438116.56, 99681.91, 0.0, 10.00126, 9.998427 
2.5526023e+3, 2.551177e+2, -503631.84, -654902.4, -81976.82, -0.12039881, 0.16649964, -467728.38, -27867.56, 0.0, 10.000356, 9.998325 
2.5522816e+3, 2.6511088e+2, -445327.16, -554192.3, -213100.22, -0.063542604, 0.1472478, -279817.44, 62108.727, 0.0, 9.999959, 9.998551 
2.5519624e+3, 2.751028e+2, -346003.7, -475837.2, -168187.33, 0.29675278, -0.027893167, -230639.64, 13356.605, 0.0, 10.000061, 9.9983635 
2.5516424e+3, 2.850958e+2, -57988.137, -221268.05, 49108.75, 0.27443042, -0.07547356, -44356.1, 101702.586, 0.0, 10.001086, 9.998943 
2.551321e+3, 2.9509008e+2, 290383.94, -17400.56, -20819.271, -0.16691622, -0.07034837, 291785.8, 339897.25, 0.0, 10.002869, 9.9988165 
2.5510028e+3, 3.0508238e+2, 276561.2, -14005.874, -205206.63, -0.05086147, -0.21468969, 382707.7, 382707.7, 0.0, 10.00248, 9.998723 
2.5506794e+3, 3.1507537e+2, -67959.48, -2210.4675, -149914.64, -0.17745957, -0.2956539, 118391.84, 118391.84, 0.0, 9.9992895, 10.000332 
2.5667843e+3, 1.2551619e+2, -1300306.3, -1648594.4, -57150.82, 0.011624612, 0.0985946, -1291168.1, 418778.34, 0.26403108, 10.004627, 9.998336 
2.5664696e+3, 1.3551076e+2, -1496769.6, -1704986.5, -3870.9834, 0.50091803, 0.14952375, -1496697.8, 115310.32, 0.18292536, 10.001677, 9.998572 
2.5661486e+3, 1.4550503e+2, -1465450.0, -1488106.9, 25593.805, 0.31919703, 0.16522895, -1448789.6, 65277.992, 0.1037245, 10.000344, 10.000025 
2.5658283e+3, 1.555016e+2, -1345006.9, -1419075.6, -54980.027, 0.15258199, 0.27895796, -1315751.4, 100347.914, 0.043632858, 10.000671, 9.999661 
2.5655055e+3, 1.6549498e+2, -1333205.8, -1585797.3, -194631.27, 0.04348051, 0.26674747, -1227484.4, 90677.73, 0.011545959, 10.001037, 9.997664 
2.5651813e+3, 1.7548515e+2, -1167188.8, -1472912.0, -121825.92, -0.06203771, -0.0093762465, -1124581.1, 95675.35, 0.0013158798, 10.001584, 9.9974985 
2.564858e+3, 1.8547784e+2, -989594.56, -1187696.5, -8713.851, -0.11445239, -0.03614837, -989212.0, 133114.05, 0.000016496271, 10.001497, 9.99882 
2.564536e+3, 1.954731e+2, -1001768.3, -1167992.6, -1830.0327, -0.12927608, 0.08332089, -1001748.1, 22622.746, 0.0, 10.000843, 9.998606 
2.5642124e+3, 2.0546812e+2, -932153.06, -1054093.3, -131125.81, -0.11588977, 0.24244286, -848515.6, 77905.69, 0.0, 10.000526, 9.998872 
2.5638875e+3, 2.1546295e+2, -868228.0, -986033.6, -156577.0, -0.095411256, 0.31857398, -759840.94, 68635.586, 0.0, 10.000353, 9.998746 
2.563564e+3, 2.2545649e+2, -683914.75, -835893.7, -113717.87, -0.035039306, 0.31342927, -623133.75, 107405.46, 0.0, 10.000891, 9.998852 
2.563241e+3, 2.3544864e+2, -446174.47, -690362.94, -112447.07, 0.023258224, 0.12021053, -402282.72, 230327.92, 0.0, 10.001946, 9.998661 
2.5629193e+3, 2.4544127e+2, -476146.6, -760466.6, -44801.227, -0.0045703216, 0.087488286, -469254.22, 65431.063, 0.0, 10.001533, 9.997705 
2.5625974e+3, 2.5543448e+2, -620442.25, -778252.6, -95099.42, -0.13605794, 0.105656885, -575775.9, -139015.28, 0.0, 9.999871, 9.997703 
2.5622776e+3, 2.6542822e+2, -376149.25, -379864.72, -157270.98, 0.032180592, 0.109285705, -220725.03, 118090.7, 0.0, 9.999859, 9.999782 
2.5619593e+3, 2.7542213e+2, -82065.82, -217599.84, -73030.086, 0.4446127, -0.0067153033, -50204.72, 190651.89, 0.0, 10.001341, 9.999509 
2.561639e+3, 2.8541398e+2, -230492.64, -461656.84, 148432.25, 0.3219052, -0.14558059, -157948.84, -15017.763, 0.0, 10.000609, 9.997513 
2.5613168e+3, 2.954046e+2, -436922.9, -518679.25, 118974.08, -0.28720576, -0.3618663, -352000.22, -306972.13, 0.0, 9.998553, 9.997436 
2.5610006e+3, 3.054008e+2, -127642.76, 8412.056, -162652.83, 0.120818764, -0.13529217, 116690.26, 116690.26, 0.0, 9.998824, 10.000605 
2.560677e+3, 3.1539863e+2, -35790.13, 1041.5468, -143892.67, 0.122021645, 0.06058586, 127692.055, 127692.055, 0.0, 9.999657, 10.000141 
2.576782e+3, 1.2583113e+2, -1253383.0, -1463416.4, -115890.46, -0.1891664, -0.07101247, -1202005.6, 504861.06, 0.23823525, 10.003918, 10.00032 
2.576462e+3, 1.3583058e+2, -1362647.1, -1417823.3, -78852.49, 0.0474855, 0.22529177, -1306695.9, 302171.84, 0.16394834, 10.001663, 10.000792 
2.576142e+3, 1.4582516e+2, -1538062.5, -1700101.1, 55538.867, 0.07171899, 0.253009, -1520854.0, -9931.992, 0.09188186, 10.000563, 9.998451 
2.575827e+3, 1.5581673e+2, -1402048.0, -1595350.8, -16144.812, 0.41884607, 0.034849867, -1400708.8, 12300.367, 0.03784501, 10.000869, 9.998367 
2.5755048e+3, 1.6581084e+2, -1141838.6, -1243761.8, -150554.67, 0.34014148, 0.045140468, -1033854.3, 281211.88, 0.009625426, 10.001298, 9.999876 
2.5751778e+3, 1.7580645e+2, -972642.2, -1143627.9, -80654.305, -0.07494935, 0.10776981, -940601.44, 276503.7, 0.0010124295, 10.001901, 9.999598 
2.574854e+3, 1.8580021e+2, -899014.4, -1062748.9, -23196.977, -0.181847, 0.052510172, -895791.44, 223368.2, 0.000009793076, 10.001762, 9.999549 
2.5745326e+3, 1.9579296e+2, -930275.9, -1069467.9, -2534.1104, -0.041665673, -0.12682374, -930229.75, 90992.82, 0.0, 10.001031, 9.999199 
2.574209e+3, 2.057849e+2, -935995.9, -1126268.8, -103290.305, -0.00057187374, -0.27159584, -890705.0, 32593.76, 0.0, 10.000751, 9.998286 
2.5738835e+3, 2.1577649e+2, -846133.2, -1047142.06, -121105.71, -0.027724784, -0.4405173, -789259.94, 36122.73, 0.0, 10.000762, 9.998151 
2.57356e+3, 2.2577116e+2, -601946.6, -792958.5, -39792.67, -0.06703477, -0.30300093, -593988.4, 133449.11, 0.0, 10.001415, 9.998881 
2.5732374e+3, 2.357678e+2, -378371.2, -685493.0, -44669.266, -0.09396718, -0.03168564, -372006.2, 257467.61, 0.0, 10.00249, 9.998435 
2.572915e+3, 2.4576157e+2, -520648.3, -938110.94, -84401.67, -0.07343319, 0.14045314, -504229.9, 27314.885, 0.0, 10.001877, 9.996325 
2.5725934e+3, 2.5575358e+2, -671684.7, -929349.75, -136132.98, -0.03865931, 0.19572672, -613087.2, -179449.02, 0.0, 10.000024, 9.996609 
2.5722733e+3, 2.6574734e+2, -148273.67, -12700.241, -57153.355, 0.072561406, 0.13203609, 8178.396, 343867.9, 0.0, 10.000298, 10.002093 
2.5719544e+3, 2.7574235e+2, 166308.17, 118129.72, 25330.916, 0.27636454, -0.07701599, 177175.3, 414886.44, 0.0, 10.002098, 10.001459 
2.571633e+3, 2.857355e+2, -258533.36, -495710.53, 63960.004, 0.1662667, -0.16119874, -242384.66, -102611.06, 0.0, 10.000469, 9.997348 
2.5713092e+3, 2.9572755e+2, -778900.56, -702407.8, 69920.414, -0.20956062, -0.19860359, -660956.94, -619094.0, 0.0, 9.9962435, 9.997301 
2.5709933e+3, 3.0572334e+2, -392790.3, 2132.8545, 72905.84, 0.2217397, -0.058766294, 15161.98, 15161.98, 0.0, 9.99645, 10.001715 
2.5706723e+3, 3.157149e+2, 137687.5, 239096.97, -114058.9, 0.18267967, -0.56931037, 313213.72, 313213.72, 0.0, 10.000132, 10.001566 
2.5867778e+3, 1.2615122e+2, -1736084.6, -1654811.6, -83659.305, -0.28259528, 0.070000164, -1602441.6, 101289.695, 0.21372975, 9.999443, 10.000777 
2.5864586e+3, 1.3614807e+2, -1379087.8, -1438393.3, -131770.4, 0.05115553, 0.09264638, -1273674.9, 332078.56, 0.14603175, 10.001525, 10.000672 
2.5861385e+3, 1.461428e+2, -1365982.8, -1556975.6, 7032.462, 0.12513335, 0.110331796, -1365724.1, 142081.27, 0.080827504, 10.001627, 9.998913 
2.5858226e+3, 1.5613565e+2, -1417852.3, -1563926.0, 49079.316, 0.40198937, -0.026173702, -1402893.9, 6987.5845, 0.032553293, 10.000632, 9.998677 
2.5855002e+3, 1.6613035e+2, -1231633.6, -1272052.1, -58654.55, 0.30811822, 0.027495084, -1189804.5, 122130.16, 0.007938516, 10.000627, 9.999991 
2.5851738e+3, 1.761266e+2, -1090069.9, -1194664.9, -124543.07, -0.09778878, 0.13008448, -1007289.56, 206679.27, 0.00076767127, 10.001081, 9.999644 
2.5848505e+3, 1.8612099e+2, -1003709.3, -1116199.8, -182390.33, -0.13533334, 0.12999222, -869088.7, 246929.92, 0.000005913737, 10.001073, 9.999508 
2.5845295e+3, 1.961138e+2, -1023361.9, -1121298.1, -206387.36, 0.08235707, -0.07048029, -860213.0, 157868.67, 0.0, 10.000462, 9.999104 
2.5842053e+3, 2.0610484e+2, -994127.2, -1191439.8, -257241.34, 0.087850764, -0.29593316, -817272.7, 102891.78, 0.0, 10.000553, 9.997912 
2.583879e+3, 2.1609479e+2, -845361.94, -1090136.6, -229376.0, -0.067693666, -0.62360513, -707764.6, 114495.49, 0.0, 10.000981, 9.997733 
2.5835553e+3, 2.2608954e+2, -713882.94, -910525.9, -143120.33, -0.12342523, -0.43487257, -638565.3, 85750.13, 0.0, 10.000972, 9.998286 
2.5832337e+3, 2.360876e+2, -687733.9, -895693.56, -186024.88, -0.12183833, 0.019432731, -578600.94, 47741.902, 0.0, 10.000684, 9.997858 
2.5829116e+3, 2.4608183e+2, -731707.94, -1018150.9, -198206.22, -0.04687954, 0.24420771, -630392.9, -101983.72, 0.0, 10.000358, 9.996493 
2.5825888e+3, 2.5607345e+2, -712346.5, -927211.7, -72509.79, 0.05568045, 0.23631176, -690166.44, -259663.48, 0.0, 9.99968, 9.9967785 
2.582268e+3, 2.6606694e+2, -243265.58, 2136.1926, 41291.02, 0.07965584, 0.11414496, 8897.485, 341452.8, 0.0, 9.999414, 10.002613 
2.5819483e+3, 2.7606183e+2, -180374.67, -4688.1685, -46027.043, 0.050912723, -0.17976111, 6639.7734, 241217.19, 0.0, 9.999552, 10.001831 
2.5816268e+3, 2.860566e+2, -335133.34, -504228.34, -175855.42, 0.027237177, -0.13311535, -224556.75, -87931.78, 0.0, 9.999846, 9.997585 
2.581303e+3, 2.9605106e+2, -256001.22, -414172.84, -101953.625, -0.041829944, 0.025309563, -206055.61, -167362.64, 0.0, 9.9997015, 9.997609 
2.5809854e+3, 3.0604506e+2, 8483.295, 264495.06, 55078.027, 0.18001588, -0.073917545, 275841.6, 275841.6, 0.0, 9.998938, 10.002304 
2.5806677e+3, 3.1604135e+2, -226870.13, -183422.27, -131560.88, 0.2282898, -0.17624989, -71803.805, -71803.805, 0.0, 9.998717, 9.999338 
2.5967735e+3, 1.2647375e+2, -1639195.4, -1708475.1, -8377.43, -0.20353036, 0.33956802, -1638196.8, 62372.734, 0.19076674, 10.000706, 9.999674 
2.596458e+3, 1.364637e+2, -1422307.6, -1552689.0, -32651.266, 0.33210436, -0.16473773, -1414587.9, 188071.44, 0.12932399, 10.001598, 9.999729 
2.5961372e+3, 1.4645895e+2, -1248507.3, -1287633.9, 3906.5464, 0.29379383, -0.1594307, -1248121.1, 256584.7, 0.07062259, 10.001514, 10.000929 
2.5958154e+3, 1.5645735e+2, -1280467.3, -1326286.5, 40677.934, 0.11803274, 0.081928045, -1256691.3, 150035.1, 0.027766839, 10.000849, 10.000221 
2.595493e+3, 1.6645207e+2, -1279336.1, -1445534.0, -27040.924, -0.005378608, 0.14746542, -1275047.1, 33734.668, 0.0064744665, 10.000926, 9.998657 
2.59517e+3, 1.7644495e+2, -1118799.6, -1347536.1, -86900.266, -0.11671799, 0.0614929, -1089530.4, 121323.97, 0.0005723583, 10.001447, 9.998431 
2.5948483e+3, 1.8643987e+2, -1000656.1, -1168880.4, -190698.23, -0.008580241, 0.19575854, -876344.0, 236563.56, 0.0000035552432, 10.001306, 9.999044 
2.5945267e+3, 1.9643572e+2, -1005001.06, -1160713.9, -212043.84, 0.22988023, 0.3648438, -856972.06, 157979.67, 0.0, 10.000759, 9.998705 
2.594201e+3, 2.0642875e+2, -904674.8, -1095912.3, -236296.48, 0.0788642, 0.32927594, -745383.8, 171633.56, 0.0, 10.000925, 9.998395 
2.593873e+3, 2.1642014e+2, -766758.1, -1039505.7, -215315.61, -0.2777313, 0.12556376, -648262.06, 170833.98, 0.0, 10.001424, 9.99789 
2.5935507e+3, 2.2641335e+2, -746773.75, -1046271.8, -174165.88, -0.20388119, 0.21387717, -666830.56, 54336.375, 0.0, 10.001252, 9.997214 
2.5932315e+3, 2.364079e+2, -709774.75, -957222.2, -222559.67, 0.09614956, 0.43416175, -578860.75, 44369.465, 0.0, 10.000721, 9.997421 
2.592909e+3, 2.4640149e+2, -450468.72, -432898.5, -208828.63, 0.17580643, 0.38113502, -232670.27, 292617.6, 0.0, 10.000316, 10.000538 
2.5925845e+3, 2.5639436e+2, -464318.0, -464319.3, -35384.742, 0.1485077, 0.11776858, -428933.9, -1588.9713, 0.0, 9.999869, 9.99987 
2.5922623e+3, 2.6638672e+2, -518131.0, -553382.56, 55038.832, 0.05374864, -0.038558204, -477964.56, -148553.28, 0.0, 9.999342, 9.998821 
2.591941e+3, 2.7637908e+2, -508019.38, -514874.1, -102983.93, -0.0549458, -0.19745585, -408405.78, -176927.05, 0.0, 9.998796, 9.998688 
2.5916216e+3, 2.8637382e+2, -217352.5, -274088.25, -176066.23, 0.030508935, -0.11099153, -67383.45, 66145.86, 0.0, 9.999927, 9.99912 
2.5913018e+3, 2.963697e+2, 161835.23, -66085.09, -123031.24, 0.17799531, 0.05359835, 215576.02, 251149.33, 0.0, 10.001948, 9.998917 
2.5909808e+3, 3.0636367e+2, 147145.53, 86135.43, -151998.2, 0.18008749, 0.0032156215, 271669.53, 271669.53, 0.0, 10.000941, 10.000109 
2.5906602e+3, 3.1635863e+2, -335858.4, -300103.47, 107715.46, 0.13458896, -0.01135476, -208791.98, -208791.98, 0.0, 9.998211, 9.998785 
2.6067767e+3, 1.267956e+2, -1066096.4, -1544804.4, 35065.613, 0.2302584, 0.2221248, -1063541.4, 633869.0, 0.16949081, 10.006037, 9.998437 
2.6064542e+3, 1.3678525e+2, -1520980.5, -1696438.6, 57498.453, 0.32184577, -0.23284997, -1503816.9, 95686.805, 0.11391108, 10.001276, 9.998827 
2.6061326e+3, 1.4678064e+2, -1453658.1, -1473276.6, 117640.984, 0.25413442, -0.117966235, -1345418.1, 156134.63, 0.061296463, 10.0004, 10.000104 
2.6058117e+3, 1.5677926e+2, -1221316.9, -1376000.6, 1263.2908, 0.12921776, 0.21609502, -1221306.6, 182269.05, 0.023481611, 10.001584, 9.999527 
2.6054892e+3, 1.6677378e+2, -1141924.6, -1329800.6, -44739.76, 0.006663812, 0.26110074, -1131814.5, 173817.89, 0.005220199, 10.001649, 9.99912 
2.6051664e+3, 1.7676602e+2, -1196860.3, -1381764.1, 11539.428, -0.07498242, 0.0712147, -1196142.9, 11566.3, 0.00041937284, 10.000897, 9.998474 
2.604845e+3, 1.8676068e+2, -1071864.9, -1294904.8, -39389.152, 0.057855733, 0.23755957, -1065113.1, 44656.195, 0.0000020172258, 10.001219, 9.998219 
2.6045233e+3, 1.967568e+2, -901010.94, -1198734.0, -85883.12, 0.27986526, 0.51427484, -878013.06, 133805.36, 0.0, 10.001866, 9.997909 
2.6041976e+3, 2.0675075e+2, -684887.25, -978814.25, -114989.95, 0.08645083, 0.6136892, -645247.0, 268630.0, 0.0, 10.002445, 9.998442 
2.6038697e+3, 2.1674342e+2, -603719.0, -966798.1, -125938.875, -0.31456628, 0.5338438, -564312.4, 251629.98, 0.0, 10.002629, 9.997791 
2.6035467e+3, 2.2673582e+2, -773493.7, -1079352.0, -92635.93, -0.21663298, 0.563291, -747624.8, -29604.428, 0.0, 10.001165, 9.99703 
2.603227e+3, 2.3672807e+2, -1002930.6, -1082524.1, -46586.9, 0.15205535, 0.5743577, -981456.5, -361351.9, 0.0, 9.99866, 9.99755 
2.6029044e+3, 2.4672133e+2, -541587.3, -258944.42, -93224.62, 0.24078244, 0.38804096, -230965.61, 291191.22, 0.0, 9.998801, 10.002452 
2.6025796e+3, 2.5671506e+2, -371654.0, -281146.1, -115425.69, 0.15926136, 0.012284595, -202420.19, 221772.23, 0.0, 9.999941, 10.001093 
2.6022562e+3, 2.667069e+2, -594816.4, -874256.6, -12741.183, 0.009113641, -0.108222954, -594236.7, -267968.72, 0.0, 10.000071, 9.996268 
2.6019344e+3, 2.7669775e+2, -570904.0, -787884.3, 14321.841, -0.15233693, -0.16782765, -569962.75, -341597.66, 0.0, 9.999438, 9.996509 
2.6016164e+3, 2.8669208e+2, -142219.83, -113819.66, 35487.824, 0.034332614, -0.07821436, -89796.34, 40623.973, 0.0, 9.999903, 10.000241 
2.6012996e+3, 2.9668847e+2, 31158.918, -65320.35, 31717.516, 0.30724978, 0.031048916, 40651.97, 73103.3, 0.0, 10.000774, 9.9994955 
2.6009756e+3, 3.0668268e+2, -60710.895, -250371.75, -92592.45, 0.09866154, 0.10439783, -23003.883, -23003.883, 0.0, 10.000533, 9.997993 
2.6006502e+3, 3.1667227e+2, -494492.8, -663313.75, 311049.22, -0.26002222, -0.22149572, -256604.13, -256604.13, 0.0, 9.9984045, 9.99618 
2.6167825e+3, 1.2711716e+2, -1115289.8, -1542437.0, -112031.945, 0.69588214, -0.0946621, -1087689.5, 606562.9, 0.1498811, 10.005328, 9.998778 
2.616448e+3, 1.3711031e+2, -1439481.8, -1749875.0, -55007.0, 0.082193494, -0.14467813, -1430021.9, 166289.98, 0.09979579, 10.002268, 9.997993 
2.6161265e+3, 1.4710507e+2, -1514134.1, -1767060.0, 182653.27, 0.07045794, 0.09146454, -1418437.0, 79936.65, 0.05285716, 10.001135, 9.997704 
2.615811e+3, 1.5710068e+2, -1304304.3, -1592191.4, 61527.77, 0.34027374, 0.3714888, -1291705.8, 108728.92, 0.019694533, 10.001734, 9.997976 
2.6154882e+3, 1.6709535e+2, -982421.25, -1015924.5, -49868.285, 0.22342376, 0.3666316, -946566.2, 355920.6, 0.004163879, 10.001716, 10.001245 
2.615163e+3, 1.7708942e+2, -1054914.8, -1150567.5, 16199.48, -0.042755805, 0.16397732, -1052245.8, 152291.72, 0.00030229846, 10.001167, 9.999921 
2.614841e+3, 1.870829e+2, -1081303.4, -1404346.5, 7108.6006, 0.013637687, 0.21410175, -1081147.0, 25461.04, 0.0000010444409, 10.001577, 9.9973 
2.61452e+3, 1.970763e+2, -875515.5, -1281284.3, -33661.85, 0.20985286, 0.32771957, -872741.94, 135943.77, 0.0, 10.002392, 9.997105 
2.6141956e+3, 2.0706964e+2, -635863.7, -983105.0, -79595.56, 0.12067355, 0.4112017, -618488.0, 292262.63, 0.0, 10.002877, 9.998207 
2.6138696e+3, 2.170629e+2, -512452.6, -904275.06, -115034.72, -0.101620786, 0.42296973, -481176.22, 331633.8, 0.0, 10.003154, 9.997963 
2.6135436e+3, 2.2705548e+2, -606988.06, -792916.44, -161523.9, -0.15064251, 0.35481524, -513586.16, 201293.89, 0.0, 10.001382, 9.998907 
2.6132178e+3, 2.3704782e+2, -932719.3, -927491.06, -57063.113, -0.08359251, 0.21269673, -872982.25, -256027.77, 0.0, 9.998565, 9.998678 
2.6128954e+3, 2.4704108e+2, -722250.5, -630469.56, 9173.392, 0.0006528808, 0.13104409, -629561.7, -110548.75, 0.0, 9.998771, 9.999917 
2.6125738e+3, 2.5703475e+2, -422072.22, -511394.16, -82147.11, 0.06311766, 0.018041024, -373230.5, 47832.52, 0.0, 10.000454, 9.999275 
2.6122516e+3, 2.6702797e+2, -357168.25, -526493.44, -26719.744, -0.0056194463, -0.012169481, -353051.9, -29925.336, 0.0, 10.000677, 9.998368 
2.6119298e+3, 2.77021e+2, -346286.88, -479011.13, 74959.61, -0.09460357, -0.03965727, -312534.7, -87337.32, 0.0, 10.000078, 9.998332 
2.6116115e+3, 2.8701568e+2, -90076.74, -60991.938, 160312.84, 0.036149673, -0.0019156988, 85436.74, 212684.34, 0.0, 10.0001335, 10.00049 
2.611294e+3, 2.9701144e+2, 23701.717, -16854.494, 136599.67, 0.18844508, 0.039622836, 141520.22, 170805.86, 0.0, 10.000488, 9.9999695 
2.6109692e+3, 3.0700693e+2, 50136.05, 32820.53, 60302.406, -0.07070441, 0.11260484, 102399.03, 102399.03, 0.0, 10.000268, 10.0000725 
2.610647e+3, 3.1699947e+2, -143255.78, -78397.49, 64640.88, 0.09238062, -0.09918697, -38507.258, -38507.258, 0.0, 9.998995, 9.999905 
2.6267776e+3, 1.2744117e+2, -1536441.9, -1744909.3, -127280.54, 0.3989569, 0.00020465725, -1476161.1, 214919.31, 0.13183834, 10.001935, 9.998839 
2.6264486e+3, 1.3743362e+2, -754601.7, -1428818.1, -96574.016, 0.12922013, -0.13634962, -741041.25, 852103.94, 0.08692956, 10.007561, 9.997733 
2.6261258e+3, 1.4742751e+2, -955516.0, -1586131.1, 77174.28, 0.1374303, 0.0721862, -946208.8, 549005.3, 0.045284744, 10.005534, 9.9968405 
2.6258066e+3, 1.5742184e+2, -1557265.9, -1785126.1, 70202.41, 0.33342803, 0.30545974, -1537373.5, -140087.11, 0.01638905, 10.000317, 9.997335 
2.6254836e+3, 1.6741647e+2, -1369001.0, -1190932.1, -12288.795, 0.25015613, 0.3202973, -1190088.0, 109250.68, 0.0032885466, 9.999033, 10.001324 
2.625159e+3, 1.7741115e+2, -1338384.8, -1292565.8, -64889.504, 0.038586944, 0.16312617, -1246660.4, -45277.04, 0.00021471751, 9.99926, 9.999869 
2.6248372e+3, 1.8740456e+2, -1210935.0, -1468293.1, -17342.023, 0.057127044, 0.19913636, -1209771.6, -106317.6, 0.00000047553752, 10.000723, 9.997263 
2.6245168e+3, 1.9739734e+2, -914999.56, -1311181.9, -5205.6743, 0.18270144, 0.2474276, -914931.1, 90605.26, 0.0, 10.00221, 9.996978 
2.6241928e+3, 2.0739026e+2, -730747.6, -995358.7, -26580.963, 0.12353779, 0.27804497, -728103.94, 179499.83, 0.0, 10.00208, 9.998513 
2.6238677e+3, 2.173833e+2, -819309.44, -1031439.75, -28266.71, -0.014159875, 0.23778768, -815607.44, -5943.1714, 0.0, 10.000977, 9.998141 
2.62354e+3, 2.2737597e+2, -652136.8, -755219.56, -184091.67, -0.11025933, 0.14958982, -512507.44, 199223.98, 0.0, 10.00086, 9.999394 
2.623211e+3, 2.3736852e+2, -667723.56, -802127.0, -166016.81, -0.1874002, -0.029929722, -555822.94, 57977.77, 0.0, 10.000432, 9.9986315 
2.6228884e+3, 2.4736206e+2, -608307.9, -756796.5, 27918.549, -0.12028694, 0.007959581, -603232.2, -87370.91, 0.0, 10.00035, 9.998277 
2.6225683e+3, 2.5735584e+2, -562964.56, -723124.4, 40906.89, -0.0033377928, 0.059605554, -553121.4, -135201.48, 0.0, 10.000114, 9.997985 
2.6222473e+3, 2.673497e+2, -303287.7, -357768.72, 10997.361, 0.006976996, 0.07362246, -301151.56, 18826.668, 0.0, 10.000443, 9.999639 
2.621926e+3, 2.7734387e+2, -212294.84, -301719.3, 19849.441, -0.015056302, 0.025349762, -208086.89, 13946.344, 0.0, 10.000535, 9.999328 
2.6216063e+3, 2.873391e+2, -157969.77, -62297.95, 81052.81, -0.008252624, 0.051175576, -16017.794, 108059.375, 0.0, 9.999553, 10.000754 
2.6212865e+3, 2.973344e+2, -314316.44, -132796.66, 77171.93, -0.02139254, 0.0032660703, -104422.74, -78303.46, 0.0, 9.997972, 10.000388 
2.6209632e+3, 3.0733153e+2, -203430.19, 176961.19, -41471.71, -0.12255367, 0.08690167, 181430.1, 181430.1, 0.0, 9.997415, 10.002431 
2.620641e+3, 3.1732628e+2, -358600.13, -154277.73, -45342.594, 0.11460172, -0.15523025, -144667.47, -144667.47, 0.0, 9.997392, 10.00018 
2.6367685e+3, 1.2776627e+2, -1465391.1, -1688682.5, 65250.332, -0.2582646, 0.3002003, -1447721.9, 240180.88, 0.115286276, 10.002348, 9.999003 
2.6364532e+3, 1.3775538e+2, -816822.44, -1438803.4, 19194.984, 0.32534698, -0.18461119, -816230.6, 773767.9, 0.07524959, 10.00686, 9.9979925 
2.6361278e+3, 1.4774844e+2, -981309.94, -1550277.3, -100873.11, 0.2900352, -0.09657991, -963955.4, 528113.75, 0.038529173, 10.005099, 9.997299 
2.6358e+3, 1.577427e+2, -1493181.4, -1734488.9, -46501.066, 0.10780998, 0.093390584, -1484530.5, -90397.25, 0.013527696, 10.000667, 9.997511 
2.6354763e+3, 1.6773683e+2, -1400855.8, -1372875.1, 18728.598, 0.11027312, 0.14069805, -1363488.3, -67295.39, 0.0025719018, 9.999505, 9.999861 
2.6351544e+3, 1.7773105e+2, -1326882.6, -1382766.0, -13662.188, 0.14928778, 0.08684369, -1323721.3, -125472.11, 0.00015054179, 9.99971, 9.999045 
2.634834e+3, 1.8772553e+2, -1101020.8, -1301275.0, 62043.223, 0.15887438, 0.20308086, -1083356.5, 16951.598, 0.0000001940375, 10.000988, 9.998279 
2.6345143e+3, 1.9771993e+2, -764975.94, -1098955.3, 46304.832, 0.1623994, 0.3189014, -758674.9, 243694.55, 0.0, 10.002612, 9.998243 
2.634189e+3, 2.0771271e+2, -614114.56, -783178.75, -47362.383, 0.05122622, 0.19830844, -601750.44, 302683.38, 0.0, 10.002201, 9.999906 
2.6338625e+3, 2.1770501e+2, -755617.1, -929482.94, -25343.693, -0.09613661, -0.03420646, -751998.2, 54500.55, 0.0, 10.001073, 9.998797 
2.633536e+3, 2.276977e+2, -741372.8, -1007911.6, -146872.97, -0.08116524, -0.028117774, -676318.25, 32253.715, 0.0, 10.001112, 9.997554 
2.633209e+3, 2.3769066e+2, -579276.8, -867779.9, -158295.7, -0.0042313267, 0.018836273, -509364.8, 101280.984, 0.0, 10.001462, 9.997689 
2.632886e+3, 2.476851e+2, -431899.44, -553502.6, 13702.812, 0.049694322, 0.11399186, -430374.47, 82323.45, 0.0, 10.001031, 9.999346 
2.6325646e+3, 2.5767994e+2, -494521.03, -624358.1, 70700.78, 0.10613728, 0.18190198, -463455.1, -48711.316, 0.0, 10.000278, 9.998578 
2.632244e+3, 2.6767203e+2, -378541.6, -549262.06, 61462.33, 0.1104916, 0.08830208, -358716.34, -41895.887, 0.0, 10.000566, 9.998281 
2.631923e+3, 2.776637e+2, -177154.02, -351802.3, -3392.4854, 0.10493426, -0.07589635, -177088.14, 41814.37, 0.0, 10.001036, 9.99875 
2.631601e+3, 2.876592e+2, -148094.58, 18241.662, -35594.926, 0.066995844, -0.04704198, 25538.646, 146479.47, 0.0, 9.9992485, 10.0014715 
2.6312786e+3, 2.97656e+2, -457421.22, -101515.77, -24601.04, -0.0013705742, -0.009972671, -99823.336, -76858.6, 0.0, 9.996521, 10.001316 
2.630955e+3, 3.076514e+2, -380473.7, 130395.016, -95587.805, -0.031359583, -0.16803549, 147694.48, 147694.48, 0.0, 9.995996, 10.002818 
2.6306358e+3, 3.176516e+2, -381798.47, 40161.16, -76193.984, 0.44454378, 0.11358093, 53498.098, 53498.098, 0.0, 9.996331, 10.002023 
2.646766e+3, 1.2808785e+2, -1467526.4, -1697240.6, 44561.18, -0.2662287, 0.31725058, -1459185.0, 225569.48, 0.100168906, 10.002362, 9.998932 
2.646452e+3, 1.3807873e+2, -1619295.3, -1802185.3, -42971.277, 0.38398546, -0.0009974992, -1609702.1, -22864.1, 0.06469237, 10.0007925, 9.998319 
2.646126e+3, 1.4807208e+2, -1349539.5, -1562606.4, -164563.19, 0.31856555, -0.0041239075, -1260036.3, 228864.13, 0.032530576, 10.001764, 9.998809 
2.645796e+3, 1.5806602e+2, -1093639.6, -1466820.4, -49270.05, 0.048415743, 0.013890704, -1087244.3, 303714.2, 0.011066901, 10.0031395, 9.998149 
2.6454723e+3, 1.680595e+2, -985350.44, -1296340.8, 81453.62, 0.10457531, 0.044630382, -965308.06, 327716.7, 0.0019930317, 10.00291, 9.998743 
2.645151e+3, 1.7805304e+2, -1107005.9, -1372563.1, 84172.04, 0.242582, 0.038724188, -1082574.1, 112517.1, 0.00010503105, 10.001662, 9.998176 
2.6448306e+3, 1.8804736e+2, -988526.7, -1181641.5, 187983.22, 0.18051377, 0.13824838, -873752.56, 223397.5, 0.00000008640195, 10.0014925, 9.998847 
2.64451e+3, 1.9804199e+2, -929803.56, -1118999.5, 102477.6, 0.06680968, 0.21666835, -884936.7, 114268.66, 0.0, 10.00126, 9.998754 
2.6441848e+3, 2.0803583e+2, -819598.94, -793311.7, -82569.28, -0.0068411333, 0.13391529, -722846.44, 178413.53, 0.0, 10.000426, 10.00069 
2.643858e+3, 2.1802919e+2, -1045433.44, -1060531.0, -78085.52, -0.07003819, -0.07016105, -974532.6, -171215.84, 0.0, 9.999066, 9.998872 
2.643532e+3, 2.2802159e+2, -873916.7, -1176219.8, -74221.25, -0.028844377, -0.036089316, -856677.06, -151281.69, 0.0, 10.0006695, 9.996603 
2.6432064e+3, 2.3801403e+2, -505675.0, -922062.6, -22609.676, 0.050236247, 0.04781484, -504450.9, 103026.76, 0.0, 10.002392, 9.996867 
2.642883e+3, 2.4800867e+2, -229687.27, -434559.0, 38661.01, 0.09849694, 0.18805039, -222634.4, 286894.1, 0.0, 10.002358, 9.99952 
2.6425606e+3, 2.5800383e+2, -398384.84, -595411.7, 22617.06, 0.13154641, 0.26733303, -395821.9, 15749.028, 0.0, 10.001046, 9.99841 
2.6422396e+3, 2.6799497e+2, -563557.5, -701881.25, 84134.7, 0.16579981, 0.11416816, -523806.5, -210149.1, 0.0, 9.999599, 9.997675 
2.641919e+3, 2.779849e+2, -667005.5, -649415.2, 106428.21, 0.1860764, -0.1626646, -551419.4, -335662.78, 0.0, 9.997948, 9.998194 
2.641596e+3, 2.8798065e+2, -200164.33, 42074.125, 14318.911, 0.16220288, -0.106341064, 42917.594, 160708.23, 0.0, 9.998748, 10.001842 
2.6412714e+3, 2.9797858e+2, -19578.633, 122510.35, -5926.2407, 0.04776701, 0.007141934, 122757.09, 142558.0, 0.0, 9.999527, 10.001389 
2.6409456e+3, 3.0797085e+2, -80410.74, 211805.14, -110873.07, -0.123128675, -0.43570462, 249110.31, 249110.31, 0.0, 9.998356, 10.002222 
2.640623e+3, 3.1796858e+2, -458231.16, -59506.637, 80076.73, -0.027455973, -0.36062253, -44025.71, -44025.71, 0.0, 9.996105, 10.001438 
2.6567656e+3, 1.28408e+2, -1412678.5, -1685394.6, 6975.7915, -0.04848902, 0.20920394, -1412500.3, 269117.7, 0.08642862, 10.002818, 9.998786 
2.6564473e+3, 1.3840316e+2, -1519806.6, -1675678.6, -39142.05, 0.31073278, 0.33348018, -1510529.6, 73138.48, 0.055199258, 10.001149, 9.999025 
2.6561219e+3, 1.4839722e+2, -1187177.3, -1237687.1, -85251.73, 0.24669567, 0.23174888, -1123518.4, 362199.97, 0.027235202, 10.001824, 10.001042 
2.6557946e+3, 1.5839095e+2, -988759.25, -1265930.4, 2871.9424, 0.08643073, 0.031244138, -988729.5, 399040.34, 0.0089680515, 10.003191, 9.99951 
2.655471e+3, 1.6838394e+2, -1027540.94, -1395888.0, 54095.945, 0.17245486, 0.016708355, -1019760.7, 270078.56, 0.0015322798, 10.002983, 9.998015 
2.6551488e+3, 1.7837672e+2, -1064375.1, -1386291.0, 86267.38, 0.28664926, 0.013804409, -1042714.5, 149199.03, 0.00007382683, 10.002077, 9.997887 
2.6548266e+3, 1.883696e+2, -928910.4, -1133668.5, 208003.02, 0.10854185, -0.0323198, -799456.0, 294528.13, 0.000000036839044, 10.001794, 9.9990425 
2.6545048e+3, 1.9836295e+2, -848382.5, -1041809.25, 98377.5, -0.12898478, -0.093752466, -807140.75, 188908.89, 0.0, 10.001621, 9.999113 
2.6541796e+3, 2.0835963e+2, -809349.94, -788720.2, -117500.23, -0.037382964, 0.09319011, -681082.94, 217000.86, 0.0, 10.000495, 10.000686 
2.653854e+3, 2.1835673e+2, -987693.2, -1001486.06, -68475.164, 0.11624981, 0.27123985, -925768.06, -125654.55, 0.0, 9.999294, 9.999172 
2.6535282e+3, 2.2834858e+2, -775189.2, -1025762.9, 42996.45, 0.026861167, 0.18414234, -768016.6, -65822.32, 0.0, 10.000889, 9.997538 
2.6532027e+3, 2.3833919e+2, -370746.3, -837639.3, 73948.76, -0.10426044, 0.015677094, -359313.9, 244973.94, 0.0, 10.003184, 9.997079 
2.6528788e+3, 2.4833256e+2, -265636.0, -648028.7, 37617.17, -0.082402624, 0.14054498, -261970.61, 244383.31, 0.0, 10.002934, 9.997792 
2.6525557e+3, 2.5832683e+2, -327238.44, -603557.3, -16898.32, -0.009176153, 0.2962501, -326208.88, 82201.664, 0.0, 10.001689, 9.998047 
2.6522335e+3, 2.6831955e+2, -463483.22, -433233.72, 26097.281, 0.14818934, 0.18294917, -418195.16, -107716.75, 0.0, 9.999325, 9.999647 
2.6519123e+3, 2.7831185e+2, -716183.7, -529817.1, 145185.8, 0.34662777, -0.030200433, -450483.63, -237934.47, 0.0, 9.996959, 9.999497 
2.651591e+3, 2.8830722e+2, -213356.36, -64102.32, 202569.13, 0.29216447, 0.0039280085, 77148.96, 191736.06, 0.0, 9.999057, 10.000979 
2.651268e+3, 2.9830357e+2, 249678.08, 102319.13, 63302.676, 0.056586154, 0.071156785, 273137.13, 289752.3, 0.0, 10.002007, 10.000047 
2.650938e+3, 3.0829296e+2, -94551.77, -115716.02, -243190.16, -0.30007717, -0.42633858, 138286.38, 138286.38, 0.0, 9.999653, 9.999344 
2.6506144e+3, 3.182935e+2, -539429.5, -206754.31, -19567.027, 0.046138346, 0.20705345, -205607.39, -205607.39, 0.0, 9.995984, 10.000502 
2.666766e+3, 1.2872928e+2, -1137883.1, -1631483.8, -61446.527, 0.074412435, 0.1318181, -1130348.9, 548117.44, 0.07399805, 10.005166, 9.998041 
2.6664436e+3, 1.3872473e+2, -1389596.1, -1655306.0, -119383.445, 0.27925184, 0.33745095, -1343837.4, 236681.72, 0.046710953, 10.002255, 9.998647 
2.6661175e+3, 1.4871913e+2, -1251891.8, -1197960.5, -154597.2, 0.22348608, 0.23193513, -1067994.9, 414570.75, 0.022592422, 10.001069, 10.001669 
2.6657918e+3, 1.587133e+2, -1395753.4, -1446147.1, -151682.02, 0.14527343, 0.008013976, -1267189.6, 117421.234, 0.0071954923, 10.00032, 9.999657 
2.6654682e+3, 1.6870679e+2, -1250633.0, -1525335.0, -92533.39, 0.17645255, 0.036106836, -1222370.9, 64306.19, 0.001170623, 10.001556, 9.997799 
2.6651454e+3, 1.7870004e+2, -982645.0, -1318154.1, -36831.445, 0.22331667, 0.071083516, -978649.3, 210098.72, 0.00005271245, 10.002554, 9.998111 
2.6648226e+3, 1.8869314e+2, -905297.7, -985494.3, 123045.26, 0.07140495, -0.051781937, -815981.9, 274829.8, 0.000000014947995, 10.001413, 10.000236 
2.6645002e+3, 1.9868657e+2, -1158665.4, -1166285.0, 83875.37, -0.11192554, -0.20543458, -1078513.4, -85642.01, 0.0, 9.999445, 9.999298 
2.664175e+3, 2.0868357e+2, -825585.75, -913384.4, -142112.88, -0.04541404, 0.075183764, -720746.3, 174161.4, 0.0, 10.000932, 9.999595 
2.663849e+3, 2.186814e+2, -606169.3, -880010.2, -161917.17, 0.08670745, 0.41307983, -531041.7, 265895.8, 0.0, 10.002248, 9.998566 
2.663524e+3, 2.2867352e+2, -588800.94, -825612.8, -34247.34, 0.001560957, 0.29718447, -583947.6, 115064.76, 0.0, 10.001738, 9.998475 
2.6631993e+3, 2.386641e+2, -764664.7, -1009948.3, -12828.905, -0.14488512, 0.027923841, -763995.5, -162895.31, 0.0, 10.000463, 9.997195 
2.662875e+3, 2.4865645e+2, -639692.8, -942206.56, -22453.873, -0.16770671, 0.106467545, -638035.25, -134857.97, 0.0, 10.00088, 9.996751 
2.6625508e+3, 2.586495e+2, -478145.97, -737960.75, -28099.305, -0.14252621, 0.22764556, -475141.75, -69893.22, 0.0, 10.000949, 9.99748 
2.662228e+3, 2.686434e+2, -185335.4, -200943.73, -100486.77, 0.1024235, 0.1892793, -92350.2, 214954.36, 0.0, 10.000837, 10.000511 
2.661906e+3, 2.7863765e+2, -269038.7, -278332.28, -20101.957, 0.4029352, 0.072426714, -253053.42, -43698.965, 0.0, 9.999914, 9.999798 
2.6615858e+3, 2.886328e+2, -224968.81, -151328.47, 131508.97, 0.3172829, 0.10191779, -51582.418, 59813.08, 0.0, 9.999324, 10.000256 
2.661263e+3, 2.986277e+2, -368024.84, -363979.6, -30444.79, -0.016542671, 0.0947449, -335490.3, -322050.03, 0.0, 9.998489, 9.998553 
2.660931e+3, 3.086159e+2, -448059.56, -517762.9, -326482.03, -0.3967576, -0.33389103, -154574.28, -154574.28, 0.0, 9.99824, 9.997254 
2.6606086e+3, 3.1861702e+2, -311592.3, -113288.15, 45681.1, 0.30273646, 0.5240603, -103271.1, -103271.1, 0.0, 9.997648, 10.00034 
2.6767662e+3, 1.2905051e+2, -1343890.4, -1825595.5, -165401.05, 0.08284752, 0.022262676, -1292565.9, 382747.53, 0.06277671, 10.004019, 9.997237 
2.6764402e+3, 1.3904415e+2, -1434928.8, -1733531.0, -164066.05, 0.22187501, 0.13167748, -1362400.0, 214987.17, 0.039144803, 10.002147, 9.998172 
2.6761135e+3, 1.4903864e+2, -1244992.3, -1231893.5, -151554.42, 0.20466655, 0.07527908, -1086747.0, 392688.16, 0.01854302, 10.001287, 10.001318 
2.6757875e+3, 1.5903334e+2, -1323495.5, -1421096.8, -113244.055, 0.17783487, -0.05098246, -1248984.6, 132493.69, 0.005710628, 10.000839, 9.999581 
2.675464e+3, 1.6902804e+2, -1191505.1, -1454926.8, -14517.136, 0.09461804, 0.08240831, -1190707.5, 92829.164, 0.0008890518, 10.001777, 9.998174 
2.6751408e+3, 1.7902285e+2, -823400.94, -1086993.8, -8338.766, 0.0074816197, 0.21979131, -823137.4, 362458.2, 0.000037964888, 10.002967, 9.999491 
2.6748192e+3, 1.89018e+2, -709358.6, -630724.1, 62745.45, 0.08468814, 0.09707133, -595995.2, 491637.5, 0.0000000057994387, 10.001625, 10.002576 
2.6744977e+3, 1.9901311e+2, -1060374.1, -1057780.6, 86488.66, 0.14438437, -0.07514831, -972579.0, 17089.377, 0.0, 9.999823, 9.999863 
2.6741707e+3, 2.0900702e+2, -941688.06, -1239823.0, -44525.61, -0.05580745, 0.051951762, -935180.4, -43442.85, 0.0, 10.00128, 9.997195 
2.6738432e+3, 2.1900092e+2, -525759.25, -946472.56, -125504.836, -0.27072382, 0.21738207, -491164.13, 302645.56, 0.0, 10.003195, 9.9976635 
2.6735196e+3, 2.2899471e+2, -469034.44, -661841.56, -105795.04, -0.115385436, 0.22835171, -422307.88, 273557.28, 0.0, 10.002067, 9.999458 
2.6731968e+3, 2.3898815e+2, -707632.0, -872291.9, -49033.66, 0.08213898, 0.16070384, -694136.44, -96215.65, 0.0, 10.000333, 9.998212 
2.672872e+3, 2.4897945e+2, -617813.6, -845287.94, 6432.049, -0.013867961, 0.04757978, -617631.94, -117628.06, 0.0, 10.000627, 9.997549 
2.6725465e+3, 2.5897065e+2, -429253.16, -732445.3, 10057.702, -0.1446404, -0.06738247, -428919.88, -26829.875, 0.0, 10.0013075, 9.997361 
2.6722232e+3, 2.6896378e+2, -199725.9, -455163.63, -100913.38, -0.0067917597, -0.026075633, -164670.03, 139490.2, 0.0, 10.001754, 9.998346 
2.6719004e+3, 2.7895766e+2, -58797.313, -271662.94, -109122.766, 0.21793585, 0.014839385, -12797.445, 193425.02, 0.0, 10.001737, 9.998964 
2.6715782e+3, 2.8895319e+2, -183884.1, -76862.664, -16617.668, 0.17820777, 0.06441685, -74341.75, 33920.74, 0.0, 9.999367, 10.000763 
2.6712546e+3, 2.9894873e+2, -515681.63, -272906.7, -112649.3, -0.04188042, 0.069115445, -228689.86, -218388.94, 0.0, 9.99673, 10.000046 
2.6709235e+3, 3.0894145e+2, -306310.1, -114772.516, -213301.38, -0.36113068, -0.1550109, 23273.021, 23273.021, 0.0, 9.997774, 10.000238 
2.670602e+3, 3.1894052e+2, 71454.37, 228670.95, 281070.34, 0.20466812, 0.24477723, 441918.44, 441918.44, 0.0, 9.999576, 10.001748 
2.6867628e+3, 1.293738e+2, -1933963.8, -1964241.5, -144936.03, 0.16659324, 0.1057064, -1803378.1, -131229.94, 0.052667633, 9.999127, 9.998639 
2.6864365e+3, 1.3936746e+2, -1509965.1, -1744094.9, -66107.66, 0.21551138, 0.0932911, -1492588.9, 81628.234, 0.032421984, 10.0015135, 9.998379 
2.6861098e+3, 1.493617e+2, -1123509.4, -1334268.3, -68952.1, 0.16342019, 0.10594335, -1102955.5, 373316.06, 0.015032093, 10.002782, 9.999889 
2.685784e+3, 1.5935609e+2, -1054746.3, -1377502.1, -97186.984, 0.15269029, 0.0728614, -1027741.2, 350581.88, 0.0044763535, 10.003074, 9.998807 
2.6854602e+3, 1.6935056e+2, -1214405.5, -1426728.1, -16405.41, 0.0836156, 0.1807132, -1213145.4, 67238.945, 0.00066900725, 10.001448, 9.998539 
2.685137e+3, 1.7934537e+2, -1320242.8, -1261977.8, -10387.248, -0.0021128885, 0.27601397, -1260181.4, -77739.016, 0.000027210404, 9.999298, 10.000065 
2.6848146e+3, 1.8934183e+2, -849426.9, -595078.4, -29704.916, 0.04878857, 0.1977752, -591655.25, 492808.75, 0.000000001728097, 10.000268, 10.003452 
2.6844928e+3, 1.9933823e+2, -908463.3, -993393.6, -70375.51, 0.12552467, 0.072690785, -868733.56, 117751.195, 0.0, 10.000923, 9.99978 
2.684167e+3, 2.093303e+2, -944702.1, -1326384.0, -49622.99, -0.06333294, 0.06297256, -938356.06, -49786.254, 0.0, 10.001644, 9.996413 
2.6838407e+3, 2.1932192e+2, -789898.8, -1139794.4, -51332.086, -0.29347953, 0.06867572, -782523.5, 8139.3853, 0.0, 10.001708, 9.997048 
2.6835164e+3, 2.293162e+2, -487794.06, -658553.44, -133087.89, -0.12078665, 0.1418351, -415053.28, 277659.13, 0.0, 10.001921, 9.99954 
2.6831928e+3, 2.3931086e+2, -571164.2, -794302.7, -121328.22, 0.13592869, 0.17775819, -517905.56, 76849.38, 0.0, 10.001266, 9.998293 
2.6828682e+3, 2.4930185e+2, -570833.44, -745645.25, -53545.656, 0.07464236, -0.026614232, -555736.0, -58897.742, 0.0, 10.000655, 9.998197 
2.682543e+3, 2.5929242e+2, -712132.25, -913024.5, -49931.793, -0.06633895, -0.26373348, -700406.2, -301478.16, 0.0, 9.999598, 9.996933 
2.6822188e+3, 2.6928553e+2, -613569.94, -817342.9, -80451.29, -0.042388134, -0.11919338, -585636.3, -284631.78, 0.0, 9.99965, 9.996849 
2.681895e+3, 2.7927923e+2, -463097.66, -562420.8, -43335.82, 0.04329254, 0.039130487, -446848.2, -243772.67, 0.0, 9.9994, 9.998095 
2.6815715e+3, 2.8927445e+2, -202744.52, -38322.69, -24063.928, 0.058623843, 0.05375554, -34873.188, 70246.58, 0.0, 9.999049, 10.0011635 
2.6812467e+3, 2.9927036e+2, -260983.02, -41235.074, -98688.8, -0.04928948, 0.037975192, -3420.965, 3733.2815, 0.0, 9.998048, 10.000994 
2.6809168e+3, 3.09267e+2, 44458.97, 305036.25, -229554.7, -0.3236568, 0.023976676, 438699.3, 438699.3, 0.0, 9.999108, 10.00248 
2.680595e+3, 3.19262e+2, 43257.473, 238448.0, 187329.48, 0.044107318, -0.18552437, 352080.5, 352080.5, 0.0, 9.999308, 10.001951 
2.696758e+3, 1.2969781e+2, -1667910.5, -1557570.6, -36449.207, 0.21145919, 0.23176062, -1546617.4, 122362.08, 0.043607753, 9.999733, 10.001157 
2.6964328e+3, 1.3969265e+2, -1400022.1, -1613405.3, 5445.6616, 0.18246, 0.13057616, -1399883.3, 171145.61, 0.026484009, 10.001956, 9.999051 
2.6961067e+3, 1.4968677e+2, -1244810.1, -1608609.4, -27072.936, 0.08255738, 0.25463286, -1242806.5, 230283.0, 0.012009186, 10.002875, 9.997942 
2.6957813e+3, 1.5968063e+2, -1087802.6, -1484932.8, -90410.15, 0.046270814, 0.34511673, -1068188.8, 306964.56, 0.0034557066, 10.003222, 9.99799 
2.695457e+3, 1.6967376e+2, -1148009.5, -1343401.1, -70269.55, 0.12370922, 0.30511525, -1125362.9, 151862.42, 0.00049606664, 10.00165, 9.999015 
2.695133e+3, 1.7966743e+2, -1229657.4, -1193864.5, -7064.3574, 0.14468502, 0.24830385, -1192520.6, -13230.397, 0.00001910138, 9.999785, 10.000295 
2.6948088e+3, 1.8966426e+2, -859542.94, -672578.6, 35332.39, -0.0763503, 0.2439029, -666124.4, 415186.22, 0.0000000002885943, 10.000488, 10.002818 
2.6944855e+3, 1.996611e+2, -783133.4, -902479.3, -28509.11, -0.25690553, 0.2196869, -776672.9, 206656.56, 0.0, 10.001604, 10.000078 
2.694164e+3, 2.0965335e+2, -783708.0, -1079634.1, -21834.549, -0.024912195, 0.11230787, -782105.7, 103299.51, 0.0, 10.001959, 9.997984 
2.6938424e+3, 2.1964501e+2, -696779.94, -1039055.8, -18342.715, 0.19347404, 0.0017426611, -695799.75, 91688.766, 0.0, 10.002066, 9.997566 
2.6935145e+3, 2.2963743e+2, -547835.94, -845157.7, -110808.35, 0.0065390114, -0.025059871, -511082.3, 178476.25, 0.0, 10.002163, 9.998152 
2.6931867e+3, 2.3963031e+2, -473095.88, -778579.9, -135160.23, -0.15385501, -0.04258152, -421881.0, 169741.88, 0.0, 10.002045, 9.998023 
2.692864e+3, 2.4962299e+2, -496201.1, -655953.8, -102427.05, 0.09182518, -0.10698578, -446187.0, 47503.316, 0.0, 10.000899, 9.998712 
2.6925415e+3, 2.5961587e+2, -649726.25, -782928.1, -85007.23, 0.33215448, -0.16115032, -608336.9, -212579.02, 0.0, 9.999555, 9.997849 
2.692215e+3, 2.696109e+2, -613686.2, -704925.1, -61497.72, 0.20575579, 0.080591634, -582734.7, -284917.4, 0.0, 9.999145, 9.997872 
2.6918888e+3, 2.7960604e+2, -495536.56, -518437.53, 22225.713, 0.07554913, 0.30463418, -481985.13, -282109.44, 0.0, 9.998884, 9.998645 
2.691566e+3, 2.8959942e+2, -222073.11, -94920.11, 36887.207, 0.11538713, 0.1591762, -84993.97, 16940.672, 0.0, 9.999099, 10.000746 
2.691242e+3, 2.9959312e+2, -146476.7, -118447.375, -61074.785, 0.108882174, -0.015428612, -69799.93, -65811.34, 0.0, 9.999386, 9.999807 
2.6909137e+3, 3.0958807e+2, 13486.709, 1325.1647, -249081.81, -0.108339995, 0.017392429, 256561.95, 256561.95, 0.0, 10.000103, 9.999941 
2.69059e+3, 3.195813e+2, -62185.69, -35085.082, -87667.375, 0.11185683, -0.122171715, 40073.008, 40073.008, 0.0, 9.9994955, 10.000003 
2.7067527e+3, 1.3002244e+2, -1408343.6, -1592069.5, 101267.875, 0.07213422, 0.2610178, -1363480.6, 302314.84, 0.03553836, 10.0022745, 9.999689 
2.7064323e+3, 1.400154e+2, -1138114.9, -1561377.4, -67807.95, 0.32277885, 0.09111526, -1127517.1, 440348.5, 0.0212681, 10.004104, 9.998394 
2.7061048e+3, 1.500098e+2, -1170325.8, -1541942.6, -80746.7, 0.088911764, 0.22974627, -1153539.0, 316385.13, 0.009415484, 10.003285, 9.998201 
2.7057773e+3, 1.6000423e+2, -1234351.9, -1525698.0, -25795.957, -0.09844777, 0.3588943, -1232085.5, 139897.38, 0.0026134893, 10.002102, 9.998254 
2.7054536e+3, 1.6999778e+2, -866146.9, -1144034.3, 20079.086, 0.036872186, 0.31914943, -864703.5, 409344.94, 0.0003600524, 10.003345, 9.999551 
2.70513e+3, 1.7999153e+2, -665139.94, -1011287.94, 72814.02, 0.15323101, 0.2533033, -650446.8, 525664.56, 0.000012952271, 10.004074, 9.999482 
2.7048057e+3, 1.8998696e+2, -700869.94, -821650.5, 26167.92, -0.027355433, 0.27554712, -695444.25, 382708.22, 0.000000000007316074, 10.002545, 10.000805 
2.704482e+3, 1.9998257e+2, -978216.2, -1042138.8, -105535.39, -0.20400654, 0.2846595, -899908.56, 80281.11, 0.0, 10.000493, 9.999661 
2.704161e+3, 2.0997618e+2, -855977.3, -915425.8, -85786.82, 0.07521299, 0.18284741, -794911.06, 87334.94, 0.0, 10.000624, 9.999751 
2.7038404e+3, 2.1996912e+2, -911053.9, -1106915.5, -58972.86, 0.36615846, 0.04771244, -894668.25, -110358.7, 0.0, 10.000476, 9.997869 
2.7035117e+3, 2.2996005e+2, -775821.1, -1038956.9, -92730.05, 0.09608444, -0.088028185, -746426.4, -60032.027, 0.0, 10.000994, 9.997367 
2.7031827e+3, 2.3995142e+2, -665879.06, -887211.5, -76814.08, -0.2009336, -0.19602138, -641832.94, -53357.938, 0.0, 10.000818, 9.997864 
2.70286e+3, 2.4994597e+2, -488080.28, -540589.4, -34749.137, 0.11773613, -0.1414736, -470782.5, 19740.328, 0.0, 10.000515, 9.999661 
2.7025375e+3, 2.5994098e+2, -643910.6, -757799.5, 19543.75, 0.48393247, -0.053350657, -640650.2, -248081.53, 0.0, 9.999551, 9.998014 
2.7022105e+3, 2.6993603e+2, -532663.94, -651677.4, -29942.58, 0.32777342, 0.18943919, -525555.3, -230925.7, 0.0, 9.999673, 9.997972 
2.701883e+3, 2.7993113e+2, -454943.9, -498165.5, -26294.516, 0.11231531, 0.38832083, -442519.03, -245829.53, 0.0, 9.999201, 9.998629 
2.7015606e+3, 2.899238e+2, -299961.2, -166660.83, 10905.689, 0.18339682, 0.17977017, -165774.5, -67021.04, 0.0, 9.998719, 10.000434 
2.7012372e+3, 2.9991624e+2, -447315.34, -409706.78, -21342.816, 0.20023026, -0.06659605, -400066.1, -399247.72, 0.0, 9.997968, 9.998495 
2.700909e+3, 3.099095e+2, -276460.5, -367702.5, -86948.7, -0.011900435, -0.018414762, -223891.13, -223891.13, 0.0, 9.999143, 9.997852 
2.7005842e+3, 3.1990182e+2, -80171.21, -159189.17, 50227.69, 0.050884448, -0.04541088, -55775.73, -55775.73, 0.0, 9.999906, 9.998955 
2.7167484e+3, 1.3034713e+2, -1634797.0, -2071693.9, 156380.23, -0.15415509, 0.24308443, -1584592.3, 78014.27, 0.028402803, 10.002268, 9.9963875 
2.7164334e+3, 1.4033659e+2, -1211336.8, -1673736.3, -30266.36, 0.49825138, -0.0024341212, -1209364.0, 355354.47, 0.016711118, 10.0039, 9.997716 
2.716103e+3, 1.5033154e+2, -1068962.0, -1305717.9, -106052.05, 0.09608092, 0.08205398, -1028404.9, 438363.9, 0.007197981, 10.003171, 9.999885 
2.7157724e+3, 1.6032729e+2, -1112439.0, -1326469.6, -314.90192, -0.32174847, 0.19119754, -1112438.5, 256371.83, 0.0019202423, 10.002321, 9.9995165 
2.7154496e+3, 1.7032261e+2, -811425.44, -1054697.5, 91084.04, -0.17967662, 0.257253, -781102.2, 489754.22, 0.00025324232, 10.003444, 10.000123 
2.715128e+3, 1.8031733e+2, -708978.5, -1188431.8, 74642.73, 0.017587889, 0.29109845, -697626.6, 475283.25, 0.000008369746, 10.004409, 9.998113 
2.714806e+3, 1.9030948e+2, -917526.44, -1301872.0, -38853.098, 0.23454022, 0.2816879, -913638.1, 161355.9, 0.0, 10.002663, 9.997459 
2.714483e+3, 2.0030239e+2, -951335.3, -1061343.4, -124676.19, 0.36656135, 0.27785844, -870069.0, 106999.33, 0.0, 10.000796, 9.999386 
2.714158e+3, 2.1029879e+2, -695879.1, -606183.25, -62120.445, 0.19944339, 0.31044587, -574413.4, 304681.34, 0.0, 10.000716, 10.00184 
2.713833e+3, 2.2029458e+2, -754090.8, -872090.8, -43961.895, 0.06283611, 0.28370997, -739513.3, 41612.39, 0.0, 10.0008335, 9.999314 
2.7135086e+3, 2.3028494e+2, -723690.5, -953644.2, -57895.76, 0.19811949, 0.022876004, -709936.6, -26723.541, 0.0, 10.001062, 9.997941 
2.7131835e+3, 2.402758e+2, -506348.94, -640816.2, -45045.84, 0.28279477, -0.20643522, -492653.66, 92641.75, 0.0, 10.001139, 9.999404 
2.7128553e+3, 2.502726e+2, -336935.9, -259943.58, -3024.543, 0.11789295, -0.09981112, -259824.95, 227491.27, 0.0, 10.000635, 10.001544 
2.7125275e+3, 2.6026902e+2, -585703.7, -760863.5, 72474.805, 0.013194959, 0.015704371, -559604.9, -170260.63, 0.0, 10.00006, 9.99774 
2.7122033e+3, 2.7025878e+2, -652041.3, -1006317.0, 1451.852, 0.15642278, -0.059937894, -652035.4, -360577.78, 0.0, 10.0001, 9.995347 
2.7118796e+3, 2.8024903e+2, -381734.2, -509200.6, -56009.324, 0.302016, -0.1322803, -360620.7, -167055.05, 0.0, 9.999888, 9.998211 
2.711555e+3, 2.9024464e+2, -225488.38, -17340.025, -28804.77, 0.2849882, -0.11575896, -13427.401, 82174.71, 0.0, 9.99874, 10.001447 
2.7112287e+3, 3.0024055e+2, -386387.16, -218402.06, 18558.889, 0.13377544, -0.112709925, -216376.11, -216376.11, 0.0, 9.997656, 9.999957 
2.7108994e+3, 3.1023496e+2, -211207.47, -133875.4, 72783.34, -0.3144187, -0.11173389, -90124.945, -90124.945, 0.0, 9.998706, 9.999671 
2.7105817e+3, 3.2022855e+2, 362730.16, 541547.8, 400613.5, 0.24610056, -0.24231693, 862608.4, 862608.4, 0.0, 10.00085, 10.0033045 
2.7267474e+3, 1.3066706e+2, -1581294.3, -1849949.9, 47063.38, 0.07127512, 0.05431202, -1573288.3, 86186.71, 0.022177564, 10.001802, 9.9981365 
2.7264288e+3, 1.4066151e+2, -1422854.9, -1719652.9, -9677.152, 0.28237683, 0.17154716, -1422539.6, 138995.77, 0.012781188, 10.002146, 9.998263 
2.7260995e+3, 1.5065531e+2, -1210321.8, -1373807.3, -146889.8, 0.03771439, 0.12343762, -1123961.9, 339632.66, 0.0053271074, 10.002185, 9.999891 
2.7257702e+3, 1.606497e+2, -1212432.6, -1392767.9, -113243.82, -0.19743162, 0.092765845, -1157844.0, 207803.39, 0.0013580795, 10.00173, 9.999351 
2.7254465e+3, 1.7064531e+2, -1203214.9, -1255348.1, -67650.484, -0.18487005, 0.18329275, -1156782.8, 110907.98, 0.00016970174, 10.000835, 9.999996 
2.7251238e+3, 1.8064061e+2, -1421390.4, -1542598.0, -110146.3, -0.08507833, 0.2737173, -1356276.1, -186537.61, 0.0000049540654, 9.99962, 9.99798 
2.724802e+3, 1.9063292e+2, -1328156.3, -1505700.9, -16583.445, 0.2343612, 0.27014863, -1326620.5, -254798.7, 0.0, 9.999903, 9.997378 
2.7244794e+3, 2.006256e+2, -1138945.1, -1166883.5, 103261.9, 0.49071684, 0.27098483, -1048711.9, -74811.65, 0.0, 9.99962, 9.999212 
2.724153e+3, 2.1062219e+2, -822631.6, -647713.5, 58751.145, 0.19210665, 0.32595897, -629812.3, 246113.92, 0.0, 9.999828, 10.001942 
2.7238268e+3, 2.206185e+2, -914755.0, -915920.8, -45943.324, -0.07476452, 0.33615428, -869390.9, -91438.03, 0.0, 9.999634, 9.999578 
2.7235046e+3, 2.3060967e+2, -739839.56, -860341.06, -40165.145, 0.2540014, 0.07501862, -727679.06, -47648.832, 0.0, 10.000551, 9.998806 
2.7231815e+3, 2.406012e+2, -580487.1, -645269.7, -53977.81, 0.52016014, -0.16120408, -549927.6, 32176.31, 0.0, 10.000546, 9.999653 
2.72285e+3, 2.5059777e+2, -411955.13, -282920.9, -174157.53, 0.081879556, -0.10310289, -161714.28, 322412.53, 0.0, 10.00009, 10.001636 
2.722519e+3, 2.6059383e+2, -739552.56, -905713.6, -167618.52, -0.31130058, -0.03386929, -635554.7, -249396.8, 0.0, 9.999343, 9.9971 
2.7221972e+3, 2.7058187e+2, -668120.06, -1089388.9, -35313.793, 0.020229703, -0.23906222, -665180.3, -376894.38, 0.0, 10.000354, 9.9946375 
2.7218756e+3, 2.805704e+2, -316589.53, -515903.0, 40504.953, 0.37351194, -0.42961586, -308672.5, -118263.36, 0.0, 10.000531, 9.997859 
2.721549e+3, 2.9056737e+2, -90198.086, 82043.04, -29370.322, 0.306294, -0.285791, 86913.51, 179347.28, 0.0, 9.999549, 10.001731 
2.7212203e+3, 3.0056536e+2, -309477.63, -125619.08, -38881.21, 0.0014926565, -0.112619564, -117734.83, -117734.83, 0.0, 9.997971, 10.000443 
2.7208903e+3, 3.1056082e+2, -270410.25, -36862.816, -72690.445, -0.5572112, -0.12080624, -16086.537, -16086.537, 0.0, 9.997756, 10.000786 
2.7205792e+3, 3.2055485e+2, 130849.47, 846074.9, 278564.88, 0.46364725, -0.424159, 941766.94, 941766.94, 0.0, 9.997496, 10.007001 
2.7367476e+3, 1.3098532e+2, -1295799.4, -1248203.3, 94479.336, 0.3634249, -0.17105591, -1174570.9, 481793.38, 0.01683711, 10.001768, 10.002326 
2.736421e+3, 1.4098881e+2, -1324631.9, -1533727.3, -5438.552, -0.2355667, 0.518685, -1324490.5, 233838.47, 0.009463172, 10.002222, 9.999503 
2.7360955e+3, 1.5098004e+2, -1277400.6, -1522264.6, -132657.98, -0.059676398, 0.2736189, -1219311.9, 241100.03, 0.0037922803, 10.00222, 9.998851 
2.7357706e+3, 1.6097109e+2, -1224618.8, -1466414.3, -112502.555, 0.12565984, 0.0059040356, -1180370.9, 182126.64, 0.0009170214, 10.001941, 9.998729 
2.7354437e+3, 1.7096603e+2, -1221063.0, -1317948.3, -81826.21, -0.05718703, 0.09316462, -1174415.0, 90134.17, 0.0001065257, 10.000969, 9.999492 
2.7351174e+3, 1.8096174e+2, -1212734.4, -1216699.6, -98879.09, -0.21903956, 0.20967099, -1115818.0, 50774.816, 0.0000025959862, 10.000062, 10.000002 
2.7347934e+3, 1.9095753e+2, -1048875.9, -975393.0, 19283.387, -0.08766693, 0.23784626, -970640.06, 97991.39, 0.0, 10.000076, 10.000959 
2.73447e+3, 2.0095275e+2, -1047302.4, -1094654.0, 144467.88, 0.048460152, 0.23868737, -924583.1, 46093.15, 0.0, 10.000087, 9.999483 
2.734146e+3, 2.1094584e+2, -973934.4, -1013303.4, 90691.73, 0.033485048, 0.14602464, -900815.5, -28072.36, 0.0, 10.000007, 9.999362 
2.7338225e+3, 2.2093938e+2, -845926.06, -894145.06, -8524.803, 0.015890665, 0.07444182, -844463.3, -69659.805, 0.0, 10.000116, 9.999496 
2.7334994e+3, 2.3093396e+2, -611043.8, -637429.06, 6234.0166, 0.16766016, 0.049165662, -609645.06, 67200.82, 0.0, 10.000724, 10.0002575 
2.733175e+3, 2.4092783e+2, -600213.3, -795093.6, -52014.965, 0.28185585, -0.011681518, -587199.2, -8302.084, 0.0, 10.000988, 9.998406 
2.7328447e+3, 2.5091857e+2, -636638.1, -792944.3, -232407.77, 0.07732826, -0.22334892, -469594.8, 11394.126, 0.0, 10.000246, 9.998073 
2.7325153e+3, 2.6091063e+2, -573164.06, -644532.5, -207869.36, -0.10635097, -0.34176266, -397938.28, -14870.265, 0.0, 9.999677, 9.998729 
2.7321923e+3, 2.7090728e+2, -260590.97, -335500.72, 16882.488, -0.0032649357, -0.11028008, -256961.95, 28140.885, 0.0, 10.000731, 9.999641 
2.7318695e+3, 2.809031e+2, -109842.914, -306390.66, 93790.54, 0.16325288, 0.060880024, -72269.74, 114875.984, 0.0, 10.001417, 9.998888 
2.7315426e+3, 2.9089627e+2, -163382.06, -222776.14, -48906.52, 0.19613352, -0.0048549543, -135862.3, -46649.76, 0.0, 10.000165, 9.999372 
2.731214e+3, 3.008901e+2, -420913.0, -495852.16, -104788.21, 0.056176838, 0.010225891, -347096.75, -347096.75, 0.0, 9.998561, 9.997612 
2.7308854e+3, 3.108851e+2, -603457.25, -571399.9, -225315.6, -0.24784772, 0.2819907, -361543.56, -361543.56, 0.0, 9.997085, 9.997433 
2.7305692e+3, 3.2087463e+2, -375833.13, 378855.5, -44637.62, 0.43157423, -0.18662202, 381486.5, 381486.5, 0.0, 9.994966, 10.005 
2.746744e+3, 1.3131091e+2, -1360538.0, -1410309.1, 251290.13, 0.31105256, 0.05006634, -1132904.3, 520273.84, 0.012341341, 10.001886, 10.001115 
2.7464178e+3, 1.4131193e+2, -1305264.3, -1545003.3, -106793.836, -0.26436228, 0.5727686, -1264592.1, 290577.1, 0.006741329, 10.0024605, 9.999293 
2.7460927e+3, 1.5130308e+2, -1269823.3, -1469933.5, -178357.58, -0.023662452, 0.2752073, -1165373.0, 291875.9, 0.002584837, 10.002047, 9.999295 
2.745768e+3, 1.6129428e+2, -1310173.9, -1531774.8, -76582.27, 0.24818353, -0.00036177333, -1286283.6, 73046.59, 0.0005889778, 10.001462, 9.998507 
2.7454412e+3, 1.7128922e+2, -1097932.6, -1326798.5, -40309.44, 0.0720882, 0.12631951, -1091040.6, 170343.06, 0.00006228534, 10.002088, 9.998897 
2.7451143e+3, 1.812845e+2, -956212.7, -1111282.0, -110800.84, -0.12015063, 0.2522374, -898512.56, 264919.13, 0.0000011486238, 10.001918, 9.999829 
2.7447882e+3, 1.912796e+2, -951624.2, -858430.1, -209351.92, -0.12392793, 0.15168647, -690552.2, 374919.47, 0.0, 10.000476, 10.001534 
2.744463e+3, 2.0127483e+2, -1178465.3, -1150934.4, -172396.64, -0.09683171, 0.07717327, -991754.44, -24242.877, 0.0, 9.999201, 9.99952 
2.7441412e+3, 2.1126851e+2, -846546.8, -976084.9, -35752.28, 0.0035312353, 0.028276768, -837334.4, 32239.918, 0.0, 10.001004, 9.999136 
2.743819e+3, 2.2126225e+2, -609074.2, -763555.1, -14027.229, 0.09177964, -0.0143603785, -607810.8, 163823.8, 0.0, 10.0017185, 9.9996195 
2.743494e+3, 2.3125787e+2, -614921.7, -557560.25, -58781.45, 0.08190913, -0.0048282393, -520835.75, 152831.14, 0.0, 10.000396, 10.000943 
2.7431676e+3, 2.4125256e+2, -983993.2, -1099492.0, -131721.27, 0.07770864, -0.0023211492, -897918.1, -322206.5, 0.0, 9.998917, 9.99731 
2.74284e+3, 2.5124145e+2, -893356.56, -1118453.3, -144797.34, 0.13310097, -0.24257387, -822510.75, -344680.8, 0.0, 9.999387, 9.996238 
2.7425125e+3, 2.6123226e+2, -536824.3, -537681.4, 7389.1763, 0.122926325, -0.37270978, -529851.25, -149923.5, 0.0, 9.99957, 9.999509 
2.7421874e+3, 2.712331e+2, -132463.69, 52077.555, 30551.137, -0.03461545, 0.03201209, 57003.844, 338918.6, 0.0, 10.000209, 10.002552 
2.7418625e+3, 2.812328e+2, -280505.9, -399102.53, -115654.86, -0.10904746, 0.37715077, -209833.69, -25919.977, 0.0, 10.000339, 9.998759 
2.7415365e+3, 2.9122347e+2, -298476.75, -473476.44, -199915.78, 0.07891833, 0.17662776, -167750.7, -81742.586, 0.0, 10.0000925, 9.997658 
2.7412084e+3, 3.0121443e+2, -486221.38, -804418.9, -132975.64, 0.10561736, 0.09779447, -437967.9, -437967.9, 0.0, 9.999351, 9.995108 
2.7408805e+3, 3.1120923e+2, -505227.06, -828547.2, -115021.94, 0.009361827, 0.61123043, -468483.44, -468483.44, 0.0, 9.999088, 9.994697 
2.7405584e+3, 3.2119393e+2, -169599.95, 210394.77, 112562.61, 0.21512903, -0.07031311, 241235.22, 241235.22, 0.0, 9.997511, 10.002636 
2.7567387e+3, 1.31639e+2, -1571029.1, -1949902.5, 316430.47, 0.055136357, 0.38688132, -1391664.4, 258301.63, 0.008671172, 10.002327, 9.997186 
2.756417e+3, 1.4163217e+2, -1306735.8, -1575264.6, -66271.12, -0.069965206, 0.40765566, -1291271.1, 260769.69, 0.004589541, 10.002566, 9.999033 
2.7560905e+3, 1.5162547e+2, -1159036.5, -1238658.8, -159042.86, 0.055245362, 0.20674549, -1034897.8, 419196.22, 0.001677919, 10.002051, 10.000883 
2.755764e+3, 1.6161917e+2, -1257971.5, -1478438.6, -37448.01, 0.1970227, 0.07437125, -1251784.3, 104362.14, 0.00035822205, 10.001681, 9.99877 
2.7554396e+3, 1.7161438e+2, -1117404.5, -1407078.0, 8068.7285, 0.21275854, 0.2827579, -1117179.9, 141018.48, 0.000033741435, 10.002232, 9.998285 
2.755114e+3, 1.816085e+2, -1014870.75, -1320017.9, -130449.21, 0.17963274, 0.38811722, -966706.44, 193552.53, 0.00000040337267, 10.002262, 9.998229 
2.754786e+3, 1.9159837e+2, -1109346.0, -1219916.8, -260570.63, 0.12780657, 0.006775105, -898260.4, 164090.61, 0.0, 10.000602, 9.998999 
2.7544597e+3, 2.0159067e+2, -1011788.1, -929882.1, -141813.58, 0.09737873, -0.22449948, -823226.75, 141192.73, 0.0, 9.999694, 10.000815 
2.7541387e+3, 2.1159011e+2, -557881.8, -489031.25, 52480.254, 0.13238513, 0.027969928, -460692.84, 405728.53, 0.0, 10.001429, 10.002312 
2.7538165e+3, 2.215881e+2, -438118.78, -562492.7, -23254.713, 0.14288768, 0.1659959, -433912.97, 334524.25, 0.0, 10.002377, 10.0006695 
2.7534884e+3, 2.3158035e+2, -630455.44, -622105.6, -121889.484, 0.030089676, -0.12857674, -504319.56, 166185.69, 0.0, 10.0005245, 10.000446 
2.753161e+3, 2.4157356e+2, -862843.0, -880715.2, -134832.22, 0.01132544, -0.2773986, -736651.06, -164083.36, 0.0, 9.999003, 9.998779 
2.752836e+3, 2.5157002e+2, -719731.2, -784825.6, -67839.24, 0.31918532, 0.036245544, -677035.56, -202422.94, 0.0, 9.999463, 9.998505 
2.7525103e+3, 2.6156524e+2, -546094.06, -656818.56, 114005.45, 0.4555298, 0.23981586, -474719.5, -98052.45, 0.0, 9.999961, 9.998505 
2.7521825e+3, 2.7155724e+2, -351743.8, -416570.56, 45088.082, -0.01920029, 0.056322787, -328627.38, -49885.625, 0.0, 10.000251, 9.999317 
2.7518556e+3, 2.8155002e+2, -293609.34, -423522.0, -190636.14, -0.3171857, -0.06504016, -157166.9, 23641.9, 0.0, 10.000326, 9.9985895 
2.7515304e+3, 2.915437e+2, -185585.31, -271950.78, -243286.34, -0.0049790563, -0.060674172, 18320.988, 101190.68, 0.0, 10.00027, 9.998943 
2.7512035e+3, 3.0153766e+2, -201852.92, -442181.53, -99767.07, 0.13315894, 0.017175753, -165834.86, -165834.86, 0.0, 10.000308, 9.997146 
2.7508754e+3, 3.115326e+2, -53603.152, -361549.44, 21812.207, -0.033436645, 0.33462703, -52065.84, -52065.84, 0.0, 10.001054, 9.997 
2.750552e+3, 3.2152075e+2, 151843.44, 386459.47, 175813.48, 0.18214628, -0.15559025, 480507.9, 480507.9, 0.0, 9.999563, 10.002872 
2.766738e+3, 1.3196607e+2, -1311500.9, -1931706.5, 438164.8, 0.11317818, 0.30118152, -1084805.6, 561945.7, 0.0058093364, 10.004582, 9.996243 
2.7664152e+3, 1.4195837e+2, -1297525.4, -1676414.5, 124327.055, -0.03669673, 0.36072075, -1260372.4, 288467.03, 0.0029660612, 10.0030985, 9.998088 
2.7660865e+3, 1.5195093e+2, -1168427.4, -1333279.8, -61310.645, -0.0038863036, 0.17574783, -1148125.4, 302777.56, 0.0010274181, 10.002387, 10.000066 
2.7657598e+3, 1.6194426e+2, -1294386.0, -1546109.0, 386.9566, 0.10178461, 0.08419256, -1294385.4, 58575.113, 0.00020335741, 10.00167, 9.998314 
2.765437e+3, 1.7193912e+2, -1173871.9, -1439873.1, 78089.56, 0.2541845, 0.2681349, -1152641.6, 102372.586, 0.000016580547, 10.001896, 9.998213 
2.7651125e+3, 1.8193275e+2, -1111204.9, -1425850.5, -24752.943, 0.32683808, 0.35526818, -1109269.5, 47808.832, 0.00000009587778, 10.00189, 9.997683 
2.7647832e+3, 1.9192167e+2, -924455.9, -1217526.3, -40453.848, 0.22774237, -0.045110557, -918974.3, 140206.48, 0.0, 10.002264, 9.9982195 
2.7644557e+3, 2.0191303e+2, -749168.8, -842804.4, 155558.19, 0.15634674, -0.27509785, -633535.8, 327724.25, 0.0, 10.001708, 10.000439 
2.7641353e+3, 2.1191306e+2, -731293.1, -540168.44, 120739.77, 0.19269149, 0.033430427, -481749.44, 381508.38, 0.0, 10.0001545, 10.002545 
2.7638128e+3, 2.2191189e+2, -932370.5, -788066.44, -159075.67, 0.17584814, 0.22797616, -685544.5, 79721.86, 0.0, 9.9989605, 10.000766 
2.763483e+3, 2.319037e+2, -718655.94, -639784.7, -202796.2, -0.007497979, -0.15187716, -472625.34, 194715.23, 0.0, 9.999824, 10.000657 
2.7631545e+3, 2.4189717e+2, -644900.4, -694982.56, -146186.63, -0.053953722, -0.31219652, -521625.66, 47776.094, 0.0, 10.000194, 9.999475 
2.7628312e+3, 2.5189728e+2, -427671.34, -485791.34, -140286.63, 0.36547896, 0.2261132, -313466.47, 157941.81, 0.0, 10.0008135, 9.999901 
2.7625066e+3, 2.6189452e+2, -554256.5, -799176.5, -14780.404, 0.56694317, 0.56680405, -553367.75, -179926.3, 0.0, 10.000565, 9.99723 
2.7621776e+3, 2.7188104e+2, -679330.8, -840278.5, 20440.443, 0.001817927, 0.044510923, -676775.44, -401202.8, 0.0, 9.999217, 9.996885 
2.7618495e+3, 2.8186938e+2, -617585.5, -593341.4, -117124.305, -0.38261536, -0.3476839, -487713.5, -310029.2, 0.0, 9.998191, 9.998449 
2.761524e+3, 2.9186532e+2, -214368.69, -163397.33, -173520.58, -0.074335076, -0.21683949, -13500.821, 66217.68, 0.0, 9.999532, 10.0000515 
2.7611977e+3, 3.018614e+2, -161667.73, -237055.73, -74771.164, 0.081099376, -0.045293424, -115626.64, -115626.64, 0.0, 9.999814, 9.998782 
2.7608705e+3, 3.1185567e+2, -245175.64, -203085.02, -28156.463, -0.030811517, -0.017425375, -188977.92, -188977.92, 0.0, 9.998691, 9.999204 
2.7605453e+3, 3.218489e+2, -184537.84, 235167.56, -52616.75, 0.10663789, -0.17243804, 241663.36, 241663.36, 0.0, 9.997323, 10.002861 
2.7767393e+3, 1.3229296e+2, -1373841.6, -1896316.6, 310505.97, 0.24742363, 0.03051836, -1229297.1, 414234.88, 0.003676174, 10.003869, 9.996818 
2.7764118e+3, 1.4228785e+2, -1430922.3, -1886060.4, 61998.027, -0.1570608, 0.35532618, -1422628.3, 122969.89, 0.001799881, 10.002807, 9.996784 
2.776082e+3, 1.5227808e+2, -1307004.0, -1671053.1, -76288.625, -0.18516128, 0.16040456, -1291663.6, 156028.25, 0.0005848719, 10.002594, 9.997645 
2.7757546e+3, 1.6226932e+2, -1236706.9, -1551631.9, 19726.086, -0.07948102, 0.028482767, -1235476.1, 114298.85, 0.00010500734, 10.002182, 9.998032 
2.775433e+3, 1.7226347e+2, -1104853.9, -1345224.4, 111579.51, 0.1811684, 0.106166966, -1061043.8, 190787.05, 0.0000068884756, 10.002083, 9.998781 
2.7751094e+3, 1.8225753e+2, -983257.25, -1240747.3, 550.45123, 0.3110781, 0.16401967, -983256.1, 170630.7, 0.00000000965895, 10.002231, 9.998786 
2.7747795e+3, 1.9225018e+2, -813279.56, -1042247.3, 5274.2485, 0.14686984, 0.036227215, -813158.1, 242795.3, 0.0, 10.002482, 9.999331 
2.7744517e+3, 2.0224296e+2, -836852.7, -1121332.6, 149451.61, 0.049743917, -0.04620869, -772772.5, 185249.95, 0.0, 10.002106, 9.998331 
2.7741298e+3, 2.1223676e+2, -999035.9, -1101150.5, 70067.41, 0.16682668, 0.007074074, -963396.6, -103305.68, 0.0, 10.000173, 9.998687 
2.7738068e+3, 2.2223192e+2, -900627.4, -737598.6, -151198.45, 0.19663177, 0.07869056, -647341.2, 114801.38, 0.0, 9.998987, 10.001116 
2.7734774e+3, 2.3222893e+2, -566362.75, -374365.13, -143471.13, -0.00992527, 0.07616035, -297737.94, 366428.66, 0.0, 10.0, 10.002427 
2.7731493e+3, 2.4222513e+2, -516095.25, -598409.5, -96521.26, -0.11773862, 0.07322673, -452322.6, 113876.95, 0.0, 10.00092, 9.999779 
2.7728245e+3, 2.5221956e+2, -362778.8, -524203.8, -122662.13, 0.08522406, 0.10037284, -296656.34, 171597.86, 0.0, 10.001555, 9.999289 
2.7724993e+3, 2.6221362e+2, -398517.94, -653366.6, -80991.18, 0.24299927, 0.14970714, -374957.06, -4642.934, 0.0, 10.001309, 9.997871 
2.772173e+3, 2.7220556e+2, -629968.4, -717113.0, -37218.12, 0.14460425, 0.08634665, -616236.75, -343839.0, 0.0, 9.999095, 9.997808 
2.771846e+3, 2.8219792e+2, -619438.1, -506338.8, -22829.941, 0.03368743, 0.017227678, -501904.28, -327431.06, 0.0, 9.997767, 9.999248 
2.7715182e+3, 2.9219276e+2, -175737.45, -106330.586, -46995.84, -0.06964526, -0.0031280932, -82613.67, -6099.3315, 0.0, 9.999575, 10.000434 
2.771191e+3, 3.021868e+2, -122399.414, -230144.55, -90207.37, -0.072393656, -0.051370677, -71202.37, -71202.37, 0.0, 10.000099, 9.998686 
2.770867e+3, 3.121777e+2, -519623.44, -376304.5, -146663.5, 0.40258208, -0.32913408, -284730.2, -284730.2, 0.0, 9.996958, 9.998845 
2.7705377e+3, 3.221765e+2, -324925.22, 41615.035, -13797.939, 0.20856586, 0.14092204, 42133.707, 42133.707, 0.0, 9.996863, 10.001748 
2.7867362e+3, 1.3261683e+2, -1595023.3, -1820004.4, 25425.307, 0.18245593, -0.032909602, -1592185.8, 48171.36, 0.0021622053, 10.001575, 9.998417 
2.7864096e+3, 1.426128e+2, -1590759.0, -1951400.1, -121880.66, -0.08988789, 0.26075602, -1553432.1, -11024.487, 0.0010041753, 10.001648, 9.996892 
2.7860793e+3, 1.5260403e+2, -1105248.5, -1612746.5, -124981.664, -0.24356718, 0.17377397, -1076138.9, 368356.9, 0.00030006425, 10.004144, 9.997297 
2.785752e+3, 1.6259567e+2, -835221.1, -1355287.5, -24123.947, -0.17758158, 0.1003483, -834104.5, 512473.53, 0.00004641634, 10.004952, 9.99804 
2.7854303e+3, 1.7258878e+2, -1078254.6, -1315153.9, 10132.995, 0.18494613, 0.04836026, -1077822.0, 170820.38, 0.0000020738605, 10.002211, 9.998927 
2.785106e+3, 1.8258269e+2, -1254538.0, -1339113.6, -65210.33, 0.3608247, 0.06961902, -1219104.1, -68405.16, 0.00000000000031198744, 10.000244, 9.9990635 
2.7847758e+3, 1.9257776e+2, -914329.25, -1031516.4, -81038.09, 0.1291184, 0.11559737, -872920.94, 179823.52, 0.0, 10.001548, 9.999838 
2.784448e+3, 2.0257188e+2, -944445.7, -1243657.1, 39605.23, 0.011604382, 0.15034184, -939292.1, 15510.049, 0.0, 10.001721, 9.997655 
2.784125e+3, 2.1256325e+2, -1067759.6, -1255427.3, 156614.28, 0.17057265, 0.049881693, -979020.6, -122125.13, 0.0, 10.000264, 9.997567 
2.7838007e+3, 2.2255667e+2, -965476.25, -824461.1, 112805.62, 0.24026093, 0.06049047, -761940.75, -2974.476, 0.0, 9.998819, 10.000586 
2.7834725e+3, 2.3255551e+2, -735727.8, -458105.13, -4390.8843, 0.0597067, 0.26030096, -458035.7, 202940.38, 0.0, 9.998882, 10.002369 
2.7831444e+3, 2.4255235e+2, -852993.44, -795437.06, -61658.586, -0.09155349, 0.34179607, -756171.44, -193168.0, 0.0, 9.998801, 9.999446 
2.7828178e+3, 2.5254306e+2, -692372.7, -697504.75, -45728.723, -0.100296035, 0.014338275, -649138.06, -184050.0, 0.0, 9.999405, 9.999119 
2.782492e+3, 2.625352e+2, -646440.0, -737524.6, -38518.92, -0.019009324, -0.11932673, -632334.94, -265171.84, 0.0, 9.999486, 9.998168 
2.7821678e+3, 2.72531e+2, -552342.06, -592833.4, -54971.1, 0.22900452, 0.13189161, -514006.94, -244793.92, 0.0, 9.999277, 9.998566 
2.7818418e+3, 2.8252658e+2, -425160.56, -371715.97, 16298.218, 0.30609614, 0.3196225, -367137.88, -195877.97, 0.0, 9.998963, 9.999589 
2.781513e+3, 2.9252073e+2, -81787.01, -44032.758, 16348.136, -0.059342768, 0.20923945, -37937.75, 35368.684, 0.0, 10.000179, 10.00056 
2.781185e+3, 3.0251312e+2, -81131.9, -258995.86, -161428.5, -0.17774719, 0.011790277, 14240.367, 14240.367, 0.0, 10.0006275, 9.998238 
2.7808625e+3, 3.1250113e+2, -190017.02, -254046.58, -228683.05, 0.73249257, -0.5280801, 8881.351, 8881.351, 0.0, 9.999425, 9.998492 
2.7805296e+3, 3.225054e+2, -151847.97, 10780.17, 220231.36, 0.12003916, 0.55924386, 164229.45, 164229.45, 0.0, 9.998548, 10.000754 
2.796731e+3, 1.3293889e+2, -1409407.1, -1490115.5, 4844.9756, -0.0038387193, -0.055163182, -1409117.4, 228089.77, 0.0011624077, 10.001787, 10.000593 
2.7964073e+3, 1.4293537e+2, -1503116.8, -1761503.8, -46616.023, 0.035930414, 0.12351079, -1494963.9, 44280.42, 0.00050341507, 10.001606, 9.998216 
2.7960783e+3, 1.5292966e+2, -1068919.5, -1462367.0, -5841.719, -0.24574411, 0.228701, -1068832.8, 372472.25, 0.00013421717, 10.003824, 9.998482 
2.7957514e+3, 1.6292302e+2, -849771.44, -1346853.9, -71049.55, -0.23739791, 0.2528427, -839815.5, 503557.1, 0.00001642319, 10.004764, 9.9981985 
2.7954274e+3, 1.7291461e+2, -1092750.3, -1352047.0, -78139.67, 0.2263394, 0.08149258, -1071023.3, 174429.39, 0.0000003300107, 10.002222, 9.998679 
2.795102e+3, 1.8290785e+2, -1179322.4, -1282852.1, -33855.277, 0.43770516, 0.042583227, -1169234.4, -21716.21, 0.0, 10.000622, 9.999286 
2.7947727e+3, 1.9290392e+2, -871534.94, -1005799.06, -10231.771, 0.16312632, 0.1911481, -870759.7, 178799.48, 0.0, 10.001784, 9.999922 
2.7944452e+3, 2.0289972e+2, -715785.8, -855503.5, 19453.652, 0.026067302, 0.29894468, -713127.75, 238473.52, 0.0, 10.002089, 10.000137 
2.7941206e+3, 2.1289416e+2, -833597.56, -814151.25, 138963.44, 0.20024298, 0.22722453, -684571.25, 169082.95, 0.0, 10.00045, 10.000515 
2.7937955e+3, 2.2288851e+2, -1012956.94, -1032892.6, 157506.73, 0.30630693, 0.22266571, -865102.94, -109392.16, 0.0, 9.999247, 9.998947 
2.793468e+3, 2.328833e+2, -944943.8, -926172.75, 26781.344, 0.24548797, 0.33299208, -907179.94, -249411.44, 0.0, 9.998992, 9.999098 
2.7931404e+3, 2.4287775e+2, -817851.94, -748924.8, -30896.754, 0.14650889, 0.366447, -737102.94, -177278.95, 0.0, 9.998883, 9.999727 
2.792813e+3, 2.5287026e+2, -644241.8, -559818.6, 8146.1772, -0.0061779977, 0.13403526, -559039.8, -97153.016, 0.0, 9.99918, 10.000205 
2.792486e+3, 2.628632e+2, -638429.2, -708965.06, 25437.727, -0.049560603, 0.0104217, -630212.6, -266261.56, 0.0, 9.999388, 9.998418 
2.7921605e+3, 2.7285722e+2, -492431.38, -588415.94, -7361.0215, 0.11017548, 0.10549991, -491870.16, -225853.25, 0.0, 9.999757, 9.998375 
2.7918357e+3, 2.8285217e+2, -260576.31, -299378.25, 72477.1, 0.21334119, 0.25100264, -204948.44, -36877.008, 0.0, 10.00013, 9.999502 
2.7915102e+3, 2.9284853e+2, -3806.1355, -42650.11, 61549.41, 0.107115984, 0.3975398, 41312.902, 111419.62, 0.0, 10.000863, 10.000229 
2.791183e+3, 3.0284253e+2, 86230.26, -121424.03, -137628.78, 0.03186339, 0.36270848, 154803.11, 154803.11, 0.0, 10.001493, 9.998771 
2.7908555e+3, 3.1283158e+2, 255701.31, 33927.1, -199518.14, 0.41867566, -0.12510708, 373075.97, 373075.97, 0.0, 10.002137, 9.999185 
2.7905202e+3, 3.2283193e+2, 157477.4, 321831.7, 163734.2, -0.27075943, 0.47809964, 422853.84, 422853.84, 0.0, 9.999944, 10.002221 
2.8067288e+3, 1.3326341e+2, -1275876.4, -1412678.5, -9858.317, 0.047290325, 0.038390167, -1275169.6, 358864.1, 0.0005624611, 10.002625, 10.000743 
2.806404e+3, 1.4326005e+2, -1515978.4, -1715910.1, -55628.33, 0.10219268, 0.19835055, -1501542.9, 34523.496, 0.00022483901, 10.0013075, 9.998679 
2.8060767e+3, 1.532543e+2, -1412740.1, -1554215.4, -21798.865, -0.10390483, 0.22497547, -1409457.5, 28669.621, 0.00005269784, 10.001133, 9.999163 
2.8057504e+3, 1.6324826e+2, -1340883.8, -1524003.3, -131966.39, -0.11152039, 0.24542172, -1271825.0, 68363.64, 0.0000047753, 10.001176, 9.998687 
2.8054234e+3, 1.7324118e+2, -1072608.4, -1289447.9, -108589.58, 0.13294443, 0.14107752, -1027579.3, 214676.17, 0.00000002399446, 10.002145, 9.999123 
2.8050968e+3, 1.8323502e+2, -906169.9, -1146637.1, 20055.742, 0.2761726, 0.13425532, -904508.6, 239807.88, 0.0, 10.002553, 9.999264 
2.80477e+3, 1.9323072e+2, -785889.1, -965672.94, 35782.152, 0.19389115, 0.24561152, -779029.25, 267335.66, 0.0, 10.002447, 9.999849 
2.8044432e+3, 2.0322682e+2, -684243.1, -738185.4, -31677.855, 0.149264, 0.35546094, -669609.8, 278794.72, 0.0, 10.001878, 10.001047 
2.8041163e+3, 2.1322317e+2, -650029.25, -555709.44, -46326.758, 0.23225668, 0.3184242, -536761.7, 313671.3, 0.0, 10.0009985, 10.002012 
2.80379e+3, 2.2321822e+2, -872868.1, -1094394.8, 18590.682, 0.2996099, 0.3231096, -871318.8, -118839.19, 0.0, 10.000826, 9.99776 
2.8034642e+3, 2.3321031e+2, -518019.53, -914272.44, 37575.664, 0.3293407, 0.31804195, -514487.78, 140078.3, 0.0, 10.002798, 9.99735 
2.8031373e+3, 2.4320322e+2, -229801.45, -522003.22, 92.925285, 0.297754, 0.33114573, -229801.44, 326837.75, 0.0, 10.003204, 9.999196 
2.8028092e+3, 2.5319737e+2, -309956.03, -391137.66, -74470.53, 0.14660837, 0.25453436, -265732.5, 192955.34, 0.0, 10.001499, 10.000219 
2.802481e+3, 2.6319107e+2, -554177.1, -661825.25, -88904.75, 0.023303386, 0.19977458, -504072.94, -143329.06, 0.0, 9.999988, 9.998438 
2.8021544e+3, 2.7318347e+2, -446618.66, -538901.7, -53577.79, 0.01556127, 0.09501265, -422052.2, -159231.6, 0.0, 9.999989, 9.998588 
2.801829e+3, 2.8317785e+2, -416283.66, -420761.66, 55942.49, 0.070822984, 0.18581797, -362535.38, -197654.92, 0.0, 9.999286, 9.999083 
2.8015062e+3, 2.931757e+2, -460445.97, -302060.38, 46814.008, 0.20725031, 0.51012725, -289258.34, -222347.94, 0.0, 9.997936, 9.999855 
2.8011793e+3, 3.031714e+2, -453611.94, -330343.16, -132139.6, 0.15320827, 0.64787734, -246170.58, -246170.58, 0.0, 9.997612, 9.99919 
2.800848e+3, 3.1316242e+2, -53189.918, -31156.533, -159014.92, 0.06467779, 0.2862813, 117222.86, 117222.86, 0.0, 9.999689, 9.999896 
2.800511e+3, 3.2315743e+2, -26279.016, 389626.03, -33324.664, -0.6225962, 0.2475139, 392279.25, 392279.25, 0.0, 9.998111, 10.003528 
2.8167272e+3, 1.3358963e+2, -1351055.5, -1549363.0, -29366.803, 0.13614178, 0.20572375, -1346798.1, 284046.06, 0.00024571095, 10.002532, 9.999858 
2.8164002e+3, 1.4358582e+2, -1479313.0, -1656065.5, -24310.729, 0.08901416, 0.3743594, -1476030.3, 56850.67, 0.000090571455, 10.001373, 9.999063 
2.816075e+3, 1.5357828e+2, -1350174.1, -1467695.6, 21607.098, 0.120144166, 0.17694509, -1346327.4, 88630.375, 0.000018083496, 10.001307, 9.999681 
2.8157482e+3, 1.6357228e+2, -1205076.1, -1314834.8, -78678.445, 0.08979408, 0.12227694, -1164028.1, 172988.98, 0.000001252134, 10.001473, 9.999988 
2.8154176e+3, 1.7356876e+2, -955391.1, -1092840.9, -36211.836, -0.13126092, 0.2599624, -946434.56, 292613.72, 0.0000000065346386, 10.002334, 10.000392 
2.81509e+3, 1.8356417e+2, -856149.4, -1098553.1, 39715.914, -0.1412504, 0.33843485, -849808.1, 291285.75, 0.0, 10.002816, 9.999447 
2.8147677e+3, 1.9355781e+2, -773707.0, -987962.7, 54391.55, 0.21871929, 0.27249444, -760689.8, 282474.13, 0.0, 10.002642, 9.999607 
2.8144425e+3, 2.0355265e+2, -645905.8, -738803.1, -46786.418, 0.3912206, 0.27516493, -626426.9, 318790.2, 0.0, 10.002196, 10.000895 
2.8141123e+3, 2.1354924e+2, -642659.0, -608860.06, -71693.0, 0.2476202, 0.31797543, -552101.7, 295142.2, 0.0, 10.001258, 10.001535 
2.813785e+3, 2.2354421e+2, -695927.44, -899357.94, 89549.26, 0.17835452, 0.30808344, -662124.94, 87164.555, 0.0, 10.001549, 9.9987545 
2.813462e+3, 2.3353595e+2, -254248.14, -657539.5, 153928.63, 0.224091, 0.1589527, -202210.95, 449160.84, 0.0, 10.004015, 9.998544 
2.813137e+3, 2.4352878e+2, -125548.15, -667474.94, -22594.951, 0.3096651, 0.17265043, -124607.71, 428837.56, 0.0, 10.004741, 9.997455 
2.812809e+3, 2.5352338e+2, -349515.22, -690357.6, -157448.73, 0.43443337, 0.3978831, -287915.97, 167586.5, 0.0, 10.00242, 9.997724 
2.8124803e+3, 2.6351732e+2, -351892.6, -432864.9, -123404.11, 0.39049482, 0.4573015, -262503.03, 95058.04, 0.0, 10.000761, 9.999655 
2.81215e+3, 2.7350965e+2, -251735.06, -266333.63, -63472.465, 0.08714341, 0.1909365, -195143.55, 64484.082, 0.0, 10.000492, 10.000253 
2.811822e+3, 2.8350347e+2, -388696.03, -389588.03, 909.2907, -0.03199755, 0.12247952, -388129.25, -226443.3, 0.0, 9.999343, 9.999291 
2.811497e+3, 2.9349968e+2, -640557.5, -425912.4, -29075.486, 0.10116365, 0.32218525, -422043.63, -358312.16, 0.0, 9.996821, 9.999568 
2.81117e+3, 3.0349573e+2, -606946.56, -279887.63, -48830.215, 0.13314341, 0.46978387, -272752.84, -272752.84, 0.0, 9.996013, 10.0002985 
2.8108427e+3, 3.1349087e+2, -148043.52, 48768.71, -37280.21, 0.23426898, 0.41107035, 55593.664, 55593.664, 0.0, 9.998465, 10.001042 
2.810508e+3, 3.2348478e+2, -179425.23, 200481.55, -268297.34, -0.15141355, 0.22716233, 339261.72, 339261.72, 0.0, 9.997497, 10.002541 
2.8267258e+3, 1.3391852e+2, -1291922.5, -1565355.6, 108506.86, 0.24222209, 0.18099596, -1254096.4, 373521.9, 0.00010332986, 10.003221, 9.999365 
2.8263974e+3, 1.4391421e+2, -1398640.9, -1649152.9, 209700.22, 0.16278516, 0.36787054, -1279636.3, 250024.05, 0.000034344772, 10.002114, 9.998724 
2.8260723e+3, 1.5390624e+2, -1145584.8, -1392839.8, 218611.55, 0.14415573, 0.163685, -1018065.3, 413676.7, 0.0000055031255, 10.002876, 9.999409 
2.825746e+3, 1.6389999e+2, -981882.56, -1207128.9, 63000.055, 0.13133256, 0.11449793, -965459.3, 368344.9, 0.0000002527922, 10.003043, 9.999961 
2.8254157e+3, 1.7389636e+2, -932849.3, -1068731.1, 28215.906, -0.054823723, 0.2357936, -927223.25, 308613.9, 0.0, 10.002488, 10.000472 
2.8250873e+3, 1.838922e+2, -1041629.56, -1178508.5, 51864.55, -0.107676245, 0.3546441, -1024197.7, 113681.46, 0.0, 10.001501, 9.999537 
2.824763e+3, 1.9388647e+2, -1126651.1, -1134946.3, 95836.266, 0.17239523, 0.322325, -1034872.75, 5070.1772, 0.0, 10.000127, 9.999803 
2.824438e+3, 2.0388085e+2, -1001238.56, -1049247.1, 40037.797, 0.3470037, 0.32998607, -978560.6, -36558.777, 0.0, 10.000419, 9.999601 
2.8241095e+3, 2.1387552e+2, -445428.03, -672834.3, -57852.27, 0.25440648, 0.3162213, -431556.53, 412494.7, 0.0, 10.003344, 10.000082 
2.8237826e+3, 2.238699e+2, -349188.84, -695121.0, 41024.254, 0.16918603, 0.31965905, -344390.3, 401713.5, 0.0, 10.003814, 9.999051 
2.823459e+3, 2.338629e+2, -601312.9, -731093.8, 68127.2, 0.16178787, 0.19887893, -572117.8, 76053.234, 0.0, 10.001279, 9.999332 
2.823134e+3, 2.4385609e+2, -823030.56, -1050725.5, -111585.01, 0.26086295, 0.21847734, -777465.1, -227226.06, 0.0, 10.000195, 9.997009 
2.8228065e+3, 2.538498e+2, -600748.75, -888073.4, -58278.652, 0.5414089, 0.40572584, -589377.94, -137070.27, 0.0, 10.001051, 9.997024 
2.8224775e+3, 2.6384366e+2, -255709.61, -342595.5, 75335.53, 0.5348799, 0.50284094, -212188.58, 142179.67, 0.0, 10.001282, 10.00001 
2.8221458e+3, 2.7383688e+2, -91740.086, -109707.766, 25597.355, 0.08150614, 0.26148662, -73595.82, 182827.1, 0.0, 10.001293, 10.000924 
2.8218153e+3, 2.8383034e+2, -279152.72, -380184.97, -60915.504, -0.15189834, 0.14718464, -250532.39, -92051.19, 0.0, 10.000326, 9.998867 
2.8214878e+3, 2.938242e+2, -419688.22, -362558.34, -100341.336, -0.0111332685, 0.13356042, -286795.25, -226248.19, 0.0, 9.998534, 9.999171 
2.8211606e+3, 3.0382e+2, -431949.78, -126966.32, -24350.064, 0.07911852, 0.25717905, -125034.43, -125034.43, 0.0, 9.996952, 10.000891 
2.8208366e+3, 3.1381854e+2, -378381.4, 35580.418, -36343.164, 0.34414405, 0.43778455, 38746.89, 38746.89, 0.0, 9.996483, 10.001897 
2.820505e+3, 3.238119e+2, -261991.42, -11221.462, -496783.84, 0.30728307, 0.20608938, 375756.3, 375756.3, 0.0, 9.997719, 10.0009575 
2.8367248e+3, 1.3424872e+2, -1358127.9, -1633903.4, -12883.472, 0.3162753, 0.034085304, -1357527.3, 266846.84, 0.000047312227, 10.0028715, 9.999084 
2.8363952e+3, 1.4424427e+2, -1395343.5, -1703454.9, 230097.97, 0.23840332, 0.24884863, -1272490.9, 253927.3, 0.0000143478965, 10.002371, 9.998226 
2.8360683e+3, 1.5423697e+2, -1193358.0, -1497037.8, 262016.52, -0.012715507, 0.18769084, -1042364.6, 386129.63, 0.0000019516297, 10.002893, 9.998686 
2.8357425e+3, 1.6423e+2, -1037586.25, -1325586.3, 49547.492, 0.03704116, 0.1437727, -1029300.5, 301264.22, 0.00000005936716, 10.003033, 9.999157 
2.8354168e+3, 1.7422335e+2, -988878.2, -1210995.6, 25153.14, 0.3230427, 0.06445955, -986065.4, 246563.67, 0.0, 10.002552, 9.999485 
2.8350878e+3, 1.8421896e+2, -945857.56, -1039733.7, 12832.124, 0.30299857, 0.17267214, -944135.1, 190538.52, 0.0, 10.00171, 10.000408 
2.8347564e+3, 1.9421697e+2, -1047577.6, -999508.75, 62469.113, -0.027197942, 0.43548584, -956610.06, 80088.27, 0.0, 10.000209, 10.0007105 
2.8344294e+3, 2.0421158e+2, -1104662.0, -1338557.1, 163028.61, -0.039711077, 0.51904297, -1020972.94, -82216.62, 0.0, 10.000725, 9.997472 
2.8341082e+3, 2.1420172e+2, -528570.0, -1003452.8, 83452.39, 0.26659673, 0.31666344, -514331.6, 326525.94, 0.0, 10.003996, 9.99751 
2.8337833e+3, 2.2419505e+2, -265053.56, -662288.75, -52350.875, 0.3517314, 0.3603607, -258270.17, 484657.13, 0.0, 10.0044, 9.999002 
2.833455e+3, 2.3419204e+2, -643701.44, -749440.44, -59358.35, 0.17269982, 0.64909303, -617081.3, 27879.738, 0.0, 10.000947, 9.999381 
2.833127e+3, 2.4418627e+2, -644677.94, -555291.56, -62827.37, 0.12227469, 0.59959555, -522882.5, 24131.1, 0.0, 9.999622, 10.000695 
2.8327993e+3, 2.541768e+2, -303512.3, -316892.78, 70131.695, 0.24031392, 0.09718768, -239752.47, 209339.31, 0.0, 10.001203, 10.000889 
2.8324708e+3, 2.6417005e+2, -246435.47, -510947.53, 185966.28, 0.20779291, -0.0040070205, -150491.77, 200661.03, 0.0, 10.00206, 9.998483 
2.8321406e+3, 2.7416638e+2, -151117.84, -400954.25, 71276.54, -0.07288042, 0.3132448, -132213.58, 120980.09, 0.0, 10.002008, 9.998584 
2.831811e+3, 2.8416038e+2, -161313.2, -366477.84, -82541.445, -0.14099847, 0.39682218, -132228.44, 23025.248, 0.0, 10.001293, 9.998505 
2.8314826e+3, 2.9415116e+2, -258255.13, -335222.44, -131173.13, 0.061659977, 0.1329747, -160036.98, -102695.64, 0.0, 9.999833, 9.998744 
2.831153e+3, 3.0414453e+2, -346012.2, -182406.02, -76154.2, 0.06728661, 0.07306894, -152445.03, -152445.03, 0.0, 9.997918, 10.000056 
2.8308243e+3, 3.1414142e+2, -610825.6, -219769.25, -152043.0, 0.06944472, 0.20869201, -167611.47, -167611.47, 0.0, 9.995456, 10.00066 
2.8304988e+3, 3.241377e+2, -285690.5, -357216.4, -258229.55, 0.42238328, 0.47674528, -60759.223, -60759.223, 0.0, 9.998965, 9.997995 
2.8467217e+3, 1.3457774e+2, -1396404.4, -1561925.4, -101532.695, 0.30505452, 0.073988535, -1348175.6, 272975.75, 0.000024810672, 10.002199, 9.999918 
2.846394e+3, 1.4457187e+2, -1173983.0, -1606181.6, 121827.81, 0.28981814, 0.093475275, -1142007.9, 381196.03, 0.0000075134353, 10.0039425, 9.998133 
2.8460664e+3, 1.5456656e+2, -1135614.6, -1496539.1, 163568.28, 0.006370701, 0.23431313, -1072517.4, 352746.22, 0.0000012508747, 10.003413, 9.998436 
2.8457403e+3, 1.6455987e+2, -1127860.3, -1408973.0, -42058.89, 0.058029093, 0.24236324, -1121702.5, 205629.7, 0.000000073245815, 10.00261, 9.998769 
2.8454143e+3, 1.7455149e+2, -1174761.4, -1351714.9, -31130.95, 0.42172548, 0.01851517, -1169444.4, 59968.375, 0.0, 10.001522, 9.998998 
2.8450856e+3, 1.8454626e+2, -963154.5, -1082126.4, -15999.163, 0.39534026, 0.083876915, -961040.5, 170424.33, 0.0, 10.001783, 10.0000725 
2.844752e+3, 1.9454464e+2, -567934.0, -810390.0, -69590.21, -0.085556656, 0.40144616, -549379.94, 484104.38, 0.0, 10.003711, 10.000324 
2.8444254e+3, 2.0453946e+2, -723407.94, -1132480.0, 113223.266, -0.15183231, 0.5064614, -694160.94, 241377.94, 0.0, 10.003261, 9.997653 
2.8441054e+3, 2.1452914e+2, -1038066.2, -1248860.4, 255885.56, 0.2741241, 0.22731343, -866721.56, -29077.707, 0.0, 10.000505, 9.997504 
2.843781e+3, 2.245225e+2, -946434.7, -967723.94, 172877.06, 0.41445047, 0.28926903, -783874.9, -44159.992, 0.0, 9.999652, 9.999181 
2.8434503e+3, 2.3452057e+2, -668619.4, -750474.2, 168014.16, 0.1885209, 0.67924345, -536619.6, 105122.27, 0.0, 10.000746, 9.999468 
2.8431213e+3, 2.4451551e+2, -304389.7, -222698.19, 153954.95, 0.0508725, 0.65163517, -104262.73, 439524.0, 0.0, 10.001291, 10.0021515 
2.8427935e+3, 2.545058e+2, -140881.83, -53841.26, 62680.406, 0.047779743, -0.04268756, -21053.953, 424806.44, 0.0, 10.001579, 10.002492 
2.842465e+3, 2.64499e+2, -492976.78, -805435.9, 39802.637, -0.01566044, -0.16033508, -487986.22, -140065.03, 0.0, 10.001176, 9.996867 
2.8421357e+3, 2.7449593e+2, -566037.1, -804877.56, 15929.407, -0.16075736, 0.36436, -564979.4, -315013.38, 0.0, 10.000067, 9.996735 
2.8418067e+3, 2.8448966e+2, -439080.3, -543281.75, -102116.766, -0.12498493, 0.54184294, -376541.06, -224509.08, 0.0, 9.99962, 9.998073 
2.8414777e+3, 2.9447877e+2, -254534.83, -373655.84, -134769.64, 0.12259938, 0.13065422, -166751.16, -112620.734, 0.0, 10.00006, 9.99836 
2.8411457e+3, 3.0447042e+2, -178151.98, -232992.14, -117964.05, 0.031808916, -0.023392307, -84463.11, -84463.11, 0.0, 9.999683, 9.998839 
2.8408128e+3, 3.1446502e+2, -272043.13, -209154.39, -175415.94, -0.18266381, 0.0101665035, -62386.82, -62386.82, 0.0, 9.998479, 9.999256 
2.8404927e+3, 3.2446414e+2, -582089.1, -756629.3, 219629.27, 0.40612325, 0.73711014, -433026.66, -433026.66, 0.0, 9.998083, 9.995649 
2.8567177e+3, 1.3490589e+2, -1233831.5, -1325374.9, 41329.5, 0.18568604, 0.14495271, -1217933.3, 400008.2, 0.000013007372, 10.002593, 10.001379 
2.8563926e+3, 1.4489815e+2, -1179038.9, -1585482.0, 114447.305, 0.2958369, -0.09012959, -1149028.4, 370977.13, 0.0000037394736, 10.0037775, 9.998365 
2.856066e+3, 1.5489548e+2, -1172119.1, -1502029.8, 163550.88, 0.12123244, 0.30253136, -1104783.4, 317260.2, 0.00000051506584, 10.003082, 9.99857 
2.8557384e+3, 1.6488977e+2, -1113195.0, -1368047.8, -76827.82, 0.12009631, 0.3880995, -1091826.3, 232277.16, 0.00000002542409, 10.002559, 9.999078 
2.8554088e+3, 1.7488089e+2, -1127886.9, -1303768.4, -46309.31, 0.22243534, 0.102347255, -1116438.9, 109747.836, 0.0, 10.001731, 9.999227 
2.85508e+3, 1.8487395e+2, -1013550.0, -1258164.0, 78307.32, 0.19478041, 0.053565882, -990629.5, 137625.05, 0.0, 10.002089, 9.9987135 
2.8547522e+3, 1.9486898e+2, -615033.7, -1000459.06, 32701.73, 0.032833267, 0.19930786, -612278.8, 418027.94, 0.0, 10.004085, 9.998847 
2.8544256e+3, 2.0486417e+2, -403122.6, -548124.2, 19610.57, 0.036767006, 0.2317386, -400517.2, 531834.25, 0.0, 10.003559, 10.001539 
2.8541002e+3, 2.1485882e+2, -787223.3, -680540.5, 177260.64, 0.22454508, 0.06423753, -548769.4, 285626.5, 0.0, 10.0002575, 10.001536 
2.8537738e+3, 2.2485322e+2, -919025.4, -862594.2, 294574.47, 0.2979758, -0.018669399, -594887.1, 141562.08, 0.0, 9.999418, 10.000017 
2.853447e+3, 2.3484746e+2, -551911.0, -628769.25, 314173.28, 0.22327481, -0.055134464, -273825.28, 364684.9, 0.0, 10.001217, 10.000086 
2.853119e+3, 2.4484311e+2, -406134.75, -634020.1, 217961.94, 0.18544899, 0.11680743, -274129.6, 266428.44, 0.0, 10.002107, 9.998949 
2.8527915e+3, 2.548396e+2, -294521.66, -501595.94, 72272.71, 0.1865635, 0.3940374, -271792.1, 170804.53, 0.0, 10.002081, 9.999191 
2.8524622e+3, 2.6483336e+2, -458662.88, -737667.3, -33824.223, 0.118201315, 0.48097628, -454620.84, -109960.21, 0.0, 10.001175, 9.99734 
2.8521314e+3, 2.7482465e+2, -583629.0, -739583.94, -30567.197, -0.04208929, 0.39778864, -577851.8, -331101.84, 0.0, 9.999608, 9.997414 
2.8518015e+3, 2.8481632e+2, -454972.13, -541792.5, -26909.012, -0.026820736, 0.32536256, -447308.44, -298476.88, 0.0, 9.999412, 9.998207 
2.851473e+3, 2.9480782e+2, -155916.66, -333499.3, -57946.57, 0.16037382, 0.17198493, -138681.08, -87771.33, 0.0, 10.000743, 9.99832 
2.8511423e+3, 3.0480087e+2, 27663.4, -196480.77, -73071.16, 0.1509929, 0.19326533, 49380.5, 49380.5, 0.0, 10.001354, 9.998291 
2.8508115e+3, 3.1479552e+2, 102177.03, -103442.32, -120101.88, 0.16805916, 0.31263843, 157463.19, 157463.19, 0.0, 10.001375, 9.99859 
2.8504825e+3, 3.2478982e+2, -427655.38, -328506.34, 95855.18, 0.13220164, 0.43999588, -270164.94, -270164.94, 0.0, 9.997547, 9.998882 
2.8667188e+3, 1.3523526e+2, -987529.7, -1260715.3, 167160.19, 0.43589786, 0.2859583, -908251.9, 706466.44, 0.0000059629547, 10.004556, 10.000859 
2.8663903e+3, 1.4522606e+2, -1119290.0, -1527467.3, 11752.212, 0.20115875, -0.088394836, -1118951.9, 397844.8, 0.0000015122073, 10.004093, 9.998602 
2.866063e+3, 1.5522374e+2, -1494190.8, -1638264.8, 63186.508, 0.17834227, 0.30875313, -1470405.8, -51573.87, 0.0000000966577, 10.000797, 9.998737 
2.8657353e+3, 1.6521868e+2, -1319544.6, -1406101.9, -23368.938, 0.19640656, 0.42074975, -1313638.4, 7246.1626, 0.00000000026919006, 10.000901, 9.9996195 
2.8654057e+3, 1.7521085e+2, -762096.25, -1085781.5, 11476.075, 0.17411779, 0.1860173, -761689.9, 461265.75, 0.0, 10.004066, 9.999612 
2.8650773e+3, 1.852038e+2, -723707.4, -1088201.3, 151213.05, 0.13154605, 0.099553026, -669143.56, 455877.88, 0.0, 10.00397, 9.998961 
2.8647506e+3, 1.951973e+2, -1079440.3, -1204321.8, 234170.75, 0.12242899, 0.07147027, -899528.4, 127556.53, 0.0, 10.000855, 9.9989805 
2.8644228e+3, 2.0519246e+2, -901868.3, -700849.8, 117746.734, 0.12920672, 0.079382665, -646548.2, 282580.03, 0.0, 9.99982, 10.002269 
2.8640944e+3, 2.1518901e+2, -735602.56, -557479.4, 10696.601, 0.14378038, 0.012564188, -556839.4, 274314.13, 0.0, 10.000241, 10.002372 
2.8637674e+3, 2.2518386e+2, -711236.4, -717170.06, 119603.7, 0.16766398, -0.103320174, -594562.75, 138637.23, 0.0, 10.000677, 10.000395 
2.8634426e+3, 2.3517662e+2, -534180.7, -583794.9, 129431.12, 0.1981196, -0.3628409, -427200.8, 208070.66, 0.0, 10.001239, 10.000362 
2.863116e+3, 2.4517275e+2, -619934.25, -943138.06, 77478.83, 0.20051388, -0.07531006, -602320.8, -65001.598, 0.0, 10.001578, 9.997061 
2.862788e+3, 2.5517195e+2, -531342.8, -858073.5, 83397.07, 0.18532936, 0.6462305, -511287.0, -71941.27, 0.0, 10.001528, 9.997004 
2.8624585e+3, 2.651656e+2, -356473.3, -604786.94, 20842.713, 0.14615136, 0.80764407, -354735.97, -13321.459, 0.0, 10.001559, 9.998045 
2.862127e+3, 2.7515364e+2, -253547.63, -501479.34, 41094.88, 0.06340769, 0.31425467, -246913.63, -3386.1792, 0.0, 10.001564, 9.9980955 
2.8617972e+3, 2.8514475e+2, -262369.1, -424481.5, 103670.26, 0.06549352, 0.157464, -211828.84, -66217.41, 0.0, 10.00067, 9.998396 
2.8614682e+3, 2.9513857e+2, -375175.97, -432470.25, 100782.664, 0.15279727, 0.22048417, -299048.1, -251377.48, 0.0, 9.999231, 9.998368 
2.8611383e+3, 3.0513272e+2, -340342.7, -433442.34, 76631.984, 0.21163261, 0.38871664, -297230.13, -297230.13, 0.0, 9.999118, 9.997729 
2.86081e+3, 3.151275e+2, -175156.22, -305994.22, 39451.113, 0.4422582, 0.58062047, -164181.27, -164181.27, 0.0, 9.999789, 9.997961 
2.860471e+3, 3.251156e+2, -243556.31, 163098.45, -80339.25, -0.24499865, -0.041211493, 178395.0, 178395.0, 0.0, 9.997095, 10.002484 
2.8767213e+3, 1.3556543e+2, -1177110.9, -1510086.0, 227919.92, 0.74803054, 0.46975145, -1061347.5, 550140.2, 0.0000021473002, 10.0039, 9.999474 
2.8763872e+3, 1.4555484e+2, -1171336.8, -1489163.1, -87250.19, 0.02230178, 0.0067171548, -1148960.1, 364622.2, 0.00000043033984, 10.003442, 9.999184 
2.8760582e+3, 1.5555152e+2, -1469708.0, -1566877.0, -16830.621, 0.15656026, 0.26024094, -1466875.4, -51249.086, 0.000000019645139, 10.000688, 9.999288 
2.8757316e+3, 1.6554706e+2, -1250276.0, -1290010.5, 113249.64, 0.26053905, 0.36753693, -1155164.1, 162506.9, 0.0, 10.000994, 10.000378 
2.8754053e+3, 1.7554146e+2, -706595.9, -974721.0, 147240.25, 0.23009422, 0.29830718, -641529.2, 578189.56, 0.0, 10.004053, 10.000386 
2.8750765e+3, 1.8553585e+2, -564861.0, -773196.56, 41841.39, 0.17902243, 0.20385522, -556771.8, 564993.56, 0.0, 10.003985, 10.001137 
2.8747463e+3, 1.9553001e+2, -934614.3, -920350.6, 148989.36, 0.13881816, 0.046222307, -778322.5, 245491.1, 0.0, 10.000887, 10.000931 
2.874417e+3, 2.0552447e+2, -1107363.0, -1143604.6, 164367.84, 0.091927916, 0.050541133, -960120.1, -34251.44, 0.0, 9.999889, 9.9991865 
2.874088e+3, 2.155191e+2, -894791.56, -975119.5, 51694.51, 0.014433752, 0.12180936, -869492.06, -41563.188, 0.0, 10.000589, 9.999339 
2.8737617e+3, 2.2551458e+2, -602486.5, -619115.25, 126522.35, 0.010301958, 0.19287331, -484005.63, 245970.28, 0.0, 10.001194, 10.000828 
2.8734374e+3, 2.3551038e+2, -442344.97, -500030.88, 126246.25, 0.052137896, 0.20844516, -341688.75, 290327.47, 0.0, 10.001661, 10.000746 
2.8731105e+3, 2.4550514e+2, -457443.44, -685256.3, 69238.195, -0.002369554, 0.25667214, -438050.97, 96020.34, 0.0, 10.001867, 9.998723 
2.8727812e+3, 2.5549918e+2, -368871.22, -603281.1, 112263.75, -0.14182241, 0.32416496, -323779.66, 112358.26, 0.0, 10.0018215, 9.998643 
2.8724527e+3, 2.6549235e+2, -172082.69, -372784.9, 109691.14, -0.076415, 0.28960484, -123764.73, 214441.1, 0.0, 10.002176, 9.99935 
2.8721252e+3, 2.754843e+2, 36659.66, -222765.88, 129638.49, 0.13440835, 0.08556166, 90335.94, 330615.34, 0.0, 10.002929, 9.999357 
2.8717944e+3, 2.8547832e+2, -54416.414, -208531.11, 94297.98, 0.19127753, 0.109591804, -9695.508, 132639.72, 0.0, 10.001591, 9.999443 
2.8714612e+3, 2.9547396e+2, -368326.28, -327477.6, 119583.41, 0.11230953, 0.2766185, -226586.86, -182208.94, 0.0, 9.998822, 9.999294 
2.8711295e+3, 3.0546755e+2, -470588.66, -527254.9, 252182.86, 0.05431457, 0.36771816, -245152.25, -245152.25, 0.0, 9.998331, 9.997465 
2.8708017e+3, 3.1545994e+2, -185644.11, -339867.88, 192998.97, 0.2130039, 0.3733972, -54922.3, -54922.3, 0.0, 9.999807, 9.997726 
2.8704643e+3, 3.254488e+2, -250958.11, 62518.94, -196554.84, -0.06009888, -0.11001226, 157178.06, 157178.06, 0.0, 9.997455, 10.001602 
2.886718e+3, 1.3589399e+2, -1424113.6, -1471364.8, 175644.02, 0.66051257, 0.5016004, -1270513.4, 337760.8, 0.0000003382392, 10.001523, 10.000872 
2.886384e+3, 1.4588544e+2, -1528558.0, -1617349.6, -57072.785, 0.040628783, 0.16371508, -1500646.9, 9703.164, 0.000000039050374, 10.000798, 9.999565 
2.886054e+3, 1.5588173e+2, -1327695.8, -1468541.8, -7881.1973, 0.12503375, 0.3477274, -1327256.1, 85138.88, 0.0000000006124831, 10.001535, 9.999556 
2.8857276e+3, 1.658772e+2, -1173396.4, -1158622.9, 192439.14, 0.26139805, 0.39501092, -973428.75, 341007.94, 0.0, 10.001147, 10.001188 
2.8854027e+3, 1.758719e+2, -1282479.4, -1179909.8, 230973.67, 0.30878544, 0.26845193, -994595.8, 221882.14, 0.0, 9.999812, 10.00101 
2.8850737e+3, 1.8586671e+2, -1109261.4, -1026399.1, 3871.2373, 0.23464437, 0.19115034, -1026218.7, 92301.93, 0.0, 10.000262, 10.00117 
2.8847423e+3, 1.9586137e+2, -806515.94, -863352.8, -48871.83, 0.13091646, 0.054550264, -778400.7, 242165.33, 0.0, 10.001814, 10.000876 
2.884412e+3, 2.0585597e+2, -876568.0, -1095298.8, 62863.03, 0.04959361, 0.089249484, -859788.44, 62832.49, 0.0, 10.001779, 9.998601 
2.8840834e+3, 2.1585025e+2, -923708.1, -1080742.6, 163010.64, -0.023698881, 0.18546127, -821290.5, 3396.1135, 0.0, 10.000831, 9.99849 
2.883757e+3, 2.2584598e+2, -743238.9, -710854.06, 294203.13, -0.03172675, 0.35063046, -432398.06, 294336.03, 0.0, 10.000383, 10.000571 
2.8834328e+3, 2.3584275e+2, -706146.94, -667435.8, 226340.28, 0.01294632, 0.49100244, -459625.0, 169142.77, 0.0, 10.0000725, 10.000357 
2.883106e+3, 2.4583676e+2, -613909.94, -603529.6, 132703.69, -0.054135848, 0.4204074, -475914.66, 54912.7, 0.0, 10.000159, 10.000081 
2.8827763e+3, 2.5582838e+2, -516950.63, -535577.6, 155501.14, -0.22283714, 0.10170692, -370484.34, 62425.86, 0.0, 10.000263, 9.999834 
2.8824487e+3, 2.6582196e+2, -380458.63, -371970.63, 138026.77, -0.13486739, 0.007043298, -238122.63, 96847.99, 0.0, 10.000364, 10.000208 
2.8821227e+3, 2.7581668e+2, -304093.72, -308103.78, 118356.38, 0.18774658, -0.017822722, -187725.38, 49291.87, 0.0, 10.000295, 10.000027 
2.881791e+3, 2.8581262e+2, -99618.12, -162255.6, -32285.58, 0.25270876, 0.13277455, -85956.61, 53099.004, 0.0, 10.001039, 10.000004 
2.8814554e+3, 2.958092e+2, 67585.08, -78857.875, -34976.504, 0.095333494, 0.3230362, 75510.01, 116600.555, 0.0, 10.001694, 9.999606 
2.8811228e+3, 3.0580238e+2, -92850.06, -317036.25, 177983.5, -0.043076567, 0.33864814, 5397.0166, 5397.0166, 0.0, 10.000841, 9.997699 
2.8807944e+3, 3.157931e+2, -291212.38, -402779.56, 189296.25, 0.030302802, 0.15692297, -149651.39, -149651.39, 0.0, 9.999172, 9.9976015 
2.8804594e+3, 3.2578486e+2, 2729.2314, 2816.2854, -249562.45, 0.16582099, 0.01328066, 252335.2, 252335.2, 0.0, 10.000085, 9.999878 
2.896712e+3, 1.3622221e+2, -1341380.9, -1152394.5, 67867.46, 0.40691507, 0.4644599, -1130547.9, 474516.63, 0.0000000028010363, 10.000846, 10.003404 
2.89638e+3, 1.4621702e+2, -1555776.6, -1610945.5, -25475.94, 0.11806753, 0.34550807, -1545812.1, -38704.555, 0.0, 10.00051, 9.999751 
2.8960493e+3, 1.562136e+2, -1332786.9, -1431988.6, 36782.914, 0.03357163, 0.54496187, -1320636.5, 88509.75, 0.0, 10.001303, 9.999926 
2.895723e+3, 1.662084e+2, -1106754.3, -1004902.56, 153876.08, 0.18488319, 0.4429957, -893744.25, 417444.7, 0.0, 10.00105, 10.0022955 
2.895398e+3, 1.762021e+2, -1204341.5, -1056243.4, 203466.86, 0.36461636, 0.120127626, -913769.9, 299464.56, 0.0, 9.999955, 10.00179 
2.8950694e+3, 1.8619648e+2, -1200110.8, -1288441.0, 74377.516, 0.2720139, 0.07147646, -1157774.0, -42486.313, 0.0, 10.00054, 9.9992485 
2.894738e+3, 1.9619116e+2, -858389.7, -1046510.2, 9026.183, 0.05391898, 0.14356895, -857957.56, 159388.63, 0.0, 10.00209, 9.9995 
2.8944087e+3, 2.0618682e+2, -624442.5, -659931.56, 31563.568, 0.024867062, 0.18770345, -605977.5, 313408.72, 0.0, 10.002101, 10.001463 
2.89408e+3, 2.1618272e+2, -699574.7, -694191.94, 168233.88, 0.075747095, 0.17672206, -528627.94, 292791.34, 0.0, 10.001106, 10.001036 
2.893754e+3, 2.2617748e+2, -819060.8, -894072.1, 314694.4, 0.116908655, 0.20363092, -539645.0, 183829.02, 0.0, 10.000465, 9.999282 
2.893429e+3, 2.361716e+2, -765155.7, -799354.9, 244078.7, 0.15383375, 0.220584, -537578.3, 87962.664, 0.0, 10.000064, 9.999465 
2.8931037e+3, 2.461671e+2, -558913.4, -465924.9, 176296.36, 0.23221081, 0.27939695, -330094.94, 197494.36, 0.0, 10.000023, 10.001099 
2.8927767e+3, 2.56163e+2, -440792.7, -377786.97, 191315.73, 0.29912397, 0.30057847, -215397.75, 214232.75, 0.0, 10.000225, 10.000938 
2.8924474e+3, 2.661581e+2, -396807.38, -353274.47, 161508.11, 0.27227658, 0.29907742, -212072.7, 119605.1, 0.0, 10.0001135, 10.000469 
2.8921172e+3, 2.761526e+2, -346797.06, -310036.1, 137108.11, 0.21056181, 0.24961703, -190081.92, 43648.15, 0.0, 9.999899, 10.000203 
2.8917867e+3, 2.8614712e+2, -127631.91, -289982.72, 56415.836, 0.24458751, 0.30612475, -109952.914, 25833.94, 0.0, 10.001309, 9.998999 
2.8914553e+3, 2.9614162e+2, 347492.5, -10264.886, 2447.8914, 0.3015397, 0.3918888, 347509.25, 385356.0, 0.0, 10.003884, 9.999019 
2.891123e+3, 3.061357e+2, 377463.94, 215914.06, 50941.05, 0.30767396, 0.37043518, 392185.5, 392185.5, 0.0, 10.002764, 10.000455 
2.8907925e+3, 3.161292e+2, -116059.24, -79178.516, 129537.7, 0.4562989, 0.23197334, 33224.777, 33224.777, 0.0, 9.999342, 9.999783 
2.8904578e+3, 3.2612512e+2, 453200.97, 14270.831, 49159.62, 0.30350474, 0.54455805, 458639.38, 458639.38, 0.0, 10.003999, 9.998152 
2.9067078e+3, 1.3655132e+2, -1751504.6, -1574021.5, 88131.54, 0.53092223, 0.48712876, -1537694.1, 64143.94, 0.00000000011876347, 9.999018, 10.001406 
2.9063752e+3, 1.4654611e+2, -1520626.4, -1462444.1, -82171.98, 0.14487316, 0.3798476, -1404365.8, 99521.07, 0.0, 10.000215, 10.000921 
2.906045e+3, 1.5654323e+2, -1498093.0, -1395767.6, 31976.77, 0.0992542, 0.51158524, -1386596.8, 19318.01, 0.0, 9.999713, 10.000932 
2.905718e+3, 1.6653802e+2, -1319456.6, -1134717.0, 105130.21, 0.18979253, 0.37248346, -1087142.0, 220814.17, 0.0, 9.999737, 10.002026 
2.905392e+3, 1.7653139e+2, -1262188.4, -1123130.6, 70984.91, 0.29262644, 0.02520358, -1093295.9, 116709.85, 0.0, 9.999748, 10.001432 
2.905064e+3, 1.865264e+2, -1223518.4, -1303237.9, 64003.758, 0.21273714, 0.051985864, -1187977.3, -75921.9, 0.0, 10.000447, 9.999169 
2.9047346e+3, 1.9652209e+2, -975049.06, -1113136.3, 127830.94, 0.06350605, 0.22582865, -898807.56, 115300.164, 0.0, 10.0013895, 9.9993515 
2.904406e+3, 2.0651752e+2, -559375.94, -578317.3, 36326.313, 0.039220806, 0.2344273, -531306.06, 384842.25, 0.0, 10.002384, 10.001853 
2.904077e+3, 2.1651278e+2, -403678.72, -522977.7, -18100.633, 0.09853811, 0.09450989, -400992.88, 417189.03, 0.0, 10.003069, 10.001244 
2.9037505e+3, 2.2650725e+2, -568097.8, -826137.5, 89267.69, 0.15193234, 0.09029449, -540226.5, 180012.4, 0.0, 10.002456, 9.998771 
2.903425e+3, 2.3650095e+2, -691011.0, -829725.5, 96993.16, 0.21050397, 0.097909994, -641128.56, -18816.078, 0.0, 10.000896, 9.998847 
2.9030997e+3, 2.4649733e+2, -489169.2, -416316.25, 38131.453, 0.3557396, 0.25343353, -400008.53, 124345.555, 0.0, 10.000483, 10.001188 
2.902774e+3, 2.5649524e+2, -434913.6, -373831.06, -28912.508, 0.54482126, 0.43603766, -362316.38, 64060.742, 0.0, 10.000316, 10.000907 
2.902444e+3, 2.664915e+2, -345276.03, -284212.66, -73084.19, 0.45069414, 0.5102706, -235539.03, 92875.555, 0.0, 10.000288, 10.000851 
2.9021117e+3, 2.764865e+2, -368014.94, -332516.66, -55663.727, 0.18128659, 0.4410644, -291840.78, -61376.082, 0.0, 9.999809, 10.0001 
2.9017818e+3, 2.8648028e+2, -266899.75, -411775.22, -14844.624, 0.1852692, 0.44854373, -265394.34, -132863.03, 0.0, 10.000628, 9.998474 
2.901454e+3, 2.9647344e+2, 34367.992, -213376.69, -11869.615, 0.35863373, 0.4517864, 34935.375, 69542.71, 0.0, 10.002016, 9.998501 
2.90112e+3, 3.0646887e+2, 317174.34, 393905.53, -221516.67, 0.30255964, 0.46367586, 580354.44, 580354.44, 0.0, 10.001526, 10.002216 
2.9007837e+3, 3.1646562e+2, -167411.83, -92253.77, -198694.5, 0.2149916, 0.46826226, 72384.13, 72384.13, 0.0, 9.999026, 9.999796 
2.900453e+3, 3.2645756e+2, -83129.96, -521843.38, 42271.18, -0.022062698, 0.51177806, -79094.16, -79094.16, 0.0, 10.001573, 9.995577 
2.9167038e+3, 1.3688025e+2, -1953659.0, -2072778.4, 181602.42, 0.71854883, 0.5227717, -1822098.9, -223488.42, 0.0000000000007792345, 9.999367, 9.997813 
2.91637e+3, 1.4687362e+2, -1429345.1, -1201237.6, -74368.52, 0.14152206, 0.31451893, -1179133.6, 321545.9, 0.0, 9.999895, 10.002875 
2.9160407e+3, 1.5687133e+2, -1402190.4, -1197248.0, 34470.707, 0.22757532, 0.327474, -1191605.5, 211089.84, 0.0, 9.99969, 10.0023155 
2.9157126e+3, 1.6686636e+2, -1392002.0, -1300584.8, 109791.69, 0.2094465, 0.22104858, -1227366.9, 77368.984, 0.0, 9.9997835, 10.000869 
2.9153845e+3, 1.7685992e+2, -1275478.8, -1201850.8, 84380.95, 0.05783847, 0.013528972, -1146602.8, 60187.242, 0.0, 9.999924, 10.000823 
2.9150575e+3, 1.8685642e+2, -1060872.9, -1006713.7, 106023.305, 0.055043217, 0.101088926, -924366.4, 184456.58, 0.0, 10.000591, 10.001144 
2.9147318e+3, 1.9685417e+2, -857773.3, -919408.9, 173530.6, 0.12983921, 0.3003914, -712345.25, 298503.22, 0.0, 10.00156, 10.000608 
2.9144034e+3, 2.068475e+2, -705110.9, -951034.7, 72115.086, 0.08879288, 0.20353542, -685523.8, 227389.1, 0.0, 10.002617, 9.9992075 
2.914074e+3, 2.1683882e+2, -458367.63, -765776.5, -12431.366, -0.022347802, -0.06464833, -457865.72, 357128.8, 0.0, 10.003565, 9.999356 
2.9137465e+3, 2.268342e+2, -439374.66, -652842.56, 4638.8604, 0.020478774, 0.042704545, -439273.9, 277769.44, 0.0, 10.0028305, 9.999801 
2.9134202e+3, 2.368312e+2, -577535.8, -696023.9, 39536.76, 0.12700677, 0.29410803, -565554.75, 53525.53, 0.0, 10.001272, 9.999607 
2.913093e+3, 2.4682628e+2, -565915.2, -651188.4, 11940.087, 0.13741268, 0.3840596, -564274.9, -43139.08, 0.0, 10.0007515, 9.999464 
2.912765e+3, 2.5682062e+2, -440528.25, -496713.97, -87814.266, 0.109418444, 0.38220224, -376422.66, 46775.27, 0.0, 10.000722, 9.9998865 
2.9124358e+3, 2.6681668e+2, -262991.25, -127878.984, -144353.86, 0.12373072, 0.40832707, -36055.484, 289182.0, 0.0, 10.000318, 10.001919 
2.9121053e+3, 2.768135e+2, -272362.25, -144355.63, -112034.27, 0.12175711, 0.4174178, -79331.414, 147935.86, 0.0, 9.999826, 10.001385 
2.9117754e+3, 2.868093e+2, -170460.23, -205356.88, 22875.832, 0.0261272, 0.48308203, -159137.95, -29825.727, 0.0, 10.000582, 9.999923 
2.9114458e+3, 2.9680455e+2, -1487.3494, -83289.83, 21298.133, -0.042303596, 0.554834, 3725.6372, 35090.566, 0.0, 10.001082, 9.999844 
2.9266956e+3, 1.3720919e+2, -1528941.6, -1745348.3, 93181.37, 0.30865464, 0.3355029, -1494348.8, 101034.13, 0.0, 10.001781, 9.998885 
2.9263663e+3, 1.4720446e+2, -1633023.4, -1350538.5, 103015.76, 0.35487786, 0.3075483, -1316962.0, 180472.77, 0.0, 9.998739, 10.002393 
2.9260358e+3, 1.572021e+2, -1368978.4, -1249893.4, 83775.836, 0.28055912, 0.36105487, -1206656.0, 192799.67, 0.0, 10.000222, 10.001693 
2.925708e+3, 1.6719683e+2, -1256053.4, -1311719.3, 123003.44, 0.20526756, 0.29431364, -1157773.3, 143728.86, 0.0, 10.001071, 10.000162 
2.92538e+3, 1.7719023e+2, -1117996.8, -1183665.9, 116551.695, 0.0489735, 0.13629526, -1029742.94, 173817.34, 0.0, 10.001298, 10.000277 
2.9250532e+3, 1.871864e+2, -1031503.3, -961734.3, 56349.324, 0.061721604, 0.19196898, -930345.4, 175250.58, 0.0, 10.000661, 10.001424 
2.9247278e+3, 1.9718377e+2, -1186484.8, -1075372.6, 24321.645, 0.22087786, 0.30779552, -1070282.0, -62660.074, 0.0, 9.999308, 10.000629 
2.9244003e+3, 2.0717713e+2, -1056108.0, -1169077.4, 67915.82, 0.13679521, 0.22616886, -1024257.6, -114570.51, 0.0, 10.000469, 9.998725 
2.924071e+3, 2.1716839e+2, -719989.3, -955248.94, 124561.05, -0.07365359, -0.0020229297, -666294.2, 145479.1, 0.0, 10.00208, 9.998769 
2.9237434e+3, 2.2716399e+2, -477715.8, -631064.2, 83110.31, -0.054953635, 0.13960141, -441313.66, 272506.22, 0.0, 10.002411, 10.000145 
2.923416e+3, 2.371617e+2, -510011.22, -649191.56, 70594.29, 0.07226522, 0.41937906, -480473.47, 135373.83, 0.0, 10.001727, 9.999693 
2.9230872e+3, 2.471559e+2, -553932.75, -694876.25, 132621.3, -0.0052018957, 0.45437977, -474222.38, 43687.64, 0.0, 10.00112, 9.9989605 
2.922758e+3, 2.571484e+2, -550306.94, -588804.06, 136813.22, -0.15422925, 0.31948623, -431394.88, -11404.911, 0.0, 10.000209, 9.99948 
2.922429e+3, 2.6714426e+2, -281348.8, -110505.87, 38574.754, -0.04900089, 0.3454897, -102199.87, 219832.58, 0.0, 10.000117, 10.002128 
2.9221e+3, 2.7714175e+2, -247516.8, -75829.91, -6138.917, 0.12902804, 0.39717004, -75610.68, 148445.34, 0.0, 9.99978, 10.001884 
2.9217693e+3, 2.8713912e+2, -152425.38, -75082.375, 86532.73, -0.11499596, 0.5356924, -18973.084, 107110.95, 0.0, 10.000249, 10.000948 
2.9214376e+3, 2.971359e+2, -96541.86, 37017.156, -46621.46, -0.42192957, 0.60236657, 51681.27, 79800.33, 0.0, 9.999739, 10.001328 
2.936686e+3, 1.375389e+2, -1486062.4, -1395833.9, -310727.0, -0.26241094, 0.06501694, -1126963.1, 465184.16, 0.0, 10.000609, 10.001868 
2.9363623e+3, 1.4753716e+2, -1763504.6, -1620312.1, 150364.42, 0.6301089, 0.33713126, -1525368.6, -31199.309, 0.0, 9.998706, 10.000569 
2.9360306e+3, 1.5753457e+2, -1456030.6, -1456433.5, 138854.52, 0.2093071, 0.55449545, -1317377.4, 78826.09, 0.0, 10.000296, 10.000252 
2.9357037e+3, 1.6752885e+2, -1270324.5, -1358809.4, 141751.03, 0.1905654, 0.51920813, -1166072.0, 132185.9, 0.0, 10.001094, 9.999853 
2.9353777e+3, 1.7752188e+2, -1123377.5, -1237372.0, 123153.1, 0.19133891, 0.36350402, -1044671.44, 155649.25, 0.0, 10.001425, 9.999868 
2.93505e+3, 1.87516e+2, -1103398.9, -1133364.8, 2612.471, 0.21019238, 0.303502, -1103172.8, -794.7669, 0.0, 10.00072, 10.000234 
2.9347226e+3, 1.9751064e+2, -1166761.6, -1095447.5, 4055.2332, 0.2708469, 0.26527095, -1095217.6, -90785.55, 0.0, 9.999527, 10.000397 
2.9343957e+3, 2.0750682e+2, -882146.0, -824978.9, 134437.23, 0.1687762, 0.33000106, -716120.1, 190348.0, 0.0, 10.000533, 10.0010605 
2.9340687e+3, 2.175031e+2, -563197.75, -691372.1, 182106.97, -0.031301893, 0.39073342, -434230.28, 374271.97, 0.0, 10.002281, 10.000503 
2.9337406e+3, 2.2749789e+2, -495428.94, -718110.1, 81605.14, -0.023427775, 0.42992705, -468725.6, 241830.67, 0.0, 10.002543, 9.999522 
2.9334125e+3, 2.3749235e+2, -422584.44, -582534.3, 55664.137, 0.052088924, 0.44477242, -405119.72, 207495.8, 0.0, 10.00213, 9.999991 
2.933084e+3, 2.4748722e+2, -376894.03, -378498.38, 119978.47, 0.078926735, 0.40689072, -257715.05, 256949.17, 0.0, 10.001293, 10.001073 
2.9327554e+3, 2.5748202e+2, -428092.06, -383887.06, 161212.17, 0.089409225, 0.3152856, -243269.3, 173442.44, 0.0, 10.000353, 10.000838 
2.9324266e+3, 2.6747736e+2, -432258.06, -431692.13, 87060.17, 0.24084286, 0.37116617, -344914.47, -26152.494, 0.0, 10.000078, 9.99997 
2.9320973e+3, 2.7747315e+2, -306885.75, -297337.6, 374.25665, 0.39466107, 0.4650221, -297322.94, -76512.84, 0.0, 10.000105, 10.000239 
2.931766e+3, 2.8746933e+2, -263449.06, -266067.7, 56848.387, 0.067364074, 0.61712027, -207894.9, -85043.68, 0.0, 9.999966, 9.999833 
2.9314324e+3, 2.9746297e+2, 65136.145, 185648.56, -149847.14, -0.37817705, 0.4719418, 286900.78, 311815.22, 0.0, 10.000369, 10.002117 
2.946681e+3, 1.3787244e+2, -1843868.3, -1400918.3, -406944.1, -0.05283667, 0.3263868, -1159084.9, 429807.1, 0.0, 9.997466, 10.003345 
2.9463565e+3, 1.478687e+2, -1614461.5, -1592642.3, 164507.23, 0.6411208, 0.36069635, -1438683.3, 52241.71, 0.0, 9.999945, 10.0001545 
2.9460263e+3, 1.5786587e+2, -1384284.1, -1461310.3, 197091.5, 0.26587766, 0.589817, -1221978.1, 170981.36, 0.0, 10.000981, 9.999892 
2.9457003e+3, 1.6785999e+2, -1283361.3, -1334173.3, 208868.56, 0.25180456, 0.5384667, -1098359.1, 196656.16, 0.0, 10.000895, 10.0001135 
2.945374e+3, 1.7785302e+2, -1300014.6, -1334098.4, 230617.89, 0.2694934, 0.3651205, -1085809.9, 111269.14, 0.0, 10.000294, 9.999734 
2.9450458e+3, 1.8784712e+2, -1110086.5, -1206714.5, 167588.11, 0.21623023, 0.35841128, -983987.2, 115150.71, 0.0, 10.001032, 9.99955 
2.9447174e+3, 1.978414e+2, -879437.1, -1004406.56, 197187.94, 0.20274258, 0.35633212, -735070.6, 266126.3, 0.0, 10.00174, 9.999949 
2.9443908e+3, 2.0783801e+2, -775389.3, -692385.5, 250758.77, 0.11514479, 0.44226024, -479717.47, 423510.84, 0.0, 10.00093, 10.001772 
2.9440647e+3, 2.178355e+2, -984774.44, -870909.44, 174564.84, -0.000838199, 0.5594517, -744227.7, 61022.094, 0.0, 9.999332, 10.000681 
2.9437375e+3, 2.278298e+2, -905266.06, -943660.06, 70703.82, 0.036321156, 0.5548856, -851199.44, -143890.17, 0.0, 9.999929, 9.999186 
2.9434094e+3, 2.3782285e+2, -667018.1, -708624.3, 53870.04, 0.116310686, 0.4473122, -630073.94, -20690.988, 0.0, 10.000553, 9.999864 
2.9430807e+3, 2.4781843e+2, -377345.63, -249547.25, 38370.453, 0.15334147, 0.40786523, -238911.89, 272508.94, 0.0, 10.000775, 10.002196 
2.9427516e+3, 2.578149e+2, -394289.03, -322852.84, 2012.1937, 0.20976658, 0.362558, -322796.22, 90650.305, 0.0, 10.00044, 10.001219 
2.9424226e+3, 2.678097e+2, -463201.34, -582565.44, 7740.812, 0.34633708, 0.41504887, -462701.44, -147199.1, 0.0, 10.000502, 9.998704 
2.942093e+3, 2.77804e+2, -395991.0, -501624.34, 38497.93, 0.4616584, 0.4773324, -383449.5, -165881.16, 0.0, 10.000245, 9.998748 
2.941762e+3, 2.8779918e+2, -286231.22, -386287.56, 127697.734, 0.1982164, 0.66109383, -199111.55, -79490.96, 0.0, 10.000323, 9.998821 
2.941428e+3, 2.9778945e+2, 49212.695, 222322.28, 37407.027, -0.33649158, 0.28199592, 230059.67, 251776.55, 0.0, 10.000186, 10.00242 
2.9566774e+3, 1.3820697e+2, -1680509.6, -1227192.6, -249513.7, 0.3327748, 0.7622358, -1116758.9, 468876.63, 0.0, 9.998135, 10.00423 
2.9563498e+3, 1.4819965e+2, -1537470.1, -1519910.1, 194550.42, 0.4928654, 0.38782892, -1333941.6, 153749.47, 0.0, 10.000272, 10.000523 
2.9560232e+3, 1.5819617e+2, -1346320.3, -1386983.9, 195916.19, 0.3586402, 0.5212219, -1169683.8, 220038.2, 0.0, 10.000957, 10.000434 
2.955697e+3, 1.6819023e+2, -1227601.6, -1215504.9, 163600.98, 0.34272066, 0.39137304, -1057840.5, 233935.22, 0.0, 10.000855, 10.000956 
2.9553688e+3, 1.7818388e+2, -1223684.1, -1221247.8, 212770.77, 0.2210926, 0.20221366, -1009691.7, 184141.94, 0.0, 10.000443, 10.000447 
2.9550403e+3, 1.8817987e+2, -1096207.5, -1217694.8, 195425.92, 0.0645155, 0.36497897, -952302.5, 143572.16, 0.0, 10.001162, 9.999424 
2.954712e+3, 1.9817623e+2, -845000.8, -1029506.6, 206770.36, -0.051130597, 0.5986812, -710836.9, 287076.75, 0.0, 10.002094, 9.999623 
2.9543853e+3, 2.0817055e+2, -820497.2, -854157.25, 178363.08, -0.037499014, 0.54240644, -658171.9, 241796.47, 0.0, 10.00112, 10.000613 
2.954059e+3, 2.181644e+2, -1004249.56, -949393.56, 119081.47, -0.017860359, 0.40925023, -854622.1, -52595.645, 0.0, 9.999424, 10.00012 
2.953733e+3, 2.2815874e+2, -926567.1, -940687.6, 93605.96, 0.14576708, 0.42287663, -839755.56, -135668.61, 0.0, 9.999727, 9.999302 
2.953407e+3, 2.3815309e+2, -628864.94, -684971.94, 58984.91, 0.32827652, 0.44064978, -591602.1, 14546.77, 0.0, 10.000724, 9.999953 
2.9530767e+3, 2.4814908e+2, -412482.7, -374487.06, 4797.1187, 0.2092964, 0.49356857, -373890.78, 134296.16, 0.0, 10.000922, 10.001308 
2.9527453e+3, 2.5814554e+2, -315940.13, -303479.16, -55716.707, 0.030523457, 0.53182256, -253645.66, 156571.84, 0.0, 10.000974, 10.001131 
2.9524148e+3, 2.6813993e+2, -280122.8, -334746.13, -42107.234, 0.01182471, 0.44856715, -257245.36, 55026.32, 0.0, 10.001017, 10.000186 
2.9520842e+3, 2.781338e+2, -189549.27, -292877.66, 27342.428, 0.035522457, 0.34695473, -182760.08, 31572.629, 0.0, 10.001111, 9.999795 
2.951758e+3, 2.8812972e+2, -189366.9, -370255.88, 127844.555, 0.25307214, 0.57624334, -123208.59, -6827.2207, 0.0, 10.001025, 9.998635 
2.9514244e+3, 2.9812407e+2, 126723.75, 153401.14, 89484.8, -0.22346205, 0.65281826, 230535.92, 248981.0, 0.0, 10.001031, 10.001574 
2.9666746e+3, 1.3853858e+2, -1283740.3, -1148049.5, -10412.421, 0.60079974, 0.8395322, -1147255.1, 435134.3, 0.0, 10.001413, 10.003158 
2.9663435e+3, 1.4853019e+2, -1269643.3, -1485543.9, 144263.95, 0.23669533, 0.4533869, -1197412.1, 287045.28, 0.0, 10.002575, 9.999618 
2.9660186e+3, 1.5852505e+2, -1380750.3, -1490610.5, 77994.33, 0.30816877, 0.4987246, -1340284.3, 46219.016, 0.0, 10.001125, 9.999628 
2.9656923e+3, 1.6851984e+2, -1289759.9, -1302602.1, -29550.26, 0.3300346, 0.48865092, -1265941.1, 22612.164, 0.0, 10.000706, 10.000416 
2.9653642e+3, 1.7851463e+2, -1237532.0, -1241192.6, -52089.12, 0.21930668, 0.42758566, -1187241.0, 3362.675, 0.0, 10.000436, 10.000316 
2.9650357e+3, 1.8851018e+2, -1130980.3, -1137795.1, -28642.744, 0.0605469, 0.46917048, -1105543.0, -12898.334, 0.0, 10.00055, 10.000261 
2.9647082e+3, 1.985058e+2, -1087887.4, -1105806.3, 51926.08, -0.0037541252, 0.5352566, -1044153.44, -49468.445, 0.0, 10.000298, 9.999961 
2.9643813e+3, 2.0850025e+2, -942409.94, -905918.25, 76343.62, 0.02369178, 0.4674415, -845670.44, 51066.004, 0.0, 10.000336, 10.000606 
2.964054e+3, 2.1849397e+2, -958423.9, -941953.25, 112680.15, 0.05700161, 0.31853536, -837207.8, -38412.574, 0.0, 9.999852, 9.999962 
2.9637283e+3, 2.2848864e+2, -802097.75, -835460.1, 187771.38, 0.18833783, 0.34613493, -630268.06, 70584.83, 0.0, 10.000391, 9.999713 
2.9634032e+3, 2.3848386e+2, -628947.75, -693564.06, 162598.56, 0.3717695, 0.4167469, -495478.6, 107428.07, 0.0, 10.000803, 9.99986 
2.9630724e+3, 2.4847992e+2, -505741.53, -512134.16, 86671.9, 0.2044244, 0.53611106, -422207.03, 82741.16, 0.0, 10.00072, 10.000438 
2.9627398e+3, 2.5847602e+2, -485538.97, -448488.7, 39592.8, -0.060803883, 0.6244575, -423301.47, -16314.306, 0.0, 10.000131, 10.000522 
2.962408e+3, 2.684703e+2, -221411.23, -198372.66, 15206.634, -0.2150522, 0.48897105, -190814.84, 118224.21, 0.0, 10.000987, 10.001119 
2.962077e+3, 2.78464e+2, -113227.49, -217763.67, 19672.32, -0.30378303, 0.27886388, -109647.99, 101447.95, 0.0, 10.001541, 10.000084 
2.9617542e+3, 2.884599e+2, -235446.17, -401372.2, 88817.62, 0.2852844, 0.50022465, -196871.4, -83725.65, 0.0, 10.000808, 9.998489 
2.961419e+3, 2.984583e+2, -215035.7, -129724.31, 115888.984, -0.34943452, 0.9893848, -48890.074, -33715.234, 0.0, 9.999289, 10.000432 
2.9766718e+3, 1.3886966e+2, -1488856.6, -1503384.6, 133120.83, 0.6524111, 0.8395157, -1362801.8, 216338.19, 0.0, 10.001092, 10.000877 
2.9763377e+3, 1.488601e+2, -1424780.3, -1731599.0, 77477.53, -0.09489391, 0.5282884, -1406325.8, 74902.1, 0.0, 10.00223, 9.998104 
2.9760128e+3, 1.5885323e+2, -1447470.8, -1672548.8, 27420.254, 0.10650229, 0.5497456, -1444178.4, -60883.3, 0.0, 10.001286, 9.998309 
2.9756865e+3, 1.6884932e+2, -1384103.4, -1528348.5, -30923.7, 0.22320919, 0.8147182, -1377753.4, -92412.56, 0.0, 10.000796, 9.998845 
2.9753593e+3, 1.7884529e+2, -1209184.5, -1261459.0, -65222.305, 0.19840243, 1.0219278, -1165057.3, 22329.92, 0.0, 10.000725, 10.000056 
2.975033e+3, 1.8883766e+2, -957778.44, -848720.1, -50041.844, 0.24192871, 0.6278195, -829238.4, 260212.47, 0.0, 10.00078, 10.002172 
2.974707e+3, 1.9882977e+2, -889192.9, -795268.1, 18184.5, 0.3310366, 0.14888538, -791870.44, 199643.61, 0.0, 10.000656, 10.001951 
2.9743794e+3, 2.0882668e+2, -841422.6, -724898.2, 43373.773, 0.30786306, 0.188506, -710525.94, 183010.7, 0.0, 10.000421, 10.001838 
2.9740506e+3, 2.1882454e+2, -795825.8, -707912.8, 96081.016, 0.22742088, 0.32861635, -646210.75, 149341.83, 0.0, 10.000208, 10.001431 
2.9737234e+3, 2.2882047e+2, -661005.4, -651188.56, 210560.06, 0.15420718, 0.36215112, -445479.72, 252116.16, 0.0, 10.000735, 10.000872 
2.9733962e+3, 2.3881596e+2, -500306.56, -572712.3, 171201.1, 0.10829365, 0.36366707, -361522.38, 238123.53, 0.0, 10.001351, 10.000457 
2.973067e+3, 2.4881147e+2, -514861.75, -606966.1, 72406.28, 0.13917929, 0.46430758, -475103.25, 26592.55, 0.0, 10.00097, 9.999694 
2.972737e+3, 2.588068e+2, -455637.28, -504201.28, 46074.63, 0.16000235, 0.55639976, -427837.72, -24091.262, 0.0, 10.000522, 9.999982 
2.972406e+3, 2.688015e+2, -197522.52, -254998.45, 51363.156, -0.01938197, 0.5342016, -167404.36, 138392.39, 0.0, 10.001374, 10.000595 
2.9720744e+3, 2.7879596e+2, 8362.293, -171415.36, 1994.0383, -0.21838176, 0.46087924, 8384.407, 216233.27, 0.0, 10.002334, 10.000066 
2.9717493e+3, 2.8878978e+2, -166365.4, -307600.66, 9137.835, 0.26586124, 0.43322885, -165776.66, -55863.184, 0.0, 10.000972, 9.999095 
2.9714116e+3, 2.9878688e+2, -232958.36, -70511.09, -7814.51, -0.44188008, 0.7545812, -70136.05, -58189.785, 0.0, 9.998872, 10.001058 
2.986666e+3, 1.3919479e+2, -1875726.1, -1735288.9, 88269.01, 0.62042534, 0.63721305, -1692715.3, -116763.21, 0.0, 9.9986105, 10.000507 
2.9863346e+3, 1.4918832e+2, -1475566.3, -1646260.3, 45379.996, -0.05263968, 0.56212646, -1464251.6, 13759.888, 0.0, 10.001394, 9.999112 
2.986009e+3, 1.5918195e+2, -1136088.9, -1483042.3, 100120.76, 0.034512106, 0.53853184, -1109270.0, 270803.63, 0.0, 10.003264, 9.998671 
2.985682e+3, 1.6917744e+2, -1172914.9, -1442630.8, 99649.5, 0.1366439, 0.7543615, -1140092.5, 142033.69, 0.0, 10.002357, 9.998667 
2.9853547e+3, 1.7917272e+2, -1232226.8, -1314704.6, 179876.36, 0.1936494, 0.9379456, -1088922.5, 95258.83, 0.0, 10.000772, 9.999672 
2.9850292e+3, 1.891664e+2, -961551.0, -834007.2, 127799.484, 0.33420253, 0.6919546, -754952.06, 331283.25, 0.0, 10.000681, 10.002324 
2.9847038e+3, 1.991599e+2, -901681.8, -781403.4, 71037.1, 0.47860152, 0.32478696, -748467.4, 239819.05, 0.0, 10.000523, 10.002099 
2.9843754e+3, 2.091556e+2, -699257.0, -698498.94, -6228.13, 0.318447, 0.2538928, -692638.3, 197683.34, 0.0, 10.00157, 10.001465 
2.9840457e+3, 2.1915308e+2, -544219.0, -554217.44, -60716.676, 0.15743203, 0.3489274, -488296.06, 304045.44, 0.0, 10.001851, 10.001681 
2.9837176e+3, 2.2915104e+2, -724242.75, -547040.1, -5626.951, 0.06373569, 0.47278407, -546861.6, 147500.95, 0.0, 9.99981, 10.001998 
2.9833895e+3, 2.391478e+2, -1035844.56, -790239.8, -19143.215, -0.026929084, 0.49868062, -788756.7, -192359.42, 0.0, 9.997557, 10.00078 
2.9830614e+3, 2.4914238e+2, -658501.5, -652050.56, -7337.344, 0.030610183, 0.46672446, -647261.06, -148805.83, 0.0, 9.999952, 9.99985 
2.9827332e+3, 2.5913686e+2, -235879.5, -456299.0, 37744.56, 0.17703174, 0.47622725, -229595.3, 170919.05, 0.0, 10.002366, 9.999406 
2.982403e+3, 2.691327e+2, -125081.99, -251771.94, 73404.71, 0.06398483, 0.60056895, -91469.055, 211085.58, 0.0, 10.002047, 10.00027 
2.9820716e+3, 2.7912846e+2, -238966.4, -287953.72, 32219.406, -0.14049415, 0.67034024, -222987.48, -18392.523, 0.0, 10.000685, 10.000045 
2.9817447e+3, 2.891208e+2, -251300.22, -234783.97, 12603.208, 0.25330138, 0.42828414, -227974.34, -121305.2, 0.0, 9.99998, 10.000049 
2.9814062e+3, 2.99116e+2, -163630.28, 104463.76, 5161.685, -0.37914234, 0.46301842, 104563.1, 113275.32, 0.0, 9.998853, 10.002234 
2.9966593e+3, 1.3951592e+2, -1731430.6, -1535386.3, 235444.47, 0.536597, 0.24930485, -1378374.3, 194431.05, 0.0, 9.999037, 10.001688 
2.9963326e+3, 1.495149e+2, -1336247.5, -1285242.0, 82666.82, 0.14514925, 0.50539887, -1224233.5, 250576.06, 0.0, 10.001072, 10.001761 
2.9960066e+3, 1.5951027e+2, -1086604.3, -1262990.0, 84280.47, -0.03013518, 0.41744518, -1052808.8, 324041.3, 0.0, 10.002739, 10.000443 
2.9956788e+3, 1.6950302e+2, -1173919.6, -1354974.1, -8608.9375, 0.11022431, 0.25572103, -1173511.1, 105413.25, 0.0, 10.001952, 9.9994755 
2.9953504e+3, 1.7949668e+2, -1182009.3, -1238492.9, 124030.03, 0.1624817, 0.19317956, -1083046.3, 97945.695, 0.0, 10.000894, 10.00013 
2.995024e+3, 1.8949652e+2, -1001633.75, -993330.0, 135403.19, 0.21214859, 0.6461661, -862015.06, 220982.78, 0.0, 10.001024, 10.001061 
2.9946983e+3, 1.994961e+2, -992565.3, -1014516.44, 73114.61, 0.34221968, 1.0487111, -929607.06, 55397.848, 0.0, 10.000697, 10.000411 
2.9943693e+3, 2.0948784e+2, -793165.3, -922924.7, 29942.475, 0.09345473, 0.7560384, -786589.25, 100497.516, 0.0, 10.001694, 9.999862 
2.9940385e+3, 2.1947877e+2, -480825.6, -587075.2, -115881.24, -0.269556, 0.35200217, -406472.16, 382703.44, 0.0, 10.002516, 10.001137 
2.9937097e+3, 2.2947793e+2, -706491.75, -481472.03, -176020.27, -0.16004203, 0.5753334, -385076.16, 306107.13, 0.0, 9.999628, 10.00257 
2.9933822e+3, 2.3947848e+2, -959370.44, -591806.44, -61087.082, 0.06263554, 0.8977665, -581920.0, 11256.907, 0.0, 9.9973345, 10.002263 
2.9930547e+3, 2.4947214e+2, -442849.9, -348217.1, 96693.41, -0.09755309, 0.599661, -287883.8, 207353.03, 0.0, 10.000514, 10.001712 
2.9927266e+3, 2.5946498e+2, 53452.453, -146111.1, 69732.53, -0.2799275, 0.27564397, 75404.11, 472708.66, 0.0, 10.003542, 10.001022 
2.9923978e+3, 2.6946393e+2, -47532.906, -150410.5, 8302.864, -0.1455464, 0.62934655, -46867.12, 252443.58, 0.0, 10.002263, 10.000909 
2.9920682e+3, 2.7946302e+2, -187095.63, -138251.2, -3175.844, -0.0027126332, 0.97580516, -138045.58, 63270.098, 0.0, 10.000449, 10.00123 
2.9917407e+3, 2.8945455e+2, -163741.86, -16885.668, 18283.982, 0.45858032, 0.5087848, -14643.496, 88754.05, 0.0, 9.999768, 10.001738 
2.991405e+3, 2.9944736e+2, 51540.695, 451239.0, 36140.406, 0.19481355, 0.1614654, 454480.5, 459942.8, 0.0, 9.999111, 10.004654 
3.006651e+3, 1.398465e+2, -1624755.3, -1454425.4, 267422.7, 0.2190625, 0.83813363, -1258934.0, 310633.78, 0.0, 9.999643, 10.00191 
3.006331e+3, 1.4984404e+2, -1459614.5, -1473319.3, -40510.773, 0.4506666, 1.0023803, -1425380.6, 46213.465, 0.0, 10.000779, 10.000568 
3.006008e+3, 1.5983601e+2, -1532955.4, -1456713.5, -286554.97, 0.5465938, 0.63783586, -1205754.9, 167919.88, 0.0, 9.999521, 10.000661 
3.005673e+3, 1.6983408e+2, -1252840.8, -1180285.8, -361570.47, -0.010301179, 0.8101191, -853177.44, 422516.66, 0.0, 10.000398, 10.001427 
3.0053413e+3, 1.7983165e+2, -1037105.5, -1044981.4, -119987.5, -0.32783112, 0.90441185, -920991.4, 256726.56, 0.0, 10.001296, 10.001268 
3.0050153e+3, 1.8982732e+2, -1174092.3, -1056587.5, -86174.24, -0.1771471, 0.8388325, -1011043.0, 68718.56, 0.0, 9.999698, 10.00125 
3.0046898e+3, 1.998204e+2, -1235495.4, -1154951.0, 88705.18, 0.058699902, 0.5946761, -1097804.3, -115972.39, 0.0, 9.999101, 10.000214 
3.004366e+3, 2.0981991e+2, -700489.6, -696269.7, 331425.44, 0.106644526, 0.96460056, -366947.53, 516892.6, 0.0, 10.001566, 10.001434 
3.004039e+3, 2.1981783e+2, -345112.16, -607205.8, 236597.39, -0.011956364, 1.2067403, -205693.45, 580170.44, 0.0, 10.003834, 10.000334 
3.0037042e+3, 2.2981009e+2, -603184.2, -637522.8, -73642.02, -0.16374944, 0.92602247, -544736.5, 143204.02, 0.0, 10.001234, 10.000666 
3.0033728e+3, 2.398055e+2, -1111717.4, -710457.1, 10468.349, -0.09329228, 0.84866196, -710184.25, -120199.305, 0.0, 9.996522, 10.001798 
3.0030528e+3, 2.4980387e+2, -690230.9, -397447.53, 197292.72, 0.22478999, 0.9666436, -298166.78, 193828.53, 0.0, 9.998561, 10.002236 
3.0027294e+3, 2.598002e+2, -273682.47, -189392.73, -1501.9191, 0.28263706, 0.88120914, -189365.98, 204658.63, 0.0, 10.000829, 10.001995 
3.002394e+3, 2.6979315e+2, -125719.32, -12672.338, -75881.74, -0.16262548, 0.47328186, 25424.166, 321510.13, 0.0, 10.001024, 10.002393 
3.0020577e+3, 2.7978837e+2, -151736.7, -39792.098, -2939.662, -0.56900144, 0.29052618, -39714.953, 158411.8, 0.0, 10.00038, 10.001905 
3.0017287e+3, 2.8978762e+2, -473849.2, -139670.3, -76949.71, -0.10826842, 0.5561118, -122802.84, -22666.863, 0.0, 9.997622, 10.001852 
3.0013978e+3, 2.9978642e+2, -487989.75, 175648.7, -185588.52, 0.24160884, 0.74951774, 224022.98, 226167.23, 0.0, 9.995636, 10.004341 
