coord_x,coord_y,stress_xx,stress_yy,tau_xy,velocity_x,velocity_y,stress_1,eps,damage,lx,ly
5.0000405e+0, 1.2599872e+2, -1807123.0, -1721625.8, 35871.414, 0.044755276, -0.0017764752, -1708569.4, -3349.773, 0.0027102246, 9.999036, 10.000412 
4.9990946e+0, 1.3600193e+2, -1678844.4, -1420504.0, -17092.168, -0.01912153, 0.015544493, -1419378.1, 187804.81, 0.0016001622, 9.998493, 10.002058 
4.9990195e+0, 1.460018e+2, -1684091.9, -1562089.6, -14524.787, -0.033619177, -0.10551931, -1560384.3, -51199.94, 0.00071385584, 9.998624, 10.000335 
4.999454e+0, 1.5600444e+2, -1499322.1, -1433187.9, -50049.586, -0.0219372, 0.058384433, -1406268.4, 4893.988, 0.00020880907, 9.99927, 10.0002365 
4.9996924e+0, 1.6600539e+2, -1420594.4, -1462909.6, -12429.76, -0.016681664, 0.1898495, -1417213.4, -104056.875, 0.00003056022, 9.999652, 9.99918 
4.9997884e+0, 1.7600404e+2, -1295008.9, -1347566.3, 48363.543, -0.0158135, 0.08576048, -1266245.8, -51073.383, 0.0000010193884, 9.999824, 9.999215 
4.9998683e+0, 1.8600413e+2, -1090520.9, -1059258.5, 59729.13, -0.015468194, 0.10997919, -1013149.06, 104019.984, 0.0, 9.9999695, 10.000447 
4.9999166e+0, 1.960051e+2, -993957.56, -993903.3, 308.97296, -0.016418718, 0.11221965, -993620.25, 25533.264, 0.0, 10.000094, 10.000168 
5.0e+0, 2.0600474e+2, -1030966.6, -1153702.5, -9054.906, -0.0036578393, 0.15907562, -1030302.2, -109144.055, 0.0, 10.000005, 9.998435 
5.0000614e+0, 2.1600305e+2, -966274.94, -1068961.4, -10750.613, 0.014577315, 0.09071029, -965161.5, -141980.92, 0.0, 9.999762, 9.998463 
4.9999428e+0, 2.2600207e+2, -788836.2, -839800.0, 8983.021, -0.004292222, 0.10525312, -787299.1, -62109.125, 0.0, 9.9999075, 9.999293 
4.9997354e+0, 2.3600128e+2, -641915.3, -734168.2, -17589.309, -0.045546535, 0.04122779, -638675.44, -11482.166, 0.0, 10.000311, 9.999152 
5.0000113e+0, 2.460001e+2, -614956.06, -782054.25, -12343.245, -0.016926138, 0.065796725, -614049.25, -84843.49, 0.0, 10.000301, 9.998156 
5.0006163e+0, 2.5599822e+2, -562988.3, -711094.94, -759.2937, 0.05809001, 0.013484493, -562984.44, -131756.22, 0.000000000017365094, 10.000002, 9.998117 
5.000326e+0, 2.659975e+2, -438989.13, -517354.38, 25702.24, 0.038178146, 0.09490792, -431311.5, -98074.62, 0.000000288742, 9.999825, 9.998854 
4.9994254e+0, 2.7599746e+2, -359182.6, -434713.44, 18968.46, -0.0474473, 0.15057145, -354686.56, -119449.79, 0.0000032414011, 9.999724, 9.998796 
4.9998116e+0, 2.859962e+2, -230920.58, -384913.4, 48096.82, -0.03268985, 0.17557205, -217132.9, -79884.06, 0.00001724438, 10.000207, 9.998225 
5.0009954e+0, 2.9599288e+2, 12089.679, -199454.9, 41998.418, 0.03940315, -0.03647045, 20122.682, 59403.35, 0.00007523581, 10.001107, 9.998398 
5.000869e+0, 3.0599317e+2, 17446.646, -160862.44, 17436.69, 0.045167096, 0.13268581, 19135.764, 19135.764, 0.0002887192, 10.000758, 9.998495 
4.9997187e+0, 3.1599206e+2, -84678.11, -55371.12, 15515.479, -0.0026913346, 0.12939167, -48683.223, -48683.223, 0.00075781514, 9.999309, 9.999935 
1.5000096e+1, 1.2600167e+2, -1903362.3, -1840217.6, -18107.355, 0.13524832, 0.18504927, -1835393.6, -130202.86, 0.0026043395, 9.99874, 9.99976 
1.4997357e+1, 1.3600342e+2, -1753183.1, -1531758.9, -22282.729, -0.047193944, 0.18648084, -1529538.6, 77633.95, 0.0015429672, 9.99835, 10.001384 
1.4997047e+1, 1.460022e+2, -1747075.3, -1639760.6, -3296.7822, -0.100186594, 0.010224408, -1639659.5, -130473.79, 0.0006869522, 9.99842, 9.999913 
1.4998339e+1, 1.5600334e+2, -1541717.9, -1477220.5, -14408.154, -0.06606628, 0.10220211, -1474148.1, -62971.3, 0.0001968844, 9.999107, 10.000024 
1.4999107e+1, 1.660046e+2, -1304576.1, -1176890.8, -17082.703, -0.045784153, 0.16119868, -1174644.8, 138518.19, 0.000026649353, 9.999479, 10.001238 
1.499941e+1, 1.7600511e+2, -1191518.3, -1096156.3, 66487.88, -0.043144654, 0.06699937, -1062019.6, 153133.75, 0.00000066228677, 9.9996805, 10.001024 
1.4999571e+1, 1.8600449e+2, -1202917.9, -1237698.6, 53201.88, -0.04684424, -0.0032805493, -1164336.3, -47178.918, 0.0, 9.999764, 9.999328 
1.4999753e+1, 1.960031e+2, -1091637.9, -1149463.9, 16657.996, -0.04694211, -0.09663487, -1087182.5, -68012.14, 0.0, 9.999914, 9.999197 
1.4999978e+1, 2.0600261e+2, -1038020.2, -1115815.3, -27438.168, -0.0112859635, -0.037385765, -1029316.56, -108138.75, 0.0, 9.999806, 9.998798 
1.5000162e+1, 2.1600255e+2, -973453.0, -1033440.1, -3388.422, 0.042589705, 0.051216513, -973262.2, -150078.7, 0.0, 9.99957, 9.998807 
1.4999828e+1, 2.2600193e+2, -832957.06, -882793.94, 11783.63, -0.010183049, 0.096082605, -830311.4, -105120.81, 0.0, 9.999724, 9.999097 
1.4999183e+1, 2.360009e+2, -681030.25, -764905.4, 7813.2407, -0.13704607, 0.05962854, -680308.6, -53109.492, 0.0, 10.000121, 9.99904 
1.5000048e+1, 2.460007e+2, -593219.0, -697142.44, -35568.79, -0.048850317, 0.1518023, -582211.2, -53008.957, 0.0, 10.000151, 9.998821 
1.5001851e+1, 2.5600085e+2, -543337.1, -619185.2, -1179.8024, 0.17589289, 0.2582215, -543318.8, -112114.99, 0.0, 9.999804, 9.998854 
1.5000977e+1, 2.659991e+2, -449890.75, -498014.1, 11598.924, 0.11557176, 0.18940665, -447241.0, -114020.625, 0.00000013049092, 9.999671, 9.99907 
1.4998299e+1, 2.7599606e+2, -379259.66, -427438.13, 28312.545, -0.13944745, -0.04352075, -366175.1, -130927.64, 0.0000023602508, 9.999533, 9.998952 
1.4999391e+1, 2.8599545e+2, -232614.86, -347362.0, 72855.14, -0.100726366, 0.023215842, -197254.4, -60000.65, 0.000014211254, 10.000059, 9.998566 
1.5002976e+1, 2.9599574e+2, 3867.3613, -160732.55, 86275.65, 0.11625984, 0.16146024, 40801.504, 80054.96, 0.00006483318, 10.000882, 9.998786 
1.500266e+1, 3.0599475e+2, 19172.266, -96108.19, -43779.008, 0.14681414, 0.16554815, 33912.957, 33912.957, 0.00025577057, 10.000566, 9.99905 
1.4999123e+1, 3.159916e+2, -170363.75, -125654.49, 1393.9, -0.0058219186, -0.04499241, -125611.08, -125611.08, 0.0006795775, 9.998915, 9.99966 
2.4998412e+1, 1.2600097e+2, -2101899.0, -1962420.8, -18983.943, 0.16772096, 0.1285057, -1959883.0, -254689.06, 0.0024837567, 9.997527, 9.999477 
2.4997053e+1, 1.3600303e+2, -1596896.0, -1512418.0, -42715.883, 0.031760093, 0.19783382, -1494583.9, 112592.39, 0.0014731403, 9.999702, 10.000848 
2.4996848e+1, 1.4600183e+2, -1517300.9, -1533627.0, 16114.595, -0.032995682, 0.05152212, -1507399.8, 1789.5493, 0.00065158884, 10.000037, 9.999844 
2.4997576e+1, 1.5600185e+2, -1528335.0, -1478311.8, 19547.973, -0.051556278, 0.026232157, -1471579.0, -60389.465, 0.0001815959, 9.999239, 9.999942 
2.4998337e+1, 1.6600318e+2, -1366947.0, -1170353.8, 36.605736, -0.034410004, 0.08371939, -1170353.8, 142820.27, 0.000022322774, 9.998912, 10.001539 
2.4999157e+1, 1.7600477e+2, -1284677.0, -1105748.6, -61534.305, 0.009413987, 0.053986426, -1086629.6, 128524.7, 0.00000035252413, 9.998915, 10.001308 
2.4999644e+1, 1.8600443e+2, -1305677.9, -1294048.3, -42315.063, 0.02559915, 0.0034366038, -1257150.4, -139994.05, 0.0, 9.999076, 9.999267 
2.500001e+1, 1.9600286e+2, -1191258.0, -1198156.6, -7128.5205, 0.028493982, -0.11383576, -1186788.1, -167615.58, 0.0, 9.999235, 9.999174 
2.5000277e+1, 2.0600249e+2, -1028159.0, -1105840.8, 12731.746, 0.042622037, -0.047050584, -1026125.56, -104946.64, 0.0, 9.999847, 9.998842 
2.5000417e+1, 2.1600264e+2, -808750.2, -957882.2, 552.7462, 0.06053473, 0.051551223, -808748.1, 14433.164, 0.0, 10.000716, 9.998768 
2.5000063e+1, 2.2600183e+2, -725753.56, -880445.6, 15301.138, -0.0007227483, 0.1042175, -724254.6, 936.049, 0.0, 10.000674, 9.998638 
2.499941e+1, 2.3600025e+2, -730722.6, -838025.06, -16499.057, -0.11369458, 0.05008535, -728243.0, -101037.09, 0.0, 9.999981, 9.998596 
2.5000015e+1, 2.4599993e+2, -646051.75, -686792.1, -49414.668, -0.036312424, 0.13528162, -612973.3, -83763.81, 0.0, 9.999651, 9.999117 
2.500142e+1, 2.5600028e+2, -558093.3, -597061.2, -56701.953, 0.17053665, 0.22111134, -517621.13, -86413.8, 0.0, 9.999587, 9.999094 
2.5000894e+1, 2.659988e+2, -422403.13, -490213.8, -20878.26, 0.13568035, 0.17294312, -416490.44, -83269.08, 0.00000003137998, 9.999895, 9.999005 
2.4999087e+1, 2.7599612e+2, -248848.44, -368290.1, -35252.63, -0.053004786, -0.023581488, -239219.97, -3973.5557, 0.0000016165861, 10.000458, 9.998901 
2.500007e+1, 2.859958e+2, -211032.2, -330051.47, 22192.902, -0.037715074, 0.0719719, -207028.69, -69777.875, 0.000011342512, 10.000188, 9.998611 
2.5003028e+1, 2.959964e+2, -225635.0, -265339.3, 3169.2046, 0.12143497, 0.23007429, -225383.63, -186135.95, 0.000053962976, 9.999311, 9.998808 
2.5003004e+1, 3.0599478e+2, 10061.751, -64413.266, -90304.945, 0.14832278, 0.15542988, 70505.43, 70505.43, 0.00022089553, 10.000357, 9.999372 
2.500075e+1, 3.1599262e+2, 326203.84, 55248.637, -94413.625, 0.10150901, -0.011001757, 355856.84, 355856.84, 0.000598242, 10.002605, 9.999111 
3.4994686e+1, 1.2599657e+2, -2108993.3, -1941217.9, 28591.102, -0.019542348, -0.22772977, -1936479.4, -231249.69, 0.0023583595, 9.997383, 9.999693 
3.4997773e+1, 1.360008e+2, -1603480.4, -1507825.3, 35459.39, 0.10203199, 0.07443521, -1496114.3, 111079.16, 0.0013953737, 9.999644, 10.0009 
3.4998092e+1, 1.4600061e+2, -1494532.5, -1460481.4, -28541.584, 0.050674215, -0.0015370527, -1444273.0, 64922.93, 0.0006105934, 9.99993, 10.000397 
3.4996814e+1, 1.5599997e+2, -1509301.5, -1415865.8, 6006.136, -0.08457794, -0.14325488, -1415481.3, -4281.0596, 0.00016453842, 9.999157, 10.000403 
3.499718e+1, 1.6600114e+2, -1462096.5, -1350388.9, -14849.367, -0.07326128, -0.06139741, -1348448.6, -35258.617, 0.000017966355, 9.998824, 10.000356 
3.499873e+1, 1.760028e+2, -1359962.5, -1252804.6, -47844.875, 0.044614933, 0.045083586, -1234551.6, -19374.492, 0.00000014192928, 9.998869, 10.000329 
3.4999776e+1, 1.860038e+2, -1232072.0, -1110367.3, -46947.754, 0.10246485, 0.100488044, -1094361.9, 22805.904, 0.0, 9.998951, 10.000584 
3.500039e+1, 1.9600435e+2, -1121790.0, -1029465.4, 13694.04, 0.11356966, 0.06927061, -1027477.0, -8316.163, 0.0, 9.999133, 10.000381 
3.5000613e+1, 2.0600423e+2, -1050079.9, -1116855.0, 31311.91, 0.06736226, 0.10745108, -1037694.5, -116531.8, 0.0, 9.999707, 9.998835 
3.500056e+1, 2.1600334e+2, -832103.7, -972206.0, 39081.137, -0.02252827, 0.10941163, -821939.5, 1234.3071, 0.0, 10.000576, 9.998736 
3.5000378e+1, 2.2600168e+2, -781643.6, -957098.4, -19039.516, -0.06291352, 0.10341886, -779601.3, -54410.34, 0.0, 10.000514, 9.998188 
3.5000104e+1, 2.3599944e+2, -779281.94, -899708.06, -28271.947, -0.06993012, 0.0319665, -772975.0, -145762.13, 0.0, 9.999823, 9.998246 
3.499966e+1, 2.4599786e+2, -658012.3, -684087.06, -62718.516, -0.061034758, 0.0018866356, -606990.44, -77763.36, 0.0, 9.999531, 9.999198 
3.499906e+1, 2.5599653e+2, -575520.3, -599628.2, -43594.24, -0.05046095, -0.07885968, -542344.2, -111105.92, 0.0, 9.999447, 9.999145 
3.4999818e+1, 2.6599663e+2, -440719.1, -511501.88, -8881.974, 0.013343063, 0.03455779, -439621.56, -106382.48, 0.0000000045955626, 9.999823, 9.998893 
3.5001415e+1, 2.7599773e+2, -270782.5, -386835.7, -5498.382, 0.10439658, 0.23000036, -270522.6, -35290.016, 0.0000011861115, 10.00034, 9.99883 
3.500159e+1, 2.8599727e+2, -220661.14, -333104.1, -22969.342, 0.06786037, 0.3130365, -216150.05, -78910.26, 0.000009324045, 10.000122, 9.998623 
3.5000813e+1, 2.9599494e+2, -248813.69, -287675.2, -7648.1587, -0.06461013, 0.18339077, -247362.66, -208098.58, 0.00004426637, 9.999206, 9.998708 
3.5001498e+1, 3.0599308e+2, 32375.764, -9854.622, -14775.491, -0.062473644, 0.07157005, 37032.0, 37032.0, 0.00018827697, 10.000308, 9.999765 
3.5003936e+1, 3.159953e+2, 266247.94, -52049.2, 17509.34, 0.09973383, 0.3040051, 267208.22, 267208.22, 0.00052441156, 10.002519, 9.998414 
4.4993854e+1, 1.2599504e+2, -1772986.8, -1709239.6, 72446.99, 0.08349786, -0.24678823, -1661964.6, 43280.137, 0.0022337737, 9.999416, 10.000286 
4.4996777e+1, 1.3599887e+2, -1752797.6, -1569104.0, 19854.746, 0.11014208, 0.005186569, -1566982.5, 40228.277, 0.0013153872, 9.998574, 10.000993 
4.499735e+1, 1.4599948e+2, -1666541.6, -1510340.4, -41303.504, 0.0645903, -0.009772723, -1500091.3, 9113.932, 0.00056916923, 9.998603, 10.000706 
4.4996673e+1, 1.5599956e+2, -1472794.5, -1378525.3, -59134.33, -0.008827147, -0.10480285, -1350038.8, 61164.11, 0.00014812649, 9.999315, 10.000601 
4.4996965e+1, 1.6600037e+2, -1392320.3, -1378577.8, -31114.43, -0.0029477861, -0.035397347, -1353584.9, -40387.508, 0.000013959289, 9.9995775, 9.999799 
4.4997966e+1, 1.7600104e+2, -1291032.3, -1272787.4, -39634.074, 0.056132704, 0.027069129, -1241239.5, -26043.451, 0.000000037538413, 9.99957, 9.999857 
4.4999135e+1, 1.8600215e+2, -1097375.8, -1020776.1, -34462.88, 0.112768225, 0.10603174, -1007553.44, 109632.695, 0.0, 9.999773, 10.000813 
4.5000324e+1, 1.9600366e+2, -978268.25, -937893.94, -75142.445, 0.15945368, 0.14900698, -880274.25, 138895.44, 0.0, 10.000026, 10.0005865 
4.500091e+1, 2.0600347e+2, -960640.56, -1068251.5, -52326.125, 0.10680438, 0.17027743, -939392.4, -18220.906, 0.0, 10.000288, 9.998891 
4.50011e+1, 2.1600191e+2, -841091.4, -968998.94, -65885.06, -0.010535179, 0.09802622, -813225.06, 9963.051, 0.0, 10.000473, 9.998811 
4.5001194e+1, 2.2600047e+2, -739228.7, -908303.56, -90259.34, -0.03017622, 0.096370265, -700099.94, 25102.813, 0.0, 10.000676, 9.998454 
4.500123e+1, 2.3599899e+2, -612673.6, -796711.56, -67317.84, 0.018229844, 0.0786755, -590678.6, 36538.465, 0.0, 10.000872, 9.998457 
4.5000306e+1, 2.4599707e+2, -503257.25, -634935.0, -70605.42, 0.0015534152, 0.016310737, -472556.56, 56677.336, 0.0, 10.000708, 9.998961 
4.4998726e+1, 2.559945e+2, -464052.88, -577394.6, -94619.73, -0.06536282, -0.16310658, -410431.03, 20824.512, 0.0, 10.000338, 9.998869 
4.4999698e+1, 2.659945e+2, -392786.2, -510104.22, -32237.11, 0.0060350983, -0.041670274, -384511.6, -51253.465, 0.000000013083459, 10.000256, 9.998691 
4.500247e+1, 2.759962e+2, -269094.13, -406940.56, -61270.33, 0.18009867, 0.24054596, -245797.7, -10550.9375, 0.0000010541644, 10.000446, 9.998646 
4.5002228e+1, 2.859956e+2, -203349.45, -310499.06, -90567.81, 0.12603444, 0.31009877, -151696.94, -14441.634, 0.000008050424, 10.0001745, 9.998764 
4.499986e+1, 2.9599258e+2, -185293.64, -248520.97, -80591.04, -0.0900155, 0.102217525, -130337.45, -91052.68, 0.00003666787, 9.999599, 9.998799 
4.5000994e+1, 3.0599126e+2, -30866.197, -24739.22, 17095.094, -0.10771881, 0.03710985, -10435.291, -10435.291, 0.0001603948, 9.999799, 9.999902 
4.5006093e+1, 3.159944e+2, -41661.23, -210827.98, -12830.3545, 0.18178675, 0.3378204, -40693.652, -40693.652, 0.00046251278, 10.000433, 9.998325 
5.4994607e+1, 1.259967e+2, -1717739.0, -1612107.4, 7549.9473, 0.13436648, 0.080657735, -1611570.5, 93665.04, 0.0021078985, 9.999469, 10.000936 
5.4993653e+1, 1.3599734e+2, -1735978.5, -1551759.4, 7537.098, -0.10500771, -0.002636424, -1551451.5, 55775.902, 0.0012334009, 9.998641, 10.0010805 
5.4994285e+1, 1.4599854e+2, -1663415.8, -1508930.6, -31939.357, -0.14954111, 0.035328627, -1502587.6, 6628.3745, 0.00052778376, 9.998616, 10.000712 
5.4996717e+1, 1.5600067e+2, -1471484.5, -1382023.4, -22321.35, 0.025335656, 0.14805749, -1376763.3, 34433.44, 0.00013278752, 9.999334, 10.00057 
5.4997087e+1, 1.6600095e+2, -1399954.9, -1380802.9, -44350.223, 0.017086504, 0.16497949, -1345006.6, -31811.215, 0.0000106646075, 9.999523, 9.9998045 
5.499636e+1, 1.7599937e+2, -1297354.9, -1279207.4, -28189.31, -0.09632379, -0.0016078423, -1258667.5, -43455.55, 0.000000007551507, 9.999545, 9.999821 
5.4997337e+1, 1.859995e+2, -1166491.9, -1146856.6, -38510.676, -0.07479391, 0.021576824, -1116931.9, 279.5321, 0.0, 9.999698, 9.999984 
5.499939e+1, 1.9600073e+2, -1038018.94, -1048880.9, -55231.7, 0.031592607, 0.12364991, -987951.9, 31247.637, 0.0, 9.999971, 9.99985 
5.500073e+1, 2.0600024e+2, -968770.9, -1055172.0, -54626.89, 0.032202385, 0.13719226, -942326.75, -21121.826, 0.0, 10.000166, 9.999036 
5.500158e+1, 2.1599837e+2, -840671.5, -942357.25, -47320.652, -0.039306317, 0.020097267, -822057.6, 1166.5581, 0.0, 10.000366, 9.9990425 
5.5002105e+1, 2.259982e+2, -684165.8, -770391.0, -93197.93, -0.035353027, 0.07982672, -624591.75, 100634.31, 0.0, 10.000575, 9.999449 
5.500243e+1, 2.3599906e+2, -570043.6, -682976.6, -50203.945, 0.02375877, 0.19778687, -550952.9, 76264.65, 0.0, 10.000765, 9.999289 
5.500152e+1, 2.4599758e+2, -554601.94, -725399.94, -93288.36, 0.021897458, 0.17368324, -513526.78, 15703.244, 0.0, 10.000641, 9.998371 
5.4999876e+1, 2.559942e+2, -522246.34, -662865.9, -96232.195, -0.016525807, -0.029920867, -473375.2, -42115.79, 0.0, 10.000196, 9.9983425 
5.500018e+1, 2.6599234e+2, -420702.34, -562127.94, -36638.15, -0.0022557683, -0.048650574, -411774.38, -78496.24, 0.000000016276152, 10.000222, 9.998354 
5.500192e+1, 2.7599147e+2, -298602.66, -453885.75, -45662.21, 0.049723275, 0.002936641, -286170.66, -50880.67, 0.00000094951764, 10.000375, 9.9983635 
5.500155e+1, 2.8599066e+2, -187604.53, -267878.25, -124074.63, 0.01121182, 0.05017571, -97336.32, 39962.15, 0.0000068870954, 10.000139, 9.99907 
5.4999715e+1, 2.959893e+2, -178083.97, -212879.2, -84573.68, -0.09964742, -0.018292103, -109137.02, -69826.89, 0.000030486934, 9.999506, 9.999089 
5.500107e+1, 3.0598944e+2, -38655.383, -21826.434, 37613.7, -0.10911859, 0.04280238, 8302.491, 8302.491, 0.00013676572, 9.999732, 9.999954 
5.5006444e+1, 3.1598994e+2, -12099.23, -123287.26, 39750.438, 0.11235009, 0.07765576, 649.9448, 649.9448, 0.00040932593, 10.000338, 9.998966 
6.499429e+1, 1.2599678e+2, -1718184.0, -1612084.3, 56426.79, 0.17709427, 0.17895746, -1587685.6, 117551.5, 0.0019834668, 9.999416, 10.000986 
6.499255e+1, 1.359959e+2, -1721699.6, -1590838.5, -26564.201, -0.078810014, -0.013328963, -1585651.6, 21590.879, 0.001149572, 9.998907, 10.000702 
6.499332e+1, 1.4599687e+2, -1639517.3, -1515958.6, -8035.1563, -0.10877878, 0.029829418, -1515438.3, -6205.334, 0.00048384682, 9.998871, 10.000535 
6.499636e+1, 1.5599902e+2, -1468317.9, -1390612.8, -44476.313, 0.063643076, 0.1609638, -1370408.9, 40805.16, 0.00011744106, 9.999418, 10.000456 
6.499699e+1, 1.6599937e+2, -1390290.6, -1352136.5, -62067.906, 0.06564806, 0.17740716, -1306280.0, 6930.9775, 0.000008467286, 9.999487, 10.00002 
6.4996165e+1, 1.7599793e+2, -1354121.1, -1292158.1, -52641.703, -0.039906863, 0.004327446, -1262057.8, -46833.52, 0.000000004638606, 9.999103, 9.999943 
6.499708e+1, 1.8599747e+2, -1236794.5, -1244359.3, -98.684814, -0.049873292, -0.0026537988, -1236793.3, -119564.164, 0.0, 9.999491, 9.999409 
6.499913e+1, 1.9599766e+2, -1016553.06, -1093405.3, -24852.424, -0.002048739, 0.04806919, -1009216.7, 10012.001, 0.0, 10.000351, 9.999362 
6.500076e+1, 2.0599714e+2, -917975.9, -1000020.94, -16473.09, 0.017197404, 0.06863738, -914791.94, 6442.1235, 0.0, 10.000373, 9.999323 
6.5002096e+1, 2.1599603e+2, -920795.9, -950697.9, -16521.066, 0.017494295, -0.0012038152, -913465.06, -90220.06, 0.0, 9.999685, 9.999315 
6.50028e+1, 2.259961e+2, -826382.56, -834403.7, -64643.875, 0.03437986, 0.068922915, -765624.94, -40379.72, 0.0, 9.999576, 9.999493 
6.500306e+1, 2.3599689e+2, -696005.06, -736583.25, -115507.64, 0.06348489, 0.17282924, -599018.1, 28220.986, 0.0, 9.99986, 9.999358 
6.500234e+1, 2.4599585e+2, -581071.75, -725923.06, -136152.98, 0.061119314, 0.18417148, -499279.7, 29968.23, 0.0, 10.000392, 9.998508 
6.5001017e+1, 2.5599337e+2, -381580.38, -583314.7, -109280.93, 0.04147442, 0.06025215, -333731.34, 97537.11, 0.0, 10.001103, 9.998472 
6.5001076e+1, 2.659911e+2, -316784.44, -532472.94, -10790.78, 0.032552026, 0.0041990154, -316245.9, 17044.531, 0.00000000394634, 10.001025, 9.998175 
6.5002173e+1, 2.7598888e+2, -291830.34, -462773.03, -28719.568, 0.04042559, -0.05971191, -287134.25, -51820.676, 0.0000007712445, 10.000495, 9.998233 
6.5001786e+1, 2.859876e+2, -137100.42, -248806.05, -92509.0, 0.012151404, -0.05386733, -84890.97, 52435.13, 0.000006042053, 10.000512, 9.999017 
6.500045e+1, 2.959865e+2, 4733.066, -125477.73, -105309.03, -0.029136611, -0.092837065, 63436.816, 102771.87, 0.000026514312, 10.000785, 9.999061 
6.500156e+1, 3.0598778e+2, 66012.195, -24327.727, 19253.605, -0.06905513, 0.10388284, 69944.445, 69944.445, 0.000119780976, 10.000667, 9.999494 
6.5006304e+1, 3.1598628e+2, -4743.7295, -70159.77, -62556.918, 0.08880916, -0.008505024, 33139.91, 33139.91, 0.00036687037, 10.000153, 9.999441 
7.4992096e+1, 1.2599498e+2, -1730618.0, -1645949.3, -2793.8062, -0.05894721, 0.043952566, -1645857.1, 59395.59, 0.0018629195, 9.999461, 10.000725 
7.4992895e+1, 1.3599439e+2, -1771428.1, -1705318.1, -36282.824, 0.026282085, -0.040957723, -1689290.8, -82033.34, 0.0010666472, 9.998955, 9.999894 
7.499374e+1, 1.4599445e+2, -1667952.0, -1568105.5, -1393.7002, 0.0050132396, -0.029430224, -1568086.0, -58829.887, 0.0004391749, 9.998844, 10.00019 
7.499521e+1, 1.5599455e+2, -1484668.3, -1434183.4, -12438.441, -0.030772466, -0.07226667, -1431285.1, -20029.568, 0.00010226521, 9.999451, 10.000147 
7.4996215e+1, 1.6599561e+2, -1368251.3, -1295857.4, -89584.87, 0.007863342, 0.0071088746, -1235433.1, 77811.54, 0.000007138289, 9.999445, 10.000423 
7.4996996e+1, 1.7599669e+2, -1335616.0, -1250203.9, -52962.16, 0.09914521, 0.044992108, -1224874.8, -9641.856, 0.00000003688298, 9.999083, 10.000241 
7.4997985e+1, 1.8599604e+2, -1272587.0, -1303144.3, 20966.469, 0.061550785, 0.027961584, -1261922.9, -144683.38, 0.0, 9.999422, 9.9990425 
7.499915e+1, 1.9599426e+2, -1040779.3, -1133514.8, 12941.019, -0.067053206, -0.08330373, -1039007.25, -19748.93, 0.0, 10.000309, 9.999107 
7.500066e+1, 2.0599413e+2, -900150.1, -943280.56, -52168.08, -0.057177905, -0.039212033, -865265.7, 55993.777, 0.0, 10.000288, 9.999752 
7.500227e+1, 2.1599488e+2, -913749.2, -914479.25, -28277.49, 0.037416775, 0.031393785, -885834.4, -62583.45, 0.0, 9.999587, 9.999612 
7.5002867e+1, 2.2599418e+2, -906794.94, -976476.5, -63892.344, 0.05729903, 0.061594367, -868861.3, -143601.17, 0.0, 9.999469, 9.998568 
7.5002784e+1, 2.359924e+2, -767795.9, -857549.8, -90455.94, 0.022722807, -0.0017196492, -711696.5, -84413.92, 0.0, 9.999735, 9.9985895 
7.500235e+1, 2.4599192e+2, -530663.0, -606116.3, -119658.6, -0.0033831878, 0.05328283, -442924.6, 86362.72, 0.0, 10.000328, 9.999358 
7.500177e+1, 2.559921e+2, -343944.06, -484032.56, -76115.22, -0.02121952, 0.10849287, -310548.84, 120733.28, 0.0, 10.001004, 9.999203 
7.5001943e+1, 2.6599085e+2, -328353.78, -538309.56, -40333.984, -0.0087599335, 0.12548426, -320871.94, 12421.613, 0.00000000015133415, 10.000956, 9.998165 
7.500275e+1, 2.7598852e+2, -310450.7, -478268.84, -29614.73, 0.016018813, 0.04976289, -305377.94, -70060.75, 0.00000065427645, 10.000397, 9.998173 
7.500255e+1, 2.8598642e+2, -166926.66, -305239.97, -91563.94, 0.0068188296, -0.0018064681, -121337.516, 16000.396, 0.0000058927376, 10.000484, 9.998644 
7.5001645e+1, 2.9598412e+2, -33776.88, -189923.06, -85264.86, -0.023754409, -0.1257953, 3759.297, 43119.047, 0.000025865007, 10.0007, 9.998668 
7.5002027e+1, 3.0598608e+2, -16987.84, -179176.22, -2104.3035, -0.11770595, 0.21571627, -16960.543, -16960.543, 0.000112007656, 10.000605, 9.998449 
7.500487e+1, 3.1598312e+2, 2072.7349, -22523.363, -46211.41, -0.12948813, 0.05268886, 37594.52, 37594.52, 0.00034011903, 10.000016, 9.999825 
8.4991366e+1, 1.2599443e+2, -1786906.5, -1731691.1, 23869.99, -0.059354946, 0.051238272, -1722802.8, -17545.262, 0.0017451695, 9.999352, 10.000176 
8.4993523e+1, 1.3599329e+2, -1644337.4, -1734685.8, -77694.414, 0.14327732, 0.009596523, -1599638.8, 7632.584, 0.0009891815, 10.000249, 9.999051 
8.499386e+1, 1.459928e+2, -1490745.9, -1459746.8, -3852.0696, 0.089413024, -0.010158867, -1459275.3, 49999.71, 0.000399723, 9.999939, 10.000419 
8.4993845e+1, 1.5599236e+2, -1558508.4, -1450699.5, 6379.029, -0.07435301, -0.12687115, -1450323.4, -39047.543, 0.00008899464, 9.998855, 10.000324 
8.4995323e+1, 1.6599335e+2, -1397733.6, -1345597.5, -30518.863, -0.015380837, -0.044428557, -1331529.0, -18264.34, 0.000006071428, 9.999392, 10.000112 
8.499791e+1, 1.7599468e+2, -1082830.1, -1155182.4, -73865.35, 0.19865279, 0.048740946, -1036757.8, 178493.92, 0.000000076650345, 10.000936, 10.000001 
8.49989e+1, 1.8599407e+2, -1104439.9, -1207025.3, -12348.573, 0.16440664, 0.039772317, -1102974.4, 14283.719, 0.0, 10.000508, 9.999182 
8.4998876e+1, 1.9599226e+2, -1271350.8, -1231590.4, -2542.4646, -0.034755785, -0.087555304, -1231428.5, -212151.55, 0.0, 9.998664, 9.99923 
8.500021e+1, 2.0599222e+2, -1111677.0, -1019991.94, -17914.338, -0.045884762, -0.051552013, -1016616.0, -95339.555, 0.0, 9.998739, 9.999966 
8.50023e+1, 2.1599315e+2, -828346.7, -856500.6, -38420.79, 0.062928, 0.022350099, -801505.2, 21759.854, 0.0, 10.000107, 9.99976 
8.500299e+1, 2.2599223e+2, -788194.6, -941827.9, -46465.79, 0.0838295, 0.035825677, -775234.5, -49957.86, 0.0, 10.000396, 9.99835 
8.50028e+1, 2.3599e+2, -754083.56, -869975.75, -41679.78, 0.04935809, -0.05046609, -740650.7, -113346.29, 0.0, 9.9999275, 9.998402 
8.5002786e+1, 2.459895e+2, -569366.94, -618303.06, -38380.246, 0.028844567, 0.009181247, -548318.75, -19008.338, 0.0, 10.000033, 9.999409 
8.500295e+1, 2.559901e+2, -400696.3, -499907.78, -80387.82, 0.027112754, 0.09743389, -355840.78, 75461.92, 0.0, 10.000579, 9.999288 
8.5002905e+1, 2.6598936e+2, -353836.63, -530175.56, -71761.5, 0.014194892, 0.15023711, -328324.22, 4985.3086, 0.0000000019213902, 10.000658, 9.998378 
8.500285e+1, 2.7598757e+2, -313157.47, -462703.97, -64360.71, 0.0017822694, 0.10621369, -289273.03, -53945.004, 0.0000006294421, 10.000277, 9.998351 
8.500282e+1, 2.8598544e+2, -210469.88, -357392.22, -62081.945, 0.0024459006, 0.059204314, -187750.42, -50400.75, 0.0000062489003, 10.000309, 9.998376 
8.500281e+1, 2.9598293e+2, -34072.46, -212866.27, -72804.42, 0.027698038, -0.059365377, -8177.1714, 31197.504, 0.000027811611, 10.000801, 9.998459 
8.500309e+1, 3.059846e+2, -60396.54, -251444.63, 24550.73, -0.055597268, 0.28429908, -57292.082, -57292.082, 0.00011221668, 10.00051, 9.998014 
8.5004675e+1, 3.159805e+2, -100555.734, -49163.914, -12068.788, -0.0936758, 0.052529268, -46470.824, -46470.824, 0.00032879677, 9.999207, 10.0000305 
9.4991297e+1, 1.2599535e+2, -1851965.0, -1860517.6, 20674.588, -0.06995171, 0.22070752, -1835129.1, -129879.86, 0.0016362383, 9.999329, 9.9993 
9.4993883e+1, 1.3599259e+2, -1702277.1, -1877005.6, -40024.277, 0.116737954, 0.13180837, -1693545.3, -86260.77, 0.0009229167, 10.000338, 9.998032 
9.4993323e+1, 1.4599183e+2, -1430097.1, -1335276.3, -58044.176, 0.0035802952, 0.08400566, -1307740.9, 201548.94, 0.00036888671, 9.999946, 10.001268 
9.4991875e+1, 1.559925e+2, -1513442.5, -1360367.0, -12816.928, -0.19244525, -0.0037491182, -1359301.4, 51973.164, 0.00007923838, 9.998865, 10.00094 
9.4993997e+1, 1.6599269e+2, -1476510.0, -1497377.5, 17619.584, -0.11619111, 0.029842794, -1466466.6, -153196.34, 0.0000051224774, 9.99934, 9.999096 
9.499846e+1, 1.7599195e+2, -1141594.3, -1275760.8, -14761.083, 0.12785512, 0.015792863, -1139989.5, 75290.6, 0.00000007826353, 10.00093, 9.999175 
9.4999427e+1, 1.8599164e+2, -1072215.1, -1126624.0, -91703.05, 0.13908218, 0.037242852, -1003766.4, 113517.88, 0.0, 10.000446, 9.9997635 
9.499797e+1, 1.9599164e+2, -1244105.6, -1161055.4, -48024.62, -0.022338066, 0.03180682, -1139092.8, -119808.55, 0.0, 9.998603, 9.999742 
9.499905e+1, 2.0599145e+2, -1133816.0, -1044125.06, 23412.39, -0.06253842, 0.0360306, -1038381.5, -117096.93, 0.0, 9.998639, 9.99985 
9.5001763e+1, 2.1599081e+2, -846246.0, -871380.25, 19951.633, -0.029436277, -0.0376157, -835233.44, -11945.373, 0.0, 10.000007, 9.999707 
9.5002776e+1, 2.2599022e+2, -772385.4, -888262.75, -73325.06, -0.0059883315, -0.013586516, -736871.1, -11575.721, 0.0, 10.000301, 9.998764 
9.5002687e+1, 2.359895e+2, -745148.5, -834487.25, -45485.223, 0.016772922, 0.010341782, -726066.3, -98759.78, 0.0, 9.999843, 9.998691 
9.500325e+1, 2.4598849e+2, -631979.06, -728479.75, -29178.832, 0.045264073, 0.045198552, -623842.4, -94524.22, 0.0, 9.9999485, 9.9986925 
9.50042e+1, 2.5598714e+2, -452309.6, -594951.3, -48614.39, 0.064269334, 0.010973061, -437316.94, -5985.466, 0.0, 10.000515, 9.99867 
9.50036e+1, 2.6598638e+2, -331696.2, -467395.0, -96273.875, -0.008069823, 0.062069204, -281765.28, 51575.01, 0.0000000017799018, 10.000596, 9.998834 
9.5002085e+1, 2.759858e+2, -301754.75, -412742.28, -65660.58, -0.1326033, 0.09333406, -271278.34, -35930.51, 0.0000005677249, 10.000165, 9.998744 
9.500222e+1, 2.8598458e+2, -230907.81, -386164.72, -55355.758, -0.11622719, 0.13070284, -213192.48, -75830.88, 0.0000064583187, 10.000253, 9.998201 
9.500348e+1, 2.9598287e+2, -57866.797, -240796.86, -39177.45, -0.018744007, 0.101720564, -49829.445, -10449.094, 0.000029725905, 10.000705, 9.998313 
9.5004344e+1, 3.0598325e+2, -47319.215, -217589.81, -28851.588, -0.0083169965, 0.30878943, -42563.28, -42563.28, 0.00011359456, 10.000479, 9.998257 
9.5004916e+1, 3.1597847e+2, -120695.58, -64120.29, -7717.329, -0.052918844, -0.0148133, -63086.477, -63086.477, 0.0003216318, 9.999086, 9.999985 
1.04991175e+2, 1.2599312e+2, -1864686.9, -1814417.9, 24270.744, 0.018635357, 0.13323596, -1804612.3, -99343.0, 0.0015480418, 9.998984, 9.999797 
1.049933e+2, 1.3599138e+2, -1847079.3, -1925088.8, 22376.46, 0.09180725, 0.12233717, -1841116.5, -233823.08, 0.00087241904, 9.999228, 9.998251 
1.0499286e+2, 1.4599071e+2, -1513087.5, -1426330.6, -9002.123, -0.012992203, 0.09615494, -1425406.4, 83893.28, 0.0003471946, 9.99962, 10.00079 
1.0499225e+2, 1.5599124e+2, -1359473.3, -1342545.3, -88317.74, -0.09535505, 0.05518255, -1262286.9, 149001.9, 0.000073446034, 10.000172, 10.000435 
1.0499414e+2, 1.6599113e+2, -1384466.4, -1427552.1, 4498.787, -0.05363478, 0.0673438, -1384001.6, -70713.805, 0.000004420773, 9.999876, 9.999303 
1.0499775e+2, 1.7598997e+2, -1411996.4, -1390430.6, 32520.117, 0.06732142, -0.008762387, -1366952.4, -151652.95, 0.000000050630582, 9.999018, 9.999303 
1.049988e+2, 1.8598974e+2, -1272058.0, -1236427.5, -51782.637, 0.10339966, 0.020559078, -1199481.3, -82178.39, 0.0, 9.999138, 9.999636 
1.0499807e+2, 1.9599015e+2, -1083798.3, -1096568.9, -84653.33, 0.077787064, 0.068483144, -1005289.8, 14010.432, 0.0, 9.999765, 9.9996195 
1.0499919e+2, 2.0598988e+2, -985925.94, -971795.0, 26607.568, 0.044404995, 0.072692014, -951330.8, -30029.055, 0.0, 9.999655, 9.999856 
1.0500156e+2, 2.1598895e+2, -995876.4, -936390.06, 6514.2236, 0.010610014, -0.03233145, -935685.06, -112376.8, 0.0, 9.998954, 9.999765 
1.0500263e+2, 2.2598867e+2, -903617.56, -900555.0, -65377.996, 0.011865305, -0.0036480308, -836690.3, -111378.805, 0.0, 9.999176, 9.999232 
1.0500285e+2, 2.3598874e+2, -688513.6, -759244.4, -55895.418, 0.047003526, 0.054612536, -657735.2, -30421.525, 0.0, 10.000029, 9.999122 
1.050034e+2, 2.4598776e+2, -572007.4, -697387.7, 18770.422, 0.051603623, 0.07079376, -569257.6, -39933.008, 0.0, 10.000352, 9.998712 
1.0500425e+2, 2.5598592e+2, -487856.5, -607347.2, 32106.078, 0.036531705, -0.016571164, -479776.28, -48433.242, 0.0, 10.000264, 9.998698 
1.05003655e+2, 2.6598513e+2, -394649.25, -487955.03, -7694.3037, -0.032406785, 0.03078518, -394019.0, -60666.805, 0.00000000014537505, 10.000139, 9.998904 
1.0500224e+2, 2.7598497e+2, -317644.66, -413856.84, -28205.12, -0.11896424, 0.09795589, -309985.84, -74629.24, 0.00000042821608, 10.000042, 9.998793 
1.05002806e+2, 2.859841e+2, -210476.38, -368023.06, 29833.668, -0.08011566, 0.16153473, -205016.2, -67648.766, 0.0000059800022, 10.000338, 9.998295 
1.0500468e+2, 2.9598266e+2, -29044.635, -215687.72, 34022.395, 0.03318852, 0.15087906, -23036.254, 16347.001, 0.000029321069, 10.000839, 9.998429 
1.0500537e+2, 3.0598232e+2, -9213.009, -125199.79, 35195.844, 0.059115857, 0.24522997, 631.502, 631.502, 0.00010998001, 10.000436, 9.998903 
1.0500507e+2, 3.1597877e+2, -101107.56, -66211.21, 61160.195, 0.05754974, -0.019385152, -20059.006, -20059.006, 0.0003078072, 9.999279, 9.999871 
1.14990115e+2, 1.2598746e+2, -1729500.4, -1548224.8, 98.132416, -0.057192795, -0.22077873, -1548224.8, 157095.25, 0.0014882531, 9.999038, 10.001602 
1.149914e+2, 1.3598958e+2, -1736410.8, -1705126.4, 40344.96, -0.055230044, -0.024856862, -1677497.4, -70198.35, 0.000840427, 9.999268, 9.999738 
1.1499216e+2, 1.4598934e+2, -1652343.1, -1701726.6, -1763.2467, -0.07894197, 0.027486917, -1652280.3, -142975.05, 0.00033535642, 9.999561, 9.998928 
1.1499439e+2, 1.5598865e+2, -1465952.0, -1563739.6, -55784.24, 0.06731993, 0.043410312, -1440667.0, -29348.527, 0.0000716502, 10.000185, 9.998901 
1.14995375e+2, 1.6598868e+2, -1292162.3, -1234541.5, -38383.87, 0.04895947, 0.066939674, -1215358.5, 97958.375, 0.0000041980056, 9.999861, 10.000642 
1.1499552e+2, 1.7598869e+2, -1330971.3, -1222453.1, 16973.51, -0.08986851, -0.029534085, -1219860.3, -4549.9204, 0.000000024917117, 9.999019, 10.000455 
1.1499679e+2, 1.8598834e+2, -1346442.0, -1370333.8, -37637.188, -0.038354564, -0.011645865, -1318900.4, -201586.2, 0.0, 9.999046, 9.998766 
1.1499876e+2, 1.959877e+2, -1142035.5, -1209351.4, -53998.473, 0.13678181, 0.017611604, -1112064.1, -92738.336, 0.0, 9.999727, 9.998867 
1.1500023e+2, 2.0598754e+2, -994834.25, -967569.8, -11351.276, 0.15784974, 0.061011497, -963462.56, -42134.453, 0.0, 9.999555, 9.999935 
1.1500134e+2, 2.1598749e+2, -1002815.9, -926081.4, -4485.976, 0.06756348, 0.032429297, -925820.0, -102493.47, 0.0, 9.998844, 9.999891 
1.150022e+2, 2.259876e+2, -885879.25, -836205.9, -43634.68, 0.02909319, 0.0683732, -810834.56, -85509.11, 0.0, 9.999062, 9.999727 
1.15002885e+2, 2.3598768e+2, -665901.2, -687639.1, -14508.254, 0.020325951, 0.07559701, -658642.1, -31315.96, 0.0, 9.999917, 9.999669 
1.1500295e+2, 2.4598722e+2, -534148.2, -594496.6, 5058.474, -0.055060346, 0.079774715, -533727.1, -4396.9956, 0.0, 10.000255, 9.999463 
1.1500268e+2, 2.5598624e+2, -458042.94, -520261.47, 37307.758, -0.17426941, 0.007296469, -440575.9, -9237.955, 0.0, 10.000158, 9.999348 
1.1500272e+2, 2.659856e+2, -425916.3, -541686.06, -21359.084, -0.16520403, 0.054595873, -422101.34, -88755.586, 0.0, 10.00009, 9.998564 
1.15003e+2, 2.7598503e+2, -349941.56, -461941.75, -16509.74, -0.075766996, 0.11554098, -347558.6, -112203.57, 0.0000002594802, 9.999951, 9.998513 
1.1500418e+2, 2.8598392e+2, -195482.03, -319402.94, 39954.957, -0.0032919613, 0.14812599, -183716.66, -46349.0, 0.000005001763, 10.000272, 9.998658 
1.1500604e+2, 2.9598236e+2, -27439.66, -177802.86, 61258.934, 0.052010328, 0.09219325, -5642.2437, 33741.113, 0.000026475647, 10.000696, 9.998759 
1.1500584e+2, 3.059818e+2, 52775.83, 25004.227, -9771.574, 0.036250647, 0.1019112, 55869.402, 55869.402, 0.000100772006, 10.000363, 9.999964 
1.1500434e+2, 3.159814e+2, -128812.29, -93451.125, 65819.91, -0.0076946258, 0.037828643, -42978.477, -42978.477, 0.00028477277, 9.999163, 9.999736 
1.2498936e+2, 1.2598525e+2, -1661819.8, -1450897.8, 5863.2803, -0.035697035, -0.19279946, -1450734.9, 254610.92, 0.0014562852, 9.999242, 10.002164 
1.2499054e+2, 1.3598782e+2, -1687658.3, -1613539.1, -84498.23, -0.057073228, -0.01745392, -1558330.8, 48985.32, 0.0008261713, 9.999311, 10.000347 
1.2499151e+2, 1.459876e+2, -1745639.1, -1749639.4, -50889.645, -0.056491017, 0.008080037, -1696710.3, -187388.34, 0.00033346904, 9.998932, 9.998899 
1.2499437e+2, 1.5598722e+2, -1715200.0, -1685456.3, -1441.608, 0.13940656, 0.05802477, -1685386.6, -274051.72, 0.00007407354, 9.998475, 9.998887 
1.2499535e+2, 1.6598752e+2, -1429935.5, -1263102.0, 43950.82, 0.12269606, 0.08958622, -1252231.9, 61098.82, 0.000004716059, 9.998736, 10.001001 
1.2499498e+2, 1.7598781e+2, -1260481.0, -1155464.1, 6247.35, -0.05317359, -0.0095661655, -1155093.8, 60225.945, 0.000000012759114, 9.999333, 10.000781 
1.24996096e+2, 1.8598747e+2, -1256471.1, -1301741.1, 7852.412, -0.029164873, -0.018021025, -1255147.8, -137825.55, 0.0, 9.999563, 9.998979 
1.2499822e+2, 1.9598676e+2, -1162665.1, -1201079.5, 45210.543, 0.1287469, -0.015651507, -1132750.9, -113417.445, 0.0, 9.999515, 9.999021 
1.2499988e+2, 2.0598657e+2, -968524.75, -975492.44, 113051.45, 0.16006923, 0.027519355, -858903.5, 62433.035, 0.0, 9.999824, 9.999749 
1.2500122e+2, 2.1598653e+2, -804026.6, -844550.4, 77945.55, 0.10617389, 0.021776693, -743752.44, 79583.56, 0.0, 10.000275, 9.999759 
1.2500188e+2, 2.2598678e+2, -737722.8, -726637.1, 48905.535, 0.055915654, 0.056639858, -682961.3, 42372.008, 0.0, 9.999906, 10.000069 
1.2500213e+2, 2.3598711e+2, -782291.4, -705562.56, 45557.855, 0.008788457, 0.052913487, -684367.4, -57037.2, 0.0, 9.998967, 9.999992 
1.2500246e+2, 2.4598692e+2, -658245.7, -649177.25, 73183.39, -0.07816517, 0.0651707, -580387.75, -51056.242, 0.0, 9.999374, 9.999515 
1.2500298e+2, 2.559862e+2, -373869.1, -478260.63, 28571.268, -0.17983082, 0.015062813, -366560.94, 64777.074, 0.0, 10.000714, 9.999377 
1.2500341e+2, 2.6598555e+2, -293398.34, -465437.8, -43268.18, -0.14035922, 0.053848177, -283129.3, 50216.305, 0.0, 10.000951, 9.998668 
1.2500386e+2, 2.759848e+2, -272279.4, -407782.9, -24683.34, -0.00026104774, 0.08511741, -267923.13, -32568.035, 0.00000012209664, 10.000435, 9.998639 
1.2500495e+2, 2.859837e+2, -205633.3, -301859.63, 77529.16, 0.06309697, 0.10494817, -162501.48, -25134.938, 0.000003888246, 10.000112, 9.998854 
1.2500665e+2, 2.9598236e+2, -131921.03, -207307.02, 60432.133, 0.094985, 0.050800636, -98390.41, -59010.805, 0.00002250982, 9.999898, 9.998936 
1.2500626e+2, 3.0598146e+2, 28158.81, 27484.473, -38065.883, 0.067244165, 0.0066034547, 65889.016, 65889.016, 0.000088219014, 10.000089, 10.000144 
1.2500486e+2, 3.1598246e+2, 19776.52, -65150.145, -63961.02, 0.08297474, 0.0675308, 54086.53, 54086.53, 0.00025421128, 10.000354, 9.999373 
1.3498816e+2, 1.2598631e+2, -1719197.3, -1560292.5, -40348.14, -0.14329277, 0.20225476, -1550634.5, 154714.1, 0.0014504805, 9.999206, 10.001428 
1.3499022e+2, 1.3598613e+2, -1693167.4, -1630901.8, -74427.92, -0.053684153, 0.13836363, -1581357.6, 25986.83, 0.0008289551, 9.99935, 10.000203 
1.3499048e+2, 1.459855e+2, -1621426.4, -1505077.3, -84462.97, -0.09132087, 0.038335104, -1460693.1, 48656.39, 0.0003411424, 9.99897, 10.0005665 
1.3499185e+2, 1.559869e+2, -1613325.5, -1473177.5, -3743.6284, 0.008511372, 0.101043, -1473077.5, -61739.426, 0.00008049032, 9.998461, 10.000357 
1.3499364e+2, 1.6598766e+2, -1487637.1, -1354362.1, 54649.813, 0.051815126, 0.14247516, -1334818.6, -21489.64, 0.0000062176173, 9.998628, 10.000421 
1.3499561e+2, 1.7598742e+2, -1295101.1, -1216977.6, 41263.87, 0.04582474, 0.049238943, -1199219.3, 16107.524, 0.000000017143847, 9.999304, 10.000365 
1.3499624e+2, 1.859873e+2, -1177244.6, -1130430.5, -4152.023, -0.0033199454, 0.013661257, -1130065.1, -12739.913, 0.0, 9.999518, 10.000183 
1.3499597e+2, 1.9598724e+2, -1096140.9, -1052042.0, 58661.375, -0.07925222, -0.038204607, -1011422.94, 7900.8677, 0.0, 9.999459, 10.000073 
1.3499771e+2, 2.0598689e+2, -1016550.0, -1051014.1, 118618.125, -0.063966736, -0.033674445, -913918.75, 7408.9077, 0.0, 9.999719, 9.999283 
1.3500074e+2, 2.1598609e+2, -849199.6, -909445.3, 103836.01, 0.0024246252, -0.072481476, -771205.4, 52131.88, 0.0, 10.000151, 9.9993725 
1.3500129e+2, 2.2598626e+2, -741281.1, -711071.7, 1765.2563, -0.022000056, -0.036463402, -710968.9, 14366.258, 0.0, 9.999802, 10.000227 
1.3500012e+2, 2.3598695e+2, -791920.5, -700030.6, 29008.87, -0.11548624, -0.019680286, -691639.1, -64312.77, 0.0, 9.998854, 10.000083 
1.3500154e+2, 2.4598674e+2, -715249.2, -748291.0, 113535.49, -0.13332781, 0.020577552, -617038.9, -87709.055, 0.0, 9.999292, 9.998872 
1.3500479e+2, 2.5598574e+2, -426954.25, -561913.75, 85062.89, -0.09827435, 0.004082976, -385855.84, 45487.55, 0.0, 10.000601, 9.998855 
1.3500543e+2, 2.6598495e+2, -267059.8, -395824.88, -73582.21, -0.06012008, 0.028253844, -233669.89, 99681.82, 0.0, 10.000891, 9.999171 
1.3500434e+2, 2.7598417e+2, -254989.78, -343969.84, -32050.703, -0.023729404, 0.0014322582, -244647.25, -9289.163, 0.000000046518082, 10.000319, 9.999129 
1.3500476e+2, 2.8598338e+2, -204699.77, -292655.1, 59450.516, 0.0032308626, 0.024796074, -174728.81, -37363.484, 0.0000029362805, 10.000077, 9.998934 
1.3500616e+2, 2.9598254e+2, -143814.97, -217297.11, 68101.26, 0.022297377, 0.009799076, -103175.89, -63801.766, 0.000019015239, 9.999825, 9.998906 
1.3500614e+2, 3.059811e+2, -23501.996, -65566.87, -33880.31, 0.025492838, -0.0477504, -4656.6353, -4656.6353, 0.000075927965, 10.000034, 9.999526 
1.3500594e+2, 3.1598198e+2, -37362.867, -162868.03, -8769.384, 0.092496715, 0.062013466, -36753.09, -36753.09, 0.0002226974, 10.000258, 9.998751 
1.4498787e+2, 1.2598647e+2, -1757248.6, -1622402.9, 121643.98, -0.07195298, 0.3058609, -1550746.4, 154603.25, 0.0014659849, 9.999151, 10.001023 
1.4498968e+2, 1.3598548e+2, -1932102.4, -1748613.1, 61495.074, 0.049201265, 0.1669233, -1729909.9, -122556.0, 0.0008466132, 9.9977255, 10.000172 
1.4498971e+2, 1.4598466e+2, -1751788.1, -1542398.8, 67654.86, -0.008426567, 0.035913493, -1522441.3, -13081.845, 0.00035647568, 9.997961, 10.000804 
1.449909e+2, 1.5598609e+2, -1461784.5, -1379223.8, 13705.987, 0.029982312, 0.07802003, -1377007.9, 34337.297, 0.00008921642, 9.999403, 10.000555 
1.4499271e+2, 1.659868e+2, -1391440.0, -1330485.6, 49312.992, 0.06735548, 0.11808177, -1302991.9, 10344.644, 0.000008328298, 9.999394, 10.000206 
1.4499487e+2, 1.7598663e+2, -1442985.9, -1305808.8, 36950.695, 0.096607044, 0.04987838, -1296488.8, -81152.96, 0.0000000715251, 9.998368, 10.000199 
1.4499582e+2, 1.8598688e+2, -1301913.4, -1145148.1, 6336.094, 0.06242381, 0.037876718, -1144892.4, -27561.809, 0.0, 9.99847, 10.000593 
1.4499587e+2, 1.9598734e+2, -1095451.5, -1013531.4, -16073.286, -0.018963281, -0.0002877086, -1010490.56, 8832.511, 0.0, 9.9992895, 10.000432 
1.4499728e+2, 2.0598707e+2, -1077221.4, -1083064.4, 47241.12, -0.05197728, -0.0025279548, -1032811.5, -111485.7, 0.0, 9.999314, 9.999254 
1.4499956e+2, 2.159861e+2, -1058487.6, -1017082.0, 39434.82, -0.050875552, -0.055245128, -993245.94, -169908.53, 0.0, 9.998745, 9.999309 
1.4500041e+2, 2.2598602e+2, -829795.9, -767539.2, -32943.848, -0.055682253, -0.03296609, -753343.5, -28005.9, 0.0, 9.999263, 10.0001 
1.4500028e+2, 2.3598643e+2, -558488.9, -604911.2, -53274.875, -0.06302777, -0.02998774, -523588.34, 103743.07, 0.0, 10.000528, 9.999938 
1.4500217e+2, 2.4598625e+2, -558290.3, -682315.8, 68432.88, -0.04905404, 0.025873022, -527952.44, 1382.6858, 0.0, 10.000407, 9.998794 
1.4500552e+2, 2.5598553e+2, -610290.0, -651920.75, 57835.066, -0.01495168, 0.046185125, -569638.5, -138291.45, 0.0, 9.999352, 9.998839 
1.4500593e+2, 2.6598474e+2, -465636.38, -447973.66, -68421.016, -0.015834356, 0.047487486, -387816.4, -54461.563, 0.0, 9.999328, 9.999571 
1.450043e+2, 2.7598375e+2, -270101.5, -318020.72, -58992.563, -0.03737629, -0.03462064, -230388.63, 4972.5845, 0.00000002138944, 10.000048, 9.9994545 
1.4500493e+2, 2.8598323e+2, -168211.66, -282067.34, 37980.63, 0.0072312765, 0.0042932667, -156704.81, -19339.13, 0.0000023054517, 10.000354, 9.998874 
1.4500701e+2, 2.9598308e+2, -67801.73, -186585.36, 7002.845, 0.10449419, 0.061419204, -67390.305, -28021.406, 0.000016570593, 10.000379, 9.99884 
1.4500669e+2, 3.059811e+2, 2439.5469, -77741.1, -45221.082, 0.07071601, -0.03502348, 22782.494, 22782.494, 0.0000664134, 10.000342, 9.999277 
1.4500643e+2, 3.159818e+2, -42441.617, -153026.02, -21244.38, 0.13400401, 0.08254074, -38500.793, -38500.793, 0.0001967113, 10.000199, 9.998833 
1.5498792e+2, 1.2598607e+2, -1752907.9, -1641415.3, 37878.79, -0.05442384, 0.14538783, -1629763.8, 75581.19, 0.0014879738, 9.999256, 10.000853 
1.5498859e+2, 1.3598605e+2, -1927618.0, -1741591.6, 23425.588, 0.1355823, 0.08950097, -1738687.1, -131344.28, 0.0008684092, 9.997728, 10.000227 
1.5498869e+2, 1.4598517e+2, -1836311.3, -1704756.3, 107462.24, 0.0618008, 0.009014952, -1644538.4, -135187.5, 0.00037251608, 9.997912, 9.999709 
1.54991e+2, 1.5598483e+2, -1536270.0, -1522954.3, 73060.945, 0.06590168, -0.013584423, -1456248.5, -44893.266, 0.00009664872, 9.999371, 9.999576 
1.5499222e+2, 1.659851e+2, -1391670.1, -1321870.8, -1640.7523, 0.04850239, 0.021195676, -1321832.1, -8480.4, 0.000009881803, 9.999349, 10.000295 
1.549925e+2, 1.7598553e+2, -1446452.3, -1301294.1, 17705.102, -0.005819568, 0.005680749, -1299165.8, -83820.07, 0.00000020107916, 9.998317, 10.000259 
1.5499444e+2, 1.8598624e+2, -1339611.1, -1209941.9, 25953.412, 0.052293092, 0.060291898, -1204940.3, -87601.83, 0.0, 9.998409, 10.000179 
1.5499748e+2, 1.95987e+2, -1131197.5, -1068602.5, 23159.0, 0.18582694, 0.090947315, -1060965.8, -41634.195, 0.0, 9.999216, 10.000087 
1.5499824e+2, 2.059871e+2, -1063372.4, -1033740.56, 15216.55, 0.08566132, 0.121743925, -1027318.44, -105987.42, 0.0, 9.99922, 9.999644 
1.549973e+2, 2.159866e+2, -1053783.3, -979041.06, 35856.598, -0.17910711, 0.07741803, -964621.3, -141284.94, 0.0, 9.998623, 9.99963 
1.549989e+2, 2.2598611e+2, -879900.2, -850272.2, 4674.0596, -0.15894991, 0.07206332, -849552.3, -124211.7, 0.0, 9.999166, 9.99958 
1.5500222e+2, 2.3598547e+2, -603473.4, -676975.56, -990.2144, 0.05348764, 0.022277039, -603460.06, 23885.701, 0.0, 10.000427, 9.9994955 
1.5500396e+2, 2.4598542e+2, -535224.44, -615003.2, 16517.709, 0.06475163, 0.08026123, -531939.75, -2592.0874, 0.0, 10.000325, 9.999292 
1.5500475e+2, 2.559855e+2, -595017.9, -595222.6, 38080.49, -0.053143993, 0.13173373, -557039.6, -125689.97, 0.0, 9.999238, 9.999287 
1.5500444e+2, 2.6598486e+2, -455485.0, -412456.88, -51174.016, -0.12271092, 0.113201365, -378458.47, -45103.336, 0.0, 9.999271, 9.999838 
1.5500338e+2, 2.7598354e+2, -274011.13, -302154.2, -19424.072, -0.16021827, -0.030595317, -264097.2, -28732.19, 0.000000019825112, 9.999945, 9.999612 
1.5500513e+2, 2.859833e+2, -189301.17, -317854.94, 29419.916, -0.036971748, 0.042661972, -182888.25, -45520.547, 0.0000019865888, 10.000319, 9.998644 
1.550088e+2, 2.9598382e+2, -90276.22, -212577.98, 19905.209, 0.20673022, 0.19345556, -87118.1, -47752.73, 0.000014949104, 10.000282, 9.998712 
1.5500751e+2, 3.0598143e+2, -1400.6537, -66955.43, -57726.01, 0.094403274, 0.048285138, 32204.557, 32204.557, 0.000059797247, 10.000277, 9.999371 
1.5500556e+2, 3.1598178e+2, -7818.249, -55593.816, 28367.764, -0.031595528, 0.11932686, 5379.7637, 5379.7637, 0.00017773658, 10.000097, 9.999542 
1.6498737e+2, 1.259849e+2, -1926705.8, -1776796.1, -80470.07, 0.024990426, 0.09493816, -1741779.8, -36426.1, 0.0014964563, 9.99828, 10.000389 
1.6498756e+2, 1.3598491e+2, -1689119.5, -1655439.8, -162003.66, 0.1838018, 0.06699482, -1509403.0, 97951.555, 0.0008776996, 9.999474, 9.999982 
1.6498756e+2, 1.4598459e+2, -1589785.6, -1588061.4, 7973.1777, 0.079393305, 0.05502928, -1580903.9, -71545.42, 0.00037921302, 9.999644, 9.99966 
1.6499048e+2, 1.5598416e+2, -1544119.8, -1532984.9, 18628.334, 0.08605934, 0.028318401, -1519109.8, -107746.67, 0.00009882513, 9.999352, 9.999512 
1.6499163e+2, 1.6598429e+2, -1392274.1, -1316005.8, -33602.332, 0.06703702, 0.048590302, -1303313.5, 10047.443, 0.000009884257, 9.999307, 10.000355 
1.6499136e+2, 1.7598467e+2, -1288130.0, -1219315.4, -36734.137, 0.002694952, 0.019191269, -1203391.3, 11963.907, 0.0000002904704, 9.999365, 10.000319 
1.6499333e+2, 1.8598518e+2, -1226819.8, -1170465.9, 34560.227, 0.064485066, 0.060042538, -1154051.9, -36702.094, 0.0, 9.999263, 10.000024 
1.6499689e+2, 1.9598565e+2, -1159012.6, -1094684.9, 26616.902, 0.21967068, 0.07426615, -1085099.8, -65753.42, 0.0, 9.99908, 9.999963 
1.6499798e+2, 2.0598587e+2, -1009544.75, -977538.4, 38458.28, 0.13338977, 0.10971533, -951886.56, -30542.324, 0.0, 9.999475, 9.999903 
1.6499725e+2, 2.1598586e+2, -798442.1, -831938.2, 25933.156, -0.11995207, 0.091877915, -784319.06, 39024.617, 0.0, 10.000275, 9.999844 
1.6499905e+2, 2.2598541e+2, -764380.0, -828706.9, 24786.447, -0.100591965, 0.09629228, -755937.3, -30588.96, 0.0, 10.000112, 9.99927 
1.6500252e+2, 2.3598458e+2, -787869.5, -785831.75, 7600.008, 0.10555535, 0.05623276, -779182.6, -151825.39, 0.0, 9.999267, 9.999299 
1.6500394e+2, 2.4598439e+2, -694250.4, -633665.0, 33339.6, 0.103645876, 0.08491222, -618911.3, -89551.95, 0.0, 9.998988, 9.999808 
1.650041e+2, 2.5598451e+2, -578336.4, -528355.3, 35159.434, -0.028304713, 0.08823535, -510209.88, -78851.734, 0.0, 9.999111, 9.999799 
1.6500391e+2, 2.6598433e+2, -420996.4, -398137.66, -1270.8254, -0.10818231, 0.08816898, -398067.22, -64707.9, 0.0, 9.999503, 9.999831 
1.6500354e+2, 2.7598357e+2, -243342.0, -278040.94, -15569.798, -0.14007567, 0.0024597957, -237380.03, -2015.34, 0.000000024295247, 10.000118, 9.999684 
1.6500542e+2, 2.859833e+2, -198076.8, -309287.25, 44146.598, -0.024434788, 0.06356515, -182682.98, -45314.79, 0.0000019697127, 10.000213, 9.998755 
1.6500898e+2, 2.959835e+2, -112923.33, -198859.69, 33327.02, 0.22068521, 0.16956267, -101513.62, -62144.477, 0.000013995548, 10.000025, 9.998938 
1.65007e+2, 3.059814e+2, -47937.1, -72418.93, -2349.4707, 0.048315573, 0.03321846, -47713.664, -47713.664, 0.000055183133, 9.9998455, 9.999558 
1.6500542e+2, 3.1598213e+2, -71446.055, -58985.543, 48812.8, -0.012748625, 0.1290745, -16007.003, -16007.003, 0.00016346597, 9.999512, 9.99981 
1.749853e+2, 1.2598303e+2, -1979999.1, -1880754.4, -74791.125, -0.07050354, 0.1568273, -1840621.0, -135246.25, 0.0014785845, 9.998258, 9.999678 
1.7498611e+2, 1.3598226e+2, -1731492.9, -1729888.0, -115208.52, 0.06366685, 0.107166156, -1615479.1, -8091.284, 0.00086354057, 9.999435, 9.999474 
1.7498599e+2, 1.4598301e+2, -1527494.8, -1461777.0, -16556.115, -0.07619276, 0.18113957, -1457841.8, 51539.473, 0.00037008742, 9.999637, 10.000541 
1.74989e+2, 1.5598407e+2, -1483590.4, -1407034.1, 22983.152, -0.029238436, 0.20854014, -1400664.3, 10704.691, 0.000094032526, 9.999346, 10.000381 
1.7499061e+2, 1.6598439e+2, -1388152.0, -1302111.4, -43490.32, 0.0035478037, 0.20381138, -1283958.5, 29404.691, 0.000008393363, 9.999277, 10.000467 
1.7499098e+2, 1.7598408e+2, -1287658.3, -1208188.5, -23735.375, -0.0013182833, 0.09666415, -1201639.1, 13724.054, 0.00000020811186, 9.999327, 10.000411 
1.7499208e+2, 1.859838e+2, -1224455.9, -1161022.4, 17006.773, -0.014643749, 0.047927327, -1156750.5, -39386.65, 0.0, 9.999228, 10.0001135 
1.7499371e+2, 1.9598335e+2, -1161190.1, -1082656.9, 34642.504, -0.03469284, -0.03885369, -1069559.6, -50192.992, 0.0, 9.999005, 10.000083 
1.7499614e+2, 2.0598349e+2, -1016538.56, -971661.4, 55507.625, -0.02214655, -0.024941467, -934228.56, -12864.134, 0.0, 9.999382, 9.999988 
1.7499907e+2, 2.1598385e+2, -812632.0, -835297.2, 62288.957, 0.008345872, -0.0154886115, -760653.1, 62706.973, 0.0, 10.000163, 9.999873 
1.7500047e+2, 2.2598392e+2, -784404.3, -847103.0, -18741.465, 0.0070233336, 0.044306707, -779229.4, -53868.453, 0.0, 10.000009, 9.999192 
1.7500076e+2, 2.3598358e+2, -804004.5, -797529.7, -8794.458, -0.021608954, 0.06162391, -791395.7, -164028.69, 0.0, 9.9991665, 9.999268 
1.7500173e+2, 2.4598315e+2, -669841.3, -566294.06, 27149.88, -0.040870246, 0.03830796, -559607.25, -30236.861, 0.0, 9.99892, 10.000299 
1.750032e+2, 2.5598255e+2, -568830.3, -481681.8, 51080.438, -0.05540442, -0.081443965, -458114.97, -26742.01, 0.0, 9.998997, 10.0001745 
1.7500407e+2, 2.6598302e+2, -435934.06, -426469.5, 9273.503, -0.069165185, -0.020900154, -420790.63, -87422.76, 0.0, 9.999484, 9.999646 
1.7500441e+2, 2.759839e+2, -262514.44, -300221.75, 15887.746, -0.092819065, 0.07009401, -256712.86, -21352.361, 0.000000035492793, 10.000035, 9.999575 
1.7500545e+2, 2.8598332e+2, -167314.8, -240165.83, 24498.836, -0.07196508, 0.08166928, -159842.58, -22475.883, 0.0000021240596, 10.000195, 9.999233 
1.7500703e+2, 2.9598197e+2, -87102.85, -127630.91, 40595.57, -0.007321223, -0.015788022, -61994.734, -22613.809, 0.000013429294, 9.99996, 9.99945 
1.750048e+2, 3.0598092e+2, -22620.404, -24346.104, -20588.168, -0.18279524, -0.090249754, -2877.0134, -2877.0134, 0.000050919698, 9.999855, 9.99989 
1.7500518e+2, 3.1598312e+2, -90968.42, -78836.97, 73378.51, -0.047462158, 0.1305825, -11273.911, -11273.911, 0.0001490851, 9.999435, 9.999706 
1.8498361e+2, 1.2597995e+2, -2053075.6, -1849574.1, -29229.459, -0.015320727, 0.12103647, -1845459.1, -140053.92, 0.0014297239, 9.997459, 10.000279 
1.8498535e+2, 1.3597982e+2, -1792856.5, -1706710.5, -33635.223, 0.08582491, 0.08919945, -1695133.6, -87723.13, 0.00082590414, 9.998785, 9.999945 
1.8498528e+2, 1.4598133e+2, -1613682.8, -1459954.8, 54215.85, -0.06398143, 0.19366327, -1442757.9, 66638.1, 0.00034715154, 9.998847, 10.000931 
1.849882e+2, 1.5598246e+2, -1621828.8, -1430472.3, 33762.76, 0.021602275, 0.18888412, -1424689.9, -13307.248, 0.0000844504, 9.9981985, 10.000776 
1.8498972e+2, 1.6598292e+2, -1557992.3, -1376229.1, -6395.712, 0.050940152, 0.17327322, -1376004.3, -62628.19, 0.000006352812, 9.998107, 10.00051 
1.8499002e+2, 1.7598267e+2, -1412785.8, -1267159.1, -13409.089, 0.019461466, 0.069368005, -1265934.8, -50558.535, 0.000000056960435, 9.99847, 10.000416 
1.8499096e+2, 1.8598248e+2, -1258099.3, -1182813.6, 41508.617, -0.034877304, 0.033993885, -1164421.3, -47045.08, 0.0, 9.999038, 10.000047 
1.8499225e+2, 1.9598223e+2, -1065733.6, -1041375.0, 20904.877, -0.11008579, -0.025911601, -1029360.3, -9983.331, 0.0, 9.999693, 10.000031 
1.8499498e+2, 2.0598227e+2, -1027185.75, -982129.75, 39886.066, -0.066799335, -0.017915085, -958849.3, -37473.277, 0.0, 9.999322, 9.999947 
1.8499866e+2, 2.1598236e+2, -1094209.4, -969059.9, 16185.059, 0.053735696, -0.03364761, -967000.6, -143625.44, 0.0, 9.998212, 9.999896 
1.8500012e+2, 2.2598273e+2, -994397.25, -891528.94, -13134.048, 0.060561858, 0.027159218, -889878.5, -164505.98, 0.0, 9.998322, 9.999704 
1.8500006e+2, 2.3598312e+2, -759982.06, -728044.7, 17973.666, -0.006182204, 0.067042716, -719970.7, -92600.47, 0.0, 9.999254, 9.999706 
1.8500103e+2, 2.4598265e+2, -610131.94, -563071.8, 56640.37, -0.022534437, 0.034236208, -525268.44, 4105.0864, 0.0, 9.999428, 10.000083 
1.8500274e+2, 2.5598153e+2, -570641.56, -501479.1, 11240.742, 0.0029072054, -0.117473796, -499698.03, -68316.555, 0.0, 9.999061, 10.000009 
1.8500383e+2, 2.6598197e+2, -500652.9, -455639.03, -2363.1326, -0.013160234, -0.05154197, -455515.28, -122138.35, 0.0, 9.999043, 9.999655 
1.8500446e+2, 2.7598318e+2, -364004.34, -346869.28, -9940.445, -0.050864477, 0.076016694, -342313.75, -106947.305, 0.000000044067633, 9.999332, 9.999596 
1.8500537e+2, 2.8598267e+2, -325843.56, -317179.13, -23990.178, -0.03694405, 0.08503854, -297133.16, -159759.67, 0.000002141611, 9.999079, 9.999255 
1.8500656e+2, 2.959811e+2, -297969.53, -226096.78, -63429.734, 0.032581262, -0.028883794, -189130.8, -149740.28, 0.000012353572, 9.998465, 9.999511 
1.8500432e+2, 3.05981e+2, -56941.26, -21283.465, -75670.38, -0.19202022, -0.025404768, 38630.01, 38630.01, 0.00004451732, 9.999546, 10.0000515 
1.8500625e+2, 3.159821e+2, 209824.14, 14522.234, -43446.758, 0.012953237, 0.08323316, 219053.16, 219053.16, 0.00012891147, 10.001687, 9.999286 
1.949816e+2, 1.2597573e+2, -1926880.3, -1572247.5, -25198.076, -0.027399588, 0.0063718646, -1570466.0, 134977.88, 0.0013506769, 9.997407, 10.002206 
1.9498497e+2, 1.3597761e+2, -1701475.9, -1501693.0, 14957.13, 0.1405996, 0.01788687, -1500579.4, 106842.85, 0.00077082973, 9.998739, 10.0013685 
1.9498503e+2, 1.459795e+2, -1619267.4, -1465657.1, 14534.398, -0.009424827, 0.09703294, -1464294.0, 45108.617, 0.0003170448, 9.998813, 10.000912 
1.949877e+2, 1.5597954e+2, -1627275.1, -1436099.6, 23136.799, 0.12150993, -0.017272227, -1433339.4, -21936.992, 0.000073711046, 9.998175, 10.000749 
1.9498862e+2, 1.6598e+2, -1564595.0, -1386154.4, -1727.5417, 0.103533514, -0.026636196, -1386137.6, -72739.52, 0.0000047225935, 9.998076, 10.000464 
1.949882e+2, 1.7598051e+2, -1420901.9, -1276409.6, 15133.353, -0.03876126, -0.05214623, -1274841.8, -59448.72, 0.0000000036456946, 9.998433, 10.000374 
1.9498958e+2, 1.8598129e+2, -1286111.5, -1226305.5, 54555.45, -0.102868006, 0.02556568, -1193995.3, -76609.266, 0.0, 9.998969, 9.999787 
1.9499211e+2, 1.9598216e+2, -1095617.9, -1086107.6, 50504.87, -0.11744496, 0.104837656, -1040134.56, -20756.18, 0.0, 9.999617, 9.999764 
1.9499412e+2, 2.0598218e+2, -1052540.1, -1008002.94, -11879.799, -0.1085317, 0.13023077, -1005032.3, -83652.67, 0.0, 9.999208, 9.999822 
1.9499567e+2, 2.1598138e+2, -1110362.0, -975884.1, -7701.624, -0.091768086, 0.037603512, -975444.5, -152055.64, 0.0, 9.9980955, 9.999906 
1.9499768e+2, 2.2598188e+2, -938014.0, -746689.5, 10007.594, -0.037327163, 0.052888706, -746167.44, -20784.74, 0.0, 9.998205, 10.000755 
1.9500002e+2, 2.3598313e+2, -716789.7, -608789.94, 59075.89, 0.040083826, 0.07580522, -582752.7, 44614.52, 0.0, 9.99913, 10.000584 
1.9500151e+2, 2.4598292e+2, -685788.8, -694830.0, 31777.78, 0.05903365, 0.073417194, -658211.7, -128843.016, 0.0, 9.999324, 9.999226 
1.950023e+2, 2.5598153e+2, -641890.75, -618353.06, 11867.77, 0.027906116, -0.01851558, -613408.2, -182025.05, 0.0, 9.998932, 9.999265 
1.9500287e+2, 2.6598132e+2, -493542.13, -434183.7, -1641.7253, -0.038584355, 0.0058313473, -434138.3, -100753.08, 0.0, 9.999008, 9.999827 
1.9500329e+2, 2.7598155e+2, -367681.1, -343444.8, 11534.931, -0.12940292, 0.01754048, -338832.63, -103450.06, 0.000000036761158, 9.999274, 9.999657 
1.9500485e+2, 2.859812e+2, -364335.03, -386565.94, -57246.3, -0.022547025, 0.07241449, -317135.03, -179745.83, 0.0000018181237, 9.99904, 9.998795 
1.9500728e+2, 2.9598105e+2, -341860.2, -286789.3, -59434.74, 0.22719976, 0.14163192, -248821.39, -209424.45, 0.000010151812, 9.998345, 9.999146 
1.9500527e+2, 3.0598173e+2, -62734.113, -23725.295, 857.66656, -0.07990214, 0.23626511, -23706.447, -23706.447, 0.00003534469, 9.999513, 10.000046 
1.9500783e+2, 3.159795e+2, 162128.72, -56439.465, 47264.77, -0.053505894, 0.016905528, 171911.7, 171911.7, 0.00010294475, 10.00159, 9.99883 
2.0497978e+2, 1.259728e+2, -1654369.9, -1368992.1, 53798.055, -0.014394941, -0.069392085, -1359187.3, 346282.16, 0.0012481074, 9.998971, 10.002854 
2.0498396e+2, 1.3597523e+2, -1879645.3, -1564246.4, -34356.773, 0.24623935, -0.032234572, -1560547.3, 46893.51, 0.0007037624, 9.997393, 10.00161 
2.0498383e+2, 1.4597699e+2, -1820090.0, -1558924.1, -26696.006, 0.065992355, 0.02853578, -1556223.3, -46800.7, 0.00028324383, 9.9974375, 10.000933 
2.0498593e+2, 1.5597695e+2, -1546651.6, -1396501.1, -50786.87, 0.10683301, -0.09631639, -1380936.5, 30488.738, 0.000063005726, 9.99873, 10.000752 
2.049871e+2, 1.6597773e+2, -1397615.4, -1315346.4, -57175.96, 0.09048647, -0.06811252, -1286045.5, 27373.81, 0.0000035155435, 9.999265, 10.000379 
2.049874e+2, 1.7597885e+2, -1309515.6, -1231178.8, -67743.53, 0.0058678254, -0.021466848, -1192095.4, 23314.633, 0.0000000004928599, 9.999233, 10.000302 
2.0498912e+2, 1.8597972e+2, -1253869.0, -1190346.6, 15227.863, -0.044881936, 0.057648282, -1186884.8, -69482.58, 0.0, 9.999101, 9.9999695 
2.049918e+2, 1.9598033e+2, -1188175.8, -1114375.9, 17799.803, -0.06861094, 0.092175886, -1110307.1, -90910.7, 0.0, 9.9989, 9.999915 
2.0499323e+2, 2.0598046e+2, -1114053.3, -1034489.94, -28169.904, -0.08978082, 0.12223143, -1025526.1, -104129.94, 0.0, 9.998771, 9.999853 
2.0499381e+2, 2.1598011e+2, -1029218.9, -934603.7, -28963.695, -0.10781284, 0.07229959, -926441.44, -103039.945, 0.0, 9.998643, 9.9999275 
2.0499602e+2, 2.2598055e+2, -863487.25, -706928.7, 8674.885, -0.041824196, 0.07732298, -706449.5, 18946.61, 0.0, 9.998695, 10.00079 
2.0499937e+2, 2.3598135e+2, -757352.0, -628309.2, -43803.8, 0.083367206, 0.050497655, -614844.8, 12540.166, 0.0, 9.998843, 10.000592 
2.0500095e+2, 2.459813e+2, -736180.0, -711623.4, -65024.375, 0.095835425, 0.06442855, -657728.25, -128343.336, 0.0, 9.998943, 9.9992895 
2.0500125e+2, 2.5598058e+2, -618465.75, -600969.0, -37421.68, 0.029131731, 0.031444248, -571286.7, -139892.86, 0.0, 9.999059, 9.999321 
2.0500198e+2, 2.6598033e+2, -467049.13, -399389.84, 8949.123, -0.027502442, 0.040678654, -398226.2, -64830.73, 0.0, 9.999103, 10.000013 
2.0500296e+2, 2.7598011e+2, -381440.03, -333906.97, -1733.2936, -0.0738678, -0.013627452, -333843.84, -98448.27, 0.00000002096579, 9.999125, 9.9997835 
2.0500478e+2, 2.8597948e+2, -287825.1, -406045.38, -40106.285, 0.03423787, 0.03525716, -275503.28, -138098.11, 0.0000012828043, 9.99982, 9.998281 
2.0500718e+2, 2.9597926e+2, 16021.968, -160280.9, -64466.168, 0.26031628, 0.14370653, 37079.336, 76494.38, 0.000007381431, 10.001016, 9.99872 
2.0500532e+2, 3.059802e+2, 137450.86, 83569.15, 24407.184, -0.081193216, 0.28245836, 146862.72, 146862.72, 0.000026183836, 10.000842, 10.0001545 
2.0500885e+2, 3.15977e+2, -127828.65, -171836.13, 6626.404, 0.005733849, -0.046980407, -126852.53, -126852.53, 0.000078692225, 9.9995165, 9.999032 
2.149773e+2, 1.2597111e+2, -1706135.4, -1460337.9, -57130.9, -0.21972232, -0.10630308, -1447707.9, 257774.25, 0.0011286365, 9.998906, 10.002256 
2.1498206e+2, 1.3597272e+2, -1935962.9, -1688901.9, -71789.055, 0.28720093, -0.05872033, -1669556.8, -62091.617, 0.00062779407, 9.997423, 10.000739 
2.1498126e+2, 1.4597401e+2, -1829791.9, -1572821.3, 8833.121, 0.032143284, -0.00007819006, -1572518.0, -63063.96, 0.00024660726, 9.997411, 10.000848 
2.1498254e+2, 1.5597478e+2, -1549137.1, -1403063.6, 5832.5864, -0.13642906, -0.04016282, -1402831.1, 8619.018, 0.000052325075, 9.9987335, 10.000705 
2.1498476e+2, 1.6597614e+2, -1417050.8, -1341811.6, -70344.65, -0.09774537, 0.055891495, -1299659.0, 13780.928, 0.000002586899, 9.999206, 10.000224 
2.1498731e+2, 1.7597768e+2, -1322064.8, -1243701.8, -57806.79, 0.0452596, 0.155615, -1213049.0, 2378.4375, 0.000000000052014764, 9.999182, 10.000235 
2.1498926e+2, 1.8597776e+2, -1225161.5, -1112856.6, -1941.113, 0.033999268, 0.12848048, -1112823.1, 4602.121, 0.0, 9.99902, 10.000543 
2.1499097e+2, 1.9597672e+2, -1155245.1, -1032720.94, 23344.766, -0.070964985, -0.062771864, -1028423.75, -8992.488, 0.0, 9.998841, 10.000504 
2.1499205e+2, 2.0597719e+2, -1113975.1, -1013904.56, -44976.13, -0.10981308, -0.036812462, -996661.44, -75235.93, 0.0, 9.99868, 10.000038 
2.149927e+2, 2.1597853e+2, -1040642.9, -931084.3, -22914.43, -0.10940176, 0.06520676, -926484.75, -103071.35, 0.0, 9.998524, 10.000008 
2.1499476e+2, 2.2597864e+2, -954402.25, -861919.0, 2712.8557, -0.059546698, 0.08951096, -861839.5, -136426.03, 0.0, 9.998556, 9.999789 
2.1499777e+2, 2.3597772e+2, -835126.25, -754363.56, -25781.06, 0.014982681, -0.010615033, -746835.44, -119411.98, 0.0, 9.998695, 9.999793 
2.1499906e+2, 2.4597791e+2, -679603.44, -578075.44, -70880.555, -0.012373343, 0.008062146, -541655.5, -12233.692, 0.0, 9.998874, 10.000241 
2.1499926e+2, 2.5597876e+2, -574109.75, -480157.97, -22333.264, -0.105821885, 0.038830526, -475119.34, -43706.355, 0.0, 9.9989395, 10.000208 
2.1500076e+2, 2.6597917e+2, -463411.78, -378010.44, -1327.1135, -0.08500274, 0.060206123, -377989.8, -44582.973, 0.0, 9.999045, 10.000184 
2.150031e+2, 2.7597883e+2, -391575.72, -329362.2, 16689.4, 0.00064372335, -0.018406682, -325167.84, -89761.375, 0.00000000626477, 9.999016, 9.999865 
2.1500477e+2, 2.8597742e+2, -323999.34, -471305.9, -6503.7983, 0.024629569, -0.028444605, -323712.75, -186290.47, 0.00000075455597, 9.999783, 9.9978485 
2.1500608e+2, 2.9597577e+2, -28127.615, -237670.7, -14582.734, 0.016801748, -0.016472489, -27117.627, 12326.725, 0.0000049684672, 10.000956, 9.998218 
2.1500425e+2, 3.0597654e+2, 149749.75, 100260.45, -31380.695, -0.2970478, 0.12643215, 164968.16, 164968.16, 0.000019574018, 10.000872, 10.00026 
2.1500885e+2, 3.1597462e+2, -96454.53, -93726.17, -42805.77, -0.005611301, -0.096408844, -52262.85, -52262.85, 0.000061826526, 9.999451, 9.999609 
2.2497632e+2, 1.2597026e+2, -2005017.6, -1684743.4, -48425.836, -0.108993806, -0.037964262, -1677581.5, 27909.182, 0.0009987261, 9.997185, 10.001542 
2.2497998e+2, 1.3597079e+2, -1730066.8, -1656989.6, -83953.89, 0.26197636, -0.032031324, -1601967.8, 5519.7734, 0.0005469882, 9.999146, 10.00011 
2.2497901e+2, 1.4597166e+2, -1537741.5, -1407350.1, 46093.004, -0.021425499, -0.00032582338, -1392701.9, 116779.05, 0.00020906689, 9.999304, 10.001083 
2.2498104e+2, 1.559736e+2, -1619247.4, -1412885.1, 43527.406, -0.12488522, 0.05756981, -1404079.8, 7384.2637, 0.000042237294, 9.998154, 10.000923 
2.2498366e+2, 1.6597503e+2, -1558677.8, -1409213.9, 18180.07, -0.072294116, 0.15147358, -1407034.4, -93581.9, 0.0000020119714, 9.99823, 10.000227 
2.2498637e+2, 1.7597578e+2, -1331994.4, -1251776.1, 10318.206, 0.04175137, 0.17163204, -1250470.3, -35022.12, 0.0, 9.999127, 10.000203 
2.2498819e+2, 1.8597567e+2, -1207797.0, -1101577.4, 37467.4, 0.026277503, 0.12469878, -1089691.4, 27756.65, 0.0, 9.999123, 10.00057 
2.2498958e+2, 1.9597493e+2, -1219091.6, -1060532.8, -563.78516, -0.06605866, -0.0382053, -1060530.8, -41079.332, 0.0, 9.998399, 10.000529 
2.2499087e+2, 2.0597532e+2, -1092514.5, -979144.6, -34155.723, -0.092108466, -0.031810053, -969649.56, -48204.266, 0.0, 9.998726, 10.00026 
2.2499208e+2, 2.1597628e+2, -855866.8, -824979.56, -32381.668, -0.07696679, 0.010264197, -804547.3, 18887.47, 0.0, 9.999719, 10.000167 
2.2499408e+2, 2.2597635e+2, -796142.8, -830121.4, 21613.033, -0.040416155, 0.044902917, -785641.06, -60205.074, 0.0, 9.999827, 9.999398 
2.2499666e+2, 2.3597565e+2, -771885.2, -756815.2, 14842.127, 0.012945436, 0.0041888333, -747704.94, -120258.37, 0.0, 9.999274, 9.999495 
2.24998e+2, 2.4597612e+2, -629785.75, -518322.0, -7142.047, -0.009626847, 0.046536155, -517866.22, 11576.329, 0.0, 9.999062, 10.000566 
2.249985e+2, 2.5597724e+2, -523715.38, -429664.9, -30017.332, -0.07699842, 0.07201215, -420901.13, 10528.926, 0.0, 9.999162, 10.00046 
2.2500032e+2, 2.6597753e+2, -469313.2, -416192.25, -31114.074, -0.03464563, 0.092670664, -401843.72, -68418.52, 0.0, 9.999159, 9.9998665 
2.2500297e+2, 2.7597705e+2, -383910.1, -350136.8, -69514.36, 0.08515342, 0.02602072, -295487.44, -60059.09, 0.00000000006385136, 9.999175, 9.999645 
2.2500476e+2, 2.8597552e+2, -329330.16, -420351.88, -11831.289, 0.06618702, -0.012126716, -327817.4, -190374.3, 0.00000032397858, 9.999507, 9.998333 
2.2500595e+2, 2.9597366e+2, -143523.31, -260336.14, 18929.283, -0.0363153, -0.068107426, -140532.44, -101069.945, 0.000003287384, 10.000019, 9.99851 
2.2500443e+2, 3.059735e+2, 4975.233, -25802.648, -21729.887, -0.318425, 0.0015863419, 16213.487, 16213.487, 0.000016014252, 10.000127, 9.999744 
2.2500941e+2, 3.1597316e+2, -49803.39, -93744.44, -151535.56, 0.09906658, -0.029610066, 81346.07, 81346.07, 0.000053501928, 9.999877, 9.999394 
2.3497623e+2, 1.2597024e+2, -2070312.9, -1815403.6, -40138.055, 0.09990889, 0.12071551, -1809232.9, -103737.766, 0.0008678266, 9.997174, 10.000652 
2.3497735e+2, 1.3596925e+2, -1759537.4, -1731392.5, -17199.65, 0.05596115, 0.051191334, -1723242.0, -115732.63, 0.00046623294, 9.999187, 9.99959 
2.349766e+2, 1.4596966e+2, -1501371.1, -1308748.0, -11490.703, -0.21987389, 0.01657518, -1308065.0, 201440.86, 0.00017258529, 9.999212, 10.001803 
2.3498103e+2, 1.5597337e+2, -1579859.8, -1327167.5, 20775.94, 0.029734954, 0.18697155, -1325470.8, 85996.375, 0.000033446406, 9.998137, 10.00152 
2.3498347e+2, 1.6597436e+2, -1566705.6, -1408814.1, 39161.203, 0.058777936, 0.20741598, -1399634.8, -86176.8, 0.0000017722703, 9.998161, 10.000264 
2.349843e+2, 1.7597301e+2, -1333974.8, -1246882.3, 49899.63, -0.10538311, 0.012868713, -1224199.8, -8726.227, 0.0000000001389195, 9.999085, 10.000259 
2.3498556e+2, 1.8597339e+2, -1263766.3, -1192109.3, -1737.6337, -0.17332584, 0.04274574, -1192067.1, -74595.74, 0.0, 9.999018, 10.000001 
2.3498721e+2, 1.9597492e+2, -1263816.1, -1138646.9, -12149.997, -0.16683018, 0.1660543, -1137478.4, -118020.766, 0.0, 9.998335, 10.000026 
2.3498926e+2, 2.059748e+2, -1092052.3, -946410.75, -7137.4165, -0.14625578, 0.1289854, -946061.8, -24605.494, 0.0, 9.998592, 10.000547 
2.3499158e+2, 2.1597333e+2, -856140.1, -793264.1, 12874.909, -0.12391127, -0.101403736, -790729.94, 32735.93, 0.0, 9.9995775, 10.000452 
2.349937e+2, 2.2597368e+2, -804558.3, -813206.5, -8122.949, -0.0841666, -0.060914494, -799680.25, -74216.96, 0.0, 9.999685, 9.999583 
2.3499571e+2, 2.3597515e+2, -780492.2, -746041.44, 8788.104, -0.034628086, 0.09976332, -743929.2, -116475.24, 0.0, 9.999152, 9.999631 
2.3499732e+2, 2.4597587e+2, -659851.6, -565328.4, -15743.869, -0.013013916, 0.17717496, -562775.0, -33327.082, 0.0, 9.998994, 10.000275 
2.3499863e+2, 2.559759e+2, -565156.9, -487533.06, -15725.283, -0.00874321, 0.12508047, -484468.4, -53022.473, 0.0, 9.99904, 10.000119 
2.3500027e+2, 2.659756e+2, -535843.2, -537922.3, -42018.004, 0.020283744, 0.14131896, -494851.9, -161401.78, 0.0, 9.999093, 9.999063 
2.3500222e+2, 2.7597472e+2, -438318.25, -442725.2, -53495.688, 0.06443755, 0.12135642, -386980.7, -151519.55, 0.0, 9.999082, 9.999058 
2.350043e+2, 2.8597382e+2, -233216.05, -212398.39, -1984.6357, 0.04088467, 0.0895557, -212210.88, -74743.516, 0.00000009734078, 9.999473, 9.999778 
2.3500642e+2, 2.959729e+2, -81719.9, -112008.74, 48062.414, -0.02688172, -0.0111849485, -46472.363, -7002.258, 0.0000024854203, 9.999927, 9.999581 
2.3500544e+2, 3.0597112e+2, -65030.504, -169535.64, -36147.086, -0.25962168, -0.09167882, -53746.133, -53746.133, 0.000014818683, 10.000118, 9.998761 
2.3500986e+2, 3.1597266e+2, -126559.46, -245010.95, -160934.55, 0.09754941, 0.15349922, -14298.718, -14298.718, 0.000051300616, 9.999828, 9.998386 
2.4497487e+2, 1.2596852e+2, -1877120.5, -1717247.9, -28075.627, 0.19169973, 0.14335722, -1712460.8, -6945.4214, 0.0007423371, 9.998499, 10.000687 
2.4497576e+2, 1.3596845e+2, -1851646.8, -1738736.1, 55118.035, 0.025543107, 0.13474225, -1716291.5, -108772.16, 0.00038816038, 9.998407, 9.999919 
2.4497512e+2, 1.4596832e+2, -1661259.4, -1383191.6, 30994.7, -0.22723326, 0.029664215, -1379778.6, 129741.29, 0.00013769997, 9.998094, 10.001825 
2.4497984e+2, 1.5597142e+2, -1653106.3, -1361840.5, -10904.386, 0.1306992, 0.13411172, -1361432.8, 50053.77, 0.000025817635, 9.997639, 10.001515 
2.4498215e+2, 1.6597253e+2, -1595983.9, -1391689.3, 76419.055, 0.13294421, 0.15453069, -1366267.1, -52791.914, 0.0000016011192, 9.997818, 10.000554 
2.4498266e+2, 1.7597185e+2, -1425339.9, -1263168.6, 78481.4, -0.13244615, -0.0024279398, -1231408.3, -15924.669, 0.0000000006420841, 9.998337, 10.000513 
2.4498409e+2, 1.8597263e+2, -1330047.3, -1234101.3, 41682.535, -0.19666232, 0.060281117, -1218522.4, -101043.86, 0.0, 9.998621, 9.999892 
2.449862e+2, 1.9597435e+2, -1219698.9, -1127739.9, 46288.637, -0.11281938, 0.21373324, -1108475.5, -89010.91, 0.0, 9.9987, 9.999911 
2.4498849e+2, 2.0597436e+2, -1082215.8, -951038.8, 94360.94, -0.08247351, 0.19750872, -901710.6, 19752.99, 0.0, 9.998699, 10.000462 
2.4499096e+2, 2.1597297e+2, -1015914.8, -874052.4, 60943.574, -0.0809491, -0.015606227, -851466.94, -27993.6, 0.0, 9.9985075, 10.000408 
2.4499291e+2, 2.2597334e+2, -923566.8, -843310.9, 38762.914, -0.077961154, 0.014547944, -827646.2, -102176.2, 0.0, 9.998748, 9.999827 
2.449945e+2, 2.3597476e+2, -750103.6, -710106.9, 41978.79, -0.07011826, 0.14551327, -683606.3, -56147.156, 0.0, 9.999272, 9.999818 
2.4499644e+2, 2.4597509e+2, -633741.75, -605206.06, 35322.69, -0.012288598, 0.20051886, -581378.44, -51921.996, 0.0, 9.999393, 9.999816 
2.4499865e+2, 2.5597453e+2, -564817.6, -533493.3, 1963.3073, 0.08719262, 0.13359736, -533370.75, -101910.06, 0.0, 9.9992485, 9.999704 
2.450003e+2, 2.6597393e+2, -487968.9, -548660.4, 28233.133, 0.09666624, 0.15662117, -476866.2, -143397.16, 0.0, 9.999553, 9.998773 
2.4500167e+2, 2.7597317e+2, -291277.34, -393316.4, 31921.037, 0.055429395, 0.17087746, -282114.28, -46632.867, 0.0, 10.000185, 9.998864 
2.4500397e+2, 2.859731e+2, -141192.25, -121334.14, 63555.574, 0.04612155, 0.21043283, -66936.7, 70543.08, 0.00000009803459, 9.999903, 10.0002 
2.450067e+2, 2.959733e+2, -186985.13, -116027.88, 16314.944, 0.06244967, 0.17654066, -112456.414, -72985.56, 0.0000023443192, 9.999007, 9.999994 
2.4500632e+2, 3.059704e+2, -158409.77, -189714.84, 13446.049, -0.13607211, -0.043370686, -153427.42, -153427.42, 0.000014153015, 9.999385, 9.998974 
2.4501055e+2, 3.1597224e+2, -27115.85, -195009.77, -100992.88, 0.16277914, 0.2076397, 20263.71, 20263.71, 0.000049336963, 10.000538, 9.998373 
2.5497136e+2, 1.2596515e+2, -1813371.4, -1579226.9, -97725.32, -0.06751192, 0.03420656, -1543799.4, 161751.23, 0.00062344765, 9.998477, 10.001647 
2.5497484e+2, 1.359683e+2, -1759528.1, -1544066.4, 61474.848, 0.06930938, 0.20363334, -1527760.5, 79757.38, 0.0003143659, 9.998402, 10.001255 
2.5497434e+2, 1.4596759e+2, -1723389.8, -1500122.5, -757.72815, -0.14853618, 0.022721708, -1500119.9, 9403.874, 0.00010539114, 9.998043, 10.001044 
2.5497696e+2, 1.5596762e+2, -1701259.8, -1453037.0, -13401.517, 0.047269225, -0.10369866, -1452315.6, -40792.492, 0.000019009012, 9.997604, 10.000901 
2.5497922e+2, 1.6596957e+2, -1565147.6, -1308847.8, 85067.38, 0.03249146, -0.008767027, -1283183.3, 30321.113, 0.0000013062046, 9.99774, 10.00116 
2.5498107e+2, 1.7597245e+2, -1391510.0, -1182505.3, 110395.29, -0.15500204, 0.13301186, -1134994.9, 80482.03, 0.000000000635992, 9.998299, 10.0010805 
2.5498343e+2, 1.859735e+2, -1316583.9, -1191768.9, 34824.242, -0.15351963, 0.18055226, -1182710.1, -65242.074, 0.0, 9.99855, 10.000219 
2.5498617e+2, 1.9597317e+2, -1209201.9, -1091765.9, 60637.555, -0.017806094, 0.093023986, -1066075.9, -46602.75, 0.0, 9.9986315, 10.000192 
2.5498825e+2, 2.059739e+2, -1140373.8, -1037230.1, 77074.75, 0.0020413415, 0.16323145, -996064.9, -74596.65, 0.0, 9.998554, 9.99994 
2.5498992e+2, 2.1597508e+2, -1061892.4, -943738.06, 67040.3, -0.064163655, 0.25923833, -913459.1, -90000.47, 0.0, 9.998398, 9.999982 
2.5499132e+2, 2.2597523e+2, -914199.0, -797404.44, 46532.56, -0.134827, 0.2676517, -781132.3, -55675.234, 0.0, 9.998632, 10.000198 
2.549926e+2, 2.3597446e+2, -748567.5, -678658.3, 71507.2, -0.21143012, 0.13924049, -634019.5, -6556.567, 0.0, 9.999148, 10.0000925 
2.5499508e+2, 2.4597378e+2, -690072.56, -703080.0, 18079.408, -0.112398826, 0.11550551, -677362.7, -147894.2, 0.0, 9.999313, 9.999182 
2.5499827e+2, 2.5597298e+2, -620681.0, -622863.3, 8841.435, 0.09950522, 0.089521885, -612863.6, -181388.02, 0.0, 9.99913, 9.999149 
2.5500005e+2, 2.6597252e+2, -478694.34, -511025.66, 42092.727, 0.09069159, 0.13660313, -449769.78, -116287.16, 0.0, 9.999479, 9.999065 
2.55001e+2, 2.7597216e+2, -291423.16, -372074.5, 63568.87, -0.059399772, 0.16555202, -256468.3, -20977.453, 0.0, 10.000086, 9.9990635 
2.5500336e+2, 2.859732e+2, -191357.84, -207864.02, 16451.553, -0.030286886, 0.33717835, -181205.31, -43723.324, 0.00000013920514, 9.99984, 9.999628 
2.5500637e+2, 2.959748e+2, -236335.84, -181936.05, -1483.5812, 0.0999158, 0.49692777, -181895.63, -142430.22, 0.0000022917138, 9.998864, 9.999602 
2.5500676e+2, 3.0597124e+2, -58382.137, 16997.875, 51683.484, -0.05574573, 0.14505358, 43274.418, 43274.418, 0.0000129202135, 9.999382, 10.000398 
2.5501084e+2, 3.1597152e+2, 23165.521, -86970.63, -43423.816, 0.07545566, 0.11517001, 38226.76, 38226.76, 0.00004582413, 10.000507, 9.999142 
2.649691e+2, 1.2596378e+2, -1961450.9, -1626132.0, -6244.042, -0.06809053, 0.015094975, -1626015.8, 79548.234, 0.00051409315, 9.997317, 10.001889 
2.6497322e+2, 1.359674e+2, -1853842.3, -1534906.4, 72085.945, 0.12713042, 0.16485745, -1519370.4, 88154.37, 0.0002486299, 9.997477, 10.001778 
2.6497293e+2, 1.45967e+2, -1771503.6, -1580706.3, 33918.13, -0.08002096, 0.01780218, -1574856.0, -65327.496, 0.00007773356, 9.9979725, 10.000523 
2.6497486e+2, 1.5596673e+2, -1516346.5, -1415659.4, 10275.919, 0.011031694, -0.08730235, -1414621.3, -3087.9165, 0.000013419433, 9.999091, 10.000446 
2.6497725e+2, 1.6596863e+2, -1357795.6, -1191772.1, 105636.78, 0.00016406298, 0.015007549, -1140433.4, 173082.02, 0.0000010267595, 9.99909, 10.001314 
2.6497972e+2, 1.7597173e+2, -1392460.5, -1167132.8, 73881.86, -0.10953833, 0.16291922, -1145068.4, 70415.9, 0.0000000012219834, 9.9982195, 10.001225 
2.649823e+2, 1.859726e+2, -1370549.5, -1198297.4, 11814.636, -0.08956329, 0.17756337, -1197490.9, -80014.88, 0.0, 9.998099, 10.000395 
2.649851e+2, 1.9597185e+2, -1229477.8, -1087974.5, -2007.3557, 0.031902947, 0.033099245, -1087946.1, -68461.91, 0.0, 9.998429, 10.000321 
2.6498735e+2, 2.0597266e+2, -1132720.9, -1046997.7, 43255.863, 0.056084685, 0.11196728, -1028964.44, -107485.445, 0.0, 9.998662, 9.999823 
2.6498914e+2, 2.1597435e+2, -1021531.0, -939054.4, 39875.29, 0.00884588, 0.27085802, -922928.6, -99462.43, 0.0, 9.998735, 9.999857 
2.6499048e+2, 2.2597466e+2, -901384.4, -776561.56, 48237.504, -0.07938375, 0.29538417, -760093.0, -34629.582, 0.0, 9.998655, 10.000334 
2.6499152e+2, 2.3597392e+2, -844275.0, -715611.4, 28078.31, -0.1912637, 0.15819636, -709750.75, -82281.984, 0.0, 9.998448, 10.000182 
2.6499417e+2, 2.4597302e+2, -753073.75, -745147.75, 22003.297, -0.10919605, 0.11681081, -726753.44, -197277.25, 0.0, 9.998956, 9.999054 
2.649978e+2, 2.5597185e+2, -497109.88, -571408.4, 28195.564, 0.10273119, 0.06492019, -487621.63, -56134.973, 0.0, 10.000034, 9.999054 
2.6499963e+2, 2.659712e+2, -407982.3, -471782.94, 68190.09, 0.08291586, 0.096145086, -364599.7, -31105.148, 0.0, 9.999935, 9.999122 
2.6500034e+2, 2.7597097e+2, -437816.6, -429102.5, 48629.023, -0.07409035, 0.13015951, -384635.72, -149135.4, 0.0, 9.99904, 9.99917 
2.650025e+2, 2.8597185e+2, -374909.34, -303298.47, 29318.398, -0.0314252, 0.2839856, -292826.5, -155333.63, 0.00000017298198, 9.998597, 9.999575 
2.6500526e+2, 2.9597297e+2, -289426.63, -204994.53, 34792.254, 0.1316907, 0.39794382, -192505.05, -153022.94, 0.000002277503, 9.9984665, 9.999645 
2.6500672e+2, 3.059702e+2, -61058.387, 37511.445, 146909.63, 0.017634459, 0.11289563, 143182.78, 143182.78, 0.000011809922, 9.999256, 10.000611 
2.6501104e+2, 3.1597176e+2, 31708.227, -43231.96, -83175.45, 0.064307176, 0.19107261, 85464.03, 85464.03, 0.000042458643, 10.000379, 9.999507 
2.7496755e+2, 1.2596428e+2, -1994783.5, -1694290.3, -55313.848, -0.022801762, 0.067446955, -1684431.6, 21124.936, 0.00042131313, 9.997306, 10.001428 
2.749703e+2, 1.359659e+2, -1866777.8, -1561591.3, 85138.03, 0.055340417, 0.032422476, -1539447.0, 68091.664, 0.0001952308, 9.997479, 10.001589 
2.7497047e+2, 1.459667e+2, -1794790.3, -1624332.5, 58028.016, -0.16192521, 0.029071294, -1606453.6, -96920.84, 0.000056360343, 9.997951, 10.000237 
2.749733e+2, 1.5596889e+2, -1537121.5, -1455524.9, 59653.406, -0.08263571, 0.19922236, -1424052.6, -12536.669, 0.000009372096, 9.999082, 10.00018 
2.7497593e+2, 1.6596982e+2, -1382772.6, -1234314.8, 61761.496, -0.06813254, 0.2326583, -1211980.8, 101526.43, 0.0000008660051, 9.999053, 10.001035 
2.7497816e+2, 1.7596965e+2, -1418658.4, -1210972.1, 56407.547, -0.119420975, 0.08224886, -1196640.8, 18865.33, 0.000000004874734, 9.998179, 10.000939 
2.749804e+2, 1.8596989e+2, -1387618.0, -1211311.0, 12884.343, -0.11783739, 0.050864156, -1210374.4, -92871.766, 0.0, 9.998003, 10.000352 
2.7498266e+2, 1.9597039e+2, -1238932.1, -1090158.5, 22946.758, -0.08238166, 0.030956991, -1086699.6, -67201.53, 0.0, 9.99836, 10.000338 
2.7498534e+2, 2.0597075e+2, -1130403.0, -1016941.75, 34849.215, -0.030373557, 0.053220447, -1007092.8, -85597.734, 0.0, 9.998555, 10.000081 
2.7498826e+2, 2.1597078e+2, -1026701.25, -914632.25, 53821.727, 0.022745494, 0.016934933, -892970.9, -69474.94, 0.0, 9.998586, 10.000094 
2.7499002e+2, 2.2597165e+2, -939198.8, -817132.4, 29375.195, -0.014025931, 0.096840575, -810431.1, -84942.02, 0.0, 9.998495, 10.000134 
2.7499095e+2, 2.3597299e+2, -874348.9, -746448.5, 35178.582, -0.11970298, 0.19114271, -737411.3, -109933.13, 0.0, 9.998311, 10.000039 
2.749934e+2, 2.459727e+2, -737917.44, -694416.1, 51491.637, -0.110019736, 0.19321768, -660269.75, -130789.016, 0.0, 9.998873, 9.99944 
2.7499682e+2, 2.5597095e+2, -489223.72, -534287.5, 73362.26, -0.026563512, 0.04761274, -435011.2, -3515.966, 0.0, 9.999936, 9.99936 
2.7499864e+2, 2.6596987e+2, -430324.5, -500269.34, 20040.252, -0.035496347, 0.030937547, -424989.6, -91484.1, 0.0, 9.999867, 9.998954 
2.7499932e+2, 2.759693e+2, -463721.25, -456239.44, 28079.426, -0.10503607, 0.04794911, -431652.84, -196140.44, 0.00000000009324417, 9.998928, 9.999036 
2.7500108e+2, 2.8596875e+2, -342570.03, -224852.06, 10827.637, -0.062772416, 0.034124117, -223864.42, -86348.72, 0.00000023612336, 9.998552, 10.000131 
2.75003e+2, 2.9596764e+2, -265961.72, -138509.25, 48035.85, 0.02189668, -0.12535465, -122432.75, -82910.7, 0.0000024951785, 9.998386, 10.000141 
2.7500564e+2, 3.059675e+2, -124239.375, -85873.1, 183107.81, -0.039350905, -0.13061175, 79053.69, 79053.69, 0.0000116764495, 9.999235, 9.999766 
2.7501038e+2, 3.1597313e+2, -3112.76, -80790.336, -8208.099, -0.10353166, 0.44719133, -2254.894, -2254.894, 0.00004063622, 10.000236, 9.999315 
2.849651e+2, 1.2596393e+2, -2184981.5, -1811335.0, -43011.836, 0.06917283, 0.09179543, -1806447.6, -100887.75, 0.00034670465, 9.99614, 10.001172 
2.8496778e+2, 1.3596474e+2, -1759869.9, -1522436.5, 59362.375, 0.02591689, -0.0035949892, -1508422.1, 99129.016, 0.00015383656, 9.998292, 10.0014515 
2.849688e+2, 1.4596617e+2, -1662540.3, -1519539.3, 62321.832, -0.15081686, 0.043082006, -1496190.8, 13347.533, 0.00004093297, 9.998687, 10.000599 
2.8497198e+2, 1.5596896e+2, -1660005.5, -1478393.6, 84606.87, -0.06439886, 0.23697045, -1445086.5, -33573.004, 0.0000066741927, 9.998076, 10.000509 
2.849747e+2, 1.6596952e+2, -1600641.4, -1383341.6, 99751.78, -0.022354485, 0.23825447, -1344495.0, -30986.43, 0.00000074756446, 9.997751, 10.000647 
2.8497702e+2, 1.7596832e+2, -1521003.5, -1301304.8, 66670.6, -0.015874967, 0.028476322, -1282655.6, -67136.28, 0.000000006090155, 9.997646, 10.000588 
2.8497908e+2, 1.8596867e+2, -1378363.9, -1182731.1, 89873.66, -0.0416185, 0.010354042, -1147711.8, -30196.725, 0.0, 9.997968, 10.000562 
2.8498095e+2, 1.9596997e+2, -1200207.9, -1050186.5, 92157.12, -0.09243138, 0.053295486, -1006371.5, 13129.958, 0.0, 9.99853, 10.00053 
2.849837e+2, 2.059702e+2, -1093027.8, -971204.06, 110335.37, -0.05255741, 0.03927731, -906083.56, 15414.437, 0.0, 9.998704, 10.000314 
2.84987e+2, 2.159695e+2, -1025999.2, -895374.44, 102754.15, 0.048950747, -0.09246114, -838932.5, -15428.764, 0.0, 9.998519, 10.000253 
2.8498915e+2, 2.2597031e+2, -930005.94, -848950.4, 103278.96, 0.046537984, -0.007973743, -778532.06, -53034.12, 0.0, 9.998716, 9.999804 
2.849905e+2, 2.3597208e+2, -769867.06, -729108.25, 77685.47, -0.030140825, 0.16015832, -669173.56, -41688.574, 0.0, 9.999174, 9.999737 
2.8499296e+2, 2.4597196e+2, -688572.3, -687628.0, 104405.88, -0.052491188, 0.20442268, -583693.25, -54205.676, 0.0, 9.999266, 9.999302 
2.8499624e+2, 2.5597045e+2, -613077.7, -600639.94, 62485.453, -0.029343173, 0.0903696, -544064.7, -112562.79, 0.0, 9.999119, 9.999294 
2.8499803e+2, 2.6596954e+2, -491943.5, -493422.1, 14334.923, -0.047345705, 0.073818915, -478328.8, -144818.95, 0.0, 9.9992895, 9.999278 
2.8499886e+2, 2.759689e+2, -340643.66, -369083.56, 37893.01, -0.071358114, 0.052923817, -314390.3, -78875.48, 0.0000000018932573, 9.999639, 9.999296 
2.8500038e+2, 2.859679e+2, -169249.78, -191392.75, 37107.2, -0.046564735, 0.004938333, -141597.61, -4075.8167, 0.00000028816427, 9.999953, 9.999693 
2.8500193e+2, 2.959664e+2, -2467.097, -55025.027, -21024.402, -0.014983576, -0.15042105, 4908.202, 44440.67, 0.0000027347362, 10.000396, 9.999741 
2.8500575e+2, 3.059658e+2, 19004.344, -121422.26, 109050.38, -0.012335743, -0.13387801, 78490.28, 78490.28, 0.000012525966, 10.000655, 9.998834 
2.8501093e+2, 3.159701e+2, -33139.75, -127831.29, -113803.76, -0.051287364, 0.39755675, 42774.03, 42774.03, 0.000040586296, 10.000168, 9.999019 
2.949607e+2, 1.2596291e+2, -2187607.0, -1828864.4, -13919.434, -0.054146454, 0.11067338, -1828325.1, -122753.36, 0.00028489743, 9.996178, 10.0010395 
2.9496533e+2, 1.3596396e+2, -1770113.1, -1548498.3, 136009.28, -0.079846516, 0.059675254, -1483872.5, 123689.31, 0.000121053716, 9.998316, 10.001261 
2.9496765e+2, 1.4596538e+2, -1588370.0, -1370991.8, 19573.564, -0.17229128, 0.060431525, -1369243.3, 140302.33, 0.000029834508, 9.998695, 10.00162 
2.9497036e+2, 1.559669e+2, -1601751.3, -1351722.1, 72178.14, -0.06527045, 0.01875417, -1332381.9, 79145.04, 0.000004731658, 9.99805, 10.001391 
2.9497313e+2, 1.6596769e+2, -1644980.8, -1459481.8, 85444.945, 0.022680124, 0.034721836, -1426123.0, -112602.88, 0.00000054097734, 9.997691, 10.000146 
2.9497597e+2, 1.7596795e+2, -1553233.3, -1356204.5, 80424.22, 0.08427591, 0.013998626, -1327545.3, -112022.99, 0.0000000012704189, 9.997609, 10.00022 
2.94978e+2, 1.8596907e+2, -1358371.6, -1128072.4, 99275.76, 0.025874414, 0.067136675, -1091185.5, 26326.225, 0.0, 9.997903, 10.000971 
2.949795e+2, 1.9597058e+2, -1183560.6, -999349.8, 122021.4, -0.118305445, 0.09024885, -938574.1, 80920.64, 0.0, 9.998461, 10.000911 
2.9498196e+2, 2.0597094e+2, -1099412.9, -954838.1, 92481.04, -0.11985518, 0.06301224, -909744.9, 11743.468, 0.0, 9.998576, 10.000486 
2.9498494e+2, 2.159704e+2, -1038079.9, -886617.0, 111255.445, -0.035854287, -0.069864795, -827763.8, -4273.1934, 0.0, 9.998375, 10.00038 
2.9498753e+2, 2.259706e+2, -983636.1, -925772.4, 108777.72, -0.011786037, -0.02769649, -842144.75, -116654.56, 0.0, 9.99857, 9.999345 
2.9498988e+2, 2.3597115e+2, -822959.44, -807117.7, 106018.086, -0.0312537, 0.06411832, -708725.0, -81235.62, 0.0, 9.999039, 9.999265 
2.949927e+2, 2.4597101e+2, -743939.4, -783105.9, 86382.92, -0.033560667, 0.15957761, -674947.7, -145452.27, 0.0, 9.99918, 9.998691 
2.949957e+2, 2.5597027e+2, -661233.3, -678935.56, 68798.39, -0.02515097, 0.18521835, -600719.0, -169211.6, 0.0, 9.999021, 9.998809 
2.9499742e+2, 2.6596996e+2, -438417.3, -369773.0, 17465.352, -0.06053252, 0.20706339, -365584.78, -32075.107, 0.0, 9.999236, 10.000151 
2.9499844e+2, 2.7596977e+2, -308700.6, -278660.38, 60978.215, -0.107602544, 0.14277522, -230879.63, 4627.8955, 0.0000000016821552, 9.999536, 9.999966 
2.950001e+2, 2.859695e+2, -271042.13, -395987.3, 40284.605, -0.1023123, 0.21235745, -259179.83, -121670.57, 0.00000022409213, 9.999922, 9.998305 
2.9500172e+2, 2.9596916e+2, -107768.46, -264572.06, 14673.091, -0.114093915, 0.31301776, -106407.22, -66893.445, 0.0000026534976, 10.000344, 9.998335 
2.9500666e+2, 3.0596504e+2, -50394.484, -260315.47, 88621.984, -0.017007064, 0.09315732, -17984.816, -17984.816, 0.00001292508, 10.000632, 9.99789 
2.9501188e+2, 3.159621e+2, -66685.65, -187719.83, -62910.055, -0.042267837, -0.005563292, -39910.164, -39910.164, 0.000040883584, 10.000115, 9.998634 
3.0495796e+2, 1.2596202e+2, -1860721.8, -1684132.4, 113787.99, -0.048850194, 0.05754499, -1628400.5, 77177.664, 0.00023189843, 9.998487, 10.000924 
3.0496386e+2, 1.3596332e+2, -1825441.8, -1615104.4, 201229.44, -0.03545079, 0.06968798, -1493218.6, 114348.83, 0.000094942065, 9.99809, 10.000925 
3.049667e+2, 1.4596473e+2, -1734525.9, -1403207.3, 33818.195, -0.07280289, 0.06810977, -1399790.6, 109760.81, 0.000021738364, 9.997559, 10.001931 
3.0496782e+2, 1.5596564e+2, -1694264.1, -1363762.4, 2948.8784, -0.07502001, -0.06283681, -1363736.0, 47801.484, 0.0000030875526, 9.997285, 10.001668 
3.0497065e+2, 1.6596685e+2, -1627679.3, -1444482.0, 76127.88, 0.008351206, -0.023760404, -1416976.6, -103449.664, 0.0000002653173, 9.997763, 10.000219 
3.0497462e+2, 1.759682e+2, -1395011.4, -1272444.3, 85685.18, 0.14385295, 0.05861772, -1228382.6, -12863.18, 0.0, 9.99865, 10.000298 
3.04977e+2, 1.8596943e+2, -1256211.8, -1083154.4, 107542.93, 0.10846449, 0.11784399, -1031651.6, 85857.16, 0.0, 9.998621, 10.00094 
3.0497834e+2, 1.9597027e+2, -1268289.9, -1053435.9, 73657.87, -0.04916709, 0.08242872, -1030609.2, -11110.472, 0.0, 9.997913, 10.000823 
3.0498067e+2, 2.0597073e+2, -1121227.1, -970566.9, 68072.125, -0.095114335, 0.073480226, -944366.5, -22874.668, 0.0, 9.99844, 10.000454 
3.0498365e+2, 2.1597086e+2, -833537.5, -799182.3, 42506.156, -0.06490011, 0.014187847, -770514.06, 52973.953, 0.0, 9.999809, 10.0003 
3.049866e+2, 2.259706e+2, -781884.5, -859711.8, 42390.46, -0.030435681, 0.028799336, -763254.94, -37763.355, 0.0, 10.000092, 9.999068 
3.0498958e+2, 2.3596992e+2, -758569.5, -804031.8, 28397.291, 0.011574372, 0.024817929, -744926.06, -117424.4, 0.0, 9.999607, 9.999013 
3.0499244e+2, 2.4596964e+2, -687952.75, -756912.25, 69746.734, 0.010055002, 0.11805645, -644628.5, -115119.914, 0.0, 9.999583, 9.998673 
3.0499512e+2, 2.559695e+2, -521735.78, -612514.06, 74755.48, -0.024388313, 0.205997, -479668.9, -48154.145, 0.0, 9.999995, 9.998793 
3.04997e+2, 2.6596904e+2, -367688.2, -368762.63, 7528.95, -0.053143457, 0.22747175, -360677.3, -27158.025, 0.0, 9.999859, 9.99986 
3.0499837e+2, 2.7596816e+2, -345437.7, -328076.03, -55994.246, -0.054827787, 0.1262978, -280093.72, -44568.805, 0.00000000014964384, 9.999421, 9.999681 
3.0500063e+2, 2.8596804e+2, -265791.72, -408608.88, -99.58107, -0.038051534, 0.23328815, -265791.63, -128265.53, 0.00000013461268, 10.000042, 9.998151 
3.050031e+2, 2.959686e+2, 20264.945, -217470.4, 38914.527, -0.04739341, 0.4380155, 26472.705, 65995.52, 0.0000024184974, 10.00131, 9.998179 
3.0500808e+2, 3.059642e+2, 35830.773, -215002.75, 162410.77, 0.04581364, 0.19631912, 115612.99, 115612.99, 0.00001259153, 10.001207, 9.997935 
3.0501217e+2, 3.159592e+2, -97870.945, -183129.98, 68708.86, 0.005324763, -0.11242951, -59641.43, -59641.43, 0.00003964243, 9.999815, 9.998823 
3.1495625e+2, 1.2596153e+2, -1861679.5, -1689881.9, 63707.51, -0.13029954, -0.03847398, -1668835.6, 36740.797, 0.0001887222, 9.998512, 10.000869 
3.1496292e+2, 1.3596302e+2, -1869821.8, -1684284.1, 191213.38, 0.034082953, 0.03988004, -1564523.9, 43041.87, 0.00007509751, 9.998022, 10.000473 
3.1496546e+2, 1.4596443e+2, -1773301.4, -1484077.4, 7130.613, 0.01193392, 0.08804977, -1483901.8, 25651.865, 0.00001598166, 9.997543, 10.001388 
3.1496403e+2, 1.5596528e+2, -1722499.8, -1423332.8, 8333.511, -0.21747226, -0.000008966992, -1423100.8, -11555.691, 0.00000170519, 9.997289, 10.001256 
3.1496692e+2, 1.6596703e+2, -1587321.6, -1355014.0, 92662.83, -0.16923387, 0.074761964, -1322580.8, -9051.515, 0.000000057148895, 9.997727, 10.000857 
3.1497264e+2, 1.7596914e+2, -1362718.0, -1196386.0, 121960.234, 0.05291433, 0.16956665, -1131934.6, 83576.02, 0.0, 9.998608, 10.000842 
3.1497568e+2, 1.8596974e+2, -1304132.5, -1165068.1, 68038.34, 0.0879398, 0.17301159, -1137317.5, -19811.758, 0.0, 9.998541, 10.000419 
3.1497693e+2, 1.9596907e+2, -1313288.9, -1126344.5, 66436.54, -0.005900333, 0.035106204, -1105139.5, -85626.79, 0.0, 9.9978285, 10.000361 
3.1497943e+2, 2.0596969e+2, -1164857.0, -1025837.2, 107802.64, -0.08385817, 0.078999355, -967077.7, -45570.652, 0.0, 9.998295, 10.000143 
3.149828e+2, 2.1597104e+2, -875775.9, -851733.94, 100547.99, -0.15654801, 0.17230289, -762490.9, 61003.516, 0.0, 9.999665, 10.000007 
3.14986e+2, 2.2597048e+2, -804810.94, -880955.4, 12362.297, -0.12436446, 0.1741462, -802854.2, -77353.46, 0.0, 9.999975, 9.998983 
3.1498906e+2, 2.3596838e+2, -777917.56, -816373.6, 24796.096, -0.020493563, 0.04094362, -765767.9, -138245.95, 0.0, 9.999485, 9.998992 
3.149918e+2, 2.4596775e+2, -655728.0, -677548.6, 72672.53, -0.03830693, 0.06987503, -593151.4, -63623.35, 0.0, 9.999527, 9.999245 
3.1499413e+2, 2.5596803e+2, -511492.22, -564075.25, 96152.74, -0.14622656, 0.14580137, -438101.28, -6576.6387, 0.0, 9.999875, 9.999185 
3.1499633e+2, 2.659668e+2, -473341.03, -577505.0, -20298.73, -0.13198447, 0.14367214, -469525.16, -135986.9, 0.0, 9.99981, 9.998452 
3.1499836e+2, 2.759641e+2, -437119.88, -503992.7, -53893.563, -0.028940931, -0.00020928585, -407133.03, -171565.92, 0.00000000001473293, 9.99935, 9.998512 
3.1500164e+2, 2.8596354e+2, -201850.4, -262404.7, 35839.914, 0.031296007, 0.059657376, -185210.55, -47637.68, 0.000000108201135, 9.999991, 9.999174 
3.150056e+2, 2.9596463e+2, 74742.086, -79656.5, 92818.12, 0.036167823, 0.21571162, 118269.48, 157830.38, 0.0000023186144, 10.001203, 9.999178 
3.1500965e+2, 3.0596325e+2, 108266.71, -61765.14, 104173.42, 0.053452194, 0.17633805, 157711.97, 157711.97, 0.000012381474, 10.001186, 9.999001 
3.150112e+2, 3.159613e+2, -39379.52, -61030.152, 80141.7, -0.13834962, 0.056668077, 30664.688, 30664.688, 0.000038038284, 9.999797, 9.999676 
3.2495528e+2, 1.2596127e+2, -1790676.6, -1653233.8, 29192.102, -0.08881774, -0.055248916, -1647290.5, 58287.254, 0.0001575099, 9.998953, 10.000916 
3.2496038e+2, 1.3596264e+2, -1984862.6, -1762649.5, 117584.21, 0.030109648, 0.018165424, -1711982.4, -104413.82, 0.00006189271, 9.997284, 10.000305 
3.2496297e+2, 1.4596379e+2, -1887137.0, -1573574.5, 38829.97, 0.052410573, 0.06795838, -1568837.6, -59277.66, 0.000012633238, 9.996898, 10.001095 
3.2496157e+2, 1.55965e+2, -1654743.1, -1417503.6, 34417.406, -0.21000344, 0.04490938, -1412611.4, -1061.5596, 0.0000008198343, 9.997847, 10.00104 
3.2496473e+2, 1.6596663e+2, -1521290.6, -1280199.9, 137616.42, -0.16933545, 0.09994527, -1217798.6, 95735.61, 0.000000004124255, 9.998031, 10.001207 
3.2497078e+2, 1.7596835e+2, -1475764.4, -1221245.9, 114754.23, 0.061668504, 0.12277893, -1177147.4, 38369.492, 0.0, 9.997714, 10.001098 
3.24974e+2, 1.8596897e+2, -1376154.6, -1211711.0, 80971.91, 0.0939055, 0.12198087, -1178534.1, -61022.465, 0.0, 9.998106, 10.000296 
3.2497522e+2, 1.9596867e+2, -1162708.9, -1064827.6, 83586.05, -0.007780531, 0.033312794, -1016908.5, 2607.3838, 0.0, 9.998928, 10.000238 
3.249783e+2, 2.0596933e+2, -1023222.75, -988142.25, 186490.84, -0.07214133, 0.09767179, -818368.6, 103142.86, 0.0, 9.999385, 9.999878 
3.249827e+2, 2.1597046e+2, -915582.7, -895491.2, 159359.72, -0.11395913, 0.19400786, -745860.9, 77641.625, 0.0, 9.999494, 9.999788 
3.2498616e+2, 2.2597003e+2, -820999.56, -882935.4, 79206.91, -0.09140768, 0.21638276, -766921.94, -41414.3, 0.0, 9.999833, 9.999038 
3.2498893e+2, 2.359683e+2, -643415.9, -746317.6, 80959.09, -0.021923497, 0.11278219, -598941.94, 28582.252, 0.0, 10.000374, 9.999046 
3.2499158e+2, 2.4596727e+2, -555575.4, -621989.1, 130113.93, -0.038836382, 0.0938006, -454497.72, 75034.82, 0.0, 10.0001745, 9.999319 
3.2499412e+2, 2.559666e+2, -550547.3, -579750.2, 100244.69, -0.11473767, 0.065714166, -463846.22, -32310.32, 0.0, 9.999578, 9.999221 
3.249965e+2, 2.6596528e+2, -482354.06, -635772.2, 46614.453, -0.100279726, 0.08146546, -469301.28, -135750.34, 0.0, 9.999988, 9.997969 
3.2499874e+2, 2.7596313e+2, -209033.47, -439288.06, 57053.492, -0.007284991, 0.041618492, -195671.88, 39905.418, 0.00000000010851988, 10.0011215, 9.998099 
3.2500225e+2, 2.8596207e+2, -39197.777, -173875.7, 153127.56, 0.04960036, 0.063093446, 60743.227, 198331.58, 0.00000014604628, 10.001042, 9.999292 
3.250066e+2, 2.9596195e+2, -81680.03, -141444.52, 116614.445, 0.08052253, 0.08602133, 8819.9375, 48406.3, 0.0000023415487, 10.000063, 9.999309 
3.2501042e+2, 3.059619e+2, -37596.54, -122887.12, 64835.07, 0.07178865, 0.17120358, -2638.949, -2638.949, 0.000012312151, 10.00018, 9.999045 
3.2501167e+2, 3.1596103e+2, 134376.53, 53478.6, -73599.05, -0.112867296, 0.15012847, 177909.33, 177909.33, 0.000036624067, 10.0008955, 9.999913 
3.3495423e+2, 1.2596132e+2, -1785010.0, -1631551.9, -45512.2, -0.15524751, 0.019635066, -1619069.4, 86512.164, 0.00013854062, 9.998922, 10.001073 
3.3495596e+2, 1.3596226e+2, -1978195.5, -1732514.6, 62354.94, -0.17081015, 0.030299041, -1717594.8, -110020.21, 0.000055370125, 9.997242, 10.000516 
3.3495894e+2, 1.4596295e+2, -1894830.0, -1576505.3, 55354.875, -0.07596816, 0.02236479, -1567154.1, -57584.945, 0.000011804474, 9.996843, 10.001101 
3.3496016e+2, 1.5596502e+2, -1653798.6, -1408116.3, 78682.336, -0.1665557, 0.08249021, -1385077.8, 26471.648, 0.00000057438905, 9.997823, 10.001113 
3.3496365e+2, 1.659659e+2, -1530853.6, -1292313.0, 114056.74, -0.10813028, 0.05966039, -1246555.0, 66984.76, 0.00000000201948, 9.9979925, 10.001145 
3.3496878e+2, 1.7596577e+2, -1482045.6, -1229543.5, 120282.93, 0.055131745, -0.093558766, -1181417.6, 34121.18, 0.0, 9.997692, 10.001053 
3.3497155e+2, 1.8596701e+2, -1375464.5, -1185623.4, 99246.414, 0.01188007, -0.04270447, -1143213.1, -25686.197, 0.0, 9.998001, 10.000525 
3.3497277e+2, 1.9596899e+2, -1160821.6, -1040016.3, 122929.28, -0.17179726, 0.070708156, -963451.5, 56057.61, 0.0, 9.998846, 10.000445 
3.3497694e+2, 2.0596959e+2, -1050684.0, -1020050.94, 177444.16, -0.16849083, 0.13074929, -857263.5, 64241.816, 0.0, 9.999277, 9.999713 
3.3498308e+2, 2.1596906e+2, -945680.06, -921069.9, 175997.28, -0.045872204, 0.0749386, -756948.06, 66564.91, 0.0, 9.999338, 9.999688 
3.3498675e+2, 2.2596921e+2, -828250.06, -866563.0, 86966.78, -0.035794392, 0.15229632, -758354.9, -32842.07, 0.0, 9.9997, 9.999212 
3.3498868e+2, 2.3596975e+2, -655628.06, -732926.1, 106179.1, -0.10486906, 0.25397715, -581282.6, 46225.62, 0.0, 10.000217, 9.9992075 
3.3499146e+2, 2.4596828e+2, -583929.6, -673785.7, 96052.445, -0.09484444, 0.20201416, -522817.1, 6704.0376, 0.0, 10.000135, 9.998984 
3.3499473e+2, 2.5596526e+2, -585017.5, -625994.5, 94661.6, -0.03981178, -0.03143709, -508652.53, -77104.71, 0.0, 9.999474, 9.998951 
3.349972e+2, 2.659646e+2, -463059.25, -587778.56, 77247.2, -0.051794384, 0.044987254, -426142.25, -92585.67, 0.0, 9.999952, 9.998314 
3.3499905e+2, 2.7596524e+2, -206419.72, -409486.44, 104885.586, -0.11565319, 0.24932899, -161973.6, 73582.38, 0.000000000044508567, 10.001018, 9.998353 
3.350021e+2, 2.8596365e+2, -87533.37, -273372.56, 104237.516, -0.09943958, 0.24155906, -40812.313, 96759.84, 0.00000018851506, 10.001025, 9.99862 
3.3500567e+2, 2.959607e+2, -140243.84, -255919.08, 100356.94, -0.05404544, 0.048367463, -82250.96, -42653.117, 0.0000023038672, 10.000016, 9.998551 
3.3500993e+2, 3.0596003e+2, -118927.41, -291031.4, 84441.25, -0.021682112, 0.17128229, -84417.09, -84417.09, 0.000011796056, 10.000176, 9.997894 
3.350128e+2, 3.1595823e+2, 84623.37, -28385.088, -12355.38, -0.1509693, 0.16773652, 85958.42, 85958.42, 0.000034748333, 10.000789, 9.9994135 
3.4495255e+2, 1.2596044e+2, -2165618.5, -1753595.1, -40052.11, -0.057957042, 0.06803014, -1749737.9, -44142.42, 0.00012841672, 9.996061, 10.001612 
3.449529e+2, 1.3596226e+2, -1926003.6, -1645661.0, 14595.367, -0.19114207, 0.103686206, -1644903.1, -37325.332, 0.00005393956, 9.99732, 10.001089 
3.4495592e+2, 1.4596273e+2, -1795662.6, -1520990.8, 82880.8, -0.08652438, 0.045094762, -1497919.8, 11653.199, 0.00001321429, 9.997502, 10.001157 
3.44958e+2, 1.5596445e+2, -1737546.8, -1450869.6, 69153.83, -0.12896715, 0.068295404, -1435059.9, -23504.791, 0.00000089811203, 9.997264, 10.001085 
3.449617e+2, 1.6596518e+2, -1630403.9, -1373611.1, 105438.28, -0.06758021, 0.047674187, -1335866.4, -22319.97, 0.0000000015154811, 9.997435, 10.000865 
3.4496653e+2, 1.7596501e+2, -1481863.8, -1258132.6, 76621.15, 0.059877865, -0.083128504, -1234408.0, -18861.736, 0.0, 9.997816, 10.000799 
3.4496966e+2, 1.8596596e+2, -1303742.9, -1180179.9, 81624.14, -0.00087365863, -0.03473518, -1139592.1, -22055.256, 0.0, 9.998612, 10.000277 
3.4497178e+2, 1.9596744e+2, -1064109.6, -1022777.44, 45036.64, -0.18869443, 0.0560641, -993891.7, 25631.883, 0.0, 9.999621, 10.000201 
3.4497622e+2, 2.0596784e+2, -1003638.9, -993708.6, 68853.7, -0.174847, 0.10723984, -929641.25, -8120.0674, 0.0, 9.999588, 9.999741 
3.4498227e+2, 2.1596731e+2, -1025796.94, -960068.4, 58523.74, -0.028027179, 0.050874744, -925812.7, -102284.33, 0.0, 9.998782, 9.999691 
3.4498653e+2, 2.2596742e+2, -903765.7, -882019.6, 36418.863, 0.007128612, 0.11239047, -854885.3, -129356.95, 0.0, 9.999093, 9.9994 
3.4498954e+2, 2.3596783e+2, -648559.1, -712845.7, 27290.234, -0.03155597, 0.18365408, -638536.7, -11011.86, 0.0, 10.000184, 9.999368 
3.4499234e+2, 2.4596672e+2, -569941.25, -667125.94, -575.4602, -0.019334817, 0.16165598, -569937.8, -40402.85, 0.0, 10.000244, 9.998977 
3.4499487e+2, 2.5596434e+2, -560446.8, -619412.6, 2498.9143, 0.025536247, -0.0023675535, -560341.1, -128784.03, 0.0, 9.99965, 9.998925 
3.4499756e+2, 2.659639e+2, -449513.3, -544289.5, 71217.27, -0.0020843926, 0.081097305, -411358.84, -77795.445, 0.0, 9.999893, 9.998638 
3.4500027e+2, 2.7596453e+2, -223835.56, -387440.66, 67690.99, -0.07539078, 0.25259653, -199460.31, 36100.906, 0.0, 10.000773, 9.998621 
3.4500322e+2, 2.8596294e+2, -120662.79, -322874.13, 48390.758, -0.07956472, 0.25442508, -109679.11, 27897.973, 0.00000016974016, 10.0009775, 9.998289 
3.4500608e+2, 2.9596e+2, -50564.39, -248778.3, 47087.758, -0.04398366, 0.09879377, -39946.94, -343.0321, 0.0000020169734, 10.000802, 9.998219 
3.4501046e+2, 3.0595854e+2, -84259.73, -312721.1, 137424.66, 0.0070437333, 0.17190996, -19789.027, -19789.027, 0.0000103175025, 10.000561, 9.997571 
3.4501418e+2, 3.1595546e+2, -14165.489, -44932.508, 61348.176, -0.03437841, 0.06945892, 33698.543, 33698.543, 0.000031962787, 9.999979, 9.9996805 
3.5494953e+2, 1.2595856e+2, -2110174.3, -1631361.4, 8355.155, -0.03784751, 0.08608207, -1631215.6, 74404.69, 0.00012227354, 9.996029, 10.002465 
3.5495082e+2, 1.3596264e+2, -1848575.1, -1485634.9, 64748.016, -0.16515356, 0.23778844, -1474429.9, 133148.52, 0.00005490219, 9.997341, 10.002168 
3.549535e+2, 1.4596328e+2, -1794975.8, -1528864.1, 57122.465, -0.11859822, 0.14749631, -1517120.8, -7551.13, 0.000015641235, 9.997531, 10.001098 
3.5495475e+2, 1.5596327e+2, -1744663.1, -1476057.3, 74083.195, -0.21686494, 0.011978385, -1456979.6, -45412.902, 0.0000017221555, 9.9973, 10.000901 
3.549584e+2, 1.6596442e+2, -1669518.3, -1439816.6, 104405.71, -0.17189534, 0.067989394, -1399453.9, -85899.48, 0.000000007086625, 9.997372, 10.000437 
3.5496354e+2, 1.759661e+2, -1516822.1, -1323757.5, 105362.195, -0.04711074, 0.15916497, -1277392.4, -61853.75, 0.0, 9.997785, 10.000362 
3.549679e+2, 1.8596585e+2, -1369867.3, -1295019.0, 110601.09, -0.065020844, 0.14787693, -1215682.0, -98140.54, 0.0, 9.998517, 9.999534 
3.549719e+2, 1.9596423e+2, -1121152.8, -1121861.0, 89380.87, -0.16647102, 0.0015286565, -1032125.3, -12567.653, 0.0, 9.999538, 9.999561 
3.5497588e+2, 2.0596431e+2, -1013206.1, -984076.06, 26816.56, -0.1892121, 0.04132202, -968124.44, -46566.973, 0.0, 9.999458, 9.999872 
3.549799e+2, 2.1596538e+2, -1035366.44, -948219.6, 47171.625, -0.16587858, 0.13083552, -927576.2, -104028.445, 0.0, 9.998646, 9.999839 
3.5498515e+2, 2.2596473e+2, -910040.2, -867838.3, 68709.71, -0.062730774, 0.10082631, -817062.44, -91508.625, 0.0, 9.998975, 9.999556 
3.5499117e+2, 2.3596269e+2, -659387.1, -700857.4, 73777.31, 0.09030832, -0.08584683, -603486.5, 24086.059, 0.0, 10.00004, 9.999518 
3.5499385e+2, 2.459627e+2, -571344.9, -645020.7, -34014.453, 0.08127468, -0.014239691, -558042.8, -28469.625, 0.0, 10.000143, 9.999173 
3.5499415e+2, 2.5596386e+2, -564007.2, -597351.94, -3625.3367, -0.036794703, 0.15693516, -563617.56, -132054.03, 0.0, 9.999533, 9.999128 
3.5499716e+2, 2.6596326e+2, -432983.56, -500481.75, 95215.1, -0.05622832, 0.19724408, -365713.25, -32142.902, 0.0, 9.999848, 9.9989605 
3.5500202e+2, 2.7596116e+2, -219555.88, -356742.56, 111020.99, -0.007657926, 0.06061375, -157647.47, 77943.79, 0.0, 10.000681, 9.998875 
3.550053e+2, 2.8596002e+2, -131092.55, -337425.8, 30407.6, 0.0020197188, 0.10324544, -126704.66, 10898.076, 0.00000011654808, 10.000949, 9.998202 
3.5500744e+2, 2.9595977e+2, -62991.547, -255936.89, 55577.906, -0.022626894, 0.22189143, -48127.43, -8521.612, 0.0000016052002, 10.000728, 9.998204 
3.5501167e+2, 3.059574e+2, -33701.38, -216519.66, 109277.01, 0.04088358, 0.16814753, 17357.357, 17357.357, 0.000008325357, 10.00058, 9.998232 
3.5501495e+2, 3.159533e+2, 44999.17, 87524.39, 71297.016, -0.023468489, -0.10188958, 140661.8, 140661.8, 0.000028551576, 9.999922, 10.0006275 
3.6494502e+2, 1.2595652e+2, -2199947.0, -1700076.5, 114725.234, -0.045689553, 0.07404369, -1675003.5, 30637.45, 0.000118926524, 9.995514, 10.002253 
3.6494863e+2, 1.3596094e+2, -2016887.8, -1564737.5, 3460.6904, -0.04651446, 0.26108903, -1564711.0, 42886.2, 0.000056465244, 9.996174, 10.002188 
3.6495155e+2, 1.459618e+2, -1890940.0, -1579708.9, -28162.781, -0.029809458, 0.19282846, -1577181.0, -67594.72, 0.00001794202, 9.996898, 10.001052 
3.6495253e+2, 1.5596153e+2, -1677378.1, -1451959.9, -31726.887, -0.18330675, 0.038194243, -1447579.5, -35994.277, 0.000002788093, 9.997806, 10.000822 
3.649564e+2, 1.6596235e+2, -1494630.5, -1407646.1, 41967.38, -0.16887677, 0.08999955, -1390699.6, -77122.945, 0.00000008230677, 9.9987955, 9.999974 
3.6496186e+2, 1.7596367e+2, -1264574.6, -1247470.5, 6877.068, -0.08069867, 0.19452888, -1245048.5, -29483.229, 0.0, 9.99971, 9.999961 
3.6496684e+2, 1.8596335e+2, -1241321.9, -1224090.4, 42765.063, -0.059044708, 0.18870062, -1189081.8, -71513.34, 0.0, 9.999364, 9.999612 
3.6497164e+2, 1.9596173e+2, -1323321.6, -1209352.9, 61684.207, -0.06514158, 0.03670595, -1182360.1, -162776.81, 0.0, 9.998113, 9.999646 
3.649757e+2, 2.0596167e+2, -1193046.0, -1056263.0, 53602.996, -0.085488394, 0.04999284, -1037759.9, -116176.63, 0.0, 9.998162, 10.000002 
3.6497912e+2, 2.1596244e+2, -964036.94, -898908.25, 48604.72, -0.12143298, 0.096340984, -872967.44, -49392.36, 0.0, 9.999076, 9.999968 
3.6498436e+2, 2.2596183e+2, -865486.3, -844606.25, 97247.91, -0.04463211, 0.06612879, -757239.56, -31658.955, 0.0, 9.99927, 9.999575 
3.649909e+2, 2.3596017e+2, -816168.2, -773755.5, 69049.164, 0.11729905, -0.08694216, -722729.56, -95132.41, 0.0, 9.998947, 9.999545 
3.6499387e+2, 2.4596035e+2, -671082.4, -690140.4, -31246.756, 0.11501522, -0.0002167652, -647943.94, -118347.49, 0.0, 9.999425, 9.999222 
3.649944e+2, 2.559617e+2, -430268.25, -522586.03, -33961.254, 0.002679118, 0.18044467, -419120.84, 12464.306, 0.0, 10.000408, 9.99922 
3.6499783e+2, 2.659608e+2, -358734.63, -477806.63, 58352.605, 0.004158545, 0.1950844, -334906.6, -1312.7943, 0.0, 10.000421, 9.998837 
3.6500317e+2, 2.759581e+2, -355011.56, -433382.97, 18592.889, 0.09372856, 0.011034172, -350824.28, -115204.69, 0.0, 9.999799, 9.998775 
3.6500654e+2, 2.8595698e+2, -246259.3, -378848.03, -28570.08, 0.08357957, 0.05014868, -240365.08, -102734.125, 0.000000055764154, 10.000074, 9.998347 
3.6500844e+2, 2.9595718e+2, -23898.602, -220781.27, -12111.464, 0.0030478856, 0.19763935, -23156.35, 16473.865, 0.0000011855267, 10.000926, 9.998348 
3.6501303e+2, 3.0595466e+2, 78865.5, -129974.64, 29548.045, 0.099186175, 0.108472385, 82965.65, 82965.65, 0.0000067298934, 10.001245, 9.998491 
3.6501646e+2, 3.1595173e+2, 192314.56, 151884.89, -85433.055, 0.093513995, -0.07280595, 259891.8, 259891.8, 0.00002565761, 10.000986, 10.000552 
3.749383e+2, 1.2595454e+2, -2285746.5, -1876963.8, 136907.02, -0.33409336, 0.075334646, -1835348.4, -129693.05, 0.0001191897, 9.995509, 10.001032 
3.749459e+2, 1.3595721e+2, -2083290.9, -1701780.1, 35025.066, 0.03329971, 0.18612708, -1698591.3, -90957.57, 0.00005856906, 9.996174, 10.001241 
3.749495e+2, 1.4595829e+2, -1898925.6, -1583037.3, -10373.07, 0.042915426, 0.17945294, -1582697.0, -73073.87, 0.000020069963, 9.996843, 10.001055 
3.74951e+2, 1.5595914e+2, -1674234.6, -1454933.3, 16718.686, -0.14891073, 0.13606131, -1453666.0, -42054.246, 0.0000038584762, 9.997842, 10.000786 
3.7495545e+2, 1.6595888e+2, -1538920.9, -1490135.6, 65790.26, -0.17368752, 0.11157819, -1444361.6, -130747.945, 0.00000020238203, 9.998758, 9.999423 
3.7496114e+2, 1.7595781e+2, -1299668.1, -1314575.3, 46975.582, -0.15105033, 0.031763326, -1259558.5, -43933.125, 0.0, 9.999682, 9.999515 
3.7496606e+2, 1.859584e+2, -1188826.0, -1094058.8, -16399.324, -0.09769279, 0.08667944, -1091301.1, 26317.36, 0.0, 9.999275, 10.000545 
3.7497067e+2, 1.9595991e+2, -1279103.1, -1091326.1, 34248.89, 0.0010892078, 0.15309209, -1085274.5, -65673.484, 0.0, 9.998006, 10.000503 
3.7497523e+2, 2.0595987e+2, -1205207.9, -1054694.6, 76480.34, 0.030164147, 0.12531303, -1022653.56, -101054.42, 0.0, 9.998042, 10.0000725 
3.7497956e+2, 2.1595854e+2, -979892.4, -897693.6, 89084.34, -0.010805146, -0.043074768, -840685.0, -17075.254, 0.0, 9.998933, 10.000044 
3.749839e+2, 2.2595888e+2, -890662.94, -871864.4, 70142.99, -0.040064707, 0.021675454, -810493.7, -84885.61, 0.0, 9.999151, 9.999451 
3.7498826e+2, 2.3596014e+2, -840794.0, -798242.7, 71453.64, -0.06381363, 0.17229356, -744964.5, -117364.61, 0.0, 9.998824, 9.999439 
3.749921e+2, 2.459597e+2, -686053.3, -700505.94, -4508.9463, -0.02766303, 0.20281453, -684762.0, -155157.08, 0.0, 9.999337, 9.999193 
3.7499538e+2, 2.5595784e+2, -452911.5, -546201.3, 10334.701, 0.02984961, 0.071337305, -451780.34, -20158.896, 0.0, 10.000304, 9.999109 
3.749992e+2, 2.6595652e+2, -406079.2, -565339.5, 24538.104, 0.07143357, 0.0753263, -402384.2, -68749.91, 0.0, 10.000374, 9.998258 
3.750034e+2, 2.7595523e+2, -398573.6, -506317.3, 13950.563, 0.10518714, 0.09405217, -396796.6, -161149.5, 0.0, 9.999721, 9.998313 
3.7500647e+2, 2.8595382e+2, -217459.2, -310965.94, -5768.123, 0.041904964, 0.09770099, -217104.73, -79443.55, 0.00000003400916, 10.000039, 9.998831 
3.750086e+2, 2.9595235e+2, -11303.236, -176814.17, 30755.832, -0.10528209, 0.0335444, -5772.869, 33902.98, 0.000000899484, 10.000841, 9.998695 
3.7501413e+2, 3.059503e+2, 58195.82, -165600.72, 15667.526, 0.058678664, -0.007108444, 59287.348, 59287.348, 0.000005766145, 10.001213, 9.998266 
3.7501788e+2, 3.1595019e+2, 98249.7, -33198.543, -55664.145, 0.07801924, 0.12037076, 118654.305, 118654.305, 0.000023929499, 10.000934, 9.999312 
3.8493437e+2, 1.2595153e+2, -2093110.6, -1777119.9, 70140.016, -0.33314893, 0.11808148, -1762250.8, -56565.375, 0.00012316402, 9.996793, 10.001105 
3.8494304e+2, 1.3595323e+2, -2070722.1, -1697001.6, 236.94202, 0.13248788, 0.12864178, -1697001.5, -89329.58, 0.000061385945, 9.996238, 10.00126 
3.8494667e+2, 1.4595447e+2, -1916803.0, -1605155.4, 46640.09, 0.089187436, 0.14474055, -1598325.1, -88664.9, 0.000022093489, 9.99678, 10.000932 
3.8494986e+2, 1.5595584e+2, -1655989.8, -1455063.8, 23618.154, -0.047885574, 0.16528271, -1452324.9, -40679.652, 0.000004863891, 9.998016, 10.000695 
3.8495496e+2, 1.659555e+2, -1607448.6, -1507701.3, 90804.57, -0.064843416, 0.12719138, -1453975.4, -140327.63, 0.00000029520132, 9.998207, 9.999576 
3.8496035e+2, 1.75954e+2, -1586707.4, -1433168.8, 105548.06, -0.08796097, -0.013699848, -1379424.0, -163761.81, 0.0, 9.9976225, 9.999693 
3.84965e+2, 1.8595478e+2, -1344804.5, -1150076.3, 49331.605, -0.067805886, 0.041604858, -1138291.9, -20638.814, 0.0, 9.998111, 10.000728 
3.8496947e+2, 1.9595677e+2, -1077835.3, -984506.1, 18456.123, 0.021983052, 0.138668, -980988.94, 38642.277, 0.0, 9.999319, 10.000616 
3.8497433e+2, 2.059567e+2, -988768.06, -974549.4, 61865.043, 0.06233893, 0.11663469, -919386.5, 2243.388, 0.0, 9.999637, 9.999853 
3.849792e+2, 2.1595506e+2, -937665.06, -904091.44, 28794.764, 0.047874056, -0.060285, -887547.56, -63903.355, 0.0, 9.999324, 9.999822 
3.8498333e+2, 2.2595562e+2, -889707.06, -854100.9, 18845.24, -0.0038806398, 0.031854074, -845979.25, -120338.95, 0.0, 9.999099, 9.999586 
3.849869e+2, 2.3595756e+2, -810044.06, -769242.1, 16156.239, -0.08107729, 0.2340006, -763619.56, -135994.1, 0.0, 9.998987, 9.999553 
3.8499135e+2, 2.4595682e+2, -663716.8, -685997.56, 12611.923, -0.037445117, 0.22612333, -658029.6, -128397.03, 0.0, 9.999489, 9.999204 
3.8499618e+2, 2.55954e+2, -428771.72, -537996.1, 2553.3, 0.078723624, -0.00403058, -428712.06, 2945.0051, 0.0, 10.00048, 9.999078 
3.850003e+2, 2.6595265e+2, -298464.3, -509363.06, 29764.922, 0.11250688, -0.0020842683, -294344.0, 39325.305, 0.0, 10.001095, 9.998301 
3.850039e+2, 2.7595213e+2, -144155.56, -378188.5, 41664.176, 0.10567611, 0.085412666, -136959.48, 98714.88, 0.0, 10.001453, 9.998356 
3.850069e+2, 2.859507e+2, -80686.51, -284437.06, 36029.992, 0.034069583, 0.104541756, -74502.85, 63186.848, 0.000000026095549, 10.001153, 9.998478 
3.8500926e+2, 2.9594857e+2, -100958.234, -250812.56, -9580.691, -0.09373043, 0.010902941, -100348.19, -60635.36, 0.00000066980994, 10.000366, 9.998415 
3.8501522e+2, 3.059472e+2, -2688.1719, -142071.47, 20625.707, 0.09159975, 0.027750572, 299.92664, 299.92664, 0.000005131084, 10.000569, 9.998729 
3.8501883e+2, 3.1594783e+2, 141863.0, -14425.918, -18525.252, 0.07473159, 0.17890249, 144028.83, 144028.83, 0.000023471404, 10.001262, 9.999271 
3.949327e+2, 1.2594755e+2, -2017069.1, -1589056.9, -6492.7817, -0.24653336, 0.20494156, -1588958.4, 116772.09, 0.0001272644, 9.996704, 10.002428 
3.9493957e+2, 1.3594903e+2, -2009298.6, -1553224.8, -1136.1746, 0.13402261, 0.08133327, -1553221.9, 54489.64, 0.00006380605, 9.996198, 10.002257 
3.949427e+2, 1.4595047e+2, -1951484.0, -1670491.9, 79526.88, -0.023571294, 0.09565692, -1649545.5, -139849.2, 0.000023677207, 9.996734, 10.000513 
3.9494857e+2, 1.5595162e+2, -1671558.1, -1492100.5, 75804.79, -0.010398645, 0.12993844, -1464366.1, -52679.906, 0.000005569423, 9.998029, 10.000438 
3.9495453e+2, 1.6595207e+2, -1548163.9, -1367898.5, 52595.586, 0.044768315, 0.13062827, -1353675.0, -39994.7, 0.00000035120044, 9.998145, 10.000564 
3.949592e+2, 1.7595217e+2, -1537945.6, -1312517.8, 101494.57, 0.00741779, 0.05292316, -1273555.8, -57879.395, 0.0, 9.997546, 10.000557 
3.9496338e+2, 1.859524e+2, -1402408.1, -1245773.5, 84303.8, -0.06609378, 0.047623303, -1209022.4, -91349.55, 0.0, 9.998003, 10.000126 
3.9496765e+2, 1.9595246e+2, -1133301.6, -1072227.9, 70456.0, -0.117731914, 0.0113260625, -1025975.8, -6303.461, 0.0, 9.9992075, 10.000064 
3.949726e+2, 2.0595233e+2, -1042008.94, -1054303.6, 37286.15, -0.0960122, 0.03630417, -1010366.8, -88692.86, 0.0, 9.999503, 9.999371 
3.949777e+2, 2.1595201e+2, -991766.75, -972058.1, 31636.684, -0.05646339, 0.037835017, -948776.56, -125098.6, 0.0, 9.999142, 9.999436 
3.9498234e+2, 2.2595218e+2, -884776.75, -813519.75, 4035.0518, -0.038556293, 0.086000204, -813292.0, -87615.305, 0.0, 9.998964, 9.999935 
3.9498654e+2, 2.3595239e+2, -807853.8, -731473.94, 28737.184, -0.041296065, 0.08644947, -721869.56, -94195.15, 0.0, 9.998847, 9.99988 
3.949913e+2, 2.459517e+2, -670777.94, -684566.4, 39072.64, -0.015261656, 0.066458926, -637996.0, -108316.34, 0.0, 9.999415, 9.999256 
3.9499643e+2, 2.5595012e+2, -434505.66, -527615.25, 50166.617, 0.027993154, -0.043228906, -412620.4, 19071.805, 0.0, 10.000377, 9.999205 
3.950007e+2, 2.6594925e+2, -260592.48, -417844.06, 33561.87, 0.021187035, -0.03378819, -253729.02, 79969.375, 0.0, 10.001036, 9.9989605 
3.9500433e+2, 2.7594864e+2, -122551.38, -316142.38, 64648.82, -0.023204766, -0.018105224, -102947.4, 132754.72, 0.0, 10.00137, 9.998828 
3.9500743e+2, 2.8594744e+2, -168779.4, -449170.66, -4885.9043, -0.05261276, 0.06522602, -168694.3, -30977.12, 0.000000010243951, 10.00109, 9.997371 
3.950099e+2, 2.959458e+2, -181363.08, -387683.78, -15958.083, -0.09304366, 0.13153009, -180136.08, -140395.08, 0.0000005130985, 10.000247, 9.99753 
3.95016e+2, 3.0594534e+2, 80627.62, 31708.31, 40904.695, 0.086442724, 0.21155731, 103827.9, 103827.9, 0.0000059963604, 10.000559, 9.999929 
3.9501843e+2, 3.159444e+2, 210550.6, 144843.7, 80794.59, -0.1470348, 0.088681854, 264915.94, 264915.94, 0.000027747768, 10.00119, 10.000401 
4.049302e+2, 1.2594308e+2, -2273088.5, -1679320.6, 77854.05, -0.0472994, 0.18220724, -1669282.3, 36492.1, 0.0001282802, 9.994779, 10.002748 
4.0493637e+2, 1.3594507e+2, -1783978.4, -1431746.0, -2767.7866, 0.13438527, 0.092059225, -1431724.3, 176024.88, 0.00006493345, 9.99768, 10.002379 
4.049392e+2, 1.4594658e+2, -1691332.5, -1558614.6, 63295.504, -0.12636338, 0.11489844, -1533268.4, -23535.127, 0.00002457309, 9.99858, 10.000386 
4.049471e+2, 1.5594721e+2, -1717854.4, -1523230.9, 46502.03, 0.062336966, 0.10836439, -1512690.8, -100961.36, 0.000005781208, 9.997737, 10.000367 
4.0495348e+2, 1.6594811e+2, -1599147.5, -1314587.4, 33506.105, 0.16877855, 0.11930203, -1310695.3, 3023.814, 0.0000003430959, 9.997457, 10.001259 
4.049573e+2, 1.7594935e+2, -1482222.0, -1220205.0, 35557.504, 0.064846046, 0.08691431, -1215465.4, 237.34195, 0.0, 9.997636, 10.001147 
4.0496153e+2, 1.8594961e+2, -1412370.8, -1288565.5, 81101.8, -0.048679415, 0.077100515, -1248441.5, -130741.945, 0.0, 9.998113, 9.999773 
4.049666e+2, 1.9594887e+2, -1226623.5, -1151650.1, 62129.91, -0.112149306, -0.0012519598, -1116573.9, -96864.89, 0.0, 9.998724, 9.999753 
4.0497193e+2, 2.0594901e+2, -1096327.5, -1046223.44, 53966.06, -0.08085357, 0.046802413, -1011778.06, -90069.555, 0.0, 9.998983, 9.999674 
4.0497717e+2, 2.159496e+2, -995441.7, -948777.3, 80945.07, -0.009335283, 0.109455556, -887868.8, -64166.12, 0.0, 9.998999, 9.999667 
4.0498188e+2, 2.2594938e+2, -848700.2, -812305.5, 90281.234, 0.013101427, 0.11561549, -738405.94, -12702.292, 0.0, 9.999284, 9.999787 
4.0498617e+2, 2.3594832e+2, -685922.9, -695151.56, 57079.063, 0.0002554629, 0.004605175, -633271.94, -5560.4424, 0.0, 9.99977, 9.999688 
4.049914e+2, 2.4594748e+2, -608464.9, -678437.8, 73970.05, 0.033531662, -0.008010733, -561624.56, -31906.47, 0.0, 9.999948, 9.999039 
4.0499723e+2, 2.559467e+2, -509090.06, -574926.2, 42150.88, 0.09783234, -0.021415869, -488526.4, -56801.746, 0.0, 9.999941, 9.999078 
4.0500176e+2, 2.6594594e+2, -383489.88, -467306.63, 12856.845, 0.07781733, -0.00045199523, -381562.06, -47831.902, 0.0, 10.000138, 9.999049 
4.0500546e+2, 2.7594495e+2, -249525.2, -369346.13, -18665.764, 0.005532664, -0.035476487, -246684.78, -10947.066, 0.0, 10.000453, 9.998899 
4.0500858e+2, 2.8594345e+2, -164713.69, -446767.1, -36828.867, -0.03894798, 0.012984657, -159984.1, -22229.65, 0.0000000008315615, 10.001101, 9.997384 
4.0501133e+2, 2.9594153e+2, 79166.555, -258048.25, 11674.807, -0.058424816, 0.04467894, 79570.266, 119349.09, 0.0000007104038, 10.002008, 9.997565 
4.050173e+2, 3.0594122e+2, 195649.88, 26038.916, 39660.285, 0.11399133, 0.16864926, 204465.47, 204465.47, 0.000009515816, 10.001614, 9.999389 
4.0501928e+2, 3.1593984e+2, 37387.043, 40293.113, -41170.973, -0.110409446, 0.06039874, 80036.69, 80036.69, 0.000039448827, 10.00006, 10.00024 
4.1492617e+2, 1.2593795e+2, -2307654.3, -1761809.5, 96195.734, 0.004467263, 0.04270467, -1745352.8, -39534.547, 0.00012596608, 9.994815, 10.00216 
4.1493303e+2, 1.3594145e+2, -1817491.1, -1526321.9, 109074.84, -0.0035776966, 0.17288005, -1489993.9, 117789.734, 0.00006410072, 9.99776, 10.001697 
4.149359e+2, 1.4594279e+2, -1682088.3, -1531208.4, 21591.053, -0.356628, 0.19866152, -1528179.4, -18408.02, 0.00002430965, 9.998562, 10.000579 
4.1494516e+2, 1.5594265e+2, -1709879.8, -1491486.8, 31444.602, 0.061641425, 0.09703846, -1487049.5, -75274.66, 0.0000053776803, 9.997689, 10.000603 
4.149515e+2, 1.6594368e+2, -1589000.1, -1272977.5, 27490.184, 0.19530089, 0.09295796, -1270604.0, 43159.293, 0.0000002359893, 9.997368, 10.001585 
4.149542e+2, 1.759457e+2, -1467954.0, -1179405.5, 57408.098, -0.04133538, 0.10366969, -1168403.4, 47336.29, 0.0, 9.997588, 10.001448 
4.1495898e+2, 1.8594648e+2, -1430934.8, -1308648.4, 91759.39, -0.14133085, 0.1363852, -1259527.0, -141794.05, 0.0, 9.998036, 9.99967 
4.1496584e+2, 1.959461e+2, -1239977.0, -1154813.1, 92927.67, -0.08297966, 0.10201263, -1095175.8, -75434.99, 0.0, 9.998628, 9.99977 
4.1497195e+2, 2.0594673e+2, -1041517.6, -908432.4, 42465.598, 0.001572739, 0.144345, -896036.75, 25696.826, 0.0, 9.998867, 10.000684 
4.1497722e+2, 2.1594791e+2, -957131.9, -829919.2, 92713.24, 0.07523438, 0.16333479, -781091.06, 42626.645, 0.0, 9.99883, 10.000565 
4.1498166e+2, 2.2594732e+2, -916747.56, -921323.3, 97420.42, 0.039608706, 0.13296211, -821588.1, -95868.31, 0.0, 9.999143, 9.999109 
4.1498545e+2, 2.3594534e+2, -749418.7, -797795.44, 85938.0, -0.07458605, -0.0062225387, -684329.9, -56593.195, 0.0, 9.999645, 9.999044 
4.149911e+2, 2.4594423e+2, -649910.8, -748182.94, 63870.234, -0.017557604, 0.0054538622, -618463.0, -88715.47, 0.0, 9.999873, 9.998595 
4.1499805e+2, 2.5594354e+2, -553489.25, -646312.0, 54902.17, 0.15912075, 0.04502161, -528009.94, -96253.87, 0.0, 9.999846, 9.998633 
4.1500318e+2, 2.6594254e+2, -418813.28, -527161.25, 14393.928, 0.17653014, 0.08261768, -416933.66, -83167.125, 0.0, 10.000087, 9.998661 
4.1500688e+2, 2.759411e+2, -281208.8, -411194.1, 6298.2524, 0.06858394, 0.043702528, -280904.34, -45123.863, 0.0, 10.00036, 9.998653 
4.1500998e+2, 2.8593877e+2, -78664.35, -275056.75, -14871.708, -0.040429458, -0.042943746, -77544.586, 60255.945, 0.00000000001177225, 10.001114, 9.998564 
4.150128e+2, 2.9593575e+2, 130618.2, -136434.73, 51439.457, -0.14636081, -0.2388752, 140183.78, 180009.86, 0.0000013022876, 10.001933, 9.998444 
4.1501853e+2, 3.0593494e+2, 42684.86, -287231.7, -23717.521, 0.04651511, -0.09207897, 44381.176, 44381.176, 0.000014575742, 10.001602, 9.997237 
4.1502067e+2, 3.1593457e+2, -73124.305, -165324.92, -15028.62, -0.040015515, 0.112565085, -70736.49, -70736.49, 0.000055427667, 9.999967, 9.998869 
4.2492312e+2, 1.2593305e+2, -1891582.4, -1614335.8, 13515.875, 0.07554874, 0.021071846, -1613678.4, 92185.87, 0.00012015749, 9.997879, 10.001695 
4.249302e+2, 1.359362e+2, -2001432.0, -1658534.1, 82887.914, 0.0039032237, 0.16151117, -1639549.0, -31713.174, 0.00006079175, 9.996672, 10.001311 
4.2493325e+2, 1.4593767e+2, -1911439.8, -1563316.1, 11279.311, -0.37064973, 0.17718488, -1562951.0, -53128.355, 0.00002257458, 9.99665, 10.001282 
4.249426e+2, 1.5593849e+2, -1780128.1, -1456501.8, 21138.168, 0.08878227, 0.10208395, -1455126.9, -43312.11, 0.0000044461326, 9.996914, 10.001218 
4.2494896e+2, 1.6593978e+2, -1641834.0, -1328328.3, 51365.563, 0.22644848, 0.112310775, -1320126.9, -6325.682, 0.00000009724189, 9.997142, 10.001311 
4.2495173e+2, 1.7594136e+2, -1512461.1, -1222986.0, 13773.486, -0.029468194, 0.10713616, -1222332.1, -6548.1157, 0.0, 9.997383, 10.00125 
4.24957e+2, 1.8594238e+2, -1449024.0, -1262210.6, 86113.76, -0.11777179, 0.14513484, -1228572.5, -110797.76, 0.0, 9.997664, 10.000174 
4.2496464e+2, 1.959427e+2, -1306161.4, -1138497.0, 110691.766, -0.027554307, 0.1318659, -1083474.9, -63700.965, 0.0, 9.997948, 10.000217 
4.2497128e+2, 2.0594339e+2, -1075954.6, -910850.9, 59590.527, 0.068447344, 0.15107663, -891590.0, 30174.951, 0.0, 9.998578, 10.000799 
4.2497692e+2, 2.1594413e+2, -865569.3, -776981.25, 17536.707, 0.1386245, 0.1184122, -773636.06, 50116.402, 0.0, 9.999419, 10.000646 
4.249816e+2, 2.2594349e+2, -811190.7, -849812.3, 46575.367, 0.09485418, 0.06985575, -780081.56, -54327.313, 0.0, 9.999794, 9.999276 
4.2498556e+2, 2.359418e+2, -710317.56, -758820.4, 70063.74, -0.03099889, -0.054975934, -660426.8, -32659.639, 0.0, 9.999845, 9.999208 
4.2499128e+2, 2.4594077e+2, -619747.06, -742332.5, 109136.92, 0.0070655225, -0.038038086, -555869.25, -26091.803, 0.0, 10.000117, 9.998522 
4.2499825e+2, 2.5593993e+2, -453310.72, -610931.5, 105125.664, 0.16505635, -0.0024856753, -400734.34, 31053.975, 0.0, 10.000581, 9.998529 
4.2500362e+2, 2.6593894e+2, -369114.47, -524355.4, 97391.63, 0.20068282, 0.05140813, -322195.5, 11604.858, 0.0, 10.000521, 9.998479 
4.2500782e+2, 2.7593762e+2, -331731.78, -451607.3, 86207.71, 0.14936681, 0.044473995, -286672.84, -50857.664, 0.0, 10.000083, 9.998516 
4.2501143e+2, 2.859356e+2, -129195.67, -281592.25, 89183.38, 0.018696947, -0.014959876, -88091.555, 49740.79, 0.0000000012455732, 10.00072, 9.998695 
4.250148e+2, 2.959329e+2, 163964.34, -113004.74, 41655.66, -0.14098229, -0.1875131, 170093.64, 209946.86, 0.0000019825331, 10.00214, 9.998504 
4.250199e+2, 3.0593088e+2, 121691.91, -315887.75, -44738.883, -0.0035611307, -0.1328935, 126219.24, 126219.24, 0.000019679212, 10.002436, 9.996637 
4.2502257e+2, 3.1592983e+2, 165426.36, -101416.67, 67491.664, 0.07435165, 0.060556203, 181525.5, 181525.5, 0.00007104561, 10.001827, 9.998404 
4.3492013e+2, 1.2592833e+2, -1919995.9, -1652190.0, -152527.16, -0.07452768, 0.10662058, -1583128.6, 122784.46, 0.00011272219, 9.997832, 10.001445 
4.3492776e+2, 1.3592939e+2, -2004879.4, -1660486.0, 63172.543, 0.057467297, 0.05483509, -1649263.9, -41358.58, 0.00005585788, 9.996668, 10.001297 
4.3493098e+2, 1.4593111e+2, -1838416.8, -1401415.1, 15884.479, -0.29699367, 0.03687156, -1400838.5, 109049.42, 0.000019900395, 9.996594, 10.002424 
4.349391e+2, 1.5593475e+2, -1705794.1, -1312051.5, 45059.523, 0.0092603, 0.12727295, -1306960.8, 104888.445, 0.0000034951138, 9.99694, 10.002204 
4.349455e+2, 1.6593634e+2, -1714342.9, -1460529.6, 48420.016, 0.13656233, 0.16968834, -1451606.3, -137772.55, 0.000000032016867, 9.997073, 10.000433 
4.3494952e+2, 1.7593634e+2, -1570231.1, -1326861.3, 34778.426, -0.017015003, 0.0940701, -1321988.9, -106153.01, 0.0, 9.997321, 10.000564 
4.3495515e+2, 1.859373e+2, -1387154.4, -1106873.3, 85629.14, -0.09329929, 0.09742947, -1082783.1, 35042.117, 0.0, 9.997552, 10.001294 
4.349625e+2, 1.9593878e+2, -1255897.4, -1006938.7, 136865.86, -0.05749342, 0.08879446, -946411.6, 73395.805, 0.0, 9.997837, 10.001173 
4.3496948e+2, 2.0593907e+2, -1156245.8, -1045429.75, 80447.42, 0.007402979, 0.07108543, -1003155.44, -81353.79, 0.0, 9.998441, 9.99994 
4.3497583e+2, 2.159383e+2, -934921.9, -888536.0, 58053.508, 0.06152497, -0.030025719, -849213.94, -25407.209, 0.0, 9.999282, 9.999944 
4.349813e+2, 2.2593798e+2, -765004.4, -722337.9, 37645.035, 0.060750525, -0.06799919, -700401.56, 25404.281, 0.0, 9.999656, 10.000219 
4.3498617e+2, 2.3593773e+2, -666671.7, -638832.75, 84995.87, 0.02209392, -0.14296012, -566624.1, 61178.855, 0.0, 9.999714, 10.000095 
4.3499163e+2, 2.4593711e+2, -616903.56, -714490.1, 115093.28, 0.0066750427, -0.13638881, -540687.9, -10879.927, 0.0, 10.000029, 9.998751 
4.349974e+2, 2.5593606e+2, -453047.25, -585122.7, 131554.27, -0.0032062717, -0.14950867, -371886.1, 59933.938, 0.0, 10.000479, 9.998751 
4.350028e+2, 2.6593533e+2, -368995.5, -520257.16, 71104.94, 0.03990887, -0.080080375, -340819.13, -6989.1636, 0.0, 10.000499, 9.99852 
4.350078e+2, 2.7593458e+2, -345486.8, -465042.25, 89574.914, 0.112833045, -0.035155516, -297574.97, -61733.973, 0.0, 10.0000105, 9.998461 
4.350124e+2, 2.859339e+2, -206335.97, -428063.2, 133516.7, 0.016824754, 0.09248028, -143655.78, -5805.772, 0.000000012355592, 10.000673, 9.997705 
4.3501702e+2, 2.95933e+2, 91362.05, -244277.14, 104266.17, -0.16883637, 0.20067352, 121114.84, 160974.48, 0.0000027662056, 10.002067, 9.997633 
4.3502113e+2, 3.0592903e+2, 191376.8, -182331.88, -77177.41, -0.15341659, 0.05422882, 206687.97, 206687.97, 0.000024180765, 10.002466, 9.997545 
4.3502405e+2, 3.1592545e+2, 173055.27, -70437.21, 104847.414, -0.027221419, -0.09819462, 211979.89, 211979.89, 0.00008333817, 10.001753, 9.998658 
4.4491708e+2, 1.2592481e+2, -2178922.5, -1783319.4, -94160.086, -0.061173607, 0.17942093, -1762051.1, -56103.703, 0.00010688196, 9.996106, 10.001376 
4.44925e+2, 1.3592523e+2, -1908688.6, -1605701.3, 167506.4, 0.09905674, 0.05949539, -1531343.8, 76602.414, 0.000051033883, 9.997315, 10.001366 
4.4492933e+2, 1.4592671e+2, -1661363.1, -1316592.9, 106948.266, -0.17286597, 0.016149849, -1286112.1, 223818.33, 0.000017295639, 9.997805, 10.002421 
4.4493625e+2, 1.5593056e+2, -1638436.5, -1274062.4, 16745.83, 0.01749665, 0.11967144, -1273294.4, 138594.27, 0.0000027656245, 9.997383, 10.002242 
4.449427e+2, 1.6593221e+2, -1616600.5, -1410280.0, 76791.83, 0.12815872, 0.1624754, -1384836.1, -70964.27, 0.000000035556127, 9.9977045, 10.000488 
4.4494784e+2, 1.7593211e+2, -1389277.4, -1237455.1, 110600.93, 0.03156253, 0.07158048, -1179220.5, 36654.043, 0.0, 9.998543, 10.000595 
4.4495383e+2, 1.859329e+2, -1237994.3, -1062261.3, 134069.8, -0.030094821, 0.070405595, -989830.44, 128035.54, 0.0, 9.998703, 10.001039 
4.4496104e+2, 1.9593409e+2, -1200648.6, -1005235.25, 56321.62, -0.008083957, 0.0568978, -990164.6, 29687.3, 0.0, 9.998327, 10.000942 
4.4496787e+2, 2.0593429e+2, -1178903.8, -1036445.3, 41218.355, 0.019524066, 0.031950176, -1025379.0, -103531.695, 0.0, 9.998224, 10.000095 
4.4497418e+2, 2.1593356e+2, -1069010.5, -932289.9, 70451.05, 0.027203906, -0.075915225, -902484.6, -78633.11, 0.0, 9.998289, 10.000113 
4.4498032e+2, 2.2593358e+2, -908540.9, -770738.1, 63077.24, 0.060316447, -0.09978524, -746225.7, -20377.682, 0.0, 9.998564, 10.00042 
4.449864e+2, 2.3593384e+2, -766492.5, -667813.4, 33500.188, 0.119145095, -0.14373748, -657515.2, -29673.572, 0.0, 9.998931, 10.00028 
4.4499198e+2, 2.4593359e+2, -633645.56, -691792.06, 85619.375, 0.056032557, -0.12478385, -572297.94, -42455.004, 0.0, 9.999774, 9.99903 
4.4499713e+2, 2.5593284e+2, -370602.28, -521284.1, 78582.35, -0.096335076, -0.13737959, -337078.88, 94772.445, 0.0, 10.000937, 9.998968 
4.4500262e+2, 2.6593202e+2, -261739.48, -511080.84, -14380.577, -0.067143895, -0.06634929, -260912.84, 72949.766, 0.0, 10.001429, 9.998126 
4.4500825e+2, 2.7593094e+2, -151701.67, -412246.06, -52012.176, 0.08399457, -0.013017435, -141702.31, 94175.984, 0.0, 10.001525, 9.998088 
4.4501367e+2, 2.8593016e+2, -109498.05, -393547.97, 66418.68, 0.051522464, 0.12758656, -94734.836, 43154.453, 0.00000003062236, 10.0013685, 9.997617 
4.4501957e+2, 2.9592928e+2, -79642.625, -323017.0, 76992.42, -0.052626055, 0.24437538, -57331.188, -17431.85, 0.0000032986038, 10.000878, 9.997663 
4.4502294e+2, 3.0592573e+2, 92290.234, -180784.63, -60208.746, -0.16155732, 0.10979602, 104976.01, 104976.01, 0.000027227657, 10.001588, 9.997964 
4.4502684e+2, 3.159223e+2, 391289.66, 26448.135, 35717.457, 0.0126563925, -0.064297825, 394753.47, 394753.47, 0.000091368296, 10.003306, 9.998561 
4.5491284e+2, 1.2592228e+2, -2179841.5, -1776084.5, -142292.38, -0.16089086, 0.20907818, -1730977.1, -25007.805, 0.000102696926, 9.996075, 10.001436 
4.549215e+2, 1.3592371e+2, -1890570.4, -1585772.6, 227125.88, -0.01622829, 0.16665348, -1464654.4, 143304.3, 0.000047349753, 9.9973755, 10.001479 
4.5492783e+2, 1.4592431e+2, -1748895.8, -1483881.0, 86381.2, -0.13870578, 0.09287082, -1458211.6, 51740.625, 0.000015080613, 9.997756, 10.001291 
4.5493376e+2, 1.559258e+2, -1708199.9, -1411940.0, 18006.414, -0.00035732394, 0.07659772, -1410849.6, 1084.5685, 0.0000021144335, 9.997361, 10.001303 
4.5494032e+2, 1.6592729e+2, -1545386.0, -1251997.8, 93360.71, 0.0847537, 0.08727404, -1224808.6, 89107.836, 0.00000004449902, 9.997655, 10.001599 
4.549464e+2, 1.7592867e+2, -1329439.4, -1115498.5, 150274.23, 0.0016680033, 0.033521265, -1038010.25, 177890.14, 0.0, 9.998546, 10.001432 
4.549527e+2, 1.8592913e+2, -1369776.3, -1317207.1, 108488.64, -0.03926724, 0.05496373, -1231864.4, -113966.93, 0.0, 9.998626, 9.999323 
4.5495972e+2, 1.9592865e+2, -1319812.6, -1224779.6, 53229.26, 0.0009571452, 0.0449065, -1200943.6, -181036.69, 0.0, 9.998213, 9.999487 
4.54966e+2, 2.0592907e+2, -1116644.9, -875956.8, 30538.166, -0.011943047, 0.04553691, -872142.6, 49758.72, 0.0, 9.998085, 10.001267 
4.549716e+2, 2.1592997e+2, -1020411.0, -790250.7, 86220.3, -0.08106809, -0.019609407, -761534.56, 62351.92, 0.0, 9.998114, 10.001171 
4.5497838e+2, 2.259304e+2, -970186.8, -864488.75, 67119.82, -0.012779507, -0.02079037, -831908.94, -106028.625, 0.0, 9.998413, 9.999854 
4.549858e+2, 2.359302e+2, -815012.6, -741648.94, 63888.48, 0.14154492, -0.05436303, -704660.56, -76777.99, 0.0, 9.998813, 9.999831 
4.5499185e+2, 2.4593025e+2, -625657.4, -647901.4, 118307.695, 0.045279063, -0.0034938331, -517950.03, 11932.195, 0.0, 9.999666, 9.999386 
4.5499703e+2, 2.5593022e+2, -371140.53, -492191.0, 131013.77, -0.2232375, 0.026194036, -287347.0, 144535.45, 0.0, 10.00081, 9.999233 
4.5500278e+2, 2.659289e+2, -336804.78, -650502.7, -20212.79, -0.21948496, 0.084120646, -335507.75, -1608.6241, 0.0, 10.001359, 9.9972 
4.5500866e+2, 2.7592656e+2, -219478.83, -532112.7, -34060.32, -0.052215774, 0.09989392, -215811.11, 20117.262, 0.0, 10.001436, 9.997304 
4.550149e+2, 2.8592443e+2, -50820.094, -265241.16, 36843.438, 0.011856794, 0.09541505, -44666.004, 93283.63, 0.000000022691747, 10.001335, 9.998517 
4.5502204e+2, 2.959219e+2, -23655.723, -198062.69, 77794.61, 0.071444705, -0.044994444, 6001.6035, 45972.383, 0.0000033720132, 10.000824, 9.998555 
4.5502496e+2, 3.0592084e+2, 87080.65, -189517.58, 637.4831, -0.15060638, 0.029013842, 87082.12, 87082.12, 0.000028360193, 10.001585, 9.997902 
4.550304e+2, 3.1592014e+2, 344620.06, -58573.78, 94437.93, -0.020893073, 0.14060155, 365643.53, 365643.53, 0.00009465621, 10.00325, 9.998008 
4.649085e+2, 1.2591687e+2, -2376164.5, -1898389.5, -181696.28, -0.13096511, 0.08419851, -1837142.4, -131125.17, 0.00009773488, 9.994817, 10.001204 
4.64918e+2, 1.3591921e+2, -1916580.8, -1624559.3, 144949.16, -0.088578604, 0.14659533, -1564828.9, 43169.934, 0.000043477085, 9.997276, 10.001269 
4.6492672e+2, 1.459198e+2, -1733394.9, -1526210.9, -20365.016, -0.032618336, 0.104095235, -1524228.1, -14234.298, 0.000012657647, 9.998066, 10.000855 
4.6493125e+2, 1.5592037e+2, -1681642.8, -1441154.9, -62490.574, 0.0029701928, 0.038408358, -1425886.3, -13900.616, 0.0000014631825, 9.99772, 10.000936 
4.6493754e+2, 1.659217e+2, -1550061.0, -1246223.6, 47679.09, 0.052034307, 0.043514647, -1238917.4, 75052.28, 0.000000030371112, 9.997607, 10.001653 
4.6494463e+2, 1.759233e+2, -1456473.9, -1172370.4, -2042.1394, 0.020624325, 0.008893701, -1172355.6, 43595.19, 0.0, 9.997664, 10.001464 
4.6495146e+2, 1.8592395e+2, -1431483.4, -1343937.6, 13776.738, 0.0020846475, 0.043961223, -1341820.8, -223874.38, 0.0, 9.998179, 9.999358 
4.6495843e+2, 1.9592366e+2, -1208378.5, -1167345.5, 68996.83, 0.021703884, 0.049488176, -1115879.4, -95924.77, 0.0, 9.998948, 9.999535 
4.6496466e+2, 2.0592433e+2, -990734.3, -800269.5, 63870.008, 0.01408609, 0.063139096, -780834.56, 141112.86, 0.0, 9.998864, 10.00142 
4.6497023e+2, 2.1592546e+2, -1005840.06, -774059.7, 19597.672, -0.024808014, 0.008464136, -772414.3, 51517.094, 0.0, 9.9981575, 10.001271 
4.649772e+2, 2.2592609e+2, -908778.56, -833234.5, 60965.473, 0.016547114, 0.025543306, -799288.2, -73364.24, 0.0, 9.998852, 9.99984 
4.649851e+2, 2.3592614e+2, -564699.06, -624688.44, 69061.086, 0.1093577, 0.015464277, -519400.2, 108524.625, 0.0, 10.0005665, 9.999779 
4.6499184e+2, 2.4592608e+2, -498040.88, -610716.5, 103492.3, 0.035530753, 0.0704278, -436545.75, 93380.38, 0.0, 10.000633, 9.999175 
4.649979e+2, 2.5592577e+2, -569795.6, -607715.6, 54379.445, -0.1473722, 0.08975447, -531165.6, -99235.695, 0.0, 9.99952, 9.999059 
4.6500403e+2, 2.6592427e+2, -524344.06, -715628.9, -15682.916, -0.15293518, 0.12502773, -523066.78, -189119.34, 0.0, 9.999944, 9.997444 
4.6501e+2, 2.7592185e+2, -211004.7, -507032.72, 34055.44, -0.054383025, 0.10577561, -207137.44, 28838.28, 0.0, 10.0013895, 9.99751 
4.6501654e+2, 2.859195e+2, 9048.91, -261207.31, 81810.836, 0.020882294, 0.0820529, 31884.777, 169883.8, 0.00000001636591, 10.001858, 9.998291 
4.650242e+2, 2.9591668e+2, 102629.54, -145265.11, 8624.623, 0.16817228, -0.06354133, 102929.234, 142952.94, 0.0000038591365, 10.001738, 9.998468 
4.6502736e+2, 3.0591616e+2, 182162.88, -167723.55, -24353.717, -0.094733626, 0.073688544, 183849.88, 183849.88, 0.000029778155, 10.002311, 9.997732 
4.6503478e+2, 3.1591502e+2, 335185.88, -70524.47, -21853.031, 0.107018344, 0.16414179, 336359.56, 336359.56, 0.00009717631, 10.003212, 9.997956 
4.7490296e+2, 1.2590832e+2, -2424458.3, -1962678.3, -126091.67, -0.23341052, -0.20252219, -1930491.8, -224398.08, 0.00009217974, 9.994696, 10.000805 
4.749141e+2, 1.3591164e+2, -1944666.0, -1677086.5, 241607.34, -0.23836105, -0.003236806, -1534699.1, 73368.87, 0.00003847725, 9.997273, 10.000898 
4.749256e+2, 1.4591306e+2, -1710902.5, -1478073.0, -47025.793, 0.0055173757, 0.042374924, -1468933.6, 41122.434, 0.000009911169, 9.998048, 10.001201 
4.749282e+2, 1.5591426e+2, -1656341.8, -1398680.0, -62224.926, -0.10963633, 0.00006281969, -1384439.8, 27603.19, 0.0000009593812, 9.99775, 10.001218 
4.7493404e+2, 1.6591534e+2, -1631230.1, -1402964.6, 37871.59, -0.08643826, 0.023542134, -1396845.5, -82813.16, 0.000000014696447, 9.997558, 10.000605 
4.749422e+2, 1.7591594e+2, -1517324.4, -1289971.1, 15411.715, -0.016312212, -0.0032396095, -1288931.1, -72903.93, 0.0, 9.997628, 10.000679 
4.7494963e+2, 1.8591732e+2, -1311115.4, -1073555.1, 33285.6, -0.025637178, 0.038719557, -1068979.5, 49033.945, 0.0, 9.998089, 10.00126 
4.7495678e+2, 1.959191e+2, -1103969.1, -934438.4, 106585.58, -0.06370859, 0.06338252, -883021.3, 136973.73, 0.0, 9.998873, 10.001174 
4.7496346e+2, 2.0592003e+2, -1074178.6, -943191.06, 25920.162, -0.013905361, 0.080761746, -938248.44, -16262.629, 0.0, 9.99874, 10.000495 
4.7496969e+2, 2.1592015e+2, -1083206.5, -898024.06, 13109.802, 0.08177705, 0.014625028, -897100.56, -73115.32, 0.0, 9.998005, 10.00049 
4.7497657e+2, 2.2592072e+2, -889283.25, -771514.6, 116215.26, 0.039563425, 0.034961093, -700117.1, 25861.764, 0.0, 9.998744, 10.000324 
4.7498393e+2, 2.3592146e+2, -557735.7, -579943.56, 137231.72, -0.093059406, 0.04887877, -431159.44, 196810.4, 0.0, 10.000428, 10.000157 
4.749915e+2, 2.4592097e+2, -567235.25, -731270.5, 51112.7, -0.088184886, 0.08423994, -552612.3, -22636.566, 0.0, 10.000532, 9.998398 
4.7499928e+2, 2.559194e+2, -628204.7, -706121.8, 34191.082, 0.01025362, 0.05340275, -615328.94, -183334.44, 0.0, 9.9994135, 9.998438 
4.75006e+2, 2.6591808e+2, -431673.47, -504590.28, 28803.793, 0.024871444, 0.057482097, -421668.2, -87660.32, 0.0, 9.99987, 9.998925 
4.7501174e+2, 2.7591673e+2, -137633.14, -332827.7, 96983.18, -0.045322172, 0.0015699939, -97640.57, 138379.72, 0.0, 10.001303, 9.998745 
4.7501814e+2, 2.859152e+2, -91774.375, -468477.2, 64088.69, -0.033105463, 0.07898203, -81169.48, 56868.58, 0.0000000367379, 10.001841, 9.996879 
4.7502565e+2, 2.959134e+2, -1743.8613, -344469.8, 20550.48, 0.10664263, 0.17025977, -516.0155, 39544.816, 0.000004901276, 10.001644, 9.997153 
4.750298e+2, 3.059115e+2, 159072.3, -199838.03, -1372.6962, -0.10709422, 0.23993534, 159077.55, 159077.55, 0.000032907166, 10.00225, 9.997536 
4.750392e+2, 3.159067e+2, 354706.63, -20034.271, -454.84995, 0.16170992, -0.0040660617, 354707.16, 354707.16, 0.00010232853, 10.003171, 9.9983225 
4.849007e+2, 1.2590228e+2, -1942995.6, -1689097.5, -95643.44, -0.06381623, -0.17155334, -1657100.9, 49051.953, 0.00008688649, 9.997807, 10.001198 
4.8490974e+2, 1.3590498e+2, -2141401.0, -1744884.3, 231081.03, -0.31474665, -0.058183204, -1638667.9, -30538.66, 0.000032757685, 9.995797, 10.001162 
4.849234e+2, 1.4590642e+2, -2030727.3, -1625910.6, 6999.248, 0.10133498, -0.025865382, -1625789.6, -115672.72, 0.000007215262, 9.995837, 10.001247 
4.8492643e+2, 1.5590803e+2, -1653523.9, -1399026.0, -66533.695, -0.05609282, -0.029362882, -1382681.6, 29420.357, 0.00000059770906, 9.997779, 10.001202 
4.8493207e+2, 1.6590917e+2, -1500826.9, -1380835.3, 53214.676, -0.08498367, 0.018845396, -1360635.8, -46543.48, 0.0000000048834687, 9.99863, 10.000238 
4.8494005e+2, 1.7590958e+2, -1389449.4, -1257218.3, 63662.773, -0.035465367, 0.007451376, -1231550.3, -15460.48, 0.0, 9.998648, 10.000401 
4.8494768e+2, 1.8591085e+2, -1261067.6, -1001684.8, 59076.914, -0.02622261, 0.028596144, -988863.25, 129212.914, 0.0, 9.998226, 10.001683 
4.8495516e+2, 1.9591261e+2, -1287797.3, -977933.6, 2281.894, -0.033971105, 0.005252475, -977916.8, 42139.277, 0.0, 9.997426, 10.001563 
4.849619e+2, 2.0591374e+2, -1206303.3, -1033010.0, -58089.27, 0.00017890685, 0.03701155, -1015339.75, -93294.67, 0.0, 9.997942, 10.000269 
4.8496816e+2, 2.1591417e+2, -910613.94, -836975.56, -33703.066, 0.06987131, 0.022720164, -823879.4, 163.83824, 0.0, 9.999287, 10.000292 
4.8497579e+2, 2.259146e+2, -762316.5, -735899.75, 93857.02, 0.04545352, 0.05030375, -654326.25, 71712.69, 0.0, 9.999727, 10.000097 
4.849843e+2, 2.3591483e+2, -702472.44, -676065.06, 34382.22, -0.043270405, 0.0383543, -652438.4, -24403.066, 0.0, 9.999534, 9.999935 
4.849919e+2, 2.459141e+2, -656970.25, -757529.44, -41578.715, -0.05867058, 0.052939396, -642005.5, -111962.35, 0.0, 9.999843, 9.998547 
4.8499888e+2, 2.559126e+2, -462550.44, -606502.6, -11642.117, -0.017999208, 0.014912328, -461614.97, -29554.697, 0.0, 10.000477, 9.998605 
4.8500612e+2, 2.6591167e+2, -286669.97, -415814.1, 14027.849, 0.01247415, 0.036994413, -285163.8, 48906.484, 0.0, 10.000781, 9.999095 
4.8501346e+2, 2.7591074e+2, -185532.42, -334375.56, -41070.367, 0.024741925, 0.0073182615, -174951.95, 61127.29, 0.0, 10.0008745, 9.99894 
4.8502016e+2, 2.859094e+2, -158965.58, -465134.28, -30900.076, 0.022076553, 0.08083975, -155878.13, -17783.521, 0.00000008825205, 10.001223, 9.9972 
4.85027e+2, 2.9590803e+2, 27760.793, -301342.75, 26591.01, 0.08039274, 0.18016282, 29895.455, 70008.05, 0.0000056092463, 10.001722, 9.997411 
4.8503184e+2, 3.0590606e+2, 183501.36, -201049.86, 121147.414, -0.1248344, 0.24091339, 218484.64, 218484.64, 0.000035389916, 10.002483, 9.997399 
4.8504323e+2, 3.1590125e+2, 404470.34, 17874.855, 42297.184, 0.24289832, 0.0012075914, 409043.94, 409043.94, 0.00010599746, 10.00346, 9.99843 
4.9490097e+2, 1.258989e+2, -1846572.9, -1511941.1, -138818.75, 0.10524498, 0.2027072, -1461851.3, 244342.58, 0.00007926606, 9.997898, 10.002371 
4.9490437e+2, 1.3589934e+2, -2074362.5, -1608075.4, 168962.72, -0.45818272, -0.020779403, -1553287.9, 54894.0, 0.000026309035, 9.995803, 10.002094 
4.9491978e+2, 1.4589988e+2, -2068437.5, -1686830.3, 65533.293, 0.12018334, -0.09962384, -1675889.9, -165713.98, 0.0000047383246, 9.995764, 10.000866 
4.9492553e+2, 1.5590173e+2, -1676771.3, -1445512.9, 13510.926, 0.045380987, -0.03989501, -1444726.1, -32564.129, 0.0000002991547, 9.997772, 10.000885 
4.9493125e+2, 1.6590323e+2, -1476742.8, -1324271.6, 41184.62, -0.057824377, 0.03816148, -1313858.4, 290.58386, 0.0000000005507737, 9.998596, 10.000646 
4.9493793e+2, 1.7590417e+2, -1372456.0, -1217674.3, 72010.1, -0.14418183, 0.039265726, -1189354.1, 26784.895, 0.0, 9.998625, 10.000685 
4.9494535e+2, 1.8590452e+2, -1347290.6, -1160221.6, 17858.64, -0.108891025, 0.009030313, -1158532.0, -40396.64, 0.0, 9.998141, 10.000634 
4.9495316e+2, 1.9590417e+2, -1362657.9, -1115570.3, -12442.624, -0.004793736, -0.1196376, -1114945.3, -94806.86, 0.0, 9.997344, 10.00066 
4.9495956e+2, 2.0590542e+2, -1182620.3, -955000.25, -20797.486, -0.044488423, -0.06743549, -953115.56, -30989.654, 0.0, 9.997812, 10.000871 
4.9496526e+2, 2.1590759e+2, -897967.5, -784450.0, 23152.729, -0.17574887, 0.035742197, -779909.44, 44195.01, 0.0, 9.999161, 10.00072 
4.949744e+2, 2.2590767e+2, -855887.6, -895248.5, 76474.16, -0.08657314, 0.065116666, -796602.1, -70497.13, 0.0, 9.999584, 9.999068 
4.9498597e+2, 2.3590612e+2, -780506.94, -803360.5, 43469.027, 0.14418966, -0.024703277, -746987.9, -118865.375, 0.0, 9.999388, 9.999129 
4.9499273e+2, 2.4590552e+2, -594628.8, -603978.56, -27673.229, 0.0149841895, -0.023798268, -571238.4, -41110.063, 0.0, 9.999744, 9.999649 
4.9499622e+2, 2.559053e+2, -414195.75, -483370.72, 23409.973, -0.35883865, -0.0366975, -407018.2, 25110.207, 0.0, 10.000379, 9.999499 
4.9500403e+2, 2.6590484e+2, -377118.2, -583476.8, 4528.7505, -0.30362287, 0.052465834, -377018.84, -42882.617, 0.0, 10.000702, 9.997977 
4.9501467e+2, 2.7590388e+2, -265366.53, -466661.34, -22998.95, 0.029821927, 0.12679188, -262772.22, -26619.771, 0.0, 10.000741, 9.998091 
4.9502212e+2, 2.859024e+2, -20598.996, -164085.88, -21946.875, 0.06538874, 0.109862514, -17317.197, 120849.28, 0.00000018947561, 10.001168, 9.99929 
4.9502784e+2, 2.9590064e+2, 150667.3, -35438.695, 61287.332, -0.045691784, -0.029134607, 169036.9, 209215.39, 0.000005650319, 10.001682, 9.999253 
4.9503335e+2, 3.0589986e+2, 186596.44, -206836.72, 150995.97, -0.2537065, 0.07067012, 237866.14, 237866.14, 0.00003451672, 10.002518, 9.997349 
4.9504587e+2, 3.1589854e+2, 381945.4, -17496.9, 66333.22, 0.098375045, 0.17402247, 392672.9, 392672.9, 0.00010176044, 10.003398, 9.9982195 
5.048997e+2, 1.2589213e+2, -1862506.3, -1553057.4, -9694.55, 0.1911825, 0.17696095, -1552753.9, 153504.23, 0.000066640154, 9.997969, 10.002038 
5.0490093e+2, 1.3589227e+2, -1913968.4, -1566592.5, 33468.613, -0.4308734, -0.038971763, -1563397.4, 44852.42, 0.0000195532, 9.997064, 10.001769 
5.049168e+2, 1.4589281e+2, -1954556.8, -1609862.6, 39449.664, 0.22414048, -0.11090179, -1605405.3, -95161.27, 0.0000028130235, 9.996467, 10.001047 
5.0492245e+2, 1.5589508e+2, -1815579.6, -1485477.3, -1568.8975, 0.01874199, -0.028216686, -1485469.9, -73244.125, 0.00000011765629, 9.996728, 10.001104 
5.049285e+2, 1.6589673e+2, -1679053.4, -1378128.6, 32404.107, -0.09971306, 0.032142695, -1374678.9, -60468.906, 0.000000000026416515, 9.99701, 10.001041 
5.049363e+2, 1.7589757e+2, -1563931.3, -1278962.3, 37896.164, -0.09009521, -0.013876836, -1274008.8, -57809.277, 0.0, 9.997159, 10.000977 
5.0494397e+2, 1.8589777e+2, -1417384.8, -1248164.3, 34087.793, -0.044599444, -0.044266656, -1241555.8, -123358.18, 0.0, 9.997903, 10.000144 
5.0495136e+2, 1.9589731e+2, -1149849.9, -1065367.6, 27321.535, 0.0026461817, -0.13143384, -1057301.9, -37098.535, 0.0, 9.999047, 10.000177 
5.0495815e+2, 2.0589821e+2, -951320.3, -878452.9, 30735.154, -0.05012651, -0.07468857, -867220.44, 54974.844, 0.0, 9.999563, 10.000542 
5.049647e+2, 2.1589985e+2, -871769.4, -805382.9, -25656.941, -0.15362987, 0.009058107, -796622.94, 27556.346, 0.0, 9.999507, 10.000399 
5.049741e+2, 2.2589974e+2, -853911.6, -914573.44, 40661.613, -0.065926656, 0.043565102, -833514.5, -107332.055, 0.0, 9.999679, 9.998892 
5.0498563e+2, 2.3589823e+2, -711339.0, -780561.75, 48237.047, 0.15196791, -0.027333092, -686580.7, -58380.23, 0.0, 9.9999275, 9.999016 
5.0499266e+2, 2.4589771e+2, -529217.3, -553518.3, -1427.1552, 0.024114916, -0.022121487, -529133.75, 1071.3876, 0.0, 10.000109, 9.999822 
5.049968e+2, 2.558976e+2, -415394.47, -465270.25, -40678.7, -0.33115372, -0.04240317, -392618.06, 39585.25, 0.0, 10.000287, 9.999669 
5.0500476e+2, 2.6589727e+2, -397339.5, -589338.6, -19055.592, -0.2822155, 0.051551625, -395466.53, -61257.387, 0.0, 10.000542, 9.998025 
5.050154e+2, 2.7589655e+2, -258191.89, -460841.4, 11483.661, 0.033410523, 0.14680007, -257543.2, -21320.467, 0.00000000061010413, 10.00077, 9.998125 
5.050235e+2, 2.8589493e+2, 18094.938, -140699.05, 6453.0845, 0.07981633, 0.10867904, 18356.748, 156595.03, 0.00000027597625, 10.001415, 9.999335 
5.0503016e+2, 2.9589266e+2, 247985.84, 10184.542, -92780.68, -0.0045011993, -0.07987842, 279901.72, 320156.5, 0.0000049916057, 10.002358, 9.999248 
5.050366e+2, 3.0589217e+2, 256381.64, -163917.72, -36661.74, -0.1933015, 0.046583746, 259555.58, 259555.58, 0.000030276777, 10.002965, 9.99743 
5.05049e+2, 3.1589127e+2, 358246.84, -18802.303, -188246.56, 0.089962564, 0.18007588, 436139.75, 436139.75, 0.000090633286, 10.003197, 9.998311 
5.14896e+2, 1.25882e+2, -2000572.9, -1844568.8, 55340.445, -0.04176751, -0.25655824, -1826931.4, -120586.04, 0.000052165007, 9.997979, 10.000034 
5.148992e+2, 1.3588388e+2, -2022191.5, -1803742.9, 7543.318, -0.34643742, -0.11621208, -1803482.6, -195150.19, 0.000013925394, 9.997117, 10.0001135 
5.1491433e+2, 1.4588533e+2, -1902139.3, -1504349.8, 29918.49, 0.28845677, -0.058835868, -1502112.1, 8208.282, 0.000001645238, 9.996474, 10.001773 
5.1491666e+2, 1.5588805e+2, -1769195.9, -1386530.9, 23376.809, -0.25855955, -0.005153166, -1385108.0, 27185.145, 0.00000003629146, 9.996712, 10.001797 
5.149235e+2, 1.6588958e+2, -1669321.5, -1336001.0, 29941.77, -0.33265024, -0.0061485567, -1333332.8, -19056.643, 0.0, 9.99692, 10.001369 
5.149347e+2, 1.7588983e+2, -1550662.6, -1239342.8, 59236.96, 0.008435852, -0.14790933, -1228452.3, -12181.718, 0.0, 9.997113, 10.001266 
5.149431e+2, 1.8589081e+2, -1421388.1, -1240872.0, 66150.75, 0.05300002, -0.11789501, -1219226.4, -100965.47, 0.0, 9.997833, 10.000225 
5.149493e+2, 1.9589211e+2, -1158909.0, -1075909.1, 80368.61, -0.13369705, -0.039389785, -1026958.25, -6708.0044, 0.0, 9.9990015, 10.00013 
5.1495713e+2, 2.0589203e+2, -1071513.9, -1094200.0, 17794.916, -0.12779886, -0.0019942254, -1061754.1, -139500.27, 0.0, 9.999419, 9.999129 
5.1496625e+2, 2.158908e+2, -973379.9, -987585.7, -15881.05, 0.02639062, -0.07078447, -963085.7, -138816.38, 0.0, 9.999377, 9.99921 
5.149748e+2, 2.2589064e+2, -821620.4, -820082.44, 36457.387, 0.008930771, -0.024883123, -784385.94, -58113.08, 0.0, 9.999556, 9.999605 
5.149828e+2, 2.3589107e+2, -689518.5, -706482.6, 68303.414, -0.14443374, 0.029389676, -629172.5, -902.93384, 0.0, 9.999801, 9.999588 
5.149913e+2, 2.4589068e+2, -588392.1, -659520.5, -5973.268, -0.15579957, 0.059657853, -587894.0, -57620.273, 0.0, 10.000033, 9.99913 
5.15e+2, 2.5588948e+2, -467256.3, -548294.5, -19692.066, -0.06578415, -0.00448288, -462724.6, -30439.492, 0.0, 10.0001745, 9.999155 
5.15008e+2, 2.6588905e+2, -324335.22, -421871.94, -21547.34, -0.040543914, 0.035514586, -319787.16, 14501.799, 0.0, 10.000479, 9.999207 
5.150153e+2, 2.7588874e+2, -205448.45, -336059.78, 39973.066, -0.0763529, 0.06055756, -194186.0, 42105.03, 0.0000000018853024, 10.0007, 9.999021 
5.150239e+2, 2.8588697e+2, -127802.7, -435569.63, 30214.643, -0.051500004, 0.07865229, -124864.47, 13445.792, 0.00000034894228, 10.001388, 9.997319 
5.150334e+2, 2.9588413e+2, 103174.664, -272155.28, -43433.977, 0.051990785, 0.026705867, 108135.375, 148477.23, 0.000004315403, 10.002277, 9.997345 
5.15041e+2, 3.0588296e+2, 266790.84, -130894.12, -32475.955, -0.07417186, 0.16547042, 269425.44, 269425.44, 0.000026122347, 10.002931, 9.997673 
5.1505184e+2, 3.1587926e+2, 362732.9, 22265.025, -150371.47, -0.003742512, -0.0063199857, 419635.88, 419635.88, 0.000081293096, 10.003079, 9.998648 
5.2489436e+2, 1.258749e+2, -1984338.1, -1891990.9, 126297.06, -0.0042461795, -0.32521743, -1803691.6, -97279.85, 0.000041919076, 9.998307, 9.999552 
5.248967e+2, 1.3587733e+2, -2008196.0, -1834583.8, 14652.867, -0.3118828, -0.0958142, -1833355.8, -224959.38, 0.000010470756, 9.997371, 9.999777 
5.249108e+2, 1.4587846e+2, -1844630.8, -1495155.9, 131113.63, 0.27726024, -0.046744816, -1451435.3, 58952.34, 0.0000009776196, 9.996949, 10.001605 
5.249137e+2, 1.5588023e+2, -1665786.1, -1356422.0, 30097.328, -0.2533606, -0.07091756, -1353521.1, 58847.05, 0.000000005050013, 9.997501, 10.001618 
5.24921e+2, 1.6588159e+2, -1560879.0, -1313481.1, -2641.5676, -0.30969155, -0.06542976, -1313452.9, 900.0967, 0.0, 9.997795, 10.001107 
5.2493256e+2, 1.7588225e+2, -1457884.0, -1221159.5, -43273.355, 0.048497185, -0.13769671, -1213497.1, 2847.6494, 0.0, 9.99786, 10.001037 
5.2494127e+2, 1.8588324e+2, -1394566.0, -1222796.9, -18383.791, 0.08951565, -0.09690857, -1220851.4, -102515.86, 0.0, 9.997991, 10.000285 
5.24948e+2, 1.9588429e+2, -1296347.3, -1134171.9, -33478.684, -0.11629184, -0.045257177, -1127532.5, -107205.445, 0.0, 9.998042, 10.000194 
5.249565e+2, 2.058841e+2, -1166508.3, -1165840.4, -18023.953, -0.099295124, -0.01036511, -1148147.3, -225815.47, 0.0, 9.998868, 9.998905 
5.2496654e+2, 2.1588276e+2, -870666.8, -963848.4, 12919.261, 0.08476527, -0.06454724, -868908.8, -44560.77, 0.0, 10.000185, 9.998987 
5.2497506e+2, 2.2588266e+2, -731619.7, -771539.6, 57645.004, 0.049061526, -0.0056481306, -690576.8, 35774.09, 0.0, 10.000167, 9.999636 
5.249822e+2, 2.3588316e+2, -777721.94, -754078.4, 16092.425, -0.1464112, 0.0549068, -745932.2, -117585.11, 0.0, 9.999213, 9.999549 
5.249914e+2, 2.4588248e+2, -681467.6, -739830.44, -7215.9053, -0.11553565, 0.07562194, -680588.7, -150234.64, 0.0, 9.999552, 9.998811 
5.250018e+2, 2.5588083e+2, -396706.4, -546941.25, -19916.838, 0.07841283, -0.0008422764, -394110.88, 38259.09, 0.0, 10.000813, 9.998854 
5.2501017e+2, 2.658798e+2, -160233.69, -364599.0, -54962.67, 0.07493074, 0.009873174, -146389.67, 187988.95, 0.0, 10.001707, 9.998997 
5.250169e+2, 2.75879e+2, 20171.496, -241222.8, -122922.68, -0.06412818, 0.0007821263, 68894.89, 305279.84, 0.00000000009174081, 10.00234, 9.998861 
5.2502555e+2, 2.8587726e+2, -31164.695, -412552.38, -80764.28, -0.049403302, 0.03901499, -14766.744, 123637.77, 0.00000033351301, 10.002144, 9.997114 
5.250356e+2, 2.9587474e+2, -48873.5, -365010.34, -46964.996, 0.097708605, 0.039475646, -42043.96, -1609.333, 0.0000041082662, 10.001308, 9.997174 
5.250441e+2, 3.0587366e+2, 86515.516, -193058.05, 71986.266, 0.017719228, 0.17695762, 103962.21, 103962.21, 0.000024723933, 10.001584, 9.997899 
5.250547e+2, 3.1586945e+2, 302422.66, 66257.195, -112193.35, 0.02828764, -0.061226193, 347222.97, 347222.97, 0.00007789345, 10.002344, 9.99931 
5.3489447e+2, 1.2587075e+2, -1890174.1, -1707344.3, 163255.67, 0.10206661, -0.03484432, -1611652.0, 94806.59, 0.000035694404, 9.9983635, 10.000788 
5.3489286e+2, 1.3587274e+2, -1939971.0, -1684052.4, -17117.201, -0.45262575, 0.030023217, -1682912.5, -74472.75, 0.000008273398, 9.997336, 10.000828 
5.3490585e+2, 1.4587231e+2, -1930264.3, -1663095.8, 138363.55, 0.043636978, -0.065037034, -1604354.3, -93909.98, 0.00000061502607, 9.996906, 10.00047 
5.349133e+2, 1.558717e+2, -1746937.5, -1523443.9, 63108.945, -0.075268656, -0.2178982, -1506854.8, -94404.69, 0.00000000036285042, 9.997495, 10.000474 
5.349208e+2, 1.6587277e+2, -1630340.1, -1450390.5, -14942.261, -0.13433626, -0.13927037, -1449158.1, -134717.4, 0.0, 9.997763, 10.000186 
5.349294e+2, 1.7587475e+2, -1518093.3, -1345715.5, -29616.793, -0.08142767, 0.014536986, -1340768.9, -124345.69, 0.0, 9.997853, 10.00019 
5.349381e+2, 1.8587498e+2, -1405052.3, -1228844.8, -28651.072, -0.054810833, 0.018172907, -1224303.1, -105880.914, 0.0, 9.997924, 10.000273 
5.3494686e+2, 1.9587371e+2, -1304753.4, -1136049.5, -15728.052, -0.058698013, -0.16406848, -1134595.6, -114160.13, 0.0, 9.997964, 10.000224 
5.349558e+2, 2.058743e+2, -1116033.5, -1023972.3, 20311.941, -0.07825146, -0.10791865, -1019689.94, -97259.94, 0.0, 9.998716, 9.999947 
5.349652e+2, 2.1587603e+2, -829634.3, -845490.94, 65932.57, -0.09256123, 0.03918135, -771155.06, 53257.883, 0.0, 10.000043, 9.999866 
5.3497446e+2, 2.2587597e+2, -803930.75, -894073.3, 9886.4, -0.050898105, 0.107913494, -802859.2, -76444.12, 0.0, 10.000042, 9.998858 
5.3498346e+2, 2.358745e+2, -845499.8, -861443.44, -106.57837, 0.026601158, 0.043557473, -845499.06, -217066.31, 0.0, 9.999069, 9.99888 
5.3499275e+2, 2.4587303e+2, -695575.3, -747511.5, 29845.363, 0.037474375, 0.017201737, -681982.25, -151535.38, 0.0, 9.999463, 9.998799 
5.3500205e+2, 2.558714e+2, -421231.63, -577109.44, 39421.64, -0.011308793, -0.05497898, -411829.0, 20631.063, 0.0, 10.000724, 9.99869 
5.35011e+2, 2.658696e+2, -273689.47, -589983.5, -42193.848, -0.04357867, -0.034865744, -268157.53, 66321.64, 0.0, 10.001659, 9.997473 
5.350195e+2, 2.758673e+2, -79439.734, -431799.0, -88527.414, -0.06875385, -0.038752645, -58448.46, 178057.02, 0.0, 10.002258, 9.9976 
5.3502816e+2, 2.8586572e+2, 80474.17, -173545.97, -121808.445, -0.040194, -0.01948604, 129443.805, 267966.56, 0.00000019037492, 10.002118, 9.998766 
5.350365e+2, 2.958645e+2, 46230.02, -148948.63, -53844.758, 0.016221073, -0.05378792, 60098.91, 100633.43, 0.0000040138116, 10.001227, 9.998698 
5.350454e+2, 3.0586413e+2, 93461.66, -184464.22, 97363.305, -0.032678276, 0.08521861, 124175.8, 124175.8, 0.000024880646, 10.001595, 9.997955 
5.3505665e+2, 3.1586155e+2, 370510.4, 195613.47, -41310.965, -0.08226247, 0.0009232649, 379777.13, 379777.13, 0.00007745561, 10.00237, 10.000194 
5.448924e+2, 1.2586337e+2, -2130025.5, -1727856.8, 120833.47, 0.17173663, 0.096183695, -1694344.4, 12193.421, 0.00003031358, 9.996295, 10.001685 
5.448909e+2, 1.3586499e+2, -2017332.8, -1617753.9, -205904.34, -0.32723224, 0.030991247, -1530641.9, 77875.85, 0.000006366235, 9.996371, 10.001758 
5.44902e+2, 1.4586486e+2, -1971238.0, -1723148.3, 62642.938, -0.011210511, -0.056847855, -1708228.1, -197710.0, 0.00000037085837, 9.996792, 10.000124 
5.449118e+2, 1.5586448e+2, -1701107.4, -1538993.9, 18207.432, 0.007823092, -0.15115073, -1536974.1, -124450.9, 0.00000000007720086, 9.997965, 10.000148 
5.4491985e+2, 1.6586511e+2, -1562212.1, -1437580.1, -7003.842, -0.03267907, -0.08949494, -1437187.8, -122669.3, 0.0, 9.99834, 9.999983 
5.449274e+2, 1.758663e+2, -1506583.1, -1360040.5, 7281.3, -0.06463555, 0.006558516, -1359679.6, -143171.5, 0.0, 9.998045, 9.9999895 
5.449363e+2, 1.8586643e+2, -1339538.8, -1227818.0, 64043.258, -0.052336827, 0.022261208, -1198696.5, -80187.76, 0.0, 9.998483, 10.000021 
5.449459e+2, 1.9586562e+2, -1097834.4, -1054699.6, 36795.695, -0.0130111175, -0.09171231, -1033616.3, -13097.642, 0.0, 9.99945, 10.000065 
5.449553e+2, 2.0586623e+2, -971346.3, -908343.44, 58890.75, -0.029446546, -0.04777386, -873058.2, 49453.344, 0.0, 9.999513, 10.000363 
5.4496485e+2, 2.1586761e+2, -984994.75, -877865.3, 36049.734, -0.06740685, 0.026182687, -866864.06, -42369.395, 0.0, 9.998804, 10.000237 
5.4497427e+2, 2.2586732e+2, -940308.6, -1005109.44, -7905.894, -0.026614197, 0.07238824, -939358.06, -212859.11, 0.0, 9.999292, 9.998457 
5.449836e+2, 2.3586555e+2, -644553.2, -810767.9, -15992.233, 0.067340925, 0.022964504, -643028.5, -14507.726, 0.0, 10.000643, 9.998474 
5.4499316e+2, 2.4586399e+2, -466584.56, -656210.7, 53582.035, 0.06270406, 0.01386965, -452491.47, 78045.33, 0.0, 10.001119, 9.998628 
5.450028e+2, 2.5586236e+2, -393586.28, -581478.5, 21972.025, -0.014800778, -0.042550985, -391051.1, 41499.457, 0.0, 10.000993, 9.998529 
5.4501206e+2, 2.6586065e+2, -416342.06, -661337.56, 11693.888, -0.043259427, -0.001779941, -415785.16, -81215.88, 0.0, 10.000692, 9.997449 
5.450211e+2, 2.7585858e+2, -360147.4, -564219.1, 53097.773, -0.026378077, 0.014216809, -347158.53, -110563.89, 0.0, 10.000315, 9.99763 
5.450298e+2, 2.8585717e+2, -84962.13, -211513.17, 35379.926, -0.007966137, 0.03227885, -75742.61, 62866.535, 0.00000011177434, 10.000818, 9.99913 
5.45038e+2, 2.9585624e+2, 177885.02, -41433.98, -16184.48, 0.014891274, -0.010006877, 179072.9, 219688.88, 0.0000045059896, 10.001976, 9.9990635 
5.450476e+2, 3.058551e+2, 215558.28, -155463.33, 118210.29, -0.015992615, 0.05163586, 250020.05, 250020.05, 0.000026381855, 10.002561, 9.997681 
5.45059e+2, 3.1585357e+2, 346232.88, 181974.14, -91017.88, -0.060880184, 0.09263052, 386698.3, 386698.3, 0.00007890932, 10.00223, 10.000149 
5.5488735e+2, 1.2585288e+2, -2087386.5, -1625682.9, 116458.15, -0.016997375, 0.09736214, -1597971.3, 108677.32, 0.000026661766, 9.996251, 10.002399 
5.5489033e+2, 1.3585398e+2, -1969141.4, -1515113.9, -198612.88, -0.041224174, -0.089297555, -1440494.9, 168136.5, 0.0000052899522, 9.996358, 10.002472 
5.548993e+2, 1.4585596e+2, -1937898.0, -1644581.0, 88886.03, 0.0020651899, -0.03023847, -1619747.8, -109137.11, 0.00000021782215, 9.996757, 10.000678 
5.5490875e+2, 1.5585859e+2, -1663820.5, -1464267.1, 73949.81, -0.12331774, 0.12790738, -1439850.6, -27263.357, 0.00000000000011946363, 9.997969, 10.000665 
5.5491745e+2, 1.6585873e+2, -1530306.3, -1367233.8, -28513.504, -0.13121733, 0.08922905, -1362391.9, -47806.977, 0.0, 9.9983225, 10.000474 
5.549263e+2, 1.758568e+2, -1483654.4, -1305920.6, 12751.235, -0.00880173, -0.17693178, -1305010.5, -88409.91, 0.0, 9.998013, 10.00038 
5.549355e+2, 1.8585756e+2, -1382106.8, -1294956.5, 90632.016, -0.0016925383, -0.09027176, -1237968.4, -119373.62, 0.0, 9.998393, 9.999604 
5.549449e+2, 1.9586009e+2, -1136558.1, -1121895.8, 81462.9, -0.08878466, 0.1740875, -1047434.9, -26859.115, 0.0, 9.999383, 9.999645 
5.549547e+2, 2.0585993e+2, -1001512.8, -939665.44, 21831.19, -0.067341484, 0.16752832, -932735.8, -10159.633, 0.0, 9.999386, 10.000204 
5.5496496e+2, 2.1585757e+2, -1019144.7, -914534.5, 28717.932, 0.042586192, -0.116802685, -907169.3, -82576.15, 0.0, 9.998653, 10.00006 
5.5497414e+2, 2.2585654e+2, -969948.6, -1028994.75, 32208.725, 0.009813595, -0.12948677, -955779.44, -229175.69, 0.0, 9.999135, 9.998368 
5.549825e+2, 2.3585634e+2, -676548.75, -837887.4, 43879.97, -0.13425162, -0.014144803, -665386.75, -36775.66, 0.0, 10.000478, 9.998365 
5.549925e+2, 2.458554e+2, -506585.5, -719365.56, 39174.055, -0.14600672, 0.06696492, -499602.5, 31020.77, 0.0, 10.001023, 9.998246 
5.550036e+2, 2.5585368e+2, -422264.13, -618032.5, 30506.889, -0.06359609, 0.040033363, -417620.34, 15020.929, 0.0, 10.000888, 9.998332 
5.550131e+2, 2.6585296e+2, -318539.28, -447847.94, -14780.735, -0.034017537, 0.1058784, -316871.28, 17778.111, 0.0, 10.000648, 9.998937 
5.5502146e+2, 2.7585265e+2, -283841.34, -390929.75, 56009.375, -0.05012749, 0.15269785, -259899.86, -23246.236, 0.0, 10.000246, 9.998857 
5.5503047e+2, 2.858515e+2, -153849.16, -346915.25, 66074.4, -0.04907796, 0.1908493, -133401.63, 5263.384, 0.00000024371042, 10.000784, 9.9982195 
5.550396e+2, 2.9584974e+2, 110791.45, -172416.6, 40599.063, -0.05452263, 0.15742071, 116496.58, 157177.94, 0.0000058589785, 10.001929, 9.998193 
5.5504996e+2, 3.0584642e+2, 172695.78, -236755.36, 101548.85, -0.06155826, 0.070909075, 196497.52, 196497.52, 0.000029984647, 10.00253, 9.997134 
5.5506116e+2, 3.158451e+2, 269889.84, 33092.46, -63243.57, -0.13441627, 0.18700063, 285722.3, 285722.3, 0.00008416486, 10.002169, 9.999165 
5.64883e+2, 1.2584314e+2, -2264257.3, -1737441.8, 291425.06, -0.0058025364, 0.035880506, -1608023.6, 98720.37, 0.000022362967, 9.995136, 10.002159 
5.6488883e+2, 1.3584483e+2, -1789416.1, -1451609.4, -137951.48, 0.12356363, -0.06809166, -1402432.6, 206291.4, 0.000004259607, 9.997685, 10.002253 
5.6489575e+2, 1.4584729e+2, -1715058.9, -1516185.1, 91915.6, -0.08930584, 0.034858122, -1480210.9, 30488.898, 0.00000013010742, 9.99818, 10.000879 
5.6490606e+2, 1.5584993e+2, -1760750.9, -1481980.6, 30030.691, -0.13990742, 0.17150179, -1478782.3, -66106.24, 0.0, 9.997189, 10.000916 
5.649156e+2, 1.6585027e+2, -1641849.0, -1401816.3, -54417.773, -0.10176665, 0.13093838, -1390055.4, -75384.26, 0.0, 9.997455, 10.000663 
5.6492496e+2, 1.7584863e+2, -1369776.8, -1228320.1, -57115.188, 0.02760238, -0.12777428, -1208138.4, 8544.676, 0.0, 9.998686, 10.000585 
5.6493455e+2, 1.8584935e+2, -1304026.5, -1272046.5, 43823.113, 0.04069608, -0.04960008, -1241387.4, -122710.3, 0.0, 9.999005, 9.999457 
5.649443e+2, 1.9585156e+2, -1268449.9, -1196515.5, 34603.008, -0.03289273, 0.1967086, -1182572.8, -161912.94, 0.0, 9.998548, 9.999518 
5.6495404e+2, 2.0585103e+2, -1134721.5, -1044963.44, -13691.752, -0.028537601, 0.17743443, -1042921.4, -120256.71, 0.0, 9.998642, 9.999842 
5.649638e+2, 2.1584831e+2, -977219.8, -922058.0, -39130.38, 0.050743286, -0.10747632, -901765.2, -77077.92, 0.0, 9.999069, 9.999803 
5.649736e+2, 2.2584742e+2, -834209.44, -918475.6, 53072.9, 0.013123662, -0.1171321, -808578.75, -81882.88, 0.0, 9.999874, 9.99877 
5.649834e+2, 2.3584762e+2, -586299.8, -751523.5, 74934.34, -0.10433359, -0.002664264, -557377.5, 71319.29, 0.0, 10.000913, 9.998744 
5.649937e+2, 2.4584705e+2, -543278.56, -740370.7, 64800.863, -0.11288973, 0.09780251, -523881.9, 6823.8003, 0.0, 10.000811, 9.998192 
5.650041e+2, 2.558456e+2, -563710.4, -693790.8, 54896.477, -0.04310169, 0.10597919, -543639.75, -110916.664, 0.0, 9.999958, 9.998258 
5.6501365e+2, 2.6584473e+2, -365435.78, -459052.2, 14097.353, -0.02043504, 0.15380111, -363359.0, -28626.611, 0.0, 10.000277, 9.999034 
5.6502247e+2, 2.7584404e+2, -104513.8, -293336.13, -41069.92, -0.028031494, 0.14915104, -95967.66, 140770.27, 0.0, 10.001444, 9.998938 
5.65032e+2, 2.858426e+2, -12487.983, -340121.78, -17429.895, -0.027497614, 0.18670799, -11563.334, 127187.95, 0.00000046127252, 10.001993, 9.997689 
5.650418e+2, 2.9584077e+2, 101175.234, -237517.17, -36981.75, -0.027407441, 0.1960835, 105166.234, 145935.8, 0.000007820285, 10.002105, 9.997667 
5.650528e+2, 3.0583706e+2, 143707.95, -257563.9, 60041.684, -0.012157828, 0.09743675, 152499.28, 152499.28, 0.00003595913, 10.002367, 9.99707 
5.6506383e+2, 3.158357e+2, 257546.89, -42959.77, -118285.625, -0.08148248, 0.21885577, 298520.0, 298520.0, 0.000094486146, 10.002414, 9.998513 
5.7487875e+2, 1.2583402e+2, -2354975.8, -1908852.1, 286677.44, -0.009894311, -0.11061508, -1768677.8, -61852.848, 0.000015098279, 9.995076, 10.001001 
5.748859e+2, 1.3583751e+2, -1870970.3, -1627387.3, -44211.168, 0.0291166, 0.09373302, -1619611.0, -10814.686, 0.0000026568694, 9.997706, 10.001034 
5.74891e+2, 1.4583883e+2, -1722064.1, -1526522.4, 35203.215, -0.41340563, 0.14063133, -1520377.8, -9591.876, 0.000000050157187, 9.998167, 10.0008135 
5.749034e+2, 1.558383e+2, -1771763.6, -1498324.6, 10860.901, -0.14945172, -0.029242577, -1497893.9, -85102.63, 0.0, 9.997158, 10.000823 
5.749138e+2, 1.6583952e+2, -1652074.4, -1405385.0, -21909.566, -0.050144188, 0.023630459, -1403454.3, -88675.38, 0.0, 9.997377, 10.000673 
5.7492286e+2, 1.7584181e+2, -1373559.3, -1231222.8, -4008.164, -0.0765635, 0.15660729, -1231110.0, -14354.205, 0.0, 9.998659, 10.00058 
5.74933e+2, 1.8584184e+2, -1297441.5, -1244017.0, 15914.743, -0.043031212, 0.15468097, -1239635.5, -120880.92, 0.0, 9.998949, 9.999674 
5.7494384e+2, 1.9583996e+2, -1272956.0, -1182117.6, 32014.371, 0.035887666, -0.03026937, -1171968.6, -151196.7, 0.0, 9.998447, 9.999665 
5.749531e+2, 2.058395e+2, -1191808.5, -1129742.8, -10940.467, -0.011322111, -0.020542473, -1127870.8, -205093.05, 0.0, 9.998495, 9.9993305 
5.7496107e+2, 2.1583992e+2, -1028568.2, -992874.6, -10054.71, -0.15879007, 0.061596468, -990237.2, -165460.64, 0.0, 9.998913, 9.999394 
5.749723e+2, 2.2584e+2, -784581.9, -784508.8, 81392.836, -0.12811507, 0.11280779, -703152.5, 23622.918, 0.0, 9.999736, 9.999758 
5.749859e+2, 2.3583952e+2, -541517.56, -626765.06, 121403.04, 0.031850006, 0.06242129, -455473.2, 173303.83, 0.0, 10.000773, 9.999669 
5.749963e+2, 2.4583893e+2, -539555.8, -720070.8, 19127.346, 0.043648228, 0.10982722, -537551.4, -6767.457, 0.0, 10.000745, 9.998369 
5.7500416e+2, 2.55838e+2, -573489.44, -692770.44, 42626.47, -0.06430885, 0.1522262, -559822.4, -127025.46, 0.0, 9.999859, 9.998317 
5.750134e+2, 2.6583585e+2, -456032.13, -644362.2, 46604.848, -0.10100143, 0.13695833, -445130.2, -110311.73, 0.0, 10.000252, 9.997781 
5.750236e+2, 2.7583253e+2, -189332.81, -461833.2, 9669.264, -0.09186989, -0.004595759, -188990.14, 47858.645, 0.0, 10.001392, 9.997813 
5.750339e+2, 2.8583047e+2, -21194.707, -345367.38, -26789.676, -0.067021355, 0.021736095, -18995.72, 119872.52, 0.0000006054728, 10.001942, 9.997678 
5.7504416e+2, 2.958293e+2, 85851.836, -250782.36, -15092.447, -0.040224947, 0.100412406, 86527.125, 127407.99, 0.000009307056, 10.0020275, 9.997613 
5.750558e+2, 3.0582696e+2, 165038.03, -208018.6, 56549.688, 0.02416726, 0.12538087, 173421.69, 173421.69, 0.000040671366, 10.002347, 9.997426 
5.750665e+2, 3.1582513e+2, 213844.81, -124301.71, -84846.73, -0.11794268, 0.16381751, 233940.1, 233940.1, 0.000103750725, 10.002363, 9.99799 
5.848738e+2, 1.2582473e+2, -2374860.0, -1896981.5, 80857.58, 0.019979013, -0.016120356, -1883671.0, -176752.53, 0.000008007214, 9.994814, 10.001226 
5.8488375e+2, 1.3582772e+2, -2131778.8, -1733337.0, -78966.92, 0.13964948, 0.12437273, -1718257.3, -109364.09, 0.0000012151539, 9.995824, 10.001225 
5.848882e+2, 1.458287e+2, -1951577.8, -1622263.8, 13745.763, -0.4158538, 0.123569995, -1621691.0, -110805.81, 0.000000012980553, 9.996556, 10.000914 
5.849016e+2, 1.5582815e+2, -1774337.0, -1488416.4, -26549.18, -0.045649465, -0.060890473, -1485972.0, -73081.92, 0.0, 9.997111, 10.000894 
5.8491236e+2, 1.6582955e+2, -1606492.5, -1411109.1, 8146.6836, 0.051320884, 0.019585336, -1410770.0, -95893.09, 0.0, 9.997806, 10.000428 
5.849215e+2, 1.7583221e+2, -1389991.8, -1260021.9, -17965.46, -0.07097415, 0.21317214, -1257584.3, -40732.164, 0.0, 9.998635, 10.000392 
5.8493173e+2, 1.8583189e+2, -1278392.0, -1231435.3, -33325.965, -0.066390015, 0.18268695, -1214147.8, -95293.81, 0.0, 9.999057, 9.999717 
5.849427e+2, 1.9582912e+2, -1168519.8, -1132978.9, -50624.492, 0.048244234, -0.09118268, -1097096.5, -76218.24, 0.0, 9.999153, 9.999676 
5.8495224e+2, 2.0582888e+2, -1036308.0, -1075894.8, -32877.785, 0.0003477221, -0.05113243, -1017725.25, -94842.46, 0.0, 9.999654, 9.999139 
5.849605e+2, 2.1583028e+2, -815758.06, -911034.4, -31529.57, -0.17143138, 0.14577581, -806269.06, 18605.82, 0.0, 10.000453, 9.999218 
5.8497244e+2, 2.2583057e+2, -677808.9, -709994.3, 45046.996, -0.11355112, 0.21734054, -646066.4, 80805.625, 0.0, 10.00038, 9.999965 
5.849868e+2, 2.3582979e+2, -689001.0, -682000.7, -1841.7843, 0.109059624, 0.11949651, -681545.7, -52670.2, 0.0, 9.999687, 9.999825 
5.849971e+2, 2.4582899e+2, -673752.5, -785219.1, -119220.18, 0.10893618, 0.14021446, -597881.7, -66997.875, 0.0, 9.999817, 9.998366 
5.850044e+2, 2.5582796e+2, -455587.34, -635185.94, -130513.836, -0.05598185, 0.17039376, -386963.88, 45933.605, 0.0, 10.000665, 9.998315 
5.850142e+2, 2.6582548e+2, -317263.2, -603552.75, -30655.293, -0.09368697, 0.13655336, -314017.47, 20903.654, 0.0, 10.001339, 9.997531 
5.8502585e+2, 2.758217e+2, -126229.25, -457558.22, -20082.492, -0.03128707, -0.02420555, -125016.45, 111937.77, 0.0, 10.001963, 9.997563 
5.850362e+2, 2.8581923e+2, -11162.613, -364757.88, -44466.29, -0.029843329, -0.016533282, -5656.506, 133320.95, 0.00000055145284, 10.002111, 9.997461 
5.850457e+2, 2.9581758e+2, 38606.91, -294203.78, -72197.45, -0.06400328, 0.0398372, 53593.99, 94588.99, 0.000008783807, 10.001789, 9.997427 
5.850583e+2, 3.058159e+2, 177722.9, -177778.94, 45476.984, 0.05462143, 0.12744404, 183448.27, 183448.27, 0.000039667964, 10.002318, 9.9976425 
5.8506995e+2, 3.1581345e+2, 355352.5, -41272.59, -147084.53, -0.046297513, 0.07303535, 403944.22, 403944.22, 0.00010388018, 10.003269, 9.99811 
5.9486735e+2, 1.2581518e+2, -2237184.8, -1605375.8, -53213.25, -0.16784206, 0.34002447, -1600925.3, 106100.8, 0.0000033727015, 9.994821, 10.003209 
5.9488195e+2, 1.3581532e+2, -2017628.4, -1485803.0, -32618.428, 0.35444784, 0.010850645, -1483809.9, 125206.055, 0.00000044999516, 9.995788, 10.002939 
5.9488714e+2, 1.4581679e+2, -1943222.1, -1589765.0, 18665.082, -0.2162177, -0.03465999, -1588782.1, -77783.77, 0.000000014541682, 9.99649, 10.001167 
5.948999e+2, 1.5581952e+2, -1766840.3, -1468439.3, 7032.454, 0.051624574, 0.08375373, -1468273.5, -55301.35, 0.0, 9.997088, 10.001045 
5.9491086e+2, 1.6582045e+2, -1645159.0, -1480589.0, 26609.322, 0.09318504, 0.13619271, -1476393.5, -161429.36, 0.0, 9.9977665, 9.999969 
5.949205e+2, 1.7581977e+2, -1424124.5, -1321382.9, 22019.09, -0.058780465, 0.039808866, -1316862.8, -99890.33, 0.0, 9.998598, 9.999988 
5.949303e+2, 1.8581937e+2, -1298541.5, -1256985.8, -43452.152, -0.13314742, 0.027334925, -1229599.3, -110622.72, 0.0, 9.998986, 9.999576 
5.949403e+2, 1.9581902e+2, -1193008.9, -1158180.0, -33947.44, -0.13021201, 0.009448103, -1137441.0, -116461.59, 0.0, 9.999046, 9.999553 
5.949509e+2, 2.058192e+2, -1042456.06, -1059489.5, -14401.667, -0.11391622, 0.08780861, -1034241.3, -111261.42, 0.0, 9.999526, 9.999314 
5.94962e+2, 2.1581945e+2, -829116.5, -905177.8, 6838.9336, -0.09184062, 0.1530674, -828506.5, -3524.8477, 0.0, 10.000311, 9.999327 
5.949737e+2, 2.2581923e+2, -738659.7, -811915.7, 5061.0293, -0.046631064, 0.2034479, -738311.7, -11326.621, 0.0, 10.000266, 9.999323 
5.949858e+2, 2.358184e+2, -753074.2, -782193.2, -11734.937, 0.010440146, 0.1653918, -748933.75, -119941.195, 0.0, 9.999541, 9.99921 
5.9499586e+2, 2.4581718e+2, -697078.6, -816228.6, -98649.34, -0.030783994, 0.18247813, -641410.94, -110405.29, 0.0, 9.999732, 9.998199 
5.9500444e+2, 2.5581554e+2, -474179.9, -652140.5, -88998.664, -0.14606671, 0.1655103, -437310.06, -4285.6987, 0.0, 10.0005665, 9.998248 
5.9501565e+2, 2.658137e+2, -272331.16, -499033.75, -20460.332, -0.10974113, 0.1605118, -270499.38, 64540.035, 0.0, 10.001292, 9.998274 
5.950287e+2, 2.758115e+2, -94527.44, -374634.75, 15389.531, 0.029520169, 0.0842246, -93684.45, 143370.16, 0.0, 10.001887, 9.998173 
5.9503865e+2, 2.858088e+2, -48947.164, -429744.06, -67471.266, -0.026332237, 0.06326271, -37345.76, 101733.68, 0.0000003359344, 10.002059, 9.997037 
5.9504616e+2, 2.958056e+2, 2361.9094, -348152.25, -67360.39, -0.23591664, 0.0031495155, 14861.23, 55974.043, 0.000006914508, 10.001706, 9.997091 
5.9506005e+2, 3.0580395e+2, 184696.66, -160296.5, 74039.69, -0.031538703, 0.098459914, 199915.14, 199915.14, 0.000035638073, 10.002297, 9.997777 
5.9507316e+2, 3.1580082e+2, 403524.97, 75017.56, -62999.49, -0.122931175, -0.031629555, 415192.3, 415192.3, 0.00009897654, 10.003198, 9.998944 
6.048636e+2, 1.2580355e+2, -2111060.3, -1533154.5, -25490.508, -0.058976498, 0.38319883, -1532032.4, 175110.67, 0.0000011596172, 9.995628, 10.003325 
6.0487866e+2, 1.3580306e+2, -1849312.1, -1381271.5, -56858.043, 0.40605772, -0.024723815, -1374463.3, 234673.86, 0.00000014603442, 9.99686, 10.00313 
6.0488474e+2, 1.458046e+2, -1768516.1, -1495900.8, -58453.633, -0.1495882, -0.07627911, -1483895.9, 27222.244, 0.0000000031309833, 9.997626, 10.001279 
6.048982e+2, 1.5580814e+2, -1608491.1, -1380006.3, -112644.33, 0.12650914, 0.11571822, -1333811.5, 79272.66, 0.0, 9.998114, 10.001167 
6.0490954e+2, 1.6580899e+2, -1556723.3, -1443822.1, -51729.805, 0.15926708, 0.15645687, -1423704.9, -108627.6, 0.0, 9.998385, 9.999931 
6.0491943e+2, 1.7580755e+2, -1441460.0, -1333401.0, -48662.098, -0.01824398, -0.008938023, -1314717.4, -97624.414, 0.0, 9.998488, 9.999967 
6.0492927e+2, 1.858075e+2, -1319412.1, -1242895.6, -71664.21, -0.11494756, 0.002316362, -1199916.9, -80822.555, 0.0, 9.998751, 9.999782 
6.049393e+2, 1.9580825e+2, -1165572.6, -1121624.3, -59031.234, -0.13526455, 0.07261085, -1080609.9, -59522.91, 0.0, 9.999142, 9.999757 
6.049506e+2, 2.0580834e+2, -1041515.8, -1059513.1, 1147.4093, -0.09000477, 0.13354158, -1041442.94, -118355.71, 0.0, 9.999535, 9.999316 
6.0496294e+2, 2.1580762e+2, -894959.7, -941577.3, -18271.07, 0.00032005273, 0.1038808, -888652.06, -63555.785, 0.0, 9.999874, 9.999291 
6.049742e+2, 2.2580719e+2, -805678.6, -880361.1, -21325.014, -0.0027721066, 0.15335307, -800018.4, -72915.82, 0.0, 9.999971, 9.998984 
6.049846e+2, 2.3580675e+2, -720203.7, -793118.0, -34740.426, -0.07475758, 0.18393955, -706301.94, -77192.64, 0.0, 9.999906, 9.998941 
6.049954e+2, 2.4580541e+2, -585171.56, -753415.06, -29150.215, -0.07771898, 0.19899233, -580264.06, -49140.813, 0.0, 10.000491, 9.998254 
6.050066e+2, 2.5580326e+2, -322161.34, -573343.56, -31021.344, -0.031547926, 0.12903611, -318386.9, 114757.57, 0.0, 10.001602, 9.998288 
6.050184e+2, 2.6580167e+2, -173404.0, -425050.44, 13510.428, 0.0139724845, 0.13277218, -172680.73, 162475.78, 0.0, 10.001841, 9.998526 
6.050306e+2, 2.758002e+2, -146336.45, -374074.94, -9092.941, 0.06464945, 0.10723456, -145973.98, 91190.8, 0.0, 10.0014, 9.998416 
6.0504067e+2, 2.857976e+2, -50107.11, -432960.78, -43675.566, -0.02149657, 0.08718381, -45187.85, 94000.83, 0.00000016006682, 10.00207, 9.997007 
6.05049e+2, 2.957941e+2, 276004.47, -218199.98, -44582.676, -0.20916118, -0.001333289, 279994.1, 321219.2, 0.0000052467194, 10.003592, 9.997079 
6.0506344e+2, 3.0579227e+2, 302024.16, -100913.05, 87004.336, 0.046544787, 0.07614123, 320007.94, 320007.94, 0.000031333126, 10.00311, 9.997791 
6.050755e+2, 3.1578925e+2, 94221.945, -28394.352, -81356.04, -0.07710543, -0.038901333, 134783.78, 134783.78, 0.00009226463, 10.000874, 9.999366 
6.1486137e+2, 1.2578963e+2, -2230576.3, -1770925.9, -127020.24, 0.09748499, 0.08973119, -1738160.6, -30890.0, 0.000000319301, 9.995609, 10.001689 
6.148734e+2, 1.3579096e+2, -1954207.9, -1600800.1, 2336.7456, 0.16878892, 0.025457222, -1600784.6, 8471.556, 0.000000018009526, 9.996876, 10.001614 
6.148807e+2, 1.457921e+2, -1771511.6, -1507340.9, -61246.21, -0.36208594, 0.011411606, -1493832.1, 17412.428, 0.0, 9.997643, 10.001192 
6.1489594e+2, 1.5579385e+2, -1604387.6, -1382401.3, -87607.06, 0.06109214, 0.026625842, -1351992.6, 61235.22, 0.0, 9.998143, 10.0011425 
6.14908e+2, 1.6579503e+2, -1534052.1, -1383824.0, -62300.074, 0.13525274, 0.078117445, -1361350.1, -46132.53, 0.0, 9.998337, 10.000364 
6.149178e+2, 1.7579558e+2, -1417981.0, -1278499.5, -31740.36, -0.059301388, 0.06841125, -1271616.4, -54401.86, 0.0, 9.998458, 10.000359 
6.149282e+2, 1.8579628e+2, -1291757.9, -1165252.9, -68453.016, -0.12380336, 0.10893633, -1135302.9, -16095.33, 0.0, 9.998663, 10.000354 
6.1493933e+2, 1.9579689e+2, -1141461.5, -1055935.6, -30787.645, -0.07122194, 0.10733633, -1046005.6, -24805.465, 0.0, 9.999069, 10.000246 
6.1495095e+2, 2.057964e+2, -1070588.6, -1091869.5, 2460.0256, -0.03435298, 0.09762954, -1070308.0, -147104.14, 0.0, 9.999415, 9.99915 
6.1496294e+2, 2.1579482e+2, -928986.5, -977993.4, 5099.0015, -0.009387778, -0.0027640841, -928461.56, -103243.01, 0.0, 9.999723, 9.999117 
6.1497337e+2, 2.2579448e+2, -828689.3, -893995.56, -32953.1, -0.09623041, 0.06498579, -814951.4, -87727.19, 0.0, 9.999825, 9.9989605 
6.149828e+2, 2.3579487e+2, -743021.4, -803200.3, -20418.316, -0.2627628, 0.1804222, -736747.6, -107522.67, 0.0, 9.999745, 9.998949 
6.149955e+2, 2.4579369e+2, -582115.06, -725936.44, -942.3734, -0.14824937, 0.19358255, -582108.9, -50872.36, 0.0, 10.000398, 9.998488 
6.1501044e+2, 2.557911e+2, -322364.88, -555456.5, 17431.13, 0.1653125, 0.057171162, -321068.56, 112189.56, 0.0, 10.001519, 9.998454 
6.1502194e+2, 2.6578933e+2, -196324.86, -460779.3, -15121.465, 0.16765136, 0.048098743, -195463.03, 139809.5, 0.0, 10.001788, 9.998305 
6.15031e+2, 2.757879e+2, -174387.33, -405963.63, -5918.383, -0.056900423, 0.045052532, -174236.17, 63048.066, 0.0, 10.001289, 9.998247 
6.1504185e+2, 2.857858e+2, -31601.83, -385703.16, 1019.0994, -0.13477467, 0.06368331, -31598.898, 107705.46, 0.00000012615395, 10.0020275, 9.997351 
6.150537e+2, 2.9578328e+2, 287056.56, -173410.36, 18154.67, -0.13644286, 0.034559663, 287771.22, 329101.47, 0.000004351736, 10.003504, 9.997422 
6.150681e+2, 3.05781e+2, 285112.78, -137058.34, -6855.3145, 0.16870648, 0.06274775, 285224.1, 285224.1, 0.000027327982, 10.003106, 9.997556 
6.150761e+2, 3.157788e+2, 81872.29, -35902.805, -81756.41, -0.17285345, 0.06095596, 123741.15, 123741.15, 0.00008384043, 10.0008, 9.999353 
6.2485796e+2, 1.2577689e+2, -2268373.8, -1849641.6, -204255.94, 0.2094392, 0.0038870992, -1766510.5, -59117.246, 0.00000004128188, 9.995581, 10.001185 
6.248697e+2, 1.3577905e+2, -1934558.9, -1635604.1, 47206.426, 0.10438513, 0.067943916, -1628327.1, -18953.324, 0.000000000001578113, 9.997177, 10.0012455 
6.2487894e+2, 1.4578018e+2, -1783700.0, -1526146.3, 17471.32, -0.28376603, 0.07817841, -1524966.5, -13603.045, 0.0, 9.997614, 10.001083 
6.2489426e+2, 1.5578125e+2, -1690747.8, -1423747.3, -30276.127, 0.116525605, 0.034484114, -1420357.3, -7004.03, 0.0, 9.997578, 10.001119 
6.2490606e+2, 1.6578263e+2, -1588839.5, -1381838.1, 12846.968, 0.1496617, 0.09132769, -1381043.9, -65702.9, 0.0, 9.997853, 10.000603 
6.2491584e+2, 1.7578395e+2, -1435150.0, -1256671.3, -3052.2354, -0.07935561, 0.13582696, -1256619.0, -39289.0, 0.0, 9.99824, 10.0006 
6.249271e+2, 1.8578477e+2, -1286167.1, -1179456.9, -41368.297, -0.09464813, 0.18345249, -1165298.3, -45975.996, 0.0, 9.998748, 10.000227 
6.249396e+2, 1.9578494e+2, -1117261.0, -1051513.9, -75829.586, 0.053337466, 0.14733621, -1001738.8, 19580.744, 0.0, 9.999258, 10.000184 
6.249515e+2, 2.0578428e+2, -992842.7, -1034783.25, -24540.053, 0.06200559, 0.1123388, -981533.44, -58209.395, 0.0, 9.999858, 9.999334 
6.249628e+2, 2.1578267e+2, -801755.06, -892882.75, -19564.225, -0.024254663, -0.0075276666, -797732.4, 27604.48, 0.0, 10.000503, 9.999323 
6.2497354e+2, 2.2578222e+2, -712642.94, -868183.8, -52731.094, -0.10790399, 0.051334392, -696451.6, 30891.71, 0.0, 10.000745, 9.998699 
6.249838e+2, 2.3578236e+2, -621482.75, -773046.44, -76532.93, -0.18028113, 0.16992714, -589560.5, 39787.066, 0.0, 10.000686, 9.998714 
6.24997e+2, 2.4578115e+2, -445219.9, -620503.56, 3772.9856, -0.066646814, 0.17634806, -445138.72, 86219.27, 0.0, 10.001147, 9.998862 
6.2501234e+2, 2.5577882e+2, -221205.81, -468872.53, 4630.925, 0.17922728, 0.02646106, -221119.25, 212255.67, 0.0, 10.002044, 9.998798 
6.250241e+2, 2.657772e+2, -152241.73, -479131.97, -57037.1, 0.18216164, 0.033820547, -142575.52, 192813.84, 0.0, 10.002262, 9.997946 
6.2503326e+2, 2.7577573e+2, -103379.52, -407427.2, -84337.99, 0.014707781, 0.06441552, -81552.43, 155853.0, 0.0, 10.001923, 9.997932 
6.2504464e+2, 2.8577387e+2, -66517.36, -357772.25, -14344.583, -0.034845993, 0.100494005, -65812.58, 73611.39, 0.000000116905284, 10.001592, 9.997764 
6.2505716e+2, 2.9577172e+2, -10026.591, -284039.88, -23740.992, -0.01753113, 0.07503646, -7984.8438, 33459.203, 0.000004287332, 10.001299, 9.997745 
6.250712e+2, 3.057692e+2, 105126.25, -229236.98, -56832.813, 0.25347635, 0.067834176, 114522.27, 114522.27, 0.000025852014, 10.001914, 9.997484 
6.250782e+2, 3.1576714e+2, 391321.6, 100918.73, -131806.14, -0.1344472, 0.08389797, 442222.97, 442222.97, 0.00007870898, 10.00299, 9.999232 
6.3485223e+2, 1.2576509e+2, -2203337.8, -1724456.9, -242602.23, 0.010967374, 0.13159578, -1623034.4, 84479.01, 0.000000010756334, 9.995628, 10.002018 
6.3486713e+2, 1.357671e+2, -1878961.3, -1525199.6, 103054.66, 0.10184719, 0.09625783, -1497368.3, 112123.83, 0.0, 9.997188, 10.002006 
6.3487947e+2, 1.4576884e+2, -1786885.5, -1518540.5, -2406.9207, -0.028191216, 0.12544392, -1518518.9, -7043.9736, 0.0, 9.9975605, 10.001157 
6.348929e+2, 1.5577048e+2, -1688027.9, -1421347.5, -13202.049, 0.18824461, 0.13724734, -1420695.5, -7236.344, 0.0, 9.997584, 10.001136 
6.349036e+2, 1.6577175e+2, -1597022.9, -1389321.8, 15096.896, 0.09068308, 0.18467674, -1388230.3, -72782.55, 0.0, 9.99781, 10.000573 
6.3491327e+2, 1.7577255e+2, -1442889.8, -1274412.1, 24097.184, -0.18636245, 0.18067642, -1271033.3, -53592.195, 0.0, 9.998233, 10.000491 
6.349256e+2, 1.8577276e+2, -1351095.8, -1292709.4, -34639.246, -0.14378953, 0.21169752, -1276602.3, -157161.89, 0.0, 9.998667, 9.999482 
6.349398e+2, 1.9577225e+2, -1179104.5, -1156348.9, -46317.277, 0.11956064, 0.1821686, -1120032.4, -98585.734, 0.0, 9.999159, 9.999511 
6.349518e+2, 2.057718e+2, -974561.06, -963621.3, -12368.464, 0.08828068, 0.17228976, -955567.2, -32118.027, 0.0, 9.999716, 9.999889 
6.349622e+2, 2.1577115e+2, -791868.9, -833802.56, 16508.57, -0.15970401, 0.089245595, -786149.75, 39301.773, 0.0, 10.000334, 9.999809 
6.3497406e+2, 2.2577034e+2, -769314.94, -949791.3, -66538.016, -0.14742698, 0.11645537, -747436.06, -19975.541, 0.0, 10.000592, 9.99821 
6.34987e+2, 2.3576914e+2, -673150.4, -845782.1, -62195.516, 0.055244092, 0.14745852, -653076.8, -23599.572, 0.0, 10.000537, 9.998287 
6.349996e+2, 2.4576792e+2, -425529.03, -556075.1, 27648.959, 0.051559214, 0.14461331, -419914.6, 111572.555, 0.0, 10.001052, 9.999349 
6.350118e+2, 2.5576648e+2, -209493.03, -417549.13, 46558.703, -0.10546246, 0.039567605, -199549.39, 233944.78, 0.0, 10.001929, 9.999206 
6.350243e+2, 2.6576525e+2, -201271.39, -561668.75, -83026.34, -0.04870224, 0.096816346, -183064.08, 152442.73, 0.0, 10.002185, 9.997413 
6.35037e+2, 2.757638e+2, -151909.16, -481320.8, -83759.58, 0.16008255, 0.18042527, -131834.92, 105692.3, 0.0, 10.001814, 9.997474 
6.3504845e+2, 2.857619e+2, -34793.617, -283460.8, -40035.57, 0.16377875, 0.2008146, -28506.809, 111039.96, 0.0000001448745, 10.001559, 9.998291 
6.35059e+2, 2.9575965e+2, 1427.3477, -232253.23, -11356.698, 0.000772688, 0.11533077, 1977.977, 43543.03, 0.000005079309, 10.001195, 9.998145 
6.350726e+2, 3.057571e+2, 99062.766, -247867.47, -20569.31, 0.16307822, 0.10409619, 100278.055, 100278.055, 0.000027855136, 10.001915, 9.997367 
6.350809e+2, 3.1575438e+2, 341929.2, 21945.844, -18556.943, -0.23522669, 0.052945487, 343001.78, 343001.78, 0.00008149468, 10.002878, 9.998748 
6.448484e+2, 1.2575284e+2, -2009759.1, -1625494.3, -125704.29, 0.012131841, 0.1371456, -1588026.1, 119606.91, 0.0000000047013002, 9.996935, 10.002066 
6.448641e+2, 1.3575457e+2, -1914524.3, -1538842.5, 109479.664, 0.10575031, 0.07249219, -1509266.8, 100347.29, 0.0, 9.996965, 10.001996 
6.448787e+2, 1.4575645e+2, -1831168.5, -1561637.1, -13101.982, 0.1547998, 0.13122037, -1561001.6, -49406.406, 0.0, 9.997354, 10.000958 
6.448909e+2, 1.557581e+2, -1594719.8, -1395497.4, -73154.33, 0.21009132, 0.15959156, -1371520.9, 42059.4, 0.0, 9.998308, 10.000962 
6.449016e+2, 1.6575892e+2, -1509035.9, -1388196.5, -53094.242, 0.07129818, 0.19034426, -1368182.8, -52609.273, 0.0, 9.99858, 10.000217 
6.4491194e+2, 1.7575902e+2, -1453102.3, -1311781.3, -86577.21, -0.13898869, 0.15063559, -1270689.8, -53115.293, 0.0, 9.998301, 10.000203 
6.4492476e+2, 1.8575905e+2, -1334075.5, -1262218.0, -68457.78, -0.094683096, 0.16698036, -1220833.5, -101258.82, 0.0, 9.998688, 9.999681 
6.4493906e+2, 1.9575873e+2, -1115144.0, -1102589.0, -36201.008, 0.1219611, 0.13757299, -1072125.3, -50547.92, 0.0, 9.99951, 9.999706 
6.4495146e+2, 2.057586e+2, -973392.6, -973794.0, 9875.471, 0.09229859, 0.1557635, -963715.8, -40138.625, 0.0, 9.999774, 9.999786 
6.449626e+2, 2.1575838e+2, -911708.25, -902387.75, -38236.76, -0.10631768, 0.12451975, -868528.3, -42950.59, 0.0, 9.999561, 9.999707 
6.4497524e+2, 2.2575758e+2, -803734.5, -944481.4, -71486.164, -0.066924885, 0.14773929, -773795.0, -46209.07, 0.0, 10.0002365, 9.998426 
6.4498895e+2, 2.3575613e+2, -504860.34, -738656.8, -43428.516, 0.15246877, 0.12856506, -497054.0, 132548.22, 0.0, 10.001571, 9.998523 
6.4500105e+2, 2.4575482e+2, -415376.9, -569992.25, 33483.293, 0.09572745, 0.11437922, -408437.28, 123175.875, 0.0, 10.001215, 9.999176 
6.4501196e+2, 2.557534e+2, -553186.94, -594486.3, -13177.486, -0.1560596, 0.027844416, -549340.56, -115718.21, 0.0, 9.999625, 9.999102 
6.450248e+2, 2.657524e+2, -491815.72, -647014.44, -54474.297, -0.099023305, 0.08971757, -474604.2, -138971.3, 0.0, 9.999953, 9.997905 
6.4503914e+2, 2.757515e+2, -127175.055, -420075.66, -12148.784, 0.205739, 0.17696035, -126672.016, 110975.38, 0.000000000000000000046744374, 10.001769, 9.997924 
6.4505094e+2, 2.857497e+2, 76811.44, -226148.83, 28834.543, 0.22627269, 0.18983471, 79531.375, 219196.45, 0.00000034821963, 10.00231, 9.998318 
6.4506054e+2, 2.9574716e+2, 87377.25, -191951.83, -6469.3804, 0.017929493, 0.07329161, 87527.0, 129213.266, 0.0000068469953, 10.001784, 9.998135 
6.4507425e+2, 3.0574495e+2, 64359.008, -241075.88, 50534.848, 0.165113, 0.08085548, 72502.96, 72502.96, 0.00003364889, 10.001594, 9.997547 
6.450841e+2, 3.157429e+2, 172381.13, -28737.785, 38822.96, -0.11990753, 0.07486705, 179615.11, 179615.11, 0.000093661416, 10.001588, 9.999002 
6.548457e+2, 1.257401e+2, -2053922.3, -1717733.4, -129684.29, -0.009963544, 0.0048415903, -1673522.0, 34230.03, 0.000000001405694, 9.996944, 10.001423 
6.5486014e+2, 1.3574149e+2, -1969269.1, -1655922.0, 116231.63, -0.013526981, -0.009650724, -1617515.1, -7776.113, 0.0, 9.996985, 10.001178 
6.548763e+2, 1.4574309e+2, -1872866.5, -1643754.8, 4870.76, 0.1466911, 0.088555574, -1643651.3, -131926.77, 0.0, 9.997334, 10.000409 
6.5488803e+2, 1.5574399e+2, -1636629.1, -1480126.0, -27380.64, 0.059754573, 0.098646544, -1475473.9, -61756.656, 0.0, 9.998289, 10.000398 
6.5489936e+2, 1.6574402e+2, -1556832.6, -1474399.5, -78620.09, -0.035731275, 0.10601704, -1426847.1, -111127.305, 0.0, 9.998528, 9.999643 
6.5491134e+2, 1.7574325e+2, -1489221.4, -1381216.0, -82788.26, -0.058063686, 0.038211487, -1336374.5, -118643.64, 0.0, 9.998279, 9.999733 
6.549241e+2, 1.8574359e+2, -1262464.4, -1095721.8, -49830.926, -0.05426351, 0.04467215, -1081964.8, 37760.727, 0.0, 9.998611, 10.000861 
6.549371e+2, 1.9574444e+2, -1054154.8, -955071.0, 6363.31, -0.056683086, 0.012623476, -954664.0, 67046.93, 0.0, 9.999421, 10.000762 
6.5495026e+2, 2.0574468e+2, -1050114.5, -1104778.4, -11486.481, -0.03372002, 0.06337053, -1047799.0, -124090.83, 0.0, 9.99965, 9.998953 
6.549636e+2, 2.1574421e+2, -983679.06, -1013651.5, -30226.836, 0.015912449, 0.09311094, -964927.3, -139210.56, 0.0, 9.999399, 9.999023 
6.549766e+2, 2.2574389e+2, -761355.9, -815930.44, -33179.285, 0.026923943, 0.14174752, -745684.3, -17964.225, 0.0, 10.000069, 9.999385 
6.549892e+2, 2.3574336e+2, -471288.28, -630250.5, 10044.437, -0.0048495163, 0.120570146, -470656.13, 159066.33, 0.0, 10.00141, 9.999342 
6.550011e+2, 2.457419e+2, -485065.22, -690414.44, -40635.082, -0.046134688, 0.0940276, -477316.6, 54419.273, 0.0, 10.001113, 9.998396 
6.5501237e+2, 2.5573948e+2, -611784.4, -689742.7, -50299.164, -0.098912455, -0.015375319, -587128.75, -153368.98, 0.0, 9.999517, 9.998495 
6.550252e+2, 2.6573867e+2, -392504.22, -435411.72, 1660.3329, -0.07862973, 0.011273116, -392440.06, -56672.84, 0.0, 9.999921, 9.999376 
6.550393e+2, 2.7573884e+2, -42671.348, -232234.78, 66081.53, 0.0141306715, 0.06152912, -21909.38, 215855.36, 0.0000000002377775, 10.001703, 9.99925 
6.550514e+2, 2.8573745e+2, 33985.19, -295129.47, -3306.1873, 0.009675229, 0.07761135, 34018.4, 173796.02, 0.0000008000927, 10.002234, 9.997874 
6.5506154e+2, 2.9573452e+2, 44450.37, -253541.72, -9128.838, -0.105542675, -0.03685228, 44729.77, 86535.78, 0.000010270006, 10.001676, 9.99776 
6.550757e+2, 3.0573282e+2, 96719.664, -180435.34, 43294.918, 0.12662946, 0.018071692, 103325.41, 103325.41, 0.00004390313, 10.001609, 9.997965 
6.5508723e+2, 3.1573203e+2, 235740.03, 108802.38, 99988.76, -0.032912966, 0.09391367, 290702.8, 290702.8, 0.00011355634, 10.001556, 9.9999695 
6.648433e+2, 1.25727e+2, -2196748.8, -1820593.0, -131815.72, 0.11378227, -0.005382308, -1779000.0, -71120.3, 0.00000000035571668, 9.996107, 10.001121 
6.6485727e+2, 1.3572836e+2, -1902171.0, -1683773.9, 34525.81, -0.028807165, 0.023542799, -1678445.8, -68577.01, 0.0, 9.997684, 10.000666 
6.648743e+2, 1.4572947e+2, -1791259.5, -1617811.9, -28993.768, 0.19690889, 0.10314052, -1613093.5, -101233.7, 0.0, 9.997949, 10.000288 
6.6488534e+2, 1.5572976e+2, -1717044.9, -1526330.1, -55945.73, -0.008102846, 0.060746707, -1511130.1, -97271.49, 0.0, 9.997775, 10.000322 
6.64897e+2, 1.6573007e+2, -1617195.0, -1475276.8, -36229.004, -0.08681566, 0.087235525, -1466563.3, -150705.73, 0.0, 9.997994, 9.999897 
6.649104e+2, 1.7573023e+2, -1452870.6, -1334387.4, -2646.3596, 0.024688162, 0.08405591, -1334328.3, -116470.06, 0.0, 9.998401, 9.999993 
6.6492367e+2, 1.8573053e+2, -1232070.9, -1079324.8, 52220.934, 0.03853669, 0.07321374, -1063178.3, 56673.992, 0.0, 9.998825, 10.000867 
6.649364e+2, 1.9573064e+2, -1084013.5, -972193.44, -9411.146, -0.052197613, -0.031729408, -971406.94, 50437.29, 0.0, 9.999228, 10.000738 
6.649499e+2, 2.0573078e+2, -1021334.44, -1090244.9, -17838.246, -0.03302994, 0.009157689, -1016990.6, -93148.266, 0.0, 9.999836, 9.998968 
6.649642e+2, 2.1573071e+2, -815958.4, -931514.7, 737.3247, 0.08248142, 0.07818279, -815953.7, 9893.751, 0.0, 10.000535, 9.999046 
6.649772e+2, 2.2573039e+2, -719066.7, -768894.6, 15539.348, 0.076741554, 0.11515671, -714617.8, 13232.446, 0.0, 10.0002575, 9.99962 
6.649892e+2, 2.3572966e+2, -775745.1, -755761.06, -19638.088, -0.02868978, 0.05389646, -743719.1, -113865.31, 0.0, 9.999236, 9.999532 
6.6500133e+2, 2.4572851e+2, -682963.56, -791961.9, -42674.535, -0.05392131, 0.05319874, -668243.7, -136378.5, 0.0, 9.999752, 9.998364 
6.650136e+2, 2.557268e+2, -342479.06, -564016.8, -26829.365, -0.014240625, 0.017212575, -339276.2, 94608.42, 0.0, 10.001356, 9.998484 
6.6502655e+2, 2.6572597e+2, -185275.28, -302876.38, 28590.62, 0.0049925083, 0.02736035, -178692.9, 157199.19, 0.0, 10.001196, 9.999679 
6.6504e+2, 2.7572566e+2, -309187.4, -321888.5, -18011.314, 0.024586279, 0.0010256252, -296439.88, -58547.74, 0.0000000023427176, 9.99972, 9.999583 
6.6505224e+2, 2.8572467e+2, -228408.03, -394800.5, -39986.504, -0.022758022, 0.026490062, -219297.53, -79396.83, 0.0000014418595, 10.0003, 9.998127 
6.650631e+2, 2.957227e+2, 165632.25, -163659.52, -24596.148, -0.13690656, -0.025968993, 167459.31, 209379.92, 0.000014823799, 10.002366, 9.998043 
6.650779e+2, 3.0572063e+2, 263569.5, -123437.875, 9244.625, 0.13180144, -0.008282696, 263790.22, 263790.22, 0.000057815294, 10.002866, 9.99775 
6.6509056e+2, 3.1571966e+2, 272051.47, 108271.87, -20775.328, 0.14425841, 0.07819318, 274645.72, 274645.72, 0.00014076945, 10.001881, 9.999812 
6.7484087e+2, 1.257138e+2, -2203950.5, -1827191.1, -39759.125, 0.19724628, 0.12148467, -1823041.0, -115026.664, 0.0000000023126079, 9.996081, 10.001084 
6.748549e+2, 1.357151e+2, -1916862.9, -1712663.3, 92316.62, -0.057376374, 0.16483757, -1677115.9, -67111.766, 0.0, 9.997686, 10.0004635 
6.7487234e+2, 1.4571562e+2, -1767891.4, -1563060.0, -55303.71, 0.17072845, 0.17786571, -1549082.0, -37081.176, 0.0, 9.997925, 10.000675 
6.748822e+2, 1.5571558e+2, -1682898.1, -1457023.6, -46297.37, -0.13372278, 0.06620248, -1447902.4, -33899.934, 0.0, 9.997782, 10.000795 
6.7489415e+2, 1.657173e+2, -1540018.3, -1311313.6, -33883.38, -0.19972353, 0.14857227, -1306399.4, 9585.274, 0.0, 9.9979725, 10.001037 
6.749089e+2, 1.757201e+2, -1388526.9, -1194373.9, 26414.254, 0.000717281, 0.29505834, -1190844.5, 27110.225, 0.0, 9.998369, 10.000972 
6.7492306e+2, 1.8571995e+2, -1327181.6, -1260348.5, 52198.848, 0.07167613, 0.25910014, -1231786.1, -111832.586, 0.0, 9.998753, 9.999662 
6.7493653e+2, 1.9571738e+2, -1174522.0, -1133045.4, 18808.533, 0.013561671, 0.008863901, -1125786.6, -103810.14, 0.0, 9.999114, 9.99969 
6.749501e+2, 2.0571695e+2, -983020.2, -981431.5, -1847.1729, -0.017166447, -0.0012646596, -980215.1, -56236.027, 0.0, 9.999701, 9.9997835 
6.749639e+2, 2.1571791e+2, -785093.5, -834241.25, 34828.066, -0.020821925, 0.08613485, -767042.6, 58926.273, 0.0, 10.000387, 9.999785 
6.7497665e+2, 2.2571725e+2, -777741.44, -853310.1, -35635.594, -0.022073714, 0.08036562, -763587.8, -35612.9, 0.0, 10.000098, 9.999116 
6.7498857e+2, 2.3571509e+2, -829544.7, -827394.7, -36653.76, -0.035033066, -0.072343946, -791800.2, -161804.56, 0.0, 9.999067, 9.999119 
6.7500156e+2, 2.4571475e+2, -655276.56, -705654.0, 8361.133, -0.031814195, -0.008004585, -653925.1, -121924.87, 0.0, 9.99963, 9.999014 
6.750152e+2, 2.5571546e+2, -322431.72, -497121.66, 37726.94, -0.020421838, 0.1336007, -314632.25, 119363.56, 0.0, 10.001242, 9.999 
6.7502826e+2, 2.657145e+2, -257706.2, -430613.28, -40836.24, 0.03640595, 0.14970331, -248546.9, 87459.2, 0.0, 10.001106, 9.998841 
6.7504096e+2, 2.7571207e+2, -370470.7, -431277.56, -49247.57, 0.11998636, -0.007328575, -342997.6, -104968.016, 0.0000000015372758, 9.999642, 9.998871 
6.7505336e+2, 2.857114e+2, -157879.61, -245453.05, 27436.152, 0.028425913, 0.029816255, -149994.1, -9959.753, 0.0000017821444, 10.000289, 9.999157 
6.75065e+2, 2.9571176e+2, 215524.6, -34465.46, 64617.42, -0.2229279, 0.11532143, 231239.08, 273267.3, 0.000019076204, 10.002257, 9.998982 
6.750801e+2, 3.0570832e+2, 187420.38, -264760.66, -35701.51, 0.04001287, -0.0033335825, 190221.8, 190221.8, 0.000073988194, 10.002804, 9.996803 
6.7509323e+2, 3.1570587e+2, 172532.25, -64640.41, -11282.335, 0.15779951, 0.036028124, 173067.73, 173067.73, 0.00017626988, 10.001751, 9.998678 
6.8483925e+2, 1.2570003e+2, -1689279.4, -1586021.6, 68983.54, 0.27061898, 0.14467351, -1551486.3, 156663.86, 0.0000000036242784, 9.999611, 10.00105 
6.848523e+2, 1.3570139e+2, -2107538.0, -1800414.8, 92811.87, -0.006116681, 0.19795917, -1774546.1, -164407.69, 0.0, 9.996389, 10.00047 
6.848698e+2, 1.4570175e+2, -2048930.3, -1676466.0, 43606.33, 0.23326397, 0.1841118, -1671429.0, -159292.73, 0.0, 9.995896, 10.000879 
6.848804e+2, 1.5570204e+2, -1658507.8, -1422240.5, 12448.277, -0.08665928, 0.08451744, -1421586.4, -7451.664, 0.0, 9.997843, 10.001013 
6.848928e+2, 1.6570379e+2, -1393941.1, -1204717.3, -12701.458, -0.17017317, 0.13932532, -1203868.4, 112246.8, 0.0, 9.998809, 10.001372 
6.849075e+2, 1.7570631e+2, -1283429.3, -1117597.5, -39286.34, 0.000094135954, 0.22886845, -1108761.3, 109323.59, 0.0, 9.998969, 10.001219 
6.8492204e+2, 1.8570621e+2, -1281883.5, -1298607.4, 20653.52, 0.08095982, 0.21486521, -1267963.4, -147878.84, 0.0, 9.99932, 9.999123 
6.8493634e+2, 1.9570377e+2, -1113577.0, -1153559.0, 14044.408, 0.06565897, 0.03055482, -1109136.8, -87026.85, 0.0, 9.999744, 9.999238 
6.849501e+2, 2.057034e+2, -976404.25, -927155.7, 8016.0356, 0.029015526, 0.019880494, -925883.75, -1771.1069, 0.0, 9.999558, 10.000204 
6.849636e+2, 2.157043e+2, -970049.44, -879254.0, -10688.381, -0.0153673515, 0.061557535, -878012.75, -51912.027, 0.0, 9.998945, 10.00016 
6.849764e+2, 2.2570379e+2, -850230.9, -878297.3, -39468.055, -0.02417908, 0.04981832, -822375.44, -94270.664, 0.0, 9.999538, 9.999216 
6.8498886e+2, 2.3570202e+2, -540244.4, -674619.5, -19228.75, -0.00854011, -0.07703327, -537546.94, 92576.17, 0.0, 10.000976, 9.999251 
6.8500215e+2, 2.4570206e+2, -420817.75, -532858.4, 68591.555, 0.0036918344, -0.010004427, -388276.94, 143846.77, 0.0, 10.000993, 9.999534 
6.8501604e+2, 2.5570324e+2, -470495.22, -512933.66, 64878.09, 0.009906036, 0.12554121, -423454.47, 10658.58, 0.0, 10.000009, 9.999472 
6.850291e+2, 2.657024e+2, -384400.63, -512521.5, 22099.12, 0.054235097, 0.14358532, -380695.94, -44574.152, 0.0, 10.000317, 9.998656 
6.850417e+2, 2.7569976e+2, -111499.34, -329208.75, 37084.844, 0.14551902, -0.014736331, -105355.64, 132792.23, 0.00000000039754933, 10.001507, 9.998673 
6.8505466e+2, 2.856991e+2, 26048.342, -211594.03, 130294.195, 0.0697363, 0.05554871, 83565.05, 223719.97, 0.000001935021, 10.001798, 9.998658 
6.8506765e+2, 2.956996e+2, 87815.445, -140174.66, 22982.104, -0.14324032, 0.2055011, 90109.04, 132259.75, 0.000022833043, 10.001568, 9.998589 
6.8508255e+2, 3.0569586e+2, 19486.855, -289509.78, -93347.7, 0.08339996, 0.04832896, 45497.61, 45497.61, 0.00009092674, 10.001408, 9.997306 
6.850948e+2, 3.1569293e+2, 19659.713, -150506.33, -3839.2947, 0.20548181, -0.0019148014, 19746.291, 19746.291, 0.00021663251, 10.000724, 9.998599 
6.948383e+2, 1.2568587e+2, -1670379.3, -1560306.6, -17389.516, 0.1347331, 0.06882673, -1557624.8, 150660.42, 0.00000000017840025, 9.99969, 10.001175 
6.94849e+2, 1.3568737e+2, -2096717.5, -1775299.8, -11759.878, 0.00094085, 0.12267881, -1774870.1, -164600.4, 0.0, 9.996387, 10.000638 
6.9486636e+2, 1.4568785e+2, -2049021.3, -1670453.4, 103754.164, 0.26497123, 0.105724886, -1643882.5, -131616.69, 0.0, 9.995863, 10.00094 
6.948797e+2, 1.5568908e+2, -1660086.5, -1430657.8, 98125.32, 0.029394433, 0.096329495, -1394415.3, 19840.629, 0.0, 9.99785, 10.00096 
6.9489247e+2, 1.6568944e+2, -1437165.4, -1282322.5, -18087.197, -0.11172285, 0.0460866, -1280237.9, 36011.918, 0.0, 9.998769, 10.000851 
6.9490576e+2, 1.7568895e+2, -1323226.1, -1188569.5, -17697.586, -0.09344515, -0.11369782, -1186282.4, 31965.8, 0.0, 9.998923, 10.000752 
6.9492036e+2, 1.856893e+2, -1281296.4, -1277504.1, 27366.924, -0.0500428, -0.07033943, -1251967.8, -131722.86, 0.0, 9.999236, 9.999306 
6.949356e+2, 1.9568999e+2, -1117758.5, -1138435.5, 40872.914, -0.013754402, 0.036990356, -1085936.9, -63693.293, 0.0, 9.99965, 9.999384 
6.9494957e+2, 2.0569019e+2, -994949.94, -939819.1, -29699.105, -0.0071043014, 0.0804765, -926864.3, -2621.8843, 0.0, 9.999441, 10.000175 
6.949627e+2, 2.156898e+2, -992029.1, -887535.6, -17378.012, -0.015516703, -0.0030561103, -884721.3, -58477.695, 0.0, 9.998784, 10.000181 
6.949761e+2, 2.2569002e+2, -823572.75, -785432.06, 4015.6633, -0.031341482, 0.018521188, -785013.8, -56773.5, 0.0, 9.999377, 9.99993 
6.949895e+2, 2.3569044e+2, -512420.72, -582809.9, 40563.145, -0.061829146, 0.037842624, -493912.16, 136324.2, 0.0, 10.000832, 9.999947 
6.9500273e+2, 2.4569052e+2, -405093.6, -478130.97, 19610.322, -0.059560657, 0.05574062, -400161.34, 132073.0, 0.0, 10.0008955, 9.999958 
6.950158e+2, 2.556901e+2, -451144.22, -453860.66, 47153.027, -0.03840687, -0.012663631, -405329.84, 28906.46, 0.0, 9.999922, 9.999921 
6.950288e+2, 2.6568967e+2, -363395.0, -452140.16, 56889.695, -0.032319997, -0.0022413358, -335619.38, 620.2632, 0.0, 10.000247, 9.9991045 
6.950418e+2, 2.7568886e+2, -106298.46, -298371.4, 90647.3, -0.029606981, -0.02017957, -70274.586, 167972.66, 0.0000000054780975, 10.00142, 9.998929 
6.9505584e+2, 2.8568774e+2, -124602.33, -510834.13, 106742.33, -0.025408836, 0.10401344, -97065.39, 43197.707, 0.000002364329, 10.001742, 9.996626 
6.9507045e+2, 2.9568622e+2, -49508.242, -403931.78, 34765.074, -0.054839067, 0.2505, -46130.36, -3843.1443, 0.000027093956, 10.001481, 9.996814 
6.950848e+2, 3.0568323e+2, 153970.47, -10893.616, -121724.45, 0.13996911, 0.14580928, 218548.23, 218548.23, 0.00010798756, 10.001402, 9.999225 
6.950949e+2, 3.1568146e+2, 76494.766, -27155.84, 4909.9487, 0.078085124, 0.020315107, 76726.836, 76726.836, 0.00025661878, 10.000695, 9.999461 
7.048369e+2, 1.2567136e+2, -1963608.0, -1710538.3, -20076.771, 0.1472429, 0.012473115, -1708955.4, -529.8958, 0.0, 9.997681, 10.001137 
7.0484716e+2, 1.356729e+2, -1657381.6, -1547127.9, -102212.625, 0.046453256, 0.05554177, -1486123.8, 124284.34, 0.0, 9.999299, 10.000811 
7.0486367e+2, 1.4567341e+2, -1633251.5, -1484088.5, 76256.08, 0.27523306, 0.039453752, -1452005.1, 60398.8, 0.0, 9.998781, 10.000803 
7.0487785e+2, 1.556752e+2, -1774610.5, -1496738.1, 32552.42, 0.11053917, 0.098117374, -1492975.6, -78585.9, 0.0, 9.997134, 10.000833 
7.0489115e+2, 1.6567534e+2, -1681052.8, -1439262.4, -30554.451, -0.03392017, 0.05102856, -1435461.0, -119074.19, 0.0, 9.997278, 10.0004835 
7.049047e+2, 1.756739e+2, -1383161.8, -1245594.4, -48016.453, -0.07397499, -0.1668085, -1230492.5, -12096.833, 0.0, 9.99865, 10.00048 
7.0491934e+2, 1.8567455e+2, -1295713.5, -1227693.3, 9420.795, -0.051805332, -0.112494275, -1226412.5, -106022.586, 0.0, 9.998885, 9.999822 
7.049346e+2, 1.9567639e+2, -1286936.5, -1169238.6, 25417.924, -0.004543846, 0.06287275, -1163984.0, -141607.42, 0.0, 9.998254, 9.999856 
7.049487e+2, 2.0567678e+2, -1104586.4, -993234.5, 8136.824, 0.009925464, 0.103642605, -992643.06, -68269.555, 0.0, 9.99867, 10.000194 
7.049621e+2, 2.1567586e+2, -837773.75, -810122.4, 3022.088, 0.004443365, -0.035782933, -809795.94, 16584.229, 0.0, 9.999812, 10.000227 
7.0497584e+2, 2.2567634e+2, -727415.3, -711551.7, 33772.05, -0.0135367615, -0.0023661868, -684792.5, 43581.816, 0.0, 9.999943, 10.000155 
7.049896e+2, 2.3567766e+2, -715940.4, -655982.44, 4516.9106, -0.050531596, 0.08577078, -655644.06, -25282.621, 0.0, 9.99935, 10.000154 
7.0500314e+2, 2.4567762e+2, -627269.44, -579472.44, -51863.86, -0.03179487, 0.07971333, -546265.8, -13905.848, 0.0, 9.999342, 10.000016 
7.050163e+2, 2.5567633e+2, -474351.1, -459189.9, -71573.16, 0.032188706, -0.08326727, -394797.03, 39572.492, 0.0, 9.999735, 9.99998 
7.0502955e+2, 2.6567587e+2, -302961.9, -420559.1, -13988.108, 0.0065569985, -0.07649776, -301320.9, 35051.793, 0.0, 10.000657, 9.999126 
7.050429e+2, 2.7567577e+2, -20795.895, -246366.34, -44471.1, -0.077553034, -0.023725646, -12345.044, 226028.75, 0.000000016182126, 10.001979, 9.999008 
7.0505744e+2, 2.8567457e+2, -29130.74, -431884.8, 24580.336, -0.056799654, 0.06833158, -27636.135, 112753.72, 0.0000030357212, 10.002228, 9.996951 
7.050726e+2, 2.9567233e+2, -33227.01, -365069.8, 105763.27, 0.026119178, 0.110698186, -2385.149, 40033.71, 0.000031540207, 10.001437, 9.997117 
7.050873e+2, 3.056705e+2, 255101.31, 39510.074, 13680.587, 0.22358835, 0.10931664, 255965.95, 255965.95, 0.00012311795, 10.002093, 9.999229 
7.050974e+2, 3.1566966e+2, 514356.8, 177466.64, -45882.08, 0.11095847, 0.06938233, 520493.8, 520493.8, 0.0002906225, 10.003745, 9.999383 
7.148345e+2, 1.2565634e+2, -1963490.5, -1702538.0, 32418.758, 0.079056405, -0.025133755, -1698570.9, 10001.977, 0.0, 9.997659, 10.001192 
7.148465e+2, 1.3565785e+2, -1629160.8, -1507002.0, -42630.4, 0.012788664, -0.020353891, -1493596.1, 116959.41, 0.0, 9.999372, 10.001053 
7.1486145e+2, 1.4565842e+2, -1651171.5, -1529251.0, -6513.9326, 0.13496582, -0.024917763, -1528904.0, -16352.563, 0.0, 9.998823, 10.000466 
7.1487457e+2, 1.5566048e+2, -1800355.9, -1547012.0, -10091.524, 0.03226613, 0.095985755, -1546610.6, -132074.92, 0.0, 9.997115, 10.000499 
7.148885e+2, 1.6566147e+2, -1704866.9, -1468782.0, 9080.083, -0.053743992, 0.15710184, -1468433.3, -151906.25, 0.0, 9.997197, 10.0003195 
7.1490383e+2, 1.7566124e+2, -1396920.6, -1268252.9, 10784.555, -0.0515939, 0.076576754, -1267355.3, -48827.84, 0.0, 9.998624, 10.000339 
7.149186e+2, 1.8566191e+2, -1243031.9, -1104151.8, -26767.17, -0.03560672, 0.09672529, -1099171.4, 21348.494, 0.0, 9.998823, 10.000701 
7.149329e+2, 1.9566305e+2, -1246452.6, -1057037.6, 19377.72, -0.021865629, 0.113032565, -1055075.6, -32567.049, 0.0, 9.998133, 10.000687 
7.1494716e+2, 2.0566331e+2, -1121528.3, -989175.25, 41718.105, -0.03420073, 0.095473185, -977123.0, -52618.434, 0.0, 9.99851, 10.000293 
7.1496147e+2, 2.1566261e+2, -861937.8, -814335.0, 53126.41, -0.06399449, -0.032163773, -779921.94, 46587.13, 0.0, 9.999625, 10.000283 
7.1497536e+2, 2.256629e+2, -772128.3, -769599.44, -1578.2794, -0.079718016, -0.0022382224, -768841.56, -40336.14, 0.0, 9.99979, 9.999832 
7.1498877e+2, 2.3566374e+2, -761973.44, -715242.56, -2240.2974, -0.08925176, 0.07171518, -715135.44, -84637.67, 0.0, 9.999191, 9.999825 
7.150028e+2, 2.4566337e+2, -669702.25, -636125.44, -49941.805, -0.021400336, 0.0649177, -600225.75, -67725.54, 0.0, 9.999208, 9.999693 
7.1501696e+2, 2.5566182e+2, -514171.72, -514726.94, -42818.42, 0.09993348, -0.089144714, -471630.0, -37116.973, 0.0, 9.999623, 9.999652 
7.1503097e+2, 2.6566103e+2, -336047.9, -482600.13, 22249.283, 0.050619114, -0.07523262, -332744.5, 3776.107, 0.0, 10.000622, 9.99872 
7.1504474e+2, 2.756606e+2, -47748.406, -283616.34, 15801.22, -0.12576301, -0.022617046, -46694.563, 191832.63, 0.000000020828322, 10.00189, 9.998799 
7.150592e+2, 2.8565955e+2, 148800.47, -40948.527, -16854.479, -0.13133311, -0.04928004, 150285.94, 290821.25, 0.0000037854625, 10.00215, 9.999669 
7.150737e+2, 2.9565793e+2, 118262.2, -25565.652, 99631.01, -0.039675616, -0.2117982, 169222.0, 211767.64, 0.000035842306, 10.001348, 9.999486 
7.150895e+2, 3.0565783e+2, 122451.46, -243082.88, 65036.184, 0.20300207, -0.04450651, 133677.95, 133677.95, 0.000135526, 10.0021105, 9.997289 
7.151013e+2, 3.1565693e+2, 414252.28, -8323.39, 66881.79, 0.06238733, 0.09830239, 424585.13, 424585.13, 0.00031586387, 10.003638, 9.998168 
7.248328e+2, 1.2564297e+2, -1925217.9, -1717579.8, 200948.19, 0.13352524, -0.042875927, -1595216.1, 113485.74, 0.0, 9.998018, 10.000955 
7.248453e+2, 1.3564478e+2, -1869449.0, -1604806.1, 49663.348, 0.047561172, -0.012716813, -1595793.1, 14890.224, 0.0, 9.997668, 10.0012 
7.2485924e+2, 1.4564535e+2, -1773441.5, -1628848.9, 78441.75, 0.077808104, -0.005789984, -1594468.8, -81789.29, 0.0, 9.998146, 10.000125 
7.248729e+2, 1.5564677e+2, -1492584.4, -1429405.6, 52638.754, 0.047430854, 0.08569173, -1399605.0, 15064.366, 0.0, 9.999359, 10.000228 
7.248874e+2, 1.6564766e+2, -1348307.8, -1308049.0, 131973.1, 0.0072274175, 0.15356901, -1194679.0, 121982.99, 0.0, 9.999662, 10.000249 
7.2490335e+2, 1.7564777e+2, -1310194.5, -1228860.9, 116300.83, 0.013825878, 0.11106108, -1146321.9, 72338.16, 0.0, 9.999219, 10.000325 
7.249179e+2, 1.8564849e+2, -1189160.8, -1053482.5, 50499.082, 0.007455719, 0.12241928, -1036750.3, 83901.38, 0.0, 9.999088, 10.000918 
7.249314e+2, 1.956494e+2, -1083907.8, -953839.0, 23494.86, -0.025820907, 0.0942826, -949725.1, 72915.805, 0.0, 9.999148, 10.000901 
7.24946e+2, 2.056497e+2, -1010644.4, -952131.94, 73614.32, -0.029018655, 0.07972012, -902173.3, 22463.21, 0.0, 9.999349, 10.000149 
7.2496164e+2, 2.1564922e+2, -873914.9, -836269.94, 41590.004, 0.00021260002, -0.009532082, -809441.44, 17198.855, 0.0, 9.999613, 10.000142 
7.249759e+2, 2.2564936e+2, -751759.8, -758267.1, -8780.495, -0.00041989578, 0.009148921, -745649.56, -17011.38, 0.0, 9.999906, 9.999865 
7.249891e+2, 2.3564973e+2, -611522.3, -643792.56, -5661.3403, -0.017553642, 0.03485266, -610557.94, 20075.844, 0.0, 10.000209, 9.999835 
7.250032e+2, 2.4564923e+2, -499441.25, -586371.25, 8476.948, 0.043697115, 0.028632086, -498622.34, 34015.375, 0.0, 10.000521, 9.999395 
7.250177e+2, 2.5564778e+2, -341877.72, -464383.03, -7071.3726, 0.15355942, -0.08582115, -341470.88, 93179.94, 0.0, 10.000939, 9.999364 
7.2503203e+2, 2.656471e+2, -311924.1, -461037.44, 99857.93, 0.101760775, -0.050495807, -261860.13, 74797.3, 0.0, 10.000761, 9.998793 
7.250464e+2, 2.7564687e+2, -294630.28, -394302.56, 98885.54, -0.04938359, 0.011078047, -233732.55, 4929.3564, 0.000000011844985, 10.000158, 9.998874 
7.25061e+2, 2.856457e+2, -89699.67, -131227.89, 45.902454, -0.06713049, -0.041146282, -89699.62, 50969.848, 0.000004675658, 10.000427, 9.999866 
7.2507536e+2, 2.9564366e+2, 136350.88, -120.03681, -99515.9, -0.005964869, -0.2651013, 188778.14, 231459.52, 0.000040333267, 10.001412, 9.99962 
7.2509176e+2, 3.0564302e+2, 97518.26, -324570.94, -95300.41, 0.21976833, -0.11877876, 118037.88, 118037.88, 0.00014552829, 10.002247, 9.996673 
7.2510517e+2, 3.1564218e+2, 264626.47, -99245.266, -28759.563, 0.14479998, 0.09197619, 266885.53, 266885.53, 0.00033116215, 10.002698, 9.998003 
7.3483115e+2, 1.2563126e+2, -1953823.6, -1768192.1, 138323.95, 0.11790826, -0.036027525, -1694429.8, 14382.935, 0.0, 9.998, 10.0006 
7.34843e+2, 1.3563384e+2, -1884144.1, -1632306.6, 45203.44, 0.028530575, 0.08627802, -1624438.8, -13648.711, 0.0, 9.997644, 10.001024 
7.348565e+2, 1.4563422e+2, -1806094.5, -1675025.3, 111266.82, -0.03956668, 0.09306749, -1611427.9, -98639.71, 0.0, 9.998066, 9.999837 
7.3487246e+2, 1.5563402e+2, -1512896.5, -1480247.6, 112598.62, 0.038373247, 0.05120205, -1382796.3, 31995.25, 0.0, 9.9993925, 9.999865 
7.348877e+2, 1.6563392e+2, -1334097.1, -1284068.9, 101679.555, 0.0385145, 0.031438958, -1204371.9, 112419.98, 0.0, 9.999686, 10.000399 
7.349029e+2, 1.7563361e+2, -1307390.8, -1217136.4, 114907.35, 0.017661812, -0.067933306, -1138812.6, 79979.86, 0.0, 9.999186, 10.000427 
7.349168e+2, 1.8563429e+2, -1241012.4, -1134465.8, 43554.703, -0.0374579, -0.036979914, -1118927.4, 1857.3907, 0.0, 9.998982, 10.000407 
7.3492974e+2, 1.9563547e+2, -1135605.5, -1035504.2, 38275.586, -0.13207524, 0.012147335, -1022546.2, 226.89655, 0.0, 9.999046, 10.000383 
7.3494506e+2, 2.05636e+2, -1053022.9, -1014783.75, 69646.29, -0.08104591, 0.06498486, -961680.3, -36911.484, 0.0, 9.999232, 9.999777 
7.349622e+2, 2.1563578e+2, -916566.5, -889744.8, 64722.65, 0.078318045, 0.03459092, -837058.2, -10285.271, 0.0, 9.999457, 9.999848 
7.349772e+2, 2.2563577e+2, -748099.94, -712496.75, -9403.304, 0.11685281, 0.032410666, -710165.8, 18605.98, 0.0, 9.999742, 10.000258 
7.3499024e+2, 2.3563567e+2, -611194.1, -602879.3, 19127.928, 0.054588605, -0.030631512, -587462.2, 43307.098, 0.0, 10.000039, 10.000196 
7.35004e+2, 2.4563529e+2, -528579.1, -627064.56, 13651.802, 0.0482849, -0.028825657, -526721.75, 6050.07, 0.0, 10.000433, 9.999157 
7.350182e+2, 2.5563437e+2, -374939.44, -503684.28, 19281.678, 0.08334228, -0.065416396, -372113.7, 62667.62, 0.0, 10.000813, 9.999155 
7.3503274e+2, 2.6563433e+2, -290116.94, -394282.78, 67305.32, 0.06608689, 0.014643254, -257096.17, 79684.836, 0.0, 10.000672, 9.99929 
7.350475e+2, 2.7563465e+2, -284673.5, -355253.13, 98275.516, 0.017814677, 0.08741442, -215543.73, 23233.0, 0.000000051096855, 10.000083, 9.999176 
7.350624e+2, 2.8563297e+2, -240486.03, -457527.0, 24291.412, 0.0011078159, 0.09051184, -237800.55, -97008.45, 0.0000058850314, 10.000469, 9.997608 
7.350771e+2, 2.956296e+2, -15329.541, -309540.84, -45303.207, -0.015669974, -0.04849487, -8511.662, 34313.297, 0.000044056193, 10.001376, 9.997516 
7.350936e+2, 3.0562627e+2, 135160.14, -242812.88, -84053.41, 0.15400194, -0.10159738, 153009.02, 153009.02, 0.00015023243, 10.002232, 9.997239 
7.3510766e+2, 3.1562474e+2, 309009.75, 20914.434, 54232.887, 0.061994467, -0.01678505, 318880.7, 318880.7, 0.0003329124, 10.002579, 9.998882 
7.4482936e+2, 1.2561886e+2, -2038148.9, -1856959.9, 88617.61, 0.17101824, 0.0023038264, -1820824.5, -111892.58, 0.0, 9.997656, 10.000135 
7.4484164e+2, 1.3562074e+2, -1749242.4, -1608753.8, -51076.59, 0.08433306, 0.09869154, -1592147.1, 18771.492, 0.0, 9.998774, 10.0006275 
7.448548e+2, 1.4562106e+2, -1655198.9, -1584504.1, 57607.066, -0.053402696, 0.10915472, -1552264.4, -39347.215, 0.0, 9.999027, 9.999989 
7.4487185e+2, 1.5562035e+2, -1599525.0, -1501482.6, 60354.617, 0.07642286, -0.001373495, -1472749.4, -57826.19, 0.0, 9.998723, 10.00003 
7.448873e+2, 1.6562028e+2, -1466031.3, -1341644.5, 69582.43, 0.079511926, -0.027676918, -1310512.0, 6410.332, 0.0, 9.998757, 10.000458 
7.449019e+2, 1.7562047e+2, -1320923.3, -1214883.1, 51689.574, 0.01972756, -0.08339514, -1193856.3, 25062.531, 0.0, 9.999059, 10.000504 
7.449161e+2, 1.8562108e+2, -1197934.6, -1157193.8, 21432.568, -0.023604807, -0.044547945, -1147995.5, -27083.285, 0.0, 9.999448, 10.000039 
7.449298e+2, 1.9562167e+2, -1044668.3, -1034605.6, 5591.277, -0.060174473, -0.015200705, -1032115.2, -9208.697, 0.0, 9.99984, 10.000016 
7.449451e+2, 2.0562196e+2, -1011196.75, -1000058.44, 60911.63, -0.0073392577, 0.033071984, -944461.9, -19557.096, 0.0, 9.99955, 9.999708 
7.449616e+2, 2.1562175e+2, -1028602.75, -952731.25, 51650.855, 0.111734256, 0.01310588, -926581.7, -99672.95, 0.0, 9.998734, 9.999758 
7.449768e+2, 2.2562166e+2, -834331.1, -759688.2, 31895.389, 0.14342594, 0.008793814, -747915.8, -19007.363, 0.0, 9.999181, 10.000201 
7.449909e+2, 2.3562135e+2, -534097.4, -572841.4, -3227.5896, 0.09845099, -0.06997395, -533830.3, 97077.54, 0.0, 10.000592, 10.000138 
7.450049e+2, 2.4562119e+2, -452938.84, -599433.7, -19819.855, 0.07499691, -0.04032351, -450304.72, 82603.87, 0.0, 10.000989, 9.999087 
7.450188e+2, 2.5562084e+2, -398810.47, -520808.13, -28073.406, 0.07790925, -0.011012126, -392660.4, 42252.344, 0.0, 10.000678, 9.999102 
7.450336e+2, 2.6562017e+2, -248585.4, -419455.1, 22193.316, 0.07634066, 0.027816512, -245749.9, 91168.19, 0.0, 10.001147, 9.998893 
7.4504924e+2, 2.756189e+2, -2934.6792, -261950.11, -37665.258, 0.082614616, -0.01845536, 2431.3242, 241358.98, 0.00000017449423, 10.002214, 9.998785 
7.450645e+2, 2.856169e+2, 18312.762, -432499.53, -49127.207, 0.057515834, 0.020383233, 23604.281, 164551.9, 0.0000070145306, 10.002683, 9.996718 
7.450793e+2, 2.9561415e+2, 125605.54, -326370.4, -49497.367, 0.007090895, 0.039520983, 130962.664, 173940.39, 0.00004543542, 10.002713, 9.99676 
7.450956e+2, 3.0561042e+2, 189570.28, -139649.3, -33579.742, 0.13964865, -0.065705545, 192960.44, 192960.44, 0.00014809403, 10.0022745, 9.997919 
7.451104e+2, 3.1560794e+2, 116602.0, -37642.95, 79941.055, 0.1693061, -0.13832846, 150558.1, 150558.1, 0.00032280377, 10.001115, 9.999172 
7.548265e+2, 1.2560569e+2, -2089970.8, -1945962.8, 59451.215, 0.058299016, 0.060137536, -1924591.1, -215530.38, 0.0, 9.99759, 9.999551 
7.54841e+2, 1.356053e+2, -1795307.9, -1708496.4, -1955.3014, 0.11110541, 0.0028288616, -1708452.3, -97380.86, 0.0, 9.998792, 9.999935 
7.548541e+2, 1.4560567e+2, -1613933.5, -1497315.1, 27039.307, -0.068625234, 0.021591285, -1491350.9, 21718.07, 0.0, 9.999022, 10.00059 
7.5487036e+2, 1.5560581e+2, -1563489.6, -1417195.9, 59950.453, 0.029232599, -0.061460085, -1395767.3, 19296.68, 0.0, 9.99868, 10.000632 
7.5488555e+2, 1.6560681e+2, -1474372.9, -1344538.8, 65880.055, 0.006396086, -0.012384641, -1316965.8, 87.51018, 0.0, 9.998694, 10.000468 
7.549001e+2, 1.7560832e+2, -1329476.5, -1224032.0, 76319.78, -0.096142575, 0.06686607, -1183994.6, 35045.05, 0.0, 9.9990225, 10.00046 
7.549154e+2, 1.8560879e+2, -1215486.9, -1177388.1, 22071.877, -0.060415212, 0.10102308, -1167282.0, -46247.023, 0.0, 9.999379, 9.999934 
7.5493133e+2, 1.9560808e+2, -1064571.0, -1051819.3, 30967.781, 0.07905055, 0.009616072, -1026577.8, -3537.1794, 0.0, 9.999738, 9.9999485 
7.549459e+2, 2.0560762e+2, -1023518.2, -993298.25, 17106.537, 0.08894261, -0.01816622, -985584.0, -60540.055, 0.0, 9.999409, 9.999827 
7.5495934e+2, 2.156072e+2, -1048227.25, -948526.3, 36619.555, -0.007089227, -0.07207227, -936521.6, -109474.39, 0.0, 9.998549, 9.999874 
7.549745e+2, 2.256071e+2, -894406.4, -844558.2, 74341.89, -0.027871, -0.056405894, -791073.56, -62026.215, 0.0, 9.999012, 9.9997 
7.5499076e+2, 2.3560694e+2, -593898.5, -653959.75, 61057.926, 0.0024080023, -0.06904783, -555885.7, 75162.5, 0.0, 10.000415, 9.999665 
7.550055e+2, 2.4560708e+2, -464221.63, -598045.1, -44481.16, 0.013429864, 0.010591012, -450785.66, 82260.86, 0.0, 10.00088, 9.99915 
7.5501907e+2, 2.556071e+2, -413457.3, -529821.2, -24656.104, 0.009173719, 0.06919008, -408448.6, 26597.758, 0.0, 10.000586, 9.999085 
7.550344e+2, 2.6560456e+2, -340373.03, -598249.1, 50902.465, 0.013806577, -0.014283504, -330689.0, 6380.3916, 0.0, 10.0011015, 9.997685 
7.550512e+2, 2.755997e+2, -99238.84, -434963.66, 16126.703, 0.02753654, -0.2959322, -98465.97, 140647.66, 0.0000002213921, 10.0021, 9.997652 
7.550668e+2, 2.8559762e+2, 39405.47, -378888.97, -58330.746, -0.0012719741, -0.23280975, 47387.324, 188521.78, 0.000006961638, 10.002632, 9.997115 
7.550814e+2, 2.955975e+2, 148195.61, -267092.22, -29832.037, -0.0830755, 0.007528451, 150327.63, 193467.17, 0.00004401986, 10.002646, 9.997207 
7.550971e+2, 3.055951e+2, 234404.67, -26558.348, -82028.92, 0.038566224, -0.0276122, 258047.03, 258047.03, 0.0001416952, 10.002207, 9.998717 
7.5511235e+2, 3.155929e+2, 88827.56, -75563.164, 87946.97, 0.18447019, -0.1481469, 127009.72, 127009.72, 0.0003069929, 10.001041, 9.998939 
7.648239e+2, 1.2559114e+2, -2070478.4, -1914196.5, 43394.195, 0.05633726, 0.039383814, -1902955.9, -193753.52, 0.00000000032551553, 9.997558, 9.999801 
7.648405e+2, 1.355903e+2, -1833458.8, -1728810.1, 28194.38, 0.20353845, -0.06966081, -1721697.5, -110480.414, 0.0, 9.998502, 9.999943 
7.6485384e+2, 1.4559102e+2, -1646815.9, -1522121.0, 56247.695, 0.025021875, -0.012977557, -1500498.3, 12713.019, 0.0, 9.998815, 10.000533 
7.6486933e+2, 1.5559156e+2, -1526829.1, -1405296.4, 10782.264, 0.055353854, -0.050263096, -1404347.1, 10855.945, 0.0, 9.998941, 10.000599 
7.648845e+2, 1.6559279e+2, -1458334.6, -1330760.8, 29488.96, 0.030238124, 0.018920464, -1324274.1, -7083.638, 0.0, 9.998791, 10.000506 
7.6489943e+2, 1.7559431e+2, -1417406.6, -1263090.8, 18502.225, -0.027565503, 0.093921684, -1260903.4, -41726.844, 0.0, 9.99841, 10.00048 
7.6491517e+2, 1.8559453e+2, -1309522.8, -1224106.1, 18951.98, 0.016576285, 0.10306724, -1220089.9, -98915.88, 0.0, 9.998751, 9.99991 
7.649315e+2, 1.9559339e+2, -1078804.8, -1062039.3, 5287.7163, 0.13630064, -0.029471958, -1060510.9, -37326.75, 0.0, 9.999656, 9.999917 
7.6494604e+2, 2.0559302e+2, -902044.44, -933768.4, -16787.148, 0.13088663, -0.04862225, -894810.75, 30375.643, 0.0, 10.000243, 9.999839 
7.649591e+2, 2.1559297e+2, -755829.2, -813825.56, -27995.807, 0.022183072, -0.063427165, -744520.3, 82664.99, 0.0, 10.0005665, 9.999838 
7.649741e+2, 2.255927e+2, -720877.75, -786568.9, 60205.883, -0.02042805, -0.05094322, -685140.7, 44046.105, 0.0, 10.000321, 9.999463 
7.6499057e+2, 2.3559198e+2, -723419.0, -742380.2, 41183.38, -0.017009323, -0.09449247, -690639.06, -59446.277, 0.0, 9.999648, 9.999419 
7.650059e+2, 2.4559155e+2, -580258.9, -706131.6, -41693.973, -0.0013282064, -0.035834454, -567701.0, -34504.016, 0.0, 10.000309, 9.998679 
7.650204e+2, 2.5559106e+2, -243045.95, -499774.78, -85266.016, 0.022458483, 0.019856311, -217307.42, 217895.08, 0.0, 10.001982, 9.998618 
7.650364e+2, 2.6558843e+2, -174454.56, -550901.1, 15513.024, 0.04922967, -0.032561835, -173816.36, 163410.84, 0.0, 10.002382, 9.997398 
7.6505363e+2, 2.755839e+2, -167116.27, -493672.63, 20837.111, 0.0896304, -0.2559609, -165792.05, 73477.555, 0.00000016204108, 10.001745, 9.997426 
7.650695e+2, 2.8558177e+2, -66452.5, -368675.38, 11908.589, 0.055042066, -0.21840732, -65983.99, 75306.08, 0.000006290961, 10.001643, 9.997654 
7.650839e+2, 2.9558128e+2, 70834.79, -239562.52, 21109.469, -0.048262842, -0.068223305, 72263.82, 115559.34, 0.000041719115, 10.001861, 9.997755 
7.65099e+2, 3.0557954e+2, 239588.08, -42717.43, -53310.316, 0.013277336, -0.0568876, 249319.67, 249319.67, 0.00013461517, 10.002302, 9.998577 
7.6511484e+2, 3.1557673e+2, 276779.16, -15969.552, 2341.0588, 0.2679655, -0.22360176, 276797.88, 276797.88, 0.00029005748, 10.00245, 9.998688 
7.748206e+2, 1.255751e+2, -1991731.5, -1732121.0, -12285.956, -0.102138944, -0.067472436, -1731540.9, -22182.645, 0.0000000023621072, 9.997493, 10.001076 
7.7483946e+2, 1.3557574e+2, -1778477.3, -1610796.6, 65588.67, 0.22306931, -0.11171532, -1588189.4, 23165.844, 0.0, 9.998492, 10.000755 
7.748536e+2, 1.455772e+2, -1689274.4, -1611324.0, 42078.633, 0.085877635, 0.009962032, -1592943.5, -79600.164, 0.0, 9.998814, 9.999925 
7.748685e+2, 1.5557775e+2, -1569053.0, -1494190.6, 29333.996, 0.039898757, 0.03747302, -1484065.8, -68726.234, 0.0, 9.998943, 9.9999895 
7.748837e+2, 1.6557826e+2, -1457605.0, -1319455.1, 24.118195, 0.046288356, 0.061776575, -1319455.1, -2121.4175, 0.0, 9.998751, 10.000604 
7.7489954e+2, 1.7557845e+2, -1415134.4, -1248519.0, 21089.047, 0.11589899, -0.006466126, -1245891.1, -26562.117, 0.0, 9.998369, 10.0006 
7.74915e+2, 1.8557832e+2, -1320080.0, -1227125.3, 41812.527, 0.09461217, -0.038943585, -1211085.1, -89755.914, 0.0, 9.998661, 9.999939 
7.7493e+2, 1.955777e+2, -1092692.6, -1066885.5, 51329.227, -0.009429163, -0.12141111, -1026862.75, -3526.8064, 0.0, 9.999546, 9.999941 
7.7494514e+2, 2.0557815e+2, -932368.6, -959042.4, -18827.291, -0.005795356, -0.054983422, -922633.0, 2698.7888, 0.0, 10.000085, 9.99974 
7.749606e+2, 2.1557917e+2, -789081.1, -840552.5, -6572.791, 0.088111706, 0.046090074, -788255.06, 39066.98, 0.0, 10.000392, 9.999735 
7.749754e+2, 2.2557856e+2, -746790.6, -801397.94, 20409.197, 0.056737747, 0.03398015, -740005.8, -10680.278, 0.0, 10.000151, 9.999448 
7.749898e+2, 2.355764e+2, -748531.6, -761555.5, 32909.414, -0.07836522, -0.15398574, -721496.06, -90153.45, 0.0, 9.999499, 9.999364 
7.750056e+2, 2.4557458e+2, -668134.0, -856971.44, 9213.982, -0.08624976, -0.17888798, -667685.5, -134325.22, 0.0, 10.000176, 9.997707 
7.7502245e+2, 2.555729e+2, -323819.6, -637632.9, -13233.97, 0.00773494, -0.15024455, -323262.5, 112117.875, 0.0, 10.001854, 9.997732 
7.750394e+2, 2.6557192e+2, -144912.61, -472462.16, -19069.598, 0.08146768, -0.023473073, -143806.13, 193584.84, 0.0, 10.002311, 9.9979725 
7.750561e+2, 2.755712e+2, -137125.33, -414726.25, 13593.99, 0.13537449, 0.08249065, -136461.23, 102936.74, 0.00000014054619, 10.001668, 9.99801 
7.750718e+2, 2.8556898e+2, -28836.05, -270888.44, 9316.242, 0.096021764, 0.045385677, -28478.012, 112938.89, 0.0000059856334, 10.001566, 9.998357 
7.750864e+2, 2.9556537e+2, 103812.195, -158278.52, 47351.113, -0.025014013, -0.19296212, 112104.6, 155551.94, 0.0000396548, 10.001802, 9.99834 
7.7510095e+2, 3.055637e+2, 162305.11, -187788.84, -53305.17, -0.045350272, -0.14784728, 170241.42, 170241.42, 0.00012692052, 10.002247, 9.997606 
7.7511704e+2, 3.1555966e+2, 223099.06, -101146.62, 35795.99, 0.17561856, -0.33667845, 227003.83, 227003.83, 0.00027215088, 10.002335, 9.998164 
7.8481793e+2, 1.2555885e+2, -2001811.4, -1676713.3, -12038.236, -0.083881214, -0.13604338, -1676268.1, 33250.3, 0.0000000040597263, 9.997194, 10.00159 
7.848373e+2, 1.3556114e+2, -1822201.3, -1602553.8, -3040.3953, 0.190754, -0.042053066, -1602511.8, 8986.241, 0.0, 9.998089, 10.000996 
7.8485256e+2, 1.4556265e+2, -1707801.3, -1619484.8, -15724.42, 0.11635407, 0.07327976, -1616768.6, -103283.59, 0.0, 9.998696, 9.999914 
7.8486824e+2, 1.5556248e+2, -1534982.1, -1481466.5, -13471.773, 0.124682486, 0.032187544, -1478266.5, -62778.063, 0.0, 9.999202, 9.999947 
7.8488344e+2, 1.6556251e+2, -1371483.0, -1276254.6, -17757.12, 0.12702842, 0.012322783, -1273051.3, 44435.445, 0.0, 9.9993305, 10.000618 
7.8489846e+2, 1.755625e+2, -1314985.9, -1196059.8, -32546.195, 0.14258657, -0.077528365, -1187735.6, 31747.652, 0.0, 9.999047, 10.000627 
7.849139e+2, 1.8556264e+2, -1242481.0, -1176891.3, 47920.14, 0.10746916, -0.09216178, -1151618.5, -30137.734, 0.0, 9.999144, 10.000044 
7.849297e+2, 1.955626e+2, -1102622.9, -1059041.4, 37583.66, 0.022478566, -0.12578277, -1037388.25, -13906.251, 0.0, 9.999441, 10.000032 
7.8494537e+2, 2.0556314e+2, -969490.0, -1002891.25, -12248.765, 0.02805312, -0.045132656, -965479.7, -40001.816, 0.0, 9.999927, 9.999519 
7.849611e+2, 2.155638e+2, -799169.2, -870569.5, -34367.055, 0.11271595, 0.04475978, -785315.4, 42156.99, 0.0, 10.000425, 9.999515 
7.8497636e+2, 2.2556308e+2, -653908.06, -801076.6, -17580.254, 0.10299864, 0.05095533, -651837.1, 77641.164, 0.0, 10.000974, 9.999055 
7.8499115e+2, 2.3556095e+2, -480136.25, -674694.94, -58202.863, 0.014360755, -0.0923851, -464054.03, 167442.3, 0.0, 10.001523, 9.998989 
7.850071e+2, 2.4555886e+2, -448664.66, -743007.4, 2458.6636, -0.0140692815, -0.13231495, -448644.13, 84872.336, 0.0, 10.001657, 9.99777 
7.8502405e+2, 2.555565e+2, -371969.7, -653739.3, 27221.342, 0.0060222307, -0.17386077, -369363.97, 66176.8, 0.0, 10.001492, 9.997793 
7.8504115e+2, 2.6555562e+2, -258994.2, -516920.6, 24106.527, 0.08057603, -0.04710609, -256760.48, 80789.7, 0.0, 10.001487, 9.998058 
7.850584e+2, 2.755556e+2, -145374.23, -408038.3, -5480.99, 0.20377484, 0.11966933, -145259.9, 94291.4, 0.0000001311964, 10.0015745, 9.998092 
7.850742e+2, 2.8555334e+2, -35450.387, -258591.48, -12799.5205, 0.19148637, 0.066083595, -34718.598, 106852.37, 0.0000058891046, 10.001448, 9.998504 
7.850889e+2, 2.9554918e+2, 1763.1154, -197637.05, -44403.58, 0.08438075, -0.23240879, 11204.152, 54810.152, 0.000037489564, 10.001053, 9.998437 
7.8510314e+2, 3.0554792e+2, 79575.2, -246278.31, -68271.125, -0.008843108, -0.14618394, 93300.86, 93300.86, 0.00011865352, 10.001746, 9.997443 
7.851196e+2, 3.1554517e+2, 351733.16, 22787.398, 11725.998, 0.17809026, -0.19818324, 352150.63, 352150.63, 0.00025448482, 10.002946, 9.998713 
7.94815e+2, 1.2554306e+2, -2011556.5, -1720209.9, -40734.168, -0.16884688, -0.11665183, -1714621.9, -4944.846, 0.0000000034592607, 9.997288, 10.001249 
7.948335e+2, 1.3554657e+2, -1840452.8, -1650390.4, 36711.71, -0.03022125, 0.13944897, -1643545.9, -31901.197, 0.0, 9.998128, 10.000648 
7.9485035e+2, 1.4554735e+2, -1673222.0, -1542187.8, -15963.892, -0.013632494, 0.171497, -1540270.9, -26634.31, 0.0, 9.9986725, 10.000455 
7.948684e+2, 1.5554568e+2, -1495057.8, -1401233.5, 18855.441, 0.18364957, -0.07945386, -1397586.0, 18064.367, 0.0, 9.999214, 10.000488 
7.9488325e+2, 1.6554558e+2, -1380944.8, -1292741.3, -41407.367, 0.14523086, -0.1338678, -1276348.9, 41300.496, 0.0, 9.999311, 10.000517 
7.9489565e+2, 1.7554653e+2, -1319683.8, -1208907.9, -29564.861, -0.07350308, -0.119847134, -1201511.3, 18127.596, 0.0, 9.99905, 10.000541 
7.9491156e+2, 1.8554744e+2, -1246435.3, -1161063.9, 46218.93, -0.06640183, -0.059180405, -1140834.9, -19205.855, 0.0, 9.999045, 10.000196 
7.949303e+2, 1.9554807e+2, -1104200.3, -1040970.6, 62087.195, 0.11160651, -0.04636052, -1002912.5, 20710.344, 0.0, 9.999352, 10.0001955 
7.949465e+2, 2.0554797e+2, -1010984.56, -1055194.8, -6871.5234, 0.11904374, -0.020630265, -1009941.2, -84316.664, 0.0, 9.999783, 9.9992285 
7.9496044e+2, 2.155469e+2, -845652.06, -930353.5, -3616.199, -0.018417614, -0.07674046, -845498.0, -17861.602, 0.0, 10.000264, 9.999182 
7.949765e+2, 2.2554627e+2, -736948.3, -930373.7, -7209.919, 0.0026209066, -0.00482452, -736679.94, -7035.0024, 0.0, 10.000789, 9.998256 
7.949942e+2, 2.3554574e+2, -549131.5, -787376.6, -23915.549, 0.1473944, 0.09289894, -546754.56, 84898.64, 0.0, 10.001386, 9.998282 
7.9501015e+2, 2.4554433e+2, -391954.4, -596364.2, -16568.984, 0.0970069, 0.099250846, -390620.06, 143045.5, 0.0, 10.001535, 9.998835 
7.950246e+2, 2.5554183e+2, -322250.44, -521925.38, 35576.117, -0.11315875, -0.059216328, -316101.2, 119583.44, 0.0, 10.0013685, 9.998759 
7.950413e+2, 2.6553956e+2, -291457.63, -573003.3, 16681.668, -0.07436433, -0.10371671, -290472.7, 47232.41, 0.0, 10.0014305, 9.997702 
7.9505986e+2, 2.7553716e+2, -180390.78, -468491.53, 14307.962, 0.16889036, -0.13762364, -179681.95, 60047.082, 0.000000103459534, 10.001516, 9.997705 
7.950763e+2, 2.8553498e+2, -68381.125, -320597.84, -38490.203, 0.2315619, -0.14220385, -62638.0, 79112.73, 0.0000054454867, 10.001417, 9.998097 
7.950907e+2, 2.9553276e+2, -34016.746, -255308.75, -33450.88, 0.12533006, -0.20408288, -29070.797, 14701.031, 0.00003447301, 10.000976, 9.998084 
7.951051e+2, 3.0553225e+2, 113405.96, -165348.61, -23754.977, -0.019701628, -0.05569107, 115415.83, 115415.83, 0.0001104858, 10.001695, 9.998024 
7.951218e+2, 3.1553113e+2, 435552.88, 214972.38, 85958.04, 0.03444645, -0.008307733, 465093.7, 465093.7, 0.000240168, 10.002854, 10.000083 
8.048127e+2, 1.2552729e+2, -1938459.8, -1682786.8, -37595.188, -0.13298324, -0.023515975, -1677373.3, 32459.748, 0.0000000057252847, 9.997801, 10.00127 
8.048317e+2, 1.3552964e+2, -1731687.5, -1603323.1, 29551.664, -0.05246487, 0.12338711, -1596846.6, 14963.081, 0.0, 9.998889, 10.000627 
8.048494e+2, 1.455299e+2, -1631701.0, -1475086.8, -25037.273, 0.032156695, 0.08534974, -1471181.5, 42624.035, 0.0, 9.998769, 10.000869 
8.048675e+2, 1.5552905e+2, -1663698.8, -1443213.9, -39935.656, 0.24709119, -0.11852789, -1436203.4, -20392.074, 0.0, 9.997891, 10.000843 
8.048824e+2, 1.655296e+2, -1546290.8, -1349431.1, -47098.41, 0.19911593, -0.13631871, -1338743.1, -20938.598, 0.0, 9.998092, 10.000718 
8.04895e+2, 1.75531e+2, -1289245.1, -1177553.4, -41069.418, -0.048934843, -0.08890924, -1164077.9, 55712.164, 0.0, 9.9992, 10.000689 
8.049111e+2, 1.8553197e+2, -1149011.1, -1136933.4, 43363.47, -0.048893817, -0.020225776, -1099190.3, 22590.057, 0.0, 9.999814, 9.999995 
8.049301e+2, 1.9553229e+2, -1039268.9, -1040019.7, 1463.7815, 0.13879773, -0.012348894, -1038133.1, -14355.811, 0.0, 9.99992, 9.999942 
8.0494666e+2, 2.0553164e+2, -984641.06, -1059864.4, -51293.715, 0.15606159, -0.019685745, -958647.06, -32862.61, 0.0, 10.000038, 9.99908 
8.0496114e+2, 2.1552987e+2, -882134.9, -960681.06, -65167.64, 0.036408607, -0.12878975, -845321.2, -17518.209, 0.0, 10.00008, 9.999062 
8.049776e+2, 2.255293e+2, -767538.4, -918929.56, 14078.301, 0.055974986, -0.058030635, -766240.3, -36429.383, 0.0, 10.000476, 9.998475 
8.049957e+2, 2.3552944e+2, -579090.0, -775936.7, 47398.06, 0.1831843, 0.08258832, -568271.75, 63540.96, 0.0, 10.001088, 9.998494 
8.0501187e+2, 2.4552843e+2, -394836.44, -590635.3, 52434.965, 0.12557103, 0.11549251, -381678.56, 152142.67, 0.0, 10.001462, 9.998922 
8.0502635e+2, 2.5552613e+2, -283876.25, -493733.84, 6653.9634, -0.07252235, -0.034038298, -283665.47, 152173.4, 0.0, 10.0015745, 9.998864 
8.05043e+2, 2.6552376e+2, -236439.77, -537689.6, 8303.692, -0.05907233, -0.0925184, -236211.05, 101648.625, 0.0, 10.001761, 9.997795 
8.050612e+2, 2.7552113e+2, -96250.94, -419210.2, 16075.769, 0.13592157, -0.16413134, -95452.71, 144433.17, 0.00000004701224, 10.00204, 9.997803 
8.0507797e+2, 2.855191e+2, 20237.152, -319503.13, -3643.4258, 0.22591515, -0.13759735, 20276.22, 162183.38, 0.000004093495, 10.002211, 9.997717 
8.050932e+2, 2.9551733e+2, 140548.83, -208298.0, -26599.107, 0.21752347, -0.1207443, 142565.31, 186491.92, 0.000029631305, 10.002346, 9.997739 
8.051074e+2, 3.055161e+2, 240962.61, -110423.555, 16090.335, 0.014754399, -0.026712175, 241697.86, 241697.86, 0.00010221737, 10.002599, 9.997974 
8.0512404e+2, 3.155157e+2, 395404.38, 198736.97, 14118.382, 0.0030888708, 0.09955949, 396412.75, 396412.75, 0.00023173698, 10.002593, 10.000091 
8.148102e+2, 1.255119e+2, -1911623.1, -1643924.5, -33660.08, -0.23162468, 0.16747677, -1639757.0, 70226.336, 0.000000004999778, 9.997873, 10.0015 
8.148314e+2, 1.3551037e+2, -1703908.1, -1556508.9, 75727.92, -0.0036274833, -0.10330147, -1524537.6, 87454.586, 0.0, 9.998941, 10.0009165 
8.148494e+2, 1.4551033e+2, -1621111.0, -1461766.9, -75364.88, 0.11746847, -0.19003548, -1431769.0, 82222.12, 0.0, 9.998799, 10.000951 
8.1486505e+2, 1.5551265e+2, -1655521.9, -1422997.5, -56756.574, 0.1843591, -0.086389475, -1409883.5, 6087.0044, 0.0, 9.997875, 10.000991 
8.1488043e+2, 1.6551462e+2, -1526331.9, -1293056.0, -20233.018, 0.16720873, 0.009532954, -1291314.1, 26637.316, 0.0, 9.998032, 10.00113 
8.148959e+2, 1.75516e+2, -1266490.3, -1121610.4, 12804.173, 0.10292291, 0.007560498, -1120487.4, 99449.17, 0.0, 9.999167, 10.001082 
8.149121e+2, 1.8551627e+2, -1206704.9, -1241830.5, 36232.125, 0.046483837, 0.025111891, -1184003.3, -62069.2, 0.0, 9.999745, 9.9993105 
8.149287e+2, 1.9551533e+2, -1097546.4, -1143367.4, 19091.588, -0.023965638, -0.024583448, -1090634.4, -66689.55, 0.0, 9.999838, 9.999273 
8.149456e+2, 2.0551424e+2, -1016031.4, -1086803.0, -63694.586, 0.023969714, -0.038700443, -978553.25, -52596.59, 0.0, 9.999877, 9.998972 
8.1496274e+2, 2.1551277e+2, -907353.7, -974056.3, -48911.76, 0.16867207, -0.11049241, -881504.75, -53533.08, 0.0, 9.999912, 9.999049 
8.1497926e+2, 2.2551218e+2, -707319.3, -750297.06, 23707.123, 0.15201657, -0.10512154, -696811.3, 33164.793, 0.0, 10.00029, 9.999723 
8.1499517e+2, 2.3551194e+2, -524044.44, -622347.5, 82787.86, -0.004825967, -0.12676314, -476916.66, 155058.7, 0.0, 10.000916, 9.999632 
8.1501186e+2, 2.4551107e+2, -479648.6, -729767.56, 43000.55, -0.044013932, -0.08893799, -472462.38, 61521.652, 0.0, 10.001307, 9.998041 
8.150291e+2, 2.555094e+2, -359107.53, -620886.1, 23414.258, 0.014312908, -0.08586706, -357029.78, 78972.9, 0.0, 10.001452, 9.99805 
8.150458e+2, 2.6550835e+2, -202619.67, -450542.28, 6375.212, 0.020496618, -0.009915921, -202455.84, 135557.94, 0.0, 10.001692, 9.998426 
8.150619e+2, 2.7550745e+2, -77810.38, -347836.66, 43555.125, -0.022376254, 0.033197913, -70958.805, 169063.19, 0.000000004527389, 10.001903, 9.99836 
8.150787e+2, 2.8550562e+2, -14437.98, -381484.88, -10378.984, 0.048025507, 0.07361509, -14144.729, 127896.305, 0.0000024308686, 10.002161, 9.997316 
8.150959e+2, 2.9550287e+2, 91982.18, -287449.2, -2484.9353, 0.21406025, 0.033360627, 91998.45, 136068.92, 0.00002455122, 10.0022545, 9.99724 
8.1510985e+2, 3.054993e+2, 199199.78, -200827.27, 8906.979, -0.029119886, -0.045865953, 199398.0, 199398.0, 0.00009685274, 10.002614, 9.997344 
8.1512505e+2, 3.1549838e+2, 297403.4, 22504.133, 35449.734, -0.2146093, 0.08826277, 301901.25, 301901.25, 0.00023260372, 10.00248, 9.998937 
8.248097e+2, 1.2549415e+2, -1758049.0, -1580212.9, 25841.959, -0.10706298, 0.08507237, -1576533.8, 133617.98, 0.0000000017683296, 9.998939, 10.001427 
8.2482976e+2, 1.354923e+2, -1907782.1, -1653028.0, 65528.73, 0.029580936, -0.22963567, -1637160.8, -24996.504, 0.0, 9.997518, 10.000942 
8.2484776e+2, 1.4549257e+2, -1804996.9, -1529398.5, -40102.23, 0.15545703, -0.2947061, -1523681.9, -9520.882, 0.0, 9.997457, 10.001126 
8.248631e+2, 1.5549624e+2, -1514242.1, -1340337.8, -47743.117, 0.16283369, -0.070983514, -1328092.6, 88035.96, 0.0, 9.998788, 10.001108 
8.24879e+2, 1.6549829e+2, -1389151.9, -1273366.9, -12237.364, 0.16968969, 0.046247497, -1272087.6, 46022.68, 0.0, 9.999154, 10.000728 
8.248957e+2, 1.7549872e+2, -1373106.9, -1222578.3, -70915.51, 0.20229726, -0.010084569, -1194432.1, 25673.764, 0.0, 9.99862, 10.000664 
8.249122e+2, 1.8549858e+2, -1344386.8, -1302369.1, -16431.412, 0.13776729, -0.016896242, -1296706.5, -174598.58, 0.0, 9.998779, 9.999358 
8.249282e+2, 1.9549765e+2, -1142927.9, -1157577.1, -7215.1885, -0.02531824, -0.06955936, -1139971.0, -115852.44, 0.0, 9.999504, 9.999329 
8.249454e+2, 2.0549706e+2, -967372.0, -1034319.7, -30587.158, 0.016335793, -0.0496131, -955501.94, -29376.598, 0.0, 10.00009, 9.999219 
8.249635e+2, 2.1549654e+2, -808162.8, -902877.75, -17890.844, 0.23262335, -0.049892556, -804896.06, 23235.012, 0.0, 10.00049, 9.999259 
8.2498026e+2, 2.2549586e+2, -660759.2, -739014.94, 40513.406, 0.21623458, -0.058642033, -643563.7, 86572.31, 0.0, 10.000641, 9.999648 
8.2499593e+2, 2.3549467e+2, -580160.5, -659583.75, -27894.781, 0.0075618564, -0.16504882, -571342.44, 60801.496, 0.0, 10.000563, 9.999558 
8.2501286e+2, 2.4549372e+2, -569162.94, -765270.6, -49596.535, -0.025120886, -0.1322411, -557333.3, -23179.965, 0.0, 10.000673, 9.998095 
8.250309e+2, 2.5549275e+2, -424791.88, -643412.4, -26778.947, 0.08540893, -0.06687852, -421559.5, 14606.643, 0.0, 10.000984, 9.998112 
8.2504773e+2, 2.6549178e+2, -273641.63, -492547.47, -17143.846, 0.079932146, 0.017243976, -272307.13, 65869.84, 0.0, 10.001239, 9.99835 
8.250636e+2, 2.754904e+2, -157972.3, -389853.06, -60307.87, -0.014754785, 0.018074557, -143225.22, 96964.875, 0.0, 10.001374, 9.998314 
8.2508034e+2, 2.854887e+2, -48537.12, -376010.88, -74438.24, 0.022542479, 0.06461511, -32410.67, 109796.91, 0.000001518397, 10.00184, 9.997513 
8.250979e+2, 2.954865e+2, 147677.88, -237949.55, -51251.918, 0.18652417, 0.057688132, 154373.28, 198604.39, 0.000022026383, 10.002533, 9.997451 
8.251126e+2, 3.0548272e+2, 257848.83, -185262.19, 31129.428, -0.031508535, -0.04027388, 260025.05, 260025.05, 0.00009707927, 10.003092, 9.997208 
8.251288e+2, 3.1548017e+2, 389098.5, -4102.533, 16855.56, -0.12230488, -0.06393659, 389819.72, 389819.72, 0.00024343748, 10.003406, 9.998299 
8.348103e+2, 1.2547418e+2, -1784307.3, -1623500.5, -54044.176, -0.0050579333, -0.26793495, -1607025.3, 103311.78, 0.000000000051048894, 9.998904, 10.001143 
8.348266e+2, 1.3547559e+2, -1907587.3, -1650183.9, 27529.648, -0.07324179, -0.24843942, -1647272.5, -34948.86, 0.0, 9.997519, 10.0009575 
8.348441e+2, 1.4547682e+2, -1800320.8, -1517275.8, -4663.839, 0.009160416, -0.22393185, -1517198.9, -2885.8054, 0.0, 9.997443, 10.001215 
8.3486104e+2, 1.554799e+2, -1508354.6, -1328934.5, 13554.336, 0.045189243, -0.07620067, -1327916.3, 88369.23, 0.0, 9.99879, 10.001184 
8.348775e+2, 1.654806e+2, -1485607.3, -1456450.0, -47090.484, 0.08161992, -0.029905863, -1421733.1, -103452.03, 0.0, 9.999085, 9.999505 
8.3489394e+2, 1.7547928e+2, -1458394.5, -1388591.6, -75034.92, 0.13370717, -0.1376548, -1340738.4, -120441.37, 0.0, 9.998582, 9.99954 
8.349109e+2, 1.8547894e+2, -1302376.4, -1203536.1, -3631.8208, 0.1124913, -0.14567083, -1203402.8, -81101.35, 0.0, 9.998723, 10.000069 
8.349284e+2, 1.9547911e+2, -1105539.0, -1054132.8, 32914.996, 0.01639152, -0.16392288, -1038074.06, -13774.44, 0.0, 9.999392, 10.000093 
8.3494574e+2, 2.0548001e+2, -951216.4, -962538.2, -28914.55, 0.020292785, -0.062207308, -927413.8, -1122.4172, 0.0, 9.999923, 9.999791 
8.349629e+2, 2.1548122e+2, -798957.0, -844345.2, 9630.71, 0.10282868, 0.05112613, -796998.06, 31282.725, 0.0, 10.000321, 9.999739 
8.349803e+2, 2.2548044e+2, -784830.7, -960157.06, 23810.67, 0.13166685, 0.084059805, -781654.56, -51364.895, 0.0, 10.000475, 9.998214 
8.3499765e+2, 2.3547769e+2, -692068.06, -862875.4, -14411.727, 0.10375786, -0.035800576, -690860.56, -58542.977, 0.0, 10.000424, 9.998235 
8.350147e+2, 2.4547648e+2, -517960.4, -632036.94, -49746.832, 0.066112794, -0.018148499, -499314.4, 35014.24, 0.0, 10.000553, 9.999069 
8.350315e+2, 2.554762e+2, -378052.5, -525908.94, 383.522, 0.02139004, 0.019326014, -378051.5, 58277.316, 0.0, 10.000887, 9.998969 
8.3504844e+2, 2.6547408e+2, -340299.25, -611705.0, -23003.855, 0.008912621, -0.008339274, -338363.28, -14.36721, 0.0, 10.001156, 9.997574 
8.350656e+2, 2.7547017e+2, -222037.55, -501405.03, -37425.043, 0.02320417, -0.18799497, -217110.84, 23277.943, 0.0, 10.001277, 9.997598 
8.350825e+2, 2.8546852e+2, 4090.3108, -252870.75, -60664.117, 0.022946224, -0.14733733, 17692.086, 160097.58, 0.0000012583888, 10.001785, 9.998383 
8.350989e+2, 2.9546842e+2, 186188.63, -128755.66, -8185.032, 0.0027855535, -0.028053014, 186401.2, 230807.61, 0.000022671806, 10.002409, 9.998262 
8.351151e+2, 3.054664e+2, 275994.63, -138210.97, 38722.07, -0.12095843, -0.00670957, 279583.47, 279583.47, 0.0001036696, 10.00305, 9.99755 
8.3513427e+2, 3.1546363e+2, 352855.47, -51080.99, 48474.684, 0.017119251, -0.08226621, 358591.25, 358591.25, 0.00026239955, 10.003293, 9.998029 
8.4480906e+2, 1.2545641e+2, -2037165.8, -1747082.9, -32593.885, 0.085454516, -0.36662975, -1743465.8, -32957.75, 0.0, 9.997173, 10.001134 
8.448241e+2, 1.3545956e+2, -1771478.6, -1574320.9, -6595.665, -0.106205374, -0.18372434, -1574100.5, 38380.5, 0.0, 9.998407, 10.001055 
8.448417e+2, 1.4546102e+2, -1628117.9, -1459649.6, 14036.773, -0.024959125, -0.12899052, -1458488.1, 55980.59, 0.0, 9.99873, 10.000993 
8.4485966e+2, 1.5546277e+2, -1543198.6, -1374239.8, -24701.72, 0.04399544, -0.08944759, -1370702.4, 45749.684, 0.0, 9.998672, 10.0009365 
8.448765e+2, 1.6546296e+2, -1493541.5, -1482200.3, -44691.93, 0.08426425, -0.07636984, -1442820.6, -124367.75, 0.0, 9.999126, 9.999309 
8.4489286e+2, 1.7546163e+2, -1289344.5, -1326815.0, -22504.715, 0.11620024, -0.1610152, -1278797.1, -58327.277, 0.0, 9.999834, 9.999358 
8.449102e+2, 1.8546163e+2, -1124017.6, -1088272.8, 86117.33, 0.11750934, -0.14379272, -1018192.8, 104278.51, 0.0, 9.999822, 10.000326 
8.4492826e+2, 1.9546233e+2, -1123021.1, -1043917.75, 60725.066, 0.08152811, -0.1323264, -1010999.6, 13463.888, 0.0, 9.999179, 10.000274 
8.449458e+2, 2.0546311e+2, -1025279.0, -1016682.4, 1019.4861, 0.06523545, -0.043438897, -1016563.1, -90106.7, 0.0, 9.999491, 9.999634 
8.449629e+2, 2.1546362e+2, -784076.75, -861283.9, -47805.78, 0.06974317, 0.021037847, -761234.2, 67218.914, 0.0, 10.000521, 9.999534 
8.449807e+2, 2.2546278e+2, -678959.6, -912391.4, 4079.1104, 0.09940072, 0.06331613, -678888.4, 51574.53, 0.0, 10.001237, 9.998156 
8.44999e+2, 2.354607e+2, -516930.0, -779993.0, 35062.535, 0.14318678, 0.010541364, -512336.88, 120148.32, 0.0, 10.001665, 9.998186 
8.4501624e+2, 2.4545942e+2, -384452.7, -585403.94, 15886.2295, 0.122587234, 0.032918286, -383204.56, 151292.33, 0.0, 10.001537, 9.99892 
8.4503263e+2, 2.5545847e+2, -384318.0, -540198.0, -42796.84, 0.053107522, 0.019827992, -373341.1, 63162.297, 0.0, 10.000898, 9.998859 
8.4504974e+2, 2.654561e+2, -370679.75, -627625.8, -24907.166, 0.03754041, -0.028905328, -368287.63, -29761.398, 0.0, 10.000947, 9.997562 
8.450675e+2, 2.7545232e+2, -174598.03, -477917.9, -8597.179, 0.07663355, -0.19439405, -174354.55, 66210.61, 0.0000000050987805, 10.001595, 9.997608 
8.4508455e+2, 2.854508e+2, 15918.554, -245882.66, -14932.516, 0.058470644, -0.1428211, 16767.516, 159347.84, 0.0000017149706, 10.001843, 9.9984045 
8.4510076e+2, 2.9545078e+2, 80867.75, -167367.84, -54110.64, -0.0037258612, -0.023556864, 92150.055, 136729.86, 0.0000255943, 10.001629, 9.998367 
8.45118e+2, 3.0544925e+2, 170634.72, -183588.83, 9406.62, -0.07721895, 0.035696838, 170884.34, 170884.34, 0.000114914044, 10.002285, 9.9976225 
8.451386e+2, 3.1544545e+2, 392014.7, 648.0345, -62971.094, 0.124674395, -0.14157572, 401897.22, 401897.22, 0.00028702893, 10.00338, 9.998363 
8.548052e+2, 1.2544096e+2, -2049687.4, -1749025.3, -2803.8352, -0.08660675, -0.21650298, -1748999.1, -38335.156, 0.0, 9.99709, 10.001152 
8.548218e+2, 1.3544443e+2, -1766707.8, -1548298.1, 45466.53, -0.20747846, -0.020462241, -1539211.4, 73423.305, 0.0, 9.998373, 10.001231 
8.548404e+2, 1.4544539e+2, -1660331.5, -1539022.4, -6459.5225, -0.07391766, 0.0032228972, -1538679.4, -24053.238, 0.0, 9.998764, 10.0004425 
8.548586e+2, 1.5544498e+2, -1571104.6, -1440682.4, -8659.469, 0.035106447, -0.11695547, -1440109.9, -23481.975, 0.0, 9.998703, 10.000465 
8.548758e+2, 1.6544533e+2, -1444740.1, -1372197.8, -32123.596, 0.066464454, -0.10350084, -1360017.8, -41392.184, 0.0, 9.99909, 10.00008 
8.548922e+2, 1.754459e+2, -1238791.4, -1214884.8, 14250.799, 0.03499679, -0.082418494, -1208237.9, 12385.63, 0.0, 9.999809, 10.0001335 
8.549094e+2, 1.8544675e+2, -1150495.4, -1130997.8, 48921.2, 0.031581625, -0.0031674115, -1090863.5, 31752.89, 0.0, 9.999758, 10.000069 
8.549273e+2, 1.9544752e+2, -1149938.1, -1087481.3, 51231.54, 0.038844116, 0.04161917, -1058710.6, -34102.6, 0.0, 9.999117, 10.000006 
8.549452e+2, 2.0544654e+2, -1114440.8, -1173914.9, 26279.855, 0.039160866, 0.02231736, -1104492.5, -177874.1, 0.0, 9.999364, 9.998624 
8.549632e+2, 2.1544372e+2, -868581.0, -997266.75, 4906.779, 0.025020814, -0.14986242, -868394.2, -39745.945, 0.0, 10.000347, 9.998686 
8.549813e+2, 2.2544287e+2, -619259.4, -745350.7, 7474.8896, 0.014297654, -0.13429812, -618817.8, 111838.51, 0.0, 10.00105, 9.999394 
8.549995e+2, 2.3544355e+2, -458553.34, -625230.25, 64858.7, 0.0059372634, -0.034087934, -436289.03, 196358.67, 0.0, 10.001516, 9.999323 
8.55017e+2, 2.4544252e+2, -492115.84, -777198.56, -21399.518, 0.026370589, 0.024113487, -490518.47, 44139.848, 0.0, 10.001404, 9.997666 
8.55034e+2, 2.554396e+2, -485110.75, -719716.94, -51772.53, 0.07239926, -0.06263921, -474193.7, -37504.055, 0.0, 10.000768, 9.997692 
8.550513e+2, 2.6543778e+2, -329801.63, -520542.66, -14089.008, 0.07444512, -0.045232527, -328766.56, 9942.969, 0.0, 10.000853, 9.998345 
8.550689e+2, 2.7543664e+2, -140047.47, -383834.06, 31082.158, 0.027219819, -0.018044116, -136146.98, 104574.31, 0.0000001292932, 10.001501, 9.9983015 
8.5508615e+2, 2.8543547e+2, -44599.605, -356893.75, -33025.145, 0.009394151, 0.07174588, -41145.4, 101587.59, 0.0000031613251, 10.001781, 9.997669 
8.5510296e+2, 2.9543355e+2, 21569.027, -278310.72, -43944.797, 0.012071374, 0.078064755, 27876.107, 72627.336, 0.000030116835, 10.001569, 9.997638 
8.5512096e+2, 3.054312e+2, 152026.55, -200961.8, 43954.324, -0.029891148, 0.08976835, 157417.44, 157417.44, 0.00012742863, 10.002213, 9.997531 
8.551414e+2, 3.1542587e+2, 405509.47, 67848.336, 6671.6313, 0.005041175, -0.22334056, 405641.25, 405641.25, 0.00031382052, 10.003225, 9.998898 
8.648025e+2, 1.2542382e+2, -2078302.5, -1790790.0, 15720.676, -0.038962066, -0.14898665, -1789933.0, -79097.695, 0.00000000000000000000885557, 9.996996, 10.000916 
8.648203e+2, 1.3542697e+2, -1821383.8, -1608539.0, -25536.816, -0.16455692, 0.039493557, -1605518.0, 7291.4185, 0.0, 9.998103, 10.000964 
8.6483943e+2, 1.4542758e+2, -1687548.8, -1548893.5, -74883.12, -0.02588454, 0.039438732, -1516173.1, -1369.2977, 0.0, 9.998576, 10.00046 
8.648576e+2, 1.554264e+2, -1560060.5, -1443131.5, -69866.73, 0.07047424, -0.15443517, -1410494.6, 6317.0737, 0.0, 9.9988, 10.000415 
8.6487484e+2, 1.6542682e+2, -1461728.4, -1354331.3, -59832.133, 0.079741724, -0.14037877, -1327634.4, -8826.683, 0.0, 9.998873, 10.000297 
8.648913e+2, 1.7542833e+2, -1366227.9, -1263121.6, -89050.46, 0.018339768, -0.044626582, -1211778.1, 9018.473, 0.0, 9.998869, 10.000258 
8.649089e+2, 1.8542928e+2, -1222394.9, -1189257.0, -59169.273, 0.026130237, 0.05112147, -1144380.6, -21591.893, 0.0, 9.999392, 9.999832 
8.649273e+2, 1.9542953e+2, -989565.4, -1034192.5, -81064.74, 0.07763019, 0.0701614, -927799.25, 96986.14, 0.0, 10.00035, 9.9997635 
8.6494553e+2, 2.0542826e+2, -909687.1, -1053245.5, -26987.633, 0.07873762, 0.023112167, -904781.4, 22016.855, 0.0, 10.0006895, 9.998798 
8.649635e+2, 2.1542533e+2, -850458.56, -970974.0, 8067.8843, 0.026074713, -0.17713235, -849920.9, -21092.861, 0.0, 10.000407, 9.998828 
8.649817e+2, 2.254247e+2, -708050.25, -750919.4, 34769.977, -0.0053019463, -0.16175792, -688638.9, 42194.375, 0.0, 10.000282, 9.999729 
8.650002e+2, 2.3542589e+2, -617092.9, -667535.75, -3308.21, -0.013464258, -0.043167926, -616876.8, 15942.728, 0.0, 10.000283, 9.999627 
8.65018e+2, 2.4542485e+2, -619475.56, -862444.7, -61190.03, 0.025546448, 0.010149128, -604935.44, -70104.67, 0.0, 10.00064, 9.997444 
8.6503524e+2, 2.5542155e+2, -416501.8, -710177.56, -42499.074, 0.10307076, -0.091865554, -410475.28, 26391.49, 0.0, 10.001351, 9.997473 
8.650528e+2, 2.6541996e+2, -221917.55, -489600.66, 30155.021, 0.106782265, -0.030705024, -218562.58, 120323.19, 0.0000000005766255, 10.001687, 9.998152 
8.6507064e+2, 2.754195e+2, -122360.24, -397243.38, -28914.299, 0.051602576, 0.08451516, -119351.74, 121540.98, 0.000000514823, 10.001718, 9.998102 
8.650883e+2, 2.8541797e+2, 14303.813, -335460.84, -70662.6, 0.032591425, 0.15234585, 28040.232, 170947.83, 0.0000054394536, 10.002222, 9.997609 
8.651056e+2, 2.9541498e+2, 241257.83, -173163.67, -59244.773, 0.05894403, 0.05812518, 249560.98, 294495.13, 0.000035908153, 10.003096, 9.997625 
8.651242e+2, 3.054121e+2, 257140.8, -168907.31, 67744.47, 0.046292502, 0.029047403, 267653.22, 267653.22, 0.00014009468, 10.003, 9.99737 
8.65144e+2, 3.1540823e+2, 183582.08, -4684.404, -17445.2, 0.03822901, -0.1290355, 185184.94, 185184.94, 0.00033844914, 10.001577, 9.999169 
8.748002e+2, 1.2540527e+2, -2110543.8, -1860152.1, 29324.906, -0.029201798, -0.12431559, -1856763.5, -145744.42, 0.0000000055054987, 9.997003, 10.000432 
8.748194e+2, 1.3540718e+2, -1857706.9, -1673709.4, 23629.225, -0.09250768, -0.017523307, -1670723.4, -57717.62, 0.0, 9.99807, 10.000524 
8.7483865e+2, 1.4540763e+2, -1664723.6, -1497665.6, -84380.15, -0.0006363285, -0.02861195, -1462463.4, 52538.055, 0.0, 9.99856, 10.00082 
8.7485623e+2, 1.5540712e+2, -1537056.1, -1384277.0, -48234.875, 0.028542593, -0.19758397, -1370323.0, 46679.25, 0.0, 9.998769, 10.000826 
8.7487316e+2, 1.654077e+2, -1497317.1, -1422270.6, -74186.73, 0.000093954026, -0.16767092, -1376657.5, -57660.484, 0.0, 9.9988365, 9.999853 
8.7488973e+2, 1.7540908e+2, -1401406.1, -1329213.0, -75784.56, -0.053673714, -0.039137185, -1281367.5, -60379.67, 0.0, 9.998837, 9.999819 
8.749081e+2, 1.8540937e+2, -1251614.8, -1235599.8, -36480.27, -0.013804772, 0.028306833, -1206258.5, -83271.88, 0.0, 9.99933, 9.999546 
8.749281e+2, 1.9540825e+2, -1015297.06, -1065551.3, -32411.498, 0.092105575, -0.06336087, -999413.5, 25582.955, 0.0, 10.000257, 9.999593 
8.749465e+2, 2.0540811e+2, -839761.6, -874862.8, -50479.605, 0.07725227, -0.05763299, -803868.7, 123128.125, 0.0, 10.000544, 10.000095 
8.7496346e+2, 2.1540858e+2, -788429.56, -804547.1, 8929.893, -0.043996926, -0.046701316, -784459.75, 44531.32, 0.0, 10.000242, 10.0000515 
8.749815e+2, 2.2540854e+2, -776711.4, -853196.56, 20409.813, -0.06900027, -0.00076446816, -771605.94, -40614.223, 0.0, 10.000109, 9.999112 
8.7500054e+2, 2.3540774e+2, -683362.1, -759374.6, 12058.846, -0.01997734, -0.017474385, -681494.94, -48494.35, 0.0, 10.000089, 9.999089 
8.750187e+2, 2.4540637e+2, -583491.6, -759515.06, -48193.82, 0.0141152395, -0.012863837, -571160.4, -36145.84, 0.0, 10.00051, 9.998217 
8.75036e+2, 2.5540426e+2, -387031.84, -619242.44, -2026.3827, 0.024692928, -0.07214394, -387014.2, 50020.94, 0.0, 10.001223, 9.998159 
8.750539e+2, 2.6540262e+2, -314080.63, -671525.94, 18411.28, 0.025381636, 0.015824508, -313134.78, 25920.387, 0.0000000691861, 10.001639, 9.996927 
8.750723e+2, 2.754009e+2, -217457.9, -569998.9, -11225.029, 0.019825438, 0.12445559, -217100.86, 23978.041, 0.000001269736, 10.001612, 9.996966 
8.7509066e+2, 2.8539845e+2, 53962.715, -244384.5, -50828.19, 0.018764738, 0.12094973, 62384.383, 205486.6, 0.000008255043, 10.002175, 9.998265 
8.7510866e+2, 2.953949e+2, 278354.78, -87378.29, -10135.32, 0.010575846, -0.09459288, 278635.44, 323765.13, 0.000042714033, 10.003045, 9.998248 
8.751274e+2, 3.05392e+2, 230795.6, -204879.88, 10127.637, 0.04088287, -0.14755008, 231030.89, 231030.89, 0.00015288098, 10.002928, 9.997152 
8.751457e+2, 3.1539023e+2, 159153.55, -45618.43, -12072.776, -0.021912571, -0.07050388, 159862.88, 159862.88, 0.00035815634, 10.001524, 9.99892 
8.847985e+2, 1.2538685e+2, -1889853.8, -1737682.6, 33820.88, 0.045650896, -0.04040407, -1730504.4, -19300.482, 0.00000006865043, 9.998443, 10.000587 
8.848177e+2, 1.3538761e+2, -1923052.0, -1700152.5, 12282.826, -0.024451474, -0.050486293, -1699477.8, -86278.72, 0.0, 9.997594, 10.00058 
8.848371e+2, 1.453882e+2, -1813058.8, -1557645.5, -39042.656, 0.05013951, -0.056134705, -1551810.8, -36617.25, 0.0, 9.997511, 10.000903 
8.8485503e+2, 1.5538882e+2, -1585427.0, -1402529.8, -61446.87, 0.058121465, -0.117760785, -1383803.1, 33382.2, 0.0, 9.998422, 10.000859 
8.8487244e+2, 1.6538948e+2, -1435805.3, -1408465.6, -63035.11, 0.029322453, -0.07280931, -1357635.1, -38455.625, 0.0, 9.999328, 9.999714 
8.848895e+2, 1.7539014e+2, -1208946.8, -1251224.9, -68699.24, -0.023550391, -0.0019107149, -1158207.8, 62968.29, 0.0, 10.000223, 9.999689 
8.8490796e+2, 1.8538982e+2, -1129324.9, -1175501.3, 3447.5105, 0.0041994, 0.010912758, -1129068.9, -5889.304, 0.0, 10.000162, 9.999557 
8.8492775e+2, 1.9538821e+2, -1159791.4, -1136102.9, -1116.3064, 0.08792573, -0.1304723, -1136050.4, -110856.984, 0.0, 9.999266, 9.999588 
8.849463e+2, 2.0538838e+2, -1033296.9, -944630.4, -25886.61, 0.08602021, -0.10550154, -937626.0, -10435.163, 0.0, 9.99911, 10.000312 
8.8496387e+2, 2.1538986e+2, -867402.94, -820460.25, -70462.82, 0.015753008, -0.012182462, -769662.4, 59513.563, 0.0, 9.999601, 10.000259 
8.8498217e+2, 2.2539017e+2, -767120.2, -827119.1, -34771.504, -0.001777045, 0.04934772, -751195.5, -20022.248, 0.0, 10.000079, 9.999299 
8.850012e+2, 2.3538911e+2, -605951.3, -705404.56, -14273.484, 0.018261695, -0.011884448, -603943.3, 29241.08, 0.0, 10.000537, 9.999244 
8.850196e+2, 2.453879e+2, -454646.38, -678169.1, -18049.398, 0.01848987, -0.006860732, -453198.25, 81998.18, 0.0, 10.001316, 9.998382 
8.850375e+2, 2.553862e+2, -193125.11, -511934.28, -48657.336, -0.008199685, -0.041721318, -185864.28, 251348.25, 0.00000000006372724, 10.00247, 9.998299 
8.850557e+2, 2.6538435e+2, -185391.69, -619842.94, -23620.771, 0.0031793758, 0.021609187, -184111.22, 155123.05, 0.00000025387644, 10.002572, 9.996833 
8.850743e+2, 2.7538192e+2, -187582.34, -565134.5, 415.99182, 0.05563749, 0.070650615, -187581.89, 53682.168, 0.0000021793016, 10.001854, 9.996883 
8.850931e+2, 2.8537956e+2, -13047.767, -257038.7, 44284.313, 0.08372106, 0.0703807, -5258.8184, 138028.22, 0.000011106664, 10.001649, 9.998414 
8.8511187e+2, 2.9537684e+2, 128696.25, -142542.69, 14985.27, 0.091949016, -0.07116661, 129521.64, 174829.31, 0.000049522223, 10.00195, 9.998388 
8.8513076e+2, 3.053742e+2, 171961.17, -194334.66, 27140.383, 0.12329025, -0.12147745, 173961.19, 173961.19, 0.00016467013, 10.002357, 9.997505 
8.851485e+2, 3.1537345e+2, 297040.44, 24633.951, 18572.963, 0.067071244, 0.0257139, 298300.94, 298300.94, 0.00037312726, 10.002469, 9.998957 
8.9479667e+2, 1.2536837e+2, -1845619.8, -1625704.4, -34118.49, -0.04879021, 0.087767944, -1620532.6, 90859.02, 0.00000033567557, 9.998391, 10.001366 
8.948151e+2, 1.3536863e+2, -1885350.8, -1610213.0, -11299.839, -0.07833671, -0.032501247, -1609749.8, 3636.0342, 0.00000000007521531, 9.997566, 10.0012 
8.9483416e+2, 1.4536971e+2, -1835484.5, -1601777.3, -20988.457, -0.020605626, -0.006293259, -1599907.4, -84531.91, 0.0, 9.997491, 10.000615 
8.948536e+2, 1.5537171e+2, -1609582.4, -1449273.1, -9618.856, 0.039137103, 0.100902885, -1448698.0, -31339.049, 0.0, 9.998402, 10.00055 
8.948722e+2, 1.6537231e+2, -1429457.4, -1389309.1, -42886.895, 0.04283725, 0.15128782, -1362030.8, -42676.723, 0.0, 9.999303, 9.999854 
8.9489025e+2, 1.7537154e+2, -1202323.4, -1226591.8, -22458.361, 0.008430298, 0.060433183, -1188930.8, 32430.236, 0.0, 10.000181, 9.999875 
8.949081e+2, 1.8537074e+2, -1123183.5, -1144691.8, -43349.89, -0.026932618, 0.002254691, -1089273.8, 34092.88, 0.0, 10.000077, 9.999811 
8.949257e+2, 1.9536962e+2, -1166418.5, -1118518.4, -20580.963, -0.065023065, -0.11704594, -1110890.3, -85515.84, 0.0, 9.999128, 9.999774 
8.9494455e+2, 2.0536922e+2, -1114268.6, -1081778.9, -19992.387, -0.02184279, -0.110192016, -1072263.4, -144884.84, 0.0, 9.998973, 9.999438 
8.949644e+2, 2.1536918e+2, -949199.44, -947353.5, -35721.863, 0.09049429, -0.08389925, -912542.7, -83160.41, 0.0, 9.999418, 9.999474 
8.949834e+2, 2.2536962e+2, -730474.06, -710342.56, -29475.932, 0.089788675, -0.018454136, -689261.06, 42116.805, 0.0, 9.999898, 10.000191 
8.9500153e+2, 2.3537017e+2, -570818.5, -590628.0, 16867.281, -0.020284912, -0.011049861, -561162.9, 72206.29, 0.0, 10.000359, 10.000116 
8.950202e+2, 2.4536957e+2, -504059.56, -752544.1, 11564.912, -0.0813486, 0.035079017, -503522.5, 31852.479, 0.0, 10.001191, 9.997933 
8.950392e+2, 2.5536758e+2, -247101.36, -582909.06, 6196.332, -0.10592684, 0.013966393, -246987.08, 190410.2, 0.0000000002378373, 10.0022955, 9.997898 
8.9505786e+2, 2.653654e+2, -127741.1, -477993.6, -61989.313, -0.06540209, 0.012935386, -117093.62, 222326.44, 0.00000030747992, 10.002479, 9.997849 
8.950762e+2, 2.7536264e+2, -139496.02, -440387.78, -7041.4565, 0.031261466, -0.06862148, -139331.31, 102115.664, 0.0000026197797, 10.001752, 9.997788 
8.950952e+2, 2.8536114e+2, -48537.016, -324926.9, 42244.47, 0.099141486, 0.00028906978, -42224.39, 101238.37, 0.000013171274, 10.001616, 9.997965 
8.951147e+2, 2.953606e+2, 91533.586, -202264.83, 40563.76, 0.1504672, 0.112403914, 97031.21, 142501.72, 0.000055655084, 10.001865, 9.99802 
8.9513385e+2, 3.0535862e+2, 218077.31, -67778.4, 20743.188, 0.17682604, 0.09657669, 219574.7, 219574.7, 0.00017580122, 10.002243, 9.998423 
8.951512e+2, 3.1535655e+2, 305412.66, 83210.56, 80708.98, 0.03047428, 0.024433633, 331633.78, 331633.78, 0.00038747952, 10.002315, 9.99942 
9.047943e+2, 1.253486e+2, -1974332.6, -1664274.3, 11999.214, -0.058303308, 0.08383593, -1663810.6, 47775.945, 0.0000010657902, 9.99736, 10.001613 
9.048138e+2, 1.3534908e+2, -1700193.3, -1510367.8, -48889.133, -0.0035825835, -0.03240437, -1498516.4, 115059.98, 0.000000007369457, 9.998767, 10.001312 
9.04833e+2, 1.453502e+2, -1619385.5, -1519475.8, -38605.582, 0.043865494, 0.0039020493, -1506296.9, 9268.671, 0.0, 9.999059, 10.000421 
9.048517e+2, 1.553521e+2, -1592148.1, -1459306.8, -51809.934, 0.0071880785, 0.11595684, -1441489.8, -23937.658, 0.0, 9.998592, 10.000389 
9.0487087e+2, 1.6535273e+2, -1485604.6, -1385927.6, -20573.887, 0.014973294, 0.1623677, -1381848.1, -62300.754, 0.0, 9.998783, 10.000138 
9.0489066e+2, 1.7535198e+2, -1278184.1, -1231809.1, -23099.227, 0.0747071, 0.04825337, -1222266.9, -713.9462, 0.0, 9.999521, 10.000161 
9.049087e+2, 1.8535157e+2, -1157856.8, -1157255.5, -71118.33, 0.047286075, 0.011245665, -1086437.1, 37117.855, 0.0, 9.999807, 9.999856 
9.0492505e+2, 1.9535117e+2, -1070090.9, -1071071.1, -84361.01, -0.06303148, -0.040399373, -986218.6, 39338.453, 0.0, 9.99976, 9.999804 
9.049438e+2, 2.0535073e+2, -966938.2, -1040579.9, -1821.1748, -0.034022115, -0.02484907, -966893.2, -39330.832, 0.0, 10.000119, 9.999161 
9.049646e+2, 2.1534991e+2, -763483.06, -890033.2, -8706.66, 0.11151728, -0.04727842, -762886.8, 66686.86, 0.0, 10.0008335, 9.999181 
9.04984e+2, 2.2534983e+2, -606396.8, -686783.06, -24775.186, 0.11636028, -0.0021123013, -599374.5, 132199.94, 0.0, 10.000918, 9.999859 
9.05002e+2, 2.3535009e+2, -567983.5, -625967.56, -96735.52, -0.008766072, 0.011535915, -495988.88, 137580.06, 0.0, 10.000542, 9.999786 
9.0502113e+2, 2.4534932e+2, -591108.0, -767641.0, -69542.94, -0.060385887, 0.048370805, -567003.7, -31427.512, 0.0, 10.000481, 9.998168 
9.0504116e+2, 2.5534743e+2, -460104.6, -654459.6, -53705.695, -0.049136575, 0.013687696, -446251.6, -8654.388, 0.0, 10.000709, 9.998163 
9.0506023e+2, 2.653457e+2, -257351.97, -474408.7, -106948.73, -0.009992391, 0.015387571, -213510.92, 126103.64, 0.0000002007212, 10.001315, 9.998431 
9.050784e+2, 2.753437e+2, -20886.08, -316432.3, -112887.25, 0.06010268, -0.052328244, 17298.934, 258931.39, 0.0000025589381, 10.002291, 9.998372 
9.050972e+2, 2.8534234e+2, 23700.375, -315426.06, -51910.75, 0.11294997, 0.01582747, 31468.518, 175115.75, 0.000014749117, 10.002209, 9.997761 
9.0511626e+2, 2.9534155e+2, -31988.947, -277738.0, -64165.95, 0.16778633, 0.12720817, -16243.784, 29415.992, 0.00006245814, 10.001098, 9.997875 
9.0513575e+2, 3.0534008e+2, 128042.875, -94435.69, -27488.262, 0.18866938, 0.16084512, 131388.86, 131388.86, 0.00018874744, 10.001536, 9.998589 
9.0515447e+2, 3.1533808e+2, 400263.6, 117427.586, -62881.92, 0.11356081, 0.08171072, 413613.78, 413613.78, 0.0004049675, 10.002978, 9.999357 
9.1479015e+2, 1.2532794e+2, -1990885.0, -1694277.6, 22520.412, -0.2692358, -0.023232637, -1692577.4, 19206.424, 0.000002613721, 9.997359, 10.001401 
9.1481376e+2, 1.3532892e+2, -1720599.4, -1551299.4, 12753.496, 0.08005375, -0.06089209, -1550344.0, 63426.7, 0.00000007607973, 9.998766, 10.001029 
9.148332e+2, 1.4532945e+2, -1630934.8, -1537522.5, -74456.85, 0.11704263, -0.06232707, -1496335.1, 19430.85, 0.0, 9.999037, 10.000308 
9.148488e+2, 1.5532997e+2, -1598972.9, -1468557.6, -53775.254, -0.16566662, -0.07785679, -1449244.1, -31479.436, 0.0, 9.998578, 10.00033 
9.1486794e+2, 1.6533081e+2, -1460160.9, -1328373.5, -9442.146, -0.18625072, -0.029127138, -1327700.4, -7942.2456, 0.0, 9.998759, 10.000544 
9.1489017e+2, 1.7533162e+2, -1257784.5, -1181432.6, 17203.008, 0.047062445, -0.028613849, -1177735.6, 44014.7, 0.0, 9.999481, 10.000527 
9.149093e+2, 1.8533242e+2, -1176553.6, -1179816.4, -84640.16, 0.10066389, 0.043002788, -1093529.1, 30214.512, 0.0, 9.999736, 9.999738 
9.149256e+2, 1.9533293e+2, -1096432.8, -1097130.8, -69890.23, -0.013119695, 0.09875442, -1026890.6, -1150.0172, 0.0, 9.999639, 9.999684 
9.14944e+2, 2.0533298e+2, -974077.7, -1019595.94, 13145.263, -0.059617102, 0.15761612, -970554.2, -42813.105, 0.0, 9.999969, 9.999374 
9.1496414e+2, 2.1533224e+2, -782011.7, -883424.94, 29247.28, -0.041446064, 0.11962758, -774181.44, 55566.76, 0.0, 10.000645, 9.999314 
9.149835e+2, 2.253309e+2, -736671.0, -927472.3, -54580.99, -0.043517616, 0.114056505, -722160.94, 9601.047, 0.0, 10.00078, 9.998278 
9.150022e+2, 2.353288e+2, -698501.94, -857502.2, -95568.54, -0.061861716, 0.050901264, -653689.5, -19905.521, 0.0, 10.00037, 9.998279 
9.150221e+2, 2.453273e+2, -546504.3, -644288.94, -72636.04, -0.034447134, 0.03761795, -507838.38, 27960.443, 0.0, 10.000345, 9.999083 
9.15043e+2, 2.5532597e+2, -416485.5, -537869.0, -28488.938, 0.03444519, -0.03122056, -410131.7, 27679.463, 0.0, 10.000589, 9.999027 
9.1506237e+2, 2.6532534e+2, -255556.53, -451453.84, -81715.85, 0.04728555, 0.032451645, -225945.72, 113871.42, 0.00000011562638, 10.001239, 9.998623 
9.150806e+2, 2.75325e+2, -23567.479, -295623.16, -61815.54, 0.01959706, 0.11427039, -10180.68, 231640.28, 0.0000025826089, 10.002178, 9.998571 
9.150986e+2, 2.8532323e+2, 17062.71, -308820.3, -107520.77, 0.011587042, 0.121914044, 49340.7, 193180.36, 0.000017159802, 10.002129, 9.997842 
9.151162e+2, 2.9531997e+2, -38497.51, -284063.72, -83688.78, 0.014039125, -0.018894823, -12688.884, 33184.348, 0.00007135739, 10.001066, 9.9978485 
9.15136e+2, 3.0531874e+2, 73533.01, -190021.36, 22296.836, 0.034933507, 0.07744274, 75406.02, 75406.02, 0.00020564985, 10.001473, 9.9979515 
9.151574e+2, 3.1531847e+2, 348716.8, 56524.684, 43063.582, 0.04267432, 0.22060226, 354931.38, 354931.38, 0.00042848263, 10.002801, 9.999007 
9.247886e+2, 1.2530717e+2, -1843599.5, -1637210.4, -6259.525, -0.19878928, -0.057632744, -1637020.8, 74965.51, 0.0000053718704, 9.998427, 10.001285 
9.248121e+2, 1.353082e+2, -1940990.6, -1661858.0, -42073.977, 0.119468495, -0.0846528, -1655654.0, -41680.473, 0.00000033393198, 9.997274, 10.000999 
9.2483175e+2, 1.4530861e+2, -1823628.6, -1610531.8, -51681.805, 0.15054236, -0.105197966, -1598659.0, -82689.49, 0.0, 9.997627, 10.00049 
9.248482e+2, 1.5530924e+2, -1437817.9, -1375986.3, -43496.16, -0.1288024, -0.12600254, -1353538.3, 64427.28, 0.0, 9.999615, 10.000468 
9.248673e+2, 1.6531011e+2, -1299813.8, -1277431.3, -17463.043, -0.17487378, -0.07103267, -1267881.1, 52078.11, 0.0, 9.999971, 10.000304 
9.2488873e+2, 1.7531092e+2, -1355851.8, -1254260.8, -69207.66, -0.0063008456, -0.044045776, -1219208.3, 2745.4495, 0.0, 9.998923, 10.000295 
9.249084e+2, 1.8531194e+2, -1248612.0, -1186462.6, -128375.734, 0.07366505, 0.050151777, -1085454.1, 38491.74, 0.0, 9.999132, 9.999984 
9.249263e+2, 1.9531284e+2, -969466.8, -1006046.8, -117307.27, 0.0665633, 0.11690166, -869032.25, 156906.63, 0.0, 10.000395, 9.999941 
9.2494494e+2, 2.053129e+2, -856432.25, -982231.7, -20512.203, 0.0125592705, 0.17290519, -853172.1, 74766.89, 0.0, 10.0008545, 9.999212 
9.249644e+2, 2.1531188e+2, -786682.3, -902850.1, -52318.133, -0.072243184, 0.12731792, -766593.75, 63354.82, 0.0, 10.000676, 9.999173 
9.2498386e+2, 2.2531037e+2, -744260.9, -944478.06, -73281.17, -0.07322243, 0.116198115, -720305.56, 11658.995, 0.0, 10.000776, 9.998161 
9.2500347e+2, 2.3530817e+2, -598494.3, -823288.7, -34938.035, -0.0021476685, 0.05373872, -593189.3, 40798.906, 0.0, 10.001101, 9.998165 
9.250236e+2, 2.4530685e+2, -419021.9, -546659.8, 43627.07, 0.05071044, 0.048239417, -405535.1, 130466.016, 0.0, 10.001072, 9.999406 
9.2504406e+2, 2.55306e+2, -359016.84, -469634.56, 15192.774, 0.08523345, -0.0013448285, -356968.16, 81039.28, 0.0, 10.000827, 9.999378 
9.250636e+2, 2.653057e+2, -324878.56, -473633.72, -17690.443, 0.081029445, 0.06674727, -322803.7, 17207.002, 0.00000007319143, 10.000683, 9.9987545 
9.250823e+2, 2.753054e+2, -247260.73, -388146.28, -23200.4, 0.064951174, 0.13625172, -243538.53, -1523.5485, 0.0000027897247, 10.000553, 9.998728 
9.251006e+2, 2.853036e+2, -77372.96, -347428.7, -39613.734, 0.045917384, 0.13037762, -71682.055, 72351.54, 0.000020180585, 10.0014515, 9.997894 
9.251184e+2, 2.9530025e+2, 289591.56, -122351.54, -51306.492, 0.025558349, -0.022921026, 295885.5, 341951.8, 0.00008285034, 10.003303, 9.997874 
9.25138e+2, 3.0529878e+2, 305933.2, -159745.78, 59602.867, 0.010883004, 0.08054306, 313440.8, 313440.8, 0.0002292469, 10.003383, 9.997255 
9.2515993e+2, 3.1529763e+2, 138906.53, -89960.6, 28229.902, 0.09688204, 0.21309522, 142337.16, 142337.16, 0.0004645645, 10.001518, 9.998637 
9.347889e+2, 1.2528598e+2, -1847337.6, -1618807.3, -95654.125, -0.07961779, -0.049757034, -1584054.9, 128142.14, 0.000009857008, 9.998349, 10.001436 
9.348082e+2, 1.3528706e+2, -1918837.1, -1612021.3, -74736.37, -0.022090135, -0.10437978, -1594784.8, 19399.094, 0.0000009955157, 9.99728, 10.001328 
9.3482816e+2, 1.4528793e+2, -1796513.3, -1555432.4, 8313.379, -0.0042245057, -0.11224557, -1555146.0, -38971.91, 0.00000000002439963, 9.997629, 10.00087 
9.3484944e+2, 1.5529005e+2, -1414449.0, -1320857.6, 43856.043, 0.0020367338, -0.022687497, -1303519.1, 114634.25, 0.0, 9.999588, 10.00086 
9.348687e+2, 1.6529074e+2, -1368363.9, -1410731.8, -74957.03, -0.061180416, 0.04002599, -1311654.9, 8494.824, 0.0, 9.999929, 9.999413 
9.3488604e+2, 1.7528999e+2, -1419491.9, -1381041.4, -93640.83, -0.19809863, 0.00019802048, -1304672.6, -82509.75, 0.0, 9.998897, 9.99944 
9.3490547e+2, 1.852902e+2, -1223889.6, -1114815.9, -91700.02, -0.15765452, 0.030525208, -1062660.9, 61500.758, 0.0, 9.999049, 10.000517 
9.3492675e+2, 1.9529086e+2, -950757.1, -941556.25, -58213.383, 0.04519046, 0.019511024, -887761.8, 138390.08, 0.0, 10.000286, 10.000439 
9.3494654e+2, 2.0529044e+2, -902702.1, -1050853.0, -41631.51, 0.062040523, 0.024990821, -891804.9, 36351.29, 0.0, 10.000733, 9.998798 
9.349651e+2, 2.1528883e+2, -838502.25, -973887.0, -43796.7, -0.0874871, -0.03614541, -825569.5, 4605.672, 0.0, 10.000511, 9.99877 
9.349848e+2, 2.2528826e+2, -679989.3, -767171.2, -72587.984, -0.08349065, -0.0011448123, -638909.2, 93272.82, 0.0, 10.00059, 9.999468 
9.350054e+2, 2.3528823e+2, -534859.0, -652559.56, -10979.566, 0.058566615, 0.023900768, -533843.5, 100337.76, 0.0, 10.000933, 9.999421 
9.3502516e+2, 2.4528806e+2, -456897.5, -597236.8, 19984.213, 0.07547911, 0.0850833, -454107.22, 82075.23, 0.0, 10.00095, 9.999118 
9.3504417e+2, 2.5528744e+2, -396013.6, -523452.0, 20467.549, -0.010333121, 0.08769134, -392807.03, 45381.074, 0.0, 10.000714, 9.999071 
9.3506354e+2, 2.6528656e+2, -327207.88, -448410.94, -32167.545, -0.008892478, 0.10336676, -319199.66, 20997.389, 0.00000003612581, 10.000566, 9.998977 
9.3508327e+2, 2.7528498e+2, -252106.95, -370525.97, -9544.186, 0.072107084, 0.024172826, -251342.66, -9129.421, 0.0000027030533, 10.000444, 9.998897 
9.351028e+2, 2.852836e+2, -83932.22, -350396.63, 19212.715, 0.091641374, 0.0533481, -82554.06, 61673.234, 0.000022488803, 10.001397, 9.997901 
9.351224e+2, 2.952823e+2, 279629.66, -133477.4, 33421.793, 0.05656508, 0.10167178, 282316.13, 328556.03, 0.00009525127, 10.003249, 9.997827 
9.351415e+2, 3.0528003e+2, 242064.17, -275105.66, -16798.854, -0.006711229, 0.16607708, 242609.27, 242609.27, 0.00025879213, 10.003322, 9.99649 
9.351613e+2, 3.1527597e+2, 99309.48, -144808.3, 1884.9119, 0.029822566, 0.079803705, 99324.03, 99324.03, 0.0005142612, 10.001413, 9.998306 
9.4478834e+2, 1.2526649e+2, -2012928.1, -1769601.1, 74917.836, 0.09064288, -0.026434679, -1748384.6, -35997.207, 0.000016753027, 9.997484, 10.000835 
9.448059e+2, 1.352673e+2, -1610091.1, -1536290.8, -20740.785, -0.07912311, -0.045562707, -1530861.3, 83519.305, 0.000002343361, 9.999692, 10.000697 
9.448261e+2, 1.4526778e+2, -1485625.6, -1450201.8, 25116.19, -0.0810187, -0.042252164, -1437180.4, 79195.945, 0.0000000053592455, 9.999949, 10.000476 
9.44849e+2, 1.5526947e+2, -1572463.4, -1448446.0, -36535.14, 0.056032345, 0.04492702, -1438483.1, -20123.314, 0.0, 9.998708, 10.000421 
9.448686e+2, 1.6527e+2, -1562495.8, -1462183.6, -126495.984, 0.027258595, 0.09575264, -1376263.0, -55906.746, 0.0, 9.998414, 9.999787 
9.4488513e+2, 1.7526938e+2, -1382966.8, -1322804.1, -76053.38, -0.17043072, 0.030204507, -1271099.1, -48733.688, 0.0, 9.998977, 9.999796 
9.449047e+2, 1.8526943e+2, -1164485.4, -1099505.9, 14191.016, -0.15392691, 0.030481236, -1096541.9, 27822.674, 0.0, 9.999528, 10.000376 
9.44927e+2, 1.9526964e+2, -984053.06, -970506.44, -30941.248, 0.062042046, -0.010404812, -945605.8, 80753.195, 0.0, 10.000127, 10.000302 
9.449472e+2, 2.0526916e+2, -980256.25, -1076632.5, -38429.406, 0.088995054, -0.01095673, -966809.0, -38444.977, 0.0, 10.000137, 9.998913 
9.449655e+2, 2.152679e+2, -974708.2, -1020383.75, -24636.672, -0.047999408, -0.054716483, -963952.4, -133572.3, 0.0, 9.999496, 9.998932 
9.449853e+2, 2.2526777e+2, -758411.94, -764404.9, 6171.698, -0.048393313, 0.0001145245, -754547.75, -22165.23, 0.0, 9.999897, 9.999815 
9.4500667e+2, 2.3526834e+2, -457355.25, -575622.4, -30977.225, 0.078109525, 0.05065583, -449732.78, 184642.98, 0.0, 10.001313, 9.999759 
9.450265e+2, 2.452682e+2, -383737.88, -593003.25, -58745.863, 0.09247576, 0.11449245, -368374.44, 168002.53, 0.0, 10.001586, 9.9988365 
9.450452e+2, 2.5526714e+2, -402245.72, -550890.8, -81124.35, 0.020251982, 0.09918767, -366545.53, 71842.1, 0.0, 10.000783, 9.998837 
9.450645e+2, 2.65266e+2, -287713.66, -435804.8, -87498.2, 0.02462013, 0.10319293, -247135.13, 93264.16, 0.000000027783642, 10.000858, 9.998926 
9.450845e+2, 2.7526438e+2, -74479.37, -288841.72, -112043.26, 0.10630276, 0.027813476, -26607.336, 215808.28, 0.000002329391, 10.001679, 9.998868 
9.451047e+2, 2.8526315e+2, 11899.779, -298931.47, -42545.484, 0.12165081, 0.07411987, 17618.057, 162046.1, 0.000023981273, 10.00204, 9.9979515 
9.4512516e+2, 2.9526216e+2, 85813.65, -219879.11, -54813.43, 0.089400396, 0.14659226, 95345.0, 141783.27, 0.00010679835, 10.001897, 9.99789 
9.451442e+2, 3.0525956e+2, 75997.99, -308923.25, -88677.29, 0.00758931, 0.15820797, 95444.78, 95444.78, 0.00028981623, 10.002002, 9.996888 
9.4516355e+2, 3.1525603e+2, 233453.6, -22625.87, -47415.984, 0.09409472, 0.08717972, 241951.2, 241951.2, 0.00057081727, 10.002102, 9.99881 
9.547858e+2, 1.252491e+2, -2138897.5, -2007387.5, 122101.234, 0.033544287, 0.023258284, -1934461.5, -221907.88, 0.00002677623, 9.997416, 9.999217 
9.54805e+2, 1.3524926e+2, -1728629.1, -1771286.6, 73738.05, -0.16809218, 0.098048456, -1673197.1, -58636.48, 0.0000047533053, 9.999668, 9.999079 
9.548252e+2, 1.4524823e+2, -1579030.5, -1646017.5, -42455.78, -0.20769073, 0.097648814, -1558447.1, -41871.33, 0.000000046136613, 9.999946, 9.999141 
9.548464e+2, 1.5524752e+2, -1654310.6, -1627390.3, -71713.51, -0.10853803, 0.078999, -1567884.6, -149299.75, 0.0, 9.998741, 9.999178 
9.548666e+2, 1.6524804e+2, -1448447.6, -1218485.3, -118363.88, -0.048057906, 0.10056006, -1168449.3, 152128.69, 0.0, 9.998386, 10.001472 
9.548858e+2, 1.7524925e+2, -1274076.4, -1088074.6, -40013.516, -0.028279146, 0.04952108, -1079832.0, 142727.7, 0.0, 9.998939, 10.001426 
9.5490587e+2, 1.8524969e+2, -1229411.4, -1226173.1, 24380.977, -0.015907114, 0.053450026, -1203357.6, -78804.1, 0.0, 9.999481, 9.999535 
9.5492667e+2, 1.9524911e+2, -1051712.5, -1092784.4, 3610.5774, -0.009649652, 0.018383306, -1051397.5, -24836.498, 0.0, 10.000038, 9.99951 
9.549464e+2, 2.0524904e+2, -951354.1, -981968.2, -77786.58, -0.021877522, 0.05953685, -887382.8, 41180.117, 0.0, 9.999991, 9.999634 
9.5496505e+2, 2.152491e+2, -956872.94, -938074.25, -34773.73, -0.057414394, 0.07809344, -911451.94, -80889.016, 0.0, 9.9993, 9.999596 
9.5498514e+2, 2.2524898e+2, -825371.75, -859629.7, 46452.344, -0.070159525, 0.13109383, -792990.9, -60425.707, 0.0, 9.999711, 9.9992485 
9.550068e+2, 2.3524837e+2, -525175.3, -675906.4, 35922.293, -0.057239473, 0.12279935, -517052.06, 117520.68, 0.0, 10.001134, 9.999161 
9.550272e+2, 2.4524717e+2, -424758.28, -636672.9, -99947.586, -0.01709673, 0.12204824, -385056.8, 151528.58, 0.0, 10.001418, 9.99861 
9.5504653e+2, 2.5524512e+2, -439276.84, -600756.9, -95197.51, 0.050204482, 0.031556852, -395190.94, 43414.844, 0.0, 10.000667, 9.9985485 
9.550661e+2, 2.6524407e+2, -327291.03, -491395.75, -68346.875, 0.072497584, 0.075922705, -302554.4, 38062.465, 0.000000030362223, 10.0007515, 9.998592 
9.550859e+2, 2.7524352e+2, -110441.27, -341543.63, -63653.66, 0.043637913, 0.13876659, -94068.75, 148554.23, 0.000002140531, 10.001588, 9.998548 
9.55106e+2, 2.8524217e+2, 7362.1353, -287745.56, -59394.6, 0.01995129, 0.17908369, 18867.574, 163504.78, 0.000025889522, 10.001955, 9.998067 
9.551265e+2, 2.9523984e+2, 81976.2, -207095.9, -39596.094, 0.00096591545, 0.11032334, 87301.83, 133962.16, 0.00011778403, 10.001806, 9.998021 
9.551458e+2, 3.0523756e+2, 166085.4, -102188.016, -84942.836, -0.055106927, 0.07072008, 190718.8, 190718.8, 0.00031950467, 10.001913, 9.998353 
9.5516574e+2, 3.1523746e+2, 313598.5, 158967.22, -14827.146, 0.041019082, 0.19489346, 315007.38, 315007.38, 0.00062882464, 10.002029, 10.000096 
9.647841e+2, 1.2522884e+2, -1942824.6, -1944855.1, 794.9169, 0.06231124, 0.024419624, -1942550.5, -229797.28, 0.000040530904, 9.9988575, 9.998966 
9.6480465e+2, 1.3522927e+2, -1860623.9, -1854399.6, 23636.377, -0.11245345, 0.14539343, -1833671.4, -218913.2, 0.000008656152, 9.998822, 9.998927 
9.6482533e+2, 1.4522812e+2, -1723249.0, -1700363.6, 7062.2573, -0.12880868, 0.13433744, -1698359.8, -181585.31, 0.00000019058375, 9.998931, 9.999234 
9.6484554e+2, 1.5522689e+2, -1532411.3, -1558663.9, 50116.406, -0.10209909, 0.056153085, -1493730.6, -74943.25, 0.0, 9.999578, 9.9992285 
9.648657e+2, 1.6522712e+2, -1254603.3, -1163013.9, 20218.953, -0.044127718, 0.06523902, -1158749.0, 162033.42, 0.0, 9.9999, 10.001114 
9.6488595e+2, 1.7522827e+2, -1155391.3, -1075741.3, -87447.73, 0.0451502, 0.04665455, -1019477.0, 203287.75, 0.0, 9.99995, 10.0010195 
9.6490616e+2, 1.8522847e+2, -1201195.4, -1260626.3, -61128.85, 0.051316157, 0.067068286, -1162942.1, -38179.94, 0.0, 9.9998665, 9.999127 
9.649263e+2, 1.9522749e+2, -1137376.9, -1180494.4, -74433.6, -0.021933686, 0.035656866, -1081442.8, -54666.973, 0.0, 9.999638, 9.999115 
9.649459e+2, 2.0522754e+2, -945337.0, -901043.0, -126732.695, -0.048458505, 0.073943764, -794536.7, 134238.94, 0.0, 9.999725, 10.000304 
9.64965e+2, 2.1522821e+2, -787919.3, -782394.9, -118154.625, -0.028132804, 0.08560154, -666970.2, 163795.36, 0.0, 10.000159, 10.000238 
9.6498543e+2, 2.2522812e+2, -768389.94, -867299.5, 27630.58, -0.03063827, 0.12588918, -761194.7, -28428.08, 0.0, 10.000239, 9.998951 
9.650074e+2, 2.3522702e+2, -709557.6, -788494.25, 13520.981, -0.03912138, 0.09820207, -707305.9, -72525.195, 0.0, 9.9999695, 9.998946 
9.650282e+2, 2.4522571e+2, -566781.56, -694825.9, -89044.805, 0.0006776374, 0.08819988, -521132.3, 15663.005, 0.0, 10.000379, 9.998726 
9.650479e+2, 2.5522396e+2, -325668.84, -534090.56, -83068.92, 0.094995126, 0.019311514, -296611.75, 142200.66, 0.0, 10.001393, 9.998666 
9.650678e+2, 2.65223e+2, -163531.98, -422990.0, 6496.95, 0.12380905, 0.07129884, -163369.4, 177452.78, 0.000000012060779, 10.001911, 9.998502 
9.6508795e+2, 2.752223e+2, -71659.305, -334066.66, -2229.6023, 0.08961584, 0.12528422, -71640.36, 171189.05, 0.0000023356135, 10.001896, 9.998447 
9.6510804e+2, 2.8522086e+2, -28937.998, -264101.25, 17725.682, 0.055123374, 0.14549662, -27609.412, 117233.93, 0.000028869204, 10.00153, 9.9984255 
9.65128e+2, 2.9521865e+2, -39102.008, -225900.77, 20083.092, 0.028255684, 0.05354348, -36967.234, 9897.015, 0.00012892728, 10.000815, 9.99836 
9.651474e+2, 3.0521628e+2, 115885.375, -93231.43, 17295.404, -0.043848895, -0.028512724, 117306.164, 117306.164, 0.00034703137, 10.001406, 9.99866 
9.6516836e+2, 3.1521654e+2, 413940.7, 208050.22, -60514.477, 0.07529738, 0.095389485, 430409.53, 430409.53, 0.0006841425, 10.002717, 10.0000925 
9.7478217e+2, 1.252052e+2, -1841614.3, -1724376.4, -54761.094, -0.08165704, -0.04522086, -1702777.1, 10214.476, 0.000058506626, 9.998829, 10.000484 
9.748045e+2, 1.3520738e+2, -1746925.5, -1614111.6, 27055.912, -0.032070212, 0.09015128, -1608811.5, 6161.418, 0.00001444443, 9.998816, 10.000573 
9.7482604e+2, 1.452077e+2, -1622044.0, -1491072.5, 18187.355, 0.021597974, 0.07000842, -1488593.8, 28375.27, 0.0000005546723, 9.998928, 10.000677 
9.748461e+2, 1.5520771e+2, -1439065.5, -1363209.0, 94820.02, -0.028495997, -0.029968096, -1299012.9, 119952.32, 0.0, 9.99957, 10.000575 
9.748657e+2, 1.6520734e+2, -1434850.4, -1535693.6, 7824.6553, -0.06808619, -0.013218003, -1434246.9, -113278.43, 0.0, 9.999888, 9.998565 
9.74885e+2, 1.7520644e+2, -1331929.9, -1441040.6, -76062.63, -0.07022934, 0.016299345, -1292880.8, -69899.95, 0.0, 9.999941, 9.998519 
9.7490495e+2, 1.8520573e+2, -1209702.5, -1259835.5, -82382.89, -0.07613544, 0.06829591, -1148657.0, -23665.951, 0.0, 9.99979, 9.9991665 
9.749255e+2, 1.952049e+2, -1149828.5, -1179983.9, -68497.92, -0.090877004, 0.042369574, -1094768.5, -67765.73, 0.0, 9.999527, 9.999167 
9.749454e+2, 2.0520481e+2, -927438.7, -832356.7, -125095.055, -0.09280937, 0.04023492, -746073.5, 182927.14, 0.0, 9.999583, 10.00085 
9.749648e+2, 2.1520515e+2, -775696.75, -719015.7, -90027.02, -0.08376856, -0.033994697, -652973.75, 178015.03, 0.0, 9.9999895, 10.000762 
9.7498566e+2, 2.2520508e+2, -791242.56, -871092.44, 2373.3489, -0.051884234, -0.020323632, -791172.1, -58184.406, 0.0, 10.000054, 9.999008 
9.750081e+2, 2.3520431e+2, -736719.3, -797026.6, 16714.88, 0.005884938, -0.023730407, -732396.44, -97396.72, 0.0, 9.999766, 9.998981 
9.750291e+2, 2.4520388e+2, -554160.25, -636640.9, -63877.34, 0.034603585, 0.03208858, -519367.16, 17638.543, 0.0, 10.000238, 9.999195 
9.7504896e+2, 2.5520352e+2, -308957.28, -472425.0, -29742.975, 0.03502048, 0.050865628, -303713.75, 135295.06, 0.0, 10.001274, 9.999148 
9.750694e+2, 2.6520252e+2, -167622.2, -407456.53, -7495.206, 0.06435799, 0.068465926, -167388.19, 173629.47, 0.0000000034767167, 10.00181, 9.998655 
9.7509044e+2, 2.7520064e+2, -74568.02, -317005.4, 13203.746, 0.11774432, -0.013146648, -73851.04, 169184.06, 0.0000028342504, 10.001796, 9.998611 
9.7511035e+2, 2.8519937e+2, -2019.6646, -189471.11, -20123.021, 0.10343497, -0.009808121, 116.2165, 145161.56, 0.000032313746, 10.001453, 9.998973 
9.75129e+2, 2.9519856e+2, -11716.123, -156074.17, 16864.598, 0.016708719, -0.022366863, -9772.1, 37279.074, 0.0001399921, 10.000762, 9.998864 
9.7514856e+2, 3.051954e+2, 46392.38, -223345.39, 58631.656, -0.09024107, -0.15471505, 58585.684, 58585.684, 0.00037284024, 10.001345, 9.9978 
9.7517043e+2, 3.1519294e+2, 301226.47, 5155.505, 22270.63, -0.05806425, -0.21993822, 302892.3, 302892.3, 0.00073526404, 10.0025835, 9.998762 
9.847818e+2, 1.2518398e+2, -1809626.0, -1660027.3, 108557.67, 0.01648026, -0.04507776, -1602994.5, 110206.71, 0.00008108169, 9.998827, 10.0009365 
9.8480356e+2, 1.3518608e+2, -1674128.1, -1536015.0, 55614.57, -0.011261561, 0.04028357, -1516404.9, 98775.67, 0.000022462764, 9.99911, 10.00098 
9.8482525e+2, 1.4518674e+2, -1614169.5, -1478313.5, -19498.688, 0.054668613, 0.028964402, -1475570.4, 41602.246, 0.0000013019285, 9.998922, 10.000771 
9.848456e+2, 1.5518738e+2, -1581528.5, -1422218.5, -79913.13, 0.024881756, -0.02087764, -1389041.6, 30121.895, 0.0, 9.998535, 10.000665 
9.848656e+2, 1.6518703e+2, -1584867.6, -1643156.4, -69840.77, -0.010920275, 0.009516761, -1538334.1, -217166.4, 0.0, 9.999006, 9.998259 
9.848854e+2, 1.751856e+2, -1289046.6, -1450132.9, -9324.176, -0.04129435, 0.019690854, -1288508.8, -65322.895, 0.0, 10.000371, 9.998249 
9.849053e+2, 1.8518473e+2, -1088509.4, -1200716.1, 43276.016, -0.052936673, 0.06649662, -1073757.9, 51439.813, 0.0, 10.000622, 9.999169 
9.849253e+2, 1.9518405e+2, -1124269.0, -1170474.1, 25046.281, -0.058544993, 0.05616238, -1113297.5, -86090.59, 0.0, 9.999721, 9.999139 
9.8494536e+2, 2.0518373e+2, -945446.3, -894549.44, -3454.7266, -0.05153476, 0.05368722, -894316.0, 34891.215, 0.0, 9.999667, 10.000391 
9.849653e+2, 2.1518344e+2, -757134.06, -759542.8, -70625.33, -0.034750126, -0.038436048, -687702.8, 143499.48, 0.0, 10.000324, 10.000325 
9.8498625e+2, 2.2518304e+2, -751192.2, -826129.75, -20767.94, 0.0031824252, -0.048382442, -745821.56, -12618.198, 0.0, 10.000201, 9.999252 
9.850082e+2, 2.351823e+2, -786645.56, -792996.56, -14377.718, 0.0713536, -0.074220605, -775096.9, -139884.38, 0.0, 9.999296, 9.99924 
9.8502946e+2, 2.4518214e+2, -624196.06, -640677.56, 1465.0681, 0.087244734, -0.016461434, -624066.9, -86852.27, 0.0, 9.999643, 9.999449 
9.8505026e+2, 2.5518215e+2, -306597.34, -446127.75, -12265.155, 0.04963243, 0.017444875, -305527.4, 133686.8, 0.0, 10.001179, 9.999378 
9.8507094e+2, 2.6518124e+2, -197318.5, -388977.25, -32600.045, 0.0592984, 0.016034292, -191925.2, 149297.16, 0.00000001775074, 10.001467, 9.998958 
9.850916e+2, 2.7517918e+2, -224879.28, -358903.3, -34008.992, 0.12624265, -0.106704, -216743.3, 26497.555, 0.000003544514, 10.000626, 9.998901 
9.851117e+2, 2.8517833e+2, -75268.77, -225244.45, -29167.12, 0.12940107, -0.07682509, -69796.08, 75451.26, 0.00003520851, 10.000933, 9.998996 
9.85131e+2, 2.9517838e+2, 207218.17, -49905.22, -57059.03, 0.074951045, -0.0039431714, 219311.53, 266557.06, 0.00014922032, 10.002245, 9.998891 
9.851512e+2, 3.0517527e+2, 255750.98, -122214.25, 41587.52, -0.019209266, -0.1366926, 260272.77, 260272.77, 0.00039592202, 10.002805, 9.997782 
9.851736e+2, 3.151714e+2, 242369.7, -66299.89, 3171.7908, 0.028494313, -0.33535114, 242402.3, 242402.3, 0.0007798097, 10.002375, 9.998372 
9.947821e+2, 1.2516543e+2, -1871599.0, -1778543.8, 76810.695, 0.10549769, 0.031200109, -1735267.6, -21888.154, 0.000108580556, 9.998803, 10.000123 
9.948014e+2, 1.3516551e+2, -1739456.3, -1662200.8, 77321.77, -0.1639101, -0.003333143, -1614394.9, 984.4816, 0.000033028722, 9.9990835, 10.000118 
9.948224e+2, 1.4516525e+2, -1710843.0, -1679335.6, -54655.504, -0.16362737, 0.00845504, -1638208.8, -120824.04, 0.0000026281716, 9.998916, 9.999401 
9.948435e+2, 1.5516591e+2, -1668400.8, -1603878.0, -84900.7, -0.067202896, 0.097215705, -1545315.8, -125932.52, 0.00000000019976186, 9.998534, 9.999426 
9.9486494e+2, 1.651662e+2, -1444847.6, -1341125.8, -34246.71, -0.004199811, 0.14431466, -1330838.5, -9458.085, 0.0, 9.998962, 10.000347 
9.948867e+2, 1.7516585e+2, -1146448.3, -1152822.3, 55455.93, 0.031166947, 0.052134417, -1094087.9, 129291.586, 0.0, 10.0003605, 10.000296 
9.9490684e+2, 1.8516548e+2, -1104741.6, -1219257.5, -3972.5037, 0.015608259, 0.05427135, -1104604.0, 20777.727, 0.0, 10.000563, 9.99907 
9.949255e+2, 1.9516486e+2, -1145602.9, -1191235.4, 5864.282, -0.042534087, 0.06047923, -1144861.4, -117472.0, 0.0, 9.99962, 9.999043 
9.949453e+2, 2.0516415e+2, -1075433.3, -1121516.1, 6561.4106, -0.043168362, 0.10006587, -1074517.1, -145120.78, 0.0, 9.999491, 9.998915 
9.949663e+2, 2.1516307e+2, -883448.06, -977578.4, -34676.5, 0.007836632, 0.07454498, -872053.06, -40647.01, 0.0, 10.000139, 9.998913 
9.94987e+2, 2.2516212e+2, -746432.6, -767915.9, -68448.29, 0.036131572, 0.053096008, -687888.25, 45524.22, 0.0, 9.999999, 9.999749 
9.950074e+2, 2.3516099e+2, -780380.6, -735930.5, -33162.563, 0.04154621, -0.05841944, -718234.25, -82815.61, 0.0, 9.999108, 9.9997225 
9.9502885e+2, 2.4516043e+2, -646913.2, -652116.4, 45826.164, 0.0374977, -0.06747465, -603614.8, -66192.22, 0.0, 9.999488, 9.999443 
9.950513e+2, 2.5516003e+2, -328855.63, -455328.66, 59238.434, 0.024038613, -0.07697993, -305443.16, 133984.67, 0.0, 10.001015, 9.999394 
9.95072e+2, 2.651593e+2, -194525.42, -352556.53, -76192.79, 0.0040074103, -0.07351323, -163773.97, 177660.78, 0.000000028595345, 10.00134, 9.999269 
9.950911e+2, 2.7515796e+2, -219226.03, -324809.9, -46460.74, -0.01936503, -0.1557896, -201693.1, 41753.625, 0.000003781716, 10.000534, 9.99918 
9.9511164e+2, 2.8515762e+2, -114722.17, -291795.25, 8764.304, 0.0052811876, -0.06615738, -114289.44, 31161.02, 0.000036350866, 10.000867, 9.998569 
9.951336e+2, 2.9515818e+2, 172159.14, -104707.44, 11295.213, 0.07375578, 0.09931877, 172619.19, 220066.22, 0.00015456251, 10.002171, 9.998548 
9.95155e+2, 3.051558e+2, 290499.97, -37301.883, 20774.967, 0.051394496, 0.024570974, 291811.38, 291811.38, 0.00041193186, 10.002746, 9.998396 
9.9517673e+2, 3.151516e+2, 252114.14, -13276.617, 23058.365, 0.044011194, -0.26811966, 254102.66, 254102.66, 0.0008105773, 10.002233, 9.998807 
1.004781e+3, 1.2514481e+2, -1900271.8, -1794424.1, -20366.785, 0.13422956, 0.070382, -1790640.5, -77057.2, 0.00014134821, 9.99861, 10.000107 
1.0048009e+3, 1.3514481e+2, -1741050.4, -1664651.8, 8278.119, -0.1100042, 0.029808762, -1663765.0, -48182.508, 0.000046426092, 9.9990835, 10.000093 
1.00482225e+3, 1.4514439e+2, -1677771.5, -1687888.0, -22989.643, -0.071948536, 0.037566185, -1659290.3, -141700.38, 0.00000474816, 9.999279, 9.999152 
1.00484304e+3, 1.5514475e+2, -1527300.4, -1564792.8, -8362.928, -0.017987125, 0.1253833, -1525519.5, -105926.484, 0.000000004412824, 9.999641, 9.999159 
1.00486435e+3, 1.6514514e+2, -1330059.8, -1244257.0, 58732.57, 0.01538533, 0.17617267, -1214425.8, 107163.8, 0.0, 9.999556, 10.000737 
1.00488625e+3, 1.751453e+2, -1320480.9, -1190794.8, -6355.1567, 0.030816875, 0.09392532, -1190484.0, 33098.355, 0.0, 9.998964, 10.000712 
1.0049068e+3, 1.8514511e+2, -1314532.9, -1293085.4, -107819.36, 0.03611362, 0.08305766, -1195457.8, -69876.5, 0.0, 9.999011, 9.999307 
1.0049259e+3, 1.9514433e+2, -1113841.0, -1149395.5, -99806.29, 0.036675494, 0.05002056, -1030241.1, -2652.4624, 0.0, 9.999735, 9.999269 
1.00494586e+3, 2.0514353e+2, -1004930.75, -1116347.4, 3344.4724, 0.0413525, 0.079599954, -1004830.44, -75233.65, 0.0, 10.000092, 9.99866 
1.00496665e+3, 2.1514238e+2, -923928.0, -1030196.94, 25532.424, 0.045234673, 0.07468784, -918111.8, -86503.21, 0.0, 9.999989, 9.9986315 
1.0049871e+3, 2.251412e+2, -738324.06, -762721.0, 20919.893, 0.055241648, 0.045227475, -726305.94, 7310.9585, 0.0, 10.000055, 9.999759 
1.0050072e+3, 2.3513973e+2, -606700.94, -653499.2, -12613.056, 0.06699646, -0.103103764, -603517.94, 32106.887, 0.0, 10.000307, 9.999713 
1.0050288e+3, 2.4513897e+2, -581547.44, -628929.9, 96766.516, 0.06853007, -0.1230859, -505614.2, 32015.852, 0.0, 9.999968, 9.9993725 
1.0050517e+3, 2.5513873e+2, -618538.75, -593595.94, 76717.77, 0.073529854, -0.11398764, -528342.5, -88707.48, 0.0, 9.9990425, 9.999379 
1.0050728e+3, 2.651384e+2, -440942.38, -464855.6, -32547.422, 0.042019635, -0.0754708, -418224.84, -76585.9, 0.000000017098808, 9.999623, 9.999316 
1.0050919e+3, 2.7513754e+2, -68692.14, -241642.39, -48483.383, -0.02538718, -0.11737635, -56028.043, 187618.3, 0.000003428396, 10.00153, 9.99926 
1.005113e+3, 2.8513688e+2, 51220.457, -257572.73, 25461.676, -0.006128413, -0.04351966, 53305.83, 198959.83, 0.00003625069, 10.0022135, 9.998146 
1.0051358e+3, 2.9513627e+2, 68964.08, -202607.72, -7436.076, 0.1131081, 0.049381174, 69167.54, 116830.89, 0.00015744341, 10.001659, 9.99812 
1.0051578e+3, 3.0513462e+2, 169627.63, -52295.074, 4795.827, 0.12598546, 0.045029566, 169731.22, 169731.22, 0.00042211023, 10.001708, 9.998806 
1.0051798e+3, 3.15132e+2, 257578.84, 28589.902, -57166.35, 0.14976312, -0.12671036, 271056.94, 271056.94, 0.0008305699, 10.002073, 9.999188 
1.0147773e+3, 1.2512198e+2, -1843314.3, -1654485.3, -62030.125, -0.1620312, 0.06064793, -1635931.5, 77882.74, 0.0001798155, 9.998541, 10.001087 
1.0148016e+3, 1.3512406e+2, -1678590.6, -1530335.9, 35054.92, 0.027429324, 0.13300487, -1522465.0, 93324.68, 0.000062927356, 9.999073, 10.001014 
1.01482466e+3, 1.4512421e+2, -1621435.5, -1572301.8, -29856.64, 0.19349025, 0.11166473, -1558204.0, -40416.645, 0.000007860604, 9.999278, 9.999948 
1.0148437e+3, 1.5512393e+2, -1472679.9, -1455091.4, 19280.348, 0.06482361, 0.058641426, -1442694.3, -22902.162, 0.000000028517778, 9.999655, 9.999905 
1.0148634e+3, 1.6512392e+2, -1426698.5, -1441724.8, 22424.012, -0.061247606, 0.101199366, -1410562.5, -88768.69, 0.0, 9.999543, 9.999387 
1.0148836e+3, 1.7512394e+2, -1415973.4, -1386865.3, -17579.172, -0.16091752, 0.13885495, -1378597.3, -154802.55, 0.0, 9.998949, 9.999376 
1.0149045e+3, 1.8512361e+2, -1287421.3, -1215921.6, -95658.8, -0.11541426, 0.14951906, -1149550.6, -23753.654, 0.0, 9.998923, 9.999879 
1.0149261e+3, 1.9512255e+2, -1088875.6, -1072801.5, -60781.86, 0.06576582, 0.03220425, -1019527.6, 8276.48, 0.0, 9.999626, 9.999847 
1.0149466e+3, 2.051219e+2, -957684.75, -983871.94, -14587.39, 0.088311344, -0.0008360691, -951176.5, -21368.953, 0.0, 9.999948, 9.999638 
1.0149659e+3, 2.1512136e+2, -880364.4, -900685.6, 33376.715, -0.03988552, -0.04509131, -855636.0, -23826.055, 0.0, 9.999824, 9.999598 
1.0149862e+3, 2.2512035e+2, -808086.8, -859401.75, 16074.209, -0.057832226, -0.07716889, -803467.5, -69651.22, 0.0, 9.999851, 9.999191 
1.01500735e+3, 2.3511861e+2, -670527.44, -745409.1, 9593.677, 0.025606278, -0.19709651, -669317.9, -33488.41, 0.0, 10.000131, 9.999165 
1.015029e+3, 2.45118e+2, -617260.06, -660706.56, 46037.035, 0.07110547, -0.16861156, -588078.4, -50243.45, 0.0, 9.999792, 9.999238 
1.0150511e+3, 2.5511822e+2, -646219.4, -623734.1, 56853.94, 0.07741796, -0.09791764, -577021.9, -137185.8, 0.0, 9.998923, 9.999233 
1.0150728e+3, 2.651183e+2, -461635.22, -485127.38, 28627.504, 0.052660964, -0.006415562, -442437.72, -100601.086, 0.000000011022683, 9.999527, 9.999223 
1.01509385e+3, 2.7511793e+2, -90015.67, -259795.36, 40939.516, -0.012130423, 0.009737742, -80659.41, 163180.1, 0.0000031084232, 10.001416, 9.999189 
1.0151154e+3, 2.8511614e+2, 2461.772, -336978.1, -8466.822, -0.012526097, -0.0020576075, 2672.833, 148530.66, 0.000035475467, 10.002126, 9.997639 
1.0151371e+3, 2.9511276e+2, 14668.806, -286938.13, -8653.397, 0.045193713, -0.13765311, 14916.876, 62810.375, 0.00015874387, 10.001549, 9.997588 
1.0151593e+3, 3.051117e+2, 177889.33, -25086.557, 10870.462, 0.07175216, -0.06279789, 178469.84, 178469.84, 0.00042931808, 10.001662, 9.999016 
1.0151819e+3, 3.1511235e+2, 250069.3, 60545.805, 1946.317, 0.090910114, 0.07121812, 250089.28, 250089.28, 0.00084597495, 10.001883, 9.999495 
1.0247759e+3, 1.2510101e+2, -1782908.5, -1604057.1, 99014.89, -0.15072064, 0.0518323, -1560062.8, 153956.06, 0.00022439056, 9.998842, 10.001308 
1.0248007e+3, 1.3510285e+2, -1734967.9, -1542007.3, 100574.93, 0.058669586, 0.09148808, -1499118.4, 116877.44, 0.0000828242, 9.998609, 10.001175 
1.0248241e+3, 1.4510307e+2, -1704891.0, -1585490.9, 31737.771, 0.25278443, 0.055329576, -1577578.9, -59587.54, 0.000012107546, 9.998582, 10.000199 
1.0248436e+3, 1.5510301e+2, -1546559.5, -1463690.5, 10216.923, 0.12779409, -0.0047855754, -1462449.4, -42457.355, 0.00000009714164, 9.999026, 10.000148 
1.0248631e+3, 1.6510288e+2, -1476779.8, -1499427.3, 44224.727, -0.015339791, 0.031333577, -1442452.1, -120457.28, 0.0, 9.999367, 9.99906 
1.02488294e+3, 1.7510259e+2, -1321598.0, -1372392.0, 52871.66, -0.15700099, 0.07064298, -1288339.9, -64338.89, 0.0, 9.999761, 9.999069 
1.0249038e+3, 1.8510233e+2, -1160554.3, -1157950.4, 25787.096, -0.11255519, 0.10375047, -1133432.4, -7428.155, 0.0, 9.999782, 9.999871 
1.0249258e+3, 1.9510178e+2, -1130145.4, -1095049.0, -5820.415, 0.09362835, 0.036507156, -1094108.9, -66101.164, 0.0, 9.999336, 9.999845 
1.0249466e+3, 2.0510128e+2, -1048927.4, -1008301.75, 9702.469, 0.12658273, 0.012185665, -1006103.5, -76093.69, 0.0, 9.999247, 9.999811 
1.02496594e+3, 2.1510057e+2, -916051.3, -900790.7, -33872.51, -0.00012505593, -0.06168059, -873699.7, -41686.332, 0.0, 9.999519, 9.999744 
1.0249864e+3, 2.2509979e+2, -794290.9, -866529.75, -23933.117, -0.020981235, -0.07167581, -787081.25, -53062.97, 0.0, 10.00001, 9.999062 
1.025008e+3, 2.3509866e+2, -612990.94, -732981.7, -25277.621, 0.053766225, -0.113789044, -607883.25, 28143.914, 0.0, 10.000606, 9.999018 
1.0250296e+3, 2.4509801e+2, -454030.78, -599757.25, 19686.117, 0.09861462, -0.077181146, -451418.25, 86615.6, 0.0, 10.001, 9.999064 
1.0250514e+3, 2.5509742e+2, -341296.06, -500082.2, -4228.4893, 0.11240234, -0.06582965, -341183.56, 98858.19, 0.0, 10.001119, 9.999023 
1.0250734e+3, 2.6509705e+2, -235894.6, -416105.9, 36357.074, 0.08108858, 0.009823255, -228836.14, 113210.54, 0.00000001218603, 10.001245, 9.998871 
1.0250954e+3, 2.7509657e+2, -122647.58, -310644.06, -1362.9637, 0.01636144, 0.046464056, -122637.7, 121413.85, 0.0000027111198, 10.001351, 9.998868 
1.0251174e+3, 2.850945e+2, -36501.73, -349672.75, -42295.188, 0.0034644431, 0.02148679, -30890.123, 115181.805, 0.00003356842, 10.001833, 9.997696 
1.0251392e+3, 2.9509065e+2, 168106.94, -207981.34, -34604.57, 0.043914314, -0.16381393, 171264.45, 219374.86, 0.00015737157, 10.002583, 9.997638 
1.0251614e+3, 3.0508968e+2, 294794.9, -27849.662, 3076.2683, 0.07540246, -0.05313301, 294824.22, 294824.22, 0.00043278775, 10.00275, 9.998456 
1.0251843e+3, 3.1509027e+2, 251427.1, 13914.86, -111267.445, 0.14712341, 0.12736022, 295408.38, 295408.38, 0.00085734465, 10.002097, 9.999061 
1.0347761e+3, 1.25082e+2, -1817608.6, -1690100.9, 31528.033, -0.0748016, 0.036962945, -1682731.1, 31464.355, 0.00027553758, 9.9989, 10.000687 
1.03479736e+3, 1.3508141e+2, -1788108.4, -1651598.9, 100373.875, -0.14976898, -0.09712953, -1598471.4, 17727.234, 0.000106410545, 9.998601, 10.000429 
1.0348199e+3, 1.4508106e+2, -1727726.4, -1630767.1, 30726.807, -0.05129487, -0.1345612, -1621849.8, -103648.71, 0.000017580353, 9.998575, 9.999889 
1.03484206e+3, 1.550819e+2, -1564913.8, -1503950.0, 38931.14, 0.03892828, -0.07560094, -1484987.3, -64794.113, 0.00000023822265, 9.999029, 9.999872 
1.0348633e+3, 1.6508202e+2, -1433933.0, -1398968.8, 41513.293, 0.024983583, -0.04005464, -1371406.8, -49214.094, 0.0, 9.999324, 9.999766 
1.0348839e+3, 1.7508121e+2, -1278261.0, -1275509.0, 81839.23, -0.0577441, -0.12267221, -1195034.3, 29167.168, 0.0, 9.999729, 9.999749 
1.0349044e+3, 1.8508133e+2, -1211095.1, -1245706.4, -5540.1504, -0.062085878, -0.055553127, -1210229.9, -84027.6, 0.0, 9.999711, 9.999303 
1.0349245e+3, 1.9508204e+2, -1185387.6, -1186552.6, -12396.268, 0.0050776745, 0.05752066, -1173560.1, -145361.22, 0.0, 9.999234, 9.999268 
1.0349451e+3, 2.0508172e+2, -1126051.1, -1127428.0, 5427.913, 0.04178716, 0.11649671, -1121268.1, -191064.75, 0.0, 9.99907, 9.999076 
1.0349662e+3, 2.1508004e+2, -984114.9, -1012431.1, -8751.836, 0.059232548, 0.017209686, -981628.3, -149409.1, 0.0, 9.999382, 9.999046 
1.0349873e+3, 2.2507946e+2, -802354.6, -838105.0, -14744.192, 0.05610262, 0.048717234, -797058.4, -62834.66, 0.0, 9.999822, 9.999346 
1.0350084e+3, 2.3507978e+2, -616887.94, -701805.2, 10789.158, 0.029225538, 0.120268606, -615538.56, 20680.89, 0.0, 10.000437, 9.999312 
1.03503e+3, 2.4507882e+2, -503040.78, -658143.0, 13963.358, 0.028992448, 0.12990165, -501793.75, 36434.28, 0.0, 10.000816, 9.998753 
1.0350521e+3, 2.5507638e+2, -382055.1, -552369.06, 17412.28, 0.05722158, -0.017374463, -380293.16, 59958.5, 0.0, 10.00098, 9.998731 
1.0350742e+3, 2.6507476e+2, -293409.8, -509400.7, 27642.78, 0.023116728, -0.021007335, -289928.2, 52339.707, 0.00000000560088, 10.001137, 9.99828 
1.0350962e+3, 2.7507356e+2, -183819.72, -406799.9, 19947.322, -0.07118155, 0.0035481942, -182049.33, 62231.734, 0.0000022721786, 10.001227, 9.998263 
1.0351186e+3, 2.85072e+2, -6881.169, -268214.13, -25929.201, -0.08255786, 0.028099194, -4333.3384, 141962.66, 0.000031172072, 10.001747, 9.998297 
1.03514135e+3, 2.9507008e+2, 191329.33, -129988.0, 14737.629, -0.027732927, -0.024862727, 192003.88, 240316.8, 0.00015322318, 10.002458, 9.998233 
1.03516385e+3, 3.0506864e+2, 182660.08, -239441.78, -28695.51, 0.021581048, 0.07917856, 184601.94, 184601.94, 0.00043103905, 10.002665, 9.99704 
1.0351859e+3, 3.150662e+2, 136437.78, -168427.3, -84881.37, 0.042972196, 0.09572244, 158477.38, 158477.38, 0.0008619147, 10.001886, 9.997895 
1.0447758e+3, 1.2506089e+2, -2066081.8, -1835754.6, -93796.83, 0.087928444, 0.025841633, -1802390.5, -87990.875, 0.0003338259, 9.997291, 10.0004635 
1.04479626e+3, 1.3506001e+2, -1715854.9, -1647042.4, -15372.511, -0.1411486, -0.11126058, -1643764.4, -27356.828, 0.00013404706, 9.999212, 10.000159 
1.0448184e+3, 1.4505966e+2, -1540433.0, -1528000.1, -37938.86, -0.12280514, -0.14144409, -1495771.8, 22638.59, 0.000024406929, 9.999811, 9.999998 
1.044841e+3, 1.5506054e+2, -1501171.4, -1453832.0, -35476.97, 0.025277123, -0.08589572, -1434853.5, -14452.23, 0.0000004785213, 9.999405, 10.000029 
1.04486294e+3, 1.6506088e+2, -1442428.9, -1364564.0, -199.15553, 0.075219534, -0.054142628, -1364563.5, -42165.74, 0.0, 9.999085, 10.000131 
1.0448842e+3, 1.7506039e+2, -1376214.4, -1282394.6, -10298.254, 0.048865505, -0.140089, -1281277.5, -56875.004, 0.0, 9.9988785, 10.000116 
1.0449045e+3, 1.8506064e+2, -1286576.3, -1281543.3, -59531.957, 0.016373955, -0.07914676, -1224474.6, -98072.266, 0.0, 9.999207, 9.999294 
1.04492374e+3, 1.9506127e+2, -1061637.4, -1126021.8, -55069.504, -0.027300175, 0.030325873, -1030040.94, -1640.519, 0.0, 10.000093, 9.999261 
1.0449447e+3, 2.0506094e+2, -864562.1, -1028116.3, 42855.785, 0.0052381484, 0.10062268, -854013.1, 76392.516, 0.0, 10.000975, 9.998841 
1.04496725e+3, 2.1505935e+2, -656506.3, -877929.3, 38828.64, 0.118714035, 0.033264246, -649894.75, 182526.23, 0.0, 10.001742, 9.998827 
1.0449888e+3, 2.2505857e+2, -568593.5, -765212.6, 20282.523, 0.13118616, 0.06974505, -566523.06, 167905.47, 0.0, 10.001578, 9.99901 
1.0450089e+3, 2.3505825e+2, -636399.4, -753599.7, -29831.252, 0.041052524, 0.11411382, -629243.3, 7188.222, 0.0, 10.000461, 9.998959 
1.04503065e+3, 2.4505706e+2, -574893.6, -713379.44, 13981.101, 0.029886296, 0.12732509, -573496.25, -35053.22, 0.0, 10.000397, 9.998584 
1.0450537e+3, 2.550548e+2, -337624.34, -548962.9, -1684.9365, 0.1008635, 0.014641044, -337610.9, 102854.22, 0.0, 10.001359, 9.998573 
1.045076e+3, 2.6505312e+2, -215820.3, -478467.78, 32214.025, 0.07097981, 0.01568744, -211926.92, 130554.586, 0.0000000009945924, 10.001688, 9.998239 
1.04509756e+3, 2.7505153e+2, -174896.56, -412191.1, 37761.34, -0.0554133, 0.011667373, -169032.4, 75464.71, 0.0000020282196, 10.001299, 9.998209 
1.04512e+3, 2.850499e+2, -59922.13, -285706.06, 52042.063, -0.08552191, 0.024921414, -48504.11, 98007.945, 0.00002862313, 10.001335, 9.998381 
1.04514346e+3, 2.9504812e+2, 95010.66, -162904.88, 21790.336, -0.015383426, -0.023900237, 96838.69, 145365.45, 0.00014660136, 10.001733, 9.998356 
1.04516625e+3, 3.050468e+2, 113570.555, -283361.72, 13585.332, 0.03970153, 0.084376715, 114034.98, 114034.98, 0.00042212423, 10.002223, 9.996953 
1.0451884e+3, 3.1504393e+2, 229588.9, -125969.625, 3479.6523, 0.07860929, 0.07414316, 229622.95, 229622.95, 0.0008537748, 10.002477, 9.997929 
1.0547737e+3, 1.2503734e+2, -2053946.9, -1790384.4, -78152.945, 0.08451197, -0.012108496, -1768952.8, -54317.477, 0.00039971265, 9.997222, 10.000797 
1.0547969e+3, 1.350387e+2, -1699253.9, -1609534.4, 68166.08, -0.03015417, 0.05001168, -1572791.4, 43831.086, 0.00016604259, 9.999206, 10.000418 
1.05481885e+3, 1.450391e+2, -1500192.3, -1451778.6, -75447.016, -0.08820114, 0.056528464, -1396750.3, 121867.31, 0.000032768716, 9.999838, 10.00051 
1.0548402e+3, 1.5503907e+2, -1465811.8, -1385517.9, -40075.53, -0.025062582, -0.032316167, -1368939.0, 51676.61, 0.0000008393984, 9.9994135, 10.0005 
1.05486155e+3, 1.6503958e+2, -1447759.1, -1363263.5, -23715.012, 0.008482193, -0.006143208, -1357062.6, -34452.75, 0.0, 9.99904, 10.000156 
1.0548833e+3, 1.7504029e+2, -1377901.4, -1279647.5, -7892.4624, 0.042627275, 0.022005834, -1279017.6, -54414.086, 0.0, 9.998852, 10.000147 
1.0549038e+3, 1.8504034e+2, -1263373.8, -1213285.6, -43163.13, 0.0014110364, 0.038527284, -1188427.3, -61823.676, 0.0, 9.99912, 9.999805 
1.0549232e+3, 1.9503948e+2, -1036943.06, -1057869.1, -8910.489, -0.12085872, -0.056661356, -1033663.0, -5050.4746, 0.0, 10.000011, 9.999773 
1.05494484e+3, 2.0503901e+2, -867663.1, -1000799.44, 55907.563, -0.0944926, -0.037960682, -847300.44, 83315.79, 0.0, 10.000832, 9.999097 
1.0549689e+3, 2.150386e+2, -662631.4, -856992.3, 79821.8, 0.07759652, -0.014282154, -634051.94, 198566.3, 0.0, 10.001589, 9.999049 
1.05499014e+3, 2.250371e+2, -669431.3, -927256.4, -34177.39, 0.099020265, -0.008187944, -664977.7, 69654.88, 0.0, 10.001379, 9.997989 
1.0550089e+3, 2.350342e+2, -728722.56, -908299.3, -57523.664, -0.024808599, -0.124624096, -711876.44, -75214.09, 0.0, 10.000301, 9.997971 
1.05503075e+3, 2.4503286e+2, -603571.4, -735328.75, 36113.633, -0.01617391, -0.07374205, -594322.2, -55644.688, 0.0, 10.000238, 9.9985075 
1.05505556e+3, 2.550328e+2, -363070.47, -570028.8, 46062.76, 0.12547253, 0.04015649, -353281.3, 87399.875, 0.0, 10.001222, 9.998493 
1.0550783e+3, 2.6503214e+2, -200901.7, -417324.22, 5294.756, 0.112442225, 0.12210524, -200772.23, 141915.44, 0.000000000012280949, 10.001565, 9.998712 
1.055099e+3, 2.750306e+2, -155405.42, -347849.84, 41433.035, -0.05886621, 0.07098205, -146864.05, 97835.38, 0.0000016155456, 10.001199, 9.998694 
1.0551212e+3, 2.8502837e+2, -98996.65, -348234.88, 53815.195, -0.118731104, 0.021682817, -87873.37, 58845.582, 0.000025306648, 10.001259, 9.997988 
1.05514504e+3, 2.9502508e+2, 49568.863, -231839.89, 57924.45, -0.06054902, -0.1396182, 61025.465, 109775.12, 0.00013793015, 10.001629, 9.997934 
1.05516836e+3, 3.0502415e+2, 184475.48, -120654.6, 17215.117, -0.008205691, -0.024652151, 185443.67, 185443.67, 0.00040720604, 10.002149, 9.998108 
1.0551906e+3, 3.150236e+2, 285067.66, 33732.742, 60953.01, -0.0045728795, 0.07597721, 299069.72, 299069.72, 0.00083313056, 10.002287, 9.99912 
1.06477246e+3, 1.2501487e+2, -1618432.1, -1575256.3, 8495.66, 0.120606095, -0.0010114475, -1573644.8, 141213.67, 0.00047318285, 10.000196, 10.000847 
1.0647966e+3, 1.3501653e+2, -1790868.5, -1644632.3, 86819.76, 0.066708505, 0.08810319, -1604243.0, 12599.313, 0.00020250746, 9.998556, 10.000492 
1.064818e+3, 1.4501728e+2, -1756842.5, -1551269.0, -42742.836, -0.056327105, 0.11694927, -1542736.1, -23902.346, 0.000042863663, 9.997966, 10.000737 
1.0648394e+3, 1.5501727e+2, -1547594.6, -1396060.4, -63368.234, -0.0060561504, 0.0057725264, -1373054.1, 47777.875, 0.0000013547858, 9.998735, 10.000751 
1.0648606e+3, 1.6501784e+2, -1422926.5, -1339109.5, -27351.803, 0.014858563, 0.018981328, -1330973.6, -8148.0854, 0.0, 9.999139, 10.000283 
1.0648822e+3, 1.7501873e+2, -1329009.6, -1243014.0, -33103.29, 0.041500933, 0.055809494, -1231747.3, -6930.366, 0.0, 9.999118, 10.00028 
1.0649031e+3, 1.8501878e+2, -1228291.8, -1179678.4, -19778.0, 0.019668162, 0.057671368, -1172648.5, -45832.766, 0.0, 9.999277, 9.999962 
1.0649235e+3, 1.9501776e+2, -1077050.9, -1060828.5, -41886.41, -0.06237135, -0.068639584, -1026275.1, 2549.4268, 0.0, 9.999659, 9.999925 
1.0649455e+3, 2.0501727e+2, -986478.1, -1046251.8, 22287.553, -0.053799693, -0.06567415, -979082.8, -48255.1, 0.0, 9.999972, 9.999193 
1.0649694e+3, 2.1501705e+2, -853863.4, -935094.44, 2876.0173, 0.05117903, -0.030585619, -853761.7, -20933.809, 0.0, 10.000232, 9.999158 
1.064991e+3, 2.2501536e+2, -749269.25, -983140.1, -75633.234, 0.080361575, -0.04087797, -726941.3, 7902.257, 0.0, 10.0009, 9.997837 
1.06501065e+3, 2.3501192e+2, -502202.6, -811263.44, -59918.074, 0.04283582, -0.19500619, -490992.78, 145884.61, 0.0, 10.001922, 9.997848 
1.0650323e+3, 2.4501042e+2, -349428.66, -646653.2, 89435.14, 0.033056848, -0.14028768, -324592.8, 214301.69, 0.0, 10.002133, 9.998202 
1.065056e+3, 2.550105e+2, -340488.1, -597320.7, 54263.023, 0.044158056, 0.020191828, -329494.13, 111404.53, 0.0, 10.00154, 9.998158 
1.0650791e+3, 2.6500967e+2, -210485.9, -441878.78, 2781.246, 0.049124755, 0.11291895, -210452.47, 132454.81, 0.0, 10.001575, 9.998539 
1.0651018e+3, 2.750078e+2, -38844.582, -304553.0, -44598.97, 0.06059747, 0.043224998, -31558.47, 213363.58, 0.00000091217555, 10.0020685, 9.998567 
1.0651244e+3, 2.850054e+2, 29337.602, -297448.2, -16559.617, 0.035232276, -0.010986909, 30174.604, 177117.39, 0.000020761427, 10.00218, 9.997898 
1.0651471e+3, 2.95002e+2, 82978.52, -228712.89, -20075.973, -0.020491423, -0.17008723, 84266.29, 133240.55, 0.00012637535, 10.001889, 9.997838 
1.06517e+3, 3.0500108e+2, 150394.13, -102359.445, -44189.383, -0.019973287, -0.06541257, 157897.11, 157897.11, 0.00038601994, 10.00177, 9.998405 
1.0651929e+3, 3.1500047e+2, 210571.83, 53886.297, -110388.12, 0.042387635, -0.00336884, 267592.0, 267592.0, 0.0008001297, 10.001549, 9.99959 
1.0747719e+3, 1.2499345e+2, -1638306.5, -1618707.9, -74068.12, -0.037757583, 0.04424248, -1553793.8, 161275.3, 0.00055371417, 10.000234, 10.000518 
1.0747948e+3, 1.3499351e+2, -1816261.5, -1685403.6, 28353.81, 0.012440325, -0.001696687, -1679524.1, -62457.49, 0.00024334127, 9.998517, 10.000224 
1.0748152e+3, 1.4499411e+2, -1764195.0, -1561332.3, -34676.723, -0.16891856, 0.026834438, -1555568.5, -36508.473, 0.00005483326, 9.997931, 10.00069 
1.0748381e+3, 1.5499502e+2, -1548331.8, -1401828.0, -20407.97, -0.043447014, 0.010684993, -1399038.3, 22013.32, 0.000002073113, 9.998742, 10.000713 
1.0748597e+3, 1.6499567e+2, -1412181.1, -1304373.0, -44592.613, -0.019555133, 0.020837313, -1288318.9, 34725.86, 0.0000000000166348, 9.999095, 10.000538 
1.0748805e+3, 1.7499575e+2, -1314603.4, -1206850.0, -20644.504, -0.06010331, -0.053159695, -1203030.1, 22012.088, 0.0, 9.999089, 10.00054 
1.074902e+3, 1.8499604e+2, -1260538.3, -1223263.3, -20048.371, -0.040253647, -0.027565751, -1214527.5, -87489.37, 0.0, 9.9991865, 9.999703 
1.0749243e+3, 1.9499616e+2, -1111697.5, -1102866.3, -15200.467, 0.033147, -0.011476939, -1091453.0, -62417.063, 0.0, 9.999536, 9.999692 
1.0749465e+3, 2.0499577e+2, -1020979.44, -1080604.1, 14827.741, 0.020914271, 0.02063853, -1017495.56, -86456.086, 0.0, 9.99981, 9.999038 
1.0749685e+3, 2.1499458e+2, -885998.44, -963955.5, 26051.385, -0.07581981, -0.02891344, -878094.1, -45043.074, 0.0, 10.000062, 9.999044 
1.074991e+3, 2.2499326e+2, -724988.3, -884406.9, -49539.652, -0.036412604, -0.03636833, -710848.0, 24214.37, 0.0, 10.000697, 9.998611 
1.0750138e+3, 2.3499149e+2, -475895.13, -712860.0, -5554.5054, 0.13900179, -0.10238023, -475765.0, 161311.4, 0.0, 10.001733, 9.998617 
1.075035e+3, 2.4498977e+2, -420610.06, -749856.9, 56261.914, 0.068888135, -0.07689617, -411261.4, 127832.64, 0.0, 10.001949, 9.997577 
1.0750548e+3, 2.5498778e+2, -397804.1, -689165.7, 48265.63, -0.25146806, -0.06122318, -390016.75, 51101.54, 0.0, 10.001422, 9.997581 
1.07507825e+3, 2.649857e+2, -292530.63, -576540.8, 9369.927, -0.2163604, -0.022296527, -292221.84, 50918.617, 0.000000000031670343, 10.001429, 9.997685 
1.0751052e+3, 2.7498323e+2, -117770.375, -443312.47, -5917.645, 0.17518672, -0.06903328, -117662.836, 127501.22, 0.00000057346807, 10.001959, 9.997672 
1.0751289e+3, 2.8498107e+2, 34409.863, -266887.16, -39740.336, 0.2424485, -0.06141629, 39563.367, 186746.17, 0.000016841232, 10.002099, 9.998141 
1.0751493e+3, 2.9497916e+2, 87775.42, -192919.23, -7383.8745, -0.023211349, -0.10518622, 87969.53, 137168.05, 0.000114238224, 10.001783, 9.998133 
1.07517116e+3, 3.0497777e+2, 102173.47, -193650.08, -52904.03, -0.11389597, -0.028656915, 111349.984, 111349.984, 0.0003625103, 10.001726, 9.997805 
1.0751942e+3, 3.1497476e+2, 152118.47, -41919.715, -58598.863, -0.042735506, -0.15125242, 168441.9, 168441.9, 0.00076317973, 10.001425, 9.999003 
1.08477145e+3, 1.2497218e+2, -1892564.0, -1738683.5, -16321.951, 0.013412453, 0.100381844, -1736971.3, -21692.262, 0.00064071716, 9.998433, 10.000582 
1.0847942e+3, 1.3497159e+2, -1706057.1, -1614720.0, 32914.11, 0.082507804, -0.025980404, -1604095.1, 13185.795, 0.00028839763, 9.999178, 10.000398 
1.0848136e+3, 1.4497204e+2, -1603542.9, -1483700.8, 50936.754, -0.17086883, -0.020798339, -1464976.5, 54298.703, 0.00006873226, 9.999072, 10.00065 
1.0848368e+3, 1.5497327e+2, -1599637.8, -1432243.5, 23631.496, -0.017348096, 0.0009493443, -1428971.4, -7706.841, 0.0000030594845, 9.998434, 10.000643 
1.0848588e+3, 1.6497405e+2, -1488313.4, -1346055.5, 29621.336, 0.013036193, 0.028630333, -1340134.1, -16877.129, 0.000000000186287, 9.998589, 10.000496 
1.0848798e+3, 1.7497411e+2, -1244608.6, -1178633.1, -923.1794, -0.059428934, -0.041397244, -1178620.1, 46634.71, 0.0, 9.999598, 10.000485 
1.0849018e+3, 1.8497422e+2, -1123761.8, -1185340.4, 9314.015, -0.032551948, -0.01827427, -1122383.8, 4868.604, 0.0, 10.000242, 9.999461 
1.0849248e+3, 1.949741e+2, -1001777.9, -1076516.8, -14631.757, 0.09122179, -0.0037613374, -999015.5, 30236.912, 0.0, 10.000422, 9.999445 
1.08494714e+3, 2.0497349e+2, -934122.2, -1048137.6, 38639.01, 0.083812945, 0.02530964, -922261.5, 8996.522, 0.0, 10.000451, 9.998946 
1.0849689e+3, 2.149721e+2, -856228.2, -963518.6, 19386.207, -0.056930885, -0.036512494, -852832.75, -19559.936, 0.0, 10.000331, 9.998916 
1.08499154e+3, 2.2497104e+2, -705749.9, -828884.06, -12206.471, -0.030411134, -0.028216893, -704551.5, 30730.197, 0.0, 10.000636, 9.999025 
1.0850155e+3, 2.349701e+2, -497514.97, -677511.06, -29292.64, 0.16457488, -0.05060436, -492867.84, 144419.25, 0.0, 10.001393, 9.999025 
1.08503714e+3, 2.4496855e+2, -433227.2, -773474.2, 24585.313, 0.100345, -0.020595426, -431459.9, 107842.71, 0.0, 10.0019045, 9.997462 
1.0850567e+3, 2.5496614e+2, -322607.25, -667811.4, 27912.176, -0.21947527, -0.03337959, -320364.9, 120965.984, 0.0, 10.001987, 9.997473 
1.0850802e+3, 2.6496372e+2, -210115.66, -556128.75, 79854.016, -0.19148028, -0.017383978, -192575.81, 150780.84, 0.000000020287489, 10.002085, 9.997498 
1.0851073e+3, 2.7496082e+2, -92018.375, -452920.16, 79436.89, 0.18426795, -0.085462056, -75307.55, 170076.4, 0.0000009682407, 10.002233, 9.997466 
1.08513124e+3, 2.849587e+2, 61213.5, -250633.44, 72476.45, 0.2641712, -0.069563635, 77234.69, 224637.14, 0.000016002106, 10.002271, 9.998167 
1.0851519e+3, 2.9495716e+2, 126178.98, -165446.44, 48934.027, 0.062997885, -0.07546403, 134170.97, 183584.69, 0.00010691048, 10.002016, 9.998202 
1.0851735e+3, 3.0495554e+2, 114865.32, -185680.9, 50935.53, -0.038278118, -0.029951341, 123263.05, 123263.05, 0.00034615427, 10.001834, 9.997808 
1.0851959e+3, 3.1495172e+2, 169256.98, -29167.484, 36421.617, -0.001412981, -0.22231981, 175731.1, 175731.1, 0.0007399488, 10.001571, 9.999011 
1.0947715e+3, 1.2495086e+2, -1858008.3, -1643564.5, 39073.035, 0.115957, 0.13921812, -1636667.0, 78823.36, 0.000734217, 9.998335, 10.001282 
1.0947944e+3, 1.3495114e+2, -1645734.9, -1498728.8, 72772.47, 0.15681604, 0.017304279, -1468798.1, 148683.31, 0.00033773432, 9.9992075, 10.001183 
1.09481275e+3, 1.4495137e+2, -1618027.3, -1511872.5, 8870.405, -0.19408579, -0.029124442, -1511136.4, 8339.977, 0.0000845864, 9.99907, 10.000457 
1.0948352e+3, 1.549521e+2, -1620712.5, -1463180.0, 14499.82, -0.04392311, -0.036244255, -1461856.6, -40386.46, 0.0000043925156, 9.998388, 10.00045 
1.09485745e+3, 1.6495308e+2, -1518359.0, -1403489.0, 51570.55, -0.0062943012, 0.042211, -1383734.0, -60272.55, 0.0000000006358386, 9.998561, 10.000118 
1.0948795e+3, 1.7495391e+2, -1267389.6, -1232151.4, 52199.14, -0.06790569, 0.083859585, -1194678.0, 30776.508, 0.0, 9.999609, 10.000118 
1.09490186e+3, 1.8495351e+2, -1150292.4, -1224830.9, -310.37302, -0.07130391, 0.08821203, -1150291.1, -22833.771, 0.0, 10.000182, 9.999215 
1.0949246e+3, 1.9495162e+2, -1033296.0, -1117359.6, 7577.1606, -0.004385486, -0.04770916, -1032618.44, -3145.7075, 0.0, 10.000315, 9.999214 
1.09494716e+3, 2.0495038e+2, -962596.94, -1078333.1, 19034.56, 0.019587222, -0.06618426, -959546.8, -28062.705, 0.0, 10.0003195, 9.998807 
1.0949699e+3, 2.1494949e+2, -887833.56, -993041.94, 27915.559, -0.0023140542, -0.060681567, -880885.44, -47391.6, 0.0, 10.000168, 9.9987955 
1.0949925e+3, 2.249487e+2, -741407.8, -853719.7, 1308.9862, -0.0115859015, -0.019424453, -741392.56, -5890.964, 0.0, 10.00043, 9.99895 
1.0950154e+3, 2.349476e+2, -530288.2, -701840.75, 13139.711, -0.003440018, -0.051145732, -529287.56, 108223.375, 0.0, 10.001204, 9.998949 
1.09503835e+3, 2.4494667e+2, -429811.84, -721894.0, 14372.624, 0.004614569, 0.021106383, -429106.3, 110415.28, 0.0, 10.001717, 9.997905 
1.0950613e+3, 2.549456e+2, -314015.78, -614930.2, 46847.36, 0.01634717, 0.09841521, -306891.13, 134644.83, 0.0, 10.001837, 9.997909 
1.0950845e+3, 2.6494372e+2, -205488.89, -512022.13, 76589.8, 0.00861984, 0.1274304, -187417.67, 156137.2, 0.00000010014453, 10.001938, 9.997871 
1.0951078e+3, 2.7494052e+2, -77320.58, -402485.5, 107148.82, -0.026216881, -0.0081275385, -45188.06, 200394.23, 0.0000018117424, 10.002139, 9.997862 
1.0951311e+3, 2.8493792e+2, 31980.49, -289700.72, 50249.957, -0.0076683965, -0.048720673, 39647.33, 187251.72, 0.000017402066, 10.002181, 9.997939 
1.0951545e+3, 2.9493573e+2, 94928.2, -210492.69, 57985.793, 0.08461511, -0.1020723, 105566.56, 155189.61, 0.00010435712, 10.001928, 9.997936 
1.0951765e+3, 3.0493408e+2, 138758.97, -123445.71, 30926.64, 0.058461525, -0.06453506, 142357.33, 142357.33, 0.00033796718, 10.001777, 9.998264 
1.0951973e+3, 3.149311e+2, 185041.16, 12072.083, 73655.12, -0.08952396, -0.22246224, 212155.27, 212155.27, 0.00073106954, 10.00151, 9.999337 
1.10477075e+3, 1.2492868e+2, -1738533.1, -1586023.5, 147744.97, 0.17472291, 0.08069047, -1496015.4, 219690.02, 0.00083503575, 9.999171, 10.001246 
1.1047932e+3, 1.3492994e+2, -1854510.9, -1603324.0, -5487.6567, 0.19301124, 0.056392163, -1603204.1, 14485.775, 0.0003918232, 9.997794, 10.001137 
1.1048118e+3, 1.4493027e+2, -1791349.1, -1592820.9, -28512.459, -0.12994066, 0.016977299, -1588807.0, -69122.41, 0.000102570426, 9.997835, 10.000512 
1.1048342e+3, 1.5493055e+2, -1445772.0, -1375338.3, -30464.855, -0.031552073, -0.038830053, -1363989.6, 57690.992, 0.0000061708192, 9.999547, 10.000504 
1.10485666e+3, 1.6493124e+2, -1337588.9, -1355172.3, 39248.797, -0.00069279515, 0.025275467, -1306159.1, 17515.217, 0.0000000015512864, 9.999986, 9.999754 
1.1048794e+3, 1.7493202e+2, -1350231.3, -1307742.3, 6381.716, -0.015291346, 0.099182285, -1306804.4, -81135.37, 0.0, 9.999224, 9.999771 
1.1049021e+3, 1.8493155e+2, -1270758.4, -1284708.9, 5013.8228, -0.017078696, 0.11261869, -1269143.4, -141469.97, 0.0, 9.999372, 9.999188 
1.1049248e+3, 1.9492947e+2, -1014746.8, -1107860.1, -1031.3164, -0.0067138034, -0.043494042, -1014735.44, 14955.2705, 0.0, 10.000453, 9.999204 
1.1049476e+3, 2.0492812e+2, -890771.44, -1053790.3, 22178.576, 0.017395936, -0.06643545, -887807.94, 43894.85, 0.0, 10.000851, 9.998724 
1.1049707e+3, 2.1492726e+2, -833987.1, -975054.56, 5113.096, 0.0548542, -0.04920593, -833802.06, -90.08436, 0.0, 10.000568, 9.998728 
1.1049935e+3, 2.2492644e+2, -725706.8, -853603.8, 37362.2, 0.04770814, -0.0037721363, -715592.2, 20128.336, 0.0, 10.000564, 9.998887 
1.1050163e+3, 2.3492533e+2, -589656.5, -737118.25, 24842.162, -0.000019119678, -0.031065261, -585583.94, 52147.645, 0.0, 10.000824, 9.99889 
1.10503964e+3, 2.4492452e+2, -480690.4, -690830.94, 45329.594, 0.012666079, 0.033318136, -471329.34, 68411.26, 0.0, 10.001158, 9.998365 
1.1050636e+3, 2.5492373e+2, -316438.06, -559314.06, 41759.633, 0.08782979, 0.08941932, -309458.56, 132291.69, 0.0, 10.001608, 9.998375 
1.1050872e+3, 2.649222e+2, -174498.95, -457989.34, 93837.83, 0.09172855, 0.116698444, -146252.27, 197511.56, 0.00000018749917, 10.001961, 9.998245 
1.10511035e+3, 2.749197e+2, -63253.203, -352377.66, 94488.52, 0.029380448, 0.00870556, -35112.45, 210672.0, 0.0000025365616, 10.002045, 9.998257 
1.1051335e+3, 2.849171e+2, 7758.5464, -317442.7, 63396.934, 0.03799834, -0.04319277, 19680.512, 167487.14, 0.000019295574, 10.002089, 9.9978 
1.105157e+3, 2.9491425e+2, 96262.4, -224163.48, 42113.438, 0.14221855, -0.14343442, 101704.91, 151537.34, 0.00010487227, 10.002015, 9.9978 
1.105179e+3, 3.0491254e+2, 249963.6, -96040.56, 49565.254, 0.090861484, -0.09410073, 256923.83, 256923.83, 0.00033641586, 10.00261, 9.998061 
1.10520005e+3, 3.149101e+2, 449828.78, 124775.11, 329.63672, -0.04760498, -0.18504405, 449829.13, 449829.13, 0.00073074934, 10.003399, 9.999187 
1.1147685e+3, 1.2490582e+2, -1804470.8, -1717361.1, 115168.76, -0.024698438, -0.10370136, -1637786.4, 78134.97, 0.000944546, 9.999167, 10.000346 
1.1147901e+3, 1.349081e+2, -1940029.8, -1769176.8, -46830.56, 0.07661057, 0.092234924, -1757182.6, -139276.89, 0.00045159098, 9.997748, 10.000025 
1.1148102e+3, 1.4490877e+2, -1765253.4, -1529172.1, 15397.44, -0.11411206, 0.121174686, -1528172.1, -8271.9, 0.00012308804, 9.997797, 10.000966 
1.11483335e+3, 1.5490887e+2, -1411138.9, -1308999.6, 48318.8, -0.10719456, -0.00148368, -1289764.0, 132130.23, 0.000008505592, 9.99957, 10.000948 
1.1148561e+3, 1.6490877e+2, -1365967.0, -1415242.0, -9190.824, -0.094983965, -0.015998302, -1364308.5, -40414.895, 0.0000000033697685, 9.999985, 9.999348 
1.1148789e+3, 1.7490847e+2, -1380026.5, -1368646.6, -10728.694, -0.016249375, -0.005241283, -1362192.4, -136293.83, 0.0, 9.999205, 9.9993725 
1.114902e+3, 1.849082e+2, -1268169.8, -1262556.6, 29799.664, 0.008552546, 0.039130356, -1235431.8, -107530.1, 0.0, 9.999302, 9.999374 
1.11492515e+3, 1.9490759e+2, -1019465.3, -1090735.6, 51970.055, -0.036038544, 0.012750644, -992086.56, 37819.375, 0.0, 10.0003395, 9.999376 
1.1149481e+3, 2.0490675e+2, -908277.25, -1062828.5, -8232.127, -0.04215444, 0.032759055, -907840.0, 24073.443, 0.0, 10.000732, 9.998716 
1.114971e+3, 2.149053e+2, -863782.44, -994057.0, 7442.062, -0.004218845, -0.012133525, -863358.7, -29430.746, 0.0, 10.0003805, 9.998689 
1.11499414e+3, 2.2490427e+2, -754024.8, -866533.44, 33527.926, 0.028351478, 0.014397899, -744791.2, -8852.643, 0.0, 10.000374, 9.998887 
1.115018e+3, 2.3490341e+2, -615598.75, -748367.8, 48900.76, 0.06507879, 0.014208383, -599532.2, 38415.21, 0.0, 10.000644, 9.998899 
1.115041e+3, 2.4490221e+2, -480661.06, -651460.5, 50035.313, 0.01470715, 0.020049617, -467082.78, 72875.81, 0.0, 10.000989, 9.998715 
1.11506335e+3, 2.549003e+2, -312227.56, -520006.75, 74859.54, -0.12406319, -0.072702326, -288066.4, 153908.89, 0.0, 10.001472, 9.998712 
1.1150878e+3, 2.6489905e+2, -165686.34, -410270.22, 81659.09, -0.06320863, -0.053690024, -140928.89, 203056.28, 0.00000020790911, 10.001838, 9.998628 
1.1151144e+3, 2.748982e+2, -50699.336, -302094.4, 113521.664, 0.20573922, -0.037043884, -7024.3867, 238966.88, 0.0000030041283, 10.001937, 9.998653 
1.1151381e+3, 2.8489625e+2, -16369.22, -337058.6, 46973.824, 0.26648173, -0.042625185, -9630.219, 138378.25, 0.000021785861, 10.001966, 9.99772 
1.11515895e+3, 2.9489276e+2, 79021.04, -242753.94, 63553.094, 0.10200131, -0.19504778, 91118.46, 141159.38, 0.00010887074, 10.00194, 9.99771 
1.1151804e+3, 3.0489087e+2, 181423.55, -224051.47, 71179.85, -0.052102216, -0.12067327, 193555.94, 193555.94, 0.00034133886, 10.002552, 9.997209 
1.1152031e+3, 3.1488845e+2, 365049.56, -21560.459, 84584.6, -0.14330633, -0.12338213, 382745.47, 382745.47, 0.0007374856, 10.00326, 9.998255 
1.1247665e+3, 1.248831e+2, -1990764.3, -1797588.8, 41223.027, -0.064536415, -0.12805028, -1789159.6, -73016.766, 0.0010643419, 9.997843, 10.000451 
1.1247877e+3, 1.3488558e+2, -1874638.5, -1739533.6, -110001.54, 0.0553428, 0.09217603, -1677998.3, -59872.047, 0.00051804923, 9.998213, 10.000008 
1.1248097e+3, 1.4488631e+2, -1654155.6, -1498726.0, 83645.29, 0.033749256, 0.14097449, -1462264.9, 57855.426, 0.00014661087, 9.998669, 10.000749 
1.1248328e+3, 1.5488632e+2, -1444458.0, -1347700.3, 26229.01, -0.10187711, 0.02879037, -1341047.5, 81068.27, 0.00001150662, 9.999456, 10.000729 
1.1248557e+3, 1.648859e+2, -1366751.4, -1437544.8, -66843.17, -0.12433279, 0.001002366, -1326511.3, -2392.82, 0.0000000061074554, 10.000071, 9.999155 
1.1248789e+3, 1.7488492e+2, -1189570.9, -1294081.1, -81990.11, 0.011580095, -0.038920943, -1144599.6, 81529.86, 0.0, 10.000596, 9.999208 
1.1249024e+3, 1.8488464e+2, -1053001.5, -1146047.9, 15021.948, 0.063496955, 0.005957784, -1050636.4, 77496.195, 0.0, 10.000708, 9.999503 
1.1249259e+3, 1.9488467e+2, -996024.44, -1072143.1, 6908.7417, 0.010286407, 0.030362157, -995402.44, 34729.33, 0.0, 10.000428, 9.999479 
1.124949e+3, 2.0488422e+2, -928698.4, -1027295.8, -23931.102, -0.007965588, 0.065234296, -923196.9, 8938.362, 0.0, 10.000423, 9.999101 
1.12497166e+3, 2.148829e+2, -765438.9, -896177.0, -12803.404, 0.018354742, -0.0052168327, -764196.8, 69949.98, 0.0, 10.000864, 9.999115 
1.1249951e+3, 2.2488183e+2, -661493.0, -854200.6, 51801.59, 0.06489821, 0.009875865, -648450.94, 87706.46, 0.0, 10.001131, 9.998615 
1.1250196e+3, 2.3488085e+2, -538466.5, -741356.6, 17131.637, 0.13910209, 0.02530089, -537030.06, 101138.59, 0.0, 10.001291, 9.998636 
1.1250428e+3, 2.4487932e+2, -408874.47, -608003.06, 29453.898, 0.08033965, 0.009884472, -404609.2, 135573.25, 0.0, 10.001442, 9.998803 
1.12506494e+3, 2.54877e+2, -286994.9, -500849.22, 9531.779, -0.11386448, -0.12925375, -286570.9, 155630.27, 0.0, 10.001615, 9.998787 
1.12508945e+3, 2.648757e+2, -186368.81, -431732.84, 8751.917, -0.06050119, -0.11285602, -186057.03, 158154.94, 0.00000016860811, 10.001767, 9.9985075 
1.1251167e+3, 2.748751e+2, -60441.703, -319983.2, -35214.07, 0.25269276, -0.053941313, -55748.78, 190469.55, 0.0000038179373, 10.00195, 9.998512 
1.1251406e+3, 2.8487357e+2, 62018.023, -278101.13, -76135.17, 0.30938885, -0.017209843, 78282.96, 226515.81, 0.000026510976, 10.002393, 9.997921 
1.1251613e+3, 2.9487088e+2, 237425.53, -138214.75, -72578.72, 0.10307204, -0.11809619, 250960.98, 301219.22, 0.00011807009, 10.002909, 9.997952 
1.1251831e+3, 3.0486903e+2, 264124.03, -215865.94, 4677.0244, -0.050864205, -0.03458429, 264169.6, 264169.6, 0.0003550206, 10.003294, 9.996901 
1.12520725e+3, 3.1486616e+2, 327373.47, -91939.63, 5363.464, -0.045157738, -0.040650487, 327442.06, 327442.06, 0.0007557831, 10.003235, 9.997791 
1.13476284e+3, 1.24860786e+2, -1913125.8, -1620942.5, -5598.216, -0.28353724, 0.03923321, -1620835.3, 95532.984, 0.0011953667, 9.997799, 10.001674 
1.1347854e+3, 1.3486244e+2, -1788868.5, -1551716.5, -83845.76, -0.01625924, 0.048581656, -1525067.3, 93283.27, 0.00059164723, 9.998183, 10.001305 
1.13481015e+3, 1.4486316e+2, -1717526.0, -1632048.4, 95752.01, 0.1741849, 0.07301564, -1569929.9, -49587.08, 0.00017336896, 9.998673, 9.999838 
1.1348323e+3, 1.5486316e+2, -1511066.9, -1486602.1, 72182.02, -0.12825605, 0.058951158, -1425623.3, -3280.2551, 0.000015247707, 9.999454, 9.999783 
1.1348551e+3, 1.648627e+2, -1367680.1, -1435475.4, -63767.26, -0.22360745, 0.075117245, -1329360.6, -5012.8716, 0.000000009421829, 10.000055, 9.999175 
1.13487914e+3, 1.7486142e+2, -1188435.0, -1293688.8, -50523.082, -0.057679255, 0.00123182, -1168108.6, 58252.195, 0.0, 10.000605, 9.999207 
1.13490306e+3, 1.848609e+2, -1044628.06, -1125301.4, -14188.437, 0.026428107, 0.014292648, -1042205.44, 86160.79, 0.0, 10.000688, 9.999659 
1.1349266e+3, 1.9486083e+2, -1003922.5, -1059121.9, 7583.4424, 0.013249856, 0.013912208, -1002899.6, 27467.068, 0.0, 10.000295, 9.999638 
1.1349497e+3, 2.0486064e+2, -903052.6, -940252.5, -24467.354, 0.004767579, 0.03456515, -890918.06, 41448.383, 0.0, 10.000278, 9.999767 
1.13497265e+3, 2.1486007e+2, -748335.25, -813108.25, 14763.514, 0.017099654, -0.026730267, -745129.0, 89238.86, 0.0, 10.000663, 9.9997835 
1.13499634e+3, 2.2485913e+2, -723196.7, -941240.3, 40082.64, 0.047986545, -0.006779233, -716061.8, 20314.787, 0.0, 10.000949, 9.998106 
1.1350206e+3, 2.3485753e+2, -606309.44, -838128.5, 36657.86, 0.100629926, -0.0034498079, -600650.8, 37745.293, 0.0, 10.001097, 9.998068 
1.13504454e+3, 2.4485587e+2, -445450.72, -647076.4, 21858.564, 0.080620736, 0.006020615, -443108.22, 97304.055, 0.0, 10.001282, 9.9986105 
1.1350679e+3, 2.5485393e+2, -318268.34, -533684.9, 29904.229, -0.0011969564, -0.0785278, -314194.1, 128232.76, 0.0, 10.001474, 9.998628 
1.1350919e+3, 2.6485226e+2, -247937.88, -539460.7, 5367.3535, -0.00924478, -0.05855649, -247839.08, 96603.75, 0.00000020663475, 10.001672, 9.997819 
1.135117e+3, 2.748504e+2, -125016.66, -437262.16, -7052.962, 0.05744365, -0.051375102, -124857.42, 121607.77, 0.0000055002247, 10.001865, 9.997756 
1.1351407e+3, 2.8484908e+2, 75800.54, -218124.78, -71358.44, 0.05251578, 0.020791784, 92208.78, 240688.66, 0.000033703815, 10.002273, 9.9983835 
1.13516346e+3, 2.9484826e+2, 252511.23, -76322.195, -35075.81, -0.0058626905, 0.060793795, 256211.05, 306697.88, 0.00013271971, 10.002777, 9.998442 
1.1351868e+3, 3.0484682e+2, 253667.75, -200143.69, -5668.175, -0.045214012, 0.14971383, 253738.55, 253738.55, 0.00037893685, 10.0031395, 9.997082 
1.1352113e+3, 3.148432e+2, 304326.9, -97525.125, 51003.598, -0.026496785, 0.04881214, 310699.28, 310699.28, 0.0007912106, 10.003054, 9.997839 
1.14476085e+3, 1.24837644e+2, -2133523.5, -1695791.9, 11939.968, -0.1537702, 0.14062355, -1695466.5, 21131.363, 0.0013373722, 9.996103, 10.001998 
1.14478335e+3, 1.3483828e+2, -1703687.0, -1458163.9, -114526.84, -0.046419237, -0.00588653, -1413036.3, 205549.34, 0.000672049, 9.998489, 10.001823 
1.14480995e+3, 1.44839e+2, -1608280.9, -1593355.6, 58993.855, 0.24999666, -0.002171943, -1541354.3, -20778.064, 0.0002032588, 9.999493, 9.999701 
1.1448318e+3, 1.5483919e+2, -1558242.6, -1527133.4, 53410.12, -0.096970946, 0.021819644, -1487059.0, -64483.117, 0.000019742625, 9.999213, 9.999616 
1.1448549e+3, 1.6483888e+2, -1478610.4, -1466188.6, -3626.719, -0.19387846, 0.05077414, -1465207.3, -140627.6, 0.000000013934886, 9.999197, 9.999378 
1.14487976e+3, 1.7483774e+2, -1325393.6, -1335121.0, -26.855537, 0.0077367327, -0.031071706, -1325393.6, -98802.984, 0.0, 9.999558, 9.999425 
1.1449038e+3, 1.8483728e+2, -1188989.8, -1211895.1, 40464.84, 0.095151015, -0.013479463, -1158388.1, -29792.5, 0.0, 9.999789, 9.999488 
1.14492685e+3, 1.9483727e+2, -1069715.1, -1098769.5, 1800.0032, 0.03912919, 0.0071004163, -1069604.0, -39007.04, 0.0, 9.999924, 9.999519 
1.1449502e+3, 2.04837e+2, -910515.7, -959224.75, -20285.258, 0.030023156, 0.029883247, -903174.25, 29423.879, 0.0, 10.000257, 9.999665 
1.144974e+3, 2.1483615e+2, -739844.8, -822073.56, -61831.91, 0.08964658, -0.04801477, -706705.75, 127896.02, 0.0, 10.000744, 9.9997 
1.1449979e+3, 2.2483519e+2, -687640.7, -900268.7, -17459.275, 0.111876905, -0.034911953, -686216.56, 50393.477, 0.0, 10.001109, 9.998302 
1.1450217e+3, 2.3483379e+2, -542651.44, -778777.2, 1043.882, 0.088874005, -0.03221023, -542646.8, 95979.63, 0.0, 10.001426, 9.998309 
1.1450459e+3, 2.4483229e+2, -401662.03, -675110.0, 35497.46, 0.07320417, 0.0013275547, -397129.1, 143512.56, 0.0, 10.001788, 9.998176 
1.14507034e+3, 2.5483045e+2, -235690.33, -537198.75, -4495.632, 0.07463573, -0.029060828, -235623.31, 207034.27, 0.0, 10.002239, 9.998226 
1.1450945e+3, 2.648285e+2, -194064.45, -543963.4, -15366.557, 0.06442761, -0.0075345812, -193390.89, 151287.13, 0.00000038376965, 10.002156, 9.9975605 
1.1451184e+3, 2.74826e+2, -194904.3, -495478.25, -21574.635, 0.043863833, -0.04257137, -193363.61, 53343.35, 0.0000075917305, 10.001486, 9.997539 
1.1451419e+3, 2.848245e+2, -43550.438, -283724.56, -18523.09, -0.004099499, 0.027759477, -42130.266, 106593.86, 0.000041535674, 10.001486, 9.998318 
1.1451653e+3, 2.9482406e+2, 144558.58, -133983.4, -57001.93, -0.045073036, 0.11620137, 155772.23, 206501.11, 0.00014998692, 10.002067, 9.998388 
1.14518955e+3, 3.0482277e+2, 189974.61, -154636.08, -23870.432, -0.011915535, 0.1881737, 191620.2, 191620.2, 0.00040887797, 10.002333, 9.99779 
1.1452155e+3, 3.1481946e+2, 172689.81, -88976.54, 19341.326, 0.17070457, 0.041420273, 174111.72, 174111.72, 0.0008407425, 10.001844, 9.9984665 
1.1547582e+3, 1.24813005e+2, -2186797.0, -1779707.3, -38635.586, -0.08457082, 0.100659885, -1776073.0, -59235.004, 0.001489488, 9.996006, 10.001458 
1.1547809e+3, 1.3481326e+2, -1720465.9, -1485798.0, -10001.318, -0.16898976, -0.0655759, -1485372.5, 133457.27, 0.00075867696, 9.998472, 10.001629 
1.1548083e+3, 1.448138e+2, -1566720.8, -1519121.5, 29784.064, 0.10439226, -0.092427894, -1504796.3, 16024.805, 0.0002361324, 9.999526, 10.000205 
1.1548309e+3, 1.548143e+2, -1513029.3, -1441767.1, 54353.793, -0.14261052, -0.09623712, -1412406.6, 10408.989, 0.000024990082, 9.999235, 10.000197 
1.15485474e+3, 1.6481444e+2, -1443606.8, -1389542.0, -7097.38, -0.16756724, -0.07952919, -1388625.8, -63812.242, 0.000000023716384, 9.999184, 9.999906 
1.1548805e+3, 1.7481402e+2, -1298531.9, -1265950.9, 27996.281, 0.09852308, -0.14131951, -1249850.5, -23033.396, 0.0, 9.999505, 9.99992 
1.15490444e+3, 1.8481398e+2, -1243073.5, -1311105.0, 30222.818, 0.15135662, -0.07354052, -1231586.6, -102767.836, 0.0, 9.99973, 9.998836 
1.1549263e+3, 1.9481397e+2, -1128905.9, -1202538.8, 18081.264, -0.041226584, 0.010113325, -1124705.5, -93882.88, 0.0, 9.999832, 9.998854 
1.15494974e+3, 2.0481318e+2, -981445.2, -1072171.5, -22642.56, -0.059476297, 0.0498802, -976108.25, -43277.203, 0.0, 10.00011, 9.99896 
1.1549752e+3, 2.1481125e+2, -818314.4, -942328.94, -30912.084, 0.121016756, -0.06788453, -811036.3, 23811.29, 0.0, 10.00055, 9.998969 
1.1549995e+3, 2.2481012e+2, -656689.4, -793332.0, -19418.307, 0.14449875, -0.074345484, -653983.44, 82873.1, 0.0, 10.000928, 9.999122 
1.15502246e+3, 2.3480965e+2, -509852.56, -670821.94, 26557.352, -0.0014625594, -0.06374369, -505584.2, 133275.33, 0.0, 10.001255, 9.999133 
1.1550466e+3, 2.4480854e+2, -470396.94, -777829.4, 34069.03, -0.048559196, 0.000010554559, -466666.75, 74204.195, 0.0, 10.001614, 9.997554 
1.155072e+3, 2.5480655e+2, -306698.9, -649189.0, 24999.854, 0.0045964364, 0.015927788, -304883.7, 138010.06, 0.0, 10.002079, 9.997536 
1.1550967e+3, 2.6480433e+2, -202067.4, -525893.6, -52145.57, 0.047977965, 0.038934555, -193877.56, 151040.27, 0.0000005356376, 10.00201, 9.997752 
1.1551205e+3, 2.7480155e+2, -192601.36, -463067.7, -28617.33, 0.074681774, -0.045902196, -189606.6, 57339.496, 0.000008957139, 10.001363, 9.997821 
1.1551438e+3, 2.8479972e+2, -95576.95, -363171.88, -7149.113, 0.009343258, -0.002226209, -95386.09, 53580.15, 0.000047577858, 10.001366, 9.9978285 
1.1551666e+3, 2.9479846e+2, 97143.086, -226419.1, -7554.511, -0.15840773, 0.055269398, 97319.37, 148301.61, 0.00016516355, 10.002024, 9.997782 
1.1551914e+3, 3.0479696e+2, 242548.69, -11229.796, -47812.96, -0.088307925, 0.09061274, 251257.97, 251257.97, 0.00043857994, 10.002205, 9.998825 
1.15521885e+3, 3.1479466e+2, 221886.64, 40260.305, 52706.92, 0.25835493, -0.06690264, 236073.72, 236073.72, 0.0008950193, 10.001724, 9.999411 
1.16475634e+3, 1.24789335e+2, -1880790.3, -1720899.6, 62052.594, 0.023553364, 0.033480678, -1699643.3, 17420.717, 0.0016512593, 9.998488, 10.000661 
1.1647797e+3, 1.3478933e+2, -1716357.6, -1559039.1, 83533.97, -0.13614494, -0.08395271, -1522958.8, 96102.78, 0.0008513687, 9.998847, 10.000943 
1.1648075e+3, 1.4478955e+2, -1627430.5, -1540791.4, 71879.57, 0.099386774, -0.11279865, -1500186.8, 20870.594, 0.00027198074, 9.999088, 10.00026 
1.1648308e+3, 1.5479e+2, -1493143.8, -1426784.5, 22285.346, -0.06604563, -0.12874573, -1419995.1, 3056.707, 0.00003101119, 9.999353, 10.00024 
1.16485484e+3, 1.6479038e+2, -1376389.8, -1356774.5, -39471.945, -0.078736775, -0.08945406, -1325910.0, -862.31836, 0.00000004774233, 9.999645, 9.999909 
1.1648804e+3, 1.747905e+2, -1222999.0, -1234136.9, -78498.99, 0.12044011, -0.091586456, -1149871.8, 77175.25, 0.0, 10.000032, 9.999894 
1.1649045e+3, 1.8479036e+2, -1154974.3, -1283633.4, -49698.61, 0.15973434, -0.026805378, -1138012.8, -8962.807, 0.0, 10.000386, 9.9987135 
1.1649269e+3, 1.9478965e+2, -998110.5, -1153492.9, -47580.777, -0.0027365277, 0.0014327439, -984698.2, 46361.246, 0.0, 10.000784, 9.998738 
1.1649506e+3, 2.047884e+2, -877346.7, -1057654.4, -24764.658, -0.01937498, 0.018929582, -874007.2, 59065.145, 0.0, 10.000997, 9.998618 
1.164976e+3, 2.1478632e+2, -775614.5, -952149.1, -42148.242, 0.12711096, -0.083529, -766067.75, 69023.93, 0.0, 10.001005, 9.998665 
1.16500035e+3, 2.2478521e+2, -624653.75, -756939.0, -10075.394, 0.13945614, -0.08436103, -623890.75, 113209.78, 0.0, 10.001054, 9.999316 
1.1650237e+3, 2.3478478e+2, -511005.34, -647621.9, -35260.17, 0.014534735, -0.08774845, -502441.66, 136660.02, 0.0, 10.001145, 9.99935 
1.1650482e+3, 2.4478382e+2, -510190.6, -768318.4, 11497.511, -0.021378307, -0.033340514, -509679.5, 31431.72, 0.0, 10.00121, 9.997811 
1.1650739e+3, 2.5478208e+2, -412070.2, -672813.06, 40131.35, 0.033490777, -0.01628855, -406033.28, 37098.75, 0.0, 10.0012245, 9.997787 
1.16509855e+3, 2.647802e+2, -288074.97, -524561.9, 10560.894, 0.06967242, 0.009780785, -287604.28, 57547.953, 0.00000056359414, 10.001247, 9.998122 
1.1651218e+3, 2.7477792e+2, -187802.6, -418868.2, 8514.573, 0.088137776, -0.059647273, -187489.27, 59684.75, 0.00000928475, 10.001239, 9.998179 
1.1651453e+3, 2.847761e+2, -62747.52, -374907.06, 109233.95, 0.02277838, -0.025173318, -28320.2, 120873.62, 0.000050789153, 10.001692, 9.997595 
1.165169e+3, 2.9477435e+2, 157518.14, -218457.77, 94808.414, -0.12608935, 0.0078120776, 180072.6, 231287.44, 0.00017624088, 10.002544, 9.997577 
1.16519436e+3, 3.0477247e+2, 372912.03, 40206.79, 31177.611, -0.048001543, 0.01516619, 375808.44, 375808.44, 0.0004642717, 10.003137, 9.998747 
1.1652217e+3, 3.147705e+2, 386724.13, 109795.41, 7584.4253, 0.32173827, -0.0907147, 386931.7, 386931.7, 0.0009430786, 10.002897, 9.999343 
1.1747537e+3, 1.24766104e+2, -1959396.1, -1867387.4, -2532.5266, -0.1645752, -0.13934797, -1867317.8, -150036.98, 0.0018234614, 9.998451, 9.999663 
1.17477976e+3, 1.3476673e+2, -1803040.0, -1742346.3, 109227.18, -0.041676912, -0.06488594, -1659328.6, -40050.04, 0.0009506097, 9.998873, 9.999671 
1.174807e+3, 1.4476646e+2, -1661389.3, -1606821.6, 67811.26, 0.104267925, -0.05806213, -1561011.1, -39728.117, 0.00031097958, 9.99907, 9.999812 
1.1748313e+3, 1.5476647e+2, -1527444.1, -1499995.3, 48808.813, 0.016128534, -0.068935275, -1463018.0, -39735.26, 0.00003785508, 9.999355, 9.999738 
1.1748551e+3, 1.6476671e+2, -1429318.1, -1459928.6, -41997.438, -0.05719252, 0.01851231, -1399924.0, -74642.1, 0.00000010132158, 9.9996195, 9.999208 
1.174879e+3, 1.7476714e+2, -1273650.1, -1330658.4, -50388.848, -0.046498224, 0.107622705, -1244261.9, -16980.648, 0.0, 9.999995, 9.9992485 
1.17490344e+3, 1.847665e+2, -1130584.0, -1220606.0, -52555.746, -0.0091325315, 0.13313057, -1106399.0, 22889.273, 0.0, 10.000334, 9.999171 
1.1749283e+3, 1.9476436e+2, -977885.75, -1093843.6, -16188.217, 0.040253907, -0.028635237, -975668.25, 55638.742, 0.0, 10.0007, 9.999193 
1.1749524e+3, 2.0476273e+2, -897904.4, -1070861.3, -40213.875, 0.03416863, -0.07099237, -889011.56, 44309.78, 0.0, 10.000874, 9.998585 
1.17497586e+3, 2.1476144e+2, -805128.75, -974950.1, -29687.791, -0.010175007, -0.091394015, -800088.44, 35244.973, 0.0, 10.000831, 9.998596 
1.175e+3, 2.247603e+2, -678004.94, -819866.7, -24104.28, -0.01827892, -0.071037926, -674021.1, 63322.137, 0.0, 10.000851, 9.9989805 
1.175025e+3, 2.3475918e+2, -561974.44, -704987.06, -16983.268, 0.008487528, -0.11181516, -559985.25, 79367.484, 0.0, 10.000942, 9.99905 
1.17505014e+3, 2.4475817e+2, -463746.53, -628819.5, -1663.5468, 0.028794486, -0.09895783, -463729.78, 77632.016, 0.0, 10.001018, 9.998867 
1.1750755e+3, 2.5475705e+2, -349417.03, -511377.06, 54332.813, 0.04435576, -0.13540733, -332878.75, 110494.05, 0.0, 10.001086, 9.998962 
1.1750996e+3, 2.6475608e+2, -278197.06, -473661.75, -5925.7485, 0.033537686, -0.09812766, -278017.6, 67364.24, 0.0000005132723, 10.001115, 9.998542 
1.17512204e+3, 2.7475494e+2, -173142.06, -370824.06, 23572.979, -0.03585516, -0.093013436, -170369.94, 77022.35, 0.000009286575, 10.001159, 9.998553 
1.1751461e+3, 2.8475344e+2, -81847.08, -389971.3, 125559.516, -0.08439584, -0.0387035, -37162.3, 112245.73, 0.000051726838, 10.001587, 9.99754 
1.17517225e+3, 2.947513e+2, 152526.19, -215742.53, 142389.56, -0.09407023, -0.048764125, 201158.34, 252589.88, 0.00018255804, 10.002472, 9.997635 
1.1751981e+3, 3.047487e+2, 278842.75, -111732.37, 14831.222, -0.009772768, -0.06919129, 279405.13, 279405.13, 0.00047999644, 10.002971, 9.997776 
1.1752234e+3, 3.1474698e+2, 297898.2, -25637.566, 39753.348, 0.1421725, -0.051649347, 302711.16, 302711.16, 0.0009686636, 10.002701, 9.9985 
1.1847515e+3, 1.2474128e+2, -2164871.3, -1971328.9, -154529.22, -0.14044684, -0.14464115, -1885770.9, -168248.02, 0.0020081834, 9.997029, 9.999647 
1.1847799e+3, 1.3474183e+2, -1757233.9, -1755311.4, -27898.748, 0.08108414, -0.053701982, -1728357.4, -108836.39, 0.0010574218, 9.999312, 9.999377 
1.1848064e+3, 1.4474115e+2, -1524427.3, -1575565.3, -39186.848, 0.09621894, -0.056143865, -1503205.5, 18324.336, 0.00035351914, 10.000157, 9.999503 
1.184831e+3, 1.5474102e+2, -1502765.1, -1515720.5, -85717.086, 0.040822007, -0.051246118, -1423281.4, 251.02626, 0.00004562391, 9.999661, 9.999477 
1.18485495e+3, 1.6474098e+2, -1428027.9, -1459903.4, -85868.22, -0.014773428, 0.023925737, -1356630.8, -31096.658, 0.00000019883093, 9.999624, 9.999218 
1.1848792e+3, 1.7474093e+2, -1245596.0, -1309237.0, -71146.875, -0.026828548, 0.06074315, -1199478.0, 28058.613, 0.0, 10.000157, 9.999316 
1.18490405e+3, 1.8474028e+2, -1114484.5, -1206182.8, -42573.832, 0.018156137, 0.07799297, -1097766.3, 31777.027, 0.0, 10.00042, 9.999226 
1.18492946e+3, 1.9473861e+2, -1009967.44, -1098539.3, -71679.055, 0.10535905, -0.04248567, -969997.0, 61561.29, 0.0, 10.000441, 9.99928 
1.1849536e+3, 2.047373e+2, -934794.3, -1072816.8, -77580.33, 0.09423394, -0.063175954, -899972.7, 33597.195, 0.0, 10.000545, 9.998743 
1.18497655e+3, 2.147361e+2, -804071.2, -949982.3, -74571.16, -0.002696849, -0.087002024, -772703.4, 62877.37, 0.0, 10.000742, 9.998812 
1.18500076e+3, 2.2473511e+2, -720650.94, -856098.7, -33754.375, -0.013332615, -0.05927385, -712705.25, 24884.79, 0.0, 10.000624, 9.998839 
1.1850259e+3, 2.3473403e+2, -690643.3, -785031.8, -46948.566, 0.059224807, -0.08190081, -671268.3, -31667.652, 0.0, 10.000127, 9.998894 
1.18505105e+3, 2.44733e+2, -593234.06, -653136.4, -9821.197, 0.08090867, -0.07992324, -591665.0, -50055.227, 0.0, 9.999974, 9.999202 
1.185076e+3, 2.547317e+2, -449069.44, -529440.06, -40275.49, 0.048014577, -0.15840745, -432360.34, 11260.05, 0.0, 10.000274, 9.999237 
1.1851004e+3, 2.647308e+2, -306038.8, -493359.06, -109519.46, 0.014289142, -0.12478084, -255592.27, 90036.25, 0.0000005059796, 10.000962, 9.998472 
1.1851234e+3, 2.7473003e+2, -51475.59, -325520.84, -150507.31, -0.04496812, -0.07504167, 15039.62, 262676.44, 0.000009353779, 10.002055, 9.998432 
1.1851483e+3, 2.847286e+2, 19664.346, -307834.75, -45521.258, -0.045798875, -0.022664838, 25873.908, 175525.5, 0.000051580555, 10.002156, 9.997823 
1.1851754e+3, 2.9472622e+2, -20888.447, -268895.53, -37230.69, 0.05229298, -0.07548308, -15419.975, 36254.816, 0.00018437536, 10.001162, 9.997895 
1.18520126e+3, 3.0472338e+2, 46845.08, -231182.69, -77831.29, 0.113607205, -0.13097598, 67150.27, 67150.27, 0.0004810056, 10.001385, 9.9977255 
1.1852253e+3, 3.147223e+2, 277733.66, -42623.86, -38590.645, 0.09873151, -0.04462968, 282316.78, 282316.78, 0.0009623852, 10.002564, 9.998456 
1.19475015e+3, 1.2471514e+2, -2080074.5, -1786922.6, -44970.086, -0.04375023, 0.06481113, -1780179.3, -62390.69, 0.0022081332, 9.996991, 10.000924 
1.1947796e+3, 1.3471441e+2, -1689691.9, -1620330.6, 65864.25, 0.09144081, -0.06667482, -1580574.4, 39216.637, 0.0011730703, 9.999321, 10.0002985 
1.1948052e+3, 1.4471343e+2, -1537104.4, -1604622.1, -76592.05, -0.08267406, -0.13800767, -1487161.4, 34638.313, 0.00040013902, 10.000172, 9.999296 
1.19482934e+3, 1.5471356e+2, -1511687.3, -1546072.3, -92429.586, -0.112507075, -0.08254998, -1434864.8, -11063.7, 0.00005450229, 9.9997015, 9.999253 
1.1948542e+3, 1.6471316e+2, -1368820.8, -1340223.6, -87367.74, -0.07756065, -0.07543753, -1265992.1, 59812.37, 0.00000035173326, 9.999633, 10.000037 
1.1948806e+3, 1.7471187e+2, -1193497.4, -1195288.5, -39196.56, 0.074446276, -0.2433034, -1155186.1, 72626.55, 0.0, 10.000125, 10.000119 
1.1949058e+3, 1.847116e+2, -1149965.3, -1267282.3, -56760.47, 0.12911494, -0.20684001, -1126999.1, 2816.3948, 0.0, 10.00037, 9.99883 
1.1949298e+3, 1.9471233e+2, -1055909.8, -1170223.4, -57967.895, 0.0748245, -0.04705555, -1031659.06, 155.11288, 0.0, 10.000334, 9.998843 
1.1949538e+3, 2.0471208e+2, -924128.56, -1017593.1, -87995.26, 0.03782491, 0.038725454, -871226.1, 62592.527, 0.0, 10.000407, 9.999185 
1.1949779e+3, 2.1471046e+2, -798654.6, -896535.06, -54212.477, 0.031781737, -0.07508202, -774559.6, 61273.09, 0.0, 10.00056, 9.999266 
1.195002e+3, 2.247096e+2, -749130.5, -870625.56, -67725.15, 0.03665055, -0.055156704, -718900.25, 18940.557, 0.0, 10.000433, 9.998829 
1.1950261e+3, 2.3470938e+2, -717819.3, -797455.2, -54654.586, 0.05499023, 0.0070025735, -690016.3, -50171.938, 0.0, 9.999943, 9.998893 
1.1950506e+3, 2.4470839e+2, -648451.2, -731224.94, -16028.335, 0.019423738, 0.03493369, -645455.8, -103601.76, 0.0, 9.99981, 9.998751 
1.1950752e+3, 2.5470623e+2, -502329.2, -601208.3, -14323.94, -0.08171807, -0.08417926, -500296.0, -56422.523, 0.0, 10.00011, 9.998822 
1.19510025e+3, 2.6470459e+2, -376760.53, -605451.44, -81519.64, -0.10946878, -0.07177261, -350676.88, -4786.5327, 0.0000006389743, 10.000808, 9.997782 
1.1951256e+3, 2.7470323e+2, -113675.36, -423921.72, -91681.516, -0.058724895, -0.012059685, -88607.805, 159298.69, 0.000009301616, 10.001926, 9.997817 
1.1951515e+3, 2.8470162e+2, 43180.316, -239267.77, -91871.41, 0.030221349, 0.03118291, 70433.53, 220356.0, 0.00005191434, 10.002063, 9.998343 
1.1951781e+3, 2.9469928e+2, 5247.6846, -201468.5, -51047.53, 0.1683603, -0.08185612, 17166.414, 69109.28, 0.00018470343, 10.00109, 9.998399 
1.1952036e+3, 3.0469662e+2, 67585.414, -149811.5, -39690.734, 0.18948525, -0.17054439, 74605.19, 74605.19, 0.0004730737, 10.001233, 9.99835 
1.1952269e+3, 3.146964e+2, 292182.53, 39030.23, 56675.87, -0.058826204, -0.06552732, 304291.9, 304291.9, 0.0009339275, 10.002349, 9.999116 
1.2047494e+3, 1.2468691e+2, -1671783.9, -1534621.1, 45665.383, 0.073535256, 0.103564836, -1520808.8, 197260.39, 0.0024257244, 9.999564, 10.001428 
1.2047781e+3, 1.3468614e+2, -1797324.3, -1602096.4, 14276.753, 0.08066062, -0.08578892, -1601057.9, 19011.781, 0.0012988481, 9.9983015, 10.000913 
1.20480396e+3, 1.446858e+2, -1812305.5, -1679630.3, -82086.35, -0.10630392, -0.14683037, -1640427.1, -118357.24, 0.00045139206, 9.998022, 9.999824 
1.204829e+3, 1.5468638e+2, -1541436.4, -1497482.4, -78686.96, -0.08820582, -0.10679247, -1437761.0, -13695.139, 0.00006471426, 9.999225, 9.999818 
1.2048544e+3, 1.6468619e+2, -1329631.3, -1315867.5, -38849.656, -0.03553109, -0.10721124, -1283295.0, 42771.508, 0.00000057087306, 9.999888, 10.00007 
1.2048808e+3, 1.746849e+2, -1197610.0, -1190333.5, -83311.84, 0.082363, -0.27861187, -1110580.5, 117494.76, 0.0, 10.000084, 10.000159 
1.204906e+3, 1.8468472e+2, -1180116.5, -1282207.4, -99352.88, 0.13470118, -0.23609285, -1119463.1, 10614.789, 0.0, 10.000165, 9.998822 
1.2049303e+3, 1.9468555e+2, -1077940.3, -1174658.8, -94337.46, 0.10952472, -0.066594526, -1020289.25, 11786.8, 0.0, 10.000165, 9.998882 
1.20495446e+3, 2.0468564e+2, -936791.5, -1004273.6, -79132.4, 0.08787615, 0.040592603, -884507.0, 49570.918, 0.0, 10.000227, 9.999361 
1.2049787e+3, 2.1468455e+2, -809879.3, -883757.3, -97774.61, 0.07666385, -0.039002456, -742298.6, 93789.0, 0.0, 10.000386, 9.99944 
1.2050027e+3, 2.2468376e+2, -731739.6, -866686.4, -104536.47, 0.067753285, -0.01807814, -674792.2, 63303.125, 0.0, 10.000569, 9.998796 
1.2050266e+3, 2.3468311e+2, -599326.1, -746076.25, -120371.484, 0.06786106, 0.008971645, -531728.9, 108374.24, 0.0, 10.000781, 9.998848 
1.205051e+3, 2.4468216e+2, -504455.88, -657917.94, -35554.99, 0.035800748, 0.04287393, -496618.53, 45493.85, 0.0, 10.000793, 9.998766 
1.2050758e+3, 2.5468054e+2, -434799.13, -569949.1, -31390.674, -0.054484114, -0.026889833, -427864.03, 16262.838, 0.00000000020898414, 10.000577, 9.998806 
1.20510116e+3, 2.6467872e+2, -379623.1, -611979.6, 1052.3112, -0.07829882, -0.028415868, -379618.34, -33473.17, 0.00000074892756, 10.000806, 9.997734 
1.2051275e+3, 2.7467647e+2, -172397.02, -458480.5, 6525.436, -0.025224354, -0.053313233, -172248.25, 75921.29, 0.000009032264, 10.001538, 9.997763 
1.20515384e+3, 2.846749e+2, 28314.963, -217571.73, -11589.642, 0.074063845, -0.016654508, 28860.023, 179044.94, 0.000052136886, 10.001845, 9.998595 
1.2051799e+3, 2.9467374e+2, 86687.14, -131435.27, -33652.66, 0.22822501, -0.03400504, 91761.16, 143955.25, 0.0001849306, 10.00154, 9.998655 
1.2052057e+3, 3.0467135e+2, 177464.9, -64989.13, 47551.66, 0.24716711, -0.12551318, 186457.52, 186457.52, 0.0004665325, 10.001856, 9.998627 
1.20522924e+3, 3.1467074e+2, 326246.53, 115663.64, 65833.55, -0.045197185, -0.08864348, 345133.78, 345133.78, 0.00090606173, 10.002363, 9.999618 
1.2147499e+3, 1.24656044e+2, -1698747.6, -1582691.0, 11488.585, 0.10653826, -0.09522637, -1581564.6, 136804.81, 0.0026624324, 9.999569, 10.001081 
1.2147753e+3, 1.3465706e+2, -1794001.1, -1586126.3, -30608.291, -0.059938956, -0.114044026, -1581713.0, 38643.08, 0.0014356553, 9.998273, 10.001037 
1.2148025e+3, 1.4465848e+2, -1719103.6, -1473937.0, -58902.746, -0.09245862, -0.07839147, -1460519.6, 61819.516, 0.0005075534, 9.9979725, 10.001257 
1.2148293e+3, 1.5465946e+2, -1445370.3, -1295830.9, -14791.564, 0.006669755, -0.13696082, -1294381.9, 129944.34, 0.000076397075, 9.9992075, 10.001215 
1.2148549e+3, 1.6466011e+2, -1386933.0, -1431094.5, -45170.87, -0.012068687, -0.08885461, -1358734.9, -32414.957, 0.0000008702971, 9.999882, 9.999276 
1.214879e+3, 1.7466015e+2, -1266298.4, -1322143.8, -63079.73, -0.117385276, -0.039147504, -1225237.5, 3085.7385, 0.0, 10.000038, 9.999277 
1.2149042e+3, 1.846597e+2, -1150613.1, -1211148.1, -115893.414, -0.09127182, -0.002739597, -1061100.0, 69229.734, 0.0, 10.000122, 9.999331 
1.2149304e+3, 1.946584e+2, -1055555.4, -1105759.6, -81265.51, 0.085429825, -0.1001484, -995603.44, 36739.367, 0.0, 10.000065, 9.999407 
1.2149553e+3, 2.0465803e+2, -966043.06, -1031907.44, -90617.64, 0.12724948, -0.05941001, -902559.0, 31788.307, 0.0, 10.000086, 9.999236 
1.2149786e+3, 2.1465847e+2, -848012.25, -913834.25, -80422.17, 0.0147776855, 0.025961064, -794027.56, 42316.82, 0.0, 10.0001745, 9.999332 
1.21500246e+3, 2.2465771e+2, -764416.9, -890964.5, -113129.164, -0.03298013, 0.057416935, -698069.0, 40283.406, 0.0, 10.000375, 9.998727 
1.21502675e+3, 2.3465538e+2, -626003.1, -763924.9, -98424.086, -0.007097872, -0.07867885, -574785.4, 65589.9, 0.0, 10.000612, 9.998808 
1.2150518e+3, 2.446544e+2, -509853.22, -619421.8, -55918.04, 0.009962875, -0.06361897, -486355.03, 56029.035, 0.0, 10.000584, 9.999129 
1.2150773e+3, 2.5465468e+2, -430114.34, -525126.75, -26228.959, 0.018115262, 0.017348718, -423354.56, 21025.277, 0.00000000018849695, 10.000426, 9.999184 
1.21510305e+3, 2.6465333e+2, -362046.47, -543483.25, 13067.14, -0.0069214175, 0.015777927, -361110.22, -14718.057, 0.00000061447383, 10.000663, 9.998278 
1.2151289e+3, 2.746497e+2, -149576.52, -385718.84, 50062.703, -0.06872884, -0.20010513, -139401.53, 109024.98, 0.000008322687, 10.001419, 9.998325 
1.2151547e+3, 2.8464842e+2, -9779.406, -249182.34, -34082.29, -0.038195282, -0.16201507, -5021.869, 145417.7, 0.000050710027, 10.001655, 9.9984665 
1.2151807e+3, 2.946495e+2, 64932.0, -152845.11, -23933.242, 0.11064231, 0.062138412, 67531.19, 119961.36, 0.00018357177, 10.001441, 9.998554 
1.21520706e+3, 3.0464727e+2, 146428.83, -98357.34, 55367.625, 0.17757285, 0.0034155673, 158369.81, 158369.81, 0.00046227945, 10.00173, 9.998461 
1.2152316e+3, 3.1464475e+2, 317486.8, 146929.84, 121614.02, -0.109521285, -0.13432053, 380742.47, 380742.47, 0.00088881893, 10.002156, 9.999933 
1.2247495e+3, 1.2462851e+2, -1738534.5, -1672280.8, 153873.23, 0.13813944, -0.14011052, -1548008.9, 170626.5, 0.0029179724, 9.999547, 10.000498 
1.2247735e+3, 1.3463014e+2, -1623318.6, -1532204.1, 41396.5, -0.098537505, -0.07308207, -1516205.5, 104414.336, 0.0015834377, 9.999553, 10.000798 
1.224802e+3, 1.4463167e+2, -1527612.0, -1360274.9, 28908.023, 0.0131194, -0.022802712, -1355421.6, 167181.19, 0.00056846405, 9.999204, 10.001438 
1.2248291e+3, 1.5463246e+2, -1488075.3, -1282534.8, -55815.8, 0.084530495, -0.12742232, -1268355.8, 156234.48, 0.00008951281, 9.9987955, 10.001486 
1.2248546e+3, 1.6463313e+2, -1529453.6, -1531156.6, -70608.78, 0.03401406, -0.08165248, -1459691.1, -133106.95, 0.0000012652538, 9.999004, 9.999036 
1.2248788e+3, 1.7463338e+2, -1293171.5, -1360372.6, -65745.06, -0.12571304, 0.016068593, -1252938.4, -24350.676, 0.0, 9.999944, 9.999074 
1.22490406e+3, 1.8463308e+2, -1094290.8, -1141183.9, -92660.22, -0.11230997, 0.05808155, -1022156.7, 108436.16, 0.0, 10.000313, 9.999729 
1.2249305e+3, 1.9463179e+2, -1017866.0, -1042051.4, -100808.2, 0.09285382, -0.07881155, -928427.8, 104175.62, 0.0, 10.000121, 9.999827 
1.22495554e+3, 2.0463127e+2, -963592.3, -1041058.94, -71935.805, 0.14803979, -0.06811937, -920624.8, 13983.161, 0.0, 10.000152, 9.999142 
1.224979e+3, 2.1463142e+2, -823181.8, -914322.9, -88698.45, 0.027362132, 0.0015404599, -769032.3, 67575.57, 0.0, 10.000412, 9.999212 
1.2250031e+3, 2.2463058e+2, -709800.3, -847954.56, -81976.75, -0.018473277, 0.022563638, -671677.44, 66939.11, 0.0, 10.000673, 9.998878 
1.22502774e+3, 2.3462832e+2, -572380.6, -723940.2, -86904.92, 0.015195082, -0.12016956, -532856.25, 107781.83, 0.0, 10.000914, 9.998941 
1.22505285e+3, 2.4462743e+2, -431452.1, -596900.7, -32140.066, 0.043370415, -0.09788286, -425427.9, 117218.75, 0.0, 10.001169, 9.999013 
1.2250786e+3, 2.5462782e+2, -289434.44, -467607.3, -65447.348, 0.06358415, 0.0086543625, -267977.9, 176664.84, 0.0, 10.001438, 9.999092 
1.2251045e+3, 2.6462683e+2, -211234.81, -420521.9, -13950.76, 0.0477814, 0.025327105, -210308.97, 136342.9, 0.0000003685213, 10.001502, 9.998706 
1.2251306e+3, 2.746238e+2, -146487.45, -330924.7, -19255.799, -0.02088489, -0.17588916, -144498.55, 104180.63, 0.0000073761885, 10.001249, 9.998763 
1.2251561e+3, 2.8462252e+2, -57561.76, -295513.4, -85538.46, -0.032738116, -0.1473802, -30004.059, 120687.35, 0.000049087277, 10.0014, 9.998275 
1.2251814e+3, 2.9462308e+2, 108135.234, -161006.33, -109444.59, 0.04121805, 0.043329723, 147021.7, 199709.86, 0.00018153466, 10.001845, 9.998312 
1.22520864e+3, 3.0462083e+2, 167137.6, -147185.83, -10254.039, 0.1542214, 0.017212212, 167471.75, 167471.75, 0.00045750884, 10.002125, 9.997927 
1.2252349e+3, 3.1461802e+2, 257821.11, 85137.02, -34172.137, 0.041773863, -0.09266126, 264337.47, 264337.47, 0.0008771935, 10.001845, 9.999664 
1.2347473e+3, 1.2460356e+2, -1772986.3, -1759932.1, 15878.509, -0.10108321, -0.12492545, -1749291.5, -30417.414, 0.0031899144, 9.999604, 9.9998665 
1.2347726e+3, 1.3460554e+2, -1652820.4, -1611861.9, 51039.344, -0.18580312, 0.029277066, -1577346.5, 43512.34, 0.0017411282, 9.999612, 10.000224 
1.234802e+3, 1.446054e+2, -1600211.3, -1525677.6, -4192.4546, 0.05840563, -0.004351236, -1525442.5, -2581.3394, 0.0006337289, 9.999261, 10.00028 
1.23482764e+3, 1.5460528e+2, -1567244.8, -1453936.9, -62762.13, 0.028305763, -0.078141205, -1426040.5, -1181.3566, 0.00010392506, 9.998809, 10.000314 
1.2348534e+3, 1.6460507e+2, -1490707.3, -1450309.6, -58490.117, -0.01714878, -0.08492005, -1408628.8, -81767.9, 0.0000017603737, 9.9990015, 9.99959 
1.2348798e+3, 1.7460454e+2, -1253727.3, -1278274.6, -18978.637, -0.058711424, -0.12800747, -1243399.4, -14530.317, 0.0, 9.99993, 9.999648 
1.2349054e+3, 1.8460476e+2, -1085252.9, -1112593.1, -113353.49, -0.04721619, -0.072969116, -984748.2, 146119.73, 0.0, 10.000271, 9.999946 
1.23493016e+3, 1.9460566e+2, -1015776.75, -1016470.06, -94227.016, 0.016562754, -0.012013434, -921895.75, 110962.28, 0.0, 10.000024, 10.0000515 
1.2349548e+3, 2.0460539e+2, -991172.2, -1060129.5, -80688.73, 0.037772708, 0.012627293, -937904.4, -3044.6777, 0.0, 9.999991, 9.999088 
1.2349794e+3, 2.1460348e+2, -854195.1, -939617.2, -65114.04, 0.0070586773, -0.11716894, -819034.0, 17843.463, 0.0, 10.000238, 9.999125 
1.235004e+3, 2.2460239e+2, -716156.3, -819809.44, -86272.83, -0.0008933855, -0.12996787, -667340.0, 71547.69, 0.0, 10.00049, 9.999163 
1.2350288e+3, 2.3460199e+2, -578296.8, -695755.25, -60832.945, 0.019149704, -0.116663486, -552469.7, 88421.68, 0.0, 10.000731, 9.999227 
1.23505384e+3, 2.4460131e+2, -497282.03, -687942.2, -35951.24, 0.00531526, -0.060996912, -490728.28, 52171.324, 0.0, 10.000974, 9.998482 
1.23507924e+3, 2.5460005e+2, -349239.47, -557592.94, -39989.004, -0.0348303, -0.067477405, -341828.06, 103087.32, 0.0, 10.001283, 9.998554 
1.2351055e+3, 2.645992e+2, -226444.98, -403442.8, -34610.926, -0.032185286, -0.013378699, -219917.72, 127006.74, 0.00000016286783, 10.001298, 9.998921 
1.2351323e+3, 2.7459863e+2, -153116.67, -308374.28, -10271.958, 0.0035941084, 0.004112878, -152440.02, 96488.484, 0.000006622681, 10.001094, 9.998993 
1.23515785e+3, 2.8459722e+2, -97111.89, -336469.53, -78724.35, -0.0323966, 0.016885666, -73540.78, 77400.61, 0.000048750662, 10.001229, 9.9980755 
1.2351819e+3, 2.9459453e+2, 74046.6, -203664.66, -68561.05, -0.12798718, -0.095819294, 90050.59, 143018.38, 0.00018217463, 10.0017185, 9.998085 
1.2352097e+3, 3.0459195e+2, 80171.29, -295966.5, -22952.297, 0.029324556, -0.093433194, 81566.69, 81566.69, 0.00045752534, 10.00199, 9.996968 
1.2352385e+3, 3.145904e+2, 166709.52, -52189.766, -10144.6, 0.15431651, 0.016894374, 167178.64, 167178.64, 0.000874485, 10.001631, 9.998819 
1.244747e+3, 1.2457745e+2, -1920692.0, -1818944.6, -100617.61, -0.0302656, -0.10028202, -1757070.6, -37940.777, 0.003475539, 9.998578, 9.999929 
1.2447721e+3, 1.3457885e+2, -1765869.0, -1710348.4, -34679.383, -0.15126671, 0.033343695, -1693686.9, -72567.22, 0.0019075654, 9.999031, 9.999824 
1.2448011e+3, 1.4457771e+2, -1623766.6, -1595730.5, -36268.926, 0.044219382, -0.05336655, -1570864.9, -47732.895, 0.0007030745, 9.999347, 9.999763 
1.2448269e+3, 1.5457743e+2, -1469765.8, -1472938.3, -78832.086, 0.048272166, -0.08780843, -1392503.9, 32628.885, 0.00011956255, 9.999743, 9.999744 
1.2448531e+3, 1.6457728e+2, -1370863.0, -1323963.9, -12268.807, 0.029072434, -0.089011505, -1320948.3, 6185.2817, 0.0000023468863, 9.999548, 10.000183 
1.2448797e+3, 1.7457706e+2, -1370118.4, -1261541.1, -2561.5686, 0.007148939, -0.16210598, -1261480.8, -32344.932, 0.0, 9.998838, 10.000277 
1.2449054e+3, 1.8457738e+2, -1287711.5, -1241092.9, -72998.48, 0.004943025, -0.1181744, -1187772.5, -56639.656, 0.0, 9.99902, 9.9996605 
1.2449302e+3, 1.9457802e+2, -1003785.56, -1049507.1, -120690.66, 0.013582903, -0.05187854, -903809.6, 129317.125, 0.0, 10.000272, 9.999703 
1.244955e+3, 2.0457765e+2, -852572.9, -967649.75, -107032.74, 0.021310732, -0.029950805, -788593.1, 146536.34, 0.0, 10.000818, 9.999326 
1.2449799e+3, 2.1457592e+2, -801586.44, -880780.56, -97959.8, 0.034270972, -0.17105152, -735523.44, 101620.914, 0.0, 10.000451, 9.999423 
1.24500476e+3, 2.2457507e+2, -738626.75, -835484.94, -77868.29, 0.042152908, -0.17163026, -695356.06, 43795.805, 0.0, 10.000376, 9.9991 
1.24502964e+3, 2.3457494e+2, -591836.56, -705514.4, -110007.0, 0.043487646, -0.12479674, -524852.2, 116302.03, 0.0, 10.000673, 9.999174 
1.2450547e+3, 2.4457425e+2, -524833.4, -704748.25, -57041.94, 0.010926272, -0.06633585, -508272.66, 34890.438, 0.0, 10.000808, 9.998444 
1.2450799e+3, 2.5457266e+2, -434491.38, -601574.5, -52895.848, -0.05723066, -0.09864786, -419153.38, 26028.191, 0.0, 10.000724, 9.998514 
1.2451061e+3, 2.6457196e+2, -317022.4, -435577.53, -16711.807, -0.04648372, -0.03862459, -314711.7, 32478.2, 0.000000050542315, 10.000603, 9.999041 
1.2451333e+3, 2.7457193e+2, -246319.86, -345451.8, -31247.596, 0.041648466, 0.023850085, -237292.33, 11896.923, 0.0000061370592, 10.000391, 9.999094 
1.2451592e+3, 2.845705e+2, -186863.64, -360956.8, -33365.117, 0.03168256, 0.022891108, -180688.25, -29486.207, 0.000049451548, 10.000544, 9.998233 
1.2451837e+3, 2.945671e+2, -3968.0903, -216239.1, -32062.855, -0.07224323, -0.17287305, 769.1793, 54002.504, 0.00018750013, 10.001099, 9.998283 
1.2452118e+3, 3.045651e+2, 15263.936, -364507.75, 73297.31, 0.06695642, -0.11205163, 28919.56, 28919.56, 0.000470274, 10.001677, 9.996668 
1.24524035e+3, 3.145634e+2, 217229.1, -69251.46, 72357.24, 0.16218933, 0.015453849, 234467.31, 234467.31, 0.00089436676, 10.002152, 9.998462 
1.2547468e+3, 1.2455093e+2, -1850886.4, -1686715.0, -157070.67, 0.023644552, 0.0059418613, -1591574.1, 127821.555, 0.0037739007, 9.998615, 10.000828 
1.254772e+3, 1.3455011e+2, -1777702.4, -1739078.8, -7115.0547, -0.08205923, -0.06588232, -1737809.8, -116407.445, 0.0020822603, 9.999045, 9.999622 
1.2547988e+3, 1.4454871e+2, -1610786.4, -1573149.5, -38747.027, -0.15537313, -0.17337269, -1548892.8, -25478.268, 0.0007764397, 9.999363, 9.999908 
1.2548266e+3, 1.5454906e+2, -1453704.1, -1446103.5, -49308.18, 0.015463354, -0.16491376, -1400449.4, 24960.385, 0.00013646827, 9.99977, 9.999914 
1.2548532e+3, 1.6454987e+2, -1333421.3, -1252348.3, -56479.32, 0.059284702, -0.09987172, -1223364.1, 104036.25, 0.0000030208696, 9.999568, 10.000669 
1.2548785e+3, 1.7455114e+2, -1335368.0, -1183367.4, -18366.28, -0.029445564, -0.07826211, -1181179.6, 48206.273, 0.0, 9.998807, 10.00083 
1.2549041e+3, 1.8455102e+2, -1348521.6, -1354744.6, -44912.887, -0.06203917, -0.07474597, -1306612.6, -175225.64, 0.0, 9.998962, 9.998911 
1.2549302e+3, 1.945488e+2, -1072658.3, -1174376.8, -59548.164, -0.032415584, -0.21004963, -1045206.3, -11796.478, 0.0, 10.000189, 9.998887 
1.2549555e+3, 2.0454802e+2, -837587.56, -899885.1, -134016.81, -0.0129179815, -0.21239547, -731147.25, 204270.06, 0.0, 10.000664, 9.999868 
1.2549801e+3, 2.1454875e+2, -789392.5, -809548.3, -98153.4, -0.008828621, -0.16419722, -700800.94, 136607.19, 0.0, 10.000252, 10.000013 
1.2550047e+3, 2.2454861e+2, -796996.56, -907152.4, -82872.055, -0.016787082, -0.10574709, -752568.94, -13159.173, 0.0, 10.000164, 9.998707 
1.2550297e+3, 2.345472e+2, -648121.56, -783390.3, -84948.0, -0.026795221, -0.14678474, -607171.5, 34255.254, 0.0, 10.000501, 9.998725 
1.2550549e+3, 2.4454626e+2, -519561.5, -652958.1, -74360.62, -0.05825076, -0.1093168, -486369.03, 57068.047, 0.0, 10.000631, 9.998884 
1.2550803e+3, 2.5454566e+2, -429377.63, -552015.75, -41540.516, -0.11911713, -0.08998375, -416631.6, 28810.506, 0.0, 10.000548, 9.998941 
1.2551062e+3, 2.645449e+2, -344134.03, -447957.66, -39011.246, -0.11699557, -0.05635716, -331109.63, 16339.853, 0.00000007625481, 10.000415, 9.999044 
1.2551332e+3, 2.7454367e+2, -265960.9, -353076.66, -21397.59, -0.035999436, -0.11570433, -260988.94, -11527.028, 0.0000061507535, 10.000245, 9.999112 
1.25516e+3, 2.845424e+2, -174621.66, -309102.4, -26376.871, 0.02173348, -0.12124266, -169633.17, -18159.994, 0.000051588533, 10.000427, 9.998642 
1.2551865e+3, 2.945408e+2, 12586.186, -161746.17, 5095.693, 0.0688723, -0.18754232, 12735.004, 66220.83, 0.00020006, 10.001006, 9.998701 
1.2552144e+3, 3.0454007e+2, 21514.072, -329062.63, 77954.73, 0.13932471, -0.036269724, 38066.66, 38066.66, 0.00050364056, 10.00158, 9.996954 
1.2552395e+3, 3.1453684e+2, 172423.56, -103916.9, 123260.46, -0.19225627, -0.089878514, 219413.14, 219413.14, 0.00095293473, 10.001899, 9.998346 
1.2647453e+3, 1.24522954e+2, -1903017.0, -1662113.4, -55544.12, 0.06836722, -0.020570176, -1649923.5, 69747.87, 0.004085261, 9.998051, 10.00129 
1.2647726e+3, 1.3452199e+2, -1695839.1, -1669658.8, 27520.582, 0.0627614, -0.11822455, -1652273.8, -30597.156, 0.0022650692, 9.999511, 9.99987 
1.2647986e+3, 1.4452137e+2, -1562997.6, -1523723.6, 5695.1245, -0.11860668, -0.17243768, -1522914.4, 765.22894, 0.00085386867, 9.99958, 10.000141 
1.2648264e+3, 1.5452169e+2, -1630492.6, -1500130.5, -37418.27, 0.07800056, -0.1914531, -1490153.8, -64478.676, 0.00015477135, 9.9984455, 10.000172 
1.2648527e+3, 1.6452238e+2, -1528375.4, -1394526.4, -14575.658, 0.12757066, -0.12867735, -1392957.6, -65290.39, 0.0000038088367, 9.998443, 10.000231 
1.2648776e+3, 1.7452341e+2, -1192529.9, -1171644.8, -82430.6, -0.022117658, -0.08356226, -1098997.9, 130658.88, 0.0, 10.00003, 10.000326 
1.2649034e+3, 1.8452318e+2, -1117113.0, -1211317.1, -95776.73, -0.07106672, -0.0759153, -1057482.8, 74175.87, 0.0, 10.00041, 9.999196 
1.2649302e+3, 1.9452114e+2, -1169796.9, -1183919.5, -57281.824, -0.0070365462, -0.22416511, -1119142.8, -85464.8, 0.0, 9.999371, 9.99921 
1.264956e+3, 2.0452045e+2, -1086753.1, -1048636.3, -84624.3, 0.039063133, -0.22499892, -980950.9, -45265.86, 0.0, 9.99908, 9.999604 
1.2649806e+3, 2.14521e+2, -890511.1, -890938.75, -148043.33, 0.053262707, -0.16462566, -742681.44, 94998.68, 0.0, 9.9997, 9.999714 
1.2650053e+3, 2.2452095e+2, -755935.4, -875874.94, -105203.02, 0.009332343, -0.08953479, -694809.94, 44872.293, 0.0, 10.000373, 9.998834 
1.2650298e+3, 2.3451999e+2, -558402.2, -721899.4, -88200.87, -0.094803594, -0.097911164, -519891.8, 121802.086, 0.0, 10.001024, 9.998901 
1.265055e+3, 2.4451904e+2, -439197.22, -588578.3, -67426.86, -0.13328958, -0.084686734, -413264.4, 130438.32, 0.0, 10.001057, 9.999128 
1.2650809e+3, 2.545178e+2, -438610.44, -529731.75, -80244.46, -0.090158336, -0.15227416, -391894.63, 53816.52, 0.0, 10.000354, 9.999197 
1.2651071e+3, 2.645167e+2, -413408.9, -515788.56, -49899.887, -0.046776585, -0.14522047, -393111.7, -45390.734, 0.00000015326442, 10.000098, 9.998733 
1.2651336e+3, 2.745156e+2, -270994.94, -388648.94, -92104.875, -0.0052216416, -0.16213162, -220533.67, 29201.361, 0.0000068361555, 10.000364, 9.998804 
1.2651604e+3, 2.845144e+2, -127761.73, -282632.75, -75189.15, 0.024403058, -0.14373997, -97263.62, 54483.23, 0.000055437977, 10.000722, 9.99869 
1.2651876e+3, 2.94513e+2, 70943.37, -127015.5, -100910.16, 0.06489974, -0.19186206, 113313.81, 167071.77, 0.00021969865, 10.001373, 9.99877 
1.265216e+3, 3.0451292e+2, 83604.266, -201595.38, -18680.295, 0.15500042, -0.020487476, 84822.6, 84822.6, 0.00055760087, 10.001606, 9.997804 
1.2652415e+3, 3.1450987e+2, 57164.797, -117722.81, -2404.7358, -0.10518675, -0.14018458, 57197.855, 57197.855, 0.0010537416, 10.000945, 9.998699 
1.2747426e+3, 1.24494314e+2, -1900745.4, -1669114.8, 90547.26, -0.07055376, -0.11066012, -1637919.9, 82028.94, 0.0044096503, 9.998097, 10.001215 
1.2747732e+3, 1.3449475e+2, -1658214.9, -1594776.9, 88560.0, 0.15560777, -0.122274116, -1532426.9, 89512.914, 0.0024558255, 9.999513, 10.000386 
1.2747999e+3, 1.4449595e+2, -1532945.4, -1473835.8, -49354.24, 0.0051674256, -0.03724877, -1445863.9, 78060.49, 0.00093550276, 9.999629, 10.000461 
1.2748256e+3, 1.5449551e+2, -1607417.4, -1456434.0, -66701.41, 0.13077685, -0.1633915, -1431188.0, -5261.663, 0.00017466526, 9.998456, 10.000468 
1.2748513e+3, 1.6449484e+2, -1623777.8, -1603123.0, 24717.027, 0.11586637, -0.18686412, -1586662.6, -258728.72, 0.0000047674703, 9.998476, 9.998788 
1.2748775e+3, 1.7449379e+2, -1297414.0, -1395756.5, -8449.968, -0.08400659, -0.19821839, -1296693.3, -66744.02, 0.0, 10.000045, 9.998785 
1.2749034e+3, 1.844939e+2, -1035143.2, -1030205.6, -144706.44, -0.14707243, -0.13410924, -887946.9, 244001.48, 0.0, 10.000368, 10.000457 
1.2749295e+3, 1.9449517e+2, -1084312.1, -984361.06, -82255.12, -0.031216973, -0.09529553, -938089.75, 95840.445, 0.0, 9.999275, 10.000625 
1.2749553e+3, 2.04495e+2, -1183463.6, -1218117.1, -80800.9, 0.05368951, -0.06568794, -1118152.6, -182220.94, 0.0, 9.998942, 9.998508 
1.274981e+3, 2.1449275e+2, -1003841.5, -1083586.8, -112441.87, 0.1067714, -0.16480348, -924411.94, -86452.125, 0.0, 9.99951, 9.998486 
1.2750058e+3, 2.2449216e+2, -737716.3, -787679.75, -95563.27, 0.01024846, -0.1119102, -663923.4, 76045.055, 0.0, 10.000165, 9.999535 
1.2750292e+3, 2.344933e+2, -532874.4, -623296.56, -48247.113, -0.27564237, 0.009249592, -511965.7, 129990.234, 0.0, 10.000828, 9.999672 
1.2750542e+3, 2.4449249e+2, -468441.0, -600462.9, -103973.38, -0.3327438, -0.0015653752, -411293.88, 132666.77, 0.0, 10.000851, 9.999144 
1.2750813e+3, 2.5448918e+2, -460865.22, -536117.9, -89919.84, -0.099099316, -0.2816939, -401016.84, 44970.86, 0.0, 10.000182, 9.999234 
1.2751082e+3, 2.6448762e+2, -485071.94, -626689.7, -54965.85, 0.030441813, -0.296335, -466241.88, -118238.95, 0.00000020123079, 9.99994, 9.998045 
1.2751344e+3, 2.7448773e+2, -348783.13, -510821.2, -63986.54, 0.012468296, -0.11709804, -326562.84, -76554.75, 0.0000077157165, 10.000201, 9.998041 
1.2751605e+3, 2.8448653e+2, -170365.38, -343927.84, -65731.07, -0.07302716, -0.04004226, -148281.75, 3740.8875, 0.000060411407, 10.000603, 9.998325 
1.2751865e+3, 2.9448384e+2, 26831.887, -183271.14, -52354.336, -0.21077125, -0.1896382, 39154.977, 93203.336, 0.00024271311, 10.001224, 9.998455 
1.2752162e+3, 3.044837e+2, 150081.45, -40219.773, -45647.88, -0.010954482, -0.058744494, 160464.56, 160464.56, 0.0006224366, 10.0015, 9.998964 
1.2752455e+3, 3.144831e+2, 60892.74, -47271.266, 3518.395, 0.15581225, -0.06497992, 61007.066, 61007.066, 0.0011818967, 10.000694, 9.999294 
1.2847416e+3, 1.2446566e+2, -1655250.4, -1576478.0, 112372.51, -0.05443248, -0.10696212, -1496789.3, 223437.22, 0.0047468157, 9.999862, 10.001 
1.284772e+3, 1.3446635e+2, -1798474.5, -1609920.4, -5032.7764, 0.14912039, -0.14041881, -1609786.1, 12429.085, 0.0026545508, 9.998303, 10.000856 
1.2847999e+3, 1.4446801e+2, -1801407.0, -1604157.8, -117642.81, 0.14226909, -0.03912391, -1549268.0, -25071.307, 0.0010215283, 9.997812, 10.0004425 
1.284825e+3, 1.5446755e+2, -1470205.3, -1391501.8, -193743.47, 0.19809368, -0.15780894, -1233154.0, 193046.53, 0.00019628371, 9.99941, 10.000458 
1.2848508e+3, 1.6446686e+2, -1395030.8, -1465303.5, -16240.88, 0.15106155, -0.19286214, -1391458.9, -63250.555, 0.0000059623408, 9.999919, 9.999045 
1.284877e+3, 1.7446586e+2, -1409681.1, -1413779.0, 58251.785, -0.07084236, -0.2243735, -1353442.3, -123221.43, 0.0, 9.9991255, 9.999101 
1.2849031e+3, 1.8446606e+2, -1236569.4, -1120674.1, -39486.164, -0.13254912, -0.1712448, -1108499.8, 23718.281, 0.0, 9.998963, 10.000513 
1.2849294e+3, 1.944674e+2, -1013462.1, -943678.1, -112274.55, 0.0066227303, -0.13228063, -860998.75, 173201.06, 0.0, 9.999744, 10.00068 
1.2849551e+3, 2.0446722e+2, -995776.94, -1137117.1, -81399.42, 0.08520216, -0.09698716, -958650.3, -22448.783, 0.0, 10.000272, 9.998429 
1.2849808e+3, 2.1446502e+2, -869403.3, -1025339.8, -52623.566, 0.08867377, -0.1830968, -853306.2, -15076.434, 0.0, 10.000468, 9.998426 
1.2850058e+3, 2.2446431e+2, -703961.6, -767266.94, 2501.7576, -0.00043707975, -0.14088334, -703862.9, 36376.73, 0.0, 10.000389, 9.999564 
1.2850302e+3, 2.3446517e+2, -652149.5, -672623.0, -41479.97, -0.20204307, -0.05116749, -619661.8, 22567.65, 0.0, 9.999997, 9.999725 
1.2850557e+3, 2.4446443e+2, -583330.94, -673776.0, -108002.14, -0.22939937, -0.04899773, -511465.72, 32768.336, 0.0, 10.000137, 9.998983 
1.2850824e+3, 2.5446165e+2, -376580.44, -514579.6, -140420.84, -0.035895564, -0.25698346, -289122.5, 157135.75, 0.0, 10.000852, 9.999058 
1.2851089e+3, 2.644602e+2, -288269.38, -504102.9, -53091.227, 0.063657016, -0.2638518, -275916.8, 72355.48, 0.00000014147287, 10.001144, 9.998317 
1.2851351e+3, 2.7446e+2, -212806.36, -409693.9, -15837.902, 0.035790697, -0.14655803, -211540.47, 38736.965, 0.000007879153, 10.000966, 9.998374 
1.2851612e+3, 2.8445888e+2, -118547.1, -333878.44, 79045.92, -0.054808874, -0.07530324, -92645.734, 59644.766, 0.00006527563, 10.001027, 9.998189 
1.2851878e+3, 2.9445636e+2, 35567.266, -197032.98, 66783.98, -0.19605695, -0.1848397, 53378.36, 107693.99, 0.000269289, 10.001349, 9.9983015 
1.2852177e+3, 3.044557e+2, 160165.97, -14747.087, 46662.27, -0.00027243345, -0.11230416, 171835.67, 171835.67, 0.00069755525, 10.001467, 9.999171 
1.2852469e+3, 3.1445536e+2, 116590.984, -57242.027, -52168.605, 0.21066102, -0.10734596, 131045.3, 131045.3, 0.0013291562, 10.001181, 9.999018 
1.2947416e+3, 1.2443616e+2, -1673977.3, -1617298.0, -31598.521, -0.0881107, -0.108081855, -1603192.4, 117319.81, 0.0050962004, 9.999891, 10.000699 
1.2947683e+3, 1.3443689e+2, -1784594.4, -1560075.9, -61108.34, -0.06593332, -0.17557293, -1544521.3, 77980.95, 0.0028611089, 9.998227, 10.001236 
1.2947981e+3, 1.4443736e+2, -1836635.0, -1669875.5, -85505.17, 0.16175866, -0.18475066, -1633826.1, -109328.15, 0.00111182, 9.99778, 10.000008 
1.2948243e+3, 1.5443781e+2, -1503010.4, -1460544.6, -116816.81, 0.16243555, -0.1697834, -1363046.8, 63451.03, 0.000219555, 9.999412, 9.999987 
1.2948504e+3, 1.6443855e+2, -1244376.3, -1160405.3, -61148.92, 0.0973886, -0.13452813, -1128215.5, 200273.98, 0.0000074533, 9.999949, 10.001121 
1.294876e+3, 1.744398e+2, -1259696.0, -1099418.3, 40499.793, -0.096504696, -0.16331875, -1089765.9, 140704.08, 0.0, 9.999106, 10.001267 
1.2949023e+3, 1.8443982e+2, -1327097.3, -1302088.0, -27456.283, -0.14957094, -0.18507788, -1284422.9, -151956.75, 0.0, 9.998931, 9.999287 
1.2949292e+3, 1.9443785e+2, -1121860.0, -1155744.4, -70114.23, -0.00057708245, -0.33367932, -1066670.0, -32183.924, 0.0, 9.999679, 9.99926 
1.294955e+3, 2.0443712e+2, -951209.75, -1009333.4, -89254.836, 0.019581173, -0.3257411, -886404.56, 50090.195, 0.0, 10.000129, 9.999371 
1.2949793e+3, 2.1443774e+2, -823479.75, -881775.94, -33457.3, -0.123580694, -0.23765413, -808254.44, 30236.379, 0.0, 10.000266, 9.999504 
1.295005e+3, 2.2443739e+2, -784863.6, -884567.3, -25757.098, -0.14385778, -0.18309489, -778602.75, -38106.95, 0.0, 10.000171, 9.998866 
1.2950325e+3, 2.344356e+2, -735058.4, -800763.44, -38523.242, -0.0006654041, -0.2776908, -717281.56, -74767.61, 0.0, 9.999801, 9.998943 
1.2950587e+3, 2.4443486e+2, -649183.2, -750075.25, -97829.76, 0.049469676, -0.21810484, -589558.94, -45035.9, 0.0, 9.999893, 9.998572 
1.2950836e+3, 2.544351e+2, -437696.0, -587102.9, -96887.414, -0.015763933, -0.08570108, -390056.56, 56467.293, 0.0, 10.000631, 9.998659 
1.2951091e+3, 2.644344e+2, -226640.0, -342192.9, -71584.18, -0.05310507, -0.051634923, -192425.08, 156104.86, 0.000000052302592, 10.000988, 9.999509 
1.2951353e+3, 2.7443245e+2, -147448.55, -231014.81, -5874.7964, -0.05951286, -0.23694026, -147037.56, 103504.97, 0.000007172051, 10.000779, 9.999693 
1.2951624e+3, 2.8443137e+2, -143927.05, -344331.6, 75850.29, -0.06226906, -0.23562722, -118456.086, 34094.8, 0.00006969282, 10.000842, 9.998204 
1.2951909e+3, 2.9443073e+2, 552.31757, -224662.52, 99541.59, -0.04854574, -0.15574244, 38241.14, 92800.625, 0.00030090337, 10.00116, 9.998199 
1.29522e+3, 3.0442896e+2, 92707.29, -136525.05, 25986.355, 0.055949938, -0.14872268, 95616.25, 95616.25, 0.00078645255, 10.00138, 9.998381 
1.2952453e+3, 3.1442717e+2, 12768.485, -218631.45, -32579.348, -0.1313165, -0.21670601, 17267.92, 17267.92, 0.0014985187, 10.000954, 9.998017 
1.3047434e+3, 1.2440788e+2, -1826785.5, -1716182.0, 3517.9927, 0.15271136, -0.13480653, -1716070.3, 4716.0645, 0.0054552136, 9.9989605, 10.000465 
1.3047665e+3, 1.3440849e+2, -1684101.3, -1541948.5, -54161.746, -0.10039317, -0.18323499, -1523664.1, 99115.95, 0.003073975, 9.999056, 10.000958 
1.3047962e+3, 1.4440845e+2, -1666108.0, -1559921.9, 24302.008, 0.14863008, -0.24212809, -1554624.4, -29842.59, 0.0012055306, 9.998819, 10.000257 
1.304823e+3, 1.5440995e+2, -1549690.4, -1445871.1, 28413.418, 0.12498967, -0.1566367, -1438603.6, -11833.312, 0.000244213, 9.998931, 10.000309 
1.3048497e+3, 1.6441114e+2, -1370438.4, -1210006.9, 34875.03, 0.08581036, -0.09806321, -1202753.6, 126003.33, 0.000009295233, 9.9990635, 10.001202 
1.3048758e+3, 1.7441201e+2, -1204378.3, -1061857.4, -60864.332, -0.055353086, -0.16928872, -1039402.75, 191338.27, 0.0, 9.999466, 10.001345 
1.304902e+3, 1.8441178e+2, -1234976.1, -1259424.1, -125788.32, -0.09067318, -0.21752901, -1120819.3, 11920.869, 0.0, 9.999559, 9.999282 
1.3049287e+3, 1.9440988e+2, -1189174.6, -1185951.3, -88671.414, 0.021653613, -0.35963476, -1098876.9, -64116.15, 0.0, 9.999208, 9.999279 
1.3049546e+3, 2.0440957e+2, -1046702.8, -994184.06, -31650.68, 0.018271066, -0.33577412, -979317.75, -42552.953, 0.0, 9.999203, 9.999923 
1.304979e+3, 2.1441111e+2, -872968.8, -838778.2, -42176.152, -0.13754238, -0.21619475, -810364.4, 28385.365, 0.0, 9.999645, 10.000098 
1.305005e+3, 2.244109e+2, -810899.25, -926776.56, -22112.25, -0.13650371, -0.16444121, -806823.06, -66070.56, 0.0, 10.000107, 9.998603 
1.3050333e+3, 2.344083e+2, -656877.4, -798108.7, -30423.633, 0.06605173, -0.3117629, -650602.4, -7822.5225, 0.0, 10.000481, 9.99863 
1.3050596e+3, 2.4440736e+2, -546116.6, -695997.4, -15959.165, 0.1333787, -0.26084334, -544436.1, 355.5661, 0.0, 10.000562, 9.998624 
1.3050845e+3, 2.5440815e+2, -476654.38, -598598.06, -7186.311, 0.034776304, -0.081983805, -476232.34, -29445.309, 0.0, 10.00031, 9.998742 
1.30511e+3, 2.6440758e+2, -326158.0, -377240.75, 17779.629, -0.018550724, -0.043591265, -320579.0, 28212.018, 0.000000026393016, 10.00026, 9.999618 
1.3051362e+3, 2.7440512e+2, -180505.77, -242793.89, -40173.336, -0.025912864, -0.2893004, -160818.25, 89989.52, 0.0000066700077, 10.000518, 9.99975 
1.3051635e+3, 2.8440392e+2, -158097.27, -349365.28, 36465.99, -0.02962556, -0.29815328, -151380.73, 1435.6876, 0.00007506801, 10.000739, 9.998216 
1.3051921e+3, 2.9440388e+2, -14598.421, -234160.22, 30017.658, -0.019161304, -0.1611824, -10568.487, 44251.516, 0.00033560226, 10.00106, 9.998179 
1.3052213e+3, 3.044013e+2, 107720.6, -122699.484, 12367.37, 0.0632318, -0.23409426, 108382.49, 108382.49, 0.0008831013, 10.001465, 9.998427 
1.3052472e+3, 3.143997e+2, 162571.47, -121478.05, -57724.016, -0.06565844, -0.2848569, 173853.9, 173853.9, 0.001684596, 10.001873, 9.998245 
1.314743e+3, 1.2438081e+2, -1824616.3, -1720699.5, -168447.0, 0.15709049, -0.2112728, -1596379.5, 124669.086, 0.005819013, 9.998991, 10.000425 
1.3147661e+3, 1.3438135e+2, -1751066.1, -1690927.8, -36769.844, -0.070944026, -0.16282472, -1673497.8, -50450.75, 0.0032902497, 9.999087, 9.999926 
1.3147934e+3, 1.4438151e+2, -1583055.3, -1394036.6, 2728.685, -0.054334525, -0.2034892, -1393997.3, 131048.51, 0.0013013786, 9.998858, 10.001375 
1.3148206e+3, 1.5438426e+2, -1472572.5, -1279057.4, 43829.27, -0.023816055, -0.10819786, -1269593.3, 157421.66, 0.00026992275, 9.998901, 10.001472 
1.3148482e+3, 1.6438477e+2, -1511935.0, -1510852.1, 33523.21, 0.0009856771, -0.081894614, -1477866.0, -148856.92, 0.00001153221, 9.99908, 9.999135 
1.3148755e+3, 1.743824e+2, -1358521.9, -1388165.3, -33599.902, -0.05078587, -0.25339624, -1336619.8, -105584.65, 0.0, 9.999479, 9.999104 
1.314902e+3, 1.8438187e+2, -1153231.4, -1075426.3, -154065.84, -0.074421115, -0.27544692, -955427.3, 177614.08, 0.0, 9.999507, 10.000565 
1.3149275e+3, 1.9438341e+2, -1098550.3, -975538.1, -90708.664, -0.044196885, -0.22185917, -927449.25, 107574.984, 0.0, 9.999114, 10.000768 
1.3149534e+3, 2.0438465e+2, -1056777.0, -980635.1, -29056.105, -0.03736305, -0.1298353, -970813.94, -33803.07, 0.0, 9.999057, 10.000084 
1.3149796e+3, 2.143852e+2, -892905.94, -845866.44, -9367.317, -0.059221137, -0.11558959, -844069.7, -5064.17, 0.0, 9.999485, 10.000132 
1.3150057e+3, 2.2438483e+2, -831322.06, -915760.1, -20277.854, -0.093592495, -0.09063506, -826704.8, -85694.98, 0.0, 9.999889, 9.998779 
1.315032e+3, 2.3438312e+2, -675800.0, -790092.44, 457.25107, -0.121941805, -0.16809241, -675798.2, -32769.727, 0.0, 10.000281, 9.998781 
1.3150582e+3, 2.4438183e+2, -538767.1, -631011.44, -38659.043, -0.09989641, -0.18178682, -524708.1, 20332.658, 0.0, 10.000349, 9.999173 
1.3150845e+3, 2.54381e+2, -465031.9, -528367.56, -1942.5996, -0.008825826, -0.22338629, -464972.38, -17926.455, 0.0, 10.00011, 9.999323 
1.3151109e+3, 2.6437986e+2, -422622.06, -537097.25, 11865.158, 0.03614865, -0.22692487, -421405.2, -72350.04, 0.000000066602475, 10.000088, 9.998602 
1.3151371e+3, 2.7437803e+2, -285913.78, -417108.25, -10255.854, 0.008491987, -0.29783618, -285116.9, -34044.74, 0.0000067822207, 10.00034, 9.998631 
1.3151641e+3, 2.8437683e+2, -175375.47, -366891.28, 35651.957, -0.07474317, -0.24473976, -168953.92, -15869.549, 0.000081610815, 10.000644, 9.998152 
1.3151915e+3, 2.9437596e+2, -41174.383, -246611.38, 63727.215, -0.21781307, -0.19663753, -23011.748, 32083.604, 0.0003693932, 10.000868, 9.998194 
1.3152213e+3, 3.0437282e+2, 127900.11, -40282.24, 20412.195, -0.102570206, -0.35613966, 130342.07, 130342.07, 0.00097588636, 10.001297, 9.999068 
1.3152516e+3, 3.143727e+2, 210650.36, 58911.086, -3742.7205, 0.123981826, -0.3287743, 210742.63, 210742.63, 0.001864563, 10.001547, 9.999633 
1.3247426e+3, 1.2435411e+2, -1852751.4, -1723252.5, -122552.83, 0.24254069, -0.265863, -1649395.8, 71911.766, 0.006183249, 9.998705, 10.000562 
1.3247661e+3, 1.3435465e+2, -1736564.6, -1724682.1, 16175.832, 0.031491514, -0.17719732, -1713390.9, -90084.61, 0.0035072896, 9.999382, 9.999535 
1.3247916e+3, 1.4435479e+2, -1499166.6, -1391019.9, 58004.18, -0.13474044, -0.18395711, -1365793.8, 159511.56, 0.0013982238, 9.999586, 10.001051 
1.3248199e+3, 1.5435661e+2, -1337889.4, -1249126.6, -40232.2, -0.033506386, -0.14999582, -1233605.4, 193678.06, 0.00029637254, 9.999973, 10.001164 
1.3248482e+3, 1.6435672e+2, -1422315.6, -1500516.1, -27666.262, 0.0603421, -0.13466476, -1413517.5, -84234.89, 0.000014169166, 9.999846, 9.998823 
1.3248757e+3, 1.7435455e+2, -1423597.8, -1458049.9, 20245.879, 0.039509717, -0.25415552, -1414241.3, -182931.6, 0.0, 9.999199, 9.9987545 
1.3249019e+3, 1.8435432e+2, -1185719.0, -1080304.6, -22608.371, -0.00869768, -0.23037143, -1075660.4, 57653.875, 0.0, 9.999236, 10.000665 
1.3249269e+3, 1.9435634e+2, -924634.3, -877624.06, -91976.15, -0.07130096, -0.14311461, -806197.1, 229095.33, 0.0, 10.000246, 10.0008955 
1.3249527e+3, 2.0435758e+2, -859732.9, -883644.0, -86714.42, -0.06690883, -0.060151964, -784153.7, 153125.28, 0.0, 10.000409, 10.000096 
1.3249797e+3, 2.1435755e+2, -892499.8, -840741.8, -98807.234, 0.015182116, -0.10158123, -764480.75, 74797.71, 0.0, 9.999484, 10.00016 
1.3250062e+3, 2.2435714e+2, -894943.75, -910247.7, -48902.906, 0.0014774153, -0.09598766, -853097.75, -111815.36, 0.0, 9.999301, 9.999105 
1.3250321e+3, 2.343561e+2, -677761.2, -744066.0, -40626.332, -0.1149268, -0.13977194, -658477.2, -15183.955, 0.0, 10.000083, 9.999189 
1.3250583e+3, 2.4435504e+2, -498557.53, -593683.6, -77742.26, -0.11836632, -0.16083235, -454982.75, 90319.38, 0.0, 10.000552, 9.999331 
1.325085e+3, 2.5435367e+2, -383111.78, -470170.44, -105619.164, 0.0153173385, -0.26752225, -312403.6, 134907.33, 0.0, 10.000603, 9.99948 
1.3251118e+3, 2.6435235e+2, -347577.4, -538697.9, -44720.617, 0.079766, -0.27957004, -337630.8, 11691.505, 0.0000000978673, 10.000773, 9.998252 
1.3251384e+3, 2.7435082e+2, -194993.14, -413495.53, -44558.855, 0.045260657, -0.28513232, -186255.72, 65083.918, 0.000006920427, 10.0011425, 9.998263 
1.3251653e+3, 2.8434983e+2, -79969.64, -311165.6, 58961.816, -0.018969402, -0.19833212, -65800.945, 87550.86, 0.000086783395, 10.001288, 9.998212 
1.3251935e+3, 2.94349e+2, 28296.457, -203140.95, 49661.75, -0.11735531, -0.14259526, 38502.76, 93864.57, 0.00039493892, 10.00132, 9.998266 
1.3252228e+3, 3.0434573e+2, 99247.54, -44559.414, 19243.33, -0.051770616, -0.32528174, 101778.03, 101778.03, 0.0010490068, 10.001064, 9.99915 
1.3252525e+3, 3.1434584e+2, 69858.164, 71480.32, -108305.28, 0.15793787, -0.28739947, 178977.56, 178977.56, 0.0020087387, 10.000222, 10.000358 
1.3347398e+3, 1.2432797e+2, -1816537.1, -1644952.5, 3680.1316, 0.019481476, -0.2934244, -1644873.6, 76687.7, 0.0065457188, 9.998686, 10.001109 
1.3347664e+3, 1.3432845e+2, -1721041.9, -1695168.9, 40858.594, 0.092238866, -0.23418507, -1665247.8, -41690.723, 0.0037237175, 9.999385, 9.999739 
1.3347906e+3, 1.443282e+2, -1612930.0, -1637033.8, 53769.063, -0.229425, -0.21228293, -1569878.8, -44317.54, 0.0014951822, 9.999621, 9.999351 
1.3348204e+3, 1.54327e+2, -1461728.4, -1514932.3, -11403.572, -0.012869214, -0.2944024, -1459387.1, -31811.346, 0.00032323142, 9.999997, 9.999335 
1.3348493e+3, 1.6432701e+2, -1324722.1, -1297408.3, -68208.625, 0.14243, -0.25751004, -1241502.9, 88075.06, 0.000017128494, 9.999846, 10.000216 
1.3348757e+3, 1.7432855e+2, -1315077.9, -1225569.0, 8391.833, 0.10856834, -0.16863957, -1224789.0, 6774.3184, 0.00000000003443261, 9.999168, 10.000363 
1.3349013e+3, 1.8432933e+2, -1267746.6, -1248633.4, -3394.46, -0.0073164287, -0.07738488, -1248048.4, -114491.52, 0.0, 9.999219, 9.999524 
1.3349263e+3, 1.9432873e+2, -1026086.9, -1077524.9, -41627.426, -0.16897316, -0.12051524, -1002874.2, 32690.459, 0.0, 10.000183, 9.99956 
1.3349521e+3, 2.0432831e+2, -888554.6, -911681.7, -133230.55, -0.18644875, -0.12506495, -766386.75, 171182.28, 0.0, 10.000274, 9.99997 
1.334979e+3, 2.14328e+2, -923321.0, -865636.1, -120973.76, -0.02670365, -0.19035544, -770114.0, 69456.414, 0.0, 9.999307, 10.000083 
1.3350059e+3, 2.2432771e+2, -887429.8, -847120.0, -34432.85, 0.027211398, -0.19340049, -827377.0, -85805.3, 0.0, 9.999097, 9.999633 
1.3350332e+3, 2.3432736e+2, -666155.44, -679336.7, 5100.97, -0.033378467, -0.22644746, -664412.0, -20838.396, 0.0, 9.999902, 9.999722 
1.3350599e+3, 2.4432698e+2, -541510.4, -638113.7, -87709.39, -0.054952394, -0.1966519, -489682.16, 55893.598, 0.0, 10.000367, 9.999109 
1.3350855e+3, 2.5432622e+2, -429723.7, -527565.25, -88799.11, -0.02485001, -0.21612142, -377261.4, 70320.25, 0.0, 10.000435, 9.999164 
1.3351119e+3, 2.6432514e+2, -351632.28, -515232.03, -45667.207, -0.011401682, -0.19914089, -339748.06, 9844.401, 0.00000008871969, 10.000632, 9.998482 
1.335139e+3, 2.743234e+2, -201755.36, -382141.63, -13413.327, -0.029468153, -0.2569437, -200763.4, 50847.58, 0.000006673535, 10.000951, 9.998569 
1.3351673e+3, 2.8432268e+2, -98934.11, -312386.06, 43732.395, 0.0027199544, -0.15588279, -90321.64, 63298.453, 0.00008871381, 10.0011215, 9.998283 
1.3351975e+3, 2.9432303e+2, 3431.0173, -210274.75, 71708.73, 0.11865988, 0.0021991297, 25262.555, 80883.086, 0.0004076121, 10.001124, 9.998315 
1.3352253e+3, 3.0432016e+2, 50334.87, -106081.45, -14608.001, 0.056714628, -0.12295775, 51687.44, 51687.44, 0.0010927352, 10.000899, 9.998802 
1.3352501e+3, 3.1431857e+2, 30985.12, 57799.465, -76979.305, -0.17280708, -0.22077729, 122530.414, 122530.414, 0.002102164, 9.9999275, 10.000411 
1.3447377e+3, 1.2430064e+2, -1763694.0, -1638445.6, 73596.08, -0.057143487, -0.31844404, -1604435.6, 117391.51, 0.0069055543, 9.999142, 10.000933 
1.3447656e+3, 1.3430096e+2, -1706236.8, -1685240.5, -66609.8, 0.07489583, -0.2764329, -1628306.6, -4481.4487, 0.0039389143, 9.99949, 9.999756 
1.3447908e+3, 1.443011e+2, -1680478.1, -1712556.6, 7582.224, -0.15677622, -0.19562095, -1678776.3, -152949.52, 0.0015916337, 9.999351, 9.998959 
1.3448204e+3, 1.5429945e+2, -1550032.6, -1599910.5, 22584.254, 0.0251534, -0.28268456, -1541326.4, -113478.44, 0.0003501717, 9.999589, 9.9989395 
1.344849e+3, 1.642995e+2, -1300170.4, -1256244.6, 1264.6753, 0.14996317, -0.23326121, -1256208.3, 73641.88, 0.000020254476, 9.999886, 10.000485 
1.3448751e+3, 1.7430162e+2, -1138919.4, -1101913.9, -52685.688, 0.08911227, -0.11713265, -1064576.4, 167252.06, 0.0000000014653116, 10.000217, 10.000709 
1.344901e+3, 1.8430237e+2, -1162503.4, -1213631.6, -46302.332, 0.0037253802, -0.039176863, -1135176.8, -1355.4713, 0.0, 10.00002, 9.999371 
1.344927e+3, 1.9430104e+2, -1174245.6, -1165163.1, -25216.635, -0.07565882, -0.13490216, -1144082.1, -108246.37, 0.0, 9.999258, 9.9993925 
1.3449529e+3, 2.0430009e+2, -1041062.44, -1033515.6, -48743.46, -0.08951759, -0.16332144, -988399.7, -50553.934, 0.0, 9.999418, 9.999551 
1.3449788e+3, 2.1429954e+2, -742043.9, -817844.94, -94907.88, -0.030591885, -0.21514307, -677748.7, 162102.6, 0.0, 10.000725, 9.99972 
1.3450058e+3, 2.2429936e+2, -558486.7, -659363.4, -6398.571, 0.0074129966, -0.20121573, -558082.44, 183769.19, 0.0, 10.00123, 9.999895 
1.3450341e+3, 2.3429947e+2, -521477.5, -572600.8, -10047.938, 0.036557373, -0.2170427, -519573.53, 124273.46, 0.0, 10.00074, 10.00005 
1.345061e+3, 2.4429926e+2, -528508.0, -641861.75, -82798.04, 0.03890632, -0.18481371, -484846.53, 61000.87, 0.0, 10.000506, 9.999023 
1.3450862e+3, 2.5429833e+2, -411998.78, -528175.9, -99240.51, 0.00732476, -0.21038644, -355096.22, 92760.54, 0.0, 10.000612, 9.999077 
1.3451123e+3, 2.6429734e+2, -316589.0, -479843.84, -14239.602, -0.024723183, -0.18354718, -315356.3, 34510.61, 0.000000062099474, 10.000799, 9.998647 
1.3451396e+3, 2.7429596e+2, -159215.77, -344829.38, -25667.559, -0.057745993, -0.22034238, -155731.72, 96149.37, 0.0000065347235, 10.001156, 9.998733 
1.3451682e+3, 2.842952e+2, -116096.5, -318301.56, 32562.953, 0.011447905, -0.13843341, -110981.95, 42908.777, 0.00008986311, 10.000973, 9.998324 
1.3451989e+3, 2.9429522e+2, -142189.36, -264684.13, 15097.533, 0.2152389, -0.01377807, -140356.02, -84461.83, 0.00041355038, 10.000062, 9.998448 
1.345226e+3, 3.0429307e+2, -117800.8, -207506.58, -21735.477, 0.116934195, -0.07011847, -112811.81, -112811.81, 0.0011132387, 9.999802, 9.99865 
1.3452503e+3, 3.142918e+2, 83898.75, 92699.49, -117051.65, -0.13981745, -0.11666552, 205433.45, 205433.45, 0.002148471, 10.000261, 10.00048 
1.3547382e+3, 1.24271795e+2, -1838677.3, -1786099.3, 142045.98, 0.009714429, -0.39878294, -1667930.0, 54177.867, 0.0072628423, 9.999133, 9.999915 
1.3547632e+3, 1.3427217e+2, -1730616.8, -1732153.4, -54454.68, -0.1331608, -0.3173006, -1676925.0, -52814.313, 0.004152666, 9.999482, 9.999437 
1.3547915e+3, 1.4427355e+2, -1622181.3, -1582485.1, -6670.0386, -0.050221644, -0.13292398, -1581394.4, -55292.695, 0.0016872559, 9.999311, 9.999868 
1.3548197e+3, 1.542741e+2, -1475969.3, -1449391.1, 47626.2, -0.04340189, -0.10640414, -1413234.8, 14863.443, 0.0003769789, 9.999592, 9.999974 
1.3548473e+3, 1.6427426e+2, -1358561.9, -1380598.5, -2281.9514, -0.04000474, -0.06292179, -1358328.0, -28229.518, 0.000023370363, 9.999896, 9.999628 
1.3548735e+3, 1.7427364e+2, -1215093.4, -1254162.5, -27817.92, -0.12356478, -0.12035092, -1200636.3, 31469.791, 0.0000000068048798, 10.000186, 9.999681 
1.3549003e+3, 1.8427333e+2, -1115136.1, -1098362.9, -90022.97, -0.102013245, -0.1290712, -1016336.7, 117771.73, 0.0, 9.999954, 10.000189 
1.3549282e+3, 1.9427326e+2, -1121333.1, -1034076.56, -39883.254, 0.09484777, -0.19645044, -1018593.94, 17512.127, 0.0, 9.999163, 10.0003395 
1.3549545e+3, 2.0427296e+2, -1110840.4, -1141782.4, -20409.898, 0.113858305, -0.18142441, -1100700.6, -162591.38, 0.0, 9.999267, 9.998877 
1.354979e+3, 2.1427216e+2, -829986.7, -952544.5, -32991.766, -0.1009124, -0.17599101, -821669.94, 18451.213, 0.0, 10.000517, 9.998897 
1.3550055e+3, 2.2427197e+2, -589167.8, -670270.5, -37348.33, -0.1658966, -0.118536405, -574589.2, 167533.97, 0.0, 10.001004, 9.9999275 
1.3550344e+3, 2.3427244e+2, -542024.9, -571787.06, -15049.464, -0.020550042, -0.11280599, -535741.5, 108372.266, 0.0, 10.000553, 10.000145 
1.3550618e+3, 2.442719e+2, -552181.5, -646111.5, -93722.23, 0.047278006, -0.11603804, -494315.38, 51800.848, 0.0, 10.000313, 9.999089 
1.3550869e+3, 2.5426996e+2, -435479.8, -531738.25, -79036.33, -0.0012717779, -0.25270188, -391071.7, 57064.465, 0.0, 10.000419, 9.999146 
1.3551128e+3, 2.6426882e+2, -340613.44, -489109.7, -16008.64, -0.07474277, -0.24373555, -338907.25, 11240.112, 0.000000036385206, 10.000625, 9.99867 
1.3551398e+3, 2.742685e+2, -191177.58, -362170.63, 7143.626, -0.16269559, -0.17496791, -190879.66, 61270.633, 0.0000068750182, 10.00095, 9.998714 
1.3551679e+3, 2.8426743e+2, -139558.6, -331750.78, -10076.001, -0.13124314, -0.12156345, -139031.78, 15130.171, 0.00009120505, 10.00082, 9.998305 
1.3551976e+3, 2.9426536e+2, -169865.39, -284245.97, 2792.573, 0.043357182, -0.20453447, -169797.25, -113611.84, 0.00041555686, 9.999889, 9.9984045 
1.355225e+3, 3.0426413e+2, -147340.6, -217127.28, -20675.393, 0.00846951, -0.16524978, -141675.13, -141675.13, 0.0011140582, 9.999604, 9.998669 
1.3552521e+3, 3.142649e+2, 20755.602, 44371.08, -39731.094, -0.048193235, -0.012269132, 74011.89, 74011.89, 0.0021475311, 9.999925, 10.000301 
1.364737e+3, 1.24244355e+2, -2078548.8, -1912398.9, 96613.95, 0.097646706, -0.27083716, -1868054.5, -145672.36, 0.0076198755, 9.997511, 9.999834 
1.3647619e+3, 1.3424459e+2, -1688855.4, -1661929.8, -24613.71, -0.18653628, -0.25051442, -1647337.5, -22952.13, 0.004366158, 9.999526, 9.999907 
1.3647927e+3, 1.442459e+2, -1478883.4, -1478253.4, 26367.105, 0.11341668, -0.113257885, -1452199.4, 74176.47, 0.0017823466, 10.000145, 10.000179 
1.3648193e+3, 1.5424687e+2, -1463556.5, -1407229.9, -4231.922, -0.03658476, -0.07657096, -1406913.8, 21452.797, 0.0004035849, 9.999535, 10.000285 
1.3648462e+3, 1.6424702e+2, -1494515.6, -1457228.6, -21967.695, -0.089800075, -0.043183785, -1447059.6, -116693.87, 0.000026350568, 9.998996, 9.999545 
1.3648729e+3, 1.7424603e+2, -1448317.6, -1374483.0, -10213.922, -0.11288218, -0.12886584, -1373096.0, -140718.98, 0.000000016360648, 9.998619, 9.999613 
1.3649002e+3, 1.8424563e+2, -1267562.6, -1162342.8, -18575.857, -0.042550873, -0.14763066, -1159159.6, -24779.111, 0.0, 9.998858, 10.000278 
1.3649283e+3, 1.9424585e+2, -996777.7, -956933.5, -61150.234, 0.1783706, -0.20049933, -912542.0, 123833.43, 0.0, 9.999951, 10.000485 
1.3649552e+3, 2.0424584e+2, -907054.0, -1030072.06, -3509.3286, 0.19490005, -0.17083336, -906954.0, 31421.26, 0.0, 10.000606, 9.998999 
1.3649799e+3, 2.1424533e+2, -793011.9, -920363.4, 27813.201, -0.0679791, -0.14866857, -787202.56, 53180.793, 0.0, 10.000705, 9.999025 
1.3650063e+3, 2.24245e+2, -664568.94, -740894.06, 45206.945, -0.1572836, -0.09928028, -643570.3, 98816.31, 0.0, 10.000638, 9.999618 
1.3650347e+3, 2.3424473e+2, -597725.9, -638988.44, -2456.9875, -0.017128997, -0.13018516, -597580.1, 46805.066, 0.0, 10.000343, 9.999788 
1.3650621e+3, 2.44244e+2, -569291.3, -667392.7, -58810.098, 0.059698336, -0.13230014, -541761.4, 4629.6577, 0.0, 10.000249, 9.998973 
1.3650876e+3, 2.5424242e+2, -430502.16, -540389.1, -86260.97, 0.033160444, -0.21790095, -383172.78, 65235.49, 0.0, 10.000492, 9.999052 
1.3651137e+3, 2.642415e+2, -332795.06, -465986.03, 7979.889, -0.031609397, -0.19647747, -332318.66, 18099.104, 0.000000033203506, 10.000599, 9.998837 
1.3651407e+3, 2.7424106e+2, -222596.64, -345414.94, 13705.838, -0.13871579, -0.16195421, -221085.73, 31333.783, 0.0000069323874, 10.00061, 9.99898 
1.3651684e+3, 2.8423965e+2, -177148.56, -348480.8, 19134.87, -0.13986725, -0.15647341, -175037.53, -20604.576, 0.000089487476, 10.000592, 9.998286 
1.3651973e+3, 2.9423702e+2, -46769.195, -220813.75, -2066.7625, -0.0013955673, -0.28909093, -46744.656, 9716.805, 0.00040599646, 10.000737, 9.998422 
1.3652246e+3, 3.0423638e+2, 6681.4497, -113160.03, 29131.166, -0.01351694, -0.20772806, 13387.431, 13387.431, 0.0010861106, 10.000535, 9.998943 
1.3652532e+3, 3.1423783e+2, -27786.426, 9145.827, -16425.0, 0.0967341, -0.001839532, 15393.633, 15393.633, 0.0020928015, 9.99961, 10.00024 
1.3747346e+3, 1.2421809e+2, -2020098.6, -1784285.5, -134034.78, 0.038895007, 0.047252294, -1723677.9, -1025.1182, 0.0079810945, 9.9974985, 10.000709 
1.3747613e+3, 1.3421834e+2, -1589806.4, -1463291.5, 62111.305, -0.23468664, -0.068447374, -1437896.1, 186752.53, 0.0045821774, 9.999539, 10.00127 
1.3747942e+3, 1.4421819e+2, -1497903.3, -1523632.5, -17241.955, 0.20366058, -0.13586617, -1489255.5, 37393.348, 0.0018779465, 10.000171, 9.999856 
1.3748187e+3, 1.5421754e+2, -1501570.3, -1484066.3, -14835.296, -0.0648119, -0.21246223, -1475593.8, -46938.867, 0.00043006244, 9.999521, 9.999767 
1.374845e+3, 1.6421765e+2, -1441947.8, -1346603.5, -56485.63, -0.12585866, -0.18859604, -1320361.8, 10291.772, 0.000029160963, 9.998982, 10.000315 
1.374873e+3, 1.7421886e+2, -1387444.1, -1245611.3, -10494.748, 0.009823778, -0.14495465, -1244838.9, -12197.632, 0.000000027808229, 9.99859, 10.00052 
1.3749003e+3, 1.8421942e+2, -1318005.1, -1252192.4, 3650.1162, 0.064828396, -0.09060255, -1251990.6, -117354.49, 0.0, 9.998804, 9.999685 
1.3749273e+3, 1.9421877e+2, -1068537.0, -1079332.6, -8231.428, 0.062386744, -0.15381905, -1064091.4, -27447.23, 0.0, 9.999835, 9.999704 
1.3749543e+3, 2.0421863e+2, -857064.8, -895514.44, -12934.601, 0.021948844, -0.13723226, -853118.56, 85526.52, 0.0, 10.000471, 9.999989 
1.3749808e+3, 2.1421912e+2, -743379.7, -772782.3, 45386.58, -0.06018981, -0.12944394, -710372.8, 130264.37, 0.0, 10.00051, 10.000136 
1.3750076e+3, 2.2421856e+2, -745340.56, -857183.25, 20567.713, -0.09628274, -0.12956755, -741678.1, 962.36456, 0.0, 10.000421, 9.998921 
1.3750347e+3, 2.3421642e+2, -690640.6, -778282.5, 1224.5092, -0.07199372, -0.2653574, -690623.56, -45962.723, 0.0, 10.000119, 9.998935 
1.3750616e+3, 2.4421537e+2, -621146.1, -732186.5, -69139.7, -0.042072814, -0.2341059, -587993.94, -41321.426, 0.0, 10.000056, 9.998623 
1.375088e+3, 2.5421575e+2, -475138.47, -593635.94, -64197.49, 0.0006123655, -0.100952655, -447027.44, 1645.7122, 0.0, 10.00032, 9.99877 
1.3751148e+3, 2.6421535e+2, -325608.44, -420907.4, -3804.061, -0.015270296, -0.02481845, -325456.8, 25220.287, 0.000000022673568, 10.000465, 9.99921 
1.3751419e+3, 2.7421346e+2, -220601.47, -297211.25, 30717.73, -0.11026011, -0.17824937, -209806.02, 42883.813, 0.0000066245593, 10.000426, 9.999398 
1.3751695e+3, 2.8421172e+2, -190562.25, -350839.6, 6771.1377, -0.13792941, -0.23128393, -190276.7, -35571.86, 0.000084736, 10.000473, 9.998329 
1.3751976e+3, 2.9421023e+2, -74655.5, -231822.3, 25082.797, -0.06391693, -0.25646374, -70749.52, -14027.073, 0.00038240643, 10.00053, 9.998451 
1.3752246e+3, 3.0420965e+2, 13135.241, -61645.652, -8275.865, -0.09487034, -0.19119692, 14040.166, 14040.166, 0.0010237873, 10.000377, 9.999364 
1.3752526e+3, 3.1421012e+2, -85033.79, -25191.092, 18029.469, 0.02634981, -0.12178105, -20178.947, -20178.947, 0.0019802414, 9.999273, 10.000151 
1.3847336e+3, 1.2419092e+2, -1773226.4, -1657071.0, -98202.414, 0.11694239, 0.11472075, -1601057.8, 121866.11, 0.008351057, 9.999181, 10.000768 
1.3847618e+3, 1.3419111e+2, -1692909.4, -1523495.1, 85501.23, -0.09063421, 0.007821554, -1487845.4, 137073.55, 0.004803759, 9.998897, 10.001164 
1.3847932e+3, 1.4419039e+2, -1728005.8, -1616020.4, -36572.695, 0.19064389, -0.12089365, -1605134.5, -78210.58, 0.0019753822, 9.9985, 10.000035 
1.3848184e+3, 1.5418972e+2, -1570007.1, -1491618.8, -16124.816, -0.010753038, -0.21853931, -1488431.4, -59502.316, 0.00045665295, 9.998941, 9.999996 
1.3848451e+3, 1.6419004e+2, -1348636.4, -1261830.8, 4767.0547, -0.04302099, -0.203401, -1261569.8, 69354.79, 0.00003186285, 9.999477, 10.000645 
1.3848731e+3, 1.741917e+2, -1124831.3, -1077150.1, -26547.94, 0.085661516, -0.14993596, -1065309.3, 167597.28, 0.000000039188958, 10.000235, 10.000874 
1.3849004e+3, 1.8419239e+2, -1098216.8, -1187835.5, 8676.585, 0.12272232, -0.085729524, -1097384.5, 37515.938, 0.0, 10.000476, 9.999331 
1.3849272e+3, 1.9419156e+2, -1031147.6, -1097594.1, 2380.944, 0.051601604, -0.12957166, -1031062.44, 5850.148, 0.0, 10.000245, 9.999378 
1.3849542e+3, 2.0419143e+2, -880730.5, -880840.8, 13888.346, 0.00072294043, -0.10559264, -866897.2, 72016.695, 0.0, 10.000198, 10.000221 
1.3849817e+3, 2.1419212e+2, -724373.44, -729459.44, -22571.766, -0.014828675, -0.10618729, -704201.9, 136700.31, 0.0, 10.000491, 10.000446 
1.3850088e+3, 2.2419158e+2, -735381.1, -870399.7, -45440.863, -0.016921444, -0.116592675, -721512.44, 21392.578, 0.0, 10.000547, 9.998781 
1.3850357e+3, 2.3418915e+2, -646257.56, -777201.1, -42980.3, -0.0046006977, -0.26205483, -633410.4, 11519.476, 0.0, 10.000491, 9.998772 
1.3850622e+3, 2.4418801e+2, -551001.0, -696957.7, -23699.094, 0.013416466, -0.2321162, -547249.4, -306.56717, 0.0, 10.000548, 9.998613 
1.3850887e+3, 2.541885e+2, -395615.22, -554243.7, -34234.18, 0.02757684, -0.084607586, -388542.38, 60398.4, 0.0, 10.000866, 9.99877 
1.3851155e+3, 2.641879e+2, -270904.0, -421860.84, 27862.033, -0.0011150988, -0.02082054, -265925.7, 85021.125, 0.0000000049794013, 10.000958, 9.998966 
1.3851425e+3, 2.7418548e+2, -173452.03, -304907.88, -17274.342, -0.091950856, -0.20295963, -171219.94, 81746.4, 0.0000064670485, 10.000865, 9.999142 
1.3851702e+3, 2.8418398e+2, -146597.05, -305754.9, -32360.959, -0.10422767, -0.22427195, -140268.83, 14710.227, 0.00007993784, 10.000656, 9.998566 
1.3851987e+3, 2.9418364e+2, -56565.37, -178947.31, -31854.094, -0.008056388, -0.1619555, -48770.703, 8213.422, 0.00035406946, 10.000461, 9.998846 
1.3852255e+3, 3.0418262e+2, 76277.92, -44031.29, -39588.57, -0.04341425, -0.16230199, 88136.03, 88136.03, 0.00094641367, 10.000838, 9.999271 
1.385253e+3, 3.141817e+2, 248207.92, 94023.24, -79742.61, 0.045813084, -0.2221616, 282030.47, 282030.47, 0.0018394246, 10.001699, 9.999808 
1.3947324e+3, 1.2416189e+2, -1827831.8, -1764825.5, -197391.19, 0.011287009, -0.1695748, -1596439.4, 126764.336, 0.008733579, 9.99918, 10.000018 
1.3947631e+3, 1.3416271e+2, -1814980.9, -1770412.4, 73657.18, 0.13175307, -0.051844697, -1715742.4, -90543.85, 0.005033633, 9.998871, 9.999476 
1.3947895e+3, 1.4416255e+2, -1674234.6, -1501447.5, -48931.766, -0.06567948, -0.06837451, -1488552.8, 38647.586, 0.002076125, 9.9984865, 10.000828 
1.3948175e+3, 1.5416363e+2, -1505928.3, -1351176.4, 17837.873, -0.016273204, -0.09121773, -1349146.9, 80040.16, 0.00048381835, 9.998905, 10.00098 
1.3948454e+3, 1.6416429e+2, -1361713.0, -1292221.9, 13676.797, 0.019258633, -0.08513803, -1289627.0, 41550.91, 0.000034571214, 9.999489, 10.000433 
1.3948728e+3, 1.7416434e+2, -1157602.5, -1135463.0, 12005.357, 0.011739796, -0.15663889, -1130202.8, 102972.18, 0.00000005013657, 10.000191, 10.000499 
1.3949001e+3, 1.8416442e+2, -1089768.1, -1168015.5, -17137.402, 0.0037828356, -0.13815783, -1086179.4, 48995.145, 0.0, 10.000468, 9.999469 
1.3949274e+3, 1.9416434e+2, -1035969.8, -1085507.9, 4254.746, 0.024371598, -0.12129102, -1035607.0, 1572.3036, 0.0, 10.000146, 9.999514 
1.3949548e+3, 2.0416437e+2, -934460.44, -961707.9, 7508.2925, 0.011792373, -0.06755599, -932528.44, 6652.044, 0.0, 10.000065, 9.999728 
1.394982e+3, 2.1416439e+2, -794967.06, -827399.5, 639.7793, -0.04942524, -0.077812135, -794954.44, 46223.504, 0.0, 10.000285, 9.999871 
1.3950095e+3, 2.2416408e+2, -725001.5, -814297.2, -60960.805, -0.043428678, -0.05658609, -694087.1, 49093.043, 0.0, 10.000381, 9.999251 
1.3950372e+3, 2.3416312e+2, -631708.8, -709589.6, -28617.258, 0.07202893, -0.11332756, -622324.25, 22866.047, 0.0, 10.0003195, 9.999323 
1.395064e+3, 2.4416213e+2, -560386.1, -674464.2, -27044.508, 0.10146231, -0.111327484, -554299.44, -7099.6943, 0.0, 10.00037, 9.998856 
1.3950896e+3, 2.5416073e+2, -418424.0, -546460.0, -7020.216, 0.008101707, -0.17053826, -418040.22, 31171.309, 0.0, 10.000638, 9.998931 
1.3951157e+3, 2.6415908e+2, -356439.4, -559977.5, 11382.17, -0.0936297, -0.17696747, -355804.88, -4577.626, 0.0000000011462398, 10.000786, 9.998102 
1.3951425e+3, 2.7415714e+2, -269564.8, -459239.28, -2197.253, -0.19059926, -0.22175953, -269539.38, -16291.441, 0.0000063015364, 10.000664, 9.998183 
1.3951704e+3, 2.8415656e+2, -148039.55, -265750.0, -52186.8, -0.16651638, -0.11552994, -128234.74, 27019.238, 0.00007549819, 10.000476, 9.998924 
1.3951996e+3, 2.9415724e+2, -57266.37, -134935.47, -17298.563, 0.02072006, 0.002714652, -53587.832, 3659.164, 0.0003302392, 10.000268, 9.999242 
1.395227e+3, 3.0415514e+2, 26016.307, -109840.484, -24811.436, 0.0024717145, -0.100875564, 30405.781, 30405.781, 0.00088409375, 10.000678, 9.998894 
1.395254e+3, 3.141531e+2, 153849.69, -2696.1956, 8559.928, -0.07571203, -0.23406567, 154316.34, 154316.34, 0.0017247418, 10.001291, 9.999336 
1.4047317e+3, 1.24134384e+2, -1758470.6, -1737292.5, -147236.86, 0.022062164, -0.21955998, -1600264.4, 123208.34, 0.009133226, 9.999635, 10.000001 
1.4047639e+3, 1.341349e+2, -1814203.9, -1816512.9, 68585.984, 0.32322332, -0.094319396, -1746762.6, -121291.86, 0.005275387, 9.999054, 9.999079 
1.4047873e+3, 1.4413516e+2, -1649754.5, -1467624.1, 52770.523, -0.117789716, -0.060668346, -1453439.3, 74029.45, 0.0021822979, 9.998564, 10.001021 
1.4048164e+3, 1.5413663e+2, -1508925.0, -1329338.3, 23731.912, -0.0022620272, -0.06686647, -1326255.0, 103196.23, 0.00051218417, 9.998788, 10.001185 
1.4048447e+3, 1.6413726e+2, -1474527.4, -1382870.6, 25973.26, 0.039917577, -0.05876372, -1376022.1, -44579.457, 0.000037386584, 9.998869, 10.000107 
1.4048722e+3, 1.7413671e+2, -1323452.9, -1247105.3, -3113.1553, -0.0045012026, -0.15986161, -1246978.6, -13531.978, 0.00000006103049, 9.999191, 10.000203 
1.4048998e+3, 1.8413663e+2, -1229835.3, -1213889.0, -13964.876, -0.0022700299, -0.15234363, -1205781.4, -70333.266, 0.0, 9.999428, 9.999653 
1.4049277e+3, 1.9413695e+2, -1086981.1, -1081867.9, -20244.752, 0.06544502, -0.119802766, -1064018.9, -26570.893, 0.0, 9.99968, 9.999764 
1.4049552e+3, 2.0413712e+2, -978137.44, -965694.7, 39989.39, 0.06994523, -0.072290845, -931445.6, 8001.445, 0.0, 9.999696, 9.999881 
1.404982e+3, 2.1413693e+2, -880993.25, -843544.3, 58954.223, -0.02486329, -0.12079158, -800412.44, 41033.81, 0.0, 9.999601, 10.000083 
1.4050093e+3, 2.2413677e+2, -800860.06, -851613.56, 52307.18, -0.03598856, -0.093370534, -768098.9, -24651.254, 0.0, 9.999883, 9.999228 
1.4050375e+3, 2.3413646e+2, -576603.44, -681752.3, 9013.644, 0.07245404, -0.08303013, -575836.4, 69617.23, 0.0, 10.000699, 9.999326 
1.4050646e+3, 2.4413571e+2, -437382.13, -609019.3, 3302.7305, 0.1026826, -0.05952718, -437318.6, 110142.68, 0.0, 10.00118, 9.998921 
1.4050904e+3, 2.5413412e+2, -312775.34, -481180.3, -10252.602, 0.004221849, -0.1496129, -312153.47, 137320.14, 0.0, 10.001304, 9.999059 
1.4051168e+3, 2.6413226e+2, -304226.3, -563807.8, 45402.81, -0.08573266, -0.16952968, -296514.13, 54976.777, 0.0000000047036606, 10.001272, 9.997845 
1.4051437e+3, 2.7413034e+2, -221348.02, -461717.38, 37017.4, -0.14764754, -0.18004945, -215776.4, 37736.465, 0.000006310061, 10.001125, 9.997937 
1.4051715e+3, 2.841295e+2, -82698.86, -276774.94, 26471.668, -0.118493244, -0.070824474, -79152.95, 76369.016, 0.00007173929, 10.001109, 9.998539 
1.4052005e+3, 2.9412928e+2, 50642.426, -129112.18, -25179.25, 0.03705137, -0.00087490364, 54102.813, 111624.99, 0.0003165935, 10.001211, 9.998828 
1.4052282e+3, 3.0412632e+2, 116442.875, -101498.32, -5905.1563, 0.028840812, -0.15865844, 116602.766, 116602.766, 0.00085306884, 10.001461, 9.99857 
1.4052561e+3, 3.1412476e+2, 252962.73, 46754.1, -15733.62, -0.02133704, -0.21005912, 254156.3, 254156.3, 0.0016671364, 10.001967, 9.999353 
1.4147313e+3, 1.2410892e+2, -1690203.9, -1600837.8, 5320.0454, -0.047304485, -0.005840981, -1600522.3, 123204.35, 0.009556688, 9.999643, 10.000947 
1.4147635e+3, 1.3410799e+2, -1747515.1, -1673491.4, 52559.563, 0.35378692, -0.11888082, -1646219.6, -20486.617, 0.0055341963, 9.999032, 10.000077 
1.4147864e+3, 1.4410824e+2, -1681397.5, -1535645.0, 41081.39, -0.11841548, -0.12462641, -1524863.5, 2864.8047, 0.0022969088, 9.998579, 10.000544 
1.4148146e+3, 1.5410869e+2, -1565629.5, -1438685.1, 44812.605, -0.0820941, -0.15573874, -1424459.9, 5261.773, 0.0005425403, 9.998756, 10.00045 
1.4148425e+3, 1.6410904e+2, -1489155.1, -1417018.3, 16033.206, -0.106553234, -0.1245261, -1413615.3, -81897.36, 0.000040406845, 9.998882, 9.999869 
1.4148709e+3, 1.7410912e+2, -1351384.8, -1284410.0, 22222.988, -0.08331618, -0.14143728, -1277707.0, -43988.047, 0.00000007226826, 9.999102, 9.999996 
1.4148992e+3, 1.8410929e+2, -1221541.0, -1183030.4, -20599.666, -0.02258914, -0.10736399, -1174088.0, -38369.145, 0.0, 9.999371, 9.999889 
1.4149275e+3, 1.941094e+2, -1085453.8, -1054491.5, 1068.9229, 0.063239284, -0.12253023, -1054454.6, -16736.127, 0.0, 9.999577, 10.000001 
1.414955e+3, 2.0410961e+2, -933351.5, -848647.2, 17021.809, 0.061413508, -0.12278459, -845354.56, 94359.9, 0.0, 9.999583, 10.000741 
1.4149816e+3, 2.1410978e+2, -848028.7, -729149.3, 67649.59, -0.044254396, -0.22759308, -698536.0, 143170.83, 0.0, 9.999394, 10.000974 
1.4150088e+3, 2.2410968e+2, -866331.7, -935737.7, 63642.547, -0.10729413, -0.2217955, -828545.56, -84838.13, 0.0, 9.999663, 9.998752 
1.4150365e+3, 2.341091e+2, -659877.75, -796516.6, 54139.004, -0.11186327, -0.17243408, -641027.4, 4693.1636, 0.0, 10.000458, 9.998651 
1.4150639e+3, 2.4410883e+2, -463685.9, -624162.9, -2244.8337, -0.114237934, -0.06291917, -463654.5, 84072.305, 0.0, 10.001001, 9.998901 
1.4150909e+3, 2.541087e+2, -332480.4, -485622.6, 10511.806, -0.10832022, -0.01654878, -331762.25, 117963.98, 0.0, 10.001142, 9.999105 
1.415118e+3, 2.641075e+2, -312811.94, -542955.5, 25647.072, -0.09769499, 0.0139903985, -309988.5, 41748.6, 0.000000079284355, 10.001107, 9.998064 
1.4151457e+3, 2.7410486e+2, -238658.28, -450642.9, 50583.76, -0.09273733, -0.08875595, -227206.63, 26557.213, 0.000007370644, 10.000924, 9.99811 
1.4151731e+3, 2.8410256e+2, -166991.11, -419652.8, 16304.518, -0.10072217, -0.09052052, -165943.3, -10157.732, 0.00007202747, 10.000965, 9.997627 
1.4152005e+3, 2.9409996e+2, -52761.004, -302543.66, 3236.7583, -0.08955438, -0.16310109, -52719.07, 5089.8145, 0.0003176136, 10.001019, 9.997737 
1.4152287e+3, 3.0409598e+2, 45951.82, -190473.31, 5715.5474, -0.09816572, -0.33337367, 46089.914, 46089.914, 0.0008555456, 10.001243, 9.998045 
1.4152585e+3, 3.1409642e+2, 201163.28, 36365.76, 58391.2, -0.032993797, -0.14988683, 219755.06, 219755.06, 0.0016671689, 10.001589, 9.999442 
1.4247312e+3, 1.2408133e+2, -1814415.1, -1663764.9, 127516.266, 0.024473613, 0.014945115, -1590987.8, 133009.8, 0.010011913, 9.998836, 10.000897 
1.424762e+3, 1.3408059e+2, -1728322.5, -1611126.5, -31291.146, 0.31844828, -0.11634242, -1603295.1, 22707.148, 0.0058154534, 9.998983, 10.000511 
1.424786e+3, 1.440811e+2, -1605553.9, -1534523.5, -8174.939, -0.03203651, -0.10266923, -1533594.8, -5599.8066, 0.002423067, 9.99926, 10.000219 
1.424814e+3, 1.5408078e+2, -1521350.4, -1457960.8, -17915.35, -0.026190916, -0.1747489, -1453247.9, -23251.553, 0.00057589856, 9.999246, 10.000071 
1.4248417e+3, 1.6408095e+2, -1450310.8, -1390281.5, 13405.07, -0.07823586, -0.1452503, -1387424.1, -55429.156, 0.00004378684, 9.999108, 9.999944 
1.42487e+3, 1.740817e+2, -1334519.3, -1261624.9, 14825.255, -0.055599496, -0.108255334, -1258725.1, -24734.596, 0.00000008454083, 9.999145, 10.000134 
1.4248988e+3, 1.8408218e+2, -1227353.1, -1152131.3, 22919.854, 0.012006933, -0.06363275, -1145697.9, -9711.119, 0.0, 9.999178, 10.000196 
1.4249271e+3, 1.9408223e+2, -1089036.6, -1014138.94, 22769.262, 0.08623892, -0.119663194, -1007760.25, 30224.285, 0.0, 9.999374, 10.000371 
1.4249547e+3, 2.0408246e+2, -964581.06, -891372.3, 27761.316, 0.091447, -0.1288918, -882035.75, 57944.273, 0.0, 9.999482, 10.000495 
1.4249817e+3, 2.140826e+2, -841895.8, -764297.3, -45297.5, 0.016160008, -0.20542198, -743453.94, 98521.5, 0.0, 9.999575, 10.000652 
1.4250089e+3, 2.2408253e+2, -847170.56, -903921.2, -27725.238, -0.05483479, -0.18747883, -835874.1, -91897.47, 0.0, 9.999696, 9.998959 
1.4250363e+3, 2.3408216e+2, -702417.9, -784327.2, 965.5529, -0.13884515, -0.14303938, -702406.5, -56420.12, 0.0, 10.000022, 9.998948 
1.425064e+3, 2.4408202e+2, -565351.25, -661725.44, 2497.458, -0.14876461, -0.04173768, -565286.6, -17295.83, 0.0, 10.000258, 9.999005 
1.425092e+3, 2.540819e+2, -414961.78, -514880.63, -16910.5, -0.04886343, -0.00013183276, -412177.4, 37812.9, 0.00000000006254562, 10.000523, 9.999208 
1.42512e+3, 2.6408082e+2, -353948.66, -549016.8, 20507.254, 0.0028140135, 0.0292652, -351816.1, 184.12839, 0.00000036239143, 10.000761, 9.998185 
1.425147e+3, 2.7407846e+2, -219028.06, -422914.72, 12127.217, -0.029100405, -0.05917325, -218309.27, 35714.223, 0.000010087366, 10.000972, 9.998273 
1.4251745e+3, 2.8407612e+2, -121951.46, -413348.0, 49691.563, -0.06965678, -0.07077126, -113710.664, 42334.85, 0.00007869426, 10.001345, 9.997493 
1.4252022e+3, 2.9407305e+2, 102223.81, -243179.25, 47441.44, -0.081045516, -0.16903023, 108621.44, 166694.4, 0.00033370158, 10.002159, 9.997591 
1.4252307e+3, 3.0406898e+2, 183535.05, -212095.66, 98458.91, -0.07017444, -0.30571517, 206683.66, 206683.66, 0.00088820356, 10.002522, 9.997305 
1.4252603e+3, 3.1406918e+2, 240030.84, 20869.41, 90969.81, 0.00048768884, -0.07647911, 272870.06, 272870.06, 0.0017210246, 10.001959, 9.999179 
1.4347313e+3, 1.2405202e+2, -1892199.3, -1831441.3, 85152.875, 0.09060775, -0.15251924, -1771410.6, -47129.12, 0.010506618, 9.998841, 9.999741 
1.434759e+3, 1.3405295e+2, -1762313.1, -1676092.5, 233.08163, 0.09621143, -0.06979815, -1676091.9, -49815.91, 0.006123269, 9.998959, 10.0000725 
1.434786e+3, 1.44054e+2, -1593225.8, -1527281.4, -24351.195, -0.0020932585, 0.016380228, -1519264.0, 9003.011, 0.002563054, 9.999328, 10.000245 
1.4348143e+3, 1.540531e+2, -1523735.8, -1459049.9, -5419.06, 0.051734146, -0.114009894, -1458599.0, -28325.564, 0.0006133788, 9.999217, 10.000087 
1.4348418e+3, 1.640531e+2, -1424776.1, -1333459.6, -5575.564, -0.004250497, -0.11986813, -1333120.4, -847.493, 0.000047750204, 9.999096, 10.0003395 
1.4348698e+3, 1.7405431e+2, -1309331.3, -1205839.0, 27679.781, -0.029233426, -0.07673099, -1198901.0, 35361.93, 0.00000010052836, 9.999125, 10.000531 
1.434898e+3, 1.8405525e+2, -1200885.5, -1085184.6, 11032.967, -0.01478524, -0.028576745, -1084141.9, 52111.004, 0.0, 9.999129, 10.000679 
1.434926e+3, 1.940556e+2, -1074925.8, -956570.5, 42943.973, 0.0141733475, -0.10333295, -942630.56, 95614.445, 0.0, 9.99925, 10.000829 
1.4349538e+3, 2.0405577e+2, -1078305.4, -1095617.8, 13817.262, 0.021286702, -0.08269211, -1070656.8, -130413.9, 0.0, 9.999343, 9.999158 
1.4349815e+3, 2.140555e+2, -983892.44, -1010946.5, -28913.98, 0.037406374, -0.047371365, -965497.7, -123246.77, 0.0, 9.999366, 9.999059 
1.4350092e+3, 2.2405547e+2, -818369.8, -792947.25, -31526.617, -0.00007908235, 0.022296732, -771665.9, -27411.746, 0.0, 9.999479, 9.999824 
1.4350367e+3, 2.340557e+2, -657836.3, -636027.3, 28459.742, -0.123218335, 0.01402969, -616454.56, 29796.05, 0.0, 9.999791, 10.000075 
1.4350648e+3, 2.4405521e+2, -581899.2, -648582.2, -5262.9404, -0.12318741, 0.012544813, -581486.4, -33232.773, 0.0, 10.000049, 9.999199 
1.4350939e+3, 2.540536e+2, -445610.25, -522148.1, 7439.16, 0.063151255, -0.10496299, -444893.88, 5373.4526, 0.000000006122379, 10.000285, 9.999271 
1.4351219e+3, 2.6405224e+2, -365369.0, -535607.9, 14617.838, 0.100413606, -0.11034334, -364122.94, -11843.255, 0.0000008787704, 10.000595, 9.998363 
1.4351478e+3, 2.7405128e+2, -231740.86, -411041.38, 38791.605, -0.07807131, -0.07955126, -223708.17, 30582.658, 0.000014147242, 10.000802, 9.998444 
1.4351752e+3, 2.840501e+2, -114436.14, -360017.25, 63090.14, -0.15734066, -0.0036514574, -99176.4, 57125.49, 0.000090676054, 10.001179, 9.997936 
1.4352046e+3, 2.940481e+2, 96240.11, -213020.44, 98252.49, -0.08356708, -0.043575775, 124814.836, 183133.89, 0.00036367134, 10.001962, 9.997899 
1.4352338e+3, 3.0404487e+2, 107184.97, -318048.16, 67350.29, -0.035045937, -0.07646131, 117597.25, 117597.25, 0.00095405756, 10.002325, 9.99666 
1.4352614e+3, 3.1404328e+2, 155418.81, -58290.23, 120343.27, -0.14295875, 0.040743407, 209500.28, 209500.28, 0.0018381028, 10.001556, 9.99883 
1.4447306e+3, 1.2402397e+2, -1912374.6, -1830974.6, 67042.61, 0.16598602, -0.13485837, -1793245.0, -68685.6, 0.011047917, 9.998643, 9.99984 
1.4447571e+3, 1.3402572e+2, -1773800.0, -1651797.0, 26514.906, 0.037632484, -0.0037929397, -1646283.6, -19737.965, 0.00646129, 9.998735, 10.000342 
1.444785e+3, 1.4402674e+2, -1649316.5, -1527185.5, 55232.85, 0.0101353675, 0.05745923, -1505912.4, 22624.678, 0.0027186894, 9.998846, 10.000463 
1.4448135e+3, 1.5402633e+2, -1560022.0, -1442510.6, 46449.332, 0.066099636, -0.054693338, -1426367.9, 4171.204, 0.0006559602, 9.998835, 10.000378 
1.4448409e+3, 1.640265e+2, -1482348.3, -1354397.6, 83626.9, 0.030760692, -0.06108036, -1313081.4, 19455.156, 0.000052490832, 9.998677, 10.000395 
1.444869e+3, 1.7402747e+2, -1360217.1, -1218208.4, 62749.41, 0.01563427, -0.050116483, -1194454.6, 40073.0, 0.00000012546444, 9.998741, 10.000619 
1.4448975e+3, 1.8402825e+2, -1214991.5, -1094112.8, 59261.684, 0.03481879, -0.023266891, -1069906.6, 66611.64, 0.0, 9.999028, 10.0006695 
1.4449257e+3, 1.9402859e+2, -1009053.94, -921400.56, 27792.514, 0.04945, -0.1023585, -913331.2, 125179.17, 0.0, 9.999685, 10.000856 
1.4449537e+3, 2.0402871e+2, -1001619.4, -1087988.5, 29039.197, 0.04933231, -0.073683694, -992763.75, -52254.848, 0.0, 10.000017, 9.998884 
1.4449814e+3, 2.1402843e+2, -914437.4, -1002164.2, 46598.234, 0.060525503, -0.010007674, -894305.5, -51787.086, 0.0, 9.999975, 9.998817 
1.4450093e+3, 2.2402835e+2, -746834.5, -743446.5, 107675.74, 0.043260124, 0.061433427, -637451.44, 107070.34, 0.0, 9.999891, 9.99997 
1.4450373e+3, 2.3402838e+2, -647214.0, -609112.44, 72172.68, -0.029444532, 0.01139327, -553518.5, 92999.375, 0.0, 9.99975, 10.000284 
1.4450656e+3, 2.4402767e+2, -630702.56, -686647.44, 29349.963, -0.025454741, -0.018510904, -618130.25, -69608.13, 0.0, 9.999785, 9.999057 
1.4450942e+3, 2.5402573e+2, -459611.97, -553129.3, -5708.5645, 0.08290556, -0.14767864, -459264.78, -8724.671, 0.000000012932129, 10.000275, 9.999069 
1.4451224e+3, 2.6402447e+2, -351435.13, -501490.66, 16312.019, 0.1068616, -0.1473192, -349682.38, 2869.9844, 0.0000016431604, 10.000574, 9.998608 
1.4451493e+3, 2.7402404e+2, -218323.05, -368554.84, 8952.817, 0.003209953, -0.08856421, -217791.4, 36765.84, 0.000019343763, 10.000746, 9.998758 
1.4451773e+3, 2.8402302e+2, -74136.945, -351691.75, 86210.664, -0.06316532, -0.014699237, -49539.18, 107028.26, 0.00010742276, 10.001497, 9.997838 
1.4452071e+3, 2.9402083e+2, 236009.17, -154717.13, 60241.074, -0.057491556, -0.059197932, 245086.11, 303673.63, 0.00040939418, 10.002964, 9.997807 
1.4452365e+3, 3.0401826e+2, 252213.67, -252826.45, 5627.305, -0.02599822, -0.019275494, 252276.36, 252276.36, 0.0010586398, 10.003326, 9.99664 
1.4452632e+3, 3.1401646e+2, 230877.42, -20614.094, 23770.465, -0.11879906, 0.07707486, 233104.44, 233104.44, 0.002027643, 10.002084, 9.998827 
1.4547293e+3, 1.2399748e+2, -1796150.4, -1616449.6, -9014.259, 0.09318437, 0.06454963, -1615998.6, 108830.38, 0.011640448, 9.998741, 10.001278 
1.4547561e+3, 1.3399915e+2, -1711049.3, -1512714.1, 53117.82, 0.039324645, 0.076618396, -1499384.1, 127424.664, 0.0068325973, 9.998682, 10.001337 
1.4547828e+3, 1.4399955e+2, -1626808.9, -1476385.3, 43496.164, -0.15470031, 0.011788209, -1464713.6, 64089.168, 0.0028915813, 9.998834, 10.0008135 
1.4548106e+3, 1.540005e+2, -1538359.8, -1383848.8, 59240.277, -0.123717785, -0.0064866967, -1363750.1, 67042.62, 0.00070428615, 9.998783, 10.000802 
1.4548385e+3, 1.640013e+2, -1488520.5, -1375729.1, 66125.266, -0.11014418, 0.033084672, -1345216.6, -12432.342, 0.000058062662, 9.998707, 10.000237 
1.4548676e+3, 1.7400137e+2, -1383542.1, -1259063.0, 80428.64, -0.036829166, -0.02115391, -1219604.4, 15178.324, 0.00000016567238, 9.998702, 10.000361 
1.4548968e+3, 1.8400131e+2, -1251043.8, -1160689.8, 67324.15, 0.03321799, -0.04450759, -1124789.6, 11991.937, 0.0, 9.998992, 10.000233 
1.4549258e+3, 1.9400118e+2, -1059255.4, -1002752.25, 66539.88, 0.07750358, -0.11699904, -958714.8, 80065.56, 0.0, 9.999579, 10.000357 
1.454954e+3, 2.0400125e+2, -970963.94, -985047.3, 13314.18, 0.0564448, -0.10343002, -962944.0, -22165.285, 0.0, 9.999857, 9.999662 
1.4549805e+3, 2.1400131e+2, -882149.2, -882704.44, 58147.305, -0.032748286, -0.09823328, -824278.9, 18499.78, 0.0, 9.999759, 9.999739 
1.4550084e+3, 2.2400106e+2, -808336.4, -822770.44, 85962.664, -0.053235598, -0.07386421, -729288.3, 15492.674, 0.0, 9.999681, 9.999527 
1.4550377e+3, 2.3400033e+2, -730526.3, -718461.2, 81529.414, 0.021220589, -0.13910928, -642741.44, 4045.8127, 0.0, 9.999486, 9.999658 
1.455066e+3, 2.4399953e+2, -692418.56, -771175.56, 31996.826, 0.017611189, -0.12311733, -681057.9, -132262.52, 0.0, 9.999585, 9.998579 
1.4550929e+3, 2.539985e+2, -517339.34, -632304.06, 29556.6, -0.09934204, -0.11704193, -510185.7, -59378.176, 0.000000017460069, 10.000095, 9.998616 
1.455121e+3, 2.6399755e+2, -359591.53, -482259.7, 10898.674, -0.100952014, -0.06609271, -358630.72, -5813.6855, 0.000002726617, 10.000414, 9.9988165 
1.455151e+3, 2.7399662e+2, -229997.56, -342875.5, 31374.373, 0.073772445, -0.09094294, -221863.25, 32961.43, 0.000025176965, 10.000536, 9.999029 
1.4551805e+3, 2.8399476e+2, -135545.67, -425760.25, 123154.28, 0.08382205, -0.09563193, -90329.28, 66513.42, 0.00012772917, 10.001272, 9.9974375 
1.4552096e+3, 2.9399145e+2, 171629.25, -233224.05, 138456.48, -0.1351135, -0.20708308, 214450.94, 273327.5, 0.00046719576, 10.002725, 9.997387 
1.4552386e+3, 3.0398944e+2, 248367.11, -207899.8, -41581.83, -0.16631015, -0.11134172, 252125.7, 252125.7, 0.0011939944, 10.003098, 9.99706 
1.4552653e+3, 3.1398845e+2, 171211.6, -68609.56, 13358.163, -0.17462642, 0.021351697, 171953.36, 171953.36, 0.0022784644, 10.001751, 9.998662 
1.4647277e+3, 1.2397056e+2, -1884914.1, -1588135.3, 102044.24, 0.121510886, 0.11982865, -1556434.6, 168660.83, 0.012283002, 9.997846, 10.001905 
1.4647546e+3, 1.3397178e+2, -1813728.0, -1529143.1, 38829.09, 0.0740888, 0.054957394, -1523940.4, 103136.55, 0.00723705, 9.997857, 10.001613 
1.4647809e+3, 1.4397198e+2, -1836457.5, -1591612.9, 41157.766, -0.13241687, -0.030572169, -1584879.6, -55807.727, 0.0030819494, 9.997423, 10.000724 
1.464809e+3, 1.5397348e+2, -1632840.9, -1425566.1, -3088.5383, -0.10791784, 0.003174019, -1425520.1, 5538.206, 0.0007585455, 9.99809, 10.000863 
1.4648375e+3, 1.6397446e+2, -1514256.5, -1387556.6, 23516.633, -0.06235596, 0.05531212, -1383332.5, -50284.113, 0.00006440502, 9.998533, 10.000235 
1.4648665e+3, 1.739741e+2, -1350812.0, -1244331.3, 22315.771, -0.0023352548, -0.040357735, -1239843.6, -4794.187, 0.00000022299002, 9.998929, 10.000351 
1.4648958e+3, 1.8397385e+2, -1284327.0, -1213324.0, 48960.777, 0.0526298, -0.06569395, -1188348.1, -51297.605, 0.0, 9.99895, 9.999879 
1.4649251e+3, 1.9397394e+2, -1211582.4, -1111838.1, 23472.678, 0.09540365, -0.08119077, -1106590.4, -67540.336, 0.0, 9.998712, 10.000012 
1.4649533e+3, 2.0397396e+2, -1089481.1, -1002944.06, -226.81216, 0.06947915, -0.06714113, -1002943.44, -61894.887, 0.0, 9.998844, 10.000046 
1.46498e+3, 2.1397373e+2, -864210.9, -819241.5, -9289.95, -0.051747575, -0.14039089, -817397.94, 25649.338, 0.0, 9.999625, 10.000252 
1.4650081e+3, 2.239734e+2, -798309.6, -854461.44, 13938.876, -0.06266216, -0.13639621, -795039.9, -49990.6, 0.0, 9.999937, 9.999175 
1.4650379e+3, 2.3397271e+2, -721081.44, -765027.2, -16859.607, 0.08125542, -0.14871587, -715358.56, -68300.164, 0.0, 9.999779, 9.999192 
1.4650664e+3, 2.4397203e+2, -626581.6, -721214.25, 18132.906, 0.09718276, -0.10126142, -623226.1, -74159.336, 0.0, 9.999964, 9.998737 
1.4650933e+3, 2.5397134e+2, -404749.78, -545970.2, 38225.715, -0.088885866, -0.084280275, -395066.72, 56007.195, 0.000000044837254, 10.000743, 9.998889 
1.4651217e+3, 2.6397035e+2, -258993.97, -458297.78, 42919.043, -0.10564965, -0.044577044, -250144.52, 102939.05, 0.0000038968087, 10.001214, 9.998597 
1.4651522e+3, 2.7396876e+2, -139882.6, -332709.84, -3171.2324, 0.12261567, -0.102704704, -139830.45, 115268.21, 0.000030518888, 10.001283, 9.998751 
1.4651823e+3, 2.8396687e+2, -108702.234, -385128.97, 143108.05, 0.15064901, -0.105684824, -47961.207, 109156.93, 0.00014669269, 10.001334, 9.997689 
1.465212e+3, 2.9396465e+2, 5471.23, -275145.88, 163309.3, -0.10322422, -0.13278773, 80468.08, 139610.17, 0.00052426284, 10.001432, 9.997713 
1.4652413e+3, 3.0396295e+2, 88870.69, -258824.47, 5282.8984, -0.1264592, -0.036542736, 88950.94, 88950.94, 0.0013359482, 10.001907, 9.997262 
1.4652683e+3, 3.1396106e+2, 276040.53, -51221.69, -19609.59, -0.06762363, -0.004301089, 277211.34, 277211.34, 0.002551417, 10.002609, 9.998361 
1.4747247e+3, 1.239425e+2, -1901484.0, -1619062.9, 105932.79, -0.031644862, -0.034608096, -1583745.4, 141618.83, 0.012969953, 9.997852, 10.001669 
1.4747517e+3, 1.3394354e+2, -1867742.5, -1622559.0, 24593.402, -0.027684346, -0.065367326, -1620116.4, 7233.9175, 0.0076708426, 9.997788, 10.000992 
1.4747794e+3, 1.4394404e+2, -1854314.9, -1640316.6, 31846.545, -0.0663235, -0.06955881, -1635677.9, -106333.11, 0.0032881629, 9.997459, 10.000378 
1.4748086e+3, 1.539454e+2, -1661624.6, -1473159.4, 35021.34, 0.004487623, -0.018180134, -1466862.0, -35527.664, 0.00081847684, 9.998035, 10.000566 
1.4748375e+3, 1.6394612e+2, -1496250.9, -1361294.6, 20945.805, 0.045746118, 0.01625788, -1358118.5, -24790.88, 0.000071419374, 9.998572, 10.000395 
1.4748658e+3, 1.7394574e+2, -1346222.1, -1221153.0, 47975.35, -0.002361692, -0.10358369, -1204870.0, 30456.998, 0.0000002932695, 9.998874, 10.000532 
1.4748941e+3, 1.839459e+2, -1304471.1, -1259137.9, 23772.574, -0.032902986, -0.08264053, -1248957.8, -111633.24, 0.0, 9.998952, 9.99957 
1.4749229e+3, 1.9394672e+2, -1248736.8, -1170041.9, 26009.041, -0.018736312, 0.007864937, -1162222.6, -122902.336, 0.0, 9.998621, 9.999662 
1.4749514e+3, 2.0394684e+2, -1098687.6, -991006.6, 6421.929, -0.043538824, 0.043686844, -990625.0, -49306.027, 0.0, 9.99871, 10.000189 
1.474979e+3, 2.1394587e+2, -885199.06, -810325.8, 31753.828, -0.11995759, -0.121593915, -798672.6, 44649.72, 0.0, 9.999405, 10.000417 
1.4750077e+3, 2.2394544e+2, -852051.06, -923955.1, -4347.2856, -0.10810684, -0.118982926, -851789.2, -106463.586, 0.0, 9.999742, 9.998799 
1.4750372e+3, 2.3394558e+2, -776992.75, -840011.1, -7552.5054, 0.033225548, -0.009202258, -776100.25, -128769.29, 0.0, 9.999596, 9.998771 
1.4750664e+3, 2.4394526e+2, -598502.7, -623297.9, 27542.514, 0.075007915, 0.0627544, -580696.1, -31360.236, 0.0, 9.999788, 9.9994955 
1.475095e+3, 2.5394413e+2, -375644.25, -433883.7, 80127.61, -0.01603025, -0.05103074, -319509.13, 131831.84, 0.000000082863835, 10.000521, 9.999766 
1.4751238e+3, 2.6394272e+2, -329537.28, -557330.3, 35471.832, -0.039797913, -0.0778448, -324141.44, 29211.629, 0.0000048986644, 10.001006, 9.998015 
1.4751528e+3, 2.7394053e+2, -219218.02, -452277.1, 21262.957, 0.02778053, -0.12802428, -217294.0, 38084.477, 0.00003489947, 10.00109, 9.998016 
1.4751825e+3, 2.8393942e+2, -95013.57, -317258.8, 129850.68, 0.0058750995, -0.034771856, -35228.516, 122163.914, 0.00016199038, 10.001157, 9.998245 
1.4752133e+3, 2.9394007e+2, 22500.543, -185495.6, 184571.06, -0.12355345, 0.14513494, 130356.375, 189744.61, 0.00057622173, 10.001196, 9.9984455 
1.4752442e+3, 3.039384e+2, 61347.277, -258946.05, 18049.186, -0.063220315, 0.19737965, 62361.176, 62361.176, 0.0014704296, 10.001658, 9.997379 
1.4752714e+3, 3.1393415e+2, 195051.78, -120051.51, 46914.52, -0.06764046, -0.01607816, 201888.38, 201888.38, 0.002807485, 10.002188, 9.998086 
1.4847225e+3, 1.2391508e+2, -2106958.0, -1759577.1, 98117.49, 0.049491193, -0.075089045, -1733779.8, -8148.6885, 0.013700781, 9.996602, 10.001313 
1.4847498e+3, 1.339161e+2, -1813880.6, -1624484.0, -708.1675, -0.0037710255, -0.0780735, -1624481.4, 3138.0708, 0.00813248, 9.998241, 10.00078 
1.4847787e+3, 1.4391673e+2, -1713706.9, -1608281.9, 57051.55, 0.07635793, -0.041060086, -1583318.9, -53705.3, 0.0035089266, 9.998618, 10.000019 
1.4848074e+3, 1.5391733e+2, -1609427.3, -1487649.3, 19947.725, 0.07483252, -0.030626155, -1484465.0, -52853.703, 0.0008836724, 9.998587, 10.000185 
1.4848362e+3, 1.6391778e+2, -1511854.4, -1361151.5, 27286.201, 0.0741439, 0.00070082746, -1356363.1, -22756.129, 0.00007901186, 9.9984665, 10.000442 
1.4848645e+3, 1.7391798e+2, -1382139.0, -1223603.1, 13856.913, 0.015017735, -0.07002209, -1222401.0, 13199.536, 0.00000037325287, 9.99858, 10.000659 
1.4848931e+3, 1.8391825e+2, -1351691.1, -1279201.0, 23408.889, -0.0074176425, -0.046000954, -1272298.9, -134702.47, 0.0, 9.998616, 9.999595 
1.4849219e+3, 1.9391856e+2, -1212343.9, -1149645.1, 21165.545, 0.013958717, -0.009380262, -1143169.0, -103572.18, 0.0, 9.998857, 9.999689 
1.4849505e+3, 2.0391855e+2, -1050941.8, -968154.06, 55459.71, -0.0016320033, 0.014830113, -940343.6, 1252.9082, 0.0, 9.999069, 10.000156 
1.484979e+3, 2.1391809e+2, -900731.75, -816053.0, 32719.678, -0.068508625, -0.09536683, -804883.5, 38711.88, 0.0, 9.999309, 10.00041 
1.4850077e+3, 2.2391781e+2, -891303.44, -939469.06, 16935.621, -0.059978027, -0.079175584, -885944.9, -140347.67, 0.0, 9.99944, 9.998842 
1.4850368e+3, 2.3391779e+2, -774736.44, -831813.56, 20386.008, 0.037440408, 0.0080031315, -768203.1, -120599.26, 0.0, 9.999565, 9.998846 
1.485066e+3, 2.4391729e+2, -588839.8, -609264.25, 102456.52, 0.074879915, 0.053330563, -496087.84, 53522.13, 0.0, 9.999815, 9.999587 
1.4850958e+3, 2.5391603e+2, -399929.53, -434369.47, 68004.71, 0.029552981, -0.08343774, -346998.47, 104617.18, 0.00000011463164, 10.000307, 9.999871 
1.4851253e+3, 2.639146e+2, -366461.3, -600304.44, 19839.977, 0.01687288, -0.103830814, -364789.97, -11161.793, 0.000005857849, 10.000876, 9.997775 
1.485154e+3, 2.7391282e+2, -162224.45, -459989.97, -5997.711, 0.032890387, -0.07877552, -162103.69, 93548.78, 0.000039275426, 10.001643, 9.997695 
1.4851838e+3, 2.8391194e+2, -1283.4563, -242012.81, 112447.47, 0.0079094125, 0.044070974, 43070.08, 200735.3, 0.00017769578, 10.001679, 9.998505 
1.4852148e+3, 2.9391232e+2, -27529.193, -175152.58, 106225.4, -0.054055657, 0.17184347, 28011.354, 87672.78, 0.0006295016, 10.00069, 9.99877 
1.4852463e+3, 3.039103e+2, -16978.969, -233925.75, 28170.924, 0.032517903, 0.14138453, -13380.609, -13380.609, 0.0015966581, 10.000823, 9.99797 
1.4852744e+3, 3.1390753e+2, 259112.28, -17373.379, 15500.274, 0.02345256, 0.020577895, 259978.55, 259978.55, 0.003028199, 10.002309, 9.998732 
1.4947186e+3, 1.2388874e+2, -2099343.8, -1755976.4, 2832.6123, -0.07428345, 0.060711052, -1755953.0, -30060.906, 0.014485426, 9.996656, 10.0013075 
1.4947484e+3, 1.3388996e+2, -1802165.4, -1589869.5, 64146.594, 0.014072041, 0.05689209, -1571992.5, 55886.617, 0.008627366, 9.998201, 10.001039 
1.4947785e+3, 1.438904e+2, -1718754.1, -1657663.3, 31333.627, 0.15537967, 0.072433, -1644450.0, -114574.89, 0.0037456865, 9.998762, 9.99962 
1.4948052e+3, 1.5388948e+2, -1653795.4, -1580848.4, 29352.363, -0.03430728, -0.009930667, -1570504.4, -138617.72, 0.0009542572, 9.99858, 9.9995575 
1.494833e+3, 1.6388963e+2, -1505675.6, -1361457.8, 12402.156, -0.13724685, 0.026342506, -1360399.0, -26513.74, 0.00008722728, 9.998516, 10.000413 
1.4948626e+3, 1.7389093e+2, -1388398.1, -1225719.6, 29540.143, -0.06595833, 0.063568905, -1220521.6, 15347.441, 0.0000004647829, 9.998536, 10.000662 
1.4948921e+3, 1.8389112e+2, -1324830.5, -1227923.5, 13128.513, -0.0012740345, 0.061450917, -1226176.4, -88311.734, 0.0, 9.998627, 9.999946 
1.4949214e+3, 1.9388959e+2, -1204340.5, -1107197.1, 41669.38, 0.06315357, -0.120653525, -1091772.4, -51894.195, 0.0, 9.998742, 10.000037 
1.4949505e+3, 2.038892e+2, -1084790.9, -1010408.5, 47451.08, 0.06845079, -0.14542109, -987310.5, -45430.188, 0.0, 9.99894, 9.999931 
1.494979e+3, 2.138904e+2, -949796.6, -873470.06, 53554.523, 0.0012058148, -0.063070916, -845872.2, -2005.9004, 0.0, 9.999118, 10.000107 
1.4950076e+3, 2.2389065e+2, -886170.6, -886491.44, 4541.9453, -0.033980306, 0.00033378994, -881786.25, -135923.03, 0.0, 9.9992485, 9.999303 
1.4950359e+3, 2.3388937e+2, -766222.9, -766015.6, 37868.707, -0.024401948, -0.09369796, -728250.4, -80373.17, 0.0, 9.999354, 9.999402 
1.4950651e+3, 2.4388821e+2, -660452.25, -710031.0, 105485.38, -0.034946382, -0.116402015, -576882.56, -26994.25, 0.0, 9.999604, 9.998996 
1.4950952e+3, 2.5388697e+2, -480033.25, -558265.44, 103824.91, -0.066765815, -0.18107884, -408200.34, 43697.207, 0.00000015644366, 10.000116, 9.999115 
1.4951254e+3, 2.63886e+2, -407282.4, -633424.7, 33463.516, -0.058044963, -0.110142976, -402434.56, -48525.97, 0.000006865855, 10.000656, 9.99765 
1.4951557e+3, 2.7388546e+2, -199450.6, -484510.94, 39712.21, 0.0074806856, 0.043022756, -194021.63, 61900.668, 0.00004412461, 10.001421, 9.997631 
1.4951858e+3, 2.838843e+2, -27660.941, -254953.55, 66534.8, 0.009626368, 0.13866742, -9616.845, 148320.77, 0.00019465707, 10.001493, 9.9985075 
1.4952159e+3, 2.938817e+2, -50136.0, -182856.38, 93668.18, -0.044094738, -0.035423312, -1703.3232, 58256.215, 0.00068026903, 10.000512, 9.998807 
1.495247e+3, 3.0387893e+2, 2261.7773, -135202.75, 62972.797, 0.009935238, -0.17420499, 26748.06, 26748.06, 0.0016999418, 10.000586, 9.9987545 
1.4952765e+3, 3.1388086e+2, 279038.16, 113439.58, 100910.055, -0.062496785, 0.07927518, 326770.72, 326770.72, 0.0031866326, 10.001925, 9.999818 
1.5047158e+3, 1.2386022e+2, -2092880.4, -1779659.9, 17287.453, -0.0053803143, 0.037497625, -1778708.6, -52538.305, 0.015336173, 9.996828, 10.001057 
1.5047473e+3, 1.338619e+2, -1835084.9, -1617966.1, 38086.703, 0.10864357, 0.08442899, -1611478.8, 16675.988, 0.0091627855, 9.998014, 10.0009365 
1.5047774e+3, 1.438623e+2, -1727707.6, -1648899.4, -15073.636, 0.16888951, 0.09877531, -1646114.8, -115963.27, 0.0040015904, 9.998673, 9.999715 
1.5048039e+3, 1.5386136e+2, -1635618.9, -1551482.8, -5733.992, -0.0059619313, 0.0009276081, -1551093.8, -118932.16, 0.001031135, 9.99864, 9.999721 
1.5048316e+3, 1.6386141e+2, -1515175.0, -1388400.3, 45704.813, -0.10602588, 0.025782302, -1373641.1, -39480.36, 0.000096309515, 9.998521, 10.00024 
1.5048616e+3, 1.7386249e+2, -1364495.0, -1232097.4, 18673.398, -0.020489048, 0.05971786, -1229514.1, 6633.6563, 0.000000575819, 9.998756, 10.000518 
1.5048915e+3, 1.8386255e+2, -1277365.9, -1226102.0, 16317.387, 0.06562883, 0.06086674, -1221348.8, -83203.58, 0.0, 9.999053, 9.999741 
1.504921e+3, 1.9386098e+2, -1074652.0, -1063327.5, -25432.506, 0.11291684, -0.10663139, -1042934.5, -2775.6184, 0.0, 9.99972, 9.999855 
1.5049501e+3, 2.0386046e+2, -973147.94, -971731.5, -30812.598, 0.105703734, -0.12940101, -941619.0, 543.636, 0.0, 9.999779, 9.999795 
1.5049781e+3, 2.1386138e+2, -964631.2, -898486.3, -48133.32, 0.014836682, -0.05776659, -873158.44, -29005.867, 0.0, 9.999087, 9.999958 
1.5050068e+3, 2.2386147e+2, -881806.75, -867193.3, -36437.953, -0.021318149, -0.003774785, -837336.7, -91185.79, 0.0, 9.999239, 9.999424 
1.5050362e+3, 2.3386028e+2, -546937.2, -641870.56, -65143.344, 0.013001801, -0.10077401, -513801.53, 134360.94, 0.0, 10.000805, 9.999544 
1.505066e+3, 2.4385916e+2, -413990.1, -631861.1, -12914.625, 0.023390196, -0.11223146, -413227.25, 136946.33, 0.0, 10.001483, 9.998617 
1.5050963e+3, 2.5385794e+2, -407604.38, -568975.0, -33339.145, -0.013696383, -0.13069613, -400987.8, 51197.375, 0.00000020302433, 10.000824, 9.998686 
1.5051264e+3, 2.6385692e+2, -379935.84, -586063.94, -17692.225, -0.030061139, -0.055109788, -378428.3, -24231.121, 0.0000077496, 10.000687, 9.997966 
1.5051568e+3, 2.7385616e+2, -169977.06, -423479.88, 226.05356, -0.020812197, 0.039689336, -169976.86, 86232.61, 0.000048509926, 10.001401, 9.99807 
1.505187e+3, 2.8385478e+2, -19506.977, -299143.94, 23066.904, -0.013623013, 0.10993413, -17616.99, 140608.83, 0.00020995413, 10.001764, 9.998072 
1.5052177e+3, 2.9385206e+2, 86477.8, -168253.36, -45225.727, 0.023016328, -0.027430598, 94269.01, 154520.67, 0.0007218459, 10.001713, 9.998303 
1.5052488e+3, 3.0384886e+2, 161991.14, -62361.54, -50627.277, 0.099301115, -0.17568436, 172886.53, 172886.53, 0.0017673858, 10.001684, 9.998745 
1.5052788e+3, 3.138503e+2, 208248.13, 131419.48, -118257.41, 0.03257716, 0.035013676, 294173.97, 294173.97, 0.0032624332, 10.001204, 10.000312 
1.5147147e+3, 1.2383021e+2, -2103573.0, -1836000.4, 65050.484, 0.12785405, -0.1163117, -1821024.0, -94565.51, 0.016257107, 9.996964, 10.000613 
1.5147461e+3, 1.338321e+2, -1897560.1, -1722417.3, 110362.1, 0.15733932, 0.004334103, -1669103.9, -40659.547, 0.009740974, 9.997924, 10.000258 
1.5147741e+3, 1.4383268e+2, -1671246.8, -1559737.5, -32065.41, -0.06694043, 0.05305943, -1551174.4, -20734.295, 0.0042781597, 9.998773, 10.000285 
1.5148033e+3, 1.5383296e+2, -1579646.3, -1439540.4, 4654.2915, 0.0344432, 0.0033821566, -1439386.0, -6950.368, 0.0011151112, 9.998648, 10.000489 
1.514832e+3, 1.6383313e+2, -1518585.0, -1413445.8, 31818.617, 0.037416104, 0.005599912, -1404566.3, -70133.7, 0.000106548556, 9.9985895, 10.000034 
1.5148611e+3, 1.7383273e+2, -1394054.1, -1287280.3, 39890.78, 0.04420612, -0.08067966, -1274023.0, -37587.402, 0.0000007145684, 9.998721, 10.000159 
1.5148908e+3, 1.838326e+2, -1325468.3, -1327197.1, 24426.459, 0.060402118, -0.04854132, -1301890.9, -163453.38, 0.0, 9.999057, 9.999046 
1.5149203e+3, 1.9383276e+2, -1144385.1, -1184331.3, 11110.369, 0.046656054, 0.033613082, -1141502.9, -101064.31, 0.0, 9.999618, 9.999075 
1.5149489e+3, 2.0383242e+2, -998368.44, -994693.4, -69721.664, -0.02099621, 0.078138895, -926785.06, 15657.489, 0.0, 9.999648, 9.999703 
1.5149759e+3, 2.1383119e+2, -994049.8, -911217.9, -61294.89, -0.14537257, -0.06424398, -878658.5, -34206.3, 0.0, 9.998876, 9.999974 
1.515005e+3, 2.2383049e+2, -936084.9, -927308.44, -1910.8907, -0.15292361, -0.078771755, -926910.44, -180452.03, 0.0, 9.999008, 9.9991255 
1.5150374e+3, 2.3383056e+2, -602849.1, -710568.7, 10503.328, 0.030580401, -0.016208945, -601834.56, 46625.01, 0.0, 10.000599, 9.999174 
1.5150686e+3, 2.438301e+2, -460764.13, -683803.25, -43893.38, 0.11493522, 0.07208728, -452436.94, 98028.586, 0.0, 10.001279, 9.998365 
1.5150979e+3, 2.5382873e+2, -449735.44, -615454.9, -42797.47, 0.06028175, 0.062674284, -439335.53, 13144.284, 0.00000026346208, 10.000637, 9.998465 
1.5151273e+3, 2.638271e+2, -354187.84, -481613.47, -8834.124, -0.030751405, 0.05374241, -353578.3, 917.3478, 0.000008336701, 10.000473, 9.998786 
1.5151568e+3, 2.7382508e+2, -138415.53, -302790.38, 48227.785, -0.17606165, -0.07723421, -125310.3, 131202.97, 0.00005112129, 10.001174, 9.999007 
1.5151872e+3, 2.8382367e+2, -121605.734, -461048.3, 8685.637, -0.20273034, -0.01445863, -121383.63, 37144.215, 0.00022272031, 10.001541, 9.9970665 
1.5152194e+3, 2.93823e+2, -35983.375, -374345.28, -23193.635, -0.004565067, 0.17396726, -34400.926, 26139.576, 0.0007568992, 10.001496, 9.996993 
1.5152512e+3, 3.0381963e+2, 73999.305, -176459.28, -74790.56, 0.15038995, 0.11140541, 94632.98, 94632.98, 0.0018094213, 10.001415, 9.998078 
1.5152805e+3, 3.1381622e+2, 157260.64, 123157.37, -75669.3, 0.04437745, -0.115648374, 217775.75, 217775.75, 0.0032761982, 10.000819, 10.000424 
1.5247118e+3, 1.2379937e+2, -1997067.9, -1775491.3, -18367.809, 0.123160675, -0.11266517, -1773979.0, -47217.004, 0.017244658, 9.997682, 10.000676 
1.524744e+3, 1.3380086e+2, -1923348.9, -1712701.6, -19211.213, 0.19259402, -0.04787984, -1710963.9, -82212.55, 0.010359608, 9.997673, 10.000437 
1.5247723e+3, 1.4380187e+2, -1829284.5, -1580744.3, -93739.5, -0.045626167, 0.01602015, -1549354.0, -18611.563, 0.0045741852, 9.997464, 10.000764 
1.524802e+3, 1.5380302e+2, -1592633.3, -1375212.0, -109253.21, 0.07267292, -0.009874167, -1329798.5, 102929.42, 0.0012060112, 9.998244, 10.001124 
1.5248312e+3, 1.6380344e+2, -1520073.5, -1430841.4, -56193.977, 0.1111536, -0.008983291, -1403705.4, -68983.02, 0.000118081814, 9.998687, 9.99986 
1.5248606e+3, 1.7380266e+2, -1349508.1, -1289443.1, -75707.79, 0.10577613, -0.102972865, -1238028.6, -1297.1865, 0.0000008766353, 9.999161, 9.999923 
1.5248902e+3, 1.8380256e+2, -1259167.4, -1259854.3, -28048.516, 0.09551436, -0.065489076, -1231460.1, -92726.49, 0.0, 9.999352, 9.99938 
1.5249196e+3, 1.9380349e+2, -1142230.6, -1139174.0, 17662.395, 0.030814836, 0.053792287, -1122973.9, -82247.9, 0.0, 9.99943, 9.999491 
1.5249482e+3, 2.0380338e+2, -1041542.94, -1043023.6, -11817.71, -0.032891784, 0.11054614, -1030442.4, -87715.05, 0.0, 9.999449, 9.999469 
1.5249754e+3, 2.1380167e+2, -933498.0, -915594.4, -58477.605, -0.089769475, -0.055072993, -865387.4, -20644.262, 0.0, 9.999421, 9.99968 
1.525005e+3, 2.2380066e+2, -853331.7, -903707.9, 73702.33, -0.0706398, -0.078413986, -800632.25, -53879.555, 0.0, 9.999632, 9.998992 
1.525038e+3, 2.3380074e+2, -660790.8, -747630.9, 84687.24, 0.05847502, -0.004716751, -609041.4, 39711.42, 0.0, 10.000234, 9.999093 
1.5250696e+3, 2.4380025e+2, -559432.25, -730218.0, 35171.965, 0.13215277, 0.08414996, -552472.5, -1713.8676, 0.0, 10.000626, 9.998344 
1.5250991e+3, 2.5379878e+2, -426151.66, -601108.6, 14907.038, 0.12083116, 0.06781264, -424890.6, 27883.604, 0.0000003530132, 10.000809, 9.998465 
1.5251285e+3, 2.6379707e+2, -290163.56, -459982.03, 74694.69, 0.04400641, 0.0536293, -261984.88, 92805.59, 0.000008619123, 10.00094, 9.9987135 
1.525158e+3, 2.7379498e+2, -177175.78, -321502.25, 26324.623, -0.14423457, -0.07824417, -172524.19, 84283.375, 0.000051931653, 10.000921, 9.998988 
1.5251885e+3, 2.837934e+2, -182537.42, -486760.56, 8040.074, -0.1728479, -0.03834664, -182325.1, -23501.762, 0.00023518385, 10.001106, 9.997108 
1.5252216e+3, 2.9379234e+2, -23657.268, -367606.13, 32863.082, 0.07389909, 0.11377577, -20545.473, 40293.72, 0.0007914771, 10.001558, 9.997031 
1.5252534e+3, 3.037895e+2, 87376.27, -227255.34, 55212.973, 0.22143865, 0.12334077, 96784.0, 96784.0, 0.0018456153, 10.001731, 9.997592 
1.5252817e+3, 3.137857e+2, 195985.86, 95017.56, -11011.89, 0.063361034, -0.08365853, 197172.89, 197172.89, 0.0032737567, 10.00126, 10.000032 
1.534708e+3, 1.2376816e+2, -1954178.9, -1710940.5, -3950.4958, -0.0980337, 0.10225974, -1710876.4, 16200.639, 0.018294634, 9.997777, 10.001075 
1.5347408e+3, 1.3376844e+2, -1854053.0, -1566721.0, -23234.084, 0.079447426, -0.051557697, -1564854.4, 64219.64, 0.011016667, 9.997663, 10.001448 
1.5347715e+3, 1.4377011e+2, -1787454.3, -1515831.1, -95996.01, 0.08320506, 0.011109653, -1485329.6, 45726.277, 0.0048880493, 9.997551, 10.001176 
1.5347995e+3, 1.5377164e+2, -1572809.0, -1313022.3, -70976.984, -0.01702145, -0.021530738, -1294895.3, 138142.42, 0.0013030368, 9.998163, 10.001593 
1.534829e+3, 1.6377248e+2, -1523740.4, -1453904.9, -58924.76, -0.019504558, 0.0021891748, -1420329.0, -85299.93, 0.00013086536, 9.998744, 9.999679 
1.5348595e+3, 1.7377234e+2, -1375770.0, -1335055.1, -48684.125, 0.049267925, 0.0018568644, -1302643.5, -65608.98, 0.0000010420176, 9.999124, 9.999629 
1.5348893e+3, 1.8377253e+2, -1161897.5, -1064194.6, -43621.234, 0.039755173, 0.02896354, -1047553.56, 91479.48, 0.0, 9.999374, 10.000713 
1.5349184e+3, 1.9377315e+2, -1038896.7, -909209.6, 30772.008, -0.052845594, -0.04339935, -902278.5, 138742.88, 0.0, 9.999356, 10.001107 
1.5349475e+3, 2.0377332e+2, -1087319.6, -1099249.4, -26792.96, -0.06065758, -0.038275983, -1065835.5, -122818.4, 0.0, 9.999287, 9.999158 
1.5349765e+3, 2.1377271e+2, -1010804.7, -1022988.2, -45900.914, 0.063510664, -0.032221068, -970593.06, -125567.55, 0.0, 9.999197, 9.999048 
1.5350065e+3, 2.2377196e+2, -882446.2, -909321.3, 79031.38, 0.09253983, 0.0022791398, -815718.1, -68684.39, 0.0, 9.999393, 9.999068 
1.5350378e+3, 2.3377086e+2, -675437.5, -731424.2, 123343.734, -0.013569613, -0.06411665, -576950.4, 72091.76, 0.0, 10.00003, 9.999307 
1.5350686e+3, 2.4376959e+2, -584994.7, -723469.06, 29464.967, -0.052963063, -0.07270815, -578985.8, -27932.469, 0.0, 10.000377, 9.998505 
1.5350993e+3, 2.537681e+2, -448516.03, -601626.06, 36286.5, 0.045024112, -0.10961824, -440351.63, 12717.3545, 0.0000004707298, 10.00062, 9.9985485 
1.5351298e+3, 2.6376686e+2, -376823.56, -600230.8, 56620.18, 0.05517564, -0.043168545, -363293.22, -8210.895, 0.0000086272985, 10.000765, 9.997837 
1.5351598e+3, 2.7376583e+2, -271520.72, -481592.75, 38235.785, -0.07590587, 0.03503282, -264777.75, -7684.209, 0.000052741245, 10.000764, 9.997968 
1.5351908e+3, 2.837637e+2, -142942.69, -363413.06, 9102.4795, -0.0819151, 0.037795108, -142567.52, 16547.064, 0.00024875673, 10.000919, 9.998052 
1.5352237e+3, 2.9376e+2, 31776.393, -209253.61, 73042.03, 0.11425741, -0.19698957, 52183.367, 113332.05, 0.00082809955, 10.001365, 9.998215 
1.5352547e+3, 3.0375838e+2, 26195.566, -301023.34, 24743.354, 0.17218234, -0.11128069, 28056.01, 28056.01, 0.0018913832, 10.0015135, 9.997184 
1.535281e+3, 3.1375852e+2, 79125.805, -50442.36, 21414.943, -0.16835539, 0.122343175, 82573.51, 82573.51, 0.0032998577, 10.000856, 9.999217 
1.544707e+3, 1.2373799e+2, -2046821.5, -1744465.8, 157245.36, 0.064597845, 0.18842867, -1677513.3, 49862.934, 0.019406972, 9.997092, 10.001171 
1.544738e+3, 1.3373856e+2, -1920590.9, -1526074.3, 87925.56, 0.072168276, -0.0048689623, -1507365.6, 122001.51, 0.0117135905, 9.99686, 10.002123 
1.5447691e+3, 1.4374e+2, -1951916.4, -1617299.3, 83848.58, 0.15045473, 0.0041708294, -1597464.1, -66114.27, 0.0052204016, 9.996523, 10.000977 
1.5447982e+3, 1.5374106e+2, -1511280.9, -1317616.3, 41001.51, 0.015092443, -0.04686737, -1309293.4, 124044.17, 0.0014059248, 9.99871, 10.001311 
1.5448281e+3, 1.6374186e+2, -1402212.4, -1388868.0, 2769.4292, 0.001439411, -0.013648064, -1388316.1, -52985.723, 0.00014487762, 9.99956, 9.999719 
1.544858e+3, 1.7374253e+2, -1475838.9, -1376220.8, -222.64963, 0.039004836, 0.053958967, -1376220.3, -138891.42, 0.000001197513, 9.998393, 9.999697 
1.5448877e+3, 1.8374299e+2, -1367249.5, -1129262.3, 46760.19, 0.033005733, 0.089351505, -1120404.4, 18920.182, 0.0, 9.997842, 10.000993 
1.5449177e+3, 1.9374311e+2, -1109804.1, -902249.7, 2408.5725, -0.010380151, -0.06292106, -902221.75, 139093.45, 0.0, 9.99872, 10.0014515 
1.5449476e+3, 2.0374313e+2, -1050004.6, -1098522.1, -79744.95, 0.017424509, -0.08411789, -990910.25, -47598.855, 0.0, 9.999626, 9.999004 
1.5449771e+3, 2.1374302e+2, -815097.0, -953300.94, -102595.07, 0.14102106, -0.0072387503, -760502.44, 84813.91, 0.0, 10.000651, 9.998832 
1.5450071e+3, 2.2374226e+2, -667885.75, -825241.5, 42364.707, 0.15978427, 0.05062857, -657204.94, 90120.0, 0.0, 10.00097, 9.9988785 
1.5450378e+3, 2.3374048e+2, -649510.56, -735203.94, 18842.033, 0.0052970806, -0.06286961, -645550.6, 3789.1912, 0.0, 10.000305, 9.999138 
1.5450688e+3, 2.4373884e+2, -591117.56, -724751.3, -45919.56, -0.058873493, -0.09935727, -576859.8, -25505.52, 0.000000000009610117, 10.000297, 9.998556 
1.5451e+3, 2.5373754e+2, -335569.28, -538915.4, -61117.855, 0.035847593, -0.12213355, -318613.5, 134753.69, 0.0000005675007, 10.001333, 9.998658 
1.5451314e+3, 2.637365e+2, -234902.58, -547556.5, -15310.247, 0.08895392, -0.03487932, -234154.64, 121224.17, 0.000008574752, 10.001823, 9.997688 
1.545162e+3, 2.737354e+2, -179461.77, -468626.63, -12847.322, 0.044448446, 0.0629589, -178892.1, 78500.24, 0.00005426492, 10.001518, 9.997707 
1.545193e+3, 2.837331e+2, -36951.445, -280090.13, 18326.807, 0.036325634, 0.04942486, -35577.805, 123837.914, 0.00026286932, 10.00154, 9.998295 
1.545225e+3, 2.9372928e+2, 162727.05, -111221.82, -19365.436, 0.07452642, -0.22593197, 164089.2, 225539.1, 0.00086847367, 10.002141, 9.998489 
1.545256e+3, 3.037284e+2, 194644.58, -190605.4, -74674.86, 0.099228464, -0.09511971, 208612.72, 208612.72, 0.001958194, 10.002536, 9.9974575 
1.5452835e+3, 3.1372866e+2, 267338.0, 3734.6536, -92118.414, -0.06719419, 0.14167562, 296338.97, 296338.97, 0.0033838842, 10.002309, 9.998888 
1.5547055e+3, 1.2370801e+2, -2030426.6, -1729826.5, -45839.457, 0.14599073, 0.05077104, -1722991.8, 4675.44, 0.020587768, 9.9972, 10.001206 
1.5547346e+3, 1.3371144e+2, -1903321.1, -1463552.3, 55491.91, 0.014634284, 0.11079881, -1456658.1, 172969.81, 0.012455585, 9.9967575, 10.002607 
1.5547645e+3, 1.4371163e+2, -1995768.8, -1719745.8, 123545.22, 0.002417003, -0.007881532, -1672526.0, -140903.05, 0.0055746003, 9.996559, 10.000261 
1.5547974e+3, 1.5371153e+2, -1586709.6, -1470206.1, 142935.06, 0.041280944, -0.07494063, -1374108.6, 59516.08, 0.001515748, 9.9987, 10.000265 
1.5548284e+3, 1.6371194e+2, -1363363.9, -1333799.4, -40495.535, 0.042933267, -0.035970353, -1305472.4, 30150.59, 0.00016035176, 9.99966, 10.000056 
1.554856e+3, 1.7371339e+2, -1445380.6, -1301288.8, -35967.32, -0.033278763, 0.060443513, -1292809.8, -55196.953, 0.0000013687348, 9.998342, 10.000238 
1.554885e+3, 1.8371405e+2, -1429516.8, -1246676.3, 54548.27, -0.05069341, 0.121661015, -1231639.1, -92032.61, 0.0, 9.997793, 10.00021 
1.5549171e+3, 1.937134e+2, -1203206.1, -1062825.5, 49719.547, 0.038843043, -0.009417023, -1047000.06, -5392.694, 0.0, 9.998583, 10.000414 
1.5549481e+3, 2.0371284e+2, -1067150.3, -1112472.0, -57664.754, 0.07385922, -0.028094314, -1027853.56, -84243.22, 0.0, 9.999517, 9.998969 
1.554977e+3, 2.1371254e+2, -830231.1, -947831.2, -49989.98, 0.03290308, 0.022418758, -811853.1, 33762.34, 0.0, 10.000477, 9.998964 
1.5550067e+3, 2.2371162e+2, -737308.1, -919392.8, 9903.066, -0.0035227435, 0.07717736, -736771.1, 10854.761, 0.0, 10.000752, 9.998337 
1.5550382e+3, 2.337095e+2, -723930.25, -853724.06, 7375.1304, -0.010440043, -0.0049366932, -723512.56, -73865.7, 0.0, 10.00014, 9.998408 
1.5550695e+3, 2.4370788e+2, -622739.5, -736372.3, -26831.484, -0.027129669, 0.0023092877, -616722.5, -65060.266, 0.0, 10.000069, 9.998584 
1.555101e+3, 2.537072e+2, -354519.97, -528942.44, -7494.665, -0.025365759, 0.026350576, -354198.53, 99469.46, 0.0000005355393, 10.001124, 9.998826 
1.5551327e+3, 2.63706e+2, -236646.36, -503664.5, -31107.36, 0.014675235, 0.06991959, -233070.27, 122609.664, 0.000008556659, 10.001617, 9.998089 
1.5551643e+3, 2.7370375e+2, -178879.55, -420854.9, -4327.9746, 0.10674577, 0.0010474304, -178802.16, 78901.39, 0.000056489618, 10.001319, 9.998127 
1.5551952e+3, 2.8370157e+2, -109865.305, -377220.28, 23384.09, 0.06502382, 0.0025029802, -107835.44, 51891.105, 0.00027893353, 10.001311, 9.997736 
1.5552248e+3, 2.936998e+2, 80370.62, -217204.88, 24308.783, -0.17659573, -0.004842284, 82343.31, 144088.5, 0.0009152954, 10.00187, 9.997888 
1.5552562e+3, 3.0369928e+2, 199334.03, -106784.164, -91659.05, -0.14374264, 0.16014323, 224680.28, 224680.28, 0.0020518804, 10.002235, 9.998167 
1.5552878e+3, 3.1369624e+2, 201571.38, -16143.204, -63534.72, 0.08939218, -0.02768475, 218756.03, 218756.03, 0.0035361347, 10.001842, 9.998959 
1.5647034e+3, 1.23678625e+2, -2010311.1, -1778131.5, 87.904495, 0.21627712, -0.060677517, -1778131.5, -50180.92, 0.021849003, 9.997585, 10.000705 
1.5647331e+3, 1.3368204e+2, -1658361.4, -1420749.4, -20129.316, 0.12648033, 0.0738752, -1419056.1, 210856.52, 0.013250772, 9.998741, 10.0019655 
1.5647617e+3, 1.4368176e+2, -1657819.8, -1590896.1, 64086.4, -0.039854724, -0.048450578, -1552061.6, -20148.518, 0.0059556314, 9.999037, 9.999945 
1.5647961e+3, 1.5368167e+2, -1727582.1, -1584196.0, 99076.56, 0.087474525, -0.07675391, -1533594.1, -99678.055, 0.0016345053, 9.997938, 9.999844 
1.5648276e+3, 1.6368191e+2, -1685530.1, -1510317.4, -59562.69, 0.08855605, -0.020613447, -1491987.0, -156070.81, 0.00017771397, 9.997535, 9.999879 
1.5648545e+3, 1.7368314e+2, -1360855.4, -1275600.9, -130284.04, -0.029063823, 0.06826371, -1181147.8, 56760.195, 0.0000016137079, 9.998974, 10.000119 
1.5648837e+3, 1.8368341e+2, -1181358.1, -1199069.4, -24536.596, -0.045941, 0.12334756, -1164128.0, -24222.02, 0.0, 9.999796, 9.999574 
1.5649164e+3, 1.9368204e+2, -1078429.4, -1085416.4, -31961.398, 0.054045957, -0.010774401, -1049771.1, -7855.7036, 0.0, 9.999769, 9.999694 
1.5649478e+3, 2.03681e+2, -1031327.0, -1085402.5, -84397.22, 0.09969015, -0.03624363, -969742.4, -25819.172, 0.0, 9.999763, 9.999011 
1.5649775e+3, 2.1368077e+2, -847842.75, -928442.0, -104373.016, 0.05927472, 0.0023572624, -776259.44, 69666.71, 0.0, 10.000284, 9.999159 
1.5650076e+3, 2.2367981e+2, -763076.9, -965311.9, -38349.14, 0.021872118, 0.055570543, -756049.06, -8112.581, 0.0, 10.000695, 9.998057 
1.5650386e+3, 2.3367763e+2, -631069.6, -840006.1, -39362.863, -0.0086295875, -0.001287905, -623899.9, 26059.55, 0.0, 10.000898, 9.998135 
1.56507e+3, 2.4367599e+2, -494996.16, -667962.06, -10086.042, -0.018744448, 0.014780725, -494410.0, 57565.617, 0.0, 10.000899, 9.99866 
1.565102e+3, 2.5367525e+2, -424394.25, -545046.7, -16500.455, 0.0065472727, 0.022045672, -422178.34, 31802.473, 0.00000039469393, 10.0005665, 9.998982 
1.5651342e+3, 2.6367408e+2, -380743.84, -564689.9, -35974.01, 0.066703156, 0.05437809, -373958.75, -17966.201, 0.000008163994, 10.000597, 9.998156 
1.565166e+3, 2.736719e+2, -194695.95, -422248.06, -72477.14, 0.16184297, -0.008805324, -173572.31, 84444.42, 0.000058543963, 10.001188, 9.998174 
1.5651967e+3, 2.836702e+2, -107417.836, -332738.22, -12424.097, 0.10330762, 0.022240132, -106734.85, 53300.965, 0.00029613846, 10.001128, 9.998153 
1.5652256e+3, 2.936695e+2, -143332.27, -272208.8, 26996.549, -0.18128036, 0.08292119, -137905.63, -75862.13, 0.00096598663, 10.00009, 9.998387 
1.5652576e+3, 3.0366892e+2, -17027.434, -135937.42, 34473.652, -0.12270242, 0.1803515, -7755.949, -7755.949, 0.0021640193, 10.000399, 9.99885 
1.5652914e+3, 3.1366536e+2, 321523.78, 39470.6, -10910.151, 0.24302246, -0.11771586, 321945.16, 321945.16, 0.0037402343, 10.0026045, 9.998997 
1.574699e+3, 1.23650655e+2, -2060422.0, -1903727.4, 119516.99, -0.06329437, -0.05523336, -1839167.0, -110948.81, 0.023204513, 9.997655, 9.99982 
1.5747336e+3, 1.336507e+2, -1774617.8, -1673690.5, 38151.383, 0.26234058, -0.07837599, -1660892.0, -30674.08, 0.014108494, 9.998804, 10.000177 
1.5747607e+3, 1.4365067e+2, -1621314.1, -1558818.8, 12097.335, -0.09694786, -0.09105196, -1556558.8, -24340.611, 0.0063687824, 9.999222, 10.000078 
1.5747938e+3, 1.5365145e+2, -1722250.6, -1560163.5, 60032.637, 0.0439962, -0.04636157, -1540350.9, -106139.3, 0.00176415, 9.9978895, 10.00003 
1.5748243e+3, 1.6365184e+2, -1730113.0, -1603970.6, -36485.875, -0.0030553415, 0.03824325, -1594177.6, -257967.64, 0.00019721544, 9.997532, 9.99924 
1.5748532e+3, 1.7365183e+2, -1420818.6, -1394312.6, -61064.61, -0.06965731, 0.08014854, -1345079.5, -106865.22, 0.0000019795527, 9.998948, 9.999317 
1.5748835e+3, 1.8365113e+2, -1201309.9, -1253678.6, -35082.43, -0.08419045, 0.10037695, -1183717.6, -43495.406, 0.0, 9.999846, 9.999176 
1.5749149e+3, 1.9364923e+2, -1121237.4, -1148303.8, -23886.814, -0.08331654, -0.047542375, -1107316.4, -65079.15, 0.0, 9.9996605, 9.999315 
1.5749463e+3, 2.0364788e+2, -1043802.0, -1086745.6, -84780.58, -0.044394907, -0.0869003, -977816.44, -33568.8, 0.0, 9.999643, 9.999062 
1.5749782e+3, 2.1364751e+2, -869158.44, -933754.06, -74311.43, 0.09962454, -0.07043944, -820429.5, 25820.541, 0.0, 10.000109, 9.999211 
1.5750092e+3, 2.2364666e+2, -780860.56, -955365.3, -41126.406, 0.10848755, -0.01920612, -771653.8, -23395.367, 0.0, 10.000496, 9.998219 
1.5750389e+3, 2.3364489e+2, -651437.94, -832612.4, -20145.709, -0.100804895, -0.051556375, -649224.8, 1052.9105, 0.0, 10.000687, 9.998286 
1.5750697e+3, 2.4364322e+2, -522651.47, -671373.1, -34390.477, -0.16458055, -0.0503395, -515084.03, 37209.992, 0.0, 10.000663, 9.998749 
1.575103e+3, 2.5364178e+2, -447226.6, -551983.5, -15869.43, 0.025183467, -0.12684888, -444875.34, 9429.88, 0.00000029448665, 10.000385, 9.99902 
1.5751356e+3, 2.6364067e+2, -434626.53, -632854.4, -30861.727, 0.13313329, -0.06738626, -429932.84, -73616.16, 0.000007127328, 10.000405, 9.997783 
1.5751666e+3, 2.7363986e+2, -245981.63, -488465.34, -30921.41, 0.08496638, 0.038624085, -242100.66, 16231.463, 0.000059012113, 10.001015, 9.997805 
1.575197e+3, 2.8363898e+2, -49576.152, -175392.44, -57992.273, 0.0042431853, 0.120607525, -26924.152, 133419.56, 0.00030982727, 10.000963, 9.999311 
1.5752268e+3, 2.9363853e+2, -81259.13, -87907.36, 11484.315, -0.09523576, 0.06157706, -72627.53, -10283.8125, 0.0010139171, 9.999855, 9.999763 
1.5752594e+3, 3.0363742e+2, -9367.217, -58206.242, 90745.58, 0.0027136628, 0.0013583268, 60187.06, 60187.06, 0.0022794015, 10.0001545, 9.999487 
1.5752934e+3, 3.1363562e+2, 256751.4, 29193.973, 109885.68, 0.14333645, -0.17830735, 301151.25, 301151.25, 0.0039605875, 10.00211, 9.99914 
1.584695e+3, 1.2361915e+2, -2088003.1, -1934514.4, 24606.064, -0.19840916, -0.04645201, -1930666.3, -202142.56, 0.024665277, 9.997556, 9.9996395 
1.5847318e+3, 1.3361885e+2, -1875680.4, -1718267.9, -61894.223, 0.26341817, -0.10401893, -1696846.4, -66318.12, 0.0150364665, 9.998101, 10.000201 
1.5847605e+3, 1.436191e+2, -1673965.0, -1586694.9, -41555.004, 0.010795308, -0.0903008, -1570073.5, -37546.84, 0.0068181083, 9.998866, 10.000061 
1.5847923e+3, 1.5361981e+2, -1512452.8, -1468420.0, -59029.715, 0.04268357, -0.04118809, -1427434.5, 7086.745, 0.0019058621, 9.999359, 9.999956 
1.5848222e+3, 1.6361998e+2, -1444852.0, -1478752.3, -81421.164, -0.051996626, 0.03197325, -1378635.4, -42113.945, 0.0002187055, 9.99955, 9.999119 
1.5848526e+3, 1.7361926e+2, -1309263.9, -1349831.1, -79639.32, -0.05022062, 0.01305399, -1247365.8, -8835.397, 0.000002466339, 9.999766, 9.999219 
1.5848838e+3, 1.8361822e+2, -1217253.3, -1287904.6, -20308.332, -0.01844834, 0.0155790895, -1211831.9, -71290.516, 0.0, 9.999866, 9.998927 
1.584915e+3, 1.9361663e+2, -1061067.5, -1144409.6, -32747.447, -0.057350006, -0.07435364, -1049739.8, -7183.7666, 0.0, 10.000194, 9.999076 
1.5849464e+3, 2.0361552e+2, -911106.06, -1011010.0, -45490.266, -0.03803233, -0.084338166, -893496.5, 51068.76, 0.0, 10.000477, 9.999199 
1.5849787e+3, 2.1361515e+2, -752221.5, -856194.4, -47272.414, 0.11813508, -0.08676358, -733942.25, 112623.67, 0.0, 10.00078, 9.999438 
1.5850103e+3, 2.2361425e+2, -733845.25, -926000.2, 2741.0403, 0.15067232, -0.055228505, -733806.2, 14767.76, 0.0, 10.000812, 9.998274 
1.58504e+3, 2.3361242e+2, -648994.9, -836342.0, -18620.113, -0.041391272, -0.087395966, -647162.2, 3432.4536, 0.0, 10.00072, 9.998266 
1.5850708e+3, 2.4361077e+2, -520631.03, -661732.0, -22530.293, -0.10959191, -0.084977895, -517120.84, 35490.617, 0.0, 10.000669, 9.998797 
1.5851034e+3, 2.5360957e+2, -385142.44, -517690.78, -41963.656, 0.018277641, -0.1396048, -372974.2, 81646.13, 0.00000023115544, 10.00081, 9.999044 
1.5851356e+3, 2.6360852e+2, -358764.13, -569020.44, 1668.7002, 0.09197252, -0.08464632, -358750.88, -2120.2026, 0.0000061293663, 10.000816, 9.998014 
1.585167e+3, 2.7360758e+2, -257063.02, -457878.84, 16366.766, 0.056431793, -0.015567505, -255737.86, 2907.6152, 0.000060026516, 10.000808, 9.998097 
1.585198e+3, 2.8360683e+2, -69756.84, -185871.86, -23114.623, 0.026330143, 0.063119985, -65324.67, 95330.18, 0.0003212461, 10.000829, 9.999296 
1.5852283e+3, 2.936065e+2, 58475.477, -26329.61, -97816.17, 0.023333667, 0.019535612, 122684.28, 185338.86, 0.0010569163, 10.00082, 9.99972 
1.585261e+3, 3.036048e+2, 144928.97, -18116.46, 4655.271, 0.106785044, -0.08395354, 145061.78, 145061.78, 0.0023844014, 10.001334, 9.999226 
1.5852953e+3, 3.136043e+2, 287644.56, 27911.352, -99321.78, 0.12180927, -0.086308576, 321271.56, 321271.56, 0.0041548307, 10.002369, 9.999037 
1.5946941e+3, 1.23583876e+2, -2034065.3, -1880188.9, 71857.84, -0.10627609, -0.075353816, -1851851.1, -122981.39, 0.026239868, 9.997752, 9.999937 
1.5947281e+3, 1.3358648e+2, -1756693.6, -1473279.1, -14448.311, 0.042643744, -0.0137976315, -1472544.5, 158299.38, 0.016040104, 9.998094, 10.001903 
1.594761e+3, 1.4358693e+2, -1671640.8, -1616539.8, -35373.95, 0.11880913, -0.060978577, -1599253.4, -66413.32, 0.0073062, 9.998994, 9.999803 
1.5947911e+3, 1.5358691e+2, -1530430.9, -1524089.9, -30405.303, -0.03930116, -0.049289245, -1496690.3, -61846.56, 0.002060233, 9.999425, 9.999548 
1.5948209e+3, 1.6358657e+2, -1400487.5, -1413699.1, -93470.25, -0.18491563, -0.017464945, -1313389.9, 23458.102, 0.00024185247, 9.999664, 9.999511 
1.5948525e+3, 1.7358556e+2, -1276489.9, -1276777.3, -62469.363, -0.07035266, -0.11722219, -1214164.0, 24691.037, 0.0000030340082, 9.999746, 9.999729 
1.5948844e+3, 1.8358475e+2, -1219215.4, -1297437.0, -25631.137, 0.023170939, -0.12276923, -1211565.0, -70702.18, 0.0, 9.999883, 9.998855 
1.5949161e+3, 1.9358426e+2, -1089450.3, -1178849.5, -7410.7915, 0.019948749, -0.08696263, -1088840.1, -45968.703, 0.0, 10.00009, 9.998889 
1.5949476e+3, 2.0358396e+2, -908982.4, -977248.0, -47050.063, -0.00027313316, -0.015812244, -884988.1, 59887.13, 0.0, 10.000353, 9.999488 
1.5949786e+3, 2.1358386e+2, -759596.0, -815783.75, -24585.355, 0.00019770426, -0.030285385, -750357.5, 96514.43, 0.0, 10.000549, 9.999824 
1.5950099e+3, 2.2358286e+2, -773574.06, -961046.56, -13433.321, 0.015642373, -0.0259482, -772616.44, -23736.008, 0.0, 10.000597, 9.998139 
1.5950418e+3, 2.3358034e+2, -698056.25, -891277.5, -3730.8281, 0.052193202, -0.10661734, -697984.25, -47075.297, 0.0, 10.000512, 9.997992 
1.5950729e+3, 2.4357872e+2, -564315.5, -698240.5, -26702.924, 0.0137281865, -0.07955322, -559187.6, -6260.958, 0.0, 10.00044, 9.998653 
1.5951028e+3, 2.535785e+2, -424014.8, -543043.0, -21224.547, -0.12731569, -0.023153193, -420343.4, 34583.207, 0.00000009760233, 10.000586, 9.998971 
1.595134e+3, 2.635775e+2, -338245.6, -485531.6, -11899.248, -0.16722721, 0.004719457, -337290.44, 19644.568, 0.0000054247644, 10.000633, 9.998678 
1.5951672e+3, 2.7357513e+2, -236076.67, -365360.97, 33272.484, -0.041954324, -0.14968532, -228016.23, 30940.18, 0.0000627863, 10.000589, 9.99884 
1.5951991e+3, 2.8357366e+2, -184267.45, -363852.16, -38594.75, 0.034632154, -0.13581277, -176324.34, -15353.745, 0.0003316825, 10.000576, 9.998196 
1.5952294e+3, 2.935731e+2, -72287.39, -241998.9, -74507.43, 0.031388655, -0.061538704, -44219.023, 18759.434, 0.0010853008, 10.000583, 9.998355 
1.595262e+3, 3.0357096e+2, 15021.742, -217911.4, 25500.521, 0.042447403, -0.07975385, 17780.75, 17780.75, 0.0024493474, 10.001056, 9.997978 
1.5952963e+3, 3.1357145e+2, 176165.69, -77827.9, -20475.441, -0.062153548, 0.12865886, 177805.7, 177805.7, 0.0042672292, 10.001861, 9.998545 
1.6046928e+3, 1.235496e+2, -2094932.8, -1893049.9, 166753.02, 0.028381223, -0.1441347, -1799066.4, -69864.25, 0.027939666, 9.997315, 10.000052 
1.6047253e+3, 1.3355243e+2, -1724207.3, -1405413.6, 11633.065, -0.020391958, -0.10003933, -1404989.8, 226184.16, 0.01712635, 9.998127, 10.002349 
1.6047604e+3, 1.4355338e+2, -1787759.4, -1691251.8, -41410.035, 0.20145616, -0.10779228, -1675919.3, -142753.56, 0.007836914, 9.998311, 9.9995985 
1.6047901e+3, 1.5355356e+2, -1658150.8, -1604571.0, -65338.313, -0.03834149, -0.058558363, -1560743.6, -125573.85, 0.0022287087, 9.998649, 9.999353 
1.6048203e+3, 1.6355334e+2, -1507895.0, -1443277.8, -99699.35, -0.15629572, -0.014132344, -1370782.6, -33608.402, 0.00026665046, 9.998841, 9.999702 
1.6048528e+3, 1.735524e+2, -1324056.5, -1268899.1, -117503.914, 0.014521145, -0.12887508, -1175780.9, 63398.527, 0.0000036433328, 9.999291, 10.000006 
1.6048849e+3, 1.8355188e+2, -1288697.9, -1301242.1, -69357.414, 0.122693494, -0.12886971, -1225329.6, -84146.04, 0.0, 9.999263, 9.999129 
1.604916e+3, 1.9355194e+2, -1251681.9, -1225807.4, -47333.484, 0.06636223, -0.068496116, -1189675.0, -146487.69, 0.0, 9.998814, 9.9991865 
1.6049473e+3, 2.0355181e+2, -1108950.8, -1067914.8, -16940.322, 0.01978808, 0.0018541914, -1061825.1, -116635.05, 0.0, 9.998978, 9.999524 
1.6049789e+3, 2.1355137e+2, -771429.75, -819162.0, -48396.844, -0.000042602736, -0.044376783, -741334.3, 105856.54, 0.0, 10.000481, 9.999828 
1.6050108e+3, 2.2355047e+2, -661726.75, -880464.56, -53772.203, 0.016099408, -0.038300693, -649222.75, 99976.06, 0.0, 10.001254, 9.9983635 
1.6050425e+3, 2.3354897e+2, -619724.56, -808777.9, -41978.277, 0.07099676, -0.049450234, -610822.7, 40394.51, 0.0, 10.000883, 9.998347 
1.6050737e+3, 2.4354771e+2, -532135.8, -713196.4, -997.5534, 0.04466192, 0.0038461294, -532130.3, 21101.39, 0.0, 10.000782, 9.998399 
1.605104e+3, 2.5354666e+2, -352066.28, -548855.4, -32420.613, -0.09072456, 0.014248311, -346862.66, 108378.805, 0.000000007673713, 10.001233, 9.998633 
1.6051354e+3, 2.635451e+2, -214185.28, -394759.38, -37038.492, -0.130454, -0.0034606538, -206883.39, 150371.31, 0.0000049768487, 10.001347, 9.998968 
1.605168e+3, 2.73543e+2, -175191.47, -299683.44, -66479.56, -0.020376248, -0.16163775, -146365.55, 112905.07, 0.00006482946, 10.000833, 9.999196 
1.6051999e+3, 2.8354147e+2, -189337.66, -430070.6, -77635.46, 0.056694806, -0.15013973, -166472.31, -5187.9204, 0.00033743004, 10.00078, 9.997659 
1.6052307e+3, 2.935404e+2, 33699.82, -263752.0, -100029.62, 0.07351508, -0.061080165, 64209.29, 127508.695, 0.0010901192, 10.001616, 9.997714 
1.6052635e+3, 3.0353773e+2, 110058.99, -232568.1, 81806.77, 0.063682064, -0.06861622, 128589.27, 128589.27, 0.0024527118, 10.001957, 9.9974375 
1.6052979e+3, 3.1353748e+2, 100036.445, -109010.99, 6944.111, -0.020904591, 0.110000774, 100266.86, 100266.86, 0.00426785, 10.001274, 9.998611 
1.614689e+3, 1.2351685e+2, -2065857.3, -1896725.1, -50834.883, -0.1591454, -0.22910674, -1882622.0, -153106.69, 0.02978273, 9.997569, 9.999917 
1.6147234e+3, 1.3351707e+2, -1791009.8, -1550307.1, 39115.43, -0.039591666, -0.34496826, -1544110.1, 87403.82, 0.018308382, 9.998152, 10.001338 
1.6147579e+3, 1.4351885e+2, -1786170.4, -1707570.5, -46874.94, 0.09452901, -0.20290789, -1685700.6, -152200.83, 0.008418617, 9.998386, 9.999454 
1.6147888e+3, 1.5351976e+2, -1664184.4, -1615404.0, -39232.05, -0.06835487, -0.07219159, -1593598.6, -158098.97, 0.0024150687, 9.998642, 9.999283 
1.6148202e+3, 1.6352016e+2, -1489637.9, -1439606.6, -103687.05, -0.0976688, 0.03859079, -1357960.3, -20459.31, 0.0002938315, 9.998973, 9.999667 
1.6148531e+3, 1.7351979e+2, -1326791.3, -1276985.6, -91740.23, 0.10412709, -0.018124325, -1206828.3, 32674.889, 0.000004294035, 9.999286, 9.999959 
1.6148847e+3, 1.8351965e+2, -1246641.8, -1212590.8, -98231.63, 0.15408272, -0.00093578605, -1129920.1, 11583.674, 0.0, 9.999263, 9.999733 
1.6149141e+3, 1.9351979e+2, -1216635.6, -1129915.9, -53475.03, -0.034398723, -0.0067619313, -1104430.6, -60927.645, 0.0, 9.998718, 9.999889 
1.6149451e+3, 2.0351924e+2, -1151130.3, -1118748.5, 11208.133, -0.116978005, -0.007288562, -1115247.5, -169739.14, 0.0, 9.998819, 9.999249 
1.6149797e+3, 2.1351764e+2, -831979.5, -902590.7, 20416.742, 0.0108092, -0.12774871, -826501.2, 21022.143, 0.0, 10.000299, 9.999341 
1.6150123e+3, 2.2351702e+2, -659560.8, -815582.3, -72919.766, 0.03998113, -0.08916455, -630786.9, 118742.79, 0.0, 10.001002, 9.998927 
1.6150418e+3, 2.3351814e+2, -599081.75, -711890.25, -42743.38, -0.10430959, 0.08639978, -584715.7, 66805.08, 0.0, 10.000658, 9.999119 
1.6150726e+3, 2.4351756e+2, -584675.75, -777736.1, -4916.319, -0.14921413, 0.17690526, -584550.6, -31022.25, 0.0, 10.000581, 9.998055 
1.6151063e+3, 2.53514e+2, -425666.38, -647050.4, 1670.94, -0.0012305585, -0.020285524, -425653.75, 29910.926, 0.00000000987263, 10.000998, 9.998071 
1.6151388e+3, 2.6351148e+2, -269650.2, -447004.0, -65273.414, 0.06093565, -0.09109617, -248217.1, 109371.63, 0.000004852571, 10.001081, 9.998731 
1.6151689e+3, 2.735109e+2, -214523.75, -334090.34, -65591.586, -0.022042075, -0.08353829, -185558.53, 74032.2, 0.00006465758, 10.000644, 9.999041 
1.6151999e+3, 2.8351e+2, -225076.63, -461963.66, -70430.336, -0.05084484, 0.008899467, -205718.47, -44120.652, 0.0003366383, 10.000596, 9.997529 
1.6152321e+3, 2.9350832e+2, -7571.4927, -295098.0, -44981.71, 0.006468082, 0.041430417, -698.6704, 62917.504, 0.0010767062, 10.001378, 9.997615 
1.6152652e+3, 3.0350488e+2, 70542.89, -237542.22, 45528.707, 0.015350781, -0.042605106, 77130.26, 77130.26, 0.0024076046, 10.001654, 9.997528 
1.6152994e+3, 3.1350282e+2, 56785.54, -57714.27, 38890.063, -0.05555915, -0.06635458, 68745.375, 68745.375, 0.0041744797, 10.000725, 9.999197 
1.6246876e+3, 1.2348423e+2, -1855883.3, -1762119.6, -119930.63, -0.09701789, -0.19976318, -1680233.1, 49603.695, 0.03179242, 9.998856, 10.0002 
1.6247225e+3, 1.3348396e+2, -1808195.6, -1632993.1, -30668.066, 0.04531124, -0.31505078, -1627780.0, 4059.8018, 0.019603958, 9.998327, 10.000668 
1.6247548e+3, 1.4348534e+2, -1861493.8, -1732776.0, -22901.523, -0.007623245, -0.1812521, -1728822.8, -194993.72, 0.009062119, 9.997842, 9.999537 
1.6247877e+3, 1.5348577e+2, -1534423.9, -1523669.6, -8424.076, -0.051980793, -0.11946525, -1519052.8, -83221.15, 0.002624408, 9.999417, 9.999534 
1.6248204e+3, 1.6348623e+2, -1337349.5, -1360799.8, -65643.55, -0.020361409, -0.018643769, -1282392.1, 55440.063, 0.00032476612, 10.000008, 9.999705 
1.6248524e+3, 1.7348674e+2, -1350200.3, -1281042.0, -88674.2, 0.11644004, 0.0074662077, -1220443.3, 19384.994, 0.000005034694, 9.999109, 10.000005 
1.6248837e+3, 1.8348697e+2, -1289202.8, -1220512.9, -53129.285, 0.14631146, 0.05582396, -1191594.1, -49768.004, 0.0, 9.998923, 9.999848 
1.6249137e+3, 1.9348677e+2, -960614.7, -979550.56, -73619.484, -0.01202496, 0.0018132644, -895856.8, 147970.1, 0.0, 10.000388, 10.000111 
1.6249453e+3, 2.0348611e+2, -844953.25, -995428.44, -9113.405, -0.07384877, -0.0152733335, -844403.3, 101430.11, 0.0, 10.001009, 9.999044 
1.62498e+3, 2.1348464e+2, -869346.6, -952865.8, -12478.041, 0.032161027, -0.09421292, -867522.25, -19672.396, 0.0, 10.000165, 9.999066 
1.6250128e+3, 2.2348414e+2, -794873.5, -828849.9, -80270.945, 0.060826916, -0.04775896, -729812.8, 20043.07, 0.0, 9.99983, 9.999406 
1.6250426e+3, 2.3348527e+2, -583949.6, -643051.06, -92718.5, -0.063329406, 0.069816805, -516186.6, 135657.78, 0.0, 10.000473, 9.999692 
1.6250739e+3, 2.4348487e+2, -556393.75, -731633.25, -26892.162, -0.07668647, 0.13523266, -552359.75, 1488.789, 0.0, 10.000642, 9.998334 
1.6251074e+3, 2.5348184e+2, -543866.6, -681746.44, -2434.4329, 0.07239776, -0.026939416, -543823.6, -87943.625, 0.000000011745934, 10.000081, 9.998272 
1.6251399e+3, 2.634797e+2, -409429.66, -548729.6, 12554.178, 0.12006271, -0.056847274, -408307.28, -50405.934, 0.0000048598445, 10.000277, 9.998417 
1.6251703e+3, 2.7347916e+2, -68990.09, -311430.84, -34910.87, 0.0032461912, -0.0034462693, -64063.145, 195841.73, 0.00006306325, 10.001844, 9.998613 
1.6252017e+3, 2.8347787e+2, 63374.24, -338342.5, -31377.682, -0.026758624, 0.08144734, 65810.34, 227726.83, 0.00033149842, 10.002671, 9.997362 
1.6252342e+3, 2.9347524e+2, 101349.945, -262805.56, -66144.27, 0.05550125, 0.03569537, 112992.02, 176935.94, 0.001055369, 10.002223, 9.997421 
1.6252667e+3, 3.03472e+2, 95395.24, -180487.52, 40633.637, 0.0328111, -0.031609718, 101255.516, 101255.516, 0.0023387242, 10.00162, 9.99795 
1.6253e+3, 3.1347066e+2, 104272.8, 9962.429, -10770.877, -0.044689342, -0.023472734, 105487.266, 105487.266, 0.004022567, 10.000813, 9.99965 
1.6346872e+3, 1.234514e+2, -1771723.6, -1624246.4, -18325.01, -0.09955327, -0.10014944, -1622003.5, 108167.836, 0.03398967, 9.99899, 10.001101 
1.6347215e+3, 1.3345335e+2, -1828269.1, -1680536.5, -63514.996, 0.09468511, 0.024843803, -1656984.3, -24834.21, 0.02102759, 9.998352, 10.000329 
1.6347508e+3, 1.4345284e+2, -1805469.5, -1655506.6, -8116.5947, -0.23774329, -0.029630724, -1655068.6, -120914.75, 0.009775217, 9.997991, 10.000005 
1.6347866e+3, 1.5345182e+2, -1486889.8, -1431780.0, 62925.918, -0.123530194, -0.17749624, -1390640.4, 45523.594, 0.002860367, 9.999441, 10.000157 
1.6348203e+3, 1.6345173e+2, -1315387.9, -1333238.9, -103239.21, -0.069799215, -0.17341267, -1220689.0, 117476.87, 0.00036087315, 10.000078, 9.999864 
1.6348499e+3, 1.7345318e+2, -1353795.8, -1282842.4, -116209.77, -0.06692698, -0.05219554, -1196814.8, 43340.06, 0.000005927034, 9.999084, 10.000005 
1.634881e+3, 1.8345374e+2, -1302332.3, -1259391.6, -27814.092, -0.038673352, 0.03694366, -1245725.1, -103573.69, 0.0, 9.998964, 9.999568 
1.6349147e+3, 1.9345276e+2, -994108.3, -1036977.6, -6034.091, 0.024934052, -0.06005759, -993275.2, 50885.344, 0.0, 10.000327, 9.999753 
1.6349477e+3, 2.0345218e+2, -873738.6, -1021986.6, -43558.047, 0.0336807, -0.0418516, -861887.8, 84279.805, 0.0, 10.000867, 9.998934 
1.6349795e+3, 2.1345228e+2, -899030.1, -975604.4, -30276.611, -0.045546938, 0.043818947, -888505.6, -40334.21, 0.0, 9.999991, 9.998999 
1.6350117e+3, 2.2345184e+2, -812059.8, -805005.06, -74729.375, -0.063715205, 0.08905002, -733719.9, 16457.395, 0.0, 9.999578, 9.999686 
1.6350447e+3, 2.3345043e+2, -592486.4, -606207.94, -54181.438, 0.07478677, -0.08522432, -544733.06, 107453.66, 0.0, 10.000244, 10.000051 
1.6350769e+3, 2.4344967e+2, -540880.4, -637813.94, -56000.875, 0.13143225, -0.10988531, -515285.53, 38906.113, 0.0, 10.000381, 9.999101 
1.6351072e+3, 2.5345019e+2, -506621.63, -562060.44, -8748.208, 0.015461213, -0.0022171442, -505273.9, -49085.98, 0.000000006263202, 9.999911, 9.99917 
1.6351384e+3, 2.634499e+2, -462123.47, -625734.3, 43573.254, -0.06968664, 0.11878037, -451242.56, -93050.76, 0.000005059976, 10.000119, 9.9979725 
1.6351716e+3, 2.73448e+2, -146389.06, -423816.53, 48255.535, -0.068496294, 0.09589296, -138235.19, 121975.93, 0.000060994436, 10.001622, 9.997955 
1.6352046e+3, 2.834452e+2, -10253.122, -416697.2, -50688.67, -0.030078681, 0.08304474, -4026.984, 158212.61, 0.0003219481, 10.002369, 9.996963 
1.6352367e+3, 2.934411e+2, 33041.363, -337494.97, -56798.605, 0.058455043, -0.071512744, 41552.387, 105835.01, 0.0010251402, 10.001955, 9.99703 
1.6352679e+3, 3.0343902e+2, 91415.21, -118845.01, -5882.504, -0.04211278, -0.023366384, 91579.664, 91579.664, 0.0022546886, 10.001325, 9.998515 
1.6352996e+3, 3.1344092e+2, 65043.4, 43334.574, 24354.293, -0.21701545, 0.22196479, 80852.63, 80852.63, 0.0038422053, 10.000329, 10.000108 
1.6446857e+3, 1.2341823e+2, -1890621.4, -1631297.4, 108619.22, -0.08987299, -0.02426393, -1591813.4, 138689.45, 0.036383986, 9.998008, 10.001532 
1.6447197e+3, 1.3341981e+2, -1734459.5, -1665646.3, -93930.086, 0.054310273, 0.09311236, -1600019.5, 32465.547, 0.022584815, 9.999164, 10.000039 
1.64475e+3, 1.434197e+2, -1620905.3, -1525777.4, -7788.7944, -0.17488845, 0.079067856, -1525143.9, 9340.018, 0.010560797, 9.999071, 10.000381 
1.6447853e+3, 1.5341872e+2, -1710284.3, -1484793.1, 24926.514, -0.102385804, -0.11368086, -1482070.6, -45580.805, 0.0031241647, 9.997657, 10.00066 
1.6448188e+3, 1.6341847e+2, -1727686.8, -1525997.4, -110257.445, -0.054689437, -0.16028892, -1477422.0, -138930.8, 0.0004029895, 9.997216, 9.999925 
1.644849e+3, 1.7341937e+2, -1371944.0, -1297960.1, -150285.61, -0.053904228, -0.091438025, -1180180.8, 60305.125, 0.0000070009137, 9.998975, 9.999964 
1.6448805e+3, 1.8341982e+2, -1164445.9, -1169407.8, -20710.834, -0.015440029, -0.015406952, -1146067.9, -3584.2507, 0.0, 9.99983, 9.99975 
1.6449147e+3, 1.934196e+2, -1123865.3, -1074574.9, 13624.098, 0.054204077, -0.059883714, -1071059.8, -26574.035, 0.0, 9.999346, 9.999953 
1.6449478e+3, 2.0341954e+2, -1110593.6, -1124711.1, 17101.512, 0.064092614, -0.0057894536, -1099151.4, -152663.16, 0.0, 9.999196, 9.999025 
1.6449794e+3, 2.1341977e+2, -917941.2, -967895.1, 7801.0063, -0.04311615, 0.0784077, -916751.3, -68260.17, 0.0, 9.999809, 9.999121 
1.6450115e+3, 2.2341928e+2, -732162.0, -804693.1, -3903.3208, -0.056026958, 0.12541953, -731952.56, 18545.646, 0.0, 10.000293, 9.999359 
1.6450453e+3, 2.3341745e+2, -579034.44, -646870.25, -62784.242, 0.11113031, -0.044495106, -541592.06, 110921.15, 0.0, 10.000538, 9.999644 
1.6450778e+3, 2.434165e+2, -472695.9, -600927.4, -106373.77, 0.17396577, -0.06593954, -412609.34, 141911.53, 0.0, 10.000828, 9.999145 
1.6451076e+3, 2.534171e+2, -308660.16, -462335.25, -148971.92, 0.00572323, 0.044782717, -217877.16, 238638.44, 0.000000005166704, 10.001243, 9.999228 
1.6451389e+3, 2.634168e+2, -298325.47, -520680.6, -72962.55, -0.09175538, 0.15330894, -276521.88, 81997.15, 0.000005473011, 10.001153, 9.99818 
1.6451725e+3, 2.7341473e+2, -303593.0, -468695.0, -48469.527, -0.06929624, 0.09138063, -290415.4, -29876.111, 0.000058881178, 10.0004425, 9.998195 
1.645206e+3, 2.8341204e+2, -258223.73, -511004.94, -52407.477, -0.008975235, 0.06631989, -247789.16, -85222.7, 0.0003079229, 10.000547, 9.99721 
1.6452388e+3, 2.934087e+2, 29744.645, -310214.3, -53071.527, 0.107613295, -0.03211881, 37837.09, 102439.91, 0.0009851714, 10.001813, 9.997292 
1.6452698e+3, 3.034072e+2, 252558.58, 6205.258, 12338.281, -0.0020556457, 0.039015595, 253174.98, 253174.98, 0.002164133, 10.002191, 9.998974 
1.6452998e+3, 3.1340873e+2, 100415.68, 64605.156, -66390.19, -0.21660005, 0.20527267, 151272.73, 151272.73, 0.0036698945, 10.000554, 10.000142 
1.6546842e+3, 1.2338551e+2, -1884391.8, -1657586.4, 113849.57, -0.09731098, 0.09281251, -1610297.1, 120525.63, 0.03897044, 9.998162, 10.001283 
1.6547167e+3, 1.3338335e+2, -1752144.9, -1711554.6, -44064.92, -0.19097659, -0.123453215, -1683335.8, -50491.17, 0.024272982, 9.999193, 9.999715 
1.6547514e+3, 1.4338598e+2, -1586566.4, -1476141.3, -71385.94, 0.038465332, 0.14219546, -1441107.6, 93710.5, 0.0114189135, 9.999165, 10.00068 
1.6547832e+3, 1.5338662e+2, -1690142.0, -1439488.9, -21825.748, -0.10430437, 0.081647165, -1437602.6, -794.5336, 0.0034161112, 9.997644, 10.000976 
1.6548158e+3, 1.6338661e+2, -1716539.6, -1519690.9, -78699.73, -0.11603315, 0.041732505, -1492095.4, -153288.83, 0.00045137366, 9.997277, 9.999942 
1.6548492e+3, 1.7338546e+2, -1373483.1, -1293655.9, -70869.48, 0.057745486, -0.09933313, -1252233.3, -11413.506, 0.000008273259, 9.998943, 10.000006 
1.654882e+3, 1.8338536e+2, -1118681.8, -1083623.5, -40398.984, 0.1070501, -0.10600521, -1057114.5, 85707.31, 0.0, 9.999859, 10.000331 
1.6549133e+3, 1.9338734e+2, -1087286.9, -981615.3, 4071.882, -0.03908343, 0.003745657, -981458.6, 63343.766, 0.0, 9.999262, 10.000638 
1.6549453e+3, 2.0338824e+2, -1114556.8, -1095087.3, 20816.197, -0.12534828, 0.10362998, -1081842.0, -135047.44, 0.0, 9.999037, 9.999305 
1.654979e+3, 2.1338706e+2, -932972.94, -950023.7, 43120.758, -0.069710955, 0.024002654, -897542.9, -48733.79, 0.0, 9.9996, 9.999343 
1.655012e+3, 2.2338621e+2, -829206.5, -954248.8, -9050.281, -0.042124845, 0.060157277, -828554.9, -77734.19, 0.0, 10.000068, 9.998442 
1.6550443e+3, 2.3338613e+2, -688526.75, -826349.6, -37923.87, -0.0663648, 0.17574993, -678780.7, -25954.91, 0.0, 10.00033, 9.998514 
1.6550761e+3, 2.4338524e+2, -561811.06, -727987.1, -99640.06, -0.0894011, 0.25769836, -515161.84, 39675.29, 0.0, 10.000582, 9.998387 
1.6551082e+3, 2.533827e+2, -390091.38, -576840.6, -116566.3, -0.071452625, 0.11902199, -334112.3, 122749.32, 0.00000000856411, 10.00102, 9.998537 
1.6551404e+3, 2.633805e+2, -286660.3, -452372.25, -107271.11, -0.072039455, 0.055236552, -233972.19, 124909.4, 0.0000057188686, 10.000952, 9.998751 
1.6551727e+3, 2.7337912e+2, -264180.78, -351107.78, -54805.96, -0.12133799, -0.019673536, -237695.94, 23195.006, 0.00005720022, 10.000277, 9.999086 
1.6552058e+3, 2.8337815e+2, -235188.22, -403669.63, -33107.363, -0.102142625, 0.032232866, -228915.97, -66016.65, 0.0002952708, 10.000287, 9.998074 
1.6552405e+3, 2.933776e+2, 54290.234, -203436.89, 22130.836, 0.052692562, 0.12435162, 56176.78, 121085.49, 0.0009504649, 10.001558, 9.998152 
1.655272e+3, 3.033761e+2, 203286.72, 1717.2467, -47716.094, -0.02575212, 0.13712615, 214011.58, 214011.58, 0.002096844, 10.001795, 9.999124 
1.6553001e+3, 3.1337368e+2, -1353.7223, -43833.32, -65702.02, -0.29809952, -0.08748419, 46456.35, 46456.35, 0.003555798, 10.000105, 9.999616 
1.6646843e+3, 1.23352215e+2, -1859784.8, -1726669.1, 101631.734, 0.09166613, 0.122433424, -1671740.5, 59409.06, 0.041736465, 9.998664, 10.000559 
1.6647156e+3, 1.3334937e+2, -1724263.9, -1711967.6, 17512.95, -0.2142952, -0.14929016, -1699555.0, -66376.34, 0.026087236, 9.999414, 9.999612 
1.6647515e+3, 1.4335161e+2, -1610765.9, -1502874.3, -48681.2, 0.14322548, 0.09235591, -1484156.4, 51000.21, 0.012349877, 9.999091, 10.000513 
1.664782e+3, 1.5335253e+2, -1555245.0, -1378441.5, -64664.523, -0.028883485, 0.06551656, -1357315.4, 79828.805, 0.003737191, 9.998612, 10.000914 
1.6648142e+3, 1.6335286e+2, -1548834.8, -1420785.3, -38477.492, -0.04134605, 0.05844252, -1410112.6, -70973.68, 0.00050616945, 9.998379, 10.000076 
1.6648486e+3, 1.7335191e+2, -1382365.0, -1279901.0, -37566.223, 0.1179502, -0.07835697, -1267604.0, -26454.936, 0.000009797576, 9.99881, 10.000161 
1.6648817e+3, 1.833519e+2, -1264494.4, -1165737.8, -38690.973, 0.15989828, -0.07999686, -1152384.9, -9234.37, 0.0, 9.998914, 10.000217 
1.6649124e+3, 1.933538e+2, -1137470.5, -1018953.7, -92097.03, -0.011844908, 0.034395475, -968697.6, 76436.17, 0.0, 9.998984, 10.000503 
1.6649446e+3, 2.0335469e+2, -1050890.1, -1023923.9, -53262.254, -0.102024615, 0.12407402, -982464.6, -35338.395, 0.0, 9.999297, 9.99967 
1.664979e+3, 2.133537e+2, -815642.2, -842673.1, -30232.748, -0.043806273, 0.021728503, -796041.44, 53094.074, 0.0, 10.000179, 9.999806 
1.6650125e+3, 2.2335291e+2, -751076.6, -927833.9, -42345.313, -0.021231113, 0.04112715, -741455.75, 9689.448, 0.0, 10.000658, 9.998324 
1.6650443e+3, 2.333526e+2, -682694.06, -844628.4, -42048.785, -0.08380603, 0.15386464, -672426.5, -19272.244, 0.0, 10.000465, 9.998305 
1.6650763e+3, 2.4335171e+2, -561841.3, -732697.7, -1930.3522, -0.1145138, 0.24807657, -561819.5, -6652.728, 0.0, 10.000579, 9.998376 
1.665109e+3, 2.5334963e+2, -345995.84, -548181.44, 12638.858, -0.082911044, 0.15445773, -345208.84, 111978.0, 0.0000000057748837, 10.0012865, 9.998615 
1.6651417e+3, 2.6334757e+2, -185653.3, -399835.38, 34694.633, -0.04546557, 0.0973676, -180173.44, 179031.97, 0.0000055479773, 10.0016165, 9.9987955 
1.6651742e+3, 2.7334574e+2, -127262.78, -298857.16, -13707.721, -0.028834052, -0.02415778, -126174.65, 135045.0, 0.000055377644, 10.001235, 9.999007 
1.6652071e+3, 2.8334486e+2, -130611.055, -294603.3, 19293.84, -0.010943608, 0.025456434, -128371.695, 34854.96, 0.00028510438, 10.000756, 9.998576 
1.6652404e+3, 2.9334572e+2, -109202.305, -214167.9, 7023.6353, -0.018760301, 0.20293579, -108734.414, -43512.703, 0.0009269267, 10.000177, 9.998717 
1.665272e+3, 3.0334413e+2, -6291.7104, -90782.41, -55196.047, -0.10564896, 0.16409948, 20970.303, 20970.303, 0.0020627284, 10.00031, 9.999192 
1.6653028e+3, 3.1334132e+2, 132176.39, 13425.07, -149320.53, -0.06664945, -0.10065653, 233493.27, 233493.27, 0.0035152223, 10.001073, 9.999523 
1.6746828e+3, 1.2331796e+2, -1918350.3, -1875537.3, -128124.66, -0.0022840183, 0.009986636, -1767043.1, -35556.125, 0.044670317, 9.998788, 9.99946 
1.674716e+3, 1.333185e+2, -1707851.6, -1694223.1, 39195.715, -0.13078992, 0.060637243, -1661253.8, -27771.875, 0.028026333, 9.999473, 9.999712 
1.6747494e+3, 1.4331657e+2, -1636369.8, -1574094.6, -86037.58, -0.020001339, -0.09331664, -1513733.5, 21765.889, 0.013357116, 9.9991665, 9.999987 
1.6747813e+3, 1.533164e+2, -1589595.8, -1456404.6, -67336.43, 0.0055545303, -0.17794394, -1428294.5, 9203.383, 0.004090086, 9.998634, 10.00037 
1.6748138e+3, 1.6331702e+2, -1518038.6, -1382397.8, -43510.855, 0.03394877, -0.1326072, -1369640.3, -30150.36, 0.0005678562, 9.998483, 10.000294 
1.6748466e+3, 1.733188e+2, -1366090.5, -1236723.5, -13481.125, 0.011976903, -0.025692577, -1235333.6, 6139.6675, 0.000011659807, 9.998771, 10.000479 
1.6748793e+3, 1.8331967e+2, -1320328.4, -1287207.9, -49837.805, -0.004710605, 0.077764146, -1251251.0, -107783.57, 0.0, 9.998927, 9.999385 
1.6749121e+3, 1.9331895e+2, -1225692.5, -1181917.8, -81332.44, 0.025864288, 0.035298735, -1119579.1, -74098.78, 0.0, 9.998891, 9.999435 
1.6749454e+3, 2.0331876e+2, -1030578.2, -957725.75, -40324.227, 0.014193314, 0.057166528, -939811.25, 7673.096, 0.0, 9.999187, 10.000179 
1.674979e+3, 2.1331961e+2, -789660.75, -746794.56, 17180.5, -0.0807837, 0.06382376, -740758.6, 108712.56, 0.0, 9.999989, 10.000562 
1.6750123e+3, 2.2331935e+2, -747060.56, -856158.8, -54425.844, -0.1310682, 0.06578524, -724552.75, 26918.898, 0.0, 10.000387, 9.998942 
1.6750452e+3, 2.3331694e+2, -674722.94, -779256.44, -38100.957, -0.058215126, -0.08947315, -662309.75, -8811.581, 0.0, 10.000256, 9.998854 
1.6750778e+3, 2.4331596e+2, -545291.0, -641727.5, 3938.5713, -0.04133642, -0.06643685, -545130.44, 10379.45, 0.0, 10.000336, 9.999115 
1.6751099e+3, 2.533178e+2, -323021.03, -447477.3, 56874.914, -0.14316161, 0.15180723, -300945.56, 156546.75, 0.0000000017385277, 10.001056, 9.999416 
1.6751426e+3, 2.6331782e+2, -264649.9, -497007.53, 13434.615, -0.14684007, 0.27330372, -263875.72, 95616.984, 0.0000048816705, 10.001329, 9.99827 
1.6751766e+3, 2.733142e+2, -213276.19, -433127.53, -6777.1553, 0.073553525, 0.057206064, -213067.47, 48460.758, 0.000051551386, 10.001038, 9.998185 
1.6752093e+3, 2.8331214e+2, -178184.27, -326768.22, -12978.204, 0.10180575, 0.038049717, -177059.19, -13509.626, 0.0002714196, 10.000474, 9.998493 
1.6752386e+3, 2.9331294e+2, -126946.17, -203290.52, 14826.754, -0.24630268, 0.19524105, -124167.8, -58623.87, 0.0008993855, 9.999952, 9.99891 
1.6752696e+3, 3.03311e+2, -71042.016, -123905.19, -45562.504, -0.3971803, 0.11399628, -44799.41, -44799.41, 0.0020323566, 9.999902, 9.999153 
1.6753067e+3, 3.1331033e+2, 92579.17, 22571.2, -62029.57, 0.15833029, 0.07141593, 128799.805, 128799.805, 0.0035038409, 10.000695, 9.999761 
1.6846824e+3, 1.2328567e+2, -1682106.4, -1822624.9, -110447.58, -0.0014410978, 0.10299184, -1621464.8, 110343.97, 0.04776628, 10.000732, 9.998875 
1.6847168e+3, 1.3328654e+2, -1724072.8, -1644107.6, 17791.504, 0.029060107, 0.14049952, -1640327.9, -6529.88, 0.030093629, 9.999142, 10.000201 
1.6847476e+3, 1.4328429e+2, -1768012.6, -1648704.6, -15473.712, -0.04763066, -0.072088376, -1646730.4, -110913.484, 0.0144471, 9.998298, 9.999898 
1.6847806e+3, 1.532838e+2, -1496145.3, -1439156.9, 3281.7039, 0.050148237, -0.16559218, -1438968.5, -1149.166, 0.004479329, 9.99939, 10.000132 
1.6848132e+3, 1.6328412e+2, -1339145.0, -1324117.4, 47809.688, 0.08006848, -0.12657972, -1283234.6, 56580.063, 0.0006375465, 9.999829, 10.000048 
1.6848454e+3, 1.7328574e+2, -1255051.1, -1203784.4, 13595.168, -0.022278307, -0.016961902, -1200402.3, 41396.61, 0.00001399049, 9.999626, 10.000285 
1.684878e+3, 1.8328641e+2, -1260964.6, -1287346.9, -3145.2397, -0.03835391, 0.086310826, -1260594.9, -116800.15, 0.0, 9.99947, 9.999117 
1.6849118e+3, 1.9328545e+2, -1129769.1, -1171942.0, 846.99457, 0.08106395, 0.049885385, -1129752.1, -83941.336, 0.0, 9.999703, 9.999117 
1.6849455e+3, 2.0328493e+2, -966553.9, -934459.2, 81210.89, 0.11611464, 0.06291891, -867725.3, 80092.72, 0.0, 9.999669, 10.000105 
1.6849792e+3, 2.1328557e+2, -907596.25, -799199.94, 46867.293, -0.017959505, 0.047330562, -781746.25, 68059.76, 0.0, 9.999181, 10.000582 
1.6850124e+3, 2.232853e+2, -888250.1, -895907.75, -30125.842, -0.08372278, 0.038330413, -861710.75, -109905.664, 0.0, 9.99927, 9.999231 
1.6850458e+3, 2.3328331e+2, -632879.4, -719770.9, -46765.953, -0.01934939, -0.108215354, -612492.6, 41333.25, 0.0, 10.000358, 9.999234 
1.6850787e+3, 2.432826e+2, -446148.53, -563716.06, -13057.097, -0.0028153262, -0.09176239, -444715.88, 111117.805, 0.0, 10.000894, 9.999366 
1.6851108e+3, 2.5328428e+2, -398083.25, -468055.38, -42090.426, -0.11391246, 0.0887119, -378337.0, 79479.9, 0.0000000018399801, 10.000458, 9.999562 
1.6851436e+3, 2.632843e+2, -411405.63, -558168.1, -64407.03, -0.12191215, 0.20178199, -387149.44, -27332.084, 0.0000039092515, 10.000282, 9.998354 
1.6851775e+3, 2.7328134e+2, -248711.2, -425811.53, -58013.934, 0.08387108, 0.040154565, -231399.44, 30449.35, 0.000046409757, 10.000747, 9.998347 
1.68521e+3, 2.8327975e+2, -81383.55, -246970.0, 3325.6086, 0.12982123, 0.050892103, -81316.78, 82548.95, 0.00025645504, 10.000968, 9.99883 
1.6852397e+3, 2.9328075e+2, -17287.621, -106825.664, 8136.2827, -0.15702096, 0.19283561, -16554.287, 49302.008, 0.000866263, 10.000502, 9.999328 
1.6852705e+3, 3.0327857e+2, -7234.0674, -152089.23, 27760.957, -0.30782822, 0.079846255, -2096.03, -2096.03, 0.0019892203, 10.000535, 9.998692 
1.6853076e+3, 3.1327775e+2, 142012.66, 13838.666, -85333.805, 0.17659558, 0.10163071, 184644.92, 184644.92, 0.003476974, 10.001107, 9.999559 
1.694682e+3, 1.2325505e+2, -1664925.0, -1830651.9, 20024.238, -0.2007312, 0.36081252, -1662539.9, 69578.18, 0.051028147, 10.000901, 9.99874 
1.6947171e+3, 1.3325305e+2, -1662659.9, -1512734.8, -39152.246, 0.109442554, 0.040041458, -1503126.1, 131005.27, 0.032295942, 9.999107, 10.001149 
1.6947462e+3, 1.4325507e+2, -1730226.1, -1590135.9, -849.9284, -0.069794945, 0.17268325, -1590130.8, -54024.348, 0.015627254, 9.998372, 10.000268 
1.6947795e+3, 1.5325525e+2, -1490472.5, -1438924.1, 58897.164, -0.017360518, 0.14489679, -1400408.4, 37695.383, 0.004910431, 9.999435, 10.0001135 
1.694812e+3, 1.632545e+2, -1365960.5, -1404194.5, 29760.96, -0.056157026, 0.10316766, -1349705.5, -9595.465, 0.0007170378, 9.999929, 9.999448 
1.6948445e+3, 1.7325285e+2, -1306818.4, -1310037.5, 17436.193, -0.09632076, -0.044668667, -1290917.6, -48792.984, 0.000016975888, 9.9996195, 9.999557 
1.6948774e+3, 1.8325216e+2, -1233109.1, -1243539.9, -12718.174, -0.072510526, -0.048502978, -1224578.5, -80446.68, 0.0, 9.999523, 9.999393 
1.6949113e+3, 1.9325325e+2, -1108732.5, -1108366.8, 18723.785, 0.030002004, 0.075888366, -1089824.9, -43699.793, 0.0, 9.999616, 9.999593 
1.6949451e+3, 2.0325336e+2, -1043181.5, -1050812.8, 51111.71, 0.07133335, 0.15136388, -995743.2, -47617.45, 0.0, 9.999484, 9.999399 
1.6949789e+3, 2.1325158e+2, -998456.06, -951828.75, 39805.504, 0.026395064, -0.0120797455, -929012.1, -78872.15, 0.0, 9.999013, 9.999622 
1.6950125e+3, 2.2325069e+2, -915049.44, -892560.25, -12160.874, -0.024866106, -0.03397353, -887242.0, -135095.38, 0.0, 9.999026, 9.999368 
1.6950457e+3, 2.3325165e+2, -650601.5, -692324.5, 12822.387, -0.08284206, 0.081969835, -646975.94, 7162.2944, 0.0, 10.000087, 9.999551 
1.6950786e+3, 2.4325144e+2, -518019.22, -636857.94, -30995.297, -0.12750147, 0.14661548, -510420.9, 45718.934, 0.0, 10.00057, 9.999022 
1.6951114e+3, 2.5324902e+2, -460054.34, -551234.94, -41465.54, -0.11219592, -0.03592506, -444017.8, 14143.32, 0.0000000033657745, 10.000261, 9.999088 
1.695144e+3, 2.6324716e+2, -407128.88, -486979.03, -63993.594, -0.11748099, -0.1075913, -371627.22, -11448.743, 0.0000030031388, 10.000023, 9.9989605 
1.6951765e+3, 2.732469e+2, -221822.9, -318335.34, -20996.01, -0.115594305, -0.082936645, -217453.14, 44730.145, 0.000041455987, 10.000528, 9.9991865 
1.6952093e+3, 2.8324744e+2, -75622.21, -165420.14, -26698.178, -0.06531358, 0.053808935, -68284.12, 95895.086, 0.00024337543, 10.000671, 9.999533 
1.6952427e+3, 2.932487e+2, -303.16052, -26172.438, 9508.256, 0.069689505, 0.15962158, 2815.606, 68980.18, 0.00083297, 10.000287, 9.999994 
1.695274e+3, 3.032463e+2, -134746.25, -316057.5, 27031.51, -0.0362967, 0.028584091, -130801.95, -130801.95, 0.0019296512, 10.000137, 9.997741 
1.695305e+3, 3.1324407e+2, 46536.36, -67293.0, -10538.448, -0.24498777, 0.016444692, 47503.797, 47503.797, 0.0034048194, 10.000625, 9.999217 
1.704681e+3, 1.2322212e+2, -2077245.6, -1932508.0, 177182.11, -0.20592922, 0.36140344, -1813485.3, -81044.125, 0.054460447, 9.997618, 9.999636 
1.7047161e+3, 1.3321954e+2, -1697793.1, -1485581.1, -74732.05, 0.134939, -0.05161995, -1461905.1, 172554.27, 0.034638863, 9.9986725, 10.001559 
1.7047454e+3, 1.4322315e+2, -1624024.6, -1543239.1, -28004.297, -0.004103995, 0.21584164, -1534481.0, 1938.4863, 0.016903277, 9.999145, 10.0002165 
1.7047784e+3, 1.532237e+2, -1614272.0, -1518227.0, -12909.489, -0.014526043, 0.24073595, -1516522.0, -78106.305, 0.00538814, 9.998684, 9.999924 
1.704811e+3, 1.6322277e+2, -1574090.6, -1503760.9, -6763.8193, -0.061250467, 0.19350238, -1503116.3, -162691.36, 0.0008082668, 9.998497, 9.999451 
1.7048444e+3, 1.7322055e+2, -1358912.8, -1327147.9, 13865.366, -0.030865636, -0.016683454, -1321947.1, -79503.195, 0.000020835996, 9.99922, 9.999637 
1.7048779e+3, 1.8321963e+2, -1203693.3, -1232190.4, 38679.047, 0.024052817, -0.04570256, -1176721.8, -32269.814, 0.0, 9.999732, 9.999383 
1.7049113e+3, 1.9322097e+2, -1026602.94, -1074347.8, 8595.864, 0.053081725, 0.10914441, -1025102.5, 21338.682, 0.0, 10.000193, 9.999562 
1.704945e+3, 2.0322093e+2, -928562.2, -1049473.4, 39330.902, 0.07592844, 0.19137613, -916894.3, 31548.586, 0.0, 10.000504, 9.998904 
1.7049792e+3, 2.1321835e+2, -794358.0, -921530.0, 25561.178, 0.081704505, 0.005044892, -789412.56, 61054.156, 0.0, 10.000717, 9.998999 
1.705013e+3, 2.2321709e+2, -653821.75, -756802.0, 26755.996, 0.051723693, -0.0225081, -647285.0, 105192.805, 0.0, 10.000785, 9.999443 
1.705046e+3, 2.3321852e+2, -567021.56, -621795.25, 14055.703, -0.051989216, 0.11834809, -563625.25, 90837.59, 0.0, 10.000544, 9.999801 
1.7050792e+3, 2.4321844e+2, -536286.9, -654277.8, -9959.115, -0.10081389, 0.1819784, -535452.2, 21009.893, 0.0, 10.000479, 9.998955 
1.7051125e+3, 2.5321528e+2, -393174.75, -523444.16, -25561.855, -0.04928219, -0.061141558, -388338.47, 70151.55, 0.0000000026261497, 10.000761, 9.999031 
1.7051451e+3, 2.6321316e+2, -275888.28, -401617.6, -13262.919, -0.04796163, -0.16315751, -274504.44, 86005.055, 0.0000021613648, 10.000804, 9.999186 
1.7051765e+3, 2.7321354e+2, -228441.73, -294996.06, -40478.824, -0.14705008, -0.10249604, -209317.52, 53190.863, 0.000036656253, 10.000338, 9.999458 
1.7052092e+3, 2.8321436e+2, -148390.95, -179525.75, -49967.87, -0.11222469, 0.04317745, -111621.64, 52879.29, 0.00022921336, 10.000092, 9.999702 
1.7052434e+3, 2.9321533e+2, 12972.364, -6009.3594, -93388.39, 0.1350041, 0.10738595, 97350.92, 163839.0, 0.0007930789, 10.000344, 10.00009 
1.7052753e+3, 3.032129e+2, -11153.1, -280427.94, -5301.9287, 0.06629291, -0.013669013, -11048.747, -11048.747, 0.0018420495, 10.001083, 9.997514 
1.705307e+3, 3.1320974e+2, 312611.5, 70021.14, -60221.57, -0.17910148, -0.10246405, 326738.47, 326738.47, 0.0032654046, 10.002455, 9.999237 
1.7146806e+3, 1.2318647e+2, -1925560.9, -1616162.4, 156045.69, -0.05464528, 0.031129256, -1551129.8, 181650.81, 0.058051143, 9.997578, 10.001892 
1.7147136e+3, 1.3318668e+2, -1734911.4, -1550111.4, -12232.309, 0.008358519, -0.08522583, -1549305.1, 85469.47, 0.037118543, 9.99863, 10.0011215 
1.7147449e+3, 1.4318845e+2, -1635448.0, -1602109.4, -52627.19, -0.027226679, 0.049222518, -1563574.6, -26818.092, 0.018276531, 9.999283, 9.999751 
1.7147769e+3, 1.5318868e+2, -1645004.8, -1579896.9, -19590.39, -0.06751755, 0.08307367, -1574456.9, -135697.75, 0.005915651, 9.99867, 9.99951 
1.7148101e+3, 1.6318873e+2, -1524735.3, -1404121.5, -5097.475, -0.055738393, 0.1287197, -1403906.5, -63145.605, 0.0009130136, 9.998515, 10.00012 
1.7148449e+3, 1.7318898e+2, -1304667.6, -1199649.5, 52162.305, 0.07062062, 0.07655098, -1178144.3, 64610.918, 0.000025810483, 9.999166, 10.000533 
1.714879e+3, 1.8318905e+2, -1225233.9, -1276986.0, 44607.703, 0.119486414, 0.10906207, -1199540.4, -54787.477, 0.0, 9.999729, 9.999078 
1.7149115e+3, 1.9318871e+2, -1075858.0, -1158594.4, 38514.027, 0.035741575, 0.1448095, -1060704.9, -13946.732, 0.0, 10.000115, 9.999022 
1.7149448e+3, 2.0318775e+2, -970501.6, -1104880.5, 36366.69, -0.012894191, 0.18034466, -961291.1, -12522.3125, 0.0, 10.000371, 9.998588 
1.7149796e+3, 2.1318577e+2, -847871.3, -977000.75, 44917.086, 0.030480564, 0.08470969, -833783.94, 17003.758, 0.0, 10.00048, 9.998733 
1.7150138e+3, 2.2318432e+2, -694664.94, -778299.25, 8726.204, 0.02720837, 0.051904388, -693764.1, 59036.39, 0.0, 10.000505, 9.999435 
1.7150469e+3, 2.3318394e+2, -590723.6, -630454.9, 19787.65, -0.050572045, 0.008510999, -582550.1, 72250.02, 0.0, 10.000356, 9.999839 
1.71508e+3, 2.431835e+2, -561652.25, -637412.4, -17403.244, -0.08841268, 0.022502884, -557845.7, -1044.5835, 0.0, 10.000193, 9.999201 
1.7151134e+3, 2.5318277e+2, -413653.53, -508254.3, 942.61664, -0.041333072, -0.0038724488, -413644.13, 45162.285, 0.0000000000058928205, 10.000513, 9.999255 
1.715146e+3, 2.631819e+2, -324553.38, -438761.1, -41185.9, -0.052256376, 0.008983955, -311250.34, 49564.547, 0.0000014626683, 10.000536, 9.999059 
1.715177e+3, 2.7318102e+2, -275866.06, -338568.0, -41869.688, -0.14742139, -0.03324254, -254910.69, 7915.364, 0.000032258973, 10.000102, 9.999273 
1.7152089e+3, 2.8318053e+2, -223474.8, -268274.56, -60365.387, -0.16851658, 0.012609054, -181487.3, -16656.066, 0.00021422842, 9.999802, 9.999234 
1.7152418e+3, 2.931806e+2, -48203.656, -86142.34, -55605.063, -0.09457983, 0.026040884, -8421.328, 58405.453, 0.0007459909, 10.000135, 9.99964 
1.7152748e+3, 3.0317837e+2, -58682.766, -286932.97, 22826.342, -0.13843766, -0.05973666, -56422.383, -56422.383, 0.0017319232, 10.000715, 9.997639 
1.7153125e+3, 3.1317416e+2, 241678.9, 78167.37, 39715.582, 0.0662999, -0.27353954, 250815.02, 250815.02, 0.0030783708, 10.0018215, 9.999586 
1.7246796e+3, 1.2315236e+2, -1887917.4, -1552573.6, 167901.47, 0.106912114, -0.13474314, -1482959.3, 250150.1, 0.06177432, 9.997619, 10.002331 
1.7247124e+3, 1.3315544e+2, -1768439.5, -1607277.9, 6824.211, 0.04045349, 0.04503408, -1606989.4, 28088.97, 0.039721623, 9.998581, 10.00072 
1.7247438e+3, 1.4315483e+2, -1681805.5, -1643846.9, -22503.883, -0.03459893, -0.025151925, -1633387.5, -96302.23, 0.019743169, 9.999031, 9.999598 
1.7247763e+3, 1.5315486e+2, -1509399.1, -1504552.6, 3163.507, -0.016744092, -0.012817751, -1502990.9, -63902.336, 0.006494274, 9.999533, 9.999632 
1.72481e+3, 1.6315524e+2, -1349481.5, -1359303.8, 63781.96, 0.044616558, 0.075697586, -1290421.9, 50665.09, 0.001032908, 9.999882, 9.999781 
1.724845e+3, 1.7315581e+2, -1134406.9, -1164652.6, -1156.4126, 0.110334076, 0.09557604, -1134362.6, 108718.18, 0.00003215152, 10.000532, 10.000119 
1.7248791e+3, 1.8315578e+2, -1063913.6, -1202483.8, -47202.9, 0.13225418, 0.14347768, -1049362.4, 95718.5, 0.0, 10.000858, 9.999041 
1.7249121e+3, 1.9315489e+2, -944776.9, -1087549.4, -40369.76, 0.047295928, 0.12380354, -934152.7, 112937.02, 0.0, 10.000991, 9.9990835 
1.7249456e+3, 2.0315379e+2, -900106.75, -1070553.0, 5119.162, 0.009745331, 0.14176074, -899953.1, 49147.61, 0.0, 10.000847, 9.998607 
1.7249802e+3, 2.1315232e+2, -849443.0, -978002.7, 8853.372, 0.06311537, 0.09688382, -848836.2, 2279.2847, 0.0, 10.00046, 9.998747 
1.7250146e+3, 2.2315091e+2, -730210.25, -798939.06, 19370.451, 0.07985079, 0.07386576, -725126.9, 28000.816, 0.0, 10.000304, 9.999374 
1.7250478e+3, 2.3314989e+2, -538568.44, -613112.5, -11916.284, 0.0075459112, -0.02490767, -536709.9, 118423.03, 0.0, 10.000781, 9.999737 
1.725081e+3, 2.431491e+2, -442480.97, -574042.2, -41694.367, -0.024060428, -0.039676737, -430380.22, 126756.6, 0.0, 10.000968, 9.99926 
1.7251141e+3, 2.5314888e+2, -411509.88, -490480.53, -59633.38, 0.0012211903, -0.028466923, -379474.38, 79663.14, 0.0000000000049057277, 10.00045, 9.999399 
1.7251466e+3, 2.6314855e+2, -378893.6, -447839.25, -69956.12, -0.010277778, 0.022725033, -335377.75, 25762.918, 0.0000011502509, 10.000104, 9.999194 
1.7251778e+3, 2.7314797e+2, -264016.2, -322109.88, -84141.67, -0.067423, 0.0021542613, -204048.77, 59099.234, 0.000029351942, 10.000139, 9.999366 
1.7252097e+3, 2.8314713e+2, -149110.83, -267439.9, -25610.566, -0.0844366, 0.019235374, -143805.66, 21350.756, 0.00020332959, 10.000481, 9.998903 
1.7252424e+3, 2.9314557e+2, 114440.734, -56491.164, -65329.04, -0.100833744, -0.082461886, 136549.47, 203717.77, 0.0007056686, 10.001495, 9.999174 
1.7252757e+3, 3.031437e+2, 160341.31, -160565.86, 41779.4, -0.16514927, -0.113149874, 165691.44, 165691.44, 0.0016348903, 10.00208, 9.997885 
1.7253153e+3, 3.131417e+2, 200549.63, 48666.965, 1448.0721, 0.2087956, -0.13420011, 200563.44, 200563.44, 0.0029115556, 10.001483, 9.999606 
1.7346755e+3, 1.2312011e+2, -2003472.0, -1799924.1, 83191.05, -0.14738293, -0.1165198, -1770249.8, -36824.594, 0.06561491, 9.997702, 10.000487 
1.7347118e+3, 1.3312587e+2, -1797230.3, -1662306.1, 35730.12, 0.093219735, 0.35151815, -1653428.4, -18057.746, 0.042436883, 9.998558, 10.000348 
1.7347418e+3, 1.4312194e+2, -1660895.1, -1610503.5, -25657.451, -0.17397605, -0.022600353, -1599739.1, -62329.895, 0.021297567, 9.99908, 9.999795 
1.7347763e+3, 1.5312241e+2, -1461103.8, -1407851.4, 32233.807, 0.006422733, -0.033023126, -1392668.9, 46733.563, 0.0071235094, 9.999553, 10.000282 
1.7348108e+3, 1.6312261e+2, -1421074.9, -1544305.6, 70947.63, 0.08588152, 0.05142898, -1388722.0, -47321.617, 0.0011691477, 10.000022, 9.998449 
1.7348443e+3, 1.7312099e+2, -1258958.9, -1436315.6, 32112.723, -0.026392916, 0.03401168, -1253323.5, -9902.056, 0.00004011834, 10.000574, 9.99824 
1.7348781e+3, 1.8311964e+2, -1049553.3, -1177086.8, -58482.22, -0.08818169, 0.0560625, -1026796.2, 118641.125, 0.0, 10.000881, 9.9992 
1.7349125e+3, 1.9311939e+2, -921457.7, -1007230.25, -28381.088, -0.03518927, 0.037971757, -912917.1, 134520.4, 0.0, 10.0008545, 9.999698 
1.7349467e+3, 2.0311898e+2, -896978.2, -1027802.4, -21778.39, 0.009772606, 0.07205767, -893448.0, 55991.95, 0.0, 10.000687, 9.998977 
1.7349806e+3, 2.1311805e+2, -852171.4, -947800.0, 6180.5845, 0.05204016, 0.04903153, -851773.56, -324.52444, 0.0, 10.000299, 9.999031 
1.7350148e+3, 2.2311705e+2, -782097.8, -850314.9, 17741.21, 0.052535888, 0.05927083, -777759.75, -24301.885, 0.0, 10.000063, 9.999136 
1.7350487e+3, 2.3311612e+2, -591501.25, -675591.3, 21691.78, -0.0025315613, -0.0014944865, -586235.44, 69228.44, 0.0, 10.000566, 9.9994135 
1.7350821e+3, 2.4311502e+2, -490343.78, -599280.25, -65493.04, -0.042333763, -0.026985852, -459629.13, 97842.63, 0.0, 10.000663, 9.999231 
1.7351143e+3, 2.5311375e+2, -441565.6, -496035.03, -61315.094, -0.050209314, -0.1268671, -401708.8, 57773.445, 0.000000000000012544113, 10.000216, 9.999473 
1.7351463e+3, 2.6311323e+2, -399082.94, -424360.2, -84594.52, -0.06514462, -0.111640856, -326188.13, 35298.063, 0.0000010511417, 9.9998255, 9.999488 
1.7351784e+3, 2.7311444e+2, -272314.4, -284866.78, -62726.547, -0.04811463, 0.008746989, -215550.84, 47923.375, 0.000029114979, 9.999916, 9.999721 
1.735211e+3, 2.83114e+2, -222900.83, -360607.53, -14295.202, -0.019471789, 0.062457517, -221432.52, -55954.277, 0.00019954766, 10.0002165, 9.998394 
1.7352447e+3, 2.9310983e+2, 20346.633, -181020.98, -4205.119, -0.04860438, -0.23410554, 20434.408, 87951.01, 0.00068418466, 10.001189, 9.9984665 
1.7352776e+3, 3.0310857e+2, 114609.875, -147336.05, 8632.936, -0.20427433, -0.17628556, 114894.086, 114894.086, 0.0015843388, 10.001642, 9.998169 
1.7353149e+3, 3.131111e+2, 105744.0, 16650.084, 32641.898, -0.033060886, 0.19265524, 116423.164, 116423.164, 0.002832177, 10.000826, 9.999673 
1.7446734e+3, 1.2308699e+2, -1986910.6, -1883165.4, 42727.992, -0.12628572, -0.05418873, -1867833.4, -134083.86, 0.06957688, 9.998242, 9.999659 
1.7447113e+3, 1.3309258e+2, -1631971.1, -1543081.8, -15116.334, 0.14776371, 0.38376936, -1540581.4, 95114.945, 0.045260757, 9.999528, 10.0007305 
1.7447412e+3, 1.430882e+2, -1445322.4, -1521879.6, -20906.898, -0.20815352, -0.0544858, -1439985.0, 97753.88, 0.022935338, 10.000657, 9.99963 
1.7447768e+3, 1.5308882e+2, -1305917.6, -1368596.0, -83079.25, 0.048500292, -0.020380981, -1248463.3, 191267.6, 0.0078018596, 10.000794, 9.999934 
1.7448117e+3, 1.6308881e+2, -1349261.5, -1523822.3, -29430.854, 0.15965845, 0.06805393, -1344433.0, -2701.979, 0.0013223152, 10.0005865, 9.998321 
1.7448449e+3, 1.7308696e+2, -1276907.9, -1451200.6, 35590.95, -0.005778604, 0.038386043, -1269920.3, -26166.436, 0.000049909977, 10.000489, 9.998182 
1.7448787e+3, 1.8308549e+2, -1140928.6, -1226984.5, 38161.266, -0.07929231, 0.05203991, -1126444.1, 19326.748, 0.0000000000000006446772, 10.000271, 9.999147 
1.744913e+3, 1.9308499e+2, -1040710.1, -1069173.8, -8712.466, 0.0037289322, 0.012293597, -1038255.06, 9518.726, 0.0, 10.000048, 9.999651 
1.7449474e+3, 2.0308454e+2, -975893.0, -1034363.25, -1516.149, 0.06572578, 0.034608733, -975853.7, -26077.283, 0.0, 10.000005, 9.99926 
1.7449813e+3, 2.1308416e+2, -781109.75, -867981.8, 1820.5298, 0.07448983, 0.03071179, -781071.6, 70707.3, 0.0, 10.000599, 9.999431 
1.7450154e+3, 2.2308347e+2, -683153.6, -820646.6, 38528.543, 0.08030057, 0.052303202, -673093.25, 80691.414, 0.0, 10.000792, 9.999006 
1.7450497e+3, 2.3308237e+2, -676993.2, -744078.7, 24752.826, 0.07537978, 0.0013026206, -668848.75, -13054.592, 0.0, 10.000086, 9.999185 
1.7450832e+3, 2.430813e+2, -616677.75, -655448.5, -28167.742, 0.052144706, -0.010829523, -601869.3, -44066.05, 0.0, 9.999801, 9.99925 
1.7451148e+3, 2.530802e+2, -404564.56, -470981.53, -58507.188, -0.033287864, -0.09645094, -370498.28, 89313.88, 0.0, 10.000467, 9.999515 
1.7451465e+3, 2.6307952e+2, -251595.63, -369532.28, -73370.375, -0.078475185, -0.0910937, -216433.84, 145383.1, 0.0000010008785, 10.000891, 9.999356 
1.7451786e+3, 2.7307996e+2, -153655.16, -249964.73, -123102.45, -0.036725197, -0.030747337, -69624.1, 194187.36, 0.000030147008, 10.000805, 9.9995365 
1.7452121e+3, 2.8307924e+2, -118370.53, -327509.7, -26642.846, 0.029695772, 0.012921053, -115029.79, 50787.723, 0.00019898178, 10.000992, 9.998254 
1.7452468e+3, 2.930757e+2, 56409.19, -196943.05, -20435.56, 0.0458611, -0.19935004, 58046.953, 125897.63, 0.00068108423, 10.001537, 9.99821 
1.7452797e+3, 3.0307433e+2, 108213.45, -128431.51, 5933.47, -0.13014227, -0.14717248, 108362.13, 108362.13, 0.0015908242, 10.001488, 9.998384 
1.7453153e+3, 3.1307614e+2, 81218.836, -15439.016, -74281.5, -0.03800586, 0.13213807, 121509.47, 121509.47, 0.0028696053, 10.000723, 9.999504 
1.754673e+3, 1.2305221e+2, -1953227.4, -1829423.6, 80716.29, -0.0693281, -0.0020209304, -1789605.5, -55514.77, 0.07366958, 9.9983, 10.000004 
1.7547098e+3, 1.3305509e+2, -1550892.1, -1375974.5, 51836.566, 0.031009594, 0.0898952, -1361766.9, 274293.2, 0.048192136, 9.999534, 10.001933 
1.7547415e+3, 1.4305411e+2, -1458699.1, -1585033.6, -17585.246, -0.2940062, -0.08199611, -1456297.0, 81771.945, 0.024652572, 10.000799, 9.999134 
1.7547774e+3, 1.530541e+2, -1399496.0, -1578212.1, -72854.89, -0.0050086253, 0.030869609, -1373560.1, 66514.164, 0.008527423, 10.000845, 9.998478 
1.7548122e+3, 1.6305354e+2, -1266400.0, -1362462.6, -60434.75, 0.12030626, 0.11212164, -1237234.4, 104848.27, 0.0014925194, 10.000641, 9.999399 
1.7548463e+3, 1.7305364e+2, -1158304.0, -1189455.9, 42713.418, 0.06026868, 0.10243176, -1128415.1, 115663.95, 0.00006156021, 10.000432, 10.000001 
1.7548805e+3, 1.830534e+2, -1155602.6, -1256793.4, 17432.059, 0.034017306, 0.13896868, -1152683.8, -6603.8467, 0.0000000010737394, 10.000267, 9.998943 
1.7549138e+3, 1.9305184e+2, -1105043.6, -1184530.0, -7263.278, 0.04705979, 0.059183717, -1104385.4, -56288.402, 0.0, 9.999967, 9.998899 
1.7549473e+3, 2.030506e+2, -987327.44, -1025440.9, -1157.8727, 0.036224347, 0.04170975, -987292.3, -37182.906, 0.0, 9.999864, 9.999387 
1.7549816e+3, 2.1305043e+2, -781520.3, -825609.5, 35678.59, 0.019929172, 0.020701012, -761625.3, 90482.25, 0.0, 10.000406, 9.999816 
1.7550159e+3, 2.2304992e+2, -720689.3, -841255.7, 7087.858, 0.03447996, 0.040002577, -720274.06, 33836.41, 0.0, 10.000547, 9.998981 
1.7550503e+3, 2.3304874e+2, -714576.25, -779748.1, 12163.388, 0.11409084, -0.010667827, -712380.1, -56256.88, 0.0, 9.999896, 9.999034 
1.7550837e+3, 2.4304792e+2, -660985.8, -687856.3, -22462.682, 0.09599925, 0.01658221, -648247.06, -90115.62, 0.0, 9.999542, 9.999154 
1.7551148e+3, 2.53048e+2, -436644.0, -494142.72, -17590.32, -0.083617434, 0.05208078, -431689.56, 28440.086, 0.0, 10.000275, 9.999448 
1.7551464e+3, 2.6304707e+2, -328939.56, -482588.63, -88712.664, -0.19500357, 0.06290867, -288410.16, 73727.055, 0.00000094846536, 10.000678, 9.998687 
1.7551784e+3, 2.7304453e+2, -237608.6, -368012.22, -109002.54, -0.15732539, -0.1051234, -175795.33, 88364.28, 0.000030605133, 10.000567, 9.9988365 
1.7552121e+3, 2.8304297e+2, -153597.63, -333532.28, -23986.422, -0.08613949, -0.10854756, -150454.97, 15717.958, 0.0002004244, 10.000703, 9.998351 
1.7552482e+3, 2.9304305e+2, 23609.879, -187500.58, 19339.229, 0.009825302, 0.009582377, 25366.87, 93539.11, 0.00069697236, 10.001213, 9.9984255 
1.7552812e+3, 3.0304107e+2, 32552.809, -190376.2, -40514.18, -0.14681578, 0.0016734379, 39687.35, 39687.35, 0.0016493566, 10.001082, 9.998149 
1.7553161e+3, 3.1303766e+2, -63675.18, -167252.73, -36510.063, -0.087745294, -0.23699076, -52099.438, -52099.438, 0.0029987826, 10.000116, 9.9987335 
1.764672e+3, 1.2301714e+2, -1813450.6, -1784908.6, 134701.48, -0.020259337, -0.05996049, -1663724.3, 70708.38, 0.07790593, 9.9993305, 9.999835 
1.764709e+3, 1.3301888e+2, -1519170.9, -1342410.1, 106473.06, 0.011858519, -0.09783972, -1292415.6, 343996.78, 0.05123237, 9.999646, 10.00213 
1.7647427e+3, 1.4301993e+2, -1540493.3, -1635450.8, -5519.6167, -0.21420637, -0.08036882, -1540173.4, -1772.2615, 0.026445003, 10.000262, 9.999055 
1.7647783e+3, 1.5301973e+2, -1417797.8, -1610334.8, -14471.853, 0.01759077, 0.036097854, -1416716.0, 23693.992, 0.009296644, 10.000835, 9.998262 
1.7648128e+3, 1.6301912e+2, -1186850.8, -1280301.6, 49832.555, 0.11495003, 0.1094369, -1165264.0, 177154.92, 0.0016790463, 10.001005, 9.999777 
1.764847e+3, 1.7301928e+2, -1109517.0, -1113180.8, 23094.115, 0.098598175, 0.053148907, -1088182.3, 156229.53, 0.000074904594, 10.0005245, 10.000476 
1.7648812e+3, 1.8301909e+2, -1188753.3, -1280179.9, -21387.324, 0.10006117, 0.06676704, -1183997.5, -37586.582, 0.000000009428086, 10.000086, 9.998873 
1.7649142e+3, 1.930177e+2, -1052248.5, -1178065.1, -37593.23, 0.07008322, 0.02868614, -1041871.7, 6556.4233, 0.0, 10.000435, 9.998722 
1.7649475e+3, 2.0301656e+2, -880195.25, -970125.7, 16445.314, 0.04947603, 0.034105983, -877282.3, 73158.34, 0.0, 10.000587, 9.999418 
1.7649822e+3, 2.130164e+2, -795321.25, -823200.06, 8442.346, 0.06777755, 0.008323149, -792964.0, 59474.81, 0.0, 10.00028, 9.999892 
1.7650166e+3, 2.2301595e+2, -802451.9, -881363.25, -24261.37, 0.09406687, 0.028246142, -795589.44, -41147.793, 0.0, 10.000001, 9.9989605 
1.76505e+3, 2.3301488e+2, -696925.56, -771753.1, -52431.406, 0.108850814, -0.0047216373, -669927.8, -13473.031, 0.0, 10.00004, 9.999007 
1.7650831e+3, 2.430141e+2, -576614.94, -678703.1, -38668.605, 0.07652934, 0.03685259, -563621.9, -5157.868, 0.0, 10.000217, 9.998914 
1.7651154e+3, 2.5301397e+2, -417347.13, -521818.06, -62818.574, -0.04801244, 0.08569325, -387883.66, 72580.61, 0.0, 10.000529, 9.999158 
1.7651477e+3, 2.630128e+2, -338187.2, -506348.3, -117031.13, -0.120432556, 0.09588816, -278164.22, 84310.34, 0.0000007067664, 10.000723, 9.99849 
1.7651796e+3, 2.730097e+2, -230047.47, -387661.84, -143656.72, -0.10102918, -0.10411078, -145001.61, 119500.97, 0.000029110019, 10.000738, 9.998614 
1.765213e+3, 2.8300807e+2, -151112.92, -318632.63, -2978.929, -0.041531596, -0.10712413, -151059.97, 15457.312, 0.00020337792, 10.000664, 9.998477 
1.7652494e+3, 2.9300892e+2, -64720.0, -216446.66, -10767.475, 0.05862249, 0.08270304, -63959.684, 4549.9453, 0.00072556926, 10.00055, 9.9985485 
1.7652823e+3, 3.030066e+2, 3223.5215, -180737.58, -29113.244, -0.11010034, 0.025704386, 7720.9614, 7720.9614, 0.0017283146, 10.00076, 9.998368 
1.7653172e+3, 3.1300294e+2, 122500.086, -62486.91, -48722.527, -0.03488994, -0.24922352, 134548.13, 134548.13, 0.003137363, 10.001283, 9.998912 
1.7746711e+3, 1.2298439e+2, -1845607.6, -1900548.6, -117944.07, -0.11952853, -0.012168789, -1751977.3, -17227.414, 0.08231803, 9.999506, 9.998949 
1.774709e+3, 1.3298453e+2, -1581614.1, -1471888.1, 150493.55, 0.0044895737, -0.142916, -1366569.1, 270178.72, 0.054393712, 9.999649, 10.001204 
1.7747442e+3, 1.4298531e+2, -1514616.3, -1588286.1, -3973.355, -0.12308796, -0.08954603, -1514402.6, 24336.54, 0.02831169, 10.000293, 9.999365 
1.7747791e+3, 1.5298577e+2, -1337722.4, -1444363.1, 21179.324, -0.017577618, -0.014658627, -1333670.0, 107067.23, 0.010105246, 10.000836, 9.999402 
1.774813e+3, 1.6298573e+2, -1208234.4, -1334434.6, 25762.47, 0.0019433788, 0.058341514, -1203177.9, 139560.02, 0.0018804772, 10.001046, 9.999385 
1.7748466e+3, 1.7298394e+2, -1177649.0, -1246081.6, 15493.137, -0.01111728, -0.107576095, -1174304.8, 70446.58, 0.00008970714, 10.000492, 9.999578 
1.7748803e+3, 1.8298252e+2, -1185282.8, -1280495.4, -30873.486, -0.028633209, -0.16208115, -1176148.1, -29384.428, 0.000000028818846, 10.000113, 9.998859 
1.7749135e+3, 1.929824e+2, -1044065.4, -1147053.8, -10321.733, -0.050941806, -0.095175214, -1043041.06, 5727.4194, 0.0, 10.000367, 9.998971 
1.7749475e+3, 2.0298232e+2, -909472.8, -995014.75, -3252.3918, -0.031241618, 0.0024436843, -909349.3, 41422.223, 0.0, 10.0004425, 9.99931 
1.774983e+3, 2.1298206e+2, -844742.75, -875717.3, 7409.978, 0.10318151, -0.013362732, -843061.4, 9711.528, 0.0, 10.000073, 9.999625 
1.7750171e+3, 2.2298153e+2, -847492.0, -923907.9, -37511.68, 0.1284015, 0.022760866, -832155.8, -77377.44, 0.0, 9.999771, 9.998783 
1.7750487e+3, 2.3298061e+2, -726507.56, -801177.5, -35958.945, -0.049264345, 0.012246936, -712006.8, -55215.887, 0.0, 9.999884, 9.998887 
1.7750815e+3, 2.429795e+2, -638251.25, -744406.7, -42434.945, -0.13603565, 0.041260157, -623373.4, -64569.59, 0.0, 9.999961, 9.99858 
1.7751162e+3, 2.529782e+2, -476725.3, -594887.7, -34784.504, -0.036492255, 0.010665406, -467245.97, -6430.8325, 0.0, 10.000324, 9.99875 
1.77515e+3, 2.629768e+2, -372450.44, -516550.22, -123344.055, 0.014165598, 0.01839542, -301654.44, 61173.43, 0.00000032366296, 10.000466, 9.998544 
1.7751813e+3, 2.7297544e+2, -258880.67, -380396.88, -122985.33, -0.0143971685, -0.021907976, -182463.92, 82376.82, 0.00002512301, 10.000471, 9.998781 
1.7752144e+3, 2.8297436e+2, -197788.58, -355665.1, -26045.74, -0.006222238, 0.029712811, -193602.66, -26751.44, 0.00020098852, 10.000398, 9.998353 
1.77525e+3, 2.9297343e+2, -104150.58, -243813.36, 6512.769, 0.040481295, 0.040605154, -103847.54, -34986.047, 0.0007424846, 10.000317, 9.998471 
1.7752826e+3, 3.02971e+2, -17044.73, -136315.61, -25940.785, -0.18625787, -0.045541935, -11647.024, -11647.024, 0.0017696349, 10.0004, 9.998842 
1.775318e+3, 3.1297317e+2, 93435.43, 64685.563, 48849.504, -0.13746461, 0.19991969, 129981.15, 129981.15, 0.0031804799, 10.000539, 10.000115 
1.7846705e+3, 1.2295183e+2, -2006115.9, -2009608.3, -230358.42, -0.07603005, 0.12764254, -1777497.0, -42428.645, 0.08696164, 9.998594, 9.998611 
1.7847092e+3, 1.3294975e+2, -1470018.6, -1424311.5, 165788.38, 0.048179865, -0.21549204, -1279808.9, 357280.13, 0.057701517, 10.000534, 10.0011 
1.7847459e+3, 1.4295259e+2, -1399754.1, -1520660.1, 53040.824, -0.0016280995, 0.047151282, -1379784.0, 159275.78, 0.030258754, 10.001068, 9.999457 
1.7847802e+3, 1.5295145e+2, -1349449.0, -1430411.3, -23592.693, 0.027792498, -0.0555369, -1343075.8, 97994.86, 0.0109521225, 10.000664, 9.999584 
1.7848134e+3, 1.6295065e+2, -1338568.3, -1419933.6, -41985.19, -0.007823504, -0.06288514, -1320788.6, 22288.668, 0.0020959692, 10.000242, 9.999186 
1.7848468e+3, 1.729493e+2, -1225003.0, -1296041.8, -46959.594, -0.033233482, -0.15975253, -1201642.6, 43445.688, 0.000105867584, 10.000299, 9.999319 
1.7848803e+3, 1.829481e+2, -1138053.9, -1246918.1, -12186.514, -0.03648988, -0.17709042, -1136706.4, 10392.753, 0.0000000562377, 10.000386, 9.998964 
1.7849141e+3, 1.9294801e+2, -956195.94, -1078193.1, -9429.881, -0.041631974, -0.13032268, -955471.4, 93631.07, 0.0, 10.00084, 9.999217 
1.7849484e+3, 2.0294785e+2, -864237.2, -994944.94, -11315.97, -0.0047551165, -0.047883138, -863264.75, 87841.055, 0.0, 10.00084, 9.999127 
1.7849831e+3, 2.1294731e+2, -849797.7, -908557.8, -39726.9, 0.11751023, -0.06503865, -829767.06, 23344.453, 0.0, 10.000163, 9.999363 
1.785017e+3, 2.2294672e+2, -818183.7, -891972.5, -17777.125, 0.14051382, -0.023051905, -814124.2, -59005.72, 0.0, 9.999905, 9.998941 
1.785049e+3, 2.3294632e+2, -601072.6, -713409.2, -11670.154, -0.04038185, -0.002069093, -599873.06, 57252.38, 0.0, 10.000637, 9.999131 
1.785082e+3, 2.4294546e+2, -468822.6, -638465.1, 23923.592, -0.11461365, 0.031247605, -465513.34, 93621.78, 0.0, 10.0010395, 9.998774 
1.7851171e+3, 2.5294384e+2, -395537.75, -536175.1, 38277.016, 0.005016867, -0.052902773, -385794.9, 75353.625, 0.0, 10.000816, 9.998902 
1.785151e+3, 2.629423e+2, -342044.1, -531899.3, -7404.9795, 0.07054643, -0.053757135, -341755.72, 21406.17, 0.00000018370703, 10.000773, 9.998307 
1.785182e+3, 2.7294117e+2, -179013.28, -396700.44, -68602.16, 0.002566482, -0.03683205, -159197.69, 105977.414, 0.000020759246, 10.001191, 9.998358 
1.7852151e+3, 2.8294003e+2, -55459.5, -292343.8, 37374.527, -0.004145599, 0.037282214, -49702.625, 117484.99, 0.0001926232, 10.001424, 9.998279 
1.785251e+3, 2.929389e+2, 50534.824, -172121.14, 26150.066, 0.0772443, 0.032417055, 53564.816, 122764.44, 0.00073848246, 10.001407, 9.998428 
1.7852838e+3, 3.029364e+2, 106771.37, -53953.047, 13986.059, -0.11623822, -0.063471444, 107979.336, 107979.336, 0.0017537118, 10.001162, 9.99904 
1.7853189e+3, 3.1293845e+2, 67611.96, 88706.84, -16105.903, -0.050664954, 0.1619606, 97411.64, 97411.64, 0.0030983181, 10.000173, 10.000479 
1.7946689e+3, 1.229177e+2, -1979794.6, -1980461.8, -232283.97, -0.18026485, 0.16235098, -1747844.0, -12437.923, 0.09190124, 9.998688, 9.998778 
1.7947094e+3, 1.3291441e+2, -1402999.5, -1311951.5, 224364.55, -0.025843067, -0.34240064, -1128539.1, 508898.1, 0.06119029, 10.000629, 10.001899 
1.7947474e+3, 1.4292209e+2, -1411933.9, -1558617.9, 26043.922, -0.0020296306, 0.3558558, -1407446.9, 131912.28, 0.03230053, 10.001133, 9.999158 
1.7947812e+3, 1.5291686e+2, -1417578.1, -1562642.0, -30272.662, 0.04427264, -0.07425199, -1411514.1, 29895.041, 0.011841973, 10.0006275, 9.998689 
1.7948136e+3, 1.6291372e+2, -1331710.8, -1418870.8, -62541.3, -0.04749335, -0.2555615, -1299063.3, 44375.793, 0.0023264778, 10.000286, 9.999178 
1.794847e+3, 1.7291522e+2, -1197411.3, -1243615.5, -36063.242, -0.07396856, -0.097000085, -1177685.1, 67738.76, 0.00012352158, 10.000307, 9.999684 
1.7948808e+3, 1.8291585e+2, -1113694.5, -1203338.5, -14799.691, -0.060761027, 0.031383853, -1111314.4, 36102.93, 0.000000085167756, 10.000421, 9.999245 
1.7949153e+3, 1.9291456e+2, -958435.6, -1060104.8, 15220.118, -0.021254469, -0.06417033, -956206.06, 93223.734, 0.0, 10.000745, 9.999388 
1.7949493e+3, 2.0291327e+2, -897948.0, -1035197.75, -45040.0, -0.01087916, -0.09552716, -884487.7, 66954.97, 0.0, 10.000703, 9.998921 
1.7949821e+3, 2.1291222e+2, -892338.0, -962387.3, -54295.523, -0.003082257, -0.13444869, -862750.5, -9296.497, 0.0, 10.000002, 9.999079 
1.7950156e+3, 2.2291149e+2, -829351.94, -857723.9, -14125.784, 0.003659867, -0.102820314, -823518.44, -68056.17, 0.0, 9.999659, 9.999295 
1.7950504e+3, 2.3291184e+2, -598951.25, -652977.06, 31856.975, 0.019043535, -0.060719483, -584196.2, 73264.23, 0.0, 10.000401, 9.999657 
1.7950845e+3, 2.4291176e+2, -468800.56, -571644.0, 11663.739, 0.0049489704, -0.0062475405, -467494.34, 91966.195, 0.0, 10.000753, 9.999372 
1.7951177e+3, 2.5291076e+2, -385072.03, -458994.03, 42710.895, -0.039500896, -0.09199685, -365549.97, 95915.61, 0.0, 10.000587, 9.999537 
1.7951505e+3, 2.6290917e+2, -420168.03, -633257.06, -10027.1045, -0.08391742, -0.11299705, -419697.25, -56218.4, 0.00000013255313, 10.00051, 9.99774 
1.795182e+3, 2.7290684e+2, -271547.53, -527700.75, -37817.547, -0.1671564, -0.1371824, -266080.97, -574.92566, 0.0000188634, 10.000947, 9.997565 
1.7952152e+3, 2.829053e+2, -113816.84, -349434.34, 20986.344, -0.17692776, -0.05025229, -111962.2, 55562.094, 0.00018772867, 10.001139, 9.99803 
1.795252e+3, 2.9290533e+2, -5839.638, -198185.98, 52414.637, 0.0044283853, 0.073140435, 7516.058, 77040.03, 0.0007307819, 10.001029, 9.998424 
1.7952855e+3, 3.0290273e+2, 4920.5503, -165088.38, -34486.207, -0.09528645, -0.0074450257, 11649.709, 11649.709, 0.0017125614, 10.000711, 9.998504 
1.795319e+3, 3.1289953e+2, -13230.947, 52576.73, 18668.852, -0.10172488, -0.26989394, 57503.95, 57503.95, 0.0029538858, 9.999643, 10.0004635 
1.8046695e+3, 1.22884095e+2, -1730716.5, -1912771.6, -140465.48, -0.07003106, 0.15683825, -1654362.5, 81368.14, 0.097200245, 10.00071, 9.998278 
1.8047091e+3, 1.328788e+2, -1427991.6, -1383720.9, 222727.2, -0.100597896, -0.4865092, -1182031.9, 455752.88, 0.06490086, 10.000733, 10.001332 
1.8047486e+3, 1.4288822e+2, -1502036.6, -1602035.8, -31309.717, 0.058889672, 0.41720822, -1493042.5, 46648.75, 0.034457777, 10.000475, 9.999176 
1.8047822e+3, 1.52883e+2, -1398879.3, -1530045.6, -47796.957, 0.08097734, -0.031833537, -1383310.1, 58430.207, 0.0127833225, 10.000658, 9.998891 
1.8048139e+3, 1.6287956e+2, -1267921.9, -1397422.5, 16665.063, -0.050947927, -0.25224718, -1265811.8, 77960.93, 0.0025744103, 10.000773, 9.999092 
1.8048477e+3, 1.7288081e+2, -1095987.0, -1207234.0, -16563.342, -0.04992826, -0.104880355, -1093573.3, 152187.61, 0.00014305822, 10.001068, 9.999561 
1.804882e+3, 1.8288146e+2, -999441.3, -1124570.8, -330.71243, -0.00017285193, 0.024132919, -999440.44, 148313.97, 0.00000010953618, 10.001089, 9.999465 
1.8049163e+3, 1.9288068e+2, -921810.7, -1003724.56, 11594.4375, -0.0050366367, -0.053872097, -920201.2, 129559.52, 0.0, 10.000832, 9.999729 
1.8049496e+3, 2.0287973e+2, -898674.2, -1022856.75, -12587.58, -0.020960124, -0.077533886, -897411.06, 54358.41, 0.0, 10.000644, 9.999042 
1.8049824e+3, 2.1287858e+2, -775537.94, -896598.8, -24941.15, -0.002420778, -0.12989758, -770600.9, 83180.83, 0.0, 10.000774, 9.999156 
1.805016e+3, 2.2287774e+2, -686262.44, -781526.2, 54078.43, 0.033320777, -0.1189857, -661829.94, 93960.914, 0.0, 10.000626, 9.999337 
1.805051e+3, 2.328778e+2, -646031.5, -674267.9, 38388.625, 0.06387259, -0.10454816, -619247.25, 38543.555, 0.0, 10.000081, 9.999652 
1.8050851e+3, 2.4287772e+2, -577507.94, -622109.1, 8769.541, 0.049076255, -0.053931754, -575845.6, -16054.98, 0.0, 9.999973, 9.999425 
1.8051182e+3, 2.528771e+2, -357972.03, -447798.16, -28284.447, -0.0428378, -0.09800826, -349807.84, 111984.34, 0.0, 10.000748, 9.999568 
1.8051511e+3, 2.628756e+2, -306574.6, -598810.44, -67322.92, -0.09692171, -0.10539165, -291811.13, 71994.11, 0.00000007008213, 10.0013895, 9.997543 
1.8051833e+3, 2.7287254e+2, -177282.28, -523153.5, -96133.57, -0.14014456, -0.16677395, -152358.38, 113481.51, 0.000018211349, 10.001763, 9.99721 
1.8052168e+3, 2.828705e+2, -42213.02, -290600.56, -5523.2847, -0.117710024, -0.11092621, -42090.26, 125772.3, 0.00018396281, 10.001513, 9.998253 
1.8052529e+3, 2.9287082e+2, -87017.53, -204894.98, 6331.9873, 0.05710265, 0.011585473, -86678.375, -16819.61, 0.0007176876, 10.000306, 9.998735 
1.8052867e+3, 3.0286878e+2, -137415.61, -266885.7, 3789.7373, 0.018049603, -0.02129722, -137304.78, -137304.78, 0.0016605181, 9.999903, 9.998177 
1.8053204e+3, 3.1286496e+2, 100720.21, 31863.965, -20505.13, 0.048675194, -0.28081402, 106363.98, 106363.98, 0.0028147476, 10.000661, 9.999873 
1.8146712e+3, 1.2285022e+2, -1806246.5, -2114765.5, -284936.22, -0.044487633, 0.018268622, -1636492.6, 99556.36, 0.10291468, 10.0008955, 9.9968195 
1.8147078e+3, 1.3284287e+2, -1572678.5, -1676835.4, 232978.84, -0.31865272, -0.6419489, -1386028.4, 252102.86, 0.06887483, 10.000719, 9.999256 
1.8147492e+3, 1.4285047e+2, -1460997.3, -1517768.6, -49653.355, 0.03271061, 0.18798868, -1432188.5, 107872.305, 0.036753505, 10.000483, 9.999762 
1.8147823e+3, 1.5284976e+2, -1294603.8, -1319925.9, -26188.72, 0.008463459, 0.059439797, -1278176.1, 163888.39, 0.01378539, 10.00068, 10.0003395 
1.8148139e+3, 1.6284843e+2, -1268545.4, -1415630.6, 11332.25, -0.17716134, -0.0375812, -1267677.4, 76398.125, 0.002842686, 10.000847, 9.998929 
1.814849e+3, 1.7284611e+2, -1149120.4, -1317641.4, 5967.704, -0.062731855, -0.18179859, -1148909.3, 97189.44, 0.00016504708, 10.00106, 9.998811 
1.8148836e+3, 1.8284489e+2, -982117.0, -1092382.0, -21599.383, 0.025125751, -0.20189182, -978037.0, 170073.84, 0.00000012908751, 10.0011015, 9.999681 
1.8149163e+3, 1.9284639e+2, -891078.1, -930025.9, 11747.366, -0.10496311, -0.09850425, -887809.25, 162285.72, 0.0, 10.000783, 10.000262 
1.8149492e+3, 2.0284721e+2, -891220.5, -973340.06, -23251.986, -0.16639192, 0.005306007, -885093.9, 66992.5, 0.0, 10.000504, 9.999446 
1.8149835e+3, 2.1284631e+2, -779104.94, -859853.8, -6717.0586, 0.013596734, -0.06181454, -778550.0, 75545.625, 0.0, 10.000583, 9.9995 
1.8150175e+3, 2.228453e+2, -749577.56, -851435.8, 25515.914, 0.10306496, -0.07499752, -743543.2, 12562.741, 0.0, 10.0003605, 9.998985 
1.8150502e+3, 2.3284431e+2, -715622.4, -770027.5, 30815.77, -0.02167618, -0.11430227, -701720.3, -43604.266, 0.0, 9.99987, 9.999097 
1.8150835e+3, 2.4284334e+2, -658372.9, -729491.56, 17049.854, -0.12570642, -0.09130824, -654496.6, -94371.375, 0.0, 9.999715, 9.998807 
1.8151182e+3, 2.5284272e+2, -425415.8, -537031.7, 18568.227, -0.1252566, -0.08528065, -422407.9, 39721.652, 0.0, 10.000533, 9.999051 
1.8151528e+3, 2.6284137e+2, -353635.9, -629727.7, -61407.234, -0.106833406, -0.046044923, -340594.03, 23548.496, 0.0000000874347, 10.001097, 9.997475 
1.8151861e+3, 2.7283826e+2, -217737.16, -532562.56, -61015.6, -0.057037484, -0.124050684, -206325.5, 59850.617, 0.00001648955, 10.001456, 9.997284 
1.8152197e+3, 2.828359e+2, -60678.203, -255228.05, -53995.957, -0.010281975, -0.12061155, -46696.78, 121503.93, 0.00017264257, 10.001187, 9.998654 
1.8152536e+3, 2.9283556e+2, -75285.36, -128953.21, -15474.649, 0.06622602, -0.12689775, -71143.09, -941.33905, 0.00068283465, 10.000079, 9.999364 
1.815287e+3, 3.0283466e+2, -219008.06, -361673.9, 1915.03, 0.028300447, -0.06918228, -218982.36, -218982.36, 0.0015898239, 9.999595, 9.997671 
1.8153208e+3, 3.1283212e+2, -53209.426, -89143.6, 49056.313, -0.024092427, -0.13454363, -18933.447, -18933.447, 0.0027072954, 9.999887, 9.999372 
1.8246724e+3, 1.2281618e+2, -1828114.3, -2103171.5, -363320.84, 0.015579389, -0.0133441975, -1577163.5, 159215.95, 0.10907774, 10.000682, 9.997007 
1.8247092e+3, 1.3280816e+2, -1661770.1, -1806382.1, 211526.64, -0.23568496, -0.6798492, -1510532.6, 127936.15, 0.07313931, 10.000422, 9.998489 
1.824749e+3, 1.428149e+2, -1537318.9, -1524444.3, 33442.45, 0.008828465, 0.095279634, -1496825.1, 43582.03, 0.039204508, 9.999837, 10.000018 
1.8247826e+3, 1.5281525e+2, -1355841.8, -1304593.0, -41225.477, 0.011906936, 0.030591985, -1281677.1, 160723.36, 0.014855209, 10.000073, 10.000737 
1.8248144e+3, 1.6281436e+2, -1364208.9, -1455742.8, -24607.836, -0.1565512, -0.044224586, -1358012.8, -13605.691, 0.0031336718, 10.000158, 9.998983 
1.8248495e+3, 1.7281199e+2, -1269698.4, -1375597.6, -7902.9653, -0.057038672, -0.19500399, -1269111.9, -22680.13, 0.00019006866, 10.00024, 9.998804 
1.8248844e+3, 1.828107e+2, -1105043.1, -1149585.4, 11946.661, 0.040637802, -0.21957558, -1102041.1, 46403.746, 0.00000015151502, 10.000259, 9.999693 
1.824917e+3, 1.9281207e+2, -941176.5, -951533.94, -23030.117, -0.08087098, -0.1284619, -922750.0, 127680.44, 0.0, 10.000461, 10.000263 
1.82495e+3, 2.028129e+2, -883526.7, -957377.1, -69783.484, -0.12928, -0.026941475, -841501.25, 110920.5, 0.0, 10.000503, 9.999542 
1.824984e+3, 2.1281235e+2, -812891.44, -857068.06, -94869.32, 0.029092656, -0.075206384, -737573.0, 116854.42, 0.0, 10.000276, 9.999651 
1.8250176e+3, 2.2281156e+2, -755738.7, -858689.0, -30420.152, 0.10282786, -0.07471426, -747421.94, 9013.05, 0.0, 10.000312, 9.998975 
1.8250501e+3, 2.3281041e+2, -559550.2, -694572.1, -12488.85, -0.050303962, -0.12611279, -558404.75, 100040.49, 0.0, 10.000941, 9.9991045 
1.8250836e+3, 2.4280909e+2, -465036.34, -690114.56, 31986.145, -0.14514482, -0.12112141, -460579.03, 99878.9, 0.0, 10.001274, 9.998316 
1.825119e+3, 2.5280774e+2, -423861.75, -604859.56, 1737.1288, -0.09028133, -0.12807944, -423845.1, 38627.37, 0.0, 10.000839, 9.998424 
1.8251541e+3, 2.6280624e+2, -410636.03, -588139.56, -44271.66, -0.022092331, -0.08871856, -400206.88, -35718.992, 0.00000011582431, 10.000418, 9.998087 
1.8251877e+3, 2.7280423e+2, -340503.66, -493240.38, -27837.275, 0.029563116, -0.14015162, -335588.3, -69080.125, 0.000015405387, 10.000183, 9.998177 
1.8252209e+3, 2.8280237e+2, -204601.7, -332783.88, 32381.164, 0.05760844, -0.13795565, -196886.06, -28359.453, 0.00016033727, 10.000245, 9.998575 
1.8252537e+3, 2.9280138e+2, 24171.598, -130545.23, -36043.207, 0.027536176, -0.16553886, 32156.238, 102692.13, 0.0006397898, 10.000971, 9.998932 
1.8252875e+3, 3.0280048e+2, 88695.39, -173138.56, 13228.288, 0.029741328, -0.09474853, 89362.01, 89362.01, 0.0015188638, 10.001511, 9.998054 
1.8253225e+3, 3.1279916e+2, 190980.94, 53637.63, 22225.992, 0.103120305, -0.0788813, 194488.16, 194488.16, 0.002646335, 10.001371, 9.999696 
1.8346725e+3, 1.2278228e+2, -1684642.4, -1812006.6, -310850.7, -0.11077694, 0.08831247, -1431017.8, 305703.1, 0.11569034, 10.000751, 9.9990425 
1.8347128e+3, 1.327749e+2, -1599146.9, -1682435.4, 191427.52, 0.061879877, -0.5893857, -1444886.3, 193909.38, 0.07769921, 10.000459, 9.999342 
1.834747e+3, 1.4278197e+2, -1544981.5, -1554204.5, 18515.475, -0.20387816, 0.1644098, -1530511.9, 10214.14, 0.04181763, 9.999892, 9.999782 
1.8347825e+3, 1.5277934e+2, -1411542.5, -1422129.8, -19841.5, -0.03726537, -0.12402768, -1396300.6, 46448.516, 0.015997248, 10.000073, 9.999921 
1.8348154e+3, 1.6277713e+2, -1331841.4, -1402626.4, -39782.63, -0.1124106, -0.29185638, -1313986.5, 30783.246, 0.0034491862, 10.0002165, 9.999323 
1.834849e+3, 1.7277826e+2, -1214988.5, -1267895.8, 3953.1687, -0.14552628, -0.15957496, -1214694.9, 32066.627, 0.00021871291, 10.000252, 9.999542 
1.8348834e+3, 1.827788e+2, -1128810.4, -1194522.8, 2866.0828, -0.10970919, -0.03636424, -1128685.6, 20071.941, 0.00000018976193, 10.000248, 9.999386 
1.834918e+3, 1.9277751e+2, -999307.25, -1053425.8, -5528.5117, -0.04986654, -0.15196922, -998748.25, 52020.79, 0.0, 10.000379, 9.999601 
1.8349515e+3, 2.0277652e+2, -913934.94, -988002.9, -89255.266, -0.03989319, -0.18584101, -854335.44, 98442.54, 0.0, 10.0003605, 9.999402 
1.8349834e+3, 2.1277668e+2, -838972.3, -869436.0, -95207.59, -0.074361295, -0.16195227, -757785.8, 96991.41, 0.0, 10.000093, 9.999655 
1.835016e+3, 2.2277658e+2, -770498.44, -826440.9, -24589.678, -0.10762333, -0.104947224, -761226.6, -4449.151, 0.0, 10.000042, 9.999329 
1.8350504e+3, 2.3277593e+2, -557590.75, -640078.5, 27805.227, -0.132262, -0.15369323, -549093.4, 109687.12, 0.0, 10.000725, 9.999587 
1.8350852e+3, 2.427747e+2, -532064.25, -762358.9, 11426.029, -0.1368481, -0.1546398, -531498.75, 29292.637, 0.0, 10.000983, 9.997965 
1.8351203e+3, 2.527723e+2, -509320.16, -720380.7, 1350.9796, -0.057371106, -0.20235154, -509311.53, -46492.355, 0.0, 10.00058, 9.997758 
1.835155e+3, 2.6277053e+2, -379520.0, -467830.28, -65213.75, 0.000037550744, -0.18279293, -344919.13, 19919.227, 0.000000090536304, 10.00017, 9.999036 
1.8351877e+3, 2.7277032e+2, -257976.44, -281269.3, -15736.638, -0.010386617, -0.20205659, -250045.31, 16791.92, 0.00001528185, 10.000005, 9.999719 
1.8352202e+3, 2.827696e+2, -286156.1, -446042.4, 30192.445, -0.07146465, -0.16004628, -280644.63, -111801.27, 0.00015301339, 9.999999, 9.997917 
1.8352525e+3, 2.9276797e+2, -114102.23, -336867.53, 17005.086, -0.20167458, -0.13623211, -112811.59, -41947.492, 0.00060731446, 10.000632, 9.997669 
1.8352874e+3, 3.0276644e+2, 65094.14, -104676.81, 2115.7268, -0.16031791, -0.075659566, 65120.504, 65120.504, 0.0014670701, 10.001013, 9.998758 
1.8353231e+3, 3.1276664e+2, 157948.34, 130333.414, 41257.984, -0.012738589, -0.052095346, 187647.97, 187647.97, 0.002622712, 10.000776, 10.000491 
1.8446726e+3, 1.2274681e+2, -1718107.9, -1755286.4, -96424.82, -0.13335547, 0.046203967, -1638496.9, 98574.19, 0.12272786, 10.000111, 9.999681 
1.8447143e+3, 1.3274136e+2, -1633240.3, -1625286.1, 125586.18, 0.20588556, -0.49385944, -1503614.1, 135509.9, 0.08254445, 9.999908, 9.999992 
1.844746e+3, 1.4274791e+2, -1617242.1, -1589193.4, 8760.502, -0.25145757, 0.16979297, -1586682.0, -45624.11, 0.04459436, 9.999372, 9.999802 
1.8447825e+3, 1.5274459e+2, -1417034.3, -1439886.9, -2792.2515, -0.023268433, -0.17580779, -1416698.1, 26390.416, 0.017215712, 10.0001, 9.999784 
1.8448167e+3, 1.6274244e+2, -1300131.4, -1379102.5, 15503.081, -0.011264431, -0.33480307, -1297197.0, 47912.6, 0.0037916328, 10.000427, 9.999378 
1.8448494e+3, 1.7274447e+2, -1203151.6, -1250148.1, -19200.906, -0.1335295, -0.11857814, -1196304.5, 50789.434, 0.00025177147, 10.000308, 9.99963 
1.8448831e+3, 1.8274543e+2, -1136722.6, -1193406.6, -11388.251, -0.14296967, 0.038522042, -1134520.1, 14566.43, 0.00000025167606, 10.000156, 9.999441 
1.8449184e+3, 1.9274363e+2, -1004003.2, -1048385.56, 9624.11, -0.021944255, -0.13630196, -1002006.1, 49095.535, 0.0, 10.000297, 9.999676 
1.8449526e+3, 2.0274226e+2, -915034.06, -989348.44, -18458.322, 0.02557031, -0.2135036, -910701.9, 42411.195, 0.0, 10.000366, 9.999392 
1.8449837e+3, 2.1274236e+2, -768609.6, -840880.06, -56121.355, -0.077283725, -0.1874738, -737996.4, 117115.77, 0.0, 10.000622, 9.999598 
1.8450162e+3, 2.2274221e+2, -670401.25, -791010.4, 34957.48, -0.12676439, -0.1276414, -661001.7, 96110.96, 0.0, 10.000791, 9.999201 
1.8450513e+3, 2.3274137e+2, -552933.5, -656179.6, 20033.006, -0.10000848, -0.182571, -549182.75, 109935.375, 0.0, 10.000823, 9.999419 
1.8450865e+3, 2.4274021e+2, -559208.25, -743693.6, -3948.432, -0.06153153, -0.17982994, -559123.75, 2005.1664, 0.0, 10.000675, 9.998231 
1.8451211e+3, 2.527385e+2, -534935.44, -694247.7, 16012.761, -0.008391347, -0.19255894, -533341.94, -70190.7, 0.0, 10.000231, 9.998105 
1.8451552e+3, 2.6273724e+2, -380387.66, -455536.06, 26135.953, 0.030144444, -0.14961953, -372191.7, -7025.117, 0.00000009817215, 10.00013, 9.999128 
1.845188e+3, 2.7273726e+2, -120970.03, -214437.67, -50324.38, -0.0114466455, -0.14258456, -99026.4, 168137.19, 0.000013983738, 10.0009575, 9.999706 
1.8452206e+3, 2.8273666e+2, -105045.69, -339498.25, -41870.145, -0.06691764, -0.09276688, -97792.61, 71376.06, 0.00014297603, 10.001156, 9.998099 
1.8452534e+3, 2.927349e+2, -187779.67, -341931.88, -11160.376, -0.13525534, -0.10057324, -186975.86, -115786.52, 0.00057426473, 9.999985, 9.997961 
1.8452883e+3, 3.027328e+2, -160637.6, -205261.14, 89728.664, -0.05636437, -0.12283832, -90488.305, -90488.305, 0.001412024, 9.999422, 9.998843 
1.845323e+3, 3.127331e+2, 71378.945, 83943.57, -73804.86, -0.05766496, -0.067091346, 151733.02, 151733.02, 0.002576916, 10.000193, 10.000454 
1.854673e+3, 1.2271023e+2, -1771921.5, -1902413.9, 163722.17, -0.17328297, -0.11075202, -1660923.5, 76501.21, 0.13014582, 10.000234, 9.998616 
1.8547128e+3, 1.3270757e+2, -1612727.1, -1586448.3, 96664.7, 0.042624556, -0.40146124, -1502034.0, 137419.6, 0.08765755, 9.999902, 10.000277 
1.8547457e+3, 1.4271253e+2, -1582968.6, -1531126.4, 7949.957, -0.2672172, 0.081195824, -1529934.6, 11470.3125, 0.04753598, 9.999423, 10.000184 
1.8547824e+3, 1.5271111e+2, -1371349.4, -1356261.5, 36492.215, -0.06976459, -0.12772234, -1326541.6, 116876.32, 0.01851746, 10.000143, 10.000353 
1.8548174e+3, 1.6271041e+2, -1310558.3, -1416581.8, -649.7615, -0.016404204, -0.16484623, -1310554.3, 34871.02, 0.0041650403, 10.000495, 9.999088 
1.8548499e+3, 1.7271052e+2, -1250416.6, -1347404.6, -13949.843, -0.13154985, -0.08203922, -1248450.0, -1020.126, 0.00029041685, 10.000297, 9.998972 
1.8548831e+3, 1.8271038e+2, -1101502.3, -1120576.6, -25444.938, -0.18891484, -0.013097067, -1083865.9, 65567.93, 0.0000003514084, 10.00016, 9.999941 
1.8549182e+3, 1.9271041e+2, -956875.1, -930187.0, 23500.824, -0.1147125, -0.081758626, -916506.0, 134922.08, 0.0, 10.000206, 10.000534 
1.8549521e+3, 2.0271018e+2, -934321.5, -994367.2, -23698.098, -0.07410034, -0.0995255, -926095.56, 27330.56, 0.0, 10.000213, 9.999433 
1.8549843e+3, 2.1270931e+2, -808891.9, -883604.9, -33849.086, -0.081352405, -0.15504922, -795837.4, 59595.563, 0.0, 10.000442, 9.9993925 
1.8550175e+3, 2.2270823e+2, -741880.0, -885512.75, 26613.73, -0.08410668, -0.15738395, -737107.4, 20335.283, 0.0, 10.00055, 9.9986725 
1.8550527e+3, 2.3270677e+2, -631887.25, -771771.56, 35625.902, -0.07387106, -0.20437849, -623336.7, 36120.74, 0.0, 10.00061, 9.998733 
1.8550874e+3, 2.4270585e+2, -548009.75, -653607.2, -28337.732, -0.068208694, -0.16389388, -540885.75, 20582.686, 0.0, 10.000392, 9.998983 
1.8551211e+3, 2.5270623e+2, -481402.94, -526354.75, 13064.958, -0.05090121, -0.08896262, -477881.56, -14412.008, 0.0, 9.999998, 9.999364 
1.8551548e+3, 2.6270616e+2, -468463.63, -580891.0, 31047.857, -0.052258432, 0.018747643, -460459.3, -94984.836, 0.00000008466028, 9.999881, 9.998389 
1.8551882e+3, 2.7270493e+2, -257785.8, -434896.25, 3820.0059, -0.0939318, 0.029759599, -257703.45, 9785.055, 0.000011476472, 10.00069, 9.99832 
1.8552218e+3, 2.8270358e+2, -106539.195, -267024.34, -86277.09, -0.08966897, 0.06918503, -68957.29, 100544.7, 0.00012753508, 10.000826, 9.998759 
1.8552555e+3, 2.927021e+2, -120244.21, -139390.38, -36795.418, 0.053567886, -0.041978266, -91796.945, -20284.73, 0.00053210376, 9.999722, 9.999478 
1.8552898e+3, 3.026994e+2, -259207.03, -331018.13, 81270.04, 0.122587614, -0.19494046, -206264.23, -206264.23, 0.0013363026, 9.999088, 9.9981365 
1.8553223e+3, 3.127002e+2, -81428.18, -76421.8, -35231.426, -0.18999258, 0.03894115, -43604.75, -43604.75, 0.0024703583, 9.999557, 9.999639 
1.864675e+3, 1.22674085e+2, -1737051.8, -2000013.5, 201834.92, -0.021959683, -0.11741588, -1627649.8, 110128.12, 0.1378835, 10.001069, 9.997513 
1.8647118e+3, 1.3267386e+2, -1597557.3, -1503946.3, -645.53705, -0.012421611, -0.23036681, -1503941.9, 135843.31, 0.09301642, 9.999676, 10.000973 
1.8647462e+3, 1.4267646e+2, -1646998.1, -1515965.5, 425.98535, -0.10863272, -0.041297976, -1515964.1, 25796.57, 0.050644647, 9.998795, 10.000589 
1.8647821e+3, 1.5267703e+2, -1546811.0, -1401376.0, -6393.137, -0.041352723, -0.08463726, -1401095.5, 42658.746, 0.01991141, 9.998764, 10.000702 
1.8648168e+3, 1.6267762e+2, -1540159.0, -1517606.3, -16465.633, -0.008485476, -0.02055133, -1508925.9, -163176.42, 0.0045744055, 9.9988575, 9.999182 
1.8648502e+3, 1.7267661e+2, -1340766.9, -1382671.1, -4919.663, -0.07625104, -0.057432417, -1340197.0, -92433.49, 0.0003360051, 9.99964, 9.999036 
1.8648839e+3, 1.826758e+2, -1114954.4, -1119880.6, 24091.188, -0.11307011, -0.0629689, -1093200.8, 56572.19, 0.00000050835786, 10.000045, 9.999996 
1.8649182e+3, 1.9267642e+2, -994906.8, -944064.4, -14346.622, -0.09492131, -0.07970524, -940295.44, 111466.414, 0.0, 9.999927, 10.000575 
1.8649521e+3, 2.0267656e+2, -967139.25, -1017973.0, -56966.863, -0.06508994, -0.060150474, -930176.3, 23579.992, 0.0, 10.000022, 9.999362 
1.8649852e+3, 2.1267532e+2, -739170.75, -862767.2, -81587.7, -0.053201143, -0.14206104, -698618.7, 157147.63, 0.0, 10.000961, 9.999289 
1.8650188e+3, 2.2267394e+2, -649179.75, -844614.3, -16686.28, -0.031824753, -0.16844593, -647765.3, 110013.99, 0.0, 10.001212, 9.99864 
1.8650535e+3, 2.3267251e+2, -729037.1, -821994.1, -1199.1023, -0.012568194, -0.20402338, -729021.6, -69225.984, 0.0, 9.999968, 9.998706 
1.8650877e+3, 2.4267188e+2, -676581.7, -681978.2, 2888.0967, -0.0057379943, -0.14382944, -675327.5, -113522.72, 0.0, 9.9993515, 9.999295 
1.8651211e+3, 2.5267303e+2, -404127.44, -443377.78, -26638.91, -0.059821893, -0.032432713, -390665.16, 73131.6, 0.0, 10.000328, 9.999777 
1.8651548e+3, 2.626732e+2, -306032.94, -489840.97, 3224.6467, -0.07541197, 0.07117233, -305976.38, 59821.727, 0.000000065173005, 10.000935, 9.998511 
1.8651895e+3, 2.726713e+2, -268333.5, -439539.94, 30585.701, -0.010350629, 0.018724268, -263033.5, 4785.1187, 0.000009433609, 10.000609, 9.998332 
1.865224e+3, 2.8266996e+2, -156744.02, -292166.63, 2191.5588, 0.07319772, 0.053987354, -156708.56, 13123.849, 0.00011541226, 10.0005, 9.99873 
1.8652564e+3, 2.9266924e+2, 60396.926, -57960.47, -91142.11, 0.13305409, 0.024129748, 109887.46, 181722.81, 0.00049646525, 10.000994, 9.999412 
1.8652895e+3, 3.0266577e+2, 62150.348, -217153.48, 35714.0, 0.089519046, -0.18576962, 66644.7, 66644.7, 0.0012600875, 10.001446, 9.99778 
1.8653235e+3, 3.126657e+2, 249951.28, 47903.207, -116221.1, -0.122458905, 0.0005606393, 302918.16, 302918.16, 0.0023282347, 10.0019245, 9.999362 
1.8746762e+3, 1.2263715e+2, -1805718.4, -2200109.8, -34363.53, -0.07112337, -0.1409191, -1802746.6, -64603.516, 0.14588223, 10.001198, 9.996061 
1.8747112e+3, 1.3264024e+2, -1529454.3, -1371138.4, -28045.508, -0.06886793, 0.012742668, -1366316.9, 273801.6, 0.0986057, 9.999703, 10.001986 
1.8747471e+3, 1.426396e+2, -1604983.8, -1453591.4, -23581.48, 0.05829404, -0.20473064, -1450003.3, 92122.375, 0.053927336, 9.9988785, 10.001003 
1.874781e+3, 1.526423e+2, -1537151.5, -1380584.6, 5902.574, -0.05685206, -0.055266794, -1380362.4, 63736.563, 0.021407956, 9.998748, 10.000859 
1.874815e+3, 1.6264401e+2, -1492113.4, -1420647.3, -7981.064, -0.12888627, 0.089402854, -1419766.8, -73684.92, 0.0050250688, 9.998874, 9.99984 
1.87485e+3, 1.726428e+2, -1288363.5, -1267692.6, 38296.527, -0.09460089, -0.044568054, -1238361.4, 9732.404, 0.00038988978, 9.999605, 9.999849 
1.8748847e+3, 1.8264164e+2, -1140396.1, -1174395.1, 10104.717, -0.079967484, -0.1194541, -1137619.6, 12484.834, 0.000000733184, 10.000054, 9.9996195 
1.8749185e+3, 1.9264162e+2, -1065921.5, -1064578.6, -10639.029, -0.076309115, -0.12757082, -1054589.9, -2486.5317, 0.0, 9.99982, 9.999799 
1.8749523e+3, 2.0264131e+2, -991891.44, -1049016.4, -48642.32, -0.08360824, -0.09705055, -964045.6, -9940.94, 0.0, 9.999922, 9.999204 
1.8749857e+3, 2.1264043e+2, -765738.94, -877601.06, -35107.785, -0.11214731, -0.14061941, -755633.3, 100478.57, 0.0, 10.000781, 9.999278 
1.8750192e+3, 2.2263943e+2, -662857.5, -814575.9, -59719.348, -0.11983479, -0.14088672, -642171.25, 115950.54, 0.0, 10.000953, 9.998974 
1.8750533e+3, 2.326384e+2, -726791.6, -766341.0, -37119.46, -0.0341842, -0.18664886, -704508.1, -44373.484, 0.0, 9.999748, 9.999189 
1.8750873e+3, 2.4263799e+2, -720601.5, -716019.8, 8848.906, -0.013039422, -0.13043846, -709170.0, -147029.03, 0.0, 9.999099, 9.999189 
1.8751206e+3, 2.5263882e+2, -456325.88, -499517.84, 29341.078, -0.16064844, -0.025025237, -441489.94, 22643.72, 0.0, 10.000108, 9.999498 
1.875155e+3, 2.6263854e+2, -284239.56, -394089.97, -10884.077, -0.1886154, 0.022671545, -283171.53, 82964.74, 0.00000004605578, 10.0007, 9.999291 
1.8751915e+3, 2.726366e+2, -218896.58, -285718.97, 34686.387, 0.098446615, -0.14968398, -204147.08, 64006.594, 0.000008319171, 10.000379, 9.999507 
1.8752263e+3, 2.826358e+2, -250580.8, -420199.56, -1890.9608, 0.23720767, -0.103346586, -250559.72, -80398.92, 0.00010877432, 10.00021, 9.997993 
1.8752563e+3, 2.92636e+2, -91935.82, -294163.8, -43587.938, -0.017924828, 0.09273423, -82941.016, -10779.9795, 0.00047256332, 10.000657, 9.997951 
1.8752871e+3, 3.0263162e+2, 1733.3948, -246905.75, 36488.04, -0.32869416, -0.116760805, 6977.448, 6977.448, 0.0011934324, 10.001051, 9.997762 
1.8753275e+3, 3.1262913e+2, 159761.77, 40989.883, -41901.06, 0.021551967, -0.21530809, 173055.88, 173055.88, 0.0021805223, 10.001191, 9.999655 
1.8846783e+3, 1.22601934e+2, -1801566.3, -2212817.5, 63357.664, 0.040140588, -0.16412689, -1792026.5, -53534.305, 0.15411249, 10.001241, 9.995973 
1.8847112e+3, 1.3260645e+2, -1489049.4, -1352390.0, 5149.7393, -0.033555675, 0.112496, -1352196.3, 288257.13, 0.10442951, 9.999996, 10.0020075 
1.8847464e+3, 1.4260486e+2, -1603093.4, -1452426.6, 7781.2817, 0.10539004, -0.19398423, -1452025.8, 90443.17, 0.057399224, 9.9989195, 10.0009775 
1.8847801e+3, 1.526076e+2, -1518184.8, -1343056.5, 15587.737, 0.009812249, -0.05878508, -1341680.0, 102760.79, 0.023018045, 9.998804, 10.00107 
1.8848144e+3, 1.626095e+2, -1474778.8, -1359205.8, 48808.418, -0.057024997, 0.07124592, -1341351.4, 5068.961, 0.005521801, 9.998748, 10.000329 
1.8848497e+3, 1.7260869e+2, -1295401.3, -1203645.8, 64152.156, -0.06058259, -0.08278641, -1170654.9, 77771.04, 0.0004532519, 9.999249, 10.000471 
1.8848847e+3, 1.8260792e+2, -1228791.4, -1238737.5, 43438.258, -0.044649493, -0.15213768, -1190042.4, -39610.324, 0.0000010252129, 9.99954, 9.999419 
1.884919e+3, 1.9260776e+2, -1083927.0, -1120617.8, 24085.348, -0.00821171, -0.13640884, -1071996.1, -19561.33, 0.0, 9.999893, 9.999372 
1.884953e+3, 2.0260744e+2, -988254.3, -1038590.2, 38969.844, 0.0006129172, -0.08648789, -967031.8, -12593.396, 0.0, 9.99992, 9.99927 
1.884986e+3, 2.1260668e+2, -929344.75, -929608.1, 41682.68, -0.082741246, -0.13620228, -887793.56, -31348.674, 0.0, 9.999547, 9.999512 
1.8850195e+3, 2.22606e+2, -859263.5, -887770.25, 37006.35, -0.1077221, -0.12517883, -833860.5, -75408.6, 0.0, 9.999524, 9.999147 
1.8850535e+3, 2.3260577e+2, -593499.6, -687341.0, 10942.516, -0.01752059, -0.10649848, -592240.5, 68217.02, 0.0, 10.000602, 9.999319 
1.8850876e+3, 2.426055e+2, -396008.28, -570265.5, 83348.51, 0.009745051, -0.039726995, -362561.75, 199900.23, 0.0, 10.001391, 9.999077 
1.8851212e+3, 2.5260484e+2, -275068.97, -443713.13, 74744.555, -0.16199775, -0.060152676, -246710.25, 217756.47, 0.0, 10.001491, 9.999216 
1.8851556e+3, 2.6260364e+2, -194249.2, -336446.28, 10979.62, -0.1910032, -0.08941195, -193406.4, 173069.58, 0.000000017635879, 10.0012865, 9.999387 
1.885192e+3, 2.7260253e+2, -167709.9, -229057.08, -48459.23, 0.10046724, -0.20011131, -141032.23, 127452.17, 0.000007223604, 10.000628, 9.999752 
1.8852268e+3, 2.8260225e+2, -226501.55, -401846.2, -32013.662, 0.26919025, -0.11770762, -220839.47, -50353.117, 0.00010058898, 10.00037, 9.99803 
1.8852581e+3, 2.9260206e+2, 7554.8066, -255732.17, -15037.88, 0.0726491, 0.038031835, 8410.926, 80902.9, 0.0004433926, 10.001382, 9.997862 
1.8852885e+3, 3.0259824e+2, 177398.67, -100488.48, 143666.42, -0.3278667, -0.13228492, 238318.45, 238318.45, 0.0011172837, 10.001953, 9.998365 
1.8853292e+3, 3.1259653e+2, 106051.56, 31391.771, -940.2713, 0.12026008, -0.21995567, 106063.41, 106063.41, 0.002026479, 10.000744, 9.999812 
1.894679e+3, 1.2257008e+2, -1702244.3, -2028476.3, 100332.5, -0.08917262, -0.06968148, -1673857.1, 64952.246, 0.16258536, 10.0014105, 9.997178 
1.8947113e+3, 1.3257279e+2, -1552809.0, -1491961.6, -27536.457, -0.06524515, 0.08059312, -1481350.5, 159435.81, 0.110513955, 10.000011, 10.000956 
1.8947433e+3, 1.4257249e+2, -1630128.4, -1503730.5, -19916.535, -0.14184666, -0.002359899, -1500666.5, 42121.785, 0.06108175, 9.998922, 10.000599 
1.8947795e+3, 1.5257293e+2, -1511247.3, -1326427.8, 25208.611, 0.03691965, -0.102938436, -1323051.1, 121728.69, 0.024752133, 9.998793, 10.001195 
1.8948145e+3, 1.6257384e+2, -1429248.0, -1290133.3, 49279.305, 0.056031343, -0.09605994, -1274445.8, 72321.24, 0.0060684755, 9.998849, 10.000758 
1.894849e+3, 1.7257427e+2, -1262240.0, -1132799.0, 92396.64, -0.08459717, -0.17680342, -1084710.5, 164049.64, 0.0005270964, 9.999236, 10.000967 
1.8948835e+3, 1.8257454e+2, -1218375.6, -1220495.3, 44469.92, -0.14055598, -0.17678279, -1174952.9, -24196.348, 0.0000013718216, 9.999564, 9.999527 
1.894919e+3, 1.925751e+2, -1099672.3, -1128357.3, 45726.977, -0.01817744, -0.08811111, -1066091.3, -13337.511, 0.0, 9.999797, 9.999359 
1.8949534e+3, 2.0257518e+2, -987051.0, -1012390.3, 19220.168, 0.031972308, -0.007446375, -976700.3, -21945.44, 0.0, 9.9998045, 9.999514 
1.8949859e+3, 2.1257411e+2, -929147.4, -892323.06, 39751.23, -0.07026246, -0.1246929, -866926.9, -10162.01, 0.0, 9.999376, 9.999856 
1.8950191e+3, 2.2257355e+2, -897779.44, -907380.8, 50758.387, -0.12869738, -0.12334266, -851595.2, -92824.12, 0.0, 9.999267, 9.999135 
1.8950535e+3, 2.3257472e+2, -636156.4, -722445.3, 69533.33, -0.08856849, 0.045575857, -597469.75, 63293.906, 0.0, 10.000377, 9.999181 
1.8950883e+3, 2.4257459e+2, -456108.75, -639623.3, 81041.62, -0.08860853, 0.1469564, -425444.06, 137322.44, 0.0, 10.001139, 9.998729 
1.8951227e+3, 2.5257105e+2, -335939.84, -514594.38, 90655.414, -0.17695071, -0.12370286, -297996.7, 166799.64, 0.0, 10.001251, 9.998844 
1.895157e+3, 2.6256835e+2, -275372.25, -442086.84, -21318.248, -0.21528465, -0.25798833, -272689.38, 94129.71, 0.0000000071100716, 10.001016, 9.998792 
1.8951905e+3, 2.7256888e+2, -249420.33, -337763.0, -57306.14, -0.11898757, -0.14407979, -221237.66, 47576.008, 0.0000064443307, 10.00038, 9.999121 
1.895225e+3, 2.825691e+2, -215389.67, -320857.25, -26835.693, 0.018699123, 0.003240557, -208954.16, -38143.246, 0.0000894982, 10.00011, 9.998714 
1.8952611e+3, 2.9256716e+2, 21918.191, -143815.53, 50667.406, 0.21641742, -0.12451557, 36180.64, 109010.77, 0.00040206578, 10.0010195, 9.998811 
1.8952923e+3, 3.0256537e+2, 179491.45, 17169.691, 100453.13, -0.17449388, -0.194824, 227473.61, 227473.61, 0.0010244871, 10.001493, 9.99938 
1.8953285e+3, 3.1256735e+2, -39674.41, -90752.29, 53738.707, -0.07340252, -0.008054255, -5714.729, -5714.729, 0.0018689361, 10.00004, 9.999285 
1.9046792e+3, 1.2253899e+2, -1885540.0, -1850174.3, 160922.84, -0.08374294, 0.088374406, -1705965.6, 33152.33, 0.1713416, 9.998983, 9.999552 
1.9047114e+3, 1.3253935e+2, -1678992.0, -1624987.1, -30886.926, -0.0012729444, 0.014912991, -1610963.5, 30151.004, 0.11689223, 9.999482, 10.000163 
1.9047427e+3, 1.4253964e+2, -1594661.4, -1539385.8, 33613.37, -0.08779516, 0.07025891, -1523506.8, 19603.252, 0.06499328, 9.999355, 10.000157 
1.9047786e+3, 1.5253913e+2, -1491247.0, -1313659.1, 47006.55, 0.08825579, -0.12804049, -1301984.3, 143126.16, 0.026617203, 9.998867, 10.001273 
1.9048136e+3, 1.625397e+2, -1501275.1, -1326838.8, 108685.25, 0.10443455, -0.1582533, -1274703.1, 72397.78, 0.0066676727, 9.998383, 10.00073 
1.9048484e+3, 1.7254071e+2, -1322190.9, -1160368.3, 91636.72, -0.016389731, -0.1771735, -1119034.1, 130055.11, 0.0006122247, 9.998847, 10.000951 
1.9048837e+3, 1.8254136e+2, -1254860.4, -1203196.4, 41261.668, -0.052816104, -0.14924344, -1180347.6, -29265.25, 0.0000017786746, 9.999173, 9.999839 
1.9049188e+3, 1.9254194e+2, -1095540.3, -1080910.4, 44505.473, 0.01824693, -0.09509989, -1043122.75, 9955.524, 0.0, 9.999634, 9.999775 
1.9049533e+3, 2.0254208e+2, -971134.0, -1005438.3, 43234.15, 0.042379554, -0.031109486, -941773.94, 13304.507, 0.0, 9.999941, 9.999481 
1.9049858e+3, 2.1254113e+2, -811854.06, -856233.3, -8265.601, -0.058878604, -0.11713053, -810364.6, 46723.617, 0.0, 10.000287, 9.999655 
1.905019e+3, 2.2254063e+2, -696156.9, -820896.5, 26246.383, -0.11476537, -0.09494496, -690859.4, 68235.24, 0.0, 10.000678, 9.999057 
1.9050545e+3, 2.3254152e+2, -502573.84, -667088.2, 33613.004, -0.081810646, 0.05114665, -495971.16, 165117.63, 0.0, 10.0013075, 9.999123 
1.9050898e+3, 2.4254124e+2, -426852.13, -642072.75, 45169.023, -0.054945722, 0.14681129, -417756.72, 145335.88, 0.0, 10.001434, 9.998557 
1.9051243e+3, 2.5253773e+2, -439724.66, -584839.2, 24763.611, -0.08447175, -0.09834209, -435615.16, 29508.027, 0.0, 10.000635, 9.998649 
1.9051585e+3, 2.6253495e+2, -391025.34, -526548.8, -19831.19, -0.11287477, -0.2217897, -388183.06, -21035.691, 0.000000016068412, 10.000327, 9.998549 
1.9051911e+3, 2.7253473e+2, -104594.125, -305221.0, -58279.098, -0.14352036, -0.15237372, -88893.6, 180254.47, 0.000006020835, 10.001486, 9.99883 
1.9052252e+3, 2.8253418e+2, 72292.79, -170545.97, -4325.0283, -0.042426046, -0.07388904, 72369.79, 243522.06, 0.00007835106, 10.002018, 9.998841 
1.9052626e+3, 2.9253227e+2, 54279.03, -96280.51, -29358.346, 0.2760369, -0.2167325, 59801.22, 132971.89, 0.00035541714, 10.001104, 9.999098 
1.9052938e+3, 3.0253223e+2, 89666.16, 23330.75, 7017.551, -0.0895627, -0.14490126, 90400.41, 90400.41, 0.0009236993, 10.00067, 9.999823 
1.9053297e+3, 3.125335e+2, 166777.06, -15088.534, -117499.836, 0.00314822, -0.057667665, 224420.8, 224420.8, 0.0017174939, 10.001475, 9.999163 
1.914679e+3, 1.22507e+2, -1656642.0, -1399037.5, 33154.457, -0.07405145, 0.122928135, -1394838.9, 344595.7, 0.18042894, 9.998931, 10.003148 
1.9147117e+3, 1.3250585e+2, -1721308.0, -1708561.1, -10695.101, 0.043484572, -0.11729889, -1702484.4, -61043.473, 0.12358676, 9.999474, 9.999568 
1.9147448e+3, 1.4250597e+2, -1596782.9, -1579731.8, 5499.396, 0.12278892, -0.012030217, -1578112.0, -34674.418, 0.069141634, 9.999509, 9.999802 
1.9147773e+3, 1.5250635e+2, -1482980.6, -1296815.5, 36624.48, 0.032368816, -0.1257303, -1289869.5, 155561.61, 0.028615344, 9.998867, 10.001393 
1.9148105e+3, 1.6250746e+2, -1526591.3, -1396342.3, 101075.45, -0.074074365, -0.091794856, -1341227.6, 6190.89, 0.0073205116, 9.998456, 10.000211 
1.914848e+3, 1.7250822e+2, -1378107.1, -1267702.5, 118504.414, 0.022474531, -0.06637773, -1192173.9, 57237.69, 0.00070924795, 9.998813, 10.000226 
1.9148844e+3, 1.8250847e+2, -1219343.5, -1138783.4, 41166.234, 0.08224865, -0.04937243, -1121468.9, 29940.227, 0.0000023137907, 9.999203, 10.000274 
1.9149184e+3, 1.925083e+2, -1050576.1, -966020.4, 71399.3, -0.0028278285, -0.14795586, -925320.7, 128087.63, 0.0, 9.9995365, 10.000614 
1.9149521e+3, 2.0250805e+2, -1019447.0, -1076911.6, 43251.215, -0.10585236, -0.16012904, -996254.25, -40844.39, 0.0, 9.999808, 9.999055 
1.914985e+3, 2.1250774e+2, -894852.75, -988029.94, 14045.099, -0.17215912, -0.10894327, -892781.7, -35366.094, 0.0, 10.000106, 9.9988365 
1.915019e+3, 2.2250722e+2, -743774.75, -858944.25, 37367.184, -0.19774278, -0.032609753, -732713.25, 26709.58, 0.0, 10.000413, 9.998926 
1.9150555e+3, 2.3250635e+2, -534502.56, -672354.9, 71650.875, -0.10586455, -0.065975904, -504007.06, 157424.38, 0.0, 10.001056, 9.9992075 
1.9150916e+3, 2.4250543e+2, -471939.53, -671803.4, 14074.845, -0.035220638, -0.03348398, -470953.22, 92487.5, 0.0, 10.001156, 9.998488 
1.9151258e+3, 2.525048e+2, -478775.56, -611854.0, 7545.023, -0.020855833, 0.014649274, -478349.16, -12900.9795, 0.0, 10.000408, 9.998569 
1.9151598e+3, 2.6250347e+2, -426380.4, -544415.5, -10326.409, -0.045134634, 0.04364295, -425483.8, -58023.633, 0.000000038925435, 10.000079, 9.998551 
1.9151929e+3, 2.7250025e+2, -142147.13, -321210.22, 2673.2397, -0.12596315, -0.1949165, -142107.22, 127379.14, 0.0000054500297, 10.001224, 9.998845 
1.9152269e+3, 2.824975e+2, -4586.034, -263099.94, -39599.367, -0.09933446, -0.31588838, 1343.8087, 172853.27, 0.00006657065, 10.00173, 9.998344 
1.9152622e+3, 2.9249716e+2, -39061.566, -215644.98, -44182.348, 0.111072525, -0.23985477, -28623.816, 44890.996, 0.0003045757, 10.000796, 9.998425 
1.9152933e+3, 3.0249897e+2, 33775.54, -29130.348, 1130.0076, -0.2427155, 0.06643901, 33795.832, 33795.832, 0.0008128508, 10.000386, 9.999594 
1.9153297e+3, 3.124973e+2, 84712.26, 5689.1924, 12237.267, -0.1943958, -0.16330633, 86563.9, 86563.9, 0.001554527, 10.000704, 9.999646 
1.9246782e+3, 1.2247605e+2, -1680152.8, -1257599.9, 118297.95, 0.035636824, 0.14685135, -1226735.6, 512999.88, 0.18987963, 9.997886, 10.004905 
1.9247119e+3, 1.3247284e+2, -1865783.6, -1841548.9, 39050.06, 0.17328906, -0.2746389, -1812779.4, -171018.81, 0.13060497, 9.998731, 9.999028 
1.9247445e+3, 1.4247407e+2, -1742658.5, -1704987.8, 100342.03, 0.20798273, -0.006876894, -1621728.6, -77981.375, 0.07352615, 9.998768, 9.999287 
1.924777e+3, 1.5247457e+2, -1346654.9, -1287257.4, 57209.527, 0.07954009, -0.059296217, -1252497.3, 193245.3, 0.030745408, 10.000089, 10.000865 
1.9248106e+3, 1.6247492e+2, -1253547.6, -1315026.3, 94831.58, -0.012385548, -0.049774095, -1184597.8, 163141.58, 0.008026891, 10.000564, 9.999749 
1.9248474e+3, 1.7247513e+2, -1341928.8, -1301091.3, 98084.52, 0.065879166, -0.037669063, -1221322.6, 28415.637, 0.0008187495, 9.99928, 9.999773 
1.9248836e+3, 1.8247515e+2, -1348648.1, -1213412.8, 82315.55, 0.1300284, -0.012183377, -1174503.5, -22765.432, 0.0000031359323, 9.99834, 10.000184 
1.9249181e+3, 1.9247502e+2, -1095407.6, -982417.6, 42454.92, 0.04698811, -0.11195824, -968243.6, 85492.83, 0.0, 9.999173, 10.000677 
1.9249523e+3, 2.024747e+2, -1016818.25, -1092591.5, 2792.9373, -0.042788632, -0.13298182, -1016715.44, -60977.383, 0.0, 9.999893, 9.998912 
1.9249856e+3, 2.1247396e+2, -843289.2, -987986.75, -10679.956, -0.13566686, -0.10174162, -842505.2, 15241.683, 0.0, 10.000566, 9.998618 
1.92502e+3, 2.2247295e+2, -683105.25, -845615.3, 56372.906, -0.15781188, -0.05359411, -665464.94, 94292.69, 0.0, 10.000927, 9.99876 
1.925057e+3, 2.3247135e+2, -585095.56, -711651.44, 43682.113, -0.044885207, -0.1436163, -571482.5, 90290.25, 0.0, 10.000783, 9.999067 
1.9250931e+3, 2.4247022e+2, -525394.44, -683610.8, -7218.3, 0.04542005, -0.1297804, -525065.75, 38718.355, 0.0, 10.000701, 9.998637 
1.9251269e+3, 2.524708e+2, -377644.97, -542830.25, -21102.898, 0.03203386, 0.020137854, -374991.63, 90789.805, 0.0, 10.000985, 9.998785 
1.9251609e+3, 2.6247028e+2, -265666.7, -461442.0, 30824.309, 0.014803174, 0.11274122, -260928.16, 106858.8, 0.000000047147957, 10.001172, 9.9985895 
1.925195e+3, 2.7246657e+2, -143436.13, -326366.1, 12942.158, -0.032612342, -0.16516063, -142525.02, 127292.51, 0.0000044268, 10.001239, 9.998804 
1.9252291e+3, 2.8246355e+2, -69040.59, -320597.7, -14932.137, -0.019632298, -0.30287117, -68157.34, 103685.84, 0.000054025306, 10.00142, 9.998083 
1.925263e+3, 2.9246327e+2, 150012.17, -173323.75, -47590.098, 0.044598952, -0.18103077, 156871.2, 230718.28, 0.0002523606, 10.002286, 9.997996 
1.9252943e+3, 3.024633e+2, 274364.63, 3945.3274, 24880.168, -0.2606359, 0.0011483645, 276634.7, 276634.7, 0.0006949365, 10.0024, 9.998846 
1.9253318e+3, 3.1246164e+2, 67127.33, -27642.227, -78786.555, -0.020112872, -0.13722354, 111680.78, 111680.78, 0.0013690214, 10.000613, 9.999488 
1.9346751e+3, 1.2244502e+2, -1684415.1, -1287218.3, 111638.55, -0.13420995, 0.030061634, -1257991.1, 482040.16, 0.1997211, 9.9979725, 10.0046625 
1.9347113e+3, 1.324401e+2, -1910787.8, -1919506.5, 40052.734, 0.22215265, -0.48787203, -1874857.8, -232782.44, 0.13795441, 9.998669, 9.998525 
1.9347411e+3, 1.424446e+2, -1779406.3, -1798391.1, 121381.99, -0.045872755, 0.14120656, -1667146.1, -123113.08, 0.07814733, 9.99883, 9.998621 
1.9347778e+3, 1.5244392e+2, -1424089.3, -1463395.9, 120912.62, 0.11140057, 0.08727806, -1321243.1, 124800.21, 0.033007, 10.000149, 9.999613 
1.9348133e+3, 1.6244194e+2, -1258227.4, -1355668.8, 53925.8, 0.14896129, -0.043817006, -1234272.8, 113792.055, 0.008786739, 10.000692, 9.999411 
1.9348462e+3, 1.7244132e+2, -1347202.9, -1316876.3, 54133.582, 0.002682852, -0.099523485, -1275822.4, -25752.102, 0.00094156526, 9.999295, 9.999663 
1.9348803e+3, 1.8244137e+2, -1380335.3, -1287503.3, 79858.914, -0.07391417, -0.045286853, -1241551.0, -89481.69, 0.0000044945964, 9.998374, 9.999659 
1.9349176e+3, 1.924423e+2, -1159259.0, -1098154.5, 87752.336, 0.04660251, 0.027245872, -1035787.9, 18273.328, 0.0, 9.99909, 9.999928 
1.9349538e+3, 2.0244218e+2, -1029362.56, -1087745.5, 15311.936, 0.085686035, 0.071765505, -1025590.44, -69528.39, 0.0, 9.999757, 9.999012 
1.934987e+3, 2.1243984e+2, -852549.8, -955856.06, 24403.904, -0.05912142, -0.08863425, -847075.06, 11006.768, 0.0, 10.000345, 9.998945 
1.9350213e+3, 2.2243764e+2, -744067.44, -900569.6, 44255.297, -0.13947596, -0.17088056, -732419.9, 27681.145, 0.0, 10.000624, 9.998527 
1.935058e+3, 2.324364e+2, -647875.6, -788829.06, 51445.258, -0.02940644, -0.18426344, -631096.5, 31017.38, 0.0, 10.000557, 9.998643 
1.935094e+3, 2.4243559e+2, -541813.5, -656473.0, -13884.831, 0.029154833, -0.12440369, -540156.0, 23966.975, 0.0, 10.000433, 9.998958 
1.9351274e+3, 2.5243574e+2, -370860.13, -475902.88, 3565.4556, -0.037014365, -0.07201897, -370739.25, 95384.01, 0.0, 10.000762, 9.999353 
1.9351614e+3, 2.624352e+2, -311807.34, -484552.22, 19717.758, -0.06645707, -0.012468669, -309585.25, 58543.68, 0.00000001782158, 10.000874, 9.9985695 
1.9351967e+3, 2.7243358e+2, -200631.38, -369702.8, 29749.236, 0.0074467934, -0.0674245, -195549.55, 74593.71, 0.0000033385966, 10.000944, 9.998633 
1.9352314e+3, 2.8243235e+2, -119425.35, -369813.25, -11563.151, 0.02846786, -0.013837967, -118892.49, 53261.24, 0.00004416703, 10.001164, 9.997877 
1.935264e+3, 2.9243064e+2, 95587.305, -210008.92, 5360.5166, -0.10100576, -0.019680599, 95681.305, 169849.22, 0.00021030588, 10.001965, 9.997898 
1.9352962e+3, 3.0242562e+2, 112769.94, -240378.48, -38308.75, -0.34091896, -0.2720398, 116877.805, 116877.805, 0.0005915153, 10.002008, 9.997356 
1.9353339e+3, 3.124246e+2, -97862.03, -196178.61, -75083.79, 0.07712896, -0.17948416, -57275.61, -57275.61, 0.0011871255, 9.999935, 9.998626 
1.944674e+3, 1.22411065e+2, -1707581.1, -1425396.1, 125028.68, -0.059568327, -0.16968381, -1377970.0, 362389.03, 0.20999403, 9.998453, 10.00329 
1.9447094e+3, 1.3240801e+2, -1894380.0, -1925108.9, -106469.33, 0.17083187, -0.44885576, -1802172.3, -159783.8, 0.14565058, 9.998807, 9.998439 
1.9447392e+3, 1.4241192e+2, -1632889.1, -1731939.0, 57502.027, -0.15803194, 0.11004657, -1606524.6, -62171.406, 0.083007626, 9.999834, 9.998607 
1.9447777e+3, 1.524108e+2, -1523461.1, -1561956.5, 77402.17, 0.12882838, 0.056175098, -1462949.4, -16582.178, 0.03539992, 9.999659, 9.999166 
1.944814e+3, 1.6240832e+2, -1473988.0, -1492063.0, 52476.16, 0.24978074, -0.09130659, -1429776.9, -81383.2, 0.009600047, 9.999338, 9.99913 
1.9448462e+3, 1.724077e+2, -1217785.1, -1281906.4, 13563.793, 0.041001283, -0.12076555, -1215033.9, 35365.426, 0.0010784023, 10.0002985, 9.999417 
1.9448797e+3, 1.824077e+2, -1075035.8, -1205538.8, 61171.06, -0.05910887, -0.03594286, -1050846.5, 101553.5, 0.0000066792873, 10.000778, 9.999054 
1.9449173e+3, 1.9240803e+2, -1039256.4, -1118078.5, 44075.184, 0.058300134, 0.050230514, -1019541.7, 34858.38, 0.0, 10.000296, 9.999196 
1.9449538e+3, 2.024076e+2, -984967.4, -1039991.9, 12526.228, 0.120283455, 0.10210519, -982250.0, -25844.908, 0.0, 9.999963, 9.999238 
1.944988e+3, 2.1240556e+2, -779259.06, -855818.1, 17745.883, 0.009822058, -0.0742294, -775345.7, 83073.516, 0.0, 10.000583, 9.999515 
1.9450228e+3, 2.2240369e+2, -684597.2, -850162.1, 61572.445, -0.045333695, -0.16809413, -664209.4, 96223.92, 0.0, 10.00092, 9.99873 
1.9450592e+3, 2.3240253e+2, -643164.6, -778739.75, 73159.44, 0.033667974, -0.18371472, -611215.25, 51229.836, 0.0, 10.000541, 9.998727 
1.9450948e+3, 2.4240175e+2, -551218.5, -651241.94, 74811.58, 0.0755068, -0.1292658, -511241.66, 53211.867, 0.0, 10.000359, 9.999019 
1.9451283e+3, 2.5240153e+2, -322481.2, -454906.47, 30717.992, -0.022163674, -0.11292056, -315702.66, 150754.55, 0.0, 10.001107, 9.999327 
1.9451626e+3, 2.6240072e+2, -206878.88, -440842.34, 27572.902, -0.058197383, -0.07804988, -203673.28, 164792.78, 0.000000002142629, 10.001595, 9.998533 
1.945198e+3, 2.7239966e+2, -141444.81, -354263.66, 11334.762, 0.038166184, -0.0703745, -140842.81, 129633.5, 0.0000030022966, 10.001358, 9.998565 
1.9452329e+3, 2.823989e+2, -125581.6, -367036.38, 31551.123, 0.08766562, 0.03795356, -121526.88, 50955.793, 0.00003904193, 10.001098, 9.997936 
1.9452661e+3, 2.9239732e+2, -7561.515, -242912.66, 29640.066, -0.039323065, 0.037648223, -3886.0518, 70608.86, 0.00018459432, 10.001169, 9.998066 
1.9452994e+3, 3.0239087e+2, 7084.782, -324747.88, 37182.047, -0.19242841, -0.35668015, 11200.018, 11200.018, 0.00051477127, 10.001447, 9.997037 
1.9453353e+3, 3.1239024e+2, 229482.77, -63844.145, -820.13367, 0.13540909, -0.16622102, 229485.06, 229485.06, 0.0010271264, 10.002242, 9.998448 
1.954675e+3, 1.2237731e+2, -1881489.3, -1780236.1, 346647.53, 0.120077424, -0.120801836, -1480537.8, 260150.97, 0.22070916, 9.998702, 10.000485 
1.9547054e+3, 1.3237685e+2, -1837585.9, -1839297.0, -52270.18, -0.13710436, -0.11575327, -1786164.3, -143467.19, 0.15369554, 9.998922, 9.9989805 
1.9547383e+3, 1.423757e+2, -1561347.8, -1623515.1, 58340.965, -0.27613685, -0.1349882, -1526326.5, 18384.826, 0.08810495, 10.000017, 9.999264 
1.9547763e+3, 1.5237501e+2, -1498329.9, -1513682.4, 73292.94, -0.0012110422, -0.18183178, -1432312.3, 14404.22, 0.037922986, 9.99967, 9.999496 
1.9548124e+3, 1.6237402e+2, -1476059.6, -1513691.9, 56376.914, 0.11004833, -0.19624004, -1435441.8, -86715.98, 0.010466628, 9.999409, 9.99895 
1.954847e+3, 1.7237432e+2, -1241897.9, -1343711.9, 63410.434, 0.067134306, -0.09418448, -1211488.3, 39236.773, 0.0012294218, 10.000339, 9.998979 
1.9548818e+3, 1.8237412e+2, -1112657.9, -1301956.1, 43757.902, 0.03083578, 0.023702987, -1103032.3, 49697.8, 0.000009908067, 10.000864, 9.998347 
1.9549169e+3, 1.923721e+2, -1108186.0, -1243560.3, 31505.793, -0.034663968, -0.041546263, -1101212.9, -46458.72, 0.0, 10.000223, 9.998369 
1.9549519e+3, 2.0237058e+2, -984942.5, -1003976.94, 9926.435, -0.08698281, -0.057105318, -980707.94, -23937.688, 0.0, 9.999804, 9.999562 
1.9549881e+3, 2.1237102e+2, -752258.6, -755330.5, 53852.03, -0.05504442, -0.060720183, -699920.6, 158839.6, 0.0, 10.000395, 10.000292 
1.9550242e+3, 2.2237097e+2, -674676.6, -773380.2, 46832.426, -0.022219738, -0.046876546, -655992.56, 104763.086, 0.0, 10.000669, 9.999383 
1.9550598e+3, 2.3236965e+2, -633536.25, -706040.8, 69464.625, 0.02418504, -0.14052081, -591433.2, 71333.65, 0.0, 10.000321, 9.999329 
1.9550948e+3, 2.4236856e+2, -618325.1, -719971.2, 79638.79, 0.024115024, -0.1421742, -574674.25, -9897.28, 0.0, 10.000057, 9.998689 
1.9551292e+3, 2.5236803e+2, -401680.53, -560011.56, 74950.664, -0.053287763, -0.09869927, -371828.7, 94955.77, 0.0, 10.000866, 9.99871 
1.955164e+3, 2.62367e+2, -249326.28, -473155.0, 12804.179, -0.108859114, -0.050627682, -248596.2, 120200.19, 0.00000003752054, 10.001341, 9.998441 
1.9551985e+3, 2.72365e+2, -166485.2, -355414.25, 16037.5625, -0.06572097, -0.14672303, -165133.5, 105681.5, 0.0000033251551, 10.001141, 9.998662 
1.9552334e+3, 2.8236368e+2, -166030.75, -373659.66, 11422.159, -0.006377028, -0.10116114, -165404.28, 7422.2593, 0.000036409245, 10.000769, 9.998046 
1.9552685e+3, 2.9236367e+2, -34103.78, -217391.36, 55649.996, 0.071871065, 0.033076704, -18530.473, 56294.777, 0.00016708692, 10.000839, 9.998391 
1.9553028e+3, 3.0235904e+2, -7237.921, -277024.5, 35547.09, -0.027043387, -0.22523023, -2632.8406, -2632.8406, 0.00045041088, 10.001088, 9.997553 
1.9553371e+3, 3.123578e+2, 188042.39, -12610.997, 46583.445, 0.031448048, -0.15068851, 198329.73, 198329.73, 0.0008724593, 10.00169, 9.99905 
1.9646741e+3, 1.2234203e+2, -1916587.9, -1923419.0, 281415.56, 0.1704961, -0.08825628, -1638567.3, 102468.01, 0.23177752, 9.999073, 9.9990835 
1.9647042e+3, 1.3234402e+2, -1746771.6, -1658224.8, -43822.09, -0.13691722, 0.085931085, -1640204.5, 2817.4312, 0.1620495, 9.999048, 10.000115 
1.964739e+3, 1.4234148e+2, -1623266.8, -1607118.9, 70495.21, -0.1785606, -0.15307921, -1544236.8, 812.73035, 0.093428105, 9.999419, 9.999636 
1.9647755e+3, 1.523413e+2, -1438682.3, -1452610.9, 32512.303, -0.052710563, -0.17973623, -1412396.8, 34650.926, 0.04057487, 9.999973, 9.999745 
1.9648112e+3, 1.6234072e+2, -1350199.1, -1475700.1, 53458.86, 0.02307964, -0.16533859, -1330515.0, 18536.762, 0.011385711, 10.000366, 9.9987545 
1.9648474e+3, 1.7234066e+2, -1208343.8, -1362689.1, 49663.746, 0.07105174, -0.06768938, -1193744.4, 57311.383, 0.0013940044, 10.000723, 9.998667 
1.9648832e+3, 1.8234009e+2, -1141055.0, -1331855.8, 42676.38, 0.10386117, 0.03770517, -1131944.6, 21120.73, 0.000014255441, 10.000726, 9.998215 
1.9649175e+3, 1.9233777e+2, -1081989.1, -1239439.3, 51820.367, 0.018134253, -0.050538413, -1066464.5, -11372.877, 0.0, 10.000428, 9.9983015 
1.9649523e+3, 2.0233619e+2, -912223.1, -967707.56, 111094.625, -0.037849672, -0.069797546, -825459.25, 131649.05, 0.0, 10.000286, 9.999578 
1.964989e+3, 2.1233703e+2, -703091.75, -730400.6, 90326.18, -0.008259952, -0.03605185, -625393.75, 233701.42, 0.0, 10.0007, 10.000322 
1.9650254e+3, 2.2233744e+2, -629142.4, -733113.94, 34387.766, 0.036188535, 0.013946843, -618798.06, 142289.11, 0.0, 10.000911, 9.999546 
1.9650602e+3, 2.3233633e+2, -538503.44, -644773.75, -14439.781, 0.0467571, -0.07003007, -536576.4, 126520.05, 0.0, 10.000896, 9.999479 
1.9650954e+3, 2.4233513e+2, -488460.8, -660628.1, 26939.256, 0.055115003, -0.09202909, -484344.03, 80763.47, 0.0, 10.000914, 9.998711 
1.9651307e+3, 2.5233424e+2, -404048.63, -567910.2, 43272.707, 0.024465837, -0.08140722, -393323.16, 73793.82, 0.0, 10.000848, 9.998689 
1.965166e+3, 2.6233307e+2, -302966.3, -479615.03, 38289.414, -0.0002787656, -0.04817865, -295024.0, 74104.805, 0.00000006167767, 10.0009165, 9.998593 
1.9652e+3, 2.7233106e+2, -114269.4, -314362.13, 3277.8494, -0.02680022, -0.15727493, -114215.72, 156931.7, 0.000003603985, 10.001449, 9.998787 
1.9652346e+3, 2.8232944e+2, -23123.613, -298367.3, 26286.8, 0.018103715, -0.15046747, -20635.615, 152526.83, 0.00003430298, 10.00173, 9.998098 
1.9652706e+3, 2.9232955e+2, 58640.54, -184015.69, 13648.391, 0.17711791, 0.0057185534, 59405.793, 134568.1, 0.00015136057, 10.001517, 9.998306 
1.965305e+3, 3.0232674e+2, 68065.945, -224985.7, 15263.535, 0.097273655, -0.06579336, 68858.805, 68858.805, 0.00039140965, 10.0015335, 9.997704 
1.9653378e+3, 3.123241e+2, 216046.98, 41494.78, -135456.13, -0.026980164, -0.14469641, 289908.97, 289908.97, 0.00072698283, 10.001682, 9.999448 
1.9746692e+3, 1.223044e+2, -1871730.5, -1921081.5, -114297.21, -0.32428005, -0.19798298, -1779475.5, -38069.004, 0.24301729, 9.999379, 9.99885 
1.9747059e+3, 1.323095e+2, -1632872.5, -1473143.8, -3129.7412, 0.10097656, 0.13148083, -1473082.5, 170280.77, 0.17062773, 9.99912, 10.001596 
1.9747402e+3, 1.4230944e+2, -1598004.6, -1586441.8, 69324.9, -0.04014771, 0.062372606, -1522657.6, 22708.385, 0.09895461, 9.999545, 9.999733 
1.9747747e+3, 1.5230982e+2, -1425752.8, -1438414.4, 60361.473, -0.14565574, 0.08070534, -1371391.0, 75968.266, 0.04335473, 10.000027, 9.999829 
1.9748104e+3, 1.6230838e+2, -1340549.8, -1481371.5, 53465.094, -0.15331343, 0.0132457325, -1322551.4, 26820.502, 0.012356995, 10.000486, 9.998655 
1.974847e+3, 1.7230663e+2, -1219707.4, -1384377.8, 70831.71, -0.06056232, -0.04181752, -1193432.3, 57960.383, 0.0015709848, 10.000722, 9.998517 
1.9748834e+3, 1.8230544e+2, -1102455.9, -1261610.6, 21544.99, 0.014904604, -0.0021560816, -1099590.9, 53816.516, 0.000019593592, 10.000762, 9.998683 
1.9749188e+3, 1.9230498e+2, -1040241.75, -1135591.1, 50774.113, 0.08577123, 0.024252819, -1018268.1, 37145.164, 0.0, 10.000356, 9.999048 
1.9749545e+3, 2.0230438e+2, -959186.5, -1028702.2, 110318.38, 0.115711965, 0.06716196, -878279.94, 79139.375, 0.0, 10.00013, 9.999235 
1.9749904e+3, 2.123038e+2, -782227.06, -847749.8, 117737.414, 0.039388712, 0.022982517, -692777.94, 166644.55, 0.0, 10.000496, 9.999615 
1.975026e+3, 2.2230324e+2, -704432.06, -824919.8, 23819.498, -0.024081372, 0.039612442, -699894.06, 61532.188, 0.0, 10.000623, 9.999057 
1.9750609e+3, 2.3230256e+2, -590272.06, -713027.25, 1351.3375, -0.006057776, 0.0347564, -590257.2, 73176.71, 0.0, 10.000717, 9.9991 
1.9750962e+3, 2.4230155e+2, -503909.63, -636161.0, 12613.731, 0.02582201, 0.04272183, -502717.3, 62726.527, 0.0, 10.000665, 9.999002 
1.9751324e+3, 2.5230017e+2, -389929.66, -497738.66, 53953.605, 0.091806464, -0.04583759, -367566.97, 99886.88, 0.0, 10.000668, 9.99926 
1.9751681e+3, 2.6229888e+2, -335054.53, -477701.8, 38789.52, 0.10328728, -0.06557445, -325188.97, 44274.79, 0.000000055759365, 10.000621, 9.998746 
1.9752021e+3, 2.7229783e+2, -146044.47, -317568.72, 41834.387, 0.021006776, -0.096217155, -136385.11, 135088.78, 0.0000036492006, 10.001185, 9.998881 
1.9752365e+3, 2.8229633e+2, -78387.664, -353008.8, 6348.833, 0.0040709, -0.08006297, -78240.96, 95248.07, 0.00003270768, 10.001455, 9.997865 
1.975272e+3, 2.9229486e+2, 2824.518, -255010.86, 32451.299, 0.12794767, -0.0498893, 6846.1284, 82352.94, 0.00013942833, 10.001316, 9.997919 
1.9753057e+3, 3.0229402e+2, -50460.5, -361570.16, 1494.0748, -0.025285468, 0.13193788, -50453.33, -50453.33, 0.00034788318, 10.001088, 9.996971 
1.9753398e+3, 3.1228942e+2, 145449.06, 62639.926, -96839.85, -0.05492665, -0.09853814, 209364.45, 209364.45, 0.0006199965, 10.001009, 9.999893 
1.9846672e+3, 1.22268885e+2, -1988015.0, -1936848.5, -94864.836, -0.39001584, -0.24306118, -1864177.8, -122419.78, 0.25424254, 9.998372, 9.999262 
1.9847064e+3, 1.3227348e+2, -1514650.8, -1431510.0, -10834.276, 0.19756067, 0.039095152, -1430121.4, 213595.94, 0.17932345, 10.000153, 10.001484 
1.9847399e+3, 1.4227492e+2, -1628849.1, -1618371.5, -2603.8682, -0.0053269467, 0.13484047, -1617760.1, -72055.57, 0.104643695, 9.999399, 9.999584 
1.9847749e+3, 1.5227476e+2, -1507301.5, -1478293.9, -32311.639, -0.09418867, 0.10525478, -1457380.1, -9676.406, 0.046255346, 9.99945, 9.999834 
1.9848107e+3, 1.6227311e+2, -1470328.0, -1515931.5, -12512.362, -0.09104266, 0.005657448, -1467120.5, -117401.19, 0.013380272, 9.999485, 9.998891 
1.984847e+3, 1.7227192e+2, -1355224.8, -1409426.4, 16354.415, -0.07197193, -0.02438531, -1350672.4, -98937.805, 0.0017591557, 9.999627, 9.998866 
1.9848832e+3, 1.8227138e+2, -1222884.0, -1276361.6, 13143.426, -0.023002649, 0.04156922, -1219828.4, -66085.45, 0.0000256483, 9.999733, 9.999079 
1.9849193e+3, 1.9227137e+2, -1015434.44, -1078975.8, -3090.167, 0.10806614, 0.06874894, -1015284.5, 40458.004, 0.0, 10.0002985, 9.999475 
1.9849554e+3, 2.0227078e+2, -912810.0, -1022441.25, 69833.46, 0.19544862, 0.09043782, -878848.0, 78899.3, 0.0, 10.00052, 9.999092 
1.9849913e+3, 2.1226917e+2, -843142.4, -920145.06, 72328.02, 0.09532006, -0.018337563, -799706.56, 60054.664, 0.0, 10.00027, 9.999228 
1.9850266e+3, 2.2226802e+2, -764817.9, -862695.56, 36880.742, 0.012544189, -0.033053443, -752477.06, 9294.814, 0.0, 10.000237, 9.998982 
1.9850615e+3, 2.3226827e+2, -571931.8, -700099.56, 22973.594, -0.0082601365, 0.05240816, -567938.3, 95833.516, 0.0, 10.000822, 9.999134 
1.985097e+3, 2.4226797e+2, -430027.1, -568603.4, 60096.008, 0.018704643, 0.11820676, -407596.22, 158179.2, 0.0, 10.001086, 9.999233 
1.985133e+3, 2.5226593e+2, -364642.84, -457720.47, 46348.445, 0.095942594, -0.060575675, -345500.3, 122289.484, 0.0, 10.000746, 9.999481 
1.9851688e+3, 2.6226428e+2, -327144.97, -448377.56, 63486.453, 0.13065149, -0.13643958, -299983.9, 69817.82, 0.00000004684117, 10.000576, 9.998959 
1.9852035e+3, 2.722642e+2, -150120.73, -301824.4, 46588.4, 0.054039128, -0.077699974, -136955.83, 134847.3, 0.000003631824, 10.001095, 9.999025 
1.9852383e+3, 2.8226352e+2, -47347.543, -327610.6, 36697.1, 0.044233374, 0.0029558782, -42622.168, 131189.56, 0.000030883682, 10.001641, 9.997936 
1.9852732e+3, 2.9226103e+2, 78119.05, -224095.22, 31551.764, 0.11176521, -0.061285816, 81377.97, 157216.53, 0.00012822116, 10.001888, 9.997836 
1.9853066e+3, 3.022596e+2, 88908.74, -266055.2, 77455.38, -0.062450763, 0.051037975, 105073.836, 105073.836, 0.0003141248, 10.001877, 9.9972515 
1.985343e+3, 3.1225705e+2, 230875.03, 112041.1, -36722.31, 0.16598444, -0.0040822118, 241307.22, 241307.22, 0.0005496592, 10.001477, 10.000024 
1.994667e+3, 1.2223777e+2, -1882250.0, -1745479.6, 55908.313, -0.31218675, 0.022824321, -1725534.3, 16532.52, 0.26535824, 9.998488, 10.000544 
1.9947045e+3, 1.322358e+2, -1604893.0, -1642994.6, -19601.664, -0.03394366, -0.2054188, -1596609.6, 47476.402, 0.18805622, 10.000267, 9.999672 
1.9947374e+3, 1.4223741e+2, -1634785.4, -1664800.5, -38179.836, -0.23549092, 0.030390209, -1608769.5, -62700.23, 0.11045076, 9.999543, 9.9992 
1.9947755e+3, 1.5223573e+2, -1507529.0, -1478614.4, -21332.592, -0.007353349, -0.13809085, -1467301.6, -19216.947, 0.04926506, 9.999458, 9.999826 
1.9948122e+3, 1.6223453e+2, -1416720.5, -1421158.9, -20455.783, 0.0815384, -0.21232787, -1398363.9, -48266.605, 0.014456319, 9.999553, 9.999509 
1.9948469e+3, 1.7223643e+2, -1294801.9, -1279140.0, 27436.7, -0.06942386, -0.020486414, -1258438.6, -6355.547, 0.0019582892, 9.999609, 9.999766 
1.994882e+3, 1.8223776e+2, -1196479.0, -1225143.1, 17715.703, -0.14756657, 0.16495724, -1188023.9, -33950.934, 0.000032105352, 9.999754, 9.999419 
1.9949184e+3, 1.9223689e+2, -1018497.56, -1061275.8, 28446.229, -0.021902889, 0.088799134, -1004296.2, 51783.58, 0.0, 10.000206, 9.999636 
1.9949548e+3, 2.0223548e+2, -937493.7, -1040386.6, 50633.23, 0.062544465, 0.01800861, -916756.6, 41334.836, 0.0, 10.000371, 9.999041 
1.9949912e+3, 2.1223305e+2, -876420.0, -950214.4, 72971.95, 0.043100152, -0.16275862, -831547.3, 28565.219, 0.0, 10.000099, 9.999101 
1.9950269e+3, 2.2223167e+2, -781829.06, -840123.25, 41830.684, -0.0023475573, -0.20364633, -759992.25, 2132.5964, 0.0, 9.999983, 9.999261 
1.9950618e+3, 2.3223351e+2, -569510.7, -649563.75, 61936.363, -0.07357769, -0.0054492406, -535792.8, 128316.914, 0.0, 10.000617, 9.999581 
1.9950968e+3, 2.4223419e+2, -474082.25, -589708.2, 42335.44, -0.117458165, 0.12974168, -460238.88, 105864.836, 0.0, 10.000779, 9.99924 
1.9951323e+3, 2.5223136e+2, -402869.25, -488797.84, 46440.43, -0.06440237, -0.12267393, -382567.1, 85558.875, 0.0, 10.000535, 9.99937 
1.9951679e+3, 2.6222914e+2, -365105.16, -459328.16, 59607.285, -0.044976357, -0.2512556, -336239.53, 33904.207, 0.000000042002604, 10.000292, 9.999019 
1.9952038e+3, 2.7223018e+2, -179123.47, -297833.34, 82604.51, -0.053072255, -0.09977482, -136760.6, 135375.98, 0.0000035134383, 10.000834, 9.999171 
1.9952394e+3, 2.8223062e+2, -92805.86, -347808.7, 33410.414, -0.040313244, 0.08961311, -88501.1, 85633.21, 0.00002820436, 10.001315, 9.997958 
1.995274e+3, 2.9222772e+2, 39369.766, -235925.47, 56029.18, -0.032365143, -0.034519326, 50336.195, 126498.34, 0.00011358975, 10.001586, 9.997901 
1.9953072e+3, 3.0222344e+2, 85222.25, -149910.88, 41981.44, -0.21133462, -0.2566217, 92492.94, 92492.94, 0.0002776181, 10.001375, 9.998277 
1.9953457e+3, 3.1222677e+2, 93263.805, -21785.773, 40140.42, 0.23084211, 0.14899492, 105884.26, 105884.26, 0.00049017585, 10.000873, 9.999369 
2.0046672e+3, 1.22204214e+2, -1876801.5, -1740866.1, 110497.05, -0.13585679, 0.22006226, -1679106.4, 63290.957, 0.27641812, 9.998512, 10.000631 
2.0047025e+3, 1.3219847e+2, -1762450.0, -1756376.5, -70587.086, -0.19645515, -0.3705473, -1688760.9, -44309.234, 0.1968332, 9.999261, 9.999359 
2.0047373e+3, 1.4220166e+2, -1672253.3, -1672576.4, 18761.512, -0.17192738, 0.033133246, -1653652.5, -107234.05, 0.11636926, 9.999253, 9.999277 
2.0047753e+3, 1.5219995e+2, -1501035.9, -1461917.3, 39752.79, 0.034205414, -0.15576202, -1437172.5, 11263.037, 0.05238356, 9.999436, 9.999957 
2.0048116e+3, 1.6219895e+2, -1416692.5, -1401760.0, 69062.555, 0.07930116, -0.2264317, -1339761.3, 10685.329, 0.015589432, 9.999442, 9.999708 
2.0048466e+3, 1.7220098e+2, -1253685.3, -1240608.5, 46627.11, -0.04135957, -0.047168497, -1200063.6, 52366.297, 0.0021699998, 9.999771, 9.999969 
2.0048824e+3, 1.8220223e+2, -1166247.3, -1203557.5, 29685.307, -0.07683288, 0.114994325, -1149842.0, 4577.8657, 0.00003871999, 9.999949, 9.999466 
2.0049188e+3, 1.9220139e+2, -969903.56, -1046230.4, 292.7334, -0.027628258, 0.04829281, -969902.44, 86525.05, 0.0, 10.000596, 9.999549 
2.0049548e+3, 2.0220019e+2, -861693.06, -988117.4, 9936.29, 0.021895897, 0.0028387615, -860916.9, 97521.09, 0.0, 10.000837, 9.999176 
2.0049913e+3, 2.1219848e+2, -830992.1, -902845.4, 24647.797, 0.06649477, -0.1256197, -823350.0, 37102.504, 0.0, 10.000306, 9.999332 
2.0050275e+3, 2.2219749e+2, -788091.1, -815377.25, 49405.492, 0.084144995, -0.14967301, -750479.56, 11981.42, 0.0, 9.999852, 9.999482 
2.0050626e+3, 2.3219867e+2, -638447.94, -656894.56, 27588.658, -0.022031369, -0.03280672, -618581.6, 45868.996, 0.0, 10.000075, 9.999777 
2.0050976e+3, 2.4219902e+2, -531930.2, -630358.7, 3349.789, -0.08490426, 0.062162165, -531816.3, 34630.902, 0.0, 10.000398, 9.999161 
2.0051329e+3, 2.5219682e+2, -386061.38, -497906.13, -26238.531, -0.061388105, -0.10998748, -380211.78, 88253.29, 0.0, 10.000713, 9.999225 
2.0051682e+3, 2.621951e+2, -282205.16, -412701.1, 12598.434, -0.046113364, -0.18571687, -281000.0, 89479.39, 0.000000029896977, 10.000802, 9.999104 
2.0052043e+3, 2.721955e+2, -228433.02, -311041.7, 13786.248, -0.038453903, -0.10796866, -226193.02, 46284.08, 0.0000031274246, 10.000399, 9.999311 
2.0052406e+3, 2.821958e+2, -211411.02, -378220.78, 24189.375, 0.018289324, 0.047099903, -207974.08, -33499.176, 0.000025154262, 10.00038, 9.998206 
2.005276e+3, 2.9219356e+2, 49129.8, -213733.22, 11401.478, 0.03814255, -0.02268072, 49623.406, 126118.695, 0.00009776422, 10.001577, 9.998061 
2.0053099e+3, 3.0218887e+2, 289507.9, 97.48525, -12738.16, -0.11941211, -0.31843954, 290067.5, 290067.5, 0.00024035014, 10.00255, 9.998757 
2.0053473e+3, 3.121922e+2, 200959.13, -92250.32, -112846.305, 0.25279573, 0.07364086, 239360.44, 239360.44, 0.00043376363, 10.002117, 9.998316 
2.0146683e+3, 1.2216594e+2, -1963901.8, -1945484.4, 189792.02, 0.049297385, 0.12675622, -1764677.8, -21906.203, 0.28771394, 9.998645, 9.9990425 
2.0147002e+3, 1.3216142e+2, -1663701.3, -1569010.9, -49615.297, -0.3828037, -0.4617049, -1547775.9, 97039.37, 0.20582092, 9.999272, 10.000793 
2.0147392e+3, 1.4216778e+2, -1617132.4, -1581560.8, 9122.638, 0.046106067, 0.15178353, -1579357.6, -32605.89, 0.12247417, 9.999346, 9.999861 
2.0147735e+3, 1.5216759e+2, -1476197.5, -1410714.9, 52154.04, -0.10173833, 0.07663855, -1381876.6, 66877.75, 0.055639356, 9.999436, 10.000324 
2.0148079e+3, 1.6216666e+2, -1410434.1, -1414296.8, 65480.18, -0.27145982, -0.0081788525, -1346856.8, 3907.48, 0.016791714, 9.999549, 9.999575 
2.0148462e+3, 1.7216562e+2, -1286218.0, -1301849.4, 68228.93, -0.0874772, -0.09395441, -1225358.6, 27415.813, 0.0023981123, 9.999749, 9.999558 
2.014884e+3, 1.821648e+2, -1182108.9, -1252727.5, 32214.28, 0.0552334, -0.10238335, -1169621.8, -14838.635, 0.000045425786, 10.000009, 9.999105 
2.0149194e+3, 1.9216475e+2, -1005626.44, -1104689.3, 31026.566, -0.02774006, -0.05285135, -996711.25, 60075.516, 0.0, 10.000528, 9.999181 
2.0149551e+3, 2.0216493e+2, -859993.94, -949512.75, -12172.308, -0.07541665, 0.048744474, -858368.3, 100418.75, 0.0, 10.000687, 9.999515 
2.0149916e+3, 2.1216555e+2, -823359.2, -837868.7, 14650.953, 0.057687085, 0.10145183, -814265.2, 46515.24, 0.0, 10.000098, 9.99988 
2.0150281e+3, 2.2216542e+2, -828159.94, -840514.5, 37954.49, 0.1275772, 0.13183708, -795883.3, -33102.77, 0.0, 9.999588, 9.999444 
2.0150632e+3, 2.3216355e+2, -675250.8, -701293.0, 51012.164, 0.03413619, -0.036975317, -635624.1, 29172.605, 0.0, 9.999919, 9.999556 
2.0150986e+3, 2.4216212e+2, -587588.2, -680010.1, 6366.1133, -0.039775774, -0.09788906, -587151.7, -20342.836, 0.0, 10.000123, 9.998949 
2.0151341e+3, 2.5216216e+2, -431979.63, -542443.5, -1337.8794, -0.023939984, -0.023729615, -431963.44, 36844.945, 0.0, 10.000502, 9.999021 
2.0151694e+3, 2.6216167e+2, -317978.94, -421167.6, -8352.493, -0.03760485, 0.03571582, -317307.22, 53505.25, 0.0000000091701935, 10.000522, 9.999181 
2.015205e+3, 2.721603e+2, -244502.64, -288540.25, 13974.492, -0.03633495, -0.08911269, -240442.45, 32381.207, 0.0000023642951, 10.000167, 9.999574 
2.0152414e+3, 2.8215942e+2, -247270.69, -381037.63, 31162.738, 0.02214132, -0.07450493, -240367.2, -65537.17, 0.000021595964, 10.000078, 9.998325 
2.015279e+3, 2.921584e+2, 17220.963, -224793.88, 76443.79, 0.14482431, -0.040563818, 39344.42, 116184.05, 0.000083873885, 10.001319, 9.998115 
2.0153137e+3, 3.0215526e+2, 184173.19, -95104.945, -30286.621, -0.028762063, -0.171697, 187419.9, 187419.9, 0.00020823472, 10.002048, 9.998327 
2.0153455e+3, 3.1215593e+2, 4986.646, -300144.8, -31051.389, -0.1702075, -0.0024460116, 8114.4956, 8114.4956, 0.00038339235, 10.001333, 9.997227 
2.024668e+3, 1.22128114e+2, -1899348.1, -1922780.3, 168009.67, 0.14007455, 0.13965371, -1742646.5, 498.22943, 0.29983783, 9.999156, 9.998931 
2.0247005e+3, 1.3212627e+2, -1738406.4, -1459497.0, -80808.945, -0.19231263, -0.31583747, -1437775.6, 207385.63, 0.21537028, 9.998036, 10.002333 
2.0247382e+3, 1.42132e+2, -1676395.0, -1564237.4, 17192.912, 0.055024974, 0.115104735, -1561661.0, -14557.761, 0.12892798, 9.998727, 10.000283 
2.0247726e+3, 1.5213269e+2, -1498287.1, -1443481.6, -9614.307, -0.11971166, 0.13908401, -1441844.0, 7254.703, 0.05909158, 9.999378, 10.000112 
2.0248075e+3, 1.6213208e+2, -1435497.6, -1430805.5, -15378.707, -0.24817555, 0.10238004, -1417594.9, -66488.76, 0.018083457, 9.999434, 9.9994955 
2.024846e+3, 1.7213033e+2, -1369759.6, -1348859.5, -17869.879, -0.04905932, -0.04485138, -1338608.4, -85485.75, 0.0026487417, 9.999252, 9.999454 
2.024884e+3, 1.821291e+2, -1320001.1, -1296856.9, 8369.839, 0.105695546, -0.09598639, -1294147.3, -139012.64, 0.000052423693, 9.998966, 9.999298 
2.0249194e+3, 1.9212916e+2, -1196553.4, -1169925.3, 37405.87, -0.0017528747, -0.059760448, -1143534.6, -86398.945, 0.0, 9.999087, 9.999426 
2.0249552e+3, 2.0212962e+2, -1054933.8, -1020130.9, 36969.58, -0.042513724, 0.0428619, -996672.06, -37539.453, 0.0, 9.999252, 9.999709 
2.0249918e+3, 2.1213076e+2, -848859.75, -836364.7, 3512.1956, 0.09012742, 0.13095014, -835445.1, 25676.693, 0.0, 9.999859, 9.999996 
2.0250283e+3, 2.2213084e+2, -724835.44, -798490.0, 39623.766, 0.17752974, 0.1740223, -707567.5, 55552.992, 0.0, 10.000329, 9.999368 
2.025064e+3, 2.3212841e+2, -592562.9, -676692.4, 39304.613, 0.08776435, -0.034530215, -577057.7, 88083.57, 0.0, 10.000559, 9.999404 
2.0250995e+3, 2.4212676e+2, -514710.34, -642597.75, 19168.416, 0.03712759, -0.11052272, -511899.1, 55256.25, 0.0, 10.000634, 9.998944 
2.0251353e+3, 2.521273e+2, -443308.03, -550079.3, -933.24023, 0.061439592, 0.01293109, -443299.88, 25851.242, 0.0, 10.000441, 9.998989 
2.0251709e+3, 2.621269e+2, -357846.66, -489753.03, 16340.886, 0.07620907, 0.09870952, -355852.44, 15302.746, 0.000000001074916, 10.000465, 9.998735 
2.0252062e+3, 2.7212447e+2, -150162.98, -307726.97, -52051.15, 0.04310655, -0.06607199, -134520.81, 138656.11, 0.0000018159459, 10.001123, 9.998969 
2.0252423e+3, 2.821229e+2, -39386.79, -260652.88, -50144.19, 0.061654467, -0.086617455, -28553.332, 146637.05, 0.000018189116, 10.001391, 9.998529 
2.0252797e+3, 2.921228e+2, -93937.67, -204009.39, -14280.747, 0.15142913, -0.0083897915, -92115.06, -14924.13, 0.000072171526, 10.000243, 9.998768 
2.0253164e+3, 3.0212063e+2, -47947.49, -224577.75, -10864.253, 0.1385136, -0.07459889, -47281.754, -47281.754, 0.00017992329, 10.000447, 9.998251 
2.0253474e+3, 3.1212002e+2, 367018.28, -58373.023, -80942.734, -0.19838442, 0.0005305871, 381899.38, 381899.38, 0.00033564065, 10.003439, 9.997915 
2.034664e+3, 1.22089565e+2, -1756299.3, -1693747.0, -43158.906, -0.26814482, 0.09889804, -1671723.1, 71805.79, 0.3135409, 9.99936, 10.0006 
2.0347036e+3, 1.3209334e+2, -1619540.9, -1284592.1, -55475.645, 0.27353162, 0.09668083, -1275643.1, 369843.97, 0.22593072, 9.998132, 10.003856 
2.0347334e+3, 1.4209402e+2, -1632772.4, -1522957.9, 29814.549, -0.3507706, -0.10086945, -1515385.4, 32091.646, 0.13594478, 9.998914, 10.000511 
2.0347722e+3, 1.5209505e+2, -1545713.6, -1548787.5, 14673.449, -0.12719114, 0.016479954, -1532496.9, -83026.016, 0.06282382, 9.999409, 9.999367 
2.03481e+3, 1.6209501e+2, -1429323.1, -1439562.1, -37782.504, 0.01617294, 0.09020949, -1396314.9, -44840.336, 0.019494196, 9.999522, 9.999395 
2.0348457e+3, 1.72095e+2, -1347171.9, -1311944.0, -17451.51, -0.040171877, 0.09830907, -1304762.6, -51286.633, 0.0029308582, 9.999285, 9.999694 
2.0348814e+3, 1.8209511e+2, -1264022.9, -1187964.3, -2682.919, -0.08275774, 0.1355146, -1187869.6, -32395.006, 0.00006041413, 9.999001, 10.000031 
2.034918e+3, 1.9209476e+2, -1146486.5, -1041009.44, 52033.117, -0.058516193, 0.041839816, -1019661.56, 37811.94, 0.0, 9.998985, 10.0003605 
2.0349549e+3, 2.0209432e+2, -1074958.1, -1024882.2, 41883.977, -0.0319935, -0.005375523, -1001123.0, -41648.74, 0.0, 9.999099, 9.99975 
2.0349914e+3, 2.1209402e+2, -895175.4, -889728.9, 38669.33, 0.049493663, -0.034805123, -853687.0, 7790.423, 0.0, 9.999675, 9.999721 
2.0350279e+3, 2.2209366e+2, -774980.1, -830274.75, 41785.777, 0.080966555, -0.01613477, -752523.3, 10958.013, 0.0, 10.000031, 9.999287 
2.035064e+3, 2.3209323e+2, -633595.3, -702845.94, 63152.09, 0.02334203, -0.02250453, -596199.1, 69285.586, 0.0, 10.000315, 9.999337 
2.0351002e+3, 2.4209274e+2, -550323.06, -651652.9, 3740.2583, -0.00993512, 0.018292243, -550185.2, 17303.465, 0.0, 10.000355, 9.999019 
2.0351359e+3, 2.520921e+2, -456243.25, -539064.3, 927.1561, 0.0792886, 0.009897685, -456232.88, 13261.283, 0.0, 10.000272, 9.99915 
2.0351721e+3, 2.620907e+2, -476778.6, -665261.6, 18451.61, 0.1293848, 0.023296218, -474989.28, -103481.37, 0.000000023664393, 10.0001745, 9.9976635 
2.0352077e+3, 2.7208763e+2, -289466.1, -550529.75, -8891.434, 0.064132646, -0.063023895, -289163.63, -15623.324, 0.0000019634658, 10.0009165, 9.997403 
2.035243e+3, 2.8208578e+2, -75458.73, -248931.42, -90819.41, -0.027052844, -0.02532768, -36611.004, 138949.2, 0.000016146072, 10.001038, 9.998774 
2.0352781e+3, 2.9208672e+2, -54602.086, -64933.063, -37730.344, -0.06003188, 0.07369963, -21685.28, 55863.98, 0.00006227005, 9.999987, 9.999852 
2.035317e+3, 3.0208492e+2, -141045.38, -274327.03, 48214.04, 0.13126193, -0.0102029545, -125432.98, -125432.98, 0.00015436458, 9.999866, 9.99817 
2.0353529e+3, 3.1208235e+2, 425314.8, 259949.23, 56960.813, -0.055254642, -0.1430372, 443036.1, 443036.1, 0.0002908974, 10.002647, 10.000456 
2.044662e+3, 1.220523e+2, -1872413.0, -1703920.1, -4047.449, -0.33908945, -0.058137022, -1703823.0, 40072.49, 0.3294151, 9.998347, 10.000988 
2.0447032e+3, 1.3205978e+2, -1673308.8, -1332133.5, 22968.875, 0.46516576, 0.34880853, -1330594.1, 315223.7, 0.23787552, 9.997857, 10.003614 
2.0447315e+3, 1.420569e+2, -1627847.3, -1512921.0, 58049.64, -0.4002278, -0.19196305, -1488703.3, 59139.477, 0.14372098, 9.998925, 10.000592 
2.044772e+3, 1.5205844e+2, -1487601.5, -1506664.5, 52215.867, -0.08848365, -0.035205465, -1444054.3, 5777.088, 0.06692591, 9.999766, 9.9994755 
2.0448108e+3, 1.6205911e+2, -1361992.0, -1410739.6, 40698.855, 0.1378271, 0.099902935, -1338926.6, 12901.739, 0.021061258, 9.999986, 9.999377 
2.0448452e+3, 1.7205954e+2, -1308955.1, -1306454.9, 5560.682, -0.0024734251, 0.15802005, -1302005.5, -48178.895, 0.003256253, 9.999592, 9.999593 
2.0448802e+3, 1.8205978e+2, -1228364.5, -1162577.6, 21496.072, -0.08304463, 0.21608208, -1156176.5, -352.56018, 0.00007088071, 9.999219, 10.000098 
2.0449175e+3, 1.9205873e+2, -1038248.6, -968780.56, 1310.8624, -0.037200734, 0.03619086, -968755.8, 89070.88, 0.0, 9.999659, 10.000523 
2.0449546e+3, 2.0205767e+2, -951647.4, -981787.75, -23348.879, 0.01335237, -0.07600164, -938927.6, 20903.902, 0.0, 9.999992, 9.999631 
2.0449914e+3, 2.1205741e+2, -825529.8, -874577.44, -47247.14, 0.057924144, -0.082705244, -796821.0, 65014.766, 0.0, 10.000235, 9.9995575 
2.045028e+3, 2.2205731e+2, -731631.7, -815613.25, -28534.154, 0.08914204, -0.024444535, -722854.1, 40984.125, 0.0, 10.0003395, 9.999254 
2.0450644e+3, 2.3205712e+2, -644189.0, -707235.0, -29542.64, 0.056187358, -0.0051563624, -632509.4, 33329.996, 0.0, 10.000219, 9.999365 
2.0451008e+3, 2.4205667e+2, -561389.75, -645893.9, -53835.49, 0.042020805, 0.035401978, -535205.75, 32636.902, 0.0, 10.000216, 9.999136 
2.0451362e+3, 2.5205573e+2, -395092.78, -489170.47, -80850.86, 0.072927535, -0.014871093, -348592.78, 121256.79, 0.0, 10.000605, 9.999333 
2.0451723e+3, 2.620542e+2, -353133.38, -609313.1, 2835.3833, 0.116307914, -0.025252085, -353102.0, 18761.484, 0.00000011200642, 10.001016, 9.997646 
2.0452094e+3, 2.720513e+2, -220309.42, -536163.3, 44917.336, 0.1287954, -0.08139245, -214045.97, 59848.477, 0.000002326167, 10.00146, 9.997242 
2.0452452e+3, 2.8204927e+2, 6885.2163, -225431.02, 5576.3325, 0.063659154, -0.045952942, 7018.9893, 182935.56, 0.000014696717, 10.001658, 9.998637 
2.0452783e+3, 2.9204968e+2, 95441.82, -5263.29, -72992.79, -0.08590582, 0.020839749, 133764.67, 211677.48, 0.00005375532, 10.001087, 9.999725 
2.0453176e+3, 3.0204907e+2, 45803.984, -129169.086, 98104.69, 0.18259464, 0.04466883, 89764.87, 89764.87, 0.00013253847, 10.000901, 9.998657 
2.0453562e+3, 3.1204662e+2, 262247.47, 255467.42, -22469.105, 0.11695913, -0.12762384, 281580.84, 281580.84, 0.0002539401, 10.001151, 10.001149 
2.0546617e+3, 1.2201864e+2, -1950024.8, -1902354.4, -214859.03, -0.28806219, -0.1563247, -1710012.5, 34208.242, 0.3476065, 9.998593, 9.999457 
2.0546985e+3, 1.3202573e+2, -1818666.3, -1570291.6, 88223.0, 0.1614695, 0.42194948, -1542144.5, 104007.63, 0.2513395, 9.997892, 10.001507 
2.0547324e+3, 1.4202091e+2, -1622270.6, -1531482.1, 83445.49, -0.26589233, -0.16201918, -1481882.8, 66315.61, 0.15236652, 9.999065, 10.0004 
2.0547715e+3, 1.5202318e+2, -1412892.8, -1369019.3, 90418.82, -0.14075005, -0.008358116, -1297914.1, 152263.08, 0.071473114, 9.999839, 10.000438 
2.0548093e+3, 1.6202453e+2, -1346907.3, -1417400.1, 20961.834, -0.05883735, 0.13675082, -1341145.0, 11020.678, 0.022826005, 10.000135, 9.999267 
2.0548445e+3, 1.7202392e+2, -1341655.8, -1377580.9, -3463.5964, -0.051168833, 0.13816364, -1341324.9, -87150.766, 0.0036400491, 9.9995985, 9.9991045 
2.0548801e+3, 1.8202291e+2, -1263855.6, -1256741.1, 16680.602, -0.047389388, 0.12861963, -1243242.6, -87058.47, 0.00008593674, 9.999291, 9.999426 
2.0549172e+3, 1.920208e+2, -1085338.8, -1066002.0, 28058.193, -0.062107094, -0.09262242, -1045993.1, 12205.032, 0.0, 9.999637, 9.999875 
2.0549542e+3, 2.0201944e+2, -993045.5, -1036715.44, -24844.588, -0.06708059, -0.18443103, -981804.5, -21597.416, 0.0, 9.999861, 9.999316 
2.0549913e+3, 2.1202074e+2, -867035.6, -915258.9, -26725.475, -0.0024877877, -0.018075492, -855152.5, 7046.1206, 0.0, 10.000033, 9.999375 
2.0550281e+3, 2.2202145e+2, -778746.94, -842215.3, -41577.348, 0.047678385, 0.13407929, -758176.9, 6017.6714, 0.0, 10.000043, 9.99921 
2.0550649e+3, 2.3201998e+2, -671203.6, -712226.4, -21260.5, 0.0649277, 0.019244254, -662173.06, 4033.4714, 0.0, 10.000003, 9.999434 
2.0551011e+3, 2.4201854e+2, -601437.9, -649645.56, -57053.945, 0.036768623, -0.048528437, -563605.06, 4612.5234, 0.0, 9.999888, 9.99926 
2.0551355e+3, 2.52018e+2, -420841.2, -481950.0, -50744.77, -0.06987795, -0.07694015, -392162.13, 78057.29, 0.0, 10.000357, 9.999496 
2.0551714e+3, 2.6201722e+2, -338844.0, -504056.03, 5929.6797, -0.10127291, -0.058832094, -338631.47, 33592.723, 0.00000017468948, 10.000696, 9.99852 
2.0552109e+3, 2.7201527e+2, -178293.72, -395939.22, 76189.49, 0.1034006, -0.12519975, -154273.6, 119968.07, 0.0000023499456, 10.001223, 9.9983225 
2.0552479e+3, 2.8201315e+2, -111235.234, -364944.72, -20365.477, 0.14231569, -0.1348777, -109610.88, 66651.59, 0.000012296112, 10.00122, 9.997884 
2.0552793e+3, 2.9201147e+2, -38933.906, -224008.88, -74293.72, -0.108376525, -0.16728859, -12800.662, 65482.992, 0.000044415407, 10.000826, 9.998346 
2.0553176e+3, 3.0201212e+2, 20128.518, -57215.125, 81747.14, 0.06191687, 0.027058925, 71889.57, 71889.57, 0.00011238554, 10.000401, 9.999375 
2.0553572e+3, 3.1201205e+2, 37495.996, -10238.625, -85700.2, 0.04567511, -0.026984962, 102590.32, 102590.32, 0.00022337346, 10.000333, 9.999699 
2.0646621e+3, 1.2198411e+2, -2044410.6, -2010619.9, -271358.44, -0.064627364, -0.16775925, -1755631.4, -11073.394, 0.36771804, 9.998176, 9.998831 
2.0646968e+3, 1.3198988e+2, -1469862.4, -1503457.6, 34943.652, 0.06557129, 0.35796902, -1447888.6, 198615.3, 0.26616043, 10.001155, 10.0005245 
2.0647329e+3, 1.419854e+2, -1607735.6, -1572475.0, 102701.25, -0.12519015, -0.10887801, -1485901.8, 62645.367, 0.1618756, 9.999373, 9.999966 
2.064771e+3, 1.5198725e+2, -1568948.9, -1434798.0, 40606.527, -0.1188559, 0.0017316162, -1423464.1, 27065.139, 0.07651462, 9.99869, 10.000513 
2.0648082e+3, 1.6198863e+2, -1558535.8, -1507581.9, -27173.352, -0.09640345, 0.1407217, -1495810.0, -143293.34, 0.024829434, 9.998658, 9.99934 
2.0648445e+3, 1.7198771e+2, -1227397.4, -1313111.6, -32218.102, -0.04186487, 0.10330737, -1216638.0, 37889.676, 0.0041003036, 10.000365, 9.999159 
2.0648809e+3, 1.8198644e+2, -1006725.8, -1153321.6, 23673.004, 0.01353806, 0.069746055, -1002997.75, 153542.66, 0.000108260756, 10.001157, 9.999223 
2.0649175e+3, 1.9198482e+2, -1061341.9, -1083814.8, 26376.158, -0.006994696, -0.07248503, -1043908.5, 14642.589, 0.0, 9.999937, 9.9996 
2.064954e+3, 2.0198376e+2, -1115293.6, -1129086.4, 45298.938, -0.0039151697, -0.105048396, -1076369.1, -115810.55, 0.0, 9.9991665, 9.99901 
2.0649917e+3, 2.1198441e+2, -829921.44, -934548.2, 22445.846, 0.03823016, 0.028821332, -825309.4, 37247.38, 0.0, 10.000457, 9.999034 
2.0650288e+3, 2.2198454e+2, -594608.75, -760973.2, -5540.8706, 0.07204212, 0.14961666, -594424.4, 170133.97, 0.0, 10.001329, 9.999152 
2.0650649e+3, 2.3198313e+2, -573662.6, -654879.06, -24057.139, 0.06009019, 0.03579261, -567071.56, 99497.7, 0.0, 10.000641, 9.999513 
2.0651011e+3, 2.419818e+2, -569910.06, -664465.25, -20346.162, 0.046005476, -0.016643796, -565717.94, 2861.1152, 0.0, 10.000231, 9.998993 
2.0651367e+3, 2.5198084e+2, -368789.03, -501095.16, -71983.02, 0.00080859393, -0.047225323, -337178.2, 133407.6, 0.0, 10.000906, 9.999095 
2.0651731e+3, 2.619798e+2, -224947.75, -374951.78, -48999.09, -0.0021721094, -0.053386033, -210360.63, 162232.33, 0.00000012472299, 10.001145, 9.999197 
2.0652112e+3, 2.7197862e+2, -258462.77, -297826.38, -13594.4375, 0.08355928, -0.15225008, -254224.23, 20375.523, 0.0000018192295, 10.000087, 9.999541 
2.0652477e+3, 2.8197742e+2, -343965.2, -485641.47, -30052.98, 0.11959314, -0.14937085, -337853.84, -161244.44, 0.000008845643, 9.999649, 9.997819 
2.0652813e+3, 2.9197586e+2, -58133.965, -313975.72, -75913.67, 0.020608258, -0.10457718, -37304.594, 41327.098, 0.000033872344, 10.001052, 9.997618 
2.0653188e+3, 3.0197513e+2, 287284.34, 93451.99, 100446.05, 0.09105015, -0.013346314, 329946.66, 329946.66, 0.00009226449, 10.002078, 9.999646 
2.0653574e+3, 3.1197536e+2, 103190.65, 1040.8748, -276602.56, 0.03135702, -0.07166071, 333394.3, 333394.3, 0.00019361054, 10.000839, 9.999563 
2.0746619e+3, 1.219494e+2, -2019916.1, -1987223.5, 20708.875, 0.004837885, -0.00124256, -1977186.9, -232285.84, 0.38886976, 9.998309, 9.998917 
2.074698e+3, 1.3195193e+2, -1436674.8, -1466997.9, 1863.9354, 0.03896133, 0.14362442, -1436560.6, 210315.39, 0.28190908, 10.001359, 10.000815 
2.0747325e+3, 1.4195028e+2, -1624149.0, -1642607.6, 33398.133, -0.15706582, -0.02662915, -1598728.4, -49838.563, 0.17213808, 9.999513, 9.999371 
2.0747696e+3, 1.5195054e+2, -1618200.1, -1537242.0, 26408.512, -0.15265372, -0.0053294455, -1529389.3, -78499.97, 0.08207624, 9.998705, 9.999785 
2.0748068e+3, 1.6195123e+2, -1528142.6, -1462503.6, 1816.9941, -0.12682287, 0.10240163, -1462453.4, -109569.36, 0.027111659, 9.998733, 9.999615 
2.0748447e+3, 1.7195083e+2, -1178903.3, -1213431.8, 43103.293, -0.0833, 0.055960476, -1149735.4, 105152.6, 0.0046569863, 10.000375, 9.999837 
2.0748818e+3, 1.8195039e+2, -977443.3, -1116029.9, -6425.2397, -0.04216394, 0.054250266, -977146.06, 179745.72, 0.00014131474, 10.001259, 9.999429 
2.0749177e+3, 1.9195077e+2, -1070494.0, -1088621.4, -18628.195, 0.020874064, 0.107334405, -1058841.6, 44.446598, 0.0000000002137382, 9.999876, 9.999598 
2.074954e+3, 2.0195054e+2, -1158801.8, -1188856.1, 51614.668, 0.06010314, 0.1667984, -1120071.1, -159183.84, 0.0, 9.999026, 9.998671 
2.0749924e+3, 2.1194825e+2, -889618.0, -1017346.6, 89418.75, 0.060234867, 0.05497974, -843598.9, 19313.242, 0.0, 10.000274, 9.998556 
2.07503e+3, 2.2194642e+2, -649172.3, -796741.6, -17823.727, 0.023805656, 0.009773293, -647050.06, 117881.54, 0.0, 10.001013, 9.99905 
2.0750645e+3, 2.319465e+2, -608547.94, -665972.1, -39787.48, -0.070209414, 0.043167505, -588194.5, 78734.07, 0.0, 10.000396, 9.999549 
2.0751001e+3, 2.4194624e+2, -665556.06, -787828.6, -20561.568, -0.08921287, 0.116031505, -662191.0, -93261.445, 0.0, 9.999911, 9.998297 
2.0751394e+3, 2.5194412e+2, -473984.44, -668562.5, -31159.428, 0.14732443, 0.06964569, -469116.4, 1834.0658, 0.0, 10.00069, 9.998046 
2.075177e+3, 2.6194197e+2, -243992.48, -329333.4, -85366.1, 0.23484845, 0.005585813, -191226.38, 181743.64, 0.000000021824269, 10.00079, 9.99968 
2.0752099e+3, 2.719411e+2, -201475.97, -125959.46, -40992.63, -0.0585223, -0.17263386, -107985.484, 166984.98, 0.00000084431264, 9.999867, 10.000827 
2.0752446e+3, 2.819415e+2, -368150.47, -451713.97, -23929.984, -0.18515958, -0.11828215, -361782.88, -184820.47, 0.000005133315, 9.999303, 9.998212 
2.075284e+3, 2.9194224e+2, -122502.4, -387066.38, 1834.9069, 0.14460868, 0.16398548, -122489.68, -43526.945, 0.000023723636, 10.000773, 9.997255 
2.0753211e+3, 3.0193806e+2, 157112.39, -4117.7646, 63848.56, 0.05087954, -0.04455557, 179334.22, 179334.22, 0.00007269807, 10.001395, 9.999274 
2.0753552e+3, 3.11938e+2, 23070.05, 49304.805, -263419.9, -0.32501134, -0.13606445, 299933.72, 299933.72, 0.00016065389, 10.000015, 10.000247 
2.0846608e+3, 1.2191322e+2, -1966784.9, -1923067.1, 114311.14, 0.10007627, 0.11540276, -1828543.6, -83284.07, 0.40993002, 9.998539, 9.999226 
2.0846975e+3, 1.3191426e+2, -1791426.5, -1610857.4, -96550.65, 0.017138287, 0.078538515, -1568955.3, 78291.41, 0.29801235, 9.998309, 10.000995 
2.0847324e+3, 1.4191395e+2, -1642303.1, -1653445.0, -39302.707, -0.079137504, 0.021541748, -1608178.5, -58932.027, 0.18298064, 9.999432, 9.999322 
2.084769e+3, 1.5191334e+2, -1480303.8, -1516447.8, -40766.242, -0.1188467, -0.005009542, -1453783.4, -2529.1128, 0.088167645, 9.999856, 9.999373 
2.0848064e+3, 1.6191362e+2, -1396919.3, -1420777.0, -15017.403, -0.092577964, 0.095695816, -1389669.5, -36416.082, 0.029713616, 9.999709, 9.99945 
2.0848444e+3, 1.7191322e+2, -1365319.4, -1310848.9, -47686.16, -0.0692974, 0.056226302, -1283168.4, -27910.004, 0.005333032, 9.999105, 9.999798 
2.0848821e+3, 1.8191287e+2, -1338658.9, -1275164.8, -131698.94, -0.018994017, 0.06374524, -1171440.5, -14178.236, 0.00018960002, 9.998715, 9.999576 
2.0849182e+3, 1.9191374e+2, -1043502.7, -1052118.4, -157860.33, 0.072189964, 0.14985561, -889891.44, 169360.69, 0.000000020895914, 9.999967, 9.999808 
2.0849545e+3, 2.0191385e+2, -907347.8, -1027060.56, -33381.3, 0.13897994, 0.2202044, -898668.8, 62580.902, 0.0, 10.000618, 9.998997 
2.0849927e+3, 2.1191141e+2, -938839.2, -996829.1, 39432.047, 0.094355136, 0.056724757, -918889.3, -55615.96, 0.0, 9.999774, 9.99892 
2.0850301e+3, 2.2190943e+2, -898870.9, -933406.8, -5111.136, 0.039810542, -0.01912191, -898130.3, -132838.3, 0.0, 9.999342, 9.998935 
2.085065e+3, 2.3190957e+2, -608853.2, -701818.9, -72648.78, -0.055566072, 0.04738762, -569089.3, 98200.26, 0.0, 10.000515, 9.999262 
2.085101e+3, 2.4190924e+2, -462642.34, -682941.56, -30046.848, -0.04202346, 0.12924106, -458617.75, 110673.95, 0.0, 10.001262, 9.998369 
2.0851406e+3, 2.5190678e+2, -468640.8, -646618.5, 18426.643, 0.23233718, 0.03254357, -466753.06, 4562.0557, 0.0, 10.000628, 9.998234 
2.0851785e+3, 2.6190472e+2, -333286.25, -379378.63, 30744.574, 0.34295276, -0.03260297, -317909.06, 55424.582, 0.0, 10.000214, 9.999612 
2.0852104e+3, 2.7190486e+2, -96690.82, -103241.08, -55774.504, -0.030420607, -0.09079278, -44095.37, 231232.48, 0.000000115745564, 10.000722, 10.000566 
2.0852451e+3, 2.819053e+2, -75099.086, -274250.94, -69672.25, -0.14687768, -0.018971004, -53144.82, 124175.4, 0.0000020138657, 10.001137, 9.998551 
2.085286e+3, 2.9190484e+2, -63337.434, -274291.63, -26256.797, 0.27794662, 0.089302234, -60118.453, 19208.334, 0.000014504671, 10.000831, 9.997996 
2.0853218e+3, 3.0190185e+2, 98039.8, -38555.094, 132296.89, 0.05544655, -0.06168377, 178628.25, 178628.25, 0.00005340342, 10.000941, 9.999285 
2.0853567e+3, 3.1190136e+2, 293960.94, 41065.62, -249879.58, -0.27048936, -0.13451274, 447564.72, 447564.72, 0.0001257325, 10.002326, 9.999131 
2.0946582e+3, 1.2187343e+2, -1890338.9, -1798736.1, -35783.973, -0.12797476, -0.011358855, -1786414.8, -40759.73, 0.42994058, 9.998675, 10.000027 
2.0946945e+3, 1.3187677e+2, -1779162.1, -1584250.9, -47952.484, -0.15084043, 0.18003844, -1573092.3, 74524.69, 0.31401625, 9.998265, 10.001231 
2.0947327e+3, 1.4187618e+2, -1586339.6, -1568765.8, -26254.451, -0.06841342, 0.042398408, -1549866.9, -247.7655, 0.19429262, 9.999549, 9.999856 
2.0947687e+3, 1.5187564e+2, -1472692.3, -1520884.0, -21602.701, -0.15401153, 0.016622705, -1464426.3, -12801.328, 0.094824284, 9.999936, 9.999309 
2.0948058e+3, 1.6187578e+2, -1414757.8, -1500201.9, -50125.45, -0.1683192, 0.13251291, -1391618.4, -37993.02, 0.032688897, 9.999885, 9.998821 
2.0948432e+3, 1.7187488e+2, -1421369.1, -1431300.1, -69168.41, -0.11719101, 0.12341099, -1356988.3, -101349.23, 0.0061590113, 9.999118, 9.998966 
2.0948806e+3, 1.8187387e+2, -1326830.3, -1262829.3, -120073.79, -0.073259994, 0.11627347, -1170564.9, -12913.007, 0.00026052183, 9.998764, 9.999637 
2.0949177e+3, 1.9187374e+2, -1020031.7, -993034.3, -99733.95, 0.022246143, 0.06409246, -905889.7, 153759.94, 0.00000016154512, 9.99992, 10.000236 
2.0949548e+3, 2.018737e+2, -867353.1, -912196.1, -57453.03, 0.0801489, 0.05976348, -828101.5, 133544.64, 0.0, 10.000483, 9.999847 
2.094992e+3, 2.1187373e+2, -897718.4, -860829.75, 12476.552, 0.024902975, 0.04111469, -857006.2, 6635.6924, 0.0, 9.999563, 9.999949 
2.095029e+3, 2.2187346e+2, -947406.06, -967426.2, 5827.7583, -0.03434425, 0.06840538, -945833.2, -180191.77, 0.0, 9.999055, 9.998837 
2.0950659e+3, 2.3187229e+2, -686474.94, -808483.06, -11350.669, -0.030903663, 0.058865447, -685428.0, -17775.318, 0.0, 10.000279, 9.998643 
2.095103e+3, 2.4187084e+2, -458340.56, -594591.25, -45785.625, 0.01206724, 0.041701864, -444384.3, 125281.31, 0.0, 10.000922, 9.999138 
2.0951407e+3, 2.5186884e+2, -398677.25, -456441.66, 4302.086, 0.14571287, -0.1413071, -398358.6, 73321.305, 0.0, 10.00043, 9.999638 
2.095177e+3, 2.618679e+2, -424986.78, -500336.5, 22954.885, 0.16084656, -0.16460967, -418544.5, -44858.652, 0.0, 9.9999275, 9.998914 
2.0952119e+3, 2.7186945e+2, -255933.31, -379192.5, -19063.025, 0.016514115, 0.07198655, -253052.39, 22623.012, 0.0, 10.000487, 9.998779 
2.0952486e+3, 2.818688e+2, -129713.9, -280681.13, -87453.97, 0.0413823, 0.14998908, -89672.74, 88011.07, 0.00000039293647, 10.000688, 9.998722 
2.0952868e+3, 2.9186413e+2, 7511.365, -59845.863, -16344.279, 0.26993722, -0.2813854, 11267.822, 90988.55, 0.000007667558, 10.000545, 9.999607 
2.0953208e+3, 3.018652e+2, 2435.4067, -64244.645, 140761.42, -0.17029002, -0.1570821, 113751.305, 113751.305, 0.000037309022, 10.000258, 9.999413 
2.0953618e+3, 3.1186473e+2, 5213.066, -314907.47, 17581.666, -0.07396062, -0.14338984, 6175.7915, 6175.7915, 0.00009614077, 10.001369, 9.9971075 
2.1046579e+3, 1.21836945e+2, -1722161.9, -1570016.3, 45370.85, 0.0070047383, 0.20527974, -1557513.8, 188500.86, 0.44859928, 9.998739, 10.002538 
2.1046934e+3, 1.3183846e+2, -1773652.5, -1639336.9, -57031.58, -0.08086446, 0.20802963, -1618388.1, 29605.969, 0.3298663, 9.998605, 10.000572 
2.1047309e+3, 1.4183743e+2, -1787009.3, -1653637.1, -69963.52, -0.09883722, 0.07316723, -1623669.6, -73668.29, 0.20615475, 9.998136, 9.999943 
2.1047686e+3, 1.5183738e+2, -1569123.0, -1496596.1, -63358.695, -0.12316355, 0.041724365, -1459857.0, -7856.314, 0.10215144, 9.999006, 9.9999 
2.1048059e+3, 1.618375e+2, -1470343.5, -1491304.5, -36497.82, -0.11559425, 0.106408864, -1442851.3, -88851.266, 0.036114734, 9.999358, 9.999119 
2.1048425e+3, 1.7183724e+2, -1410741.8, -1398977.0, -10621.302, -0.09311797, 0.13342357, -1392718.0, -136710.52, 0.007176738, 9.999075, 9.999197 
2.1048795e+3, 1.8183687e+2, -1313693.5, -1250479.6, 53948.383, -0.04452566, 0.16874573, -1219561.1, -61546.89, 0.0003661867, 9.998832, 9.999685 
2.1049175e+3, 1.918362e+2, -1072591.1, -1022251.4, 38357.758, 0.033417173, 0.06667079, -1001542.7, 58474.563, 0.00000091193453, 9.999588, 10.000189 
2.1049553e+3, 2.0183574e+2, -904921.2, -936959.8, 18668.922, 0.09305069, 0.024478683, -896340.75, 65676.875, 0.0, 10.000206, 9.999835 
2.104992e+3, 2.1183582e+2, -765563.94, -807019.44, -25401.293, 0.030621797, 0.013741741, -753506.5, 110505.38, 0.0, 10.000461, 9.999921 
2.1050288e+3, 2.2183564e+2, -734769.8, -840709.9, -28233.545, -0.00044905988, 0.047097657, -727715.2, 38294.41, 0.0, 10.000434, 9.999026 
2.1050669e+3, 2.3183435e+2, -661586.5, -765518.06, -6079.118, 0.055098344, 0.0007008109, -661232.1, 6789.438, 0.0, 10.000338, 9.998892 
2.1051048e+3, 2.4183284e+2, -534289.8, -611136.6, -17308.805, 0.13570361, -0.04329854, -530571.2, 39463.64, 0.0, 10.000308, 9.999328 
2.1051411e+3, 2.518313e+2, -404676.56, -437614.3, -85788.16, 0.16864018, -0.1962794, -333790.8, 138254.39, 0.0, 10.000311, 9.999819 
2.105177e+3, 2.618307e+2, -380938.34, -528636.44, -76591.875, 0.15055206, -0.18315126, -348391.9, 25657.225, 0.0, 10.000419, 9.998494 
2.105213e+3, 2.7183178e+2, -254781.75, -455986.47, -70146.51, 0.07864751, 0.0804071, -232740.86, 43304.844, 0.0, 10.000817, 9.998097 
2.1052502e+3, 2.8183076e+2, -39399.023, -214479.6, -62917.066, 0.1418182, 0.15948689, -19134.584, 158924.48, 0.00000006547354, 10.001242, 9.998893 
2.1052879e+3, 2.918259e+2, 154513.9, 52743.01, -108896.6, 0.28807515, -0.3227003, 223827.45, 303922.94, 0.000004738257, 10.001406, 9.999957 
2.105323e+3, 3.0182725e+2, 139307.0, -70241.32, 6437.3164, -0.026451554, -0.15814802, 139504.58, 139504.58, 0.00002905632, 10.00148, 9.998787 
2.1053642e+3, 3.118254e+2, 118074.81, -154564.23, -130516.89, 0.060177606, -0.20432419, 170481.73, 170481.73, 0.00007991688, 10.001657, 9.9980755 
2.1146587e+3, 1.218014e+2, -1567342.4, -1263900.0, 140348.36, 0.0994268, 0.47050273, -1208940.4, 537420.7, 0.46656317, 9.998825, 10.006506 
2.1146941e+3, 1.317993e+2, -1879718.5, -1874884.8, -88902.45, 0.07841976, 0.14822312, -1788366.4, -139988.75, 0.34608045, 9.998712, 9.998811 
2.1147268e+3, 1.4179738e+2, -1802344.9, -1727159.4, -61384.215, -0.37714255, 0.08568887, -1692771.3, -142374.88, 0.21890919, 9.998302, 9.999361 
2.1147673e+3, 1.517984e+2, -1463462.5, -1317640.1, -22346.848, -0.16183922, 0.064050086, -1314292.4, 138091.03, 0.110347085, 9.999105, 10.001194 
2.1148059e+3, 1.6179863e+2, -1353935.5, -1283486.9, -47911.61, -0.089981, 0.002642925, -1259244.5, 95134.44, 0.040102176, 9.999491, 10.000506 
2.1148415e+3, 1.7180027e+2, -1310496.3, -1202891.6, -14038.164, -0.1134029, 0.08488468, -1201090.3, 55273.293, 0.008443992, 9.999111, 10.000533 
2.1148781e+3, 1.8180168e+2, -1306130.8, -1245148.1, 55414.313, -0.09416278, 0.20983805, -1212390.1, -54040.035, 0.00052604213, 9.998879, 9.999696 
2.1149167e+3, 1.9180104e+2, -1128360.9, -1116604.0, 76142.375, -0.011925793, 0.15990396, -1046113.5, 14241.941, 0.0000034897541, 9.999502, 9.999577 
2.114955e+3, 2.0179988e+2, -995743.44, -1081149.5, 20905.344, 0.02415245, 0.11762525, -990900.9, -28535.768, 0.0, 10.000019, 9.998935 
2.114992e+3, 2.1179777e+2, -872407.7, -972109.8, -8646.831, -0.008186128, -0.009857265, -871663.4, -7280.769, 0.0, 10.000237, 9.998887 
2.1150292e+3, 2.2179608e+2, -756229.44, -813726.0, -39122.0, -0.020465989, -0.07337011, -736428.9, 29967.115, 0.0, 10.000123, 9.999363 
2.1150678e+3, 2.3179564e+2, -625164.06, -641875.5, 4085.8755, 0.08686735, -0.12058767, -624218.56, 44178.895, 0.0, 10.000127, 9.999845 
2.1151057e+3, 2.4179503e+2, -609429.8, -692427.75, -28347.154, 0.15883893, -0.12476048, -600672.2, -30270.791, 0.0, 9.999993, 9.998914 
2.1151416e+3, 2.5179383e+2, -507911.7, -608525.1, -73278.01, 0.17279233, -0.150034, -469334.03, 3079.381, 0.0, 10.000131, 9.998724 
2.1151775e+3, 2.617928e+2, -444966.16, -584523.4, -73730.48, 0.14396457, -0.0970516, -413230.03, -38805.08, 0.0, 10.000098, 9.998259 
2.1152134e+3, 2.7179202e+2, -257324.44, -418970.44, -33933.234, 0.021295115, -0.045469277, -250490.03, 25946.625, 0.0, 10.000634, 9.998437 
2.1152498e+3, 2.8179088e+2, -106201.01, -268684.88, -65614.8, -0.056887876, -0.003030557, -83013.28, 95436.03, 0.00000005479561, 10.000876, 9.998696 
2.1152884e+3, 2.9178935e+2, 52992.594, -108863.95, -74252.586, 0.15404086, -0.10716121, 81895.24, 162353.58, 0.0000044706885, 10.001171, 9.998966 
2.115327e+3, 3.0178764e+2, -99903.86, -355563.22, -15679.323, 0.17910768, -0.07885725, -98945.85, -98945.85, 0.000027145721, 10.000644, 9.997197 
2.115365e+3, 3.11784e+2, 161401.08, 176230.86, -5387.102, -0.10429065, -0.25668934, 177981.19, 177981.19, 0.00007500438, 10.000695, 10.000785 
2.1246552e+3, 1.2175662e+2, -1728354.5, -1537578.4, 60561.75, -0.09944457, -0.10626506, -1519977.0, 226822.56, 0.48543465, 9.998171, 10.003436 
2.1246935e+3, 1.3175957e+2, -1865649.6, -1846267.3, -185191.6, 0.189875, 0.105760366, -1670513.4, -21746.7, 0.3637423, 9.998769, 9.998957 
2.1247253e+3, 1.4175805e+2, -1682838.4, -1641126.3, 35329.42, -0.3670441, 0.077470794, -1620956.3, -70174.67, 0.23315269, 9.998988, 9.999626 
2.1247666e+3, 1.5175982e+2, -1421685.4, -1250751.4, 10551.437, -0.15020229, 0.081043094, -1250102.5, 202658.14, 0.1197026, 9.999139, 10.001737 
2.1248055e+3, 1.6176037e+2, -1402306.1, -1272244.6, -76720.16, -0.037498005, 0.0064182556, -1236702.1, 118049.7, 0.044803485, 9.999001, 10.000841 
2.124841e+3, 1.7176169e+2, -1293217.4, -1174745.8, -159094.58, -0.060588036, 0.039537303, -1064217.1, 192521.16, 0.01004214, 9.999151, 10.000715 
2.1248777e+3, 1.8176289e+2, -1250912.5, -1217931.4, -108460.77, -0.03484419, 0.1331451, -1124714.8, 34011.176, 0.0007722133, 9.999237, 9.999712 
2.1249165e+3, 1.9176246e+2, -1069164.6, -1101233.5, -62521.637, -0.0070427735, 0.11410561, -1020654.06, 40075.75, 0.000010944595, 9.999937, 9.999485 
2.124955e+3, 2.0176157e+2, -956045.56, -1056427.4, -71851.65, 0.016871924, 0.10371291, -918590.6, 44147.36, 0.0, 10.000294, 9.998956 
2.1249922e+3, 2.1175943e+2, -902977.7, -975102.8, -60455.992, 0.005105857, -0.03263407, -868645.4, -3888.9482, 0.0, 10.0000105, 9.998951 
2.1250297e+3, 2.2175775e+2, -781453.44, -795438.2, -8688.186, 0.043281868, -0.10864724, -777293.3, -10523.005, 0.0, 9.999806, 9.999647 
2.1250682e+3, 2.3175783e+2, -607957.8, -585081.56, -16572.947, 0.12446639, -0.1422322, -576382.8, 92384.22, 0.0, 10.000036, 10.000279 
2.125106e+3, 2.4175794e+2, -531143.56, -629059.2, -28566.979, 0.18255818, -0.11150922, -523418.56, 47345.844, 0.0, 10.000434, 9.999131 
2.125142e+3, 2.5175756e+2, -318846.38, -509769.53, -19597.734, 0.16794866, -0.060519535, -316855.5, 155914.58, 0.0, 10.001402, 9.9987955 
2.1251787e+3, 2.617567e+2, -157465.53, -445200.3, 47760.867, 0.17103365, 0.0030230442, -149744.9, 225035.6, 0.0, 10.002085, 9.998254 
2.1252151e+3, 2.717543e+2, -125958.37, -364561.28, 22915.273, 0.08589903, -0.09185286, -123777.53, 153027.64, 0.0, 10.0016, 9.998343 
2.1252514e+3, 2.817527e+2, -43394.063, -271870.44, 10087.678, 0.00544766, -0.08195578, -42949.535, 135871.61, 0.000000117451826, 10.001425, 9.998429 
2.1252896e+3, 2.9175273e+2, 188340.31, -89282.125, -22257.56, 0.12419949, 0.015414308, 190113.42, 270932.13, 0.0000050467984, 10.002295, 9.998564 
2.1253298e+3, 3.0174953e+2, 186250.66, -304021.47, 108084.484, 0.3279614, -0.049113814, 209021.19, 209021.19, 0.00002697455, 10.002881, 9.996533 
2.125368e+3, 3.1174707e+2, 212266.31, 192819.7, -19333.79, 0.11999439, -0.025578884, 224184.14, 224184.14, 0.00007158717, 10.000968, 10.000834 
2.134692e+3, 1.3171937e+2, -1715685.3, -1563480.0, -148873.22, 0.12060471, 0.16544995, -1472385.6, 176774.61, 0.38411817, 9.998832, 10.001387 
2.1347263e+3, 1.4171964e+2, -1582097.8, -1497424.8, 16039.536, -0.24492532, 0.07992739, -1494488.3, 56666.68, 0.24951555, 9.999187, 10.000637 
2.1347654e+3, 1.5172163e+2, -1423076.4, -1277389.4, 15802.163, -0.20789605, 0.109824546, -1275695.1, 177436.89, 0.13052814, 9.999239, 10.001494 
2.134804e+3, 1.6172262e+2, -1436228.0, -1378125.3, -92012.23, -0.13590619, 0.116264686, -1310687.1, 44432.973, 0.050404422, 9.999161, 10.000015 
2.1348406e+3, 1.7172126e+2, -1367535.8, -1330567.1, -150048.75, -0.056116782, -0.011916058, -1197868.5, 59265.15, 0.012084308, 9.999162, 9.999631 
2.1348774e+3, 1.8172026e+2, -1241695.9, -1216728.4, -102503.98, -0.022503816, -0.068724014, -1125950.8, 33192.79, 0.001155736, 9.999312, 9.999683 
2.134916e+3, 1.9172046e+2, -1044387.94, -1041810.4, -27112.555, -0.07087477, -0.064152904, -1015956.0, 45185.06, 0.000030850606, 9.999896, 9.999915 
2.1349543e+3, 2.0172063e+2, -921468.1, -942150.8, -85256.37, -0.10484114, -0.024182012, -845928.2, 117209.89, 0.0, 10.000113, 9.999828 
2.1349919e+3, 2.1172053e+2, -856537.25, -828520.8, -62816.11, -0.03172278, -0.0627005, -778169.94, 86966.49, 0.0, 9.999796, 10.000062 
2.1350296e+3, 2.2172055e+2, -809616.75, -773666.56, -13674.908, 0.03106939, -0.05324738, -769056.1, -1922.231, 0.0, 9.999475, 9.999948 
2.1350676e+3, 2.3172088e+2, -649455.56, -623065.06, 4489.1055, 0.049060654, -0.057409223, -622322.3, 46808.35, 0.0, 9.999831, 10.000117 
2.1351053e+3, 2.417214e+2, -528883.8, -553891.9, -11299.77, 0.035672046, 0.0024333105, -524534.5, 46591.19, 0.0, 10.000135, 9.999787 
2.1351424e+3, 2.5172222e+2, -270757.44, -365668.84, 29001.352, 0.039012782, 0.06750531, -262597.28, 210520.08, 0.0, 10.001207, 9.999875 
2.13518e+3, 2.6172182e+2, -211098.67, -472644.22, 29873.314, 0.06883829, 0.10477494, -207729.97, 167390.7, 0.0, 10.001739, 9.998225 
2.1352173e+3, 2.7171803e+2, -202076.47, -475085.84, 14909.127, 0.13661861, -0.0843136, -201264.7, 75892.36, 0.00000000014169585, 10.001392, 9.997684 
2.1352541e+3, 2.817154e+2, -145122.94, -377183.9, 11765.919, 0.09850269, -0.1110582, -144527.9, 34654.4, 0.000000256191, 10.000999, 9.997892 
2.1352912e+3, 2.9171553e+2, 137754.33, -128740.75, 45498.652, 0.049882267, 0.024951529, 145308.19, 226489.02, 0.0000052967753, 10.002001, 9.998433 
2.135331e+3, 3.0171156e+2, 59376.316, -348551.63, 60950.94, 0.11185582, -0.13808289, 68288.65, 68288.65, 0.000025200057, 10.002022, 9.996603 
2.13537e+3, 3.1170997e+2, -126544.13, -217140.81, -73809.34, 0.16536598, 0.0025992396, -85241.33, -85241.33, 0.00006359548, 9.999817, 9.998522 
2.1446909e+3, 1.3167962e+2, -1615648.8, -1497706.1, 28447.123, 0.14597152, 0.08313035, -1491203.4, 158340.81, 0.40760165, 9.999229, 10.001793 
2.144726e+3, 1.416808e+2, -1647925.5, -1521143.3, -4445.0933, -0.12769923, 0.054460187, -1520987.6, 30543.027, 0.26811564, 9.998724, 10.000647 
2.1447644e+3, 1.5168224e+2, -1658058.5, -1405812.5, -39251.645, -0.14040008, 0.050088923, -1399845.8, 53668.883, 0.14296411, 9.997743, 10.001205 
2.144803e+3, 1.6168319e+2, -1726799.3, -1514734.1, -78642.65, -0.028211294, 0.07423327, -1488753.1, -133249.03, 0.057087187, 9.997173, 10.00002 
2.14484e+3, 1.7168199e+2, -1412851.5, -1331197.9, -54422.11, 0.0064266594, -0.056600265, -1303991.0, -46475.19, 0.014719365, 9.998785, 9.999798 
2.1448772e+3, 1.8168096e+2, -1176188.9, -1197494.9, 51695.137, 0.0059019383, -0.121773906, -1134060.5, 25465.41, 0.0017550356, 9.9998255, 9.999568 
2.1449158e+3, 1.9168104e+2, -1114449.4, -1096611.8, 52792.29, -0.049116027, -0.11045576, -1051990.3, 9535.509, 0.00008036648, 9.999527, 9.999706 
2.1449544e+3, 2.0168135e+2, -1038137.7, -960239.75, -28585.678, -0.058196336, -0.054980833, -950875.56, 12646.877, 0.000000018813253, 9.999144, 10.000173 
2.1449919e+3, 2.1168213e+2, -860876.2, -766412.6, -65516.914, 0.024780788, -0.06214509, -732877.44, 132634.44, 0.0, 9.999464, 10.000658 
2.1450298e+3, 2.2168277e+2, -768584.3, -746974.7, -22805.666, 0.09868944, -0.03359294, -732543.75, 34959.5, 0.0, 9.999726, 10.000016 
2.1450675e+3, 2.316828e+2, -646643.6, -642608.7, -34462.996, 0.048345037, -0.04645231, -610104.1, 59399.38, 0.0, 9.999952, 9.999925 
2.145105e+3, 2.4168307e+2, -532019.25, -566990.4, -42263.063, 0.016107341, 0.0037548025, -503767.38, 67734.39, 0.0, 10.0001545, 9.999699 
2.145143e+3, 2.5168383e+2, -405140.63, -434768.6, -97465.17, 0.044001304, 0.07598804, -321370.06, 152124.4, 0.0, 10.000301, 9.999841 
2.1451814e+3, 2.6168337e+2, -337826.44, -507078.5, -127217.11, 0.099374466, 0.10243417, -269659.28, 105839.11, 0.0, 10.0007305, 9.99848 
2.1452187e+3, 2.716796e+2, -97891.03, -379473.7, -115999.35, 0.12828663, -0.11877929, -56259.645, 221272.75, 0.00000000016893417, 10.00191, 9.998091 
2.1452558e+3, 2.8167725e+2, 73338.18, -290888.38, -43611.266, 0.12692462, -0.14211497, 78487.25, 258041.19, 0.0000002738674, 10.002533, 9.997761 
2.1452935e+3, 2.916777e+2, 36406.37, -191646.84, -55761.51, 0.11793016, 0.058853973, 49310.508, 130863.664, 0.0000047479944, 10.001371, 9.998292 
2.1453327e+3, 3.0167478e+2, 27308.225, -206787.22, 23906.332, 0.17791224, -0.06906431, 29724.648, 29724.648, 0.000021563434, 10.001019, 9.9981 
2.1453716e+3, 3.1167394e+2, 219466.56, -49087.59, -107355.66, 0.27399167, 0.002823752, 257106.83, 257106.83, 0.000054127682, 10.002099, 9.9985895 
2.1546899e+3, 1.3164082e+2, -1723675.6, -1701576.4, 57661.484, 0.02008548, -0.116300166, -1653915.4, -4001.9487, 0.43279883, 9.999406, 9.99958 
2.1547239e+3, 1.4164102e+2, -1678601.1, -1653034.8, -83536.625, -0.32456222, -0.06570671, -1581308.9, -29395.025, 0.28823382, 9.999045, 9.999514 
2.1547629e+3, 1.5164149e+2, -1679121.1, -1464062.8, -73803.26, -0.08876554, -0.11585214, -1441171.6, 12738.25, 0.15688464, 9.997824, 10.000721 
2.1548022e+3, 1.6164212e+2, -1652275.8, -1393509.3, -59600.54, 0.11632513, -0.12169363, -1380441.6, -24538.02, 0.06501248, 9.997322, 10.000778 
2.154839e+3, 1.7164382e+2, -1317896.9, -1134138.1, 16290.423, 0.002998317, -0.08695427, -1132705.1, 125179.65, 0.018139776, 9.99878, 10.0011635 
2.1548763e+3, 1.8164498e+2, -1176931.6, -1218570.9, 47968.617, -0.11439918, -0.018074878, -1145459.4, 14413.359, 0.0026903055, 9.999901, 9.999392 
2.1549153e+3, 1.9164427e+2, -1179099.3, -1219729.6, 46121.33, -0.06984339, -0.012396591, -1149017.1, -87133.836, 0.00019736934, 9.999481, 9.998881 
2.1549541e+3, 2.0164374e+2, -1073737.6, -1002892.9, -38045.67, -0.014521424, 0.020268366, -986332.4, -22441.416, 0.0000007869328, 9.999005, 9.9999485 
2.1549919e+3, 2.1164416e+2, -881437.8, -769955.3, -43052.76, 0.051378436, -0.025288312, -755264.8, 110618.86, 0.0, 9.9992895, 10.00072 
2.1550295e+3, 2.2164433e+2, -827464.0, -804863.56, -25272.646, 0.07466629, -0.04134535, -788479.8, -20600.588, 0.0, 9.999444, 9.999753 
2.1550669e+3, 2.316435e+2, -700876.5, -711680.5, -12874.916, -0.0036231994, -0.10798074, -692316.25, -22429.707, 0.0, 9.999758, 9.999544 
2.1551047e+3, 2.4164282e+2, -642958.25, -716090.0, -46340.453, -0.04565266, -0.09855772, -620494.44, -48601.066, 0.0, 9.99982, 9.998828 
2.1551438e+3, 2.5164244e+2, -512723.53, -615680.9, -78002.4, 0.06573608, -0.035895865, -470744.03, 3157.0933, 0.0, 10.000115, 9.998688 
2.155182e+3, 2.6164132e+2, -358833.0, -470507.7, -97557.016, 0.0850266, -0.010607248, -302264.03, 73649.664, 0.0, 10.000394, 9.99889 
2.155219e+3, 2.7163878e+2, -45189.387, -217418.56, -53155.4, -0.062247794, -0.21876092, -30105.07, 247828.13, 0.0, 10.0016775, 9.999319 
2.1552566e+3, 2.8163758e+2, 10361.8125, -301299.0, -76331.47, -0.09516359, -0.21451758, 28052.611, 207995.14, 0.000000100631844, 10.002055, 9.997902 
2.1552956e+3, 2.9163888e+2, -49041.953, -284572.8, -73267.336, 0.16190396, 0.1030216, -28110.594, 53826.97, 0.0000031808167, 10.001013, 9.997825 
2.155334e+3, 3.0163783e+2, 69214.164, 90900.13, 22159.47, 0.13185956, 0.096083015, 104727.22, 104727.22, 0.000016664693, 10.0001745, 10.000521 
2.1553718e+3, 3.1164014e+2, 197514.5, 92569.484, 90802.35, 0.0064191273, 0.12874971, 249915.4, 249915.4, 0.000045618737, 10.001319, 9.9999275 
2.1646905e+3, 1.3160315e+2, -1631041.8, -1754949.3, 94247.43, 0.079785176, -0.23331925, -1580208.8, 70069.445, 0.45757636, 10.00091, 9.998614 
2.1647236e+3, 1.4160308e+2, -1483070.1, -1587813.9, -14518.465, -0.3234045, -0.10190654, -1481095.0, 71188.57, 0.3088363, 10.000823, 9.999108 
2.164762e+3, 1.5160315e+2, -1414471.0, -1403630.4, -35364.06, -0.053952128, -0.15291622, -1373273.6, 81010.79, 0.17204043, 9.999991, 10.00013 
2.164801e+3, 1.6160336e+2, -1436556.8, -1325759.3, 3131.434, 0.20418501, -0.14757428, -1325670.8, 30612.076, 0.07433442, 9.998913, 10.0005045 
2.1648383e+3, 1.7160541e+2, -1180982.4, -1065418.1, 3467.6702, 0.028837683, -0.0811847, -1065314.3, 192946.44, 0.022589553, 9.999679, 10.001236 
2.164876e+3, 1.8160692e+2, -1149122.5, -1183496.5, -45241.746, -0.104532726, 0.014596939, -1117913.1, 42331.668, 0.00413868, 10.000028, 9.999562 
2.1649154e+3, 1.9160618e+2, -1160338.9, -1199575.4, -35692.223, -0.016448326, 0.008201108, -1139228.6, -76973.15, 0.00045452762, 9.999575, 9.99898 
2.1649541e+3, 2.0160548e+2, -1071357.6, -1030391.2, -30429.736, 0.08650824, 0.025050133, -1014192.94, -49927.92, 0.000007502901, 9.999125, 9.999708 
2.1649915e+3, 2.116055e+2, -866567.2, -805980.9, -74417.62, 0.07680201, -0.021709915, -755926.9, 110335.945, 0.0, 9.99958, 10.000334 
2.1650288e+3, 2.216054e+2, -756911.44, -777985.75, -56776.1, 0.05978222, -0.03258594, -709702.94, 58558.344, 0.0, 9.999977, 9.999667 
2.1650669e+3, 2.3160446e+2, -605800.0, -664278.44, -42060.414, 0.0020023875, -0.11245501, -583814.1, 86453.93, 0.0, 10.000404, 9.999555 
2.1651052e+3, 2.4160346e+2, -526682.94, -672544.9, -28487.518, -0.003665132, -0.13044125, -521316.63, 50960.17, 0.0, 10.000655, 9.99873 
2.1651438e+3, 2.516026e+2, -482289.9, -602351.4, -17004.234, 0.050436687, -0.102933265, -479928.06, -5638.589, 0.0, 10.000358, 9.998645 
2.1651821e+3, 2.6160178e+2, -368177.63, -464674.03, 54252.566, 0.05521667, -0.05647091, -343822.6, 32477.615, 0.0, 10.000274, 9.998993 
2.1652205e+3, 2.716003e+2, -131430.36, -235062.11, 23888.465, -0.025778748, -0.17043802, -126188.87, 152121.28, 0.0, 10.000989, 9.999523 
2.1652593e+3, 2.8159907e+2, -55281.297, -330667.4, -66493.53, 0.0132018, -0.18669865, -40066.645, 140253.61, 0.0000000029805467, 10.001576, 9.997939 
2.1652964e+3, 2.9159898e+2, 5083.464, -267428.0, -107034.555, 0.13228197, 0.010072825, 42096.37, 124425.1, 0.000001345268, 10.001436, 9.997736 
2.165334e+3, 3.016e+2, 286911.47, 202099.05, 29777.643, 0.08215048, 0.2018838, 296322.2, 296322.2, 0.000010778314, 10.001633, 10.000586 
2.165375e+3, 3.1159976e+2, 394836.97, 101007.74, -165683.58, 0.124289334, 0.0070541184, 469360.72, 469360.72, 0.00003608632, 10.003085, 9.999124 
2.1746938e+3, 1.3156843e+2, -1590339.6, -1671609.3, -34259.402, 0.25066888, -0.0672989, -1577824.8, 72796.82, 0.48078975, 10.00132, 9.998819 
2.1747254e+3, 1.4156812e+2, -1462956.5, -1598279.9, -6061.1445, -0.31154755, -0.021189066, -1462685.6, 89943.57, 0.32934, 10.001181, 9.998856 
2.1747614e+3, 1.5156762e+2, -1475113.8, -1554772.4, -76190.58, -0.15463576, -0.030882565, -1428970.0, 25664.666, 0.18832743, 10.000095, 9.99898 
2.1747985e+3, 1.6156682e+2, -1501937.6, -1509142.0, -3805.397, 0.022045689, 0.0048909998, -1500299.9, -143657.23, 0.0852701, 9.999122, 9.999127 
2.1748376e+3, 1.7156677e+2, -1247231.5, -1220665.0, 44331.723, -0.054520685, -0.025489427, -1187669.3, 70973.72, 0.028395085, 9.999756, 10.000106 
2.1748762e+3, 1.8156675e+2, -1118218.1, -1139472.3, -63798.05, -0.12662463, -0.022074768, -1064168.1, 96474.93, 0.006367479, 10.000115, 9.99982 
2.1749151e+3, 1.9156654e+2, -1101512.5, -1068355.0, -49827.676, -0.010157134, -0.057369098, -1032420.4, 30224.49, 0.0009868387, 9.999535, 9.999895 
2.1749534e+3, 2.0156625e+2, -1110773.6, -1080714.9, -36940.992, 0.06412287, -0.050991543, -1055863.0, -91215.33, 0.000047582707, 9.9989805, 9.999435 
2.1749902e+3, 2.11566e+2, -954328.4, -940066.1, -46021.973, -0.0164444, -0.052410334, -900626.06, -33975.688, 0.00000000032497088, 9.999372, 9.999514 
2.1750276e+3, 2.2156583e+2, -809077.8, -807996.44, -48835.055, -0.09631345, -0.015021154, -759699.06, 8952.148, 0.0, 9.999647, 9.999619 
2.1750669e+3, 2.3156533e+2, -615564.94, -630261.6, -13042.558, -0.056575056, -0.079365194, -607943.1, 62708.734, 0.0, 10.000178, 9.999891 
2.1751057e+3, 2.4156457e+2, -542136.9, -609007.06, -42541.95, -0.040935438, -0.11786437, -521463.53, 51192.51, 0.0, 10.000258, 9.999349 
2.1751426e+3, 2.51564e+2, -457383.5, -499385.9, -19582.012, -0.11606307, -0.14013287, -449670.5, 24992.613, 0.0, 10.000144, 9.999452 
2.1751805e+3, 2.615642e+2, -434280.34, -516211.56, 54587.27, -0.15278079, -0.04048808, -406996.78, -30333.955, 0.0, 9.999925, 9.998798 
2.175223e+3, 2.7156392e+2, -222884.22, -363741.47, 69257.195, 0.08835019, 0.022715759, -194536.58, 84129.1, 0.0, 10.000739, 9.998754 
2.1752632e+3, 2.815614e+2, -142948.81, -393606.72, -75452.17, 0.20997562, -0.057643034, -121989.086, 58701.348, 0.0, 10.001089, 9.99773 
2.1752952e+3, 2.9155767e+2, -35317.73, -291586.22, -98712.945, -0.14925554, -0.24164666, -1703.3099, 81026.55, 0.00000028754212, 10.001184, 9.9976845 
2.1753328e+3, 3.0156004e+2, 17945.518, -203642.33, 39462.19, -0.24526095, 0.19670638, 24763.49, 24763.49, 0.0000061263827, 10.001037, 9.998053 
2.1753816e+3, 3.1155604e+2, 60512.77, -360331.3, 24313.031, 0.41131592, -0.085126564, 61912.723, 61912.723, 0.000027574106, 10.002111, 9.9964075 
2.1847263e+3, 1.4153361e+2, -1812445.4, -1681589.8, 26210.842, -0.14955689, 0.12250549, -1676535.0, -123564.8, 0.34983045, 9.997935, 9.999842 
2.1847618e+3, 1.515311e+2, -1394055.4, -1640245.4, -150070.73, -0.18364576, 0.03426785, -1323053.5, 131938.22, 0.2059314, 10.001333, 9.997858 
2.1847981e+3, 1.6152835e+2, -1312187.9, -1484792.3, -20799.03, -0.004326411, -0.04208118, -1309717.0, 47300.23, 0.09816949, 10.000779, 9.998492 
2.1848376e+3, 1.7152807e+2, -1291722.1, -1318367.5, 49135.336, -0.01667244, -0.020385768, -1254135.4, 4886.8545, 0.036017943, 9.999837, 9.99937 
2.1848762e+3, 1.815278e+2, -1278247.5, -1233100.3, -32106.008, -0.06675457, 0.009750548, -1216426.4, -55399.504, 0.009796201, 9.999046, 9.999707 
2.1849148e+3, 1.9152768e+2, -1113562.6, -1048536.0, -84310.62, 0.04086333, -0.036379635, -990686.75, 72340.58, 0.0020521113, 9.9993105, 10.000144 
2.1849531e+3, 2.015275e+2, -1033000.4, -1040495.94, -54519.65, 0.1382708, -0.035775535, -982099.8, -17071.656, 0.00020967671, 9.999523, 9.99945 
2.1849902e+3, 2.1152677e+2, -869312.06, -916317.3, -39546.566, 0.020681605, -0.07395117, -846811.4, 20223.32, 0.00000086887735, 10.000032, 9.999362 
2.1850276e+3, 2.215262e+2, -704220.25, -754305.4, 9820.585, -0.06519051, -0.06487456, -702363.44, 66674.94, 0.0, 10.000328, 9.999675 
2.1850674e+3, 2.3152627e+2, -587912.75, -583872.7, 14934.956, -0.0005821433, -0.08840682, -570821.75, 100210.875, 0.0, 10.000241, 10.000177 
2.1851067e+3, 2.4152589e+2, -548888.7, -631185.2, -15357.097, 0.041485555, -0.10580709, -546116.3, 26916.65, 0.0, 10.000278, 9.999194 
2.1851431e+3, 2.515245e+2, -385786.66, -516344.75, -99727.445, -0.11027542, -0.17148013, -331872.94, 143175.88, 0.0, 10.000824, 9.999023 
2.1851806e+3, 2.6152438e+2, -268999.1, -421717.66, -67050.96, -0.15484197, -0.08056683, -243738.66, 133313.56, 0.0, 10.000976, 9.998953 
2.1852237e+3, 2.7152544e+2, -287490.94, -349510.7, -12613.684, 0.14532322, 0.09527597, -285023.7, -5982.1255, 0.0, 10.000095, 9.999171 
2.1852644e+3, 2.8152373e+2, -284351.3, -430047.47, -32727.273, 0.30227792, 0.046357565, -277337.5, -96279.49, 0.0, 9.999937, 9.998057 
2.1852972e+3, 2.9151785e+2, 130305.16, -213865.14, -68873.414, -0.12682243, -0.36208683, 143576.02, 226691.39, 0.000000027227998, 10.002294, 9.9977045 
2.1853359e+3, 3.0151922e+2, 370391.88, -184523.98, 94669.67, -0.15104286, 0.031276073, 386098.13, 386098.13, 0.0000044959556, 10.004022, 9.996794 
2.185384e+3, 3.1151557e+2, 117120.92, -239688.83, 45415.25, 0.48885342, -0.0503917, 122810.71, 122810.71, 0.000025056477, 10.001959, 9.99738 
2.1947251e+3, 1.414966e+2, -1562118.4, -1254998.1, 175521.08, -0.14517169, 0.24492453, -1175345.1, 377990.44, 0.371045, 9.997932, 10.004019 
2.1947622e+3, 1.514926e+2, -1409682.8, -1707308.4, -137874.55, -0.30447334, 0.019699734, -1355629.5, 99735.38, 0.22535217, 10.001471, 9.99732 
2.194799e+3, 1.6148782e+2, -1278305.1, -1432952.4, -76049.484, -0.040363654, -0.2793139, -1247173.9, 110233.52, 0.113554515, 10.000919, 9.998792 
2.1948381e+3, 1.7148902e+2, -1326999.8, -1389095.3, 20714.156, 0.034996763, -0.07253974, -1320724.1, -61322.945, 0.046104282, 9.999829, 9.998888 
2.1948755e+3, 1.814896e+2, -1294021.4, -1279733.9, -42586.945, -0.09018453, 0.09064797, -1243695.8, -82295.12, 0.015073848, 9.999102, 9.999364 
2.1949144e+3, 1.9148964e+2, -1139445.6, -1093598.8, -65960.445, 0.018076997, 0.08986637, -1046691.94, 16710.533, 0.004138987, 9.999276, 9.999852 
2.1949528e+3, 2.0148931e+2, -1042478.56, -1027542.3, -52942.504, 0.13126902, 0.090115234, -981543.8, -16137.841, 0.00072646124, 9.999385, 9.999601 
2.1949907e+3, 2.1148758e+2, -871905.6, -868543.0, -12545.759, 0.053449564, -0.085643746, -857566.4, 9851.313, 0.000022642807, 9.99981, 9.999789 
2.1950285e+3, 2.2148637e+2, -741503.5, -750728.8, 1076.9542, -0.020462375, -0.17829446, -741379.44, 28044.729, 0.000000000011542125, 9.999978, 9.9998665 
2.1950683e+3, 2.3148721e+2, -605224.75, -577796.25, 20686.22, 0.043634836, -0.14338753, -566691.2, 104720.375, 0.0, 10.000055, 10.000307 
2.1951072e+3, 2.4148735e+2, -675714.2, -799002.06, -14904.908, 0.052685965, -0.08726197, -673937.9, -100529.484, 0.0, 9.999885, 9.998222 
2.1951443e+3, 2.514841e+2, -529142.8, -764816.0, -66170.805, -0.07068845, -0.19373327, -511834.88, -36388.62, 0.0, 10.000617, 9.997413 
2.1951821e+3, 2.6148224e+2, -316954.9, -419008.9, -96111.38, -0.14686431, -0.17504618, -259164.84, 118304.3, 0.0, 10.00056, 9.999155 
2.1952227e+3, 2.7148476e+2, -233102.72, -174955.5, -33866.223, 0.014466668, 0.030218437, -159395.1, 120045.266, 0.0, 9.999853, 10.000468 
2.1952628e+3, 2.8148538e+2, -298287.38, -360894.0, 844.7256, 0.0991797, 0.099205166, -298275.97, -116845.984, 0.0, 9.999541, 9.998712 
2.1953012e+3, 2.9147938e+2, 81180.984, -235872.28, 48268.813, 0.02675782, -0.342731, 88366.67, 171852.56, 0.000000020729713, 10.001956, 9.997713 
2.195342e+3, 3.014768e+2, 229127.4, -284985.2, 70280.62, 0.0052453573, -0.30215043, 238561.83, 238561.83, 0.0000055230016, 10.003243, 9.996446 
2.1953826e+3, 3.1147623e+2, 120470.72, 29440.225, -30692.293, 0.092577875, -0.1139507, 129852.234, 129852.234, 0.000029811183, 10.000934, 9.999673 
2.2047237e+3, 1.4145094e+2, -1492233.5, -1181234.3, 180318.36, -0.051211853, -0.118604444, -1098627.1, 455155.44, 0.39437363, 9.998128, 10.004835 
2.2047623e+3, 1.5145217e+2, -1705903.9, -1656270.3, -316979.13, -0.27482823, 0.075780265, -1363137.9, 92621.53, 0.24751917, 9.998475, 9.999197 
2.2047995e+3, 1.614479e+2, -1465631.3, -1435702.5, -193935.4, 0.01867487, -0.3339068, -1256155.0, 101641.125, 0.13222682, 9.999162, 9.999682 
2.2048377e+3, 1.7144911e+2, -1423413.9, -1432328.4, -71374.44, 0.04830788, -0.1458879, -1356357.6, -96568.85, 0.059555795, 9.999087, 9.998984 
2.204875e+3, 1.8144979e+2, -1343822.4, -1314335.9, -42588.336, -0.029502816, 0.020973599, -1284011.0, -122223.73, 0.023171267, 9.998803, 9.999275 
2.2049141e+3, 1.9145004e+2, -1120082.3, -1112844.8, -69339.87, 0.06991504, 0.06379748, -1047029.3, 16759.303, 0.008108057, 9.999526, 9.999617 
2.2049531e+3, 2.0144999e+2, -949895.0, -977762.44, -46825.33, 0.1930106, 0.109273896, -914974.25, 50816.293, 0.0021629941, 9.99999, 9.999661 
2.2049914e+3, 2.1144854e+2, -839751.56, -827517.9, -43190.832, 0.14797527, -0.058731344, -790012.94, 77786.02, 0.00023583506, 9.999904, 10.000035 
2.2050296e+3, 2.2144721e+2, -778214.6, -785371.75, -26156.4, 0.108188085, -0.17194493, -755393.1, 14412.972, 0.0000019906881, 9.999795, 9.999722 
2.2050686e+3, 2.3144749e+2, -635148.9, -643179.56, -75790.98, 0.084771745, -0.1561024, -563266.94, 108534.01, 0.0, 10.000053, 9.999875 
2.2051074e+3, 2.4144727e+2, -606439.6, -764859.75, -82289.414, 0.07270062, -0.10093226, -571431.56, 2370.8567, 0.0, 10.000339, 9.998247 
2.2051455e+3, 2.5144488e+2, -486323.47, -698013.6, -31940.428, -0.0022450534, -0.14927903, -481609.2, -5779.344, 0.0, 10.000761, 9.997781 
2.2051838e+3, 2.6144302e+2, -258756.5, -425436.78, 16354.5205, -0.043606214, -0.14439504, -257166.97, 120683.63, 0.0, 10.001084, 9.998871 
2.2052228e+3, 2.7144325e+2, -79119.76, -181994.98, -69520.664, -0.0018374375, -0.10993604, -44076.44, 235767.67, 0.0, 10.001216, 9.999786 
2.2052626e+3, 2.8144333e+2, -31337.191, -192625.72, -69863.516, 0.086444825, -0.06449136, -5283.713, 176555.08, 0.0, 10.001212, 9.999056 
2.2053042e+3, 2.9144013e+2, 41811.082, -154644.94, -20601.033, 0.1982829, -0.2862109, 43948.13, 127814.984, 0.00000007580395, 10.001276, 9.99859 
2.2053456e+3, 3.0143753e+2, -25285.154, -391930.97, 64182.117, 0.18287574, -0.32164344, -14374.614, -14374.614, 0.0000083740215, 10.001391, 9.996623 
2.2053842e+3, 3.1143695e+2, 341490.3, 184297.67, -190321.47, 0.12219375, -0.098986365, 468805.72, 468805.72, 0.000042885644, 10.002207, 10.000121 
2.2147244e+3, 1.4140192e+2, -1737252.4, -1527885.4, 325782.5, 0.11204439, -0.41247106, -1290380.5, 263878.2, 0.4221777, 9.998073, 10.001681 
2.2147623e+3, 1.5140969e+2, -1453274.4, -1168268.1, -198702.95, -0.15215033, 0.23405474, -1066251.3, 389925.28, 0.27423543, 9.998364, 10.003293 
2.2147986e+3, 1.6140817e+2, -1338087.1, -1208980.1, -190568.14, -0.043594263, -0.19990638, -1072328.9, 285858.75, 0.15564767, 9.999306, 10.001345 
2.2148351e+3, 1.7140837e+2, -1360831.5, -1301471.1, -77181.7, -0.12303433, -0.2296511, -1248459.6, 11725.73, 0.07778218, 9.999086, 9.99988 
2.214874e+3, 1.8140835e+2, -1332683.8, -1302719.1, -42308.848, -0.04603889, -0.19241174, -1272818.3, -110631.64, 0.035576556, 9.998847, 9.999338 
2.2149138e+3, 1.9140875e+2, -1152205.3, -1154047.1, -31274.568, 0.07988288, -0.113243625, -1121838.1, -57651.348, 0.0154146915, 9.999421, 9.999381 
2.2149529e+3, 2.0140928e+2, -974341.1, -994976.94, -49120.74, 0.14978705, 0.0061920537, -934466.4, 31717.94, 0.005714695, 9.99984, 9.999618 
2.2149917e+3, 2.1140942e+2, -859215.0, -826072.75, -37388.1, 0.17209601, -0.0075432365, -801748.0, 66432.01, 0.0013616167, 9.999722, 10.000132 
2.21503e+3, 2.2140893e+2, -879927.6, -910412.4, -32850.4, 0.13589591, -0.02166648, -858955.6, -88773.47, 0.00013056793, 9.999428, 9.999039 
2.2150679e+3, 2.314069e+2, -742239.06, -814668.6, -51773.195, 0.0033373968, -0.13828458, -715271.8, -43069.06, 0.0000045921656, 9.999828, 9.998807 
2.2151065e+3, 2.4140549e+2, -610786.7, -667345.6, -85296.67, -0.08615479, -0.15327819, -549203.75, 25012.639, 0.000000030624218, 9.999907, 9.999113 
2.2151463e+3, 2.5140646e+2, -382808.34, -417167.22, -6878.5737, -0.024254896, -0.05189813, -381482.44, 94720.83, 0.0, 10.000497, 9.999827 
2.2151853e+3, 2.614061e+2, -374442.0, -566007.06, 5026.628, -0.015106824, -0.00899439, -374310.2, 3893.178, 0.0, 10.000678, 9.998094 
2.2152239e+3, 2.7140096e+2, -283033.53, -539384.4, -56509.38, -0.04035716, -0.31313133, -271129.53, 9123.018, 0.0, 10.000949, 9.997451 
2.2152637e+3, 2.8139776e+2, -128266.984, -272834.3, -83056.086, 0.021342322, -0.4204071, -90445.055, 91837.51, 0.0, 10.00072, 9.998727 
2.2153062e+3, 2.9139966e+2, 75542.01, -3698.0698, 82.3136, 0.23641366, -0.22183786, 75542.09, 159803.89, 0.00000027397763, 10.00095, 9.999771 
2.2153467e+3, 3.014005e+2, -62558.93, -319482.4, 60616.418, 0.10069419, -0.042953074, -48975.715, -48975.715, 0.000015050563, 10.000793, 9.997381 
2.2153857e+3, 3.113959e+2, 46343.883, -185666.03, 4485.986, -0.0214262, -0.2310048, 46430.586, 46430.586, 0.00007034586, 10.001216, 9.998032 
2.2247192e+3, 1.413609e+2, -1537212.9, -1523430.5, -9807.51, -0.31273764, 0.014327855, -1518335.3, 36318.586, 0.45833316, 9.999771, 10.000143 
2.2247624e+3, 1.5136753e+2, -1460577.9, -1100837.3, 12584.587, 0.10835208, 0.07377962, -1100397.5, 356188.53, 0.30885017, 9.997556, 10.004407 
2.2247969e+3, 1.613689e+2, -1426126.8, -1256579.5, -87063.64, -0.09038519, -0.11480514, -1219835.0, 138735.6, 0.18666483, 9.998622, 10.001296 
2.2248343e+3, 1.7136876e+2, -1282707.8, -1234199.1, -81498.195, -0.14535242, -0.20266396, -1173422.8, 87149.23, 0.103338934, 9.999519, 10.000168 
2.224874e+3, 1.8136854e+2, -1213173.3, -1239013.5, -60361.996, 0.05400233, -0.20412728, -1164364.1, -1789.7845, 0.054786276, 9.99962, 9.999418 
2.2249134e+3, 1.9136827e+2, -1105799.4, -1128256.0, -44799.656, 0.101650156, -0.19752367, -1070842.4, -6263.5923, 0.028543482, 9.9997015, 9.999425 
2.2249521e+3, 2.0136823e+2, -1004315.1, -1020584.8, -32788.043, 0.10761728, -0.13964732, -978667.9, -12087.588, 0.013685946, 9.999697, 9.999498 
2.2249907e+3, 2.113688e+2, -861965.6, -860096.06, -80233.734, 0.11872408, -0.08227457, -780791.7, 87782.28, 0.005262215, 9.999861, 9.999828 
2.2250295e+3, 2.2136867e+2, -794358.4, -923882.56, -49276.207, 0.12189613, -0.02546167, -777743.1, -7167.864, 0.001420654, 10.00022, 9.998576 
2.2250684e+3, 2.3136638e+2, -595230.25, -797538.25, -40015.652, 0.018324863, -0.115977585, -587602.94, 84997.164, 0.0002619265, 10.001049, 9.998346 
2.2251074e+3, 2.4136463e+2, -371524.13, -563714.6, -56604.633, -0.030194761, -0.12864706, -356091.88, 218526.38, 0.000035642544, 10.001592, 9.9990225 
2.2251476e+3, 2.5136533e+2, -236347.53, -334376.75, -127779.91, 0.036036506, -0.06394548, -148504.06, 328102.25, 0.0000011567587, 10.001405, 9.999986 
2.225187e+3, 2.613648e+2, -317582.5, -560522.44, -172347.86, 0.082125835, -0.040843673, -228200.06, 150407.05, 0.0, 10.001155, 9.997908 
2.2252259e+3, 2.7135977e+2, -208503.55, -536430.3, -147925.28, 0.047276508, -0.2891866, -151636.95, 129018.96, 0.0, 10.001637, 9.997135 
2.2252652e+3, 2.8135657e+2, 6245.5693, -218077.08, -65776.555, 0.09407377, -0.37365207, 24110.082, 206797.05, 0.0, 10.001658, 9.998675 
2.2253062e+3, 2.913577e+2, 92262.75, 20204.234, -70183.766, 0.16266781, -0.24587378, 135125.0, 219798.81, 0.00000073017384, 10.000996, 9.999916 
2.2253469e+3, 3.0135944e+2, 5401.72, -201715.3, -19493.348, 0.06416852, -0.036555633, 7220.417, 7220.417, 0.00002755439, 10.000864, 9.998181 
2.2253874e+3, 3.1135464e+2, 230296.88, -27721.645, -99832.37, 0.001922398, -0.27774993, 264413.0, 264413.0, 0.000118261974, 10.002115, 9.9987335 
2.2347628e+3, 1.5132599e+2, -1654884.4, -1329094.8, -9191.449, 0.3338007, -0.37987864, -1328835.6, 128148.87, 0.35698506, 9.99726, 10.002336 
2.2347945e+3, 1.6132961e+2, -1573889.8, -1538759.5, -54691.848, -0.28547868, -0.12733564, -1498881.4, -139931.6, 0.23053116, 9.99858, 9.999194 
2.234834e+3, 1.7133005e+2, -1323163.9, -1300813.4, -56222.73, -0.13332081, -0.07986118, -1254666.0, 6284.8457, 0.14104874, 9.999436, 9.999708 
2.2348742e+3, 1.813303e+2, -1210299.5, -1229910.0, -66882.27, 0.07691652, -0.019656762, -1152507.6, 10444.582, 0.08532412, 9.999612, 9.999484 
2.2349124e+3, 1.9132859e+2, -1093268.1, -1081013.0, -35357.734, 0.013609339, -0.18497226, -1051255.8, 13709.137, 0.05187056, 9.99961, 9.999798 
2.2349499e+3, 2.0132698e+2, -1057546.5, -1082397.0, -40946.652, -0.10529666, -0.29891285, -1027181.4, -60204.418, 0.030293982, 9.999492, 9.999172 
2.2349882e+3, 2.1132648e+2, -939713.06, -974887.1, -65282.21, -0.13124582, -0.2864731, -889690.44, -20707.752, 0.015773455, 9.999657, 9.999138 
2.2350276e+3, 2.2132614e+2, -868038.1, -984159.1, -35711.945, -0.11220428, -0.19271703, -857934.4, -86946.55, 0.0069356123, 9.999835, 9.998337 
2.2350693e+3, 2.3132579e+2, -615040.7, -789501.56, 5676.3965, -0.0112792505, -0.103541866, -614856.2, 58138.332, 0.002541045, 10.000835, 9.998496 
2.2351101e+3, 2.4132463e+2, -513305.66, -757012.1, -67241.49, 0.042291693, -0.028195854, -495984.1, 79024.445, 0.00075579167, 10.001172, 9.997888 
2.2351491e+3, 2.5132164e+2, -392064.3, -592504.7, -126485.375, 0.04355971, -0.184311, -330907.2, 146129.69, 0.00014769337, 10.001126, 9.998341 
2.235188e+3, 2.6131928e+2, -392232.34, -592598.1, -185065.73, 0.037218854, -0.22577249, -281973.0, 97085.8, 0.000007045108, 10.000655, 9.9979105 
2.2352283e+3, 2.7131936e+2, -164592.66, -379942.34, -115977.46, 0.10914865, -0.069089994, -114012.5, 167044.38, 0.00000000065814787, 10.001363, 9.998327 
2.2352672e+3, 2.8131893e+2, -69364.29, -246721.25, -109419.11, 0.08718, 0.025031846, -17200.963, 165858.9, 0.0, 10.001152, 9.998697 
2.235304e+3, 2.9131436e+2, -51890.027, -161749.14, -80412.07, -0.18266048, -0.35782856, -9437.054, 75664.375, 0.0000012574419, 10.00053, 9.998865 
2.2353454e+3, 3.0131394e+2, -127966.836, -266016.75, -16643.535, -0.22664599, -0.27040413, -125988.61, -125988.61, 0.000044073433, 10.000007, 9.998125 
2.2353901e+3, 3.1131595e+2, 217220.06, 262122.03, 37392.906, 0.020503625, 0.05512433, 283286.13, 283286.13, 0.00018419352, 10.000856, 10.001293 
2.2447559e+3, 1.5128683e+2, -1620307.5, -1536894.4, -181590.98, -0.19685617, -0.37054864, -1392282.0, 65081.4, 0.42759266, 9.998796, 9.999761 
2.2447938e+3, 1.6128752e+2, -1491105.6, -1489705.3, -82305.65, -0.21201958, -0.31617153, -1408096.9, -48740.664, 0.29616648, 9.9991, 9.999292 
2.2448348e+3, 1.7128967e+2, -1236727.3, -1255316.5, -51595.98, -0.02795117, -0.09925849, -1193595.4, 67747.02, 0.19952731, 10.00007, 9.9997635 
2.244875e+3, 1.8129104e+2, -1093689.9, -1167127.8, -52444.004, 0.16066407, 0.06735529, -1066388.0, 96946.22, 0.13536815, 10.000476, 9.999511 
2.2449124e+3, 1.9128887e+2, -1042472.75, -1064499.0, -90050.34, 0.025839604, -0.13968776, -962764.6, 102586.46, 0.09319166, 10.000017, 9.999754 
2.2449495e+3, 2.0128672e+2, -1041913.8, -1126949.1, -78251.805, -0.09976893, -0.29329228, -995374.75, -28006.299, 0.06306426, 9.999752, 9.998785 
2.244989e+3, 2.1128547e+2, -811141.4, -973739.2, -99697.36, -0.057908576, -0.29565915, -763797.06, 105585.266, 0.0400799, 10.000792, 9.998634 
2.2450294e+3, 2.212845e+2, -621003.1, -886412.6, -51953.27, 0.0046552676, -0.2187657, -611195.8, 160198.63, 0.023131557, 10.001631, 9.998159 
2.2450708e+3, 2.3128429e+2, -631985.9, -798149.8, -70209.97, 0.07458198, -0.113936305, -606292.56, 67108.016, 0.011994159, 10.000728, 9.998495 
2.2451116e+3, 2.4128316e+2, -671215.4, -870459.94, -100931.516, 0.13862681, -0.016251963, -629021.7, -53606.543, 0.0054928027, 10.0001955, 9.997603 
2.2451507e+3, 2.512798e+2, -405852.4, -627227.2, -84505.46, 0.0786972, -0.17631535, -377281.5, 100167.07, 0.002050329, 10.001143, 9.998103 
2.2451892e+3, 2.6127726e+2, -241811.52, -526407.7, -55734.527, 0.053769514, -0.21397413, -231285.89, 148187.63, 0.0004876709, 10.00169, 9.997881 
2.24523e+3, 2.7127796e+2, -23394.305, -281687.44, -54479.348, 0.12564874, -0.015414033, -12373.703, 269091.3, 0.000047167257, 10.002196, 9.9986105 
2.245269e+3, 2.8127792e+2, 61172.57, -181125.22, -122328.68, 0.13915518, 0.09131904, 112190.336, 295653.28, 0.00000034188096, 10.002018, 9.998743 
2.2453055e+3, 2.9127255e+2, 59739.81, -157225.98, -119989.4, -0.11247267, -0.32334223, 113015.98, 198527.58, 0.0000013302117, 10.001459, 9.998481 
2.2453466e+3, 3.0127096e+2, -109042.94, -287388.16, 36554.133, -0.07518716, -0.33269644, -101841.484, -101841.484, 0.0000584347, 10.0001955, 9.997903 
2.2453906e+3, 3.112729e+2, -35919.848, 288413.66, -73611.68, 0.13053225, 0.020790653, 304338.8, 304338.8, 0.00025945, 9.998356, 10.002688 
2.2547942e+3, 1.612432e+2, -1468371.0, -1326801.5, -74720.98, -0.16624966, -0.5878693, -1294660.5, 65124.22, 0.39765337, 9.998505, 10.000922 
2.254836e+3, 1.7124721e+2, -1211324.6, -1189270.6, -25475.658, 0.042426124, -0.28514218, -1172537.9, 89212.51, 0.29298013, 9.999996, 10.000398 
2.254876e+3, 1.8125044e+2, -1158837.6, -1239923.9, -94096.195, 0.118585445, 0.0370462, -1096921.9, 66801.805, 0.21888196, 10.000218, 9.999134 
2.2549124e+3, 1.9124864e+2, -1121996.0, -1170210.6, -114937.984, -0.003018171, -0.09035077, -1028664.4, 37077.91, 0.16615056, 9.999766, 9.999118 
2.25495e+3, 2.01247e+2, -1121941.0, -1221048.5, -68657.76, -0.08567116, -0.14575288, -1086822.1, -119063.04, 0.12546477, 9.999452, 9.998261 
2.2549924e+3, 2.1124558e+2, -864599.2, -1039937.9, -45022.516, 0.17789295, -0.13660039, -853714.3, 16060.578, 0.0914258, 10.000591, 9.998252 
2.255034e+3, 2.2124378e+2, -717112.25, -988003.5, -66161.52, 0.2821783, -0.102160834, -701816.8, 69978.086, 0.062582165, 10.001216, 9.9976635 
2.2550727e+3, 2.3124176e+2, -691595.44, -868259.44, -98082.11, 0.16774385, -0.14474095, -647932.56, 25886.574, 0.039919913, 10.00048, 9.998137 
2.255111e+3, 2.412401e+2, -748729.94, -864668.2, -108009.8, 0.060797326, -0.08078024, -684116.3, -108277.19, 0.023601582, 9.999512, 9.997955 
2.2551511e+3, 2.512397e+2, -382977.94, -488685.3, -35955.324, -0.004106982, -0.054368984, -371907.47, 105935.336, 0.012405956, 10.000786, 9.999209 
2.25519e+3, 2.6123834e+2, -343429.47, -603395.44, -64878.64, -0.063204765, -0.025335988, -328137.5, 51717.664, 0.005154125, 10.001148, 9.997602 
2.2552304e+3, 2.7123547e+2, -138975.78, -402325.06, -25934.34, -0.053643182, -0.14025551, -136446.1, 145434.55, 0.0013586987, 10.00171, 9.998003 
2.25527e+3, 2.8123352e+2, -84999.39, -298350.1, -164307.1, 0.003856228, -0.16650902, 4224.3438, 188120.9, 0.00015517221, 10.001264, 9.99828 
2.2553101e+3, 2.9123232e+2, -7231.9487, -173569.52, -119917.336, 0.17079821, -0.1472109, 55534.914, 141438.92, 0.0000026982873, 10.001006, 9.998548 
2.2553496e+3, 3.0123034e+2, -252831.16, -426551.34, -54375.21, 0.1451938, -0.2001079, -237215.2, -237215.2, 0.000065484004, 9.999576, 9.997217 
2.2553863e+3, 3.11223e+2, -182689.05, 197693.52, 69010.88, -0.20998797, -0.64548117, 209826.8, 209826.8, 0.00034262822, 9.997509, 10.002459 
2.264833e+3, 1.7120585e+2, -1338723.6, -1503185.0, -213422.52, -0.22954758, -0.17831753, -1192238.3, 69919.46, 0.44342524, 9.999735, 9.998463 
2.2648728e+3, 1.812031e+2, -1552895.3, -1550968.9, -246116.22, -0.09918509, -0.5114976, -1305814.0, -141623.9, 0.3585124, 9.997748, 9.99819 
2.2649106e+3, 1.9120355e+2, -1210449.8, -1161257.4, -204495.48, -0.08787578, -0.39073488, -979884.25, 86301.305, 0.29413474, 9.99896, 9.999631 
2.2649492e+3, 2.012044e+2, -874673.94, -1035482.94, -41095.715, -0.14114806, -0.27210563, -864780.4, 103396.61, 0.24160613, 10.001004, 9.998852 
2.26499e+3, 2.1120353e+2, -816096.2, -1022181.8, -32705.732, -0.13719675, -0.20340769, -811030.3, 59156.105, 0.1940874, 10.000994, 9.998219 
2.2650318e+3, 2.2120214e+2, -748942.1, -1008607.56, -29664.68, -0.029401723, -0.13023585, -745596.25, 26605.637, 0.14888066, 10.000965, 9.997667 
2.2650725e+3, 2.3120007e+2, -658353.3, -859973.3, -82357.24, 0.09820033, -0.14924613, -628988.9, 45236.906, 0.108788945, 10.000772, 9.998069 
2.2651121e+3, 2.4119808e+2, -525390.3, -703968.25, -15721.965, 0.1649453, -0.124593295, -524016.72, 52232.137, 0.07581198, 10.0007515, 9.998493 
2.2651528e+3, 2.5119895e+2, -324965.63, -392663.88, 19732.928, 0.118353814, -0.04216315, -319633.75, 158607.75, 0.048806984, 10.000804, 9.999962 
2.2651917e+3, 2.6119867e+2, -393635.28, -612624.25, -11313.56, 0.033405546, 0.050069198, -393052.34, -12807.725, 0.026684597, 10.000644, 9.997819 
2.2652319e+3, 2.7119467e+2, -168291.97, -401843.63, 51576.105, -0.039756883, -0.19423582, -157409.31, 124870.45, 0.010897145, 10.001349, 9.998229 
2.2652712e+3, 2.8119195e+2, -209381.05, -371268.22, -48865.168, 0.06911181, -0.3079614, -195774.81, -11472.1875, 0.002788968, 10.000419, 9.998213 
2.2653134e+3, 2.9119197e+2, 135497.72, -119781.28, 9914.599, 0.38949534, -0.13827135, 135882.2, 222182.48, 0.0003034348, 10.002078, 9.998405 
2.2653523e+3, 3.0118948e+2, 181571.42, -221443.05, 21281.365, 0.33045802, -0.27299404, 182692.08, 182692.08, 0.000074942734, 10.002629, 9.997172 
2.2653852e+3, 3.1118304e+2, 81269.09, 143757.98, 117672.51, -0.18089487, -0.45435816, 234263.42, 234263.42, 0.00045627946, 9.999971, 10.001008 
2.2749524e+3, 2.0116319e+2, -889594.4, -1017521.5, 37837.215, -0.0077018277, -0.19168143, -879241.1, 89338.82, 0.4526298, 10.001143, 9.998876 
2.274991e+3, 2.1116272e+2, -836302.94, -1012969.75, -7413.178, -0.16807011, -0.13905726, -835992.4, 34591.59, 0.38963944, 10.000883, 9.998253 
2.2750346e+3, 2.2116032e+2, -1002098.9, -1155016.4, -78987.98, 0.11468608, -0.19674361, -968625.6, -196017.81, 0.32267725, 9.999327, 9.997398 
2.2750744e+3, 2.3115773e+2, -886582.1, -955282.5, -57584.64, 0.2243473, -0.30060205, -853880.6, -179245.28, 0.25840095, 9.999144, 9.998126 
2.2751142e+3, 2.4115562e+2, -722386.5, -840043.2, -1484.4194, 0.2120255, -0.27133182, -722367.8, -145708.9, 0.20062341, 9.999569, 9.9980955 
2.275156e+3, 2.5115728e+2, -424983.47, -403993.1, 33286.74, 0.31729215, -0.1960136, -379586.2, 99061.6, 0.14660953, 9.999978, 10.00029 
2.2751938e+3, 2.6115856e+2, -649238.8, -768954.94, -33048.848, 0.14037514, 0.05669987, -640721.3, -260082.84, 0.09444842, 9.999081, 9.997455 
2.2752343e+3, 2.7115625e+2, -197419.73, -307229.47, 72514.266, 0.024632972, -0.12295725, -161369.33, 121286.45, 0.04983968, 10.000753, 9.999128 
2.2752725e+3, 2.8115353e+2, -393531.25, -485080.0, -121229.8, 0.101699464, -0.28563952, -309721.84, -125044.07, 0.019500945, 9.999321, 9.997927 
2.2753152e+3, 2.9115137e+2, -23265.266, -259579.63, 81526.91, 0.32967553, -0.32833022, 2131.568, 88833.016, 0.004786881, 10.001318, 9.997777 
2.2753532e+3, 3.0114818e+2, -20671.848, -310273.72, -106347.54, 0.12325226, -0.534355, 14185.53, 14185.53, 0.0007184054, 10.001323, 9.997133 
2.2753848e+3, 3.111529e+2, -396584.9, -427257.7, 123803.93, -0.27866644, 0.4238472, -287171.1, -287171.1, 0.0007782504, 9.99839, 9.997739 
2.285113e+3, 2.4111748e+2, -461303.97, -1013583.6, -136846.38, -0.16859142, -0.4944917, -429255.3, 147772.3, 0.45869297, 10.002779, 9.995949 
2.2851512e+3, 2.51123e+2, -678742.56, -627010.6, 31616.752, -0.09268942, 0.3534164, -612027.3, -133050.6, 0.36361384, 9.99856, 9.999489 
2.2851971e+3, 2.6111558e+2, -215571.02, -426170.97, 31849.754, 0.35866782, -0.27129683, -210859.67, 170190.33, 0.26167566, 10.001746, 9.998627 
2.2852403e+3, 2.7111652e+2, 248286.61, -88970.67, 100202.445, 0.38903284, -0.13926962, 275811.34, 558852.1, 0.1640845, 10.0043745, 9.999256 
2.2852749e+3, 2.8111514e+2, -56118.0, -287124.7, -218303.8, 0.3286398, -0.13172965, 75355.52, 260410.75, 0.0825175, 10.001485, 9.998347 
2.2853139e+3, 2.9111442e+2, 59078.008, -61495.15, 216559.05, 0.108897485, -0.15482841, 223585.31, 310652.03, 0.030766618, 10.001023, 9.999409 
2.2853544e+3, 3.0111542e+2, 130706.26, 72620.8, 101678.836, 0.15602963, -0.15073307, 207408.81, 207408.81, 0.009050321, 10.000805, 10.000105 
2.2853865e+3, 3.1111673e+2, 9212.149, 217429.03, 145456.14, 0.009195641, 0.18175903, 292195.0, 292195.0, 0.003966125, 9.99918, 10.001781 
2.2952408e+3, 2.7107134e+2, -748907.0, -610890.7, 204379.47, -0.023302788, -0.68508244, -464183.56, -180707.38, 0.434636, 9.997013, 9.998797 
2.295278e+3, 2.8107607e+2, -954915.25, -953581.75, -522538.4, 0.40276316, -0.015160901, -431709.66, -246267.69, 0.2541771, 9.996316, 9.996122 
2.2953098e+3, 2.910847e+2, 148023.64, 330288.8, 288098.63, -0.481895, 0.46445808, 541325.0, 628686.25, 0.121767476, 10.000299, 10.002676 
2.2953555e+3, 3.0109417e+2, -715369.75, -196834.3, 13370.154, 0.027495872, 1.0748812, -196489.8, -196489.8, 0.0540114, 9.994589, 10.001108 
2.2953923e+3, 3.1107345e+2, 219135.14, 1203295.0, -225482.23, 0.5284942, -1.496194, 1252495.9, 1252495.9, 0.03150831, 9.997059, 10.009638 
2.3053235e+3, 2.9105908e+2, 64410.723, -1138311.8, -122731.61, 0.03309301, 0.097620346, 76807.08, 164410.03, 0.36138156, 10.006057, 9.990041 
2.3053584e+3, 3.010414e+2, 34896.09, -176228.06, -62174.145, -0.137225, -1.407194, 51845.14, 51845.14, 0.21541873, 10.000897, 9.998346 
2.3053908e+3, 3.1105435e+2, -9867.251, -1162112.1, 209298.08, 0.092004806, 0.7054197, 26972.586, 26972.586, 0.16807447, 10.004144, 9.990662 
2.3442231e+3, 2.764142e+2, -1240295.9, -1254697.9, 448606.94, 0.028730644, -0.6286045, -798832.1, -567751.6, 0.46859154, 9.994601, 9.994786 
2.3438115e+3, 2.8640786e+2, -3271257.5, -1334788.0, 1056782.6, 0.3739564, -0.42914084, -869750.9, -736588.75, 0.43742353, 9.976342, 10.002604 
2.3581152e+3, 1.7686737e+2, -1503343.0, -2012511.4, -68657.15, 0.16134454, -1.0290416, -1494247.6, -287595.0, 0.4364247, 10.000116, 9.993703 
2.3577254e+3, 1.8685989e+2, -664352.8, -1428539.8, 233703.16, 0.40970808, -0.27715307, -598548.3, 510194.72, 0.37760636, 10.007485, 9.99351 
2.3573372e+3, 1.9685736e+2, -1047604.56, -1622705.1, -189175.4, 0.7072563, 0.6304326, -990956.5, 19827.188, 0.33353668, 10.001875, 9.994145 
2.3569357e+3, 2.068374e+2, -915172.5, -1108899.0, -382089.22, -0.4021455, -0.27644584, -617859.8, 295115.25, 0.3009786, 10.000947, 9.997697 
2.3565425e+3, 2.1682651e+2, -1243557.6, -1197971.1, 405417.84, -0.39944014, -0.47543833, -814706.25, 362.2, 0.27814484, 9.997131, 9.99812 
2.3561509e+3, 2.2682333e+2, -491543.78, -359541.63, 165840.2, -0.56241494, -0.11893058, -247051.47, 470037.34, 0.26104888, 10.00002, 10.002588 
2.3557669e+3, 2.3680948e+2, -2336874.5, -1112037.6, -361211.03, -0.36536035, -1.2156804, -1013449.9, -394236.97, 0.2456314, 9.986063, 10.00269 
2.3553877e+3, 2.4680537e+2, -1748676.5, -1088220.1, -224601.75, 0.38013062, -1.040873, -1019078.06, -497824.4, 0.23008825, 9.990869, 9.999816 
2.354994e+3, 2.5680378e+2, -1075517.6, -637956.06, -162077.86, -0.6553113, -0.5389961, -584460.75, -161183.61, 0.20984621, 9.994347, 10.000637 
2.354604e+3, 2.668013e+2, 304987.6, 202265.22, -574406.06, -0.34636536, -0.34155375, 830324.2, 1155632.8, 0.17504445, 10.003266, 10.002319 
2.354231e+3, 2.767933e+2, -101872.32, -949132.0, -553942.75, 1.0023886, -0.3882806, 171860.58, 399255.4, 0.13098651, 10.004123, 9.992546 
2.3538198e+3, 2.867819e+2, 1545913.8, 184908.97, -1570360.0, 0.41912, -0.23214512, 2576876.8, 2706392.0, 0.1195521, 10.014894, 9.995251 
2.3533982e+3, 2.9677796e+2, 1311914.4, 226759.97, -883307.06, -1.5469917, -0.092776604, 1805976.6, 1837540.3, 0.17766802, 10.013036, 9.995996 
2.3530544e+3, 3.0676e+2, 203856.72, -1948541.1, 1044517.0, 1.3504399, 0.23453927, 627397.75, 627397.75, 0.3012232, 10.012622, 9.980935 
2.3688754e+3, 1.5726857e+2, -1903155.0, -1576598.6, 96909.125, -0.56924725, -0.48633397, -1550005.5, -151271.16, 0.40917483, 9.995358, 10.000434 
2.3684971e+3, 1.6726387e+2, -1237040.6, -1066461.8, -65055.316, 0.4283516, -0.38696682, -1044482.9, 256296.05, 0.3191415, 9.998847, 10.002249 
2.3681101e+3, 1.7726761e+2, -1396378.9, -1298487.1, -212788.64, 0.46054846, 0.42863134, -1129087.6, 73657.375, 0.25440004, 9.998072, 9.999828 
2.3677161e+3, 1.8725206e+2, -1501759.8, -1845561.4, -135747.9, 0.04944661, -0.037925437, -1454623.3, -349717.16, 0.20803122, 9.999206, 9.99466 
2.367319e+3, 1.9723159e+2, -1055511.4, -1524924.5, 121114.98, -0.5419602, -0.8369636, -1026104.4, -18986.547, 0.17323056, 10.001105, 9.995399 
2.3669308e+3, 2.0722173e+2, -463528.0, -512902.78, 76584.2, -0.22592102, -0.94490176, -407750.44, 501459.3, 0.14628343, 10.002083, 10.001611 
2.3665503e+3, 2.1721774e+2, -286799.44, -454789.3, -58520.34, 0.9860387, -0.7766508, -268423.56, 542812.94, 0.1255341, 10.002926, 10.000868 
2.3661624e+3, 2.2721422e+2, -157179.03, -689045.8, 30613.33, 1.2173806, -0.24650222, -155422.78, 557847.06, 0.10829949, 10.004846, 9.997269 
2.3657662e+3, 2.3720853e+2, 252751.02, -369011.1, 19798.357, 0.561272, 0.21232533, 253380.8, 868710.5, 0.09199208, 10.006701, 9.998099 
2.3653705e+3, 2.4720114e+2, 198570.27, 150225.89, 123507.414, -0.18589726, 0.121976025, 300248.7, 817655.25, 0.07586676, 10.003204, 10.002895 
2.3649819e+3, 2.5719172e+2, -755237.0, -625300.1, 175193.02, -0.75853807, -0.20378447, -503417.06, -83913.0, 0.059159536, 9.997303, 9.999329 
2.3645976e+3, 2.6718608e+2, -232120.03, -303955.0, -39602.176, -0.43467367, 0.02739167, -214573.52, 106987.36, 0.040447313, 10.000167, 9.999458 
2.3642217e+3, 2.7718005e+2, -88341.6, -798128.25, 165214.69, 0.32209986, 0.35265058, -51769.523, 171850.16, 0.022603657, 10.003381, 9.993752 
2.3638216e+3, 2.8715885e+2, -44279.246, -1067288.5, -622928.7, 0.3797341, -0.18142976, 250241.63, 376074.38, 0.017413354, 10.004612, 9.990576 
2.3634166e+3, 2.971345e+2, 189259.88, 91928.49, 6334.1577, 0.12480995, -1.387415, 189670.36, 217747.98, 0.03720162, 10.001527, 9.99971 
2.3630318e+3, 3.0715644e+2, 912462.2, 2615381.8, 353264.47, -0.7565616, 0.43728527, 2685756.8, 2685756.8, 0.08321117, 9.996886, 10.020878 
2.3792548e+3, 1.476673e+2, -1608007.4, -1445865.4, 113353.08, -0.3869574, 0.21472201, -1387575.6, 105273.09, 0.38968244, 9.998316, 10.000799 
2.3788726e+3, 1.5765627e+2, -1672316.6, -1568344.8, -21856.822, 0.12372516, -0.35021606, -1563937.0, -168991.2, 0.27836236, 9.997752, 9.9993725 
2.3784861e+3, 1.676476e+2, -1496151.6, -1271375.0, 29687.176, 0.21079461, -0.4774277, -1267520.3, 29509.848, 0.19862524, 9.997692, 10.000689 
2.3780976e+3, 1.7764355e+2, -1405371.1, -1274442.8, -128607.68, 0.06889546, -0.31219265, -1195596.6, 3476.3057, 0.1461588, 9.997992, 9.9999 
2.3777078e+3, 1.8763968e+2, -1138092.4, -968418.56, -27535.627, -0.018830197, -0.019859605, -964061.8, 137051.42, 0.11113541, 9.9986725, 10.001033 
2.377319e+3, 1.9763315e+2, -1085314.9, -1075520.6, 88369.52, 0.08314678, -0.06546534, -991912.6, 11266.816, 0.08556882, 9.999017, 9.999472 
2.3769312e+3, 2.0762464e+2, -896036.0, -1076980.4, 61877.293, 0.33061793, -0.025463345, -876899.7, 28362.826, 0.065839775, 10.000406, 9.998015 
2.3765403e+3, 2.1761501e+2, -785616.9, -1106169.9, -22967.883, 0.3805254, -0.077897534, -783979.56, 23375.805, 0.050802168, 10.000957, 9.996955 
2.3761477e+3, 2.2760567e+2, -377391.88, -731950.1, 104984.48, -0.059064906, -0.04089178, -348637.9, 360810.84, 0.038884565, 10.002766, 9.997899 
2.3757568e+3, 2.3759624e+2, -161765.14, -703971.9, 13250.371, -0.4046707, -0.013368264, -161441.52, 450102.88, 0.028499383, 10.004053, 9.99688 
2.3753662e+3, 2.4758758e+2, -55092.066, -146948.05, -125696.16, -0.28911626, -0.099111736, 32804.094, 546432.0, 0.019239577, 10.002151, 10.000942 
2.3749797e+3, 2.575775e+2, -1083457.0, -933444.56, 7580.1816, -0.045450825, -0.36845845, -933062.5, -517338.97, 0.011432521, 9.995896, 9.997836 
2.374593e+3, 2.6757136e+2, -271096.5, -174743.14, 121725.17, -0.19717412, -0.2252943, -92007.6, 225774.39, 0.005417132, 9.999472, 10.0005865 
2.3742095e+3, 2.7756503e+2, -57664.69, -484111.38, 145728.34, -0.5212346, -0.17584729, -12622.774, 207220.42, 0.0017116448, 10.002347, 9.996408 
2.3738159e+3, 2.8755322e+2, -40924.047, -851532.4, -642717.4, 0.18256272, 0.023830893, 313611.94, 435580.5, 0.000916136, 10.003703, 9.992497 
2.373425e+3, 2.9754442e+2, -565739.1, -887716.9, -37403.04, 1.5147282, 0.3508004, -561451.25, -537383.9, 0.0035023526, 9.998897, 9.994287 
2.3730244e+3, 3.075282e+2, -334679.75, 108451.76, 119372.664, -0.8775156, -0.26020223, 138562.81, 138562.81, 0.010518367, 9.996808, 10.00205 
2.3896487e+3, 1.3806003e+2, -1449853.6, -1516798.4, 60925.742, 0.33243784, -0.07138114, -1413810.9, 173187.98, 0.42782593, 10.00122, 9.999493 
2.3892544e+3, 1.4805484e+2, -1060997.1, -1144096.4, -18051.828, 0.03418243, 0.047286555, -1057245.1, 431801.2, 0.2998544, 10.002857, 10.00147 
2.3888664e+3, 1.580458e+2, -1194953.0, -1295641.8, 4717.2266, 0.14320096, -0.2593989, -1194732.5, 196397.3, 0.19614406, 10.0010395, 9.999907 
2.3884785e+3, 1.6803786e+2, -1133628.5, -1148967.4, 55084.42, 0.1592251, -0.33604655, -1085682.1, 207525.39, 0.12585048, 10.0004015, 10.00042 
2.3880903e+3, 1.780307e+2, -1155545.6, -1175524.5, 30596.576, 0.108358644, -0.38191134, -1133349.0, 61930.863, 0.083471425, 9.999719, 9.999814 
2.3877011e+3, 1.8802695e+2, -1095577.5, -945468.6, -84671.375, 0.15120496, -0.07547525, -907375.3, 189946.8, 0.057587944, 9.998901, 10.001083 
2.387312e+3, 1.9802366e+2, -1269640.6, -1140287.1, -185150.58, 0.21577102, 0.20559603, -1008841.94, -9482.199, 0.03970386, 9.997578, 9.999728 
2.386922e+3, 2.080148e+2, -1110408.6, -1174230.1, -156826.0, 0.17551933, 0.16116238, -982279.75, -80834.305, 0.026570952, 9.998841, 9.998116 
2.3865312e+3, 2.1800387e+2, -718231.9, -981085.44, -49767.727, 0.050015315, -0.014008751, -709124.6, 94425.13, 0.017417854, 10.000968, 9.997815 
2.3861414e+3, 2.2799511e+2, -518892.13, -642864.6, 112155.69, -0.16706428, -0.048724927, -452733.2, 252902.53, 0.011141793, 10.000957, 9.999427 
2.3857525e+3, 2.3798572e+2, -596427.6, -805885.9, 139294.02, -0.38152677, -0.119066924, -526883.94, 80844.97, 0.0065593217, 10.000445, 9.9979105 
2.3853616e+3, 2.4797639e+2, -207652.81, -418696.03, -63538.438, -0.23456551, -0.17793784, -189999.98, 319819.3, 0.0032030866, 10.001861, 9.999177 
2.3849736e+3, 2.5796685e+2, -144875.28, -507948.63, 127863.67, 0.07831487, -0.22740032, -104365.375, 307544.84, 0.0011282732, 10.002431, 9.997573 
2.3845872e+3, 2.6795876e+2, -160950.42, -144206.03, 274498.2, -0.114603795, -0.22808725, 122047.61, 436033.9, 0.00023273825, 10.000306, 10.000386 
2.3842022e+3, 2.7795053e+2, -667102.1, -509754.44, 87713.56, -0.59574276, -0.38499394, -470601.13, -254536.61, 0.00001806133, 9.996961, 9.998791 
2.3838103e+3, 2.8794408e+2, -99152.94, -551088.0, -579836.06, 0.12302411, 0.055233244, 297190.7, 415327.72, 0.000024852017, 10.001831, 9.995447 
2.3834226e+3, 2.9794323e+2, 461133.03, -646999.56, -11745.272, 1.750811, 1.0825607, 461257.5, 481416.9, 0.00024337464, 10.006891, 9.992103 
2.3830168e+3, 3.0790666e+2, -724040.75, -1318565.8, 351288.47, -0.71090484, -0.60715175, -561120.06, -561120.06, 0.00081946, 9.999441, 9.990973 
2.4000327e+3, 1.2845115e+2, -1819054.5, -1743569.1, 166685.39, -0.0065890234, -0.5658397, -1610406.8, 70741.16, 0.49043512, 9.998995, 9.999466 
2.3996396e+3, 1.3844596e+2, -1503696.6, -1598943.1, -13389.284, -0.12034994, -0.45039758, -1501850.3, 81354.2, 0.36336103, 10.000795, 9.998947 
2.3992495e+3, 1.4844099e+2, -1275454.3, -1248367.4, 11386.999, 0.03484353, -0.26985335, -1244216.5, 241038.78, 0.24041095, 10.000882, 10.001065 
2.3988596e+3, 1.5843578e+2, -1421890.8, -1385158.3, -23480.643, 0.16360223, -0.18453144, -1373714.0, 13593.138, 0.14389461, 9.999242, 9.999892 
2.398472e+3, 1.6842903e+2, -1241396.9, -1150787.6, 83571.375, 0.22128555, -0.16701418, -1101030.8, 188342.33, 0.08188297, 9.999471, 10.000744 
2.3980844e+3, 1.7842095e+2, -1282961.3, -1338833.8, 2863.8237, 0.3080837, -0.30414772, -1282814.9, -91361.74, 0.047678713, 9.999309, 9.998893 
2.3976934e+3, 1.8841533e+2, -1258890.9, -1307484.4, -100647.52, 0.25196114, 0.01369614, -1179649.0, -86129.164, 0.028905774, 9.999125, 9.998392 
2.397301e+3, 1.9841054e+2, -1385791.8, -1391840.9, -156667.4, 0.1379882, 0.40289792, -1232119.8, -236539.94, 0.017015342, 9.997747, 9.997911 
2.3969118e+3, 2.083998e+2, -1020277.4, -916214.75, -40501.0, 0.045139074, 0.11760039, -902309.8, -4629.504, 0.00915297, 9.998666, 9.999949 
2.3965248e+3, 2.1838751e+2, -848855.1, -862073.56, -18204.434, 0.10627053, -0.37235704, -836097.25, -36306.09, 0.0045936005, 9.999413, 9.999381 
2.3961382e+3, 2.2838219e+2, -486879.97, -371549.16, 67322.54, 0.19861461, -0.28781816, -340571.3, 361267.03, 0.0022051786, 10.000136, 10.001663 
2.3957512e+3, 2.3837696e+2, -709154.06, -780840.6, 91790.57, 0.19833009, -0.16147758, -646456.75, -42570.02, 0.0009056362, 9.9994135, 9.998581 
2.3953572e+3, 2.4836935e+2, -366892.34, -608704.1, -43906.72, -0.09841806, -0.014627289, -359166.84, 146798.55, 0.00023937336, 10.00145, 9.997965 
2.3949645e+3, 2.5836042e+2, -415827.47, -821763.4, 70926.125, -0.34342113, 0.0743807, -403791.94, 4266.247, 0.000025130046, 10.001435, 9.995905 
2.3945813e+3, 2.683504e+2, -314813.94, -396515.5, 139367.47, -0.0179072, 0.049182504, -210433.6, 99719.81, 0.00000030344088, 10.000143, 9.998683 
2.3942003e+3, 2.7834052e+2, -870191.5, -580729.56, 2056.3582, 0.27293566, -0.19139248, -580714.94, -368469.1, 0.000000006555133, 9.995522, 9.999016 
2.3938005e+3, 2.8833032e+2, 145253.92, 69187.484, -257139.16, -0.25700146, -0.4499543, 367157.38, 481504.4, 0.0000020313998, 10.001489, 9.999806 
2.3934007e+3, 2.9832417e+2, 459995.16, -383403.94, 77192.164, -0.5949394, -0.26714763, 467001.97, 483414.63, 0.00004170725, 10.005872, 9.9943695 
2.393019e+3, 3.0831683e+2, -559789.7, -655381.8, 296728.53, 0.13201058, 0.50356776, -307032.47, -307032.47, 0.00018452053, 9.998134, 9.996072 
2.4100249e+3, 1.2884669e+2, -1613761.9, -1516300.4, -71147.73, -0.16530491, -0.17130433, -1478794.9, 198486.77, 0.44509998, 9.999485, 10.00161 
2.4096301e+3, 1.3883984e+2, -1638781.4, -1658250.4, 13773.983, -0.3989965, -0.31429896, -1631649.3, -52304.855, 0.31930807, 9.9993725, 9.999307 
2.4092405e+3, 1.4883311e+2, -1573788.9, -1530303.5, -27526.238, -0.12690452, -0.19835745, -1516968.5, -35557.277, 0.20041417, 9.999119, 9.999491 
2.4088515e+3, 1.5882558e+2, -1631667.0, -1596840.6, -10170.239, 0.12948364, -0.18512018, -1594088.1, -210601.08, 0.110025235, 9.998261, 9.998902 
2.4084634e+3, 1.6881761e+2, -1264056.1, -1197330.8, 82913.52, 0.14739053, -0.2419184, -1141319.4, 144243.98, 0.054970514, 9.999425, 10.000418 
2.4080756e+3, 1.7880942e+2, -1124121.6, -1256512.0, 13850.919, 0.08892743, -0.35187685, -1122688.1, 64954.133, 0.027314784, 10.000323, 9.998981 
2.407685e+3, 1.8880297e+2, -833031.8, -1094670.0, -18298.951, 0.06923026, -0.13277794, -831758.2, 257955.8, 0.013986388, 10.001978, 9.998505 
2.4072939e+3, 1.9879651e+2, -596399.8, -1006645.6, 45556.69, -0.0043373634, 0.11759204, -591401.75, 400386.38, 0.006556314, 10.003083, 9.998004 
2.4069056e+3, 2.087864e+2, -616794.9, -791986.94, 51506.69, 0.077553555, -0.049160846, -602774.0, 291112.9, 0.002469395, 10.001699, 9.999382 
2.4065183e+3, 2.1877535e+2, -781321.7, -827700.8, 30020.135, 0.16364639, -0.33748528, -766577.56, 29413.316, 0.00078321603, 9.999744, 9.999495 
2.4061304e+3, 2.2876996e+2, -521883.47, -377868.47, 921.1351, 0.11254447, -0.27635595, -377862.56, 320175.94, 0.00023610769, 9.999718, 10.0018635 
2.4057427e+3, 2.3876521e+2, -536230.8, -615431.8, -38721.66, 0.009006051, -0.14014377, -520445.7, 79634.89, 0.000047296035, 10.000122, 9.999395 
2.4053515e+3, 2.487574e+2, -231687.08, -515057.66, -95915.72, -0.13972898, -0.06680808, -202274.31, 299886.6, 0.0000020598873, 10.002207, 9.998266 
2.404961e+3, 2.587486e+2, 53967.297, -454407.28, 64446.332, -0.32029602, -0.011355115, 62009.883, 466262.78, 0.0, 10.003967, 9.997209 
2.4045764e+3, 2.6873994e+2, 107671.63, -196773.3, 127279.08, 0.03178738, 0.05864334, 153872.05, 460207.88, 0.0, 10.003026, 9.998697 
2.4041931e+3, 2.7873123e+2, -59300.6, -103330.13, 78216.125, 0.43001398, -0.022377247, -60.13551, 208357.25, 0.0, 10.000547, 9.999924 
2.4037915e+3, 2.8871885e+2, -46590.477, 141742.28, -177806.77, -0.46245334, -0.6255937, 248778.67, 359316.72, 0.00000024823223, 9.999274, 10.001477 
2.4033897e+3, 2.9871017e+2, -267618.72, -333721.4, -105622.36, -1.3672832, -0.85921955, -189997.23, -177373.52, 0.000011575184, 9.9989395, 9.998104 
2.4030203e+3, 3.087179e+2, 484838.28, 394154.6, -191072.55, 0.96023095, 0.9499819, 635875.2, 635875.2, 0.00006156453, 10.002686, 10.001199 
2.420022e+3, 1.2923664e+2, -1663224.3, -1356177.4, -31959.852, 0.37698245, -0.1376845, -1352886.0, 320584.47, 0.4141129, 9.997394, 10.004382 
2.4196209e+3, 1.3923441e+2, -1617081.1, -1604201.9, -82507.69, -0.4964186, -0.045088984, -1527882.9, 47595.734, 0.28877336, 9.999247, 9.999849 
2.4192314e+3, 1.4922541e+2, -1519018.8, -1676860.9, -65107.25, -0.20183086, -0.0780775, -1495629.1, -18062.637, 0.17287979, 10.000142, 9.998047 
2.418844e+3, 1.592147e+2, -1440078.9, -1659422.8, -19264.818, 0.26380795, -0.2319109, -1438399.8, -58726.37, 0.08747846, 10.000124, 9.997652 
2.4184553e+3, 1.692057e+2, -1244580.8, -1228285.3, 117428.33, 0.11158666, -0.34022436, -1118722.4, 163035.88, 0.038149297, 9.999761, 10.000006 
2.4180664e+3, 1.7919746e+2, -1322323.6, -1341683.9, 48863.29, -0.09922916, -0.42858943, -1282190.9, -98355.87, 0.01570925, 9.998966, 9.999015 
2.4176778e+3, 1.8919002e+2, -906606.0, -984217.9, 37042.332, -0.10416935, -0.41694483, -891764.6, 194145.3, 0.0064830934, 10.000858, 9.999767 
2.4172893e+3, 1.9918233e+2, -820155.06, -1163136.4, 18341.904, 0.0036568868, -0.3918343, -819177.0, 168812.44, 0.0021827125, 10.00179, 9.9975395 
2.4169004e+3, 2.0917402e+2, -803625.1, -1098336.6, -25771.186, 0.16326776, -0.2410744, -801388.56, 88689.555, 0.00044835047, 10.001361, 9.997421 
2.4165115e+3, 2.1916547e+2, -1007413.5, -1127562.0, -13961.617, 0.27878407, -0.11800407, -1005812.5, -213644.17, 0.000068581576, 9.999131, 9.997708 
2.4161191e+3, 2.291588e+2, -647550.44, -529187.4, 16180.074, -0.22776328, -0.071964055, -527015.44, 167215.84, 0.0000096515805, 9.999462, 10.000858 
2.4157283e+3, 2.3915194e+2, -735507.5, -745346.7, -18370.926, -0.67504436, -0.082907796, -721408.9, -125114.47, 0.00000040342232, 9.999064, 9.998981 
2.415345e+3, 2.491424e+2, -166270.88, -298068.88, -5339.922, -0.27869654, -0.298012, -166054.89, 332331.47, 0.0, 10.001942, 9.999849 
2.4149622e+3, 2.5913265e+2, -15192.818, -348268.22, 47636.637, 0.15064217, -0.51703095, -8513.732, 391967.6, 0.0, 10.002987, 9.9984255 
2.41457e+3, 2.6912814e+2, 109824.32, -29189.746, 49042.38, -0.15588076, -0.20005386, 125384.22, 427909.2, 0.0, 10.002457, 10.000049 
2.4141775e+3, 2.791238e+2, -384911.1, -426528.1, -27115.164, -0.47069255, 0.08420083, -371540.28, -166972.88, 0.0, 9.999138, 9.998378 
2.4137866e+3, 2.8911301e+2, -399595.72, -270265.3, -262294.3, -0.08205377, -0.14978366, -64782.61, 41897.46, 0.0000000009564638, 9.998086, 9.999131 
2.4133977e+3, 2.9910314e+2, -921476.5, -608789.94, -51730.418, 0.36244327, -0.36990246, -600453.94, -591672.2, 0.000001073909, 9.994472, 9.9983425 
2.4130031e+3, 3.090988e+2, 557883.2, 762261.75, -71489.44, -0.45782745, -0.20677543, 784785.75, 784785.75, 0.000012575282, 10.001876, 10.0040865 
2.4300127e+3, 1.2962753e+2, -1819524.5, -1391833.5, 33403.504, 0.44172978, -0.069632955, -1389240.4, 280392.13, 0.39271495, 9.996289, 10.004387 
2.429613e+3, 1.3962242e+2, -1523478.5, -1537807.3, -3283.4707, -0.59592706, -0.22436309, -1522761.9, 48908.8, 0.26710206, 9.999899, 9.999996 
2.429226e+3, 1.4961325e+2, -1240399.8, -1556243.9, -46719.926, -0.19742312, -0.2602597, -1233633.8, 240128.25, 0.15331793, 10.002479, 9.997777 
2.4288405e+3, 1.5960339e+2, -989713.1, -1418224.0, -20869.254, 0.34211245, -0.29679114, -988699.2, 387162.8, 0.07196278, 10.003386, 9.997738 
2.4284497e+3, 1.6959536e+2, -1126226.9, -1202187.4, 16931.377, 0.23103073, -0.28879228, -1122623.9, 155314.98, 0.027363949, 10.00072, 9.999725 
2.4280584e+3, 1.7958732e+2, -1539466.5, -1417502.5, 47408.4, -0.034147788, -0.32751983, -1401242.3, -221227.38, 0.009079448, 9.9973345, 9.999267 
2.4276707e+3, 1.8957944e+2, -1152636.0, -1039264.2, 87615.47, -0.07044425, -0.4015809, -991596.1, 90495.55, 0.002868925, 9.998859, 10.00037 
2.427283e+3, 1.9957149e+2, -901413.3, -1121678.1, 39550.137, -0.072512515, -0.4443443, -894527.1, 89643.33, 0.00059867656, 10.000801, 9.998325 
2.4268931e+3, 2.0956405e+2, -670540.06, -1029928.9, 22016.895, -0.016957907, -0.2406644, -669196.3, 217055.64, 0.000045539302, 10.002112, 9.997592 
2.4265032e+3, 2.1955642e+2, -486023.44, -865708.44, 124116.22, -0.0008959001, -0.014453016, -449051.0, 339284.22, 0.0000022398012, 10.0025625, 9.997864 
2.4261126e+3, 2.2954771e+2, -494691.66, -561156.44, 142091.75, -0.21869908, -0.08765419, -381997.84, 308419.78, 0.000000052409952, 10.0009365, 9.999942 
2.425723e+3, 2.3953888e+2, -714772.75, -688771.4, 149697.48, -0.4720923, -0.20318468, -551511.1, 40988.55, 0.0, 9.998946, 9.999421 
2.4253389e+3, 2.4953032e+2, -595820.3, -451025.5, 133921.92, -0.19848844, -0.33779714, -371184.72, 123398.03, 0.0, 9.998687, 10.000406 
2.4249561e+3, 2.5952184e+2, -521521.63, -408916.97, 77236.62, 0.119479, -0.48365456, -369639.75, 27025.443, 0.0, 9.998582, 10.000146 
2.4245632e+3, 2.6951703e+2, -208495.6, -78030.805, -5078.2324, -0.24362105, -0.31843242, -77833.44, 220877.56, 0.0, 9.999658, 10.00113 
2.4241692e+3, 2.7951318e+2, -108432.305, -182921.86, -75419.19, -0.6013181, -0.055954196, -61562.71, 139186.03, 0.0, 10.000403, 9.999459 
2.4237813e+3, 2.8950593e+2, 52079.105, -99688.086, -155852.17, 0.18158509, 0.0729811, 149539.73, 252368.25, 0.0, 10.001192, 9.998886 
2.4233958e+3, 2.9949743e+2, 151178.92, 59125.586, 237924.88, 1.0141168, 0.016380157, 347488.2, 352406.28, 0.000000086511356, 10.00095, 9.999861 
2.422994e+3, 3.0948427e+2, 676009.44, 817902.56, -125070.45, -0.89966214, -0.72179526, 890747.6, 890747.6, 0.0000021116587, 10.002288, 10.004447 
2.4403737e+3, 1.2001985e+2, -1962191.4, -2035423.0, 295825.2, -0.7701782, -0.268318, -1700724.5, 63055.195, 0.49454194, 9.999104, 9.998247 
2.4400023e+3, 1.3001765e+2, -1728217.6, -1406081.9, 90790.71, 0.4347696, -0.032093592, -1382255.8, 283544.0, 0.3775347, 9.997504, 10.003586 
2.4396066e+3, 1.4000845e+2, -1647430.8, -1614754.3, 18628.352, -0.46481392, -0.52241266, -1606314.4, -38432.555, 0.25111946, 9.999059, 9.999769 
2.4392219e+3, 1.5000033e+2, -1464485.9, -1684642.3, -25067.563, -0.07386372, -0.4613892, -1461667.8, 8296.955, 0.13882844, 10.000685, 9.997733 
2.4388376e+3, 1.5999214e+2, -1289650.8, -1582623.1, -81305.555, 0.52459097, -0.32561028, -1268599.5, 103450.11, 0.060861234, 10.001261, 9.997605 
2.4384448e+3, 1.6998503e+2, -1131891.1, -1227620.0, -137569.36, 0.44266358, -0.22698049, -1034097.25, 240022.8, 0.02025213, 10.000846, 9.999454 
2.4380516e+3, 1.7997769e+2, -1309758.5, -1334760.5, -31856.8, 0.26161513, -0.17221561, -1288037.8, -111845.9, 0.0052852775, 9.999065, 9.999022 
2.4376635e+3, 1.8996988e+2, -1066489.4, -977117.94, 120914.34, 0.08362807, -0.26295656, -892896.3, 185370.61, 0.0012089658, 9.999395, 10.000546 
2.4372764e+3, 1.9996223e+2, -1051572.5, -1125468.1, 54248.426, -0.037926998, -0.30825132, -1022884.75, -42543.34, 0.00012403581, 9.999604, 9.998844 
2.436885e+3, 2.0995586e+2, -713093.1, -875258.8, 27972.29, -0.26173165, -0.14112595, -708403.7, 174007.25, 0.000001917801, 10.001239, 9.998967 
2.4364944e+3, 2.1994859e+2, -684192.94, -993654.9, 76463.87, -0.35507774, 0.009301457, -666330.75, 118157.67, 0.000000018702426, 10.001451, 9.997473 
2.4361089e+3, 2.2993717e+2, -611421.56, -750797.56, 45614.582, 0.08473797, -0.2603962, -597820.25, 88774.44, 0.0, 10.000724, 9.998704 
2.4357234e+3, 2.3992604e+2, -928966.5, -941532.06, 80421.22, 0.4572769, -0.5080352, -854583.0, -265885.16, 0.0, 9.998193, 9.998046 
2.4353322e+3, 2.4992162e+2, -680839.6, -537899.8, 120898.8, -0.0032958589, -0.17732482, -468925.9, 21820.625, 0.0, 9.998455, 9.999861 
2.4349418e+3, 2.59917e+2, -715616.4, -570547.4, 70380.96, -0.4213326, 0.10326863, -542013.94, -149216.92, 0.0, 9.997684, 9.99945 
2.4345566e+3, 2.699071e+2, -237567.67, -13367.162, 26198.99, -0.10999831, -0.288901, -10346.376, 284543.03, 0.0, 9.999221, 10.00174 
2.4341701e+3, 2.798981e+2, -248936.78, -134326.67, -70582.57, 0.21081962, -0.6341247, -100715.45, 96256.84, 0.0, 9.999044, 10.000453 
2.4337715e+3, 2.8989685e+2, 117022.555, 199830.11, -109388.86, -0.17335351, -0.14940669, 275388.7, 374374.94, 0.0, 10.000597, 10.001184 
2.433375e+3, 2.998942e+2, -377540.38, -469250.44, 299505.97, -0.5379658, 0.2713751, -120399.52, -119384.73, 0.0, 9.998661, 9.997323 
2.433001e+3, 3.098757e+2, -122243.805, -189633.66, 198069.14, 0.2034461, -0.6211488, 44976.004, 44976.004, 0.00000012398218, 9.999883, 9.998505 
2.4503791e+3, 1.2040567e+2, -1782498.0, -1837986.9, -155074.89, 0.33728066, -0.5405783, -1652705.3, 107283.64, 0.4853985, 10.00009, 9.999261 
2.4499872e+3, 1.3040489e+2, -1727233.8, -1497688.5, 81524.24, -0.16610458, -0.091071084, -1471681.4, 190316.63, 0.36593348, 9.998191, 10.0022 
2.4496017e+3, 1.4039464e+2, -1725565.4, -1654072.1, -4644.237, -0.18391995, -0.57175845, -1653771.8, -89677.28, 0.23856215, 9.998559, 9.999734 
2.4492143e+3, 1.5038843e+2, -1635378.5, -1602183.0, -39289.953, -0.05736723, -0.43188858, -1576128.9, -109970.98, 0.1275105, 9.998772, 9.9992285 
2.4488269e+3, 1.603817e+2, -1634667.5, -1724698.6, -22692.246, 0.14959177, -0.25857887, -1629271.4, -261043.83, 0.052560914, 9.998737, 9.997832 
2.448437e+3, 1.7037265e+2, -1027516.9, -1320035.9, -81565.47, 0.20632447, -0.26148584, -1006310.7, 264010.38, 0.01541553, 10.002153, 9.9981985 
2.4480464e+3, 1.8036367e+2, -553970.56, -985970.56, -82908.52, 0.16521177, -0.26359853, -538605.44, 633806.9, 0.0031067657, 10.004301, 9.998903 
2.4476577e+3, 1.903568e+2, -756894.6, -793986.6, -16802.488, 0.12646154, -0.28375742, -750415.06, 324061.84, 0.00048131414, 10.001351, 10.00087 
2.4472693e+3, 2.0035022e+2, -1186320.5, -1088686.4, -7188.219, 0.03524582, -0.2673202, -1088159.9, -111620.3, 0.000015932997, 9.998185, 9.999768 
2.4468789e+3, 2.1034476e+2, -873501.2, -829283.9, -4759.78, -0.1991655, -0.109621346, -828777.3, 49821.324, 0.0000000054715246, 9.999582, 10.000083 
2.4464887e+3, 2.2033827e+2, -645295.1, -884877.4, -11440.002, -0.38067672, 0.016566208, -644750.06, 135917.16, 0.0, 10.001233, 9.998342 
2.4461024e+3, 2.3032609e+2, -495424.47, -773423.9, -68899.3, 0.021222817, -0.30338672, -479285.4, 203497.1, 0.0, 10.001736, 9.998137 
2.4457163e+3, 2.403143e+2, -372318.53, -629956.7, 3713.7393, 0.39913604, -0.56473565, -372265.0, 212628.38, 0.0, 10.001676, 9.998547 
2.445326e+3, 2.5031054e+2, -219623.6, -304236.56, 102303.49, 0.080344655, -0.18668737, -151223.97, 335710.22, 0.0, 10.001436, 10.0001135 
2.4449353e+3, 2.6030698e+2, -220563.7, -268971.06, 68371.84, -0.32564393, 0.19049805, -172237.89, 216735.88, 0.0, 10.000642, 10.000149 
2.4445494e+3, 2.702963e+2, -354412.53, -130344.31, -52497.83, -0.025448592, -0.25542444, -118654.27, 172421.48, 0.0, 9.998535, 10.001341 
2.4441631e+3, 2.8028613e+2, -386150.8, -93301.08, -179544.69, 0.32390633, -0.704835, -8043.978, 185127.02, 0.0, 9.997452, 10.001539 
2.4437639e+3, 2.9028586e+2, 345165.72, 442345.44, -285458.53, -0.29952022, -0.24684374, 683319.94, 778488.1, 0.0, 10.001423, 10.002523 
2.4433674e+3, 3.0028448e+2, 381016.38, -216492.7, 11291.11, -0.82585466, 0.22800349, 381229.7, 381229.7, 0.0, 10.004114, 9.996487 
2.4430026e+3, 3.102658e+2, 65319.176, -442500.3, 145688.55, 0.8779138, -0.29295236, 104147.05, 104147.05, 0.000000000000427524, 10.002382, 9.995635 
2.4603738e+3, 1.2079368e+2, -1991907.5, -2045063.4, -435900.4, 0.5660168, -0.6451143, -1581775.5, 174403.2, 0.4772245, 9.999114, 9.998602 
2.4599744e+3, 1.3079162e+2, -1642392.5, -1557530.6, 125837.43, -0.58904886, -0.19462258, -1467163.0, 191039.42, 0.3557266, 9.999479, 10.001022 
2.4595974e+3, 1.4078176e+2, -1566660.9, -1557374.3, 21197.05, 0.23962328, -0.5285209, -1540317.9, 19980.982, 0.22774403, 9.999534, 9.999971 
2.4592063e+3, 1.5077691e+2, -1464985.9, -1360983.9, -56012.477, 0.016057402, -0.37825418, -1336555.1, 125792.17, 0.11809006, 9.999283, 10.000712 
2.4588154e+3, 1.6077124e+2, -1628046.0, -1758069.8, 239.28966, -0.14651932, -0.1925434, -1628045.5, -263640.03, 0.04605504, 9.9989395, 9.997513 
2.4584289e+3, 1.7075998e+2, -1287216.3, -1605318.0, 38911.156, -0.05924243, -0.31350517, -1282525.6, -16001.198, 0.012013259, 10.001037, 9.996771 
2.458042e+3, 1.8074916e+2, -898321.5, -1220999.5, -82986.695, 0.0783082, -0.3907788, -878229.9, 290407.47, 0.0018483637, 10.00226, 9.998267 
2.4576518e+3, 1.9074273e+2, -829131.75, -827828.9, -167965.08, 0.18221477, -0.3734324, -660513.94, 410182.9, 0.00018026956, 10.000846, 10.000877 
2.4572623e+3, 2.0073701e+2, -1175134.6, -1071929.9, -69355.65, 0.26208815, -0.28313956, -1037085.6, -64335.88, 0.0000007906511, 9.998292, 9.99984 
2.4568735e+3, 2.1073228e+2, -865314.7, -746581.94, 16581.393, 0.06331257, -0.12427331, -744309.75, 130490.46, 0.0, 9.999361, 10.000771 
2.4564846e+3, 2.2072637e+2, -889134.3, -1017329.94, -38693.703, -0.12850454, 0.008569563, -878360.7, -101498.04, 0.0, 9.999791, 9.99811 
2.4560933e+3, 2.3071519e+2, -640171.75, -833868.25, -97794.83, -0.29158908, -0.21936601, -599384.94, 79587.664, 0.0, 10.000945, 9.9979925 
2.4557036e+3, 2.4070418e+2, -568557.06, -732172.06, -20685.738, -0.27682638, -0.4072738, -565982.3, 15096.89, 0.0, 10.000513, 9.998368 
2.4553211e+3, 2.5069758e+2, -249898.94, -253839.1, 69757.06, 0.18330736, -0.3822298, -182084.14, 301056.1, 0.0, 10.000993, 10.00064 
2.454936e+3, 2.606917e+2, -505935.4, -537099.3, -23676.299, 0.44432363, -0.25714448, -493173.7, -107977.63, 0.0, 9.999359, 9.998901 
2.4545391e+3, 2.706855e+2, -587457.7, -414543.8, -153304.36, -0.14276125, -0.13321242, -324997.8, -37734.24, 0.0, 9.997809, 9.999668 
2.4541448e+3, 2.80679e+2, -775469.7, -466669.44, -117205.586, -0.49004808, -0.05116959, -427222.84, -237892.2, 0.0, 9.995758, 9.999762 
2.4537629e+3, 2.906713e+2, 171057.7, 260821.98, -123134.34, 0.19787034, -0.2596358, 346998.88, 438392.03, 0.0, 10.000785, 10.001529 
2.4533816e+3, 3.006616e+2, -103882.445, -661949.44, -37430.086, 0.8040884, -0.46558914, -101383.17, -101383.17, 0.0, 10.001927, 9.994437 
2.4529846e+3, 3.1064937e+2, -364876.4, -530698.06, 70896.875, -0.5453425, -0.37501302, -338697.5, -338697.5, 0.0, 9.999344, 9.996329 
2.4703628e+3, 1.21185645e+2, -1806476.1, -1740988.4, -214640.47, 0.21680495, -0.37517777, -1556608.6, 195728.78, 0.46784744, 9.999414, 10.000631 
2.4699692e+3, 1.3117802e+2, -1518644.5, -1555303.9, 161352.53, -0.47705358, -0.4624703, -1374583.9, 279830.72, 0.34520847, 10.00106, 10.000206 
2.4695913e+3, 1.4117089e+2, -1505473.3, -1608588.8, 45333.594, 0.22481576, -0.43645486, -1488377.3, 68107.35, 0.21743059, 10.000449, 9.999157 
2.469201e+3, 1.5116344e+2, -1368940.6, -1361938.5, -73148.78, 0.1703258, -0.48492888, -1292207.0, 166349.5, 0.109704144, 10.000293, 10.000166 
2.4688102e+3, 1.6115624e+2, -1468148.1, -1593194.5, -16148.581, 0.043344073, -0.43361995, -1466096.4, -105468.54, 0.040704507, 9.9996605, 9.998293 
2.4684212e+3, 1.7114836e+2, -1415762.6, -1523049.4, 100311.36, -0.12772292, -0.33304557, -1355652.0, -92938.65, 0.00953522, 9.999491, 9.998114 
2.4680322e+3, 1.8113983e+2, -1384326.9, -1504997.4, 32074.762, -0.2460089, -0.23609693, -1376331.1, -211526.63, 0.0011160366, 9.999103, 9.997849 
2.4676433e+3, 1.9113044e+2, -1027493.6, -1167649.9, -134117.3, -0.019645948, -0.3155901, -946249.6, 120648.6, 0.00006263998, 10.000512, 9.998731 
2.4672544e+3, 2.0112213e+2, -808804.2, -945336.94, -130975.69, 0.14599858, -0.30792883, -729371.8, 239609.0, 0.0000000031066179, 10.000992, 9.999413 
2.4668665e+3, 2.1111684e+2, -838798.9, -753334.7, -101091.95, 0.10447392, -0.18196635, -686314.25, 184721.0, 0.0, 9.999576, 10.00067 
2.4664778e+3, 2.2111094e+2, -1085051.1, -1055246.4, -167784.89, -0.037837192, -0.03965945, -901703.3, -128606.94, 0.0, 9.998102, 9.998689 
2.4660857e+3, 2.3110211e+2, -925018.6, -937967.8, -202443.83, -0.29498464, -0.07805358, -728945.9, -53757.492, 0.0, 9.998748, 9.998385 
2.4656953e+3, 2.4109311e+2, -638744.4, -657607.4, -131986.55, -0.43435213, -0.12057165, -515852.8, 61426.145, 0.0, 9.999426, 9.999439 
2.465313e+3, 2.5108525e+2, -441720.03, -313451.47, -82622.49, 0.078457266, -0.27482918, -272992.8, 206354.63, 0.0, 9.99939, 10.001078 
2.4649288e+3, 2.610779e+2, -452420.16, -446133.56, -185947.78, 0.44180325, -0.3430599, -263302.53, 118110.36, 0.0, 9.999266, 9.999603 
2.4645297e+3, 2.7107272e+2, -280779.53, -308455.5, -238984.55, -0.2170099, -0.11393114, -55232.67, 228237.45, 0.0, 9.999943, 9.999432 
2.4641338e+3, 2.8106743e+2, -78785.66, -188589.53, -41410.61, -0.72064906, 0.14391561, -64919.426, 120607.234, 0.0, 10.000665, 9.999327 
2.4637586e+3, 2.9105645e+2, 366346.4, 150326.72, -40751.824, 0.29011068, -0.22903495, 373778.47, 461403.38, 0.0, 10.002839, 9.999876 
2.4633838e+3, 3.0104315e+2, 260224.98, -376431.34, -109495.55, 1.3595709, -0.67844445, 278530.28, 278530.28, 0.0, 10.0037, 9.99561 
2.4629694e+3, 3.110333e+2, -223795.9, -234019.8, -30991.688, -1.3519748, -0.47940558, -197497.39, -197497.39, 0.0, 9.998851, 9.998783 
2.4803555e+3, 1.215745e+2, -1725297.8, -1655007.4, -125194.23, 0.23251124, -0.47284445, -1560118.8, 188410.06, 0.45571586, 9.999432, 10.001282 
2.4799651e+3, 1.3156497e+2, -1640051.0, -1719556.3, 123390.43, -0.25068817, -0.6801388, -1550167.8, 100456.21, 0.33319858, 10.000359, 9.999118 
2.4795847e+3, 1.4155985e+2, -1538803.9, -1700980.6, -22689.56, 0.26521224, -0.35972333, -1535689.4, 16984.05, 0.20679392, 10.000475, 9.998505 
2.479196e+3, 1.5154968e+2, -1320738.8, -1438256.9, -118720.5, 0.39535314, -0.6106591, -1247032.0, 207737.8, 0.10179194, 10.001073, 9.999289 
2.4788067e+3, 1.6154066e+2, -1279948.6, -1403118.9, -54950.563, 0.45606154, -0.7032969, -1258997.1, 97859.66, 0.036105353, 10.000601, 9.999146 
2.4784136e+3, 1.7153738e+2, -1217652.1, -1205625.1, 13078.208, -0.08568099, -0.32554245, -1197244.1, 61650.902, 0.0076701324, 9.999982, 10.000033 
2.4780217e+3, 1.8153201e+2, -1470886.5, -1705248.8, -22619.15, -0.4657096, 0.004973263, -1468723.4, -307768.4, 0.000687035, 9.999279, 9.996359 
2.4776341e+3, 1.9151893e+2, -1247215.5, -1591449.5, -115876.086, -0.24187854, -0.20401247, -1211843.9, -148751.72, 0.000019881356, 10.000495, 9.995763 
2.4772465e+3, 2.0150682e+2, -1007487.4, -1224945.6, -144569.77, 0.032822758, -0.3268665, -935323.06, 29894.887, 0.0, 10.000496, 9.997688 
2.4768582e+3, 2.115002e+2, -920950.94, -862745.75, -160042.66, 0.0922891, -0.2683496, -729181.1, 138102.58, 0.0, 9.999392, 9.999923 
2.4764694e+3, 2.2149415e+2, -1202064.1, -1154644.9, -164310.97, 0.10668506, -0.090220004, -1012341.7, -242995.73, 0.0, 9.997547, 9.998246 
2.4760796e+3, 2.3148805e+2, -934960.9, -898376.4, -166138.31, -0.024595775, 0.100517996, -749526.3, -78109.54, 0.0, 9.998497, 9.998769 
2.47569e+3, 2.4148144e+2, -823445.44, -739061.1, -118995.68, -0.1504411, 0.26119792, -654999.0, -81510.91, 0.0, 9.998275, 9.999405 
2.4753015e+3, 2.5147372e+2, -512556.6, -301974.94, -92706.8, -0.25925452, 0.07063746, -266977.8, 208575.73, 0.0, 9.998855, 10.00133 
2.4749136e+3, 2.6146558e+2, -636107.1, -518947.94, -178213.86, -0.24758196, -0.10424902, -389932.9, -12309.433, 0.0, 9.998105, 9.9996395 
2.4745229e+3, 2.714571e+2, -316004.97, -216477.77, -220683.64, -0.14825597, -0.29921448, -40016.516, 239685.97, 0.0, 9.999371, 10.000301 
2.474132e+3, 2.8144938e+2, -422940.34, -605827.3, 8487.33, -0.2660117, -0.27142498, -422547.3, -240769.25, 0.0, 9.999504, 9.997012 
2.4737456e+3, 2.9144174e+2, 44408.36, -305603.53, 20515.291, -0.5958186, -0.060450777, 45606.723, 129469.58, 0.0, 10.002111, 9.99701 
2.4733663e+3, 3.0143383e+2, 9593.951, -227343.38, -255394.52, -0.041028, 0.1379552, 172658.9, 172658.9, 0.0, 10.001016, 9.997887 
2.4729717e+3, 3.1142542e+2, -337902.75, 385041.2, -269147.06, -0.28015885, -0.15402111, 474237.75, 474237.75, 0.0, 9.995353, 10.004677 
2.4903484e+3, 1.21961914e+2, -2049925.0, -2109615.3, -316113.94, 0.24994841, -0.33879665, -1762250.4, -17506.184, 0.4399176, 9.998542, 9.997877 
2.4899602e+3, 1.3195555e+2, -1694735.9, -1715522.5, 109573.13, -0.06413325, -0.22749786, -1595064.3, 51744.92, 0.31901658, 9.999766, 9.999371 
2.4895771e+3, 1.4194627e+2, -1572516.5, -1711780.0, -34889.895, 0.10266236, -0.34450585, -1564264.5, -15366.807, 0.19536594, 10.00022, 9.998536 
2.4891892e+3, 1.5193775e+2, -1189086.5, -1357416.3, -82610.78, 0.22822152, -0.43380252, -1155318.1, 295658.6, 0.094030365, 10.002003, 9.999403 
2.4888003e+3, 1.6192947e+2, -1018074.25, -1291928.3, -83662.71, 0.28357318, -0.45054516, -994538.0, 358516.84, 0.032013185, 10.002531, 9.998978 
2.4884082e+3, 1.7192344e+2, -1024706.3, -1159673.1, -106489.23, -0.028088614, -0.31200716, -966118.44, 288997.38, 0.0062260167, 10.001501, 9.999614 
2.4880166e+3, 1.8191656e+2, -1249870.3, -1519224.3, -137841.86, -0.30313614, -0.13387209, -1191834.4, -34647.254, 0.00043419475, 10.000408, 9.9970875 
2.4876289e+3, 1.919055e+2, -1072636.1, -1408396.6, -75677.64, -0.12730595, -0.231708, -1056367.4, 2936.023, 0.0000058323185, 10.001207, 9.996695 
2.4872407e+3, 2.018947e+2, -859587.25, -1162409.0, -29745.777, 0.009903097, -0.26133436, -856693.0, 104723.23, 0.000000000090419006, 10.001463, 9.997661 
2.4868508e+3, 2.1188661e+2, -675275.44, -862223.6, -60913.9, -0.0018200636, -0.24891844, -657179.3, 206318.52, 0.0, 10.001455, 9.998973 
2.486461e+3, 2.2187938e+2, -643944.9, -798063.7, -74798.05, -0.046525758, -0.13535565, -613612.94, 151959.11, 0.0, 10.000919, 9.999065 
2.4860717e+3, 2.31874e+2, -656040.25, -669855.7, -34230.582, -0.032046128, 0.06965778, -628027.4, 39605.434, 0.0, 9.999957, 9.999669 
2.4856827e+3, 2.4186803e+2, -668134.0, -625010.75, 16426.613, -0.08776805, 0.2541681, -619466.4, -49769.555, 0.0, 9.999074, 9.999806 
2.4852926e+3, 2.518599e+2, -590640.2, -433470.56, -26621.37, -0.31137237, 0.09817236, -429083.88, 42686.402, 0.0, 9.998586, 10.000609 
2.4849033e+3, 2.6185125e+2, -519350.88, -460674.63, -158887.48, -0.42367128, -0.05833705, -328439.38, 45408.26, 0.0, 9.998734, 9.999764 
2.4845168e+3, 2.7184194e+2, -37925.824, -112671.03, -239391.67, -0.06497073, -0.3067554, 166992.9, 442925.34, 0.0, 10.001251, 10.000187 
2.4841286e+3, 2.818334e+2, 30624.814, -324808.0, -51892.094, -0.01984948, -0.3694637, 38045.953, 216059.97, 0.0, 10.002145, 9.997719 
2.4837361e+3, 2.918274e+2, -424768.28, -530530.8, 153989.34, -0.92058617, 0.006634033, -314833.25, -234746.61, 0.0, 9.998692, 9.997203 
2.4833527e+3, 3.0182216e+2, -297587.16, -96993.13, -45891.37, -0.7045057, 0.4008871, -86992.78, -86992.78, 0.0, 9.997577, 10.000464 
2.4829717e+3, 3.118145e+2, 883724.7, 1174517.6, -497253.1, 0.5936095, 0.05391572, 1547195.3, 1547195.3, 0.0, 10.002527, 10.00681 
2.5003403e+3, 1.2235063e+2, -2057721.9, -2371494.3, -236250.27, 0.30309197, -0.043332875, -1931010.6, -190063.78, 0.42027465, 9.999462, 9.9957285 
2.4999553e+3, 1.323461e+2, -1565316.3, -1582956.6, 113025.17, 0.19805126, 0.22635052, -1460767.6, 182226.17, 0.30251706, 10.000506, 10.000156 
2.4995694e+3, 1.4233293e+2, -1523433.9, -1666748.9, 17950.193, 0.035421073, -0.30956414, -1521219.8, 23899.79, 0.18302314, 10.000395, 9.998809 
2.4991816e+3, 1.5232643e+2, -1330182.8, -1438416.9, -56392.164, 0.04646131, -0.21047798, -1306141.4, 141037.78, 0.08629053, 10.00089, 9.99937 
2.4987938e+3, 1.623191e+2, -1286229.6, -1510771.5, -129223.59, 0.14119498, -0.1066861, -1227318.0, 121929.39, 0.028287582, 10.000988, 9.998204 
2.4984036e+3, 1.7230852e+2, -1148869.8, -1358564.0, -167987.7, 0.11562358, -0.3411453, -1055694.6, 195654.16, 0.0050760456, 10.001173, 9.998419 
2.4980137e+3, 1.8229882e+2, -1167013.1, -1356111.9, -122358.7, 0.10923192, -0.4034119, -1106929.9, 46513.684, 0.00028139996, 10.000533, 9.998135 
2.4976252e+3, 1.9229193e+2, -952484.1, -1091733.1, -79013.46, 0.15062027, -0.30288357, -916796.25, 138719.06, 0.0000014559199, 10.001016, 9.998945 
2.4972358e+3, 2.0228414e+2, -996779.25, -1257990.0, -55787.047, 0.15652221, -0.16360985, -985363.7, -27767.617, 0.0, 10.0007515, 9.997341 
2.4968438e+3, 2.1227488e+2, -860857.7, -1044193.6, -78964.266, -0.09521223, -0.20385748, -831536.56, 28155.342, 0.0, 10.000753, 9.998014 
2.4964522e+3, 2.222665e+2, -810525.94, -877523.5, -106131.04, -0.24511002, -0.1369639, -732732.44, 29044.58, 0.0, 9.999877, 9.999025 
2.4960628e+3, 2.3226015e+2, -660125.06, -562045.44, -84346.33, -0.17047721, -0.12860645, -513518.8, 150319.06, 0.0, 9.999524, 10.000594 
2.495674e+3, 2.4225321e+2, -918678.3, -891736.9, -20287.547, -0.08717471, -0.059222635, -880855.06, -314949.6, 0.0, 9.99807, 9.998443 
2.4952859e+3, 2.522441e+2, -817203.94, -725056.25, -59694.363, -0.0847396, -0.17284258, -695723.06, -227727.44, 0.0, 9.997932, 9.998873 
2.494898e+3, 2.622355e+2, -829321.56, -826298.3, -99056.55, -0.082751855, -0.14391284, -728741.9, -358661.4, 0.0, 9.997668, 9.997742 
2.4945115e+3, 2.7222803e+2, -201664.78, -357012.44, -136583.84, 0.007385765, -0.07521858, -122213.28, 149940.84, 0.0, 10.000906, 9.99865 
2.494124e+3, 2.8222054e+2, -3549.2322, -63047.195, -148091.17, 0.016733153, -0.01937889, 117751.44, 291976.47, 0.0, 10.000869, 10.000093 
2.4937324e+3, 2.922131e+2, -358687.9, 23879.885, 23795.482, -0.37287253, -0.26093915, 25354.268, 101643.57, 0.0, 9.997001, 10.001771 
2.4933457e+3, 3.022056e+2, -921794.8, -740088.2, 128793.34, -0.3661826, -0.27103677, -673327.9, -673327.9, 0.0, 9.994987, 9.997238 
2.4929637e+3, 3.1219646e+2, 283329.0, 106928.93, -165861.11, 0.06501724, -0.26940605, 382983.03, 382983.03, 0.0, 10.002148, 9.999497 
2.5103292e+3, 1.2273646e+2, -1866501.4, -2043074.9, -41327.676, -0.21198145, -0.0681983, -1857307.3, -120143.9, 0.39734322, 9.999873, 9.9977255 
2.5099504e+3, 1.3273141e+2, -1436663.6, -1443918.5, 150748.19, 0.27755266, 0.027838565, -1289499.3, 349713.34, 0.28406283, 10.001279, 10.000972 
2.5095624e+3, 1.4272031e+2, -1580588.3, -1761882.6, 30759.953, -0.07998121, -0.31214753, -1575511.5, -34191.727, 0.16993596, 10.000295, 9.998184 
2.5091735e+3, 1.5271303e+2, -1599381.4, -1668572.6, -53206.4, -0.036784444, -0.206545, -1570512.3, -127119.27, 0.078587286, 9.999386, 9.998502 
2.5087854e+3, 1.6270511e+2, -1585465.3, -1640910.3, -84472.37, 0.030584252, -0.102046534, -1524282.6, -178812.4, 0.024857625, 9.99884, 9.998335 
2.5083974e+3, 1.7269471e+2, -1139850.9, -1304212.1, -44362.85, 0.12061818, -0.3460716, -1128641.4, 118926.266, 0.0041356636, 10.001011, 9.998874 
2.5080088e+3, 1.826853e+2, -929384.6, -1195976.8, -63394.69, 0.13109958, -0.40538642, -915077.44, 234580.78, 0.00018434241, 10.001949, 9.998542 
2.5076193e+3, 1.9267924e+2, -873232.56, -1046709.75, -83979.42, 0.1128942, -0.21427013, -839239.5, 212482.8, 0.00000026313862, 10.001496, 9.999041 
2.5072286e+3, 2.026722e+2, -912638.94, -1117726.1, -138232.72, 0.016744716, -0.036757197, -843067.8, 110727.54, 0.0, 10.000853, 9.998261 
2.506836e+3, 2.1266264e+2, -863449.0, -989391.3, -91341.95, -0.1753126, -0.15569852, -815475.5, 40416.0, 0.0, 10.000431, 9.998599 
2.506445e+3, 2.2265382e+2, -717396.0, -804767.0, -80529.7, -0.28078517, -0.1654171, -669465.7, 88512.73, 0.0, 10.000246, 9.999402 
2.5060564e+3, 2.3264678e+2, -513029.7, -539481.6, -125623.74, -0.10036001, -0.18762086, -399937.63, 260105.2, 0.0, 10.000586, 10.000313 
2.5056678e+3, 2.4263896e+2, -526043.75, -783329.0, -100566.72, 0.0006554148, -0.15956086, -491399.53, 70718.23, 0.0, 10.000987, 9.997802 
2.5052792e+3, 2.5262848e+2, -340071.16, -654431.3, -124442.04, -0.024774501, -0.27784827, -296773.3, 167452.6, 0.0, 10.001758, 9.99758 
2.5048915e+3, 2.626195e+2, -231692.8, -480511.06, -120367.58, -0.032313377, -0.22648275, -182995.08, 183322.64, 0.0, 10.001423, 9.998334 
2.5045043e+3, 2.726137e+2, -473229.97, -461147.75, -25149.81, 0.009500397, 0.0006887875, -441323.66, -172949.11, 0.0, 9.998841, 9.998985 
2.5041166e+3, 2.8260678e+2, -296730.63, -95240.69, -76304.63, 0.003896177, 0.08359861, -69605.49, 100832.8, 0.0, 9.998218, 10.001189 
2.5037268e+3, 2.9259726e+2, 334226.6, 421113.94, -255313.97, -0.100525044, -0.42632252, 636654.0, 709169.6, 0.0, 10.001262, 10.002549 
2.50334e+3, 3.025886e+2, 5430.8804, -431204.3, -138634.69, -0.03173925, -0.5867176, 45729.117, 45729.117, 0.0, 10.001717, 9.996184 
2.502958e+3, 3.1257975e+2, -471129.6, -631138.06, -11951.633, 0.08673917, -0.29866943, -470241.8, -470241.8, 0.0, 9.99824, 9.9964285 
2.5203228e+3, 1.2312033e+2, -1675584.5, -1771532.5, -979.025, -0.15341589, -0.3764289, -1675574.5, 57824.08, 0.3720952, 10.000573, 9.999256 
2.5199437e+3, 1.331161e+2, -1479642.4, -1448960.5, 68085.55, 0.22397797, -0.24972792, -1394509.0, 240927.89, 0.26429757, 10.000659, 10.001185 
2.519556e+3, 1.4310826e+2, -1648546.8, -1839387.1, -98660.484, 0.0058711255, -0.2661892, -1606712.0, -69198.49, 0.15642525, 10.000081, 9.9977 
2.519166e+3, 1.530994e+2, -1531664.6, -1740702.0, -159702.5, -0.0045986827, -0.24883792, -1445319.4, -5711.324, 0.071005836, 10.0004015, 9.997467 
2.5187775e+3, 1.6309068e+2, -1397508.5, -1508624.5, -52330.188, 0.08755781, -0.16968189, -1376743.9, -35047.42, 0.021693112, 10.000025, 9.998663 
2.5183913e+3, 1.7308187e+2, -1207109.3, -1228677.8, -29448.416, 0.15924278, -0.33177173, -1186532.6, 57243.656, 0.00335279, 10.000229, 9.999734 
2.5180033e+3, 1.8307385e+2, -1222180.4, -1417558.0, -95069.82, 0.17931408, -0.2799996, -1183555.6, -37702.918, 0.00011963712, 10.000283, 9.997819 
2.5176117e+3, 1.9306716e+2, -1065662.3, -1242919.8, -125653.68, 0.018046442, -0.09027969, -1000525.3, 47399.727, 0.00000002568285, 10.000587, 9.998117 
2.5172204e+3, 2.0305979e+2, -989502.25, -1111461.5, -145424.42, -0.09438467, 0.08345196, -892789.8, 57211.55, 0.0, 10.000145, 9.998646 
2.5168288e+3, 2.1305017e+2, -858472.6, -873847.56, -140428.39, -0.17241335, -0.16239405, -725521.44, 126572.086, 0.0, 9.999951, 9.999617 
2.516439e+3, 2.2304136e+2, -946900.2, -1018232.06, -86039.89, -0.11652042, -0.20107971, -889426.9, -135249.61, 0.0, 9.999253, 9.998364 
2.5160518e+3, 2.3303407e+2, -677854.56, -748441.4, -132111.88, 0.14135891, -0.15754348, -576403.06, 79841.734, 0.0, 10.000124, 9.999057 
2.5156632e+3, 2.4302535e+2, -786434.06, -1088279.3, -79138.1, 0.21671328, -0.070375495, -766944.0, -208613.4, 0.0, 10.0001135, 9.996109 
2.515273e+3, 2.530131e+2, -533293.8, -872289.2, -107979.69, -0.08550226, -0.26777855, -501821.13, -41362.04, 0.0, 10.001097, 9.996365 
2.514883e+3, 2.6300338e+2, -327641.8, -394450.84, -209709.86, -0.24621199, -0.2576072, -148692.66, 213864.19, 0.0, 10.000344, 9.999407 
2.5144938e+3, 2.729985e+2, -470119.25, -201639.36, -135128.8, -0.14986615, -0.18576545, -145405.81, 119189.86, 0.0, 9.997905, 10.001141 
2.514106e+3, 2.829911e+2, -801494.7, -783154.1, 16683.865, -0.14120923, -0.12180666, -773286.44, -606623.44, 0.0, 9.996847, 9.997084 
2.51372e+3, 2.9297912e+2, -51954.81, -337793.4, -137948.52, -0.24677928, -0.39728287, 3760.5256, 72542.76, 0.0, 10.001241, 9.997278 
2.513336e+3, 3.0297092e+2, 147884.36, -56865.03, -345961.5, -0.0019152056, -0.29651886, 406300.38, 406300.38, 0.0, 10.001569, 9.998769 
2.5129473e+3, 3.1296247e+2, -621820.06, -101005.12, -127545.42, 0.006459097, -0.53059965, -71447.27, -71447.27, 0.0, 9.99491, 10.001563 
2.5303206e+3, 1.2350252e+2, -1691852.3, -1674716.1, -109242.53, 0.1591517, -0.5901636, -1573706.1, 155957.53, 0.34545994, 9.999946, 10.000494 
2.5299335e+3, 1.3350117e+2, -1619193.0, -1529496.3, 14252.953, -0.1288932, -0.17808487, -1527285.9, 104384.91, 0.24384509, 9.999469, 10.000951 
2.5295487e+3, 1.4349459e+2, -1775530.6, -1865604.9, -121677.195, -0.03595949, -0.059719086, -1690823.0, -157088.88, 0.14280653, 9.999121, 9.997946 
2.5291613e+3, 1.5348527e+2, -1264942.6, -1526142.0, -101248.03, 0.07143684, -0.15014534, -1230292.8, 205540.02, 0.06363834, 10.002, 9.998149 
2.5287732e+3, 1.6347685e+2, -1057761.6, -1322587.1, -135398.28, 0.1383467, -0.08945237, -1000791.56, 337126.6, 0.0187796, 10.002281, 9.998859 
2.5283828e+3, 1.734694e+2, -1360901.4, -1318292.1, -143960.16, 0.05905276, -0.113516554, -1194068.8, 45917.645, 0.0026956536, 9.999145, 9.99968 
2.527993e+3, 1.8346138e+2, -1579722.6, -1491423.0, -128323.836, -0.01449032, -0.09080906, -1399866.5, -257805.2, 0.00007576087, 9.997408, 9.998677 
2.527604e+3, 1.9345222e+2, -1210237.9, -1229347.8, -72443.19, -0.018563652, -0.21774545, -1146722.3, -102571.08, 0.00000000011876218, 9.999193, 9.99889 
2.5272143e+3, 2.0344386e+2, -958649.8, -1087409.4, -128998.59, -0.04817414, -0.18216038, -878858.2, 67375.875, 0.0, 10.0002775, 9.998731 
2.5268233e+3, 2.1343619e+2, -778814.3, -888022.5, -184244.45, -0.054885834, -0.17559925, -641252.75, 207056.95, 0.0, 10.000655, 9.999194 
2.5264332e+3, 2.234281e+2, -680860.2, -887110.5, -169869.61, -0.049969077, -0.12634069, -585263.25, 165124.9, 0.0, 10.000971, 9.998446 
2.5260448e+3, 2.3341928e+2, -476431.94, -705519.3, -158777.83, 0.07580085, -0.18808375, -395193.47, 257278.2, 0.0, 10.001615, 9.998688 
2.525656e+3, 2.4341027e+2, -549265.4, -833288.9, -89150.2, 0.09372194, -0.15459359, -523601.56, 30958.26, 0.0, 10.001026, 9.997447 
2.5252655e+3, 2.5340036e+2, -810929.6, -893278.7, 37937.516, -0.10769205, -0.19654593, -796116.7, -339454.16, 0.0, 9.998622, 9.997452 
2.524875e+3, 2.633911e+2, -583137.75, -504853.44, -5542.047, -0.2529021, -0.18423986, -504463.03, -145708.83, 0.0, 9.998386, 9.999627 
2.5244862e+3, 2.7338368e+2, 38599.594, -28865.363, -155903.3, -0.17273971, -0.28003067, 164377.98, 425196.78, 0.0, 10.001542, 10.00064 
2.5240985e+3, 2.8337532e+2, -87923.17, -521741.13, -2962.5933, -0.15179758, -0.25648686, -87902.945, 74994.4, 0.0, 10.002044, 9.996358 
2.5237134e+3, 2.933643e+2, -466125.63, -726209.75, 135417.08, -0.25659004, -0.26043868, -408421.28, -343407.16, 0.0, 9.999126, 9.995672 
2.5233293e+3, 3.033557e+2, -188367.25, 857.8029, -122751.03, 0.010320466, -0.13837928, 61227.035, 61227.035, 0.0, 9.998185, 10.00085 
2.5229388e+3, 3.1334978e+2, 211557.23, 583443.7, -246075.17, 0.21303105, -0.2692082, 705928.56, 705928.56, 0.0, 9.999206, 10.00431 
2.5403145e+3, 1.2389422e+2, -1438673.5, -1435402.1, -81916.96, 0.19731356, 0.14370793, -1355104.5, 370729.38, 0.31815657, 10.00169, 10.001899 
2.5399247e+3, 1.3388722e+2, -1492894.3, -1472502.8, 12710.322, -0.22105034, -0.01831752, -1466404.1, 161491.34, 0.22319712, 10.00059, 10.000893 
2.539541e+3, 1.4388038e+2, -1574373.0, -1699044.3, 14889.551, -0.0014441647, 0.06688961, -1572619.4, -42658.68, 0.12934339, 10.000142, 9.998631 
2.5391576e+3, 1.5387142e+2, -1305370.0, -1480507.6, 3980.0457, 0.22582676, -0.059133895, -1305279.6, 126774.586, 0.05657354, 10.00133, 9.998842 
2.5387692e+3, 1.6386372e+2, -1217024.0, -1407464.4, -191783.6, 0.31121525, 0.04766391, -1098123.1, 236009.23, 0.016116831, 10.00121, 9.998788 
2.5383738e+3, 1.7385744e+2, -1292815.6, -1331578.1, -246582.88, -0.014887072, 0.15309863, -1064853.5, 171338.28, 0.0021455006, 9.999787, 9.999282 
2.537982e+3, 1.838489e+2, -1364383.9, -1303137.5, -54735.29, -0.12771718, 0.11743553, -1271041.3, -132771.08, 0.000046550977, 9.998523, 9.999447 
2.5375968e+3, 1.9383654e+2, -1123972.0, -1071535.0, -28785.807, 0.069599494, -0.4520572, -1058817.3, -18435.127, 0.0, 9.999286, 9.999948 
2.5372094e+3, 2.0382711e+2, -1140134.1, -1290549.8, -118257.8, 0.20431904, -0.5312229, -1075195.1, -132723.52, 0.0, 9.999632, 9.997609 
2.5368184e+3, 2.1382174e+2, -958529.94, -1110853.6, -181759.83, 0.16351674, -0.19645819, -837620.06, 6910.825, 0.0, 10.000105, 9.9978895 
2.5364274e+3, 2.2381416e+2, -839446.6, -990219.44, -127353.21, 0.060350798, -0.00019314892, -766839.94, -20231.436, 0.0, 10.0001135, 9.998131 
2.5360364e+3, 2.3380284e+2, -613605.06, -745350.0, -132861.8, -0.16822442, -0.34290156, -531182.44, 117535.36, 0.0, 10.000701, 9.998805 
2.5356463e+3, 2.4379481e+2, -572006.1, -586613.56, -163735.75, -0.19895671, -0.307015, -415411.28, 135382.75, 0.0, 9.999912, 9.999624 
2.5352567e+3, 2.537907e+2, -712830.75, -518843.66, -58790.1, -0.060271222, -0.085124284, -502417.53, -49586.473, 0.0, 9.997979, 10.000283 
2.5348687e+3, 2.637828e+2, -959582.6, -1046139.2, 91838.055, -0.0017569229, 0.047877308, -901336.4, -546427.3, 0.0, 9.9974985, 9.996297 
2.5344822e+3, 2.737696e+2, -319483.13, -628561.5, -36689.266, 0.011308392, -0.27852777, -315187.63, -58144.492, 0.0, 10.001039, 9.996723 
2.5340948e+3, 2.8376022e+2, -67908.59, -250894.58, -114888.11, -0.02145464, -0.22577406, -12533.467, 146602.72, 0.0, 10.001184, 9.998607 
2.5337052e+3, 2.9375464e+2, -434935.06, -276687.6, 41789.867, -0.1975216, -0.08939619, -266329.72, -205141.05, 0.0, 9.997602, 9.999444 
2.5333175e+3, 3.037454e+2, -708742.3, -535822.2, 13378.499, -0.13504867, -0.11437391, -534793.25, -534793.25, 0.0, 9.996044, 9.998134 
2.53293e+3, 3.1373695e+2, -71108.73, 247948.17, -96485.305, 0.0071680206, -0.21959567, 274856.7, 274856.7, 0.0, 9.998327, 10.00237 
2.5503033e+3, 1.2428094e+2, -1485058.0, -1698473.3, 184430.56, -0.5589808, -0.079382055, -1378690.1, 343346.97, 0.29081753, 10.002715, 9.998892 
2.5499216e+3, 1.3427453e+2, -1324545.5, -1450026.5, 104978.89, -0.026252218, -0.086675614, -1264987.4, 359108.28, 0.2027681, 10.002379, 10.00018 
2.5495353e+3, 1.4426622e+2, -1414935.1, -1578258.3, 74948.33, -0.021361286, -0.105995215, -1385755.0, 140420.44, 0.11625642, 10.001216, 9.998944 
2.5491497e+3, 1.5425819e+2, -1442170.8, -1514738.6, 94966.3, 0.09133168, -0.16632871, -1376792.9, 51463.465, 0.04988728, 10.000188, 9.999168 
2.5487614e+3, 1.6425048e+2, -1390690.1, -1487031.6, -94546.04, 0.13828984, -0.061451707, -1332750.6, -2416.7905, 0.013707004, 10.000004, 9.99881 
2.5483686e+3, 1.7424291e+2, -988700.0, -1196708.3, -103327.92, 0.07164898, -0.04875207, -946097.44, 286311.5, 0.0016894786, 10.001943, 9.999169 
2.547978e+3, 1.8423483e+2, -816818.2, -1049072.8, -411.05673, 0.03269411, -0.017475845, -816817.5, 317669.13, 0.000027889511, 10.002288, 9.999385 
2.5475904e+3, 1.9422518e+2, -932969.7, -1019299.25, -14238.806, 0.13264456, -0.2690383, -930681.8, 105894.37, 0.0, 10.00072, 9.999642 
2.547202e+3, 2.042165e+2, -1010644.44, -1122785.3, -87708.516, 0.16529368, -0.29465672, -962615.5, -23956.8, 0.0, 10.000003, 9.998596 
2.5468114e+3, 2.1420923e+2, -791085.44, -957517.6, -26864.17, 0.097682394, -0.20742877, -786856.7, 53875.56, 0.0, 10.000824, 9.998637 
2.5464207e+3, 2.2420111e+2, -726341.2, -894692.5, 21641.594, 0.027332403, -0.10651027, -723603.6, 19210.691, 0.0, 10.000662, 9.998531 
2.5460303e+3, 2.3419116e+2, -781848.3, -839230.3, 22404.506, -0.063272625, -0.26963207, -774136.9, -129222.92, 0.0, 9.99954, 9.998746 
2.54564e+3, 2.4418323e+2, -549254.3, -515113.25, -85907.2, -0.111631244, -0.23566918, -444596.97, 102393.11, 0.0, 9.999657, 10.000292 
2.5452492e+3, 2.5417823e+2, -213377.02, -252493.94, -163457.77, -0.055025592, -0.108772546, -68311.74, 380721.16, 0.0, 10.001124, 10.00068 
2.544861e+3, 2.6417026e+2, -391590.8, -763700.9, 28622.363, -0.005823098, -0.021389807, -389402.1, -38292.227, 0.0, 10.001246, 9.99647 
2.544476e+3, 2.7415732e+2, -512792.28, -800030.44, 160227.89, 0.047588762, -0.23806784, -441238.38, -187994.63, 0.0, 9.99994, 9.996139 
2.5440884e+3, 2.8414798e+2, -157335.98, -105674.56, 33414.63, 0.0084069595, -0.20328286, -89270.66, 66067.01, 0.0, 9.999587, 10.000436 
2.5436962e+3, 2.941436e+2, -9409.445, 95280.375, -50626.33, -0.20502827, -0.05902318, 115757.266, 173133.23, 0.0, 9.999649, 10.00109 
2.5433087e+3, 3.0413488e+2, -192357.19, -288043.03, 7507.0703, -0.05153384, -0.14365587, -191771.81, -191771.81, 0.0, 9.999367, 9.998332 
2.5429192e+3, 3.1412366e+2, -190117.92, -75134.08, 12250.97, -0.21188214, -0.38730544, -73843.29, -73843.29, 0.0, 9.998334, 10.00027 
2.560306e+3, 1.2467106e+2, -1571530.8, -1920167.6, -91476.805, 0.09470928, -0.1586766, -1548986.5, 169221.13, 0.26403108, 10.002476, 9.997349 
2.559919e+3, 1.3466239e+2, -1370738.9, -1637247.1, 40532.07, 0.17661469, -0.22135964, -1364710.9, 255578.7, 0.18292536, 10.00278, 9.998443 
2.5595313e+3, 1.4465292e+2, -1301086.0, -1513258.5, 1657.7286, 0.1502795, -0.25902736, -1301073.0, 221306.9, 0.1037245, 10.00202, 9.998991 
2.5591412e+3, 1.5464535e+2, -1328487.0, -1474450.6, -38212.836, -0.042178385, -0.29878023, -1319088.3, 105364.46, 0.043632858, 10.00101, 9.999047 
2.5587526e+3, 1.646372e+2, -1308049.6, -1446345.5, -89036.77, 0.02068575, -0.24121284, -1264463.4, 62070.207, 0.011545959, 10.000631, 9.99875 
2.5583652e+3, 1.746279e+2, -1043140.0, -1248930.5, -110342.65, 0.2999793, -0.40456003, -995161.3, 233466.75, 0.0013158798, 10.001737, 9.998877 
2.557976e+3, 1.8462084e+2, -953732.06, -1198675.5, -80741.46, 0.37516403, -0.21943557, -929511.94, 201188.63, 0.000016496271, 10.001803, 9.998576 
2.5575846e+3, 1.9461574e+2, -1027859.6, -1183293.5, -103579.26, 0.22098319, 0.05907172, -976082.94, 56670.973, 0.0, 10.000626, 9.998574 
2.557194e+3, 2.0460826e+2, -943988.7, -907047.75, -69920.836, 0.093559906, 0.14719231, -853198.94, 81626.84, 0.0, 9.999777, 10.000169 
2.556803e+3, 2.1459787e+2, -810179.6, -774567.56, -40211.266, -0.046758488, -0.27083686, -748396.3, 88524.95, 0.0, 9.999983, 10.000281 
2.5564137e+3, 2.2458965e+2, -879444.94, -1014074.7, -43643.125, 0.052397784, -0.23856433, -866535.0, -127533.27, 0.0, 9.9999, 9.998039 
2.5560263e+3, 2.3458317e+2, -892558.1, -950244.6, -53662.32, 0.34834644, -0.041782197, -860478.7, -219406.73, 0.0, 9.999101, 9.99816 
2.5556362e+3, 2.445743e+2, -805965.7, -864142.44, -43401.563, 0.32453787, 0.026118044, -782806.3, -239645.64, 0.0, 9.998986, 9.998168 
2.5552425e+3, 2.545625e+2, -488117.88, -629292.56, -126357.45, -0.08884337, -0.34712458, -413968.28, 31303.895, 0.0, 10.00041, 9.998392 
2.5548527e+3, 2.6455396e+2, -354946.53, -439685.8, -18346.967, -0.23088145, -0.31010452, -351144.75, -3793.179, 0.0, 10.000339, 9.99905 
2.5544667e+3, 2.7454755e+2, -410524.47, -405801.34, 120461.914, -0.12254557, -0.22908437, -287677.84, -38266.832, 0.0, 9.999262, 9.999118 
2.554079e+3, 2.8453904e+2, -469675.97, -492033.94, 46063.758, -0.1397179, -0.1612832, -433454.13, -281958.8, 0.0, 9.9986, 9.998194 
2.553688e+3, 2.9452914e+2, -284255.16, -326190.53, -51034.75, -0.283955, -0.35984036, -250048.66, -196451.3, 0.0, 9.999108, 9.99839 
2.5533038e+3, 3.045221e+2, -155111.6, -96512.3, -91975.58, 0.20748575, -0.2002107, -29282.285, -29282.285, 0.0, 9.999087, 9.999666 
2.5529134e+3, 3.145209e+2, -282343.9, 93234.08, 7613.42, 0.11403231, 0.29685977, 93388.35, 93388.35, 0.0, 9.997112, 10.001864 
2.5703e+3, 1.250601e+2, -1667468.3, -1840715.3, -97285.65, -0.0036343473, -0.0052027446, -1623830.0, 90570.305, 0.23823552, 10.001094, 9.998501 
2.5699154e+3, 1.350493e+2, -1437967.5, -1737189.0, 25710.729, 0.23171426, -0.24632478, -1435774.4, 180724.36, 0.16394834, 10.002487, 9.997841 
2.5695282e+3, 1.4503837e+2, -1295234.8, -1583833.5, -58279.68, 0.2613989, -0.36805066, -1283910.1, 234692.81, 0.09188186, 10.002386, 9.998319 
2.569136e+3, 1.5503076e+2, -1216858.5, -1498448.4, -98892.21, -0.073446035, -0.33615094, -1185598.6, 235079.33, 0.03784501, 10.002142, 9.998356 
2.5687462e+3, 1.6502303e+2, -1132243.1, -1346608.9, -179724.33, -0.08952147, -0.21518753, -1030167.75, 292588.1, 0.009625426, 10.001796, 9.998864 
2.5683588e+3, 1.7501436e+2, -1053243.5, -1272844.6, -162193.22, 0.17221639, -0.30837658, -967179.9, 257664.88, 0.0010124295, 10.001721, 9.998729 
2.567969e+3, 1.8500742e+2, -879236.1, -1014289.56, -162516.23, 0.20791139, -0.17493556, -770775.94, 356137.97, 0.000009793076, 10.001658, 9.999904 
2.5675774e+3, 1.9500199e+2, -791888.0, -947814.75, -81342.82, 0.054799937, -0.025352854, -757179.5, 271786.3, 0.0, 10.001675, 9.999691 
2.5671858e+3, 2.0499471e+2, -742923.9, -833997.56, -81284.42, -0.068143256, 0.03459091, -695290.1, 235745.63, 0.0, 10.001186, 10.000013 
2.566795e+3, 2.1498507e+2, -752094.3, -796172.6, -124163.43, -0.131525, -0.24573942, -648029.2, 185098.56, 0.0, 10.000507, 9.99992 
2.5664064e+3, 2.249771e+2, -654541.3, -854384.25, -156197.48, -0.023009859, -0.21001878, -569039.06, 166168.1, 0.0, 10.0011015, 9.998586 
2.56602e+3, 2.3497069e+2, -329261.63, -667978.7, -126161.16, 0.29303363, -0.026734393, -287435.53, 349840.44, 0.0, 10.002753, 9.998399 
2.5656298e+3, 2.4496199e+2, -257249.03, -627334.06, -106481.36, 0.28827983, 0.046089057, -228799.13, 310565.0, 0.0, 10.002791, 9.99797 
2.5652364e+3, 2.5495023e+2, -379909.34, -655442.75, -81105.35, -0.08604609, -0.23712617, -357808.16, 83670.68, 0.0, 10.001383, 9.99778 
2.564846e+3, 2.649413e+2, -239212.64, -252681.69, -42074.246, -0.26050648, -0.26453573, -203337.36, 140224.22, 0.0, 10.000451, 10.000295 
2.5644588e+3, 2.7493542e+2, -214893.83, -202965.17, -94751.055, -0.17796905, -0.21365947, -113990.914, 131620.31, 0.0, 9.999993, 10.00019 
2.5640702e+3, 2.8492713e+2, -319258.25, -496673.8, -146620.94, -0.19621702, -0.17904203, -236598.67, -88906.99, 0.0, 9.999846, 9.997587 
2.5636807e+3, 2.9491606e+2, -211850.23, -425048.88, -106766.13, -0.26691055, -0.37174883, -167577.34, -117769.71, 0.0, 10.00005, 9.997297 
2.5632963e+3, 3.0490914e+2, 14328.456, 34541.273, -151557.61, 0.23014043, -0.17589583, 176329.08, 176329.08, 0.0, 9.999854, 10.000264 
2.562902e+3, 3.1490394e+2, 24278.213, 147267.73, -296024.3, -0.14355524, -0.05934122, 388117.13, 388117.13, 0.0, 9.9992895, 10.001303 
2.5802958e+3, 1.2544973e+2, -1508529.3, -1794283.3, -16741.846, 0.09594761, 0.37719455, -1507551.8, 203033.81, 0.21373183, 10.00241, 9.998183 
2.5799116e+3, 1.3543592e+2, -1349982.1, -1668010.5, 6820.1035, 0.33602908, -0.236624, -1349836.0, 262875.72, 0.14603193, 10.002907, 9.998165 
2.5795245e+3, 1.4542413e+2, -1314646.5, -1653828.3, -42806.91, 0.3946666, -0.43708688, -1309327.4, 205497.44, 0.080827504, 10.002505, 9.997768 
2.5791317e+3, 1.554167e+2, -1258704.5, -1609867.8, -94739.37, 0.024741149, -0.31355137, -1234775.6, 182125.27, 0.032553293, 10.002254, 9.997526 
2.5787404e+3, 1.6540942e+2, -1128781.0, -1354836.6, -119553.25, -0.09435689, -0.09889872, -1077284.4, 241691.72, 0.007938516, 10.001857, 9.998749 
2.5783512e+3, 1.7540176e+2, -1127065.3, -1324969.4, -143109.95, -0.0049561844, -0.092601344, -1052028.9, 169026.52, 0.00076767127, 10.001283, 9.998567 
2.5779608e+3, 1.8539433e+2, -850413.2, -822955.7, -130833.234, -0.005680597, -0.074420676, -705132.9, 417991.75, 0.000005913737, 10.001174, 10.001415 
2.5775698e+3, 1.9538678e+2, -809019.06, -789354.8, -132089.36, -0.09808993, -0.31490937, -666732.1, 358456.06, 0.0, 10.000951, 10.001079 
2.5771788e+3, 2.0537952e+2, -949572.44, -1125547.4, -132413.25, -0.121428, -0.23427221, -878578.56, 48680.277, 0.0, 10.000643, 9.998247 
2.5767884e+3, 2.153718e+2, -965228.7, -1098172.8, -170954.28, -0.112431936, -0.18833905, -848278.0, -18936.125, 0.0, 9.999936, 9.998105 
2.5763994e+3, 2.2536378e+2, -753849.1, -821872.0, -84047.86, -0.088111594, -0.09645387, -697191.8, 34232.76, 0.0, 10.000262, 9.999161 
2.5760114e+3, 2.3535512e+2, -488682.28, -679409.94, -81484.93, -0.037854645, -0.21854615, -458610.66, 174900.5, 0.0, 10.00155, 9.998855 
2.5756222e+3, 2.4534824e+2, -394962.44, -633421.8, -158435.88, 0.004293532, -0.0007262331, -315905.34, 219676.28, 0.0, 10.001735, 9.998384 
2.575231e+3, 2.5534192e+2, -494066.6, -670313.5, -133891.0, -0.0023749482, 0.1772471, -421901.1, 15746.74, 0.0, 10.00055, 9.998038 
2.574841e+3, 2.6533237e+2, -513633.22, -595264.94, -62401.16, -0.038619105, 0.17494005, -479884.75, -140144.17, 0.0, 9.99958, 9.998347 
2.5744525e+3, 2.7532038e+2, -512815.47, -565016.1, -123492.29, -0.0714262, -0.22713356, -412695.47, -170842.45, 0.0, 9.999022, 9.998141 
2.5740632e+3, 2.8531215e+2, -339780.2, -330051.0, -137956.88, -0.15324338, -0.15701254, -196872.98, -52942.016, 0.0, 9.99907, 9.9990635 
2.5736728e+3, 2.9530573e+2, -235199.1, -280674.84, -66920.06, -0.32579774, -0.06998302, -187259.48, -141265.95, 0.0, 9.999334, 9.998607 
2.5732848e+3, 3.0529773e+2, -211086.44, -255669.89, -142982.88, -0.1407409, 0.046592265, -88668.02, -88668.02, 0.0, 9.999252, 9.9985075 
2.5728965e+3, 3.1528533e+2, -158363.5, 27388.414, -83133.08, 0.014777104, -0.41539255, 59160.168, 59160.168, 0.0, 9.99841, 10.000854 
2.5902954e+3, 1.2582967e+2, -1365448.3, -1566516.5, 23964.916, 0.35716614, -0.28978252, -1362631.4, 344221.38, 0.19077115, 10.002918, 9.999704 
2.5899047e+3, 1.3582377e+2, -1308007.6, -1584203.0, 41070.29, 0.0302621, -0.16916864, -1302029.9, 306883.25, 0.12932457, 10.002948, 9.998746 
2.5895157e+3, 1.4581494e+2, -1270031.6, -1530874.5, -10986.357, -0.02206183, -0.14034568, -1269569.8, 241432.4, 0.07062259, 10.002401, 9.998653 
2.589127e+3, 1.5580761e+2, -1180074.1, -1489178.8, 27356.951, 0.022862647, -0.06625617, -1177671.6, 235405.52, 0.027766839, 10.00245, 9.998252 
2.5887355e+3, 1.6579959e+2, -1098416.0, -1315998.3, -30077.496, -0.07951353, 0.042586602, -1094334.8, 220821.97, 0.0064744665, 10.001965, 9.998961 
2.5883436e+3, 1.7579068e+2, -1176881.5, -1349224.1, -6621.871, -0.19988169, -0.058214493, -1176627.4, 40616.406, 0.0005723583, 10.00089, 9.998618 
2.5879526e+3, 1.8578185e+2, -1046397.44, -1083280.0, -66371.97, -0.2087307, -0.09306515, -995952.5, 123374.56, 0.0000035552432, 10.000518, 9.999956 
2.5875628e+3, 1.9577263e+2, -959570.25, -1028439.8, -160867.36, -0.17708713, -0.32389298, -829493.44, 191917.6, 0.0, 10.00056, 9.9996605 
2.5871727e+3, 2.0576516e+2, -850895.5, -997719.6, -204434.23, -0.11837125, -0.24788582, -707091.8, 216393.64, 0.0, 10.000931, 9.999012 
2.586783e+3, 2.1575865e+2, -694050.56, -919711.1, -131866.83, -0.024501357, -0.09924665, -633331.06, 192225.16, 0.0, 10.001488, 9.998642 
2.5863928e+3, 2.2575095e+2, -640139.8, -711893.3, -48948.1, -0.08018523, -0.026060075, -615328.4, 112305.4, 0.0, 10.000732, 9.999707 
2.586003e+3, 2.3574202e+2, -802590.25, -803308.4, -39437.02, -0.2360519, -0.18180563, -763510.7, -133791.02, 0.0, 9.999165, 9.999189 
2.5856137e+3, 2.4573468e+2, -641398.3, -728617.25, -135191.5, -0.20300998, -0.042796057, -542956.6, -11162.149, 0.0, 9.99981, 9.9987 
2.5852248e+3, 2.557285e+2, -249185.02, -536136.94, -140770.25, -0.028853687, 0.16137633, -191659.44, 242201.78, 0.0, 10.002025, 9.998298 
2.5848353e+3, 2.657197e+2, -97547.16, -427975.16, -84807.76, -0.014580696, 0.22819342, -77051.65, 258898.0, 0.0, 10.002511, 9.998114 
2.5844455e+3, 2.7570817e+2, -142713.22, -427792.13, -54258.96, -0.08318295, -0.03628411, -132735.36, 105326.766, 0.0, 10.0016365, 9.997872 
2.584056e+3, 2.8569996e+2, -83057.0, -71458.586, -78104.38, -0.14232723, -0.016985288, 1061.581, 141200.9, 0.0, 10.000158, 10.000339 
2.5836653e+3, 2.956941e+2, -291096.2, -202740.5, -96923.9, -0.2791516, 0.0508117, -140401.1, -98209.75, 0.0, 9.998339, 9.99968 
2.5832754e+3, 3.0568573e+2, -160966.31, -316310.03, -109865.836, -0.31786564, 0.11228302, -104089.22, -104089.22, 0.0, 9.999841, 9.997866 
2.5828898e+3, 3.156722e+2, 13056.529, -507290.63, 21931.293, 0.051050756, -0.31999478, 13979.24, 13979.24, 0.0, 10.002066, 9.995474 
2.6002946e+3, 1.2621343e+2, -1457730.9, -1728223.3, 45717.176, 0.6861225, -0.7508922, -1450213.0, 252872.95, 0.16949552, 10.002624, 9.998557 
2.5998974e+3, 1.3621219e+2, -1463125.0, -1694427.1, -13741.692, -0.23731178, -0.11498882, -1462311.5, 142799.19, 0.11391175, 10.001793, 9.998548 
2.5995076e+3, 1.4620663e+2, -1307404.9, -1416084.0, -4441.444, -0.3486552, 0.17747551, -1307223.6, 199947.3, 0.061296463, 10.001549, 9.999849 
2.5991228e+3, 1.5619956e+2, -1202254.8, -1418126.9, 4321.45, 0.09005824, 0.15917201, -1202168.3, 207074.08, 0.023481611, 10.00194, 9.998979 
2.5987312e+3, 1.6619058e+2, -1073072.0, -1308331.1, -71923.16, 0.043536764, 0.1445693, -1052826.0, 258501.69, 0.005220199, 10.002147, 9.998969 
2.598336e+3, 1.7618023e+2, -1099523.1, -1367630.8, -106998.375, -0.2560104, -0.095245935, -1062057.0, 151366.81, 0.00041937284, 10.001665, 9.998151 
2.5979447e+3, 1.8616983e+2, -1148679.8, -1434778.4, -71490.74, -0.27932057, -0.122941, -1131810.3, -16285.167, 0.0000020172258, 10.001141, 9.997222 
2.5975558e+3, 1.9615895e+2, -1179375.6, -1425966.9, -145349.31, -0.14292015, -0.25746262, -1112071.6, -94437.69, 0.0, 10.000335, 9.997025 
2.5971672e+3, 2.0615147e+2, -827959.56, -825101.8, -146082.19, 0.02096777, -0.13273363, -680441.56, 239268.03, 0.0, 10.000493, 10.000371 
2.596779e+3, 2.1614589e+2, -798414.2, -851411.75, -122240.12, 0.2038777, -0.047354393, -699833.7, 121933.4, 0.0, 10.000387, 9.999596 
2.5963873e+3, 2.2613908e+2, -740669.9, -760821.3, -98834.96, 0.044311658, 0.08123367, -651398.4, 72433.4, 0.0, 10.000108, 9.999647 
2.5959936e+3, 2.3613086e+2, -929195.4, -897644.25, -99891.78, -0.301167, -0.023172488, -812290.0, -186382.63, 0.0, 9.998517, 9.998825 
2.5956047e+3, 2.4612118e+2, -769670.0, -830397.94, -47303.48, -0.31704947, -0.072948635, -743823.75, -215820.02, 0.0, 9.999209, 9.998265 
2.595218e+3, 2.5611043e+2, -440724.5, -691153.44, -75533.8, -0.13297291, -0.30874357, -419706.22, 10408.747, 0.0, 10.001067, 9.997684 
2.594829e+3, 2.6610404e+2, -174558.83, -387112.47, -121302.414, -0.15557647, -0.0058226725, -119562.47, 212620.03, 0.0, 10.001769, 9.9987135 
2.5944376e+3, 2.760994e+2, -256019.34, -453571.25, -95883.445, -0.27826506, 0.33504322, -217135.13, 17096.406, 0.0, 10.000827, 9.998071 
2.594048e+3, 2.860904e+2, -256617.83, -221260.92, -172140.69, -0.17363805, 0.30540487, -65893.305, 70424.336, 0.0, 9.999363, 9.999666 
2.5936586e+3, 2.960788e+2, -584834.2, -450590.5, -176333.3, -0.031938992, -0.16020639, -329035.97, -290610.94, 0.0, 9.996922, 9.99863 
2.5932676e+3, 3.060698e+2, -217793.25, -256698.45, 10363.449, -0.32310987, -0.14402562, -215204.88, -215204.88, 0.0, 9.999266, 9.998465 
2.5928903e+3, 3.1606308e+2, 293128.75, 287865.13, -14909.939, 0.49122038, 0.0035342502, 305637.38, 305637.38, 0.0, 10.0013485, 10.00123 
2.6102856e+3, 1.2660955e+2, -1629586.3, -1809722.5, -48124.13, 0.22422817, 0.038147546, -1617535.9, 81685.08, 0.14988421, 10.001155, 9.998686 
2.609893e+3, 1.3659996e+2, -1708485.0, -1877013.9, -26153.332, -0.05407973, -0.11314158, -1704519.8, -103200.32, 0.09979623, 10.000232, 9.998048 
2.6095033e+3, 1.4659344e+2, -1391897.8, -1287280.1, 31672.902, -0.16077802, 0.015140633, -1278438.5, 224942.83, 0.05285716, 10.000182, 10.001432 
2.6091158e+3, 1.5658772e+2, -1255965.9, -1368130.4, 72455.64, -0.06914594, 0.0139514245, -1220423.8, 185008.2, 0.019694533, 10.001195, 9.999711 
2.6087257e+3, 1.6657875e+2, -1079294.0, -1448587.6, -56553.832, -0.07597523, 0.04355775, -1070827.5, 236692.16, 0.004163879, 10.002698, 9.997724 
2.6083332e+3, 1.7656782e+2, -820379.6, -1352826.9, -122245.25, -0.18277988, -0.118687265, -793654.6, 415973.84, 0.00030229846, 10.004101, 9.9970665 
2.6079416e+3, 1.865581e+2, -717151.75, -1130537.6, -123148.24, -0.17968777, -0.092507824, -683246.56, 428478.22, 0.0000010444409, 10.003629, 9.998124 
2.6075506e+3, 1.9654848e+2, -911848.6, -1243791.4, -27601.643, -0.12675166, -0.1455547, -909569.2, 104250.85, 0.0, 10.001829, 9.997586 
2.6071605e+3, 2.0654099e+2, -743138.0, -817362.44, -4252.5557, -0.039808303, -0.021303685, -742895.1, 173000.81, 0.0, 10.001157, 10.000117 
2.606771e+3, 2.1653451e+2, -717823.06, -846604.75, -38315.58, 0.050956573, 0.041531898, -707285.5, 110676.75, 0.0, 10.000974, 9.999369 
2.6063803e+3, 2.2652663e+2, -493859.16, -632674.2, -60901.91, -0.011975697, 0.060097776, -470927.94, 249107.97, 0.0, 10.001643, 9.999832 
2.6059884e+3, 2.3651771e+2, -332224.25, -619737.94, -47750.688, -0.19101499, -0.08666453, -324501.2, 297614.88, 0.0, 10.0025015, 9.998866 
2.6055995e+3, 2.4650803e+2, -365712.25, -640833.0, 1398.8385, -0.21846785, -0.13982165, -365705.13, 158506.66, 0.0, 10.001928, 9.99827 
2.605212e+3, 2.5649735e+2, -483103.3, -725448.3, -9560.02, -0.15033697, -0.31421503, -482726.78, -56405.17, 0.0, 10.00069, 9.99767 
2.604822e+3, 2.6649076e+2, -323126.8, -375435.8, -79274.77, -0.21093605, -0.07846277, -265803.5, 62586.348, 0.0, 10.000274, 9.999551 
2.604431e+3, 2.7648672e+2, -278705.63, -398191.28, -61031.184, -0.3204954, 0.28907236, -253043.47, -22611.146, 0.0, 10.000235, 9.998776 
2.604041e+3, 2.8647777e+2, -57055.992, -198785.92, -137487.13, -0.16688745, 0.26550826, 26754.68, 159274.84, 0.0, 10.000939, 9.999098 
2.6036513e+3, 2.964656e+2, 93224.33, -178420.05, -111412.47, 0.08047132, -0.14598876, 133073.44, 167710.48, 0.0, 10.001681, 9.998244 
2.6032615e+3, 3.0645585e+2, 90152.27, -18356.707, 154443.83, -0.21650423, -0.23875439, 199593.98, 199593.98, 0.0, 10.000805, 9.9994135 
2.6028815e+3, 3.164526e+2, -124067.5, -144806.19, -248452.88, 0.2882133, 0.20009752, 114232.33, 114232.33, 0.0, 9.999257, 9.999286 
2.6202765e+3, 1.2700321e+2, -1510656.5, -1705946.5, -115958.04, -0.12459756, 0.61290807, -1456707.3, 238673.55, 0.13183987, 10.001965, 9.998986 
2.6198897e+3, 1.3698795e+2, -1560181.6, -1762054.5, -89110.59, 0.3129718, -0.12468682, -1526474.6, 71050.164, 0.08692974, 10.00113, 9.998395 
2.6195e+3, 1.4697996e+2, -1189138.0, -1125769.1, 27937.654, 0.17721091, -0.20608059, -1115211.3, 384381.56, 0.045284748, 10.001247, 10.002121 
2.619109e+3, 1.5697518e+2, -1166587.3, -1303034.6, -37636.336, -0.14915997, -0.18793724, -1156894.6, 244732.77, 0.01638905, 10.001671, 9.999972 
2.61872e+3, 1.6696638e+2, -1260088.1, -1697514.0, -77340.96, -0.13641143, -0.078036144, -1246816.3, 56900.82, 0.0032885466, 10.002187, 9.996251 
2.618332e+3, 1.769553e+2, -1127292.5, -1616489.4, -110698.164, 0.038953412, -0.1176858, -1103409.1, 102427.56, 0.00021471751, 10.002499, 9.996044 
2.6179397e+3, 1.8694702e+2, -732551.06, -924916.9, -178940.53, 0.054491412, -0.022462295, -625581.6, 482337.1, 0.00000047553752, 10.002607, 10.000032 
2.617546e+3, 1.9693999e+2, -900276.06, -1109462.3, -120938.414, 0.004625965, -0.013960465, -844976.0, 165008.16, 0.0, 10.001408, 9.998712 
2.6171532e+3, 2.0693222e+2, -871020.3, -1028632.8, -24644.252, -0.11334449, 0.11476747, -867256.75, 44805.93, 0.0, 10.000969, 9.998738 
2.6167613e+3, 2.1692389e+2, -966526.9, -1118214.5, -57108.28, -0.23124073, 0.107270904, -947430.5, -133281.05, 0.0, 10.000002, 9.997962 
2.6163736e+3, 2.2691412e+2, -606752.9, -664789.2, -25016.678, -0.091997944, -0.0072499476, -597458.0, 118782.82, 0.0, 10.000912, 9.999914 
2.6159865e+3, 2.3690361e+2, -560273.44, -763706.44, -40694.324, 0.13952057, -0.33934835, -552435.06, 65900.3, 0.0, 10.00123, 9.998454 
2.6155967e+3, 2.4689606e+2, -501732.4, -727491.94, -32269.361, 0.06652498, -0.14167026, -497210.5, 23199.33, 0.0, 10.001212, 9.997966 
2.6152056e+3, 2.5688928e+2, -677667.94, -868532.0, -57207.85, -0.109764054, 0.08669803, -661834.44, -239353.61, 0.0, 9.999694, 9.997132 
2.614815e+3, 2.6687968e+2, -382732.66, -332914.22, -78558.92, -0.19741139, 0.005980602, -275410.0, 49162.996, 0.0, 9.999647, 10.000091 
2.6144242e+3, 2.7686897e+2, -441252.8, -484681.75, -52338.453, -0.23663372, -0.37836772, -406303.06, -179629.8, 0.0, 9.999262, 9.99861 
2.614034e+3, 2.8686222e+2, -160684.77, -279521.5, -85217.39, -0.21472317, -0.1487208, -116215.95, 12528.103, 0.0, 10.000506, 9.998692 
2.613644e+3, 2.9685664e+2, -17868.764, -308174.88, -59227.7, -0.14911678, 0.11094718, -6250.234, 24556.773, 0.0, 10.001365, 9.997483 
2.613258e+3, 3.0684733e+2, -2751.9397, -8794.998, 46006.047, 0.057108615, 0.073453456, 40331.69, 40331.69, 0.0, 10.000061, 9.999804 
2.6128712e+3, 3.1684157e+2, -302484.34, -20367.299, -186103.92, 0.06465435, 0.19159096, 72095.43, 72095.43, 0.0, 9.997349, 10.001028 
2.6302728e+3, 1.2738676e+2, -1399946.6, -1428385.8, -201604.92, -0.08903249, 0.38514498, -1212060.4, 479569.25, 0.11528824, 10.00178, 10.001149 
2.6298845e+3, 1.3737786e+2, -1427425.8, -1593643.0, -60448.71, 0.30413038, 0.05457769, -1407767.1, 185935.73, 0.07524984, 10.001663, 9.999294 
2.6294953e+3, 1.4736855e+2, -1301125.5, -1504548.6, -6909.2256, 0.20749614, -0.007072581, -1300891.0, 194896.53, 0.038529176, 10.001919, 9.9990635 
2.6291052e+3, 1.5735927e+2, -1198845.9, -1512184.4, -171544.13, -0.057919573, -0.16269721, -1123195.0, 274679.4, 0.013527696, 10.002293, 9.998226 
2.628715e+3, 1.673513e+2, -1163683.3, -1364700.1, -235561.19, -0.087222114, -0.074485265, -1008084.3, 291869.38, 0.0025719018, 10.001582, 9.998848 
2.6283252e+3, 1.7734347e+2, -1327700.6, -1468821.4, -100775.64, -0.025678976, -0.03645818, -1275238.6, -73203.77, 0.00015054179, 10.00001, 9.998274 
2.627934e+3, 1.8733627e+2, -937909.25, -981304.6, -144622.6, 0.036186814, 0.05006587, -813365.75, 290739.0, 0.0000001940375, 10.000975, 10.000454 
2.627541e+3, 1.9732921e+2, -717447.44, -971456.0, -129253.22, 0.032818228, 0.02134387, -663243.4, 342927.6, 0.0, 10.002351, 9.999238 
2.6271477e+3, 2.0732118e+2, -716869.9, -935256.6, -84311.1, -0.106425166, 0.0837668, -688108.3, 220142.44, 0.0, 10.001915, 9.998925 
2.626754e+3, 2.1731251e+2, -832050.4, -1045805.9, -8070.1094, -0.3173707, 0.0516372, -831746.1, -21407.156, 0.0, 10.0007925, 9.998101 
2.6263663e+3, 2.2730315e+2, -648879.2, -768912.06, 36146.902, -0.18242387, 0.013660995, -638834.44, 73595.68, 0.0, 10.000926, 9.999212 
2.6259804e+3, 2.3729339e+2, -519224.78, -760835.2, -24056.27, 0.074969694, -0.15272453, -516852.88, 97669.66, 0.0, 10.001469, 9.998389 
2.625591e+3, 2.4728556e+2, -348492.7, -562848.6, -28760.8, 0.053502962, -0.04086024, -344700.84, 171895.8, 0.0, 10.001766, 9.998873 
2.6251996e+3, 2.5727862e+2, -289495.53, -563672.94, 35573.266, -0.11128968, 0.11029592, -284955.25, 133707.53, 0.0, 10.001738, 9.998267 
2.6248083e+3, 2.6726845e+2, -171143.48, -261321.56, -10786.253, -0.1639085, -0.059431486, -169871.3, 150887.1, 0.0, 10.001093, 9.999947 
2.6244178e+3, 2.7725652e+2, -291197.84, -390855.84, -31499.967, -0.15902835, -0.51155454, -282076.2, -59206.676, 0.0, 10.000027, 9.998945 
2.6240274e+3, 2.872498e+2, -195145.44, -250496.88, -458.2907, -0.19218177, -0.3217822, -195141.64, -70200.664, 0.0, 9.999966, 9.999189 
2.623637e+3, 2.972459e+2, -93848.95, -240306.72, 52193.47, -0.23435548, 0.08788013, -77152.16, -50161.332, 0.0, 10.000282, 9.9985075 
2.623252e+3, 3.0723947e+2, -5918.6035, -23615.531, 75412.67, 0.1874561, 0.29865158, 61162.94, 61162.94, 0.0, 9.999979, 9.999814 
2.6228622e+3, 3.1722546e+2, 137407.0, 594048.8, 17683.686, 0.11081812, -0.36105785, 594732.6, 594732.6, 0.0, 9.998408, 10.004838 
2.6402694e+3, 1.2777056e+2, -1269573.0, -1205546.3, -158985.86, 0.11269909, 0.10080199, -1075382.8, 612489.7, 0.10017185, 10.001863, 10.002846 
2.6398787e+3, 1.3776791e+2, -1384486.1, -1511865.9, -135655.66, 0.31093413, 0.258285, -1298313.3, 291565.53, 0.06469282, 10.001671, 9.9999 
2.6394904e+3, 1.4775722e+2, -1539561.5, -1965077.8, 46703.902, 0.27876297, 0.21431948, -1534495.6, -42512.918, 0.032530583, 10.001706, 9.9959955 
2.6391023e+3, 1.5774323e+2, -1423544.1, -1802479.5, -49753.77, 0.17122808, -0.109681726, -1417120.4, -22995.016, 0.011066901, 10.001503, 9.996607 
2.6387104e+3, 1.6773647e+2, -962145.94, -902440.3, -164129.22, 0.047648285, -0.04365665, -765471.06, 530718.1, 0.0019930317, 10.001387, 10.002111 
2.6383173e+3, 1.777322e+2, -1134806.8, -1139389.5, -120040.27, -0.06870176, 0.047778264, -1017036.0, 181190.22, 0.00010503105, 10.000296, 10.000423 
2.6379266e+3, 1.8772559e+2, -976753.7, -980560.25, -73239.46, 0.007795077, 0.105547234, -905392.8, 194895.86, 0.00000008640195, 10.000784, 10.000464 
2.6375368e+3, 1.9771789e+2, -888637.25, -1064884.5, -111146.08, 0.14297794, 0.009482773, -834918.6, 167444.17, 0.0, 10.001342, 9.999046 
2.637143e+3, 2.0770967e+2, -707735.1, -848551.94, -124470.44, 0.015834833, 0.010572475, -635139.25, 269303.3, 0.0, 10.00164, 9.999661 
2.6367486e+3, 2.1770129e+2, -928393.06, -1112861.4, -64290.063, -0.17881608, -0.06952458, -908197.9, -101673.19, 0.0, 10.000257, 9.997918 
2.636359e+3, 2.2769365e+2, -810813.9, -998733.94, 54032.43, -0.23171863, 0.15564787, -796385.75, -87780.68, 0.0, 10.00051, 9.997805 
2.6359713e+3, 2.37686e+2, -796407.3, -1001235.06, -10314.69, -0.20705926, 0.30759433, -795889.25, -185202.53, 0.0, 10.000087, 9.997403 
2.6355827e+3, 2.4767603e+2, -337780.3, -346897.97, -24050.672, -0.1552795, 0.12624268, -317860.22, 194915.48, 0.0, 10.001024, 10.000679 
2.6351935e+3, 2.5766534e+2, -412393.1, -547833.8, 16565.025, -0.10253693, -0.28553462, -410396.53, 4470.779, 0.0, 10.000663, 9.99889 
2.6348028e+3, 2.6765785e+2, -343025.6, -442312.13, -60426.16, -0.07794929, -0.15584496, -314465.44, 2474.023, 0.0, 10.000476, 9.998943 
2.6344115e+3, 2.776508e+2, -547135.44, -615932.56, -67651.87, -0.055238895, -0.041023098, -505639.13, -286629.1, 0.0, 9.998836, 9.997958 
2.6340204e+3, 2.8764105e+2, -240120.55, -124995.36, 6192.432, -0.10527686, -0.19885242, -124663.234, -3556.2502, 0.0, 9.999127, 10.000412 
2.6336297e+3, 2.9763138e+2, -274048.44, -260794.31, 59569.207, -0.23484088, -0.5032907, -207484.67, -184280.94, 0.0, 9.998872, 9.999024 
2.6332408e+3, 3.0763242e+2, -99737.016, -56966.508, 70347.65, -0.1786727, 0.4112778, -4825.4375, -4825.4375, 0.0, 9.9994335, 9.999756 
2.6328504e+3, 3.1761998e+2, -252748.89, -89412.125, 150420.56, -0.23776366, -0.0827297, 80.43828, 80.43828, 0.0, 9.998054, 10.000236 
2.6502633e+3, 1.2816036e+2, -1577108.4, -1546580.3, -144698.48, 0.016483253, 0.23293711, -1416343.0, 267705.84, 0.086430125, 10.000582, 10.000798 
2.649872e+3, 1.3815252e+2, -1479126.6, -1615481.5, -119191.16, 0.17377917, 0.04740808, -1409991.6, 176121.9, 0.055199515, 10.00124, 9.999375 
2.649483e+3, 1.481448e+2, -1394745.3, -1516870.8, 122300.13, 0.13391083, 0.09375106, -1319111.4, 169074.4, 0.027235242, 10.001099, 9.999369 
2.6490954e+3, 1.5813585e+2, -1446647.8, -1598466.1, 234447.27, 0.040549316, -0.008831281, -1276127.0, 114145.91, 0.0089680515, 10.000388, 9.998551 
2.6487038e+3, 1.6812792e+2, -1098113.3, -1109072.0, 62607.813, -0.027230717, -0.020219363, -1040745.5, 251602.94, 0.0015322798, 10.001117, 10.000787 
2.648311e+3, 1.7812057e+2, -988857.2, -1150222.5, -29082.115, -0.13249077, -0.091743365, -983775.9, 210641.36, 0.00007382683, 10.0016165, 9.999712 
2.6479197e+3, 1.8811372e+2, -897580.4, -935272.1, -43773.367, -0.09281291, -0.0355295, -868768.4, 227713.23, 0.000000036839044, 10.001264, 10.000561 
2.647529e+3, 1.981067e+2, -994681.3, -1111105.9, -47816.637, -0.038503315, -0.050622948, -977560.4, 20987.828, 0.0, 10.00052, 9.99914 
2.6471373e+3, 2.0809832e+2, -687251.25, -894547.3, -98865.266, 0.0048721465, -0.038862456, -647660.8, 252970.47, 0.0, 10.001988, 9.999184 
2.6467454e+3, 2.1808963e+2, -415273.06, -850383.4, -91649.9, -0.026732022, -0.09683496, -396756.3, 405961.88, 0.0, 10.003623, 9.998115 
2.646354e+3, 2.2808231e+2, -557618.9, -802030.5, 8454.202, -0.17022789, 0.09506092, -557326.8, 147467.53, 0.0, 10.001839, 9.998546 
2.6459628e+3, 2.3807526e+2, -853287.25, -924272.75, 93465.555, -0.33533582, 0.26229575, -788802.25, -181933.48, 0.0, 9.999097, 9.998444 
2.6455748e+3, 2.480655e+2, -582479.3, -409416.7, 92622.15, -0.22060716, 0.038401213, -369194.2, 139761.27, 0.0, 9.999009, 10.001268 
2.6451874e+3, 2.5805488e+2, -503740.03, -527775.06, 42274.203, -0.045254648, -0.39106053, -471808.4, -60761.953, 0.0, 9.999616, 9.99957 
2.6447958e+3, 2.6804823e+2, -446385.5, -540259.56, -56605.6, -0.068529405, -0.17239411, -419788.34, -106675.73, 0.0, 9.999883, 9.998592 
2.6444033e+3, 2.7804288e+2, -351955.63, -471932.53, -21576.297, -0.087940544, 0.16521187, -348193.38, -133022.75, 0.0, 9.9998255, 9.998503 
2.6440135e+3, 2.8803208e+2, -154031.19, -41176.664, 29166.35, -0.030026939, -0.15258738, -34084.543, 83190.28, 0.0, 9.999366, 10.000952 
2.6436225e+3, 2.9802042e+2, -224101.69, -167137.33, 34643.535, -0.11151006, -0.6747012, -150770.77, -131385.42, 0.0, 9.998732, 9.999781 
2.6432312e+3, 3.080238e+2, -2614.1843, -26607.201, 9688.264, -0.35573477, 0.4471237, 809.38104, 809.38104, 0.0, 10.000002, 9.999759 
2.6428464e+3, 3.1800953e+2, 164961.39, -74083.45, 145424.33, 0.09315049, -0.1791998, 233677.77, 233677.77, 0.0, 10.0014515, 9.998784 
2.6602575e+3, 1.2855065e+2, -1694417.6, -1840269.1, -60926.434, 0.10490018, 0.30642644, -1672316.0, 7904.2603, 0.07399981, 10.000636, 9.99866 
2.6598656e+3, 1.3853797e+2, -1349905.4, -1603660.3, -42628.543, 0.14925858, -0.16822156, -1342935.6, 239405.13, 0.046711504, 10.00229, 9.998968 
2.659476e+3, 1.4853351e+2, -1074281.5, -939233.3, 73790.28, 0.040426485, -0.02578169, -906734.9, 577641.7, 0.022592498, 10.001537, 10.003208 
2.6590875e+3, 1.5853064e+2, -1404016.5, -1383897.6, 45061.332, -0.0349328, 0.1261013, -1347786.6, 38609.816, 0.0071954923, 9.999867, 10.000296 
2.6586968e+3, 1.685208e+2, -1329067.5, -1492474.6, -4128.4893, -0.050301548, 0.0082728015, -1328963.3, -40471.563, 0.001170623, 10.000694, 9.998367 
2.6583058e+3, 1.7850934e+2, -1179715.4, -1433325.1, -61537.043, -0.04092826, -0.25578365, -1165572.5, 25031.889, 0.00005271245, 10.001194, 9.99796 
2.657913e+3, 1.8850197e+2, -891408.6, -940426.25, -92879.34, -0.13671893, -0.20122272, -819858.9, 272814.06, 0.000000014947995, 10.001341, 10.000492 
2.6575202e+3, 1.9849576e+2, -1098009.9, -1241212.8, -94710.016, -0.19240168, -0.12524155, -1050881.6, -56151.926, 0.0, 10.000219, 9.998394 
2.6571319e+3, 2.0848726e+2, -871617.25, -1076505.8, -39548.895, 0.0068086954, -0.04892135, -864248.3, 32568.775, 0.0, 10.001268, 9.998197 
2.6567438e+3, 2.1847798e+2, -762734.56, -1058769.9, -91569.5, 0.24446324, -0.09212557, -736699.94, 62213.617, 0.0, 10.001563, 9.9976225 
2.6563495e+3, 2.2847004e+2, -570905.4, -577946.6, -90003.305, 0.010011539, -0.0841878, -484353.84, 216635.63, 0.0, 10.000887, 10.000465 
2.655955e+3, 2.3846248e+2, -963926.06, -888225.56, 14279.63, -0.28416854, -0.16517638, -885621.5, -282561.38, 0.0, 9.99809, 9.999141 
2.6555672e+3, 2.4845506e+2, -695767.3, -525454.75, 105398.31, -0.14846958, -0.1481416, -475110.5, 30017.727, 0.0, 9.998601, 10.000628 
2.6551804e+3, 2.5844735e+2, -761391.06, -749069.44, 44730.22, 0.053037938, -0.23451914, -710077.75, -302879.22, 0.0, 9.998416, 9.998596 
2.654787e+3, 2.6843977e+2, -544808.8, -543980.44, -49377.773, -0.14531887, -0.1036958, -495015.13, -185738.69, 0.0, 9.999203, 9.998803 
2.654393e+3, 2.7843222e+2, -552347.44, -606593.7, -8793.4375, -0.34252343, -0.02236605, -550957.6, -339602.06, 0.0, 9.99879, 9.998027 
2.6540053e+3, 2.884238e+2, -271603.7, -126721.85, 1588.5107, -0.01334079, -0.0720691, -126704.44, -13268.058, 0.0, 9.998868, 10.000512 
2.6536173e+3, 2.9841533e+2, -519391.28, -449040.0, 46504.516, 0.19572717, -0.23095419, -425906.16, -410391.03, 0.0, 9.997488, 9.9984 
2.6532242e+3, 3.0841038e+2, -154884.39, -230091.47, 70072.805, -0.3191564, 0.17522492, -112962.94, -112962.94, 0.0, 9.999651, 9.998453 
2.652837e+3, 3.1839335e+2, 176575.78, 167097.48, 101230.02, -0.35627732, -0.7009372, 273177.53, 273177.53, 0.0, 10.000711, 10.000742 
2.6702535e+3, 1.2893896e+2, -1777246.6, -1736236.4, 36415.926, 0.34015727, 0.084965885, -1714949.4, -38538.055, 0.062782034, 9.999513, 9.999914 
2.6698616e+3, 1.3893265e+2, -1332140.9, -1665850.3, 111098.73, 0.113328554, 0.16186674, -1298537.5, 279935.06, 0.039146993, 10.002713, 9.998358 
2.66947e+3, 1.4892405e+2, -1301055.8, -1382455.6, -32785.61, -0.021749709, 0.13065785, -1289493.1, 191060.73, 0.018543638, 10.001474, 10.000098 
2.6690793e+3, 1.5891579e+2, -1591817.5, -1586373.9, -165966.75, -0.097363494, 0.0038424574, -1423106.6, -40475.54, 0.005710664, 9.999055, 9.999303 
2.6686904e+3, 1.6890925e+2, -1250319.3, -1224372.8, -87848.61, -0.020125523, 0.08097845, -1148544.6, 136147.39, 0.0008890518, 10.000233, 10.000426 
2.6683012e+3, 1.7890221e+2, -1062475.3, -1292967.6, -26090.002, 0.026258843, 0.083564766, -1059559.0, 127199.72, 0.000037964888, 10.001601, 9.99872 
2.6679078e+3, 1.8889226e+2, -907563.75, -1114930.1, -140359.9, -0.10191729, -0.04117778, -836744.5, 252108.25, 0.0000000057994387, 10.001941, 9.999002 
2.6675138e+3, 1.988824e+2, -931792.75, -1175998.3, -187454.05, -0.25667164, -0.20348223, -830181.2, 160764.86, 0.0, 10.00136, 9.998299 
2.6671246e+3, 2.0887552e+2, -970015.75, -971416.0, -88152.83, -0.048651606, -0.06216285, -882560.25, 10455.323, 0.0, 9.999905, 9.9996 
2.666736e+3, 2.188687e+2, -1119063.0, -1069901.4, -26318.092, 0.18481031, 0.025039723, -1058470.3, -263384.9, 0.0, 9.998317, 9.999136 
2.6663432e+3, 2.2886021e+2, -741267.44, -598548.7, -49240.51, 0.08434351, -0.10460174, -583208.6, 113954.08, 0.0, 9.999348, 10.001127 
2.6659492e+3, 2.388517e+2, -507229.47, -603047.06, -715.5602, -0.10553066, -0.31379795, -507224.13, 92014.62, 0.0, 10.000824, 9.999816 
2.6655605e+3, 2.4884522e+2, -384781.56, -433329.56, 62396.32, -0.058649633, -0.19983922, -342103.88, 159197.48, 0.0, 10.000881, 10.000201 
2.6651722e+3, 2.58839e+2, -439903.75, -555545.1, 627.2498, 0.0062725646, -0.08869786, -439900.34, -36537.813, 0.0, 10.000313, 9.999043 
2.6647794e+3, 2.6883072e+2, -415040.56, -426340.9, -74450.88, -0.14720197, -0.086648874, -346025.75, -40580.05, 0.0, 9.999721, 9.99942 
2.6643854e+3, 2.7882183e+2, -431621.8, -484169.6, -3867.8142, -0.29159102, -0.17151919, -431338.66, -223803.78, 0.0, 9.999203, 9.998694 
2.6639983e+3, 2.8881434e+2, -65566.305, -113415.23, -3848.7532, 0.03729495, -0.10024609, -65258.707, 44349.043, 0.0, 10.000588, 9.999823 
2.6636103e+3, 2.988071e+2, 97303.34, -215653.66, 8807.03, 0.29238364, -0.038786035, 97550.99, 109227.75, 0.0, 10.001849, 9.997949 
2.6632163e+3, 3.0879682e+2, -77689.664, -335158.0, 46015.668, -0.40203223, -0.06708155, -69712.72, -69712.72, 0.0, 10.000707, 9.997273 
2.6628286e+3, 3.1878382e+2, 160022.33, 461800.13, -7758.3477, -0.5156625, -0.45589828, 461999.44, 461999.44, 0.0, 9.999067, 10.003622 
2.68025e+3, 1.2932774e+2, -1286887.4, -1375068.9, 98146.0, 0.6387255, -0.09583737, -1223383.4, 449214.88, 0.05267765, 10.00237, 10.001183 
2.679858e+3, 1.39328e+2, -1333475.0, -1732857.8, -9246.449, 0.20731905, 0.55150014, -1333261.0, 241336.72, 0.03242507, 10.002992, 9.997735 
2.6794642e+3, 1.4931451e+2, -1463546.0, -1882924.4, -109865.32, 0.01077482, 0.28972408, -1436507.6, 40225.246, 0.015032841, 10.002113, 9.996327 
2.679072e+3, 1.5929966e+2, -1478489.3, -1656457.6, -95838.06, -0.02231555, -0.17336796, -1436694.5, -57813.83, 0.0044764117, 10.000379, 9.998172 
2.6786843e+3, 1.6929741e+2, -988645.06, -783753.1, 14245.817, 0.0861754, 0.17747712, -782767.4, 498130.4, 0.00066900725, 10.000739, 10.003196 
2.678297e+3, 1.7929633e+2, -1132846.5, -1248949.9, -51538.457, 0.1980049, 0.5428726, -1113269.5, 69632.87, 0.000027210404, 10.000829, 9.999402 
2.6779032e+3, 1.8928313e+2, -1145576.6, -1434186.0, -142652.9, 0.018668074, 0.20164485, -1086968.4, -1938.8, 0.000000001728097, 10.001232, 9.997154 
2.6775083e+3, 1.9926883e+2, -1111880.8, -1296298.8, -178703.58, -0.14672542, -0.2502701, -1002999.06, -15830.801, 0.0, 10.000333, 9.997965 
2.6771164e+3, 2.0926426e+2, -835612.06, -653115.06, -125659.695, -0.07127765, -0.035348307, -589068.2, 300143.1, 0.0, 9.999763, 10.001844 
2.6767254e+3, 2.1926102e+2, -1145080.4, -981109.9, -52214.863, 0.07666961, 0.20832111, -965894.44, -174653.53, 0.0, 9.997762, 10.000024 
2.6763356e+3, 2.2925204e+2, -777407.9, -640650.1, 1414.7051, 0.18293554, 0.0010062095, -640635.5, 52685.484, 0.0, 9.999236, 10.0008745 
2.675946e+3, 2.3924245e+2, -754374.25, -823408.06, 20956.963, 0.2502532, -0.29553682, -748510.3, -153102.98, 0.0, 9.999671, 9.998845 
2.6755548e+3, 2.49236e+2, -521119.06, -533396.5, 46520.156, 0.04774802, -0.13360019, -480334.34, 17139.059, 0.0, 10.000256, 9.999711 
2.6751634e+3, 2.5923e+2, -671035.3, -718365.3, -27899.008, -0.15507104, 0.014044861, -658116.4, -258579.73, 0.0, 9.999084, 9.99848 
2.674772e+3, 2.6922128e+2, -446450.13, -349092.44, -106489.54, -0.050109375, -0.070020765, -280683.06, 20935.016, 0.0, 9.999191, 10.000165 
2.674381e+3, 2.7921188e+2, -660847.44, -669366.25, 618.1307, 0.109829955, -0.2765281, -660802.8, -457096.63, 0.0, 9.99804, 9.997981 
2.6739916e+3, 2.8920227e+2, -213977.89, -342471.6, 46624.195, 0.053214826, -0.30610338, -198842.92, -93040.07, 0.0, 10.000304, 9.998356 
2.6736012e+3, 2.9919308e+2, -132494.67, -528627.56, -9210.355, -0.12032059, -0.31365585, -132280.64, -124383.79, 0.0, 10.001253, 9.996075 
2.673208e+3, 3.0918464e+2, -244021.5, -537703.6, -79199.44, -0.53261834, -0.029607704, -224024.77, -224024.77, 0.0, 10.000238, 9.996044 
2.6728234e+3, 3.1917372e+2, -142293.55, 401064.75, -14663.944, -0.20637195, -0.1604256, 401460.2, 401460.2, 0.0, 9.996884, 10.004196 
2.690242e+3, 1.2971535e+2, -1231151.3, -1493737.8, -45239.145, 0.12475876, -0.07815826, -1223575.9, 445222.78, 0.043619107, 10.003573, 9.999619 
2.6898536e+3, 1.3971362e+2, -1409635.4, -1721287.3, -139353.52, 0.15341358, 0.43560368, -1356413.1, 214409.45, 0.026486209, 10.002287, 9.998127 
2.6894605e+3, 1.497037e+2, -1211408.9, -1469926.9, -101070.195, 0.090768136, 0.31639874, -1176585.4, 296333.78, 0.012009438, 10.002605, 9.998934 
2.689068e+3, 1.5969224e+2, -1134468.6, -1434268.4, 69319.21, 0.068966374, 0.0030264722, -1119216.8, 255812.67, 0.003455713, 10.002475, 9.998683 
2.6886785e+3, 1.6968594e+2, -997260.94, -1028974.75, 67234.984, 0.07815535, 0.09160472, -944038.3, 333049.3, 0.00049606664, 10.001675, 10.0010605 
2.6882887e+3, 1.7968085e+2, -1194751.0, -1283679.8, -106218.625, 0.02645539, 0.22506931, -1124065.6, 55067.9, 0.00001910138, 10.000369, 9.9993925 
2.687896e+3, 1.8967147e+2, -1076194.8, -1129621.1, -90668.984, -0.030661436, 0.08423309, -1008385.7, 72835.54, 0.0000000002885943, 10.000464, 9.999638 
2.6875022e+3, 1.9966152e+2, -996159.2, -1091405.3, 32284.623, -0.106435336, -0.12572992, -986247.44, -2932.275, 0.0, 10.000387, 9.999357 
2.68711e+3, 2.0965569e+2, -651718.3, -610186.06, 9501.947, -0.053557888, -0.033730127, -608115.4, 277254.97, 0.0, 10.001143, 10.0015 
2.686718e+3, 2.196506e+2, -575854.2, -720051.4, -7737.218, 0.011102621, 0.07780518, -575440.2, 211977.55, 0.0, 10.001637, 9.999954 
2.6863286e+3, 2.2964163e+2, -512701.72, -577647.75, -3712.1128, 0.14536466, -0.08230711, -512490.25, 177010.0, 0.0, 10.001263, 10.000362 
2.685939e+3, 2.3963244e+2, -585666.0, -713800.94, -3443.3525, 0.23682362, -0.28573662, -585573.5, 6011.8804, 0.0, 10.000593, 9.999177 
2.6855475e+3, 2.4962603e+2, -488132.66, -542911.94, 23033.697, 0.015740149, -0.12291868, -479734.8, 13918.427, 0.0, 10.0004635, 9.999622 
2.6851556e+3, 2.5961977e+2, -418217.1, -538258.44, -38941.652, -0.23324534, 0.031694245, -406691.06, -10971.147, 0.0, 10.000412, 9.999111 
2.684765e+3, 2.6961136e+2, -157341.19, -179788.23, -143703.53, -0.04216427, -0.06622292, -24423.564, 273374.06, 0.0, 10.000924, 10.000559 
2.6843747e+3, 2.7960238e+2, -178189.94, -396483.94, -30527.074, 0.21295516, -0.24027486, -174001.28, 25878.78, 0.0, 10.001039, 9.998437 
2.683985e+3, 2.8959253e+2, -200720.03, -394965.28, 108055.17, 0.057627987, -0.28327638, -152554.23, -50573.152, 0.0, 10.000498, 9.997945 
2.683594e+3, 2.9958278e+2, -310834.97, -626382.25, 88817.555, -0.23549598, -0.27804703, -287553.16, -283470.25, 0.0, 9.9999275, 9.996057 
2.683201e+3, 3.0957446e+2, -263802.28, -572477.2, 51218.88, -0.5081218, 0.046887346, -255525.4, -255525.4, 0.0, 10.000063, 9.995944 
2.682815e+3, 3.1956488e+2, 176661.2, 623218.5, 119757.46, -0.10077832, 0.07582307, 653307.56, 653307.56, 0.0, 9.9985695, 10.004942 
2.7002352e+3, 1.3010378e+2, -1238974.0, -1686464.9, -7671.689, -0.25391594, -0.0753662, -1238842.5, 426149.28, 0.03555001, 10.004232, 9.997957 
2.6998484e+3, 1.4009877e+2, -1406702.9, -1635665.6, -69810.04, 0.19665658, 0.2539193, -1387096.9, 179954.0, 0.021269772, 10.001848, 9.998974 
2.699457e+3, 1.5009345e+2, -1032037.6, -1000266.9, -48901.56, 0.25442633, 0.31784388, -964735.25, 504361.88, 0.009415533, 10.002155, 10.002428 
2.6990652e+3, 1.600867e+2, -1188272.4, -1446577.1, 20379.283, 0.29225895, 0.21698716, -1186674.4, 184481.7, 0.0026134893, 10.002046, 9.998812 
2.6986727e+3, 1.7007451e+2, -1233568.0, -1494724.3, 27872.836, 0.06938892, -0.06084244, -1230626.3, 42648.31, 0.0003600524, 10.001574, 9.9978895 
2.69828e+3, 1.8006323e+2, -1230348.4, -1289695.8, -82583.56, -0.13425276, -0.3044437, -1172269.1, 3114.594, 0.000012952271, 10.000133, 9.999444 
2.6978883e+3, 1.9006014e+2, -842084.1, -589617.2, -70769.14, -0.070323035, -0.107071, -571133.1, 506273.16, 0.000000000007316074, 10.000322, 10.003372 
2.6974964e+3, 2.0005707e+2, -1052637.4, -1034036.94, 16668.482, 0.033632286, 0.06891785, -1024249.6, -44820.95, 0.0, 9.999686, 10.000097 
2.697104e+3, 2.1004806e+2, -830013.8, -881038.1, 3183.9858, 0.0363303, -0.06271187, -829815.94, 51699.44, 0.0, 10.000763, 9.999805 
2.696712e+3, 2.2003871e+2, -880538.6, -1055112.9, -24505.887, 0.050393213, -0.21987124, -877163.8, -93557.43, 0.0, 10.000472, 9.998188 
2.696321e+3, 2.3003028e+2, -678784.94, -733525.7, -34776.094, 0.049304985, -0.24280897, -661900.25, 23788.14, 0.0, 10.000604, 9.9995165 
2.6959303e+3, 2.4002229e+2, -850973.06, -947077.56, -18269.352, 0.04693004, -0.25521183, -847617.25, -259850.7, 0.0, 9.999334, 9.998159 
2.69554e+3, 2.5001544e+2, -548872.1, -553759.2, 9824.413, -0.06622114, -0.13503563, -541191.94, -51352.918, 0.0, 10.000055, 9.999694 
2.695149e+3, 2.600088e+2, -652891.75, -706088.25, -46060.484, -0.17416099, -0.03155997, -626301.3, -234392.56, 0.0, 9.999195, 9.998506 
2.694757e+3, 2.700015e+2, -253685.05, -228793.42, -126345.266, -0.16224796, -0.012815293, -114282.46, 179697.67, 0.0, 10.000407, 10.000395 
2.6943654e+3, 2.7999413e+2, -341551.47, -462253.5, -21674.283, -0.092793204, -0.033273816, -337777.47, -141726.44, 0.0, 10.000032, 9.998433 
2.6939783e+3, 2.899874e+2, -222307.03, -255686.78, 83862.01, 0.096995726, 0.14177352, -153490.25, -55368.375, 0.0, 9.999904, 9.999109 
2.6935896e+3, 2.9997995e+2, -497883.44, -625749.5, 115000.83, 0.10219709, 0.267667, -430239.03, -430038.94, 0.0, 9.998412, 9.996767 
2.6931933e+3, 3.0996826e+2, -239570.78, -386291.13, 127116.8, -0.5605374, 0.10940565, -166164.48, -166164.48, 0.0, 9.999586, 9.997413 
2.6928028e+3, 3.1995752e+2, -59049.195, 414643.7, -41728.367, -0.47907457, -0.09767622, 418291.5, 418291.5, 0.0, 9.997575, 10.003959 
2.7102333e+3, 1.3049611e+2, -1289215.6, -1614283.3, -101691.586, -0.19323823, 0.01114992, -1260024.6, 401121.94, 0.028414996, 10.003499, 9.998804 
2.7098408e+3, 1.404894e+2, -1557738.9, -1702505.4, 33940.445, -0.021221356, 0.1089387, -1550176.6, 13036.746, 0.016713178, 10.000802, 9.999003 
2.70945e+3, 1.5048344e+2, -1183755.4, -1114331.6, 37295.313, 0.13850534, 0.14584984, -1098094.0, 367172.5, 0.0071980846, 10.0013275, 10.002001 
2.7090597e+3, 1.6047676e+2, -1265823.5, -1489874.9, 7210.5854, 0.22250758, 0.08853219, -1265591.6, 101735.484, 0.0019202423, 10.001532, 9.998765 
2.7086666e+3, 1.7046614e+2, -1210054.0, -1453747.9, 76087.48, 0.010737415, -0.049339063, -1188248.6, 81184.36, 0.00025324232, 10.001592, 9.998183 
2.7082732e+3, 1.8045597e+2, -1085396.6, -1162293.8, 46345.168, -0.2236367, -0.19244178, -1063627.5, 107905.62, 0.000008369746, 10.00083, 9.999993 
2.7078807e+3, 1.9045164e+2, -837135.44, -565482.4, -32991.086, -0.087424904, -0.13924144, -561533.2, 512032.1, 0.0, 10.000255, 10.003577 
2.707489e+3, 2.0044757e+2, -1071127.1, -1066186.0, -22699.42, 0.031492256, -0.06248792, -1045823.1, -70227.586, 0.0, 9.999607, 9.999928 
2.7070975e+3, 2.10438e+2, -891504.44, -1037829.75, -19182.262, 0.0101343645, -0.16307305, -889031.56, -11340.502, 0.0, 10.000793, 9.998778 
2.7067053e+3, 2.2042821e+2, -717696.3, -970113.2, -63818.92, -0.06148768, -0.2755037, -702478.4, 77311.36, 0.0, 10.001453, 9.998333 
2.7063128e+3, 2.3042086e+2, -690215.7, -744220.8, -64346.15, -0.09773559, -0.19015403, -647436.0, 34427.07, 0.0, 10.000462, 9.999577 
2.7059212e+3, 2.4041371e+2, -757990.44, -819216.06, 22890.707, -0.12381679, -0.10793517, -750378.56, -166444.61, 0.0, 9.999495, 9.998981 
2.7055326e+3, 2.50406e+2, -521261.44, -477663.13, 94171.36, -0.04302912, -0.1269957, -402800.75, 83209.414, 0.0, 9.999905, 10.000319 
2.7051437e+3, 2.6039848e+2, -467817.5, -579059.7, 50244.84, -0.016233135, -0.13309842, -448483.6, -60397.977, 0.0, 10.000211, 9.998883 
2.7047494e+3, 2.7039105e+2, -298692.94, -355660.2, -81609.28, -0.20755386, -0.05571176, -240739.36, 49423.53, 0.0, 10.00046, 9.999523 
2.7043563e+3, 2.803841e+2, -210647.33, -333588.16, -57898.05, -0.30434188, 0.026289096, -187673.7, 4561.994, 0.0, 10.00054, 9.999075 
2.7039713e+3, 2.9037896e+2, -41240.77, -56033.414, 5244.4097, 0.08902634, 0.27819264, -39570.15, 54719.445, 0.0, 10.000613, 10.000177 
2.7035835e+3, 3.0037305e+2, -115310.36, -252380.97, 22772.086, 0.27541256, 0.45246717, -111626.164, -111626.164, 0.0, 10.000108, 9.998538 
2.703185e+3, 3.103608e+2, -267192.72, -234288.66, 40706.72, -0.54959697, 0.08711457, -206835.03, -206835.03, 0.0, 9.998587, 9.9990015 
2.7027938e+3, 3.2035184e+2, 61738.27, 369880.3, -229889.25, -0.45011836, -0.0110049555, 492552.75, 492552.75, 0.0, 9.9986925, 10.00316 
2.7202308e+3, 1.3088928e+2, -1266537.1, -1451817.1, -140192.88, -0.0010295889, 0.039442353, -1191140.8, 466151.8, 0.022191128, 10.002887, 10.000292 
2.7198339e+3, 1.4088137e+2, -1332346.1, -1612136.9, 16651.186, -0.068998046, -0.042729303, -1331358.6, 228001.52, 0.012784308, 10.00238, 9.998903 
2.7194434e+3, 1.508739e+2, -1177728.5, -1261587.8, 84862.58, 0.06697644, -0.060123295, -1125002.3, 336428.47, 0.00532732, 10.002, 10.000685 
2.7190536e+3, 1.6086647e+2, -1311761.4, -1509498.8, 41332.613, 0.22773212, -0.080635995, -1303469.4, 60032.945, 0.0013580795, 10.00126, 9.998759 
2.7186605e+3, 1.7085932e+2, -1216388.4, -1319930.8, 71118.54, 0.03358032, 0.030052371, -1180193.0, 85383.31, 0.00016970174, 10.001023, 9.999364 
2.718267e+3, 1.8085203e+2, -1215998.0, -1245753.4, 9368.69, -0.12914853, 0.09506412, -1213293.9, -45644.125, 0.0000049540654, 10.00006, 9.999797 
2.717874e+3, 1.9084394e+2, -895826.7, -725090.06, -81737.15, -0.037386365, -0.14829198, -692269.06, 377448.1, 0.0, 10.000429, 10.002371 
2.7174816e+3, 2.0083597e+2, -1180308.6, -1273648.0, -35568.848, 0.092182696, -0.34014553, -1168299.5, -196514.0, 0.0, 9.999619, 9.998464 
2.7170902e+3, 2.1082743e+2, -985160.75, -1145370.4, 13198.863, -0.005589746, -0.26244906, -984080.7, -110205.375, 0.0, 10.000578, 9.998064 
2.7166983e+3, 2.2081928e+2, -944807.5, -1130434.3, -66867.625, -0.11188385, -0.15161164, -923228.56, -147266.61, 0.0, 10.000224, 9.997813 
2.7163044e+3, 2.3081286e+2, -708141.56, -700795.2, -105051.64, -0.19634871, -0.005837644, -599352.5, 78674.06, 0.0, 10.000194, 9.999973 
2.7159122e+3, 2.408064e+2, -886947.94, -842269.75, 22605.238, -0.18864566, 0.09731638, -832827.9, -252738.34, 0.0, 9.998593, 9.999222 
2.7155262e+3, 2.507977e+2, -528880.0, -371253.97, 115177.56, 0.089676626, -0.116330124, -310505.7, 171661.44, 0.0, 9.99948, 10.001206 
2.715139e+3, 2.6078895e+2, -722951.9, -845617.94, 55866.566, 0.27024198, -0.2799464, -701322.2, -317073.84, 0.0, 9.999173, 9.997567 
2.714743e+3, 2.7078e+2, -509520.28, -658360.1, -77699.09, -0.13218579, -0.19651286, -476350.84, -190004.5, 0.0, 9.999994, 9.99764 
2.7143484e+3, 2.8077158e+2, -467226.88, -577111.3, -61668.14, -0.42727786, -0.10037362, -439576.1, -251137.6, 0.0, 9.999399, 9.997952 
2.713962e+3, 2.9076508e+2, -84927.625, -27857.617, -14481.008, -0.13324092, -0.024450313, -24393.465, 66109.555, 0.0, 10.000152, 10.000561 
2.7135736e+3, 3.0075887e+2, -247626.0, -258333.97, -55687.742, -0.0047156643, 0.06552096, -197035.45, -197035.45, 0.0, 9.999065, 9.998975 
2.713179e+3, 3.1075075e+2, -310144.66, -81059.87, -76160.26, -0.24652754, -0.039800625, -58051.016, -58051.016, 0.0, 9.997653, 10.000423 
2.7127874e+3, 3.207443e+2, -147200.25, 64804.703, 144981.88, -0.29030854, 0.02573521, 138402.53, 138402.53, 0.0, 9.998347, 10.001148 
2.730224e+3, 1.3128373e+2, -1352695.0, -1251548.1, -117976.15, -0.23058814, 0.18711261, -1173762.5, 479664.38, 0.016854065, 10.001328, 10.002365 
2.7298325e+3, 1.412743e+2, -1199956.9, -1529458.8, 52603.41, 0.16166468, -0.2287535, -1191762.8, 363735.75, 0.009467284, 10.00326, 9.999026 
2.7294385e+3, 1.5126687e+2, -1192067.5, -1366556.0, 100419.875, 0.0703187, -0.16543004, -1146286.5, 311285.2, 0.0037924994, 10.002355, 9.999767 
2.7290457e+3, 1.612594e+2, -1399350.3, -1552589.4, 77521.8, 0.0026040461, -0.112551294, -1366973.5, -7326.7856, 0.0009170214, 10.000686, 9.998715 
2.7286536e+3, 1.7125171e+2, -1309786.5, -1308510.4, 104018.73, 0.010520877, -0.08385804, -1205127.8, 56594.902, 0.0001065257, 10.000152, 9.999854 
2.7282614e+3, 1.8124427e+2, -1309153.5, -1367040.3, 48291.293, -0.025874786, -0.03523875, -1281796.1, -118000.016, 0.0000025959862, 9.999723, 9.999125 
2.7278683e+3, 1.9123583e+2, -887676.06, -952004.4, -50529.64, 0.0044650133, -0.13483042, -859942.2, 205934.64, 0.0, 10.001394, 10.000403 
2.7274755e+3, 2.0122741e+2, -793042.56, -1089261.9, -57004.832, 0.024619076, -0.21639585, -782451.2, 185506.2, 0.0, 10.002213, 9.998485 
2.7270845e+3, 2.1121936e+2, -764866.6, -960124.6, 34668.555, 0.013201036, -0.15019281, -758893.9, 111145.44, 0.0, 10.001689, 9.998821 
2.726693e+3, 2.2121151e+2, -745963.6, -991275.1, 9013.664, -0.051975902, -0.050336726, -745632.9, 26486.775, 0.0, 10.0013075, 9.998251 
2.726299e+3, 2.3120326e+2, -485790.56, -647412.94, -67260.94, -0.13787448, -0.05071352, -461461.47, 212739.67, 0.0, 10.001863, 9.999558 
2.725906e+3, 2.4119553e+2, -345825.72, -566246.0, 7920.5005, -0.16421428, -0.03686061, -345541.47, 230734.77, 0.0, 10.0021515, 9.999404 
2.7255198e+3, 2.511876e+2, -130467.18, -235903.84, 28230.793, 0.07170863, -0.13986726, -123384.18, 354963.72, 0.0, 10.002334, 10.000829 
2.7251324e+3, 2.611793e+2, -243755.55, -594886.9, -100052.836, 0.2248824, -0.22667515, -217247.3, 163178.14, 0.0, 10.002259, 9.99782 
2.724737e+3, 2.711701e+2, -225482.11, -564477.5, -129076.89, -0.12836184, -0.14702918, -181929.78, 100596.32, 0.0, 10.002052, 9.997341 
2.724342e+3, 2.8116095e+2, -108873.586, -374676.22, -19900.35, -0.40302283, -0.08387962, -107391.93, 77233.27, 0.0, 10.001564, 9.99834 
2.723954e+3, 2.91153e+2, 41498.41, 13502.592, -21945.871, -0.24918897, -0.14009444, 53530.535, 140231.31, 0.0, 10.000938, 10.00053 
2.7235648e+3, 3.0114618e+2, 20191.635, -13683.217, -129638.7, -0.14671545, -0.13382643, 133994.67, 133994.67, 0.0, 10.000275, 10.000092 
2.7231732e+3, 3.1114057e+2, 168183.25, 240933.53, -205817.33, 0.060372375, -0.08571941, 413565.4, 413565.4, 0.0, 10.000389, 10.001399 
2.7227792e+3, 3.2113522e+2, -10945.344, -75740.875, 260779.34, -0.31295684, 0.10518151, 219440.98, 219440.98, 0.0, 9.999903, 9.999517 
2.7402183e+3, 1.31678e+2, -1214140.0, -1015063.4, -12290.6875, -0.22753339, 0.26389578, -1014307.44, 635253.3, 0.012358498, 10.001465, 10.003938 
2.7398312e+3, 1.41667e+2, -1369643.0, -1593790.9, -57076.723, 0.4916004, -0.39562523, -1355946.0, 195694.63, 0.0067449147, 10.001986, 9.999171 
2.739434e+3, 1.5166032e+2, -1250396.1, -1465871.3, -35594.04, 0.1326689, -0.22833036, -1244668.8, 209041.16, 0.0025850076, 10.002219, 9.999144 
2.739038e+3, 1.6165327e+2, -1280802.0, -1504359.1, -14966.85, -0.09347193, -0.09349106, -1279804.4, 75978.336, 0.0005889778, 10.001512, 9.998642 
2.738647e+3, 1.7164399e+2, -1138437.5, -1217275.3, 26323.629, 0.06742193, -0.260775, -1130456.1, 127412.98, 0.00006228534, 10.001237, 9.999972 
2.7382556e+3, 1.8163528e+2, -1331294.1, -1565922.5, 36592.99, 0.19942735, -0.28958762, -1325719.4, -165765.95, 0.0000011486238, 10.000419, 9.9974165 
2.7378628e+3, 1.916279e+2, -1058707.9, -1270989.4, -15524.8, 0.101084635, -0.09382892, -1057578.5, 4458.542, 0.0, 10.001315, 9.9982 
2.7374703e+3, 2.0162064e+2, -954201.2, -1184129.5, -43939.79, 0.050389968, 0.088879555, -946090.3, 18026.063, 0.0, 10.001268, 9.99827 
2.7370793e+3, 2.1161273e+2, -733177.44, -810448.1, -4591.5186, 0.11519328, 0.052803706, -732905.56, 133284.83, 0.0, 10.001308, 10.000035 
2.7366886e+3, 2.21604e+2, -949710.7, -1154701.5, -4394.6665, 0.16887076, -0.00062141125, -949616.5, -181344.02, 0.0, 10.000255, 9.997626 
2.736295e+3, 2.3159242e+2, -664416.4, -835575.75, -67210.445, 0.06420991, -0.26809886, -641179.1, 29205.635, 0.0, 10.001175, 9.9985485 
2.7359018e+3, 2.4158232e+2, -662525.1, -929543.0, 20324.504, -0.026043728, -0.36557958, -660986.94, -88503.14, 0.0, 10.000958, 9.997476 
2.7355132e+3, 2.5157624e+2, -323926.28, -485653.34, 29464.623, -0.081963025, -0.15982571, -318725.47, 155821.31, 0.0, 10.001761, 9.999333 
2.7351236e+3, 2.6157e+2, -441577.5, -732089.2, -111068.9, -0.12704666, 0.06483927, -403979.4, -27368.12, 0.0, 10.001221, 9.997338 
2.7347305e+3, 2.7156168e+2, -211159.48, -418633.97, -138236.7, -0.19916448, 0.11262025, -142065.02, 136634.28, 0.0, 10.001618, 9.998503 
2.7343377e+3, 2.8155297e+2, -304368.4, -521934.9, -35513.215, -0.23752227, 0.14535251, -298718.34, -117929.39, 0.0, 10.0006075, 9.997748 
2.7339485e+3, 2.9154387e+2, -83247.31, -124083.555, -48596.37, -0.16044264, 0.020482203, -50953.887, 31920.738, 0.0, 10.000556, 9.999713 
2.7335575e+3, 3.015358e+2, -194575.61, -220410.56, -144895.5, -0.13810405, -0.014401209, -62022.926, -62022.926, 0.0, 9.999402, 9.999064 
2.733166e+3, 3.1152952e+2, 141225.73, 214161.8, -210130.8, 0.00673442, -0.030477047, 390965.6, 390965.6, 0.0, 10.000432, 10.001102 
2.732772e+3, 3.215191e+2, -312013.94, -401991.4, 120316.01, -0.35818288, -0.2871908, -228550.63, -228550.63, 0.0, 9.998851, 9.997705 
2.7502137e+3, 1.320676e+2, -1566979.3, -1463950.8, -118657.086, -0.104045235, 0.011669402, -1386108.0, 259622.81, 0.008685325, 10.000304, 10.001359 
2.7498212e+3, 1.4205705e+2, -1699539.1, -1802218.4, -112946.06, 0.10602982, -0.44281298, -1626812.0, -78993.266, 0.004592608, 9.999961, 9.998698 
2.749429e+3, 1.5205199e+2, -1249932.4, -1395086.8, -45400.766, 0.17837347, -0.17526272, -1236901.9, 212971.78, 0.0016782222, 10.001925, 9.999776 
2.7490366e+3, 1.6204572e+2, -1052111.5, -1354364.8, -50522.805, 0.18949674, -0.012361325, -1043890.0, 308048.3, 0.0003582281, 10.002917, 9.998988 
2.7486432e+3, 1.7203543e+2, -859497.6, -1069414.3, -28797.074, 0.15497756, -0.2969205, -855618.8, 398413.53, 0.000033741435, 10.003103, 10.000081 
2.7482495e+3, 1.8202595e+2, -1038845.44, -1457616.6, -30058.32, 0.07921552, -0.39546132, -1036698.94, 119424.49, 0.00000040337267, 10.002537, 9.997135 
2.747856e+3, 1.9201864e+2, -1046194.25, -1357801.4, -28579.424, -0.013199344, -0.12357438, -1043594.75, 14614.2295, 0.0, 10.001756, 9.997411 
2.747463e+3, 2.0201159e+2, -969804.5, -1183971.8, -32449.342, -0.073116176, 0.14007814, -964995.94, -4707.528, 0.0, 10.001036, 9.998407 
2.747073e+3, 2.1200348e+2, -698658.3, -790541.8, -23756.04, 0.052765455, 0.07805776, -692879.75, 169484.78, 0.0, 10.001403, 10.000193 
2.746682e+3, 2.2199489e+2, -731973.0, -985365.4, -71467.01, 0.11835717, 0.011824628, -713206.25, 51238.96, 0.0, 10.001375, 9.998269 
2.7462882e+3, 2.3198445e+2, -669076.2, -835946.7, -69257.01, 0.031124996, -0.14939241, -644077.25, 22469.223, 0.0, 10.001031, 9.998677 
2.7458954e+3, 2.419746e+2, -677278.3, -922410.8, 75609.27, -0.062403046, -0.21398711, -655833.25, -87189.69, 0.0, 10.000675, 9.997683 
2.745507e+3, 2.5196707e+2, -534643.1, -672324.9, 114960.42, -0.08462252, -0.0674502, -469487.88, 1234.8013, 0.0, 10.000624, 9.998635 
2.7451175e+3, 2.6196015e+2, -429681.3, -595165.75, 5834.175, -0.12914065, 0.1239442, -429475.88, -56680.344, 0.0, 10.000615, 9.998593 
2.744725e+3, 2.7195278e+2, -182593.11, -280983.4, -21143.213, -0.14160274, 0.18034422, -178242.03, 96626.984, 0.0, 10.001144, 9.999745 
2.744333e+3, 2.819448e+2, -143716.4, -375771.34, 54192.703, -0.13220315, 0.21049714, -131684.42, 45263.418, 0.0, 10.001317, 9.998424 
2.7439424e+3, 2.919349e+2, -31669.059, -162144.61, 35079.855, -0.12418004, 0.07012543, -22835.494, 56207.207, 0.0, 10.001132, 9.999222 
2.7435505e+3, 3.0192566e+2, -4821.6235, -196520.3, -47442.54, -0.15366626, 0.009720038, 6277.1113, 6277.1113, 0.0, 10.000856, 9.998571 
2.7431592e+3, 3.1191853e+2, 216400.53, 108796.4, -179438.7, -0.014376197, 0.03440339, 349929.47, 349929.47, 0.0, 10.001386, 10.000008 
2.7427673e+3, 3.2190448e+2, -5792.9663, -365611.34, 29685.475, -0.12577802, -0.45325443, -3360.3235, -3360.3235, 0.0, 10.001206, 9.996863 
2.760209e+3, 1.3245808e+2, -1342957.0, -1643525.4, -85721.79, 0.08114921, -0.22874424, -1320228.0, 321666.94, 0.005822727, 10.003052, 9.998803 
2.759812e+3, 1.4244832e+2, -1397942.8, -1686150.5, -21191.463, -0.1292602, -0.3870468, -1396392.9, 147594.48, 0.002969682, 10.002158, 9.998449 
2.7594247e+3, 1.5244381e+2, -1145267.4, -1266546.6, 41420.88, 0.30655771, -0.118932836, -1132471.0, 313566.2, 0.0010279784, 10.002341, 10.000444 
2.7590358e+3, 1.6243781e+2, -1158062.4, -1418862.1, -24402.057, 0.60378575, 0.039546568, -1155798.8, 192299.73, 0.0002033788, 10.002224, 9.998908 
2.7586395e+3, 1.7242704e+2, -918019.9, -1114565.9, -56621.168, 0.27042747, -0.2824803, -902875.3, 347321.84, 0.000016580547, 10.00276, 9.999952 
2.7582437e+3, 1.8241714e+2, -1095887.8, -1520057.4, -78465.81, -0.011080622, -0.40521783, -1081838.0, 70454.21, 0.00000009587778, 10.002364, 9.996779 
2.757849e+3, 1.9240928e+2, -1030122.8, -1378300.0, -85507.98, -0.10626327, -0.17290664, -1010256.7, 44124.637, 0.0, 10.002032, 9.99713 
2.757456e+3, 2.0240149e+2, -1035894.75, -1288455.9, -14359.667, -0.12552452, 0.0660354, -1035080.94, -78614.195, 0.0, 10.000958, 9.997724 
2.757066e+3, 2.1239297e+2, -794195.4, -872353.0, -29560.645, -0.012052212, -0.0061513544, -784274.4, 74275.6, 0.0, 10.00101, 9.99977 
2.756675e+3, 2.223853e+2, -921433.2, -1054440.8, -88200.1, 0.0559142, 0.03807889, -877474.25, -116849.4, 0.0, 10.000143, 9.998346 
2.75628e+3, 2.3237881e+2, -682155.5, -751921.4, -91759.79, -0.096396066, 0.18263653, -618871.9, 43817.438, 0.0, 10.00066, 9.999391 
2.7558878e+3, 2.423709e+2, -869415.94, -1074871.1, 73533.14, -0.13169836, 0.2916041, -845810.3, -281042.56, 0.0, 9.999771, 9.997031 
2.755502e+3, 2.5235933e+2, -650799.1, -769361.5, 107959.625, 0.103048444, 0.046483252, -586915.6, -120032.62, 0.0, 10.000095, 9.998172 
2.755114e+3, 2.623495e+2, -579109.75, -643430.9, 12592.238, 0.22326082, -0.03970328, -576732.44, -207752.72, 0.0, 9.999611, 9.998734 
2.7547204e+3, 2.7234343e+2, -216552.42, -170617.03, -15390.176, 0.046670806, 0.034294777, -165937.44, 105097.69, 0.0, 10.000534, 10.000748 
2.7543268e+3, 2.823363e+2, -373646.78, -545642.0, 46154.023, -0.10312806, 0.10935613, -362044.28, -188942.19, 0.0, 10.000119, 9.99782 
2.7539346e+3, 2.9232582e+2, -160530.31, -281530.8, 27292.873, -0.24181466, -0.06110215, -154659.03, -79453.58, 0.0, 10.000552, 9.998655 
2.7535427e+3, 3.02316e+2, -340118.88, -631341.6, -45126.934, -0.2851472, -0.055209298, -333286.47, -333286.47, 0.0, 9.999865, 9.996038 
2.753155e+3, 3.1230766e+2, -70048.57, -327209.72, -170627.28, 0.18716729, 0.09650234, 15021.583, 15021.583, 0.0, 10.000826, 9.997237 
2.7527618e+3, 3.2229456e+2, -43667.023, -230652.44, 143823.47, -0.14203776, -0.1839774, 34380.57, 34380.57, 0.0, 10.00057, 9.998008 
2.7702054e+3, 1.3285345e+2, -1196975.5, -1626553.3, -153316.48, -0.076453954, -0.10493765, -1147870.0, 490152.22, 0.0036892197, 10.004381, 9.998224 
2.769812e+3, 1.4284357e+2, -1255825.1, -1700375.5, 34605.625, 0.2247898, -0.23397079, -1253147.5, 286970.6, 0.0018042208, 10.003546, 9.997657 
2.7694184e+3, 1.5283604e+2, -1206511.0, -1379711.4, 66645.81, 0.13116316, -0.19188194, -1183835.1, 258357.94, 0.00058557204, 10.0023, 9.999671 
2.769026e+3, 1.6282848e+2, -1364876.1, -1650056.9, -5194.514, 0.118250825, -0.0917641, -1364781.5, -20511.521, 0.00010501939, 10.001353, 9.997743 
2.768633e+3, 1.7281988e+2, -1051729.0, -1322516.1, -41464.22, 0.10051556, -0.0695042, -1045522.1, 200836.2, 0.0000068884756, 10.00243, 9.998706 
2.7682394e+3, 1.8281128e+2, -961317.8, -1373631.9, -118256.734, 0.0066909543, -0.004392764, -929808.3, 218636.66, 0.00000000965895, 10.002928, 9.997507 
2.7678448e+3, 1.928022e+2, -761580.5, -1127545.1, -55205.23, -0.10549918, 0.0045662764, -753434.25, 297100.78, 0.0, 10.003315, 9.998253 
2.7674508e+3, 2.0279293e+2, -790867.7, -1199632.9, -12260.313, -0.16690528, 0.044576585, -790500.3, 162127.94, 0.0, 10.002745, 9.997463 
2.7670595e+3, 2.1278276e+2, -868851.7, -1050408.4, -53840.67, -0.02213791, -0.06240228, -854086.06, 644.5788, 0.0, 10.001099, 9.998517 
2.7666676e+3, 2.2277439e+2, -841560.4, -950480.6, -105798.98, 0.019578516, -0.021668205, -777027.5, -20212.852, 0.0, 10.000338, 9.998982 
2.7662736e+3, 2.3276907e+2, -457367.16, -581712.6, -89615.27, -0.14394875, 0.19767137, -410469.53, 248397.64, 0.0, 10.001853, 10.000044 
2.7658817e+3, 2.4276212e+2, -388677.03, -726540.7, 33194.3, -0.18929617, 0.32772836, -385446.66, 175489.05, 0.0, 10.002472, 9.99814 
2.7654955e+3, 2.5275043e+2, -430134.3, -641314.44, 99822.625, 0.09774245, 0.048916955, -390418.44, 72631.26, 0.0, 10.001396, 9.998493 
2.7651075e+3, 2.627401e+2, -388362.53, -494047.0, 25021.848, 0.2595018, -0.10707773, -382737.75, -17588.637, 0.0, 10.000566, 9.999318 
2.764714e+3, 2.7273342e+2, -155689.53, -160357.9, -64551.71, 0.07535914, -0.07206468, -93429.82, 173779.06, 0.0, 10.000933, 10.000678 
2.764321e+3, 2.8272617e+2, -156847.44, -439881.78, -42111.35, -0.0925152, -0.0051401514, -150714.77, 18562.541, 0.0, 10.00147, 9.997907 
2.763929e+3, 2.9271653e+2, 142901.97, -217693.42, -73134.98, -0.23017254, -0.045709543, 157170.4, 228546.66, 0.0, 10.002788, 9.99809 
2.7635372e+3, 3.0270678e+2, 151482.97, -444448.0, -108030.72, -0.27006012, 0.014634833, 170462.39, 170462.39, 0.0, 10.003308, 9.995672 
2.7631497e+3, 3.126972e+2, 161792.97, -329108.66, -84986.83, 0.22300375, 0.141805, 176089.84, 176089.84, 0.0, 10.002806, 9.996284 
2.7627555e+3, 3.2268572e+2, 69329.21, -4069.3923, 235657.75, -0.20407188, 0.056146197, 271128.16, 271128.16, 0.0, 10.000425, 9.999649 
2.780202e+3, 1.3324857e+2, -1598784.1, -1782536.9, -235665.64, -0.052384615, 0.022476211, -1437718.8, 196437.02, 0.0021709546, 10.001381, 9.998624 
2.7798125e+3, 1.4323856e+2, -1335102.8, -1799659.0, -66046.31, 0.6896472, -0.11439849, -1325895.4, 210356.03, 0.0010072378, 10.003138, 9.997232 
2.779411e+3, 1.5322833e+2, -1161684.9, -1460643.9, -25348.576, -0.052882094, -0.2806593, -1159550.9, 278797.3, 0.00030058212, 10.002919, 9.998898 
2.779015e+3, 1.632195e+2, -1340883.9, -1784154.3, 18724.25, -0.36105815, -0.19799818, -1340094.4, 343.96732, 0.000046417692, 10.002153, 9.996442 
2.7786267e+3, 1.7321326e+2, -1177064.3, -1549079.0, -628.1523, -0.0050115986, 0.19299258, -1177063.3, 65452.44, 0.0000020738605, 10.002296, 9.997219 
2.7782363e+3, 1.8320596e+2, -1019195.75, -1321422.3, -65763.8, 0.16819552, 0.46024776, -1005505.8, 139088.06, 0.00000000000031198744, 10.002214, 9.998199 
2.777841e+3, 1.9319588e+2, -693093.2, -922143.8, -74088.65, -0.0145644, 0.20836408, -671217.7, 375463.84, 0.0, 10.003095, 9.99974 
2.7774465e+3, 2.031852e+2, -933512.1, -1408636.4, -83301.016, -0.0790985, 0.06762764, -919330.7, 29450.168, 0.0, 10.00247, 9.996139 
2.7770537e+3, 2.1317281e+2, -992058.2, -1297530.4, -133616.83, 0.052652687, -0.11182711, -941861.4, -90953.45, 0.0, 10.001144, 9.9967785 
2.7766612e+3, 2.2316274e+2, -963248.3, -1040633.0, -50449.203, 0.10875876, -0.120997995, -938362.2, -185352.39, 0.0, 9.999697, 9.998654 
2.7762684e+3, 2.3315659e+2, -519720.75, -563630.3, -34850.273, -0.07598592, -0.04369341, -500486.28, 154582.42, 0.0, 10.001279, 10.000404 
2.7758768e+3, 2.4314994e+2, -546785.6, -751090.25, 14932.5, -0.1586408, 0.07899077, -545700.0, 11432.148, 0.0, 10.00129, 9.99852 
2.775488e+3, 2.531411e+2, -469929.63, -547966.06, 42515.65, -0.045118276, -0.017414462, -451241.66, 7975.022, 0.0, 10.000774, 9.999397 
2.775098e+3, 2.6313195e+2, -652500.5, -750884.44, 19009.648, 0.032642428, -0.05375579, -648955.25, -287650.97, 0.0, 9.999478, 9.998023 
2.774706e+3, 2.731224e+2, -354552.44, -401725.94, -56743.11, -0.058276147, -0.20037828, -316689.1, -53293.383, 0.0, 10.000305, 9.999264 
2.774315e+3, 2.83114e+2, -399874.2, -683961.44, -8292.19, -0.08628113, -0.116123475, -399632.34, -234152.5, 0.0, 10.000495, 9.996668 
2.7739266e+3, 2.9310668e+2, 20003.877, -328959.16, -30156.385, -0.013005195, 0.11968411, 22590.729, 90151.375, 0.0, 10.002334, 9.997469 
2.773534e+3, 3.0309826e+2, 124034.05, -308465.88, -128087.484, -0.17420243, 0.30858186, 159121.4, 159121.4, 0.0, 10.002665, 9.996871 
2.773139e+3, 3.1308708e+2, 234481.17, -27494.605, -90300.62, -0.38214236, 0.02215475, 262590.8, 262590.8, 0.0, 10.002304, 9.998551 
2.7727494e+3, 3.2307804e+2, -209564.22, -90217.65, 9257.399, -0.095353365, 0.04737564, -89503.84, -89503.84, 0.0, 9.998511, 9.999957 
2.7901933e+3, 1.3363767e+2, -1896179.4, -1592657.0, -153212.95, -0.13626121, 0.0032340547, -1528766.5, 101589.02, 0.0011673695, 9.997964, 10.001561 
2.789806e+3, 1.436312e+2, -1391012.8, -1718638.3, -66880.375, 0.4615499, 0.01479545, -1377886.0, 154523.4, 0.00050489604, 10.002332, 9.9981575 
2.7894074e+3, 1.5362234e+2, -1031827.25, -1293179.6, -1342.171, -0.01827909, -0.11467488, -1031820.4, 402670.66, 0.00013439951, 10.003391, 9.999805 
2.7890125e+3, 1.6361335e+2, -1176092.5, -1692546.4, 17782.508, -0.216747, -0.0921412, -1175480.9, 161098.45, 0.000016423304, 10.003228, 9.996551 
2.788622e+3, 1.7360419e+2, -1224604.0, -1586849.5, 57669.74, 0.02399811, 0.024019983, -1215644.5, 23034.533, 0.0000003300107, 10.002015, 9.997098 
2.7882302e+3, 1.8359506e+2, -1160901.8, -1461069.3, 35010.12, 0.08420018, 0.15197557, -1156872.4, -16099.399, 0.0, 10.001498, 9.997605 
2.7878365e+3, 1.935847e+2, -748978.8, -1061976.5, -25286.207, -0.0738768, -0.00891803, -746949.2, 295918.8, 0.0, 10.00314, 9.998801 
2.7874425e+3, 2.0357485e+2, -694130.25, -1187574.1, -172173.88, -0.12819533, -0.041987177, -639994.1, 304967.53, 0.0, 10.003652, 9.997071 
2.7870482e+3, 2.1356499e+2, -674980.4, -1060692.1, -102591.6, 0.030673062, -0.03789399, -649390.8, 197672.45, 0.0, 10.002942, 9.997553 
2.786655e+3, 2.2355568e+2, -564955.3, -828431.2, 77023.7, 0.08237794, -0.01022192, -544090.7, 205066.8, 0.0, 10.002232, 9.99891 
2.7862626e+3, 2.3354748e+2, -495197.38, -610846.7, 70988.33, -0.055359248, -0.075146765, -461463.13, 189773.53, 0.0, 10.001562, 9.99999 
2.7858713e+3, 2.4353996e+2, -490692.16, -656110.4, 59365.25, -0.14893937, -0.028416224, -471592.5, 81716.44, 0.0, 10.001302, 9.999173 
2.7854812e+3, 2.5353247e+2, -245746.03, -400564.38, 52412.637, -0.12536259, -0.006229584, -229671.17, 225709.14, 0.0, 10.00205, 9.999837 
2.7850908e+3, 2.6352412e+2, -205702.16, -500363.34, 22037.186, -0.103015386, -0.00055237015, -204063.16, 153397.08, 0.0, 10.002255, 9.998431 
2.7846992e+3, 2.7351385e+2, -143565.19, -359634.2, 26179.555, -0.09322437, -0.16761647, -140438.45, 119121.23, 0.0, 10.001833, 9.998893 
2.7843097e+3, 2.8350484e+2, -225869.61, -513952.34, 175156.61, -0.012783354, -0.12884802, -143134.11, 18516.082, 0.0, 10.001233, 9.997484 
2.783923e+3, 2.934979e+2, -129627.59, -353971.72, 222922.53, 0.14383087, 0.13067748, 7753.993, 71480.63, 0.0, 10.001017, 9.997952 
2.78353e+3, 3.0348963e+2, -2423.438, -215933.94, 100925.664, -0.07464958, 0.27149373, 37731.74, 37731.74, 0.0, 10.000975, 9.998363 
2.7831307e+3, 3.1347865e+2, 177487.4, 55708.348, 8639.149, -0.65188247, -0.063038774, 178097.22, 178097.22, 0.0, 10.001238, 9.999741 
2.7827454e+3, 3.2347092e+2, 117854.09, 48738.426, -147498.61, 0.29347634, 0.06644173, 234789.11, 234789.11, 0.0, 10.000622, 9.999973 
2.8001845e+3, 1.3402705e+2, -1555308.3, -1163008.6, 109239.14, -0.104637064, -0.024795951, -1134641.3, 491909.75, 0.0005664125, 9.9990425, 10.004018 
2.799799e+3, 1.4402376e+2, -1503453.4, -1666468.3, -42214.21, 0.32301998, 0.1289475, -1493170.3, 35398.03, 0.00022570654, 10.001116, 9.999069 
2.799405e+3, 1.5401655e+2, -1154627.4, -1257145.9, -23315.592, 0.1553744, 0.07140395, -1149573.9, 281058.78, 0.00005282333, 10.002147, 10.000623 
2.7990115e+3, 1.6400723e+2, -1283663.9, -1710730.9, -46928.5, 0.1254316, 0.0033474232, -1278568.0, 54151.94, 0.000004777361, 10.002409, 9.996763 
2.7986175e+3, 1.7399451e+2, -1141153.5, -1515280.0, -31302.557, 0.13211127, -0.28430146, -1138552.5, 96291.375, 0.00000002399446, 10.002463, 9.997339 
2.7982244e+3, 1.8398297e+2, -1193852.5, -1652565.1, 81175.836, 0.07044554, -0.34391788, -1179911.0, -42953.133, 0.0, 10.002103, 9.995977 
2.7978316e+3, 1.9397247e+2, -961053.7, -1358180.3, 46201.72, -0.08798324, -0.35266194, -955749.4, 83313.6, 0.0, 10.0025835, 9.997017 
2.7974382e+3, 2.0396419e+2, -795852.94, -1121358.0, -138698.64, -0.10707859, -0.16571237, -744769.75, 196376.7, 0.0, 10.002476, 9.998095 
2.7970433e+3, 2.1395841e+2, -628532.25, -846536.8, -128615.695, 0.040550668, 0.06525968, -568941.8, 274263.88, 0.0, 10.002431, 9.999263 
2.7966496e+3, 2.2395097e+2, -745524.7, -980570.06, 71537.01, 0.102171786, 0.21083462, -725464.2, 19816.55, 0.0, 10.001432, 9.998201 
2.796257e+3, 2.3394059e+2, -650766.06, -772205.25, 30898.906, 0.009883004, -0.008493888, -643356.3, 4026.9197, 0.0, 10.000995, 9.999122 
2.7958658e+3, 2.439317e+2, -674241.8, -805355.5, 89551.15, -0.05346053, -0.014679749, -628816.2, -79345.76, 0.0, 10.000413, 9.998554 
2.7954757e+3, 2.539243e+2, -365323.9, -467133.13, 78081.055, -0.095456555, 0.012269622, -323019.44, 128522.97, 0.0, 10.001367, 9.999669 
2.7950853e+3, 2.6391688e+2, -369648.25, -548501.06, 15736.319, -0.090782315, 0.113595545, -368274.25, -14660.311, 0.0, 10.001118, 9.998628 
2.7946943e+3, 2.739085e+2, -208385.69, -302564.63, 13858.538, -0.012819558, 0.04218603, -206388.73, 49305.234, 0.0, 10.001122, 9.999587 
2.7943045e+3, 2.8389966e+2, -293652.84, -414558.6, 167993.13, 0.07186718, 0.016187847, -175566.55, -17788.281, 0.0, 10.000324, 9.998575 
2.793916e+3, 2.9388952e+2, -148999.27, -164387.8, 223627.83, 0.13817543, -0.22776696, 67066.63, 126941.74, 0.0, 10.00014, 9.999649 
2.7935237e+3, 3.0388087e+2, -299387.5, -452863.53, 106681.09, -0.014433738, -0.18004742, -244711.73, -244711.73, 0.0, 9.999522, 9.997364 
2.7931282e+3, 3.1387368e+2, -126423.914, -200109.5, 36594.43, -0.22261474, -0.04768218, -111338.45, -111338.45, 0.0, 9.999799, 9.998587 
2.792738e+3, 3.238623e+2, -55887.465, -84378.58, -45653.22, 0.1870797, -0.20854066, -22308.844, -22308.844, 0.0, 9.999995, 9.999219 
2.810178e+3, 1.3441952e+2, -1725373.0, -1430524.8, 94382.586, -0.06546567, 0.17741174, -1402900.5, 219804.6, 0.00024939553, 9.998755, 10.002298 
2.8097934e+3, 1.4441438e+2, -1775389.3, -1717022.4, -79344.8, 0.43365103, 0.20161906, -1661664.3, -136920.67, 0.00009135431, 9.998972, 9.999735 
2.8093976e+3, 1.5440723e+2, -1430802.9, -1308376.9, -15972.855, 0.06828707, 0.06485682, -1306327.3, 120480.734, 0.000018191195, 9.999929, 10.001339 
2.8090045e+3, 1.6439858e+2, -1386664.8, -1646817.9, -46710.855, -0.062178034, -0.010776902, -1378532.0, -49643.0, 0.000001253609, 10.001224, 9.997774 
2.8086123e+3, 1.7438784e+2, -928780.94, -1302055.1, 25489.545, 0.0002980154, -0.18743283, -927048.4, 303944.63, 0.0000000065346386, 10.003454, 9.998333 
2.8082195e+3, 1.8437766e+2, -896674.6, -1371645.6, 52179.082, -0.015715893, -0.20997056, -891009.94, 242082.05, 0.0, 10.003575, 9.997167 
2.8078264e+3, 1.9436754e+2, -1039142.8, -1309332.1, 142527.52, -0.08539315, -0.25117612, -977858.56, 57332.39, 0.0, 10.001666, 9.997799 
2.8074327e+3, 2.0435876e+2, -967020.2, -1175967.0, 21849.525, -0.10514463, -0.14699385, -964759.8, -27482.5, 0.0, 10.001134, 9.998362 
2.8070372e+3, 2.1435142e+2, -606482.5, -855351.6, -8788.655, -0.07259957, -0.039128628, -606172.56, 233177.0, 0.0, 10.002573, 9.999162 
2.8066435e+3, 2.243432e+2, -521446.0, -923705.7, 77468.76, -0.049458575, 0.06601074, -507042.5, 234389.3, 0.0, 10.003139, 9.99778 
2.8062516e+3, 2.3433287e+2, -437251.47, -767465.06, 54820.184, -0.013345809, -0.043999832, -428388.4, 215148.3, 0.0, 10.002805, 9.998317 
2.8058606e+3, 2.4432383e+2, -340491.4, -613123.6, 129452.83, -0.040563557, -0.030346863, -288817.84, 256809.13, 0.0, 10.002474, 9.998891 
2.8054702e+3, 2.543163e+2, -234650.42, -424088.47, 126955.56, -0.13541506, 0.007406732, -170973.08, 276727.63, 0.0, 10.002225, 9.999599 
2.8050795e+3, 2.6430902e+2, -249051.47, -425647.1, 7426.187, -0.11223271, 0.1036453, -248739.73, 101031.88, 0.0, 10.001537, 9.999317 
2.8046885e+3, 2.7430132e+2, -281730.66, -321384.78, -24114.791, 0.06884996, 0.10054512, -270338.56, -18492.986, 0.0, 10.000386, 9.999897 
2.8042984e+3, 2.8429285e+2, -276853.7, -238661.84, 123440.79, 0.16943738, 0.020198628, -132848.66, 21076.05, 0.0, 9.999557, 10.000198 
2.803909e+3, 2.942826e+2, -151121.97, -49046.715, 134400.92, 0.1494645, -0.3386465, 43680.906, 99698.516, 0.0, 9.999449, 10.000853 
2.8035164e+3, 3.0427456e+2, -253510.08, -381831.6, 49586.8, 0.02566037, -0.31426337, -236581.67, -236581.67, 0.0, 9.999543, 9.997846 
2.8031233e+3, 3.1426957e+2, -38047.78, -171598.6, 66736.6, 0.0043036244, 0.061605517, -10415.939, -10415.939, 0.0, 10.00035, 9.998562 
2.80273e+3, 3.242553e+2, -10171.709, -96207.7, 22819.256, 0.09312739, -0.37357524, -4494.0547, -4494.0547, 0.0, 10.000214, 9.99912 
2.820172e+3, 1.3481104e+2, -1442582.3, -1515263.0, 126031.16, 0.13816766, 0.2245502, -1347756.8, 271108.13, 0.00010704309, 10.001656, 10.000327 
2.819787e+3, 1.4480455e+2, -1491806.5, -1507816.6, -30452.514, 0.6368165, 0.2324416, -1468324.5, 52597.277, 0.000035101017, 10.000625, 10.000377 
2.8193897e+3, 1.5479709e+2, -1332478.8, -1194772.9, -27082.479, 0.015147403, 0.0065267948, -1189638.1, 233352.56, 0.0000055355054, 10.0003605, 10.001911 
2.8189966e+3, 1.6478989e+2, -1403731.6, -1537531.0, 4293.185, -0.18670112, 0.0016023433, -1403594.0, -78534.46, 0.0000002527922, 10.000631, 9.998821 
2.818607e+3, 1.7478243e+2, -1088801.5, -1253068.8, 45549.18, -0.06882207, 0.0337928, -1077016.8, 150117.03, 0.0, 10.001866, 9.999457 
2.8182152e+3, 1.8477453e+2, -993952.0, -1253844.5, -35972.51, -0.0077972333, 0.11446829, -989064.9, 140144.19, 0.0, 10.002202, 9.998649 
2.8178215e+3, 1.9476528e+2, -923461.9, -1095141.6, 3652.0923, 0.015886731, -0.012021139, -923384.2, 107910.0, 0.0, 10.001744, 9.999258 
2.817427e+3, 2.0475516e+2, -1040641.75, -1323289.8, 13599.247, -0.01603572, -0.06693598, -1039989.0, -106599.6, 0.0, 10.001226, 9.997255 
2.817031e+3, 2.1474384e+2, -765630.25, -1044622.2, -20131.252, -0.16601932, -0.2822308, -764185.1, 71312.68, 0.0, 10.002076, 9.998051 
2.8166375e+3, 2.2473404e+2, -737089.06, -1144576.4, 54220.984, -0.18735765, -0.22321112, -729997.75, 7598.038, 0.0, 10.002256, 9.99666 
2.8162464e+3, 2.347249e+2, -616533.06, -930888.2, 25939.258, -0.030142026, -0.15848185, -614407.06, 25285.203, 0.0, 10.002025, 9.997521 
2.8158554e+3, 2.4471654e+2, -522621.75, -725856.3, 130286.16, -0.04024063, -0.021796918, -459010.25, 82767.07, 0.0, 10.001461, 9.998573 
2.815464e+3, 2.5470832e+2, -374411.25, -498164.63, 111202.88, -0.21464698, -0.064700216, -309029.13, 134827.72, 0.0, 10.001397, 9.9994545 
2.815073e+3, 2.6470035e+2, -436847.47, -567638.4, -43402.55, -0.15734196, 0.005019777, -423755.06, -77819.88, 0.0, 10.00064, 9.998711 
2.8146818e+3, 2.7469176e+2, -412301.78, -396524.7, -68336.72, 0.14875153, -0.09632201, -335622.72, -87602.3, 0.0, 9.999696, 9.999642 
2.8142908e+3, 2.8468472e+2, -430185.47, -295161.7, 112336.41, 0.22832471, -0.013998069, -231611.3, -81522.87, 0.0, 9.998611, 10.000201 
2.8139004e+3, 2.946785e+2, -280178.9, -55365.813, 114007.555, 0.11948736, -0.03928496, -7669.4136, 44476.91, 0.0, 9.998477, 10.00121 
2.8135067e+3, 3.0467218e+2, -317981.2, -271210.72, 52257.938, -0.16416578, 0.08995822, -237344.23, -237344.23, 0.0, 9.998597, 9.999043 
2.8131115e+3, 3.1466565e+2, -95363.22, -8746.815, 102367.22, -0.42728707, 0.11882433, 59096.44, 59096.44, 0.0, 9.999229, 10.000194 
2.812723e+3, 3.2465306e+2, -128384.6, 65776.5, 47280.56, 0.10146674, -0.33661097, 76677.82, 76677.82, 0.0, 9.998716, 10.000859 
2.8301677e+3, 1.3519913e+2, -1268740.8, -1493002.0, 24291.793, 0.026398461, -0.1478754, -1266139.6, 348908.75, 0.000050582996, 10.003157, 9.9997425 
2.829779e+3, 1.4519422e+2, -1404903.6, -1545246.1, -52837.38, 0.38178134, 0.09082724, -1387235.4, 129862.83, 0.000015386415, 10.001613, 9.999611 
2.8293824e+3, 1.5518707e+2, -1442448.0, -1373432.3, -50483.426, -0.0096092075, -0.005415478, -1346789.8, 72381.63, 0.0000020566958, 10.000168, 10.000764 
2.8289902e+3, 1.6518056e+2, -1524332.9, -1482849.6, -38818.35, -0.115553506, 0.07150899, -1459579.0, -138342.56, 0.00000005936716, 9.999314, 9.999821 
2.8286004e+3, 1.7517394e+2, -1426690.1, -1333196.0, 26051.924, -0.02958815, 0.09869219, -1326426.8, -103125.55, 0.0, 9.999147, 10.00023 
2.828209e+3, 1.8516663e+2, -1263982.4, -1365822.3, -78530.625, -0.021396426, 0.18668185, -1221308.0, -95935.91, 0.0, 10.000224, 9.998855 
2.827816e+3, 1.9515796e+2, -786317.2, -1035236.6, -75594.23, -0.055716526, 0.11486709, -765158.56, 262296.4, 0.0, 10.002668, 9.9992485 
2.827422e+3, 2.0514809e+2, -705034.56, -1138306.0, -171036.34, -0.07324646, 0.057830818, -645655.0, 283893.5, 0.0, 10.003382, 9.997513 
2.8270265e+3, 2.151363e+2, -680720.5, -1031785.8, -134496.02, -0.13079171, -0.18110928, -635117.7, 196542.28, 0.0, 10.002718, 9.997864 
2.8266332e+3, 2.2512685e+2, -637191.7, -950192.75, -43034.22, -0.14180173, -0.15568483, -631382.8, 102369.34, 0.0, 10.002245, 9.998015 
2.8262407e+3, 2.35119e+2, -597929.75, -845622.1, 24484.59, -0.0675137, -0.036405105, -595532.6, 40299.31, 0.0, 10.001715, 9.998302 
2.825849e+3, 2.4511074e+2, -576587.44, -695969.1, 138400.02, -0.07290822, 0.04756097, -485554.8, 52359.094, 0.0, 10.000769, 9.999131 
2.8254578e+3, 2.5510156e+2, -637994.56, -639998.1, 139923.0, -0.15500231, -0.06714972, -499069.75, -59067.195, 0.0, 9.999534, 9.999424 
2.8250667e+3, 2.6509297e+2, -530854.6, -564095.75, 28067.453, -0.0783425, -0.07619138, -514855.8, -172768.86, 0.0, 9.999712, 9.999187 
2.824675e+3, 2.7508435e+2, -179956.63, -303137.5, 3135.92, 0.14646068, -0.14655365, -179876.84, 64296.156, 0.0, 10.001307, 9.999526 
2.8242832e+3, 2.850779e+2, -105224.61, -81683.15, 122532.3, 0.22839852, -0.028223084, 29642.479, 175879.81, 0.0, 10.000482, 10.000815 
2.8238916e+3, 2.950731e+2, -387264.4, -130083.46, 87750.96, 0.14210397, 0.118631616, -102995.61, -54711.047, 0.0, 9.997702, 10.001136 
2.8234968e+3, 3.0506754e+2, -433931.94, -175952.77, 78766.98, -0.20025975, 0.25891283, -153804.83, -153804.83, 0.0, 9.997008, 10.000501 
2.823102e+3, 3.1506094e+2, -162750.67, 34545.094, 50571.477, -0.5650946, 0.1972521, 46752.43, 46752.43, 0.0, 9.998247, 10.001026 
2.8227165e+3, 3.2505023e+2, 34453.55, 233358.66, -133165.11, 0.30917245, -0.16480137, 300110.06, 300110.06, 0.0, 9.999183, 10.001893 
2.8401637e+3, 1.3558841e+2, -1372630.1, -1608347.6, 39022.15, 0.081239596, -0.4969833, -1366338.1, 244883.22, 0.000026717651, 10.002547, 9.999325 
2.839771e+3, 1.4558497e+2, -1382266.6, -1651090.3, -27621.93, 0.1632869, -0.008605261, -1379457.8, 133806.13, 0.000008259606, 10.002214, 9.99861 
2.8393763e+3, 1.5557756e+2, -1257355.9, -1431641.4, -66871.08, 0.08176432, 0.0054277675, -1234655.1, 180691.86, 0.0000013335809, 10.002009, 9.9994955 
2.8389844e+3, 1.655712e+2, -1225603.3, -1256451.3, -5469.113, 0.1037553, 0.12790446, -1224662.4, 92750.43, 0.000000073245815, 10.0010605, 10.000509 
2.8385937e+3, 1.7556462e+2, -1261535.9, -1209702.8, -6196.498, 0.13044408, 0.09969936, -1208972.4, 10502.961, 0.0, 10.000115, 10.000604 
2.8382024e+3, 1.8555734e+2, -1294820.9, -1431347.4, 10911.837, 0.050798036, 0.2025292, -1293954.3, -172405.88, 0.0, 10.000296, 9.998327 
2.83781e+3, 1.9554883e+2, -953092.0, -1191745.0, -17469.861, -0.109466136, 0.17951065, -951820.0, 71816.37, 0.0, 10.001897, 9.998508 
2.837417e+3, 2.055396e+2, -817624.3, -1157575.1, -174886.8, -0.08107827, 0.21400867, -743720.6, 182005.98, 0.0, 10.002507, 9.997786 
2.8370234e+3, 2.1552907e+2, -767562.6, -1037791.6, -159225.2, 0.06646498, 0.045505174, -693850.4, 133975.86, 0.0, 10.002044, 9.998118 
2.8366292e+3, 2.2552109e+2, -660047.7, -771845.2, -41989.652, 0.0540826, 0.12749045, -646033.6, 83866.305, 0.0, 10.001353, 9.999656 
2.8362346e+3, 2.3551454e+2, -628812.25, -693682.1, -1541.1045, -0.07769599, 0.18318291, -628775.7, 3183.8015, 0.0, 10.000844, 9.999761 
2.835842e+3, 2.455062e+2, -704560.3, -773215.1, 98033.13, -0.077707306, 0.20646897, -635018.25, -100979.34, 0.0, 10.000052, 9.998936 
2.835452e+3, 2.5549573e+2, -750561.1, -707239.6, 76654.125, 0.06213187, -0.062786184, -649244.56, -213104.14, 0.0, 9.998929, 9.999232 
2.8350604e+3, 2.6548713e+2, -652514.44, -619002.7, 83116.92, 0.09969419, -0.05291472, -550969.56, -212745.22, 0.0, 9.999011, 9.999091 
2.834668e+3, 2.7547923e+2, -293510.38, -363144.78, 56501.914, 0.059521567, -0.09393074, -261959.64, -21657.643, 0.0, 10.000677, 9.999365 
2.8342748e+3, 2.8547204e+2, -270365.97, -220633.34, 12585.249, 0.101809666, -0.0012559767, -217629.92, -75256.875, 0.0, 9.999729, 10.000179 
2.833882e+3, 2.9546484e+2, -595378.06, -301166.03, -14083.542, 0.19314831, -0.074336864, -300493.4, -256048.47, 0.0, 9.996691, 10.00042 
2.833488e+3, 3.0545914e+2, -648614.2, -302631.03, 118241.68, 0.0012428904, 0.10990282, -266082.2, -266082.2, 0.0, 9.995828, 10.00013 
2.8330964e+3, 3.1545407e+2, -449165.84, -157571.53, 76170.14, -0.15964797, 0.20100817, -138873.39, -138873.39, 0.0, 9.996707, 10.000378 
2.8327072e+3, 3.254443e+2, -190925.9, 130517.84, -66600.586, 0.17043322, -0.08419094, 143770.56, 143770.56, 0.0, 9.997922, 10.001649 
2.8501612e+3, 1.3598476e+2, -1575584.1, -1684527.3, 47777.473, 0.29287037, -0.3201006, -1557599.9, 49737.6, 0.000013313982, 10.001086, 9.999516 
2.8497615e+3, 1.4598149e+2, -1416621.3, -1769305.9, 62199.016, -0.3441567, 0.24538778, -1405973.4, 103405.16, 0.0000038169696, 10.0024395, 9.997684 
2.849373e+3, 1.5597068e+2, -1031523.7, -1465871.0, 69066.73, 0.08330013, 0.04202925, -1020805.7, 390687.56, 0.0000005153316, 10.004178, 9.998224 
2.848982e+3, 1.6596234e+2, -874926.56, -1175348.8, -24601.08, 0.23852824, 0.07596243, -872925.3, 440653.28, 0.00000002542409, 10.003854, 9.999704 
2.8485882e+3, 1.7595503e+2, -1051609.3, -1209785.4, -28320.535, 0.13406743, 0.07094571, -1046691.5, 168958.5, 0.0, 10.001996, 9.999688 
2.8481954e+3, 1.8594809e+2, -1117606.0, -1260204.0, 22000.957, -0.026015282, 0.21157339, -1114288.8, 3432.2883, 0.0, 10.001117, 9.999105 
2.8478035e+3, 1.9594072e+2, -1078142.0, -1195340.6, 68002.5, -0.19330381, 0.26301515, -1046973.75, -27175.3, 0.0, 10.000735, 9.999056 
2.8474107e+3, 2.0593189e+2, -971186.2, -1139811.0, -94406.61, -0.15983124, 0.27317694, -928923.75, -7038.64, 0.0, 10.001013, 9.998629 
2.8470173e+3, 2.159215e+2, -761364.94, -956820.2, -47114.11, 0.0056908154, 0.07896976, -750600.94, 73382.375, 0.0, 10.001665, 9.998877 
2.8466237e+3, 2.2591385e+2, -556227.3, -612751.3, -8407.3955, 0.05416535, 0.10597149, -555003.3, 171048.86, 0.0, 10.001549, 10.000658 
2.8462285e+3, 2.3590751e+2, -577746.9, -593752.25, 13591.543, -0.02924152, 0.1380861, -569977.0, 58129.0, 0.0, 10.000764, 10.000519 
2.845836e+3, 2.4589919e+2, -586768.56, -736383.4, 64756.67, -0.0091222515, 0.12774287, -562633.7, -32447.338, 0.0, 10.000841, 9.998846 
2.8454453e+3, 2.558889e+2, -383671.6, -561380.06, 34059.453, 0.108090654, -0.058808975, -377367.44, 54922.414, 0.0, 10.001446, 9.999077 
2.845053e+3, 2.658809e+2, -343066.1, -380740.4, 39066.875, 0.121684015, -0.03859353, -318532.06, 15836.414, 0.0, 10.000649, 9.999983 
2.8446603e+3, 2.7587414e+2, -442424.66, -366526.2, 49759.58, 0.018807119, 0.012315627, -341896.2, -105462.71, 0.0, 9.9992485, 10.000084 
2.8442663e+3, 2.8586665e+2, -332488.94, -284200.34, -37973.594, 0.038039368, 0.03991508, -263345.3, -124837.21, 0.0, 9.999333, 9.999974 
2.843872e+3, 2.9585811e+2, -128737.11, -122168.36, -76363.984, 0.1443218, -0.08703203, -49018.152, -8424.035, 0.0, 10.000001, 10.000089 
2.8434798e+3, 3.058518e+2, -75667.266, -7100.591, 127874.62, 0.13571467, 0.026406951, 91006.65, 91006.65, 0.0, 9.99952, 10.000449 
2.843091e+3, 3.158471e+2, -174265.16, -40331.19, 101778.836, 0.24778223, 0.1905318, 14535.765, 14535.765, 0.0, 9.998499, 10.000408 
2.842696e+3, 3.258393e+2, -73551.33, 79452.5, -58911.55, -0.014493593, 0.1650161, 99506.86, 99506.86, 0.0, 9.998877, 10.000981 
2.8601566e+3, 1.3638091e+2, -1460975.3, -1648201.3, -60404.844, 0.450423, -0.110259235, -1443178.5, 160279.64, 0.0000059672334, 10.00192, 9.999369 
2.859753e+3, 1.4637722e+2, -1367026.0, -1816122.5, -18155.506, -0.66771185, 0.46487975, -1366293.3, 139208.2, 0.0000015122073, 10.003098, 9.997037 
2.8593704e+3, 1.5636355e+2, -1189902.3, -1648169.9, 363.62103, 0.17033395, 0.040693637, -1189902.0, 217738.86, 0.0000000966577, 10.003537, 9.997279 
2.8589794e+3, 1.663534e+2, -1092699.4, -1413643.1, -126123.375, 0.40150043, -0.0039495765, -1049067.5, 260676.33, 0.00000000026919006, 10.002924, 9.998533 
2.8585827e+3, 1.763452e+2, -1207689.3, -1402120.3, -124256.58, 0.16282128, 0.011193108, -1147137.4, 64689.547, 0.0, 10.001423, 9.998652 
2.8581885e+3, 1.8633904e+2, -1114346.9, -1127554.4, 14912.724, -0.053063508, 0.21797052, -1104641.1, 9249.009, 0.0, 10.0006695, 10.000217 
2.8577965e+3, 1.9633348e+2, -1106694.0, -1107320.6, 24517.266, -0.18598954, 0.33900717, -1082488.1, -66539.94, 0.0, 10.0002, 9.999898 
2.8574038e+3, 2.0632504e+2, -1012668.4, -1093816.9, -57711.57, -0.16135544, 0.32409358, -982695.5, -64665.56, 0.0, 10.000461, 9.999215 
2.8570104e+3, 2.1631409e+2, -865851.9, -971106.6, -43964.793, -0.055204764, -0.0009845496, -849904.1, -29770.77, 0.0, 10.000786, 9.999231 
2.856617e+3, 2.263058e+2, -700184.56, -674624.56, -31994.81, 0.055175137, -0.052333992, -652951.75, 69255.195, 0.0, 10.0006075, 10.000635 
2.8562233e+3, 2.3629873e+2, -735940.4, -701275.4, -32340.115, 0.16304716, -0.13071938, -681915.94, -57649.4, 0.0, 9.99995, 10.000107 
2.8558302e+3, 2.4629074e+2, -766530.9, -883822.06, 95883.46, 0.12819415, -0.042091653, -712780.1, -186433.06, 0.0, 10.000056, 9.998097 
2.8554383e+3, 2.562814e+2, -588212.75, -744219.4, 44688.555, 0.03070678, -0.107083894, -576318.44, -147870.33, 0.0, 10.000548, 9.998169 
2.8550455e+3, 2.6627466e+2, -395561.7, -317457.47, -19120.627, 0.04049359, 0.044755064, -313027.8, 17488.39, 0.0, 10.000005, 10.000684 
2.8546524e+3, 2.762689e+2, -549584.9, -385345.5, -5230.5215, 0.10370517, 0.08611997, -385179.1, -152608.56, 0.0, 9.9984255, 10.00034 
2.8542578e+3, 2.8626168e+2, -520307.47, -447027.3, -7968.69, 0.03365097, 0.18617131, -446170.78, -311527.84, 0.0, 9.998534, 9.999169 
2.8538623e+3, 2.9625294e+2, -287293.8, -295424.38, -44898.766, -0.1127595, 0.07873363, -246276.64, -209543.2, 0.0, 9.999463, 9.999112 
2.8534704e+3, 3.062453e+2, -118789.77, 26419.541, 64147.863, -0.03307776, 0.09115118, 50698.24, 50698.24, 0.0, 9.999171, 10.000761 
2.8530827e+3, 3.1623888e+2, -403814.38, -177922.02, 66199.32, 0.3425834, 0.0039819134, -159951.47, -159951.47, 0.0, 9.997225, 9.999997 
2.8526846e+3, 3.262339e+2, -277692.3, -17709.404, 54871.824, -0.33329633, 0.25840655, -6602.6807, -6602.6807, 0.0, 9.997733, 10.000758 
2.8701487e+3, 1.3676757e+2, -1477968.9, -1675750.3, -152198.52, 0.10680086, -0.14021467, -1395355.4, 204318.55, 0.0000021514043, 10.001898, 9.99919 
2.869752e+3, 1.4676267e+2, -1238491.8, -1573557.9, -181462.66, -0.38636467, 0.21718757, -1159051.0, 342673.56, 0.00000043033984, 10.00321, 9.998634 
2.8693634e+3, 1.5675183e+2, -1324184.4, -1598603.3, -97674.29, -0.10105295, -0.07154302, -1292969.8, 110860.91, 0.000000019645139, 10.0021105, 9.998314 
2.8689706e+3, 1.6674314e+2, -1292198.5, -1489072.1, -231509.28, 0.052219678, -0.032296505, -1139067.5, 166853.61, 0.0, 10.001463, 9.99872 
2.8685743e+3, 1.7673552e+2, -1302279.5, -1426790.3, -146149.9, -0.06285291, 0.044751875, -1205677.9, 2325.9253, 0.0, 10.000646, 9.998876 
2.8681815e+3, 1.8672939e+2, -1063299.4, -956398.5, -10629.444, -0.114768036, 0.15770377, -955351.8, 154712.83, 0.0, 10.000312, 10.001596 
2.8677905e+3, 1.9672343e+2, -1079365.4, -981461.3, 53632.965, -0.0953057, 0.13589625, -957799.3, 54321.195, 0.0, 9.999789, 10.001016 
2.8673974e+3, 2.0671672e+2, -985093.7, -933335.2, -20679.184, -0.103810206, 0.17391434, -926087.94, -11902.314, 0.0, 10.00002, 10.000516 
2.867003e+3, 2.167088e+2, -851527.06, -864122.06, 29298.285, -0.14802705, 0.06975965, -827857.1, -11594.193, 0.0, 10.0004015, 10.000163 
2.8666094e+3, 2.2670028e+2, -736483.5, -734476.25, -23455.78, -0.028609054, -0.024663942, -712002.6, 6338.7686, 0.0, 10.000462, 10.000321 
2.8662163e+3, 2.3669153e+2, -686430.0, -693490.94, -24495.12, 0.1634615, -0.19888723, -665212.25, -44792.754, 0.0, 10.000257, 10.000051 
2.8658232e+3, 2.466845e+2, -647977.0, -676441.6, 158118.84, 0.12260522, -0.09751521, -503451.25, 19038.908, 0.0, 10.000114, 9.999536 
2.8654304e+3, 2.5667754e+2, -572026.6, -625504.5, 223902.97, -0.05981674, 0.0029068848, -373271.63, 51294.484, 0.0, 10.0000515, 9.999273 
2.8650376e+3, 2.666705e+2, -375463.03, -356994.4, 112035.805, -0.039530575, 0.10995361, -253813.02, 72825.28, 0.0, 10.0002365, 10.00034 
2.8646442e+3, 2.7666345e+2, -264235.7, -289822.8, 25854.137, 0.08303173, 0.1104785, -248182.9, -19474.98, 0.0, 10.000435, 10.000062 
2.8642496e+3, 2.8665626e+2, -313867.66, -328666.44, 47367.75, 0.008878328, 0.20928812, -273324.84, -142543.19, 0.0, 9.999809, 9.999376 
2.8638533e+3, 2.9664832e+2, -299826.84, -287035.63, 64417.785, -0.21711455, 0.21736494, -228696.73, -195832.36, 0.0, 9.999205, 9.999319 
2.8634614e+3, 3.0664012e+2, -79647.805, 56132.523, 123347.67, -0.12617223, 0.15900056, 129039.1, 129039.1, 0.0, 9.999264, 10.000975 
2.8630733e+3, 3.1663242e+2, -27653.943, 44272.047, 66817.836, 0.29304343, -0.016771818, 84190.27, 84190.27, 0.0, 9.999465, 10.000507 
2.8626743e+3, 3.2662895e+2, -146582.2, 45591.06, 83493.805, -0.4648222, 0.38477668, 76798.8, 76798.8, 0.0, 9.9984255, 10.000929 
2.8801423e+3, 1.371531e+2, -1374469.3, -1607044.1, 62087.445, -0.027379716, -0.2688693, -1358932.5, 236969.02, 0.00000033823923, 10.002453, 9.999409 
2.879752e+3, 1.4714815e+2, -1131535.9, -1317243.8, -130980.945, 0.023023749, -0.011958665, -1063835.0, 434112.47, 0.000000039050374, 10.003053, 10.000477 
2.8793558e+3, 1.5714012e+2, -1327082.0, -1452017.8, -92417.37, -0.30674094, -0.16774683, -1278000.8, 122019.57, 0.0000000006124831, 10.001439, 9.999663 
2.878961e+3, 1.6713326e+2, -1380758.5, -1477304.1, -162634.3, -0.28034738, -0.021952383, -1259384.1, 42711.04, 0.0, 10.000639, 9.999163 
2.8785658e+3, 1.771265e+2, -1373424.8, -1407534.6, -96034.555, -0.21028025, 0.09085811, -1292942.5, -88768.06, 0.0, 9.999918, 9.999348 
2.8781742e+3, 1.8711983e+2, -1102272.6, -832319.75, 51646.293, -0.08320437, 0.0613894, -822776.4, 283460.84, 0.0, 9.999534, 10.00279 
2.8777847e+3, 1.971129e+2, -1127121.6, -893556.94, 51195.133, 0.14088672, -0.18690445, -882828.3, 125467.54, 0.0, 9.999064, 10.001957 
2.877391e+3, 2.0710874e+2, -1053764.3, -840057.7, 22631.047, 0.049925126, 0.012200456, -837687.44, 72649.766, 0.0, 9.999113, 10.001568 
2.8769955e+3, 2.1710508e+2, -1017708.7, -899535.25, 17631.822, -0.16165826, 0.22207028, -896960.6, -84582.805, 0.0, 9.999194, 10.000472 
2.8766012e+3, 2.2709638e+2, -928303.7, -895108.2, -23827.52, -0.08379781, 0.14622457, -882667.44, -168204.66, 0.0, 9.999558, 9.999621 
2.876208e+3, 2.3708546e+2, -872900.8, -838003.0, -23295.824, 0.13401693, -0.1933657, -826345.9, -209779.11, 0.0, 9.999333, 9.999484 
2.8758153e+3, 2.4708036e+2, -571070.7, -354478.88, 168910.86, 0.08440787, -0.017469922, -262128.63, 256486.58, 0.0, 9.999492, 10.002045 
2.8754225e+3, 2.57077e+2, -629978.6, -511185.4, 210402.77, -0.08125623, 0.1876326, -351956.1, 68691.38, 0.0, 9.999148, 10.000489 
2.8750294e+3, 2.6706862e+2, -632161.9, -689279.4, 121566.36, -0.111818135, 0.2294359, -535844.75, -213110.78, 0.0, 9.999512, 9.998355 
2.8746355e+3, 2.770577e+2, -578392.6, -656103.0, 25264.13, -0.05061709, 0.013669321, -570901.3, -346054.2, 0.0, 9.999335, 9.998044 
2.8742412e+3, 2.870505e+2, -354440.4, -252881.48, 17716.246, -0.038784828, 0.14610898, -249879.73, -122957.68, 0.0, 9.999195, 10.000161 
2.8738463e+3, 2.970442e+2, -481829.47, -381068.8, 60385.086, -0.07181105, 0.21741466, -352807.34, -323820.22, 0.0, 9.998077, 9.999202 
2.8734535e+3, 3.0703613e+2, -288087.34, -138587.44, 131962.75, -0.079950646, 0.23862189, -61674.203, -61674.203, 0.0, 9.998404, 10.000012 
2.873063e+3, 3.170275e+2, -359294.2, -266302.06, 68082.25, 0.061452806, 0.05815236, -230353.73, -230353.73, 0.0, 9.997988, 9.999067 
2.8726667e+3, 3.2702366e+2, -395061.7, 83168.72, 67638.39, -0.2928838, 0.30545652, 92551.07, 92551.07, 0.0, 9.996401, 10.001996 
2.8901368e+3, 1.3754492e+2, -1409803.1, -1534924.3, 192782.11, -0.16472262, -0.06740572, -1269684.8, 322386.38, 0.0000000028010363, 10.001863, 10.000193 
2.889748e+3, 1.4754182e+2, -1152730.3, -1144708.9, -128178.266, 0.09986212, 0.2453357, -1020478.56, 473614.94, 0.0, 10.002149, 10.002077 
2.889351e+3, 1.5753253e+2, -1432094.5, -1328225.8, -34039.383, -0.15135796, -0.1843878, -1318064.6, 78111.54, 0.0, 9.999963, 10.001221 
2.8889546e+3, 1.6752715e+2, -1426911.4, -1304982.3, -52495.656, -0.16485101, -0.052944504, -1285495.1, 12738.401, 0.0, 9.999448, 10.000928 
2.8885582e+3, 1.7752272e+2, -1402120.5, -1281040.0, 90938.69, -0.18058126, 0.15005702, -1232333.0, -32046.12, 0.0, 9.999068, 10.000639 
2.8881663e+3, 1.8751583e+2, -1212291.6, -935801.2, 185700.81, -0.051365, 0.08545013, -842537.1, 259815.0, 0.0, 9.998924, 10.002392 
2.8877765e+3, 1.9750795e+2, -1228329.6, -980332.2, 152323.61, 0.13548306, -0.18024288, -907917.7, 96504.2, 0.0, 9.998435, 10.001697 
2.8873822e+3, 2.0750315e+2, -1228117.9, -937844.44, 49476.273, 0.06622193, -0.027540233, -929643.06, -23172.537, 0.0, 9.997907, 10.001494 
2.8869864e+3, 2.1749924e+2, -1246376.8, -978622.06, 51312.668, -0.14689764, 0.17750646, -969125.3, -160610.95, 0.0, 9.997381, 10.000833 
2.886593e+3, 2.2749168e+2, -960541.75, -827709.25, 61047.746, -0.09329993, 0.14742042, -803914.94, -93325.49, 0.0, 9.998894, 10.000429 
2.8862005e+3, 2.3748232e+2, -580461.06, -623530.2, 142272.22, 0.044978667, -0.07844027, -458102.9, 154577.45, 0.0, 10.000879, 10.00025 
2.8858078e+3, 2.474767e+2, -402050.94, -352963.75, 163492.13, 0.020762965, 0.053577926, -212183.23, 302551.53, 0.0, 10.000884, 10.001436 
2.8854147e+3, 2.574724e+2, -489928.16, -453753.38, 25858.975, -0.10241437, 0.23420474, -440283.8, -23507.633, 0.0, 9.999998, 10.000533 
2.8850213e+3, 2.6746392e+2, -620614.44, -630817.7, -9208.157, -0.10983488, 0.20841686, -615189.06, -296326.8, 0.0, 9.999292, 9.998886 
2.8846273e+3, 2.774532e+2, -579380.2, -584289.4, 70474.13, -0.0892156, 0.006176934, -511317.9, -290345.3, 0.0, 9.998894, 9.998779 
2.8842327e+3, 2.874465e+2, -339514.66, -196526.7, 91728.78, -0.057014897, 0.124406494, -151721.25, -28679.676, 0.0, 9.998922, 10.000733 
2.883838e+3, 2.9744107e+2, -299912.63, -247829.61, 136467.72, -0.007269113, 0.26522496, -134940.94, -109843.914, 0.0, 9.998977, 9.999729 
2.883446e+3, 3.0743197e+2, -97840.555, -194797.25, 237611.4, -0.034803282, 0.23856668, 96187.445, 96187.445, 0.0, 10.0003, 9.998762 
2.8830558e+3, 3.1742153e+2, 185089.36, -85983.13, 110488.34, 0.033755355, 0.06281748, 224418.05, 224418.05, 0.0, 10.001969, 9.998465 
2.8826615e+3, 3.2741967e+2, 680282.94, 546388.4, -154747.77, -0.061609015, 0.6229151, 781944.1, 781944.1, 0.0, 10.003694, 10.001885 
2.9001322e+3, 1.3793844e+2, -1156216.1, -1348770.6, 337463.9, -0.16484103, 0.13093816, -901564.4, 686658.2, 0.00000000011876347, 10.00324, 10.000866 
2.899743e+3, 1.4793652e+2, -1222404.5, -1038998.8, -102235.234, 0.17898722, 0.47114316, -993364.7, 496864.94, 0.0, 10.001043, 10.003369 
2.8993464e+3, 1.5792589e+2, -1325594.3, -1121296.3, -74974.42, 0.17705826, -0.21844341, -1096734.6, 295589.63, 0.0, 10.000006, 10.002641 
2.8989494e+3, 1.6792226e+2, -1281110.0, -1022086.25, -64977.973, 0.13069974, -0.08125702, -1006700.0, 287660.7, 0.0, 9.999618, 10.002753 
2.8985515e+3, 1.7792031e+2, -1349275.6, -1146137.6, 32606.229, 0.013994246, 0.19127016, -1141032.3, 55351.984, 0.0, 9.999007, 10.001589 
2.8981584e+3, 1.8791369e+2, -1253505.3, -1071388.4, 151897.88, 0.034617994, 0.17866832, -985346.25, 113102.336, 0.0, 9.999147, 10.00133 
2.8977674e+3, 1.9790527e+2, -1241203.8, -1105251.9, 101499.94, 0.1633102, -0.06173314, -1051068.3, -50539.797, 0.0, 9.998897, 10.000574 
2.897373e+3, 2.0789862e+2, -1201027.8, -993219.1, 26357.068, 0.10473516, -0.021068443, -989928.25, -87332.46, 0.0, 9.998437, 10.000814 
2.8969777e+3, 2.178924e+2, -1289558.8, -1033692.56, 45057.043, 0.004241783, -0.004770145, -1025990.06, -221329.22, 0.0, 9.997307, 10.000458 
2.896585e+3, 2.278871e+2, -905800.5, -616533.25, 136126.05, -0.023668181, 0.10120456, -562548.7, 144164.89, 0.0, 9.9986, 10.001958 
2.896193e+3, 2.3788139e+2, -753452.25, -723062.6, 153315.53, -0.0014500906, 0.085832536, -584190.75, 24578.516, 0.0, 9.999853, 10.000032 
2.8958002e+3, 2.4787314e+2, -730065.06, -827966.06, 120599.78, -0.022595424, 0.15116891, -648860.06, -138006.0, 0.0, 10.000159, 9.998418 
2.8954074e+3, 2.5786406e+2, -812702.7, -820339.06, -13297.487, -0.058581088, 0.10507082, -802686.1, -389738.16, 0.0, 9.99885, 9.998493 
2.8950137e+3, 2.6785687e+2, -531279.75, -289494.88, -14688.588, -0.032694854, 0.121468216, -288605.78, 26412.057, 0.0, 9.998716, 10.001457 
2.8946194e+3, 2.7784988e+2, -604852.4, -418266.28, 64047.695, 0.0065781716, 0.00813084, -398397.06, -181312.08, 0.0, 9.998048, 10.000308 
2.8942236e+3, 2.878444e+2, -409954.66, -169040.5, 84324.766, -0.09137554, 0.16701776, -142458.22, -23319.17, 0.0, 9.99834, 10.001151 
2.8938276e+3, 2.9783887e+2, -503076.97, -414164.0, 172068.19, -0.19921476, 0.2604975, -280902.06, -259707.84, 0.0, 9.99804, 9.998987 
2.8934357e+3, 3.0783015e+2, -124657.66, -340937.47, 332407.66, -0.3564539, 0.37321448, 116758.0, 116758.0, 0.0, 10.000906, 9.997284 
2.8930458e+3, 3.1782046e+2, -92521.9, -766822.5, 242653.86, -0.48822963, 0.44925657, -14279.348, -14279.348, 0.0, 10.002659, 9.993323 
2.892658e+3, 3.2780886e+2, -60362.51, -522028.4, -166174.78, -0.21242829, 0.5641123, -6769.887, -6769.887, 0.0, 10.002136, 9.99495 
2.91013e+3, 1.3833441e+2, -1122818.5, -1159365.6, -74356.766, -0.06782136, 0.14229587, -1064522.8, 519819.88, 0.0000000000007792345, 10.002742, 10.00242 
2.9097337e+3, 1.4833122e+2, -1532473.3, -1269701.6, -7447.3755, -0.010380316, 0.36456928, -1269490.8, 216872.28, 0.0, 9.999259, 10.002654 
2.9093385e+3, 1.5832193e+2, -1387777.8, -1223356.3, -23582.4, 0.062419847, -0.111723125, -1220040.8, 168408.19, 0.0, 9.999867, 10.002027 
2.9089412e+3, 1.6831729e+2, -1247836.8, -1003511.3, -114047.99, 0.06468906, -0.058962353, -958549.3, 331943.66, 0.0, 9.999821, 10.002782 
2.908543e+3, 1.7831382e+2, -1319472.1, -1139242.6, -29734.645, -0.07419321, 0.059064213, -1134463.6, 58063.523, 0.0, 9.999189, 10.001567 
2.9081503e+3, 1.8830796e+2, -1073960.6, -1011262.6, 96633.56, -0.044777725, 0.12219089, -941020.25, 153566.11, 0.0, 10.000427, 10.00115 
2.9077598e+3, 1.9830114e+2, -860532.44, -931374.9, 71585.48, 0.033611305, 0.063624054, -816084.1, 180570.81, 0.0, 10.001473, 10.000551 
2.907366e+3, 2.0829402e+2, -734737.6, -775563.94, -41903.344, 0.07139224, 0.051281586, -708539.75, 190185.25, 0.0, 10.00157, 10.000837 
2.90697e+3, 2.1828675e+2, -746441.06, -771418.44, 26813.719, 0.028004361, -0.019475352, -729350.3, 71446.44, 0.0, 10.000926, 10.000547 
2.9065767e+3, 2.282817e+2, -702546.75, -596870.44, 42626.746, -0.07834221, 0.142656, -581819.7, 121029.086, 0.0, 10.000254, 10.001339 
2.9061836e+3, 2.382768e+2, -770294.2, -715860.1, -20132.934, -0.20677482, 0.2683007, -709223.0, -104323.52, 0.0, 9.999532, 10.000282 
2.9057923e+3, 2.482684e+2, -671022.6, -708568.8, 56660.77, -0.11777414, 0.22904585, -630105.94, -123121.414, 0.0, 10.000051, 9.99933 
2.9054007e+3, 2.5825885e+2, -439505.13, -525337.56, 135493.13, -0.0063398923, 0.08310595, -340293.97, 68787.38, 0.0, 10.000745, 9.999647 
2.9050064e+3, 2.6825258e+2, -295077.63, -131294.17, 70345.4, 0.03932441, 0.12687786, -105228.83, 205914.44, 0.0, 9.999982, 10.0020075 
2.904611e+3, 2.7824736e+2, -418846.94, -218975.67, 11251.021, 0.0359753, 0.14952433, -218344.33, -5150.538, 0.0, 9.998716, 10.001391 
2.904214e+3, 2.882414e+2, -311101.47, -96599.445, 25706.145, -0.16170041, 0.19525753, -93561.81, 21689.178, 0.0, 9.998846, 10.001429 
2.9038173e+3, 2.9823568e+2, -447427.88, -309237.78, 38758.895, -0.31337106, 0.26285592, -299109.25, -281801.9, 0.0, 9.997889, 9.999816 
2.920126e+3, 1.387307e+2, -1393062.0, -1172844.0, -424202.2, 0.10829746, 0.06852079, -844693.4, 735764.44, 0.0, 10.000398, 10.003419 
2.9197243e+3, 1.4872675e+2, -1487410.5, -1371316.5, 55131.797, -0.091074176, 0.25587994, -1349307.4, 133180.97, 0.0, 10.000119, 10.00151 
2.9193297e+3, 1.5871897e+2, -1399016.3, -1337942.4, 1167.9763, -0.0065371213, 0.049039237, -1337920.0, 46644.453, 0.0, 10.000257, 10.001048 
2.9189327e+3, 1.6871238e+2, -1213458.9, -1061347.9, -106591.766, -0.009253756, -0.022133403, -1006459.75, 280166.25, 0.0, 10.000332, 10.002178 
2.9185343e+3, 1.7870602e+2, -1278590.4, -1173824.8, -14652.65, -0.093577705, -0.1296964, -1171814.0, 16870.938, 0.0, 9.999715, 10.0011 
2.9181427e+3, 1.8870133e+2, -1087271.1, -998252.8, 157920.4, -0.09764141, 0.05049204, -878689.06, 212046.36, 0.0, 10.000355, 10.001223 
2.9177532e+3, 1.986964e+2, -1000268.5, -1029873.8, 76183.914, 0.0074383053, 0.17310885, -937462.5, 55326.61, 0.0, 10.000665, 10.000275 
2.9173595e+3, 2.0868936e+2, -818654.56, -788625.3, -52414.402, 0.07491342, 0.16314346, -749117.4, 145738.5, 0.0, 10.000961, 10.001019 
2.916964e+3, 2.1868163e+2, -944253.7, -963334.06, -10440.49, 0.09417919, 0.03144037, -939651.06, -142722.98, 0.0, 10.000064, 9.999644 
2.9165682e+3, 2.2867543e+2, -933229.0, -918375.75, 26321.309, -0.17076676, 0.2330112, -898453.44, -199459.02, 0.0, 9.999638, 9.9994 
2.9161727e+3, 2.3866954e+2, -972637.4, -846029.1, -14957.583, -0.43504813, 0.4016339, -844286.0, -243227.02, 0.0, 9.998392, 9.999912 
2.9157838e+3, 2.4866313e+2, -538260.2, -229046.34, 102417.2, -0.20506722, 0.3219992, -198200.89, 304918.4, 0.0, 9.99928, 10.002953 
2.915395e+3, 2.5865632e+2, -520918.8, -396820.78, 126190.586, 0.12222539, 0.09422146, -318249.22, 86933.04, 0.0, 9.999581, 10.001072 
2.914999e+3, 2.6865098e+2, -511918.56, -372195.03, 11746.215, 0.10720962, 0.2700069, -371214.44, -63973.945, 0.0, 9.999292, 10.000569 
2.914601e+3, 2.7864563e+2, -696267.6, -501389.72, -6624.9883, -0.031073952, 0.39500558, -501164.75, -291865.03, 0.0, 9.9976015, 9.999945 
2.914203e+3, 2.8863722e+2, -420428.56, -184298.47, 37000.68, -0.36086425, 0.2524988, -178636.38, -67253.06, 0.0, 9.998385, 10.000974 
2.9138076e+3, 2.986307e+2, -688531.44, -369101.7, -224120.45, -0.279746, 0.2017679, -253609.69, -240160.63, 0.0, 9.996169, 10.000199 
2.9301175e+3, 1.3912886e+2, -1840266.4, -1475007.3, -263812.28, 0.107928395, 0.12602985, -1336777.9, 239775.83, 0.0, 9.997745, 10.002617 
2.929721e+3, 1.4912318e+2, -1461462.9, -1409922.1, 60604.465, 0.2362454, 0.19110882, -1369836.5, 108769.49, 0.0, 10.000477, 10.001093 
2.929322e+3, 1.5911724e+2, -1424103.8, -1425526.4, 42767.875, -0.14159948, 0.22192901, -1382041.3, -1375.0928, 0.0, 10.00037, 10.000412 
2.9289252e+3, 1.691098e+2, -1165595.6, -1125032.9, -73748.69, -0.07145128, 0.14328106, -1068827.6, 213909.05, 0.0, 10.001032, 10.001404 
2.9285282e+3, 1.7910206e+2, -1105440.4, -1144946.4, 33832.434, -0.07187428, -0.016862318, -1086016.6, 98793.07, 0.0, 10.001096, 10.000647 
2.9281366e+3, 1.8909696e+2, -1052815.0, -1018299.06, 151195.47, -0.088136055, 0.15700355, -883379.8, 203483.84, 0.0, 10.000725, 10.000915 
2.927746e+3, 1.99092e+2, -1113994.1, -1072532.4, 74646.34, -0.06960475, 0.31774777, -1015791.7, -26874.988, 0.0, 9.999779, 10.000419 
2.927352e+3, 2.0908467e+2, -889400.44, -817560.7, -58565.01, 0.007190148, 0.26335543, -784777.6, 106207.01, 0.0, 10.0004, 10.001117 
2.9269564e+3, 2.1907663e+2, -795541.1, -842935.6, -8358.084, -0.0030802072, 0.10156215, -794110.4, -1052.3033, 0.0, 10.000737, 10.000192 
2.926561e+3, 2.2906874e+2, -792794.6, -797972.9, 88988.93, -0.17896608, 0.08371673, -706357.2, -11222.404, 0.0, 10.000212, 10.000042 
2.9261652e+3, 2.390613e+2, -766046.7, -629719.7, 185232.39, -0.4057555, 0.072336525, -500507.13, 96702.13, 0.0, 9.999117, 10.001128 
2.925775e+3, 2.4905674e+2, -659544.6, -212066.27, 193539.61, -0.18565589, 0.10043211, -139973.06, 359281.03, 0.0, 9.997987, 10.003768 
2.925386e+3, 2.5905246e+2, -794775.94, -408954.84, 59024.555, 0.10795069, 0.073931105, -400127.0, 1169.0037, 0.0, 9.99701, 10.002294 
2.92499e+3, 2.690482e+2, -662152.7, -411125.2, 29165.016, 0.085370265, 0.28019783, -407781.28, -104435.51, 0.0, 9.997958, 10.001007 
2.9245916e+3, 2.790435e+2, -360354.44, -275302.97, 125663.96, -0.09833876, 0.4478152, -185164.2, 20237.996, 0.0, 9.999394, 10.000711 
2.9241925e+3, 2.8903493e+2, -233908.1, -125528.45, 209406.36, -0.5476756, 0.29394644, 36586.047, 144075.05, 0.0, 9.999565, 10.00095 
2.9237995e+3, 2.9902872e+2, -90730.13, -97169.23, -206077.13, -0.16233364, 0.34292656, 112152.586, 121707.984, 0.0, 9.999982, 10.00035 
2.9401112e+3, 1.3952613e+2, -1383140.1, -1439069.9, -40671.438, 0.3361314, 0.09927631, -1361747.1, 210911.69, 0.0, 10.001581, 10.001053 
2.9397172e+3, 1.4951977e+2, -1369387.8, -1381230.9, 57531.496, 0.5825295, 0.15526631, -1317473.9, 157248.33, 0.0, 10.001194, 10.000947 
2.9393148e+3, 1.5951559e+2, -1501876.5, -1509799.3, 22314.172, -0.12995146, 0.38383552, -1483174.9, -106408.67, 0.0, 10.000066, 9.999978 
2.938919e+3, 1.6950774e+2, -1251223.9, -1252663.4, -52483.73, -0.030086583, 0.33004194, -1199455.0, 79387.336, 0.0, 10.000883, 10.000564 
2.9385233e+3, 1.7949912e+2, -1143310.9, -1252933.0, 35196.883, 0.10262714, 0.1554992, -1132983.0, 47942.332, 0.0, 10.001272, 9.99978 
2.9381305e+3, 1.8949321e+2, -1069544.5, -1084283.4, 139289.17, -0.0028707488, 0.3096418, -937429.94, 145555.17, 0.0, 10.000884, 10.000379 
2.9377386e+3, 1.9948749e+2, -1167602.9, -1148649.8, 65597.664, -0.021944342, 0.4400395, -1091847.6, -106804.555, 0.0, 9.999701, 9.999919 
2.9373443e+3, 2.0947988e+2, -928260.2, -828401.8, -20262.828, -0.02084321, 0.3561964, -824446.8, 62666.227, 0.0, 10.000174, 10.001104 
2.9369488e+3, 2.194715e+2, -932199.8, -876533.9, -9727.655, -0.023305925, 0.15072326, -874882.94, -85694.43, 0.0, 9.999725, 10.000446 
2.9365543e+3, 2.2946179e+2, -753604.7, -542157.44, 65947.11, -0.06070298, -0.20506874, -523275.66, 167995.89, 0.0, 9.999606, 10.001992 
2.9361594e+3, 2.3945251e+2, -915240.25, -678126.7, 139923.95, -0.09183035, -0.5864522, -613286.56, -19934.201, 0.0, 9.998149, 10.001194 
2.9357666e+3, 2.4944958e+2, -868410.94, -462953.13, 148226.08, -0.07020838, -0.30215895, -414544.66, 80845.02, 0.0, 9.997389, 10.002232 
2.935374e+3, 2.5944772e+2, -1004538.4, -532909.94, 57898.74, 0.002978202, 0.011814173, -525906.06, -128487.26, 0.0, 9.99586, 10.001946 
2.9349795e+3, 2.6944464e+2, -577061.56, -115333.79, 94564.26, 0.0024932313, 0.18101037, -96717.15, 202738.7, 0.0, 9.997529, 10.003236 
2.934583e+3, 2.7944094e+2, -473186.4, -218010.11, 172993.36, -0.1185855, 0.24115561, -130643.76, 70854.555, 0.0, 9.998299, 10.001603 
2.9341823e+3, 2.8943554e+2, -282566.88, -90779.734, 218384.98, -0.7738585, 0.34571555, 51837.87, 155394.48, 0.0, 9.999176, 10.00129 
2.9337925e+3, 2.9942963e+2, -285100.84, -225937.36, -40890.797, -0.10241701, 0.4071962, -205049.94, -199426.17, 0.0, 9.99915, 9.999748 
2.9501057e+3, 1.3992223e+2, -1214017.5, -1662502.1, -203466.52, 0.09116692, 0.05527733, -1135467.4, 433306.25, 0.0, 10.004065, 9.998346 
2.949707e+3, 1.4991646e+2, -1300289.1, -1334529.0, -76871.09, 0.12355712, 0.20459501, -1238654.6, 232181.11, 0.0, 10.001629, 10.001059 
2.9493093e+3, 1.5991099e+2, -1671860.0, -1628116.9, -20807.844, 0.061715327, 0.3146541, -1619800.1, -246908.89, 0.0, 9.999026, 9.999689 
2.948914e+3, 1.6990264e+2, -1351979.6, -1372890.1, -28370.365, 0.1431106, 0.25807685, -1332199.4, -57228.086, 0.0, 10.000458, 9.999959 
2.948518e+3, 1.7989393e+2, -1064279.4, -1219301.9, 44063.17, 0.06426661, 0.13118568, -1052630.3, 124423.836, 0.0, 10.001768, 9.999797 
2.948124e+3, 1.8988638e+2, -918398.25, -983137.7, 120251.305, -0.065891095, 0.0924472, -826236.2, 252889.31, 0.0, 10.001721, 10.000701 
2.947731e+3, 1.9987935e+2, -950874.5, -991915.9, 101888.98, -0.1392671, 0.07517871, -867460.3, 113732.336, 0.0, 10.000872, 10.000457 
2.947338e+3, 2.0987353e+2, -797346.9, -737334.44, 38076.445, 0.0251427, 0.13608024, -718861.9, 164387.36, 0.0, 10.000822, 10.001483 
2.9469433e+3, 2.1986718e+2, -764987.4, -718871.06, 50409.125, 0.11254839, 0.12133468, -686496.75, 98812.766, 0.0, 10.000388, 10.001262 
2.9465476e+3, 2.2985892e+2, -645911.7, -447780.63, 54199.1, 0.02871531, -0.14376706, -433923.53, 253457.02, 0.0, 10.00007, 10.002465 
2.9461515e+3, 2.3985076e+2, -643244.3, -494778.97, 52085.867, -0.07423323, -0.4459347, -478328.53, 111122.74, 0.0, 9.999647, 10.001764 
2.9457572e+3, 2.4984734e+2, -687907.3, -453441.13, 89499.695, -0.08649301, -0.19211768, -423182.53, 68310.47, 0.0, 9.998794, 10.0017 
2.945363e+3, 2.5984454e+2, -629369.4, -336072.3, 78545.33, -0.09300669, 0.09446007, -316362.3, 77169.14, 0.0, 9.998164, 10.002253 
2.944969e+3, 2.698401e+2, -347379.22, 21438.643, 35892.473, -0.10241226, 0.089521006, 24899.143, 320479.56, 0.0, 9.998838, 10.003622 
2.9445738e+3, 2.7983597e+2, -210739.19, -8208.22, -19087.09, -0.22036284, 0.07209149, -6425.097, 191200.05, 0.0, 9.999563, 10.002493 
2.9441756e+3, 2.8983337e+2, -102771.3, 25181.754, 25710.201, -0.6545034, 0.3721851, 30154.56, 129810.15, 0.0, 10.000072, 10.00176 
2.9437867e+3, 2.998278e+2, 9162.679, -105475.77, -121265.54, 0.03920538, 0.47016877, 85973.336, 87692.664, 0.0, 10.000906, 9.999826 
2.9600984e+3, 1.4031811e+2, -1772192.9, -2096220.3, -193967.67, -0.18760625, -0.0124715865, -1681477.6, -116585.36, 0.0, 10.000949, 9.996881 
2.959697e+3, 1.5031284e+2, -1255631.6, -1323098.6, -105943.07, -0.2578198, 0.23768455, -1178181.1, 288770.0, 0.0, 10.001997, 10.000974 
2.9593042e+3, 1.6030507e+2, -1363862.1, -1520218.5, -25381.193, 0.38688028, 0.14677835, -1359845.3, 9182.415, 0.0, 10.001284, 9.999361 
2.958909e+3, 1.7029661e+2, -1199063.1, -1357010.9, 72454.42, 0.35462674, 0.120796055, -1170861.9, 100245.41, 0.0, 10.001704, 9.9994955 
2.9585123e+3, 1.802878e+2, -1065966.3, -1215489.4, 130116.24, 0.118946984, 0.016099337, -990662.7, 182526.47, 0.0, 10.001746, 9.999841 
2.9581174e+3, 1.9027855e+2, -943240.8, -923661.1, 124926.27, -0.10595555, -0.2454662, -808141.7, 267130.72, 0.0, 10.001338, 10.001245 
2.957724e+3, 2.0027003e+2, -1085407.4, -1051849.4, 81799.35, -0.117952965, -0.4577584, -985125.8, -7775.3623, 0.0, 10.000003, 10.00045 
2.9573324e+3, 2.1026668e+2, -897700.94, -726934.94, 33551.86, 0.19717611, -0.17941651, -720579.3, 158808.81, 0.0, 10.000015, 10.001881 
2.956939e+3, 2.2026344e+2, -990326.94, -850086.6, 30837.744, 0.44198912, 0.07316254, -843605.2, -62180.2, 0.0, 9.999089, 10.000934 
2.9565406e+3, 2.302584e+2, -790548.2, -560956.8, 43300.777, 0.12844352, 0.16343774, -553061.8, 130412.74, 0.0, 9.999343, 10.002002 
2.9561424e+3, 2.4025322e+2, -870560.7, -651325.2, 28309.334, -0.150837, 0.18627474, -647728.6, -62203.992, 0.0, 9.998389, 10.001294 
2.9557475e+3, 2.502481e+2, -725442.44, -428516.4, 56567.48, -0.14541715, 0.24680996, -418104.78, 69473.055, 0.0, 9.998442, 10.001999 
2.9553533e+3, 2.602425e+2, -865566.56, -589238.25, 86756.92, -0.10495495, 0.24579802, -564258.0, -174620.94, 0.0, 9.997286, 10.000895 
2.9549584e+3, 2.7023467e+2, -561148.8, -270490.8, 64149.383, -0.26633888, 0.060452364, -256962.45, 34756.793, 0.0, 9.998305, 10.001796 
2.9545638e+3, 2.8022808e+2, -457686.38, -220680.81, -15784.607, -0.42693862, -0.06532185, -219634.17, -25845.357, 0.0, 9.998445, 10.001519 
2.9541737e+3, 2.9022837e+2, -111733.42, 149845.78, 21111.93, -0.07832358, 0.4394361, 151538.77, 247326.27, 0.0, 9.999641, 10.002726 
2.953777e+3, 3.0021918e+2, -241175.94, -298982.56, -53782.637, -0.27892458, 0.09162854, -209022.13, -209022.13, 0.0, 9.999739, 9.998999 
2.9700914e+3, 1.4071862e+2, -1962443.5, -1762662.0, 42981.363, -0.066008985, 0.14501117, -1753807.4, -192839.38, 0.0, 9.997851, 10.000648 
2.9696932e+3, 1.507118e+2, -1393222.4, -1640023.5, 23446.727, -0.10711508, 0.3281525, -1391014.6, 72021.08, 0.0, 10.002133, 9.998721 
2.969296e+3, 1.6069919e+2, -942193.7, -1336477.3, 10612.761, -0.08402587, -0.07197334, -941908.25, 423250.63, 0.0, 10.004256, 9.999191 
2.968903e+3, 1.706936e+2, -811780.5, -1015102.1, 116236.83, 0.15921135, 0.080216035, -759020.06, 508190.94, 0.0, 10.003681, 10.000904 
2.968509e+3, 1.8068765e+2, -974413.56, -1179420.1, 193893.56, 0.19732727, 0.18917081, -857596.0, 311671.1, 0.0, 10.002363, 9.999807 
2.968114e+3, 1.9067864e+2, -1012381.06, -1096128.5, 120537.305, 0.15369658, 0.052619845, -926651.3, 144704.03, 0.0, 10.001352, 10.000109 
2.9677194e+3, 2.0066965e+2, -1131225.6, -1098611.5, 28676.553, 0.13251886, -0.105934106, -1081929.8, -108486.375, 0.0, 9.999663, 10.000339 
2.967324e+3, 2.1066459e+2, -1097796.5, -836672.0, -23133.447, 0.17345251, 0.012082032, -834638.4, 40857.188, 0.0, 9.998688, 10.001776 
2.9669276e+3, 2.2066034e+2, -1116128.9, -865243.9, -18743.566, 0.1531249, 0.17026462, -863851.3, -86310.945, 0.0, 9.997919, 10.001424 
2.9665306e+3, 2.306553e+2, -884558.7, -618786.75, 25764.64, -0.027223097, 0.24463399, -616312.06, 63279.676, 0.0, 9.99859, 10.0020485 
2.9661334e+3, 2.406501e+2, -686615.75, -521331.72, 36138.016, -0.2428783, 0.2744254, -513775.84, 67868.37, 0.0, 9.999323, 10.001777 
2.9657388e+3, 2.506441e+2, -404954.88, -269108.47, 50024.16, -0.24558142, 0.22705783, -252675.42, 231027.78, 0.0, 10.000469, 10.002186 
2.9653442e+3, 2.6063782e+2, -254490.8, -277008.38, 57076.74, -0.23731332, 0.1665069, -207573.02, 178192.31, 0.0, 10.001206, 10.001201 
2.9649496e+3, 2.7063105e+2, -313944.22, -242814.86, 116205.04, -0.35039628, 0.13296439, -156853.98, 130983.48, 0.0, 10.000203, 10.001178 
2.9645553e+3, 2.8062478e+2, -321972.8, -172118.4, 109621.44, -0.46177676, 0.1355988, -114264.04, 75640.164, 0.0, 9.999222, 10.001559 
2.9641682e+3, 2.9062423e+2, -65625.69, 139024.44, 57703.395, 0.13366789, 0.5860355, 154173.2, 246082.42, 0.0, 9.999945, 10.002601 
2.9637676e+3, 3.006128e+2, 27209.594, -173341.7, -64569.965, -0.5798625, 0.07379972, 46200.395, 46200.395, 0.0, 10.0014, 9.999134 
2.9800874e+3, 1.4111967e+2, -1448301.5, -1206473.0, 109496.45, 0.39462894, 0.3725502, -1164262.4, 392773.94, 0.0, 9.999977, 10.003469 
2.97969e+3, 1.5110986e+2, -1456190.3, -1887740.8, 56828.773, 0.122612774, 0.3543691, -1448832.1, 10296.685, 0.0, 10.002607, 9.996819 
2.9792884e+3, 1.6109434e+2, -1103675.6, -1405066.9, 39076.3, -0.48125276, -0.21968418, -1098691.6, 262588.0, 0.0, 10.003101, 9.999313 
2.9788968e+3, 1.7109159e+2, -939496.25, -901878.06, 27094.387, -0.012173502, 0.0927315, -887704.0, 375601.4, 0.0, 10.002117, 10.0024395 
2.9785055e+3, 1.8108872e+2, -1276231.9, -1409831.6, 88591.92, 0.42037523, 0.42111737, -1232077.9, -66743.38, 0.0, 10.000682, 9.9990635 
2.9781112e+3, 1.9108099e+2, -1208379.1, -1366477.5, 58465.44, 0.5317852, 0.56028205, -1189107.5, -121686.93, 0.0, 10.0007925, 9.998538 
2.9777154e+3, 2.0107281e+2, -1172465.1, -1194154.1, -600.43463, 0.54594934, 0.5915822, -1172448.5, -202939.17, 0.0, 9.99976, 9.999637 
2.977314e+3, 2.1106419e+2, -1073968.0, -900698.75, -39030.297, 0.07570393, 0.39718616, -892312.75, -20720.832, 0.0, 9.999112, 10.001167 
2.9769135e+3, 2.2105692e+2, -1219516.9, -942795.44, 7991.8096, -0.24407224, 0.28572252, -942564.8, -168903.94, 0.0, 9.997403, 10.001148 
2.9765195e+3, 2.310507e+2, -932738.44, -581472.6, 54520.742, -0.2062822, 0.20315638, -573204.94, 102516.805, 0.0, 9.998145, 10.002469 
2.976125e+3, 2.4104373e+2, -911254.25, -680731.9, 75006.33, -0.20917733, 0.044711247, -658475.5, -80685.625, 0.0, 9.998134, 10.001241 
2.97573e+3, 2.510371e+2, -532173.3, -314832.16, 85918.164, -0.37594405, -0.059650216, -284970.3, 194882.84, 0.0, 9.999708, 10.002184 
2.975336e+3, 2.6103157e+2, -488180.03, -421841.3, 48188.1, -0.4217426, -0.037344582, -396510.25, -14603.44, 0.0, 9.999892, 10.000824 
2.9749426e+3, 2.7102965e+2, -365526.88, -179119.9, 60499.375, -0.30410257, 0.36135575, -161206.05, 122724.71, 0.0, 9.999625, 10.001844 
2.9745483e+3, 2.8102654e+2, -648470.56, -508906.0, 110296.45, -0.30508056, 0.6600715, -448170.56, -262204.66, 0.0, 9.997949, 9.999833 
2.9741564e+3, 2.9101926e+2, -385764.16, -272466.75, 75694.12, -0.27106774, 0.6516466, -234570.88, -146533.06, 0.0, 9.999042, 10.000153 
2.973768e+3, 3.0101025e+2, -82509.445, -63872.035, 80019.805, 0.040196545, 0.5051252, 7369.847, 7369.847, 0.0, 10.000266, 10.000357 
2.99008e+3, 1.4150487e+2, -1457464.6, -1316541.0, 242528.45, 0.17688096, -0.44506055, -1134446.0, 418808.4, 0.0, 10.000475, 10.002496 
2.989686e+3, 1.5149742e+2, -1356463.0, -1508122.0, -30340.13, 0.19945425, -0.4515156, -1350618.5, 104710.49, 0.0, 10.001934, 9.999762 
2.989288e+3, 1.6149364e+2, -1519459.8, -1649055.0, 16798.56, 0.020961706, -0.029684085, -1517317.6, -159948.77, 0.0, 10.000436, 9.998931 
2.9888904e+3, 1.7148261e+2, -1559588.5, -1432117.5, -123045.38, 0.07985531, -0.36403486, -1357280.4, -97804.19, 0.0, 9.998842, 10.000395 
2.988493e+3, 1.8147367e+2, -1629617.4, -1455490.5, -45734.742, -0.023218984, -0.5376173, -1444209.1, -282645.03, 0.0, 9.997726, 10.000167 
2.9880965e+3, 1.9147056e+2, -1152873.3, -1093200.1, 95318.11, -0.27611095, -0.14624196, -1023157.94, 40443.895, 0.0, 10.000152, 10.000712 
2.9877004e+3, 2.0146678e+2, -928332.94, -989739.4, 63230.016, -0.37446743, 0.18706845, -888745.9, 76899.48, 0.0, 10.001031, 10.000421 
2.9873028e+3, 2.1145931e+2, -752379.9, -738884.5, 32625.242, -0.35241738, 0.10426555, -712316.44, 155401.33, 0.0, 10.001234, 10.00129 
2.9869053e+3, 2.2145122e+2, -702246.5, -737863.44, 90681.01, -0.34971398, -0.043368813, -627641.8, 142154.84, 0.0, 10.001022, 10.000836 
2.9865155e+3, 2.3144585e+2, -671505.9, -574448.4, 78568.055, 0.18854184, 0.065156005, -530630.06, 141223.42, 0.0, 10.000337, 10.00152 
2.9861248e+3, 2.4144158e+2, -573104.7, -467383.25, 86814.66, 0.5207366, 0.23516138, -418602.25, 155295.45, 0.0, 10.000113, 10.001788 
2.9857263e+3, 2.5143698e+2, -331458.0, -219941.84, 126423.414, -0.05246973, 0.32645687, -137526.69, 338412.63, 0.0, 10.001011, 10.002274 
2.985328e+3, 2.614316e+2, -264987.13, -331840.47, 53981.53, -0.55613995, 0.39644513, -234920.9, 143068.45, 0.0, 10.001348, 10.000809 
2.9849353e+3, 2.7142668e+2, -83276.805, -120842.16, -45034.145, -0.34559536, 0.5723813, -53265.39, 226774.33, 0.0, 10.001846, 10.001254 
2.9845425e+3, 2.8142005e+2, -4252.1763, -256165.16, -47304.73, -0.18399279, 0.59519225, 4337.8857, 186444.47, 0.0, 10.002452, 9.999501 
2.9841506e+3, 2.914007e+2, -24993.941, -240130.33, 9980.212, -0.12355991, -0.5238991, -24531.95, 59764.6, 0.0, 10.001961, 9.999151 
2.9837653e+3, 3.0139843e+2, 197012.97, 168806.69, 301007.16, 0.39133888, 0.089820705, 484247.2, 484247.2, 0.0, 10.001422, 10.00163 
3.0000705e+3, 1.41904e+2, -1528139.4, -1513077.0, 208826.97, -0.20420475, 0.18931368, -1311645.4, 237690.8, 0.0, 10.000398, 10.001283 
2.9996762e+3, 1.5189652e+2, -1592094.5, -1333958.1, -196728.13, -0.119905636, -0.053987164, -1227738.1, 223680.61, 0.0, 9.999041, 10.002316 
2.999285e+3, 1.6189757e+2, -1741416.4, -1700855.4, -120348.03, 0.44709295, 0.63220537, -1599091.0, -245675.97, 0.0, 9.998514, 9.999487 
2.998883e+3, 1.7188768e+2, -775395.5, -1142279.3, 232686.7, 0.15406579, 0.4238974, -662536.8, 592970.44, 0.0, 10.004505, 9.999573 
2.9984853e+3, 1.8187542e+2, -315441.0, -826283.75, 566501.7, -0.012535896, -0.006439487, 50558.754, 1208183.5, 0.0, 10.00663, 10.000206 
2.998094e+3, 1.9187152e+2, -960308.9, -828379.8, 283833.56, 0.19691798, 0.16802742, -602946.3, 456718.22, 0.0, 10.000616, 10.002257 
2.997699e+3, 2.01865e+2, -1387854.1, -1291492.8, 4611.9, 0.15189126, 0.15275836, -1291272.5, -329542.28, 0.0, 9.998098, 9.999755 
2.9973057e+3, 2.1185896e+2, -891780.1, -756120.7, 33384.344, 0.60031295, 0.1695209, -748350.25, 115442.05, 0.0, 10.000087, 10.001607 
2.9969043e+3, 2.2185162e+2, -821849.5, -1043303.9, 80888.28, 0.20799102, 0.1524061, -795451.1, -29581.895, 0.0, 10.001254, 9.998578 
2.996501e+3, 2.3184474e+2, -577362.2, -762518.7, 31718.924, -0.52860785, 0.28719214, -572079.2, 95869.37, 0.0, 10.00204, 9.999258 
2.9961115e+3, 2.4184169e+2, -805373.44, -741508.6, -98449.664, -0.06248389, 0.7129834, -669942.2, -99955.86, 0.0, 9.999258, 10.000234 
2.9957157e+3, 2.5183284e+2, -930639.4, -531769.2, -328054.22, -0.423178, 0.3535846, -347285.13, 124783.48, 0.0, 9.997109, 10.00183 
2.9953232e+3, 2.6182503e+2, -673978.75, -788519.25, -276811.28, -0.4534817, 0.18076654, -448575.4, -74435.84, 0.0, 9.999736, 9.998348 
2.9949346e+3, 2.7181417e+2, -328390.78, -495700.78, -3834.1216, 0.17458613, -0.04849023, -328302.94, -52062.05, 0.0, 10.001444, 9.998665 
2.9945353e+3, 2.8180698e+2, -584642.0, -689878.9, -19309.178, -0.41978803, 0.10654393, -581211.0, -402902.7, 0.0, 9.999226, 9.99798 
2.9941514e+3, 2.917946e+2, -90529.42, -254657.6, 13506.8955, 0.5158884, -0.33420748, -89425.305, -8996.209, 0.0, 10.001664, 9.998988 
2.993751e+3, 3.017946e+2, 197237.14, 140418.98, 33926.855, -0.4599297, 0.4698897, 213078.56, 213078.56, 0.0, 10.001843, 10.001024 
